# vtk DataFile Version 2.0
Time step 71
ASCII
DATASET UNSTRUCTURED_GRID
POINTS 4650 float
209550.0 340716.0 0
290382.0 340762.0 0
202000.0 343401.0 0
206096.0 342732.0 0
212051.0 343815.0 0
215496.0 341803.0 0
222887.0 343490.0 0
236122.0 343459.0 0
243064.0 343312.0 0
248052.0 341638.0 0
252038.0 341716.0 0
256953.0 343526.0 0
263665.0 343539.0 0
276958.0 343755.0 0
284391.0 341853.0 0
287852.0 343848.0 0
293848.0 342757.0 0
298000.0 343395.0 0
204622.0 346463.0 0
208608.0 345826.0 0
215509.0 345789.0 0
218944.0 343797.0 0
226233.0 345572.0 0
232742.0 345563.0 0
239628.0 345343.0 0
246530.0 345295.0 0
253455.0 345419.0 0
260305.0 345662.0 0
267003.0 345688.0 0
273544.0 345794.0 0
280936.0 343855.0 0
284390.0 345838.0 0
291315.0 345842.0 0
295379.0 346459.0 0
202000.0 349484.0 0
212094.0 347789.0 0
218943.0 347769.0 0
222868.0 347689.0 0
229467.0 347764.0 0
236238.0 347434.0 0
243097.0 347279.0 0
249968.0 347293.0 0
256816.0 347519.0 0
263629.0 347795.0 0
270225.0 347958.0 0
276993.0 347792.0 0
280949.0 347835.0 0
287823.0 347826.0 0
298000.0 349481.0 0
205332.0 351704.0 0
208718.0 349786.0 0
215529.0 349765.0 0
226146.0 349859.0 0
232913.0 349573.0 0
239701.0 349307.0 0
243135.0 351217.0 0
246534.0 349248.0 0
249912.0 351269.0 0
253342.0 349384.0 0
256662.0 351495.0 0
260138.0 349655.0 0
266868.0 350002.0 0
273625.0 349884.0 0
284386.0 349818.0 0
291219.0 349816.0 0
294649.0 351684.0 0
201993.0 353697.0 0
208776.0 353751.0 0
212153.0 351773.0 0
215583.0 353739.0 0
218950.0 351713.0 0
222829.0 351944.0 0
226305.0 353825.0 0
229597.0 351727.0 0
233031.0 353525.0 0
236350.0 351394.0 0
239773.0 353235.0 0
246524.0 353191.0 0
253228.0 353353.0 0
259919.0 353644.0 0
263402.0 351828.0 0
266683.0 353985.0 0
270164.0 352085.0 0
273612.0 353828.0 0
277047.0 351824.0 0
280963.0 351795.0 0
284362.0 353798.0 0
287787.0 351815.0 0
291172.0 353799.0 0
298006.0 353672.0 0
205402.0 355684.0 0
212209.0 355745.0 0
219046.0 355638.0 0
223019.0 355886.0 0
229760.0 355694.0 0
236452.0 355313.0 0
243165.0 355124.0 0
249843.0 355232.0 0
256474.0 355474.0 0
263138.0 355789.0 0
269902.0 356236.0 0
276961.0 355776.0 0
280920.0 355737.0 0
287744.0 355800.0 0
294589.0 355664.0 0
201995.0 357637.0 0
208829.0 357717.0 0
215655.0 357688.0 0
220871.0 359057.0 0
226527.0 357779.0 0
233192.0 357446.0 0
239833.0 357124.0 0
243177.0 358986.0 0
246500.0 357123.0 0
249743.0 359200.0 0
253084.0 357330.0 0
256170.0 359574.0 0
259637.0 357645.0 0
266331.0 357928.0 0
273483.0 357736.0 0
278906.0 359091.0 0
284305.0 357767.0 0
291126.0 357782.0 0
298005.0 357612.0 0
201994.0 361535.0 0
205425.0 359603.0 0
208868.0 361670.0 0
212260.0 359699.0 0
217627.0 361043.0 0
224286.0 360848.0 0
230838.0 360427.0 0
236564.0 359212.0 0
239879.0 360983.0 0
246437.0 361057.0 0
252731.0 361543.0 0
259383.0 361617.0 0
262842.0 359746.0 0
269066.0 360561.0 0
275510.0 360956.0 0
282169.0 361059.0 0
287691.0 359771.0 0
291066.0 361760.0 0
294577.0 359580.0 0
298006.0 361516.0 0
205422.0 363449.0 0
214363.0 362982.0 0
221073.0 362939.0 0
227712.0 362581.0 0
231166.0 364353.0 0
234349.0 362259.0 0
237846.0 364093.0 0
243129.0 362778.0 0
249303.0 363500.0 0
255939.0 363551.0 0
262103.0 364255.0 0
265560.0 362397.0 0
268675.0 364537.0 0
272123.0 362760.0 0
278733.0 363008.0 0
285432.0 362981.0 0
294576.0 363431.0 0
201993.0 365398.0 0
205453.0 367194.0 0
211047.0 364921.0 0
214546.0 366833.0 0
217836.0 364941.0 0
221348.0 366801.0 0
224542.0 364735.0 0
228001.0 366487.0 0
234629.0 366133.0 0
241351.0 365938.0 0
245821.0 365355.0 0
248988.0 367440.0 0
252487.0 365520.0 0
258693.0 366125.0 0
265230.0 366364.0 0
271801.0 366682.0 0
275278.0 364874.0 0
278452.0 366921.0 0
281954.0 364985.0 0
285229.0 366847.0 0
288728.0 364921.0 0
294556.0 367192.0 0
298007.0 365402.0 0
201995.0 369228.0 0
209400.0 368294.0 0
218154.0 368795.0 0
224840.0 368602.0 0
231447.0 368234.0 0
238105.0 367908.0 0
241630.0 369655.0 0
245426.0 369214.0 0
255321.0 367982.0 0
261801.0 368221.0 0
268340.0 368485.0 0
274935.0 368774.0 0
281645.0 368866.0 0
290690.0 368171.0 0
298006.0 369280.0 0
206629.0 370657.0 0
209993.0 372249.0 0
212887.0 370097.0 0
216257.0 371907.0 0
221682.0 370651.0 0
228306.0 370360.0 0
231736.0 372090.0 0
234881.0 369966.0 0
238301.0 371663.0 0
248554.0 371382.0 0
251953.0 369756.0 0
254948.0 371955.0 0
258383.0 370095.0 0
261469.0 372174.0 0
264897.0 370317.0 0
267976.0 372420.0 0
271441.0 370600.0 0
278044.0 370821.0 0
283853.0 371760.0 0
287176.0 369936.0 0
290034.0 372155.0 0
293489.0 370686.0 0
201202.0 375111.0 0
203732.0 372586.0 0
207158.0 374438.0 0
213296.0 374038.0 0
219607.0 373641.0 0
222981.0 375332.0 0
225191.0 372456.0 0
228652.0 374220.0 0
235123.0 373788.0 0
241643.0 373359.0 0
245273.0 373198.0 0
251471.0 373785.0 0
258048.0 374036.0 0
264536.0 374259.0 0
271027.0 374526.0 0
274520.0 372682.0 0
277237.0 375112.0 0
280563.0 373459.0 0
286731.0 373943.0 0
292831.0 374430.0 0
296299.0 372624.0 0
298012.0 375021.0 0
199048.0 377892.0 0
202162.0 378967.0 0
204693.0 376801.0 0
210458.0 376189.0 0
216611.0 375806.0 0
219988.0 377502.0 0
226380.0 377035.0 0
232054.0 375945.0 0
238441.0 375454.0 0
241754.0 376989.0 0
248074.0 375757.0 0
254632.0 375879.0 0
261119.0 376118.0 0
267572.0 376355.0 0
273885.0 376789.0 0
280129.0 377369.0 0
283461.0 375708.0 0
289522.0 376172.0 0
295407.0 376588.0 0
297889.0 378852.0 0
301014.0 377918.0 0
192911.0 381727.0 0
195996.0 379800.0 0
199191.0 381170.0 0
207852.0 378443.0 0
210841.0 380344.0 0
213676.0 378015.0 0
217037.0 379696.0 0
223378.0 379188.0 0
229802.0 378771.0 0
233244.0 380544.0 0
235384.0 377638.0 0
238668.0 379260.0 0
245057.0 378180.0 0
248174.0 379941.0 0
251279.0 377740.0 0
254366.0 379844.0 0
257723.0 377981.0 0
260771.0 380070.0 0
264157.0 378203.0 0
267144.0 380316.0 0
270513.0 378516.0 0
276789.0 379031.0 0
283002.0 379630.0 0
286327.0 378004.0 0
289184.0 380333.0 0
292284.0 378317.0 0
300707.0 381205.0 0
304036.0 379824.0 0
307074.0 381718.0 0
189893.0 383617.0 0
196016.0 383135.0 0
199162.0 384437.0 0
202481.0 382568.0 0
205282.0 380718.0 0
208112.0 382782.0 0
214148.0 381935.0 0
220411.0 381370.0 0
223785.0 383048.0 0
226777.0 380888.0 0
230188.0 382619.0 0
236715.0 382314.0 0
241923.0 380701.0 0
244995.0 382108.0 0
251167.0 381923.0 0
257414.0 381955.0 0
263787.0 382161.0 0
270102.0 382465.0 0
273443.0 380721.0 0
276368.0 382942.0 0
279686.0 381277.0 0
285850.0 381927.0 0
291872.0 382776.0 0
294729.0 380641.0 0
297449.0 382522.0 0
300820.0 384428.0 0
303939.0 383108.0 0
310078.0 383598.0 0
186932.0 385472.0 0
190007.0 387079.0 0
192979.0 385129.0 0
196113.0 386522.0 0
202239.0 385809.0 0
205421.0 385140.0 0
211359.0 384273.0 0
217489.0 383585.0 0
220834.0 385246.0 0
227163.0 384740.0 0
233616.0 384377.0 0
240236.0 384022.0 0
243744.0 385756.0 0
247888.0 383914.0 0
254138.0 383943.0 0
260451.0 384034.0 0
266772.0 384272.0 0
273050.0 384639.0 0
279269.0 385184.0 0
282554.0 383544.0 0
288639.0 384287.0 0
294595.0 385100.0 0
297798.0 385820.0 0
303910.0 386476.0 0
307013.0 385100.0 0
309990.0 387064.0 0
313050.0 385461.0 0
178361.0 390829.0 0
184018.0 387298.0 0
187083.0 388999.0 0
193152.0 388567.0 0
199253.0 387840.0 0
202572.0 388925.0 0
208598.0 386697.0 0
211837.0 388193.0 0
214640.0 385855.0 0
217939.0 387484.0 0
224174.0 386914.0 0
230548.0 386464.0 0
233932.0 388219.0 0
237061.0 386128.0 0
240474.0 387874.0 0
247120.0 387683.0 0
250791.0 385889.0 0
253810.0 387883.0 0
257152.0 385955.0 0
260173.0 388008.0 0
263461.0 386123.0 0
266448.0 388223.0 0
269738.0 386399.0 0
275984.0 386847.0 0
282141.0 387452.0 0
285392.0 385848.0 0
288217.0 388189.0 0
291449.0 386687.0 0
297463.0 388932.0 0
300793.0 387819.0 0
306859.0 388545.0 0
312924.0 388994.0 0
315980.0 387296.0 0
321645.0 390833.0 0
175454.0 392634.0 0
181154.0 389088.0 0
184219.0 390893.0 0
190210.0 390572.0 0
193430.0 392017.0 0
196363.0 389954.0 0
199672.0 391198.0 0
205845.0 389142.0 0
209040.0 390589.0 0
215090.0 389766.0 0
221239.0 389134.0 0
224530.0 390788.0 0
227515.0 388587.0 0
230855.0 390314.0 0
237280.0 389992.0 0
243795.0 389690.0 0
250353.0 389717.0 0
256869.0 389902.0 0
263188.0 390089.0 0
269420.0 390323.0 0
272698.0 388540.0 0
275636.0 390747.0 0
278886.0 389092.0 0
284982.0 389747.0 0
291013.0 390578.0 0
294193.0 389133.0 0
300358.0 391166.0 0
303668.0 389925.0 0
306585.0 392005.0 0
309800.0 390562.0 0
315794.0 390900.0 0
318845.0 389102.0 0
324553.0 392639.0 0
172382.0 394546.0 0
178604.0 394195.0 0
181465.0 392776.0 0
187286.0 392569.0 0
190489.0 394071.0 0
196724.0 393358.0 0
203045.0 392184.0 0
206250.0 393044.0 0
212253.0 392089.0 0
215485.0 393656.0 0
218354.0 391386.0 0
221618.0 393035.0 0
227817.0 392425.0 0
234151.0 392100.0 0
240562.0 391795.0 0
243787.0 393657.0 0
247027.0 391631.0 0
250207.0 393648.0 0
253512.0 391765.0 0
256633.0 393820.0 0
259930.0 391964.0 0
266190.0 392181.0 0
272387.0 392413.0 0
278511.0 393010.0 0
281745.0 391359.0 0
284590.0 393638.0 0
287810.0 392074.0 0
293791.0 393035.0 0
296978.0 392170.0 0
303293.0 393338.0 0
309518.0 394066.0 0
312723.0 392567.0 0
318542.0 392794.0 0
321394.0 394200.0 0
327627.0 394552.0 0
169343.0 396449.0 0
172350.0 397833.0 0
175380.0 395849.0 0
178360.0 397331.0 0
184399.0 394584.0 0
187559.0 396131.0 0
193761.0 395476.0 0
197058.0 396798.0 0
200067.0 394576.0 0
203348.0 395687.0 0
209404.0 394458.0 0
212581.0 395948.0 0
218748.0 395278.0 0
224864.0 394682.0 0
231076.0 394189.0 0
234214.0 396040.0 0
237378.0 393917.0 0
240592.0 395747.0 0
246968.0 395604.0 0
253355.0 395693.0 0
259737.0 395893.0 0
262995.0 394055.0 0
266085.0 396166.0 0
269176.0 394252.0 0
275296.0 394650.0 0
281340.0 395265.0 0
287477.0 395933.0 0
290647.0 394443.0 0
296688.0 395668.0 0
299959.0 394546.0 0
302955.0 396787.0 0
306249.0 395467.0 0
312441.0 396136.0 0
315608.0 394601.0 0
321662.0 397306.0 0
324634.0 395849.0 0
327644.0 397843.0 0
330657.0 396450.0 0
163317.0 400223.0 0
166332.0 398336.0 0
169379.0 399794.0 0
175368.0 399179.0 0
178678.0 400263.0 0
181532.0 396620.0 0
184637.0 398215.0 0
190804.0 397579.0 0
194070.0 398967.0 0
200330.0 398065.0 0
203536.0 399312.0 0
206507.0 396859.0 0
209646.0 398275.0 0
215788.0 397500.0 0
222060.0 396954.0 0
225463.0 398696.0 0
228061.0 396251.0 0
231007.0 398138.0 0
237414.0 397853.0 0
243774.0 397635.0 0
250121.0 397609.0 0
256483.0 397751.0 0
262843.0 397979.0 0
269261.0 398275.0 0
272135.0 396251.0 0
274646.0 398721.0 0
278036.0 396951.0 0
284278.0 397489.0 0
290394.0 398264.0 0
293531.0 396848.0 0
296485.0 399301.0 0
299688.0 398049.0 0
305934.0 398966.0 0
309199.0 397578.0 0
315358.0 398230.0 0
318481.0 396646.0 0
321275.0 400226.0 0
324609.0 399180.0 0
330611.0 399796.0 0
333663.0 398333.0 0
336677.0 400219.0 0
160285.0 402120.0 0
166389.0 401710.0 0
169524.0 403153.0 0
172483.0 401190.0 0
175759.0 402405.0 0
181854.0 400436.0 0
185026.0 401863.0 0
187868.0 399685.0 0
191118.0 401118.0 0
197322.0 400320.0 0
200536.0 401655.0 0
206681.0 400625.0 0
212809.0 399759.0 0
215996.0 401303.0 0
219027.0 399105.0 0
222289.0 400755.0 0
234217.0 399937.0 0
240601.0 399708.0 0
243763.0 401616.0 0
246929.0 399587.0 0
250067.0 401585.0 0
253257.0 399645.0 0
256382.0 401696.0 0
259601.0 399820.0 0
265977.0 400049.0 0
277789.0 400761.0 0
281045.0 399100.0 0
284055.0 401300.0 0
287236.0 399751.0 0
293344.0 400621.0 0
299471.0 401654.0 0
302682.0 400320.0 0
308876.0 401127.0 0
312123.0 399697.0 0
314952.0 401889.0 0
318111.0 400465.0 0
324209.0 402392.0 0
327494.0 401189.0 0
330459.0 403148.0 0
333603.0 401707.0 0
339709.0 402116.0 0
157233.0 404028.0 0
160333.0 405525.0 0
163372.0 403618.0 0
166514.0 405089.0 0
172767.0 404475.0 0
176057.0 405640.0 0
179109.0 403350.0 0
182235.0 404156.0 0
188225.0 403293.0 0
191428.0 404727.0 0
194353.0 402527.0 0
197560.0 403926.0 0
203698.0 402999.0 0
206822.0 404377.0 0
209817.0 402052.0 0
212970.0 403536.0 0
219189.0 402907.0 0
225537.0 402440.0 0
228383.0 404441.0 0
230896.0 401867.0 0
234219.0 403798.0 0
237427.0 401782.0 0
240607.0 403670.0 0
246904.0 403574.0 0
253194.0 403612.0 0
259500.0 403754.0 0
262722.0 401888.0 0
265857.0 403918.0 0
269195.0 402010.0 0
271724.0 404494.0 0
274525.0 402448.0 0
280867.0 402908.0 0
287065.0 403536.0 0
290212.0 402050.0 0
293194.0 404380.0 0
296314.0 402998.0 0
302440.0 403935.0 0
305644.0 402536.0 0
308566.0 404743.0 0
311764.0 403312.0 0
317756.0 404180.0 0
320877.0 403342.0 0
323936.0 405632.0 0
327215.0 404467.0 0
333475.0 405083.0 0
336620.0 403613.0 0
339661.0 405521.0 0
342761.0 404024.0 0
151057.0 407888.0 0
154159.0 405950.0 0
157272.0 407439.0 0
163476.0 407021.0 0
169724.0 406489.0 0
172967.0 407783.0 0
179283.0 406690.0 0
182429.0 407784.0 0
185357.0 405523.0 0
188520.0 406930.0 0
194619.0 406160.0 0
200725.0 405326.0 0
203846.0 406732.0 0
209947.0 405807.0 0
216128.0 405090.0 0
219257.0 406730.0 0
222349.0 404575.0 0
225332.0 406420.0 0
231424.0 406171.0 0
237447.0 405713.0 0
243757.0 405599.0 0
250032.0 405569.0 0
256313.0 405655.0 0
262609.0 405812.0 0
268673.0 406204.0 0
274738.0 406441.0 0
277704.0 404578.0 0
280783.0 406730.0 0
283911.0 405091.0 0
290074.0 405812.0 0
296161.0 406739.0 0
299278.0 405334.0 0
305378.0 406174.0 0
311477.0 406948.0 0
314637.0 405545.0 0
317574.0 407802.0 0
320719.0 406692.0 0
327031.0 407777.0 0
330267.0 406482.0 0
336517.0 407016.0 0
342722.0 407435.0 0
345836.0 405946.0 0
348939.0 407885.0 0
147921.0 409847.0 0
154184.0 409354.0 0
160421.0 408944.0 0
163603.0 410446.0 0
166664.0 408473.0 0
169881.0 409862.0 0
176201.0 408978.0 0
179411.0 410131.0 0
185582.0 409149.0 0
191698.0 408381.0 0
194870.0 409842.0 0
197787.0 407606.0 0
200916.0 409066.0 0
206945.0 408130.0 0
210050.0 409549.0 0
213081.0 407297.0 0
216195.0 408883.0 0
222289.0 408501.0 0
228367.0 408311.0 0
234494.0 407950.0 0
240617.0 407640.0 0
246889.0 407564.0 0
250012.0 409557.0 0
253153.0 407590.0 0
259421.0 407709.0 0
265582.0 407971.0 0
271696.0 408347.0 0
277757.0 408509.0 0
283833.0 408885.0 0
286945.0 407301.0 0
289966.0 409557.0 0
293067.0 408138.0 0
299086.0 409077.0 0
302212.0 407618.0 0
305129.0 409856.0 0
308299.0 408397.0 0
314419.0 409166.0 0
320594.0 410137.0 0
323801.0 408975.0 0
330118.0 409857.0 0
333331.0 408467.0 0
336393.0 410441.0 0
339574.0 408939.0 0
345811.0 409351.0 0
352076.0 409845.0 0
144747.0 411831.0 0
147891.0 413225.0 0
151060.0 411282.0 0
154237.0 412765.0 0
157345.0 410864.0 0
160534.0 412382.0 0
166810.0 411895.0 0
170037.0 413297.0 0
173110.0 411162.0 0
176344.0 412396.0 0
182600.0 411365.0 0
185798.0 412764.0 0
188762.0 410564.0 0
191951.0 412063.0 0
198031.0 411344.0 0
204002.0 410512.0 0
207069.0 411889.0 0
213148.0 411054.0 0
219240.0 410601.0 0
225299.0 410356.0 0
228328.0 412218.0 0
231429.0 410105.0 0
234489.0 411920.0 0
237576.0 409788.0 0
240665.0 411672.0 0
243755.0 409588.0 0
246880.0 411556.0 0
253131.0 411574.0 0
256268.0 409629.0 0
259364.0 411697.0 0
262475.0 409808.0 0
265545.0 411938.0 0
268619.0 410130.0 0
271706.0 412238.0 0
274746.0 410373.0 0
280790.0 410603.0 0
286871.0 411059.0 0
292940.0 411899.0 0
296003.0 410523.0 0
301969.0 411356.0 0
308048.0 412077.0 0
311237.0 410580.0 0
314203.0 412778.0 0
317403.0 411379.0 0
323660.0 412396.0 0
326892.0 411159.0 0
329964.0 413295.0 0
333189.0 411891.0 0
339463.0 412377.0 0
342651.0 410860.0 0
345760.0 412761.0 0
348937.0 411280.0 0
352106.0 413223.0 0
355251.0 411830.0 0
138317.0 415853.0 0
141539.0 413837.0 0
144682.0 415210.0 0
151084.0 414678.0 0
157444.0 414308.0 0
160672.0 415844.0 0
163747.0 413911.0 0
166976.0 415363.0 0
173279.0 414606.0 0
179577.0 413621.0 0
182816.0 414932.0 0
189000.0 414195.0 0
195134.0 413546.0 0
198348.0 415120.0 0
201159.0 412877.0 0
204232.0 414358.0 0
210137.0 413284.0 0
213131.0 414833.0 0
216185.0 412701.0 0
219157.0 414486.0 0
222234.0 412423.0 0
225218.0 414287.0 0
231369.0 414044.0 0
237557.0 413773.0 0
243764.0 413593.0 0
250001.0 413547.0 0
256248.0 413615.0 0
262466.0 413790.0 0
268655.0 414059.0 0
274806.0 414296.0 0
277795.0 412428.0 0
280862.0 414484.0 0
283835.0 412702.0 0
286882.0 414837.0 0
289875.0 413294.0 0
295772.0 414370.0 0
298843.0 412889.0 0
301652.0 415132.0 0
304865.0 413558.0 0
310999.0 414208.0 0
317185.0 414943.0 0
320426.0 413627.0 0
326724.0 414605.0 0
333023.0 415361.0 0
336251.0 413907.0 0
339326.0 415840.0 0
342554.0 414305.0 0
348914.0 414675.0 0
355317.0 415209.0 0
358459.0 413836.0 0
361682.0 415853.0 0
135100.0 417867.0 0
141453.0 417244.0 0
147883.0 416594.0 0
151130.0 418076.0 0
154311.0 416178.0 0
157564.0 417777.0 0
163921.0 417429.0 0
170235.0 416794.0 0
173515.0 418101.0 0
176541.0 415873.0 0
179820.0 417133.0 0
183117.0 418499.0 0
186050.0 416401.0 0
189252.0 417818.0 0
192195.0 415780.0 0
195371.0 417214.0 0
201587.0 416769.0 0
207253.0 415666.0 0
210125.0 417062.0 0
216050.0 416532.0 0
222097.0 416347.0 0
228221.0 416144.0 0
234421.0 415881.0 0
240638.0 415661.0 0
246873.0 415550.0 0
253126.0 415559.0 0
259372.0 415677.0 0
265595.0 415893.0 0
271796.0 416153.0 0
277919.0 416346.0 0
283961.0 416529.0 0
289882.0 417073.0 0
292752.0 415678.0 0
298414.0 416781.0 0
304627.0 417224.0 0
307803.0 415792.0 0
310746.0 417831.0 0
313949.0 416413.0 0
316882.0 418509.0 0
320181.0 417139.0 0
323462.0 415874.0 0
326488.0 418099.0 0
329766.0 416795.0 0
336079.0 417427.0 0
342435.0 417775.0 0
345687.0 416174.0 0
348868.0 418073.0 0
352115.0 416591.0 0
358546.0 417244.0 0
364899.0 417867.0 0
131900.0 419870.0 0
138236.0 419310.0 0
141416.0 420671.0 0
144647.0 418588.0 0
147903.0 419945.0 0
154405.0 419584.0 0
160832.0 419319.0 0
164124.0 421020.0 0
167184.0 418866.0 0
170507.0 420353.0 0
176840.0 419386.0 0
186356.0 420118.0 0
192423.0 419585.0 0
198647.0 418846.0 0
204891.0 418350.0 0
208255.0 420159.0 0
212900.0 418631.0 0
218938.0 418371.0 0
225048.0 418217.0 0
228046.0 420067.0 0
231252.0 417983.0 0
234307.0 419828.0 0
237489.0 417743.0 0
240578.0 419632.0 0
243736.0 417581.0 0
246855.0 419529.0 0
249997.0 417531.0 0
253138.0 419533.0 0
256263.0 417592.0 0
259421.0 419639.0 0
262519.0 417753.0 0
265700.0 419832.0 0
268760.0 417989.0 0
271963.0 420067.0 0
274965.0 418218.0 0
278180.0 420256.0 0
281070.0 418364.0 0
287104.0 418634.0 0
291753.0 420166.0 0
295113.0 418363.0 0
301350.0 418857.0 0
307574.0 419598.0 0
313642.0 420131.0 0
323161.0 419389.0 0
329496.0 420357.0 0
332817.0 418864.0 0
335877.0 421018.0 0
339168.0 419316.0 0
345594.0 419581.0 0
352096.0 419943.0 0
355352.0 418586.0 0
358584.0 420670.0 0
361763.0 419310.0 0
368099.0 419870.0 0
125515.0 423865.0 0
128711.0 421866.0 0
131893.0 423416.0 0
135051.0 421378.0 0
138228.0 422811.0 0
144652.0 421962.0 0
147953.0 423270.0 0
151192.0 421486.0 0
154483.0 422961.0 0
157691.0 421288.0 0
160983.0 422766.0 0
167441.0 422353.0 0
173860.0 421613.0 0
177290.0 422912.0 0
180199.0 420649.0 0
183585.0 422074.0 0
189463.0 421397.0 0
192056.0 423718.0 0
195593.0 420759.0 0
198849.0 422572.0 0
201869.0 420614.0 0
205067.0 422122.0 0
211598.0 422050.0 0
215689.0 420322.0 0
218502.0 422216.0 0
221828.0 420261.0 0
224795.0 422123.0 0
231084.0 421907.0 0
237389.0 421693.0 0
243692.0 421548.0 0
249996.0 421500.0 0
256302.0 421552.0 0
262612.0 421695.0 0
268922.0 421905.0 0
275213.0 422117.0 0
281503.0 422205.0 0
284313.0 420312.0 0
288408.0 422048.0 0
294935.0 422137.0 0
298129.0 420629.0 0
301145.0 422583.0 0
304402.0 420766.0 0
307941.0 423728.0 0
310534.0 421409.0 0
316418.0 422085.0 0
319801.0 420654.0 0
322710.0 422914.0 0
326146.0 421607.0 0
332561.0 422349.0 0
339019.0 422763.0 0
342309.0 421286.0 0
345516.0 422958.0 0
348807.0 421483.0 0
352046.0 423267.0 0
355347.0 421961.0 0
361771.0 422812.0 0
364947.0 421378.0 0
368105.0 423416.0 0
371287.0 421865.0 0
374483.0 423864.0 0
122284.0 425884.0 0
128737.0 425422.0 0
135090.0 424945.0 0
141446.0 424126.0 0
144729.0 425335.0 0
151251.0 424953.0 0
154451.0 426270.0 0
157720.0 424888.0 0
161038.0 426009.0 0
164356.0 424724.0 0
167849.0 425651.0 0
170940.0 423972.0 0
174447.0 425098.0 0
180637.0 424143.0 0
188027.0 424450.0 0
195580.0 424023.0 0
201863.0 424612.0 0
208413.0 423973.0 0
214850.0 423885.0 0
221474.0 424120.0 0
227813.0 423969.0 0
234160.0 423754.0 0
240500.0 423581.0 0
246831.0 423488.0 0
253162.0 423489.0 0
259497.0 423581.0 0
265842.0 423750.0 0
272194.0 423962.0 0
278532.0 424112.0 0
285152.0 423866.0 0
291585.0 423974.0 0
298131.0 424631.0 0
304418.0 424026.0 0
311985.0 424456.0 0
319376.0 424150.0 0
325559.0 425072.0 0
329066.0 423984.0 0
332169.0 425638.0 0
335652.0 424723.0 0
338966.0 426008.0 0
342281.0 424887.0 0
345550.0 426268.0 0
348748.0 424951.0 0
355269.0 425333.0 0
358553.0 424124.0 0
364908.0 424946.0 0
371261.0 425422.0 0
377714.0 425883.0 0
119012.0 427929.0 0
125526.0 427405.0 0
131987.0 427008.0 0
135266.0 428588.0 0
138299.0 426365.0 0
141528.0 427604.0 0
144777.0 428669.0 0
148105.0 426547.0 0
151425.0 428638.0 0
158485.0 428601.0 0
165588.0 428414.0 0
169183.0 428700.0 0
172194.0 427530.0 0
177549.0 426592.0 0
181083.0 427344.0 0
184393.0 425346.0 0
187223.0 427928.0 0
190787.0 427203.0 0
194464.0 427074.0 0
198386.0 426309.0 0
205293.0 425663.0 0
208265.0 427990.0 0
211486.0 425946.0 0
214656.0 427582.0 0
218031.0 425915.0 0
221091.0 427972.0 0
224481.0 425998.0 0
227547.0 427840.0 0
230883.0 425807.0 0
234000.0 427653.0 0
237271.0 425618.0 0
240413.0 427505.0 0
243639.0 425492.0 0
246805.0 427425.0 0
249997.0 425449.0 0
253192.0 427424.0 0
256357.0 425491.0 0
259586.0 427500.0 0
262728.0 425613.0 0
266002.0 427641.0 0
269121.0 425796.0 0
272459.0 427823.0 0
275528.0 425986.0 0
278920.0 427964.0 0
281971.0 425898.0 0
285340.0 427556.0 0
288516.0 425944.0 0
291755.0 427983.0 0
294699.0 425671.0 0
301620.0 426314.0 0
305549.0 427071.0 0
309227.0 427206.0 0
312788.0 427936.0 0
315616.0 425355.0 0
318929.0 427331.0 0
322479.0 426601.0 0
327764.0 427536.0 0
330807.0 428664.0 0
334408.0 428413.0 0
341509.0 428602.0 0
348572.0 428636.0 0
351891.0 426545.0 0
355219.0 428667.0 0
358469.0 427602.0 0
361699.0 426366.0 0
364730.0 428590.0 0
368010.0 427009.0 0
374472.0 427405.0 0
380987.0 427928.0 0
112410.0 432057.0 0
115715.0 429990.0 0
118942.0 431468.0 0
122246.0 429411.0 0
125514.0 430930.0 0
128810.0 428987.0 0
132150.0 430613.0 0
138591.0 430011.0 0
142042.0 431153.0 0
148013.0 429579.0 0
155051.0 429259.0 0
162208.0 428947.0 0
171709.0 431357.0 0
175100.0 429564.0 0
178872.0 429945.0 0
183874.0 428830.0 0
193114.0 430323.0 0
196945.0 429765.0 0
200738.0 429085.0 0
204411.0 428888.0 0
210578.0 431027.0 0
217742.0 429758.0 0
224146.0 429851.0 0
230681.0 429674.0 0
237149.0 429520.0 0
243582.0 429414.0 0
250000.0 429376.0 0
256418.0 429410.0 0
262852.0 429509.0 0
269325.0 429655.0 0
275862.0 429831.0 0
282276.0 429740.0 0
289440.0 431009.0 0
295599.0 428893.0 0
299274.0 429088.0 0
303069.0 429767.0 0
306900.0 430325.0 0
316143.0 428841.0 0
321118.0 429923.0 0
324895.0 429621.0 0
328315.0 431338.0 0
337786.0 428944.0 0
344944.0 429256.0 0
351982.0 429579.0 0
357953.0 431152.0 0
361405.0 430011.0 0
367846.0 430615.0 0
371186.0 428988.0 0
374484.0 430930.0 0
377752.0 429410.0 0
381056.0 431468.0 0
384283.0 429989.0 0
387588.0 432056.0 0
109105.0 434124.0 0
115632.0 433556.0 0
122200.0 432944.0 0
128799.0 432522.0 0
135589.0 432275.0 0
139297.0 433622.0 0
145650.0 432087.0 0
149615.0 432155.0 0
153094.0 432036.0 0
156869.0 432073.0 0
160398.0 431912.0 0
164156.0 431878.0 0
167771.0 431706.0 0
173498.0 434574.0 0
176943.0 432645.0 0
181949.0 431722.0 0
185851.0 431495.0 0
189482.0 430783.0 0
195438.0 433207.0 0
199220.0 432652.0 0
202950.0 432223.0 0
206810.0 431623.0 0
214301.0 431106.0 0
220675.0 431945.0 0
227312.0 431672.0 0
233845.0 431528.0 0
240325.0 431408.0 0
246779.0 431341.0 0
253224.0 431339.0 0
259678.0 431400.0 0
266160.0 431509.0 0
272699.0 431648.0 0
279355.0 431940.0 0
285734.0 431077.0 0
293195.0 431636.0 0
297065.0 432222.0 0
300797.0 432655.0 0
304574.0 433211.0 0
310530.0 430788.0 0
314163.0 431503.0 0
318070.0 431738.0 0
322976.0 432655.0 0
326475.0 434502.0 0
332226.0 431697.0 0
335840.0 431878.0 0
339595.0 431912.0 0
343124.0 432073.0 0
346899.0 432034.0 0
350379.0 432154.0 0
354345.0 432086.0 0
360696.0 433621.0 0
364407.0 432277.0 0
371197.0 432522.0 0
377797.0 432943.0 0
384366.0 433556.0 0
390893.0 434123.0 0
105781.0 436202.0 0
112341.0 435653.0 0
115574.0 437177.0 0
118868.0 435031.0 0
122128.0 436478.0 0
125493.0 434462.0 0
132054.0 434141.0 0
135116.0 435785.0 0
143161.0 434534.0 0
147405.0 434969.0 0
151205.0 435192.0 0
154903.0 435148.0 0
158621.0 435166.0 0
162306.0 435044.0 0
166043.0 434969.0 0
169791.0 434705.0 0
176835.0 435761.0 0
180289.0 434852.0 0
184125.0 434665.0 0
187973.0 434279.0 0
191683.0 433753.0 0
201437.0 435683.0 0
205244.0 435147.0 0
209031.0 434649.0 0
212794.0 434306.0 0
217108.0 433673.0 0
220161.0 435982.0 0
223903.0 433659.0 0
227130.0 435492.0 0
230503.0 433523.0 0
233703.0 435391.0 0
237032.0 433403.0 0
240244.0 435294.0 0
243527.0 433316.0 0
246755.0 435240.0 0
250003.0 433284.0 0
253255.0 435237.0 0
256479.0 433310.0 0
259764.0 435283.0 0
262973.0 433386.0 0
266304.0 435365.0 0
269507.0 433495.0 0
272888.0 435457.0 0
276115.0 433631.0 0
279843.0 435910.0 0
282932.0 433646.0 0
287232.0 434289.0 0
290975.0 434641.0 0
294783.0 435155.0 0
298587.0 435685.0 0
308327.0 433757.0 0
312033.0 434284.0 0
315875.0 434675.0 0
319694.0 434889.0 0
323176.0 435771.0 0
330188.0 434706.0 0
333942.0 434967.0 0
337683.0 435045.0 0
341370.0 435166.0 0
345089.0 435147.0 0
348787.0 435191.0 0
352587.0 434968.0 0
356833.0 434533.0 0
364882.0 435788.0 0
367942.0 434142.0 0
374504.0 434462.0 0
377870.0 436477.0 0
381130.0 435031.0 0
384423.0 437176.0 0
387656.0 435652.0 0
394218.0 436201.0 0
102432.0 438298.0 0
105738.0 439776.0 0
109053.0 437705.0 0
112321.0 439313.0 0
118808.0 438635.0 0
125409.0 437973.0 0
128800.0 436125.0 0
132082.0 437893.0 0
138252.0 436949.0 0
141634.0 437487.0 0
145304.0 437705.0 0
149117.0 438104.0 0
152918.0 438271.0 0
156654.0 438297.0 0
160402.0 438278.0 0
164127.0 438193.0 0
167870.0 438069.0 0
171544.0 437942.0 0
178919.0 438406.0 0
182538.0 437930.0 0
186319.0 437598.0 0
190118.0 437187.0 0
193889.0 436675.0 0
197664.0 436156.0 0
203650.0 438669.0 0
207462.0 438175.0 0
211299.0 437740.0 0
215246.0 437138.0 0
223728.0 437438.0 0
230343.0 437374.0 0
236930.0 437271.0 0
243478.0 437203.0 0
250007.0 437177.0 0
256535.0 437197.0 0
263080.0 437252.0 0
269668.0 437333.0 0
276293.0 437408.0 0
284762.0 437124.0 0
288717.0 437740.0 0
292562.0 438184.0 0
296372.0 438674.0 0
302350.0 436163.0 0
306119.0 436683.0 0
309885.0 437193.0 0
313677.0 437608.0 0
317452.0 437951.0 0
321079.0 438419.0 0
328440.0 437942.0 0
332118.0 438070.0 0
335862.0 438193.0 0
339589.0 438278.0 0
343338.0 438297.0 0
347075.0 438270.0 0
350877.0 438103.0 0
354690.0 437703.0 0
358362.0 437485.0 0
361744.0 436947.0 0
367915.0 437894.0 0
371197.0 436125.0 0
374588.0 437973.0 0
381189.0 438635.0 0
387676.0 439312.0 0
390945.0 437704.0 0
394260.0 439775.0 0
397566.0 438297.0 0
95663.6 442528.0 0
99070.1 440403.0 0
102408.0 441910.0 0
109075.0 441308.0 0
115541.0 440869.0 0
122079.0 440032.0 0
125411.0 441505.0 0
128631.0 439732.0 0
131635.0 441449.0 0
135608.0 439495.0 0
139455.0 440367.0 0
143290.0 440725.0 0
147041.0 441014.0 0
150843.0 441287.0 0
154635.0 441429.0 0
158403.0 441462.0 0
162159.0 441441.0 0
165896.0 441371.0 0
169598.0 441310.0 0
175027.0 438447.0 0
184637.0 440949.0 0
188437.0 440570.0 0
192246.0 440130.0 0
196041.0 439645.0 0
199836.0 439167.0 0
209592.0 441259.0 0
213403.0 440798.0 0
217163.0 440362.0 0
220887.0 439891.0 0
226939.0 439316.0 0
233591.0 439244.0 0
240174.0 439169.0 0
246735.0 439125.0 0
253283.0 439123.0 0
259841.0 439157.0 0
266421.0 439212.0 0
273076.0 439268.0 0
279158.0 439833.0 0
282867.0 440346.0 0
286618.0 440793.0 0
290425.0 441259.0 0
300175.0 439175.0 0
303963.0 439656.0 0
307755.0 440140.0 0
311560.0 440580.0 0
315356.0 440962.0 0
324967.0 438464.0 0
330395.0 441315.0 0
334095.0 441373.0 0
337832.0 441442.0 0
341588.0 441462.0 0
345357.0 441428.0 0
349150.0 441285.0 0
352953.0 441011.0 0
356704.0 440723.0 0
360539.0 440365.0 0
364387.0 439496.0 0
368364.0 441450.0 0
371367.0 439732.0 0
374587.0 441505.0 0
377918.0 440032.0 0
384456.0 440869.0 0
390922.0 441305.0 0
397590.0 441909.0 0
400928.0 440402.0 0
404335.0 442527.0 0
92311.8 444630.0 0
98874.8 444033.0 0
105783.0 443359.0 0
109159.0 444901.0 0
112369.0 443091.0 0
115567.0 444669.0 0
118764.0 442275.0 0
122066.0 443560.0 0
125388.0 444890.0 0
128659.0 443612.0 0
134588.0 442837.0 0
137870.0 443390.0 0
141401.0 443722.0 0
145066.0 444057.0 0
173215.0 441467.0 0
177030.0 441511.0 0
180878.0 441338.0 0
190522.0 443558.0 0
194344.0 443119.0 0
198157.0 442659.0 0
201974.0 442187.0 0
205787.0 441713.0 0
215495.0 443953.0 0
219288.0 443524.0 0
223087.0 443080.0 0
226880.0 443073.0 0
230237.0 441220.0 0
233482.0 443100.0 0
236844.0 441135.0 0
240126.0 443036.0 0
243438.0 441079.0 0
246714.0 443003.0 0
250011.0 441059.0 0
253312.0 443001.0 0
256583.0 441074.0 0
259899.0 443026.0 0
263173.0 441115.0 0
266535.0 443063.0 0
269779.0 441165.0 0
273146.0 443013.0 0
276936.0 443012.0 0
280729.0 443489.0 0
284521.0 443939.0 0
294228.0 441721.0 0
298032.0 442195.0 0
301844.0 442670.0 0
305654.0 443130.0 0
309474.0 443568.0 0
319116.0 441351.0 0
322963.0 441525.0 0
326779.0 441478.0 0
354928.0 444054.0 0
358594.0 443719.0 0
362127.0 443385.0 0
365411.0 442836.0 0
371339.0 443613.0 0
374610.0 444890.0 0
377932.0 443560.0 0
381234.0 442275.0 0
384431.0 444670.0 0
387627.0 443091.0 0
390837.0 444897.0 0
394214.0 443357.0 0
401123.0 444032.0 0
407686.0 444628.0 0
88979.7 446720.0 0
95593.3 446218.0 0
98877.8 447761.0 0
102059.0 445515.0 0
105252.0 446867.0 0
112370.0 447072.0 0
118953.0 445934.0 0
122367.0 447120.0 0
131907.0 445303.0 0
135582.0 446278.0 0
139280.0 446775.0 0
148793.0 444315.0 0
152574.0 444520.0 0
156365.0 444631.0 0
160144.0 444665.0 0
163909.0 444651.0 0
167650.0 444621.0 0
171365.0 444662.0 0
175155.0 444662.0 0
179012.0 444563.0 0
182873.0 444319.0 0
186694.0 443955.0 0
196423.0 446147.0 0
200252.0 445701.0 0
204075.0 445251.0 0
207888.0 444810.0 0
211697.0 444373.0 0
230082.0 445134.0 0
236813.0 444989.0 0
243395.0 444957.0 0
250015.0 444933.0 0
256635.0 444952.0 0
263217.0 444972.0 0
269942.0 445052.0 0
288315.0 444367.0 0
292119.0 444812.0 0
295928.0 445260.0 0
299746.0 445712.0 0
303573.0 446159.0 0
313299.0 443967.0 0
317119.0 444330.0 0
320980.0 444575.0 0
324838.0 444673.0 0
328629.0 444670.0 0
332342.0 444626.0 0
336082.0 444654.0 0
339847.0 444667.0 0
343627.0 444632.0 0
347418.0 444519.0 0
351200.0 444313.0 0
360716.0 446770.0 0
364415.0 446275.0 0
368091.0 445303.0 0
377629.0 447121.0 0
381044.0 445934.0 0
387629.0 447074.0 0
394745.0 446865.0 0
397939.0 445515.0 0
401119.0 447761.0 0
404404.0 446217.0 0
411018.0 446719.0 0
82275.5 450917.0 0
85632.0 448814.0 0
92323.2 448364.0 0
102166.0 449263.0 0
108461.0 448237.0 0
116009.0 448434.0 0
119616.0 449609.0 0
125911.0 448075.0 0
129439.0 448030.0 0
133130.0 448886.0 0
136959.0 449666.0 0
142973.0 447121.0 0
146711.0 447406.0 0
150485.0 447622.0 0
154289.0 447782.0 0
158098.0 447872.0 0
161896.0 447904.0 0
165682.0 447902.0 0
169458.0 447904.0 0
173270.0 447878.0 0
177125.0 447789.0 0
181008.0 447609.0 0
184885.0 447330.0 0
188740.0 446971.0 0
192587.0 446573.0 0
202330.0 448782.0 0
206157.0 448359.0 0
209976.0 447941.0 0
213783.0 447534.0 0
217584.0 447133.0 0
221371.0 446718.0 0
225153.0 446425.0 0
233536.0 446898.0 0
240053.0 446923.0 0
243366.0 448824.0 0
246699.0 446874.0 0
250018.0 448802.0 0
253335.0 446871.0 0
256673.0 448817.0 0
259983.0 446913.0 0
266505.0 446868.0 0
274864.0 446363.0 0
278642.0 446680.0 0
282425.0 447109.0 0
286224.0 447523.0 0
290027.0 447941.0 0
293841.0 448366.0 0
297665.0 448793.0 0
307407.0 446586.0 0
311252.0 446983.0 0
315106.0 447342.0 0
318983.0 447621.0 0
322866.0 447799.0 0
326722.0 447887.0 0
330534.0 447911.0 0
334310.0 447907.0 0
338096.0 447907.0 0
341894.0 447873.0 0
345703.0 447782.0 0
349507.0 447621.0 0
353282.0 447403.0 0
357022.0 447117.0 0
363036.0 449662.0 0
366865.0 448886.0 0
370556.0 448032.0 0
374084.0 448075.0 0
380380.0 449609.0 0
383988.0 448435.0 0
391532.0 448230.0 0
397829.0 449262.0 0
407675.0 448363.0 0
414366.0 448813.0 0
417723.0 450916.0 0
78919.5 453020.0 0
85680.3 452614.0 0
89016.5 450479.0 0
92457.9 452121.0 0
95715.0 449971.0 0
99158.5 451561.0 0
105492.0 450506.0 0
107591.0 453174.0 0
110543.0 450635.0 0
113789.0 451420.0 0
123276.0 450618.0 0
127076.0 451255.0 0
130712.0 451663.0 0
140747.0 450165.0 0
144540.0 450496.0 0
148353.0 450745.0 0
152180.0 450932.0 0
156016.0 451062.0 0
159850.0 451137.0 0
163678.0 451163.0 0
167504.0 451161.0 0
171347.0 451125.0 0
175218.0 451040.0 0
179112.0 450890.0 0
183014.0 450665.0 0
186907.0 450366.0 0
190782.0 450010.0 0
194644.0 449620.0 0
198493.0 449207.0 0
208235.0 451501.0 0
212054.0 451111.0 0
215855.0 450731.0 0
219623.0 450375.0 0
223342.0 450019.0 0
227003.0 449671.0 0
230534.0 448968.0 0
236678.0 448916.0 0
240020.0 450782.0 0
246686.0 450743.0 0
253354.0 450739.0 0
260026.0 450770.0 0
263366.0 448899.0 0
269568.0 448851.0 0
273042.0 449634.0 0
276681.0 449987.0 0
280387.0 450353.0 0
284148.0 450716.0 0
287943.0 451108.0 0
291758.0 451507.0 0
301500.0 449219.0 0
305347.0 449634.0 0
309208.0 450023.0 0
313082.0 450379.0 0
316974.0 450676.0 0
320877.0 450901.0 0
324771.0 451050.0 0
328643.0 451133.0 0
332488.0 451168.0 0
336314.0 451168.0 0
340142.0 451140.0 0
343976.0 451064.0 0
347812.0 450931.0 0
351640.0 450742.0 0
355454.0 450491.0 0
359248.0 450160.0 0
369282.0 451665.0 0
372918.0 451256.0 0
376719.0 450618.0 0
386212.0 451417.0 0
389463.0 450638.0 0
392413.0 453182.0 0
394499.0 450502.0 0
400837.0 451561.0 0
404282.0 449970.0 0
407539.0 452120.0 0
410981.0 450478.0 0
414317.0 452614.0 0
421079.0 453019.0 0
82343.5 454776.0 0
89144.4 454250.0 0
95950.0 453737.0 0
102736.0 453077.0 0
111020.0 454264.0 0
117164.0 452333.0 0
120718.0 453264.0 0
124447.0 454036.0 0
128213.0 454652.0 0
134501.0 452348.0 0
138411.0 453120.0 0
142286.0 453559.0 0
146160.0 453856.0 0
150035.0 454081.0 0
153907.0 454248.0 0
157776.0 454358.0 0
161643.0 454412.0 0
181116.0 453987.0 0
185033.0 453735.0 0
188937.0 453427.0 0
192825.0 453076.0 0
196699.0 452697.0 0
200557.0 452301.0 0
204402.0 451900.0 0
214148.0 454314.0 0
217962.0 453966.0 0
221765.0 453631.0 0
225552.0 453262.0 0
229357.0 452690.0 0
233119.0 451727.0 0
236685.0 452764.0 0
243337.0 452693.0 0
250022.0 452670.0 0
256705.0 452685.0 0
263369.0 452750.0 0
266852.0 451437.0 0
270601.0 452613.0 0
274431.0 453221.0 0
278223.0 453603.0 0
282029.0 453947.0 0
285841.0 454307.0 0
295588.0 451911.0 0
299430.0 452315.0 0
303287.0 452712.0 0
307160.0 453091.0 0
311048.0 453441.0 0
314953.0 453748.0 0
318870.0 453999.0 0
338348.0 454417.0 0
342216.0 454361.0 0
346085.0 454248.0 0
349958.0 454078.0 0
353835.0 453850.0 0
357709.0 453553.0 0
361584.0 453114.0 0
365493.0 452348.0 0
371780.0 454654.0 0
375547.0 454036.0 0
379278.0 453263.0 0
382834.0 452330.0 0
388979.0 454264.0 0
397258.0 453076.0 0
404047.0 453737.0 0
410852.0 454249.0 0
417655.0 454775.0 0
73313.7 456533.0 0
77256.6 456541.0 0
80792.1 458355.0 0
85785.3 456448.0 0
92672.4 455889.0 0
96289.0 457490.0 0
99532.3 455302.0 0
103157.0 456811.0 0
107048.0 456809.0 0
114493.0 455137.0 0
118074.0 456026.0 0
121777.0 456814.0 0
125571.0 457485.0 0
131963.0 455156.0 0
135790.0 455739.0 0
140008.0 456597.0 0
143929.0 456951.0 0
147854.0 457213.0 0
165512.0 454421.0 0
169391.0 454388.0 0
173286.0 454309.0 0
177197.0 454178.0 0
187062.0 456826.0 0
190976.0 456516.0 0
194873.0 456171.0 0
198755.0 455806.0 0
202623.0 455429.0 0
206477.0 455050.0 0
210319.0 454677.0 0
223998.0 456859.0 0
227923.0 456343.0 0
231939.0 455480.0 0
236503.0 456588.0 0
239969.0 454660.0 0
243333.0 456556.0 0
246682.0 454611.0 0
250028.0 456545.0 0
253367.0 454608.0 0
256717.0 456551.0 0
260069.0 454643.0 0
263518.0 456556.0 0
267831.0 455231.0 0
272036.0 456273.0 0
275968.0 456823.0 0
289666.0 454681.0 0
293505.0 455061.0 0
297358.0 455444.0 0
301224.0 455822.0 0
305107.0 456188.0 0
309005.0 456531.0 0
312919.0 456840.0 0
322790.0 454188.0 0
326702.0 454318.0 0
330599.0 454395.0 0
334479.0 454427.0 0
352142.0 457207.0 0
356068.0 456943.0 0
359991.0 456589.0 0
364200.0 455740.0 0
368028.0 455158.0 0
374423.0 457485.0 0
378218.0 456813.0 0
381922.0 456024.0 0
385504.0 455134.0 0
392950.0 456817.0 0
396840.0 456811.0 0
400464.0 455301.0 0
403707.0 457490.0 0
407324.0 455888.0 0
414215.0 456447.0 0
419210.0 458353.0 0
422745.0 456539.0 0
426688.0 456534.0 0
77436.7 460497.0 0
84384.6 460085.0 0
89226.5 458022.0 0
92593.9 459647.0 0
99946.5 459063.0 0
108076.0 460436.0 0
111096.0 457930.0 0
115231.0 458745.0 0
119020.0 459620.0 0
129412.0 458085.0 0
133238.0 458591.0 0
137134.0 459035.0 0
151776.0 457426.0 0
155682.0 457573.0 0
159587.0 457656.0 0
163495.0 457681.0 0
167410.0 457657.0 0
171333.0 457589.0 0
175265.0 457474.0 0
179201.0 457310.0 0
183135.0 457093.0 0
196928.0 459296.0 0
200818.0 458945.0 0
204696.0 458587.0 0
208561.0 458230.0 0
212417.0 457880.0 0
216266.0 457540.0 0
220118.0 457205.0 0
239967.0 458487.0 0
246688.0 458487.0 0
253373.0 458487.0 0
260086.0 458478.0 0
266655.0 458799.0 0
279860.0 457174.0 0
283713.0 457526.0 0
287558.0 457881.0 0
291412.0 458240.0 0
295276.0 458602.0 0
299153.0 458962.0 0
303045.0 459313.0 0
316847.0 457106.0 0
320783.0 457321.0 0
324721.0 457483.0 0
328654.0 457596.0 0
332579.0 457664.0 0
336496.0 457688.0 0
340405.0 457662.0 0
344310.0 457575.0 0
348219.0 457422.0 0
362855.0 459039.0 0
366752.0 458594.0 0
370579.0 458087.0 0
380976.0 459618.0 0
384766.0 458743.0 0
388894.0 457929.0 0
391911.0 460440.0 0
400051.0 459063.0 0
407410.0 459646.0 0
410775.0 458022.0 0
415617.0 460083.0 0
422565.0 460495.0 0
81083.6 462307.0 0
88229.3 461735.0 0
95955.9 461228.0 0
104160.0 460494.0 0
112491.0 461405.0 0
116249.0 462427.0 0
122861.0 460312.0 0
126770.0 460904.0 0
130708.0 461539.0 0
134654.0 461949.0 0
138609.0 462278.0 0
141713.0 460064.0 0
145657.0 460343.0 0
149614.0 460579.0 0
153573.0 460788.0 0
157513.0 460901.0 0
161459.0 460942.0 0
165411.0 460929.0 0
169365.0 460873.0 0
173319.0 460776.0 0
177273.0 460635.0 0
181224.0 460448.0 0
185168.0 460215.0 0
189103.0 459940.0 0
193023.0 459631.0 0
202891.0 462112.0 0
206777.0 461772.0 0
210654.0 461435.0 0
214522.0 461107.0 0
218381.0 460784.0 0
222226.0 460458.0 0
226038.0 460146.0 0
229772.0 459713.0 0
233407.0 458947.0 0
236723.0 460503.0 0
243343.0 460429.0 0
250036.0 460434.0 0
256720.0 460427.0 0
263361.0 460469.0 0
270253.0 459681.0 0
273938.0 460127.0 0
277747.0 460411.0 0
281589.0 460761.0 0
285442.0 461105.0 0
289307.0 461445.0 0
293183.0 461787.0 0
297071.0 462129.0 0
306952.0 459647.0 0
310874.0 459955.0 0
314810.0 460229.0 0
318756.0 460460.0 0
322709.0 460645.0 0
326664.0 460785.0 0
330621.0 460880.0 0
334578.0 460936.0 0
338532.0 460950.0 0
342480.0 460905.0 0
346423.0 460786.0 0
350384.0 460572.0 0
354342.0 460333.0 0
358288.0 460053.0 0
361379.0 462285.0 0
365335.0 461954.0 0
369284.0 461543.0 0
373224.0 460905.0 0
377133.0 460311.0 0
383746.0 462424.0 0
387506.0 461407.0 0
395826.0 460492.0 0
404049.0 461227.0 0
411770.0 461735.0 0
418918.0 462305.0 0
84969.6 464003.0 0
91907.7 463400.0 0
95565.3 465009.0 0
99332.7 462790.0 0
102849.0 464120.0 0
109630.0 463896.0 0
113352.0 465161.0 0
120125.0 463180.0 0
124087.0 463750.0 0
128012.0 464305.0 0
132270.0 464935.0 0
143477.0 463510.0 0
147430.0 463738.0 0
151407.0 463957.0 0
155442.0 464160.0 0
159423.0 464209.0 0
163408.0 464204.0 0
167391.0 464160.0 0
171367.0 464083.0 0
175338.0 463964.0 0
179303.0 463803.0 0
183263.0 463599.0 0
187215.0 463356.0 0
191155.0 463078.0 0
195081.0 462772.0 0
198992.0 462448.0 0
212755.0 464665.0 0
216638.0 464357.0 0
220518.0 464048.0 0
224405.0 463725.0 0
228333.0 463357.0 0
232274.0 462711.0 0
236641.0 464295.0 0
240035.0 462398.0 0
243360.0 464338.0 0
246697.0 462381.0 0
250048.0 464339.0 0
253385.0 462386.0 0
256729.0 464344.0 0
260033.0 462382.0 0
263403.0 464255.0 0
267675.0 462564.0 0
271603.0 463388.0 0
275559.0 463666.0 0
279437.0 464009.0 0
283310.0 464354.0 0
287190.0 464674.0 0
300972.0 462465.0 0
304887.0 462790.0 0
308816.0 463094.0 0
312758.0 463370.0 0
316712.0 463612.0 0
320674.0 463813.0 0
324642.0 463973.0 0
328615.0 464090.0 0
332595.0 464167.0 0
336582.0 464212.0 0
340573.0 464218.0 0
344554.0 464159.0 0
348594.0 463949.0 0
352572.0 463727.0 0
356526.0 463497.0 0
367718.0 464940.0 0
371984.0 464305.0 0
375909.0 463749.0 0
379870.0 463178.0 0
386639.0 465161.0 0
390364.0 463902.0 0
397154.0 464113.0 0
400672.0 462790.0 0
404434.0 465009.0 0
408092.0 463400.0 0
415030.0 464001.0 0
88621.4 465631.0 0
92270.6 467267.0 0
99254.8 466585.0 0
106299.0 465730.0 0
117326.0 466062.0 0
121499.0 466634.0 0
125449.0 467211.0 0
129539.0 467607.0 0
136236.0 465277.0 0
140208.0 465527.0 0
145254.0 466948.0 0
149212.0 467140.0 0
153247.0 467328.0 0
157426.0 467504.0 0
177379.0 467161.0 0
181352.0 466983.0 0
185318.0 466766.0 0
189274.0 466517.0 0
193218.0 466239.0 0
197149.0 465941.0 0
201066.0 465627.0 0
204972.0 465306.0 0
208868.0 464983.0 0
226278.0 467134.0 0
229941.0 466903.0 0
233491.0 466383.0 0
240001.0 466293.0 0
246698.0 466291.0 0
253410.0 466303.0 0
260093.0 466293.0 0
266586.0 466215.0 0
270072.0 467048.0 0
273709.0 467050.0 0
291079.0 464997.0 0
294977.0 465323.0 0
298888.0 465644.0 0
302810.0 465958.0 0
306745.0 466256.0 0
310693.0 466532.0 0
314653.0 466780.0 0
318621.0 466994.0 0
322596.0 467170.0 0
342581.0 467508.0 0
346762.0 467322.0 0
350794.0 467129.0 0
354753.0 466933.0 0
359781.0 465537.0 0
363753.0 465284.0 0
370455.0 467606.0 0
374548.0 467210.0 0
378499.0 466633.0 0
382671.0 466059.0 0
393703.0 465722.0 0
400745.0 466584.0 0
407729.0 467266.0 0
411379.0 465631.0 0
89005.5 469562.0 0
95919.7 468840.0 0
99545.8 470413.0 0
103006.0 468006.0 0
106682.0 469568.0 0
110210.0 467709.0 0
114464.0 468849.0 0
118921.0 469536.0 0
122889.0 470116.0 0
133908.0 468321.0 0
137890.0 468604.0 0
141864.0 468827.0 0
161424.0 467485.0 0
165430.0 467452.0 0
169419.0 467394.0 0
173402.0 467298.0 0
191344.0 469699.0 0
195292.0 469425.0 0
199227.0 469135.0 0
203149.0 468832.0 0
207061.0 468524.0 0
210962.0 468218.0 0
214850.0 467923.0 0
218716.0 467653.0 0
222533.0 467398.0 0
236693.0 468221.0 0
243322.0 468249.0 0
250062.0 468251.0 0
256794.0 468265.0 0
263439.0 468185.0 0
277427.0 467356.0 0
281222.0 467654.0 0
285078.0 467933.0 0
288967.0 468234.0 0
292873.0 468541.0 0
296792.0 468848.0 0
300722.0 469151.0 0
304663.0 469442.0 0
308616.0 469715.0 0
326577.0 467305.0 0
330562.0 467400.0 0
334553.0 467458.0 0
338565.0 467494.0 0
358125.0 468841.0 0
362100.0 468614.0 0
366081.0 468328.0 0
377109.0 470116.0 0
381078.0 469534.0 0
385531.0 468849.0 0
389779.0 467714.0 0
393315.0 469559.0 0
396992.0 468001.0 0
400454.0 470412.0 0
404081.0 468840.0 0
410994.0 469561.0 0
92647.5 471194.0 0
96320.7 472720.0 0
103146.0 471927.0 0
111427.0 471445.0 0
116206.0 472347.0 0
127120.0 470569.0 0
131100.0 470948.0 0
135585.0 471693.0 0
139558.0 471964.0 0
143528.0 472195.0 0
147028.0 470392.0 0
151062.0 470505.0 0
155218.0 470666.0 0
159500.0 470800.0 0
163491.0 470755.0 0
167483.0 470715.0 0
171472.0 470640.0 0
175457.0 470525.0 0
179438.0 470370.0 0
183415.0 470177.0 0
187385.0 469951.0 0
201314.0 472354.0 0
205240.0 472061.0 0
209158.0 471766.0 0
213069.0 471479.0 0
216974.0 471213.0 0
220879.0 470972.0 0
224793.0 470760.0 0
228740.0 470590.0 0
232750.0 470297.0 0
236419.0 472005.0 0
239943.0 470265.0 0
243284.0 472148.0 0
246687.0 470193.0 0
250076.0 472157.0 0
253447.0 470219.0 0
256857.0 472171.0 0
260192.0 470262.0 0
263732.0 471969.0 0
267218.0 470109.0 0
271109.0 470795.0 0
275062.0 470731.0 0
278998.0 470960.0 0
282918.0 471222.0 0
286833.0 471494.0 0
290754.0 471783.0 0
294686.0 472074.0 0
298624.0 472367.0 0
312580.0 469966.0 0
316554.0 470190.0 0
320534.0 470380.0 0
324518.0 470533.0 0
328506.0 470645.0 0
332497.0 470720.0 0
336490.0 470759.0 0
340502.0 470804.0 0
344797.0 470662.0 0
348953.0 470496.0 0
352982.0 470375.0 0
356463.0 472213.0 0
360432.0 471976.0 0
364405.0 471702.0 0
368896.0 470948.0 0
372875.0 470567.0 0
383791.0 472347.0 0
388563.0 471451.0 0
396853.0 471923.0 0
403678.0 472720.0 0
407351.0 471194.0 0
99958.7 474312.0 0
106721.0 473442.0 0
113488.0 475178.0 0
120403.0 473073.0 0
124621.0 473487.0 0
128734.0 473981.0 0
132744.0 474311.0 0
137220.0 475095.0 0
148977.0 473741.0 0
153053.0 473842.0 0
157326.0 473969.0 0
161589.0 474086.0 0
165569.0 474052.0 0
169551.0 473991.0 0
173538.0 473899.0 0
177525.0 473766.0 0
181509.0 473593.0 0
185490.0 473386.0 0
189463.0 473156.0 0
193426.0 472905.0 0
197376.0 472636.0 0
211265.0 475030.0 0
215182.0 474763.0 0
219102.0 474519.0 0
223020.0 474309.0 0
226936.0 474106.0 0
230884.0 473890.0 0
239689.0 474243.0 0
246682.0 474084.0 0
253472.0 474137.0 0
260469.0 474240.0 0
268568.0 473866.0 0
272861.0 474283.0 0
276806.0 474286.0 0
280744.0 474517.0 0
284689.0 474773.0 0
288623.0 475045.0 0
302571.0 472651.0 0
306528.0 472921.0 0
310495.0 473172.0 0
314473.0 473400.0 0
318459.0 473605.0 0
322447.0 473774.0 0
326437.0 473904.0 0
330428.0 473995.0 0
334416.0 474055.0 0
338394.0 474087.0 0
342691.0 473964.0 0
346969.0 473835.0 0
351047.0 473728.0 0
362771.0 475106.0 0
367254.0 474312.0 0
371264.0 473979.0 0
375375.0 473485.0 0
379596.0 473071.0 0
386515.0 475173.0 0
393277.0 473435.0 0
400038.0 474310.0 0
95343.2 476524.0 0
99020.4 478150.0 0
103604.0 475865.0 0
109616.0 475911.0 0
117817.0 475947.0 0
122192.0 476489.0 0
126252.0 476937.0 0
130407.0 477390.0 0
134387.0 477737.0 0
141146.0 475387.0 0
145004.0 475677.0 0
148263.0 477466.0 0
152026.0 477494.0 0
155845.0 477485.0 0
159727.0 477429.0 0
163676.0 477417.0 0
167644.0 477363.0 0
171625.0 477284.0 0
175613.0 477172.0 0
179603.0 477018.0 0
183594.0 476825.0 0
187578.0 476613.0 0
191552.0 476382.0 0
195515.0 476134.0 0
199467.0 475871.0 0
203408.0 475598.0 0
207337.0 475310.0 0
234535.0 475282.0 0
243249.0 475993.0 0
250078.0 476067.0 0
256914.0 476025.0 0
264652.0 475620.0 0
292571.0 475319.0 0
296517.0 475604.0 0
300472.0 475882.0 0
304432.0 476149.0 0
308401.0 476399.0 0
312381.0 476627.0 0
316370.0 476836.0 0
320369.0 477029.0 0
324364.0 477176.0 0
328354.0 477287.0 0
332336.0 477364.0 0
336306.0 477420.0 0
340252.0 477435.0 0
344132.0 477496.0 0
347946.0 477500.0 0
351707.0 477460.0 0
354985.0 475698.0 0
358844.0 475402.0 0
365613.0 477738.0 0
369593.0 477390.0 0
373745.0 476936.0 0
377806.0 476486.0 0
382181.0 475946.0 0
390386.0 475910.0 0
396392.0 475862.0 0
400979.0 478147.0 0
404657.0 476523.0 0
95779.1 480469.0 0
106592.0 478503.0 0
111932.0 478975.0 0
115828.0 479264.0 0
119781.0 479531.0 0
123867.0 479983.0 0
127948.0 480387.0 0
138834.0 478566.0 0
142733.0 478909.0 0
185692.0 480073.0 0
189675.0 479859.0 0
193649.0 479630.0 0
197612.0 479387.0 0
201564.0 479130.0 0
205510.0 478865.0 0
209441.0 478572.0 0
213376.0 478323.0 0
217293.0 478064.0 0
221216.0 477857.0 0
225143.0 477677.0 0
229060.0 477437.0 0
232749.0 478699.0 0
236689.0 478550.0 0
240556.0 478696.0 0
246602.0 477969.0 0
250003.0 479938.0 0
253522.0 478078.0 0
258665.0 479428.0 0
262555.0 478929.0 0
266893.0 478721.0 0
270663.0 477571.0 0
274623.0 477837.0 0
278586.0 477848.0 0
282544.0 478055.0 0
286488.0 478339.0 0
290452.0 478575.0 0
294405.0 478863.0 0
298367.0 479131.0 0
302332.0 479399.0 0
306300.0 479649.0 0
310280.0 479875.0 0
314268.0 480084.0 0
357261.0 478926.0 0
361159.0 478578.0 0
372050.0 480387.0 0
376133.0 479981.0 0
380219.0 479529.0 0
384173.0 479262.0 0
388068.0 478972.0 0
393409.0 478503.0 0
404219.0 480468.0 0
99597.6 482212.0 0
102690.0 479711.0 0
105633.0 482365.0 0
109615.0 482194.0 0
113600.0 482525.0 0
117579.0 482791.0 0
132053.0 480841.0 0
136015.0 481223.0 0
140465.0 482113.0 0
146146.0 480630.0 0
150050.0 480855.0 0
153934.0 480889.0 0
157840.0 480854.0 0
161766.0 480805.0 0
165727.0 480758.0 0
169704.0 480685.0 0
173691.0 480589.0 0
177691.0 480455.0 0
181701.0 480272.0 0
199711.0 482664.0 0
203663.0 482410.0 0
207603.0 482166.0 0
211528.0 481861.0 0
215454.0 481671.0 0
219362.0 481398.0 0
223264.0 481248.0 0
227152.0 481183.0 0
230919.0 482134.0 0
234850.0 482048.0 0
238747.0 482178.0 0
242646.0 482024.0 0
246533.0 481836.0 0
253307.0 482015.0 0
260964.0 482616.0 0
264862.0 482127.0 0
268806.0 482088.0 0
272671.0 481417.0 0
276592.0 481299.0 0
280510.0 481408.0 0
284431.0 481712.0 0
288369.0 481860.0 0
292308.0 482155.0 0
296262.0 482401.0 0
300226.0 482665.0 0
318264.0 480281.0 0
322293.0 480461.0 0
326289.0 480591.0 0
330277.0 480687.0 0
334252.0 480760.0 0
338214.0 480810.0 0
342138.0 480864.0 0
346044.0 480898.0 0
349928.0 480856.0 0
353832.0 480620.0 0
359531.0 482127.0 0
363986.0 481225.0 0
367948.0 480840.0 0
382421.0 482789.0 0
386400.0 482523.0 0
390386.0 482192.0 0
394368.0 482365.0 0
397309.0 479708.0 0
400401.0 482211.0 0
121546.0 483094.0 0
125593.0 483479.0 0
129627.0 483874.0 0
133677.0 484345.0 0
137615.0 484758.0 0
143983.0 483818.0 0
147923.0 484104.0 0
151893.0 484252.0 0
155857.0 484259.0 0
159817.0 484221.0 0
163782.0 484167.0 0
167763.0 484103.0 0
171751.0 484017.0 0
175763.0 483896.0 0
179809.0 483727.0 0
183808.0 483539.0 0
187798.0 483339.0 0
191779.0 483127.0 0
195750.0 482902.0 0
213574.0 485201.0 0
217482.0 485079.0 0
221359.0 484801.0 0
229022.0 485583.0 0
249849.0 483855.0 0
257031.0 482972.0 0
270786.0 485444.0 0
278556.0 484838.0 0
286366.0 485219.0 0
304197.0 482925.0 0
308178.0 483147.0 0
312165.0 483353.0 0
316157.0 483546.0 0
320174.0 483729.0 0
324224.0 483902.0 0
328227.0 484019.0 0
332215.0 484104.0 0
336195.0 484171.0 0
340160.0 484229.0 0
344123.0 484269.0 0
348089.0 484258.0 0
352061.0 484100.0 0
356001.0 483806.0 0
362388.0 484763.0 0
366325.0 484345.0 0
370372.0 483874.0 0
374408.0 483477.0 0
378454.0 483092.0 0
98613.8 486083.0 0
103343.0 485635.0 0
107396.0 485909.0 0
111369.0 485792.0 0
115360.0 486051.0 0
119339.0 486330.0 0
123314.0 486643.0 0
127303.0 487005.0 0
131283.0 487395.0 0
135355.0 487893.0 0
141129.0 486463.0 0
145722.0 487345.0 0
149744.0 487546.0 0
153810.0 487633.0 0
157815.0 487622.0 0
161806.0 487587.0 0
165796.0 487527.0 0
169788.0 487455.0 0
173818.0 487340.0 0
177889.0 487182.0 0
181925.0 487014.0 0
185920.0 486824.0 0
189907.0 486626.0 0
193884.0 486418.0 0
197850.0 486200.0 0
201798.0 485973.0 0
205735.0 485736.0 0
209661.0 485514.0 0
225241.0 484695.0 0
232969.0 485512.0 0
236877.0 485637.0 0
240833.0 485577.0 0
244773.0 485344.0 0
250402.0 487654.0 0
254289.0 485878.0 0
258944.0 486340.0 0
262907.0 486062.0 0
266828.0 485542.0 0
274650.0 484889.0 0
282455.0 485149.0 0
290282.0 485516.0 0
294211.0 485735.0 0
298155.0 485976.0 0
302112.0 486236.0 0
306086.0 486445.0 0
310069.0 486645.0 0
314058.0 486835.0 0
318056.0 487012.0 0
322094.0 487186.0 0
326167.0 487348.0 0
330187.0 487457.0 0
334179.0 487531.0 0
338169.0 487594.0 0
342160.0 487630.0 0
346172.0 487641.0 0
350246.0 487547.0 0
354269.0 487337.0 0
358862.0 486446.0 0
364651.0 487895.0 0
368717.0 487397.0 0
372698.0 487004.0 0
376687.0 486641.0 0
380661.0 486328.0 0
384641.0 486049.0 0
388631.0 485790.0 0
392604.0 485908.0 0
396657.0 485635.0 0
401386.0 486083.0 0
101255.0 489077.0 0
105238.0 489258.0 0
109219.0 489441.0 0
113177.0 489346.0 0
117138.0 489588.0 0
121093.0 489883.0 0
125048.0 490204.0 0
129010.0 490555.0 0
138862.0 489707.0 0
142832.0 490017.0 0
180008.0 490483.0 0
184041.0 490313.0 0
188035.0 490127.0 0
192020.0 489935.0 0
195994.0 489733.0 0
199955.0 489531.0 0
203892.0 489305.0 0
207822.0 489084.0 0
211714.0 488883.0 0
215602.0 488589.0 0
219476.0 488732.0 0
223358.0 488227.0 0
227149.0 489162.0 0
231073.0 488948.0 0
234970.0 489137.0 0
238883.0 489047.0 0
242753.0 489429.0 0
246613.0 488767.0 0
253239.0 490321.0 0
257155.0 489892.0 0
261088.0 489618.0 0
265012.0 489442.0 0
268888.0 488911.0 0
272824.0 488830.0 0
276674.0 488334.0 0
280551.0 488630.0 0
284420.0 488651.0 0
288313.0 488931.0 0
292205.0 489132.0 0
296131.0 489348.0 0
300060.0 489599.0 0
304014.0 489778.0 0
307981.0 489963.0 0
311964.0 490147.0 0
315956.0 490321.0 0
319969.0 490485.0 0
357163.0 490004.0 0
361133.0 489689.0 0
370993.0 490554.0 0
374954.0 490202.0 0
378908.0 489881.0 0
382863.0 489586.0 0
386823.0 489344.0 0
390781.0 489441.0 0
394762.0 489257.0 0
398745.0 489077.0 0
112154.0 493186.0 0
132978.0 490922.0 0
136489.0 492912.0 0
147554.0 490823.0 0
151664.0 490953.0 0
155777.0 491002.0 0
159790.0 490994.0 0
163807.0 490956.0 0
167803.0 490898.0 0
171857.0 490789.0 0
175946.0 490638.0 0
198115.0 493068.0 0
202083.0 492888.0 0
206033.0 492629.0 0
209990.0 492793.0 0
213900.0 492177.0 0
217777.0 492965.0 0
221626.0 492050.0 0
225460.0 492930.0 0
229368.0 492468.0 0
233335.0 492786.0 0
237312.0 492683.0 0
245252.0 492510.0 0
249395.0 491470.0 0
263153.0 492972.0 0
270903.0 492291.0 0
278505.0 492013.0 0
286146.0 492230.0 0
290045.0 492929.0 0
293998.0 492675.0 0
297947.0 492969.0 0
301915.0 493126.0 0
324034.0 490645.0 0
328128.0 490799.0 0
332168.0 490902.0 0
336164.0 490961.0 0
340184.0 491003.0 0
344202.0 491010.0 0
348325.0 490956.0 0
352444.0 490819.0 0
363500.0 492899.0 0
367026.0 490925.0 0
387847.0 493184.0 0
100155.0 492919.0 0
104149.0 493098.0 0
108142.0 493270.0 0
116301.0 493423.0 0
120287.0 493725.0 0
124269.0 494040.0 0
128247.0 494360.0 0
132227.0 494673.0 0
140600.0 493284.0 0
144670.0 493529.0 0
149478.0 494255.0 0
153649.0 494341.0 0
157736.0 494391.0 0
161777.0 494372.0 0
165797.0 494344.0 0
169875.0 494240.0 0
173983.0 494098.0 0
178065.0 493951.0 0
182127.0 493795.0 0
186155.0 493628.0 0
190151.0 493452.0 0
194139.0 493265.0 0
241290.0 493161.0 0
251446.0 494738.0 0
255279.0 493713.0 0
259212.0 493323.0 0
267069.0 493093.0 0
274718.0 493054.0 0
282293.0 493135.0 0
305885.0 493306.0 0
309867.0 493482.0 0
313859.0 493649.0 0
317865.0 493809.0 0
321908.0 493957.0 0
325996.0 494106.0 0
330109.0 494253.0 0
334173.0 494350.0 0
338189.0 494376.0 0
342240.0 494399.0 0
346335.0 494345.0 0
350521.0 494252.0 0
355333.0 493520.0 0
359399.0 493269.0 0
367772.0 494677.0 0
371753.0 494359.0 0
375731.0 494038.0 0
379714.0 493723.0 0
383701.0 493421.0 0
391860.0 493268.0 0
395853.0 493097.0 0
399846.0 492919.0 0
102015.0 496477.0 0
106009.0 496643.0 0
110079.0 496758.0 0
114068.0 496694.0 0
118055.0 496994.0 0
122040.0 497302.0 0
126028.0 497604.0 0
130048.0 497885.0 0
134883.0 497574.0 0
138772.0 496803.0 0
142746.0 496988.0 0
146732.0 497124.0 0
151472.0 497658.0 0
155616.0 497756.0 0
159719.0 497782.0 0
163715.0 497790.0 0
167697.0 497791.0 0
171671.0 497745.0 0
175640.0 497670.0 0
179606.0 497572.0 0
183569.0 497453.0 0
187531.0 497314.0 0
191493.0 497167.0 0
195446.0 497006.0 0
199397.0 496819.0 0
203338.0 496820.0 0
207264.0 496391.0 0
211180.0 496809.0 0
215033.0 495976.0 0
218886.0 496805.0 0
222721.0 495880.0 0
226571.0 496759.0 0
230485.0 496240.0 0
234395.0 496655.0 0
238333.0 496516.0 0
242233.0 497062.0 0
246118.0 496371.0 0
254121.0 497581.0 0
258055.0 497302.0 0
261956.0 496753.0 0
265903.0 496913.0 0
269764.0 496085.0 0
273632.0 496932.0 0
277457.0 495898.0 0
281226.0 496985.0 0
285036.0 496032.0 0
288861.0 496933.0 0
292748.0 496432.0 0
296652.0 496894.0 0
300578.0 496854.0 0
304520.0 497026.0 0
308468.0 497180.0 0
312427.0 497322.0 0
316389.0 497459.0 0
320354.0 497576.0 0
324322.0 497673.0 0
328292.0 497748.0 0
332266.0 497796.0 0
336248.0 497794.0 0
340245.0 497786.0 0
344364.0 497762.0 0
348525.0 497653.0 0
353264.0 497122.0 0
357249.0 496983.0 0
361224.0 496791.0 0
365111.0 497575.0 0
369955.0 497886.0 0
373973.0 497602.0 0
377962.0 497300.0 0
381946.0 496991.0 0
385934.0 496692.0 0
389923.0 496757.0 0
393991.0 496643.0 0
397985.0 496477.0 0
100835.0 500477.0 0
104820.0 500463.0 0
108790.0 500544.0 0
112747.0 500450.0 0
116690.0 500718.0 0
137215.0 500782.0 0
141195.0 500652.0 0
189618.0 500677.0 0
193602.0 500542.0 0
197587.0 500363.0 0
201759.0 500495.0 0
205764.0 500082.0 0
209754.0 500538.0 0
213815.0 500034.0 0
221999.0 500014.0 0
229984.0 500175.0 0
238324.0 500493.0 0
246222.0 500366.0 0
249594.0 498219.0 0
262934.0 500620.0 0
270817.0 499934.0 0
278639.0 500017.0 0
282571.0 500722.0 0
286506.0 500144.0 0
290469.0 500591.0 0
294436.0 500215.0 0
298412.0 500511.0 0
302395.0 500394.0 0
306370.0 500565.0 0
310347.0 500695.0 0
358794.0 500650.0 0
362774.0 500780.0 0
383306.0 500718.0 0
387248.0 500451.0 0
391205.0 500544.0 0
395175.0 500464.0 0
399160.0 500476.0 0
120640.0 501013.0 0
124604.0 501269.0 0
128571.0 501474.0 0
132809.0 500979.0 0
145179.0 500796.0 0
149166.0 500900.0 0
153436.0 501094.0 0
157616.0 501169.0 0
161669.0 501216.0 0
165668.0 501229.0 0
169687.0 501211.0 0
173682.0 501150.0 0
177672.0 501064.0 0
181657.0 500954.0 0
185639.0 500824.0 0
217769.0 500626.0 0
225942.0 500684.0 0
234257.0 500644.0 0
242284.0 501045.0 0
251038.0 501868.0 0
255017.0 501427.0 0
258990.0 501192.0 0
266918.0 500775.0 0
274722.0 500769.0 0
314323.0 500834.0 0
318303.0 500961.0 0
322289.0 501069.0 0
326279.0 501154.0 0
330274.0 501216.0 0
334293.0 501234.0 0
338292.0 501221.0 0
342351.0 501171.0 0
346560.0 501088.0 0
350823.0 500900.0 0
354810.0 500797.0 0
367187.0 500978.0 0
371425.0 501476.0 0
375391.0 501270.0 0
379355.0 501013.0 0
102013.0 504389.0 0
106013.0 504358.0 0
110055.0 504357.0 0
114055.0 504314.0 0
118206.0 504403.0 0
122426.0 504578.0 0
126458.0 504791.0 0
130591.0 504877.0 0
134558.0 504576.0 0
138542.0 504542.0 0
142528.0 504476.0 0
146520.0 504562.0 0
150517.0 504657.0 0
154796.0 504823.0 0
158980.0 504893.0 0
162971.0 504957.0 0
166950.0 504980.0 0
170920.0 504982.0 0
174880.0 504930.0 0
178830.0 504857.0 0
182770.0 504758.0 0
186701.0 504641.0 0
190625.0 504504.0 0
194542.0 504413.0 0
198462.0 504243.0 0
202381.0 504468.0 0
206291.0 504036.0 0
210203.0 504508.0 0
214119.0 504017.0 0
218027.0 504602.0 0
221937.0 504007.0 0
225841.0 504660.0 0
229771.0 504147.0 0
233712.0 504599.0 0
237681.0 504419.0 0
241623.0 504973.0 0
245558.0 504306.0 0
249376.0 505482.0 0
253385.0 505042.0 0
257410.0 504889.0 0
261542.0 504366.0 0
265694.0 504579.0 0
269685.0 504140.0 0
273651.0 504615.0 0
277617.0 504152.0 0
281580.0 504576.0 0
285544.0 504146.0 0
289510.0 504476.0 0
293462.0 504091.0 0
297405.0 504480.0 0
301350.0 504238.0 0
305294.0 504408.0 0
309233.0 504504.0 0
313176.0 504634.0 0
317124.0 504751.0 0
321080.0 504851.0 0
325042.0 504925.0 0
329011.0 504980.0 0
332986.0 504980.0 0
336970.0 504957.0 0
340965.0 504892.0 0
345208.0 504820.0 0
349479.0 504660.0 0
353477.0 504566.0 0
357469.0 504476.0 0
361454.0 504542.0 0
365439.0 504577.0 0
369406.0 504879.0 0
373537.0 504792.0 0
377571.0 504579.0 0
381793.0 504403.0 0
385944.0 504314.0 0
389944.0 504358.0 0
393987.0 504358.0 0
397987.0 504389.0 0
105864.0 508355.0 0
109857.0 508352.0 0
113846.0 508311.0 0
117830.0 508373.0 0
189800.0 508387.0 0
193944.0 508357.0 0
197972.0 508204.0 0
205996.0 508180.0 0
214001.0 508175.0 0
222037.0 508167.0 0
230115.0 508161.0 0
238321.0 508352.0 0
246478.0 508222.0 0
262509.0 508245.0 0
270432.0 508069.0 0
278344.0 508092.0 0
286277.0 508120.0 0
294237.0 508158.0 0
302211.0 508183.0 0
306206.0 508314.0 0
310254.0 508351.0 0
382169.0 508374.0 0
386153.0 508311.0 0
390143.0 508353.0 0
394136.0 508355.0 0
101867.0 508386.0 0
121809.0 508499.0 0
125787.0 508669.0 0
129776.0 508758.0 0
133763.0 508521.0 0
137751.0 508457.0 0
141735.0 508459.0 0
145714.0 508519.0 0
149687.0 508566.0 0
153654.0 508638.0 0
157624.0 508636.0 0
161595.0 508687.0 0
165572.0 508710.0 0
169554.0 508716.0 0
173540.0 508672.0 0
177531.0 508615.0 0
181526.0 508533.0 0
185725.0 508494.0 0
201965.0 508436.0 0
209985.0 508485.0 0
218058.0 508575.0 0
226144.0 508618.0 0
234249.0 508552.0 0
242536.0 508848.0 0
250630.0 509271.0 0
254600.0 508788.0 0
258569.0 508749.0 0
266477.0 508501.0 0
274386.0 508539.0 0
282310.0 508491.0 0
290255.0 508405.0 0
298222.0 508393.0 0
314271.0 508461.0 0
318449.0 508503.0 0
322444.0 508590.0 0
326437.0 508651.0 0
330425.0 508700.0 0
334409.0 508695.0 0
338388.0 508673.0 0
342362.0 508624.0 0
346335.0 508639.0 0
350305.0 508569.0 0
354280.0 508519.0 0
358260.0 508459.0 0
362245.0 508458.0 0
366234.0 508521.0 0
370222.0 508759.0 0
374212.0 508669.0 0
378189.0 508499.0 0
398132.0 508386.0 0
102002.0 512384.0 0
106002.0 512353.0 0
110004.0 512348.0 0
114004.0 512312.0 0
118011.0 512359.0 0
122029.0 512474.0 0
126056.0 512608.0 0
130052.0 512713.0 0
134043.0 512510.0 0
138039.0 512443.0 0
142037.0 512453.0 0
146036.0 512506.0 0
150045.0 512545.0 0
154084.0 512598.0 0
158110.0 512589.0 0
162119.0 512631.0 0
166117.0 512650.0 0
170113.0 512655.0 0
174106.0 512608.0 0
178096.0 512553.0 0
182083.0 512471.0 0
186069.0 512456.0 0
190052.0 512353.0 0
194035.0 512348.0 0
198017.0 512200.0 0
201994.0 512428.0 0
205971.0 512179.0 0
209945.0 512469.0 0
213918.0 512172.0 0
217884.0 512547.0 0
221849.0 512161.0 0
225810.0 512576.0 0
229770.0 512145.0 0
233735.0 512510.0 0
237709.0 512292.0 0
241665.0 512734.0 0
245600.0 512117.0 0
249459.0 513090.0 0
253404.0 512555.0 0
257577.0 512623.0 0
261915.0 512211.0 0
265907.0 512456.0 0
269927.0 512179.0 0
273913.0 512499.0 0
277968.0 512185.0 0
281957.0 512460.0 0
285959.0 512190.0 0
289953.0 512390.0 0
293945.0 512192.0 0
297937.0 512381.0 0
301927.0 512191.0 0
305918.0 512305.0 0
309909.0 512319.0 0
313899.0 512427.0 0
317890.0 512446.0 0
321881.0 512532.0 0
325875.0 512591.0 0
329870.0 512641.0 0
333867.0 512638.0 0
337866.0 512619.0 0
341893.0 512583.0 0
345916.0 512599.0 0
349953.0 512548.0 0
353964.0 512506.0 0
357963.0 512453.0 0
361961.0 512444.0 0
365957.0 512510.0 0
369948.0 512714.0 0
373944.0 512609.0 0
377970.0 512475.0 0
381988.0 512360.0 0
385996.0 512312.0 0
389996.0 512349.0 0
393998.0 512353.0 0
397998.0 512384.0 0
246171.0 516172.0 0
270146.0 516173.0 0
101996.0 516383.0 0
105995.0 516353.0 0
109995.0 516346.0 0
113994.0 516312.0 0
117993.0 516351.0 0
121991.0 516461.0 0
125988.0 516568.0 0
129986.0 516677.0 0
133982.0 516506.0 0
137981.0 516440.0 0
141980.0 516452.0 0
145978.0 516505.0 0
149976.0 516538.0 0
153973.0 516580.0 0
157971.0 516571.0 0
161968.0 516608.0 0
165966.0 516625.0 0
169965.0 516628.0 0
173964.0 516581.0 0
177963.0 516529.0 0
181966.0 516447.0 0
185983.0 516435.0 0
189990.0 516331.0 0
193997.0 516342.0 0
198000.0 516201.0 0
202001.0 516418.0 0
206000.0 516198.0 0
210011.0 516452.0 0
214002.0 516197.0 0
218029.0 516520.0 0
222015.0 516195.0 0
226052.0 516541.0 0
230035.0 516192.0 0
234081.0 516483.0 0
238075.0 516267.0 0
242205.0 516677.0 0
250272.0 516993.0 0
254228.0 516432.0 0
258213.0 516569.0 0
262184.0 516201.0 0
266165.0 516443.0 0
274125.0 516480.0 0
278105.0 516182.0 0
282089.0 516444.0 0
286074.0 516188.0 0
290064.0 516384.0 0
294054.0 516191.0 0
298046.0 516376.0 0
302038.0 516194.0 0
306035.0 516303.0 0
310034.0 516303.0 0
314032.0 516409.0 0
318033.0 516426.0 0
322036.0 516510.0 0
326035.0 516566.0 0
330034.0 516616.0 0
334033.0 516613.0 0
338031.0 516597.0 0
342028.0 516568.0 0
346026.0 516581.0 0
350024.0 516541.0 0
354022.0 516505.0 0
358020.0 516452.0 0
362019.0 516440.0 0
366018.0 516507.0 0
370013.0 516679.0 0
374011.0 516569.0 0
378009.0 516462.0 0
382006.0 516351.0 0
386005.0 516312.0 0
390005.0 516346.0 0
394005.0 516353.0 0
398004.0 516383.0 0
102000.0 520382.0 0
106000.0 520352.0 0
110000.0 520343.0 0
114000.0 520311.0 0
118000.0 520343.0 0
122001.0 520450.0 0
126003.0 520538.0 0
130005.0 520643.0 0
134002.0 520501.0 0
138002.0 520438.0 0
142001.0 520452.0 0
146001.0 520504.0 0
150003.0 520531.0 0
154005.0 520564.0 0
158007.0 520556.0 0
162011.0 520589.0 0
166011.0 520601.0 0
170011.0 520604.0 0
174011.0 520557.0 0
178010.0 520507.0 0
182009.0 520426.0 0
186008.0 520416.0 0
190006.0 520312.0 0
194006.0 520337.0 0
198003.0 520201.0 0
202000.0 520408.0 0
205997.0 520198.0 0
209989.0 520436.0 0
213981.0 520197.0 0
217968.0 520496.0 0
221955.0 520195.0 0
225940.0 520514.0 0
229925.0 520191.0 0
233912.0 520468.0 0
237903.0 520254.0 0
241880.0 520643.0 0
245849.0 520159.0 0
249767.0 520946.0 0
253832.0 520383.0 0
257881.0 520549.0 0
261984.0 520201.0 0
265977.0 520432.0 0
269988.0 520195.0 0
273979.0 520463.0 0
277997.0 520197.0 0
281990.0 520430.0 0
286000.0 520198.0 0
289996.0 520378.0 0
294000.0 520198.0 0
297999.0 520372.0 0
301997.0 520198.0 0
305995.0 520303.0 0
309995.0 520290.0 0
313993.0 520395.0 0
317992.0 520408.0 0
321991.0 520491.0 0
325990.0 520544.0 0
329990.0 520594.0 0
333990.0 520592.0 0
337990.0 520579.0 0
341993.0 520554.0 0
345995.0 520565.0 0
349997.0 520534.0 0
353999.0 520504.0 0
357999.0 520452.0 0
361999.0 520438.0 0
365998.0 520502.0 0
369995.0 520644.0 0
373997.0 520539.0 0
377999.0 520451.0 0
382000.0 520344.0 0
386000.0 520312.0 0
390000.0 520344.0 0
394000.0 520352.0 0
398000.0 520382.0 0
102000.0 524380.0 0
106000.0 524351.0 0
110000.0 524340.0 0
114000.0 524311.0 0
118000.0 524337.0 0
122000.0 524440.0 0
126000.0 524515.0 0
129999.0 524611.0 0
134000.0 524495.0 0
137999.0 524437.0 0
141999.0 524451.0 0
145999.0 524502.0 0
149998.0 524524.0 0
153998.0 524549.0 0
157998.0 524541.0 0
161998.0 524570.0 0
165998.0 524579.0 0
169997.0 524580.0 0
173997.0 524532.0 0
177997.0 524486.0 0
181999.0 524405.0 0
185999.0 524399.0 0
190000.0 524296.0 0
194000.0 524331.0 0
198000.0 524200.0 0
202000.0 524399.0 0
206000.0 524198.0 0
210000.0 524421.0 0
214000.0 524198.0 0
218003.0 524475.0 0
222000.0 524198.0 0
226011.0 524490.0 0
230000.0 524198.0 0
234015.0 524455.0 0
238009.0 524245.0 0
242052.0 524618.0 0
246028.0 524193.0 0
250132.0 524911.0 0
254089.0 524349.0 0
258080.0 524537.0 0
262062.0 524200.0 0
266052.0 524423.0 0
270043.0 524195.0 0
274032.0 524448.0 0
278022.0 524197.0 0
282015.0 524418.0 0
286007.0 524198.0 0
290003.0 524372.0 0
294000.0 524198.0 0
298000.0 524368.0 0
302000.0 524198.0 0
306000.0 524302.0 0
310000.0 524279.0 0
314001.0 524382.0 0
318001.0 524391.0 0
322002.0 524473.0 0
326003.0 524522.0 0
330002.0 524571.0 0
334002.0 524571.0 0
338002.0 524562.0 0
342002.0 524540.0 0
346002.0 524550.0 0
350002.0 524526.0 0
354001.0 524502.0 0
358001.0 524451.0 0
362001.0 524437.0 0
366000.0 524496.0 0
370001.0 524611.0 0
374000.0 524515.0 0
378000.0 524440.0 0
382000.0 524337.0 0
386000.0 524311.0 0
390000.0 524340.0 0
394000.0 524351.0 0
398000.0 524380.0 0
102000.0 528379.0 0
106000.0 528350.0 0
110000.0 528337.0 0
114000.0 528311.0 0
118000.0 528331.0 0
122000.0 528430.0 0
126000.0 528496.0 0
130000.0 528580.0 0
134000.0 528488.0 0
138000.0 528435.0 0
142000.0 528451.0 0
146000.0 528500.0 0
150000.0 528516.0 0
154000.0 528536.0 0
158000.0 528527.0 0
162001.0 528552.0 0
166001.0 528557.0 0
170001.0 528557.0 0
174001.0 528509.0 0
178001.0 528466.0 0
182000.0 528386.0 0
186000.0 528385.0 0
190000.0 528283.0 0
194000.0 528326.0 0
198000.0 528200.0 0
202000.0 528390.0 0
206000.0 528198.0 0
210000.0 528408.0 0
214000.0 528198.0 0
218000.0 528456.0 0
222000.0 528198.0 0
225999.0 528469.0 0
229998.0 528198.0 0
233990.0 528443.0 0
237983.0 528238.0 0
241965.0 528595.0 0
245944.0 528192.0 0
249882.0 528884.0 0
253976.0 528326.0 0
257978.0 528526.0 0
262000.0 528200.0 0
265995.0 528415.0 0
270000.0 528198.0 0
273997.0 528433.0 0
278000.0 528198.0 0
282000.0 528407.0 0
286000.0 528198.0 0
290000.0 528367.0 0
294000.0 528198.0 0
298000.0 528364.0 0
302000.0 528198.0 0
306000.0 528301.0 0
310000.0 528269.0 0
314000.0 528371.0 0
318000.0 528374.0 0
322000.0 528455.0 0
325999.0 528500.0 0
329999.0 528550.0 0
333999.0 528550.0 0
338000.0 528546.0 0
342000.0 528527.0 0
346000.0 528536.0 0
350000.0 528518.0 0
354000.0 528500.0 0
358000.0 528451.0 0
362000.0 528435.0 0
366000.0 528488.0 0
370000.0 528581.0 0
374000.0 528496.0 0
378000.0 528430.0 0
382000.0 528331.0 0
386000.0 528311.0 0
390000.0 528337.0 0
394000.0 528350.0 0
398000.0 528379.0 0
102000.0 532377.0 0
106000.0 532349.0 0
110000.0 532333.0 0
114000.0 532311.0 0
118000.0 532326.0 0
122000.0 532420.0 0
126000.0 532480.0 0
130000.0 532553.0 0
134000.0 532479.0 0
138000.0 532434.0 0
142000.0 532450.0 0
146000.0 532497.0 0
150000.0 532508.0 0
154000.0 532523.0 0
158000.0 532514.0 0
162000.0 532536.0 0
166000.0 532536.0 0
170000.0 532534.0 0
174000.0 532486.0 0
178000.0 532446.0 0
182000.0 532369.0 0
186000.0 532372.0 0
190000.0 532272.0 0
194000.0 532321.0 0
198000.0 532200.0 0
202000.0 532382.0 0
206000.0 532198.0 0
210000.0 532396.0 0
214000.0 532198.0 0
218000.0 532439.0 0
222000.0 532198.0 0
226000.0 532450.0 0
230000.0 532198.0 0
234000.0 532432.0 0
238000.0 532231.0 0
242006.0 532574.0 0
246000.0 532198.0 0
250064.0 532858.0 0
254024.0 532307.0 0
258018.0 532514.0 0
262005.0 532200.0 0
266000.0 532406.0 0
270000.0 532198.0 0
274000.0 532418.0 0
278000.0 532198.0 0
282000.0 532397.0 0
286000.0 532198.0 0
290000.0 532361.0 0
294000.0 532198.0 0
298000.0 532359.0 0
302000.0 532198.0 0
306000.0 532300.0 0
310000.0 532261.0 0
314000.0 532361.0 0
318000.0 532359.0 0
322000.0 532438.0 0
326000.0 532479.0 0
330000.0 532529.0 0
334000.0 532530.0 0
338000.0 532530.0 0
342000.0 532514.0 0
346000.0 532524.0 0
350000.0 532510.0 0
354000.0 532497.0 0
358000.0 532450.0 0
362000.0 532434.0 0
366000.0 532479.0 0
370000.0 532553.0 0
374000.0 532480.0 0
378000.0 532421.0 0
382000.0 532326.0 0
386000.0 532311.0 0
390000.0 532333.0 0
394000.0 532349.0 0
398000.0 532377.0 0
102000.0 536374.0 0
106000.0 536348.0 0
110000.0 536330.0 0
114000.0 536311.0 0
118000.0 536322.0 0
122000.0 536412.0 0
126000.0 536466.0 0
130000.0 536528.0 0
134000.0 536470.0 0
138000.0 536433.0 0
142000.0 536449.0 0
146000.0 536494.0 0
150000.0 536501.0 0
154000.0 536512.0 0
158000.0 536502.0 0
162000.0 536520.0 0
166000.0 536516.0 0
170000.0 536513.0 0
174000.0 536465.0 0
178000.0 536429.0 0
182000.0 536353.0 0
186000.0 536361.0 0
190000.0 536263.0 0
194000.0 536316.0 0
198000.0 536199.0 0
202000.0 536374.0 0
206000.0 536198.0 0
210000.0 536384.0 0
214000.0 536198.0 0
218000.0 536423.0 0
222000.0 536198.0 0
226000.0 536433.0 0
230000.0 536198.0 0
234000.0 536420.0 0
238000.0 536225.0 0
241999.0 536553.0 0
246000.0 536198.0 0
249965.0 536835.0 0
253999.0 536292.0 0
257999.0 536502.0 0
262000.0 536200.0 0
266000.0 536398.0 0
270000.0 536198.0 0
274000.0 536405.0 0
278000.0 536198.0 0
282000.0 536388.0 0
286000.0 536198.0 0
290000.0 536355.0 0
294000.0 536198.0 0
298000.0 536355.0 0
302000.0 536198.0 0
306000.0 536299.0 0
310000.0 536254.0 0
314000.0 536352.0 0
318000.0 536345.0 0
322000.0 536422.0 0
326000.0 536459.0 0
330000.0 536509.0 0
334000.0 536512.0 0
338000.0 536515.0 0
342000.0 536502.0 0
346000.0 536512.0 0
350000.0 536502.0 0
354000.0 536494.0 0
358000.0 536449.0 0
362000.0 536433.0 0
366000.0 536470.0 0
370000.0 536529.0 0
374000.0 536466.0 0
378000.0 536412.0 0
382000.0 536322.0 0
386000.0 536311.0 0
390000.0 536330.0 0
394000.0 536348.0 0
398000.0 536375.0 0
102000.0 540372.0 0
106000.0 540346.0 0
110000.0 540326.0 0
114000.0 540310.0 0
118000.0 540318.0 0
122000.0 540404.0 0
126000.0 540453.0 0
130000.0 540506.0 0
134000.0 540461.0 0
138000.0 540432.0 0
142000.0 540447.0 0
146000.0 540491.0 0
150000.0 540494.0 0
154000.0 540502.0 0
158000.0 540490.0 0
162000.0 540506.0 0
166000.0 540497.0 0
170000.0 540494.0 0
174000.0 540445.0 0
178000.0 540412.0 0
182000.0 540338.0 0
186000.0 540351.0 0
190000.0 540255.0 0
194000.0 540312.0 0
198000.0 540199.0 0
202000.0 540366.0 0
206000.0 540198.0 0
210000.0 540374.0 0
214000.0 540198.0 0
218000.0 540409.0 0
222000.0 540198.0 0
226000.0 540418.0 0
230000.0 540198.0 0
234000.0 540409.0 0
238000.0 540220.0 0
242000.0 540532.0 0
246000.0 540198.0 0
250009.0 540812.0 0
254000.0 540278.0 0
258000.0 540489.0 0
262000.0 540199.0 0
266000.0 540389.0 0
270000.0 540198.0 0
274000.0 540393.0 0
278000.0 540198.0 0
282000.0 540379.0 0
286000.0 540198.0 0
290000.0 540350.0 0
294000.0 540198.0 0
298000.0 540350.0 0
302000.0 540198.0 0
306000.0 540298.0 0
310000.0 540248.0 0
314000.0 540344.0 0
318000.0 540332.0 0
322000.0 540407.0 0
326000.0 540440.0 0
330000.0 540490.0 0
334000.0 540494.0 0
338000.0 540502.0 0
342000.0 540490.0 0
346000.0 540502.0 0
350000.0 540495.0 0
354000.0 540491.0 0
358000.0 540447.0 0
362000.0 540432.0 0
366000.0 540461.0 0
370000.0 540507.0 0
374000.0 540453.0 0
378000.0 540405.0 0
382000.0 540318.0 0
386000.0 540310.0 0
390000.0 540326.0 0
394000.0 540346.0 0
398000.0 540372.0 0
102000.0 544370.0 0
106000.0 544345.0 0
110000.0 544323.0 0
114000.0 544310.0 0
118000.0 544315.0 0
122000.0 544398.0 0
126000.0 544442.0 0
130000.0 544487.0 0
134000.0 544451.0 0
138000.0 544431.0 0
142000.0 544446.0 0
146000.0 544487.0 0
150000.0 544487.0 0
154000.0 544493.0 0
158000.0 544480.0 0
162000.0 544492.0 0
166000.0 544480.0 0
170000.0 544475.0 0
174000.0 544427.0 0
178000.0 544398.0 0
182000.0 544325.0 0
186000.0 544343.0 0
190000.0 544248.0 0
194000.0 544308.0 0
198000.0 544198.0 0
202000.0 544360.0 0
206000.0 544198.0 0
210000.0 544365.0 0
214000.0 544198.0 0
218000.0 544396.0 0
222000.0 544198.0 0
226000.0 544404.0 0
230000.0 544198.0 0
234000.0 544398.0 0
238000.0 544216.0 0
242000.0 544513.0 0
246000.0 544198.0 0
249998.0 544790.0 0
254000.0 544267.0 0
258000.0 544476.0 0
262000.0 544199.0 0
266000.0 544380.0 0
270000.0 544198.0 0
274000.0 544382.0 0
278000.0 544198.0 0
282000.0 544371.0 0
286000.0 544198.0 0
290000.0 544344.0 0
294000.0 544198.0 0
298000.0 544346.0 0
302000.0 544198.0 0
306000.0 544296.0 0
310000.0 544242.0 0
314000.0 544337.0 0
318000.0 544320.0 0
322000.0 544393.0 0
326000.0 544423.0 0
330000.0 544472.0 0
334000.0 544477.0 0
338000.0 544489.0 0
342000.0 544480.0 0
346000.0 544493.0 0
350000.0 544488.0 0
354000.0 544488.0 0
358000.0 544446.0 0
362000.0 544431.0 0
366000.0 544451.0 0
370000.0 544487.0 0
374000.0 544442.0 0
378000.0 544398.0 0
382000.0 544315.0 0
386000.0 544310.0 0
390000.0 544323.0 0
394000.0 544345.0 0
398000.0 544370.0 0
102000.0 548368.0 0
106000.0 548344.0 0
110000.0 548320.0 0
114000.0 548310.0 0
118000.0 548313.0 0
122000.0 548392.0 0
126000.0 548432.0 0
130000.0 548470.0 0
134000.0 548442.0 0
138000.0 548429.0 0
142000.0 548445.0 0
146000.0 548484.0 0
150000.0 548480.0 0
154000.0 548485.0 0
158000.0 548470.0 0
162000.0 548480.0 0
166000.0 548464.0 0
170000.0 548459.0 0
174000.0 548410.0 0
178000.0 548384.0 0
182000.0 548313.0 0
186000.0 548336.0 0
190000.0 548243.0 0
194000.0 548305.0 0
198000.0 548198.0 0
202000.0 548353.0 0
206000.0 548198.0 0
210000.0 548357.0 0
214000.0 548198.0 0
218000.0 548385.0 0
222000.0 548198.0 0
226000.0 548391.0 0
230000.0 548198.0 0
234000.0 548388.0 0
238000.0 548212.0 0
242000.0 548494.0 0
246000.0 548198.0 0
250000.0 548768.0 0
254000.0 548257.0 0
258000.0 548463.0 0
262000.0 548199.0 0
266000.0 548372.0 0
270000.0 548198.0 0
274000.0 548372.0 0
278000.0 548198.0 0
282000.0 548364.0 0
286000.0 548198.0 0
290000.0 548339.0 0
294000.0 548198.0 0
298000.0 548342.0 0
302000.0 548198.0 0
306000.0 548295.0 0
310000.0 548238.0 0
314000.0 548331.0 0
318000.0 548309.0 0
322000.0 548380.0 0
326000.0 548407.0 0
330000.0 548456.0 0
334000.0 548462.0 0
338000.0 548477.0 0
342000.0 548470.0 0
346000.0 548485.0 0
350000.0 548481.0 0
354000.0 548484.0 0
358000.0 548445.0 0
362000.0 548429.0 0
366000.0 548442.0 0
370000.0 548471.0 0
374000.0 548432.0 0
378000.0 548392.0 0
382000.0 548313.0 0
386000.0 548310.0 0
390000.0 548320.0 0
394000.0 548344.0 0
398000.0 548368.0 0
102000.0 552365.0 0
106000.0 552342.0 0
110000.0 552318.0 0
114000.0 552309.0 0
118000.0 552310.0 0
122000.0 552387.0 0
126000.0 552423.0 0
130000.0 552456.0 0
134000.0 552433.0 0
138000.0 552428.0 0
142000.0 552444.0 0
146000.0 552480.0 0
150000.0 552474.0 0
154000.0 552478.0 0
158000.0 552461.0 0
162000.0 552468.0 0
166000.0 552450.0 0
170000.0 552443.0 0
174000.0 552395.0 0
178000.0 552372.0 0
182000.0 552303.0 0
186000.0 552329.0 0
190000.0 552238.0 0
194000.0 552301.0 0
198000.0 552198.0 0
202000.0 552347.0 0
206000.0 552198.0 0
210000.0 552349.0 0
214000.0 552198.0 0
218000.0 552375.0 0
222000.0 552198.0 0
226000.0 552380.0 0
230000.0 552198.0 0
234000.0 552379.0 0
238000.0 552209.0 0
242000.0 552476.0 0
246000.0 552198.0 0
254000.0 552248.0 0
258000.0 552450.0 0
262000.0 552199.0 0
266000.0 552365.0 0
270000.0 552198.0 0
274000.0 552363.0 0
278000.0 552198.0 0
282000.0 552357.0 0
286000.0 552198.0 0
290000.0 552335.0 0
294000.0 552198.0 0
298000.0 552338.0 0
302000.0 552198.0 0
306000.0 552294.0 0
310000.0 552234.0 0
314000.0 552325.0 0
318000.0 552300.0 0
322000.0 552369.0 0
326000.0 552392.0 0
330000.0 552441.0 0
334000.0 552448.0 0
338000.0 552466.0 0
342000.0 552461.0 0
346000.0 552478.0 0
350000.0 552475.0 0
354000.0 552480.0 0
358000.0 552444.0 0
362000.0 552428.0 0
366000.0 552433.0 0
370000.0 552456.0 0
374000.0 552423.0 0
378000.0 552387.0 0
382000.0 552310.0 0
386000.0 552309.0 0
390000.0 552318.0 0
394000.0 552342.0 0
398000.0 552365.0 0
250000.0 552746.0 0
102000.0 556363.0 0
106000.0 556341.0 0
110000.0 556315.0 0
114000.0 556309.0 0
118000.0 556308.0 0
122000.0 556383.0 0
126000.0 556416.0 0
130000.0 556444.0 0
134000.0 556424.0 0
138000.0 556426.0 0
142000.0 556442.0 0
146000.0 556477.0 0
150000.0 556468.0 0
154000.0 556471.0 0
158000.0 556453.0 0
162000.0 556458.0 0
166000.0 556436.0 0
170000.0 556430.0 0
174000.0 556381.0 0
178000.0 556361.0 0
182000.0 556294.0 0
186000.0 556324.0 0
190000.0 556234.0 0
194000.0 556299.0 0
198000.0 556198.0 0
202000.0 556342.0 0
206000.0 556198.0 0
210000.0 556343.0 0
214000.0 556198.0 0
218000.0 556366.0 0
222000.0 556198.0 0
226000.0 556371.0 0
230000.0 556198.0 0
234000.0 556370.0 0
238000.0 556206.0 0
242000.0 556460.0 0
246000.0 556198.0 0
250000.0 556726.0 0
254000.0 556241.0 0
258000.0 556437.0 0
262000.0 556198.0 0
266000.0 556357.0 0
270000.0 556198.0 0
274000.0 556355.0 0
278000.0 556198.0 0
282000.0 556351.0 0
286000.0 556198.0 0
290000.0 556330.0 0
294000.0 556198.0 0
298000.0 556334.0 0
302000.0 556198.0 0
306000.0 556293.0 0
310000.0 556230.0 0
314000.0 556320.0 0
318000.0 556291.0 0
322000.0 556359.0 0
326000.0 556379.0 0
330000.0 556428.0 0
334000.0 556435.0 0
338000.0 556457.0 0
342000.0 556453.0 0
346000.0 556471.0 0
350000.0 556469.0 0
354000.0 556477.0 0
358000.0 556442.0 0
362000.0 556426.0 0
366000.0 556424.0 0
370000.0 556444.0 0
374000.0 556416.0 0
378000.0 556383.0 0
382000.0 556308.0 0
386000.0 556309.0 0
390000.0 556315.0 0
394000.0 556341.0 0
398000.0 556363.0 0
102000.0 560361.0 0
106000.0 560339.0 0
110000.0 560313.0 0
114000.0 560309.0 0
118000.0 560307.0 0
122000.0 560379.0 0
126000.0 560410.0 0
130000.0 560434.0 0
134000.0 560416.0 0
138000.0 560425.0 0
142000.0 560441.0 0
150000.0 560463.0 0
154000.0 560465.0 0
158000.0 560445.0 0
162000.0 560449.0 0
166000.0 560424.0 0
170000.0 560417.0 0
174000.0 560369.0 0
178000.0 560352.0 0
182000.0 560286.0 0
186000.0 560319.0 0
190000.0 560230.0 0
194000.0 560296.0 0
198000.0 560198.0 0
202000.0 560337.0 0
206000.0 560198.0 0
210000.0 560337.0 0
214000.0 560198.0 0
218000.0 560358.0 0
222000.0 560198.0 0
226000.0 560362.0 0
230000.0 560198.0 0
234000.0 560362.0 0
238000.0 560204.0 0
242000.0 560445.0 0
246000.0 560198.0 0
254000.0 560234.0 0
258000.0 560426.0 0
262000.0 560198.0 0
266000.0 560351.0 0
270000.0 560198.0 0
274000.0 560348.0 0
278000.0 560198.0 0
282000.0 560346.0 0
286000.0 560198.0 0
290000.0 560326.0 0
294000.0 560198.0 0
298000.0 560330.0 0
302000.0 560198.0 0
306000.0 560292.0 0
310000.0 560227.0 0
314000.0 560316.0 0
318000.0 560284.0 0
322000.0 560350.0 0
326000.0 560367.0 0
330000.0 560416.0 0
334000.0 560423.0 0
338000.0 560448.0 0
342000.0 560445.0 0
346000.0 560466.0 0
350000.0 560464.0 0
358000.0 560441.0 0
362000.0 560425.0 0
366000.0 560417.0 0
370000.0 560434.0 0
374000.0 560410.0 0
378000.0 560379.0 0
382000.0 560307.0 0
386000.0 560309.0 0
390000.0 560313.0 0
394000.0 560339.0 0
398000.0 560361.0 0
146000.0 560473.0 0
250000.0 560706.0 0
354000.0 560473.0 0
102000.0 564359.0 0
106000.0 564338.0 0
110000.0 564312.0 0
114000.0 564308.0 0
118000.0 564305.0 0
122000.0 564376.0 0
126000.0 564404.0 0
130000.0 564425.0 0
134000.0 564409.0 0
138000.0 564424.0 0
142000.0 564440.0 0
146000.0 564470.0 0
150000.0 564458.0 0
154000.0 564460.0 0
158000.0 564439.0 0
162000.0 564440.0 0
166000.0 564414.0 0
170000.0 564406.0 0
174000.0 564358.0 0
178000.0 564343.0 0
182000.0 564279.0 0
186000.0 564314.0 0
190000.0 564227.0 0
194000.0 564294.0 0
198000.0 564198.0 0
202000.0 564333.0 0
206000.0 564198.0 0
210000.0 564332.0 0
214000.0 564198.0 0
218000.0 564352.0 0
222000.0 564198.0 0
226000.0 564354.0 0
230000.0 564198.0 0
234000.0 564355.0 0
238000.0 564203.0 0
242000.0 564431.0 0
246000.0 564198.0 0
250000.0 564688.0 0
254000.0 564229.0 0
258000.0 564415.0 0
262000.0 564198.0 0
266000.0 564345.0 0
270000.0 564198.0 0
274000.0 564342.0 0
278000.0 564198.0 0
282000.0 564341.0 0
286000.0 564198.0 0
290000.0 564323.0 0
294000.0 564198.0 0
298000.0 564327.0 0
302000.0 564198.0 0
306000.0 564291.0 0
310000.0 564224.0 0
314000.0 564312.0 0
318000.0 564277.0 0
322000.0 564342.0 0
326000.0 564357.0 0
330000.0 564405.0 0
334000.0 564413.0 0
338000.0 564439.0 0
342000.0 564439.0 0
346000.0 564460.0 0
350000.0 564459.0 0
354000.0 564470.0 0
358000.0 564440.0 0
362000.0 564424.0 0
366000.0 564409.0 0
370000.0 564425.0 0
374000.0 564404.0 0
378000.0 564376.0 0
382000.0 564305.0 0
386000.0 564308.0 0
390000.0 564312.0 0
394000.0 564338.0 0
398000.0 564359.0 0
182000.0 568273.0 0
190000.0 568224.0 0
198000.0 568198.0 0
206000.0 568198.0 0
214000.0 568198.0 0
222000.0 568198.0 0
230000.0 568198.0 0
238000.0 568202.0 0
246000.0 568198.0 0
254000.0 568225.0 0
262000.0 568198.0 0
270000.0 568198.0 0
278000.0 568198.0 0
286000.0 568198.0 0
294000.0 568198.0 0
302000.0 568198.0 0
310000.0 568222.0 0
318000.0 568271.0 0
102000.0 568357.0 0
106000.0 568337.0 0
110000.0 568310.0 0
114000.0 568308.0 0
118000.0 568304.0 0
122000.0 568373.0 0
126000.0 568400.0 0
130000.0 568418.0 0
134000.0 568403.0 0
138000.0 568422.0 0
142000.0 568439.0 0
146000.0 568467.0 0
150000.0 568454.0 0
154000.0 568456.0 0
158000.0 568433.0 0
162000.0 568433.0 0
166000.0 568405.0 0
170000.0 568397.0 0
174000.0 568348.0 0
178000.0 568336.0 0
186000.0 568311.0 0
194000.0 568293.0 0
202000.0 568329.0 0
210000.0 568327.0 0
218000.0 568346.0 0
226000.0 568348.0 0
234000.0 568348.0 0
242000.0 568419.0 0
250000.0 568671.0 0
258000.0 568405.0 0
266000.0 568339.0 0
274000.0 568337.0 0
282000.0 568337.0 0
290000.0 568320.0 0
298000.0 568324.0 0
306000.0 568290.0 0
314000.0 568309.0 0
322000.0 568335.0 0
326000.0 568347.0 0
330000.0 568396.0 0
334000.0 568404.0 0
338000.0 568432.0 0
342000.0 568433.0 0
346000.0 568456.0 0
350000.0 568454.0 0
354000.0 568467.0 0
358000.0 568439.0 0
362000.0 568422.0 0
366000.0 568403.0 0
370000.0 568418.0 0
374000.0 568400.0 0
378000.0 568373.0 0
382000.0 568304.0 0
386000.0 568308.0 0
390000.0 568310.0 0
394000.0 568337.0 0
398000.0 568357.0 0
102000.0 572355.0 0
106000.0 572336.0 0
110000.0 572309.0 0
114000.0 572308.0 0
118000.0 572303.0 0
122000.0 572371.0 0
126000.0 572396.0 0
130000.0 572412.0 0
134000.0 572397.0 0
138000.0 572421.0 0
142000.0 572437.0 0
146000.0 572464.0 0
150000.0 572450.0 0
154000.0 572452.0 0
158000.0 572428.0 0
162000.0 572426.0 0
166000.0 572396.0 0
170000.0 572388.0 0
174000.0 572340.0 0
178000.0 572330.0 0
182000.0 572268.0 0
186000.0 572307.0 0
190000.0 572222.0 0
194000.0 572291.0 0
198000.0 572198.0 0
202000.0 572326.0 0
206000.0 572198.0 0
210000.0 572323.0 0
214000.0 572198.0 0
218000.0 572341.0 0
222000.0 572198.0 0
226000.0 572342.0 0
230000.0 572198.0 0
234000.0 572343.0 0
238000.0 572201.0 0
242000.0 572408.0 0
246000.0 572198.0 0
250000.0 572656.0 0
254000.0 572221.0 0
258000.0 572396.0 0
262000.0 572198.0 0
266000.0 572334.0 0
270000.0 572198.0 0
274000.0 572332.0 0
278000.0 572198.0 0
282000.0 572333.0 0
286000.0 572198.0 0
290000.0 572317.0 0
294000.0 572198.0 0
298000.0 572322.0 0
302000.0 572198.0 0
306000.0 572289.0 0
310000.0 572220.0 0
314000.0 572306.0 0
318000.0 572266.0 0
322000.0 572329.0 0
326000.0 572339.0 0
330000.0 572388.0 0
334000.0 572396.0 0
338000.0 572426.0 0
342000.0 572428.0 0
346000.0 572452.0 0
350000.0 572450.0 0
354000.0 572464.0 0
358000.0 572437.0 0
362000.0 572421.0 0
366000.0 572397.0 0
370000.0 572412.0 0
374000.0 572396.0 0
378000.0 572371.0 0
382000.0 572303.0 0
386000.0 572308.0 0
390000.0 572309.0 0
394000.0 572336.0 0
398000.0 572355.0 0
102000.0 576354.0 0
106000.0 576334.0 0
110000.0 576308.0 0
114000.0 576308.0 0
118000.0 576302.0 0
122000.0 576369.0 0
126000.0 576393.0 0
130000.0 576408.0 0
134000.0 576393.0 0
138000.0 576420.0 0
142000.0 576436.0 0
146000.0 576461.0 0
150000.0 576447.0 0
154000.0 576448.0 0
158000.0 576423.0 0
162000.0 576421.0 0
166000.0 576390.0 0
170000.0 576381.0 0
174000.0 576333.0 0
178000.0 576325.0 0
182000.0 576263.0 0
186000.0 576305.0 0
190000.0 576220.0 0
194000.0 576290.0 0
198000.0 576198.0 0
202000.0 576323.0 0
206000.0 576198.0 0
210000.0 576320.0 0
214000.0 576198.0 0
218000.0 576336.0 0
222000.0 576198.0 0
226000.0 576337.0 0
230000.0 576198.0 0
234000.0 576338.0 0
238000.0 576200.0 0
242000.0 576399.0 0
246000.0 576198.0 0
250000.0 576643.0 0
254000.0 576218.0 0
258000.0 576388.0 0
262000.0 576198.0 0
266000.0 576330.0 0
270000.0 576198.0 0
274000.0 576329.0 0
278000.0 576198.0 0
282000.0 576330.0 0
286000.0 576198.0 0
290000.0 576315.0 0
294000.0 576198.0 0
298000.0 576320.0 0
302000.0 576198.0 0
306000.0 576288.0 0
310000.0 576218.0 0
314000.0 576303.0 0
318000.0 576262.0 0
322000.0 576324.0 0
326000.0 576333.0 0
330000.0 576381.0 0
334000.0 576389.0 0
338000.0 576421.0 0
342000.0 576423.0 0
346000.0 576448.0 0
350000.0 576447.0 0
354000.0 576461.0 0
358000.0 576436.0 0
362000.0 576420.0 0
366000.0 576393.0 0
370000.0 576408.0 0
374000.0 576393.0 0
378000.0 576369.0 0
382000.0 576302.0 0
386000.0 576308.0 0
390000.0 576308.0 0
394000.0 576334.0 0
398000.0 576354.0 0
102000.0 580352.0 0
106000.0 580334.0 0
110000.0 580307.0 0
114000.0 580307.0 0
118000.0 580301.0 0
122000.0 580367.0 0
126000.0 580391.0 0
130000.0 580404.0 0
134000.0 580389.0 0
138000.0 580419.0 0
142000.0 580436.0 0
146000.0 580459.0 0
150000.0 580444.0 0
154000.0 580445.0 0
158000.0 580420.0 0
162000.0 580416.0 0
166000.0 580384.0 0
170000.0 580375.0 0
174000.0 580327.0 0
178000.0 580320.0 0
182000.0 580260.0 0
186000.0 580302.0 0
190000.0 580218.0 0
194000.0 580289.0 0
198000.0 580198.0 0
202000.0 580321.0 0
206000.0 580198.0 0
210000.0 580317.0 0
214000.0 580198.0 0
218000.0 580333.0 0
222000.0 580198.0 0
226000.0 580333.0 0
230000.0 580198.0 0
234000.0 580333.0 0
238000.0 580199.0 0
242000.0 580391.0 0
246000.0 580198.0 0
250000.0 580632.0 0
254000.0 580216.0 0
258000.0 580382.0 0
262000.0 580198.0 0
266000.0 580327.0 0
270000.0 580198.0 0
274000.0 580325.0 0
278000.0 580198.0 0
282000.0 580327.0 0
286000.0 580198.0 0
290000.0 580313.0 0
294000.0 580198.0 0
298000.0 580318.0 0
302000.0 580198.0 0
306000.0 580287.0 0
310000.0 580217.0 0
314000.0 580301.0 0
318000.0 580259.0 0
322000.0 580320.0 0
326000.0 580327.0 0
330000.0 580375.0 0
334000.0 580384.0 0
338000.0 580416.0 0
342000.0 580420.0 0
346000.0 580445.0 0
350000.0 580444.0 0
354000.0 580459.0 0
358000.0 580436.0 0
362000.0 580419.0 0
366000.0 580389.0 0
370000.0 580404.0 0
374000.0 580391.0 0
378000.0 580367.0 0
382000.0 580301.0 0
386000.0 580307.0 0
390000.0 580307.0 0
394000.0 580334.0 0
398000.0 580352.0 0
102000.0 584351.0 0
106000.0 584333.0 0
110000.0 584306.0 0
114000.0 584307.0 0
118000.0 584300.0 0
122000.0 584366.0 0
126000.0 584389.0 0
130000.0 584401.0 0
134000.0 584385.0 0
138000.0 584419.0 0
142000.0 584435.0 0
146000.0 584457.0 0
150000.0 584441.0 0
154000.0 584443.0 0
158000.0 584417.0 0
162000.0 584413.0 0
166000.0 584379.0 0
170000.0 584371.0 0
174000.0 584323.0 0
178000.0 584317.0 0
182000.0 584257.0 0
186000.0 584301.0 0
190000.0 584217.0 0
194000.0 584288.0 0
198000.0 584198.0 0
202000.0 584319.0 0
206000.0 584198.0 0
210000.0 584315.0 0
214000.0 584198.0 0
218000.0 584330.0 0
222000.0 584198.0 0
226000.0 584330.0 0
230000.0 584198.0 0
234000.0 584330.0 0
238000.0 584199.0 0
242000.0 584385.0 0
246000.0 584198.0 0
250000.0 584623.0 0
254000.0 584214.0 0
258000.0 584377.0 0
262000.0 584198.0 0
266000.0 584324.0 0
270000.0 584198.0 0
274000.0 584323.0 0
278000.0 584198.0 0
282000.0 584325.0 0
286000.0 584198.0 0
290000.0 584311.0 0
294000.0 584198.0 0
298000.0 584316.0 0
302000.0 584198.0 0
306000.0 584287.0 0
310000.0 584216.0 0
314000.0 584300.0 0
318000.0 584256.0 0
322000.0 584316.0 0
326000.0 584322.0 0
330000.0 584370.0 0
334000.0 584379.0 0
338000.0 584412.0 0
342000.0 584417.0 0
346000.0 584443.0 0
350000.0 584442.0 0
354000.0 584457.0 0
358000.0 584435.0 0
362000.0 584419.0 0
366000.0 584385.0 0
370000.0 584401.0 0
374000.0 584389.0 0
378000.0 584366.0 0
382000.0 584300.0 0
386000.0 584307.0 0
390000.0 584306.0 0
394000.0 584333.0 0
398000.0 584351.0 0
102000.0 588350.0 0
106000.0 588332.0 0
110000.0 588306.0 0
114000.0 588307.0 0
118000.0 588300.0 0
122000.0 588365.0 0
126000.0 588388.0 0
130000.0 588399.0 0
134000.0 588383.0 0
138000.0 588418.0 0
142000.0 588434.0 0
146000.0 588456.0 0
150000.0 588440.0 0
154000.0 588441.0 0
158000.0 588415.0 0
162000.0 588410.0 0
166000.0 588376.0 0
170000.0 588367.0 0
174000.0 588320.0 0
178000.0 588315.0 0
182000.0 588255.0 0
186000.0 588299.0 0
190000.0 588216.0 0
194000.0 588287.0 0
198000.0 588198.0 0
202000.0 588317.0 0
206000.0 588198.0 0
210000.0 588314.0 0
214000.0 588198.0 0
218000.0 588328.0 0
222000.0 588198.0 0
226000.0 588327.0 0
230000.0 588198.0 0
234000.0 588328.0 0
238000.0 588199.0 0
242000.0 588380.0 0
246000.0 588198.0 0
250000.0 588616.0 0
254000.0 588212.0 0
258000.0 588373.0 0
262000.0 588198.0 0
266000.0 588322.0 0
270000.0 588198.0 0
274000.0 588321.0 0
278000.0 588198.0 0
282000.0 588323.0 0
286000.0 588198.0 0
290000.0 588310.0 0
294000.0 588198.0 0
298000.0 588315.0 0
302000.0 588198.0 0
306000.0 588286.0 0
310000.0 588215.0 0
314000.0 588299.0 0
318000.0 588254.0 0
322000.0 588314.0 0
326000.0 588319.0 0
330000.0 588367.0 0
334000.0 588376.0 0
338000.0 588410.0 0
342000.0 588414.0 0
346000.0 588441.0 0
350000.0 588440.0 0
354000.0 588456.0 0
358000.0 588434.0 0
362000.0 588418.0 0
366000.0 588383.0 0
370000.0 588399.0 0
374000.0 588388.0 0
378000.0 588365.0 0
382000.0 588300.0 0
386000.0 588307.0 0
390000.0 588306.0 0
394000.0 588332.0 0
398000.0 588350.0 0
102000.0 592350.0 0
106000.0 592332.0 0
110000.0 592306.0 0
114000.0 592307.0 0
118000.0 592300.0 0
122000.0 592365.0 0
126000.0 592387.0 0
130000.0 592398.0 0
134000.0 592381.0 0
138000.0 592418.0 0
142000.0 592434.0 0
146000.0 592455.0 0
150000.0 592438.0 0
154000.0 592440.0 0
158000.0 592413.0 0
162000.0 592408.0 0
166000.0 592374.0 0
170000.0 592365.0 0
174000.0 592317.0 0
178000.0 592313.0 0
182000.0 592253.0 0
186000.0 592299.0 0
190000.0 592216.0 0
194000.0 592287.0 0
198000.0 592198.0 0
202000.0 592317.0 0
206000.0 592198.0 0
210000.0 592312.0 0
214000.0 592198.0 0
218000.0 592327.0 0
222000.0 592198.0 0
226000.0 592326.0 0
230000.0 592198.0 0
234000.0 592326.0 0
238000.0 592199.0 0
242000.0 592377.0 0
246000.0 592198.0 0
250000.0 592612.0 0
254000.0 592212.0 0
258000.0 592370.0 0
262000.0 592198.0 0
266000.0 592321.0 0
270000.0 592198.0 0
274000.0 592320.0 0
278000.0 592198.0 0
282000.0 592322.0 0
286000.0 592198.0 0
290000.0 592309.0 0
294000.0 592198.0 0
298000.0 592314.0 0
302000.0 592198.0 0
306000.0 592286.0 0
310000.0 592215.0 0
314000.0 592298.0 0
318000.0 592253.0 0
322000.0 592312.0 0
326000.0 592317.0 0
330000.0 592365.0 0
334000.0 592373.0 0
338000.0 592408.0 0
342000.0 592413.0 0
346000.0 592440.0 0
350000.0 592439.0 0
354000.0 592455.0 0
358000.0 592434.0 0
362000.0 592418.0 0
366000.0 592382.0 0
370000.0 592398.0 0
374000.0 592387.0 0
378000.0 592365.0 0
382000.0 592300.0 0
386000.0 592307.0 0
390000.0 592306.0 0
394000.0 592332.0 0
398000.0 592350.0 0
102000.0 596350.0 0
106000.0 596332.0 0
110000.0 596306.0 0
114000.0 596307.0 0
118000.0 596299.0 0
122000.0 596364.0 0
126000.0 596386.0 0
130000.0 596397.0 0
134000.0 596381.0 0
138000.0 596417.0 0
142000.0 596434.0 0
146000.0 596455.0 0
150000.0 596438.0 0
154000.0 596439.0 0
158000.0 596412.0 0
162000.0 596407.0 0
166000.0 596372.0 0
170000.0 596364.0 0
174000.0 596316.0 0
178000.0 596312.0 0
182000.0 596253.0 0
186000.0 596298.0 0
190000.0 596215.0 0
194000.0 596287.0 0
198000.0 596198.0 0
202000.0 596316.0 0
206000.0 596198.0 0
210000.0 596312.0 0
214000.0 596198.0 0
218000.0 596326.0 0
222000.0 596198.0 0
226000.0 596325.0 0
230000.0 596198.0 0
234000.0 596325.0 0
238000.0 596198.0 0
242000.0 596376.0 0
246000.0 596198.0 0
250000.0 596609.0 0
254000.0 596211.0 0
258000.0 596369.0 0
262000.0 596198.0 0
266000.0 596320.0 0
270000.0 596198.0 0
274000.0 596319.0 0
278000.0 596198.0 0
282000.0 596322.0 0
286000.0 596198.0 0
290000.0 596309.0 0
294000.0 596198.0 0
298000.0 596314.0 0
302000.0 596198.0 0
306000.0 596286.0 0
310000.0 596214.0 0
314000.0 596297.0 0
318000.0 596252.0 0
322000.0 596312.0 0
326000.0 596316.0 0
330000.0 596364.0 0
334000.0 596372.0 0
338000.0 596407.0 0
342000.0 596412.0 0
346000.0 596439.0 0
350000.0 596438.0 0
354000.0 596455.0 0
358000.0 596434.0 0
362000.0 596418.0 0
366000.0 596381.0 0
370000.0 596397.0 0
374000.0 596386.0 0
378000.0 596364.0 0
382000.0 596299.0 0
386000.0 596307.0 0
390000.0 596306.0 0
394000.0 596332.0 0
398000.0 596350.0 0
POINT_DATA 4650
SCALARS Radius float 1
LOOKUP_TABLE default
4000.0 4000.0 4000.0 4000.0 4000.0 4000.0 4000.0 4000.0 4000.0 4000.0 4000.0 4000.0 4000.0 4000.0 4000.0 4000.0 4000.0 4000.0 4000.0 4000.0 4000.0 4000.0 4000.0 4000.0 4000.0 4000.0 4000.0 4000.0 4000.0 4000.0 4000.0 4000.0 4000.0 4000.0 4000.0 4000.0 4000.0 4000.0 4000.0 4000.0 4000.0 4000.0 4000.0 4000.0 4000.0 4000.0 4000.0 4000.0 4000.0 4000.0 4000.0 4000.0 4000.0 4000.0 4000.0 4000.0 4000.0 4000.0 4000.0 4000.0 4000.0 4000.0 4000.0 4000.0 4000.0 4000.0 4000.0 4000.0 4000.0 4000.0 4000.0 4000.0 4000.0 4000.0 4000.0 4000.0 4000.0 4000.0 4000.0 4000.0 4000.0 4000.0 4000.0 4000.0 4000.0 4000.0 4000.0 4000.0 4000.0 4000.0 4000.0 4000.0 4000.0 4000.0 4000.0 4000.0 4000.0 4000.0 4000.0 4000.0 4000.0 4000.0 4000.0 4000.0 4000.0 4000.0 4000.0 4000.0 4000.0 4000.0 4000.0 4000.0 4000.0 4000.0 4000.0 4000.0 4000.0 4000.0 4000.0 4000.0 4000.0 4000.0 4000.0 4000.0 4000.0 4000.0 4000.0 4000.0 4000.0 4000.0 4000.0 4000.0 4000.0 4000.0 4000.0 4000.0 4000.0 4000.0 4000.0 4000.0 4000.0 4000.0 4000.0 4000.0 4000.0 4000.0 4000.0 4000.0 4000.0 4000.0 4000.0 4000.0 4000.0 4000.0 4000.0 4000.0 4000.0 4000.0 4000.0 4000.0 4000.0 4000.0 4000.0 4000.0 4000.0 4000.0 4000.0 4000.0 4000.0 4000.0 4000.0 4000.0 4000.0 4000.0 4000.0 4000.0 4000.0 4000.0 4000.0 4000.0 4000.0 4000.0 4000.0 4000.0 4000.0 4000.0 4000.0 4000.0 4000.0 4000.0 4000.0 4000.0 4000.0 4000.0 4000.0 4000.0 4000.0 4000.0 4000.0 4000.0 4000.0 4000.0 4000.0 4000.0 4000.0 4000.0 4000.0 4000.0 4000.0 4000.0 4000.0 4000.0 4000.0 4000.0 4000.0 4000.0 4000.0 4000.0 4000.0 4000.0 4000.0 4000.0 4000.0 4000.0 4000.0 4000.0 4000.0 4000.0 4000.0 4000.0 4000.0 4000.0 4000.0 4000.0 4000.0 4000.0 4000.0 4000.0 4000.0 4000.0 4000.0 4000.0 4000.0 4000.0 4000.0 4000.0 4000.0 4000.0 4000.0 4000.0 4000.0 4000.0 4000.0 4000.0 4000.0 4000.0 4000.0 4000.0 4000.0 4000.0 4000.0 4000.0 4000.0 4000.0 4000.0 4000.0 4000.0 4000.0 4000.0 4000.0 4000.0 4000.0 4000.0 4000.0 4000.0 4000.0 4000.0 4000.0 4000.0 4000.0 4000.0 4000.0 4000.0 4000.0 4000.0 4000.0 4000.0 4000.0 4000.0 4000.0 4000.0 4000.0 4000.0 4000.0 4000.0 4000.0 4000.0 4000.0 4000.0 4000.0 4000.0 4000.0 4000.0 4000.0 4000.0 4000.0 4000.0 4000.0 4000.0 4000.0 4000.0 4000.0 4000.0 4000.0 4000.0 4000.0 4000.0 4000.0 4000.0 4000.0 4000.0 4000.0 4000.0 4000.0 4000.0 4000.0 4000.0 4000.0 4000.0 4000.0 4000.0 4000.0 4000.0 4000.0 4000.0 4000.0 4000.0 4000.0 4000.0 4000.0 4000.0 4000.0 4000.0 4000.0 4000.0 4000.0 4000.0 4000.0 4000.0 4000.0 4000.0 4000.0 4000.0 4000.0 4000.0 4000.0 4000.0 4000.0 4000.0 4000.0 4000.0 4000.0 4000.0 4000.0 4000.0 4000.0 4000.0 4000.0 4000.0 4000.0 4000.0 4000.0 4000.0 4000.0 4000.0 4000.0 4000.0 4000.0 4000.0 4000.0 4000.0 4000.0 4000.0 4000.0 4000.0 4000.0 4000.0 4000.0 4000.0 4000.0 4000.0 4000.0 4000.0 4000.0 4000.0 4000.0 4000.0 4000.0 4000.0 4000.0 4000.0 4000.0 4000.0 4000.0 4000.0 4000.0 4000.0 4000.0 4000.0 4000.0 4000.0 4000.0 4000.0 4000.0 4000.0 4000.0 4000.0 4000.0 4000.0 4000.0 4000.0 4000.0 4000.0 4000.0 4000.0 4000.0 4000.0 4000.0 4000.0 4000.0 4000.0 4000.0 4000.0 4000.0 4000.0 4000.0 4000.0 4000.0 4000.0 4000.0 4000.0 4000.0 4000.0 4000.0 4000.0 4000.0 4000.0 4000.0 4000.0 4000.0 4000.0 4000.0 4000.0 4000.0 4000.0 4000.0 4000.0 4000.0 4000.0 4000.0 4000.0 4000.0 4000.0 4000.0 4000.0 4000.0 4000.0 4000.0 4000.0 4000.0 4000.0 4000.0 4000.0 4000.0 4000.0 4000.0 4000.0 4000.0 4000.0 4000.0 4000.0 4000.0 4000.0 4000.0 4000.0 4000.0 4000.0 4000.0 4000.0 4000.0 4000.0 4000.0 4000.0 4000.0 4000.0 4000.0 4000.0 4000.0 4000.0 4000.0 4000.0 4000.0 4000.0 4000.0 4000.0 4000.0 4000.0 4000.0 4000.0 4000.0 4000.0 4000.0 4000.0 4000.0 4000.0 4000.0 4000.0 4000.0 4000.0 4000.0 4000.0 4000.0 4000.0 4000.0 4000.0 4000.0 4000.0 4000.0 4000.0 4000.0 4000.0 4000.0 4000.0 4000.0 4000.0 4000.0 4000.0 4000.0 4000.0 4000.0 4000.0 4000.0 4000.0 4000.0 4000.0 4000.0 4000.0 4000.0 4000.0 4000.0 4000.0 4000.0 4000.0 4000.0 4000.0 4000.0 4000.0 4000.0 4000.0 4000.0 4000.0 4000.0 4000.0 4000.0 4000.0 4000.0 4000.0 4000.0 4000.0 4000.0 4000.0 4000.0 4000.0 4000.0 4000.0 4000.0 4000.0 4000.0 4000.0 4000.0 4000.0 4000.0 4000.0 4000.0 4000.0 4000.0 4000.0 4000.0 4000.0 4000.0 4000.0 4000.0 4000.0 4000.0 4000.0 4000.0 4000.0 4000.0 4000.0 4000.0 4000.0 4000.0 4000.0 4000.0 4000.0 4000.0 4000.0 4000.0 4000.0 4000.0 4000.0 4000.0 4000.0 4000.0 4000.0 4000.0 4000.0 4000.0 4000.0 4000.0 4000.0 4000.0 4000.0 4000.0 4000.0 4000.0 4000.0 4000.0 4000.0 4000.0 4000.0 4000.0 4000.0 4000.0 4000.0 4000.0 4000.0 4000.0 4000.0 4000.0 4000.0 4000.0 4000.0 4000.0 4000.0 4000.0 4000.0 4000.0 4000.0 4000.0 4000.0 4000.0 4000.0 4000.0 4000.0 4000.0 4000.0 4000.0 4000.0 4000.0 4000.0 4000.0 4000.0 4000.0 4000.0 4000.0 4000.0 4000.0 4000.0 4000.0 4000.0 4000.0 4000.0 4000.0 4000.0 4000.0 4000.0 4000.0 4000.0 4000.0 4000.0 4000.0 4000.0 4000.0 4000.0 4000.0 4000.0 4000.0 4000.0 4000.0 4000.0 4000.0 4000.0 4000.0 4000.0 4000.0 4000.0 4000.0 4000.0 4000.0 4000.0 4000.0 4000.0 4000.0 4000.0 4000.0 4000.0 4000.0 4000.0 4000.0 4000.0 4000.0 4000.0 4000.0 4000.0 4000.0 4000.0 4000.0 4000.0 4000.0 4000.0 4000.0 4000.0 4000.0 4000.0 4000.0 4000.0 4000.0 4000.0 4000.0 4000.0 4000.0 4000.0 4000.0 4000.0 4000.0 4000.0 4000.0 4000.0 4000.0 4000.0 4000.0 4000.0 4000.0 4000.0 4000.0 4000.0 4000.0 4000.0 4000.0 4000.0 4000.0 4000.0 4000.0 4000.0 4000.0 4000.0 4000.0 4000.0 4000.0 4000.0 4000.0 4000.0 4000.0 4000.0 4000.0 4000.0 4000.0 4000.0 4000.0 4000.0 4000.0 4000.0 4000.0 4000.0 4000.0 4000.0 4000.0 4000.0 4000.0 4000.0 4000.0 4000.0 4000.0 4000.0 4000.0 4000.0 4000.0 4000.0 4000.0 4000.0 4000.0 4000.0 4000.0 4000.0 4000.0 4000.0 4000.0 4000.0 4000.0 4000.0 4000.0 4000.0 4000.0 4000.0 4000.0 4000.0 4000.0 4000.0 4000.0 4000.0 4000.0 4000.0 4000.0 4000.0 4000.0 4000.0 4000.0 4000.0 4000.0 4000.0 4000.0 4000.0 4000.0 4000.0 4000.0 4000.0 4000.0 4000.0 4000.0 4000.0 4000.0 4000.0 4000.0 4000.0 4000.0 4000.0 4000.0 4000.0 4000.0 4000.0 4000.0 4000.0 4000.0 4000.0 4000.0 4000.0 4000.0 4000.0 4000.0 4000.0 4000.0 4000.0 4000.0 4000.0 4000.0 4000.0 4000.0 4000.0 4000.0 4000.0 4000.0 4000.0 4000.0 4000.0 4000.0 4000.0 4000.0 4000.0 4000.0 4000.0 4000.0 4000.0 4000.0 4000.0 4000.0 4000.0 4000.0 4000.0 4000.0 4000.0 4000.0 4000.0 4000.0 4000.0 4000.0 4000.0 4000.0 4000.0 4000.0 4000.0 4000.0 4000.0 4000.0 4000.0 4000.0 4000.0 4000.0 4000.0 4000.0 4000.0 4000.0 4000.0 4000.0 4000.0 4000.0 4000.0 4000.0 4000.0 4000.0 4000.0 4000.0 4000.0 4000.0 4000.0 4000.0 4000.0 4000.0 4000.0 4000.0 4000.0 4000.0 4000.0 4000.0 4000.0 4000.0 4000.0 4000.0 4000.0 4000.0 4000.0 4000.0 4000.0 4000.0 4000.0 4000.0 4000.0 4000.0 4000.0 4000.0 4000.0 4000.0 4000.0 4000.0 4000.0 4000.0 4000.0 4000.0 4000.0 4000.0 4000.0 4000.0 4000.0 4000.0 4000.0 4000.0 4000.0 4000.0 4000.0 4000.0 4000.0 4000.0 4000.0 4000.0 4000.0 4000.0 4000.0 4000.0 4000.0 4000.0 4000.0 4000.0 4000.0 4000.0 4000.0 4000.0 4000.0 4000.0 4000.0 4000.0 4000.0 4000.0 4000.0 4000.0 4000.0 4000.0 4000.0 4000.0 4000.0 4000.0 4000.0 4000.0 4000.0 4000.0 4000.0 4000.0 4000.0 4000.0 4000.0 4000.0 4000.0 4000.0 4000.0 4000.0 4000.0 4000.0 4000.0 4000.0 4000.0 4000.0 4000.0 4000.0 4000.0 4000.0 4000.0 4000.0 4000.0 4000.0 4000.0 4000.0 4000.0 4000.0 4000.0 4000.0 4000.0 4000.0 4000.0 4000.0 4000.0 4000.0 4000.0 4000.0 4000.0 4000.0 4000.0 4000.0 4000.0 4000.0 4000.0 4000.0 4000.0 4000.0 4000.0 4000.0 4000.0 4000.0 4000.0 4000.0 4000.0 4000.0 4000.0 4000.0 4000.0 4000.0 4000.0 4000.0 4000.0 4000.0 4000.0 4000.0 4000.0 4000.0 4000.0 4000.0 4000.0 4000.0 4000.0 4000.0 4000.0 4000.0 4000.0 4000.0 4000.0 4000.0 4000.0 4000.0 4000.0 4000.0 4000.0 4000.0 4000.0 4000.0 4000.0 4000.0 4000.0 4000.0 4000.0 4000.0 4000.0 4000.0 4000.0 4000.0 4000.0 4000.0 4000.0 4000.0 4000.0 4000.0 4000.0 4000.0 4000.0 4000.0 4000.0 4000.0 4000.0 4000.0 4000.0 4000.0 4000.0 4000.0 4000.0 4000.0 4000.0 4000.0 4000.0 4000.0 4000.0 4000.0 4000.0 4000.0 4000.0 4000.0 4000.0 4000.0 4000.0 4000.0 4000.0 4000.0 4000.0 4000.0 4000.0 4000.0 4000.0 4000.0 4000.0 4000.0 4000.0 4000.0 4000.0 4000.0 4000.0 4000.0 4000.0 4000.0 4000.0 4000.0 4000.0 4000.0 4000.0 4000.0 4000.0 4000.0 4000.0 4000.0 4000.0 4000.0 4000.0 4000.0 4000.0 4000.0 4000.0 4000.0 4000.0 4000.0 4000.0 4000.0 4000.0 4000.0 4000.0 4000.0 4000.0 4000.0 4000.0 4000.0 4000.0 4000.0 4000.0 4000.0 4000.0 4000.0 4000.0 4000.0 4000.0 4000.0 4000.0 4000.0 4000.0 4000.0 4000.0 4000.0 4000.0 4000.0 4000.0 4000.0 4000.0 4000.0 4000.0 4000.0 4000.0 4000.0 4000.0 4000.0 4000.0 4000.0 4000.0 4000.0 4000.0 4000.0 4000.0 4000.0 4000.0 4000.0 4000.0 4000.0 4000.0 4000.0 4000.0 4000.0 4000.0 4000.0 4000.0 4000.0 4000.0 4000.0 4000.0 4000.0 4000.0 4000.0 4000.0 4000.0 4000.0 4000.0 4000.0 4000.0 4000.0 4000.0 4000.0 4000.0 4000.0 4000.0 4000.0 4000.0 4000.0 4000.0 4000.0 4000.0 4000.0 4000.0 4000.0 4000.0 4000.0 4000.0 4000.0 4000.0 4000.0 4000.0 4000.0 4000.0 4000.0 4000.0 4000.0 4000.0 4000.0 4000.0 4000.0 4000.0 4000.0 4000.0 4000.0 4000.0 4000.0 4000.0 4000.0 4000.0 4000.0 4000.0 4000.0 4000.0 4000.0 4000.0 4000.0 4000.0 4000.0 4000.0 4000.0 4000.0 4000.0 4000.0 4000.0 4000.0 4000.0 4000.0 4000.0 4000.0 4000.0 4000.0 4000.0 4000.0 4000.0 4000.0 4000.0 4000.0 4000.0 4000.0 4000.0 4000.0 4000.0 4000.0 4000.0 4000.0 4000.0 4000.0 4000.0 4000.0 4000.0 4000.0 4000.0 4000.0 4000.0 4000.0 4000.0 4000.0 4000.0 4000.0 4000.0 4000.0 4000.0 4000.0 4000.0 4000.0 4000.0 4000.0 4000.0 4000.0 4000.0 4000.0 4000.0 4000.0 4000.0 4000.0 4000.0 4000.0 4000.0 4000.0 4000.0 4000.0 4000.0 4000.0 4000.0 4000.0 4000.0 4000.0 4000.0 4000.0 4000.0 4000.0 4000.0 4000.0 4000.0 4000.0 4000.0 4000.0 4000.0 4000.0 4000.0 4000.0 4000.0 4000.0 4000.0 4000.0 4000.0 4000.0 4000.0 4000.0 4000.0 4000.0 4000.0 4000.0 4000.0 4000.0 4000.0 4000.0 4000.0 4000.0 4000.0 4000.0 4000.0 4000.0 4000.0 4000.0 4000.0 4000.0 4000.0 4000.0 4000.0 4000.0 4000.0 4000.0 4000.0 4000.0 4000.0 4000.0 4000.0 4000.0 4000.0 4000.0 4000.0 4000.0 4000.0 4000.0 4000.0 4000.0 4000.0 4000.0 4000.0 4000.0 4000.0 4000.0 4000.0 4000.0 4000.0 4000.0 4000.0 4000.0 4000.0 4000.0 4000.0 4000.0 4000.0 4000.0 4000.0 4000.0 4000.0 4000.0 4000.0 4000.0 4000.0 4000.0 4000.0 4000.0 4000.0 4000.0 4000.0 4000.0 4000.0 4000.0 4000.0 4000.0 4000.0 4000.0 4000.0 4000.0 4000.0 4000.0 4000.0 4000.0 4000.0 4000.0 4000.0 4000.0 4000.0 4000.0 4000.0 4000.0 4000.0 4000.0 4000.0 4000.0 4000.0 4000.0 4000.0 4000.0 4000.0 4000.0 4000.0 4000.0 4000.0 4000.0 4000.0 4000.0 4000.0 4000.0 4000.0 4000.0 4000.0 4000.0 4000.0 4000.0 4000.0 4000.0 4000.0 4000.0 4000.0 4000.0 4000.0 4000.0 4000.0 4000.0 4000.0 4000.0 4000.0 4000.0 4000.0 4000.0 4000.0 4000.0 4000.0 4000.0 4000.0 4000.0 4000.0 4000.0 4000.0 4000.0 4000.0 4000.0 4000.0 4000.0 4000.0 4000.0 4000.0 4000.0 4000.0 4000.0 4000.0 4000.0 4000.0 4000.0 4000.0 4000.0 4000.0 4000.0 4000.0 4000.0 4000.0 4000.0 4000.0 4000.0 4000.0 4000.0 4000.0 4000.0 4000.0 4000.0 4000.0 4000.0 4000.0 4000.0 4000.0 4000.0 4000.0 4000.0 4000.0 4000.0 4000.0 4000.0 4000.0 4000.0 4000.0 4000.0 4000.0 4000.0 4000.0 4000.0 4000.0 4000.0 4000.0 4000.0 4000.0 4000.0 4000.0 4000.0 4000.0 4000.0 4000.0 4000.0 4000.0 4000.0 4000.0 4000.0 4000.0 4000.0 4000.0 4000.0 4000.0 4000.0 4000.0 4000.0 4000.0 4000.0 4000.0 4000.0 4000.0 4000.0 4000.0 4000.0 4000.0 4000.0 4000.0 4000.0 4000.0 4000.0 4000.0 4000.0 4000.0 4000.0 4000.0 4000.0 4000.0 4000.0 4000.0 4000.0 4000.0 4000.0 4000.0 4000.0 4000.0 4000.0 4000.0 4000.0 4000.0 4000.0 4000.0 4000.0 4000.0 4000.0 4000.0 4000.0 4000.0 4000.0 4000.0 4000.0 4000.0 4000.0 4000.0 4000.0 4000.0 4000.0 4000.0 4000.0 4000.0 4000.0 4000.0 4000.0 4000.0 4000.0 4000.0 4000.0 4000.0 4000.0 4000.0 4000.0 4000.0 4000.0 4000.0 4000.0 4000.0 4000.0 4000.0 4000.0 4000.0 4000.0 4000.0 4000.0 4000.0 4000.0 4000.0 4000.0 4000.0 4000.0 4000.0 4000.0 4000.0 4000.0 4000.0 4000.0 4000.0 4000.0 4000.0 4000.0 4000.0 4000.0 4000.0 4000.0 4000.0 4000.0 4000.0 4000.0 4000.0 4000.0 4000.0 4000.0 4000.0 4000.0 4000.0 4000.0 4000.0 4000.0 4000.0 4000.0 4000.0 4000.0 4000.0 4000.0 4000.0 4000.0 4000.0 4000.0 4000.0 4000.0 4000.0 4000.0 4000.0 4000.0 4000.0 4000.0 4000.0 4000.0 4000.0 4000.0 4000.0 4000.0 4000.0 4000.0 4000.0 4000.0 4000.0 4000.0 4000.0 4000.0 4000.0 4000.0 4000.0 4000.0 4000.0 4000.0 4000.0 4000.0 4000.0 4000.0 4000.0 4000.0 4000.0 4000.0 4000.0 4000.0 4000.0 4000.0 4000.0 4000.0 4000.0 4000.0 4000.0 4000.0 4000.0 4000.0 4000.0 4000.0 4000.0 4000.0 4000.0 4000.0 4000.0 4000.0 4000.0 4000.0 4000.0 4000.0 4000.0 4000.0 4000.0 4000.0 4000.0 4000.0 4000.0 4000.0 4000.0 4000.0 4000.0 4000.0 4000.0 4000.0 4000.0 4000.0 4000.0 4000.0 4000.0 4000.0 4000.0 4000.0 4000.0 4000.0 4000.0 4000.0 4000.0 4000.0 4000.0 4000.0 4000.0 4000.0 4000.0 4000.0 4000.0 4000.0 4000.0 4000.0 4000.0 4000.0 4000.0 4000.0 4000.0 4000.0 4000.0 4000.0 4000.0 4000.0 4000.0 4000.0 4000.0 4000.0 4000.0 4000.0 4000.0 4000.0 4000.0 4000.0 4000.0 4000.0 4000.0 4000.0 4000.0 4000.0 4000.0 4000.0 4000.0 4000.0 4000.0 4000.0 4000.0 4000.0 4000.0 4000.0 4000.0 4000.0 4000.0 4000.0 4000.0 4000.0 4000.0 4000.0 4000.0 4000.0 4000.0 4000.0 4000.0 4000.0 4000.0 4000.0 4000.0 4000.0 4000.0 4000.0 4000.0 4000.0 4000.0 4000.0 4000.0 4000.0 4000.0 4000.0 4000.0 4000.0 4000.0 4000.0 4000.0 4000.0 4000.0 4000.0 4000.0 4000.0 4000.0 4000.0 4000.0 4000.0 4000.0 4000.0 4000.0 4000.0 4000.0 4000.0 4000.0 4000.0 4000.0 4000.0 4000.0 4000.0 4000.0 4000.0 4000.0 4000.0 4000.0 4000.0 4000.0 4000.0 4000.0 4000.0 4000.0 4000.0 4000.0 4000.0 4000.0 4000.0 4000.0 4000.0 4000.0 4000.0 4000.0 4000.0 4000.0 4000.0 4000.0 4000.0 4000.0 4000.0 4000.0 4000.0 4000.0 4000.0 4000.0 4000.0 4000.0 4000.0 4000.0 4000.0 4000.0 4000.0 4000.0 4000.0 4000.0 4000.0 4000.0 4000.0 4000.0 4000.0 4000.0 4000.0 4000.0 4000.0 4000.0 4000.0 4000.0 4000.0 4000.0 4000.0 4000.0 4000.0 4000.0 4000.0 4000.0 4000.0 4000.0 4000.0 4000.0 4000.0 4000.0 4000.0 4000.0 4000.0 4000.0 4000.0 4000.0 4000.0 4000.0 4000.0 4000.0 4000.0 4000.0 4000.0 4000.0 4000.0 4000.0 4000.0 4000.0 4000.0 4000.0 4000.0 4000.0 4000.0 4000.0 4000.0 4000.0 4000.0 4000.0 4000.0 4000.0 4000.0 4000.0 4000.0 4000.0 4000.0 4000.0 4000.0 4000.0 4000.0 4000.0 4000.0 4000.0 4000.0 4000.0 4000.0 4000.0 4000.0 4000.0 4000.0 4000.0 4000.0 4000.0 4000.0 4000.0 4000.0 4000.0 4000.0 4000.0 4000.0 4000.0 4000.0 4000.0 4000.0 4000.0 4000.0 4000.0 4000.0 4000.0 4000.0 4000.0 4000.0 4000.0 4000.0 4000.0 4000.0 4000.0 4000.0 4000.0 4000.0 4000.0 4000.0 4000.0 4000.0 4000.0 4000.0 4000.0 4000.0 4000.0 4000.0 4000.0 4000.0 4000.0 4000.0 4000.0 4000.0 4000.0 4000.0 4000.0 4000.0 4000.0 4000.0 4000.0 4000.0 4000.0 4000.0 4000.0 4000.0 4000.0 4000.0 4000.0 4000.0 4000.0 4000.0 4000.0 4000.0 4000.0 4000.0 4000.0 4000.0 4000.0 4000.0 4000.0 4000.0 4000.0 4000.0 4000.0 4000.0 4000.0 4000.0 4000.0 4000.0 4000.0 4000.0 4000.0 4000.0 4000.0 4000.0 4000.0 4000.0 4000.0 4000.0 4000.0 4000.0 4000.0 4000.0 4000.0 4000.0 4000.0 4000.0 4000.0 4000.0 4000.0 4000.0 4000.0 4000.0 4000.0 4000.0 4000.0 4000.0 4000.0 4000.0 4000.0 4000.0 4000.0 4000.0 4000.0 4000.0 4000.0 4000.0 4000.0 4000.0 4000.0 4000.0 4000.0 4000.0 4000.0 4000.0 4000.0 4000.0 4000.0 4000.0 4000.0 4000.0 4000.0 4000.0 4000.0 4000.0 4000.0 4000.0 4000.0 4000.0 4000.0 4000.0 4000.0 4000.0 4000.0 4000.0 4000.0 4000.0 4000.0 4000.0 4000.0 4000.0 4000.0 4000.0 4000.0 4000.0 4000.0 4000.0 4000.0 4000.0 4000.0 4000.0 4000.0 4000.0 4000.0 4000.0 4000.0 4000.0 4000.0 4000.0 4000.0 4000.0 4000.0 4000.0 4000.0 4000.0 4000.0 4000.0 4000.0 4000.0 4000.0 4000.0 4000.0 4000.0 4000.0 4000.0 4000.0 4000.0 4000.0 4000.0 4000.0 4000.0 4000.0 4000.0 4000.0 4000.0 4000.0 4000.0 4000.0 4000.0 4000.0 4000.0 4000.0 4000.0 4000.0 4000.0 4000.0 4000.0 4000.0 4000.0 4000.0 4000.0 4000.0 4000.0 4000.0 4000.0 4000.0 4000.0 4000.0 4000.0 4000.0 4000.0 4000.0 4000.0 4000.0 4000.0 4000.0 4000.0 4000.0 4000.0 4000.0 4000.0 4000.0 4000.0 4000.0 4000.0 4000.0 4000.0 4000.0 4000.0 4000.0 4000.0 4000.0 4000.0 4000.0 4000.0 4000.0 4000.0 4000.0 4000.0 4000.0 4000.0 4000.0 4000.0 4000.0 4000.0 4000.0 4000.0 4000.0 4000.0 4000.0 4000.0 4000.0 4000.0 4000.0 4000.0 4000.0 4000.0 4000.0 4000.0 4000.0 4000.0 4000.0 4000.0 4000.0 4000.0 4000.0 4000.0 4000.0 4000.0 4000.0 4000.0 4000.0 4000.0 4000.0 4000.0 4000.0 4000.0 4000.0 4000.0 4000.0 4000.0 4000.0 4000.0 4000.0 4000.0 4000.0 4000.0 4000.0 4000.0 4000.0 4000.0 4000.0 4000.0 4000.0 4000.0 4000.0 4000.0 4000.0 4000.0 4000.0 4000.0 4000.0 4000.0 4000.0 4000.0 4000.0 4000.0 4000.0 4000.0 4000.0 4000.0 4000.0 4000.0 4000.0 4000.0 4000.0 4000.0 4000.0 4000.0 4000.0 4000.0 4000.0 4000.0 4000.0 4000.0 4000.0 4000.0 4000.0 4000.0 4000.0 4000.0 4000.0 4000.0 4000.0 4000.0 4000.0 4000.0 4000.0 4000.0 4000.0 4000.0 4000.0 4000.0 4000.0 4000.0 4000.0 4000.0 4000.0 4000.0 4000.0 4000.0 4000.0 4000.0 4000.0 4000.0 4000.0 4000.0 4000.0 4000.0 4000.0 4000.0 4000.0 4000.0 4000.0 4000.0 4000.0 4000.0 4000.0 4000.0 4000.0 4000.0 4000.0 4000.0 4000.0 4000.0 4000.0 4000.0 4000.0 4000.0 4000.0 4000.0 4000.0 4000.0 4000.0 4000.0 4000.0 4000.0 4000.0 4000.0 4000.0 4000.0 4000.0 4000.0 4000.0 4000.0 4000.0 4000.0 4000.0 4000.0 4000.0 4000.0 4000.0 4000.0 4000.0 4000.0 4000.0 4000.0 4000.0 4000.0 4000.0 4000.0 4000.0 4000.0 4000.0 4000.0 4000.0 4000.0 4000.0 4000.0 4000.0 4000.0 4000.0 4000.0 4000.0 4000.0 4000.0 4000.0 4000.0 4000.0 4000.0 4000.0 4000.0 4000.0 4000.0 4000.0 4000.0 4000.0 4000.0 4000.0 4000.0 4000.0 4000.0 4000.0 4000.0 4000.0 4000.0 4000.0 4000.0 4000.0 4000.0 4000.0 4000.0 4000.0 4000.0 4000.0 4000.0 4000.0 4000.0 4000.0 4000.0 4000.0 4000.0 4000.0 4000.0 4000.0 4000.0 4000.0 4000.0 4000.0 4000.0 4000.0 4000.0 4000.0 4000.0 4000.0 4000.0 4000.0 4000.0 4000.0 4000.0 4000.0 4000.0 4000.0 4000.0 4000.0 4000.0 4000.0 4000.0 4000.0 4000.0 4000.0 4000.0 4000.0 4000.0 4000.0 4000.0 4000.0 4000.0 4000.0 4000.0 4000.0 4000.0 4000.0 4000.0 4000.0 4000.0 4000.0 4000.0 4000.0 4000.0 4000.0 4000.0 4000.0 4000.0 4000.0 4000.0 4000.0 4000.0 4000.0 4000.0 4000.0 4000.0 4000.0 4000.0 4000.0 4000.0 4000.0 4000.0 4000.0 4000.0 4000.0 4000.0 4000.0 4000.0 4000.0 4000.0 4000.0 4000.0 4000.0 4000.0 4000.0 4000.0 4000.0 4000.0 4000.0 4000.0 4000.0 4000.0 4000.0 4000.0 4000.0 4000.0 4000.0 4000.0 4000.0 4000.0 4000.0 4000.0 4000.0 4000.0 4000.0 4000.0 4000.0 4000.0 4000.0 4000.0 4000.0 4000.0 4000.0 4000.0 4000.0 4000.0 4000.0 4000.0 4000.0 4000.0 4000.0 4000.0 4000.0 4000.0 4000.0 4000.0 4000.0 4000.0 4000.0 4000.0 4000.0 4000.0 4000.0 4000.0 4000.0 4000.0 4000.0 4000.0 4000.0 4000.0 4000.0 4000.0 4000.0 4000.0 4000.0 4000.0 4000.0 4000.0 4000.0 4000.0 4000.0 4000.0 4000.0 4000.0 4000.0 4000.0 4000.0 4000.0 4000.0 4000.0 4000.0 4000.0 4000.0 4000.0 4000.0 4000.0 4000.0 4000.0 4000.0 4000.0 4000.0 4000.0 4000.0 4000.0 4000.0 4000.0 4000.0 4000.0 4000.0 4000.0 4000.0 4000.0 4000.0 4000.0 4000.0 4000.0 4000.0 4000.0 4000.0 4000.0 4000.0 4000.0 4000.0 4000.0 4000.0 4000.0 4000.0 4000.0 4000.0 4000.0 4000.0 4000.0 4000.0 4000.0 4000.0 4000.0 4000.0 4000.0 4000.0 4000.0 4000.0 4000.0 4000.0 4000.0 4000.0 4000.0 4000.0 4000.0 4000.0 4000.0 4000.0 4000.0 4000.0 4000.0 4000.0 4000.0 4000.0 4000.0 4000.0 4000.0 4000.0 4000.0 4000.0 4000.0 4000.0 4000.0 4000.0 4000.0 4000.0 4000.0 4000.0 4000.0 4000.0 4000.0 4000.0 4000.0 4000.0 4000.0 4000.0 4000.0 4000.0 4000.0 4000.0 4000.0 4000.0 4000.0 4000.0 4000.0 4000.0 4000.0 4000.0 4000.0 4000.0 4000.0 4000.0 4000.0 4000.0 4000.0 4000.0 4000.0 4000.0 4000.0 4000.0 4000.0 4000.0 4000.0 4000.0 4000.0 4000.0 4000.0 4000.0 4000.0 4000.0 4000.0 4000.0 4000.0 4000.0 4000.0 4000.0 4000.0 4000.0 4000.0 4000.0 4000.0 4000.0 4000.0 4000.0 4000.0 4000.0 4000.0 4000.0 4000.0 4000.0 4000.0 4000.0 4000.0 4000.0 4000.0 4000.0 4000.0 4000.0 4000.0 4000.0 4000.0 4000.0 4000.0 4000.0 4000.0 4000.0 4000.0 4000.0 4000.0 4000.0 4000.0 4000.0 4000.0 4000.0 4000.0 4000.0 4000.0 4000.0 4000.0 4000.0 4000.0 4000.0 4000.0 4000.0 4000.0 4000.0 4000.0 4000.0 4000.0 4000.0 4000.0 4000.0 4000.0 4000.0 4000.0 4000.0 4000.0 4000.0 4000.0 4000.0 4000.0 4000.0 4000.0 4000.0 4000.0 4000.0 4000.0 4000.0 4000.0 4000.0 4000.0 4000.0 4000.0 4000.0 4000.0 4000.0 4000.0 4000.0 4000.0 4000.0 4000.0 4000.0 4000.0 4000.0 4000.0 4000.0 4000.0 4000.0 4000.0 4000.0 4000.0 4000.0 4000.0 4000.0 4000.0 4000.0 4000.0 4000.0 4000.0 4000.0 4000.0 4000.0 4000.0 4000.0 4000.0 4000.0 4000.0 4000.0 4000.0 4000.0 4000.0 4000.0 4000.0 4000.0 4000.0 4000.0 4000.0 4000.0 4000.0 4000.0 4000.0 4000.0 4000.0 4000.0 4000.0 4000.0 4000.0 4000.0 4000.0 4000.0 4000.0 4000.0 4000.0 4000.0 4000.0 4000.0 4000.0 4000.0 4000.0 4000.0 4000.0 4000.0 4000.0 4000.0 4000.0 4000.0 4000.0 4000.0 4000.0 4000.0 4000.0 4000.0 4000.0 4000.0 4000.0 4000.0 4000.0 4000.0 4000.0 4000.0 4000.0 4000.0 4000.0 4000.0 4000.0 4000.0 4000.0 4000.0 4000.0 4000.0 4000.0 4000.0 4000.0 4000.0 4000.0 4000.0 4000.0 4000.0 4000.0 4000.0 4000.0 4000.0 4000.0 4000.0 4000.0 4000.0 4000.0 4000.0 4000.0 4000.0 4000.0 4000.0 4000.0 4000.0 4000.0 4000.0 4000.0 4000.0 4000.0 4000.0 4000.0 4000.0 4000.0 4000.0 4000.0 4000.0 4000.0 4000.0 4000.0 4000.0 4000.0 4000.0 4000.0 4000.0 4000.0 4000.0 4000.0 4000.0 4000.0 4000.0 4000.0 4000.0 4000.0 4000.0 4000.0 4000.0 4000.0 4000.0 4000.0 4000.0 4000.0 4000.0 4000.0 4000.0 4000.0 4000.0 4000.0 4000.0 4000.0 4000.0 4000.0 4000.0 4000.0 4000.0 4000.0 4000.0 4000.0 4000.0 4000.0 4000.0 4000.0 4000.0 4000.0 4000.0 4000.0 4000.0 4000.0 4000.0 4000.0 4000.0 4000.0 4000.0 4000.0 4000.0 4000.0 4000.0 4000.0 4000.0 4000.0 4000.0 4000.0 4000.0 4000.0 4000.0 4000.0 4000.0 4000.0 4000.0 4000.0 4000.0 4000.0 4000.0 4000.0 4000.0 4000.0 4000.0 4000.0 4000.0 4000.0 4000.0 4000.0 4000.0 4000.0 4000.0 4000.0 4000.0 4000.0 4000.0 4000.0 4000.0 4000.0 4000.0 4000.0 4000.0 4000.0 4000.0 4000.0 4000.0 4000.0 4000.0 4000.0 4000.0 4000.0 4000.0 4000.0 4000.0 4000.0 4000.0 4000.0 4000.0 4000.0 4000.0 4000.0 4000.0 4000.0 4000.0 4000.0 4000.0 4000.0 4000.0 4000.0 4000.0 4000.0 4000.0 4000.0 4000.0 4000.0 4000.0 4000.0 4000.0 4000.0 4000.0 4000.0 4000.0 4000.0 4000.0 4000.0 4000.0 4000.0 4000.0 4000.0 4000.0 4000.0 4000.0 4000.0 4000.0 4000.0 4000.0 4000.0 4000.0 4000.0 4000.0 4000.0 4000.0 4000.0 4000.0 4000.0 4000.0 4000.0 4000.0 4000.0 4000.0 4000.0 4000.0 4000.0 4000.0 4000.0 4000.0 4000.0 4000.0 4000.0 4000.0 4000.0 4000.0 4000.0 4000.0 4000.0 4000.0 4000.0 4000.0 4000.0 4000.0 4000.0 4000.0 4000.0 4000.0 4000.0 4000.0 4000.0 4000.0 4000.0 4000.0 4000.0 4000.0 4000.0 4000.0 4000.0 4000.0 4000.0 4000.0 4000.0 4000.0 4000.0 4000.0 4000.0 4000.0 4000.0 4000.0 4000.0 4000.0 4000.0 4000.0 4000.0 4000.0 4000.0 4000.0 4000.0 4000.0 4000.0 4000.0 4000.0 4000.0 4000.0 4000.0 4000.0 4000.0 4000.0 4000.0 4000.0 4000.0 4000.0 4000.0 4000.0 4000.0 4000.0 4000.0 4000.0 4000.0 4000.0 4000.0 4000.0 4000.0 4000.0 4000.0 4000.0 4000.0 4000.0 4000.0 4000.0 4000.0 4000.0 4000.0 4000.0 4000.0 4000.0 4000.0 4000.0 4000.0 4000.0 4000.0 4000.0 4000.0 4000.0 4000.0 4000.0 4000.0 4000.0 4000.0 4000.0 4000.0 4000.0 4000.0 4000.0 4000.0 4000.0 4000.0 4000.0 4000.0 4000.0 4000.0 4000.0 4000.0 4000.0 4000.0 4000.0 4000.0 4000.0 4000.0 4000.0 4000.0 4000.0 4000.0 4000.0 4000.0 4000.0 4000.0 4000.0 4000.0 4000.0 4000.0 4000.0 4000.0 4000.0 4000.0 4000.0 4000.0 4000.0 4000.0 4000.0 4000.0 4000.0 4000.0 4000.0 4000.0 4000.0 4000.0 4000.0 4000.0 4000.0 4000.0 4000.0 4000.0 4000.0 4000.0 4000.0 4000.0 4000.0 4000.0 4000.0 4000.0 4000.0 4000.0 4000.0 4000.0 4000.0 4000.0 4000.0 4000.0 4000.0 4000.0 4000.0 4000.0 4000.0 4000.0 4000.0 4000.0 4000.0 4000.0 4000.0 4000.0 4000.0 4000.0 4000.0 4000.0 4000.0 4000.0 4000.0 4000.0 4000.0 4000.0 4000.0 4000.0 4000.0 4000.0 4000.0 4000.0 4000.0 4000.0 4000.0 4000.0 4000.0 4000.0 4000.0 4000.0 4000.0 4000.0 4000.0 4000.0 4000.0 4000.0 4000.0 4000.0 4000.0 4000.0 4000.0 4000.0 4000.0 4000.0 4000.0 4000.0 4000.0 4000.0 4000.0 4000.0 4000.0 4000.0 4000.0 4000.0 4000.0 4000.0 4000.0 4000.0 4000.0 4000.0 4000.0 4000.0 4000.0 4000.0 4000.0 4000.0 4000.0 4000.0 4000.0 4000.0 4000.0 4000.0 4000.0 4000.0 4000.0 4000.0 4000.0 4000.0 4000.0 4000.0 4000.0 4000.0 4000.0 4000.0 4000.0 4000.0 4000.0 4000.0 4000.0 4000.0 4000.0 4000.0 4000.0 4000.0 4000.0 4000.0 4000.0 4000.0 4000.0 4000.0 4000.0 4000.0 4000.0 4000.0 4000.0 4000.0 4000.0 4000.0 4000.0 4000.0 4000.0 4000.0 4000.0 4000.0 4000.0 4000.0 4000.0 4000.0 4000.0 4000.0 4000.0 4000.0 4000.0 4000.0 4000.0 4000.0 4000.0 4000.0 4000.0 4000.0 4000.0 4000.0 4000.0 4000.0 4000.0 4000.0 4000.0 4000.0 4000.0 4000.0 4000.0 4000.0 4000.0 4000.0 4000.0 4000.0 4000.0 4000.0 4000.0 4000.0 4000.0 4000.0 4000.0 4000.0 4000.0 4000.0 4000.0 4000.0 4000.0 4000.0 4000.0 4000.0 4000.0 4000.0 4000.0 4000.0 4000.0 4000.0 4000.0 4000.0 4000.0 4000.0 4000.0 4000.0 4000.0 4000.0 4000.0 4000.0 4000.0 4000.0 4000.0 4000.0 4000.0 4000.0 4000.0 4000.0 4000.0 4000.0 4000.0 4000.0 4000.0 4000.0 4000.0 4000.0 4000.0 4000.0 4000.0 4000.0 4000.0 4000.0 4000.0 4000.0 4000.0 4000.0 4000.0 4000.0 4000.0 4000.0 4000.0 4000.0 4000.0 4000.0 4000.0 4000.0 4000.0 4000.0 4000.0 4000.0 4000.0 4000.0 4000.0 4000.0 4000.0 4000.0 4000.0 4000.0 4000.0 4000.0 4000.0 4000.0 4000.0 4000.0 4000.0 4000.0 4000.0 4000.0 4000.0 4000.0 4000.0 4000.0 4000.0 4000.0 4000.0 4000.0 4000.0 4000.0 4000.0 4000.0 4000.0 4000.0 4000.0 4000.0 4000.0 4000.0 4000.0 4000.0 4000.0 4000.0 4000.0 4000.0 4000.0 4000.0 4000.0 4000.0 4000.0 4000.0 4000.0 4000.0 4000.0 4000.0 4000.0 4000.0 4000.0 4000.0 4000.0 4000.0 4000.0 4000.0 4000.0 4000.0 4000.0 4000.0 4000.0 4000.0 4000.0 4000.0 4000.0 4000.0 4000.0 4000.0 4000.0 4000.0 4000.0 4000.0 4000.0 4000.0 4000.0 4000.0 4000.0 4000.0 4000.0 4000.0 4000.0 4000.0 4000.0 4000.0 4000.0 4000.0 4000.0 4000.0 4000.0 4000.0 4000.0 4000.0 4000.0 4000.0 4000.0 4000.0 4000.0 4000.0 4000.0 4000.0 4000.0 4000.0 4000.0 4000.0 4000.0 4000.0 4000.0 4000.0 4000.0 4000.0 4000.0 4000.0 4000.0 4000.0 4000.0 4000.0 4000.0 4000.0 4000.0 4000.0 4000.0 4000.0 4000.0 4000.0 4000.0 4000.0 4000.0 4000.0 4000.0 4000.0 4000.0 4000.0 4000.0 4000.0 4000.0 4000.0 4000.0 4000.0 4000.0 4000.0 4000.0 4000.0 4000.0 4000.0 4000.0 4000.0 4000.0 4000.0 4000.0 4000.0 4000.0 4000.0 4000.0 4000.0 4000.0 4000.0 4000.0 4000.0 4000.0 4000.0 4000.0 4000.0 4000.0 4000.0 4000.0 4000.0 4000.0 4000.0 4000.0 4000.0 4000.0 4000.0 4000.0 4000.0 4000.0 4000.0 4000.0 4000.0 4000.0 4000.0 4000.0 4000.0 4000.0 4000.0 4000.0 4000.0 4000.0 4000.0 4000.0 4000.0 4000.0 4000.0 4000.0 4000.0 4000.0 4000.0 4000.0 4000.0 4000.0 4000.0 4000.0 4000.0 4000.0 4000.0 4000.0 4000.0 4000.0 4000.0 4000.0 4000.0 4000.0 4000.0 4000.0 4000.0 4000.0 4000.0 4000.0 4000.0 4000.0 4000.0 4000.0 4000.0 4000.0 4000.0 4000.0 4000.0 4000.0 4000.0 4000.0 4000.0 4000.0 4000.0 4000.0 4000.0 4000.0 4000.0 4000.0 4000.0 4000.0 4000.0 4000.0 4000.0 4000.0 4000.0 4000.0 4000.0 4000.0 4000.0 4000.0 4000.0 4000.0 4000.0 4000.0 4000.0 4000.0 4000.0 4000.0 4000.0 4000.0 4000.0 4000.0 4000.0 4000.0 4000.0 4000.0 4000.0 4000.0 4000.0 4000.0 4000.0 4000.0 4000.0 4000.0 4000.0 4000.0 4000.0 4000.0 4000.0 4000.0 4000.0 4000.0 4000.0 4000.0 4000.0 4000.0 4000.0 4000.0 4000.0 4000.0 4000.0 4000.0 4000.0 4000.0 4000.0 4000.0 4000.0 4000.0 4000.0 4000.0 4000.0 4000.0 4000.0 4000.0 4000.0 4000.0 4000.0 4000.0 4000.0 4000.0 4000.0 4000.0 4000.0 4000.0 4000.0 4000.0 4000.0 4000.0 4000.0 4000.0 4000.0 4000.0 4000.0 4000.0 4000.0 4000.0 4000.0 4000.0 4000.0 4000.0 4000.0 4000.0 4000.0 4000.0 4000.0 4000.0 4000.0 4000.0 4000.0 4000.0 4000.0 4000.0 4000.0 4000.0 4000.0 4000.0 4000.0 4000.0 4000.0 4000.0 4000.0 4000.0 4000.0 4000.0 4000.0 4000.0 4000.0 4000.0 4000.0 4000.0 4000.0 4000.0 4000.0 4000.0 4000.0 4000.0 4000.0 4000.0 4000.0 4000.0 4000.0 4000.0 4000.0 4000.0 4000.0 4000.0 4000.0 4000.0 4000.0 4000.0 4000.0 4000.0 4000.0 4000.0 4000.0 4000.0 4000.0 4000.0 4000.0 4000.0 4000.0 4000.0 4000.0 4000.0 4000.0 4000.0 4000.0 4000.0 4000.0 4000.0 4000.0 4000.0 4000.0 4000.0 4000.0 4000.0 4000.0 4000.0 4000.0 4000.0 4000.0 4000.0 4000.0 4000.0 4000.0 4000.0 4000.0 4000.0 4000.0 4000.0 4000.0 4000.0 4000.0 4000.0 4000.0 4000.0 4000.0 4000.0 4000.0 4000.0 4000.0 4000.0 4000.0 4000.0 4000.0 4000.0 4000.0 4000.0 4000.0 4000.0 4000.0 4000.0 4000.0 4000.0 4000.0 4000.0 4000.0 4000.0 4000.0 4000.0 4000.0 4000.0 4000.0 4000.0 4000.0 4000.0 4000.0 4000.0 4000.0 4000.0 4000.0 4000.0 4000.0 4000.0 4000.0 4000.0 4000.0 4000.0 4000.0 4000.0 4000.0 4000.0 4000.0 4000.0 4000.0 4000.0 4000.0 4000.0 4000.0 4000.0 4000.0 4000.0 4000.0 4000.0 4000.0 4000.0 4000.0 4000.0 4000.0 4000.0 4000.0 4000.0 4000.0 4000.0 4000.0 4000.0 4000.0 4000.0 4000.0 4000.0 4000.0 4000.0 4000.0 4000.0 4000.0 4000.0 4000.0 4000.0 4000.0 4000.0 4000.0 4000.0 4000.0 4000.0 4000.0 4000.0 4000.0 4000.0 4000.0 4000.0 4000.0 4000.0 4000.0 4000.0 4000.0 4000.0 4000.0 4000.0 4000.0 4000.0 4000.0 4000.0 4000.0 4000.0 4000.0 4000.0 4000.0 4000.0 4000.0 4000.0 4000.0 4000.0 4000.0 4000.0 4000.0 4000.0 4000.0 4000.0 4000.0 4000.0 4000.0 4000.0 4000.0 4000.0 4000.0 4000.0 4000.0 4000.0 4000.0 4000.0 4000.0 4000.0 4000.0 4000.0 4000.0 4000.0 4000.0 4000.0 4000.0 4000.0 4000.0 4000.0 4000.0 4000.0 4000.0 4000.0 4000.0 4000.0 4000.0 4000.0 4000.0 4000.0 4000.0 4000.0 4000.0 4000.0 4000.0 4000.0 4000.0 4000.0 4000.0 4000.0 4000.0 4000.0 4000.0 4000.0 4000.0 4000.0 4000.0 4000.0 4000.0 4000.0 4000.0 4000.0 4000.0 4000.0 4000.0 4000.0 4000.0 4000.0 4000.0 4000.0 4000.0 4000.0 4000.0 4000.0 4000.0 4000.0 4000.0 4000.0 4000.0 4000.0 4000.0 4000.0 4000.0 4000.0 4000.0 4000.0 4000.0 4000.0 4000.0 4000.0 4000.0 4000.0 4000.0 4000.0 4000.0 4000.0 4000.0 4000.0 4000.0 4000.0 4000.0 4000.0 4000.0 4000.0 4000.0 4000.0 4000.0 4000.0 4000.0 4000.0 4000.0 4000.0 4000.0 4000.0 4000.0 4000.0 4000.0 4000.0 4000.0 4000.0 4000.0 4000.0 4000.0 4000.0 4000.0 4000.0 4000.0 4000.0 4000.0 4000.0 4000.0 4000.0 4000.0 4000.0 4000.0 4000.0 4000.0 4000.0 4000.0 4000.0 4000.0 4000.0 4000.0 4000.0 4000.0 4000.0 4000.0 4000.0 4000.0 4000.0 4000.0 4000.0 4000.0 4000.0 4000.0 4000.0 4000.0 4000.0 4000.0 4000.0 4000.0 4000.0 4000.0 4000.0 4000.0 4000.0 4000.0 4000.0 4000.0 4000.0 4000.0 4000.0 4000.0 4000.0 4000.0 4000.0 4000.0 4000.0 4000.0 4000.0 4000.0 4000.0 4000.0 4000.0 4000.0 4000.0 4000.0 4000.0 4000.0 4000.0 4000.0 4000.0 4000.0 4000.0 4000.0 4000.0 4000.0 4000.0 4000.0 4000.0 4000.0 4000.0 4000.0 4000.0 4000.0 4000.0 4000.0 4000.0 4000.0 4000.0 4000.0 4000.0 4000.0 4000.0 4000.0 4000.0 4000.0 4000.0 4000.0 4000.0 4000.0 4000.0 4000.0 4000.0 4000.0 4000.0 4000.0 4000.0 4000.0 4000.0 4000.0 4000.0 4000.0 4000.0 4000.0 4000.0 4000.0 4000.0 4000.0 4000.0 4000.0 4000.0 4000.0 4000.0 4000.0 4000.0 4000.0 4000.0 4000.0 4000.0 4000.0 4000.0 4000.0 4000.0 4000.0 4000.0 4000.0 4000.0 4000.0 4000.0 4000.0 4000.0 4000.0 4000.0 4000.0 4000.0 4000.0 4000.0 4000.0 4000.0 4000.0 4000.0 4000.0 4000.0 4000.0 4000.0 4000.0 4000.0 4000.0 4000.0 4000.0 4000.0 4000.0 4000.0 4000.0 4000.0 4000.0 4000.0 4000.0 4000.0 4000.0 4000.0 4000.0 4000.0 4000.0 4000.0 4000.0 4000.0 4000.0 4000.0 4000.0 4000.0 4000.0 4000.0 4000.0 4000.0 4000.0 4000.0 4000.0 4000.0 4000.0 4000.0 4000.0 4000.0 4000.0 4000.0 4000.0 4000.0 4000.0 4000.0 4000.0 4000.0 4000.0 4000.0 4000.0 4000.0 4000.0 4000.0 4000.0 4000.0 4000.0 4000.0 4000.0 4000.0 4000.0 4000.0 4000.0 4000.0 4000.0 4000.0 4000.0 4000.0 4000.0 4000.0 4000.0 4000.0 4000.0 4000.0 4000.0 4000.0 4000.0 4000.0 4000.0 4000.0 4000.0 4000.0 4000.0 4000.0 4000.0 4000.0 4000.0 4000.0 4000.0 4000.0 4000.0 4000.0 4000.0 4000.0 4000.0 4000.0 4000.0 4000.0 4000.0 4000.0 4000.0 4000.0 4000.0 4000.0 4000.0 4000.0 4000.0 4000.0 4000.0 4000.0 4000.0 4000.0 4000.0 4000.0 4000.0 4000.0 4000.0 4000.0 4000.0 4000.0 4000.0 4000.0 4000.0 4000.0 4000.0 4000.0 4000.0 4000.0 4000.0 4000.0 4000.0 4000.0 4000.0 4000.0 4000.0 4000.0 4000.0 4000.0 4000.0 4000.0 4000.0 4000.0 4000.0 4000.0 4000.0 4000.0 4000.0 4000.0 4000.0 4000.0 4000.0 4000.0 4000.0 4000.0 4000.0 4000.0 4000.0 4000.0 4000.0 4000.0 4000.0 4000.0 4000.0 4000.0 4000.0 4000.0 4000.0 4000.0 4000.0 4000.0 4000.0 4000.0 4000.0 4000.0 4000.0 4000.0 4000.0 4000.0 4000.0 4000.0 4000.0 4000.0 4000.0 4000.0 4000.0 4000.0 4000.0 4000.0 4000.0 4000.0 4000.0 4000.0 4000.0 4000.0 4000.0 4000.0 4000.0 4000.0 4000.0 4000.0 4000.0 4000.0 4000.0 4000.0 4000.0 4000.0 4000.0 4000.0 4000.0 4000.0 4000.0 4000.0 4000.0 4000.0 4000.0 4000.0 4000.0 4000.0 4000.0 4000.0 4000.0 4000.0 4000.0 4000.0 4000.0 4000.0 4000.0 4000.0 4000.0 4000.0 4000.0 4000.0 4000.0 4000.0 4000.0 4000.0 4000.0 4000.0 4000.0 4000.0 4000.0 4000.0 4000.0 4000.0 4000.0 4000.0 4000.0 4000.0 4000.0 4000.0 4000.0 4000.0 4000.0 4000.0 4000.0 4000.0 4000.0 4000.0 4000.0 4000.0 4000.0 4000.0 4000.0 4000.0 4000.0 4000.0 4000.0 4000.0 4000.0 4000.0 4000.0 4000.0 4000.0 4000.0 4000.0 4000.0 4000.0 4000.0 4000.0 4000.0 4000.0 4000.0 4000.0 SCALARS Mass float 1
LOOKUP_TABLE default
11309700000.0 11309700000.0 11309700000.0 11309700000.0 11309700000.0 11309700000.0 11309700000.0 11309700000.0 11309700000.0 11309700000.0 11309700000.0 11309700000.0 11309700000.0 11309700000.0 11309700000.0 11309700000.0 11309700000.0 11309700000.0 11309700000.0 11309700000.0 11309700000.0 11309700000.0 11309700000.0 11309700000.0 11309700000.0 11309700000.0 11309700000.0 11309700000.0 11309700000.0 11309700000.0 11309700000.0 11309700000.0 11309700000.0 11309700000.0 11309700000.0 11309700000.0 11309700000.0 11309700000.0 11309700000.0 11309700000.0 11309700000.0 11309700000.0 11309700000.0 11309700000.0 11309700000.0 11309700000.0 11309700000.0 11309700000.0 11309700000.0 11309700000.0 11309700000.0 11309700000.0 11309700000.0 11309700000.0 11309700000.0 11309700000.0 11309700000.0 11309700000.0 11309700000.0 11309700000.0 11309700000.0 11309700000.0 11309700000.0 11309700000.0 11309700000.0 11309700000.0 11309700000.0 11309700000.0 11309700000.0 11309700000.0 11309700000.0 11309700000.0 11309700000.0 11309700000.0 11309700000.0 11309700000.0 11309700000.0 11309700000.0 11309700000.0 11309700000.0 11309700000.0 11309700000.0 11309700000.0 11309700000.0 11309700000.0 11309700000.0 11309700000.0 11309700000.0 11309700000.0 11309700000.0 11309700000.0 11309700000.0 11309700000.0 11309700000.0 11309700000.0 11309700000.0 11309700000.0 11309700000.0 11309700000.0 11309700000.0 11309700000.0 11309700000.0 11309700000.0 11309700000.0 11309700000.0 11309700000.0 11309700000.0 11309700000.0 11309700000.0 11309700000.0 11309700000.0 11309700000.0 11309700000.0 11309700000.0 11309700000.0 11309700000.0 11309700000.0 11309700000.0 11309700000.0 11309700000.0 11309700000.0 11309700000.0 11309700000.0 11309700000.0 11309700000.0 11309700000.0 11309700000.0 11309700000.0 11309700000.0 11309700000.0 11309700000.0 11309700000.0 11309700000.0 11309700000.0 11309700000.0 11309700000.0 11309700000.0 11309700000.0 11309700000.0 11309700000.0 11309700000.0 11309700000.0 11309700000.0 11309700000.0 11309700000.0 11309700000.0 11309700000.0 11309700000.0 11309700000.0 11309700000.0 11309700000.0 11309700000.0 11309700000.0 11309700000.0 11309700000.0 11309700000.0 11309700000.0 11309700000.0 11309700000.0 11309700000.0 11309700000.0 11309700000.0 11309700000.0 11309700000.0 11309700000.0 11309700000.0 11309700000.0 11309700000.0 11309700000.0 11309700000.0 11309700000.0 11309700000.0 11309700000.0 11309700000.0 11309700000.0 11309700000.0 11309700000.0 11309700000.0 11309700000.0 11309700000.0 11309700000.0 11309700000.0 11309700000.0 11309700000.0 11309700000.0 11309700000.0 11309700000.0 11309700000.0 11309700000.0 11309700000.0 11309700000.0 11309700000.0 11309700000.0 11309700000.0 11309700000.0 11309700000.0 11309700000.0 11309700000.0 11309700000.0 11309700000.0 11309700000.0 11309700000.0 11309700000.0 11309700000.0 11309700000.0 11309700000.0 11309700000.0 11309700000.0 11309700000.0 11309700000.0 11309700000.0 11309700000.0 11309700000.0 11309700000.0 11309700000.0 11309700000.0 11309700000.0 11309700000.0 11309700000.0 11309700000.0 11309700000.0 11309700000.0 11309700000.0 11309700000.0 11309700000.0 11309700000.0 11309700000.0 11309700000.0 11309700000.0 11309700000.0 11309700000.0 11309700000.0 11309700000.0 11309700000.0 11309700000.0 11309700000.0 11309700000.0 11309700000.0 11309700000.0 11309700000.0 11309700000.0 11309700000.0 11309700000.0 11309700000.0 11309700000.0 11309700000.0 11309700000.0 11309700000.0 11309700000.0 11309700000.0 11309700000.0 11309700000.0 11309700000.0 11309700000.0 11309700000.0 11309700000.0 11309700000.0 11309700000.0 11309700000.0 11309700000.0 11309700000.0 11309700000.0 11309700000.0 11309700000.0 11309700000.0 11309700000.0 11309700000.0 11309700000.0 11309700000.0 11309700000.0 11309700000.0 11309700000.0 11309700000.0 11309700000.0 11309700000.0 11309700000.0 11309700000.0 11309700000.0 11309700000.0 11309700000.0 11309700000.0 11309700000.0 11309700000.0 11309700000.0 11309700000.0 11309700000.0 11309700000.0 11309700000.0 11309700000.0 11309700000.0 11309700000.0 11309700000.0 11309700000.0 11309700000.0 11309700000.0 11309700000.0 11309700000.0 11309700000.0 11309700000.0 11309700000.0 11309700000.0 11309700000.0 11309700000.0 11309700000.0 11309700000.0 11309700000.0 11309700000.0 11309700000.0 11309700000.0 11309700000.0 11309700000.0 11309700000.0 11309700000.0 11309700000.0 11309700000.0 11309700000.0 11309700000.0 11309700000.0 11309700000.0 11309700000.0 11309700000.0 11309700000.0 11309700000.0 11309700000.0 11309700000.0 11309700000.0 11309700000.0 11309700000.0 11309700000.0 11309700000.0 11309700000.0 11309700000.0 11309700000.0 11309700000.0 11309700000.0 11309700000.0 11309700000.0 11309700000.0 11309700000.0 11309700000.0 11309700000.0 11309700000.0 11309700000.0 11309700000.0 11309700000.0 11309700000.0 11309700000.0 11309700000.0 11309700000.0 11309700000.0 11309700000.0 11309700000.0 11309700000.0 11309700000.0 11309700000.0 11309700000.0 11309700000.0 11309700000.0 11309700000.0 11309700000.0 11309700000.0 11309700000.0 11309700000.0 11309700000.0 11309700000.0 11309700000.0 11309700000.0 11309700000.0 11309700000.0 11309700000.0 11309700000.0 11309700000.0 11309700000.0 11309700000.0 11309700000.0 11309700000.0 11309700000.0 11309700000.0 11309700000.0 11309700000.0 11309700000.0 11309700000.0 11309700000.0 11309700000.0 11309700000.0 11309700000.0 11309700000.0 11309700000.0 11309700000.0 11309700000.0 11309700000.0 11309700000.0 11309700000.0 11309700000.0 11309700000.0 11309700000.0 11309700000.0 11309700000.0 11309700000.0 11309700000.0 11309700000.0 11309700000.0 11309700000.0 11309700000.0 11309700000.0 11309700000.0 11309700000.0 11309700000.0 11309700000.0 11309700000.0 11309700000.0 11309700000.0 11309700000.0 11309700000.0 11309700000.0 11309700000.0 11309700000.0 11309700000.0 11309700000.0 11309700000.0 11309700000.0 11309700000.0 11309700000.0 11309700000.0 11309700000.0 11309700000.0 11309700000.0 11309700000.0 11309700000.0 11309700000.0 11309700000.0 11309700000.0 11309700000.0 11309700000.0 11309700000.0 11309700000.0 11309700000.0 11309700000.0 11309700000.0 11309700000.0 11309700000.0 11309700000.0 11309700000.0 11309700000.0 11309700000.0 11309700000.0 11309700000.0 11309700000.0 11309700000.0 11309700000.0 11309700000.0 11309700000.0 11309700000.0 11309700000.0 11309700000.0 11309700000.0 11309700000.0 11309700000.0 11309700000.0 11309700000.0 11309700000.0 11309700000.0 11309700000.0 11309700000.0 11309700000.0 11309700000.0 11309700000.0 11309700000.0 11309700000.0 11309700000.0 11309700000.0 11309700000.0 11309700000.0 11309700000.0 11309700000.0 11309700000.0 11309700000.0 11309700000.0 11309700000.0 11309700000.0 11309700000.0 11309700000.0 11309700000.0 11309700000.0 11309700000.0 11309700000.0 11309700000.0 11309700000.0 11309700000.0 11309700000.0 11309700000.0 11309700000.0 11309700000.0 11309700000.0 11309700000.0 11309700000.0 11309700000.0 11309700000.0 11309700000.0 11309700000.0 11309700000.0 11309700000.0 11309700000.0 11309700000.0 11309700000.0 11309700000.0 11309700000.0 11309700000.0 11309700000.0 11309700000.0 11309700000.0 11309700000.0 11309700000.0 11309700000.0 11309700000.0 11309700000.0 11309700000.0 11309700000.0 11309700000.0 11309700000.0 11309700000.0 11309700000.0 11309700000.0 11309700000.0 11309700000.0 11309700000.0 11309700000.0 11309700000.0 11309700000.0 11309700000.0 11309700000.0 11309700000.0 11309700000.0 11309700000.0 11309700000.0 11309700000.0 11309700000.0 11309700000.0 11309700000.0 11309700000.0 11309700000.0 11309700000.0 11309700000.0 11309700000.0 11309700000.0 11309700000.0 11309700000.0 11309700000.0 11309700000.0 11309700000.0 11309700000.0 11309700000.0 11309700000.0 11309700000.0 11309700000.0 11309700000.0 11309700000.0 11309700000.0 11309700000.0 11309700000.0 11309700000.0 11309700000.0 11309700000.0 11309700000.0 11309700000.0 11309700000.0 11309700000.0 11309700000.0 11309700000.0 11309700000.0 11309700000.0 11309700000.0 11309700000.0 11309700000.0 11309700000.0 11309700000.0 11309700000.0 11309700000.0 11309700000.0 11309700000.0 11309700000.0 11309700000.0 11309700000.0 11309700000.0 11309700000.0 11309700000.0 11309700000.0 11309700000.0 11309700000.0 11309700000.0 11309700000.0 11309700000.0 11309700000.0 11309700000.0 11309700000.0 11309700000.0 11309700000.0 11309700000.0 11309700000.0 11309700000.0 11309700000.0 11309700000.0 11309700000.0 11309700000.0 11309700000.0 11309700000.0 11309700000.0 11309700000.0 11309700000.0 11309700000.0 11309700000.0 11309700000.0 11309700000.0 11309700000.0 11309700000.0 11309700000.0 11309700000.0 11309700000.0 11309700000.0 11309700000.0 11309700000.0 11309700000.0 11309700000.0 11309700000.0 11309700000.0 11309700000.0 11309700000.0 11309700000.0 11309700000.0 11309700000.0 11309700000.0 11309700000.0 11309700000.0 11309700000.0 11309700000.0 11309700000.0 11309700000.0 11309700000.0 11309700000.0 11309700000.0 11309700000.0 11309700000.0 11309700000.0 11309700000.0 11309700000.0 11309700000.0 11309700000.0 11309700000.0 11309700000.0 11309700000.0 11309700000.0 11309700000.0 11309700000.0 11309700000.0 11309700000.0 11309700000.0 11309700000.0 11309700000.0 11309700000.0 11309700000.0 11309700000.0 11309700000.0 11309700000.0 11309700000.0 11309700000.0 11309700000.0 11309700000.0 11309700000.0 11309700000.0 11309700000.0 11309700000.0 11309700000.0 11309700000.0 11309700000.0 11309700000.0 11309700000.0 11309700000.0 11309700000.0 11309700000.0 11309700000.0 11309700000.0 11309700000.0 11309700000.0 11309700000.0 11309700000.0 11309700000.0 11309700000.0 11309700000.0 11309700000.0 11309700000.0 11309700000.0 11309700000.0 11309700000.0 11309700000.0 11309700000.0 11309700000.0 11309700000.0 11309700000.0 11309700000.0 11309700000.0 11309700000.0 11309700000.0 11309700000.0 11309700000.0 11309700000.0 11309700000.0 11309700000.0 11309700000.0 11309700000.0 11309700000.0 11309700000.0 11309700000.0 11309700000.0 11309700000.0 11309700000.0 11309700000.0 11309700000.0 11309700000.0 11309700000.0 11309700000.0 11309700000.0 11309700000.0 11309700000.0 11309700000.0 11309700000.0 11309700000.0 11309700000.0 11309700000.0 11309700000.0 11309700000.0 11309700000.0 11309700000.0 11309700000.0 11309700000.0 11309700000.0 11309700000.0 11309700000.0 11309700000.0 11309700000.0 11309700000.0 11309700000.0 11309700000.0 11309700000.0 11309700000.0 11309700000.0 11309700000.0 11309700000.0 11309700000.0 11309700000.0 11309700000.0 11309700000.0 11309700000.0 11309700000.0 11309700000.0 11309700000.0 11309700000.0 11309700000.0 11309700000.0 11309700000.0 11309700000.0 11309700000.0 11309700000.0 11309700000.0 11309700000.0 11309700000.0 11309700000.0 11309700000.0 11309700000.0 11309700000.0 11309700000.0 11309700000.0 11309700000.0 11309700000.0 11309700000.0 11309700000.0 11309700000.0 11309700000.0 11309700000.0 11309700000.0 11309700000.0 11309700000.0 11309700000.0 11309700000.0 11309700000.0 11309700000.0 11309700000.0 11309700000.0 11309700000.0 11309700000.0 11309700000.0 11309700000.0 11309700000.0 11309700000.0 11309700000.0 11309700000.0 11309700000.0 11309700000.0 11309700000.0 11309700000.0 11309700000.0 11309700000.0 11309700000.0 11309700000.0 11309700000.0 11309700000.0 11309700000.0 11309700000.0 11309700000.0 11309700000.0 11309700000.0 11309700000.0 11309700000.0 11309700000.0 11309700000.0 11309700000.0 11309700000.0 11309700000.0 11309700000.0 11309700000.0 11309700000.0 11309700000.0 11309700000.0 11309700000.0 11309700000.0 11309700000.0 11309700000.0 11309700000.0 11309700000.0 11309700000.0 11309700000.0 11309700000.0 11309700000.0 11309700000.0 11309700000.0 11309700000.0 11309700000.0 11309700000.0 11309700000.0 11309700000.0 11309700000.0 11309700000.0 11309700000.0 11309700000.0 11309700000.0 11309700000.0 11309700000.0 11309700000.0 11309700000.0 11309700000.0 11309700000.0 11309700000.0 11309700000.0 11309700000.0 11309700000.0 11309700000.0 11309700000.0 11309700000.0 11309700000.0 11309700000.0 11309700000.0 11309700000.0 11309700000.0 11309700000.0 11309700000.0 11309700000.0 11309700000.0 11309700000.0 11309700000.0 11309700000.0 11309700000.0 11309700000.0 11309700000.0 11309700000.0 11309700000.0 11309700000.0 11309700000.0 11309700000.0 11309700000.0 11309700000.0 11309700000.0 11309700000.0 11309700000.0 11309700000.0 11309700000.0 11309700000.0 11309700000.0 11309700000.0 11309700000.0 11309700000.0 11309700000.0 11309700000.0 11309700000.0 11309700000.0 11309700000.0 11309700000.0 11309700000.0 11309700000.0 11309700000.0 11309700000.0 11309700000.0 11309700000.0 11309700000.0 11309700000.0 11309700000.0 11309700000.0 11309700000.0 11309700000.0 11309700000.0 11309700000.0 11309700000.0 11309700000.0 11309700000.0 11309700000.0 11309700000.0 11309700000.0 11309700000.0 11309700000.0 11309700000.0 11309700000.0 11309700000.0 11309700000.0 11309700000.0 11309700000.0 11309700000.0 11309700000.0 11309700000.0 11309700000.0 11309700000.0 11309700000.0 11309700000.0 11309700000.0 11309700000.0 11309700000.0 11309700000.0 11309700000.0 11309700000.0 11309700000.0 11309700000.0 11309700000.0 11309700000.0 11309700000.0 11309700000.0 11309700000.0 11309700000.0 11309700000.0 11309700000.0 11309700000.0 11309700000.0 11309700000.0 11309700000.0 11309700000.0 11309700000.0 11309700000.0 11309700000.0 11309700000.0 11309700000.0 11309700000.0 11309700000.0 11309700000.0 11309700000.0 11309700000.0 11309700000.0 11309700000.0 11309700000.0 11309700000.0 11309700000.0 11309700000.0 11309700000.0 11309700000.0 11309700000.0 11309700000.0 11309700000.0 11309700000.0 11309700000.0 11309700000.0 11309700000.0 11309700000.0 11309700000.0 11309700000.0 11309700000.0 11309700000.0 11309700000.0 11309700000.0 11309700000.0 11309700000.0 11309700000.0 11309700000.0 11309700000.0 11309700000.0 11309700000.0 11309700000.0 11309700000.0 11309700000.0 11309700000.0 11309700000.0 11309700000.0 11309700000.0 11309700000.0 11309700000.0 11309700000.0 11309700000.0 11309700000.0 11309700000.0 11309700000.0 11309700000.0 11309700000.0 11309700000.0 11309700000.0 11309700000.0 11309700000.0 11309700000.0 11309700000.0 11309700000.0 11309700000.0 11309700000.0 11309700000.0 11309700000.0 11309700000.0 11309700000.0 11309700000.0 11309700000.0 11309700000.0 11309700000.0 11309700000.0 11309700000.0 11309700000.0 11309700000.0 11309700000.0 11309700000.0 11309700000.0 11309700000.0 11309700000.0 11309700000.0 11309700000.0 11309700000.0 11309700000.0 11309700000.0 11309700000.0 11309700000.0 11309700000.0 11309700000.0 11309700000.0 11309700000.0 11309700000.0 11309700000.0 11309700000.0 11309700000.0 11309700000.0 11309700000.0 11309700000.0 11309700000.0 11309700000.0 11309700000.0 11309700000.0 11309700000.0 11309700000.0 11309700000.0 11309700000.0 11309700000.0 11309700000.0 11309700000.0 11309700000.0 11309700000.0 11309700000.0 11309700000.0 11309700000.0 11309700000.0 11309700000.0 11309700000.0 11309700000.0 11309700000.0 11309700000.0 11309700000.0 11309700000.0 11309700000.0 11309700000.0 11309700000.0 11309700000.0 11309700000.0 11309700000.0 11309700000.0 11309700000.0 11309700000.0 11309700000.0 11309700000.0 11309700000.0 11309700000.0 11309700000.0 11309700000.0 11309700000.0 11309700000.0 11309700000.0 11309700000.0 11309700000.0 11309700000.0 11309700000.0 11309700000.0 11309700000.0 11309700000.0 11309700000.0 11309700000.0 11309700000.0 11309700000.0 11309700000.0 11309700000.0 11309700000.0 11309700000.0 11309700000.0 11309700000.0 11309700000.0 11309700000.0 11309700000.0 11309700000.0 11309700000.0 11309700000.0 11309700000.0 11309700000.0 11309700000.0 11309700000.0 11309700000.0 11309700000.0 11309700000.0 11309700000.0 11309700000.0 11309700000.0 11309700000.0 11309700000.0 11309700000.0 11309700000.0 11309700000.0 11309700000.0 11309700000.0 11309700000.0 11309700000.0 11309700000.0 11309700000.0 11309700000.0 11309700000.0 11309700000.0 11309700000.0 11309700000.0 11309700000.0 11309700000.0 11309700000.0 11309700000.0 11309700000.0 11309700000.0 11309700000.0 11309700000.0 11309700000.0 11309700000.0 11309700000.0 11309700000.0 11309700000.0 11309700000.0 11309700000.0 11309700000.0 11309700000.0 11309700000.0 11309700000.0 11309700000.0 11309700000.0 11309700000.0 11309700000.0 11309700000.0 11309700000.0 11309700000.0 11309700000.0 11309700000.0 11309700000.0 11309700000.0 11309700000.0 11309700000.0 11309700000.0 11309700000.0 11309700000.0 11309700000.0 11309700000.0 11309700000.0 11309700000.0 11309700000.0 11309700000.0 11309700000.0 11309700000.0 11309700000.0 11309700000.0 11309700000.0 11309700000.0 11309700000.0 11309700000.0 11309700000.0 11309700000.0 11309700000.0 11309700000.0 11309700000.0 11309700000.0 11309700000.0 11309700000.0 11309700000.0 11309700000.0 11309700000.0 11309700000.0 11309700000.0 11309700000.0 11309700000.0 11309700000.0 11309700000.0 11309700000.0 11309700000.0 11309700000.0 11309700000.0 11309700000.0 11309700000.0 11309700000.0 11309700000.0 11309700000.0 11309700000.0 11309700000.0 11309700000.0 11309700000.0 11309700000.0 11309700000.0 11309700000.0 11309700000.0 11309700000.0 11309700000.0 11309700000.0 11309700000.0 11309700000.0 11309700000.0 11309700000.0 11309700000.0 11309700000.0 11309700000.0 11309700000.0 11309700000.0 11309700000.0 11309700000.0 11309700000.0 11309700000.0 11309700000.0 11309700000.0 11309700000.0 11309700000.0 11309700000.0 11309700000.0 11309700000.0 11309700000.0 11309700000.0 11309700000.0 11309700000.0 11309700000.0 11309700000.0 11309700000.0 11309700000.0 11309700000.0 11309700000.0 11309700000.0 11309700000.0 11309700000.0 11309700000.0 11309700000.0 11309700000.0 11309700000.0 11309700000.0 11309700000.0 11309700000.0 11309700000.0 11309700000.0 11309700000.0 11309700000.0 11309700000.0 11309700000.0 11309700000.0 11309700000.0 11309700000.0 11309700000.0 11309700000.0 11309700000.0 11309700000.0 11309700000.0 11309700000.0 11309700000.0 11309700000.0 11309700000.0 11309700000.0 11309700000.0 11309700000.0 11309700000.0 11309700000.0 11309700000.0 11309700000.0 11309700000.0 11309700000.0 11309700000.0 11309700000.0 11309700000.0 11309700000.0 11309700000.0 11309700000.0 11309700000.0 11309700000.0 11309700000.0 11309700000.0 11309700000.0 11309700000.0 11309700000.0 11309700000.0 11309700000.0 11309700000.0 11309700000.0 11309700000.0 11309700000.0 11309700000.0 11309700000.0 11309700000.0 11309700000.0 11309700000.0 11309700000.0 11309700000.0 11309700000.0 11309700000.0 11309700000.0 11309700000.0 11309700000.0 11309700000.0 11309700000.0 11309700000.0 11309700000.0 11309700000.0 11309700000.0 11309700000.0 11309700000.0 11309700000.0 11309700000.0 11309700000.0 11309700000.0 11309700000.0 11309700000.0 11309700000.0 11309700000.0 11309700000.0 11309700000.0 11309700000.0 11309700000.0 11309700000.0 11309700000.0 11309700000.0 11309700000.0 11309700000.0 11309700000.0 11309700000.0 11309700000.0 11309700000.0 11309700000.0 11309700000.0 11309700000.0 11309700000.0 11309700000.0 11309700000.0 11309700000.0 11309700000.0 11309700000.0 11309700000.0 11309700000.0 11309700000.0 11309700000.0 11309700000.0 11309700000.0 11309700000.0 11309700000.0 11309700000.0 11309700000.0 11309700000.0 11309700000.0 11309700000.0 11309700000.0 11309700000.0 11309700000.0 11309700000.0 11309700000.0 11309700000.0 11309700000.0 11309700000.0 11309700000.0 11309700000.0 11309700000.0 11309700000.0 11309700000.0 11309700000.0 11309700000.0 11309700000.0 11309700000.0 11309700000.0 11309700000.0 11309700000.0 11309700000.0 11309700000.0 11309700000.0 11309700000.0 11309700000.0 11309700000.0 11309700000.0 11309700000.0 11309700000.0 11309700000.0 11309700000.0 11309700000.0 11309700000.0 11309700000.0 11309700000.0 11309700000.0 11309700000.0 11309700000.0 11309700000.0 11309700000.0 11309700000.0 11309700000.0 11309700000.0 11309700000.0 11309700000.0 11309700000.0 11309700000.0 11309700000.0 11309700000.0 11309700000.0 11309700000.0 11309700000.0 11309700000.0 11309700000.0 11309700000.0 11309700000.0 11309700000.0 11309700000.0 11309700000.0 11309700000.0 11309700000.0 11309700000.0 11309700000.0 11309700000.0 11309700000.0 11309700000.0 11309700000.0 11309700000.0 11309700000.0 11309700000.0 11309700000.0 11309700000.0 11309700000.0 11309700000.0 11309700000.0 11309700000.0 11309700000.0 11309700000.0 11309700000.0 11309700000.0 11309700000.0 11309700000.0 11309700000.0 11309700000.0 11309700000.0 11309700000.0 11309700000.0 11309700000.0 11309700000.0 11309700000.0 11309700000.0 11309700000.0 11309700000.0 11309700000.0 11309700000.0 11309700000.0 11309700000.0 11309700000.0 11309700000.0 11309700000.0 11309700000.0 11309700000.0 11309700000.0 11309700000.0 11309700000.0 11309700000.0 11309700000.0 11309700000.0 11309700000.0 11309700000.0 11309700000.0 11309700000.0 11309700000.0 11309700000.0 11309700000.0 11309700000.0 11309700000.0 11309700000.0 11309700000.0 11309700000.0 11309700000.0 11309700000.0 11309700000.0 11309700000.0 11309700000.0 11309700000.0 11309700000.0 11309700000.0 11309700000.0 11309700000.0 11309700000.0 11309700000.0 11309700000.0 11309700000.0 11309700000.0 11309700000.0 11309700000.0 11309700000.0 11309700000.0 11309700000.0 11309700000.0 11309700000.0 11309700000.0 11309700000.0 11309700000.0 11309700000.0 11309700000.0 11309700000.0 11309700000.0 11309700000.0 11309700000.0 11309700000.0 11309700000.0 11309700000.0 11309700000.0 11309700000.0 11309700000.0 11309700000.0 11309700000.0 11309700000.0 11309700000.0 11309700000.0 11309700000.0 11309700000.0 11309700000.0 11309700000.0 11309700000.0 11309700000.0 11309700000.0 11309700000.0 11309700000.0 11309700000.0 11309700000.0 11309700000.0 11309700000.0 11309700000.0 11309700000.0 11309700000.0 11309700000.0 11309700000.0 11309700000.0 11309700000.0 11309700000.0 11309700000.0 11309700000.0 11309700000.0 11309700000.0 11309700000.0 11309700000.0 11309700000.0 11309700000.0 11309700000.0 11309700000.0 11309700000.0 11309700000.0 11309700000.0 11309700000.0 11309700000.0 11309700000.0 11309700000.0 11309700000.0 11309700000.0 11309700000.0 11309700000.0 11309700000.0 11309700000.0 11309700000.0 11309700000.0 11309700000.0 11309700000.0 11309700000.0 11309700000.0 11309700000.0 11309700000.0 11309700000.0 11309700000.0 11309700000.0 11309700000.0 11309700000.0 11309700000.0 11309700000.0 11309700000.0 11309700000.0 11309700000.0 11309700000.0 11309700000.0 11309700000.0 11309700000.0 11309700000.0 11309700000.0 11309700000.0 11309700000.0 11309700000.0 11309700000.0 11309700000.0 11309700000.0 11309700000.0 11309700000.0 11309700000.0 11309700000.0 11309700000.0 11309700000.0 11309700000.0 11309700000.0 11309700000.0 11309700000.0 11309700000.0 11309700000.0 11309700000.0 11309700000.0 11309700000.0 11309700000.0 11309700000.0 11309700000.0 11309700000.0 11309700000.0 11309700000.0 11309700000.0 11309700000.0 11309700000.0 11309700000.0 11309700000.0 11309700000.0 11309700000.0 11309700000.0 11309700000.0 11309700000.0 11309700000.0 11309700000.0 11309700000.0 11309700000.0 11309700000.0 11309700000.0 11309700000.0 11309700000.0 11309700000.0 11309700000.0 11309700000.0 11309700000.0 11309700000.0 11309700000.0 11309700000.0 11309700000.0 11309700000.0 11309700000.0 11309700000.0 11309700000.0 11309700000.0 11309700000.0 11309700000.0 11309700000.0 11309700000.0 11309700000.0 11309700000.0 11309700000.0 11309700000.0 11309700000.0 11309700000.0 11309700000.0 11309700000.0 11309700000.0 11309700000.0 11309700000.0 11309700000.0 11309700000.0 11309700000.0 11309700000.0 11309700000.0 11309700000.0 11309700000.0 11309700000.0 11309700000.0 11309700000.0 11309700000.0 11309700000.0 11309700000.0 11309700000.0 11309700000.0 11309700000.0 11309700000.0 11309700000.0 11309700000.0 11309700000.0 11309700000.0 11309700000.0 11309700000.0 11309700000.0 11309700000.0 11309700000.0 11309700000.0 11309700000.0 11309700000.0 11309700000.0 11309700000.0 11309700000.0 11309700000.0 11309700000.0 11309700000.0 11309700000.0 11309700000.0 11309700000.0 11309700000.0 11309700000.0 11309700000.0 11309700000.0 11309700000.0 11309700000.0 11309700000.0 11309700000.0 11309700000.0 11309700000.0 11309700000.0 11309700000.0 11309700000.0 11309700000.0 11309700000.0 11309700000.0 11309700000.0 11309700000.0 11309700000.0 11309700000.0 11309700000.0 11309700000.0 11309700000.0 11309700000.0 11309700000.0 11309700000.0 11309700000.0 11309700000.0 11309700000.0 11309700000.0 11309700000.0 11309700000.0 11309700000.0 11309700000.0 11309700000.0 11309700000.0 11309700000.0 11309700000.0 11309700000.0 11309700000.0 11309700000.0 11309700000.0 11309700000.0 11309700000.0 11309700000.0 11309700000.0 11309700000.0 11309700000.0 11309700000.0 11309700000.0 11309700000.0 11309700000.0 11309700000.0 11309700000.0 11309700000.0 11309700000.0 11309700000.0 11309700000.0 11309700000.0 11309700000.0 11309700000.0 11309700000.0 11309700000.0 11309700000.0 11309700000.0 11309700000.0 11309700000.0 11309700000.0 11309700000.0 11309700000.0 11309700000.0 11309700000.0 11309700000.0 11309700000.0 11309700000.0 11309700000.0 11309700000.0 11309700000.0 11309700000.0 11309700000.0 11309700000.0 11309700000.0 11309700000.0 11309700000.0 11309700000.0 11309700000.0 11309700000.0 11309700000.0 11309700000.0 11309700000.0 11309700000.0 11309700000.0 11309700000.0 11309700000.0 11309700000.0 11309700000.0 11309700000.0 11309700000.0 11309700000.0 11309700000.0 11309700000.0 11309700000.0 11309700000.0 11309700000.0 11309700000.0 11309700000.0 11309700000.0 11309700000.0 11309700000.0 11309700000.0 11309700000.0 11309700000.0 11309700000.0 11309700000.0 11309700000.0 11309700000.0 11309700000.0 11309700000.0 11309700000.0 11309700000.0 11309700000.0 11309700000.0 11309700000.0 11309700000.0 11309700000.0 11309700000.0 11309700000.0 11309700000.0 11309700000.0 11309700000.0 11309700000.0 11309700000.0 11309700000.0 11309700000.0 11309700000.0 11309700000.0 11309700000.0 11309700000.0 11309700000.0 11309700000.0 11309700000.0 11309700000.0 11309700000.0 11309700000.0 11309700000.0 11309700000.0 11309700000.0 11309700000.0 11309700000.0 11309700000.0 11309700000.0 11309700000.0 11309700000.0 11309700000.0 11309700000.0 11309700000.0 11309700000.0 11309700000.0 11309700000.0 11309700000.0 11309700000.0 11309700000.0 11309700000.0 11309700000.0 11309700000.0 11309700000.0 11309700000.0 11309700000.0 11309700000.0 11309700000.0 11309700000.0 11309700000.0 11309700000.0 11309700000.0 11309700000.0 11309700000.0 11309700000.0 11309700000.0 11309700000.0 11309700000.0 11309700000.0 11309700000.0 11309700000.0 11309700000.0 11309700000.0 11309700000.0 11309700000.0 11309700000.0 11309700000.0 11309700000.0 11309700000.0 11309700000.0 11309700000.0 11309700000.0 11309700000.0 11309700000.0 11309700000.0 11309700000.0 11309700000.0 11309700000.0 11309700000.0 11309700000.0 11309700000.0 11309700000.0 11309700000.0 11309700000.0 11309700000.0 11309700000.0 11309700000.0 11309700000.0 11309700000.0 11309700000.0 11309700000.0 11309700000.0 11309700000.0 11309700000.0 11309700000.0 11309700000.0 11309700000.0 11309700000.0 11309700000.0 11309700000.0 11309700000.0 11309700000.0 11309700000.0 11309700000.0 11309700000.0 11309700000.0 11309700000.0 11309700000.0 11309700000.0 11309700000.0 11309700000.0 11309700000.0 11309700000.0 11309700000.0 11309700000.0 11309700000.0 11309700000.0 11309700000.0 11309700000.0 11309700000.0 11309700000.0 11309700000.0 11309700000.0 11309700000.0 11309700000.0 11309700000.0 11309700000.0 11309700000.0 11309700000.0 11309700000.0 11309700000.0 11309700000.0 11309700000.0 11309700000.0 11309700000.0 11309700000.0 11309700000.0 11309700000.0 11309700000.0 11309700000.0 11309700000.0 11309700000.0 11309700000.0 11309700000.0 11309700000.0 11309700000.0 11309700000.0 11309700000.0 11309700000.0 11309700000.0 11309700000.0 11309700000.0 11309700000.0 11309700000.0 11309700000.0 11309700000.0 11309700000.0 11309700000.0 11309700000.0 11309700000.0 11309700000.0 11309700000.0 11309700000.0 11309700000.0 11309700000.0 11309700000.0 11309700000.0 11309700000.0 11309700000.0 11309700000.0 11309700000.0 11309700000.0 11309700000.0 11309700000.0 11309700000.0 11309700000.0 11309700000.0 11309700000.0 11309700000.0 11309700000.0 11309700000.0 11309700000.0 11309700000.0 11309700000.0 11309700000.0 11309700000.0 11309700000.0 11309700000.0 11309700000.0 11309700000.0 11309700000.0 11309700000.0 11309700000.0 11309700000.0 11309700000.0 11309700000.0 11309700000.0 11309700000.0 11309700000.0 11309700000.0 11309700000.0 11309700000.0 11309700000.0 11309700000.0 11309700000.0 11309700000.0 11309700000.0 11309700000.0 11309700000.0 11309700000.0 11309700000.0 11309700000.0 11309700000.0 11309700000.0 11309700000.0 11309700000.0 11309700000.0 11309700000.0 11309700000.0 11309700000.0 11309700000.0 11309700000.0 11309700000.0 11309700000.0 11309700000.0 11309700000.0 11309700000.0 11309700000.0 11309700000.0 11309700000.0 11309700000.0 11309700000.0 11309700000.0 11309700000.0 11309700000.0 11309700000.0 11309700000.0 11309700000.0 11309700000.0 11309700000.0 11309700000.0 11309700000.0 11309700000.0 11309700000.0 11309700000.0 11309700000.0 11309700000.0 11309700000.0 11309700000.0 11309700000.0 11309700000.0 11309700000.0 11309700000.0 11309700000.0 11309700000.0 11309700000.0 11309700000.0 11309700000.0 11309700000.0 11309700000.0 11309700000.0 11309700000.0 11309700000.0 11309700000.0 11309700000.0 11309700000.0 11309700000.0 11309700000.0 11309700000.0 11309700000.0 11309700000.0 11309700000.0 11309700000.0 11309700000.0 11309700000.0 11309700000.0 11309700000.0 11309700000.0 11309700000.0 11309700000.0 11309700000.0 11309700000.0 11309700000.0 11309700000.0 11309700000.0 11309700000.0 11309700000.0 11309700000.0 11309700000.0 11309700000.0 11309700000.0 11309700000.0 11309700000.0 11309700000.0 11309700000.0 11309700000.0 11309700000.0 11309700000.0 11309700000.0 11309700000.0 11309700000.0 11309700000.0 11309700000.0 11309700000.0 11309700000.0 11309700000.0 11309700000.0 11309700000.0 11309700000.0 11309700000.0 11309700000.0 11309700000.0 11309700000.0 11309700000.0 11309700000.0 11309700000.0 11309700000.0 11309700000.0 11309700000.0 11309700000.0 11309700000.0 11309700000.0 11309700000.0 11309700000.0 11309700000.0 11309700000.0 11309700000.0 11309700000.0 11309700000.0 11309700000.0 11309700000.0 11309700000.0 11309700000.0 11309700000.0 11309700000.0 11309700000.0 11309700000.0 11309700000.0 11309700000.0 11309700000.0 11309700000.0 11309700000.0 11309700000.0 11309700000.0 11309700000.0 11309700000.0 11309700000.0 11309700000.0 11309700000.0 11309700000.0 11309700000.0 11309700000.0 11309700000.0 11309700000.0 11309700000.0 11309700000.0 11309700000.0 11309700000.0 11309700000.0 11309700000.0 11309700000.0 11309700000.0 11309700000.0 11309700000.0 11309700000.0 11309700000.0 11309700000.0 11309700000.0 11309700000.0 11309700000.0 11309700000.0 11309700000.0 11309700000.0 11309700000.0 11309700000.0 11309700000.0 11309700000.0 11309700000.0 11309700000.0 11309700000.0 11309700000.0 11309700000.0 11309700000.0 11309700000.0 11309700000.0 11309700000.0 11309700000.0 11309700000.0 11309700000.0 11309700000.0 11309700000.0 11309700000.0 11309700000.0 11309700000.0 11309700000.0 11309700000.0 11309700000.0 11309700000.0 11309700000.0 11309700000.0 11309700000.0 11309700000.0 11309700000.0 11309700000.0 11309700000.0 11309700000.0 11309700000.0 11309700000.0 11309700000.0 11309700000.0 11309700000.0 11309700000.0 11309700000.0 11309700000.0 11309700000.0 11309700000.0 11309700000.0 11309700000.0 11309700000.0 11309700000.0 11309700000.0 11309700000.0 11309700000.0 11309700000.0 11309700000.0 11309700000.0 11309700000.0 11309700000.0 11309700000.0 11309700000.0 11309700000.0 11309700000.0 11309700000.0 11309700000.0 11309700000.0 11309700000.0 11309700000.0 11309700000.0 11309700000.0 11309700000.0 11309700000.0 11309700000.0 11309700000.0 11309700000.0 11309700000.0 11309700000.0 11309700000.0 11309700000.0 11309700000.0 11309700000.0 11309700000.0 11309700000.0 11309700000.0 11309700000.0 11309700000.0 11309700000.0 11309700000.0 11309700000.0 11309700000.0 11309700000.0 11309700000.0 11309700000.0 11309700000.0 11309700000.0 11309700000.0 11309700000.0 11309700000.0 11309700000.0 11309700000.0 11309700000.0 11309700000.0 11309700000.0 11309700000.0 11309700000.0 11309700000.0 11309700000.0 11309700000.0 11309700000.0 11309700000.0 11309700000.0 11309700000.0 11309700000.0 11309700000.0 11309700000.0 11309700000.0 11309700000.0 11309700000.0 11309700000.0 11309700000.0 11309700000.0 11309700000.0 11309700000.0 11309700000.0 11309700000.0 11309700000.0 11309700000.0 11309700000.0 11309700000.0 11309700000.0 11309700000.0 11309700000.0 11309700000.0 11309700000.0 11309700000.0 11309700000.0 11309700000.0 11309700000.0 11309700000.0 11309700000.0 11309700000.0 11309700000.0 11309700000.0 11309700000.0 11309700000.0 11309700000.0 11309700000.0 11309700000.0 11309700000.0 11309700000.0 11309700000.0 11309700000.0 11309700000.0 11309700000.0 11309700000.0 11309700000.0 11309700000.0 11309700000.0 11309700000.0 11309700000.0 11309700000.0 11309700000.0 11309700000.0 11309700000.0 11309700000.0 11309700000.0 11309700000.0 11309700000.0 11309700000.0 11309700000.0 11309700000.0 11309700000.0 11309700000.0 11309700000.0 11309700000.0 11309700000.0 11309700000.0 11309700000.0 11309700000.0 11309700000.0 11309700000.0 11309700000.0 11309700000.0 11309700000.0 11309700000.0 11309700000.0 11309700000.0 11309700000.0 11309700000.0 11309700000.0 11309700000.0 11309700000.0 11309700000.0 11309700000.0 11309700000.0 11309700000.0 11309700000.0 11309700000.0 11309700000.0 11309700000.0 11309700000.0 11309700000.0 11309700000.0 11309700000.0 11309700000.0 11309700000.0 11309700000.0 11309700000.0 11309700000.0 11309700000.0 11309700000.0 11309700000.0 11309700000.0 11309700000.0 11309700000.0 11309700000.0 11309700000.0 11309700000.0 11309700000.0 11309700000.0 11309700000.0 11309700000.0 11309700000.0 11309700000.0 11309700000.0 11309700000.0 11309700000.0 11309700000.0 11309700000.0 11309700000.0 11309700000.0 11309700000.0 11309700000.0 11309700000.0 11309700000.0 11309700000.0 11309700000.0 11309700000.0 11309700000.0 11309700000.0 11309700000.0 11309700000.0 11309700000.0 11309700000.0 11309700000.0 11309700000.0 11309700000.0 11309700000.0 11309700000.0 11309700000.0 11309700000.0 11309700000.0 11309700000.0 11309700000.0 11309700000.0 11309700000.0 11309700000.0 11309700000.0 11309700000.0 11309700000.0 11309700000.0 11309700000.0 11309700000.0 11309700000.0 11309700000.0 11309700000.0 11309700000.0 11309700000.0 11309700000.0 11309700000.0 11309700000.0 11309700000.0 11309700000.0 11309700000.0 11309700000.0 11309700000.0 11309700000.0 11309700000.0 11309700000.0 11309700000.0 11309700000.0 11309700000.0 11309700000.0 11309700000.0 11309700000.0 11309700000.0 11309700000.0 11309700000.0 11309700000.0 11309700000.0 11309700000.0 11309700000.0 11309700000.0 11309700000.0 11309700000.0 11309700000.0 11309700000.0 11309700000.0 11309700000.0 11309700000.0 11309700000.0 11309700000.0 11309700000.0 11309700000.0 11309700000.0 11309700000.0 11309700000.0 11309700000.0 11309700000.0 11309700000.0 11309700000.0 11309700000.0 11309700000.0 11309700000.0 11309700000.0 11309700000.0 11309700000.0 11309700000.0 11309700000.0 11309700000.0 11309700000.0 11309700000.0 11309700000.0 11309700000.0 11309700000.0 11309700000.0 11309700000.0 11309700000.0 11309700000.0 11309700000.0 11309700000.0 11309700000.0 11309700000.0 11309700000.0 11309700000.0 11309700000.0 11309700000.0 11309700000.0 11309700000.0 11309700000.0 11309700000.0 11309700000.0 11309700000.0 11309700000.0 11309700000.0 11309700000.0 11309700000.0 11309700000.0 11309700000.0 11309700000.0 11309700000.0 11309700000.0 11309700000.0 11309700000.0 11309700000.0 11309700000.0 11309700000.0 11309700000.0 11309700000.0 11309700000.0 11309700000.0 11309700000.0 11309700000.0 11309700000.0 11309700000.0 11309700000.0 11309700000.0 11309700000.0 11309700000.0 11309700000.0 11309700000.0 11309700000.0 11309700000.0 11309700000.0 11309700000.0 11309700000.0 11309700000.0 11309700000.0 11309700000.0 11309700000.0 11309700000.0 11309700000.0 11309700000.0 11309700000.0 11309700000.0 11309700000.0 11309700000.0 11309700000.0 11309700000.0 11309700000.0 11309700000.0 11309700000.0 11309700000.0 11309700000.0 11309700000.0 11309700000.0 11309700000.0 11309700000.0 11309700000.0 11309700000.0 11309700000.0 11309700000.0 11309700000.0 11309700000.0 11309700000.0 11309700000.0 11309700000.0 11309700000.0 11309700000.0 11309700000.0 11309700000.0 11309700000.0 11309700000.0 11309700000.0 11309700000.0 11309700000.0 11309700000.0 11309700000.0 11309700000.0 11309700000.0 11309700000.0 11309700000.0 11309700000.0 11309700000.0 11309700000.0 11309700000.0 11309700000.0 11309700000.0 11309700000.0 11309700000.0 11309700000.0 11309700000.0 11309700000.0 11309700000.0 11309700000.0 11309700000.0 11309700000.0 11309700000.0 11309700000.0 11309700000.0 11309700000.0 11309700000.0 11309700000.0 11309700000.0 11309700000.0 11309700000.0 11309700000.0 11309700000.0 11309700000.0 11309700000.0 11309700000.0 11309700000.0 11309700000.0 11309700000.0 11309700000.0 11309700000.0 11309700000.0 11309700000.0 11309700000.0 11309700000.0 11309700000.0 11309700000.0 11309700000.0 11309700000.0 11309700000.0 11309700000.0 11309700000.0 11309700000.0 11309700000.0 11309700000.0 11309700000.0 11309700000.0 11309700000.0 11309700000.0 11309700000.0 11309700000.0 11309700000.0 11309700000.0 11309700000.0 11309700000.0 11309700000.0 11309700000.0 11309700000.0 11309700000.0 11309700000.0 11309700000.0 11309700000.0 11309700000.0 11309700000.0 11309700000.0 11309700000.0 11309700000.0 11309700000.0 11309700000.0 11309700000.0 11309700000.0 11309700000.0 11309700000.0 11309700000.0 11309700000.0 11309700000.0 11309700000.0 11309700000.0 11309700000.0 11309700000.0 11309700000.0 11309700000.0 11309700000.0 11309700000.0 11309700000.0 11309700000.0 11309700000.0 11309700000.0 11309700000.0 11309700000.0 11309700000.0 11309700000.0 11309700000.0 11309700000.0 11309700000.0 11309700000.0 11309700000.0 11309700000.0 11309700000.0 11309700000.0 11309700000.0 11309700000.0 11309700000.0 11309700000.0 11309700000.0 11309700000.0 11309700000.0 11309700000.0 11309700000.0 11309700000.0 11309700000.0 11309700000.0 11309700000.0 11309700000.0 11309700000.0 11309700000.0 11309700000.0 11309700000.0 11309700000.0 11309700000.0 11309700000.0 11309700000.0 11309700000.0 11309700000.0 11309700000.0 11309700000.0 11309700000.0 11309700000.0 11309700000.0 11309700000.0 11309700000.0 11309700000.0 11309700000.0 11309700000.0 11309700000.0 11309700000.0 11309700000.0 11309700000.0 11309700000.0 11309700000.0 11309700000.0 11309700000.0 11309700000.0 11309700000.0 11309700000.0 11309700000.0 11309700000.0 11309700000.0 11309700000.0 11309700000.0 11309700000.0 11309700000.0 11309700000.0 11309700000.0 11309700000.0 11309700000.0 11309700000.0 11309700000.0 11309700000.0 11309700000.0 11309700000.0 11309700000.0 11309700000.0 11309700000.0 11309700000.0 11309700000.0 11309700000.0 11309700000.0 11309700000.0 11309700000.0 11309700000.0 11309700000.0 11309700000.0 11309700000.0 11309700000.0 11309700000.0 11309700000.0 11309700000.0 11309700000.0 11309700000.0 11309700000.0 11309700000.0 11309700000.0 11309700000.0 11309700000.0 11309700000.0 11309700000.0 11309700000.0 11309700000.0 11309700000.0 11309700000.0 11309700000.0 11309700000.0 11309700000.0 11309700000.0 11309700000.0 11309700000.0 11309700000.0 11309700000.0 11309700000.0 11309700000.0 11309700000.0 11309700000.0 11309700000.0 11309700000.0 11309700000.0 11309700000.0 11309700000.0 11309700000.0 11309700000.0 11309700000.0 11309700000.0 11309700000.0 11309700000.0 11309700000.0 11309700000.0 11309700000.0 11309700000.0 11309700000.0 11309700000.0 11309700000.0 11309700000.0 11309700000.0 11309700000.0 11309700000.0 11309700000.0 11309700000.0 11309700000.0 11309700000.0 11309700000.0 11309700000.0 11309700000.0 11309700000.0 11309700000.0 11309700000.0 11309700000.0 11309700000.0 11309700000.0 11309700000.0 11309700000.0 11309700000.0 11309700000.0 11309700000.0 11309700000.0 11309700000.0 11309700000.0 11309700000.0 11309700000.0 11309700000.0 11309700000.0 11309700000.0 11309700000.0 11309700000.0 11309700000.0 11309700000.0 11309700000.0 11309700000.0 11309700000.0 11309700000.0 11309700000.0 11309700000.0 11309700000.0 11309700000.0 11309700000.0 11309700000.0 11309700000.0 11309700000.0 11309700000.0 11309700000.0 11309700000.0 11309700000.0 11309700000.0 11309700000.0 11309700000.0 11309700000.0 11309700000.0 11309700000.0 11309700000.0 11309700000.0 11309700000.0 11309700000.0 11309700000.0 11309700000.0 11309700000.0 11309700000.0 11309700000.0 11309700000.0 11309700000.0 11309700000.0 11309700000.0 11309700000.0 11309700000.0 11309700000.0 11309700000.0 11309700000.0 11309700000.0 11309700000.0 11309700000.0 11309700000.0 11309700000.0 11309700000.0 11309700000.0 11309700000.0 11309700000.0 11309700000.0 11309700000.0 11309700000.0 11309700000.0 11309700000.0 11309700000.0 11309700000.0 11309700000.0 11309700000.0 11309700000.0 11309700000.0 11309700000.0 11309700000.0 11309700000.0 11309700000.0 11309700000.0 11309700000.0 11309700000.0 11309700000.0 11309700000.0 11309700000.0 11309700000.0 11309700000.0 11309700000.0 11309700000.0 11309700000.0 11309700000.0 11309700000.0 11309700000.0 11309700000.0 11309700000.0 11309700000.0 11309700000.0 11309700000.0 11309700000.0 11309700000.0 11309700000.0 11309700000.0 11309700000.0 11309700000.0 11309700000.0 11309700000.0 11309700000.0 11309700000.0 11309700000.0 11309700000.0 11309700000.0 11309700000.0 11309700000.0 11309700000.0 11309700000.0 11309700000.0 11309700000.0 11309700000.0 11309700000.0 11309700000.0 11309700000.0 11309700000.0 11309700000.0 11309700000.0 11309700000.0 11309700000.0 11309700000.0 11309700000.0 11309700000.0 11309700000.0 11309700000.0 11309700000.0 11309700000.0 11309700000.0 11309700000.0 11309700000.0 11309700000.0 11309700000.0 11309700000.0 11309700000.0 11309700000.0 11309700000.0 11309700000.0 11309700000.0 11309700000.0 11309700000.0 11309700000.0 11309700000.0 11309700000.0 11309700000.0 11309700000.0 11309700000.0 11309700000.0 11309700000.0 11309700000.0 11309700000.0 11309700000.0 11309700000.0 11309700000.0 11309700000.0 11309700000.0 11309700000.0 11309700000.0 11309700000.0 11309700000.0 11309700000.0 11309700000.0 11309700000.0 11309700000.0 11309700000.0 11309700000.0 11309700000.0 11309700000.0 11309700000.0 11309700000.0 11309700000.0 11309700000.0 11309700000.0 11309700000.0 11309700000.0 11309700000.0 11309700000.0 11309700000.0 11309700000.0 11309700000.0 11309700000.0 11309700000.0 11309700000.0 11309700000.0 11309700000.0 11309700000.0 11309700000.0 11309700000.0 11309700000.0 11309700000.0 11309700000.0 11309700000.0 11309700000.0 11309700000.0 11309700000.0 11309700000.0 11309700000.0 11309700000.0 11309700000.0 11309700000.0 11309700000.0 11309700000.0 11309700000.0 11309700000.0 11309700000.0 11309700000.0 11309700000.0 11309700000.0 11309700000.0 11309700000.0 11309700000.0 11309700000.0 11309700000.0 11309700000.0 11309700000.0 11309700000.0 11309700000.0 11309700000.0 11309700000.0 11309700000.0 11309700000.0 11309700000.0 11309700000.0 11309700000.0 11309700000.0 11309700000.0 11309700000.0 11309700000.0 11309700000.0 11309700000.0 11309700000.0 11309700000.0 11309700000.0 11309700000.0 11309700000.0 11309700000.0 11309700000.0 11309700000.0 11309700000.0 11309700000.0 11309700000.0 11309700000.0 11309700000.0 11309700000.0 11309700000.0 11309700000.0 11309700000.0 11309700000.0 11309700000.0 11309700000.0 11309700000.0 11309700000.0 11309700000.0 11309700000.0 11309700000.0 11309700000.0 11309700000.0 11309700000.0 11309700000.0 11309700000.0 11309700000.0 11309700000.0 11309700000.0 11309700000.0 11309700000.0 11309700000.0 11309700000.0 11309700000.0 11309700000.0 11309700000.0 11309700000.0 11309700000.0 11309700000.0 11309700000.0 11309700000.0 11309700000.0 11309700000.0 11309700000.0 11309700000.0 11309700000.0 11309700000.0 11309700000.0 11309700000.0 11309700000.0 11309700000.0 11309700000.0 11309700000.0 11309700000.0 11309700000.0 11309700000.0 11309700000.0 11309700000.0 11309700000.0 11309700000.0 11309700000.0 11309700000.0 11309700000.0 11309700000.0 11309700000.0 11309700000.0 11309700000.0 11309700000.0 11309700000.0 11309700000.0 11309700000.0 11309700000.0 11309700000.0 11309700000.0 11309700000.0 11309700000.0 11309700000.0 11309700000.0 11309700000.0 11309700000.0 11309700000.0 11309700000.0 11309700000.0 11309700000.0 11309700000.0 11309700000.0 11309700000.0 11309700000.0 11309700000.0 11309700000.0 11309700000.0 11309700000.0 11309700000.0 11309700000.0 11309700000.0 11309700000.0 11309700000.0 11309700000.0 11309700000.0 11309700000.0 11309700000.0 11309700000.0 11309700000.0 11309700000.0 11309700000.0 11309700000.0 11309700000.0 11309700000.0 11309700000.0 11309700000.0 11309700000.0 11309700000.0 11309700000.0 11309700000.0 11309700000.0 11309700000.0 11309700000.0 11309700000.0 11309700000.0 11309700000.0 11309700000.0 11309700000.0 11309700000.0 11309700000.0 11309700000.0 11309700000.0 11309700000.0 11309700000.0 11309700000.0 11309700000.0 11309700000.0 11309700000.0 11309700000.0 11309700000.0 11309700000.0 11309700000.0 11309700000.0 11309700000.0 11309700000.0 11309700000.0 11309700000.0 11309700000.0 11309700000.0 11309700000.0 11309700000.0 11309700000.0 11309700000.0 11309700000.0 11309700000.0 11309700000.0 11309700000.0 11309700000.0 11309700000.0 11309700000.0 11309700000.0 11309700000.0 11309700000.0 11309700000.0 11309700000.0 11309700000.0 11309700000.0 11309700000.0 11309700000.0 11309700000.0 11309700000.0 11309700000.0 11309700000.0 11309700000.0 11309700000.0 11309700000.0 11309700000.0 11309700000.0 11309700000.0 11309700000.0 11309700000.0 11309700000.0 11309700000.0 11309700000.0 11309700000.0 11309700000.0 11309700000.0 11309700000.0 11309700000.0 11309700000.0 11309700000.0 11309700000.0 11309700000.0 11309700000.0 11309700000.0 11309700000.0 11309700000.0 11309700000.0 11309700000.0 11309700000.0 11309700000.0 11309700000.0 11309700000.0 11309700000.0 11309700000.0 11309700000.0 11309700000.0 11309700000.0 11309700000.0 11309700000.0 11309700000.0 11309700000.0 11309700000.0 11309700000.0 11309700000.0 11309700000.0 11309700000.0 11309700000.0 11309700000.0 11309700000.0 11309700000.0 11309700000.0 11309700000.0 11309700000.0 11309700000.0 11309700000.0 11309700000.0 11309700000.0 11309700000.0 11309700000.0 11309700000.0 11309700000.0 11309700000.0 11309700000.0 11309700000.0 11309700000.0 11309700000.0 11309700000.0 11309700000.0 11309700000.0 11309700000.0 11309700000.0 11309700000.0 11309700000.0 11309700000.0 11309700000.0 11309700000.0 11309700000.0 11309700000.0 11309700000.0 11309700000.0 11309700000.0 11309700000.0 11309700000.0 11309700000.0 11309700000.0 11309700000.0 11309700000.0 11309700000.0 11309700000.0 11309700000.0 11309700000.0 11309700000.0 11309700000.0 11309700000.0 11309700000.0 11309700000.0 11309700000.0 11309700000.0 11309700000.0 11309700000.0 11309700000.0 11309700000.0 11309700000.0 11309700000.0 11309700000.0 11309700000.0 11309700000.0 11309700000.0 11309700000.0 11309700000.0 11309700000.0 11309700000.0 11309700000.0 11309700000.0 11309700000.0 11309700000.0 11309700000.0 11309700000.0 11309700000.0 11309700000.0 11309700000.0 11309700000.0 11309700000.0 11309700000.0 11309700000.0 11309700000.0 11309700000.0 11309700000.0 11309700000.0 11309700000.0 11309700000.0 11309700000.0 11309700000.0 11309700000.0 11309700000.0 11309700000.0 11309700000.0 11309700000.0 11309700000.0 11309700000.0 11309700000.0 11309700000.0 11309700000.0 11309700000.0 11309700000.0 11309700000.0 11309700000.0 11309700000.0 11309700000.0 11309700000.0 11309700000.0 11309700000.0 11309700000.0 11309700000.0 11309700000.0 11309700000.0 11309700000.0 11309700000.0 11309700000.0 11309700000.0 11309700000.0 11309700000.0 11309700000.0 11309700000.0 11309700000.0 11309700000.0 11309700000.0 11309700000.0 11309700000.0 11309700000.0 11309700000.0 11309700000.0 11309700000.0 11309700000.0 11309700000.0 11309700000.0 11309700000.0 11309700000.0 11309700000.0 11309700000.0 11309700000.0 11309700000.0 11309700000.0 11309700000.0 11309700000.0 11309700000.0 11309700000.0 11309700000.0 11309700000.0 11309700000.0 11309700000.0 11309700000.0 11309700000.0 11309700000.0 11309700000.0 11309700000.0 11309700000.0 11309700000.0 11309700000.0 11309700000.0 11309700000.0 11309700000.0 11309700000.0 11309700000.0 11309700000.0 11309700000.0 11309700000.0 11309700000.0 11309700000.0 11309700000.0 11309700000.0 11309700000.0 11309700000.0 11309700000.0 11309700000.0 11309700000.0 11309700000.0 11309700000.0 11309700000.0 11309700000.0 11309700000.0 11309700000.0 11309700000.0 11309700000.0 11309700000.0 11309700000.0 11309700000.0 11309700000.0 11309700000.0 11309700000.0 11309700000.0 11309700000.0 11309700000.0 11309700000.0 11309700000.0 11309700000.0 11309700000.0 11309700000.0 11309700000.0 11309700000.0 11309700000.0 11309700000.0 11309700000.0 11309700000.0 11309700000.0 11309700000.0 11309700000.0 11309700000.0 11309700000.0 11309700000.0 11309700000.0 11309700000.0 11309700000.0 11309700000.0 11309700000.0 11309700000.0 11309700000.0 11309700000.0 11309700000.0 11309700000.0 11309700000.0 11309700000.0 11309700000.0 11309700000.0 11309700000.0 11309700000.0 11309700000.0 11309700000.0 11309700000.0 11309700000.0 11309700000.0 11309700000.0 11309700000.0 11309700000.0 11309700000.0 11309700000.0 11309700000.0 11309700000.0 11309700000.0 11309700000.0 11309700000.0 11309700000.0 11309700000.0 11309700000.0 11309700000.0 11309700000.0 11309700000.0 11309700000.0 11309700000.0 11309700000.0 11309700000.0 11309700000.0 11309700000.0 11309700000.0 11309700000.0 11309700000.0 11309700000.0 11309700000.0 11309700000.0 11309700000.0 11309700000.0 11309700000.0 11309700000.0 11309700000.0 11309700000.0 11309700000.0 11309700000.0 11309700000.0 11309700000.0 11309700000.0 11309700000.0 11309700000.0 11309700000.0 11309700000.0 11309700000.0 11309700000.0 11309700000.0 11309700000.0 11309700000.0 11309700000.0 11309700000.0 11309700000.0 11309700000.0 11309700000.0 11309700000.0 11309700000.0 11309700000.0 11309700000.0 11309700000.0 11309700000.0 11309700000.0 11309700000.0 11309700000.0 11309700000.0 11309700000.0 11309700000.0 11309700000.0 11309700000.0 11309700000.0 11309700000.0 11309700000.0 11309700000.0 11309700000.0 11309700000.0 11309700000.0 11309700000.0 11309700000.0 11309700000.0 11309700000.0 11309700000.0 11309700000.0 11309700000.0 11309700000.0 11309700000.0 11309700000.0 11309700000.0 11309700000.0 11309700000.0 11309700000.0 11309700000.0 11309700000.0 11309700000.0 11309700000.0 11309700000.0 11309700000.0 11309700000.0 11309700000.0 11309700000.0 11309700000.0 11309700000.0 11309700000.0 11309700000.0 11309700000.0 11309700000.0 11309700000.0 11309700000.0 11309700000.0 11309700000.0 11309700000.0 11309700000.0 11309700000.0 11309700000.0 11309700000.0 11309700000.0 11309700000.0 11309700000.0 11309700000.0 11309700000.0 11309700000.0 11309700000.0 11309700000.0 11309700000.0 11309700000.0 11309700000.0 11309700000.0 11309700000.0 11309700000.0 11309700000.0 11309700000.0 11309700000.0 11309700000.0 11309700000.0 11309700000.0 11309700000.0 11309700000.0 11309700000.0 11309700000.0 11309700000.0 11309700000.0 11309700000.0 11309700000.0 11309700000.0 11309700000.0 11309700000.0 11309700000.0 11309700000.0 11309700000.0 11309700000.0 11309700000.0 11309700000.0 11309700000.0 11309700000.0 11309700000.0 11309700000.0 11309700000.0 11309700000.0 11309700000.0 11309700000.0 11309700000.0 11309700000.0 11309700000.0 11309700000.0 11309700000.0 11309700000.0 11309700000.0 11309700000.0 11309700000.0 11309700000.0 11309700000.0 11309700000.0 11309700000.0 11309700000.0 11309700000.0 11309700000.0 11309700000.0 11309700000.0 11309700000.0 11309700000.0 11309700000.0 11309700000.0 11309700000.0 11309700000.0 11309700000.0 11309700000.0 11309700000.0 11309700000.0 11309700000.0 11309700000.0 11309700000.0 11309700000.0 11309700000.0 11309700000.0 11309700000.0 11309700000.0 11309700000.0 11309700000.0 11309700000.0 11309700000.0 11309700000.0 11309700000.0 11309700000.0 11309700000.0 11309700000.0 11309700000.0 11309700000.0 11309700000.0 11309700000.0 11309700000.0 11309700000.0 11309700000.0 11309700000.0 11309700000.0 11309700000.0 11309700000.0 11309700000.0 11309700000.0 11309700000.0 11309700000.0 11309700000.0 11309700000.0 11309700000.0 11309700000.0 11309700000.0 11309700000.0 11309700000.0 11309700000.0 11309700000.0 11309700000.0 11309700000.0 11309700000.0 11309700000.0 11309700000.0 11309700000.0 11309700000.0 11309700000.0 11309700000.0 11309700000.0 11309700000.0 11309700000.0 11309700000.0 11309700000.0 11309700000.0 11309700000.0 11309700000.0 11309700000.0 11309700000.0 11309700000.0 11309700000.0 11309700000.0 11309700000.0 11309700000.0 11309700000.0 11309700000.0 11309700000.0 11309700000.0 11309700000.0 11309700000.0 11309700000.0 11309700000.0 11309700000.0 11309700000.0 11309700000.0 11309700000.0 11309700000.0 11309700000.0 11309700000.0 11309700000.0 11309700000.0 11309700000.0 11309700000.0 11309700000.0 11309700000.0 11309700000.0 11309700000.0 11309700000.0 11309700000.0 11309700000.0 11309700000.0 11309700000.0 11309700000.0 11309700000.0 11309700000.0 11309700000.0 11309700000.0 11309700000.0 11309700000.0 11309700000.0 11309700000.0 11309700000.0 11309700000.0 11309700000.0 11309700000.0 11309700000.0 11309700000.0 11309700000.0 11309700000.0 11309700000.0 11309700000.0 11309700000.0 11309700000.0 11309700000.0 11309700000.0 11309700000.0 11309700000.0 11309700000.0 11309700000.0 11309700000.0 11309700000.0 11309700000.0 11309700000.0 11309700000.0 11309700000.0 11309700000.0 11309700000.0 11309700000.0 11309700000.0 11309700000.0 11309700000.0 11309700000.0 11309700000.0 11309700000.0 11309700000.0 11309700000.0 11309700000.0 11309700000.0 11309700000.0 11309700000.0 11309700000.0 11309700000.0 11309700000.0 11309700000.0 11309700000.0 11309700000.0 11309700000.0 11309700000.0 11309700000.0 11309700000.0 11309700000.0 11309700000.0 11309700000.0 11309700000.0 11309700000.0 11309700000.0 11309700000.0 11309700000.0 11309700000.0 11309700000.0 11309700000.0 11309700000.0 11309700000.0 11309700000.0 11309700000.0 11309700000.0 11309700000.0 11309700000.0 11309700000.0 11309700000.0 11309700000.0 11309700000.0 11309700000.0 11309700000.0 11309700000.0 11309700000.0 11309700000.0 11309700000.0 11309700000.0 11309700000.0 11309700000.0 11309700000.0 11309700000.0 11309700000.0 11309700000.0 11309700000.0 11309700000.0 11309700000.0 11309700000.0 11309700000.0 11309700000.0 11309700000.0 11309700000.0 11309700000.0 11309700000.0 11309700000.0 11309700000.0 11309700000.0 11309700000.0 11309700000.0 11309700000.0 11309700000.0 11309700000.0 11309700000.0 11309700000.0 11309700000.0 11309700000.0 11309700000.0 11309700000.0 11309700000.0 11309700000.0 11309700000.0 11309700000.0 11309700000.0 11309700000.0 11309700000.0 11309700000.0 11309700000.0 11309700000.0 11309700000.0 11309700000.0 11309700000.0 11309700000.0 11309700000.0 11309700000.0 11309700000.0 11309700000.0 11309700000.0 11309700000.0 11309700000.0 11309700000.0 11309700000.0 11309700000.0 11309700000.0 11309700000.0 11309700000.0 11309700000.0 11309700000.0 11309700000.0 11309700000.0 11309700000.0 11309700000.0 11309700000.0 11309700000.0 11309700000.0 11309700000.0 11309700000.0 11309700000.0 11309700000.0 11309700000.0 11309700000.0 11309700000.0 11309700000.0 11309700000.0 11309700000.0 11309700000.0 11309700000.0 11309700000.0 11309700000.0 11309700000.0 11309700000.0 11309700000.0 11309700000.0 11309700000.0 11309700000.0 11309700000.0 11309700000.0 11309700000.0 11309700000.0 11309700000.0 11309700000.0 11309700000.0 11309700000.0 11309700000.0 11309700000.0 11309700000.0 11309700000.0 11309700000.0 11309700000.0 11309700000.0 11309700000.0 11309700000.0 11309700000.0 11309700000.0 11309700000.0 11309700000.0 11309700000.0 11309700000.0 11309700000.0 11309700000.0 11309700000.0 11309700000.0 11309700000.0 11309700000.0 11309700000.0 11309700000.0 11309700000.0 11309700000.0 11309700000.0 11309700000.0 11309700000.0 11309700000.0 11309700000.0 11309700000.0 11309700000.0 11309700000.0 11309700000.0 11309700000.0 11309700000.0 11309700000.0 11309700000.0 11309700000.0 11309700000.0 11309700000.0 11309700000.0 11309700000.0 11309700000.0 11309700000.0 11309700000.0 11309700000.0 11309700000.0 11309700000.0 11309700000.0 11309700000.0 11309700000.0 11309700000.0 11309700000.0 11309700000.0 11309700000.0 11309700000.0 11309700000.0 11309700000.0 11309700000.0 11309700000.0 11309700000.0 11309700000.0 11309700000.0 11309700000.0 11309700000.0 11309700000.0 11309700000.0 11309700000.0 11309700000.0 11309700000.0 11309700000.0 11309700000.0 11309700000.0 11309700000.0 11309700000.0 11309700000.0 11309700000.0 11309700000.0 11309700000.0 11309700000.0 11309700000.0 11309700000.0 11309700000.0 11309700000.0 11309700000.0 11309700000.0 11309700000.0 11309700000.0 11309700000.0 11309700000.0 11309700000.0 11309700000.0 11309700000.0 11309700000.0 11309700000.0 11309700000.0 11309700000.0 11309700000.0 11309700000.0 11309700000.0 11309700000.0 11309700000.0 11309700000.0 11309700000.0 11309700000.0 11309700000.0 11309700000.0 11309700000.0 11309700000.0 11309700000.0 11309700000.0 11309700000.0 11309700000.0 11309700000.0 11309700000.0 11309700000.0 11309700000.0 11309700000.0 11309700000.0 11309700000.0 11309700000.0 11309700000.0 11309700000.0 11309700000.0 11309700000.0 11309700000.0 11309700000.0 11309700000.0 11309700000.0 11309700000.0 11309700000.0 11309700000.0 11309700000.0 11309700000.0 11309700000.0 11309700000.0 11309700000.0 11309700000.0 11309700000.0 11309700000.0 11309700000.0 11309700000.0 11309700000.0 11309700000.0 11309700000.0 11309700000.0 11309700000.0 11309700000.0 11309700000.0 11309700000.0 11309700000.0 11309700000.0 11309700000.0 11309700000.0 11309700000.0 11309700000.0 11309700000.0 11309700000.0 11309700000.0 11309700000.0 11309700000.0 11309700000.0 11309700000.0 11309700000.0 11309700000.0 11309700000.0 11309700000.0 11309700000.0 11309700000.0 11309700000.0 11309700000.0 11309700000.0 11309700000.0 11309700000.0 11309700000.0 11309700000.0 11309700000.0 11309700000.0 11309700000.0 11309700000.0 11309700000.0 11309700000.0 11309700000.0 11309700000.0 11309700000.0 11309700000.0 11309700000.0 11309700000.0 11309700000.0 11309700000.0 11309700000.0 11309700000.0 11309700000.0 11309700000.0 11309700000.0 11309700000.0 11309700000.0 11309700000.0 11309700000.0 11309700000.0 11309700000.0 11309700000.0 11309700000.0 11309700000.0 11309700000.0 11309700000.0 11309700000.0 11309700000.0 11309700000.0 11309700000.0 11309700000.0 11309700000.0 11309700000.0 11309700000.0 11309700000.0 11309700000.0 11309700000.0 11309700000.0 11309700000.0 11309700000.0 11309700000.0 11309700000.0 11309700000.0 11309700000.0 11309700000.0 11309700000.0 11309700000.0 11309700000.0 11309700000.0 11309700000.0 11309700000.0 11309700000.0 11309700000.0 11309700000.0 11309700000.0 11309700000.0 11309700000.0 11309700000.0 11309700000.0 11309700000.0 11309700000.0 11309700000.0 11309700000.0 11309700000.0 11309700000.0 11309700000.0 11309700000.0 11309700000.0 11309700000.0 11309700000.0 11309700000.0 11309700000.0 11309700000.0 11309700000.0 11309700000.0 11309700000.0 11309700000.0 11309700000.0 11309700000.0 11309700000.0 11309700000.0 11309700000.0 11309700000.0 11309700000.0 11309700000.0 11309700000.0 11309700000.0 11309700000.0 11309700000.0 11309700000.0 11309700000.0 11309700000.0 11309700000.0 11309700000.0 11309700000.0 11309700000.0 11309700000.0 11309700000.0 11309700000.0 11309700000.0 11309700000.0 11309700000.0 11309700000.0 11309700000.0 11309700000.0 11309700000.0 11309700000.0 11309700000.0 11309700000.0 11309700000.0 11309700000.0 11309700000.0 11309700000.0 11309700000.0 11309700000.0 11309700000.0 11309700000.0 11309700000.0 11309700000.0 11309700000.0 11309700000.0 11309700000.0 11309700000.0 11309700000.0 11309700000.0 11309700000.0 11309700000.0 11309700000.0 11309700000.0 11309700000.0 11309700000.0 11309700000.0 11309700000.0 11309700000.0 11309700000.0 11309700000.0 11309700000.0 11309700000.0 11309700000.0 11309700000.0 11309700000.0 11309700000.0 11309700000.0 11309700000.0 11309700000.0 11309700000.0 11309700000.0 11309700000.0 11309700000.0 11309700000.0 11309700000.0 11309700000.0 11309700000.0 11309700000.0 11309700000.0 11309700000.0 11309700000.0 11309700000.0 11309700000.0 11309700000.0 11309700000.0 11309700000.0 11309700000.0 11309700000.0 11309700000.0 11309700000.0 11309700000.0 11309700000.0 11309700000.0 11309700000.0 11309700000.0 11309700000.0 11309700000.0 11309700000.0 11309700000.0 11309700000.0 11309700000.0 11309700000.0 11309700000.0 11309700000.0 11309700000.0 11309700000.0 11309700000.0 11309700000.0 11309700000.0 11309700000.0 11309700000.0 11309700000.0 11309700000.0 11309700000.0 11309700000.0 11309700000.0 11309700000.0 11309700000.0 11309700000.0 11309700000.0 11309700000.0 11309700000.0 11309700000.0 11309700000.0 11309700000.0 11309700000.0 11309700000.0 11309700000.0 11309700000.0 11309700000.0 11309700000.0 11309700000.0 11309700000.0 11309700000.0 11309700000.0 11309700000.0 11309700000.0 11309700000.0 11309700000.0 11309700000.0 11309700000.0 11309700000.0 11309700000.0 11309700000.0 11309700000.0 11309700000.0 11309700000.0 11309700000.0 11309700000.0 11309700000.0 11309700000.0 11309700000.0 11309700000.0 11309700000.0 11309700000.0 11309700000.0 11309700000.0 11309700000.0 11309700000.0 11309700000.0 11309700000.0 11309700000.0 11309700000.0 11309700000.0 11309700000.0 11309700000.0 11309700000.0 11309700000.0 11309700000.0 11309700000.0 11309700000.0 11309700000.0 11309700000.0 11309700000.0 11309700000.0 11309700000.0 11309700000.0 11309700000.0 11309700000.0 11309700000.0 11309700000.0 11309700000.0 11309700000.0 11309700000.0 11309700000.0 11309700000.0 11309700000.0 11309700000.0 11309700000.0 11309700000.0 11309700000.0 11309700000.0 11309700000.0 11309700000.0 11309700000.0 11309700000.0 11309700000.0 11309700000.0 11309700000.0 11309700000.0 11309700000.0 11309700000.0 11309700000.0 11309700000.0 11309700000.0 11309700000.0 11309700000.0 11309700000.0 11309700000.0 11309700000.0 11309700000.0 11309700000.0 11309700000.0 11309700000.0 11309700000.0 11309700000.0 11309700000.0 11309700000.0 11309700000.0 11309700000.0 11309700000.0 11309700000.0 11309700000.0 11309700000.0 11309700000.0 11309700000.0 11309700000.0 11309700000.0 11309700000.0 11309700000.0 11309700000.0 11309700000.0 11309700000.0 11309700000.0 11309700000.0 11309700000.0 11309700000.0 11309700000.0 11309700000.0 11309700000.0 11309700000.0 11309700000.0 11309700000.0 11309700000.0 11309700000.0 11309700000.0 11309700000.0 11309700000.0 11309700000.0 11309700000.0 11309700000.0 11309700000.0 11309700000.0 11309700000.0 11309700000.0 11309700000.0 11309700000.0 11309700000.0 11309700000.0 11309700000.0 11309700000.0 11309700000.0 11309700000.0 11309700000.0 11309700000.0 11309700000.0 11309700000.0 11309700000.0 11309700000.0 11309700000.0 11309700000.0 11309700000.0 11309700000.0 11309700000.0 11309700000.0 11309700000.0 11309700000.0 11309700000.0 11309700000.0 11309700000.0 11309700000.0 11309700000.0 11309700000.0 11309700000.0 11309700000.0 11309700000.0 11309700000.0 11309700000.0 11309700000.0 11309700000.0 11309700000.0 11309700000.0 11309700000.0 11309700000.0 11309700000.0 11309700000.0 11309700000.0 11309700000.0 11309700000.0 11309700000.0 11309700000.0 11309700000.0 11309700000.0 11309700000.0 11309700000.0 11309700000.0 11309700000.0 11309700000.0 11309700000.0 11309700000.0 11309700000.0 11309700000.0 11309700000.0 11309700000.0 11309700000.0 11309700000.0 11309700000.0 11309700000.0 11309700000.0 11309700000.0 11309700000.0 11309700000.0 11309700000.0 11309700000.0 11309700000.0 11309700000.0 11309700000.0 11309700000.0 11309700000.0 11309700000.0 11309700000.0 11309700000.0 11309700000.0 11309700000.0 11309700000.0 11309700000.0 11309700000.0 11309700000.0 11309700000.0 11309700000.0 11309700000.0 11309700000.0 11309700000.0 11309700000.0 11309700000.0 11309700000.0 11309700000.0 11309700000.0 11309700000.0 11309700000.0 11309700000.0 11309700000.0 11309700000.0 11309700000.0 11309700000.0 11309700000.0 11309700000.0 11309700000.0 11309700000.0 11309700000.0 11309700000.0 11309700000.0 11309700000.0 11309700000.0 11309700000.0 11309700000.0 11309700000.0 11309700000.0 11309700000.0 11309700000.0 11309700000.0 11309700000.0 11309700000.0 11309700000.0 11309700000.0 11309700000.0 11309700000.0 11309700000.0 11309700000.0 11309700000.0 11309700000.0 11309700000.0 11309700000.0 11309700000.0 11309700000.0 11309700000.0 
SCALARS Velocity float 1
LOOKUP_TABLE default
1.01774 0.967199 0.893832 0.988536 1.08306 1.11203 1.17144 1.22253 1.21203 1.18011 1.15013 1.12992 1.13683 1.0057 1.06766 1.03832 0.945074 0.893832 0.893848 1.06599 1.11182 1.14296 1.16545 1.18585 1.24106 1.1854 1.13775 1.11477 1.13179 1.02706 1.0999 1.06949 1.02165 0.893834 0.893845 1.093 1.14112 1.10949 1.22262 1.23698 1.21408 1.15358 1.12532 1.11614 1.11797 0.997342 1.09545 1.04905 0.893833 1.05696 1.09413 1.11318 1.16149 1.26277 1.23675 1.21117 1.1827 1.15513 1.13741 1.12521 1.11188 1.09696 1.0981 1.07051 1.04685 1.07244 1.13582 1.11742 1.10578 1.12388 1.14004 1.10442 1.16224 1.22794 1.26118 1.25294 1.23931 1.18062 1.13858 1.11182 1.08673 1.09054 1.09566 1.09879 1.10581 1.08427 1.07704 1.06523 1.09498 1.15496 1.0802 1.12964 1.14333 1.10661 1.2362 1.25749 1.21285 1.15393 1.12656 1.07683 1.10272 1.11433 1.07161 1.09043 1.08721 1.13116 1.15678 1.13726 1.15437 1.15222 1.25985 1.24393 1.21908 1.17901 1.15291 1.13792 1.02002 1.04736 1.08789 1.09964 1.11867 1.07015 1.15178 1.13648 1.17471 1.12444 1.20895 1.15416 1.17097 1.19578 1.18737 1.2623 1.25511 1.18094 1.00838 1.04664 1.07337 1.06234 1.07972 1.18978 1.11142 1.22803 1.10515 1.10004 1.17077 1.20033 1.18509 1.22225 1.20665 1.17871 1.16884 1.23731 1.03767 1.01771 1.06366 1.06272 1.0547 1.05969 1.10914 1.28237 1.09936 1.27548 1.17266 1.35086 1.24496 1.21675 1.2287 1.21655 1.23359 1.2008 1.15177 1.0953 1.06984 1.01318 1.07091 1.05137 1.05747 1.07645 1.11476 1.19522 1.30008 1.26294 1.17423 1.08957 1.28135 1.50202 1.28669 1.2514 1.23451 1.19138 1.16165 1.04013 1.09687 1.05105 1.04588 1.07839 1.23732 0.916222 1.39209 1.49423 1.30222 1.16751 1.04666 1.28994 1.27198 1.28038 1.23194 1.21746 1.01783 1.16191 1.08829 1.06046 1.04 1.03962 1.0377 1.05572 1.13356 1.08005 1.06605 1.13248 1.47085 2.19714 0.841982 1.24706 1.19925 0.937141 0.910111 1.32067 1.3478 1.27478 1.18546 1.07884 1.05248 1.04853 1.02963 1.06076 1.09036 0.991253 0.996995 1.20732 1.45086 2.9885 1.28425 0.112458 1.05073 1.83343 1.58343 0.990215 0.934862 0.899267 1.36223 1.24938 1.19722 1.12632 1.04439 1.02896 1.02936 0.986031 0.996336 0.983098 1.41677 2.85734 0.939111 2.1708 1.17631 1.2378 1.14323 1.4443 1.03241 1.0846 1.00156 0.917088 0.902425 0.920429 1.35718 1.33242 1.14988 1.00292 1.06375 1.03475 1.02315 1.01624 1.02626 1.01748 0.991289 0.99385 0.983668 0.972452 1.20057 1.51975 0.793401 1.11192 0.708004 0.942938 1.00108 0.937737 1.02756 1.37291 1.00497 1.01905 0.959807 0.945326 0.911573 0.919531 0.950381 1.24341 1.16173 0.920321 1.01688 1.01435 1.00217 0.992225 0.995419 0.996558 1.06969 0.942552 1.36499 0.860307 1.0105 0.965025 0.726553 0.822471 0.828011 0.900772 0.857477 0.480233 1.24331 0.894108 0.994226 0.977339 0.943368 0.935523 0.962331 0.971883 1.01904 0.930124 1.00555 1.00796 1.00374 0.983135 0.997222 1.05107 1.20889 0.755436 0.756227 0.870501 0.836597 0.812003 0.695703 0.826376 0.852213 0.739723 0.570318 0.212963 0.921483 0.966673 0.994663 0.999795 0.972699 0.949948 0.954228 0.947463 0.948227 0.917474 0.91165 0.936911 0.960933 0.970515 0.997643 0.994725 1.0072 0.999453 0.952175 0.96204 0.925198 0.956876 0.115384 0.38242 0.719306 0.873618 0.86267 0.65751 0.600376 0.790912 0.872632 0.710215 0.625468 0.531897 0.472561 1.05255 0.956283 1.00331 0.988223 0.994429 0.975054 0.976538 0.948192 0.923589 0.83644 0.934669 0.965067 1.00684 1.015 1.01525 0.972262 0.920131 0.910223 1.07588 0.291171 0.503087 0.606576 0.72852 0.937881 0.846845 0.686301 0.670438 0.468791 0.738142 0.703817 0.600503 0.523823 0.439084 0.977963 1.00453 0.991119 0.991694 0.975 0.999722 0.964553 0.925838 0.885354 0.865064 0.83823 0.876093 0.887915 0.930324 0.969677 1.02937 0.965869 0.947064 0.940223 0.918466 0.957818 0.237939 0.513428 0.609928 0.714491 0.899404 0.512851 0.660375 0.486908 0.506006 0.660618 0.853394 0.805002 0.565679 0.558258 0.56559 0.531563 0.77048 0.997782 0.984296 0.966205 1.01347 0.992384 0.967448 0.93964 0.899754 0.850625 0.852932 0.890921 0.926131 0.936448 0.997357 1.04189 0.94638 0.942367 0.924798 0.662989 0.487437 0.587125 0.574209 0.582546 0.794155 0.61894 0.677591 0.513212 0.450748 0.343372 0.360476 0.370396 0.313564 0.680095 0.947309 0.598556 0.506626 0.532323 0.664424 0.814658 0.95093 0.962744 0.965204 0.955254 0.893548 1.00453 1.01557 0.921202 0.86511 0.837073 0.859762 0.893585 0.957003 1.02874 0.862177 0.949186 0.950424 0.934617 0.920041 0.79377 0.672345 0.573045 0.535835 0.632205 0.95065 0.664646 0.289537 0.35996 0.340406 0.342544 0.374688 0.327642 0.205018 0.253314 0.262706 0.835498 0.728889 0.530632 0.525411 0.616167 0.712623 0.91576 0.954276 0.946936 0.952494 0.925632 0.95671 0.884833 0.853466 0.842491 0.833039 0.840687 0.842721 0.86193 0.919531 0.913224 0.948024 0.944549 0.947826 0.911752 0.758644 0.665343 0.579532 0.566971 0.765027 0.888607 0.234906 0.22589 0.180142 0.322136 0.369076 0.390299 0.375105 0.35012 0.280882 0.125734 0.289537 0.119434 0.726361 0.6444 0.65511 0.606999 0.701969 0.831535 0.917963 0.939113 0.942456 0.927549 0.877943 0.810279 1.03886 0.982283 0.917552 0.882437 0.835759 0.833657 0.84224 0.869614 0.932401 0.975945 0.755039 0.841461 0.919256 0.942737 0.938978 0.921242 0.849196 0.74095 0.661356 0.686098 0.675234 0.761706 0.165826 0.329239 0.125966 0.281231 0.341138 0.364354 0.381801 0.432716 0.40913 0.398583 0.352999 0.280655 0.40834 0.528428 0.761885 0.728835 0.710564 0.714989 0.788511 0.873529 0.942278 0.925393 0.892906 0.895263 0.846059 0.753217 0.937244 0.849812 0.829421 0.834344 0.846917 0.726001 0.805509 0.8726 0.877317 0.920292 0.943826 0.881744 0.813202 0.735213 0.720419 0.739894 0.770202 0.556376 0.424949 0.295963 0.35463 0.394174 0.405893 0.433818 0.456283 0.425502 0.395779 0.419425 0.378449 0.454941 0.530696 0.648593 0.740712 0.729874 0.778618 0.780904 0.841428 0.939114 0.94803 0.93075 0.891926 0.849249 0.785425 0.742354 0.894911 0.832169 0.8255 0.826317 0.837626 0.723713 0.749127 0.819904 0.881406 0.927444 0.946793 0.938822 0.844023 0.790103 0.776836 0.733515 0.738184 0.651528 0.538072 0.461148 0.38793 0.422367 0.394959 0.426172 0.457064 0.465378 0.466902 0.452926 0.448743 0.420815 0.433654 0.463511 0.517677 0.523368 0.592411 0.741262 0.715464 0.731477 0.764234 0.828599 0.913471 0.968342 0.902829 0.84126 0.801902 0.769048 0.753699 0.751873 0.752243 0.768634 0.854275 0.831218 0.816688 0.823887 0.806954 0.799095 0.748252 0.72734 0.738197 0.767864 0.820575 0.896309 0.966351 0.911127 0.824513 0.758069 0.726463 0.709466 0.737469 0.595473 0.526989 0.518742 0.465713 0.436436 0.422564 0.454105 0.456321 0.469868 0.467469 0.440219 0.456965 0.468478 0.46109 0.451355 0.466784 0.467873 0.498681 0.559789 0.659289 0.711326 0.726353 0.82942 0.878186 0.85867 0.954607 0.935923 0.838388 0.835824 0.784656 0.797605 0.770338 0.75661 0.760083 0.797979 0.815585 0.804206 0.782406 0.740678 0.741054 0.769352 0.762602 0.821794 0.830458 0.934814 0.950621 0.853172 0.874046 0.823663 0.71904 0.706549 0.660993 0.562681 0.49973 0.469102 0.468942 0.453912 0.465144 0.470677 0.459939 0.440742 0.417467 0.455022 0.470808 0.469443 0.462822 0.476619 0.492214 0.561006 0.564389 0.604919 0.658398 0.710798 0.694728 0.741894 0.805976 0.908446 0.903635 0.976885 0.880071 0.780739 0.75881 0.759144 0.759473 0.778825 0.807264 0.801731 0.788795 0.757069 0.737223 0.73345 0.766602 0.882338 0.975778 0.901151 0.906331 0.79961 0.733783 0.689162 0.702209 0.656843 0.604276 0.572367 0.561498 0.493845 0.476486 0.465024 0.471036 0.472163 0.456542 0.417556 0.382983 0.441651 0.458002 0.467369 0.476067 0.473571 0.487115 0.526758 0.513164 0.60564 0.598101 0.718731 0.912115 0.929582 0.878401 0.848812 0.789521 0.743165 0.753599 0.757669 0.759783 0.764641 0.769868 0.777627 0.792383 0.788563 0.796514 0.785392 0.788689 0.775913 0.772814 0.75754 0.747374 0.740478 0.730946 0.713416 0.722658 0.784426 0.855967 0.868595 0.929958 0.908471 0.69996 0.590564 0.605463 0.515391 0.52596 0.488884 0.47414 0.476511 0.467787 0.459695 0.441178 0.383435 0.315398 0.358289 0.384136 0.414758 0.449067 0.469943 0.482463 0.468869 0.476008 0.497372 0.517192 0.512089 0.526099 0.542642 0.635352 0.739275 0.914282 0.681991 0.987055 0.904202 0.866197 0.852384 0.804303 0.771287 0.71392 0.736435 0.752836 0.759835 0.769311 0.779267 0.779965 0.77432 0.764294 0.747189 0.735825 0.691184 0.76101 0.80429 0.846544 0.86621 0.898166 0.991461 0.679427 0.912598 0.709996 0.616637 0.54 0.533946 0.509702 0.512779 0.497523 0.473367 0.469536 0.483716 0.472424 0.447669 0.412567 0.382502 0.358634 0.316826 0.270158 0.343918 0.4264 0.439896 0.444116 0.462805 0.500677 0.539739 0.533063 0.603853 0.679101 0.738932 0.45656 0.722892 0.768724 0.970236 0.732075 0.817202 0.830539 0.737937 0.751769 0.762904 0.769357 0.773137 0.770566 0.763837 0.753471 0.739026 0.717823 0.803161 0.828314 0.707447 0.977741 0.76608 0.72784 0.414274 0.733346 0.651363 0.59606 0.524469 0.538661 0.494129 0.465413 0.455489 0.444468 0.42281 0.345405 0.271502 0.249993 0.303792 0.37532 0.398107 0.433108 0.386823 0.444876 0.460995 0.44452 0.437502 0.443527 0.293917 0.649487 0.932099 0.435603 0.599371 0.761854 0.676961 0.878338 0.772266 0.846577 0.61911 0.730641 0.826793 0.737616 0.657367 0.737448 0.750288 0.7562 0.752743 0.761004 0.757479 0.765494 0.759189 0.765525 0.757559 0.761408 0.7525 0.753804 0.743455 0.744446 0.740886 0.723489 0.629305 0.706007 0.768703 0.678839 0.722885 0.8181 0.7498 0.877855 0.671428 0.749144 0.601679 0.439259 0.932328 0.655957 0.25318 0.444358 0.433508 0.441472 0.456404 0.436332 0.391362 0.447859 0.405572 0.376516 0.307068 0.252397 0.235343 0.219746 0.25064 0.275668 0.307682 0.327304 0.354991 0.36667 0.438274 0.501244 0.358154 0.343326 0.68233 1.39166 0.0493421 0.836819 0.771721 0.760112 0.665807 0.747921 0.774635 0.675199 0.747359 0.741979 0.749274 0.752216 0.75264 0.749851 0.743122 0.735096 0.734907 0.630818 0.661293 0.658477 0.671212 0.755636 0.770357 0.788421 0.124274 1.36188 0.684173 0.334119 0.353959 0.498142 0.425055 0.37626 0.352183 0.329419 0.313898 0.278216 0.25162 0.222545 0.238117 0.18416 0.226977 0.287185 0.314419 0.404945 0.41484 0.492988 0.409425 0.365719 0.408505 0.409156 0.448382 0.313767 0.803022 1.32606 0.947479 0.754399 0.693693 0.682732 0.672345 0.690959 0.543743 0.75543 0.588453 0.733238 0.739778 0.744947 0.746835 0.746329 0.742298 0.732997 0.728729 0.550136 0.703432 0.608892 0.687085 0.689836 0.69992 0.690786 0.748995 0.929361 1.27741 1.00585 0.347345 0.454521 0.405209 0.403632 0.364193 0.411948 0.498563 0.421831 0.40615 0.316634 0.290431 0.228547 0.186839 0.164686 0.249754 0.240776 0.269073 0.294742 0.313395 0.361085 0.384933 0.505685 0.380961 0.373263 0.391554 0.404636 0.413671 0.366569 0.432706 0.766167 1.11045 0.678503 0.63413 0.663212 0.656332 0.5857 0.475952 0.582189 0.714431 0.642629 0.758324 0.728485 0.728721 0.731771 0.737574 0.73329 0.740008 0.736184 0.741909 0.737435 0.740157 0.734011 0.734876 0.729814 0.72526 0.726718 0.756151 0.635172 0.65904 0.682656 0.734765 0.582615 0.657879 0.670053 0.615465 0.665719 1.07443 0.743197 0.461505 0.376788 0.414812 0.4063 0.388748 0.374139 0.383968 0.490034 0.384757 0.347949 0.317849 0.297087 0.268952 0.242207 0.251164 0.166778 0.0896784 0.210245 0.277093 0.261779 0.237621 0.33157 0.317439 0.349198 0.391681 0.501805 0.367662 0.400391 0.397645 0.413149 0.418706 0.404985 0.44083 0.315199 0.729166 0.833 0.650985 0.626671 0.637315 0.629048 0.624089 0.478086 0.55088 0.624977 0.763777 0.73392 0.727872 0.729314 0.733498 0.732854 0.729045 0.733787 0.76524 0.61343 0.583626 0.614461 0.587004 0.649326 0.644356 0.617075 0.634356 0.808643 0.708832 0.549876 0.445035 0.407439 0.420836 0.411962 0.395251 0.407743 0.365545 0.512065 0.39774 0.345482 0.31721 0.334206 0.236176 0.264137 0.279521 0.213489 0.0869838 0.210683 0.00983886 0.207529 0.33261 0.216701 0.318953 0.355676 0.345909 0.354085 0.380906 0.466921 0.432077 0.384771 0.396094 0.410251 0.439652 0.442256 0.468942 0.546331 0.784385 0.709136 0.654609 0.638243 0.621061 0.620975 0.635405 0.645447 0.669925 0.671362 0.749402 0.728897 0.723542 0.727229 0.731221 0.727941 0.730213 0.750357 0.669225 0.612453 0.610994 0.575397 0.62797 0.622477 0.628069 0.642982 0.69198 0.761999 0.558394 0.468903 0.448013 0.440067 0.406897 0.39598 0.38169 0.435459 0.46673 0.378025 0.353096 0.345755 0.356082 0.321175 0.218944 0.334027 0.206428 0.00937108 0.210259 0.220782 0.202056 0.329865 0.564751 0.26208 0.146771 0.253804 0.354406 0.381867 0.352591 0.372474 0.446949 0.410153 0.412951 0.673657 0.73096 0.704715 0.653863 0.638935 0.621634 0.62897 0.599248 0.659016 0.670258 0.628877 0.755564 0.743889 0.728222 0.721491 0.715952 0.721279 0.720048 0.727189 0.72724 0.728009 0.723442 0.724675 0.730202 0.752244 0.760067 0.625321 0.653178 0.632443 0.570235 0.602784 0.620811 0.628775 0.643556 0.688168 0.719788 0.669833 0.417862 0.410746 0.44002 0.370198 0.353468 0.381234 0.353398 0.250928 0.145373 0.262802 0.566458 0.332691 0.200585 0.219607 0.200358 0.12508 0.089296 0.275146 0.334709 0.0598366 0.315306 0.404862 0.366128 0.395298 0.408164 0.385311 0.407851 0.440048 0.466497 0.503202 0.55061 0.62828 0.681032 0.696732 0.679385 0.671908 0.636471 0.627314 0.61989 0.637884 0.653048 0.766179 0.714527 0.716283 0.721372 0.725836 0.718211 0.776888 0.635626 0.619317 0.602875 0.620952 0.630466 0.661544 0.669352 0.687707 0.673126 0.621065 0.548884 0.504786 0.466938 0.441434 0.4097 0.390986 0.406855 0.391793 0.365737 0.404061 0.312161 0.0568893 0.331993 0.27346 0.0849342 0.122251 0.201417 0.170456 0.156284 0.127861 0.185483 0.900352 0.236233 0.4365 0.376078 0.401303 0.384544 0.379846 0.405848 0.415262 0.413111 0.449321 0.474899 0.518017 0.560847 0.609709 0.653653 0.675486 0.677452 0.670633 0.663253 0.649299 0.626762 0.627478 0.636459 0.647332 0.657259 0.706046 0.71035 0.722507 0.710823 0.711856 0.714428 0.715553 0.723252 0.724443 0.723589 0.714513 0.704743 0.706202 0.652012 0.649246 0.642367 0.628179 0.621594 0.641759 0.656552 0.663055 0.672436 0.669822 0.648506 0.605764 0.560196 0.516449 0.476336 0.452948 0.418603 0.419311 0.407834 0.3793 0.382921 0.400709 0.376511 0.435993 0.232765 0.903424 0.193435 0.127106 0.156081 0.166028 0.145482 0.162919 0.130339 0.0751944 0.0411936 0.113134 0.562883 0.952174 0.947145 0.828005 0.381634 0.383319 0.397435 0.389401 0.404963 0.4194 0.451732 0.491078 0.526386 0.570942 0.610539 0.645245 0.668019 0.672968 0.671956 0.663244 0.654454 0.64351 0.635565 0.62831 0.633536 0.640704 0.637624 0.660265 0.66305 0.794481 0.707273 0.707947 0.713509 0.719253 0.723221 0.720641 0.808443 0.607822 0.636897 0.625311 0.644518 0.642828 0.634926 0.633191 0.638858 0.648064 0.657554 0.667278 0.668265 0.662126 0.6412 0.607644 0.568428 0.525577 0.493481 0.454605 0.421933 0.406365 0.389623 0.396476 0.382114 0.381123 0.831269 0.958481 0.961517 0.569178 0.117247 0.0342012 0.0684864 0.126779 0.161893 0.143767 0.185817 0.0859357 0.0912199 0.35559 0.246929 0.724609 0.429381 0.39003 0.388314 0.394621 0.356045 0.387102 0.410698 0.436181 0.485381 0.534455 0.57881 0.668189 0.666191 0.660533 0.651848 0.641099 0.637018 0.632532 0.630738 0.635275 0.656085 0.686721 0.739124 0.985345 0.694725 0.709333 0.711092 0.724122 0.713394 1.09562 0.724426 0.654265 0.632112 0.633086 0.639129 0.632643 0.635305 0.638778 0.647182 0.655834 0.66223 0.663466 0.578515 0.532708 0.48639 0.438083 0.413527 0.388876 0.356312 0.393197 0.387223 0.388939 0.42914 0.726668 0.247941 0.357631 0.092029 0.0802707 0.184716 0.572421 0.472318 0.456285 0.159974 0.0282579 0.143872 0.249369 0.279456 0.769518 0.676041 0.553921 0.425337 0.396067 0.411379 0.412417 0.367866 0.398862 0.419175 0.613018 0.638858 0.660654 0.66896 0.66982 0.658732 0.648903 0.641356 0.636705 0.634044 0.630245 0.691892 0.738367 0.98632 0.706991 0.705149 0.70066 0.710039 0.710884 0.714153 0.720865 0.726913 0.726225 1.14306 0.724504 0.647138 0.636852 0.636204 0.637555 0.639679 0.645341 0.654459 0.665423 0.663449 0.65709 0.636046 0.610415 0.422738 0.40141 0.370362 0.410993 0.409559 0.395331 0.42482 0.555206 0.676381 0.775542 0.273648 0.252629 0.148487 0.0210369 0.166049 0.456839 0.472873 0.572511 0.476324 0.442412 0.10655 0.0436161 0.26235 0.595185 0.582759 0.55726 0.481925 0.407758 0.429299 0.466775 0.451521 0.515729 0.590959 0.629014 0.647122 0.660499 0.665855 0.672649 0.67404 0.648119 0.642799 0.639427 0.636284 0.633525 0.633811 0.647317 0.6936 0.698756 0.714187 0.721776 0.793856 0.636454 0.637365 0.637322 0.637386 0.638002 0.639668 0.644776 0.670343 0.669426 0.662584 0.658546 0.64537 0.62234 0.592158 0.517934 0.449626 0.464521 0.427828 0.406476 0.484148 0.555311 0.574429 0.597974 0.267925 0.0493657 0.113166 0.443505 0.477079 0.420218 0.626364 0.155837 0.474656 0.30426 0.552531 0.421372 0.417999 0.425874 0.473758 0.511745 0.384837 0.409714 0.43373 0.475766 0.570423 0.663467 0.666753 0.668124 0.671501 0.676937 0.679325 0.675386 0.666843 0.656956 0.646747 0.643577 0.64077 0.638615 0.63652 0.647795 0.691296 0.72151 0.781796 0.693781 0.696098 0.704187 0.722434 0.727783 0.684735 0.58809 0.618092 0.636831 0.63712 0.638461 0.639285 0.64144 0.652715 0.662646 0.672024 0.676123 0.675043 0.670296 0.665282 0.657569 0.651226 0.589038 0.460941 0.438394 0.413871 0.387842 0.508399 0.472156 0.424558 0.41749 0.421491 0.559163 0.295916 0.480979 0.159002 0.622024 0.420046 0.546214 0.576663 0.590829 0.237546 0.542444 0.353664 0.614488 0.454203 0.44039 0.42993 0.485721 0.399902 0.420892 0.437341 0.543787 0.700119 0.693856 0.682502 0.678143 0.680001 0.678739 0.675115 0.670223 0.663478 0.656448 0.65066 0.643849 0.635615 0.631907 0.68491 0.724211 0.770324 0.688495 0.68783 0.689475 0.700401 0.704168 0.718204 0.727485 0.728585 0.722804 0.766261 0.704475 0.591002 0.630346 0.632481 0.638661 0.645386 0.652045 0.65986 0.667035 0.672569 0.677053 0.677987 0.675568 0.679656 0.684078 0.698017 0.534976 0.439461 0.42627 0.404095 0.484762 0.428817 0.440437 0.454981 0.625946 0.362288 0.550069 0.237639 0.589207 0.576006 0.546615 0.514066 0.484373 0.49526 0.517287 0.504929 0.471888 0.440691 0.482678 0.511084 0.542734 0.409161 0.411912 0.553173 0.723212 0.677894 0.673975 0.669684 0.665771 0.66098 0.656428 0.652605 0.649921 0.647744 0.634483 0.684854 0.717413 0.676267 0.700031 0.720494 0.730994 0.730823 0.70639 0.550029 0.641035 0.643229 0.646966 0.652331 0.657289 0.663255 0.667656 0.671539 0.675349 0.701741 0.564712 0.41911 0.414963 0.53877 0.509214 0.482721 0.440593 0.472575 0.504745 0.522651 0.494696 0.485015 0.511616 0.399151 0.468118 0.489076 0.595553 0.608821 0.508995 0.247741 0.549506 0.473628 0.518983 0.545725 0.554117 0.704566 0.686424 0.683465 0.681232 0.663391 0.659073 0.656133 0.653761 0.651946 0.64577 0.635375 0.614297 0.574535 0.661949 0.683253 0.716167 0.722722 0.71697 0.60897 0.610572 0.633265 0.642025 0.645474 0.64731 0.652469 0.656268 0.661377 0.67867 0.680035 0.698699 0.713846 0.549204 0.54263 0.517194 0.474062 0.54993 0.236256 0.513605 0.609482 0.597478 0.486928 0.466451 0.398269 0.37559 0.382917 0.673951 0.495656 0.42656 0.490442 0.475742 0.567424 0.557456 0.535188 0.386983 0.59098 0.707268 0.703102 0.655139 0.696224 0.687884 0.679874 0.673519 0.66962 0.667073 0.657611 0.654502 0.648348 0.633771 0.620525 0.598298 0.671771 0.745563 0.73882 0.642995 0.66839 0.680737 0.699713 0.717525 0.721921 0.713468 0.73063 0.70917 0.737991 0.693043 0.533568 0.605416 0.624506 0.640295 0.648993 0.650285 0.652904 0.666001 0.667921 0.67021 0.676507 0.683387 0.684761 0.690725 0.708173 0.692522 0.588234 0.396196 0.528945 0.552974 0.564543 0.475658 0.491417 0.423932 0.501483 0.672658 0.381207 0.374436 0.455575 0.651464 0.414397 0.547821 0.516807 0.490117 0.508313 0.572229 0.635322 0.715121 0.743364 0.648628 0.685518 0.690408 0.690333 0.676009 0.670822 0.669827 0.666589 0.662109 0.657931 0.637791 0.628426 0.604571 0.627032 0.713323 0.79381 0.677339 0.70229 0.717101 0.732358 0.718933 0.724676 0.574316 0.610534 0.633239 0.649091 0.655143 0.661542 0.666792 0.669896 0.667858 0.67503 0.68624 0.691421 0.681347 0.635185 0.741633 0.70727 0.627873 0.568251 0.50815 0.490134 0.517336 0.548679 0.417277 0.652472 0.455403 0.60946 0.551776 0.714902 0.911579 0.451418 0.557386 0.535963 0.526377 0.467732 0.541507 0.496252 0.58272 0.670793 0.748194 0.70073 0.69551 0.66169 0.696556 0.685819 0.673183 0.674483 0.671818 0.666423 0.661919 0.659201 0.662567 0.653129 0.664084 0.681546 0.711065 0.704152 0.728168 0.653181 0.657082 0.653978 0.661545 0.66919 0.673765 0.675203 0.671064 0.684201 0.700755 0.670738 0.667677 0.727636 0.74003 0.666575 0.579806 0.485677 0.535648 0.466268 0.525628 0.535372 0.557848 0.450541 0.9116 0.722249 0.553487 0.610303 0.498006 0.870687 0.685852 0.69189 0.715825 0.577928 0.574801 0.555905 0.51021 0.679069 0.673902 0.669408 0.666315 0.660445 0.670383 0.642744 0.642851 0.636795 0.616595 0.674243 0.763389 0.608246 0.655988 0.810637 0.69685 0.698036 0.72306 0.703025 0.758953 0.704813 0.705502 0.723022 0.598533 0.607765 0.663981 0.64496 0.663954 0.649559 0.660214 0.671556 0.678302 0.680892 0.502499 0.551322 0.573138 0.578449 0.716428 0.692835 0.686297 0.868425 0.496579 0.857425 0.80628 0.890558 0.636454 0.674584 0.688887 0.48945 0.438168 0.534183 0.608159 0.627377 0.711425 0.750275 0.717904 0.694076 0.689006 0.696122 0.676938 0.679888 0.670423 0.65521 0.707605 0.641601 0.670698 0.696675 0.65697 1.15415 0.604139 0.627679 0.782499 0.881635 0.698183 0.721186 0.678043 0.733567 0.691878 1.02333 0.657686 0.650614 0.739097 0.657152 0.711377 0.639411 0.659802 0.682228 0.675776 0.691837 0.693219 0.67853 0.708492 0.76083 0.703759 0.62258 0.609742 0.527373 0.435905 0.487982 0.689822 0.675525 0.637534 0.891927 0.80843 0.860947 0.706334 0.604875 0.565678 0.475241 0.427686 0.654867 0.623071 0.662381 0.733053 0.73399 0.710877 0.696447 0.695378 0.687436 0.688644 0.687338 0.685947 0.680674 0.675568 0.654334 0.709973 0.786728 0.537623 0.68655 0.701348 0.703177 0.762562 0.658901 0.669361 0.685393 0.689727 0.687026 0.688228 0.684081 0.699811 0.686644 0.710408 0.732171 0.72642 0.657045 0.620865 0.6601 0.424295 0.474191 0.562878 0.605729 0.707062 0.913448 0.832748 0.883272 0.654804 0.679118 0.690649 0.690129 0.598288 0.582094 0.474572 0.600269 0.64708 0.653512 0.688182 0.71889 0.72957 0.723931 0.697934 0.693138 0.702294 0.69703 0.695811 0.696112 0.689659 0.678458 0.677549 0.646606 0.743547 1.04888 0.633934 0.769424 0.906765 0.786104 0.709818 0.719523 0.668708 0.647231 0.716541 0.999706 0.81543 0.738616 0.599706 0.650242 0.653329 0.691673 0.70138 0.696669 0.691729 0.696991 0.692462 0.706723 0.716807 0.734272 0.716994 0.684954 0.648526 0.650315 0.60815 0.472185 0.57886 0.599424 0.691104 0.691466 0.680028 0.655603 0.884363 0.832202 0.91585 0.889409 0.848217 0.879501 0.662655 0.692503 0.687176 0.661609 0.609879 0.636549 0.584918 0.710386 0.703678 0.703304 0.703013 0.697303 0.683356 0.718061 0.673084 0.79813 0.687713 1.08623 0.9533 0.797919 0.597532 0.699595 0.839619 0.902015 0.892367 0.382821 0.742362 0.659062 0.673444 0.697057 0.733873 0.87295 0.933229 0.722218 0.824351 0.653947 0.721272 0.69461 0.722432 0.720745 0.712551 0.699251 0.70229 0.590171 0.646455 0.608539 0.663138 0.688567 0.69318 0.663382 0.879684 0.848399 0.889498 0.688943 0.608104 0.800919 0.671131 0.680624 0.684242 0.720765 0.736468 0.714034 0.695956 0.708178 0.701168 0.669345 0.695741 0.81788 0.742527 0.738535 0.906283 0.795452 0.672177 0.871443 0.865258 0.888526 0.727464 0.745464 0.73161 0.858479 0.759121 0.805904 0.680976 0.66774 0.710118 0.704593 0.693743 0.719051 0.735953 0.718957 0.684891 0.674179 0.673192 0.803646 0.60499 0.689678 0.864613 0.820193 0.83566 0.681358 0.665098 0.65544 0.630095 0.648556 0.61934 0.618469 0.683893 0.689902 0.687005 0.725604 0.711451 0.704067 0.708821 0.715145 0.713885 0.707376 0.715087 0.704712 0.893491 0.813334 0.558203 0.89947 0.760887 0.869856 0.7751 0.738048 0.733907 0.715172 0.709333 0.708717 0.705705 0.695103 0.725456 0.718474 0.686628 0.684007 0.685197 0.621364 0.627188 0.644537 0.628576 0.656319 0.664457 0.68059 0.835643 0.821912 0.864692 0.890952 0.818501 0.812788 0.714561 0.671715 0.641315 0.713216 0.628374 0.733868 0.671122 0.713218 0.797406 0.690174 0.694354 0.703755 0.759229 0.788338 0.78901 0.779279 0.766647 0.756022 0.757651 0.771641 0.792229 0.776116 0.844559 0.774864 0.796993 0.820931 0.813765 0.968995 0.853161 0.758864 0.892216 0.902919 0.891234 0.899513 0.644548 0.849712 0.798117 0.78806 0.758956 0.823997 0.836924 0.802208 0.77018 0.821038 0.687033 0.859646 0.72914 0.755376 0.758412 0.752861 0.757105 0.764546 0.772023 0.778493 0.786899 0.752666 0.696144 0.688298 0.692747 0.795715 0.713252 0.677114 0.73732 0.626884 0.705544 0.641562 0.673105 0.71533 0.812549 0.81805 0.889359 0.916639 0.919923 0.891952 0.79026 0.748063 0.749461 0.719173 0.769483 0.79634 0.785753 0.893518 0.879471 0.867699 0.948823 0.95213 0.777907 0.880681 0.886907 0.817206 0.841195 0.90338 0.871027 0.787026 0.797077 0.834549 0.880044 0.882665 0.748496 0.765527 0.759025 0.719514 0.755124 0.749035 0.790032 0.891068 0.919852 0.916812 0.669409 0.796665 0.713966 0.792118 0.800961 0.789854 0.687971 0.714025 0.740041 0.775207 0.78132 0.777319 0.767952 0.761891 0.760216 0.867896 0.867356 0.884071 0.881306 0.83181 0.688792 0.887863 0.835406 0.836135 0.752194 0.755539 0.76266 0.770153 0.774607 0.768352 0.729292 0.710091 0.688293 0.791632 0.800151 0.794148 0.707375 0.798689 0.67004 0.894458 0.893833 0.898325 0.893832 0.869278 0.76082 0.796846 0.870045 0.910236 0.838128 0.901389 0.877732 0.866745 0.821649 0.78504 0.775682 0.798932 0.81007 0.808114 0.803531 0.799501 0.800973 0.804868 0.845403 0.843324 0.883691 0.920599 0.887178 0.964741 0.873907 0.955153 0.861234 0.772523 0.879769 0.870303 0.8787 0.885837 0.854642 0.738836 0.893832 0.888423 0.873405 0.905538 0.879529 0.918113 0.833871 0.925875 0.875368 0.940469 0.861916 0.806948 0.828803 0.809969 0.804066 0.80007 0.80462 0.811136 0.815832 0.80358 0.77581 0.790147 0.82542 0.868556 0.876941 0.90138 0.839914 0.910642 0.869238 0.794496 0.760785 0.869367 0.893832 0.898569 0.893833 0.89449 0.896119 0.902661 0.898381 0.882789 0.862614 0.870103 0.861964 0.902964 0.905267 0.907478 0.906337 0.873615 0.884377 0.915314 0.931381 0.924872 0.915393 0.904488 0.898057 0.893772 0.87218 0.882669 0.898353 0.902813 0.89611 0.897713 0.809229 0.754255 0.899757 0.910276 0.881665 0.899583 0.896982 0.907653 0.885722 0.879574 0.87597 0.892776 0.899325 0.896114 0.889482 0.883345 0.874727 0.88877 0.884407 0.870854 0.860511 0.878443 0.866911 0.862263 0.775323 0.883647 0.892325 0.901026 0.863431 0.900458 0.892533 0.876013 0.884701 0.891063 0.89711 0.899785 0.893426 0.878221 0.887745 0.884282 0.906356 0.89678 0.899064 0.880409 0.910187 0.899406 0.752776 0.81036 0.897706 0.897529 0.896109 0.901347 0.894316 0.883841 0.868692 0.782683 0.890331 0.912347 0.885722 0.89557 0.899384 0.906289 0.889976 0.890039 0.887031 0.899093 0.903805 0.90136 0.895713 0.88987 0.874278 0.862159 0.88097 0.887416 0.889271 0.903328 0.882493 0.906289 0.872338 0.910761 0.866243 0.915129 0.890684 0.889123 0.882686 0.903949 0.899659 0.822014 0.903038 0.900819 0.899205 0.899163 0.9025 0.898627 0.873344 0.897063 0.900869 0.896906 0.896537 0.898235 0.894937 0.87523 0.879478 0.894015 0.89939 0.903989 0.905085 0.899843 0.888392 0.899112 0.888566 0.905343 0.89944 0.895575 0.884895 0.912335 0.890328 0.782679 0.869906 0.883838 0.894315 0.90147 0.896108 0.897534 0.897451 0.901893 0.897151 0.895941 0.899757 0.89432 0.884437 0.888727 0.815743 0.882399 0.910503 0.888285 0.895733 0.899416 0.901389 0.886073 0.888916 0.886944 0.894647 0.897508 0.895688 0.891225 0.886322 0.873014 0.863287 0.890417 0.895414 0.890007 0.893991 0.882139 0.894688 0.87386 0.895281 0.869732 0.895713 0.894534 0.891027 0.8934 0.911127 0.841786 0.908877 0.903597 0.899976 0.897999 0.900065 0.879922 0.898221 0.897313 0.897791 0.896971 0.895678 0.895901 0.876096 0.880332 0.891429 0.895324 0.898714 0.899223 0.895796 0.88733 0.897281 0.884917 0.900771 0.899435 0.895731 0.887909 0.910505 0.882416 0.815933 0.889122 0.884374 0.89432 0.899844 0.895941 0.897156 0.896743 0.895743 0.898009 0.894292 0.884656 0.889787 0.840469 0.875657 0.908005 0.890593 0.895636 0.898951 0.897429 0.88341 0.887609 0.885983 0.890299 0.891698 0.890421 0.887196 0.883348 0.873376 0.865878 0.893755 0.895215 0.890366 0.893972 0.882343 0.894789 0.874715 0.895762 0.87151 0.8967 0.894549 0.889804 0.894869 0.901055 0.910378 0.858267 0.909849 0.89624 0.899238 0.895208 0.892897 0.894747 0.883656 0.894245 0.895084 0.893832 0.896418 0.893881 0.8957 0.877547 0.880953 0.88836 0.891114 0.893447 0.893642 0.891774 0.886604 0.893663 0.882531 0.896962 0.898952 0.895635 0.890319 0.908019 0.875561 0.840727 0.889841 0.884562 0.894291 0.898018 0.895743 0.896748 0.896314 0.895514 0.896159 0.894257 0.885182 0.887685 0.860184 0.870271 0.905195 0.891813 0.895495 0.898347 0.894729 0.882183 0.886725 0.885091 0.886891 0.887159 0.886272 0.88422 0.881388 0.874854 0.869743 0.893203 0.894874 0.890372 0.893832 0.882625 0.893832 0.875745 0.893832 0.873052 0.894123 0.893399 0.888529 0.893622 0.895742 0.907364 0.863542 0.908397 0.896676 0.897911 0.895601 0.888749 0.894982 0.885586 0.894197 0.894212 0.893832 0.895748 0.893832 0.895424 0.879634 0.88156 0.885888 0.887802 0.889203 0.889241 0.888553 0.886155 0.890662 0.88151 0.894321 0.898352 0.895495 0.891596 0.905207 0.870141 0.860583 0.887646 0.885063 0.894256 0.896085 0.895514 0.896318 0.89587 0.895262 0.894495 0.894213 0.886087 0.886052 0.872911 0.86734 0.90224 0.893207 0.895323 0.897694 0.892955 0.882023 0.886225 0.884434 0.884399 0.883887 0.883265 0.882205 0.880253 0.87678 0.873848 0.891844 0.894255 0.890109 0.893832 0.883128 0.893832 0.87688 0.893832 0.874608 0.893992 0.892292 0.887697 0.89175 0.896424 0.903811 0.867612 0.905794 0.894926 0.896354 0.893832 0.886026 0.893832 0.886561 0.893832 0.893573 0.893832 0.895035 0.893832 0.89512 0.881572 0.882278 0.884216 0.885427 0.886001 0.885992 0.88615 0.885782 0.888573 0.881498 0.892588 0.897702 0.895323 0.893096 0.902251 0.867241 0.87317 0.885992 0.885952 0.894213 0.894388 0.895262 0.895872 0.895417 0.895 0.893184 0.894163 0.887152 0.885265 0.878218 0.866476 0.899318 0.894335 0.895125 0.897012 0.89179 0.882532 0.886006 0.884023 0.882725 0.881715 0.881245 0.880973 0.879771 0.878825 0.877592 0.890788 0.893589 0.889731 0.893832 0.883755 0.893832 0.878097 0.893832 0.876213 0.893832 0.891024 0.8871 0.889943 0.893832 0.900416 0.870899 0.902861 0.894976 0.894761 0.893832 0.884398 0.893832 0.887234 0.893832 0.892863 0.893832 0.894334 0.893832 0.894801 0.883331 0.88327 0.883253 0.883842 0.883727 0.883733 0.884453 0.885497 0.88725 0.882132 0.891458 0.897018 0.895125 0.8943 0.899321 0.866405 0.878267 0.885189 0.887027 0.894163 0.893084 0.895 0.895417 0.894963 0.894735 0.892218 0.894107 0.888205 0.885135 0.879675 0.866896 0.896551 0.894734 0.894904 0.896308 0.891056 0.883412 0.885973 0.88384 0.881714 0.880413 0.880022 0.880379 0.879799 0.880815 0.880773 0.890176 0.893156 0.88938 0.893832 0.884378 0.893832 0.879321 0.893832 0.877805 0.893832 0.890148 0.886953 0.888102 0.893832 0.897121 0.87409 0.899624 0.894525 0.893297 0.893832 0.88362 0.893832 0.887671 0.893832 0.892176 0.893832 0.893665 0.893832 0.894483 0.884988 0.88443 0.88283 0.882894 0.882226 0.882268 0.883325 0.88532 0.886506 0.883125 0.890756 0.896314 0.894904 0.894726 0.896544 0.866832 0.879619 0.88504 0.888106 0.894107 0.89214 0.894735 0.894962 0.894517 0.894471 0.891561 0.894046 0.889181 0.885452 0.880186 0.868112 0.894042 0.894662 0.894665 0.895597 0.890633 0.884443 0.886066 0.883842 0.881193 0.879773 0.879422 0.880286 0.880208 0.882646 0.883361 0.889918 0.892997 0.889124 0.893832 0.884972 0.893832 0.880481 0.893832 0.879317 0.893832 0.889379 0.887129 0.886442 0.893832 0.893828 0.876725 0.896488 0.894143 0.891988 0.893832 0.883475 0.893832 0.887937 0.893832 0.89157 0.893832 0.893043 0.893832 0.894178 0.886475 0.88559 0.882806 0.882451 0.881333 0.881416 0.882644 0.885242 0.88617 0.88425 0.890365 0.8956 0.894665 0.894661 0.894027 0.868044 0.880106 0.88535 0.889105 0.894046 0.891501 0.89447 0.894514 0.894086 0.894208 0.891177 0.893981 0.890046 0.886051 0.880823 0.869851 0.89189 0.894425 0.894414 0.894892 0.890408 0.885471 0.886229 0.883969 0.881032 0.879618 0.879286 0.880558 0.880877 0.884257 0.885399 0.889903 0.893033 0.888971 0.893832 0.885536 0.893832 0.881555 0.893832 0.880681 0.893832 0.888679 0.887533 0.884967 0.893832 0.890739 0.879017 0.893697 0.893725 0.890862 0.893832 0.883761 0.893832 0.888088 0.893832 0.891079 0.893832 0.892481 0.893832 0.893899 0.887715 0.886646 0.883069 0.88239 0.880904 0.881021 0.882298 0.885238 0.886105 0.885349 0.890172 0.894892 0.894414 0.894424 0.891867 0.869778 0.880745 0.885956 0.889987 0.893981 0.89113 0.894208 0.894082 0.893677 0.89395 0.891012 0.893915 0.890772 0.886791 0.881734 0.871906 0.890148 0.894149 0.894157 0.894202 0.890275 0.886398 0.886409 0.88417 0.881123 0.87979 0.879471 0.881072 0.8817 0.885622 0.886957 0.890048 0.893173 0.888904 0.893832 0.886066 0.893832 0.88254 0.893832 0.88186 0.893832 0.888071 0.888083 0.883693 0.893832 0.887946 0.880988 0.891232 0.893441 0.889933 0.893832 0.884279 0.893832 0.888182 0.893832 0.890719 0.893832 0.891992 0.893832 0.893655 0.888693 0.887547 0.88352 0.8826 0.880815 0.88095 0.88219 0.885281 0.886204 0.886329 0.890067 0.8942 0.894156 0.894148 0.89012 0.87183 0.881661 0.886712 0.890725 0.893915 0.890973 0.89395 0.893672 0.893296 0.893699 0.891001 0.893849 0.891341 0.887568 0.882821 0.874105 0.88881 0.893869 0.893898 0.893538 0.89016 0.887175 0.886578 0.884407 0.881367 0.880155 0.879858 0.881721 0.882587 0.886738 0.888117 0.890287 0.893345 0.888903 0.893832 0.886557 0.893832 0.883431 0.893832 0.882853 0.893832 0.887565 0.88871 0.882625 0.893832 0.882642 0.889082 0.893338 0.889195 0.893832 0.884883 0.893832 0.888263 0.893832 0.890476 0.893832 0.891582 0.893832 0.893449 0.889436 0.888281 0.884077 0.882983 0.880956 0.881092 0.882241 0.885349 0.886383 0.887143 0.889975 0.893534 0.893897 0.893868 0.888781 0.874026 0.882751 0.887504 0.891302 0.893849 0.890969 0.893699 0.89329 0.885426 0.892946 0.893458 0.891094 0.893783 0.891755 0.888311 0.883962 0.876316 0.887833 0.893598 0.893643 0.892909 0.890023 0.887781 0.886729 0.884649 0.881686 0.880613 0.880353 0.882424 0.88347 0.887621 0.888961 0.890572 0.893504 0.888949 0.893832 0.887003 0.893832 0.884225 0.893832 0.883679 0.893832 0.887167 0.889372 0.881747 0.893832 0.883164 0.884026 0.88727 0.893354 0.888632 0.893832 0.885483 0.893832 0.888352 0.893832 0.890324 0.893832 0.891252 0.893832 0.893276 0.889984 0.888854 0.884677 0.883458 0.881239 0.88136 0.882387 0.885427 0.88658 0.887773 0.889858 0.892902 0.893643 0.893596 0.887803 0.876237 0.883898 0.888258 0.891724 0.893783 0.891067 0.893457 0.892941 0.892632 0.893229 0.89125 0.89372 0.892034 0.888977 0.88507 0.878443 0.887156 0.893339 0.893397 0.889852 0.888216 0.886861 0.884872 0.882022 0.881095 0.880888 0.883123 0.884302 0.888295 0.889564 0.890865 0.893631 0.889027 0.893832 0.887402 0.893832 0.884924 0.893832 0.88436 0.893832 0.886863 0.890037 0.881041 0.893832 0.885195 0.885794 0.893427 0.888219 0.893832 0.886035 0.893832 0.888449 0.893832 0.890238 0.893832 0.890997 0.893832 0.893133 0.89038 0.889282 0.88527 0.883964 0.881597 0.881688 0.88258 0.885498 0.886759 0.888223 0.889706 0.893396 0.893338 0.887126 0.878368 0.885013 0.888934 0.892009 0.89372 0.891228 0.893228 0.892626 0.892321 0.881142 0.892313 0.892353 0.893015 0.89144 0.89366 0.892206 0.889546 0.886092 0.880416 0.88672 0.893098 0.893163 0.891782 0.889651 0.888497 0.88697 0.885057 0.882338 0.881559 0.881415 0.883779 0.885051 0.888793 0.889992 0.891141 0.893721 0.889124 0.893832 0.887753 0.893832 0.885533 0.893832 0.884919 0.893832 0.886639 0.890672 0.880494 0.893832 0.879351 0.886189 0.884623 0.893518 0.887928 0.893832 0.886523 0.893832 0.888552 0.893832 0.890197 0.893832 0.890807 0.893832 0.893015 0.890662 0.889589 0.885824 0.884461 0.88198 0.882028 0.882782 0.885554 0.886904 0.88851 0.889524 0.891772 0.893163 0.893096 0.88669 0.880348 0.886042 0.889511 0.892186 0.89366 0.891423 0.893014 0.892348 0.885701 0.890295 0.893778 0.893832 0.893832 0.893832 0.893832 0.891247 0.893832 0.887038 0.893607 0.893832 0.893832 0.893832 0.893832 0.893832 0.890865 0.886317 0.892112 0.892818 0.891643 0.893604 0.892301 0.890011 0.886997 0.882188 0.886471 0.892876 0.892947 0.891295 0.889431 0.888647 0.88705 0.885199 0.882617 0.881978 0.881906 0.884366 0.889149 0.891385 0.889229 0.888058 0.886056 0.885375 0.886481 0.880095 0.877785 0.883716 0.887733 0.886939 0.888653 0.890185 0.890674 0.892917 0.889798 0.884921 0.882355 0.882349 0.882968 0.88559 0.88701 0.888662 0.889322 0.891285 0.892946 0.892875 0.886443 0.882129 0.886955 0.889983 0.892285 0.893604 0.891628 0.892818 0.892107 0.891906 0.892641 0.891841 0.893554 0.892344 0.890377 0.887772 0.883731 0.886362 0.892678 0.89275 0.890865 0.889204 0.888698 0.8871 0.885299 0.882847 0.882339 0.88234 0.884873 0.886248 0.889395 0.890514 0.89159 0.89381 0.889334 0.893832 0.88832 0.893832 0.886497 0.893832 0.885743 0.893832 0.886377 0.891747 0.879824 0.893832 0.876429 0.887766 0.883031 0.893681 0.88761 0.893832 0.887287 0.893832 0.888748 0.893832 0.89019 0.893832 0.890584 0.893832 0.892833 0.891013 0.889933 0.886741 0.885326 0.882699 0.882633 0.883126 0.885605 0.88708 0.888711 0.889113 0.890855 0.892749 0.892677 0.886336 0.88368 0.887737 0.890355 0.892332 0.893554 0.89183 0.892641 0.891901 0.891735 0.892486 0.892025 0.893509 0.892357 0.890656 0.888415 0.885031 0.886351 0.892505 0.892576 0.890495 0.888984 0.888679 0.887124 0.885361 0.88303 0.882637 0.88271 0.885294 0.886694 0.88956 0.890677 0.891754 0.893824 0.889432 0.893832 0.88854 0.893832 0.886862 0.893832 0.886039 0.893832 0.886315 0.892167 0.879655 0.893832 0.875276 0.888387 0.882526 0.893738 0.88754 0.893832 0.887569 0.893832 0.888831 0.893832 0.890204 0.893832 0.890527 0.893832 0.89276 0.891126 0.890015 0.887092 0.885668 0.882999 0.882871 0.883252 0.885602 0.887118 0.888689 0.888907 0.890485 0.892575 0.892504 0.886326 0.884988 0.888386 0.890638 0.892347 0.893509 0.892016 0.892486 0.891731 0.891597 0.892354 0.892188 0.893471 0.892354 0.890862 0.88893 0.886089 0.886398 0.892358 0.892427 0.890185 0.888781 0.88862 0.887127 0.885393 0.883168 0.882872 0.883012 0.885633 0.887044 0.889666 0.890801 0.891879 0.89383 0.88952 0.893832 0.88872 0.893832 0.887155 0.893832 0.886271 0.893832 0.886285 0.892507 0.87956 0.893832 0.87432 0.888905 0.882164 0.893778 0.887506 0.893832 0.887792 0.893832 0.888902 0.893832 0.890222 0.893832 0.890494 0.893832 0.892697 0.891215 0.890061 0.887371 0.885946 0.883248 0.883063 0.883347 0.885585 0.887132 0.888625 0.888716 0.890175 0.892426 0.892357 0.886376 0.886053 0.888907 0.890848 0.892346 0.893471 0.89218 0.892354 0.891593 0.891489 0.892247 0.892324 0.89344 0.892344 0.891008 0.889327 0.886913 0.886475 0.89224 0.892305 0.889937 0.888605 0.888543 0.887116 0.885406 0.883268 0.88305 0.883247 0.885893 0.88731 0.889732 0.890896 0.891971 0.893832 0.889594 0.893832 0.888862 0.893832 0.887381 0.893832 0.886448 0.893832 0.886275 0.892771 0.879514 0.893832 0.873558 0.889321 0.881912 0.893803 0.887494 0.893832 0.887963 0.893832 0.888958 0.893832 0.890238 0.893832 0.890476 0.893832 0.892645 0.891284 0.890083 0.887584 0.886162 0.883445 0.883209 0.883415 0.885561 0.887129 0.888544 0.88855 0.889927 0.892305 0.892238 0.886454 0.886883 0.889307 0.890997 0.892337 0.89344 0.892318 0.892247 0.891486 0.89141 0.892166 0.892429 0.893416 0.892333 0.891106 0.889613 0.887515 0.886554 0.89215 0.892213 0.889751 0.888466 0.888469 0.8871 0.885407 0.883336 0.883177 0.883419 0.886082 0.887499 0.889771 0.890967 0.892035 0.893832 0.889651 0.893832 0.888968 0.893832 0.887546 0.893832 0.886576 0.893832 0.886276 0.892964 0.879498 0.893832 0.872988 0.889634 0.881745 0.893819 0.887493 0.893832 0.888085 0.893832 0.889 0.893832 0.890253 0.893832 0.890467 0.893832 0.892605 0.891337 0.890093 0.887737 0.886318 0.88359 0.883313 0.88346 0.885537 0.887119 0.888466 0.888418 0.889741 0.892212 0.892148 0.886535 0.887489 0.889597 0.891098 0.892328 0.893416 0.892424 0.892165 0.891408 0.891359 0.892111 0.8925 0.8934 0.892324 0.891167 0.889799 0.887908 0.886618 0.89209 0.89215 0.889627 0.888369 0.888412 0.887084 0.885403 0.883377 0.883258 0.88353 0.886203 0.88762 0.889793 0.891014 0.892074 0.893832 0.88969 0.893832 0.889038 0.893832 0.887653 0.893832 0.886659 0.893832 0.886281 0.893091 0.879497 0.893832 0.872609 0.889842 0.881644 0.893826 0.887497 0.893832 0.888164 0.893832 0.889028 0.893832 0.890262 0.893832 0.890464 0.893832 0.892577 0.891373 0.890097 0.887835 0.88642 0.883685 0.88338 0.883487 0.885517 0.887108 0.888407 0.888326 0.889618 0.89215 0.892088 0.8866 0.887885 0.889784 0.891159 0.892319 0.8934 0.892496 0.892111 0.891356 0.891333 0.892083 0.892537 0.893392 0.892319 0.891195 0.88989 0.888102 0.886653 0.892059 0.892119 0.889565 0.88832 0.888381 0.887076 0.8854 0.883397 0.883297 0.883585 0.886263 0.887679 0.889803 0.891038 0.892093 0.893832 0.889709 0.893832 0.889073 0.893832 0.887706 0.893832 0.8867 0.893832 0.886285 0.893153 0.879499 0.893832 0.87242 0.889947 0.881597 0.893829 0.8875 0.893832 0.888203 0.893832 0.889042 0.893832 0.890268 0.893832 0.890462 0.893832 0.892562 0.891391 0.890097 0.887883 0.88647 0.883733 0.883412 0.883499 0.885506 0.887101 0.888374 0.888279 0.889556 0.892119 0.892058 0.886635 0.88808 0.889876 0.891189 0.892315 0.893392 0.892533 0.892083 0.891331 
SCALARS Axial_Stress float 1
LOOKUP_TABLE default
-47129800000.0 -31433500000.0 -9035750000.0 -40670300000.0 -183328000000.0 -94545000000.0 -220296000000.0 -138456000000.0 -112450000000.0 -119422000000.0 -110121000000.0 -118499000000.0 -125699000000.0 -99787500000.0 -66097000000.0 -108737000000.0 -26515000000.0 -9035750000.0 -9036070000.0 -143564000000.0 -340645000000.0 -250209000000.0 -361327000000.0 -230242000000.0 -233296000000.0 -313668000000.0 -350838000000.0 -317957000000.0 -234438000000.0 -162317000000.0 -142035000000.0 -239075000000.0 -84816700000.0 -9035780000.0 -9036000000.0 -406395000000.0 -488453000000.0 -341946000000.0 -729991000000.0 -457730000000.0 -492470000000.0 -349603000000.0 -444660000000.0 -405633000000.0 -522113000000.0 -194832000000.0 -326258000000.0 -323423000000.0 -9035780000.0 -478632000000.0 -585404000000.0 -540871000000.0 -663425000000.0 -718234000000.0 -683035000000.0 -908632000000.0 -659626000000.0 -796779000000.0 -612808000000.0 -727263000000.0 -506123000000.0 -691783000000.0 -503510000000.0 -415420000000.0 -461900000000.0 -430558000000.0 -454881000000.0 -595097000000.0 -562965000000.0 -640353000000.0 -753893000000.0 -597909000000.0 -813843000000.0 -812525000000.0 -1.02683e+12 -897257000000.0 -1.13516e+12 -1.06047e+12 -950425000000.0 -806532000000.0 -676480000000.0 -520372000000.0 -541207000000.0 -853438000000.0 -446940000000.0 -571949000000.0 -540689000000.0 -463570000000.0 -500748000000.0 -411905000000.0 -707987000000.0 -622136000000.0 -613550000000.0 -746351000000.0 -940231000000.0 -1.31789e+12 -1.37189e+12 -1.17167e+12 -1.05417e+12 -810112000000.0 -480077000000.0 -747487000000.0 -582565000000.0 -529932000000.0 -646040000000.0 -567027000000.0 -661494000000.0 -592799000000.0 -1.45146e+12 -794884000000.0 -1.40342e+12 -1.6058e+12 -1.91491e+12 -1.44825e+12 -1.46886e+12 -1.26572e+12 -901580000000.0 -826557000000.0 -1.00593e+12 -803804000000.0 -1.24737e+12 -533402000000.0 -520289000000.0 -545164000000.0 -747793000000.0 -896583000000.0 -664827000000.0 -634781000000.0 -1.3073e+12 -1.50362e+12 -983858000000.0 -1.70915e+12 -2.08539e+12 -1.75092e+12 -1.01441e+12 -1.05085e+12 -1.04388e+12 -931869000000.0 -1.42733e+12 -1.16075e+12 -568651000000.0 -572170000000.0 -892048000000.0 -688149000000.0 -1.28099e+12 -1.20985e+12 -1.48789e+12 -1.42534e+12 -1.49489e+12 -1.22038e+12 -1.42161e+12 -2.63827e+12 -1.18988e+12 -1.03624e+12 -1.25129e+12 -1.08611e+12 -1.34171e+12 -1.51179e+12 -1.32183e+12 -1.15285e+12 -1.19712e+12 -914871000000.0 -1.31731e+12 -981770000000.0 -1.33034e+12 -1.29681e+12 -1.53183e+12 -1.56918e+12 -1.62796e+12 -1.66109e+12 -1.66409e+12 -1.25925e+12 -1.07419e+12 -1.00533e+12 -1.45898e+12 -1.38248e+12 -1.45337e+12 -1.43613e+12 -1.27839e+12 -1.2119e+12 -1.35341e+12 -884078000000.0 -1.34083e+12 -776479000000.0 -758485000000.0 -1.28881e+12 -1.3914e+12 -1.68223e+12 -1.79404e+12 -1.8417e+12 -1.76051e+12 -1.02599e+12 -1.67181e+12 -1.47584e+12 -1.47353e+12 -1.43447e+12 -1.36835e+12 -1.0002e+12 -718443000000.0 -3.07394e+12 -2.52147e+12 -1.90084e+12 -2.23285e+12 -1.51237e+12 -1.86172e+12 -2.09668e+12 -2.01519e+12 -2.23579e+12 -1.77024e+12 -1.79488e+12 -1.50581e+12 -1.5574e+12 -1.61974e+12 -1.5456e+12 -1.60605e+12 -1.51574e+12 -1.35696e+12 -2.37978e+12 -1.87012e+12 -2.33706e+12 -2.94231e+12 -1.95232e+12 -2.29291e+12 -2.81313e+12 -2.43987e+12 -2.31483e+12 -2.28975e+12 -1.73938e+12 -2.00409e+12 -2.35602e+12 -2.70221e+12 -1.56609e+12 -1.18507e+12 -1.6524e+12 -1.69145e+12 -1.58093e+12 -1.45041e+12 -2.3781e+12 -2.47304e+12 -2.46802e+12 -2.99719e+12 -3.29015e+12 -3.35092e+12 -3.9107e+12 -4.34977e+12 -3.2473e+12 -2.87898e+12 -2.3839e+12 -2.42992e+12 -2.19974e+12 -2.28903e+12 -2.72524e+12 -3.03156e+12 -1.23444e+12 -1.61964e+12 -1.7346e+12 -1.74972e+12 -2.22109e+12 -2.52852e+12 -2.43173e+12 -2.73718e+12 -4.47069e+12 -4.44381e+12 -3.17384e+12 -3.48238e+12 -3.41548e+12 -5.1146e+12 -3.54683e+12 -2.73175e+12 -2.34129e+12 -2.46783e+12 -2.41169e+12 -2.09169e+12 -2.0172e+12 -2.5668e+12 -2.78238e+12 -2.01826e+12 -2.19753e+12 -1.70605e+12 -1.75935e+12 -1.72741e+12 -1.83531e+12 -1.82861e+12 -2.02058e+12 -2.06362e+12 -2.44538e+12 -2.58806e+12 -2.4234e+12 -2.40083e+12 -3.43688e+12 -5.04651e+12 -3.41413e+12 -3.58989e+12 -3.57332e+12 -5.33911e+12 -5.22572e+12 -4.31341e+12 -3.77783e+12 -3.13351e+12 -2.6128e+12 -2.49145e+12 -2.48111e+12 -2.35826e+12 -2.28212e+12 -1.90202e+12 -2.89164e+12 -2.78122e+12 -2.17511e+12 -1.77897e+12 -2.00434e+12 -2.24869e+12 -2.33686e+12 -2.54592e+12 -2.60872e+12 -2.63488e+12 -3.10134e+12 -3.66654e+12 -4.24516e+12 -5.24157e+12 -5.35098e+12 -3.60438e+12 -3.60549e+12 -5.30871e+12 -5.39145e+12 -5.28358e+12 -5.55984e+12 -2.99086e+12 -2.85382e+12 -2.59158e+12 -2.59204e+12 -2.45254e+12 -2.17648e+12 -1.49517e+12 -1.00765e+12 -2.51951e+12 -2.08598e+12 -1.97284e+12 -2.19641e+12 -2.49243e+12 -2.71756e+12 -2.73295e+12 -2.8608e+12 -3.0813e+12 -5.51714e+12 -5.32505e+12 -5.42512e+12 -5.30222e+12 -3.57167e+12 -3.83258e+12 -3.61123e+12 -5.18947e+12 -5.18695e+12 -5.41227e+12 -5.17176e+12 -3.05293e+12 -2.96429e+12 -2.76374e+12 -2.73186e+12 -2.58788e+12 -2.37081e+12 -2.22812e+12 -1.97452e+12 -1.68571e+12 -1.19393e+12 -2.12068e+12 -2.05639e+12 -2.03186e+12 -2.12965e+12 -2.15108e+12 -2.34597e+12 -2.42205e+12 -2.68102e+12 -2.87625e+12 -2.90273e+12 -3.05508e+12 -3.08223e+12 -5.22033e+12 -5.47067e+12 -5.20334e+12 -5.1581e+12 -3.57217e+12 -3.81407e+12 -3.7979e+12 -3.5639e+12 -5.03941e+12 -5.04451e+12 -4.95058e+12 -5.14346e+12 -4.95096e+12 -2.79194e+12 -3.17135e+12 -2.90779e+12 -2.71247e+12 -2.72038e+12 -2.59794e+12 -2.50074e+12 -2.03436e+12 -1.54344e+12 -1.69272e+12 -2.09972e+12 -2.26857e+12 -2.60112e+12 -2.69199e+12 -2.8406e+12 -2.81948e+12 -3.02062e+12 -3.24349e+12 -2.83211e+12 -4.99047e+12 -5.1691e+12 -4.95864e+12 -5.0289e+12 -5.02064e+12 -3.57272e+12 -3.78519e+12 -3.80493e+12 -5.60051e+12 -4.82137e+12 -4.88539e+12 -4.79571e+12 -4.7856e+12 -4.34645e+12 -3.24156e+12 -3.11223e+12 -3.02663e+12 -2.85475e+12 -2.80492e+12 -2.84943e+12 -2.31889e+12 -1.85669e+12 -1.82422e+12 -1.68968e+12 -1.89876e+12 -1.96871e+12 -2.10881e+12 -2.18337e+12 -2.45297e+12 -2.99833e+12 -2.88796e+12 -2.94519e+12 -3.08676e+12 -3.19096e+12 -3.31751e+12 -4.39561e+12 -4.78954e+12 -4.78987e+12 -4.8494e+12 -4.80994e+12 -5.61044e+12 -3.82075e+12 -3.77673e+12 -6.01067e+12 -6.06242e+12 -6.08749e+12 -4.72192e+12 -4.66569e+12 -4.68614e+12 -4.48028e+12 -4.44176e+12 -3.96935e+12 -3.36105e+12 -3.27944e+12 -2.88311e+12 -2.86135e+12 -2.6964e+12 -2.25369e+12 -2.08064e+12 -1.99784e+12 -1.90664e+12 -2.05192e+12 -2.21796e+12 -2.26418e+12 -2.29419e+12 -2.78372e+12 -3.04912e+12 -2.92654e+12 -3.3174e+12 -3.41184e+12 -4.01339e+12 -4.45543e+12 -4.46511e+12 -4.68386e+12 -4.64656e+12 -4.67889e+12 -6.18097e+12 -6.09512e+12 -6.01952e+12 -3.78906e+12 -3.57643e+12 -3.68863e+12 -5.81537e+12 -6.08612e+12 -5.82026e+12 -3.96916e+12 -4.4774e+12 -4.60472e+12 -4.4817e+12 -4.18899e+12 -3.87499e+12 -3.53146e+12 -3.48982e+12 -3.17181e+12 -2.58989e+12 -2.00693e+12 -3.39554e+12 -2.40119e+12 -2.15088e+12 -1.98905e+12 -2.0218e+12 -2.16326e+12 -2.30524e+12 -2.2121e+12 -3.57519e+12 -2.1632e+12 -2.60603e+12 -3.20634e+12 -3.50558e+12 -3.55968e+12 -3.87707e+12 -4.17815e+12 -4.45834e+12 -4.59667e+12 -4.45663e+12 -3.90835e+12 -5.74706e+12 -6.10383e+12 -5.81282e+12 -3.69213e+12 -3.57444e+12 -3.46623e+12 -5.61587e+12 -5.54052e+12 -5.78339e+12 -5.57426e+12 -3.81361e+12 -4.44027e+12 -4.49841e+12 -4.43245e+12 -4.28331e+12 -4.05e+12 -3.63475e+12 -3.39329e+12 -3.27707e+12 -3.02183e+12 -2.80682e+12 -2.27629e+12 -2.09698e+12 -2.09112e+12 -2.03747e+12 -2.10762e+12 -2.12435e+12 -2.20923e+12 -2.25338e+12 -2.36447e+12 -2.8707e+12 -3.06051e+12 -3.30917e+12 -3.41476e+12 -3.64098e+12 -4.03009e+12 -4.25645e+12 -4.41713e+12 -4.48192e+12 -4.45186e+12 -3.88289e+12 -5.53606e+12 -5.77981e+12 -5.53274e+12 -5.60962e+12 -3.46519e+12 -3.36489e+12 -5.3105e+12 -5.44389e+12 -5.34997e+12 -5.35571e+12 -5.04465e+12 -4.97414e+12 -4.32786e+12 -4.41263e+12 -4.30851e+12 -4.30745e+12 -4.13487e+12 -3.82319e+12 -3.68038e+12 -3.56174e+12 -3.47925e+12 -3.11965e+12 -2.35893e+12 -3.42765e+12 -1.84686e+12 -2.05525e+12 -2.1883e+12 -2.15446e+12 -2.11969e+12 -2.17795e+12 -2.27313e+12 -2.30742e+12 -2.18094e+12 -2.04574e+12 -3.63383e+12 -2.37022e+12 -3.16816e+12 -3.503e+12 -3.57371e+12 -3.68856e+12 -3.81782e+12 -4.12152e+12 -4.28766e+12 -4.30486e+12 -4.41592e+12 -4.35107e+12 -4.96066e+12 -5.03901e+12 -5.34128e+12 -5.34313e+12 -5.44073e+12 -5.31043e+12 -3.36445e+12 -3.15775e+12 -3.26701e+12 -5.19662e+12 -5.1943e+12 -5.19563e+12 -4.99055e+12 -4.72625e+12 -4.39335e+12 -4.43402e+12 -4.34103e+12 -4.17964e+12 -3.94589e+12 -3.78372e+12 -3.63625e+12 -3.3685e+12 -3.19388e+12 -2.87132e+12 -3.02468e+12 -2.92736e+12 -2.13992e+12 -2.14942e+12 -2.1643e+12 -2.24006e+12 -2.25103e+12 -3.03291e+12 -3.1148e+12 -2.91089e+12 -3.23347e+12 -3.40474e+12 -3.65294e+12 -3.78763e+12 -3.9408e+12 -4.17778e+12 -4.34617e+12 -4.44369e+12 -4.4078e+12 -4.72672e+12 -4.98941e+12 -5.18864e+12 -5.19108e+12 -5.19532e+12 -3.26446e+12 -3.15372e+12 -3.03982e+12 -5.10166e+12 -5.07704e+12 -4.92696e+12 -5.06073e+12 -4.89436e+12 -4.76718e+12 -4.54065e+12 -4.34441e+12 -4.19241e+12 -4.07647e+12 -4.02329e+12 -3.85565e+12 -3.7341e+12 -3.76265e+12 -3.58436e+12 -3.47369e+12 -3.11334e+12 -3.07689e+12 -2.62777e+12 -2.16668e+12 -2.16878e+12 -2.20043e+12 -2.21267e+12 -2.28227e+12 -2.66712e+12 -3.19243e+12 -3.17588e+12 -3.50702e+12 -3.61063e+12 -3.78055e+12 -3.74676e+12 -3.86184e+12 -4.02639e+12 -4.08389e+12 -4.19722e+12 -4.35154e+12 -4.54478e+12 -4.76789e+12 -4.89219e+12 -5.0568e+12 -4.92478e+12 -5.07516e+12 -5.09829e+12 -3.03586e+12 -2.9056e+12 -4.89756e+12 -4.99932e+12 -4.88331e+12 -4.96555e+12 -4.83125e+12 -4.79132e+12 -4.61721e+12 -4.72465e+12 -4.54058e+12 -4.35402e+12 -4.23911e+12 -4.25122e+12 -4.05107e+12 -3.91042e+12 -3.74863e+12 -3.85587e+12 -3.7392e+12 -3.32e+12 -3.0144e+12 -2.88118e+12 -2.78222e+12 -2.56668e+12 -2.44651e+12 -2.33886e+12 -2.17554e+12 -2.20015e+12 -2.23507e+12 -2.25845e+12 -2.34953e+12 -2.44479e+12 -2.60178e+12 -2.85121e+12 -2.95751e+12 -3.09057e+12 -3.36722e+12 -3.76289e+12 -3.86835e+12 -3.75796e+12 -3.91907e+12 -4.05819e+12 -4.2575e+12 -4.24471e+12 -4.36253e+12 -4.54139e+12 -4.72402e+12 -4.61461e+12 -4.78994e+12 -4.8291e+12 -4.96252e+12 -4.88004e+12 -4.99584e+12 -4.89498e+12 -2.90248e+12 -2.6822e+12 -2.77794e+12 -4.75148e+12 -4.77886e+12 -4.71376e+12 -4.58198e+12 -4.64448e+12 -4.52058e+12 -4.47184e+12 -4.39988e+12 -4.30281e+12 -4.20608e+12 -3.97506e+12 -3.69901e+12 -3.70926e+12 -3.66625e+12 -4.00329e+12 -3.90311e+12 -3.59641e+12 -3.33819e+12 -3.12693e+12 -2.92606e+12 -2.6597e+12 -2.42276e+12 -2.2665e+12 -2.22337e+12 -2.28941e+12 -2.44591e+12 -2.71269e+12 -2.98701e+12 -3.1852e+12 -3.38527e+12 -3.63245e+12 -3.92506e+12 -4.017e+12 -3.67642e+12 -3.71737e+12 -3.70795e+12 -3.98404e+12 -4.21119e+12 -4.30651e+12 -4.40296e+12 -4.47266e+12 -4.52084e+12 -4.64287e+12 -4.5806e+12 -4.71103e+12 -4.77653e+12 -4.74956e+12 -2.77567e+12 -2.68014e+12 -2.61968e+12 -4.58451e+12 -4.69518e+12 -4.56208e+12 -4.66815e+12 -4.43307e+12 -4.30123e+12 -4.30423e+12 -4.21982e+12 -4.34257e+12 -4.31123e+12 -4.31426e+12 -4.11551e+12 -4.26912e+12 -3.87015e+12 -3.98796e+12 -3.21063e+12 -4.12103e+12 -4.18419e+12 -3.65773e+12 -3.04447e+12 -2.73275e+12 -2.49484e+12 -2.32818e+12 -2.24039e+12 -2.25358e+12 -2.35244e+12 -2.53255e+12 -2.78813e+12 -3.09492e+12 -3.69754e+12 -4.19273e+12 -4.12774e+12 -3.21888e+12 -3.99616e+12 -3.87473e+12 -4.269e+12 -4.11759e+12 -4.31209e+12 -4.31015e+12 -4.3418e+12 -4.22486e+12 -4.30119e+12 -4.3006e+12 -4.43177e+12 -4.66624e+12 -4.56109e+12 -4.69376e+12 -4.5828e+12 -2.61783e+12 -2.56473e+12 -4.41862e+12 -4.36841e+12 -4.54494e+12 -4.54987e+12 -4.48005e+12 -4.33074e+12 -3.78155e+12 -4.23271e+12 -3.90056e+12 -4.15977e+12 -3.85865e+12 -3.41295e+12 -3.65496e+12 -2.5762e+12 -2.17848e+12 -3.90685e+12 -3.26367e+12 -2.78223e+12 -2.59694e+12 -2.55356e+12 -2.42e+12 -2.37983e+12 -2.30359e+12 -2.27135e+12 -2.24443e+12 -2.24112e+12 -2.25353e+12 -2.29085e+12 -2.32745e+12 -2.41023e+12 -2.45542e+12 -2.59755e+12 -2.64027e+12 -2.82975e+12 -2.88026e+12 -3.31031e+12 -3.92936e+12 -2.2101e+12 -2.5941e+12 -3.66321e+12 -3.41226e+12 -3.85023e+12 -4.15556e+12 -3.89408e+12 -4.23728e+12 -3.78301e+12 -4.33155e+12 -4.48062e+12 -4.54906e+12 -4.54392e+12 -4.36803e+12 -4.41617e+12 -2.56278e+12 -2.36521e+12 -2.48698e+12 -4.10095e+12 -4.25363e+12 -4.17318e+12 -4.40101e+12 -4.54018e+12 -4.36319e+12 -4.42031e+12 -4.07114e+12 -4.0187e+12 -3.87771e+12 -3.99816e+12 -4.07194e+12 -4.26695e+12 -4.12829e+12 -4.70755e+12 -2.26828e+12 -4.27817e+12 -3.59587e+12 -2.85434e+12 -2.86946e+12 -2.15571e+12 -3.6304e+12 -2.89803e+12 -2.84106e+12 -2.61817e+12 -2.44391e+12 -2.32699e+12 -2.25415e+12 -2.23329e+12 -2.26979e+12 -2.35545e+12 -2.48075e+12 -2.65722e+12 -2.93141e+12 -3.67863e+12 -2.18253e+12 -2.88688e+12 -2.86387e+12 -3.59743e+12 -4.29016e+12 -2.2752e+12 -4.70805e+12 -4.11744e+12 -4.26811e+12 -4.0894e+12 -4.01404e+12 -3.88817e+12 -4.02632e+12 -4.07249e+12 -4.42336e+12 -4.36332e+12 -4.53992e+12 -4.40098e+12 -4.17237e+12 -4.25038e+12 -4.0969e+12 -2.4851e+12 -2.36367e+12 -2.21952e+12 -3.92621e+12 -3.98542e+12 -4.16032e+12 -4.26375e+12 -4.20347e+12 -4.63236e+12 -3.43933e+12 -4.87177e+12 -2.64306e+12 -4.56055e+12 -3.25577e+12 -4.24476e+12 -3.80736e+12 -2.51344e+12 -4.69832e+12 -1.65981e+12 -2.65004e+12 -2.21364e+12 -2.60226e+12 -2.44123e+12 -2.33611e+12 -2.26218e+12 -2.22262e+12 -2.22957e+12 -2.28267e+12 -2.36743e+12 -2.47649e+12 -2.63294e+12 -2.22696e+12 -2.68724e+12 -1.64037e+12 -4.71151e+12 -2.51576e+12 -3.80305e+12 -4.33102e+12 -3.21766e+12 -4.61688e+12 -2.65825e+12 -4.88422e+12 -3.43797e+12 -4.64019e+12 -4.20679e+12 -4.26397e+12 -4.16036e+12 -3.98386e+12 -3.92152e+12 -2.21819e+12 -2.09318e+12 -3.77443e+12 -3.77791e+12 -3.52338e+12 -3.93396e+12 -4.11291e+12 -4.67773e+12 -4.47833e+12 -2.92944e+12 -3.08738e+12 -3.25342e+12 -4.81195e+12 -3.88889e+12 -3.35589e+12 -4.52591e+12 -3.0791e+12 -3.67515e+12 -2.56474e+12 -3.29715e+12 -2.53707e+12 -3.87172e+12 -1.38617e+12 -2.07362e+12 -3.01072e+12 -2.47115e+12 -2.12228e+12 -2.38688e+12 -2.25182e+12 -2.31879e+12 -2.24385e+12 -2.26116e+12 -2.2013e+12 -2.2141e+12 -2.17691e+12 -2.20068e+12 -2.18239e+12 -2.22662e+12 -2.21862e+12 -2.28569e+12 -2.27099e+12 -2.35177e+12 -2.28742e+12 -2.41601e+12 -2.1133e+12 -2.51084e+12 -3.0667e+12 -2.05147e+12 -1.42177e+12 -3.94063e+12 -2.53855e+12 -3.27602e+12 -2.57294e+12 -3.67199e+12 -3.09508e+12 -4.56867e+12 -3.3039e+12 -3.89514e+12 -4.78063e+12 -3.26223e+12 -3.0935e+12 -2.93088e+12 -4.47826e+12 -4.67645e+12 -4.11203e+12 -3.93499e+12 -3.525e+12 -3.77573e+12 -3.76992e+12 -2.09235e+12 -1.91817e+12 -1.98946e+12 -3.52832e+12 -3.67033e+12 -3.58523e+12 -3.58815e+12 -3.21762e+12 -3.4109e+12 -3.83011e+12 -5.77716e+12 -5.03481e+12 -4.56393e+12 -2.15976e+12 -2.55891e+12 -4.03583e+12 -5.13895e+12 -3.00794e+12 -2.68962e+12 -2.0826e+12 -3.09413e+12 -1.42633e+12 -2.3536e+12 -2.08413e+12 -2.19918e+12 -2.17827e+12 -2.15213e+12 -2.14549e+12 -2.16243e+12 -2.19985e+12 -2.22905e+12 -2.12953e+12 -2.36382e+12 -1.48155e+12 -3.09024e+12 -2.09408e+12 -2.68112e+12 -3.00088e+12 -5.11099e+12 -4.11887e+12 -2.54952e+12 -2.31689e+12 -4.55792e+12 -5.02854e+12 -5.77881e+12 -3.82961e+12 -3.40919e+12 -3.21984e+12 -3.58455e+12 -3.58083e+12 -3.66735e+12 -3.52621e+12 -1.98842e+12 -1.91716e+12 -1.85628e+12 -3.40183e+12 -3.45407e+12 -3.43588e+12 -2.2755e+12 -2.22358e+12 -4.31169e+12 -4.26014e+12 -4.07086e+12 -4.09778e+12 -3.6861e+12 -3.75843e+12 -3.27007e+12 -2.25437e+12 -3.36268e+12 -3.32643e+12 -3.78898e+12 -3.12266e+12 -2.6865e+12 -2.41744e+12 -2.55917e+12 -2.10819e+12 -3.08621e+12 -1.34168e+12 -2.12808e+12 -2.13927e+12 -2.12079e+12 -2.11051e+12 -2.11488e+12 -2.13601e+12 -2.16491e+12 -2.15956e+12 -1.33724e+12 -3.08584e+12 -2.08902e+12 -2.5484e+12 -2.42567e+12 -2.68396e+12 -3.12728e+12 -3.7788e+12 -3.30314e+12 -3.41932e+12 -2.1404e+12 -3.26858e+12 -3.75852e+12 -3.6827e+12 -4.09546e+12 -4.06649e+12 -4.26258e+12 -4.31119e+12 -2.22374e+12 -2.27046e+12 -3.43392e+12 -3.45095e+12 -3.40003e+12 -1.856e+12 -1.73486e+12 -3.29494e+12 -3.16452e+12 -3.32117e+12 -3.33022e+12 -3.3852e+12 -3.23722e+12 -3.86857e+12 -3.18717e+12 -3.8919e+12 -4.08466e+12 -3.71259e+12 -3.74083e+12 -3.41277e+12 -3.39093e+12 -2.79659e+12 -5.25677e+12 -2.61754e+12 -3.18089e+12 -3.21279e+12 -3.00297e+12 -2.40497e+12 -2.17483e+12 -1.93842e+12 -2.27496e+12 -978203000000.0 -664939000000.0 -2.04331e+12 -2.06324e+12 -2.08175e+12 -2.01633e+12 -2.07725e+12 -2.02844e+12 -2.0727e+12 -2.02782e+12 -2.07141e+12 -2.0313e+12 -2.08135e+12 -2.04188e+12 -2.09797e+12 -2.04515e+12 -2.11358e+12 -2.09057e+12 -2.05513e+12 -648783000000.0 -993897000000.0 -2.26234e+12 -1.91175e+12 -2.13516e+12 -2.4209e+12 -3.0072e+12 -3.22755e+12 -3.20521e+12 -2.73051e+12 -5.22095e+12 -2.74641e+12 -3.36083e+12 -3.40359e+12 -3.73279e+12 -3.70749e+12 -4.08424e+12 -3.89422e+12 -3.1902e+12 -3.87296e+12 -3.2392e+12 -3.38147e+12 -3.32769e+12 -3.31952e+12 -3.16344e+12 -3.2942e+12 -1.73433e+12 -1.55127e+12 -3.06506e+12 -3.25463e+12 -3.02344e+12 -3.12297e+12 -3.43312e+12 -3.1041e+12 -2.70459e+12 -4.26328e+12 -4.06852e+12 -3.35796e+12 -3.65023e+12 -3.60965e+12 -3.44523e+12 -3.33458e+12 -3.16119e+12 -2.93626e+12 -2.64409e+12 -3.78265e+12 -3.05523e+12 -3.00051e+12 -2.92854e+12 -2.6817e+12 -2.45124e+12 -2.10821e+12 -1.94486e+12 -1.78837e+12 -1.09227e+12 -1.84262e+12 -1.91735e+12 -1.97661e+12 -1.97972e+12 -1.98444e+12 -1.9867e+12 -1.99604e+12 -1.96402e+12 -1.84095e+12 -1.0816e+12 -1.74693e+12 -1.90107e+12 -2.13099e+12 -2.46595e+12 -2.68764e+12 -2.9428e+12 -3.01578e+12 -3.09638e+12 -3.79647e+12 -2.49458e+12 -2.91353e+12 -3.14871e+12 -3.32694e+12 -3.4374e+12 -3.60574e+12 -3.64988e+12 -3.35465e+12 -4.06443e+12 -4.26091e+12 -2.70295e+12 -3.10261e+12 -3.43099e+12 -3.12145e+12 -3.02336e+12 -3.2555e+12 -3.06436e+12 -1.55077e+12 -1.46429e+12 -1.34753e+12 -2.69212e+12 -3.12165e+12 -2.88707e+12 -3.23149e+12 -3.51004e+12 -3.24399e+12 -3.738e+12 -2.32898e+12 -3.01764e+12 -3.30115e+12 -3.22533e+12 -3.29559e+12 -3.25176e+12 -3.12694e+12 -3.02984e+12 -2.88213e+12 -2.76008e+12 -3.75955e+12 -2.85696e+12 -2.74414e+12 -2.60667e+12 -2.4187e+12 -2.28299e+12 -1.85408e+12 -1.73708e+12 -1.78499e+12 -1.28115e+12 -1.83401e+12 -1.92577e+12 -1.92452e+12 -1.93578e+12 -1.93801e+12 -1.93526e+12 -1.95611e+12 -1.89553e+12 -1.25813e+12 -1.8605e+12 -1.78557e+12 -1.87621e+12 -2.30817e+12 -2.42736e+12 -2.61564e+12 -2.75609e+12 -2.87497e+12 -3.79321e+12 -2.74238e+12 -2.87426e+12 -3.02191e+12 -3.12007e+12 -3.24579e+12 -3.29315e+12 -3.22489e+12 -3.29958e+12 -3.02075e+12 -2.32789e+12 -3.74193e+12 -3.24424e+12 -3.50977e+12 -3.23017e+12 -2.885e+12 -3.12432e+12 -2.69015e+12 -1.34673e+12 -1.46364e+12 -1.35959e+12 -2.94501e+12 -2.9212e+12 -3.09654e+12 -2.53402e+12 -2.26074e+12 -2.94358e+12 -3.47466e+12 -4.35988e+12 -2.54898e+12 -4.60452e+12 -4.11583e+12 -3.44422e+12 -3.22064e+12 -3.13836e+12 -3.19764e+12 -3.19387e+12 -2.47181e+12 -2.3401e+12 -2.20471e+12 -2.05575e+12 -1.93495e+12 -1.61683e+12 -1.48724e+12 -1.10986e+12 -1.97057e+12 -1.82374e+12 -1.74219e+12 -1.85131e+12 -1.85822e+12 -1.89101e+12 -1.82875e+12 -1.88235e+12 -1.82934e+12 -1.89399e+12 -1.85935e+12 -1.86764e+12 -1.77435e+12 -1.89556e+12 -2.01407e+12 -1.09463e+12 -1.47038e+12 -1.64175e+12 -1.96054e+12 -2.08313e+12 -2.2156e+12 -2.34649e+12 -2.47941e+12 -3.20203e+12 -3.21156e+12 -3.13829e+12 -3.21885e+12 -3.4429e+12 -4.11035e+12 -4.60655e+12 -2.54885e+12 -4.36243e+12 -3.47429e+12 -2.94203e+12 -2.25563e+12 -2.53137e+12 -3.10584e+12 -2.92124e+12 -2.94304e+12 -1.35894e+12 -1.19699e+12 -2.63731e+12 -2.71622e+12 -3.14219e+12 -3.44484e+12 -503430000000.0 -2.93805e+12 -3.7628e+12 -2.90904e+12 -3.58685e+12 -3.28711e+12 -3.05507e+12 -3.00427e+12 -2.93191e+12 -2.84194e+12 -2.75951e+12 -2.69538e+12 -2.83793e+12 -2.847e+12 -2.84553e+12 -2.78102e+12 -2.59893e+12 -2.11491e+12 -1.9909e+12 -1.8755e+12 -1.78243e+12 -1.67483e+12 -1.11718e+12 -1.87025e+12 -1.76371e+12 -1.78411e+12 -1.76236e+12 -1.86237e+12 -1.28026e+12 -1.69792e+12 -1.80018e+12 -1.89506e+12 -2.00005e+12 -2.11858e+12 -2.60788e+12 -2.78523e+12 -2.85038e+12 -2.85103e+12 -2.83969e+12 -2.69194e+12 -2.75336e+12 -2.83594e+12 -2.92589e+12 -2.99942e+12 -3.05198e+12 -3.28536e+12 -3.58615e+12 -2.90869e+12 -3.76159e+12 -2.93638e+12 -490540000000.0 -3.44385e+12 -3.14109e+12 -2.71387e+12 -2.63517e+12 -1.1956e+12 -797358000000.0 -988779000000.0 -2.24239e+12 -2.82946e+12 -3.71139e+12 -1.79594e+12 -2.77776e+12 -4.34259e+12 -2.12065e+12 -2.83844e+12 -2.82585e+12 -2.97885e+12 -2.83895e+12 -2.73694e+12 -2.67906e+12 -2.62801e+12 -2.57358e+12 -2.54119e+12 -2.58479e+12 -2.59392e+12 -2.57419e+12 -2.53771e+12 -2.46549e+12 -2.34028e+12 -2.2269e+12 -1.80785e+12 -1.71799e+12 -1.62877e+12 -1.55352e+12 -1.43896e+12 -1.41411e+12 -1.45771e+12 -2.15821e+12 -1.66398e+12 -1.68293e+12 -1.73379e+12 -1.68507e+12 -1.73232e+12 -1.67932e+12 -1.65829e+12 -2.11392e+12 -1.44104e+12 -1.42284e+12 -1.42662e+12 -1.55902e+12 -1.63517e+12 -1.72317e+12 -1.81247e+12 -2.2304e+12 -2.3438e+12 -2.46724e+12 -2.53804e+12 -2.57421e+12 -2.5934e+12 -2.58243e+12 -2.53642e+12 -2.56826e+12 -2.62234e+12 -2.67426e+12 -2.7333e+12 -2.83748e+12 -2.97879e+12 -2.82845e+12 -2.83749e+12 -2.12408e+12 -4.33816e+12 -2.7774e+12 -1.79173e+12 -3.71207e+12 -2.82452e+12 -2.23976e+12 -987273000000.0 -796021000000.0 -577047000000.0 -1.51546e+12 -1.89138e+12 -1.83783e+12 -2.20493e+12 -2.07274e+12 -3.40006e+12 -2.56409e+12 -3.25083e+12 -2.98116e+12 -3.27487e+12 -3.0309e+12 -2.52986e+12 -2.65803e+12 -2.52977e+12 -2.46035e+12 -2.40561e+12 -2.37258e+12 -2.34781e+12 -2.33311e+12 -2.34977e+12 -2.35509e+12 -2.34206e+12 -2.31195e+12 -2.26797e+12 -2.19858e+12 -2.10234e+12 -2.00802e+12 -1.90867e+12 -1.56862e+12 -1.50866e+12 -1.46465e+12 -1.51455e+12 -1.65338e+12 -2.38462e+12 -2.24169e+12 -1.4211e+12 -1.64426e+12 -1.63309e+12 -1.63535e+12 -1.63127e+12 -1.39785e+12 -2.43828e+12 -2.4754e+12 -1.70236e+12 -1.54336e+12 -1.46949e+12 -1.51105e+12 -1.56923e+12 -1.90919e+12 -2.00803e+12 -2.10195e+12 -2.19717e+12 -2.26581e+12 -2.30905e+12 -2.33877e+12 -2.35092e+12 -2.34448e+12 -2.32695e+12 -2.34223e+12 -2.36808e+12 -2.40322e+12 -2.45962e+12 -2.53103e+12 -2.66079e+12 -2.52706e+12 -3.02818e+12 -3.27094e+12 -2.97115e+12 -3.24843e+12 -2.5578e+12 -3.38777e+12 -2.06842e+12 -2.20201e+12 -1.83579e+12 -1.88899e+12 -1.51201e+12 -576829000000.0 -1.13657e+12 -1.51342e+12 -1.72739e+12 -1.58329e+12 -2.76558e+12 -2.71919e+12 -2.78722e+12 -2.70533e+12 -2.61864e+12 -2.57244e+12 -2.01824e+12 -2.1244e+12 -2.12723e+12 -2.10907e+12 -2.09346e+12 -2.08622e+12 -2.09153e+12 -2.07024e+12 -2.02641e+12 -1.96479e+12 -1.88869e+12 -1.80827e+12 -1.72408e+12 -1.64329e+12 -1.36433e+12 -1.33193e+12 -1.31356e+12 -1.44096e+12 -1.56804e+12 -1.31274e+12 -1.78519e+12 -1.56649e+12 -1.59793e+12 -1.57692e+12 -1.76871e+12 -1.29821e+12 -1.35453e+12 -1.41456e+12 -1.30357e+12 -1.33719e+12 -1.36194e+12 -1.64214e+12 -1.72152e+12 -1.80448e+12 -1.88474e+12 -1.96024e+12 -2.0216e+12 -2.06499e+12 -2.08366e+12 -2.07968e+12 -2.09021e+12 -2.10911e+12 -2.12923e+12 -2.12972e+12 -2.03123e+12 -2.56974e+12 -2.61177e+12 -2.69993e+12 -2.78187e+12 -2.7106e+12 -2.76545e+12 -1.57279e+12 -1.72494e+12 -1.51155e+12 -1.13833e+12 -116174000000.0 -451846000000.0 -386215000000.0 -1.25802e+12 -1.33787e+12 -1.19836e+12 -1.54797e+12 -1.31548e+12 -1.24967e+12 -2.56897e+12 -2.3502e+12 -2.26885e+12 -2.26837e+12 -2.44542e+12 -2.58646e+12 -1.5419e+12 -1.75231e+12 -1.79596e+12 -2.10953e+12 -2.12222e+12 -2.1195e+12 -2.10128e+12 -1.81007e+12 -1.75729e+12 -1.69373e+12 -1.6247e+12 -1.55401e+12 -1.4843e+12 -1.42071e+12 -850522000000.0 -753466000000.0 -961534000000.0 -861720000000.0 -1.4935e+12 -1.51324e+12 -1.55195e+12 -1.5138e+12 -1.55364e+12 -1.51833e+12 -1.53468e+12 -1.05108e+12 -990212000000.0 -728047000000.0 -778894000000.0 -1.41631e+12 -1.47877e+12 -1.54688e+12 -1.61691e+12 -1.68567e+12 -1.7491e+12 -1.80217e+12 -2.09548e+12 -2.11306e+12 -2.11493e+12 -2.10128e+12 -1.7983e+12 -1.75693e+12 -1.54956e+12 -2.56963e+12 -2.43612e+12 -2.26183e+12 -2.26391e+12 -2.34411e+12 -2.56387e+12 -1.25349e+12 -1.31498e+12 -1.54458e+12 -1.1976e+12 -1.33628e+12 -1.26357e+12 -385597000000.0 -451448000000.0 -116227000000.0 -118622000000.0 -344640000000.0 -1.62404e+12 -1.82347e+12 -1.02017e+12 -1.14475e+12 -1.24066e+12 -1.62267e+12 -1.68369e+12 -2.21333e+12 -2.24538e+12 -2.48952e+12 -1.78396e+12 -1.79249e+12 -1.81887e+12 -1.85647e+12 -1.88619e+12 -1.89996e+12 -1.89625e+12 -1.87898e+12 -1.8503e+12 -1.51319e+12 -1.45331e+12 -1.39045e+12 -1.32663e+12 -1.26056e+12 -1.19057e+12 -1.09015e+12 -1.38772e+12 -1.46775e+12 -1.47338e+12 -1.40505e+12 -2.04947e+12 -1.09295e+12 -1.18671e+12 -1.24931e+12 -1.31519e+12 -1.37841e+12 -1.44059e+12 -1.50041e+12 -1.84256e+12 -1.87094e+12 -1.88788e+12 -1.89101e+12 -1.87555e+12 -1.84314e+12 -1.80872e+12 -1.78567e+12 -1.78164e+12 -2.47575e+12 -2.23099e+12 -2.20274e+12 -1.68086e+12 -1.61519e+12 -1.24311e+12 -1.14766e+12 -1.01991e+12 -1.82738e+12 -1.62884e+12 -344582000000.0 -118465000000.0 -117395000000.0 -526382000000.0 -1.89046e+12 -796004000000.0 -1.70647e+12 -1.19185e+12 -1.77882e+12 -1.92268e+12 -1.64013e+12 -2.03224e+12 -2.22365e+12 -1.30371e+12 -1.49288e+12 -1.50881e+12 -1.43306e+12 -1.50416e+12 -1.5879e+12 -1.64738e+12 -1.68265e+12 -1.69482e+12 -1.69186e+12 -1.67632e+12 -1.65038e+12 -1.61453e+12 -1.56816e+12 -1.29084e+12 -1.23435e+12 -1.17579e+12 -1.11222e+12 -1.05274e+12 -1.04376e+12 -1.28314e+12 -1.63627e+12 -1.9442e+12 -1.86627e+12 -1.41305e+12 -1.41667e+12 -1.42856e+12 -1.77198e+12 -1.74775e+12 -1.32957e+12 -1.0838e+12 -1.05759e+12 -1.09325e+12 -1.15554e+12 -1.21483e+12 -1.27158e+12 -1.55568e+12 -1.60265e+12 -1.63939e+12 -1.66591e+12 -1.68179e+12 -1.68501e+12 -1.67119e+12 -1.62996e+12 -1.56612e+12 -1.49331e+12 -1.42298e+12 -1.51113e+12 -1.4992e+12 -1.31313e+12 -2.21143e+12 -2.01951e+12 -1.62146e+12 -1.91502e+12 -1.77428e+12 -1.19601e+12 -1.69924e+12 -790292000000.0 -1.89197e+12 -527478000000.0 -117174000000.0 -139364000000.0 -645688000000.0 -696166000000.0 -1.78165e+12 -1.31587e+12 -1.57509e+12 -741138000000.0 -1.2108e+12 -1.65069e+12 -1.92809e+12 -1.66488e+12 -1.18345e+12 -1.28789e+12 -1.2451e+12 -1.08369e+12 -1.297e+12 -1.41046e+12 -1.47359e+12 -1.49862e+12 -1.50811e+12 -1.50448e+12 -1.48992e+12 -1.46672e+12 -1.4346e+12 -1.39283e+12 -1.34435e+12 -1.02421e+12 -925970000000.0 -825394000000.0 -796685000000.0 -599158000000.0 -595652000000.0 -1.35473e+12 -1.53078e+12 -1.37941e+12 -1.36546e+12 -1.29707e+12 -1.36163e+12 -1.36468e+12 -1.5496e+12 -1.53472e+12 -818475000000.0 -246823000000.0 -915473000000.0 -869124000000.0 -884109000000.0 -990627000000.0 -1.32558e+12 -1.37494e+12 -1.41783e+12 -1.4516e+12 -1.47624e+12 -1.49208e+12 -1.49732e+12 -1.48773e+12 -1.45804e+12 -1.38071e+12 -1.26558e+12 -1.08296e+12 -1.25436e+12 -1.29685e+12 -1.19508e+12 -1.65917e+12 -1.92829e+12 -1.64859e+12 -1.21053e+12 -744205000000.0 -1.57189e+12 -1.3118e+12 -1.78271e+12 -695534000000.0 -645488000000.0 -138586000000.0 -329621000000.0 -420292000000.0 -699331000000.0 -1.02068e+12 -748353000000.0 -1.48267e+12 -1.49466e+12 -1.91551e+12 -1.84898e+12 -1.88499e+12 -1.04809e+12 -1.10825e+12 -1.10941e+12 -993053000000.0 -1.33474e+12 -1.329e+12 -1.31604e+12 -1.29591e+12 -1.26637e+12 -1.22862e+12 -1.18554e+12 -1.13738e+12 -1.08587e+12 -1.44514e+12 -1.79182e+12 -2.01721e+12 -1.27244e+12 -1.26354e+12 -1.24097e+12 -1.27561e+12 -2.24596e+12 -1.69469e+12 -1.5944e+12 -1.05471e+12 -1.10859e+12 -1.15898e+12 -1.20396e+12 -1.2436e+12 -1.2756e+12 -1.298e+12 -1.31376e+12 -1.32202e+12 -986719000000.0 -1.10631e+12 -1.12035e+12 -1.06207e+12 -1.87549e+12 -1.84045e+12 -1.91612e+12 -1.49552e+12 -1.48016e+12 -748657000000.0 -1.02101e+12 -700655000000.0 -421133000000.0 -327648000000.0 -137058000000.0 -635810000000.0 -814304000000.0 -381024000000.0 -560422000000.0 -441877000000.0 -484564000000.0 -1.0678e+12 -1.38129e+12 -1.52907e+12 -1.6202e+12 -1.51658e+12 -1.21156e+12 -1.28711e+12 -1.31774e+12 -1.33159e+12 -1.13519e+12 -1.10774e+12 -1.07364e+12 -1.03713e+12 -997492000000.0 -958878000000.0 -920743000000.0 -932228000000.0 -1.09871e+12 -1.74506e+12 -1.19597e+12 -1.18516e+12 -1.17231e+12 -1.64802e+12 -1.19739e+12 -946383000000.0 -884730000000.0 -917323000000.0 -957087000000.0 -1.00157e+12 -1.04143e+12 -1.0781e+12 -1.10874e+12 -1.32124e+12 -1.30902e+12 -1.28708e+12 -1.19764e+12 -1.50991e+12 -1.61318e+12 -1.52336e+12 -1.38029e+12 -1.06689e+12 -487756000000.0 -440160000000.0 -556089000000.0 -375962000000.0 -815622000000.0 -636325000000.0 -136799000000.0 -171187000000.0 -508142000000.0 -676153000000.0 -150270000000.0 -622185000000.0 -1.54023e+12 -1.65449e+12 -1.45053e+12 -1.3666e+12 -1.07757e+12 -773923000000.0 -1.10021e+12 -982364000000.0 -1.05732e+12 -1.13272e+12 -1.15808e+12 -1.16745e+12 -1.16867e+12 -1.16768e+12 -1.16267e+12 -1.15358e+12 -924964000000.0 -897089000000.0 -859656000000.0 -820497000000.0 -763779000000.0 -664701000000.0 -535276000000.0 -563331000000.0 -38484400000.0 -1.02339e+12 -978240000000.0 -1.13824e+12 -1.14571e+12 -1.06631e+12 -1.09302e+12 -1.07758e+12 -924444000000.0 -1.12067e+12 -324488000000.0 -626936000000.0 -439094000000.0 -532828000000.0 -687034000000.0 -755718000000.0 -800402000000.0 -850896000000.0 -884451000000.0 -1.13094e+12 -1.14212e+12 -1.15129e+12 -1.15654e+12 -1.15793e+12 -1.15216e+12 -1.12812e+12 -1.01556e+12 -990010000000.0 -1.10382e+12 -794022000000.0 -1.07383e+12 -1.36182e+12 -1.44484e+12 -1.65458e+12 -1.54015e+12 -623373000000.0 -150008000000.0 -672747000000.0 -506930000000.0 -169519000000.0 -425695000000.0 -949305000000.0 -266791000000.0 -1.12155e+12 -1.32435e+12 -1.37902e+12 -1.38886e+12 -1.30711e+12 -929821000000.0 -919081000000.0 -819116000000.0 -1.03298e+12 -1.02279e+12 -1.02643e+12 -1.01262e+12 -1.0044e+12 -1.00507e+12 -1.00903e+12 -1.00102e+12 -982544000000.0 -956861000000.0 -732677000000.0 -698777000000.0 -633246000000.0 -518967000000.0 -504626000000.0 -430281000000.0 -172329000000.0 -1.07745e+12 -916612000000.0 -121538000000.0 -49277200000.0 -457022000000.0 -369044000000.0 -506240000000.0 -602093000000.0 -643325000000.0 -919863000000.0 -949060000000.0 -972245000000.0 -985934000000.0 -980411000000.0 -988242000000.0 -1.00166e+12 -1.01501e+12 -1.02197e+12 -1.01704e+12 -823047000000.0 -923278000000.0 -939461000000.0 -1.30439e+12 -1.38914e+12 -1.37883e+12 -1.32151e+12 -1.12234e+12 -266519000000.0 -943934000000.0 -425440000000.0 -207296000000.0 -152860000000.0 -375514000000.0 -837230000000.0 -627890000000.0 -1.01957e+12 -1.17665e+12 -1.23519e+12 -1.15792e+12 -1.24416e+12 -1.29284e+12 -2.05778e+12 -1.59209e+12 -1.28658e+12 -952566000000.0 -943179000000.0 -903231000000.0 -873470000000.0 -844926000000.0 -834857000000.0 -864111000000.0 -867052000000.0 -856714000000.0 -837080000000.0 -812283000000.0 -779064000000.0 -769190000000.0 -1.04771e+12 -1.07176e+12 -846473000000.0 -876520000000.0 -941276000000.0 -711312000000.0 -734007000000.0 -766699000000.0 -794390000000.0 -818762000000.0 -840676000000.0 -846406000000.0 -806956000000.0 -840413000000.0 -870289000000.0 -898416000000.0 -940365000000.0 -951594000000.0 -1.30521e+12 -1.60683e+12 -2.05183e+12 -1.27669e+12 -1.23858e+12 -1.15719e+12 -1.23602e+12 -1.17515e+12 -1.0175e+12 -628907000000.0 -836810000000.0 -370297000000.0 -152984000000.0 -207706000000.0 -92558100000.0 -113606000000.0 -713451000000.0 -740026000000.0 -486188000000.0 -928079000000.0 -1.01366e+12 -1.06965e+12 -1.02177e+12 -739804000000.0 -735146000000.0 -719834000000.0 -697184000000.0 -670300000000.0 -622488000000.0 -696140000000.0 -584838000000.0 -640069000000.0 -498744000000.0 -335154000000.0 -471789000000.0 -895268000000.0 -632159000000.0 -896230000000.0 -904764000000.0 -866569000000.0 -367278000000.0 -817491000000.0 -433114000000.0 -769440000000.0 -273026000000.0 -241019000000.0 -275031000000.0 -534302000000.0 -426428000000.0 -621711000000.0 -579064000000.0 -627493000000.0 -640828000000.0 -663634000000.0 -699112000000.0 -723553000000.0 -1.01789e+12 -1.06987e+12 -1.01336e+12 -927761000000.0 -483395000000.0 -739891000000.0 -712685000000.0 -116347000000.0 -92832100000.0 -65722600000.0 -242759000000.0 -251464000000.0 -101935000000.0 -486281000000.0 -527717000000.0 -1.09705e+12 -1.00575e+12 -731575000000.0 -1.35928e+12 -1.41195e+12 -1.1709e+12 -978833000000.0 -840151000000.0 -792242000000.0 -747003000000.0 -694862000000.0 -669721000000.0 -732176000000.0 -556882000000.0 -557627000000.0 -547661000000.0 -649918000000.0 -491100000000.0 -614371000000.0 -536842000000.0 -458709000000.0 -795121000000.0 -638047000000.0 -699995000000.0 -682469000000.0 -935864000000.0 -798330000000.0 -469493000000.0 -552395000000.0 -753126000000.0 -323098000000.0 -378113000000.0 -551260000000.0 -421480000000.0 -625129000000.0 -517937000000.0 -527898000000.0 -519641000000.0 -722188000000.0 -677785000000.0 -703202000000.0 -747276000000.0 -789039000000.0 -839031000000.0 -979270000000.0 -1.17419e+12 -1.40785e+12 -1.34685e+12 -734030000000.0 -1.00409e+12 -1.09866e+12 -526981000000.0 -485848000000.0 -100711000000.0 -250318000000.0 -237186000000.0 -61536800000.0 -559142000000.0 -776646000000.0 -887872000000.0 -928062000000.0 -977965000000.0 -909284000000.0 -939799000000.0 -873216000000.0 -824658000000.0 -754361000000.0 -678257000000.0 -632807000000.0 -574150000000.0 -564265000000.0 -594955000000.0 -622610000000.0 -621275000000.0 -610166000000.0 -589112000000.0 -593897000000.0 -507821000000.0 -628816000000.0 -574168000000.0 -862033000000.0 -849539000000.0 -664273000000.0 -525876000000.0 -604121000000.0 -482279000000.0 -553635000000.0 -596123000000.0 -630532000000.0 -595902000000.0 -557164000000.0 -572747000000.0 -630853000000.0 -674126000000.0 -751217000000.0 -811954000000.0 -857819000000.0 -929407000000.0 -900210000000.0 -976559000000.0 -930163000000.0 -887978000000.0 -777805000000.0 -557970000000.0 -35864100000.0 -23720300000.0 -222841000000.0 -169589000000.0 -432916000000.0 -518262000000.0 -515569000000.0 -647624000000.0 -833597000000.0 -801602000000.0 -598870000000.0 -561079000000.0 -632708000000.0 -617885000000.0 -623998000000.0 -560322000000.0 -524612000000.0 -463877000000.0 -474658000000.0 -490071000000.0 -509349000000.0 -516507000000.0 -507729000000.0 -494505000000.0 -473266000000.0 -505007000000.0 -515828000000.0 -531794000000.0 -519909000000.0 -644554000000.0 -518391000000.0 -285498000000.0 -594086000000.0 -728861000000.0 -44104700000.0 -513022000000.0 -280886000000.0 -433415000000.0 -396845000000.0 -488777000000.0 -539739000000.0 -503804000000.0 -486912000000.0 -402003000000.0 -419747000000.0 -471443000000.0 -503188000000.0 -510772000000.0 -480228000000.0 -463109000000.0 -461566000000.0 -518620000000.0 -554553000000.0 -620670000000.0 -613090000000.0 -623790000000.0 -559467000000.0 -587137000000.0 -801781000000.0 -834129000000.0 -648161000000.0 -516314000000.0 -518624000000.0 -433060000000.0 -169572000000.0 -222666000000.0 -23953900000.0 -34458600000.0 -57106200000.0 -112408000000.0 -213167000000.0 -319745000000.0 -499287000000.0 -498365000000.0 -527853000000.0 -640286000000.0 -296136000000.0 -439119000000.0 -412707000000.0 -427858000000.0 -410881000000.0 -390508000000.0 -387432000000.0 -378446000000.0 -460423000000.0 -496976000000.0 -604432000000.0 -637662000000.0 -511621000000.0 -429449000000.0 -368026000000.0 -773108000000.0 -398272000000.0 -595010000000.0 -454732000000.0 -765697000000.0 -411188000000.0 -283853000000.0 -552078000000.0 -374551000000.0 -627236000000.0 -535476000000.0 -520757000000.0 -636833000000.0 -610707000000.0 -617556000000.0 -502090000000.0 -490274000000.0 -409422000000.0 -401100000000.0 -376086000000.0 -392124000000.0 -412078000000.0 -400491000000.0 -435554000000.0 -291546000000.0 -644760000000.0 -532073000000.0 -501000000000.0 -500219000000.0 -320867000000.0 -214397000000.0 -112517000000.0 -57031300000.0 -64835700000.0 -826278000000.0 -32941900000.0 -475381000000.0 -494470000000.0 -551525000000.0 -486245000000.0 -439123000000.0 -374232000000.0 -391270000000.0 -397665000000.0 -290191000000.0 -191394000000.0 -398558000000.0 -168698000000.0 -394896000000.0 -185583000000.0 -349944000000.0 -290611000000.0 -512515000000.0 -94137800000.0 -196433000000.0 -195386000000.0 -621164000000.0 -459516000000.0 -667638000000.0 -339061000000.0 -401622000000.0 -159897000000.0 -393370000000.0 -189880000000.0 -320494000000.0 -386204000000.0 -379583000000.0 -366909000000.0 -439630000000.0 -480063000000.0 -542832000000.0 -485754000000.0 -473973000000.0 -32079800000.0 -827660000000.0 -64982700000.0 -20157600000.0 -41800600000.0 -97792000000.0 -277189000000.0 -283218000000.0 -347806000000.0 -489434000000.0 -715769000000.0 -204894000000.0 -250350000000.0 -380856000000.0 -411027000000.0 -418480000000.0 -390817000000.0 -297989000000.0 -301134000000.0 -303354000000.0 -313434000000.0 -325913000000.0 -323331000000.0 -272302000000.0 -258268000000.0 -9028860000.0 -644584000000.0 -244472000000.0 -189381000000.0 -342050000000.0 -466073000000.0 -217882000000.0 -279977000000.0 -271249000000.0 -295599000000.0 -306963000000.0 -298543000000.0 -293725000000.0 -295869000000.0 -287896000000.0 -396458000000.0 -408697000000.0 -397888000000.0 -382672000000.0 -249519000000.0 -201129000000.0 -713013000000.0 -488276000000.0 -347427000000.0 -278653000000.0 -273599000000.0 -98698300000.0 -43127200000.0 -20169900000.0 -20274800000.0 -29933400000.0 -50154600000.0 -152515000000.0 -207775000000.0 -209491000000.0 -326577000000.0 -549571000000.0 -302219000000.0 -185874000000.0 -195823000000.0 -113946000000.0 -306899000000.0 -281786000000.0 -316794000000.0 -299123000000.0 -322560000000.0 -342817000000.0 -357291000000.0 -375166000000.0 -391041000000.0 -388155000000.0 -342386000000.0 -316414000000.0 -323489000000.0 -222751000000.0 -341906000000.0 -259147000000.0 -307285000000.0 -275840000000.0 -253506000000.0 -286596000000.0 -438332000000.0 -277178000000.0 -359785000000.0 -271023000000.0 -333258000000.0 -404238000000.0 -238228000000.0 -316470000000.0 -232549000000.0 -280515000000.0 -185869000000.0 -338029000000.0 -394357000000.0 -385701000000.0 -348495000000.0 -380393000000.0 -304407000000.0 -376266000000.0 -333088000000.0 -335275000000.0 -358595000000.0 -368640000000.0 -352846000000.0 -340933000000.0 -331300000000.0 -314977000000.0 -292417000000.0 -308384000000.0 -267188000000.0 -308008000000.0 -115357000000.0 -195149000000.0 -182500000000.0 -297625000000.0 -553546000000.0 -327373000000.0 -208277000000.0 -206470000000.0 -152414000000.0 -50776600000.0 -30011800000.0 -21266700000.0 -39323200000.0 -97017200000.0 -151440000000.0 -222454000000.0 -275807000000.0 -136637000000.0 -109565000000.0 -279102000000.0 -150908000000.0 -152333000000.0 -9029400000.0 -62213900000.0 -32914900000.0 -27263800000.0 -24804600000.0 -117007000000.0 -100681000000.0 -36941800000.0 -397442000000.0 -93537700000.0 -64975300000.0 -70425600000.0 -160860000000.0 -113262000000.0 -71317000000.0 -88383200000.0 -65608700000.0 -186808000000.0 -157523000000.0 -255375000000.0 -109543000000.0 -134415000000.0 -275966000000.0 -222263000000.0 -151656000000.0 -97306200000.0 -39466200000.0 -230274000000.0 -366362000000.0 -507337000000.0 -34186100000.0 -86204800000.0 -88666000000.0 -176843000000.0 -187720000000.0 -206406000000.0 -184725000000.0 -178833000000.0 -206566000000.0 -223408000000.0 -248478000000.0 -264502000000.0 -81482100000.0 -105094000000.0 -40501100000.0 -87110100000.0 -304675000000.0 -214135000000.0 -78734900000.0 -77772500000.0 -83462400000.0 -247105000000.0 -230485000000.0 -206712000000.0 -193731000000.0 -168708000000.0 -176393000000.0 -199596000000.0 -170329000000.0 -178521000000.0 -90240800000.0 -87393900000.0 -33701300000.0 -514287000000.0 -365455000000.0 -229192000000.0 -9131220000.0 -9037830000.0 -9924340000.0 -9065050000.0 -63262800000.0 -170309000000.0 -305440000000.0 -204099000000.0 -83263900000.0 -103385000000.0 -50701900000.0 -30665600000.0 -34829700000.0 -102778000000.0 -129710000000.0 -189954000000.0 -225795000000.0 -257053000000.0 -301486000000.0 -334565000000.0 -376745000000.0 -409895000000.0 -456039000000.0 -373346000000.0 -366426000000.0 -303879000000.0 -280526000000.0 -274017000000.0 -224150000000.0 -276441000000.0 -194703000000.0 -268255000000.0 -187452000000.0 -165354000000.0 -173445000000.0 -134763000000.0 -44722500000.0 -106137000000.0 -298496000000.0 -9035750000.0 -20959800000.0 -16956500000.0 -21118500000.0 -67046000000.0 -53812500000.0 -137150000000.0 -75505400000.0 -109126000000.0 -150902000000.0 -182144000000.0 -236725000000.0 -245129000000.0 -335094000000.0 -315094000000.0 -294777000000.0 -265481000000.0 -245612000000.0 -216581000000.0 -197446000000.0 -166472000000.0 -105304000000.0 -105110000000.0 -36410800000.0 -30316100000.0 -50423600000.0 -103076000000.0 -83352400000.0 -205892000000.0 -307407000000.0 -169022000000.0 -63625900000.0 -9035750000.0 -9947420000.0 -9037970000.0 -9140390000.0 -29463000000.0 -47573100000.0 -60576400000.0 -119121000000.0 -119217000000.0 -45369600000.0 -33357200000.0 -11942800000.0 -11878600000.0 -13368100000.0 -15882100000.0 -64643200000.0 -62622100000.0 -117333000000.0 -88243900000.0 -71148400000.0 -65167500000.0 -44829200000.0 -25512900000.0 -14514700000.0 -81842800000.0 -118607000000.0 -59981900000.0 -47308900000.0 -29219900000.0 -16487400000.0 -182475000000.0 -292430000000.0 -178775000000.0 -46213000000.0 -80330100000.0 -82382000000.0 -104886000000.0 -142195000000.0 -201226000000.0 -196683000000.0 -201016000000.0 -182892000000.0 -163305000000.0 -149753000000.0 -125400000000.0 -113085000000.0 -104656000000.0 -45373400000.0 -74617200000.0 -110833000000.0 -127780000000.0 -48409300000.0 -97301000000.0 -39568500000.0 -285255000000.0 -128033000000.0 -109557000000.0 -117493000000.0 -131838000000.0 -63980600000.0 -43807600000.0 -81046600000.0 -92055800000.0 -104254000000.0 -128979000000.0 -144908000000.0 -166146000000.0 -184947000000.0 -171287000000.0 -192135000000.0 -135343000000.0 -97708100000.0 -76655000000.0 -76976400000.0 -43033900000.0 -177195000000.0 -291430000000.0 -180647000000.0 -16422800000.0 -11447600000.0 -9986220000.0 -15877300000.0 -9204470000.0 -45471400000.0 -70096800000.0 -190880000000.0 -162272000000.0 -31877700000.0 -30893800000.0 -15151000000.0 -12127500000.0 -30437100000.0 -74902900000.0 -72936800000.0 -94774700000.0 -110804000000.0 -122260000000.0 -136331000000.0 -138558000000.0 -150130000000.0 -154366000000.0 -167107000000.0 -101979000000.0 -80045400000.0 -108489000000.0 -73283200000.0 -136474000000.0 -76185200000.0 -171422000000.0 -79535700000.0 -185287000000.0 -80904200000.0 -125781000000.0 -131376000000.0 -158086000000.0 -95238000000.0 -123285000000.0 -213005000000.0 -18566800000.0 -11526300000.0 -28356100000.0 -12239500000.0 -60964600000.0 -11794400000.0 -69628200000.0 -12570000000.0 -32817400000.0 -22505000000.0 -39326800000.0 -34372100000.0 -41708800000.0 -107044000000.0 -107743000000.0 -112376000000.0 -108711000000.0 -113369000000.0 -105959000000.0 -99014300000.0 -86447500000.0 -61250300000.0 -77149000000.0 -32641400000.0 -12127400000.0 -15126700000.0 -31609900000.0 -31952700000.0 -162743000000.0 -190852000000.0 -69753400000.0 -45881000000.0 -9205820000.0 -16072200000.0 -9988590000.0 -11467800000.0 -13692700000.0 -47914400000.0 -13281900000.0 -11904100000.0 -20319300000.0 -11784100000.0 -44467800000.0 -59992300000.0 -148286000000.0 -148984000000.0 -27295000000.0 -21856400000.0 -15511900000.0 -19870900000.0 -44051000000.0 -82343400000.0 -80100000000.0 -95925700000.0 -106351000000.0 -108064000000.0 -108510000000.0 -96672700000.0 -94840200000.0 -87136900000.0 -89657200000.0 -32523700000.0 -9351060000.0 -48051400000.0 -9058190000.0 -74432300000.0 -9598260000.0 -104991000000.0 -10460300000.0 -116633000000.0 -11561700000.0 -54552900000.0 -44514100000.0 -95557200000.0 -74239100000.0 -171924000000.0 -77187400000.0 -57073900000.0 -74479800000.0 -99460600000.0 -42261400000.0 -90384400000.0 -35347300000.0 -50861000000.0 -27054400000.0 -36807500000.0 -19000400000.0 -16271300000.0 -66422200000.0 -68253500000.0 -79337000000.0 -83710300000.0 -97672900000.0 -99625400000.0 -99072100000.0 -89515900000.0 -71146500000.0 -83371100000.0 -45358500000.0 -19506100000.0 -15180400000.0 -22008800000.0 -27215900000.0 -149302000000.0 -148035000000.0 -59949000000.0 -44733500000.0 -11679400000.0 -20455800000.0 -11840300000.0 -13279800000.0 -14304900000.0 -11779000000.0 -20801800000.0 -9519010000.0 -37255300000.0 -52240900000.0 -114340000000.0 -141285000000.0 -31939800000.0 -16236300000.0 -10977600000.0 -14949500000.0 -38077900000.0 -69565900000.0 -68568100000.0 -84481900000.0 -99743800000.0 -105111000000.0 -107527000000.0 -96335700000.0 -93650100000.0 -81144600000.0 -79682700000.0 -31619500000.0 -10298800000.0 -46301600000.0 -10085000000.0 -72300200000.0 -14569700000.0 -103246000000.0 -17780300000.0 -114602000000.0 -19892100000.0 -68313700000.0 -56100000000.0 -104130000000.0 -19239100000.0 -81690500000.0 -116677000000.0 -36465400000.0 -10057900000.0 -38181900000.0 -10067800000.0 -69172200000.0 -9596760000.0 -58007400000.0 -9125160000.0 -31647300000.0 -9035750000.0 -24703500000.0 -9425370000.0 -12661400000.0 -58297400000.0 -63612500000.0 -79638000000.0 -84727400000.0 -97920300000.0 -97604700000.0 -93282000000.0 -78709800000.0 -63269500000.0 -70793600000.0 -39617800000.0 -14985600000.0 -10982100000.0 -16496300000.0 -32082000000.0 -141787000000.0 -114314000000.0 -52554400000.0 -37625200000.0 -9516880000.0 -21053000000.0 -11780600000.0 -14327900000.0 -15467900000.0 -12550700000.0 -22259000000.0 -9701900000.0 -33558800000.0 -50108800000.0 -92894900000.0 -133118000000.0 -37049700000.0 -14957900000.0 -11937100000.0 -17415000000.0 -39901500000.0 -65837800000.0 -66454100000.0 -81586400000.0 -98055900000.0 -103186000000.0 -104243000000.0 -91221700000.0 -86704700000.0 -70639900000.0 -66750900000.0 -29783100000.0 -10264200000.0 -44677900000.0 -9035750000.0 -64772600000.0 -9035750000.0 -88808100000.0 -9035750000.0 -97631200000.0 -9657890000.0 -56289800000.0 -39207700000.0 -95367200000.0 -10723800000.0 -89446600000.0 -115065000000.0 -61201800000.0 -24957700000.0 -53331000000.0 -20024200000.0 -77365900000.0 -16931600000.0 -58996900000.0 -12154200000.0 -33169400000.0 -9035750000.0 -25652000000.0 -9035750000.0 -12251800000.0 -50093600000.0 -56505900000.0 -75214000000.0 -81576600000.0 -96088100000.0 -96538400000.0 -92152600000.0 -76012600000.0 -63380700000.0 -66621800000.0 -41169200000.0 -17382800000.0 -11851100000.0 -15092600000.0 -37222100000.0 -133595000000.0 -92932700000.0 -50454700000.0 -33890500000.0 -9702710000.0 -22517700000.0 -12552300000.0 -15492700000.0 -16442100000.0 -13221500000.0 -23023400000.0 -9874040000.0 -30096200000.0 -47421800000.0 -78484200000.0 -123310000000.0 -41216200000.0 -13984500000.0 -12284300000.0 -18829100000.0 -39661700000.0 -60517200000.0 -62767800000.0 -77178400000.0 -94370100000.0 -99740600000.0 -100631000000.0 -86971800000.0 -81385100000.0 -63006100000.0 -57228500000.0 -29294400000.0 -10581100000.0 -43064700000.0 -9035750000.0 -60096200000.0 -9035750000.0 -81348000000.0 -9035750000.0 -88587700000.0 -10088700000.0 -59463300000.0 -42053600000.0 -99594700000.0 -15240900000.0 -94012100000.0 -87824400000.0 -50857000000.0 -9237380000.0 -42639500000.0 -9035750000.0 -66498200000.0 -9035750000.0 -50459000000.0 -9035750000.0 -32176500000.0 -9035750000.0 -26316800000.0 -9035750000.0 -12866000000.0 -44366400000.0 -51501500000.0 -71704200000.0 -78770400000.0 -93674700000.0 -93994300000.0 -89235300000.0 -72165900000.0 -61348600000.0 -61132200000.0 -40831700000.0 -18867900000.0 -12288300000.0 -14064900000.0 -41368000000.0 -123740000000.0 -78642000000.0 -47750700000.0 -30383000000.0 -9874650000.0 -23258100000.0 -13223200000.0 -16468100000.0 -17222900000.0 -13782500000.0 -23152600000.0 -10026000000.0 -26992900000.0 -44164300000.0 -69155600000.0 -112432000000.0 -44241300000.0 -13694000000.0 -12878900000.0 -20344900000.0 -39206700000.0 -55718300000.0 -59523500000.0 -73147000000.0 -90225500000.0 -95352600000.0 -95965000000.0 -81959300000.0 -75658600000.0 -56123900000.0 -49261700000.0 -28368500000.0 -10715700000.0 -41369300000.0 -9035750000.0 -55622600000.0 -9035750000.0 -74351000000.0 -9035750000.0 -80720000000.0 -9035750000.0 -55352100000.0 -33419000000.0 -93298400000.0 -9035750000.0 -97981600000.0 -81696100000.0 -59137600000.0 -10969100000.0 -43404300000.0 -9035750000.0 -63135200000.0 -9035750000.0 -47356100000.0 -9035750000.0 -31896600000.0 -9035750000.0 -26683700000.0 -9035750000.0 -13350700000.0 -39429500000.0 -46811400000.0 -67566700000.0 -75048400000.0 -90100700000.0 -90444200000.0 -85789900000.0 -68682400000.0 -59027500000.0 -56129100000.0 -40224200000.0 -20386400000.0 -12882700000.0 -13725700000.0 -44395100000.0 -112819000000.0 -69412900000.0 -44466000000.0 -27228900000.0 -10026500000.0 -23347900000.0 -13784100000.0 -17249600000.0 -17808800000.0 -14229500000.0 -22779800000.0 -10155000000.0 -24312400000.0 -40629800000.0 -62348400000.0 -101259000000.0 -46080800000.0 -13814700000.0 -13383100000.0 -21561900000.0 -38287400000.0 -51113300000.0 -56173000000.0 -68937800000.0 -85419600000.0 -90136100000.0 -90552100000.0 -76514100000.0 -69788000000.0 -50053600000.0 -42739700000.0 -27055400000.0 -10630000000.0 -39544500000.0 -9035750000.0 -51401200000.0 -9035750000.0 -67843300000.0 -9035750000.0 -73488600000.0 -9035750000.0 -53977700000.0 -30607700000.0 -91247400000.0 -9035750000.0 -97678500000.0 -66865800000.0 -58990200000.0 -9765660000.0 -43523800000.0 -9035750000.0 -59166500000.0 -9035750000.0 -44517300000.0 -9035750000.0 -31346800000.0 -9035750000.0 -26759600000.0 -9035750000.0 -13703100000.0 -35192600000.0 -42518300000.0 -63082800000.0 -70744400000.0 -85671100000.0 -86024200000.0 -81672100000.0 -65070300000.0 -56180500000.0 -51372300000.0 -39168400000.0 -21605700000.0 -13386800000.0 -13828300000.0 -46233600000.0 -101614000000.0 -62634100000.0 -40900200000.0 -24499600000.0 -10155500000.0 -22935900000.0 -14231000000.0 -17835400000.0 -18201500000.0 -14561500000.0 -22041400000.0 -10258900000.0 -22049400000.0 -37065800000.0 -56407800000.0 -90302800000.0 -46820500000.0 -14115200000.0 -13788700000.0 -22474400000.0 -37068100000.0 -46853500000.0 -52821700000.0 -64682900000.0 -80247800000.0 -84439000000.0 -84687800000.0 -70867400000.0 -63960200000.0 -44766400000.0 -37455700000.0 -25514000000.0 -10385600000.0 -37593500000.0 -9035750000.0 -47437100000.0 -9035750000.0 -61827900000.0 -9035750000.0 -66881300000.0 -9035750000.0 -52226800000.0 -27763500000.0 -88461300000.0 -9035750000.0 -98426800000.0 -58830800000.0 -60882400000.0 -9993170000.0 -43057200000.0 -9035750000.0 -54911700000.0 -9035750000.0 -41855900000.0 -9035750000.0 -30533700000.0 -9035750000.0 -26562200000.0 -9035750000.0 -13925900000.0 -31598200000.0 -38675200000.0 -58457700000.0 -66095700000.0 -80675400000.0 -81053700000.0 -77136000000.0 -61405900000.0 -53053600000.0 -47001900000.0 -37825600000.0 -22519800000.0 -13792100000.0 -14124300000.0 -46969200000.0 -90628500000.0 -56675500000.0 -37299600000.0 -22196400000.0 -10259300000.0 -22165600000.0 -14562900000.0 -18227300000.0 -18405800000.0 -14779200000.0 -21056900000.0 -10335800000.0 -20167500000.0 -33640500000.0 -50789400000.0 -79869900000.0 -46576700000.0 -14400900000.0 -14089300000.0 -23081900000.0 -35663800000.0 -42990300000.0 -49505100000.0 -60433500000.0 -74883700000.0 -78505900000.0 -78607400000.0 -65206200000.0 -58315700000.0 -40197900000.0 -33184400000.0 -23880200000.0 -10076500000.0 -35549000000.0 -9035750000.0 -43718000000.0 -9035750000.0 -56281700000.0 -9035750000.0 -60865500000.0 -9035750000.0 -50167600000.0 -25013900000.0 -85009900000.0 -9035750000.0 -97813700000.0 -51849600000.0 -61506100000.0 -10093200000.0 -42072100000.0 -9035750000.0 -50605200000.0 -9035750000.0 -39308500000.0 -9035750000.0 -29489200000.0 -9035750000.0 -26114200000.0 -9035750000.0 -14025600000.0 -28580000000.0 -35283500000.0 -53843300000.0 -61293600000.0 -75346900000.0 -75763100000.0 -72341100000.0 -57712600000.0 -49794800000.0 -43064000000.0 -36310800000.0 -23127800000.0 -14092500000.0 -14408900000.0 -46718300000.0 -80166400000.0 -51025200000.0 -33834900000.0 -20283500000.0 -10336300000.0 -21156400000.0 -14780500000.0 -18430300000.0 -18429700000.0 -14884200000.0 -19930100000.0 -10384900000.0 -18619700000.0 -30458000000.0 -45464700000.0 -70155100000.0 -45493900000.0 -14590900000.0 -14280900000.0 -23388900000.0 -34149900000.0 -39520300000.0 -46250700000.0 -56236000000.0 -69461300000.0 -72518800000.0 -72485300000.0 -59666900000.0 -52949800000.0 -36260800000.0 -29713900000.0 -22248600000.0 -9775230000.0 -33449200000.0 -9035750000.0 -40230100000.0 -9035750000.0 -51169700000.0 -9035750000.0 -55386000000.0 -9035750000.0 -47832500000.0 -22445400000.0 -80972100000.0 -9035750000.0 -95933700000.0 -45777400000.0 -60998300000.0 -10056400000.0 -40643800000.0 -9035750000.0 -46408800000.0 -9035750000.0 -36830800000.0 -9035750000.0 -28256400000.0 -9035750000.0 -25442400000.0 -9035750000.0 -14012900000.0 -26046600000.0 -32303100000.0 -49346500000.0 -56481600000.0 -69862300000.0 -70326100000.0 -67415300000.0 -54016900000.0 -46506600000.0 -39546900000.0 -34699100000.0 -23434400000.0 -14283800000.0 -14598500000.0 -45625600000.0 -70421100000.0 -45668300000.0 -30615200000.0 -18711600000.0 -10385300000.0 -20010000000.0 -14885300000.0 -18452500000.0 -18283700000.0 -14879100000.0 -18745000000.0 -10405500000.0 -17351200000.0 -27570700000.0 -40516800000.0 -61274200000.0 -43733300000.0 -14664600000.0 -14361700000.0 -23404700000.0 -32564400000.0 -36403100000.0 -43066400000.0 -52116100000.0 -64073800000.0 -66600800000.0 -66442800000.0 -54338900000.0 -47917500000.0 -32858300000.0 -26858700000.0 -20679300000.0 -9522530000.0 -31327400000.0 -9035750000.0 -36958100000.0 -9035750000.0 -46455100000.0 -9035750000.0 -50372800000.0 -9035750000.0 -45258300000.0 -20113200000.0 -76429700000.0 -9035750000.0 -40493900000.0 -59506500000.0 -9914190000.0 -38850300000.0 -9035750000.0 -42414400000.0 -9035750000.0 -34398500000.0 -9035750000.0 -26883500000.0 -9035750000.0 -24577100000.0 -9035750000.0 -13901700000.0 -23898600000.0 -29674100000.0 -45036900000.0 -51761600000.0 -64350200000.0 -64865100000.0 -62448300000.0 -50335600000.0 -43251300000.0 -36402700000.0 -33027900000.0 -23448700000.0 -14364400000.0 -14671800000.0 -43853200000.0 -61509000000.0 -40690500000.0 -27696000000.0 -17423800000.0 -10405900000.0 -18809100000.0 -14880200000.0 -18304300000.0 -92909600000.0 -17980200000.0 -14767800000.0 -17562100000.0 -10397800000.0 -16302000000.0 -24991000000.0 -36007000000.0 -53278000000.0 -41453600000.0 -14620600000.0 -14332300000.0 -23142400000.0 -30917700000.0 -33579200000.0 -39947400000.0 -48085300000.0 -58778900000.0 -60825200000.0 -60555700000.0 -49272000000.0 -43240400000.0 -29893100000.0 -24464600000.0 -19207600000.0 -9332880000.0 -29208900000.0 -9035750000.0 -33885100000.0 -9035750000.0 -42099400000.0 -9035750000.0 -45754400000.0 -9035750000.0 -42485400000.0 -18044400000.0 -71466900000.0 -9035750000.0 -88857900000.0 -35879800000.0 -57164200000.0 -9728470000.0 -36767400000.0 -9035750000.0 -38657700000.0 -9035750000.0 -32003600000.0 -9035750000.0 -25415100000.0 -9035750000.0 -23550500000.0 -9035750000.0 -13706400000.0 -22045700000.0 -27331200000.0 -40953000000.0 -47197900000.0 -58897600000.0 -59460400000.0 -57499200000.0 -46677500000.0 -40059800000.0 -33566100000.0 -31305600000.0 -23184100000.0 -14334700000.0 -14627300000.0 -41561000000.0 -53481300000.0 -36152900000.0 -25090100000.0 -16359100000.0 -10398200000.0 -17613300000.0 -14768700000.0 -17998500000.0 -17533300000.0 -14555100000.0 -16421300000.0 -10362500000.0 -15413600000.0 -22704300000.0 -31954300000.0 -46166000000.0 -38796400000.0 -14462800000.0 -14195500000.0 -29204400000.0 -30982300000.0 -36885400000.0 -44144300000.0 -53604500000.0 -55227200000.0 -54864200000.0 -44485100000.0 -38914500000.0 -27273800000.0 -22408300000.0 -17849700000.0 -9203000000.0 -27111700000.0 -9035750000.0 -30992900000.0 -9035750000.0 -38062800000.0 -9035750000.0 -41464800000.0 -9035750000.0 -39555700000.0 -16247600000.0 -66161200000.0 -9035750000.0 -31828700000.0 -54106500000.0 -9545720000.0 -34463600000.0 -9035750000.0 -35138700000.0 -9035750000.0 -29646400000.0 -9035750000.0 -23886700000.0 -9035750000.0 -22394300000.0 -9035750000.0 -13440300000.0 -20412300000.0 -25211800000.0 -37108900000.0 -42824300000.0 -53557800000.0 -54159300000.0 -52603600000.0 -43044800000.0 -36940100000.0 -30965900000.0 -29525400000.0 -14197600000.0 -14468900000.0 -38891300000.0 -46338000000.0 -32074600000.0 -22782100000.0 -15458200000.0 -10362800000.0 -16461800000.0 -14555900000.0 -17549300000.0 -22618300000.0 -83887100000.0 -22656900000.0 -16958000000.0 -14247000000.0 -15346700000.0 -10300700000.0 -14634700000.0 -20679900000.0 -28344000000.0 -39900400000.0 -35879500000.0 -14197600000.0 -13955800000.0 -21851800000.0 -27413700000.0 -28547400000.0 -33871200000.0 -40285000000.0 -48557100000.0 -49815500000.0 -49382200000.0 -39974500000.0 -34917600000.0 -24919300000.0 -20595700000.0 -16607900000.0 -9121380000.0 -25047700000.0 -9035750000.0 -28261800000.0 -9035750000.0 -34306400000.0 -9035750000.0 -37446400000.0 -9035750000.0 -36507100000.0 -14719800000.0 -60581500000.0 -9035750000.0 -78098100000.0 -28253900000.0 -50465800000.0 -9389280000.0 -31997600000.0 -9035750000.0 -31838900000.0 -9035750000.0 -27329300000.0 -9035750000.0 -22324200000.0 -9035750000.0 -21138000000.0 -9035750000.0 -13115000000.0 -18939200000.0 -23259700000.0 -33500300000.0 -38651300000.0 -48358200000.0 -48983900000.0 -47778800000.0 -39435000000.0 -33886000000.0 -28533100000.0 -27675600000.0 -21886700000.0 -13957600000.0 -14203000000.0 -35962000000.0 -40042600000.0 -28441400000.0 -20740500000.0 -14669100000.0 -10301000000.0 -15378400000.0 -14247800000.0 -16971700000.0 -31216200000.0 -18957200000.0 -9074950000.0 -9035750000.0 -9035750000.0 -9035750000.0 -9035750000.0 -13446800000.0 -9035750000.0 -25084000000.0 -9267050000.0 -9035750000.0 -9035750000.0 -9035750000.0 -9035750000.0 -9035750000.0 -17581600000.0 -30110100000.0 -16269900000.0 -13850600000.0 -14351000000.0 -10214200000.0 -13924100000.0 -18879500000.0 -25140200000.0 -34416700000.0 -32796500000.0 -13832900000.0 -13619500000.0 -20864500000.0 -25535900000.0 -26215400000.0 -30895000000.0 -36493700000.0 -43629400000.0 -44582500000.0 -44105700000.0 -35721800000.0 -22760900000.0 -15475100000.0 -23023400000.0 -25672100000.0 -30792900000.0 -33650000000.0 -33370900000.0 -54789600000.0 -71587200000.0 -46362400000.0 -29417400000.0 -28732200000.0 -25053100000.0 -20745200000.0 -19807200000.0 -12740500000.0 -21427700000.0 -34673800000.0 -43307700000.0 -43938200000.0 -43028300000.0 -35842300000.0 -30884500000.0 -26205800000.0 -25746400000.0 -20895300000.0 -13621000000.0 -13837700000.0 -32866900000.0 -34531700000.0 -25217600000.0 -18926000000.0 -13950500000.0 -10214400000.0 -14375400000.0 -13851200000.0 -16281300000.0 -15484400000.0 -13373900000.0 -13437800000.0 -10104800000.0 -13251800000.0 -17262400000.0 -22295100000.0 -29632200000.0 -29619200000.0 -13378000000.0 -13194500000.0 -19679700000.0 -23565800000.0 -23937800000.0 -27946300000.0 -32754000000.0 -38806600000.0 -39510200000.0 -39019100000.0 -31699200000.0 -27770600000.0 -20743200000.0 -17443100000.0 -14438300000.0 -9051570000.0 -21041500000.0 -9035750000.0 -23204600000.0 -9035750000.0 -27486700000.0 -9035750000.0 -30034200000.0 -9035750000.0 -30172800000.0 -12403900000.0 -48841000000.0 -9035750000.0 -64447700000.0 -22258000000.0 -41900400000.0 -9178390000.0 -26760100000.0 -9035750000.0 -25790300000.0 -9035750000.0 -22816800000.0 -9035750000.0 -19160900000.0 -9035750000.0 -18423600000.0 -9035750000.0 -12324900000.0 -16307600000.0 -19677800000.0 -26913900000.0 -30876100000.0 -38402000000.0 -39014600000.0 -38346300000.0 -32259400000.0 -27921200000.0 -23933400000.0 -23732300000.0 -19706400000.0 -13195700000.0 -13382100000.0 -29678000000.0 -29723200000.0 -22355600000.0 -17297600000.0 -13271800000.0 -10105000000.0 -13456500000.0 -13374400000.0 -15493700000.0 -14616600000.0 -12825800000.0 -12604500000.0 -9974960000.0 -12597700000.0 -15789800000.0 -19755800000.0 -25453100000.0 -26400100000.0 -12843200000.0 -12690000000.0 -18322500000.0 -21503300000.0 -21677600000.0 -25014400000.0 -29050000000.0 -34070500000.0 -34575500000.0 -34099800000.0 -27874000000.0 -24539100000.0 -18823100000.0 -16018900000.0 -13481800000.0 -9041340000.0 -19101100000.0 -9035750000.0 -20840800000.0 -9035750000.0 -24354300000.0 -9035750000.0 -26563600000.0 -9035750000.0 -26933400000.0 -11560300000.0 -42783600000.0 -9035750000.0 -56768700000.0 -19723200000.0 -37166400000.0 -9118330000.0 -24053800000.0 -9035750000.0 -22985100000.0 -9035750000.0 -20617300000.0 -9035750000.0 -17578200000.0 -9035750000.0 -17004200000.0 -9035750000.0 -11874800000.0 -15094800000.0 -17981400000.0 -23883300000.0 -27235900000.0 -33628000000.0 -34198600000.0 -33722500000.0 -28679100000.0 -24982500000.0 -21677700000.0 -21632600000.0 -18344800000.0 -12691000000.0 -12846700000.0 -26447900000.0 -25523700000.0 -19802200000.0 -15816000000.0 -12612600000.0 -9975130000.0 -12618400000.0 -12826300000.0 -14623900000.0 -13681000000.0 -12216200000.0 -11843800000.0 -9827440000.0 -11949500000.0 -14427200000.0 -17468400000.0 -21780700000.0 -23174700000.0 -12239700000.0 -12116400000.0 -16818600000.0 -19353100000.0 -19409700000.0 -22090000000.0 -25368200000.0 -29402400000.0 -29753400000.0 -29321200000.0 -24211900000.0 -21481000000.0 -16968400000.0 -14660700000.0 -12589600000.0 -9037470000.0 -17199100000.0 -9035750000.0 -18563200000.0 -9035750000.0 -21364000000.0 -9035750000.0 -23207900000.0 -9035750000.0 -23668700000.0 -10882300000.0 -36655200000.0 -9035750000.0 -48635000000.0 -17432900000.0 -32231300000.0 -9080280000.0 -21318500000.0 -9035750000.0 -20290000000.0 -9035750000.0 -18450000000.0 -9035750000.0 -16000400000.0 -9035750000.0 -15561800000.0 -9035750000.0 -11395400000.0 -13927800000.0 -16317600000.0 -20988900000.0 -23727800000.0 -28967600000.0 -29472300000.0 -29144700000.0 -25095400000.0 -22057100000.0 -19413000000.0 -19451100000.0 -16836600000.0 -12117200000.0 -12242500000.0 -23212300000.0 -21833800000.0 -17503000000.0 -14446300000.0 -11960400000.0 -9827570000.0 -11853900000.0 -12216500000.0 -13686700000.0 -12691400000.0 -11555300000.0 -11145700000.0 -9665120000.0 -11300700000.0 -13145300000.0 -15380400000.0 -18515300000.0 -19963800000.0 -11579300000.0 -11485100000.0 -15194400000.0 -17124700000.0 -17120200000.0 -19166200000.0 -21698100000.0 -24785300000.0 -25019200000.0 -24655800000.0 -20679000000.0 -18557900000.0 -15156000000.0 -13351500000.0 -11746400000.0 -9036220000.0 -15330400000.0 -9035750000.0 -16354800000.0 -9035750000.0 -18486200000.0 -9035750000.0 -19941100000.0 -9035750000.0 -20390100000.0 -10336800000.0 -30483600000.0 -9035750000.0 -40129400000.0 -15342500000.0 -27151400000.0 -9057830000.0 -18567900000.0 -9035750000.0 -17680900000.0 -9035750000.0 -16309400000.0 -9035750000.0 -14428700000.0 -9035750000.0 -14105500000.0 -9035750000.0 -10891600000.0 -12795600000.0 -14672400000.0 -18201700000.0 -20325500000.0 -24400000000.0 -24816800000.0 -24601000000.0 -21504100000.0 -19136600000.0 -17124900000.0 -17196000000.0 -15208200000.0 -11485700000.0 -11581500000.0 -19992100000.0 -18553700000.0 -15405200000.0 -13158700000.0 -11308400000.0 -9665210000.0 -11152800000.0 -11555600000.0 -12695600000.0 -11660900000.0 -10854200000.0 -10498300000.0 -9491130000.0 -10648700000.0 -11920000000.0 -13442500000.0 -15559700000.0 -16776400000.0 -10874200000.0 -10808100000.0 -13476600000.0 -14831000000.0 -14804000000.0 -16238800000.0 -18032400000.0 -20203800000.0 -20349700000.0 -20076100000.0 -17243100000.0 -15734800000.0 -13369700000.0 -12077900000.0 -10938700000.0 -9035860000.0 -13488700000.0 -9035750000.0 -14199400000.0 -9035750000.0 -15693000000.0 -9035750000.0 -16740100000.0 -9035750000.0 -17104900000.0 -9891740000.0 -24287200000.0 -9035750000.0 -31333600000.0 -13407700000.0 -21970700000.0 -9045650000.0 -15810200000.0 -9035750000.0 -15135500000.0 -9035750000.0 -14189300000.0 -9035750000.0 -12862800000.0 -9035750000.0 -12641400000.0 -9035750000.0 -10368300000.0 -11689200000.0 -13036600000.0 -15494600000.0 -17003100000.0 -19903700000.0 -20213800000.0 -20080800000.0 -17903500000.0 -16215600000.0 -14808600000.0 -14879300000.0 -13486300000.0 -10808600000.0 -10875800000.0 -16796000000.0 -15585600000.0 -13459000000.0 -11928700000.0 -10653800000.0 -9491190000.0 -10503000000.0 -10854400000.0 -11663700000.0 -10601800000.0 -10124100000.0 -9888010000.0 -9308740000.0 -9993050000.0 -10731500000.0 -11608200000.0 -12820400000.0 -13611900000.0 -10137200000.0 -10098400000.0 -11692200000.0 -12488500000.0 -12463800000.0 -13306200000.0 -14367000000.0 -15645100000.0 -15723700000.0 -15555500000.0 -13874000000.0 -12979800000.0 -11598600000.0 -10829000000.0 -10154600000.0 -9035780000.0 -11666500000.0 -9035750000.0 -12081200000.0 -9035750000.0 -12958400000.0 -9035750000.0 -13584000000.0 -9035750000.0 -13817200000.0 -9516740000.0 -18077100000.0 -9035750000.0 -22328700000.0 -11584000000.0 -16723800000.0 -9039620000.0 -13050000000.0 -9035750000.0 -12633700000.0 -9035750000.0 -12083800000.0 -9035750000.0 -11301400000.0 -9035750000.0 -11173300000.0 -9035750000.0 -9830770000.0 -10601100000.0 -11405200000.0 -12842300000.0 -13735900000.0 -15456800000.0 -15646100000.0 -15575200000.0 -14293900000.0 -13291600000.0 -12467000000.0 -12516200000.0 -11697900000.0 -10098600000.0 -10138100000.0 -13623400000.0 -12835200000.0 -11617600000.0 -10736400000.0 -9995920000.0 -9308780000.0 -9890600000.0 -10124200000.0 -10603400000.0 -9525870000.0 -9376800000.0 -9300040000.0 -9121350000.0 -9334770000.0 -9563440000.0 -9834020000.0 -10207300000.0 -10463100000.0 -9381010000.0 -9368950000.0 -9867990000.0 -10115800000.0 -10107000000.0 -10369100000.0 -10700000000.0 -11098000000.0 -11121600000.0 -11068400000.0 -10543000000.0 -10263800000.0 -9835130000.0 -9594440000.0 -9383940000.0 -9035760000.0 -9856040000.0 -9035750000.0 -9984710000.0 -9035750000.0 -10257600000.0 -9035750000.0 -10453500000.0 -9035750000.0 -10528400000.0 -9182700000.0 -11858900000.0 -9035750000.0 -13195600000.0 -9826050000.0 -11438700000.0 -9036700000.0 -10288900000.0 -9035750000.0 -10156900000.0 -9035750000.0 -9986530000.0 -9035750000.0 -9742750000.0 -9035750000.0 -9703120000.0 -9035750000.0 -9284570000.0 -9523560000.0 -9775230000.0 -10221500000.0 -10500500000.0 -11038000000.0 -11097700000.0 -11076600000.0 -10677600000.0 -10364400000.0 -10108100000.0 -10124300000.0 -9869780000.0 -9369020000.0 -9381300000.0 -10466700000.0 -10211800000.0 -9836900000.0 -9564940000.0 -9335650000.0 -9121360000.0 -9300830000.0 -9376840000.0 -9526370000.0 
SCALARS Shear_Stress float 1
LOOKUP_TABLE default
17832200000.0 13783200000.0 9035750000.0 15880000000.0 31671500000.0 13474900000.0 123356000000.0 25074500000.0 66755800000.0 42826300000.0 38770900000.0 21246000000.0 32218100000.0 51860000000.0 31086000000.0 42982400000.0 12451900000.0 9035750000.0 9036070000.0 83340900000.0 36369000000.0 61632900000.0 124303000000.0 79791600000.0 14869600000.0 98651700000.0 28751100000.0 114455000000.0 68800800000.0 54716900000.0 9797440000.0 6344250000.0 58321800000.0 9035780000.0 9036000000.0 54308000000.0 45467500000.0 204651000000.0 203822000000.0 21608700000.0 61477100000.0 82486400000.0 121946000000.0 154544000000.0 210758000000.0 119897000000.0 6406040000.0 43003300000.0 9035780000.0 160833000000.0 55117600000.0 99440800000.0 189646000000.0 205115000000.0 72282000.0 29634800000.0 4467900000.0 192431000000.0 95557000000.0 217759000000.0 191541000000.0 257535000000.0 66308900000.0 66905400000.0 94273300000.0 139939000000.0 22217100000.0 72944000000.0 128297000000.0 71175100000.0 77385400000.0 221325000000.0 157036000000.0 189171000000.0 136169000000.0 85105700000.0 14153900000.0 130405000000.0 284271000000.0 339532000000.0 214652000000.0 50930100000.0 263583000000.0 1587670000.0 146247000000.0 57739200000.0 99340900000.0 133216000000.0 133994000000.0 3779700000.0 38264200000.0 70475700000.0 168825000000.0 84431600000.0 344949000000.0 112877000000.0 16404100000.0 343243000000.0 411211000000.0 144613000000.0 255844000000.0 45013200000.0 25009600000.0 111518000000.0 5870570000.0 213215000000.0 71835800000.0 86943600000.0 159047000000.0 72842900000.0 203045000000.0 48390500000.0 69940900000.0 290696000000.0 511990000000.0 474685000000.0 290853000000.0 266245000000.0 170346000000.0 182304000000.0 96478100000.0 15733000000.0 136470000000.0 204559000000.0 338922000000.0 247960000000.0 38415700000.0 24424800000.0 120012000000.0 135535000000.0 38522800000.0 213490000000.0 163614000000.0 533582000000.0 319013000000.0 241550000000.0 210986000000.0 181708000000.0 130451000000.0 206360000000.0 48472900000.0 117416000000.0 233223000000.0 286503000000.0 519099000000.0 30220100000.0 10255900000.0 392998000000.0 183874000000.0 127672000000.0 304844000000.0 166617000000.0 262975000000.0 240595000000.0 315119000000.0 236861000000.0 443593000000.0 457563000000.0 144009000000.0 43451400000.0 494421000000.0 437171000000.0 875844000000.0 204503000000.0 450461000000.0 54567900000.0 64556100000.0 66455700000.0 169939000000.0 14530600000.0 647132000000.0 4810570000.0 128171000000.0 242134000000.0 428665000000.0 424833000000.0 245337000000.0 166918000000.0 110913000000.0 60272700000.0 309602000000.0 67784200000.0 843052000000.0 301841000000.0 583123000000.0 105653000000.0 359777000000.0 36809700000.0 135569000000.0 290141000000.0 552686000000.0 219188000000.0 581273000000.0 450375000000.0 368044000000.0 153315000000.0 171654000000.0 41031600000.0 527855000000.0 61777100000.0 899455000000.0 26485500000.0 169431000000.0 246910000000.0 154949000000.0 208019000000.0 29107000000.0 135799000000.0 654690000000.0 733258000000.0 371205000000.0 451670000000.0 455976000000.0 425950000000.0 388389000000.0 284335000000.0 25239200000.0 473859000000.0 177361000000.0 872497000000.0 177927000000.0 77817500000.0 228864000000.0 270744000000.0 828241000000.0 216314000000.0 241370000000.0 74083300000.0 105809000000.0 232784000000.0 156265000000.0 908190000000.0 291522000000.0 444023000000.0 460709000000.0 381964000000.0 192718000000.0 708350000000.0 625759000000.0 882511000000.0 190070000000.0 386273000000.0 132349000000.0 155674000000.0 920831000000.0 709152000000.0 823517000000.0 507777000000.0 395131000000.0 201967000000.0 231226000000.0 247055000000.0 40369100000.0 339634000000.0 441592000000.0 501527000000.0 490723000000.0 724416000000.0 644827000000.0 710100000000.0 935379000000.0 1.45836e+12 702342000000.0 234751000000.0 285550000000.0 129969000000.0 821853000000.0 1.06075e+12 844159000000.0 721945000000.0 529533000000.0 359392000000.0 112148000000.0 24109400000.0 315741000000.0 340146000000.0 946860000000.0 861447000000.0 572107000000.0 615530000000.0 557243000000.0 584136000000.0 544928000000.0 673034000000.0 717815000000.0 644280000000.0 728184000000.0 779456000000.0 728793000000.0 743213000000.0 929618000000.0 2057880000.0 299114000000.0 398694000000.0 275335000000.0 389394000000.0 713215000000.0 1.13647e+12 823212000000.0 758053000000.0 458241000000.0 410886000000.0 308291000000.0 244788000000.0 188244000000.0 367084000000.0 860968000000.0 803899000000.0 663250000000.0 661190000000.0 681328000000.0 645760000000.0 646825000000.0 675554000000.0 754012000000.0 757142000000.0 1.0078e+12 477055000000.0 480364000000.0 369702000000.0 423348000000.0 508388000000.0 30940600000.0 140234000000.0 160809000000.0 448534000000.0 1.72353e+12 920159000000.0 604579000000.0 548508000000.0 328338000000.0 152088000000.0 229032000000.0 56317800000.0 584743000000.0 702283000000.0 686194000000.0 704184000000.0 618730000000.0 719505000000.0 745501000000.0 961547000000.0 1.70395e+12 365771000000.0 140637000000.0 128330000000.0 18138700000.0 506969000000.0 178292000000.0 629533000000.0 131829000000.0 156619000000.0 115100000000.0 417498000000.0 873873000000.0 873735000000.0 798741000000.0 698913000000.0 490334000000.0 283160000000.0 289899000000.0 74939600000.0 183256000000.0 16730000000.0 393192000000.0 437759000000.0 710706000000.0 720716000000.0 729513000000.0 758101000000.0 672994000000.0 672440000000.0 792983000000.0 842334000000.0 833445000000.0 859124000000.0 445002000000.0 148678000000.0 119894000000.0 137286000000.0 622961000000.0 178783000000.0 2087760000.0 812952000000.0 368077000000.0 63462100000.0 194616000000.0 219337000000.0 335538000000.0 1.64978e+12 858313000000.0 782388000000.0 665306000000.0 623831000000.0 349688000000.0 399321000000.0 365420000000.0 436291000000.0 168785000000.0 563768000000.0 777477000000.0 717152000000.0 571423000000.0 730924000000.0 788346000000.0 796996000000.0 875337000000.0 1.66582e+12 343817000000.0 159300000000.0 172097000000.0 51645700000.0 396548000000.0 820541000000.0 12195300000.0 275371000000.0 608654000000.0 1.0338e+12 79899900000.0 108272000000.0 321159000000.0 182902000000.0 1.19242e+12 781757000000.0 661017000000.0 734942000000.0 794676000000.0 382877000000.0 552883000000.0 496318000000.0 656670000000.0 538058000000.0 544034000000.0 378983000000.0 527533000000.0 639381000000.0 868780000000.0 509809000000.0 915652000000.0 808452000000.0 694501000000.0 783218000000.0 1.21832e+12 209847000000.0 278038000000.0 94331200000.0 82607200000.0 1.04995e+12 638605000000.0 293891000000.0 318112000000.0 151718000000.0 209808000000.0 677117000000.0 305850000000.0 26804500000.0 206390000000.0 210754000000.0 304071000000.0 117171000000.0 799630000000.0 674880000000.0 533427000000.0 962443000000.0 697930000000.0 555268000000.0 554262000000.0 649327000000.0 708103000000.0 573387000000.0 589819000000.0 677968000000.0 626825000000.0 960834000000.0 1.00891e+12 586606000000.0 700908000000.0 819042000000.0 124741000000.0 259626000000.0 176387000000.0 184778000000.0 52251000000.0 307922000000.0 658086000000.0 189415000000.0 167241000000.0 321073000000.0 271747000000.0 295234000000.0 191164000000.0 132536000000.0 608099000000.0 1.34521e+12 209863000000.0 79260000000.0 91586300000.0 45581800000.0 319767000000.0 802919000000.0 649298000000.0 545788000000.0 353610000000.0 71922300000.0 795195000000.0 190755000000.0 595252000000.0 749230000000.0 700497000000.0 610608000000.0 573344000000.0 194488000000.0 761387000000.0 113243000000.0 407861000000.0 584744000000.0 676565000000.0 813730000000.0 351452000000.0 6636830000.0 69248100000.0 55713100000.0 211014000000.0 1.3799e+12 591286000000.0 150377000000.0 200267000000.0 295377000000.0 270017000000.0 240344000000.0 198585000000.0 297412000000.0 266520000000.0 503650000000.0 1.26535e+12 324639000000.0 51282200000.0 29123200000.0 6646780000.0 210170000000.0 613837000000.0 547198000000.0 472094000000.0 430343000000.0 334949000000.0 397327000000.0 705905000000.0 794850000000.0 786276000000.0 784137000000.0 694624000000.0 690788000000.0 611753000000.0 423393000000.0 370162000000.0 470149000000.0 505047000000.0 582864000000.0 638803000000.0 249917000000.0 33897200000.0 56355300000.0 68256800000.0 354917000000.0 1.27124e+12 523986000000.0 294739000000.0 313283000000.0 204102000000.0 238640000000.0 206348000000.0 206155000000.0 193336000000.0 276452000000.0 473267000000.0 514692000000.0 454195000000.0 797015000000.0 207420000000.0 215235000000.0 92010300000.0 234683000000.0 462431000000.0 568600000000.0 535698000000.0 470277000000.0 467740000000.0 270800000000.0 751140000000.0 230382000000.0 364884000000.0 592009000000.0 742198000000.0 829781000000.0 773427000000.0 679468000000.0 570386000000.0 455361000000.0 138643000000.0 769609000000.0 239514000000.0 492687000000.0 500097000000.0 569788000000.0 594175000000.0 496926000000.0 254818000000.0 115322000000.0 230840000000.0 228213000000.0 765428000000.0 426572000000.0 501057000000.0 482927000000.0 283218000000.0 195984000000.0 207175000000.0 205329000000.0 95610100000.0 153877000000.0 228571000000.0 237809000000.0 388050000000.0 448645000000.0 215545000000.0 357024000000.0 358675000000.0 256011000000.0 273397000000.0 441273000000.0 621184000000.0 484207000000.0 476671000000.0 610859000000.0 592067000000.0 1.03687e+12 981411000000.0 655422000000.0 830085000000.0 831404000000.0 767741000000.0 706165000000.0 1.02393e+12 1.08418e+12 598536000000.0 619497000000.0 496843000000.0 510756000000.0 644334000000.0 464760000000.0 284064000000.0 253272000000.0 348966000000.0 331329000000.0 202018000000.0 441181000000.0 389656000000.0 239853000000.0 229439000000.0 152843000000.0 94074600000.0 25278500000.0 299877000000.0 251928000000.0 240304000000.0 313069000000.0 338286000000.0 357385000000.0 136564000000.0 236630000000.0 320366000000.0 350291000000.0 432400000000.0 672683000000.0 596997000000.0 482322000000.0 453650000000.0 550836000000.0 892360000000.0 679993000000.0 993587000000.0 796804000000.0 856461000000.0 854875000000.0 823904000000.0 793950000000.0 1.01768e+12 635040000000.0 912580000000.0 557818000000.0 472226000000.0 500090000000.0 616175000000.0 684389000000.0 442019000000.0 350497000000.0 320067000000.0 223148000000.0 134573000000.0 347213000000.0 330220000000.0 311672000000.0 237742000000.0 251864000000.0 300404000000.0 23985600000.0 9266800000.0 469119000000.0 366819000000.0 396032000000.0 273134000000.0 289808000000.0 283815000000.0 232751000000.0 333596000000.0 246088000000.0 115608000000.0 201447000000.0 185197000000.0 379835000000.0 548313000000.0 848801000000.0 700273000000.0 521661000000.0 767023000000.0 893135000000.0 765439000000.0 845096000000.0 902926000000.0 968437000000.0 938280000000.0 862665000000.0 871573000000.0 846678000000.0 831339000000.0 891632000000.0 963804000000.0 891644000000.0 824814000000.0 724677000000.0 884912000000.0 773256000000.0 530703000000.0 712720000000.0 861583000000.0 550762000000.0 376551000000.0 178194000000.0 192949000000.0 100202000000.0 241659000000.0 327048000000.0 223225000000.0 278912000000.0 288201000000.0 272880000000.0 396243000000.0 367776000000.0 469982000000.0 10187600000.0 55334900000.0 3904580000.0 478633000000.0 470409000000.0 307024000000.0 353976000000.0 188542000000.0 271132000000.0 245415000000.0 134269000000.0 4680840000.0 99276200000.0 221400000000.0 356110000000.0 930487000000.0 1.26546e+12 621707000000.0 656057000000.0 647730000000.0 797026000000.0 885004000000.0 855452000000.0 813770000000.0 901053000000.0 906288000000.0 851757000000.0 854249000000.0 882674000000.0 786498000000.0 835808000000.0 881587000000.0 792043000000.0 646665000000.0 659556000000.0 633182000000.0 1.26947e+12 936441000000.0 357414000000.0 218469000000.0 95128400000.0 12885500000.0 137198000000.0 243970000000.0 268151000000.0 184576000000.0 352519000000.0 305337000000.0 470735000000.0 479020000000.0 3692050000.0 55693700000.0 113018000000.0 391875000000.0 625044000000.0 550125000000.0 521034000000.0 299653000000.0 78299100000.0 129140000000.0 236469000000.0 179783000000.0 165532000000.0 42124400000.0 367985000000.0 70724600000.0 612453000000.0 104957000000.0 649634000000.0 1.16902e+12 854148000000.0 612545000000.0 850949000000.0 769164000000.0 825983000000.0 871187000000.0 859088000000.0 830821000000.0 837072000000.0 805308000000.0 738261000000.0 842715000000.0 602583000000.0 862393000000.0 1.17287e+12 659505000000.0 111450000000.0 611308000000.0 73350700000.0 364175000000.0 45052200000.0 171903000000.0 179182000000.0 247843000000.0 115632000000.0 75253500000.0 296939000000.0 520870000000.0 550357000000.0 625347000000.0 391935000000.0 113939000000.0 132646000000.0 251033000000.0 384491000000.0 577615000000.0 794744000000.0 703634000000.0 537983000000.0 160889000000.0 390180000000.0 12264500000.0 178107000000.0 1.15315e+12 1.29831e+12 265044000000.0 178445000000.0 107764000000.0 540332000000.0 716543000000.0 762438000000.0 682660000000.0 749717000000.0 721639000000.0 806712000000.0 770783000000.0 832487000000.0 781028000000.0 812349000000.0 765059000000.0 798167000000.0 741318000000.0 780653000000.0 695733000000.0 723485000000.0 658319000000.0 744300000000.0 644659000000.0 712012000000.0 548786000000.0 108755000000.0 193205000000.0 267026000000.0 1.29915e+12 1.15089e+12 179337000000.0 15592600000.0 394320000000.0 163731000000.0 536857000000.0 702412000000.0 794786000000.0 577632000000.0 384957000000.0 249035000000.0 133344000000.0 3670470000.0 99680100000.0 132210000000.0 136141000000.0 161405000000.0 633145000000.0 957010000000.0 488537000000.0 940430000000.0 153517000000.0 1.13237e+12 925450000000.0 326871000000.0 44756400000.0 299259000000.0 617428000000.0 127033000000.0 495056000000.0 617075000000.0 387430000000.0 976696000000.0 298490000000.0 11182400000.0 208031000000.0 128260000000.0 650885000000.0 601279000000.0 625919000000.0 685648000000.0 726871000000.0 727352000000.0 704682000000.0 658849000000.0 599005000000.0 586603000000.0 113807000000.0 201149000000.0 892800000.0 298231000000.0 989293000000.0 379484000000.0 625038000000.0 501921000000.0 119299000000.0 624344000000.0 302547000000.0 65881300000.0 366403000000.0 946150000000.0 1.12589e+12 146671000000.0 938528000000.0 488322000000.0 955167000000.0 632999000000.0 158998000000.0 133961000000.0 130003000000.0 100364000000.0 3865520000.0 76066700000.0 269785000000.0 15627900000.0 346172000000.0 739361000000.0 160856000000.0 1.18726e+12 458940000000.0 922326000000.0 636970000000.0 930415000000.0 251197000000.0 398850000000.0 1.0611e+12 942708000000.0 683890000000.0 1.00937e+12 773540000000.0 621483000000.0 456775000000.0 515336000000.0 578180000000.0 647853000000.0 675745000000.0 666235000000.0 625022000000.0 552056000000.0 489321000000.0 466358000000.0 648084000000.0 773929000000.0 1.00703e+12 677211000000.0 928680000000.0 1.08695e+12 356995000000.0 302721000000.0 916731000000.0 668004000000.0 910076000000.0 470963000000.0 1.17984e+12 165093000000.0 741023000000.0 347316000000.0 19256600000.0 269576000000.0 76570400000.0 84778300000.0 441514000000.0 188318000000.0 51298100000.0 89153200000.0 5213470000.0 28302100000.0 1.4643e+12 525149000000.0 543769000000.0 945760000000.0 107528000000.0 506139000000.0 123745000000.0 144617000000.0 1.07818e+12 337870000000.0 444023000000.0 990966000000.0 572340000000.0 586567000000.0 109234000000.0 707137000000.0 488387000000.0 27253800000.0 583558000000.0 399073000000.0 270460000000.0 444095000000.0 421743000000.0 546582000000.0 516431000000.0 605740000000.0 557499000000.0 618788000000.0 552316000000.0 591829000000.0 500700000000.0 523469000000.0 396432000000.0 417502000000.0 246269000000.0 375481000000.0 597355000000.0 31751300000.0 469081000000.0 711816000000.0 139388000000.0 577545000000.0 593903000000.0 990336000000.0 445154000000.0 333899000000.0 1.07452e+12 87870200000.0 91402800000.0 445362000000.0 131986000000.0 937090000000.0 546152000000.0 525812000000.0 1.46244e+12 28158500000.0 6056970000.0 87909600000.0 53528400000.0 187658000000.0 443125000000.0 84458000000.0 40208500000.0 66245400000.0 403655000000.0 455315000000.0 537630000000.0 494199000000.0 637112000000.0 45116000000.0 246713000000.0 553555000000.0 756166000000.0 287067000000.0 472046000000.0 416067000000.0 264401000000.0 51299700000.0 309503000000.0 338103000000.0 472588000000.0 814537000000.0 638098000000.0 601274000000.0 93793600000.0 272228000000.0 409210000000.0 480467000000.0 502171000000.0 473232000000.0 390853000000.0 241712000000.0 78297500000.0 581237000000.0 680330000000.0 796070000000.0 460898000000.0 341110000000.0 302844000000.0 32974800000.0 341996000000.0 449927000000.0 449292000000.0 275948000000.0 753662000000.0 551805000000.0 246708000000.0 42320300000.0 637097000000.0 496633000000.0 540061000000.0 455700000000.0 403793000000.0 66427000000.0 40091500000.0 115855000000.0 275103000000.0 539047000000.0 445217000000.0 902382000000.0 1.083e+12 745799000000.0 469815000000.0 94550700000.0 86132800000.0 117057000000.0 135480000000.0 561126000000.0 800173000000.0 2.02085e+12 417503000000.0 504749000000.0 269896000000.0 141175000000.0 111479000000.0 343315000000.0 24507400000.0 363416000000.0 563834000000.0 87384700000.0 288813000000.0 388420000000.0 438878000000.0 437239000000.0 380043000000.0 263107000000.0 58037400000.0 575180000000.0 337808000000.0 8827920000.0 358139000000.0 114708000000.0 128701000000.0 265607000000.0 520698000000.0 443614000000.0 2.01517e+12 823152000000.0 484574000000.0 127132000000.0 121918000000.0 87030000000.0 96106300000.0 470385000000.0 743823000000.0 1.0837e+12 903363000000.0 448485000000.0 539781000000.0 274725000000.0 116694000000.0 181430000000.0 198460000000.0 99654400000.0 340045000000.0 523191000000.0 685338000000.0 225009000000.0 281186000000.0 1.33141e+12 958386000000.0 599280000000.0 156367000000.0 220751000000.0 67888200000.0 267234000000.0 142174000000.0 790964000000.0 124725000000.0 602218000000.0 311498000000.0 158357000000.0 139236000000.0 4719490000.0 241861000000.0 538921000000.0 26573700000.0 242556000000.0 82945400000.0 30540500000.0 175783000000.0 173122000000.0 284336000000.0 278905000000.0 363396000000.0 330342000000.0 389396000000.0 331570000000.0 362062000000.0 278235000000.0 272734000000.0 151637000000.0 134790000000.0 15327300000.0 90202200000.0 258029000000.0 21613400000.0 492246000000.0 257491000000.0 39165000000.0 113664000000.0 147582000000.0 293468000000.0 560109000000.0 110778000000.0 824527000000.0 119105000000.0 278971000000.0 80141700000.0 225254000000.0 157949000000.0 597178000000.0 956413000000.0 1.33029e+12 283104000000.0 224739000000.0 687230000000.0 523841000000.0 340019000000.0 98358100000.0 198761000000.0 182310000000.0 171700000000.0 541940000000.0 415081000000.0 75321000000.0 228083000000.0 671273000000.0 497276000000.0 451564000000.0 524884000000.0 299377000000.0 5374830000.0 594386000000.0 434785000000.0 236502000000.0 182726000000.0 94015200000.0 119340000000.0 750503000000.0 323642000000.0 16375100000.0 278437000000.0 262823000000.0 124920000000.0 18308700000.0 57219800000.0 46528900000.0 447815000000.0 352345000000.0 189445000000.0 83778500000.0 193129000000.0 261910000000.0 291171000000.0 265370000000.0 190965000000.0 36648800000.0 193723000000.0 381158000000.0 472880000000.0 36830000000.0 38758200000.0 10346500000.0 102069000000.0 241767000000.0 258688000000.0 55560000.0 335663000000.0 824112000000.0 119205000000.0 93284400000.0 186697000000.0 239267000000.0 437111000000.0 596562000000.0 8478420000.0 297300000000.0 527303000000.0 452944000000.0 498009000000.0 672046000000.0 227142000000.0 76682300000.0 417356000000.0 544098000000.0 171572000000.0 18510200000.0 221402000000.0 511966000000.0 523250000000.0 216692000000.0 567913000000.0 944653000000.0 284348000000.0 438657000000.0 916687000000.0 1.03173e+12 508592000000.0 279337000000.0 426675000000.0 345249000000.0 205008000000.0 101585000000.0 93384300000.0 416017000000.0 96642700000.0 194664000000.0 256407000000.0 194254000000.0 92334200000.0 106314000000.0 90565000000.0 294009000000.0 427614000000.0 337857000000.0 267724000000.0 112498000000.0 186970000000.0 242086000000.0 244027000000.0 193820000000.0 100479000000.0 299568000000.0 390344000000.0 432127000000.0 302427000000.0 95462900000.0 75569400000.0 76561300000.0 182155000000.0 242535000000.0 195367000000.0 98579000000.0 429602000000.0 100751000000.0 98225400000.0 205766000000.0 347026000000.0 429173000000.0 280580000000.0 507608000000.0 1.03197e+12 921979000000.0 439105000000.0 286476000000.0 944568000000.0 567782000000.0 219478000000.0 529165000000.0 511498000000.0 220654000000.0 17825500000.0 620314000.0 55465500000.0 644757000000.0 913596000000.0 659355000000.0 234910000000.0 89598400000.0 332763000000.0 911827000000.0 1.03636e+12 509960000000.0 711954000000.0 408255000000.0 51857300000.0 4260200000.0 481998000000.0 413819000000.0 236850000000.0 153695000000.0 94246100000.0 27582200000.0 57800900000.0 273643000000.0 327125000000.0 566252000000.0 103762000.0 225006000000.0 125750000000.0 92937000000.0 194333000000.0 202281000000.0 158094000000.0 199213000000.0 157429000000.0 205380000000.0 197957000000.0 105419000000.0 107829000000.0 147103000000.0 15741300000.0 587906000000.0 347291000000.0 264760000000.0 69123400000.0 7672970000.0 82409700000.0 145577000000.0 227036000000.0 417220000000.0 486916000000.0 7733660000.0 48693400000.0 401224000000.0 709359000000.0 509617000000.0 1.0381e+12 909516000000.0 331694000000.0 88905200000.0 235443000000.0 666937000000.0 920399000000.0 645431000000.0 54588500000.0 473908000.0 40209400000.0 87224200000.0 184663000000.0 122785000000.0 100387000000.0 220736000000.0 81787300000.0 103809000000.0 94808000000.0 453822000000.0 105206000000.0 120572000000.0 259415000000.0 233628000000.0 136791000000.0 11645400000.0 142350000000.0 39333800000.0 341611000000.0 502535000000.0 418514000000.0 283877000000.0 129018000000.0 42735200000.0 46029200000.0 118160000000.0 217464000000.0 105229000000.0 281054000000.0 118278000000.0 123954000000.0 114822000000.0 287824000000.0 221934000000.0 223958000000.0 133738000000.0 56838200000.0 31496200000.0 121342000000.0 279160000000.0 417621000000.0 505857000000.0 345992000000.0 38813900000.0 147914000000.0 6383960000.0 134299000000.0 233415000000.0 260729000000.0 121697000000.0 107875000000.0 456831000000.0 93042200000.0 104793000000.0 80240300000.0 220563000000.0 100619000000.0 123937000000.0 183096000000.0 87764800000.0 40230900000.0 22235100000.0 37223300000.0 210880000000.0 474918000000.0 370800000000.0 8265980000.0 117988000000.0 596838000000.0 903773000000.0 299342000000.0 460710000000.0 22746400000.0 82517200000.0 174388000000.0 230713000000.0 194144000000.0 111449000000.0 38698900000.0 115621000000.0 296033000000.0 449079000000.0 491226000000.0 409815000000.0 297291000000.0 213200000000.0 11799400000.0 98787300000.0 191209000000.0 269659000000.0 372622000000.0 449946000000.0 181044000000.0 378925000000.0 73693900000.0 66216000000.0 94273000000.0 66391900000.0 88611400000.0 54532100000.0 65639900000.0 402077000000.0 177854000000.0 457454000000.0 391721000000.0 277589000000.0 206971000000.0 114377000000.0 22108200000.0 205327000000.0 291483000000.0 407314000000.0 491645000000.0 451241000000.0 297563000000.0 114885000000.0 35628100000.0 108567000000.0 192536000000.0 230430000000.0 175224000000.0 86516400000.0 16949000000.0 462984000000.0 295551000000.0 903816000000.0 595562000000.0 120340000000.0 10489300000.0 390126000000.0 470792000000.0 211605000000.0 37267600000.0 20674500000.0 73168000000.0 213657000000.0 298733000000.0 336775000000.0 165388000000.0 195921000000.0 117209000000.0 193696000000.0 237699000000.0 1.20638e+12 562079000000.0 535330000000.0 119629000000.0 264301000000.0 204438000000.0 225932000000.0 240737000000.0 237610000000.0 203131000000.0 169285000000.0 206653000000.0 311928000000.0 425151000000.0 487909000000.0 472906000000.0 389393000000.0 284168000000.0 186632000000.0 86425700000.0 157889000000.0 269923000000.0 427240000000.0 603739000000.0 786553000000.0 734483000000.0 445350000000.0 18777100000.0 52986400000.0 40434300000.0 41475000000.0 25445800000.0 14938400000.0 475436000000.0 790797000000.0 837450000000.0 634927000000.0 455987000000.0 289994000000.0 174950000000.0 76552800000.0 178763000000.0 278911000000.0 386776000000.0 472289000000.0 489248000000.0 427805000000.0 314190000000.0 207113000000.0 166971000000.0 200057000000.0 236002000000.0 242366000000.0 231066000000.0 210017000000.0 268287000000.0 120666000000.0 535349000000.0 563256000000.0 1.20416e+12 219084000000.0 205958000000.0 130841000000.0 199666000000.0 167772000000.0 337209000000.0 299514000000.0 215787000000.0 73819000000.0 6225910000.0 459593000000.0 393082000000.0 455379000000.0 38249200000.0 870864000000.0 71027500000.0 461836000000.0 441907000000.0 683658000000.0 433862000000.0 414535000000.0 369506000000.0 328751000000.0 292473000000.0 271196000000.0 265818000000.0 493870000000.0 446667000000.0 356924000000.0 252914000000.0 148748000000.0 42567100000.0 57297500000.0 280589000000.0 355927000000.0 411056000000.0 243801000000.0 100876000000.0 504079000000.0 134438000000.0 2874220000.0 40695900000.0 5320780000.0 28923000000.0 372618000000.0 33199200000.0 144769000000.0 379081000000.0 345864000000.0 294548000000.0 70504500000.0 32762900000.0 141191000000.0 248480000000.0 354523000000.0 446218000000.0 495737000000.0 263454000000.0 269537000000.0 295930000000.0 335993000000.0 376106000000.0 418474000000.0 437988000000.0 674757000000.0 444701000000.0 466605000000.0 64386900000.0 865975000000.0 32196400000.0 458121000000.0 393937000000.0 460819000000.0 4811740000.0 114083000000.0 64005700000.0 141438000000.0 7769150000.0 617768000000.0 737666000000.0 488795000000.0 378850000000.0 733142000000.0 230444000000.0 75859600000.0 345273000000.0 631434000000.0 322566000000.0 865905000000.0 294546000000.0 461157000000.0 453153000000.0 295944000000.0 361448000000.0 435070000000.0 487076000000.0 406032000000.0 315795000000.0 213990000000.0 110308000000.0 8938550000.0 88820500000.0 183254000000.0 52607400.0 253763000000.0 451243000000.0 343250000000.0 106411000000.0 14972700000.0 24355300000.0 55924100000.0 35506800000.0 5530160000.0 78419300000.0 316827000000.0 494297000000.0 272686000000.0 36080700000.0 198882000000.0 101172000000.0 71923400.0 105168000000.0 211902000000.0 315396000000.0 407082000000.0 490932000000.0 439468000000.0 364101000000.0 295795000000.0 462676000000.0 470871000000.0 308097000000.0 863606000000.0 324547000000.0 637255000000.0 350513000000.0 73307500000.0 230445000000.0 733488000000.0 372319000000.0 488457000000.0 735643000000.0 617766000000.0 9361700000.0 140649000000.0 63276800000.0 114136000000.0 59422100000.0 186758000000.0 115841000000.0 141709000000.0 720094000000.0 441791000000.0 925123000000.0 624674000000.0 512223000000.0 529155000000.0 576620000000.0 906510000000.0 376555000000.0 332104000000.0 340680000000.0 376156000000.0 423465000000.0 468471000000.0 498945000000.0 502253000000.0 471140000000.0 173943000000.0 76977700000.0 15430200000.0 99299800000.0 171412000000.0 208797000000.0 160782000000.0 83690500000.0 53009000000.0 75896800000.0 69364700000.0 368226000000.0 122867000000.0 213084000000.0 187899000000.0 111535000000.0 22066800000.0 75422300000.0 175529000000.0 473685000000.0 506643000000.0 504415000000.0 473633000000.0 427332000000.0 376006000000.0 340568000000.0 337338000000.0 385563000000.0 906618000000.0 577930000000.0 532037000000.0 515645000000.0 625912000000.0 929049000000.0 445541000000.0 716769000000.0 139396000000.0 113906000000.0 186521000000.0 59182700000.0 56091100000.0 397023000000.0 153234000000.0 352151000000.0 361208000000.0 359272000000.0 751669000000.0 978134000000.0 709605000000.0 824960000000.0 831050000000.0 213308000000.0 463507000000.0 497421000000.0 397507000000.0 394204000000.0 452617000000.0 494863000000.0 514783000000.0 519024000000.0 511112000000.0 484232000000.0 434465000000.0 361536000000.0 271297000000.0 46367300000.0 35702400000.0 111174000000.0 187015000000.0 276245000000.0 412094000000.0 532473000000.0 607485000000.0 507236000000.0 171890000000.0 53860000000.0 91565100000.0 93641100000.0 63550300000.0 719031000000.0 613129000000.0 413018000000.0 295154000000.0 214686000000.0 126216000000.0 40456500000.0 48972800000.0 274340000000.0 365154000000.0 438761000000.0 489372000000.0 517058000000.0 526526000000.0 522730000000.0 500543000000.0 454301000000.0 402106000000.0 406056000000.0 509084000000.0 474294000000.0 227265000000.0 832549000000.0 827801000000.0 712694000000.0 986467000000.0 757129000000.0 360731000000.0 365308000000.0 346341000000.0 150530000000.0 397650000000.0 56002500000.0 46232200000.0 521951000000.0 646037000000.0 111390000000.0 143291000000.0 162247000000.0 379867000000.0 712557000000.0 848290000000.0 923484000000.0 628610000000.0 181522000000.0 444143000000.0 526506000000.0 431121000000.0 510084000000.0 556103000000.0 560391000000.0 539534000000.0 517715000000.0 490288000000.0 450139000000.0 390829000000.0 314081000000.0 226113000000.0 134855000000.0 117093000000.0 178917000000.0 203924000000.0 36934000000.0 176081000000.0 345720000000.0 180834000000.0 188247000000.0 146197000000.0 90654300000.0 95007100000.0 122246000000.0 184157000000.0 222955000000.0 81670900000.0 504894000000.0 68905600000.0 75889400000.0 216581000000.0 217459000000.0 133178000000.0 141217000000.0 233454000000.0 321060000000.0 397070000000.0 456558000000.0 497875000000.0 525566000000.0 549041000000.0 575830000000.0 572426000000.0 508394000000.0 427937000000.0 532902000000.0 453829000000.0 195009000000.0 623909000000.0 924175000000.0 848963000000.0 712540000000.0 383271000000.0 164505000000.0 150510000000.0 109696000000.0 645991000000.0 523083000000.0 46126600000.0 232831000000.0 277375000000.0 691650000000.0 162700000000.0 554468000000.0 763550000000.0 712567000000.0 857385000000.0 771268000000.0 662498000000.0 172561000000.0 418261000000.0 481291000000.0 419433000000.0 483225000000.0 450455000000.0 405022000000.0 343029000000.0 265626000000.0 180191000000.0 95683200000.0 16910000000.0 54406600000.0 822204000000.0 975433000000.0 918476000000.0 225801000000.0 67449200000.0 112779000000.0 266483000000.0 707868000000.0 1.08584e+12 885788000000.0 56205100000.0 25867200000.0 109793000000.0 193980000000.0 276940000000.0 352565000000.0 413552000000.0 458367000000.0 491238000000.0 418063000000.0 479977000000.0 427069000000.0 185022000000.0 663044000000.0 768513000000.0 856333000000.0 712423000000.0 762539000000.0 555498000000.0 166815000000.0 692997000000.0 277399000000.0 233983000000.0 78403400000.0 378503000000.0 240940000000.0 359063000000.0 495978000000.0 360995000000.0 344136000000.0 479224000000.0 651155000000.0 595838000000.0 707990000000.0 515310000000.0 558929000000.0 564224000000.0 531463000000.0 508555000000.0 291794000000.0 214955000000.0 132458000000.0 53886400000.0 20545700000.0 100978000000.0 218120000000.0 403330000000.0 622175000000.0 46163300000.0 27312000000.0 47938900000.0 60331300000.0 22121300000.0 675919000000.0 463935000000.0 254559000000.0 101858000000.0 2448950000.0 80173100000.0 156190000000.0 232839000000.0 305503000000.0 517470000000.0 538384000000.0 567983000000.0 553805000000.0 515144000000.0 704835000000.0 591431000000.0 650178000000.0 480031000000.0 347786000000.0 360561000000.0 493577000000.0 354492000000.0 241777000000.0 378053000000.0 78551500000.0 60706600000.0 220971000000.0 78217600000.0 109783000000.0 196637000000.0 663734000000.0 713861000000.0 559144000000.0 592866000000.0 460124000000.0 252442000000.0 489442000000.0 388734000000.0 431491000000.0 485444000000.0 490137000000.0 476387000000.0 455820000000.0 432940000000.0 402974000000.0 357007000000.0 82562800000.0 16703600000.0 41785800000.0 96820200000.0 137316000000.0 146148000000.0 72611300000.0 208515000000.0 36193200000.0 489313000000.0 355177000000.0 172636000000.0 39180000000.0 10861200000.0 48472400000.0 161854000000.0 323722000000.0 621300000000.0 24771600000.0 127510000000.0 35887500000.0 85724300000.0 88840300000.0 64764700000.0 1463820000.0 66317500000.0 123607000000.0 368887000000.0 412996000000.0 443079000000.0 465698000000.0 484715000000.0 496308000000.0 510968000000.0 430233000000.0 390293000000.0 491760000000.0 262649000000.0 455383000000.0 590010000000.0 555113000000.0 713435000000.0 663843000000.0 197785000000.0 109967000000.0 83855800000.0 222380000000.0 61678200000.0 139520000000.0 5911390000.0 101480000000.0 456111000000.0 560688000000.0 626405000000.0 584727000000.0 394484000000.0 604850000000.0 549009000000.0 421349000000.0 446570000000.0 384166000000.0 402307000000.0 407908000000.0 397707000000.0 384899000000.0 358525000000.0 305452000000.0 237446000000.0 161626000000.0 56802000000.0 100484000000.0 127043000000.0 190722000000.0 115195000000.0 153735000000.0 34439300000.0 113208000000.0 43008500000.0 13242400000.0 22678800000.0 85642900000.0 128516000000.0 48916500000.0 26435100000.0 6119600000.0 188078000000.0 254087000000.0 320559000000.0 375312000000.0 395291000000.0 410326000000.0 424802000000.0 423255000000.0 391829000000.0 431745000000.0 427131000000.0 556755000000.0 616152000000.0 392700000000.0 583948000000.0 627238000000.0 559488000000.0 456452000000.0 101886000000.0 4873460000.0 140472000000.0 182512000000.0 62606400000.0 75570700000.0 79628400000.0 223315000000.0 421511000000.0 515833000000.0 558694000000.0 465816000000.0 133135000000.0 209875000000.0 35741400000.0 251255000000.0 145149000000.0 3539630000.0 223510000000.0 293440000000.0 331929000000.0 344919000000.0 352023000000.0 352117000000.0 307477000000.0 247314000000.0 177889000000.0 106465000000.0 29855800000.0 12320300000.0 304409000000.0 88333000000.0 217307000000.0 342135000000.0 567630000000.0 66887700000.0 96828400000.0 147461000000.0 197589000000.0 260639000000.0 325454000000.0 370179000000.0 361866000000.0 362469000000.0 340558000000.0 297595000000.0 218786000000.0 17126800000.0 148780000000.0 254839000000.0 36915100000.0 214418000000.0 135016000000.0 463621000000.0 559504000000.0 515472000000.0 420745000000.0 223710000000.0 78464000000.0 73455000000.0 62610300000.0 182796000000.0 51124800000.0 35247600000.0 24095500000.0 19980100000.0 61560400000.0 402573000000.0 447940000000.0 198955000000.0 105935000000.0 294499000000.0 244531000000.0 182292000000.0 113843000000.0 53171500000.0 22730700000.0 20870900000.0 106997000000.0 121670000000.0 167613000000.0 256842000000.0 243463000000.0 52844000000.0 238482000000.0 97845400000.0 271200000000.0 189490000000.0 166343000000.0 216692000000.0 37667600000.0 172372000000.0 116973000000.0 70422700000.0 79011700000.0 10902900000.0 21070500000.0 85006900000.0 63597200000.0 116123000000.0 138911000000.0 189997000000.0 259356000000.0 313322000000.0 109123000000.0 197468000000.0 447668000000.0 402475000000.0 61067600000.0 19581000000.0 23643500000.0 36065700000.0 51296300000.0 9307920000.0 56370000000.0 63319700000.0 5993540000.0 213436000000.0 158485000000.0 462460000000.0 346477000000.0 46911100000.0 14431500000.0 117877000000.0 18686000000.0 1064440000.0 88698600000.0 207683000000.0 260141000000.0 296983000000.0 309390000000.0 325303000000.0 40040400000.0 15719700000.0 80262000000.0 82797300000.0 205465000000.0 217786000000.0 333841000000.0 395383000000.0 97002000000.0 170623000000.0 210684000000.0 271823000000.0 14002000000.0 291489000000.0 142137000000.0 112927000000.0 4454170000.0 278759000000.0 272797000000.0 158860000000.0 159172000000.0 26321000000.0 19621300000.0 45070200000.0 92769000000.0 330340000000.0 306304000000.0 296195000000.0 259397000000.0 204311000000.0 84427200000.0 4957070000.0 16861600000.0 116338000000.0 22681100000.0 43671300000.0 342627000000.0 463033000000.0 158279000000.0 213709000000.0 5086340000.0 65285000000.0 56203900000.0 8894680000.0 159421000000.0 343104000000.0 401450000000.0 301559000000.0 29781600000.0 32949200000.0 231455000000.0 247927000000.0 185337000000.0 154256000000.0 174638000000.0 219139000000.0 240852000000.0 261256000000.0 274084000000.0 272403000000.0 231736000000.0 174953000000.0 108285000000.0 191729000000.0 335417000000.0 351614000000.0 181280000000.0 262122000000.0 105316000000.0 62548500000.0 262367000000.0 172033000000.0 119089000000.0 191776000000.0 240808000000.0 280755000000.0 272027000000.0 257901000000.0 241717000000.0 216420000000.0 169469000000.0 159789000000.0 195230000000.0 253300000000.0 231884000000.0 35896200000.0 26103900000.0 301417000000.0 401201000000.0 343507000000.0 158590000000.0 21742500000.0 13059300000.0 50414100000.0 1486250000.0 177385000000.0 170399000000.0 182422000000.0 289471000000.0 367478000000.0 188432000000.0 25495500000.0 211756000000.0 308353000000.0 300573000000.0 280588000000.0 218142000000.0 206459000000.0 201348000000.0 219382000000.0 223945000000.0 233841000000.0 215304000000.0 161105000000.0 92658700000.0 279869000.0 63542600000.0 118643000000.0 158289000000.0 385100000000.0 89354900000.0 123234000000.0 137685000000.0 159110000000.0 295627000000.0 31667000000.0 169000000000.0 68116400000.0 36675600000.0 343685000000.0 266174000000.0 135972000000.0 89665400000.0 15483400000.0 24678300000.0 95450500000.0 163155000000.0 215527000000.0 236391000000.0 218522000000.0 214458000000.0 200951000000.0 204641000000.0 217010000000.0 278557000000.0 297312000000.0 303372000000.0 211028000000.0 28472400000.0 187934000000.0 368577000000.0 290789000000.0 182151000000.0 169372000000.0 176702000000.0 1492820000.0 50422500000.0 13135300000.0 20597000000.0 9838910000.0 20431700000.0 32836700000.0 41836900000.0 106678000000.0 105522000000.0 157171000000.0 285267000000.0 23173200000.0 105257000000.0 189065000000.0 192227000000.0 154151000000.0 89104000000.0 19615600000.0 85417500000.0 137539000000.0 236366000000.0 300150000000.0 323339000000.0 351067000000.0 282998000000.0 281047000000.0 85063400000.0 336426000000.0 255788000000.0 343022000000.0 89475100000.0 90338400000.0 195733000000.0 120749000000.0 275467000000.0 125901000000.0 250488000000.0 393538000000.0 382728000000.0 347123000000.0 280660000000.0 241243000000.0 148460000000.0 109307000000.0 18147900000.0 51006100000.0 131245000000.0 180834000000.0 184418000000.0 102341000000.0 26197700000.0 283174000000.0 155340000000.0 103619000000.0 104535000000.0 43017300000.0 32979200000.0 20546700000.0 9887740000.0 53517700000.0 457201000000.0 14230800000.0 187599000000.0 234388000000.0 266743000000.0 238184000000.0 202619000000.0 165622000000.0 179747000000.0 180027000000.0 24099200000.0 110045000000.0 17191500000.0 149358000000.0 20317400000.0 146322000000.0 119989000000.0 213814000000.0 72677300000.0 71575800000.0 75366800000.0 126352000000.0 210714000000.0 118443000000.0 171059000000.0 153743000000.0 643098000.0 139872000000.0 12240400000.0 111764000000.0 17733000000.0 174241000000.0 174833000000.0 166528000000.0 206184000000.0 234478000000.0 261641000000.0 228800000000.0 186847000000.0 14135200000.0 456784000000.0 53593700000.0 10320300000.0 13886200000.0 58413000000.0 187761000000.0 173069000000.0 196993000000.0 282560000000.0 391854000000.0 103326000000.0 83800900000.0 159579000000.0 193928000000.0 205033000000.0 195681000000.0 154113000000.0 156374000000.0 162010000000.0 174814000000.0 187416000000.0 187040000000.0 135128000000.0 68294800000.0 9027880000.0 144152000000.0 106717000000.0 168080000000.0 293883000000.0 305955000000.0 140591000000.0 37426600000.0 96510700000.0 157187000000.0 176049000000.0 165344000000.0 155531000000.0 153241000000.0 148747000000.0 197549000000.0 199182000000.0 186249000000.0 159562000000.0 83872800000.0 101507000000.0 393951000000.0 284699000000.0 199420000000.0 179012000000.0 190472000000.0 58730000000.0 14239300000.0 10304400000.0 6775700000.0 10113600000.0 1620190000.0 43940600000.0 101438000000.0 102447000000.0 184487000000.0 302661000000.0 14742500000.0 63805500000.0 12574500000.0 3829490000.0 141471000000.0 137021000000.0 143699000000.0 87494700000.0 37681100000.0 17191800000.0 10397300000.0 11020300000.0 15835400000.0 15094100000.0 33652400000.0 79829600000.0 115784000000.0 204729000000.0 121704000000.0 204846000000.0 143587000000.0 159896000000.0 150018000000.0 111672000000.0 49012700000.0 222823000000.0 122545000000.0 174173000000.0 76691000000.0 3016390000.0 216238000000.0 130272000000.0 161062000000.0 77852500000.0 110648000000.0 181956000000.0 190278000000.0 174518000000.0 251980000000.0 214623000000.0 263276000000.0 160326000000.0 115774000000.0 66429900000.0 12732300000.0 8016820000.0 7691090000.0 7679830000.0 12677400000.0 34364000000.0 87826300000.0 141967000000.0 128726000000.0 141568000000.0 4135580000.0 13398500000.0 62319600000.0 14682500000.0 305324000000.0 185048000000.0 103172000000.0 102133000000.0 43754200000.0 1548740000.0 10183500000.0 7214650000.0 22097400000.0 79475000000.0 132044000000.0 142887000000.0 91182800000.0 10992200000.0 28290200000.0 77300600000.0 18825500000.0 64889500000.0 9029320000.0 52545500000.0 28553200000.0 16588600000.0 22581200000.0 114548000000.0 90601000000.0 14424900000.0 105424000000.0 20795500000.0 8793500000.0 16964800000.0 33872700000.0 48845000000.0 40312600000.0 34557900000.0 47686600000.0 409247000.0 38193600000.0 22869500000.0 28274000000.0 10225400000.0 91115400000.0 142636000000.0 131973000000.0 79772900000.0 22240300000.0 59804600000.0 47664500000.0 210697000000.0 19076700000.0 20517800000.0 10193600000.0 104648000000.0 111626000000.0 125950000000.0 113960000000.0 99429600000.0 86648700000.0 68329500000.0 62794300000.0 55824400000.0 64779200000.0 100240000000.0 39901100000.0 63945800000.0 174719000000.0 99913600000.0 59695100000.0 20672400000.0 7870160000.0 27453600000.0 45796300000.0 58024400000.0 77735400000.0 91203700000.0 106824000000.0 119728000000.0 99842100000.0 105541000000.0 10680600000.0 20755400000.0 18872200000.0 213686000000.0 46337100000.0 60284500000.0 9126890000.0 9033710000.0 9861970000.0 9006470000.0 53343500000.0 111190000000.0 203641000000.0 68375100000.0 64323000000.0 20637100000.0 32617700000.0 5211030000.0 22991400000.0 80874600000.0 70404900000.0 46919600000.0 2489080000.0 44535700000.0 75191000000.0 113604000000.0 139329000000.0 161605000000.0 169461000000.0 252705000000.0 231117000000.0 245622000000.0 209382000000.0 166234000000.0 172487000000.0 84532400000.0 138800000000.0 34679500000.0 84632500000.0 74252000000.0 11978400000.0 22614400000.0 8610510000.0 41360100000.0 178541000000.0 9035750000.0 18689600000.0 15558200000.0 1403050000.0 10214300000.0 33953800000.0 23192300000.0 55403000000.0 85574800000.0 114147000000.0 156288000000.0 160716000000.0 198343000000.0 132899000000.0 116889000000.0 95925900000.0 75044900000.0 44737900000.0 24677200000.0 7049480000.0 54089700000.0 64446800000.0 83080100000.0 25209500000.0 4598710000.0 32340200000.0 20061000000.0 64398500000.0 69094600000.0 204588000000.0 110413000000.0 53692900000.0 9035750000.0 9943400000.0 9033580000.0 9135760000.0 10971900000.0 22660900000.0 42414100000.0 17028500000.0 113221000000.0 44385500000.0 32225500000.0 10605400000.0 11876400000.0 11323300000.0 7190940000.0 61700500000.0 4184140000.0 86071200000.0 65662800000.0 50473600000.0 45482400000.0 26117400000.0 7256190000.0 3507200000.0 75799600000.0 15657200000.0 41818100000.0 22124000000.0 10725200000.0 3356880000.0 27297300000.0 168924000000.0 110005000000.0 22770200000.0 28171300000.0 64275700000.0 86879300000.0 91413700000.0 52377600000.0 46018900000.0 15253100000.0 5201870000.0 22930300000.0 46879400000.0 60802400000.0 83236000000.0 97288700000.0 44339600000.0 73071300000.0 108607000000.0 117635000000.0 46968800000.0 59021100000.0 29966400000.0 118847000000.0 101670000000.0 70341000000.0 21643400000.0 14192700000.0 27024600000.0 8442120000.0 74204300000.0 67454600000.0 51850200000.0 42897000000.0 22566900000.0 5385460000.0 14663100000.0 48252500000.0 37878300000.0 79730700000.0 79679700000.0 58548000000.0 22757000000.0 19435200000.0 113148000000.0 171080000000.0 27907900000.0 3458770000.0 11424600000.0 9964510000.0 15758600000.0 9092620000.0 45389000000.0 69863200000.0 179304000000.0 134527000000.0 3818190000.0 11366300000.0 3654870000.0 8496470000.0 30280400000.0 74036200000.0 71844800000.0 85520800000.0 84402500000.0 76553200000.0 69615900000.0 51428000000.0 43322000000.0 33941200000.0 38504100000.0 27823300000.0 46030200000.0 15353800000.0 50157800000.0 12629200000.0 51461400000.0 42343200000.0 53383400000.0 51199500000.0 56234700000.0 26788200000.0 26783400000.0 8361380000.0 45664200000.0 28796700000.0 114993000000.0 17815000000.0 9735470000.0 26148100000.0 8029100000.0 55943000000.0 8330020000.0 65602500000.0 6666670000.0 16481700000.0 4263220000.0 1033430000.0 16069300000.0 22611600000.0 35448400000.0 37181100000.0 46591400000.0 52819700000.0 69273400000.0 75459600000.0 81407800000.0 80131100000.0 60449300000.0 76292100000.0 32469800000.0 8519370000.0 3681660000.0 12183400000.0 4041300000.0 135144000000.0 179354000000.0 69524200000.0 45798400000.0 9091210000.0 15950500000.0 9966690000.0 11444600000.0 4821600000.0 27171300000.0 12634000000.0 9932930000.0 16965400000.0 6882320000.0 37888000000.0 51891700000.0 140745000000.0 144229000000.0 22618900000.0 14269300000.0 4714610000.0 5463440000.0 26346600000.0 63276900000.0 61541400000.0 79175300000.0 93013100000.0 98807200000.0 103431000000.0 95131000000.0 94749100000.0 87093800000.0 89633900000.0 32521200000.0 9351060000.0 48051300000.0 9058190000.0 73698600000.0 8884860000.0 102513000000.0 8136240000.0 111544000000.0 6964990000.0 53614500000.0 43632200000.0 84627800000.0 56160400000.0 98173000000.0 23594500000.0 35141900000.0 9174100000.0 29793700000.0 21780100000.0 33029000000.0 15901700000.0 7347880000.0 8749700000.0 9001230000.0 831484000.0 4881960000.0 61058200000.0 66461100000.0 79234000000.0 82328200000.0 93021100000.0 90936900000.0 86365100000.0 73409800000.0 53666700000.0 65620200000.0 28651500000.0 5884200000.0 5053310000.0 14966500000.0 22984900000.0 144921000000.0 140833000000.0 52169400000.0 38412300000.0 6988060000.0 17287300000.0 10000100000.0 12678400000.0 14304900000.0 11779000000.0 20789200000.0 9506460000.0 37255200000.0 52240600000.0 114338000000.0 140819000000.0 31080200000.0 15623700000.0 10761800000.0 14949400000.0 38076500000.0 69561500000.0 68562600000.0 84471700000.0 99247400000.0 103511000000.0 104639000000.0 92350400000.0 88996800000.0 76503000000.0 75764700000.0 29008000000.0 9406990000.0 46301600000.0 8036050000.0 66553000000.0 3964470000.0 89111800000.0 921579000.0 96261700000.0 1242200000.0 42317800000.0 27870500000.0 80548700000.0 115374000.0 68806200000.0 114957000000.0 36219600000.0 9125590000.0 37178400000.0 8560400000.0 67574300000.0 8918880000.0 57296000000.0 9125160000.0 31640800000.0 9035750000.0 24701300000.0 8648390000.0 10349000000.0 55013900000.0 60008600000.0 76020500000.0 81506300000.0 95510200000.0 96212100000.0 92832100000.0 78701400000.0 63264900000.0 70789400000.0 39616300000.0 14985400000.0 10766700000.0 15887500000.0 31230100000.0 141326000000.0 114312000000.0 52554200000.0 37625100000.0 9510660000.0 21046800000.0 11780600000.0 14327900000.0 15467900000.0 12550700000.0 22259000000.0 9701900000.0 33558800000.0 50108800000.0 92894900000.0 133118000000.0 36874800000.0 14474800000.0 11285100000.0 16631100000.0 38919500000.0 64696800000.0 65216900000.0 80391700000.0 97111400000.0 102601000000.0 104045000000.0 91220700000.0 86704100000.0 70639500000.0 66750700000.0 29783000000.0 10264200000.0 44677900000.0 9035750000.0 64772100000.0 9035750000.0 88801200000.0 9035750000.0 96482400000.0 8540790000.0 56058300000.0 38986300000.0 92441900000.0 7996500000.0 78014200000.0 86787900000.0 26987500000.0 5599760000.0 27723700000.0 1312620000.0 59209900000.0 1644180000.0 48384000000.0 6108070000.0 31134900000.0 9035750000.0 25652000000.0 9035750000.0 12251800000.0 50093500000.0 56505700000.0 75213700000.0 81576000000.0 95930400000.0 96066200000.0 91382900000.0 75040800000.0 62371900000.0 65669600000.0 40331200000.0 16738600000.0 11379700000.0 14665300000.0 36999700000.0 133595000000.0 92932600000.0 50454700000.0 33890500000.0 9702710000.0 22517700000.0 12552300000.0 15492700000.0 16442100000.0 13221500000.0 23023400000.0 9874040000.0 30096200000.0 47421800000.0 78484200000.0 123310000000.0 41216200000.0 13984500000.0 12284300000.0 18829100000.0 39661700000.0 60517100000.0 62767800000.0 77178400000.0 94370000000.0 99740500000.0 100613000000.0 86953800000.0 81376100000.0 62997100000.0 57228500000.0 29294400000.0 10581100000.0 43064700000.0 9035750000.0 60096200000.0 9035750000.0 81347900000.0 9035750000.0 88587000000.0 8103560000.0 52617100000.0 30902700000.0 88647900000.0 3737220000.0 86631400000.0 87740800000.0 50825600000.0 9237380000.0 42632600000.0 9035750000.0 66493400000.0 9035750000.0 50458400000.0 9035750000.0 32176500000.0 9035750000.0 26316800000.0 9035750000.0 12866000000.0 44366400000.0 51494500000.0 71697200000.0 78753700000.0 93657900000.0 93994300000.0 89235300000.0 72165800000.0 61348500000.0 61132100000.0 40831600000.0 18867900000.0 12288300000.0 14064900000.0 41368000000.0 123740000000.0 78642000000.0 47750700000.0 30383000000.0 9874650000.0 23258100000.0 13223200000.0 16468100000.0 17222900000.0 13782500000.0 23152600000.0 10026000000.0 26992900000.0 44164300000.0 69155600000.0 112432000000.0 44241300000.0 13694000000.0 12878900000.0 20344900000.0 39206000000.0 55709600000.0 59500400000.0 73114000000.0 90197300000.0 95342200000.0 95965000000.0 81959300000.0 75658600000.0 56123900000.0 49261700000.0 28368500000.0 10715700000.0 41369300000.0 9035750000.0 55622600000.0 9035750000.0 74351000000.0 9035750000.0 80720000000.0 9035750000.0 55351800000.0 33418500000.0 93288900000.0 9035750000.0 92077800000.0 71774200000.0 52021200000.0 8091540000.0 43404200000.0 9035750000.0 63135200000.0 9035750000.0 47356100000.0 9035750000.0 31896600000.0 9035750000.0 26683700000.0 9035750000.0 13350700000.0 39429500000.0 46811400000.0 67566700000.0 75048400000.0 90100700000.0 90435700000.0 85766900000.0 68656700000.0 59011400000.0 56124200000.0 40224200000.0 20386400000.0 12882700000.0 13725700000.0 44395100000.0 112819000000.0 69412900000.0 44466000000.0 27228900000.0 10026500000.0 23347900000.0 13784100000.0 17249600000.0 17808800000.0 14229500000.0 22779800000.0 10155000000.0 24312400000.0 40629800000.0 62348400000.0 101259000000.0 46080800000.0 13814700000.0 13383100000.0 21561900000.0 38287400000.0 51113300000.0 56173000000.0 68937800000.0 85419600000.0 90136100000.0 90552100000.0 76514100000.0 69788000000.0 50053600000.0 42739700000.0 27055400000.0 10630000000.0 39544500000.0 9035750000.0 51401200000.0 9035750000.0 67843300000.0 9035750000.0 73488600000.0 9035750000.0 53977700000.0 30607700000.0 91247200000.0 9035750000.0 97608000000.0 66863100000.0 58989200000.0 9765660000.0 43523800000.0 9035750000.0 59166500000.0 9035750000.0 44517300000.0 9035750000.0 31346800000.0 9035750000.0 26759600000.0 9035750000.0 13703100000.0 35192600000.0 42518300000.0 63082800000.0 70744400000.0 85671100000.0 86024200000.0 81672100000.0 65070300000.0 56180500000.0 51372300000.0 39168400000.0 21605700000.0 13386800000.0 13828300000.0 46233600000.0 101614000000.0 62634100000.0 40900200000.0 24499600000.0 10155500000.0 22935900000.0 14231000000.0 17835400000.0 18201500000.0 14561500000.0 22041400000.0 10258900000.0 22049400000.0 37065800000.0 56407800000.0 90302800000.0 46820500000.0 14115200000.0 13788700000.0 22474400000.0 37068100000.0 46853500000.0 52821700000.0 64682900000.0 80247800000.0 84439000000.0 84687800000.0 70867400000.0 63960200000.0 44766400000.0 37455700000.0 25514000000.0 10385600000.0 37593500000.0 9035750000.0 47437100000.0 9035750000.0 61827900000.0 9035750000.0 66881300000.0 9035750000.0 52226800000.0 27763500000.0 88461300000.0 9035750000.0 98414100000.0 58830700000.0 60882400000.0 9993170000.0 43057200000.0 9035750000.0 54911700000.0 9035750000.0 41855900000.0 9035750000.0 30533700000.0 9035750000.0 26562200000.0 9035750000.0 13925900000.0 31598200000.0 38675200000.0 58457700000.0 66095700000.0 80675400000.0 81053700000.0 77136000000.0 61405900000.0 53053600000.0 47001900000.0 37825600000.0 22519800000.0 13792100000.0 14124300000.0 46969200000.0 90628500000.0 56675500000.0 37299600000.0 22196400000.0 10259300000.0 22165600000.0 14562900000.0 18227300000.0 18405800000.0 14779200000.0 21056900000.0 10335800000.0 20167500000.0 33640500000.0 50789400000.0 79869900000.0 46576700000.0 14400900000.0 14089300000.0 23081900000.0 35663800000.0 42990300000.0 49505100000.0 60433500000.0 74883700000.0 78505900000.0 78607400000.0 65206200000.0 58315700000.0 40197900000.0 33184400000.0 23880200000.0 10076500000.0 35549000000.0 9035750000.0 43718000000.0 9035750000.0 56281700000.0 9035750000.0 60865500000.0 9035750000.0 50167600000.0 25013900000.0 85009900000.0 9035750000.0 97813000000.0 51849600000.0 61506100000.0 10093200000.0 42072100000.0 9035750000.0 50605200000.0 9035750000.0 39308500000.0 9035750000.0 29489200000.0 9035750000.0 26114200000.0 9035750000.0 14025600000.0 28580000000.0 35283500000.0 53843300000.0 61293600000.0 75346900000.0 75763100000.0 72341100000.0 57712600000.0 49794800000.0 43064000000.0 36310800000.0 23127800000.0 14092500000.0 14408900000.0 46718300000.0 80166400000.0 51025200000.0 33834900000.0 20283500000.0 10336300000.0 21156400000.0 14780500000.0 18430300000.0 18429700000.0 14884200000.0 19930100000.0 10384900000.0 18619700000.0 30458000000.0 45464700000.0 70155100000.0 45493900000.0 14590900000.0 14280900000.0 23388900000.0 34149900000.0 39520300000.0 46250700000.0 56236000000.0 69461300000.0 72518800000.0 72485300000.0 59666900000.0 52949800000.0 36260800000.0 29713900000.0 22248600000.0 9775230000.0 33449200000.0 9035750000.0 40230100000.0 9035750000.0 51169700000.0 9035750000.0 55386000000.0 9035750000.0 47832500000.0 22445400000.0 80972100000.0 9035750000.0 95933700000.0 45777400000.0 60998300000.0 10056400000.0 40643800000.0 9035750000.0 46408800000.0 9035750000.0 36830800000.0 9035750000.0 28256400000.0 9035750000.0 25442400000.0 9035750000.0 14012900000.0 26046600000.0 32303100000.0 49346500000.0 56481600000.0 69862300000.0 70326100000.0 67415300000.0 54016900000.0 46506600000.0 39546900000.0 34699100000.0 23434400000.0 14283800000.0 14598500000.0 45625600000.0 70421100000.0 45668300000.0 30615200000.0 18711600000.0 10385300000.0 20010000000.0 14885300000.0 18452500000.0 18283700000.0 14879100000.0 18745000000.0 10405500000.0 17351200000.0 27570700000.0 40516800000.0 61274200000.0 43733300000.0 14664600000.0 14361700000.0 23404700000.0 32564400000.0 36403100000.0 43066400000.0 52116100000.0 64073800000.0 66600800000.0 66442800000.0 54338900000.0 47917500000.0 32858300000.0 26858700000.0 20679300000.0 9522530000.0 31327400000.0 9035750000.0 36958100000.0 9035750000.0 46455100000.0 9035750000.0 50372800000.0 9035750000.0 45258300000.0 20113200000.0 76429700000.0 9035750000.0 40493900000.0 59506500000.0 9914190000.0 38850300000.0 9035750000.0 42414400000.0 9035750000.0 34398500000.0 9035750000.0 26883500000.0 9035750000.0 24577100000.0 9035750000.0 13901700000.0 23898600000.0 29674100000.0 45036900000.0 51761600000.0 64350200000.0 64865100000.0 62448300000.0 50335600000.0 43251300000.0 36402700000.0 33027900000.0 23448700000.0 14364400000.0 14671800000.0 43853200000.0 61509000000.0 40690500000.0 27696000000.0 17423800000.0 10405900000.0 18809100000.0 14880200000.0 18304300000.0 92909600000.0 17980200000.0 14767800000.0 17562100000.0 10397800000.0 16302000000.0 24991000000.0 36007000000.0 53278000000.0 41453600000.0 14620600000.0 14332300000.0 23142400000.0 30917700000.0 33579200000.0 39947400000.0 48085300000.0 58778900000.0 60825200000.0 60555700000.0 49272000000.0 43240400000.0 29893100000.0 24464600000.0 19207600000.0 9332880000.0 29208900000.0 9035750000.0 33885100000.0 9035750000.0 42099400000.0 9035750000.0 45754400000.0 9035750000.0 42485400000.0 18044400000.0 71466900000.0 9035750000.0 88857900000.0 35879800000.0 57164200000.0 9728470000.0 36767400000.0 9035750000.0 38657700000.0 9035750000.0 32003600000.0 9035750000.0 25415100000.0 9035750000.0 23550500000.0 9035750000.0 13706400000.0 22045700000.0 27331200000.0 40953000000.0 47197900000.0 58897600000.0 59460400000.0 57499200000.0 46677500000.0 40059800000.0 33566100000.0 31305600000.0 23184100000.0 14334700000.0 14627300000.0 41561000000.0 53481300000.0 36152900000.0 25090100000.0 16359100000.0 10398200000.0 17613300000.0 14768700000.0 17998500000.0 17533300000.0 14555100000.0 16421300000.0 10362500000.0 15413600000.0 22704300000.0 31954300000.0 46166000000.0 38796400000.0 14462800000.0 14195500000.0 29204400000.0 30982300000.0 36885400000.0 44144300000.0 53604500000.0 55227200000.0 54864200000.0 44485100000.0 38914500000.0 27273800000.0 22408300000.0 17849700000.0 9203000000.0 27111700000.0 9035750000.0 30992900000.0 9035750000.0 38062800000.0 9035750000.0 41464800000.0 9035750000.0 39555700000.0 16247600000.0 66161200000.0 9035750000.0 31828700000.0 54106500000.0 9545720000.0 34463600000.0 9035750000.0 35138700000.0 9035750000.0 29646400000.0 9035750000.0 23886700000.0 9035750000.0 22394300000.0 9035750000.0 13440300000.0 20412300000.0 25211800000.0 37108900000.0 42824300000.0 53557800000.0 54159300000.0 52603600000.0 43044800000.0 36940100000.0 30965900000.0 29525400000.0 14197600000.0 14468900000.0 38891300000.0 46338000000.0 32074600000.0 22782100000.0 15458200000.0 10362800000.0 16461800000.0 14555900000.0 17549300000.0 22618300000.0 83887100000.0 22656900000.0 16958000000.0 14247000000.0 15346700000.0 10300700000.0 14634700000.0 20679900000.0 28344000000.0 39900400000.0 35879500000.0 14197600000.0 13955800000.0 21851800000.0 27413700000.0 28547400000.0 33871200000.0 40285000000.0 48557100000.0 49815500000.0 49382200000.0 39974500000.0 34917600000.0 24919300000.0 20595700000.0 16607900000.0 9121380000.0 25047700000.0 9035750000.0 28261800000.0 9035750000.0 34306400000.0 9035750000.0 37446400000.0 9035750000.0 36507100000.0 14719800000.0 60581500000.0 9035750000.0 78098100000.0 28253900000.0 50465800000.0 9389280000.0 31997600000.0 9035750000.0 31838900000.0 9035750000.0 27329300000.0 9035750000.0 22324200000.0 9035750000.0 21138000000.0 9035750000.0 13115000000.0 18939200000.0 23259700000.0 33500300000.0 38651300000.0 48358200000.0 48983900000.0 47778800000.0 39435000000.0 33886000000.0 28533100000.0 27675600000.0 21886700000.0 13957600000.0 14203000000.0 35962000000.0 40042600000.0 28441400000.0 20740500000.0 14669100000.0 10301000000.0 15378400000.0 14247800000.0 16971700000.0 31216200000.0 18957200000.0 9074950000.0 9035750000.0 9035750000.0 9035750000.0 9035750000.0 13446800000.0 9035750000.0 25084000000.0 9267050000.0 9035750000.0 9035750000.0 9035750000.0 9035750000.0 9035750000.0 17581600000.0 30110100000.0 16269900000.0 13850600000.0 14351000000.0 10214200000.0 13924100000.0 18879500000.0 25140200000.0 34416700000.0 32796500000.0 13832900000.0 13619500000.0 20864500000.0 25535900000.0 26215400000.0 30895000000.0 36493700000.0 43629400000.0 44582500000.0 44105700000.0 35721800000.0 22760900000.0 15475100000.0 23023400000.0 25672100000.0 30792900000.0 33650000000.0 33370900000.0 54789600000.0 71587200000.0 46362400000.0 29417400000.0 28732200000.0 25053100000.0 20745200000.0 19807200000.0 12740500000.0 21427700000.0 34673800000.0 43307700000.0 43938200000.0 43028300000.0 35842300000.0 30884500000.0 26205800000.0 25746400000.0 20895300000.0 13621000000.0 13837700000.0 32866900000.0 34531700000.0 25217600000.0 18926000000.0 13950500000.0 10214400000.0 14375400000.0 13851200000.0 16281300000.0 15484400000.0 13373900000.0 13437800000.0 10104800000.0 13251800000.0 17262400000.0 22295100000.0 29632200000.0 29619200000.0 13378000000.0 13194500000.0 19679700000.0 23565800000.0 23937800000.0 27946300000.0 32754000000.0 38806600000.0 39510200000.0 39019100000.0 31699200000.0 27770600000.0 20743200000.0 17443100000.0 14438300000.0 9051570000.0 21041500000.0 9035750000.0 23204600000.0 9035750000.0 27486700000.0 9035750000.0 30034200000.0 9035750000.0 30172800000.0 12403900000.0 48841000000.0 9035750000.0 64447700000.0 22258000000.0 41900400000.0 9178390000.0 26760100000.0 9035750000.0 25790300000.0 9035750000.0 22816800000.0 9035750000.0 19160900000.0 9035750000.0 18423600000.0 9035750000.0 12324900000.0 16307600000.0 19677800000.0 26913900000.0 30876100000.0 38402000000.0 39014600000.0 38346300000.0 32259400000.0 27921200000.0 23933400000.0 23732300000.0 19706400000.0 13195700000.0 13382100000.0 29678000000.0 29723200000.0 22355600000.0 17297600000.0 13271800000.0 10105000000.0 13456500000.0 13374400000.0 15493700000.0 14616600000.0 12825800000.0 12604500000.0 9974960000.0 12597700000.0 15789800000.0 19755800000.0 25453100000.0 26400100000.0 12843200000.0 12690000000.0 18322500000.0 21503300000.0 21677600000.0 25014400000.0 29050000000.0 34070500000.0 34575500000.0 34099800000.0 27874000000.0 24539100000.0 18823100000.0 16018900000.0 13481800000.0 9041340000.0 19101100000.0 9035750000.0 20840800000.0 9035750000.0 24354300000.0 9035750000.0 26563600000.0 9035750000.0 26933400000.0 11560300000.0 42783600000.0 9035750000.0 56768700000.0 19723200000.0 37166400000.0 9118330000.0 24053800000.0 9035750000.0 22985100000.0 9035750000.0 20617300000.0 9035750000.0 17578200000.0 9035750000.0 17004200000.0 9035750000.0 11874800000.0 15094800000.0 17981400000.0 23883300000.0 27235900000.0 33628000000.0 34198600000.0 33722500000.0 28679100000.0 24982500000.0 21677700000.0 21632600000.0 18344800000.0 12691000000.0 12846700000.0 26447900000.0 25523700000.0 19802200000.0 15816000000.0 12612600000.0 9975130000.0 12618400000.0 12826300000.0 14623900000.0 13681000000.0 12216200000.0 11843800000.0 9827440000.0 11949500000.0 14427200000.0 17468400000.0 21780700000.0 23174700000.0 12239700000.0 12116400000.0 16818600000.0 19353100000.0 19409700000.0 22090000000.0 25368200000.0 29402400000.0 29753400000.0 29321200000.0 24211900000.0 21481000000.0 16968400000.0 14660700000.0 12589600000.0 9037470000.0 17199100000.0 9035750000.0 18563200000.0 9035750000.0 21364000000.0 9035750000.0 23207900000.0 9035750000.0 23668700000.0 10882300000.0 36655200000.0 9035750000.0 48635000000.0 17432900000.0 32231300000.0 9080280000.0 21318500000.0 9035750000.0 20290000000.0 9035750000.0 18450000000.0 9035750000.0 16000400000.0 9035750000.0 15561800000.0 9035750000.0 11395400000.0 13927800000.0 16317600000.0 20988900000.0 23727800000.0 28967600000.0 29472300000.0 29144700000.0 25095400000.0 22057100000.0 19413000000.0 19451100000.0 16836600000.0 12117200000.0 12242500000.0 23212300000.0 21833800000.0 17503000000.0 14446300000.0 11960400000.0 9827570000.0 11853900000.0 12216500000.0 13686700000.0 12691400000.0 11555300000.0 11145700000.0 9665120000.0 11300700000.0 13145300000.0 15380400000.0 18515300000.0 19963800000.0 11579300000.0 11485100000.0 15194400000.0 17124700000.0 17120200000.0 19166200000.0 21698100000.0 24785300000.0 25019200000.0 24655800000.0 20679000000.0 18557900000.0 15156000000.0 13351500000.0 11746400000.0 9036220000.0 15330400000.0 9035750000.0 16354800000.0 9035750000.0 18486200000.0 9035750000.0 19941100000.0 9035750000.0 20390100000.0 10336800000.0 30483600000.0 9035750000.0 40129400000.0 15342500000.0 27151400000.0 9057830000.0 18567900000.0 9035750000.0 17680900000.0 9035750000.0 16309400000.0 9035750000.0 14428700000.0 9035750000.0 14105500000.0 9035750000.0 10891600000.0 12795600000.0 14672400000.0 18201700000.0 20325500000.0 24400000000.0 24816800000.0 24601000000.0 21504100000.0 19136600000.0 17124900000.0 17196000000.0 15208200000.0 11485700000.0 11581500000.0 19992100000.0 18553700000.0 15405200000.0 13158700000.0 11308400000.0 9665210000.0 11152800000.0 11555600000.0 12695600000.0 11660900000.0 10854200000.0 10498300000.0 9491130000.0 10648700000.0 11920000000.0 13442500000.0 15559700000.0 16776400000.0 10874200000.0 10808100000.0 13476600000.0 14831000000.0 14804000000.0 16238800000.0 18032400000.0 20203800000.0 20349700000.0 20076100000.0 17243100000.0 15734800000.0 13369700000.0 12077900000.0 10938700000.0 9035860000.0 13488700000.0 9035750000.0 14199400000.0 9035750000.0 15693000000.0 9035750000.0 16740100000.0 9035750000.0 17104900000.0 9891740000.0 24287200000.0 9035750000.0 31333600000.0 13407700000.0 21970700000.0 9045650000.0 15810200000.0 9035750000.0 15135500000.0 9035750000.0 14189300000.0 9035750000.0 12862800000.0 9035750000.0 12641400000.0 9035750000.0 10368300000.0 11689200000.0 13036600000.0 15494600000.0 17003100000.0 19903700000.0 20213800000.0 20080800000.0 17903500000.0 16215600000.0 14808600000.0 14879300000.0 13486300000.0 10808600000.0 10875800000.0 16796000000.0 15585600000.0 13459000000.0 11928700000.0 10653800000.0 9491190000.0 10503000000.0 10854400000.0 11663700000.0 10601800000.0 10124100000.0 9888010000.0 9308740000.0 9993050000.0 10731500000.0 11608200000.0 12820400000.0 13611900000.0 10137200000.0 10098400000.0 11692200000.0 12488500000.0 12463800000.0 13306200000.0 14367000000.0 15645100000.0 15723700000.0 15555500000.0 13874000000.0 12979800000.0 11598600000.0 10829000000.0 10154600000.0 9035780000.0 11666500000.0 9035750000.0 12081200000.0 9035750000.0 12958400000.0 9035750000.0 13584000000.0 9035750000.0 13817200000.0 9516740000.0 18077100000.0 9035750000.0 22328700000.0 11584000000.0 16723800000.0 9039620000.0 13050000000.0 9035750000.0 12633700000.0 9035750000.0 12083800000.0 9035750000.0 11301400000.0 9035750000.0 11173300000.0 9035750000.0 9830770000.0 10601100000.0 11405200000.0 12842300000.0 13735900000.0 15456800000.0 15646100000.0 15575200000.0 14293900000.0 13291600000.0 12467000000.0 12516200000.0 11697900000.0 10098600000.0 10138100000.0 13623400000.0 12835200000.0 11617600000.0 10736400000.0 9995920000.0 9308780000.0 9890600000.0 10124200000.0 10603400000.0 9525870000.0 9376800000.0 9300040000.0 9121350000.0 9334770000.0 9563440000.0 9834020000.0 10207300000.0 10463100000.0 9381010000.0 9368950000.0 9867990000.0 10115800000.0 10107000000.0 10369100000.0 10700000000.0 11098000000.0 11121600000.0 11068400000.0 10543000000.0 10263800000.0 9835130000.0 9594440000.0 9383940000.0 9035760000.0 9856040000.0 9035750000.0 9984710000.0 9035750000.0 10257600000.0 9035750000.0 10453500000.0 9035750000.0 10528400000.0 9182700000.0 11858900000.0 9035750000.0 13195600000.0 9826050000.0 11438700000.0 9036700000.0 10288900000.0 9035750000.0 10156900000.0 9035750000.0 9986530000.0 9035750000.0 9742750000.0 9035750000.0 9703120000.0 9035750000.0 9284570000.0 9523560000.0 9775230000.0 10221500000.0 10500500000.0 11038000000.0 11097700000.0 11076600000.0 10677600000.0 10364400000.0 10108100000.0 10124300000.0 9869780000.0 9369020000.0 9381300000.0 10466700000.0 10211800000.0 9836900000.0 9564940000.0 9335650000.0 9121360000.0 9300830000.0 9376840000.0 9526370000.0 