# vtk DataFile Version 2.0
Time step 41
ASCII
DATASET UNSTRUCTURED_GRID
POINTS 4650 float
139129.0 415384.0 0
144573.0 413131.0 0
355427.0 413131.0 0
360871.0 415384.0 0
135769.0 417483.0 0
142720.0 416646.0 0
147799.0 415492.0 0
151560.0 414160.0 0
155073.0 416062.0 0
158924.0 415166.0 0
162858.0 415624.0 0
166818.0 415548.0 0
170783.0 415563.0 0
174749.0 415559.0 0
178714.0 415557.0 0
182677.0 415556.0 0
186638.0 415554.0 0
190598.0 415553.0 0
194557.0 415552.0 0
198515.0 415551.0 0
202473.0 415551.0 0
206431.0 415550.0 0
210389.0 415549.0 0
214348.0 415549.0 0
218308.0 415548.0 0
222268.0 415548.0 0
226229.0 415548.0 0
230190.0 415547.0 0
234152.0 415547.0 0
238113.0 415547.0 0
242076.0 415547.0 0
246038.0 415547.0 0
250000.0 415547.0 0
253962.0 415547.0 0
257924.0 415547.0 0
261887.0 415547.0 0
265848.0 415547.0 0
269810.0 415547.0 0
273771.0 415548.0 0
277732.0 415548.0 0
281692.0 415548.0 0
285652.0 415549.0 0
289611.0 415549.0 0
293569.0 415550.0 0
297527.0 415551.0 0
301485.0 415551.0 0
305443.0 415552.0 0
309402.0 415553.0 0
313362.0 415554.0 0
317323.0 415556.0 0
321286.0 415557.0 0
325251.0 415559.0 0
329217.0 415563.0 0
333182.0 415548.0 0
337142.0 415624.0 0
341076.0 415166.0 0
344927.0 416062.0 0
348440.0 414160.0 0
352201.0 415492.0 0
357280.0 416646.0 0
364231.0 417483.0 0
132405.0 419583.0 0
139163.0 419238.0 0
145806.0 418935.0 0
151722.0 418144.0 0
155171.0 420147.0 0
159002.0 419146.0 0
162934.0 419634.0 0
166897.0 419545.0 0
170863.0 419565.0 0
174827.0 419561.0 0
178789.0 419559.0 0
182749.0 419557.0 0
186706.0 419556.0 0
190663.0 419554.0 0
194618.0 419553.0 0
198573.0 419552.0 0
202528.0 419551.0 0
206482.0 419551.0 0
210437.0 419550.0 0
214392.0 419549.0 0
218348.0 419549.0 0
222303.0 419548.0 0
226260.0 419548.0 0
230216.0 419547.0 0
234173.0 419547.0 0
238129.0 419547.0 0
242086.0 419547.0 0
246043.0 419547.0 0
250000.0 419547.0 0
253957.0 419547.0 0
257914.0 419547.0 0
261871.0 419547.0 0
265827.0 419547.0 0
269784.0 419547.0 0
273740.0 419548.0 0
277697.0 419548.0 0
281652.0 419549.0 0
285608.0 419549.0 0
289563.0 419550.0 0
293518.0 419551.0 0
297472.0 419551.0 0
301427.0 419552.0 0
305382.0 419553.0 0
309337.0 419554.0 0
313294.0 419556.0 0
317251.0 419557.0 0
321211.0 419559.0 0
325173.0 419561.0 0
329137.0 419565.0 0
333103.0 419545.0 0
337066.0 419634.0 0
340998.0 419146.0 0
344829.0 420147.0 0
348278.0 418144.0 0
354194.0 418935.0 0
360837.0 419238.0 0
367595.0 419583.0 0
125672.0 423788.0 0
129039.0 421685.0 0
132398.0 423398.0 0
135776.0 421320.0 0
142490.0 421091.0 0
149058.0 421018.0 0
350942.0 421018.0 0
357510.0 421091.0 0
364224.0 421320.0 0
367602.0 423398.0 0
370961.0 421685.0 0
374328.0 423788.0 0
122306.0 425892.0 0
129024.0 425483.0 0
135720.0 425202.0 0
139103.0 423152.0 0
145760.0 423111.0 0
152407.0 422968.0 0
155781.0 424930.0 0
159262.0 423102.0 0
163153.0 423714.0 0
167087.0 423537.0 0
171025.0 423575.0 0
174964.0 423565.0 0
178906.0 423563.0 0
182850.0 423560.0 0
186796.0 423558.0 0
190742.0 423556.0 0
194690.0 423555.0 0
198639.0 423554.0 0
202589.0 423553.0 0
206541.0 423552.0 0
210492.0 423551.0 0
214443.0 423550.0 0
218394.0 423549.0 0
222344.0 423549.0 0
226295.0 423548.0 0
230246.0 423548.0 0
234196.0 423547.0 0
238147.0 423547.0 0
242098.0 423547.0 0
246049.0 423547.0 0
250000.0 423547.0 0
253951.0 423547.0 0
257902.0 423547.0 0
261853.0 423547.0 0
265804.0 423547.0 0
269754.0 423548.0 0
273705.0 423548.0 0
277656.0 423549.0 0
281606.0 423549.0 0
285557.0 423550.0 0
289508.0 423551.0 0
293459.0 423552.0 0
297411.0 423553.0 0
301361.0 423554.0 0
305310.0 423555.0 0
309258.0 423556.0 0
313204.0 423558.0 0
317150.0 423560.0 0
321094.0 423563.0 0
325036.0 423565.0 0
328975.0 423575.0 0
332913.0 423537.0 0
336847.0 423714.0 0
340738.0 423102.0 0
344219.0 424930.0 0
347593.0 422968.0 0
354240.0 423111.0 0
360897.0 423152.0 0
364280.0 425202.0 0
370976.0 425483.0 0
377694.0 425892.0 0
118951.0 427991.0 0
125657.0 427579.0 0
132348.0 427255.0 0
139004.0 427095.0 0
142384.0 425087.0 0
145679.0 427095.0 0
149091.0 425111.0 0
152363.0 427263.0 0
159418.0 427071.0 0
167219.0 427531.0 0
171150.0 427581.0 0
175080.0 427565.0 0
179012.0 427564.0 0
182944.0 427562.0 0
186876.0 427560.0 0
190810.0 427558.0 0
194746.0 427556.0 0
198683.0 427555.0 0
202621.0 427553.0 0
206561.0 427552.0 0
210504.0 427551.0 0
214448.0 427550.0 0
218393.0 427549.0 0
222340.0 427549.0 0
226289.0 427548.0 0
230239.0 427548.0 0
234190.0 427547.0 0
238142.0 427547.0 0
242094.0 427547.0 0
246047.0 427547.0 0
250000.0 427547.0 0
253953.0 427547.0 0
257906.0 427547.0 0
261858.0 427547.0 0
265810.0 427547.0 0
269761.0 427548.0 0
273711.0 427548.0 0
277660.0 427549.0 0
281607.0 427549.0 0
285552.0 427550.0 0
289496.0 427551.0 0
293439.0 427552.0 0
297379.0 427553.0 0
301317.0 427555.0 0
305254.0 427556.0 0
309190.0 427558.0 0
313124.0 427560.0 0
317056.0 427562.0 0
320988.0 427564.0 0
324920.0 427565.0 0
328850.0 427581.0 0
332781.0 427531.0 0
340582.0 427071.0 0
347637.0 427263.0 0
350909.0 425111.0 0
354321.0 427095.0 0
357616.0 425087.0 0
360996.0 427095.0 0
367652.0 427255.0 0
374343.0 427579.0 0
381049.0 427991.0 0
115613.0 430080.0 0
122308.0 429698.0 0
125647.0 431417.0 0
128986.0 429322.0 0
135636.0 429121.0 0
142275.0 429064.0 0
148927.0 429208.0 0
155932.0 428887.0 0
163293.0 427762.0 0
336707.0 427762.0 0
344068.0 428887.0 0
351073.0 429208.0 0
357725.0 429064.0 0
364364.0 429121.0 0
371014.0 429322.0 0
374353.0 431417.0 0
377692.0 429698.0 0
384387.0 430080.0 0
108918.0 434267.0 0
112278.0 432169.0 0
118996.0 431825.0 0
122360.0 433570.0 0
128950.0 433206.0 0
132282.0 431149.0 0
135549.0 433069.0 0
138903.0 431050.0 0
145512.0 431115.0 0
152179.0 431341.0 0
155811.0 432825.0 0
159327.0 431053.0 0
163206.0 431756.0 0
167137.0 431528.0 0
171074.0 431581.0 0
175010.0 431565.0 0
178946.0 431564.0 0
182882.0 431562.0 0
186819.0 431560.0 0
190757.0 431558.0 0
194697.0 431556.0 0
198638.0 431555.0 0
202580.0 431553.0 0
206524.0 431552.0 0
210470.0 431551.0 0
214417.0 431550.0 0
218366.0 431549.0 0
222317.0 431549.0 0
226269.0 431548.0 0
230222.0 431548.0 0
234176.0 431547.0 0
238131.0 431547.0 0
242087.0 431547.0 0
246044.0 431547.0 0
250000.0 431547.0 0
253956.0 431547.0 0
257913.0 431547.0 0
261869.0 431547.0 0
265824.0 431547.0 0
269778.0 431548.0 0
273731.0 431548.0 0
277683.0 431549.0 0
281634.0 431549.0 0
285583.0 431550.0 0
289530.0 431551.0 0
293476.0 431552.0 0
297420.0 431553.0 0
301362.0 431555.0 0
305303.0 431556.0 0
309243.0 431558.0 0
313181.0 431560.0 0
317118.0 431562.0 0
321054.0 431564.0 0
324990.0 431565.0 0
328926.0 431581.0 0
332863.0 431528.0 0
336794.0 431756.0 0
340673.0 431053.0 0
344189.0 432825.0 0
347821.0 431341.0 0
354488.0 431115.0 0
361097.0 431050.0 0
364451.0 433069.0 0
367718.0 431149.0 0
371050.0 433206.0 0
377640.0 433570.0 0
381004.0 431825.0 0
387722.0 432169.0 0
391082.0 434267.0 0
105542.0 436378.0 0
112351.0 436001.0 0
115709.0 433928.0 0
119177.0 435725.0 0
125650.0 435311.0 0
132229.0 435072.0 0
138800.0 435006.0 0
142157.0 433069.0 0
145022.0 435655.0 0
148694.0 433284.0 0
152022.0 435323.0 0
347978.0 435323.0 0
351306.0 433284.0 0
354978.0 435655.0 0
357843.0 433069.0 0
361200.0 435006.0 0
367771.0 435072.0 0
374350.0 435311.0 0
380823.0 435725.0 0
384291.0 433928.0 0
387649.0 436001.0 0
394458.0 436378.0 0
102163.0 438495.0 0
108978.0 438110.0 0
115810.0 437774.0 0
122805.0 437920.0 0
128882.0 437126.0 0
135528.0 437062.0 0
141570.0 437602.0 0
148548.0 437253.0 0
155676.0 436744.0 0
159223.0 435041.0 0
163099.0 435746.0 0
167032.0 435526.0 0
170969.0 435581.0 0
174905.0 435566.0 0
178841.0 435565.0 0
182778.0 435562.0 0
186716.0 435560.0 0
190656.0 435558.0 0
194599.0 435556.0 0
198543.0 435554.0 0
202490.0 435553.0 0
206439.0 435552.0 0
210390.0 435551.0 0
214344.0 435550.0 0
218299.0 435549.0 0
222257.0 435549.0 0
226217.0 435548.0 0
230178.0 435548.0 0
234141.0 435547.0 0
238104.0 435547.0 0
242069.0 435547.0 0
246034.0 435547.0 0
250000.0 435547.0 0
253966.0 435547.0 0
257931.0 435547.0 0
261896.0 435547.0 0
265859.0 435547.0 0
269822.0 435548.0 0
273783.0 435548.0 0
277743.0 435549.0 0
281701.0 435549.0 0
285656.0 435550.0 0
289610.0 435551.0 0
293561.0 435552.0 0
297510.0 435553.0 0
301457.0 435554.0 0
305401.0 435556.0 0
309344.0 435558.0 0
313284.0 435560.0 0
317222.0 435562.0 0
321159.0 435565.0 0
325095.0 435566.0 0
329031.0 435581.0 0
332968.0 435526.0 0
336901.0 435746.0 0
340777.0 435041.0 0
344324.0 436744.0 0
351452.0 437253.0 0
358430.0 437602.0 0
364472.0 437062.0 0
371118.0 437126.0 0
377195.0 437920.0 0
384190.0 437774.0 0
391022.0 438110.0 0
397837.0 438495.0 0
98808.4 440595.0 0
102233.0 442455.0 0
105606.0 440254.0 0
109079.0 441977.0 0
112439.0 439847.0 0
119283.0 439572.0 0
126325.0 440045.0 0
132123.0 438963.0 0
137515.0 440408.0 0
144794.0 439760.0 0
151887.0 439309.0 0
155579.0 440649.0 0
159163.0 439035.0 0
163039.0 439733.0 0
166970.0 439528.0 0
170906.0 439580.0 0
174842.0 439565.0 0
178779.0 439564.0 0
182719.0 439561.0 0
186660.0 439559.0 0
190604.0 439557.0 0
194550.0 439556.0 0
198499.0 439554.0 0
202450.0 439553.0 0
206404.0 439552.0 0
210359.0 439551.0 0
214317.0 439550.0 0
218277.0 439549.0 0
222238.0 439549.0 0
226201.0 439548.0 0
230165.0 439548.0 0
234131.0 439547.0 0
238097.0 439547.0 0
242064.0 439547.0 0
246032.0 439547.0 0
250000.0 439547.0 0
253968.0 439547.0 0
257936.0 439547.0 0
261903.0 439547.0 0
265869.0 439547.0 0
269835.0 439548.0 0
273799.0 439548.0 0
277762.0 439549.0 0
281723.0 439549.0 0
285683.0 439550.0 0
289641.0 439551.0 0
293596.0 439552.0 0
297550.0 439553.0 0
301501.0 439554.0 0
305450.0 439556.0 0
309396.0 439557.0 0
313340.0 439559.0 0
317281.0 439561.0 0
321221.0 439564.0 0
325158.0 439565.0 0
329094.0 439580.0 0
333030.0 439528.0 0
336961.0 439733.0 0
340837.0 439035.0 0
344421.0 440649.0 0
348113.0 439309.0 0
355206.0 439760.0 0
362485.0 440408.0 0
367877.0 438963.0 0
373675.0 440045.0 0
380717.0 439572.0 0
387561.0 439847.0 0
390921.0 441977.0 0
394394.0 440254.0 0
397767.0 442455.0 0
401192.0 440595.0 0
95476.9 442680.0 0
105743.0 444168.0 0
112567.0 443710.0 0
115901.0 441643.0 0
119351.0 443395.0 0
122905.0 441870.0 0
129725.0 442097.0 0
134004.0 442192.0 0
141249.0 441522.0 0
148400.0 441207.0 0
351600.0 441207.0 0
358751.0 441522.0 0
365996.0 442192.0 0
370275.0 442097.0 0
377095.0 441870.0 0
380649.0 443395.0 0
384099.0 441643.0 0
387433.0 443710.0 0
394257.0 444168.0 0
404523.0 442680.0 0
95347.9 446587.0 0
98929.3 444708.0 0
102517.0 446448.0 0
109204.0 445873.0 0
116058.0 445594.0 0
123386.0 445790.0 0
127285.0 445198.0 0
131830.0 445469.0 0
135981.0 445455.0 0
139863.0 445227.0 0
143728.0 444567.0 0
147590.0 445086.0 0
151302.0 443844.0 0
155132.0 444519.0 0
158791.0 443177.0 0
162669.0 443700.0 0
166585.0 443542.0 0
170510.0 443559.0 0
174442.0 443555.0 0
178381.0 443553.0 0
182327.0 443552.0 0
186280.0 443551.0 0
190239.0 443550.0 0
194203.0 443549.0 0
198171.0 443549.0 0
202144.0 443548.0 0
206121.0 443548.0 0
210101.0 443547.0 0
214084.0 443547.0 0
218069.0 443547.0 0
222057.0 443547.0 0
226046.0 443547.0 0
230036.0 443547.0 0
234027.0 443547.0 0
238020.0 443547.0 0
242013.0 443547.0 0
246006.0 443547.0 0
250000.0 443547.0 0
253994.0 443547.0 0
257987.0 443547.0 0
261980.0 443547.0 0
265973.0 443547.0 0
269964.0 443547.0 0
273954.0 443547.0 0
277943.0 443547.0 0
281931.0 443547.0 0
285916.0 443547.0 0
289899.0 443547.0 0
293879.0 443548.0 0
297856.0 443548.0 0
301829.0 443549.0 0
305797.0 443549.0 0
309761.0 443550.0 0
313720.0 443551.0 0
317673.0 443552.0 0
321619.0 443553.0 0
325558.0 443555.0 0
329490.0 443559.0 0
333415.0 443542.0 0
337331.0 443700.0 0
341209.0 443177.0 0
344868.0 444519.0 0
348698.0 443844.0 0
352410.0 445086.0 0
356272.0 444567.0 0
360137.0 445227.0 0
364019.0 445455.0 0
368170.0 445469.0 0
372715.0 445198.0 0
376614.0 445790.0 0
383942.0 445594.0 0
390796.0 445873.0 0
397483.0 446448.0 0
401071.0 444708.0 0
404652.0 446587.0 0
99242.1 448707.0 0
106467.0 448710.0 0
112625.0 447543.0 0
119702.0 447155.0 0
134875.0 449163.0 0
142781.0 448441.0 0
150610.0 447782.0 0
154584.0 448359.0 0
158481.0 447472.0 0
162467.0 447675.0 0
166453.0 447549.0 0
170436.0 447557.0 0
174416.0 447555.0 0
178393.0 447553.0 0
182368.0 447552.0 0
186344.0 447550.0 0
190318.0 447549.0 0
194293.0 447549.0 0
198268.0 447549.0 0
202244.0 447548.0 0
206220.0 447548.0 0
210196.0 447548.0 0
214174.0 447548.0 0
218152.0 447547.0 0
222131.0 447547.0 0
226111.0 447547.0 0
230091.0 447547.0 0
234072.0 447547.0 0
238054.0 447547.0 0
242036.0 447547.0 0
246018.0 447547.0 0
250000.0 447547.0 0
253982.0 447547.0 0
257964.0 447547.0 0
261946.0 447547.0 0
265928.0 447547.0 0
269909.0 447547.0 0
273889.0 447547.0 0
277869.0 447547.0 0
281848.0 447547.0 0
285826.0 447548.0 0
289804.0 447548.0 0
293780.0 447548.0 0
297756.0 447548.0 0
301732.0 447549.0 0
305707.0 447549.0 0
309682.0 447549.0 0
313656.0 447550.0 0
317632.0 447552.0 0
321607.0 447553.0 0
325584.0 447555.0 0
329564.0 447557.0 0
333547.0 447549.0 0
337533.0 447675.0 0
341519.0 447472.0 0
345416.0 448359.0 0
349390.0 447782.0 0
357219.0 448441.0 0
365125.0 449163.0 0
380298.0 447155.0 0
387375.0 447543.0 0
393533.0 448710.0 0
400758.0 448707.0 0
95677.7 450527.0 0
102894.0 450414.0 0
110042.0 450485.0 0
115293.0 450187.0 0
119096.0 450879.0 0
122936.0 449737.0 0
126904.0 449154.0 0
130894.0 449299.0 0
138847.0 449059.0 0
146737.0 448921.0 0
353263.0 448921.0 0
361153.0 449059.0 0
369106.0 449299.0 0
373096.0 449154.0 0
377064.0 449737.0 0
380904.0 450879.0 0
384707.0 450187.0 0
389958.0 450485.0 0
397106.0 450414.0 0
404322.0 450527.0 0
99623.6 452678.0 0
103392.0 454371.0 0
107185.0 453190.0 0
112558.0 453578.0 0
116556.0 453862.0 0
121604.0 453724.0 0
125416.0 452848.0 0
129315.0 452932.0 0
133231.0 452694.0 0
137231.0 452702.0 0
141214.0 452266.0 0
145196.0 452557.0 0
149593.0 451671.0 0
153535.0 452130.0 0
157990.0 451547.0 0
161988.0 451632.0 0
166000.0 451547.0 0
170000.0 451547.0 0
174000.0 451547.0 0
178000.0 451547.0 0
182000.0 451547.0 0
186000.0 451547.0 0
190000.0 451547.0 0
194000.0 451547.0 0
198000.0 451547.0 0
202000.0 451547.0 0
206000.0 451547.0 0
210000.0 451547.0 0
214000.0 451547.0 0
218000.0 451547.0 0
222000.0 451547.0 0
226000.0 451547.0 0
230000.0 451547.0 0
234000.0 451547.0 0
238000.0 451547.0 0
242000.0 451547.0 0
246000.0 451547.0 0
250000.0 451547.0 0
254000.0 451547.0 0
258000.0 451547.0 0
262000.0 451547.0 0
266000.0 451547.0 0
270000.0 451547.0 0
274000.0 451547.0 0
278000.0 451547.0 0
282000.0 451547.0 0
286000.0 451547.0 0
290000.0 451547.0 0
294000.0 451547.0 0
298000.0 451547.0 0
302000.0 451547.0 0
306000.0 451547.0 0
310000.0 451547.0 0
314000.0 451547.0 0
318000.0 451547.0 0
322000.0 451547.0 0
326000.0 451547.0 0
330000.0 451547.0 0
334000.0 451547.0 0
338012.0 451632.0 0
342010.0 451547.0 0
346465.0 452130.0 0
350407.0 451671.0 0
354804.0 452557.0 0
358786.0 452266.0 0
362769.0 452702.0 0
366769.0 452694.0 0
370685.0 452932.0 0
374584.0 452848.0 0
378396.0 453724.0 0
383444.0 453862.0 0
387442.0 453578.0 0
392815.0 453190.0 0
396608.0 454371.0 0
400376.0 452678.0 0
127188.0 456428.0 0
135155.0 456118.0 0
142991.0 455851.0 0
146938.0 456145.0 0
150831.0 455463.0 0
154767.0 455875.0 0
158681.0 455490.0 0
162619.0 455575.0 0
166560.0 455557.0 0
170505.0 455556.0 0
174454.0 455555.0 0
178407.0 455553.0 0
182363.0 455552.0 0
186322.0 455551.0 0
190285.0 455550.0 0
194251.0 455549.0 0
198220.0 455549.0 0
202192.0 455548.0 0
206167.0 455548.0 0
210144.0 455548.0 0
214123.0 455547.0 0
218105.0 455547.0 0
222088.0 455547.0 0
226072.0 455547.0 0
230058.0 455547.0 0
234045.0 455547.0 0
238033.0 455547.0 0
242022.0 455547.0 0
246011.0 455547.0 0
250000.0 455547.0 0
253989.0 455547.0 0
257978.0 455547.0 0
261967.0 455547.0 0
265955.0 455547.0 0
269942.0 455547.0 0
273928.0 455547.0 0
277912.0 455547.0 0
281895.0 455547.0 0
285877.0 455547.0 0
289856.0 455548.0 0
293833.0 455548.0 0
297808.0 455548.0 0
301780.0 455549.0 0
305749.0 455549.0 0
309715.0 455550.0 0
313678.0 455551.0 0
317637.0 455552.0 0
321593.0 455553.0 0
325546.0 455555.0 0
329495.0 455556.0 0
333440.0 455557.0 0
337381.0 455575.0 0
341319.0 455490.0 0
345233.0 455875.0 0
349169.0 455463.0 0
353062.0 456145.0 0
357009.0 455851.0 0
364845.0 456118.0 0
372812.0 456428.0 0
100112.0 456629.0 0
106367.0 457064.0 0
110369.0 456928.0 0
114401.0 457113.0 0
119141.0 456851.0 0
123263.0 457193.0 0
131186.0 456435.0 0
139083.0 456310.0 0
360917.0 456310.0 0
368814.0 456435.0 0
376737.0 457193.0 0
380859.0 456851.0 0
385599.0 457113.0 0
389631.0 456928.0 0
393633.0 457064.0 0
399888.0 456629.0 0
100343.0 460601.0 0
104383.0 460508.0 0
108436.0 460469.0 0
112418.0 460494.0 0
116946.0 460180.0 0
120929.0 460412.0 0
125656.0 460235.0 0
129596.0 460080.0 0
133541.0 459727.0 0
137522.0 459983.0 0
141540.0 459571.0 0
145526.0 459871.0 0
149881.0 459533.0 0
153870.0 459725.0 0
158000.0 459547.0 0
162000.0 459547.0 0
166000.0 459547.0 0
170000.0 459547.0 0
174000.0 459547.0 0
178000.0 459547.0 0
182000.0 459547.0 0
186000.0 459547.0 0
190000.0 459547.0 0
194000.0 459547.0 0
198000.0 459547.0 0
202000.0 459547.0 0
206000.0 459547.0 0
210000.0 459547.0 0
214000.0 459547.0 0
218000.0 459547.0 0
222000.0 459547.0 0
226000.0 459547.0 0
230000.0 459547.0 0
234000.0 459547.0 0
238000.0 459547.0 0
242000.0 459547.0 0
246000.0 459547.0 0
250000.0 459547.0 0
254000.0 459547.0 0
258000.0 459547.0 0
262000.0 459547.0 0
266000.0 459547.0 0
270000.0 459547.0 0
274000.0 459547.0 0
278000.0 459547.0 0
282000.0 459547.0 0
286000.0 459547.0 0
290000.0 459547.0 0
294000.0 459547.0 0
298000.0 459547.0 0
302000.0 459547.0 0
306000.0 459547.0 0
310000.0 459547.0 0
314000.0 459547.0 0
318000.0 459547.0 0
322000.0 459547.0 0
326000.0 459547.0 0
330000.0 459547.0 0
334000.0 459547.0 0
338000.0 459547.0 0
342000.0 459547.0 0
346130.0 459725.0 0
350119.0 459533.0 0
354474.0 459871.0 0
358460.0 459571.0 0
362478.0 459983.0 0
366459.0 459727.0 0
370404.0 460080.0 0
374344.0 460235.0 0
379071.0 460412.0 0
383054.0 460180.0 0
387582.0 460494.0 0
391564.0 460469.0 0
395617.0 460508.0 0
399657.0 460601.0 0
102447.0 463986.0 0
106448.0 463931.0 0
110446.0 463928.0 0
114532.0 463876.0 0
118554.0 463834.0 0
126544.0 464047.0 0
130508.0 463953.0 0
134453.0 463599.0 0
138404.0 463876.0 0
142346.0 463484.0 0
146301.0 463780.0 0
150258.0 463515.0 0
154226.0 463674.0 0
158193.0 463542.0 0
162166.0 463549.0 0
166142.0 463548.0 0
170121.0 463548.0 0
174103.0 463547.0 0
178087.0 463547.0 0
182073.0 463547.0 0
186061.0 463547.0 0
190051.0 463547.0 0
194043.0 463547.0 0
198036.0 463547.0 0
202029.0 463547.0 0
206024.0 463547.0 0
210020.0 463547.0 0
214016.0 463547.0 0
218013.0 463547.0 0
222011.0 463547.0 0
226008.0 463547.0 0
230007.0 463547.0 0
234005.0 463547.0 0
238004.0 463547.0 0
242002.0 463547.0 0
246001.0 463547.0 0
250000.0 463547.0 0
253999.0 463547.0 0
257998.0 463547.0 0
261996.0 463547.0 0
265995.0 463547.0 0
269993.0 463547.0 0
273992.0 463547.0 0
277989.0 463547.0 0
281987.0 463547.0 0
285984.0 463547.0 0
289980.0 463547.0 0
293976.0 463547.0 0
297971.0 463547.0 0
301964.0 463547.0 0
305957.0 463547.0 0
309949.0 463547.0 0
313939.0 463547.0 0
317927.0 463547.0 0
321913.0 463547.0 0
325897.0 463547.0 0
329879.0 463548.0 0
333858.0 463548.0 0
337834.0 463549.0 0
341807.0 463542.0 0
345774.0 463674.0 0
349742.0 463515.0 0
353699.0 463780.0 0
357654.0 463484.0 0
361596.0 463876.0 0
365547.0 463599.0 0
369492.0 463953.0 0
373456.0 464047.0 0
381446.0 463834.0 0
385468.0 463876.0 0
389554.0 463928.0 0
393552.0 463931.0 0
397553.0 463986.0 0
122547.0 464056.0 0
377453.0 464056.0 0
101692.0 467892.0 0
105722.0 467854.0 0
109718.0 467837.0 0
113714.0 467786.0 0
117704.0 467736.0 0
121686.0 467950.0 0
125671.0 467881.0 0
129772.0 467864.0 0
133906.0 467557.0 0
137895.0 467829.0 0
141951.0 467550.0 0
145945.0 467744.0 0
149988.0 467546.0 0
153986.0 467637.0 0
158000.0 467547.0 0
162000.0 467547.0 0
166000.0 467547.0 0
170000.0 467547.0 0
174000.0 467547.0 0
178000.0 467547.0 0
182000.0 467547.0 0
186000.0 467547.0 0
190000.0 467547.0 0
194000.0 467547.0 0
198000.0 467547.0 0
202000.0 467547.0 0
206000.0 467547.0 0
210000.0 467547.0 0
214000.0 467547.0 0
218000.0 467547.0 0
222000.0 467547.0 0
226000.0 467547.0 0
230000.0 467547.0 0
234000.0 467547.0 0
238000.0 467547.0 0
242000.0 467547.0 0
246000.0 467547.0 0
250000.0 467547.0 0
254000.0 467547.0 0
258000.0 467547.0 0
262000.0 467547.0 0
266000.0 467547.0 0
270000.0 467547.0 0
274000.0 467547.0 0
278000.0 467547.0 0
282000.0 467547.0 0
286000.0 467547.0 0
290000.0 467547.0 0
294000.0 467547.0 0
298000.0 467547.0 0
302000.0 467547.0 0
306000.0 467547.0 0
310000.0 467547.0 0
314000.0 467547.0 0
318000.0 467547.0 0
322000.0 467547.0 0
326000.0 467547.0 0
330000.0 467547.0 0
334000.0 467547.0 0
338000.0 467547.0 0
342000.0 467547.0 0
346014.0 467637.0 0
350012.0 467546.0 0
354055.0 467744.0 0
358049.0 467550.0 0
362105.0 467829.0 0
366094.0 467557.0 0
370228.0 467864.0 0
374329.0 467881.0 0
378314.0 467950.0 0
382296.0 467736.0 0
386286.0 467786.0 0
390282.0 467837.0 0
394278.0 467854.0 0
398308.0 467892.0 0
110062.0 471806.0 0
114061.0 471766.0 0
118074.0 471712.0 0
126081.0 471806.0 0
130075.0 471831.0 0
134059.0 471553.0 0
138045.0 471810.0 0
142032.0 471549.0 0
146024.0 471721.0 0
150016.0 471546.0 0
154013.0 471614.0 0
158010.0 471547.0 0
162007.0 471547.0 0
166006.0 471547.0 0
170004.0 471547.0 0
174003.0 471547.0 0
178002.0 471547.0 0
182002.0 471547.0 0
186001.0 471547.0 0
190001.0 471547.0 0
194001.0 471547.0 0
198000.0 471547.0 0
202000.0 471547.0 0
206000.0 471547.0 0
210000.0 471547.0 0
214000.0 471547.0 0
218000.0 471547.0 0
222000.0 471547.0 0
226000.0 471547.0 0
230000.0 471547.0 0
234000.0 471547.0 0
238000.0 471547.0 0
242000.0 471547.0 0
246000.0 471547.0 0
250000.0 471547.0 0
254000.0 471547.0 0
258000.0 471547.0 0
262000.0 471547.0 0
266000.0 471547.0 0
270000.0 471547.0 0
274000.0 471547.0 0
278000.0 471547.0 0
282000.0 471547.0 0
286000.0 471547.0 0
290000.0 471547.0 0
294000.0 471547.0 0
298000.0 471547.0 0
302000.0 471547.0 0
305999.0 471547.0 0
309999.0 471547.0 0
313999.0 471547.0 0
317998.0 471547.0 0
321998.0 471547.0 0
325997.0 471547.0 0
329996.0 471547.0 0
333994.0 471547.0 0
337993.0 471547.0 0
341990.0 471547.0 0
345987.0 471614.0 0
349984.0 471546.0 0
353976.0 471721.0 0
357968.0 471549.0 0
361955.0 471810.0 0
365941.0 471553.0 0
369925.0 471831.0 0
373919.0 471806.0 0
381926.0 471712.0 0
385939.0 471766.0 0
389938.0 471806.0 0
102063.0 471858.0 0
106062.0 471832.0 0
122083.0 471914.0 0
377917.0 471914.0 0
393938.0 471832.0 0
397937.0 471858.0 0
101980.0 475840.0 0
105980.0 475823.0 0
109980.0 475791.0 0
113980.0 475759.0 0
117979.0 475702.0 0
121973.0 475895.0 0
125969.0 475760.0 0
129979.0 475809.0 0
133996.0 475556.0 0
137989.0 475792.0 0
142000.0 475551.0 0
145997.0 475699.0 0
150000.0 475547.0 0
154000.0 475597.0 0
158000.0 475547.0 0
162000.0 475547.0 0
166000.0 475547.0 0
170000.0 475547.0 0
174000.0 475547.0 0
178000.0 475547.0 0
182000.0 475547.0 0
186000.0 475547.0 0
190000.0 475547.0 0
194000.0 475547.0 0
198000.0 475547.0 0
202000.0 475547.0 0
206000.0 475547.0 0
210000.0 475547.0 0
214000.0 475547.0 0
218000.0 475547.0 0
222000.0 475547.0 0
226000.0 475547.0 0
230000.0 475547.0 0
234000.0 475547.0 0
238000.0 475547.0 0
242000.0 475547.0 0
246000.0 475547.0 0
250000.0 475547.0 0
254000.0 475547.0 0
258000.0 475547.0 0
262000.0 475547.0 0
266000.0 475547.0 0
270000.0 475547.0 0
274000.0 475547.0 0
278000.0 475547.0 0
282000.0 475547.0 0
286000.0 475547.0 0
290000.0 475547.0 0
294000.0 475547.0 0
298000.0 475547.0 0
302000.0 475547.0 0
306000.0 475547.0 0
310000.0 475547.0 0
314000.0 475547.0 0
318000.0 475547.0 0
322000.0 475547.0 0
326000.0 475547.0 0
330000.0 475547.0 0
334000.0 475547.0 0
338000.0 475547.0 0
342000.0 475547.0 0
346000.0 475597.0 0
350000.0 475547.0 0
354003.0 475699.0 0
358000.0 475551.0 0
362011.0 475792.0 0
366004.0 475556.0 0
370021.0 475809.0 0
374031.0 475760.0 0
378027.0 475895.0 0
382021.0 475702.0 0
386020.0 475759.0 0
390020.0 475791.0 0
394020.0 475823.0 0
398020.0 475840.0 0
126009.0 479724.0 0
134001.0 479556.0 0
142000.0 479551.0 0
146000.0 479678.0 0
150000.0 479547.0 0
154000.0 479583.0 0
158000.0 479547.0 0
162000.0 479547.0 0
166000.0 479547.0 0
170000.0 479547.0 0
174000.0 479547.0 0
178000.0 479547.0 0
182000.0 479547.0 0
186000.0 479547.0 0
190000.0 479547.0 0
194000.0 479547.0 0
198000.0 479547.0 0
202000.0 479547.0 0
206000.0 479547.0 0
210000.0 479547.0 0
214000.0 479547.0 0
218000.0 479547.0 0
222000.0 479547.0 0
226000.0 479547.0 0
230000.0 479547.0 0
234000.0 479547.0 0
238000.0 479547.0 0
242000.0 479547.0 0
246000.0 479547.0 0
250000.0 479547.0 0
254000.0 479547.0 0
258000.0 479547.0 0
262000.0 479547.0 0
266000.0 479547.0 0
270000.0 479547.0 0
274000.0 479547.0 0
278000.0 479547.0 0
282000.0 479547.0 0
286000.0 479547.0 0
290000.0 479547.0 0
294000.0 479547.0 0
298000.0 479547.0 0
302000.0 479547.0 0
306000.0 479547.0 0
310000.0 479547.0 0
314000.0 479547.0 0
318000.0 479547.0 0
322000.0 479547.0 0
326000.0 479547.0 0
330000.0 479547.0 0
334000.0 479547.0 0
338000.0 479547.0 0
342000.0 479547.0 0
346000.0 479583.0 0
350000.0 479547.0 0
354000.0 479678.0 0
358000.0 479551.0 0
365999.0 479556.0 0
373991.0 479724.0 0
102003.0 479824.0 0
106003.0 479813.0 0
110003.0 479778.0 0
114003.0 479751.0 0
118003.0 479691.0 0
122012.0 479875.0 0
130008.0 479788.0 0
138003.0 479774.0 0
361997.0 479774.0 0
369992.0 479788.0 0
377988.0 479875.0 0
381997.0 479691.0 0
385997.0 479751.0 0
389997.0 479778.0 0
393997.0 479813.0 0
397997.0 479824.0 0
102000.0 483808.0 0
106000.0 483801.0 0
110000.0 483766.0 0
113999.0 483742.0 0
117999.0 483680.0 0
121995.0 483853.0 0
125999.0 483693.0 0
129999.0 483768.0 0
134000.0 483555.0 0
138000.0 483754.0 0
142000.0 483550.0 0
146000.0 483658.0 0
150000.0 483547.0 0
154000.0 483573.0 0
158000.0 483547.0 0
162000.0 483547.0 0
166000.0 483547.0 0
170000.0 483547.0 0
174000.0 483547.0 0
178000.0 483547.0 0
182000.0 483547.0 0
186000.0 483547.0 0
190000.0 483547.0 0
194000.0 483547.0 0
198000.0 483547.0 0
202000.0 483547.0 0
206000.0 483547.0 0
210000.0 483547.0 0
214000.0 483547.0 0
218000.0 483547.0 0
222000.0 483547.0 0
226000.0 483547.0 0
230000.0 483547.0 0
234000.0 483547.0 0
238000.0 483547.0 0
242000.0 483547.0 0
246000.0 483547.0 0
250000.0 483547.0 0
254000.0 483547.0 0
258000.0 483547.0 0
262000.0 483547.0 0
266000.0 483547.0 0
270000.0 483547.0 0
274000.0 483547.0 0
278000.0 483547.0 0
282000.0 483547.0 0
286000.0 483547.0 0
290000.0 483547.0 0
294000.0 483547.0 0
298000.0 483547.0 0
302000.0 483547.0 0
306000.0 483547.0 0
310000.0 483547.0 0
314000.0 483547.0 0
318000.0 483547.0 0
322000.0 483547.0 0
326000.0 483547.0 0
330000.0 483547.0 0
334000.0 483547.0 0
338000.0 483547.0 0
342000.0 483547.0 0
346000.0 483573.0 0
350000.0 483547.0 0
354000.0 483658.0 0
358000.0 483550.0 0
362000.0 483754.0 0
366000.0 483555.0 0
370001.0 483768.0 0
374001.0 483693.0 0
378005.0 483853.0 0
382001.0 483680.0 0
386001.0 483742.0 0
390000.0 483766.0 0
394000.0 483801.0 0
398000.0 483808.0 0
102000.0 487793.0 0
106000.0 487789.0 0
110000.0 487753.0 0
114000.0 487731.0 0
118000.0 487669.0 0
122002.0 487831.0 0
126000.0 487668.0 0
130000.0 487749.0 0
134000.0 487555.0 0
138000.0 487735.0 0
142000.0 487550.0 0
146000.0 487640.0 0
150000.0 487547.0 0
154000.0 487565.0 0
158000.0 487547.0 0
162000.0 487547.0 0
166000.0 487547.0 0
170000.0 487547.0 0
174000.0 487547.0 0
178000.0 487547.0 0
182000.0 487547.0 0
186000.0 487547.0 0
190000.0 487547.0 0
194000.0 487547.0 0
198000.0 487547.0 0
202000.0 487547.0 0
206000.0 487547.0 0
210000.0 487547.0 0
214000.0 487547.0 0
218000.0 487547.0 0
222000.0 487547.0 0
226000.0 487547.0 0
230000.0 487547.0 0
234000.0 487547.0 0
238000.0 487547.0 0
242000.0 487547.0 0
246000.0 487547.0 0
250000.0 487547.0 0
254000.0 487547.0 0
258000.0 487547.0 0
262000.0 487547.0 0
266000.0 487547.0 0
270000.0 487547.0 0
274000.0 487547.0 0
278000.0 487547.0 0
282000.0 487547.0 0
286000.0 487547.0 0
290000.0 487547.0 0
294000.0 487547.0 0
298000.0 487547.0 0
302000.0 487547.0 0
306000.0 487547.0 0
310000.0 487547.0 0
314000.0 487547.0 0
318000.0 487547.0 0
322000.0 487547.0 0
326000.0 487547.0 0
330000.0 487547.0 0
334000.0 487547.0 0
338000.0 487547.0 0
342000.0 487547.0 0
346000.0 487565.0 0
350000.0 487547.0 0
354000.0 487640.0 0
358000.0 487550.0 0
362000.0 487735.0 0
366000.0 487555.0 0
370000.0 487749.0 0
374000.0 487668.0 0
377998.0 487831.0 0
382000.0 487669.0 0
386000.0 487731.0 0
390000.0 487753.0 0
394000.0 487789.0 0
398000.0 487793.0 0
102000.0 491778.0 0
106000.0 491775.0 0
110000.0 491741.0 0
114000.0 491720.0 0
118000.0 491658.0 0
122000.0 491809.0 0
126000.0 491646.0 0
130000.0 491731.0 0
134000.0 491555.0 0
138000.0 491716.0 0
142000.0 491550.0 0
146000.0 491624.0 0
150000.0 491547.0 0
154000.0 491559.0 0
158000.0 491547.0 0
162000.0 491547.0 0
166000.0 491547.0 0
170000.0 491547.0 0
174000.0 491547.0 0
178000.0 491547.0 0
182000.0 491547.0 0
186000.0 491547.0 0
190000.0 491547.0 0
194000.0 491547.0 0
198000.0 491547.0 0
202000.0 491547.0 0
206000.0 491547.0 0
210000.0 491547.0 0
214000.0 491547.0 0
218000.0 491547.0 0
222000.0 491547.0 0
226000.0 491547.0 0
230000.0 491547.0 0
234000.0 491547.0 0
238000.0 491547.0 0
242000.0 491547.0 0
246000.0 491547.0 0
250000.0 491547.0 0
254000.0 491547.0 0
258000.0 491547.0 0
262000.0 491547.0 0
266000.0 491547.0 0
270000.0 491547.0 0
274000.0 491547.0 0
278000.0 491547.0 0
282000.0 491547.0 0
286000.0 491547.0 0
290000.0 491547.0 0
294000.0 491547.0 0
298000.0 491547.0 0
302000.0 491547.0 0
306000.0 491547.0 0
310000.0 491547.0 0
314000.0 491547.0 0
318000.0 491547.0 0
322000.0 491547.0 0
326000.0 491547.0 0
330000.0 491547.0 0
334000.0 491547.0 0
338000.0 491547.0 0
342000.0 491547.0 0
346000.0 491559.0 0
350000.0 491547.0 0
354000.0 491624.0 0
358000.0 491550.0 0
362000.0 491716.0 0
366000.0 491555.0 0
370000.0 491731.0 0
374000.0 491646.0 0
378000.0 491809.0 0
382000.0 491658.0 0
386000.0 491720.0 0
390000.0 491741.0 0
394000.0 491775.0 0
398000.0 491778.0 0
102000.0 495763.0 0
106000.0 495761.0 0
110000.0 495729.0 0
114000.0 495708.0 0
118000.0 495648.0 0
122000.0 495787.0 0
126000.0 495628.0 0
130000.0 495714.0 0
134000.0 495554.0 0
138000.0 495697.0 0
142000.0 495550.0 0
146000.0 495610.0 0
150000.0 495547.0 0
154000.0 495555.0 0
158000.0 495547.0 0
162000.0 495547.0 0
166000.0 495547.0 0
170000.0 495547.0 0
174000.0 495547.0 0
178000.0 495547.0 0
182000.0 495547.0 0
186000.0 495547.0 0
190000.0 495547.0 0
194000.0 495547.0 0
198000.0 495547.0 0
202000.0 495547.0 0
206000.0 495547.0 0
210000.0 495547.0 0
214000.0 495547.0 0
218000.0 495547.0 0
222000.0 495547.0 0
226000.0 495547.0 0
230000.0 495547.0 0
234000.0 495547.0 0
238000.0 495547.0 0
242000.0 495547.0 0
246000.0 495547.0 0
250000.0 495547.0 0
254000.0 495547.0 0
258000.0 495547.0 0
262000.0 495547.0 0
266000.0 495547.0 0
270000.0 495547.0 0
274000.0 495547.0 0
278000.0 495547.0 0
282000.0 495547.0 0
286000.0 495547.0 0
290000.0 495547.0 0
294000.0 495547.0 0
298000.0 495547.0 0
302000.0 495547.0 0
306000.0 495547.0 0
310000.0 495547.0 0
314000.0 495547.0 0
318000.0 495547.0 0
322000.0 495547.0 0
326000.0 495547.0 0
330000.0 495547.0 0
334000.0 495547.0 0
338000.0 495547.0 0
342000.0 495547.0 0
346000.0 495555.0 0
350000.0 495547.0 0
354000.0 495610.0 0
358000.0 495550.0 0
362000.0 495697.0 0
366000.0 495554.0 0
370000.0 495714.0 0
374000.0 495628.0 0
378000.0 495787.0 0
382000.0 495648.0 0
386000.0 495708.0 0
390000.0 495729.0 0
394000.0 495761.0 0
398000.0 495763.0 0
102000.0 499749.0 0
106000.0 499747.0 0
110000.0 499717.0 0
114000.0 499696.0 0
118000.0 499638.0 0
122000.0 499765.0 0
126000.0 499613.0 0
130000.0 499699.0 0
134000.0 499554.0 0
138000.0 499680.0 0
142000.0 499549.0 0
146000.0 499598.0 0
150000.0 499547.0 0
154000.0 499552.0 0
158000.0 499547.0 0
162000.0 499547.0 0
166000.0 499547.0 0
170000.0 499547.0 0
174000.0 499547.0 0
178000.0 499547.0 0
182000.0 499547.0 0
186000.0 499547.0 0
190000.0 499547.0 0
194000.0 499547.0 0
198000.0 499547.0 0
202000.0 499547.0 0
206000.0 499547.0 0
210000.0 499547.0 0
214000.0 499547.0 0
218000.0 499547.0 0
222000.0 499547.0 0
226000.0 499547.0 0
230000.0 499547.0 0
234000.0 499547.0 0
238000.0 499547.0 0
242000.0 499547.0 0
246000.0 499547.0 0
250000.0 499547.0 0
254000.0 499547.0 0
258000.0 499547.0 0
262000.0 499547.0 0
266000.0 499547.0 0
270000.0 499547.0 0
274000.0 499547.0 0
278000.0 499547.0 0
282000.0 499547.0 0
286000.0 499547.0 0
290000.0 499547.0 0
294000.0 499547.0 0
298000.0 499547.0 0
302000.0 499547.0 0
306000.0 499547.0 0
310000.0 499547.0 0
314000.0 499547.0 0
318000.0 499547.0 0
322000.0 499547.0 0
326000.0 499547.0 0
330000.0 499547.0 0
334000.0 499547.0 0
338000.0 499547.0 0
342000.0 499547.0 0
346000.0 499552.0 0
350000.0 499547.0 0
354000.0 499598.0 0
358000.0 499549.0 0
362000.0 499680.0 0
366000.0 499554.0 0
370000.0 499699.0 0
374000.0 499613.0 0
378000.0 499765.0 0
382000.0 499638.0 0
386000.0 499696.0 0
390000.0 499717.0 0
394000.0 499747.0 0
398000.0 499749.0 0
102000.0 503736.0 0
106000.0 503733.0 0
110000.0 503704.0 0
114000.0 503684.0 0
118000.0 503629.0 0
122000.0 503745.0 0
126000.0 503600.0 0
130000.0 503684.0 0
134000.0 503553.0 0
138000.0 503663.0 0
142000.0 503549.0 0
146000.0 503588.0 0
150000.0 503547.0 0
154000.0 503550.0 0
158000.0 503547.0 0
162000.0 503547.0 0
166000.0 503547.0 0
170000.0 503547.0 0
174000.0 503547.0 0
178000.0 503547.0 0
182000.0 503547.0 0
186000.0 503547.0 0
190000.0 503547.0 0
194000.0 503547.0 0
198000.0 503547.0 0
202000.0 503547.0 0
206000.0 503547.0 0
210000.0 503547.0 0
214000.0 503547.0 0
218000.0 503547.0 0
222000.0 503547.0 0
226000.0 503547.0 0
230000.0 503547.0 0
234000.0 503547.0 0
238000.0 503547.0 0
242000.0 503547.0 0
246000.0 503547.0 0
250000.0 503547.0 0
254000.0 503547.0 0
258000.0 503547.0 0
262000.0 503547.0 0
266000.0 503547.0 0
270000.0 503547.0 0
274000.0 503547.0 0
278000.0 503547.0 0
282000.0 503547.0 0
286000.0 503547.0 0
290000.0 503547.0 0
294000.0 503547.0 0
298000.0 503547.0 0
302000.0 503547.0 0
306000.0 503547.0 0
310000.0 503547.0 0
314000.0 503547.0 0
318000.0 503547.0 0
322000.0 503547.0 0
326000.0 503547.0 0
330000.0 503547.0 0
334000.0 503547.0 0
338000.0 503547.0 0
342000.0 503547.0 0
346000.0 503550.0 0
350000.0 503547.0 0
354000.0 503588.0 0
358000.0 503549.0 0
362000.0 503663.0 0
366000.0 503553.0 0
370000.0 503684.0 0
374000.0 503600.0 0
378000.0 503745.0 0
382000.0 503629.0 0
386000.0 503684.0 0
390000.0 503704.0 0
394000.0 503733.0 0
398000.0 503736.0 0
102000.0 507723.0 0
106000.0 507719.0 0
110000.0 507692.0 0
114000.0 507673.0 0
118000.0 507621.0 0
122000.0 507725.0 0
126000.0 507589.0 0
130000.0 507670.0 0
134000.0 507552.0 0
138000.0 507647.0 0
142000.0 507549.0 0
146000.0 507579.0 0
150000.0 507547.0 0
154000.0 507549.0 0
158000.0 507547.0 0
162000.0 507547.0 0
166000.0 507547.0 0
170000.0 507547.0 0
174000.0 507547.0 0
178000.0 507547.0 0
182000.0 507547.0 0
186000.0 507547.0 0
190000.0 507547.0 0
194000.0 507547.0 0
198000.0 507547.0 0
202000.0 507547.0 0
206000.0 507547.0 0
210000.0 507547.0 0
214000.0 507547.0 0
218000.0 507547.0 0
222000.0 507547.0 0
226000.0 507547.0 0
230000.0 507547.0 0
234000.0 507547.0 0
238000.0 507547.0 0
242000.0 507547.0 0
246000.0 507547.0 0
250000.0 507547.0 0
254000.0 507547.0 0
258000.0 507547.0 0
262000.0 507547.0 0
266000.0 507547.0 0
270000.0 507547.0 0
274000.0 507547.0 0
278000.0 507547.0 0
282000.0 507547.0 0
286000.0 507547.0 0
290000.0 507547.0 0
294000.0 507547.0 0
298000.0 507547.0 0
302000.0 507547.0 0
306000.0 507547.0 0
310000.0 507547.0 0
314000.0 507547.0 0
318000.0 507547.0 0
322000.0 507547.0 0
326000.0 507547.0 0
330000.0 507547.0 0
334000.0 507547.0 0
338000.0 507547.0 0
342000.0 507547.0 0
346000.0 507549.0 0
350000.0 507547.0 0
354000.0 507579.0 0
358000.0 507549.0 0
362000.0 507647.0 0
366000.0 507552.0 0
370000.0 507670.0 0
374000.0 507589.0 0
378000.0 507725.0 0
382000.0 507621.0 0
386000.0 507673.0 0
390000.0 507692.0 0
394000.0 507719.0 0
398000.0 507723.0 0
102000.0 511711.0 0
106000.0 511705.0 0
110000.0 511680.0 0
114000.0 511661.0 0
118000.0 511614.0 0
122000.0 511706.0 0
126000.0 511581.0 0
130000.0 511657.0 0
134000.0 511552.0 0
138000.0 511633.0 0
142000.0 511548.0 0
146000.0 511572.0 0
150000.0 511547.0 0
154000.0 511548.0 0
158000.0 511547.0 0
162000.0 511547.0 0
166000.0 511547.0 0
170000.0 511547.0 0
174000.0 511547.0 0
178000.0 511547.0 0
182000.0 511547.0 0
186000.0 511547.0 0
190000.0 511547.0 0
194000.0 511547.0 0
198000.0 511547.0 0
202000.0 511547.0 0
206000.0 511547.0 0
210000.0 511547.0 0
214000.0 511547.0 0
218000.0 511547.0 0
222000.0 511547.0 0
226000.0 511547.0 0
230000.0 511547.0 0
234000.0 511547.0 0
238000.0 511547.0 0
242000.0 511547.0 0
246000.0 511547.0 0
250000.0 511547.0 0
254000.0 511547.0 0
258000.0 511547.0 0
262000.0 511547.0 0
266000.0 511547.0 0
270000.0 511547.0 0
274000.0 511547.0 0
278000.0 511547.0 0
282000.0 511547.0 0
286000.0 511547.0 0
290000.0 511547.0 0
294000.0 511547.0 0
298000.0 511547.0 0
302000.0 511547.0 0
306000.0 511547.0 0
310000.0 511547.0 0
314000.0 511547.0 0
318000.0 511547.0 0
322000.0 511547.0 0
326000.0 511547.0 0
330000.0 511547.0 0
334000.0 511547.0 0
338000.0 511547.0 0
342000.0 511547.0 0
346000.0 511548.0 0
350000.0 511547.0 0
354000.0 511572.0 0
358000.0 511548.0 0
362000.0 511633.0 0
366000.0 511552.0 0
370000.0 511657.0 0
374000.0 511581.0 0
378000.0 511706.0 0
382000.0 511614.0 0
386000.0 511661.0 0
390000.0 511680.0 0
394000.0 511705.0 0
398000.0 511711.0 0
102000.0 515699.0 0
106000.0 515693.0 0
110000.0 515668.0 0
114000.0 515651.0 0
118000.0 515607.0 0
122000.0 515688.0 0
126000.0 515574.0 0
130000.0 515645.0 0
134000.0 515551.0 0
138000.0 515620.0 0
142000.0 515548.0 0
146000.0 515566.0 0
150000.0 515547.0 0
154000.0 515548.0 0
158000.0 515547.0 0
162000.0 515547.0 0
166000.0 515547.0 0
170000.0 515547.0 0
174000.0 515547.0 0
178000.0 515547.0 0
182000.0 515547.0 0
186000.0 515547.0 0
190000.0 515547.0 0
194000.0 515547.0 0
198000.0 515547.0 0
202000.0 515547.0 0
206000.0 515547.0 0
210000.0 515547.0 0
214000.0 515547.0 0
218000.0 515547.0 0
222000.0 515547.0 0
226000.0 515547.0 0
230000.0 515547.0 0
234000.0 515547.0 0
238000.0 515547.0 0
242000.0 515547.0 0
246000.0 515547.0 0
250000.0 515547.0 0
254000.0 515547.0 0
258000.0 515547.0 0
262000.0 515547.0 0
266000.0 515547.0 0
270000.0 515547.0 0
274000.0 515547.0 0
278000.0 515547.0 0
282000.0 515547.0 0
286000.0 515547.0 0
290000.0 515547.0 0
294000.0 515547.0 0
298000.0 515547.0 0
302000.0 515547.0 0
306000.0 515547.0 0
310000.0 515547.0 0
314000.0 515547.0 0
318000.0 515547.0 0
322000.0 515547.0 0
326000.0 515547.0 0
330000.0 515547.0 0
334000.0 515547.0 0
338000.0 515547.0 0
342000.0 515547.0 0
346000.0 515548.0 0
350000.0 515547.0 0
354000.0 515566.0 0
358000.0 515548.0 0
362000.0 515620.0 0
366000.0 515551.0 0
370000.0 515645.0 0
374000.0 515574.0 0
378000.0 515688.0 0
382000.0 515607.0 0
386000.0 515651.0 0
390000.0 515668.0 0
394000.0 515693.0 0
398000.0 515699.0 0
102000.0 519688.0 0
106000.0 519681.0 0
110000.0 519657.0 0
114000.0 519641.0 0
118000.0 519601.0 0
122000.0 519672.0 0
126000.0 519568.0 0
130000.0 519634.0 0
134000.0 519551.0 0
138000.0 519609.0 0
142000.0 519548.0 0
146000.0 519562.0 0
150000.0 519547.0 0
154000.0 519547.0 0
158000.0 519547.0 0
162000.0 519547.0 0
166000.0 519547.0 0
170000.0 519547.0 0
174000.0 519547.0 0
178000.0 519547.0 0
182000.0 519547.0 0
186000.0 519547.0 0
190000.0 519547.0 0
194000.0 519547.0 0
198000.0 519547.0 0
202000.0 519547.0 0
206000.0 519547.0 0
210000.0 519547.0 0
214000.0 519547.0 0
218000.0 519547.0 0
222000.0 519547.0 0
226000.0 519547.0 0
230000.0 519547.0 0
234000.0 519547.0 0
238000.0 519547.0 0
242000.0 519547.0 0
246000.0 519547.0 0
250000.0 519547.0 0
254000.0 519547.0 0
258000.0 519547.0 0
262000.0 519547.0 0
266000.0 519547.0 0
270000.0 519547.0 0
274000.0 519547.0 0
278000.0 519547.0 0
282000.0 519547.0 0
286000.0 519547.0 0
290000.0 519547.0 0
294000.0 519547.0 0
298000.0 519547.0 0
302000.0 519547.0 0
306000.0 519547.0 0
310000.0 519547.0 0
314000.0 519547.0 0
318000.0 519547.0 0
322000.0 519547.0 0
326000.0 519547.0 0
330000.0 519547.0 0
334000.0 519547.0 0
338000.0 519547.0 0
342000.0 519547.0 0
346000.0 519547.0 0
350000.0 519547.0 0
354000.0 519562.0 0
358000.0 519548.0 0
362000.0 519609.0 0
366000.0 519551.0 0
370000.0 519634.0 0
374000.0 519568.0 0
378000.0 519672.0 0
382000.0 519601.0 0
386000.0 519641.0 0
390000.0 519657.0 0
394000.0 519681.0 0
398000.0 519688.0 0
102000.0 523677.0 0
106000.0 523670.0 0
110000.0 523647.0 0
114000.0 523632.0 0
118000.0 523595.0 0
122000.0 523657.0 0
126000.0 523564.0 0
130000.0 523623.0 0
134000.0 523550.0 0
138000.0 523599.0 0
142000.0 523548.0 0
146000.0 523558.0 0
150000.0 523547.0 0
154000.0 523547.0 0
158000.0 523547.0 0
162000.0 523547.0 0
166000.0 523547.0 0
170000.0 523547.0 0
174000.0 523547.0 0
178000.0 523547.0 0
182000.0 523547.0 0
186000.0 523547.0 0
190000.0 523547.0 0
194000.0 523547.0 0
198000.0 523547.0 0
202000.0 523547.0 0
206000.0 523547.0 0
210000.0 523547.0 0
214000.0 523547.0 0
218000.0 523547.0 0
222000.0 523547.0 0
226000.0 523547.0 0
230000.0 523547.0 0
234000.0 523547.0 0
238000.0 523547.0 0
242000.0 523547.0 0
246000.0 523547.0 0
250000.0 523547.0 0
254000.0 523547.0 0
258000.0 523547.0 0
262000.0 523547.0 0
266000.0 523547.0 0
270000.0 523547.0 0
274000.0 523547.0 0
278000.0 523547.0 0
282000.0 523547.0 0
286000.0 523547.0 0
290000.0 523547.0 0
294000.0 523547.0 0
298000.0 523547.0 0
302000.0 523547.0 0
306000.0 523547.0 0
310000.0 523547.0 0
314000.0 523547.0 0
318000.0 523547.0 0
322000.0 523547.0 0
326000.0 523547.0 0
330000.0 523547.0 0
334000.0 523547.0 0
338000.0 523547.0 0
342000.0 523547.0 0
346000.0 523547.0 0
350000.0 523547.0 0
354000.0 523558.0 0
358000.0 523548.0 0
362000.0 523599.0 0
366000.0 523550.0 0
370000.0 523623.0 0
374000.0 523564.0 0
378000.0 523657.0 0
382000.0 523595.0 0
386000.0 523632.0 0
390000.0 523647.0 0
394000.0 523670.0 0
398000.0 523677.0 0
102000.0 527667.0 0
106000.0 527659.0 0
110000.0 527637.0 0
114000.0 527624.0 0
118000.0 527590.0 0
122000.0 527643.0 0
126000.0 527560.0 0
130000.0 527614.0 0
134000.0 527550.0 0
138000.0 527590.0 0
142000.0 527547.0 0
146000.0 527555.0 0
150000.0 527547.0 0
154000.0 527547.0 0
158000.0 527547.0 0
162000.0 527547.0 0
166000.0 527547.0 0
170000.0 527547.0 0
174000.0 527547.0 0
178000.0 527547.0 0
182000.0 527547.0 0
186000.0 527547.0 0
190000.0 527547.0 0
194000.0 527547.0 0
198000.0 527547.0 0
202000.0 527547.0 0
206000.0 527547.0 0
210000.0 527547.0 0
214000.0 527547.0 0
218000.0 527547.0 0
222000.0 527547.0 0
226000.0 527547.0 0
230000.0 527547.0 0
234000.0 527547.0 0
238000.0 527547.0 0
242000.0 527547.0 0
246000.0 527547.0 0
250000.0 527547.0 0
254000.0 527547.0 0
258000.0 527547.0 0
262000.0 527547.0 0
266000.0 527547.0 0
270000.0 527547.0 0
274000.0 527547.0 0
278000.0 527547.0 0
282000.0 527547.0 0
286000.0 527547.0 0
290000.0 527547.0 0
294000.0 527547.0 0
298000.0 527547.0 0
302000.0 527547.0 0
306000.0 527547.0 0
310000.0 527547.0 0
314000.0 527547.0 0
318000.0 527547.0 0
322000.0 527547.0 0
326000.0 527547.0 0
330000.0 527547.0 0
334000.0 527547.0 0
338000.0 527547.0 0
342000.0 527547.0 0
346000.0 527547.0 0
350000.0 527547.0 0
354000.0 527555.0 0
358000.0 527547.0 0
362000.0 527590.0 0
366000.0 527550.0 0
370000.0 527614.0 0
374000.0 527560.0 0
378000.0 527643.0 0
382000.0 527590.0 0
386000.0 527624.0 0
390000.0 527637.0 0
394000.0 527659.0 0
398000.0 527667.0 0
102000.0 531658.0 0
106000.0 531650.0 0
110000.0 531628.0 0
114000.0 531616.0 0
118000.0 531585.0 0
122000.0 531630.0 0
126000.0 531557.0 0
130000.0 531605.0 0
134000.0 531549.0 0
138000.0 531582.0 0
142000.0 531547.0 0
146000.0 531553.0 0
150000.0 531547.0 0
154000.0 531547.0 0
158000.0 531547.0 0
162000.0 531547.0 0
166000.0 531547.0 0
170000.0 531547.0 0
174000.0 531547.0 0
178000.0 531547.0 0
182000.0 531547.0 0
186000.0 531547.0 0
190000.0 531547.0 0
194000.0 531547.0 0
198000.0 531547.0 0
202000.0 531547.0 0
206000.0 531547.0 0
210000.0 531547.0 0
214000.0 531547.0 0
218000.0 531547.0 0
222000.0 531547.0 0
226000.0 531547.0 0
230000.0 531547.0 0
234000.0 531547.0 0
238000.0 531547.0 0
242000.0 531547.0 0
246000.0 531547.0 0
250000.0 531547.0 0
254000.0 531547.0 0
258000.0 531547.0 0
262000.0 531547.0 0
266000.0 531547.0 0
270000.0 531547.0 0
274000.0 531547.0 0
278000.0 531547.0 0
282000.0 531547.0 0
286000.0 531547.0 0
290000.0 531547.0 0
294000.0 531547.0 0
298000.0 531547.0 0
302000.0 531547.0 0
306000.0 531547.0 0
310000.0 531547.0 0
314000.0 531547.0 0
318000.0 531547.0 0
322000.0 531547.0 0
326000.0 531547.0 0
330000.0 531547.0 0
334000.0 531547.0 0
338000.0 531547.0 0
342000.0 531547.0 0
346000.0 531547.0 0
350000.0 531547.0 0
354000.0 531553.0 0
358000.0 531547.0 0
362000.0 531582.0 0
366000.0 531549.0 0
370000.0 531605.0 0
374000.0 531557.0 0
378000.0 531630.0 0
382000.0 531585.0 0
386000.0 531616.0 0
390000.0 531628.0 0
394000.0 531650.0 0
398000.0 531658.0 0
102000.0 535649.0 0
106000.0 535641.0 0
110000.0 535620.0 0
114000.0 535609.0 0
118000.0 535580.0 0
122000.0 535619.0 0
126000.0 535555.0 0
130000.0 535597.0 0
134000.0 535549.0 0
138000.0 535575.0 0
142000.0 535547.0 0
146000.0 535551.0 0
150000.0 535547.0 0
154000.0 535547.0 0
158000.0 535547.0 0
162000.0 535547.0 0
166000.0 535547.0 0
170000.0 535547.0 0
174000.0 535547.0 0
178000.0 535547.0 0
182000.0 535547.0 0
186000.0 535547.0 0
190000.0 535547.0 0
194000.0 535547.0 0
198000.0 535547.0 0
202000.0 535547.0 0
206000.0 535547.0 0
210000.0 535547.0 0
214000.0 535547.0 0
218000.0 535547.0 0
222000.0 535547.0 0
226000.0 535547.0 0
230000.0 535547.0 0
234000.0 535547.0 0
238000.0 535547.0 0
242000.0 535547.0 0
246000.0 535547.0 0
250000.0 535547.0 0
254000.0 535547.0 0
258000.0 535547.0 0
262000.0 535547.0 0
266000.0 535547.0 0
270000.0 535547.0 0
274000.0 535547.0 0
278000.0 535547.0 0
282000.0 535547.0 0
286000.0 535547.0 0
290000.0 535547.0 0
294000.0 535547.0 0
298000.0 535547.0 0
302000.0 535547.0 0
306000.0 535547.0 0
310000.0 535547.0 0
314000.0 535547.0 0
318000.0 535547.0 0
322000.0 535547.0 0
326000.0 535547.0 0
330000.0 535547.0 0
334000.0 535547.0 0
338000.0 535547.0 0
342000.0 535547.0 0
346000.0 535547.0 0
350000.0 535547.0 0
354000.0 535551.0 0
358000.0 535547.0 0
362000.0 535575.0 0
366000.0 535549.0 0
370000.0 535597.0 0
374000.0 535555.0 0
378000.0 535619.0 0
382000.0 535580.0 0
386000.0 535609.0 0
390000.0 535620.0 0
394000.0 535641.0 0
398000.0 535649.0 0
126000.0 539553.0 0
134000.0 539548.0 0
138000.0 539570.0 0
142000.0 539547.0 0
146000.0 539550.0 0
150000.0 539547.0 0
154000.0 539547.0 0
158000.0 539547.0 0
162000.0 539547.0 0
166000.0 539547.0 0
170000.0 539547.0 0
174000.0 539547.0 0
178000.0 539547.0 0
182000.0 539547.0 0
186000.0 539547.0 0
190000.0 539547.0 0
194000.0 539547.0 0
198000.0 539547.0 0
202000.0 539547.0 0
206000.0 539547.0 0
210000.0 539547.0 0
214000.0 539547.0 0
218000.0 539547.0 0
222000.0 539547.0 0
226000.0 539547.0 0
230000.0 539547.0 0
234000.0 539547.0 0
238000.0 539547.0 0
242000.0 539547.0 0
246000.0 539547.0 0
250000.0 539547.0 0
254000.0 539547.0 0
258000.0 539547.0 0
262000.0 539547.0 0
266000.0 539547.0 0
270000.0 539547.0 0
274000.0 539547.0 0
278000.0 539547.0 0
282000.0 539547.0 0
286000.0 539547.0 0
290000.0 539547.0 0
294000.0 539547.0 0
298000.0 539547.0 0
302000.0 539547.0 0
306000.0 539547.0 0
310000.0 539547.0 0
314000.0 539547.0 0
318000.0 539547.0 0
322000.0 539547.0 0
326000.0 539547.0 0
330000.0 539547.0 0
334000.0 539547.0 0
338000.0 539547.0 0
342000.0 539547.0 0
346000.0 539547.0 0
350000.0 539547.0 0
354000.0 539550.0 0
358000.0 539547.0 0
362000.0 539570.0 0
366000.0 539548.0 0
374000.0 539553.0 0
102000.0 539641.0 0
106000.0 539633.0 0
110000.0 539612.0 0
114000.0 539603.0 0
118000.0 539576.0 0
122000.0 539609.0 0
130000.0 539590.0 0
370000.0 539590.0 0
378000.0 539609.0 0
382000.0 539576.0 0
386000.0 539603.0 0
390000.0 539612.0 0
394000.0 539633.0 0
398000.0 539641.0 0
102000.0 543633.0 0
106000.0 543625.0 0
110000.0 543606.0 0
114000.0 543597.0 0
118000.0 543572.0 0
122000.0 543600.0 0
126000.0 543552.0 0
130000.0 543584.0 0
134000.0 543548.0 0
138000.0 543565.0 0
142000.0 543547.0 0
146000.0 543549.0 0
150000.0 543547.0 0
154000.0 543547.0 0
158000.0 543547.0 0
162000.0 543547.0 0
166000.0 543547.0 0
170000.0 543547.0 0
174000.0 543547.0 0
178000.0 543547.0 0
182000.0 543547.0 0
186000.0 543547.0 0
190000.0 543547.0 0
194000.0 543547.0 0
198000.0 543547.0 0
202000.0 543547.0 0
206000.0 543547.0 0
210000.0 543547.0 0
214000.0 543547.0 0
218000.0 543547.0 0
222000.0 543547.0 0
226000.0 543547.0 0
230000.0 543547.0 0
234000.0 543547.0 0
238000.0 543547.0 0
242000.0 543547.0 0
246000.0 543547.0 0
250000.0 543547.0 0
254000.0 543547.0 0
258000.0 543547.0 0
262000.0 543547.0 0
266000.0 543547.0 0
270000.0 543547.0 0
274000.0 543547.0 0
278000.0 543547.0 0
282000.0 543547.0 0
286000.0 543547.0 0
290000.0 543547.0 0
294000.0 543547.0 0
298000.0 543547.0 0
302000.0 543547.0 0
306000.0 543547.0 0
310000.0 543547.0 0
314000.0 543547.0 0
318000.0 543547.0 0
322000.0 543547.0 0
326000.0 543547.0 0
330000.0 543547.0 0
334000.0 543547.0 0
338000.0 543547.0 0
342000.0 543547.0 0
346000.0 543547.0 0
350000.0 543547.0 0
354000.0 543549.0 0
358000.0 543547.0 0
362000.0 543565.0 0
366000.0 543548.0 0
370000.0 543584.0 0
374000.0 543552.0 0
378000.0 543600.0 0
382000.0 543572.0 0
386000.0 543597.0 0
390000.0 543606.0 0
394000.0 543625.0 0
398000.0 543633.0 0
102000.0 547626.0 0
106000.0 547618.0 0
110000.0 547599.0 0
114000.0 547592.0 0
118000.0 547569.0 0
122000.0 547592.0 0
126000.0 547551.0 0
130000.0 547578.0 0
134000.0 547548.0 0
138000.0 547561.0 0
142000.0 547547.0 0
146000.0 547548.0 0
150000.0 547547.0 0
154000.0 547547.0 0
158000.0 547547.0 0
162000.0 547547.0 0
166000.0 547547.0 0
170000.0 547547.0 0
174000.0 547547.0 0
178000.0 547547.0 0
182000.0 547547.0 0
186000.0 547547.0 0
190000.0 547547.0 0
194000.0 547547.0 0
198000.0 547547.0 0
202000.0 547547.0 0
206000.0 547547.0 0
210000.0 547547.0 0
214000.0 547547.0 0
218000.0 547547.0 0
222000.0 547547.0 0
226000.0 547547.0 0
230000.0 547547.0 0
234000.0 547547.0 0
238000.0 547547.0 0
242000.0 547547.0 0
246000.0 547547.0 0
250000.0 547547.0 0
254000.0 547547.0 0
258000.0 547547.0 0
262000.0 547547.0 0
266000.0 547547.0 0
270000.0 547547.0 0
274000.0 547547.0 0
278000.0 547547.0 0
282000.0 547547.0 0
286000.0 547547.0 0
290000.0 547547.0 0
294000.0 547547.0 0
298000.0 547547.0 0
302000.0 547547.0 0
306000.0 547547.0 0
310000.0 547547.0 0
314000.0 547547.0 0
318000.0 547547.0 0
322000.0 547547.0 0
326000.0 547547.0 0
330000.0 547547.0 0
334000.0 547547.0 0
338000.0 547547.0 0
342000.0 547547.0 0
346000.0 547547.0 0
350000.0 547547.0 0
354000.0 547548.0 0
358000.0 547547.0 0
362000.0 547561.0 0
366000.0 547548.0 0
370000.0 547578.0 0
374000.0 547551.0 0
378000.0 547592.0 0
382000.0 547569.0 0
386000.0 547592.0 0
390000.0 547599.0 0
394000.0 547618.0 0
398000.0 547626.0 0
102000.0 551619.0 0
106000.0 551612.0 0
110000.0 551593.0 0
114000.0 551587.0 0
118000.0 551566.0 0
122000.0 551585.0 0
126000.0 551550.0 0
130000.0 551573.0 0
134000.0 551548.0 0
138000.0 551558.0 0
142000.0 551547.0 0
146000.0 551548.0 0
150000.0 551547.0 0
154000.0 551547.0 0
158000.0 551547.0 0
162000.0 551547.0 0
166000.0 551547.0 0
170000.0 551547.0 0
174000.0 551547.0 0
178000.0 551547.0 0
182000.0 551547.0 0
186000.0 551547.0 0
190000.0 551547.0 0
194000.0 551547.0 0
198000.0 551547.0 0
202000.0 551547.0 0
206000.0 551547.0 0
210000.0 551547.0 0
214000.0 551547.0 0
218000.0 551547.0 0
222000.0 551547.0 0
226000.0 551547.0 0
230000.0 551547.0 0
234000.0 551547.0 0
238000.0 551547.0 0
242000.0 551547.0 0
246000.0 551547.0 0
250000.0 551547.0 0
254000.0 551547.0 0
258000.0 551547.0 0
262000.0 551547.0 0
266000.0 551547.0 0
270000.0 551547.0 0
274000.0 551547.0 0
278000.0 551547.0 0
282000.0 551547.0 0
286000.0 551547.0 0
290000.0 551547.0 0
294000.0 551547.0 0
298000.0 551547.0 0
302000.0 551547.0 0
306000.0 551547.0 0
310000.0 551547.0 0
314000.0 551547.0 0
318000.0 551547.0 0
322000.0 551547.0 0
326000.0 551547.0 0
330000.0 551547.0 0
334000.0 551547.0 0
338000.0 551547.0 0
342000.0 551547.0 0
346000.0 551547.0 0
350000.0 551547.0 0
354000.0 551548.0 0
358000.0 551547.0 0
362000.0 551558.0 0
366000.0 551548.0 0
370000.0 551573.0 0
374000.0 551550.0 0
378000.0 551585.0 0
382000.0 551566.0 0
386000.0 551587.0 0
390000.0 551593.0 0
394000.0 551612.0 0
398000.0 551619.0 0
102000.0 555613.0 0
106000.0 555606.0 0
110000.0 555588.0 0
114000.0 555582.0 0
118000.0 555563.0 0
122000.0 555579.0 0
126000.0 555549.0 0
130000.0 555569.0 0
134000.0 555547.0 0
138000.0 555556.0 0
142000.0 555547.0 0
146000.0 555547.0 0
150000.0 555547.0 0
154000.0 555547.0 0
158000.0 555547.0 0
162000.0 555547.0 0
166000.0 555547.0 0
170000.0 555547.0 0
174000.0 555547.0 0
178000.0 555547.0 0
182000.0 555547.0 0
186000.0 555547.0 0
190000.0 555547.0 0
194000.0 555547.0 0
198000.0 555547.0 0
202000.0 555547.0 0
206000.0 555547.0 0
210000.0 555547.0 0
214000.0 555547.0 0
218000.0 555547.0 0
222000.0 555547.0 0
226000.0 555547.0 0
230000.0 555547.0 0
234000.0 555547.0 0
238000.0 555547.0 0
242000.0 555547.0 0
246000.0 555547.0 0
250000.0 555547.0 0
254000.0 555547.0 0
258000.0 555547.0 0
262000.0 555547.0 0
266000.0 555547.0 0
270000.0 555547.0 0
274000.0 555547.0 0
278000.0 555547.0 0
282000.0 555547.0 0
286000.0 555547.0 0
290000.0 555547.0 0
294000.0 555547.0 0
298000.0 555547.0 0
302000.0 555547.0 0
306000.0 555547.0 0
310000.0 555547.0 0
314000.0 555547.0 0
318000.0 555547.0 0
322000.0 555547.0 0
326000.0 555547.0 0
330000.0 555547.0 0
334000.0 555547.0 0
338000.0 555547.0 0
342000.0 555547.0 0
346000.0 555547.0 0
350000.0 555547.0 0
354000.0 555547.0 0
358000.0 555547.0 0
362000.0 555556.0 0
366000.0 555547.0 0
370000.0 555569.0 0
374000.0 555549.0 0
378000.0 555579.0 0
382000.0 555563.0 0
386000.0 555582.0 0
390000.0 555588.0 0
394000.0 555606.0 0
398000.0 555613.0 0
102000.0 559607.0 0
106000.0 559600.0 0
110000.0 559584.0 0
114000.0 559578.0 0
118000.0 559561.0 0
122000.0 559574.0 0
126000.0 559549.0 0
130000.0 559565.0 0
134000.0 559547.0 0
138000.0 559554.0 0
142000.0 559547.0 0
146000.0 559547.0 0
150000.0 559547.0 0
154000.0 559547.0 0
158000.0 559547.0 0
162000.0 559547.0 0
166000.0 559547.0 0
170000.0 559547.0 0
174000.0 559547.0 0
178000.0 559547.0 0
182000.0 559547.0 0
186000.0 559547.0 0
190000.0 559547.0 0
194000.0 559547.0 0
198000.0 559547.0 0
202000.0 559547.0 0
206000.0 559547.0 0
210000.0 559547.0 0
214000.0 559547.0 0
218000.0 559547.0 0
222000.0 559547.0 0
226000.0 559547.0 0
230000.0 559547.0 0
234000.0 559547.0 0
238000.0 559547.0 0
242000.0 559547.0 0
246000.0 559547.0 0
250000.0 559547.0 0
254000.0 559547.0 0
258000.0 559547.0 0
262000.0 559547.0 0
266000.0 559547.0 0
270000.0 559547.0 0
274000.0 559547.0 0
278000.0 559547.0 0
282000.0 559547.0 0
286000.0 559547.0 0
290000.0 559547.0 0
294000.0 559547.0 0
298000.0 559547.0 0
302000.0 559547.0 0
306000.0 559547.0 0
310000.0 559547.0 0
314000.0 559547.0 0
318000.0 559547.0 0
322000.0 559547.0 0
326000.0 559547.0 0
330000.0 559547.0 0
334000.0 559547.0 0
338000.0 559547.0 0
342000.0 559547.0 0
346000.0 559547.0 0
350000.0 559547.0 0
354000.0 559547.0 0
358000.0 559547.0 0
362000.0 559554.0 0
366000.0 559547.0 0
370000.0 559565.0 0
374000.0 559549.0 0
378000.0 559574.0 0
382000.0 559561.0 0
386000.0 559578.0 0
390000.0 559584.0 0
394000.0 559600.0 0
398000.0 559607.0 0
102000.0 563601.0 0
106000.0 563595.0 0
110000.0 563579.0 0
114000.0 563575.0 0
118000.0 563559.0 0
122000.0 563570.0 0
126000.0 563548.0 0
130000.0 563562.0 0
134000.0 563547.0 0
138000.0 563552.0 0
142000.0 563547.0 0
146000.0 563547.0 0
150000.0 563547.0 0
154000.0 563547.0 0
158000.0 563547.0 0
162000.0 563547.0 0
166000.0 563547.0 0
170000.0 563547.0 0
174000.0 563547.0 0
178000.0 563547.0 0
182000.0 563547.0 0
186000.0 563547.0 0
190000.0 563547.0 0
194000.0 563547.0 0
198000.0 563547.0 0
202000.0 563547.0 0
206000.0 563547.0 0
210000.0 563547.0 0
214000.0 563547.0 0
218000.0 563547.0 0
222000.0 563547.0 0
226000.0 563547.0 0
230000.0 563547.0 0
234000.0 563547.0 0
238000.0 563547.0 0
242000.0 563547.0 0
246000.0 563547.0 0
250000.0 563547.0 0
254000.0 563547.0 0
258000.0 563547.0 0
262000.0 563547.0 0
266000.0 563547.0 0
270000.0 563547.0 0
274000.0 563547.0 0
278000.0 563547.0 0
282000.0 563547.0 0
286000.0 563547.0 0
290000.0 563547.0 0
294000.0 563547.0 0
298000.0 563547.0 0
302000.0 563547.0 0
306000.0 563547.0 0
310000.0 563547.0 0
314000.0 563547.0 0
318000.0 563547.0 0
322000.0 563547.0 0
326000.0 563547.0 0
330000.0 563547.0 0
334000.0 563547.0 0
338000.0 563547.0 0
342000.0 563547.0 0
346000.0 563547.0 0
350000.0 563547.0 0
354000.0 563547.0 0
358000.0 563547.0 0
362000.0 563552.0 0
366000.0 563547.0 0
370000.0 563562.0 0
374000.0 563548.0 0
378000.0 563570.0 0
382000.0 563559.0 0
386000.0 563575.0 0
390000.0 563579.0 0
394000.0 563595.0 0
398000.0 563601.0 0
102000.0 567596.0 0
106000.0 567591.0 0
110000.0 567576.0 0
114000.0 567572.0 0
118000.0 567557.0 0
122000.0 567566.0 0
126000.0 567548.0 0
130000.0 567559.0 0
134000.0 567547.0 0
138000.0 567551.0 0
142000.0 567547.0 0
146000.0 567547.0 0
150000.0 567547.0 0
154000.0 567547.0 0
158000.0 567547.0 0
162000.0 567547.0 0
166000.0 567547.0 0
170000.0 567547.0 0
174000.0 567547.0 0
178000.0 567547.0 0
182000.0 567547.0 0
186000.0 567547.0 0
190000.0 567547.0 0
194000.0 567547.0 0
198000.0 567547.0 0
202000.0 567547.0 0
206000.0 567547.0 0
210000.0 567547.0 0
214000.0 567547.0 0
218000.0 567547.0 0
222000.0 567547.0 0
226000.0 567547.0 0
230000.0 567547.0 0
234000.0 567547.0 0
238000.0 567547.0 0
242000.0 567547.0 0
246000.0 567547.0 0
250000.0 567547.0 0
254000.0 567547.0 0
258000.0 567547.0 0
262000.0 567547.0 0
266000.0 567547.0 0
270000.0 567547.0 0
274000.0 567547.0 0
278000.0 567547.0 0
282000.0 567547.0 0
286000.0 567547.0 0
290000.0 567547.0 0
294000.0 567547.0 0
298000.0 567547.0 0
302000.0 567547.0 0
306000.0 567547.0 0
310000.0 567547.0 0
314000.0 567547.0 0
318000.0 567547.0 0
322000.0 567547.0 0
326000.0 567547.0 0
330000.0 567547.0 0
334000.0 567547.0 0
338000.0 567547.0 0
342000.0 567547.0 0
346000.0 567547.0 0
350000.0 567547.0 0
354000.0 567547.0 0
358000.0 567547.0 0
362000.0 567551.0 0
366000.0 567547.0 0
370000.0 567559.0 0
374000.0 567548.0 0
378000.0 567566.0 0
382000.0 567557.0 0
386000.0 567572.0 0
390000.0 567576.0 0
394000.0 567591.0 0
398000.0 567596.0 0
102000.0 571591.0 0
106000.0 571586.0 0
110000.0 571572.0 0
114000.0 571569.0 0
118000.0 571555.0 0
122000.0 571563.0 0
126000.0 571548.0 0
130000.0 571557.0 0
134000.0 571547.0 0
138000.0 571550.0 0
142000.0 571547.0 0
146000.0 571547.0 0
150000.0 571547.0 0
154000.0 571547.0 0
158000.0 571547.0 0
162000.0 571547.0 0
166000.0 571547.0 0
170000.0 571547.0 0
174000.0 571547.0 0
178000.0 571547.0 0
182000.0 571547.0 0
186000.0 571547.0 0
190000.0 571547.0 0
194000.0 571547.0 0
198000.0 571547.0 0
202000.0 571547.0 0
206000.0 571547.0 0
210000.0 571547.0 0
214000.0 571547.0 0
218000.0 571547.0 0
222000.0 571547.0 0
226000.0 571547.0 0
230000.0 571547.0 0
234000.0 571547.0 0
238000.0 571547.0 0
242000.0 571547.0 0
246000.0 571547.0 0
250000.0 571547.0 0
254000.0 571547.0 0
258000.0 571547.0 0
262000.0 571547.0 0
266000.0 571547.0 0
270000.0 571547.0 0
274000.0 571547.0 0
278000.0 571547.0 0
282000.0 571547.0 0
286000.0 571547.0 0
290000.0 571547.0 0
294000.0 571547.0 0
298000.0 571547.0 0
302000.0 571547.0 0
306000.0 571547.0 0
310000.0 571547.0 0
314000.0 571547.0 0
318000.0 571547.0 0
322000.0 571547.0 0
326000.0 571547.0 0
330000.0 571547.0 0
334000.0 571547.0 0
338000.0 571547.0 0
342000.0 571547.0 0
346000.0 571547.0 0
350000.0 571547.0 0
354000.0 571547.0 0
358000.0 571547.0 0
362000.0 571550.0 0
366000.0 571547.0 0
370000.0 571557.0 0
374000.0 571548.0 0
378000.0 571563.0 0
382000.0 571555.0 0
386000.0 571569.0 0
390000.0 571572.0 0
394000.0 571586.0 0
398000.0 571591.0 0
102000.0 575587.0 0
106000.0 575582.0 0
110000.0 575569.0 0
114000.0 575566.0 0
118000.0 575554.0 0
122000.0 575560.0 0
126000.0 575547.0 0
130000.0 575555.0 0
134000.0 575547.0 0
138000.0 575549.0 0
142000.0 575547.0 0
146000.0 575547.0 0
150000.0 575547.0 0
154000.0 575547.0 0
158000.0 575547.0 0
162000.0 575547.0 0
166000.0 575547.0 0
170000.0 575547.0 0
174000.0 575547.0 0
178000.0 575547.0 0
182000.0 575547.0 0
186000.0 575547.0 0
190000.0 575547.0 0
194000.0 575547.0 0
198000.0 575547.0 0
202000.0 575547.0 0
206000.0 575547.0 0
210000.0 575547.0 0
214000.0 575547.0 0
218000.0 575547.0 0
222000.0 575547.0 0
226000.0 575547.0 0
230000.0 575547.0 0
234000.0 575547.0 0
238000.0 575547.0 0
242000.0 575547.0 0
246000.0 575547.0 0
250000.0 575547.0 0
254000.0 575547.0 0
258000.0 575547.0 0
262000.0 575547.0 0
266000.0 575547.0 0
270000.0 575547.0 0
274000.0 575547.0 0
278000.0 575547.0 0
282000.0 575547.0 0
286000.0 575547.0 0
290000.0 575547.0 0
294000.0 575547.0 0
298000.0 575547.0 0
302000.0 575547.0 0
306000.0 575547.0 0
310000.0 575547.0 0
314000.0 575547.0 0
318000.0 575547.0 0
322000.0 575547.0 0
326000.0 575547.0 0
330000.0 575547.0 0
334000.0 575547.0 0
338000.0 575547.0 0
342000.0 575547.0 0
346000.0 575547.0 0
350000.0 575547.0 0
354000.0 575547.0 0
358000.0 575547.0 0
362000.0 575549.0 0
366000.0 575547.0 0
370000.0 575555.0 0
374000.0 575547.0 0
378000.0 575560.0 0
382000.0 575554.0 0
386000.0 575566.0 0
390000.0 575569.0 0
394000.0 575582.0 0
398000.0 575587.0 0
102000.0 579583.0 0
106000.0 579579.0 0
110000.0 579566.0 0
114000.0 579564.0 0
118000.0 579553.0 0
122000.0 579557.0 0
126000.0 579547.0 0
130000.0 579553.0 0
134000.0 579547.0 0
138000.0 579548.0 0
142000.0 579547.0 0
146000.0 579547.0 0
150000.0 579547.0 0
154000.0 579547.0 0
158000.0 579547.0 0
162000.0 579547.0 0
166000.0 579547.0 0
170000.0 579547.0 0
174000.0 579547.0 0
178000.0 579547.0 0
182000.0 579547.0 0
186000.0 579547.0 0
190000.0 579547.0 0
194000.0 579547.0 0
198000.0 579547.0 0
202000.0 579547.0 0
206000.0 579547.0 0
210000.0 579547.0 0
214000.0 579547.0 0
218000.0 579547.0 0
222000.0 579547.0 0
226000.0 579547.0 0
230000.0 579547.0 0
234000.0 579547.0 0
238000.0 579547.0 0
242000.0 579547.0 0
246000.0 579547.0 0
250000.0 579547.0 0
254000.0 579547.0 0
258000.0 579547.0 0
262000.0 579547.0 0
266000.0 579547.0 0
270000.0 579547.0 0
274000.0 579547.0 0
278000.0 579547.0 0
282000.0 579547.0 0
286000.0 579547.0 0
290000.0 579547.0 0
294000.0 579547.0 0
298000.0 579547.0 0
302000.0 579547.0 0
306000.0 579547.0 0
310000.0 579547.0 0
314000.0 579547.0 0
318000.0 579547.0 0
322000.0 579547.0 0
326000.0 579547.0 0
330000.0 579547.0 0
334000.0 579547.0 0
338000.0 579547.0 0
342000.0 579547.0 0
346000.0 579547.0 0
350000.0 579547.0 0
354000.0 579547.0 0
358000.0 579547.0 0
362000.0 579548.0 0
366000.0 579547.0 0
370000.0 579553.0 0
374000.0 579547.0 0
378000.0 579557.0 0
382000.0 579553.0 0
386000.0 579564.0 0
390000.0 579566.0 0
394000.0 579579.0 0
398000.0 579583.0 0
102000.0 583579.0 0
106000.0 583575.0 0
110000.0 583564.0 0
114000.0 583562.0 0
118000.0 583552.0 0
122000.0 583556.0 0
126000.0 583547.0 0
130000.0 583552.0 0
134000.0 583547.0 0
138000.0 583548.0 0
142000.0 583547.0 0
146000.0 583547.0 0
150000.0 583547.0 0
154000.0 583547.0 0
158000.0 583547.0 0
162000.0 583547.0 0
166000.0 583547.0 0
170000.0 583547.0 0
174000.0 583547.0 0
178000.0 583547.0 0
182000.0 583547.0 0
186000.0 583547.0 0
190000.0 583547.0 0
194000.0 583547.0 0
198000.0 583547.0 0
202000.0 583547.0 0
206000.0 583547.0 0
210000.0 583547.0 0
214000.0 583547.0 0
218000.0 583547.0 0
222000.0 583547.0 0
226000.0 583547.0 0
230000.0 583547.0 0
234000.0 583547.0 0
238000.0 583547.0 0
242000.0 583547.0 0
246000.0 583547.0 0
250000.0 583547.0 0
254000.0 583547.0 0
258000.0 583547.0 0
262000.0 583547.0 0
266000.0 583547.0 0
270000.0 583547.0 0
274000.0 583547.0 0
278000.0 583547.0 0
282000.0 583547.0 0
286000.0 583547.0 0
290000.0 583547.0 0
294000.0 583547.0 0
298000.0 583547.0 0
302000.0 583547.0 0
306000.0 583547.0 0
310000.0 583547.0 0
314000.0 583547.0 0
318000.0 583547.0 0
322000.0 583547.0 0
326000.0 583547.0 0
330000.0 583547.0 0
334000.0 583547.0 0
338000.0 583547.0 0
342000.0 583547.0 0
346000.0 583547.0 0
350000.0 583547.0 0
354000.0 583547.0 0
358000.0 583547.0 0
362000.0 583548.0 0
366000.0 583547.0 0
370000.0 583552.0 0
374000.0 583547.0 0
378000.0 583556.0 0
382000.0 583552.0 0
386000.0 583562.0 0
390000.0 583564.0 0
394000.0 583575.0 0
398000.0 583579.0 0
102000.0 587576.0 0
106000.0 587572.0 0
110000.0 587562.0 0
114000.0 587560.0 0
118000.0 587551.0 0
122000.0 587554.0 0
126000.0 587547.0 0
130000.0 587551.0 0
134000.0 587547.0 0
138000.0 587548.0 0
142000.0 587547.0 0
146000.0 587547.0 0
150000.0 587547.0 0
154000.0 587547.0 0
158000.0 587547.0 0
162000.0 587547.0 0
166000.0 587547.0 0
170000.0 587547.0 0
174000.0 587547.0 0
178000.0 587547.0 0
182000.0 587547.0 0
186000.0 587547.0 0
190000.0 587547.0 0
194000.0 587547.0 0
198000.0 587547.0 0
202000.0 587547.0 0
206000.0 587547.0 0
210000.0 587547.0 0
214000.0 587547.0 0
218000.0 587547.0 0
222000.0 587547.0 0
226000.0 587547.0 0
230000.0 587547.0 0
234000.0 587547.0 0
238000.0 587547.0 0
242000.0 587547.0 0
246000.0 587547.0 0
250000.0 587547.0 0
254000.0 587547.0 0
258000.0 587547.0 0
262000.0 587547.0 0
266000.0 587547.0 0
270000.0 587547.0 0
274000.0 587547.0 0
278000.0 587547.0 0
282000.0 587547.0 0
286000.0 587547.0 0
290000.0 587547.0 0
294000.0 587547.0 0
298000.0 587547.0 0
302000.0 587547.0 0
306000.0 587547.0 0
310000.0 587547.0 0
314000.0 587547.0 0
318000.0 587547.0 0
322000.0 587547.0 0
326000.0 587547.0 0
330000.0 587547.0 0
334000.0 587547.0 0
338000.0 587547.0 0
342000.0 587547.0 0
346000.0 587547.0 0
350000.0 587547.0 0
354000.0 587547.0 0
358000.0 587547.0 0
362000.0 587548.0 0
366000.0 587547.0 0
370000.0 587551.0 0
374000.0 587547.0 0
378000.0 587554.0 0
382000.0 587551.0 0
386000.0 587560.0 0
390000.0 587562.0 0
394000.0 587572.0 0
398000.0 587576.0 0
102000.0 591573.0 0
106000.0 591570.0 0
110000.0 591560.0 0
114000.0 591558.0 0
118000.0 591550.0 0
122000.0 591553.0 0
126000.0 591547.0 0
130000.0 591550.0 0
134000.0 591547.0 0
138000.0 591547.0 0
142000.0 591547.0 0
146000.0 591547.0 0
150000.0 591547.0 0
154000.0 591547.0 0
158000.0 591547.0 0
162000.0 591547.0 0
166000.0 591547.0 0
170000.0 591547.0 0
174000.0 591547.0 0
178000.0 591547.0 0
182000.0 591547.0 0
186000.0 591547.0 0
190000.0 591547.0 0
194000.0 591547.0 0
198000.0 591547.0 0
202000.0 591547.0 0
206000.0 591547.0 0
210000.0 591547.0 0
214000.0 591547.0 0
218000.0 591547.0 0
222000.0 591547.0 0
226000.0 591547.0 0
230000.0 591547.0 0
234000.0 591547.0 0
238000.0 591547.0 0
242000.0 591547.0 0
246000.0 591547.0 0
250000.0 591547.0 0
254000.0 591547.0 0
258000.0 591547.0 0
262000.0 591547.0 0
266000.0 591547.0 0
270000.0 591547.0 0
274000.0 591547.0 0
278000.0 591547.0 0
282000.0 591547.0 0
286000.0 591547.0 0
290000.0 591547.0 0
294000.0 591547.0 0
298000.0 591547.0 0
302000.0 591547.0 0
306000.0 591547.0 0
310000.0 591547.0 0
314000.0 591547.0 0
318000.0 591547.0 0
322000.0 591547.0 0
326000.0 591547.0 0
330000.0 591547.0 0
334000.0 591547.0 0
338000.0 591547.0 0
342000.0 591547.0 0
346000.0 591547.0 0
350000.0 591547.0 0
354000.0 591547.0 0
358000.0 591547.0 0
362000.0 591547.0 0
366000.0 591547.0 0
370000.0 591550.0 0
374000.0 591547.0 0
378000.0 591553.0 0
382000.0 591550.0 0
386000.0 591558.0 0
390000.0 591560.0 0
394000.0 591570.0 0
398000.0 591573.0 0
102000.0 595570.0 0
106000.0 595567.0 0
110000.0 595558.0 0
114000.0 595556.0 0
118000.0 595550.0 0
122000.0 595551.0 0
126000.0 595547.0 0
130000.0 595549.0 0
134000.0 595547.0 0
138000.0 595547.0 0
142000.0 595547.0 0
146000.0 595547.0 0
150000.0 595547.0 0
154000.0 595547.0 0
158000.0 595547.0 0
162000.0 595547.0 0
166000.0 595547.0 0
170000.0 595547.0 0
174000.0 595547.0 0
178000.0 595547.0 0
182000.0 595547.0 0
186000.0 595547.0 0
190000.0 595547.0 0
194000.0 595547.0 0
198000.0 595547.0 0
202000.0 595547.0 0
206000.0 595547.0 0
210000.0 595547.0 0
214000.0 595547.0 0
218000.0 595547.0 0
222000.0 595547.0 0
226000.0 595547.0 0
230000.0 595547.0 0
234000.0 595547.0 0
238000.0 595547.0 0
242000.0 595547.0 0
246000.0 595547.0 0
250000.0 595547.0 0
254000.0 595547.0 0
258000.0 595547.0 0
262000.0 595547.0 0
266000.0 595547.0 0
270000.0 595547.0 0
274000.0 595547.0 0
278000.0 595547.0 0
282000.0 595547.0 0
286000.0 595547.0 0
290000.0 595547.0 0
294000.0 595547.0 0
298000.0 595547.0 0
302000.0 595547.0 0
306000.0 595547.0 0
310000.0 595547.0 0
314000.0 595547.0 0
318000.0 595547.0 0
322000.0 595547.0 0
326000.0 595547.0 0
330000.0 595547.0 0
334000.0 595547.0 0
338000.0 595547.0 0
342000.0 595547.0 0
346000.0 595547.0 0
350000.0 595547.0 0
354000.0 595547.0 0
358000.0 595547.0 0
362000.0 595547.0 0
366000.0 595547.0 0
370000.0 595549.0 0
374000.0 595547.0 0
378000.0 595551.0 0
382000.0 595550.0 0
386000.0 595556.0 0
390000.0 595558.0 0
394000.0 595567.0 0
398000.0 595570.0 0
102000.0 599567.0 0
106000.0 599565.0 0
110000.0 599557.0 0
114000.0 599555.0 0
118000.0 599549.0 0
122000.0 599550.0 0
126000.0 599547.0 0
130000.0 599549.0 0
134000.0 599547.0 0
138000.0 599547.0 0
142000.0 599547.0 0
146000.0 599547.0 0
150000.0 599547.0 0
154000.0 599547.0 0
158000.0 599547.0 0
162000.0 599547.0 0
166000.0 599547.0 0
170000.0 599547.0 0
174000.0 599547.0 0
178000.0 599547.0 0
182000.0 599547.0 0
186000.0 599547.0 0
190000.0 599547.0 0
194000.0 599547.0 0
198000.0 599547.0 0
202000.0 599547.0 0
206000.0 599547.0 0
210000.0 599547.0 0
214000.0 599547.0 0
218000.0 599547.0 0
222000.0 599547.0 0
226000.0 599547.0 0
230000.0 599547.0 0
234000.0 599547.0 0
238000.0 599547.0 0
242000.0 599547.0 0
246000.0 599547.0 0
250000.0 599547.0 0
254000.0 599547.0 0
258000.0 599547.0 0
262000.0 599547.0 0
266000.0 599547.0 0
270000.0 599547.0 0
274000.0 599547.0 0
278000.0 599547.0 0
282000.0 599547.0 0
286000.0 599547.0 0
290000.0 599547.0 0
294000.0 599547.0 0
298000.0 599547.0 0
302000.0 599547.0 0
306000.0 599547.0 0
310000.0 599547.0 0
314000.0 599547.0 0
318000.0 599547.0 0
322000.0 599547.0 0
326000.0 599547.0 0
330000.0 599547.0 0
334000.0 599547.0 0
338000.0 599547.0 0
342000.0 599547.0 0
346000.0 599547.0 0
350000.0 599547.0 0
354000.0 599547.0 0
358000.0 599547.0 0
362000.0 599547.0 0
366000.0 599547.0 0
370000.0 599549.0 0
374000.0 599547.0 0
378000.0 599550.0 0
382000.0 599549.0 0
386000.0 599555.0 0
390000.0 599557.0 0
394000.0 599565.0 0
398000.0 599567.0 0
102000.0 603565.0 0
106000.0 603563.0 0
110000.0 603555.0 0
114000.0 603554.0 0
118000.0 603549.0 0
122000.0 603550.0 0
126000.0 603547.0 0
130000.0 603548.0 0
134000.0 603547.0 0
138000.0 603547.0 0
142000.0 603547.0 0
146000.0 603547.0 0
150000.0 603547.0 0
154000.0 603547.0 0
158000.0 603547.0 0
162000.0 603547.0 0
166000.0 603547.0 0
170000.0 603547.0 0
174000.0 603547.0 0
178000.0 603547.0 0
182000.0 603547.0 0
186000.0 603547.0 0
190000.0 603547.0 0
194000.0 603547.0 0
198000.0 603547.0 0
202000.0 603547.0 0
206000.0 603547.0 0
210000.0 603547.0 0
214000.0 603547.0 0
218000.0 603547.0 0
222000.0 603547.0 0
226000.0 603547.0 0
230000.0 603547.0 0
234000.0 603547.0 0
238000.0 603547.0 0
242000.0 603547.0 0
246000.0 603547.0 0
250000.0 603547.0 0
254000.0 603547.0 0
258000.0 603547.0 0
262000.0 603547.0 0
266000.0 603547.0 0
270000.0 603547.0 0
274000.0 603547.0 0
278000.0 603547.0 0
282000.0 603547.0 0
286000.0 603547.0 0
290000.0 603547.0 0
294000.0 603547.0 0
298000.0 603547.0 0
302000.0 603547.0 0
306000.0 603547.0 0
310000.0 603547.0 0
314000.0 603547.0 0
318000.0 603547.0 0
322000.0 603547.0 0
326000.0 603547.0 0
330000.0 603547.0 0
334000.0 603547.0 0
338000.0 603547.0 0
342000.0 603547.0 0
346000.0 603547.0 0
350000.0 603547.0 0
354000.0 603547.0 0
358000.0 603547.0 0
362000.0 603547.0 0
366000.0 603547.0 0
370000.0 603548.0 0
374000.0 603547.0 0
378000.0 603550.0 0
382000.0 603549.0 0
386000.0 603554.0 0
390000.0 603555.0 0
394000.0 603563.0 0
398000.0 603565.0 0
102000.0 607563.0 0
106000.0 607561.0 0
110000.0 607554.0 0
114000.0 607553.0 0
118000.0 607548.0 0
122000.0 607549.0 0
126000.0 607547.0 0
130000.0 607548.0 0
134000.0 607547.0 0
138000.0 607547.0 0
142000.0 607547.0 0
146000.0 607547.0 0
150000.0 607547.0 0
154000.0 607547.0 0
158000.0 607547.0 0
162000.0 607547.0 0
166000.0 607547.0 0
170000.0 607547.0 0
174000.0 607547.0 0
178000.0 607547.0 0
182000.0 607547.0 0
186000.0 607547.0 0
190000.0 607547.0 0
194000.0 607547.0 0
198000.0 607547.0 0
202000.0 607547.0 0
206000.0 607547.0 0
210000.0 607547.0 0
214000.0 607547.0 0
218000.0 607547.0 0
222000.0 607547.0 0
226000.0 607547.0 0
230000.0 607547.0 0
234000.0 607547.0 0
238000.0 607547.0 0
242000.0 607547.0 0
246000.0 607547.0 0
250000.0 607547.0 0
254000.0 607547.0 0
258000.0 607547.0 0
262000.0 607547.0 0
266000.0 607547.0 0
270000.0 607547.0 0
274000.0 607547.0 0
278000.0 607547.0 0
282000.0 607547.0 0
286000.0 607547.0 0
290000.0 607547.0 0
294000.0 607547.0 0
298000.0 607547.0 0
302000.0 607547.0 0
306000.0 607547.0 0
310000.0 607547.0 0
314000.0 607547.0 0
318000.0 607547.0 0
322000.0 607547.0 0
326000.0 607547.0 0
330000.0 607547.0 0
334000.0 607547.0 0
338000.0 607547.0 0
342000.0 607547.0 0
346000.0 607547.0 0
350000.0 607547.0 0
354000.0 607547.0 0
358000.0 607547.0 0
362000.0 607547.0 0
366000.0 607547.0 0
370000.0 607548.0 0
374000.0 607547.0 0
378000.0 607549.0 0
382000.0 607548.0 0
386000.0 607553.0 0
390000.0 607554.0 0
394000.0 607561.0 0
398000.0 607563.0 0
102000.0 611561.0 0
106000.0 611559.0 0
110000.0 611553.0 0
114000.0 611552.0 0
118000.0 611548.0 0
122000.0 611549.0 0
126000.0 611547.0 0
130000.0 611548.0 0
134000.0 611547.0 0
138000.0 611547.0 0
142000.0 611547.0 0
146000.0 611547.0 0
150000.0 611547.0 0
154000.0 611547.0 0
158000.0 611547.0 0
162000.0 611547.0 0
166000.0 611547.0 0
170000.0 611547.0 0
174000.0 611547.0 0
178000.0 611547.0 0
182000.0 611547.0 0
186000.0 611547.0 0
190000.0 611547.0 0
194000.0 611547.0 0
198000.0 611547.0 0
202000.0 611547.0 0
206000.0 611547.0 0
210000.0 611547.0 0
214000.0 611547.0 0
218000.0 611547.0 0
222000.0 611547.0 0
226000.0 611547.0 0
230000.0 611547.0 0
234000.0 611547.0 0
238000.0 611547.0 0
242000.0 611547.0 0
246000.0 611547.0 0
250000.0 611547.0 0
254000.0 611547.0 0
258000.0 611547.0 0
262000.0 611547.0 0
266000.0 611547.0 0
270000.0 611547.0 0
274000.0 611547.0 0
278000.0 611547.0 0
282000.0 611547.0 0
286000.0 611547.0 0
290000.0 611547.0 0
294000.0 611547.0 0
298000.0 611547.0 0
302000.0 611547.0 0
306000.0 611547.0 0
310000.0 611547.0 0
314000.0 611547.0 0
318000.0 611547.0 0
322000.0 611547.0 0
326000.0 611547.0 0
330000.0 611547.0 0
334000.0 611547.0 0
338000.0 611547.0 0
342000.0 611547.0 0
346000.0 611547.0 0
350000.0 611547.0 0
354000.0 611547.0 0
358000.0 611547.0 0
362000.0 611547.0 0
366000.0 611547.0 0
370000.0 611548.0 0
374000.0 611547.0 0
378000.0 611549.0 0
382000.0 611548.0 0
386000.0 611552.0 0
390000.0 611553.0 0
394000.0 611559.0 0
398000.0 611561.0 0
102000.0 615560.0 0
106000.0 615558.0 0
110000.0 615552.0 0
114000.0 615551.0 0
118000.0 615548.0 0
122000.0 615548.0 0
126000.0 615547.0 0
130000.0 615547.0 0
134000.0 615547.0 0
138000.0 615547.0 0
142000.0 615547.0 0
146000.0 615547.0 0
150000.0 615547.0 0
154000.0 615547.0 0
158000.0 615547.0 0
162000.0 615547.0 0
166000.0 615547.0 0
170000.0 615547.0 0
174000.0 615547.0 0
178000.0 615547.0 0
182000.0 615547.0 0
186000.0 615547.0 0
190000.0 615547.0 0
194000.0 615547.0 0
198000.0 615547.0 0
202000.0 615547.0 0
206000.0 615547.0 0
210000.0 615547.0 0
214000.0 615547.0 0
218000.0 615547.0 0
222000.0 615547.0 0
226000.0 615547.0 0
230000.0 615547.0 0
234000.0 615547.0 0
238000.0 615547.0 0
242000.0 615547.0 0
246000.0 615547.0 0
250000.0 615547.0 0
254000.0 615547.0 0
258000.0 615547.0 0
262000.0 615547.0 0
266000.0 615547.0 0
270000.0 615547.0 0
274000.0 615547.0 0
278000.0 615547.0 0
282000.0 615547.0 0
286000.0 615547.0 0
290000.0 615547.0 0
294000.0 615547.0 0
298000.0 615547.0 0
302000.0 615547.0 0
306000.0 615547.0 0
310000.0 615547.0 0
314000.0 615547.0 0
318000.0 615547.0 0
322000.0 615547.0 0
326000.0 615547.0 0
330000.0 615547.0 0
334000.0 615547.0 0
338000.0 615547.0 0
342000.0 615547.0 0
346000.0 615547.0 0
350000.0 615547.0 0
354000.0 615547.0 0
358000.0 615547.0 0
362000.0 615547.0 0
366000.0 615547.0 0
370000.0 615547.0 0
374000.0 615547.0 0
378000.0 615548.0 0
382000.0 615548.0 0
386000.0 615551.0 0
390000.0 615552.0 0
394000.0 615558.0 0
398000.0 615560.0 0
102000.0 619558.0 0
106000.0 619556.0 0
110000.0 619552.0 0
114000.0 619550.0 0
118000.0 619547.0 0
122000.0 619548.0 0
126000.0 619547.0 0
130000.0 619547.0 0
134000.0 619547.0 0
138000.0 619547.0 0
142000.0 619547.0 0
146000.0 619547.0 0
150000.0 619547.0 0
154000.0 619547.0 0
158000.0 619547.0 0
162000.0 619547.0 0
166000.0 619547.0 0
170000.0 619547.0 0
174000.0 619547.0 0
178000.0 619547.0 0
182000.0 619547.0 0
186000.0 619547.0 0
190000.0 619547.0 0
194000.0 619547.0 0
198000.0 619547.0 0
202000.0 619547.0 0
206000.0 619547.0 0
210000.0 619547.0 0
214000.0 619547.0 0
218000.0 619547.0 0
222000.0 619547.0 0
226000.0 619547.0 0
230000.0 619547.0 0
234000.0 619547.0 0
238000.0 619547.0 0
242000.0 619547.0 0
246000.0 619547.0 0
250000.0 619547.0 0
254000.0 619547.0 0
258000.0 619547.0 0
262000.0 619547.0 0
266000.0 619547.0 0
270000.0 619547.0 0
274000.0 619547.0 0
278000.0 619547.0 0
282000.0 619547.0 0
286000.0 619547.0 0
290000.0 619547.0 0
294000.0 619547.0 0
298000.0 619547.0 0
302000.0 619547.0 0
306000.0 619547.0 0
310000.0 619547.0 0
314000.0 619547.0 0
318000.0 619547.0 0
322000.0 619547.0 0
326000.0 619547.0 0
330000.0 619547.0 0
334000.0 619547.0 0
338000.0 619547.0 0
342000.0 619547.0 0
346000.0 619547.0 0
350000.0 619547.0 0
354000.0 619547.0 0
358000.0 619547.0 0
362000.0 619547.0 0
366000.0 619547.0 0
370000.0 619547.0 0
374000.0 619547.0 0
378000.0 619548.0 0
382000.0 619547.0 0
386000.0 619550.0 0
390000.0 619552.0 0
394000.0 619556.0 0
398000.0 619558.0 0
102000.0 623557.0 0
106000.0 623555.0 0
110000.0 623551.0 0
114000.0 623550.0 0
118000.0 623547.0 0
122000.0 623548.0 0
126000.0 623547.0 0
130000.0 623547.0 0
134000.0 623547.0 0
138000.0 623547.0 0
142000.0 623547.0 0
146000.0 623547.0 0
150000.0 623547.0 0
154000.0 623547.0 0
158000.0 623547.0 0
162000.0 623547.0 0
166000.0 623547.0 0
170000.0 623547.0 0
174000.0 623547.0 0
178000.0 623547.0 0
182000.0 623547.0 0
186000.0 623547.0 0
190000.0 623547.0 0
194000.0 623547.0 0
198000.0 623547.0 0
202000.0 623547.0 0
206000.0 623547.0 0
210000.0 623547.0 0
214000.0 623547.0 0
218000.0 623547.0 0
222000.0 623547.0 0
226000.0 623547.0 0
230000.0 623547.0 0
234000.0 623547.0 0
238000.0 623547.0 0
242000.0 623547.0 0
246000.0 623547.0 0
250000.0 623547.0 0
254000.0 623547.0 0
258000.0 623547.0 0
262000.0 623547.0 0
266000.0 623547.0 0
270000.0 623547.0 0
274000.0 623547.0 0
278000.0 623547.0 0
282000.0 623547.0 0
286000.0 623547.0 0
290000.0 623547.0 0
294000.0 623547.0 0
298000.0 623547.0 0
302000.0 623547.0 0
306000.0 623547.0 0
310000.0 623547.0 0
314000.0 623547.0 0
318000.0 623547.0 0
322000.0 623547.0 0
326000.0 623547.0 0
330000.0 623547.0 0
334000.0 623547.0 0
338000.0 623547.0 0
342000.0 623547.0 0
346000.0 623547.0 0
350000.0 623547.0 0
354000.0 623547.0 0
358000.0 623547.0 0
362000.0 623547.0 0
366000.0 623547.0 0
370000.0 623547.0 0
374000.0 623547.0 0
378000.0 623548.0 0
382000.0 623547.0 0
386000.0 623550.0 0
390000.0 623551.0 0
394000.0 623555.0 0
398000.0 623557.0 0
102000.0 627556.0 0
106000.0 627554.0 0
110000.0 627550.0 0
114000.0 627549.0 0
118000.0 627547.0 0
122000.0 627547.0 0
126000.0 627547.0 0
130000.0 627547.0 0
134000.0 627547.0 0
138000.0 627547.0 0
142000.0 627547.0 0
146000.0 627547.0 0
150000.0 627547.0 0
154000.0 627547.0 0
158000.0 627547.0 0
162000.0 627547.0 0
166000.0 627547.0 0
170000.0 627547.0 0
174000.0 627547.0 0
178000.0 627547.0 0
182000.0 627547.0 0
186000.0 627547.0 0
190000.0 627547.0 0
194000.0 627547.0 0
198000.0 627547.0 0
202000.0 627547.0 0
206000.0 627547.0 0
210000.0 627547.0 0
214000.0 627547.0 0
218000.0 627547.0 0
222000.0 627547.0 0
226000.0 627547.0 0
230000.0 627547.0 0
234000.0 627547.0 0
238000.0 627547.0 0
242000.0 627547.0 0
246000.0 627547.0 0
250000.0 627547.0 0
254000.0 627547.0 0
258000.0 627547.0 0
262000.0 627547.0 0
266000.0 627547.0 0
270000.0 627547.0 0
274000.0 627547.0 0
278000.0 627547.0 0
282000.0 627547.0 0
286000.0 627547.0 0
290000.0 627547.0 0
294000.0 627547.0 0
298000.0 627547.0 0
302000.0 627547.0 0
306000.0 627547.0 0
310000.0 627547.0 0
314000.0 627547.0 0
318000.0 627547.0 0
322000.0 627547.0 0
326000.0 627547.0 0
330000.0 627547.0 0
334000.0 627547.0 0
338000.0 627547.0 0
342000.0 627547.0 0
346000.0 627547.0 0
350000.0 627547.0 0
354000.0 627547.0 0
358000.0 627547.0 0
362000.0 627547.0 0
366000.0 627547.0 0
370000.0 627547.0 0
374000.0 627547.0 0
378000.0 627547.0 0
382000.0 627547.0 0
386000.0 627549.0 0
390000.0 627550.0 0
394000.0 627554.0 0
398000.0 627556.0 0
102000.0 631555.0 0
106000.0 631554.0 0
110000.0 631550.0 0
114000.0 631549.0 0
118000.0 631547.0 0
122000.0 631547.0 0
126000.0 631547.0 0
130000.0 631547.0 0
134000.0 631547.0 0
138000.0 631547.0 0
142000.0 631547.0 0
146000.0 631547.0 0
150000.0 631547.0 0
154000.0 631547.0 0
158000.0 631547.0 0
162000.0 631547.0 0
166000.0 631547.0 0
170000.0 631547.0 0
174000.0 631547.0 0
178000.0 631547.0 0
182000.0 631547.0 0
186000.0 631547.0 0
190000.0 631547.0 0
194000.0 631547.0 0
198000.0 631547.0 0
202000.0 631547.0 0
206000.0 631547.0 0
210000.0 631547.0 0
214000.0 631547.0 0
218000.0 631547.0 0
222000.0 631547.0 0
226000.0 631547.0 0
230000.0 631547.0 0
234000.0 631547.0 0
238000.0 631547.0 0
242000.0 631547.0 0
246000.0 631547.0 0
250000.0 631547.0 0
254000.0 631547.0 0
258000.0 631547.0 0
262000.0 631547.0 0
266000.0 631547.0 0
270000.0 631547.0 0
274000.0 631547.0 0
278000.0 631547.0 0
282000.0 631547.0 0
286000.0 631547.0 0
290000.0 631547.0 0
294000.0 631547.0 0
298000.0 631547.0 0
302000.0 631547.0 0
306000.0 631547.0 0
310000.0 631547.0 0
314000.0 631547.0 0
318000.0 631547.0 0
322000.0 631547.0 0
326000.0 631547.0 0
330000.0 631547.0 0
334000.0 631547.0 0
338000.0 631547.0 0
342000.0 631547.0 0
346000.0 631547.0 0
350000.0 631547.0 0
354000.0 631547.0 0
358000.0 631547.0 0
362000.0 631547.0 0
366000.0 631547.0 0
370000.0 631547.0 0
374000.0 631547.0 0
378000.0 631547.0 0
382000.0 631547.0 0
386000.0 631549.0 0
390000.0 631550.0 0
394000.0 631554.0 0
398000.0 631555.0 0
102000.0 635554.0 0
106000.0 635553.0 0
110000.0 635549.0 0
114000.0 635549.0 0
118000.0 635547.0 0
122000.0 635547.0 0
126000.0 635547.0 0
130000.0 635547.0 0
134000.0 635547.0 0
138000.0 635547.0 0
142000.0 635547.0 0
146000.0 635547.0 0
150000.0 635547.0 0
154000.0 635547.0 0
158000.0 635547.0 0
162000.0 635547.0 0
166000.0 635547.0 0
170000.0 635547.0 0
174000.0 635547.0 0
178000.0 635547.0 0
182000.0 635547.0 0
186000.0 635547.0 0
190000.0 635547.0 0
194000.0 635547.0 0
198000.0 635547.0 0
202000.0 635547.0 0
206000.0 635547.0 0
210000.0 635547.0 0
214000.0 635547.0 0
218000.0 635547.0 0
222000.0 635547.0 0
226000.0 635547.0 0
230000.0 635547.0 0
234000.0 635547.0 0
238000.0 635547.0 0
242000.0 635547.0 0
246000.0 635547.0 0
250000.0 635547.0 0
254000.0 635547.0 0
258000.0 635547.0 0
262000.0 635547.0 0
266000.0 635547.0 0
270000.0 635547.0 0
274000.0 635547.0 0
278000.0 635547.0 0
282000.0 635547.0 0
286000.0 635547.0 0
290000.0 635547.0 0
294000.0 635547.0 0
298000.0 635547.0 0
302000.0 635547.0 0
306000.0 635547.0 0
310000.0 635547.0 0
314000.0 635547.0 0
318000.0 635547.0 0
322000.0 635547.0 0
326000.0 635547.0 0
330000.0 635547.0 0
334000.0 635547.0 0
338000.0 635547.0 0
342000.0 635547.0 0
346000.0 635547.0 0
350000.0 635547.0 0
354000.0 635547.0 0
358000.0 635547.0 0
362000.0 635547.0 0
366000.0 635547.0 0
370000.0 635547.0 0
374000.0 635547.0 0
378000.0 635547.0 0
382000.0 635547.0 0
386000.0 635549.0 0
390000.0 635549.0 0
394000.0 635553.0 0
398000.0 635554.0 0
102000.0 639553.0 0
106000.0 639552.0 0
110000.0 639549.0 0
114000.0 639548.0 0
118000.0 639547.0 0
122000.0 639547.0 0
126000.0 639547.0 0
130000.0 639547.0 0
134000.0 639547.0 0
138000.0 639547.0 0
142000.0 639547.0 0
146000.0 639547.0 0
150000.0 639547.0 0
154000.0 639547.0 0
158000.0 639547.0 0
162000.0 639547.0 0
166000.0 639547.0 0
170000.0 639547.0 0
174000.0 639547.0 0
178000.0 639547.0 0
182000.0 639547.0 0
186000.0 639547.0 0
190000.0 639547.0 0
194000.0 639547.0 0
198000.0 639547.0 0
202000.0 639547.0 0
206000.0 639547.0 0
210000.0 639547.0 0
214000.0 639547.0 0
218000.0 639547.0 0
222000.0 639547.0 0
226000.0 639547.0 0
230000.0 639547.0 0
234000.0 639547.0 0
238000.0 639547.0 0
242000.0 639547.0 0
246000.0 639547.0 0
250000.0 639547.0 0
254000.0 639547.0 0
258000.0 639547.0 0
262000.0 639547.0 0
266000.0 639547.0 0
270000.0 639547.0 0
274000.0 639547.0 0
278000.0 639547.0 0
282000.0 639547.0 0
286000.0 639547.0 0
290000.0 639547.0 0
294000.0 639547.0 0
298000.0 639547.0 0
302000.0 639547.0 0
306000.0 639547.0 0
310000.0 639547.0 0
314000.0 639547.0 0
318000.0 639547.0 0
322000.0 639547.0 0
326000.0 639547.0 0
330000.0 639547.0 0
334000.0 639547.0 0
338000.0 639547.0 0
342000.0 639547.0 0
346000.0 639547.0 0
350000.0 639547.0 0
354000.0 639547.0 0
358000.0 639547.0 0
362000.0 639547.0 0
366000.0 639547.0 0
370000.0 639547.0 0
374000.0 639547.0 0
378000.0 639547.0 0
382000.0 639547.0 0
386000.0 639548.0 0
390000.0 639549.0 0
394000.0 639552.0 0
398000.0 639553.0 0
102000.0 643553.0 0
106000.0 643552.0 0
110000.0 643549.0 0
114000.0 643548.0 0
118000.0 643547.0 0
122000.0 643547.0 0
126000.0 643547.0 0
130000.0 643547.0 0
134000.0 643547.0 0
138000.0 643547.0 0
142000.0 643547.0 0
146000.0 643547.0 0
150000.0 643547.0 0
154000.0 643547.0 0
158000.0 643547.0 0
162000.0 643547.0 0
166000.0 643547.0 0
170000.0 643547.0 0
174000.0 643547.0 0
178000.0 643547.0 0
182000.0 643547.0 0
186000.0 643547.0 0
190000.0 643547.0 0
194000.0 643547.0 0
198000.0 643547.0 0
202000.0 643547.0 0
206000.0 643547.0 0
210000.0 643547.0 0
214000.0 643547.0 0
218000.0 643547.0 0
222000.0 643547.0 0
226000.0 643547.0 0
230000.0 643547.0 0
234000.0 643547.0 0
238000.0 643547.0 0
242000.0 643547.0 0
246000.0 643547.0 0
250000.0 643547.0 0
254000.0 643547.0 0
258000.0 643547.0 0
262000.0 643547.0 0
266000.0 643547.0 0
270000.0 643547.0 0
274000.0 643547.0 0
278000.0 643547.0 0
282000.0 643547.0 0
286000.0 643547.0 0
290000.0 643547.0 0
294000.0 643547.0 0
298000.0 643547.0 0
302000.0 643547.0 0
306000.0 643547.0 0
310000.0 643547.0 0
314000.0 643547.0 0
318000.0 643547.0 0
322000.0 643547.0 0
326000.0 643547.0 0
330000.0 643547.0 0
334000.0 643547.0 0
338000.0 643547.0 0
342000.0 643547.0 0
346000.0 643547.0 0
350000.0 643547.0 0
354000.0 643547.0 0
358000.0 643547.0 0
362000.0 643547.0 0
366000.0 643547.0 0
370000.0 643547.0 0
374000.0 643547.0 0
378000.0 643547.0 0
382000.0 643547.0 0
386000.0 643548.0 0
390000.0 643549.0 0
394000.0 643552.0 0
398000.0 643553.0 0
102000.0 647552.0 0
106000.0 647551.0 0
110000.0 647549.0 0
114000.0 647548.0 0
118000.0 647547.0 0
122000.0 647547.0 0
126000.0 647547.0 0
130000.0 647547.0 0
134000.0 647547.0 0
138000.0 647547.0 0
142000.0 647547.0 0
146000.0 647547.0 0
150000.0 647547.0 0
154000.0 647547.0 0
158000.0 647547.0 0
162000.0 647547.0 0
166000.0 647547.0 0
170000.0 647547.0 0
174000.0 647547.0 0
178000.0 647547.0 0
182000.0 647547.0 0
186000.0 647547.0 0
190000.0 647547.0 0
194000.0 647547.0 0
198000.0 647547.0 0
202000.0 647547.0 0
206000.0 647547.0 0
210000.0 647547.0 0
214000.0 647547.0 0
218000.0 647547.0 0
222000.0 647547.0 0
226000.0 647547.0 0
230000.0 647547.0 0
234000.0 647547.0 0
238000.0 647547.0 0
242000.0 647547.0 0
246000.0 647547.0 0
250000.0 647547.0 0
254000.0 647547.0 0
258000.0 647547.0 0
262000.0 647547.0 0
266000.0 647547.0 0
270000.0 647547.0 0
274000.0 647547.0 0
278000.0 647547.0 0
282000.0 647547.0 0
286000.0 647547.0 0
290000.0 647547.0 0
294000.0 647547.0 0
298000.0 647547.0 0
302000.0 647547.0 0
306000.0 647547.0 0
310000.0 647547.0 0
314000.0 647547.0 0
318000.0 647547.0 0
322000.0 647547.0 0
326000.0 647547.0 0
330000.0 647547.0 0
334000.0 647547.0 0
338000.0 647547.0 0
342000.0 647547.0 0
346000.0 647547.0 0
350000.0 647547.0 0
354000.0 647547.0 0
358000.0 647547.0 0
362000.0 647547.0 0
366000.0 647547.0 0
370000.0 647547.0 0
374000.0 647547.0 0
378000.0 647547.0 0
382000.0 647547.0 0
386000.0 647548.0 0
390000.0 647549.0 0
394000.0 647551.0 0
398000.0 647552.0 0
102000.0 651552.0 0
106000.0 651551.0 0
110000.0 651549.0 0
114000.0 651548.0 0
118000.0 651547.0 0
122000.0 651547.0 0
126000.0 651547.0 0
130000.0 651547.0 0
134000.0 651547.0 0
138000.0 651547.0 0
142000.0 651547.0 0
146000.0 651547.0 0
150000.0 651547.0 0
154000.0 651547.0 0
158000.0 651547.0 0
162000.0 651547.0 0
166000.0 651547.0 0
170000.0 651547.0 0
174000.0 651547.0 0
178000.0 651547.0 0
182000.0 651547.0 0
186000.0 651547.0 0
190000.0 651547.0 0
194000.0 651547.0 0
198000.0 651547.0 0
202000.0 651547.0 0
206000.0 651547.0 0
210000.0 651547.0 0
214000.0 651547.0 0
218000.0 651547.0 0
222000.0 651547.0 0
226000.0 651547.0 0
230000.0 651547.0 0
234000.0 651547.0 0
238000.0 651547.0 0
242000.0 651547.0 0
246000.0 651547.0 0
250000.0 651547.0 0
254000.0 651547.0 0
258000.0 651547.0 0
262000.0 651547.0 0
266000.0 651547.0 0
270000.0 651547.0 0
274000.0 651547.0 0
278000.0 651547.0 0
282000.0 651547.0 0
286000.0 651547.0 0
290000.0 651547.0 0
294000.0 651547.0 0
298000.0 651547.0 0
302000.0 651547.0 0
306000.0 651547.0 0
310000.0 651547.0 0
314000.0 651547.0 0
318000.0 651547.0 0
322000.0 651547.0 0
326000.0 651547.0 0
330000.0 651547.0 0
334000.0 651547.0 0
338000.0 651547.0 0
342000.0 651547.0 0
346000.0 651547.0 0
350000.0 651547.0 0
354000.0 651547.0 0
358000.0 651547.0 0
362000.0 651547.0 0
366000.0 651547.0 0
370000.0 651547.0 0
374000.0 651547.0 0
378000.0 651547.0 0
382000.0 651547.0 0
386000.0 651548.0 0
390000.0 651549.0 0
394000.0 651551.0 0
398000.0 651552.0 0
102000.0 655552.0 0
106000.0 655551.0 0
110000.0 655548.0 0
114000.0 655548.0 0
118000.0 655547.0 0
122000.0 655547.0 0
126000.0 655547.0 0
130000.0 655547.0 0
134000.0 655547.0 0
138000.0 655547.0 0
142000.0 655547.0 0
146000.0 655547.0 0
150000.0 655547.0 0
154000.0 655547.0 0
158000.0 655547.0 0
162000.0 655547.0 0
166000.0 655547.0 0
170000.0 655547.0 0
174000.0 655547.0 0
178000.0 655547.0 0
182000.0 655547.0 0
186000.0 655547.0 0
190000.0 655547.0 0
194000.0 655547.0 0
198000.0 655547.0 0
202000.0 655547.0 0
206000.0 655547.0 0
210000.0 655547.0 0
214000.0 655547.0 0
218000.0 655547.0 0
222000.0 655547.0 0
226000.0 655547.0 0
230000.0 655547.0 0
234000.0 655547.0 0
238000.0 655547.0 0
242000.0 655547.0 0
246000.0 655547.0 0
250000.0 655547.0 0
254000.0 655547.0 0
258000.0 655547.0 0
262000.0 655547.0 0
266000.0 655547.0 0
270000.0 655547.0 0
274000.0 655547.0 0
278000.0 655547.0 0
282000.0 655547.0 0
286000.0 655547.0 0
290000.0 655547.0 0
294000.0 655547.0 0
298000.0 655547.0 0
302000.0 655547.0 0
306000.0 655547.0 0
310000.0 655547.0 0
314000.0 655547.0 0
318000.0 655547.0 0
322000.0 655547.0 0
326000.0 655547.0 0
330000.0 655547.0 0
334000.0 655547.0 0
338000.0 655547.0 0
342000.0 655547.0 0
346000.0 655547.0 0
350000.0 655547.0 0
354000.0 655547.0 0
358000.0 655547.0 0
362000.0 655547.0 0
366000.0 655547.0 0
370000.0 655547.0 0
374000.0 655547.0 0
378000.0 655547.0 0
382000.0 655547.0 0
386000.0 655548.0 0
390000.0 655548.0 0
394000.0 655551.0 0
398000.0 655552.0 0
102000.0 659552.0 0
106000.0 659551.0 0
110000.0 659548.0 0
114000.0 659548.0 0
118000.0 659547.0 0
122000.0 659547.0 0
126000.0 659547.0 0
130000.0 659547.0 0
134000.0 659547.0 0
138000.0 659547.0 0
142000.0 659547.0 0
146000.0 659547.0 0
150000.0 659547.0 0
154000.0 659547.0 0
158000.0 659547.0 0
162000.0 659547.0 0
166000.0 659547.0 0
170000.0 659547.0 0
174000.0 659547.0 0
178000.0 659547.0 0
182000.0 659547.0 0
186000.0 659547.0 0
190000.0 659547.0 0
194000.0 659547.0 0
198000.0 659547.0 0
202000.0 659547.0 0
206000.0 659547.0 0
210000.0 659547.0 0
214000.0 659547.0 0
218000.0 659547.0 0
222000.0 659547.0 0
226000.0 659547.0 0
230000.0 659547.0 0
234000.0 659547.0 0
238000.0 659547.0 0
242000.0 659547.0 0
246000.0 659547.0 0
250000.0 659547.0 0
254000.0 659547.0 0
258000.0 659547.0 0
262000.0 659547.0 0
266000.0 659547.0 0
270000.0 659547.0 0
274000.0 659547.0 0
278000.0 659547.0 0
282000.0 659547.0 0
286000.0 659547.0 0
290000.0 659547.0 0
294000.0 659547.0 0
298000.0 659547.0 0
302000.0 659547.0 0
306000.0 659547.0 0
310000.0 659547.0 0
314000.0 659547.0 0
318000.0 659547.0 0
322000.0 659547.0 0
326000.0 659547.0 0
330000.0 659547.0 0
334000.0 659547.0 0
338000.0 659547.0 0
342000.0 659547.0 0
346000.0 659547.0 0
350000.0 659547.0 0
354000.0 659547.0 0
358000.0 659547.0 0
362000.0 659547.0 0
366000.0 659547.0 0
370000.0 659547.0 0
374000.0 659547.0 0
378000.0 659547.0 0
382000.0 659547.0 0
386000.0 659548.0 0
390000.0 659548.0 0
394000.0 659551.0 0
398000.0 659552.0 0
POINT_DATA 4650
SCALARS Radius float 1
LOOKUP_TABLE default
4000.0 4000.0 4000.0 4000.0 4000.0 4000.0 4000.0 4000.0 4000.0 4000.0 4000.0 4000.0 4000.0 4000.0 4000.0 4000.0 4000.0 4000.0 4000.0 4000.0 4000.0 4000.0 4000.0 4000.0 4000.0 4000.0 4000.0 4000.0 4000.0 4000.0 4000.0 4000.0 4000.0 4000.0 4000.0 4000.0 4000.0 4000.0 4000.0 4000.0 4000.0 4000.0 4000.0 4000.0 4000.0 4000.0 4000.0 4000.0 4000.0 4000.0 4000.0 4000.0 4000.0 4000.0 4000.0 4000.0 4000.0 4000.0 4000.0 4000.0 4000.0 4000.0 4000.0 4000.0 4000.0 4000.0 4000.0 4000.0 4000.0 4000.0 4000.0 4000.0 4000.0 4000.0 4000.0 4000.0 4000.0 4000.0 4000.0 4000.0 4000.0 4000.0 4000.0 4000.0 4000.0 4000.0 4000.0 4000.0 4000.0 4000.0 4000.0 4000.0 4000.0 4000.0 4000.0 4000.0 4000.0 4000.0 4000.0 4000.0 4000.0 4000.0 4000.0 4000.0 4000.0 4000.0 4000.0 4000.0 4000.0 4000.0 4000.0 4000.0 4000.0 4000.0 4000.0 4000.0 4000.0 4000.0 4000.0 4000.0 4000.0 4000.0 4000.0 4000.0 4000.0 4000.0 4000.0 4000.0 4000.0 4000.0 4000.0 4000.0 4000.0 4000.0 4000.0 4000.0 4000.0 4000.0 4000.0 4000.0 4000.0 4000.0 4000.0 4000.0 4000.0 4000.0 4000.0 4000.0 4000.0 4000.0 4000.0 4000.0 4000.0 4000.0 4000.0 4000.0 4000.0 4000.0 4000.0 4000.0 4000.0 4000.0 4000.0 4000.0 4000.0 4000.0 4000.0 4000.0 4000.0 4000.0 4000.0 4000.0 4000.0 4000.0 4000.0 4000.0 4000.0 4000.0 4000.0 4000.0 4000.0 4000.0 4000.0 4000.0 4000.0 4000.0 4000.0 4000.0 4000.0 4000.0 4000.0 4000.0 4000.0 4000.0 4000.0 4000.0 4000.0 4000.0 4000.0 4000.0 4000.0 4000.0 4000.0 4000.0 4000.0 4000.0 4000.0 4000.0 4000.0 4000.0 4000.0 4000.0 4000.0 4000.0 4000.0 4000.0 4000.0 4000.0 4000.0 4000.0 4000.0 4000.0 4000.0 4000.0 4000.0 4000.0 4000.0 4000.0 4000.0 4000.0 4000.0 4000.0 4000.0 4000.0 4000.0 4000.0 4000.0 4000.0 4000.0 4000.0 4000.0 4000.0 4000.0 4000.0 4000.0 4000.0 4000.0 4000.0 4000.0 4000.0 4000.0 4000.0 4000.0 4000.0 4000.0 4000.0 4000.0 4000.0 4000.0 4000.0 4000.0 4000.0 4000.0 4000.0 4000.0 4000.0 4000.0 4000.0 4000.0 4000.0 4000.0 4000.0 4000.0 4000.0 4000.0 4000.0 4000.0 4000.0 4000.0 4000.0 4000.0 4000.0 4000.0 4000.0 4000.0 4000.0 4000.0 4000.0 4000.0 4000.0 4000.0 4000.0 4000.0 4000.0 4000.0 4000.0 4000.0 4000.0 4000.0 4000.0 4000.0 4000.0 4000.0 4000.0 4000.0 4000.0 4000.0 4000.0 4000.0 4000.0 4000.0 4000.0 4000.0 4000.0 4000.0 4000.0 4000.0 4000.0 4000.0 4000.0 4000.0 4000.0 4000.0 4000.0 4000.0 4000.0 4000.0 4000.0 4000.0 4000.0 4000.0 4000.0 4000.0 4000.0 4000.0 4000.0 4000.0 4000.0 4000.0 4000.0 4000.0 4000.0 4000.0 4000.0 4000.0 4000.0 4000.0 4000.0 4000.0 4000.0 4000.0 4000.0 4000.0 4000.0 4000.0 4000.0 4000.0 4000.0 4000.0 4000.0 4000.0 4000.0 4000.0 4000.0 4000.0 4000.0 4000.0 4000.0 4000.0 4000.0 4000.0 4000.0 4000.0 4000.0 4000.0 4000.0 4000.0 4000.0 4000.0 4000.0 4000.0 4000.0 4000.0 4000.0 4000.0 4000.0 4000.0 4000.0 4000.0 4000.0 4000.0 4000.0 4000.0 4000.0 4000.0 4000.0 4000.0 4000.0 4000.0 4000.0 4000.0 4000.0 4000.0 4000.0 4000.0 4000.0 4000.0 4000.0 4000.0 4000.0 4000.0 4000.0 4000.0 4000.0 4000.0 4000.0 4000.0 4000.0 4000.0 4000.0 4000.0 4000.0 4000.0 4000.0 4000.0 4000.0 4000.0 4000.0 4000.0 4000.0 4000.0 4000.0 4000.0 4000.0 4000.0 4000.0 4000.0 4000.0 4000.0 4000.0 4000.0 4000.0 4000.0 4000.0 4000.0 4000.0 4000.0 4000.0 4000.0 4000.0 4000.0 4000.0 4000.0 4000.0 4000.0 4000.0 4000.0 4000.0 4000.0 4000.0 4000.0 4000.0 4000.0 4000.0 4000.0 4000.0 4000.0 4000.0 4000.0 4000.0 4000.0 4000.0 4000.0 4000.0 4000.0 4000.0 4000.0 4000.0 4000.0 4000.0 4000.0 4000.0 4000.0 4000.0 4000.0 4000.0 4000.0 4000.0 4000.0 4000.0 4000.0 4000.0 4000.0 4000.0 4000.0 4000.0 4000.0 4000.0 4000.0 4000.0 4000.0 4000.0 4000.0 4000.0 4000.0 4000.0 4000.0 4000.0 4000.0 4000.0 4000.0 4000.0 4000.0 4000.0 4000.0 4000.0 4000.0 4000.0 4000.0 4000.0 4000.0 4000.0 4000.0 4000.0 4000.0 4000.0 4000.0 4000.0 4000.0 4000.0 4000.0 4000.0 4000.0 4000.0 4000.0 4000.0 4000.0 4000.0 4000.0 4000.0 4000.0 4000.0 4000.0 4000.0 4000.0 4000.0 4000.0 4000.0 4000.0 4000.0 4000.0 4000.0 4000.0 4000.0 4000.0 4000.0 4000.0 4000.0 4000.0 4000.0 4000.0 4000.0 4000.0 4000.0 4000.0 4000.0 4000.0 4000.0 4000.0 4000.0 4000.0 4000.0 4000.0 4000.0 4000.0 4000.0 4000.0 4000.0 4000.0 4000.0 4000.0 4000.0 4000.0 4000.0 4000.0 4000.0 4000.0 4000.0 4000.0 4000.0 4000.0 4000.0 4000.0 4000.0 4000.0 4000.0 4000.0 4000.0 4000.0 4000.0 4000.0 4000.0 4000.0 4000.0 4000.0 4000.0 4000.0 4000.0 4000.0 4000.0 4000.0 4000.0 4000.0 4000.0 4000.0 4000.0 4000.0 4000.0 4000.0 4000.0 4000.0 4000.0 4000.0 4000.0 4000.0 4000.0 4000.0 4000.0 4000.0 4000.0 4000.0 4000.0 4000.0 4000.0 4000.0 4000.0 4000.0 4000.0 4000.0 4000.0 4000.0 4000.0 4000.0 4000.0 4000.0 4000.0 4000.0 4000.0 4000.0 4000.0 4000.0 4000.0 4000.0 4000.0 4000.0 4000.0 4000.0 4000.0 4000.0 4000.0 4000.0 4000.0 4000.0 4000.0 4000.0 4000.0 4000.0 4000.0 4000.0 4000.0 4000.0 4000.0 4000.0 4000.0 4000.0 4000.0 4000.0 4000.0 4000.0 4000.0 4000.0 4000.0 4000.0 4000.0 4000.0 4000.0 4000.0 4000.0 4000.0 4000.0 4000.0 4000.0 4000.0 4000.0 4000.0 4000.0 4000.0 4000.0 4000.0 4000.0 4000.0 4000.0 4000.0 4000.0 4000.0 4000.0 4000.0 4000.0 4000.0 4000.0 4000.0 4000.0 4000.0 4000.0 4000.0 4000.0 4000.0 4000.0 4000.0 4000.0 4000.0 4000.0 4000.0 4000.0 4000.0 4000.0 4000.0 4000.0 4000.0 4000.0 4000.0 4000.0 4000.0 4000.0 4000.0 4000.0 4000.0 4000.0 4000.0 4000.0 4000.0 4000.0 4000.0 4000.0 4000.0 4000.0 4000.0 4000.0 4000.0 4000.0 4000.0 4000.0 4000.0 4000.0 4000.0 4000.0 4000.0 4000.0 4000.0 4000.0 4000.0 4000.0 4000.0 4000.0 4000.0 4000.0 4000.0 4000.0 4000.0 4000.0 4000.0 4000.0 4000.0 4000.0 4000.0 4000.0 4000.0 4000.0 4000.0 4000.0 4000.0 4000.0 4000.0 4000.0 4000.0 4000.0 4000.0 4000.0 4000.0 4000.0 4000.0 4000.0 4000.0 4000.0 4000.0 4000.0 4000.0 4000.0 4000.0 4000.0 4000.0 4000.0 4000.0 4000.0 4000.0 4000.0 4000.0 4000.0 4000.0 4000.0 4000.0 4000.0 4000.0 4000.0 4000.0 4000.0 4000.0 4000.0 4000.0 4000.0 4000.0 4000.0 4000.0 4000.0 4000.0 4000.0 4000.0 4000.0 4000.0 4000.0 4000.0 4000.0 4000.0 4000.0 4000.0 4000.0 4000.0 4000.0 4000.0 4000.0 4000.0 4000.0 4000.0 4000.0 4000.0 4000.0 4000.0 4000.0 4000.0 4000.0 4000.0 4000.0 4000.0 4000.0 4000.0 4000.0 4000.0 4000.0 4000.0 4000.0 4000.0 4000.0 4000.0 4000.0 4000.0 4000.0 4000.0 4000.0 4000.0 4000.0 4000.0 4000.0 4000.0 4000.0 4000.0 4000.0 4000.0 4000.0 4000.0 4000.0 4000.0 4000.0 4000.0 4000.0 4000.0 4000.0 4000.0 4000.0 4000.0 4000.0 4000.0 4000.0 4000.0 4000.0 4000.0 4000.0 4000.0 4000.0 4000.0 4000.0 4000.0 4000.0 4000.0 4000.0 4000.0 4000.0 4000.0 4000.0 4000.0 4000.0 4000.0 4000.0 4000.0 4000.0 4000.0 4000.0 4000.0 4000.0 4000.0 4000.0 4000.0 4000.0 4000.0 4000.0 4000.0 4000.0 4000.0 4000.0 4000.0 4000.0 4000.0 4000.0 4000.0 4000.0 4000.0 4000.0 4000.0 4000.0 4000.0 4000.0 4000.0 4000.0 4000.0 4000.0 4000.0 4000.0 4000.0 4000.0 4000.0 4000.0 4000.0 4000.0 4000.0 4000.0 4000.0 4000.0 4000.0 4000.0 4000.0 4000.0 4000.0 4000.0 4000.0 4000.0 4000.0 4000.0 4000.0 4000.0 4000.0 4000.0 4000.0 4000.0 4000.0 4000.0 4000.0 4000.0 4000.0 4000.0 4000.0 4000.0 4000.0 4000.0 4000.0 4000.0 4000.0 4000.0 4000.0 4000.0 4000.0 4000.0 4000.0 4000.0 4000.0 4000.0 4000.0 4000.0 4000.0 4000.0 4000.0 4000.0 4000.0 4000.0 4000.0 4000.0 4000.0 4000.0 4000.0 4000.0 4000.0 4000.0 4000.0 4000.0 4000.0 4000.0 4000.0 4000.0 4000.0 4000.0 4000.0 4000.0 4000.0 4000.0 4000.0 4000.0 4000.0 4000.0 4000.0 4000.0 4000.0 4000.0 4000.0 4000.0 4000.0 4000.0 4000.0 4000.0 4000.0 4000.0 4000.0 4000.0 4000.0 4000.0 4000.0 4000.0 4000.0 4000.0 4000.0 4000.0 4000.0 4000.0 4000.0 4000.0 4000.0 4000.0 4000.0 4000.0 4000.0 4000.0 4000.0 4000.0 4000.0 4000.0 4000.0 4000.0 4000.0 4000.0 4000.0 4000.0 4000.0 4000.0 4000.0 4000.0 4000.0 4000.0 4000.0 4000.0 4000.0 4000.0 4000.0 4000.0 4000.0 4000.0 4000.0 4000.0 4000.0 4000.0 4000.0 4000.0 4000.0 4000.0 4000.0 4000.0 4000.0 4000.0 4000.0 4000.0 4000.0 4000.0 4000.0 4000.0 4000.0 4000.0 4000.0 4000.0 4000.0 4000.0 4000.0 4000.0 4000.0 4000.0 4000.0 4000.0 4000.0 4000.0 4000.0 4000.0 4000.0 4000.0 4000.0 4000.0 4000.0 4000.0 4000.0 4000.0 4000.0 4000.0 4000.0 4000.0 4000.0 4000.0 4000.0 4000.0 4000.0 4000.0 4000.0 4000.0 4000.0 4000.0 4000.0 4000.0 4000.0 4000.0 4000.0 4000.0 4000.0 4000.0 4000.0 4000.0 4000.0 4000.0 4000.0 4000.0 4000.0 4000.0 4000.0 4000.0 4000.0 4000.0 4000.0 4000.0 4000.0 4000.0 4000.0 4000.0 4000.0 4000.0 4000.0 4000.0 4000.0 4000.0 4000.0 4000.0 4000.0 4000.0 4000.0 4000.0 4000.0 4000.0 4000.0 4000.0 4000.0 4000.0 4000.0 4000.0 4000.0 4000.0 4000.0 4000.0 4000.0 4000.0 4000.0 4000.0 4000.0 4000.0 4000.0 4000.0 4000.0 4000.0 4000.0 4000.0 4000.0 4000.0 4000.0 4000.0 4000.0 4000.0 4000.0 4000.0 4000.0 4000.0 4000.0 4000.0 4000.0 4000.0 4000.0 4000.0 4000.0 4000.0 4000.0 4000.0 4000.0 4000.0 4000.0 4000.0 4000.0 4000.0 4000.0 4000.0 4000.0 4000.0 4000.0 4000.0 4000.0 4000.0 4000.0 4000.0 4000.0 4000.0 4000.0 4000.0 4000.0 4000.0 4000.0 4000.0 4000.0 4000.0 4000.0 4000.0 4000.0 4000.0 4000.0 4000.0 4000.0 4000.0 4000.0 4000.0 4000.0 4000.0 4000.0 4000.0 4000.0 4000.0 4000.0 4000.0 4000.0 4000.0 4000.0 4000.0 4000.0 4000.0 4000.0 4000.0 4000.0 4000.0 4000.0 4000.0 4000.0 4000.0 4000.0 4000.0 4000.0 4000.0 4000.0 4000.0 4000.0 4000.0 4000.0 4000.0 4000.0 4000.0 4000.0 4000.0 4000.0 4000.0 4000.0 4000.0 4000.0 4000.0 4000.0 4000.0 4000.0 4000.0 4000.0 4000.0 4000.0 4000.0 4000.0 4000.0 4000.0 4000.0 4000.0 4000.0 4000.0 4000.0 4000.0 4000.0 4000.0 4000.0 4000.0 4000.0 4000.0 4000.0 4000.0 4000.0 4000.0 4000.0 4000.0 4000.0 4000.0 4000.0 4000.0 4000.0 4000.0 4000.0 4000.0 4000.0 4000.0 4000.0 4000.0 4000.0 4000.0 4000.0 4000.0 4000.0 4000.0 4000.0 4000.0 4000.0 4000.0 4000.0 4000.0 4000.0 4000.0 4000.0 4000.0 4000.0 4000.0 4000.0 4000.0 4000.0 4000.0 4000.0 4000.0 4000.0 4000.0 4000.0 4000.0 4000.0 4000.0 4000.0 4000.0 4000.0 4000.0 4000.0 4000.0 4000.0 4000.0 4000.0 4000.0 4000.0 4000.0 4000.0 4000.0 4000.0 4000.0 4000.0 4000.0 4000.0 4000.0 4000.0 4000.0 4000.0 4000.0 4000.0 4000.0 4000.0 4000.0 4000.0 4000.0 4000.0 4000.0 4000.0 4000.0 4000.0 4000.0 4000.0 4000.0 4000.0 4000.0 4000.0 4000.0 4000.0 4000.0 4000.0 4000.0 4000.0 4000.0 4000.0 4000.0 4000.0 4000.0 4000.0 4000.0 4000.0 4000.0 4000.0 4000.0 4000.0 4000.0 4000.0 4000.0 4000.0 4000.0 4000.0 4000.0 4000.0 4000.0 4000.0 4000.0 4000.0 4000.0 4000.0 4000.0 4000.0 4000.0 4000.0 4000.0 4000.0 4000.0 4000.0 4000.0 4000.0 4000.0 4000.0 4000.0 4000.0 4000.0 4000.0 4000.0 4000.0 4000.0 4000.0 4000.0 4000.0 4000.0 4000.0 4000.0 4000.0 4000.0 4000.0 4000.0 4000.0 4000.0 4000.0 4000.0 4000.0 4000.0 4000.0 4000.0 4000.0 4000.0 4000.0 4000.0 4000.0 4000.0 4000.0 4000.0 4000.0 4000.0 4000.0 4000.0 4000.0 4000.0 4000.0 4000.0 4000.0 4000.0 4000.0 4000.0 4000.0 4000.0 4000.0 4000.0 4000.0 4000.0 4000.0 4000.0 4000.0 4000.0 4000.0 4000.0 4000.0 4000.0 4000.0 4000.0 4000.0 4000.0 4000.0 4000.0 4000.0 4000.0 4000.0 4000.0 4000.0 4000.0 4000.0 4000.0 4000.0 4000.0 4000.0 4000.0 4000.0 4000.0 4000.0 4000.0 4000.0 4000.0 4000.0 4000.0 4000.0 4000.0 4000.0 4000.0 4000.0 4000.0 4000.0 4000.0 4000.0 4000.0 4000.0 4000.0 4000.0 4000.0 4000.0 4000.0 4000.0 4000.0 4000.0 4000.0 4000.0 4000.0 4000.0 4000.0 4000.0 4000.0 4000.0 4000.0 4000.0 4000.0 4000.0 4000.0 4000.0 4000.0 4000.0 4000.0 4000.0 4000.0 4000.0 4000.0 4000.0 4000.0 4000.0 4000.0 4000.0 4000.0 4000.0 4000.0 4000.0 4000.0 4000.0 4000.0 4000.0 4000.0 4000.0 4000.0 4000.0 4000.0 4000.0 4000.0 4000.0 4000.0 4000.0 4000.0 4000.0 4000.0 4000.0 4000.0 4000.0 4000.0 4000.0 4000.0 4000.0 4000.0 4000.0 4000.0 4000.0 4000.0 4000.0 4000.0 4000.0 4000.0 4000.0 4000.0 4000.0 4000.0 4000.0 4000.0 4000.0 4000.0 4000.0 4000.0 4000.0 4000.0 4000.0 4000.0 4000.0 4000.0 4000.0 4000.0 4000.0 4000.0 4000.0 4000.0 4000.0 4000.0 4000.0 4000.0 4000.0 4000.0 4000.0 4000.0 4000.0 4000.0 4000.0 4000.0 4000.0 4000.0 4000.0 4000.0 4000.0 4000.0 4000.0 4000.0 4000.0 4000.0 4000.0 4000.0 4000.0 4000.0 4000.0 4000.0 4000.0 4000.0 4000.0 4000.0 4000.0 4000.0 4000.0 4000.0 4000.0 4000.0 4000.0 4000.0 4000.0 4000.0 4000.0 4000.0 4000.0 4000.0 4000.0 4000.0 4000.0 4000.0 4000.0 4000.0 4000.0 4000.0 4000.0 4000.0 4000.0 4000.0 4000.0 4000.0 4000.0 4000.0 4000.0 4000.0 4000.0 4000.0 4000.0 4000.0 4000.0 4000.0 4000.0 4000.0 4000.0 4000.0 4000.0 4000.0 4000.0 4000.0 4000.0 4000.0 4000.0 4000.0 4000.0 4000.0 4000.0 4000.0 4000.0 4000.0 4000.0 4000.0 4000.0 4000.0 4000.0 4000.0 4000.0 4000.0 4000.0 4000.0 4000.0 4000.0 4000.0 4000.0 4000.0 4000.0 4000.0 4000.0 4000.0 4000.0 4000.0 4000.0 4000.0 4000.0 4000.0 4000.0 4000.0 4000.0 4000.0 4000.0 4000.0 4000.0 4000.0 4000.0 4000.0 4000.0 4000.0 4000.0 4000.0 4000.0 4000.0 4000.0 4000.0 4000.0 4000.0 4000.0 4000.0 4000.0 4000.0 4000.0 4000.0 4000.0 4000.0 4000.0 4000.0 4000.0 4000.0 4000.0 4000.0 4000.0 4000.0 4000.0 4000.0 4000.0 4000.0 4000.0 4000.0 4000.0 4000.0 4000.0 4000.0 4000.0 4000.0 4000.0 4000.0 4000.0 4000.0 4000.0 4000.0 4000.0 4000.0 4000.0 4000.0 4000.0 4000.0 4000.0 4000.0 4000.0 4000.0 4000.0 4000.0 4000.0 4000.0 4000.0 4000.0 4000.0 4000.0 4000.0 4000.0 4000.0 4000.0 4000.0 4000.0 4000.0 4000.0 4000.0 4000.0 4000.0 4000.0 4000.0 4000.0 4000.0 4000.0 4000.0 4000.0 4000.0 4000.0 4000.0 4000.0 4000.0 4000.0 4000.0 4000.0 4000.0 4000.0 4000.0 4000.0 4000.0 4000.0 4000.0 4000.0 4000.0 4000.0 4000.0 4000.0 4000.0 4000.0 4000.0 4000.0 4000.0 4000.0 4000.0 4000.0 4000.0 4000.0 4000.0 4000.0 4000.0 4000.0 4000.0 4000.0 4000.0 4000.0 4000.0 4000.0 4000.0 4000.0 4000.0 4000.0 4000.0 4000.0 4000.0 4000.0 4000.0 4000.0 4000.0 4000.0 4000.0 4000.0 4000.0 4000.0 4000.0 4000.0 4000.0 4000.0 4000.0 4000.0 4000.0 4000.0 4000.0 4000.0 4000.0 4000.0 4000.0 4000.0 4000.0 4000.0 4000.0 4000.0 4000.0 4000.0 4000.0 4000.0 4000.0 4000.0 4000.0 4000.0 4000.0 4000.0 4000.0 4000.0 4000.0 4000.0 4000.0 4000.0 4000.0 4000.0 4000.0 4000.0 4000.0 4000.0 4000.0 4000.0 4000.0 4000.0 4000.0 4000.0 4000.0 4000.0 4000.0 4000.0 4000.0 4000.0 4000.0 4000.0 4000.0 4000.0 4000.0 4000.0 4000.0 4000.0 4000.0 4000.0 4000.0 4000.0 4000.0 4000.0 4000.0 4000.0 4000.0 4000.0 4000.0 4000.0 4000.0 4000.0 4000.0 4000.0 4000.0 4000.0 4000.0 4000.0 4000.0 4000.0 4000.0 4000.0 4000.0 4000.0 4000.0 4000.0 4000.0 4000.0 4000.0 4000.0 4000.0 4000.0 4000.0 4000.0 4000.0 4000.0 4000.0 4000.0 4000.0 4000.0 4000.0 4000.0 4000.0 4000.0 4000.0 4000.0 4000.0 4000.0 4000.0 4000.0 4000.0 4000.0 4000.0 4000.0 4000.0 4000.0 4000.0 4000.0 4000.0 4000.0 4000.0 4000.0 4000.0 4000.0 4000.0 4000.0 4000.0 4000.0 4000.0 4000.0 4000.0 4000.0 4000.0 4000.0 4000.0 4000.0 4000.0 4000.0 4000.0 4000.0 4000.0 4000.0 4000.0 4000.0 4000.0 4000.0 4000.0 4000.0 4000.0 4000.0 4000.0 4000.0 4000.0 4000.0 4000.0 4000.0 4000.0 4000.0 4000.0 4000.0 4000.0 4000.0 4000.0 4000.0 4000.0 4000.0 4000.0 4000.0 4000.0 4000.0 4000.0 4000.0 4000.0 4000.0 4000.0 4000.0 4000.0 4000.0 4000.0 4000.0 4000.0 4000.0 4000.0 4000.0 4000.0 4000.0 4000.0 4000.0 4000.0 4000.0 4000.0 4000.0 4000.0 4000.0 4000.0 4000.0 4000.0 4000.0 4000.0 4000.0 4000.0 4000.0 4000.0 4000.0 4000.0 4000.0 4000.0 4000.0 4000.0 4000.0 4000.0 4000.0 4000.0 4000.0 4000.0 4000.0 4000.0 4000.0 4000.0 4000.0 4000.0 4000.0 4000.0 4000.0 4000.0 4000.0 4000.0 4000.0 4000.0 4000.0 4000.0 4000.0 4000.0 4000.0 4000.0 4000.0 4000.0 4000.0 4000.0 4000.0 4000.0 4000.0 4000.0 4000.0 4000.0 4000.0 4000.0 4000.0 4000.0 4000.0 4000.0 4000.0 4000.0 4000.0 4000.0 4000.0 4000.0 4000.0 4000.0 4000.0 4000.0 4000.0 4000.0 4000.0 4000.0 4000.0 4000.0 4000.0 4000.0 4000.0 4000.0 4000.0 4000.0 4000.0 4000.0 4000.0 4000.0 4000.0 4000.0 4000.0 4000.0 4000.0 4000.0 4000.0 4000.0 4000.0 4000.0 4000.0 4000.0 4000.0 4000.0 4000.0 4000.0 4000.0 4000.0 4000.0 4000.0 4000.0 4000.0 4000.0 4000.0 4000.0 4000.0 4000.0 4000.0 4000.0 4000.0 4000.0 4000.0 4000.0 4000.0 4000.0 4000.0 4000.0 4000.0 4000.0 4000.0 4000.0 4000.0 4000.0 4000.0 4000.0 4000.0 4000.0 4000.0 4000.0 4000.0 4000.0 4000.0 4000.0 4000.0 4000.0 4000.0 4000.0 4000.0 4000.0 4000.0 4000.0 4000.0 4000.0 4000.0 4000.0 4000.0 4000.0 4000.0 4000.0 4000.0 4000.0 4000.0 4000.0 4000.0 4000.0 4000.0 4000.0 4000.0 4000.0 4000.0 4000.0 4000.0 4000.0 4000.0 4000.0 4000.0 4000.0 4000.0 4000.0 4000.0 4000.0 4000.0 4000.0 4000.0 4000.0 4000.0 4000.0 4000.0 4000.0 4000.0 4000.0 4000.0 4000.0 4000.0 4000.0 4000.0 4000.0 4000.0 4000.0 4000.0 4000.0 4000.0 4000.0 4000.0 4000.0 4000.0 4000.0 4000.0 4000.0 4000.0 4000.0 4000.0 4000.0 4000.0 4000.0 4000.0 4000.0 4000.0 4000.0 4000.0 4000.0 4000.0 4000.0 4000.0 4000.0 4000.0 4000.0 4000.0 4000.0 4000.0 4000.0 4000.0 4000.0 4000.0 4000.0 4000.0 4000.0 4000.0 4000.0 4000.0 4000.0 4000.0 4000.0 4000.0 4000.0 4000.0 4000.0 4000.0 4000.0 4000.0 4000.0 4000.0 4000.0 4000.0 4000.0 4000.0 4000.0 4000.0 4000.0 4000.0 4000.0 4000.0 4000.0 4000.0 4000.0 4000.0 4000.0 4000.0 4000.0 4000.0 4000.0 4000.0 4000.0 4000.0 4000.0 4000.0 4000.0 4000.0 4000.0 4000.0 4000.0 4000.0 4000.0 4000.0 4000.0 4000.0 4000.0 4000.0 4000.0 4000.0 4000.0 4000.0 4000.0 4000.0 4000.0 4000.0 4000.0 4000.0 4000.0 4000.0 4000.0 4000.0 4000.0 4000.0 4000.0 4000.0 4000.0 4000.0 4000.0 4000.0 4000.0 4000.0 4000.0 4000.0 4000.0 4000.0 4000.0 4000.0 4000.0 4000.0 4000.0 4000.0 4000.0 4000.0 4000.0 4000.0 4000.0 4000.0 4000.0 4000.0 4000.0 4000.0 4000.0 4000.0 4000.0 4000.0 4000.0 4000.0 4000.0 4000.0 4000.0 4000.0 4000.0 4000.0 4000.0 4000.0 4000.0 4000.0 4000.0 4000.0 4000.0 4000.0 4000.0 4000.0 4000.0 4000.0 4000.0 4000.0 4000.0 4000.0 4000.0 4000.0 4000.0 4000.0 4000.0 4000.0 4000.0 4000.0 4000.0 4000.0 4000.0 4000.0 4000.0 4000.0 4000.0 4000.0 4000.0 4000.0 4000.0 4000.0 4000.0 4000.0 4000.0 4000.0 4000.0 4000.0 4000.0 4000.0 4000.0 4000.0 4000.0 4000.0 4000.0 4000.0 4000.0 4000.0 4000.0 4000.0 4000.0 4000.0 4000.0 4000.0 4000.0 4000.0 4000.0 4000.0 4000.0 4000.0 4000.0 4000.0 4000.0 4000.0 4000.0 4000.0 4000.0 4000.0 4000.0 4000.0 4000.0 4000.0 4000.0 4000.0 4000.0 4000.0 4000.0 4000.0 4000.0 4000.0 4000.0 4000.0 4000.0 4000.0 4000.0 4000.0 4000.0 4000.0 4000.0 4000.0 4000.0 4000.0 4000.0 4000.0 4000.0 4000.0 4000.0 4000.0 4000.0 4000.0 4000.0 4000.0 4000.0 4000.0 4000.0 4000.0 4000.0 4000.0 4000.0 4000.0 4000.0 4000.0 4000.0 4000.0 4000.0 4000.0 4000.0 4000.0 4000.0 4000.0 4000.0 4000.0 4000.0 4000.0 4000.0 4000.0 4000.0 4000.0 4000.0 4000.0 4000.0 4000.0 4000.0 4000.0 4000.0 4000.0 4000.0 4000.0 4000.0 4000.0 4000.0 4000.0 4000.0 4000.0 4000.0 4000.0 4000.0 4000.0 4000.0 4000.0 4000.0 4000.0 4000.0 4000.0 4000.0 4000.0 4000.0 4000.0 4000.0 4000.0 4000.0 4000.0 4000.0 4000.0 4000.0 4000.0 4000.0 4000.0 4000.0 4000.0 4000.0 4000.0 4000.0 4000.0 4000.0 4000.0 4000.0 4000.0 4000.0 4000.0 4000.0 4000.0 4000.0 4000.0 4000.0 4000.0 4000.0 4000.0 4000.0 4000.0 4000.0 4000.0 4000.0 4000.0 4000.0 4000.0 4000.0 4000.0 4000.0 4000.0 4000.0 4000.0 4000.0 4000.0 4000.0 4000.0 4000.0 4000.0 4000.0 4000.0 4000.0 4000.0 4000.0 4000.0 4000.0 4000.0 4000.0 4000.0 4000.0 4000.0 4000.0 4000.0 4000.0 4000.0 4000.0 4000.0 4000.0 4000.0 4000.0 4000.0 4000.0 4000.0 4000.0 4000.0 4000.0 4000.0 4000.0 4000.0 4000.0 4000.0 4000.0 4000.0 4000.0 4000.0 4000.0 4000.0 4000.0 4000.0 4000.0 4000.0 4000.0 4000.0 4000.0 4000.0 4000.0 4000.0 4000.0 4000.0 4000.0 4000.0 4000.0 4000.0 4000.0 4000.0 4000.0 4000.0 4000.0 4000.0 4000.0 4000.0 4000.0 4000.0 4000.0 4000.0 4000.0 4000.0 4000.0 4000.0 4000.0 4000.0 4000.0 4000.0 4000.0 4000.0 4000.0 4000.0 4000.0 4000.0 4000.0 4000.0 4000.0 4000.0 4000.0 4000.0 4000.0 4000.0 4000.0 4000.0 4000.0 4000.0 4000.0 4000.0 4000.0 4000.0 4000.0 4000.0 4000.0 4000.0 4000.0 4000.0 4000.0 4000.0 4000.0 4000.0 4000.0 4000.0 4000.0 4000.0 4000.0 4000.0 4000.0 4000.0 4000.0 4000.0 4000.0 4000.0 4000.0 4000.0 4000.0 4000.0 4000.0 4000.0 4000.0 4000.0 4000.0 4000.0 4000.0 4000.0 4000.0 4000.0 4000.0 4000.0 4000.0 4000.0 4000.0 4000.0 4000.0 4000.0 4000.0 4000.0 4000.0 4000.0 4000.0 4000.0 4000.0 4000.0 4000.0 4000.0 4000.0 4000.0 4000.0 4000.0 4000.0 4000.0 4000.0 4000.0 4000.0 4000.0 4000.0 4000.0 4000.0 4000.0 4000.0 4000.0 4000.0 4000.0 4000.0 4000.0 4000.0 4000.0 4000.0 4000.0 4000.0 4000.0 4000.0 4000.0 4000.0 4000.0 4000.0 4000.0 4000.0 4000.0 4000.0 4000.0 4000.0 4000.0 4000.0 4000.0 4000.0 4000.0 4000.0 4000.0 4000.0 4000.0 4000.0 4000.0 4000.0 4000.0 4000.0 4000.0 4000.0 4000.0 4000.0 4000.0 4000.0 4000.0 4000.0 4000.0 4000.0 4000.0 4000.0 4000.0 4000.0 4000.0 4000.0 4000.0 4000.0 4000.0 4000.0 4000.0 4000.0 4000.0 4000.0 4000.0 4000.0 4000.0 4000.0 4000.0 4000.0 4000.0 4000.0 4000.0 4000.0 4000.0 4000.0 4000.0 4000.0 4000.0 4000.0 4000.0 4000.0 4000.0 4000.0 4000.0 4000.0 4000.0 4000.0 4000.0 4000.0 4000.0 4000.0 4000.0 4000.0 4000.0 4000.0 4000.0 4000.0 4000.0 4000.0 4000.0 4000.0 4000.0 4000.0 4000.0 4000.0 4000.0 4000.0 4000.0 4000.0 4000.0 4000.0 4000.0 4000.0 4000.0 4000.0 4000.0 4000.0 4000.0 4000.0 4000.0 4000.0 4000.0 4000.0 4000.0 4000.0 4000.0 4000.0 4000.0 4000.0 4000.0 4000.0 4000.0 4000.0 4000.0 4000.0 4000.0 4000.0 4000.0 4000.0 4000.0 4000.0 4000.0 4000.0 4000.0 4000.0 4000.0 4000.0 4000.0 4000.0 4000.0 4000.0 4000.0 4000.0 4000.0 4000.0 4000.0 4000.0 4000.0 4000.0 4000.0 4000.0 4000.0 4000.0 4000.0 4000.0 4000.0 4000.0 4000.0 4000.0 4000.0 4000.0 4000.0 4000.0 4000.0 4000.0 4000.0 4000.0 4000.0 4000.0 4000.0 4000.0 4000.0 4000.0 4000.0 4000.0 4000.0 4000.0 4000.0 4000.0 4000.0 4000.0 4000.0 4000.0 4000.0 4000.0 4000.0 4000.0 4000.0 4000.0 4000.0 4000.0 4000.0 4000.0 4000.0 4000.0 4000.0 4000.0 4000.0 4000.0 4000.0 4000.0 4000.0 4000.0 4000.0 4000.0 4000.0 4000.0 4000.0 4000.0 4000.0 4000.0 4000.0 4000.0 4000.0 4000.0 4000.0 4000.0 4000.0 4000.0 4000.0 4000.0 4000.0 4000.0 4000.0 4000.0 4000.0 4000.0 4000.0 4000.0 4000.0 4000.0 4000.0 4000.0 4000.0 4000.0 4000.0 4000.0 4000.0 4000.0 4000.0 4000.0 4000.0 4000.0 4000.0 4000.0 4000.0 4000.0 4000.0 4000.0 4000.0 4000.0 4000.0 4000.0 4000.0 4000.0 4000.0 4000.0 4000.0 4000.0 4000.0 4000.0 4000.0 4000.0 4000.0 4000.0 4000.0 4000.0 4000.0 4000.0 4000.0 4000.0 4000.0 4000.0 4000.0 4000.0 4000.0 4000.0 4000.0 4000.0 4000.0 4000.0 4000.0 4000.0 4000.0 4000.0 4000.0 4000.0 4000.0 4000.0 4000.0 4000.0 4000.0 4000.0 4000.0 4000.0 4000.0 4000.0 4000.0 4000.0 4000.0 4000.0 4000.0 4000.0 4000.0 4000.0 4000.0 4000.0 4000.0 4000.0 4000.0 4000.0 4000.0 4000.0 4000.0 4000.0 4000.0 4000.0 4000.0 4000.0 4000.0 4000.0 4000.0 4000.0 4000.0 4000.0 4000.0 4000.0 4000.0 4000.0 4000.0 4000.0 4000.0 4000.0 4000.0 4000.0 4000.0 4000.0 4000.0 4000.0 4000.0 4000.0 4000.0 4000.0 4000.0 4000.0 4000.0 4000.0 4000.0 4000.0 4000.0 4000.0 4000.0 4000.0 4000.0 4000.0 4000.0 4000.0 4000.0 4000.0 4000.0 4000.0 4000.0 4000.0 4000.0 4000.0 4000.0 4000.0 4000.0 4000.0 4000.0 4000.0 4000.0 4000.0 4000.0 4000.0 4000.0 4000.0 4000.0 4000.0 4000.0 4000.0 4000.0 4000.0 4000.0 4000.0 4000.0 4000.0 4000.0 4000.0 4000.0 4000.0 4000.0 4000.0 4000.0 4000.0 4000.0 4000.0 4000.0 4000.0 4000.0 4000.0 4000.0 4000.0 4000.0 4000.0 4000.0 4000.0 4000.0 4000.0 4000.0 4000.0 4000.0 4000.0 4000.0 4000.0 4000.0 4000.0 4000.0 4000.0 4000.0 4000.0 4000.0 4000.0 4000.0 4000.0 4000.0 4000.0 4000.0 4000.0 4000.0 4000.0 4000.0 4000.0 4000.0 4000.0 4000.0 4000.0 4000.0 4000.0 4000.0 4000.0 4000.0 4000.0 4000.0 4000.0 4000.0 4000.0 4000.0 4000.0 4000.0 4000.0 4000.0 4000.0 4000.0 4000.0 4000.0 4000.0 4000.0 4000.0 4000.0 4000.0 4000.0 4000.0 4000.0 4000.0 4000.0 4000.0 4000.0 4000.0 4000.0 4000.0 4000.0 4000.0 4000.0 4000.0 4000.0 4000.0 4000.0 4000.0 4000.0 4000.0 4000.0 4000.0 4000.0 4000.0 4000.0 4000.0 4000.0 4000.0 4000.0 4000.0 4000.0 4000.0 4000.0 4000.0 4000.0 4000.0 4000.0 4000.0 4000.0 4000.0 4000.0 4000.0 4000.0 4000.0 4000.0 4000.0 4000.0 4000.0 4000.0 4000.0 4000.0 4000.0 4000.0 4000.0 4000.0 4000.0 4000.0 4000.0 4000.0 4000.0 4000.0 4000.0 4000.0 4000.0 4000.0 4000.0 4000.0 4000.0 4000.0 4000.0 4000.0 4000.0 4000.0 4000.0 4000.0 4000.0 4000.0 4000.0 4000.0 4000.0 4000.0 4000.0 4000.0 4000.0 4000.0 4000.0 4000.0 4000.0 4000.0 4000.0 4000.0 4000.0 4000.0 4000.0 4000.0 4000.0 4000.0 4000.0 4000.0 4000.0 4000.0 4000.0 4000.0 4000.0 4000.0 4000.0 4000.0 4000.0 4000.0 4000.0 4000.0 4000.0 4000.0 4000.0 4000.0 4000.0 4000.0 4000.0 4000.0 4000.0 4000.0 4000.0 4000.0 4000.0 4000.0 4000.0 4000.0 4000.0 4000.0 4000.0 4000.0 4000.0 4000.0 4000.0 4000.0 4000.0 4000.0 4000.0 4000.0 4000.0 4000.0 4000.0 4000.0 4000.0 4000.0 4000.0 4000.0 4000.0 4000.0 4000.0 4000.0 4000.0 4000.0 4000.0 4000.0 4000.0 4000.0 4000.0 4000.0 4000.0 4000.0 4000.0 4000.0 4000.0 4000.0 4000.0 4000.0 4000.0 4000.0 4000.0 4000.0 4000.0 4000.0 4000.0 4000.0 4000.0 4000.0 4000.0 4000.0 4000.0 4000.0 4000.0 4000.0 4000.0 4000.0 4000.0 4000.0 4000.0 4000.0 4000.0 4000.0 4000.0 4000.0 4000.0 4000.0 4000.0 4000.0 4000.0 4000.0 4000.0 4000.0 4000.0 4000.0 4000.0 4000.0 4000.0 4000.0 4000.0 4000.0 4000.0 4000.0 4000.0 4000.0 4000.0 4000.0 4000.0 4000.0 4000.0 4000.0 4000.0 4000.0 4000.0 4000.0 4000.0 4000.0 4000.0 4000.0 4000.0 4000.0 4000.0 4000.0 4000.0 4000.0 4000.0 4000.0 4000.0 4000.0 4000.0 4000.0 4000.0 4000.0 4000.0 4000.0 4000.0 4000.0 4000.0 4000.0 4000.0 4000.0 4000.0 4000.0 4000.0 4000.0 4000.0 4000.0 4000.0 4000.0 4000.0 4000.0 4000.0 4000.0 4000.0 4000.0 4000.0 4000.0 4000.0 4000.0 4000.0 4000.0 4000.0 4000.0 4000.0 4000.0 4000.0 4000.0 4000.0 4000.0 4000.0 4000.0 4000.0 4000.0 4000.0 4000.0 4000.0 4000.0 4000.0 4000.0 4000.0 4000.0 4000.0 4000.0 4000.0 4000.0 4000.0 4000.0 4000.0 4000.0 4000.0 4000.0 4000.0 4000.0 4000.0 4000.0 4000.0 4000.0 4000.0 4000.0 4000.0 4000.0 4000.0 4000.0 4000.0 4000.0 4000.0 4000.0 4000.0 4000.0 4000.0 4000.0 4000.0 4000.0 4000.0 4000.0 4000.0 4000.0 4000.0 4000.0 4000.0 4000.0 4000.0 4000.0 4000.0 4000.0 4000.0 4000.0 4000.0 4000.0 4000.0 4000.0 4000.0 4000.0 4000.0 4000.0 4000.0 4000.0 4000.0 4000.0 4000.0 4000.0 4000.0 4000.0 4000.0 4000.0 4000.0 4000.0 4000.0 4000.0 4000.0 4000.0 4000.0 4000.0 4000.0 4000.0 4000.0 4000.0 4000.0 4000.0 4000.0 4000.0 4000.0 4000.0 4000.0 4000.0 4000.0 4000.0 4000.0 4000.0 4000.0 4000.0 4000.0 4000.0 4000.0 4000.0 4000.0 4000.0 4000.0 4000.0 4000.0 4000.0 4000.0 4000.0 4000.0 4000.0 4000.0 4000.0 4000.0 4000.0 4000.0 4000.0 4000.0 4000.0 4000.0 4000.0 4000.0 4000.0 4000.0 4000.0 4000.0 4000.0 4000.0 4000.0 4000.0 4000.0 4000.0 4000.0 4000.0 4000.0 4000.0 4000.0 4000.0 4000.0 4000.0 4000.0 4000.0 4000.0 4000.0 4000.0 4000.0 4000.0 4000.0 4000.0 4000.0 4000.0 4000.0 4000.0 4000.0 4000.0 4000.0 4000.0 4000.0 4000.0 4000.0 4000.0 4000.0 4000.0 4000.0 4000.0 4000.0 4000.0 4000.0 4000.0 4000.0 4000.0 4000.0 4000.0 4000.0 4000.0 4000.0 4000.0 4000.0 4000.0 4000.0 4000.0 4000.0 4000.0 4000.0 4000.0 4000.0 4000.0 4000.0 4000.0 4000.0 4000.0 4000.0 4000.0 4000.0 4000.0 4000.0 4000.0 4000.0 4000.0 4000.0 4000.0 4000.0 4000.0 4000.0 4000.0 4000.0 4000.0 4000.0 4000.0 4000.0 4000.0 4000.0 4000.0 4000.0 4000.0 4000.0 4000.0 4000.0 4000.0 4000.0 4000.0 4000.0 4000.0 4000.0 4000.0 4000.0 4000.0 4000.0 4000.0 4000.0 4000.0 4000.0 4000.0 4000.0 4000.0 4000.0 4000.0 4000.0 4000.0 4000.0 4000.0 4000.0 4000.0 4000.0 4000.0 4000.0 4000.0 4000.0 4000.0 4000.0 4000.0 4000.0 4000.0 4000.0 4000.0 4000.0 4000.0 4000.0 4000.0 4000.0 4000.0 4000.0 4000.0 4000.0 4000.0 4000.0 4000.0 4000.0 4000.0 4000.0 4000.0 4000.0 4000.0 4000.0 4000.0 4000.0 4000.0 4000.0 4000.0 4000.0 4000.0 4000.0 4000.0 4000.0 4000.0 4000.0 4000.0 4000.0 4000.0 4000.0 4000.0 4000.0 4000.0 4000.0 4000.0 4000.0 4000.0 4000.0 4000.0 4000.0 4000.0 4000.0 4000.0 4000.0 4000.0 4000.0 4000.0 4000.0 4000.0 4000.0 4000.0 4000.0 4000.0 4000.0 4000.0 4000.0 4000.0 4000.0 4000.0 4000.0 4000.0 4000.0 4000.0 4000.0 4000.0 4000.0 4000.0 4000.0 4000.0 4000.0 4000.0 4000.0 4000.0 4000.0 4000.0 4000.0 4000.0 4000.0 4000.0 4000.0 4000.0 4000.0 4000.0 4000.0 4000.0 4000.0 4000.0 4000.0 4000.0 4000.0 4000.0 4000.0 4000.0 4000.0 4000.0 4000.0 4000.0 4000.0 4000.0 4000.0 4000.0 4000.0 4000.0 4000.0 4000.0 4000.0 4000.0 4000.0 4000.0 4000.0 4000.0 4000.0 4000.0 4000.0 4000.0 4000.0 4000.0 4000.0 4000.0 4000.0 4000.0 4000.0 4000.0 4000.0 4000.0 4000.0 4000.0 4000.0 4000.0 4000.0 4000.0 4000.0 4000.0 4000.0 4000.0 4000.0 4000.0 4000.0 4000.0 4000.0 4000.0 4000.0 4000.0 4000.0 4000.0 4000.0 4000.0 4000.0 4000.0 4000.0 4000.0 4000.0 4000.0 4000.0 4000.0 4000.0 4000.0 4000.0 4000.0 4000.0 4000.0 4000.0 4000.0 4000.0 4000.0 4000.0 4000.0 4000.0 4000.0 4000.0 4000.0 4000.0 4000.0 4000.0 4000.0 4000.0 4000.0 4000.0 4000.0 4000.0 4000.0 4000.0 4000.0 4000.0 4000.0 4000.0 4000.0 4000.0 4000.0 4000.0 4000.0 4000.0 4000.0 4000.0 4000.0 4000.0 4000.0 4000.0 4000.0 4000.0 4000.0 4000.0 4000.0 4000.0 4000.0 4000.0 4000.0 4000.0 4000.0 4000.0 4000.0 4000.0 4000.0 4000.0 4000.0 4000.0 4000.0 4000.0 4000.0 4000.0 4000.0 4000.0 4000.0 4000.0 4000.0 4000.0 4000.0 4000.0 4000.0 4000.0 4000.0 4000.0 4000.0 4000.0 4000.0 4000.0 4000.0 4000.0 4000.0 4000.0 4000.0 4000.0 4000.0 4000.0 4000.0 4000.0 4000.0 4000.0 4000.0 4000.0 4000.0 4000.0 4000.0 4000.0 4000.0 4000.0 4000.0 4000.0 4000.0 4000.0 4000.0 4000.0 4000.0 4000.0 4000.0 4000.0 4000.0 4000.0 4000.0 4000.0 4000.0 4000.0 4000.0 4000.0 4000.0 4000.0 4000.0 4000.0 4000.0 4000.0 4000.0 4000.0 4000.0 4000.0 4000.0 4000.0 4000.0 4000.0 4000.0 4000.0 4000.0 4000.0 4000.0 4000.0 4000.0 4000.0 4000.0 4000.0 4000.0 4000.0 4000.0 4000.0 4000.0 4000.0 4000.0 4000.0 4000.0 4000.0 4000.0 4000.0 4000.0 4000.0 4000.0 4000.0 4000.0 4000.0 4000.0 4000.0 4000.0 4000.0 4000.0 4000.0 4000.0 4000.0 4000.0 4000.0 4000.0 4000.0 4000.0 4000.0 4000.0 4000.0 4000.0 4000.0 4000.0 4000.0 4000.0 4000.0 4000.0 4000.0 4000.0 4000.0 4000.0 4000.0 4000.0 4000.0 4000.0 4000.0 4000.0 4000.0 4000.0 4000.0 4000.0 4000.0 4000.0 4000.0 4000.0 4000.0 4000.0 4000.0 4000.0 4000.0 4000.0 4000.0 4000.0 4000.0 4000.0 4000.0 4000.0 4000.0 4000.0 4000.0 4000.0 4000.0 4000.0 4000.0 4000.0 4000.0 4000.0 4000.0 4000.0 4000.0 4000.0 4000.0 4000.0 4000.0 4000.0 4000.0 4000.0 4000.0 4000.0 4000.0 4000.0 4000.0 4000.0 4000.0 4000.0 4000.0 4000.0 4000.0 4000.0 4000.0 4000.0 4000.0 4000.0 4000.0 4000.0 4000.0 4000.0 4000.0 4000.0 4000.0 4000.0 4000.0 4000.0 4000.0 4000.0 4000.0 4000.0 4000.0 4000.0 4000.0 4000.0 4000.0 4000.0 4000.0 4000.0 4000.0 4000.0 4000.0 4000.0 4000.0 4000.0 4000.0 4000.0 4000.0 4000.0 4000.0 4000.0 4000.0 4000.0 4000.0 4000.0 4000.0 4000.0 4000.0 4000.0 4000.0 4000.0 4000.0 4000.0 4000.0 4000.0 4000.0 4000.0 4000.0 4000.0 4000.0 4000.0 4000.0 4000.0 4000.0 4000.0 4000.0 4000.0 4000.0 4000.0 4000.0 4000.0 4000.0 4000.0 4000.0 4000.0 4000.0 4000.0 4000.0 4000.0 4000.0 4000.0 4000.0 4000.0 4000.0 4000.0 4000.0 4000.0 4000.0 4000.0 4000.0 4000.0 4000.0 4000.0 4000.0 4000.0 4000.0 4000.0 4000.0 4000.0 4000.0 4000.0 4000.0 4000.0 4000.0 4000.0 4000.0 4000.0 4000.0 4000.0 4000.0 4000.0 4000.0 4000.0 4000.0 4000.0 4000.0 4000.0 4000.0 4000.0 4000.0 4000.0 4000.0 4000.0 4000.0 4000.0 4000.0 4000.0 4000.0 4000.0 4000.0 4000.0 4000.0 4000.0 4000.0 4000.0 4000.0 4000.0 4000.0 4000.0 4000.0 4000.0 4000.0 4000.0 4000.0 4000.0 4000.0 4000.0 4000.0 4000.0 4000.0 4000.0 4000.0 4000.0 4000.0 4000.0 4000.0 4000.0 4000.0 4000.0 4000.0 4000.0 4000.0 4000.0 4000.0 4000.0 4000.0 4000.0 4000.0 4000.0 4000.0 4000.0 4000.0 4000.0 4000.0 4000.0 4000.0 4000.0 4000.0 4000.0 4000.0 4000.0 4000.0 4000.0 4000.0 4000.0 4000.0 4000.0 4000.0 4000.0 4000.0 4000.0 4000.0 4000.0 4000.0 4000.0 4000.0 4000.0 4000.0 4000.0 4000.0 4000.0 4000.0 4000.0 4000.0 4000.0 4000.0 4000.0 4000.0 4000.0 4000.0 4000.0 4000.0 4000.0 4000.0 4000.0 4000.0 4000.0 4000.0 4000.0 4000.0 4000.0 4000.0 4000.0 4000.0 4000.0 4000.0 4000.0 4000.0 4000.0 4000.0 4000.0 4000.0 4000.0 4000.0 4000.0 4000.0 4000.0 4000.0 4000.0 4000.0 4000.0 4000.0 4000.0 4000.0 4000.0 4000.0 4000.0 4000.0 4000.0 4000.0 4000.0 4000.0 4000.0 4000.0 4000.0 4000.0 4000.0 4000.0 4000.0 4000.0 4000.0 4000.0 4000.0 4000.0 4000.0 4000.0 4000.0 4000.0 4000.0 4000.0 4000.0 4000.0 4000.0 4000.0 4000.0 4000.0 4000.0 4000.0 4000.0 4000.0 4000.0 4000.0 4000.0 4000.0 4000.0 4000.0 4000.0 4000.0 4000.0 4000.0 4000.0 4000.0 4000.0 4000.0 4000.0 4000.0 4000.0 4000.0 4000.0 4000.0 4000.0 4000.0 4000.0 4000.0 4000.0 4000.0 4000.0 4000.0 4000.0 4000.0 4000.0 4000.0 4000.0 4000.0 4000.0 4000.0 4000.0 4000.0 4000.0 4000.0 4000.0 4000.0 4000.0 4000.0 4000.0 4000.0 4000.0 4000.0 4000.0 4000.0 4000.0 4000.0 4000.0 4000.0 4000.0 4000.0 4000.0 4000.0 4000.0 4000.0 4000.0 4000.0 4000.0 4000.0 4000.0 4000.0 4000.0 4000.0 4000.0 4000.0 4000.0 4000.0 4000.0 4000.0 4000.0 4000.0 4000.0 4000.0 4000.0 4000.0 4000.0 4000.0 4000.0 4000.0 4000.0 4000.0 4000.0 4000.0 4000.0 4000.0 4000.0 4000.0 4000.0 4000.0 4000.0 4000.0 4000.0 4000.0 4000.0 4000.0 4000.0 4000.0 4000.0 4000.0 4000.0 4000.0 4000.0 4000.0 4000.0 4000.0 4000.0 4000.0 4000.0 4000.0 4000.0 4000.0 4000.0 4000.0 4000.0 4000.0 4000.0 4000.0 4000.0 4000.0 4000.0 4000.0 4000.0 4000.0 4000.0 4000.0 4000.0 4000.0 4000.0 4000.0 4000.0 4000.0 4000.0 4000.0 4000.0 4000.0 4000.0 4000.0 4000.0 4000.0 4000.0 4000.0 4000.0 4000.0 4000.0 4000.0 SCALARS Mass float 1
LOOKUP_TABLE default
11309700000.0 11309700000.0 11309700000.0 11309700000.0 11309700000.0 11309700000.0 11309700000.0 11309700000.0 11309700000.0 11309700000.0 11309700000.0 11309700000.0 11309700000.0 11309700000.0 11309700000.0 11309700000.0 11309700000.0 11309700000.0 11309700000.0 11309700000.0 11309700000.0 11309700000.0 11309700000.0 11309700000.0 11309700000.0 11309700000.0 11309700000.0 11309700000.0 11309700000.0 11309700000.0 11309700000.0 11309700000.0 11309700000.0 11309700000.0 11309700000.0 11309700000.0 11309700000.0 11309700000.0 11309700000.0 11309700000.0 11309700000.0 11309700000.0 11309700000.0 11309700000.0 11309700000.0 11309700000.0 11309700000.0 11309700000.0 11309700000.0 11309700000.0 11309700000.0 11309700000.0 11309700000.0 11309700000.0 11309700000.0 11309700000.0 11309700000.0 11309700000.0 11309700000.0 11309700000.0 11309700000.0 11309700000.0 11309700000.0 11309700000.0 11309700000.0 11309700000.0 11309700000.0 11309700000.0 11309700000.0 11309700000.0 11309700000.0 11309700000.0 11309700000.0 11309700000.0 11309700000.0 11309700000.0 11309700000.0 11309700000.0 11309700000.0 11309700000.0 11309700000.0 11309700000.0 11309700000.0 11309700000.0 11309700000.0 11309700000.0 11309700000.0 11309700000.0 11309700000.0 11309700000.0 11309700000.0 11309700000.0 11309700000.0 11309700000.0 11309700000.0 11309700000.0 11309700000.0 11309700000.0 11309700000.0 11309700000.0 11309700000.0 11309700000.0 11309700000.0 11309700000.0 11309700000.0 11309700000.0 11309700000.0 11309700000.0 11309700000.0 11309700000.0 11309700000.0 11309700000.0 11309700000.0 11309700000.0 11309700000.0 11309700000.0 11309700000.0 11309700000.0 11309700000.0 11309700000.0 11309700000.0 11309700000.0 11309700000.0 11309700000.0 11309700000.0 11309700000.0 11309700000.0 11309700000.0 11309700000.0 11309700000.0 11309700000.0 11309700000.0 11309700000.0 11309700000.0 11309700000.0 11309700000.0 11309700000.0 11309700000.0 11309700000.0 11309700000.0 11309700000.0 11309700000.0 11309700000.0 11309700000.0 11309700000.0 11309700000.0 11309700000.0 11309700000.0 11309700000.0 11309700000.0 11309700000.0 11309700000.0 11309700000.0 11309700000.0 11309700000.0 11309700000.0 11309700000.0 11309700000.0 11309700000.0 11309700000.0 11309700000.0 11309700000.0 11309700000.0 11309700000.0 11309700000.0 11309700000.0 11309700000.0 11309700000.0 11309700000.0 11309700000.0 11309700000.0 11309700000.0 11309700000.0 11309700000.0 11309700000.0 11309700000.0 11309700000.0 11309700000.0 11309700000.0 11309700000.0 11309700000.0 11309700000.0 11309700000.0 11309700000.0 11309700000.0 11309700000.0 11309700000.0 11309700000.0 11309700000.0 11309700000.0 11309700000.0 11309700000.0 11309700000.0 11309700000.0 11309700000.0 11309700000.0 11309700000.0 11309700000.0 11309700000.0 11309700000.0 11309700000.0 11309700000.0 11309700000.0 11309700000.0 11309700000.0 11309700000.0 11309700000.0 11309700000.0 11309700000.0 11309700000.0 11309700000.0 11309700000.0 11309700000.0 11309700000.0 11309700000.0 11309700000.0 11309700000.0 11309700000.0 11309700000.0 11309700000.0 11309700000.0 11309700000.0 11309700000.0 11309700000.0 11309700000.0 11309700000.0 11309700000.0 11309700000.0 11309700000.0 11309700000.0 11309700000.0 11309700000.0 11309700000.0 11309700000.0 11309700000.0 11309700000.0 11309700000.0 11309700000.0 11309700000.0 11309700000.0 11309700000.0 11309700000.0 11309700000.0 11309700000.0 11309700000.0 11309700000.0 11309700000.0 11309700000.0 11309700000.0 11309700000.0 11309700000.0 11309700000.0 11309700000.0 11309700000.0 11309700000.0 11309700000.0 11309700000.0 11309700000.0 11309700000.0 11309700000.0 11309700000.0 11309700000.0 11309700000.0 11309700000.0 11309700000.0 11309700000.0 11309700000.0 11309700000.0 11309700000.0 11309700000.0 11309700000.0 11309700000.0 11309700000.0 11309700000.0 11309700000.0 11309700000.0 11309700000.0 11309700000.0 11309700000.0 11309700000.0 11309700000.0 11309700000.0 11309700000.0 11309700000.0 11309700000.0 11309700000.0 11309700000.0 11309700000.0 11309700000.0 11309700000.0 11309700000.0 11309700000.0 11309700000.0 11309700000.0 11309700000.0 11309700000.0 11309700000.0 11309700000.0 11309700000.0 11309700000.0 11309700000.0 11309700000.0 11309700000.0 11309700000.0 11309700000.0 11309700000.0 11309700000.0 11309700000.0 11309700000.0 11309700000.0 11309700000.0 11309700000.0 11309700000.0 11309700000.0 11309700000.0 11309700000.0 11309700000.0 11309700000.0 11309700000.0 11309700000.0 11309700000.0 11309700000.0 11309700000.0 11309700000.0 11309700000.0 11309700000.0 11309700000.0 11309700000.0 11309700000.0 11309700000.0 11309700000.0 11309700000.0 11309700000.0 11309700000.0 11309700000.0 11309700000.0 11309700000.0 11309700000.0 11309700000.0 11309700000.0 11309700000.0 11309700000.0 11309700000.0 11309700000.0 11309700000.0 11309700000.0 11309700000.0 11309700000.0 11309700000.0 11309700000.0 11309700000.0 11309700000.0 11309700000.0 11309700000.0 11309700000.0 11309700000.0 11309700000.0 11309700000.0 11309700000.0 11309700000.0 11309700000.0 11309700000.0 11309700000.0 11309700000.0 11309700000.0 11309700000.0 11309700000.0 11309700000.0 11309700000.0 11309700000.0 11309700000.0 11309700000.0 11309700000.0 11309700000.0 11309700000.0 11309700000.0 11309700000.0 11309700000.0 11309700000.0 11309700000.0 11309700000.0 11309700000.0 11309700000.0 11309700000.0 11309700000.0 11309700000.0 11309700000.0 11309700000.0 11309700000.0 11309700000.0 11309700000.0 11309700000.0 11309700000.0 11309700000.0 11309700000.0 11309700000.0 11309700000.0 11309700000.0 11309700000.0 11309700000.0 11309700000.0 11309700000.0 11309700000.0 11309700000.0 11309700000.0 11309700000.0 11309700000.0 11309700000.0 11309700000.0 11309700000.0 11309700000.0 11309700000.0 11309700000.0 11309700000.0 11309700000.0 11309700000.0 11309700000.0 11309700000.0 11309700000.0 11309700000.0 11309700000.0 11309700000.0 11309700000.0 11309700000.0 11309700000.0 11309700000.0 11309700000.0 11309700000.0 11309700000.0 11309700000.0 11309700000.0 11309700000.0 11309700000.0 11309700000.0 11309700000.0 11309700000.0 11309700000.0 11309700000.0 11309700000.0 11309700000.0 11309700000.0 11309700000.0 11309700000.0 11309700000.0 11309700000.0 11309700000.0 11309700000.0 11309700000.0 11309700000.0 11309700000.0 11309700000.0 11309700000.0 11309700000.0 11309700000.0 11309700000.0 11309700000.0 11309700000.0 11309700000.0 11309700000.0 11309700000.0 11309700000.0 11309700000.0 11309700000.0 11309700000.0 11309700000.0 11309700000.0 11309700000.0 11309700000.0 11309700000.0 11309700000.0 11309700000.0 11309700000.0 11309700000.0 11309700000.0 11309700000.0 11309700000.0 11309700000.0 11309700000.0 11309700000.0 11309700000.0 11309700000.0 11309700000.0 11309700000.0 11309700000.0 11309700000.0 11309700000.0 11309700000.0 11309700000.0 11309700000.0 11309700000.0 11309700000.0 11309700000.0 11309700000.0 11309700000.0 11309700000.0 11309700000.0 11309700000.0 11309700000.0 11309700000.0 11309700000.0 11309700000.0 11309700000.0 11309700000.0 11309700000.0 11309700000.0 11309700000.0 11309700000.0 11309700000.0 11309700000.0 11309700000.0 11309700000.0 11309700000.0 11309700000.0 11309700000.0 11309700000.0 11309700000.0 11309700000.0 11309700000.0 11309700000.0 11309700000.0 11309700000.0 11309700000.0 11309700000.0 11309700000.0 11309700000.0 11309700000.0 11309700000.0 11309700000.0 11309700000.0 11309700000.0 11309700000.0 11309700000.0 11309700000.0 11309700000.0 11309700000.0 11309700000.0 11309700000.0 11309700000.0 11309700000.0 11309700000.0 11309700000.0 11309700000.0 11309700000.0 11309700000.0 11309700000.0 11309700000.0 11309700000.0 11309700000.0 11309700000.0 11309700000.0 11309700000.0 11309700000.0 11309700000.0 11309700000.0 11309700000.0 11309700000.0 11309700000.0 11309700000.0 11309700000.0 11309700000.0 11309700000.0 11309700000.0 11309700000.0 11309700000.0 11309700000.0 11309700000.0 11309700000.0 11309700000.0 11309700000.0 11309700000.0 11309700000.0 11309700000.0 11309700000.0 11309700000.0 11309700000.0 11309700000.0 11309700000.0 11309700000.0 11309700000.0 11309700000.0 11309700000.0 11309700000.0 11309700000.0 11309700000.0 11309700000.0 11309700000.0 11309700000.0 11309700000.0 11309700000.0 11309700000.0 11309700000.0 11309700000.0 11309700000.0 11309700000.0 11309700000.0 11309700000.0 11309700000.0 11309700000.0 11309700000.0 11309700000.0 11309700000.0 11309700000.0 11309700000.0 11309700000.0 11309700000.0 11309700000.0 11309700000.0 11309700000.0 11309700000.0 11309700000.0 11309700000.0 11309700000.0 11309700000.0 11309700000.0 11309700000.0 11309700000.0 11309700000.0 11309700000.0 11309700000.0 11309700000.0 11309700000.0 11309700000.0 11309700000.0 11309700000.0 11309700000.0 11309700000.0 11309700000.0 11309700000.0 11309700000.0 11309700000.0 11309700000.0 11309700000.0 11309700000.0 11309700000.0 11309700000.0 11309700000.0 11309700000.0 11309700000.0 11309700000.0 11309700000.0 11309700000.0 11309700000.0 11309700000.0 11309700000.0 11309700000.0 11309700000.0 11309700000.0 11309700000.0 11309700000.0 11309700000.0 11309700000.0 11309700000.0 11309700000.0 11309700000.0 11309700000.0 11309700000.0 11309700000.0 11309700000.0 11309700000.0 11309700000.0 11309700000.0 11309700000.0 11309700000.0 11309700000.0 11309700000.0 11309700000.0 11309700000.0 11309700000.0 11309700000.0 11309700000.0 11309700000.0 11309700000.0 11309700000.0 11309700000.0 11309700000.0 11309700000.0 11309700000.0 11309700000.0 11309700000.0 11309700000.0 11309700000.0 11309700000.0 11309700000.0 11309700000.0 11309700000.0 11309700000.0 11309700000.0 11309700000.0 11309700000.0 11309700000.0 11309700000.0 11309700000.0 11309700000.0 11309700000.0 11309700000.0 11309700000.0 11309700000.0 11309700000.0 11309700000.0 11309700000.0 11309700000.0 11309700000.0 11309700000.0 11309700000.0 11309700000.0 11309700000.0 11309700000.0 11309700000.0 11309700000.0 11309700000.0 11309700000.0 11309700000.0 11309700000.0 11309700000.0 11309700000.0 11309700000.0 11309700000.0 11309700000.0 11309700000.0 11309700000.0 11309700000.0 11309700000.0 11309700000.0 11309700000.0 11309700000.0 11309700000.0 11309700000.0 11309700000.0 11309700000.0 11309700000.0 11309700000.0 11309700000.0 11309700000.0 11309700000.0 11309700000.0 11309700000.0 11309700000.0 11309700000.0 11309700000.0 11309700000.0 11309700000.0 11309700000.0 11309700000.0 11309700000.0 11309700000.0 11309700000.0 11309700000.0 11309700000.0 11309700000.0 11309700000.0 11309700000.0 11309700000.0 11309700000.0 11309700000.0 11309700000.0 11309700000.0 11309700000.0 11309700000.0 11309700000.0 11309700000.0 11309700000.0 11309700000.0 11309700000.0 11309700000.0 11309700000.0 11309700000.0 11309700000.0 11309700000.0 11309700000.0 11309700000.0 11309700000.0 11309700000.0 11309700000.0 11309700000.0 11309700000.0 11309700000.0 11309700000.0 11309700000.0 11309700000.0 11309700000.0 11309700000.0 11309700000.0 11309700000.0 11309700000.0 11309700000.0 11309700000.0 11309700000.0 11309700000.0 11309700000.0 11309700000.0 11309700000.0 11309700000.0 11309700000.0 11309700000.0 11309700000.0 11309700000.0 11309700000.0 11309700000.0 11309700000.0 11309700000.0 11309700000.0 11309700000.0 11309700000.0 11309700000.0 11309700000.0 11309700000.0 11309700000.0 11309700000.0 11309700000.0 11309700000.0 11309700000.0 11309700000.0 11309700000.0 11309700000.0 11309700000.0 11309700000.0 11309700000.0 11309700000.0 11309700000.0 11309700000.0 11309700000.0 11309700000.0 11309700000.0 11309700000.0 11309700000.0 11309700000.0 11309700000.0 11309700000.0 11309700000.0 11309700000.0 11309700000.0 11309700000.0 11309700000.0 11309700000.0 11309700000.0 11309700000.0 11309700000.0 11309700000.0 11309700000.0 11309700000.0 11309700000.0 11309700000.0 11309700000.0 11309700000.0 11309700000.0 11309700000.0 11309700000.0 11309700000.0 11309700000.0 11309700000.0 11309700000.0 11309700000.0 11309700000.0 11309700000.0 11309700000.0 11309700000.0 11309700000.0 11309700000.0 11309700000.0 11309700000.0 11309700000.0 11309700000.0 11309700000.0 11309700000.0 11309700000.0 11309700000.0 11309700000.0 11309700000.0 11309700000.0 11309700000.0 11309700000.0 11309700000.0 11309700000.0 11309700000.0 11309700000.0 11309700000.0 11309700000.0 11309700000.0 11309700000.0 11309700000.0 11309700000.0 11309700000.0 11309700000.0 11309700000.0 11309700000.0 11309700000.0 11309700000.0 11309700000.0 11309700000.0 11309700000.0 11309700000.0 11309700000.0 11309700000.0 11309700000.0 11309700000.0 11309700000.0 11309700000.0 11309700000.0 11309700000.0 11309700000.0 11309700000.0 11309700000.0 11309700000.0 11309700000.0 11309700000.0 11309700000.0 11309700000.0 11309700000.0 11309700000.0 11309700000.0 11309700000.0 11309700000.0 11309700000.0 11309700000.0 11309700000.0 11309700000.0 11309700000.0 11309700000.0 11309700000.0 11309700000.0 11309700000.0 11309700000.0 11309700000.0 11309700000.0 11309700000.0 11309700000.0 11309700000.0 11309700000.0 11309700000.0 11309700000.0 11309700000.0 11309700000.0 11309700000.0 11309700000.0 11309700000.0 11309700000.0 11309700000.0 11309700000.0 11309700000.0 11309700000.0 11309700000.0 11309700000.0 11309700000.0 11309700000.0 11309700000.0 11309700000.0 11309700000.0 11309700000.0 11309700000.0 11309700000.0 11309700000.0 11309700000.0 11309700000.0 11309700000.0 11309700000.0 11309700000.0 11309700000.0 11309700000.0 11309700000.0 11309700000.0 11309700000.0 11309700000.0 11309700000.0 11309700000.0 11309700000.0 11309700000.0 11309700000.0 11309700000.0 11309700000.0 11309700000.0 11309700000.0 11309700000.0 11309700000.0 11309700000.0 11309700000.0 11309700000.0 11309700000.0 11309700000.0 11309700000.0 11309700000.0 11309700000.0 11309700000.0 11309700000.0 11309700000.0 11309700000.0 11309700000.0 11309700000.0 11309700000.0 11309700000.0 11309700000.0 11309700000.0 11309700000.0 11309700000.0 11309700000.0 11309700000.0 11309700000.0 11309700000.0 11309700000.0 11309700000.0 11309700000.0 11309700000.0 11309700000.0 11309700000.0 11309700000.0 11309700000.0 11309700000.0 11309700000.0 11309700000.0 11309700000.0 11309700000.0 11309700000.0 11309700000.0 11309700000.0 11309700000.0 11309700000.0 11309700000.0 11309700000.0 11309700000.0 11309700000.0 11309700000.0 11309700000.0 11309700000.0 11309700000.0 11309700000.0 11309700000.0 11309700000.0 11309700000.0 11309700000.0 11309700000.0 11309700000.0 11309700000.0 11309700000.0 11309700000.0 11309700000.0 11309700000.0 11309700000.0 11309700000.0 11309700000.0 11309700000.0 11309700000.0 11309700000.0 11309700000.0 11309700000.0 11309700000.0 11309700000.0 11309700000.0 11309700000.0 11309700000.0 11309700000.0 11309700000.0 11309700000.0 11309700000.0 11309700000.0 11309700000.0 11309700000.0 11309700000.0 11309700000.0 11309700000.0 11309700000.0 11309700000.0 11309700000.0 11309700000.0 11309700000.0 11309700000.0 11309700000.0 11309700000.0 11309700000.0 11309700000.0 11309700000.0 11309700000.0 11309700000.0 11309700000.0 11309700000.0 11309700000.0 11309700000.0 11309700000.0 11309700000.0 11309700000.0 11309700000.0 11309700000.0 11309700000.0 11309700000.0 11309700000.0 11309700000.0 11309700000.0 11309700000.0 11309700000.0 11309700000.0 11309700000.0 11309700000.0 11309700000.0 11309700000.0 11309700000.0 11309700000.0 11309700000.0 11309700000.0 11309700000.0 11309700000.0 11309700000.0 11309700000.0 11309700000.0 11309700000.0 11309700000.0 11309700000.0 11309700000.0 11309700000.0 11309700000.0 11309700000.0 11309700000.0 11309700000.0 11309700000.0 11309700000.0 11309700000.0 11309700000.0 11309700000.0 11309700000.0 11309700000.0 11309700000.0 11309700000.0 11309700000.0 11309700000.0 11309700000.0 11309700000.0 11309700000.0 11309700000.0 11309700000.0 11309700000.0 11309700000.0 11309700000.0 11309700000.0 11309700000.0 11309700000.0 11309700000.0 11309700000.0 11309700000.0 11309700000.0 11309700000.0 11309700000.0 11309700000.0 11309700000.0 11309700000.0 11309700000.0 11309700000.0 11309700000.0 11309700000.0 11309700000.0 11309700000.0 11309700000.0 11309700000.0 11309700000.0 11309700000.0 11309700000.0 11309700000.0 11309700000.0 11309700000.0 11309700000.0 11309700000.0 11309700000.0 11309700000.0 11309700000.0 11309700000.0 11309700000.0 11309700000.0 11309700000.0 11309700000.0 11309700000.0 11309700000.0 11309700000.0 11309700000.0 11309700000.0 11309700000.0 11309700000.0 11309700000.0 11309700000.0 11309700000.0 11309700000.0 11309700000.0 11309700000.0 11309700000.0 11309700000.0 11309700000.0 11309700000.0 11309700000.0 11309700000.0 11309700000.0 11309700000.0 11309700000.0 11309700000.0 11309700000.0 11309700000.0 11309700000.0 11309700000.0 11309700000.0 11309700000.0 11309700000.0 11309700000.0 11309700000.0 11309700000.0 11309700000.0 11309700000.0 11309700000.0 11309700000.0 11309700000.0 11309700000.0 11309700000.0 11309700000.0 11309700000.0 11309700000.0 11309700000.0 11309700000.0 11309700000.0 11309700000.0 11309700000.0 11309700000.0 11309700000.0 11309700000.0 11309700000.0 11309700000.0 11309700000.0 11309700000.0 11309700000.0 11309700000.0 11309700000.0 11309700000.0 11309700000.0 11309700000.0 11309700000.0 11309700000.0 11309700000.0 11309700000.0 11309700000.0 11309700000.0 11309700000.0 11309700000.0 11309700000.0 11309700000.0 11309700000.0 11309700000.0 11309700000.0 11309700000.0 11309700000.0 11309700000.0 11309700000.0 11309700000.0 11309700000.0 11309700000.0 11309700000.0 11309700000.0 11309700000.0 11309700000.0 11309700000.0 11309700000.0 11309700000.0 11309700000.0 11309700000.0 11309700000.0 11309700000.0 11309700000.0 11309700000.0 11309700000.0 11309700000.0 11309700000.0 11309700000.0 11309700000.0 11309700000.0 11309700000.0 11309700000.0 11309700000.0 11309700000.0 11309700000.0 11309700000.0 11309700000.0 11309700000.0 11309700000.0 11309700000.0 11309700000.0 11309700000.0 11309700000.0 11309700000.0 11309700000.0 11309700000.0 11309700000.0 11309700000.0 11309700000.0 11309700000.0 11309700000.0 11309700000.0 11309700000.0 11309700000.0 11309700000.0 11309700000.0 11309700000.0 11309700000.0 11309700000.0 11309700000.0 11309700000.0 11309700000.0 11309700000.0 11309700000.0 11309700000.0 11309700000.0 11309700000.0 11309700000.0 11309700000.0 11309700000.0 11309700000.0 11309700000.0 11309700000.0 11309700000.0 11309700000.0 11309700000.0 11309700000.0 11309700000.0 11309700000.0 11309700000.0 11309700000.0 11309700000.0 11309700000.0 11309700000.0 11309700000.0 11309700000.0 11309700000.0 11309700000.0 11309700000.0 11309700000.0 11309700000.0 11309700000.0 11309700000.0 11309700000.0 11309700000.0 11309700000.0 11309700000.0 11309700000.0 11309700000.0 11309700000.0 11309700000.0 11309700000.0 11309700000.0 11309700000.0 11309700000.0 11309700000.0 11309700000.0 11309700000.0 11309700000.0 11309700000.0 11309700000.0 11309700000.0 11309700000.0 11309700000.0 11309700000.0 11309700000.0 11309700000.0 11309700000.0 11309700000.0 11309700000.0 11309700000.0 11309700000.0 11309700000.0 11309700000.0 11309700000.0 11309700000.0 11309700000.0 11309700000.0 11309700000.0 11309700000.0 11309700000.0 11309700000.0 11309700000.0 11309700000.0 11309700000.0 11309700000.0 11309700000.0 11309700000.0 11309700000.0 11309700000.0 11309700000.0 11309700000.0 11309700000.0 11309700000.0 11309700000.0 11309700000.0 11309700000.0 11309700000.0 11309700000.0 11309700000.0 11309700000.0 11309700000.0 11309700000.0 11309700000.0 11309700000.0 11309700000.0 11309700000.0 11309700000.0 11309700000.0 11309700000.0 11309700000.0 11309700000.0 11309700000.0 11309700000.0 11309700000.0 11309700000.0 11309700000.0 11309700000.0 11309700000.0 11309700000.0 11309700000.0 11309700000.0 11309700000.0 11309700000.0 11309700000.0 11309700000.0 11309700000.0 11309700000.0 11309700000.0 11309700000.0 11309700000.0 11309700000.0 11309700000.0 11309700000.0 11309700000.0 11309700000.0 11309700000.0 11309700000.0 11309700000.0 11309700000.0 11309700000.0 11309700000.0 11309700000.0 11309700000.0 11309700000.0 11309700000.0 11309700000.0 11309700000.0 11309700000.0 11309700000.0 11309700000.0 11309700000.0 11309700000.0 11309700000.0 11309700000.0 11309700000.0 11309700000.0 11309700000.0 11309700000.0 11309700000.0 11309700000.0 11309700000.0 11309700000.0 11309700000.0 11309700000.0 11309700000.0 11309700000.0 11309700000.0 11309700000.0 11309700000.0 11309700000.0 11309700000.0 11309700000.0 11309700000.0 11309700000.0 11309700000.0 11309700000.0 11309700000.0 11309700000.0 11309700000.0 11309700000.0 11309700000.0 11309700000.0 11309700000.0 11309700000.0 11309700000.0 11309700000.0 11309700000.0 11309700000.0 11309700000.0 11309700000.0 11309700000.0 11309700000.0 11309700000.0 11309700000.0 11309700000.0 11309700000.0 11309700000.0 11309700000.0 11309700000.0 11309700000.0 11309700000.0 11309700000.0 11309700000.0 11309700000.0 11309700000.0 11309700000.0 11309700000.0 11309700000.0 11309700000.0 11309700000.0 11309700000.0 11309700000.0 11309700000.0 11309700000.0 11309700000.0 11309700000.0 11309700000.0 11309700000.0 11309700000.0 11309700000.0 11309700000.0 11309700000.0 11309700000.0 11309700000.0 11309700000.0 11309700000.0 11309700000.0 11309700000.0 11309700000.0 11309700000.0 11309700000.0 11309700000.0 11309700000.0 11309700000.0 11309700000.0 11309700000.0 11309700000.0 11309700000.0 11309700000.0 11309700000.0 11309700000.0 11309700000.0 11309700000.0 11309700000.0 11309700000.0 11309700000.0 11309700000.0 11309700000.0 11309700000.0 11309700000.0 11309700000.0 11309700000.0 11309700000.0 11309700000.0 11309700000.0 11309700000.0 11309700000.0 11309700000.0 11309700000.0 11309700000.0 11309700000.0 11309700000.0 11309700000.0 11309700000.0 11309700000.0 11309700000.0 11309700000.0 11309700000.0 11309700000.0 11309700000.0 11309700000.0 11309700000.0 11309700000.0 11309700000.0 11309700000.0 11309700000.0 11309700000.0 11309700000.0 11309700000.0 11309700000.0 11309700000.0 11309700000.0 11309700000.0 11309700000.0 11309700000.0 11309700000.0 11309700000.0 11309700000.0 11309700000.0 11309700000.0 11309700000.0 11309700000.0 11309700000.0 11309700000.0 11309700000.0 11309700000.0 11309700000.0 11309700000.0 11309700000.0 11309700000.0 11309700000.0 11309700000.0 11309700000.0 11309700000.0 11309700000.0 11309700000.0 11309700000.0 11309700000.0 11309700000.0 11309700000.0 11309700000.0 11309700000.0 11309700000.0 11309700000.0 11309700000.0 11309700000.0 11309700000.0 11309700000.0 11309700000.0 11309700000.0 11309700000.0 11309700000.0 11309700000.0 11309700000.0 11309700000.0 11309700000.0 11309700000.0 11309700000.0 11309700000.0 11309700000.0 11309700000.0 11309700000.0 11309700000.0 11309700000.0 11309700000.0 11309700000.0 11309700000.0 11309700000.0 11309700000.0 11309700000.0 11309700000.0 11309700000.0 11309700000.0 11309700000.0 11309700000.0 11309700000.0 11309700000.0 11309700000.0 11309700000.0 11309700000.0 11309700000.0 11309700000.0 11309700000.0 11309700000.0 11309700000.0 11309700000.0 11309700000.0 11309700000.0 11309700000.0 11309700000.0 11309700000.0 11309700000.0 11309700000.0 11309700000.0 11309700000.0 11309700000.0 11309700000.0 11309700000.0 11309700000.0 11309700000.0 11309700000.0 11309700000.0 11309700000.0 11309700000.0 11309700000.0 11309700000.0 11309700000.0 11309700000.0 11309700000.0 11309700000.0 11309700000.0 11309700000.0 11309700000.0 11309700000.0 11309700000.0 11309700000.0 11309700000.0 11309700000.0 11309700000.0 11309700000.0 11309700000.0 11309700000.0 11309700000.0 11309700000.0 11309700000.0 11309700000.0 11309700000.0 11309700000.0 11309700000.0 11309700000.0 11309700000.0 11309700000.0 11309700000.0 11309700000.0 11309700000.0 11309700000.0 11309700000.0 11309700000.0 11309700000.0 11309700000.0 11309700000.0 11309700000.0 11309700000.0 11309700000.0 11309700000.0 11309700000.0 11309700000.0 11309700000.0 11309700000.0 11309700000.0 11309700000.0 11309700000.0 11309700000.0 11309700000.0 11309700000.0 11309700000.0 11309700000.0 11309700000.0 11309700000.0 11309700000.0 11309700000.0 11309700000.0 11309700000.0 11309700000.0 11309700000.0 11309700000.0 11309700000.0 11309700000.0 11309700000.0 11309700000.0 11309700000.0 11309700000.0 11309700000.0 11309700000.0 11309700000.0 11309700000.0 11309700000.0 11309700000.0 11309700000.0 11309700000.0 11309700000.0 11309700000.0 11309700000.0 11309700000.0 11309700000.0 11309700000.0 11309700000.0 11309700000.0 11309700000.0 11309700000.0 11309700000.0 11309700000.0 11309700000.0 11309700000.0 11309700000.0 11309700000.0 11309700000.0 11309700000.0 11309700000.0 11309700000.0 11309700000.0 11309700000.0 11309700000.0 11309700000.0 11309700000.0 11309700000.0 11309700000.0 11309700000.0 11309700000.0 11309700000.0 11309700000.0 11309700000.0 11309700000.0 11309700000.0 11309700000.0 11309700000.0 11309700000.0 11309700000.0 11309700000.0 11309700000.0 11309700000.0 11309700000.0 11309700000.0 11309700000.0 11309700000.0 11309700000.0 11309700000.0 11309700000.0 11309700000.0 11309700000.0 11309700000.0 11309700000.0 11309700000.0 11309700000.0 11309700000.0 11309700000.0 11309700000.0 11309700000.0 11309700000.0 11309700000.0 11309700000.0 11309700000.0 11309700000.0 11309700000.0 11309700000.0 11309700000.0 11309700000.0 11309700000.0 11309700000.0 11309700000.0 11309700000.0 11309700000.0 11309700000.0 11309700000.0 11309700000.0 11309700000.0 11309700000.0 11309700000.0 11309700000.0 11309700000.0 11309700000.0 11309700000.0 11309700000.0 11309700000.0 11309700000.0 11309700000.0 11309700000.0 11309700000.0 11309700000.0 11309700000.0 11309700000.0 11309700000.0 11309700000.0 11309700000.0 11309700000.0 11309700000.0 11309700000.0 11309700000.0 11309700000.0 11309700000.0 11309700000.0 11309700000.0 11309700000.0 11309700000.0 11309700000.0 11309700000.0 11309700000.0 11309700000.0 11309700000.0 11309700000.0 11309700000.0 11309700000.0 11309700000.0 11309700000.0 11309700000.0 11309700000.0 11309700000.0 11309700000.0 11309700000.0 11309700000.0 11309700000.0 11309700000.0 11309700000.0 11309700000.0 11309700000.0 11309700000.0 11309700000.0 11309700000.0 11309700000.0 11309700000.0 11309700000.0 11309700000.0 11309700000.0 11309700000.0 11309700000.0 11309700000.0 11309700000.0 11309700000.0 11309700000.0 11309700000.0 11309700000.0 11309700000.0 11309700000.0 11309700000.0 11309700000.0 11309700000.0 11309700000.0 11309700000.0 11309700000.0 11309700000.0 11309700000.0 11309700000.0 11309700000.0 11309700000.0 11309700000.0 11309700000.0 11309700000.0 11309700000.0 11309700000.0 11309700000.0 11309700000.0 11309700000.0 11309700000.0 11309700000.0 11309700000.0 11309700000.0 11309700000.0 11309700000.0 11309700000.0 11309700000.0 11309700000.0 11309700000.0 11309700000.0 11309700000.0 11309700000.0 11309700000.0 11309700000.0 11309700000.0 11309700000.0 11309700000.0 11309700000.0 11309700000.0 11309700000.0 11309700000.0 11309700000.0 11309700000.0 11309700000.0 11309700000.0 11309700000.0 11309700000.0 11309700000.0 11309700000.0 11309700000.0 11309700000.0 11309700000.0 11309700000.0 11309700000.0 11309700000.0 11309700000.0 11309700000.0 11309700000.0 11309700000.0 11309700000.0 11309700000.0 11309700000.0 11309700000.0 11309700000.0 11309700000.0 11309700000.0 11309700000.0 11309700000.0 11309700000.0 11309700000.0 11309700000.0 11309700000.0 11309700000.0 11309700000.0 11309700000.0 11309700000.0 11309700000.0 11309700000.0 11309700000.0 11309700000.0 11309700000.0 11309700000.0 11309700000.0 11309700000.0 11309700000.0 11309700000.0 11309700000.0 11309700000.0 11309700000.0 11309700000.0 11309700000.0 11309700000.0 11309700000.0 11309700000.0 11309700000.0 11309700000.0 11309700000.0 11309700000.0 11309700000.0 11309700000.0 11309700000.0 11309700000.0 11309700000.0 11309700000.0 11309700000.0 11309700000.0 11309700000.0 11309700000.0 11309700000.0 11309700000.0 11309700000.0 11309700000.0 11309700000.0 11309700000.0 11309700000.0 11309700000.0 11309700000.0 11309700000.0 11309700000.0 11309700000.0 11309700000.0 11309700000.0 11309700000.0 11309700000.0 11309700000.0 11309700000.0 11309700000.0 11309700000.0 11309700000.0 11309700000.0 11309700000.0 11309700000.0 11309700000.0 11309700000.0 11309700000.0 11309700000.0 11309700000.0 11309700000.0 11309700000.0 11309700000.0 11309700000.0 11309700000.0 11309700000.0 11309700000.0 11309700000.0 11309700000.0 11309700000.0 11309700000.0 11309700000.0 11309700000.0 11309700000.0 11309700000.0 11309700000.0 11309700000.0 11309700000.0 11309700000.0 11309700000.0 11309700000.0 11309700000.0 11309700000.0 11309700000.0 11309700000.0 11309700000.0 11309700000.0 11309700000.0 11309700000.0 11309700000.0 11309700000.0 11309700000.0 11309700000.0 11309700000.0 11309700000.0 11309700000.0 11309700000.0 11309700000.0 11309700000.0 11309700000.0 11309700000.0 11309700000.0 11309700000.0 11309700000.0 11309700000.0 11309700000.0 11309700000.0 11309700000.0 11309700000.0 11309700000.0 11309700000.0 11309700000.0 11309700000.0 11309700000.0 11309700000.0 11309700000.0 11309700000.0 11309700000.0 11309700000.0 11309700000.0 11309700000.0 11309700000.0 11309700000.0 11309700000.0 11309700000.0 11309700000.0 11309700000.0 11309700000.0 11309700000.0 11309700000.0 11309700000.0 11309700000.0 11309700000.0 11309700000.0 11309700000.0 11309700000.0 11309700000.0 11309700000.0 11309700000.0 11309700000.0 11309700000.0 11309700000.0 11309700000.0 11309700000.0 11309700000.0 11309700000.0 11309700000.0 11309700000.0 11309700000.0 11309700000.0 11309700000.0 11309700000.0 11309700000.0 11309700000.0 11309700000.0 11309700000.0 11309700000.0 11309700000.0 11309700000.0 11309700000.0 11309700000.0 11309700000.0 11309700000.0 11309700000.0 11309700000.0 11309700000.0 11309700000.0 11309700000.0 11309700000.0 11309700000.0 11309700000.0 11309700000.0 11309700000.0 11309700000.0 11309700000.0 11309700000.0 11309700000.0 11309700000.0 11309700000.0 11309700000.0 11309700000.0 11309700000.0 11309700000.0 11309700000.0 11309700000.0 11309700000.0 11309700000.0 11309700000.0 11309700000.0 11309700000.0 11309700000.0 11309700000.0 11309700000.0 11309700000.0 11309700000.0 11309700000.0 11309700000.0 11309700000.0 11309700000.0 11309700000.0 11309700000.0 11309700000.0 11309700000.0 11309700000.0 11309700000.0 11309700000.0 11309700000.0 11309700000.0 11309700000.0 11309700000.0 11309700000.0 11309700000.0 11309700000.0 11309700000.0 11309700000.0 11309700000.0 11309700000.0 11309700000.0 11309700000.0 11309700000.0 11309700000.0 11309700000.0 11309700000.0 11309700000.0 11309700000.0 11309700000.0 11309700000.0 11309700000.0 11309700000.0 11309700000.0 11309700000.0 11309700000.0 11309700000.0 11309700000.0 11309700000.0 11309700000.0 11309700000.0 11309700000.0 11309700000.0 11309700000.0 11309700000.0 11309700000.0 11309700000.0 11309700000.0 11309700000.0 11309700000.0 11309700000.0 11309700000.0 11309700000.0 11309700000.0 11309700000.0 11309700000.0 11309700000.0 11309700000.0 11309700000.0 11309700000.0 11309700000.0 11309700000.0 11309700000.0 11309700000.0 11309700000.0 11309700000.0 11309700000.0 11309700000.0 11309700000.0 11309700000.0 11309700000.0 11309700000.0 11309700000.0 11309700000.0 11309700000.0 11309700000.0 11309700000.0 11309700000.0 11309700000.0 11309700000.0 11309700000.0 11309700000.0 11309700000.0 11309700000.0 11309700000.0 11309700000.0 11309700000.0 11309700000.0 11309700000.0 11309700000.0 11309700000.0 11309700000.0 11309700000.0 11309700000.0 11309700000.0 11309700000.0 11309700000.0 11309700000.0 11309700000.0 11309700000.0 11309700000.0 11309700000.0 11309700000.0 11309700000.0 11309700000.0 11309700000.0 11309700000.0 11309700000.0 11309700000.0 11309700000.0 11309700000.0 11309700000.0 11309700000.0 11309700000.0 11309700000.0 11309700000.0 11309700000.0 11309700000.0 11309700000.0 11309700000.0 11309700000.0 11309700000.0 11309700000.0 11309700000.0 11309700000.0 11309700000.0 11309700000.0 11309700000.0 11309700000.0 11309700000.0 11309700000.0 11309700000.0 11309700000.0 11309700000.0 11309700000.0 11309700000.0 11309700000.0 11309700000.0 11309700000.0 11309700000.0 11309700000.0 11309700000.0 11309700000.0 11309700000.0 11309700000.0 11309700000.0 11309700000.0 11309700000.0 11309700000.0 11309700000.0 11309700000.0 11309700000.0 11309700000.0 11309700000.0 11309700000.0 11309700000.0 11309700000.0 11309700000.0 11309700000.0 11309700000.0 11309700000.0 11309700000.0 11309700000.0 11309700000.0 11309700000.0 11309700000.0 11309700000.0 11309700000.0 11309700000.0 11309700000.0 11309700000.0 11309700000.0 11309700000.0 11309700000.0 11309700000.0 11309700000.0 11309700000.0 11309700000.0 11309700000.0 11309700000.0 11309700000.0 11309700000.0 11309700000.0 11309700000.0 11309700000.0 11309700000.0 11309700000.0 11309700000.0 11309700000.0 11309700000.0 11309700000.0 11309700000.0 11309700000.0 11309700000.0 11309700000.0 11309700000.0 11309700000.0 11309700000.0 11309700000.0 11309700000.0 11309700000.0 11309700000.0 11309700000.0 11309700000.0 11309700000.0 11309700000.0 11309700000.0 11309700000.0 11309700000.0 11309700000.0 11309700000.0 11309700000.0 11309700000.0 11309700000.0 11309700000.0 11309700000.0 11309700000.0 11309700000.0 11309700000.0 11309700000.0 11309700000.0 11309700000.0 11309700000.0 11309700000.0 11309700000.0 11309700000.0 11309700000.0 11309700000.0 11309700000.0 11309700000.0 11309700000.0 11309700000.0 11309700000.0 11309700000.0 11309700000.0 11309700000.0 11309700000.0 11309700000.0 11309700000.0 11309700000.0 11309700000.0 11309700000.0 11309700000.0 11309700000.0 11309700000.0 11309700000.0 11309700000.0 11309700000.0 11309700000.0 11309700000.0 11309700000.0 11309700000.0 11309700000.0 11309700000.0 11309700000.0 11309700000.0 11309700000.0 11309700000.0 11309700000.0 11309700000.0 11309700000.0 11309700000.0 11309700000.0 11309700000.0 11309700000.0 11309700000.0 11309700000.0 11309700000.0 11309700000.0 11309700000.0 11309700000.0 11309700000.0 11309700000.0 11309700000.0 11309700000.0 11309700000.0 11309700000.0 11309700000.0 11309700000.0 11309700000.0 11309700000.0 11309700000.0 11309700000.0 11309700000.0 11309700000.0 11309700000.0 11309700000.0 11309700000.0 11309700000.0 11309700000.0 11309700000.0 11309700000.0 11309700000.0 11309700000.0 11309700000.0 11309700000.0 11309700000.0 11309700000.0 11309700000.0 11309700000.0 11309700000.0 11309700000.0 11309700000.0 11309700000.0 11309700000.0 11309700000.0 11309700000.0 11309700000.0 11309700000.0 11309700000.0 11309700000.0 11309700000.0 11309700000.0 11309700000.0 11309700000.0 11309700000.0 11309700000.0 11309700000.0 11309700000.0 11309700000.0 11309700000.0 11309700000.0 11309700000.0 11309700000.0 11309700000.0 11309700000.0 11309700000.0 11309700000.0 11309700000.0 11309700000.0 11309700000.0 11309700000.0 11309700000.0 11309700000.0 11309700000.0 11309700000.0 11309700000.0 11309700000.0 11309700000.0 11309700000.0 11309700000.0 11309700000.0 11309700000.0 11309700000.0 11309700000.0 11309700000.0 11309700000.0 11309700000.0 11309700000.0 11309700000.0 11309700000.0 11309700000.0 11309700000.0 11309700000.0 11309700000.0 11309700000.0 11309700000.0 11309700000.0 11309700000.0 11309700000.0 11309700000.0 11309700000.0 11309700000.0 11309700000.0 11309700000.0 11309700000.0 11309700000.0 11309700000.0 11309700000.0 11309700000.0 11309700000.0 11309700000.0 11309700000.0 11309700000.0 11309700000.0 11309700000.0 11309700000.0 11309700000.0 11309700000.0 11309700000.0 11309700000.0 11309700000.0 11309700000.0 11309700000.0 11309700000.0 11309700000.0 11309700000.0 11309700000.0 11309700000.0 11309700000.0 11309700000.0 11309700000.0 11309700000.0 11309700000.0 11309700000.0 11309700000.0 11309700000.0 11309700000.0 11309700000.0 11309700000.0 11309700000.0 11309700000.0 11309700000.0 11309700000.0 11309700000.0 11309700000.0 11309700000.0 11309700000.0 11309700000.0 11309700000.0 11309700000.0 11309700000.0 11309700000.0 11309700000.0 11309700000.0 11309700000.0 11309700000.0 11309700000.0 11309700000.0 11309700000.0 11309700000.0 11309700000.0 11309700000.0 11309700000.0 11309700000.0 11309700000.0 11309700000.0 11309700000.0 11309700000.0 11309700000.0 11309700000.0 11309700000.0 11309700000.0 11309700000.0 11309700000.0 11309700000.0 11309700000.0 11309700000.0 11309700000.0 11309700000.0 11309700000.0 11309700000.0 11309700000.0 11309700000.0 11309700000.0 11309700000.0 11309700000.0 11309700000.0 11309700000.0 11309700000.0 11309700000.0 11309700000.0 11309700000.0 11309700000.0 11309700000.0 11309700000.0 11309700000.0 11309700000.0 11309700000.0 11309700000.0 11309700000.0 11309700000.0 11309700000.0 11309700000.0 11309700000.0 11309700000.0 11309700000.0 11309700000.0 11309700000.0 11309700000.0 11309700000.0 11309700000.0 11309700000.0 11309700000.0 11309700000.0 11309700000.0 11309700000.0 11309700000.0 11309700000.0 11309700000.0 11309700000.0 11309700000.0 11309700000.0 11309700000.0 11309700000.0 11309700000.0 11309700000.0 11309700000.0 11309700000.0 11309700000.0 11309700000.0 11309700000.0 11309700000.0 11309700000.0 11309700000.0 11309700000.0 11309700000.0 11309700000.0 11309700000.0 11309700000.0 11309700000.0 11309700000.0 11309700000.0 11309700000.0 11309700000.0 11309700000.0 11309700000.0 11309700000.0 11309700000.0 11309700000.0 11309700000.0 11309700000.0 11309700000.0 11309700000.0 11309700000.0 11309700000.0 11309700000.0 11309700000.0 11309700000.0 11309700000.0 11309700000.0 11309700000.0 11309700000.0 11309700000.0 11309700000.0 11309700000.0 11309700000.0 11309700000.0 11309700000.0 11309700000.0 11309700000.0 11309700000.0 11309700000.0 11309700000.0 11309700000.0 11309700000.0 11309700000.0 11309700000.0 11309700000.0 11309700000.0 11309700000.0 11309700000.0 11309700000.0 11309700000.0 11309700000.0 11309700000.0 11309700000.0 11309700000.0 11309700000.0 11309700000.0 11309700000.0 11309700000.0 11309700000.0 11309700000.0 11309700000.0 11309700000.0 11309700000.0 11309700000.0 11309700000.0 11309700000.0 11309700000.0 11309700000.0 11309700000.0 11309700000.0 11309700000.0 11309700000.0 11309700000.0 11309700000.0 11309700000.0 11309700000.0 11309700000.0 11309700000.0 11309700000.0 11309700000.0 11309700000.0 11309700000.0 11309700000.0 11309700000.0 11309700000.0 11309700000.0 11309700000.0 11309700000.0 11309700000.0 11309700000.0 11309700000.0 11309700000.0 11309700000.0 11309700000.0 11309700000.0 11309700000.0 11309700000.0 11309700000.0 11309700000.0 11309700000.0 11309700000.0 11309700000.0 11309700000.0 11309700000.0 11309700000.0 11309700000.0 11309700000.0 11309700000.0 11309700000.0 11309700000.0 11309700000.0 11309700000.0 11309700000.0 11309700000.0 11309700000.0 11309700000.0 11309700000.0 11309700000.0 11309700000.0 11309700000.0 11309700000.0 11309700000.0 11309700000.0 11309700000.0 11309700000.0 11309700000.0 11309700000.0 11309700000.0 11309700000.0 11309700000.0 11309700000.0 11309700000.0 11309700000.0 11309700000.0 11309700000.0 11309700000.0 11309700000.0 11309700000.0 11309700000.0 11309700000.0 11309700000.0 11309700000.0 11309700000.0 11309700000.0 11309700000.0 11309700000.0 11309700000.0 11309700000.0 11309700000.0 11309700000.0 11309700000.0 11309700000.0 11309700000.0 11309700000.0 11309700000.0 11309700000.0 11309700000.0 11309700000.0 11309700000.0 11309700000.0 11309700000.0 11309700000.0 11309700000.0 11309700000.0 11309700000.0 11309700000.0 11309700000.0 11309700000.0 11309700000.0 11309700000.0 11309700000.0 11309700000.0 11309700000.0 11309700000.0 11309700000.0 11309700000.0 11309700000.0 11309700000.0 11309700000.0 11309700000.0 11309700000.0 11309700000.0 11309700000.0 11309700000.0 11309700000.0 11309700000.0 11309700000.0 11309700000.0 11309700000.0 11309700000.0 11309700000.0 11309700000.0 11309700000.0 11309700000.0 11309700000.0 11309700000.0 11309700000.0 11309700000.0 11309700000.0 11309700000.0 11309700000.0 11309700000.0 11309700000.0 11309700000.0 11309700000.0 11309700000.0 11309700000.0 11309700000.0 11309700000.0 11309700000.0 11309700000.0 11309700000.0 11309700000.0 11309700000.0 11309700000.0 11309700000.0 11309700000.0 11309700000.0 11309700000.0 11309700000.0 11309700000.0 11309700000.0 11309700000.0 11309700000.0 11309700000.0 11309700000.0 11309700000.0 11309700000.0 11309700000.0 11309700000.0 11309700000.0 11309700000.0 11309700000.0 11309700000.0 11309700000.0 11309700000.0 11309700000.0 11309700000.0 11309700000.0 11309700000.0 11309700000.0 11309700000.0 11309700000.0 11309700000.0 11309700000.0 11309700000.0 11309700000.0 11309700000.0 11309700000.0 11309700000.0 11309700000.0 11309700000.0 11309700000.0 11309700000.0 11309700000.0 11309700000.0 11309700000.0 11309700000.0 11309700000.0 11309700000.0 11309700000.0 11309700000.0 11309700000.0 11309700000.0 11309700000.0 11309700000.0 11309700000.0 11309700000.0 11309700000.0 11309700000.0 11309700000.0 11309700000.0 11309700000.0 11309700000.0 11309700000.0 11309700000.0 11309700000.0 11309700000.0 11309700000.0 11309700000.0 11309700000.0 11309700000.0 11309700000.0 11309700000.0 11309700000.0 11309700000.0 11309700000.0 11309700000.0 11309700000.0 11309700000.0 11309700000.0 11309700000.0 11309700000.0 11309700000.0 11309700000.0 11309700000.0 11309700000.0 11309700000.0 11309700000.0 11309700000.0 11309700000.0 11309700000.0 11309700000.0 11309700000.0 11309700000.0 11309700000.0 11309700000.0 11309700000.0 11309700000.0 11309700000.0 11309700000.0 11309700000.0 11309700000.0 11309700000.0 11309700000.0 11309700000.0 11309700000.0 11309700000.0 11309700000.0 11309700000.0 11309700000.0 11309700000.0 11309700000.0 11309700000.0 11309700000.0 11309700000.0 11309700000.0 11309700000.0 11309700000.0 11309700000.0 11309700000.0 11309700000.0 11309700000.0 11309700000.0 11309700000.0 11309700000.0 11309700000.0 11309700000.0 11309700000.0 11309700000.0 11309700000.0 11309700000.0 11309700000.0 11309700000.0 11309700000.0 11309700000.0 11309700000.0 11309700000.0 11309700000.0 11309700000.0 11309700000.0 11309700000.0 11309700000.0 11309700000.0 11309700000.0 11309700000.0 11309700000.0 11309700000.0 11309700000.0 11309700000.0 11309700000.0 11309700000.0 11309700000.0 11309700000.0 11309700000.0 11309700000.0 11309700000.0 11309700000.0 11309700000.0 11309700000.0 11309700000.0 11309700000.0 11309700000.0 11309700000.0 11309700000.0 11309700000.0 11309700000.0 11309700000.0 11309700000.0 11309700000.0 11309700000.0 11309700000.0 11309700000.0 11309700000.0 11309700000.0 11309700000.0 11309700000.0 11309700000.0 11309700000.0 11309700000.0 11309700000.0 11309700000.0 11309700000.0 11309700000.0 11309700000.0 11309700000.0 11309700000.0 11309700000.0 11309700000.0 11309700000.0 11309700000.0 11309700000.0 11309700000.0 11309700000.0 11309700000.0 11309700000.0 11309700000.0 11309700000.0 11309700000.0 11309700000.0 11309700000.0 11309700000.0 11309700000.0 11309700000.0 11309700000.0 11309700000.0 11309700000.0 11309700000.0 11309700000.0 11309700000.0 11309700000.0 11309700000.0 11309700000.0 11309700000.0 11309700000.0 11309700000.0 11309700000.0 11309700000.0 11309700000.0 11309700000.0 11309700000.0 11309700000.0 11309700000.0 11309700000.0 11309700000.0 11309700000.0 11309700000.0 11309700000.0 11309700000.0 11309700000.0 11309700000.0 11309700000.0 11309700000.0 11309700000.0 11309700000.0 11309700000.0 11309700000.0 11309700000.0 11309700000.0 11309700000.0 11309700000.0 11309700000.0 11309700000.0 11309700000.0 11309700000.0 11309700000.0 11309700000.0 11309700000.0 11309700000.0 11309700000.0 11309700000.0 11309700000.0 11309700000.0 11309700000.0 11309700000.0 11309700000.0 11309700000.0 11309700000.0 11309700000.0 11309700000.0 11309700000.0 11309700000.0 11309700000.0 11309700000.0 11309700000.0 11309700000.0 11309700000.0 11309700000.0 11309700000.0 11309700000.0 11309700000.0 11309700000.0 11309700000.0 11309700000.0 11309700000.0 11309700000.0 11309700000.0 11309700000.0 11309700000.0 11309700000.0 11309700000.0 11309700000.0 11309700000.0 11309700000.0 11309700000.0 11309700000.0 11309700000.0 11309700000.0 11309700000.0 11309700000.0 11309700000.0 11309700000.0 11309700000.0 11309700000.0 11309700000.0 11309700000.0 11309700000.0 11309700000.0 11309700000.0 11309700000.0 11309700000.0 11309700000.0 11309700000.0 11309700000.0 11309700000.0 11309700000.0 11309700000.0 11309700000.0 11309700000.0 11309700000.0 11309700000.0 11309700000.0 11309700000.0 11309700000.0 11309700000.0 11309700000.0 11309700000.0 11309700000.0 11309700000.0 11309700000.0 11309700000.0 11309700000.0 11309700000.0 11309700000.0 11309700000.0 11309700000.0 11309700000.0 11309700000.0 11309700000.0 11309700000.0 11309700000.0 11309700000.0 11309700000.0 11309700000.0 11309700000.0 11309700000.0 11309700000.0 11309700000.0 11309700000.0 11309700000.0 11309700000.0 11309700000.0 11309700000.0 11309700000.0 11309700000.0 11309700000.0 11309700000.0 11309700000.0 11309700000.0 11309700000.0 11309700000.0 11309700000.0 11309700000.0 11309700000.0 11309700000.0 11309700000.0 11309700000.0 11309700000.0 11309700000.0 11309700000.0 11309700000.0 11309700000.0 11309700000.0 11309700000.0 11309700000.0 11309700000.0 11309700000.0 11309700000.0 11309700000.0 11309700000.0 11309700000.0 11309700000.0 11309700000.0 11309700000.0 11309700000.0 11309700000.0 11309700000.0 11309700000.0 11309700000.0 11309700000.0 11309700000.0 11309700000.0 11309700000.0 11309700000.0 11309700000.0 11309700000.0 11309700000.0 11309700000.0 11309700000.0 11309700000.0 11309700000.0 11309700000.0 11309700000.0 11309700000.0 11309700000.0 11309700000.0 11309700000.0 11309700000.0 11309700000.0 11309700000.0 11309700000.0 11309700000.0 11309700000.0 11309700000.0 11309700000.0 11309700000.0 11309700000.0 11309700000.0 11309700000.0 11309700000.0 11309700000.0 11309700000.0 11309700000.0 11309700000.0 11309700000.0 11309700000.0 11309700000.0 11309700000.0 11309700000.0 11309700000.0 11309700000.0 11309700000.0 11309700000.0 11309700000.0 11309700000.0 11309700000.0 11309700000.0 11309700000.0 11309700000.0 11309700000.0 11309700000.0 11309700000.0 11309700000.0 11309700000.0 11309700000.0 11309700000.0 11309700000.0 11309700000.0 11309700000.0 11309700000.0 11309700000.0 11309700000.0 11309700000.0 11309700000.0 11309700000.0 11309700000.0 11309700000.0 11309700000.0 11309700000.0 11309700000.0 11309700000.0 11309700000.0 11309700000.0 11309700000.0 11309700000.0 11309700000.0 11309700000.0 11309700000.0 11309700000.0 11309700000.0 11309700000.0 11309700000.0 11309700000.0 11309700000.0 11309700000.0 11309700000.0 11309700000.0 11309700000.0 11309700000.0 11309700000.0 11309700000.0 11309700000.0 11309700000.0 11309700000.0 11309700000.0 11309700000.0 11309700000.0 11309700000.0 11309700000.0 11309700000.0 11309700000.0 11309700000.0 11309700000.0 11309700000.0 11309700000.0 11309700000.0 11309700000.0 11309700000.0 11309700000.0 11309700000.0 11309700000.0 11309700000.0 11309700000.0 11309700000.0 11309700000.0 11309700000.0 11309700000.0 11309700000.0 11309700000.0 11309700000.0 11309700000.0 11309700000.0 11309700000.0 11309700000.0 11309700000.0 11309700000.0 11309700000.0 11309700000.0 11309700000.0 11309700000.0 11309700000.0 11309700000.0 11309700000.0 11309700000.0 11309700000.0 11309700000.0 11309700000.0 11309700000.0 11309700000.0 11309700000.0 11309700000.0 11309700000.0 11309700000.0 11309700000.0 11309700000.0 11309700000.0 11309700000.0 11309700000.0 11309700000.0 11309700000.0 11309700000.0 11309700000.0 11309700000.0 11309700000.0 11309700000.0 11309700000.0 11309700000.0 11309700000.0 11309700000.0 11309700000.0 11309700000.0 11309700000.0 11309700000.0 11309700000.0 11309700000.0 11309700000.0 11309700000.0 11309700000.0 11309700000.0 11309700000.0 11309700000.0 11309700000.0 11309700000.0 11309700000.0 11309700000.0 11309700000.0 11309700000.0 11309700000.0 11309700000.0 11309700000.0 11309700000.0 11309700000.0 11309700000.0 11309700000.0 11309700000.0 11309700000.0 11309700000.0 11309700000.0 11309700000.0 11309700000.0 11309700000.0 11309700000.0 11309700000.0 11309700000.0 11309700000.0 11309700000.0 11309700000.0 11309700000.0 11309700000.0 11309700000.0 11309700000.0 11309700000.0 11309700000.0 11309700000.0 11309700000.0 11309700000.0 11309700000.0 11309700000.0 11309700000.0 11309700000.0 11309700000.0 11309700000.0 11309700000.0 11309700000.0 11309700000.0 11309700000.0 11309700000.0 11309700000.0 11309700000.0 11309700000.0 11309700000.0 11309700000.0 11309700000.0 11309700000.0 11309700000.0 11309700000.0 11309700000.0 11309700000.0 11309700000.0 11309700000.0 11309700000.0 11309700000.0 11309700000.0 11309700000.0 11309700000.0 11309700000.0 11309700000.0 11309700000.0 11309700000.0 11309700000.0 11309700000.0 11309700000.0 11309700000.0 11309700000.0 11309700000.0 11309700000.0 11309700000.0 11309700000.0 11309700000.0 11309700000.0 11309700000.0 11309700000.0 11309700000.0 11309700000.0 11309700000.0 11309700000.0 11309700000.0 11309700000.0 11309700000.0 11309700000.0 11309700000.0 11309700000.0 11309700000.0 11309700000.0 11309700000.0 11309700000.0 11309700000.0 11309700000.0 11309700000.0 11309700000.0 11309700000.0 11309700000.0 11309700000.0 11309700000.0 11309700000.0 11309700000.0 11309700000.0 11309700000.0 11309700000.0 11309700000.0 11309700000.0 11309700000.0 11309700000.0 11309700000.0 11309700000.0 11309700000.0 11309700000.0 11309700000.0 11309700000.0 11309700000.0 11309700000.0 11309700000.0 11309700000.0 11309700000.0 11309700000.0 11309700000.0 11309700000.0 11309700000.0 11309700000.0 11309700000.0 11309700000.0 11309700000.0 11309700000.0 11309700000.0 11309700000.0 11309700000.0 11309700000.0 11309700000.0 11309700000.0 11309700000.0 11309700000.0 11309700000.0 11309700000.0 11309700000.0 11309700000.0 11309700000.0 11309700000.0 11309700000.0 11309700000.0 11309700000.0 11309700000.0 11309700000.0 11309700000.0 11309700000.0 11309700000.0 11309700000.0 11309700000.0 11309700000.0 11309700000.0 11309700000.0 11309700000.0 11309700000.0 11309700000.0 11309700000.0 11309700000.0 11309700000.0 11309700000.0 11309700000.0 11309700000.0 11309700000.0 11309700000.0 11309700000.0 11309700000.0 11309700000.0 11309700000.0 11309700000.0 11309700000.0 11309700000.0 11309700000.0 11309700000.0 11309700000.0 11309700000.0 11309700000.0 11309700000.0 11309700000.0 11309700000.0 11309700000.0 11309700000.0 11309700000.0 11309700000.0 11309700000.0 11309700000.0 11309700000.0 11309700000.0 11309700000.0 11309700000.0 11309700000.0 11309700000.0 11309700000.0 11309700000.0 11309700000.0 11309700000.0 11309700000.0 11309700000.0 11309700000.0 11309700000.0 11309700000.0 11309700000.0 11309700000.0 11309700000.0 11309700000.0 11309700000.0 11309700000.0 11309700000.0 11309700000.0 11309700000.0 11309700000.0 11309700000.0 11309700000.0 11309700000.0 11309700000.0 11309700000.0 11309700000.0 11309700000.0 11309700000.0 11309700000.0 11309700000.0 11309700000.0 11309700000.0 11309700000.0 11309700000.0 11309700000.0 11309700000.0 11309700000.0 11309700000.0 11309700000.0 11309700000.0 11309700000.0 11309700000.0 11309700000.0 11309700000.0 11309700000.0 11309700000.0 11309700000.0 11309700000.0 11309700000.0 11309700000.0 11309700000.0 11309700000.0 11309700000.0 11309700000.0 11309700000.0 11309700000.0 11309700000.0 11309700000.0 11309700000.0 11309700000.0 11309700000.0 11309700000.0 11309700000.0 11309700000.0 11309700000.0 11309700000.0 11309700000.0 11309700000.0 11309700000.0 11309700000.0 11309700000.0 11309700000.0 11309700000.0 11309700000.0 11309700000.0 11309700000.0 11309700000.0 11309700000.0 11309700000.0 11309700000.0 11309700000.0 11309700000.0 11309700000.0 11309700000.0 11309700000.0 11309700000.0 11309700000.0 11309700000.0 11309700000.0 11309700000.0 11309700000.0 11309700000.0 11309700000.0 11309700000.0 11309700000.0 11309700000.0 11309700000.0 11309700000.0 11309700000.0 11309700000.0 11309700000.0 11309700000.0 11309700000.0 11309700000.0 11309700000.0 11309700000.0 11309700000.0 11309700000.0 11309700000.0 11309700000.0 11309700000.0 11309700000.0 11309700000.0 11309700000.0 11309700000.0 11309700000.0 11309700000.0 11309700000.0 11309700000.0 11309700000.0 11309700000.0 11309700000.0 11309700000.0 11309700000.0 11309700000.0 11309700000.0 11309700000.0 11309700000.0 11309700000.0 11309700000.0 11309700000.0 11309700000.0 11309700000.0 11309700000.0 11309700000.0 11309700000.0 11309700000.0 11309700000.0 11309700000.0 11309700000.0 11309700000.0 11309700000.0 11309700000.0 11309700000.0 11309700000.0 11309700000.0 11309700000.0 11309700000.0 11309700000.0 11309700000.0 11309700000.0 11309700000.0 11309700000.0 11309700000.0 11309700000.0 11309700000.0 11309700000.0 11309700000.0 11309700000.0 11309700000.0 11309700000.0 11309700000.0 11309700000.0 11309700000.0 11309700000.0 11309700000.0 11309700000.0 11309700000.0 11309700000.0 11309700000.0 11309700000.0 11309700000.0 11309700000.0 11309700000.0 11309700000.0 11309700000.0 11309700000.0 11309700000.0 11309700000.0 11309700000.0 11309700000.0 11309700000.0 11309700000.0 11309700000.0 11309700000.0 11309700000.0 11309700000.0 11309700000.0 11309700000.0 11309700000.0 11309700000.0 11309700000.0 11309700000.0 11309700000.0 11309700000.0 11309700000.0 11309700000.0 11309700000.0 11309700000.0 11309700000.0 11309700000.0 11309700000.0 11309700000.0 11309700000.0 11309700000.0 11309700000.0 11309700000.0 11309700000.0 11309700000.0 11309700000.0 11309700000.0 11309700000.0 11309700000.0 11309700000.0 11309700000.0 11309700000.0 11309700000.0 11309700000.0 11309700000.0 11309700000.0 11309700000.0 11309700000.0 11309700000.0 11309700000.0 11309700000.0 11309700000.0 11309700000.0 11309700000.0 11309700000.0 11309700000.0 11309700000.0 11309700000.0 11309700000.0 11309700000.0 11309700000.0 11309700000.0 11309700000.0 11309700000.0 11309700000.0 11309700000.0 11309700000.0 11309700000.0 11309700000.0 11309700000.0 11309700000.0 11309700000.0 11309700000.0 11309700000.0 11309700000.0 11309700000.0 11309700000.0 11309700000.0 11309700000.0 11309700000.0 11309700000.0 11309700000.0 11309700000.0 11309700000.0 11309700000.0 11309700000.0 11309700000.0 11309700000.0 11309700000.0 11309700000.0 11309700000.0 11309700000.0 11309700000.0 11309700000.0 11309700000.0 11309700000.0 11309700000.0 11309700000.0 11309700000.0 11309700000.0 11309700000.0 11309700000.0 11309700000.0 11309700000.0 11309700000.0 11309700000.0 11309700000.0 11309700000.0 11309700000.0 11309700000.0 11309700000.0 11309700000.0 11309700000.0 11309700000.0 11309700000.0 11309700000.0 11309700000.0 11309700000.0 11309700000.0 11309700000.0 11309700000.0 11309700000.0 11309700000.0 11309700000.0 11309700000.0 11309700000.0 11309700000.0 11309700000.0 11309700000.0 11309700000.0 11309700000.0 11309700000.0 11309700000.0 11309700000.0 11309700000.0 11309700000.0 11309700000.0 11309700000.0 11309700000.0 11309700000.0 11309700000.0 11309700000.0 11309700000.0 11309700000.0 11309700000.0 11309700000.0 11309700000.0 11309700000.0 11309700000.0 11309700000.0 11309700000.0 11309700000.0 11309700000.0 11309700000.0 11309700000.0 11309700000.0 11309700000.0 11309700000.0 11309700000.0 11309700000.0 11309700000.0 11309700000.0 11309700000.0 11309700000.0 11309700000.0 11309700000.0 11309700000.0 11309700000.0 11309700000.0 11309700000.0 11309700000.0 11309700000.0 11309700000.0 11309700000.0 11309700000.0 11309700000.0 11309700000.0 11309700000.0 11309700000.0 11309700000.0 11309700000.0 11309700000.0 11309700000.0 11309700000.0 11309700000.0 11309700000.0 11309700000.0 11309700000.0 11309700000.0 11309700000.0 11309700000.0 11309700000.0 11309700000.0 11309700000.0 11309700000.0 11309700000.0 11309700000.0 11309700000.0 11309700000.0 11309700000.0 11309700000.0 11309700000.0 11309700000.0 11309700000.0 11309700000.0 11309700000.0 11309700000.0 11309700000.0 11309700000.0 11309700000.0 11309700000.0 11309700000.0 11309700000.0 11309700000.0 11309700000.0 11309700000.0 11309700000.0 11309700000.0 11309700000.0 11309700000.0 11309700000.0 11309700000.0 11309700000.0 11309700000.0 11309700000.0 11309700000.0 11309700000.0 11309700000.0 11309700000.0 11309700000.0 11309700000.0 11309700000.0 11309700000.0 11309700000.0 11309700000.0 11309700000.0 11309700000.0 11309700000.0 11309700000.0 11309700000.0 11309700000.0 11309700000.0 11309700000.0 11309700000.0 11309700000.0 11309700000.0 11309700000.0 11309700000.0 11309700000.0 11309700000.0 11309700000.0 11309700000.0 11309700000.0 11309700000.0 11309700000.0 11309700000.0 11309700000.0 11309700000.0 11309700000.0 11309700000.0 11309700000.0 11309700000.0 11309700000.0 11309700000.0 11309700000.0 11309700000.0 11309700000.0 11309700000.0 11309700000.0 11309700000.0 11309700000.0 11309700000.0 11309700000.0 11309700000.0 11309700000.0 11309700000.0 11309700000.0 11309700000.0 11309700000.0 11309700000.0 11309700000.0 11309700000.0 11309700000.0 11309700000.0 11309700000.0 11309700000.0 11309700000.0 11309700000.0 11309700000.0 11309700000.0 11309700000.0 11309700000.0 11309700000.0 11309700000.0 11309700000.0 11309700000.0 11309700000.0 11309700000.0 11309700000.0 11309700000.0 11309700000.0 11309700000.0 11309700000.0 11309700000.0 11309700000.0 11309700000.0 11309700000.0 11309700000.0 11309700000.0 11309700000.0 11309700000.0 11309700000.0 11309700000.0 11309700000.0 11309700000.0 11309700000.0 11309700000.0 11309700000.0 11309700000.0 11309700000.0 11309700000.0 11309700000.0 11309700000.0 11309700000.0 11309700000.0 11309700000.0 11309700000.0 11309700000.0 11309700000.0 11309700000.0 11309700000.0 11309700000.0 11309700000.0 11309700000.0 11309700000.0 11309700000.0 11309700000.0 11309700000.0 11309700000.0 11309700000.0 11309700000.0 11309700000.0 11309700000.0 11309700000.0 11309700000.0 11309700000.0 11309700000.0 11309700000.0 11309700000.0 11309700000.0 11309700000.0 11309700000.0 11309700000.0 11309700000.0 11309700000.0 11309700000.0 11309700000.0 11309700000.0 11309700000.0 11309700000.0 11309700000.0 11309700000.0 11309700000.0 11309700000.0 11309700000.0 11309700000.0 11309700000.0 11309700000.0 11309700000.0 11309700000.0 11309700000.0 11309700000.0 11309700000.0 11309700000.0 11309700000.0 11309700000.0 11309700000.0 11309700000.0 11309700000.0 11309700000.0 11309700000.0 11309700000.0 11309700000.0 11309700000.0 11309700000.0 11309700000.0 11309700000.0 11309700000.0 11309700000.0 11309700000.0 11309700000.0 11309700000.0 11309700000.0 11309700000.0 11309700000.0 11309700000.0 11309700000.0 11309700000.0 11309700000.0 11309700000.0 11309700000.0 11309700000.0 11309700000.0 11309700000.0 11309700000.0 11309700000.0 11309700000.0 11309700000.0 11309700000.0 11309700000.0 11309700000.0 11309700000.0 11309700000.0 11309700000.0 11309700000.0 11309700000.0 11309700000.0 11309700000.0 11309700000.0 11309700000.0 11309700000.0 11309700000.0 11309700000.0 11309700000.0 11309700000.0 11309700000.0 11309700000.0 11309700000.0 11309700000.0 11309700000.0 11309700000.0 11309700000.0 11309700000.0 11309700000.0 11309700000.0 11309700000.0 11309700000.0 11309700000.0 11309700000.0 11309700000.0 11309700000.0 11309700000.0 11309700000.0 11309700000.0 11309700000.0 11309700000.0 11309700000.0 11309700000.0 11309700000.0 11309700000.0 11309700000.0 11309700000.0 11309700000.0 11309700000.0 11309700000.0 11309700000.0 11309700000.0 11309700000.0 11309700000.0 11309700000.0 11309700000.0 11309700000.0 11309700000.0 11309700000.0 11309700000.0 11309700000.0 11309700000.0 11309700000.0 11309700000.0 11309700000.0 11309700000.0 11309700000.0 11309700000.0 11309700000.0 11309700000.0 11309700000.0 11309700000.0 11309700000.0 11309700000.0 11309700000.0 11309700000.0 11309700000.0 11309700000.0 11309700000.0 11309700000.0 11309700000.0 11309700000.0 11309700000.0 11309700000.0 11309700000.0 11309700000.0 11309700000.0 11309700000.0 11309700000.0 11309700000.0 11309700000.0 11309700000.0 11309700000.0 11309700000.0 11309700000.0 11309700000.0 11309700000.0 11309700000.0 11309700000.0 11309700000.0 11309700000.0 11309700000.0 11309700000.0 11309700000.0 11309700000.0 11309700000.0 11309700000.0 11309700000.0 11309700000.0 11309700000.0 11309700000.0 11309700000.0 11309700000.0 11309700000.0 11309700000.0 11309700000.0 11309700000.0 11309700000.0 11309700000.0 11309700000.0 11309700000.0 11309700000.0 11309700000.0 11309700000.0 11309700000.0 11309700000.0 11309700000.0 11309700000.0 11309700000.0 11309700000.0 11309700000.0 11309700000.0 11309700000.0 11309700000.0 11309700000.0 11309700000.0 11309700000.0 11309700000.0 11309700000.0 11309700000.0 11309700000.0 11309700000.0 11309700000.0 11309700000.0 11309700000.0 11309700000.0 11309700000.0 11309700000.0 11309700000.0 11309700000.0 11309700000.0 11309700000.0 11309700000.0 11309700000.0 11309700000.0 11309700000.0 11309700000.0 11309700000.0 11309700000.0 11309700000.0 11309700000.0 11309700000.0 11309700000.0 11309700000.0 11309700000.0 11309700000.0 11309700000.0 11309700000.0 11309700000.0 11309700000.0 11309700000.0 11309700000.0 11309700000.0 11309700000.0 11309700000.0 11309700000.0 11309700000.0 11309700000.0 11309700000.0 11309700000.0 11309700000.0 11309700000.0 11309700000.0 11309700000.0 11309700000.0 11309700000.0 11309700000.0 11309700000.0 11309700000.0 11309700000.0 11309700000.0 11309700000.0 11309700000.0 11309700000.0 11309700000.0 11309700000.0 11309700000.0 11309700000.0 11309700000.0 11309700000.0 11309700000.0 11309700000.0 11309700000.0 11309700000.0 11309700000.0 11309700000.0 11309700000.0 11309700000.0 11309700000.0 11309700000.0 11309700000.0 11309700000.0 11309700000.0 11309700000.0 11309700000.0 11309700000.0 11309700000.0 11309700000.0 11309700000.0 11309700000.0 11309700000.0 11309700000.0 11309700000.0 11309700000.0 11309700000.0 11309700000.0 11309700000.0 11309700000.0 11309700000.0 11309700000.0 11309700000.0 11309700000.0 11309700000.0 11309700000.0 11309700000.0 11309700000.0 11309700000.0 11309700000.0 11309700000.0 11309700000.0 11309700000.0 11309700000.0 11309700000.0 11309700000.0 11309700000.0 11309700000.0 11309700000.0 11309700000.0 11309700000.0 11309700000.0 11309700000.0 11309700000.0 11309700000.0 11309700000.0 11309700000.0 11309700000.0 11309700000.0 11309700000.0 11309700000.0 11309700000.0 11309700000.0 11309700000.0 11309700000.0 11309700000.0 11309700000.0 11309700000.0 11309700000.0 11309700000.0 11309700000.0 11309700000.0 11309700000.0 11309700000.0 11309700000.0 11309700000.0 11309700000.0 11309700000.0 11309700000.0 11309700000.0 11309700000.0 11309700000.0 11309700000.0 11309700000.0 11309700000.0 11309700000.0 11309700000.0 11309700000.0 11309700000.0 11309700000.0 11309700000.0 11309700000.0 11309700000.0 11309700000.0 11309700000.0 11309700000.0 11309700000.0 11309700000.0 11309700000.0 11309700000.0 11309700000.0 11309700000.0 11309700000.0 11309700000.0 11309700000.0 11309700000.0 11309700000.0 11309700000.0 11309700000.0 11309700000.0 11309700000.0 11309700000.0 11309700000.0 11309700000.0 11309700000.0 11309700000.0 11309700000.0 11309700000.0 11309700000.0 11309700000.0 11309700000.0 11309700000.0 11309700000.0 11309700000.0 11309700000.0 11309700000.0 11309700000.0 11309700000.0 11309700000.0 11309700000.0 11309700000.0 11309700000.0 11309700000.0 11309700000.0 11309700000.0 11309700000.0 11309700000.0 11309700000.0 11309700000.0 11309700000.0 11309700000.0 11309700000.0 11309700000.0 11309700000.0 11309700000.0 11309700000.0 11309700000.0 11309700000.0 11309700000.0 11309700000.0 11309700000.0 11309700000.0 11309700000.0 11309700000.0 11309700000.0 11309700000.0 11309700000.0 11309700000.0 11309700000.0 11309700000.0 11309700000.0 11309700000.0 11309700000.0 11309700000.0 11309700000.0 11309700000.0 11309700000.0 11309700000.0 11309700000.0 11309700000.0 11309700000.0 11309700000.0 11309700000.0 11309700000.0 11309700000.0 11309700000.0 11309700000.0 11309700000.0 11309700000.0 11309700000.0 11309700000.0 11309700000.0 11309700000.0 11309700000.0 11309700000.0 11309700000.0 11309700000.0 11309700000.0 11309700000.0 11309700000.0 11309700000.0 11309700000.0 11309700000.0 11309700000.0 11309700000.0 11309700000.0 11309700000.0 11309700000.0 11309700000.0 11309700000.0 11309700000.0 11309700000.0 11309700000.0 11309700000.0 11309700000.0 11309700000.0 11309700000.0 11309700000.0 11309700000.0 11309700000.0 11309700000.0 11309700000.0 11309700000.0 11309700000.0 11309700000.0 11309700000.0 11309700000.0 11309700000.0 11309700000.0 11309700000.0 11309700000.0 11309700000.0 11309700000.0 11309700000.0 11309700000.0 11309700000.0 11309700000.0 11309700000.0 11309700000.0 11309700000.0 11309700000.0 11309700000.0 11309700000.0 11309700000.0 11309700000.0 11309700000.0 11309700000.0 11309700000.0 11309700000.0 11309700000.0 11309700000.0 11309700000.0 11309700000.0 11309700000.0 11309700000.0 11309700000.0 11309700000.0 11309700000.0 11309700000.0 11309700000.0 11309700000.0 11309700000.0 11309700000.0 11309700000.0 11309700000.0 11309700000.0 11309700000.0 11309700000.0 11309700000.0 11309700000.0 11309700000.0 11309700000.0 11309700000.0 11309700000.0 11309700000.0 11309700000.0 11309700000.0 11309700000.0 11309700000.0 11309700000.0 
SCALARS Velocity float 1
LOOKUP_TABLE default
0.562039 1.10288 1.10288 0.562039 0.547227 1.06308 1.03838 1.05505 1.03156 1.15775 0.849652 0.916657 0.892466 0.894443 0.894315 0.894153 0.893983 0.893885 0.893832 0.893834 0.893847 0.893866 0.893876 0.893878 0.893873 0.893866 0.893857 0.89385 0.893845 0.893841 0.893839 0.893839 0.893838 0.893839 0.893839 0.893841 0.893845 0.89385 0.893857 0.893866 0.893873 0.893878 0.893876 0.893866 0.893847 0.893834 0.893832 0.893885 0.893983 0.894153 0.894315 0.894443 0.892466 0.916657 0.849652 1.15775 1.03156 1.05505 1.03838 1.06308 0.547227 0.517714 0.579809 0.921375 1.07168 1.06663 1.1516 0.848382 0.917488 0.892862 0.894694 0.894349 0.894078 0.893958 0.893887 0.893846 0.893832 0.893842 0.893854 0.893859 0.893858 0.893853 0.893847 0.893843 0.89384 0.89384 0.893836 0.89384 0.893837 0.893838 0.893837 0.89384 0.893836 0.89384 0.89384 0.893843 0.893847 0.893853 0.893858 0.893859 0.893854 0.893842 0.893832 0.893846 0.893887 0.893958 0.894078 0.894349 0.894694 0.892862 0.917488 0.848382 1.1516 1.06663 1.07168 0.921375 0.579809 0.517714 0.423222 0.476864 0.514778 0.551934 0.858475 0.851255 0.851255 0.858475 0.551934 0.514778 0.476864 0.423222 0.402255 0.469487 0.649551 0.734142 0.901811 0.803537 0.564496 1.1562 0.778152 0.923277 0.888091 0.895335 0.894344 0.894074 0.893981 0.894027 0.894013 0.893892 0.893839 0.893847 0.89385 0.893844 0.89384 0.89384 0.893841 0.893843 0.893843 0.893844 0.893841 0.893841 0.893843 0.893841 0.893841 0.893844 0.893843 0.893843 0.893841 0.89384 0.89384 0.893844 0.89385 0.893847 0.893839 0.893892 0.894013 0.894027 0.893981 0.894074 0.894344 0.895335 0.888091 0.923277 0.778152 1.1562 0.564496 0.803537 0.901811 0.734142 0.649551 0.469487 0.402255 0.40392 0.433428 0.572056 0.802966 0.86437 0.892243 0.870769 1.09246 1.15235 0.92192 0.883805 0.896046 0.893691 0.893957 0.894025 0.894088 0.894165 0.894209 0.894226 0.89422 0.894194 0.894154 0.894106 0.894054 0.894003 0.893956 0.893916 0.893885 0.89386 0.893846 0.893841 0.893846 0.89386 0.893885 0.893916 0.893956 0.894003 0.894054 0.894106 0.894154 0.894194 0.89422 0.894226 0.894209 0.894165 0.894088 0.894025 0.893957 0.893691 0.896046 0.883805 0.92192 1.15235 1.09246 0.870769 0.892243 0.86437 0.802966 0.572056 0.433428 0.40392 0.379891 0.418621 0.473711 0.51705 0.722846 0.883014 1.09647 0.498362 0.795273 0.795273 0.498362 1.09647 0.883014 0.722846 0.51705 0.473711 0.418621 0.379891 0.356038 0.351762 0.429001 0.453446 0.611855 0.656669 0.821986 0.89094 1.09747 0.89603 0.500637 1.15363 0.796418 0.922554 0.884322 0.895784 0.893708 0.893977 0.89403 0.894053 0.894095 0.894132 0.894159 0.894169 0.89416 0.894135 0.894099 0.894056 0.894009 0.893963 0.893922 0.893888 0.893861 0.893846 0.893839 0.893846 0.893861 0.893888 0.893922 0.893963 0.894009 0.894056 0.894099 0.894135 0.89416 0.894169 0.894159 0.894132 0.894095 0.894053 0.89403 0.893977 0.893708 0.895784 0.884322 0.922554 0.796418 1.15363 0.500637 0.89603 1.09747 0.89094 0.821986 0.656669 0.611855 0.453446 0.429001 0.351762 0.356038 0.327272 0.338675 0.381962 0.389783 0.588466 0.786723 1.02585 1.09801 0.72365 0.899015 0.876392 0.876392 0.899015 0.72365 1.09801 1.02585 0.786723 0.588466 0.389783 0.381962 0.338675 0.327272 0.344103 0.318437 0.368036 0.878025 0.739314 0.959794 0.75487 0.893159 0.487069 1.15987 0.796067 0.922111 0.886924 0.895844 0.893725 0.894185 0.894263 0.894347 0.89441 0.894462 0.894486 0.894481 0.894449 0.894397 0.894329 0.894247 0.89416 0.894074 0.893995 0.893929 0.893879 0.893848 0.893838 0.893848 0.893879 0.893929 0.893995 0.894074 0.89416 0.894247 0.894329 0.894397 0.894449 0.894481 0.894486 0.894462 0.89441 0.894347 0.894263 0.894185 0.893725 0.895844 0.886924 0.922111 0.796067 1.15987 0.487069 0.893159 0.75487 0.959794 0.739314 0.878025 0.368036 0.318437 0.344103 0.354719 0.235448 0.289275 0.300418 0.343001 0.353705 0.715489 0.956028 0.580723 0.930628 0.845628 0.508131 1.16637 0.79666 0.92977 0.891624 0.896031 0.894116 0.894493 0.894486 0.894482 0.894465 0.894427 0.894372 0.894308 0.894242 0.894179 0.894118 0.89406 0.894006 0.893957 0.893915 0.893882 0.893857 0.893843 0.893837 0.893843 0.893857 0.893882 0.893915 0.893957 0.894006 0.89406 0.894118 0.894179 0.894242 0.894308 0.894372 0.894427 0.894465 0.894482 0.894486 0.894493 0.894116 0.896031 0.891624 0.92977 0.79666 1.16637 0.508131 0.845628 0.930628 0.580723 0.956028 0.715489 0.353705 0.343001 0.300418 0.289275 0.235448 0.354719 0.466998 0.205385 0.43325 0.381519 0.459579 0.848592 0.949191 0.531528 0.853043 0.869064 0.869064 0.853043 0.531528 0.949191 0.848592 0.459579 0.381519 0.43325 0.205385 0.466998 0.362531 0.933416 0.87192 0.298092 0.445945 0.887823 0.865746 0.690079 0.600271 0.828825 0.822239 0.892582 0.928913 0.585327 1.24941 0.797498 0.928117 0.891265 0.901644 0.901341 0.900397 0.900356 0.89677 0.896061 0.895552 0.895137 0.894809 0.894558 0.894366 0.894217 0.894103 0.894017 0.893953 0.893906 0.893872 0.89385 0.893837 0.893833 0.893837 0.89385 0.893872 0.893906 0.893953 0.894017 0.894103 0.894217 0.894366 0.894558 0.894809 0.895137 0.895552 0.896061 0.89677 0.900356 0.900397 0.901341 0.901644 0.891265 0.928117 0.797498 1.24941 0.585327 0.928913 0.892582 0.822239 0.828825 0.600271 0.690079 0.865746 0.887823 0.445945 0.298092 0.87192 0.933416 0.362531 0.912172 0.745546 0.499035 0.640301 0.565387 0.839628 0.87323 0.458118 0.909682 0.818891 0.899703 0.889137 0.892096 0.891402 0.891535 0.890785 0.893719 0.893847 0.893865 0.893882 0.893893 0.893899 0.8939 0.893897 0.89389 0.893881 0.89387 0.893858 0.893848 0.89384 0.893835 0.893833 0.893835 0.89384 0.893848 0.893858 0.89387 0.893881 0.89389 0.893897 0.8939 0.893899 0.893893 0.893882 0.893865 0.893847 0.893719 0.890785 0.891535 0.891402 0.892096 0.889137 0.899703 0.818891 0.909682 0.458118 0.87323 0.839628 0.565387 0.640301 0.499035 0.745546 0.912172 0.276435 0.846525 0.803879 0.268745 0.545757 0.805546 0.790917 0.688837 0.793546 0.876487 0.876487 0.793546 0.688837 0.790917 0.805546 0.545757 0.268745 0.803879 0.846525 0.276435 0.874181 0.785876 0.921979 0.886282 0.387006 0.68103 0.813134 0.745856 0.587293 0.79855 0.761441 0.818633 0.823265 0.609207 0.894105 0.825775 0.893832 0.893832 0.893832 0.893832 0.893832 0.893832 0.893832 0.893832 0.893832 0.893832 0.893832 0.893832 0.893832 0.893832 0.893832 0.893832 0.893832 0.893832 0.893832 0.893832 0.893832 0.893832 0.893832 0.893832 0.893832 0.893832 0.893832 0.893832 0.893832 0.893832 0.893832 0.893832 0.893832 0.893832 0.893832 0.893832 0.893832 0.893832 0.893832 0.893832 0.893832 0.893832 0.893832 0.825775 0.894105 0.609207 0.823265 0.818633 0.761441 0.79855 0.587293 0.745856 0.813134 0.68103 0.387006 0.886282 0.921979 0.785876 0.874181 0.841013 0.708665 0.783567 0.827859 0.923211 0.719473 0.960222 0.836574 0.897235 0.895172 0.895114 0.895087 0.895077 0.895019 0.894918 0.894796 0.894672 0.894553 0.894439 0.894332 0.894234 0.894145 0.894069 0.894004 0.89395 0.893906 0.893873 0.89385 0.893837 0.893832 0.893837 0.89385 0.893873 0.893906 0.89395 0.894004 0.894069 0.894145 0.894234 0.894332 0.894439 0.894553 0.894672 0.894796 0.894918 0.895019 0.895077 0.895087 0.895114 0.895172 0.897235 0.836574 0.960222 0.719473 0.923211 0.827859 0.783567 0.708665 0.841013 0.833273 0.841588 0.862375 0.770947 0.555798 0.671145 0.865153 0.87083 0.87083 0.865153 0.671145 0.555798 0.770947 0.862375 0.841588 0.833273 0.787654 0.870473 0.874743 0.693246 0.787255 0.804885 0.687531 0.876269 0.739859 0.887876 0.874195 0.891081 0.90622 0.795274 0.895962 0.893832 0.893832 0.893832 0.893832 0.893832 0.893832 0.893832 0.893832 0.893832 0.893832 0.893832 0.893832 0.893832 0.893832 0.893832 0.893832 0.893832 0.893832 0.893832 0.893832 0.893832 0.893832 0.893832 0.893832 0.893832 0.893832 0.893832 0.893832 0.893832 0.893832 0.893832 0.893832 0.893832 0.893832 0.893832 0.893832 0.893832 0.893832 0.893832 0.893832 0.893832 0.893832 0.893832 0.893832 0.893832 0.895962 0.795274 0.90622 0.891081 0.874195 0.887876 0.739859 0.876269 0.687531 0.804885 0.787255 0.693246 0.874743 0.870473 0.787654 0.833997 0.87904 0.807567 0.859164 0.881347 0.708125 0.869968 0.759126 0.897764 0.914829 0.907955 0.920331 0.82002 0.9019 0.894434 0.894706 0.894546 0.894396 0.894272 0.894177 0.894103 0.894042 0.893992 0.893952 0.89392 0.893895 0.893876 0.893863 0.893853 0.893846 0.893841 0.893838 0.893835 0.893834 0.893833 0.893832 0.893832 0.893832 0.893833 0.893834 0.893835 0.893838 0.893841 0.893846 0.893853 0.893863 0.893876 0.893895 0.89392 0.893952 0.893992 0.894042 0.894103 0.894177 0.894272 0.894396 0.894546 0.894706 0.894434 0.9019 0.82002 0.920331 0.907955 0.914829 0.897764 0.759126 0.869968 0.708125 0.881347 0.859164 0.807567 0.87904 0.833997 0.891887 0.891887 0.873912 0.886825 0.84942 0.901069 0.915246 0.917871 0.78008 0.895075 0.89094 0.907554 0.896 0.899732 0.894788 0.835284 0.893979 0.893832 0.893832 0.893832 0.893832 0.893832 0.893832 0.893832 0.893832 0.893832 0.893832 0.893832 0.893832 0.893832 0.893832 0.893832 0.893832 0.893832 0.893832 0.893832 0.893832 0.893832 0.893832 0.893832 0.893832 0.893832 0.893832 0.893832 0.893832 0.893832 0.893832 0.893832 0.893832 0.893832 0.893832 0.893832 0.893832 0.893832 0.893832 0.893832 0.893832 0.893832 0.893832 0.893832 0.893832 0.893832 0.893979 0.835284 0.894788 0.899732 0.896 0.907554 0.89094 0.895075 0.78008 0.917871 0.915246 0.901069 0.84942 0.886825 0.873912 0.878416 0.907225 0.912333 0.808782 0.891649 0.898633 0.906187 0.896768 0.890169 0.894995 0.847198 0.89406 0.893847 0.893843 0.89384 0.893837 0.893836 0.893834 0.893834 0.893833 0.893833 0.893832 0.893832 0.893832 0.893832 0.893832 0.893832 0.893832 0.893832 0.893832 0.893832 0.893832 0.893832 0.893832 0.893832 0.893832 0.893832 0.893832 0.893832 0.893832 0.893832 0.893832 0.893832 0.893832 0.893832 0.893832 0.893832 0.893832 0.893833 0.893833 0.893834 0.893834 0.893836 0.893837 0.89384 0.893843 0.893847 0.89406 0.847198 0.894995 0.890169 0.896768 0.906187 0.898633 0.891649 0.808782 0.912333 0.907225 0.878416 0.889008 0.908315 0.914868 0.914868 0.908315 0.889008 0.891132 0.910785 0.887291 0.908963 0.904253 0.909121 0.827781 0.887527 0.894997 0.902581 0.89452 0.883451 0.893834 0.857001 0.893833 0.893833 0.893833 0.893832 0.893832 0.893832 0.893832 0.893832 0.893832 0.893832 0.893832 0.893832 0.893832 0.893832 0.893832 0.893832 0.893832 0.893832 0.893832 0.893832 0.893832 0.893832 0.893832 0.893832 0.893832 0.893832 0.893832 0.893832 0.893832 0.893832 0.893832 0.893832 0.893832 0.893832 0.893832 0.893832 0.893832 0.893832 0.893832 0.893832 0.893832 0.893832 0.893832 0.893832 0.893833 0.893833 0.893833 0.857001 0.893834 0.883451 0.89452 0.902581 0.894997 0.887527 0.827781 0.909121 0.904253 0.908963 0.887291 0.910785 0.891132 0.841763 0.894927 0.894462 0.879063 0.893833 0.864719 0.893833 0.893833 0.893832 0.893832 0.893832 0.893832 0.893832 0.893832 0.893832 0.893832 0.893832 0.893832 0.893832 0.893832 0.893832 0.893832 0.893832 0.893832 0.893832 0.893832 0.893832 0.893832 0.893832 0.893832 0.893832 0.893832 0.893832 0.893832 0.893832 0.893832 0.893832 0.893832 0.893832 0.893832 0.893832 0.893832 0.893832 0.893832 0.893832 0.893832 0.893832 0.893832 0.893832 0.893832 0.893832 0.893833 0.893833 0.864719 0.893833 0.879063 0.894462 0.894927 0.841763 0.891637 0.908158 0.890659 0.908087 0.897285 0.904256 0.884886 0.898672 0.898672 0.884886 0.904256 0.897285 0.908087 0.890659 0.908158 0.891637 0.891362 0.904971 0.893115 0.90541 0.892498 0.899808 0.851305 0.883627 0.894846 0.894953 0.894391 0.876381 0.893833 0.870905 0.893833 0.893832 0.893832 0.893832 0.893832 0.893832 0.893832 0.893832 0.893832 0.893832 0.893832 0.893832 0.893832 0.893832 0.893832 0.893832 0.893832 0.893832 0.893832 0.893832 0.893832 0.893832 0.893832 0.893832 0.893832 0.893832 0.893832 0.893832 0.893832 0.893832 0.893832 0.893832 0.893832 0.893832 0.893832 0.893832 0.893832 0.893832 0.893832 0.893832 0.893832 0.893832 0.893832 0.893832 0.893832 0.893832 0.893833 0.870905 0.893833 0.876381 0.894391 0.894953 0.894846 0.883627 0.851305 0.899808 0.892498 0.90541 0.893115 0.904971 0.891362 0.890259 0.901623 0.89474 0.901931 0.889379 0.895672 0.858004 0.883381 0.894722 0.891452 0.894297 0.875119 0.893833 0.875991 0.893833 0.893832 0.893832 0.893832 0.893832 0.893832 0.893832 0.893832 0.893832 0.893832 0.893832 0.893832 0.893832 0.893832 0.893832 0.893832 0.893832 0.893832 0.893832 0.893832 0.893832 0.893832 0.893832 0.893832 0.893832 0.893832 0.893832 0.893832 0.893832 0.893832 0.893832 0.893832 0.893832 0.893832 0.893832 0.893832 0.893832 0.893832 0.893832 0.893832 0.893832 0.893832 0.893832 0.893832 0.893832 0.893832 0.893833 0.875991 0.893833 0.875119 0.894297 0.891452 0.894722 0.883381 0.858004 0.895672 0.889379 0.901931 0.89474 0.901623 0.890259 0.889185 0.898296 0.895389 0.898289 0.88764 0.892084 0.863046 0.883729 0.894553 0.88829 0.894184 0.874953 0.893833 0.880179 0.893833 0.893832 0.893832 0.893832 0.893832 0.893832 0.893832 0.893832 0.893832 0.893832 0.893832 0.893832 0.893832 0.893832 0.893832 0.893832 0.893832 0.893832 0.893832 0.893832 0.893832 0.893832 0.893832 0.893832 0.893832 0.893832 0.893832 0.893832 0.893832 0.893832 0.893832 0.893832 0.893832 0.893832 0.893832 0.893832 0.893832 0.893832 0.893832 0.893832 0.893832 0.893832 0.893832 0.893832 0.893832 0.893832 0.893833 0.880179 0.893833 0.874953 0.894184 0.88829 0.894553 0.883729 0.863046 0.892084 0.88764 0.898289 0.895389 0.898296 0.889185 0.888523 0.895208 0.895172 0.89498 0.886927 0.889109 0.867121 0.884322 0.894378 0.885651 0.894061 0.875561 0.893833 0.883578 0.893833 0.893832 0.893832 0.893832 0.893832 0.893832 0.893832 0.893832 0.893832 0.893832 0.893832 0.893832 0.893832 0.893832 0.893832 0.893832 0.893832 0.893832 0.893832 0.893832 0.893832 0.893832 0.893832 0.893832 0.893832 0.893832 0.893832 0.893832 0.893832 0.893832 0.893832 0.893832 0.893832 0.893832 0.893832 0.893832 0.893832 0.893832 0.893832 0.893832 0.893832 0.893832 0.893832 0.893832 0.893832 0.893832 0.893833 0.883578 0.893833 0.875561 0.894061 0.885651 0.894378 0.884322 0.867121 0.889109 0.886927 0.89498 0.895172 0.895208 0.888523 0.888241 0.892495 0.894141 0.892269 0.886858 0.886712 0.870618 0.884929 0.8942 0.883627 0.893938 0.876702 0.893833 0.886283 0.893833 0.893832 0.893832 0.893832 0.893832 0.893832 0.893832 0.893832 0.893832 0.893832 0.893832 0.893832 0.893832 0.893832 0.893832 0.893832 0.893832 0.893832 0.893832 0.893832 0.893832 0.893832 0.893832 0.893832 0.893832 0.893832 0.893832 0.893832 0.893832 0.893832 0.893832 0.893832 0.893832 0.893832 0.893832 0.893832 0.893832 0.893832 0.893832 0.893832 0.893832 0.893832 0.893832 0.893832 0.893832 0.893832 0.893833 0.886283 0.893833 0.876702 0.893938 0.883627 0.8942 0.884929 0.870618 0.886712 0.886858 0.892269 0.894141 0.892495 0.888241 0.888241 0.890247 0.892587 0.890198 0.887171 0.884835 0.873738 0.885427 0.894025 0.882213 0.893824 0.878194 0.893833 0.888391 0.893832 0.893832 0.893832 0.893832 0.893832 0.893832 0.893832 0.893832 0.893832 0.893832 0.893832 0.893832 0.893832 0.893832 0.893832 0.893832 0.893832 0.893832 0.893832 0.893832 0.893832 0.893832 0.893832 0.893832 0.893832 0.893832 0.893832 0.893832 0.893832 0.893832 0.893832 0.893832 0.893832 0.893832 0.893832 0.893832 0.893832 0.893832 0.893832 0.893832 0.893832 0.893832 0.893832 0.893832 0.893832 0.893832 0.893832 0.888391 0.893833 0.878194 0.893824 0.882213 0.894025 0.885427 0.873738 0.884835 0.887171 0.890198 0.892587 0.890247 0.888241 0.888344 0.888525 0.890949 0.888714 0.887692 0.883422 0.876579 0.885778 0.893861 0.881353 0.893724 0.879888 0.893833 0.889996 0.893832 0.893832 0.893832 0.893832 0.893832 0.893832 0.893832 0.893832 0.893832 0.893832 0.893832 0.893832 0.893832 0.893832 0.893832 0.893832 0.893832 0.893832 0.893832 0.893832 0.893832 0.893832 0.893832 0.893832 0.893832 0.893832 0.893832 0.893832 0.893832 0.893832 0.893832 0.893832 0.893832 0.893832 0.893832 0.893832 0.893832 0.893832 0.893832 0.893832 0.893832 0.893832 0.893832 0.893832 0.893832 0.893832 0.893832 0.889996 0.893833 0.879888 0.893724 0.881353 0.893861 0.885778 0.876579 0.883422 0.887692 0.888714 0.890949 0.888525 0.888344 0.888404 0.887341 0.889543 0.88774 0.888284 0.882427 0.879182 0.885989 0.893715 0.880971 0.893643 0.881656 0.893833 0.891191 0.893832 0.893832 0.893832 0.893832 0.893832 0.893832 0.893832 0.893832 0.893832 0.893832 0.893832 0.893832 0.893832 0.893832 0.893832 0.893832 0.893832 0.893832 0.893832 0.893832 0.893832 0.893832 0.893832 0.893832 0.893832 0.893832 0.893832 0.893832 0.893832 0.893832 0.893832 0.893832 0.893832 0.893832 0.893832 0.893832 0.893832 0.893832 0.893832 0.893832 0.893832 0.893832 0.893832 0.893832 0.893832 0.893832 0.893832 0.891191 0.893833 0.881656 0.893643 0.880971 0.893715 0.885989 0.879182 0.882427 0.888284 0.88774 0.889543 0.887341 0.888404 0.888412 0.886656 0.888492 0.887191 0.888847 0.881805 0.881553 0.886094 0.893592 0.880984 0.893586 0.883402 0.893833 0.89206 0.893832 0.893832 0.893832 0.893832 0.893832 0.893832 0.893832 0.893832 0.893832 0.893832 0.893832 0.893832 0.893832 0.893832 0.893832 0.893832 0.893832 0.893832 0.893832 0.893832 0.893832 0.893832 0.893832 0.893832 0.893832 0.893832 0.893832 0.893832 0.893832 0.893832 0.893832 0.893832 0.893832 0.893832 0.893832 0.893832 0.893832 0.893832 0.893832 0.893832 0.893832 0.893832 0.893832 0.893832 0.893832 0.893832 0.893832 0.89206 0.893833 0.883402 0.893586 0.880984 0.893592 0.886094 0.881553 0.881805 0.888847 0.887191 0.888492 0.886656 0.888412 0.888436 0.886388 0.887799 0.886982 0.889323 0.881517 0.88368 0.88614 0.893494 0.881314 0.893551 0.885057 0.893832 0.892676 0.893832 0.893832 0.893832 0.893832 0.893832 0.893832 0.893832 0.893832 0.893832 0.893832 0.893832 0.893832 0.893832 0.893832 0.893832 0.893832 0.893832 0.893832 0.893832 0.893832 0.893832 0.893832 0.893832 0.893832 0.893832 0.893832 0.893832 0.893832 0.893832 0.893832 0.893832 0.893832 0.893832 0.893832 0.893832 0.893832 0.893832 0.893832 0.893832 0.893832 0.893832 0.893832 0.893832 0.893832 0.893832 0.893832 0.893832 0.892676 0.893832 0.885057 0.893551 0.881314 0.893494 0.88614 0.88368 0.881517 0.889323 0.886982 0.887799 0.886388 0.888436 0.888517 0.886434 0.887412 0.887035 0.889695 0.881515 0.88555 0.886171 0.893422 0.88189 0.893536 0.886577 0.893832 0.893101 0.893832 0.893832 0.893832 0.893832 0.893832 0.893832 0.893832 0.893832 0.893832 0.893832 0.893832 0.893832 0.893832 0.893832 0.893832 0.893832 0.893832 0.893832 0.893832 0.893832 0.893832 0.893832 0.893832 0.893832 0.893832 0.893832 0.893832 0.893832 0.893832 0.893832 0.893832 0.893832 0.893832 0.893832 0.893832 0.893832 0.893832 0.893832 0.893832 0.893832 0.893832 0.893832 0.893832 0.893832 0.893832 0.893832 0.893832 0.893101 0.893832 0.886577 0.893536 0.88189 0.893422 0.886171 0.88555 0.881515 0.889695 0.887035 0.887412 0.886434 0.888517 0.888658 0.886696 0.887267 0.887278 0.889967 0.881751 0.887157 0.886229 0.893377 0.882651 0.893539 0.887936 0.893832 0.893386 0.893832 0.893832 0.893832 0.893832 0.893832 0.893832 0.893832 0.893832 0.893832 0.893832 0.893832 0.893832 0.893832 0.893832 0.893832 0.893832 0.893832 0.893832 0.893832 0.893832 0.893832 0.893832 0.893832 0.893832 0.893832 0.893832 0.893832 0.893832 0.893832 0.893832 0.893832 0.893832 0.893832 0.893832 0.893832 0.893832 0.893832 0.893832 0.893832 0.893832 0.893832 0.893832 0.893832 0.893832 0.893832 0.893832 0.893832 0.893386 0.893832 0.887936 0.893539 0.882651 0.893377 0.886229 0.887157 0.881751 0.889967 0.887278 0.887267 0.886696 0.888658 0.888835 0.887089 0.887307 0.887647 0.890161 0.882174 0.888508 0.886342 0.893356 0.883542 0.893554 0.889121 0.893832 0.893571 0.893832 0.893832 0.893832 0.893832 0.893832 0.893832 0.893832 0.893832 0.893832 0.893832 0.893832 0.893832 0.893832 0.893832 0.893832 0.893832 0.893832 0.893832 0.893832 0.893832 0.893832 0.893832 0.893832 0.893832 0.893832 0.893832 0.893832 0.893832 0.893832 0.893832 0.893832 0.893832 0.893832 0.893832 0.893832 0.893832 0.893832 0.893832 0.893832 0.893832 0.893832 0.893832 0.893832 0.893832 0.893832 0.893832 0.893832 0.893571 0.893832 0.889121 0.893554 0.883542 0.893356 0.886342 0.888508 0.882174 0.890161 0.887647 0.887307 0.887089 0.888835 0.889027 0.887549 0.887482 0.888088 0.890305 0.882742 0.889621 0.886526 0.893354 0.884515 0.893579 0.89013 0.893832 0.893686 0.893832 0.893832 0.893832 0.893832 0.893832 0.893832 0.893832 0.893832 0.893832 0.893832 0.893832 0.893832 0.893832 0.893832 0.893832 0.893832 0.893832 0.893832 0.893832 0.893832 0.893832 0.893832 0.893832 0.893832 0.893832 0.893832 0.893832 0.893832 0.893832 0.893832 0.893832 0.893832 0.893832 0.893832 0.893832 0.893832 0.893832 0.893832 0.893832 0.893832 0.893832 0.893832 0.893832 0.893832 0.893832 0.893832 0.893832 0.893686 0.893832 0.89013 0.893579 0.884515 0.893354 0.886526 0.889621 0.882742 0.890305 0.888088 0.887482 0.887549 0.889027 0.89052 0.893369 0.885526 0.893609 0.89097 0.893832 0.893754 0.893832 0.893832 0.893832 0.893832 0.893832 0.893832 0.893832 0.893832 0.893832 0.893832 0.893832 0.893832 0.893832 0.893832 0.893832 0.893832 0.893832 0.893832 0.893832 0.893832 0.893832 0.893832 0.893832 0.893832 0.893832 0.893832 0.893832 0.893832 0.893832 0.893832 0.893832 0.893832 0.893832 0.893832 0.893832 0.893832 0.893832 0.893832 0.893832 0.893832 0.893832 0.893832 0.893832 0.893832 0.893832 0.893832 0.893832 0.893754 0.893832 0.89097 0.893609 0.885526 0.893369 0.89052 0.889215 0.888031 0.887749 0.888557 0.890428 0.883413 0.886787 0.886787 0.883413 0.890428 0.888557 0.887749 0.888031 0.889215 0.889391 0.888502 0.888076 0.889021 0.890552 0.884154 0.891236 0.887121 0.893397 0.886536 0.893642 0.891656 0.893832 0.893793 0.893832 0.893832 0.893832 0.893832 0.893832 0.893832 0.893832 0.893832 0.893832 0.893832 0.893832 0.893832 0.893832 0.893832 0.893832 0.893832 0.893832 0.893832 0.893832 0.893832 0.893832 0.893832 0.893832 0.893832 0.893832 0.893832 0.893832 0.893832 0.893832 0.893832 0.893832 0.893832 0.893832 0.893832 0.893832 0.893832 0.893832 0.893832 0.893832 0.893832 0.893832 0.893832 0.893832 0.893832 0.893832 0.893832 0.893832 0.893793 0.893832 0.891656 0.893642 0.886536 0.893397 0.887121 0.891236 0.884154 0.890552 0.889021 0.888076 0.888502 0.889391 0.889553 0.888941 0.888437 0.889458 0.890689 0.884934 0.891798 0.887518 0.893433 0.887514 0.893675 0.892203 0.893832 0.893814 0.893832 0.893832 0.893832 0.893832 0.893832 0.893832 0.893832 0.893832 0.893832 0.893832 0.893832 0.893832 0.893832 0.893832 0.893832 0.893832 0.893832 0.893832 0.893832 0.893832 0.893832 0.893832 0.893832 0.893832 0.893832 0.893832 0.893832 0.893832 0.893832 0.893832 0.893832 0.893832 0.893832 0.893832 0.893832 0.893832 0.893832 0.893832 0.893832 0.893832 0.893832 0.893832 0.893832 0.893832 0.893832 0.893832 0.893832 0.893814 0.893832 0.892203 0.893675 0.887514 0.893433 0.887518 0.891798 0.884934 0.890689 0.889458 0.888437 0.888941 0.889553 0.889703 0.889338 0.888813 0.889856 0.890847 0.885728 0.892237 0.887966 0.893475 0.888437 0.893706 0.892632 0.893832 0.893824 0.893832 0.893832 0.893832 0.893832 0.893832 0.893832 0.893832 0.893832 0.893832 0.893832 0.893832 0.893832 0.893832 0.893832 0.893832 0.893832 0.893832 0.893832 0.893832 0.893832 0.893832 0.893832 0.893832 0.893832 0.893832 0.893832 0.893832 0.893832 0.893832 0.893832 0.893832 0.893832 0.893832 0.893832 0.893832 0.893832 0.893832 0.893832 0.893832 0.893832 0.893832 0.893832 0.893832 0.893832 0.893832 0.893832 0.893832 0.893824 0.893832 0.892632 0.893706 0.888437 0.893475 0.887966 0.892237 0.885728 0.890847 0.889856 0.888813 0.889338 0.889703 0.889845 0.88969 0.88919 0.89021 0.891027 0.886514 0.892578 0.888449 0.89352 0.889286 0.893734 0.892961 0.893832 0.893829 0.893832 0.893832 0.893832 0.893832 0.893832 0.893832 0.893832 0.893832 0.893832 0.893832 0.893832 0.893832 0.893832 0.893832 0.893832 0.893832 0.893832 0.893832 0.893832 0.893832 0.893832 0.893832 0.893832 0.893832 0.893832 0.893832 0.893832 0.893832 0.893832 0.893832 0.893832 0.893832 0.893832 0.893832 0.893832 0.893832 0.893832 0.893832 0.893832 0.893832 0.893832 0.893832 0.893832 0.893832 0.893832 0.893832 0.893832 0.893829 0.893832 0.892961 0.893734 0.889286 0.89352 0.888449 0.892578 0.886514 0.891027 0.89021 0.88919 0.88969 0.889845 0.889985 0.889998 0.889559 0.890522 0.891225 0.887277 0.892843 0.888951 0.893565 0.890051 0.893758 0.89321 0.893832 0.893831 0.893832 0.893832 0.893832 0.893832 0.893832 0.893832 0.893832 0.893832 0.893832 0.893832 0.893832 0.893832 0.893832 0.893832 0.893832 0.893832 0.893832 0.893832 0.893832 0.893832 0.893832 0.893832 0.893832 0.893832 0.893832 0.893832 0.893832 0.893832 0.893832 0.893832 0.893832 0.893832 0.893832 0.893832 0.893832 0.893832 0.893832 0.893832 0.893832 0.893832 0.893832 0.893832 0.893832 0.893832 0.893832 0.893832 0.893832 0.893831 0.893832 0.89321 0.893758 0.890051 0.893565 0.888951 0.892843 0.887277 0.891225 0.890522 0.889559 0.889998 0.889985 0.890126 0.890266 0.889914 0.890794 0.891434 0.888005 0.89305 0.889457 0.893607 0.890727 0.893777 0.893394 0.893832 0.893832 0.893832 0.893832 0.893832 0.893832 0.893832 0.893832 0.893832 0.893832 0.893832 0.893832 0.893832 0.893832 0.893832 0.893832 0.893832 0.893832 0.893832 0.893832 0.893832 0.893832 0.893832 0.893832 0.893832 0.893832 0.893832 0.893832 0.893832 0.893832 0.893832 0.893832 0.893832 0.893832 0.893832 0.893832 0.893832 0.893832 0.893832 0.893832 0.893832 0.893832 0.893832 0.893832 0.893832 0.893832 0.893832 0.893832 0.893832 0.893832 0.893832 0.893394 0.893777 0.890727 0.893607 0.889457 0.89305 0.888005 0.891434 0.890794 0.889914 0.890266 0.890126 0.890271 0.890501 0.890251 0.891033 0.891649 0.888688 0.893213 0.889954 0.893647 0.891314 0.893793 0.893528 0.893832 0.893832 0.893832 0.893832 0.893832 0.893832 0.893832 0.893832 0.893832 0.893832 0.893832 0.893832 0.893832 0.893832 0.893832 0.893832 0.893832 0.893832 0.893832 0.893832 0.893832 0.893832 0.893832 0.893832 0.893832 0.893832 0.893832 0.893832 0.893832 0.893832 0.893832 0.893832 0.893832 0.893832 0.893832 0.893832 0.893832 0.893832 0.893832 0.893832 0.893832 0.893832 0.893832 0.893832 0.893832 0.893832 0.893832 0.893832 0.893832 0.893832 0.893832 0.893528 0.893793 0.891314 0.893647 0.889954 0.893213 0.888688 0.891649 0.891033 0.890251 0.890501 0.890271 0.890422 0.890709 0.890569 0.891246 0.891863 0.889321 0.893342 0.890432 0.893682 0.891814 0.893805 0.893624 0.893832 0.893832 0.893832 0.893832 0.893832 0.893832 0.893832 0.893832 0.893832 0.893832 0.893832 0.893832 0.893832 0.893832 0.893832 0.893832 0.893832 0.893832 0.893832 0.893832 0.893832 0.893832 0.893832 0.893832 0.893832 0.893832 0.893832 0.893832 0.893832 0.893832 0.893832 0.893832 0.893832 0.893832 0.893832 0.893832 0.893832 0.893832 0.893832 0.893832 0.893832 0.893832 0.893832 0.893832 0.893832 0.893832 0.893832 0.893832 0.893832 0.893832 0.893832 0.893624 0.893805 0.891814 0.893682 0.890432 0.893342 0.889321 0.891863 0.891246 0.890569 0.890709 0.890422 0.890579 0.890895 0.890866 0.891437 0.892071 0.889901 0.893444 0.890882 0.893713 0.892233 0.893814 0.893691 0.893832 0.893832 0.893832 0.893832 0.893832 0.893832 0.893832 0.893832 0.893832 0.893832 0.893832 0.893832 0.893832 0.893832 0.893832 0.893832 0.893832 0.893832 0.893832 0.893832 0.893832 0.893832 0.893832 0.893832 0.893832 0.893832 0.893832 0.893832 0.893832 0.893832 0.893832 0.893832 0.893832 0.893832 0.893832 0.893832 0.893832 0.893832 0.893832 0.893832 0.893832 0.893832 0.893832 0.893832 0.893832 0.893832 0.893832 0.893832 0.893832 0.893832 0.893832 0.893691 0.893814 0.892233 0.893713 0.890882 0.893444 0.889901 0.892071 0.891437 0.890866 0.890895 0.890579 0.89074 0.891066 0.891142 0.891613 0.892269 0.890428 0.893526 0.891299 0.89374 0.89258 0.89382 0.893738 0.893832 0.893832 0.893832 0.893832 0.893832 0.893832 0.893832 0.893832 0.893832 0.893832 0.893832 0.893832 0.893832 0.893832 0.893832 0.893832 0.893832 0.893832 0.893832 0.893832 0.893832 0.893832 0.893832 0.893832 0.893832 0.893832 0.893832 0.893832 0.893832 0.893832 0.893832 0.893832 0.893832 0.893832 0.893832 0.893832 0.893832 0.893832 0.893832 0.893832 0.893832 0.893832 0.893832 0.893832 0.893832 0.893832 0.893832 0.893832 0.893832 0.893832 0.893832 0.893738 0.89382 0.89258 0.89374 0.891299 0.893526 0.890428 0.892269 0.891613 0.891142 0.891066 0.89074 0.890905 0.891225 0.891398 0.891777 0.892455 0.890902 0.893592 0.891677 0.893761 0.892862 0.893824 0.89377 0.893832 0.893832 0.893832 0.893832 0.893832 0.893832 0.893832 0.893832 0.893832 0.893832 0.893832 0.893832 0.893832 0.893832 0.893832 0.893832 0.893832 0.893832 0.893832 0.893832 0.893832 0.893832 0.893832 0.893832 0.893832 0.893832 0.893832 0.893832 0.893832 0.893832 0.893832 0.893832 0.893832 0.893832 0.893832 0.893832 0.893832 0.893832 0.893832 0.893832 0.893832 0.893832 0.893832 0.893832 0.893832 0.893832 0.893832 0.893832 0.893832 0.893832 0.893832 0.89377 0.893824 0.892862 0.893761 0.891677 0.893592 0.890902 0.892455 0.891777 0.891398 0.891225 0.890905 0.891071 0.891375 0.891634 0.891932 0.892626 0.891325 0.893644 0.892016 0.893779 0.893088 0.893827 0.893792 0.893832 0.893832 0.893832 0.893832 0.893832 0.893832 0.893832 0.893832 0.893832 0.893832 0.893832 0.893832 0.893832 0.893832 0.893832 0.893832 0.893832 0.893832 0.893832 0.893832 0.893832 0.893832 0.893832 0.893832 0.893832 0.893832 0.893832 0.893832 0.893832 0.893832 0.893832 0.893832 0.893832 0.893832 0.893832 0.893832 0.893832 0.893832 0.893832 0.893832 0.893832 0.893832 0.893832 0.893832 0.893832 0.893832 0.893832 0.893832 0.893832 0.893832 0.893832 0.893792 0.893827 0.893088 0.893779 0.892016 0.893644 0.891325 0.892626 0.891932 0.891634 0.891375 0.891071 0.891237 0.89152 0.89185 0.89208 0.892783 0.8917 0.893686 0.892315 0.893793 0.893268 0.893829 0.893806 0.893832 0.893832 0.893832 0.893832 0.893832 0.893832 0.893832 0.893832 0.893832 0.893832 0.893832 0.893832 0.893832 0.893832 0.893832 0.893832 0.893832 0.893832 0.893832 0.893832 0.893832 0.893832 0.893832 0.893832 0.893832 0.893832 0.893832 0.893832 0.893832 0.893832 0.893832 0.893832 0.893832 0.893832 0.893832 0.893832 0.893832 0.893832 0.893832 0.893832 0.893832 0.893832 0.893832 0.893832 0.893832 0.893832 0.893832 0.893832 0.893832 0.893832 0.893832 0.893806 0.893829 0.893268 0.893793 0.892315 0.893686 0.8917 0.892783 0.89208 0.89185 0.89152 0.891237 0.8914 0.89166 0.892047 0.892223 0.892925 0.892029 0.89372 0.892576 0.893804 0.893408 0.89383 0.893816 0.893832 0.893832 0.893832 0.893832 0.893832 0.893832 0.893832 0.893832 0.893832 0.893832 0.893832 0.893832 0.893832 0.893832 0.893832 0.893832 0.893832 0.893832 0.893832 0.893832 0.893832 0.893832 0.893832 0.893832 0.893832 0.893832 0.893832 0.893832 0.893832 0.893832 0.893832 0.893832 0.893832 0.893832 0.893832 0.893832 0.893832 0.893832 0.893832 0.893832 0.893832 0.893832 0.893832 0.893832 0.893832 0.893832 0.893832 0.893832 0.893832 0.893832 0.893832 0.893816 0.89383 0.893408 0.893804 0.892576 0.89372 0.892029 0.892925 0.892223 0.892047 0.89166 0.8914 0.89156 0.891795 0.892227 0.892359 0.893052 0.892316 0.893746 0.8928 0.893812 0.893517 0.893831 0.893822 0.893832 0.893832 0.893832 0.893832 0.893832 0.893832 0.893832 0.893832 0.893832 0.893832 0.893832 0.893832 0.893832 0.893832 0.893832 0.893832 0.893832 0.893832 0.893832 0.893832 0.893832 0.893832 0.893832 0.893832 0.893832 0.893832 0.893832 0.893832 0.893832 0.893832 0.893832 0.893832 0.893832 0.893832 0.893832 0.893832 0.893832 0.893832 0.893832 0.893832 0.893832 0.893832 0.893832 0.893832 0.893832 0.893832 0.893832 0.893832 0.893832 0.893832 0.893832 0.893822 0.893831 0.893517 0.893812 0.8928 0.893746 0.892316 0.893052 0.892359 0.892227 0.891795 0.89156 0.891714 0.891926 0.892389 0.89249 0.893165 0.892565 0.893767 0.892992 0.893818 0.8936 0.893831 0.893826 0.893832 0.893832 0.893832 0.893832 0.893832 0.893832 0.893832 0.893832 0.893832 0.893832 0.893832 0.893832 0.893832 0.893832 0.893832 0.893832 0.893832 0.893832 0.893832 0.893832 0.893832 0.893832 0.893832 0.893832 0.893832 0.893832 0.893832 0.893832 0.893832 0.893832 0.893832 0.893832 0.893832 0.893832 0.893832 0.893832 0.893832 0.893832 0.893832 0.893832 0.893832 0.893832 0.893832 0.893832 0.893832 0.893832 0.893832 0.893832 0.893832 0.893832 0.893832 0.893826 0.893831 0.8936 0.893818 0.892992 0.893767 0.892565 0.893165 0.89249 0.892389 0.891926 0.891714 0.891861 0.892053 0.892536 0.892615 0.893265 0.892779 0.893783 0.893153 0.893822 0.893663 0.893831 0.893828 0.893832 0.893832 0.893832 0.893832 0.893832 0.893832 0.893832 0.893832 0.893832 0.893832 0.893832 0.893832 0.893832 0.893832 0.893832 0.893832 0.893832 0.893832 0.893832 0.893832 0.893832 0.893832 0.893832 0.893832 0.893832 0.893832 0.893832 0.893832 0.893832 0.893832 0.893832 0.893832 0.893832 0.893832 0.893832 0.893832 0.893832 0.893832 0.893832 0.893832 0.893832 0.893832 0.893832 0.893832 0.893832 0.893832 0.893832 0.893832 0.893832 0.893832 0.893832 0.893828 0.893831 0.893663 0.893822 0.893153 0.893783 0.892779 0.893265 0.892615 0.892536 0.892053 0.891861 0.892001 0.892174 0.892668 0.892733 0.893352 0.892962 0.893796 0.893287 0.893825 0.893709 0.893832 0.89383 0.893832 0.893832 0.893832 0.893832 0.893832 0.893832 0.893832 0.893832 0.893832 0.893832 0.893832 0.893832 0.893832 0.893832 0.893832 0.893832 0.893832 0.893832 0.893832 0.893832 0.893832 0.893832 0.893832 0.893832 0.893832 0.893832 0.893832 0.893832 0.893832 0.893832 0.893832 0.893832 0.893832 0.893832 0.893832 0.893832 0.893832 0.893832 0.893832 0.893832 0.893832 0.893832 0.893832 0.893832 0.893832 0.893832 0.893832 0.893832 0.893832 0.893832 0.893832 0.89383 0.893832 0.893709 0.893825 0.893287 0.893796 0.892962 0.893352 0.892733 0.892668 0.892174 0.892001 0.892132 0.892289 0.892786 0.892844 0.893428 0.893117 0.893805 0.893398 0.893827 0.893744 0.893832 0.89383 0.893832 0.893832 0.893832 0.893832 0.893832 0.893832 0.893832 0.893832 0.893832 0.893832 0.893832 0.893832 0.893832 0.893832 0.893832 0.893832 0.893832 0.893832 0.893832 0.893832 0.893832 0.893832 0.893832 0.893832 0.893832 0.893832 0.893832 0.893832 0.893832 0.893832 0.893832 0.893832 0.893832 0.893832 0.893832 0.893832 0.893832 0.893832 0.893832 0.893832 0.893832 0.893832 0.893832 0.893832 0.893832 0.893832 0.893832 0.893832 0.893832 0.893832 0.893832 0.89383 0.893832 0.893744 0.893827 0.893398 0.893805 0.893117 0.893428 0.892844 0.892786 0.892289 0.892132 0.892254 0.892397 0.892891 0.892946 0.893493 0.893248 0.893812 0.893489 0.893829 0.893769 0.893832 0.893831 0.893832 0.893832 0.893832 0.893832 0.893832 0.893832 0.893832 0.893832 0.893832 0.893832 0.893832 0.893832 0.893832 0.893832 0.893832 0.893832 0.893832 0.893832 0.893832 0.893832 0.893832 0.893832 0.893832 0.893832 0.893832 0.893832 0.893832 0.893832 0.893832 0.893832 0.893832 0.893832 0.893832 0.893832 0.893832 0.893832 0.893832 0.893832 0.893832 0.893832 0.893832 0.893832 0.893832 0.893832 0.893832 0.893832 0.893832 0.893832 0.893832 0.893832 0.893832 0.893831 0.893832 0.893769 0.893829 0.893489 0.893812 0.893248 0.893493 0.892946 0.892891 0.892397 0.892254 0.892365 0.892497 0.892984 0.89304 0.893549 0.893357 0.893817 0.893562 0.89383 0.893788 0.893832 0.893831 0.893832 0.893832 0.893832 0.893832 0.893832 0.893832 0.893832 0.893832 0.893832 0.893832 0.893832 0.893832 0.893832 0.893832 0.893832 0.893832 0.893832 0.893832 0.893832 0.893832 0.893832 0.893832 0.893832 0.893832 0.893832 0.893832 0.893832 0.893832 0.893832 0.893832 0.893832 0.893832 0.893832 0.893832 0.893832 0.893832 0.893832 0.893832 0.893832 0.893832 0.893832 0.893832 0.893832 0.893832 0.893832 0.893832 0.893832 0.893832 0.893832 0.893832 0.893832 0.893831 0.893832 0.893788 0.89383 0.893562 0.893817 0.893357 0.893549 0.89304 0.892984 0.892497 0.892365 0.892466 0.892589 0.893065 0.893126 0.893597 0.893448 0.893821 0.893621 0.89383 0.893801 0.893832 0.893832 0.893832 0.893832 0.893832 0.893832 0.893832 0.893832 0.893832 0.893832 0.893832 0.893832 0.893832 0.893832 0.893832 0.893832 0.893832 0.893832 0.893832 0.893832 0.893832 0.893832 0.893832 0.893832 0.893832 0.893832 0.893832 0.893832 0.893832 0.893832 0.893832 0.893832 0.893832 0.893832 0.893832 0.893832 0.893832 0.893832 0.893832 0.893832 0.893832 0.893832 0.893832 0.893832 0.893832 0.893832 0.893832 0.893832 0.893832 0.893832 0.893832 0.893832 0.893832 0.893832 0.893832 0.893801 0.89383 0.893621 0.893821 0.893448 0.893597 0.893126 0.893065 0.892589 0.892466 0.892557 0.892673 0.893136 0.893202 0.893637 0.893522 0.893824 0.893668 0.893831 0.89381 0.893832 0.893832 0.893832 0.893832 0.893832 0.893832 0.893832 0.893832 0.893832 0.893832 0.893832 0.893832 0.893832 0.893832 0.893832 0.893832 0.893832 0.893832 0.893832 0.893832 0.893832 0.893832 0.893832 0.893832 0.893832 0.893832 0.893832 0.893832 0.893832 0.893832 0.893832 0.893832 0.893832 0.893832 0.893832 0.893832 0.893832 0.893832 0.893832 0.893832 0.893832 0.893832 0.893832 0.893832 0.893832 0.893832 0.893832 0.893832 0.893832 0.893832 0.893832 0.893832 0.893832 0.893832 0.893832 0.89381 0.893831 0.893668 0.893824 0.893522 0.893637 0.893202 0.893136 0.892673 0.892557 0.892636 0.892746 0.893197 0.893268 0.89367 0.893582 0.893826 0.893705 0.893831 0.893817 0.893832 0.893832 0.893832 0.893832 0.893832 0.893832 0.893832 0.893832 0.893832 0.893832 0.893832 0.893832 0.893832 0.893832 0.893832 0.893832 0.893832 0.893832 0.893832 0.893832 0.893832 0.893832 0.893832 0.893832 0.893832 0.893832 0.893832 0.893832 0.893832 0.893832 0.893832 0.893832 0.893832 0.893832 0.893832 0.893832 0.893832 0.893832 0.893832 0.893832 0.893832 0.893832 0.893832 0.893832 0.893832 0.893832 0.893832 0.893832 0.893832 0.893832 0.893832 0.893832 0.893832 0.893832 0.893832 0.893817 0.893831 0.893705 0.893826 0.893582 0.89367 0.893268 0.893197 0.892746 0.892636 0.892705 0.89281 0.893248 0.893325 0.893697 0.89363 0.893828 0.893733 0.893831 0.893821 0.893832 0.893832 0.893832 0.893832 0.893832 0.893832 0.893832 0.893832 0.893832 0.893832 0.893832 0.893832 0.893832 0.893832 0.893832 0.893832 0.893832 0.893832 0.893832 0.893832 0.893832 0.893832 0.893832 0.893832 0.893832 0.893832 0.893832 0.893832 0.893832 0.893832 0.893832 0.893832 0.893832 0.893832 0.893832 0.893832 0.893832 0.893832 0.893832 0.893832 0.893832 0.893832 0.893832 0.893832 0.893832 0.893832 0.893832 0.893832 0.893832 0.893832 0.893832 0.893832 0.893832 0.893832 0.893832 0.893821 0.893831 0.893733 0.893828 0.89363 0.893697 0.893325 0.893248 0.89281 0.892705 0.892762 0.892864 0.89329 0.893373 0.893719 0.893667 0.893829 0.893755 0.893831 0.893825 0.893832 0.893832 0.893832 0.893832 0.893832 0.893832 0.893832 0.893832 0.893832 0.893832 0.893832 0.893832 0.893832 0.893832 0.893832 0.893832 0.893832 0.893832 0.893832 0.893832 0.893832 0.893832 0.893832 0.893832 0.893832 0.893832 0.893832 0.893832 0.893832 0.893832 0.893832 0.893832 0.893832 0.893832 0.893832 0.893832 0.893832 0.893832 0.893832 0.893832 0.893832 0.893832 0.893832 0.893832 0.893832 0.893832 0.893832 0.893832 0.893832 0.893832 0.893832 0.893832 0.893832 0.893832 0.893832 0.893825 0.893831 0.893755 0.893829 0.893667 0.893719 0.893373 0.89329 0.892864 0.892762 0.892808 0.892907 0.893324 0.893411 0.893736 0.893696 0.893829 0.893771 0.893831 0.893827 0.893832 0.893832 0.893832 0.893832 0.893832 0.893832 0.893832 0.893832 0.893832 0.893832 0.893832 0.893832 0.893832 0.893832 0.893832 0.893832 0.893832 0.893832 0.893832 0.893832 0.893832 0.893832 0.893832 0.893832 0.893832 0.893832 0.893832 0.893832 0.893832 0.893832 0.893832 0.893832 0.893832 0.893832 0.893832 0.893832 0.893832 0.893832 0.893832 0.893832 0.893832 0.893832 0.893832 0.893832 0.893832 0.893832 0.893832 0.893832 0.893832 0.893832 0.893832 0.893832 0.893832 0.893832 0.893832 0.893827 0.893831 0.893771 0.893829 0.893696 0.893736 0.893411 0.893324 0.892907 0.892808 0.892842 0.89294 0.893349 0.893439 0.893748 0.893716 0.89383 0.893782 0.893831 0.893828 0.893832 0.893832 0.893832 0.893832 0.893832 0.893832 0.893832 0.893832 0.893832 0.893832 0.893832 0.893832 0.893832 0.893832 0.893832 0.893832 0.893832 0.893832 0.893832 0.893832 0.893832 0.893832 0.893832 0.893832 0.893832 0.893832 0.893832 0.893832 0.893832 0.893832 0.893832 0.893832 0.893832 0.893832 0.893832 0.893832 0.893832 0.893832 0.893832 0.893832 0.893832 0.893832 0.893832 0.893832 0.893832 0.893832 0.893832 0.893832 0.893832 0.893832 0.893832 0.893832 0.893832 0.893832 0.893832 0.893828 0.893831 0.893782 0.89383 0.893716 0.893748 0.893439 0.893349 0.89294 0.892842 0.892865 0.892962 0.893365 0.893458 0.893756 0.893729 0.89383 0.893789 0.893831 0.893829 0.893832 0.893832 0.893832 0.893832 0.893832 0.893832 0.893832 0.893832 0.893832 0.893832 0.893832 0.893832 0.893832 0.893832 0.893832 0.893832 0.893832 0.893832 0.893832 0.893832 0.893832 0.893832 0.893832 0.893832 0.893832 0.893832 0.893832 0.893832 0.893832 0.893832 0.893832 0.893832 0.893832 0.893832 0.893832 0.893832 0.893832 0.893832 0.893832 0.893832 0.893832 0.893832 0.893832 0.893832 0.893832 0.893832 0.893832 0.893832 0.893832 0.893832 0.893832 0.893832 0.893832 0.893832 0.893832 0.893829 0.893831 0.893789 0.89383 0.893729 0.893756 0.893458 0.893365 0.892962 0.892865 0.892876 0.892973 0.893373 0.893468 0.893759 0.893736 0.89383 0.893792 0.893831 0.893829 0.893832 0.893832 0.893832 0.893832 0.893832 0.893832 0.893832 0.893832 0.893832 0.893832 0.893832 0.893832 0.893832 0.893832 0.893832 0.893832 0.893832 0.893832 0.893832 0.893832 0.893832 0.893832 0.893832 0.893832 0.893832 0.893832 0.893832 0.893832 0.893832 0.893832 0.893832 0.893832 0.893832 0.893832 0.893832 0.893832 0.893832 0.893832 0.893832 0.893832 0.893832 0.893832 0.893832 0.893832 0.893832 0.893832 0.893832 0.893832 0.893832 0.893832 0.893832 0.893832 0.893832 0.893832 0.893832 0.893829 0.893831 0.893792 0.89383 0.893736 0.893759 0.893468 0.893373 0.892973 0.892876 
SCALARS Axial_Stress float 1
LOOKUP_TABLE default
-730665000000.0 -72192500000.0 -72192500000.0 -730665000000.0 -801421000000.0 -737106000000.0 -80687700000.0 -67387900000.0 -222358000000.0 -222638000000.0 -162521000000.0 -160530000000.0 -146316000000.0 -145290000000.0 -151565000000.0 -159248000000.0 -165770000000.0 -170565000000.0 -173563000000.0 -174935000000.0 -174970000000.0 -173960000000.0 -172231000000.0 -170120000000.0 -167894000000.0 -165742000000.0 -163797000000.0 -162142000000.0 -160811000000.0 -159798000000.0 -159090000000.0 -158673000000.0 -158535000000.0 -158673000000.0 -159090000000.0 -159798000000.0 -160811000000.0 -162142000000.0 -163797000000.0 -165742000000.0 -167894000000.0 -170120000000.0 -172231000000.0 -173960000000.0 -174970000000.0 -174935000000.0 -173563000000.0 -170565000000.0 -165770000000.0 -159248000000.0 -151565000000.0 -145290000000.0 -146316000000.0 -160530000000.0 -162521000000.0 -222638000000.0 -222358000000.0 -67387900000.0 -80687700000.0 -737106000000.0 -801421000000.0 -878652000000.0 -1.20749e+12 -710385000000.0 -330344000000.0 -217004000000.0 -278044000000.0 -154307000000.0 -160542000000.0 -147272000000.0 -154993000000.0 -164849000000.0 -173219000000.0 -179150000000.0 -183232000000.0 -186177000000.0 -188067000000.0 -188754000000.0 -188359000000.0 -187266000000.0 -185852000000.0 -184367000000.0 -182992000000.0 -181863000000.0 -181027000000.0 -180442000000.0 -180053000000.0 -179819000000.0 -179707000000.0 -179674000000.0 -179707000000.0 -179819000000.0 -180053000000.0 -180442000000.0 -181027000000.0 -181863000000.0 -182992000000.0 -184367000000.0 -185852000000.0 -187266000000.0 -188359000000.0 -188754000000.0 -188067000000.0 -186177000000.0 -183232000000.0 -179150000000.0 -173219000000.0 -164849000000.0 -154993000000.0 -147272000000.0 -160542000000.0 -154307000000.0 -278044000000.0 -217004000000.0 -330344000000.0 -710385000000.0 -1.20749e+12 -878652000000.0 -976377000000.0 -941623000000.0 -1.61276e+12 -1.43599e+12 -838669000000.0 -857601000000.0 -857601000000.0 -838669000000.0 -1.43599e+12 -1.61276e+12 -941623000000.0 -976377000000.0 -981968000000.0 -1.72606e+12 -1.3943e+12 -1.1898e+12 -918153000000.0 -640138000000.0 -406865000000.0 -397338000000.0 -248259000000.0 -268743000000.0 -250551000000.0 -243656000000.0 -234612000000.0 -226172000000.0 -220733000000.0 -217461000000.0 -213210000000.0 -207796000000.0 -203587000000.0 -201866000000.0 -202024000000.0 -202890000000.0 -203681000000.0 -204104000000.0 -204156000000.0 -203940000000.0 -203572000000.0 -203160000000.0 -202801000000.0 -202566000000.0 -202486000000.0 -202566000000.0 -202801000000.0 -203160000000.0 -203572000000.0 -203940000000.0 -204156000000.0 -204104000000.0 -203681000000.0 -202890000000.0 -202024000000.0 -201866000000.0 -203587000000.0 -207796000000.0 -213210000000.0 -217461000000.0 -220733000000.0 -226172000000.0 -234612000000.0 -243656000000.0 -250551000000.0 -268743000000.0 -248259000000.0 -397338000000.0 -406865000000.0 -640138000000.0 -918153000000.0 -1.1898e+12 -1.3943e+12 -1.72606e+12 -981968000000.0 -966780000000.0 -1.76986e+12 -1.54903e+12 -1.2208e+12 -1.00169e+12 -792000000000.0 -601027000000.0 -432836000000.0 -366528000000.0 -288633000000.0 -280532000000.0 -280233000000.0 -277808000000.0 -274711000000.0 -270973000000.0 -266378000000.0 -260799000000.0 -254420000000.0 -247563000000.0 -240521000000.0 -233527000000.0 -226779000000.0 -220441000000.0 -214629000000.0 -209445000000.0 -204973000000.0 -201257000000.0 -198328000000.0 -196218000000.0 -194948000000.0 -194525000000.0 -194948000000.0 -196218000000.0 -198328000000.0 -201257000000.0 -204973000000.0 -209445000000.0 -214629000000.0 -220441000000.0 -226779000000.0 -233527000000.0 -240521000000.0 -247563000000.0 -254420000000.0 -260799000000.0 -266378000000.0 -270973000000.0 -274711000000.0 -277808000000.0 -280233000000.0 -280532000000.0 -288633000000.0 -366528000000.0 -432836000000.0 -601027000000.0 -792000000000.0 -1.00169e+12 -1.2208e+12 -1.54903e+12 -1.76986e+12 -966780000000.0 -910719000000.0 -1.71703e+12 -1.6915e+12 -1.6476e+12 -1.36519e+12 -1.0238e+12 -746605000000.0 -489329000000.0 -275307000000.0 -275307000000.0 -489329000000.0 -746605000000.0 -1.0238e+12 -1.36519e+12 -1.6476e+12 -1.6915e+12 -1.71703e+12 -910719000000.0 -709211000000.0 -805735000000.0 -1.58968e+12 -1.60345e+12 -1.60278e+12 -1.51733e+12 -1.33359e+12 -1.23177e+12 -1.02421e+12 -425631000000.0 -548261000000.0 -308123000000.0 -269509000000.0 -261322000000.0 -258175000000.0 -260644000000.0 -261097000000.0 -258939000000.0 -254984000000.0 -250169000000.0 -244848000000.0 -239083000000.0 -232921000000.0 -226491000000.0 -219967000000.0 -213544000000.0 -207397000000.0 -201663000000.0 -196469000000.0 -191931000000.0 -188128000000.0 -185116000000.0 -182944000000.0 -181636000000.0 -181200000000.0 -181636000000.0 -182944000000.0 -185116000000.0 -188128000000.0 -191931000000.0 -196469000000.0 -201663000000.0 -207397000000.0 -213544000000.0 -219967000000.0 -226491000000.0 -232921000000.0 -239083000000.0 -244848000000.0 -250169000000.0 -254984000000.0 -258939000000.0 -261097000000.0 -260644000000.0 -258175000000.0 -261322000000.0 -269509000000.0 -308123000000.0 -548261000000.0 -425631000000.0 -1.02421e+12 -1.23177e+12 -1.33359e+12 -1.51733e+12 -1.60278e+12 -1.60345e+12 -1.58968e+12 -805735000000.0 -709211000000.0 -594786000000.0 -1.28252e+12 -1.34566e+12 -1.07919e+12 -1.70973e+12 -1.4584e+12 -1.3936e+12 -1.08081e+12 -599636000000.0 -562109000000.0 -457259000000.0 -457259000000.0 -562109000000.0 -599636000000.0 -1.08081e+12 -1.3936e+12 -1.4584e+12 -1.70973e+12 -1.07919e+12 -1.34566e+12 -1.28252e+12 -594786000000.0 -445969000000.0 -1.14697e+12 -1.14118e+12 -588536000000.0 -1.59144e+12 -977713000000.0 -831853000000.0 -604421000000.0 -623279000000.0 -293594000000.0 -287048000000.0 -255322000000.0 -258792000000.0 -259979000000.0 -258929000000.0 -254784000000.0 -248508000000.0 -240983000000.0 -232708000000.0 -223967000000.0 -214960000000.0 -205880000000.0 -196936000000.0 -188309000000.0 -180136000000.0 -172556000000.0 -165716000000.0 -159744000000.0 -154736000000.0 -150769000000.0 -147892000000.0 -146139000000.0 -145549000000.0 -146139000000.0 -147892000000.0 -150769000000.0 -154736000000.0 -159744000000.0 -165716000000.0 -172556000000.0 -180136000000.0 -188309000000.0 -196936000000.0 -205880000000.0 -214960000000.0 -223967000000.0 -232708000000.0 -240983000000.0 -248508000000.0 -254784000000.0 -258929000000.0 -259979000000.0 -258792000000.0 -255322000000.0 -287048000000.0 -293594000000.0 -623279000000.0 -604421000000.0 -831853000000.0 -977713000000.0 -1.59144e+12 -588536000000.0 -1.14118e+12 -1.14697e+12 -445969000000.0 -421849000000.0 -466576000000.0 -909266000000.0 -959419000000.0 -1.12714e+12 -1.08611e+12 -534048000000.0 -1.52496e+12 -540254000000.0 -546855000000.0 -385743000000.0 -668005000000.0 -284601000000.0 -310225000000.0 -260279000000.0 -265005000000.0 -257942000000.0 -251859000000.0 -243829000000.0 -234736000000.0 -225353000000.0 -216002000000.0 -206743000000.0 -197654000000.0 -188878000000.0 -180553000000.0 -172767000000.0 -165578000000.0 -159042000000.0 -153216000000.0 -148168000000.0 -143963000000.0 -140643000000.0 -138241000000.0 -136788000000.0 -136302000000.0 -136788000000.0 -138241000000.0 -140643000000.0 -143963000000.0 -148168000000.0 -153216000000.0 -159042000000.0 -165578000000.0 -172767000000.0 -180553000000.0 -188878000000.0 -197654000000.0 -206743000000.0 -216002000000.0 -225353000000.0 -234736000000.0 -243829000000.0 -251859000000.0 -257942000000.0 -265005000000.0 -260279000000.0 -310225000000.0 -284601000000.0 -668005000000.0 -385743000000.0 -546855000000.0 -540254000000.0 -1.52496e+12 -534048000000.0 -1.08611e+12 -1.12714e+12 -959419000000.0 -909266000000.0 -466576000000.0 -421849000000.0 -317632000000.0 -737471000000.0 -1.00932e+12 -1.01078e+12 -1.35018e+12 -701173000000.0 -330877000000.0 -1.10263e+12 -656608000000.0 -604419000000.0 -604419000000.0 -656608000000.0 -1.10263e+12 -330877000000.0 -701173000000.0 -1.35018e+12 -1.01078e+12 -1.00932e+12 -737471000000.0 -317632000000.0 -269807000000.0 -37757000000.0 -208666000000.0 -957908000000.0 -413159000000.0 -413648000000.0 -276869000000.0 -298664000000.0 -824787000000.0 -537637000000.0 -532483000000.0 -591558000000.0 -551186000000.0 -859967000000.0 -387553000000.0 -407906000000.0 -315692000000.0 -294454000000.0 -262887000000.0 -235791000000.0 -209482000000.0 -185338000000.0 -162546000000.0 -142287000000.0 -124418000000.0 -108653000000.0 -94888900000.0 -82972800000.0 -72707800000.0 -63921200000.0 -56484700000.0 -50289500000.0 -45228900000.0 -41205200000.0 -38145700000.0 -36000600000.0 -34731600000.0 -34311900000.0 -34731600000.0 -36000600000.0 -38145700000.0 -41205200000.0 -45228900000.0 -50289500000.0 -56484700000.0 -63921200000.0 -72707800000.0 -82972800000.0 -94888900000.0 -108653000000.0 -124418000000.0 -142287000000.0 -162546000000.0 -185338000000.0 -209482000000.0 -235791000000.0 -262887000000.0 -294454000000.0 -315692000000.0 -407906000000.0 -387553000000.0 -859967000000.0 -551186000000.0 -591558000000.0 -532483000000.0 -537637000000.0 -824787000000.0 -298664000000.0 -276869000000.0 -413648000000.0 -413159000000.0 -957908000000.0 -208666000000.0 -37757000000.0 -269807000000.0 -73952200000.0 -216850000000.0 -1.41796e+12 -1.06532e+12 -546464000000.0 -96737500000.0 -11477100000.0 -412394000000.0 -32243600000.0 -117727000000.0 -67758200000.0 -85078200000.0 -95674300000.0 -103141000000.0 -107052000000.0 -109329000000.0 -109569000000.0 -108857000000.0 -107459000000.0 -105350000000.0 -102754000000.0 -99886300000.0 -96900200000.0 -93915200000.0 -91033600000.0 -88339300000.0 -85907900000.0 -83816300000.0 -82133500000.0 -80907700000.0 -80164900000.0 -79916500000.0 -80164900000.0 -80907700000.0 -82133500000.0 -83816300000.0 -85907900000.0 -88339300000.0 -91033600000.0 -93915200000.0 -96900200000.0 -99886300000.0 -102754000000.0 -105350000000.0 -107459000000.0 -108857000000.0 -109569000000.0 -109329000000.0 -107052000000.0 -103141000000.0 -95674300000.0 -85078200000.0 -67758200000.0 -117727000000.0 -32243600000.0 -412394000000.0 -11477100000.0 -96737500000.0 -546464000000.0 -1.06532e+12 -1.41796e+12 -216850000000.0 -73952200000.0 -91658300000.0 -190525000000.0 -344938000000.0 -939393000000.0 -1.24478e+12 -105846000000.0 -106716000000.0 -241846000000.0 -221180000000.0 -349017000000.0 -349017000000.0 -221180000000.0 -241846000000.0 -106716000000.0 -105846000000.0 -1.24478e+12 -939393000000.0 -344938000000.0 -190525000000.0 -91658300000.0 -111644000000.0 -120095000000.0 -273252000000.0 -62123300000.0 -672008000000.0 -910700000000.0 -463620000000.0 -484524000000.0 -502851000000.0 -43436800000.0 -50356300000.0 -216346000000.0 -160791000000.0 -346307000000.0 -11857000000.0 -50655600000.0 -9035750000.0 -9035750000.0 -9035750000.0 -9035750000.0 -9035750000.0 -9035750000.0 -9035750000.0 -9035750000.0 -9035750000.0 -9035750000.0 -9035750000.0 -9035750000.0 -9035750000.0 -9035750000.0 -9035750000.0 -9035750000.0 -9035750000.0 -9035750000.0 -9035750000.0 -9035750000.0 -9035750000.0 -9035790000.0 -9035750000.0 -9035750000.0 -9035750000.0 -9035750000.0 -9035750000.0 -9035750000.0 -9035750000.0 -9035750000.0 -9035750000.0 -9035750000.0 -9035750000.0 -9035750000.0 -9035750000.0 -9035750000.0 -9035750000.0 -9035750000.0 -9035750000.0 -9035750000.0 -9035750000.0 -9035750000.0 -9035750000.0 -50655600000.0 -11857000000.0 -346307000000.0 -160791000000.0 -216346000000.0 -50356300000.0 -43436800000.0 -502851000000.0 -484524000000.0 -463620000000.0 -910700000000.0 -672008000000.0 -62123300000.0 -273252000000.0 -120095000000.0 -111644000000.0 -23033100000.0 -416262000000.0 -305385000000.0 -237849000000.0 -210750000000.0 -428770000000.0 -262215000000.0 -256949000000.0 -233449000000.0 -217548000000.0 -202930000000.0 -189410000000.0 -176186000000.0 -163022000000.0 -150110000000.0 -137716000000.0 -126026000000.0 -115118000000.0 -105023000000.0 -95772000000.0 -87390600000.0 -79900600000.0 -73315200000.0 -67633200000.0 -62845600000.0 -58946100000.0 -55930300000.0 -53790400000.0 -52514000000.0 -52090000000.0 -52514000000.0 -53790400000.0 -55930300000.0 -58946100000.0 -62845600000.0 -67633200000.0 -73315200000.0 -79900600000.0 -87390600000.0 -95772000000.0 -105023000000.0 -115118000000.0 -126026000000.0 -137716000000.0 -150110000000.0 -163022000000.0 -176186000000.0 -189410000000.0 -202930000000.0 -217548000000.0 -233449000000.0 -256949000000.0 -262215000000.0 -428770000000.0 -210750000000.0 -237849000000.0 -305385000000.0 -416262000000.0 -23033100000.0 -124254000000.0 -169229000000.0 -8410950000.0 -412868000000.0 -192527000000.0 -602888000000.0 -151181000000.0 -287912000000.0 -287912000000.0 -151181000000.0 -602888000000.0 -192527000000.0 -412868000000.0 -8410950000.0 -169229000000.0 -124254000000.0 -77945500000.0 -101993000000.0 -92796000000.0 -301678000000.0 -96732100000.0 -131043000000.0 -536994000000.0 -287149000000.0 -241697000000.0 -65134200000.0 -38025300000.0 -73353600000.0 -24345100000.0 -184324000000.0 -9873740000.0 -9035750000.0 -9035750000.0 -9035750000.0 -9035750000.0 -9035750000.0 -9035750000.0 -9035750000.0 -9035750000.0 -9035750000.0 -9035750000.0 -9035750000.0 -9035750000.0 -9035750000.0 -9035750000.0 -9035750000.0 -9035750000.0 -9035750000.0 -9035750000.0 -9035750000.0 -9035750000.0 -9035750000.0 -9035750000.0 -9035750000.0 -9035750000.0 -9035750000.0 -9035750000.0 -9035750000.0 -9035750000.0 -9035750000.0 -9035750000.0 -9035750000.0 -9035750000.0 -9035750000.0 -9035750000.0 -9035750000.0 -9035750000.0 -9035750000.0 -9035750000.0 -9035750000.0 -9035750000.0 -9035750000.0 -9035750000.0 -9035750000.0 -9035750000.0 -9035750000.0 -9873740000.0 -184324000000.0 -24345100000.0 -73353600000.0 -38025300000.0 -65134200000.0 -241697000000.0 -287149000000.0 -536994000000.0 -131043000000.0 -96732100000.0 -301678000000.0 -92796000000.0 -101993000000.0 -77945500000.0 -116737000000.0 -55652600000.0 -139201000000.0 -40620600000.0 -38671300000.0 -384348000000.0 -237957000000.0 -216031000000.0 -208854000000.0 -161152000000.0 -213954000000.0 -136616000000.0 -255140000000.0 -124729000000.0 -110233000000.0 -98081100000.0 -86946800000.0 -76755200000.0 -67651600000.0 -59623600000.0 -52527400000.0 -46245500000.0 -40704100000.0 -35851400000.0 -31643800000.0 -28033300000.0 -24967200000.0 -22394200000.0 -20259600000.0 -18504900000.0 -17076400000.0 -15932700000.0 -15042200000.0 -14379000000.0 -13921800000.0 -13654100000.0 -13566000000.0 -13654100000.0 -13921800000.0 -14379000000.0 -15042200000.0 -15932700000.0 -17076400000.0 -18504900000.0 -20259600000.0 -22394200000.0 -24967200000.0 -28033300000.0 -31643800000.0 -35851400000.0 -40704100000.0 -46245500000.0 -52527400000.0 -59623600000.0 -67651600000.0 -76755200000.0 -86946800000.0 -98081100000.0 -110233000000.0 -124729000000.0 -255140000000.0 -136616000000.0 -213954000000.0 -161152000000.0 -208854000000.0 -216031000000.0 -237957000000.0 -384348000000.0 -38671300000.0 -40620600000.0 -139201000000.0 -55652600000.0 -116737000000.0 -67079800000.0 -67079800000.0 -85975700000.0 -52130000000.0 -105274000000.0 -55234100000.0 -78352000000.0 -118639000000.0 -274816000000.0 -92321100000.0 -20671200000.0 -71969400000.0 -11779000000.0 -96270900000.0 -11053400000.0 -113179000000.0 -9075380000.0 -9035750000.0 -9035750000.0 -9035750000.0 -9035750000.0 -9035750000.0 -9035750000.0 -9035750000.0 -9035750000.0 -9035750000.0 -9035750000.0 -9035750000.0 -9035750000.0 -9035750000.0 -9035760000.0 -9035760000.0 -9035750000.0 -9035750000.0 -9035750000.0 -9035750000.0 -9035750000.0 -9035750000.0 -9035750000.0 -9035750000.0 -9035750000.0 -9035750000.0 -9035750000.0 -9035750000.0 -9035750000.0 -9035750000.0 -9035750000.0 -9035760000.0 -9035760000.0 -9035750000.0 -9035750000.0 -9035750000.0 -9035750000.0 -9035750000.0 -9035750000.0 -9035750000.0 -9035750000.0 -9035750000.0 -9035750000.0 -9035750000.0 -9035750000.0 -9035750000.0 -9075380000.0 -113179000000.0 -11053400000.0 -96270900000.0 -11779000000.0 -71969400000.0 -20671200000.0 -92321100000.0 -274816000000.0 -118639000000.0 -78352000000.0 -55234100000.0 -105274000000.0 -52130000000.0 -85975700000.0 -70565000000.0 -33580100000.0 -42022600000.0 -213069000000.0 -117522000000.0 -33318100000.0 -96415200000.0 -27417900000.0 -111611000000.0 -22633900000.0 -99758100000.0 -18459700000.0 -16640600000.0 -15141900000.0 -13895900000.0 -12866000000.0 -12016500000.0 -11327400000.0 -10772600000.0 -10328700000.0 -9983490000.0 -9721620000.0 -9521980000.0 -9370040000.0 -9259940000.0 -9185750000.0 -9138120000.0 -9107760000.0 -9087660000.0 -9073330000.0 -9062650000.0 -9055020000.0 -9050110000.0 -9047440000.0 -9046610000.0 -9047440000.0 -9050110000.0 -9055020000.0 -9062650000.0 -9073330000.0 -9087660000.0 -9107760000.0 -9138120000.0 -9185750000.0 -9259940000.0 -9370040000.0 -9521980000.0 -9721620000.0 -9983490000.0 -10328700000.0 -10772600000.0 -11327400000.0 -12016500000.0 -12866000000.0 -13895900000.0 -15141900000.0 -16640600000.0 -18459700000.0 -99758100000.0 -22633900000.0 -111611000000.0 -27417900000.0 -96415200000.0 -33318100000.0 -117522000000.0 -213069000000.0 -42022600000.0 -33580100000.0 -70565000000.0 -77780900000.0 -42579700000.0 -78139800000.0 -78139800000.0 -42579700000.0 -77780900000.0 -73778700000.0 -45959300000.0 -62738000000.0 -39133900000.0 -52997700000.0 -91410000000.0 -169598000000.0 -92587300000.0 -9592920000.0 -81897500000.0 -9546160000.0 -95014800000.0 -9064260000.0 -70466400000.0 -9035870000.0 -9035930000.0 -9035940000.0 -9035980000.0 -9035970000.0 -9035930000.0 -9035890000.0 -9035860000.0 -9035830000.0 -9035810000.0 -9035790000.0 -9035780000.0 -9035780000.0 -9035770000.0 -9035770000.0 -9035770000.0 -9035760000.0 -9035760000.0 -9035760000.0 -9035760000.0 -9035760000.0 -9035750000.0 -9035750000.0 -9035750000.0 -9035750000.0 -9035750000.0 -9035760000.0 -9035760000.0 -9035760000.0 -9035760000.0 -9035760000.0 -9035770000.0 -9035770000.0 -9035770000.0 -9035780000.0 -9035780000.0 -9035790000.0 -9035810000.0 -9035830000.0 -9035860000.0 -9035890000.0 -9035930000.0 -9035970000.0 -9035980000.0 -9035940000.0 -9035930000.0 -9035870000.0 -70466400000.0 -9064260000.0 -95014800000.0 -9546160000.0 -81897500000.0 -9592920000.0 -92587300000.0 -169598000000.0 -91410000000.0 -52997700000.0 -39133900000.0 -62738000000.0 -45959300000.0 -73778700000.0 -141685000000.0 -10209700000.0 -9449960000.0 -89952600000.0 -9036060000.0 -55862100000.0 -9036090000.0 -9036220000.0 -9036150000.0 -9036090000.0 -9036030000.0 -9035960000.0 -9035910000.0 -9035870000.0 -9035840000.0 -9035820000.0 -9035800000.0 -9035790000.0 -9035790000.0 -9035780000.0 -9035780000.0 -9035770000.0 -9035770000.0 -9035760000.0 -9035760000.0 -9035760000.0 -9035760000.0 -9035750000.0 -9035750000.0 -9035750000.0 -9035750000.0 -9035750000.0 -9035760000.0 -9035760000.0 -9035760000.0 -9035760000.0 -9035770000.0 -9035770000.0 -9035780000.0 -9035780000.0 -9035790000.0 -9035790000.0 -9035800000.0 -9035820000.0 -9035840000.0 -9035870000.0 -9035910000.0 -9035960000.0 -9036030000.0 -9036090000.0 -9036150000.0 -9036220000.0 -9036090000.0 -55862100000.0 -9036060000.0 -89952600000.0 -9449960000.0 -10209700000.0 -141685000000.0 -72313400000.0 -52047000000.0 -59505400000.0 -43224000000.0 -52393400000.0 -91918500000.0 -91319500000.0 -84487000000.0 -84487000000.0 -91319500000.0 -91918500000.0 -52393400000.0 -43224000000.0 -59505400000.0 -52047000000.0 -72313400000.0 -71046400000.0 -57443500000.0 -58507400000.0 -48846800000.0 -53987700000.0 -95250100000.0 -119264000000.0 -86309100000.0 -10114800000.0 -85775000000.0 -9696910000.0 -83615700000.0 -9036560000.0 -44339100000.0 -9036290000.0 -9036430000.0 -9036270000.0 -9036160000.0 -9036070000.0 -9035990000.0 -9035930000.0 -9035890000.0 -9035860000.0 -9035830000.0 -9035820000.0 -9035810000.0 -9035800000.0 -9035790000.0 -9035780000.0 -9035780000.0 -9035770000.0 -9035770000.0 -9035760000.0 -9035760000.0 -9035760000.0 -9035750000.0 -9035750000.0 -9035750000.0 -9035750000.0 -9035750000.0 -9035760000.0 -9035760000.0 -9035760000.0 -9035770000.0 -9035770000.0 -9035780000.0 -9035780000.0 -9035790000.0 -9035800000.0 -9035810000.0 -9035820000.0 -9035830000.0 -9035860000.0 -9035890000.0 -9035930000.0 -9035990000.0 -9036070000.0 -9036160000.0 -9036270000.0 -9036430000.0 -9036290000.0 -44339100000.0 -9036560000.0 -83615700000.0 -9696910000.0 -85775000000.0 -10114800000.0 -86309100000.0 -119264000000.0 -95250100000.0 -53987700000.0 -48846800000.0 -58507400000.0 -57443500000.0 -71046400000.0 -69751500000.0 -61486100000.0 -57913400000.0 -52592600000.0 -52800800000.0 -96839100000.0 -102086000000.0 -82126100000.0 -10510800000.0 -85574000000.0 -9909060000.0 -76319000000.0 -9036990000.0 -35263300000.0 -9036490000.0 -9036560000.0 -9036360000.0 -9036220000.0 -9036100000.0 -9036020000.0 -9035950000.0 -9035910000.0 -9035880000.0 -9035850000.0 -9035830000.0 -9035820000.0 -9035810000.0 -9035800000.0 -9035790000.0 -9035780000.0 -9035770000.0 -9035770000.0 -9035760000.0 -9035760000.0 -9035760000.0 -9035750000.0 -9035750000.0 -9035750000.0 -9035750000.0 -9035750000.0 -9035760000.0 -9035760000.0 -9035760000.0 -9035770000.0 -9035770000.0 -9035780000.0 -9035790000.0 -9035800000.0 -9035810000.0 -9035820000.0 -9035830000.0 -9035850000.0 -9035880000.0 -9035910000.0 -9035950000.0 -9036020000.0 -9036100000.0 -9036220000.0 -9036360000.0 -9036560000.0 -9036490000.0 -35263300000.0 -9036990000.0 -76319000000.0 -9909060000.0 -85574000000.0 -10510800000.0 -82126100000.0 -102086000000.0 -96839100000.0 -52800800000.0 -52592600000.0 -57913400000.0 -61486100000.0 -69751500000.0 -68136300000.0 -64159600000.0 -57997100000.0 -55393400000.0 -50917200000.0 -97038400000.0 -87602900000.0 -77815600000.0 -10853000000.0 -84019700000.0 -10079300000.0 -68599200000.0 -9037370000.0 -28192900000.0 -9036680000.0 -9036660000.0 -9036430000.0 -9036260000.0 -9036140000.0 -9036040000.0 -9035980000.0 -9035930000.0 -9035890000.0 -9035870000.0 -9035850000.0 -9035830000.0 -9035810000.0 -9035800000.0 -9035790000.0 -9035780000.0 -9035780000.0 -9035770000.0 -9035770000.0 -9035760000.0 -9035760000.0 -9035760000.0 -9035750000.0 -9035750000.0 -9035750000.0 -9035760000.0 -9035760000.0 -9035760000.0 -9035770000.0 -9035770000.0 -9035780000.0 -9035780000.0 -9035790000.0 -9035800000.0 -9035810000.0 -9035830000.0 -9035850000.0 -9035870000.0 -9035890000.0 -9035930000.0 -9035980000.0 -9036040000.0 -9036140000.0 -9036260000.0 -9036430000.0 -9036660000.0 -9036680000.0 -28192900000.0 -9037370000.0 -68599200000.0 -10079300000.0 -84019700000.0 -10853000000.0 -77815600000.0 -87602900000.0 -97038400000.0 -50917200000.0 -55393400000.0 -57997100000.0 -64159600000.0 -68136300000.0 -66138500000.0 -65510600000.0 -58233300000.0 -56794100000.0 -48366600000.0 -95821400000.0 -75165200000.0 -73603500000.0 -11123500000.0 -81267500000.0 -10202100000.0 -60875100000.0 -9037700000.0 -22773500000.0 -9036850000.0 -9036740000.0 -9036490000.0 -9036310000.0 -9036170000.0 -9036070000.0 -9036000000.0 -9035950000.0 -9035910000.0 -9035880000.0 -9035860000.0 -9035840000.0 -9035820000.0 -9035810000.0 -9035800000.0 -9035790000.0 -9035780000.0 -9035770000.0 -9035770000.0 -9035760000.0 -9035760000.0 -9035760000.0 -9035750000.0 -9035750000.0 -9035750000.0 -9035760000.0 -9035760000.0 -9035760000.0 -9035770000.0 -9035770000.0 -9035780000.0 -9035790000.0 -9035800000.0 -9035810000.0 -9035820000.0 -9035840000.0 -9035860000.0 -9035880000.0 -9035910000.0 -9035950000.0 -9036000000.0 -9036070000.0 -9036170000.0 -9036310000.0 -9036490000.0 -9036740000.0 -9036850000.0 -22773500000.0 -9037700000.0 -60875100000.0 -10202100000.0 -81267500000.0 -11123500000.0 -73603500000.0 -75165200000.0 -95821400000.0 -48366600000.0 -56794100000.0 -58233300000.0 -65510600000.0 -66138500000.0 -63875000000.0 -65661300000.0 -58342800000.0 -56921600000.0 -45541200000.0 -93437400000.0 -64389000000.0 -69590400000.0 -11319500000.0 -77525400000.0 -10275200000.0 -53444500000.0 -9038000000.0 -18696600000.0 -9037010000.0 -9036810000.0 -9036540000.0 -9036350000.0 -9036200000.0 -9036100000.0 -9036030000.0 -9035970000.0 -9035930000.0 -9035890000.0 -9035870000.0 -9035850000.0 -9035830000.0 -9035810000.0 -9035800000.0 -9035790000.0 -9035780000.0 -9035780000.0 -9035770000.0 -9035760000.0 -9035760000.0 -9035760000.0 -9035750000.0 -9035750000.0 -9035750000.0 -9035760000.0 -9035760000.0 -9035760000.0 -9035770000.0 -9035780000.0 -9035780000.0 -9035790000.0 -9035800000.0 -9035810000.0 -9035830000.0 -9035850000.0 -9035870000.0 -9035890000.0 -9035930000.0 -9035970000.0 -9036030000.0 -9036100000.0 -9036200000.0 -9036350000.0 -9036540000.0 -9036810000.0 -9037010000.0 -18696600000.0 -9038000000.0 -53444500000.0 -10275200000.0 -77525400000.0 -11319500000.0 -69590400000.0 -64389000000.0 -93437400000.0 -45541200000.0 -56921600000.0 -58342800000.0 -65661300000.0 -63875000000.0 -61478500000.0 -64780600000.0 -58072300000.0 -56006800000.0 -42690200000.0 -90124200000.0 -55039600000.0 -65790300000.0 -11442000000.0 -73033600000.0 -10300000000.0 -46507800000.0 -9038270000.0 -15690200000.0 -9037150000.0 -9036880000.0 -9036590000.0 -9036390000.0 -9036240000.0 -9036130000.0 -9036050000.0 -9035990000.0 -9035940000.0 -9035910000.0 -9035880000.0 -9035850000.0 -9035830000.0 -9035820000.0 -9035810000.0 -9035790000.0 -9035780000.0 -9035780000.0 -9035770000.0 -9035760000.0 -9035760000.0 -9035760000.0 -9035750000.0 -9035750000.0 -9035750000.0 -9035760000.0 -9035760000.0 -9035760000.0 -9035770000.0 -9035780000.0 -9035780000.0 -9035790000.0 -9035810000.0 -9035820000.0 -9035830000.0 -9035850000.0 -9035880000.0 -9035910000.0 -9035940000.0 -9035990000.0 -9036050000.0 -9036130000.0 -9036240000.0 -9036390000.0 -9036590000.0 -9036880000.0 -9037150000.0 -15690200000.0 -9038270000.0 -46507800000.0 -10300000000.0 -73033600000.0 -11442000000.0 -65790300000.0 -55039600000.0 -90124200000.0 -42690200000.0 -56006800000.0 -58072300000.0 -64780600000.0 -61478500000.0 -59061000000.0 -63060900000.0 -57242100000.0 -54303000000.0 -39957000000.0 -86095500000.0 -46960600000.0 -62170600000.0 -11493800000.0 -68030400000.0 -10280800000.0 -40194700000.0 -9038500000.0 -13519300000.0 -9037270000.0 -9036940000.0 -9036640000.0 -9036430000.0 -9036270000.0 -9036150000.0 -9036070000.0 -9036000000.0 -9035950000.0 -9035910000.0 -9035880000.0 -9035860000.0 -9035840000.0 -9035820000.0 -9035810000.0 -9035800000.0 -9035790000.0 -9035780000.0 -9035770000.0 -9035760000.0 -9035760000.0 -9035760000.0 -9035750000.0 -9035750000.0 -9035750000.0 -9035760000.0 -9035760000.0 -9035760000.0 -9035770000.0 -9035780000.0 -9035790000.0 -9035800000.0 -9035810000.0 -9035820000.0 -9035840000.0 -9035860000.0 -9035880000.0 -9035910000.0 -9035950000.0 -9036000000.0 -9036070000.0 -9036150000.0 -9036270000.0 -9036430000.0 -9036640000.0 -9036940000.0 -9037270000.0 -13519300000.0 -9038500000.0 -40194700000.0 -10280800000.0 -68030400000.0 -11493800000.0 -62170600000.0 -46960600000.0 -86095500000.0 -39957000000.0 -54303000000.0 -57242100000.0 -63060900000.0 -59061000000.0 -56682100000.0 -60707100000.0 -55811800000.0 -52042300000.0 -37418000000.0 -81540700000.0 -40033100000.0 -58682600000.0 -11480600000.0 -62732400000.0 -10224000000.0 -34577700000.0 -9038690000.0 -11985700000.0 -9037370000.0 -9036990000.0 -9036680000.0 -9036460000.0 -9036290000.0 -9036170000.0 -9036080000.0 -9036010000.0 -9035960000.0 -9035920000.0 -9035890000.0 -9035860000.0 -9035840000.0 -9035820000.0 -9035810000.0 -9035800000.0 -9035790000.0 -9035780000.0 -9035770000.0 -9035760000.0 -9035760000.0 -9035760000.0 -9035750000.0 -9035750000.0 -9035750000.0 -9035760000.0 -9035760000.0 -9035760000.0 -9035770000.0 -9035780000.0 -9035790000.0 -9035800000.0 -9035810000.0 -9035820000.0 -9035840000.0 -9035860000.0 -9035890000.0 -9035920000.0 -9035960000.0 -9036010000.0 -9036080000.0 -9036170000.0 -9036290000.0 -9036460000.0 -9036680000.0 -9036990000.0 -9037370000.0 -11985700000.0 -9038690000.0 -34577700000.0 -10224000000.0 -62732400000.0 -11480600000.0 -58682600000.0 -40033100000.0 -81540700000.0 -37418000000.0 -52042300000.0 -55811800000.0 -60707100000.0 -56682100000.0 -54343000000.0 -57922900000.0 -53858800000.0 -49424900000.0 -35100700000.0 -76627200000.0 -34154900000.0 -55280200000.0 -11410800000.0 -57326700000.0 -10137600000.0 -29681600000.0 -9038850000.0 -10927300000.0 -9037450000.0 -9037040000.0 -9036720000.0 -9036490000.0 -9036310000.0 -9036190000.0 -9036090000.0 -9036020000.0 -9035970000.0 -9035930000.0 -9035890000.0 -9035870000.0 -9035850000.0 -9035830000.0 -9035810000.0 -9035800000.0 -9035790000.0 -9035780000.0 -9035770000.0 -9035770000.0 -9035760000.0 -9035760000.0 -9035750000.0 -9035750000.0 -9035750000.0 -9035760000.0 -9035760000.0 -9035770000.0 -9035770000.0 -9035780000.0 -9035790000.0 -9035800000.0 -9035810000.0 -9035830000.0 -9035850000.0 -9035870000.0 -9035890000.0 -9035930000.0 -9035970000.0 -9036020000.0 -9036090000.0 -9036190000.0 -9036310000.0 -9036490000.0 -9036720000.0 -9037040000.0 -9037450000.0 -10927300000.0 -9038850000.0 -29681600000.0 -10137600000.0 -57326700000.0 -11410800000.0 -55280200000.0 -34154900000.0 -76627200000.0 -35100700000.0 -49424900000.0 -53858800000.0 -57922900000.0 -54343000000.0 -52026700000.0 -54895300000.0 -51514500000.0 -46615800000.0 -32996200000.0 -71502900000.0 -29227900000.0 -51929300000.0 -11293700000.0 -51967700000.0 -10030700000.0 -25493500000.0 -9038980000.0 -10215000000.0 -9037510000.0 -9037080000.0 -9036750000.0 -9036510000.0 -9036330000.0 -9036200000.0 -9036100000.0 -9036030000.0 -9035980000.0 -9035930000.0 -9035900000.0 -9035870000.0 -9035850000.0 -9035830000.0 -9035810000.0 -9035800000.0 -9035790000.0 -9035780000.0 -9035770000.0 -9035770000.0 -9035760000.0 -9035760000.0 -9035750000.0 -9035750000.0 -9035750000.0 -9035760000.0 -9035760000.0 -9035770000.0 -9035770000.0 -9035780000.0 -9035790000.0 -9035800000.0 -9035810000.0 -9035830000.0 -9035850000.0 -9035870000.0 -9035900000.0 -9035930000.0 -9035980000.0 -9036030000.0 -9036100000.0 -9036200000.0 -9036330000.0 -9036510000.0 -9036750000.0 -9037080000.0 -9037510000.0 -10215000000.0 -9038980000.0 -25493500000.0 -10030700000.0 -51967700000.0 -11293700000.0 -51929300000.0 -29227900000.0 -71502900000.0 -32996200000.0 -46615800000.0 -51514500000.0 -54895300000.0 -52026700000.0 -49732500000.0 -51781000000.0 -48915300000.0 -43745700000.0 -31075600000.0 -66297700000.0 -25151500000.0 -48612100000.0 -11140000000.0 -46778600000.0 -9911960000.0 -21974200000.0 -9039080000.0 -9748590000.0 -9037560000.0 -9037100000.0 -9036770000.0 -9036520000.0 -9036340000.0 -9036210000.0 -9036110000.0 -9036040000.0 -9035980000.0 -9035930000.0 -9035900000.0 -9035870000.0 -9035850000.0 -9035830000.0 -9035810000.0 -9035800000.0 -9035790000.0 -9035780000.0 -9035770000.0 -9035770000.0 -9035760000.0 -9035760000.0 -9035750000.0 -9035750000.0 -9035750000.0 -9035760000.0 -9035760000.0 -9035770000.0 -9035770000.0 -9035780000.0 -9035790000.0 -9035800000.0 -9035810000.0 -9035830000.0 -9035850000.0 -9035870000.0 -9035900000.0 -9035930000.0 -9035980000.0 -9036040000.0 -9036110000.0 -9036210000.0 -9036340000.0 -9036520000.0 -9036770000.0 -9037100000.0 -9037560000.0 -9748590000.0 -9039080000.0 -21974200000.0 -9911960000.0 -46778600000.0 -11140000000.0 -48612100000.0 -25151500000.0 -66297700000.0 -31075600000.0 -43745700000.0 -48915300000.0 -51781000000.0 -49732500000.0 -47476600000.0 -48699000000.0 -46179700000.0 -40913800000.0 -29302300000.0 -61123100000.0 -21821800000.0 -45327200000.0 -10960500000.0 -41853800000.0 -9789280000.0 -19067200000.0 -9039140000.0 -9452240000.0 -9037590000.0 -9037120000.0 -9036780000.0 -9036530000.0 -9036350000.0 -9036210000.0 -9036110000.0 -9036040000.0 -9035980000.0 -9035940000.0 -9035900000.0 -9035870000.0 -9035850000.0 -9035830000.0 -9035810000.0 -9035800000.0 -9035790000.0 -9035780000.0 -9035770000.0 -9035770000.0 -9035760000.0 -9035760000.0 -9035750000.0 -9035750000.0 -9035750000.0 -9035760000.0 -9035760000.0 -9035770000.0 -9035770000.0 -9035780000.0 -9035790000.0 -9035800000.0 -9035810000.0 -9035830000.0 -9035850000.0 -9035870000.0 -9035900000.0 -9035940000.0 -9035980000.0 -9036040000.0 -9036110000.0 -9036210000.0 -9036350000.0 -9036530000.0 -9036780000.0 -9037120000.0 -9037590000.0 -9452240000.0 -9039140000.0 -19067200000.0 -9789280000.0 -41853800000.0 -10960500000.0 -45327200000.0 -21821800000.0 -61123100000.0 -29302300000.0 -40913800000.0 -46179700000.0 -48699000000.0 -47476600000.0 -45278800000.0 -45730900000.0 -43402200000.0 -38191000000.0 -27641800000.0 -56071300000.0 -19133700000.0 -42087300000.0 -10765600000.0 -37262700000.0 -9669070000.0 -16706100000.0 -9039180000.0 -9270220000.0 -9037600000.0 -9037130000.0 -9036780000.0 -9036530000.0 -9036350000.0 -9036210000.0 -9036110000.0 -9036040000.0 -9035980000.0 -9035940000.0 -9035900000.0 -9035870000.0 -9035850000.0 -9035830000.0 -9035810000.0 -9035800000.0 -9035790000.0 -9035780000.0 -9035770000.0 -9035770000.0 -9035760000.0 -9035760000.0 -9035750000.0 -9035750000.0 -9035750000.0 -9035760000.0 -9035760000.0 -9035770000.0 -9035770000.0 -9035780000.0 -9035790000.0 -9035800000.0 -9035810000.0 -9035830000.0 -9035850000.0 -9035870000.0 -9035900000.0 -9035940000.0 -9035980000.0 -9036040000.0 -9036110000.0 -9036210000.0 -9036350000.0 -9036530000.0 -9036780000.0 -9037130000.0 -9037600000.0 -9270220000.0 -9039180000.0 -16706100000.0 -9669070000.0 -37262700000.0 -10765600000.0 -42087300000.0 -19133700000.0 -56071300000.0 -27641800000.0 -38191000000.0 -43402200000.0 -45730900000.0 -45278800000.0 -43152600000.0 -42926200000.0 -40654300000.0 -35623800000.0 -26066600000.0 -51214900000.0 -16985500000.0 -38915000000.0 -10564400000.0 -33053100000.0 -9556240000.0 -14820000000.0 -9039180000.0 -9162590000.0 -9037600000.0 -9037120000.0 -9036780000.0 -9036530000.0 -9036350000.0 -9036210000.0 -9036110000.0 -9036040000.0 -9035980000.0 -9035930000.0 -9035900000.0 -9035870000.0 -9035850000.0 -9035830000.0 -9035810000.0 -9035800000.0 -9035790000.0 -9035780000.0 -9035770000.0 -9035770000.0 -9035760000.0 -9035760000.0 -9035750000.0 -9035750000.0 -9035750000.0 -9035760000.0 -9035760000.0 -9035770000.0 -9035770000.0 -9035780000.0 -9035790000.0 -9035800000.0 -9035810000.0 -9035830000.0 -9035850000.0 -9035870000.0 -9035900000.0 -9035930000.0 -9035980000.0 -9036040000.0 -9036110000.0 -9036210000.0 -9036350000.0 -9036530000.0 -9036780000.0 -9037120000.0 -9037600000.0 -9162590000.0 -9039180000.0 -14820000000.0 -9556240000.0 -33053100000.0 -10564400000.0 -38915000000.0 -16985500000.0 -51214900000.0 -26066600000.0 -35623800000.0 -40654300000.0 -42926200000.0 -43152600000.0 -15282700000.0 -10364900000.0 -29253300000.0 -9454150000.0 -13338000000.0 -9039160000.0 -9101630000.0 -9037580000.0 -9037110000.0 -9036770000.0 -9036520000.0 -9036340000.0 -9036210000.0 -9036110000.0 -9036030000.0 -9035980000.0 -9035930000.0 -9035900000.0 -9035870000.0 -9035850000.0 -9035830000.0 -9035810000.0 -9035800000.0 -9035790000.0 -9035780000.0 -9035770000.0 -9035760000.0 -9035760000.0 -9035760000.0 -9035750000.0 -9035750000.0 -9035750000.0 -9035760000.0 -9035760000.0 -9035760000.0 -9035770000.0 -9035780000.0 -9035790000.0 -9035800000.0 -9035810000.0 -9035830000.0 -9035850000.0 -9035870000.0 -9035900000.0 -9035930000.0 -9035980000.0 -9036030000.0 -9036110000.0 -9036210000.0 -9036340000.0 -9036520000.0 -9036770000.0 -9037110000.0 -9037580000.0 -9101630000.0 -9039160000.0 -13338000000.0 -9454150000.0 -29253300000.0 -10364900000.0 -15282700000.0 -41103800000.0 -40309900000.0 -37987900000.0 -33238300000.0 -24559100000.0 -46608900000.0 -35838400000.0 -35838400000.0 -46608900000.0 -24559100000.0 -33238300000.0 -37987900000.0 -40309900000.0 -41103800000.0 -39132200000.0 -37889300000.0 -35439100000.0 -31043900000.0 -23111700000.0 -42292300000.0 -13940900000.0 -32887100000.0 -10173500000.0 -25874500000.0 -9364780000.0 -12192300000.0 -9039120000.0 -9068740000.0 -9037560000.0 -9037090000.0 -9036750000.0 -9036510000.0 -9036330000.0 -9036200000.0 -9036100000.0 -9036030000.0 -9035970000.0 -9035930000.0 -9035890000.0 -9035870000.0 -9035840000.0 -9035830000.0 -9035810000.0 -9035800000.0 -9035790000.0 -9035780000.0 -9035770000.0 -9035760000.0 -9035760000.0 -9035760000.0 -9035750000.0 -9035750000.0 -9035750000.0 -9035760000.0 -9035760000.0 -9035760000.0 -9035770000.0 -9035780000.0 -9035790000.0 -9035800000.0 -9035810000.0 -9035830000.0 -9035840000.0 -9035870000.0 -9035890000.0 -9035930000.0 -9035970000.0 -9036030000.0 -9036100000.0 -9036200000.0 -9036330000.0 -9036510000.0 -9036750000.0 -9037090000.0 -9037560000.0 -9068740000.0 -9039120000.0 -12192300000.0 -9364780000.0 -25874500000.0 -10173500000.0 -32887100000.0 -13940900000.0 -42292300000.0 -23111700000.0 -31043900000.0 -35439100000.0 -37889300000.0 -39132200000.0 -37234300000.0 -35659200000.0 -33030600000.0 -29038000000.0 -21724400000.0 -38290700000.0 -12887200000.0 -30088900000.0 -9994660000.0 -22913100000.0 -9288900000.0 -11320500000.0 -9039060000.0 -9051960000.0 -9037520000.0 -9037060000.0 -9036730000.0 -9036490000.0 -9036320000.0 -9036190000.0 -9036090000.0 -9036020000.0 -9035970000.0 -9035920000.0 -9035890000.0 -9035860000.0 -9035840000.0 -9035820000.0 -9035810000.0 -9035800000.0 -9035790000.0 -9035780000.0 -9035770000.0 -9035760000.0 -9035760000.0 -9035760000.0 -9035750000.0 -9035750000.0 -9035750000.0 -9035760000.0 -9035760000.0 -9035760000.0 -9035770000.0 -9035780000.0 -9035790000.0 -9035800000.0 -9035810000.0 -9035820000.0 -9035840000.0 -9035860000.0 -9035890000.0 -9035920000.0 -9035970000.0 -9036020000.0 -9036090000.0 -9036190000.0 -9036320000.0 -9036490000.0 -9036730000.0 -9037060000.0 -9037520000.0 -9051960000.0 -9039060000.0 -11320500000.0 -9288900000.0 -22913100000.0 -9994660000.0 -30088900000.0 -12887200000.0 -38290700000.0 -21724400000.0 -29038000000.0 -33030600000.0 -35659200000.0 -37234300000.0 -35405400000.0 -33607300000.0 -30775400000.0 -27209700000.0 -20402100000.0 -34617900000.0 -12060700000.0 -27467300000.0 -9831800000.0 -20353600000.0 -9226340000.0 -10667600000.0 -9038980000.0 -9043910000.0 -9037470000.0 -9037030000.0 -9036710000.0 -9036470000.0 -9036300000.0 -9036170000.0 -9036080000.0 -9036010000.0 -9035960000.0 -9035920000.0 -9035880000.0 -9035860000.0 -9035840000.0 -9035820000.0 -9035810000.0 -9035790000.0 -9035790000.0 -9035780000.0 -9035770000.0 -9035760000.0 -9035760000.0 -9035760000.0 -9035750000.0 -9035750000.0 -9035750000.0 -9035760000.0 -9035760000.0 -9035760000.0 -9035770000.0 -9035780000.0 -9035790000.0 -9035790000.0 -9035810000.0 -9035820000.0 -9035840000.0 -9035860000.0 -9035880000.0 -9035920000.0 -9035960000.0 -9036010000.0 -9036080000.0 -9036170000.0 -9036300000.0 -9036470000.0 -9036710000.0 -9037030000.0 -9037470000.0 -9043910000.0 -9038980000.0 -10667600000.0 -9226340000.0 -20353600000.0 -9831800000.0 -27467300000.0 -12060700000.0 -34617900000.0 -20402100000.0 -27209700000.0 -30775400000.0 -33607300000.0 -35405400000.0 -33641700000.0 -31716900000.0 -28678700000.0 -25543600000.0 -19152100000.0 -31277500000.0 -11412000000.0 -25040500000.0 -9686780000.0 -18171200000.0 -9176200000.0 -10186100000.0 -9038890000.0 -9040290000.0 -9037420000.0 -9036990000.0 -9036670000.0 -9036450000.0 -9036280000.0 -9036160000.0 -9036070000.0 -9036000000.0 -9035950000.0 -9035910000.0 -9035880000.0 -9035850000.0 -9035830000.0 -9035820000.0 -9035800000.0 -9035790000.0 -9035780000.0 -9035780000.0 -9035770000.0 -9035760000.0 -9035760000.0 -9035760000.0 -9035750000.0 -9035750000.0 -9035750000.0 -9035760000.0 -9035760000.0 -9035760000.0 -9035770000.0 -9035780000.0 -9035780000.0 -9035790000.0 -9035800000.0 -9035820000.0 -9035830000.0 -9035850000.0 -9035880000.0 -9035910000.0 -9035950000.0 -9036000000.0 -9036070000.0 -9036160000.0 -9036280000.0 -9036450000.0 -9036670000.0 -9036990000.0 -9037420000.0 -9040290000.0 -9038890000.0 -10186100000.0 -9176200000.0 -18171200000.0 -9686780000.0 -25040500000.0 -11412000000.0 -31277500000.0 -19152100000.0 -25543600000.0 -28678700000.0 -31716900000.0 -33641700000.0 -31940600000.0 -29970100000.0 -26740600000.0 -24022700000.0 -17981800000.0 -28265000000.0 -10901900000.0 -22820500000.0 -9560360000.0 -16334700000.0 -9137130000.0 -9836360000.0 -9038780000.0 -9038760000.0 -9037360000.0 -9036940000.0 -9036640000.0 -9036420000.0 -9036260000.0 -9036140000.0 -9036060000.0 -9035990000.0 -9035940000.0 -9035900000.0 -9035870000.0 -9035850000.0 -9035830000.0 -9035810000.0 -9035800000.0 -9035790000.0 -9035780000.0 -9035770000.0 -9035770000.0 -9035760000.0 -9035760000.0 -9035760000.0 -9035750000.0 -9035750000.0 -9035750000.0 -9035760000.0 -9035760000.0 -9035760000.0 -9035770000.0 -9035770000.0 -9035780000.0 -9035790000.0 -9035800000.0 -9035810000.0 -9035830000.0 -9035850000.0 -9035870000.0 -9035900000.0 -9035940000.0 -9035990000.0 -9036060000.0 -9036140000.0 -9036260000.0 -9036420000.0 -9036640000.0 -9036940000.0 -9037360000.0 -9038760000.0 -9038780000.0 -9836360000.0 -9137130000.0 -16334700000.0 -9560360000.0 -22820500000.0 -10901900000.0 -28265000000.0 -17981800000.0 -24022700000.0 -26740600000.0 -29970100000.0 -31940600000.0 -30301500000.0 -28349900000.0 -24957300000.0 -22630200000.0 -16897300000.0 -25569600000.0 -10499800000.0 -20813000000.0 -9452340000.0 -14809000000.0 -9107520000.0 -9586150000.0 -9038660000.0 -9038120000.0 -9037290000.0 -9036890000.0 -9036600000.0 -9036390000.0 -9036240000.0 -9036130000.0 -9036040000.0 -9035980000.0 -9035930000.0 -9035900000.0 -9035870000.0 -9035850000.0 -9035830000.0 -9035810000.0 -9035800000.0 -9035790000.0 -9035780000.0 -9035770000.0 -9035770000.0 -9035760000.0 -9035760000.0 -9035760000.0 -9035750000.0 -9035750000.0 -9035750000.0 -9035760000.0 -9035760000.0 -9035760000.0 -9035770000.0 -9035770000.0 -9035780000.0 -9035790000.0 -9035800000.0 -9035810000.0 -9035830000.0 -9035850000.0 -9035870000.0 -9035900000.0 -9035930000.0 -9035980000.0 -9036040000.0 -9036130000.0 -9036240000.0 -9036390000.0 -9036600000.0 -9036890000.0 -9037290000.0 -9038120000.0 -9038660000.0 -9586150000.0 -9107520000.0 -14809000000.0 -9452340000.0 -20813000000.0 -10499800000.0 -25569600000.0 -16897300000.0 -22630200000.0 -24957300000.0 -28349900000.0 -30301500000.0 -28725000000.0 -26840700000.0 -23322800000.0 -21351000000.0 -15902400000.0 -23175800000.0 -10182000000.0 -19018100000.0 -9361830000.0 -13557200000.0 -9085710000.0 -9409700000.0 -9038530000.0 -9037840000.0 -9037220000.0 -9036840000.0 -9036560000.0 -9036360000.0 -9036220000.0 -9036110000.0 -9036030000.0 -9035970000.0 -9035930000.0 -9035890000.0 -9035860000.0 -9035840000.0 -9035820000.0 -9035810000.0 -9035800000.0 -9035790000.0 -9035780000.0 -9035770000.0 -9035770000.0 -9035760000.0 -9035760000.0 -9035760000.0 -9035750000.0 -9035750000.0 -9035750000.0 -9035760000.0 -9035760000.0 -9035760000.0 -9035770000.0 -9035770000.0 -9035780000.0 -9035790000.0 -9035800000.0 -9035810000.0 -9035820000.0 -9035840000.0 -9035860000.0 -9035890000.0 -9035930000.0 -9035970000.0 -9036030000.0 -9036110000.0 -9036220000.0 -9036360000.0 -9036560000.0 -9036840000.0 -9037220000.0 -9037840000.0 -9038530000.0 -9409700000.0 -9085710000.0 -13557200000.0 -9361830000.0 -19018100000.0 -10182000000.0 -23175800000.0 -15902400000.0 -21351000000.0 -23322800000.0 -26840700000.0 -28725000000.0 -27212900000.0 -25429600000.0 -21829500000.0 -20171900000.0 -14998500000.0 -21064600000.0 -9930660000.0 -17430800000.0 -9287410000.0 -12542600000.0 -9070070000.0 -9286980000.0 -9038390000.0 -9037680000.0 -9037150000.0 -9036790000.0 -9036520000.0 -9036330000.0 -9036190000.0 -9036090000.0 -9036010000.0 -9035960000.0 -9035920000.0 -9035880000.0 -9035860000.0 -9035840000.0 -9035820000.0 -9035810000.0 -9035790000.0 -9035780000.0 -9035780000.0 -9035770000.0 -9035770000.0 -9035760000.0 -9035760000.0 -9035750000.0 -9035750000.0 -9035750000.0 -9035750000.0 -9035750000.0 -9035760000.0 -9035760000.0 -9035770000.0 -9035770000.0 -9035780000.0 -9035780000.0 -9035790000.0 -9035810000.0 -9035820000.0 -9035840000.0 -9035860000.0 -9035880000.0 -9035920000.0 -9035960000.0 -9036010000.0 -9036090000.0 -9036190000.0 -9036330000.0 -9036520000.0 -9036790000.0 -9037150000.0 -9037680000.0 -9038390000.0 -9286980000.0 -9070070000.0 -12542600000.0 -9287410000.0 -17430800000.0 -9930660000.0 -21064600000.0 -14998500000.0 -20171900000.0 -21829500000.0 -25429600000.0 -27212900000.0 -25767200000.0 -24105900000.0 -20469100000.0 -19082600000.0 -14184700000.0 -19214900000.0 -9731740000.0 -16041700000.0 -9227330000.0 -11729700000.0 -9059180000.0 -9202780000.0 -9038250000.0 -9037560000.0 -9037080000.0 -9036730000.0 -9036480000.0 -9036300000.0 -9036170000.0 -9036070000.0 -9036000000.0 -9035950000.0 -9035910000.0 -9035870000.0 -9035850000.0 -9035830000.0 -9035810000.0 -9035800000.0 -9035790000.0 -9035780000.0 -9035780000.0 -9035770000.0 -9035760000.0 -9035760000.0 -9035760000.0 -9035750000.0 -9035750000.0 -9035750000.0 -9035750000.0 -9035750000.0 -9035760000.0 -9035760000.0 -9035760000.0 -9035770000.0 -9035780000.0 -9035780000.0 -9035790000.0 -9035800000.0 -9035810000.0 -9035830000.0 -9035850000.0 -9035870000.0 -9035910000.0 -9035950000.0 -9036000000.0 -9036070000.0 -9036170000.0 -9036300000.0 -9036480000.0 -9036730000.0 -9037080000.0 -9037560000.0 -9038250000.0 -9202780000.0 -9059180000.0 -11729700000.0 -9227330000.0 -16041700000.0 -9731740000.0 -19214900000.0 -14184700000.0 -19082600000.0 -20469100000.0 -24105900000.0 -25767200000.0 -24389900000.0 -22861300000.0 -19233000000.0 -18074600000.0 -13458000000.0 -17604800000.0 -9574540000.0 -14838500000.0 -9179700000.0 -11086100000.0 -9051790000.0 -9145740000.0 -9038110000.0 -9037450000.0 -9037000000.0 -9036670000.0 -9036440000.0 -9036270000.0 -9036140000.0 -9036050000.0 -9035980000.0 -9035930000.0 -9035900000.0 -9035870000.0 -9035840000.0 -9035820000.0 -9035810000.0 -9035800000.0 -9035790000.0 -9035780000.0 -9035770000.0 -9035770000.0 -9035760000.0 -9035760000.0 -9035760000.0 -9035750000.0 -9035750000.0 -9035750000.0 -9035750000.0 -9035750000.0 -9035760000.0 -9035760000.0 -9035760000.0 -9035770000.0 -9035770000.0 -9035780000.0 -9035790000.0 -9035800000.0 -9035810000.0 -9035820000.0 -9035840000.0 -9035870000.0 -9035900000.0 -9035930000.0 -9035980000.0 -9036050000.0 -9036140000.0 -9036270000.0 -9036440000.0 -9036670000.0 -9037000000.0 -9037450000.0 -9038110000.0 -9145740000.0 -9051790000.0 -11086100000.0 -9179700000.0 -14838500000.0 -9574540000.0 -17604800000.0 -13458000000.0 -18074600000.0 -19233000000.0 -22861300000.0 -24389900000.0 -23082600000.0 -21689500000.0 -18112400000.0 -17141500000.0 -12813900000.0 -16211800000.0 -9450650000.0 -13806500000.0 -9142610000.0 -10582000000.0 -9046900000.0 -9107590000.0 -9037960000.0 -9037350000.0 -9036920000.0 -9036610000.0 -9036390000.0 -9036230000.0 -9036120000.0 -9036030000.0 -9035970000.0 -9035920000.0 -9035890000.0 -9035860000.0 -9035840000.0 -9035820000.0 -9035810000.0 -9035790000.0 -9035790000.0 -9035780000.0 -9035770000.0 -9035770000.0 -9035760000.0 -9035760000.0 -9035760000.0 -9035750000.0 -9035750000.0 -9035750000.0 -9035750000.0 -9035750000.0 -9035760000.0 -9035760000.0 -9035760000.0 -9035770000.0 -9035770000.0 -9035780000.0 -9035790000.0 -9035790000.0 -9035810000.0 -9035820000.0 -9035840000.0 -9035860000.0 -9035890000.0 -9035920000.0 -9035970000.0 -9036030000.0 -9036120000.0 -9036230000.0 -9036390000.0 -9036610000.0 -9036920000.0 -9037350000.0 -9037960000.0 -9107590000.0 -9046900000.0 -10582000000.0 -9142610000.0 -13806500000.0 -9450650000.0 -16211800000.0 -12813900000.0 -17141500000.0 -18112400000.0 -21689500000.0 -23082600000.0 -21846300000.0 -20585800000.0 -17098500000.0 -16278700000.0 -12247000000.0 -15013900000.0 -9353420000.0 -12929800000.0 -9114220000.0 -10191500000.0 -9043730000.0 -9082370000.0 -9037820000.0 -9037240000.0 -9036840000.0 -9036560000.0 -9036350000.0 -9036200000.0 -9036090000.0 -9036010000.0 -9035950000.0 -9035910000.0 -9035880000.0 -9035850000.0 -9035830000.0 -9035810000.0 -9035800000.0 -9035790000.0 -9035780000.0 -9035780000.0 -9035770000.0 -9035770000.0 -9035760000.0 -9035760000.0 -9035760000.0 -9035750000.0 -9035750000.0 -9035750000.0 -9035750000.0 -9035750000.0 -9035760000.0 -9035760000.0 -9035760000.0 -9035770000.0 -9035770000.0 -9035780000.0 -9035780000.0 -9035790000.0 -9035800000.0 -9035810000.0 -9035830000.0 -9035850000.0 -9035880000.0 -9035910000.0 -9035950000.0 -9036010000.0 -9036090000.0 -9036200000.0 -9036350000.0 -9036560000.0 -9036840000.0 -9037240000.0 -9037820000.0 -9082370000.0 -9043730000.0 -10191500000.0 -9114220000.0 -12929800000.0 -9353420000.0 -15013900000.0 -12247000000.0 -16278700000.0 -17098500000.0 -20585800000.0 -21846300000.0 -20681300000.0 -19546800000.0 -16183000000.0 -15482200000.0 -11751400000.0 -13989800000.0 -9277540000.0 -12191600000.0 -9092870000.0 -9892200000.0 -9041710000.0 -9065890000.0 -9037670000.0 -9037140000.0 -9036760000.0 -9036500000.0 -9036310000.0 -9036170000.0 -9036070000.0 -9035990000.0 -9035940000.0 -9035900000.0 -9035870000.0 -9035840000.0 -9035820000.0 -9035810000.0 -9035800000.0 -9035790000.0 -9035780000.0 -9035770000.0 -9035770000.0 -9035760000.0 -9035760000.0 -9035760000.0 -9035760000.0 -9035750000.0 -9035750000.0 -9035750000.0 -9035750000.0 -9035750000.0 -9035760000.0 -9035760000.0 -9035760000.0 -9035760000.0 -9035770000.0 -9035770000.0 -9035780000.0 -9035790000.0 -9035800000.0 -9035810000.0 -9035820000.0 -9035840000.0 -9035870000.0 -9035900000.0 -9035940000.0 -9035990000.0 -9036070000.0 -9036170000.0 -9036310000.0 -9036500000.0 -9036760000.0 -9037140000.0 -9037670000.0 -9065890000.0 -9041710000.0 -9892200000.0 -9092870000.0 -12191600000.0 -9277540000.0 -13989800000.0 -11751400000.0 -15482200000.0 -16183000000.0 -19546800000.0 -20681300000.0 -19587100000.0 -18569900000.0 -15357400000.0 -14749200000.0 -11320700000.0 -13119500000.0 -9218710000.0 -11575700000.0 -9077060000.0 -9665110000.0 -9040420000.0 -9055240000.0 -9037530000.0 -9037030000.0 -9036690000.0 -9036440000.0 -9036260000.0 -9036140000.0 -9036040000.0 -9035970000.0 -9035920000.0 -9035890000.0 -9035860000.0 -9035840000.0 -9035820000.0 -9035810000.0 -9035790000.0 -9035790000.0 -9035780000.0 -9035770000.0 -9035770000.0 -9035760000.0 -9035760000.0 -9035760000.0 -9035760000.0 -9035750000.0 -9035750000.0 -9035750000.0 -9035750000.0 -9035750000.0 -9035760000.0 -9035760000.0 -9035760000.0 -9035760000.0 -9035770000.0 -9035770000.0 -9035780000.0 -9035790000.0 -9035790000.0 -9035810000.0 -9035820000.0 -9035840000.0 -9035860000.0 -9035890000.0 -9035920000.0 -9035970000.0 -9036040000.0 -9036140000.0 -9036260000.0 -9036440000.0 -9036690000.0 -9037030000.0 -9037530000.0 -9055240000.0 -9040420000.0 -9665110000.0 -9077060000.0 -11575700000.0 -9218710000.0 -13119500000.0 -11320700000.0 -14749200000.0 -15357400000.0 -18569900000.0 -19587100000.0 -18562300000.0 -17652700000.0 -14613900000.0 -14076700000.0 -10948600000.0 -12384200000.0 -9173410000.0 -11066000000.0 -9065540000.0 -9494530000.0 -9039580000.0 -9048420000.0 -9037390000.0 -9036930000.0 -9036610000.0 -9036390000.0 -9036220000.0 -9036110000.0 -9036020000.0 -9035960000.0 -9035910000.0 -9035870000.0 -9035850000.0 -9035830000.0 -9035810000.0 -9035800000.0 -9035790000.0 -9035780000.0 -9035780000.0 -9035770000.0 -9035770000.0 -9035760000.0 -9035760000.0 -9035760000.0 -9035760000.0 -9035750000.0 -9035750000.0 -9035750000.0 -9035750000.0 -9035750000.0 -9035760000.0 -9035760000.0 -9035760000.0 -9035760000.0 -9035770000.0 -9035770000.0 -9035780000.0 -9035780000.0 -9035790000.0 -9035800000.0 -9035810000.0 -9035830000.0 -9035850000.0 -9035870000.0 -9035910000.0 -9035960000.0 -9036020000.0 -9036110000.0 -9036220000.0 -9036390000.0 -9036610000.0 -9036930000.0 -9037390000.0 -9048420000.0 -9039580000.0 -9494530000.0 -9065540000.0 -11066000000.0 -9173410000.0 -12384200000.0 -10948600000.0 -14076700000.0 -14613900000.0 -17652700000.0 -18562300000.0 -17605100000.0 -16793400000.0 -13945100000.0 -13462400000.0 -10629000000.0 -11766500000.0 -9138810000.0 -10647900000.0 -9057270000.0 -9367620000.0 -9039000000.0 -9044100000.0 -9037250000.0 -9036830000.0 -9036540000.0 -9036330000.0 -9036180000.0 -9036080000.0 -9036000000.0 -9035940000.0 -9035900000.0 -9035860000.0 -9035840000.0 -9035820000.0 -9035810000.0 -9035800000.0 -9035790000.0 -9035780000.0 -9035770000.0 -9035770000.0 -9035770000.0 -9035760000.0 -9035760000.0 -9035760000.0 -9035760000.0 -9035750000.0 -9035750000.0 -9035750000.0 -9035750000.0 -9035750000.0 -9035760000.0 -9035760000.0 -9035760000.0 -9035760000.0 -9035770000.0 -9035770000.0 -9035770000.0 -9035780000.0 -9035790000.0 -9035800000.0 -9035810000.0 -9035820000.0 -9035840000.0 -9035860000.0 -9035900000.0 -9035940000.0 -9036000000.0 -9036080000.0 -9036180000.0 -9036330000.0 -9036540000.0 -9036830000.0 -9037250000.0 -9044100000.0 -9039000000.0 -9367620000.0 -9057270000.0 -10647900000.0 -9138810000.0 -11766500000.0 -10629000000.0 -13462400000.0 -13945100000.0 -16793400000.0 -17605100000.0 -16712900000.0 -15989700000.0 -13343800000.0 -12903500000.0 -10355900000.0 -11250600000.0 -9112570000.0 -10307400000.0 -9051390000.0 -9274070000.0 -9038590000.0 -9041370000.0 -9037120000.0 -9036740000.0 -9036470000.0 -9036280000.0 -9036140000.0 -9036050000.0 -9035970000.0 -9035920000.0 -9035880000.0 -9035850000.0 -9035830000.0 -9035820000.0 -9035800000.0 -9035790000.0 -9035780000.0 -9035780000.0 -9035770000.0 -9035770000.0 -9035760000.0 -9035760000.0 -9035760000.0 -9035760000.0 -9035750000.0 -9035750000.0 -9035750000.0 -9035750000.0 -9035750000.0 -9035750000.0 -9035750000.0 -9035760000.0 -9035760000.0 -9035760000.0 -9035760000.0 -9035770000.0 -9035770000.0 -9035780000.0 -9035780000.0 -9035790000.0 -9035800000.0 -9035820000.0 -9035830000.0 -9035850000.0 -9035880000.0 -9035920000.0 -9035970000.0 -9036050000.0 -9036140000.0 -9036280000.0 -9036470000.0 -9036740000.0 -9037120000.0 -9041370000.0 -9038590000.0 -9274070000.0 -9051390000.0 -10307400000.0 -9112570000.0 -11250600000.0 -10355900000.0 -12903500000.0 -13343800000.0 -15989700000.0 -16712900000.0 -15882600000.0 -15239500000.0 -12803300000.0 -12397100000.0 -10123800000.0 -10822200000.0 -9092830000.0 -10032400000.0 -9047250000.0 -9205720000.0 -9038260000.0 -9039650000.0 -9036990000.0 -9036640000.0 -9036400000.0 -9036230000.0 -9036110000.0 -9036020000.0 -9035950000.0 -9035910000.0 -9035870000.0 -9035840000.0 -9035820000.0 -9035810000.0 -9035800000.0 -9035790000.0 -9035780000.0 -9035770000.0 -9035770000.0 -9035770000.0 -9035760000.0 -9035760000.0 -9035760000.0 -9035760000.0 -9035750000.0 -9035750000.0 -9035750000.0 -9035750000.0 -9035750000.0 -9035750000.0 -9035750000.0 -9035760000.0 -9035760000.0 -9035760000.0 -9035760000.0 -9035770000.0 -9035770000.0 -9035770000.0 -9035780000.0 -9035790000.0 -9035800000.0 -9035810000.0 -9035820000.0 -9035840000.0 -9035870000.0 -9035910000.0 -9035950000.0 -9036020000.0 -9036110000.0 -9036230000.0 -9036400000.0 -9036640000.0 -9036990000.0 -9039650000.0 -9038260000.0 -9205720000.0 -9047250000.0 -10032400000.0 -9092830000.0 -10822200000.0 -10123800000.0 -12397100000.0 -12803300000.0 -15239500000.0 -15882600000.0 -15110800000.0 -14540200000.0 -12317400000.0 -11940100000.0 -9927610000.0 -10468500000.0 -9078090000.0 -9811850000.0 -9044350000.0 -9156210000.0 -9037980000.0 -9038550000.0 -9036870000.0 -9036560000.0 -9036340000.0 -9036180000.0 -9036070000.0 -9035990000.0 -9035930000.0 -9035890000.0 -9035860000.0 -9035830000.0 -9035820000.0 -9035800000.0 -9035790000.0 -9035780000.0 -9035780000.0 -9035770000.0 -9035770000.0 -9035760000.0 -9035760000.0 -9035760000.0 -9035760000.0 -9035760000.0 -9035750000.0 -9035750000.0 -9035750000.0 -9035750000.0 -9035750000.0 -9035750000.0 -9035750000.0 -9035760000.0 -9035760000.0 -9035760000.0 -9035760000.0 -9035760000.0 -9035770000.0 -9035770000.0 -9035780000.0 -9035780000.0 -9035790000.0 -9035800000.0 -9035820000.0 -9035830000.0 -9035860000.0 -9035890000.0 -9035930000.0 -9035990000.0 -9036070000.0 -9036180000.0 -9036340000.0 -9036560000.0 -9036870000.0 -9038550000.0 -9037980000.0 -9156210000.0 -9044350000.0 -9811850000.0 -9078090000.0 -10468500000.0 -9927610000.0 -11940100000.0 -12317400000.0 -14540200000.0 -15110800000.0 -14393600000.0 -13889100000.0 -11880300000.0 -11529400000.0 -9762500000.0 -10178000000.0 -9067130000.0 -9636220000.0 -9042310000.0 -9120620000.0 -9037730000.0 -9037850000.0 -9036750000.0 -9036470000.0 -9036280000.0 -9036140000.0 -9036040000.0 -9035970000.0 -9035910000.0 -9035870000.0 -9035850000.0 -9035830000.0 -9035810000.0 -9035800000.0 -9035790000.0 -9035780000.0 -9035770000.0 -9035770000.0 -9035770000.0 -9035760000.0 -9035760000.0 -9035760000.0 -9035760000.0 -9035760000.0 -9035750000.0 -9035750000.0 -9035750000.0 -9035750000.0 -9035750000.0 -9035750000.0 -9035750000.0 -9035760000.0 -9035760000.0 -9035760000.0 -9035760000.0 -9035760000.0 -9035770000.0 -9035770000.0 -9035770000.0 -9035780000.0 -9035790000.0 -9035800000.0 -9035810000.0 -9035830000.0 -9035850000.0 -9035870000.0 -9035910000.0 -9035970000.0 -9036040000.0 -9036140000.0 -9036280000.0 -9036470000.0 -9036750000.0 -9037850000.0 -9037730000.0 -9120620000.0 -9042310000.0 -9636220000.0 -9067130000.0 -10178000000.0 -9762500000.0 -11529400000.0 -11880300000.0 -13889100000.0 -14393600000.0 -13726700000.0 -13282900000.0 -11486400000.0 -11161200000.0 -9624180000.0 -9940720000.0 -9059030000.0 -9497280000.0 -9040850000.0 -9095230000.0 -9037500000.0 -9037380000.0 -9036640000.0 -9036390000.0 -9036220000.0 -9036090000.0 -9036000000.0 -9035940000.0 -9035890000.0 -9035860000.0 -9035840000.0 -9035820000.0 -9035800000.0 -9035790000.0 -9035780000.0 -9035780000.0 -9035770000.0 -9035770000.0 -9035760000.0 -9035760000.0 -9035760000.0 -9035760000.0 -9035760000.0 -9035760000.0 -9035750000.0 -9035750000.0 -9035750000.0 -9035750000.0 -9035750000.0 -9035750000.0 -9035750000.0 -9035760000.0 -9035760000.0 -9035760000.0 -9035760000.0 -9035760000.0 -9035760000.0 -9035770000.0 -9035770000.0 -9035780000.0 -9035780000.0 -9035790000.0 -9035800000.0 -9035820000.0 -9035840000.0 -9035860000.0 -9035890000.0 -9035940000.0 -9036000000.0 -9036090000.0 -9036220000.0 -9036390000.0 -9036640000.0 -9037380000.0 -9037500000.0 -9095230000.0 -9040850000.0 -9497280000.0 -9059030000.0 -9940720000.0 -9624180000.0 -11161200000.0 -11486400000.0 -13282900000.0 -13726700000.0 -13105900000.0 -12718400000.0 -11130700000.0 -10831800000.0 -9508730000.0 -9747720000.0 -9053060000.0 -9388020000.0 -9039790000.0 -9077240000.0 -9037290000.0 -9037050000.0 -9036530000.0 -9036310000.0 -9036160000.0 -9036050000.0 -9035970000.0 -9035920000.0 -9035880000.0 -9035850000.0 -9035820000.0 -9035810000.0 -9035800000.0 -9035790000.0 -9035780000.0 -9035770000.0 -9035770000.0 -9035770000.0 -9035760000.0 -9035760000.0 -9035760000.0 -9035760000.0 -9035760000.0 -9035750000.0 -9035750000.0 -9035750000.0 -9035750000.0 -9035750000.0 -9035750000.0 -9035750000.0 -9035750000.0 -9035750000.0 -9035760000.0 -9035760000.0 -9035760000.0 -9035760000.0 -9035760000.0 -9035770000.0 -9035770000.0 -9035770000.0 -9035780000.0 -9035790000.0 -9035800000.0 -9035810000.0 -9035820000.0 -9035850000.0 -9035880000.0 -9035920000.0 -9035970000.0 -9036050000.0 -9036160000.0 -9036310000.0 -9036530000.0 -9037050000.0 -9037290000.0 -9077240000.0 -9039790000.0 -9388020000.0 -9053060000.0 -9747720000.0 -9508730000.0 -10831800000.0 -11130700000.0 -12718400000.0 -13105900000.0 -12526600000.0 -12191600000.0 -10808300000.0 -10537300000.0 -9412620000.0 -9591310000.0 -9048640000.0 -9302530000.0 -9039000000.0 -9064550000.0 -9037080000.0 -9036810000.0 -9036430000.0 -9036240000.0 -9036110000.0 -9036010000.0 -9035940000.0 -9035900000.0 -9035860000.0 -9035830000.0 -9035810000.0 -9035800000.0 -9035790000.0 -9035780000.0 -9035780000.0 -9035770000.0 -9035770000.0 -9035760000.0 -9035760000.0 -9035760000.0 -9035760000.0 -9035760000.0 -9035760000.0 -9035750000.0 -9035750000.0 -9035750000.0 -9035750000.0 -9035750000.0 -9035750000.0 -9035750000.0 -9035750000.0 -9035750000.0 -9035760000.0 -9035760000.0 -9035760000.0 -9035760000.0 -9035760000.0 -9035760000.0 -9035770000.0 -9035770000.0 -9035780000.0 -9035780000.0 -9035790000.0 -9035800000.0 -9035810000.0 -9035830000.0 -9035860000.0 -9035900000.0 -9035940000.0 -9036010000.0 -9036110000.0 -9036240000.0 -9036430000.0 -9036810000.0 -9037080000.0 -9064550000.0 -9039000000.0 -9302530000.0 -9048640000.0 -9591310000.0 -9412620000.0 -10537300000.0 -10808300000.0 -12191600000.0 -12526600000.0 -11984000000.0 -11698700000.0 -10514600000.0 -10273800000.0 -9332690000.0 -9464790000.0 -9045360000.0 -9235890000.0 -9038370000.0 -9055640000.0 -9036880000.0 -9036610000.0 -9036330000.0 -9036160000.0 -9036050000.0 -9035970000.0 -9035920000.0 -9035870000.0 -9035840000.0 -9035820000.0 -9035810000.0 -9035790000.0 -9035780000.0 -9035780000.0 -9035770000.0 -9035770000.0 -9035760000.0 -9035760000.0 -9035760000.0 -9035760000.0 -9035760000.0 -9035760000.0 -9035760000.0 -9035750000.0 -9035750000.0 -9035750000.0 -9035750000.0 -9035750000.0 -9035750000.0 -9035750000.0 -9035750000.0 -9035750000.0 -9035760000.0 -9035760000.0 -9035760000.0 -9035760000.0 -9035760000.0 -9035760000.0 -9035760000.0 -9035770000.0 -9035770000.0 -9035780000.0 -9035780000.0 -9035790000.0 -9035810000.0 -9035820000.0 -9035840000.0 -9035870000.0 -9035920000.0 -9035970000.0 -9036050000.0 -9036160000.0 -9036330000.0 -9036610000.0 -9036880000.0 -9055640000.0 -9038370000.0 -9235890000.0 -9045360000.0 -9464790000.0 -9332690000.0 -10273800000.0 -10514600000.0 -11698700000.0 -11984000000.0 -11473300000.0 -11235500000.0 -10245500000.0 -10037000000.0 -9266070000.0 -9362380000.0 -9042880000.0 -9183980000.0 -9037850000.0 -9049390000.0 -9036700000.0 -9036450000.0 -9036230000.0 -9036100000.0 -9036000000.0 -9035940000.0 -9035890000.0 -9035850000.0 -9035830000.0 -9035810000.0 -9035800000.0 -9035790000.0 -9035780000.0 -9035770000.0 -9035770000.0 -9035770000.0 -9035760000.0 -9035760000.0 -9035760000.0 -9035760000.0 -9035760000.0 -9035760000.0 -9035750000.0 -9035750000.0 -9035750000.0 -9035750000.0 -9035750000.0 -9035750000.0 -9035750000.0 -9035750000.0 -9035750000.0 -9035750000.0 -9035750000.0 -9035760000.0 -9035760000.0 -9035760000.0 -9035760000.0 -9035760000.0 -9035760000.0 -9035770000.0 -9035770000.0 -9035770000.0 -9035780000.0 -9035790000.0 -9035800000.0 -9035810000.0 -9035830000.0 -9035850000.0 -9035890000.0 -9035940000.0 -9036000000.0 -9036100000.0 -9036230000.0 -9036450000.0 -9036700000.0 -9049390000.0 -9037850000.0 -9183980000.0 -9042880000.0 -9362380000.0 -9266070000.0 -10037000000.0 -10245500000.0 -11235500000.0 -11473300000.0 -10989800000.0 -10797700000.0 -9996760000.0 -9822960000.0 -9210220000.0 -9279030000.0 -9040980000.0 -9143410000.0 -9037400000.0 -9045000000.0 -9036510000.0 -9036310000.0 -9036140000.0 -9036030000.0 -9035950000.0 -9035900000.0 -9035860000.0 -9035830000.0 -9035810000.0 -9035800000.0 -9035790000.0 -9035780000.0 -9035770000.0 -9035770000.0 -9035770000.0 -9035760000.0 -9035760000.0 -9035760000.0 -9035760000.0 -9035760000.0 -9035760000.0 -9035750000.0 -9035750000.0 -9035750000.0 -9035750000.0 -9035750000.0 -9035750000.0 -9035750000.0 -9035750000.0 -9035750000.0 -9035750000.0 -9035750000.0 -9035750000.0 -9035750000.0 -9035760000.0 -9035760000.0 -9035760000.0 -9035760000.0 -9035760000.0 -9035760000.0 -9035770000.0 -9035770000.0 -9035770000.0 -9035780000.0 -9035790000.0 -9035800000.0 -9035810000.0 -9035830000.0 -9035860000.0 -9035900000.0 -9035950000.0 -9036030000.0 -9036140000.0 -9036310000.0 -9036510000.0 -9045000000.0 -9037400000.0 -9143410000.0 -9040980000.0 -9279030000.0 -9210220000.0 -9822960000.0 -9996760000.0 -10797700000.0 -10989800000.0 -10528400000.0 -10380600000.0 -9764450000.0 -9627370000.0 -9162820000.0 -9210380000.0 -9039480000.0 -9111350000.0 -9037000000.0 -9041870000.0 -9036340000.0 -9036180000.0 -9036050000.0 -9035970000.0 -9035910000.0 -9035870000.0 -9035840000.0 -9035820000.0 -9035800000.0 -9035790000.0 -9035780000.0 -9035770000.0 -9035770000.0 -9035770000.0 -9035760000.0 -9035760000.0 -9035760000.0 -9035760000.0 -9035760000.0 -9035760000.0 -9035760000.0 -9035750000.0 -9035750000.0 -9035750000.0 -9035750000.0 -9035750000.0 -9035750000.0 -9035750000.0 -9035750000.0 -9035750000.0 -9035750000.0 -9035750000.0 -9035750000.0 -9035750000.0 -9035760000.0 -9035760000.0 -9035760000.0 -9035760000.0 -9035760000.0 -9035760000.0 -9035760000.0 -9035770000.0 -9035770000.0 -9035770000.0 -9035780000.0 -9035790000.0 -9035800000.0 -9035820000.0 -9035840000.0 -9035870000.0 -9035910000.0 -9035970000.0 -9036050000.0 -9036180000.0 -9036340000.0 -9041870000.0 -9037000000.0 -9111350000.0 -9039480000.0 -9210380000.0 -9162820000.0 -9627370000.0 -9764450000.0 -10380600000.0 -10528400000.0 -10084200000.0 -9979890000.0 -9544760000.0 -9446120000.0 -9121750000.0 -9152590000.0 -9038240000.0 -9085450000.0 -9036620000.0 -9039590000.0 -9036160000.0 -9036050000.0 -9035960000.0 -9035900000.0 -9035860000.0 -9035830000.0 -9035810000.0 -9035800000.0 -9035790000.0 -9035780000.0 -9035770000.0 -9035770000.0 -9035760000.0 -9035760000.0 -9035760000.0 -9035760000.0 -9035760000.0 -9035760000.0 -9035760000.0 -9035750000.0 -9035750000.0 -9035750000.0 -9035750000.0 -9035750000.0 -9035750000.0 -9035750000.0 -9035750000.0 -9035750000.0 -9035750000.0 -9035750000.0 -9035750000.0 -9035750000.0 -9035750000.0 -9035750000.0 -9035750000.0 -9035750000.0 -9035760000.0 -9035760000.0 -9035760000.0 -9035760000.0 -9035760000.0 -9035760000.0 -9035760000.0 -9035770000.0 -9035770000.0 -9035780000.0 -9035790000.0 -9035800000.0 -9035810000.0 -9035830000.0 -9035860000.0 -9035900000.0 -9035960000.0 -9036050000.0 -9036160000.0 -9039590000.0 -9036620000.0 -9085450000.0 -9038240000.0 -9152590000.0 -9121750000.0 -9446120000.0 -9544760000.0 -9979890000.0 -10084200000.0 -9652320000.0 -9590730000.0 -9333970000.0 -9275040000.0 -9085070000.0 -9102230000.0 -9037170000.0 -9063690000.0 -9036260000.0 -9037840000.0 -9036000000.0 -9035930000.0 -9035880000.0 -9035840000.0 -9035820000.0 -9035800000.0 -9035790000.0 -9035780000.0 -9035770000.0 -9035770000.0 -9035760000.0 -9035760000.0 -9035760000.0 -9035760000.0 -9035760000.0 -9035760000.0 -9035760000.0 -9035750000.0 -9035750000.0 -9035750000.0 -9035750000.0 -9035750000.0 -9035750000.0 -9035750000.0 -9035750000.0 -9035750000.0 -9035750000.0 -9035750000.0 -9035750000.0 -9035750000.0 -9035750000.0 -9035750000.0 -9035750000.0 -9035750000.0 -9035750000.0 -9035750000.0 -9035750000.0 -9035750000.0 -9035760000.0 -9035760000.0 -9035760000.0 -9035760000.0 -9035760000.0 -9035760000.0 -9035760000.0 -9035770000.0 -9035770000.0 -9035780000.0 -9035790000.0 -9035800000.0 -9035820000.0 -9035840000.0 -9035880000.0 -9035930000.0 -9036000000.0 -9037840000.0 -9036260000.0 -9063690000.0 -9037170000.0 -9102230000.0 -9085070000.0 -9275040000.0 -9333970000.0 -9590730000.0 -9652320000.0 -9227650000.0 -9208450000.0 -9128430000.0 -9109980000.0 -9050950000.0 -9056170000.0 -9036190000.0 -9044290000.0 -9035910000.0 -9036380000.0 -9035830000.0 -9035810000.0 -9035790000.0 -9035780000.0 -9035770000.0 -9035770000.0 -9035760000.0 -9035760000.0 -9035760000.0 -9035760000.0 -9035760000.0 -9035760000.0 -9035760000.0 -9035750000.0 -9035750000.0 -9035750000.0 -9035750000.0 -9035750000.0 -9035750000.0 -9035750000.0 -9035750000.0 -9035750000.0 -9035750000.0 -9035750000.0 -9035750000.0 -9035750000.0 -9035750000.0 -9035750000.0 -9035750000.0 -9035750000.0 -9035750000.0 -9035750000.0 -9035750000.0 -9035750000.0 -9035750000.0 -9035750000.0 -9035750000.0 -9035750000.0 -9035750000.0 -9035750000.0 -9035750000.0 -9035750000.0 -9035760000.0 -9035760000.0 -9035760000.0 -9035760000.0 -9035760000.0 -9035760000.0 -9035760000.0 -9035770000.0 -9035770000.0 -9035780000.0 -9035790000.0 -9035810000.0 -9035830000.0 -9036380000.0 -9035910000.0 -9044290000.0 -9036190000.0 -9056170000.0 -9050950000.0 -9109980000.0 -9128430000.0 -9208450000.0 -9227650000.0 
SCALARS Shear_Stress float 1
LOOKUP_TABLE default
42568700000.0 42244900000.0 42244900000.0 42568700000.0 51093400000.0 342537000000.0 16846500000.0 17611200000.0 124635000000.0 106648000000.0 144075000000.0 133764000000.0 128317000000.0 127236000000.0 133508000000.0 141183000000.0 147701000000.0 152493000000.0 155491000000.0 156864000000.0 156900000000.0 155890000000.0 154161000000.0 152049000000.0 149823000000.0 147671000000.0 145726000000.0 144071000000.0 142739000000.0 141727000000.0 141018000000.0 140601000000.0 140464000000.0 140601000000.0 141018000000.0 141727000000.0 142739000000.0 144071000000.0 145726000000.0 147671000000.0 149823000000.0 152049000000.0 154161000000.0 155890000000.0 156900000000.0 156864000000.0 155491000000.0 152493000000.0 147701000000.0 141183000000.0 133508000000.0 127236000000.0 128317000000.0 133764000000.0 144075000000.0 106648000000.0 124635000000.0 17611200000.0 16846500000.0 342537000000.0 51093400000.0 65815800000.0 36196600000.0 212203000000.0 9018580000.0 66404000000.0 18878400000.0 135696000000.0 118315000000.0 129297000000.0 136940000000.0 146788000000.0 155152000000.0 161080000000.0 165160000000.0 168105000000.0 169995000000.0 170683000000.0 170288000000.0 169195000000.0 167780000000.0 166295000000.0 164920000000.0 163792000000.0 162955000000.0 162370000000.0 161981000000.0 161748000000.0 161634000000.0 161603000000.0 161634000000.0 161748000000.0 161981000000.0 162370000000.0 162955000000.0 163792000000.0 164920000000.0 166295000000.0 167780000000.0 169195000000.0 170288000000.0 170683000000.0 169995000000.0 168105000000.0 165160000000.0 161080000000.0 155152000000.0 146788000000.0 136940000000.0 129297000000.0 118315000000.0 135696000000.0 18878400000.0 66404000000.0 9018580000.0 212203000000.0 36196600000.0 65815800000.0 70322400000.0 75778500000.0 87006400000.0 53151500000.0 386781000000.0 296397000000.0 296397000000.0 386781000000.0 53151500000.0 87006400000.0 75778500000.0 70322400000.0 27344300000.0 116234000000.0 128024000000.0 176051000000.0 368136000000.0 253568000000.0 95003800000.0 49758100000.0 228277000000.0 218443000000.0 232734000000.0 225567000000.0 216551000000.0 208106000000.0 202666000000.0 199394000000.0 195140000000.0 189724000000.0 185515000000.0 183795000000.0 183952000000.0 184818000000.0 185609000000.0 186032000000.0 186085000000.0 185869000000.0 185500000000.0 185088000000.0 184729000000.0 184494000000.0 184414000000.0 184494000000.0 184729000000.0 185088000000.0 185500000000.0 185869000000.0 186085000000.0 186032000000.0 185609000000.0 184818000000.0 183952000000.0 183795000000.0 185515000000.0 189724000000.0 195140000000.0 199394000000.0 202666000000.0 208106000000.0 216551000000.0 225567000000.0 232734000000.0 218443000000.0 228277000000.0 49758100000.0 95003800000.0 253568000000.0 368136000000.0 176051000000.0 128024000000.0 116234000000.0 27344300000.0 32330300000.0 107807000000.0 71920100000.0 293125000000.0 400602000000.0 307971000000.0 260314000000.0 213817000000.0 93581300000.0 244654000000.0 262815000000.0 262069000000.0 259747000000.0 256643000000.0 252909000000.0 248317000000.0 242741000000.0 236363000000.0 229506000000.0 222464000000.0 215468000000.0 208719000000.0 202379000000.0 196564000000.0 191379000000.0 186905000000.0 183188000000.0 180257000000.0 178147000000.0 176877000000.0 176453000000.0 176877000000.0 178147000000.0 180257000000.0 183188000000.0 186905000000.0 191379000000.0 196564000000.0 202379000000.0 208719000000.0 215468000000.0 222464000000.0 229506000000.0 236363000000.0 242741000000.0 248317000000.0 252909000000.0 256643000000.0 259747000000.0 262069000000.0 262815000000.0 244654000000.0 93581300000.0 213817000000.0 260314000000.0 307971000000.0 400602000000.0 293125000000.0 71920100000.0 107807000000.0 32330300000.0 33049100000.0 5364690000.0 106838000000.0 55787400000.0 280813000000.0 404726000000.0 323253000000.0 17252100000.0 233096000000.0 233096000000.0 17252100000.0 323253000000.0 404726000000.0 280813000000.0 55787400000.0 106838000000.0 5364700000.0 33049100000.0 75496400000.0 67451000000.0 71862600000.0 441352000000.0 234191000000.0 217619000000.0 465118000000.0 321310000000.0 441841000000.0 171348000000.0 91390100000.0 110484000000.0 194041000000.0 228372000000.0 240440000000.0 242490000000.0 243035000000.0 240870000000.0 236918000000.0 232105000000.0 226786000000.0 221023000000.0 214862000000.0 208432000000.0 201907000000.0 195484000000.0 189335000000.0 183599000000.0 178403000000.0 173864000000.0 170059000000.0 167046000000.0 164873000000.0 163565000000.0 163128000000.0 163565000000.0 164873000000.0 167046000000.0 170059000000.0 173864000000.0 178403000000.0 183599000000.0 189335000000.0 195484000000.0 201907000000.0 208432000000.0 214862000000.0 221023000000.0 226786000000.0 232105000000.0 236918000000.0 240870000000.0 243035000000.0 242490000000.0 240440000000.0 228372000000.0 194041000000.0 110484000000.0 91390100000.0 171348000000.0 441841000000.0 321310000000.0 465118000000.0 217619000000.0 234191000000.0 441352000000.0 71862600000.0 67451000000.0 75496400000.0 37454900000.0 243138000000.0 186831000000.0 208082000000.0 464512000000.0 170553000000.0 367632000000.0 401388000000.0 227233000000.0 143787000000.0 173318000000.0 173318000000.0 143787000000.0 227233000000.0 401388000000.0 367632000000.0 170553000000.0 464512000000.0 208082000000.0 186831000000.0 243138000000.0 37454900000.0 121893000000.0 209660000000.0 222446000000.0 55002000000.0 428260000000.0 237105000000.0 19483200000.0 116703000000.0 141900000000.0 143784000000.0 182255000000.0 231161000000.0 238075000000.0 241825000000.0 240875000000.0 236723000000.0 230452000000.0 222931000000.0 214658000000.0 205912000000.0 196900000000.0 187815000000.0 178866000000.0 170236000000.0 162061000000.0 154480000000.0 147640000000.0 141669000000.0 136662000000.0 132696000000.0 129819000000.0 128068000000.0 127478000000.0 128068000000.0 129819000000.0 132696000000.0 136662000000.0 141669000000.0 147640000000.0 154480000000.0 162061000000.0 170236000000.0 178866000000.0 187815000000.0 196900000000.0 205912000000.0 214658000000.0 222931000000.0 230452000000.0 236723000000.0 240875000000.0 241825000000.0 238075000000.0 231161000000.0 182255000000.0 143784000000.0 141900000000.0 116703000000.0 19483200000.0 237105000000.0 428260000000.0 55002000000.0 222446000000.0 209660000000.0 121893000000.0 205846000000.0 147011000000.0 103379000000.0 158314000000.0 238180000000.0 360571000000.0 125087000000.0 109606000000.0 139990000000.0 293884000000.0 185918000000.0 182452000000.0 179890000000.0 176184000000.0 240000000000.0 237857000000.0 239806000000.0 233816000000.0 225777000000.0 216687000000.0 207304000000.0 197953000000.0 188689000000.0 179593000000.0 170811000000.0 162482000000.0 154692000000.0 147502000000.0 140965000000.0 135139000000.0 130092000000.0 125888000000.0 122569000000.0 120168000000.0 118716000000.0 118230000000.0 118716000000.0 120168000000.0 122569000000.0 125888000000.0 130092000000.0 135139000000.0 140965000000.0 147502000000.0 154692000000.0 162482000000.0 170811000000.0 179593000000.0 188689000000.0 197953000000.0 207304000000.0 216687000000.0 225777000000.0 233816000000.0 239806000000.0 237857000000.0 240000000000.0 176184000000.0 179890000000.0 182452000000.0 185918000000.0 293884000000.0 139990000000.0 109606000000.0 125087000000.0 360571000000.0 238180000000.0 158314000000.0 103379000000.0 147011000000.0 205846000000.0 118600000000.0 155923000000.0 349610000000.0 17904000000.0 395333000000.0 108948000000.0 56362600000.0 383924000000.0 11187500000.0 50385900000.0 50385900000.0 11187500000.0 383924000000.0 56362600000.0 108948000000.0 395333000000.0 17904000000.0 349610000000.0 155923000000.0 118600000000.0 266412000000.0 9515170000.0 25933400000.0 190898000000.0 77694400000.0 55132600000.0 25536500000.0 177680000000.0 158999000000.0 230655000000.0 286363000000.0 127360000000.0 345198000000.0 66460700000.0 299231000000.0 243050000000.0 296116000000.0 267093000000.0 244231000000.0 216747000000.0 190599000000.0 165903000000.0 144122000000.0 124286000000.0 106401000000.0 90621900000.0 76848100000.0 64924000000.0 54653100000.0 45861800000.0 38421700000.0 32223800000.0 27161200000.0 23136000000.0 20075500000.0 17929600000.0 16660200000.0 16240300000.0 16660200000.0 17929600000.0 20075500000.0 23136000000.0 27161200000.0 32223800000.0 38421700000.0 45861800000.0 54653100000.0 64924000000.0 76848100000.0 90621900000.0 106401000000.0 124286000000.0 144122000000.0 165903000000.0 190599000000.0 216747000000.0 244231000000.0 267093000000.0 296116000000.0 243050000000.0 299231000000.0 66460700000.0 345198000000.0 127360000000.0 286363000000.0 230655000000.0 158999000000.0 177680000000.0 25536500000.0 55132600000.0 77694400000.0 190898000000.0 25933400000.0 9515170000.0 266412000000.0 9512020000.0 53014900000.0 59038100000.0 664318000000.0 260116000000.0 33067700000.0 11302200000.0 366116000000.0 12970900000.0 34235700000.0 49507300000.0 63667400000.0 76998200000.0 84129400000.0 88214100000.0 90023400000.0 91064100000.0 90787100000.0 89389400000.0 87280400000.0 84685700000.0 81817800000.0 78831600000.0 75846400000.0 72964500000.0 70269800000.0 67837800000.0 65745700000.0 64062600000.0 62836400000.0 62093500000.0 61844800000.0 62093500000.0 62836400000.0 64062600000.0 65745700000.0 67837800000.0 70269800000.0 72964500000.0 75846400000.0 78831600000.0 81817800000.0 84685700000.0 87280400000.0 89389400000.0 90787100000.0 91064100000.0 90023400000.0 88214100000.0 84129400000.0 76998200000.0 63667400000.0 49507300000.0 34235700000.0 12970900000.0 366116000000.0 11302200000.0 33067700000.0 260116000000.0 664318000000.0 59038100000.0 53014900000.0 9512020000.0 89837900000.0 8492140000.0 17105800000.0 70104900000.0 241791000000.0 69283700000.0 67933300000.0 111351000000.0 9404410000.0 172461000000.0 172461000000.0 9404410000.0 111351000000.0 67933300000.0 69283700000.0 241791000000.0 70104900000.0 17105800000.0 8492140000.0 89837900000.0 45540900000.0 30189900000.0 28640800000.0 29691500000.0 290842000000.0 95669200000.0 301632000000.0 253615000000.0 59695400000.0 28699800000.0 374686000.0 102618000000.0 37344000000.0 177781000000.0 6222880000.0 43605400000.0 9035750000.0 9035750000.0 9035750000.0 9035750000.0 9035750000.0 9035750000.0 9035750000.0 9035750000.0 9035750000.0 9035750000.0 9035750000.0 9035750000.0 9035750000.0 9035750000.0 9035750000.0 9035750000.0 9035750000.0 9035750000.0 9035750000.0 9035750000.0 9035750000.0 9035790000.0 9035750000.0 9035750000.0 9035750000.0 9035750000.0 9035750000.0 9035750000.0 9035750000.0 9035750000.0 9035750000.0 9035750000.0 9035750000.0 9035750000.0 9035750000.0 9035750000.0 9035750000.0 9035750000.0 9035750000.0 9035750000.0 9035750000.0 9035750000.0 9035750000.0 43605400000.0 6222880000.0 177781000000.0 37344000000.0 102618000000.0 374686000.0 28699800000.0 59695400000.0 253615000000.0 301632000000.0 95669200000.0 290842000000.0 29691500000.0 28640800000.0 30189900000.0 45540900000.0 8846900000.0 24926000000.0 162142000000.0 125505000000.0 144063000000.0 31888600000.0 238861000000.0 217842000000.0 215356000000.0 199529000000.0 184906000000.0 171386000000.0 158161000000.0 144993000000.0 132077000000.0 119679000000.0 107984000000.0 97071600000.0 86972900000.0 77717900000.0 69332900000.0 61839800000.0 55251700000.0 49567500000.0 44778100000.0 40877000000.0 37860200000.0 35719500000.0 34442600000.0 34018400000.0 34442600000.0 35719500000.0 37860200000.0 40877000000.0 44778100000.0 49567500000.0 55251700000.0 61839800000.0 69332900000.0 77717900000.0 86972900000.0 97071600000.0 107984000000.0 119679000000.0 132077000000.0 144993000000.0 158161000000.0 171386000000.0 184906000000.0 199529000000.0 215356000000.0 217842000000.0 238861000000.0 31888600000.0 144063000000.0 125505000000.0 162142000000.0 24926000000.0 8846900000.0 73077100000.0 120443000000.0 8410440000.0 176936000000.0 50464400000.0 263364000000.0 31651900000.0 235819000000.0 235819000000.0 31651900000.0 263364000000.0 50464400000.0 176936000000.0 8410440000.0 120443000000.0 73077100000.0 61868700000.0 56093100000.0 4708810000.0 95986400000.0 12584200000.0 36836300000.0 103502000000.0 110968000000.0 10056000000.0 15275800000.0 23332100000.0 53633800000.0 3667010000.0 145536000000.0 9870050000.0 9035750000.0 9035750000.0 9035750000.0 9035750000.0 9035750000.0 9035750000.0 9035750000.0 9035750000.0 9035750000.0 9035750000.0 9035750000.0 9035750000.0 9035750000.0 9035750000.0 9035750000.0 9035750000.0 9035750000.0 9035750000.0 9035750000.0 9035750000.0 9035750000.0 9035750000.0 9035750000.0 9035750000.0 9035750000.0 9035750000.0 9035750000.0 9035750000.0 9035750000.0 9035750000.0 9035750000.0 9035750000.0 9035750000.0 9035750000.0 9035750000.0 9035750000.0 9035750000.0 9035750000.0 9035750000.0 9035750000.0 9035750000.0 9035750000.0 9035750000.0 9035750000.0 9035750000.0 9870050000.0 145536000000.0 3667010000.0 53633800000.0 23332100000.0 15275800000.0 10056000000.0 110968000000.0 103502000000.0 36836300000.0 12584200000.0 95986400000.0 4708810000.0 56093100000.0 61868700000.0 79935300000.0 32645300000.0 86046700000.0 26734000000.0 30712100000.0 202197000000.0 59679700000.0 99435000000.0 100419000000.0 122838000000.0 56555400000.0 114487000000.0 14726400000.0 104702000000.0 92213300000.0 80038400000.0 68898700000.0 58702300000.0 49594700000.0 41563600000.0 34464800000.0 28180800000.0 22637700000.0 17783600000.0 13575000000.0 9963660000.0 6897020000.0 4323620000.0 2188750000.0 433765000.0 994815000.0 2138620000.0 3029210000.0 3692410000.0 4149720000.0 4417420000.0 4505530000.0 4417420000.0 4149720000.0 3692410000.0 3029210000.0 2138620000.0 994815000.0 433765000.0 2188750000.0 4323620000.0 6897020000.0 9963660000.0 13575000000.0 17783600000.0 22637700000.0 28180800000.0 34464800000.0 41563600000.0 49594700000.0 58702300000.0 68898700000.0 80038400000.0 92213300000.0 104702000000.0 14726400000.0 114487000000.0 56555400000.0 122838000000.0 100419000000.0 99435000000.0 59679700000.0 202197000000.0 30712100000.0 26734000000.0 86046700000.0 32645300000.0 79935300000.0 40598700000.0 40598700000.0 82109400000.0 34423900000.0 68289700000.0 1240970000.0 8386260000.0 9070590000.0 202169000000.0 88749400000.0 15551200000.0 66149600000.0 7071020000.0 90866500000.0 7388170000.0 109086000000.0 9075380000.0 9035750000.0 9035750000.0 9035750000.0 9035750000.0 9035750000.0 9035750000.0 9035750000.0 9035750000.0 9035750000.0 9035750000.0 9035750000.0 9035750000.0 9035750000.0 9035760000.0 9035760000.0 9035750000.0 9035750000.0 9035750000.0 9035750000.0 9035750000.0 9035750000.0 9035750000.0 9035750000.0 9035750000.0 9035750000.0 9035750000.0 9035750000.0 9035750000.0 9035750000.0 9035750000.0 9035760000.0 9035760000.0 9035750000.0 9035750000.0 9035750000.0 9035750000.0 9035750000.0 9035750000.0 9035750000.0 9035750000.0 9035750000.0 9035750000.0 9035750000.0 9035750000.0 9035750000.0 9075380000.0 109086000000.0 7388170000.0 90866500000.0 7071020000.0 66149600000.0 15551200000.0 88749400000.0 202169000000.0 9070590000.0 8386260000.0 1240970000.0 68289700000.0 34423900000.0 82109400000.0 67056400000.0 30833200000.0 41750800000.0 184840000000.0 67621900000.0 13568000000.0 55478600000.0 8428700000.0 80694600000.0 4152830000.0 77521300000.0 304195000.0 1430490000.0 2929320000.0 4175610000.0 5205600000.0 6055050000.0 6744170000.0 7299010000.0 7742900000.0 8088060000.0 8349920000.0 8549540000.0 8701490000.0 8811590000.0 8885770000.0 8933400000.0 8963760000.0 8983860000.0 8998180000.0 9008860000.0 9016490000.0 9021400000.0 9024060000.0 9024900000.0 9024060000.0 9021400000.0 9016490000.0 9008860000.0 8998180000.0 8983860000.0 8963760000.0 8933400000.0 8885770000.0 8811590000.0 8701490000.0 8549540000.0 8349920000.0 8088060000.0 7742900000.0 7299010000.0 6744170000.0 6055050000.0 5205600000.0 4175610000.0 2929320000.0 1430490000.0 304195000.0 77521300000.0 4152830000.0 80694600000.0 8428700000.0 55478600000.0 13568000000.0 67621900000.0 184840000000.0 41750800000.0 30833200000.0 67056400000.0 74562100000.0 39342600000.0 75104400000.0 75104400000.0 39342600000.0 74562100000.0 73746800000.0 45382900000.0 61490500000.0 36042600000.0 44493700000.0 79320400000.0 163483000000.0 92530500000.0 8966400000.0 81256300000.0 8823770000.0 94288400000.0 9007320000.0 70408700000.0 9035870000.0 9035930000.0 9035940000.0 9035980000.0 9035970000.0 9035930000.0 9035890000.0 9035860000.0 9035830000.0 9035810000.0 9035790000.0 9035780000.0 9035780000.0 9035770000.0 9035770000.0 9035770000.0 9035760000.0 9035760000.0 9035760000.0 9035760000.0 9035760000.0 9035750000.0 9035750000.0 9035750000.0 9035750000.0 9035750000.0 9035760000.0 9035760000.0 9035760000.0 9035760000.0 9035760000.0 9035770000.0 9035770000.0 9035770000.0 9035780000.0 9035780000.0 9035790000.0 9035810000.0 9035830000.0 9035860000.0 9035890000.0 9035930000.0 9035970000.0 9035980000.0 9035940000.0 9035930000.0 9035870000.0 70408700000.0 9007320000.0 94288400000.0 8823770000.0 81256300000.0 8966400000.0 92530500000.0 163483000000.0 79320400000.0 44493700000.0 36042600000.0 61490500000.0 45382900000.0 73746800000.0 138796000000.0 9197740000.0 9449960000.0 89952600000.0 9036060000.0 55862100000.0 9036090000.0 9036220000.0 9036150000.0 9036090000.0 9036030000.0 9035960000.0 9035910000.0 9035870000.0 9035840000.0 9035820000.0 9035800000.0 9035790000.0 9035790000.0 9035780000.0 9035780000.0 9035770000.0 9035770000.0 9035760000.0 9035760000.0 9035760000.0 9035760000.0 9035750000.0 9035750000.0 9035750000.0 9035750000.0 9035750000.0 9035760000.0 9035760000.0 9035760000.0 9035760000.0 9035770000.0 9035770000.0 9035780000.0 9035780000.0 9035790000.0 9035790000.0 9035800000.0 9035820000.0 9035840000.0 9035870000.0 9035910000.0 9035960000.0 9036030000.0 9036090000.0 9036150000.0 9036220000.0 9036090000.0 55862100000.0 9036060000.0 89952600000.0 9449960000.0 9197740000.0 138796000000.0 72311200000.0 52045600000.0 59503600000.0 43222900000.0 52391800000.0 90747700000.0 88590500000.0 84486000000.0 84486000000.0 88590500000.0 90747700000.0 52391800000.0 43222900000.0 59503600000.0 52045600000.0 72311200000.0 71046400000.0 57443500000.0 58124100000.0 48031300000.0 53043100000.0 94736000000.0 119263000000.0 86308600000.0 10114800000.0 85774900000.0 9696910000.0 83615700000.0 9036560000.0 44339100000.0 9036290000.0 9036430000.0 9036270000.0 9036160000.0 9036070000.0 9035990000.0 9035930000.0 9035890000.0 9035860000.0 9035830000.0 9035820000.0 9035810000.0 9035800000.0 9035790000.0 9035780000.0 9035780000.0 9035770000.0 9035770000.0 9035760000.0 9035760000.0 9035760000.0 9035750000.0 9035750000.0 9035750000.0 9035750000.0 9035750000.0 9035760000.0 9035760000.0 9035760000.0 9035770000.0 9035770000.0 9035780000.0 9035780000.0 9035790000.0 9035800000.0 9035810000.0 9035820000.0 9035830000.0 9035860000.0 9035890000.0 9035930000.0 9035990000.0 9036070000.0 9036160000.0 9036270000.0 9036430000.0 9036290000.0 44339100000.0 9036560000.0 83615700000.0 9696910000.0 85774900000.0 10114800000.0 86308600000.0 119263000000.0 94736000000.0 53043100000.0 48031300000.0 58124100000.0 57443500000.0 71046400000.0 69751500000.0 61486100000.0 57913400000.0 52592600000.0 52800800000.0 96838800000.0 102086000000.0 82126100000.0 10510800000.0 85574000000.0 9909060000.0 76319000000.0 9036990000.0 35263300000.0 9036490000.0 9036560000.0 9036360000.0 9036220000.0 9036100000.0 9036020000.0 9035950000.0 9035910000.0 9035880000.0 9035850000.0 9035830000.0 9035820000.0 9035810000.0 9035800000.0 9035790000.0 9035780000.0 9035770000.0 9035770000.0 9035760000.0 9035760000.0 9035760000.0 9035750000.0 9035750000.0 9035750000.0 9035750000.0 9035750000.0 9035760000.0 9035760000.0 9035760000.0 9035770000.0 9035770000.0 9035780000.0 9035790000.0 9035800000.0 9035810000.0 9035820000.0 9035830000.0 9035850000.0 9035880000.0 9035910000.0 9035950000.0 9036020000.0 9036100000.0 9036220000.0 9036360000.0 9036560000.0 9036490000.0 35263300000.0 9036990000.0 76319000000.0 9909060000.0 85574000000.0 10510800000.0 82126100000.0 102086000000.0 96838800000.0 52800800000.0 52592600000.0 57913400000.0 61486100000.0 69751500000.0 68136300000.0 64159600000.0 57997100000.0 55393400000.0 50917200000.0 97038400000.0 87602900000.0 77815600000.0 10853000000.0 84019700000.0 10079300000.0 68599200000.0 9037370000.0 28192900000.0 9036680000.0 9036660000.0 9036430000.0 9036260000.0 9036140000.0 9036040000.0 9035980000.0 9035930000.0 9035890000.0 9035870000.0 9035850000.0 9035830000.0 9035810000.0 9035800000.0 9035790000.0 9035780000.0 9035780000.0 9035770000.0 9035770000.0 9035760000.0 9035760000.0 9035760000.0 9035750000.0 9035750000.0 9035750000.0 9035760000.0 9035760000.0 9035760000.0 9035770000.0 9035770000.0 9035780000.0 9035780000.0 9035790000.0 9035800000.0 9035810000.0 9035830000.0 9035850000.0 9035870000.0 9035890000.0 9035930000.0 9035980000.0 9036040000.0 9036140000.0 9036260000.0 9036430000.0 9036660000.0 9036680000.0 28192900000.0 9037370000.0 68599200000.0 10079300000.0 84019700000.0 10853000000.0 77815600000.0 87602900000.0 97038400000.0 50917200000.0 55393400000.0 57997100000.0 64159600000.0 68136300000.0 66138500000.0 65510600000.0 58233300000.0 56794100000.0 48366600000.0 95821400000.0 75165200000.0 73603500000.0 11123500000.0 81267500000.0 10202100000.0 60875100000.0 9037700000.0 22773500000.0 9036850000.0 9036740000.0 9036490000.0 9036310000.0 9036170000.0 9036070000.0 9036000000.0 9035950000.0 9035910000.0 9035880000.0 9035860000.0 9035840000.0 9035820000.0 9035810000.0 9035800000.0 9035790000.0 9035780000.0 9035770000.0 9035770000.0 9035760000.0 9035760000.0 9035760000.0 9035750000.0 9035750000.0 9035750000.0 9035760000.0 9035760000.0 9035760000.0 9035770000.0 9035770000.0 9035780000.0 9035790000.0 9035800000.0 9035810000.0 9035820000.0 9035840000.0 9035860000.0 9035880000.0 9035910000.0 9035950000.0 9036000000.0 9036070000.0 9036170000.0 9036310000.0 9036490000.0 9036740000.0 9036850000.0 22773500000.0 9037700000.0 60875100000.0 10202100000.0 81267500000.0 11123500000.0 73603500000.0 75165200000.0 95821400000.0 48366600000.0 56794100000.0 58233300000.0 65510600000.0 66138500000.0 63875000000.0 65661300000.0 58342800000.0 56921600000.0 45541200000.0 93437400000.0 64389000000.0 69590400000.0 11319500000.0 77525400000.0 10275200000.0 53444500000.0 9038000000.0 18696600000.0 9037010000.0 9036810000.0 9036540000.0 9036350000.0 9036200000.0 9036100000.0 9036030000.0 9035970000.0 9035930000.0 9035890000.0 9035870000.0 9035850000.0 9035830000.0 9035810000.0 9035800000.0 9035790000.0 9035780000.0 9035780000.0 9035770000.0 9035760000.0 9035760000.0 9035760000.0 9035750000.0 9035750000.0 9035750000.0 9035760000.0 9035760000.0 9035760000.0 9035770000.0 9035780000.0 9035780000.0 9035790000.0 9035800000.0 9035810000.0 9035830000.0 9035850000.0 9035870000.0 9035890000.0 9035930000.0 9035970000.0 9036030000.0 9036100000.0 9036200000.0 9036350000.0 9036540000.0 9036810000.0 9037010000.0 18696600000.0 9038000000.0 53444500000.0 10275200000.0 77525400000.0 11319500000.0 69590400000.0 64389000000.0 93437400000.0 45541200000.0 56921600000.0 58342800000.0 65661300000.0 63875000000.0 61478500000.0 64780600000.0 58072300000.0 56006800000.0 42690200000.0 90124200000.0 55039600000.0 65790300000.0 11442000000.0 73033600000.0 10300000000.0 46507800000.0 9038270000.0 15690200000.0 9037150000.0 9036880000.0 9036590000.0 9036390000.0 9036240000.0 9036130000.0 9036050000.0 9035990000.0 9035940000.0 9035910000.0 9035880000.0 9035850000.0 9035830000.0 9035820000.0 9035810000.0 9035790000.0 9035780000.0 9035780000.0 9035770000.0 9035760000.0 9035760000.0 9035760000.0 9035750000.0 9035750000.0 9035750000.0 9035760000.0 9035760000.0 9035760000.0 9035770000.0 9035780000.0 9035780000.0 9035790000.0 9035810000.0 9035820000.0 9035830000.0 9035850000.0 9035880000.0 9035910000.0 9035940000.0 9035990000.0 9036050000.0 9036130000.0 9036240000.0 9036390000.0 9036590000.0 9036880000.0 9037150000.0 15690200000.0 9038270000.0 46507800000.0 10300000000.0 73033600000.0 11442000000.0 65790300000.0 55039600000.0 90124200000.0 42690200000.0 56006800000.0 58072300000.0 64780600000.0 61478500000.0 59061000000.0 63060900000.0 57242100000.0 54303000000.0 39957000000.0 86095500000.0 46960600000.0 62170600000.0 11493800000.0 68030400000.0 10280800000.0 40194700000.0 9038500000.0 13519300000.0 9037270000.0 9036940000.0 9036640000.0 9036430000.0 9036270000.0 9036150000.0 9036070000.0 9036000000.0 9035950000.0 9035910000.0 9035880000.0 9035860000.0 9035840000.0 9035820000.0 9035810000.0 9035800000.0 9035790000.0 9035780000.0 9035770000.0 9035760000.0 9035760000.0 9035760000.0 9035750000.0 9035750000.0 9035750000.0 9035760000.0 9035760000.0 9035760000.0 9035770000.0 9035780000.0 9035790000.0 9035800000.0 9035810000.0 9035820000.0 9035840000.0 9035860000.0 9035880000.0 9035910000.0 9035950000.0 9036000000.0 9036070000.0 9036150000.0 9036270000.0 9036430000.0 9036640000.0 9036940000.0 9037270000.0 13519300000.0 9038500000.0 40194700000.0 10280800000.0 68030400000.0 11493800000.0 62170600000.0 46960600000.0 86095500000.0 39957000000.0 54303000000.0 57242100000.0 63060900000.0 59061000000.0 56682100000.0 60707100000.0 55811800000.0 52042300000.0 37418000000.0 81540700000.0 40033100000.0 58682600000.0 11480600000.0 62732400000.0 10224000000.0 34577700000.0 9038690000.0 11985700000.0 9037370000.0 9036990000.0 9036680000.0 9036460000.0 9036290000.0 9036170000.0 9036080000.0 9036010000.0 9035960000.0 9035920000.0 9035890000.0 9035860000.0 9035840000.0 9035820000.0 9035810000.0 9035800000.0 9035790000.0 9035780000.0 9035770000.0 9035760000.0 9035760000.0 9035760000.0 9035750000.0 9035750000.0 9035750000.0 9035760000.0 9035760000.0 9035760000.0 9035770000.0 9035780000.0 9035790000.0 9035800000.0 9035810000.0 9035820000.0 9035840000.0 9035860000.0 9035890000.0 9035920000.0 9035960000.0 9036010000.0 9036080000.0 9036170000.0 9036290000.0 9036460000.0 9036680000.0 9036990000.0 9037370000.0 11985700000.0 9038690000.0 34577700000.0 10224000000.0 62732400000.0 11480600000.0 58682600000.0 40033100000.0 81540700000.0 37418000000.0 52042300000.0 55811800000.0 60707100000.0 56682100000.0 54343000000.0 57922900000.0 53858800000.0 49424900000.0 35100700000.0 76627200000.0 34154900000.0 55280200000.0 11410800000.0 57326700000.0 10137600000.0 29681600000.0 9038850000.0 10927300000.0 9037450000.0 9037040000.0 9036720000.0 9036490000.0 9036310000.0 9036190000.0 9036090000.0 9036020000.0 9035970000.0 9035930000.0 9035890000.0 9035870000.0 9035850000.0 9035830000.0 9035810000.0 9035800000.0 9035790000.0 9035780000.0 9035770000.0 9035770000.0 9035760000.0 9035760000.0 9035750000.0 9035750000.0 9035750000.0 9035760000.0 9035760000.0 9035770000.0 9035770000.0 9035780000.0 9035790000.0 9035800000.0 9035810000.0 9035830000.0 9035850000.0 9035870000.0 9035890000.0 9035930000.0 9035970000.0 9036020000.0 9036090000.0 9036190000.0 9036310000.0 9036490000.0 9036720000.0 9037040000.0 9037450000.0 10927300000.0 9038850000.0 29681600000.0 10137600000.0 57326700000.0 11410800000.0 55280200000.0 34154900000.0 76627200000.0 35100700000.0 49424900000.0 53858800000.0 57922900000.0 54343000000.0 52026700000.0 54895300000.0 51514500000.0 46615800000.0 32996200000.0 71502900000.0 29227900000.0 51929300000.0 11293700000.0 51967700000.0 10030700000.0 25493500000.0 9038980000.0 10215000000.0 9037510000.0 9037080000.0 9036750000.0 9036510000.0 9036330000.0 9036200000.0 9036100000.0 9036030000.0 9035980000.0 9035930000.0 9035900000.0 9035870000.0 9035850000.0 9035830000.0 9035810000.0 9035800000.0 9035790000.0 9035780000.0 9035770000.0 9035770000.0 9035760000.0 9035760000.0 9035750000.0 9035750000.0 9035750000.0 9035760000.0 9035760000.0 9035770000.0 9035770000.0 9035780000.0 9035790000.0 9035800000.0 9035810000.0 9035830000.0 9035850000.0 9035870000.0 9035900000.0 9035930000.0 9035980000.0 9036030000.0 9036100000.0 9036200000.0 9036330000.0 9036510000.0 9036750000.0 9037080000.0 9037510000.0 10215000000.0 9038980000.0 25493500000.0 10030700000.0 51967700000.0 11293700000.0 51929300000.0 29227900000.0 71502900000.0 32996200000.0 46615800000.0 51514500000.0 54895300000.0 52026700000.0 49732500000.0 51781000000.0 48915300000.0 43745700000.0 31075600000.0 66297700000.0 25151500000.0 48612100000.0 11140000000.0 46778600000.0 9911960000.0 21974200000.0 9039080000.0 9748590000.0 9037560000.0 9037100000.0 9036770000.0 9036520000.0 9036340000.0 9036210000.0 9036110000.0 9036040000.0 9035980000.0 9035930000.0 9035900000.0 9035870000.0 9035850000.0 9035830000.0 9035810000.0 9035800000.0 9035790000.0 9035780000.0 9035770000.0 9035770000.0 9035760000.0 9035760000.0 9035750000.0 9035750000.0 9035750000.0 9035760000.0 9035760000.0 9035770000.0 9035770000.0 9035780000.0 9035790000.0 9035800000.0 9035810000.0 9035830000.0 9035850000.0 9035870000.0 9035900000.0 9035930000.0 9035980000.0 9036040000.0 9036110000.0 9036210000.0 9036340000.0 9036520000.0 9036770000.0 9037100000.0 9037560000.0 9748590000.0 9039080000.0 21974200000.0 9911960000.0 46778600000.0 11140000000.0 48612100000.0 25151500000.0 66297700000.0 31075600000.0 43745700000.0 48915300000.0 51781000000.0 49732500000.0 47476600000.0 48699000000.0 46179700000.0 40913800000.0 29302300000.0 61123100000.0 21821800000.0 45327200000.0 10960500000.0 41853800000.0 9789280000.0 19067200000.0 9039140000.0 9452240000.0 9037590000.0 9037120000.0 9036780000.0 9036530000.0 9036350000.0 9036210000.0 9036110000.0 9036040000.0 9035980000.0 9035940000.0 9035900000.0 9035870000.0 9035850000.0 9035830000.0 9035810000.0 9035800000.0 9035790000.0 9035780000.0 9035770000.0 9035770000.0 9035760000.0 9035760000.0 9035750000.0 9035750000.0 9035750000.0 9035760000.0 9035760000.0 9035770000.0 9035770000.0 9035780000.0 9035790000.0 9035800000.0 9035810000.0 9035830000.0 9035850000.0 9035870000.0 9035900000.0 9035940000.0 9035980000.0 9036040000.0 9036110000.0 9036210000.0 9036350000.0 9036530000.0 9036780000.0 9037120000.0 9037590000.0 9452240000.0 9039140000.0 19067200000.0 9789280000.0 41853800000.0 10960500000.0 45327200000.0 21821800000.0 61123100000.0 29302300000.0 40913800000.0 46179700000.0 48699000000.0 47476600000.0 45278800000.0 45730900000.0 43402200000.0 38191000000.0 27641800000.0 56071300000.0 19133700000.0 42087300000.0 10765600000.0 37262700000.0 9669070000.0 16706100000.0 9039180000.0 9270220000.0 9037600000.0 9037130000.0 9036780000.0 9036530000.0 9036350000.0 9036210000.0 9036110000.0 9036040000.0 9035980000.0 9035940000.0 9035900000.0 9035870000.0 9035850000.0 9035830000.0 9035810000.0 9035800000.0 9035790000.0 9035780000.0 9035770000.0 9035770000.0 9035760000.0 9035760000.0 9035750000.0 9035750000.0 9035750000.0 9035760000.0 9035760000.0 9035770000.0 9035770000.0 9035780000.0 9035790000.0 9035800000.0 9035810000.0 9035830000.0 9035850000.0 9035870000.0 9035900000.0 9035940000.0 9035980000.0 9036040000.0 9036110000.0 9036210000.0 9036350000.0 9036530000.0 9036780000.0 9037130000.0 9037600000.0 9270220000.0 9039180000.0 16706100000.0 9669070000.0 37262700000.0 10765600000.0 42087300000.0 19133700000.0 56071300000.0 27641800000.0 38191000000.0 43402200000.0 45730900000.0 45278800000.0 43152600000.0 42926200000.0 40654300000.0 35623800000.0 26066600000.0 51214900000.0 16985500000.0 38915000000.0 10564400000.0 33053100000.0 9556240000.0 14820000000.0 9039180000.0 9162590000.0 9037600000.0 9037120000.0 9036780000.0 9036530000.0 9036350000.0 9036210000.0 9036110000.0 9036040000.0 9035980000.0 9035930000.0 9035900000.0 9035870000.0 9035850000.0 9035830000.0 9035810000.0 9035800000.0 9035790000.0 9035780000.0 9035770000.0 9035770000.0 9035760000.0 9035760000.0 9035750000.0 9035750000.0 9035750000.0 9035760000.0 9035760000.0 9035770000.0 9035770000.0 9035780000.0 9035790000.0 9035800000.0 9035810000.0 9035830000.0 9035850000.0 9035870000.0 9035900000.0 9035930000.0 9035980000.0 9036040000.0 9036110000.0 9036210000.0 9036350000.0 9036530000.0 9036780000.0 9037120000.0 9037600000.0 9162590000.0 9039180000.0 14820000000.0 9556240000.0 33053100000.0 10564400000.0 38915000000.0 16985500000.0 51214900000.0 26066600000.0 35623800000.0 40654300000.0 42926200000.0 43152600000.0 15282700000.0 10364900000.0 29253300000.0 9454150000.0 13338000000.0 9039160000.0 9101630000.0 9037580000.0 9037110000.0 9036770000.0 9036520000.0 9036340000.0 9036210000.0 9036110000.0 9036030000.0 9035980000.0 9035930000.0 9035900000.0 9035870000.0 9035850000.0 9035830000.0 9035810000.0 9035800000.0 9035790000.0 9035780000.0 9035770000.0 9035760000.0 9035760000.0 9035760000.0 9035750000.0 9035750000.0 9035750000.0 9035760000.0 9035760000.0 9035760000.0 9035770000.0 9035780000.0 9035790000.0 9035800000.0 9035810000.0 9035830000.0 9035850000.0 9035870000.0 9035900000.0 9035930000.0 9035980000.0 9036030000.0 9036110000.0 9036210000.0 9036340000.0 9036520000.0 9036770000.0 9037110000.0 9037580000.0 9101630000.0 9039160000.0 13338000000.0 9454150000.0 29253300000.0 10364900000.0 15282700000.0 41103800000.0 40309900000.0 37987900000.0 33238300000.0 24559100000.0 46608900000.0 35838400000.0 35838400000.0 46608900000.0 24559100000.0 33238300000.0 37987900000.0 40309900000.0 41103800000.0 39132200000.0 37889300000.0 35439100000.0 31043900000.0 23111700000.0 42292300000.0 13940900000.0 32887100000.0 10173500000.0 25874500000.0 9364780000.0 12192300000.0 9039120000.0 9068740000.0 9037560000.0 9037090000.0 9036750000.0 9036510000.0 9036330000.0 9036200000.0 9036100000.0 9036030000.0 9035970000.0 9035930000.0 9035890000.0 9035870000.0 9035840000.0 9035830000.0 9035810000.0 9035800000.0 9035790000.0 9035780000.0 9035770000.0 9035760000.0 9035760000.0 9035760000.0 9035750000.0 9035750000.0 9035750000.0 9035760000.0 9035760000.0 9035760000.0 9035770000.0 9035780000.0 9035790000.0 9035800000.0 9035810000.0 9035830000.0 9035840000.0 9035870000.0 9035890000.0 9035930000.0 9035970000.0 9036030000.0 9036100000.0 9036200000.0 9036330000.0 9036510000.0 9036750000.0 9037090000.0 9037560000.0 9068740000.0 9039120000.0 12192300000.0 9364780000.0 25874500000.0 10173500000.0 32887100000.0 13940900000.0 42292300000.0 23111700000.0 31043900000.0 35439100000.0 37889300000.0 39132200000.0 37234300000.0 35659200000.0 33030600000.0 29038000000.0 21724400000.0 38290700000.0 12887200000.0 30088900000.0 9994660000.0 22913100000.0 9288900000.0 11320500000.0 9039060000.0 9051960000.0 9037520000.0 9037060000.0 9036730000.0 9036490000.0 9036320000.0 9036190000.0 9036090000.0 9036020000.0 9035970000.0 9035920000.0 9035890000.0 9035860000.0 9035840000.0 9035820000.0 9035810000.0 9035800000.0 9035790000.0 9035780000.0 9035770000.0 9035760000.0 9035760000.0 9035760000.0 9035750000.0 9035750000.0 9035750000.0 9035760000.0 9035760000.0 9035760000.0 9035770000.0 9035780000.0 9035790000.0 9035800000.0 9035810000.0 9035820000.0 9035840000.0 9035860000.0 9035890000.0 9035920000.0 9035970000.0 9036020000.0 9036090000.0 9036190000.0 9036320000.0 9036490000.0 9036730000.0 9037060000.0 9037520000.0 9051960000.0 9039060000.0 11320500000.0 9288900000.0 22913100000.0 9994660000.0 30088900000.0 12887200000.0 38290700000.0 21724400000.0 29038000000.0 33030600000.0 35659200000.0 37234300000.0 35405400000.0 33607300000.0 30775400000.0 27209700000.0 20402100000.0 34617900000.0 12060700000.0 27467300000.0 9831800000.0 20353600000.0 9226340000.0 10667600000.0 9038980000.0 9043910000.0 9037470000.0 9037030000.0 9036710000.0 9036470000.0 9036300000.0 9036170000.0 9036080000.0 9036010000.0 9035960000.0 9035920000.0 9035880000.0 9035860000.0 9035840000.0 9035820000.0 9035810000.0 9035790000.0 9035790000.0 9035780000.0 9035770000.0 9035760000.0 9035760000.0 9035760000.0 9035750000.0 9035750000.0 9035750000.0 9035760000.0 9035760000.0 9035760000.0 9035770000.0 9035780000.0 9035790000.0 9035790000.0 9035810000.0 9035820000.0 9035840000.0 9035860000.0 9035880000.0 9035920000.0 9035960000.0 9036010000.0 9036080000.0 9036170000.0 9036300000.0 9036470000.0 9036710000.0 9037030000.0 9037470000.0 9043910000.0 9038980000.0 10667600000.0 9226340000.0 20353600000.0 9831800000.0 27467300000.0 12060700000.0 34617900000.0 20402100000.0 27209700000.0 30775400000.0 33607300000.0 35405400000.0 33641700000.0 31716900000.0 28678700000.0 25543600000.0 19152100000.0 31277500000.0 11412000000.0 25040500000.0 9686780000.0 18171200000.0 9176200000.0 10186100000.0 9038890000.0 9040290000.0 9037420000.0 9036990000.0 9036670000.0 9036450000.0 9036280000.0 9036160000.0 9036070000.0 9036000000.0 9035950000.0 9035910000.0 9035880000.0 9035850000.0 9035830000.0 9035820000.0 9035800000.0 9035790000.0 9035780000.0 9035780000.0 9035770000.0 9035760000.0 9035760000.0 9035760000.0 9035750000.0 9035750000.0 9035750000.0 9035760000.0 9035760000.0 9035760000.0 9035770000.0 9035780000.0 9035780000.0 9035790000.0 9035800000.0 9035820000.0 9035830000.0 9035850000.0 9035880000.0 9035910000.0 9035950000.0 9036000000.0 9036070000.0 9036160000.0 9036280000.0 9036450000.0 9036670000.0 9036990000.0 9037420000.0 9040290000.0 9038890000.0 10186100000.0 9176200000.0 18171200000.0 9686780000.0 25040500000.0 11412000000.0 31277500000.0 19152100000.0 25543600000.0 28678700000.0 31716900000.0 33641700000.0 31940600000.0 29970100000.0 26740600000.0 24022700000.0 17981800000.0 28265000000.0 10901900000.0 22820500000.0 9560360000.0 16334700000.0 9137130000.0 9836360000.0 9038780000.0 9038760000.0 9037360000.0 9036940000.0 9036640000.0 9036420000.0 9036260000.0 9036140000.0 9036060000.0 9035990000.0 9035940000.0 9035900000.0 9035870000.0 9035850000.0 9035830000.0 9035810000.0 9035800000.0 9035790000.0 9035780000.0 9035770000.0 9035770000.0 9035760000.0 9035760000.0 9035760000.0 9035750000.0 9035750000.0 9035750000.0 9035760000.0 9035760000.0 9035760000.0 9035770000.0 9035770000.0 9035780000.0 9035790000.0 9035800000.0 9035810000.0 9035830000.0 9035850000.0 9035870000.0 9035900000.0 9035940000.0 9035990000.0 9036060000.0 9036140000.0 9036260000.0 9036420000.0 9036640000.0 9036940000.0 9037360000.0 9038760000.0 9038780000.0 9836360000.0 9137130000.0 16334700000.0 9560360000.0 22820500000.0 10901900000.0 28265000000.0 17981800000.0 24022700000.0 26740600000.0 29970100000.0 31940600000.0 30301500000.0 28349900000.0 24957300000.0 22630200000.0 16897300000.0 25569600000.0 10499800000.0 20813000000.0 9452340000.0 14809000000.0 9107520000.0 9586150000.0 9038660000.0 9038120000.0 9037290000.0 9036890000.0 9036600000.0 9036390000.0 9036240000.0 9036130000.0 9036040000.0 9035980000.0 9035930000.0 9035900000.0 9035870000.0 9035850000.0 9035830000.0 9035810000.0 9035800000.0 9035790000.0 9035780000.0 9035770000.0 9035770000.0 9035760000.0 9035760000.0 9035760000.0 9035750000.0 9035750000.0 9035750000.0 9035760000.0 9035760000.0 9035760000.0 9035770000.0 9035770000.0 9035780000.0 9035790000.0 9035800000.0 9035810000.0 9035830000.0 9035850000.0 9035870000.0 9035900000.0 9035930000.0 9035980000.0 9036040000.0 9036130000.0 9036240000.0 9036390000.0 9036600000.0 9036890000.0 9037290000.0 9038120000.0 9038660000.0 9586150000.0 9107520000.0 14809000000.0 9452340000.0 20813000000.0 10499800000.0 25569600000.0 16897300000.0 22630200000.0 24957300000.0 28349900000.0 30301500000.0 28725000000.0 26840700000.0 23322800000.0 21351000000.0 15902400000.0 23175800000.0 10182000000.0 19018100000.0 9361830000.0 13557200000.0 9085710000.0 9409700000.0 9038530000.0 9037840000.0 9037220000.0 9036840000.0 9036560000.0 9036360000.0 9036220000.0 9036110000.0 9036030000.0 9035970000.0 9035930000.0 9035890000.0 9035860000.0 9035840000.0 9035820000.0 9035810000.0 9035800000.0 9035790000.0 9035780000.0 9035770000.0 9035770000.0 9035760000.0 9035760000.0 9035760000.0 9035750000.0 9035750000.0 9035750000.0 9035760000.0 9035760000.0 9035760000.0 9035770000.0 9035770000.0 9035780000.0 9035790000.0 9035800000.0 9035810000.0 9035820000.0 9035840000.0 9035860000.0 9035890000.0 9035930000.0 9035970000.0 9036030000.0 9036110000.0 9036220000.0 9036360000.0 9036560000.0 9036840000.0 9037220000.0 9037840000.0 9038530000.0 9409700000.0 9085710000.0 13557200000.0 9361830000.0 19018100000.0 10182000000.0 23175800000.0 15902400000.0 21351000000.0 23322800000.0 26840700000.0 28725000000.0 27212900000.0 25429600000.0 21829500000.0 20171900000.0 14998500000.0 21064600000.0 9930660000.0 17430800000.0 9287410000.0 12542600000.0 9070070000.0 9286980000.0 9038390000.0 9037680000.0 9037150000.0 9036790000.0 9036520000.0 9036330000.0 9036190000.0 9036090000.0 9036010000.0 9035960000.0 9035920000.0 9035880000.0 9035860000.0 9035840000.0 9035820000.0 9035810000.0 9035790000.0 9035780000.0 9035780000.0 9035770000.0 9035770000.0 9035760000.0 9035760000.0 9035750000.0 9035750000.0 9035750000.0 9035750000.0 9035750000.0 9035760000.0 9035760000.0 9035770000.0 9035770000.0 9035780000.0 9035780000.0 9035790000.0 9035810000.0 9035820000.0 9035840000.0 9035860000.0 9035880000.0 9035920000.0 9035960000.0 9036010000.0 9036090000.0 9036190000.0 9036330000.0 9036520000.0 9036790000.0 9037150000.0 9037680000.0 9038390000.0 9286980000.0 9070070000.0 12542600000.0 9287410000.0 17430800000.0 9930660000.0 21064600000.0 14998500000.0 20171900000.0 21829500000.0 25429600000.0 27212900000.0 25767200000.0 24105900000.0 20469100000.0 19082600000.0 14184700000.0 19214900000.0 9731740000.0 16041700000.0 9227330000.0 11729700000.0 9059180000.0 9202780000.0 9038250000.0 9037560000.0 9037080000.0 9036730000.0 9036480000.0 9036300000.0 9036170000.0 9036070000.0 9036000000.0 9035950000.0 9035910000.0 9035870000.0 9035850000.0 9035830000.0 9035810000.0 9035800000.0 9035790000.0 9035780000.0 9035780000.0 9035770000.0 9035760000.0 9035760000.0 9035760000.0 9035750000.0 9035750000.0 9035750000.0 9035750000.0 9035750000.0 9035760000.0 9035760000.0 9035760000.0 9035770000.0 9035780000.0 9035780000.0 9035790000.0 9035800000.0 9035810000.0 9035830000.0 9035850000.0 9035870000.0 9035910000.0 9035950000.0 9036000000.0 9036070000.0 9036170000.0 9036300000.0 9036480000.0 9036730000.0 9037080000.0 9037560000.0 9038250000.0 9202780000.0 9059180000.0 11729700000.0 9227330000.0 16041700000.0 9731740000.0 19214900000.0 14184700000.0 19082600000.0 20469100000.0 24105900000.0 25767200000.0 24389900000.0 22861300000.0 19233000000.0 18074600000.0 13458000000.0 17604800000.0 9574540000.0 14838500000.0 9179700000.0 11086100000.0 9051790000.0 9145740000.0 9038110000.0 9037450000.0 9037000000.0 9036670000.0 9036440000.0 9036270000.0 9036140000.0 9036050000.0 9035980000.0 9035930000.0 9035900000.0 9035870000.0 9035840000.0 9035820000.0 9035810000.0 9035800000.0 9035790000.0 9035780000.0 9035770000.0 9035770000.0 9035760000.0 9035760000.0 9035760000.0 9035750000.0 9035750000.0 9035750000.0 9035750000.0 9035750000.0 9035760000.0 9035760000.0 9035760000.0 9035770000.0 9035770000.0 9035780000.0 9035790000.0 9035800000.0 9035810000.0 9035820000.0 9035840000.0 9035870000.0 9035900000.0 9035930000.0 9035980000.0 9036050000.0 9036140000.0 9036270000.0 9036440000.0 9036670000.0 9037000000.0 9037450000.0 9038110000.0 9145740000.0 9051790000.0 11086100000.0 9179700000.0 14838500000.0 9574540000.0 17604800000.0 13458000000.0 18074600000.0 19233000000.0 22861300000.0 24389900000.0 23082600000.0 21689500000.0 18112400000.0 17141500000.0 12813900000.0 16211800000.0 9450650000.0 13806500000.0 9142610000.0 10582000000.0 9046900000.0 9107590000.0 9037960000.0 9037350000.0 9036920000.0 9036610000.0 9036390000.0 9036230000.0 9036120000.0 9036030000.0 9035970000.0 9035920000.0 9035890000.0 9035860000.0 9035840000.0 9035820000.0 9035810000.0 9035790000.0 9035790000.0 9035780000.0 9035770000.0 9035770000.0 9035760000.0 9035760000.0 9035760000.0 9035750000.0 9035750000.0 9035750000.0 9035750000.0 9035750000.0 9035760000.0 9035760000.0 9035760000.0 9035770000.0 9035770000.0 9035780000.0 9035790000.0 9035790000.0 9035810000.0 9035820000.0 9035840000.0 9035860000.0 9035890000.0 9035920000.0 9035970000.0 9036030000.0 9036120000.0 9036230000.0 9036390000.0 9036610000.0 9036920000.0 9037350000.0 9037960000.0 9107590000.0 9046900000.0 10582000000.0 9142610000.0 13806500000.0 9450650000.0 16211800000.0 12813900000.0 17141500000.0 18112400000.0 21689500000.0 23082600000.0 21846300000.0 20585800000.0 17098500000.0 16278700000.0 12247000000.0 15013900000.0 9353420000.0 12929800000.0 9114220000.0 10191500000.0 9043730000.0 9082370000.0 9037820000.0 9037240000.0 9036840000.0 9036560000.0 9036350000.0 9036200000.0 9036090000.0 9036010000.0 9035950000.0 9035910000.0 9035880000.0 9035850000.0 9035830000.0 9035810000.0 9035800000.0 9035790000.0 9035780000.0 9035780000.0 9035770000.0 9035770000.0 9035760000.0 9035760000.0 9035760000.0 9035750000.0 9035750000.0 9035750000.0 9035750000.0 9035750000.0 9035760000.0 9035760000.0 9035760000.0 9035770000.0 9035770000.0 9035780000.0 9035780000.0 9035790000.0 9035800000.0 9035810000.0 9035830000.0 9035850000.0 9035880000.0 9035910000.0 9035950000.0 9036010000.0 9036090000.0 9036200000.0 9036350000.0 9036560000.0 9036840000.0 9037240000.0 9037820000.0 9082370000.0 9043730000.0 10191500000.0 9114220000.0 12929800000.0 9353420000.0 15013900000.0 12247000000.0 16278700000.0 17098500000.0 20585800000.0 21846300000.0 20681300000.0 19546800000.0 16183000000.0 15482200000.0 11751400000.0 13989800000.0 9277540000.0 12191600000.0 9092870000.0 9892200000.0 9041710000.0 9065890000.0 9037670000.0 9037140000.0 9036760000.0 9036500000.0 9036310000.0 9036170000.0 9036070000.0 9035990000.0 9035940000.0 9035900000.0 9035870000.0 9035840000.0 9035820000.0 9035810000.0 9035800000.0 9035790000.0 9035780000.0 9035770000.0 9035770000.0 9035760000.0 9035760000.0 9035760000.0 9035760000.0 9035750000.0 9035750000.0 9035750000.0 9035750000.0 9035750000.0 9035760000.0 9035760000.0 9035760000.0 9035760000.0 9035770000.0 9035770000.0 9035780000.0 9035790000.0 9035800000.0 9035810000.0 9035820000.0 9035840000.0 9035870000.0 9035900000.0 9035940000.0 9035990000.0 9036070000.0 9036170000.0 9036310000.0 9036500000.0 9036760000.0 9037140000.0 9037670000.0 9065890000.0 9041710000.0 9892200000.0 9092870000.0 12191600000.0 9277540000.0 13989800000.0 11751400000.0 15482200000.0 16183000000.0 19546800000.0 20681300000.0 19587100000.0 18569900000.0 15357400000.0 14749200000.0 11320700000.0 13119500000.0 9218710000.0 11575700000.0 9077060000.0 9665110000.0 9040420000.0 9055240000.0 9037530000.0 9037030000.0 9036690000.0 9036440000.0 9036260000.0 9036140000.0 9036040000.0 9035970000.0 9035920000.0 9035890000.0 9035860000.0 9035840000.0 9035820000.0 9035810000.0 9035790000.0 9035790000.0 9035780000.0 9035770000.0 9035770000.0 9035760000.0 9035760000.0 9035760000.0 9035760000.0 9035750000.0 9035750000.0 9035750000.0 9035750000.0 9035750000.0 9035760000.0 9035760000.0 9035760000.0 9035760000.0 9035770000.0 9035770000.0 9035780000.0 9035790000.0 9035790000.0 9035810000.0 9035820000.0 9035840000.0 9035860000.0 9035890000.0 9035920000.0 9035970000.0 9036040000.0 9036140000.0 9036260000.0 9036440000.0 9036690000.0 9037030000.0 9037530000.0 9055240000.0 9040420000.0 9665110000.0 9077060000.0 11575700000.0 9218710000.0 13119500000.0 11320700000.0 14749200000.0 15357400000.0 18569900000.0 19587100000.0 18562300000.0 17652700000.0 14613900000.0 14076700000.0 10948600000.0 12384200000.0 9173410000.0 11066000000.0 9065540000.0 9494530000.0 9039580000.0 9048420000.0 9037390000.0 9036930000.0 9036610000.0 9036390000.0 9036220000.0 9036110000.0 9036020000.0 9035960000.0 9035910000.0 9035870000.0 9035850000.0 9035830000.0 9035810000.0 9035800000.0 9035790000.0 9035780000.0 9035780000.0 9035770000.0 9035770000.0 9035760000.0 9035760000.0 9035760000.0 9035760000.0 9035750000.0 9035750000.0 9035750000.0 9035750000.0 9035750000.0 9035760000.0 9035760000.0 9035760000.0 9035760000.0 9035770000.0 9035770000.0 9035780000.0 9035780000.0 9035790000.0 9035800000.0 9035810000.0 9035830000.0 9035850000.0 9035870000.0 9035910000.0 9035960000.0 9036020000.0 9036110000.0 9036220000.0 9036390000.0 9036610000.0 9036930000.0 9037390000.0 9048420000.0 9039580000.0 9494530000.0 9065540000.0 11066000000.0 9173410000.0 12384200000.0 10948600000.0 14076700000.0 14613900000.0 17652700000.0 18562300000.0 17605100000.0 16793400000.0 13945100000.0 13462400000.0 10629000000.0 11766500000.0 9138810000.0 10647900000.0 9057270000.0 9367620000.0 9039000000.0 9044100000.0 9037250000.0 9036830000.0 9036540000.0 9036330000.0 9036180000.0 9036080000.0 9036000000.0 9035940000.0 9035900000.0 9035860000.0 9035840000.0 9035820000.0 9035810000.0 9035800000.0 9035790000.0 9035780000.0 9035770000.0 9035770000.0 9035770000.0 9035760000.0 9035760000.0 9035760000.0 9035760000.0 9035750000.0 9035750000.0 9035750000.0 9035750000.0 9035750000.0 9035760000.0 9035760000.0 9035760000.0 9035760000.0 9035770000.0 9035770000.0 9035770000.0 9035780000.0 9035790000.0 9035800000.0 9035810000.0 9035820000.0 9035840000.0 9035860000.0 9035900000.0 9035940000.0 9036000000.0 9036080000.0 9036180000.0 9036330000.0 9036540000.0 9036830000.0 9037250000.0 9044100000.0 9039000000.0 9367620000.0 9057270000.0 10647900000.0 9138810000.0 11766500000.0 10629000000.0 13462400000.0 13945100000.0 16793400000.0 17605100000.0 16712900000.0 15989700000.0 13343800000.0 12903500000.0 10355900000.0 11250600000.0 9112570000.0 10307400000.0 9051390000.0 9274070000.0 9038590000.0 9041370000.0 9037120000.0 9036740000.0 9036470000.0 9036280000.0 9036140000.0 9036050000.0 9035970000.0 9035920000.0 9035880000.0 9035850000.0 9035830000.0 9035820000.0 9035800000.0 9035790000.0 9035780000.0 9035780000.0 9035770000.0 9035770000.0 9035760000.0 9035760000.0 9035760000.0 9035760000.0 9035750000.0 9035750000.0 9035750000.0 9035750000.0 9035750000.0 9035750000.0 9035750000.0 9035760000.0 9035760000.0 9035760000.0 9035760000.0 9035770000.0 9035770000.0 9035780000.0 9035780000.0 9035790000.0 9035800000.0 9035820000.0 9035830000.0 9035850000.0 9035880000.0 9035920000.0 9035970000.0 9036050000.0 9036140000.0 9036280000.0 9036470000.0 9036740000.0 9037120000.0 9041370000.0 9038590000.0 9274070000.0 9051390000.0 10307400000.0 9112570000.0 11250600000.0 10355900000.0 12903500000.0 13343800000.0 15989700000.0 16712900000.0 15882600000.0 15239500000.0 12803300000.0 12397100000.0 10123800000.0 10822200000.0 9092830000.0 10032400000.0 9047250000.0 9205720000.0 9038260000.0 9039650000.0 9036990000.0 9036640000.0 9036400000.0 9036230000.0 9036110000.0 9036020000.0 9035950000.0 9035910000.0 9035870000.0 9035840000.0 9035820000.0 9035810000.0 9035800000.0 9035790000.0 9035780000.0 9035770000.0 9035770000.0 9035770000.0 9035760000.0 9035760000.0 9035760000.0 9035760000.0 9035750000.0 9035750000.0 9035750000.0 9035750000.0 9035750000.0 9035750000.0 9035750000.0 9035760000.0 9035760000.0 9035760000.0 9035760000.0 9035770000.0 9035770000.0 9035770000.0 9035780000.0 9035790000.0 9035800000.0 9035810000.0 9035820000.0 9035840000.0 9035870000.0 9035910000.0 9035950000.0 9036020000.0 9036110000.0 9036230000.0 9036400000.0 9036640000.0 9036990000.0 9039650000.0 9038260000.0 9205720000.0 9047250000.0 10032400000.0 9092830000.0 10822200000.0 10123800000.0 12397100000.0 12803300000.0 15239500000.0 15882600000.0 15110800000.0 14540200000.0 12317400000.0 11940100000.0 9927610000.0 10468500000.0 9078090000.0 9811850000.0 9044350000.0 9156210000.0 9037980000.0 9038550000.0 9036870000.0 9036560000.0 9036340000.0 9036180000.0 9036070000.0 9035990000.0 9035930000.0 9035890000.0 9035860000.0 9035830000.0 9035820000.0 9035800000.0 9035790000.0 9035780000.0 9035780000.0 9035770000.0 9035770000.0 9035760000.0 9035760000.0 9035760000.0 9035760000.0 9035760000.0 9035750000.0 9035750000.0 9035750000.0 9035750000.0 9035750000.0 9035750000.0 9035750000.0 9035760000.0 9035760000.0 9035760000.0 9035760000.0 9035760000.0 9035770000.0 9035770000.0 9035780000.0 9035780000.0 9035790000.0 9035800000.0 9035820000.0 9035830000.0 9035860000.0 9035890000.0 9035930000.0 9035990000.0 9036070000.0 9036180000.0 9036340000.0 9036560000.0 9036870000.0 9038550000.0 9037980000.0 9156210000.0 9044350000.0 9811850000.0 9078090000.0 10468500000.0 9927610000.0 11940100000.0 12317400000.0 14540200000.0 15110800000.0 14393600000.0 13889100000.0 11880300000.0 11529400000.0 9762500000.0 10178000000.0 9067130000.0 9636220000.0 9042310000.0 9120620000.0 9037730000.0 9037850000.0 9036750000.0 9036470000.0 9036280000.0 9036140000.0 9036040000.0 9035970000.0 9035910000.0 9035870000.0 9035850000.0 9035830000.0 9035810000.0 9035800000.0 9035790000.0 9035780000.0 9035770000.0 9035770000.0 9035770000.0 9035760000.0 9035760000.0 9035760000.0 9035760000.0 9035760000.0 9035750000.0 9035750000.0 9035750000.0 9035750000.0 9035750000.0 9035750000.0 9035750000.0 9035760000.0 9035760000.0 9035760000.0 9035760000.0 9035760000.0 9035770000.0 9035770000.0 9035770000.0 9035780000.0 9035790000.0 9035800000.0 9035810000.0 9035830000.0 9035850000.0 9035870000.0 9035910000.0 9035970000.0 9036040000.0 9036140000.0 9036280000.0 9036470000.0 9036750000.0 9037850000.0 9037730000.0 9120620000.0 9042310000.0 9636220000.0 9067130000.0 10178000000.0 9762500000.0 11529400000.0 11880300000.0 13889100000.0 14393600000.0 13726700000.0 13282900000.0 11486400000.0 11161200000.0 9624180000.0 9940720000.0 9059030000.0 9497280000.0 9040850000.0 9095230000.0 9037500000.0 9037380000.0 9036640000.0 9036390000.0 9036220000.0 9036090000.0 9036000000.0 9035940000.0 9035890000.0 9035860000.0 9035840000.0 9035820000.0 9035800000.0 9035790000.0 9035780000.0 9035780000.0 9035770000.0 9035770000.0 9035760000.0 9035760000.0 9035760000.0 9035760000.0 9035760000.0 9035760000.0 9035750000.0 9035750000.0 9035750000.0 9035750000.0 9035750000.0 9035750000.0 9035750000.0 9035760000.0 9035760000.0 9035760000.0 9035760000.0 9035760000.0 9035760000.0 9035770000.0 9035770000.0 9035780000.0 9035780000.0 9035790000.0 9035800000.0 9035820000.0 9035840000.0 9035860000.0 9035890000.0 9035940000.0 9036000000.0 9036090000.0 9036220000.0 9036390000.0 9036640000.0 9037380000.0 9037500000.0 9095230000.0 9040850000.0 9497280000.0 9059030000.0 9940720000.0 9624180000.0 11161200000.0 11486400000.0 13282900000.0 13726700000.0 13105900000.0 12718400000.0 11130700000.0 10831800000.0 9508730000.0 9747720000.0 9053060000.0 9388020000.0 9039790000.0 9077240000.0 9037290000.0 9037050000.0 9036530000.0 9036310000.0 9036160000.0 9036050000.0 9035970000.0 9035920000.0 9035880000.0 9035850000.0 9035820000.0 9035810000.0 9035800000.0 9035790000.0 9035780000.0 9035770000.0 9035770000.0 9035770000.0 9035760000.0 9035760000.0 9035760000.0 9035760000.0 9035760000.0 9035750000.0 9035750000.0 9035750000.0 9035750000.0 9035750000.0 9035750000.0 9035750000.0 9035750000.0 9035750000.0 9035760000.0 9035760000.0 9035760000.0 9035760000.0 9035760000.0 9035770000.0 9035770000.0 9035770000.0 9035780000.0 9035790000.0 9035800000.0 9035810000.0 9035820000.0 9035850000.0 9035880000.0 9035920000.0 9035970000.0 9036050000.0 9036160000.0 9036310000.0 9036530000.0 9037050000.0 9037290000.0 9077240000.0 9039790000.0 9388020000.0 9053060000.0 9747720000.0 9508730000.0 10831800000.0 11130700000.0 12718400000.0 13105900000.0 12526600000.0 12191600000.0 10808300000.0 10537300000.0 9412620000.0 9591310000.0 9048640000.0 9302530000.0 9039000000.0 9064550000.0 9037080000.0 9036810000.0 9036430000.0 9036240000.0 9036110000.0 9036010000.0 9035940000.0 9035900000.0 9035860000.0 9035830000.0 9035810000.0 9035800000.0 9035790000.0 9035780000.0 9035780000.0 9035770000.0 9035770000.0 9035760000.0 9035760000.0 9035760000.0 9035760000.0 9035760000.0 9035760000.0 9035750000.0 9035750000.0 9035750000.0 9035750000.0 9035750000.0 9035750000.0 9035750000.0 9035750000.0 9035750000.0 9035760000.0 9035760000.0 9035760000.0 9035760000.0 9035760000.0 9035760000.0 9035770000.0 9035770000.0 9035780000.0 9035780000.0 9035790000.0 9035800000.0 9035810000.0 9035830000.0 9035860000.0 9035900000.0 9035940000.0 9036010000.0 9036110000.0 9036240000.0 9036430000.0 9036810000.0 9037080000.0 9064550000.0 9039000000.0 9302530000.0 9048640000.0 9591310000.0 9412620000.0 10537300000.0 10808300000.0 12191600000.0 12526600000.0 11984000000.0 11698700000.0 10514600000.0 10273800000.0 9332690000.0 9464790000.0 9045360000.0 9235890000.0 9038370000.0 9055640000.0 9036880000.0 9036610000.0 9036330000.0 9036160000.0 9036050000.0 9035970000.0 9035920000.0 9035870000.0 9035840000.0 9035820000.0 9035810000.0 9035790000.0 9035780000.0 9035780000.0 9035770000.0 9035770000.0 9035760000.0 9035760000.0 9035760000.0 9035760000.0 9035760000.0 9035760000.0 9035760000.0 9035750000.0 9035750000.0 9035750000.0 9035750000.0 9035750000.0 9035750000.0 9035750000.0 9035750000.0 9035750000.0 9035760000.0 9035760000.0 9035760000.0 9035760000.0 9035760000.0 9035760000.0 9035760000.0 9035770000.0 9035770000.0 9035780000.0 9035780000.0 9035790000.0 9035810000.0 9035820000.0 9035840000.0 9035870000.0 9035920000.0 9035970000.0 9036050000.0 9036160000.0 9036330000.0 9036610000.0 9036880000.0 9055640000.0 9038370000.0 9235890000.0 9045360000.0 9464790000.0 9332690000.0 10273800000.0 10514600000.0 11698700000.0 11984000000.0 11473300000.0 11235500000.0 10245500000.0 10037000000.0 9266070000.0 9362380000.0 9042880000.0 9183980000.0 9037850000.0 9049390000.0 9036700000.0 9036450000.0 9036230000.0 9036100000.0 9036000000.0 9035940000.0 9035890000.0 9035850000.0 9035830000.0 9035810000.0 9035800000.0 9035790000.0 9035780000.0 9035770000.0 9035770000.0 9035770000.0 9035760000.0 9035760000.0 9035760000.0 9035760000.0 9035760000.0 9035760000.0 9035750000.0 9035750000.0 9035750000.0 9035750000.0 9035750000.0 9035750000.0 9035750000.0 9035750000.0 9035750000.0 9035750000.0 9035750000.0 9035760000.0 9035760000.0 9035760000.0 9035760000.0 9035760000.0 9035760000.0 9035770000.0 9035770000.0 9035770000.0 9035780000.0 9035790000.0 9035800000.0 9035810000.0 9035830000.0 9035850000.0 9035890000.0 9035940000.0 9036000000.0 9036100000.0 9036230000.0 9036450000.0 9036700000.0 9049390000.0 9037850000.0 9183980000.0 9042880000.0 9362380000.0 9266070000.0 10037000000.0 10245500000.0 11235500000.0 11473300000.0 10989800000.0 10797700000.0 9996760000.0 9822960000.0 9210220000.0 9279030000.0 9040980000.0 9143410000.0 9037400000.0 9045000000.0 9036510000.0 9036310000.0 9036140000.0 9036030000.0 9035950000.0 9035900000.0 9035860000.0 9035830000.0 9035810000.0 9035800000.0 9035790000.0 9035780000.0 9035770000.0 9035770000.0 9035770000.0 9035760000.0 9035760000.0 9035760000.0 9035760000.0 9035760000.0 9035760000.0 9035750000.0 9035750000.0 9035750000.0 9035750000.0 9035750000.0 9035750000.0 9035750000.0 9035750000.0 9035750000.0 9035750000.0 9035750000.0 9035750000.0 9035750000.0 9035760000.0 9035760000.0 9035760000.0 9035760000.0 9035760000.0 9035760000.0 9035770000.0 9035770000.0 9035770000.0 9035780000.0 9035790000.0 9035800000.0 9035810000.0 9035830000.0 9035860000.0 9035900000.0 9035950000.0 9036030000.0 9036140000.0 9036310000.0 9036510000.0 9045000000.0 9037400000.0 9143410000.0 9040980000.0 9279030000.0 9210220000.0 9822960000.0 9996760000.0 10797700000.0 10989800000.0 10528400000.0 10380600000.0 9764450000.0 9627370000.0 9162820000.0 9210380000.0 9039480000.0 9111350000.0 9037000000.0 9041870000.0 9036340000.0 9036180000.0 9036050000.0 9035970000.0 9035910000.0 9035870000.0 9035840000.0 9035820000.0 9035800000.0 9035790000.0 9035780000.0 9035770000.0 9035770000.0 9035770000.0 9035760000.0 9035760000.0 9035760000.0 9035760000.0 9035760000.0 9035760000.0 9035760000.0 9035750000.0 9035750000.0 9035750000.0 9035750000.0 9035750000.0 9035750000.0 9035750000.0 9035750000.0 9035750000.0 9035750000.0 9035750000.0 9035750000.0 9035750000.0 9035760000.0 9035760000.0 9035760000.0 9035760000.0 9035760000.0 9035760000.0 9035760000.0 9035770000.0 9035770000.0 9035770000.0 9035780000.0 9035790000.0 9035800000.0 9035820000.0 9035840000.0 9035870000.0 9035910000.0 9035970000.0 9036050000.0 9036180000.0 9036340000.0 9041870000.0 9037000000.0 9111350000.0 9039480000.0 9210380000.0 9162820000.0 9627370000.0 9764450000.0 10380600000.0 10528400000.0 10084200000.0 9979890000.0 9544760000.0 9446120000.0 9121750000.0 9152590000.0 9038240000.0 9085450000.0 9036620000.0 9039590000.0 9036160000.0 9036050000.0 9035960000.0 9035900000.0 9035860000.0 9035830000.0 9035810000.0 9035800000.0 9035790000.0 9035780000.0 9035770000.0 9035770000.0 9035760000.0 9035760000.0 9035760000.0 9035760000.0 9035760000.0 9035760000.0 9035760000.0 9035750000.0 9035750000.0 9035750000.0 9035750000.0 9035750000.0 9035750000.0 9035750000.0 9035750000.0 9035750000.0 9035750000.0 9035750000.0 9035750000.0 9035750000.0 9035750000.0 9035750000.0 9035750000.0 9035750000.0 9035760000.0 9035760000.0 9035760000.0 9035760000.0 9035760000.0 9035760000.0 9035760000.0 9035770000.0 9035770000.0 9035780000.0 9035790000.0 9035800000.0 9035810000.0 9035830000.0 9035860000.0 9035900000.0 9035960000.0 9036050000.0 9036160000.0 9039590000.0 9036620000.0 9085450000.0 9038240000.0 9152590000.0 9121750000.0 9446120000.0 9544760000.0 9979890000.0 10084200000.0 9652320000.0 9590730000.0 9333970000.0 9275040000.0 9085070000.0 9102230000.0 9037170000.0 9063690000.0 9036260000.0 9037840000.0 9036000000.0 9035930000.0 9035880000.0 9035840000.0 9035820000.0 9035800000.0 9035790000.0 9035780000.0 9035770000.0 9035770000.0 9035760000.0 9035760000.0 9035760000.0 9035760000.0 9035760000.0 9035760000.0 9035760000.0 9035750000.0 9035750000.0 9035750000.0 9035750000.0 9035750000.0 9035750000.0 9035750000.0 9035750000.0 9035750000.0 9035750000.0 9035750000.0 9035750000.0 9035750000.0 9035750000.0 9035750000.0 9035750000.0 9035750000.0 9035750000.0 9035750000.0 9035750000.0 9035750000.0 9035760000.0 9035760000.0 9035760000.0 9035760000.0 9035760000.0 9035760000.0 9035760000.0 9035770000.0 9035770000.0 9035780000.0 9035790000.0 9035800000.0 9035820000.0 9035840000.0 9035880000.0 9035930000.0 9036000000.0 9037840000.0 9036260000.0 9063690000.0 9037170000.0 9102230000.0 9085070000.0 9275040000.0 9333970000.0 9590730000.0 9652320000.0 9227650000.0 9208450000.0 9128430000.0 9109980000.0 9050950000.0 9056170000.0 9036190000.0 9044290000.0 9035910000.0 9036380000.0 9035830000.0 9035810000.0 9035790000.0 9035780000.0 9035770000.0 9035770000.0 9035760000.0 9035760000.0 9035760000.0 9035760000.0 9035760000.0 9035760000.0 9035760000.0 9035750000.0 9035750000.0 9035750000.0 9035750000.0 9035750000.0 9035750000.0 9035750000.0 9035750000.0 9035750000.0 9035750000.0 9035750000.0 9035750000.0 9035750000.0 9035750000.0 9035750000.0 9035750000.0 9035750000.0 9035750000.0 9035750000.0 9035750000.0 9035750000.0 9035750000.0 9035750000.0 9035750000.0 9035750000.0 9035750000.0 9035750000.0 9035750000.0 9035750000.0 9035760000.0 9035760000.0 9035760000.0 9035760000.0 9035760000.0 9035760000.0 9035760000.0 9035770000.0 9035770000.0 9035780000.0 9035790000.0 9035810000.0 9035830000.0 9036380000.0 9035910000.0 9044290000.0 9036190000.0 9056170000.0 9050950000.0 9109980000.0 9128430000.0 9208450000.0 9227650000.0 