# vtk DataFile Version 2.0
Time step 78
ASCII
DATASET UNSTRUCTURED_GRID
POINTS 5000 float
219650.0 178830.0 0
227470.0 179109.0 0
233046.0 177093.0 0
231658.0 180181.0 0
236662.0 179733.0 0
273327.0 178794.0 0
279518.0 177714.0 0
196248.0 184453.0 0
202002.0 183045.0 0
205810.0 186358.0 0
208836.0 181587.0 0
214573.0 182656.0 0
219994.0 184339.0 0
224493.0 182450.0 0
228448.0 183912.0 0
233411.0 184363.0 0
238688.0 184737.0 0
242463.0 180821.0 0
248894.0 182536.0 0
255201.0 181675.0 0
259782.0 183184.0 0
263961.0 181779.0 0
265424.0 185805.0 0
269012.0 182440.0 0
274130.0 183252.0 0
278658.0 183838.0 0
283968.0 182230.0 0
286026.0 185936.0 0
289695.0 181348.0 0
292897.0 185220.0 0
297644.0 184002.0 0
303070.0 184471.0 0
193828.0 189505.0 0
199213.0 187983.0 0
202175.0 186897.0 0
202940.0 190741.0 0
210931.0 186912.0 0
215832.0 187553.0 0
220371.0 190210.0 0
224782.0 186894.0 0
229266.0 188423.0 0
233827.0 189507.0 0
243888.0 186678.0 0
239297.0 190098.0 0
248742.0 188804.0 0
252519.0 186646.0 0
253394.0 190737.0 0
256599.0 186401.0 0
261404.0 187309.0 0
268012.0 190058.0 0
271981.0 186677.0 0
272785.0 190725.0 0
276649.0 188770.0 0
280748.0 190770.0 0
282537.0 186968.0 0
289257.0 186560.0 0
286193.0 189927.0 0
292283.0 189606.0 0
297499.0 189727.0 0
303099.0 189842.0 0
193150.0 195153.0 0
197920.0 192248.0 0
208294.0 191586.0 0
213609.0 191656.0 0
217428.0 195336.0 0
222184.0 194085.0 0
225828.0 192068.0 0
230656.0 192801.0 0
235602.0 193764.0 0
244610.0 192005.0 0
249556.0 193802.0 0
254584.0 195897.0 0
258303.0 190933.0 0
260414.0 195439.0 0
263056.0 191446.0 0
271022.0 193930.0 0
273822.0 195624.0 0
277462.0 194127.0 0
283639.0 194901.0 0
289586.0 194233.0 0
294282.0 193451.0 0
298430.0 195059.0 0
303256.0 194865.0 0
308756.0 194181.0 0
190693.0 199445.0 0
198357.0 197347.0 0
204387.0 196680.0 0
211249.0 196952.0 0
216380.0 200837.0 0
222490.0 198325.0 0
228186.0 196663.0 0
232396.0 196177.0 0
231528.0 200721.0 0
235817.0 197964.0 0
240371.0 195711.0 0
243951.0 200472.0 0
240931.0 200158.0 0
245689.0 197064.0 0
250506.0 198649.0 0
257701.0 198786.0 0
262154.0 200651.0 0
266239.0 195947.0 0
271302.0 197722.0 0
275364.0 198920.0 0
279758.0 198365.0 0
284600.0 201408.0 0
289892.0 199228.0 0
293688.0 197332.0 0
293668.0 201900.0 0
297245.0 199487.0 0
300843.0 199209.0 0
306059.0 200791.0 0
188533.0 207190.0 0
194682.0 201905.0 0
192502.0 206188.0 0
200365.0 202443.0 0
206055.0 202512.0 0
211456.0 202884.0 0
215429.0 205817.0 0
220889.0 203852.0 0
226703.0 200881.0 0
225926.0 204795.0 0
229684.0 204761.0 0
236974.0 203052.0 0
242678.0 204293.0 0
247005.0 201340.0 0
247136.0 205116.0 0
254499.0 201309.0 0
250476.0 203188.0 0
258273.0 204107.0 0
268473.0 202448.0 0
274400.0 203520.0 0
279006.0 202820.0 0
281292.0 205894.0 0
284646.0 206382.0 0
289607.0 203167.0 0
287437.0 205710.0 0
296078.0 205592.0 0
299692.0 203145.0 0
303146.0 205566.0 0
306939.0 206260.0 0
311044.0 205247.0 0
187066.0 211637.0 0
191723.0 210624.0 0
197075.0 208755.0 0
203191.0 207553.0 0
209558.0 208467.0 0
218763.0 208035.0 0
223225.0 208761.0 0
228394.0 208456.0 0
233199.0 207388.0 0
238949.0 208969.0 0
244884.0 208988.0 0
249526.0 208154.0 0
253761.0 206238.0 0
258278.0 209393.0 0
263335.0 206390.0 0
268423.0 208117.0 0
271777.0 206445.0 0
272829.0 210837.0 0
277454.0 207446.0 0
287222.0 209155.0 0
282484.0 209921.0 0
291718.0 207022.0 0
295585.0 210265.0 0
299720.0 207959.0 0
304519.0 210141.0 0
309508.0 209623.0 0
190177.0 215321.0 0
195277.0 214687.0 0
200483.0 212799.0 0
205075.0 212640.0 0
210277.0 214718.0 0
215235.0 210805.0 0
220016.0 212822.0 0
226486.0 213875.0 0
232563.0 212510.0 0
237771.0 214176.0 0
242462.0 213147.0 0
247827.0 212964.0 0
245162.0 215765.0 0
252919.0 211438.0 0
257136.0 215096.0 0
265249.0 211752.0 0
261024.0 213001.0 0
268982.0 214329.0 0
278027.0 212158.0 0
281981.0 215010.0 0
286213.0 213356.0 0
290914.0 212062.0 0
289833.0 216319.0 0
295242.0 215593.0 0
299954.0 212907.0 0
304919.0 215520.0 0
309065.0 213751.0 0
312663.0 214051.0 0
312418.0 217188.0 0
188576.0 218606.0 0
192325.0 218570.0 0
195979.0 220314.0 0
200169.0 217729.0 0
204883.0 216899.0 0
207744.0 218688.0 0
211957.0 220003.0 0
215990.0 216059.0 0
221628.0 217647.0 0
226466.0 219592.0 0
230236.0 217467.0 0
234232.0 216927.0 0
241331.0 218095.0 0
246523.0 219201.0 0
251660.0 217052.0 0
262430.0 217170.0 0
268009.0 219278.0 0
272903.0 216391.0 0
275570.0 220470.0 0
277753.0 216450.0 0
280803.0 220380.0 0
285788.0 218324.0 0
292228.0 220466.0 0
296912.0 221255.0 0
300430.0 218274.0 0
305814.0 221238.0 0
308865.0 218019.0 0
310594.0 221981.0 0
190224.0 222312.0 0
189795.0 226428.0 0
194344.0 225272.0 0
199440.0 222781.0 0
198679.0 226866.0 0
204305.0 221440.0 0
202907.0 226187.0 0
208254.0 221330.0 0
208003.0 224442.0 0
217395.0 221329.0 0
212958.0 225332.0 0
222869.0 222796.0 0
227201.0 224364.0 0
230678.0 221650.0 0
236334.0 221454.0 0
241436.0 223214.0 0
245849.0 223449.0 0
250540.0 222372.0 0
253225.0 225900.0 0
257203.0 221571.0 0
263544.0 222079.0 0
261709.0 225689.0 0
267276.0 225422.0 0
271703.0 223060.0 0
277460.0 225119.0 0
287718.0 223387.0 0
294952.0 225633.0 0
301124.0 224458.0 0
313911.0 227172.0 0
191193.0 230565.0 0
195700.0 229806.0 0
199540.0 230594.0 0
204237.0 230893.0 0
208754.0 228426.0 0
214416.0 230131.0 0
218913.0 226769.0 0
224182.0 227177.0 0
232989.0 225670.0 0
228790.0 228574.0 0
238002.0 226539.0 0
243427.0 228019.0 0
239306.0 230365.0 0
248722.0 226863.0 0
252121.0 230411.0 0
257634.0 228532.0 0
264010.0 229192.0 0
268529.0 230144.0 0
272638.0 227759.0 0
277333.0 230499.0 0
282838.0 225276.0 0
286812.0 227627.0 0
290489.0 227144.0 0
293980.0 230407.0 0
298734.0 230019.0 0
303452.0 230541.0 0
307612.0 226886.0 0
191285.0 236201.0 0
199470.0 235158.0 0
205048.0 236223.0 0
209014.0 232821.0 0
212852.0 233532.0 0
216019.0 235195.0 0
219030.0 231776.0 0
221184.0 235742.0 0
224504.0 231879.0 0
229689.0 233855.0 0
234314.0 230673.0 0
238029.0 233211.0 0
242294.0 232775.0 0
247443.0 231108.0 0
245980.0 234201.0 0
250099.0 234766.0 0
255831.0 234694.0 0
260929.0 232503.0 0
265680.0 234224.0 0
270002.0 235258.0 0
272512.0 232630.0 0
276197.0 235380.0 0
280446.0 234290.0 0
283155.0 230598.0 0
289077.0 231963.0 0
296064.0 235163.0 0
307513.0 232664.0 0
309033.0 237293.0 0
195956.0 239280.0 0
201104.0 240128.0 0
211183.0 237950.0 0
206110.0 240937.0 0
218086.0 238960.0 0
222596.0 239672.0 0
225821.0 236990.0 0
230332.0 239131.0 0
234791.0 236230.0 0
234353.0 240693.0 0
237926.0 240209.0 0
239536.0 236299.0 0
243281.0 236254.0 0
241906.0 240011.0 0
246808.0 238574.0 0
252195.0 239746.0 0
257593.0 240065.0 0
261041.0 236794.0 0
264560.0 238703.0 0
268410.0 238606.0 0
272631.0 238285.0 0
279821.0 237422.0 0
277123.0 239723.0 0
281993.0 240470.0 0
284772.0 235988.0 0
286069.0 239496.0 0
290452.0 237761.0 0
298483.0 240185.0 0
302789.0 236210.0 0
195461.0 244650.0 0
206807.0 244443.0 0
210125.0 242872.0 0
215082.0 242209.0 0
220534.0 243527.0 0
226481.0 242384.0 0
232066.0 244580.0 0
236360.0 243786.0 0
244475.0 243138.0 0
240081.0 244240.0 0
248441.0 242933.0 0
255195.0 243632.0 0
251529.0 245843.0 0
258596.0 244484.0 0
261789.0 241511.0 0
262232.0 245510.0 0
270319.0 241802.0 0
266452.0 242687.0 0
273807.0 242590.0 0
274966.0 245870.0 0
278112.0 243581.0 0
281886.0 245189.0 0
286033.0 243237.0 0
290564.0 242683.0 0
295066.0 243417.0 0
304266.0 242734.0 0
198541.0 247300.0 0
200785.0 249586.0 0
202607.0 245216.0 0
204563.0 249301.0 0
207331.0 250183.0 0
208991.0 247454.0 0
213874.0 249720.0 0
217207.0 246683.0 0
212967.0 245823.0 0
218053.0 251145.0 0
221170.0 248658.0 0
224290.0 246397.0 0
228569.0 247518.0 0
225104.0 250533.0 0
232809.0 249515.0 0
236687.0 247914.0 0
243148.0 246762.0 0
240539.0 248189.0 0
244219.0 250406.0 0
246807.0 246674.0 0
248871.0 249965.0 0
253064.0 250014.0 0
255772.0 247277.0 0
259193.0 248190.0 0
256594.0 251097.0 0
262695.0 249801.0 0
265918.0 246876.0 0
270527.0 246388.0 0
266858.0 250713.0 0
274227.0 249429.0 0
278166.0 248138.0 0
282054.0 249490.0 0
285104.0 247160.0 0
289434.0 247051.0 0
286255.0 250708.0 0
294094.0 248065.0 0
299909.0 246912.0 0
202722.0 253245.0 0
206668.0 253095.0 0
210787.0 252535.0 0
212509.0 256128.0 0
215206.0 254118.0 0
222110.0 253079.0 0
219026.0 255290.0 0
226251.0 255103.0 0
229308.0 251996.0 0
232566.0 253660.0 0
235956.0 252667.0 0
239930.0 251668.0 0
242864.0 254761.0 0
247040.0 253938.0 0
251132.0 253304.0 0
254510.0 253304.0 0
253230.0 256097.0 0
259667.0 252175.0 0
257707.0 256294.0 0
263242.0 254605.0 0
270680.0 251731.0 0
267557.0 254678.0 0
274364.0 253552.0 0
278401.0 252798.0 0
282939.0 253694.0 0
290431.0 252116.0 0
287085.0 255011.0 0
293543.0 251417.0 0
293741.0 255316.0 0
296923.0 252063.0 0
202123.0 257963.0 0
205212.0 256646.0 0
208781.0 256977.0 0
205573.0 260023.0 0
211661.0 259066.0 0
208981.0 261230.0 0
216009.0 258952.0 0
222929.0 257599.0 0
219835.0 258287.0 0
223692.0 261397.0 0
220281.0 261488.0 0
227332.0 259786.0 0
230231.0 256386.0 0
234162.0 257176.0 0
230977.0 259417.0 0
233200.0 261027.0 0
238653.0 256549.0 0
236548.0 260840.0 0
242338.0 258386.0 0
240284.0 261039.0 0
243907.0 261442.0 0
249912.0 256871.0 0
245921.0 258172.0 0
249276.0 260386.0 0
253679.0 260291.0 0
261791.0 259265.0 0
264909.0 261551.0 0
266301.0 258106.0 0
268670.0 261504.0 0
270827.0 256862.0 0
273371.0 260792.0 0
275823.0 257141.0 0
280141.0 257735.0 0
277405.0 261289.0 0
284556.0 257278.0 0
283740.0 260904.0 0
290172.0 257058.0 0
287263.0 259313.0 0
290129.0 261470.0 0
293739.0 259828.0 0
297684.0 256842.0 0
297751.0 260667.0 0
202279.0 261954.0 0
203090.0 266513.0 0
206259.0 263552.0 0
212978.0 262463.0 0
209920.0 264630.0 0
213132.0 265751.0 0
217271.0 264439.0 0
221880.0 265086.0 0
225806.0 264587.0 0
230253.0 263852.0 0
234440.0 264807.0 0
238173.0 264758.0 0
242055.0 264824.0 0
246748.0 262003.0 0
245850.0 265017.0 0
250184.0 264868.0 0
254792.0 265264.0 0
258025.0 261914.0 0
258513.0 266484.0 0
261584.0 264175.0 0
265371.0 265159.0 0
268490.0 265610.0 0
271655.0 264743.0 0
280522.0 262201.0 0
275670.0 264626.0 0
279309.0 265549.0 0
282908.0 264083.0 0
286637.0 263891.0 0
294921.0 264039.0 0
291098.0 265345.0 0
298388.0 263703.0 0
197272.0 270110.0 0
202011.0 270516.0 0
207695.0 267592.0 0
205829.0 271211.0 0
211533.0 268822.0 0
215916.0 269172.0 0
220319.0 268907.0 0
224373.0 268693.0 0
228405.0 268413.0 0
226402.0 271470.0 0
232166.0 268352.0 0
236036.0 268714.0 0
244214.0 268240.0 0
240115.0 269024.0 0
247721.0 268969.0 0
252061.0 269240.0 0
254960.0 271274.0 0
255827.0 268532.0 0
258520.0 270495.0 0
262240.0 268869.0 0
270392.0 268693.0 0
266574.0 269107.0 0
273847.0 267724.0 0
273499.0 271452.0 0
276715.0 268515.0 0
279903.0 269956.0 0
276928.0 271143.0 0
283169.0 267484.0 0
287092.0 268544.0 0
294852.0 267916.0 0
291489.0 270180.0 0
295253.0 271770.0 0
297900.0 266645.0 0
297987.0 269836.0 0
202889.0 274462.0 0
207403.0 275699.0 0
210118.0 272588.0 0
214381.0 273092.0 0
218456.0 272656.0 0
216729.0 276440.0 0
222844.0 272719.0 0
220344.0 275243.0 0
222571.0 277023.0 0
226776.0 276043.0 0
230061.0 272201.0 0
234126.0 272354.0 0
232079.0 275917.0 0
238060.0 272681.0 0
235827.0 276217.0 0
239475.0 275926.0 0
243587.0 273137.0 0
249104.0 273011.0 0
246825.0 276959.0 0
252789.0 273023.0 0
251716.0 277095.0 0
256777.0 275104.0 0
261180.0 273336.0 0
264913.0 272864.0 0
263573.0 276169.0 0
269231.0 272651.0 0
267279.0 276515.0 0
272427.0 276648.0 0
279156.0 273280.0 0
276246.0 273853.0 0
283468.0 272357.0 0
281176.0 275853.0 0
287678.0 273517.0 0
289083.0 277010.0 0
292624.0 274822.0 0
297912.0 273288.0 0
296900.0 276993.0 0
202254.0 278257.0 0
203085.0 282246.0 0
205445.0 278502.0 0
208560.0 281062.0 0
212118.0 277564.0 0
212626.0 281770.0 0
215945.0 280809.0 0
219750.0 278903.0 0
223335.0 280156.0 0
226846.0 281684.0 0
230644.0 279459.0 0
234598.0 280371.0 0
238440.0 279438.0 0
242688.0 278670.0 0
245538.0 280674.0 0
248601.0 280053.0 0
255957.0 280716.0 0
260686.0 277393.0 0
264723.0 280001.0 0
260632.0 281238.0 0
269542.0 281074.0 0
275006.0 281527.0 0
277291.0 277119.0 0
280313.0 280815.0 0
284900.0 277523.0 0
284600.0 281939.0 0
288265.0 281168.0 0
292335.0 279155.0 0
295087.0 281118.0 0
298157.0 280870.0 0
202951.0 286579.0 0
207063.0 285338.0 0
214160.0 284097.0 0
211122.0 284782.0 0
217036.0 284251.0 0
215775.0 287331.0 0
220257.0 282854.0 0
224003.0 284397.0 0
227941.0 285954.0 0
230930.0 283414.0 0
234191.0 285011.0 0
237680.0 283238.0 0
237366.0 286877.0 0
240766.0 282211.0 0
243887.0 283446.0 0
240973.0 286343.0 0
247365.0 283613.0 0
249810.0 286593.0 0
251389.0 282456.0 0
253994.0 285921.0 0
258206.0 285741.0 0
262921.0 284731.0 0
266798.0 284510.0 0
270225.0 286294.0 0
272068.0 283818.0 0
274533.0 286718.0 0
277996.0 285113.0 0
282317.0 285826.0 0
287697.0 286697.0 0
292238.0 283665.0 0
296749.0 284918.0 0
302750.0 283844.0 0
201539.0 289688.0 0
202484.0 292469.0 0
208375.0 288739.0 0
204904.0 289530.0 0
212212.0 288060.0 0
213825.0 291399.0 0
210458.0 291844.0 0
216969.0 291293.0 0
220467.0 287736.0 0
219988.0 292104.0 0
223309.0 292586.0 0
225138.0 288752.0 0
228301.0 289760.0 0
231254.0 287946.0 0
230564.0 291706.0 0
234835.0 289806.0 0
238904.0 290659.0 0
242473.0 290108.0 0
245385.0 287497.0 0
248553.0 290731.0 0
245326.0 292547.0 0
252305.0 289944.0 0
258943.0 289752.0 0
255660.0 289487.0 0
261937.0 288416.0 0
262101.0 292582.0 0
266263.0 289608.0 0
270804.0 290305.0 0
274622.0 290777.0 0
279316.0 290064.0 0
284139.0 290541.0 0
288169.0 292330.0 0
292875.0 288816.0 0
297778.0 288849.0 0
297327.0 292259.0 0
304194.0 289613.0 0
202396.0 295848.0 0
206469.0 292958.0 0
205641.0 296120.0 0
208055.0 297652.0 0
213024.0 294806.0 0
209346.0 295351.0 0
216731.0 294565.0 0
219027.0 297457.0 0
219677.0 294798.0 0
223078.0 296692.0 0
227191.0 293169.0 0
227020.0 297182.0 0
233461.0 292971.0 0
230616.0 295473.0 0
234481.0 296364.0 0
236308.0 293137.0 0
239086.0 294635.0 0
241741.0 292729.0 0
242989.0 296046.0 0
249775.0 293725.0 0
247626.0 296287.0 0
253123.0 293454.0 0
251339.0 297100.0 0
257213.0 293019.0 0
255172.0 296970.0 0
259868.0 296604.0 0
265269.0 293801.0 0
263835.0 295956.0 0
267786.0 293595.0 0
270519.0 293796.0 0
266516.0 296346.0 0
269784.0 297103.0 0
273017.0 293074.0 0
273192.0 295982.0 0
276534.0 294117.0 0
280059.0 294743.0 0
283400.0 293976.0 0
290038.0 295973.0 0
286450.0 296807.0 0
292991.0 293444.0 0
294659.0 297192.0 0
297941.0 295425.0 0
197681.0 301775.0 0
202289.0 299095.0 0
202321.0 302290.0 0
205548.0 298992.0 0
209004.0 299831.0 0
206044.0 302130.0 0
211135.0 297930.0 0
212234.0 300781.0 0
215228.0 298189.0 0
218392.0 300610.0 0
215406.0 302005.0 0
221220.0 299957.0 0
224600.0 300912.0 0
221441.0 302941.0 0
228194.0 301306.0 0
230426.0 298694.0 0
233239.0 300006.0 0
237879.0 298000.0 0
236531.0 301065.0 0
239568.0 302821.0 0
241007.0 299247.0 0
243744.0 302582.0 0
244988.0 299263.0 0
248076.0 300000.0 0
250731.0 299905.0 0
254324.0 301054.0 0
257610.0 299458.0 0
257849.0 302503.0 0
263930.0 299634.0 0
260349.0 300711.0 0
267488.0 299313.0 0
270327.0 300476.0 0
267580.0 302221.0 0
273234.0 299588.0 0
273846.0 302823.0 0
277315.0 298373.0 0
277395.0 302434.0 0
280560.0 302402.0 0
281978.0 298708.0 0
285568.0 301864.0 0
289626.0 300614.0 0
291706.0 298048.0 0
293905.0 300928.0 0
297982.0 298659.0 0
297532.0 301624.0 0
202671.0 305699.0 0
206231.0 305848.0 0
209605.0 303224.0 0
213621.0 305082.0 0
210099.0 307821.0 0
218393.0 304001.0 0
224593.0 305278.0 0
220923.0 306824.0 0
228305.0 305443.0 0
231758.0 303630.0 0
234745.0 306538.0 0
235318.0 303619.0 0
237292.0 304950.0 0
240357.0 305888.0 0
243127.0 306249.0 0
247782.0 304088.0 0
246168.0 308276.0 0
251089.0 303282.0 0
253546.0 306021.0 0
256408.0 304469.0 0
259341.0 305187.0 0
261265.0 303305.0 0
264424.0 304084.0 0
262389.0 307882.0 0
266936.0 306140.0 0
270554.0 304433.0 0
273479.0 307620.0 0
279967.0 306302.0 0
276358.0 306197.0 0
283047.0 304546.0 0
284567.0 307254.0 0
290791.0 304584.0 0
287348.0 305275.0 0
294379.0 304220.0 0
294415.0 306940.0 0
297659.0 304817.0 0
297574.0 307912.0 0
202487.0 308993.0 0
201778.0 311893.0 0
206166.0 309248.0 0
204795.0 311564.0 0
208597.0 311906.0 0
212922.0 311218.0 0
216622.0 308336.0 0
219109.0 312178.0 0
221935.0 309864.0 0
223482.0 313151.0 0
225449.0 309889.0 0
228864.0 309024.0 0
231962.0 307984.0 0
233711.0 311258.0 0
230042.0 312180.0 0
237965.0 309183.0 0
242096.0 309083.0 0
243539.0 311754.0 0
240330.0 313098.0 0
247357.0 311731.0 0
250454.0 308291.0 0
254064.0 311017.0 0
250816.0 313328.0 0
257086.0 308328.0 0
259927.0 311890.0 0
263557.0 313180.0 0
265778.0 309916.0 0
269342.0 308569.0 0
275429.0 310888.0 0
271692.0 311932.0 0
277795.0 309453.0 0
279944.0 312274.0 0
281752.0 309249.0 0
284326.0 310814.0 0
287541.0 308897.0 0
287713.0 312691.0 0
290971.0 308225.0 0
294150.0 309314.0 0
291139.0 311418.0 0
293823.0 311808.0 0
297410.0 311090.0 0
196515.0 315407.0 0
202923.0 314954.0 0
202226.0 317945.0 0
206439.0 313945.0 0
207669.0 315968.0 0
205474.0 317385.0 0
210662.0 314514.0 0
213275.0 316914.0 0
209459.0 318284.0 0
215487.0 314258.0 0
217648.0 316684.0 0
221203.0 316108.0 0
227203.0 314108.0 0
224911.0 316880.0 0
229848.0 317032.0 0
232083.0 314905.0 0
233671.0 317239.0 0
236482.0 314815.0 0
238998.0 317700.0 0
235952.0 318661.0 0
241675.0 316127.0 0
245114.0 315218.0 0
248500.0 316964.0 0
253639.0 316007.0 0
256443.0 313754.0 0
260018.0 316193.0 0
257017.0 317977.0 0
262826.0 316208.0 0
267986.0 314321.0 0
266034.0 318098.0 0
273701.0 314803.0 0
270875.0 316985.0 0
273201.0 318190.0 0
276761.0 313298.0 0
280260.0 315985.0 0
276780.0 316855.0 0
283576.0 313982.0 0
283959.0 317660.0 0
290740.0 314907.0 0
286695.0 316104.0 0
293939.0 314905.0 0
294535.0 318268.0 0
297419.0 314393.0 0
298335.0 316949.0 0
303051.0 314739.0 0
195692.0 320326.0 0
202866.0 320881.0 0
206574.0 320258.0 0
212407.0 321468.0 0
209463.0 323084.0 0
216542.0 319421.0 0
216560.0 322982.0 0
220303.0 319894.0 0
223986.0 320911.0 0
219769.0 323285.0 0
227591.0 320011.0 0
232656.0 319675.0 0
230522.0 322633.0 0
236002.0 321588.0 0
243392.0 319216.0 0
239978.0 320761.0 0
246320.0 320102.0 0
247098.0 323398.0 0
252125.0 318593.0 0
254361.0 320325.0 0
250085.0 321117.0 0
252594.0 322840.0 0
258929.0 321043.0 0
262201.0 319807.0 0
263439.0 322879.0 0
269626.0 319814.0 0
266339.0 321226.0 0
270320.0 323080.0 0
273480.0 321262.0 0
277423.0 320843.0 0
280152.0 323395.0 0
281100.0 319118.0 0
282433.0 321475.0 0
289648.0 318531.0 0
285932.0 320703.0 0
289256.0 323524.0 0
293314.0 321945.0 0
297914.0 319308.0 0
297779.0 321881.0 0
202888.0 324566.0 0
201936.0 327838.0 0
206221.0 323681.0 0
208410.0 326328.0 0
205318.0 327568.0 0
213649.0 325360.0 0
211291.0 326612.0 0
217580.0 326265.0 0
215189.0 328658.0 0
223429.0 325336.0 0
220179.0 327765.0 0
227074.0 324111.0 0
228904.0 326506.0 0
233946.0 324674.0 0
231843.0 327708.0 0
238079.0 323922.0 0
237344.0 326950.0 0
243398.0 323816.0 0
239980.0 323931.0 0
244685.0 327546.0 0
240645.0 326226.0 0
249732.0 323891.0 0
247817.0 326347.0 0
251389.0 325957.0 0
254999.0 327724.0 0
255958.0 323663.0 0
260241.0 324919.0 0
263802.0 326394.0 0
267040.0 324180.0 0
267616.0 327943.0 0
273845.0 324787.0 0
271500.0 326947.0 0
274214.0 328480.0 0
276654.0 325202.0 0
284385.0 324120.0 0
281771.0 326317.0 0
286416.0 325646.0 0
290645.0 327065.0 0
287818.0 328652.0 0
293637.0 326219.0 0
297079.0 325045.0 0
297697.0 328212.0 0
202002.0 330334.0 0
202162.0 332878.0 0
208933.0 329498.0 0
205500.0 330432.0 0
205674.0 333632.0 0
211782.0 329126.0 0
209180.0 332521.0 0
211752.0 331624.0 0
218602.0 330098.0 0
214738.0 331875.0 0
217698.0 332626.0 0
221749.0 331070.0 0
225616.0 329556.0 0
229364.0 330485.0 0
232530.0 331206.0 0
235141.0 329091.0 0
239248.0 330165.0 0
236411.0 332059.0 0
241920.0 328601.0 0
242640.0 331626.0 0
249400.0 329549.0 0
246141.0 331162.0 0
252782.0 331433.0 0
258553.0 329138.0 0
255486.0 333566.0 0
258613.0 332719.0 0
262127.0 329197.0 0
264617.0 330475.0 0
261779.0 332341.0 0
269018.0 331427.0 0
265818.0 333441.0 0
271548.0 329953.0 0
273368.0 331438.0 0
278197.0 328922.0 0
276409.0 332631.0 0
284242.0 329053.0 0
281478.0 331271.0 0
285463.0 331724.0 0
288307.0 331247.0 0
294672.0 329177.0 0
291741.0 329861.0 0
291594.0 332846.0 0
294958.0 331629.0 0
298155.0 330588.0 0
298004.0 332854.0 0
202053.0 335384.0 0
202751.0 338188.0 0
206442.0 337086.0 0
210191.0 335699.0 0
213598.0 334858.0 0
211256.0 338884.0 0
217079.0 335819.0 0
214464.0 338572.0 0
220935.0 334762.0 0
221141.0 338948.0 0
224677.0 334695.0 0
228053.0 334373.0 0
224958.0 338735.0 0
227917.0 338765.0 0
231558.0 335045.0 0
235080.0 335113.0 0
237262.0 337107.0 0
239940.0 334118.0 0
243179.0 334466.0 0
241837.0 337239.0 0
244639.0 338563.0 0
246991.0 335201.0 0
249519.0 338755.0 0
250778.0 334370.0 0
252310.0 336996.0 0
259779.0 335847.0 0
255428.0 336687.0 0
263108.0 334666.0 0
263155.0 337737.0 0
267958.0 336172.0 0
271260.0 334165.0 0
274353.0 335719.0 0
270915.0 337383.0 0
278542.0 334542.0 0
277963.0 337140.0 0
281869.0 334229.0 0
285149.0 334235.0 0
281172.0 337307.0 0
285449.0 337325.0 0
288511.0 334411.0 0
288545.0 337453.0 0
293494.0 335979.0 0
291416.0 337935.0 0
296821.0 335736.0 0
297976.0 338614.0 0
196497.0 340271.0 0
202494.0 341178.0 0
201799.0 343742.0 0
207679.0 340349.0 0
205477.0 342385.0 0
210819.0 342695.0 0
217821.0 339310.0 0
214828.0 341977.0 0
217841.0 342675.0 0
221378.0 342631.0 0
225110.0 342184.0 0
227751.0 342026.0 0
231522.0 339391.0 0
234796.0 339883.0 0
230675.0 342694.0 0
237643.0 341254.0 0
239752.0 339063.0 0
235669.0 343513.0 0
240573.0 342396.0 0
243506.0 341942.0 0
247257.0 340817.0 0
248326.0 343804.0 0
253425.0 339800.0 0
251268.0 341729.0 0
255639.0 341364.0 0
258176.0 339280.0 0
258952.0 342945.0 0
261384.0 340064.0 0
261877.0 343732.0 0
264945.0 342515.0 0
266488.0 339267.0 0
269606.0 340848.0 0
272423.0 339371.0 0
273425.0 343183.0 0
275733.0 338816.0 0
279458.0 339575.0 0
276982.0 342333.0 0
283782.0 339200.0 0
281808.0 341267.0 0
285790.0 342051.0 0
288184.0 340273.0 0
289587.0 343982.0 0
291860.0 341037.0 0
294761.0 339900.0 0
293903.0 343479.0 0
297726.0 341171.0 0
297145.0 343944.0 0
303399.0 340641.0 0
202497.0 346291.0 0
209108.0 345481.0 0
205781.0 345452.0 0
205429.0 349181.0 0
214158.0 345327.0 0
212334.0 347779.0 0
217318.0 346187.0 0
220328.0 345550.0 0
224656.0 345282.0 0
222737.0 347506.0 0
227182.0 344721.0 0
229483.0 345454.0 0
226327.0 347927.0 0
228321.0 347794.0 0
233362.0 344405.0 0
232580.0 347472.0 0
238831.0 346148.0 0
236043.0 348412.0 0
242435.0 346695.0 0
245095.0 345145.0 0
246628.0 348753.0 0
253371.0 344612.0 0
250323.0 347329.0 0
254806.0 347681.0 0
256837.0 344411.0 0
258004.0 347609.0 0
261410.0 347602.0 0
267110.0 345312.0 0
270275.0 344336.0 0
265546.0 348221.0 0
271209.0 348150.0 0
274118.0 346811.0 0
276525.0 346162.0 0
279688.0 347832.0 0
280818.0 344214.0 0
284259.0 345482.0 0
282672.0 349375.0 0
287220.0 346963.0 0
288864.0 349290.0 0
293591.0 346229.0 0
291203.0 346616.0 0
291228.0 348451.0 0
294597.0 348968.0 0
297804.0 346818.0 0
197463.0 353290.0 0
201975.0 349103.0 0
202025.0 351453.0 0
201310.0 353414.0 0
209025.0 349064.0 0
204460.0 354021.0 0
205912.0 352011.0 0
214184.0 350026.0 0
209569.0 352196.0 0
212647.0 352729.0 0
217497.0 349545.0 0
217467.0 352714.0 0
220875.0 349748.0 0
219892.0 354036.0 0
222641.0 352818.0 0
225435.0 350693.0 0
228123.0 352180.0 0
229951.0 349703.0 0
232516.0 351232.0 0
235889.0 352071.0 0
239214.0 352574.0 0
240338.0 350013.0 0
243363.0 350052.0 0
244079.0 353095.0 0
247732.0 352206.0 0
252458.0 351493.0 0
256839.0 350744.0 0
258748.0 352408.0 0
261654.0 351818.0 0
265243.0 351905.0 0
268735.0 349477.0 0
268531.0 351424.0 0
269944.0 353600.0 0
272372.0 351574.0 0
275072.0 349679.0 0
274576.0 353665.0 0
277781.0 350325.0 0
278163.0 353507.0 0
281479.0 352240.0 0
285314.0 350269.0 0
283279.0 353703.0 0
290279.0 351329.0 0
286030.0 352761.0 0
288663.0 352982.0 0
293406.0 351654.0 0
298004.0 349704.0 0
297912.0 352159.0 0
202069.0 357882.0 0
201897.0 355521.0 0
208469.0 354858.0 0
205329.0 360084.0 0
206040.0 357037.0 0
212466.0 356082.0 0
210270.0 356525.0 0
213535.0 358843.0 0
215432.0 354501.0 0
219418.0 356730.0 0
216834.0 357291.0 0
224236.0 355503.0 0
221546.0 357324.0 0
224422.0 358524.0 0
226964.0 355171.0 0
226699.0 358687.0 0
229575.0 357666.0 0
231080.0 354287.0 0
233260.0 359087.0 0
234915.0 355831.0 0
237794.0 356859.0 0
241209.0 354828.0 0
244560.0 358017.0 0
241236.0 358476.0 0
245482.0 355787.0 0
247929.0 355897.0 0
249096.0 359046.0 0
246245.0 359478.0 0
250245.0 355066.0 0
254610.0 355186.0 0
251494.0 357305.0 0
254066.0 358821.0 0
258052.0 355592.0 0
259060.0 358526.0 0
261979.0 355251.0 0
263735.0 357666.0 0
266285.0 354701.0 0
267119.0 357609.0 0
270874.0 356288.0 0
270944.0 358903.0 0
273654.0 356138.0 0
278789.0 356855.0 0
281861.0 356056.0 0
284205.0 357023.0 0
286684.0 356292.0 0
289912.0 356192.0 0
293113.0 355141.0 0
294238.0 358166.0 0
297148.0 354762.0 0
297722.0 357616.0 0
202292.0 360320.0 0
203342.0 363363.0 0
209267.0 359857.0 0
208241.0 362731.0 0
212674.0 361425.0 0
213607.0 364318.0 0
216831.0 360261.0 0
219698.0 360385.0 0
216777.0 363001.0 0
221444.0 359987.0 0
224068.0 361612.0 0
219853.0 363295.0 0
222597.0 364115.0 0
229163.0 361276.0 0
226795.0 362219.0 0
234339.0 362795.0 0
231651.0 363124.0 0
235572.0 360711.0 0
237534.0 359617.0 0
236770.0 363211.0 0
238965.0 361805.0 0
242700.0 361641.0 0
241125.0 364441.0 0
249103.0 363351.0 0
245645.0 362477.0 0
251929.0 360911.0 0
253030.0 363085.0 0
256287.0 360487.0 0
256300.0 363989.0 0
261963.0 360387.0 0
260154.0 363382.0 0
265030.0 362403.0 0
267949.0 360866.0 0
273064.0 360707.0 0
270176.0 363581.0 0
274265.0 362912.0 0
275735.0 358941.0 0
277577.0 362101.0 0
280567.0 359976.0 0
283514.0 359981.0 0
279594.0 363783.0 0
282990.0 364045.0 0
286782.0 360068.0 0
289952.0 359563.0 0
286639.0 363832.0 0
289818.0 362712.0 0
292982.0 360183.0 0
290643.0 365523.0 0
293634.0 362706.0 0
297288.0 360431.0 0
297453.0 363293.0 0
201710.0 366323.0 0
201882.0 368448.0 0
205969.0 366458.0 0
209472.0 366971.0 0
211000.0 364843.0 0
211302.0 369249.0 0
213555.0 368605.0 0
216713.0 367359.0 0
219780.0 366899.0 0
222493.0 369629.0 0
224834.0 367173.0 0
229418.0 365481.0 0
227122.0 364959.0 0
230293.0 368274.0 0
227659.0 369185.0 0
233178.0 366122.0 0
235184.0 369070.0 0
235489.0 365061.0 0
238805.0 365424.0 0
237358.0 367216.0 0
242322.0 368045.0 0
239820.0 368850.0 0
244507.0 365972.0 0
247573.0 366934.0 0
251635.0 365371.0 0
250376.0 368173.0 0
252657.0 369265.0 0
258533.0 366974.0 0
254710.0 367205.0 0
261723.0 366289.0 0
260506.0 369393.0 0
264887.0 369558.0 0
264924.0 366018.0 0
268050.0 366073.0 0
267427.0 370394.0 0
269271.0 368633.0 0
272671.0 365597.0 0
272576.0 368866.0 0
275802.0 364612.0 0
277186.0 366428.0 0
279164.0 366888.0 0
275947.0 368648.0 0
282506.0 367827.0 0
285557.0 368989.0 0
288189.0 367209.0 0
293466.0 365547.0 0
293112.0 368602.0 0
290548.0 369797.0 0
297357.0 366239.0 0
296984.0 369403.0 0
200434.0 377213.0 0
202819.0 373580.0 0
198659.0 378900.0 0
202561.0 370820.0 0
203760.0 376229.0 0
206251.0 370584.0 0
206758.0 374967.0 0
209397.0 371386.0 0
211886.0 374000.0 0
214338.0 372547.0 0
216188.0 375056.0 0
218528.0 374729.0 0
217349.0 371124.0 0
220234.0 372043.0 0
224593.0 372852.0 0
229768.0 372650.0 0
226900.0 372169.0 0
232626.0 371485.0 0
233257.0 375699.0 0
236498.0 374339.0 0
238429.0 371384.0 0
244002.0 371433.0 0
241600.0 373401.0 0
247170.0 370744.0 0
249537.0 372608.0 0
246268.0 375158.0 0
252969.0 372702.0 0
257307.0 369704.0 0
256614.0 373196.0 0
262491.0 371733.0 0
264658.0 373997.0 0
259871.0 374876.0 0
267257.0 373407.0 0
269716.0 372138.0 0
268361.0 375710.0 0
271135.0 375005.0 0
272802.0 372463.0 0
277672.0 370858.0 0
275947.0 374152.0 0
280334.0 370324.0 0
281354.0 373828.0 0
283441.0 372059.0 0
288423.0 374526.0 0
286464.0 372035.0 0
291758.0 372914.0 0
296381.0 372566.0 0
302234.0 373445.0 0
299791.0 377016.0 0
301218.0 379224.0 0
298481.0 375976.0 0
189705.0 384647.0 0
192280.0 383327.0 0
196494.0 380041.0 0
194219.0 381290.0 0
198069.0 383411.0 0
201873.0 379981.0 0
203185.0 378355.0 0
200448.0 382365.0 0
202966.0 382455.0 0
205025.0 379626.0 0
206681.0 378309.0 0
204988.0 381622.0 0
208132.0 380202.0 0
209580.0 375835.0 0
210726.0 379000.0 0
213103.0 377135.0 0
216164.0 377968.0 0
219444.0 378050.0 0
220677.0 381127.0 0
221523.0 375495.0 0
224361.0 376423.0 0
223333.0 379750.0 0
226622.0 376553.0 0
228497.0 375159.0 0
227821.0 379007.0 0
230482.0 379748.0 0
230418.0 376220.0 0
233631.0 379612.0 0
238858.0 377046.0 0
236945.0 380479.0 0
242012.0 377961.0 0
244152.0 376316.0 0
242776.0 380940.0 0
248791.0 376606.0 0
245372.0 378589.0 0
247942.0 380079.0 0
251846.0 376458.0 0
252968.0 379334.0 0
255301.0 377025.0 0
257333.0 378606.0 0
261682.0 377626.0 0
264495.0 376419.0 0
265975.0 377046.0 0
268944.0 378753.0 0
266113.0 380343.0 0
271873.0 377739.0 0
274339.0 377418.0 0
279178.0 376096.0 0
276768.0 379056.0 0
284208.0 375241.0 0
281234.0 379016.0 0
278629.0 381130.0 0
284005.0 377334.0 0
285957.0 379069.0 0
286372.0 381756.0 0
291917.0 377024.0 0
288624.0 377882.0 0
290422.0 380514.0 0
294633.0 375885.0 0
295694.0 378766.0 0
292812.0 380634.0 0
297918.0 380703.0 0
303181.0 380975.0 0
306319.0 380994.0 0
304354.0 383761.0 0
308053.0 382332.0 0
309548.0 384151.0 0
180057.0 390256.0 0
182173.0 389048.0 0
184646.0 387796.0 0
187545.0 386726.0 0
192233.0 386810.0 0
190874.0 388874.0 0
195260.0 385190.0 0
195608.0 387848.0 0
199775.0 386221.0 0
199320.0 389051.0 0
202456.0 385809.0 0
207380.0 383150.0 0
205121.0 386233.0 0
209743.0 383641.0 0
207939.0 387268.0 0
211125.0 387197.0 0
212181.0 381302.0 0
212740.0 384787.0 0
215944.0 384872.0 0
215437.0 380892.0 0
218141.0 382008.0 0
218564.0 384965.0 0
221290.0 384495.0 0
223942.0 384353.0 0
225660.0 380884.0 0
226851.0 383994.0 0
230029.0 383354.0 0
232690.0 385323.0 0
240195.0 382627.0 0
235827.0 384433.0 0
238989.0 386282.0 0
243016.0 385530.0 0
245483.0 382944.0 0
249250.0 384692.0 0
246846.0 386001.0 0
250772.0 381844.0 0
251563.0 385852.0 0
253770.0 383961.0 0
255575.0 381227.0 0
258181.0 382198.0 0
258869.0 385132.0 0
259543.0 380391.0 0
262113.0 384521.0 0
263080.0 381215.0 0
265636.0 384964.0 0
267641.0 384111.0 0
270443.0 382555.0 0
273849.0 382230.0 0
275592.0 385599.0 0
278827.0 383530.0 0
281516.0 383290.0 0
280433.0 386119.0 0
283320.0 381568.0 0
284144.0 384350.0 0
286182.0 386365.0 0
288521.0 383767.0 0
291197.0 385503.0 0
295413.0 382552.0 0
294140.0 384907.0 0
297981.0 385469.0 0
300074.0 384145.0 0
297989.0 388963.0 0
302087.0 386795.0 0
306668.0 385589.0 0
305078.0 387736.0 0
311834.0 385673.0 0
308863.0 388106.0 0
314040.0 387451.0 0
317001.0 387727.0 0
318476.0 389816.0 0
173391.0 393531.0 0
176068.0 393120.0 0
177871.0 391248.0 0
181736.0 393294.0 0
184530.0 391794.0 0
185242.0 394477.0 0
187592.0 390744.0 0
188782.0 393019.0 0
192179.0 393013.0 0
192796.0 390434.0 0
196222.0 391314.0 0
196466.0 394180.0 0
201196.0 391117.0 0
204343.0 389913.0 0
206321.0 391822.0 0
209500.0 390260.0 0
211296.0 392578.0 0
213875.0 389480.0 0
216091.0 388320.0 0
218629.0 387416.0 0
217605.0 390789.0 0
221307.0 387951.0 0
224337.0 388205.0 0
226823.0 391675.0 0
227002.0 387946.0 0
229342.0 391718.0 0
229739.0 388180.0 0
233469.0 389410.0 0
236325.0 388726.0 0
240032.0 389878.0 0
243249.0 388366.0 0
244115.0 391102.0 0
245497.0 388316.0 0
248302.0 389523.0 0
250655.0 388078.0 0
253509.0 389635.0 0
255870.0 386937.0 0
257785.0 390357.0 0
259756.0 388690.0 0
263415.0 388310.0 0
262124.0 391300.0 0
266519.0 388243.0 0
267123.0 390907.0 0
268805.0 387510.0 0
270774.0 386559.0 0
269873.0 390728.0 0
272340.0 386601.0 0
272318.0 389774.0 0
274052.0 388581.0 0
276351.0 390805.0 0
277992.0 388363.0 0
279403.0 392191.0 0
280432.0 390344.0 0
282582.0 386650.0 0
282799.0 390268.0 0
285558.0 389609.0 0
288078.0 390310.0 0
288612.0 387906.0 0
290775.0 388420.0 0
290845.0 391092.0 0
295396.0 388033.0 0
293847.0 389780.0 0
292718.0 393354.0 0
300827.0 389544.0 0
297538.0 392220.0 0
299884.0 393294.0 0
303323.0 391808.0 0
305550.0 390636.0 0
308191.0 392643.0 0
309897.0 390424.0 0
307200.0 394935.0 0
313436.0 390609.0 0
316166.0 392296.0 0
312485.0 394236.0 0
320651.0 391033.0 0
317685.0 394843.0 0
320376.0 394978.0 0
322825.0 392237.0 0
325022.0 393290.0 0
326901.0 394644.0 0
329311.0 394996.0 0
164142.0 400317.0 0
165684.0 398617.0 0
167345.0 397483.0 0
169457.0 396748.0 0
171559.0 395925.0 0
168965.0 399896.0 0
171429.0 399826.0 0
173636.0 396355.0 0
176949.0 395701.0 0
173623.0 399517.0 0
176125.0 398595.0 0
180394.0 395634.0 0
177919.0 400012.0 0
180818.0 398596.0 0
183520.0 397666.0 0
186232.0 396622.0 0
185513.0 399415.0 0
189019.0 396692.0 0
190956.0 394915.0 0
190243.0 399588.0 0
193663.0 395577.0 0
193256.0 398095.0 0
201351.0 394336.0 0
198365.0 396442.0 0
201056.0 397782.0 0
202700.0 398847.0 0
204126.0 395606.0 0
206015.0 398122.0 0
207334.0 394736.0 0
209800.0 395981.0 0
214027.0 392829.0 0
212906.0 396215.0 0
216166.0 393265.0 0
217562.0 395771.0 0
220936.0 391857.0 0
220380.0 395842.0 0
224021.0 392967.0 0
228032.0 395273.0 0
230985.0 395844.0 0
232351.0 392457.0 0
234214.0 396840.0 0
235126.0 394341.0 0
237192.0 392054.0 0
238725.0 395486.0 0
241705.0 393313.0 0
244152.0 395818.0 0
246594.0 392226.0 0
247120.0 395440.0 0
250400.0 392828.0 0
252886.0 392877.0 0
254037.0 396297.0 0
255763.0 393171.0 0
258351.0 394532.0 0
259713.0 392141.0 0
260682.0 395022.0 0
263208.0 394482.0 0
265717.0 392789.0 0
267492.0 394451.0 0
270168.0 396502.0 0
270091.0 393561.0 0
272242.0 394221.0 0
273472.0 392155.0 0
275833.0 393738.0 0
274431.0 396235.0 0
278543.0 394328.0 0
278246.0 397102.0 0
281208.0 395303.0 0
282660.0 393198.0 0
285739.0 393399.0 0
285841.0 396328.0 0
287998.0 398095.0 0
289471.0 395210.0 0
288649.0 393250.0 0
290811.0 398236.0 0
295335.0 393004.0 0
292410.0 396053.0 0
296806.0 396017.0 0
294718.0 397112.0 0
301783.0 395518.0 0
299120.0 397666.0 0
304504.0 395900.0 0
305986.0 399050.0 0
311799.0 396833.0 0
308671.0 397855.0 0
312311.0 399830.0 0
316907.0 399777.0 0
316107.0 397389.0 0
320242.0 398031.0 0
322064.0 399668.0 0
322894.0 395503.0 0
327270.0 397559.0 0
324071.0 397191.0 0
332034.0 397334.0 0
330617.0 396189.0 0
333487.0 399180.0 0
330833.0 399589.0 0
335741.0 400025.0 0
158878.0 402882.0 0
156994.0 405209.0 0
162119.0 402324.0 0
165649.0 404072.0 0
162437.0 405038.0 0
167472.0 401999.0 0
171739.0 402953.0 0
169853.0 405128.0 0
174478.0 402203.0 0
176515.0 404232.0 0
181637.0 401202.0 0
179308.0 403116.0 0
180736.0 405982.0 0
184244.0 401550.0 0
187664.0 401663.0 0
182369.0 404154.0 0
184092.0 404002.0 0
191976.0 401827.0 0
190903.0 403927.0 0
188035.0 404517.0 0
195753.0 399466.0 0
195113.0 402929.0 0
199075.0 399516.0 0
201038.0 402088.0 0
198344.0 404469.0 0
205346.0 400158.0 0
207677.0 401153.0 0
203994.0 402512.0 0
206267.0 403778.0 0
209084.0 398831.0 0
210040.0 402830.0 0
211663.0 400847.0 0
214775.0 398591.0 0
215997.0 401594.0 0
218618.0 398710.0 0
220394.0 400943.0 0
222123.0 397778.0 0
225189.0 397064.0 0
223092.0 402621.0 0
225637.0 400922.0 0
228217.0 399145.0 0
227655.0 402981.0 0
230662.0 399448.0 0
233368.0 399343.0 0
230861.0 403301.0 0
235051.0 400895.0 0
236975.0 398186.0 0
239213.0 400496.0 0
241551.0 398174.0 0
243534.0 400533.0 0
244768.0 402840.0 0
245436.0 398868.0 0
248195.0 399732.0 0
250555.0 396876.0 0
252224.0 400592.0 0
256165.0 398599.0 0
258394.0 397431.0 0
255128.0 401510.0 0
259775.0 400842.0 0
260804.0 398175.0 0
264134.0 398195.0 0
267866.0 401179.0 0
267255.0 397831.0 0
270013.0 400531.0 0
272577.0 398443.0 0
273372.0 401604.0 0
276966.0 399249.0 0
282750.0 398096.0 0
280140.0 399969.0 0
279981.0 403085.0 0
284409.0 401076.0 0
287278.0 400988.0 0
289384.0 402605.0 0
292105.0 400756.0 0
294379.0 402958.0 0
294665.0 399110.0 0
296769.0 401986.0 0
296905.0 399573.0 0
300950.0 400042.0 0
299558.0 402606.0 0
303568.0 400427.0 0
302300.0 403052.0 0
304407.0 403141.0 0
306849.0 403484.0 0
309700.0 400783.0 0
307929.0 401234.0 0
310296.0 403744.0 0
312607.0 402788.0 0
314799.0 401069.0 0
316030.0 403147.0 0
314479.0 405379.0 0
318900.0 401855.0 0
319746.0 404176.0 0
324199.0 401374.0 0
327738.0 400293.0 0
323663.0 403908.0 0
332482.0 402325.0 0
329533.0 403315.0 0
337706.0 402197.0 0
334830.0 403839.0 0
337646.0 405407.0 0
340480.0 403254.0 0
342621.0 405602.0 0
150004.0 408899.0 0
147599.0 410287.0 0
152351.0 407145.0 0
154881.0 406495.0 0
151658.0 410630.0 0
154843.0 409661.0 0
159663.0 406475.0 0
157223.0 411001.0 0
159606.0 409217.0 0
164160.0 407293.0 0
162521.0 409821.0 0
167065.0 407160.0 0
166891.0 409819.0 0
170477.0 408242.0 0
173646.0 406145.0 0
173826.0 408679.0 0
175894.0 409010.0 0
177288.0 407012.0 0
180138.0 408142.0 0
178038.0 409442.0 0
182809.0 406085.0 0
185608.0 405642.0 0
182559.0 410065.0 0
184494.0 407880.0 0
189589.0 407304.0 0
187123.0 409162.0 0
190938.0 409715.0 0
192796.0 406022.0 0
194165.0 408089.0 0
197030.0 407521.0 0
200754.0 407030.0 0
200940.0 409418.0 0
202636.0 405580.0 0
204292.0 406573.0 0
204135.0 408885.0 0
208514.0 406215.0 0
211949.0 406220.0 0
213466.0 403757.0 0
215590.0 405775.0 0
216504.0 408099.0 0
218175.0 403897.0 0
219982.0 406634.0 0
223166.0 406139.0 0
226355.0 405225.0 0
228676.0 408043.0 0
233617.0 405198.0 0
237097.0 403638.0 0
239059.0 407062.0 0
241223.0 402602.0 0
242505.0 405136.0 0
244908.0 405711.0 0
247724.0 403111.0 0
247539.0 406554.0 0
250914.0 403249.0 0
253115.0 405506.0 0
258334.0 403668.0 0
263492.0 402371.0 0
260425.0 407897.0 0
261422.0 405467.0 0
263952.0 406632.0 0
266477.0 403092.0 0
268877.0 404597.0 0
271043.0 403388.0 0
270676.0 406776.0 0
274084.0 406698.0 0
276347.0 403482.0 0
278842.0 406642.0 0
281469.0 407142.0 0
283114.0 404349.0 0
286305.0 405327.0 0
284946.0 408022.0 0
289601.0 405985.0 0
297035.0 406948.0 0
293520.0 406348.0 0
299734.0 405612.0 0
301948.0 408103.0 0
302626.0 404705.0 0
304141.0 405373.0 0
305256.0 408258.0 0
307959.0 406155.0 0
311524.0 407437.0 0
316836.0 406490.0 0
315557.0 409256.0 0
321274.0 406351.0 0
318903.0 408775.0 0
324773.0 406505.0 0
327150.0 405063.0 0
324741.0 409559.0 0
327775.0 409197.0 0
328845.0 407407.0 0
331184.0 406342.0 0
329638.0 409307.0 0
332511.0 409071.0 0
334030.0 405929.0 0
337699.0 407531.0 0
335566.0 408977.0 0
340600.0 407803.0 0
345394.0 406290.0 0
347820.0 407569.0 0
344181.0 409663.0 0
346381.0 410740.0 0
349794.0 409897.0 0
138337.0 416025.0 0
142815.0 412736.0 0
145888.0 412218.0 0
140957.0 414931.0 0
145977.0 415116.0 0
149289.0 412843.0 0
152455.0 412930.0 0
155210.0 413534.0 0
158695.0 413583.0 0
161371.0 412653.0 0
161187.0 414749.0 0
164327.0 411711.0 0
165315.0 414322.0 0
168037.0 413449.0 0
168739.0 410906.0 0
170768.0 414513.0 0
171898.0 411126.0 0
174852.0 412697.0 0
173818.0 415531.0 0
177551.0 412461.0 0
180883.0 412651.0 0
177751.0 415429.0 0
181882.0 415161.0 0
185145.0 411814.0 0
186031.0 413734.0 0
188810.0 411114.0 0
189208.0 413365.0 0
191744.0 413034.0 0
192974.0 410789.0 0
192805.0 414732.0 0
195644.0 411925.0 0
195835.0 414605.0 0
197898.0 410189.0 0
199987.0 412753.0 0
207874.0 409532.0 0
203384.0 411713.0 0
211430.0 410212.0 0
207003.0 413279.0 0
210924.0 412948.0 0
213567.0 408986.0 0
213506.0 413238.0 0
215588.0 412049.0 0
218769.0 410642.0 0
221367.0 413119.0 0
225043.0 408631.0 0
222138.0 409925.0 0
224434.0 411948.0 0
231903.0 409023.0 0
227642.0 411875.0 0
235839.0 408940.0 0
232246.0 412373.0 0
235776.0 412579.0 0
238921.0 412421.0 0
240861.0 409862.0 0
243523.0 407561.0 0
243156.0 412683.0 0
245813.0 410151.0 0
250779.0 411113.0 0
250732.0 407759.0 0
254683.0 410948.0 0
256595.0 407754.0 0
256581.0 413232.0 0
259044.0 410972.0 0
262187.0 409978.0 0
266922.0 407378.0 0
265486.0 411172.0 0
266741.0 413727.0 0
269382.0 410219.0 0
272524.0 409749.0 0
275129.0 411391.0 0
277610.0 409625.0 0
280966.0 410123.0 0
283862.0 410455.0 0
287093.0 411513.0 0
288747.0 409232.0 0
291235.0 410839.0 0
291124.0 413519.0 0
297583.0 410032.0 0
293517.0 409734.0 0
295700.0 411889.0 0
300332.0 410570.0 0
298151.0 414493.0 0
300805.0 413575.0 0
302945.0 410908.0 0
306601.0 411719.0 0
304027.0 413612.0 0
309593.0 410244.0 0
313357.0 410887.0 0
309014.0 414739.0 0
311653.0 413717.0 0
318012.0 411372.0 0
316255.0 413623.0 0
321658.0 410232.0 0
321023.0 412516.0 0
323601.0 415539.0 0
325388.0 412942.0 0
328867.0 413663.0 0
331127.0 411844.0 0
335307.0 411590.0 0
337327.0 412735.0 0
333831.0 413210.0 0
336499.0 414330.0 0
338568.0 410942.0 0
341349.0 411198.0 0
343468.0 413516.0 0
338902.0 415712.0 0
340339.0 414289.0 0
342209.0 415914.0 0
346220.0 414025.0 0
352055.0 411494.0 0
348838.0 414359.0 0
352442.0 414954.0 0
355259.0 412179.0 0
357618.0 414520.0 0
133960.0 419363.0 0
131892.0 421119.0 0
136441.0 417773.0 0
140385.0 419470.0 0
137910.0 420943.0 0
142899.0 417119.0 0
144602.0 419866.0 0
148893.0 416688.0 0
147641.0 419709.0 0
151810.0 416255.0 0
154906.0 416917.0 0
151444.0 419850.0 0
155751.0 419795.0 0
158033.0 416189.0 0
159358.0 417843.0 0
158076.0 420991.0 0
162750.0 416234.0 0
162121.0 418588.0 0
165607.0 419479.0 0
166623.0 417209.0 0
169617.0 417124.0 0
167931.0 420907.0 0
170856.0 419635.0 0
174312.0 418030.0 0
177686.0 417672.0 0
180263.0 417005.0 0
181491.0 419393.0 0
184179.0 416378.0 0
186154.0 418113.0 0
189075.0 416340.0 0
191653.0 418032.0 0
194918.0 417496.0 0
199864.0 415903.0 0
198555.0 419571.0 0
203904.0 416028.0 0
204994.0 419407.0 0
208831.0 416478.0 0
211250.0 415889.0 0
213659.0 416921.0 0
216356.0 415868.0 0
219045.0 414753.0 0
221081.0 418028.0 0
223694.0 415363.0 0
226281.0 416494.0 0
229545.0 414971.0 0
232636.0 416283.0 0
235464.0 416243.0 0
238359.0 416910.0 0
241213.0 415347.0 0
245249.0 415345.0 0
244414.0 418473.0 0
247513.0 413830.0 0
249554.0 416780.0 0
252287.0 414330.0 0
254832.0 416051.0 0
257982.0 417774.0 0
259387.0 414224.0 0
262343.0 413800.0 0
264707.0 416757.0 0
268420.0 417470.0 0
269902.0 413821.0 0
271659.0 418169.0 0
272968.0 412854.0 0
272128.0 415968.0 0
274756.0 415454.0 0
277813.0 414099.0 0
280776.0 414102.0 0
278524.0 418453.0 0
281054.0 417694.0 0
283690.0 414481.0 0
287816.0 415213.0 0
284025.0 418418.0 0
289882.0 418460.0 0
292846.0 417397.0 0
293661.0 414378.0 0
296063.0 415878.0 0
298789.0 418589.0 0
301457.0 417439.0 0
304291.0 417212.0 0
307230.0 417053.0 0
312253.0 418597.0 0
314152.0 416202.0 0
316950.0 417863.0 0
316851.0 420009.0 0
319593.0 415586.0 0
320687.0 419508.0 0
324619.0 418883.0 0
327797.0 419604.0 0
329025.0 416785.0 0
332027.0 417277.0 0
332251.0 420482.0 0
334187.0 415957.0 0
337443.0 418431.0 0
343308.0 418730.0 0
340655.0 419971.0 0
345761.0 417241.0 0
348388.0 418465.0 0
348245.0 421225.0 0
350548.0 416994.0 0
352159.0 419170.0 0
355066.0 416191.0 0
354960.0 418609.0 0
358294.0 418801.0 0
356342.0 420697.0 0
360262.0 416504.0 0
362708.0 417832.0 0
363022.0 421229.0 0
365647.0 418855.0 0
367796.0 420678.0 0
123539.0 425190.0 0
126408.0 424326.0 0
129273.0 422917.0 0
134065.0 424065.0 0
131549.0 425888.0 0
136593.0 423517.0 0
139354.0 425625.0 0
141001.0 423203.0 0
143503.0 422742.0 0
143456.0 425897.0 0
148711.0 422090.0 0
146071.0 423643.0 0
146935.0 425589.0 0
150434.0 424531.0 0
153110.0 421570.0 0
154786.0 423614.0 0
153495.0 425643.0 0
161163.0 421533.0 0
157089.0 423892.0 0
161145.0 424379.0 0
164608.0 421914.0 0
164173.0 423935.0 0
167116.0 423462.0 0
171416.0 422982.0 0
175144.0 421552.0 0
173915.0 425040.0 0
175890.0 424018.0 0
178512.0 420708.0 0
179441.0 423429.0 0
183396.0 420638.0 0
182061.0 423714.0 0
184924.0 423069.0 0
187196.0 420545.0 0
189923.0 421488.0 0
187801.0 424436.0 0
193567.0 420669.0 0
195397.0 421012.0 0
192257.0 423805.0 0
195075.0 424145.0 0
198609.0 424159.0 0
202015.0 420647.0 0
202209.0 424418.0 0
205208.0 423313.0 0
208658.0 419855.0 0
209144.0 423469.0 0
211968.0 419949.0 0
215119.0 420276.0 0
212239.0 423429.0 0
215226.0 423276.0 0
217713.0 419185.0 0
218112.0 422257.0 0
220414.0 422167.0 0
223788.0 419777.0 0
222942.0 423039.0 0
226233.0 423655.0 0
229677.0 419351.0 0
226493.0 419703.0 0
229386.0 423697.0 0
232567.0 423602.0 0
232960.0 419776.0 0
235883.0 420440.0 0
235743.0 424149.0 0
241128.0 419116.0 0
238570.0 420319.0 0
242457.0 422526.0 0
245849.0 424019.0 0
247646.0 420069.0 0
252764.0 419050.0 0
250716.0 422029.0 0
253510.0 423465.0 0
255853.0 421005.0 0
261717.0 418042.0 0
260463.0 420875.0 0
263270.0 421069.0 0
264945.0 420342.0 0
265643.0 423694.0 0
268317.0 421326.0 0
272001.0 421573.0 0
275222.0 419653.0 0
276945.0 423676.0 0
279990.0 421442.0 0
282489.0 421330.0 0
286602.0 420306.0 0
285173.0 422290.0 0
287751.0 422855.0 0
291105.0 421994.0 0
295596.0 418806.0 0
293950.0 421013.0 0
296433.0 422215.0 0
295099.0 423763.0 0
298687.0 425312.0 0
299646.0 422112.0 0
302222.0 420851.0 0
302178.0 424965.0 0
304886.0 420867.0 0
305405.0 424283.0 0
308962.0 420233.0 0
309528.0 424026.0 0
314160.0 421739.0 0
317066.0 423117.0 0
319533.0 421530.0 0
319883.0 425011.0 0
322628.0 424115.0 0
324123.0 422247.0 0
326489.0 423191.0 0
326433.0 425752.0 0
329809.0 422474.0 0
329628.0 426042.0 0
335337.0 420581.0 0
333205.0 424243.0 0
335768.0 423554.0 0
338124.0 422146.0 0
340633.0 423342.0 0
340497.0 426606.0 0
345413.0 421937.0 0
344182.0 425039.0 0
351641.0 421789.0 0
350256.0 424604.0 0
353164.0 426190.0 0
354345.0 422432.0 0
358680.0 421855.0 0
355247.0 424777.0 0
357661.0 424973.0 0
360852.0 421915.0 0
362484.0 425300.0 0
364706.0 422215.0 0
367480.0 423516.0 0
364979.0 424873.0 0
370641.0 421720.0 0
372475.0 423335.0 0
369323.0 425736.0 0
375083.0 424200.0 0
376858.0 425012.0 0
114195.0 431525.0 0
115850.0 429207.0 0
119107.0 429066.0 0
121567.0 427550.0 0
124326.0 429178.0 0
121722.0 431449.0 0
125213.0 431406.0 0
126797.0 427583.0 0
129866.0 428820.0 0
128050.0 431559.0 0
133902.0 426875.0 0
132660.0 430679.0 0
136529.0 426927.0 0
139335.0 429634.0 0
136098.0 429838.0 0
141001.0 427115.0 0
141883.0 429503.0 0
145113.0 427443.0 0
149716.0 427586.0 0
146808.0 429640.0 0
154890.0 428069.0 0
152206.0 429364.0 0
158088.0 426586.0 0
156441.0 431175.0 0
160535.0 430040.0 0
163327.0 426834.0 0
166674.0 426905.0 0
170369.0 426280.0 0
167068.0 430476.0 0
170193.0 430813.0 0
174683.0 426990.0 0
172335.0 428661.0 0
177879.0 426678.0 0
177424.0 430433.0 0
181866.0 427594.0 0
185088.0 427109.0 0
190604.0 426605.0 0
187994.0 428371.0 0
194456.0 427272.0 0
192046.0 429587.0 0
200377.0 427495.0 0
197344.0 428434.0 0
200596.0 430549.0 0
206688.0 425594.0 0
203021.0 427668.0 0
206355.0 429445.0 0
209443.0 426634.0 0
212005.0 426533.0 0
215310.0 426816.0 0
217916.0 424932.0 0
216606.0 429510.0 0
220699.0 427013.0 0
224810.0 427214.0 0
227353.0 428584.0 0
229552.0 427566.0 0
232664.0 427180.0 0
235392.0 427701.0 0
238601.0 424132.0 0
238680.0 428372.0 0
241531.0 426631.0 0
244277.0 427941.0 0
249179.0 425781.0 0
252560.0 426901.0 0
258081.0 423857.0 0
255510.0 425647.0 0
257680.0 427535.0 0
255372.0 429297.0 0
262156.0 424824.0 0
259922.0 427969.0 0
264288.0 428217.0 0
267457.0 426932.0 0
269300.0 424596.0 0
270474.0 428425.0 0
272856.0 425218.0 0
275927.0 427663.0 0
280164.0 425490.0 0
278516.0 428933.0 0
281730.0 429314.0 0
283422.0 424675.0 0
286776.0 425302.0 0
283784.0 427939.0 0
286788.0 428955.0 0
289876.0 425592.0 0
292858.0 424798.0 0
290275.0 428402.0 0
296360.0 425753.0 0
294102.0 428107.0 0
299178.0 428038.0 0
302324.0 428611.0 0
305811.0 427633.0 0
313293.0 425752.0 0
309188.0 427279.0 0
312874.0 429607.0 0
316839.0 426349.0 0
315650.0 429365.0 0
318321.0 429293.0 0
321489.0 428909.0 0
324541.0 427655.0 0
333016.0 426511.0 0
329552.0 429769.0 0
332894.0 429300.0 0
335834.0 428177.0 0
337755.0 425863.0 0
342841.0 428137.0 0
340343.0 429205.0 0
338854.0 430602.0 0
347949.0 426825.0 0
344152.0 430791.0 0
346741.0 429893.0 0
351271.0 429628.0 0
354543.0 428884.0 0
356703.0 428093.0 0
356892.0 430749.0 0
359087.0 430437.0 0
360088.0 427208.0 0
362656.0 429921.0 0
365120.0 429021.0 0
367288.0 427804.0 0
372752.0 426626.0 0
369449.0 430045.0 0
372581.0 429644.0 0
376377.0 427640.0 0
378553.0 426670.0 0
379377.0 429779.0 0
375807.0 429888.0 0
380715.0 427269.0 0
382281.0 429543.0 0
384712.0 430278.0 0
109109.0 434986.0 0
106231.0 436680.0 0
111870.0 433677.0 0
114452.0 435277.0 0
117452.0 431826.0 0
118147.0 435204.0 0
121478.0 433831.0 0
124843.0 434172.0 0
122312.0 436403.0 0
129144.0 433526.0 0
127003.0 436786.0 0
132088.0 433811.0 0
130793.0 436328.0 0
134739.0 435569.0 0
137409.0 433040.0 0
140281.0 434023.0 0
143188.0 431940.0 0
144328.0 434993.0 0
148201.0 432276.0 0
147409.0 435337.0 0
151540.0 432176.0 0
154709.0 432703.0 0
151495.0 434974.0 0
154679.0 435593.0 0
158671.0 433561.0 0
163940.0 431491.0 0
161451.0 434554.0 0
164081.0 434654.0 0
167347.0 434179.0 0
170892.0 433451.0 0
174290.0 430901.0 0
174367.0 433942.0 0
181183.0 431344.0 0
177180.0 433949.0 0
179904.0 434659.0 0
185132.0 431119.0 0
183511.0 434332.0 0
185955.0 433350.0 0
186693.0 435493.0 0
188681.0 431755.0 0
190890.0 434945.0 0
194465.0 431890.0 0
198158.0 432506.0 0
195580.0 434810.0 0
200881.0 433636.0 0
203085.0 431737.0 0
203411.0 434618.0 0
209889.0 430357.0 0
206933.0 433789.0 0
210435.0 433783.0 0
212434.0 429531.0 0
214187.0 432371.0 0
217044.0 434475.0 0
219480.0 431467.0 0
221625.0 433858.0 0
223529.0 430752.0 0
225046.0 434233.0 0
226787.0 430895.0 0
229371.0 433653.0 0
231454.0 430377.0 0
233284.0 434384.0 0
235068.0 431433.0 0
239307.0 432339.0 0
241957.0 430117.0 0
243449.0 432364.0 0
247486.0 430330.0 0
245694.0 435063.0 0
249673.0 434434.0 0
251693.0 430487.0 0
253934.0 433588.0 0
257830.0 431519.0 0
261261.0 430678.0 0
264938.0 431994.0 0
267406.0 430362.0 0
269372.0 431062.0 0
268075.0 434389.0 0
271570.0 433104.0 0
273431.0 430185.0 0
275839.0 431963.0 0
274760.0 434761.0 0
278648.0 432612.0 0
281983.0 432975.0 0
284374.0 431016.0 0
287577.0 432824.0 0
291334.0 431912.0 0
296950.0 430927.0 0
294319.0 434386.0 0
300793.0 431541.0 0
298778.0 434273.0 0
300905.0 434818.0 0
304579.0 430893.0 0
303240.0 433265.0 0
306959.0 434703.0 0
308804.0 431060.0 0
311825.0 434492.0 0
317407.0 431801.0 0
314900.0 433057.0 0
319551.0 433177.0 0
322180.0 432140.0 0
319092.0 435375.0 0
323540.0 434791.0 0
326066.0 430970.0 0
326999.0 434902.0 0
331032.0 434120.0 0
334065.0 432451.0 0
336250.0 431088.0 0
335987.0 434743.0 0
337503.0 433743.0 0
340073.0 432960.0 0
342702.0 432898.0 0
339336.0 435784.0 0
343095.0 436146.0 0
349317.0 432103.0 0
346870.0 433324.0 0
346513.0 436107.0 0
353551.0 432336.0 0
351355.0 434443.0 0
356401.0 433684.0 0
359394.0 434269.0 0
354799.0 436361.0 0
361785.0 432197.0 0
361832.0 436617.0 0
365862.0 431926.0 0
364610.0 434254.0 0
368496.0 432346.0 0
367062.0 436459.0 0
372856.0 432675.0 0
370206.0 434841.0 0
375403.0 434011.0 0
377799.0 432002.0 0
380283.0 434123.0 0
382236.0 432538.0 0
384598.0 433304.0 0
382704.0 436263.0 0
384751.0 435735.0 0
386819.0 432029.0 0
389026.0 433501.0 0
387386.0 436306.0 0
391632.0 434767.0 0
393909.0 436613.0 0
97556.2 442099.0 0
103137.0 437882.0 0
100585.0 440562.0 0
103615.0 440800.0 0
106941.0 439878.0 0
110324.0 438331.0 0
113052.0 437793.0 0
111310.0 440995.0 0
117602.0 439478.0 0
121751.0 438341.0 0
124188.0 439002.0 0
123846.0 441827.0 0
128768.0 440149.0 0
132631.0 439161.0 0
137233.0 437529.0 0
136132.0 439852.0 0
140324.0 437656.0 0
140061.0 440883.0 0
143282.0 437599.0 0
144936.0 439665.0 0
142686.0 441261.0 0
148621.0 438279.0 0
152231.0 438140.0 0
151259.0 440831.0 0
154684.0 440040.0 0
157542.0 436452.0 0
160280.0 438667.0 0
164197.0 437670.0 0
162497.0 441424.0 0
168113.0 437887.0 0
171999.0 436971.0 0
175332.0 437626.0 0
172804.0 441063.0 0
176936.0 436357.0 0
179524.0 437921.0 0
176795.0 440543.0 0
181240.0 440434.0 0
182666.0 437377.0 0
185938.0 438835.0 0
189976.0 438969.0 0
193999.0 437020.0 0
198596.0 435499.0 0
197106.0 438524.0 0
201264.0 436903.0 0
199523.0 440417.0 0
204536.0 437160.0 0
203037.0 439675.0 0
209623.0 437341.0 0
207103.0 437101.0 0
210126.0 440782.0 0
212939.0 436902.0 0
216379.0 438446.0 0
219757.0 435821.0 0
219271.0 438553.0 0
222709.0 437697.0 0
226537.0 437871.0 0
230223.0 438302.0 0
233565.0 437246.0 0
237235.0 435558.0 0
235829.0 439603.0 0
239789.0 438588.0 0
241591.0 435215.0 0
243905.0 438307.0 0
248455.0 438421.0 0
252384.0 437541.0 0
257843.0 434913.0 0
255876.0 436887.0 0
259455.0 438635.0 0
261392.0 434593.0 0
263589.0 439340.0 0
264746.0 435688.0 0
267685.0 438465.0 0
271977.0 437387.0 0
277619.0 436102.0 0
275655.0 439999.0 0
280685.0 436117.0 0
279879.0 439391.0 0
283230.0 438541.0 0
284993.0 435099.0 0
287592.0 438030.0 0
292908.0 437581.0 0
290190.0 436118.0 0
296982.0 437118.0 0
300346.0 438136.0 0
304201.0 437017.0 0
307456.0 440814.0 0
309503.0 437247.0 0
316489.0 436454.0 0
313414.0 438157.0 0
321656.0 437403.0 0
318611.0 440139.0 0
326740.0 438243.0 0
324095.0 440944.0 0
330948.0 437720.0 0
333093.0 439165.0 0
329345.0 439396.0 0
331549.0 441008.0 0
334606.0 436689.0 0
335392.0 441219.0 0
337835.0 438562.0 0
342010.0 439012.0 0
346167.0 439045.0 0
350020.0 436910.0 0
353976.0 439619.0 0
349277.0 440061.0 0
357972.0 437152.0 0
357887.0 439699.0 0
360387.0 439008.0 0
364710.0 439136.0 0
368781.0 438836.0 0
367841.0 440928.0 0
372149.0 437084.0 0
371189.0 439982.0 0
374497.0 441316.0 0
375801.0 437789.0 0
378921.0 436935.0 0
379199.0 440811.0 0
381353.0 438421.0 0
383795.0 440020.0 0
386323.0 439407.0 0
389676.0 440699.0 0
389980.0 437050.0 0
392295.0 438948.0 0
394445.0 440380.0 0
396647.0 438300.0 0
399040.0 440517.0 0
402021.0 441186.0 0
92247.6 444725.0 0
90229.2 447065.0 0
94851.0 443643.0 0
95398.6 447011.0 0
98860.6 445383.0 0
101331.0 443877.0 0
104031.0 442772.0 0
103141.0 444922.0 0
102633.0 447147.0 0
107890.0 442728.0 0
105467.0 444721.0 0
109798.0 445014.0 0
106076.0 446976.0 0
114185.0 442597.0 0
113085.0 446147.0 0
116948.0 445126.0 0
120483.0 442721.0 0
121156.0 446114.0 0
124340.0 446191.0 0
126759.0 443381.0 0
130457.0 443484.0 0
128037.0 446424.0 0
133167.0 442692.0 0
130746.0 446006.0 0
133998.0 445967.0 0
136771.0 442145.0 0
140267.0 443976.0 0
137346.0 445142.0 0
143375.0 444718.0 0
145889.0 442776.0 0
148596.0 441832.0 0
150412.0 443452.0 0
147210.0 444786.0 0
148748.0 445179.0 0
152712.0 442340.0 0
151836.0 445766.0 0
154413.0 444619.0 0
157400.0 442327.0 0
160319.0 443822.0 0
157371.0 446315.0 0
160316.0 446454.0 0
165768.0 441673.0 0
162852.0 444124.0 0
163390.0 446298.0 0
169557.0 441638.0 0
166535.0 445381.0 0
169693.0 444411.0 0
172672.0 445012.0 0
175316.0 443630.0 0
179302.0 442587.0 0
177352.0 445559.0 0
183503.0 441319.0 0
181719.0 445002.0 0
185296.0 444173.0 0
187952.0 442263.0 0
190863.0 444849.0 0
193443.0 441325.0 0
197027.0 442941.0 0
201279.0 443114.0 0
206468.0 440342.0 0
204302.0 443227.0 0
207771.0 444346.0 0
213604.0 441615.0 0
215046.0 444874.0 0
219985.0 440793.0 0
217346.0 442095.0 0
220443.0 444163.0 0
223428.0 441367.0 0
227607.0 441829.0 0
232482.0 440538.0 0
230824.0 443377.0 0
234195.0 443128.0 0
237958.0 442875.0 0
242226.0 442890.0 0
246448.0 441448.0 0
249160.0 442951.0 0
251076.0 441335.0 0
253432.0 444234.0 0
255385.0 440780.0 0
259084.0 442540.0 0
262225.0 443249.0 0
267177.0 443713.0 0
270486.0 440895.0 0
272980.0 443543.0 0
279266.0 443415.0 0
282917.0 442486.0 0
286260.0 440854.0 0
285974.0 444704.0 0
290661.0 439713.0 0
289158.0 442253.0 0
291972.0 444404.0 0
294799.0 440982.0 0
298981.0 441783.0 0
297175.0 444917.0 0
302999.0 441661.0 0
300351.0 444849.0 0
303672.0 445188.0 0
307004.0 445393.0 0
311840.0 441372.0 0
311242.0 445089.0 0
315264.0 441590.0 0
315024.0 444942.0 0
318760.0 444286.0 0
322428.0 444445.0 0
326855.0 444414.0 0
328699.0 442355.0 0
333025.0 442967.0 0
330627.0 444462.0 0
334518.0 445510.0 0
337535.0 444567.0 0
339576.0 441812.0 0
342167.0 444395.0 0
344352.0 441604.0 0
348355.0 443775.0 0
352357.0 443478.0 0
356385.0 442861.0 0
359310.0 443003.0 0
354814.0 445769.0 0
363165.0 442628.0 0
362675.0 446541.0 0
367557.0 444172.0 0
370733.0 442394.0 0
373206.0 443971.0 0
370371.0 446499.0 0
377210.0 442450.0 0
377579.0 444782.0 0
375577.0 446310.0 0
381805.0 442710.0 0
384672.0 444437.0 0
380306.0 445245.0 0
384196.0 446654.0 0
386719.0 443154.0 0
388355.0 445383.0 0
391201.0 443580.0 0
393630.0 442250.0 0
393069.0 446220.0 0
395969.0 442447.0 0
396451.0 445397.0 0
399580.0 444194.0 0
404237.0 443110.0 0
402381.0 445971.0 0
407109.0 444819.0 0
409755.0 446258.0 0
81838.2 451678.0 0
84894.2 450135.0 0
87266.3 448004.0 0
88205.9 451922.0 0
92180.4 449599.0 0
93758.5 452277.0 0
97148.3 449162.0 0
97411.5 452202.0 0
100296.0 448027.0 0
104403.0 448344.0 0
101129.0 451114.0 0
104420.0 451178.0 0
108706.0 448021.0 0
107762.0 450815.0 0
111790.0 448976.0 0
115023.0 447750.0 0
111041.0 451819.0 0
114432.0 450766.0 0
117737.0 447362.0 0
118001.0 450345.0 0
121415.0 449409.0 0
124649.0 449134.0 0
122042.0 451752.0 0
124584.0 451774.0 0
127917.0 449150.0 0
127786.0 452384.0 0
131244.0 448890.0 0
134601.0 449425.0 0
137631.0 448361.0 0
136806.0 451479.0 0
139728.0 452063.0 0
140984.0 448197.0 0
145762.0 447376.0 0
143944.0 450876.0 0
149527.0 448614.0 0
154267.0 448217.0 0
151820.0 450964.0 0
154585.0 451496.0 0
157708.0 449225.0 0
160293.0 448983.0 0
163627.0 449185.0 0
169640.0 446412.0 0
167500.0 449223.0 0
171137.0 448586.0 0
175090.0 448103.0 0
179626.0 448197.0 0
177411.0 450716.0 0
183445.0 448671.0 0
187018.0 447486.0 0
188037.0 451221.0 0
194733.0 446019.0 0
191626.0 449181.0 0
195343.0 449526.0 0
198884.0 446324.0 0
198849.0 450691.0 0
203539.0 447549.0 0
208146.0 448652.0 0
211469.0 445281.0 0
211738.0 448788.0 0
214602.0 447828.0 0
217501.0 445368.0 0
218201.0 448760.0 0
224699.0 444860.0 0
222290.0 447480.0 0
225442.0 449455.0 0
227638.0 446607.0 0
231343.0 447519.0 0
234908.0 446671.0 0
238795.0 446901.0 0
242752.0 448092.0 0
246533.0 445965.0 0
249027.0 449652.0 0
250724.0 445656.0 0
252076.0 448681.0 0
254694.0 447676.0 0
257084.0 444975.0 0
258321.0 448523.0 0
260229.0 446101.0 0
264017.0 447185.0 0
266990.0 449775.0 0
270647.0 447184.0 0
274137.0 449242.0 0
276046.0 445918.0 0
278031.0 450401.0 0
279578.0 447669.0 0
282862.0 446980.0 0
288751.0 445775.0 0
286757.0 449396.0 0
290954.0 448394.0 0
294780.0 446032.0 0
295039.0 449909.0 0
302619.0 448341.0 0
298865.0 448000.0 0
306863.0 449425.0 0
311292.0 449630.0 0
318693.0 447858.0 0
315577.0 448904.0 0
321482.0 447627.0 0
322272.0 449996.0 0
325369.0 447421.0 0
328628.0 446422.0 0
328697.0 450318.0 0
331892.0 448207.0 0
335544.0 449050.0 0
338380.0 448474.0 0
341348.0 447302.0 0
341136.0 451494.0 0
343588.0 449593.0 0
346080.0 446974.0 0
347380.0 450846.0 0
349320.0 448775.0 0
350692.0 446967.0 0
353258.0 448610.0 0
351726.0 451169.0 0
355838.0 449847.0 0
358500.0 446969.0 0
359911.0 450439.0 0
362985.0 449423.0 0
365831.0 447052.0 0
366286.0 449342.0 0
368879.0 449510.0 0
373370.0 448827.0 0
371545.0 451635.0 0
379218.0 449173.0 0
376406.0 451184.0 0
382213.0 447887.0 0
384267.0 450568.0 0
385938.0 448632.0 0
388124.0 447655.0 0
388448.0 450998.0 0
390884.0 448174.0 0
391245.0 450744.0 0
394774.0 450407.0 0
397708.0 448748.0 0
400921.0 449055.0 0
405029.0 450752.0 0
405655.0 447768.0 0
408798.0 448944.0 0
412302.0 447813.0 0
414963.0 449305.0 0
412464.0 450768.0 0
417096.0 451279.0 0
73297.2 457285.0 0
76249.2 455389.0 0
78996.3 453406.0 0
83532.7 454322.0 0
80439.9 456186.0 0
86296.6 454764.0 0
87423.2 457445.0 0
90398.3 453945.0 0
93869.3 455184.0 0
90810.0 456735.0 0
98127.2 455132.0 0
95678.9 457233.0 0
101470.0 454321.0 0
104692.0 454512.0 0
107938.0 453399.0 0
107865.0 456072.0 0
110691.0 454244.0 0
112917.0 454894.0 0
114639.0 453340.0 0
118700.0 453117.0 0
116796.0 455637.0 0
121567.0 454791.0 0
124131.0 453972.0 0
126070.0 455362.0 0
129702.0 456277.0 0
131930.0 452742.0 0
135054.0 454745.0 0
138884.0 456011.0 0
142645.0 454388.0 0
147642.0 452549.0 0
145658.0 456331.0 0
154783.0 454486.0 0
151306.0 454412.0 0
157775.0 452401.0 0
161048.0 452004.0 0
157551.0 456422.0 0
164653.0 452658.0 0
161501.0 455364.0 0
165199.0 456097.0 0
168755.0 453315.0 0
172910.0 452009.0 0
171165.0 456033.0 0
173374.0 455302.0 0
176626.0 453636.0 0
180951.0 451818.0 0
179863.0 455474.0 0
184688.0 451832.0 0
183625.0 455168.0 0
186330.0 454270.0 0
189231.0 454456.0 0
192474.0 453089.0 0
195802.0 453011.0 0
198442.0 454615.0 0
201515.0 451800.0 0
204589.0 451679.0 0
202506.0 455461.0 0
207493.0 452979.0 0
210646.0 451573.0 0
210976.0 454957.0 0
214181.0 452083.0 0
218246.0 453131.0 0
222061.0 451453.0 0
228879.0 451348.0 0
225577.0 453438.0 0
228057.0 455554.0 0
232424.0 451148.0 0
230879.0 455014.0 0
233735.0 453786.0 0
235522.0 450426.0 0
239151.0 451051.0 0
236871.0 454520.0 0
242339.0 452263.0 0
244428.0 454866.0 0
245647.0 451222.0 0
248837.0 454641.0 0
252614.0 452375.0 0
255888.0 451324.0 0
259351.0 452530.0 0
261842.0 449647.0 0
264049.0 452966.0 0
267894.0 454695.0 0
270748.0 451842.0 0
274861.0 453860.0 0
278931.0 453679.0 0
282456.0 451647.0 0
281030.0 455538.0 0
286373.0 453280.0 0
290699.0 453367.0 0
299411.0 451933.0 0
295973.0 455019.0 0
302915.0 452377.0 0
303714.0 455295.0 0
300369.0 455753.0 0
305796.0 455616.0 0
306860.0 453330.0 0
314237.0 453180.0 0
310591.0 454581.0 0
317381.0 452764.0 0
319999.0 450798.0 0
321234.0 454244.0 0
325137.0 452327.0 0
328779.0 454596.0 0
331290.0 452931.0 0
331810.0 455896.0 0
334643.0 452568.0 0
338080.0 452713.0 0
334844.0 456390.0 0
339227.0 456889.0 0
342582.0 454195.0 0
345047.0 452751.0 0
349057.0 453459.0 0
346709.0 454876.0 0
354065.0 453706.0 0
351321.0 456194.0 0
356834.0 452197.0 0
356107.0 456620.0 0
358587.0 454951.0 0
361535.0 453741.0 0
365017.0 452778.0 0
368770.0 453575.0 0
365676.0 456823.0 0
374748.0 454720.0 0
370985.0 456607.0 0
379262.0 454741.0 0
381654.0 452304.0 0
384130.0 454824.0 0
381741.0 455867.0 0
386591.0 452886.0 0
389443.0 455649.0 0
391387.0 453338.0 0
394139.0 453347.0 0
394558.0 455450.0 0
397370.0 455880.0 0
398071.0 452982.0 0
400067.0 456854.0 0
402091.0 453042.0 0
403014.0 457014.0 0
406630.0 455513.0 0
409006.0 452494.0 0
412312.0 454874.0 0
414378.0 452977.0 0
415470.0 456297.0 0
417413.0 454810.0 0
420028.0 452483.0 0
420188.0 456872.0 0
422479.0 454538.0 0
425479.0 456179.0 0
64303.4 462295.0 0
67363.7 460947.0 0
69829.5 458733.0 0
71849.2 460599.0 0
75332.2 460060.0 0
77232.3 457915.0 0
77927.3 460846.0 0
79626.9 458812.0 0
81281.6 460212.0 0
83113.5 457345.0 0
78824.9 462628.0 0
84458.0 459455.0 0
88758.7 460451.0 0
92626.1 459736.0 0
97945.0 459975.0 0
95291.8 462232.0 0
100695.0 457847.0 0
103798.0 457583.0 0
99973.9 462586.0 0
102298.0 461196.0 0
106406.0 459066.0 0
105107.0 461916.0 0
109260.0 460794.0 0
110503.0 457766.0 0
113971.0 458349.0 0
112103.0 461882.0 0
119556.0 457777.0 0
116938.0 460786.0 0
123675.0 457827.0 0
121403.0 461721.0 0
126829.0 458809.0 0
129209.0 460538.0 0
125110.0 461575.0 0
133060.0 459155.0 0
137382.0 460475.0 0
141913.0 458282.0 0
144912.0 460691.0 0
149106.0 457612.0 0
148939.0 460706.0 0
153197.0 457919.0 0
152329.0 462007.0 0
160378.0 458952.0 0
156760.0 461227.0 0
162578.0 458236.0 0
165355.0 461098.0 0
168471.0 457522.0 0
169847.0 460864.0 0
171989.0 458499.0 0
173685.0 461047.0 0
175582.0 457509.0 0
176579.0 461363.0 0
179178.0 459248.0 0
183353.0 459490.0 0
187202.0 457568.0 0
187188.0 461586.0 0
190992.0 457109.0 0
194485.0 457023.0 0
190345.0 460332.0 0
198409.0 459208.0 0
203210.0 460084.0 0
206812.0 457015.0 0
214884.0 457293.0 0
210505.0 459161.0 0
218557.0 456741.0 0
219086.0 459910.0 0
222024.0 455994.0 0
222358.0 460488.0 0
225695.0 458230.0 0
229443.0 459486.0 0
233947.0 458009.0 0
238263.0 458470.0 0
240664.0 455160.0 0
242688.0 458832.0 0
246433.0 457786.0 0
250126.0 459971.0 0
252585.0 456322.0 0
254557.0 459629.0 0
256138.0 455537.0 0
258263.0 458976.0 0
260887.0 456301.0 0
261968.0 460808.0 0
264998.0 457767.0 0
269367.0 460009.0 0
271375.0 455862.0 0
274148.0 458460.0 0
277922.0 457083.0 0
284460.0 456392.0 0
281584.0 459392.0 0
288261.0 456414.0 0
287031.0 459839.0 0
292749.0 456960.0 0
290935.0 458722.0 0
298235.0 459421.0 0
294584.0 459532.0 0
303341.0 459453.0 0
307928.0 457618.0 0
312313.0 459988.0 0
314761.0 456519.0 0
318208.0 456936.0 0
317175.0 461277.0 0
321561.0 458612.0 0
325215.0 457115.0 0
329678.0 458464.0 0
333266.0 459552.0 0
336732.0 459866.0 0
344339.0 456980.0 0
342859.0 460033.0 0
348229.0 458600.0 0
345912.0 461641.0 0
351160.0 461700.0 0
354102.0 459081.0 0
359521.0 458548.0 0
357329.0 461123.0 0
362343.0 457045.0 0
360667.0 461554.0 0
363738.0 460408.0 0
368187.0 458617.0 0
366631.0 461164.0 0
369640.0 461625.0 0
372635.0 460359.0 0
376105.0 458830.0 0
379494.0 458309.0 0
379947.0 461884.0 0
382704.0 458437.0 0
382701.0 461362.0 0
386308.0 458003.0 0
389306.0 459976.0 0
386100.0 461467.0 0
392704.0 458396.0 0
396642.0 459091.0 0
399941.0 459691.0 0
399216.0 462714.0 0
403455.0 460361.0 0
408047.0 459918.0 0
411632.0 457719.0 0
415055.0 459883.0 0
418647.0 459982.0 0
423342.0 458497.0 0
425675.0 460333.0 0
422341.0 462056.0 0
428371.0 458664.0 0
429505.0 462564.0 0
432431.0 460819.0 0
435958.0 462119.0 0
55543.8 467663.0 0
59002.3 466206.0 0
61449.5 463563.0 0
62206.8 467333.0 0
68577.5 463333.0 0
67377.1 466020.0 0
64500.7 464821.0 0
71732.1 463504.0 0
71946.8 467171.0 0
74984.5 462876.0 0
76558.6 465712.0 0
82027.0 463317.0 0
80063.0 466658.0 0
86369.3 462433.0 0
84824.4 465653.0 0
88525.7 465736.0 0
90492.6 463168.0 0
93026.7 464974.0 0
91218.3 467766.0 0
95301.6 466796.0 0
97490.3 464698.0 0
101045.0 465693.0 0
103533.0 464575.0 0
107755.0 463977.0 0
105532.0 466859.0 0
110860.0 465798.0 0
115195.0 464134.0 0
118633.0 464248.0 0
117302.0 466718.0 0
122510.0 465453.0 0
119513.0 466252.0 0
127710.0 462336.0 0
126228.0 465153.0 0
131454.0 464848.0 0
136140.0 464639.0 0
141083.0 462370.0 0
139777.0 466279.0 0
144147.0 465449.0 0
147588.0 464162.0 0
150480.0 465682.0 0
154450.0 465479.0 0
158570.0 465608.0 0
161177.0 461996.0 0
162876.0 466339.0 0
167624.0 465203.0 0
171555.0 463699.0 0
179868.0 463268.0 0
175626.0 465063.0 0
184218.0 464869.0 0
189661.0 465132.0 0
193671.0 461615.0 0
193553.0 465658.0 0
196923.0 464220.0 0
200549.0 462960.0 0
203790.0 465008.0 0
207082.0 461886.0 0
213257.0 461447.0 0
210674.0 463346.0 0
213453.0 464284.0 0
216465.0 462473.0 0
220467.0 464562.0 0
225362.0 463460.0 0
229461.0 464146.0 0
232421.0 461848.0 0
236434.0 462592.0 0
240325.0 461972.0 0
240148.0 465620.0 0
243648.0 463621.0 0
246336.0 461457.0 0
247904.0 464920.0 0
252387.0 464134.0 0
257723.0 463865.0 0
263239.0 465594.0 0
265586.0 462026.0 0
267701.0 465998.0 0
273673.0 462906.0 0
270502.0 464159.0 0
277676.0 461381.0 0
284204.0 462231.0 0
280796.0 464331.0 0
287875.0 464157.0 0
289964.0 461813.0 0
292979.0 462388.0 0
290851.0 464999.0 0
296806.0 463729.0 0
300813.0 463159.0 0
307690.0 461670.0 0
305235.0 465417.0 0
310610.0 464892.0 0
314896.0 464958.0 0
318733.0 466232.0 0
321831.0 463037.0 0
326080.0 461412.0 0
326061.0 466525.0 0
330371.0 463550.0 0
335297.0 462758.0 0
340034.0 462524.0 0
337922.0 465704.0 0
344087.0 465049.0 0
348677.0 464245.0 0
354548.0 464207.0 0
359179.0 465281.0 0
363105.0 464076.0 0
366775.0 464292.0 0
370259.0 465032.0 0
373958.0 464053.0 0
377127.0 462112.0 0
377695.0 465211.0 0
384182.0 464821.0 0
380606.0 465391.0 0
389250.0 462880.0 0
388141.0 465901.0 0
392786.0 462613.0 0
392201.0 466712.0 0
396297.0 462303.0 0
395842.0 465752.0 0
399264.0 466409.0 0
402840.0 464343.0 0
407081.0 464611.0 0
410708.0 465679.0 0
411791.0 462656.0 0
415292.0 464112.0 0
413778.0 466609.0 0
419090.0 465193.0 0
426122.0 463965.0 0
423327.0 466110.0 0
431062.0 465855.0 0
427603.0 467328.0 0
433849.0 463758.0 0
435611.0 467510.0 0
438375.0 464861.0 0
441704.0 466785.0 0
53028.1 470851.0 0
48664.0 473154.0 0
57957.3 469341.0 0
56921.1 472114.0 0
60892.4 470990.0 0
65063.2 468979.0 0
68306.9 469246.0 0
64531.0 472175.0 0
67992.1 472411.0 0
71126.3 471109.0 0
75567.3 469962.0 0
79309.4 471167.0 0
82954.2 468849.0 0
86788.3 468641.0 0
85152.8 471574.0 0
89167.3 470200.0 0
94061.7 469997.0 0
98752.2 468761.0 0
96935.1 472747.0 0
102840.0 468121.0 0
101556.0 471390.0 0
107924.0 468575.0 0
104730.0 470293.0 0
107393.0 472431.0 0
111971.0 470658.0 0
114510.0 467364.0 0
116459.0 469231.0 0
120066.0 469620.0 0
123825.0 468813.0 0
123777.0 472496.0 0
127586.0 468929.0 0
131537.0 469703.0 0
135205.0 469086.0 0
139219.0 469957.0 0
143092.0 469343.0 0
147328.0 468625.0 0
152042.0 469066.0 0
156169.0 469267.0 0
159830.0 469221.0 0
161727.0 470240.0 0
165824.0 469860.0 0
171493.0 468358.0 0
176111.0 469298.0 0
179416.0 467345.0 0
179080.0 471747.0 0
182383.0 469043.0 0
186462.0 468884.0 0
189747.0 469714.0 0
192437.0 468601.0 0
200045.0 466335.0 0
196717.0 469498.0 0
201928.0 469220.0 0
208057.0 466031.0 0
205604.0 468657.0 0
208971.0 470671.0 0
211704.0 467176.0 0
213357.0 470258.0 0
216123.0 467081.0 0
219509.0 468614.0 0
222939.0 468108.0 0
226593.0 468059.0 0
233126.0 465623.0 0
230123.0 468051.0 0
233098.0 469908.0 0
236690.0 467650.0 0
240607.0 469927.0 0
244079.0 467413.0 0
247487.0 469671.0 0
250665.0 467704.0 0
254844.0 469166.0 0
260070.0 469411.0 0
265085.0 470752.0 0
272182.0 466833.0 0
269699.0 470300.0 0
274102.0 470068.0 0
276768.0 466649.0 0
280920.0 468697.0 0
284843.0 467055.0 0
289608.0 469458.0 0
293775.0 466542.0 0
294568.0 470282.0 0
297414.0 468359.0 0
300764.0 466945.0 0
300287.0 470678.0 0
303750.0 469860.0 0
308860.0 469416.0 0
312937.0 467913.0 0
313352.0 471519.0 0
316357.0 468804.0 0
322036.0 467714.0 0
320088.0 470710.0 0
323960.0 470635.0 0
327381.0 470354.0 0
330355.0 468654.0 0
334077.0 466924.0 0
333823.0 471119.0 0
337631.0 469476.0 0
341288.0 467870.0 0
345030.0 470065.0 0
347261.0 467383.0 0
349073.0 470922.0 0
351732.0 467305.0 0
353600.0 471913.0 0
356358.0 468421.0 0
360428.0 469160.0 0
364369.0 468508.0 0
368536.0 468188.0 0
367530.0 471891.0 0
372724.0 467877.0 0
371082.0 470737.0 0
374981.0 471628.0 0
376356.0 468204.0 0
380383.0 469722.0 0
384407.0 468480.0 0
385106.0 472236.0 0
388687.0 469578.0 0
392765.0 470671.0 0
396040.0 472101.0 0
396239.0 469473.0 0
400599.0 470149.0 0
403482.0 467940.0 0
405017.0 472098.0 0
406791.0 468276.0 0
410053.0 468892.0 0
408856.0 472298.0 0
413429.0 469924.0 0
416445.0 467780.0 0
420471.0 469300.0 0
417039.0 471164.0 0
424253.0 468846.0 0
425745.0 471731.0 0
428929.0 470573.0 0
432152.0 469680.0 0
437691.0 471695.0 0
440412.0 469549.0 0
445077.0 468648.0 0
443477.0 471456.0 0
446094.0 472486.0 0
448219.0 470364.0 0
451265.0 473145.0 0
41699.7 476898.0 0
44651.0 474558.0 0
47388.8 476700.0 0
45070.0 477885.0 0
52156.0 476087.0 0
56204.8 475312.0 0
60435.3 474947.0 0
64704.4 475879.0 0
68969.6 476010.0 0
73558.5 473918.0 0
77641.5 474256.0 0
76328.4 476875.0 0
82363.4 473814.0 0
79888.1 477206.0 0
87599.2 472974.0 0
85609.0 475771.0 0
89742.8 475738.0 0
91515.9 472531.0 0
93804.6 474741.0 0
96562.7 476864.0 0
99698.6 475080.0 0
103673.0 475051.0 0
107461.0 476930.0 0
110184.0 474843.0 0
113327.0 474851.0 0
116487.0 472658.0 0
116803.0 477251.0 0
119961.0 473563.0 0
121245.0 476688.0 0
128708.0 472988.0 0
125689.0 476410.0 0
132789.0 473201.0 0
130681.0 476806.0 0
134341.0 476985.0 0
136646.0 473221.0 0
139104.0 476865.0 0
141237.0 473093.0 0
143660.0 476473.0 0
145306.0 472604.0 0
149617.0 472623.0 0
147383.0 475947.0 0
154018.0 473222.0 0
151298.0 477137.0 0
158514.0 472816.0 0
155605.0 476730.0 0
159517.0 477001.0 0
162528.0 473574.0 0
166078.0 474332.0 0
169315.0 472600.0 0
169185.0 476769.0 0
173941.0 473513.0 0
177570.0 476324.0 0
183783.0 472360.0 0
181273.0 475095.0 0
184880.0 476961.0 0
187928.0 473356.0 0
192683.0 473300.0 0
196936.0 474441.0 0
200332.0 472975.0 0
204779.0 471949.0 0
203342.0 475334.0 0
207465.0 475311.0 0
212264.0 474318.0 0
216777.0 471600.0 0
216298.0 475395.0 0
218908.0 474635.0 0
221008.0 471676.0 0
224891.0 471942.0 0
228938.0 472113.0 0
226960.0 475702.0 0
232358.0 473484.0 0
236771.0 472737.0 0
244026.0 472316.0 0
240748.0 474095.0 0
247649.0 474215.0 0
251028.0 471800.0 0
254203.0 473450.0 0
251379.0 475450.0 0
257446.0 473370.0 0
261232.0 473412.0 0
264172.0 475469.0 0
268045.0 474547.0 0
272485.0 474315.0 0
278162.0 471382.0 0
275677.0 472984.0 0
277142.0 475868.0 0
281234.0 471633.0 0
284561.0 472081.0 0
280846.0 474400.0 0
288598.0 475179.0 0
293195.0 473877.0 0
297725.0 472842.0 0
301713.0 473591.0 0
306103.0 473681.0 0
310614.0 474585.0 0
316941.0 472289.0 0
315442.0 475902.0 0
319015.0 474576.0 0
323006.0 475079.0 0
326397.0 473189.0 0
327512.0 476900.0 0
330572.0 473515.0 0
336993.0 472620.0 0
335339.0 476170.0 0
341389.0 473490.0 0
346947.0 474396.0 0
350761.0 474579.0 0
355087.0 477119.0 0
358526.0 472655.0 0
363481.0 473123.0 0
366919.0 475292.0 0
370958.0 474893.0 0
375439.0 476198.0 0
378569.0 473416.0 0
382160.0 474977.0 0
389613.0 473827.0 0
386521.0 476697.0 0
394392.0 474988.0 0
398290.0 473346.0 0
399734.0 477315.0 0
401724.0 473972.0 0
404761.0 476639.0 0
407915.0 475223.0 0
410968.0 476385.0 0
412307.0 473155.0 0
415205.0 474574.0 0
414300.0 477794.0 0
419134.0 474080.0 0
418542.0 477684.0 0
422297.0 472878.0 0
422806.0 477057.0 0
426288.0 475255.0 0
429977.0 473953.0 0
429452.0 477440.0 0
433816.0 473122.0 0
432784.0 477070.0 0
441545.0 474799.0 0
437024.0 476915.0 0
445936.0 475664.0 0
447926.0 473557.0 0
448856.0 476351.0 0
452113.0 478296.0 0
455172.0 475197.0 0
459006.0 476213.0 0
34457.8 481434.0 0
37796.3 478781.0 0
37579.6 481879.0 0
41692.6 480946.0 0
46012.9 480549.0 0
48666.5 479155.0 0
51623.0 480527.0 0
48440.0 482725.0 0
55042.4 478888.0 0
54990.1 482235.0 0
57963.0 482815.0 0
58781.4 479119.0 0
61285.0 482850.0 0
63096.4 479453.0 0
66648.1 479771.0 0
70137.9 480008.0 0
68492.2 483059.0 0
73071.6 482740.0 0
73386.5 478452.0 0
76755.6 480269.0 0
83418.5 478202.0 0
80691.0 481463.0 0
84173.0 481079.0 0
87541.7 479239.0 0
92461.7 478264.0 0
90436.3 482103.0 0
96264.4 481397.0 0
100206.0 478546.0 0
103786.0 479586.0 0
107435.0 480856.0 0
111750.0 478916.0 0
114870.0 482182.0 0
119041.0 481062.0 0
123032.0 480307.0 0
128107.0 480246.0 0
132259.0 481051.0 0
136677.0 481004.0 0
141876.0 480683.0 0
146901.0 480266.0 0
151038.0 481284.0 0
153765.0 479837.0 0
156808.0 480273.0 0
164129.0 478345.0 0
160436.0 480579.0 0
168065.0 481586.0 0
173114.0 479146.0 0
177340.0 480041.0 0
181116.0 479131.0 0
189508.0 478349.0 0
194727.0 478057.0 0
192614.0 481118.0 0
199737.0 477733.0 0
204480.0 479231.0 0
209746.0 479924.0 0
214194.0 478464.0 0
218259.0 478882.0 0
222541.0 476087.0 0
225291.0 478920.0 0
221917.0 481027.0 0
230450.0 476488.0 0
228597.0 479513.0 0
232997.0 480511.0 0
234045.0 476489.0 0
238304.0 478039.0 0
243731.0 477060.0 0
248248.0 478107.0 0
245479.0 480915.0 0
252552.0 479137.0 0
255401.0 476619.0 0
259566.0 477500.0 0
263246.0 479539.0 0
266856.0 478810.0 0
274360.0 478137.0 0
270724.0 478225.0 0
277315.0 480737.0 0
284314.0 477555.0 0
280200.0 478241.0 0
287811.0 480031.0 0
292246.0 479086.0 0
296218.0 476534.0 0
297187.0 481010.0 0
299783.0 476515.0 0
303831.0 477381.0 0
301609.0 480094.0 0
307981.0 478407.0 0
311808.0 478363.0 0
315258.0 480601.0 0
319875.0 478978.0 0
324667.0 480114.0 0
328944.0 480663.0 0
331143.0 477693.0 0
332682.0 480505.0 0
336390.0 480616.0 0
340890.0 479039.0 0
344723.0 477222.0 0
347649.0 478126.0 0
345727.0 480601.0 0
349309.0 480812.0 0
350483.0 477507.0 0
351931.0 480236.0 0
354449.0 481653.0 0
358784.0 481636.0 0
360820.0 477202.0 0
364757.0 477368.0 0
364173.0 481840.0 0
368703.0 479394.0 0
372696.0 479161.0 0
379390.0 478105.0 0
376193.0 480798.0 0
380200.0 482077.0 0
383352.0 479474.0 0
387786.0 480705.0 0
390894.0 478056.0 0
395687.0 479589.0 0
392207.0 481984.0 0
399616.0 482009.0 0
403047.0 480191.0 0
408254.0 478268.0 0
406862.0 481328.0 0
411482.0 480935.0 0
416288.0 481239.0 0
426532.0 479778.0 0
421639.0 481633.0 0
431092.0 480397.0 0
429723.0 482870.0 0
434467.0 480138.0 0
437855.0 481778.0 0
440721.0 479158.0 0
444412.0 479106.0 0
445495.0 482186.0 0
442111.0 482384.0 0
448034.0 479809.0 0
451602.0 481965.0 0
455005.0 482145.0 0
457062.0 478971.0 0
459090.0 482550.0 0
461523.0 479082.0 0
465010.0 480432.0 0
463034.0 483659.0 0
467791.0 482984.0 0
26840.2 484809.0 0
25161.0 486648.0 0
30595.3 484927.0 0
35242.2 484921.0 0
33882.5 488661.0 0
38079.1 484108.0 0
37751.1 487555.0 0
40827.9 485088.0 0
41810.4 488751.0 0
45034.4 484548.0 0
45857.7 488216.0 0
48809.6 486554.0 0
51761.1 484400.0 0
51925.6 488252.0 0
55584.8 486486.0 0
59515.7 485502.0 0
62632.7 486828.0 0
64644.2 483425.0 0
66630.2 486353.0 0
70446.7 486182.0 0
74584.3 486557.0 0
77409.4 483857.0 0
78205.7 487485.0 0
83064.4 483813.0 0
80719.2 485272.0 0
83596.8 486071.0 0
86350.3 483916.0 0
89100.1 486124.0 0
93097.3 485349.0 0
97899.4 486115.0 0
101122.0 482758.0 0
102090.0 487238.0 0
105133.0 483786.0 0
106921.0 487175.0 0
110172.0 483954.0 0
114005.0 485876.0 0
117941.0 485445.0 0
121435.0 484350.0 0
124177.0 486473.0 0
125173.0 483244.0 0
129232.0 485515.0 0
134246.0 485661.0 0
139570.0 485226.0 0
144510.0 484607.0 0
148822.0 484552.0 0
153814.0 484420.0 0
158607.0 483511.0 0
163323.0 484076.0 0
167680.0 486730.0 0
171639.0 484365.0 0
175330.0 486873.0 0
175428.0 482770.0 0
179637.0 483717.0 0
185042.0 482222.0 0
182783.0 486679.0 0
190081.0 483912.0 0
194542.0 483118.0 0
193742.0 487382.0 0
197498.0 481469.0 0
197860.0 485230.0 0
201223.0 482383.0 0
205853.0 483771.0 0
210364.0 485577.0 0
214578.0 482849.0 0
218746.0 482819.0 0
217255.0 485802.0 0
225633.0 482601.0 0
229606.0 483811.0 0
233359.0 485931.0 0
237163.0 483219.0 0
240313.0 485888.0 0
241671.0 481686.0 0
244863.0 485808.0 0
249854.0 482999.0 0
253848.0 485958.0 0
256248.0 481532.0 0
260599.0 482204.0 0
262131.0 485196.0 0
269475.0 482315.0 0
265103.0 483424.0 0
273218.0 481433.0 0
272237.0 485227.0 0
275111.0 484198.0 0
278695.0 485242.0 0
282324.0 482218.0 0
286504.0 483927.0 0
290078.0 482495.0 0
293500.0 483879.0 0
290294.0 485960.0 0
297072.0 486272.0 0
301247.0 484245.0 0
305700.0 482165.0 0
304504.0 486233.0 0
308140.0 486281.0 0
310804.0 482547.0 0
311991.0 486538.0 0
318418.0 483106.0 0
314926.0 484799.0 0
322338.0 483662.0 0
327200.0 484861.0 0
331240.0 483760.0 0
334968.0 484143.0 0
339141.0 483722.0 0
343314.0 483661.0 0
341137.0 486828.0 0
347943.0 484454.0 0
351834.0 483445.0 0
351793.0 487323.0 0
355908.0 485947.0 0
360650.0 486146.0 0
363740.0 485945.0 0
368581.0 483375.0 0
366625.0 485985.0 0
370276.0 486513.0 0
372457.0 482885.0 0
373970.0 486869.0 0
376867.0 484454.0 0
384516.0 483494.0 0
381168.0 486315.0 0
389082.0 484953.0 0
393115.0 485917.0 0
396365.0 484030.0 0
399532.0 485561.0 0
402989.0 483802.0 0
401501.0 486182.0 0
404436.0 487187.0 0
406772.0 484741.0 0
410117.0 484665.0 0
408298.0 487818.0 0
414431.0 484580.0 0
412597.0 488040.0 0
418536.0 484357.0 0
422187.0 486356.0 0
426097.0 484086.0 0
430777.0 486284.0 0
433650.0 483299.0 0
434841.0 486302.0 0
437109.0 485102.0 0
440394.0 485503.0 0
438096.0 488011.0 0
444335.0 485201.0 0
446946.0 488022.0 0
448606.0 484294.0 0
453155.0 485373.0 0
456538.0 485082.0 0
459771.0 486517.0 0
466072.0 486091.0 0
463323.0 488080.0 0
470361.0 487613.0 0
471278.0 484087.0 0
474113.0 486443.0 0
476928.0 488653.0 0
15351.1 492784.0 0
18947.7 490958.0 0
22266.6 488806.0 0
23174.8 492929.0 0
26724.0 489328.0 0
30246.4 489644.0 0
27810.2 493582.0 0
32348.7 493106.0 0
37256.5 492091.0 0
41318.1 492754.0 0
44708.8 491308.0 0
49120.6 491507.0 0
54655.5 490792.0 0
58013.8 491986.0 0
58952.2 488966.0 0
62013.1 491660.0 0
64964.0 489255.0 0
65844.0 493165.0 0
68638.1 489882.0 0
72299.2 489434.0 0
68795.9 493273.0 0
71644.1 493027.0 0
76163.3 491288.0 0
81586.5 489196.0 0
85904.2 488243.0 0
87415.9 490649.0 0
84687.4 492881.0 0
90533.1 489396.0 0
94728.1 488948.0 0
98234.9 490386.0 0
101591.0 491824.0 0
104669.0 490112.0 0
107704.0 491220.0 0
111096.0 488353.0 0
111699.0 492825.0 0
116139.0 489660.0 0
121005.0 488514.0 0
120108.0 492294.0 0
126047.0 490078.0 0
131624.0 490527.0 0
136999.0 490094.0 0
142390.0 489199.0 0
146433.0 487489.0 0
146570.0 492256.0 0
150053.0 488381.0 0
154001.0 489570.0 0
158878.0 488204.0 0
163954.0 489476.0 0
167792.0 491730.0 0
171405.0 489287.0 0
175160.0 491571.0 0
179231.0 488875.0 0
183004.0 490897.0 0
186575.0 487667.0 0
190197.0 490273.0 0
197662.0 489733.0 0
202135.0 487265.0 0
206625.0 487801.0 0
209867.0 490917.0 0
214481.0 488296.0 0
218252.0 491573.0 0
221751.0 486843.0 0
226552.0 486688.0 0
225764.0 490299.0 0
229482.0 488670.0 0
233253.0 490929.0 0
237192.0 488387.0 0
241653.0 490424.0 0
249039.0 487494.0 0
246846.0 490608.0 0
251396.0 489987.0 0
255463.0 489621.0 0
258635.0 486512.0 0
263818.0 489166.0 0
268593.0 487046.0 0
274693.0 488158.0 0
278911.0 489578.0 0
283292.0 487668.0 0
287761.0 488460.0 0
285731.0 491733.0 0
293247.0 488150.0 0
301357.0 488726.0 0
305568.0 489828.0 0
310588.0 490634.0 0
315206.0 488969.0 0
318864.0 487044.0 0
323336.0 488555.0 0
327726.0 489744.0 0
332666.0 488557.0 0
337743.0 487306.0 0
336975.0 490260.0 0
344674.0 488045.0 0
341150.0 491260.0 0
348525.0 488920.0 0
354466.0 489923.0 0
351295.0 491686.0 0
358885.0 490530.0 0
363976.0 489319.0 0
367908.0 489323.0 0
372078.0 491016.0 0
375432.0 492221.0 0
377450.0 489222.0 0
382467.0 491233.0 0
386165.0 488347.0 0
391291.0 489670.0 0
394843.0 491954.0 0
396536.0 488410.0 0
400760.0 489306.0 0
398133.0 492669.0 0
405408.0 490844.0 0
410005.0 491812.0 0
414850.0 492702.0 0
417977.0 488657.0 0
422774.0 490519.0 0
426309.0 488175.0 0
429860.0 489829.0 0
426922.0 491906.0 0
434307.0 489736.0 0
438847.0 491763.0 0
442763.0 489302.0 0
447954.0 492427.0 0
451113.0 488596.0 0
452927.0 492467.0 0
455779.0 488995.0 0
457195.0 492795.0 0
460269.0 490309.0 0
464916.0 492364.0 0
466650.0 489084.0 0
469921.0 492186.0 0
473955.0 490909.0 0
476699.0 494012.0 0
480154.0 491319.0 0
484163.0 493514.0 0
9472.03 496172.0 0
6666.29 498945.0 0
12303.8 494708.0 0
14765.4 497622.0 0
18606.1 494479.0 0
21628.0 496428.0 0
18796.9 497928.0 0
25384.7 497754.0 0
30247.1 497490.0 0
35068.3 496915.0 0
39600.6 496249.0 0
42649.7 499062.0 0
44379.9 494968.0 0
52643.1 494300.0 0
48637.9 497479.0 0
56356.6 495006.0 0
54067.3 498514.0 0
59940.4 494980.0 0
58674.4 498606.0 0
63608.3 497311.0 0
68600.5 496693.0 0
73413.5 496666.0 0
77022.9 495134.0 0
79215.1 496088.0 0
80404.0 493243.0 0
82317.6 497343.0 0
86786.7 496875.0 0
89233.0 493430.0 0
91251.1 496780.0 0
94083.0 493091.0 0
98243.7 494608.0 0
95045.4 497642.0 0
102444.0 495799.0 0
104830.0 493014.0 0
107265.0 495904.0 0
112004.0 497566.0 0
116124.0 494706.0 0
124173.0 494436.0 0
119875.0 496871.0 0
128366.0 493466.0 0
128136.0 497564.0 0
131171.0 494672.0 0
135168.0 494632.0 0
140598.0 494786.0 0
145171.0 496914.0 0
149053.0 496457.0 0
151264.0 493030.0 0
152694.0 496843.0 0
156574.0 494139.0 0
161211.0 492640.0 0
164443.0 494091.0 0
161140.0 497156.0 0
167618.0 496159.0 0
171512.0 494078.0 0
179244.0 493470.0 0
175490.0 496050.0 0
183149.0 495615.0 0
186478.0 492767.0 0
189786.0 494369.0 0
187198.0 496936.0 0
193939.0 493223.0 0
198283.0 494205.0 0
201048.0 492036.0 0
205030.0 491700.0 0
202499.0 496727.0 0
207108.0 495070.0 0
214042.0 492801.0 0
210665.0 495974.0 0
215400.0 496965.0 0
222685.0 491832.0 0
220971.0 496360.0 0
229514.0 492734.0 0
225800.0 494435.0 0
228990.0 495682.0 0
232806.0 496490.0 0
237320.0 493425.0 0
244189.0 493426.0 0
241249.0 495661.0 0
245675.0 497337.0 0
246571.0 494012.0 0
249799.0 494655.0 0
254344.0 493359.0 0
259084.0 492005.0 0
263105.0 494996.0 0
266479.0 492902.0 0
267844.0 496937.0 0
270782.0 491796.0 0
275933.0 492939.0 0
281514.0 493875.0 0
286331.0 496238.0 0
290734.0 492736.0 0
294589.0 497284.0 0
296927.0 491938.0 0
302333.0 493261.0 0
306930.0 494415.0 0
311701.0 495988.0 0
314747.0 493182.0 0
319510.0 492535.0 0
321326.0 497023.0 0
324985.0 494110.0 0
330572.0 493760.0 0
336458.0 494352.0 0
342178.0 496612.0 0
346425.0 492895.0 0
346768.0 496891.0 0
351128.0 495902.0 0
355196.0 493596.0 0
355305.0 497277.0 0
359410.0 496041.0 0
362721.0 493177.0 0
364025.0 496460.0 0
367479.0 493446.0 0
371303.0 494859.0 0
374726.0 494949.0 0
378755.0 493791.0 0
383150.0 495882.0 0
387732.0 493544.0 0
392303.0 493694.0 0
395433.0 495056.0 0
391551.0 497557.0 0
399075.0 496105.0 0
402151.0 493416.0 0
403224.0 497464.0 0
406943.0 495092.0 0
411665.0 496150.0 0
419752.0 493567.0 0
416665.0 496967.0 0
421515.0 498184.0 0
423948.0 494636.0 0
427963.0 495738.0 0
431212.0 493139.0 0
435437.0 494210.0 0
432024.0 498257.0 0
436446.0 497572.0 0
439504.0 495643.0 0
443060.0 494219.0 0
446694.0 497282.0 0
442597.0 498289.0 0
451065.0 496499.0 0
454861.0 495516.0 0
459008.0 497132.0 0
461081.0 493907.0 0
464057.0 496727.0 0
468226.0 496383.0 0
473011.0 495700.0 0
480790.0 496644.0 0
485557.0 498840.0 0
487590.0 494944.0 0
490436.0 497186.0 0
2564.8 500070.0 0
10863.7 500161.0 0
14136.6 502132.0 0
17292.5 501542.0 0
21341.5 500247.0 0
24181.1 502333.0 0
28196.0 501636.0 0
32820.5 500892.0 0
37737.9 500242.0 0
41052.7 503423.0 0
46255.4 502290.0 0
51360.1 502100.0 0
56471.6 502345.0 0
61722.3 502150.0 0
66785.2 500956.0 0
70406.0 500198.0 0
74078.6 501377.0 0
77532.8 498560.0 0
79897.0 503233.0 0
85031.9 500749.0 0
89667.9 500702.0 0
95027.6 502469.0 0
99108.7 498922.0 0
103937.0 499987.0 0
108642.0 500333.0 0
106663.0 502669.0 0
112495.0 502397.0 0
115967.0 499357.0 0
123660.0 499347.0 0
119737.0 501670.0 0
126616.0 501600.0 0
132849.0 498411.0 0
130303.0 501807.0 0
134165.0 502163.0 0
137323.0 499357.0 0
142411.0 501197.0 0
147192.0 499731.0 0
150855.0 500133.0 0
156186.0 500240.0 0
164969.0 499861.0 0
160880.0 501730.0 0
168294.0 499123.0 0
168664.0 502361.0 0
171763.0 498740.0 0
179324.0 497493.0 0
176318.0 500432.0 0
180653.0 500880.0 0
184287.0 499387.0 0
188318.0 501368.0 0
191312.0 497577.0 0
192583.0 500872.0 0
196316.0 498386.0 0
200165.0 501245.0 0
204429.0 501736.0 0
207317.0 498359.0 0
209653.0 502744.0 0
211991.0 499257.0 0
214474.0 501814.0 0
218250.0 500522.0 0
222671.0 502124.0 0
227988.0 498241.0 0
224997.0 498446.0 0
227229.0 501752.0 0
230479.0 500556.0 0
234340.0 501457.0 0
237586.0 498466.0 0
241798.0 499990.0 0
249636.0 499505.0 0
245864.0 501865.0 0
253078.0 497496.0 0
253571.0 501251.0 0
257468.0 497100.0 0
257626.0 501942.0 0
261394.0 499232.0 0
265352.0 501606.0 0
272856.0 496938.0 0
277558.0 497469.0 0
282279.0 500153.0 0
287316.0 500865.0 0
290352.0 498190.0 0
292882.0 501890.0 0
299573.0 497231.0 0
304176.0 498277.0 0
301325.0 501879.0 0
308472.0 498934.0 0
306335.0 502776.0 0
312267.0 500465.0 0
316793.0 497932.0 0
320773.0 501305.0 0
324760.0 499366.0 0
328335.0 497567.0 0
328944.0 502026.0 0
332794.0 498746.0 0
337950.0 499970.0 0
341896.0 501271.0 0
349050.0 499171.0 0
345239.0 500267.0 0
353053.0 500531.0 0
357818.0 500308.0 0
362627.0 500351.0 0
367801.0 498275.0 0
366627.0 502150.0 0
372860.0 498381.0 0
370607.0 502137.0 0
378578.0 498581.0 0
375628.0 502767.0 0
383501.0 499977.0 0
384764.0 502761.0 0
386782.0 498090.0 0
388819.0 501929.0 0
393830.0 502386.0 0
396294.0 498833.0 0
400036.0 500169.0 0
397623.0 502424.0 0
404070.0 501452.0 0
408431.0 499360.0 0
407136.0 502811.0 0
413560.0 500263.0 0
418505.0 501468.0 0
426067.0 499044.0 0
423634.0 503133.0 0
428975.0 502287.0 0
433445.0 502326.0 0
436507.0 500861.0 0
439399.0 498821.0 0
440643.0 502153.0 0
445345.0 501273.0 0
449657.0 500522.0 0
454414.0 499540.0 0
456725.0 502887.0 0
458767.0 500915.0 0
462814.0 500134.0 0
467021.0 500006.0 0
465613.0 503308.0 0
469302.0 503722.0 0
471458.0 499986.0 0
476810.0 499543.0 0
474483.0 504523.0 0
481659.0 500805.0 0
485057.0 503777.0 0
489880.0 502297.0 0
493865.0 499233.0 0
497418.0 500049.0 0
2093.63 503428.0 0
3308.62 507561.0 0
6963.52 503755.0 0
11631.7 504459.0 0
15871.0 504846.0 0
13272.6 508359.0 0
20205.1 504328.0 0
25136.1 507344.0 0
30431.8 504707.0 0
31161.4 508388.0 0
35334.0 504831.0 0
39771.6 508149.0 0
44652.7 506756.0 0
48950.9 506009.0 0
53369.6 506213.0 0
59034.9 507293.0 0
65534.7 504721.0 0
70046.5 504156.0 0
68341.3 508849.0 0
74346.1 505514.0 0
77614.9 508079.0 0
86043.3 505454.0 0
90675.4 504737.0 0
89801.1 507977.0 0
93165.5 506854.0 0
97554.3 507928.0 0
100271.0 503375.0 0
102015.0 507375.0 0
104432.0 504741.0 0
109076.0 505339.0 0
113913.0 507433.0 0
116219.0 503723.0 0
119220.0 506704.0 0
123344.0 503998.0 0
127527.0 505317.0 0
132250.0 505657.0 0
137733.0 504924.0 0
143245.0 507073.0 0
147198.0 503414.0 0
148196.0 507216.0 0
152284.0 504309.0 0
158235.0 506342.0 0
164362.0 504953.0 0
169289.0 506542.0 0
173023.0 503475.0 0
178344.0 505060.0 0
183836.0 503434.0 0
182596.0 507393.0 0
187248.0 506742.0 0
192205.0 504987.0 0
196736.0 503469.0 0
200983.0 505980.0 0
205782.0 505775.0 0
213605.0 506176.0 0
217914.0 504606.0 0
221657.0 507196.0 0
226390.0 506078.0 0
230926.0 504544.0 0
235310.0 506171.0 0
238508.0 502988.0 0
242482.0 503988.0 0
245496.0 506187.0 0
250053.0 504689.0 0
254830.0 505188.0 0
258678.0 506403.0 0
261258.0 503322.0 0
263115.0 506982.0 0
267403.0 506031.0 0
270900.0 502023.0 0
273292.0 506378.0 0
276663.0 502442.0 0
276688.0 506980.0 0
280996.0 505822.0 0
285332.0 504406.0 0
289255.0 504264.0 0
293156.0 506898.0 0
297022.0 501193.0 0
298340.0 505964.0 0
303187.0 506012.0 0
310670.0 504581.0 0
316039.0 504174.0 0
321001.0 505952.0 0
324875.0 504246.0 0
328993.0 507047.0 0
334109.0 504381.0 0
339433.0 504505.0 0
344065.0 504800.0 0
348573.0 503004.0 0
352576.0 505450.0 0
356098.0 503676.0 0
359866.0 504557.0 0
364252.0 505343.0 0
368146.0 505174.0 0
372422.0 506711.0 0
377631.0 507223.0 0
380889.0 503714.0 0
382991.0 506182.0 0
386310.0 506352.0 0
391641.0 506870.0 0
396823.0 506286.0 0
400881.0 504255.0 0
405320.0 505319.0 0
410798.0 504804.0 0
407572.0 508330.0 0
415680.0 503886.0 0
415390.0 507680.0 0
419313.0 505574.0 0
423077.0 508394.0 0
427751.0 506822.0 0
432368.0 505767.0 0
435781.0 508258.0 0
436847.0 504529.0 0
440218.0 506271.0 0
443672.0 504779.0 0
448021.0 505190.0 0
452550.0 503783.0 0
456797.0 507062.0 0
452086.0 508524.0 0
461379.0 504663.0 0
466132.0 507648.0 0
470439.0 507575.0 0
477756.0 508757.0 0
473733.0 509048.0 0
480116.0 504747.0 0
484471.0 507402.0 0
488986.0 507538.0 0
494537.0 504335.0 0
498294.0 503971.0 0
8461.24 509055.0 0
15165.7 513031.0 0
18600.7 508401.0 0
21231.7 512749.0 0
28828.7 511179.0 0
25804.3 512662.0 0
31834.0 512243.0 0
35216.8 510178.0 0
39195.4 513165.0 0
43337.8 510901.0 0
48089.1 510653.0 0
53672.9 511377.0 0
59048.7 513127.0 0
61804.2 510716.0 0
63849.1 508529.0 0
64606.4 513077.0 0
73362.4 510121.0 0
78058.3 511733.0 0
81937.2 508677.0 0
82034.8 513045.0 0
86755.5 511029.0 0
92667.8 511451.0 0
97726.1 512841.0 0
101966.0 511412.0 0
105652.0 508709.0 0
109609.0 509433.0 0
112641.0 512539.0 0
117608.0 510887.0 0
123628.0 508330.0 0
128778.0 510273.0 0
134676.0 509587.0 0
139044.0 509428.0 0
141957.0 512131.0 0
146851.0 511793.0 0
152510.0 509922.0 0
161889.0 509487.0 0
162456.0 512595.0 0
165793.0 509921.0 0
170113.0 510514.0 0
173990.0 508228.0 0
179048.0 511184.0 0
184968.0 511086.0 0
191405.0 510885.0 0
195857.0 511110.0 0
196262.0 507796.0 0
199558.0 511242.0 0
204542.0 510009.0 0
209333.0 508109.0 0
212902.0 510359.0 0
217265.0 509431.0 0
220043.0 513330.0 0
223336.0 511037.0 0
226901.0 510460.0 0
231543.0 509879.0 0
236906.0 510752.0 0
241366.0 508335.0 0
246593.0 511034.0 0
251113.0 509313.0 0
255390.0 509798.0 0
260661.0 512085.0 0
266136.0 510648.0 0
270285.0 508895.0 0
274353.0 510540.0 0
278772.0 510121.0 0
283609.0 510697.0 0
288446.0 508624.0 0
291930.0 511305.0 0
296505.0 511187.0 0
302369.0 510925.0 0
307326.0 508053.0 0
309132.0 512649.0 0
312591.0 509030.0 0
318159.0 510119.0 0
324297.0 509370.0 0
328737.0 512064.0 0
333091.0 509627.0 0
337248.0 508222.0 0
341322.0 508164.0 0
344603.0 511257.0 0
348237.0 507984.0 0
352519.0 509532.0 0
356558.0 508097.0 0
354984.0 512345.0 0
361482.0 509718.0 0
367493.0 509928.0 0
375111.0 509458.0 0
372715.0 511538.0 0
377064.0 511652.0 0
382269.0 510122.0 0
388338.0 511030.0 0
393747.0 511780.0 0
397734.0 510354.0 0
402503.0 509275.0 0
407310.0 512281.0 0
411510.0 510100.0 0
419127.0 509314.0 0
416206.0 512551.0 0
421174.0 512561.0 0
427143.0 512137.0 0
431668.0 510072.0 0
435030.0 511438.0 0
439412.0 509844.0 0
444045.0 508830.0 0
442169.0 513086.0 0
446614.0 513219.0 0
448359.0 509445.0 0
451248.0 512738.0 0
456445.0 512376.0 0
461405.0 509786.0 0
461041.0 513973.0 0
465377.0 512584.0 0
470306.0 511908.0 0
475355.0 512631.0 0
481733.0 508877.0 0
480409.0 512556.0 0
485693.0 511652.0 0
493587.0 509116.0 0
497887.0 507474.0 0
497529.0 511718.0 0
3711.32 513223.0 0
9685.86 513836.0 0
12608.6 517705.0 0
18167.7 517669.0 0
21941.2 516426.0 0
25087.1 516048.0 0
29261.2 515090.0 0
34878.5 514500.0 0
38235.3 517569.0 0
43921.8 515479.0 0
46566.5 519379.0 0
49639.1 515813.0 0
54843.0 516688.0 0
61391.6 517694.0 0
57518.6 519549.0 0
66566.6 517918.0 0
69671.9 513841.0 0
74986.1 514846.0 0
79057.9 515726.0 0
85117.4 515887.0 0
89439.6 515585.0 0
94877.0 517511.0 0
100885.0 515974.0 0
106836.0 513627.0 0
108254.0 517363.0 0
111649.0 517164.0 0
117012.0 516231.0 0
122987.0 513601.0 0
128096.0 515132.0 0
132519.0 514238.0 0
137408.0 513535.0 0
135304.0 517594.0 0
140917.0 516793.0 0
145510.0 516641.0 0
151619.0 516760.0 0
157721.0 512983.0 0
161662.0 517040.0 0
165807.0 514765.0 0
169230.0 513598.0 0
168999.0 516462.0 0
173432.0 513663.0 0
177677.0 517237.0 0
182908.0 515636.0 0
187635.0 514838.0 0
195839.0 514549.0 0
191727.0 516443.0 0
199793.0 517087.0 0
202853.0 514192.0 0
208914.0 514007.0 0
215202.0 514791.0 0
224332.0 515753.0 0
228639.0 513887.0 0
234074.0 515031.0 0
241320.0 514249.0 0
251952.0 513528.0 0
270193.0 514191.0 0
277400.0 514954.0 0
282266.0 515485.0 0
288188.0 513810.0 0
285627.0 517833.0 0
293601.0 516756.0 0
299322.0 515376.0 0
305474.0 514677.0 0
314189.0 513507.0 0
308640.0 517550.0 0
313413.0 517796.0 0
319079.0 516386.0 0
324465.0 514231.0 0
328427.0 517441.0 0
333497.0 514879.0 0
339290.0 513052.0 0
344363.0 517043.0 0
349825.0 513594.0 0
354448.0 516964.0 0
358937.0 514428.0 0
364356.0 515059.0 0
369882.0 514974.0 0
374605.0 515339.0 0
379799.0 515980.0 0
385311.0 515198.0 0
390569.0 515783.0 0
399854.0 513668.0 0
396286.0 517173.0 0
403727.0 514145.0 0
401954.0 517696.0 0
407105.0 517442.0 0
411458.0 514634.0 0
415027.0 516816.0 0
419310.0 517156.0 0
423773.0 515665.0 0
428346.0 517514.0 0
432760.0 514943.0 0
436742.0 518529.0 0
437699.0 513906.0 0
440860.0 516792.0 0
445375.0 518235.0 0
449739.0 516621.0 0
453837.0 516736.0 0
458598.0 517180.0 0
463692.0 517750.0 0
468293.0 516084.0 0
472549.0 516662.0 0
477885.0 515690.0 0
481158.0 517252.0 0
483399.0 514952.0 0
490388.0 512972.0 0
494086.0 513107.0 0
493485.0 517001.0 0
497992.0 515866.0 0
3197.5 518911.0 0
8170.09 517909.0 0
6083.99 522687.0 0
10397.3 521858.0 0
15207.7 521861.0 0
20017.0 522340.0 0
23016.6 519341.0 0
25408.9 522911.0 0
27778.6 519198.0 0
32830.5 518698.0 0
42212.2 520031.0 0
38939.7 520892.0 0
36011.4 522725.0 0
40266.4 523827.0 0
45497.0 524042.0 0
50211.8 520492.0 0
50929.6 524607.0 0
54231.8 521505.0 0
59611.5 522686.0 0
63862.9 521465.0 0
71751.4 518674.0 0
68330.9 523318.0 0
77000.5 519373.0 0
81932.6 519209.0 0
87160.3 519295.0 0
90488.7 521265.0 0
94701.6 523609.0 0
99919.7 521012.0 0
104714.0 518602.0 0
109118.0 520897.0 0
114142.0 521151.0 0
118967.0 523266.0 0
121516.0 519011.0 0
124510.0 523116.0 0
125843.0 518327.0 0
130680.0 519074.0 0
134597.0 522444.0 0
138165.0 520093.0 0
142200.0 521449.0 0
146939.0 521115.0 0
151063.0 522543.0 0
157333.0 518009.0 0
155547.0 521948.0 0
160571.0 521936.0 0
166314.0 519929.0 0
172201.0 519260.0 0
176682.0 522738.0 0
181834.0 520674.0 0
186356.0 519187.0 0
195407.0 519484.0 0
204631.0 518263.0 0
280266.0 518963.0 0
298655.0 519916.0 0
303509.0 518645.0 0
310970.0 521886.0 0
316321.0 522170.0 0
321584.0 521815.0 0
324020.0 518430.0 0
326184.0 521739.0 0
332849.0 520526.0 0
337739.0 518733.0 0
341616.0 522452.0 0
346102.0 521706.0 0
349718.0 519240.0 0
358854.0 519271.0 0
363770.0 520811.0 0
367898.0 518633.0 0
368665.0 522955.0 0
372358.0 519474.0 0
377394.0 521026.0 0
382743.0 520865.0 0
387247.0 519549.0 0
391831.0 520952.0 0
399734.0 521425.0 0
396000.0 522294.0 0
404712.0 522432.0 0
409529.0 522492.0 0
411901.0 519270.0 0
415894.0 519902.0 0
413984.0 523832.0 0
419048.0 522343.0 0
423774.0 520346.0 0
428626.0 522652.0 0
432564.0 520049.0 0
441089.0 520985.0 0
437476.0 522437.0 0
445627.0 523503.0 0
450175.0 521131.0 0
455693.0 521464.0 0
460352.0 520702.0 0
464048.0 522562.0 0
468324.0 520576.0 0
472782.0 520956.0 0
476805.0 519293.0 0
481181.0 521749.0 0
487210.0 518297.0 0
492469.0 521540.0 0
497554.0 520059.0 0
2035.02 523602.0 0
2869.64 527931.0 0
8205.9 526653.0 0
12897.7 525717.0 0
17673.0 526352.0 0
22285.4 525832.0 0
30691.8 523996.0 0
26462.8 527620.0 0
30475.2 528442.0 0
35411.9 527829.0 0
41266.2 528185.0 0
47648.5 529520.0 0
52455.1 528355.0 0
55744.3 525645.0 0
60578.3 527478.0 0
63944.1 524869.0 0
66068.6 527888.0 0
71502.4 527993.0 0
74266.1 523597.0 0
76839.4 528008.0 0
79505.4 523657.0 0
82004.7 528065.0 0
85165.9 523528.0 0
86531.1 528119.0 0
90073.1 525688.0 0
98979.0 526295.0 0
93931.7 528424.0 0
104636.0 524477.0 0
110139.0 525389.0 0
114688.0 526227.0 0
121786.0 526841.0 0
129820.0 524627.0 0
125889.0 528167.0 0
138678.0 523727.0 0
135990.0 526933.0 0
144668.0 524764.0 0
141012.0 527570.0 0
148396.0 525422.0 0
153273.0 527148.0 0
169694.0 523665.0 0
336644.0 523451.0 0
349037.0 523597.0 0
345567.0 525818.0 0
354383.0 523183.0 0
350400.0 526983.0 0
357326.0 527456.0 0
360151.0 524543.0 0
364841.0 526077.0 0
369509.0 527906.0 0
373582.0 524638.0 0
380117.0 523674.0 0
378343.0 527132.0 0
382897.0 525659.0 0
387731.0 524589.0 0
393564.0 525553.0 0
398421.0 526012.0 0
403159.0 527456.0 0
408292.0 526219.0 0
418301.0 527652.0 0
423230.0 525434.0 0
427997.0 527765.0 0
433855.0 525565.0 0
440494.0 526275.0 0
445562.0 527906.0 0
450172.0 526403.0 0
455295.0 526587.0 0
460000.0 524600.0 0
463953.0 526782.0 0
459207.0 529122.0 0
467090.0 524389.0 0
468082.0 527882.0 0
470932.0 524520.0 0
476133.0 524248.0 0
481111.0 526884.0 0
485385.0 524142.0 0
489646.0 524546.0 0
487322.0 527835.0 0
493934.0 525841.0 0
490777.0 528150.0 0
497913.0 524267.0 0
497787.0 528479.0 0
2904.83 533352.0 0
7804.03 531602.0 0
11718.6 529619.0 0
15885.6 530892.0 0
21681.2 530889.0 0
27176.7 532250.0 0
31945.8 532076.0 0
38236.1 532321.0 0
43217.2 533010.0 0
51886.9 532520.0 0
56344.8 530594.0 0
63423.7 531440.0 0
68245.0 532026.0 0
74296.0 532620.0 0
79642.9 532696.0 0
85050.7 532516.0 0
89875.2 530187.0 0
97066.0 531650.0 0
102666.0 530949.0 0
107824.0 528893.0 0
107938.0 533196.0 0
112109.0 530617.0 0
118439.0 529987.0 0
132166.0 528759.0 0
361006.0 529517.0 0
365856.0 531412.0 0
374060.0 529771.0 0
380820.0 531421.0 0
385541.0 529787.0 0
390562.0 529010.0 0
395279.0 529807.0 0
399824.0 530776.0 0
406899.0 530812.0 0
412513.0 529441.0 0
416970.0 532556.0 0
423214.0 530686.0 0
428098.0 532659.0 0
431907.0 530683.0 0
437097.0 531527.0 0
442879.0 531315.0 0
448266.0 531078.0 0
453467.0 531375.0 0
463438.0 531481.0 0
469049.0 533200.0 0
472578.0 528741.0 0
476950.0 528760.0 0
475110.0 533134.0 0
479540.0 531693.0 0
484114.0 531171.0 0
489245.0 531809.0 0
493757.0 530546.0 0
497580.0 532997.0 0
1222.69 537075.0 0
7339.41 536821.0 0
12124.5 534200.0 0
17842.7 536320.0 0
24352.7 536748.0 0
34914.5 536404.0 0
40378.9 537516.0 0
47911.9 535248.0 0
55261.6 535411.0 0
58220.5 538164.0 0
59703.3 534259.0 0
64780.4 536924.0 0
70719.2 536468.0 0
92832.4 533434.0 0
99334.6 534645.0 0
392167.0 534126.0 0
403069.0 534525.0 0
409082.0 535427.0 0
413335.0 534513.0 0
420898.0 535713.0 0
426275.0 537035.0 0
432017.0 535225.0 0
436675.0 537336.0 0
440947.0 535366.0 0
445840.0 535515.0 0
450801.0 535792.0 0
458603.0 534383.0 0
463994.0 536938.0 0
472723.0 537978.0 0
477776.0 537421.0 0
481470.0 535147.0 0
486392.0 536461.0 0
492878.0 535883.0 0
497911.0 537421.0 0
3453.28 538275.0 0
11861.2 539072.0 0
15364.3 540668.0 0
489932.0 540383.0 0
495230.0 540383.0 0
POINT_DATA 5000
SCALARS Radius float 1
LOOKUP_TABLE default
5258.36 5061.3 3163.97 3642.12 5812.43 5580.89 6810.52 5415.48 5120.0 4998.37 6182.6 5492.18 5867.73 3951.75 4499.64 5542.27 5122.66 5906.14 7513.1 5254.28 4402.52 4436.4 4182.53 5733.48 3588.44 5645.7 5553.16 2938.66 6110.27 4008.92 5840.26 5073.35 4834.9 3863.18 2356.98 5484.83 5351.6 4715.55 6059.59 5013.56 4375.68 5054.98 5484.19 6030.06 5170.02 3557.27 4927.31 4688.68 4517.56 5903.42 4672.91 3761.32 5176.86 4118.05 4366.19 3672.51 5065.13 4940.78 5561.06 5670.04 6044.04 5085.53 5538.89 4730.36 5926.61 2720.68 5701.86 4238.81 4468.59 5325.02 5200.76 4862.64 5185.34 5205.43 4432.58 3955.56 2635.86 5292.64 6166.5 5936.02 3615.22 5305.17 4380.59 6716.79 3850.77 5325.36 6759.9 7021.47 5416.38 6051.14 4955.55 3563.63 5836.15 4345.55 5885.03 2837.58 3653.41 5246.2 5017.13 3673.74 6116.18 6684.56 3968.64 4688.67 4385.06 7184.19 4290.3 4231.61 4861.08 3942.53 3379.84 7613.27 4133.88 5546.39 4094.62 5945.65 5418.62 5493.32 4601.27 5740.68 4195.44 4277.89 3261.21 6704.06 5600.93 3871.88 3856.01 4827.23 4390.66 4911.47 7447.37 4924.6 4733.32 2812.98 2899.43 3867.67 2924.37 4003.05 4827.82 3607.45 3589.27 4951.03 4665.12 4927.02 6483.19 6230.49 7054.71 3641.64 5747.75 4796.33 5539.32 6496.85 5541.59 4124.71 5279.39 6337.56 5803.39 4381.97 3255.82 6257.19 5242.73 4065.69 5603.15 5399.73 4712.33 4805.87 5759.91 4333.2 3936.02 5980.74 4174.52 5109.54 6458.82 5489.43 5054.25 7325.81 5360.19 4874.39 4839.34 5083.08 2980.99 5728.85 5525.39 5863.59 3998.5 4024.3 4737.14 4695.45 4660.72 5390.22 3888.21 6038.78 5227.21 5123.52 3997.1 3260.67 3038.33 3383.4 3856.1 4044.71 5816.2 3829.13 3091.3 5789.98 5527.54 5573.7 4727.62 4055.8 4794.96 6186.19 4840.01 6834.49 5938.34 6394.38 5555.28 5169.36 4686.65 5834.74 5556.96 6052.7 3921.18 5697.78 4667.36 4295.38 4392.68 4780.03 3554.9 5495.39 4487.31 4002.16 5693.81 4778.34 2540.31 4138.16 6138.47 6029.66 5697.4 4005.44 5206.78 6425.26 5143.58 4484.76 5611.2 4220.65 7933.0 5173.87 4455.12 5380.13 5118.27 5932.23 5788.23 5891.05 6902.81 5529.52 5252.48 3996.0 4015.92 5708.81 4684.5 5120.49 6302.8 4270.95 5280.17 5555.88 5028.96 6362.12 3866.16 5152.36 5826.64 6820.42 4894.16 4896.52 5711.87 5791.61 5581.75 3666.57 3798.62 4254.17 5615.42 4091.31 7199.21 6124.89 5542.21 5924.89 5043.05 3486.22 4414.54 5409.61 5262.61 6038.2 5713.22 6732.43 3183.98 4524.28 4511.82 3778.1 4727.24 6959.81 4816.2 6321.41 3372.79 4941.22 5282.64 4479.66 6392.01 6644.76 6372.62 4523.7 5255.32 5337.48 5481.78 6894.71 4937.14 5201.36 4306.53 5094.81 5972.06 5861.71 4312.67 4359.04 5017.78 3794.63 5015.69 6175.81 6677.09 5813.4 4829.35 4089.76 4751.02 5184.56 3369.13 4715.72 5367.2 5308.1 3043.85 6730.19 4937.02 7565.34 5637.59 3307.12 4467.94 5551.36 6038.14 6135.57 5998.38 4270.24 4947.52 4989.15 4520.1 4305.57 5874.89 3791.79 5201.67 4754.05 3192.41 5526.55 4987.87 3315.57 4669.66 4808.52 5461.13 4907.89 5629.19 6037.08 3103.0 4049.23 6084.86 3586.91 3115.91 5478.92 5094.44 4850.81 4933.21 5375.47 4723.12 5024.9 5659.17 4717.05 4562.29 5423.8 4164.13 3417.33 4926.42 4642.34 5153.74 4165.81 4293.03 4424.7 4389.21 4925.44 4951.47 6084.93 5246.61 4764.96 5607.24 4726.76 3599.45 5655.21 5090.24 5091.39 6756.95 5601.05 4948.92 5810.84 3748.24 4655.49 4809.42 4566.18 5856.11 5287.2 4234.94 5013.13 5080.66 5110.45 5248.77 4528.09 3556.85 3895.51 4128.98 6291.51 6246.22 5215.15 4307.28 5046.33 5053.92 5839.13 5923.5 4073.93 2240.39 5096.78 6324.23 4382.74 4516.43 4749.8 4384.42 4230.54 4493.48 6163.38 4964.09 3459.9 4093.08 4997.27 5543.27 4109.88 4980.85 3327.49 3960.8 5714.58 4923.9 3329.99 4973.78 3947.47 4083.97 5208.32 4607.02 6673.96 5882.89 4188.32 4100.38 5538.93 5804.71 5727.3 5020.12 6352.26 4242.52 3735.44 4907.06 4645.41 4786.6 4433.59 5740.84 4727.24 4612.68 4651.28 6355.42 4362.19 5082.6 3693.63 3937.74 6061.47 4449.22 5628.24 5992.26 5070.39 4613.31 5091.68 3296.27 4713.25 6243.0 5441.96 5174.89 4288.3 5370.52 4739.42 3697.96 4899.11 3847.38 4745.45 5356.51 3057.03 5163.9 4973.83 5530.87 3320.52 4929.8 4151.94 5690.56 5244.78 5478.47 6142.37 5806.08 4853.39 5365.89 3130.65 4511.54 5196.0 4204.84 6119.09 5069.25 5048.89 3991.03 3435.9 4652.29 5774.81 4723.48 5344.77 4278.07 5281.28 3818.59 4863.72 2631.9 5495.68 6043.3 3912.37 6445.94 4281.49 4310.18 4129.43 5927.43 5492.26 5762.84 5119.37 3982.23 5351.39 5243.29 4336.42 3402.32 7589.94 5004.67 5409.33 4466.03 4178.15 4898.94 4733.04 7531.29 5935.03 4755.47 3161.47 6390.78 6826.57 4495.87 5027.98 3746.31 5097.87 5346.27 7267.18 4087.15 4143.08 5489.34 5002.48 5952.75 4262.82 5537.72 4320.28 6342.25 4685.34 6327.9 4220.88 6519.71 6640.13 3092.35 5210.03 4583.31 4306.11 5903.66 5419.37 5985.29 4247.23 5788.66 3903.75 4485.99 7435.25 4788.87 5498.32 5543.46 6475.1 6255.18 4758.21 7500.97 5708.14 3920.42 6332.36 5542.14 4218.06 3843.58 6082.81 5449.18 3629.96 4714.54 3320.11 5507.24 6022.17 4503.89 5313.66 4528.49 5275.32 4268.65 4649.22 4694.83 4354.08 5509.42 4520.62 5475.7 5475.8 5314.69 6050.81 6022.72 5527.33 4969.21 2691.29 6256.02 4277.88 6623.85 8332.24 4931.53 6691.39 5293.9 3191.99 5110.37 5367.52 4048.37 5030.91 4322.15 4659.59 5101.59 6851.54 3813.22 5570.3 5935.47 2651.49 5512.23 4711.62 5349.31 5394.55 4256.43 5936.36 5229.48 5415.19 5127.16 4249.46 4244.99 4643.31 5965.81 6917.52 5402.21 4668.71 7228.46 5102.36 5787.31 7134.64 4602.25 5480.13 6142.94 4931.38 5664.98 3485.26 3240.09 5025.39 4548.16 4377.07 3695.36 3848.93 6020.48 5234.29 5200.05 4114.24 4645.58 5670.2 2976.22 5094.52 2682.24 5928.32 4016.18 5526.75 5435.74 4275.57 5560.26 5327.45 6185.89 2330.66 3702.37 4177.19 3691.0 3990.25 4752.51 2845.98 4880.14 5320.92 3948.23 5228.18 4342.9 5978.82 6122.55 5978.9 4270.53 4329.05 4736.58 4792.73 4556.36 3369.23 5264.06 3688.8 4515.71 5893.5 4547.19 3817.13 3963.86 5076.35 3844.9 5273.35 4091.8 5181.4 5166.79 4662.56 5417.15 4946.74 5996.33 3950.63 4612.62 3619.07 6385.23 2983.99 3997.96 5660.85 4750.17 3758.07 3587.05 4373.45 4989.09 4982.31 6362.14 5269.18 4406.1 6719.88 6155.31 6308.71 2739.94 4790.08 4194.5 5082.47 5513.6 4901.41 5358.59 6202.55 6387.01 5023.15 6375.99 4871.44 4853.02 6259.23 3931.07 3457.48 3405.98 3688.16 4681.72 6631.19 5661.62 4467.04 5817.25 2614.4 4439.35 3460.94 6184.4 6205.93 3828.81 6229.37 5289.52 5034.59 5314.85 5065.11 4553.56 5911.67 4223.33 4187.56 3629.62 4840.84 4997.27 5138.31 3708.04 4551.24 3610.4 4621.75 6338.89 7111.16 6480.17 4564.34 3838.56 6248.81 5088.44 4998.21 6079.11 4256.67 7440.72 3949.6 4945.39 5376.71 4867.08 5626.61 5407.78 6648.68 6363.92 6632.99 4923.24 5830.72 5309.98 4307.48 6718.19 4305.43 5450.44 4942.77 3927.99 5069.84 5868.82 5329.64 3323.28 4051.44 4301.06 5344.25 4501.51 6013.14 4602.86 4581.13 3856.59 2765.2 4219.07 5372.61 5413.79 5584.06 3686.21 6445.22 5872.05 4962.77 5323.3 4427.28 3082.32 6430.39 4765.02 3658.37 4448.13 5703.6 6326.18 4713.74 5061.98 4537.6 6179.96 4419.61 7177.44 6260.79 4407.87 4082.57 4236.14 3848.54 5080.18 5941.4 5266.5 4454.63 4716.19 4050.9 5135.69 5514.76 5344.0 3456.98 5191.63 5379.87 5925.6 5572.95 6723.16 4746.52 5402.24 4948.5 5013.42 5651.07 5210.48 6101.92 4635.6 6239.84 5370.85 5070.29 5629.39 4807.28 4768.61 4266.03 4084.49 5075.55 4220.03 5703.07 5147.36 4662.43 4563.46 3963.76 5169.9 5282.91 6510.17 4871.96 4263.33 4066.38 6695.82 6049.55 5709.62 6405.76 4290.14 4593.7 5987.17 4043.57 3979.82 5586.81 5006.58 5130.91 3868.18 4527.02 5383.07 7552.94 4519.22 3627.55 4409.63 5865.39 5521.25 3178.54 5949.46 6157.04 2684.03 5246.47 3776.94 2261.36 4522.21 5280.69 6923.84 5449.46 6113.54 4043.66 5733.62 6553.94 4425.84 5282.51 3797.33 5331.02 4523.88 5742.65 4241.89 5835.78 5054.74 4877.67 6045.46 4763.45 4138.42 4481.53 3824.16 5011.31 5330.45 3689.45 5077.33 3948.17 4531.14 4959.34 4247.15 4602.85 7644.38 4051.34 5278.36 3661.9 5136.08 5107.23 4010.57 4187.31 5506.19 6191.29 6719.94 6166.29 4950.67 5453.6 5294.77 4709.05 3077.84 5255.18 5528.53 3004.16 4460.92 7256.35 5945.89 5592.32 4800.69 3279.1 4099.77 4020.32 3498.2 5941.72 4245.72 3815.26 4150.99 4292.06 5681.38 6318.18 5045.38 5350.88 5125.78 4790.78 5452.83 6552.22 6422.84 5379.09 6004.68 5534.94 5180.76 6799.4 5222.16 5533.42 5558.68 3240.51 4599.38 5730.33 7422.36 4527.99 5161.01 4628.4 5409.63 5227.59 4630.82 4813.08 5726.66 5460.65 4767.78 3062.43 4105.55 4042.28 5912.61 4978.31 4402.67 4403.98 4981.9 4948.98 5794.24 4537.32 6562.18 4216.92 4478.15 5147.67 3771.48 5577.04 4986.77 6034.41 4591.87 5178.99 4027.09 5801.99 4502.18 3312.06 6218.95 5533.72 4993.35 3678.08 4802.32 5146.37 5518.57 5463.48 4543.1 5545.46 4376.7 5190.61 4298.15 6051.83 3973.12 4263.16 6024.75 5860.67 6799.88 4540.86 5426.78 5235.17 4863.23 3555.86 6566.1 5381.16 4560.84 5227.52 4414.48 6086.96 5163.02 4127.74 4541.21 4704.72 5908.1 5445.87 5198.77 5423.0 5643.58 5215.05 5197.52 5344.43 5615.35 4135.62 4860.33 5266.22 3361.26 4983.39 3685.13 3418.99 4690.55 5366.52 7132.12 5417.8 4836.16 5680.94 5581.55 5832.37 6550.44 3764.06 4642.93 5941.9 6642.76 5987.42 5990.52 6109.49 5652.0 4340.76 4435.36 6065.22 6386.78 5565.13 4996.99 6193.35 4656.78 4302.5 3066.13 2476.04 6048.7 4571.7 4850.01 4107.03 4138.46 2775.04 5137.34 5198.29 3975.31 4373.47 6070.58 5490.43 6169.11 4896.11 5172.53 4318.48 6132.95 5226.97 5754.18 4480.95 4558.15 6552.21 5227.02 4232.16 5151.11 5300.96 5193.01 8325.01 4440.81 4523.39 5829.22 5567.93 3764.1 2967.38 4835.83 5463.41 4421.12 4929.75 5254.49 6045.22 4221.28 4470.61 4456.39 4156.38 4631.83 4092.24 6009.88 4177.94 4344.58 4271.69 3970.25 4044.45 3821.72 6035.6 4285.32 3627.82 5262.19 5022.28 4285.66 5339.38 5008.63 4004.35 4763.96 4270.74 3450.93 6293.89 5132.68 5737.75 6595.03 4350.12 5670.0 3834.43 6609.84 4344.51 4707.06 5491.37 3781.77 3474.5 6348.03 3860.83 4792.39 5732.27 5434.47 4497.78 4243.79 5811.18 5332.65 4779.5 4159.35 4237.98 6649.96 3701.27 4729.43 5105.16 5991.09 6006.16 4164.68 5896.46 4742.68 4810.12 6898.19 6449.45 5526.14 4244.9 6048.86 4986.51 3872.61 5311.03 3930.79 5293.51 4238.4 5365.24 5097.45 4446.06 2761.07 5742.47 3778.02 3603.51 4367.78 4095.75 5135.96 5222.51 6074.94 5658.37 4250.88 3475.67 5278.56 7038.89 6917.62 5146.37 5433.65 6451.33 5225.33 5604.35 3091.67 6439.37 4614.3 4896.39 5233.78 4384.88 6887.27 4562.74 5126.91 6008.49 4806.34 4678.38 3942.07 5050.65 5634.83 5316.75 3633.87 3929.19 7099.43 4516.28 4470.4 5315.4 4611.53 6894.26 5255.12 6408.83 6625.18 4185.61 4047.87 5099.21 4573.72 4917.99 5636.4 3319.67 4076.59 4298.45 5164.1 4428.14 4972.17 5699.53 3783.54 4222.77 5268.38 3863.67 5527.23 5631.14 4814.12 5067.56 6137.8 4442.22 4343.78 4887.76 5413.31 6477.91 4332.87 4303.19 3633.79 4081.97 6081.14 5421.53 5480.83 5448.61 4827.33 5776.57 5495.84 6268.1 4502.5 5922.5 5499.11 5347.48 4374.35 6396.74 5776.37 5486.68 5100.25 5678.96 5296.29 2681.29 5094.48 5576.92 4586.19 4163.74 5323.91 6969.28 5698.96 6471.42 5283.8 6464.15 6016.19 6685.4 4850.06 4479.11 6332.01 4805.33 7044.29 5980.95 4013.38 7085.01 5263.3 3012.99 4909.65 4008.15 6316.56 5401.99 6420.81 5514.84 5134.39 3914.2 7144.24 5653.9 5133.97 7443.72 5022.8 3784.5 6133.92 3937.08 5782.6 6261.42 5113.21 4862.21 5965.78 4011.77 4527.08 5252.34 4410.55 2965.79 4287.63 3921.08 4190.31 5805.86 5346.68 4049.02 5997.88 4360.23 5889.35 6234.32 4585.31 5010.04 4570.98 4296.69 4275.07 5825.38 3665.95 6238.32 6372.13 6804.79 5369.5 4124.49 5535.91 5714.25 3230.13 6176.67 5325.96 5016.02 4581.37 4234.18 6193.08 3352.35 2735.53 5116.6 5887.01 4669.06 4811.32 6400.08 4286.49 4256.57 5580.92 4715.58 4607.85 4220.46 4287.53 3600.43 5683.26 5598.74 6600.94 5371.02 4906.82 5513.57 7055.53 3719.84 5013.67 4178.4 5669.65 5011.84 5253.55 5820.48 7034.11 2586.12 5433.8 6125.34 5975.63 4274.61 6314.07 5083.41 5683.61 7055.42 4558.46 3836.45 5731.57 5020.71 5662.55 5737.92 5839.71 3755.95 3056.7 5591.76 4394.56 5388.78 6101.13 5599.7 6918.35 5404.01 5642.35 6357.47 4793.65 5955.86 4533.37 4532.89 5412.24 2779.99 5887.38 4920.21 4049.16 5851.61 3936.95 6153.94 6069.3 3862.77 5168.35 6523.86 7693.4 6184.88 4743.59 3317.83 5208.14 5784.3 3532.3 5769.98 6088.68 5937.08 5131.24 6070.3 4788.58 6155.1 5046.21 5260.34 5729.23 5206.48 5934.22 4709.35 6586.45 3780.23 5826.04 3471.03 5690.26 4359.62 6057.22 5062.71 4156.2 6946.21 4289.17 4497.59 5564.02 6444.77 5759.46 6248.6 5443.58 5687.85 6401.43 5703.74 4747.55 5464.68 2685.81 4510.8 5896.26 4587.67 5093.82 5951.81 3924.14 4834.3 6348.54 4066.57 6101.57 4891.38 3856.53 2949.12 6040.74 4848.46 5742.09 6942.34 4393.16 3658.05 6836.82 5478.11 3858.17 3477.1 4631.99 3747.03 5388.39 2783.85 4356.49 4326.48 4437.07 5829.32 3449.37 4396.25 4450.7 5151.52 5973.33 3583.21 2221.99 4643.56 5442.32 5612.21 4135.08 5291.9 5894.61 5128.57 4929.14 5687.83 5196.67 5004.23 6496.67 5139.5 5876.71 5474.8 6442.69 5624.49 6320.71 5226.0 5339.78 4750.78 5029.78 3095.48 5188.81 3923.03 3745.84 4730.41 5696.88 4643.85 4203.26 4004.04 5607.14 5082.74 5411.85 6915.83 3999.94 4844.57 4027.46 6072.45 3901.8 5511.88 4470.98 5941.61 4512.11 4933.65 5708.99 6098.1 2435.33 4074.48 6333.29 4477.04 4558.47 5831.96 4539.07 5064.79 4475.83 5480.3 7509.24 4146.81 5756.75 5212.43 5454.12 6318.23 4058.87 4206.98 5156.76 5932.07 5948.71 5844.72 5460.89 4054.22 5260.85 2884.65 5393.65 5807.46 4648.21 3311.29 3110.13 5526.31 5030.15 3644.78 4078.93 4740.98 3185.39 3728.18 5335.47 5128.77 4526.81 3994.07 5491.9 3763.05 5092.24 5551.95 4659.16 3918.87 4347.74 5369.08 5067.46 4518.04 4863.01 4009.62 6000.7 5620.74 5945.08 5604.21 7493.3 3979.54 4968.03 5304.13 4814.55 4648.04 5833.06 4373.3 6262.72 3527.05 4166.08 3664.11 5762.59 3365.82 4861.06 3979.26 5960.66 6608.73 3999.48 5654.31 6062.05 4735.33 6939.12 4413.85 6853.85 5092.37 6171.13 4020.4 4864.22 5782.48 2395.5 3497.9 4031.78 3735.24 5564.23 5950.04 6574.95 4231.83 6853.04 6817.57 3614.96 3886.68 4745.43 4912.04 4691.91 4255.34 5344.83 7046.11 4863.97 3427.63 6342.48 4840.44 6639.64 5439.49 5216.26 3687.65 4887.52 5478.95 3851.85 6571.31 4392.65 5174.75 5048.55 4984.46 4024.31 4147.31 3992.97 5989.05 7228.94 4441.22 4961.99 4595.12 5853.89 4386.8 4549.69 6423.81 3485.54 6192.77 4312.15 5934.82 4501.78 5633.61 6405.0 4219.94 5048.19 5907.46 4264.91 5399.29 5549.49 5789.55 3101.75 4766.06 3580.58 5356.79 4874.18 5233.29 2081.58 4011.37 4778.82 3169.67 4312.56 4612.06 5204.04 3361.92 3306.14 5467.84 5944.09 5490.58 5698.77 6607.87 4863.79 4163.5 6515.84 6481.79 5374.51 4123.6 5320.28 7092.87 4796.58 4569.12 4298.67 5873.69 5750.71 4472.17 4962.09 6222.42 5470.77 4831.47 5516.95 5563.79 4151.76 3905.51 4406.4 4721.02 3546.71 3493.47 4596.75 4254.37 3374.08 4188.87 5768.57 4498.25 5151.21 5108.06 3573.73 5398.64 4693.52 4568.41 3624.7 5262.35 3420.08 4320.42 4281.98 7165.9 4701.5 4449.98 4771.65 4036.91 5589.37 5110.11 6379.14 3634.5 6631.28 6413.15 6103.11 6459.51 4955.16 4904.51 2202.77 5950.88 5751.15 4149.55 6201.86 6551.93 6484.43 3380.69 4140.4 4725.01 4625.67 4458.64 4583.52 3657.69 6418.11 7122.87 4243.26 3572.94 6799.23 4888.27 4153.84 6740.71 5423.42 6487.56 6605.86 4901.2 2511.46 2775.69 6505.78 5657.36 6124.08 5029.47 3619.79 4750.58 5876.64 5395.14 4702.06 6710.88 3967.48 3464.83 5117.47 2477.07 4923.41 4143.78 4538.95 5724.64 4970.88 5224.12 4850.14 4763.66 4666.81 6739.08 4471.58 3637.61 6098.14 5463.38 5945.21 3493.7 4938.74 4200.03 5313.22 3474.39 3436.15 5328.22 5711.11 4575.94 4216.17 5021.88 6484.17 4938.72 4597.29 5956.65 5931.77 4200.09 5097.95 4222.4 4914.45 4000.43 4698.87 3984.88 4661.03 3344.57 5318.53 5220.76 5160.59 4732.09 5783.48 5138.2 4504.35 7001.83 4593.7 5012.97 4349.13 4891.67 6818.91 3429.57 4027.63 3503.65 5569.2 5420.67 5350.88 5416.45 5305.59 6114.89 4330.58 5754.6 3288.01 4355.83 6870.97 6056.87 5474.01 5307.35 7554.58 4342.18 3639.44 5446.4 5966.75 5725.37 3868.62 5510.9 4883.63 3492.83 6015.02 4922.49 5797.36 5001.58 5119.86 4820.17 4729.42 4854.11 4592.15 5084.17 4633.05 4901.44 5971.22 2275.45 6522.59 4909.31 5012.5 6519.43 5711.62 4785.25 4270.15 5461.55 5053.95 3298.2 6306.21 5926.11 6667.68 6213.04 2990.77 3163.78 4497.31 3830.46 4925.63 5965.15 4888.6 4721.32 4305.16 3293.56 5882.65 7042.12 5078.86 4780.2 4797.52 6326.39 5501.93 6343.14 5462.21 5374.98 6049.79 6313.06 5226.56 6345.13 5274.19 6470.3 5599.49 4050.08 5452.42 4719.7 4097.57 5017.5 5005.85 4893.49 4834.87 5325.44 5102.75 3672.21 5760.22 5938.17 4795.43 2928.82 4811.76 5313.12 5498.42 5351.56 6448.66 4453.97 6945.98 7317.04 6412.67 6204.65 4482.9 3766.69 5513.8 5188.53 4521.75 6746.66 5410.33 4642.74 6735.97 3636.15 5483.7 5135.63 6384.7 3896.27 5952.38 5351.86 5963.36 5230.02 5169.48 6016.08 5166.89 5491.63 6064.71 6102.98 5138.33 3743.76 4505.28 3425.69 4971.29 6280.13 5244.22 5510.45 3684.15 5585.14 7039.98 5832.29 6456.58 4159.81 5089.26 3886.72 5415.45 4998.22 5533.19 5417.21 6602.43 5435.19 3562.79 4383.56 7093.13 4990.79 6865.76 5424.46 5253.37 5235.11 5266.01 5211.38 6515.8 6413.11 6031.67 5092.28 4739.14 5274.14 4918.77 4636.5 5163.55 4819.73 3382.7 4903.82 6817.32 6471.55 3954.91 5085.71 5923.4 4319.79 5960.56 6643.85 4020.95 5774.97 5862.86 4890.5 4390.41 6113.95 3731.84 4901.07 3981.07 3554.48 6496.52 5186.3 3991.42 3718.69 5966.61 4388.63 4940.28 4514.79 2216.82 4509.89 6752.75 5269.38 3004.34 3022.6 5607.3 5375.1 4638.18 4172.6 5211.6 4196.37 5806.31 4745.79 3556.79 3503.41 5456.71 4908.75 6556.26 3971.08 5684.25 5438.92 6550.4 4244.49 5036.98 4120.07 4775.04 4952.52 4882.66 3840.21 4081.34 3908.56 4954.76 6334.53 5244.78 4844.83 5377.37 5869.67 5652.87 4311.48 4899.73 3152.86 5018.69 6394.19 5973.89 5807.52 5087.14 5518.11 4192.21 5712.35 4731.21 4743.9 3124.7 3719.11 4467.13 6060.17 5153.18 6711.21 5902.67 4236.86 4730.14 4438.76 2606.51 3994.39 6006.89 5244.98 3814.65 3965.3 2955.36 4960.64 5792.98 3776.8 4983.3 5096.43 6592.93 6156.21 6350.71 6104.26 3568.28 4798.17 5425.98 5166.79 4953.1 2895.63 4516.53 6449.64 5818.95 5767.9 3940.49 4857.84 2040.66 5384.76 2978.76 5529.42 7016.27 5257.12 6138.12 4689.15 4434.19 5100.1 4428.78 4965.89 4940.42 5746.28 3703.1 4946.42 4371.99 4623.61 5409.66 5187.7 4082.47 3561.29 5203.08 2965.01 6235.57 6263.44 4863.27 3492.19 4584.5 5122.63 6766.43 4118.84 2315.64 5916.16 4703.08 3423.15 6934.37 4488.85 5010.2 4579.69 4997.83 6123.03 5578.94 5148.08 6192.0 4777.03 7610.49 5885.28 6579.31 5323.55 6028.09 4609.02 3804.5 5452.36 6486.37 5561.74 6083.28 6100.73 5470.04 4198.94 4211.82 5212.37 2628.22 6003.78 5058.51 4124.76 4901.29 7200.89 4050.03 4813.33 4833.55 3646.95 4705.68 7224.99 4749.96 4658.24 4906.11 4387.39 4564.1 5457.66 5509.51 4848.14 5366.22 6193.73 5254.24 5701.52 3742.11 3597.43 4914.03 6776.22 4158.91 5311.55 5321.17 3877.8 4869.25 6273.6 4763.4 5454.11 5024.32 4708.17 5393.76 4941.02 3779.45 5806.61 3864.92 4618.73 4983.1 3668.93 6119.99 4128.1 5372.82 4385.81 6436.74 4034.05 5690.96 5583.61 2460.79 4653.83 6063.64 5996.66 4093.99 6479.39 4122.92 5079.22 6464.8 4908.49 4452.54 3604.14 6622.11 4684.44 4962.21 5884.9 5089.62 3685.65 3468.42 3685.13 6790.73 4590.55 5243.43 5659.95 6090.91 4741.26 5920.32 4186.6 4537.14 4152.85 3701.16 3295.83 5551.9 4219.78 5644.82 5499.39 6413.02 4440.57 5412.31 6736.03 5374.07 5548.29 3087.09 3623.87 7480.41 5163.77 3766.55 5469.13 6027.62 5765.42 6098.95 4817.16 5453.98 5660.55 5653.03 4157.29 3989.7 5107.0 4246.61 4286.17 3684.56 5327.75 4946.23 4852.58 4896.65 4532.7 5975.23 4504.86 4473.29 4788.08 5079.64 996.652 4680.69 6163.54 6500.49 5965.58 4607.18 3352.34 2403.72 3899.7 5134.33 4147.49 5419.57 5162.67 4802.98 5760.98 5469.35 5384.86 4019.34 4869.48 5510.96 3623.19 6653.07 4745.16 4697.91 5825.55 5719.79 3199.4 4316.5 7261.51 5148.1 5224.64 4968.14 5949.73 5086.29 5144.56 5139.18 3360.86 3034.16 5551.43 5049.99 5545.21 4333.87 4201.03 5136.87 5638.7 2741.2 5790.42 5784.37 7123.04 6010.59 4009.24 3682.35 3756.96 4402.17 4446.58 5401.4 7778.01 5127.82 4456.11 5798.38 4125.9 5096.24 3862.91 5366.11 4986.71 6171.71 7382.3 4405.42 4997.91 2995.67 3598.08 4599.81 5381.54 4022.56 5522.21 4749.59 4406.05 5698.23 4858.44 4680.94 5828.35 5799.69 5089.1 4673.35 5876.72 3876.21 5571.72 4655.16 5689.26 4916.22 5869.4 5297.19 6022.7 5251.4 3867.19 4188.3 4345.67 4453.64 4963.34 5081.78 5019.93 4459.28 5235.29 5453.3 4260.92 6116.33 4479.94 6250.23 4407.9 4718.54 4435.51 8659.64 4055.54 4588.7 4886.12 5683.95 6107.89 4976.12 4233.8 5530.49 5065.26 4304.41 4892.44 3746.36 6789.23 5069.89 2205.51 5361.87 6212.15 6813.72 4783.07 4757.2 6200.63 6816.66 3844.54 5241.75 3217.67 5034.69 5849.53 3538.53 4509.46 6127.39 5640.12 4972.18 5078.59 5329.76 4365.58 4759.99 2646.13 5214.4 3629.49 4636.53 5399.43 5766.05 5117.64 3835.81 3916.42 5429.3 4944.51 5532.72 4584.81 5071.98 5179.17 5579.39 4371.08 5270.51 5490.75 5214.63 4312.48 3495.68 5783.94 5527.13 6370.33 4278.57 5081.08 6318.25 5001.87 6864.06 3667.93 4493.79 5684.05 5813.79 4644.88 3142.09 5293.13 5591.77 5182.13 5906.57 7541.76 5053.15 5124.17 5910.86 5805.1 6239.68 5039.12 7320.78 3908.98 3628.89 4064.58 3419.87 4668.88 4824.81 6589.82 5027.43 3772.3 5810.77 7300.58 4855.01 2711.19 4714.83 4028.32 5236.43 3809.69 4099.92 4992.42 4771.13 5285.07 7051.9 4940.84 4680.14 4255.85 5097.69 5511.6 6261.75 3885.86 4517.73 3757.34 5177.64 6415.61 4338.08 4255.31 6134.99 5191.08 5424.88 5148.58 3838.47 2588.37 4062.5 3583.49 5887.15 4199.45 5415.85 3548.39 7234.66 4858.51 4207.54 6599.66 5625.65 4936.96 6419.12 4301.61 4481.76 5206.33 3184.64 5375.12 4446.84 4356.36 5452.78 5473.72 4741.28 4215.2 4553.68 2603.64 2856.55 3703.49 3894.64 4268.19 6502.97 3758.22 4374.74 4062.56 5969.37 3205.68 4583.94 4928.35 5046.31 4337.32 4731.53 3763.9 4651.99 4788.7 4420.11 5863.0 5084.5 4918.64 6562.03 6638.25 4815.47 4368.12 5193.58 3889.98 5490.64 5695.44 3769.2 3422.21 4507.46 5036.14 5603.68 5610.95 3220.8 5042.75 4598.92 5241.22 6647.08 4979.52 3422.29 4407.79 4537.03 6548.29 3990.96 5352.24 7362.42 4202.77 5836.14 6008.81 4932.56 4279.44 5192.49 4028.22 4899.19 5058.34 7350.26 5167.53 3768.46 6110.48 3852.82 4507.36 5003.3 4775.49 6245.52 4681.29 4932.29 5499.59 5749.6 3845.9 4834.44 4234.88 4141.21 4439.71 5782.43 4384.28 5769.14 6328.42 7307.21 5522.75 3608.06 5474.15 5867.64 7519.2 4923.57 6633.61 3208.96 4884.59 6059.93 3858.06 4478.6 5217.95 5895.77 4732.09 4608.41 4184.23 4765.72 3988.3 5857.79 2908.7 5750.07 4039.91 6136.49 4642.66 5276.7 6543.13 5149.72 4752.14 5037.06 5660.16 4541.8 5842.56 6200.54 5713.03 4652.01 5849.65 4928.27 3673.28 5134.67 5775.31 5421.64 5052.84 4366.74 3375.28 4165.21 5297.16 4603.5 5354.66 4647.67 4214.44 3566.79 3629.44 5378.23 5374.67 4787.97 4981.43 4061.6 4508.18 5064.67 6214.73 5175.89 5836.26 6618.21 5232.85 2617.39 5144.44 3717.47 4051.18 4685.4 1937.5 6240.42 5146.0 5721.14 4577.73 4288.45 4987.28 6206.98 5131.77 4410.82 5549.71 4967.51 6443.99 5173.82 7212.97 5698.53 5034.34 3856.73 4450.49 3468.45 5887.71 4526.34 5635.32 4316.45 5409.08 5481.64 5673.75 5360.67 5968.54 6263.3 5592.54 4501.05 3247.97 5124.34 4114.2 4358.81 4326.06 5034.46 5757.29 5793.12 5469.17 5473.05 5061.75 4373.2 5537.34 3487.31 5884.99 5726.42 3918.94 6643.4 5487.63 5575.11 6599.28 7145.73 4990.23 5800.81 3220.29 3784.94 6016.87 3125.13 5166.05 6715.73 4174.44 5667.51 4456.26 4708.31 5113.6 5944.3 4810.98 3563.14 3381.82 5135.5 5431.29 3619.72 6208.9 5347.9 4646.51 3340.09 4438.58 4565.93 5602.53 4504.52 6355.68 6061.63 4083.79 4511.7 4144.57 4833.46 4304.63 4351.38 4187.94 5980.59 5550.75 5933.7 5021.77 4809.67 4757.74 4687.64 4378.3 4356.25 5469.47 5512.16 5411.02 4950.97 5175.29 4989.56 4863.96 5199.44 4094.73 3852.6 5580.34 5131.15 5009.83 4110.59 4847.14 3332.49 4811.22 4215.0 3683.86 3950.27 5116.66 4918.76 5003.78 3299.24 4208.41 5730.61 6246.56 5826.78 6358.93 4383.68 6666.67 6015.22 2904.46 6063.44 4826.52 5120.92 6449.06 4629.02 4924.07 4927.73 5914.5 6006.16 3565.32 3419.07 4608.62 5407.96 5344.44 4071.75 4626.72 3186.07 4369.86 5482.76 3745.02 4887.73 3720.7 4211.36 6297.99 5378.24 3604.31 4538.89 5817.74 5661.6 4827.61 5385.03 5285.75 3234.26 4169.15 4830.13 3494.16 4778.37 5134.17 5370.9 4074.16 4325.13 4904.35 6172.27 5390.33 4904.37 5278.54 4651.64 5729.92 5275.57 5016.46 6224.13 3769.24 6022.78 3661.67 4087.32 6647.85 4674.9 7025.09 5461.72 3392.26 4433.12 2549.95 4361.24 4168.52 6224.85 5403.97 3954.77 5106.46 6793.1 4068.31 4506.66 3671.06 5515.73 5209.55 5077.29 7035.54 4564.41 3873.92 4198.9 4027.33 5026.76 5951.86 5091.22 4252.18 4833.67 5023.41 6282.38 5640.72 5325.91 7107.63 5851.63 5073.02 5484.36 4867.7 2279.05 4829.35 6545.43 3953.55 4063.9 4075.28 4277.24 5263.27 4469.54 6834.41 4314.56 6300.92 7248.4 5161.1 3796.15 3928.53 5036.58 4419.71 5776.96 5329.59 4888.12 4409.27 5439.9 4244.21 4588.99 4617.55 3197.63 3875.05 4287.16 3456.47 3645.12 3540.11 5471.74 4344.34 5966.42 5210.38 5666.95 5717.8 4706.5 4127.53 4489.99 5210.75 4548.45 4658.11 4474.83 6555.44 4551.26 5293.75 5658.14 5114.07 6570.35 4385.49 4263.18 4242.63 7124.45 7142.95 4559.74 6061.85 4454.74 5268.15 5512.44 5819.0 3460.93 6347.72 3200.6 7168.2 4602.57 4571.74 3763.85 4096.86 5710.33 3622.48 5001.51 6432.8 5115.42 4209.0 4082.4 5728.58 4930.72 6424.77 5453.69 5918.95 6556.86 5689.56 3242.31 4898.29 6099.28 4431.06 5372.25 5730.2 5620.88 4941.52 4529.77 5900.0 4262.74 6241.77 3783.79 5317.19 5078.73 4248.14 5729.0 5279.19 5192.92 7050.08 4179.87 4786.66 4761.84 5517.65 5370.1 4009.68 5114.51 2569.12 4622.73 5161.74 4161.32 7336.37 5138.93 6945.69 4556.19 5368.66 6406.8 4795.08 6562.92 5501.73 4697.24 3612.44 4850.5 4983.43 6331.74 5233.76 5426.4 5763.05 5357.39 5129.68 4659.88 2820.07 5076.84 4546.44 3791.41 4092.07 5657.55 5727.79 5212.92 4224.3 4831.93 4184.21 5788.97 3472.91 4700.07 6760.92 4989.2 4023.93 4928.85 5868.89 8137.11 5291.05 6650.77 6045.67 4209.49 4216.95 6226.14 6119.63 5742.74 5464.25 3821.94 4209.31 5486.48 3498.16 5718.28 4752.9 5301.47 4247.69 4947.24 6242.79 4321.21 6506.86 5950.45 5391.48 5088.57 4803.57 4728.55 4923.43 4568.64 4929.6 3919.62 4642.2 4945.0 4212.15 5260.52 4585.04 6102.49 5678.58 3185.09 2945.34 5114.23 3372.95 3269.54 5495.0 7407.91 5846.95 5064.23 5716.42 5701.63 4620.95 5368.93 4488.39 6121.56 5124.86 5879.24 5740.78 4796.12 5385.86 5997.91 6791.86 6031.22 5485.84 3618.64 5703.84 4335.79 5797.32 5432.04 3702.45 3921.27 3161.1 5265.63 5684.88 6523.78 4645.86 4045.67 6005.95 4308.49 4519.03 4930.17 4581.1 4745.44 5762.82 7360.12 6223.98 4016.6 5821.49 5580.44 3035.06 5891.25 5129.4 5095.52 4746.15 3303.49 4655.37 3720.38 5585.25 5256.75 5099.9 6351.89 5932.28 5118.86 4298.7 7086.69 5648.78 6170.9 6875.73 5226.42 6081.3 4436.48 5615.35 5117.52 5866.91 6405.69 5679.74 4825.73 5247.01 5853.12 4213.05 4208.37 6203.03 5157.38 5188.82 5235.87 5615.84 5273.37 4464.73 5043.14 4717.73 6440.38 5556.0 4711.04 5484.32 5007.21 3904.07 7144.05 5466.33 4173.54 5280.12 5599.29 3946.28 7216.98 5984.81 5721.05 7013.17 6329.53 3805.67 4590.01 5367.73 4514.39 4640.06 5078.31 4807.35 4227.41 5993.0 6047.14 5467.63 4554.68 4140.92 4368.28 5750.35 5984.8 5463.06 3127.83 5236.24 4241.68 3986.41 5532.75 6949.65 3469.18 4095.83 5695.25 4489.29 5323.95 5676.61 4301.93 5796.26 4603.04 4870.94 5293.37 5271.88 5559.79 2980.31 3148.79 6348.93 6824.53 4332.64 4742.82 5232.16 4422.23 4820.68 3989.26 4171.02 3530.82 7012.36 5028.06 4886.99 4002.99 5587.3 5159.67 3572.73 5764.52 3770.22 4390.64 5150.84 5087.97 4608.01 4467.51 5339.82 5460.57 5110.27 5703.34 4085.96 6668.98 6649.52 5462.6 4262.19 5617.29 4597.88 5998.13 4878.93 6275.25 6892.33 4758.84 4505.3 4731.37 5023.61 3976.0 4672.86 6530.78 2960.5 5560.23 4975.32 4183.4 5237.55 3902.48 4304.64 4733.79 5833.78 4905.53 4823.06 5758.98 5254.49 3967.76 5288.64 6311.89 6213.24 4683.28 4217.36 6549.8 4851.18 4150.76 4165.36 5005.72 5368.52 5288.33 6296.54 4841.7 5797.21 5702.4 5069.9 952.938 5473.89 6089.45 4732.37 5810.17 4985.3 5072.5 4966.07 5713.36 3274.85 5545.59 5748.9 4619.2 4506.18 5606.51 4801.8 6038.68 4444.97 5271.02 5046.12 3000.29 4807.4 6349.67 5261.19 4350.15 4139.3 3516.27 6541.45 4601.74 6101.86 5228.75 6545.99 6761.81 3903.91 2918.64 5630.9 6139.64 4512.07 4756.8 4896.43 4692.32 4176.32 4462.35 4639.8 6069.78 5196.08 3587.93 4517.29 4975.85 6257.79 4495.75 4849.5 6171.01 6229.83 4468.26 4523.81 5065.74 5578.18 5791.25 5106.33 4873.23 5198.94 5933.54 4028.35 5464.05 5410.6 5453.2 4733.41 4969.68 5264.83 3901.53 5136.51 5431.14 6815.51 5313.86 5189.91 4457.05 5151.19 5777.26 6119.0 3792.06 5128.59 4293.3 4993.49 5310.33 6583.37 4864.38 3688.83 3402.44 4848.98 4491.96 5184.98 4397.06 4479.5 6261.67 5065.78 3435.13 4431.46 4612.68 3207.84 4521.42 3977.98 4232.33 4939.56 4747.68 5770.92 4845.91 3093.38 4723.71 2002.78 5631.32 4461.67 6322.0 5793.14 4452.36 4068.41 6463.71 5059.37 3043.77 5783.38 4139.39 6264.03 3909.94 5088.64 6030.39 3799.01 6589.8 7392.65 5319.1 3757.23 6828.8 6734.39 5942.45 4228.53 6123.46 6142.88 4871.77 5811.26 5685.74 5388.73 6740.35 4678.7 6075.99 3673.6 6028.63 3306.84 5265.21 4657.24 4400.14 4550.92 4749.18 6215.87 5553.94 5191.26 5494.28 5166.41 4067.96 5740.65 4824.12 7104.73 6542.5 5067.56 2596.96 3834.47 6162.3 5701.75 3272.75 5262.47 4264.54 3512.94 7043.44 3831.52 4263.65 4750.49 4258.98 4263.78 4643.9 3787.08 6106.43 4013.86 5644.81 4177.47 4218.16 5218.42 5345.73 5334.36 4933.49 3990.94 4841.23 4357.11 5477.8 5486.89 5589.53 7208.19 4549.51 5025.42 4965.24 6379.38 5327.05 5438.55 5353.23 5977.66 5209.5 6175.27 5876.51 6731.89 4286.61 2932.52 4603.66 6636.43 3557.46 5971.95 6298.8 3689.24 5178.07 6509.54 6079.55 2589.19 5485.61 5308.4 6581.13 4569.32 5537.61 6084.88 3543.98 4721.98 4053.12 4199.44 5878.55 4014.44 6604.72 6002.77 4610.55 3794.47 4967.02 4614.49 6043.34 4128.93 4959.72 3808.04 4712.17 5348.11 6126.5 4405.61 4034.88 6007.1 4491.26 6345.2 4511.34 4832.21 4609.65 5009.21 4742.35 5394.79 5645.54 5264.08 4526.87 3562.8 4151.74 5192.82 6920.92 3729.16 3783.36 4174.22 3573.84 4181.93 3038.91 3922.28 6570.43 5987.88 3579.59 6883.86 6161.94 4065.28 5155.28 5057.59 4461.14 5111.26 5285.6 5062.77 6019.35 5205.38 4884.93 4600.71 3450.07 5262.79 5927.2 5146.1 5866.42 6485.77 4704.92 3669.32 3663.0 5610.53 4099.26 5206.47 2970.9 4954.81 4834.39 4383.47 4608.34 5971.21 4835.97 5493.89 4057.17 5695.79 5464.83 2781.96 4184.47 7066.96 4467.0 4991.35 3104.96 4994.65 4587.7 5740.98 5601.55 4346.07 4462.87 5196.92 4012.92 5759.79 4598.54 4711.15 4816.51 3825.48 4658.59 5188.22 4770.63 3810.68 2804.54 4196.62 2809.19 5005.6 4104.04 5593.79 5104.39 5234.2 5847.91 4612.13 4934.66 5846.6 4109.44 4903.84 4290.49 4557.1 4434.65 6688.53 5927.1 6500.45 4907.55 4103.76 6605.11 4757.87 6379.33 5130.57 5652.73 5402.45 3979.46 6321.97 6412.84 3985.93 6071.59 3856.4 5985.75 4696.06 4137.16 4937.36 5984.55 5672.46 5803.3 3228.27 3956.24 5252.82 5056.26 5333.04 5445.91 4521.99 4812.59 6842.54 7115.67 5675.45 5400.69 4462.5 2807.46 5004.68 5573.31 4023.88 4179.8 3488.34 5658.35 5428.24 5108.84 3511.5 4520.14 4582.12 5067.92 5488.96 5704.61 3188.21 5128.03 5410.73 3720.92 4574.03 4379.91 5290.37 5850.38 4227.66 4691.01 4594.89 5245.95 3677.85 5821.42 4067.89 4515.02 6294.09 4571.57 3445.92 3350.99 3820.19 5236.69 4979.5 4586.82 4745.37 5418.98 5939.29 5575.11 4574.54 4949.55 3132.34 4764.83 1969.87 4841.28 3957.38 4494.15 4047.95 5035.71 5507.38 4419.79 4710.88 6060.06 5544.27 4762.1 3484.81 3742.31 4316.0 3987.69 4546.96 4287.25 6304.49 4580.06 3926.11 5134.72 4191.01 4271.07 6419.64 3622.8 4589.06 5340.05 4140.04 4920.88 4770.51 5995.4 5414.58 4431.23 5577.41 5917.34 6511.37 4216.44 3999.5 6710.14 5034.05 3953.26 4426.02 5467.51 4474.39 4625.53 5459.92 4096.47 2347.41 4542.16 6478.35 5453.77 4916.7 2638.82 5353.66 5030.33 5157.73 4541.22 4946.08 3539.68 4696.03 4984.01 6177.68 6217.33 4605.39 4698.7 6270.59 6045.26 6263.87 5743.8 4094.63 6666.34 5084.76 5581.01 6834.92 5749.53 5247.73 5090.48 5034.02 5582.28 4649.5 5945.25 5181.31 5475.83 6189.29 3074.49 6571.26 5202.33 5580.95 7558.99 4142.1 3393.59 5043.14 5246.81 5089.1 5394.78 2853.68 5122.38 4998.37 3361.11 6038.56 6559.82 5599.16 4577.98 5043.34 5886.81 4487.51 4246.24 4295.25 5357.14 4850.95 5919.27 5087.3 4942.63 6139.74 4975.57 7066.26 4730.97 3057.3 5214.71 6150.31 4677.84 3463.53 4811.11 6126.03 5131.07 4121.07 5524.28 3133.28 6026.04 5731.43 6200.05 5859.17 4052.49 5615.06 5490.54 4034.41 5203.54 6189.67 6142.94 6889.5 5001.69 5407.69 3869.39 4416.87 5960.5 5308.33 6502.99 6896.55 5424.55 4666.12 5755.15 4392.75 4921.1 6219.34 3814.16 6023.07 4420.6 5287.25 6506.63 5939.22 3626.86 5418.12 4215.05 6371.96 4668.8 3495.3 4271.93 5890.25 5322.11 5700.79 4697.49 5524.45 5735.08 4726.2 7133.44 4750.81 5600.21 4282.11 4656.01 6589.13 5602.62 5714.51 3543.37 2030.03 5114.67 5628.97 4484.78 5527.27 4621.33 5765.14 4767.54 4801.16 5121.08 2927.84 5688.77 5368.28 5466.13 6229.64 5257.38 2848.44 5625.02 4220.43 4975.56 7282.36 4829.77 3826.01 4645.91 4444.92 6959.88 4125.75 3746.62 5971.9 4532.67 4876.37 5260.13 4769.62 5019.84 4810.74 3900.93 4028.13 5784.38 4149.17 4329.8 5728.27 6260.58 3053.19 4313.38 4720.22 5827.3 3549.92 6598.99 4032.06 5250.56 2468.16 6294.14 5888.95 3463.34 5203.75 5169.09 2459.88 5262.85 5329.84 5901.71 5225.11 3879.83 5342.9 6565.95 5733.12 6436.29 5402.81 6805.02 5354.48 7394.47 4729.45 6261.13 5374.09 4793.06 6637.38 3421.81 6188.33 6111.23 6916.18 5786.06 5873.62 4137.41 4996.91 4924.52 3920.44 5379.52 4866.8 3768.62 6044.69 2970.24 4197.87 5105.54 5462.1 6353.81 3414.67 3518.14 6032.45 4150.44 5061.74 5522.34 5326.03 4420.35 4948.96 5717.45 5772.57 5117.83 5256.82 5300.17 5152.78 6581.56 4052.43 4117.9 5393.43 5534.23 4057.4 4753.76 4638.09 6025.77 4685.65 4441.91 5377.01 5674.63 5828.25 5917.08 4725.11 5483.37 5092.93 5934.05 2803.01 4604.1 5125.17 4399.52 5322.07 4859.01 5076.11 5770.07 5990.75 5101.6 5327.39 5781.62 4037.86 4138.59 4970.55 4938.33 8123.59 4819.83 6286.27 6327.54 5071.38 5616.66 4802.36 2943.17 5327.71 4880.78 5075.23 5509.09 3873.72 5212.05 4592.49 3625.98 5479.86 6474.5 3928.99 4763.04 5944.52 5050.2 4413.56 2513.38 4821.41 5316.05 3995.08 4908.32 4499.52 3874.12 5759.19 4457.73 3113.64 6476.35 4304.75 5480.86 4067.24 6139.9 2832.83 4474.96 4084.87 6036.99 3633.58 3010.1 3584.05 3825.98 4589.22 4339.97 4667.84 4512.6 4691.15 4210.24 4260.38 5470.67 4636.45 4932.27 5638.51 5252.22 4962.35 6786.37 4333.23 4600.81 4919.13 5640.63 4900.26 5168.97 4167.55 5783.88 4720.34 6271.22 5244.47 5378.75 3920.64 5510.89 6186.24 5822.7 3780.07 3868.69 4159.89 5447.74 4450.51 6033.72 5314.67 3851.47 5658.05 4966.74 6593.1 5563.47 4066.36 3162.27 4000.51 6033.93 5011.37 5444.36 4026.03 2827.92 5044.68 5771.98 2649.69 5899.78 5000.74 4813.81 6153.26 5268.27 4013.86 4061.87 3980.46 5165.31 4896.67 4585.37 5383.9 3798.09 3934.11 5158.44 4466.22 4288.5 4781.9 5330.26 6470.23 6815.96 4475.38 5339.6 6561.94 5259.21 5317.83 4256.08 6738.9 5881.93 4460.89 4157.1 5992.06 4714.66 8052.53 4444.0 4554.24 6771.18 6182.19 4984.17 4867.12 5910.66 7415.84 4981.81 5141.03 5734.07 4840.44 3997.68 6033.28 4188.16 3784.68 3717.22 6649.21 5507.07 3470.69 4654.92 5286.55 5522.18 4322.56 5223.1 4850.49 4981.55 5144.23 6188.62 6153.07 4702.32 4414.06 5908.57 7296.47 5742.39 4780.16 4924.53 5616.11 4813.24 4433.23 5312.2 5847.27 4490.2 5734.84 3982.31 4582.24 4758.76 4790.63 5259.29 4916.75 4818.53 5087.03 3906.41 4123.08 6224.64 4221.03 4576.71 3799.55 5082.66 4550.77 6793.49 3563.33 6060.19 3550.88 5536.0 3860.8 4328.76 5561.63 4124.33 5940.5 4358.06 5002.38 6705.93 4865.11 4731.16 5502.14 6470.87 4495.33 5282.67 5466.49 5178.55 4038.17 5007.41 4907.48 3692.99 6213.74 4959.94 5651.46 1635.31 5639.4 6185.73 5516.37 5092.44 4441.44 6908.32 4232.44 3467.11 5336.61 4817.75 5563.09 5637.53 5244.95 4439.09 4645.93 3882.37 4634.25 5448.64 5901.8 6351.48 5188.57 6417.61 5715.51 4496.51 4511.05 3886.56 6153.71 3456.3 6074.39 5350.9 3483.61 5640.67 6572.17 5545.68 6080.69 3939.96 3751.73 3374.62 5555.89 4970.12 4967.93 6044.01 6520.19 5973.57 1458.87 4637.3 5922.62 6241.48 4414.09 5125.45 5191.29 5957.82 6305.9 4542.62 5093.28 4859.95 4132.08 6009.88 4699.77 5093.41 6842.35 5464.34 3621.63 4777.96 5801.89 6833.5 2613.78 3796.73 5417.07 3834.01 5738.37 6789.66 4739.41 6760.64 2515.5 4706.59 5177.88 5551.79 4950.07 3916.15 5367.05 4449.73 4088.72 3743.85 6236.46 5097.85 5584.64 6189.04 3795.63 5189.4 6538.04 4894.15 4337.93 5201.3 4345.51 6223.33 5145.13 3747.96 5611.29 6568.45 5093.51 5004.22 5647.93 6201.49 5449.09 5154.74 4605.61 4465.56 4131.08 5386.95 5747.9 3864.19 5146.69 4287.93 6203.24 6818.23 2329.93 4488.41 4369.87 6938.87 5412.07 5512.57 4083.24 6520.96 5432.2 4612.4 3312.3 6178.19 4746.19 6381.58 4848.15 3282.57 4798.13 5523.81 4611.21 5648.59 4095.4 4718.61 6697.45 5395.12 3873.79 5717.67 5357.33 5783.69 3830.7 5252.37 6210.0 5432.4 4262.52 5037.58 7430.48 4844.2 5114.61 6118.13 2181.29 4420.3 4926.62 4766.47 4871.1 6369.66 3917.09 6009.93 5678.08 5872.45 3482.73 5270.1 5130.56 4957.99 4063.26 4947.64 4997.89 7679.2 4881.51 6131.52 2626.41 4311.92 6729.99 6664.54 3922.98 5161.73 5259.48 4025.08 5254.93 4803.4 8013.28 6608.94 5283.65 4644.68 3082.16 2892.36 5656.84 5911.29 5416.41 4694.27 4849.21 4414.23 4785.55 3793.83 6981.47 6189.81 5647.11 3945.62 5342.17 6379.3 5015.67 6157.59 5848.41 4048.73 5438.6 4246.83 7370.52 4521.88 3724.23 4280.92 5103.3 4601.54 7263.57 4696.92 5705.96 6437.99 6898.8 6632.04 6540.57 5332.11 5315.71 6158.93 5081.65 4823.14 6679.12 5652.19 5806.74 4806.99 6578.62 3771.91 4813.55 5856.43 5217.62 3839.0 5349.85 4616.81 5799.86 5715.25 5172.1 5212.2 4362.94 6052.22 4469.82 5108.42 4630.5 6296.36 4432.32 5515.59 3721.69 4451.76 3224.81 4499.54 3775.38 5782.25 4046.22 6457.89 4081.77 4575.72 4948.21 4987.01 4721.2 4706.31 5161.02 4202.12 6332.64 4735.99 2694.25 5003.81 4203.68 6492.44 4083.1 4739.56 4613.32 5145.39 3996.93 6351.95 6225.05 5195.09 5345.05 3997.52 4444.54 5403.81 5779.9 4909.74 5310.33 5299.03 5504.65 5036.84 5669.41 4565.36 5813.68 5040.9 4008.67 4770.21 4868.66 4004.39 3846.55 5159.9 4987.48 5943.61 5981.54 5479.17 5020.37 4542.25 5233.88 5245.4 4090.28 4726.5 5467.05 4963.88 5888.94 4727.98 3832.09 4122.2 5175.88 5267.65 5739.69 3509.34 5360.88 4893.72 6004.72 4072.4 4983.56 5373.78 5345.65 5438.5 4621.32 5699.4 4698.94 3878.8 6284.12 3948.21 4796.04 3465.03 5669.15 5229.56 6011.4 5263.86 4672.34 5056.32 3330.85 5533.52 5376.41 6545.78 3354.94 4404.87 5105.72 4082.01 5237.27 5767.65 7885.41 4750.76 4907.03 4104.97 5497.27 5617.91 4444.95 5606.22 3943.77 6265.48 5242.38 3124.49 6081.35 5459.52 6262.18 3818.37 4701.03 5663.36 3352.46 4276.59 5579.04 5434.04 5125.53 5200.1 5405.6 5994.21 3929.35 4884.93 5082.25 4759.38 6964.78 4374.05 5282.51 3760.4 5732.11 4951.02 3618.53 4602.7 3783.35 5596.68 4037.16 6395.63 4248.58 4516.26 3647.26 4790.16 7360.62 3731.58 3166.37 4977.64 4985.45 5205.53 5699.51 2489.44 5499.37 4489.18 5863.36 4632.75 5237.76 4994.98 4286.84 6058.13 5296.05 5894.69 6988.4 6635.51 4060.17 5410.33 5003.63 4870.14 4695.7 4747.24 2932.2 4380.86 4944.08 5576.16 5269.39 5003.49 3964.03 4305.35 5210.22 3308.75 4216.33 4439.17 5832.72 4929.35 3903.9 5051.39 6673.92 4633.59 5151.68 4884.94 5362.15 4609.98 5566.5 4752.31 5240.97 5569.85 5306.31 5523.96 4223.53 4535.94 6960.97 4287.15 4523.9 5126.08 5604.0 3919.47 5369.42 5207.08 4714.52 4587.19 5543.05 4883.13 4836.76 4752.94 5551.09 6423.96 4501.1 5581.47 4384.91 4274.05 6550.61 4987.01 4713.56 6051.35 5302.53 6779.82 4909.13 4287.61 5543.67 3999.81 5648.02 4867.13 4604.34 4863.27 2451.27 5677.42 5442.79 6853.07 6327.61 5733.59 5575.8 5268.93 4455.61 3695.72 4738.72 6874.6 5106.9 4733.37 3037.72 6028.89 5333.16 4888.17 3950.53 5755.98 5392.85 5077.2 5275.27 4277.54 5529.09 4531.46 6094.34 5925.82 5448.68 4739.5 4072.95 6210.48 6377.45 4182.05 2701.42 4502.12 3255.93 4491.62 3865.5 
SCALARS Velocity float 1
LOOKUP_TABLE default
1.35105 1.31882 1.41855 1.41794 1.41424 1.38894 1.29113 1.27503 1.22327 1.18868 1.30849 1.35275 1.3506 1.32301 1.29167 1.41346 1.41519 1.39082 1.36746 1.36307 1.37292 1.33779 1.34141 1.33232 1.39952 1.28574 1.28123 1.28003 1.28603 1.27443 1.21537 1.19158 1.28999 1.31014 1.23562 1.2297 1.32376 1.35602 1.34461 1.33296 1.33901 1.40512 1.38929 1.40834 1.37948 1.36082 1.35754 1.36288 1.37361 1.37255 1.37654 1.36713 1.27577 1.27845 1.28539 1.24778 1.28053 1.26999 1.26092 1.19255 1.24244 1.35475 1.37417 1.37514 1.37067 1.33653 1.34265 1.39563 1.40626 1.40082 1.39748 1.2999 1.36082 1.36321 1.37976 1.3622 1.37876 1.26736 1.28733 1.27712 1.24331 1.25059 1.19023 1.25082 1.22983 1.36219 1.2291 1.38341 1.41112 1.32983 1.37903 1.39139 1.37858 1.40348 1.40202 1.39015 1.3976 1.40303 1.41714 1.34196 1.34777 1.36809 1.35514 1.39828 1.32863 1.2964 1.28527 1.24828 1.21306 1.23378 1.37612 1.26189 1.1752 1.23569 1.3312 1.38452 1.21502 1.37263 1.44885 1.37725 1.39571 1.39595 1.38145 1.40402 1.38899 1.41222 1.41728 1.46525 1.4219 1.48202 1.3454 1.39381 1.38923 1.3089 1.33487 1.30251 1.30479 1.34827 1.34734 1.29085 1.32522 1.28136 1.18032 1.34502 1.28706 1.33272 1.45999 1.30275 1.44939 1.37118 1.40724 1.4003 1.39602 1.44263 1.45796 1.47814 1.31602 1.31598 1.36225 1.37555 1.42383 1.34077 1.38961 1.37795 1.37305 1.33981 1.32446 1.28231 1.23505 1.31636 1.33994 1.37466 1.44946 1.46783 1.52269 1.43343 1.46195 1.37093 1.43505 1.42135 1.48954 1.45988 1.47422 1.27316 1.49571 1.76534 1.44172 1.3912 1.41357 1.34612 1.31171 1.38263 1.34604 1.32487 1.28693 1.23782 1.24875 1.36527 1.12108 1.24387 1.35722 1.41505 1.50121 1.42409 1.43388 1.49981 1.39521 1.53427 1.47634 1.43793 1.51317 1.45231 1.44674 1.69814 1.34808 1.36623 1.43138 1.51312 1.48966 1.31679 1.27358 1.34646 1.3616 1.3805 1.36617 1.32712 1.25416 1.31172 1.3097 1.41057 1.40848 1.57856 1.49776 1.47145 1.40967 1.37904 1.50111 1.60114 1.53149 1.51561 1.46329 1.51012 1.47905 1.48703 1.4521 1.42726 1.41816 1.43754 1.59486 1.46293 1.53799 1.24923 1.34153 1.21992 1.24476 1.30549 1.4005 1.59375 1.44427 1.35662 1.36841 1.54423 1.53417 1.57186 1.49051 1.49475 1.48024 1.4935 1.48307 1.48352 1.50405 1.44294 1.56152 1.4836 1.55094 1.52403 1.55711 1.20643 1.27951 1.43857 1.35119 1.33373 1.55492 1.56255 1.48497 1.5636 1.54062 1.3068 1.4634 1.55928 1.56237 1.54013 1.52383 1.50601 1.48965 1.48455 1.4847 1.49416 1.5615 1.50893 1.62862 1.5071 1.50415 1.50236 1.54779 1.54544 1.16959 1.45981 1.14712 1.35945 1.52037 1.53461 1.36541 1.59148 1.49753 1.53158 1.53781 1.53423 1.5385 1.55132 1.55061 1.50438 1.53145 1.49073 1.49449 1.50006 1.524 1.51572 1.57205 1.63142 1.4812 1.5108 1.55977 1.61783 1.60891 1.37571 1.66619 1.55295 1.73496 1.44885 1.46574 1.68045 1.59006 1.53804 1.54642 1.54604 1.50469 1.55 1.50185 1.50088 1.51132 1.51028 1.52254 1.52745 1.5403 1.54344 1.57305 1.55088 1.56738 1.6924 1.7837 1.5323 1.93495 1.81142 1.92842 2.15121 1.63595 2.0655 2.32713 1.3765 1.54747 1.62681 1.6064 1.57281 1.58442 1.58673 1.55824 1.57498 1.54943 1.54664 1.49424 1.58171 1.50951 1.51743 1.52212 1.51532 1.51115 1.52 1.51427 1.53182 1.53993 1.53953 1.52632 1.50102 1.65711 1.6526 1.65721 1.42304 1.52745 1.96015 1.58452 1.33469 1.5346 1.66871 1.54594 1.56239 1.56235 1.5451 1.55783 1.55434 1.55313 1.54745 1.55816 1.52946 1.51459 1.51714 1.51807 1.51703 1.52512 1.51705 1.51977 1.55356 1.5375 1.4519 1.59795 1.5712 1.59723 1.60117 2.29968 1.5385 1.6186 1.46595 1.51537 1.50988 1.50015 1.48987 1.48646 1.50452 1.53567 1.53099 1.51306 1.50874 1.53541 1.5471 1.54538 1.53422 1.53077 1.5437 1.53531 1.52823 1.52795 1.52026 1.51436 1.52078 1.51465 1.51223 1.50757 1.49717 1.51062 1.48733 1.49711 1.49977 1.48866 1.56252 1.5181 1.58693 1.57457 1.57306 1.55261 1.52137 1.58934 1.58379 1.55248 1.49501 1.48583 1.4834 1.46957 1.46712 1.45774 1.47522 1.494 1.50838 1.52186 1.52101 1.52063 1.51834 1.51533 1.51138 1.5093 1.50003 1.50346 1.48894 1.4939 1.48359 1.47727 1.48947 1.55041 1.5029 1.53026 1.5504 1.5388 1.56829 1.47485 1.54164 1.19178 1.4762 1.46607 1.46417 1.45103 1.45928 1.47341 1.49028 1.50251 1.48563 1.5088 1.50973 1.50907 1.51016 1.50049 1.49424 1.48215 1.48945 1.47548 1.47458 1.47731 1.47318 1.49013 1.48602 1.50612 1.51149 1.49482 1.53404 1.49091 1.54587 1.477 1.55236 1.54108 1.51827 1.46026 1.43971 1.44785 1.45143 1.46225 1.4551 1.47382 1.46349 1.46843 1.47473 1.49481 1.49837 1.48563 1.50011 1.4909 1.48853 1.49637 1.4853 1.47856 1.47969 1.46683 1.46886 1.45705 1.46492 1.45716 1.47045 1.45737 1.47613 1.49166 1.4798 1.49293 1.47686 1.47374 1.48336 1.49198 1.47463 1.44336 1.45354 1.44008 1.43883 1.42172 1.44352 1.44513 1.45534 1.46044 1.46172 1.45994 1.47301 1.48071 1.48147 1.48094 1.46792 1.46424 1.44987 1.43451 1.44779 1.4048 1.46076 1.45085 1.47092 1.46455 1.47423 1.45386 1.4697 1.46428 1.43946 1.43912 1.44023 1.43057 1.49245 1.39881 1.42879 1.44487 1.45571 1.44549 1.45282 1.46674 1.47419 1.47577 1.47071 1.47512 1.46538 1.46432 1.45694 1.45326 1.46108 1.43978 1.42618 1.4064 1.46894 1.42614 1.43406 1.43145 1.44923 1.44718 1.45197 1.44693 1.43555 1.19178 1.43278 1.42673 1.41998 1.43474 1.35353 1.38614 1.378 1.44706 1.43967 1.42373 1.44201 1.44047 1.4505 1.46526 1.46034 1.46566 1.46849 1.44953 1.45016 1.45289 1.41626 1.42051 1.40814 1.42209 1.40688 1.41741 1.43448 1.41234 1.41754 1.43021 1.44742 1.43557 1.43063 1.42814 1.42125 1.19178 1.41793 1.42266 1.40227 1.35548 1.38538 1.38222 1.41667 1.41681 1.42465 1.43305 1.43747 1.4154 1.46166 1.45606 1.45654 1.46539 1.46306 1.45733 1.44943 1.4185 1.37865 1.40745 1.38828 1.4105 1.414 1.416 1.43141 1.42484 1.42147 1.4009 1.42146 1.40423 1.40234 1.38911 1.4096 1.41891 1.43482 1.42124 1.4209 1.42115 1.4223 1.41096 1.19178 1.41201 1.40833 1.41062 1.36844 1.40557 1.38645 1.38708 1.40004 1.40486 1.40174 1.42087 1.41822 1.40596 1.40633 1.44126 1.44531 1.46477 1.45724 1.40986 1.43315 1.45527 1.47006 1.35655 1.38341 1.40864 1.4178 1.42582 1.41663 1.41507 1.41663 1.3934 1.41129 1.37837 1.37565 1.39019 1.39182 1.40937 1.42992 1.43312 1.40706 1.43957 1.43535 1.39827 1.39319 1.40368 1.39488 1.37031 1.39298 1.37549 1.39982 1.40528 1.40707 1.38991 1.44886 1.45106 1.45752 1.43965 1.40295 1.42435 1.3079 1.26061 1.3937 1.3904 1.41153 1.41868 1.41254 1.40233 1.39938 1.40359 1.40197 1.40831 1.4107 1.37697 1.37961 1.35964 1.39743 1.40252 1.44211 1.4233 1.37458 1.36414 1.39619 1.39166 1.39888 1.39036 1.38883 1.3884 1.3923 1.39053 1.40884 1.3837 1.38931 1.38115 1.42612 1.44221 1.43063 1.45212 1.36793 1.23045 1.43064 1.33631 1.36683 1.38761 1.3853 1.39144 1.3757 1.39439 1.40411 1.40547 1.38572 1.41562 1.38261 1.36749 1.38384 1.37647 1.38835 1.38126 1.38841 1.40236 1.38654 1.38822 1.36207 1.19178 1.38618 1.38478 1.38422 1.38602 1.3872 1.39317 1.3891 1.37899 1.3919 1.39029 1.36688 1.37587 1.38318 1.32651 1.44019 1.35584 1.35845 1.39603 1.36097 1.48875 1.34428 1.34812 1.39083 1.38751 1.38374 1.39061 1.38481 1.40337 1.38886 1.38792 1.41536 1.36035 1.37969 1.36858 1.37396 1.37921 1.37052 1.38094 1.37314 1.3791 1.36879 1.35831 1.35718 1.19178 1.19178 1.3824 1.38423 1.37029 1.3676 1.38841 1.38057 1.36763 1.3755 1.36587 1.3571 1.31254 1.33723 1.3522 1.438 1.41382 1.34484 1.36172 1.38629 1.38777 1.36873 1.37007 1.38561 1.38139 1.38032 1.3991 1.3879 1.38965 1.35619 1.36807 1.35591 1.3623 1.36033 1.37293 1.36949 1.3653 1.36016 1.35716 1.35793 1.38052 1.37724 1.37751 1.36315 1.37616 1.36057 1.36232 1.36498 1.34505 1.36649 1.35905 1.36941 1.35602 1.33493 1.35304 1.36391 1.35127 1.39523 1.40544 1.38397 1.39074 1.36292 1.37249 1.36229 1.37007 1.3894 1.38056 1.38856 1.39415 1.38304 1.36079 1.37819 1.36199 1.35454 1.36001 1.35521 1.36698 1.35413 1.36471 1.35617 1.3517 1.34612 1.37692 1.37386 1.36076 1.36824 1.35852 1.35573 1.35487 1.34887 1.3473 1.33944 1.33759 1.35484 1.36027 1.35819 1.36175 1.33896 1.36953 1.3483 1.39457 1.3794 1.372 1.37765 1.36479 1.34454 1.35902 1.35648 1.40024 1.37052 1.3695 1.38323 1.37101 1.37926 1.37401 1.34915 1.35303 1.35371 1.35054 1.35392 1.35784 1.3503 1.35242 1.3491 1.34329 1.33811 1.32824 1.36742 1.36039 1.34593 1.33916 1.33803 1.32248 1.3283 1.32896 1.34483 1.34328 1.35672 1.36489 1.35635 1.363 1.36674 1.3648 1.33348 1.34347 1.37257 1.34893 1.37698 1.37718 1.36829 1.37036 1.36671 1.36171 1.36058 1.36048 1.36103 1.37111 1.38031 1.36957 1.37371 1.35232 1.35735 1.34672 1.34995 1.34021 1.33859 1.3591 1.36805 1.34373 1.34722 1.32349 1.32203 1.19178 1.3583 1.37388 1.30859 1.33561 1.29328 1.33563 1.34757 1.35015 1.34654 1.33866 1.37475 1.37411 1.34578 1.36017 1.33434 1.34316 1.33248 1.35315 1.3585 1.36977 1.36226 1.36416 1.36331 1.36057 1.36242 1.36134 1.36235 1.37105 1.35625 1.36239 1.37475 1.38442 1.38057 1.37282 1.34139 1.36877 1.34436 1.33076 1.3225 1.34356 1.27185 1.33567 1.33251 1.37143 1.32757 1.31835 1.19178 1.35982 1.27266 1.26099 1.12791 1.36309 1.35565 1.37392 1.35118 1.2978 1.33465 1.37972 1.36127 1.3472 1.37243 1.36039 1.3547 1.34407 1.35463 1.35443 1.35566 1.35304 1.3599 1.35609 1.35612 1.35996 1.36049 1.36189 1.35295 1.38736 1.35957 1.37103 1.37215 1.37173 1.32928 1.3357 1.30263 1.30589 1.3152 1.25295 1.36227 1.17921 1.2615 1.36142 1.32215 1.19178 1.40878 1.34092 1.27499 1.35221 1.36399 1.12543 1.39266 1.39051 1.37288 1.35454 1.32988 1.32269 1.32257 1.33067 1.34783 1.35745 1.36064 1.36681 1.35832 1.36135 1.35046 1.35151 1.35385 1.35175 1.35448 1.35833 1.34949 1.34858 1.34456 1.32522 1.33786 1.28607 1.28814 1.34002 1.30668 1.35819 1.34149 1.3135 1.29882 1.29873 1.31604 1.27202 1.32472 1.33688 1.30954 1.32058 1.21411 1.17514 1.27865 1.29543 1.43488 1.30927 1.39546 1.36798 1.37963 1.33383 1.37763 1.33233 1.36568 1.33057 1.34024 1.30816 1.34893 1.36323 1.3634 1.36372 1.38187 1.34739 1.33237 1.33056 1.34104 1.35444 1.33864 1.33712 1.36058 1.37663 1.38008 1.41802 1.33057 1.29066 1.30739 1.28583 1.3076 1.26869 1.27504 1.27085 1.29409 1.30906 1.30574 1.29436 1.29932 1.33868 1.31938 1.32771 1.32773 1.32765 1.27738 1.30352 1.36718 1.37593 1.41765 1.41234 1.37299 1.51639 1.37506 1.26251 1.26761 1.44816 1.20535 1.33699 1.31685 1.36221 1.35882 1.36795 1.38834 1.37054 1.37363 1.3188 1.31873 1.28543 1.33279 1.39402 1.29205 1.31855 1.33693 1.25313 1.27332 1.21215 1.26486 1.27712 1.2672 1.28503 1.31656 1.27983 1.30472 1.30434 1.29694 1.34581 1.32746 1.33798 1.3504 1.33432 1.33492 1.34329 1.35059 1.32736 1.34462 1.3659 1.45434 1.466 1.36516 1.43701 1.3709 1.4482 1.44735 1.31871 1.17391 1.29119 1.34306 1.30975 1.33344 1.31044 1.35491 1.34561 1.36206 1.36834 1.35027 1.26898 1.30127 1.28791 1.28918 1.20989 1.21389 1.23175 1.29405 1.29548 1.27027 1.27615 1.27819 1.21819 1.2569 1.22676 1.26151 1.28087 1.27906 1.26088 1.23786 1.34825 1.18447 1.35835 1.41541 1.39986 1.33305 1.30736 1.32962 1.42 1.43107 0.988916 1.24483 1.28735 1.51963 1.40166 1.58027 1.65181 1.43552 1.47563 1.38891 1.10671 1.2986 1.35377 1.26354 1.11855 1.28211 1.29338 1.31978 1.27682 1.25216 1.29037 1.28486 1.25411 1.23139 1.20533 1.1967 1.25103 1.319 1.31052 1.26949 1.3306 1.2913 1.22002 1.22955 1.19921 1.171 1.24549 1.29991 1.45223 1.37351 1.32775 1.00446 1.36052 1.63197 1.28028 1.55172 2.35014 0.813623 1.17676 4.47394 0.931703 1.0453 1.19801 1.27908 0.9279 1.45169 1.69189 1.32423 1.31519 1.00544 1.42974 1.00993 1.32161 1.4169 1.487 1.45935 1.231 1.29151 1.05319 1.21278 1.1728 1.14152 1.18594 1.2832 1.20878 1.23695 1.27946 1.306 1.33355 1.29979 0.922641 1.32402 1.04818 1.27591 1.27162 1.25082 1.24726 1.24929 1.26268 1.27471 1.2793 1.38686 1.26345 1.33063 1.25549 1.07932 1.52439 1.51844 1.45956 0.961251 1.24684 1.45485 1.10312 1.46563 1.47449 1.08374 1.31292 1.26431 1.62814 2.33769 1.40132 1.96184 1.1954 1.05272 1.10065 1.0135 0.962555 0.822486 0.843307 0.859841 0.904367 0.859707 0.873786 0.82786 0.846337 1.11092 0.967958 0.689102 1.29991 1.13152 1.52175 1.44908 0.933705 1.48615 0.987269 1.27475 1.32405 0.867863 1.05145 1.12459 1.16217 1.18403 1.1944 1.24513 1.16977 1.14061 1.34539 1.28156 1.11734 1.26705 1.21052 1.10438 1.16316 1.12926 1.16995 1.25833 1.26407 1.25218 1.21576 1.10213 1.09774 1.16136 1.02645 1.14164 1.21661 1.27465 1.19229 1.35278 1.05444 1.25176 1.55297 1.34998 1.47693 1.35731 1.35057 0.988567 1.35815 1.16555 0.998198 0.938453 1.01312 0.647333 0.970096 0.73808 0.900978 0.836437 0.878088 0.780534 0.796715 0.809206 0.785305 0.79091 0.896563 0.812746 0.768466 0.766798 0.718776 0.947315 1.06372 0.949718 1.0457 1.13227 1.0838 0.897062 1.19038 1.3041 1.15514 1.19444 1.14231 1.19535 1.16846 1.18567 1.00862 1.1365 1.01486 1.54857 1.11333 1.0142 0.956118 1.01227 1.32697 1.08522 1.15095 1.21507 1.12293 1.13298 1.07583 1.02263 1.16042 1.11095 1.03175 1.10793 1.13373 1.16481 1.13723 1.23475 1.24889 1.34118 1.43911 1.16293 1.24916 0.961227 1.18549 1.35293 1.45476 1.34568 1.32193 1.18768 1.20869 1.07261 1.21594 1.01057 1.03953 1.22978 0.977004 1.13956 0.746085 1.06854 0.701712 0.882355 1.41346 0.971401 0.883795 0.870813 0.947245 0.907163 0.835733 0.751263 0.726591 0.731326 0.738184 0.747299 0.746626 0.735301 0.721614 0.799409 0.765724 0.764073 0.760463 0.791716 0.76656 0.776156 0.784453 0.568246 0.86062 0.676805 0.548496 0.946386 0.988664 1.03002 0.996833 0.852003 0.820602 0.902009 0.84229 0.908455 0.968371 0.955103 1.36945 1.17342 1.15634 1.09883 1.10947 1.13687 1.14115 1.01868 0.956946 0.955571 0.88359 1.02696 1.39756 1.1826 1.01324 0.997148 1.13079 1.06133 1.13277 1.15184 1.12582 1.21384 1.16253 1.12937 1.12945 1.01478 0.981988 1.03069 1.04231 1.13303 1.08731 1.21398 1.25682 1.47759 1.03326 1.17747 0.962038 1.08089 1.08247 0.994808 0.934438 1.22594 1.37557 0.91394 1.45959 1.02631 1.17536 1.16113 0.960356 0.974137 0.951631 0.776818 0.499562 0.968555 0.747336 0.58049 0.872089 0.817098 0.774552 0.888527 0.800181 0.831614 0.698399 0.881584 0.545599 0.644196 0.661764 0.71014 0.703886 0.723334 0.698526 0.700801 0.72227 0.742568 0.72361 0.735173 0.75505 0.784064 0.722139 0.627682 0.670853 0.907676 0.762288 0.912058 0.955417 0.958633 0.868487 0.949477 0.960583 0.896889 0.862475 0.787143 1.02804 1.01543 1.28168 0.777214 1.04897 1.0217 1.17456 1.15509 1.20432 1.19367 1.03748 1.09017 1.06581 1.00668 0.975884 0.948651 0.938162 0.939809 0.799766 0.886018 0.860091 0.929852 1.26897 1.05611 0.932975 0.986789 0.986053 1.03772 1.09777 1.03304 1.04051 1.24398 1.04186 1.26775 1.17134 1.05624 0.941909 1.01542 1.25312 0.903411 0.799754 0.831817 1.03616 1.02856 0.896864 1.05549 0.937139 0.922726 0.885095 0.89745 1.02866 0.870651 1.0599 0.870366 0.927789 0.913108 0.86614 0.867258 0.864431 0.702899 0.967901 0.840542 0.447198 0.661665 0.596192 0.661828 0.649701 0.558996 0.795428 0.797657 0.688639 0.775229 0.824862 0.578216 0.622477 0.626722 0.583915 0.592479 0.584597 0.62638 0.686645 0.71757 0.772343 0.705971 0.706386 0.685122 0.693095 0.689767 0.684993 0.6982 0.685206 0.684943 0.719704 0.713842 0.717165 0.690835 0.680316 0.685833 0.933993 0.872413 0.730407 0.689638 0.962876 0.82132 0.828641 0.899652 0.888414 0.850971 0.774656 1.02717 0.888298 1.0741 1.23162 1.19932 1.01383 1.20699 1.15209 0.981463 0.983715 0.959083 0.981562 0.940651 0.864168 1.03975 0.928118 0.0687901 0.977371 1.21516 1.23895 1.04026 1.00734 0.918772 0.951321 1.00447 1.17414 0.915307 0.850471 0.963 1.04969 1.11788 1.04243 0.873328 0.864578 0.772533 0.818624 0.87928 0.933565 0.940928 0.876346 0.867779 0.854905 0.868098 0.816963 0.822399 0.786184 0.780464 0.801185 0.789035 0.6226 0.722265 0.62362 0.72794 0.651167 0.911865 0.685116 0.668219 0.811053 0.725055 0.718509 0.757856 0.718291 0.666852 0.660205 0.6761 0.713932 0.649049 0.651158 0.666545 0.687309 0.673852 0.626138 0.62302 0.616382 0.622789 0.641043 0.657034 0.634375 0.655914 0.658906 0.6823 0.667991 0.683822 0.663344 0.676456 0.664066 0.697466 0.708533 0.707189 0.709913 0.694054 0.724377 0.720451 0.71456 0.825695 0.798298 0.836269 0.792894 0.719754 0.751708 0.742752 0.766631 0.719425 0.888214 0.617076 0.921287 0.781084 0.619519 0.737983 0.706325 0.598666 0.709984 0.853361 1.09397 0.998681 0.89991 0.983699 0.838292 0.861329 0.830357 0.848614 0.831359 0.938818 1.03091 0.957498 1.46068 0.460458 1.04015 0.951946 0.923198 0.956419 1.05105 1.0376 0.939737 0.903278 1.23375 0.998405 0.836683 0.894297 0.86835 0.896404 0.838342 0.839944 0.889309 0.855284 0.886322 0.874373 0.857316 0.833528 0.859515 0.857917 0.835237 0.834404 0.824262 0.840644 0.877521 0.820529 0.826472 0.721738 0.836022 0.878855 0.479993 0.890301 0.720875 0.580828 0.71558 0.721094 0.715757 0.820518 0.690719 0.717826 0.783792 0.613869 0.706486 0.741054 0.715351 0.598334 0.717114 0.669415 0.719492 0.684317 0.707895 0.694979 0.690531 0.700925 0.619692 0.6218 0.622292 0.634385 0.632265 0.637541 0.641288 0.637191 0.643892 0.67448 0.650989 0.646962 0.653597 0.652776 0.661436 0.656727 0.660508 0.675071 0.684016 0.677071 0.682483 0.67801 0.719599 0.719786 0.725393 0.752725 0.742633 0.84871 0.729268 0.755033 0.739379 0.727313 0.683486 0.721105 0.747561 0.754499 0.792269 0.778486 0.791036 0.932748 1.02191 1.05385 0.805318 0.769829 0.852222 0.890209 0.826197 0.883395 0.735664 0.911331 0.967058 1.12669 0.829115 0.917884 0.957448 0.872515 0.778845 0.978763 0.909844 0.759782 0.779075 0.850229 0.900907 0.830668 0.959553 0.897715 0.837241 0.957714 0.908592 0.80474 0.843685 0.774618 0.809027 0.844581 0.849834 0.829906 0.774691 0.793055 0.798903 0.824643 0.768244 0.793707 0.774308 0.781031 0.818729 0.783774 0.745248 0.722946 0.716142 0.714454 0.768808 0.743355 0.611661 0.670005 0.624203 0.676483 0.67004 0.708121 0.698767 0.686146 0.707639 0.688194 0.721862 0.685346 0.716537 0.685016 0.582991 0.709994 0.675162 0.619151 0.618801 0.620826 0.619054 0.620105 0.631261 0.626185 0.616037 0.629444 0.625316 0.618188 0.62207 0.620826 0.644573 0.650097 0.654386 0.657386 0.670368 0.657442 0.671381 0.673463 0.666545 0.653653 0.690121 0.719353 0.717289 0.731119 0.732232 0.759626 0.793712 0.751769 0.732145 0.747957 0.733902 0.736731 0.744096 0.735314 0.74469 0.74089 0.733655 0.745977 0.764768 0.784125 0.816271 0.799117 0.814927 0.868712 0.832443 0.910946 0.917803 1.04965 1.38096 0.553065 0.572302 0.826761 0.881328 0.834998 1.09098 0.875942 0.890285 0.826377 0.770405 0.795443 0.823292 0.902928 0.765511 0.714919 0.848089 0.721813 0.847504 0.903926 0.808384 0.858692 0.608312 0.850817 0.718794 0.788826 0.784074 0.918334 0.927206 0.954924 0.755268 0.800953 0.759956 0.764542 0.759145 0.8492 0.826924 0.826285 0.727637 0.66979 0.792596 0.757598 0.703578 0.797411 0.760382 0.823492 0.757994 0.735671 0.744099 0.792186 0.765144 0.790179 0.744691 0.738599 0.746101 0.720551 0.709297 0.793872 0.773141 0.811039 0.741764 0.596745 0.798397 0.693681 0.652847 0.627136 0.787922 0.65539 0.615064 0.673675 0.671667 0.677733 0.768038 0.664593 0.640312 0.665987 0.563837 0.655216 0.654583 0.627237 0.617532 0.607933 0.604757 0.60806 0.614612 0.618151 0.616657 0.613759 0.614489 0.61844 0.612003 0.612892 0.605951 0.603328 0.638762 0.624731 0.623421 0.625916 0.614254 0.613011 0.641553 0.632578 0.659484 0.655566 0.665054 0.670933 0.681093 0.671916 0.678928 0.697913 0.693525 0.709441 0.737478 0.708203 0.746266 0.746353 0.738119 0.752346 0.748798 0.777655 0.71158 0.666806 0.733523 0.708217 0.710279 0.718529 0.712947 0.73092 0.863454 0.906917 1.14903 1.38084 0.659589 0.789833 0.873125 0.418109 1.24106 0.680508 0.906632 0.861651 0.793212 0.884682 0.77462 0.674131 0.647319 0.950073 0.986852 1.23268 0.769003 0.603026 0.55388 0.758655 0.711449 0.772612 0.816769 0.857169 0.969279 0.843051 0.788325 0.911029 0.829702 0.797128 0.822713 0.828037 0.797701 0.784042 0.834244 0.740392 0.808955 0.68072 0.653416 0.707078 0.674785 0.713632 0.681623 0.710388 0.677442 0.702277 0.72175 0.769652 0.689732 0.729863 0.720705 0.65252 0.78801 0.733596 0.553456 0.749043 0.632386 0.741125 0.667525 0.782438 0.48523 0.640327 0.451566 0.623347 0.672974 0.630277 0.626863 0.612249 0.617697 0.624356 0.622912 0.60387 0.596546 0.581585 0.617086 0.596427 0.586347 0.586669 0.579817 0.570198 0.597593 0.625428 0.613329 0.615736 0.617365 0.61714 0.61885 0.616086 0.6212 0.619967 0.630481 0.644667 0.629559 0.602521 0.61262 0.673976 0.65732 0.676315 0.666912 0.671257 0.675328 0.679589 0.678923 0.677114 0.66832 0.66354 0.670809 0.672409 0.763006 0.716862 0.732047 0.726815 0.717443 0.791622 0.824427 0.782098 0.672789 0.739415 0.604993 0.714266 0.698443 0.692207 0.735317 0.723954 0.754402 0.875316 0.825156 0.807411 0.884899 0.608509 0.758985 0.83097 0.908811 0.84164 0.856074 0.672058 0.540608 0.626901 0.961898 0.943918 0.675147 0.754007 0.684393 0.695364 0.657223 0.703388 0.677955 0.709744 0.803295 0.516855 0.746964 0.832844 0.814002 0.689879 0.800453 0.67506 0.713449 0.729736 0.630089 0.860862 0.853915 0.801223 0.838033 0.791897 0.765939 0.700566 0.743119 0.60516 0.663995 0.716091 0.692218 0.708054 0.695434 0.662846 0.691608 0.679597 0.705452 0.689505 0.672687 0.732742 0.674342 0.735376 0.738488 0.766746 0.708917 0.775056 0.724866 0.71157 0.663308 0.626834 0.475783 0.726581 0.647679 0.606658 0.520454 0.467099 0.526222 0.628164 0.699459 0.577151 0.646293 0.634876 0.628296 0.624054 0.62374 0.620051 0.616904 0.623792 0.571991 0.603051 0.641431 0.441751 0.596328 0.550461 0.61577 0.692929 0.664844 0.637333 0.563934 0.565586 0.571096 0.575458 0.576646 0.58112 0.600552 0.586249 0.617095 0.620142 0.617732 0.612201 0.620768 0.622854 0.613064 0.636904 0.648524 0.664399 0.66465 0.667749 0.670441 0.646549 0.668827 0.647278 0.651392 0.669606 0.653281 0.656452 0.656969 0.649962 0.65173 0.720206 0.710978 0.71696 0.691515 0.745769 0.800898 0.735989 0.561091 0.580473 0.693519 0.685661 0.690002 0.782461 0.858528 0.744711 0.75393 0.799742 0.801816 0.688089 0.717813 0.866536 0.921036 0.950503 0.878274 0.686872 0.549743 0.625654 0.675521 0.822778 0.643111 0.610619 0.547293 0.761512 0.701042 0.860861 0.798832 0.847909 0.732894 0.677791 0.719583 0.751431 0.760992 0.671922 0.578145 0.742571 0.675945 0.765166 0.841419 0.78819 0.74233 0.794365 0.817393 0.752757 0.699086 0.644609 0.716746 0.652611 0.708431 0.711971 0.613228 0.643144 0.723846 0.637739 0.677415 0.712561 0.62363 0.716614 0.649395 0.674608 0.641059 0.647624 0.680447 0.589568 0.613426 0.562435 0.594832 0.551766 0.585808 0.625897 0.585249 0.619439 0.610613 0.600138 0.625762 0.630688 0.60288 0.673564 0.684582 0.38203 0.494366 0.703765 0.550326 0.49214 0.548804 0.516749 0.522082 0.551042 0.544229 0.560198 0.548468 0.55617 0.566533 0.572708 0.550013 0.554077 0.593782 0.564406 0.556362 0.560308 0.638815 0.57828 0.572223 0.612121 0.58362 0.589276 0.617214 0.605574 0.586699 0.616711 0.598011 0.624985 0.615673 0.679371 0.64853 0.569194 0.614051 0.627692 0.641562 0.639295 0.641727 0.653237 0.650116 0.65204 0.655426 0.67021 0.676849 0.675478 0.651495 0.658731 0.675586 0.681287 0.677745 0.717082 0.726506 0.71236 0.768529 0.772903 0.623114 0.619412 0.611761 0.624096 0.674032 0.704621 0.749843 0.62149 0.77823 0.673778 0.636252 0.792406 0.655025 0.675108 0.681585 0.649683 0.796676 0.682755 0.491408 0.40901 0.77979 0.81494 0.669701 0.621937 0.436112 0.74152 0.887991 0.801302 0.811978 0.850318 0.761481 0.762814 0.487354 0.616972 0.731237 0.756413 0.708289 0.706899 0.782004 0.87891 0.713098 0.611282 0.814808 0.684042 0.708538 0.740639 0.69635 0.699689 0.69268 0.735799 0.710944 0.683113 0.692245 0.854486 0.543406 0.567497 0.639638 0.599699 0.579079 0.634507 0.608518 0.628054 0.646628 0.591286 0.586972 0.579394 0.57553 0.572698 0.574552 0.589143 0.586224 0.59763 0.591349 0.596404 0.594481 0.602119 0.586335 0.644739 0.599508 0.59515 0.533006 0.582973 0.561091 0.503231 0.561479 0.496318 0.525477 0.521049 0.524611 0.529189 0.531575 0.533143 0.505346 0.517312 0.533286 0.529589 0.537188 0.535912 0.542911 0.538789 0.548961 0.555064 0.547388 0.552494 0.54999 0.547883 0.573351 0.587025 0.553162 0.594133 0.595059 0.574969 0.576325 0.576056 0.5671 0.567156 0.572557 0.557605 0.572949 0.578905 0.544278 0.562375 0.574368 0.563323 0.648255 0.652489 0.644431 0.655328 0.627909 0.627636 0.673449 0.67883 0.694957 0.695711 0.715531 0.803497 0.77799 0.56801 0.46282 0.609456 0.612085 0.519291 0.715429 0.611236 0.60177 0.56478 0.545634 0.62892 0.666037 0.708093 0.740979 0.676783 0.707659 0.737997 0.85955 0.700567 0.563978 0.612815 0.411394 0.859287 0.711367 0.675231 0.625822 0.703565 0.443635 0.511965 0.91991 0.807586 0.769989 0.686969 1.20359 0.74552 0.543268 0.58143 0.553758 0.581581 0.602756 0.685497 0.719848 0.671692 0.721444 0.76653 0.592299 0.630606 0.868494 0.760145 0.668963 0.44931 0.702848 0.575541 0.6858 0.52547 0.894921 0.809474 0.705893 0.636075 0.596187 0.569422 0.578168 0.577932 0.604234 0.574924 0.631388 0.601637 0.581137 0.607129 0.580446 0.5729 0.563673 0.566182 0.580167 0.576658 0.58151 0.591058 0.576641 0.585223 0.600314 0.609202 0.602428 0.622496 0.598405 0.62418 0.586832 0.610614 0.574476 0.533469 0.524498 0.52829 0.529184 0.527288 0.530582 0.524729 0.530605 0.523933 0.475928 0.485534 0.498778 0.524213 0.506896 0.523048 0.51879 0.527146 0.53399 0.530048 0.53608 0.522843 0.542999 0.539681 0.528513 0.497489 0.532817 0.582201 0.567937 0.558214 0.554114 0.562289 0.553994 0.545016 0.563626 0.571165 0.569651 0.555454 0.6231 0.618905 0.617668 0.617646 0.611823 0.637657 0.629933 0.611748 0.659251 0.595921 0.57955 0.614104 0.635914 0.51479 0.574462 0.420001 0.553669 0.515637 0.555542 0.48649 0.499248 0.417976 0.510992 0.589344 0.592948 0.683126 0.601028 0.655614 0.697197 0.73227 0.713196 0.718536 0.709938 0.631942 0.516844 0.513664 0.533168 0.19591 0.432394 0.482545 0.739946 0.73756 0.702798 0.744907 0.776092 0.733871 0.773777 0.594814 0.907749 0.852232 0.873262 0.187539 0.560136 0.659998 0.564557 0.585558 0.671055 0.570356 0.725242 0.545927 0.716568 0.469434 0.427061 0.668886 0.548342 0.597418 0.579405 0.706983 0.617731 0.703205 0.496656 0.639419 0.368835 0.546511 0.863368 0.628134 0.709822 0.62636 0.570716 0.600097 0.597182 0.566236 0.57433 0.575666 0.604057 0.572494 0.585809 0.594003 0.591441 0.547237 0.576999 0.567912 0.541675 0.564314 0.554332 0.592405 0.591547 0.589997 0.577025 0.594559 0.597083 0.645552 0.624097 0.636459 0.634425 0.556482 0.539408 0.520584 0.541289 0.551705 0.532904 0.54766 0.531943 0.53704 0.523264 0.508824 0.517866 0.499748 0.487818 0.436281 0.445936 0.452354 0.472113 0.488595 0.497875 0.511165 0.514775 0.507505 0.51909 0.483592 0.50857 0.487898 0.49899 0.499786 0.48988 0.520385 0.511873 0.488982 0.494394 0.488133 0.501048 0.542346 0.557864 0.550437 0.529248 0.550702 0.528254 0.528402 0.501076 0.559939 0.531679 0.532894 0.543894 0.568399 0.608219 0.580032 0.589999 0.559429 0.593246 0.545776 0.546625 0.545033 0.55242 0.528011 0.526919 0.483101 0.455638 0.457249 0.444936 0.503321 0.526789 0.464411 0.454489 0.480627 0.471666 0.57059 0.485513 0.595671 0.64506 0.706423 0.712019 0.738288 0.68243 0.641517 0.596021 0.589901 0.527843 0.553283 0.568398 0.662544 0.733925 0.7524 0.782942 0.716147 0.624909 0.682979 0.746879 0.589094 0.605926 0.581627 0.446963 0.554789 0.562151 0.556789 0.508841 0.946417 0.591711 0.576494 0.843676 0.5477 0.641203 0.566576 0.584173 0.557681 0.26427 0.438203 0.694697 0.842442 0.574353 0.879062 0.514081 0.624063 0.601764 0.569309 0.586024 0.602147 0.563311 0.589348 0.567072 0.559435 0.59777 0.558257 0.507673 0.565499 0.52665 0.538905 0.539607 0.535009 0.547869 0.552178 0.541904 0.55352 0.500023 0.529993 0.520584 0.467125 0.471015 0.644509 0.655864 0.620706 0.392911 0.565494 0.545213 0.546161 0.547795 0.52446 0.497364 0.48226 0.492176 0.47554 0.476794 0.437436 0.448161 0.38887 0.409238 0.430796 0.444472 0.458181 0.452595 0.453888 0.458963 0.460798 0.47345 0.484076 0.469055 0.45544 0.465027 0.452245 0.477749 0.485993 0.482266 0.472067 0.477694 0.482364 0.476789 0.490435 0.522779 0.506507 0.531684 0.526723 0.501868 0.507733 0.530943 0.522937 0.52324 0.531215 0.512991 0.540402 0.565532 0.532316 0.545165 0.542738 0.523475 0.519808 0.494358 0.50449 0.496485 0.48869 0.471202 0.516645 0.493271 0.493567 0.531159 0.578074 0.584651 0.583746 0.623918 0.649461 0.70444 0.726707 0.719407 0.69834 0.649093 0.621959 0.573271 0.582719 0.558825 0.586903 0.702674 0.652192 0.696556 0.76367 0.718689 0.71104 0.599417 0.572318 0.51283 0.555914 0.583302 0.585341 0.631851 0.268028 0.577966 0.576299 0.780335 0.678168 0.637644 0.640912 0.574927 0.391747 0.533168 0.519808 0.50116 0.564155 0.587354 0.34111 0.493756 0.532768 0.560491 0.560107 0.537012 0.563323 0.562982 0.554265 0.566368 0.524449 0.524838 0.522081 0.542902 0.547936 0.544316 0.565132 0.548291 0.36169 0.548605 0.450715 0.490008 0.694042 0.593807 0.39524 0.410856 0.503789 0.511706 0.529424 0.518075 0.523839 0.529169 0.477644 0.502846 0.480381 0.501181 0.430829 0.396141 0.462081 0.446925 0.380526 0.369074 0.428252 0.440053 0.441482 0.436547 0.43399 0.423616 0.419436 0.429853 0.449884 0.435711 0.440067 0.463185 0.459497 0.470492 0.471236 0.473689 0.472392 0.489693 0.486998 0.505131 0.498626 0.482947 0.48946 0.512097 0.481193 0.485719 0.49641 0.486752 0.494026 0.493492 0.513043 0.511762 0.519769 0.520232 0.510991 0.500391 0.498104 0.499817 0.498391 0.497987 0.506669 0.516188 0.519104 0.505211 0.525962 0.551711 0.582518 0.621804 0.600509 0.635603 0.711065 0.683449 0.668386 0.684647 0.63024 0.63778 0.590166 0.58691 0.593546 0.571627 0.617136 0.58798 0.557549 0.611812 0.661006 0.707204 0.743598 0.651461 0.576463 0.568382 0.596056 0.584936 0.599832 0.615063 0.600797 0.440882 0.582795 0.621235 0.595806 0.624155 0.590155 0.596676 0.56162 0.566648 0.535446 0.555542 0.528114 0.56249 0.535494 0.523477 0.50202 0.533494 0.543569 0.534122 0.536333 0.52703 0.526278 0.545709 0.526656 0.544539 0.523887 0.544305 0.555073 0.514054 0.507421 0.499032 0.519907 0.503325 0.498419 0.538366 0.533232 0.554782 0.500501 0.512704 0.560895 0.271279 0.540721 0.451149 0.418021 0.413493 0.426291 0.466698 0.426593 0.48069 0.513956 0.504543 0.473302 0.46531 0.438981 0.467939 0.541089 0.22466 0.442796 0.420792 0.483936 0.494734 0.442387 0.408829 0.333439 0.345518 0.339078 0.323304 0.321635 0.370766 0.38602 0.392381 0.407704 0.434056 0.433089 0.418385 0.436835 0.424572 0.475111 0.460311 0.457701 0.47109 0.465037 0.468927 0.47712 0.48021 0.477732 0.479867 0.474811 0.475668 0.473422 0.478915 0.478381 0.488571 0.482504 0.498981 0.493298 0.500491 0.503791 0.507657 0.511291 0.508263 0.509921 0.507792 0.506656 0.501788 0.504522 0.50076 0.503455 0.504619 0.502046 0.502916 0.502549 0.509473 0.514099 0.52592 0.528216 0.531582 0.543461 0.544748 0.58725 0.624208 0.619504 0.630062 0.62414 0.616626 0.615347 0.616429 0.599474 0.569524 0.548141 0.587461 0.612503 0.58096 0.583996 0.550994 0.634361 0.601312 0.680327 0.72948 0.647745 0.773266 0.617458 0.555415 0.58229 0.59236 0.603796 0.613001 0.595905 0.601291 0.607805 0.559287 0.614359 0.589655 0.595581 0.599943 0.586645 0.577225 0.56756 0.540209 0.551739 0.543764 0.527445 0.522479 0.526036 0.519141 0.529921 0.523171 0.517424 0.518482 0.520953 0.521316 0.530881 0.517015 0.507179 0.499721 0.490429 0.483703 0.493708 0.472343 0.478027 0.50473 0.296561 0.387734 0.312233 0.365398 0.399723 0.412854 0.467474 0.464097 0.422718 0.46373 0.454693 0.470334 0.459579 0.430308 0.434611 0.424021 0.472716 0.444474 0.236661 0.411886 0.296868 0.463545 0.349479 0.351706 0.40481 0.400648 0.295607 0.311239 0.292016 0.313317 0.314163 0.319624 0.345135 0.351133 0.370659 0.371465 0.382946 0.377317 0.380928 0.379126 0.392399 0.392306 0.392106 0.407617 0.40629 0.41603 0.4482 0.43393 0.441394 0.448303 0.458913 0.458456 0.466344 0.472676 0.473775 0.47302 0.474932 0.474293 0.477207 0.481571 0.490362 0.498894 0.505436 0.507704 0.506953 0.507156 0.506512 0.507204 0.507925 0.508886 0.51732 0.522506 0.532482 0.539756 0.564442 0.625949 0.616724 0.590641 0.592863 0.561947 0.5727 0.533565 0.559315 0.563483 0.565565 0.561716 0.562169 0.548734 0.562845 0.540544 0.585074 0.695017 0.572496 0.897399 0.640339 0.549525 0.584146 0.606717 0.60184 0.607511 0.584108 0.602358 0.602193 0.595438 0.602715 0.597576 0.604751 0.601593 0.597253 0.609492 0.585989 0.570158 0.562553 0.542599 0.53151 0.530873 0.525375 0.529167 0.525776 0.514138 0.514235 0.515198 0.514598 0.515528 0.516119 0.517816 0.520888 0.5159 0.520702 0.511554 0.512908 0.503876 0.497 0.484531 0.492932 0.487382 0.480127 0.472174 0.463036 0.497763 0.469089 0.441531 0.401018 0.390092 0.397631 0.420402 0.427736 0.438038 0.44734 0.442388 0.450107 0.446048 0.43162 0.412483 0.349811 0.374296 0.411945 0.364365 0.359458 0.358876 0.376823 0.373536 0.389021 0.396966 0.382861 0.401388 0.396247 0.452248 0.311941 0.320784 0.310051 0.354434 0.334731 0.364181 0.323162 0.345175 0.343674 0.359086 0.363812 0.374438 0.387118 0.386448 0.387303 0.387466 0.393906 0.407314 0.42595 0.42739 0.444244 0.444569 0.441553 0.448728 0.452365 0.461263 0.466628 0.467832 0.471281 0.470437 0.472219 0.472602 0.473871 0.477168 0.480301 0.483333 0.490687 0.488473 0.498199 0.50503 0.508734 0.509822 0.510705 0.511733 0.512176 0.516262 0.526106 0.52919 0.540035 0.533447 0.544573 0.554194 0.558822 0.59067 0.519728 0.541952 0.566196 0.568733 0.571654 0.569133 0.555393 0.54793 0.536646 0.552083 0.563475 0.543395 0.552382 0.53324 0.573295 0.530608 0.609238 0.789906 0.350322 0.606227 0.60632 0.587442 0.625302 0.613546 0.609679 0.626198 0.585416 0.559766 0.583927 0.560089 0.606757 0.595078 0.604997 0.602178 0.617981 0.603328 0.615514 0.60535 0.583806 0.588597 0.554616 0.57544 0.544569 0.533104 0.539924 0.531783 0.524813 0.51901 0.528661 0.518288 0.518194 0.52169 0.520164 0.516269 0.513799 0.507163 0.511573 0.506959 0.500237 0.502517 0.495283 0.485749 0.491344 0.482144 0.469272 0.489972 0.455957 0.444226 0.457646 0.456795 0.439223 0.424711 0.451767 0.433317 0.446269 0.431943 0.444543 0.443899 0.452044 0.445849 0.449303 0.426982 0.422296 0.432139 0.407158 0.407745 0.385117 0.373645 0.370763 0.378818 0.381763 0.386078 0.390713 0.419287 0.429212 0.453516 0.254745 0.256682 0.363158 0.240967 0.264952 0.266254 0.253215 0.309661 0.314526 0.317854 0.347956 0.365944 0.392325 0.402502 0.396838 0.396715 0.38877 0.390718 0.405687 0.42883 0.438711 0.450893 0.456196 0.454611 0.461991 0.476155 0.475558 0.472345 0.468918 0.470089 0.470169 0.471875 0.476968 0.477191 0.483529 0.483698 0.488016 0.489566 0.500438 0.505909 0.510128 0.512457 0.513011 0.518365 0.515125 0.518471 0.519462 0.524983 0.534677 0.536703 0.547833 0.553394 0.567278 0.577725 0.550958 0.576385 0.578163 0.54095 0.550774 0.535849 0.560288 0.550983 0.549723 0.533827 0.525503 0.577591 0.580809 0.581681 0.689805 0.553711 0.264404 0.419426 0.59747 0.582021 0.635311 0.58253 0.548263 0.565549 0.533653 0.562281 0.587682 0.626641 0.616845 0.605061 0.589234 0.570165 0.559106 0.55356 0.554426 0.535536 0.548581 0.524847 0.536569 0.523819 0.523311 0.526445 0.521512 0.516871 0.512201 0.51088 0.512045 0.502598 0.49711 0.486212 0.479234 0.475579 0.481305 0.457076 0.475677 0.452322 0.447829 0.449297 0.443283 0.449328 0.451619 0.45195 0.456604 0.446918 0.434296 0.421186 0.412575 0.396157 0.400805 0.384495 0.392724 0.387699 0.396618 0.391014 0.399101 0.397362 0.408225 0.465853 0.449454 0.217507 0.157075 0.280428 0.161776 0.188892 0.274818 0.21386 0.285085 0.280895 0.305999 0.32224 0.357701 0.335139 0.381997 0.343847 0.399156 0.353443 0.415499 0.400796 0.404517 0.469155 0.489032 0.476833 0.488628 0.467014 0.502346 0.494813 0.481813 0.48457 0.47446 0.467538 0.460751 0.478208 0.476242 0.48406 0.490456 0.48935 0.501641 0.497893 0.504306 0.508701 0.508847 0.512195 0.516585 0.522594 0.524745 0.521335 0.526615 0.526613 0.528139 0.532139 0.534432 0.544018 0.545637 0.560384 0.554813 0.565131 0.56409 0.565244 0.568122 0.574912 0.588791 0.588857 0.595887 0.615711 0.361392 0.530199 0.497543 0.444016 0.536055 0.50774 0.516204 0.52823 0.454071 0.627617 0.601475 0.536846 0.554032 0.481707 0.538928 0.355302 0.371996 0.610155 0.563332 0.511569 0.516914 0.613971 0.580239 0.524773 0.548298 0.536377 0.534083 0.584501 0.633771 0.612914 0.605633 0.602671 0.592782 0.590618 0.563811 0.556325 0.553245 0.544627 0.527862 0.538037 0.537835 0.526414 0.533868 0.526376 0.522298 0.526703 0.517702 0.516485 0.516604 0.509255 0.507996 0.489426 0.480262 0.473323 0.480031 0.473506 0.457297 0.463185 0.455869 0.452204 0.446682 0.450288 0.445818 0.452227 0.465273 0.452346 0.448641 0.460749 0.451776 0.437303 0.425512 0.418708 0.430174 0.409354 0.403224 0.402491 0.394736 0.404518 0.410574 0.414561 0.418877 0.386484 0.423315 0.411314 1.13324 0.201312 0.125642 0.275269 0.283513 0.259465 0.31691 0.349496 0.347933 0.359807 0.347539 0.288664 0.373873 0.331879 0.555229 0.514505 0.533066 0.504126 0.547925 0.530505 0.510349 0.485803 0.480817 0.489866 0.493759 0.499212 0.49917 0.496993 0.506746 0.504604 0.512163 0.514115 0.515732 0.519421 0.518911 0.525295 0.527764 0.528665 0.535652 0.546686 0.543938 0.549176 0.554477 0.553142 0.563422 0.560297 0.569807 0.566707 0.571339 0.56878 0.5729 0.586596 0.591386 0.535779 0.493446 0.486175 0.471591 0.487452 0.496112 0.532312 0.437754 0.537095 0.451399 0.683999 0.627522 0.588217 0.508575 0.398874 0.447734 0.390573 0.364854 0.5619 0.494341 0.417211 0.327259 0.640256 0.531758 0.516658 0.546427 0.536203 0.5402 0.55162 0.51461 0.527406 0.585965 0.51146 0.582294 0.598936 0.613691 0.583196 0.561971 0.571634 0.561859 0.555477 0.549542 0.540228 0.545038 0.540173 0.535279 0.529818 0.524031 0.528059 0.518925 0.523817 0.517859 0.51744 0.520188 0.521992 0.498207 0.500983 0.4848 0.460193 0.446551 0.464632 0.457254 0.461018 0.457399 0.458178 0.455356 0.443624 0.452441 0.445844 0.45434 0.454969 0.441448 0.438764 0.423175 0.412239 0.404971 0.401497 0.405889 0.408932 0.411578 0.414534 0.41581 0.415253 0.42031 0.425644 0.425082 0.427921 0.334933 0.613533 1.65573 0.102083 0.123454 0.205141 0.114418 0.172901 0.1661 0.245262 0.310611 0.388296 0.360887 0.340719 0.283808 0.302749 0.321384 0.376445 0.31065 0.51991 0.485571 0.328005 0.631915 0.492915 0.480187 0.472797 0.456976 0.468292 0.489821 0.496632 0.505397 0.502301 0.502703 0.506227 0.503163 0.511051 0.511787 0.517059 0.521418 0.525338 0.534267 0.534509 0.539041 0.539147 0.549398 0.552662 0.56529 0.562493 0.573463 0.562495 0.565185 0.571452 0.561448 0.578521 0.559028 0.531141 0.491794 0.494354 0.528245 0.410127 0.688887 0.506845 0.559073 0.47991 0.443291 0.350258 0.449275 0.44091 0.435959 0.47871 0.421332 0.543213 0.468869 0.428802 0.47975 0.423568 0.528952 0.550278 0.561905 0.524233 0.501455 0.542321 0.521792 0.581734 0.606491 0.574761 0.575458 0.571468 0.561459 0.553325 0.547604 0.548227 0.541624 0.539551 0.535756 0.530329 0.52605 0.516486 0.517034 0.528729 0.540345 0.5291 0.493065 0.455621 0.454624 0.457318 0.446425 0.458642 0.455783 0.457928 0.458938 0.441839 0.442565 0.444909 0.454383 0.442842 0.437196 0.4173 0.404534 0.392663 0.39905 0.405959 0.415427 0.408771 0.43288 0.381841 0.453491 0.493405 0.371858 1.00569 1.39977 0.308238 0.2935 0.260877 0.324964 0.451874 0.450153 0.327479 0.281795 0.259051 0.251519 0.154219 0.239438 0.434819 0.436094 0.452082 0.337875 0.540573 0.412109 0.424728 0.343733 0.436829 0.476695 0.501237 0.515433 0.506266 0.502624 0.510148 0.516197 0.516255 0.523399 0.527503 0.531668 0.539711 0.543656 0.547723 0.576171 0.570891 0.568272 0.574121 0.573344 0.571134 0.575448 0.55247 0.56017 0.565553 0.553701 0.552589 0.507681 0.485105 0.463334 0.252614 0.386121 0.241802 0.699454 0.426815 0.502111 0.479596 0.344121 0.477707 0.514202 0.396875 0.334934 0.449937 0.491806 0.379284 0.592314 0.608084 0.552564 0.648566 0.48223 0.433246 0.535399 0.534548 0.614896 0.620293 0.583248 0.574808 0.566783 0.576523 0.557281 0.555537 0.547481 0.55812 0.545845 0.539461 0.526957 0.53542 0.528531 0.507952 0.516949 0.512198 0.443523 0.434783 0.439741 0.449528 0.453589 0.449462 0.447055 0.458828 0.425237 0.41454 0.434544 0.433034 0.429905 0.429893 0.40715 0.382492 0.377615 0.392035 0.358507 0.387879 0.353731 0.317465 0.470639 0.404195 0.483213 1.08395 1.10286 0.956553 0.222785 0.419735 0.359605 0.319989 0.282202 0.359146 0.348276 0.299242 0.253731 0.51424 0.159109 0.451587 0.57868 0.207674 0.277506 0.384698 0.413178 0.426633 0.441708 0.510349 0.512134 0.530067 0.55405 0.499407 0.501453 0.509762 0.519646 0.520699 0.526193 0.53023 0.53414 0.535871 0.548417 0.550928 0.55918 0.561149 0.573935 0.570045 0.572448 0.574643 0.571662 0.571631 0.565941 0.550637 0.561566 0.563151 0.581561 0.571342 0.49116 0.403877 0.536965 0.51104 0.65783 0.477352 0.36294 0.414538 0.461327 0.293073 0.496056 0.394217 0.43628 0.56937 0.683266 0.590485 0.570116 0.657163 0.601021 0.640441 0.635513 0.622934 0.591855 0.591395 0.569637 0.568424 0.555137 0.552738 0.544282 0.538916 0.527659 0.512559 0.512241 0.44225 0.500734 0.43551 0.459037 0.438993 0.449051 0.446298 0.44434 0.442946 0.445143 0.41515 0.398361 0.405108 0.397771 0.387293 0.441419 0.354979 0.36995 0.323695 0.398655 0.359988 0.279861 0.276141 0.415683 0.793241 0.928278 0.762285 0.845711 0.269631 0.488802 0.334803 0.399817 0.399394 0.350002 0.329444 0.368692 0.360694 0.211634 0.362507 0.319836 0.256685 0.321094 0.152218 0.175332 0.0850523 0.225138 0.443518 0.405431 0.370203 0.420327 0.438197 0.551494 0.494036 0.555391 0.347329 0.588599 0.502545 0.51145 0.531023 0.5291 0.523336 0.536565 0.527688 0.534123 0.552953 0.551452 0.554888 0.561016 0.568693 0.569322 0.575721 0.584284 0.573205 0.573181 0.576917 0.563304 0.557739 0.566107 0.491845 0.435421 0.521779 0.524168 0.614297 0.622002 0.612591 0.618551 0.618403 0.635586 0.624482 0.625029 0.602111 0.583318 0.56537 0.566623 0.55319 0.561595 0.546233 0.533517 0.527624 0.517675 0.518055 0.494261 0.513038 0.468803 0.501363 0.44922 0.446522 0.464982 0.448722 0.439536 0.4396 0.438761 0.382978 0.395539 0.349455 0.407691 0.261616 0.385137 0.241756 0.318749 0.254555 0.364212 0.344347 0.605818 0.607148 0.758236 0.292755 0.351296 0.402267 0.42007 0.398933 0.384029 0.213543 0.323975 0.181378 0.319492 0.266581 0.394244 0.344266 0.391489 0.292761 0.324976 0.53079 0.448085 0.444847 0.459537 0.499521 0.430485 0.479146 0.516572 0.443564 0.52673 0.240752 0.507782 0.495522 0.53106 0.5385 0.547066 0.547867 0.553081 0.566749 0.566061 0.567272 0.569193 0.582459 0.574887 0.630075 0.600388 0.624503 0.584797 0.59932 0.583662 0.582272 0.573931 0.567182 0.557951 0.535894 0.558323 0.537525 0.534024 0.528266 0.518236 0.510654 0.462653 0.45414 0.447153 0.443321 0.434471 0.410386 0.393513 0.377523 0.193077 0.286879 0.259653 0.29613 0.280415 0.290998 0.309648 0.268947 0.383644 0.635709 0.394305 0.522061 0.602435 0.664719 0.696853 0.648763 0.329475 0.407485 0.412967 0.411361 0.381996 0.339666 0.293457 0.157085 0.39445 0.307469 0.32775 0.564922 0.520359 0.458175 0.437076 0.525315 0.374137 0.677212 0.484883 0.484738 0.458011 0.533705 0.537917 0.562314 0.583749 0.579763 0.562742 0.558884 0.541326 0.540176 0.537313 0.530516 0.506974 0.461604 0.467538 0.448233 0.428206 0.442681 0.432685 0.460945 0.381419 0.191331 0.27798 0.321858 0.350232 0.296571 0.321936 0.0309376 0.2525 0.588898 0.624747 0.633186 0.307414 0.407287 0.42486 0.401062 0.367493 0.192671 0.50994 0.285692 0.455891 0.633066 0.562275 0.480952 0.468734 0.736532 0.508074 0.551108 0.516861 0.512482 0.471873 0.471992 0.479661 0.42961 0.422123 0.350289 0.451158 0.305382 0.295343 0.292009 0.307092 0.360521 0.207959 0.486573 0.605274 0.620414 0.41466 0.427223 0.395886 0.508165 0.605662 
SCALARS Stress float 1
LOOKUP_TABLE default
-75154900000.0 -82218400000.0 -44895300000.0 -128816000000.0 -151751000000.0 -91575100000.0 -82683800000.0 -47679700000.0 -27162500000.0 -64094800000.0 -82227300000.0 -83698100000.0 -298221000000.0 -129898000000.0 -106821000000.0 -391636000000.0 -513553000000.0 -208730000000.0 -323338000000.0 -106475000000.0 -88302000000.0 -55227200000.0 -233326000000.0 -111998000000.0 -226099000000.0 -353161000000.0 -160541000000.0 -54211200000.0 -112672000000.0 -138673000000.0 -56033900000.0 -26540200000.0 -56513300000.0 -111894000000.0 -17495100000.0 -257451000000.0 -328031000000.0 -466615000000.0 -736895000000.0 -232135000000.0 -83325200000.0 -541897000000.0 -139799000000.0 -814484000000.0 -376614000000.0 -204568000000.0 -456629000000.0 -244726000000.0 -229088000000.0 -488442000000.0 -331699000000.0 -458275000000.0 -376698000000.0 -290418000000.0 -124274000000.0 -39856300000.0 -95898200000.0 -232971000000.0 -104201000000.0 -33816200000.0 -64547200000.0 -246551000000.0 -482547000000.0 -227587000000.0 -572573000000.0 -327558000000.0 -689891000000.0 -322000000000.0 -496739000000.0 -276835000000.0 -776967000000.0 -59063000000.0 -711488000000.0 -839363000000.0 -201095000000.0 -568710000000.0 -103781000000.0 -73819000000.0 -532105000000.0 -405103000000.0 -43569500000.0 -114892000000.0 -38231400000.0 -69311000000.0 -28965800000.0 -394865000000.0 -101725000000.0 -1.02342e+12 -490100000000.0 -765522000000.0 -564978000000.0 -317176000000.0 -1.14251e+12 -764930000000.0 -871422000000.0 -718249000000.0 -991986000000.0 -855743000000.0 -695458000000.0 -434955000000.0 -1.49954e+12 -1.20622e+12 -561320000000.0 -382440000000.0 -394111000000.0 -937017000000.0 -317442000000.0 -33016000000.0 -249198000000.0 -200544000000.0 -128771000000.0 -233606000000.0 -32800200000.0 -99020200000.0 -119386000000.0 -650481000000.0 -145458000000.0 -1.40427e+12 -337091000000.0 -849210000000.0 -847780000000.0 -665451000000.0 -273847000000.0 -2.83196e+12 -1.64599e+12 -563535000000.0 -944572000000.0 -819251000000.0 -1.24073e+12 -1.2102e+12 -2.01921e+12 -881471000000.0 -667367000000.0 -23398800000.0 -237657000000.0 -856751000000.0 -126951000000.0 -292667000000.0 -77624500000.0 -67982900000.0 -262218000000.0 -64336100000.0 -48233800000.0 -183958000000.0 -420461000000.0 -1.28281e+12 -1.84816e+12 -418863000000.0 -2.0175e+12 -1.14099e+12 -1.32232e+12 -1.63975e+12 -1.92911e+12 -582089000000.0 -1.41644e+12 -2.4682e+12 -883294000000.0 -972077000000.0 -727380000000.0 -1.16019e+12 -596684000000.0 -176108000000.0 -527724000000.0 -790479000000.0 -163715000000.0 -236844000000.0 -456545000000.0 -71639600000.0 -19717600000.0 -390777000000.0 -193028000000.0 -879110000000.0 -2.06691e+12 -753080000000.0 -870005000000.0 -2.91469e+12 -988509000000.0 -1.25172e+12 -1.51884e+12 -1.24831e+12 -630302000000.0 -1.93994e+12 -1.63741e+12 -1.61356e+12 -2.32413e+12 -1.09671e+12 -1.15684e+12 -565012000000.0 -630125000000.0 -1.11317e+12 -738803000000.0 -1.02469e+12 -685780000000.0 -373753000000.0 -103970000000.0 -32320700000.0 -32888700000.0 -47513400000.0 -90456200000.0 -39566600000.0 -670830000000.0 -562667000000.0 -283662000000.0 -2.27577e+12 -1.17108e+12 -1.56175e+12 -1.33339e+12 -1.58085e+12 -2.00282e+12 -2.39491e+12 -1.39038e+12 -3.66419e+12 -1.84284e+12 -2.24961e+12 -2.24252e+12 -2.60422e+12 -1.79888e+12 -1.79598e+12 -1.26044e+12 -1.89266e+12 -813857000000.0 -696742000000.0 -213966000000.0 -151628000000.0 -119397000000.0 -182769000000.0 -85014500000.0 -263573000000.0 -241335000000.0 -551515000000.0 -1.26113e+12 -925544000000.0 -665522000000.0 -795278000000.0 -2.71761e+12 -1.84315e+12 -2.60305e+12 -848344000000.0 -1.93452e+12 -3.10153e+12 -2.75886e+12 -1.85095e+12 -2.79651e+12 -1.87474e+12 -2.55471e+12 -2.76449e+12 -2.26563e+12 -1.13772e+12 -2.25204e+12 -2.40764e+12 -2.26314e+12 -915627000000.0 -1.13681e+12 -105669000000.0 -189149000000.0 -176294000000.0 -703816000000.0 -1.56623e+12 -1.13152e+12 -1.82577e+12 -2.63891e+12 -1.14629e+12 -2.91643e+12 -2.09471e+12 -1.95624e+12 -3.20837e+12 -1.90029e+12 -2.76966e+12 -4.01433e+12 -4.37731e+12 -1.81446e+12 -2.35336e+12 -2.85365e+12 -2.55392e+12 -2.54028e+12 -1.17223e+12 -597331000000.0 -1.00334e+12 -936275000000.0 -465998000000.0 -681868000000.0 -279374000000.0 -741972000000.0 -2.0049e+12 -2.0649e+12 -1.78526e+12 -1.43652e+12 -3.20088e+12 -3.59832e+12 -2.9463e+12 -3.15716e+12 -4.66112e+12 -1.52956e+12 -2.05653e+12 -2.18083e+12 -1.85391e+12 -1.89015e+12 -4.78372e+12 -2.93801e+12 -3.83519e+12 -1.54432e+12 -2.02707e+12 -3.33462e+12 -2.69555e+12 -3.62478e+12 -2.86442e+12 -1.41533e+12 -361620000000.0 -147215000000.0 -616011000000.0 -1.65984e+12 -2.81666e+12 -1.71936e+12 -3.26226e+12 -2.84721e+12 -2.83388e+12 -4.74317e+12 -3.70546e+12 -3.53372e+12 -2.44183e+12 -3.527e+12 -2.67486e+12 -3.82497e+12 -5.18375e+12 -5.50291e+12 -5.17624e+12 -2.75747e+12 -2.8348e+12 -3.08273e+12 -2.77148e+12 -1.79982e+12 -2.716e+12 -1.97033e+12 -1.33848e+12 -1.1284e+12 -3.0782e+12 -1.39309e+12 -1.54995e+12 -466485000000.0 -1.78589e+12 -2.2323e+12 -3.40858e+12 -3.97848e+12 -3.90386e+12 -3.8876e+12 -3.37412e+12 -4.04147e+12 -3.00346e+12 -3.93512e+12 -3.45575e+12 -4.73901e+12 -1.81939e+12 -3.95787e+12 -3.54396e+12 -1.15683e+12 -3.77762e+12 -3.37927e+12 -1.86089e+12 -2.65268e+12 -3.19545e+12 -3.55377e+12 -3.50537e+12 -2.57723e+12 -759986000000.0 -672193000000.0 -1.46996e+12 -1.88088e+12 -999611000000.0 -2.32953e+12 -3.14358e+12 -4.11414e+12 -3.49641e+12 -4.34695e+12 -4.9905e+12 -3.40628e+12 -4.81503e+12 -5.20898e+12 -3.89884e+12 -3.02301e+12 -3.25687e+12 -3.2903e+12 -2.02881e+12 -3.19298e+12 -3.61728e+12 -4.38966e+12 -2.80156e+12 -2.84314e+12 -3.17194e+12 -3.03975e+12 -4.45348e+12 -4.79543e+12 -3.58957e+12 -4.62703e+12 -3.83675e+12 -4.69741e+12 -3.55971e+12 -2.13805e+12 -3.947e+12 -4.36656e+12 -2.76333e+12 -1.76858e+12 -3.46701e+12 -4.71562e+12 -5.18796e+12 -3.15244e+12 -3.84302e+12 -3.80794e+12 -3.94285e+12 -6.06797e+12 -4.94257e+12 -3.49302e+12 -3.74954e+12 -3.91512e+12 -4.54231e+12 -4.82752e+12 -3.81004e+12 -2.63334e+12 -3.45707e+12 -3.429e+12 -5.37731e+12 -6.22678e+12 -4.52883e+12 -3.92421e+12 -4.66728e+12 -3.32772e+12 -6.10081e+12 -4.91098e+12 -2.70963e+12 -1.71031e+12 -5.02294e+12 -4.7614e+12 -2.10487e+12 -4.51935e+12 -3.71147e+12 -3.55106e+12 -4.1949e+12 -3.83368e+12 -6.29651e+12 -4.12101e+12 -3.25788e+12 -3.60953e+12 -5.03554e+12 -5.09303e+12 -3.02312e+12 -3.76046e+12 -2.25034e+12 -3.49573e+12 -4.83745e+12 -4.46843e+12 -2.40031e+12 -4.68319e+12 -3.07662e+12 -3.12904e+12 -4.61968e+12 -4.65172e+12 -7.74722e+12 -6.23406e+12 -3.91346e+12 -2.92711e+12 -5.19465e+12 -5.1037e+12 -6.28089e+12 -4.38683e+12 -6.80577e+12 -3.57233e+12 -3.26807e+12 -4.80145e+12 -3.79443e+12 -4.12441e+12 -3.76052e+12 -5.45577e+12 -2.73756e+12 -3.03399e+12 -2.4526e+12 -5.30841e+12 -3.81494e+12 -5.31834e+12 -2.69275e+12 -3.86021e+12 -6.6568e+12 -4.05313e+12 -6.21491e+12 -6.24405e+12 -5.058e+12 -4.36291e+12 -5.2863e+12 -2.59241e+12 -4.57751e+12 -7.07832e+12 -5.71769e+12 -4.7516e+12 -3.5932e+12 -5.63692e+12 -4.42702e+12 -3.28216e+12 -5.1533e+12 -3.38931e+12 -4.67198e+12 -5.20237e+12 -2.30858e+12 -4.54993e+12 -4.55463e+12 -5.41925e+12 -1.88997e+12 -12549700000.0 -2.96759e+12 -6.48303e+12 -5.89593e+12 -6.14302e+12 -7.74721e+12 -6.60447e+12 -4.9237e+12 -5.77511e+12 -2.62785e+12 -4.08879e+12 -5.47025e+12 -4.52223e+12 -7.52374e+12 -5.29208e+12 -4.69918e+12 -3.89471e+12 -2.88281e+12 -4.52451e+12 -5.99881e+12 -4.89563e+12 -5.94909e+12 -4.25172e+12 -5.6161e+12 -3.04882e+12 -4.89463e+12 -1.91125e+12 -5.9627e+12 -7.41044e+12 -3.10451e+12 -8.55025e+12 -4.09478e+12 -2.80727e+12 -2.54038e+12 -5.30306e+12 -6.70174e+12 -6.89514e+12 -5.68315e+12 -3.57246e+12 -6.16283e+12 -5.28659e+12 -4.29222e+12 -3.04608e+12 -1.04167e+13 -5.09126e+12 -5.63682e+12 -4.44293e+12 -3.72586e+12 -4.94464e+12 -5.18504e+12 -1.01876e+13 -7.13334e+12 -5.38901e+12 -2.76127e+12 -8.47606e+12 -9.01151e+12 -4.28491e+12 -5.22262e+12 -3.40848e+12 -5.67216e+12 -6.38375e+12 -1.04949e+13 -3.61565e+12 -4.28319e+12 -5.7027e+12 -5.81506e+12 -7.40724e+12 -4.96609e+12 -6.60148e+12 -3.06448e+12 -5.85539e+12 -3.8822e+12 -6.6649e+12 -4.88772e+12 -8.80473e+12 -8.76465e+12 -2.8384e+12 -5.607e+12 -4.87862e+12 -4.36275e+12 -7.62703e+12 -6.87937e+12 -6.85987e+12 -4.26588e+12 -6.82706e+12 -3.81102e+12 -4.90987e+12 -1.12782e+13 -5.07481e+12 -6.42853e+12 -7.2689e+12 -8.82637e+12 -8.40709e+12 -5.53672e+12 -1.14517e+13 -6.71058e+12 -4.65661e+12 -8.90029e+12 -7.09491e+12 -4.96518e+12 -2.83854e+12 -6.01961e+12 -6.97047e+12 -3.16859e+12 -5.03876e+12 -3.19701e+12 -6.66063e+12 -7.57406e+12 -5.1293e+12 -6.32927e+12 -5.14351e+12 -6.18554e+12 -4.3427e+12 -5.28985e+12 -4.98869e+12 -4.47667e+12 -6.54178e+12 -5.09097e+12 -7.13451e+12 -7.04212e+12 -6.83527e+12 -8.26555e+12 -8.15479e+12 -7.04331e+12 -6.0734e+12 -2.71922e+12 -8.37799e+12 -5.30835e+12 -1.03353e+13 -1.44007e+13 -6.67324e+12 -7.30427e+12 -12549700000.0 -2.16509e+12 -4.40923e+12 -6.40189e+12 -4.40187e+12 -5.5955e+12 -4.61402e+12 -5.65239e+12 -5.97728e+12 -9.89161e+12 -3.9822e+12 -7.23211e+12 -7.67885e+12 -2.35375e+12 -6.51809e+12 -5.22626e+12 -6.34974e+12 -6.38794e+12 -4.64056e+12 -7.6711e+12 -6.25358e+12 -6.5917e+12 -6.0535e+12 -4.88818e+12 -4.59672e+12 -5.92511e+12 -8.19069e+12 -9.90342e+12 -6.74474e+12 -5.78197e+12 -1.09065e+13 -7.16774e+12 -8.13654e+12 -1.1367e+13 -4.18732e+12 -5.32165e+12 -12549700000.0 -4.17115e+12 -7.22721e+12 -3.26492e+12 -2.79399e+12 -5.93762e+12 -4.95431e+12 -4.55989e+12 -3.84219e+12 -3.89104e+12 -7.78529e+12 -6.17979e+12 -6.42925e+12 -4.36279e+12 -5.31438e+12 -6.89356e+12 -2.78684e+12 -5.88141e+12 -2.58358e+12 -7.67322e+12 -4.0336e+12 -6.69999e+12 -6.41489e+12 -4.51846e+12 -7.29709e+12 -6.96179e+12 -8.77399e+12 -1.96529e+12 -3.90392e+12 -4.25284e+12 -3.60848e+12 -3.92834e+12 -5.26292e+12 -2.7066e+12 -5.96533e+12 -6.9714e+12 -4.67369e+12 -6.6336e+12 -5.49625e+12 -8.65868e+12 -8.34953e+12 -8.16882e+12 -3.4571e+12 -12549700000.0 -3.89614e+12 -4.03306e+12 -4.85439e+12 -3.21812e+12 -6.67787e+12 -3.7059e+12 -5.34333e+12 -7.69628e+12 -5.21372e+12 -4.42286e+12 -4.14658e+12 -6.42121e+12 -4.27626e+12 -6.7233e+12 -4.37534e+12 -6.09003e+12 -6.18498e+12 -4.99141e+12 -6.8307e+12 -6.03891e+12 -8.25067e+12 -4.47733e+12 -5.17747e+12 -3.47848e+12 -8.97881e+12 -3.38309e+12 -4.26844e+12 -7.33432e+12 -5.58184e+12 -3.77601e+12 -3.65785e+12 -5.14213e+12 -5.93552e+12 -6.05861e+12 -9.14863e+12 -6.69414e+12 -5.46595e+12 -1.00066e+13 -8.89082e+12 -8.95967e+12 -2.72791e+12 -5.76961e+12 -3.37405e+12 -4.69631e+12 -5.28336e+12 -6.36231e+12 -7.35216e+12 -9.29758e+12 -1.00027e+13 -6.51272e+12 -8.88393e+12 -6.18602e+12 -6.4503e+12 -8.65123e+12 -4.85246e+12 -3.48658e+12 -3.72014e+12 -4.17374e+12 -5.85193e+12 -9.75277e+12 -7.89475e+12 -5.30374e+12 -8.23332e+12 -2.77066e+12 -5.03957e+12 -3.43512e+12 -8.36192e+12 -9.1775e+12 -4.63687e+12 -8.56467e+12 -7.38815e+12 -6.36594e+12 -6.60144e+12 -6.10297e+12 -5.20681e+12 -8.00292e+12 -4.96178e+12 -4.6409e+12 -3.87881e+12 -4.1702e+12 -4.26944e+12 -4.7821e+12 -2.86465e+12 -5.43995e+12 -4.28317e+12 -5.84395e+12 -9.60513e+12 -1.19071e+13 -9.87461e+12 -5.76878e+12 -5.16447e+12 -8.98592e+12 -6.25368e+12 -6.2795e+12 -9.18697e+12 -4.79416e+12 -1.24868e+13 -4.83127e+12 -6.14522e+12 -7.72597e+12 -6.59877e+12 -7.92217e+12 -7.43861e+12 -9.96451e+12 -9.72639e+12 -1.00022e+13 -6.58617e+12 -8.11722e+12 -7.82394e+12 -4.82569e+12 -1.01682e+13 -5.0601e+12 -6.99125e+12 -5.86122e+12 -4.56192e+12 -6.2318e+12 -8.11516e+12 -6.53959e+12 -3.31066e+12 -4.49414e+12 -5.00164e+12 -5.03267e+12 -12549700000.0 -6.36707e+12 -3.9519e+12 -4.93036e+12 -3.90179e+12 -2.48941e+12 -4.98865e+12 -7.5493e+12 -7.43473e+12 -7.6686e+12 -4.40327e+12 -9.48108e+12 -7.89826e+12 -6.79135e+12 -6.76368e+12 -5.49814e+12 -3.26412e+12 -1.04157e+13 -6.12636e+12 -4.29592e+12 -5.1814e+12 -8.15636e+12 -9.70363e+12 -6.01157e+12 -7.10726e+12 -5.64589e+12 -8.74102e+12 -5.78104e+12 -1.19308e+13 -9.09984e+12 -5.3328e+12 -4.86495e+12 -5.24231e+12 -4.01933e+12 -6.60678e+12 -8.31451e+12 -7.00431e+12 -5.23078e+12 -5.8088e+12 -5.07714e+12 -6.45872e+12 -7.84523e+12 -5.51971e+12 -2.51132e+12 -12549700000.0 -12549700000.0 -6.37517e+12 -7.70918e+12 -1.09669e+13 -6.39298e+12 -7.87925e+12 -6.99167e+12 -6.39174e+12 -8.68706e+12 -7.79896e+12 -8.87334e+12 -5.72944e+12 -9.54915e+12 -7.11059e+12 -6.80499e+12 -7.75967e+12 -6.4993e+12 -5.98262e+12 -4.96311e+12 -4.77743e+12 -6.96715e+12 -4.75183e+12 -8.14166e+12 -6.92838e+12 -6.10752e+12 -5.86784e+12 -4.75835e+12 -7.12107e+12 -7.11225e+12 -1.01751e+13 -6.67252e+12 -4.99923e+12 -4.73893e+12 -1.1069e+13 -8.89993e+12 -8.68655e+12 -1.06347e+13 -3.37169e+12 -4.29808e+12 -6.53702e+12 -3.47419e+12 -5.66402e+12 -7.49452e+12 -6.82866e+12 -7.06172e+12 -4.07545e+12 -6.22246e+12 -7.0112e+12 -1.27565e+13 -6.1184e+12 -4.53074e+12 -5.86754e+12 -8.21684e+12 -8.04607e+12 -3.55581e+12 -8.59668e+12 -9.38761e+12 -2.95665e+12 -7.06891e+12 -4.36992e+12 -2.29133e+12 -5.84446e+12 -7.58612e+12 -1.11652e+13 -7.73072e+12 -1.01189e+13 -5.45384e+12 -8.03208e+12 -1.06621e+13 -5.37692e+12 -6.95543e+12 -4.79305e+12 -7.7394e+12 -5.76391e+12 -8.39543e+12 -5.66054e+12 -8.50642e+12 -6.27395e+12 -6.51967e+12 -7.06155e+12 -4.3438e+12 -3.34965e+12 -4.12514e+12 -4.43991e+12 -6.78984e+12 -7.38854e+12 -4.10094e+12 -6.89415e+12 -4.61394e+12 -6.07845e+12 -6.56167e+12 -5.23449e+12 -6.26613e+12 -1.35204e+13 -5.71119e+12 -7.90431e+12 -4.49818e+12 -6.99211e+12 -7.47645e+12 -4.40959e+12 -5.25874e+12 -8.50318e+12 -8.92343e+12 -1.06374e+13 -9.03029e+12 -6.39751e+12 -7.40808e+12 -7.5533e+12 -6.19197e+12 -3.31211e+12 -8.09208e+12 -7.59932e+12 -3.24647e+12 -5.89339e+12 -1.23962e+13 -8.65404e+12 -7.94217e+12 -6.10325e+12 -3.32764e+12 -4.97961e+12 -4.71775e+12 -3.65682e+12 -8.54482e+12 -5.53735e+12 -2.83018e+12 -3.48457e+12 -4.20662e+12 -6.28147e+12 -1.03104e+13 -6.65256e+12 -7.85637e+12 -8.16891e+12 -7.24044e+12 -7.89267e+12 -1.05766e+13 -1.03973e+13 -8.15056e+12 -9.48053e+12 -8.35591e+12 -7.70265e+12 -1.16469e+13 -7.67287e+12 -8.04854e+12 -8.32018e+12 -4.05176e+12 -6.16359e+12 -8.35196e+12 -1.35749e+13 -6.21096e+12 -6.99529e+12 -5.92475e+12 -8.0641e+12 -7.26723e+12 -5.50446e+12 -6.6365e+12 -8.44808e+12 -7.46945e+12 -6.11763e+12 -3.22001e+12 -4.5429e+12 -4.53205e+12 -8.46458e+12 -6.206e+12 -5.58301e+12 -5.5783e+12 -6.65067e+12 -6.27219e+12 -8.11347e+12 -5.67571e+12 -8.31246e+12 -3.6185e+12 -12549700000.0 -4.80874e+12 -3.28601e+12 -8.12724e+12 -7.10792e+12 -9.7502e+12 -6.34728e+12 -7.88056e+12 -4.98072e+12 -9.32186e+12 -6.16145e+12 -3.51797e+12 -8.80415e+12 -8.64898e+12 -6.44764e+12 -5.19503e+12 -6.71035e+12 -7.30799e+12 -8.19229e+12 -7.8638e+12 -6.76034e+12 -8.57419e+12 -5.90895e+12 -7.43953e+12 -5.65786e+12 -9.11067e+12 -4.85471e+12 -6.02792e+12 -9.89119e+12 -9.0282e+12 -1.0683e+13 -6.1437e+12 -8.09919e+12 -7.52055e+12 -6.25821e+12 -4.28631e+12 -1.11349e+13 -7.17294e+12 -6.52066e+12 -8.2199e+12 -6.22966e+12 -1.0084e+13 -7.05137e+12 -5.87908e+12 -5.91528e+12 -4.28654e+12 -6.84975e+12 -12549700000.0 -5.65813e+12 -7.99344e+12 -8.29203e+12 -8.13985e+12 -7.33813e+12 -8.49322e+12 -8.26465e+12 -5.28645e+12 -6.13177e+12 -7.63705e+12 -3.40501e+12 -7.01339e+12 -4.253e+12 -3.40867e+12 -6.25963e+12 -7.76521e+12 -1.19329e+13 -7.83195e+12 -7.28068e+12 -8.75731e+12 -9.39875e+12 -9.56181e+12 -1.16367e+13 -5.76256e+12 -6.05984e+12 -9.89274e+12 -1.03839e+13 -9.77755e+12 -9.11106e+12 -9.96504e+12 -8.75559e+12 -5.53405e+12 -6.80896e+12 -9.8353e+12 -1.05136e+13 -8.56992e+12 -6.97882e+12 -9.67371e+12 -5.89166e+12 -5.50882e+12 -3.70202e+12 -2.58927e+12 -9.31479e+12 -4.37035e+12 -12549700000.0 -3.38227e+12 -3.49633e+12 -2.00142e+12 -7.53034e+12 -7.40409e+12 -4.393e+12 -5.24243e+12 -9.5879e+12 -7.85232e+12 -9.44758e+12 -7.29031e+12 -7.99357e+12 -5.75193e+12 -1.00123e+13 -7.37794e+12 -9.03584e+12 -5.80971e+12 -7.12072e+12 -1.13686e+13 -7.31247e+12 -5.76455e+12 -7.37253e+12 -7.45383e+12 -8.45484e+12 -1.71301e+13 -6.22824e+12 -5.88719e+12 -9.95916e+12 -8.29843e+12 -4.66275e+12 -3.36759e+12 -6.08073e+12 -7.4758e+12 -6.72025e+12 -7.53704e+12 -7.23523e+12 -9.26569e+12 -5.09922e+12 -5.5474e+12 -5.93635e+12 -4.85374e+12 -5.21399e+12 -5.19811e+12 -9.35907e+12 -3.73845e+12 -4.17126e+12 -3.77381e+12 -3.54943e+12 -4.91872e+12 -5.86442e+12 -9.86719e+12 -5.92624e+12 -4.82928e+12 -8.42448e+12 -6.99927e+12 -4.93298e+12 -7.90182e+12 -6.49174e+12 -5.23012e+12 -6.75624e+12 -5.77555e+12 -4.36958e+12 -1.10179e+13 -8.11045e+12 -9.11126e+12 -1.17799e+13 -6.01556e+12 -8.2489e+12 -4.51912e+12 -1.10025e+13 -5.82013e+12 -6.51846e+12 -8.35354e+12 -4.55924e+12 -4.95809e+12 -1.10116e+13 -5.36686e+12 -6.39075e+12 -8.63357e+12 -7.85291e+12 -6.57677e+12 -5.39881e+12 -8.814e+12 -7.85389e+12 -6.43626e+12 -5.90488e+12 -5.0836e+12 -1.10128e+13 -4.53173e+12 -6.27359e+12 -7.73368e+12 -9.25167e+12 -9.10855e+12 -5.78022e+12 -7.40065e+12 -4.43802e+12 -4.93134e+12 -9.90925e+12 -1.10245e+13 -9.2465e+12 -6.07108e+12 -1.04707e+13 -7.18624e+12 -4.73804e+12 -8.33953e+12 -4.88689e+12 -7.39221e+12 -6.11221e+12 -7.95127e+12 -7.57432e+12 -5.50648e+12 -3.22116e+12 -8.4408e+12 -4.44187e+12 -4.91339e+12 -5.36699e+12 -5.85307e+12 -7.44344e+12 -7.90552e+12 -9.7727e+12 -9.57063e+12 -5.82549e+12 -4.20667e+12 -8.01842e+12 -1.30012e+13 -1.29846e+13 -8.1507e+12 -8.13272e+12 -1.11267e+13 -7.74965e+12 -8.16717e+12 -3.89643e+12 -1.10548e+13 -6.09447e+12 -7.8216e+12 -8.19928e+12 -5.98772e+12 -1.22577e+13 -7.08779e+12 -7.42392e+12 -1.03376e+13 -7.66247e+12 -6.46509e+12 -5.82464e+12 -7.56136e+12 -6.75864e+12 -5.89109e+12 -3.66699e+12 -3.86611e+12 -1.44463e+13 -7.40446e+12 -6.24945e+12 -8.95881e+12 -6.38603e+12 -1.37641e+13 -8.84394e+12 -1.20531e+13 -1.19994e+13 -5.91337e+12 -4.51572e+12 -7.368e+12 -6.19162e+12 -7.52326e+12 -9.23935e+12 -3.9252e+12 -4.94271e+12 -5.55084e+12 -7.471e+12 -6.28299e+12 -7.60961e+12 -9.36943e+12 -5.28681e+12 -5.75004e+12 -7.96223e+12 -6.17086e+12 -8.21834e+12 -9.74663e+12 -7.47528e+12 -8.02016e+12 -9.56653e+12 -5.56648e+12 -5.00918e+12 -7.40652e+12 -8.35429e+12 -1.05479e+13 -5.10419e+12 -4.9955e+12 -4.80244e+12 -5.11049e+12 -9.58409e+12 -8.86875e+12 -8.14936e+12 -9.06272e+12 -7.57475e+12 -1.04239e+13 -6.13517e+12 -7.50148e+12 -5.3833e+12 -8.67571e+12 -7.9605e+12 -6.30637e+12 -5.9298e+12 -1.25296e+13 -1.0489e+13 -9.96965e+12 -7.97182e+12 -9.42914e+12 -9.16265e+12 -3.2696e+12 -8.00081e+12 -8.86996e+12 -6.50567e+12 -5.42796e+12 -8.502e+12 -1.33714e+13 -1.01397e+13 -1.26696e+13 -8.49887e+12 -1.06584e+13 -1.11531e+13 -1.21327e+13 -6.9665e+12 -6.47114e+12 -1.09298e+13 -7.05228e+12 -1.27862e+13 -9.71184e+12 -5.4021e+12 -1.27562e+13 -7.74822e+12 -3.93713e+12 -6.93732e+12 -5.58488e+12 -1.06739e+13 -8.8902e+12 -1.08572e+13 -7.89264e+12 -7.89626e+12 -5.85093e+12 -1.422e+13 -8.76839e+12 -8.55967e+12 -1.19976e+13 -599590000000.0 -3.48615e+12 -8.73414e+12 -5.6836e+12 -7.40009e+12 -1.03891e+13 -6.57632e+12 -6.26428e+12 -1.29224e+13 -6.15089e+12 -7.37988e+12 -9.02227e+12 -7.65804e+12 -3.25346e+12 -7.18061e+12 -5.94747e+12 -6.2144e+12 -9.88291e+12 -8.37408e+12 -6.75434e+12 -9.65637e+12 -5.93113e+12 -1.0243e+13 -1.13045e+13 -5.81898e+12 -6.94761e+12 -6.30681e+12 -5.38959e+12 -5.11838e+12 -1.00808e+13 -4.52103e+12 -1.14324e+13 -1.12736e+13 -1.307e+13 -8.45158e+12 -5.22453e+12 -8.98376e+12 -8.75313e+12 -4.57676e+12 -1.0505e+13 -8.4741e+12 -8.07101e+12 -7.72063e+12 -6.22234e+12 -1.04116e+13 -3.9062e+12 -2.92184e+12 -7.74795e+12 -1.04458e+13 -7.23433e+12 -7.74272e+12 -1.1207e+13 -6.66048e+12 -6.09436e+12 -8.46847e+12 -7.40203e+12 -7.4721e+12 -6.12531e+12 -6.43894e+12 -5.6682e+12 -8.56752e+12 -8.51494e+12 -1.20707e+13 -8.69951e+12 -8.22153e+12 -1.0372e+13 -1.26083e+13 -3.89847e+12 -9.5193e+12 -5.08221e+12 -7.94245e+12 -6.76139e+12 -7.4622e+12 -8.52408e+12 -1.23647e+13 -4.45981e+12 -1.10154e+13 -1.18951e+13 -1.29614e+13 -7.44351e+12 -1.36554e+13 -9.06376e+12 -9.27461e+12 -1.61952e+13 -7.25605e+12 -5.56874e+12 -1.06674e+13 -7.89029e+12 -9.75668e+12 -9.73017e+12 -1.05927e+13 -5.24027e+12 -3.44641e+12 -8.74652e+12 -6.8516e+12 -9.32355e+12 -1.07774e+13 -8.90991e+12 -1.37882e+13 -9.15879e+12 -9.82849e+12 -1.15368e+13 -7.40911e+12 -9.65385e+12 -7.257e+12 -6.54172e+12 -7.63647e+12 -3.07202e+12 -1.02931e+13 -7.46697e+12 -5.29305e+12 -9.95527e+12 -5.21766e+12 -9.8e+12 -9.13177e+12 -5.25096e+12 -7.3098e+12 -1.17603e+13 -1.60548e+13 -1.09786e+13 -7.68885e+12 -4.41584e+12 -8.19574e+12 -1.01631e+13 -4.9575e+12 -1.03515e+13 -9.86011e+12 -1.06871e+13 -8.94161e+12 -1.08051e+13 -8.76412e+12 -1.31337e+13 -8.39405e+12 -9.92563e+12 -1.20637e+13 -1.00151e+13 -9.1504e+12 -9.01077e+12 -1.21339e+13 -3.36409e+12 -9.85366e+12 -3.48232e+12 -8.71979e+12 -5.09311e+12 -1.21781e+13 -1.01704e+13 -7.45019e+12 -1.73017e+13 -6.94626e+12 -8.41814e+12 -1.02405e+13 -1.42369e+13 -1.02575e+13 -1.25636e+13 -9.96998e+12 -1.09607e+13 -1.31596e+13 -1.06283e+13 -8.24303e+12 -8.93823e+12 -3.10516e+12 -6.68708e+12 -1.03668e+13 -7.31539e+12 -8.21834e+12 -9.36896e+12 -5.60636e+12 -8.13309e+12 -1.10081e+13 -6.52057e+12 -1.05359e+13 -7.41984e+12 -5.4204e+12 -3.26509e+12 -1.03474e+13 -7.05529e+12 -9.68291e+12 -1.23894e+13 -6.54431e+12 -5.57675e+12 -1.28052e+13 -8.56223e+12 -4.61006e+12 -4.01451e+12 -6.43435e+12 -4.91656e+12 -8.07637e+12 -3.49533e+12 -5.07833e+12 -6.195e+12 -6.17767e+12 -1.00125e+13 -4.84042e+12 -5.50868e+12 -6.55885e+12 -8.15725e+12 -9.77799e+12 -5.05684e+12 -2.79373e+12 -7.17964e+12 -8.50769e+12 -9.87434e+12 -6.33061e+12 -8.53203e+12 -1.20163e+13 -8.70907e+12 -9.12413e+12 -1.14167e+13 -9.65521e+12 -8.96278e+12 -1.55089e+13 -1.01218e+13 -1.18292e+13 -1.07697e+13 -1.37357e+13 -8.08629e+12 -1.42165e+13 -9.31796e+12 -7.61882e+12 -5.56385e+12 -6.55515e+12 -2.89437e+12 -6.59579e+12 -4.28664e+12 -3.87399e+12 -5.02945e+12 -8.58454e+12 -7.84465e+12 -6.54248e+12 -6.51575e+12 -1.06335e+13 -9.20258e+12 -1.03348e+13 -1.61511e+13 -6.8315e+12 -8.12499e+12 -7.03127e+12 -1.31293e+13 -5.68287e+12 -9.72478e+12 -7.39877e+12 -1.15664e+13 -7.73037e+12 -8.42753e+12 -9.50461e+12 -1.1938e+13 -3.52913e+12 -6.4949e+12 -1.2623e+13 -6.9873e+12 -7.34792e+12 -1.12168e+13 -6.38809e+12 -8.50454e+12 -6.43957e+12 -9.38815e+12 -1.60511e+13 -5.89654e+12 -8.82355e+12 -8.78103e+12 -8.28738e+12 -1.09607e+13 -5.53754e+12 -6.06257e+12 -9.20986e+12 -1.02808e+13 -1.05517e+13 -9.46431e+12 -8.93429e+12 -5.82564e+12 -8.96948e+12 -3.85845e+12 -8.40461e+12 -9.00205e+12 -6.26533e+12 -3.70577e+12 -3.51906e+12 -9.01489e+12 -8.17982e+12 -4.30584e+12 -5.47306e+12 -6.37868e+12 -3.90031e+12 -5.29386e+12 -7.43479e+12 -7.49759e+12 -5.77958e+12 -6.0223e+12 -8.48651e+12 -4.80818e+12 -8.18558e+12 -9.55006e+12 -6.84062e+12 -6.36006e+12 -6.56096e+12 -8.53068e+12 -8.27749e+12 -6.30352e+12 -8.09562e+12 -5.72658e+12 -1.10992e+13 -9.30921e+12 -1.0887e+13 -1.07484e+13 -1.73238e+13 -6.1536e+12 -7.87497e+12 -9.71562e+12 -8.02511e+12 -8.49183e+12 -1.20691e+13 -7.86935e+12 -1.3164e+13 -5.09344e+12 -4.05888e+12 -4.05038e+12 -9.67382e+12 -5.73699e+12 -5.45349e+12 -4.54286e+12 -8.55405e+12 -1.11762e+13 -7.87979e+12 -1.09211e+13 -1.31517e+13 -8.92317e+12 -1.43361e+13 -7.20256e+12 -1.48233e+13 -8.0007e+12 -1.16254e+13 -5.64119e+12 -7.9699e+12 -1.10397e+13 -3.16468e+12 -4.67209e+12 -6.34563e+12 -6.32674e+12 -9.52153e+12 -1.23513e+13 -1.36358e+13 -6.69546e+12 -1.39002e+13 -1.34417e+13 -5.04575e+12 -5.88988e+12 -6.69238e+12 -7.60349e+12 -6.62333e+12 -6.47789e+12 -8.82038e+12 -1.36306e+13 -7.90103e+12 -4.8951e+12 -1.18363e+13 -6.73684e+12 -1.20431e+13 -8.25211e+12 -7.86625e+12 -5.20312e+12 -7.33873e+12 -8.58055e+12 -4.99633e+12 -1.10774e+13 -6.61793e+12 -7.77995e+12 -7.54136e+12 -8.14609e+12 -4.93364e+12 -5.58567e+12 -4.91114e+12 -1.0128e+13 -1.26388e+13 -6.5908e+12 -6.58782e+12 -5.96159e+12 -9.31387e+12 -6.49514e+12 -6.483e+12 -9.66169e+12 -4.4035e+12 -1.13049e+13 -6.0858e+12 -9.73653e+12 -6.81182e+12 -9.52467e+12 -1.06549e+13 -6.5499e+12 -7.7504e+12 -1.10277e+13 -5.04048e+12 -9.68215e+12 -8.94601e+12 -1.0177e+13 -3.75965e+12 -7.38688e+12 -4.99399e+12 -8.89663e+12 -7.01144e+12 -8.79988e+12 -2.78422e+12 -5.12333e+12 -7.77967e+12 -4.67735e+12 -5.83272e+12 -8.08277e+12 -8.68708e+12 -4.79797e+12 -5.42103e+12 -8.61855e+12 -1.08961e+13 -9.51241e+12 -1.06378e+13 -1.26953e+13 -8.45912e+12 -6.55248e+12 -1.3116e+13 -1.09122e+13 -1.07689e+13 -7.86602e+12 -6.29687e+12 -1.31535e+13 -4.75926e+12 -5.15889e+12 -4.98406e+12 -8.376e+12 -1.09558e+13 -7.26999e+12 -9.78243e+12 -1.22889e+13 -9.9613e+12 -8.31326e+12 -1.02779e+13 -1.05858e+13 -6.03695e+12 -6.34948e+12 -7.11709e+12 -7.7441e+12 -5.2707e+12 -4.98754e+12 -7.44765e+12 -6.37231e+12 -4.78968e+12 -6.16553e+12 -1.04863e+13 -5.95432e+12 -8.16868e+12 -8.84138e+12 -4.65595e+12 -9.25926e+12 -7.34631e+12 -7.27658e+12 -4.68468e+12 -8.81119e+12 -4.7051e+12 -6.51114e+12 -6.45991e+12 -1.39175e+13 -6.8286e+12 -6.84775e+12 -7.20904e+12 -5.53641e+12 -8.99013e+12 -7.51982e+12 -1.13078e+13 -4.70352e+12 -1.28266e+13 -1.16168e+13 -1.00738e+13 -1.07747e+13 -7.84984e+12 -6.42655e+12 -2.2275e+12 -8.34467e+12 -9.12795e+12 -5.87369e+12 -1.07501e+13 -1.19643e+13 -1.22509e+13 -4.16588e+12 -5.88542e+12 -6.70963e+12 -5.94405e+12 -5.43439e+12 -6.29063e+12 -5.34047e+12 -1.04892e+13 -1.33961e+13 -6.89479e+12 -4.42895e+12 -1.21956e+13 -7.82598e+12 -5.98232e+12 -1.22747e+13 -8.32177e+12 -1.18295e+13 -1.32832e+13 -6.57302e+12 -2.66429e+12 -3.55859e+12 -1.20958e+13 -9.58455e+12 -1.14087e+13 -8.0892e+12 -5.44794e+12 -8.83421e+12 -1.08512e+13 -9.06386e+12 -8.65392e+12 -1.40006e+13 -6.41719e+12 -5.12821e+12 -9.09381e+12 -3.27153e+12 -7.40652e+12 -6.15356e+12 -6.93225e+12 -1.11093e+13 -9.02352e+12 -6.14385e+12 -6.24035e+12 -9.26192e+12 -8.32129e+12 -1.02457e+13 -5.19407e+12 -4.04607e+12 -8.78265e+12 -7.09016e+12 -1.15316e+13 -6.49621e+12 -8.49374e+12 -7.73015e+12 -9.40369e+12 -5.66345e+12 -4.29371e+12 -8.64046e+12 -9.15416e+12 -8.50176e+12 -6.46613e+12 -8.47964e+12 -1.33789e+13 -7.56676e+12 -7.06777e+12 -1.07112e+13 -1.06404e+13 -6.58166e+12 -7.63332e+12 -5.65234e+12 -8.37614e+12 -5.46824e+12 -6.30579e+12 -5.4081e+12 -5.88853e+12 -4.22557e+12 -8.34909e+12 -8.77312e+12 -7.73072e+12 -7.78117e+12 -9.37973e+12 -9.10158e+12 -7.06495e+12 -1.26929e+13 -6.65512e+12 -7.67414e+12 -6.21712e+12 -6.63334e+12 -1.21238e+13 -4.5081e+12 -5.5367e+12 -4.59562e+12 -8.52586e+12 -8.45284e+12 -8.06535e+12 -8.94211e+12 -8.51827e+12 -9.34766e+12 -5.28651e+12 -9.69044e+12 -4.33911e+12 -5.90866e+12 -1.22254e+13 -9.91964e+12 -8.89658e+12 -7.62335e+12 -1.50172e+13 -5.98746e+12 -4.55259e+12 -8.47793e+12 -9.65118e+12 -9.43592e+12 -5.19973e+12 -8.5326e+12 -6.92859e+12 -4.42349e+12 -9.70558e+12 -6.94276e+12 -9.31949e+12 -7.93463e+12 -7.32762e+12 -8.29615e+12 -6.46597e+12 -7.68937e+12 -6.63896e+12 -7.05696e+12 -6.44464e+12 -7.30989e+12 -9.97825e+12 -3.47944e+12 -1.14084e+13 -7.24278e+12 -9.74824e+12 -1.30033e+13 -1.01761e+13 -7.77753e+12 -7.02845e+12 -8.6935e+12 -8.81733e+12 -4.73911e+12 -1.17192e+13 -1.06333e+13 -1.31477e+13 -1.15859e+13 -3.88891e+12 -3.85088e+12 -7.46632e+12 -5.88039e+12 -8.39429e+12 -1.11645e+13 -8.54067e+12 -7.11527e+12 -6.49051e+12 -4.61459e+12 -1.1164e+13 -1.13034e+13 -1.0192e+13 -8.50108e+12 -5.82227e+12 -9.5494e+12 -6.95425e+12 -9.44962e+12 -7.12516e+12 -1.08526e+13 -1.09529e+13 -1.24784e+13 -9.25901e+12 -1.22435e+13 -9.7957e+12 -1.31847e+13 -9.57841e+12 -7.00634e+12 -9.6969e+12 -6.93599e+12 -6.6806e+12 -7.28839e+12 -8.33099e+12 -7.2797e+12 -7.41232e+12 -9.3752e+12 -8.18107e+12 -5.73868e+12 -9.75618e+12 -1.14198e+13 -7.05702e+12 -3.36634e+12 -7.39478e+12 -8.39089e+12 -9.38902e+12 -8.47866e+12 -1.13919e+13 -6.80583e+12 -1.27183e+13 -1.48328e+13 -1.20917e+13 -1.05546e+13 -6.69059e+12 -5.03558e+12 -8.32455e+12 -7.92431e+12 -6.30086e+12 -1.14999e+13 -7.5015e+12 -6.22097e+12 -1.08789e+13 -4.509e+12 -7.84591e+12 -7.15097e+12 -1.05095e+13 -5.06018e+12 -9.38159e+12 -7.87259e+12 -9.47449e+12 -7.90227e+12 -7.27656e+12 -9.09782e+12 -6.82937e+12 -8.19488e+12 -8.94741e+12 -9.68846e+12 -7.03218e+12 -4.88523e+12 -6.38043e+12 -4.3638e+12 -6.80325e+12 -1.04713e+13 -7.62736e+12 -8.44685e+12 -4.39846e+12 -9.04476e+12 -1.29623e+13 -9.07635e+12 -1.07543e+13 -5.31097e+12 -7.78216e+12 -5.21841e+12 -8.28389e+12 -7.40776e+12 -8.80984e+12 -8.9712e+12 -1.23922e+13 -9.24635e+12 -4.49071e+12 -7.04541e+12 -1.54364e+13 -8.05873e+12 -1.41805e+13 -8.87344e+12 -8.85222e+12 -9.47268e+12 -8.97651e+12 -8.6737e+12 -1.27862e+13 -1.28872e+13 -1.0702e+13 -8.8599e+12 -8.20838e+12 -9.88579e+12 -7.86381e+12 -7.89805e+12 -9.66043e+12 -7.88833e+12 -5.35608e+12 -7.86368e+12 -9.54979e+12 -9.61998e+12 -5.6658e+12 -5.75095e+12 -8.17383e+12 -4.5342e+12 -8.19586e+12 -1.01453e+13 -5.77933e+12 -1.19706e+13 -1.03366e+13 -8.36524e+12 -7.02722e+12 -1.20239e+13 -4.90298e+12 -7.6004e+12 -6.06505e+12 -5.45465e+12 -1.28921e+13 -8.54633e+12 -6.30167e+12 -5.01983e+12 -9.97043e+12 -6.45713e+12 -8.08739e+12 -6.67193e+12 -2.86782e+12 -6.85547e+12 -1.32297e+13 -9.19699e+12 -4.00949e+12 -3.78617e+12 -8.69134e+12 -8.61069e+12 -6.77181e+12 -6.14621e+12 -7.85587e+12 -5.6653e+12 -1.02026e+13 -7.57388e+12 -5.34877e+12 -4.79689e+12 -8.26361e+12 -7.32385e+12 -1.11397e+13 -5.92652e+12 -8.56736e+12 -8.46509e+12 -1.1477e+13 -5.61229e+12 -6.9014e+12 -5.14778e+12 -6.43137e+12 -6.57422e+12 -6.8262e+12 -4.35072e+12 -5.04348e+12 -4.76622e+12 -6.82126e+12 -9.99074e+12 -7.72256e+12 -6.11672e+12 -6.97028e+12 -8.84123e+12 -8.28344e+12 -5.7394e+12 -6.05634e+12 -4.39765e+12 -6.88165e+12 -1.06555e+13 -9.29007e+12 -8.50058e+12 -7.2571e+12 -8.39672e+12 -5.38986e+12 -8.51366e+12 -6.66585e+12 -7.08694e+12 -3.26406e+12 -4.39779e+12 -5.78547e+12 -8.9704e+12 -7.46393e+12 -1.15045e+13 -8.85154e+12 -5.22525e+12 -6.1627e+12 -6.31505e+12 -2.94397e+12 -4.7929e+12 -8.85868e+12 -7.53034e+12 -4.60825e+12 -5.05656e+12 -2.66837e+12 -6.80949e+12 -8.71028e+12 -5.19007e+12 -7.14702e+12 -7.79271e+12 -1.17777e+13 -1.1613e+13 -1.10235e+13 -1.11421e+13 -5.37338e+12 -6.45569e+12 -8.7009e+12 -8.18182e+12 -7.07191e+12 -3.42557e+12 -6.76223e+12 -1.13892e+13 -9.6093e+12 -1.05847e+13 -6.14361e+12 -7.37623e+12 -3.24245e+12 -9.39661e+12 -4.60727e+12 -1.02754e+13 -1.46032e+13 -8.51872e+12 -1.14616e+13 -7.65076e+12 -7.66009e+12 -7.94839e+12 -6.44912e+12 -8.32308e+12 -8.38663e+12 -1.03287e+13 -6.40643e+12 -8.09319e+12 -6.44149e+12 -5.05891e+12 -6.9026e+12 -9.35071e+12 -4.21338e+12 -3.17043e+12 -6.71669e+12 -2.83349e+12 -8.59864e+12 -8.16558e+12 -7.23533e+12 -5.02015e+12 -6.99885e+12 -9.35168e+12 -1.39791e+13 -6.05603e+12 -2.83054e+12 -1.02396e+13 -6.64602e+12 -4.86591e+12 -1.40084e+13 -5.97111e+12 -7.87632e+12 -6.74272e+12 -7.39056e+12 -1.05147e+13 -9.534e+12 -8.1444e+12 -1.14099e+13 -7.59315e+12 -1.62488e+13 -1.06488e+13 -1.12445e+13 -8.26367e+12 -1.08397e+13 -6.59984e+12 -4.7391e+12 -7.80007e+12 -1.11825e+13 -8.72205e+12 -1.07104e+13 -1.02775e+13 -8.61051e+12 -5.94226e+12 -6.24923e+12 -7.6623e+12 -3.53344e+12 -9.94802e+12 -6.93065e+12 -5.37902e+12 -6.80272e+12 -1.20913e+13 -5.09782e+12 -5.92839e+12 -6.58967e+12 -4.28619e+12 -6.23028e+12 -1.28053e+13 -6.28072e+12 -5.27691e+12 -6.29282e+12 -5.47217e+12 -5.54144e+12 -8.01845e+12 -7.6509e+12 -6.76245e+12 -7.48225e+12 -9.57962e+12 -7.02857e+12 -8.3995e+12 -4.30607e+12 -3.7079e+12 -6.34886e+12 -1.0668e+13 -5.08904e+12 -7.41176e+12 -6.87318e+12 -5.08247e+12 -6.33101e+12 -1.04657e+13 -6.37826e+12 -7.78435e+12 -6.1332e+12 -6.0745e+12 -6.92531e+12 -6.33606e+12 -4.19574e+12 -8.46872e+12 -4.90691e+12 -6.13672e+12 -7.00578e+12 -4.25614e+12 -9.15855e+12 -5.06801e+12 -8.2525e+12 -6.5986e+12 -1.06607e+13 -6.34211e+12 -9.13176e+12 -9.21903e+12 -2.95405e+12 -6.22869e+12 -1.04426e+13 -1.02302e+13 -6.11731e+12 -1.17993e+13 -6.33947e+12 -6.99305e+12 -1.18829e+13 -7.64943e+12 -6.644e+12 -3.90235e+12 -1.24164e+13 -5.99032e+12 -8.37162e+12 -1.12315e+13 -7.86573e+12 -5.05073e+12 -4.76574e+12 -5.29897e+12 -1.3387e+13 -6.63656e+12 -8.62053e+12 -9.65155e+12 -1.10184e+13 -8.18661e+12 -1.03448e+13 -6.49963e+12 -4.47499e+12 -5.65255e+12 -5.05885e+12 -2.7147e+12 -7.70861e+12 -4.23014e+12 -6.6557e+12 -6.01981e+12 -8.40523e+12 -7.89814e+12 -8.52396e+12 -1.26345e+13 -9.21953e+12 -8.63162e+12 -4.7763e+12 -5.00127e+12 -1.5901e+13 -8.34913e+12 -5.59736e+12 -8.87864e+12 -1.05036e+13 -1.00249e+13 -1.04709e+13 -7.48132e+12 -8.708e+12 -8.85599e+12 -9.75015e+12 -5.49165e+12 -5.99302e+12 -7.86564e+12 -5.96126e+12 -5.83825e+12 -5.00002e+12 -8.75065e+12 -7.53412e+12 -7.50071e+12 -7.02776e+12 -6.4005e+12 -1.01856e+13 -5.90547e+12 -6.0245e+12 -7.42983e+12 -7.34591e+12 -1.23429e+12 -6.70392e+12 -1.00613e+13 -1.03052e+13 -9.40178e+12 -6.2152e+12 -4.10501e+12 -2.45871e+12 -4.75781e+12 -6.81061e+12 -5.06778e+12 -7.29506e+12 -7.10618e+12 -6.24852e+12 -8.07851e+12 -7.18716e+12 -7.60734e+12 -4.77161e+12 -6.88655e+12 -7.71948e+12 -3.9018e+12 -9.73328e+12 -5.99528e+12 -5.84148e+12 -8.4023e+12 -7.70147e+12 -3.50692e+12 -5.31731e+12 -1.16936e+13 -6.81119e+12 -7.47464e+12 -6.98349e+12 -8.47171e+12 -6.70722e+12 -6.57852e+12 -6.84579e+12 -3.66747e+12 -2.93508e+12 -7.57532e+12 -6.7432e+12 -7.46369e+12 -5.1419e+12 -5.06494e+12 -6.69923e+12 -7.06149e+12 -2.97747e+12 -8.11419e+12 -9.72405e+12 -1.23813e+13 -9.07193e+12 -5.13387e+12 -4.51548e+12 -4.17921e+12 -6.07891e+12 -5.57888e+12 -8.27165e+12 -1.43835e+13 -7.8513e+12 -4.97273e+12 -8.98254e+12 -5.43771e+12 -6.85477e+12 -4.1661e+12 -7.72507e+12 -7.88526e+12 -9.63838e+12 -1.35577e+13 -5.73937e+12 -7.49252e+12 -3.20373e+12 -4.1361e+12 -6.53644e+12 -7.88026e+12 -5.03711e+12 -8.61327e+12 -7.29721e+12 -6.11722e+12 -8.60907e+12 -7.73341e+12 -6.32736e+12 -8.75763e+12 -9.06406e+12 -8.12456e+12 -7.32766e+12 -1.03839e+13 -5.04963e+12 -9.43411e+12 -7.58979e+12 -9.33511e+12 -7.63868e+12 -9.51291e+12 -9.01808e+12 -1.10606e+13 -8.67201e+12 -5.10217e+12 -6.55621e+12 -6.30799e+12 -5.8785e+12 -5.46252e+12 -5.36379e+12 -8.00916e+12 -4.24095e+12 -5.71268e+12 -5.90375e+12 -4.74957e+12 -7.43246e+12 -6.33692e+12 -1.08779e+13 -6.63432e+12 -8.63348e+12 -7.08014e+12 -1.92358e+13 -6.77568e+12 -6.94071e+12 -7.11427e+12 -9.35354e+12 -1.10692e+13 -8.16655e+12 -5.70217e+12 -8.25413e+12 -7.07591e+12 -5.3386e+12 -6.59576e+12 -4.84346e+12 -1.1832e+13 -6.96832e+12 -2.69488e+12 -8.11479e+12 -9.82494e+12 -1.16037e+13 -6.9565e+12 -6.6364e+12 -1.03481e+13 -1.18264e+13 -4.66488e+12 -7.41241e+12 -3.55437e+12 -6.45241e+12 -8.71768e+12 -3.70863e+12 -5.86329e+12 -9.16971e+12 -8.89394e+12 -7.47319e+12 -6.19191e+12 -7.59326e+12 -5.1119e+12 -5.58594e+12 -2.56622e+12 -6.61904e+12 -3.87179e+12 -5.61509e+12 -7.26766e+12 -8.54068e+12 -6.48133e+12 -4.30137e+12 -3.95782e+12 -7.35364e+12 -6.80784e+12 -7.04857e+12 -5.2622e+12 -6.6446e+12 -6.42692e+12 -7.43005e+12 -5.14609e+12 -7.01618e+12 -7.04377e+12 -7.01917e+12 -5.14234e+12 -4.08378e+12 -7.95414e+12 -7.80521e+12 -9.45019e+12 -5.42291e+12 -7.03445e+12 -9.24559e+12 -6.06785e+12 -1.05253e+13 -4.362e+12 -5.88342e+12 -7.55467e+12 -7.86369e+12 -5.6392e+12 -3.79224e+12 -7.56839e+12 -7.93319e+12 -7.04588e+12 -9.35017e+12 -1.37355e+13 -7.25841e+12 -6.64349e+12 -9.46426e+12 -8.85316e+12 -1.00243e+13 -7.37112e+12 -1.27113e+13 -4.7848e+12 -3.90735e+12 -4.65266e+12 -3.69433e+12 -6.24996e+12 -6.37899e+12 -1.06563e+13 -6.84258e+12 -5.22247e+12 -9.57037e+12 -1.40351e+13 -8.08841e+12 -3.53275e+12 -6.76059e+12 -5.34673e+12 -8.387e+12 -5.02748e+12 -6.2403e+12 -7.87474e+12 -7.31611e+12 -7.79271e+12 -1.3726e+13 -7.84705e+12 -7.11912e+12 -5.95399e+12 -7.47701e+12 -8.41551e+12 -1.08033e+13 -6.06122e+12 -6.52759e+12 -5.3889e+12 -5.67833e+12 -8.76877e+12 -4.51739e+12 -4.32272e+12 -7.48093e+12 -5.55369e+12 -8.52328e+12 -8.48763e+12 -4.78008e+12 -3.10759e+12 -4.679e+12 -3.82879e+12 -9.08941e+12 -5.26697e+12 -8.83951e+12 -3.83791e+12 -1.44796e+13 -7.09235e+12 -6.94226e+12 -1.26909e+13 -8.34118e+12 -8.029e+12 -1.07034e+13 -6.39255e+12 -6.12096e+12 -7.69434e+12 -3.31044e+12 -7.86029e+12 -5.75714e+12 -5.91145e+12 -8.06493e+12 -7.59426e+12 -6.56497e+12 -4.93067e+12 -5.59408e+12 -2.46549e+12 -2.99609e+12 -4.29752e+12 -4.74841e+12 -5.55765e+12 -1.10078e+13 -4.3722e+12 -5.49175e+12 -4.32864e+12 -9.3771e+12 -3.51329e+12 -5.417e+12 -7.17382e+12 -6.42014e+12 -5.19358e+12 -5.73354e+12 -4.36598e+12 -5.56565e+12 -6.11005e+12 -5.48178e+12 -8.43876e+12 -6.84254e+12 -6.88812e+12 -1.0062e+13 -1.05086e+13 -6.40057e+12 -5.59067e+12 -6.59396e+12 -4.6471e+12 -7.54194e+12 -7.66613e+12 -3.78159e+12 -3.43899e+12 -5.20641e+12 -6.20349e+12 -7.2406e+12 -7.33593e+12 -3.28189e+12 -5.76905e+12 -5.28162e+12 -6.96224e+12 -9.96869e+12 -6.23606e+12 -3.23508e+12 -4.8208e+12 -4.99962e+12 -9.40733e+12 -4.42261e+12 -7.04996e+12 -1.19657e+13 -5.44485e+12 -7.86403e+12 -8.21105e+12 -6.22268e+12 -4.93695e+12 -6.49467e+12 -4.64007e+12 -5.89985e+12 -6.23476e+12 -1.16392e+13 -7.12926e+12 -4.19478e+12 -9.56553e+12 -4.6428e+12 -5.50064e+12 -6.53543e+12 -6.55002e+12 -9.8854e+12 -6.26925e+12 -6.11828e+12 -7.46226e+12 -8.26624e+12 -4.8517e+12 -6.23553e+12 -4.723e+12 -4.82798e+12 -5.61193e+12 -8.44988e+12 -6.38975e+12 -8.58918e+12 -1.07622e+13 -1.308e+13 -8.60308e+12 -5.20825e+12 -8.53502e+12 -9.10316e+12 -1.455e+13 -7.21725e+12 -1.1017e+13 -4.11513e+12 -6.78834e+12 -9.21423e+12 -4.91123e+12 -6.04178e+12 -8.01058e+12 -9.64677e+12 -5.86792e+12 -6.00351e+12 -5.12223e+12 -7.78711e+12 -4.97987e+12 -1.00491e+13 -3.56848e+12 -8.65656e+12 -5.5174e+12 -1.1379e+13 -6.9439e+12 -5.55029e+12 -1.21733e+13 -6.1617e+12 -4.56392e+12 -4.92551e+12 -6.67514e+12 -4.69579e+12 -9.72608e+12 -9.99714e+12 -8.36974e+12 -6.96211e+12 -8.6779e+12 -6.72834e+12 -4.03856e+12 -6.92936e+12 -8.62068e+12 -8.03661e+12 -6.40468e+12 -5.97465e+12 -4.14872e+12 -5.14602e+12 -7.27777e+12 -5.85556e+12 -7.08936e+12 -6.22234e+12 -5.10992e+12 -3.95292e+12 -3.76525e+12 -7.4693e+12 -7.81242e+12 -6.93611e+12 -6.78025e+12 -5.36319e+12 -5.91152e+12 -7.14209e+12 -1.02926e+13 -8.00761e+12 -8.85123e+12 -1.08409e+13 -7.0309e+12 -3.01393e+12 -6.50573e+12 -4.0366e+12 -4.49402e+12 -5.81388e+12 -1.83958e+12 -9.07879e+12 -7.24104e+12 -8.16592e+12 -5.97939e+12 -4.90375e+12 -6.37462e+12 -9.3156e+12 -6.30976e+12 -5.93366e+12 -7.81282e+12 -6.29792e+12 -9.54092e+12 -6.42045e+12 -1.13483e+13 -7.60515e+12 -6.18691e+12 -4.04706e+12 -4.82539e+12 -3.33826e+12 -7.56222e+12 -5.35427e+12 -6.95606e+12 -4.66505e+12 -6.42456e+12 -6.4804e+12 -6.92895e+12 -6.78536e+12 -8.08364e+12 -8.78114e+12 -7.02883e+12 -4.77059e+12 -2.95873e+12 -5.58305e+12 -4.28269e+12 -4.68088e+12 -4.59003e+12 -6.15862e+12 -7.05063e+12 -7.70081e+12 -6.80089e+12 -6.87478e+12 -5.97467e+12 -4.89105e+12 -7.10651e+12 -3.85339e+12 -7.73411e+12 -7.79992e+12 -4.50963e+12 -9.97379e+12 -7.16798e+12 -7.10076e+12 -1.00152e+13 -1.09149e+13 -6.24448e+12 -7.90542e+12 -3.3491e+12 -4.17137e+12 -8.92501e+12 -3.47941e+12 -6.92809e+12 -1.02984e+13 -5.08746e+12 -7.66557e+12 -5.78908e+12 -5.91219e+12 -6.55925e+12 -9.34337e+12 -6.50858e+12 -4.38803e+12 -4.04967e+12 -6.42265e+12 -7.35566e+12 -4.46021e+12 -1.02155e+13 -7.74171e+12 -6.31968e+12 -3.81545e+12 -5.63505e+12 -6.145e+12 -8.7156e+12 -6.05452e+12 -1.01772e+13 -9.94859e+12 -5.1643e+12 -5.86613e+12 -4.64076e+12 -5.99699e+12 -5.88601e+12 -6.17176e+12 -5.07304e+12 -1.02571e+13 -8.92061e+12 -1.00656e+13 -8.54792e+12 -7.40068e+12 -7.4585e+12 -4.88958e+12 -4.00684e+12 -6.37318e+12 -5.82691e+12 -5.82974e+12 -5.66119e+12 -4.85009e+12 -7.80812e+12 -7.02157e+12 -6.26555e+12 -6.49281e+12 -5.15254e+12 -4.62419e+12 -8.53343e+12 -7.00138e+12 -7.0471e+12 -5.87367e+12 -6.17972e+12 -3.82524e+12 -6.08255e+12 -4.68647e+12 -4.22457e+12 -4.27443e+12 -7.03739e+12 -6.33734e+12 -6.28182e+12 -3.4449e+12 -4.9683e+12 -8.80253e+12 -1.0067e+13 -8.49191e+12 -9.82348e+12 -5.73319e+12 -1.06578e+13 -8.64612e+12 -3.34784e+12 -8.93465e+12 -5.80227e+12 -6.35229e+12 -9.18036e+12 -6.0723e+12 -6.0608e+12 -6.19409e+12 -8.2727e+12 -8.42663e+12 -3.59054e+12 -3.38314e+12 -5.36596e+12 -6.92393e+12 -6.772e+12 -4.42602e+12 -5.32826e+12 -3.10538e+12 -4.77889e+12 -7.00912e+12 -3.90478e+12 -5.66406e+12 -4.00277e+12 -4.85859e+12 -8.31375e+12 -6.37299e+12 -3.81774e+12 -5.21473e+12 -7.30535e+12 -7.39545e+12 -5.8468e+12 -6.00359e+12 -6.13438e+12 -2.65685e+12 -4.10409e+12 -4.66695e+12 -3.11208e+12 -5.05635e+12 -5.99894e+12 -6.09538e+12 -4.29676e+12 -4.5135e+12 -5.64416e+12 -7.69049e+12 -6.02147e+12 -5.5781e+12 -6.35764e+12 -4.9848e+12 -7.00406e+12 -6.05365e+12 -5.93593e+12 -7.96019e+12 -3.92202e+12 -7.2842e+12 -3.54614e+12 -4.45353e+12 -9.14951e+12 -5.86664e+12 -1.01966e+13 -6.84513e+12 -3.36891e+12 -5.17823e+12 -2.16216e+12 -4.85168e+12 -5.1438e+12 -8.64483e+12 -6.84335e+12 -4.01283e+12 -6.74806e+12 -1.04849e+13 -4.86508e+12 -5.23368e+12 -3.81494e+12 -7.09401e+12 -6.9707e+12 -6.10308e+12 -1.07205e+13 -5.40068e+12 -3.97335e+12 -4.59913e+12 -4.6475e+12 -6.04438e+12 -8.69711e+12 -6.22431e+12 -5.04614e+12 -6.4377e+12 -6.3131e+12 -9.98702e+12 -8.1334e+12 -7.33133e+12 -1.23107e+13 -8.34423e+12 -7.20051e+12 -7.86956e+12 -6.81342e+12 -2.47629e+12 -6.12369e+12 -1.06399e+13 -4.76926e+12 -4.72567e+12 -4.86423e+12 -4.88772e+12 -8.67958e+12 -6.15171e+12 -1.15184e+13 -6.10125e+12 -1.06799e+13 -1.30308e+13 -7.00263e+12 -4.7712e+12 -4.81577e+12 -7.07941e+12 -4.59879e+12 -8.78386e+12 -5.51948e+12 -4.56766e+12 -3.34121e+12 -5.36431e+12 -3.46616e+12 -6.32355e+12 -5.59687e+12 -3.75903e+12 -4.24418e+12 -4.19105e+12 -3.61035e+12 -3.92785e+12 -3.6059e+12 -7.60896e+12 -6.11673e+12 -8.70175e+12 -7.27155e+12 -7.99859e+12 -8.05476e+12 -6.00959e+12 -4.6416e+12 -5.58688e+12 -6.79503e+12 -5.27895e+12 -5.73577e+12 -5.72035e+12 -1.01927e+13 -5.61579e+12 -8.11176e+12 -8.12664e+12 -7.11021e+12 -9.76221e+12 -5.1029e+12 -5.46203e+12 -4.90135e+12 -1.15831e+13 -1.1447e+13 -6.32059e+12 -8.69328e+12 -5.4938e+12 -6.66116e+12 -7.9271e+12 -7.71584e+12 -3.67331e+12 -9.49165e+12 -3.27334e+12 -1.05215e+13 -5.66192e+12 -5.15548e+12 -3.65981e+12 -4.26647e+12 -7.08714e+12 -3.79338e+12 -6.19125e+12 -8.85825e+12 -6.04531e+12 -4.73313e+12 -4.3453e+12 -6.79308e+12 -5.14721e+12 -8.51074e+12 -6.86263e+12 -7.76297e+12 -8.47589e+12 -7.14076e+12 -3.54107e+12 -5.33813e+12 -7.97487e+12 -4.81023e+12 -6.2295e+12 -5.96374e+12 -6.06581e+12 -5.44548e+12 -4.71058e+12 -6.81158e+12 -4.79596e+12 -7.14143e+12 -3.59753e+12 -6.07358e+12 -5.21725e+12 -4.4934e+12 -6.84406e+12 -5.88078e+12 -5.78789e+12 -8.60021e+12 -4.50877e+12 -5.18829e+12 -5.10106e+12 -6.13257e+12 -5.73781e+12 -4.19741e+12 -5.24976e+12 -2.30061e+12 -4.21937e+12 -6.09284e+12 -3.80124e+12 -1.06793e+13 -6.69405e+12 -9.85843e+12 -5.29039e+12 -6.54694e+12 -8.41943e+12 -5.86146e+12 -9.6385e+12 -7.14521e+12 -5.45324e+12 -3.97853e+12 -6.20959e+12 -6.15091e+12 -8.91752e+12 -6.37879e+12 -7.07473e+12 -7.76769e+12 -6.73136e+12 -6.45315e+12 -6.20007e+12 -3.01788e+12 -6.18186e+12 -5.07215e+12 -3.88228e+12 -4.42356e+12 -7.96051e+12 -8.01222e+12 -6.84139e+12 -4.45964e+12 -6.0038e+12 -4.89145e+12 -7.93176e+12 -4.67446e+12 -6.08532e+12 -1.09963e+13 -6.8418e+12 -4.35226e+12 -6.84044e+12 -9.19329e+12 -1.60152e+13 -8.41739e+12 -1.16117e+13 -9.3591e+12 -5.85757e+12 -5.98414e+12 -1.05676e+13 -6.68678e+12 -8.93542e+12 -5.45452e+12 -2.94014e+12 -3.38704e+12 -5.17529e+12 -2.65763e+12 -7.40574e+12 -5.79807e+12 -7.27387e+12 -4.64747e+12 -6.39206e+12 -9.69983e+12 -5.15115e+12 -1.03001e+13 -8.93973e+12 -7.49461e+12 -7.0922e+12 -6.38576e+12 -5.65387e+12 -6.78276e+12 -5.11542e+12 -5.99289e+12 -4.59542e+12 -5.90206e+12 -5.84687e+12 -4.62283e+12 -6.56308e+12 -4.76046e+12 -8.6124e+12 -7.49119e+12 -3.3291e+12 -2.64206e+12 -6.12477e+12 -3.0249e+12 -3.61092e+12 -7.48215e+12 -1.18246e+13 -8.17968e+12 -6.59735e+12 -7.48035e+12 -7.56939e+12 -5.53506e+12 -6.60901e+12 -5.47653e+12 -8.37085e+12 -6.73808e+12 -7.39763e+12 -7.5839e+12 -5.6675e+12 -6.7185e+12 -7.53244e+12 -8.84639e+12 -6.2201e+12 -5.98715e+12 -3.32179e+12 -6.85018e+12 -4.86501e+12 -6.73813e+12 -6.48158e+12 -3.59367e+12 -3.54003e+12 -2.71854e+12 -5.64394e+12 -5.86179e+12 -7.27809e+12 -4.28404e+12 -3.98269e+12 -6.55658e+12 -4.46655e+12 -4.12926e+12 -4.90061e+12 -4.84078e+12 -3.58944e+12 -6.42009e+12 -9.95477e+12 -7.41849e+12 -3.83833e+12 -5.44628e+12 -6.46991e+12 -2.85541e+12 -6.98025e+12 -5.60149e+12 -5.39621e+12 -4.70271e+12 -2.7491e+12 -4.36873e+12 -3.3012e+12 -5.46997e+12 -6.50504e+12 -6.73042e+12 -7.87468e+12 -7.49836e+12 -5.55688e+12 -3.92566e+12 -1.00194e+13 -7.80905e+12 -7.78203e+12 -9.75305e+12 -6.64004e+12 -7.86789e+12 -5.25862e+12 -6.75207e+12 -6.19677e+12 -8.19359e+12 -8.83526e+12 -7.55132e+12 -5.85813e+12 -6.47666e+12 -7.91665e+12 -4.75942e+12 -4.62534e+12 -8.62263e+12 -6.09625e+12 -6.86311e+12 -6.72066e+12 -7.74855e+12 -7.13585e+12 -5.35021e+12 -6.60159e+12 -6.29504e+12 -9.99796e+12 -8.20707e+12 -5.52944e+12 -8.71252e+12 -6.86414e+12 -4.19296e+12 -1.19731e+13 -7.57715e+12 -5.84831e+12 -7.68129e+12 -8.05528e+12 -5.19805e+12 -1.24313e+13 -6.21513e+12 -6.05879e+12 -8.19806e+12 -6.81966e+12 -4.2378e+12 -5.56409e+12 -7.32099e+12 -5.64149e+12 -5.95634e+12 -6.14599e+12 -5.75546e+12 -5.36054e+12 -9.00463e+12 -8.36504e+12 -7.6076e+12 -5.55061e+12 -4.45833e+12 -4.58009e+12 -7.56948e+12 -8.50315e+12 -6.91749e+12 -2.98683e+12 -6.32061e+12 -4.99709e+12 -3.98954e+12 -6.95296e+12 -1.03373e+13 -3.92818e+12 -4.36688e+12 -7.15725e+12 -5.31777e+12 -6.15106e+12 -7.25488e+12 -5.02073e+12 -7.5322e+12 -5.28197e+12 -5.70799e+12 -6.2972e+12 -6.34481e+12 -6.85528e+12 -2.36213e+12 -2.45442e+12 -7.98793e+12 -9.55265e+12 -4.54107e+12 -4.82542e+12 -4.87427e+12 -4.42354e+12 -4.78617e+12 -3.51679e+12 -4.02277e+12 -3.43126e+12 -8.3069e+12 -5.16094e+12 -5.13685e+12 -3.84475e+12 -5.43801e+12 -5.33135e+12 -2.85468e+12 -5.9583e+12 -3.13818e+12 -3.32918e+12 -4.7357e+12 -5.41571e+12 -4.41298e+12 -3.86858e+12 -5.4291e+12 -5.5136e+12 -4.74287e+12 -5.7483e+12 -3.81919e+12 -7.55622e+12 -8.29928e+12 -3.98612e+12 -3.66669e+12 -5.39656e+12 -4.09761e+12 -6.18225e+12 -4.71283e+12 -7.61276e+12 -7.47219e+12 -4.75398e+12 -4.3077e+12 -4.12821e+12 -5.20856e+12 -3.34107e+12 -4.30396e+12 -7.73382e+12 -2.43481e+12 -5.95616e+12 -4.95352e+12 -4.20089e+12 -4.6341e+12 -3.15871e+12 -4.30652e+12 -5.06361e+12 -7.56566e+12 -5.38197e+12 -5.60646e+12 -7.29387e+12 -6.15436e+12 -4.16196e+12 -6.34384e+12 -8.52968e+12 -8.42983e+12 -5.63645e+12 -4.56107e+12 -8.93633e+12 -5.65402e+12 -4.41693e+12 -4.68003e+12 -5.69567e+12 -6.45838e+12 -6.39776e+12 -7.91253e+12 -6.20071e+12 -7.8121e+12 -7.78385e+12 -6.38298e+12 -972111000000.0 -7.40224e+12 -8.28127e+12 -6.14959e+12 -7.79373e+12 -6.28906e+12 -5.97268e+12 -6.03688e+12 -7.49961e+12 -3.94974e+12 -7.59433e+12 -7.57269e+12 -5.52565e+12 -5.4246e+12 -7.40272e+12 -6.29406e+12 -9.0005e+12 -5.71885e+12 -4.73928e+12 -6.35305e+12 -2.73125e+12 -3.95387e+12 -6.64771e+12 -4.34335e+12 -3.29045e+12 -4.48027e+12 -3.54763e+12 -9.80248e+12 -5.70507e+12 -8.72143e+12 -6.64263e+12 -9.05451e+12 -9.68851e+12 -4.36737e+12 -3.09605e+12 -7.13972e+12 -7.6832e+12 -4.93849e+12 -5.3588e+12 -5.63975e+12 -5.20164e+12 -4.37971e+12 -5.09726e+12 -5.31111e+12 -7.59771e+12 -6.32442e+12 -3.83821e+12 -5.45868e+12 -6.02804e+12 -7.79854e+12 -4.83011e+12 -5.11773e+12 -8.01877e+12 -8.13541e+12 -4.4639e+12 -4.3692e+12 -5.30288e+12 -6.80856e+12 -7.02466e+12 -5.9068e+12 -5.18963e+12 -5.9281e+12 -7.31462e+12 -4.06131e+12 -6.48283e+12 -5.3803e+12 -5.50221e+12 -4.25461e+12 -4.82235e+12 -5.66794e+12 -3.97757e+12 -6.31878e+12 -5.7618e+12 -8.30536e+12 -5.44393e+12 -5.17336e+12 -4.37694e+12 -4.93505e+12 -6.30978e+12 -6.16386e+12 -2.95857e+12 -5.01173e+12 -3.5512e+12 -5.22611e+12 -5.07846e+12 -7.06409e+12 -3.71865e+12 -2.99205e+12 -2.41024e+12 -4.14126e+12 -3.11161e+12 -3.97843e+12 -2.81895e+12 -4.13065e+12 -6.58961e+12 -4.57548e+12 -2.43684e+12 -3.21817e+12 -3.97798e+12 -2.03336e+12 -3.43366e+12 -2.59296e+12 -3.51923e+12 -3.8967e+12 -3.50767e+12 -5.46647e+12 -3.91068e+12 -2.57906e+12 -3.25737e+12 -1.31962e+12 -5.12417e+12 -3.50197e+12 -6.86185e+12 -6.18813e+12 -2.78364e+12 -2.734e+12 -7.55733e+12 -4.93735e+12 -2.42787e+12 -5.53331e+12 -3.80811e+12 -6.4197e+12 -3.75829e+12 -5.03631e+12 -6.56327e+12 -4.12807e+12 -7.01209e+12 -9.62967e+12 -5.21337e+12 -3.35269e+12 -8.17647e+12 -9.40768e+12 -7.20535e+12 -4.29297e+12 -7.65769e+12 -7.98477e+12 -5.70628e+12 -7.26461e+12 -7.6748e+12 -6.55297e+12 -9.71724e+12 -5.71929e+12 -7.86335e+12 -4.1703e+12 -7.52374e+12 -3.25388e+12 -6.1679e+12 -5.09908e+12 -4.97924e+12 -5.26462e+12 -5.78044e+12 -8.45452e+12 -7.3949e+12 -6.78172e+12 -7.51959e+12 -6.61605e+12 -4.77526e+12 -8.472e+12 -6.12498e+12 -1.1339e+13 -1.01297e+13 -6.1153e+12 -2.56717e+12 -4.20939e+12 -8.93938e+12 -5.71871e+12 -2.11158e+12 -3.90463e+12 -2.93973e+12 -3.4327e+12 -1.03305e+13 -3.83608e+12 -4.35891e+12 -5.5576e+12 -4.33184e+12 -4.97261e+12 -5.24855e+12 -3.76037e+12 -8.01602e+12 -3.981e+12 -7.17401e+12 -4.45554e+12 -4.79784e+12 -5.7215e+12 -6.03805e+12 -6.9258e+12 -5.62481e+12 -4.09995e+12 -5.0231e+12 -4.34193e+12 -6.35012e+12 -6.70528e+12 -6.59727e+12 -9.8554e+12 -4.77598e+12 -5.35397e+12 -5.6454e+12 -8.16898e+12 -5.61529e+12 -5.93229e+12 -6.107e+12 -7.33218e+12 -5.3233e+12 -7.63358e+12 -7.0702e+12 -7.88853e+12 -4.01625e+12 -1.82214e+12 -3.90644e+12 -7.65641e+12 -2.86881e+12 -6.27234e+12 -6.51415e+12 -3.1341e+12 -5.15106e+12 -6.50475e+12 -5.95017e+12 -1.81476e+12 -4.6292e+12 -4.68992e+12 -6.09261e+12 -4.42624e+12 -4.38723e+12 -5.53758e+12 -2.4047e+12 -3.35913e+12 -2.36224e+12 -2.41055e+12 -4.19458e+12 -3.368e+12 -6.11981e+12 -4.92915e+12 -3.4034e+12 -2.58408e+12 -4.62062e+12 -3.39118e+12 -5.04896e+12 -3.19032e+12 -3.95712e+12 -2.74667e+12 -3.63188e+12 -3.86845e+12 -5.77577e+12 -3.8139e+12 -2.56199e+12 -5.34234e+12 -4.02778e+12 -5.92955e+12 -3.21684e+12 -4.01468e+12 -4.27376e+12 -4.28421e+12 -4.70972e+12 -5.12499e+12 -4.53676e+12 -4.17974e+12 -3.53329e+12 -2.70743e+12 -3.03539e+12 -5.79807e+12 -8.35432e+12 -3.58826e+12 -3.10859e+12 -3.29406e+12 -2.35603e+12 -3.34062e+12 -2.07665e+12 -3.63227e+12 -8.21854e+12 -7.47752e+12 -3.171e+12 -7.87262e+12 -6.90943e+12 -4.16627e+12 -5.76979e+12 -5.21239e+12 -3.96219e+12 -5.55073e+12 -5.96377e+12 -6.03194e+12 -7.7328e+12 -5.77359e+12 -5.13029e+12 -5.14403e+12 -3.32729e+12 -5.30045e+12 -6.90599e+12 -6.00406e+12 -7.65679e+12 -8.70554e+12 -5.07456e+12 -3.50415e+12 -3.9401e+12 -6.62671e+12 -5.09349e+12 -6.42705e+12 -2.78214e+12 -5.51133e+12 -5.53841e+12 -4.99893e+12 -5.27746e+12 -8.26584e+12 -5.81406e+12 -4.84469e+12 -2.93506e+12 -6.90174e+12 -4.66614e+12 -1.71601e+12 -2.71893e+12 -6.71774e+12 -4.95889e+12 -5.93797e+12 -2.71499e+12 -5.87419e+12 -5.39556e+12 -6.57982e+12 -6.73064e+12 -4.74038e+12 -4.62531e+12 -6.02596e+12 -4.05565e+12 -6.65883e+12 -4.83239e+12 -3.92066e+12 -4.84146e+12 -3.30279e+12 -4.64948e+12 -5.6941e+12 -4.8818e+12 -3.48816e+12 -2.17012e+12 -3.72735e+12 -1.96503e+12 -4.85311e+12 -3.88152e+12 -6.57044e+12 -5.39008e+12 -5.64216e+12 -5.70988e+12 -4.11226e+12 -4.39704e+12 -6.06824e+12 -3.74378e+12 -4.42029e+12 -3.73946e+12 -4.52522e+12 -4.66202e+12 -7.72041e+12 -6.30041e+12 -7.75282e+12 -4.20727e+12 -2.62292e+12 -5.95012e+12 -4.75315e+12 -6.11244e+12 -4.0851e+12 -5.5654e+12 -5.04862e+12 -3.5527e+12 -6.42297e+12 -5.78431e+12 -2.91487e+12 -5.58849e+12 -2.25032e+12 -4.89735e+12 -4.19167e+12 -2.13854e+12 -3.65792e+12 -5.81136e+12 -4.36896e+12 -4.21389e+12 -1.76053e+12 -3.21823e+12 -4.60266e+12 -3.75305e+12 -3.66674e+12 -4.10687e+12 -3.52715e+12 -3.28452e+12 -6.47035e+12 -7.26824e+12 -4.90342e+12 -3.03084e+12 -2.86905e+12 -1.90567e+12 -3.98009e+12 -3.88584e+12 -2.39889e+12 -2.72222e+12 -2.09681e+12 -4.73626e+12 -3.56078e+12 -3.16553e+12 -2.32771e+12 -2.94059e+12 -3.35347e+12 -3.44351e+12 -4.99563e+12 -4.25741e+12 -1.70727e+12 -3.88677e+12 -3.73836e+12 -2.41867e+12 -4.094e+12 -2.79622e+12 -4.22506e+12 -4.05038e+12 -3.42786e+12 -4.00688e+12 -4.16958e+12 -5.01402e+12 -2.86637e+12 -5.39842e+12 -2.89739e+12 -3.41167e+12 -6.42385e+12 -3.62187e+12 -3.084e+12 -2.46207e+12 -2.8086e+12 -5.03056e+12 -4.04769e+12 -4.24263e+12 -4.14695e+12 -5.85994e+12 -6.47561e+12 -6.31155e+12 -4.77e+12 -5.06099e+12 -1.79768e+12 -4.35305e+12 -1.29831e+12 -4.79955e+12 -3.55764e+12 -4.13082e+12 -3.3951e+12 -5.34603e+12 -6.04087e+12 -4.75337e+12 -4.91233e+12 -7.7432e+12 -5.96672e+12 -4.78367e+12 -2.99185e+12 -3.30293e+12 -4.2222e+12 -3.42126e+12 -4.8953e+12 -4.80282e+12 -7.87587e+12 -5.03624e+12 -3.95644e+12 -5.83922e+12 -4.4545e+12 -4.15608e+12 -8.17283e+12 -2.45503e+12 -3.21547e+12 -4.1315e+12 -2.15876e+12 -3.41979e+12 -3.56883e+12 -6.60083e+12 -5.81163e+12 -4.89207e+12 -6.35806e+12 -7.12223e+12 -8.01887e+12 -4.3064e+12 -4.21353e+12 -7.68224e+12 -4.38164e+12 -3.61907e+12 -3.93563e+12 -5.08787e+12 -4.51273e+12 -4.45284e+12 -5.64902e+12 -4.17201e+12 -1.71593e+12 -4.00642e+12 -6.50871e+12 -4.89631e+12 -4.02346e+12 -2.11326e+12 -4.53849e+12 -4.53243e+12 -5.59929e+12 -3.55172e+12 -4.48913e+12 -2.89007e+12 -4.02844e+12 -4.56114e+12 -6.5967e+12 -5.88272e+12 -2.96225e+12 -3.52048e+12 -5.89749e+12 -4.76721e+12 -6.27759e+12 -5.45802e+12 -3.30987e+12 -6.30908e+12 -4.09004e+12 -6.02771e+12 -7.00511e+12 -5.25594e+12 -3.93015e+12 -3.79813e+12 -3.63303e+12 -5.21985e+12 -2.94042e+12 -5.04838e+12 -4.25643e+12 -4.42537e+12 -4.88201e+12 -1.15375e+12 -5.34697e+12 -3.01623e+12 -3.06691e+12 -6.31102e+12 -3.21446e+12 -689162000000.0 -3.15427e+12 -3.47548e+12 -3.2308e+12 -2.50703e+12 -1.46339e+12 -2.77265e+12 -2.80168e+12 -1.65614e+12 -4.39121e+12 -4.21507e+12 -4.35635e+12 -1.76665e+12 -4.22646e+12 -3.55895e+12 -2.78374e+12 -2.4649e+12 -2.45371e+12 -4.17835e+12 -3.13113e+12 -4.22283e+12 -3.72363e+12 -3.50082e+12 -5.62082e+12 -4.27633e+12 -5.98054e+12 -3.78871e+12 -2.36373e+12 -4.77207e+12 -4.91142e+12 -4.38776e+12 -2.18652e+12 -3.27369e+12 -4.7938e+12 -3.6834e+12 -3.29449e+12 -3.63696e+12 -2.56164e+12 -5.98988e+12 -5.5918e+12 -6.99052e+12 -5.58102e+12 -3.23351e+12 -5.14547e+12 -5.19337e+12 -2.512e+12 -5.22384e+12 -7.1899e+12 -7.05659e+12 -8.18247e+12 -4.67081e+12 -5.85879e+12 -3.57718e+12 -3.96638e+12 -6.54896e+12 -5.52006e+12 -7.60287e+12 -8.2909e+12 -6.2869e+12 -4.14159e+12 -6.17976e+12 -3.93041e+12 -5.03857e+12 -7.11497e+12 -4.01841e+12 -7.46946e+12 -3.76003e+12 -5.1671e+12 -6.44693e+12 -5.44784e+12 -1.7417e+12 -4.0636e+12 -2.51212e+12 -6.60338e+12 -4.40431e+12 -3.02723e+12 -4.30756e+12 -5.90114e+12 -5.27196e+12 -5.90743e+12 -4.10863e+12 -5.1151e+12 -6.23747e+12 -4.96499e+12 -8.26394e+12 -4.40365e+12 -5.61625e+12 -4.06036e+12 -3.66446e+12 -6.34305e+12 -5.04058e+12 -4.81906e+12 -3.10018e+12 -1.38903e+12 -5.22524e+12 -4.73597e+12 -3.15396e+12 -5.63905e+12 -3.96061e+12 -5.17426e+12 -3.55119e+12 -3.55883e+12 -4.27558e+12 -1.84611e+12 -4.34947e+12 -4.59258e+12 -4.9441e+12 -6.02406e+12 -4.49658e+12 -1.28983e+12 -4.28889e+12 -3.37264e+12 -3.33243e+12 -6.66115e+12 -4.26321e+12 -1.76268e+12 -3.0741e+12 -3.24887e+12 -6.54999e+12 -3.1404e+12 -1.61437e+12 -4.20439e+12 -1.85067e+12 -2.78983e+12 -4.02406e+12 -2.63994e+12 -2.53162e+12 -3.11998e+12 -2.48789e+12 -1.36494e+12 -3.41703e+12 -2.70574e+12 -3.41971e+12 -4.58506e+12 -2.37516e+12 -845413000000.0 -2.62354e+12 -1.90162e+12 -3.08554e+12 -1.40466e+12 -4.11495e+12 -1.95971e+12 -2.52188e+12 -1.24194e+12 -2.7594e+12 -4.11864e+12 -1.94123e+12 -3.15823e+12 -2.43887e+12 -1.42339e+12 -2.45371e+12 -3.84189e+12 -3.93063e+12 -2.09052e+12 -2.54662e+12 -1.45258e+12 -3.99682e+12 -4.24003e+12 -3.89885e+12 -3.14088e+12 -4.03921e+12 -2.73472e+12 -6.48343e+12 -2.56732e+12 -5.42683e+12 -3.76688e+12 -3.86323e+12 -4.90354e+12 -907484000000.0 -4.0082e+12 -5.40329e+12 -5.48012e+12 -2.62485e+12 -3.72229e+12 -2.56195e+12 -2.0369e+12 -3.222e+12 -2.10409e+12 -2.70098e+12 -4.26311e+12 -2.22595e+12 -4.61706e+12 -1.34491e+12 -2.4919e+12 -4.65793e+12 -4.68371e+12 -5.54937e+12 -2.18669e+12 -1.50869e+12 -4.51312e+12 -2.43942e+12 -4.34611e+12 -4.78705e+12 -4.74213e+12 -2.83144e+12 -4.48142e+12 -5.34037e+12 -5.26281e+12 -4.71986e+12 -5.61958e+12 -5.62109e+12 -5.18407e+12 -6.38999e+12 -3.60714e+12 -3.1348e+12 -5.4304e+12 -5.53081e+12 -2.63238e+12 -3.7887e+12 -4.48961e+12 -5.9514e+12 -4.82866e+12 -3.53338e+12 -5.37068e+12 -5.82991e+12 -6.68153e+12 -5.83383e+12 -3.86427e+12 -4.55856e+12 -2.16538e+12 -5.98905e+12 -1.34837e+12 -3.85987e+12 -4.90855e+12 -3.93392e+12 -4.42953e+12 -3.6834e+12 -3.96623e+12 -5.31732e+12 -5.85285e+12 -4.17177e+12 -4.22317e+12 -4.3748e+12 -1.71868e+12 -2.94378e+12 -3.5783e+12 -4.61845e+12 -8.00166e+12 -4.26909e+12 -5.40296e+12 -4.46531e+12 -3.57598e+12 -4.18152e+12 -3.48504e+12 -2.09618e+12 -3.93512e+12 -3.62458e+12 -4.1437e+12 -4.58657e+12 -2.56105e+12 -4.14271e+12 -2.78067e+12 -1.85794e+12 -3.46089e+12 -3.589e+12 -2.34185e+12 -2.65025e+12 -2.13774e+12 -2.69854e+12 -2.39227e+12 -1.39327e+12 -2.57734e+12 -2.37341e+12 -1.97903e+12 -2.11853e+12 -2.11059e+12 -1.53546e+12 -2.38824e+12 -1.75141e+12 -1.08794e+12 -3.4918e+12 -2.18738e+12 -3.03677e+12 -1.14411e+12 -2.18447e+12 -820909000000.0 -1.42015e+12 -1.95773e+12 -2.00015e+12 -803508000000.0 -778251000000.0 -512594000000.0 -1.53303e+12 -1.2313e+12 -655296000000.0 -1.84841e+12 -1.26124e+12 -1.74246e+12 -2.18873e+12 -1.36629e+12 -2.65028e+12 -1.26898e+12 -2.62297e+12 -2.51941e+12 -2.65518e+12 -2.7465e+12 -3.47316e+12 -1.6376e+12 -2.35402e+12 -1.52388e+12 -3.34567e+12 -2.79492e+12 -2.74808e+12 -2.16626e+12 -3.11062e+12 -2.42091e+12 -3.27883e+12 -2.77459e+12 -3.37935e+12 -2.35393e+12 -3.46611e+12 -5.35952e+12 -3.8627e+12 -1.70453e+12 -2.45145e+12 -1.70801e+12 -2.94602e+12 -1.84185e+12 -3.4081e+12 -3.04213e+12 -2.30681e+12 -4.13452e+12 -3.38248e+12 -5.12486e+12 -3.87172e+12 -1.9498e+12 -1.79871e+12 -2.3578e+12 -4.50787e+12 -3.14701e+12 -4.51087e+12 -2.20529e+12 -951609000000.0 -4.22e+12 -4.51834e+12 -1.88177e+12 -5.39916e+12 -3.58864e+12 -3.63459e+12 -4.21089e+12 -3.81777e+12 -3.00546e+12 -2.70358e+12 -3.3017e+12 -3.57785e+12 -3.54268e+12 -2.77513e+12 -4.22673e+12 -2.97877e+12 -3.09558e+12 -4.79103e+12 -3.2338e+12 -3.69096e+12 -3.46346e+12 -4.56701e+12 -5.98427e+12 -6.38618e+12 -4.03369e+12 -4.34124e+12 -6.80272e+12 -4.19132e+12 -2.12496e+12 -2.59891e+12 -5.74949e+12 -4.2766e+12 -2.72913e+12 -2.23099e+12 -5.13457e+12 -3.25311e+12 -6.01087e+12 -3.25575e+12 -2.52916e+12 -6.35383e+12 -6.23278e+12 -3.81281e+12 -3.95732e+12 -5.59002e+12 -6.549e+12 -3.15376e+12 -2.56334e+12 -3.4354e+12 -3.30758e+12 -2.39239e+12 -3.82742e+12 -3.13714e+12 -2.35761e+12 -2.24937e+12 -4.99775e+12 -4.23088e+12 -1.73894e+12 -3.17135e+12 -2.82386e+12 -1.88343e+12 -3.15065e+12 -2.1887e+12 -3.00946e+12 -3.05405e+12 -2.67811e+12 -2.48776e+12 -1.86994e+12 -1.85236e+12 -2.2894e+12 -3.34332e+12 -3.05435e+12 -2.07826e+12 -1.61448e+12 -1.78454e+12 -1.27102e+12 -2.16091e+12 -1.67302e+12 -1.47029e+12 -2.84962e+12 -1.76183e+12 -1.31115e+12 -1.37137e+12 -545931000000.0 -1.17257e+12 -1.2114e+12 -970362000000.0 -1.3956e+12 -1.17395e+12 -1.93846e+12 -1.50483e+12 -1.25692e+12 -2.40035e+12 -1.20928e+12 -1.14707e+12 -1.43139e+12 -1.7036e+12 -1.58954e+12 -3.55899e+12 -479091000000.0 -2.78085e+12 -786499000000.0 -1.77544e+12 -477194000000.0 -1.50592e+12 -1.91232e+12 -1.11626e+12 -2.06664e+12 -1.98636e+12 -2.80239e+12 -3.3527e+12 -2.84922e+12 -1.5449e+12 -2.04262e+12 -3.08141e+12 -1.42e+12 -2.11917e+12 -3.89593e+12 -3.31197e+12 -2.29128e+12 -2.37149e+12 -2.4781e+12 -2.14755e+12 -4.73744e+12 -2.65528e+12 -2.74787e+12 -870727000000.0 -4.04204e+12 -4.25828e+12 -3.0118e+12 -3.28721e+12 -2.80691e+12 -5.65028e+12 -2.75032e+12 -1.96848e+12 -3.93839e+12 -3.11322e+12 -3.81112e+12 -4.13375e+12 -3.98664e+12 -2.59939e+12 -2.81475e+12 -2.04509e+12 -3.97937e+12 -3.1858e+12 -5.81099e+12 -6.85389e+12 -3.70471e+12 -6.3016e+12 -3.82228e+12 -3.40061e+12 -2.52671e+12 -2.63445e+12 -4.86916e+12 -1.81806e+12 -4.20858e+12 -3.02798e+12 -1.31259e+12 -3.33779e+12 -4.42871e+12 -3.47277e+12 -3.39658e+12 -2.71751e+12 -2.18447e+12 -1.48963e+12 -4.63147e+12 -2.71475e+12 -4.28745e+12 -3.9475e+12 -4.7914e+12 -4.13588e+12 -154442000000.0 -3.56622e+12 -2.99014e+12 -4.29014e+12 -2.04724e+12 -2.96776e+12 -3.61467e+12 -2.91198e+12 -3.68773e+12 -2.62412e+12 -2.14942e+12 -2.72906e+12 -2.09725e+12 -3.29524e+12 -1.21807e+12 -2.75645e+12 -3.75581e+12 -2.56294e+12 -773448000000.0 -1.61186e+12 -1.84752e+12 -4.73229e+12 -286116000000.0 -1.18638e+12 -1.77495e+12 -1.26191e+12 -2.54584e+12 -1.86338e+12 -601788000000.0 -1.43954e+12 -773115000000.0 -1.33229e+12 -761024000000.0 -1.86458e+12 -980489000000.0 -572053000000.0 -913362000000.0 -884406000000.0 -850147000000.0 -741713000000.0 -1.52871e+12 -1.0555e+12 -968934000000.0 -592945000000.0 -823984000000.0 -669232000000.0 -460081000000.0 -676217000000.0 -962255000000.0 -1.42897e+12 -1.25849e+12 -2.15211e+12 -1.50037e+12 -368594000000.0 -1.32419e+12 -1.61399e+12 -802725000000.0 -885876000000.0 -1.94117e+12 -1.85917e+12 -1.19427e+12 -1.11942e+12 -1.0156e+12 -1.77957e+12 -1.40368e+12 -2.52448e+12 -3.24556e+12 -1.68694e+12 -1.9869e+12 -1.22835e+12 -2.85881e+12 -4.05331e+12 -1.13702e+12 -1.9611e+12 -1.62561e+12 -3.64041e+12 -2.21789e+12 -2.10466e+12 -2.26353e+12 -3.52671e+12 -3.49467e+12 -2.03487e+12 -1.54364e+12 -3.77873e+12 -2.2101e+12 -3.85471e+12 -2.66523e+12 -1.77593e+12 -2.90336e+12 -3.38113e+12 -2.68688e+12 -4.14358e+12 -2.5731e+12 -2.62134e+12 -5.14094e+12 -4.10866e+12 -2.00679e+12 -4.09725e+12 -2.65342e+12 -4.42781e+12 -2.0666e+12 -2.9591e+12 -4.0054e+12 -3.19361e+12 -1.26258e+12 -2.05652e+12 -4.29794e+12 -1.09824e+12 -1.66425e+12 -3.22853e+12 -903975000000.0 -2.11791e+12 -2.25111e+12 -2.89117e+12 -1.35982e+12 -3.76352e+12 -1.49182e+12 -3.37038e+12 -3.08592e+12 -3.07278e+12 -1.7871e+12 -2.12843e+12 -2.17455e+12 -2.412e+12 -1.78403e+12 -3.15508e+12 -2.45859e+12 -4.68925e+12 -1.31774e+12 -1.81296e+12 -759581000000.0 -1.13549e+12 -2.99987e+12 -1.62919e+12 -1.12938e+12 -2.01972e+12 -1.98038e+12 -622852000000.0 -1.92942e+12 -1.46148e+12 -2.26316e+12 -2.93652e+12 -1.20088e+12 -1.23597e+12 -684301000000.0 -455759000000.0 -1.2752e+12 -1.21977e+12 -1.11727e+12 -1.07999e+12 -701636000000.0 -384084000000.0 -285035000000.0 -422773000000.0 -1.15721e+12 -853998000000.0 -330523000000.0 -299452000000.0 -187552000000.0 -421236000000.0 -154725000000.0 -389694000000.0 -425958000000.0 -376692000000.0 -1.1001e+12 -138586000000.0 -924782000000.0 -360045000000.0 -863723000000.0 -510068000000.0 -583371000000.0 -339715000000.0 -1.73089e+12 -856532000000.0 -1.18153e+12 -2.51246e+12 -3.30813e+12 -1.62418e+12 -2.29018e+12 -1.2137e+12 -1.83667e+12 -1.94379e+12 -1.81717e+12 -2.0166e+12 -3.84643e+12 -2.91199e+12 -3.02515e+12 -2.7366e+12 -2.23888e+12 -1.53829e+12 -1.40818e+12 -2.41347e+12 -2.98981e+12 -2.02653e+12 -1.46981e+12 -2.80798e+12 -3.56421e+12 -2.27696e+12 -1.95815e+12 -3.25687e+12 -2.51377e+12 -3.5702e+12 -2.81399e+12 -2.98583e+12 -1.87746e+12 -3.74937e+12 -2.51044e+12 -2.87552e+12 -2.33681e+12 -1.81156e+12 -2.21069e+12 -1.06889e+12 -2.46725e+12 -2.93907e+12 -974617000000.0 -3.46082e+12 -551563000000.0 -2.18463e+12 -1.10748e+12 -1.40841e+12 -1.80022e+12 -2.46389e+12 -2.16919e+12 -936788000000.0 -3.60773e+12 -2.04227e+12 -1.1329e+12 -2.00304e+12 -1.18251e+12 -2.22385e+12 -1.02634e+12 -855369000000.0 -1.21542e+12 -1.65051e+12 -1.39918e+12 -4.07427e+12 -1.88549e+12 -2.30844e+12 -1.88527e+12 -1.36608e+12 -1.12995e+12 -1.38088e+12 -2.01558e+12 -732549000000.0 -2.01231e+12 -1.33458e+12 -960046000000.0 -2.31651e+12 -1.05029e+12 -1.46117e+12 -1.58344e+12 -983110000000.0 -1.11246e+12 -595533000000.0 -432327000000.0 -650793000000.0 -692537000000.0 -600646000000.0 -214049000000.0 -492634000000.0 -681452000000.0 -231570000000.0 -210191000000.0 -160929000000.0 -186843000000.0 -247931000000.0 -110208000000.0 -272890000000.0 -337330000000.0 -253315000000.0 -408118000000.0 -186171000000.0 -738379000000.0 -105610000000.0 -327336000000.0 -716169000000.0 -616313000000.0 -351552000000.0 -1.41502e+12 -1.15307e+12 -1.99884e+12 -1.33429e+12 -824138000000.0 -1.34535e+12 -1.23528e+12 -1.27392e+12 -1.75154e+12 -2.61694e+12 -1.87429e+12 -1.33971e+12 -2.31701e+12 -1.10216e+12 -1.73129e+12 -1.04947e+12 -1.40302e+12 -1.79733e+12 -3.38807e+12 -1.90772e+12 -1.55276e+12 -2.40011e+12 -1.13726e+12 -2.14773e+12 -1.77255e+12 -3.67773e+12 -934564000000.0 -1.25535e+12 -1.22936e+12 -1.65796e+12 -2.63703e+12 -2.50759e+12 -2.44403e+12 -1.66955e+12 -961297000000.0 -1.17135e+12 -861352000000.0 -1.6518e+12 -1.00884e+12 -1.90932e+12 -957342000000.0 -2.16334e+12 -1.39374e+12 -574911000000.0 -1.08033e+12 -811091000000.0 -1.44646e+12 -594033000000.0 -543196000000.0 -1.78653e+12 -767440000000.0 -503125000000.0 -1.30956e+12 -1.59233e+12 -555737000000.0 -1.03037e+12 -1.1254e+12 -1.28757e+12 -730329000000.0 -727951000000.0 -577248000000.0 -603700000000.0 -2.25676e+12 -772966000000.0 -1.03996e+12 -358184000000.0 -799907000000.0 -215062000000.0 -314833000000.0 -217421000000.0 -392497000000.0 -268424000000.0 -270794000000.0 -322902000000.0 -135592000000.0 -199877000000.0 -511434000000.0 -206095000000.0 -1.56735e+12 -96115900000.0 -166762000000.0 -974364000000.0 -419399000000.0 -728562000000.0 -1.51864e+12 -396730000000.0 -866289000000.0 -932222000000.0 -1.17009e+12 -944236000000.0 -815753000000.0 -1.21423e+12 -489022000000.0 -1.48695e+12 -1.76518e+12 -1.96209e+12 -1.62004e+12 -2.30049e+12 -894805000000.0 -389964000000.0 -1.68627e+12 -1.37385e+12 -1.25403e+12 -884098000000.0 -231387000000.0 -901367000000.0 -1.73861e+12 -1.18367e+12 -1.10661e+12 -1.95534e+12 -689036000000.0 -1.49996e+12 -1.84324e+12 -884819000000.0 -946819000000.0 -451582000000.0 -797305000000.0 -913631000000.0 -537459000000.0 -1.33894e+12 -1.03033e+12 -666099000000.0 -797823000000.0 -472841000000.0 -972156000000.0 -852011000000.0 -1.48469e+12 -991852000000.0 -763470000000.0 -570509000000.0 -333868000000.0 -206842000000.0 -371085000000.0 -394061000000.0 -752936000000.0 -694323000000.0 -128087000000.0 -247519000000.0 -280381000000.0 -115023000000.0 -352875000000.0 -290112000000.0 -215952000000.0 -201965000000.0 -484325000000.0 -754287000000.0 -716406000000.0 -512718000000.0 -1.0479e+12 -1.0973e+12 -500650000000.0 -686632000000.0 -574169000000.0 -858582000000.0 -861361000000.0 -846375000000.0 -553044000000.0 -1.09256e+12 -1.05443e+12 -1.10082e+12 -1.19566e+12 -1.31663e+12 -930921000000.0 -690736000000.0 -1.40864e+12 -817051000000.0 -754288000000.0 -605572000000.0 -85693300000.0 -494096000000.0 -899647000000.0 -696866000000.0 -432566000000.0 -425321000000.0 -302859000000.0 -337510000000.0 -236217000000.0 -80665700000.0 -474789000000.0 -475328000000.0 -277761000000.0 -146447000000.0 -59899400000.0 -274029000000.0 -250924000000.0 -223023000000.0 -240425000000.0 -351228000000.0 -230920000000.0 -285618000000.0 -293186000000.0 -258731000000.0 -323005000000.0 -247547000000.0 -495356000000.0 -346231000000.0 -274500000000.0 -206148000000.0 -316218000000.0 -505795000000.0 -633817000000.0 -150206000000.0 -70980100000.0 -193135000000.0 -91320800000.0 -166298000000.0 -88046600000.0 