# vtk DataFile Version 2.0
Time step 98
ASCII
DATASET UNSTRUCTURED_GRID
POINTS 4650 float
294642.0 271034.0 0
208871.0 272048.0 0
215480.0 271666.0 0
219224.0 273011.0 0
236881.0 273480.0 0
243837.0 273239.0 0
247256.0 271167.0 0
250770.0 273074.0 0
257722.0 272980.0 0
275217.0 273900.0 0
284420.0 273050.0 0
291213.0 273051.0 0
298003.0 273163.0 0
201998.0 276042.0 0
205426.0 274041.0 0
208874.0 276047.0 0
212305.0 274060.0 0
215747.0 276034.0 0
222978.0 274338.0 0
226577.0 276042.0 0
233501.0 275619.0 0
240429.0 275327.0 0
247352.0 275145.0 0
254272.0 274999.0 0
261199.0 274953.0 0
265115.0 274176.0 0
271668.0 276066.0 0
280998.0 275079.0 0
287828.0 275103.0 0
294596.0 275146.0 0
205438.0 278032.0 0
212328.0 278048.0 0
219577.0 276969.0 0
223284.0 278306.0 0
230151.0 277794.0 0
237050.0 277455.0 0
243950.0 277217.0 0
250851.0 277054.0 0
257745.0 276961.0 0
261193.0 278931.0 0
266941.0 277719.0 0
277596.0 277099.0 0
284432.0 277092.0 0
291218.0 277141.0 0
298005.0 277160.0 0
201997.0 280019.0 0
208884.0 280023.0 0
215797.0 280026.0 0
219680.0 280923.0 0
226833.0 280014.0 0
233698.0 279596.0 0
237230.0 281422.0 0
240576.0 279307.0 0
244075.0 281186.0 0
247450.0 279115.0 0
250923.0 281027.0 0
254321.0 278984.0 0
257765.0 280939.0 0
264593.0 280930.0 0
270320.0 279820.0 0
274215.0 279138.0 0
277707.0 281078.0 0
281055.0 279078.0 0
284474.0 281089.0 0
287840.0 279114.0 0
291240.0 281129.0 0
294618.0 279146.0 0
298006.0 281152.0 0
201996.0 283979.0 0
205433.0 281996.0 0
208861.0 283973.0 0
212337.0 282013.0 0
215789.0 284004.0 0
223430.0 282265.0 0
227032.0 283960.0 0
230370.0 281768.0 0
233914.0 283554.0 0
240731.0 283274.0 0
247548.0 283082.0 0
254367.0 282959.0 0
261172.0 282917.0 0
267936.0 282964.0 0
274405.0 283087.0 0
281131.0 283073.0 0
287875.0 283103.0 0
294629.0 283133.0 0
205411.0 285947.0 0
212265.0 285956.0 0
219681.0 284856.0 0
223425.0 286207.0 0
230626.0 285698.0 0
237417.0 285382.0 0
244202.0 285150.0 0
250994.0 284994.0 0
257780.0 284916.0 0
264537.0 284929.0 0
271168.0 285098.0 0
277815.0 285069.0 0
284528.0 285080.0 0
291263.0 285111.0 0
298007.0 285134.0 0
201994.0 287933.0 0
208798.0 287920.0 0
215641.0 287953.0 0
219486.0 288762.0 0
227403.0 287862.0 0
234139.0 287506.0 0
237602.0 289342.0 0
240885.0 287236.0 0
244324.0 289109.0 0
247646.0 287043.0 0
251064.0 288954.0 0
254412.0 286928.0 0
257802.0 288887.0 0
261160.0 286901.0 0
264505.0 288925.0 0
267844.0 287005.0 0
271197.0 289043.0 0
274523.0 287076.0 0
277887.0 289056.0 0
281200.0 287065.0 0
284574.0 289064.0 0
287911.0 287087.0 0
291284.0 289086.0 0
294640.0 287111.0 0
298008.0 289105.0 0
201992.0 291884.0 0
205381.0 289900.0 0
208733.0 291883.0 0
212142.0 289893.0 0
215434.0 291855.0 0
224259.0 290029.0 0
227740.0 291812.0 0
230910.0 289649.0 0
234359.0 291470.0 0
241031.0 291195.0 0
247738.0 290997.0 0
254459.0 290887.0 0
261167.0 290876.0 0
267859.0 290963.0 0
274561.0 291033.0 0
281248.0 291045.0 0
287940.0 291061.0 0
294650.0 291079.0 0
205354.0 293857.0 0
212045.0 293863.0 0
218244.0 294330.0 0
221220.0 292208.0 0
224633.0 293991.0 0
231161.0 293620.0 0
237772.0 293305.0 0
244436.0 293061.0 0
251132.0 292903.0 0
257834.0 292845.0 0
264526.0 292886.0 0
271224.0 292979.0 0
277920.0 293019.0 0
284605.0 293035.0 0
291300.0 293051.0 0
298009.0 293065.0 0
201990.0 295828.0 0
208679.0 295861.0 0
215078.0 296187.0 0
221552.0 296162.0 0
228008.0 295792.0 0
234550.0 295440.0 0
241161.0 295150.0 0
244533.0 297002.0 0
247822.0 294939.0 0
251194.0 296836.0 0
254509.0 294831.0 0
257873.0 296781.0 0
261197.0 294826.0 0
264557.0 296820.0 0
267888.0 294900.0 0
271249.0 296906.0 0
274586.0 294974.0 0
277939.0 296964.0 0
281273.0 295006.0 0
284621.0 296990.0 0
287958.0 295022.0 0
291309.0 297003.0 0
294656.0 295034.0 0
298010.0 297010.0 0
201988.0 299765.0 0
205322.0 297808.0 0
211858.0 298023.0 0
218376.0 298210.0 0
224877.0 297969.0 0
228201.0 299771.0 0
231364.0 297598.0 0
234705.0 299408.0 0
237917.0 297266.0 0
241269.0 299096.0 0
247894.0 298866.0 0
254555.0 298754.0 0
261230.0 298750.0 0
267914.0 298821.0 0
274603.0 298903.0 0
281285.0 298950.0 0
287966.0 298968.0 0
294659.0 298974.0 0
205295.0 301761.0 0
208587.0 299862.0 0
211892.0 301948.0 0
215149.0 300103.0 0
218499.0 302097.0 0
221710.0 300090.0 0
225037.0 301929.0 0
231520.0 301568.0 0
238034.0 301219.0 0
244610.0 300927.0 0
251246.0 300749.0 0
257907.0 300694.0 0
264582.0 300733.0 0
271266.0 300822.0 0
277948.0 300895.0 0
284625.0 300929.0 0
291311.0 300937.0 0
298010.0 300939.0 0
201987.0 303684.0 0
208613.0 303792.0 0
215251.0 303989.0 0
221856.0 304016.0 0
228350.0 303735.0 0
234829.0 303366.0 0
241351.0 303030.0 0
244664.0 304830.0 0
247948.0 302770.0 0
251282.0 304637.0 0
254591.0 302655.0 0
257926.0 304583.0 0
261252.0 302652.0 0
264589.0 304625.0 0
267928.0 302725.0 0
271268.0 304723.0 0
274610.0 302819.0 0
277945.0 304813.0 0
281286.0 302880.0 0
284620.0 304853.0 0
287965.0 302898.0 0
291307.0 304853.0 0
294659.0 302896.0 0
298010.0 304847.0 0
201987.0 307561.0 0
205312.0 305667.0 0
211969.0 305830.0 0
218641.0 305983.0 0
225197.0 305891.0 0
231651.0 305527.0 0
234926.0 307320.0 0
238122.0 305164.0 0
241403.0 306951.0 0
247981.0 306647.0 0
254606.0 306531.0 0
261251.0 306531.0 0
267921.0 306610.0 0
274601.0 306723.0 0
281275.0 306796.0 0
287956.0 306810.0 0
294655.0 306797.0 0
205337.0 309521.0 0
208664.0 307667.0 0
212047.0 309671.0 0
215360.0 307845.0 0
218775.0 309841.0 0
222049.0 307949.0 0
225471.0 309922.0 0
228508.0 307695.0 0
231769.0 309490.0 0
238181.0 309102.0 0
244689.0 308702.0 0
251295.0 308499.0 0
257916.0 308451.0 0
264568.0 308494.0 0
271248.0 308607.0 0
277927.0 308719.0 0
284605.0 308761.0 0
291299.0 308749.0 0
298011.0 308734.0 0
201988.0 311392.0 0
208711.0 311493.0 0
215455.0 311668.0 0
222199.0 311833.0 0
228880.0 311938.0 0
235000.0 311276.0 0
241424.0 310862.0 0
244686.0 312521.0 0
247992.0 310489.0 0
251283.0 312338.0 0
254592.0 310388.0 0
257862.0 312302.0 0
261211.0 310389.0 0
264499.0 312337.0 0
267881.0 310472.0 0
271194.0 312468.0 0
274571.0 310611.0 0
277893.0 312609.0 0
281253.0 310699.0 0
284586.0 312653.0 0
287942.0 310702.0 0
291290.0 312621.0 0
294651.0 310674.0 0
298011.0 312595.0 0
201988.0 315180.0 0
205357.0 313327.0 0
208744.0 315276.0 0
212108.0 313472.0 0
215516.0 315458.0 0
218876.0 313666.0 0
225604.0 313863.0 0
232289.0 313939.0 0
238216.0 313041.0 0
241416.0 314778.0 0
247987.0 314292.0 0
254531.0 314234.0 0
261116.0 314224.0 0
267786.0 314300.0 0
274510.0 314478.0 0
281226.0 314585.0 0
287930.0 314575.0 0
294648.0 314526.0 0
205369.0 317092.0 0
212139.0 317239.0 0
218923.0 317458.0 0
222294.0 315689.0 0
225684.0 317802.0 0
228988.0 315883.0 0
232383.0 317864.0 0
235713.0 315915.0 0
239147.0 317886.0 0
244686.0 316236.0 0
251209.0 316172.0 0
257762.0 316140.0 0
264350.0 316149.0 0
271080.0 316292.0 0
277847.0 316478.0 0
284575.0 316528.0 0
291288.0 316468.0 0
298012.0 316433.0 0
201988.0 318930.0 0
208756.0 319024.0 0
215533.0 319218.0 0
222316.0 319498.0 0
229064.0 319819.0 0
235788.0 319820.0 0
244340.0 319817.0 0
247862.0 318089.0 0
251078.0 319976.0 0
254426.0 318067.0 0
257634.0 319971.0 0
260973.0 318052.0 0
264151.0 319968.0 0
267550.0 318074.0 0
270664.0 320013.0 0
274416.0 318307.0 0
277823.0 320308.0 0
281215.0 318452.0 0
284601.0 320389.0 0
287937.0 318429.0 0
291308.0 320294.0 0
294653.0 318351.0 0
298013.0 320248.0 0
201987.0 322649.0 0
205369.0 320824.0 0
208744.0 322745.0 0
212138.0 320978.0 0
215506.0 322954.0 0
218915.0 321218.0 0
222293.0 323245.0 0
225766.0 321766.0 0
232459.0 321775.0 0
237578.0 323214.0 0
240901.0 321352.0 0
247658.0 321799.0 0
254302.0 321879.0 0
260817.0 321886.0 0
267268.0 321896.0 0
273649.0 321949.0 0
281264.0 322297.0 0
287994.0 322272.0 0
294678.0 322154.0 0
205361.0 324529.0 0
212099.0 324696.0 0
218860.0 324943.0 0
225869.0 325748.0 0
229157.0 323755.0 0
234293.0 325146.0 0
240934.0 325236.0 0
244249.0 323525.0 0
247596.0 325539.0 0
250947.0 323739.0 0
254202.0 325676.0 0
257509.0 323797.0 0
260683.0 325732.0 0
263957.0 323816.0 0
267046.0 325765.0 0
270308.0 323843.0 0
273300.0 325776.0 0
276555.0 323801.0 0
279436.0 325531.0 0
284718.0 324246.0 0
291380.0 324103.0 0
298016.0 324051.0 0
201986.0 326341.0 0
205343.0 328213.0 0
208719.0 326449.0 0
212048.0 328411.0 0
215418.0 326671.0 0
222234.0 326923.0 0
231046.0 327134.0 0
237681.0 327097.0 0
244291.0 327303.0 0
250902.0 327512.0 0
257421.0 327623.0 0
263818.0 327685.0 0
270096.0 327719.0 0
276286.0 327634.0 0
282368.0 327108.0 0
288157.0 326123.0 0
291542.0 327916.0 0
294738.0 325950.0 0
298021.0 327859.0 0
201983.0 330010.0 0
208670.0 330136.0 0
215343.0 330423.0 0
218683.0 328625.0 0
221855.0 330483.0 0
227836.0 329151.0 0
231320.0 331049.0 0
234471.0 329035.0 0
237877.0 330964.0 0
241054.0 329089.0 0
244405.0 331109.0 0
247630.0 329315.0 0
254166.0 329479.0 0
260601.0 329584.0 0
266919.0 329650.0 0
273137.0 329643.0 0
279306.0 329366.0 0
282391.0 330923.0 0
285413.0 328575.0 0
288573.0 330083.0 0
294825.0 329767.0 0
201979.0 333674.0 0
205283.0 331881.0 0
211970.0 332108.0 0
218615.0 332420.0 0
225165.0 331798.0 0
228468.0 333365.0 0
234768.0 332916.0 0
241241.0 332937.0 0
247725.0 333117.0 0
250929.0 331306.0 0
254187.0 333294.0 0
257389.0 331453.0 0
260579.0 333436.0 0
263750.0 331558.0 0
266879.0 333535.0 0
270005.0 331607.0 0
273094.0 333518.0 0
276195.0 331481.0 0
279284.0 333187.0 0
285542.0 332388.0 0
291756.0 331799.0 0
294920.0 333622.0 0
298026.0 331685.0 0
205205.0 335589.0 0
208501.0 333791.0 0
211605.0 335700.0 0
215276.0 334169.0 0
218873.0 336149.0 0
222061.0 334149.0 0
225485.0 335654.0 0
231815.0 335020.0 0
238146.0 334836.0 0
244570.0 334936.0 0
251006.0 335117.0 0
257409.0 335286.0 0
263746.0 335426.0 0
270003.0 335493.0 0
276196.0 335339.0 0
282418.0 334678.0 0
285608.0 336127.0 0
288709.0 333933.0 0
291865.0 335641.0 0
298031.0 335531.0 0
201976.0 337335.0 0
208307.0 337536.0 0
214464.0 337632.0 0
222447.0 337880.0 0
228875.0 337245.0 0
232213.0 338939.0 0
235150.0 336837.0 0
238458.0 338732.0 0
241476.0 336797.0 0
244767.0 338782.0 0
247862.0 336939.0 0
254251.0 337117.0 0
260605.0 337283.0 0
266903.0 337410.0 0
273132.0 337403.0 0
279304.0 337030.0 0
282457.0 338373.0 0
288808.0 337704.0 0
294973.0 337470.0 0
201975.0 340951.0 0
205147.0 339372.0 0
208165.0 341397.0 0
211264.0 339497.0 0
217276.0 339317.0 0
220253.0 340671.0 0
223377.0 341970.0 0
225939.0 339479.0 0
229316.0 341117.0 0
235505.0 340751.0 0
241735.0 340674.0 0
248024.0 340779.0 0
251118.0 338942.0 0
254342.0 340947.0 0
257465.0 339119.0 0
260657.0 341120.0 0
263786.0 339280.0 0
266962.0 341271.0 0
270059.0 339375.0 0
273212.0 341300.0 0
276262.0 339228.0 0
279385.0 340940.0 0
285727.0 339788.0 0
291939.0 339453.0 0
295001.0 341308.0 0
298034.0 339376.0 0
205123.0 343247.0 0
211160.0 343339.0 0
214223.0 341381.0 0
217335.0 343002.0 0
220538.0 344397.0 0
226575.0 343420.0 0
232605.0 342848.0 0
238764.0 342633.0 0
244981.0 342646.0 0
251249.0 342780.0 0
257539.0 342951.0 0
263836.0 343118.0 0
270143.0 343249.0 0
276350.0 343148.0 0
282631.0 341915.0 0
285872.0 343423.0 0
288909.0 341446.0 0
291978.0 343259.0 0
298035.0 343206.0 0
201970.0 344416.0 0
208116.0 345304.0 0
214294.0 345097.0 0
223754.0 345786.0 0
229786.0 345043.0 0
232991.0 346769.0 0
235848.0 344662.0 0
239061.0 346537.0 0
241994.0 344562.0 0
245196.0 346522.0 0
248198.0 344634.0 0
251387.0 346630.0 0
254445.0 344784.0 0
260714.0 344952.0 0
267005.0 345106.0 0
273334.0 345217.0 0
279398.0 344957.0 0
282750.0 345301.0 0
288942.0 345199.0 0
295004.0 345131.0 0
201963.0 347659.0 0
205207.0 347365.0 0
211240.0 347128.0 0
214480.0 348772.0 0
217536.0 346650.0 0
220806.0 348087.0 0
224057.0 349554.0 0
226957.0 347296.0 0
230149.0 348934.0 0
236178.0 348576.0 0
242246.0 348457.0 0
248372.0 348501.0 0
254548.0 348629.0 0
257615.0 346786.0 0
260761.0 348784.0 0
263871.0 346946.0 0
267005.0 348936.0 0
270160.0 347086.0 0
273264.0 349086.0 0
276488.0 347247.0 0
282548.0 348629.0 0
285843.0 347064.0 0
288849.0 348926.0 0
291956.0 347050.0 0
294980.0 348919.0 0
298035.0 347011.0 0
201966.0 350844.0 0
205250.0 351349.0 0
208241.0 349210.0 0
211432.0 350874.0 0
217783.0 350288.0 0
221089.0 351766.0 0
227278.0 351121.0 0
233325.0 350669.0 0
239343.0 350445.0 0
245405.0 350409.0 0
251521.0 350491.0 0
257684.0 350628.0 0
263880.0 350780.0 0
270092.0 350935.0 0
276200.0 351231.0 0
279325.0 349627.0 0
285614.0 350654.0 0
291875.0 350789.0 0
298034.0 350775.0 0
201974.0 354139.0 0
208373.0 353018.0 0
214735.0 352420.0 0
218082.0 353917.0 0
224363.0 353297.0 0
227594.0 354918.0 0
230469.0 352792.0 0
233627.0 354550.0 0
236477.0 352481.0 0
239604.0 354352.0 0
242484.0 352359.0 0
245600.0 354305.0 0
248538.0 352381.0 0
251646.0 354365.0 0
254644.0 352486.0 0
257739.0 354484.0 0
260791.0 352627.0 0
266958.0 352782.0 0
273082.0 353000.0 0
279140.0 353504.0 0
282315.0 352146.0 0
288680.0 352583.0 0
291767.0 354457.0 0
294935.0 352655.0 0
298032.0 354490.0 0
205257.0 355203.0 0
208554.0 356691.0 0
211666.0 354542.0 0
215054.0 356023.0 0
221414.0 355436.0 0
224697.0 357027.0 0
230776.0 356632.0 0
236751.0 356378.0 0
242704.0 356266.0 0
248692.0 356272.0 0
254728.0 356356.0 0
260803.0 356485.0 0
263862.0 354630.0 0
266887.0 356650.0 0
269973.0 354815.0 0
272943.0 356892.0 0
276034.0 355142.0 0
282185.0 355785.0 0
285422.0 354243.0 0
288536.0 356208.0 0
294885.0 356337.0 0
201982.0 357601.0 0
205371.0 358888.0 0
212008.0 358114.0 0
215466.0 359593.0 0
218444.0 357532.0 0
221787.0 359105.0 0
227919.0 358706.0 0
233911.0 358422.0 0
239842.0 358258.0 0
245780.0 358210.0 0
251759.0 358252.0 0
257782.0 358354.0 0
263829.0 358498.0 0
269871.0 358695.0 0
275910.0 358996.0 0
279022.0 357317.0 0
285294.0 357864.0 0
291678.0 358070.0 0
294849.0 359987.0 0
298030.0 358159.0 0
302245.0 360497.0 0
201992.0 361180.0 0
208954.0 360211.0 0
212501.0 361636.0 0
218877.0 361144.0 0
225058.0 360760.0 0
228248.0 362501.0 0
231078.0 360467.0 0
234181.0 362294.0 0
237004.0 360272.0 0
240061.0 362168.0 0
242905.0 360177.0 0
245942.0 362123.0 0
248831.0 360174.0 0
251859.0 362152.0 0
254800.0 360241.0 0
257815.0 362239.0 0
260804.0 360360.0 0
263795.0 362376.0 0
266819.0 360525.0 0
272837.0 360760.0 0
278902.0 361093.0 0
282073.0 359463.0 0
285167.0 361492.0 0
288423.0 359824.0 0
291609.0 361614.0 0
298028.0 361784.0 0
203162.0 364511.0 0
205953.0 362338.0 0
209593.0 363695.0 0
215988.0 363152.0 0
219359.0 364777.0 0
222199.0 362784.0 0
225425.0 364511.0 0
231369.0 364310.0 0
237239.0 364170.0 0
243087.0 364095.0 0
248956.0 364087.0 0
254863.0 364140.0 0
260802.0 364247.0 0
266761.0 364402.0 0
269786.0 362566.0 0
272746.0 364607.0 0
275810.0 362825.0 0
281918.0 363143.0 0
288288.0 363425.0 0
291522.0 365018.0 0
294825.0 363634.0 0
201939.0 367504.0 0
206817.0 365851.0 0
210417.0 367192.0 0
213152.0 365149.0 0
216563.0 366750.0 0
222616.0 366495.0 0
228565.0 366310.0 0
234432.0 366173.0 0
240259.0 366083.0 0
246088.0 366045.0 0
251948.0 366064.0 0
257843.0 366138.0 0
263765.0 366261.0 0
269713.0 366427.0 0
275715.0 366633.0 0
278803.0 364871.0 0
281817.0 366883.0 0
284925.0 365099.0 0
290881.0 368130.0 0
294566.0 367317.0 0
298018.0 365345.0 0
201965.0 371097.0 0
204760.0 368537.0 0
208011.0 369472.0 0
213849.0 368730.0 0
219837.0 368457.0 0
225773.0 368288.0 0
228848.0 370139.0 0
231636.0 368165.0 0
234655.0 370061.0 0
237451.0 368075.0 0
240435.0 370004.0 0
243250.0 368020.0 0
246218.0 369976.0 0
249067.0 368011.0 0
252027.0 369989.0 0
254918.0 368052.0 0
257869.0 370048.0 0
260801.0 368143.0 0
263741.0 370151.0 0
266712.0 368277.0 0
272665.0 368440.0 0
278698.0 368631.0 0
284848.0 368858.0 0
287850.0 366955.0 0
291982.0 370905.0 0
298022.0 368671.0 0
302166.0 368581.0 0
200481.0 375732.0 0
205491.0 371906.0 0
211306.0 370825.0 0
214490.0 372428.0 0
217112.0 370415.0 0
220256.0 372192.0 0
222998.0 370246.0 0
226071.0 372092.0 0
231864.0 372030.0 0
237635.0 371985.0 0
243394.0 371953.0 0
249167.0 371945.0 0
254970.0 371976.0 0
260803.0 372049.0 0
266673.0 372151.0 0
269652.0 370281.0 0
272599.0 372261.0 0
275627.0 370427.0 0
278602.0 372380.0 0
281692.0 370593.0 0
284715.0 372477.0 0
288028.0 370692.0 0
295001.0 370940.0 0
298056.0 371947.0 0
299781.0 375131.0 0
198469.0 378243.0 0
201901.0 378594.0 0
203203.0 374401.0 0
206450.0 375401.0 0
208790.0 373042.0 0
211931.0 374522.0 0
217576.0 374159.0 0
223310.0 374030.0 0
229077.0 373980.0 0
234839.0 373952.0 0
240586.0 373930.0 0
246333.0 373915.0 0
252100.0 373924.0 0
257897.0 373970.0 0
263727.0 374045.0 0
269609.0 374127.0 0
275562.0 374207.0 0
281586.0 374294.0 0
287300.0 374606.0 0
290229.0 373368.0 0
296182.0 374399.0 0
301353.0 378134.0 0
193206.0 381521.0 0
195837.0 379876.0 0
199252.0 380918.0 0
204559.0 377935.0 0
209503.0 376743.0 0
214956.0 376176.0 0
220583.0 375973.0 0
226295.0 375913.0 0
229234.0 377823.0 0
232040.0 375898.0 0
234975.0 377838.0 0
237784.0 375895.0 0
240707.0 377854.0 0
243517.0 375889.0 0
246431.0 377859.0 0
249257.0 375888.0 0
252168.0 377870.0 0
255020.0 375911.0 0
257929.0 377901.0 0
260813.0 375962.0 0
263729.0 377939.0 0
266652.0 376021.0 0
269597.0 377958.0 0
272563.0 376067.0 0
275541.0 377971.0 0
278539.0 376121.0 0
284388.0 376310.0 0
290017.0 376920.0 0
292998.0 375081.0 0
295629.0 377478.0 0
298291.0 378763.0 0
300952.0 381133.0 0
304116.0 379851.0 0
190405.0 383271.0 0
196465.0 382673.0 0
199640.0 383776.0 0
202378.0 381424.0 0
205132.0 381726.0 0
207338.0 379202.0 0
210029.0 380605.0 0
212414.0 378296.0 0
215279.0 379961.0 0
217900.0 377939.0 0
220783.0 379778.0 0
223526.0 377840.0 0
226425.0 379737.0 0
232151.0 379754.0 0
237889.0 379796.0 0
243612.0 379825.0 0
249334.0 379838.0 0
255071.0 379857.0 0
260836.0 379880.0 0
266663.0 379879.0 0
272576.0 379849.0 0
278508.0 379882.0 0
281447.0 378076.0 0
284298.0 380119.0 0
287139.0 378449.0 0
289938.0 380651.0 0
292720.0 378922.0 0
298044.0 382358.0 0
304050.0 382881.0 0
307024.0 381663.0 0
309960.0 383495.0 0
187513.0 385076.0 0
190577.0 386247.0 0
193565.0 384453.0 0
196746.0 385601.0 0
202700.0 384518.0 0
207751.0 383069.0 0
212742.0 382096.0 0
215444.0 383764.0 0
218082.0 381743.0 0
223618.0 381655.0 0
229310.0 381651.0 0
235050.0 381706.0 0
240784.0 381768.0 0
246507.0 381804.0 0
252231.0 381824.0 0
257971.0 381840.0 0
263759.0 381828.0 0
269638.0 381762.0 0
275578.0 381721.0 0
281449.0 381849.0 0
284354.0 383901.0 0
287131.0 382240.0 0
292673.0 382776.0 0
295352.0 381051.0 0
298284.0 385631.0 0
301147.0 384199.0 0
304196.0 386034.0 0
307052.0 384742.0 0
309990.0 386579.0 0
312903.0 385334.0 0
181535.0 388811.0 0
184555.0 386924.0 0
187529.0 388072.0 0
190538.0 389206.0 0
193668.0 387399.0 0
196791.0 388524.0 0
199925.0 386784.0 0
202965.0 387920.0 0
205507.0 385553.0 0
208170.0 387017.0 0
210300.0 384461.0 0
212864.0 385843.0 0
218014.0 385572.0 0
220817.0 383595.0 0
223588.0 385441.0 0
226457.0 383541.0 0
229304.0 385449.0 0
232186.0 383587.0 0
235040.0 385549.0 0
237930.0 383677.0 0
240805.0 385658.0 0
243671.0 383750.0 0
246554.0 385739.0 0
249397.0 383790.0 0
252288.0 385782.0 0
255127.0 383812.0 0
258033.0 385782.0 0
260886.0 383798.0 0
263844.0 385695.0 0
266728.0 383710.0 0
269764.0 385524.0 0
272663.0 383599.0 0
275717.0 385436.0 0
278586.0 383621.0 0
278768.0 387329.0 0
281570.0 385596.0 0
287222.0 386029.0 0
289938.0 384416.0 0
292755.0 386558.0 0
295401.0 384857.0 0
301400.0 387366.0 0
307101.0 387911.0 0
312963.0 388408.0 0
315871.0 387189.0 0
318881.0 389068.0 0
178514.0 390701.0 0
184446.0 389954.0 0
187410.0 391069.0 0
193589.0 390322.0 0
196646.0 391435.0 0
199879.0 389862.0 0
205915.0 389341.0 0
210855.0 388367.0 0
215148.0 387602.0 0
220675.0 387357.0 0
223527.0 389138.0 0
226417.0 387302.0 0
232115.0 387396.0 0
237892.0 387522.0 0
243680.0 387650.0 0
249438.0 387736.0 0
255191.0 387768.0 0
260982.0 387700.0 0
266884.0 387494.0 0
272857.0 387305.0 0
275964.0 389118.0 0
281795.0 389308.0 0
284526.0 387663.0 0
290077.0 388175.0 0
295563.0 388669.0 0
298479.0 388589.0 0
301347.0 390588.0 0
304261.0 389328.0 0
307170.0 391113.0 0
310065.0 389698.0 0
313077.0 391510.0 0
315978.0 390245.0 0
319046.0 392092.0 0
321943.0 390981.0 0
175545.0 392561.0 0
178445.0 393845.0 0
181397.0 391889.0 0
184355.0 393009.0 0
187347.0 394121.0 0
190405.0 392173.0 0
193411.0 393269.0 0
199616.0 392991.0 0
202823.0 391257.0 0
205662.0 392755.0 0
208913.0 391077.0 0
211358.0 393532.0 0
213242.0 390353.0 0
214634.0 393130.0 0
217593.0 389259.0 0
220599.0 390899.0 0
226207.0 391071.0 0
229168.0 389236.0 0
234930.0 389352.0 0
240752.0 389507.0 0
243619.0 391506.0 0
246558.0 389651.0 0
249444.0 391660.0 0
252332.0 389734.0 0
255260.0 391710.0 0
258135.0 389714.0 0
261164.0 391560.0 0
264022.0 389513.0 0
267186.0 391201.0 0
270018.0 389230.0 0
270444.0 392878.0 0
273182.0 390975.0 0
279036.0 391009.0 0
284794.0 391391.0 0
287441.0 389803.0 0
290270.0 391952.0 0
292894.0 390308.0 0
298300.0 391596.0 0
304249.0 392582.0 0
310157.0 392832.0 0
316142.0 393321.0 0
322175.0 393970.0 0
325058.0 392928.0 0
169832.0 396151.0 0
172641.0 394383.0 0
175564.0 395780.0 0
181453.0 395011.0 0
184517.0 396149.0 0
190354.0 395227.0 0
193349.0 396328.0 0
196418.0 394373.0 0
199211.0 396276.0 0
202371.0 394589.0 0
208213.0 394723.0 0
213694.0 396447.0 0
217561.0 392404.0 0
223213.0 392867.0 0
225830.0 394799.0 0
228901.0 392991.0 0
231642.0 394894.0 0
231929.0 391170.0 0
234721.0 393105.0 0
237761.0 391317.0 0
240607.0 393299.0 0
246495.0 393518.0 0
252354.0 393665.0 0
258282.0 393600.0 0
264348.0 393234.0 0
267737.0 394808.0 0
273607.0 394661.0 0
276292.0 392795.0 0
279335.0 394679.0 0
282076.0 392982.0 0
287717.0 393610.0 0
293018.0 394078.0 0
295583.0 392514.0 0
298424.0 394922.0 0
301308.0 393753.0 0
304281.0 395878.0 0
307206.0 394307.0 0
310271.0 395945.0 0
313226.0 394623.0 0
316351.0 396407.0 0
319266.0 395126.0 0
322447.0 396963.0 0
325346.0 395919.0 0
328204.0 394894.0 0
331346.0 396859.0 0
164780.0 399299.0 0
167221.0 397891.0 0
172766.0 397703.0 0
175847.0 399006.0 0
178617.0 397008.0 0
181728.0 398167.0 0
184884.0 399309.0 0
187630.0 397292.0 0
190806.0 398438.0 0
196300.0 397421.0 0
201436.0 398051.0 0
204912.0 396173.0 0
207458.0 398232.0 0
210612.0 397192.0 0
216937.0 395823.0 0
220136.0 394524.0 0
222682.0 396536.0 0
228518.0 396684.0 0
234425.0 396808.0 0
237535.0 395057.0 0
243464.0 395300.0 0
249389.0 395539.0 0
255326.0 395617.0 0
261492.0 395326.0 0
265065.0 396743.0 0
270968.0 396559.0 0
276682.0 396510.0 0
282337.0 396611.0 0
285104.0 395077.0 0
288112.0 397453.0 0
290501.0 395794.0 0
295739.0 396308.0 0
301368.0 397014.0 0
307304.0 397520.0 0
310456.0 399027.0 0
313421.0 397732.0 0
316619.0 399500.0 0
319529.0 398169.0 0
325633.0 398926.0 0
328514.0 397924.0 0
334450.0 398802.0 0
161951.0 401050.0 0
165018.0 402100.0 0
170138.0 399680.0 0
173188.0 401055.0 0
178974.0 400203.0 0
182132.0 401345.0 0
188102.0 400443.0 0
191431.0 401524.0 0
194111.0 399585.0 0
197912.0 399876.0 0
200746.0 401302.0 0
204138.0 399381.0 0
209764.0 400749.0 0
212949.0 399970.0 0
216132.0 399204.0 0
219434.0 398086.0 0
222008.0 400112.0 0
225316.0 398441.0 0
231276.0 398561.0 0
237229.0 398751.0 0
240032.0 400725.0 0
240364.0 397033.0 0
243201.0 399031.0 0
246333.0 397319.0 0
249226.0 399341.0 0
252323.0 397549.0 0
255357.0 399459.0 0
258463.0 397384.0 0
260025.0 400496.0 0
262526.0 398678.0 0
265753.0 400432.0 0
268346.0 398477.0 0
271476.0 400297.0 0
274089.0 398396.0 0
277165.0 400275.0 0
279685.0 398389.0 0
285350.0 398601.0 0
291051.0 399827.0 0
293185.0 397816.0 0
295489.0 400222.0 0
298397.0 398455.0 0
301511.0 400175.0 0
304435.0 399295.0 0
307524.0 400751.0 0
313724.0 400831.0 0
319779.0 401253.0 0
322711.0 399979.0 0
325792.0 401991.0 0
328733.0 400999.0 0
331618.0 399949.0 0
334687.0 401942.0 0
337518.0 400721.0 0
156248.0 404621.0 0
159126.0 402820.0 0
162145.0 404054.0 0
165252.0 404912.0 0
167786.0 401785.0 0
170672.0 403224.0 0
173654.0 404451.0 0
176284.0 402285.0 0
179412.0 403441.0 0
182585.0 404542.0 0
185338.0 402461.0 0
188608.0 403544.0 0
191952.0 404488.0 0
194994.0 402397.0 0
203341.0 402534.0 0
206552.0 401638.0 0
211893.0 403450.0 0
218629.0 401641.0 0
224758.0 401977.0 0
228066.0 400294.0 0
230893.0 402172.0 0
234075.0 400470.0 0
236869.0 402426.0 0
242830.0 402719.0 0
246043.0 401042.0 0
252155.0 401346.0 0
257455.0 402212.0 0
263117.0 402373.0 0
268844.0 402234.0 0
274558.0 402142.0 0
280260.0 402161.0 0
282644.0 400255.0 0
288254.0 401109.0 0
293287.0 402647.0 0
298493.0 401859.0 0
301701.0 403106.0 0
304843.0 402831.0 0
310818.0 402030.0 0
314098.0 403983.0 0
316899.0 402655.0 0
319755.0 404477.0 0
322793.0 403070.0 0
325922.0 405050.0 0
328896.0 404094.0 0
331816.0 403076.0 0
337707.0 403904.0 0
340549.0 402618.0 0
343555.0 404498.0 0
153324.0 406450.0 0
156275.0 407757.0 0
159228.0 405905.0 0
162259.0 407058.0 0
168075.0 405393.0 0
170954.0 406660.0 0
176690.0 405601.0 0
179778.0 406689.0 0
185820.0 405617.0 0
189125.0 406657.0 0
195060.0 405635.0 0
198093.0 403282.0 0
201169.0 405114.0 0
204962.0 405001.0 0
208451.0 404199.0 0
215303.0 402729.0 0
217840.0 405266.0 0
221339.0 403604.0 0
224425.0 405419.0 0
227673.0 403828.0 0
233709.0 404118.0 0
239638.0 404414.0 0
245613.0 404710.0 0
248898.0 403053.0 0
254660.0 403718.0 0
260402.0 404246.0 0
266166.0 404198.0 0
271899.0 404053.0 0
277675.0 403978.0 0
283466.0 404006.0 0
285585.0 402049.0 0
287202.0 405141.0 0
290435.0 403634.0 0
296138.0 404115.0 0
299407.0 405313.0 0
303006.0 405970.0 0
308095.0 403951.0 0
311347.0 405016.0 0
316704.0 406053.0 0
322885.0 406107.0 0
328974.0 407221.0 0
331934.0 406246.0 0
334840.0 405133.0 0
337824.0 407144.0 0
340693.0 405824.0 0
346548.0 406369.0 0
147388.0 410162.0 0
150367.0 408299.0 0
153304.0 409624.0 0
159259.0 409009.0 0
162267.0 410157.0 0
165249.0 407978.0 0
168155.0 408831.0 0
173915.0 407807.0 0
176924.0 408898.0 0
182919.0 407722.0 0
186101.0 408745.0 0
189260.0 409782.0 0
192420.0 407692.0 0
197987.0 406404.0 0
203153.0 407901.0 0
206877.0 407466.0 0
210470.0 406765.0 0
214127.0 406113.0 0
221211.0 406959.0 0
224433.0 408911.0 0
227443.0 407378.0 0
230558.0 405775.0 0
233337.0 407800.0 0
236477.0 406115.0 0
239220.0 408129.0 0
242394.0 406411.0 0
245113.0 408421.0 0
248335.0 406739.0 0
251042.0 408779.0 0
251611.0 405185.0 0
254459.0 407438.0 0
257523.0 405957.0 0
260557.0 407988.0 0
263419.0 406138.0 0
266467.0 407968.0 0
269210.0 406005.0 0
272281.0 407789.0 0
274984.0 405847.0 0
278164.0 407558.0 0
280941.0 405754.0 0
284584.0 407278.0 0
290266.0 406819.0 0
293655.0 406525.0 0
297137.0 407609.0 0
300768.0 408443.0 0
306220.0 406361.0 0
309630.0 407229.0 0
313552.0 407459.0 0
316926.0 409253.0 0
319833.0 407608.0 0
322828.0 409153.0 0
325946.0 408129.0 0
332026.0 409438.0 0
334942.0 408369.0 0
340764.0 409088.0 0
343655.0 407712.0 0
346602.0 409578.0 0
349539.0 408239.0 0
352558.0 410125.0 0
144390.0 412037.0 0
150326.0 411502.0 0
153295.0 412832.0 0
156273.0 410924.0 0
159278.0 412171.0 0
165262.0 411173.0 0
168224.0 412198.0 0
171092.0 410022.0 0
174077.0 411141.0 0
177098.0 412198.0 0
179972.0 409920.0 0
183041.0 410891.0 0
186089.0 411899.0 0
192420.0 410637.0 0
195826.0 409126.0 0
199738.0 408670.0 0
201702.0 411257.0 0
205089.0 410620.0 0
208573.0 410121.0 0
211913.0 409556.0 0
215125.0 409140.0 0
218307.0 408749.0 0
221689.0 410432.0 0
227183.0 411085.0 0
230228.0 409453.0 0
236079.0 409840.0 0
241950.0 410147.0 0
247818.0 410439.0 0
253708.0 410835.0 0
257482.0 409630.0 0
263661.0 409900.0 0
269538.0 409761.0 0
275425.0 409507.0 0
281512.0 409094.0 0
284668.0 410646.0 0
287953.0 409159.0 0
291805.0 409764.0 0
295225.0 410155.0 0
298768.0 410934.0 0
304292.0 409130.0 0
307669.0 409654.0 0
311223.0 410014.0 0
314414.0 410607.0 0
319690.0 410896.0 0
322963.0 412029.0 0
326047.0 411146.0 0
329063.0 410336.0 0
332119.0 412656.0 0
335010.0 411660.0 0
337882.0 410449.0 0
343659.0 410984.0 0
349585.0 411414.0 0
355636.0 412047.0 0
141370.0 413925.0 0
144336.0 415265.0 0
147339.0 413384.0 0
150317.0 414737.0 0
156302.0 414133.0 0
162306.0 413339.0 0
165327.0 414441.0 0
171203.0 413368.0 0
174202.0 414476.0 0
180159.0 413184.0 0
183269.0 414148.0 0
189052.0 412907.0 0
191865.0 413677.0 0
195053.0 412564.0 0
198215.0 411718.0 0
206765.0 413463.0 0
210065.0 413005.0 0
213245.0 412577.0 0
216328.0 412197.0 0
219239.0 412039.0 0
221570.0 414369.0 0
224288.0 412727.0 0
229851.0 413204.0 0
232957.0 411528.0 0
235699.0 413593.0 0
238819.0 411880.0 0
244663.0 412178.0 0
250460.0 412483.0 0
256212.0 412737.0 0
260713.0 411689.0 0
266787.0 411736.0 0
272631.0 411496.0 0
275758.0 413112.0 0
278708.0 411081.0 0
282073.0 412645.0 0
287064.0 412644.0 0
290285.0 412681.0 0
293683.0 413121.0 0
297067.0 413627.0 0
302345.0 411671.0 0
305914.0 412305.0 0
309490.0 412704.0 0
313008.0 413217.0 0
316763.0 413029.0 0
320046.0 413994.0 0
323264.0 414857.0 0
326238.0 414131.0 0
329197.0 413447.0 0
334841.0 415069.0 0
337775.0 413871.0 0
340712.0 412431.0 0
343580.0 414283.0 0
346595.0 412813.0 0
352642.0 413245.0 0
355804.0 415110.0 0
358794.0 414019.0 0
135231.0 417761.0 0
138319.0 415831.0 0
141305.0 417146.0 0
147327.0 416635.0 0
150347.0 418003.0 0
153328.0 416074.0 0
156374.0 417383.0 0
159340.0 415387.0 0
162397.0 416589.0 0
168335.0 415559.0 0
171353.0 416743.0 0
177219.0 415502.0 0
180257.0 416430.0 0
183319.0 417328.0 0
186442.0 415239.0 0
189706.0 416349.0 0
193497.0 416040.0 0
196804.0 415230.0 0
200069.0 414530.0 0
203447.0 414018.0 0
208461.0 416389.0 0
211769.0 415980.0 0
215046.0 415597.0 0
218293.0 415306.0 0
223983.0 416744.0 0
226800.0 414925.0 0
232557.0 415275.0 0
238477.0 415658.0 0
241559.0 413928.0 0
244295.0 415992.0 0
247357.0 414227.0 0
250098.0 416272.0 0
253125.0 414523.0 0
255923.0 416416.0 0
258820.0 414411.0 0
261617.0 415969.0 0
263962.0 413648.0 0
267159.0 415504.0 0
269918.0 413530.0 0
273075.0 415246.0 0
278846.0 414545.0 0
284992.0 415302.0 0
288561.0 415833.0 0
291992.0 416073.0 0
295435.0 416518.0 0
300551.0 414274.0 0
304105.0 414893.0 0
307708.0 415387.0 0
311263.0 415825.0 0
314921.0 415971.0 0
318228.0 416470.0 0
321633.0 417232.0 0
325360.0 417307.0 0
328661.0 416687.0 0
331827.0 415987.0 0
337482.0 417384.0 0
340538.0 415819.0 0
346572.0 416037.0 0
349623.0 414591.0 0
352784.0 416345.0 0
356023.0 418161.0 0
359043.0 417050.0 0
362023.0 416037.0 0
365312.0 418093.0 0
132101.0 419718.0 0
138234.0 419036.0 0
141266.0 420385.0 0
144315.0 418520.0 0
147349.0 419915.0 0
153402.0 419350.0 0
159450.0 418653.0 0
162546.0 419893.0 0
165456.0 417759.0 0
168514.0 418940.0 0
171575.0 420170.0 0
174374.0 417856.0 0
177412.0 418854.0 0
180492.0 419730.0 0
186354.0 418407.0 0
189058.0 419527.0 0
192039.0 419081.0 0
195348.0 418682.0 0
198561.0 418000.0 0
201818.0 417385.0 0
205147.0 416876.0 0
213720.0 418907.0 0
217157.0 418531.0 0
220656.0 417862.0 0
226266.0 419288.0 0
229339.0 416962.0 0
235401.0 417344.0 0
241232.0 417743.0 0
247079.0 418045.0 0
252954.0 418260.0 0
258855.0 418134.0 0
264547.0 417601.0 0
270342.0 417298.0 0
276269.0 416865.0 0
281808.0 415853.0 0
283226.0 418735.0 0
286672.0 418698.0 0
290235.0 419081.0 0
298885.0 417022.0 0
302397.0 417570.0 0
305970.0 418066.0 0
309557.0 418514.0 0
313174.0 418795.0 0
316643.0 419218.0 0
320095.0 419712.0 0
323802.0 419909.0 0
327549.0 419770.0 0
331043.0 419217.0 0
334397.0 418504.0 0
340293.0 419179.0 0
343470.0 417556.0 0
346700.0 419193.0 0
349745.0 417733.0 0
352978.0 419432.0 0
359334.0 420073.0 0
362343.0 419059.0 0
368642.0 420175.0 0
128930.0 421700.0 0
131951.0 422901.0 0
135115.0 420950.0 0
138170.0 422251.0 0
144323.0 421798.0 0
147401.0 423222.0 0
150412.0 421298.0 0
153508.0 422658.0 0
156490.0 420673.0 0
159608.0 421965.0 0
165652.0 421119.0 0
168767.0 422349.0 0
174626.0 421288.0 0
177705.0 422231.0 0
183642.0 420612.0 0
186799.0 422015.0 0
190129.0 422497.0 0
196813.0 421475.0 0
200142.0 420836.0 0
203497.0 420259.0 0
206892.0 419761.0 0
210296.0 419310.0 0
215818.0 421745.0 0
219424.0 421194.0 0
222983.0 420432.0 0
229228.0 420455.0 0
232319.0 418938.0 0
235064.0 421149.0 0
238151.0 419472.0 0
240928.0 421554.0 0
244032.0 419812.0 0
249957.0 420055.0 0
255931.0 420116.0 0
261832.0 419789.0 0
267571.0 419349.0 0
270677.0 421045.0 0
273606.0 418991.0 0
277041.0 420601.0 0
279509.0 418253.0 0
280934.0 421473.0 0
284793.0 421780.0 0
293730.0 419428.0 0
297225.0 419872.0 0
300738.0 420342.0 0
304294.0 420805.0 0
307878.0 421237.0 0
311491.0 421586.0 0
315042.0 421968.0 0
318590.0 422367.0 0
322256.0 422552.0 0
326010.0 422521.0 0
329772.0 422258.0 0
333424.0 421710.0 0
337029.0 420942.0 0
340680.0 422269.0 0
343656.0 420692.0 0
349929.0 420881.0 0
353229.0 422509.0 0
356290.0 421200.0 0
359644.0 423098.0 0
362682.0 422083.0 0
365683.0 421122.0 0
369047.0 423226.0 0
371999.0 422275.0 0
122505.0 425719.0 0
125728.0 423703.0 0
128752.0 424891.0 0
131832.0 426086.0 0
135022.0 424142.0 0
138136.0 425471.0 0
141256.0 423638.0 0
144364.0 425102.0 0
150503.0 424624.0 0
156640.0 423998.0 0
159802.0 425312.0 0
162752.0 423241.0 0
165917.0 424512.0 0
171881.0 423665.0 0
174949.0 424766.0 0
180860.0 423012.0 0
184155.0 423820.0 0
193433.0 421982.0 0
198389.0 424258.0 0
201813.0 423652.0 0
205261.0 423100.0 0
208748.0 422613.0 0
212265.0 422167.0 0
221670.0 423852.0 0
225299.0 423148.0 0
228653.0 423651.0 0
231978.0 422671.0 0
237752.0 423299.0 0
243829.0 423597.0 0
246924.0 421845.0 0
249907.0 423821.0 0
252938.0 421995.0 0
255970.0 423850.0 0
258952.0 421877.0 0
261992.0 423602.0 0
264836.0 421485.0 0
267932.0 423187.0 0
273786.0 422599.0 0
279817.0 424570.0 0
283173.0 424691.0 0
288398.0 421993.0 0
291981.0 422364.0 0
295524.0 422750.0 0
299072.0 423176.0 0
302637.0 423600.0 0
306227.0 424008.0 0
309840.0 424372.0 0
328134.0 425166.0 0
331778.0 424867.0 0
335213.0 424443.0 0
338163.0 424067.0 0
343848.0 423931.0 0
346888.0 422379.0 0
350188.0 424043.0 0
353478.0 425600.0 0
356571.0 424240.0 0
363021.0 425115.0 0
366054.0 424163.0 0
372409.0 425364.0 0
375361.0 424378.0 0
378713.0 426476.0 0
119271.0 427742.0 0
125532.0 426916.0 0
128615.0 428091.0 0
134965.0 427334.0 0
138145.0 428692.0 0
141283.0 426902.0 0
147483.0 426564.0 0
150624.0 427984.0 0
153639.0 425994.0 0
156807.0 427354.0 0
162994.0 426617.0 0
166218.0 427917.0 0
169115.0 425777.0 0
172333.0 427268.0 0
178051.0 425593.0 0
181265.0 426200.0 0
184591.0 426664.0 0
187757.0 425380.0 0
191434.0 425300.0 0
194928.0 424809.0 0
200089.0 427033.0 0
203577.0 426440.0 0
207111.0 425897.0 0
210694.0 425408.0 0
214317.0 424949.0 0
217987.0 424447.0 0
223710.0 426662.0 0
227237.0 426590.0 0
231072.0 426309.0 0
234505.0 425013.0 0
240633.0 425297.0 0
246822.0 425622.0 0
252941.0 425760.0 0
259022.0 425653.0 0
265108.0 425311.0 0
271100.0 424893.0 0
274166.0 426528.0 0
276695.0 424021.0 0
286713.0 424995.0 0
290254.0 425292.0 0
293817.0 425659.0 0
297387.0 426043.0 0
300974.0 426437.0 0
304579.0 426821.0 0
313437.0 424735.0 0
317039.0 425080.0 0
320708.0 425285.0 0
324420.0 425307.0 0
333922.0 427610.0 0
337595.0 427410.0 0
340925.0 425809.0 0
344227.0 427133.0 0
347187.0 425567.0 0
353712.0 428692.0 0
356835.0 427280.0 0
359946.0 426128.0 0
363294.0 428177.0 0
366375.0 427233.0 0
369413.0 426304.0 0
372751.0 428490.0 0
375755.0 427518.0 0
382033.0 428555.0 0
116035.0 429767.0 0
119076.0 431021.0 0
122303.0 428963.0 0
125387.0 430144.0 0
131754.0 429273.0 0
134950.0 430521.0 0
141356.0 430174.0 0
144443.0 428440.0 0
147596.0 429951.0 0
153799.0 429363.0 0
157007.0 430763.0 0
159992.0 428689.0 0
163180.0 430013.0 0
169519.0 429146.0 0
175471.0 428301.0 0
178878.0 428888.0 0
182428.0 429290.0 0
186225.0 429033.0 0
189556.0 428371.0 0
193128.0 428108.0 0
196614.0 427609.0 0
205400.0 429187.0 0
209023.0 428641.0 0
212683.0 428155.0 0
216369.0 427677.0 0
220058.0 427176.0 0
233763.0 428775.0 0
237294.0 427048.0 0
240446.0 428910.0 0
243680.0 427333.0 0
249847.0 427590.0 0
256021.0 427630.0 0
262101.0 427388.0 0
265203.0 429035.0 0
268380.0 426971.0 0
271674.0 429155.0 0
277698.0 427442.0 0
281338.0 427775.0 0
284909.0 427978.0 0
288497.0 428271.0 0
292081.0 428588.0 0
295678.0 428941.0 0
299289.0 429303.0 0
308204.0 427179.0 0
311831.0 427524.0 0
315470.0 427842.0 0
319149.0 428060.0 0
322858.0 428142.0 0
326568.0 428083.0 0
330258.0 427898.0 0
335599.0 430540.0 0
338777.0 430575.0 0
341255.0 428999.0 0
347430.0 428852.0 0
350429.0 427286.0 0
353816.0 431807.0 0
357007.0 430340.0 0
360171.0 429185.0 0
366631.0 430333.0 0
369708.0 429420.0 0
376024.0 430715.0 0
379053.0 429686.0 0
385313.0 430611.0 0
109562.0 433817.0 0
112799.0 431792.0 0
115858.0 433080.0 0
122162.0 432231.0 0
125294.0 433390.0 0
128525.0 431298.0 0
131720.0 432458.0 0
134975.0 433693.0 0
138196.0 431907.0 0
141478.0 433438.0 0
144569.0 431829.0 0
147745.0 433404.0 0
150759.0 431383.0 0
153951.0 432759.0 0
160236.0 432132.0 0
163520.0 433510.0 0
166345.0 431295.0 0
169505.0 432253.0 0
172863.0 431015.0 0
176525.0 431582.0 0
180251.0 431960.0 0
184086.0 431985.0 0
187782.0 431765.0 0
191285.0 431311.0 0
194848.0 430964.0 0
198332.0 430413.0 0
201836.0 429792.0 0
207284.0 431875.0 0
210965.0 431360.0 0
214654.0 430901.0 0
218337.0 430458.0 0
222002.0 430029.0 0
225637.0 429761.0 0
229452.0 429476.0 0
237162.0 430624.0 0
243494.0 431083.0 0
246691.0 429419.0 0
249745.0 431346.0 0
252927.0 429549.0 0
256083.0 431402.0 0
259160.0 429480.0 0
262369.0 431241.0 0
268267.0 430453.0 0
275417.0 430082.0 0
279264.0 430626.0 0
283007.0 430963.0 0
286665.0 431235.0 0
290303.0 431539.0 0
293934.0 431859.0 0
297574.0 432196.0 0
302916.0 429664.0 0
306560.0 430009.0 0
310214.0 430339.0 0
313881.0 430640.0 0
317574.0 430871.0 0
321283.0 431001.0 0
324980.0 431020.0 0
328629.0 430934.0 0
332189.0 430754.0 0
341447.0 432802.0 0
344345.0 430366.0 0
347860.0 432073.0 0
350713.0 430619.0 0
357292.0 433330.0 0
360409.0 432230.0 0
363527.0 431255.0 0
366699.0 433505.0 0
369843.0 432601.0 0
372952.0 431678.0 0
376119.0 433974.0 0
379233.0 432957.0 0
382300.0 431843.0 0
385500.0 433980.0 0
388550.0 432640.0 0
106321.0 435846.0 0
112649.0 435131.0 0
118957.0 434334.0 0
122093.0 435530.0 0
128474.0 434511.0 0
131704.0 435630.0 0
138279.0 435104.0 0
141618.0 436651.0 0
144739.0 435298.0 0
150920.0 434838.0 0
154187.0 436191.0 0
157161.0 434216.0 0
160290.0 435576.0 0
163266.0 436847.0 0
166983.0 434797.0 0
170990.0 434776.0 0
174471.0 434396.0 0
178188.0 434695.0 0
181997.0 434833.0 0
185774.0 434808.0 0
189467.0 434591.0 0
193053.0 434232.0 0
196628.0 433850.0 0
200084.0 433193.0 0
203635.0 432497.0 0
212868.0 434121.0 0
216529.0 433724.0 0
220168.0 433350.0 0
223773.0 433041.0 0
227390.0 432750.0 0
230941.0 432542.0 0
234322.0 432389.0 0
240165.0 432485.0 0
246504.0 433275.0 0
252888.0 433348.0 0
259337.0 433304.0 0
265701.0 432933.0 0
270428.0 432840.0 0
273842.0 433103.0 0
277412.0 433454.0 0
281115.0 433863.0 0
284817.0 434192.0 0
288493.0 434489.0 0
292160.0 434795.0 0
301227.0 432533.0 0
304894.0 432862.0 0
308575.0 433176.0 0
312270.0 433466.0 0
315985.0 433706.0 0
319711.0 433873.0 0
323431.0 433957.0 0
327116.0 433958.0 0
330743.0 433879.0 0
334296.0 433728.0 0
337808.0 433595.0 0
344839.0 433263.0 0
347444.0 435405.0 0
350828.0 434246.0 0
354189.0 434659.0 0
356960.0 436493.0 0
360294.0 435400.0 0
363521.0 434423.0 0
369763.0 435839.0 0
372962.0 434928.0 0
379236.0 436283.0 0
382393.0 435192.0 0
388655.0 436088.0 0
391750.0 434646.0 0
394926.0 436637.0 0
99818.4 439917.0 0
103075.0 437878.0 0
106223.0 439239.0 0
109437.0 437180.0 0
112601.0 438506.0 0
115773.0 436433.0 0
118929.0 437688.0 0
125269.0 436662.0 0
128489.0 437742.0 0
131759.0 438814.0 0
134983.0 436832.0 0
138270.0 438270.0 0
141527.0 439700.0 0
147897.0 436948.0 0
151181.0 438300.0 0
154566.0 439586.0 0
157466.0 437840.0 0
160567.0 439298.0 0
166030.0 438042.0 0
169268.0 437718.0 0
172837.0 437687.0 0
176341.0 437603.0 0
180036.0 437720.0 0
183790.0 437769.0 0
187539.0 437693.0 0
191238.0 437478.0 0
194881.0 437158.0 0
198493.0 436770.0 0
201876.0 435881.0 0
205506.0 435112.0 0
209190.0 434562.0 0
214665.0 436979.0 0
218293.0 436649.0 0
221904.0 436352.0 0
225512.0 436080.0 0
229107.0 435866.0 0
232706.0 435709.0 0
236365.0 435317.0 0
239805.0 435751.0 0
243252.0 434845.0 0
249617.0 435026.0 0
256103.0 435097.0 0
262723.0 435019.0 0
268137.0 435669.0 0
271912.0 436167.0 0
275586.0 436468.0 0
279257.0 436791.0 0
282962.0 437132.0 0
286666.0 437445.0 0
295828.0 435108.0 0
299507.0 435424.0 0
303198.0 435734.0 0
306905.0 436034.0 0
310626.0 436314.0 0
314365.0 436557.0 0
318115.0 436750.0 0
321863.0 436881.0 0
325591.0 436949.0 0
329277.0 436949.0 0
332909.0 436873.0 0
336488.0 436690.0 0
340135.0 436170.0 0
343640.0 435955.0 0
349871.0 437776.0 0
353172.0 437387.0 0
359779.0 438534.0 0
363207.0 437628.0 0
366517.0 436732.0 0
372774.0 438215.0 0
376029.0 437281.0 0
382307.0 438593.0 0
385507.0 437406.0 0
388589.0 439591.0 0
391780.0 438157.0 0
398096.0 438622.0 0
96553.5 441962.0 0
102998.0 441304.0 0
106243.0 442655.0 0
109428.0 440575.0 0
115797.0 439830.0 0
119011.0 441090.0 0
122116.0 438869.0 0
125339.0 439966.0 0
128606.0 440993.0 0
135085.0 439988.0 0
138433.0 441556.0 0
144854.0 438900.0 0
148220.0 440516.0 0
151532.0 441758.0 0
154894.0 442758.0 0
158025.0 441686.0 0
163671.0 440535.0 0
167360.0 440968.0 0
170921.0 440784.0 0
174536.0 440754.0 0
178156.0 440719.0 0
193067.0 440402.0 0
196771.0 440096.0 0
200465.0 439747.0 0
203716.0 438380.0 0
207365.0 437755.0 0
211023.0 437334.0 0
219974.0 439651.0 0
223597.0 439398.0 0
227214.0 439178.0 0
230839.0 438993.0 0
234499.0 438756.0 0
238082.0 438744.0 0
241976.0 438514.0 0
245684.0 437650.0 0
249232.0 438455.0 0
252768.0 437214.0 0
256150.0 438588.0 0
259470.0 437104.0 0
262827.0 438619.0 0
266394.0 438745.0 0
270035.0 439104.0 0
273745.0 439486.0 0
277436.0 439795.0 0
290361.0 437742.0 0
294056.0 438039.0 0
297758.0 438335.0 0
301471.0 438628.0 0
305199.0 438912.0 0
308944.0 439180.0 0
312705.0 439423.0 0
316479.0 439630.0 0
320257.0 439794.0 0
324025.0 439911.0 0
327771.0 439976.0 0
331482.0 439974.0 0
335157.0 439863.0 0
338806.0 439438.0 0
342528.0 438933.0 0
346247.0 438440.0 0
352398.0 440561.0 0
356076.0 439344.0 0
359064.0 441496.0 0
362652.0 440775.0 0
366104.0 439958.0 0
369469.0 439102.0 0
372393.0 441513.0 0
375753.0 440615.0 0
379058.0 439651.0 0
385349.0 440883.0 0
391658.0 441715.0 0
394899.0 440193.0 0
401282.0 440615.0 0
404507.0 442632.0 0
93285.0 444010.0 0
99762.8 443382.0 0
103043.0 444748.0 0
112677.0 441916.0 0
115951.0 443281.0 0
122244.0 442249.0 0
125507.0 443295.0 0
131932.0 442003.0 0
135349.0 443107.0 0
138842.0 444898.0 0
141871.0 442661.0 0
145363.0 442493.0 0
181860.0 440756.0 0
185602.0 440740.0 0
189345.0 440625.0 0
202382.0 442859.0 0
205370.0 440908.0 0
209058.0 440517.0 0
212708.0 440214.0 0
216346.0 439924.0 0
228896.0 442296.0 0
232539.0 442107.0 0
236150.0 441991.0 0
239818.0 441815.0 0
243399.0 441715.0 0
246876.0 441391.0 0
250530.0 441668.0 0
254001.0 441497.0 0
257699.0 441723.0 0
261146.0 441784.0 0
264725.0 441989.0 0
268302.0 442204.0 0
281130.0 440101.0 0
284839.0 440409.0 0
288552.0 440703.0 0
292266.0 440988.0 0
295986.0 441269.0 0
299717.0 441544.0 0
303462.0 441811.0 0
307224.0 442066.0 0
311004.0 442303.0 0
314799.0 442516.0 0
318601.0 442700.0 0
322402.0 442851.0 0
326191.0 442966.0 0
329962.0 443029.0 0
333719.0 443001.0 0
337487.0 442766.0 0
341370.0 441895.0 0
345172.0 441485.0 0
348872.0 441040.0 0
355438.0 442225.0 0
361975.0 443855.0 0
365508.0 443149.0 0
368981.0 442360.0 0
375278.0 443957.0 0
378696.0 443040.0 0
382053.0 442028.0 0
385028.0 444393.0 0
388370.0 443141.0 0
394749.0 443780.0 0
398040.0 442200.0 0
401231.0 444188.0 0
407780.0 444678.0 0
90020.3 446056.0 0
93284.1 447587.0 0
96521.8 445476.0 0
99832.3 446862.0 0
106377.0 446086.0 0
109542.0 443991.0 0
112886.0 445353.0 0
119223.0 444550.0 0
122512.0 445676.0 0
128810.0 444248.0 0
132157.0 445155.0 0
135577.0 446046.0 0
142419.0 445636.0 0
145913.0 445836.0 0
148924.0 444239.0 0
152485.0 445244.0 0
156285.0 445666.0 0
161363.0 443119.0 0
165137.0 443682.0 0
168945.0 443895.0 0
172613.0 443840.0 0
176282.0 443823.0 0
179958.0 443807.0 0
183676.0 443801.0 0
187417.0 443741.0 0
191160.0 443591.0 0
194901.0 443352.0 0
198643.0 443068.0 0
206860.0 443572.0 0
210601.0 443390.0 0
214293.0 443161.0 0
217963.0 442923.0 0
221616.0 442694.0 0
225258.0 442484.0 0
241452.0 445056.0 0
245062.0 444916.0 0
248586.0 444852.0 0
252220.0 444929.0 0
255776.0 444926.0 0
271940.0 442509.0 0
275625.0 442826.0 0
279320.0 443117.0 0
283025.0 443403.0 0
286742.0 443686.0 0
290467.0 443960.0 0
294200.0 444226.0 0
297942.0 444485.0 0
301699.0 444735.0 0
305472.0 444974.0 0
309264.0 445200.0 0
335854.0 446047.0 0
340382.0 444800.0 0
344092.0 444486.0 0
347811.0 444180.0 0
351503.0 443849.0 0
354853.0 444989.0 0
358433.0 444489.0 0
364711.0 446324.0 0
368283.0 445603.0 0
371806.0 444811.0 0
378127.0 446428.0 0
381615.0 445476.0 0
387995.0 446724.0 0
391403.0 445310.0 0
397900.0 445786.0 0
404494.0 446191.0 0
407834.0 448234.0 0
411103.0 446754.0 0
83552.9 450118.0 0
86769.7 448097.0 0
90060.6 449715.0 0
96629.8 449010.0 0
100032.0 450367.0 0
103198.0 448208.0 0
106614.0 449528.0 0
109766.0 447415.0 0
116249.0 446802.0 0
119588.0 448071.0 0
125848.0 446655.0 0
129240.0 447528.0 0
132700.0 448317.0 0
136320.0 448819.0 0
139741.0 448263.0 0
143382.0 448695.0 0
146937.0 448871.0 0
150205.0 447952.0 0
153898.0 448523.0 0
159670.0 446113.0 0
163211.0 446502.0 0
166917.0 446790.0 0
170656.0 446916.0 0
174347.0 446914.0 0
178041.0 446910.0 0
181747.0 446896.0 0
185477.0 446864.0 0
189217.0 446774.0 0
192952.0 446592.0 0
196690.0 446343.0 0
200442.0 446112.0 0
204229.0 446016.0 0
208298.0 446406.0 0
212120.0 446316.0 0
215866.0 446145.0 0
219570.0 445957.0 0
223247.0 445773.0 0
226908.0 445599.0 0
230560.0 445434.0 0
234195.0 445301.0 0
237838.0 445161.0 0
259382.0 445099.0 0
262957.0 445209.0 0
266561.0 445401.0 0
270178.0 445626.0 0
273834.0 445893.0 0
277522.0 446168.0 0
281224.0 446436.0 0
284940.0 446700.0 0
288667.0 446959.0 0
292406.0 447211.0 0
296155.0 447455.0 0
299917.0 447689.0 0
313074.0 445412.0 0
316897.0 445607.0 0
320719.0 445782.0 0
324533.0 445935.0 0
328330.0 446056.0 0
332104.0 446117.0 0
339066.0 447530.0 0
342824.0 447513.0 0
346511.0 447292.0 0
350176.0 447083.0 0
353647.0 447593.0 0
357441.0 447481.0 0
361106.0 446967.0 0
367371.0 448828.0 0
371001.0 448095.0 0
374586.0 447294.0 0
380954.0 448906.0 0
384524.0 447913.0 0
391008.0 448920.0 0
394499.0 447381.0 0
401148.0 447746.0 0
404535.0 449731.0 0
411180.0 450331.0 0
414453.0 448850.0 0
417818.0 450956.0 0
80392.7 452097.0 0
86859.7 451867.0 0
93445.0 451187.0 0
96889.7 452568.0 0
103479.0 451692.0 0
106957.0 452990.0 0
113215.0 448786.0 0
116692.0 450410.0 0
122980.0 449128.0 0
126456.0 450013.0 0
130027.0 450779.0 0
133721.0 451361.0 0
137500.0 451575.0 0
141009.0 451503.0 0
144636.0 451797.0 0
148277.0 451795.0 0
151731.0 451471.0 0
157540.0 449039.0 0
161198.0 449457.0 0
164879.0 449736.0 0
168608.0 449911.0 0
172346.0 449995.0 0
176065.0 450013.0 0
179786.0 450018.0 0
183515.0 450003.0 0
187253.0 449957.0 0
190987.0 449851.0 0
194695.0 449636.0 0
198415.0 449382.0 0
202170.0 449191.0 0
205960.0 449171.0 0
209880.0 449340.0 0
213708.0 449290.0 0
217470.0 449170.0 0
221189.0 449029.0 0
224881.0 448885.0 0
228554.0 448743.0 0
232210.0 448617.0 0
235862.0 448497.0 0
239498.0 448396.0 0
243128.0 448297.0 0
246728.0 448235.0 0
250320.0 448217.0 0
253939.0 448269.0 0
257533.0 448340.0 0
261156.0 448474.0 0
264772.0 448614.0 0
268405.0 448802.0 0
272055.0 449019.0 0
275731.0 449258.0 0
279429.0 449505.0 0
283143.0 449749.0 0
286870.0 449991.0 0
290610.0 450227.0 0
303694.0 447912.0 0
307491.0 448123.0 0
311307.0 448322.0 0
315143.0 448516.0 0
318987.0 448709.0 0
322821.0 448892.0 0
326634.0 449064.0 0
330416.0 449211.0 0
334148.0 449292.0 0
337580.0 450258.0 0
341326.0 450454.0 0
345067.0 450393.0 0
348747.0 450245.0 0
352331.0 450378.0 0
356121.0 450335.0 0
359953.0 450022.0 0
363693.0 449483.0 0
369994.0 451356.0 0
373683.0 450613.0 0
377336.0 449798.0 0
383753.0 451396.0 0
387434.0 450333.0 0
394143.0 450958.0 0
397718.0 449359.0 0
401226.0 451246.0 0
404562.0 453312.0 0
407877.0 451812.0 0
414527.0 452456.0 0
421192.0 453068.0 0
74492.0 455771.0 0
83698.9 454043.0 0
87183.7 455665.0 0
90283.8 453396.0 0
93773.6 454809.0 0
100379.0 453899.0 0
103903.0 455201.0 0
110073.0 450827.0 0
113593.0 452156.0 0
120147.0 451622.0 0
123702.0 452552.0 0
127372.0 453303.0 0
131132.0 453916.0 0
134955.0 454330.0 0
138712.0 454569.0 0
142364.0 454682.0 0
146092.0 454850.0 0
149781.0 454834.0 0
155362.0 451900.0 0
159065.0 452330.0 0
162792.0 452691.0 0
166530.0 452907.0 0
170282.0 453038.0 0
174032.0 453109.0 0
177772.0 453140.0 0
181515.0 453150.0 0
185260.0 453137.0 0
189005.0 453089.0 0
192731.0 452985.0 0
196395.0 452713.0 0
200116.0 452433.0 0
203876.0 452288.0 0
207675.0 452282.0 0
211530.0 452351.0 0
215337.0 452323.0 0
219095.0 452244.0 0
222818.0 452142.0 0
226517.0 452032.0 0
230198.0 451924.0 0
233867.0 451821.0 0
237525.0 451730.0 0
241174.0 451648.0 0
244808.0 451590.0 0
248433.0 451561.0 0
252055.0 451574.0 0
255685.0 451637.0 0
259314.0 451727.0 0
262957.0 451855.0 0
266603.0 452006.0 0
270263.0 452188.0 0
273940.0 452392.0 0
277635.0 452610.0 0
281348.0 452833.0 0
294361.0 450456.0 0
298124.0 450675.0 0
301902.0 450882.0 0
305696.0 451077.0 0
309509.0 451260.0 0
313343.0 451439.0 0
317198.0 451624.0 0
321061.0 451837.0 0
324892.0 452051.0 0
328686.0 452267.0 0
332429.0 452476.0 0
335995.0 453073.0 0
339730.0 453375.0 0
343513.0 453428.0 0
347272.0 453357.0 0
350978.0 453341.0 0
354762.0 453242.0 0
358617.0 452995.0 0
362469.0 452584.0 0
366260.0 452021.0 0
372598.0 453908.0 0
376340.0 453156.0 0
380053.0 452321.0 0
386481.0 453906.0 0
390459.0 452521.0 0
394871.0 454349.0 0
398002.0 452816.0 0
404506.0 456952.0 0
407863.0 455428.0 0
411206.0 453941.0 0
414540.0 456098.0 0
417881.0 454598.0 0
424572.0 455184.0 0
71256.3 457789.0 0
74561.8 459372.0 0
77897.6 454777.0 0
81016.8 456749.0 0
90713.1 457106.0 0
94259.0 458462.0 0
97303.3 456149.0 0
100873.0 457447.0 0
107447.0 456487.0 0
110452.0 454240.0 0
113997.0 455400.0 0
117335.0 454113.0 0
120958.0 455143.0 0
124730.0 455881.0 0
128559.0 456504.0 0
140052.0 457638.0 0
143803.0 457801.0 0
147556.0 457932.0 0
153328.0 454898.0 0
156967.0 455238.0 0
160670.0 455603.0 0
164419.0 455893.0 0
168182.0 456072.0 0
171948.0 456186.0 0
198102.0 455756.0 0
201825.0 455487.0 0
205589.0 455385.0 0
209382.0 455387.0 0
213193.0 455426.0 0
220727.0 455366.0 0
224451.0 455295.0 0
228157.0 455214.0 0
231848.0 455131.0 0
235527.0 455053.0 0
239198.0 454984.0 0
242859.0 454931.0 0
246511.0 454900.0 0
250158.0 454899.0 0
253805.0 454935.0 0
257457.0 455006.0 0
261114.0 455106.0 0
264779.0 455235.0 0
268452.0 455387.0 0
285075.0 453056.0 0
288815.0 453276.0 0
292566.0 453490.0 0
296329.0 453695.0 0
300103.0 453888.0 0
303891.0 454069.0 0
307693.0 454236.0 0
311515.0 454394.0 0
315358.0 454554.0 0
319226.0 454743.0 0
323113.0 455016.0 0
326926.0 455287.0 0
330689.0 455570.0 0
334349.0 455993.0 0
338092.0 456327.0 0
341904.0 456443.0 0
345726.0 456420.0 0
349530.0 456358.0 0
353362.0 456226.0 0
357232.0 455989.0 0
361120.0 455639.0 0
364992.0 455169.0 0
368819.0 454585.0 0
375177.0 456498.0 0
378958.0 455733.0 0
382713.0 454875.0 0
388543.0 456792.0 0
391775.0 455766.0 0
397985.0 456464.0 0
401266.0 454864.0 0
407771.0 459074.0 0
411170.0 457582.0 0
417876.0 458280.0 0
421238.0 456751.0 0
424596.0 458909.0 0
427955.0 457302.0 0
64756.3 461869.0 0
68011.4 459826.0 0
71365.8 461486.0 0
78120.9 459163.0 0
84361.0 458176.0 0
87791.9 459536.0 0
97838.3 459748.0 0
104478.0 458725.0 0
108117.0 460026.0 0
110991.0 457699.0 0
114564.0 458570.0 0
118268.0 457848.0 0
122143.0 458528.0 0
126029.0 459140.0 0
132419.0 457001.0 0
136260.0 457376.0 0
151222.0 458054.0 0
154858.0 458248.0 0
158546.0 458559.0 0
162281.0 458859.0 0
166052.0 459095.0 0
169830.0 459255.0 0
175711.0 456256.0 0
179469.0 456294.0 0
183229.0 456310.0 0
186992.0 456304.0 0
190749.0 456269.0 0
194484.0 456188.0 0
203518.0 458550.0 0
207283.0 458498.0 0
211062.0 458519.0 0
216976.0 455415.0 0
272137.0 455561.0 0
275837.0 455751.0 0
279551.0 455951.0 0
283279.0 456155.0 0
287019.0 456358.0 0
290771.0 456556.0 0
294533.0 456748.0 0
298304.0 456930.0 0
302085.0 457099.0 0
305876.0 457255.0 0
309679.0 457397.0 0
313496.0 457531.0 0
317334.0 457674.0 0
321211.0 457871.0 0
325146.0 458277.0 0
328948.0 458605.0 0
332700.0 459005.0 0
355805.0 459021.0 0
359717.0 458703.0 0
363627.0 458291.0 0
367516.0 457783.0 0
371366.0 457182.0 0
381473.0 458408.0 0
385105.0 457596.0 0
391202.0 459434.0 0
394660.0 458027.0 0
401133.0 458536.0 0
404339.0 460607.0 0
411059.0 461248.0 0
414484.0 459773.0 0
421211.0 460477.0 0
427955.0 461071.0 0
431341.0 459423.0 0
434727.0 461545.0 0
61479.5 463923.0 0
68166.0 463624.0 0
74825.7 462958.0 0
78496.8 463184.0 0
81467.3 460709.0 0
84890.8 462086.0 0
91292.9 460873.0 0
94849.2 462146.0 0
101459.0 460996.0 0
105120.0 462236.0 0
108820.0 463584.0 0
111821.0 461220.0 0
119778.0 461345.0 0
123623.0 461868.0 0
129920.0 459674.0 0
133802.0 460118.0 0
137655.0 460475.0 0
141479.0 460741.0 0
145267.0 460935.0 0
173605.0 459363.0 0
177377.0 459433.0 0
181151.0 459477.0 0
184928.0 459501.0 0
188706.0 459508.0 0
192478.0 459499.0 0
196221.0 459497.0 0
199786.0 458758.0 0
214846.0 458555.0 0
218613.0 458559.0 0
222360.0 458532.0 0
226088.0 458484.0 0
229802.0 458426.0 0
233505.0 458365.0 0
237199.0 458309.0 0
240884.0 458262.0 0
244562.0 458232.0 0
248235.0 458225.0 0
251904.0 458245.0 0
255576.0 458295.0 0
259251.0 458375.0 0
262932.0 458480.0 0
266621.0 458609.0 0
270318.0 458757.0 0
274026.0 458923.0 0
277746.0 459100.0 0
281479.0 459284.0 0
285222.0 459470.0 0
288976.0 459654.0 0
292738.0 459834.0 0
296509.0 460005.0 0
300286.0 460166.0 0
304069.0 460314.0 0
307855.0 460447.0 0
311646.0 460567.0 0
315440.0 460680.0 0
319246.0 460803.0 0
336444.0 459345.0 0
340277.0 459477.0 0
344143.0 459475.0 0
348016.0 459396.0 0
351903.0 459249.0 0
362208.0 461418.0 0
366131.0 460966.0 0
370031.0 460434.0 0
373895.0 459825.0 0
377714.0 459145.0 0
384041.0 461202.0 0
387675.0 460453.0 0
394156.0 461644.0 0
397703.0 460134.0 0
404072.0 464245.0 0
407595.0 462725.0 0
414356.0 463477.0 0
417799.0 462001.0 0
424542.0 462679.0 0
431315.0 463236.0 0
438105.0 463661.0 0
58165.4 465999.0 0
64941.4 465745.0 0
68469.7 467465.0 0
71654.7 465212.0 0
75224.5 466597.0 0
81943.7 464642.0 0
88369.8 463390.0 0
91903.2 464648.0 0
98445.7 463369.0 0
102079.0 464547.0 0
105757.0 465726.0 0
110868.0 466602.0 0
116057.0 461399.0 0
127497.0 462395.0 0
131380.0 462868.0 0
135253.0 463280.0 0
139112.0 463617.0 0
142944.0 463893.0 0
149008.0 461129.0 0
152712.0 461325.0 0
156409.0 461570.0 0
160137.0 461853.0 0
163899.0 462112.0 0
167679.0 462317.0 0
171461.0 462465.0 0
175243.0 462568.0 0
179026.0 462639.0 0
182813.0 462687.0 0
186605.0 462722.0 0
190398.0 462751.0 0
194182.0 462795.0 0
197942.0 462894.0 0
201412.0 461755.0 0
205169.0 461640.0 0
208938.0 461642.0 0
212710.0 461687.0 0
216482.0 461730.0 0
220244.0 461745.0 0
223994.0 461734.0 0
227731.0 461703.0 0
231458.0 461663.0 0
235175.0 461621.0 0
238885.0 461584.0 0
242588.0 461557.0 0
246285.0 461547.0 0
249979.0 461558.0 0
253672.0 461594.0 0
257367.0 461655.0 0
261066.0 461741.0 0
264771.0 461849.0 0
268482.0 461976.0 0
272202.0 462120.0 0
275931.0 462276.0 0
279671.0 462441.0 0
283420.0 462611.0 0
287178.0 462781.0 0
290944.0 462948.0 0
294717.0 463110.0 0
298494.0 463264.0 0
323087.0 460990.0 0
327206.0 461626.0 0
330970.0 461999.0 0
334751.0 462434.0 0
338639.0 462552.0 0
342550.0 462552.0 0
346471.0 462457.0 0
350402.0 462299.0 0
354338.0 462080.0 0
358275.0 461789.0 0
364698.0 464154.0 0
368627.0 463676.0 0
372534.0 463131.0 0
376409.0 462523.0 0
380246.0 461863.0 0
386727.0 464063.0 0
390486.0 463121.0 0
397305.0 463767.0 0
400853.0 462202.0 0
407366.0 466361.0 0
410882.0 464926.0 0
417640.0 465760.0 0
421107.0 464250.0 0
424422.0 466495.0 0
427874.0 464883.0 0
434667.0 465428.0 0
441481.0 465776.0 0
54810.6 468098.0 0
58322.6 469964.0 0
61661.4 467849.0 0
65213.0 469653.0 0
72087.6 468980.0 0
78949.2 467172.0 0
82492.5 468561.0 0
85446.8 465974.0 0
88992.2 467230.0 0
95475.9 465850.0 0
99065.2 467008.0 0
102640.0 468111.0 0
113685.0 464250.0 0
117599.0 464498.0 0
121354.0 464751.0 0
125170.0 465213.0 0
129019.0 465674.0 0
132880.0 466104.0 0
136746.0 466482.0 0
140598.0 466809.0 0
146738.0 464136.0 0
150500.0 464372.0 0
154239.0 464616.0 0
157977.0 464880.0 0
161733.0 465145.0 0
165508.0 465380.0 0
169291.0 465565.0 0
173076.0 465702.0 0
176863.0 465800.0 0
180656.0 465871.0 0
202987.0 464775.0 0
206775.0 464767.0 0
210555.0 464823.0 0
214331.0 464890.0 0
218106.0 464941.0 0
221874.0 464964.0 0
225634.0 464964.0 0
229385.0 464947.0 0
233127.0 464922.0 0
236862.0 464896.0 0
240590.0 464875.0 0
244312.0 464866.0 0
248030.0 464872.0 0
251746.0 464898.0 0
255462.0 464946.0 0
259180.0 465015.0 0
262902.0 465105.0 0
266628.0 465214.0 0
270362.0 465338.0 0
274103.0 465476.0 0
277852.0 465623.0 0
281609.0 465777.0 0
302275.0 463407.0 0
306055.0 463537.0 0
309831.0 463653.0 0
313600.0 463757.0 0
317356.0 463853.0 0
321096.0 463951.0 0
324844.0 464048.0 0
329516.0 465177.0 0
333169.0 465663.0 0
337009.0 465668.0 0
340967.0 465664.0 0
344944.0 465555.0 0
348902.0 465382.0 0
352853.0 465170.0 0
356805.0 464900.0 0
360755.0 464562.0 0
371109.0 466430.0 0
375022.0 465879.0 0
378911.0 465273.0 0
382790.0 464629.0 0
389561.0 466846.0 0
393673.0 465200.0 0
400493.0 465869.0 0
403800.0 467850.0 0
410643.0 468622.0 0
414150.0 467212.0 0
417500.0 469570.0 0
420969.0 468068.0 0
427710.0 468747.0 0
431196.0 467094.0 0
434548.0 469376.0 0
438012.0 467591.0 0
444856.0 467890.0 0
61874.0 471796.0 0
68937.0 471342.0 0
75748.8 470306.0 0
79505.0 471140.0 0
86079.0 469852.0 0
92575.7 468430.0 0
96184.8 469582.0 0
106136.0 469163.0 0
109538.0 469871.0 0
115333.0 467409.0 0
119150.0 467792.0 0
122915.0 468150.0 0
126717.0 468569.0 0
130547.0 468982.0 0
134396.0 469370.0 0
138251.0 469724.0 0
144430.0 467102.0 0
148235.0 467377.0 0
152018.0 467650.0 0
155783.0 467925.0 0
159547.0 468197.0 0
163318.0 468451.0 0
167097.0 468668.0 0
184455.0 465925.0 0
188260.0 465975.0 0
192067.0 466039.0 0
195870.0 466147.0 0
199666.0 466334.0 0
204527.0 467846.0 0
208347.0 467937.0 0
212145.0 468039.0 0
215939.0 468121.0 0
219728.0 468178.0 0
223511.0 468208.0 0
227286.0 468216.0 0
231054.0 468210.0 0
234815.0 468197.0 0
238569.0 468185.0 0
242316.0 468179.0 0
246059.0 468185.0 0
249798.0 468205.0 0
253536.0 468243.0 0
257274.0 468300.0 0
261014.0 468375.0 0
285375.0 465933.0 0
289147.0 466089.0 0
292925.0 466242.0 0
296708.0 466389.0 0
300492.0 466528.0 0
304275.0 466656.0 0
308054.0 466773.0 0
311824.0 466877.0 0
315577.0 466970.0 0
319306.0 467052.0 0
323005.0 467101.0 0
326675.0 466959.0 0
332714.0 469268.0 0
336352.0 469155.0 0
340002.0 468997.0 0
343705.0 468759.0 0
347518.0 468531.0 0
351410.0 468308.0 0
355338.0 468046.0 0
359283.0 467732.0 0
363232.0 467358.0 0
367177.0 466924.0 0
377478.0 468682.0 0
381363.0 468077.0 0
385233.0 467427.0 0
387636.0 470207.0 0
393016.0 468702.0 0
396862.0 467418.0 0
400243.0 469556.0 0
403567.0 471435.0 0
407114.0 469994.0 0
410472.0 472357.0 0
414000.0 470995.0 0
420710.0 471945.0 0
424218.0 470376.0 0
431002.0 470991.0 0
441344.0 469748.0 0
65657.5 473579.0 0
69539.1 475250.0 0
72661.2 472806.0 0
76409.4 474081.0 0
83139.8 472471.0 0
86804.2 473727.0 0
89695.9 471065.0 0
93343.2 472218.0 0
99807.9 470696.0 0
103427.0 471776.0 0
107083.0 472719.0 0
113107.0 470218.0 0
116877.0 470774.0 0
120652.0 471173.0 0
124432.0 471547.0 0
128241.0 471932.0 0
132073.0 472308.0 0
135920.0 472664.0 0
142100.0 470048.0 0
145935.0 470356.0 0
149750.0 470660.0 0
153546.0 470961.0 0
157329.0 471256.0 0
161105.0 471533.0 0
164882.0 471779.0 0
170881.0 468838.0 0
174670.0 468964.0 0
178465.0 469056.0 0
182268.0 469127.0 0
186078.0 469188.0 0
189897.0 469258.0 0
193722.0 469361.0 0
197556.0 469529.0 0
201398.0 469795.0 0
206053.0 470982.0 0
209903.0 471155.0 0
213733.0 471281.0 0
264757.0 468467.0 0
268506.0 468575.0 0
272260.0 468696.0 0
276021.0 468827.0 0
279788.0 468966.0 0
283563.0 469109.0 0
287344.0 469254.0 0
291130.0 469397.0 0
294921.0 469537.0 0
298713.0 469672.0 0
302506.0 469798.0 0
306296.0 469914.0 0
310081.0 470019.0 0
313860.0 470111.0 0
317635.0 470186.0 0
321415.0 470222.0 0
325232.0 470120.0 0
329096.0 469550.0 0
334880.0 472490.0 0
338611.0 472309.0 0
342368.0 472069.0 0
346154.0 471793.0 0
349993.0 471526.0 0
353882.0 471250.0 0
357806.0 470941.0 0
361748.0 470588.0 0
365696.0 470186.0 0
369638.0 469735.0 0
373568.0 469234.0 0
383788.0 470921.0 0
393326.0 472264.0 0
396798.0 471061.0 0
403343.0 474925.0 0
406912.0 473637.0 0
413615.0 474814.0 0
417176.0 473422.0 0
423916.0 474309.0 0
427474.0 472664.0 0
73422.8 476688.0 0
80173.9 475090.0 0
83875.4 476378.0 0
90497.9 474895.0 0
97016.4 473327.0 0
100715.0 474399.0 0
104463.0 475415.0 0
110807.0 473312.0 0
114524.0 473735.0 0
118312.0 474190.0 0
122119.0 474574.0 0
125933.0 474938.0 0
129761.0 475298.0 0
139771.0 473001.0 0
143619.0 473326.0 0
147459.0 473652.0 0
151282.0 473981.0 0
155087.0 474305.0 0
158875.0 474616.0 0
162653.0 474896.0 0
168664.0 471980.0 0
172452.0 472134.0 0
176247.0 472248.0 0
180051.0 472334.0 0
183863.0 472404.0 0
187685.0 472475.0 0
191518.0 472565.0 0
195367.0 472702.0 0
199238.0 472921.0 0
203137.0 473272.0 0
217551.0 471374.0 0
221361.0 471436.0 0
225164.0 471470.0 0
228959.0 471485.0 0
232746.0 471488.0 0
236526.0 471487.0 0
240299.0 471487.0 0
244067.0 471495.0 0
247829.0 471513.0 0
251589.0 471544.0 0
255348.0 471591.0 0
259107.0 471655.0 0
262868.0 471734.0 0
266633.0 471828.0 0
270401.0 471934.0 0
274175.0 472051.0 0
277955.0 472176.0 0
281741.0 472306.0 0
285532.0 472440.0 0
289328.0 472574.0 0
293129.0 472706.0 0
296932.0 472835.0 0
300736.0 472958.0 0
304540.0 473072.0 0
308343.0 473176.0 0
312145.0 473266.0 0
315949.0 473335.0 0
319761.0 473363.0 0
323600.0 473292.0 0
327462.0 472999.0 0
331188.0 472708.0 0
348555.0 474820.0 0
352420.0 474518.0 0
356319.0 474199.0 0
360248.0 473853.0 0
364192.0 473472.0 0
368139.0 473053.0 0
372080.0 472594.0 0
376006.0 472092.0 0
379912.0 471539.0 0
386113.0 473830.0 0
389793.0 473151.0 0
396201.0 474789.0 0
399848.0 473449.0 0
406468.0 477308.0 0
410045.0 476126.0 0
416705.0 477313.0 0
420333.0 475875.0 0
427168.0 476611.0 0
430788.0 474928.0 0
77331.1 477912.0 0
87627.3 477599.0 0
91409.0 478712.0 0
94221.7 476003.0 0
97972.4 477064.0 0
101766.0 478064.0 0
108261.0 476216.0 0
112080.0 476768.0 0
133603.0 475645.0 0
137454.0 475980.0 0
141309.0 476307.0 0
145163.0 476639.0 0
156631.0 477692.0 0
160408.0 478015.0 0
166431.0 475130.0 0
170216.0 475311.0 0
174009.0 475448.0 0
177812.0 475549.0 0
181625.0 475629.0 0
185447.0 475700.0 0
189279.0 475779.0 0
193125.0 475886.0 0
196994.0 476047.0 0
200901.0 476304.0 0
207582.0 474198.0 0
211480.0 474400.0 0
215342.0 474547.0 0
219185.0 474647.0 0
223018.0 474710.0 0
226842.0 474748.0 0
230657.0 474769.0 0
234464.0 474780.0 0
238263.0 474789.0 0
242055.0 474801.0 0
245842.0 474819.0 0
249625.0 474848.0 0
253404.0 474889.0 0
257183.0 474943.0 0
260962.0 475012.0 0
264743.0 475093.0 0
268527.0 475187.0 0
272315.0 475291.0 0
276108.0 475404.0 0
279905.0 475522.0 0
283708.0 475645.0 0
287516.0 475770.0 0
291327.0 475894.0 0
295143.0 476017.0 0
298960.0 476135.0 0
302779.0 476246.0 0
306599.0 476348.0 0
310420.0 476436.0 0
314245.0 476502.0 0
337128.0 475636.0 0
340917.0 475393.0 0
344724.0 475113.0 0
358727.0 477158.0 0
362665.0 476786.0 0
366613.0 476387.0 0
370562.0 475962.0 0
374501.0 475505.0 0
378418.0 475008.0 0
382298.0 474458.0 0
388580.0 476803.0 0
392438.0 475854.0 0
399052.0 477366.0 0
402761.0 478313.0 0
409445.0 479955.0 0
413075.0 478681.0 0
84685.7 480262.0 0
88591.2 481460.0 0
95206.1 479776.0 0
99010.1 480783.0 0
105632.0 479039.0 0
115898.0 477198.0 0
119748.0 477600.0 0
123597.0 477972.0 0
127443.0 478327.0 0
131292.0 478668.0 0
135142.0 478996.0 0
149007.0 476986.0 0
152832.0 477342.0 0
204866.0 476786.0 0
209188.0 477452.0 0
213102.0 477683.0 0
216986.0 477836.0 0
220853.0 477934.0 0
224708.0 477998.0 0
228552.0 478038.0 0
232386.0 478065.0 0
236211.0 478085.0 0
240028.0 478103.0 0
243838.0 478124.0 0
247643.0 478152.0 0
251444.0 478190.0 0
255242.0 478238.0 0
259040.0 478298.0 0
262838.0 478370.0 0
266638.0 478453.0 0
270440.0 478546.0 0
274246.0 478648.0 0
278057.0 478756.0 0
281871.0 478868.0 0
318080.0 476530.0 0
321933.0 476486.0 0
325798.0 476317.0 0
329604.0 476098.0 0
333366.0 475863.0 0
339392.0 478739.0 0
343219.0 478462.0 0
347061.0 478159.0 0
350923.0 477841.0 0
354810.0 477509.0 0
369017.0 479338.0 0
372971.0 478914.0 0
376914.0 478466.0 0
380837.0 477979.0 0
384728.0 477431.0 0
391424.0 479359.0 0
395275.0 478463.0 0
401860.0 481643.0 0
405701.0 480912.0 0
415435.0 481826.0 0
419149.0 480423.0 0
92439.9 482522.0 0
96274.7 483561.0 0
102838.0 481688.0 0
109528.0 479722.0 0
113425.0 480225.0 0
117338.0 480618.0 0
121236.0 481006.0 0
125116.0 481374.0 0
128984.0 481722.0 0
138997.0 479313.0 0
142857.0 479638.0 0
146715.0 479985.0 0
150560.0 480363.0 0
154371.0 480758.0 0
158147.0 481133.0 0
164181.0 478287.0 0
167963.0 478499.0 0
171756.0 478658.0 0
175560.0 478775.0 0
179374.0 478865.0 0
183196.0 478939.0 0
187026.0 479012.0 0
190864.0 479098.0 0
194713.0 479217.0 0
198578.0 479392.0 0
202470.0 479667.0 0
206728.0 480290.0 0
210838.0 480768.0 0
214769.0 480999.0 0
218674.0 481142.0 0
222562.0 481236.0 0
226435.0 481299.0 0
230296.0 481342.0 0
234146.0 481374.0 0
285691.0 478984.0 0
289514.0 479100.0 0
293342.0 479216.0 0
297173.0 479328.0 0
301007.0 479436.0 0
304843.0 479535.0 0
308681.0 479622.0 0
312525.0 479688.0 0
316375.0 479720.0 0
320237.0 479698.0 0
324106.0 479593.0 0
327954.0 479429.0 0
331778.0 479225.0 0
335582.0 478995.0 0
341657.0 481830.0 0
345513.0 481529.0 0
349381.0 481204.0 0
353268.0 480861.0 0
357178.0 480503.0 0
361111.0 480130.0 0
365060.0 479742.0 0
383260.0 480995.0 0
387175.0 480443.0 0
394156.0 482094.0 0
398010.0 481220.0 0
404607.0 484449.0 0
408474.0 483731.0 0
85653.8 484122.0 0
90049.4 485613.0 0
100103.0 484513.0 0
106967.0 482660.0 0
110913.0 483239.0 0
114931.0 483636.0 0
118867.0 484038.0 0
122783.0 484423.0 0
126680.0 484788.0 0
132843.0 482052.0 0
136696.0 482361.0 0
140550.0 482666.0 0
144411.0 482991.0 0
148271.0 483366.0 0
152105.0 483805.0 0
155881.0 484246.0 0
161912.0 481451.0 0
165692.0 481694.0 0
169486.0 481877.0 0
173295.0 482012.0 0
177114.0 482112.0 0
180940.0 482192.0 0
184771.0 482263.0 0
188608.0 482338.0 0
192449.0 482431.0 0
196297.0 482558.0 0
200160.0 482736.0 0
204064.0 482958.0 0
208589.0 483798.0 0
212557.0 484138.0 0
237987.0 481401.0 0
241820.0 481427.0 0
245647.0 481457.0 0
249468.0 481493.0 0
253286.0 481538.0 0
257102.0 481593.0 0
260917.0 481657.0 0
264733.0 481732.0 0
268550.0 481815.0 0
272370.0 481907.0 0
276193.0 482005.0 0
280021.0 482108.0 0
283852.0 482215.0 0
287688.0 482323.0 0
291527.0 482432.0 0
295371.0 482538.0 0
299219.0 482641.0 0
303071.0 482736.0 0
306926.0 482821.0 0
310786.0 482888.0 0
314654.0 482927.0 0
318529.0 482922.0 0
322408.0 482859.0 0
326277.0 482737.0 0
330130.0 482565.0 0
333973.0 482354.0 0
337814.0 482108.0 0
343928.0 484922.0 0
347803.0 484598.0 0
351691.0 484250.0 0
355600.0 483884.0 0
359530.0 483505.0 0
363478.0 483119.0 0
367438.0 482726.0 0
371404.0 482324.0 0
375367.0 481910.0 0
379322.0 481473.0 0
390239.0 482797.0 0
396768.0 484991.0 0
400673.0 484957.0 0
407179.0 487444.0 0
412352.0 484289.0 0
86847.0 487931.0 0
93899.0 486652.0 0
104028.0 485240.0 0
108393.0 486279.0 0
112560.0 486660.0 0
116513.0 487080.0 0
120454.0 487475.0 0
124381.0 487856.0 0
130562.0 485132.0 0
134426.0 485452.0 0
138275.0 485748.0 0
142121.0 486038.0 0
145978.0 486369.0 0
149834.0 486801.0 0
153633.0 487340.0 0
159629.0 484625.0 0
163410.0 484897.0 0
167209.0 485105.0 0
171021.0 485257.0 0
174848.0 485369.0 0
178683.0 485456.0 0
182521.0 485529.0 0
186362.0 485599.0 0
190205.0 485677.0 0
194050.0 485774.0 0
197903.0 485900.0 0
201775.0 486052.0 0
205678.0 486217.0 0
216497.0 484335.0 0
220415.0 484464.0 0
224314.0 484552.0 0
228200.0 484614.0 0
232073.0 484659.0 0
235936.0 484696.0 0
239791.0 484729.0 0
243638.0 484762.0 0
247480.0 484799.0 0
251317.0 484842.0 0
255150.0 484893.0 0
258982.0 484952.0 0
262814.0 485020.0 0
266646.0 485096.0 0
270479.0 485179.0 0
274316.0 485269.0 0
278155.0 485364.0 0
281999.0 485462.0 0
285846.0 485563.0 0
289698.0 485664.0 0
293554.0 485765.0 0
297415.0 485862.0 0
301281.0 485953.0 0
305151.0 486035.0 0
309027.0 486102.0 0
312909.0 486146.0 0
316799.0 486156.0 0
320693.0 486120.0 0
324584.0 486034.0 0
328466.0 485897.0 0
332335.0 485712.0 0
336199.0 485483.0 0
340063.0 485218.0 0
346196.0 488021.0 0
350086.0 487672.0 0
353992.0 487300.0 0
357918.0 486914.0 0
361865.0 486522.0 0
365826.0 486131.0 0
369797.0 485742.0 0
373770.0 485351.0 0
377742.0 484951.0 0
381706.0 484531.0 0
385654.0 484068.0 0
388913.0 486206.0 0
392850.0 485663.0 0
399195.0 488268.0 0
403260.0 487919.0 0
415372.0 486872.0 0
91122.4 489462.0 0
97454.1 488439.0 0
101388.0 488164.0 0
105313.0 488785.0 0
110233.0 489724.0 0
114187.0 490146.0 0
128291.0 488217.0 0
132182.0 488562.0 0
136046.0 488878.0 0
139884.0 489158.0 0
143714.0 489426.0 0
147556.0 489777.0 0
151370.0 490325.0 0
157343.0 487817.0 0
161117.0 488112.0 0
164922.0 488343.0 0
168745.0 488512.0 0
172582.0 488635.0 0
176428.0 488730.0 0
180278.0 488807.0 0
184129.0 488875.0 0
187979.0 488945.0 0
191830.0 489025.0 0
195683.0 489120.0 0
199545.0 489232.0 0
210424.0 487294.0 0
214358.0 487530.0 0
218287.0 487691.0 0
222203.0 487803.0 0
226106.0 487883.0 0
229999.0 487942.0 0
233881.0 487989.0 0
237755.0 488030.0 0
241621.0 488068.0 0
245481.0 488107.0 0
249336.0 488151.0 0
253186.0 488200.0 0
257034.0 488255.0 0
260881.0 488318.0 0
264727.0 488388.0 0
268574.0 488464.0 0
272423.0 488547.0 0
276275.0 488634.0 0
280130.0 488725.0 0
283990.0 488818.0 0
287853.0 488913.0 0
291721.0 489007.0 0
295594.0 489098.0 0
299472.0 489185.0 0
303356.0 489264.0 0
307245.0 489330.0 0
311142.0 489378.0 0
315045.0 489398.0 0
318953.0 489382.0 0
334555.0 488863.0 0
338436.0 488619.0 0
342314.0 488337.0 0
360224.0 489955.0 0
364184.0 489559.0 0
368154.0 489173.0 0
372130.0 488797.0 0
376106.0 488423.0 0
380078.0 488046.0 0
384039.0 487658.0 0
395326.0 488653.0 0
401694.0 491296.0 0
411097.0 488065.0 0
94691.4 491298.0 0
102723.0 491812.0 0
107172.0 492088.0 0
111899.0 493265.0 0
118140.0 490542.0 0
122089.0 490928.0 0
126027.0 491303.0 0
129949.0 491663.0 0
133852.0 492018.0 0
203422.0 489350.0 0
207318.0 489461.0 0
212283.0 490764.0 0
216196.0 490935.0 0
220113.0 491063.0 0
224025.0 491157.0 0
227930.0 491229.0 0
231827.0 491285.0 0
235717.0 491333.0 0
239599.0 491376.0 0
243475.0 491419.0 0
247346.0 491463.0 0
251212.0 491512.0 0
255075.0 491565.0 0
258936.0 491624.0 0
262795.0 491690.0 0
266656.0 491761.0 0
322863.0 489323.0 0
326768.0 489217.0 0
330665.0 489064.0 0
348456.0 491126.0 0
352359.0 490751.0 0
356281.0 490356.0 0
370455.0 492254.0 0
374428.0 491898.0 0
378397.0 491553.0 0
382354.0 491216.0 0
387446.0 489579.0 0
391415.0 489207.0 0
397781.0 491757.0 0
405136.0 493253.0 0
408503.0 491120.0 0
413912.0 490875.0 0
98758.5 492222.0 0
115856.0 493640.0 0
119815.0 494019.0 0
123771.0 494394.0 0
137712.0 492333.0 0
141532.0 492589.0 0
145334.0 492820.0 0
149149.0 493229.0 0
155038.0 491019.0 0
158814.0 491346.0 0
162623.0 491592.0 0
166462.0 491776.0 0
170317.0 491911.0 0
174179.0 492012.0 0
178043.0 492094.0 0
181907.0 492164.0 0
185770.0 492230.0 0
189631.0 492300.0 0
193492.0 492377.0 0
197356.0 492464.0 0
201228.0 492555.0 0
205111.0 492639.0 0
209008.0 492692.0 0
214153.0 494222.0 0
218056.0 494347.0 0
270517.0 491837.0 0
274381.0 491918.0 0
278247.0 492002.0 0
282118.0 492089.0 0
285992.0 492177.0 0
289871.0 492265.0 0
293755.0 492351.0 0
297645.0 492433.0 0
301540.0 492509.0 0
305442.0 492574.0 0
309350.0 492623.0 0
313266.0 492651.0 0
317187.0 492649.0 0
321112.0 492611.0 0
325035.0 492532.0 0
328955.0 492409.0 0
332867.0 492239.0 0
336772.0 492024.0 0
340669.0 491766.0 0
344563.0 491466.0 0
350708.0 494240.0 0
354622.0 493837.0 0
358558.0 493420.0 0
362514.0 493012.0 0
366482.0 492624.0 0
385855.0 492945.0 0
389844.0 492665.0 0
393886.0 492286.0 0
408481.0 495413.0 0
95179.5 495253.0 0
99056.5 496207.0 0
104757.0 495149.0 0
108782.0 495566.0 0
113609.0 496789.0 0
117565.0 497143.0 0
127719.0 494766.0 0
131654.0 495124.0 0
135585.0 495507.0 0
139461.0 495818.0 0
143276.0 496027.0 0
147074.0 496178.0 0
152627.0 494545.0 0
156447.0 494649.0 0
160306.0 494853.0 0
164174.0 495047.0 0
168054.0 495192.0 0
171936.0 495302.0 0
175818.0 495389.0 0
179698.0 495462.0 0
183576.0 495528.0 0
187450.0 495593.0 0
191322.0 495660.0 0
195195.0 495731.0 0
199072.0 495804.0 0
202955.0 495871.0 0
206846.0 495918.0 0
210742.0 495926.0 0
221965.0 494447.0 0
225874.0 494525.0 0
229780.0 494588.0 0
233681.0 494641.0 0
237576.0 494689.0 0
241465.0 494735.0 0
245350.0 494781.0 0
249230.0 494830.0 0
253106.0 494882.0 0
256980.0 494939.0 0
260852.0 495001.0 0
264724.0 495068.0 0
268597.0 495139.0 0
272472.0 495214.0 0
276350.0 495293.0 0
280231.0 495373.0 0
284116.0 495456.0 0
288005.0 495538.0 0
291899.0 495619.0 0
295799.0 495697.0 0
299705.0 495770.0 0
303617.0 495833.0 0
307536.0 495884.0 0
311462.0 495916.0 0
315395.0 495924.0 0
319332.0 495903.0 0
323272.0 495847.0 0
327209.0 495751.0 0
331142.0 495611.0 0
335068.0 495427.0 0
338987.0 495197.0 0
342900.0 494924.0 0
346806.0 494607.0 0
352950.0 497361.0 0
356874.0 496923.0 0
360824.0 496493.0 0
364787.0 496095.0 0
368755.0 495725.0 0
372723.0 495381.0 0
376685.0 495058.0 0
380635.0 494754.0 0
384199.0 496341.0 0
388170.0 496089.0 0
392218.0 495783.0 0
397025.0 495479.0 0
401054.0 495020.0 0
96278.2 499090.0 0
102437.0 498312.0 0
106482.0 498687.0 0
110475.0 499070.0 0
115332.0 500312.0 0
121524.0 497508.0 0
125483.0 497871.0 0
129445.0 498244.0 0
133390.0 498589.0 0
137428.0 499016.0 0
141364.0 499314.0 0
145324.0 499353.0 0
150293.0 498010.0 0
154136.0 498091.0 0
158008.0 498186.0 0
161903.0 498331.0 0
165803.0 498481.0 0
169705.0 498599.0 0
173605.0 498693.0 0
177502.0 498770.0 0
181394.0 498837.0 0
185283.0 498900.0 0
189169.0 498961.0 0
193053.0 499023.0 0
196939.0 499084.0 0
200827.0 499140.0 0
204721.0 499182.0 0
208619.0 499198.0 0
212515.0 499174.0 0
216034.0 497672.0 0
219931.0 497763.0 0
223836.0 497840.0 0
227744.0 497904.0 0
231651.0 497959.0 0
235555.0 498010.0 0
239455.0 498058.0 0
243350.0 498105.0 0
247242.0 498155.0 0
251130.0 498207.0 0
255015.0 498263.0 0
258898.0 498322.0 0
262782.0 498386.0 0
266665.0 498453.0 0
270551.0 498523.0 0
274438.0 498597.0 0
278329.0 498672.0 0
282223.0 498749.0 0
286122.0 498826.0 0
290026.0 498902.0 0
293935.0 498976.0 0
297850.0 499046.0 0
301771.0 499108.0 0
305700.0 499159.0 0
309635.0 499194.0 0
313577.0 499210.0 0
317526.0 499201.0 0
321478.0 499163.0 0
325431.0 499091.0 0
329382.0 498981.0 0
333327.0 498827.0 0
337267.0 498628.0 0
341201.0 498384.0 0
345129.0 498097.0 0
349048.0 497764.0 0
355186.0 500477.0 0
359122.0 500006.0 0
363076.0 499588.0 0
367037.0 499213.0 0
370998.0 498874.0 0
374954.0 498565.0 0
378899.0 498284.0 0
394872.0 498690.0 0
399531.0 498541.0 0
99690.3 501156.0 0
104225.0 501860.0 0
108232.0 502238.0 0
112208.0 502620.0 0
119286.0 500656.0 0
123249.0 501005.0 0
127217.0 501352.0 0
131197.0 501743.0 0
135140.0 502021.0 0
139923.0 502861.0 0
143863.0 502713.0 0
148026.0 502190.0 0
151876.0 501469.0 0
155782.0 501551.0 0
159682.0 501653.0 0
163582.0 501787.0 0
167494.0 501906.0 0
171407.0 502005.0 0
175319.0 502086.0 0
179226.0 502156.0 0
217923.0 501116.0 0
221819.0 501181.0 0
225723.0 501239.0 0
229631.0 501292.0 0
233540.0 501342.0 0
237446.0 501390.0 0
241350.0 501438.0 0
245250.0 501488.0 0
249148.0 501541.0 0
253043.0 501595.0 0
256936.0 501653.0 0
260829.0 501714.0 0
264722.0 501778.0 0
268617.0 501845.0 0
272513.0 501913.0 0
276413.0 501984.0 0
280316.0 502056.0 0
284224.0 502129.0 0
288136.0 502201.0 0
292053.0 502271.0 0
295976.0 502337.0 0
339465.0 501841.0 0
343416.0 501582.0 0
347361.0 501285.0 0
351292.0 500941.0 0
361353.0 503108.0 0
365303.0 502718.0 0
369258.0 502377.0 0
373208.0 502076.0 0
377149.0 501810.0 0
382507.0 499767.0 0
386473.0 499533.0 0
390452.0 499248.0 0
393076.0 502150.0 0
397377.0 501767.0 0
402689.0 500933.0 0
117052.0 503844.0 0
121014.0 504171.0 0
124988.0 504504.0 0
183129.0 502219.0 0
187029.0 502278.0 0
190926.0 502334.0 0
194822.0 502388.0 0
198719.0 502437.0 0
202619.0 502475.0 0
206522.0 502495.0 0
210425.0 502487.0 0
214321.0 502442.0 0
219821.0 504555.0 0
223718.0 504600.0 0
227623.0 504645.0 0
231532.0 504690.0 0
235442.0 504735.0 0
299906.0 502397.0 0
303842.0 502448.0 0
307785.0 502487.0 0
311735.0 502508.0 0
315692.0 502509.0 0
319655.0 502485.0 0
323621.0 502433.0 0
327588.0 502348.0 0
331551.0 502225.0 0
335510.0 502057.0 0
353538.0 504155.0 0
357421.0 503562.0 0
380784.0 503225.0 0
384740.0 502997.0 0
388716.0 502734.0 0
97826.6 504669.0 0
101812.0 504956.0 0
105976.0 505418.0 0
109969.0 505811.0 0
114013.0 506294.0 0
128948.0 504834.0 0
133059.0 505243.0 0
137022.0 505366.0 0
142241.0 506100.0 0
146364.0 505766.0 0
153464.0 504941.0 0
157428.0 505016.0 0
161368.0 505117.0 0
165297.0 505228.0 0
169224.0 505328.0 0
173149.0 505413.0 0
177070.0 505486.0 0
180987.0 505550.0 0
184900.0 505608.0 0
188809.0 505662.0 0
192717.0 505712.0 0
196624.0 505757.0 0
200532.0 505792.0 0
204442.0 505814.0 0
208351.0 505814.0 0
212258.0 505789.0 0
216156.0 505733.0 0
239351.0 504782.0 0
243258.0 504832.0 0
247162.0 504884.0 0
251065.0 504938.0 0
254966.0 504995.0 0
258867.0 505053.0 0
262768.0 505115.0 0
266671.0 505178.0 0
270576.0 505243.0 0
274484.0 505309.0 0
278395.0 505377.0 0
282310.0 505445.0 0
286229.0 505513.0 0
290154.0 505580.0 0
294085.0 505643.0 0
298021.0 505701.0 0
301964.0 505752.0 0
305913.0 505793.0 0
309870.0 505819.0 0
313833.0 505827.0 0
317803.0 505814.0 0
321779.0 505777.0 0
325759.0 505712.0 0
329740.0 505619.0 0
333717.0 505484.0 0
337691.0 505296.0 0
341663.0 505063.0 0
345631.0 504795.0 0
349591.0 504493.0 0
359617.0 506661.0 0
363553.0 506242.0 0
367501.0 505891.0 0
371448.0 505593.0 0
375387.0 505337.0 0
379039.0 506712.0 0
382992.0 506486.0 0
386964.0 506228.0 0
391305.0 505671.0 0
395515.0 505219.0 0
400485.0 504270.0 0
99609.4 508241.0 0
103590.0 508535.0 0
107679.0 508995.0 0
111647.0 509424.0 0
118780.0 507381.0 0
122771.0 507674.0 0
126752.0 508017.0 0
130720.0 508285.0 0
135064.0 508693.0 0
139282.0 508515.0 0
144536.0 509259.0 0
150116.0 507044.0 0
155249.0 508336.0 0
159189.0 508459.0 0
163123.0 508566.0 0
167058.0 508664.0 0
170993.0 508751.0 0
174926.0 508826.0 0
178855.0 508891.0 0
182781.0 508950.0 0
186703.0 509003.0 0
190622.0 509052.0 0
194539.0 509094.0 0
198456.0 509129.0 0
202373.0 509152.0 0
206289.0 509158.0 0
210204.0 509145.0 0
214114.0 509108.0 0
218015.0 509049.0 0
221727.0 507992.0 0
225626.0 508022.0 0
229533.0 508056.0 0
233444.0 508096.0 0
237355.0 508139.0 0
241266.0 508187.0 0
245176.0 508238.0 0
249083.0 508291.0 0
252991.0 508347.0 0
256898.0 508404.0 0
260806.0 508463.0 0
264716.0 508523.0 0
268627.0 508585.0 0
272542.0 508648.0 0
276460.0 508711.0 0
280382.0 508776.0 0
284308.0 508840.0 0
288239.0 508903.0 0
292176.0 508964.0 0
296118.0 509020.0 0
300066.0 509071.0 0
304021.0 509112.0 0
307983.0 509142.0 0
311951.0 509157.0 0
315926.0 509153.0 0
319907.0 509127.0 0
323895.0 509078.0 0
327887.0 509004.0 0
331886.0 508907.0 0
335885.0 508752.0 0
339876.0 508540.0 0
343861.0 508297.0 0
347838.0 508027.0 0
351804.0 507733.0 0
355752.0 507437.0 0
361780.0 509790.0 0
365720.0 509416.0 0
369669.0 509114.0 0
373609.0 508865.0 0
389226.0 509426.0 0
393208.0 509096.0 0
397177.0 508756.0 0
401123.0 508216.0 0
115747.0 509897.0 0
120564.0 510880.0 0
124535.0 511189.0 0
128588.0 511522.0 0
132580.0 511694.0 0
137447.0 511881.0 0
141542.0 511758.0 0
148212.0 510531.0 0
152141.0 510733.0 0
156994.0 511785.0 0
160951.0 511911.0 0
164901.0 512012.0 0
168848.0 512100.0 0
172792.0 512177.0 0
176733.0 512244.0 0
180670.0 512304.0 0
184604.0 512358.0 0
188534.0 512406.0 0
192462.0 512448.0 0
196388.0 512483.0 0
200313.0 512508.0 0
204236.0 512519.0 0
208158.0 512514.0 0
212077.0 512490.0 0
215989.0 512448.0 0
219893.0 512390.0 0
223640.0 511426.0 0
227543.0 511445.0 0
231452.0 511475.0 0
235364.0 511512.0 0
239277.0 511556.0 0
243188.0 511605.0 0
247099.0 511657.0 0
251011.0 511711.0 0
254922.0 511767.0 0
258836.0 511823.0 0
262751.0 511880.0 0
266669.0 511939.0 0
270589.0 511999.0 0
274513.0 512059.0 0
278441.0 512120.0 0
282372.0 512181.0 0
286309.0 512241.0 0
290251.0 512299.0 0
294198.0 512354.0 0
298151.0 512403.0 0
302110.0 512446.0 0
306076.0 512479.0 0
310049.0 512499.0 0
314027.0 512503.0 0
318011.0 512488.0 0
322000.0 512451.0 0
325995.0 512392.0 0
329993.0 512313.0 0
334036.0 512199.0 0
338072.0 512019.0 0
342065.0 511795.0 0
346053.0 511550.0 0
350030.0 511288.0 0
353994.0 511017.0 0
357947.0 510753.0 0
363918.0 512959.0 0
367858.0 512630.0 0
371813.0 512391.0 0
377270.0 510222.0 0
381224.0 509996.0 0
385197.0 509744.0 0
399524.0 511930.0 0
98458.2 512036.0 0
102472.0 512325.0 0
106530.0 512744.0 0
110492.0 513190.0 0
114442.0 513634.0 0
118364.0 514096.0 0
122328.0 514415.0 0
126309.0 514693.0 0
134916.0 514820.0 0
139643.0 515170.0 0
145262.0 513225.0 0
149964.0 514068.0 0
153928.0 514278.0 0
229466.0 514873.0 0
233377.0 514901.0 0
237290.0 514940.0 0
241202.0 514986.0 0
245114.0 515036.0 0
249027.0 515089.0 0
252942.0 515142.0 0
348234.0 514829.0 0
352209.0 514581.0 0
356171.0 514330.0 0
360127.0 514091.0 0
375478.0 513758.0 0
379432.0 513524.0 0
383407.0 513278.0 0
387420.0 512987.0 0
391459.0 512670.0 0
395460.0 512351.0 0
100208.0 515608.0 0
104176.0 515922.0 0
108137.0 516382.0 0
112096.0 516833.0 0
130486.0 514996.0 0
143284.0 516698.0 0
147242.0 516941.0 0
158776.0 515247.0 0
162746.0 515364.0 0
166708.0 515458.0 0
170665.0 515538.0 0
174618.0 515608.0 0
178568.0 515669.0 0
182513.0 515724.0 0
186454.0 515773.0 0
190391.0 515817.0 0
194327.0 515853.0 0
198260.0 515880.0 0
202191.0 515895.0 0
206119.0 515897.0 0
210045.0 515882.0 0
213966.0 515852.0 0
217881.0 515807.0 0
221787.0 515756.0 0
225560.0 514859.0 0
256859.0 515196.0 0
260779.0 515250.0 0
264701.0 515306.0 0
268626.0 515362.0 0
272555.0 515419.0 0
276487.0 515477.0 0
280424.0 515535.0 0
284365.0 515592.0 0
288311.0 515648.0 0
292262.0 515701.0 0
296219.0 515750.0 0
300182.0 515793.0 0
304152.0 515829.0 0
308127.0 515853.0 0
312108.0 515864.0 0
316095.0 515859.0 0
320085.0 515834.0 0
324080.0 515788.0 0
328078.0 515723.0 0
332114.0 515621.0 0
336211.0 515483.0 0
340257.0 515296.0 0
344249.0 515069.0 0
366036.0 516177.0 0
369959.0 515885.0 0
377019.0 517397.0 0
380964.0 517148.0 0
384908.0 516914.0 0
388852.0 516662.0 0
392802.0 516382.0 0
396771.0 516096.0 0
400744.0 515712.0 0
116052.0 517298.0 0
120088.0 517668.0 0
124084.0 517944.0 0
128150.0 518165.0 0
132871.0 518151.0 0
137069.0 518097.0 0
151760.0 517615.0 0
155745.0 517801.0 0
160595.0 518714.0 0
164573.0 518821.0 0
168544.0 518907.0 0
172510.0 518980.0 0
176471.0 519044.0 0
180427.0 519101.0 0
184379.0 519153.0 0
188326.0 519198.0 0
192271.0 519236.0 0
196212.0 519266.0 0
200151.0 519287.0 0
204087.0 519294.0 0
208020.0 519288.0 0
211947.0 519266.0 0
215870.0 519231.0 0
219786.0 519188.0 0
223695.0 519146.0 0
227485.0 518294.0 0
231394.0 518308.0 0
235305.0 518339.0 0
239216.0 518381.0 0
243128.0 518430.0 0
247041.0 518480.0 0
250957.0 518531.0 0
254877.0 518582.0 0
258800.0 518633.0 0
262725.0 518686.0 0
266654.0 518739.0 0
270587.0 518793.0 0
274523.0 518848.0 0
278463.0 518902.0 0
282408.0 518957.0 0
286357.0 519010.0 0
290312.0 519062.0 0
294272.0 519110.0 0
298238.0 519154.0 0
302209.0 519191.0 0
306187.0 519219.0 0
310171.0 519236.0 0
314160.0 519240.0 0
318153.0 519228.0 0
322147.0 519194.0 0
326146.0 519138.0 0
330182.0 519050.0 0
334273.0 518916.0 0
338384.0 518777.0 0
342434.0 518588.0 0
346425.0 518364.0 0
350408.0 518134.0 0
354380.0 517900.0 0
358341.0 517664.0 0
362296.0 517440.0 0
368174.0 519439.0 0
373141.0 518062.0 0
395010.0 519674.0 0
398985.0 519408.0 0
100665.0 519568.0 0
104651.0 519859.0 0
108622.0 520320.0 0
112736.0 520748.0 0
116702.0 521215.0 0
120677.0 521569.0 0
124650.0 521827.0 0
128608.0 522055.0 0
132553.0 522047.0 0
136493.0 521927.0 0
140909.0 519916.0 0
145043.0 520272.0 0
149025.0 520500.0 0
153605.0 521150.0 0
157597.0 521317.0 0
162444.0 522186.0 0
166428.0 522282.0 0
170406.0 522361.0 0
174379.0 522428.0 0
178346.0 522489.0 0
182308.0 522543.0 0
186266.0 522591.0 0
190219.0 522633.0 0
194169.0 522666.0 0
198117.0 522691.0 0
202060.0 522705.0 0
206000.0 522706.0 0
209935.0 522693.0 0
213864.0 522666.0 0
217786.0 522629.0 0
221703.0 522589.0 0
225614.0 522559.0 0
229413.0 521733.0 0
233323.0 521753.0 0
237232.0 521792.0 0
241141.0 521839.0 0
245052.0 521887.0 0
248969.0 521935.0 0
252890.0 521982.0 0
256815.0 522030.0 0
260744.0 522079.0 0
264675.0 522129.0 0
268611.0 522180.0 0
272549.0 522231.0 0
276492.0 522283.0 0
280439.0 522335.0 0
284391.0 522387.0 0
288348.0 522437.0 0
292310.0 522484.0 0
296278.0 522528.0 0
300252.0 522566.0 0
304231.0 522597.0 0
308217.0 522619.0 0
312207.0 522629.0 0
316203.0 522627.0 0
320203.0 522611.0 0
324205.0 522563.0 0
328239.0 522483.0 0
332334.0 522359.0 0
336428.0 522226.0 0
340554.0 522082.0 0
344605.0 521896.0 0
348597.0 521680.0 0
352581.0 521461.0 0
356554.0 521236.0 0
360519.0 521006.0 0
364484.0 520880.0 0
371400.0 521642.0 0
375334.0 521312.0 0
379207.0 520712.0 0
383137.0 520469.0 0
387086.0 520231.0 0
391046.0 519967.0 0
102000.0 523442.0 0
106188.0 523535.0 0
110324.0 523922.0 0
114313.0 524412.0 0
118393.0 524826.0 0
139095.0 524847.0 0
142880.0 523615.0 0
146865.0 523852.0 0
150866.0 524031.0 0
155475.0 524679.0 0
159476.0 524832.0 0
235246.0 525215.0 0
239150.0 525263.0 0
243060.0 525310.0 0
246976.0 525354.0 0
250899.0 525396.0 0
254826.0 525440.0 0
258757.0 525485.0 0
262690.0 525532.0 0
342719.0 525399.0 0
346772.0 525219.0 0
350770.0 525012.0 0
354762.0 524802.0 0
358748.0 524576.0 0
362743.0 524472.0 0
366796.0 524273.0 0
375092.0 525241.0 0
379359.0 524683.0 0
383351.0 524424.0 0
387337.0 524191.0 0
391318.0 523934.0 0
395297.0 523634.0 0
399282.0 523399.0 0
122453.0 525130.0 0
126451.0 525371.0 0
130614.0 525489.0 0
134638.0 525421.0 0
164319.0 525663.0 0
168309.0 525748.0 0
172292.0 525821.0 0
176270.0 525885.0 0
180242.0 525944.0 0
184209.0 525996.0 0
188171.0 526041.0 0
192130.0 526079.0 0
196086.0 526108.0 0
200038.0 526128.0 0
203986.0 526136.0 0
207929.0 526132.0 0
211866.0 526114.0 0
215795.0 526083.0 0
219715.0 526046.0 0
223628.0 526012.0 0
227537.0 525998.0 0
231339.0 525180.0 0
266627.0 525580.0 0
270568.0 525629.0 0
274512.0 525678.0 0
278460.0 525728.0 0
282413.0 525777.0 0
286371.0 525825.0 0
290335.0 525872.0 0
294304.0 525915.0 0
298279.0 525954.0 0
302260.0 525988.0 0
306246.0 526013.0 0
310237.0 526029.0 0
314233.0 526034.0 0
318232.0 526029.0 0
322261.0 525999.0 0
326292.0 525926.0 0
330384.0 525807.0 0
334473.0 525686.0 0
338590.0 525542.0 0
371110.0 525569.0 0
101254.0 527471.0 0
105243.0 527417.0 0
109210.0 527749.0 0
113157.0 528234.0 0
117110.0 528598.0 0
121068.0 528854.0 0
125032.0 529073.0 0
129010.0 529108.0 0
133001.0 529036.0 0
137273.0 528398.0 0
141612.0 527870.0 0
145570.0 527673.0 0
149530.0 527775.0 0
153485.0 528127.0 0
157463.0 528264.0 0
161450.0 528428.0 0
166218.0 529144.0 0
170212.0 529221.0 0
174199.0 529291.0 0
178179.0 529354.0 0
182155.0 529411.0 0
186126.0 529461.0 0
190092.0 529503.0 0
194056.0 529537.0 0
198017.0 529562.0 0
201975.0 529578.0 0
205928.0 529582.0 0
209876.0 529572.0 0
213814.0 529551.0 0
217741.0 529519.0 0
221655.0 529483.0 0
225556.0 529457.0 0
229453.0 529464.0 0
233254.0 528645.0 0
237151.0 528705.0 0
241058.0 528747.0 0
244978.0 528788.0 0
248904.0 528824.0 0
252834.0 528863.0 0
256767.0 528905.0 0
260701.0 528948.0 0
264639.0 528993.0 0
268579.0 529039.0 0
272524.0 529086.0 0
276472.0 529134.0 0
280425.0 529181.0 0
284384.0 529228.0 0
288347.0 529273.0 0
292317.0 529316.0 0
296292.0 529355.0 0
300274.0 529390.0 0
304261.0 529419.0 0
308253.0 529440.0 0
312249.0 529450.0 0
316248.0 529452.0 0
320282.0 529428.0 0
324347.0 529379.0 0
328437.0 529266.0 0
332514.0 529150.0 0
336631.0 529016.0 0
340752.0 528869.0 0
344878.0 528730.0 0
348933.0 528555.0 0
352942.0 528356.0 0
357262.0 528282.0 0
361319.0 528209.0 0
365312.0 528187.0 0
369204.0 529048.0 0
373388.0 528827.0 0
377640.0 528284.0 0
381614.0 527999.0 0
385602.0 527773.0 0
389622.0 527546.0 0
393919.0 527376.0 0
398000.0 527350.0 0
102000.0 531442.0 0
106000.0 531369.0 0
110143.0 531632.0 0
114202.0 532093.0 0
118220.0 532432.0 0
138194.0 532276.0 0
142161.0 531794.0 0
146152.0 531657.0 0
150150.0 531711.0 0
154201.0 532050.0 0
158199.0 532183.0 0
162244.0 532341.0 0
166950.0 533051.0 0
223255.0 533119.0 0
227231.0 533057.0 0
231200.0 533026.0 0
235068.0 532184.0 0
239023.0 532215.0 0
242969.0 532231.0 0
246909.0 532265.0 0
250843.0 532299.0 0
254776.0 532338.0 0
258711.0 532378.0 0
262647.0 532421.0 0
266587.0 532464.0 0
270530.0 532509.0 0
274477.0 532554.0 0
278429.0 532599.0 0
282386.0 532644.0 0
286348.0 532688.0 0
290317.0 532730.0 0
294292.0 532769.0 0
334568.0 532555.0 0
338557.0 532493.0 0
342537.0 532422.0 0
346511.0 532356.0 0
350479.0 532223.0 0
354443.0 532056.0 0
358415.0 532112.0 0
362395.0 532093.0 0
366379.0 532222.0 0
374304.0 532686.0 0
378261.0 532210.0 0
382236.0 531935.0 0
386215.0 531715.0 0
390198.0 531500.0 0
394187.0 531360.0 0
398182.0 531353.0 0
122250.0 532661.0 0
126248.0 532863.0 0
130245.0 532890.0 0
134239.0 532821.0 0
171003.0 533114.0 0
175076.0 533165.0 0
179141.0 533208.0 0
183212.0 533241.0 0
187278.0 533265.0 0
191343.0 533275.0 0
195341.0 533295.0 0
199337.0 533309.0 0
203330.0 533313.0 0
207320.0 533304.0 0
211307.0 533280.0 0
215292.0 533240.0 0
219275.0 533186.0 0
298274.0 532805.0 0
302262.0 532836.0 0
306255.0 532861.0 0
310253.0 532876.0 0
314254.0 532882.0 0
318293.0 532863.0 0
322361.0 532820.0 0
326492.0 532733.0 0
330570.0 532627.0 0
370318.0 532870.0 0
102000.0 535442.0 0
105999.0 535369.0 0
109991.0 535624.0 0
113974.0 536084.0 0
117969.0 536419.0 0
121960.0 536642.0 0
125952.0 536840.0 0
129948.0 536865.0 0
133942.0 536798.0 0
137898.0 536262.0 0
141857.0 535759.0 0
145845.0 535655.0 0
149832.0 535689.0 0
153803.0 536023.0 0
157783.0 536155.0 0
161761.0 536309.0 0
165703.0 536840.0 0
169683.0 536875.0 0
173664.0 536894.0 0
177648.0 536907.0 0
181635.0 536906.0 0
185622.0 536896.0 0
189611.0 536870.0 0
193602.0 536886.0 0
197595.0 536898.0 0
201589.0 536903.0 0
205585.0 536898.0 0
209583.0 536880.0 0
213582.0 536847.0 0
217581.0 536800.0 0
221601.0 536752.0 0
225598.0 536697.0 0
229595.0 536672.0 0
233852.0 535992.0 0
237845.0 536029.0 0
241837.0 536050.0 0
245829.0 536091.0 0
249820.0 536140.0 0
253814.0 536192.0 0
257810.0 536246.0 0
261806.0 536300.0 0
265803.0 536355.0 0
269802.0 536408.0 0
273800.0 536462.0 0
277800.0 536514.0 0
281799.0 536565.0 0
285799.0 536614.0 0
289800.0 536660.0 0
293802.0 536703.0 0
297808.0 536742.0 0
301815.0 536776.0 0
305834.0 536804.0 0
309858.0 536823.0 0
313865.0 536831.0 0
317872.0 536810.0 0
321887.0 536764.0 0
325905.0 536666.0 0
329913.0 536555.0 0
333912.0 536489.0 0
337912.0 536428.0 0
341911.0 536359.0 0
345912.0 536297.0 0
349941.0 536176.0 0
353973.0 536028.0 0
357973.0 536088.0 0
361991.0 536086.0 0
365987.0 536233.0 0
369941.0 536839.0 0
373935.0 536645.0 0
377965.0 536182.0 0
381982.0 535917.0 0
385987.0 535701.0 0
389992.0 535492.0 0
393997.0 535351.0 0
398000.0 535350.0 0
102000.0 539442.0 0
106000.0 539369.0 0
110000.0 539621.0 0
114001.0 540083.0 0
138001.0 540259.0 0
142003.0 539746.0 0
146002.0 539655.0 0
150003.0 539682.0 0
154004.0 540015.0 0
158003.0 540146.0 0
230048.0 540639.0 0
234006.0 539986.0 0
238007.0 540021.0 0
242007.0 540041.0 0
246007.0 540075.0 0
250009.0 540123.0 0
254010.0 540174.0 0
258011.0 540227.0 0
262012.0 540280.0 0
266013.0 540334.0 0
270015.0 540387.0 0
274017.0 540439.0 0
278018.0 540491.0 0
342004.0 540352.0 0
346004.0 540290.0 0
350002.0 540170.0 0
354001.0 540028.0 0
358001.0 540088.0 0
362001.0 540086.0 0
378001.0 540173.0 0
382000.0 539912.0 0
386000.0 539697.0 0
390000.0 539490.0 0
394000.0 539349.0 0
398000.0 539350.0 0
118002.0 540417.0 0
122001.0 540638.0 0
126001.0 540834.0 0
130001.0 540858.0 0
134002.0 540791.0 0
162002.0 540308.0 0
166035.0 540819.0 0
170035.0 540853.0 0
174037.0 540871.0 0
178040.0 540882.0 0
182044.0 540880.0 0
186045.0 540870.0 0
190045.0 540843.0 0
194046.0 540857.0 0
198046.0 540868.0 0
202046.0 540873.0 0
206046.0 540868.0 0
210045.0 540850.0 0
214045.0 540817.0 0
218045.0 540770.0 0
222044.0 540724.0 0
226044.0 540668.0 0
282019.0 540542.0 0
286018.0 540590.0 0
290018.0 540636.0 0
294017.0 540679.0 0
298016.0 540718.0 0
302015.0 540753.0 0
306014.0 540783.0 0
310013.0 540804.0 0
314012.0 540813.0 0
318011.0 540793.0 0
322010.0 540749.0 0
326008.0 540654.0 0
330006.0 540547.0 0
334005.0 540481.0 0
338005.0 540420.0 0
366000.0 540234.0 0
370004.0 540832.0 0
374005.0 540633.0 0
POINT_DATA 4650
SCALARS Radius float 1
LOOKUP_TABLE default
4000.0 4000.0 4000.0 4000.0 4000.0 4000.0 4000.0 4000.0 4000.0 4000.0 4000.0 4000.0 4000.0 4000.0 4000.0 4000.0 4000.0 4000.0 4000.0 4000.0 4000.0 4000.0 4000.0 4000.0 4000.0 4000.0 4000.0 4000.0 4000.0 4000.0 4000.0 4000.0 4000.0 4000.0 4000.0 4000.0 4000.0 4000.0 4000.0 4000.0 4000.0 4000.0 4000.0 4000.0 4000.0 4000.0 4000.0 4000.0 4000.0 4000.0 4000.0 4000.0 4000.0 4000.0 4000.0 4000.0 4000.0 4000.0 4000.0 4000.0 4000.0 4000.0 4000.0 4000.0 4000.0 4000.0 4000.0 4000.0 4000.0 4000.0 4000.0 4000.0 4000.0 4000.0 4000.0 4000.0 4000.0 4000.0 4000.0 4000.0 4000.0 4000.0 4000.0 4000.0 4000.0 4000.0 4000.0 4000.0 4000.0 4000.0 4000.0 4000.0 4000.0 4000.0 4000.0 4000.0 4000.0 4000.0 4000.0 4000.0 4000.0 4000.0 4000.0 4000.0 4000.0 4000.0 4000.0 4000.0 4000.0 4000.0 4000.0 4000.0 4000.0 4000.0 4000.0 4000.0 4000.0 4000.0 4000.0 4000.0 4000.0 4000.0 4000.0 4000.0 4000.0 4000.0 4000.0 4000.0 4000.0 4000.0 4000.0 4000.0 4000.0 4000.0 4000.0 4000.0 4000.0 4000.0 4000.0 4000.0 4000.0 4000.0 4000.0 4000.0 4000.0 4000.0 4000.0 4000.0 4000.0 4000.0 4000.0 4000.0 4000.0 4000.0 4000.0 4000.0 4000.0 4000.0 4000.0 4000.0 4000.0 4000.0 4000.0 4000.0 4000.0 4000.0 4000.0 4000.0 4000.0 4000.0 4000.0 4000.0 4000.0 4000.0 4000.0 4000.0 4000.0 4000.0 4000.0 4000.0 4000.0 4000.0 4000.0 4000.0 4000.0 4000.0 4000.0 4000.0 4000.0 4000.0 4000.0 4000.0 4000.0 4000.0 4000.0 4000.0 4000.0 4000.0 4000.0 4000.0 4000.0 4000.0 4000.0 4000.0 4000.0 4000.0 4000.0 4000.0 4000.0 4000.0 4000.0 4000.0 4000.0 4000.0 4000.0 4000.0 4000.0 4000.0 4000.0 4000.0 4000.0 4000.0 4000.0 4000.0 4000.0 4000.0 4000.0 4000.0 4000.0 4000.0 4000.0 4000.0 4000.0 4000.0 4000.0 4000.0 4000.0 4000.0 4000.0 4000.0 4000.0 4000.0 4000.0 4000.0 4000.0 4000.0 4000.0 4000.0 4000.0 4000.0 4000.0 4000.0 4000.0 4000.0 4000.0 4000.0 4000.0 4000.0 4000.0 4000.0 4000.0 4000.0 4000.0 4000.0 4000.0 4000.0 4000.0 4000.0 4000.0 4000.0 4000.0 4000.0 4000.0 4000.0 4000.0 4000.0 4000.0 4000.0 4000.0 4000.0 4000.0 4000.0 4000.0 4000.0 4000.0 4000.0 4000.0 4000.0 4000.0 4000.0 4000.0 4000.0 4000.0 4000.0 4000.0 4000.0 4000.0 4000.0 4000.0 4000.0 4000.0 4000.0 4000.0 4000.0 4000.0 4000.0 4000.0 4000.0 4000.0 4000.0 4000.0 4000.0 4000.0 4000.0 4000.0 4000.0 4000.0 4000.0 4000.0 4000.0 4000.0 4000.0 4000.0 4000.0 4000.0 4000.0 4000.0 4000.0 4000.0 4000.0 4000.0 4000.0 4000.0 4000.0 4000.0 4000.0 4000.0 4000.0 4000.0 4000.0 4000.0 4000.0 4000.0 4000.0 4000.0 4000.0 4000.0 4000.0 4000.0 4000.0 4000.0 4000.0 4000.0 4000.0 4000.0 4000.0 4000.0 4000.0 4000.0 4000.0 4000.0 4000.0 4000.0 4000.0 4000.0 4000.0 4000.0 4000.0 4000.0 4000.0 4000.0 4000.0 4000.0 4000.0 4000.0 4000.0 4000.0 4000.0 4000.0 4000.0 4000.0 4000.0 4000.0 4000.0 4000.0 4000.0 4000.0 4000.0 4000.0 4000.0 4000.0 4000.0 4000.0 4000.0 4000.0 4000.0 4000.0 4000.0 4000.0 4000.0 4000.0 4000.0 4000.0 4000.0 4000.0 4000.0 4000.0 4000.0 4000.0 4000.0 4000.0 4000.0 4000.0 4000.0 4000.0 4000.0 4000.0 4000.0 4000.0 4000.0 4000.0 4000.0 4000.0 4000.0 4000.0 4000.0 4000.0 4000.0 4000.0 4000.0 4000.0 4000.0 4000.0 4000.0 4000.0 4000.0 4000.0 4000.0 4000.0 4000.0 4000.0 4000.0 4000.0 4000.0 4000.0 4000.0 4000.0 4000.0 4000.0 4000.0 4000.0 4000.0 4000.0 4000.0 4000.0 4000.0 4000.0 4000.0 4000.0 4000.0 4000.0 4000.0 4000.0 4000.0 4000.0 4000.0 4000.0 4000.0 4000.0 4000.0 4000.0 4000.0 4000.0 4000.0 4000.0 4000.0 4000.0 4000.0 4000.0 4000.0 4000.0 4000.0 4000.0 4000.0 4000.0 4000.0 4000.0 4000.0 4000.0 4000.0 4000.0 4000.0 4000.0 4000.0 4000.0 4000.0 4000.0 4000.0 4000.0 4000.0 4000.0 4000.0 4000.0 4000.0 4000.0 4000.0 4000.0 4000.0 4000.0 4000.0 4000.0 4000.0 4000.0 4000.0 4000.0 4000.0 4000.0 4000.0 4000.0 4000.0 4000.0 4000.0 4000.0 4000.0 4000.0 4000.0 4000.0 4000.0 4000.0 4000.0 4000.0 4000.0 4000.0 4000.0 4000.0 4000.0 4000.0 4000.0 4000.0 4000.0 4000.0 4000.0 4000.0 4000.0 4000.0 4000.0 4000.0 4000.0 4000.0 4000.0 4000.0 4000.0 4000.0 4000.0 4000.0 4000.0 4000.0 4000.0 4000.0 4000.0 4000.0 4000.0 4000.0 4000.0 4000.0 4000.0 4000.0 4000.0 4000.0 4000.0 4000.0 4000.0 4000.0 4000.0 4000.0 4000.0 4000.0 4000.0 4000.0 4000.0 4000.0 4000.0 4000.0 4000.0 4000.0 4000.0 4000.0 4000.0 4000.0 4000.0 4000.0 4000.0 4000.0 4000.0 4000.0 4000.0 4000.0 4000.0 4000.0 4000.0 4000.0 4000.0 4000.0 4000.0 4000.0 4000.0 4000.0 4000.0 4000.0 4000.0 4000.0 4000.0 4000.0 4000.0 4000.0 4000.0 4000.0 4000.0 4000.0 4000.0 4000.0 4000.0 4000.0 4000.0 4000.0 4000.0 4000.0 4000.0 4000.0 4000.0 4000.0 4000.0 4000.0 4000.0 4000.0 4000.0 4000.0 4000.0 4000.0 4000.0 4000.0 4000.0 4000.0 4000.0 4000.0 4000.0 4000.0 4000.0 4000.0 4000.0 4000.0 4000.0 4000.0 4000.0 4000.0 4000.0 4000.0 4000.0 4000.0 4000.0 4000.0 4000.0 4000.0 4000.0 4000.0 4000.0 4000.0 4000.0 4000.0 4000.0 4000.0 4000.0 4000.0 4000.0 4000.0 4000.0 4000.0 4000.0 4000.0 4000.0 4000.0 4000.0 4000.0 4000.0 4000.0 4000.0 4000.0 4000.0 4000.0 4000.0 4000.0 4000.0 4000.0 4000.0 4000.0 4000.0 4000.0 4000.0 4000.0 4000.0 4000.0 4000.0 4000.0 4000.0 4000.0 4000.0 4000.0 4000.0 4000.0 4000.0 4000.0 4000.0 4000.0 4000.0 4000.0 4000.0 4000.0 4000.0 4000.0 4000.0 4000.0 4000.0 4000.0 4000.0 4000.0 4000.0 4000.0 4000.0 4000.0 4000.0 4000.0 4000.0 4000.0 4000.0 4000.0 4000.0 4000.0 4000.0 4000.0 4000.0 4000.0 4000.0 4000.0 4000.0 4000.0 4000.0 4000.0 4000.0 4000.0 4000.0 4000.0 4000.0 4000.0 4000.0 4000.0 4000.0 4000.0 4000.0 4000.0 4000.0 4000.0 4000.0 4000.0 4000.0 4000.0 4000.0 4000.0 4000.0 4000.0 4000.0 4000.0 4000.0 4000.0 4000.0 4000.0 4000.0 4000.0 4000.0 4000.0 4000.0 4000.0 4000.0 4000.0 4000.0 4000.0 4000.0 4000.0 4000.0 4000.0 4000.0 4000.0 4000.0 4000.0 4000.0 4000.0 4000.0 4000.0 4000.0 4000.0 4000.0 4000.0 4000.0 4000.0 4000.0 4000.0 4000.0 4000.0 4000.0 4000.0 4000.0 4000.0 4000.0 4000.0 4000.0 4000.0 4000.0 4000.0 4000.0 4000.0 4000.0 4000.0 4000.0 4000.0 4000.0 4000.0 4000.0 4000.0 4000.0 4000.0 4000.0 4000.0 4000.0 4000.0 4000.0 4000.0 4000.0 4000.0 4000.0 4000.0 4000.0 4000.0 4000.0 4000.0 4000.0 4000.0 4000.0 4000.0 4000.0 4000.0 4000.0 4000.0 4000.0 4000.0 4000.0 4000.0 4000.0 4000.0 4000.0 4000.0 4000.0 4000.0 4000.0 4000.0 4000.0 4000.0 4000.0 4000.0 4000.0 4000.0 4000.0 4000.0 4000.0 4000.0 4000.0 4000.0 4000.0 4000.0 4000.0 4000.0 4000.0 4000.0 4000.0 4000.0 4000.0 4000.0 4000.0 4000.0 4000.0 4000.0 4000.0 4000.0 4000.0 4000.0 4000.0 4000.0 4000.0 4000.0 4000.0 4000.0 4000.0 4000.0 4000.0 4000.0 4000.0 4000.0 4000.0 4000.0 4000.0 4000.0 4000.0 4000.0 4000.0 4000.0 4000.0 4000.0 4000.0 4000.0 4000.0 4000.0 4000.0 4000.0 4000.0 4000.0 4000.0 4000.0 4000.0 4000.0 4000.0 4000.0 4000.0 4000.0 4000.0 4000.0 4000.0 4000.0 4000.0 4000.0 4000.0 4000.0 4000.0 4000.0 4000.0 4000.0 4000.0 4000.0 4000.0 4000.0 4000.0 4000.0 4000.0 4000.0 4000.0 4000.0 4000.0 4000.0 4000.0 4000.0 4000.0 4000.0 4000.0 4000.0 4000.0 4000.0 4000.0 4000.0 4000.0 4000.0 4000.0 4000.0 4000.0 4000.0 4000.0 4000.0 4000.0 4000.0 4000.0 4000.0 4000.0 4000.0 4000.0 4000.0 4000.0 4000.0 4000.0 4000.0 4000.0 4000.0 4000.0 4000.0 4000.0 4000.0 4000.0 4000.0 4000.0 4000.0 4000.0 4000.0 4000.0 4000.0 4000.0 4000.0 4000.0 4000.0 4000.0 4000.0 4000.0 4000.0 4000.0 4000.0 4000.0 4000.0 4000.0 4000.0 4000.0 4000.0 4000.0 4000.0 4000.0 4000.0 4000.0 4000.0 4000.0 4000.0 4000.0 4000.0 4000.0 4000.0 4000.0 4000.0 4000.0 4000.0 4000.0 4000.0 4000.0 4000.0 4000.0 4000.0 4000.0 4000.0 4000.0 4000.0 4000.0 4000.0 4000.0 4000.0 4000.0 4000.0 4000.0 4000.0 4000.0 4000.0 4000.0 4000.0 4000.0 4000.0 4000.0 4000.0 4000.0 4000.0 4000.0 4000.0 4000.0 4000.0 4000.0 4000.0 4000.0 4000.0 4000.0 4000.0 4000.0 4000.0 4000.0 4000.0 4000.0 4000.0 4000.0 4000.0 4000.0 4000.0 4000.0 4000.0 4000.0 4000.0 4000.0 4000.0 4000.0 4000.0 4000.0 4000.0 4000.0 4000.0 4000.0 4000.0 4000.0 4000.0 4000.0 4000.0 4000.0 4000.0 4000.0 4000.0 4000.0 4000.0 4000.0 4000.0 4000.0 4000.0 4000.0 4000.0 4000.0 4000.0 4000.0 4000.0 4000.0 4000.0 4000.0 4000.0 4000.0 4000.0 4000.0 4000.0 4000.0 4000.0 4000.0 4000.0 4000.0 4000.0 4000.0 4000.0 4000.0 4000.0 4000.0 4000.0 4000.0 4000.0 4000.0 4000.0 4000.0 4000.0 4000.0 4000.0 4000.0 4000.0 4000.0 4000.0 4000.0 4000.0 4000.0 4000.0 4000.0 4000.0 4000.0 4000.0 4000.0 4000.0 4000.0 4000.0 4000.0 4000.0 4000.0 4000.0 4000.0 4000.0 4000.0 4000.0 4000.0 4000.0 4000.0 4000.0 4000.0 4000.0 4000.0 4000.0 4000.0 4000.0 4000.0 4000.0 4000.0 4000.0 4000.0 4000.0 4000.0 4000.0 4000.0 4000.0 4000.0 4000.0 4000.0 4000.0 4000.0 4000.0 4000.0 4000.0 4000.0 4000.0 4000.0 4000.0 4000.0 4000.0 4000.0 4000.0 4000.0 4000.0 4000.0 4000.0 4000.0 4000.0 4000.0 4000.0 4000.0 4000.0 4000.0 4000.0 4000.0 4000.0 4000.0 4000.0 4000.0 4000.0 4000.0 4000.0 4000.0 4000.0 4000.0 4000.0 4000.0 4000.0 4000.0 4000.0 4000.0 4000.0 4000.0 4000.0 4000.0 4000.0 4000.0 4000.0 4000.0 4000.0 4000.0 4000.0 4000.0 4000.0 4000.0 4000.0 4000.0 4000.0 4000.0 4000.0 4000.0 4000.0 4000.0 4000.0 4000.0 4000.0 4000.0 4000.0 4000.0 4000.0 4000.0 4000.0 4000.0 4000.0 4000.0 4000.0 4000.0 4000.0 4000.0 4000.0 4000.0 4000.0 4000.0 4000.0 4000.0 4000.0 4000.0 4000.0 4000.0 4000.0 4000.0 4000.0 4000.0 4000.0 4000.0 4000.0 4000.0 4000.0 4000.0 4000.0 4000.0 4000.0 4000.0 4000.0 4000.0 4000.0 4000.0 4000.0 4000.0 4000.0 4000.0 4000.0 4000.0 4000.0 4000.0 4000.0 4000.0 4000.0 4000.0 4000.0 4000.0 4000.0 4000.0 4000.0 4000.0 4000.0 4000.0 4000.0 4000.0 4000.0 4000.0 4000.0 4000.0 4000.0 4000.0 4000.0 4000.0 4000.0 4000.0 4000.0 4000.0 4000.0 4000.0 4000.0 4000.0 4000.0 4000.0 4000.0 4000.0 4000.0 4000.0 4000.0 4000.0 4000.0 4000.0 4000.0 4000.0 4000.0 4000.0 4000.0 4000.0 4000.0 4000.0 4000.0 4000.0 4000.0 4000.0 4000.0 4000.0 4000.0 4000.0 4000.0 4000.0 4000.0 4000.0 4000.0 4000.0 4000.0 4000.0 4000.0 4000.0 4000.0 4000.0 4000.0 4000.0 4000.0 4000.0 4000.0 4000.0 4000.0 4000.0 4000.0 4000.0 4000.0 4000.0 4000.0 4000.0 4000.0 4000.0 4000.0 4000.0 4000.0 4000.0 4000.0 4000.0 4000.0 4000.0 4000.0 4000.0 4000.0 4000.0 4000.0 4000.0 4000.0 4000.0 4000.0 4000.0 4000.0 4000.0 4000.0 4000.0 4000.0 4000.0 4000.0 4000.0 4000.0 4000.0 4000.0 4000.0 4000.0 4000.0 4000.0 4000.0 4000.0 4000.0 4000.0 4000.0 4000.0 4000.0 4000.0 4000.0 4000.0 4000.0 4000.0 4000.0 4000.0 4000.0 4000.0 4000.0 4000.0 4000.0 4000.0 4000.0 4000.0 4000.0 4000.0 4000.0 4000.0 4000.0 4000.0 4000.0 4000.0 4000.0 4000.0 4000.0 4000.0 4000.0 4000.0 4000.0 4000.0 4000.0 4000.0 4000.0 4000.0 4000.0 4000.0 4000.0 4000.0 4000.0 4000.0 4000.0 4000.0 4000.0 4000.0 4000.0 4000.0 4000.0 4000.0 4000.0 4000.0 4000.0 4000.0 4000.0 4000.0 4000.0 4000.0 4000.0 4000.0 4000.0 4000.0 4000.0 4000.0 4000.0 4000.0 4000.0 4000.0 4000.0 4000.0 4000.0 4000.0 4000.0 4000.0 4000.0 4000.0 4000.0 4000.0 4000.0 4000.0 4000.0 4000.0 4000.0 4000.0 4000.0 4000.0 4000.0 4000.0 4000.0 4000.0 4000.0 4000.0 4000.0 4000.0 4000.0 4000.0 4000.0 4000.0 4000.0 4000.0 4000.0 4000.0 4000.0 4000.0 4000.0 4000.0 4000.0 4000.0 4000.0 4000.0 4000.0 4000.0 4000.0 4000.0 4000.0 4000.0 4000.0 4000.0 4000.0 4000.0 4000.0 4000.0 4000.0 4000.0 4000.0 4000.0 4000.0 4000.0 4000.0 4000.0 4000.0 4000.0 4000.0 4000.0 4000.0 4000.0 4000.0 4000.0 4000.0 4000.0 4000.0 4000.0 4000.0 4000.0 4000.0 4000.0 4000.0 4000.0 4000.0 4000.0 4000.0 4000.0 4000.0 4000.0 4000.0 4000.0 4000.0 4000.0 4000.0 4000.0 4000.0 4000.0 4000.0 4000.0 4000.0 4000.0 4000.0 4000.0 4000.0 4000.0 4000.0 4000.0 4000.0 4000.0 4000.0 4000.0 4000.0 4000.0 4000.0 4000.0 4000.0 4000.0 4000.0 4000.0 4000.0 4000.0 4000.0 4000.0 4000.0 4000.0 4000.0 4000.0 4000.0 4000.0 4000.0 4000.0 4000.0 4000.0 4000.0 4000.0 4000.0 4000.0 4000.0 4000.0 4000.0 4000.0 4000.0 4000.0 4000.0 4000.0 4000.0 4000.0 4000.0 4000.0 4000.0 4000.0 4000.0 4000.0 4000.0 4000.0 4000.0 4000.0 4000.0 4000.0 4000.0 4000.0 4000.0 4000.0 4000.0 4000.0 4000.0 4000.0 4000.0 4000.0 4000.0 4000.0 4000.0 4000.0 4000.0 4000.0 4000.0 4000.0 4000.0 4000.0 4000.0 4000.0 4000.0 4000.0 4000.0 4000.0 4000.0 4000.0 4000.0 4000.0 4000.0 4000.0 4000.0 4000.0 4000.0 4000.0 4000.0 4000.0 4000.0 4000.0 4000.0 4000.0 4000.0 4000.0 4000.0 4000.0 4000.0 4000.0 4000.0 4000.0 4000.0 4000.0 4000.0 4000.0 4000.0 4000.0 4000.0 4000.0 4000.0 4000.0 4000.0 4000.0 4000.0 4000.0 4000.0 4000.0 4000.0 4000.0 4000.0 4000.0 4000.0 4000.0 4000.0 4000.0 4000.0 4000.0 4000.0 4000.0 4000.0 4000.0 4000.0 4000.0 4000.0 4000.0 4000.0 4000.0 4000.0 4000.0 4000.0 4000.0 4000.0 4000.0 4000.0 4000.0 4000.0 4000.0 4000.0 4000.0 4000.0 4000.0 4000.0 4000.0 4000.0 4000.0 4000.0 4000.0 4000.0 4000.0 4000.0 4000.0 4000.0 4000.0 4000.0 4000.0 4000.0 4000.0 4000.0 4000.0 4000.0 4000.0 4000.0 4000.0 4000.0 4000.0 4000.0 4000.0 4000.0 4000.0 4000.0 4000.0 4000.0 4000.0 4000.0 4000.0 4000.0 4000.0 4000.0 4000.0 4000.0 4000.0 4000.0 4000.0 4000.0 4000.0 4000.0 4000.0 4000.0 4000.0 4000.0 4000.0 4000.0 4000.0 4000.0 4000.0 4000.0 4000.0 4000.0 4000.0 4000.0 4000.0 4000.0 4000.0 4000.0 4000.0 4000.0 4000.0 4000.0 4000.0 4000.0 4000.0 4000.0 4000.0 4000.0 4000.0 4000.0 4000.0 4000.0 4000.0 4000.0 4000.0 4000.0 4000.0 4000.0 4000.0 4000.0 4000.0 4000.0 4000.0 4000.0 4000.0 4000.0 4000.0 4000.0 4000.0 4000.0 4000.0 4000.0 4000.0 4000.0 4000.0 4000.0 4000.0 4000.0 4000.0 4000.0 4000.0 4000.0 4000.0 4000.0 4000.0 4000.0 4000.0 4000.0 4000.0 4000.0 4000.0 4000.0 4000.0 4000.0 4000.0 4000.0 4000.0 4000.0 4000.0 4000.0 4000.0 4000.0 4000.0 4000.0 4000.0 4000.0 4000.0 4000.0 4000.0 4000.0 4000.0 4000.0 4000.0 4000.0 4000.0 4000.0 4000.0 4000.0 4000.0 4000.0 4000.0 4000.0 4000.0 4000.0 4000.0 4000.0 4000.0 4000.0 4000.0 4000.0 4000.0 4000.0 4000.0 4000.0 4000.0 4000.0 4000.0 4000.0 4000.0 4000.0 4000.0 4000.0 4000.0 4000.0 4000.0 4000.0 4000.0 4000.0 4000.0 4000.0 4000.0 4000.0 4000.0 4000.0 4000.0 4000.0 4000.0 4000.0 4000.0 4000.0 4000.0 4000.0 4000.0 4000.0 4000.0 4000.0 4000.0 4000.0 4000.0 4000.0 4000.0 4000.0 4000.0 4000.0 4000.0 4000.0 4000.0 4000.0 4000.0 4000.0 4000.0 4000.0 4000.0 4000.0 4000.0 4000.0 4000.0 4000.0 4000.0 4000.0 4000.0 4000.0 4000.0 4000.0 4000.0 4000.0 4000.0 4000.0 4000.0 4000.0 4000.0 4000.0 4000.0 4000.0 4000.0 4000.0 4000.0 4000.0 4000.0 4000.0 4000.0 4000.0 4000.0 4000.0 4000.0 4000.0 4000.0 4000.0 4000.0 4000.0 4000.0 4000.0 4000.0 4000.0 4000.0 4000.0 4000.0 4000.0 4000.0 4000.0 4000.0 4000.0 4000.0 4000.0 4000.0 4000.0 4000.0 4000.0 4000.0 4000.0 4000.0 4000.0 4000.0 4000.0 4000.0 4000.0 4000.0 4000.0 4000.0 4000.0 4000.0 4000.0 4000.0 4000.0 4000.0 4000.0 4000.0 4000.0 4000.0 4000.0 4000.0 4000.0 4000.0 4000.0 4000.0 4000.0 4000.0 4000.0 4000.0 4000.0 4000.0 4000.0 4000.0 4000.0 4000.0 4000.0 4000.0 4000.0 4000.0 4000.0 4000.0 4000.0 4000.0 4000.0 4000.0 4000.0 4000.0 4000.0 4000.0 4000.0 4000.0 4000.0 4000.0 4000.0 4000.0 4000.0 4000.0 4000.0 4000.0 4000.0 4000.0 4000.0 4000.0 4000.0 4000.0 4000.0 4000.0 4000.0 4000.0 4000.0 4000.0 4000.0 4000.0 4000.0 4000.0 4000.0 4000.0 4000.0 4000.0 4000.0 4000.0 4000.0 4000.0 4000.0 4000.0 4000.0 4000.0 4000.0 4000.0 4000.0 4000.0 4000.0 4000.0 4000.0 4000.0 4000.0 4000.0 4000.0 4000.0 4000.0 4000.0 4000.0 4000.0 4000.0 4000.0 4000.0 4000.0 4000.0 4000.0 4000.0 4000.0 4000.0 4000.0 4000.0 4000.0 4000.0 4000.0 4000.0 4000.0 4000.0 4000.0 4000.0 4000.0 4000.0 4000.0 4000.0 4000.0 4000.0 4000.0 4000.0 4000.0 4000.0 4000.0 4000.0 4000.0 4000.0 4000.0 4000.0 4000.0 4000.0 4000.0 4000.0 4000.0 4000.0 4000.0 4000.0 4000.0 4000.0 4000.0 4000.0 4000.0 4000.0 4000.0 4000.0 4000.0 4000.0 4000.0 4000.0 4000.0 4000.0 4000.0 4000.0 4000.0 4000.0 4000.0 4000.0 4000.0 4000.0 4000.0 4000.0 4000.0 4000.0 4000.0 4000.0 4000.0 4000.0 4000.0 4000.0 4000.0 4000.0 4000.0 4000.0 4000.0 4000.0 4000.0 4000.0 4000.0 4000.0 4000.0 4000.0 4000.0 4000.0 4000.0 4000.0 4000.0 4000.0 4000.0 4000.0 4000.0 4000.0 4000.0 4000.0 4000.0 4000.0 4000.0 4000.0 4000.0 4000.0 4000.0 4000.0 4000.0 4000.0 4000.0 4000.0 4000.0 4000.0 4000.0 4000.0 4000.0 4000.0 4000.0 4000.0 4000.0 4000.0 4000.0 4000.0 4000.0 4000.0 4000.0 4000.0 4000.0 4000.0 4000.0 4000.0 4000.0 4000.0 4000.0 4000.0 4000.0 4000.0 4000.0 4000.0 4000.0 4000.0 4000.0 4000.0 4000.0 4000.0 4000.0 4000.0 4000.0 4000.0 4000.0 4000.0 4000.0 4000.0 4000.0 4000.0 4000.0 4000.0 4000.0 4000.0 4000.0 4000.0 4000.0 4000.0 4000.0 4000.0 4000.0 4000.0 4000.0 4000.0 4000.0 4000.0 4000.0 4000.0 4000.0 4000.0 4000.0 4000.0 4000.0 4000.0 4000.0 4000.0 4000.0 4000.0 4000.0 4000.0 4000.0 4000.0 4000.0 4000.0 4000.0 4000.0 4000.0 4000.0 4000.0 4000.0 4000.0 4000.0 4000.0 4000.0 4000.0 4000.0 4000.0 4000.0 4000.0 4000.0 4000.0 4000.0 4000.0 4000.0 4000.0 4000.0 4000.0 4000.0 4000.0 4000.0 4000.0 4000.0 4000.0 4000.0 4000.0 4000.0 4000.0 4000.0 4000.0 4000.0 4000.0 4000.0 4000.0 4000.0 4000.0 4000.0 4000.0 4000.0 4000.0 4000.0 4000.0 4000.0 4000.0 4000.0 4000.0 4000.0 4000.0 4000.0 4000.0 4000.0 4000.0 4000.0 4000.0 4000.0 4000.0 4000.0 4000.0 4000.0 4000.0 4000.0 4000.0 4000.0 4000.0 4000.0 4000.0 4000.0 4000.0 4000.0 4000.0 4000.0 4000.0 4000.0 4000.0 4000.0 4000.0 4000.0 4000.0 4000.0 4000.0 4000.0 4000.0 4000.0 4000.0 4000.0 4000.0 4000.0 4000.0 4000.0 4000.0 4000.0 4000.0 4000.0 4000.0 4000.0 4000.0 4000.0 4000.0 4000.0 4000.0 4000.0 4000.0 4000.0 4000.0 4000.0 4000.0 4000.0 4000.0 4000.0 4000.0 4000.0 4000.0 4000.0 4000.0 4000.0 4000.0 4000.0 4000.0 4000.0 4000.0 4000.0 4000.0 4000.0 4000.0 4000.0 4000.0 4000.0 4000.0 4000.0 4000.0 4000.0 4000.0 4000.0 4000.0 4000.0 4000.0 4000.0 4000.0 4000.0 4000.0 4000.0 4000.0 4000.0 4000.0 4000.0 4000.0 4000.0 4000.0 4000.0 4000.0 4000.0 4000.0 4000.0 4000.0 4000.0 4000.0 4000.0 4000.0 4000.0 4000.0 4000.0 4000.0 4000.0 4000.0 4000.0 4000.0 4000.0 4000.0 4000.0 4000.0 4000.0 4000.0 4000.0 4000.0 4000.0 4000.0 4000.0 4000.0 4000.0 4000.0 4000.0 4000.0 4000.0 4000.0 4000.0 4000.0 4000.0 4000.0 4000.0 4000.0 4000.0 4000.0 4000.0 4000.0 4000.0 4000.0 4000.0 4000.0 4000.0 4000.0 4000.0 4000.0 4000.0 4000.0 4000.0 4000.0 4000.0 4000.0 4000.0 4000.0 4000.0 4000.0 4000.0 4000.0 4000.0 4000.0 4000.0 4000.0 4000.0 4000.0 4000.0 4000.0 4000.0 4000.0 4000.0 4000.0 4000.0 4000.0 4000.0 4000.0 4000.0 4000.0 4000.0 4000.0 4000.0 4000.0 4000.0 4000.0 4000.0 4000.0 4000.0 4000.0 4000.0 4000.0 4000.0 4000.0 4000.0 4000.0 4000.0 4000.0 4000.0 4000.0 4000.0 4000.0 4000.0 4000.0 4000.0 4000.0 4000.0 4000.0 4000.0 4000.0 4000.0 4000.0 4000.0 4000.0 4000.0 4000.0 4000.0 4000.0 4000.0 4000.0 4000.0 4000.0 4000.0 4000.0 4000.0 4000.0 4000.0 4000.0 4000.0 4000.0 4000.0 4000.0 4000.0 4000.0 4000.0 4000.0 4000.0 4000.0 4000.0 4000.0 4000.0 4000.0 4000.0 4000.0 4000.0 4000.0 4000.0 4000.0 4000.0 4000.0 4000.0 4000.0 4000.0 4000.0 4000.0 4000.0 4000.0 4000.0 4000.0 4000.0 4000.0 4000.0 4000.0 4000.0 4000.0 4000.0 4000.0 4000.0 4000.0 4000.0 4000.0 4000.0 4000.0 4000.0 4000.0 4000.0 4000.0 4000.0 4000.0 4000.0 4000.0 4000.0 4000.0 4000.0 4000.0 4000.0 4000.0 4000.0 4000.0 4000.0 4000.0 4000.0 4000.0 4000.0 4000.0 4000.0 4000.0 4000.0 4000.0 4000.0 4000.0 4000.0 4000.0 4000.0 4000.0 4000.0 4000.0 4000.0 4000.0 4000.0 4000.0 4000.0 4000.0 4000.0 4000.0 4000.0 4000.0 4000.0 4000.0 4000.0 4000.0 4000.0 4000.0 4000.0 4000.0 4000.0 4000.0 4000.0 4000.0 4000.0 4000.0 4000.0 4000.0 4000.0 4000.0 4000.0 4000.0 4000.0 4000.0 4000.0 4000.0 4000.0 4000.0 4000.0 4000.0 4000.0 4000.0 4000.0 4000.0 4000.0 4000.0 4000.0 4000.0 4000.0 4000.0 4000.0 4000.0 4000.0 4000.0 4000.0 4000.0 4000.0 4000.0 4000.0 4000.0 4000.0 4000.0 4000.0 4000.0 4000.0 4000.0 4000.0 4000.0 4000.0 4000.0 4000.0 4000.0 4000.0 4000.0 4000.0 4000.0 4000.0 4000.0 4000.0 4000.0 4000.0 4000.0 4000.0 4000.0 4000.0 4000.0 4000.0 4000.0 4000.0 4000.0 4000.0 4000.0 4000.0 4000.0 4000.0 4000.0 4000.0 4000.0 4000.0 4000.0 4000.0 4000.0 4000.0 4000.0 4000.0 4000.0 4000.0 4000.0 4000.0 4000.0 4000.0 4000.0 4000.0 4000.0 4000.0 4000.0 4000.0 4000.0 4000.0 4000.0 4000.0 4000.0 4000.0 4000.0 4000.0 4000.0 4000.0 4000.0 4000.0 4000.0 4000.0 4000.0 4000.0 4000.0 4000.0 4000.0 4000.0 4000.0 4000.0 4000.0 4000.0 4000.0 4000.0 4000.0 4000.0 4000.0 4000.0 4000.0 4000.0 4000.0 4000.0 4000.0 4000.0 4000.0 4000.0 4000.0 4000.0 4000.0 4000.0 4000.0 4000.0 4000.0 4000.0 4000.0 4000.0 4000.0 4000.0 4000.0 4000.0 4000.0 4000.0 4000.0 4000.0 4000.0 4000.0 4000.0 4000.0 4000.0 4000.0 4000.0 4000.0 4000.0 4000.0 4000.0 4000.0 4000.0 4000.0 4000.0 4000.0 4000.0 4000.0 4000.0 4000.0 4000.0 4000.0 4000.0 4000.0 4000.0 4000.0 4000.0 4000.0 4000.0 4000.0 4000.0 4000.0 4000.0 4000.0 4000.0 4000.0 4000.0 4000.0 4000.0 4000.0 4000.0 4000.0 4000.0 4000.0 4000.0 4000.0 4000.0 4000.0 4000.0 4000.0 4000.0 4000.0 4000.0 4000.0 4000.0 4000.0 4000.0 4000.0 4000.0 4000.0 4000.0 4000.0 4000.0 4000.0 4000.0 4000.0 4000.0 4000.0 4000.0 4000.0 4000.0 4000.0 4000.0 4000.0 4000.0 4000.0 4000.0 4000.0 4000.0 4000.0 4000.0 4000.0 4000.0 4000.0 4000.0 4000.0 4000.0 4000.0 4000.0 4000.0 4000.0 4000.0 4000.0 4000.0 4000.0 4000.0 4000.0 4000.0 4000.0 4000.0 4000.0 4000.0 4000.0 4000.0 4000.0 4000.0 4000.0 4000.0 4000.0 4000.0 4000.0 4000.0 4000.0 4000.0 4000.0 4000.0 4000.0 4000.0 4000.0 4000.0 4000.0 4000.0 4000.0 4000.0 4000.0 4000.0 4000.0 4000.0 4000.0 4000.0 4000.0 4000.0 4000.0 4000.0 4000.0 4000.0 4000.0 4000.0 4000.0 4000.0 4000.0 4000.0 4000.0 4000.0 4000.0 4000.0 4000.0 4000.0 4000.0 4000.0 4000.0 4000.0 4000.0 4000.0 4000.0 4000.0 4000.0 4000.0 4000.0 4000.0 4000.0 4000.0 4000.0 4000.0 4000.0 4000.0 4000.0 4000.0 4000.0 4000.0 4000.0 4000.0 4000.0 4000.0 4000.0 4000.0 4000.0 4000.0 4000.0 4000.0 4000.0 4000.0 4000.0 4000.0 4000.0 4000.0 4000.0 4000.0 4000.0 4000.0 4000.0 4000.0 4000.0 4000.0 4000.0 4000.0 4000.0 4000.0 4000.0 4000.0 4000.0 4000.0 4000.0 4000.0 4000.0 4000.0 4000.0 4000.0 4000.0 4000.0 4000.0 4000.0 4000.0 4000.0 4000.0 4000.0 4000.0 4000.0 4000.0 4000.0 4000.0 4000.0 4000.0 4000.0 4000.0 4000.0 4000.0 4000.0 4000.0 4000.0 4000.0 4000.0 4000.0 4000.0 4000.0 4000.0 4000.0 4000.0 4000.0 4000.0 4000.0 4000.0 4000.0 4000.0 4000.0 4000.0 4000.0 4000.0 4000.0 4000.0 4000.0 4000.0 4000.0 4000.0 4000.0 4000.0 4000.0 4000.0 4000.0 4000.0 4000.0 4000.0 4000.0 4000.0 4000.0 4000.0 4000.0 4000.0 4000.0 4000.0 4000.0 4000.0 4000.0 4000.0 4000.0 4000.0 4000.0 4000.0 4000.0 4000.0 4000.0 4000.0 4000.0 4000.0 4000.0 4000.0 4000.0 4000.0 4000.0 4000.0 4000.0 4000.0 4000.0 4000.0 4000.0 4000.0 4000.0 4000.0 4000.0 4000.0 4000.0 4000.0 4000.0 4000.0 4000.0 4000.0 4000.0 4000.0 4000.0 4000.0 4000.0 4000.0 4000.0 4000.0 4000.0 4000.0 4000.0 4000.0 4000.0 4000.0 4000.0 4000.0 4000.0 4000.0 4000.0 4000.0 4000.0 4000.0 4000.0 4000.0 4000.0 4000.0 4000.0 4000.0 4000.0 4000.0 4000.0 4000.0 4000.0 4000.0 4000.0 4000.0 4000.0 4000.0 4000.0 4000.0 4000.0 4000.0 4000.0 4000.0 4000.0 4000.0 4000.0 4000.0 4000.0 4000.0 4000.0 4000.0 4000.0 4000.0 4000.0 4000.0 4000.0 4000.0 4000.0 4000.0 4000.0 4000.0 4000.0 4000.0 4000.0 4000.0 4000.0 4000.0 4000.0 4000.0 4000.0 4000.0 4000.0 4000.0 4000.0 4000.0 4000.0 4000.0 4000.0 4000.0 4000.0 4000.0 4000.0 4000.0 4000.0 4000.0 4000.0 4000.0 4000.0 4000.0 4000.0 4000.0 4000.0 4000.0 4000.0 4000.0 4000.0 4000.0 4000.0 4000.0 4000.0 4000.0 4000.0 4000.0 4000.0 4000.0 4000.0 4000.0 4000.0 4000.0 4000.0 4000.0 4000.0 4000.0 4000.0 4000.0 4000.0 4000.0 4000.0 4000.0 4000.0 4000.0 4000.0 4000.0 4000.0 4000.0 4000.0 4000.0 4000.0 4000.0 4000.0 4000.0 4000.0 4000.0 4000.0 4000.0 4000.0 4000.0 4000.0 4000.0 4000.0 4000.0 4000.0 4000.0 4000.0 4000.0 4000.0 4000.0 4000.0 4000.0 4000.0 4000.0 4000.0 4000.0 4000.0 4000.0 4000.0 4000.0 4000.0 4000.0 4000.0 4000.0 4000.0 4000.0 4000.0 4000.0 4000.0 4000.0 4000.0 4000.0 4000.0 4000.0 4000.0 4000.0 4000.0 4000.0 4000.0 4000.0 4000.0 4000.0 4000.0 4000.0 4000.0 4000.0 4000.0 4000.0 4000.0 4000.0 4000.0 4000.0 4000.0 4000.0 4000.0 4000.0 4000.0 4000.0 4000.0 4000.0 4000.0 4000.0 4000.0 4000.0 4000.0 4000.0 4000.0 4000.0 4000.0 4000.0 4000.0 4000.0 4000.0 4000.0 4000.0 4000.0 4000.0 4000.0 4000.0 4000.0 4000.0 4000.0 4000.0 4000.0 4000.0 4000.0 4000.0 4000.0 4000.0 4000.0 4000.0 4000.0 4000.0 4000.0 4000.0 4000.0 4000.0 4000.0 4000.0 4000.0 4000.0 4000.0 4000.0 4000.0 4000.0 4000.0 4000.0 4000.0 4000.0 4000.0 4000.0 4000.0 4000.0 4000.0 4000.0 4000.0 4000.0 4000.0 4000.0 4000.0 4000.0 4000.0 4000.0 4000.0 4000.0 4000.0 4000.0 4000.0 4000.0 4000.0 4000.0 4000.0 4000.0 4000.0 4000.0 4000.0 4000.0 4000.0 4000.0 4000.0 4000.0 4000.0 4000.0 4000.0 4000.0 4000.0 4000.0 4000.0 4000.0 4000.0 4000.0 4000.0 4000.0 4000.0 4000.0 4000.0 4000.0 4000.0 4000.0 4000.0 4000.0 4000.0 4000.0 4000.0 4000.0 4000.0 4000.0 4000.0 4000.0 4000.0 4000.0 4000.0 4000.0 4000.0 4000.0 4000.0 4000.0 4000.0 4000.0 4000.0 4000.0 4000.0 4000.0 4000.0 4000.0 4000.0 4000.0 4000.0 4000.0 4000.0 4000.0 4000.0 4000.0 4000.0 4000.0 4000.0 4000.0 4000.0 4000.0 4000.0 4000.0 4000.0 4000.0 4000.0 4000.0 4000.0 4000.0 4000.0 4000.0 4000.0 4000.0 4000.0 4000.0 4000.0 4000.0 4000.0 4000.0 4000.0 4000.0 4000.0 4000.0 4000.0 4000.0 4000.0 4000.0 4000.0 4000.0 4000.0 4000.0 4000.0 4000.0 4000.0 4000.0 4000.0 4000.0 4000.0 4000.0 4000.0 4000.0 4000.0 4000.0 4000.0 4000.0 4000.0 4000.0 4000.0 4000.0 4000.0 4000.0 4000.0 4000.0 4000.0 4000.0 4000.0 4000.0 4000.0 4000.0 4000.0 4000.0 4000.0 4000.0 4000.0 4000.0 4000.0 4000.0 4000.0 4000.0 4000.0 4000.0 4000.0 4000.0 4000.0 4000.0 4000.0 4000.0 4000.0 4000.0 4000.0 4000.0 4000.0 4000.0 4000.0 4000.0 4000.0 4000.0 4000.0 4000.0 4000.0 4000.0 4000.0 4000.0 4000.0 4000.0 4000.0 4000.0 4000.0 4000.0 4000.0 4000.0 4000.0 4000.0 4000.0 4000.0 4000.0 4000.0 4000.0 4000.0 4000.0 4000.0 4000.0 4000.0 4000.0 4000.0 4000.0 4000.0 4000.0 4000.0 4000.0 4000.0 4000.0 4000.0 4000.0 4000.0 4000.0 4000.0 4000.0 4000.0 4000.0 4000.0 4000.0 4000.0 4000.0 4000.0 4000.0 4000.0 4000.0 4000.0 4000.0 4000.0 4000.0 4000.0 4000.0 4000.0 4000.0 4000.0 4000.0 4000.0 4000.0 4000.0 4000.0 4000.0 4000.0 4000.0 4000.0 4000.0 4000.0 4000.0 4000.0 4000.0 4000.0 4000.0 4000.0 4000.0 4000.0 4000.0 4000.0 4000.0 4000.0 4000.0 4000.0 4000.0 4000.0 4000.0 4000.0 4000.0 4000.0 4000.0 4000.0 4000.0 4000.0 4000.0 4000.0 4000.0 4000.0 4000.0 4000.0 4000.0 4000.0 4000.0 4000.0 4000.0 4000.0 4000.0 4000.0 4000.0 4000.0 4000.0 4000.0 4000.0 4000.0 4000.0 4000.0 4000.0 4000.0 4000.0 4000.0 4000.0 4000.0 4000.0 4000.0 4000.0 4000.0 4000.0 4000.0 4000.0 4000.0 4000.0 4000.0 4000.0 4000.0 4000.0 4000.0 4000.0 4000.0 4000.0 4000.0 4000.0 4000.0 4000.0 4000.0 4000.0 4000.0 4000.0 4000.0 4000.0 4000.0 4000.0 4000.0 4000.0 4000.0 4000.0 4000.0 4000.0 4000.0 4000.0 4000.0 4000.0 4000.0 4000.0 4000.0 4000.0 4000.0 4000.0 4000.0 4000.0 4000.0 4000.0 4000.0 4000.0 4000.0 4000.0 4000.0 4000.0 4000.0 4000.0 4000.0 4000.0 4000.0 4000.0 4000.0 4000.0 4000.0 4000.0 4000.0 4000.0 4000.0 4000.0 4000.0 4000.0 4000.0 4000.0 4000.0 4000.0 4000.0 4000.0 4000.0 4000.0 4000.0 4000.0 4000.0 4000.0 4000.0 4000.0 4000.0 4000.0 4000.0 4000.0 4000.0 4000.0 4000.0 4000.0 4000.0 4000.0 4000.0 4000.0 4000.0 4000.0 4000.0 4000.0 4000.0 4000.0 4000.0 4000.0 4000.0 4000.0 4000.0 4000.0 4000.0 4000.0 4000.0 4000.0 4000.0 4000.0 4000.0 4000.0 4000.0 4000.0 4000.0 4000.0 4000.0 4000.0 4000.0 4000.0 4000.0 4000.0 4000.0 4000.0 4000.0 4000.0 4000.0 4000.0 4000.0 4000.0 4000.0 4000.0 4000.0 4000.0 4000.0 4000.0 4000.0 4000.0 4000.0 4000.0 4000.0 4000.0 4000.0 4000.0 4000.0 4000.0 4000.0 4000.0 4000.0 4000.0 4000.0 4000.0 4000.0 4000.0 4000.0 4000.0 4000.0 4000.0 4000.0 4000.0 4000.0 4000.0 4000.0 4000.0 4000.0 4000.0 4000.0 4000.0 4000.0 4000.0 4000.0 4000.0 4000.0 4000.0 4000.0 4000.0 4000.0 4000.0 4000.0 4000.0 4000.0 4000.0 4000.0 4000.0 4000.0 4000.0 4000.0 4000.0 4000.0 4000.0 4000.0 4000.0 4000.0 4000.0 4000.0 4000.0 4000.0 4000.0 4000.0 4000.0 4000.0 4000.0 4000.0 4000.0 4000.0 4000.0 4000.0 4000.0 4000.0 4000.0 4000.0 4000.0 4000.0 4000.0 4000.0 4000.0 4000.0 4000.0 4000.0 4000.0 4000.0 4000.0 4000.0 4000.0 4000.0 4000.0 4000.0 4000.0 4000.0 4000.0 4000.0 4000.0 4000.0 4000.0 4000.0 4000.0 4000.0 4000.0 4000.0 4000.0 4000.0 4000.0 4000.0 4000.0 4000.0 4000.0 4000.0 4000.0 4000.0 4000.0 4000.0 4000.0 4000.0 4000.0 4000.0 4000.0 4000.0 4000.0 4000.0 4000.0 4000.0 4000.0 4000.0 4000.0 4000.0 4000.0 4000.0 4000.0 4000.0 4000.0 4000.0 4000.0 4000.0 4000.0 4000.0 4000.0 4000.0 4000.0 4000.0 4000.0 4000.0 4000.0 4000.0 4000.0 4000.0 4000.0 4000.0 4000.0 4000.0 4000.0 4000.0 4000.0 4000.0 4000.0 4000.0 4000.0 4000.0 4000.0 4000.0 4000.0 4000.0 4000.0 4000.0 4000.0 4000.0 4000.0 4000.0 4000.0 4000.0 4000.0 4000.0 4000.0 4000.0 4000.0 4000.0 4000.0 4000.0 4000.0 4000.0 4000.0 4000.0 4000.0 4000.0 4000.0 4000.0 4000.0 4000.0 4000.0 4000.0 4000.0 4000.0 4000.0 4000.0 4000.0 4000.0 4000.0 4000.0 4000.0 4000.0 4000.0 4000.0 4000.0 4000.0 4000.0 4000.0 4000.0 4000.0 4000.0 4000.0 4000.0 4000.0 4000.0 4000.0 4000.0 4000.0 4000.0 4000.0 4000.0 4000.0 4000.0 4000.0 4000.0 4000.0 4000.0 4000.0 4000.0 4000.0 4000.0 4000.0 4000.0 4000.0 4000.0 4000.0 4000.0 4000.0 4000.0 4000.0 4000.0 4000.0 4000.0 4000.0 4000.0 4000.0 4000.0 4000.0 4000.0 4000.0 4000.0 4000.0 4000.0 4000.0 4000.0 4000.0 4000.0 4000.0 4000.0 4000.0 4000.0 4000.0 4000.0 4000.0 4000.0 4000.0 4000.0 4000.0 4000.0 4000.0 4000.0 4000.0 4000.0 4000.0 4000.0 4000.0 4000.0 4000.0 4000.0 4000.0 4000.0 4000.0 4000.0 4000.0 4000.0 4000.0 4000.0 4000.0 4000.0 4000.0 4000.0 4000.0 4000.0 4000.0 4000.0 4000.0 4000.0 4000.0 4000.0 4000.0 4000.0 4000.0 4000.0 4000.0 4000.0 4000.0 4000.0 4000.0 4000.0 4000.0 4000.0 4000.0 4000.0 4000.0 4000.0 4000.0 4000.0 4000.0 4000.0 4000.0 4000.0 4000.0 4000.0 4000.0 4000.0 4000.0 4000.0 4000.0 4000.0 4000.0 4000.0 4000.0 4000.0 4000.0 4000.0 4000.0 4000.0 4000.0 4000.0 4000.0 4000.0 4000.0 4000.0 4000.0 4000.0 4000.0 4000.0 4000.0 4000.0 4000.0 4000.0 4000.0 4000.0 4000.0 4000.0 4000.0 4000.0 4000.0 4000.0 4000.0 4000.0 4000.0 4000.0 4000.0 4000.0 4000.0 4000.0 4000.0 4000.0 4000.0 4000.0 4000.0 4000.0 4000.0 4000.0 4000.0 4000.0 4000.0 4000.0 4000.0 4000.0 4000.0 4000.0 4000.0 4000.0 4000.0 4000.0 4000.0 4000.0 4000.0 4000.0 4000.0 4000.0 4000.0 4000.0 4000.0 4000.0 4000.0 4000.0 4000.0 4000.0 4000.0 4000.0 4000.0 4000.0 4000.0 4000.0 4000.0 4000.0 4000.0 4000.0 4000.0 4000.0 4000.0 4000.0 4000.0 4000.0 4000.0 4000.0 4000.0 4000.0 4000.0 4000.0 4000.0 4000.0 4000.0 4000.0 4000.0 4000.0 4000.0 4000.0 4000.0 4000.0 4000.0 4000.0 4000.0 4000.0 4000.0 4000.0 4000.0 4000.0 4000.0 4000.0 4000.0 4000.0 4000.0 4000.0 4000.0 4000.0 4000.0 4000.0 4000.0 4000.0 4000.0 4000.0 4000.0 4000.0 4000.0 4000.0 4000.0 4000.0 4000.0 4000.0 4000.0 4000.0 4000.0 4000.0 4000.0 4000.0 4000.0 4000.0 4000.0 4000.0 4000.0 4000.0 4000.0 4000.0 4000.0 4000.0 4000.0 4000.0 4000.0 4000.0 4000.0 4000.0 4000.0 4000.0 4000.0 4000.0 4000.0 4000.0 4000.0 4000.0 4000.0 4000.0 4000.0 4000.0 4000.0 4000.0 4000.0 4000.0 4000.0 4000.0 4000.0 4000.0 4000.0 4000.0 4000.0 4000.0 4000.0 4000.0 4000.0 4000.0 4000.0 4000.0 4000.0 4000.0 4000.0 4000.0 4000.0 4000.0 4000.0 4000.0 4000.0 4000.0 4000.0 4000.0 4000.0 4000.0 4000.0 4000.0 4000.0 4000.0 4000.0 4000.0 4000.0 4000.0 4000.0 4000.0 4000.0 4000.0 4000.0 4000.0 4000.0 4000.0 4000.0 4000.0 4000.0 4000.0 4000.0 4000.0 4000.0 4000.0 4000.0 4000.0 4000.0 4000.0 4000.0 4000.0 4000.0 4000.0 4000.0 4000.0 4000.0 4000.0 4000.0 4000.0 4000.0 4000.0 4000.0 4000.0 4000.0 4000.0 4000.0 4000.0 4000.0 4000.0 4000.0 4000.0 4000.0 4000.0 4000.0 4000.0 4000.0 4000.0 4000.0 4000.0 4000.0 4000.0 4000.0 4000.0 4000.0 4000.0 4000.0 4000.0 4000.0 4000.0 4000.0 4000.0 4000.0 4000.0 4000.0 4000.0 4000.0 4000.0 4000.0 4000.0 4000.0 4000.0 4000.0 4000.0 4000.0 4000.0 4000.0 4000.0 4000.0 4000.0 4000.0 4000.0 4000.0 4000.0 4000.0 4000.0 4000.0 4000.0 4000.0 4000.0 4000.0 4000.0 4000.0 4000.0 4000.0 4000.0 4000.0 4000.0 4000.0 4000.0 4000.0 4000.0 4000.0 4000.0 4000.0 4000.0 4000.0 4000.0 4000.0 4000.0 4000.0 4000.0 4000.0 4000.0 4000.0 4000.0 4000.0 4000.0 4000.0 4000.0 4000.0 4000.0 4000.0 4000.0 4000.0 4000.0 4000.0 4000.0 4000.0 4000.0 4000.0 4000.0 4000.0 4000.0 4000.0 4000.0 4000.0 4000.0 4000.0 4000.0 4000.0 4000.0 4000.0 4000.0 4000.0 4000.0 4000.0 4000.0 4000.0 4000.0 4000.0 4000.0 4000.0 4000.0 4000.0 4000.0 4000.0 4000.0 4000.0 4000.0 4000.0 4000.0 4000.0 4000.0 4000.0 4000.0 4000.0 4000.0 4000.0 4000.0 4000.0 4000.0 4000.0 4000.0 4000.0 4000.0 4000.0 4000.0 4000.0 4000.0 4000.0 4000.0 4000.0 4000.0 4000.0 4000.0 4000.0 4000.0 4000.0 4000.0 4000.0 4000.0 4000.0 4000.0 4000.0 4000.0 4000.0 4000.0 4000.0 4000.0 4000.0 4000.0 4000.0 4000.0 4000.0 4000.0 4000.0 4000.0 4000.0 4000.0 4000.0 4000.0 4000.0 4000.0 4000.0 4000.0 4000.0 4000.0 4000.0 4000.0 4000.0 4000.0 4000.0 4000.0 4000.0 4000.0 4000.0 4000.0 4000.0 4000.0 4000.0 4000.0 4000.0 4000.0 4000.0 4000.0 4000.0 4000.0 4000.0 4000.0 4000.0 4000.0 4000.0 4000.0 4000.0 4000.0 4000.0 4000.0 4000.0 4000.0 4000.0 4000.0 4000.0 4000.0 4000.0 4000.0 4000.0 4000.0 4000.0 4000.0 4000.0 4000.0 4000.0 4000.0 4000.0 4000.0 4000.0 4000.0 4000.0 4000.0 4000.0 4000.0 4000.0 4000.0 4000.0 4000.0 SCALARS Mass float 1
LOOKUP_TABLE default
11309700000.0 11309700000.0 11309700000.0 11309700000.0 11309700000.0 11309700000.0 11309700000.0 11309700000.0 11309700000.0 11309700000.0 11309700000.0 11309700000.0 11309700000.0 11309700000.0 11309700000.0 11309700000.0 11309700000.0 11309700000.0 11309700000.0 11309700000.0 11309700000.0 11309700000.0 11309700000.0 11309700000.0 11309700000.0 11309700000.0 11309700000.0 11309700000.0 11309700000.0 11309700000.0 11309700000.0 11309700000.0 11309700000.0 11309700000.0 11309700000.0 11309700000.0 11309700000.0 11309700000.0 11309700000.0 11309700000.0 11309700000.0 11309700000.0 11309700000.0 11309700000.0 11309700000.0 11309700000.0 11309700000.0 11309700000.0 11309700000.0 11309700000.0 11309700000.0 11309700000.0 11309700000.0 11309700000.0 11309700000.0 11309700000.0 11309700000.0 11309700000.0 11309700000.0 11309700000.0 11309700000.0 11309700000.0 11309700000.0 11309700000.0 11309700000.0 11309700000.0 11309700000.0 11309700000.0 11309700000.0 11309700000.0 11309700000.0 11309700000.0 11309700000.0 11309700000.0 11309700000.0 11309700000.0 11309700000.0 11309700000.0 11309700000.0 11309700000.0 11309700000.0 11309700000.0 11309700000.0 11309700000.0 11309700000.0 11309700000.0 11309700000.0 11309700000.0 11309700000.0 11309700000.0 11309700000.0 11309700000.0 11309700000.0 11309700000.0 11309700000.0 11309700000.0 11309700000.0 11309700000.0 11309700000.0 11309700000.0 11309700000.0 11309700000.0 11309700000.0 11309700000.0 11309700000.0 11309700000.0 11309700000.0 11309700000.0 11309700000.0 11309700000.0 11309700000.0 11309700000.0 11309700000.0 11309700000.0 11309700000.0 11309700000.0 11309700000.0 11309700000.0 11309700000.0 11309700000.0 11309700000.0 11309700000.0 11309700000.0 11309700000.0 11309700000.0 11309700000.0 11309700000.0 11309700000.0 11309700000.0 11309700000.0 11309700000.0 11309700000.0 11309700000.0 11309700000.0 11309700000.0 11309700000.0 11309700000.0 11309700000.0 11309700000.0 11309700000.0 11309700000.0 11309700000.0 11309700000.0 11309700000.0 11309700000.0 11309700000.0 11309700000.0 11309700000.0 11309700000.0 11309700000.0 11309700000.0 11309700000.0 11309700000.0 11309700000.0 11309700000.0 11309700000.0 11309700000.0 11309700000.0 11309700000.0 11309700000.0 11309700000.0 11309700000.0 11309700000.0 11309700000.0 11309700000.0 11309700000.0 11309700000.0 11309700000.0 11309700000.0 11309700000.0 11309700000.0 11309700000.0 11309700000.0 11309700000.0 11309700000.0 11309700000.0 11309700000.0 11309700000.0 11309700000.0 11309700000.0 11309700000.0 11309700000.0 11309700000.0 11309700000.0 11309700000.0 11309700000.0 11309700000.0 11309700000.0 11309700000.0 11309700000.0 11309700000.0 11309700000.0 11309700000.0 11309700000.0 11309700000.0 11309700000.0 11309700000.0 11309700000.0 11309700000.0 11309700000.0 11309700000.0 11309700000.0 11309700000.0 11309700000.0 11309700000.0 11309700000.0 11309700000.0 11309700000.0 11309700000.0 11309700000.0 11309700000.0 11309700000.0 11309700000.0 11309700000.0 11309700000.0 11309700000.0 11309700000.0 11309700000.0 11309700000.0 11309700000.0 11309700000.0 11309700000.0 11309700000.0 11309700000.0 11309700000.0 11309700000.0 11309700000.0 11309700000.0 11309700000.0 11309700000.0 11309700000.0 11309700000.0 11309700000.0 11309700000.0 11309700000.0 11309700000.0 11309700000.0 11309700000.0 11309700000.0 11309700000.0 11309700000.0 11309700000.0 11309700000.0 11309700000.0 11309700000.0 11309700000.0 11309700000.0 11309700000.0 11309700000.0 11309700000.0 11309700000.0 11309700000.0 11309700000.0 11309700000.0 11309700000.0 11309700000.0 11309700000.0 11309700000.0 11309700000.0 11309700000.0 11309700000.0 11309700000.0 11309700000.0 11309700000.0 11309700000.0 11309700000.0 11309700000.0 11309700000.0 11309700000.0 11309700000.0 11309700000.0 11309700000.0 11309700000.0 11309700000.0 11309700000.0 11309700000.0 11309700000.0 11309700000.0 11309700000.0 11309700000.0 11309700000.0 11309700000.0 11309700000.0 11309700000.0 11309700000.0 11309700000.0 11309700000.0 11309700000.0 11309700000.0 11309700000.0 11309700000.0 11309700000.0 11309700000.0 11309700000.0 11309700000.0 11309700000.0 11309700000.0 11309700000.0 11309700000.0 11309700000.0 11309700000.0 11309700000.0 11309700000.0 11309700000.0 11309700000.0 11309700000.0 11309700000.0 11309700000.0 11309700000.0 11309700000.0 11309700000.0 11309700000.0 11309700000.0 11309700000.0 11309700000.0 11309700000.0 11309700000.0 11309700000.0 11309700000.0 11309700000.0 11309700000.0 11309700000.0 11309700000.0 11309700000.0 11309700000.0 11309700000.0 11309700000.0 11309700000.0 11309700000.0 11309700000.0 11309700000.0 11309700000.0 11309700000.0 11309700000.0 11309700000.0 11309700000.0 11309700000.0 11309700000.0 11309700000.0 11309700000.0 11309700000.0 11309700000.0 11309700000.0 11309700000.0 11309700000.0 11309700000.0 11309700000.0 11309700000.0 11309700000.0 11309700000.0 11309700000.0 11309700000.0 11309700000.0 11309700000.0 11309700000.0 11309700000.0 11309700000.0 11309700000.0 11309700000.0 11309700000.0 11309700000.0 11309700000.0 11309700000.0 11309700000.0 11309700000.0 11309700000.0 11309700000.0 11309700000.0 11309700000.0 11309700000.0 11309700000.0 11309700000.0 11309700000.0 11309700000.0 11309700000.0 11309700000.0 11309700000.0 11309700000.0 11309700000.0 11309700000.0 11309700000.0 11309700000.0 11309700000.0 11309700000.0 11309700000.0 11309700000.0 11309700000.0 11309700000.0 11309700000.0 11309700000.0 11309700000.0 11309700000.0 11309700000.0 11309700000.0 11309700000.0 11309700000.0 11309700000.0 11309700000.0 11309700000.0 11309700000.0 11309700000.0 11309700000.0 11309700000.0 11309700000.0 11309700000.0 11309700000.0 11309700000.0 11309700000.0 11309700000.0 11309700000.0 11309700000.0 11309700000.0 11309700000.0 11309700000.0 11309700000.0 11309700000.0 11309700000.0 11309700000.0 11309700000.0 11309700000.0 11309700000.0 11309700000.0 11309700000.0 11309700000.0 11309700000.0 11309700000.0 11309700000.0 11309700000.0 11309700000.0 11309700000.0 11309700000.0 11309700000.0 11309700000.0 11309700000.0 11309700000.0 11309700000.0 11309700000.0 11309700000.0 11309700000.0 11309700000.0 11309700000.0 11309700000.0 11309700000.0 11309700000.0 11309700000.0 11309700000.0 11309700000.0 11309700000.0 11309700000.0 11309700000.0 11309700000.0 11309700000.0 11309700000.0 11309700000.0 11309700000.0 11309700000.0 11309700000.0 11309700000.0 11309700000.0 11309700000.0 11309700000.0 11309700000.0 11309700000.0 11309700000.0 11309700000.0 11309700000.0 11309700000.0 11309700000.0 11309700000.0 11309700000.0 11309700000.0 11309700000.0 11309700000.0 11309700000.0 11309700000.0 11309700000.0 11309700000.0 11309700000.0 11309700000.0 11309700000.0 11309700000.0 11309700000.0 11309700000.0 11309700000.0 11309700000.0 11309700000.0 11309700000.0 11309700000.0 11309700000.0 11309700000.0 11309700000.0 11309700000.0 11309700000.0 11309700000.0 11309700000.0 11309700000.0 11309700000.0 11309700000.0 11309700000.0 11309700000.0 11309700000.0 11309700000.0 11309700000.0 11309700000.0 11309700000.0 11309700000.0 11309700000.0 11309700000.0 11309700000.0 11309700000.0 11309700000.0 11309700000.0 11309700000.0 11309700000.0 11309700000.0 11309700000.0 11309700000.0 11309700000.0 11309700000.0 11309700000.0 11309700000.0 11309700000.0 11309700000.0 11309700000.0 11309700000.0 11309700000.0 11309700000.0 11309700000.0 11309700000.0 11309700000.0 11309700000.0 11309700000.0 11309700000.0 11309700000.0 11309700000.0 11309700000.0 11309700000.0 11309700000.0 11309700000.0 11309700000.0 11309700000.0 11309700000.0 11309700000.0 11309700000.0 11309700000.0 11309700000.0 11309700000.0 11309700000.0 11309700000.0 11309700000.0 11309700000.0 11309700000.0 11309700000.0 11309700000.0 11309700000.0 11309700000.0 11309700000.0 11309700000.0 11309700000.0 11309700000.0 11309700000.0 11309700000.0 11309700000.0 11309700000.0 11309700000.0 11309700000.0 11309700000.0 11309700000.0 11309700000.0 11309700000.0 11309700000.0 11309700000.0 11309700000.0 11309700000.0 11309700000.0 11309700000.0 11309700000.0 11309700000.0 11309700000.0 11309700000.0 11309700000.0 11309700000.0 11309700000.0 11309700000.0 11309700000.0 11309700000.0 11309700000.0 11309700000.0 11309700000.0 11309700000.0 11309700000.0 11309700000.0 11309700000.0 11309700000.0 11309700000.0 11309700000.0 11309700000.0 11309700000.0 11309700000.0 11309700000.0 11309700000.0 11309700000.0 11309700000.0 11309700000.0 11309700000.0 11309700000.0 11309700000.0 11309700000.0 11309700000.0 11309700000.0 11309700000.0 11309700000.0 11309700000.0 11309700000.0 11309700000.0 11309700000.0 11309700000.0 11309700000.0 11309700000.0 11309700000.0 11309700000.0 11309700000.0 11309700000.0 11309700000.0 11309700000.0 11309700000.0 11309700000.0 11309700000.0 11309700000.0 11309700000.0 11309700000.0 11309700000.0 11309700000.0 11309700000.0 11309700000.0 11309700000.0 11309700000.0 11309700000.0 11309700000.0 11309700000.0 11309700000.0 11309700000.0 11309700000.0 11309700000.0 11309700000.0 11309700000.0 11309700000.0 11309700000.0 11309700000.0 11309700000.0 11309700000.0 11309700000.0 11309700000.0 11309700000.0 11309700000.0 11309700000.0 11309700000.0 11309700000.0 11309700000.0 11309700000.0 11309700000.0 11309700000.0 11309700000.0 11309700000.0 11309700000.0 11309700000.0 11309700000.0 11309700000.0 11309700000.0 11309700000.0 11309700000.0 11309700000.0 11309700000.0 11309700000.0 11309700000.0 11309700000.0 11309700000.0 11309700000.0 11309700000.0 11309700000.0 11309700000.0 11309700000.0 11309700000.0 11309700000.0 11309700000.0 11309700000.0 11309700000.0 11309700000.0 11309700000.0 11309700000.0 11309700000.0 11309700000.0 11309700000.0 11309700000.0 11309700000.0 11309700000.0 11309700000.0 11309700000.0 11309700000.0 11309700000.0 11309700000.0 11309700000.0 11309700000.0 11309700000.0 11309700000.0 11309700000.0 11309700000.0 11309700000.0 11309700000.0 11309700000.0 11309700000.0 11309700000.0 11309700000.0 11309700000.0 11309700000.0 11309700000.0 11309700000.0 11309700000.0 11309700000.0 11309700000.0 11309700000.0 11309700000.0 11309700000.0 11309700000.0 11309700000.0 11309700000.0 11309700000.0 11309700000.0 11309700000.0 11309700000.0 11309700000.0 11309700000.0 11309700000.0 11309700000.0 11309700000.0 11309700000.0 11309700000.0 11309700000.0 11309700000.0 11309700000.0 11309700000.0 11309700000.0 11309700000.0 11309700000.0 11309700000.0 11309700000.0 11309700000.0 11309700000.0 11309700000.0 11309700000.0 11309700000.0 11309700000.0 11309700000.0 11309700000.0 11309700000.0 11309700000.0 11309700000.0 11309700000.0 11309700000.0 11309700000.0 11309700000.0 11309700000.0 11309700000.0 11309700000.0 11309700000.0 11309700000.0 11309700000.0 11309700000.0 11309700000.0 11309700000.0 11309700000.0 11309700000.0 11309700000.0 11309700000.0 11309700000.0 11309700000.0 11309700000.0 11309700000.0 11309700000.0 11309700000.0 11309700000.0 11309700000.0 11309700000.0 11309700000.0 11309700000.0 11309700000.0 11309700000.0 11309700000.0 11309700000.0 11309700000.0 11309700000.0 11309700000.0 11309700000.0 11309700000.0 11309700000.0 11309700000.0 11309700000.0 11309700000.0 11309700000.0 11309700000.0 11309700000.0 11309700000.0 11309700000.0 11309700000.0 11309700000.0 11309700000.0 11309700000.0 11309700000.0 11309700000.0 11309700000.0 11309700000.0 11309700000.0 11309700000.0 11309700000.0 11309700000.0 11309700000.0 11309700000.0 11309700000.0 11309700000.0 11309700000.0 11309700000.0 11309700000.0 11309700000.0 11309700000.0 11309700000.0 11309700000.0 11309700000.0 11309700000.0 11309700000.0 11309700000.0 11309700000.0 11309700000.0 11309700000.0 11309700000.0 11309700000.0 11309700000.0 11309700000.0 11309700000.0 11309700000.0 11309700000.0 11309700000.0 11309700000.0 11309700000.0 11309700000.0 11309700000.0 11309700000.0 11309700000.0 11309700000.0 11309700000.0 11309700000.0 11309700000.0 11309700000.0 11309700000.0 11309700000.0 11309700000.0 11309700000.0 11309700000.0 11309700000.0 11309700000.0 11309700000.0 11309700000.0 11309700000.0 11309700000.0 11309700000.0 11309700000.0 11309700000.0 11309700000.0 11309700000.0 11309700000.0 11309700000.0 11309700000.0 11309700000.0 11309700000.0 11309700000.0 11309700000.0 11309700000.0 11309700000.0 11309700000.0 11309700000.0 11309700000.0 11309700000.0 11309700000.0 11309700000.0 11309700000.0 11309700000.0 11309700000.0 11309700000.0 11309700000.0 11309700000.0 11309700000.0 11309700000.0 11309700000.0 11309700000.0 11309700000.0 11309700000.0 11309700000.0 11309700000.0 11309700000.0 11309700000.0 11309700000.0 11309700000.0 11309700000.0 11309700000.0 11309700000.0 11309700000.0 11309700000.0 11309700000.0 11309700000.0 11309700000.0 11309700000.0 11309700000.0 11309700000.0 11309700000.0 11309700000.0 11309700000.0 11309700000.0 11309700000.0 11309700000.0 11309700000.0 11309700000.0 11309700000.0 11309700000.0 11309700000.0 11309700000.0 11309700000.0 11309700000.0 11309700000.0 11309700000.0 11309700000.0 11309700000.0 11309700000.0 11309700000.0 11309700000.0 11309700000.0 11309700000.0 11309700000.0 11309700000.0 11309700000.0 11309700000.0 11309700000.0 11309700000.0 11309700000.0 11309700000.0 11309700000.0 11309700000.0 11309700000.0 11309700000.0 11309700000.0 11309700000.0 11309700000.0 11309700000.0 11309700000.0 11309700000.0 11309700000.0 11309700000.0 11309700000.0 11309700000.0 11309700000.0 11309700000.0 11309700000.0 11309700000.0 11309700000.0 11309700000.0 11309700000.0 11309700000.0 11309700000.0 11309700000.0 11309700000.0 11309700000.0 11309700000.0 11309700000.0 11309700000.0 11309700000.0 11309700000.0 11309700000.0 11309700000.0 11309700000.0 11309700000.0 11309700000.0 11309700000.0 11309700000.0 11309700000.0 11309700000.0 11309700000.0 11309700000.0 11309700000.0 11309700000.0 11309700000.0 11309700000.0 11309700000.0 11309700000.0 11309700000.0 11309700000.0 11309700000.0 11309700000.0 11309700000.0 11309700000.0 11309700000.0 11309700000.0 11309700000.0 11309700000.0 11309700000.0 11309700000.0 11309700000.0 11309700000.0 11309700000.0 11309700000.0 11309700000.0 11309700000.0 11309700000.0 11309700000.0 11309700000.0 11309700000.0 11309700000.0 11309700000.0 11309700000.0 11309700000.0 11309700000.0 11309700000.0 11309700000.0 11309700000.0 11309700000.0 11309700000.0 11309700000.0 11309700000.0 11309700000.0 11309700000.0 11309700000.0 11309700000.0 11309700000.0 11309700000.0 11309700000.0 11309700000.0 11309700000.0 11309700000.0 11309700000.0 11309700000.0 11309700000.0 11309700000.0 11309700000.0 11309700000.0 11309700000.0 11309700000.0 11309700000.0 11309700000.0 11309700000.0 11309700000.0 11309700000.0 11309700000.0 11309700000.0 11309700000.0 11309700000.0 11309700000.0 11309700000.0 11309700000.0 11309700000.0 11309700000.0 11309700000.0 11309700000.0 11309700000.0 11309700000.0 11309700000.0 11309700000.0 11309700000.0 11309700000.0 11309700000.0 11309700000.0 11309700000.0 11309700000.0 11309700000.0 11309700000.0 11309700000.0 11309700000.0 11309700000.0 11309700000.0 11309700000.0 11309700000.0 11309700000.0 11309700000.0 11309700000.0 11309700000.0 11309700000.0 11309700000.0 11309700000.0 11309700000.0 11309700000.0 11309700000.0 11309700000.0 11309700000.0 11309700000.0 11309700000.0 11309700000.0 11309700000.0 11309700000.0 11309700000.0 11309700000.0 11309700000.0 11309700000.0 11309700000.0 11309700000.0 11309700000.0 11309700000.0 11309700000.0 11309700000.0 11309700000.0 11309700000.0 11309700000.0 11309700000.0 11309700000.0 11309700000.0 11309700000.0 11309700000.0 11309700000.0 11309700000.0 11309700000.0 11309700000.0 11309700000.0 11309700000.0 11309700000.0 11309700000.0 11309700000.0 11309700000.0 11309700000.0 11309700000.0 11309700000.0 11309700000.0 11309700000.0 11309700000.0 11309700000.0 11309700000.0 11309700000.0 11309700000.0 11309700000.0 11309700000.0 11309700000.0 11309700000.0 11309700000.0 11309700000.0 11309700000.0 11309700000.0 11309700000.0 11309700000.0 11309700000.0 11309700000.0 11309700000.0 11309700000.0 11309700000.0 11309700000.0 11309700000.0 11309700000.0 11309700000.0 11309700000.0 11309700000.0 11309700000.0 11309700000.0 11309700000.0 11309700000.0 11309700000.0 11309700000.0 11309700000.0 11309700000.0 11309700000.0 11309700000.0 11309700000.0 11309700000.0 11309700000.0 11309700000.0 11309700000.0 11309700000.0 11309700000.0 11309700000.0 11309700000.0 11309700000.0 11309700000.0 11309700000.0 11309700000.0 11309700000.0 11309700000.0 11309700000.0 11309700000.0 11309700000.0 11309700000.0 11309700000.0 11309700000.0 11309700000.0 11309700000.0 11309700000.0 11309700000.0 11309700000.0 11309700000.0 11309700000.0 11309700000.0 11309700000.0 11309700000.0 11309700000.0 11309700000.0 11309700000.0 11309700000.0 11309700000.0 11309700000.0 11309700000.0 11309700000.0 11309700000.0 11309700000.0 11309700000.0 11309700000.0 11309700000.0 11309700000.0 11309700000.0 11309700000.0 11309700000.0 11309700000.0 11309700000.0 11309700000.0 11309700000.0 11309700000.0 11309700000.0 11309700000.0 11309700000.0 11309700000.0 11309700000.0 11309700000.0 11309700000.0 11309700000.0 11309700000.0 11309700000.0 11309700000.0 11309700000.0 11309700000.0 11309700000.0 11309700000.0 11309700000.0 11309700000.0 11309700000.0 11309700000.0 11309700000.0 11309700000.0 11309700000.0 11309700000.0 11309700000.0 11309700000.0 11309700000.0 11309700000.0 11309700000.0 11309700000.0 11309700000.0 11309700000.0 11309700000.0 11309700000.0 11309700000.0 11309700000.0 11309700000.0 11309700000.0 11309700000.0 11309700000.0 11309700000.0 11309700000.0 11309700000.0 11309700000.0 11309700000.0 11309700000.0 11309700000.0 11309700000.0 11309700000.0 11309700000.0 11309700000.0 11309700000.0 11309700000.0 11309700000.0 11309700000.0 11309700000.0 11309700000.0 11309700000.0 11309700000.0 11309700000.0 11309700000.0 11309700000.0 11309700000.0 11309700000.0 11309700000.0 11309700000.0 11309700000.0 11309700000.0 11309700000.0 11309700000.0 11309700000.0 11309700000.0 11309700000.0 11309700000.0 11309700000.0 11309700000.0 11309700000.0 11309700000.0 11309700000.0 11309700000.0 11309700000.0 11309700000.0 11309700000.0 11309700000.0 11309700000.0 11309700000.0 11309700000.0 11309700000.0 11309700000.0 11309700000.0 11309700000.0 11309700000.0 11309700000.0 11309700000.0 11309700000.0 11309700000.0 11309700000.0 11309700000.0 11309700000.0 11309700000.0 11309700000.0 11309700000.0 11309700000.0 11309700000.0 11309700000.0 11309700000.0 11309700000.0 11309700000.0 11309700000.0 11309700000.0 11309700000.0 11309700000.0 11309700000.0 11309700000.0 11309700000.0 11309700000.0 11309700000.0 11309700000.0 11309700000.0 11309700000.0 11309700000.0 11309700000.0 11309700000.0 11309700000.0 11309700000.0 11309700000.0 11309700000.0 11309700000.0 11309700000.0 11309700000.0 11309700000.0 11309700000.0 11309700000.0 11309700000.0 11309700000.0 11309700000.0 11309700000.0 11309700000.0 11309700000.0 11309700000.0 11309700000.0 11309700000.0 11309700000.0 11309700000.0 11309700000.0 11309700000.0 11309700000.0 11309700000.0 11309700000.0 11309700000.0 11309700000.0 11309700000.0 11309700000.0 11309700000.0 11309700000.0 11309700000.0 11309700000.0 11309700000.0 11309700000.0 11309700000.0 11309700000.0 11309700000.0 11309700000.0 11309700000.0 11309700000.0 11309700000.0 11309700000.0 11309700000.0 11309700000.0 11309700000.0 11309700000.0 11309700000.0 11309700000.0 11309700000.0 11309700000.0 11309700000.0 11309700000.0 11309700000.0 11309700000.0 11309700000.0 11309700000.0 11309700000.0 11309700000.0 11309700000.0 11309700000.0 11309700000.0 11309700000.0 11309700000.0 11309700000.0 11309700000.0 11309700000.0 11309700000.0 11309700000.0 11309700000.0 11309700000.0 11309700000.0 11309700000.0 11309700000.0 11309700000.0 11309700000.0 11309700000.0 11309700000.0 11309700000.0 11309700000.0 11309700000.0 11309700000.0 11309700000.0 11309700000.0 11309700000.0 11309700000.0 11309700000.0 11309700000.0 11309700000.0 11309700000.0 11309700000.0 11309700000.0 11309700000.0 11309700000.0 11309700000.0 11309700000.0 11309700000.0 11309700000.0 11309700000.0 11309700000.0 11309700000.0 11309700000.0 11309700000.0 11309700000.0 11309700000.0 11309700000.0 11309700000.0 11309700000.0 11309700000.0 11309700000.0 11309700000.0 11309700000.0 11309700000.0 11309700000.0 11309700000.0 11309700000.0 11309700000.0 11309700000.0 11309700000.0 11309700000.0 11309700000.0 11309700000.0 11309700000.0 11309700000.0 11309700000.0 11309700000.0 11309700000.0 11309700000.0 11309700000.0 11309700000.0 11309700000.0 11309700000.0 11309700000.0 11309700000.0 11309700000.0 11309700000.0 11309700000.0 11309700000.0 11309700000.0 11309700000.0 11309700000.0 11309700000.0 11309700000.0 11309700000.0 11309700000.0 11309700000.0 11309700000.0 11309700000.0 11309700000.0 11309700000.0 11309700000.0 11309700000.0 11309700000.0 11309700000.0 11309700000.0 11309700000.0 11309700000.0 11309700000.0 11309700000.0 11309700000.0 11309700000.0 11309700000.0 11309700000.0 11309700000.0 11309700000.0 11309700000.0 11309700000.0 11309700000.0 11309700000.0 11309700000.0 11309700000.0 11309700000.0 11309700000.0 11309700000.0 11309700000.0 11309700000.0 11309700000.0 11309700000.0 11309700000.0 11309700000.0 11309700000.0 11309700000.0 11309700000.0 11309700000.0 11309700000.0 11309700000.0 11309700000.0 11309700000.0 11309700000.0 11309700000.0 11309700000.0 11309700000.0 11309700000.0 11309700000.0 11309700000.0 11309700000.0 11309700000.0 11309700000.0 11309700000.0 11309700000.0 11309700000.0 11309700000.0 11309700000.0 11309700000.0 11309700000.0 11309700000.0 11309700000.0 11309700000.0 11309700000.0 11309700000.0 11309700000.0 11309700000.0 11309700000.0 11309700000.0 11309700000.0 11309700000.0 11309700000.0 11309700000.0 11309700000.0 11309700000.0 11309700000.0 11309700000.0 11309700000.0 11309700000.0 11309700000.0 11309700000.0 11309700000.0 11309700000.0 11309700000.0 11309700000.0 11309700000.0 11309700000.0 11309700000.0 11309700000.0 11309700000.0 11309700000.0 11309700000.0 11309700000.0 11309700000.0 11309700000.0 11309700000.0 11309700000.0 11309700000.0 11309700000.0 11309700000.0 11309700000.0 11309700000.0 11309700000.0 11309700000.0 11309700000.0 11309700000.0 11309700000.0 11309700000.0 11309700000.0 11309700000.0 11309700000.0 11309700000.0 11309700000.0 11309700000.0 11309700000.0 11309700000.0 11309700000.0 11309700000.0 11309700000.0 11309700000.0 11309700000.0 11309700000.0 11309700000.0 11309700000.0 11309700000.0 11309700000.0 11309700000.0 11309700000.0 11309700000.0 11309700000.0 11309700000.0 11309700000.0 11309700000.0 11309700000.0 11309700000.0 11309700000.0 11309700000.0 11309700000.0 11309700000.0 11309700000.0 11309700000.0 11309700000.0 11309700000.0 11309700000.0 11309700000.0 11309700000.0 11309700000.0 11309700000.0 11309700000.0 11309700000.0 11309700000.0 11309700000.0 11309700000.0 11309700000.0 11309700000.0 11309700000.0 11309700000.0 11309700000.0 11309700000.0 11309700000.0 11309700000.0 11309700000.0 11309700000.0 11309700000.0 11309700000.0 11309700000.0 11309700000.0 11309700000.0 11309700000.0 11309700000.0 11309700000.0 11309700000.0 11309700000.0 11309700000.0 11309700000.0 11309700000.0 11309700000.0 11309700000.0 11309700000.0 11309700000.0 11309700000.0 11309700000.0 11309700000.0 11309700000.0 11309700000.0 11309700000.0 11309700000.0 11309700000.0 11309700000.0 11309700000.0 11309700000.0 11309700000.0 11309700000.0 11309700000.0 11309700000.0 11309700000.0 11309700000.0 11309700000.0 11309700000.0 11309700000.0 11309700000.0 11309700000.0 11309700000.0 11309700000.0 11309700000.0 11309700000.0 11309700000.0 11309700000.0 11309700000.0 11309700000.0 11309700000.0 11309700000.0 11309700000.0 11309700000.0 11309700000.0 11309700000.0 11309700000.0 11309700000.0 11309700000.0 11309700000.0 11309700000.0 11309700000.0 11309700000.0 11309700000.0 11309700000.0 11309700000.0 11309700000.0 11309700000.0 11309700000.0 11309700000.0 11309700000.0 11309700000.0 11309700000.0 11309700000.0 11309700000.0 11309700000.0 11309700000.0 11309700000.0 11309700000.0 11309700000.0 11309700000.0 11309700000.0 11309700000.0 11309700000.0 11309700000.0 11309700000.0 11309700000.0 11309700000.0 11309700000.0 11309700000.0 11309700000.0 11309700000.0 11309700000.0 11309700000.0 11309700000.0 11309700000.0 11309700000.0 11309700000.0 11309700000.0 11309700000.0 11309700000.0 11309700000.0 11309700000.0 11309700000.0 11309700000.0 11309700000.0 11309700000.0 11309700000.0 11309700000.0 11309700000.0 11309700000.0 11309700000.0 11309700000.0 11309700000.0 11309700000.0 11309700000.0 11309700000.0 11309700000.0 11309700000.0 11309700000.0 11309700000.0 11309700000.0 11309700000.0 11309700000.0 11309700000.0 11309700000.0 11309700000.0 11309700000.0 11309700000.0 11309700000.0 11309700000.0 11309700000.0 11309700000.0 11309700000.0 11309700000.0 11309700000.0 11309700000.0 11309700000.0 11309700000.0 11309700000.0 11309700000.0 11309700000.0 11309700000.0 11309700000.0 11309700000.0 11309700000.0 11309700000.0 11309700000.0 11309700000.0 11309700000.0 11309700000.0 11309700000.0 11309700000.0 11309700000.0 11309700000.0 11309700000.0 11309700000.0 11309700000.0 11309700000.0 11309700000.0 11309700000.0 11309700000.0 11309700000.0 11309700000.0 11309700000.0 11309700000.0 11309700000.0 11309700000.0 11309700000.0 11309700000.0 11309700000.0 11309700000.0 11309700000.0 11309700000.0 11309700000.0 11309700000.0 11309700000.0 11309700000.0 11309700000.0 11309700000.0 11309700000.0 11309700000.0 11309700000.0 11309700000.0 11309700000.0 11309700000.0 11309700000.0 11309700000.0 11309700000.0 11309700000.0 11309700000.0 11309700000.0 11309700000.0 11309700000.0 11309700000.0 11309700000.0 11309700000.0 11309700000.0 11309700000.0 11309700000.0 11309700000.0 11309700000.0 11309700000.0 11309700000.0 11309700000.0 11309700000.0 11309700000.0 11309700000.0 11309700000.0 11309700000.0 11309700000.0 11309700000.0 11309700000.0 11309700000.0 11309700000.0 11309700000.0 11309700000.0 11309700000.0 11309700000.0 11309700000.0 11309700000.0 11309700000.0 11309700000.0 11309700000.0 11309700000.0 11309700000.0 11309700000.0 11309700000.0 11309700000.0 11309700000.0 11309700000.0 11309700000.0 11309700000.0 11309700000.0 11309700000.0 11309700000.0 11309700000.0 11309700000.0 11309700000.0 11309700000.0 11309700000.0 11309700000.0 11309700000.0 11309700000.0 11309700000.0 11309700000.0 11309700000.0 11309700000.0 11309700000.0 11309700000.0 11309700000.0 11309700000.0 11309700000.0 11309700000.0 11309700000.0 11309700000.0 11309700000.0 11309700000.0 11309700000.0 11309700000.0 11309700000.0 11309700000.0 11309700000.0 11309700000.0 11309700000.0 11309700000.0 11309700000.0 11309700000.0 11309700000.0 11309700000.0 11309700000.0 11309700000.0 11309700000.0 11309700000.0 11309700000.0 11309700000.0 11309700000.0 11309700000.0 11309700000.0 11309700000.0 11309700000.0 11309700000.0 11309700000.0 11309700000.0 11309700000.0 11309700000.0 11309700000.0 11309700000.0 11309700000.0 11309700000.0 11309700000.0 11309700000.0 11309700000.0 11309700000.0 11309700000.0 11309700000.0 11309700000.0 11309700000.0 11309700000.0 11309700000.0 11309700000.0 11309700000.0 11309700000.0 11309700000.0 11309700000.0 11309700000.0 11309700000.0 11309700000.0 11309700000.0 11309700000.0 11309700000.0 11309700000.0 11309700000.0 11309700000.0 11309700000.0 11309700000.0 11309700000.0 11309700000.0 11309700000.0 11309700000.0 11309700000.0 11309700000.0 11309700000.0 11309700000.0 11309700000.0 11309700000.0 11309700000.0 11309700000.0 11309700000.0 11309700000.0 11309700000.0 11309700000.0 11309700000.0 11309700000.0 11309700000.0 11309700000.0 11309700000.0 11309700000.0 11309700000.0 11309700000.0 11309700000.0 11309700000.0 11309700000.0 11309700000.0 11309700000.0 11309700000.0 11309700000.0 11309700000.0 11309700000.0 11309700000.0 11309700000.0 11309700000.0 11309700000.0 11309700000.0 11309700000.0 11309700000.0 11309700000.0 11309700000.0 11309700000.0 11309700000.0 11309700000.0 11309700000.0 11309700000.0 11309700000.0 11309700000.0 11309700000.0 11309700000.0 11309700000.0 11309700000.0 11309700000.0 11309700000.0 11309700000.0 11309700000.0 11309700000.0 11309700000.0 11309700000.0 11309700000.0 11309700000.0 11309700000.0 11309700000.0 11309700000.0 11309700000.0 11309700000.0 11309700000.0 11309700000.0 11309700000.0 11309700000.0 11309700000.0 11309700000.0 11309700000.0 11309700000.0 11309700000.0 11309700000.0 11309700000.0 11309700000.0 11309700000.0 11309700000.0 11309700000.0 11309700000.0 11309700000.0 11309700000.0 11309700000.0 11309700000.0 11309700000.0 11309700000.0 11309700000.0 11309700000.0 11309700000.0 11309700000.0 11309700000.0 11309700000.0 11309700000.0 11309700000.0 11309700000.0 11309700000.0 11309700000.0 11309700000.0 11309700000.0 11309700000.0 11309700000.0 11309700000.0 11309700000.0 11309700000.0 11309700000.0 11309700000.0 11309700000.0 11309700000.0 11309700000.0 11309700000.0 11309700000.0 11309700000.0 11309700000.0 11309700000.0 11309700000.0 11309700000.0 11309700000.0 11309700000.0 11309700000.0 11309700000.0 11309700000.0 11309700000.0 11309700000.0 11309700000.0 11309700000.0 11309700000.0 11309700000.0 11309700000.0 11309700000.0 11309700000.0 11309700000.0 11309700000.0 11309700000.0 11309700000.0 11309700000.0 11309700000.0 11309700000.0 11309700000.0 11309700000.0 11309700000.0 11309700000.0 11309700000.0 11309700000.0 11309700000.0 11309700000.0 11309700000.0 11309700000.0 11309700000.0 11309700000.0 11309700000.0 11309700000.0 11309700000.0 11309700000.0 11309700000.0 11309700000.0 11309700000.0 11309700000.0 11309700000.0 11309700000.0 11309700000.0 11309700000.0 11309700000.0 11309700000.0 11309700000.0 11309700000.0 11309700000.0 11309700000.0 11309700000.0 11309700000.0 11309700000.0 11309700000.0 11309700000.0 11309700000.0 11309700000.0 11309700000.0 11309700000.0 11309700000.0 11309700000.0 11309700000.0 11309700000.0 11309700000.0 11309700000.0 11309700000.0 11309700000.0 11309700000.0 11309700000.0 11309700000.0 11309700000.0 11309700000.0 11309700000.0 11309700000.0 11309700000.0 11309700000.0 11309700000.0 11309700000.0 11309700000.0 11309700000.0 11309700000.0 11309700000.0 11309700000.0 11309700000.0 11309700000.0 11309700000.0 11309700000.0 11309700000.0 11309700000.0 11309700000.0 11309700000.0 11309700000.0 11309700000.0 11309700000.0 11309700000.0 11309700000.0 11309700000.0 11309700000.0 11309700000.0 11309700000.0 11309700000.0 11309700000.0 11309700000.0 11309700000.0 11309700000.0 11309700000.0 11309700000.0 11309700000.0 11309700000.0 11309700000.0 11309700000.0 11309700000.0 11309700000.0 11309700000.0 11309700000.0 11309700000.0 11309700000.0 11309700000.0 11309700000.0 11309700000.0 11309700000.0 11309700000.0 11309700000.0 11309700000.0 11309700000.0 11309700000.0 11309700000.0 11309700000.0 11309700000.0 11309700000.0 11309700000.0 11309700000.0 11309700000.0 11309700000.0 11309700000.0 11309700000.0 11309700000.0 11309700000.0 11309700000.0 11309700000.0 11309700000.0 11309700000.0 11309700000.0 11309700000.0 11309700000.0 11309700000.0 11309700000.0 11309700000.0 11309700000.0 11309700000.0 11309700000.0 11309700000.0 11309700000.0 11309700000.0 11309700000.0 11309700000.0 11309700000.0 11309700000.0 11309700000.0 11309700000.0 11309700000.0 11309700000.0 11309700000.0 11309700000.0 11309700000.0 11309700000.0 11309700000.0 11309700000.0 11309700000.0 11309700000.0 11309700000.0 11309700000.0 11309700000.0 11309700000.0 11309700000.0 11309700000.0 11309700000.0 11309700000.0 11309700000.0 11309700000.0 11309700000.0 11309700000.0 11309700000.0 11309700000.0 11309700000.0 11309700000.0 11309700000.0 11309700000.0 11309700000.0 11309700000.0 11309700000.0 11309700000.0 11309700000.0 11309700000.0 11309700000.0 11309700000.0 11309700000.0 11309700000.0 11309700000.0 11309700000.0 11309700000.0 11309700000.0 11309700000.0 11309700000.0 11309700000.0 11309700000.0 11309700000.0 11309700000.0 11309700000.0 11309700000.0 11309700000.0 11309700000.0 11309700000.0 11309700000.0 11309700000.0 11309700000.0 11309700000.0 11309700000.0 11309700000.0 11309700000.0 11309700000.0 11309700000.0 11309700000.0 11309700000.0 11309700000.0 11309700000.0 11309700000.0 11309700000.0 11309700000.0 11309700000.0 11309700000.0 11309700000.0 11309700000.0 11309700000.0 11309700000.0 11309700000.0 11309700000.0 11309700000.0 11309700000.0 11309700000.0 11309700000.0 11309700000.0 11309700000.0 11309700000.0 11309700000.0 11309700000.0 11309700000.0 11309700000.0 11309700000.0 11309700000.0 11309700000.0 11309700000.0 11309700000.0 11309700000.0 11309700000.0 11309700000.0 11309700000.0 11309700000.0 11309700000.0 11309700000.0 11309700000.0 11309700000.0 11309700000.0 11309700000.0 11309700000.0 11309700000.0 11309700000.0 11309700000.0 11309700000.0 11309700000.0 11309700000.0 11309700000.0 11309700000.0 11309700000.0 11309700000.0 11309700000.0 11309700000.0 11309700000.0 11309700000.0 11309700000.0 11309700000.0 11309700000.0 11309700000.0 11309700000.0 11309700000.0 11309700000.0 11309700000.0 11309700000.0 11309700000.0 11309700000.0 11309700000.0 11309700000.0 11309700000.0 11309700000.0 11309700000.0 11309700000.0 11309700000.0 11309700000.0 11309700000.0 11309700000.0 11309700000.0 11309700000.0 11309700000.0 11309700000.0 11309700000.0 11309700000.0 11309700000.0 11309700000.0 11309700000.0 11309700000.0 11309700000.0 11309700000.0 11309700000.0 11309700000.0 11309700000.0 11309700000.0 11309700000.0 11309700000.0 11309700000.0 11309700000.0 11309700000.0 11309700000.0 11309700000.0 11309700000.0 11309700000.0 11309700000.0 11309700000.0 11309700000.0 11309700000.0 11309700000.0 11309700000.0 11309700000.0 11309700000.0 11309700000.0 11309700000.0 11309700000.0 11309700000.0 11309700000.0 11309700000.0 11309700000.0 11309700000.0 11309700000.0 11309700000.0 11309700000.0 11309700000.0 11309700000.0 11309700000.0 11309700000.0 11309700000.0 11309700000.0 11309700000.0 11309700000.0 11309700000.0 11309700000.0 11309700000.0 11309700000.0 11309700000.0 11309700000.0 11309700000.0 11309700000.0 11309700000.0 11309700000.0 11309700000.0 11309700000.0 11309700000.0 11309700000.0 11309700000.0 11309700000.0 11309700000.0 11309700000.0 11309700000.0 11309700000.0 11309700000.0 11309700000.0 11309700000.0 11309700000.0 11309700000.0 11309700000.0 11309700000.0 11309700000.0 11309700000.0 11309700000.0 11309700000.0 11309700000.0 11309700000.0 11309700000.0 11309700000.0 11309700000.0 11309700000.0 11309700000.0 11309700000.0 11309700000.0 11309700000.0 11309700000.0 11309700000.0 11309700000.0 11309700000.0 11309700000.0 11309700000.0 11309700000.0 11309700000.0 11309700000.0 11309700000.0 11309700000.0 11309700000.0 11309700000.0 11309700000.0 11309700000.0 11309700000.0 11309700000.0 11309700000.0 11309700000.0 11309700000.0 11309700000.0 11309700000.0 11309700000.0 11309700000.0 11309700000.0 11309700000.0 11309700000.0 11309700000.0 11309700000.0 11309700000.0 11309700000.0 11309700000.0 11309700000.0 11309700000.0 11309700000.0 11309700000.0 11309700000.0 11309700000.0 11309700000.0 11309700000.0 11309700000.0 11309700000.0 11309700000.0 11309700000.0 11309700000.0 11309700000.0 11309700000.0 11309700000.0 11309700000.0 11309700000.0 11309700000.0 11309700000.0 11309700000.0 11309700000.0 11309700000.0 11309700000.0 11309700000.0 11309700000.0 11309700000.0 11309700000.0 11309700000.0 11309700000.0 11309700000.0 11309700000.0 11309700000.0 11309700000.0 11309700000.0 11309700000.0 11309700000.0 11309700000.0 11309700000.0 11309700000.0 11309700000.0 11309700000.0 11309700000.0 11309700000.0 11309700000.0 11309700000.0 11309700000.0 11309700000.0 11309700000.0 11309700000.0 11309700000.0 11309700000.0 11309700000.0 11309700000.0 11309700000.0 11309700000.0 11309700000.0 11309700000.0 11309700000.0 11309700000.0 11309700000.0 11309700000.0 11309700000.0 11309700000.0 11309700000.0 11309700000.0 11309700000.0 11309700000.0 11309700000.0 11309700000.0 11309700000.0 11309700000.0 11309700000.0 11309700000.0 11309700000.0 11309700000.0 11309700000.0 11309700000.0 11309700000.0 11309700000.0 11309700000.0 11309700000.0 11309700000.0 11309700000.0 11309700000.0 11309700000.0 11309700000.0 11309700000.0 11309700000.0 11309700000.0 11309700000.0 11309700000.0 11309700000.0 11309700000.0 11309700000.0 11309700000.0 11309700000.0 11309700000.0 11309700000.0 11309700000.0 11309700000.0 11309700000.0 11309700000.0 11309700000.0 11309700000.0 11309700000.0 11309700000.0 11309700000.0 11309700000.0 11309700000.0 11309700000.0 11309700000.0 11309700000.0 11309700000.0 11309700000.0 11309700000.0 11309700000.0 11309700000.0 11309700000.0 11309700000.0 11309700000.0 11309700000.0 11309700000.0 11309700000.0 11309700000.0 11309700000.0 11309700000.0 11309700000.0 11309700000.0 11309700000.0 11309700000.0 11309700000.0 11309700000.0 11309700000.0 11309700000.0 11309700000.0 11309700000.0 11309700000.0 11309700000.0 11309700000.0 11309700000.0 11309700000.0 11309700000.0 11309700000.0 11309700000.0 11309700000.0 11309700000.0 11309700000.0 11309700000.0 11309700000.0 11309700000.0 11309700000.0 11309700000.0 11309700000.0 11309700000.0 11309700000.0 11309700000.0 11309700000.0 11309700000.0 11309700000.0 11309700000.0 11309700000.0 11309700000.0 11309700000.0 11309700000.0 11309700000.0 11309700000.0 11309700000.0 11309700000.0 11309700000.0 11309700000.0 11309700000.0 11309700000.0 11309700000.0 11309700000.0 11309700000.0 11309700000.0 11309700000.0 11309700000.0 11309700000.0 11309700000.0 11309700000.0 11309700000.0 11309700000.0 11309700000.0 11309700000.0 11309700000.0 11309700000.0 11309700000.0 11309700000.0 11309700000.0 11309700000.0 11309700000.0 11309700000.0 11309700000.0 11309700000.0 11309700000.0 11309700000.0 11309700000.0 11309700000.0 11309700000.0 11309700000.0 11309700000.0 11309700000.0 11309700000.0 11309700000.0 11309700000.0 11309700000.0 11309700000.0 11309700000.0 11309700000.0 11309700000.0 11309700000.0 11309700000.0 11309700000.0 11309700000.0 11309700000.0 11309700000.0 11309700000.0 11309700000.0 11309700000.0 11309700000.0 11309700000.0 11309700000.0 11309700000.0 11309700000.0 11309700000.0 11309700000.0 11309700000.0 11309700000.0 11309700000.0 11309700000.0 11309700000.0 11309700000.0 11309700000.0 11309700000.0 11309700000.0 11309700000.0 11309700000.0 11309700000.0 11309700000.0 11309700000.0 11309700000.0 11309700000.0 11309700000.0 11309700000.0 11309700000.0 11309700000.0 11309700000.0 11309700000.0 11309700000.0 11309700000.0 11309700000.0 11309700000.0 11309700000.0 11309700000.0 11309700000.0 11309700000.0 11309700000.0 11309700000.0 11309700000.0 11309700000.0 11309700000.0 11309700000.0 11309700000.0 11309700000.0 11309700000.0 11309700000.0 11309700000.0 11309700000.0 11309700000.0 11309700000.0 11309700000.0 11309700000.0 11309700000.0 11309700000.0 11309700000.0 11309700000.0 11309700000.0 11309700000.0 11309700000.0 11309700000.0 11309700000.0 11309700000.0 11309700000.0 11309700000.0 11309700000.0 11309700000.0 11309700000.0 11309700000.0 11309700000.0 11309700000.0 11309700000.0 11309700000.0 11309700000.0 11309700000.0 11309700000.0 11309700000.0 11309700000.0 11309700000.0 11309700000.0 11309700000.0 11309700000.0 11309700000.0 11309700000.0 11309700000.0 11309700000.0 11309700000.0 11309700000.0 11309700000.0 11309700000.0 11309700000.0 11309700000.0 11309700000.0 11309700000.0 11309700000.0 11309700000.0 11309700000.0 11309700000.0 11309700000.0 11309700000.0 11309700000.0 11309700000.0 11309700000.0 11309700000.0 11309700000.0 11309700000.0 11309700000.0 11309700000.0 11309700000.0 11309700000.0 11309700000.0 11309700000.0 11309700000.0 11309700000.0 11309700000.0 11309700000.0 11309700000.0 11309700000.0 11309700000.0 11309700000.0 11309700000.0 11309700000.0 11309700000.0 11309700000.0 11309700000.0 11309700000.0 11309700000.0 11309700000.0 11309700000.0 11309700000.0 11309700000.0 11309700000.0 11309700000.0 11309700000.0 11309700000.0 11309700000.0 11309700000.0 11309700000.0 11309700000.0 11309700000.0 11309700000.0 11309700000.0 11309700000.0 11309700000.0 11309700000.0 11309700000.0 11309700000.0 11309700000.0 11309700000.0 11309700000.0 11309700000.0 11309700000.0 11309700000.0 11309700000.0 11309700000.0 11309700000.0 11309700000.0 11309700000.0 11309700000.0 11309700000.0 11309700000.0 11309700000.0 11309700000.0 11309700000.0 11309700000.0 11309700000.0 11309700000.0 11309700000.0 11309700000.0 11309700000.0 11309700000.0 11309700000.0 11309700000.0 11309700000.0 11309700000.0 11309700000.0 11309700000.0 11309700000.0 11309700000.0 11309700000.0 11309700000.0 11309700000.0 11309700000.0 11309700000.0 11309700000.0 11309700000.0 11309700000.0 11309700000.0 11309700000.0 11309700000.0 11309700000.0 11309700000.0 11309700000.0 11309700000.0 11309700000.0 11309700000.0 11309700000.0 11309700000.0 11309700000.0 11309700000.0 11309700000.0 11309700000.0 11309700000.0 11309700000.0 11309700000.0 11309700000.0 11309700000.0 11309700000.0 11309700000.0 11309700000.0 11309700000.0 11309700000.0 11309700000.0 11309700000.0 11309700000.0 11309700000.0 11309700000.0 11309700000.0 11309700000.0 11309700000.0 11309700000.0 11309700000.0 11309700000.0 11309700000.0 11309700000.0 11309700000.0 11309700000.0 11309700000.0 11309700000.0 11309700000.0 11309700000.0 11309700000.0 11309700000.0 11309700000.0 11309700000.0 11309700000.0 11309700000.0 11309700000.0 11309700000.0 11309700000.0 11309700000.0 11309700000.0 11309700000.0 11309700000.0 11309700000.0 11309700000.0 11309700000.0 11309700000.0 11309700000.0 11309700000.0 11309700000.0 11309700000.0 11309700000.0 11309700000.0 11309700000.0 11309700000.0 11309700000.0 11309700000.0 11309700000.0 11309700000.0 11309700000.0 11309700000.0 11309700000.0 11309700000.0 11309700000.0 11309700000.0 11309700000.0 11309700000.0 11309700000.0 11309700000.0 11309700000.0 11309700000.0 11309700000.0 11309700000.0 11309700000.0 11309700000.0 11309700000.0 11309700000.0 11309700000.0 11309700000.0 11309700000.0 11309700000.0 11309700000.0 11309700000.0 11309700000.0 11309700000.0 11309700000.0 11309700000.0 11309700000.0 11309700000.0 11309700000.0 11309700000.0 11309700000.0 11309700000.0 11309700000.0 11309700000.0 11309700000.0 11309700000.0 11309700000.0 11309700000.0 11309700000.0 11309700000.0 11309700000.0 11309700000.0 11309700000.0 11309700000.0 11309700000.0 11309700000.0 11309700000.0 11309700000.0 11309700000.0 11309700000.0 11309700000.0 11309700000.0 11309700000.0 11309700000.0 11309700000.0 11309700000.0 11309700000.0 11309700000.0 11309700000.0 11309700000.0 11309700000.0 11309700000.0 11309700000.0 11309700000.0 11309700000.0 11309700000.0 11309700000.0 11309700000.0 11309700000.0 11309700000.0 11309700000.0 11309700000.0 11309700000.0 11309700000.0 11309700000.0 11309700000.0 11309700000.0 11309700000.0 11309700000.0 11309700000.0 11309700000.0 11309700000.0 11309700000.0 11309700000.0 11309700000.0 11309700000.0 11309700000.0 11309700000.0 11309700000.0 11309700000.0 11309700000.0 11309700000.0 11309700000.0 11309700000.0 11309700000.0 11309700000.0 11309700000.0 11309700000.0 11309700000.0 11309700000.0 11309700000.0 11309700000.0 11309700000.0 11309700000.0 11309700000.0 11309700000.0 11309700000.0 11309700000.0 11309700000.0 11309700000.0 11309700000.0 11309700000.0 11309700000.0 11309700000.0 11309700000.0 11309700000.0 11309700000.0 11309700000.0 11309700000.0 11309700000.0 11309700000.0 11309700000.0 11309700000.0 11309700000.0 11309700000.0 11309700000.0 11309700000.0 11309700000.0 11309700000.0 11309700000.0 11309700000.0 11309700000.0 11309700000.0 11309700000.0 11309700000.0 11309700000.0 11309700000.0 11309700000.0 11309700000.0 11309700000.0 11309700000.0 11309700000.0 11309700000.0 11309700000.0 11309700000.0 11309700000.0 11309700000.0 11309700000.0 11309700000.0 11309700000.0 11309700000.0 11309700000.0 11309700000.0 11309700000.0 11309700000.0 11309700000.0 11309700000.0 11309700000.0 11309700000.0 11309700000.0 11309700000.0 11309700000.0 11309700000.0 11309700000.0 11309700000.0 11309700000.0 11309700000.0 11309700000.0 11309700000.0 11309700000.0 11309700000.0 11309700000.0 11309700000.0 11309700000.0 11309700000.0 11309700000.0 11309700000.0 11309700000.0 11309700000.0 11309700000.0 11309700000.0 11309700000.0 11309700000.0 11309700000.0 11309700000.0 11309700000.0 11309700000.0 11309700000.0 11309700000.0 11309700000.0 11309700000.0 11309700000.0 11309700000.0 11309700000.0 11309700000.0 11309700000.0 11309700000.0 11309700000.0 11309700000.0 11309700000.0 11309700000.0 11309700000.0 11309700000.0 11309700000.0 11309700000.0 11309700000.0 11309700000.0 11309700000.0 11309700000.0 11309700000.0 11309700000.0 11309700000.0 11309700000.0 11309700000.0 11309700000.0 11309700000.0 11309700000.0 11309700000.0 11309700000.0 11309700000.0 11309700000.0 11309700000.0 11309700000.0 11309700000.0 11309700000.0 11309700000.0 11309700000.0 11309700000.0 11309700000.0 11309700000.0 11309700000.0 11309700000.0 11309700000.0 11309700000.0 11309700000.0 11309700000.0 11309700000.0 11309700000.0 11309700000.0 11309700000.0 11309700000.0 11309700000.0 11309700000.0 11309700000.0 11309700000.0 11309700000.0 11309700000.0 11309700000.0 11309700000.0 11309700000.0 11309700000.0 11309700000.0 11309700000.0 11309700000.0 11309700000.0 11309700000.0 11309700000.0 11309700000.0 11309700000.0 11309700000.0 11309700000.0 11309700000.0 11309700000.0 11309700000.0 11309700000.0 11309700000.0 11309700000.0 11309700000.0 11309700000.0 11309700000.0 11309700000.0 11309700000.0 11309700000.0 11309700000.0 11309700000.0 11309700000.0 11309700000.0 11309700000.0 11309700000.0 11309700000.0 11309700000.0 11309700000.0 11309700000.0 11309700000.0 11309700000.0 11309700000.0 11309700000.0 11309700000.0 11309700000.0 11309700000.0 11309700000.0 11309700000.0 11309700000.0 11309700000.0 11309700000.0 11309700000.0 11309700000.0 11309700000.0 11309700000.0 11309700000.0 11309700000.0 11309700000.0 11309700000.0 11309700000.0 11309700000.0 11309700000.0 11309700000.0 11309700000.0 11309700000.0 11309700000.0 11309700000.0 11309700000.0 11309700000.0 11309700000.0 11309700000.0 11309700000.0 11309700000.0 11309700000.0 11309700000.0 11309700000.0 11309700000.0 11309700000.0 11309700000.0 11309700000.0 11309700000.0 11309700000.0 11309700000.0 11309700000.0 11309700000.0 11309700000.0 11309700000.0 11309700000.0 11309700000.0 11309700000.0 11309700000.0 11309700000.0 11309700000.0 11309700000.0 11309700000.0 11309700000.0 11309700000.0 11309700000.0 11309700000.0 11309700000.0 11309700000.0 11309700000.0 11309700000.0 11309700000.0 11309700000.0 11309700000.0 11309700000.0 11309700000.0 11309700000.0 11309700000.0 11309700000.0 11309700000.0 11309700000.0 11309700000.0 11309700000.0 11309700000.0 11309700000.0 11309700000.0 11309700000.0 11309700000.0 11309700000.0 11309700000.0 11309700000.0 11309700000.0 11309700000.0 11309700000.0 11309700000.0 11309700000.0 11309700000.0 11309700000.0 11309700000.0 11309700000.0 11309700000.0 11309700000.0 11309700000.0 11309700000.0 11309700000.0 11309700000.0 11309700000.0 11309700000.0 11309700000.0 11309700000.0 11309700000.0 11309700000.0 11309700000.0 11309700000.0 11309700000.0 11309700000.0 11309700000.0 11309700000.0 11309700000.0 11309700000.0 11309700000.0 11309700000.0 11309700000.0 11309700000.0 11309700000.0 11309700000.0 11309700000.0 11309700000.0 11309700000.0 11309700000.0 11309700000.0 11309700000.0 11309700000.0 11309700000.0 11309700000.0 11309700000.0 11309700000.0 11309700000.0 11309700000.0 11309700000.0 11309700000.0 11309700000.0 11309700000.0 11309700000.0 11309700000.0 11309700000.0 11309700000.0 11309700000.0 11309700000.0 11309700000.0 11309700000.0 11309700000.0 11309700000.0 11309700000.0 11309700000.0 11309700000.0 11309700000.0 11309700000.0 11309700000.0 11309700000.0 11309700000.0 11309700000.0 11309700000.0 11309700000.0 11309700000.0 11309700000.0 11309700000.0 11309700000.0 11309700000.0 11309700000.0 11309700000.0 11309700000.0 11309700000.0 11309700000.0 11309700000.0 11309700000.0 11309700000.0 11309700000.0 11309700000.0 11309700000.0 11309700000.0 11309700000.0 11309700000.0 11309700000.0 11309700000.0 11309700000.0 11309700000.0 11309700000.0 11309700000.0 11309700000.0 11309700000.0 11309700000.0 11309700000.0 11309700000.0 11309700000.0 11309700000.0 11309700000.0 11309700000.0 11309700000.0 11309700000.0 11309700000.0 11309700000.0 11309700000.0 11309700000.0 11309700000.0 11309700000.0 11309700000.0 11309700000.0 11309700000.0 11309700000.0 11309700000.0 11309700000.0 11309700000.0 11309700000.0 11309700000.0 11309700000.0 11309700000.0 11309700000.0 11309700000.0 11309700000.0 11309700000.0 11309700000.0 11309700000.0 11309700000.0 11309700000.0 11309700000.0 11309700000.0 11309700000.0 11309700000.0 11309700000.0 11309700000.0 11309700000.0 11309700000.0 11309700000.0 11309700000.0 11309700000.0 11309700000.0 11309700000.0 11309700000.0 11309700000.0 11309700000.0 11309700000.0 11309700000.0 11309700000.0 11309700000.0 11309700000.0 11309700000.0 11309700000.0 11309700000.0 11309700000.0 11309700000.0 11309700000.0 11309700000.0 11309700000.0 11309700000.0 11309700000.0 11309700000.0 11309700000.0 11309700000.0 11309700000.0 11309700000.0 11309700000.0 11309700000.0 11309700000.0 11309700000.0 11309700000.0 11309700000.0 11309700000.0 11309700000.0 11309700000.0 11309700000.0 11309700000.0 11309700000.0 11309700000.0 11309700000.0 11309700000.0 11309700000.0 11309700000.0 11309700000.0 11309700000.0 11309700000.0 11309700000.0 11309700000.0 11309700000.0 11309700000.0 11309700000.0 11309700000.0 11309700000.0 11309700000.0 11309700000.0 11309700000.0 11309700000.0 11309700000.0 11309700000.0 11309700000.0 11309700000.0 11309700000.0 11309700000.0 11309700000.0 11309700000.0 11309700000.0 11309700000.0 11309700000.0 11309700000.0 11309700000.0 11309700000.0 11309700000.0 11309700000.0 11309700000.0 11309700000.0 11309700000.0 11309700000.0 11309700000.0 11309700000.0 11309700000.0 11309700000.0 11309700000.0 11309700000.0 11309700000.0 11309700000.0 11309700000.0 11309700000.0 11309700000.0 11309700000.0 11309700000.0 11309700000.0 11309700000.0 11309700000.0 11309700000.0 11309700000.0 11309700000.0 11309700000.0 11309700000.0 11309700000.0 11309700000.0 11309700000.0 11309700000.0 11309700000.0 11309700000.0 11309700000.0 11309700000.0 11309700000.0 11309700000.0 11309700000.0 11309700000.0 11309700000.0 11309700000.0 11309700000.0 11309700000.0 11309700000.0 11309700000.0 11309700000.0 11309700000.0 11309700000.0 11309700000.0 11309700000.0 11309700000.0 11309700000.0 11309700000.0 11309700000.0 11309700000.0 11309700000.0 11309700000.0 11309700000.0 11309700000.0 11309700000.0 11309700000.0 11309700000.0 11309700000.0 11309700000.0 11309700000.0 11309700000.0 11309700000.0 11309700000.0 11309700000.0 11309700000.0 11309700000.0 11309700000.0 11309700000.0 11309700000.0 11309700000.0 11309700000.0 11309700000.0 11309700000.0 11309700000.0 11309700000.0 11309700000.0 11309700000.0 11309700000.0 11309700000.0 11309700000.0 11309700000.0 11309700000.0 11309700000.0 11309700000.0 11309700000.0 11309700000.0 11309700000.0 11309700000.0 11309700000.0 11309700000.0 11309700000.0 11309700000.0 11309700000.0 11309700000.0 11309700000.0 11309700000.0 11309700000.0 11309700000.0 11309700000.0 11309700000.0 11309700000.0 11309700000.0 11309700000.0 11309700000.0 11309700000.0 11309700000.0 11309700000.0 11309700000.0 11309700000.0 11309700000.0 11309700000.0 11309700000.0 11309700000.0 11309700000.0 11309700000.0 11309700000.0 11309700000.0 11309700000.0 11309700000.0 11309700000.0 11309700000.0 11309700000.0 11309700000.0 11309700000.0 11309700000.0 11309700000.0 11309700000.0 11309700000.0 11309700000.0 11309700000.0 11309700000.0 11309700000.0 11309700000.0 11309700000.0 11309700000.0 11309700000.0 11309700000.0 11309700000.0 11309700000.0 11309700000.0 11309700000.0 11309700000.0 11309700000.0 11309700000.0 11309700000.0 11309700000.0 11309700000.0 11309700000.0 11309700000.0 11309700000.0 11309700000.0 11309700000.0 11309700000.0 11309700000.0 11309700000.0 11309700000.0 11309700000.0 11309700000.0 11309700000.0 11309700000.0 11309700000.0 11309700000.0 11309700000.0 11309700000.0 11309700000.0 11309700000.0 11309700000.0 11309700000.0 11309700000.0 11309700000.0 11309700000.0 11309700000.0 11309700000.0 11309700000.0 11309700000.0 11309700000.0 11309700000.0 11309700000.0 11309700000.0 11309700000.0 11309700000.0 11309700000.0 11309700000.0 11309700000.0 11309700000.0 11309700000.0 11309700000.0 11309700000.0 11309700000.0 11309700000.0 11309700000.0 11309700000.0 11309700000.0 11309700000.0 11309700000.0 11309700000.0 11309700000.0 11309700000.0 11309700000.0 11309700000.0 11309700000.0 11309700000.0 11309700000.0 11309700000.0 11309700000.0 11309700000.0 11309700000.0 11309700000.0 11309700000.0 11309700000.0 11309700000.0 11309700000.0 11309700000.0 11309700000.0 11309700000.0 11309700000.0 11309700000.0 11309700000.0 11309700000.0 11309700000.0 11309700000.0 11309700000.0 11309700000.0 11309700000.0 11309700000.0 11309700000.0 11309700000.0 11309700000.0 11309700000.0 11309700000.0 11309700000.0 11309700000.0 11309700000.0 11309700000.0 11309700000.0 11309700000.0 11309700000.0 11309700000.0 11309700000.0 11309700000.0 11309700000.0 11309700000.0 11309700000.0 11309700000.0 11309700000.0 11309700000.0 11309700000.0 11309700000.0 11309700000.0 11309700000.0 11309700000.0 11309700000.0 11309700000.0 11309700000.0 11309700000.0 11309700000.0 11309700000.0 11309700000.0 11309700000.0 11309700000.0 11309700000.0 11309700000.0 11309700000.0 11309700000.0 11309700000.0 11309700000.0 11309700000.0 11309700000.0 11309700000.0 11309700000.0 11309700000.0 11309700000.0 11309700000.0 11309700000.0 11309700000.0 11309700000.0 11309700000.0 11309700000.0 11309700000.0 11309700000.0 11309700000.0 11309700000.0 11309700000.0 11309700000.0 11309700000.0 11309700000.0 11309700000.0 11309700000.0 11309700000.0 11309700000.0 11309700000.0 11309700000.0 11309700000.0 11309700000.0 11309700000.0 11309700000.0 11309700000.0 11309700000.0 11309700000.0 11309700000.0 11309700000.0 11309700000.0 11309700000.0 11309700000.0 11309700000.0 11309700000.0 11309700000.0 11309700000.0 11309700000.0 11309700000.0 11309700000.0 11309700000.0 11309700000.0 11309700000.0 11309700000.0 11309700000.0 11309700000.0 11309700000.0 11309700000.0 11309700000.0 11309700000.0 11309700000.0 11309700000.0 11309700000.0 11309700000.0 11309700000.0 11309700000.0 11309700000.0 11309700000.0 11309700000.0 11309700000.0 11309700000.0 11309700000.0 11309700000.0 11309700000.0 11309700000.0 11309700000.0 11309700000.0 11309700000.0 11309700000.0 11309700000.0 11309700000.0 11309700000.0 11309700000.0 11309700000.0 11309700000.0 11309700000.0 11309700000.0 11309700000.0 11309700000.0 11309700000.0 11309700000.0 11309700000.0 11309700000.0 11309700000.0 11309700000.0 11309700000.0 11309700000.0 11309700000.0 11309700000.0 11309700000.0 11309700000.0 11309700000.0 11309700000.0 11309700000.0 11309700000.0 11309700000.0 11309700000.0 11309700000.0 11309700000.0 11309700000.0 11309700000.0 11309700000.0 11309700000.0 11309700000.0 11309700000.0 11309700000.0 11309700000.0 11309700000.0 11309700000.0 11309700000.0 11309700000.0 11309700000.0 11309700000.0 11309700000.0 11309700000.0 11309700000.0 11309700000.0 11309700000.0 11309700000.0 11309700000.0 11309700000.0 11309700000.0 11309700000.0 11309700000.0 11309700000.0 11309700000.0 11309700000.0 11309700000.0 11309700000.0 11309700000.0 11309700000.0 11309700000.0 11309700000.0 11309700000.0 11309700000.0 11309700000.0 11309700000.0 11309700000.0 11309700000.0 11309700000.0 11309700000.0 11309700000.0 11309700000.0 11309700000.0 11309700000.0 11309700000.0 11309700000.0 11309700000.0 11309700000.0 11309700000.0 11309700000.0 11309700000.0 11309700000.0 11309700000.0 11309700000.0 11309700000.0 11309700000.0 11309700000.0 11309700000.0 11309700000.0 11309700000.0 11309700000.0 11309700000.0 11309700000.0 11309700000.0 11309700000.0 11309700000.0 11309700000.0 11309700000.0 11309700000.0 11309700000.0 11309700000.0 11309700000.0 11309700000.0 11309700000.0 11309700000.0 11309700000.0 11309700000.0 11309700000.0 11309700000.0 11309700000.0 11309700000.0 11309700000.0 11309700000.0 11309700000.0 11309700000.0 11309700000.0 11309700000.0 11309700000.0 11309700000.0 11309700000.0 11309700000.0 11309700000.0 11309700000.0 11309700000.0 11309700000.0 11309700000.0 11309700000.0 11309700000.0 11309700000.0 11309700000.0 11309700000.0 11309700000.0 11309700000.0 11309700000.0 11309700000.0 11309700000.0 11309700000.0 11309700000.0 11309700000.0 11309700000.0 11309700000.0 11309700000.0 11309700000.0 11309700000.0 11309700000.0 11309700000.0 11309700000.0 11309700000.0 11309700000.0 11309700000.0 11309700000.0 11309700000.0 11309700000.0 11309700000.0 11309700000.0 11309700000.0 11309700000.0 11309700000.0 11309700000.0 11309700000.0 11309700000.0 11309700000.0 11309700000.0 11309700000.0 11309700000.0 11309700000.0 11309700000.0 11309700000.0 11309700000.0 11309700000.0 11309700000.0 11309700000.0 11309700000.0 11309700000.0 11309700000.0 11309700000.0 11309700000.0 11309700000.0 11309700000.0 11309700000.0 11309700000.0 11309700000.0 11309700000.0 11309700000.0 11309700000.0 11309700000.0 11309700000.0 11309700000.0 11309700000.0 11309700000.0 11309700000.0 11309700000.0 11309700000.0 11309700000.0 11309700000.0 11309700000.0 11309700000.0 11309700000.0 11309700000.0 11309700000.0 11309700000.0 11309700000.0 11309700000.0 11309700000.0 11309700000.0 11309700000.0 11309700000.0 11309700000.0 11309700000.0 11309700000.0 11309700000.0 11309700000.0 11309700000.0 11309700000.0 11309700000.0 11309700000.0 11309700000.0 11309700000.0 11309700000.0 11309700000.0 11309700000.0 11309700000.0 11309700000.0 11309700000.0 11309700000.0 11309700000.0 11309700000.0 11309700000.0 11309700000.0 11309700000.0 11309700000.0 11309700000.0 11309700000.0 11309700000.0 11309700000.0 11309700000.0 11309700000.0 11309700000.0 11309700000.0 11309700000.0 11309700000.0 11309700000.0 11309700000.0 11309700000.0 11309700000.0 11309700000.0 11309700000.0 11309700000.0 11309700000.0 11309700000.0 11309700000.0 11309700000.0 11309700000.0 11309700000.0 11309700000.0 11309700000.0 11309700000.0 11309700000.0 11309700000.0 11309700000.0 11309700000.0 11309700000.0 11309700000.0 11309700000.0 11309700000.0 11309700000.0 11309700000.0 11309700000.0 11309700000.0 11309700000.0 11309700000.0 11309700000.0 11309700000.0 11309700000.0 11309700000.0 11309700000.0 11309700000.0 11309700000.0 11309700000.0 11309700000.0 11309700000.0 11309700000.0 11309700000.0 11309700000.0 11309700000.0 11309700000.0 11309700000.0 11309700000.0 11309700000.0 11309700000.0 11309700000.0 11309700000.0 11309700000.0 11309700000.0 11309700000.0 11309700000.0 11309700000.0 11309700000.0 11309700000.0 11309700000.0 11309700000.0 11309700000.0 11309700000.0 11309700000.0 11309700000.0 11309700000.0 11309700000.0 11309700000.0 11309700000.0 11309700000.0 11309700000.0 11309700000.0 11309700000.0 11309700000.0 11309700000.0 11309700000.0 11309700000.0 11309700000.0 11309700000.0 11309700000.0 11309700000.0 11309700000.0 11309700000.0 11309700000.0 11309700000.0 11309700000.0 11309700000.0 11309700000.0 11309700000.0 11309700000.0 11309700000.0 11309700000.0 11309700000.0 11309700000.0 11309700000.0 11309700000.0 11309700000.0 11309700000.0 11309700000.0 11309700000.0 11309700000.0 11309700000.0 11309700000.0 11309700000.0 11309700000.0 11309700000.0 11309700000.0 11309700000.0 11309700000.0 11309700000.0 11309700000.0 11309700000.0 11309700000.0 11309700000.0 11309700000.0 11309700000.0 11309700000.0 11309700000.0 11309700000.0 11309700000.0 11309700000.0 11309700000.0 11309700000.0 11309700000.0 11309700000.0 11309700000.0 11309700000.0 11309700000.0 11309700000.0 11309700000.0 11309700000.0 11309700000.0 11309700000.0 11309700000.0 11309700000.0 11309700000.0 11309700000.0 11309700000.0 11309700000.0 11309700000.0 11309700000.0 11309700000.0 11309700000.0 11309700000.0 11309700000.0 11309700000.0 11309700000.0 11309700000.0 11309700000.0 11309700000.0 11309700000.0 11309700000.0 11309700000.0 11309700000.0 11309700000.0 11309700000.0 11309700000.0 11309700000.0 11309700000.0 11309700000.0 11309700000.0 11309700000.0 11309700000.0 11309700000.0 11309700000.0 11309700000.0 11309700000.0 11309700000.0 11309700000.0 11309700000.0 11309700000.0 11309700000.0 11309700000.0 11309700000.0 11309700000.0 11309700000.0 11309700000.0 11309700000.0 11309700000.0 11309700000.0 11309700000.0 11309700000.0 11309700000.0 11309700000.0 11309700000.0 11309700000.0 11309700000.0 11309700000.0 11309700000.0 11309700000.0 11309700000.0 11309700000.0 11309700000.0 11309700000.0 11309700000.0 11309700000.0 11309700000.0 11309700000.0 11309700000.0 11309700000.0 11309700000.0 11309700000.0 11309700000.0 11309700000.0 11309700000.0 11309700000.0 11309700000.0 11309700000.0 11309700000.0 11309700000.0 11309700000.0 11309700000.0 11309700000.0 11309700000.0 11309700000.0 11309700000.0 11309700000.0 11309700000.0 11309700000.0 11309700000.0 11309700000.0 11309700000.0 11309700000.0 11309700000.0 11309700000.0 11309700000.0 11309700000.0 11309700000.0 11309700000.0 11309700000.0 11309700000.0 11309700000.0 11309700000.0 11309700000.0 11309700000.0 11309700000.0 11309700000.0 11309700000.0 11309700000.0 11309700000.0 11309700000.0 11309700000.0 11309700000.0 11309700000.0 11309700000.0 11309700000.0 11309700000.0 11309700000.0 11309700000.0 11309700000.0 11309700000.0 11309700000.0 11309700000.0 11309700000.0 11309700000.0 11309700000.0 11309700000.0 11309700000.0 11309700000.0 11309700000.0 11309700000.0 11309700000.0 11309700000.0 11309700000.0 11309700000.0 11309700000.0 11309700000.0 11309700000.0 11309700000.0 11309700000.0 11309700000.0 11309700000.0 11309700000.0 11309700000.0 11309700000.0 11309700000.0 11309700000.0 11309700000.0 11309700000.0 11309700000.0 11309700000.0 11309700000.0 11309700000.0 11309700000.0 11309700000.0 11309700000.0 11309700000.0 11309700000.0 11309700000.0 11309700000.0 11309700000.0 11309700000.0 11309700000.0 11309700000.0 11309700000.0 11309700000.0 11309700000.0 11309700000.0 11309700000.0 11309700000.0 11309700000.0 11309700000.0 11309700000.0 11309700000.0 11309700000.0 11309700000.0 11309700000.0 11309700000.0 11309700000.0 11309700000.0 11309700000.0 11309700000.0 11309700000.0 11309700000.0 11309700000.0 11309700000.0 11309700000.0 11309700000.0 11309700000.0 11309700000.0 11309700000.0 11309700000.0 11309700000.0 11309700000.0 11309700000.0 11309700000.0 11309700000.0 11309700000.0 11309700000.0 11309700000.0 11309700000.0 11309700000.0 11309700000.0 11309700000.0 11309700000.0 11309700000.0 11309700000.0 11309700000.0 11309700000.0 11309700000.0 11309700000.0 11309700000.0 11309700000.0 11309700000.0 11309700000.0 11309700000.0 11309700000.0 11309700000.0 11309700000.0 11309700000.0 11309700000.0 11309700000.0 11309700000.0 11309700000.0 11309700000.0 11309700000.0 11309700000.0 11309700000.0 11309700000.0 11309700000.0 11309700000.0 11309700000.0 11309700000.0 11309700000.0 11309700000.0 11309700000.0 11309700000.0 11309700000.0 11309700000.0 11309700000.0 11309700000.0 11309700000.0 11309700000.0 11309700000.0 11309700000.0 11309700000.0 11309700000.0 11309700000.0 11309700000.0 11309700000.0 11309700000.0 11309700000.0 11309700000.0 11309700000.0 11309700000.0 11309700000.0 11309700000.0 11309700000.0 11309700000.0 11309700000.0 11309700000.0 11309700000.0 11309700000.0 11309700000.0 11309700000.0 11309700000.0 11309700000.0 11309700000.0 11309700000.0 11309700000.0 11309700000.0 11309700000.0 11309700000.0 11309700000.0 11309700000.0 11309700000.0 11309700000.0 11309700000.0 11309700000.0 11309700000.0 11309700000.0 11309700000.0 11309700000.0 11309700000.0 11309700000.0 11309700000.0 11309700000.0 11309700000.0 11309700000.0 11309700000.0 11309700000.0 11309700000.0 11309700000.0 11309700000.0 11309700000.0 11309700000.0 11309700000.0 11309700000.0 11309700000.0 11309700000.0 11309700000.0 11309700000.0 11309700000.0 11309700000.0 11309700000.0 11309700000.0 11309700000.0 11309700000.0 11309700000.0 11309700000.0 11309700000.0 11309700000.0 11309700000.0 11309700000.0 11309700000.0 11309700000.0 11309700000.0 11309700000.0 11309700000.0 11309700000.0 11309700000.0 11309700000.0 11309700000.0 11309700000.0 11309700000.0 11309700000.0 11309700000.0 11309700000.0 11309700000.0 11309700000.0 11309700000.0 11309700000.0 11309700000.0 11309700000.0 11309700000.0 11309700000.0 11309700000.0 11309700000.0 11309700000.0 11309700000.0 11309700000.0 11309700000.0 11309700000.0 11309700000.0 11309700000.0 11309700000.0 11309700000.0 11309700000.0 11309700000.0 11309700000.0 11309700000.0 11309700000.0 11309700000.0 11309700000.0 11309700000.0 11309700000.0 11309700000.0 11309700000.0 11309700000.0 11309700000.0 11309700000.0 11309700000.0 11309700000.0 
SCALARS Velocity float 1
LOOKUP_TABLE default
1.07779 1.06728 1.07498 1.10114 1.07845 1.07764 1.07674 1.07585 1.0729 0.987221 1.08196 1.07743 1.07068 1.06569 1.06654 1.06704 1.06762 1.06773 1.0769 1.07846 1.07869 1.07835 1.07683 1.07462 1.0712 1.01623 1.04126 1.076 1.07697 1.07063 1.06623 1.06745 1.10114 1.07722 1.07881 1.07857 1.0777 1.07585 1.07289 1.07109 1.03455 1.07894 1.07221 1.07051 1.07049 1.06586 1.06674 1.06791 1.09981 1.07843 1.07873 1.07861 1.07831 1.0777 1.07685 1.07574 1.07458 1.07307 1.06748 1.01776 1.08154 1.07613 1.07455 1.07151 1.06951 1.06982 1.07032 1.07016 1.06618 1.06623 1.06673 1.06734 1.06765 1.07791 1.07859 1.07867 1.0787 1.07837 1.07676 1.07433 1.07116 1.05451 1.07848 1.07335 1.06995 1.06983 1.06666 1.0675 1.09816 1.07864 1.07856 1.07882 1.07774 1.07546 1.07245 1.06771 1.07568 1.07533 1.07138 1.06974 1.06987 1.06654 1.0676 1.06731 1.09605 1.07864 1.07909 1.07938 1.07863 1.07791 1.07666 1.07512 1.07377 1.07186 1.07011 1.07106 1.07572 1.07564 1.07614 1.0744 1.07309 1.07149 1.07026 1.0699 1.06969 1.06983 1.06674 1.06711 1.06805 1.0688 1.06879 1.07763 1.07925 1.07933 1.08 1.07918 1.07661 1.07328 1.07124 1.07439 1.075 1.07276 1.07056 1.06983 1.06713 1.06877 1.06914 1.07889 1.07899 1.08034 1.08032 1.07827 1.07483 1.07198 1.07207 1.07448 1.07368 1.07154 1.07018 1.07002 1.06661 1.0679 1.06751 1.07582 1.08033 1.08116 1.08004 1.07881 1.07662 1.07457 1.07308 1.07178 1.07155 1.07179 1.07329 1.0733 1.0739 1.07297 1.07244 1.07156 1.07082 1.07054 1.07014 1.07038 1.06628 1.06671 1.06654 1.07004 1.07862 1.08102 1.08154 1.08246 1.08156 1.08122 1.07663 1.07256 1.07114 1.07222 1.07288 1.07213 1.0711 1.07059 1.06611 1.06602 1.06674 1.06779 1.06986 1.07435 1.07895 1.08258 1.08305 1.07947 1.07396 1.07104 1.07105 1.07218 1.0723 1.07162 1.07099 1.07087 1.06569 1.06631 1.06794 1.07279 1.08207 1.08367 1.08281 1.08006 1.07634 1.07275 1.07149 1.06978 1.07022 1.07001 1.07114 1.07112 1.07195 1.07177 1.07189 1.07176 1.07145 1.07155 1.07115 1.0715 1.065 1.06577 1.06753 1.06902 1.08035 1.08327 1.08505 1.08498 1.08516 1.07532 1.06984 1.06905 1.07009 1.07118 1.07178 1.07189 1.07184 1.0654 1.06672 1.06883 1.06929 1.07083 1.06911 1.06 1.08259 1.084 1.08792 1.08012 1.07065 1.06831 1.06907 1.07019 1.0714 1.07199 1.07221 1.07226 1.064 1.06711 1.0717 1.06857 1.05728 1.08709 1.08884 1.07823 1.07286 1.06761 1.06779 1.06724 1.06814 1.06867 1.06933 1.06938 1.07057 1.07114 1.07175 1.07227 1.07243 1.07298 1.07265 1.07312 1.06234 1.06462 1.06697 1.07035 1.07472 1.07369 1.05798 1.06099 1.09222 1.09438 1.06815 1.06625 1.06805 1.06911 1.07014 1.07173 1.07302 1.07357 1.06309 1.07115 1.07941 1.07153 1.05178 1.05638 1.06305 1.06845 1.07438 1.0708 1.06532 1.06717 1.06921 1.06857 1.07098 1.07242 1.07385 1.07406 1.05981 1.0661 1.07679 1.08296 1.05607 1.07138 1.06449 1.06467 1.06563 1.0663 1.06801 1.06863 1.06985 1.07016 1.06946 1.07015 1.07021 1.07134 1.07228 1.07366 1.07481 1.07455 1.07499 1.05602 1.06073 1.0649 1.07146 1.07894 1.08307 1.09346 1.04365 1.06468 1.0264 1.03935 1.06461 1.06739 1.06952 1.06995 1.07146 1.07029 1.07446 1.07549 1.05748 1.07254 1.08891 1.04377 1.05356 1.0139 1.03869 1.05609 1.06112 1.06613 1.06801 1.06911 1.07029 1.07023 1.07019 1.06981 1.07056 1.07281 1.07408 1.07174 1.07581 1.0757 1.05031 1.0528 1.06389 1.0757 1.08396 1.09747 1.00331 1.02398 1.05061 1.06456 1.06964 1.07067 1.06989 1.07125 1.0766 1.07575 1.07641 1.07612 1.07614 1.04169 1.0623 1.0942 1.09723 1.09101 1.00654 1.0 1.0091 1.0196 1.0352 1.04569 1.05733 1.06727 1.07058 1.07034 1.06971 1.07279 1.07673 1.07979 1.07806 1.07659 1.02939 1.04673 1.07732 1.11767 0.997607 0.979509 1.00498 1.03076 1.05323 1.06203 1.0654 1.06912 1.06995 1.07067 1.06984 1.06946 1.06844 1.07 1.07182 1.07948 1.07775 1.07702 1.07627 1.04243 1.06038 1.07494 1.10048 1.12661 1.06555 0.999549 0.987432 1.01568 1.04089 1.05869 1.06742 1.0697 1.06822 1.06863 1.07752 1.08022 1.07912 1.07796 1.07629 1.00891 1.07055 1.0907 1.07074 0.984421 0.992986 1.00147 1.01221 1.02643 1.03617 1.04881 1.0624 1.06815 1.06832 1.06687 1.07054 1.08046 1.07887 1.0771 0.971123 1.03847 1.09679 1.09859 1.05165 0.970569 0.941948 1.00013 0.995252 1.00119 1.02243 1.04398 1.05456 1.05825 1.06444 1.06499 1.06766 1.06627 1.06626 1.06497 1.06767 1.0702 1.07988 1.07785 1.07827 1.07703 1.03285 1.12005 1.09633 1.03404 0.972374 0.980702 0.996104 1.01002 1.03154 1.04957 1.06007 1.06441 1.06527 1.065 1.08348 1.08051 1.07873 1.07912 1.08024 0.907009 1.14999 1.07353 0.961631 0.986707 0.992084 1.00101 1.00824 1.019 1.02696 1.03876 1.0436 1.05289 1.06043 1.06364 1.06616 1.02917 1.08724 1.0806 1.08144 0.828633 1.35847 1.10014 1.05213 1.0185 0.9819 0.974011 0.977201 0.984153 0.998953 1.01587 1.03298 1.04611 1.05429 1.05452 1.06012 1.06044 1.06402 1.0634 1.0605 1.08598 1.0827 1.08554 1.08189 1.08388 1.08523 0.845547 1.30099 1.18275 1.09346 1.01142 0.988902 0.98194 0.991869 1.00638 1.02221 1.03649 1.04689 1.05483 1.06152 1.07022 1.0806 1.0874 1.08088 1.085 0.931147 1.14954 1.03908 1.00965 0.988062 0.992647 0.989216 0.996332 0.999405 1.00601 1.01274 1.01695 1.02629 1.02774 1.03769 1.03774 1.04722 1.05628 1.06705 1.08426 1.08838 1.09246 1.06834 1.08062 1.07096 1.22605 1.1028 1.06485 1.02422 1.00017 1.00126 0.999977 1.00334 1.01 1.01828 1.02721 1.03839 1.04862 1.05324 1.06106 1.06899 1.07644 1.09307 1.09469 1.10688 1.07477 1.0356 1.17309 1.03838 1.02125 1.00874 1.01458 1.01195 1.00613 1.00721 1.0108 1.01685 1.02632 1.04192 1.06232 1.07562 1.08629 1.10842 1.04429 1.08891 1.06851 0.893832 1.10412 1.05741 1.04408 1.03563 1.0259 1.03249 1.01595 1.01952 1.01002 1.00962 1.00727 1.00351 1.0083 1.0034 1.014 1.01197 1.0274 1.03366 1.05078 1.07405 1.07388 1.09489 1.12715 1.15348 1.00482 1.16486 1.04571 1.07323 1.03355 1.05719 1.05188 1.03633 1.05258 1.03624 1.01899 1.00462 0.996396 0.997882 1.01413 1.04838 1.0661 1.0851 1.08441 1.06078 1.27014 0.897074 1.1804 1.03428 1.02259 1.01338 1.04857 1.0875 1.07382 1.05726 1.03514 1.01342 0.995436 0.986924 0.994695 1.02495 1.07302 1.10426 1.0939 1.11882 1.04795 0.820104 1.40098 1.39433 1.09036 0.901649 1.00218 1.10123 1.0921 1.07786 1.08013 1.05655 1.05245 1.03012 1.01966 1.00303 0.987379 0.982314 0.966914 0.977492 0.973294 0.998775 1.01618 1.04842 1.10262 1.12567 1.2449 1.33762 0.845836 1.45358 0.89142 4.56435 0.999399 1.02563 1.08525 1.09404 1.12309 1.09853 1.10242 1.07626 1.04391 1.00369 0.966825 0.953803 0.98257 1.0529 1.08486 1.12422 1.13234 1.1508 1.16669 1.16764 1.07178 1.46135 1.57594 2.47034 1.33582 2.02263 0.524124 1.0138 0.822357 1.10955 1.13066 1.12247 1.0969 1.07073 1.03043 0.981152 0.943834 0.950653 1.01337 1.10328 1.15358 1.12574 1.02465 0.949291 1.50325 0.556456 0.139474 0.163629 0.28774 1.37834 1.10006 1.09788 1.13216 1.11476 1.10766 1.0941 1.08953 1.06186 1.04691 1.01012 0.979388 0.951365 0.918254 0.924595 0.925526 0.968718 1.0199 1.07118 1.12774 1.14636 1.14301 1.13054 1.03862 1.02672 1.73361 1.44667 1.85578 0.685423 0.547576 0.683531 0.39425 0.236579 0.884551 1.28579 0.798719 1.06117 1.10721 1.14117 1.13911 1.145 1.13273 1.1132 1.10392 1.07999 1.02224 0.937009 0.895684 0.965638 1.10539 1.15281 1.09165 1.06466 0.970754 0.982739 1.11095 1.29504 0.949686 0.963741 0.761674 0.667521 0.453312 0.549572 0.673355 0.650709 0.617293 0.816907 1.2037 1.1708 1.14449 1.11481 1.10227 1.0984 1.06678 0.987764 0.892126 0.904827 1.05122 1.14633 1.10557 1.00768 0.997714 1.00061 1.34554 1.54578 1.3923 0.975466 0.705351 0.621526 0.430212 0.509197 0.720946 0.524774 0.558705 0.58196 0.791886 0.841173 0.811776 0.897364 0.930976 1.0716 0.912608 1.49861 1.09254 1.1192 1.11432 1.09768 1.06458 1.09038 1.08979 1.09339 1.08718 1.04421 1.01012 0.937165 0.87716 0.867302 0.901684 0.970991 1.11315 1.15327 1.13328 1.12431 1.03557 1.03243 0.968647 0.988218 1.02615 1.09482 1.17153 1.74324 0.86478 0.554035 0.460332 0.478126 0.521891 0.781885 0.667462 0.615481 0.619546 0.74501 0.90357 0.930514 1.39366 1.02367 1.1707 1.03915 1.04058 1.05127 1.09022 1.07365 0.964098 0.848577 1.01319 1.17718 1.02758 0.951267 0.964153 0.985153 1.05414 1.55797 0.68908 0.292256 0.62646 0.408276 0.482508 0.517528 0.532605 0.562491 0.553496 0.862965 0.687337 0.692147 0.682029 0.675908 0.642726 0.661706 0.808359 0.960727 0.97036 1.09792 0.615556 0.983281 0.21664 1.32939 1.06201 0.99896 1.00817 1.04869 1.09441 1.10255 1.05167 1.02883 0.912763 0.906504 0.904078 1.06565 1.21518 1.0468 1.06674 0.905294 0.900103 0.946704 0.980063 0.993387 1.08026 1.19119 0.478032 0.207219 0.494029 0.561426 0.570336 0.562004 1.20542 1.03992 0.704719 0.636151 0.615413 0.659556 0.701751 0.709711 0.770065 0.860173 0.766988 0.504497 1.27599 1.0359 0.987061 0.961686 0.921088 0.989283 0.973811 1.05602 1.06483 1.10322 1.01374 0.974482 1.29439 0.886381 0.923915 0.935368 0.976337 0.97405 1.02549 1.16372 1.25108 0.754857 0.479354 0.55825 0.462348 0.602406 0.574163 0.593193 0.576113 0.583258 0.573253 0.573552 0.573979 0.253214 3.05828 0.652102 0.478753 0.573791 0.542063 0.547435 0.623738 0.667907 0.755695 0.811803 0.819672 0.726506 0.676223 0.960698 1.13281 1.03389 0.925363 0.898268 0.975018 1.09773 1.12664 1.08502 1.09561 1.10625 0.92338 0.950783 1.01438 0.984715 0.960061 1.17252 1.10642 0.825211 0.680925 0.668958 0.618469 0.606194 0.589646 0.564895 0.57064 0.566422 0.437274 0.957512 1.3648 0.677165 0.468045 0.483505 0.576619 0.631402 0.715556 0.764748 0.753839 0.747856 0.675248 0.632802 0.864564 0.995388 0.975581 0.960655 0.88398 0.875969 0.876735 0.987863 1.00693 1.13278 1.20908 1.17495 1.34962 1.29429 1.27945 1.29674 1.07496 1.17023 1.02753 0.96763 0.960339 0.948888 1.05983 0.640319 1.31298 1.20943 1.11426 1.20365 0.762532 0.688064 0.632027 0.589193 0.577997 0.568183 0.558432 0.564057 0.555211 0.552365 0.141267 0.356619 0.497267 0.348607 1.98689 1.15194 0.670287 0.457963 0.435582 0.470096 0.516977 0.557225 0.599967 0.66852 0.717598 0.666104 0.688882 0.960378 0.920237 0.906688 0.866495 0.852859 0.822598 0.875007 1.09933 1.34569 0.991698 0.76712 0.911414 0.93874 0.963093 0.936452 1.29782 0.611865 1.00426 0.932029 0.512908 0.662409 0.629161 0.603156 0.603372 0.58693 0.575071 0.558462 0.55537 0.551457 0.542341 0.527466 0.0371224 0.153163 0.224508 0.355918 1.23546 0.757247 0.523858 0.488529 0.52242 0.538136 0.638934 0.705694 0.702462 0.65461 0.69416 0.851583 0.948548 0.937369 0.882514 0.884585 0.833264 0.807216 0.896277 1.20569 0.970302 0.78005 0.679048 0.825622 0.880069 0.978564 0.868469 0.81928 1.30877 0.772197 0.848245 0.801375 0.605723 0.630947 0.621887 0.598696 0.567966 0.560785 0.554939 0.543016 0.536795 0.507134 0.233184 0.155979 0.243522 0.34391 0.436587 0.564182 0.86938 0.590772 0.528138 0.506681 0.539763 0.540932 0.616839 0.679674 0.649111 0.687991 0.697476 0.875116 0.845599 0.860328 0.863599 0.851413 0.837558 0.817067 0.818966 0.829599 0.753866 0.804235 0.555834 1.27639 1.21975 0.875965 0.985202 0.630985 0.591168 0.690972 0.696654 0.788867 0.776007 0.8921 0.89477 0.893311 0.450149 0.688812 0.754486 0.646057 0.655732 0.642827 0.627045 0.616524 0.605745 0.586727 0.555844 0.546362 0.527284 0.518399 0.492027 0.485498 0.456307 0.282494 0.282044 0.320909 0.332084 0.39426 0.603897 0.679874 0.637819 0.55224 0.51371 0.500924 0.515436 0.527854 0.693274 0.652848 0.658851 0.628949 0.630583 0.601946 0.450026 0.503617 0.769507 0.827974 0.868882 0.841978 0.810702 0.802106 0.777236 1.17996 1.54772 0.780122 0.648022 0.679824 0.777742 0.878067 0.835797 0.727444 0.625366 0.68708 0.730102 0.670739 0.666817 0.654531 0.615929 0.59729 0.578958 0.562629 0.540536 0.535523 0.532065 0.495601 0.466589 0.427596 0.317295 0.320738 0.302887 0.314569 0.355771 0.45927 0.546553 0.564151 0.517359 0.500972 0.510565 0.452435 0.647664 0.596202 0.622773 0.605476 0.537926 0.54268 0.675831 0.810472 0.804747 0.882082 0.823087 0.812801 0.802187 0.821756 0.872359 0.938367 1.28907 1.36332 0.703096 0.675151 0.669315 0.678005 0.662208 0.752492 0.652289 0.681897 0.652571 0.710289 0.699692 0.669294 0.654121 0.6316 0.606355 0.586702 0.571059 0.55305 0.511981 0.509525 0.50633 0.478501 0.47592 0.449659 0.425684 0.400878 0.356688 0.339668 0.338098 0.325166 0.334823 0.332821 0.35679 0.3911 0.425014 0.566413 0.507179 0.493384 0.497271 0.506251 0.497173 0.562981 0.60739 0.592084 0.604261 0.599249 0.570833 0.571142 0.628408 0.753523 0.755095 0.909784 0.775348 0.769909 0.822107 0.699837 0.781044 0.428567 0.406021 0.428686 1.06769 0.551643 0.960316 0.827732 0.712217 0.690501 0.665429 0.551553 0.642476 0.626808 0.647869 0.674026 0.680153 0.672215 0.651241 0.635726 0.613846 0.591781 0.564357 0.543423 0.524259 0.495321 0.487575 0.462513 0.460538 0.444104 0.420909 0.39803 0.383278 0.381584 0.365614 0.350111 0.347661 0.337661 0.347295 0.349505 0.375893 0.38154 0.47027 0.487293 0.464149 0.486893 0.481848 0.496115 0.533023 0.562049 0.582803 0.596851 0.593932 0.595924 0.599151 0.618135 0.696197 0.767407 0.615741 0.757345 0.746062 0.679066 0.511167 0.0951013 0.428234 0.522002 0.749655 0.674734 0.638919 0.587882 0.576662 0.617774 0.642215 0.649216 0.650324 0.640926 0.627826 0.610466 0.595725 0.57588 0.550664 0.525207 0.506478 0.468888 0.456279 0.433483 0.436706 0.419956 0.3888 0.372126 0.353736 0.36915 0.37157 0.364412 0.353905 0.354724 0.371075 0.358196 0.36704 0.366417 0.363574 0.399403 0.424656 0.462164 0.475445 0.522957 0.543727 0.565085 0.59 0.596336 0.601527 0.593622 0.594433 0.670981 0.694933 0.693562 0.74415 0.752808 0.675786 0.67459 0.591238 0.556761 0.318209 0.209672 0.305564 0.66191 0.672367 0.692399 0.674389 0.643297 0.591574 0.597462 0.617822 0.625471 0.623874 0.624008 0.621025 0.615957 0.603405 0.591046 0.577049 0.557893 0.533726 0.509361 0.48339 0.45845 0.448546 0.40839 0.396531 0.387745 0.355817 0.329725 0.351844 0.318272 0.305585 0.354902 0.366995 0.37752 0.382367 0.369448 0.362075 0.353286 0.380294 0.385229 0.378669 0.351465 0.328941 0.321153 0.426303 0.441938 0.504013 0.531329 0.578561 0.593405 0.605215 0.613334 0.616567 0.632697 0.653226 0.618875 0.695829 0.676508 0.613227 0.506981 0.437992 0.328872 0.186407 0.0919324 0.141918 0.364688 0.530845 0.60824 0.640558 0.535863 0.585609 0.594924 0.610023 0.608183 0.607741 0.604188 0.60166 0.596562 0.541402 0.519125 0.495291 0.464912 0.441121 0.434162 0.408513 0.399046 0.371638 0.319695 0.295609 0.269742 0.246958 0.192314 0.337188 0.373289 0.381514 0.377389 0.377128 0.373187 0.411761 0.423743 0.389903 0.375562 0.272367 0.220596 0.3718 0.383811 0.480781 0.521646 0.53622 0.54892 0.561715 0.577846 0.608582 0.626529 0.637655 0.646329 0.662197 0.667498 0.611411 0.626388 0.664357 0.621693 0.549381 0.421553 0.245171 0.290125 0.527377 0.648107 0.609853 0.632248 0.594016 0.595403 0.600248 0.597559 0.593369 0.589322 0.589793 0.577763 0.569067 0.562099 0.497457 0.466263 0.444648 0.432559 0.422869 0.394412 0.378472 0.365918 0.345233 0.294609 0.283381 0.261446 0.225738 0.145672 0.307486 0.347662 0.363907 0.38335 0.395571 0.39882 0.400112 0.426675 0.463758 0.403836 0.350193 0.324924 0.28494 0.356063 0.44183 0.525009 0.544377 0.554565 0.556117 0.5619 0.58414 0.663239 0.663605 0.65875 0.653929 0.637087 0.588257 0.573689 0.541063 0.493089 0.374238 0.313512 0.440915 0.559757 0.604425 0.516294 0.595841 0.560663 0.585773 0.591134 0.592647 0.593401 0.588658 0.581817 0.577752 0.56673 0.557461 0.552976 0.540579 0.522531 0.487979 0.467791 0.438492 0.416887 0.402397 0.390106 0.372947 0.375044 0.323504 0.284045 0.221096 0.178516 0.122529 0.234169 0.263842 0.320534 0.377656 0.393225 0.404871 0.421604 0.430637 0.426024 0.466992 0.489202 0.48475 0.451991 0.417449 0.444174 0.62556 0.203605 0.539894 0.367612 0.549668 0.569272 0.567937 0.562688 0.560133 0.563278 0.601028 0.639376 0.692423 0.667409 0.646762 0.629658 0.618086 0.615693 0.624472 0.578774 0.513638 0.439251 0.453107 0.381222 0.44549 0.418356 0.503889 0.652885 0.593042 0.583234 0.576838 0.587858 0.59095 0.591137 0.588797 0.583576 0.575495 0.569502 0.558342 0.550234 0.545064 0.532974 0.520634 0.50706 0.444774 0.426196 0.402331 0.399989 0.372796 0.362463 0.359164 0.337946 0.305097 0.272759 0.244911 0.174691 0.146052 0.128066 0.107532 0.230343 0.280745 0.357215 0.376269 0.422244 0.438297 0.4226 0.378476 0.499429 0.439388 0.45143 0.350222 0.56405 0.531047 0.936799 0.982264 0.674832 0.617783 0.593013 0.577894 0.572801 0.570097 0.568666 0.639343 0.703479 0.64451 0.621688 0.613412 0.610729 0.61364 0.595302 0.588703 0.557142 0.463648 0.472943 0.501005 0.607168 0.566771 0.65399 0.602982 0.594834 0.590573 0.592922 0.592615 0.583782 0.5749 0.56691 0.555273 0.544282 0.535807 0.525145 0.513431 0.501399 0.488314 0.465413 0.428289 0.404833 0.395185 0.391618 0.37702 0.367278 0.352203 0.325375 0.294756 0.202381 0.152658 0.0893509 0.0831076 0.0428361 0.238504 0.229887 0.211086 0.230041 0.305235 0.334286 0.363911 0.397855 0.416972 0.40572 0.451099 0.464941 0.613763 0.548232 0.535329 0.787959 0.30777 1.00906 1.52744 1.10984 0.79865 0.655639 0.607153 0.588929 0.583561 0.584749 0.587973 0.591656 0.759358 0.734114 0.683636 0.614324 0.606779 0.606184 0.608935 0.602966 0.597899 0.621103 0.569074 0.575067 0.526646 0.529046 0.551298 0.533594 0.607887 0.631049 0.611136 0.603921 0.599275 0.590757 0.587196 0.580499 0.571607 0.558083 0.544745 0.531749 0.518906 0.507436 0.50086 0.494409 0.474765 0.451905 0.413477 0.411347 0.397102 0.383862 0.363817 0.339926 0.322563 0.272534 0.186373 0.14111 0.0970145 0.0703615 0.0294656 0.242445 0.212838 0.201789 0.24674 0.342073 0.371529 0.384081 0.397838 0.387093 0.37724 0.260109 0.64199 0.274809 0.222629 0.99477 0.903377 1.3381 0.979578 0.738151 0.634805 0.586845 0.59091 0.589261 0.536237 0.788913 0.70094 0.642353 0.607388 0.609785 0.610958 0.611084 0.618318 0.607576 0.59568 0.649288 0.586781 0.503416 0.591492 0.565264 0.569375 0.571873 0.586985 0.614194 0.621425 0.597576 0.595188 0.591932 0.587668 0.580661 0.568491 0.552918 0.535469 0.517991 0.500128 0.49235 0.492383 0.504116 0.449841 0.418096 0.395596 0.433735 0.379464 0.412247 0.384372 0.361341 0.332424 0.340132 0.309201 0.226393 0.179503 0.0553152 0.0307894 0.019469 0.0377893 0.267122 0.232308 0.177636 0.301182 0.343553 0.389036 0.403485 0.34105 0.310397 0.338313 0.249737 0.603967 0.577382 0.578925 0.585533 0.517799 0.762667 0.648366 0.608078 0.603858 0.620355 0.623681 0.621134 0.619012 0.613289 0.63248 0.61438 0.659973 0.596747 0.620062 0.587731 0.59556 0.613656 0.608553 0.604552 0.601818 0.598872 0.595952 0.591159 0.582132 0.567275 0.547703 0.527436 0.505335 0.485454 0.474628 0.489221 0.516606 0.381178 0.381515 0.3937 0.420328 0.400229 0.381689 0.357978 0.330311 0.276278 0.236887 0.239804 0.184988 0.0381632 0.0423132 0.0824841 0.0255952 0.28259 0.26545 0.229652 0.198187 0.154624 0.232801 0.273837 0.376223 0.409424 0.355012 0.317732 0.311157 0.71267 0.95284 0.475064 0.884258 0.729115 1.47827 0.87132 0.599478 0.542818 0.536324 0.54443 0.558821 0.57285 0.583141 0.582699 0.55878 0.702691 0.613351 0.609083 0.612916 0.615991 0.618336 0.62633 0.629515 0.634537 0.641449 0.63875 0.605703 0.61598 0.618254 0.614645 0.611265 0.608408 0.606164 0.604527 0.60232 0.597052 0.586038 0.489901 0.436202 0.389435 0.39211 0.412467 0.359524 0.412313 0.386615 0.383269 0.363007 0.322683 0.313149 0.305354 0.0597882 0.121189 0.0383291 0.0507216 0.0304404 0.308476 0.299711 0.278287 0.240612 0.185043 0.152021 0.170939 0.209904 0.372475 0.416298 0.38201 0.325835 0.349945 0.468016 0.604001 0.586116 0.96149 0.673412 0.273782 1.55373 1.15736 0.664044 0.462352 0.460408 0.496108 0.52773 0.551486 0.567543 0.57409 0.563453 0.538899 0.503341 0.627337 0.624579 0.624639 0.625046 0.626171 0.627363 0.629147 0.629083 0.628632 0.620329 0.617333 0.606379 0.609252 0.613512 0.617086 0.61726 0.615266 0.613261 0.611767 0.611411 0.611529 0.568663 0.54593 0.520241 0.494216 0.475923 0.465106 0.30935 0.395837 0.399122 0.404137 0.359735 0.375408 0.393775 0.384986 0.382254 0.341216 0.328754 0.342295 0.169096 0.0903937 0.0977788 0.0766 0.08694 0.0754928 0.109222 0.375785 0.301895 0.236414 0.196406 0.172262 0.203218 0.290639 0.443409 0.395512 0.322761 0.271134 0.299724 0.311442 0.306466 0.333702 0.698779 0.191732 0.435928 1.20782 0.87677 0.563686 0.43634 0.444721 0.488468 0.52384 0.548089 0.561855 0.559849 0.543848 0.515955 0.487687 0.622425 0.633763 0.633779 0.632899 0.633059 0.633727 0.634118 0.634422 0.634096 0.635193 0.637316 0.643492 0.641303 0.637488 0.6263 0.621225 0.616182 0.616203 0.617132 0.617598 0.617028 0.615785 0.615001 0.610089 0.604659 0.594224 0.57595 0.54474 0.509252 0.485669 0.480289 0.485734 0.296536 0.339624 0.387386 0.401645 0.393454 0.378529 0.378468 0.382288 0.385016 0.361005 0.326726 0.311379 0.41697 0.348738 0.215334 0.133384 0.198427 0.143219 0.135449 0.13938 0.553107 0.245084 0.268206 0.246488 0.209794 0.154454 0.131885 0.240003 0.304211 0.417246 0.333223 0.268351 0.255171 0.244209 0.21138 0.166579 0.439749 0.314023 0.20156 0.64049 0.942045 0.676741 0.508936 0.449112 0.468311 0.502564 0.529417 0.548488 0.55729 0.547341 0.527983 0.516494 0.553981 0.619534 0.633009 0.635985 0.636711 0.636927 0.63724 0.637922 0.63842 0.639389 0.640786 0.643604 0.644442 0.641832 0.636503 0.629173 0.624497 0.620937 0.619483 0.618578 0.617704 0.615296 0.616809 0.61851 0.618028 0.614618 0.606875 0.585476 0.533558 0.49347 0.482108 0.500682 0.385554 0.350432 0.352454 0.374942 0.390056 0.395748 0.390879 0.378078 0.382344 0.376099 0.348984 0.306608 0.378663 0.505172 0.45923 0.404132 0.252531 0.196159 0.166871 0.153587 0.153741 0.155051 0.56085 0.627301 1.33071 0.976558 0.204529 0.148274 0.144349 0.103475 0.153721 0.235456 0.186259 0.492044 0.380101 0.332807 0.24422 0.197771 0.332753 0.39428 0.173326 0.48554 0.718066 0.727859 0.578364 0.49843 0.529672 0.533986 0.555098 0.585191 0.620566 0.637324 0.638309 0.638569 0.63971 0.640719 0.641687 0.642915 0.644624 0.645462 0.644569 0.641049 0.635946 0.630473 0.626256 0.616832 0.616228 0.616498 0.61824 0.621021 0.623558 0.625128 0.626541 0.622514 0.59591 0.503502 0.472318 0.471144 0.420823 0.415511 0.371661 0.354708 0.372024 0.3877 0.397121 0.391848 0.375203 0.383113 0.385327 0.376986 0.330417 0.514506 0.45409 0.316165 0.311505 0.209289 0.177425 0.150848 0.154329 0.158847 0.158838 0.615322 0.593572 0.599825 0.97065 0.687884 0.390419 0.122992 0.114725 0.215741 0.257756 0.422713 0.46819 0.45144 0.334661 0.237941 0.215146 0.385444 0.40634 0.578208 0.642807 0.619845 0.557809 0.476832 0.49806 0.522221 0.54209 0.554981 0.559909 0.562111 0.582859 0.603037 0.632399 0.622903 0.620562 0.618773 0.617306 0.616283 0.616146 0.617057 0.619219 0.622323 0.625955 0.631049 0.637632 0.640102 0.627246 0.452597 0.455888 0.409898 0.398737 0.397148 0.382464 0.373068 0.378594 0.395074 0.413099 0.315281 0.258704 0.24338 0.194758 0.177829 0.154607 0.156376 0.153194 0.166125 0.178634 0.628405 0.613633 0.675661 0.814765 0.798641 0.621908 0.262804 0.201043 0.00783063 0.216953 0.451178 0.311346 0.421255 0.349474 0.273169 0.242915 0.217909 0.2635 0.395672 0.516408 0.511536 0.526166 0.541718 0.555266 0.564979 0.583549 0.54021 0.62417 0.633498 0.637496 0.638508 0.639962 0.641297 0.642508 0.643854 0.645269 0.646137 0.645787 0.64371 0.640011 0.635387 0.630742 0.626708 0.623256 0.620466 0.618048 0.616225 0.615213 0.614855 0.61547 0.617283 0.620107 0.62429 0.631685 0.642548 0.667645 0.460213 0.432479 0.383285 0.362629 0.375872 0.388144 0.374296 0.368907 0.385558 0.429162 0.489079 0.467925 0.201448 0.162289 0.126737 0.16303 0.180908 0.147916 0.160869 0.158035 0.187182 0.636914 0.622269 0.634821 0.639754 0.663958 0.688565 0.43687 0.341629 0.16574 0.176887 0.290019 1.40471 0.943853 0.325426 0.289245 0.280539 0.285797 0.323549 0.448986 0.452323 0.487 0.567813 0.615562 0.599143 0.566029 0.541716 0.543534 0.553213 0.563488 0.571535 0.583214 0.60025 0.565933 0.586396 0.600823 0.615071 0.627358 0.633658 0.636363 0.638469 0.640695 0.642384 0.643906 0.645398 0.646388 0.646419 0.645168 0.642551 0.638861 0.634599 0.630235 0.626284 0.622687 0.619399 0.6167 0.614573 0.61288 0.612006 0.61213 0.719456 0.437079 0.352241 0.555203 0.482909 0.386482 0.37486 0.380664 0.399137 0.404861 0.379858 0.377203 0.382257 0.407585 0.441693 0.564382 0.151988 0.117669 0.1382 0.128986 0.155319 0.102523 0.14293 0.193835 0.167513 0.191063 0.185414 0.639164 0.638597 0.635036 0.638379 0.637847 0.703621 0.624678 0.570221 0.475698 0.279501 0.322397 0.477239 0.922016 0.398122 0.395925 0.410849 0.367867 0.311113 0.319837 0.322183 0.393614 0.461992 0.510153 0.533215 0.595253 0.612931 0.59768 0.580946 0.572458 0.574528 0.590534 0.602463 0.612896 0.620571 0.627405 0.632295 0.636134 0.639258 0.641522 0.643377 0.645077 0.646309 0.646691 0.646038 0.644212 0.641314 0.63763 0.633498 0.629299 0.625222 0.621393 0.617881 0.612852 0.614423 0.617864 0.621714 0.626694 0.662963 0.819011 0.474606 0.549446 0.545607 0.405585 0.383328 0.380579 0.397618 0.416392 0.39974 0.390615 0.410043 0.443365 0.465019 0.66534 0.251649 0.0972412 0.123687 0.130099 0.153881 0.234796 0.219292 0.190535 0.172017 0.202507 0.188143 0.183188 0.641056 0.597552 0.619088 0.646275 0.536192 0.402582 0.399978 0.71508 0.883925 0.655139 0.565014 0.523721 0.467001 0.394689 0.35538 0.345941 0.359847 0.410649 0.483673 0.538057 0.565368 0.604751 0.613671 0.578747 0.582955 0.589078 0.598834 0.609665 0.609875 0.614929 0.617196 0.62174 0.62758 0.632951 0.637094 0.640067 0.642468 0.64455 0.646063 0.646789 0.646631 0.64543 0.6432 0.64009 0.614723 0.612005 0.609903 0.608735 0.608284 0.608386 0.608965 0.608756 0.604128 0.615635 0.688438 0.906166 0.570791 0.557504 0.402395 0.366831 0.382296 0.3968 0.423361 0.420028 0.395886 0.385124 0.455846 0.513113 0.552164 0.288999 0.709344 0.115469 0.220993 0.0917575 0.0938694 0.277554 0.273748 0.233076 0.215702 0.188874 0.188353 0.574067 0.592799 0.598046 0.552242 0.573539 0.506593 0.482824 0.452477 0.465925 0.557944 0.502226 0.747504 0.654515 0.592164 0.534977 0.485266 0.438909 0.391669 0.36649 0.382667 0.433444 0.483679 0.543794 0.584208 0.610832 0.607462 0.601126 0.597921 0.598111 0.598733 0.599813 0.602847 0.607441 0.616483 0.626107 0.617861 0.619266 0.636345 0.632224 0.627987 0.623806 0.619713 0.615848 0.612375 0.60937 0.607195 0.606153 0.605918 0.605878 0.604784 0.601855 0.606084 0.65395 0.743561 0.843584 0.558112 0.486987 0.369148 0.390494 0.411631 0.431366 0.43726 0.419724 0.403307 0.406571 0.42747 0.521663 0.620207 0.444103 0.332707 0.210231 0.285708 0.249267 0.22901 0.209706 0.518689 0.586759 0.555557 0.484186 0.460131 0.490367 0.459218 0.642962 0.640164 0.605595 0.583372 0.533487 0.491039 0.379302 0.36165 0.376181 0.440203 0.499582 0.570003 0.609635 0.62145 0.625999 0.624539 0.621014 0.616633 0.614037 0.611705 0.610048 0.610764 0.6303 0.624273 0.629461 0.634545 0.638286 0.641359 0.64392 0.645858 0.646948 0.647167 0.646455 0.644781 0.642226 0.638926 0.635045 0.630858 0.626538 0.62212 0.617781 0.613784 0.610186 0.607202 0.605447 0.605122 0.606005 0.608186 0.613072 0.620732 0.645564 0.704501 0.757329 0.717173 0.438747 0.442788 0.444971 0.438895 0.428488 0.42655 0.442974 0.476033 0.492479 0.427825 0.708503 0.45217 0.436659 0.319431 0.27026 0.278908 0.24326 0.233976 0.22506 0.251132 0.534596 0.516444 0.487598 0.494861 0.470053 0.434669 0.550471 0.43302 0.397296 0.364364 0.373845 0.518571 0.592327 0.6357 0.644205 0.647895 0.643618 0.636143 0.629539 0.624566 0.619436 0.615455 0.613189 0.625239 0.621559 0.623345 0.627613 0.632353 0.636756 0.640342 0.643366 0.645739 0.647241 0.647834 0.647528 0.646301 0.644214 0.641347 0.637815 0.633821 0.629531 0.625015 0.620404 0.615987 0.612001 0.608524 0.605916 0.604988 0.606692 0.612123 0.621532 0.633516 0.544592 0.452548 0.398773 0.45342 0.443037 0.442669 0.45525 0.486175 0.530428 0.553502 0.620051 0.591562 0.571652 0.34833 0.322714 0.30482 0.657722 0.578678 0.515187 0.513264 0.40431 0.57771 0.578503 0.566721 0.541348 0.501321 0.437221 0.394979 0.457778 0.630947 0.629783 0.626967 0.628433 0.631823 0.635994 0.639827 0.643221 0.645861 0.647722 0.648705 0.648779 0.647927 0.646226 0.643759 0.640591 0.63686 0.632739 0.628325 0.623661 0.618958 0.650354 0.685593 0.707038 0.70241 0.64881 0.514813 0.492653 0.460354 0.454297 0.454657 0.463842 0.486983 0.525007 0.572738 0.599242 0.660118 0.55353 0.370083 0.362608 0.991198 1.0152 0.543056 0.519335 0.519759 0.409804 0.506427 0.555248 0.583681 0.577733 0.563867 0.373477 0.367349 0.380265 0.384644 0.449107 0.552196 0.654098 0.666917 0.664428 0.658706 0.654035 0.643597 0.635775 0.62951 0.62371 0.618517 0.60269 0.639279 0.63496 0.63284 0.634078 0.636788 0.640104 0.643655 0.646529 0.6146 0.610844 0.607888 0.606282 0.606705 0.610766 0.622221 0.641961 0.663691 0.693742 0.712734 0.688598 0.645628 0.607539 0.516508 0.475829 0.465969 0.465584 0.45612 0.446637 0.447943 0.582546 0.564443 0.587701 0.535371 0.340163 0.389835 0.689733 0.760459 0.476945 0.316071 0.413015 0.494976 0.535776 0.5782 0.584616 0.513954 0.45017 0.38041 0.343552 0.326779 0.372294 0.491213 0.640488 0.692682 0.696083 0.674807 0.66757 0.657267 0.645651 0.637285 0.630242 0.623735 0.612785 0.593742 0.646051 0.641083 0.648571 0.649822 0.6502 0.649698 0.648359 0.64625 0.64345 0.640034 0.636136 0.631933 0.62749 0.62284 0.618247 0.614159 0.610904 0.608708 0.608174 0.610434 0.617953 0.634339 0.658456 0.684475 0.714381 0.719835 0.692662 0.619766 0.561187 0.527332 0.489176 0.473538 0.459431 0.445306 0.446346 0.462408 0.485312 0.516339 0.551093 0.709697 0.494693 0.388198 0.297113 0.89788 0.791672 0.764239 0.4909 0.247845 0.404914 0.496532 0.551354 0.583172 0.56621 0.528281 0.461838 0.381849 0.321863 0.277233 0.53743 0.645924 0.690409 0.717713 0.705 0.685509 0.672078 0.656825 0.644683 0.635767 0.628412 0.619848 0.607126 0.587828 0.638827 0.639717 0.641922 0.64498 0.647868 0.649914 0.651253 0.65185 0.651622 0.650597 0.648836 0.646378 0.643308 0.639772 0.635896 0.631792 0.627516 0.623057 0.618683 0.615051 0.612639 0.611587 0.612244 0.616048 0.625938 0.644636 0.667147 0.690541 0.701487 0.708577 0.682879 0.614416 0.553141 0.539981 0.505638 0.476594 0.455788 0.44947 0.459217 0.48003 0.50585 0.530273 0.546665 0.564414 0.774768 0.626324 0.0255882 0.414446 0.784753 0.743121 0.959538 0.355172 0.468326 0.347702 0.437907 0.582076 0.565294 0.52441 0.460371 0.380199 0.253565 0.193553 0.787286 0.702617 0.737115 0.721836 0.701131 0.685879 0.666289 0.651115 0.640875 0.632654 0.625136 0.615856 0.65255 0.646503 0.645044 0.645703 0.64746 0.649894 0.651848 0.653143 0.653797 0.653733 0.652938 0.651445 0.649322 0.646669 0.643593 0.640243 0.636687 0.632853 0.628744 0.624551 0.620643 0.617596 0.615942 0.615946 0.618174 0.623823 0.634221 0.650483 0.67036 0.651812 0.620464 0.573549 0.460211 0.461475 0.473351 0.49507 0.518107 0.533084 0.533793 0.486476 0.317881 0.806733 0.891662 0.36088 0.57077 0.436459 0.499344 0.566511 0.587419 0.581716 0.576789 0.603405 0.587498 0.657087 0.652513 0.651111 0.651348 0.652793 0.654535 0.655631 0.656107 0.65603 0.655352 0.654077 0.652263 0.650058 0.64763 0.645024 0.681223 0.685859 0.670873 0.54756 0.507518 0.47809 0.487256 0.507372 0.523052 0.526409 0.733104 0.733254 0.352366 0.709628 0.599101 0.772963 0.940326 0.469587 0.539678 0.584269 0.534282 0.460485 0.339892 0.153669 0.951341 0.699621 0.751343 0.743144 0.708716 0.690496 0.674323 0.657297 0.645459 0.636651 0.629462 0.622166 0.613491 0.602758 0.589898 0.661718 0.658024 0.642072 0.638703 0.635081 0.63132 0.627498 0.62409 0.621824 0.620959 0.621731 0.625226 0.632041 0.642038 0.654987 0.667824 0.673662 0.667637 0.658378 0.644714 0.623358 0.589999 0.555702 0.506868 0.475555 0.468484 0.47121 0.75014 0.680599 0.692583 0.824927 0.863548 0.923635 0.471913 0.579464 0.46382 0.539074 0.596681 0.594878 0.610825 0.547408 0.478306 0.361871 1.22148 1.16961 0.765235 0.75042 0.727894 0.694723 0.676371 0.661938 0.649784 0.640856 0.633806 0.627298 0.62053 0.612906 0.604395 0.595376 0.656767 0.656997 0.658084 0.658747 0.658813 0.658509 0.657836 0.656708 0.655206 0.65353 0.651862 0.65008 0.647807 0.64492 0.641769 0.63864 0.635231 0.631646 0.628741 0.627465 0.627824 0.629704 0.633893 0.640657 0.649485 0.659991 0.666695 0.670218 0.670385 0.663584 0.649993 0.633007 0.603593 0.560023 0.487092 0.471537 0.472336 0.480847 0.498247 0.512868 0.519751 0.736587 0.719483 0.56189 0.220259 0.584185 0.875008 0.752988 0.477551 0.591423 0.5221 0.561885 0.582824 0.611621 0.584212 0.646162 0.577472 0.501907 1.16744 1.02861 0.986085 0.753694 0.726463 0.703789 0.679508 0.66681 0.655051 0.645499 0.638261 0.632371 0.626646 0.620598 0.614326 0.60796 0.601215 0.666283 0.663442 0.662405 0.662458 0.662481 0.661968 0.661233 0.66038 0.659323 0.658152 0.657075 0.656191 0.655155 0.653583 0.651428 0.648963 0.646198 0.643174 0.640061 0.636779 0.63446 0.634334 0.636443 0.640086 0.644811 0.650756 0.658053 0.665371 0.672611 0.676952 0.676761 0.671827 0.66051 0.648505 0.625485 0.499958 0.473721 0.472223 0.476397 0.487899 0.504265 0.511132 0.391628 0.184132 0.728539 0.730031 0.603342 0.585146 0.57854 0.586212 0.588634 0.62636 0.580621 0.454599 0.379454 0.647914 0.938024 0.862942 0.838737 0.740762 0.721612 0.694094 0.674729 0.662283 0.671089 0.668689 0.667645 0.666904 0.665675 0.664303 0.663026 0.661908 0.66102 0.660574 0.660408 0.660117 0.659391 0.65824 0.65654 0.654016 0.651324 0.648483 0.645309 0.64276 0.641755 0.680241 0.675195 0.667483 0.651452 0.468979 0.472408 0.478768 0.491862 0.507029 0.720688 0.708078 0.659368 0.511064 0.482115 0.813112 0.565125 0.599966 0.631087 0.651716 0.643837 0.637532 0.632094 0.627158 0.622186 0.617174 0.611841 0.605543 0.67598 0.673577 0.672058 0.670114 0.667854 0.642559 0.645832 0.651064 0.656328 0.661668 0.667653 0.674707 0.681523 0.685142 0.685021 0.726113 0.479804 0.711516 0.695796 0.676786 0.819833 0.787109 0.729213 0.701404 0.97989 0.595572 0.607564 0.603018 0.452357 0.582193 0.918669 0.865735 0.818579 0.747066 0.715954 0.69045 0.673263 0.66032 0.650724 0.643447 0.637519 0.632689 0.628526 0.624592 0.620435 0.615292 0.608561 0.665899 0.664412 0.663705 0.663838 0.664488 0.665174 0.665456 0.665189 0.664109 0.662123 0.659704 0.65669 0.65382 0.651325 0.649705 0.649874 0.651632 0.655105 0.660607 0.666809 0.673116 0.678947 0.683588 0.690474 0.69292 0.694563 0.690882 0.689279 0.690732 0.458738 0.466797 0.472633 0.48248 0.49865 0.702745 0.706385 0.68121 0.440363 0.632344 0.857922 0.832484 0.795536 0.716697 0.781914 0.599788 0.61509 0.657049 0.612509 0.584361 0.63075 0.59623 0.804984 0.869221 0.829405 0.776819 0.735574 0.709494 0.687696 0.671481 0.659182 0.650093 0.643126 0.637826 0.634001 0.630661 0.62716 0.623113 0.617539 0.609539 0.680597 0.677979 0.675379 0.672163 0.6691 0.66691 0.66609 0.666723 0.668522 0.670473 0.671728 0.672081 0.671597 0.67011 0.668014 0.665086 0.662028 0.659375 0.65776 0.657182 0.657993 0.661002 0.665256 0.670745 0.677527 0.683366 0.688051 0.690582 0.698265 0.703347 0.704763 0.705607 0.710231 0.732425 0.765773 0.456615 0.465396 0.474334 0.488368 0.812673 0.711107 0.647459 0.906949 0.977835 0.643064 0.615365 0.669736 0.650289 0.566782 0.698547 0.829208 0.808552 0.830527 0.789145 0.755692 0.727384 0.7037 0.683989 0.668581 0.657291 0.648965 0.642882 0.638411 0.635488 0.632606 0.629125 0.624526 0.61773 0.607639 0.685047 0.681661 0.67752 0.673026 0.669719 0.668138 0.669436 0.672282 0.675629 0.677868 0.678974 0.679058 0.677833 0.675995 0.673363 0.670164 0.667087 0.665328 0.664439 0.664944 0.667519 0.671435 0.676604 0.681263 0.685918 0.690898 0.694436 0.6966 0.710549 0.715585 0.715583 0.725625 0.741636 0.764215 0.794372 0.454014 0.462225 0.478795 0.694555 0.703653 0.69777 0.793316 0.822538 0.746443 0.771246 0.821631 0.841357 0.773823 0.679075 0.615238 0.671883 0.635098 0.880167 0.81437 0.796699 0.684172 0.67836 0.672854 0.670833 0.671717 0.676272 0.681174 0.749687 0.768218 0.789031 0.80882 0.687951 0.698307 0.702279 0.793421 0.700198 0.644569 0.808497 0.746434 0.780205 0.822172 0.676437 0.844786 0.813044 0.794569 0.766115 0.742506 0.718013 0.695895 0.678095 0.664583 0.654217 0.647407 0.642543 0.639043 0.636357 0.633509 0.629817 0.624295 0.615557 0.602626 0.689266 0.684384 0.685843 0.686003 0.685509 0.683677 0.680918 0.678176 0.674801 0.67243 0.671608 0.671653 0.673711 0.677881 0.682375 0.686258 0.690517 0.693718 0.697054 0.700865 0.710824 0.726966 0.71963 0.733677 0.44952 0.461725 0.822827 0.832235 0.843276 0.855957 0.840929 0.850381 0.716996 0.81353 0.785145 0.701098 0.627484 0.703997 0.738777 0.805005 0.794042 0.772046 0.75004 0.728384 0.706201 0.686231 0.670952 0.659614 0.651105 0.645472 0.641627 0.639031 0.636375 0.633194 0.62897 0.622126 0.610935 0.594639 0.692651 0.685381 0.678141 0.67226 0.67361 0.679372 0.686801 0.692388 0.693829 0.692746 0.692317 0.690738 0.688312 0.685077 0.682316 0.679305 0.677946 0.677649 0.679309 0.683569 0.687391 0.692415 0.697124 0.700468 0.700232 0.705375 0.718473 0.731604 0.722812 0.734715 0.753351 0.77116 0.788299 0.802903 0.815613 0.451751 0.847534 0.818017 0.886343 0.760253 0.702472 0.730555 0.796734 0.793692 0.709071 0.645822 0.59944 0.645693 0.703532 0.889562 0.829218 0.801385 0.807036 0.800586 0.755278 0.736278 0.712719 0.692297 0.676395 0.663805 0.654355 0.648039 0.643114 0.639815 0.637765 0.635372 0.631813 0.626623 0.617906 0.603897 0.584035 0.695098 0.685626 0.677683 0.673885 0.679831 0.691288 0.696666 0.702341 0.700629 0.698966 0.696233 0.694843 0.691519 0.688367 0.685616 0.683708 0.683262 0.684553 0.687392 0.691475 0.697742 0.703179 0.707677 0.709722 0.708469 0.726095 0.739274 0.723276 0.737097 0.750022 0.773269 0.787591 0.798938 0.809883 0.838136 0.838909 0.851445 0.828413 0.840763 0.850629 0.846269 0.893832 0.796911 0.772431 0.787894 0.756382 0.751883 0.8129 0.79223 0.803105 0.808493 0.803868 0.686006 0.679146 0.686545 0.701981 0.705621 0.707277 0.706319 0.706485 0.747992 0.767388 0.788573 0.795702 0.805298 0.830504 0.893832 0.779211 0.719736 0.738827 0.749846 0.754989 0.765658 0.904691 0.684634 0.628383 0.600002 0.705309 0.745454 0.717315 0.696422 0.679459 0.666781 0.656767 0.649504 0.644229 0.640119 0.637276 0.635224 0.63301 0.629094 0.622703 0.611815 0.594711 0.571241 0.696871 0.70176 0.699104 0.69686 0.693546 0.690639 0.689137 0.68821 0.688026 0.689713 0.694165 0.701119 0.707139 0.713449 0.717131 0.721199 0.725398 0.748446 0.743703 0.734398 0.760357 0.902957 0.881204 0.850231 0.862685 0.826898 0.786441 0.756508 0.751916 0.791243 0.762496 0.744095 0.9168 0.822488 0.830575 0.829746 0.850587 0.722417 0.700127 0.682739 0.66824 0.658076 0.650619 0.644875 0.639461 0.636495 0.63403 0.631609 0.628826 0.624436 0.617367 0.603511 0.584067 0.558892 0.69873 0.690098 0.681097 0.730841 0.713574 0.719195 0.71084 0.70881 0.707291 0.703143 0.699976 0.697331 0.694879 0.692948 0.691803 0.690495 0.691526 0.695256 0.701151 0.709069 0.716717 0.721946 0.727121 0.739937 0.745235 0.767501 0.73214 0.745139 0.761981 0.778394 0.796881 0.832676 0.889162 0.925817 0.770086 0.754667 0.804789 0.826493 0.83977 0.861661 0.861068 0.893832 0.893832 0.893883 0.874783 0.888418 0.870644 0.840071 0.774145 0.89816 0.846455 0.848096 0.850638 0.870681 0.769917 0.743999 0.731093 0.730892 0.823441 0.794778 0.721209 0.726285 0.718379 0.716487 0.71256 0.708216 0.705502 0.702616 0.699137 0.697512 0.695444 0.693633 0.692669 0.693286 0.820879 0.815716 0.816266 0.816312 0.832053 0.85965 0.892372 0.902861 0.904369 0.783127 0.817359 0.848112 0.860669 0.882368 0.874076 0.895975 0.850262 0.830491 0.824395 0.836765 0.766349 0.762305 0.759302 0.756888 0.755029 0.748733 0.744948 0.744617 0.745918 0.74779 0.750442 0.752916 0.75371 0.695247 0.700437 0.708546 0.717706 0.723654 0.73298 0.745588 0.762935 0.767723 0.827626 0.893827 0.893874 0.868858 0.881908 0.869986 0.85484 0.839074 0.830182 0.830132 0.881736 0.78795 0.897742 0.856271 0.858986 0.862993 0.88454 0.824731 0.829018 0.833471 0.838011 0.84458 0.851397 0.851542 0.847338 0.847852 0.849528 0.852035 0.854569 0.856347 0.857064 0.85639 0.848881 0.819531 0.834954 0.857112 0.829095 0.791426 0.778545 0.769864 0.760913 0.752931 0.745871 0.738471 0.73223 0.727536 0.7238 0.720866 0.717765 0.715963 0.71652 0.719281 0.725465 0.733397 0.737538 0.749025 0.76526 0.785477 0.815218 0.837301 0.83321 0.83224 0.831003 0.843618 0.893832 0.893769 0.893974 0.895326 0.831396 0.778702 0.81203 0.847473 0.859135 0.879462 0.87347 0.893832 0.893823 0.893832 0.86556 0.878014 0.885735 0.791444 0.893856 0.857237 0.859558 0.864524 0.826281 0.877199 0.855916 0.842536 0.79426 0.777801 0.76711 0.759275 0.750619 0.743121 0.736283 0.730404 0.725572 0.831879 0.829819 0.843885 0.893832 0.893422 0.893832 0.807301 0.845879 0.857896 0.877607 0.872982 0.893832 0.866886 0.855052 0.840346 0.828898 0.824235 0.893832 0.826381 0.829886 0.834668 0.839829 0.84721 0.854439 0.855163 0.850943 0.851545 0.853373 0.856059 0.859042 0.86132 0.862217 0.858903 0.855545 0.721742 0.71872 0.716519 0.71497 0.715146 0.719433 0.726488 0.734906 0.739341 0.751382 0.768895 0.789181 0.83737 0.835934 0.832652 0.893832 0.829021 0.774 
SCALARS Axial_Stress float 1
LOOKUP_TABLE default
-97314500000.0 -93246800000.0 -103021000000.0 -144334000000.0 -58246500000.0 -66079400000.0 -59798700000.0 -67616300000.0 -60763300000.0 -36130500000.0 -100808000000.0 -179564000000.0 -175387000000.0 -170059000000.0 -153625000000.0 -233196000000.0 -257233000000.0 -267228000000.0 -126280000000.0 -133117000000.0 -69412400000.0 -78450300000.0 -180620000000.0 -95418100000.0 -85033600000.0 -54818300000.0 -52417100000.0 -184196000000.0 -352765000000.0 -400905000000.0 -309070000000.0 -258115000000.0 -384835000000.0 -372895000000.0 -162258000000.0 -217065000000.0 -250504000000.0 -253254000000.0 -229167000000.0 -306775000000.0 -127732000000.0 -295574000000.0 -420087000000.0 -552359000000.0 -261425000000.0 -260299000000.0 -336502000000.0 -135259000000.0 -296993000000.0 -387576000000.0 -307439000000.0 -462524000000.0 -342120000000.0 -471698000000.0 -368493000000.0 -467161000000.0 -342292000000.0 -446549000000.0 -427679000000.0 -272903000000.0 -325592000000.0 -606497000000.0 -476909000000.0 -603704000000.0 -563645000000.0 -643327000000.0 -574460000000.0 -352962000000.0 -360557000000.0 -447908000000.0 -489032000000.0 -291598000000.0 -212097000000.0 -273874000000.0 -334834000000.0 -405207000000.0 -585185000000.0 -582000000000.0 -581982000000.0 -565036000000.0 -557439000000.0 -682291000000.0 -854012000000.0 -687193000000.0 -693160000000.0 -702200000000.0 -621306000000.0 -545266000000.0 -389173000000.0 -340285000000.0 -700808000000.0 -707286000000.0 -693953000000.0 -682304000000.0 -674286000000.0 -684460000000.0 -1.25486e+12 -830716000000.0 -762567000000.0 -765327000000.0 -436302000000.0 -459798000000.0 -705914000000.0 -579403000000.0 -600923000000.0 -943635000000.0 -835591000000.0 -936668000000.0 -811393000000.0 -911457000000.0 -796626000000.0 -895261000000.0 -783724000000.0 -891923000000.0 -794001000000.0 -968083000000.0 -1.04131e+12 -1.12482e+12 -1.05194e+12 -999122000000.0 -862554000000.0 -909255000000.0 -829684000000.0 -891609000000.0 -827803000000.0 -520717000000.0 -563116000000.0 -806192000000.0 -880284000000.0 -841637000000.0 -1.11445e+12 -1.23373e+12 -1.23315e+12 -1.00853e+12 -1.08007e+12 -1.02957e+12 -1.00848e+12 -994498000000.0 -1.01608e+12 -1.0996e+12 -1.10152e+12 -1.00725e+12 -960562000000.0 -951537000000.0 -988518000000.0 -972932000000.0 -2.36831e+12 -1.75489e+12 -1.52569e+12 -1.24764e+12 -1.15662e+12 -1.12334e+12 -1.10348e+12 -1.09749e+12 -1.12105e+12 -1.16457e+12 -1.10059e+12 -1.03878e+12 -1.01436e+12 -607215000000.0 -685209000000.0 -981196000000.0 -1.91811e+12 -1.88499e+12 -1.44591e+12 -1.29476e+12 -1.23991e+12 -1.33145e+12 -1.2168e+12 -1.30695e+12 -1.19673e+12 -1.2821e+12 -1.19004e+12 -1.26577e+12 -1.2036e+12 -1.25218e+12 -1.18168e+12 -1.19763e+12 -1.11916e+12 -1.15004e+12 -1.08106e+12 -1.13005e+12 -1.07082e+12 -695943000000.0 -822640000000.0 -1.20898e+12 -1.67445e+12 -1.94286e+12 -1.65097e+12 -1.58844e+12 -1.44439e+12 -1.48764e+12 -1.36146e+12 -1.44123e+12 -1.42306e+12 -1.38935e+12 -1.35405e+12 -1.3223e+12 -1.27482e+12 -1.21983e+12 -1.19007e+12 -1.18415e+12 -1.48161e+12 -1.44824e+12 -1.63171e+12 -1.76566e+12 -1.75631e+12 -1.7588e+12 -1.65672e+12 -1.60848e+12 -1.55344e+12 -1.5376e+12 -1.50711e+12 -1.45984e+12 -1.40963e+12 -1.35517e+12 -1.29159e+12 -1.25006e+12 -1.238e+12 -786968000000.0 -990970000000.0 -1.5856e+12 -1.67269e+12 -1.66412e+12 -1.68742e+12 -1.66523e+12 -1.63164e+12 -1.74798e+12 -1.63048e+12 -1.7088e+12 -1.57896e+12 -1.63614e+12 -1.51545e+12 -1.5536e+12 -1.4462e+12 -1.46042e+12 -1.3694e+12 -1.37735e+12 -1.31115e+12 -1.33943e+12 -1.2899e+12 -1.3399e+12 -1.29203e+12 -880703000000.0 -1.13831e+12 -1.63525e+12 -1.65773e+12 -1.62285e+12 -1.63294e+12 -1.76492e+12 -1.82625e+12 -1.73022e+12 -1.80579e+12 -1.84639e+12 -1.76999e+12 -1.67662e+12 -1.57057e+12 -1.45616e+12 -1.38927e+12 -1.38136e+12 -1.39731e+12 -1.75099e+12 -1.68789e+12 -1.71386e+12 -1.65923e+12 -1.59164e+12 -1.4484e+12 -1.1428e+12 -1.82333e+12 -1.89633e+12 -1.89045e+12 -1.97946e+12 -1.91744e+12 -1.81362e+12 -1.69746e+12 -1.55968e+12 -1.44631e+12 -1.41551e+12 -1.43869e+12 -978156000000.0 -1.27482e+12 -1.78598e+12 -1.69426e+12 -1.44331e+12 -1.07334e+12 -1.93988e+12 -1.94811e+12 -2.27157e+12 -2.08229e+12 -2.14095e+12 -1.96563e+12 -1.98737e+12 -1.83775e+12 -1.84673e+12 -1.69392e+12 -1.64215e+12 -1.5228e+12 -1.48215e+12 -1.44599e+12 -1.47434e+12 -1.46525e+12 -1.54035e+12 -1.50567e+12 -1.08101e+12 -1.40611e+12 -1.86304e+12 -1.89802e+12 -1.79842e+12 -1.78293e+12 -1.62441e+12 -1.22476e+12 -1.04497e+12 -1.99191e+12 -1.92764e+12 -2.39443e+12 -2.12593e+12 -2.02165e+12 -1.81531e+12 -1.53879e+12 -1.46917e+12 -1.54512e+12 -1.62767e+12 -1.99054e+12 -1.9154e+12 -1.7487e+12 -1.5016e+12 -1.11257e+12 -1.15888e+12 -1.16895e+12 -1.00444e+12 -851205000000.0 -2.93553e+12 -2.27192e+12 -2.14706e+12 -2.07402e+12 -1.63627e+12 -1.45711e+12 -1.51484e+12 -1.65631e+12 -1.1923e+12 -1.53737e+12 -2.03454e+12 -1.91864e+12 -1.72399e+12 -1.15715e+12 -1.16467e+12 -2.1266e+12 -2.44931e+12 -2.33192e+12 -2.2504e+12 -2.28779e+12 -2.20175e+12 -2.28991e+12 -2.15419e+12 -2.41008e+12 -1.371e+12 -1.27063e+12 -1.4534e+12 -1.53084e+12 -1.62709e+12 -1.80826e+12 -1.78269e+12 -1.31751e+12 -1.67076e+12 -2.1446e+12 -2.20531e+12 -2.06398e+12 -2.07875e+12 -1.92752e+12 -1.94897e+12 -1.00112e+12 -1.21497e+12 -1.43218e+12 -1.28439e+12 -2.21611e+12 -2.34469e+12 -2.36335e+12 -2.45282e+12 -2.88054e+12 -1.25494e+12 -1.72108e+12 -2.00259e+12 -2.32115e+12 -2.26082e+12 -2.0836e+12 -822760000000.0 -1.1083e+12 -1.43394e+12 -1.76767e+12 -2.01632e+12 -2.24067e+12 -2.31651e+12 -2.4152e+12 -2.40909e+12 -2.50462e+12 -2.48179e+12 -2.65472e+12 -2.73148e+12 -3.03581e+12 -3.23989e+12 -3.44922e+12 -1.39958e+12 -2.03521e+12 -1.46285e+12 -1.81157e+12 -2.53042e+12 -2.38535e+12 -2.41574e+12 -2.31813e+12 -1.99458e+12 -1.33319e+12 -1.76509e+12 -2.14417e+12 -2.39355e+12 -2.51582e+12 -2.62796e+12 -2.86094e+12 -3.2569e+12 -3.45136e+12 -1.77809e+12 -2.40076e+12 -2.32025e+12 -1.61237e+12 -1.98511e+12 -2.56807e+12 -2.36483e+12 -2.461e+12 -3.16986e+12 -1.05938e+12 -1.464e+12 -1.71542e+12 -2.0304e+12 -2.03961e+12 -2.30862e+12 -2.35615e+12 -2.51652e+12 -2.62148e+12 -2.76978e+12 -3.0521e+12 -3.33013e+12 -3.3078e+12 -3.20583e+12 -2.8615e+12 -2.6798e+12 -2.16641e+12 -2.84727e+12 -2.4873e+12 -2.3485e+12 -2.33204e+12 -2.38099e+12 -1.9998e+12 -2.27596e+12 -2.49765e+12 -2.50997e+12 -2.63201e+12 -2.62447e+12 -2.72188e+12 -2.72997e+12 -2.83165e+12 -2.91015e+12 -3.01516e+12 -3.16557e+12 -3.15067e+12 -3.21387e+12 -2.96994e+12 -3.09815e+12 -1.76332e+12 -3.111e+12 -2.97415e+12 -3.14271e+12 -1.9586e+12 -1.80687e+12 -2.49983e+12 -2.40589e+12 -2.26649e+12 -2.29018e+12 -2.48827e+12 -2.64073e+12 -2.73286e+12 -2.80543e+12 -2.90791e+12 -3.05202e+12 -3.26079e+12 -3.39388e+12 -3.20673e+12 -3.31302e+12 -1.93199e+12 -2.36736e+12 -3.22183e+12 -3.93751e+12 -2.08055e+12 -2.51279e+12 -2.58914e+12 -2.42764e+12 -2.58354e+12 -2.50034e+12 -2.67186e+12 -2.65108e+12 -2.75399e+12 -2.81417e+12 -2.86412e+12 -2.93192e+12 -2.9421e+12 -3.39414e+12 -3.53215e+12 -3.40224e+12 -2.64394e+12 -3.20369e+12 -3.33531e+12 -3.54949e+12 -4.34978e+12 -4.02949e+12 -3.48576e+12 -2.4172e+12 -2.72443e+12 -2.706e+12 -2.72734e+12 -2.8088e+12 -2.77855e+12 -2.8802e+12 -2.8445e+12 -2.91287e+12 -2.8695e+12 -2.88257e+12 -2.88019e+12 -2.82573e+12 -2.88606e+12 -2.4668e+12 -3.78757e+12 -3.58804e+12 -3.61718e+12 -2.0733e+12 -2.97827e+12 -3.5597e+12 -3.96541e+12 -4.03347e+12 -3.76902e+12 -3.15101e+12 -2.84213e+12 -2.82076e+12 -2.85623e+12 -2.91918e+12 -2.96044e+12 -2.95434e+12 -2.81926e+12 -2.71703e+12 -4.10712e+12 -4.2213e+12 -3.83167e+12 -3.77887e+12 -2.19838e+12 -3.23512e+12 -3.19575e+12 -3.76755e+12 -3.49846e+12 -3.11542e+12 -3.12956e+12 -2.94116e+12 -3.02985e+12 -2.92922e+12 -3.02885e+12 -2.96642e+12 -3.05907e+12 -3.00849e+12 -3.01973e+12 -2.95887e+12 -2.57094e+12 -2.43213e+12 -4.65369e+12 -4.01444e+12 -3.76403e+12 -3.74205e+12 -2.83514e+12 -3.48444e+12 -3.63045e+12 -3.76551e+12 -3.65041e+12 -3.5557e+12 -3.36541e+12 -3.33726e+12 -3.17233e+12 -3.1122e+12 -3.11712e+12 -3.13598e+12 -3.07942e+12 -3.13287e+12 -3.05565e+12 -3.06269e+12 -2.90387e+12 -2.79138e+12 -2.12661e+12 -4.25847e+12 -4.32987e+12 -4.03754e+12 -3.89508e+12 -3.85762e+12 -2.31882e+12 -3.59305e+12 -2.86239e+12 -3.30654e+12 -3.48721e+12 -3.6683e+12 -3.65987e+12 -3.51328e+12 -3.3404e+12 -3.22474e+12 -3.18849e+12 -3.1937e+12 -3.19869e+12 -3.16914e+12 -3.05061e+12 -2.98034e+12 -2.88203e+12 -4.0456e+12 -3.93993e+12 -2.42836e+12 -3.04867e+12 -3.31884e+12 -3.60937e+12 -3.69342e+12 -3.65022e+12 -3.6482e+12 -3.50477e+12 -3.50715e+12 -3.36154e+12 -3.39175e+12 -3.27983e+12 -3.33431e+12 -3.25787e+12 -3.31999e+12 -3.25924e+12 -3.31546e+12 -3.24915e+12 -3.19679e+12 -3.15025e+12 -3.2955e+12 -3.78078e+12 -3.93756e+12 -3.9162e+12 -3.88305e+12 -2.50941e+12 -2.88458e+12 -3.27162e+12 -3.49521e+12 -3.66878e+12 -3.74155e+12 -3.77023e+12 -3.64871e+12 -3.51706e+12 -3.42632e+12 -3.3864e+12 -3.37555e+12 -3.36696e+12 -3.29373e+12 -3.35646e+12 -3.26941e+12 -3.38755e+12 -3.3173e+12 -3.70951e+12 -3.85205e+12 -3.85095e+12 -3.84127e+12 -2.37714e+12 -2.75113e+12 -3.59583e+12 -3.79586e+12 -3.78615e+12 -3.86762e+12 -3.78227e+12 -3.6471e+12 -3.53222e+12 -3.46287e+12 -3.43543e+12 -3.42752e+12 -3.42604e+12 -3.44626e+12 -3.53704e+12 -3.52485e+12 -3.80278e+12 -3.90398e+12 -3.76353e+12 -2.57144e+12 -9035750000.0 -1.59619e+12 -3.45787e+12 -3.77684e+12 -3.94527e+12 -3.90586e+12 -3.91224e+12 -3.77873e+12 -3.76836e+12 -3.64715e+12 -3.65006e+12 -3.55109e+12 -3.57295e+12 -3.50008e+12 -3.53779e+12 -3.48259e+12 -3.53188e+12 -3.48285e+12 -3.54876e+12 -3.50174e+12 -3.55855e+12 -3.70879e+12 -3.74675e+12 -3.81179e+12 -3.80263e+12 -3.93614e+12 -2.66881e+12 -3.10728e+12 -3.21701e+12 -3.70927e+12 -4.01437e+12 -4.13856e+12 -4.01914e+12 -4.04525e+12 -3.89788e+12 -3.75813e+12 -3.65589e+12 -3.59745e+12 -3.57788e+12 -3.58855e+12 -3.63002e+12 -3.59623e+12 -3.70651e+12 -3.68343e+12 -3.89131e+12 -3.70487e+12 -4.14398e+12 -3.60267e+12 -3.47662e+12 -3.47081e+12 -4.12137e+12 -4.07515e+12 -4.27721e+12 -4.18138e+12 -4.03723e+12 -3.87638e+12 -3.7498e+12 -3.66506e+12 -3.62509e+12 -3.6238e+12 -3.65769e+12 -3.72833e+12 -3.83011e+12 -3.80955e+12 -3.90951e+12 -4.03213e+12 -4.79051e+12 -2.59715e+12 -2.65778e+12 -2.66607e+12 -4.94179e+12 -4.83106e+12 -4.40554e+12 -4.33873e+12 -4.18348e+12 -4.15974e+12 -4.00948e+12 -3.97746e+12 -3.85588e+12 -3.83673e+12 -3.74383e+12 -3.7408e+12 -3.67784e+12 -3.69525e+12 -3.65782e+12 -3.69921e+12 -3.67991e+12 -3.75151e+12 -3.74353e+12 -3.84361e+12 -3.96519e+12 -3.96014e+12 -4.23053e+12 -4.55841e+12 -3.28648e+12 -8987060000.0 -4.25059e+12 -5.13912e+12 -4.77e+12 -4.78461e+12 -4.51779e+12 -4.52943e+12 -4.34217e+12 -4.32388e+12 -4.12007e+12 -3.94725e+12 -3.81886e+12 -3.74124e+12 -3.7198e+12 -3.75471e+12 -3.84554e+12 -3.85005e+12 -3.979e+12 -3.97732e+12 -4.13144e+12 -4.11891e+12 -4.0021e+12 -2.90753e+12 -4.4556e+12 -4.5704e+12 -2.5332e+12 -5.31647e+12 -6.47026e+12 -4.77571e+12 -5.46439e+12 -5.09331e+12 -5.03772e+12 -4.77722e+12 -4.50521e+12 -4.28527e+12 -4.07955e+12 -3.9173e+12 -3.80242e+12 -3.74663e+12 -3.75601e+12 -3.83206e+12 -3.96888e+12 -4.13034e+12 -4.21159e+12 -4.56373e+12 -5.71471e+12 -5.24001e+12 -5.09191e+12 -5.02797e+12 -5.18035e+12 -7.38896e+12 -5.2427e+12 -5.26325e+12 -5.03342e+12 -4.73085e+12 -4.4686e+12 -4.41953e+12 -4.23771e+12 -4.19133e+12 -4.0405e+12 -3.99819e+12 -3.88616e+12 -3.85305e+12 -3.78798e+12 -3.77789e+12 -3.76039e+12 -3.79149e+12 -3.81228e+12 -3.90252e+12 -3.94309e+12 -4.09304e+12 -4.12033e+12 -4.28099e+12 -4.26861e+12 -4.54361e+12 -5.21522e+12 -4.39751e+12 -5.68286e+12 -5.09795e+12 -6.8015e+12 -4.67015e+12 -4.73901e+12 -7.37401e+12 -7.19665e+12 -6.74155e+12 -5.52916e+12 -5.59124e+12 -5.5454e+12 -5.30305e+12 -5.30588e+12 -4.9993e+12 -4.91619e+12 -4.67576e+12 -4.61838e+12 -4.36868e+12 -4.14142e+12 -3.95061e+12 -3.81892e+12 -3.77798e+12 -3.85504e+12 -4.04449e+12 -4.26994e+12 -4.48301e+12 -4.50828e+12 -4.73627e+12 -4.74856e+12 -5.10128e+12 -5.10542e+12 -6.10983e+12 -6.98209e+12 -4.60349e+12 -4.59128e+12 -4.58627e+12 -7.09078e+12 -7.11623e+12 -6.97835e+12 -6.5349e+12 -5.60265e+12 -5.70595e+12 -5.5912e+12 -5.20921e+12 -4.82952e+12 -4.56592e+12 -4.31409e+12 -4.08356e+12 -3.89861e+12 -3.78765e+12 -3.80422e+12 -3.97054e+12 -4.2276e+12 -4.46874e+12 -4.69251e+12 -4.86215e+12 -4.90336e+12 -5.20562e+12 -5.4999e+12 -6.30191e+12 -6.80851e+12 -6.97606e+12 -7.17014e+12 -7.22398e+12 -4.53833e+12 -4.34417e+12 -4.43938e+12 -7.05881e+12 -6.90661e+12 -6.89115e+12 -6.70735e+12 -6.65181e+12 -6.0847e+12 -5.64501e+12 -5.38025e+12 -5.69091e+12 -6.07376e+12 -5.3322e+12 -5.05961e+12 -4.99155e+12 -4.77505e+12 -4.72068e+12 -4.50886e+12 -4.43118e+12 -4.24795e+12 -4.17922e+12 -4.02019e+12 -3.94643e+12 -3.83909e+12 -3.77552e+12 -3.77021e+12 -3.79588e+12 -3.88398e+12 -4.04657e+12 -4.15681e+12 -4.37492e+12 -4.43921e+12 -4.64466e+12 -4.66582e+12 -4.82928e+12 -4.83645e+12 -5.01977e+12 -5.13883e+12 -5.26782e+12 -5.24844e+12 -6.97907e+12 -7.07949e+12 -7.18193e+12 -4.45423e+12 -4.33709e+12 -4.37287e+12 -7.00022e+12 -6.9025e+12 -6.74552e+12 -6.6907e+12 -6.42655e+12 -5.36868e+12 -5.37269e+12 -5.40712e+12 -5.19564e+12 -5.25718e+12 -4.95857e+12 -4.6161e+12 -4.35904e+12 -4.10131e+12 -3.85668e+12 -3.73004e+12 -3.90346e+12 -4.27891e+12 -4.59935e+12 -4.8011e+12 -4.96917e+12 -4.97334e+12 -5.22373e+12 -4.47049e+12 -6.80635e+12 -6.87653e+12 -6.92442e+12 -6.96866e+12 -7.08293e+12 -7.00099e+12 -7.11754e+12 -7.0487e+12 -4.20025e+12 -4.42926e+12 -6.96109e+12 -7.00227e+12 -6.93083e+12 -6.89606e+12 -6.81117e+12 -6.7418e+12 -6.42653e+12 -5.96523e+12 -5.45672e+12 -4.13659e+12 -4.70839e+12 -4.44464e+12 -5.78754e+12 -5.11744e+12 -5.66227e+12 -4.99079e+12 -4.79874e+12 -4.53686e+12 -4.28329e+12 -4.19474e+12 -4.00507e+12 -3.88173e+12 -3.75082e+12 -3.65098e+12 -3.76103e+12 -3.89802e+12 -4.132e+12 -4.36798e+12 -4.51579e+12 -4.65015e+12 -4.7466e+12 -4.97475e+12 -5.04844e+12 -5.06958e+12 -5.27914e+12 -5.39983e+12 -6.05174e+12 -6.71884e+12 -6.91403e+12 -6.9347e+12 -6.94956e+12 -4.06773e+12 -4.4388e+12 -4.47841e+12 -6.83872e+12 -6.89545e+12 -6.84426e+12 -6.90763e+12 -6.97906e+12 -6.88796e+12 -6.28081e+12 -5.81135e+12 -5.27338e+12 -5.22287e+12 -5.8997e+12 -5.2153e+12 -4.97412e+12 -4.83939e+12 -4.74351e+12 -4.69555e+12 -4.61866e+12 -4.46361e+12 -4.38342e+12 -4.07875e+12 -3.71937e+12 -3.63447e+12 -4.18029e+12 -4.53891e+12 -4.80761e+12 -4.9225e+12 -5.12765e+12 -5.10713e+12 -5.00682e+12 -5.63865e+12 -5.24203e+12 -6.02576e+12 -6.41399e+12 -6.24318e+12 -6.73566e+12 -6.6989e+12 -6.79734e+12 -6.74552e+12 -6.87232e+12 -6.79926e+12 -6.84355e+12 -4.00467e+12 -4.03486e+12 -4.65133e+12 -4.24179e+12 -6.60108e+12 -6.64222e+12 -6.79932e+12 -6.75168e+12 -6.68608e+12 -6.793e+12 -6.7183e+12 -7.14126e+12 -5.16293e+12 -5.54144e+12 -5.75227e+12 -5.20061e+12 -5.79865e+12 -5.47837e+12 -5.10323e+12 -4.83973e+12 -4.6678e+12 -4.54439e+12 -4.28957e+12 -3.92082e+12 -3.52566e+12 -3.67178e+12 -4.50864e+12 -4.68189e+12 -4.96564e+12 -5.37837e+12 -5.12548e+12 -4.73518e+12 -5.23781e+12 -5.40879e+12 -6.09328e+12 -6.48211e+12 -6.52479e+12 -6.57731e+12 -6.61851e+12 -6.74625e+12 -6.73698e+12 -6.80897e+12 -4.09458e+12 -4.95006e+12 -7.17795e+12 -6.16172e+12 -6.44952e+12 -6.63122e+12 -6.58765e+12 -6.58128e+12 -6.38015e+12 -6.4518e+12 -4.91455e+12 -5.71878e+12 -6.06756e+12 -5.46178e+12 -5.10454e+12 -5.16819e+12 -5.1929e+12 -4.85569e+12 -4.88665e+12 -4.75955e+12 -4.59526e+12 -4.50298e+12 -4.46216e+12 -4.36357e+12 -4.16462e+12 -3.98502e+12 -3.67265e+12 -3.02127e+12 -3.15386e+12 -4.85851e+12 -4.65875e+12 -4.6473e+12 -4.59971e+12 -4.71389e+12 -4.78685e+12 -4.89594e+12 -5.19116e+12 -5.6161e+12 -4.40764e+12 -5.79014e+12 -4.58129e+12 -5.80423e+12 -6.0724e+12 -5.62203e+12 -6.32649e+12 -6.45436e+12 -6.76053e+12 -6.76342e+12 -6.61397e+12 -6.66219e+12 -6.79205e+12 -6.79272e+12 -4.15859e+12 -4.55812e+12 -4.75308e+12 -7.29786e+12 -6.55958e+12 -5.32724e+12 -6.3819e+12 -6.4281e+12 -6.49855e+12 -6.46558e+12 -6.38457e+12 -6.51004e+12 -6.38354e+12 -6.1268e+12 -5.49638e+12 -6.55704e+12 -6.0288e+12 -4.98659e+12 -4.59634e+12 -4.7082e+12 -4.79592e+12 -4.77407e+12 -4.69201e+12 -4.60467e+12 -4.41386e+12 -4.2518e+12 -3.50408e+12 -4.88873e+12 -4.7432e+12 -4.67538e+12 -4.82475e+12 -5.00313e+12 -5.53916e+12 -5.13907e+12 -4.86914e+12 -5.88315e+12 -6.50734e+12 -5.17311e+12 -6.57778e+12 -6.58391e+12 -6.66642e+12 -6.54557e+12 -6.65181e+12 -6.51469e+12 -6.521e+12 -6.63859e+12 -6.79008e+12 -4.20966e+12 -4.23409e+12 -4.39999e+12 -6.91242e+12 -7.09102e+12 -6.82159e+12 -6.01025e+12 -6.38425e+12 -6.38529e+12 -6.29967e+12 -6.23342e+12 -5.94715e+12 -6.0116e+12 -5.83197e+12 -4.80225e+12 -5.58131e+12 -5.33906e+12 -4.62992e+12 -3.17715e+12 -4.37318e+12 -4.77758e+12 -4.81216e+12 -4.69067e+12 -4.49027e+12 -4.31478e+12 -4.04999e+12 -4.48761e+12 -4.69919e+12 -4.62589e+12 -4.75585e+12 -4.92587e+12 -5.03496e+12 -6.06104e+12 -3.79e+12 -4.94856e+12 -5.0895e+12 -5.8448e+12 -5.97916e+12 -6.42e+12 -6.8652e+12 -6.2115e+12 -6.63581e+12 -6.35158e+12 -6.464e+12 -6.62782e+12 -6.6296e+12 -6.79019e+12 -4.22914e+12 -4.17356e+12 -4.27694e+12 -6.76916e+12 -6.7653e+12 -6.56031e+12 -6.44823e+12 -6.15351e+12 -6.30997e+12 -6.22909e+12 -6.18304e+12 -5.99586e+12 -5.79602e+12 -5.79201e+12 -6.35772e+12 -5.06867e+12 -5.1631e+12 -4.69107e+12 -3.85588e+12 -4.60311e+12 -4.9508e+12 -4.88322e+12 -4.78671e+12 -4.61635e+12 -4.55479e+12 -4.43167e+12 -4.39985e+12 -4.37269e+12 -4.41001e+12 -4.51349e+12 -4.25082e+12 -4.22017e+12 -4.49225e+12 -4.22404e+12 -4.51084e+12 -4.47718e+12 -4.6309e+12 -4.69083e+12 -4.86478e+12 -4.97761e+12 -4.86371e+12 -4.19885e+12 -5.49689e+12 -3.39344e+12 -4.91897e+12 -5.38092e+12 -5.70778e+12 -6.00174e+12 -5.58758e+12 -6.03502e+12 -6.59484e+12 -6.45112e+12 -6.35908e+12 -6.28582e+12 -6.45371e+12 -6.64575e+12 -6.77496e+12 -6.72382e+12 -4.17384e+12 -4.05956e+12 -4.07476e+12 -6.64656e+12 -6.54131e+12 -6.65567e+12 -6.51591e+12 -6.29739e+12 -6.11415e+12 -6.23371e+12 -6.12949e+12 -6.03017e+12 -6.1561e+12 -6.11554e+12 -6.10921e+12 -5.86707e+12 -4.54772e+12 -5.17859e+12 -5.4822e+12 -5.16987e+12 -5.10859e+12 -4.94408e+12 -5.1377e+12 -4.5998e+12 -5.25967e+12 -4.74397e+12 -4.68973e+12 -4.46275e+12 -4.36228e+12 -4.40107e+12 -4.55739e+12 -3.49682e+12 -4.17967e+12 -4.52252e+12 -4.722e+12 -4.94116e+12 -5.19103e+12 -3.08194e+12 -4.25416e+12 -4.26345e+12 -4.85316e+12 -5.85035e+12 -5.96182e+12 -6.09353e+12 -6.65827e+12 -6.15812e+12 -6.52073e+12 -6.23126e+12 -6.18553e+12 -6.24277e+12 -6.32001e+12 -6.46694e+12 -6.59943e+12 -6.6504e+12 -3.87176e+12 -3.97157e+12 -6.42016e+12 -6.53069e+12 -6.42433e+12 -6.41911e+12 -6.33396e+12 -6.13952e+12 -6.07561e+12 -5.96437e+12 -5.95332e+12 -5.92598e+12 -6.04741e+12 -6.63269e+12 -5.94407e+12 -5.36072e+12 -5.18858e+12 -5.23578e+12 -5.36213e+12 -5.45439e+12 -6.32854e+12 -5.34766e+12 -4.80757e+12 -4.5552e+12 -4.50291e+12 -4.35111e+12 -4.35269e+12 -4.31159e+12 -4.46471e+12 -5.18447e+12 -3.36964e+12 -4.25198e+12 -4.6034e+12 -4.68293e+12 -4.61414e+12 -4.29863e+12 -5.26143e+12 -4.52694e+12 -4.72787e+12 -4.65323e+12 -5.26012e+12 -5.59158e+12 -5.5855e+12 -5.82978e+12 -5.00757e+12 -6.4678e+12 -7.06008e+12 -6.62469e+12 -6.3157e+12 -6.10342e+12 -6.19536e+12 -6.44218e+12 -6.35713e+12 -6.52045e+12 -6.54498e+12 -6.40283e+12 -3.64161e+12 -3.71827e+12 -3.85405e+12 -6.31564e+12 -6.30874e+12 -6.18619e+12 -6.30627e+12 -6.17403e+12 -6.27699e+12 -6.11561e+12 -6.00033e+12 -5.89963e+12 -5.87947e+12 -5.87519e+12 -6.00133e+12 -5.7613e+12 -5.25883e+12 -5.68194e+12 -5.47544e+12 -5.294e+12 -5.30091e+12 -5.19954e+12 -5.2906e+12 -5.35388e+12 -5.72868e+12 -4.32561e+12 -4.55283e+12 -4.3513e+12 -4.28707e+12 -4.28442e+12 -4.22955e+12 -4.32779e+12 -4.42572e+12 -4.76787e+12 -4.92465e+12 -5.17642e+12 -4.71287e+12 -3.58177e+12 -3.98327e+12 -4.30111e+12 -4.29636e+12 -5.01748e+12 -3.78463e+12 -4.85281e+12 -4.60693e+12 -4.72172e+12 -4.93563e+12 -5.20391e+12 -5.39896e+12 -5.5906e+12 -5.44613e+12 -5.69966e+12 -6.25929e+12 -6.62755e+12 -6.42254e+12 -6.14343e+12 -5.69878e+12 -6.13322e+12 -6.22312e+12 -6.41122e+12 -6.3294e+12 -6.17285e+12 -6.20834e+12 -3.40456e+12 -3.19646e+12 -3.56664e+12 -6.20258e+12 -6.10086e+12 -6.20039e+12 -6.06991e+12 -6.05562e+12 -6.02902e+12 -5.87704e+12 -5.95509e+12 -5.83522e+12 -5.67337e+12 -5.78232e+12 -5.72302e+12 -5.78513e+12 -5.82215e+12 -6.69244e+12 -5.81891e+12 -5.70086e+12 -5.34127e+12 -5.21276e+12 -5.20606e+12 -5.11601e+12 -5.19373e+12 -4.97126e+12 -3.53116e+12 -4.19776e+12 -4.34047e+12 -4.17413e+12 -4.21505e+12 -4.51597e+12 -4.71761e+12 -4.1696e+12 -4.02254e+12 -4.27898e+12 -6.12795e+12 -4.71613e+12 -4.30344e+12 -4.62287e+12 -4.77694e+12 -4.94605e+12 -5.10536e+12 -5.2955e+12 -5.30927e+12 -5.54361e+12 -5.71177e+12 -5.85595e+12 -6.08067e+12 -5.94982e+12 -5.64308e+12 -5.43959e+12 -5.94615e+12 -6.03712e+12 -6.19619e+12 -6.11882e+12 -5.97916e+12 -6.006e+12 -3.03016e+12 -3.41406e+12 -5.91356e+12 -6.06991e+12 -5.98695e+12 -5.96594e+12 -5.81741e+12 -5.93244e+12 -5.78939e+12 -5.91097e+12 -5.75757e+12 -5.73204e+12 -5.63491e+12 -5.55192e+12 -5.51586e+12 -5.99334e+12 -5.90666e+12 -5.5688e+12 -5.18816e+12 -5.07423e+12 -5.05499e+12 -5.07958e+12 -5.09432e+12 -4.87889e+12 -4.67285e+12 -4.22104e+12 -5.19476e+12 -4.55536e+12 -4.15098e+12 -4.13566e+12 -3.9892e+12 -4.07818e+12 -4.22252e+12 -4.44393e+12 -4.32693e+12 -4.1158e+12 -4.0862e+12 -3.8672e+12 -3.09226e+12 -4.73117e+12 -3.20648e+12 -4.23552e+12 -4.59607e+12 -4.69188e+12 -4.77708e+12 -4.88812e+12 -5.02111e+12 -5.10476e+12 -5.2638e+12 -5.45315e+12 -5.49474e+12 -5.52462e+12 -5.54142e+12 -5.17034e+12 -4.05782e+12 -5.62726e+12 -5.89245e+12 -5.97565e+12 -5.96759e+12 -5.97927e+12 -5.78519e+12 -5.77944e+12 -5.81792e+12 -5.6598e+12 -2.92037e+12 -3.1625e+12 -3.2762e+12 -5.7453e+12 -5.68943e+12 -5.85149e+12 -5.77155e+12 -5.87814e+12 -5.7174e+12 -5.66682e+12 -5.62796e+12 -5.46021e+12 -5.60268e+12 -5.45153e+12 -5.36052e+12 -5.28981e+12 -5.61866e+12 -5.77452e+12 -5.23269e+12 -4.96863e+12 -4.93185e+12 -4.92689e+12 -4.93051e+12 -4.90845e+12 -4.07047e+12 -2.78315e+12 -5.11915e+12 -4.61635e+12 -3.82922e+12 -3.8627e+12 -4.00358e+12 -3.93206e+12 -4.15949e+12 -4.0174e+12 -4.20815e+12 -3.94204e+12 -4.02411e+12 -3.91762e+12 -4.12431e+12 -5.13314e+12 -4.40899e+12 -4.26969e+12 -4.46614e+12 -4.5318e+12 -4.62614e+12 -4.70804e+12 -4.80363e+12 -4.88565e+12 -5.36883e+12 -5.44966e+12 -5.13219e+12 -6.28414e+12 -5.67243e+12 -5.81215e+12 -5.82655e+12 -5.8558e+12 -5.82652e+12 -5.60766e+12 -5.61161e+12 -5.52736e+12 -2.86269e+12 -2.85412e+12 -3.07354e+12 -5.58039e+12 -5.51769e+12 -5.64132e+12 -5.56107e+12 -5.65459e+12 -5.54642e+12 -5.38052e+12 -5.51686e+12 -5.3429e+12 -5.28108e+12 -5.0822e+12 -5.3767e+12 -4.76266e+12 -5.37473e+12 -5.89735e+12 -6.32421e+12 -4.07773e+12 -4.97864e+12 -4.96318e+12 -4.82646e+12 -4.80115e+12 -4.78326e+12 -4.75086e+12 -4.66792e+12 -4.45392e+12 -3.66958e+12 -3.89119e+12 -3.53429e+12 -3.61784e+12 -3.75675e+12 -3.72692e+12 -3.75511e+12 -3.81323e+12 -3.68396e+12 -3.70206e+12 -3.56876e+12 -5.0779e+12 -4.42794e+12 -4.34581e+12 -4.41556e+12 -4.47278e+12 -4.54408e+12 -4.61531e+12 -5.01352e+12 -5.16199e+12 -5.25584e+12 -5.30004e+12 -4.87491e+12 -4.16417e+12 -5.53771e+12 -5.89192e+12 -5.73051e+12 -5.87711e+12 -5.76174e+12 -5.65718e+12 -5.46788e+12 -5.44639e+12 -5.46709e+12 -5.36696e+12 -5.42271e+12 -2.86479e+12 -2.9997e+12 -5.28945e+12 -5.42742e+12 -5.35277e+12 -5.47961e+12 -5.4459e+12 -5.43284e+12 -5.4494e+12 -5.25819e+12 -5.21823e+12 -4.981e+12 -5.18936e+12 -5.06563e+12 -4.94785e+12 -4.73683e+12 -5.28229e+12 -5.58549e+12 -5.08204e+12 -4.71775e+12 -4.90438e+12 -4.84278e+12 -4.6613e+12 -4.64276e+12 -4.56436e+12 -4.39376e+12 -4.13511e+12 -1.97323e+12 -3.31439e+12 -3.8106e+12 -3.66186e+12 -3.6069e+12 -3.59295e+12 -3.68676e+12 -3.69611e+12 -3.35294e+12 -1.91972e+12 -4.51241e+12 -4.49043e+12 -4.27255e+12 -4.28383e+12 -4.28063e+12 -4.33179e+12 -4.38385e+12 -4.68447e+12 -4.77895e+12 -4.89227e+12 -4.97638e+12 -5.03252e+12 -5.0559e+12 -5.03816e+12 -5.28404e+12 -6.14186e+12 -5.13356e+12 -5.56562e+12 -5.62771e+12 -5.64005e+12 -5.64433e+12 -5.5365e+12 -5.38769e+12 -5.35204e+12 -5.2623e+12 -5.3115e+12 -2.86069e+12 -2.83476e+12 -2.92583e+12 -5.15382e+12 -5.21033e+12 -5.15371e+12 -5.30352e+12 -5.28179e+12 -5.26301e+12 -5.35909e+12 -5.21349e+12 -5.13056e+12 -4.91692e+12 -5.09547e+12 -4.96827e+12 -4.75693e+12 -4.35215e+12 -5.03952e+12 -5.61528e+12 -2.95705e+12 -4.46628e+12 -4.87869e+12 -4.83671e+12 -4.86422e+12 -4.61769e+12 -4.63401e+12 -4.64266e+12 -4.66151e+12 -4.59145e+12 -4.52344e+12 -4.37262e+12 -4.15675e+12 -3.86824e+12 -3.77582e+12 -3.04312e+12 -3.47999e+12 -3.30752e+12 -3.32705e+12 -3.3142e+12 -3.32819e+12 -3.21039e+12 -3.30843e+12 -3.11735e+12 -4.62843e+12 -3.00328e+12 -3.87195e+12 -4.0881e+12 -4.09915e+12 -4.14487e+12 -4.1793e+12 -4.2276e+12 -4.44198e+12 -4.49828e+12 -4.5677e+12 -4.64964e+12 -4.72141e+12 -4.78631e+12 -4.85876e+12 -4.94561e+12 -5.07155e+12 -4.18541e+12 -5.40335e+12 -5.57061e+12 -5.45401e+12 -6.03771e+12 -5.68182e+12 -5.48694e+12 -5.39281e+12 -5.29623e+12 -5.25483e+12 -5.10116e+12 -5.11319e+12 -5.15277e+12 -4.94339e+12 -2.82692e+12 -2.72436e+12 -5.0047e+12 -5.07406e+12 -5.01263e+12 -5.13597e+12 -5.16514e+12 -5.15304e+12 -4.9569e+12 -4.68233e+12 -4.74858e+12 -4.75651e+12 -4.73833e+12 -4.70724e+12 -5.00566e+12 -3.6918e+12 -4.41232e+12 -3.89336e+12 -4.44513e+12 -4.53513e+12 -4.61732e+12 -4.5827e+12 -4.42247e+12 -4.33666e+12 -4.45735e+12 -4.55175e+12 -4.40695e+12 -4.21235e+12 -4.01271e+12 -3.92991e+12 -3.77121e+12 -3.90798e+12 -4.10473e+12 -3.66764e+12 -2.6814e+12 -2.84926e+12 -2.70076e+12 -2.6831e+12 -3.7629e+12 -3.82261e+12 -3.65761e+12 -3.86111e+12 -3.94803e+12 -3.98152e+12 -4.02859e+12 -4.27499e+12 -4.32199e+12 -4.3732e+12 -4.42913e+12 -4.47798e+12 -4.52027e+12 -4.56665e+12 -4.62185e+12 -4.68536e+12 -4.79896e+12 -5.10244e+12 -6.38121e+12 -5.42788e+12 -4.12193e+12 -6.4201e+12 -5.92157e+12 -5.80061e+12 -5.55731e+12 -5.20867e+12 -5.1326e+12 -4.89673e+12 -4.9095e+12 -4.68302e+12 -2.75172e+12 -2.63089e+12 -2.43615e+12 -2.58971e+12 -4.59625e+12 -4.81945e+12 -4.77261e+12 -4.93063e+12 -4.86357e+12 -4.9882e+12 -5.01646e+12 -5.11009e+12 -5.236e+12 -5.23063e+12 -5.45594e+12 -4.40199e+12 -4.47375e+12 -4.52451e+12 -4.19704e+12 -4.32185e+12 -6.01209e+12 -4.88189e+12 -4.71195e+12 -4.30286e+12 -4.34726e+12 -4.36684e+12 -4.36113e+12 -4.28992e+12 -4.14193e+12 -3.88602e+12 -4.41159e+12 -4.63642e+12 -4.56594e+12 -4.24476e+12 -4.04831e+12 -3.91395e+12 -3.77206e+12 -3.72727e+12 -3.79768e+12 -2.77413e+12 -4.67624e+12 -2.89814e+12 -3.20835e+12 -2.89129e+12 -2.42637e+12 -2.61001e+12 -3.57718e+12 -3.58824e+12 -3.61329e+12 -3.73383e+12 -3.81318e+12 -4.07093e+12 -4.11479e+12 -4.1549e+12 -4.19397e+12 -4.23145e+12 -4.26191e+12 -4.28435e+12 -4.30452e+12 -4.33049e+12 -4.36536e+12 -4.43167e+12 -4.66918e+12 -4.51845e+12 -5.03963e+12 -4.81325e+12 -5.14675e+12 -5.51987e+12 -5.46188e+12 -5.32044e+12 -4.97186e+12 -4.9137e+12 -4.64036e+12 -4.65345e+12 -4.34805e+12 -4.38801e+12 -2.47441e+12 -2.27444e+12 -4.33898e+12 -4.31671e+12 -4.56522e+12 -4.69893e+12 -4.65077e+12 -4.82628e+12 -4.83564e+12 -4.9055e+12 -5.25956e+12 -5.14759e+12 -3.69174e+12 -3.93667e+12 -4.51124e+12 -5.4938e+12 -2.93221e+12 -5.00753e+12 -4.99467e+12 -4.49249e+12 -4.41323e+12 -4.20238e+12 -3.95529e+12 -3.74454e+12 -3.1735e+12 -4.77512e+12 -4.70957e+12 -4.47686e+12 -3.87533e+12 -3.74097e+12 -3.64812e+12 -3.58996e+12 -3.25026e+12 -3.45883e+12 -2.62598e+12 -1.70839e+12 -3.45317e+12 -1.78304e+12 -3.76487e+12 -2.04622e+12 -3.07457e+12 -2.95607e+12 -3.16667e+12 -3.43873e+12 -3.49269e+12 -3.86491e+12 -3.91471e+12 -3.95819e+12 -3.99685e+12 -4.02944e+12 -4.05506e+12 -4.07116e+12 -4.07842e+12 -4.07782e+12 -4.07268e+12 -4.06551e+12 -4.06202e+12 -4.10538e+12 -4.16823e+12 -4.7638e+12 -4.77959e+12 -4.6105e+12 -5.1621e+12 -5.13382e+12 -5.22716e+12 -5.15643e+12 -5.05935e+12 -4.79046e+12 -4.70515e+12 -4.65492e+12 -4.32488e+12 -4.01757e+12 -4.07702e+12 -2.29773e+12 -2.10679e+12 -2.10794e+12 -4.05467e+12 -4.04814e+12 -4.53416e+12 -4.43069e+12 -4.64749e+12 -4.71737e+12 -5.04187e+12 -5.13509e+12 -4.12208e+12 -5.01631e+12 -3.578e+12 -4.16685e+12 -4.13047e+12 -4.07267e+12 -2.90923e+12 -4.7416e+12 -4.52695e+12 -4.23601e+12 -4.02679e+12 -3.50294e+12 -3.35142e+12 -3.42552e+12 -3.18749e+12 -3.47533e+12 -2.43277e+12 -3.56105e+12 -2.68285e+12 -3.30534e+12 -3.14849e+12 -3.23394e+12 -3.12684e+12 -3.54743e+12 -3.6318e+12 -3.70086e+12 -3.75553e+12 -3.8041e+12 -3.84491e+12 -3.87754e+12 -3.8988e+12 -3.90654e+12 -3.90173e+12 -3.88914e+12 -3.86528e+12 -3.8261e+12 -3.76463e+12 -3.65401e+12 -3.16753e+12 -4.36271e+12 -4.41474e+12 -4.28927e+12 -5.15409e+12 -5.07e+12 -4.9887e+12 -4.88707e+12 -4.48506e+12 -4.39166e+12 -4.34162e+12 -3.9542e+12 -3.95513e+12 -3.68922e+12 -3.7954e+12 -3.56719e+12 -1.90877e+12 -1.93139e+12 -3.37219e+12 -3.73956e+12 -3.75728e+12 -4.03629e+12 -4.29956e+12 -4.2739e+12 -4.3984e+12 -4.43736e+12 -4.88641e+12 -5.19056e+12 -5.54484e+12 -4.72851e+12 -4.55226e+12 -2.89548e+12 -4.10952e+12 -3.83031e+12 -3.40251e+12 -4.2399e+12 -4.40202e+12 -4.24335e+12 -4.15337e+12 -4.02024e+12 -3.94621e+12 -3.87001e+12 -3.77581e+12 -3.62425e+12 -3.37913e+12 -4.41379e+12 -4.14918e+12 -3.94851e+12 -3.80706e+12 -3.68623e+12 -3.58599e+12 -3.2219e+12 -3.05605e+12 -2.95471e+12 -3.16039e+12 -2.92191e+12 -3.22253e+12 -3.35179e+12 -3.4132e+12 -3.47162e+12 -3.53891e+12 -3.59951e+12 -3.65169e+12 -3.69709e+12 -3.7338e+12 -3.75815e+12 -3.76581e+12 -3.03497e+12 -4.86948e+12 -4.48965e+12 -4.14795e+12 -3.54403e+12 -5.52692e+12 -5.30444e+12 -4.80354e+12 -4.69591e+12 -4.59235e+12 -4.12723e+12 -4.00982e+12 -3.46453e+12 -3.56439e+12 -3.40063e+12 -3.35678e+12 -3.23212e+12 -1.74935e+12 -1.51582e+12 -1.7339e+12 -2.92365e+12 -3.4241e+12 -3.4809e+12 -3.77279e+12 -3.79e+12 -4.02684e+12 -4.05389e+12 -4.03654e+12 -4.58966e+12 -4.86322e+12 -5.24933e+12 -5.3453e+12 -3.81652e+12 -4.70741e+12 -4.87573e+12 -2.79621e+12 -3.57896e+12 -4.05472e+12 -4.01494e+12 -4.13582e+12 -4.15253e+12 -4.02222e+12 -3.91801e+12 -3.80044e+12 -3.70266e+12 -3.59845e+12 -3.49671e+12 -3.35744e+12 -3.20243e+12 -2.89381e+12 -3.83581e+12 -3.79869e+12 -3.71131e+12 -3.61496e+12 -3.5211e+12 -3.43384e+12 -3.33355e+12 -3.30772e+12 -3.19574e+12 -3.21196e+12 -3.08861e+12 -3.1352e+12 -3.13611e+12 -3.19981e+12 -3.27781e+12 -3.33538e+12 -3.39102e+12 -3.44896e+12 -3.50334e+12 -3.55218e+12 -3.59434e+12 -3.75603e+12 -3.73128e+12 -3.7024e+12 -3.65732e+12 -3.58464e+12 -3.4701e+12 -4.69167e+12 -4.63144e+12 -4.31647e+12 -3.8712e+12 -4.85792e+12 -5.11803e+12 -4.96803e+12 -4.46232e+12 -4.36527e+12 -4.25142e+12 -3.69755e+12 -3.5122e+12 -2.96915e+12 -3.17523e+12 -3.16385e+12 -3.17162e+12 -3.0502e+12 -1.59657e+12 -1.44307e+12 -1.44004e+12 -2.33171e+12 -3.03366e+12 -3.13968e+12 -3.54106e+12 -3.6285e+12 -3.98427e+12 -3.35529e+12 -4.14208e+12 -4.35593e+12 -4.6203e+12 -4.74369e+12 -4.48255e+12 -4.28288e+12 -4.56981e+12 -4.33072e+12 -3.11986e+12 -3.99355e+12 -3.99042e+12 -3.93231e+12 -3.91258e+12 -3.87361e+12 -3.77082e+12 -3.66817e+12 -3.55649e+12 -3.44562e+12 -3.32383e+12 -3.27091e+12 -3.22554e+12 -3.21959e+12 -3.22388e+12 -3.60609e+12 -3.60769e+12 -3.54096e+12 -3.45595e+12 -3.36943e+12 -3.28324e+12 -3.2248e+12 -3.14826e+12 -3.11465e+12 -3.03405e+12 -3.0084e+12 -2.94087e+12 -2.99854e+12 -2.96872e+12 -3.04834e+12 -3.02902e+12 -3.06451e+12 -3.0937e+12 -3.14485e+12 -3.20272e+12 -3.25513e+12 -3.30696e+12 -3.35935e+12 -3.62603e+12 -3.64194e+12 -3.63811e+12 -3.61218e+12 -3.56195e+12 -3.51842e+12 -3.4491e+12 -3.32997e+12 -3.00037e+12 -4.27878e+12 -4.35422e+12 -4.26978e+12 -4.10401e+12 -4.34785e+12 -4.52323e+12 -4.62175e+12 -4.56421e+12 -4.10449e+12 -3.99577e+12 -3.85985e+12 -3.14043e+12 -2.72589e+12 -2.30259e+12 -2.68909e+12 -3.14437e+12 -3.01684e+12 -3.01182e+12 -2.82241e+12 -1.28992e+12 -1.87925e+12 -1.43123e+12 -1.90025e+12 -2.56307e+12 -2.74941e+12 -3.23243e+12 -3.34188e+12 -3.83388e+12 -3.8975e+12 -3.53013e+12 -3.7513e+12 -4.02493e+12 -4.17799e+12 -4.19136e+12 -4.24294e+12 -4.10975e+12 -4.0777e+12 -3.81629e+12 -3.68352e+12 -3.81081e+12 -3.81649e+12 -3.74311e+12 -3.68134e+12 -3.61603e+12 -3.52058e+12 -3.41737e+12 -3.30349e+12 -3.18081e+12 -3.03252e+12 -3.1172e+12 -3.2438e+12 -3.31805e+12 -3.35221e+12 -3.48268e+12 -3.45842e+12 -3.38759e+12 -3.30386e+12 -3.22096e+12 -3.15135e+12 -3.0828e+12 -3.0328e+12 -2.97548e+12 -2.9396e+12 -2.90408e+12 -2.87876e+12 -2.90899e+12 -2.90757e+12 -2.94486e+12 -2.9587e+12 -2.99251e+12 -3.0285e+12 -3.07363e+12 -3.12262e+12 -3.40978e+12 -3.45634e+12 -3.49618e+12 -3.52448e+12 -3.53616e+12 -3.52603e+12 -3.48291e+12 -3.38563e+12 -3.33085e+12 -3.22794e+12 -2.97182e+12 -3.74941e+12 -3.91112e+12 -3.9499e+12 -3.95404e+12 -4.08863e+12 -4.12417e+12 -4.17063e+12 -4.21505e+12 -4.17944e+12 -3.73421e+12 -3.5993e+12 -3.41688e+12 -2.24193e+12 -2.02495e+12 -3.86086e+12 -3.48546e+12 -2.85462e+12 -2.80103e+12 -2.79339e+12 -2.53639e+12 -2.56213e+12 -1.13681e+12 -1.85331e+12 -3.15901e+12 -2.01307e+12 -2.06971e+12 -2.3107e+12 -2.51974e+12 -2.87607e+12 -2.98711e+12 -3.44498e+12 -3.78652e+12 -4.11797e+12 -2.39888e+12 -2.96076e+12 -3.4186e+12 -3.6678e+12 -3.92264e+12 -3.79548e+12 -3.70845e+12 -3.50495e+12 -3.63567e+12 -3.66031e+12 -3.6138e+12 -3.52205e+12 -3.44657e+12 -3.22597e+12 -3.35393e+12 -3.36232e+12 -3.34431e+12 -3.35944e+12 -3.2312e+12 -3.14994e+12 -3.07616e+12 -3.00866e+12 -2.95313e+12 -2.90217e+12 -2.8631e+12 -2.83094e+12 -2.80839e+12 -2.80346e+12 -2.81768e+12 -2.82906e+12 -2.85626e+12 -2.8807e+12 -3.17095e+12 -3.21963e+12 -3.26899e+12 -3.31781e+12 -3.36393e+12 -3.4039e+12 -3.43397e+12 -3.45021e+12 -3.44216e+12 -3.3802e+12 -3.17091e+12 -3.11843e+12 -2.98922e+12 -3.19005e+12 -3.39851e+12 -3.53797e+12 -3.63054e+12 -3.75887e+12 -3.81333e+12 -3.82551e+12 -3.84152e+12 -3.84913e+12 -3.8146e+12 -3.35901e+12 -3.1781e+12 -2.90558e+12 -3.58812e+12 -4.06717e+12 -3.34891e+12 -3.14202e+12 -2.58456e+12 -2.54388e+12 -2.25383e+12 -2.28256e+12 -1.99026e+12 -978866000000.0 -1.1095e+12 -1.48779e+12 -2.59841e+12 -1.79751e+12 -2.06297e+12 -2.05239e+12 -2.64841e+12 -3.07527e+12 -2.93789e+12 -3.60462e+12 -3.91356e+12 -1.56381e+12 -2.78062e+12 -3.19584e+12 -3.79448e+12 -3.9032e+12 -3.61559e+12 -3.46756e+12 -3.47262e+12 -3.44564e+12 -3.37301e+12 -3.29157e+12 -3.36959e+12 -3.2742e+12 -3.16558e+12 -3.03947e+12 -2.8871e+12 -2.59209e+12 -3.40886e+12 -3.33519e+12 -3.26694e+12 -3.30816e+12 -2.91408e+12 -2.95083e+12 -2.99246e+12 -3.03692e+12 -3.08236e+12 -3.12907e+12 -3.17743e+12 -3.2267e+12 -3.27481e+12 -3.31983e+12 -3.36114e+12 -3.39534e+12 -3.40444e+12 -3.33127e+12 -2.79342e+12 -2.87165e+12 -2.83974e+12 -3.51561e+12 -3.52692e+12 -3.52547e+12 -3.51321e+12 -3.46617e+12 -2.92698e+12 -2.9079e+12 -3.13843e+12 -3.48039e+12 -2.898e+12 -2.61237e+12 -2.2974e+12 -2.25695e+12 -1.9566e+12 -1.67966e+12 -813356000000.0 -625231000000.0 -745092000000.0 -1.86276e+12 -2.60969e+12 -1.33899e+12 -1.81726e+12 -1.81373e+12 -2.20553e+12 -2.34532e+12 -2.76009e+12 -2.81139e+12 -2.27706e+12 -2.38769e+12 -2.49149e+12 -2.8899e+12 -3.40385e+12 -3.54496e+12 -3.62229e+12 -3.60795e+12 -3.51801e+12 -3.21688e+12 -3.13317e+12 -3.03302e+12 -2.916e+12 -2.77557e+12 -2.58531e+12 -2.2329e+12 -3.39363e+12 -3.21806e+12 -3.14698e+12 -3.06838e+12 -2.99376e+12 -2.92625e+12 -2.86879e+12 -2.81958e+12 -2.77986e+12 -2.74811e+12 -2.72536e+12 -2.71439e+12 -2.71519e+12 -2.72729e+12 -2.74372e+12 -2.76875e+12 -2.79627e+12 -2.82893e+12 -2.86479e+12 -2.90402e+12 -2.94572e+12 -2.98921e+12 -3.03501e+12 -3.08384e+12 -3.13534e+12 -3.18899e+12 -3.24684e+12 -3.31358e+12 -3.39236e+12 -3.48361e+12 -2.89224e+12 -3.08968e+12 -3.24089e+12 -3.38545e+12 -3.47651e+12 -3.23801e+12 -3.22106e+12 -3.19592e+12 -3.14526e+12 -3.05719e+12 -2.45751e+12 -2.63282e+12 -2.69552e+12 -2.89593e+12 -2.31192e+12 -2.3465e+12 -1.99052e+12 -1.94434e+12 -1.65401e+12 -1.35043e+12 -457630000000.0 -415053000000.0 -1.18725e+12 -1.11343e+12 -1.94075e+12 -1.98474e+12 -1.46757e+12 -1.8804e+12 -2.01863e+12 -2.46825e+12 -2.58908e+12 -2.64482e+12 -2.10195e+12 -3.28211e+12 -3.09344e+12 -3.23275e+12 -3.32426e+12 -3.36339e+12 -3.34486e+12 -3.47931e+12 -3.39979e+12 -3.32161e+12 -3.28148e+12 -3.2136e+12 -3.1444e+12 -3.07151e+12 -2.99305e+12 -2.90382e+12 -2.8003e+12 -2.67936e+12 -2.53111e+12 -2.34875e+12 -2.02367e+12 -3.42534e+12 -3.36471e+12 -3.2356e+12 -3.13235e+12 -3.05178e+12 -2.97369e+12 -2.89991e+12 -2.83346e+12 -2.77637e+12 -2.72843e+12 -2.68929e+12 -2.65797e+12 -2.63489e+12 -2.62113e+12 -2.61685e+12 -2.62181e+12 -2.63496e+12 -2.65361e+12 -2.67816e+12 -2.70611e+12 -2.73768e+12 -2.77214e+12 -2.8094e+12 -2.84905e+12 -2.8911e+12 -2.93662e+12 -2.98661e+12 -3.57364e+12 -2.48546e+12 -2.69868e+12 -2.27543e+12 -2.57945e+12 -2.78476e+12 -2.99126e+12 -3.12662e+12 -3.20006e+12 -3.23525e+12 -2.9583e+12 -2.92886e+12 -2.88522e+12 -2.81564e+12 -2.70921e+12 -1.58217e+12 -1.71055e+12 -2.37569e+12 -2.52523e+12 -2.15299e+12 -2.07365e+12 -1.63398e+12 -1.60211e+12 -1.35229e+12 -1.35906e+12 -907454000000.0 -285313000000.0 -134826000000.0 -215935000000.0 -651652000000.0 -509947000000.0 -1.25184e+12 -966311000000.0 -1.13806e+12 -1.54236e+12 -1.64942e+12 -2.18723e+12 -2.41038e+12 -2.76899e+12 -2.87477e+12 -3.08222e+12 -2.7635e+12 -2.86402e+12 -2.97636e+12 -3.06245e+12 -3.11324e+12 -3.13609e+12 -3.31316e+12 -3.26758e+12 -3.20181e+12 -3.12912e+12 -3.06311e+12 -2.9956e+12 -2.93088e+12 -2.85864e+12 -2.77781e+12 -2.68694e+12 -3.3377e+12 -3.22804e+12 -3.07036e+12 -2.95166e+12 -2.86537e+12 -2.79166e+12 -2.72763e+12 -2.67313e+12 -2.62767e+12 -2.59048e+12 -2.56057e+12 -2.53794e+12 -2.52305e+12 -2.51604e+12 -2.51685e+12 -2.52501e+12 -2.53959e+12 -2.55922e+12 -2.58335e+12 -2.61067e+12 -2.64088e+12 -2.6737e+12 -3.04151e+12 -3.10386e+12 -3.18098e+12 -3.28512e+12 -3.43821e+12 -3.70009e+12 -4.09774e+12 -2.55007e+12 -2.28247e+12 -2.15454e+12 -2.1526e+12 -2.46895e+12 -2.76314e+12 -2.89091e+12 -2.95105e+12 -2.9702e+12 -2.64045e+12 -2.57452e+12 -2.47553e+12 -2.3088e+12 -769487000000.0 -2.30092e+12 -2.00868e+12 -2.18245e+12 -1.89237e+12 -1.74664e+12 -1.46458e+12 -1.39878e+12 -1.02518e+12 -1.04621e+12 -502835000000.0 -598510000000.0 -85982300000.0 -169568000000.0 -463735000000.0 -1.35414e+12 -652978000000.0 -1.25127e+12 -1.80271e+12 -2.00002e+12 -3.52731e+12 -3.55525e+12 -2.96866e+12 -2.86764e+12 -2.72862e+12 -2.77071e+12 -2.83738e+12 -2.88688e+12 -2.9238e+12 -3.13215e+12 -3.10033e+12 -3.05406e+12 -2.98938e+12 -2.91833e+12 -2.85201e+12 -2.78879e+12 -2.58462e+12 -2.4666e+12 -2.3299e+12 -2.17496e+12 -1.86407e+12 -3.14349e+12 -3.01089e+12 -2.84804e+12 -2.7437e+12 -2.66704e+12 -2.60616e+12 -2.55652e+12 -2.51569e+12 -2.48231e+12 -2.45532e+12 -2.43442e+12 -2.41983e+12 -2.41169e+12 -2.41007e+12 -2.41475e+12 -2.42525e+12 -2.70906e+12 -2.74675e+12 -2.78745e+12 -2.8326e+12 -2.883e+12 -2.94028e+12 -3.00992e+12 -3.10208e+12 -3.23459e+12 -3.45278e+12 -3.86028e+12 -4.37626e+12 -2.67189e+12 -2.97398e+12 -3.0613e+12 -2.81652e+12 -2.68068e+12 -2.7012e+12 -2.72457e+12 -2.73468e+12 -2.72303e+12 -2.69026e+12 -2.30112e+12 -2.25315e+12 -2.28264e+12 -1.7897e+12 -1.6947e+12 -1.56822e+12 -1.64176e+12 -2.28611e+12 -2.13002e+12 -1.72528e+12 -1.55322e+12 -998709000000.0 -987020000000.0 -723776000000.0 -163766000000.0 -159777000000.0 -166484000000.0 -548918000000.0 -793405000000.0 -829877000000.0 -920884000000.0 -1.38325e+12 -1.55599e+12 -2.25681e+12 -2.60316e+12 -2.92166e+12 -2.52971e+12 -2.73206e+12 -2.64956e+12 -2.60208e+12 -2.63035e+12 -2.6734e+12 -2.71788e+12 -2.93652e+12 -2.92403e+12 -2.89304e+12 -2.84543e+12 -2.78236e+12 -2.71331e+12 -2.64579e+12 -2.723e+12 -2.65072e+12 -2.57125e+12 -2.48585e+12 -2.39208e+12 -2.28802e+12 -2.17245e+12 -2.0339e+12 -1.71852e+12 -2.86259e+12 -2.71646e+12 -2.60389e+12 -2.44088e+12 -2.46077e+12 -2.48419e+12 -2.51033e+12 -2.53894e+12 -2.56994e+12 -2.60314e+12 -2.63866e+12 -2.67778e+12 -2.7217e+12 -2.77082e+12 -2.8266e+12 -2.89301e+12 -2.97745e+12 -3.09099e+12 -3.24082e+12 -3.33891e+12 -2.42083e+12 -2.74745e+12 -2.84456e+12 -2.80335e+12 -2.65799e+12 -2.57786e+12 -2.55736e+12 -2.5398e+12 -2.51488e+12 -2.47923e+12 -2.42966e+12 -2.36776e+12 -2.04855e+12 -2.90211e+12 -2.37289e+12 -2.76542e+12 -2.00001e+12 -1.2831e+12 -1.09395e+12 -506953000000.0 -616290000000.0 -159920000000.0 -447784000000.0 -478600000000.0 -1.08164e+12 -1.75931e+12 -1.99584e+12 -2.10067e+12 -2.65852e+12 -2.36422e+12 -2.41682e+12 -2.41756e+12 -2.42847e+12 -2.46498e+12 -2.74918e+12 -2.75201e+12 -2.73446e+12 -2.70128e+12 -2.64941e+12 -2.58292e+12 -2.5083e+12 -2.58228e+12 -2.51864e+12 -2.4517e+12 -2.38089e+12 -2.30627e+12 -2.22772e+12 -2.14436e+12 -2.0496e+12 -1.91806e+12 -1.53184e+12 -2.52332e+12 -2.46638e+12 -2.42418e+12 -2.39081e+12 -2.36362e+12 -2.34148e+12 -2.32397e+12 -2.31119e+12 -2.30336e+12 -2.30068e+12 -2.3032e+12 -2.31068e+12 -2.32274e+12 -2.3389e+12 -2.35847e+12 -2.38082e+12 -2.40544e+12 -2.43222e+12 -2.46106e+12 -2.49175e+12 -2.52501e+12 -2.56226e+12 -2.60363e+12 -2.64871e+12 -2.69912e+12 -2.75956e+12 -2.83581e+12 -2.92453e+12 -2.9728e+12 -2.71645e+12 -2.70228e+12 -2.47267e+12 -2.42297e+12 -2.38045e+12 -2.33592e+12 -2.28897e+12 -2.23622e+12 -2.17074e+12 -2.09458e+12 -2.03797e+12 -1.93077e+12 -2.48211e+12 -1.85802e+12 -1.03948e+12 -2.05354e+12 -1.52013e+12 -724869000000.0 -473832000000.0 -129378000000.0 -126948000000.0 -118775000000.0 -520459000000.0 -793155000000.0 -1.28198e+12 -1.47715e+12 -1.61684e+12 -2.12303e+12 -2.09486e+12 -2.51081e+12 -2.55523e+12 -2.58068e+12 -2.58098e+12 -2.4497e+12 -2.37141e+12 -2.44055e+12 -2.38108e+12 -2.32497e+12 -2.26949e+12 -2.21111e+12 -2.15313e+12 -2.09665e+12 -2.03869e+12 -1.96878e+12 -1.85158e+12 -2.44619e+12 -2.42234e+12 -2.35307e+12 -2.30462e+12 -2.27375e+12 -2.25139e+12 -2.23339e+12 -2.2184e+12 -2.20618e+12 -2.19686e+12 -2.19077e+12 -2.18835e+12 -2.1899e+12 -2.19542e+12 -2.20477e+12 -2.21769e+12 -2.2338e+12 -2.25258e+12 -2.27351e+12 -2.29633e+12 -2.32105e+12 -2.34739e+12 -2.3753e+12 -2.40605e+12 -2.44074e+12 -2.47876e+12 -2.5191e+12 -2.56266e+12 -2.61281e+12 -2.5981e+12 -2.60702e+12 -2.55046e+12 -2.17734e+12 -2.12112e+12 -2.06021e+12 -1.99326e+12 -1.91845e+12 -1.8486e+12 -1.82946e+12 -1.33052e+12 -2.12248e+12 -786249000000.0 -2.70066e+12 -1.02648e+12 -922971000000.0 -174727000000.0 -257248000000.0 -1.01429e+12 -1.19575e+12 -1.31554e+12 -2.06015e+12 -2.15658e+12 -2.20648e+12 -2.24914e+12 -2.29916e+12 -2.35578e+12 -2.55847e+12 -2.51446e+12 -1.1819e+12 -2.18856e+12 -2.14789e+12 -2.11467e+12 -2.1022e+12 -2.09589e+12 -2.09084e+12 -2.08572e+12 -2.08081e+12 -2.07668e+12 -2.07384e+12 -2.07296e+12 -2.07465e+12 -2.07922e+12 -2.08674e+12 -2.09713e+12 -2.11025e+12 -2.12582e+12 -2.14339e+12 -2.16257e+12 -2.18336e+12 -2.66534e+12 -2.69477e+12 -2.62032e+12 -2.60853e+12 -2.59221e+12 -2.40168e+12 -2.37273e+12 -2.33039e+12 -2.28802e+12 -2.23518e+12 -1.82504e+12 -1.74033e+12 -1.64239e+12 -1.53552e+12 -1.42453e+12 -1.99338e+12 -1.51252e+12 -2.36095e+12 -1.80781e+12 -310278000000.0 -159137000000.0 -556487000000.0 -691408000000.0 -1.44868e+12 -1.54206e+12 -1.64653e+12 -1.84573e+12 -1.94972e+12 -2.02543e+12 -2.0844e+12 -2.40463e+12 -2.43225e+12 -2.42985e+12 -2.38146e+12 -2.31625e+12 -2.22566e+12 -2.29521e+12 -2.23951e+12 -2.18821e+12 -2.14568e+12 -2.10568e+12 -2.06573e+12 -2.03227e+12 -2.00789e+12 -1.99717e+12 -2.01525e+12 -2.13927e+12 -1.01721e+12 -1.84699e+12 -1.87052e+12 -1.90055e+12 -1.92145e+12 -1.93504e+12 -1.94326e+12 -1.94797e+12 -2.20571e+12 -2.22918e+12 -2.25421e+12 -2.28228e+12 -2.31361e+12 -2.34708e+12 -2.38111e+12 -2.41599e+12 -2.4516e+12 -2.47073e+12 -2.44444e+12 -2.43713e+12 -2.43428e+12 -2.42002e+12 -2.18875e+12 -2.15974e+12 -2.12981e+12 -2.08529e+12 -2.02697e+12 -1.96755e+12 -1.90084e+12 -1.16579e+12 -918328000000.0 -1.35307e+12 -644462000000.0 -1.51247e+12 -712551000000.0 -134738000000.0 -312638000000.0 -730948000000.0 -885216000000.0 -1.07844e+12 -1.56345e+12 -1.68791e+12 -1.78899e+12 -1.86845e+12 -2.14914e+12 -2.21646e+12 -2.28073e+12 -2.31838e+12 -2.29403e+12 -2.20271e+12 -2.09246e+12 -2.13087e+12 -2.08667e+12 -2.04681e+12 -2.00916e+12 -1.98364e+12 -1.96186e+12 -1.94571e+12 -1.94083e+12 -1.95231e+12 -1.99239e+12 -2.09393e+12 -2.1911e+12 -1.03545e+12 -1.53581e+12 -1.95074e+12 -1.95263e+12 -1.95456e+12 -1.95747e+12 -1.96202e+12 -1.96855e+12 -1.97716e+12 -1.98788e+12 -2.00064e+12 -2.01521e+12 -2.03118e+12 -2.04837e+12 -2.06694e+12 -2.08661e+12 -2.10694e+12 -2.12886e+12 -2.15358e+12 -2.18071e+12 -2.20868e+12 -2.23444e+12 -2.25696e+12 -2.27221e+12 -2.26593e+12 -2.25889e+12 -2.25041e+12 -2.23918e+12 -2.21585e+12 -1.97953e+12 -1.95744e+12 -1.92427e+12 -1.8754e+12 -1.81947e+12 -1.75475e+12 -1.67741e+12 -1.58749e+12 -1.47791e+12 -1.34127e+12 -1.83577e+12 -616069000000.0 -1.90749e+12 -588231000000.0 -372668000000.0 -116203000000.0 -369221000000.0 -1.22025e+12 -559461000000.0 -1.32851e+12 -1.4498e+12 -1.55028e+12 -1.64158e+12 -1.93563e+12 -2.011e+12 -2.09886e+12 -2.19369e+12 -2.24803e+12 -2.19835e+12 -2.02251e+12 -1.94783e+12 -1.90785e+12 -1.88565e+12 -1.86756e+12 -1.8505e+12 -1.84255e+12 -1.84078e+12 -1.84812e+12 -1.86952e+12 -1.91285e+12 -1.99225e+12 -2.09745e+12 -2.18531e+12 -1.65982e+12 -1.72639e+12 -1.76634e+12 -1.79173e+12 -1.80835e+12 -1.81958e+12 -1.82749e+12 -1.8334e+12 -1.83855e+12 -1.84395e+12 -1.85024e+12 -1.85778e+12 -1.86671e+12 -1.87714e+12 -1.88908e+12 -1.90226e+12 -1.91632e+12 -1.93134e+12 -1.94747e+12 -1.96412e+12 -1.98112e+12 -1.99962e+12 -2.02011e+12 -2.04181e+12 -2.06264e+12 -2.07829e+12 -2.0869e+12 -2.08627e+12 -2.08101e+12 -2.07146e+12 -2.05493e+12 -2.03166e+12 -2.00652e+12 -1.77636e+12 -1.75389e+12 -1.7192e+12 -1.67303e+12 -1.6152e+12 -1.54509e+12 -1.46022e+12 -1.35215e+12 -1.21086e+12 -1.01891e+12 -717498000000.0 -1.65656e+12 -1.2884e+12 -1.48168e+12 -1.26978e+12 -60158400000.0 -111855000000.0 -211947000000.0 -760809000000.0 -976542000000.0 -952144000000.0 -1.18948e+12 -1.72262e+12 -1.78795e+12 -1.87526e+12 -2.0058e+12 -2.18903e+12 -2.3052e+12 -2.18691e+12 -1.76139e+12 -1.72216e+12 -1.69995e+12 -1.70336e+12 -1.70649e+12 -1.71097e+12 -1.72045e+12 -1.73692e+12 -1.76389e+12 -1.80633e+12 -1.87145e+12 -1.95912e+12 -1.11379e+12 -1.41374e+12 -1.52311e+12 -1.59007e+12 -1.63389e+12 -1.66362e+12 -1.68433e+12 -1.69916e+12 -1.71e+12 -1.71827e+12 -1.72529e+12 -1.73202e+12 -1.7391e+12 -1.74683e+12 -1.75545e+12 -1.76514e+12 -1.77589e+12 -1.78735e+12 -1.79927e+12 -1.81196e+12 -1.82536e+12 -1.83865e+12 -1.85199e+12 -1.86637e+12 -1.88158e+12 -1.89655e+12 -1.90854e+12 -1.91353e+12 -1.91111e+12 -1.85557e+12 -1.82609e+12 -1.79983e+12 -1.48062e+12 -1.42384e+12 -1.35025e+12 -1.254e+12 -1.12533e+12 -950126000000.0 -657594000000.0 -938869000000.0 -1.278e+12 -158957000000.0 -86506600000.0 -467777000000.0 -1.17385e+12 -879977000000.0 -1.32103e+12 -1.41379e+12 -1.49869e+12 -1.57751e+12 -1.6169e+12 -2.07144e+12 -2.16985e+12 -1.10889e+12 -1.32269e+12 -1.41251e+12 -1.47355e+12 -1.51628e+12 -1.54676e+12 -1.56895e+12 -1.58525e+12 -1.59727e+12 -1.6065e+12 -1.61424e+12 -1.62134e+12 -1.62839e+12 -1.6357e+12 -1.64357e+12 -1.90502e+12 -1.8951e+12 -1.87984e+12 -1.57309e+12 -1.55304e+12 -1.52276e+12 -1.17233e+12 -1.06392e+12 -920355000000.0 -692717000000.0 -1.49245e+12 -1.13665e+12 -1.16674e+12 -151125000000.0 -214662000000.0 -49512900000.0 -47727000000.0 -1.09017e+12 -1.19848e+12 -1.28702e+12 -1.72462e+12 -1.95955e+12 -2.33965e+12 -2.55177e+12 -1.34145e+12 -1.51054e+12 -1.49654e+12 -1.5163e+12 -1.54065e+12 -1.56483e+12 -1.58792e+12 -1.61186e+12 -1.64242e+12 -1.68337e+12 -1.7386e+12 -1.80982e+12 -1.89806e+12 -2.0058e+12 -2.06247e+12 -1.07466e+12 -1.24218e+12 -1.6522e+12 -1.66145e+12 -1.67092e+12 -1.68058e+12 -1.69074e+12 -1.70099e+12 -1.71055e+12 -1.71969e+12 -1.72896e+12 -1.73779e+12 -1.74483e+12 -1.74722e+12 -1.74277e+12 -1.7331e+12 -1.71985e+12 -1.70279e+12 -1.67939e+12 -1.65043e+12 -1.61844e+12 -1.59021e+12 -1.3693e+12 -1.36112e+12 -1.34507e+12 -1.31176e+12 -1.2533e+12 -1.31556e+12 -1.08815e+12 -669729000000.0 -45250700000.0 -69908300000.0 -68291200000.0 -656853000000.0 -1.0166e+12 -869419000000.0 -1.00864e+12 -1.35145e+12 -1.42515e+12 -1.34999e+12 -1.51213e+12 -1.92221e+12 -2.72983e+12 -1.16291e+12 -1.08526e+12 -1.20467e+12 -1.29346e+12 -1.35775e+12 -1.40442e+12 -1.44239e+12 -1.47551e+12 -1.51016e+12 -1.55042e+12 -1.59903e+12 -1.65797e+12 -1.72801e+12 -1.80859e+12 -1.89239e+12 -1.91722e+12 -1.31598e+12 -1.36984e+12 -1.40935e+12 -1.43864e+12 -1.46041e+12 -1.47643e+12 -1.48827e+12 -1.49738e+12 -1.50489e+12 -1.51161e+12 -1.51806e+12 -1.52458e+12 -1.53142e+12 -1.53872e+12 -1.54622e+12 -1.55355e+12 -1.56074e+12 -1.56795e+12 -1.57457e+12 -1.58e+12 -1.58438e+12 -1.58764e+12 -1.58923e+12 -1.58769e+12 -1.58084e+12 -1.56795e+12 -1.54994e+12 -1.52777e+12 -1.5018e+12 -1.47191e+12 -1.43849e+12 -1.40406e+12 -1.37273e+12 -1.17585e+12 -1.20103e+12 -1.207e+12 -1.16862e+12 -1.10147e+12 -1.01143e+12 -894421000000.0 -714869000000.0 -1.15947e+12 -1.10202e+12 -748469000000.0 -729360000000.0 -736638000000.0 -48980400000.0 -337543000000.0 -655192000000.0 -783548000000.0 -823278000000.0 -1.09091e+12 -1.17207e+12 -1.19793e+12 -1.32167e+12 -1.00097e+12 -928054000000.0 -1.72097e+12 -1.23663e+12 -1.16198e+12 -1.00489e+12 -1.05125e+12 -1.16739e+12 -1.23803e+12 -1.28977e+12 -1.33155e+12 -1.37052e+12 -1.41113e+12 -1.45575e+12 -1.5063e+12 -1.56363e+12 -1.62676e+12 -1.69159e+12 -1.75297e+12 -1.75413e+12 -1.02895e+12 -1.16677e+12 -1.22824e+12 -1.27502e+12 -1.31046e+12 -1.33719e+12 -1.35701e+12 -1.37147e+12 -1.38211e+12 -1.39024e+12 -1.39688e+12 -1.40277e+12 -1.40833e+12 -1.41378e+12 -1.41936e+12 -1.42512e+12 -1.43068e+12 -1.43558e+12 -1.4399e+12 -1.44366e+12 -1.4463e+12 -1.44731e+12 -1.44648e+12 -1.44336e+12 -1.43733e+12 -1.42706e+12 -1.41115e+12 -1.3891e+12 -1.36042e+12 -1.32863e+12 -1.2952e+12 -1.25929e+12 -1.22143e+12 -1.1812e+12 -1.14086e+12 -1.03718e+12 -1.1173e+12 -1.09941e+12 -1.04331e+12 -963868000000.0 -864566000000.0 -710941000000.0 -649539000000.0 -710450000000.0 -165431000000.0 -480268000000.0 -578191000000.0 -538930000000.0 -916377000000.0 -988299000000.0 -1.0765e+12 -983407000000.0 -1.42861e+12 -797016000000.0 -1.29375e+12 -440395000000.0 -1.0744e+12 -1.01903e+12 -973859000000.0 -1.00251e+12 -1.07885e+12 -1.13687e+12 -1.18426e+12 -1.22674e+12 -979231000000.0 -1.09498e+12 -1.14667e+12 -1.18685e+12 -1.21757e+12 -1.24055e+12 -1.25727e+12 -1.26929e+12 -1.27802e+12 -1.28465e+12 -1.2901e+12 -1.29494e+12 -1.29939e+12 -1.3036e+12 -1.30775e+12 -1.31173e+12 -1.31502e+12 -1.31711e+12 -1.31813e+12 -1.3182e+12 -1.31673e+12 -1.04473e+12 -1.00318e+12 -947493000000.0 -862363000000.0 -1.06259e+12 -1.00229e+12 -923315000000.0 -830821000000.0 -695109000000.0 -999885000000.0 -969603000000.0 -818738000000.0 -643859000000.0 -471431000000.0 -83768700000.0 -714120000000.0 -813448000000.0 -920124000000.0 -1.26822e+12 -1.31064e+12 -1.35567e+12 -1.4044e+12 -1.45615e+12 -1.50837e+12 -1.5578e+12 -1.60001e+12 -1.58433e+12 -928618000000.0 -1.02646e+12 -1.06992e+12 -1.10355e+12 -1.12877e+12 -1.313e+12 -1.30658e+12 -1.29698e+12 -1.28342e+12 -1.26468e+12 -1.23953e+12 -1.20656e+12 -1.16483e+12 -1.12165e+12 -1.08174e+12 -508127000000.0 -1.08631e+12 -853255000000.0 -841640000000.0 -766425000000.0 -77277000000.0 -259378000000.0 -495162000000.0 -444642000000.0 -352885000000.0 -1.10084e+12 -792574000000.0 -1.21552e+12 -1.02672e+12 -407180000000.0 -833019000000.0 -825895000000.0 -820719000000.0 -916907000000.0 -984081000000.0 -1.03642e+12 -1.08164e+12 -1.12392e+12 -1.16515e+12 -1.20671e+12 -1.24952e+12 -1.2936e+12 -1.33744e+12 -1.37874e+12 -1.41495e+12 -1.44188e+12 -1.41524e+12 -1.14707e+12 -1.15994e+12 -1.16894e+12 -1.17542e+12 -1.1804e+12 -1.18459e+12 -1.18828e+12 -1.19153e+12 -1.19438e+12 -1.19686e+12 -1.19875e+12 -1.19929e+12 -1.1982e+12 -1.19585e+12 -1.19215e+12 -1.18624e+12 -1.17749e+12 -1.16542e+12 -1.1494e+12 -1.1287e+12 -1.10198e+12 -1.0672e+12 -1.02122e+12 -958526000000.0 -899324000000.0 -869630000000.0 -840732000000.0 -788533000000.0 -698993000000.0 -1.04576e+12 -982137000000.0 -893653000000.0 -797459000000.0 -662417000000.0 -717858000000.0 -703740000000.0 -666672000000.0 -445229000000.0 -492359000000.0 -32791500000.0 -198737000000.0 -276188000000.0 -408777000000.0 -326531000000.0 -563755000000.0 -769691000000.0 -787196000000.0 -1.06197e+12 -536199000000.0 -1.00215e+12 -713169000000.0 -224069000000.0 -903991000000.0 -799390000000.0 -804968000000.0 -848708000000.0 -895291000000.0 -939334000000.0 -980918000000.0 -1.02078e+12 -1.05978e+12 -1.09855e+12 -1.13711e+12 -1.17511e+12 -1.21097e+12 -1.24295e+12 -1.26889e+12 -1.28473e+12 -1.25212e+12 -878350000000.0 -961082000000.0 -996828000000.0 -1.02347e+12 -1.0424e+12 -1.05526e+12 -1.0638e+12 -1.06962e+12 -1.07394e+12 -1.07749e+12 -1.08059e+12 -1.0832e+12 -1.08516e+12 -1.08635e+12 -1.08684e+12 -1.08612e+12 -1.08352e+12 -1.07922e+12 -1.07345e+12 -1.0656e+12 -1.05497e+12 -1.04122e+12 -1.02369e+12 -1.00174e+12 -974929000000.0 -941013000000.0 -895801000000.0 -832546000000.0 -716969000000.0 -669738000000.0 -686366000000.0 -657830000000.0 -595625000000.0 -488607000000.0 -352162000000.0 -960955000000.0 -886229000000.0 -770128000000.0 -628582000000.0 -313378000000.0 -329123000000.0 -388781000000.0 -49218500000.0 -212633000000.0 -687905000000.0 -743554000000.0 -609481000000.0 -812180000000.0 -685830000000.0 -482275000000.0 -520660000000.0 -377111000000.0 -679306000000.0 -692336000000.0 -719954000000.0 -759087000000.0 -800405000000.0 -840542000000.0 -878725000000.0 -915383000000.0 -951007000000.0 -985553000000.0 -1.01897e+12 -1.05096e+12 -1.08009e+12 -1.10513e+12 -1.12404e+12 -1.1329e+12 -1.09842e+12 -829211000000.0 -898622000000.0 -926259000000.0 -945014000000.0 -956739000000.0 -963541000000.0 -967824000000.0 -971001000000.0 -973817000000.0 -976396000000.0 -978513000000.0 -979997000000.0 -980331000000.0 -979487000000.0 -977474000000.0 -973741000000.0 -967886000000.0 -960428000000.0 -950809000000.0 -938527000000.0 -923456000000.0 -904909000000.0 -882326000000.0 -855282000000.0 -824342000000.0 -786545000000.0 -737877000000.0 -674825000000.0 -581566000000.0 -555233000000.0 -544361000000.0 -505373000000.0 -440460000000.0 -360709000000.0 -263221000000.0 -851651000000.0 -794668000000.0 -586326000000.0 -583471000000.0 -567623000000.0 -511868000000.0 -163649000000.0 -120378000000.0 -165508000000.0 -320543000000.0 -308408000000.0 -306354000000.0 -521540000000.0 -557854000000.0 -607441000000.0 -762627000000.0 -579011000000.0 -27663400000.0 -338630000000.0 -333862000000.0 -838783000000.0 -856923000000.0 -866050000000.0 -869506000000.0 -870517000000.0 -871973000000.0 -873823000000.0 -380844000000.0 -330017000000.0 -279378000000.0 -224319000000.0 -421767000000.0 -437898000000.0 -362129000000.0 -267005000000.0 -271866000000.0 -184204000000.0 -142766000000.0 -265523000000.0 -235994000000.0 -239908000000.0 -475884000000.0 -219219000000.0 -215924000000.0 -541487000000.0 -589426000000.0 -626170000000.0 -664608000000.0 -703059000000.0 -739539000000.0 -773870000000.0 -806566000000.0 -837946000000.0 -867726000000.0 -896293000000.0 -923261000000.0 -947521000000.0 -968305000000.0 -983535000000.0 -989495000000.0 -956354000000.0 -782071000000.0 -875943000000.0 -877462000000.0 -878477000000.0 -878589000000.0 -876960000000.0 -873507000000.0 -868643000000.0 -861555000000.0 -852580000000.0 -841648000000.0 -827960000000.0 -811919000000.0 -792735000000.0 -769712000000.0 -742306000000.0 -710236000000.0 -677474000000.0 -640379000000.0 -595802000000.0 -537642000000.0 -479929000000.0 -445064000000.0 -422504000000.0 -740875000000.0 -789293000000.0 -379831000000.0 -440330000000.0 -449447000000.0 -393015000000.0 -318026000000.0 -186185000000.0 -74205500000.0 -198508000000.0 -281701000000.0 -387560000000.0 -429000000000.0 -448684000000.0 -605268000000.0 -192130000000.0 -275761000000.0 -440572000000.0 -492411000000.0 -530882000000.0 -568330000000.0 -603317000000.0 -635322000000.0 -665181000000.0 -693454000000.0 -720251000000.0 -745607000000.0 -770151000000.0 -793400000000.0 -815065000000.0 -834735000000.0 -850147000000.0 -857445000000.0 -827593000000.0 -738118000000.0 -780819000000.0 -786293000000.0 -782836000000.0 -777756000000.0 -775833000000.0 -776582000000.0 -779234000000.0 -780740000000.0 -780905000000.0 -780454000000.0 -778849000000.0 -774701000000.0 -768192000000.0 -760117000000.0 -749765000000.0 -737742000000.0 -723052000000.0 -705930000000.0 -686226000000.0 -662906000000.0 -635806000000.0 -603707000000.0 -564944000000.0 -534242000000.0 -513430000000.0 -469142000000.0 -434122000000.0 -366436000000.0 -347009000000.0 -317470000000.0 -279891000000.0 -247966000000.0 -234847000000.0 -237169000000.0 -502358000000.0 -609280000000.0 -242728000000.0 -72325300000.0 -40411200000.0 -116856000000.0 -107622000000.0 -135402000000.0 -140743000000.0 -253254000000.0 -375930000000.0 -477372000000.0 -573065000000.0 -627287000000.0 -9574390000.0 -117014000000.0 -178504000000.0 -155044000000.0 -205220000000.0 -348344000000.0 -396410000000.0 -435172000000.0 -469695000000.0 -500030000000.0 -526822000000.0 -551780000000.0 -575675000000.0 -598135000000.0 -619625000000.0 -640861000000.0 -662111000000.0 -684127000000.0 -706632000000.0 -727110000000.0 -740509000000.0 -714261000000.0 -698946000000.0 -721783000000.0 -708418000000.0 -689535000000.0 -682120000000.0 -680469000000.0 -683669000000.0 -687408000000.0 -688154000000.0 -686635000000.0 -684193000000.0 -680424000000.0 -673084000000.0 -663291000000.0 -651960000000.0 -638615000000.0 -622944000000.0 -604655000000.0 -584310000000.0 -560911000000.0 -534769000000.0 -504040000000.0 -465753000000.0 -407585000000.0 -420276000000.0 -398536000000.0 -370707000000.0 -307561000000.0 -281479000000.0 -257812000000.0 -220738000000.0 -187722000000.0 -174939000000.0 -211647000000.0 -167164000000.0 -453350000000.0 -550476000000.0 -449448000000.0 -412166000000.0 -320235000000.0 -246492000000.0 -9035750000.0 -46638400000.0 -95736900000.0 -61439800000.0 -107510000000.0 -366907000000.0 -98779400000.0 -47571700000.0 -142294000000.0 -107215000000.0 -125629000000.0 -650846000000.0 -608199000000.0 -590979000000.0 -588555000000.0 -591320000000.0 -595055000000.0 -598115000000.0 -597842000000.0 -207350000000.0 -179806000000.0 -127753000000.0 -77255800000.0 -79734700000.0 -33619000000.0 -9035750000.0 -260682000000.0 -78041400000.0 -148095000000.0 -144529000000.0 -113581000000.0 -124722000000.0 -25681100000.0 -164140000000.0 -210281000000.0 -229730000000.0 -268827000000.0 -254440000000.0 -302082000000.0 -338021000000.0 -367433000000.0 -392208000000.0 -412877000000.0 -432953000000.0 -453341000000.0 -471616000000.0 -489081000000.0 -507944000000.0 -529805000000.0 -556370000000.0 -587157000000.0 -619636000000.0 -645534000000.0 -621262000000.0 -663779000000.0 -594105000000.0 -589472000000.0 -582626000000.0 -571613000000.0 -558544000000.0 -544049000000.0 -527307000000.0 -507922000000.0 -486705000000.0 -463203000000.0 -438096000000.0 -411093000000.0 -380044000000.0 -340935000000.0 -317641000000.0 -311496000000.0 -303128000000.0 -250689000000.0 -217263000000.0 -252066000000.0 -29549200000.0 -75233800000.0 -135180000000.0 -134743000000.0 -183011000000.0 -213983000000.0 -219754000000.0 -190715000000.0 -119587000000.0 -98835500000.0 -283868000000.0 -159887000000.0 -222793000000.0 -168096000000.0 -132280000000.0 -71722500000.0 -161047000000.0 -202256000000.0 -230716000000.0 -254903000000.0 -272614000000.0 -286086000000.0 -304727000000.0 -322117000000.0 -334279000000.0 -347864000000.0 -366093000000.0 -392690000000.0 -430219000000.0 -478128000000.0 -536037000000.0 -585216000000.0 -565082000000.0 -615997000000.0 -519392000000.0 -496611000000.0 -491051000000.0 -501305000000.0 -507082000000.0 -510016000000.0 -511591000000.0 -508935000000.0 -503013000000.0 -495534000000.0 -484661000000.0 -469989000000.0 -453940000000.0 -435986000000.0 -415119000000.0 -392404000000.0 -368247000000.0 -342676000000.0 -317741000000.0 -293123000000.0 -266706000000.0 -251585000000.0 -225402000000.0 -213935000000.0 -196416000000.0 -143508000000.0 -141372000000.0 -135384000000.0 -114166000000.0 -60046700000.0 -22240900000.0 -23176300000.0 -49929200000.0 -137561000000.0 -181380000000.0 -170862000000.0 -133108000000.0 -81449700000.0 -36678200000.0 -47229600000.0 -9035750000.0 -9035750000.0 -9050060000.0 -32757600000.0 -18387200000.0 -34441800000.0 -67297800000.0 -149023000000.0 -25195300000.0 -59464400000.0 -45507900000.0 -45210200000.0 -28504600000.0 -79201500000.0 -160778000000.0 -193430000000.0 -289778000000.0 -231577000000.0 -264796000000.0 -341980000000.0 -393476000000.0 -415485000000.0 -420268000000.0 -421521000000.0 -418752000000.0 -412670000000.0 -403869000000.0 -392067000000.0 -376318000000.0 -357829000000.0 -337715000000.0 -315148000000.0 -290410000000.0 -101795000000.0 -143272000000.0 -170820000000.0 -190587000000.0 -190022000000.0 -140087000000.0 -104826000000.0 -78165900000.0 -52871100000.0 -168177000000.0 -151625000000.0 -117459000000.0 -97649000000.0 -64645900000.0 -57465100000.0 -18197100000.0 -52225000000.0 -74811000000.0 -93803900000.0 -92367600000.0 -88997700000.0 -87282300000.0 -84480600000.0 -80050200000.0 -75209700000.0 -80863800000.0 -93367500000.0 -104513000000.0 -114378000000.0 -122301000000.0 -129031000000.0 -135611000000.0 -143982000000.0 -264779000000.0 -237716000000.0 -212101000000.0 -192141000000.0 -183043000000.0 -173331000000.0 -157576000000.0 -138178000000.0 -112494000000.0 -106000000000.0 -9166660000.0 -9441720000.0 -24348300000.0 -15891300000.0 -28792100000.0 -45516600000.0 -57727000000.0 -66446100000.0 -70626800000.0 -51570400000.0 -115534000000.0 -55732600000.0 -91550700000.0 -93597100000.0 -100775000000.0 -98095800000.0 -128903000000.0 -124817000000.0 -113565000000.0 -102134000000.0 -90410600000.0 -80305200000.0 -75295200000.0 -70478000000.0 -62479000000.0 -54270500000.0 -46359200000.0 -39647100000.0 -35009400000.0 -32159900000.0 -36998600000.0 -47462300000.0 -60197700000.0 -73869000000.0 -62772100000.0 -86113900000.0 -112157000000.0 -109467000000.0 -105287000000.0 -105848000000.0 -108078000000.0 -106616000000.0 -107549000000.0 -108929000000.0 -109285000000.0 -110200000000.0 -111503000000.0 -112785000000.0 -113457000000.0 -113032000000.0 -111075000000.0 -107915000000.0 -104173000000.0 -101275000000.0 -95845000000.0 -86640300000.0 -75710700000.0 -57862500000.0 -44717800000.0 -47548300000.0 -47423800000.0 -47779800000.0 -40256100000.0 -9035760000.0 -9034470000.0 -11826600000.0 -12770600000.0 -50084600000.0 -78743500000.0 -57554000000.0 -37521500000.0 -30487600000.0 -17755300000.0 -21881800000.0 -9035750000.0 -9038250000.0 -9035750000.0 -13900800000.0 -11365500000.0 -10712400000.0 -29155100000.0 -9289500000.0 -16247800000.0 -15585300000.0 -14666600000.0 -21963700000.0 -14164700000.0 -16536800000.0 -20178000000.0 -30516900000.0 -30743900000.0 -33290200000.0 -34050500000.0 -35524800000.0 -36766100000.0 -37873900000.0 -38846500000.0 -39657800000.0 -20826500000.0 -21161200000.0 -18825100000.0 -9035750000.0 -9027470000.0 -9035750000.0 -24408900000.0 -18008400000.0 -15799300000.0 -11842500000.0 -13083600000.0 -9038100000.0 -13682000000.0 -16535200000.0 -19517800000.0 -21325600000.0 -21148800000.0 -9035750000.0 -21318600000.0 -20527400000.0 -19713400000.0 -18839200000.0 -17522800000.0 -16225200000.0 -16219500000.0 -17084500000.0 -17265400000.0 -17185300000.0 -16832600000.0 -16318500000.0 -15810200000.0 -15446500000.0 -15526500000.0 -16381200000.0 -40603200000.0 -41449300000.0 -42232600000.0 -43279000000.0 -43984900000.0 -44120000000.0 -43676800000.0 -42474100000.0 -41361800000.0 -39650800000.0 -36247300000.0 -32194700000.0 -24298900000.0 -21250900000.0 -21263400000.0 -9035750000.0 -21035300000.0 -30367400000.0 
SCALARS Shear_Stress float 1
LOOKUP_TABLE default
25293900000.0 24552800000.0 32456800000.0 4104390000.0 54994200000.0 49109400000.0 50560800000.0 42163000000.0 45470000000.0 17896000000.0 28252900000.0 64151200000.0 53562700000.0 4078770000.0 28184900000.0 23020500000.0 62636400000.0 136401000000.0 2080490000.0 2512110000.0 38585100000.0 34604900000.0 75685700000.0 16484600000.0 34462500000.0 15278600000.0 32179700000.0 65779700000.0 148103000000.0 172073000000.0 458489000.0 30285100000.0 38530000000.0 38749500000.0 7857060000.0 63819100000.0 43968500000.0 27713000000.0 27168100000.0 25487700000.0 24274200000.0 43777900000.0 176585000000.0 212068000000.0 73292400000.0 74757900000.0 69226600000.0 27503800000.0 180807000000.0 4972970000.0 28145700000.0 13834200000.0 6821360000.0 25750800000.0 18849800000.0 37368500000.0 32990800000.0 67488900000.0 147328000000.0 46642600000.0 30600200000.0 186962000000.0 195396000000.0 239267000000.0 223556000000.0 204858000000.0 220585000000.0 74730600000.0 92973800000.0 45480400000.0 78278900000.0 143581000000.0 108649000000.0 152209000000.0 224592000000.0 45972000000.0 31500100000.0 72501600000.0 58966400000.0 93800300000.0 162427000000.0 206054000000.0 209257000000.0 274963000000.0 235256000000.0 218788000000.0 7166580000.0 96247500000.0 259449000000.0 253575000000.0 2491500000.0 110812000000.0 101402000000.0 102913000000.0 156763000000.0 291933000000.0 396503000000.0 314222000000.0 274753000000.0 225592000000.0 54519000000.0 74330400000.0 63492300000.0 86887100000.0 222049000000.0 47171300000.0 160089000000.0 222332000000.0 155744000000.0 169754000000.0 125888000000.0 152432000000.0 151621000000.0 203985000000.0 242877000000.0 323148000000.0 358864000000.0 178112000000.0 327410000000.0 311635000000.0 311060000000.0 284824000000.0 255499000000.0 234907000000.0 221380000000.0 30093000000.0 51366200000.0 109731000000.0 233680000000.0 123560000000.0 77344100000.0 170769000000.0 385201000000.0 260610000000.0 321851000000.0 235476000000.0 172936000000.0 180243000000.0 249764000000.0 210624000000.0 216460000000.0 290291000000.0 254990000000.0 215841000000.0 189301000000.0 285987000000.0 539401000000.0 286377000000.0 547291000000.0 441307000000.0 324819000000.0 219696000000.0 174756000000.0 201822000000.0 221338000000.0 149536000000.0 241762000000.0 263661000000.0 224964000000.0 3378870000.0 35001300000.0 355162000000.0 600220000000.0 548603000000.0 557173000000.0 429567000000.0 297210000000.0 244084000000.0 193577000000.0 168534000000.0 175089000000.0 163936000000.0 192338000000.0 157481000000.0 158438000000.0 135680000000.0 176077000000.0 200131000000.0 243087000000.0 226282000000.0 232145000000.0 195549000000.0 194454000000.0 49513900000.0 45876000000.0 274057000000.0 557044000000.0 236977000000.0 594995000000.0 577862000000.0 527700000000.0 486335000000.0 392825000000.0 335442000000.0 185749000000.0 145689000000.0 139061000000.0 122859000000.0 153814000000.0 204719000000.0 194251000000.0 155151000000.0 284776000000.0 478550000000.0 230931000000.0 272802000000.0 181727000000.0 397131000000.0 545651000000.0 549109000000.0 437834000000.0 238589000000.0 140142000000.0 121304000000.0 107891000000.0 115498000000.0 171612000000.0 187060000000.0 149806000000.0 109211000000.0 127543000000.0 203781000000.0 76792800000.0 370682000000.0 565693000000.0 527263000000.0 360612000000.0 197369000000.0 150432000000.0 101982000000.0 109980000000.0 84746200000.0 91987700000.0 58127200000.0 83811100000.0 81066100000.0 130674000000.0 143108000000.0 171402000000.0 145175000000.0 147396000000.0 90513500000.0 98954300000.0 181240000000.0 291927000000.0 98218700000.0 23972600000.0 48305900000.0 627295000000.0 592208000000.0 588390000000.0 481600000000.0 393951000000.0 90865900000.0 84581000000.0 49823500000.0 27857700000.0 95361900000.0 134664000000.0 91831300000.0 28340100000.0 104704000000.0 23738900000.0 157474000000.0 86934000000.0 112709000000.0 147283000000.0 291368000000.0 680686000000.0 677816000000.0 542892000000.0 97354400000.0 74029200000.0 66159100000.0 2847860000.0 20537800000.0 101602000000.0 95896200000.0 19558600000.0 262154000000.0 461213000000.0 213911000000.0 241757000000.0 30624300000.0 216880000000.0 640006000000.0 480769000000.0 134078000000.0 15947100000.0 105706000000.0 96871700000.0 72922200000.0 12191200000.0 76891300000.0 61390400000.0 92515700000.0 30785300000.0 21143200000.0 82388900000.0 35617400000.0 27998300000.0 57053900000.0 51610800000.0 344694000000.0 607174000000.0 277876000000.0 357425000000.0 307693000000.0 359956000000.0 261696000000.0 252642000000.0 97057800000.0 585528000000.0 610568000000.0 53714600000.0 109960000000.0 26208500000.0 212656000000.0 114673000000.0 2242980000.0 34855300000.0 128977000000.0 403874000000.0 409474000000.0 367671000000.0 189287000000.0 291085000000.0 206472000000.0 80933700000.0 26204100000.0 72366100000.0 300834000000.0 76117700000.0 97628700000.0 26576700000.0 399996000000.0 149568000000.0 24851600000.0 123621000000.0 414397000000.0 719270000000.0 446647000000.0 427204000000.0 343674000000.0 174077000000.0 49157300000.0 751248000000.0 149582000000.0 65007900000.0 83720600000.0 127792000000.0 106246000000.0 155912000000.0 74727500000.0 62178800000.0 549139000000.0 531855000000.0 113914000000.0 56287600000.0 71237300000.0 148287000000.0 178148000000.0 444878000000.0 799689000000.0 475050000000.0 470586000000.0 458026000000.0 454569000000.0 444769000000.0 528977000000.0 402043000000.0 8432400000.0 29236600000.0 120686000000.0 395068000000.0 38249000000.0 214424000000.0 281284000000.0 97219900000.0 370928000000.0 28165700000.0 150145000000.0 503127000000.0 417108000000.0 553508000000.0 302940000000.0 72375800000.0 40034100000.0 140398000000.0 383072000000.0 226578000000.0 148913000000.0 44878900000.0 163255000000.0 308794000000.0 349312000000.0 503698000000.0 437297000000.0 523131000000.0 359997000000.0 676438000000.0 112163000000.0 73981000000.0 397335000000.0 851844000000.0 485400000000.0 462552000000.0 390628000000.0 301324000000.0 900287000000.0 136301000000.0 143086000000.0 89976500000.0 39479000000.0 215568000000.0 459391000000.0 599394000000.0 590125000000.0 906036000000.0 169193000000.0 221462000000.0 26102800000.0 276058000000.0 834036000000.0 476214000000.0 206227000000.0 216752000000.0 288287000000.0 132064000000.0 290138000000.0 168284000000.0 234945000000.0 161028000000.0 104214000000.0 20069300000.0 131617000000.0 369112000000.0 575530000000.0 619883000000.0 622103000000.0 495911000000.0 985181000000.0 876541000000.0 299238000000.0 778587000000.0 271306000000.0 598161000000.0 125676000000.0 764773000000.0 739073000000.0 347946000000.0 271050000000.0 155577000000.0 105342000000.0 229785000000.0 280092000000.0 398712000000.0 492287000000.0 571161000000.0 631037000000.0 643700000000.0 604008000000.0 610606000000.0 424924000000.0 581180000000.0 542336000000.0 130979000000.0 109776000000.0 153792000000.0 152855000000.0 825489000000.0 748059000000.0 324189000000.0 345643000000.0 760742000000.0 401923000000.0 271831000000.0 238326000000.0 332987000000.0 480128000000.0 613183000000.0 660889000000.0 243168000000.0 135624000000.0 499851000000.0 536822000000.0 26522200000.0 814384000000.0 374667000000.0 9967240000.0 290855000000.0 502529000000.0 678093000000.0 626751000000.0 582995000000.0 420051000000.0 423019000000.0 307311000000.0 317768000000.0 404118000000.0 528959000000.0 658818000000.0 831264000000.0 82475900000.0 347156000000.0 610310000000.0 1.08208e+12 569325000000.0 767864000000.0 582663000000.0 490116000000.0 944985000000.0 1.07776e+12 356427000000.0 608485000000.0 687623000000.0 563165000000.0 438757000000.0 355370000000.0 398042000000.0 377221000000.0 409591000000.0 439611000000.0 446965000000.0 576595000000.0 698561000000.0 731140000000.0 1.2393e+12 28336300000.0 540106000000.0 619596000000.0 15584700000.0 1.22008e+12 542187000000.0 360525000000.0 185853000000.0 360703000000.0 999025000000.0 731621000000.0 677140000000.0 552330000000.0 459813000000.0 425805000000.0 417047000000.0 446503000000.0 903237000000.0 330410000000.0 147142000000.0 385767000000.0 546308000000.0 66501700000.0 1.35105e+12 742334000000.0 150764000000.0 602077000000.0 856422000000.0 822493000000.0 752267000000.0 751271000000.0 664490000000.0 654050000000.0 551698000000.0 555595000000.0 477451000000.0 437856000000.0 413177000000.0 489240000000.0 1.54318e+12 406630000000.0 413962000000.0 563621000000.0 1.34362e+12 1.7621e+12 315995000000.0 16306600000.0 3526700000.0 168843000000.0 402812000000.0 731872000000.0 761347000000.0 812318000000.0 745446000000.0 647885000000.0 560335000000.0 488685000000.0 498563000000.0 443552000000.0 466891000000.0 431893000000.0 580042000000.0 667160000000.0 434697000000.0 109728000000.0 237749000000.0 449947000000.0 430699000000.0 171749000000.0 1.39262e+12 1.38587e+12 638221000000.0 120372000000.0 74431400000.0 93853600000.0 572519000000.0 795713000000.0 811955000000.0 738640000000.0 645072000000.0 567643000000.0 522001000000.0 563022000000.0 1.02324e+12 1.25464e+12 131358000000.0 233098000000.0 321407000000.0 1.33572e+12 217650000000.0 138801000000.0 114846000000.0 318255000000.0 513164000000.0 684851000000.0 774200000000.0 826676000000.0 851077000000.0 812632000000.0 811288000000.0 732785000000.0 729685000000.0 646516000000.0 656675000000.0 585699000000.0 586996000000.0 794815000000.0 779088000000.0 183965000000.0 2795590000.0 28185600000.0 241820000000.0 492182000000.0 476688000000.0 348172000000.0 191062000000.0 262767000000.0 78943000000.0 316126000000.0 667092000000.0 841091000000.0 866389000000.0 808930000000.0 732640000000.0 682546000000.0 628388000000.0 702460000000.0 714808000000.0 770532000000.0 809924000000.0 35045700000.0 154415000000.0 109237000000.0 66926100000.0 1.18942e+12 559386000000.0 435234000000.0 297587000000.0 121203000000.0 126671000000.0 530031000000.0 785280000000.0 886662000000.0 873742000000.0 808540000000.0 745859000000.0 726102000000.0 750872000000.0 679831000000.0 536648000000.0 108959000000.0 294504000000.0 4276980000.0 664148000000.0 9035750000.0 1.41421e+12 659664000000.0 466831000000.0 35795300000.0 383045000000.0 595509000000.0 697883000000.0 822031000000.0 869706000000.0 925379000000.0 914259000000.0 929077000000.0 876766000000.0 879693000000.0 813655000000.0 825690000000.0 770225000000.0 792927000000.0 761127000000.0 719766000000.0 477706000000.0 97880700000.0 136137000000.0 167740000000.0 705083000000.0 869266000000.0 1.18114e+12 886576000000.0 572352000000.0 161264000000.0 150236000000.0 247589000000.0 494513000000.0 754644000000.0 908017000000.0 959134000000.0 936845000000.0 885361000000.0 838703000000.0 792305000000.0 752685000000.0 685067000000.0 606580000000.0 254135000000.0 292604000000.0 1.1616e+12 126823000000.0 485046000000.0 580152000000.0 220347000000.0 231206000000.0 114560000000.0 415177000000.0 680440000000.0 867414000000.0 964148000000.0 978320000000.0 942174000000.0 892148000000.0 839453000000.0 750488000000.0 569119000000.0 445080000000.0 284071000000.0 195071000000.0 976278000000.0 304469000000.0 1.51968e+12 713932000000.0 912719000000.0 658037000000.0 153081000000.0 379521000000.0 613897000000.0 755553000000.0 812413000000.0 903835000000.0 944503000000.0 995705000000.0 999060000000.0 1.0203e+12 989149000000.0 995746000000.0 946636000000.0 947297000000.0 892509000000.0 874232000000.0 812509000000.0 665064000000.0 431497000000.0 153469000000.0 375459000000.0 35809200000.0 1.82159e+12 8944130000.0 206227000000.0 198545000000.0 490676000000.0 552633000000.0 401295000000.0 575868000000.0 573829000000.0 711810000000.0 850650000000.0 966832000000.0 1.02943e+12 1.03312e+12 999140000000.0 935723000000.0 822516000000.0 745840000000.0 644072000000.0 550366000000.0 443286000000.0 313364000000.0 152460000000.0 49932400000.0 1.46558e+12 945783000000.0 520634000000.0 135236000000.0 225030000000.0 724951000000.0 444487000000.0 427197000000.0 613191000000.0 640677000000.0 694709000000.0 799076000000.0 915919000000.0 1.01176e+12 1.05162e+12 1.04103e+12 994634000000.0 897565000000.0 726913000000.0 532044000000.0 383070000000.0 1.42212e+12 15892900000.0 488721000000.0 217344000000.0 345499000000.0 397498000000.0 472769000000.0 1.47425e+12 738724000000.0 672052000000.0 718326000000.0 766031000000.0 797001000000.0 853596000000.0 895742000000.0 964963000000.0 1.00438e+12 1.04425e+12 1.06712e+12 1.06657e+12 1.07757e+12 1.04392e+12 1.03197e+12 968653000000.0 900836000000.0 812373000000.0 678448000000.0 604094000000.0 506092000000.0 470781000000.0 835162000000.0 209632000000.0 1.79191e+12 260736000000.0 1.58229e+12 689054000000.0 223734000000.0 238012000000.0 459265000000.0 436092000000.0 138989000000.0 1.73769e+12 1.10249e+12 1.07995e+12 725774000000.0 768241000000.0 742142000000.0 793574000000.0 766895000000.0 760337000000.0 819567000000.0 933883000000.0 1.03372e+12 1.08487e+12 1.08094e+12 983846000000.0 763710000000.0 537594000000.0 542207000000.0 646391000000.0 803057000000.0 946699000000.0 625827000000.0 1.21111e+12 355424000000.0 258458000000.0 329574000000.0 314639000000.0 210607000000.0 494328000000.0 561992000000.0 707200000000.0 72762900000.0 1.29721e+12 729294000000.0 909504000000.0 833299000000.0 744781000000.0 752287000000.0 849078000000.0 960425000000.0 1.05846e+12 1.09895e+12 1.05358e+12 867317000000.0 590673000000.0 481857000000.0 655415000000.0 763078000000.0 850511000000.0 921915000000.0 679472000000.0 179525000000.0 368420000000.0 39358700000.0 152370000000.0 219003000000.0 275963000000.0 275294000000.0 230623000000.0 397015000000.0 519280000000.0 637822000000.0 835613000000.0 617268000000.0 79954800000.0 1.24023e+12 1.38198e+12 1.19187e+12 750200000000.0 690121000000.0 735261000000.0 593994000000.0 690337000000.0 735830000000.0 777127000000.0 765096000000.0 861246000000.0 869221000000.0 985464000000.0 1.01235e+12 1.08177e+12 1.0955e+12 1.09991e+12 1.0432e+12 960587000000.0 760723000000.0 655620000000.0 467586000000.0 457330000000.0 429257000000.0 517945000000.0 489329000000.0 614258000000.0 869921000000.0 758205000000.0 761977000000.0 1.42161e+12 399003000.0 136763000000.0 212437000000.0 236608000000.0 173499000000.0 355489000000.0 288421000000.0 360057000000.0 638347000000.0 836073000000.0 520857000000.0 131703000000.0 414688000000.0 587975000000.0 351210000000.0 672616000000.0 716444000000.0 702913000000.0 743183000000.0 886427000000.0 1.04107e+12 1.07422e+12 869547000000.0 476134000000.0 386513000000.0 432389000000.0 556295000000.0 741815000000.0 829142000000.0 1.75506e+12 188062000000.0 49186200000.0 94076700000.0 147221000000.0 240603000000.0 238234000000.0 238122000000.0 286433000000.0 124041000000.0 435448000000.0 181108000000.0 194248000000.0 216569000000.0 195946000000.0 427437000000.0 467854000000.0 204715000000.0 236526000.0 143743000000.0 30140400000.0 1.0843e+12 1.22159e+12 665196000000.0 472440000000.0 524142000000.0 657467000000.0 678943000000.0 645472000000.0 731778000000.0 732536000000.0 911007000000.0 933654000000.0 1.05443e+12 982091000000.0 941390000000.0 645511000000.0 524498000000.0 246494000000.0 337656000000.0 362113000000.0 426750000000.0 481240000000.0 665104000000.0 946062000000.0 934763000000.0 718748000000.0 102895000000.0 86334900000.0 321917000000.0 277016000000.0 327599000000.0 133924000000.0 853968000000.0 572350000000.0 136486000000.0 227496000000.0 244002000000.0 117928000000.0 74150100000.0 725295000000.0 802066000000.0 283436000000.0 406564000000.0 593648000000.0 64312000000.0 583697000000.0 480584000000.0 553036000000.0 447408000000.0 591508000000.0 513547000000.0 598521000000.0 571140000000.0 740378000000.0 936607000000.0 628364000000.0 65240600000.0 262625000000.0 546286000000.0 534759000000.0 573528000000.0 463994000000.0 1.11792e+12 690144000000.0 1.54449e+12 226048000000.0 191007000000.0 213472000000.0 236002000000.0 487543000000.0 296560000000.0 326595000000.0 341263000000.0 369282000000.0 262605000000.0 182379000000.0 248905000000.0 277820000000.0 1.60161e+12 45360100000.0 152217000000.0 218662000000.0 257589000000.0 308794000000.0 271947000000.0 392979000000.0 32758300000.0 307974000000.0 375822000000.0 340031000000.0 919097000000.0 56882700000.0 413272000000.0 364924000000.0 344062000000.0 391368000000.0 464477000000.0 550048000000.0 728127000000.0 787606000000.0 82031600000.0 102799000000.0 498127000000.0 674787000000.0 509358000000.0 389827000000.0 890946000000.0 1.27647e+12 1.43311e+12 470496000000.0 322992000000.0 674815000000.0 356687000000.0 280047000000.0 354805000000.0 257794000000.0 156328000000.0 284810000000.0 478757000000.0 331839000000.0 123942000000.0 10427000000.0 199400000000.0 261106000000.0 416534000000.0 732265000000.0 836811000000.0 661955000000.0 896759000000.0 337362000000.0 706115000000.0 680383000000.0 289764000000.0 336519000000.0 23266500000.0 177887000000.0 282135000000.0 389023000000.0 388239000000.0 437222000000.0 403484000000.0 521700000000.0 454136000000.0 683460000000.0 202468000000.0 149584000000.0 342179000000.0 50047800000.0 568646000000.0 475513000000.0 604024000000.0 594377000000.0 574491000000.0 757672000000.0 227935000000.0 676797000000.0 589386000000.0 596905000000.0 20037100000.0 743123000000.0 663937000000.0 368669000000.0 250567000000.0 206410000000.0 350612000000.0 336197000000.0 195190000000.0 114228000000.0 60067800000.0 320673000000.0 352391000000.0 386658000000.0 297313000000.0 271892000000.0 1.7479e+12 328475000000.0 171894000000.0 73211400000.0 176939000000.0 325479000000.0 341899000000.0 432998000000.0 535296000000.0 657017000000.0 108749000000.0 547502000000.0 164623000000.0 348816000000.0 251314000000.0 77820700000.0 200390000000.0 324177000000.0 394943000000.0 365480000000.0 325889000000.0 308390000000.0 812888000000.0 590430000000.0 668116000000.0 563205000000.0 434591000000.0 828774000000.0 1.46364e+12 1.4296e+12 118746000000.0 361177000000.0 949751000000.0 707480000000.0 396605000000.0 115136000000.0 425818000000.0 523845000000.0 355025000000.0 191902000000.0 99903400000.0 32581100000.0 328403000000.0 321643000000.0 334701000000.0 205945000000.0 246834000000.0 346523000000.0 998217000000.0 243564000000.0 22875600000.0 152628000000.0 498614000000.0 671426000000.0 568977000000.0 544420000000.0 400681000000.0 656113000000.0 65194200000.0 217972000000.0 576805000000.0 699045000000.0 239978000000.0 8275160000.0 375534000000.0 426947000000.0 310079000000.0 210151000000.0 1.07586e+12 642495000000.0 664324000000.0 626492000000.0 335296000000.0 36509500000.0 410358000000.0 826617000000.0 46768800000.0 841514000000.0 40932800000.0 249983000000.0 8831620000.0 56976100000.0 284773000000.0 583781000000.0 231479000000.0 92211600000.0 33838900000.0 36314600000.0 41108800000.0 296620000000.0 297090000000.0 318864000000.0 180197000000.0 271014000000.0 266805000000.0 149911000000.0 456908000000.0 148803000000.0 45014900000.0 348903000000.0 486568000000.0 482662000000.0 1.14571e+12 3111520000.0 308462000000.0 640219000000.0 619809000000.0 961119000000.0 517288000000.0 500876000000.0 372090000000.0 343662000000.0 473409000000.0 458966000000.0 503095000000.0 428100000000.0 512304000000.0 424086000000.0 315645000000.0 594065000000.0 48845600000.0 486522000000.0 433492000000.0 642115000000.0 646950000000.0 651642000000.0 530137000000.0 478987000000.0 164307000000.0 244981000000.0 1.01345e+12 470341000000.0 1.04333e+12 288983000000.0 382213000000.0 437528000000.0 907916000000.0 1.08373e+12 586366000000.0 180617000000.0 923206000000.0 484613000000.0 34855600000.0 42840700000.0 33735500000.0 65578200000.0 156308000000.0 218712000000.0 111810000000.0 261316000000.0 165954000000.0 190984000000.0 216527000000.0 244062000000.0 71170500000.0 217563000000.0 133372000000.0 95765900000.0 11965500000.0 71230500000.0 155871000000.0 3511890000.0 1.13809e+12 874292000000.0 669603000000.0 56685300000.0 162783000000.0 166563000000.0 518931000000.0 437466000000.0 241385000000.0 749173000000.0 730034000000.0 527708000000.0 532075000000.0 573345000000.0 537713000000.0 203306000000.0 495099000000.0 549279000000.0 650298000000.0 242935000000.0 84562300000.0 468760000000.0 142864000000.0 601495000000.0 416223000000.0 201101000000.0 243199000000.0 35607700000.0 310404000000.0 131177000000.0 569019000000.0 999070000000.0 471232000000.0 200854000000.0 235484000000.0 263368000000.0 214364000000.0 82826100000.0 274530000000.0 5740620000.0 208061000000.0 195942000000.0 169258000000.0 182339000000.0 214935000000.0 204158000000.0 38814100000.0 125704000000.0 147161000000.0 140518000000.0 370727000000.0 380169000000.0 86953700000.0 703792000000.0 460911000000.0 527901000000.0 696068000000.0 932532000000.0 1.27784e+12 484138000000.0 745636000000.0 1.09168e+12 589371000000.0 529443000000.0 524362000000.0 580382000000.0 640138000000.0 546599000000.0 1224910000.0 171868000000.0 587788000000.0 596505000000.0 563280000000.0 321207000000.0 1.04665e+12 64436800000.0 908053000000.0 398295000000.0 321998000000.0 359017000000.0 460628000000.0 308664000000.0 853419000000.0 304324000000.0 86950400000.0 141912000000.0 139119000000.0 178888000000.0 347103000000.0 390028000000.0 61234400000.0 209971000000.0 251112000000.0 422687000000.0 500299000000.0 55706800000.0 83875800000.0 145742000000.0 259907000000.0 193642000000.0 203510000000.0 202729000000.0 215311000000.0 221019000000.0 163588000000.0 121962000000.0 177181000000.0 112313000000.0 8655490000.0 116416000000.0 489600000000.0 1.07532e+12 642076000000.0 260024000000.0 384519000000.0 345584000000.0 547661000000.0 570582000000.0 624755000000.0 79980900000.0 744291000000.0 1.03177e+12 303060000000.0 702590000000.0 685284000000.0 735712000000.0 714088000000.0 693827000000.0 545779000000.0 454684000000.0 639404000000.0 1.13089e+12 395142000000.0 519309000000.0 593436000000.0 527563000000.0 476705000000.0 1.19636e+12 54560600000.0 411941000000.0 234713000000.0 82196400000.0 318872000000.0 352835000000.0 444539000000.0 48067100000.0 188321000000.0 600776000000.0 508199000000.0 8917210000.0 181947000000.0 507547000000.0 73525700000.0 477564000000.0 427098000000.0 551658000000.0 632723000000.0 530047000000.0 100367000000.0 128806000000.0 37554700000.0 335036000000.0 328071000000.0 233527000000.0 220594000000.0 221160000000.0 206970000000.0 149380000000.0 33221100000.0 71193900000.0 273151000000.0 232677000000.0 181104000000.0 14649000000.0 363672000000.0 272254000000.0 846274000000.0 459106000000.0 575840000000.0 531260000000.0 489067000000.0 194731000000.0 135585000000.0 26636000000.0 1.59154e+12 251778000000.0 701377000000.0 711265000000.0 714835000000.0 526430000000.0 548143000000.0 1.22492e+12 394250000000.0 626464000000.0 63475000000.0 228617000000.0 433516000000.0 52505500000.0 97527400000.0 155112000000.0 292142000000.0 400882000000.0 171844000000.0 165718000000.0 505418000000.0 762053000000.0 625950000000.0 240944000000.0 65589500000.0 792835000000.0 603684000000.0 542704000000.0 524086000000.0 687581000000.0 635914000000.0 511965000000.0 143510000000.0 8125170000.0 446290000000.0 407849000000.0 433666000000.0 274402000000.0 239745000000.0 227906000000.0 250422000000.0 226311000000.0 216332000000.0 47160100000.0 5141700000.0 318797000000.0 163611000000.0 376139000000.0 627243000000.0 45006000000.0 196198000000.0 333564000000.0 335491000000.0 305309000000.0 272323000000.0 256666000000.0 218810000000.0 340938000000.0 319922000000.0 523833000000.0 916287000000.0 763347000000.0 508219000000.0 648324000000.0 594759000000.0 424862000000.0 782287000000.0 853817000000.0 776186000000.0 23888600000.0 799425000000.0 52749700000.0 1.39089e+12 768126000000.0 186501000000.0 65618900000.0 71301600000.0 217402000000.0 333205000000.0 286183000000.0 302430000000.0 556017000000.0 747899000000.0 845271000000.0 843727000000.0 806232000000.0 591991000000.0 476313000000.0 580765000000.0 595935000000.0 778189000000.0 745008000000.0 730714000000.0 601381000000.0 484246000000.0 440838000000.0 132606000000.0 5047920000.0 4775800000.0 450356000000.0 564304000000.0 525341000000.0 549074000000.0 412719000000.0 301578000000.0 243835000000.0 250396000000.0 250473000000.0 176982000000.0 121909000000.0 496715000000.0 498447000000.0 240018000000.0 1.13129e+12 196842000000.0 68778000000.0 157187000000.0 127827000000.0 49886700000.0 51866800000.0 250443000000.0 1.10892e+12 205941000000.0 727514000000.0 520474000000.0 436320000000.0 591779000000.0 478756000000.0 481365000000.0 459529000000.0 526913000000.0 607656000000.0 870045000000.0 658623000000.0 785468000000.0 677867000000.0 563695000000.0 25044100000.0 30393000000.0 8331140000.0 84413900000.0 186726000000.0 290482000000.0 319442000000.0 512970000000.0 59114000000.0 1.0479e+12 610712000000.0 714990000000.0 615769000000.0 518418000000.0 875652000000.0 851542000000.0 659427000000.0 542227000000.0 399484000000.0 107134000000.0 51923700000.0 3254080000.0 430202000000.0 547360000000.0 660323000000.0 680365000000.0 510039000000.0 239726000000.0 254943000000.0 273833000000.0 229376000000.0 252359000000.0 318632000000.0 264091000000.0 835065000000.0 286765000000.0 61529800000.0 561609000000.0 94851100000.0 507799000000.0 71619500000.0 63420100000.0 14843500000.0 90816800000.0 215538000000.0 363032000000.0 415238000000.0 382734000000.0 323407000000.0 146611000000.0 679443000000.0 24268400000.0 531542000000.0 462461000000.0 607277000000.0 412107000000.0 1.04846e+12 592048000000.0 397450000000.0 146601000000.0 123313000000.0 506276000.0 79625900000.0 180838000000.0 274314000000.0 371691000000.0 537570000000.0 673269000000.0 670731000000.0 679035000000.0 1.12095e+12 221316000000.0 526702000000.0 502654000000.0 904630000000.0 910041000000.0 790453000000.0 711764000000.0 583271000000.0 479853000000.0 393462000000.0 341207000000.0 8437270000.0 9653730000.0 353563000000.0 393996000000.0 496613000000.0 684862000000.0 810266000000.0 638319000000.0 286123000000.0 180794000000.0 323316000000.0 243223000000.0 184499000000.0 49757600000.0 1.06261e+12 261635000000.0 178946000000.0 740849000000.0 201794000000.0 266828000000.0 51799500000.0 65821500000.0 181445000000.0 316086000000.0 394467000000.0 385474000000.0 224869000000.0 618136000000.0 246147000000.0 209275000000.0 359187000000.0 334734000000.0 377870000000.0 694970000000.0 855138000000.0 433495000000.0 555197000000.0 320650000000.0 159068000000.0 98483200000.0 26470900000.0 4646190000.0 98155400000.0 185789000000.0 335848000000.0 404658000000.0 531032000000.0 638335000000.0 663688000000.0 619210000000.0 582142000000.0 715956000000.0 268365000000.0 146503000000.0 494398000000.0 339873000000.0 1.22163e+12 1.06216e+12 870320000000.0 511261000000.0 447112000000.0 320187000000.0 293102000000.0 73647200000.0 14599500000.0 666930000.0 331549000000.0 418744000000.0 519002000000.0 635916000000.0 813423000000.0 990379000000.0 831930000000.0 852180000000.0 183331000000.0 53294400000.0 210714000000.0 322237000000.0 334449000000.0 636675000000.0 192052000000.0 627201000000.0 549025000000.0 628132000000.0 886504000000.0 737627000000.0 337606000000.0 49922800000.0 49532200000.0 91213300000.0 28843300000.0 399727000000.0 426283000000.0 373450000000.0 257515000000.0 42001300000.0 462040000000.0 1.03642e+12 547926000000.0 322242000000.0 598850000000.0 7996230000.0 408896000000.0 41202900000.0 521814000000.0 379700000000.0 162798000000.0 669937000000.0 764505000000.0 373073000000.0 131581000000.0 111907000000.0 138958000000.0 211811000000.0 276835000000.0 350186000000.0 424891000000.0 522735000000.0 597631000000.0 591448000000.0 475575000000.0 230258000000.0 176768000000.0 665512000000.0 1.22613e+12 288188000000.0 436865000000.0 630730000000.0 625341000000.0 571989000000.0 419244000000.0 382959000000.0 349288000000.0 302791000000.0 279426000000.0 251301000000.0 200527000000.0 138248000000.0 22129400000.0 358764000000.0 353509000000.0 403551000000.0 666389000000.0 853518000000.0 1.01188e+12 1.25905e+12 96585300000.0 247949000000.0 482407000000.0 143463000000.0 369013000000.0 329881000000.0 1.31875e+12 809897000000.0 150706000000.0 650912000000.0 733172000000.0 606907000000.0 304123000000.0 15996100000.0 180747000000.0 135074000000.0 188909000000.0 329202000000.0 187831000000.0 1832510000.0 56149500000.0 285826000000.0 628680000000.0 306428000000.0 965758000000.0 926434000000.0 483477000000.0 258276000000.0 332844000000.0 107283000000.0 592567000000.0 146550000000.0 249131000000.0 235879000000.0 179436000000.0 195526000000.0 291869000000.0 369552000000.0 446558000000.0 531580000000.0 598866000000.0 610006000000.0 541099000000.0 393027000000.0 194739000000.0 85155200000.0 721674000000.0 458903000000.0 810067000000.0 580200000000.0 586119000000.0 921421000000.0 584889000000.0 471918000000.0 379415000000.0 334635000000.0 267782000000.0 224987000000.0 136857000000.0 174552000000.0 177888000000.0 42765200000.0 36089100000.0 424824000000.0 394632000000.0 387187000000.0 328801000000.0 318314000000.0 497464000000.0 651522000000.0 857324000000.0 1.0183e+12 742918000000.0 1.17372e+12 31454200000.0 357205000000.0 1.07763e+12 762352000000.0 864527000000.0 449155000000.0 634839000000.0 119300000000.0 69017700000.0 412078000000.0 544881000000.0 477598000000.0 283961000000.0 64677400000.0 338030000000.0 156104000000.0 430180000000.0 437094000000.0 164139000000.0 32489000000.0 57118900000.0 171528000000.0 213676000000.0 37714400000.0 915467000000.0 252190000000.0 486200000000.0 656174000000.0 702972000000.0 537717000000.0 358234000000.0 399156000000.0 50699300000.0 91614100000.0 216918000000.0 231461000000.0 242033000000.0 312796000000.0 388364000000.0 466260000000.0 545550000000.0 610438000000.0 636031000000.0 602610000000.0 505148000000.0 354405000000.0 206156000000.0 406672000000.0 117642000000.0 959499000000.0 244769000000.0 698362000000.0 1.03023e+12 623106000000.0 456342000000.0 375879000000.0 316865000000.0 212129000000.0 169312000000.0 105569000000.0 116799000000.0 132341000000.0 29097900000.0 449354000000.0 517817000000.0 458996000000.0 290176000000.0 235402000000.0 354705000000.0 463007000000.0 651899000000.0 1.07914e+12 370293000000.0 162202000000.0 299628000000.0 45394800000.0 453391000000.0 1.21352e+12 53164600000.0 535423000000.0 32913500000.0 128386000000.0 159232000000.0 328611000000.0 198797000000.0 313023000000.0 183557000000.0 407801000000.0 298524000000.0 12752800000.0 81935000000.0 129350000000.0 61339100000.0 350723000000.0 360886000000.0 489650000000.0 724973000000.0 729013000000.0 720207000000.0 731970000000.0 634188000000.0 116510000000.0 526917000000.0 129632000000.0 120623000000.0 86842600000.0 234761000000.0 272221000000.0 330590000000.0 402520000000.0 479868000000.0 557568000000.0 622893000000.0 661212000000.0 658598000000.0 608311000000.0 515731000000.0 406564000000.0 363332000000.0 210745000000.0 1.12216e+12 814143000000.0 526485000000.0 1.585e+12 1.23661e+12 872922000000.0 599366000000.0 454644000000.0 439354000000.0 359058000000.0 276216000000.0 153743000000.0 122529000000.0 145976000000.0 33002200000.0 73279300000.0 11124800000.0 454230000000.0 540931000000.0 433426000000.0 198948000000.0 259144000000.0 366809000000.0 945063000000.0 1.4665e+12 288089000000.0 1.28033e+12 391857000000.0 378987000000.0 455168000000.0 423208000000.0 1470190000.0 733534000000.0 450466000000.0 239731000000.0 111336000000.0 103472000000.0 249282000000.0 146436000000.0 363837000000.0 496792000000.0 1.05567e+12 268149000000.0 939123000000.0 465154000000.0 874740000000.0 516204000000.0 440832000000.0 134904000000.0 208497000000.0 246867000000.0 283825000000.0 338181000000.0 405533000000.0 482076000000.0 560810000000.0 630475000000.0 676445000000.0 691476000000.0 671030000000.0 618093000000.0 556491000000.0 547575000000.0 298621000000.0 1.66924e+12 1.12888e+12 494637000000.0 1.78108e+12 779934000000.0 661764000000.0 534844000000.0 430539000000.0 339548000000.0 245417000000.0 200635000000.0 107740000000.0 236528000000.0 244284000000.0 419727000000.0 150109000000.0 89988300000.0 341875000000.0 415467000000.0 521445000000.0 617331000000.0 564998000000.0 560422000000.0 122144000000.0 183907000000.0 520578000000.0 740216000000.0 1.3463e+12 953946000000.0 599658000000.0 632858000000.0 489549000000.0 125840000000.0 150519000000.0 818513000000.0 649651000000.0 247721000000.0 221821000000.0 244925000000.0 347667000000.0 383759000000.0 371297000000.0 329008000000.0 220496000000.0 1.14713e+12 553361000000.0 315480000000.0 160017000000.0 33362000000.0 58696200000.0 366565000000.0 661494000000.0 721273000000.0 495549000000.0 730112000000.0 160872000000.0 23614000000.0 82794300000.0 147316000000.0 214737000000.0 270016000000.0 326550000000.0 392486000000.0 467095000000.0 547264000000.0 624655000000.0 100011000000.0 1.32845e+12 880079000000.0 725807000000.0 335730000000.0 1.22257e+12 866478000000.0 690662000000.0 608684000000.0 518288000000.0 459566000000.0 356881000000.0 165769000000.0 209964000000.0 449619000000.0 555741000000.0 484176000000.0 155757000000.0 517787000000.0 243626000000.0 226033000000.0 470209000000.0 545423000000.0 597895000000.0 670167000000.0 726758000000.0 54474400000.0 75019600000.0 311813000000.0 448412000000.0 682040000000.0 936781000000.0 39555500000.0 593592000000.0 298787000000.0 881113000000.0 169079000000.0 604610000000.0 93451400000.0 362002000000.0 397925000000.0 249338000000.0 237681000000.0 257014000000.0 295662000000.0 284136000000.0 269874000000.0 262351000000.0 301603000000.0 408463000000.0 1.26445e+12 700145000000.0 400145000000.0 197660000000.0 50400300000.0 55334100000.0 170836000000.0 203806000000.0 317508000000.0 478511000000.0 572533000000.0 432317000000.0 314547000000.0 132600000000.0 4307000000.0 86055600000.0 158952000000.0 228799000000.0 293942000000.0 360621000000.0 433300000000.0 684089000000.0 705938000000.0 690861000000.0 635273000000.0 534516000000.0 392945000000.0 825824000000.0 712949000000.0 449277000000.0 41167900000.0 794856000000.0 1.00556e+12 782963000000.0 715297000000.0 620190000000.0 535291000000.0 508894000000.0 370419000000.0 464428000000.0 496645000000.0 779521000000.0 558823000000.0 443513000000.0 157114000000.0 152444000000.0 329807000000.0 18289500000.0 390542000000.0 491436000000.0 594682000000.0 595524000000.0 885256000000.0 126451000000.0 252056000000.0 469693000000.0 721052000000.0 1.0109e+12 703699000000.0 5416350000.0 403501000000.0 45586900000.0 738600000000.0 251980000000.0 201753000000.0 262313000000.0 373650000000.0 358837000000.0 276448000000.0 252558000000.0 242049000000.0 216589000000.0 123911000000.0 109872000000.0 194181000000.0 323459000000.0 560895000000.0 957282000000.0 630754000000.0 371595000000.0 178326000000.0 32404900000.0 91072700000.0 173200000000.0 264988000000.0 332645000000.0 464575000000.0 565677000000.0 589216000000.0 541986000000.0 561110000000.0 454390000000.0 443737000000.0 339678000000.0 225724000000.0 94119700000.0 15187600000.0 98646700000.0 173433000000.0 244426000000.0 512331000000.0 594488000000.0 670331000000.0 719879000000.0 705863000000.0 643004000000.0 520164000000.0 295949000000.0 255906000000.0 417273000000.0 646790000000.0 480844000000.0 153315000000.0 679954000000.0 1.09254e+12 1.02961e+12 837390000000.0 754274000000.0 662635000000.0 589292000000.0 573206000000.0 366204000000.0 1.24567e+12 1.09144e+12 592574000000.0 423373000000.0 462349000000.0 419592000000.0 139148000000.0 118182000000.0 311794000000.0 83388100000.0 234725000000.0 384377000000.0 558169000000.0 587454000000.0 824591000000.0 1.25189e+12 210115000000.0 522653000000.0 787990000000.0 1.00663e+12 1.01137e+12 723482000000.0 406015000000.0 492307000000.0 27911900000.0 84858200000.0 325458000000.0 381474000000.0 378032000000.0 379165000000.0 338282000000.0 280565000000.0 246927000000.0 204936000000.0 114522000000.0 105038000000.0 36696700000.0 223282000000.0 386300000000.0 552343000000.0 686738000000.0 494102000000.0 294461000000.0 128608000000.0 7343890000.0 111734000000.0 203970000000.0 280695000000.0 370814000000.0 451949000000.0 508825000000.0 523180000000.0 487868000000.0 463173000000.0 399010000000.0 348938000000.0 258482000000.0 158502000000.0 54801700000.0 37069700000.0 313027000000.0 382895000000.0 456891000000.0 536126000000.0 619119000000.0 698146000000.0 746012000000.0 668362000000.0 530819000000.0 310567000000.0 186225000000.0 185251000000.0 577791000000.0 604942000000.0 480305000000.0 726682000000.0 1.02288e+12 1.12817e+12 1.03896e+12 880696000000.0 779562000000.0 680114000000.0 616889000000.0 608977000000.0 1.0897e+12 42671300000.0 418292000000.0 370140000000.0 432292000000.0 435409000000.0 407298000000.0 381112000000.0 121612000000.0 127410000000.0 155502000000.0 868897000000.0 744295000000.0 118831000000.0 299030000000.0 513872000000.0 627692000000.0 477533000000.0 660998000000.0 1.2628e+12 303658000000.0 534740000000.0 866956000000.0 1.01556e+12 758486000000.0 547873000000.0 359843000000.0 372258000000.0 28101300000.0 278766000000.0 391396000000.0 390424000000.0 362554000000.0 54977200000.0 273217000000.0 390727000000.0 469866000000.0 492720000000.0 208841000000.0 72516300000.0 40632500000.0 136702000000.0 217831000000.0 295414000000.0 365449000000.0 422055000000.0 455533000000.0 452751000000.0 423170000000.0 387874000000.0 332347000000.0 270753000000.0 115788000000.0 187860000000.0 256150000000.0 322134000000.0 388305000000.0 457429000000.0 532283000000.0 615933000000.0 709072000000.0 786051000000.0 585100000000.0 361624000000.0 12880500000.0 114173000000.0 493606000000.0 669700000000.0 693932000000.0 838668000000.0 1.02392e+12 1.13316e+12 1.13634e+12 1.04377e+12 906427000000.0 757896000000.0 636891000000.0 555258000000.0 928480000000.0 517300000000.0 111302000000.0 241011000000.0 476239000000.0 441528000000.0 347339000000.0 331013000000.0 285264000000.0 100982000000.0 198626000000.0 188349000000.0 197098000000.0 1.21593e+12 854570000000.0 527111000000.0 486441000000.0 722147000000.0 652490000000.0 325331000000.0 965469000000.0 11486100000.0 876276000000.0 980708000000.0 1.05021e+12 952592000000.0 54176000000.0 53119700000.0 148378000000.0 316193000000.0 387622000000.0 366549000000.0 318089000000.0 272392000000.0 233317000000.0 173882000000.0 48818800000.0 346715000000.0 313014000000.0 358110000000.0 374288000000.0 361035000000.0 190067000000.0 103732000000.0 17680800000.0 61413200000.0 132693000000.0 198258000000.0 259258000000.0 316595000000.0 371985000000.0 428311000000.0 490849000000.0 572097000000.0 701637000000.0 923267000000.0 468704000000.0 276781000000.0 152608000000.0 1.15066e+12 1.16774e+12 1.12408e+12 1.01926e+12 884156000000.0 152217000000.0 619400000000.0 96703800000.0 108338000000.0 277819000000.0 512252000000.0 477839000000.0 399073000000.0 271042000000.0 240512000000.0 75504500000.0 9400210000.0 150420000000.0 40888800000.0 355433000000.0 964713000000.0 767207000000.0 628929000000.0 123162000000.0 168221000000.0 702783000000.0 924539000000.0 523929000000.0 708251000000.0 25294300000.0 633492000000.0 1.01803e+12 984040000000.0 890579000000.0 737285000000.0 502754000000.0 328981000000.0 292296000000.0 259321000000.0 220059000000.0 145580000000.0 28432600000.0 476898000000.0 89439900000.0 349936000000.0 251318000000.0 135909000000.0 27756000000.0 67373500000.0 149468000000.0 223100000000.0 288238000000.0 342648000000.0 381386000000.0 396518000000.0 386428000000.0 358183000000.0 319033000000.0 265767000000.0 203745000000.0 131942000000.0 57317600000.0 15842100000.0 83979300000.0 145979000000.0 201916000000.0 251419000000.0 294176000000.0 330612000000.0 362339000000.0 395234000000.0 448038000000.0 575381000000.0 337650000000.0 672340000000.0 816114000000.0 948780000000.0 1.07413e+12 1.15147e+12 1.08239e+12 964811000000.0 797836000000.0 564040000000.0 151759000000.0 147740000000.0 760843000000.0 372972000000.0 796104000000.0 626610000000.0 371739000000.0 300383000000.0 221634000000.0 181728000000.0 40826500000.0 101628000000.0 9804080000.0 138517000000.0 280893000000.0 374815000000.0 585232000000.0 429995000000.0 169723000000.0 406117000000.0 713133000000.0 1.24231e+12 703370000000.0 869644000000.0 813600000000.0 875454000000.0 867166000000.0 799602000000.0 655037000000.0 304174000000.0 136957000000.0 108653000000.0 226503000000.0 314238000000.0 340860000000.0 321064000000.0 294915000000.0 270222000000.0 244989000000.0 203827000000.0 112465000000.0 61074800000.0 445811000000.0 293856000000.0 366711000000.0 330170000000.0 299097000000.0 254376000000.0 176409000000.0 86938200000.0 206401000.0 79642700000.0 150944000000.0 213822000000.0 267179000000.0 308363000000.0 332805000000.0 337479000000.0 323427000000.0 294667000000.0 254550000000.0 203676000000.0 145469000000.0 81907400000.0 17275800000.0 45176900000.0 103072000000.0 154885000000.0 199107000000.0 234168000000.0 997753000000.0 132835000000.0 329243000000.0 370196000000.0 742540000000.0 901570000000.0 1.04332e+12 1.13998e+12 1.1802e+12 1.18175e+12 1.09801e+12 1.01065e+12 889295000000.0 733476000000.0 541933000000.0 585177000000.0 261817000000.0 614782000000.0 462885000000.0 750395000000.0 496627000000.0 226009000000.0 211584000000.0 67406200000.0 144719000000.0 19301800000.0 74687700000.0 64627700000.0 9502280000.0 34307600000.0 148887000000.0 291719000000.0 708519000000.0 429723000000.0 473781000000.0 336367000000.0 19668500000.0 127079000000.0 100879000000.0 645907000000.0 639857000000.0 170268000000.0 480548000000.0 650137000000.0 735913000000.0 752086000000.0 692708000000.0 473328000000.0 313288000000.0 203765000000.0 190743000000.0 240765000000.0 278484000000.0 284556000000.0 270953000000.0 257715000000.0 246492000000.0 492470000000.0 419334000000.0 317129000000.0 256366000000.0 204011000000.0 136575000000.0 62479100000.0 10474900000.0 78512100000.0 139857000000.0 193107000000.0 236339000000.0 266667000000.0 281483000000.0 279933000000.0 263318000000.0 234191000000.0 194942000000.0 147395000000.0 94337600000.0 38336000000.0 17525700000.0 258699000000.0 271236000000.0 270178000000.0 255534000000.0 238832000000.0 296584000000.0 762925000000.0 455512000000.0 223012000000.0 883968000000.0 1.23881e+12 1.26156e+12 1.2079e+12 1.18754e+12 1.17905e+12 1.15183e+12 924439000000.0 813343000000.0 717899000000.0 786736000000.0 310159000000.0 1.07429e+12 698643000000.0 984629000000.0 419221000000.0 283383000000.0 26493500000.0 11365200000.0 25409400000.0 100569000000.0 149457000000.0 113105000000.0 44004200000.0 59366100000.0 211066000000.0 322500000000.0 469120000000.0 349841000000.0 177221000000.0 64499200000.0 37037000000.0 443286000000.0 808031000000.0 342247000000.0 193235000000.0 382765000000.0 530823000000.0 621212000000.0 645294000000.0 583571000000.0 447598000000.0 321655000000.0 232429000000.0 206067000000.0 214639000000.0 225455000000.0 229975000000.0 192168000000.0 115137000000.0 1393210000.0 307204000000.0 647769000000.0 463255000000.0 324216000000.0 250867000000.0 188019000000.0 123728000000.0 58310300000.0 5735120000.0 65668600000.0 119314000000.0 164659000000.0 199551000000.0 221889000000.0 230322000000.0 224839000000.0 206711000000.0 70769400000.0 119194000000.0 160751000000.0 193614000000.0 216357000000.0 227201000000.0 222799000000.0 200019000000.0 161146000000.0 122359000000.0 131128000000.0 6958260000.0 286373000000.0 24581600000.0 189029000000.0 438389000000.0 751106000000.0 966085000000.0 1.05731e+12 1.08237e+12 1.06448e+12 1.01126e+12 672261000000.0 559482000000.0 707514000000.0 340891000000.0 1.38645e+12 1.07514e+12 170882000000.0 1.18483e+12 706222000000.0 240283000000.0 100779000000.0 122715000000.0 78405500000.0 39374500000.0 4060910000.0 70511100000.0 70491400000.0 229621000000.0 158239000000.0 293557000000.0 234376000000.0 242768000000.0 125192000000.0 1414720000.0 20909900000.0 261341000000.0 541793000000.0 234987000000.0 202325000000.0 230476000000.0 363627000000.0 473836000000.0 542509000000.0 606449000000.0 520382000000.0 406836000000.0 301478000000.0 220693000000.0 175887000000.0 165599000000.0 228910000000.0 229117000000.0 229704000000.0 228888000000.0 221560000000.0 203022000000.0 174270000000.0 133315000000.0 118486000000.0 737586000000.0 497905000000.0 359236000000.0 177951000000.0 140672000000.0 96955400000.0 49266900000.0 15942200.0 48327700000.0 93632900000.0 133965000000.0 167516000000.0 192872000000.0 209341000000.0 218048000000.0 224593000000.0 243096000000.0 307287000000.0 493588000000.0 831529000000.0 401536000000.0 66336600000.0 175813000000.0 325226000000.0 487368000000.0 690057000000.0 852863000000.0 947768000000.0 980827000000.0 960958000000.0 898374000000.0 799617000000.0 405141000000.0 155219000000.0 213501000000.0 1.17395e+12 563145000000.0 65083900000.0 70900300000.0 133653000000.0 4724180000.0 70723100000.0 305871000000.0 116333000000.0 116382000000.0 7907640000.0 154565000000.0 241358000000.0 139257000000.0 21460100000.0 248458000000.0 273172000000.0 301211000000.0 374727000000.0 561781000000.0 534156000000.0 460356000000.0 354626000000.0 246531000000.0 159176000000.0 108540000000.0 172587000000.0 184105000000.0 195420000000.0 207075000000.0 217650000000.0 228001000000.0 245665000000.0 284746000000.0 341612000000.0 71779400000.0 263782000000.0 192840000000.0 129350000000.0 67719200000.0 8665540000.0 45722000000.0 93348100000.0 132240000000.0 160590000000.0 177070000000.0 181132000000.0 173163000000.0 154416000000.0 126664000000.0 91863700000.0 52019700000.0 9287140000.0 34167400000.0 76345900000.0 115546000000.0 150065000000.0 178646000000.0 201678000000.0 221638000000.0 243202000000.0 276097000000.0 340914000000.0 465523000000.0 605410000000.0 138437000000.0 153928000000.0 511984000000.0 656251000000.0 782706000000.0 861692000000.0 883370000000.0 853621000000.0 779325000000.0 670737000000.0 532140000000.0 234515000000.0 587366000000.0 362504000000.0 331700000000.0 416921000000.0 36491600000.0 153067000000.0 157606000000.0 59579100000.0 100856000000.0 104632000000.0 87563400000.0 19564400000.0 5714570000.0 153293000000.0 486316000000.0 426040000000.0 355106000000.0 447568000000.0 497727000000.0 511545000000.0 477876000000.0 128807000000.0 42606300000.0 102452000000.0 121301000000.0 145998000000.0 169539000000.0 190156000000.0 210190000000.0 238718000000.0 296027000000.0 415785000000.0 641482000000.0 785353000000.0 557988000000.0 382148000000.0 279020000000.0 206510000000.0 142709000000.0 82688000000.0 26829500000.0 23230300000.0 65741900000.0 99165700000.0 122290000000.0 134379000000.0 135344000000.0 125815000000.0 107034000000.0 80632400000.0 48370000000.0 12055600000.0 26412000000.0 65219100000.0 102875000000.0 138137000000.0 169902000000.0 197783000000.0 223144000000.0 250719000000.0 289008000000.0 349849000000.0 164355000000.0 293876000000.0 388645000000.0 737254000000.0 792388000000.0 796475000000.0 748846000000.0 645789000000.0 478161000000.0 222887000000.0 164598000000.0 826304000000.0 413450000000.0 1.15957e+12 60553200000.0 202361000000.0 87050700000.0 10459800000.0 67435500000.0 183263000000.0 400884000000.0 303739000000.0 379994000000.0 358574000000.0 350413000000.0 372194000000.0 412107000000.0 392203000000.0 266368000000.0 193009000000.0 752165000000.0 516903000000.0 376785000000.0 289076000000.0 218056000000.0 154557000000.0 96408000000.0 43931300000.0 1757700000.0 39416000000.0 67980000000.0 86715500000.0 95304600000.0 93954200000.0 83430900000.0 64933200000.0 39912400000.0 9918180000.0 23469700000.0 58668100000.0 443057000000.0 521171000000.0 343342000000.0 129271000000.0 62664000000.0 262717000000.0 338694000000.0 420156000000.0 524450000000.0 638789000000.0 725829000000.0 667168000000.0 558899000000.0 400392000000.0 201413000000.0 948220000000.0 454316000000.0 1.07137e+12 574376000000.0 39388000000.0 31583700000.0 72801700000.0 21499000000.0 598717000000.0 531387000000.0 536684000000.0 522857000000.0 457443000000.0 390730000000.0 344068000000.0 457222000000.0 472860000000.0 427507000000.0 280408000000.0 94704100000.0 37576600000.0 29902700000.0 59123500000.0 94970900000.0 127325000000.0 151917000000.0 172346000000.0 193302000000.0 225254000000.0 284821000000.0 397403000000.0 716010000000.0 138303000000.0 676109000000.0 478312000000.0 372020000000.0 289530000000.0 220231000000.0 159282000000.0 104889000000.0 94311800000.0 129374000000.0 162918000000.0 194442000000.0 224911000000.0 257177000000.0 295773000000.0 345446000000.0 406764000000.0 454938000000.0 399661000000.0 297054000000.0 209773000000.0 198392000000.0 310399000000.0 368899000000.0 439722000000.0 531702000000.0 627326000000.0 701073000000.0 736279000000.0 335713000000.0 131438000000.0 503151000000.0 263978000000.0 668727000000.0 305050000.0 39616700000.0 3387020000.0 269671000000.0 344018000000.0 567589000000.0 650651000000.0 519373000000.0 443375000000.0 373298000000.0 328440000000.0 347116000000.0 398302000000.0 429818000000.0 344220000000.0 83617100000.0 148440000000.0 55345200000.0 3331780000.0 49629500000.0 93494800000.0 122501000000.0 140522000000.0 153670000000.0 168792000000.0 198773000000.0 265411000000.0 436617000000.0 704050000000.0 109317000000.0 515393000000.0 57012300000.0 16331900000.0 16330900000.0 40305600000.0 55170800000.0 60839900000.0 57654500000.0 46406300000.0 28217100000.0 4331910000.0 23969400000.0 55312300000.0 88372900000.0 122261000000.0 156447000000.0 190468000000.0 224423000000.0 259663000000.0 299117000000.0 345565000000.0 395221000000.0 429875000000.0 408082000000.0 345646000000.0 287615000000.0 267197000000.0 272161000000.0 313330000000.0 364798000000.0 442046000000.0 531011000000.0 611030000000.0 666799000000.0 685818000000.0 664042000000.0 601213000000.0 494057000000.0 903326000000.0 69273200000.0 873761000000.0 97513300000.0 150017000000.0 20463400000.0 421726000.0 683545000000.0 266926000000.0 534043000000.0 501212000000.0 465125000000.0 414078000000.0 304241000000.0 250167000000.0 247781000000.0 323523000000.0 377814000000.0 203303000000.0 246245000000.0 168787000000.0 70138000000.0 730932000.0 59025600000.0 100303000000.0 119792000000.0 128286000000.0 134276000000.0 147293000000.0 184082000000.0 278365000000.0 445519000000.0 627020000000.0 421613000000.0 337935000000.0 267950000000.0 207617000000.0 154130000000.0 106512000000.0 64911700000.0 29980800000.0 2428800000.0 17184400000.0 28529200000.0 31604200000.0 26787400000.0 14814900000.0 3340880000.0 26661400000.0 54065900000.0 84311900000.0 116352000000.0 149736000000.0 184288000000.0 219958000000.0 257407000000.0 297874000000.0 341981000000.0 387119000000.0 422169000000.0 424979000000.0 394046000000.0 344313000000.0 302333000000.0 288214000000.0 291648000000.0 294447000000.0 351520000000.0 432605000000.0 518264000000.0 588493000000.0 627384000000.0 628138000000.0 591919000000.0 515704000000.0 379500000000.0 103574000000.0 775188000000.0 504214000000.0 585278000000.0 632865000000.0 6865370000.0 3679700000.0 125886000000.0 218622000000.0 482590000000.0 181149000000.0 403887000000.0 343934000000.0 236888000000.0 137792000000.0 120878000000.0 231081000000.0 256930000000.0 235704000000.0 350896000000.0 156284000000.0 45042700000.0 31894200000.0 82143700000.0 109434000000.0 117696000000.0 117608000000.0 119778000000.0 136828000000.0 186842000000.0 279774000000.0 13026400000.0 304722000000.0 306384000000.0 270676000000.0 227114000000.0 183156000000.0 141091000000.0 102192000000.0 67703400000.0 38764500000.0 16252800000.0 796246000.0 7243500000.0 7829210000.0 1272950000.0 11801400000.0 30533500000.0 53953500000.0 81079800000.0 110956000000.0 142902000000.0 176723000000.0 212440000000.0 250222000000.0 290551000000.0 333503000000.0 376671000000.0 412394000000.0 428593000000.0 308391000000.0 275930000000.0 270699000000.0 501576000000.0 554393000000.0 568144000000.0 544629000000.0 481255000000.0 363256000000.0 90777300000.0 19132200000.0 600436000000.0 24529500000.0 35912400000.0 232115000000.0 397589000000.0 166030000000.0 439516000000.0 431717000000.0 386205000000.0 320030000000.0 154404000000.0 409870000000.0 515103000000.0 72286400000.0 166693000000.0 206417000000.0 203290000000.0 182392000000.0 154122000000.0 123413000000.0 93252500000.0 65804100000.0 42635900000.0 24895800000.0 13409900000.0 8690250000.0 10889100000.0 19705700000.0 419760000000.0 390654000000.0 351933000000.0 263476000000.0 326800000000.0 417399000000.0 476084000000.0 415816000000.0 304939000000.0 55656200000.0 663779000000.0 432688000000.0 442858000000.0 64145100000.0 129070000000.0 3386200000.0 11002300000.0 354015000000.0 396417000000.0 406279000000.0 13341100000.0 50374500000.0 137310000000.0 47222800000.0 568074000000.0 227966000000.0 90403300000.0 26315300000.0 85667600000.0 108604000000.0 115600000000.0 113452000000.0 109660000000.0 114482000000.0 139646000000.0 193084000000.0 274844000000.0 380782000000.0 407005000000.0 134083000000.0 74982900000.0 34393100000.0 54069000000.0 77970800000.0 105328000000.0 135380000000.0 167774000000.0 202504000000.0 239542000000.0 278932000000.0 320348000000.0 361874000000.0 398651000000.0 422763000000.0 426967000000.0 411500000000.0 380409000000.0 336905000000.0 291885000000.0 257211000000.0 243055000000.0 213885000000.0 298163000000.0 404939000000.0 477447000000.0 497305000000.0 531552000000.0 563427000000.0 177717000000.0 10549300000.0 37396700000.0 10737100000.0 253748000000.0 340194000000.0 149443000000.0 300082000000.0 368345000000.0 358722000000.0 118337000000.0 114799000000.0 132155000000.0 183210000000.0 522542000000.0 262056000000.0 34522300000.0 50822500000.0 102813000000.0 120679000000.0 122689000000.0 116907000000.0 108711000000.0 105902000000.0 116775000000.0 147383000000.0 199419000000.0 269649000000.0 339393000000.0 301271000000.0 129065000000.0 144886000000.0 140087000000.0 124318000000.0 103264000000.0 80761100000.0 59539300000.0 41582600000.0 28388200000.0 21029200000.0 20099400000.0 25579900000.0 36876700000.0 53241700000.0 74107200000.0 98904800000.0 126858000000.0 157422000000.0 190482000000.0 226025000000.0 263841000000.0 303490000000.0 343588000000.0 380671000000.0 409257000000.0 423323000000.0 419088000000.0 395039000000.0 356622000000.0 313902000000.0 271807000000.0 231452000000.0 197132000000.0 146928000000.0 282442000000.0 393604000000.0 424887000000.0 405818000000.0 345644000000.0 240393000000.0 22428600000.0 352918000000.0 491354000000.0 337047000000.0 468312000000.0 608113000000.0 12679400000.0 69616400000.0 267775000000.0 197256000000.0 137275000000.0 347876000000.0 392304000000.0 344870000000.0 475982000000.0 222598000000.0 261858000000.0 794260000000.0 322343000000.0 134113000000.0 80158500000.0 29158600000.0 103054000000.0 125831000000.0 127164000000.0 120198000000.0 110818000000.0 103849000000.0 105889000000.0 121989000000.0 154411000000.0 201335000000.0 252163000000.0 285532000000.0 204784000000.0 174528000000.0 12734400000.0 71174900000.0 97088300000.0 102426000000.0 95298100000.0 81391400000.0 64887400000.0 48912900000.0 35857200000.0 27456100000.0 24718000000.0 27853600000.0 36561300000.0 50374200000.0 68766200000.0 91089300000.0 116815000000.0 145516000000.0 176722000000.0 210305000000.0 246212000000.0 283881000000.0 321958000000.0 358383000000.0 389764000000.0 411048000000.0 417191000000.0 403390000000.0 371750000000.0 331459000000.0 291615000000.0 251931000000.0 200716000000.0 127111000000.0 79547400000.0 290658000000.0 344705000000.0 334686000000.0 279595000000.0 184517000000.0 5453250000.0 236979000000.0 302136000000.0 22694100000.0 180349000000.0 214760000000.0 52670900000.0 263672000000.0 332485000000.0 427293000000.0 259636000000.0 479221000000.0 87805100000.0 616302000000.0 66243300000.0 148300000000.0 36556800000.0 16698600000.0 26752300000.0 97992100000.0 118476000000.0 117959000000.0 110586000000.0 197939000000.0 29686100000.0 28305700000.0 58241500000.0 68700600000.0 66576800000.0 57345000000.0 45411600000.0 34232400000.0 26324000000.0 23121000000.0 25142100000.0 32406700000.0 44632400000.0 61207200000.0 81433900000.0 105054000000.0 131708000000.0 160917000000.0 192469000000.0 226142000000.0 279533000000.0 239909000000.0 170025000000.0 21439300000.0 235398000000.0 260612000000.0 221387000000.0 135568000000.0 35066300000.0 231597000000.0 377833000000.0 314504000000.0 234863000000.0 180518000000.0 19244900000.0 149945000000.0 267700000000.0 296031000000.0 102866000000.0 100080000000.0 106733000000.0 125456000000.0 155762000000.0 191795000000.0 220995000000.0 224846000000.0 120220000000.0 208624000000.0 58609600000.0 4283960000.0 25308200000.0 36893600000.0 261526000000.0 297843000000.0 333129000000.0 364670000000.0 390036000000.0 405901000000.0 406726000000.0 384624000000.0 345562000000.0 308830000000.0 91981700000.0 99045500000.0 111904000000.0 268911000000.0 287652000000.0 31321900000.0 70381200000.0 197114000000.0 174078000000.0 8465120000.0 413741000000.0 192110000000.0 254855000000.0 286580000000.0 105778000000.0 306825000000.0 195005000000.0 88372000000.0 93573000000.0 108560000000.0 112030000000.0 107259000000.0 100119000000.0 94939900000.0 95729100000.0 105002000000.0 123046000000.0 146961000000.0 169484000000.0 179171000000.0 161730000000.0 47527300000.0 36719900000.0 30333400000.0 22404400000.0 16332200000.0 14095100000.0 16534500000.0 23688100000.0 35210700000.0 50577900000.0 69313800000.0 91131300000.0 115745000000.0 142980000000.0 172404000000.0 203633000000.0 236503000000.0 270242000000.0 303579000000.0 335039000000.0 362711000000.0 384428000000.0 397523000000.0 396463000000.0 364858000000.0 319343000000.0 298057000000.0 276316000000.0 225281000000.0 133985000000.0 129124000000.0 189708000000.0 174358000000.0 100390000000.0 58542200000.0 23511500000.0 175167000000.0 257834000000.0 173833000000.0 229351000000.0 9744220000.0 86095000000.0 109900000000.0 211944000000.0 149065000000.0 203009000000.0 330221000000.0 257046000000.0 392859000000.0 191437000000.0 213498000000.0 76124100000.0 59276000000.0 211794000000.0 77404700000.0 63380700000.0 84388900000.0 97243900000.0 98669400000.0 94242600000.0 88831600000.0 85889500000.0 88344700000.0 97314500000.0 111417000000.0 126491000000.0 135672000000.0 129845000000.0 99126700000.0 14303600000.0 210791000000.0 78814900000.0 30827300000.0 5177420000.0 4255120000.0 3993700000.0 7786980.0 3218530000.0 3043890000.0 1285770000.0 9510030000.0 21233600000.0 36173400000.0 54010700000.0 74482100000.0 97407100000.0 122677000000.0 149960000000.0 178927000000.0 209255000000.0 240452000000.0 271658000000.0 301363000000.0 328300000000.0 351921000000.0 371092000000.0 384359000000.0 388438000000.0 350310000000.0 317983000000.0 299916000000.0 250594000000.0 171330000000.0 38067700000.0 115951000000.0 135906000000.0 145917000000.0 90426100000.0 71550300000.0 104186000000.0 102083000000.0 102260000000.0 20977900000.0 50098400000.0 260250000000.0 285460000000.0 239205000000.0 281978000000.0 254709000000.0 98233600000.0 198650000000.0 111547000000.0 194294000000.0 115307000000.0 90607800000.0 89841300000.0 90841700000.0 87579000000.0 81563600000.0 76127700000.0 73677800000.0 75553400000.0 81474100000.0 89284800000.0 94882400000.0 92532600000.0 75860300000.0 38949500000.0 67199800000.0 208527000000.0 94470500000.0 55617200000.0 37197300000.0 32019300000.0 32471700000.0 32356500000.0 28827900000.0 21434100000.0 10872100000.0 2258900000.0 17643900000.0 35119300000.0 54780900000.0 76371000000.0 99921900000.0 125263000000.0 152151000000.0 180301000000.0 209403000000.0 238547000000.0 266509000000.0 291644000000.0 311429000000.0 327073000000.0 339445000000.0 342742000000.0 323323000000.0 279558000000.0 268660000000.0 246155000000.0 183729000000.0 86191400000.0 22580100000.0 115654000000.0 107086000000.0 107753000000.0 36604700000.0 48488000000.0 108125000000.0 185186000000.0 74799400000.0 88122400000.0 118248000000.0 163387000000.0 76447700000.0 57746200000.0 7777880000.0 166774000000.0 247008000000.0 233591000000.0 91154200000.0 8820470000.0 56913100000.0 19740200000.0 109967000000.0 83594500000.0 74901500000.0 73457100000.0 70946900000.0 63342900000.0 51504100000.0 105042000000.0 14926200000.0 62578000000.0 112610000000.0 96229900000.0 74916300000.0 154033000000.0 144037000000.0 153162000000.0 103734000000.0 29143400000.0 57870800000.0 61253000000.0 51262800000.0 182552000000.0 107924000000.0 27564300000.0 168450000000.0 127296000000.0 101434000000.0 90961000000.0 83705100000.0 75488500000.0 66816600000.0 59823500000.0 56161700000.0 55639400000.0 56682100000.0 56906800000.0 53329000000.0 42041100000.0 19251100000.0 18086600000.0 113682000000.0 205589000000.0 37234400000.0 21661400000.0 5151780000.0 12524700000.0 31705200000.0 52305400000.0 74513900000.0 98280300000.0 123444000000.0 149739000000.0 176725000000.0 203649000000.0 229842000000.0 253508000000.0 271867000000.0 282343000000.0 289585000000.0 294835000000.0 285417000000.0 253541000000.0 227397000000.0 211086000000.0 177638000000.0 4235340000.0 50914900000.0 122660000000.0 37435400000.0 34208700000.0 40249800000.0 2737200000.0 25242200000.0 28171900000.0 59722200000.0 183266000000.0 256911000000.0 274122000000.0 283410000000.0 327939000000.0 48596700000.0 66969800000.0 140522000000.0 118818000000.0 98177700000.0 84761000000.0 71897100000.0 58814800000.0 47244900000.0 38285200000.0 32389700000.0 28233000000.0 23346900000.0 15712000000.0 3735090000.0 14273700000.0 39436600000.0 72897000000.0 156973000000.0 205684000000.0 130552000000.0 120570000000.0 121546000000.0 118174000000.0 105937000000.0 88218100000.0 68628800000.0 50235200000.0 32076000000.0 13842800000.0 4901090000.0 24845300000.0 46027000000.0 68523600000.0 92144600000.0 116650000000.0 141716000000.0 167115000000.0 191862000000.0 214521000000.0 233693000000.0 245849000000.0 243440000000.0 244360000000.0 247322000000.0 222614000000.0 202160000000.0 171256000000.0 157957000000.0 113616000000.0 40237400000.0 36762100000.0 89706000000.0 123511000000.0 15255800000.0 135284000000.0 21937200000.0 14973600000.0 27793700000.0 83273200000.0 83049000000.0 78642300000.0 52327500000.0 91913700000.0 95804300000.0 40843200000.0 39471600000.0 197041000000.0 9130410000.0 26984600000.0 40692300000.0 43875200000.0 55486200000.0 113117000000.0 102548000000.0 86767500000.0 69484500000.0 52069600000.0 35303000000.0 21171400000.0 11038300000.0 2937230000.0 5912280000.0 17315100000.0 32373900000.0 51904300000.0 75529800000.0 101241000000.0 128289000000.0 201468000000.0 213502000000.0 164181000000.0 172312000000.0 173413000000.0 155728000000.0 129666000000.0 104036000000.0 82293000000.0 62806000000.0 44143500000.0 25615500000.0 6564610000.0 13757200000.0 35181300000.0 57500500000.0 80818800000.0 105142000000.0 129610000000.0 152839000000.0 174521000000.0 194416000000.0 209959000000.0 217996000000.0 201526000000.0 207122000000.0 190701000000.0 174082000000.0 141052000000.0 130761000000.0 115217000000.0 70443500000.0 4944000000.0 53728900000.0 68341900000.0 104170000000.0 18476200000.0 66121400000.0 162869000000.0 70370000000.0 33373100000.0 25362300000.0 9035750000.0 35855300000.0 59154600000.0 39289500000.0 63138600000.0 27369500000.0 26183200000.0 1093850000.0 69795700000.0 54806200000.0 38411100000.0 222996000000.0 233379000000.0 206701000000.0 172026000000.0 138144000000.0 115573000000.0 96670900000.0 78274500000.0 96217100000.0 86341200000.0 56717400000.0 15167600000.0 17304200000.0 11129400000.0 9035750000.0 170507000000.0 70121200000.0 99245200000.0 57304600000.0 23981000000.0 46282900000.0 7576140000.0 94902900000.0 120690000000.0 131996000000.0 130711000000.0 90871300000.0 84229900000.0 65430700000.0 43818500000.0 22956200000.0 3974500000.0 10633200000.0 20485200000.0 30743300000.0 44533800000.0 62174900000.0 84639100000.0 112364000000.0 143212000000.0 171101000000.0 191910000000.0 253226000000.0 236465000000.0 60492200000.0 42225100000.0 23048800000.0 2446450000.0 19386400000.0 42178500000.0 65863400000.0 89206200000.0 111528000000.0 132553000000.0 151207000000.0 166484000000.0 174775000000.0 166734000000.0 157666000000.0 151592000000.0 143788000000.0 116547000000.0 98785400000.0 171948000000.0 11902400000.0 43084000000.0 39273300000.0 81613900000.0 80294300000.0 57264100000.0 13501900000.0 34417600000.0 57458400000.0 47504400000.0 26741600000.0 140416000000.0 58472500000.0 47476900000.0 8173240000.0 321738000.0 89291100000.0 74693800000.0 48843800000.0 24139900000.0 994719000.0 19916000000.0 33134600000.0 42283800000.0 54484800000.0 70997000000.0 94338700000.0 126303000000.0 167179000000.0 214534000000.0 257680000000.0 284390000000.0 315391000000.0 287631000000.0 303919000000.0 252454000000.0 201033000000.0 166809000000.0 145481000000.0 131447000000.0 117139000000.0 100685000000.0 83178100000.0 65102300000.0 45281300000.0 23690900000.0 1143900000.0 21968300000.0 45800900000.0 69418600000.0 91131400000.0 109358000000.0 124347000000.0 134638000000.0 131907000000.0 124682000000.0 111304000000.0 104307000000.0 95789300000.0 70700500000.0 72874700000.0 74105700000.0 64955900000.0 35415800000.0 18184400000.0 3056810000.0 28347100000.0 48431100000.0 119961000000.0 47410800000.0 24148500000.0 40102500000.0 29249900000.0 41073900000.0 9035750000.0 9035750000.0 9050060000.0 31164500000.0 17658900000.0 31879400000.0 16857900000.0 101227000000.0 7086020000.0 51525400000.0 43637600000.0 43251400000.0 27266700000.0 70572400000.0 31636900000.0 51103200000.0 64909400000.0 125991000000.0 149570000000.0 149834000000.0 154791000000.0 161101000000.0 153127000000.0 140231000000.0 126983000000.0 109893000000.0 90680000000.0 70149700000.0 47554300000.0 23534400000.0 1330330000.0 27445100000.0 53678800000.0 28121800000.0 3170900000.0 27584200000.0 45735500000.0 67584700000.0 99824200000.0 86947100000.0 59983000000.0 33778300000.0 64748800000.0 28473300000.0 2727570000.0 7782450000.0 16936200000.0 5537470000.0 195401000.0 47069200000.0 58398300000.0 54377500000.0 34526100000.0 77564300000.0 74250500000.0 70151200000.0 64648000000.0 59062200000.0 55315400000.0 48458500000.0 36432400000.0 23488100000.0 10748600000.0 996471000.0 11015400000.0 20436300000.0 78086100000.0 99155400000.0 114880000000.0 123027000000.0 124322000000.0 116863000000.0 105369000000.0 91478600000.0 71291800000.0 31838100000.0 8910010000.0 8660260000.0 23794000000.0 15861800000.0 19061200000.0 20807200000.0 27718800000.0 29643200000.0 20410900000.0 16120000000.0 35104000000.0 37539600000.0 21700800000.0 35305300000.0 44624800000.0 64835100000.0 43345800000.0 35595000000.0 29618000000.0 23980400000.0 20140900000.0 17954900000.0 12705900000.0 4086160000.0 3323920000.0 9582280000.0 14684800000.0 18541800000.0 21249500000.0 23696000000.0 20537300000.0 17927000000.0 37034800000.0 10386700000.0 2001610000.0 14297100000.0 38494200000.0 46673600000.0 63068900000.0 71259300000.0 77264800000.0 86528200000.0 93522700000.0 98382500000.0 103195000000.0 106330000000.0 108244000000.0 109820000000.0 110758000000.0 110594000000.0 108883000000.0 106057000000.0 102634000000.0 99836400000.0 94307000000.0 84947300000.0 73572100000.0 55851400000.0 42218200000.0 44385400000.0 45465800000.0 46522800000.0 39449500000.0 9035760000.0 9034470000.0 6257910000.0 5403440000.0 43621100000.0 73735900000.0 57170500000.0 37360300000.0 30390300000.0 17723800000.0 21841900000.0 9035750000.0 9038250000.0 9035750000.0 13900700000.0 11365200000.0 10710000000.0 28589400000.0 8783140000.0 16218700000.0 15548400000.0 14628700000.0 21591400000.0 14148400000.0 16509800000.0 20133700000.0 30421700000.0 30634900000.0 33159000000.0 33907700000.0 35365000000.0 36591600000.0 37686300000.0 38647000000.0 39448900000.0 20812100000.0 20924000000.0 18596900000.0 9035750000.0 9027470000.0 9035750000.0 24406000000.0 18008000000.0 15799100000.0 11842500000.0 13078900000.0 9033400000.0 13681300000.0 16533500000.0 19514200000.0 21320600000.0 21142600000.0 9035750000.0 21128200000.0 20326000000.0 19504000000.0 18627200000.0 17323300000.0 16045700000.0 16031100000.0 16583600000.0 16181700000.0 15582500000.0 14918600000.0 14434000000.0 14290600000.0 14438200000.0 14993300000.0 16101500000.0 39682300000.0 39743600000.0 39748500000.0 39342700000.0 38379100000.0 36937100000.0 35706700000.0 34613000000.0 33768600000.0 32157800000.0 29451900000.0 26993100000.0 20693700000.0 18660000000.0 20152700000.0 9035750000.0 21028500000.0 30352500000.0 