# vtk DataFile Version 2.0
Time step 86
ASCII
DATASET UNSTRUCTURED_GRID
POINTS 5000 float
231914.0 145544.0 0
218722.0 148395.0 0
226238.0 148024.0 0
230536.0 148650.0 0
235793.0 147793.0 0
242295.0 149153.0 0
248872.0 150348.0 0
273544.0 148895.0 0
279621.0 147171.0 0
192832.0 154886.0 0
199006.0 153444.0 0
207516.0 150748.0 0
203825.0 154908.0 0
213163.0 152129.0 0
218513.0 153949.0 0
222661.0 150745.0 0
223808.0 155038.0 0
227818.0 152514.0 0
232817.0 152614.0 0
238121.0 152710.0 0
242975.0 154794.0 0
252322.0 154607.0 0
255337.0 151451.0 0
259840.0 153132.0 0
263847.0 151362.0 0
265053.0 155753.0 0
268851.0 152045.0 0
276076.0 152715.0 0
272866.0 155293.0 0
280653.0 153282.0 0
285918.0 151505.0 0
288134.0 155117.0 0
291691.0 150828.0 0
291376.0 155681.0 0
295051.0 154682.0 0
299951.0 154762.0 0
305345.0 155514.0 0
189453.0 160639.0 0
196762.0 157310.0 0
201003.0 157262.0 0
205034.0 159973.0 0
209017.0 156309.0 0
213940.0 157162.0 0
218525.0 159889.0 0
228084.0 156911.0 0
224397.0 160283.0 0
232647.0 157855.0 0
238128.0 158223.0 0
243427.0 160133.0 0
247969.0 156582.0 0
252515.0 158752.0 0
256585.0 156264.0 0
261036.0 157413.0 0
264161.0 160579.0 0
268986.0 158896.0 0
273733.0 159356.0 0
277754.0 157748.0 0
284697.0 156308.0 0
281967.0 159511.0 0
288705.0 159074.0 0
293841.0 159199.0 0
298949.0 160367.0 0
304550.0 160814.0 0
194380.0 161077.0 0
199649.0 160937.0 0
207460.0 165635.0 0
211518.0 161338.0 0
215383.0 164991.0 0
221400.0 163087.0 0
226870.0 164907.0 0
229286.0 161021.0 0
234565.0 162132.0 0
231265.0 164317.0 0
239317.0 163968.0 0
244618.0 165198.0 0
248427.0 161662.0 0
253433.0 163428.0 0
257807.0 161021.0 0
261549.0 164541.0 0
267611.0 165009.0 0
272305.0 162781.0 0
275094.0 164432.0 0
278689.0 162871.0 0
285214.0 163380.0 0
291231.0 163961.0 0
295993.0 164313.0 0
301322.0 165229.0 0
306147.0 165564.0 0
311612.0 164666.0 0
186907.0 170968.0 0
189111.0 166543.0 0
194761.0 166222.0 0
200739.0 166892.0 0
212048.0 169560.0 0
220882.0 167293.0 0
225530.0 169219.0 0
230437.0 168843.0 0
234911.0 166497.0 0
242789.0 168673.0 0
239614.0 168619.0 0
249387.0 166533.0 0
245983.0 169538.0 0
253850.0 168077.0 0
257313.0 165706.0 0
258191.0 169902.0 0
263524.0 169691.0 0
272678.0 166650.0 0
276884.0 167576.0 0
281329.0 166852.0 0
287624.0 169458.0 0
293266.0 168647.0 0
297441.0 167959.0 0
302064.0 169756.0 0
305640.0 169385.0 0
190881.0 173456.0 0
196274.0 171569.0 0
201779.0 172770.0 0
207139.0 171848.0 0
211421.0 174467.0 0
217026.0 171575.0 0
222524.0 172127.0 0
226179.0 172810.0 0
230194.0 174372.0 0
235760.0 171906.0 0
241758.0 172658.0 0
246426.0 173356.0 0
249770.0 171055.0 0
250000.0 175175.0 0
254120.0 172879.0 0
259273.0 175331.0 0
265280.0 175019.0 0
271085.0 172015.0 0
275334.0 175638.0 0
277394.0 172278.0 0
280957.0 175985.0 0
282031.0 171241.0 0
284585.0 173965.0 0
288647.0 174260.0 0
291147.0 172981.0 0
294379.0 172565.0 0
298610.0 172338.0 0
300577.0 176215.0 0
304149.0 173651.0 0
310544.0 171739.0 0
316135.0 175799.0 0
183390.0 178130.0 0
187455.0 176828.0 0
186644.0 181243.0 0
192113.0 179317.0 0
198122.0 177262.0 0
205250.0 177756.0 0
211183.0 179424.0 0
215247.0 175896.0 0
216286.0 180066.0 0
219902.0 176260.0 0
225033.0 176605.0 0
228998.0 179520.0 0
234671.0 178204.0 0
244219.0 177406.0 0
239978.0 179983.0 0
248790.0 179475.0 0
253934.0 178063.0 0
262702.0 179012.0 0
267808.0 179890.0 0
272264.0 177676.0 0
277002.0 180019.0 0
286462.0 177681.0 0
282409.0 180676.0 0
291315.0 176434.0 0
295970.0 177093.0 0
299906.0 180450.0 0
304268.0 178541.0 0
308056.0 176752.0 0
312089.0 177086.0 0
309786.0 181095.0 0
314750.0 180265.0 0
182332.0 183315.0 0
185398.0 186318.0 0
190218.0 185254.0 0
195382.0 183443.0 0
199858.0 182477.0 0
205180.0 184288.0 0
211028.0 184805.0 0
216486.0 185185.0 0
222057.0 182167.0 0
227300.0 183674.0 0
232001.0 183441.0 0
236667.0 183195.0 0
243502.0 181532.0 0
241393.0 185532.0 0
246564.0 183811.0 0
252380.0 183832.0 0
258468.0 181113.0 0
263483.0 183672.0 0
269156.0 185529.0 0
272340.0 181731.0 0
275057.0 185592.0 0
279938.0 184473.0 0
286627.0 182656.0 0
290700.0 180663.0 0
290655.0 185744.0 0
295288.0 182444.0 0
299851.0 185754.0 0
304912.0 183481.0 0
309677.0 186495.0 0
313643.0 184278.0 0
317230.0 183758.0 0
182788.0 189503.0 0
186354.0 190091.0 0
190288.0 190258.0 0
195060.0 188362.0 0
199594.0 186812.0 0
199686.0 191459.0 0
202678.0 188269.0 0
203671.0 190806.0 0
207584.0 189613.0 0
213349.0 189965.0 0
219105.0 189953.0 0
223746.0 187756.0 0
226539.0 190820.0 0
229325.0 187466.0 0
234968.0 188170.0 0
239871.0 190965.0 0
244293.0 189685.0 0
248749.0 188356.0 0
258130.0 187622.0 0
264432.0 188917.0 0
274267.0 190763.0 0
279081.0 189126.0 0
284354.0 187084.0 0
295122.0 187122.0 0
294019.0 191808.0 0
299805.0 191642.0 0
304906.0 188906.0 0
316468.0 187449.0 0
312909.0 190118.0 0
319065.0 190031.0 0
183786.0 193576.0 0
188733.0 194867.0 0
193372.0 193164.0 0
196732.0 196229.0 0
201353.0 196055.0 0
205004.0 193740.0 0
209894.0 194824.0 0
216256.0 195164.0 0
222925.0 192654.0 0
226784.0 195261.0 0
230932.0 192142.0 0
235734.0 193566.0 0
239361.0 195534.0 0
244002.0 194792.0 0
249300.0 193354.0 0
252966.0 190484.0 0
260044.0 194007.0 0
265281.0 193417.0 0
269249.0 190748.0 0
269233.0 195173.0 0
278098.0 194302.0 0
283399.0 192531.0 0
288630.0 190822.0 0
293299.0 196488.0 0
296875.0 195560.0 0
304699.0 193675.0 0
309931.0 194991.0 0
316560.0 192766.0 0
185371.0 197884.0 0
182055.0 201032.0 0
188968.0 199582.0 0
192583.0 197617.0 0
195686.0 201319.0 0
200852.0 200632.0 0
205540.0 198183.0 0
212610.0 199435.0 0
221613.0 197511.0 0
226580.0 200381.0 0
232146.0 197707.0 0
236960.0 197823.0 0
240408.0 199486.0 0
244490.0 199502.0 0
248227.0 197827.0 0
254114.0 195162.0 0
252153.0 199782.0 0
257873.0 199954.0 0
264009.0 197721.0 0
268797.0 199948.0 0
273526.0 196616.0 0
273578.0 200624.0 0
277413.0 199305.0 0
282489.0 197895.0 0
288334.0 196750.0 0
296270.0 200682.0 0
301364.0 197203.0 0
306302.0 199921.0 0
310970.0 200687.0 0
316082.0 198518.0 0
322117.0 200443.0 0
186605.0 203841.0 0
191186.0 202865.0 0
194036.0 206847.0 0
200353.0 206390.0 0
204564.0 202267.0 0
206496.0 206077.0 0
208389.0 201632.0 0
212055.0 204335.0 0
217319.0 201295.0 0
221954.0 202737.0 0
226150.0 205827.0 0
231210.0 203225.0 0
236300.0 201708.0 0
242882.0 202667.0 0
239546.0 205249.0 0
247814.0 202879.0 0
253548.0 204965.0 0
259684.0 205260.0 0
263748.0 202221.0 0
267458.0 204429.0 0
271627.0 203968.0 0
280883.0 202737.0 0
276205.0 203974.0 0
285707.0 201774.0 0
287695.0 205095.0 0
290570.0 202046.0 0
294795.0 205172.0 0
302018.0 202068.0 0
299369.0 206567.0 0
305800.0 205778.0 0
312740.0 206176.0 0
318330.0 203933.0 0
181106.0 207196.0 0
186418.0 209283.0 0
190980.0 211314.0 0
195456.0 211732.0 0
204272.0 210555.0 0
210852.0 209337.0 0
216257.0 205811.0 0
216000.0 210265.0 0
220763.0 207824.0 0
226922.0 211229.0 0
230624.0 207679.0 0
231742.0 211029.0 0
234916.0 206032.0 0
237308.0 209359.0 0
244168.0 206592.0 0
241502.0 210014.0 0
248820.0 207912.0 0
245471.0 210742.0 0
252891.0 210809.0 0
257033.0 208752.0 0
264309.0 207056.0 0
260824.0 209677.0 0
269681.0 208314.0 0
273622.0 206887.0 0
279472.0 207593.0 0
283913.0 205934.0 0
282951.0 209631.0 0
286856.0 208941.0 0
291353.0 207266.0 0
295340.0 210666.0 0
303250.0 210717.0 0
308436.0 211068.0 0
317717.0 210188.0 0
182906.0 213322.0 0
187879.0 216050.0 0
192372.0 215079.0 0
199874.0 212135.0 0
196342.0 216516.0 0
201466.0 216569.0 0
207819.0 213704.0 0
212784.0 213901.0 0
217327.0 214469.0 0
221838.0 213056.0 0
225615.0 216498.0 0
230226.0 214879.0 0
234996.0 213385.0 0
239226.0 212734.0 0
242795.0 214341.0 0
248720.0 213387.0 0
254637.0 215055.0 0
257673.0 212401.0 0
265685.0 211114.0 0
261751.0 213280.0 0
265837.0 215160.0 0
270144.0 212908.0 0
275084.0 210671.0 0
274352.0 215598.0 0
280062.0 212267.0 0
284970.0 213367.0 0
289948.0 212084.0 0
299440.0 212531.0 0
293362.0 214922.0 0
302858.0 215802.0 0
308130.0 216276.0 0
313378.0 212841.0 0
319652.0 217540.0 0
181394.0 218556.0 0
185396.0 220734.0 0
189560.0 221244.0 0
192256.0 218257.0 0
194788.0 221888.0 0
199084.0 220025.0 0
202821.0 221218.0 0
205684.0 217832.0 0
210212.0 217644.0 0
212277.0 220725.0 0
214725.0 217799.0 0
220498.0 218291.0 0
224657.0 220885.0 0
233622.0 217724.0 0
229227.0 218817.0 0
238376.0 216503.0 0
241926.0 219036.0 0
246444.0 217475.0 0
251151.0 216919.0 0
255690.0 218491.0 0
252965.0 220109.0 0
258469.0 216192.0 0
262011.0 217123.0 0
265391.0 220048.0 0
269986.0 217341.0 0
270644.0 221138.0 0
275255.0 220507.0 0
279006.0 216703.0 0
280354.0 221129.0 0
283709.0 218024.0 0
288963.0 217202.0 0
291259.0 221290.0 0
297703.0 216453.0 0
293992.0 218949.0 0
300453.0 220222.0 0
305392.0 220891.0 0
309253.0 219975.0 0
313452.0 218675.0 0
181192.0 227043.0 0
182098.0 222846.0 0
185640.0 225290.0 0
190516.0 225799.0 0
194684.0 227066.0 0
199440.0 223859.0 0
203363.0 226262.0 0
207773.0 222185.0 0
216391.0 221681.0 0
212675.0 224429.0 0
216673.0 225910.0 0
220781.0 223366.0 0
227932.0 222032.0 0
232114.0 221754.0 0
229841.0 224686.0 0
234015.0 225741.0 0
237103.0 221249.0 0
238807.0 225336.0 0
241322.0 222712.0 0
242997.0 225691.0 0
249410.0 220519.0 0
245331.0 222214.0 0
249242.0 224235.0 0
254121.0 224412.0 0
259365.0 221258.0 0
263718.0 224982.0 0
268083.0 223542.0 0
272319.0 225133.0 0
277616.0 225262.0 0
286685.0 222451.0 0
282279.0 224767.0 0
293000.0 224974.0 0
296586.0 222240.0 0
301171.0 224582.0 0
305731.0 226456.0 0
310146.0 223526.0 0
315232.0 225931.0 0
184080.0 230986.0 0
188146.0 229522.0 0
191689.0 231806.0 0
198586.0 227567.0 0
200907.0 230022.0 0
208599.0 227434.0 0
213570.0 228587.0 0
220363.0 228172.0 0
225409.0 225793.0 0
229993.0 228364.0 0
236853.0 228791.0 0
240944.0 229199.0 0
246322.0 226039.0 0
245116.0 229244.0 0
249914.0 228948.0 0
254939.0 229675.0 0
258774.0 226637.0 0
262306.0 229325.0 0
268196.0 226786.0 0
266394.0 229743.0 0
270561.0 229346.0 0
274645.0 228889.0 0
280888.0 228667.0 0
285585.0 227607.0 0
289521.0 226508.0 0
293336.0 228821.0 0
297291.0 226982.0 0
296360.0 232065.0 0
301572.0 230042.0 0
306550.0 231480.0 0
310376.0 228617.0 0
310463.0 232714.0 0
314167.0 231330.0 0
183189.0 235394.0 0
188564.0 236410.0 0
193640.0 235529.0 0
196546.0 231745.0 0
200895.0 234410.0 0
204959.0 231201.0 0
205773.0 236257.0 0
210327.0 232425.0 0
216513.0 232096.0 0
220438.0 235761.0 0
221688.0 232067.0 0
225930.0 230987.0 0
224292.0 234678.0 0
227968.0 235478.0 0
230093.0 232520.0 0
233723.0 230988.0 0
238168.0 233434.0 0
242938.0 232574.0 0
247064.0 233195.0 0
251944.0 233603.0 0
258978.0 231295.0 0
256067.0 233114.0 0
255217.0 235794.0 0
259175.0 235183.0 0
263418.0 233768.0 0
268484.0 233163.0 0
272811.0 232479.0 0
275809.0 235323.0 0
277524.0 231455.0 0
280857.0 232262.0 0
279219.0 234449.0 0
282386.0 235184.0 0
284579.0 231617.0 0
289732.0 230902.0 0
292256.0 235798.0 0
303050.0 235827.0 0
308177.0 235398.0 0
311870.0 237080.0 0
190733.0 242082.0 0
195608.0 240020.0 0
200886.0 239296.0 0
209028.0 240559.0 0
212287.0 236369.0 0
216376.0 236395.0 0
214554.0 240102.0 0
218856.0 239332.0 0
224664.0 239698.0 0
233178.0 235782.0 0
230214.0 238848.0 0
237076.0 237549.0 0
234093.0 240464.0 0
238327.0 240828.0 0
242750.0 237478.0 0
248851.0 237379.0 0
252911.0 237507.0 0
257316.0 239700.0 0
262216.0 238182.0 0
264951.0 240811.0 0
266483.0 237322.0 0
271074.0 236679.0 0
269028.0 241004.0 0
274627.0 240428.0 0
279388.0 237535.0 0
286939.0 235221.0 0
283535.0 238804.0 0
288375.0 239690.0 0
293949.0 240360.0 0
297561.0 237388.0 0
307269.0 239116.0 0
310683.0 241506.0 0
314177.0 243764.0 0
194391.0 245153.0 0
204023.0 241803.0 0
205894.0 245778.0 0
209962.0 244554.0 0
213453.0 244334.0 0
217669.0 243078.0 0
220745.0 241961.0 0
221609.0 244847.0 0
225803.0 245251.0 0
229829.0 242866.0 0
233867.0 245132.0 0
237783.0 244284.0 0
242219.0 243164.0 0
246611.0 241334.0 0
248639.0 244565.0 0
245425.0 245097.0 0
251917.0 241631.0 0
256629.0 245476.0 0
261654.0 242265.0 0
266017.0 244761.0 0
271348.0 245572.0 0
279749.0 241298.0 0
276903.0 245368.0 0
283922.0 244227.0 0
290654.0 243906.0 0
298230.0 242505.0 0
294985.0 244760.0 0
303542.0 242365.0 0
302882.0 247259.0 0
199755.0 245294.0 0
207435.0 250456.0 0
210341.0 247222.0 0
211259.0 250452.0 0
213532.0 247738.0 0
217915.0 247295.0 0
222557.0 248645.0 0
226525.0 249606.0 0
229943.0 247473.0 0
233262.0 249869.0 0
237047.0 248161.0 0
240305.0 246935.0 0
243669.0 247965.0 0
240651.0 251114.0 0
247354.0 248175.0 0
249950.0 251229.0 0
251683.0 247064.0 0
254436.0 250771.0 0
258972.0 250752.0 0
261628.0 246316.0 0
264154.0 249775.0 0
268424.0 249228.0 0
272058.0 251186.0 0
274015.0 248342.0 0
279988.0 247430.0 0
287706.0 246478.0 0
282423.0 250529.0 0
293033.0 248243.0 0
298182.0 248674.0 0
202955.0 250251.0 0
201552.0 254042.0 0
208339.0 254380.0 0
204652.0 254182.0 0
212337.0 254258.0 0
215297.0 251059.0 0
216298.0 255464.0 0
220127.0 252552.0 0
224973.0 253552.0 0
227732.0 255377.0 0
229879.0 252391.0 0
233932.0 254589.0 0
236760.0 251775.0 0
238497.0 255462.0 0
242283.0 255015.0 0
245229.0 252177.0 0
248344.0 255421.0 0
252339.0 254776.0 0
259382.0 254982.0 0
256090.0 254530.0 0
262541.0 253608.0 0
267217.0 254497.0 0
276752.0 250957.0 0
271622.0 255388.0 0
275250.0 255151.0 0
280086.0 255643.0 0
284841.0 255276.0 0
288056.0 251007.0 0
293254.0 253528.0 0
297767.0 253279.0 0
302750.0 255689.0 0
202471.0 257432.0 0
206187.0 258408.0 0
208928.0 261424.0 0
213923.0 257926.0 0
210365.0 257885.0 0
212644.0 261219.0 0
218973.0 257314.0 0
216704.0 259989.0 0
222611.0 257373.0 0
219881.0 260290.0 0
226706.0 258645.0 0
230232.0 256731.0 0
233106.0 258354.0 0
230333.0 260797.0 0
234483.0 261705.0 0
235769.0 257813.0 0
238495.0 259570.0 0
241380.0 257718.0 0
242606.0 261167.0 0
245151.0 257576.0 0
249979.0 258478.0 0
247620.0 261322.0 0
253818.0 258363.0 0
257978.0 258471.0 0
262784.0 257842.0 0
264349.0 261180.0 0
266064.0 258848.0 0
268679.0 258821.0 0
271497.0 259125.0 0
273906.0 258129.0 0
276926.0 259310.0 0
280459.0 260506.0 0
284039.0 259326.0 0
288596.0 257381.0 0
290105.0 261225.0 0
293314.0 258852.0 0
297341.0 257196.0 0
297925.0 260789.0 0
304194.0 261458.0 0
202407.0 261457.0 0
202293.0 265033.0 0
205683.0 262141.0 0
208169.0 264141.0 0
205489.0 265089.0 0
208924.0 266505.0 0
211035.0 264325.0 0
219025.0 263012.0 0
215370.0 264042.0 0
218546.0 266677.0 0
223370.0 262061.0 0
221218.0 265271.0 0
224484.0 266632.0 0
227463.0 263215.0 0
231169.0 264504.0 0
234733.0 265815.0 0
238486.0 263594.0 0
241802.0 265576.0 0
245028.0 264245.0 0
248051.0 265533.0 0
251767.0 261670.0 0
250587.0 264238.0 0
253729.0 266412.0 0
255623.0 262428.0 0
260352.0 262426.0 0
257674.0 265255.0 0
264350.0 265073.0 0
260608.0 266802.0 0
267015.0 261576.0 0
270299.0 262611.0 0
267847.0 264732.0 0
270162.0 266345.0 0
273708.0 261626.0 0
273266.0 265693.0 0
277424.0 264060.0 0
282296.0 264390.0 0
286721.0 262621.0 0
289612.0 266358.0 0
294558.0 263121.0 0
291312.0 263497.0 0
293712.0 266912.0 0
297983.0 264243.0 0
197681.0 273620.0 0
202320.0 268445.0 0
205983.0 268581.0 0
212253.0 267141.0 0
209756.0 270002.0 0
214004.0 271495.0 0
215422.0 267894.0 0
218139.0 270378.0 0
221427.0 268650.0 0
228285.0 267266.0 0
224780.0 271279.0 0
228740.0 271395.0 0
232266.0 269113.0 0
238112.0 267512.0 0
235996.0 269613.0 0
238124.0 271219.0 0
241165.0 269580.0 0
245317.0 268480.0 0
248357.0 272000.0 0
250130.0 268148.0 0
252894.0 271687.0 0
257578.0 268096.0 0
259889.0 270132.0 0
255495.0 269669.0 0
263634.0 270041.0 0
267267.0 268044.0 0
270751.0 270334.0 0
274467.0 269103.0 0
278066.0 268138.0 0
280122.0 271921.0 0
281645.0 268701.0 0
285719.0 268260.0 0
283876.0 272184.0 0
290552.0 270782.0 0
287311.0 272427.0 0
294292.0 270077.0 0
297526.0 267527.0 0
297657.0 271049.0 0
202681.0 272132.0 0
202497.0 275687.0 0
206508.0 272553.0 0
206079.0 275800.0 0
210634.0 274674.0 0
216775.0 275582.0 0
220829.0 272413.0 0
221638.0 275504.0 0
228849.0 274954.0 0
225336.0 276282.0 0
232348.0 273662.0 0
235298.0 272416.0 0
238047.0 275812.0 0
240795.0 272895.0 0
243891.0 272777.0 0
242342.0 275941.0 0
246173.0 276142.0 0
250680.0 276177.0 0
257382.0 271637.0 0
255684.0 275336.0 0
260800.0 274203.0 0
267138.0 271641.0 0
269267.0 274830.0 0
265130.0 274939.0 0
273303.0 274047.0 0
276361.0 272354.0 0
277884.0 275367.0 0
284680.0 275663.0 0
281166.0 275582.0 0
288086.0 275671.0 0
294478.0 272880.0 0
291527.0 274634.0 0
294576.0 275705.0 0
297583.0 274456.0 0
201786.0 278679.0 0
202929.0 281896.0 0
204873.0 278582.0 0
208509.0 278312.0 0
206983.0 281014.0 0
212863.0 278866.0 0
210185.0 281816.0 0
216798.0 281072.0 0
220614.0 279492.0 0
224363.0 280186.0 0
228052.0 280365.0 0
233743.0 277391.0 0
230266.0 277757.0 0
231892.0 281302.0 0
235919.0 281632.0 0
243113.0 279161.0 0
239858.0 280114.0 0
247196.0 279564.0 0
253970.0 279046.0 0
250568.0 281284.0 0
259382.0 278860.0 0
256432.0 281617.0 0
263442.0 278613.0 0
267651.0 279788.0 0
275799.0 277139.0 0
272234.0 278746.0 0
272639.0 282514.0 0
279170.0 279279.0 0
275996.0 280632.0 0
282800.0 278587.0 0
282939.0 282062.0 0
286533.0 279570.0 0
290697.0 278247.0 0
289938.0 281254.0 0
293704.0 278374.0 0
293598.0 281553.0 0
297407.0 278008.0 0
297397.0 281369.0 0
196515.0 287252.0 0
202223.0 285156.0 0
206606.0 283804.0 0
205122.0 285380.0 0
207050.0 288114.0 0
213805.0 283578.0 0
209559.0 285126.0 0
218314.0 283851.0 0
216804.0 286501.0 0
222047.0 283982.0 0
220056.0 287698.0 0
225920.0 283583.0 0
227420.0 287209.0 0
230300.0 284498.0 0
233503.0 284334.0 0
232609.0 287409.0 0
238289.0 284862.0 0
235543.0 285995.0 0
240978.0 283287.0 0
244673.0 282722.0 0
242755.0 286416.0 0
248115.0 284923.0 0
245595.0 287805.0 0
253383.0 283886.0 0
251933.0 286478.0 0
260129.0 283643.0 0
256931.0 285648.0 0
262696.0 282043.0 0
262365.0 286522.0 0
265727.0 284143.0 0
269051.0 286828.0 0
269941.0 283582.0 0
272252.0 286063.0 0
279441.0 283058.0 0
275806.0 284236.0 0
280451.0 286114.0 0
283566.0 285294.0 0
286518.0 283376.0 0
290145.0 285295.0 0
294781.0 285292.0 0
298341.0 284096.0 0
297923.0 286694.0 0
303051.0 286584.0 0
195692.0 292171.0 0
202871.0 288409.0 0
202899.0 292078.0 0
206402.0 291292.0 0
212567.0 288102.0 0
210115.0 290911.0 0
216155.0 290459.0 0
223921.0 288341.0 0
219533.0 291022.0 0
226990.0 291379.0 0
230345.0 290283.0 0
233759.0 292468.0 0
235914.0 289253.0 0
239632.0 288119.0 0
237875.0 291670.0 0
239654.0 291428.0 0
243054.0 291412.0 0
249752.0 288934.0 0
246901.0 291066.0 0
249558.0 291792.0 0
254242.0 288077.0 0
252322.0 290598.0 0
259077.0 288616.0 0
255847.0 291144.0 0
260054.0 292880.0 0
263000.0 290196.0 0
265946.0 287921.0 0
269916.0 290059.0 0
266448.0 291160.0 0
273246.0 289106.0 0
273891.0 292543.0 0
277076.0 288147.0 0
280216.0 290562.0 0
276898.0 292556.0 0
282295.0 288529.0 0
284523.0 290940.0 0
286380.0 287749.0 0
289492.0 290586.0 0
286662.0 292785.0 0
293415.0 289320.0 0
297775.0 289331.0 0
297080.0 292671.0 0
201940.0 295446.0 0
202002.0 297994.0 0
208430.0 293993.0 0
205308.0 295207.0 0
208858.0 297348.0 0
205486.0 298199.0 0
213603.0 292981.0 0
211376.0 294751.0 0
211765.0 297085.0 0
217526.0 293987.0 0
215218.0 296564.0 0
218594.0 298013.0 0
223400.0 292977.0 0
220177.0 295607.0 0
228464.0 294285.0 0
225341.0 297738.0 0
231491.0 295469.0 0
237106.0 294753.0 0
234899.0 296953.0 0
239096.0 297969.0 0
240414.0 293905.0 0
244522.0 295249.0 0
241734.0 296287.0 0
247572.0 294072.0 0
249425.0 297324.0 0
251308.0 293825.0 0
255045.0 295195.0 0
258504.0 297538.0 0
263690.0 293938.0 0
262095.0 296974.0 0
267513.0 295226.0 0
271049.0 293700.0 0
274332.0 295832.0 0
271856.0 296574.0 0
278504.0 296314.0 0
281990.0 293526.0 0
284641.0 295891.0 0
290441.0 294487.0 0
287923.0 296616.0 0
293599.0 293716.0 0
294685.0 296768.0 0
291929.0 297337.0 0
297691.0 295965.0 0
202162.0 300627.0 0
202058.0 303304.0 0
209086.0 300475.0 0
205631.0 301654.0 0
211703.0 299567.0 0
213490.0 302894.0 0
214722.0 299903.0 0
217575.0 300677.0 0
221553.0 299242.0 0
220672.0 303014.0 0
229248.0 298366.0 0
227931.0 302402.0 0
224455.0 302961.0 0
232441.0 299159.0 0
231522.0 303029.0 0
236361.0 300009.0 0
235056.0 303162.0 0
242482.0 299434.0 0
239877.0 302115.0 0
243153.0 302317.0 0
245960.0 298867.0 0
247017.0 302976.0 0
253132.0 299300.0 0
250683.0 302003.0 0
255542.0 301961.0 0
258888.0 300995.0 0
264834.0 298033.0 0
262092.0 300186.0 0
263546.0 302334.0 0
269526.0 298633.0 0
266280.0 300877.0 0
273436.0 298899.0 0
271629.0 301899.0 0
276633.0 299874.0 0
279012.0 301828.0 0
281787.0 298616.0 0
285092.0 299002.0 0
282182.0 301932.0 0
288654.0 299062.0 0
286345.0 301280.0 0
289135.0 303078.0 0
295058.0 299530.0 0
291758.0 300400.0 0
298152.0 298431.0 0
298004.0 300848.0 0
202754.0 306250.0 0
206474.0 305221.0 0
210169.0 303728.0 0
211259.0 307068.0 0
216951.0 304085.0 0
214411.0 306734.0 0
217810.0 307779.0 0
221054.0 307359.0 0
224840.0 306981.0 0
227837.0 306861.0 0
231450.0 307396.0 0
237221.0 305206.0 0
239811.0 307160.0 0
234766.0 308052.0 0
241851.0 305193.0 0
244759.0 306390.0 0
249743.0 306545.0 0
252396.0 304789.0 0
253786.0 307708.0 0
260224.0 303937.0 0
255942.0 305067.0 0
258763.0 307510.0 0
263594.0 305498.0 0
262162.0 308175.0 0
268337.0 303555.0 0
266906.0 306875.0 0
270537.0 307850.0 0
274828.0 303247.0 0
271442.0 305101.0 0
274043.0 306631.0 0
277856.0 304280.0 0
277521.0 307110.0 0
280282.0 308529.0 0
280805.0 305339.0 0
285031.0 304412.0 0
283483.0 307043.0 0
288235.0 305753.0 0
286703.0 308275.0 0
293248.0 304004.0 0
291724.0 306752.0 0
294680.0 307982.0 0
296804.0 303834.0 0
297973.0 306777.0 0
196497.0 312116.0 0
202495.0 309311.0 0
201804.0 311930.0 0
207692.0 308589.0 0
205476.0 310574.0 0
210899.0 310970.0 0
214908.0 310307.0 0
217962.0 311247.0 0
221490.0 311203.0 0
225174.0 310511.0 0
227767.0 310199.0 0
227125.0 313012.0 0
230578.0 310874.0 0
233400.0 312377.0 0
237668.0 309393.0 0
235941.0 311891.0 0
240778.0 310468.0 0
243797.0 309811.0 0
247529.0 308665.0 0
248672.0 311762.0 0
245386.0 313078.0 0
251572.0 309612.0 0
253816.0 312617.0 0
256008.0 309605.0 0
259565.0 311009.0 0
257553.0 312568.0 0
262791.0 311638.0 0
266171.0 310595.0 0
268260.0 313899.0 0
270968.0 311210.0 0
274274.0 310409.0 0
277532.0 311251.0 0
282773.0 310274.0 0
280746.0 313243.0 0
285748.0 311278.0 0
289147.0 312511.0 0
290366.0 309312.0 0
293749.0 310594.0 0
292424.0 313179.0 0
297733.0 309351.0 0
297128.0 312309.0 0
303399.0 312486.0 0
202499.0 314517.0 0
201977.0 317458.0 0
209127.0 313768.0 0
205819.0 313699.0 0
205430.0 317473.0 0
208899.0 317533.0 0
214239.0 313758.0 0
212201.0 316147.0 0
214036.0 318406.0 0
217325.0 314771.0 0
217356.0 318323.0 0
220301.0 314271.0 0
222545.0 316276.0 0
220647.0 318653.0 0
224597.0 313905.0 0
229452.0 313779.0 0
226313.0 316344.0 0
228268.0 316191.0 0
232532.0 315645.0 0
229871.0 318132.0 0
238959.0 314346.0 0
235946.0 316632.0 0
242688.0 314623.0 0
240418.0 318042.0 0
243566.0 318016.0 0
246872.0 316783.0 0
250605.0 315313.0 0
255178.0 315595.0 0
258579.0 315785.0 0
256944.0 318653.0 0
262213.0 315288.0 0
265916.0 316464.0 0
268964.0 318462.0 0
273312.0 314150.0 0
271375.0 316565.0 0
274279.0 318122.0 0
275936.0 314899.0 0
279236.0 316983.0 0
284224.0 315004.0 0
282674.0 318221.0 0
287677.0 315989.0 0
290614.0 318017.0 0
287382.0 318943.0 0
290923.0 316171.0 0
294013.0 315758.0 0
297808.0 315497.0 0
297994.0 318084.0 0
202012.0 319923.0 0
201317.0 321975.0 0
205427.0 320232.0 0
204452.0 322817.0 0
207550.0 323389.0 0
209381.0 320744.0 0
212565.0 321076.0 0
217143.0 321588.0 0
215306.0 323541.0 0
219627.0 323010.0 0
222452.0 321685.0 0
225286.0 319170.0 0
227982.0 320674.0 0
226964.0 323897.0 0
232471.0 319511.0 0
231131.0 322690.0 0
236055.0 320263.0 0
239544.0 320739.0 0
244068.0 321094.0 0
241279.0 323632.0 0
247813.0 320365.0 0
252629.0 319519.0 0
250510.0 323110.0 0
258646.0 320919.0 0
255144.0 323348.0 0
261475.0 319850.0 0
264962.0 320180.0 0
261941.0 323760.0 0
268058.0 320230.0 0
269298.0 322697.0 0
265684.0 323374.0 0
271829.0 320752.0 0
273869.0 322706.0 0
276745.0 319132.0 0
280523.0 321058.0 0
277287.0 322452.0 0
284635.0 319904.0 0
282426.0 322604.0 0
285512.0 322685.0 0
290523.0 320134.0 0
288413.0 321812.0 0
294091.0 319089.0 0
293272.0 322874.0 0
297905.0 320559.0 0
297151.0 323311.0 0
197463.0 325135.0 0
201903.0 324197.0 0
202057.0 326651.0 0
205825.0 326636.0 0
212466.0 324516.0 0
209960.0 324556.0 0
212915.0 327849.0 0
209490.0 327958.0 0
219138.0 325543.0 0
216350.0 326532.0 0
224351.0 324143.0 0
221642.0 326184.0 0
224224.0 327433.0 0
220087.0 328536.0 0
229595.0 326151.0 0
226657.0 327387.0 0
233713.0 327471.0 0
234930.0 324045.0 0
238024.0 324888.0 0
238105.0 327561.0 0
244814.0 326543.0 0
241629.0 327583.0 0
245346.0 324107.0 0
247925.0 323937.0 0
249247.0 327072.0 0
246549.0 327885.0 0
251651.0 325224.0 0
254335.0 326729.0 0
252259.0 328747.0 0
258796.0 324558.0 0
258926.0 327664.0 0
263031.0 326565.0 0
270134.0 325484.0 0
266384.0 326527.0 0
270110.0 328188.0 0
272895.0 325349.0 0
274988.0 328039.0 0
278112.0 325920.0 0
279939.0 328696.0 0
281230.0 324852.0 0
283621.0 326102.0 0
283128.0 328822.0 0
286668.0 325557.0 0
290153.0 324837.0 0
290397.0 328303.0 0
286996.0 328730.0 0
294069.0 326217.0 0
293681.0 328744.0 0
297710.0 326175.0 0
297283.0 328949.0 0
202303.0 329303.0 0
203339.0 332513.0 0
205867.0 330084.0 0
209027.0 331389.0 0
214121.0 330451.0 0
211865.0 332398.0 0
217326.0 329568.0 0
218115.0 332408.0 0
221643.0 329839.0 0
224637.0 330637.0 0
220726.0 332448.0 0
223489.0 333721.0 0
229627.0 329619.0 0
227299.0 330871.0 0
228074.0 333474.0 0
232462.0 331354.0 0
230474.0 333698.0 0
236309.0 328810.0 0
239580.0 330502.0 0
235109.0 331308.0 0
237372.0 331240.0 0
236315.0 333631.0 0
238801.0 334120.0 0
243632.0 330615.0 0
241485.0 333219.0 0
246362.0 331455.0 0
249559.0 331373.0 0
252626.0 331519.0 0
256120.0 329255.0 0
255832.0 332804.0 0
259707.0 332797.0 0
261830.0 329888.0 0
264660.0 332629.0 0
267033.0 330040.0 0
269679.0 332999.0 0
272168.0 329965.0 0
273697.0 332176.0 0
276586.0 331272.0 0
279335.0 331666.0 0
275807.0 334101.0 0
279034.0 334183.0 0
283374.0 332436.0 0
290279.0 331558.0 0
287052.0 332392.0 0
293481.0 331879.0 0
297423.0 331764.0 0
201730.0 335394.0 0
201901.0 337436.0 0
206468.0 335158.0 0
206574.0 338661.0 0
210134.0 335266.0 0
212197.0 337068.0 0
214773.0 334204.0 0
214934.0 338979.0 0
218083.0 336868.0 0
221142.0 336581.0 0
226099.0 336129.0 0
228956.0 337449.0 0
234399.0 334814.0 0
231649.0 336465.0 0
238469.0 336381.0 0
235946.0 338001.0 0
243121.0 335613.0 0
240495.0 337818.0 0
245981.0 334830.0 0
248412.0 336561.0 0
250760.0 334395.0 0
253541.0 335477.0 0
250940.0 338273.0 0
253927.0 338618.0 0
257392.0 336325.0 0
257160.0 339240.0 0
260141.0 338864.0 0
260856.0 335879.0 0
264503.0 335740.0 0
264748.0 338984.0 0
267981.0 335613.0 0
269132.0 338146.0 0
272668.0 334905.0 0
272523.0 338166.0 0
277293.0 336083.0 0
275813.0 338227.0 0
280207.0 338194.0 0
282278.0 335853.0 0
285273.0 337601.0 0
290686.0 334852.0 0
288037.0 335968.0 0
289757.0 339201.0 0
293381.0 335212.0 0
292417.0 338494.0 0
297362.0 334470.0 0
296990.0 337535.0 0
202603.0 339761.0 0
202843.0 342565.0 0
208029.0 342070.0 0
205683.0 343863.0 0
210980.0 339852.0 0
212873.0 342783.0 0
218913.0 340890.0 0
215954.0 342149.0 0
219321.0 344102.0 0
224201.0 339367.0 0
221692.0 341615.0 0
226957.0 341660.0 0
229382.0 340311.0 0
225374.0 344362.0 0
228944.0 343962.0 0
232974.0 340555.0 0
230963.0 343824.0 0
238309.0 340793.0 0
235673.0 343888.0 0
243508.0 339622.0 0
241215.0 342660.0 0
246769.0 340190.0 0
246199.0 343980.0 0
249956.0 341634.0 0
253064.0 342573.0 0
256681.0 343310.0 0
262494.0 341199.0 0
264904.0 343375.0 0
260214.0 344166.0 0
267351.0 340044.0 0
269803.0 341739.0 0
267422.0 343049.0 0
272760.0 341813.0 0
277943.0 340490.0 0
275757.0 343470.0 0
282286.0 340661.0 0
285331.0 340609.0 0
280716.0 343004.0 0
282996.0 344572.0 0
286578.0 343762.0 0
290255.0 342707.0 0
293602.0 343497.0 0
296377.0 340804.0 0
298119.0 343921.0 0
202092.0 345317.0 0
202162.0 347605.0 0
205308.0 346557.0 0
207901.0 346885.0 0
208598.0 348966.0 0
205612.0 349389.0 0
210187.0 345052.0 0
212372.0 347645.0 0
214556.0 345922.0 0
217183.0 345474.0 0
217923.0 349341.0 0
222564.0 345170.0 0
220908.0 347919.0 0
227758.0 346461.0 0
225633.0 348209.0 0
232881.0 346429.0 0
229927.0 347613.0 0
239079.0 346247.0 0
243901.0 344564.0 0
242809.0 347359.0 0
248627.0 345549.0 0
245661.0 347373.0 0
251890.0 346212.0 0
253435.0 348774.0 0
255924.0 346980.0 0
257945.0 348615.0 0
264790.0 345755.0 0
261809.0 347216.0 0
268665.0 345440.0 0
266098.0 346800.0 0
269114.0 348294.0 0
271282.0 344817.0 0
273062.0 346947.0 0
271726.0 349780.0 0
275229.0 348442.0 0
278208.0 346122.0 0
279379.0 349547.0 0
282056.0 347182.0 0
284009.0 348522.0 0
290463.0 346105.0 0
286911.0 347111.0 0
294402.0 346641.0 0
291769.0 348627.0 0
298180.0 345951.0 0
297336.0 348512.0 0
302895.0 345338.0 0
202650.0 350195.0 0
202523.0 353046.0 0
207485.0 351190.0 0
205896.0 353308.0 0
210681.0 349751.0 0
210583.0 352624.0 0
213742.0 352205.0 0
214886.0 349606.0 0
218707.0 352998.0 0
215815.0 354207.0 0
222809.0 350106.0 0
221162.0 352624.0 0
224420.0 352694.0 0
227121.0 350969.0 0
229728.0 350765.0 0
232436.0 352994.0 0
234122.0 349587.0 0
237675.0 349842.0 0
236350.0 354099.0 0
243217.0 350244.0 0
240507.0 351957.0 0
248437.0 349233.0 0
245948.0 351924.0 0
251082.0 351542.0 0
253506.0 353926.0 0
255571.0 351107.0 0
259557.0 350510.0 0
257608.0 352480.0 0
263687.0 349973.0 0
262147.0 353227.0 0
266864.0 350298.0 0
268174.0 353737.0 0
272452.0 353575.0 0
275831.0 350971.0 0
280728.0 351977.0 0
277563.0 353091.0 0
283981.0 350951.0 0
282600.0 353852.0 0
288535.0 349681.0 0
286637.0 352630.0 0
290354.0 353756.0 0
293025.0 351311.0 0
296586.0 351750.0 0
297049.0 354905.0 0
202449.0 356003.0 0
202325.0 358751.0 0
206205.0 356904.0 0
209826.0 356019.0 0
213159.0 356073.0 0
210832.0 359462.0 0
215900.0 357762.0 0
219182.0 357405.0 0
221322.0 355417.0 0
224309.0 355679.0 0
221615.0 357884.0 0
224768.0 358559.0 0
227799.0 354628.0 0
229945.0 356064.0 0
227987.0 358956.0 0
232529.0 357696.0 0
236195.0 357556.0 0
239122.0 359169.0 0
240978.0 355351.0 0
244358.0 354838.0 0
241988.0 358583.0 0
244615.0 358581.0 0
248640.0 354069.0 0
245969.0 356855.0 0
248881.0 357607.0 0
251031.0 355516.0 0
255059.0 357029.0 0
252280.0 358952.0 0
259087.0 355004.0 0
258996.0 359131.0 0
262493.0 356857.0 0
265180.0 355315.0 0
262814.0 359054.0 0
268481.0 357458.0 0
265696.0 358634.0 0
268043.0 359594.0 0
271678.0 357942.0 0
275986.0 355313.0 0
274155.0 359976.0 0
276871.0 358092.0 0
279454.0 355370.0 0
279206.0 359977.0 0
284887.0 355857.0 0
281775.0 357534.0 0
284052.0 359459.0 0
287341.0 357685.0 0
290099.0 358535.0 0
292757.0 356213.0 0
294527.0 359019.0 0
297606.0 358097.0 0
298227.0 360659.0 0
202950.0 361560.0 0
203036.0 364705.0 0
206190.0 360138.0 0
207065.0 364949.0 0
208691.0 362149.0 0
212617.0 364007.0 0
214392.0 360721.0 0
217357.0 362041.0 0
217973.0 364617.0 0
219722.0 360558.0 0
223198.0 362013.0 0
229426.0 365559.0 0
226415.0 363894.0 0
229380.0 361703.0 0
231997.0 361386.0 0
232043.0 365281.0 0
235468.0 361856.0 0
239255.0 362354.0 0
242485.0 362188.0 0
245318.0 360797.0 0
247965.0 360960.0 0
246853.0 363942.0 0
249476.0 365175.0 0
251489.0 362264.0 0
254570.0 363371.0 0
255747.0 360898.0 0
257477.0 364068.0 0
260013.0 362571.0 0
262885.0 361528.0 0
265366.0 361992.0 0
267901.0 362439.0 0
269978.0 361169.0 0
271953.0 363024.0 0
274594.0 364442.0 0
275723.0 362492.0 0
278440.0 362947.0 0
282035.0 360906.0 0
280609.0 364400.0 0
283309.0 362899.0 0
284497.0 364864.0 0
285970.0 360809.0 0
288303.0 362708.0 0
293918.0 361988.0 0
290764.0 361459.0 0
297257.0 363323.0 0
302910.0 361862.0 0
202774.0 367852.0 0
205583.0 368194.0 0
202587.0 370650.0 0
209785.0 367510.0 0
212953.0 369163.0 0
215331.0 366232.0 0
218506.0 368665.0 0
220693.0 364598.0 0
224071.0 366576.0 0
221471.0 367594.0 0
225854.0 368402.0 0
229101.0 369183.0 0
232048.0 369405.0 0
235029.0 365349.0 0
238712.0 365330.0 0
235061.0 368756.0 0
237892.0 368957.0 0
243706.0 365174.0 0
240483.0 367472.0 0
245482.0 368127.0 0
248863.0 368995.0 0
251971.0 366028.0 0
254082.0 366639.0 0
252195.0 369686.0 0
258589.0 366366.0 0
255954.0 368936.0 0
256858.0 366808.0 0
258502.0 370129.0 0
261785.0 365160.0 0
264466.0 365010.0 0
264713.0 367875.0 0
260718.0 368051.0 0
268535.0 364790.0 0
266821.0 365806.0 0
267008.0 368290.0 0
269372.0 368777.0 0
270850.0 365866.0 0
273717.0 366717.0 0
271552.0 370281.0 0
274033.0 369521.0 0
276833.0 365878.0 0
278407.0 367836.0 0
281122.0 367624.0 0
283557.0 367992.0 0
286313.0 368257.0 0
287865.0 365553.0 0
288136.0 370414.0 0
290756.0 366503.0 0
293078.0 365169.0 0
297765.0 369263.0 0
294224.0 368576.0 0
297273.0 366304.0 0
299611.0 375572.0 0
196544.0 379924.0 0
201067.0 376517.0 0
199215.0 378439.0 0
196542.0 372238.0 0
203404.0 374173.0 0
207786.0 370004.0 0
205851.0 371651.0 0
209128.0 376779.0 0
209036.0 373494.0 0
212109.0 372714.0 0
215674.0 374028.0 0
216285.0 370680.0 0
220415.0 371371.0 0
218936.0 373509.0 0
223579.0 370993.0 0
221024.0 375630.0 0
224222.0 374910.0 0
227154.0 371656.0 0
230528.0 373926.0 0
227692.0 375052.0 0
232680.0 372489.0 0
235556.0 372515.0 0
238225.0 371819.0 0
240812.0 371437.0 0
243416.0 370407.0 0
241166.0 374484.0 0
243781.0 374475.0 0
245069.0 372643.0 0
247964.0 373212.0 0
254630.0 371905.0 0
250974.0 373449.0 0
253279.0 374914.0 0
257417.0 372557.0 0
258953.0 375540.0 0
261900.0 373779.0 0
262815.0 370535.0 0
265944.0 371380.0 0
268145.0 372839.0 0
264402.0 375281.0 0
273110.0 373499.0 0
270700.0 373886.0 0
276607.0 370940.0 0
279479.0 371713.0 0
275869.0 374752.0 0
278872.0 375283.0 0
281647.0 371621.0 0
283922.0 371169.0 0
283941.0 374260.0 0
281396.0 374963.0 0
285953.0 372695.0 0
287996.0 374755.0 0
291164.0 370169.0 0
290844.0 374615.0 0
293941.0 373669.0 0
296809.0 372197.0 0
296824.0 377490.0 0
301381.0 377973.0 0
302538.0 379909.0 0
189972.0 383208.0 0
188378.0 384464.0 0
194361.0 380932.0 0
192471.0 382855.0 0
194296.0 384686.0 0
203404.0 379531.0 0
198664.0 381796.0 0
201568.0 381433.0 0
205915.0 378767.0 0
206262.0 376375.0 0
208068.0 380754.0 0
211216.0 381736.0 0
211491.0 378398.0 0
215205.0 379328.0 0
212016.0 375509.0 0
214370.0 376792.0 0
217650.0 376617.0 0
217880.0 379014.0 0
220347.0 378445.0 0
224259.0 378702.0 0
222026.0 379959.0 0
228533.0 378417.0 0
231340.0 379123.0 0
226552.0 380583.0 0
232675.0 376504.0 0
235837.0 376064.0 0
234147.0 380415.0 0
238905.0 375451.0 0
237076.0 379878.0 0
240540.0 379862.0 0
242171.0 377736.0 0
245350.0 381368.0 0
244792.0 376956.0 0
247715.0 376671.0 0
244432.0 379273.0 0
248021.0 380034.0 0
251023.0 377280.0 0
255797.0 377357.0 0
258028.0 381787.0 0
259890.0 379501.0 0
262028.0 377751.0 0
266912.0 375903.0 0
264152.0 378621.0 0
268097.0 379269.0 0
271210.0 377397.0 0
274427.0 378499.0 0
278042.0 378255.0 0
282257.0 378169.0 0
280193.0 380098.0 0
284690.0 376348.0 0
286707.0 377919.0 0
284582.0 380485.0 0
288566.0 382560.0 0
291241.0 378280.0 0
288790.0 379998.0 0
294085.0 379084.0 0
294586.0 382857.0 0
299058.0 380517.0 0
297738.0 384094.0 0
300843.0 383429.0 0
304600.0 381016.0 0
306853.0 382272.0 0
305385.0 384930.0 0
303057.0 384595.0 0
308917.0 383186.0 0
311106.0 384722.0 0
180758.0 389206.0 0
184656.0 387242.0 0
186757.0 386452.0 0
182428.0 388048.0 0
184661.0 390138.0 0
186830.0 390675.0 0
191966.0 386595.0 0
189566.0 387196.0 0
188850.0 389639.0 0
197866.0 385022.0 0
195842.0 387765.0 0
192917.0 389005.0 0
200882.0 386082.0 0
199098.0 389948.0 0
200832.0 389081.0 0
203548.0 384065.0 0
205821.0 382746.0 0
204043.0 387912.0 0
206320.0 387210.0 0
207789.0 384847.0 0
210301.0 386163.0 0
213708.0 386803.0 0
215039.0 383103.0 0
217436.0 386001.0 0
218386.0 382172.0 0
221467.0 383543.0 0
224615.0 383095.0 0
226415.0 385174.0 0
228718.0 383486.0 0
229031.0 386995.0 0
231527.0 382733.0 0
233930.0 385432.0 0
236839.0 383468.0 0
239569.0 385071.0 0
242515.0 383107.0 0
244385.0 386287.0 0
246997.0 383509.0 0
247532.0 387276.0 0
250829.0 381627.0 0
250077.0 385033.0 0
255006.0 384911.0 0
254503.0 380906.0 0
257496.0 385051.0 0
259763.0 384066.0 0
262276.0 381789.0 0
263620.0 385082.0 0
265427.0 381661.0 0
266431.0 384659.0 0
269692.0 382809.0 0
272508.0 381962.0 0
273135.0 386025.0 0
275935.0 381670.0 0
274312.0 384135.0 0
278894.0 383327.0 0
281564.0 385634.0 0
284102.0 383126.0 0
286672.0 384781.0 0
289245.0 385169.0 0
290867.0 385911.0 0
289057.0 386903.0 0
291267.0 383145.0 0
291976.0 387991.0 0
293941.0 386131.0 0
295411.0 388146.0 0
297443.0 388012.0 0
299819.0 387267.0 0
302283.0 387498.0 0
307232.0 387619.0 0
304705.0 389159.0 0
308536.0 385756.0 0
309595.0 389593.0 0
312827.0 386531.0 0
315655.0 386481.0 0
317127.0 387717.0 0
313055.0 389668.0 0
316408.0 389349.0 0
318834.0 389078.0 0
177087.0 392988.0 0
173744.0 393587.0 0
179069.0 390989.0 0
179855.0 394742.0 0
182668.0 392062.0 0
183420.0 394991.0 0
187047.0 393733.0 0
191987.0 391723.0 0
189882.0 393491.0 0
195122.0 391739.0 0
196904.0 389960.0 0
193505.0 395006.0 0
195847.0 393829.0 0
200624.0 391717.0 0
197927.0 392344.0 0
199412.0 393440.0 0
203756.0 390979.0 0
206924.0 391344.0 0
203480.0 393630.0 0
208835.0 389305.0 0
210915.0 391420.0 0
213520.0 390328.0 0
216465.0 388575.0 0
215122.0 392455.0 0
218023.0 389692.0 0
219317.0 386472.0 0
220726.0 389032.0 0
223011.0 387230.0 0
221424.0 391716.0 0
224510.0 391633.0 0
225866.0 388614.0 0
228420.0 390701.0 0
231321.0 391077.0 0
231315.0 387916.0 0
235792.0 388455.0 0
239292.0 388251.0 0
242595.0 388662.0 0
249648.0 390329.0 0
246066.0 390855.0 0
252990.0 387178.0 0
253473.0 390332.0 0
256407.0 390323.0 0
256804.0 387896.0 0
258133.0 392064.0 0
259515.0 387666.0 0
262620.0 388105.0 0
261012.0 391817.0 0
267463.0 387484.0 0
265728.0 389507.0 0
269810.0 389931.0 0
270502.0 386660.0 0
272559.0 389923.0 0
275513.0 388982.0 0
276593.0 386391.0 0
276796.0 391732.0 0
279280.0 392527.0 0
279455.0 388631.0 0
281650.0 391100.0 0
286543.0 388444.0 0
283787.0 388734.0 0
283655.0 393126.0 0
289780.0 388947.0 0
288086.0 391550.0 0
291090.0 392826.0 0
293135.0 390454.0 0
295782.0 391725.0 0
298173.0 391229.0 0
300383.0 390207.0 0
301929.0 390798.0 0
300067.0 393848.0 0
302509.0 393723.0 0
305123.0 391947.0 0
308086.0 394442.0 0
308983.0 392102.0 0
311741.0 393927.0 0
314665.0 392298.0 0
315653.0 395104.0 0
317849.0 392253.0 0
320217.0 390885.0 0
322451.0 391720.0 0
319613.0 394388.0 0
324586.0 393991.0 0
327355.0 395056.0 0
166948.0 398018.0 0
164880.0 400171.0 0
169608.0 397293.0 0
171868.0 395888.0 0
167645.0 400980.0 0
174369.0 397452.0 0
176816.0 395873.0 0
173908.0 400585.0 0
178786.0 398345.0 0
181639.0 397535.0 0
177006.0 400316.0 0
181489.0 400405.0 0
186305.0 396666.0 0
183954.0 399508.0 0
190167.0 396219.0 0
187635.0 398386.0 0
189709.0 398619.0 0
191968.0 398127.0 0
193969.0 397139.0 0
196872.0 397487.0 0
197682.0 395182.0 0
201214.0 395060.0 0
200817.0 397477.0 0
202681.0 398705.0 0
207405.0 393595.0 0
204651.0 395563.0 0
204993.0 398639.0 0
206723.0 396513.0 0
209054.0 397079.0 0
210525.0 394007.0 0
211818.0 397963.0 0
213522.0 395068.0 0
217963.0 392895.0 0
216135.0 397853.0 0
219381.0 395929.0 0
221010.0 398231.0 0
221785.0 394721.0 0
224127.0 395548.0 0
227540.0 392907.0 0
226477.0 395038.0 0
230478.0 394385.0 0
233700.0 395715.0 0
234886.0 392029.0 0
237238.0 394196.0 0
239435.0 391707.0 0
238413.0 396777.0 0
241232.0 394982.0 0
243545.0 392162.0 0
244899.0 394976.0 0
247224.0 394211.0 0
249770.0 393595.0 0
253468.0 393507.0 0
251652.0 396990.0 0
256339.0 395120.0 0
259216.0 396483.0 0
264050.0 391843.0 0
262035.0 395323.0 0
264459.0 397798.0 0
265210.0 393544.0 0
267904.0 391643.0 0
266551.0 395571.0 0
269430.0 394283.0 0
272433.0 393062.0 0
272866.0 397237.0 0
274996.0 394486.0 0
276749.0 397730.0 0
279533.0 395354.0 0
282251.0 395828.0 0
285993.0 393339.0 0
284640.0 397478.0 0
287253.0 396876.0 0
288784.0 394766.0 0
290299.0 397968.0 0
295846.0 394682.0 0
292810.0 396065.0 0
298485.0 396690.0 0
300903.0 399066.0 0
305475.0 395495.0 0
302936.0 396945.0 0
306478.0 398454.0 0
304564.0 399956.0 0
310923.0 396387.0 0
309900.0 399023.0 0
313900.0 396939.0 0
314444.0 398852.0 0
316136.0 398413.0 0
317894.0 396405.0 0
322149.0 395598.0 0
321857.0 398501.0 0
319280.0 398875.0 0
325059.0 397736.0 0
327648.0 399907.0 0
329461.0 397382.0 0
332233.0 398058.0 0
334650.0 399333.0 0
155177.0 404996.0 0
160348.0 402332.0 0
158337.0 404402.0 0
162477.0 401124.0 0
165025.0 403458.0 0
161851.0 404365.0 0
170825.0 400880.0 0
167535.0 404051.0 0
170217.0 403934.0 0
174159.0 403201.0 0
172506.0 405008.0 0
178103.0 402990.0 0
180883.0 402194.0 0
176877.0 405105.0 0
185964.0 401256.0 0
181760.0 404443.0 0
184450.0 403680.0 0
189086.0 402513.0 0
191538.0 401522.0 0
188504.0 405405.0 0
192531.0 405134.0 0
194404.0 401396.0 0
195546.0 404152.0 0
197903.0 399984.0 0
199314.0 402105.0 0
202515.0 401729.0 0
206082.0 400406.0 0
204102.0 403948.0 0
208554.0 400496.0 0
206845.0 403727.0 0
211126.0 402478.0 0
214510.0 401404.0 0
219053.0 400027.0 0
223705.0 398894.0 0
222864.0 401804.0 0
226739.0 399448.0 0
229326.0 397642.0 0
226922.0 402225.0 0
229028.0 402546.0 0
231347.0 402467.0 0
231575.0 399421.0 0
234460.0 400469.0 0
235806.0 397910.0 0
240341.0 399326.0 0
238659.0 401356.0 0
242898.0 397664.0 0
244123.0 401573.0 0
246223.0 397846.0 0
249027.0 398585.0 0
250021.0 401744.0 0
252801.0 401321.0 0
254532.0 398508.0 0
256779.0 400218.0 0
259442.0 402028.0 0
259119.0 399012.0 0
262010.0 400668.0 0
267966.0 400243.0 0
270169.0 397539.0 0
271964.0 400560.0 0
274548.0 401032.0 0
277054.0 403159.0 0
279816.0 401242.0 0
281348.0 398608.0 0
284346.0 400000.0 0
283212.0 402355.0 0
286336.0 403801.0 0
287462.0 400975.0 0
290646.0 401131.0 0
290349.0 403681.0 0
295193.0 399069.0 0
293644.0 401725.0 0
297581.0 401138.0 0
301283.0 402691.0 0
304351.0 402994.0 0
302797.0 405876.0 0
306932.0 404709.0 0
307676.0 401331.0 0
312074.0 401592.0 0
310286.0 404771.0 0
315239.0 402433.0 0
318171.0 401692.0 0
321208.0 402127.0 0
322500.0 401468.0 0
319762.0 404716.0 0
324328.0 399905.0 0
328176.0 403172.0 0
323514.0 403702.0 0
325352.0 402724.0 0
331090.0 401408.0 0
333218.0 402528.0 0
330312.0 405140.0 0
333132.0 405797.0 0
336618.0 401657.0 0
338842.0 403234.0 0
342000.0 403894.0 0
344289.0 406194.0 0
150480.0 408445.0 0
148580.0 410194.0 0
153144.0 407311.0 0
155359.0 408952.0 0
158484.0 407071.0 0
164020.0 406373.0 0
161561.0 408694.0 0
163602.0 411082.0 0
166718.0 407937.0 0
169562.0 406759.0 0
171057.0 408242.0 0
167444.0 410656.0 0
174315.0 406405.0 0
173729.0 408889.0 0
178689.0 407993.0 0
181031.0 406843.0 0
176930.0 409668.0 0
180147.0 410811.0 0
186043.0 406688.0 0
183532.0 408718.0 0
190869.0 406617.0 0
190667.0 409541.0 0
193986.0 407121.0 0
196699.0 406118.0 0
194208.0 409258.0 0
199403.0 404784.0 0
197560.0 408730.0 0
201198.0 407031.0 0
204958.0 406968.0 0
210266.0 406333.0 0
206904.0 407239.0 0
216673.0 404690.0 0
213872.0 406455.0 0
217213.0 408283.0 0
219870.0 403219.0 0
220023.0 408438.0 0
224955.0 403411.0 0
221583.0 406192.0 0
224219.0 406302.0 0
226952.0 405444.0 0
229034.0 406002.0 0
232595.0 405633.0 0
235606.0 407785.0 0
235832.0 403412.0 0
238518.0 405559.0 0
241247.0 403554.0 0
242166.0 406567.0 0
245152.0 407095.0 0
246603.0 403639.0 0
250154.0 405757.0 0
252911.0 406015.0 0
254115.0 403238.0 0
256945.0 403466.0 0
255029.0 407356.0 0
258530.0 406670.0 0
261476.0 404269.0 0
263109.0 406077.0 0
265035.0 402694.0 0
266413.0 405860.0 0
273043.0 404426.0 0
269990.0 404089.0 0
271195.0 408641.0 0
275275.0 405065.0 0
273782.0 408011.0 0
277640.0 405573.0 0
276620.0 408187.0 0
279662.0 408125.0 0
281233.0 405659.0 0
284299.0 405972.0 0
284889.0 408097.0 0
286858.0 408014.0 0
288786.0 406236.0 0
292058.0 406263.0 0
294908.0 404978.0 0
298596.0 404746.0 0
300073.0 408101.0 0
303077.0 408516.0 0
306043.0 407741.0 0
306665.0 410348.0 0
312324.0 407862.0 0
309748.0 409550.0 0
315384.0 405871.0 0
314680.0 410212.0 0
317922.0 407077.0 0
322036.0 405573.0 0
319193.0 409360.0 0
322101.0 409944.0 0
326553.0 406081.0 0
324621.0 408049.0 0
329037.0 407295.0 0
332467.0 408860.0 0
330009.0 410364.0 0
335691.0 406177.0 0
337320.0 408810.0 0
335217.0 410305.0 0
339174.0 406707.0 0
341724.0 407971.0 0
338940.0 410958.0 0
341720.0 410370.0 0
346803.0 408060.0 0
344988.0 410506.0 0
349404.0 409525.0 0
352155.0 410444.0 0
143924.0 413602.0 0
141319.0 415391.0 0
146106.0 411733.0 0
149870.0 413568.0 0
147553.0 415779.0 0
152523.0 411614.0 0
152298.0 415609.0 0
155295.0 414259.0 0
157038.0 411625.0 0
160052.0 411542.0 0
160774.0 414087.0 0
158217.0 415301.0 0
165046.0 412882.0 0
162967.0 416120.0 0
169965.0 411486.0 0
167289.0 414400.0 0
169526.0 414641.0 0
172949.0 411955.0 0
173399.0 414682.0 0
176244.0 413979.0 0
176618.0 412032.0 0
179165.0 413178.0 0
183443.0 411990.0 0
186276.0 413672.0 0
187549.0 409968.0 0
187824.0 412575.0 0
191033.0 412744.0 0
194179.0 411868.0 0
196081.0 413944.0 0
198212.0 411127.0 0
199007.0 414968.0 0
201224.0 412371.0 0
202528.0 409621.0 0
205659.0 410021.0 0
205416.0 412772.0 0
209804.0 410298.0 0
208412.0 414065.0 0
211678.0 413246.0 0
214043.0 410124.0 0
213835.0 413663.0 0
217315.0 411605.0 0
219847.0 411694.0 0
219614.0 414354.0 0
222364.0 410341.0 0
225279.0 408879.0 0
223692.0 412809.0 0
228232.0 410615.0 0
230656.0 413453.0 0
231644.0 409275.0 0
233116.0 412850.0 0
234324.0 410573.0 0
238151.0 408688.0 0
236958.0 412108.0 0
240433.0 412858.0 0
240893.0 409554.0 0
243585.0 410087.0 0
245131.0 411919.0 0
248199.0 409720.0 0
251703.0 410613.0 0
254214.0 410232.0 0
257097.0 410121.0 0
257874.0 413092.0 0
261158.0 409076.0 0
260762.0 412271.0 0
263688.0 412311.0 0
264295.0 409218.0 0
266759.0 411600.0 0
268342.0 408466.0 0
270150.0 412213.0 0
272669.0 413063.0 0
274343.0 411361.0 0
275834.0 414032.0 0
277459.0 411870.0 0
283093.0 409448.0 0
280436.0 410856.0 0
282100.0 414204.0 0
287112.0 410406.0 0
285152.0 412385.0 0
289948.0 410108.0 0
292668.0 409769.0 0
289875.0 412815.0 0
292874.0 413905.0 0
295976.0 409511.0 0
295489.0 413004.0 0
297731.0 414514.0 0
299811.0 411907.0 0
302586.0 413762.0 0
304064.0 410924.0 0
305773.0 414916.0 0
308093.0 412755.0 0
311866.0 411734.0 0
310588.0 414010.0 0
313640.0 413843.0 0
316950.0 412456.0 0
322422.0 412979.0 0
319822.0 413416.0 0
324797.0 412038.0 0
327278.0 410954.0 0
327058.0 414690.0 0
331730.0 413562.0 0
334691.0 412712.0 0
336659.0 415443.0 0
338806.0 413553.0 0
341482.0 414206.0 0
343351.0 412417.0 0
345855.0 413752.0 0
348013.0 412879.0 0
349899.0 414289.0 0
351649.0 413496.0 0
354508.0 412366.0 0
357347.0 413407.0 0
354503.0 415281.0 0
359296.0 415079.0 0
361976.0 416009.0 0
135213.0 417889.0 0
133217.0 420264.0 0
138152.0 416972.0 0
138391.0 420160.0 0
142874.0 418570.0 0
145617.0 417675.0 0
145616.0 419858.0 0
141511.0 421583.0 0
148969.0 418859.0 0
151435.0 417981.0 0
153554.0 419171.0 0
155380.0 417056.0 0
153302.0 421770.0 0
158589.0 417252.0 0
156571.0 419127.0 0
160748.0 418743.0 0
158060.0 421471.0 0
164487.0 419589.0 0
166353.0 416471.0 0
167719.0 419011.0 0
170716.0 417442.0 0
175875.0 416916.0 0
173417.0 420328.0 0
179261.0 416481.0 0
177286.0 421006.0 0
180219.0 419952.0 0
182880.0 415435.0 0
184905.0 417397.0 0
183029.0 420311.0 0
187233.0 415552.0 0
190406.0 415601.0 0
186614.0 419575.0 0
189656.0 419288.0 0
194390.0 416819.0 0
197246.0 418761.0 0
200280.0 417799.0 0
203178.0 414862.0 0
205708.0 417334.0 0
208613.0 418985.0 0
210662.0 416331.0 0
216285.0 415867.0 0
212655.0 417763.0 0
219008.0 418760.0 0
222040.0 415069.0 0
222122.0 418320.0 0
225493.0 418228.0 0
226296.0 414755.0 0
228278.0 418760.0 0
229175.0 416118.0 0
232260.0 417096.0 0
235481.0 415761.0 0
239117.0 416150.0 0
241690.0 417866.0 0
243568.0 414448.0 0
244072.0 419236.0 0
246394.0 416599.0 0
248467.0 414137.0 0
251717.0 414825.0 0
251211.0 418275.0 0
254345.0 418064.0 0
254883.0 413933.0 0
256034.0 416978.0 0
258914.0 417117.0 0
264053.0 414354.0 0
261749.0 415768.0 0
264231.0 418394.0 0
266470.0 415378.0 0
267823.0 418735.0 0
269250.0 415223.0 0
270957.0 417542.0 0
273702.0 416009.0 0
276597.0 417772.0 0
279220.0 415771.0 0
281584.0 419027.0 0
287613.0 415620.0 0
284569.0 418039.0 0
288678.0 419259.0 0
290917.0 416570.0 0
292433.0 418710.0 0
294520.0 416543.0 0
297841.0 418414.0 0
301509.0 417374.0 0
304506.0 417591.0 0
307555.0 417467.0 0
306276.0 419834.0 0
310661.0 417563.0 0
314113.0 417381.0 0
317341.0 416600.0 0
314617.0 421013.0 0
318248.0 420617.0 0
320273.0 416245.0 0
323399.0 418391.0 0
320871.0 419449.0 0
324060.0 415607.0 0
327034.0 417975.0 0
326426.0 419659.0 0
330544.0 416567.0 0
330112.0 419656.0 0
334920.0 418003.0 0
334374.0 420960.0 0
340042.0 417536.0 0
342312.0 416645.0 0
338906.0 420101.0 0
342156.0 421233.0 0
343375.0 419337.0 0
344985.0 416435.0 0
347221.0 418655.0 0
349804.0 417469.0 0
352197.0 416662.0 0
351673.0 420505.0 0
355714.0 417926.0 0
358700.0 417777.0 0
354364.0 420044.0 0
359223.0 420425.0 0
363574.0 418181.0 0
362470.0 420881.0 0
366251.0 418396.0 0
367992.0 420023.0 0
367075.0 421705.0 0
370254.0 420730.0 0
123413.0 426477.0 0
127383.0 422002.0 0
125710.0 424346.0 0
128990.0 424637.0 0
130677.0 421830.0 0
133330.0 424139.0 0
133305.0 426421.0 0
135966.0 421880.0 0
136843.0 424101.0 0
139649.0 424216.0 0
144263.0 423485.0 0
141064.0 426235.0 0
144169.0 426520.0 0
147724.0 422090.0 0
149260.0 425131.0 0
151098.0 421676.0 0
155139.0 424031.0 0
152177.0 426067.0 0
160601.0 423217.0 0
156991.0 426412.0 0
163476.0 422169.0 0
163547.0 425744.0 0
166361.0 423229.0 0
168576.0 421916.0 0
170382.0 423754.0 0
166353.0 426039.0 0
172561.0 425146.0 0
175101.0 423789.0 0
179212.0 423540.0 0
185969.0 422654.0 0
183064.0 423518.0 0
188893.0 422701.0 0
188357.0 425050.0 0
193012.0 420563.0 0
196303.0 421890.0 0
191895.0 423601.0 0
194958.0 424811.0 0
198852.0 420665.0 0
199048.0 422925.0 0
202359.0 420383.0 0
205808.0 420980.0 0
203426.0 423476.0 0
210626.0 419811.0 0
208029.0 422234.0 0
210592.0 422989.0 0
212820.0 420921.0 0
215754.0 420409.0 0
213820.0 423498.0 0
216991.0 423123.0 0
219484.0 422167.0 0
222259.0 422393.0 0
225532.0 422094.0 0
228073.0 421929.0 0
230911.0 420427.0 0
234139.0 421059.0 0
236957.0 419666.0 0
240060.0 420505.0 0
237229.0 422923.0 0
239652.0 424090.0 0
243047.0 422984.0 0
246383.0 421937.0 0
248386.0 419269.0 0
250120.0 422751.0 0
253604.0 421727.0 0
257449.0 421123.0 0
261087.0 419927.0 0
261597.0 423666.0 0
268542.0 422309.0 0
264847.0 421838.0 0
271762.0 420743.0 0
274270.0 420096.0 0
273518.0 423926.0 0
276524.0 422476.0 0
279292.0 420782.0 0
282926.0 421710.0 0
281067.0 423322.0 0
286326.0 421624.0 0
290700.0 420210.0 0
289631.0 423159.0 0
292877.0 423541.0 0
295121.0 421190.0 0
297801.0 424248.0 0
300277.0 422073.0 0
303651.0 420881.0 0
308254.0 421539.0 0
304778.0 424267.0 0
307508.0 423614.0 0
310836.0 420958.0 0
312000.0 424035.0 0
315372.0 425164.0 0
322363.0 422930.0 0
319344.0 424814.0 0
324169.0 421309.0 0
325469.0 423980.0 0
327939.0 421323.0 0
327866.0 423721.0 0
324392.0 425250.0 0
331903.0 422095.0 0
330931.0 424455.0 0
335275.0 423949.0 0
337781.0 422667.0 0
342144.0 423792.0 0
339518.0 424877.0 0
345250.0 421615.0 0
348419.0 421693.0 0
346219.0 424337.0 0
348751.0 425779.0 0
350932.0 422954.0 0
353414.0 424819.0 0
355103.0 422508.0 0
357682.0 422375.0 0
358824.0 425190.0 0
361740.0 424060.0 0
363929.0 426117.0 0
364887.0 422289.0 0
366793.0 425085.0 0
369459.0 423708.0 0
371765.0 422980.0 0
374178.0 423713.0 0
371624.0 426111.0 0
373910.0 426992.0 0
376176.0 425387.0 0
378450.0 426878.0 0
114090.0 431027.0 0
117362.0 429707.0 0
120377.0 427921.0 0
121222.0 431146.0 0
124089.0 430321.0 0
126284.0 428283.0 0
129941.0 427897.0 0
134323.0 428944.0 0
133902.0 430856.0 0
136728.0 426900.0 0
139154.0 429454.0 0
136338.0 431650.0 0
142901.0 429073.0 0
145061.0 431619.0 0
146970.0 428045.0 0
149401.0 429724.0 0
152897.0 429229.0 0
155834.0 428920.0 0
160109.0 426521.0 0
157599.0 430907.0 0
160998.0 429895.0 0
164353.0 429143.0 0
169092.0 427063.0 0
166836.0 430801.0 0
175826.0 426737.0 0
172308.0 428936.0 0
175081.0 430637.0 0
179086.0 427118.0 0
182943.0 427026.0 0
186360.0 425962.0 0
184922.0 430245.0 0
190603.0 426501.0 0
188230.0 429195.0 0
191422.0 430309.0 0
193120.0 426921.0 0
194231.0 429185.0 0
197403.0 427036.0 0
200861.0 426017.0 0
198204.0 430284.0 0
206239.0 425103.0 0
203471.0 428563.0 0
206677.0 430067.0 0
208574.0 426963.0 0
211419.0 425820.0 0
214847.0 426110.0 0
211923.0 428985.0 0
214766.0 429879.0 0
218561.0 426166.0 0
218187.0 429619.0 0
225320.0 425908.0 0
221999.0 426054.0 0
221374.0 429456.0 0
223814.0 429487.0 0
227652.0 424963.0 0
230706.0 424475.0 0
226438.0 428797.0 0
229258.0 427832.0 0
234428.0 424580.0 0
232812.0 428270.0 0
237065.0 426644.0 0
240545.0 427657.0 0
235738.0 429940.0 0
244352.0 427177.0 0
247727.0 425304.0 0
249167.0 427913.0 0
251537.0 425817.0 0
257470.0 424599.0 0
254810.0 425353.0 0
255759.0 428295.0 0
258883.0 427349.0 0
263482.0 428442.0 0
265994.0 425337.0 0
268075.0 429308.0 0
270539.0 426191.0 0
273704.0 429127.0 0
278945.0 424989.0 0
276162.0 426630.0 0
278625.0 429481.0 0
280817.0 427453.0 0
284524.0 425697.0 0
286878.0 429572.0 0
288530.0 426426.0 0
291446.0 428348.0 0
295532.0 427359.0 0
301545.0 425739.0 0
299475.0 428758.0 0
303321.0 428708.0 0
306660.0 428071.0 0
309796.0 426056.0 0
311461.0 430238.0 0
314549.0 428372.0 0
316903.0 429782.0 0
318923.0 428468.0 0
322746.0 427084.0 0
320032.0 431043.0 0
321592.0 429487.0 0
327643.0 426423.0 0
326194.0 428849.0 0
331670.0 427012.0 0
330610.0 429582.0 0
335186.0 426799.0 0
338690.0 427578.0 0
334864.0 429720.0 0
338025.0 430813.0 0
343747.0 426409.0 0
342543.0 429599.0 0
346799.0 428093.0 0
346177.0 430321.0 0
349043.0 430486.0 0
350661.0 428010.0 0
353367.0 429770.0 0
355613.0 426743.0 0
357166.0 429127.0 0
360112.0 428179.0 0
363119.0 429905.0 0
368529.0 427509.0 0
366878.0 429989.0 0
370994.0 428698.0 0
374391.0 429217.0 0
371150.0 430830.0 0
377186.0 429581.0 0
379780.0 430413.0 0
381319.0 428308.0 0
383723.0 430228.0 0
386533.0 431974.0 0
108382.0 435335.0 0
105701.0 436868.0 0
111402.0 433793.0 0
114380.0 433873.0 0
112203.0 437037.0 0
114930.0 435828.0 0
117708.0 432779.0 0
118781.0 435508.0 0
122175.0 433781.0 0
125872.0 433803.0 0
129839.0 432156.0 0
132380.0 435370.0 0
135879.0 434387.0 0
138690.0 435976.0 0
141042.0 433008.0 0
143139.0 435852.0 0
149254.0 432202.0 0
145828.0 435045.0 0
149029.0 434374.0 0
152836.0 432318.0 0
155516.0 432668.0 0
152858.0 435001.0 0
158036.0 434339.0 0
160906.0 433554.0 0
159378.0 436331.0 0
160850.0 436776.0 0
163450.0 432230.0 0
164937.0 433230.0 0
162840.0 435154.0 0
169876.0 432642.0 0
166492.0 435128.0 0
174682.0 433162.0 0
172687.0 433931.0 0
174431.0 436238.0 0
178334.0 431037.0 0
181500.0 431548.0 0
177562.0 434483.0 0
180084.0 434359.0 0
182385.0 434105.0 0
185484.0 433587.0 0
188268.0 432638.0 0
189050.0 435790.0 0
195432.0 432245.0 0
191852.0 433586.0 0
201062.0 432052.0 0
197158.0 435471.0 0
204460.0 433282.0 0
209938.0 430317.0 0
208155.0 434133.0 0
212719.0 434148.0 0
217140.0 433866.0 0
220260.0 432174.0 0
223469.0 433142.0 0
227217.0 432380.0 0
230718.0 431365.0 0
233815.0 433540.0 0
239164.0 430974.0 0
237237.0 434325.0 0
242850.0 432168.0 0
247011.0 430813.0 0
250501.0 431163.0 0
252591.0 428822.0 0
253860.0 431619.0 0
251728.0 434378.0 0
256447.0 431234.0 0
255823.0 434478.0 0
259482.0 431124.0 0
259152.0 434621.0 0
262961.0 433671.0 0
266684.0 433113.0 0
271338.0 432144.0 0
276661.0 432238.0 0
274286.0 434164.0 0
280853.0 431524.0 0
283497.0 430234.0 0
279694.0 434885.0 0
283574.0 434462.0 0
286136.0 432321.0 0
289177.0 430680.0 0
292602.0 431964.0 0
288924.0 433832.0 0
292295.0 435382.0 0
295828.0 431757.0 0
299735.0 432368.0 0
303126.0 431775.0 0
306796.0 432215.0 0
310279.0 434336.0 0
314557.0 432653.0 0
317327.0 432394.0 0
313627.0 436195.0 0
316626.0 435209.0 0
321847.0 433042.0 0
319497.0 434299.0 0
323251.0 435668.0 0
324059.0 431489.0 0
328354.0 431966.0 0
326459.0 434669.0 0
333211.0 432286.0 0
331027.0 434779.0 0
337465.0 434324.0 0
342157.0 433279.0 0
346571.0 432835.0 0
345050.0 435329.0 0
349897.0 433379.0 0
353910.0 433462.0 0
357341.0 431207.0 0
357252.0 435818.0 0
359722.0 432098.0 0
360562.0 434298.0 0
363919.0 433261.0 0
362708.0 435888.0 0
366521.0 434039.0 0
368478.0 432220.0 0
367099.0 436319.0 0
373799.0 432308.0 0
370982.0 434508.0 0
376556.0 433263.0 0
379653.0 433937.0 0
375896.0 436639.0 0
382304.0 432480.0 0
384372.0 434096.0 0
383408.0 435869.0 0
380774.0 436972.0 0
388913.0 434192.0 0
385799.0 436143.0 0
391899.0 434864.0 0
394080.0 436771.0 0
98004.9 441289.0 0
101126.0 440243.0 0
103167.0 437900.0 0
106379.0 440275.0 0
109767.0 438634.0 0
114089.0 437987.0 0
113657.0 440158.0 0
111266.0 441193.0 0
116474.0 437653.0 0
117153.0 439862.0 0
115470.0 441288.0 0
119799.0 440720.0 0
120911.0 437694.0 0
123606.0 437359.0 0
122893.0 441318.0 0
127571.0 437278.0 0
125697.0 438868.0 0
129473.0 438480.0 0
125680.0 441460.0 0
128847.0 441615.0 0
133365.0 438652.0 0
131779.0 441862.0 0
136739.0 438707.0 0
137724.0 441583.0 0
141146.0 438268.0 0
143791.0 438475.0 0
140880.0 440921.0 0
144606.0 441255.0 0
146950.0 438396.0 0
150398.0 436941.0 0
148801.0 440895.0 0
155482.0 436600.0 0
152398.0 439943.0 0
157741.0 438851.0 0
163697.0 437616.0 0
166585.0 438182.0 0
161301.0 440358.0 0
169615.0 436320.0 0
169261.0 439609.0 0
171877.0 437157.0 0
171946.0 439677.0 0
175158.0 439381.0 0
178585.0 437936.0 0
181950.0 436979.0 0
185869.0 437186.0 0
183444.0 440865.0 0
187950.0 439984.0 0
190644.0 438508.0 0
193585.0 436850.0 0
193049.0 440524.0 0
200763.0 436538.0 0
196463.0 439779.0 0
199801.0 440360.0 0
204284.0 436532.0 0
203380.0 439457.0 0
207131.0 438728.0 0
210128.0 437798.0 0
211456.0 440158.0 0
214155.0 438419.0 0
220247.0 435690.0 0
216957.0 437191.0 0
219304.0 439513.0 0
223541.0 437607.0 0
227070.0 436293.0 0
230365.0 435289.0 0
229793.0 439134.0 0
233476.0 437722.0 0
240441.0 435434.0 0
236558.0 437338.0 0
239110.0 439312.0 0
244740.0 435068.0 0
242914.0 437650.0 0
247913.0 434812.0 0
246124.0 438187.0 0
249974.0 438858.0 0
254196.0 437970.0 0
258284.0 438204.0 0
262316.0 437810.0 0
266326.0 437371.0 0
269808.0 435790.0 0
273020.0 437064.0 0
273997.0 440149.0 0
277142.0 437677.0 0
282438.0 438074.0 0
286837.0 437451.0 0
290853.0 438436.0 0
295946.0 436165.0 0
294517.0 440124.0 0
298183.0 440451.0 0
300664.0 436821.0 0
304784.0 435583.0 0
308330.0 437086.0 0
305438.0 439256.0 0
310912.0 438517.0 0
311105.0 441511.0 0
313102.0 440125.0 0
316284.0 438992.0 0
319724.0 437835.0 0
323980.0 438582.0 0
327163.0 438645.0 0
330142.0 437637.0 0
332426.0 439928.0 0
334864.0 437439.0 0
339254.0 438154.0 0
337247.0 440121.0 0
340974.0 436417.0 0
343307.0 438258.0 0
341535.0 440588.0 0
348519.0 437045.0 0
345646.0 439643.0 0
349311.0 440699.0 0
352428.0 437414.0 0
352457.0 440532.0 0
355330.0 438602.0 0
354948.0 441338.0 0
357743.0 441121.0 0
359706.0 438459.0 0
362481.0 440694.0 0
364969.0 438178.0 0
369481.0 437655.0 0
368168.0 441170.0 0
373393.0 436434.0 0
372517.0 438915.0 0
371417.0 441002.0 0
377554.0 440859.0 0
378034.0 438297.0 0
374934.0 440095.0 0
382577.0 439628.0 0
380200.0 441644.0 0
386079.0 439123.0 0
389316.0 437827.0 0
387117.0 442346.0 0
392096.0 439679.0 0
395538.0 441366.0 0
396943.0 438472.0 0
399627.0 439920.0 0
402445.0 441632.0 0
89231.0 447005.0 0
92297.7 445141.0 0
95350.5 443578.0 0
99043.8 444821.0 0
103147.0 442671.0 0
104515.0 445487.0 0
101038.0 446915.0 0
108132.0 442528.0 0
108154.0 445553.0 0
112121.0 444017.0 0
111908.0 447065.0 0
115592.0 444082.0 0
118904.0 443682.0 0
115518.0 447083.0 0
119318.0 446408.0 0
122149.0 444231.0 0
121776.0 447058.0 0
124491.0 446338.0 0
125369.0 444305.0 0
128599.0 445207.0 0
131821.0 444600.0 0
134555.0 442161.0 0
134578.0 444577.0 0
134142.0 446595.0 0
137924.0 444916.0 0
142181.0 444450.0 0
145294.0 446504.0 0
147055.0 443188.0 0
150626.0 443906.0 0
155425.0 441905.0 0
153574.0 444928.0 0
158899.0 444091.0 0
163312.0 443486.0 0
165445.0 441463.0 0
162197.0 446402.0 0
165366.0 444512.0 0
168628.0 442537.0 0
172205.0 442525.0 0
175671.0 442528.0 0
172185.0 445664.0 0
175572.0 446008.0 0
179400.0 441865.0 0
178730.0 445472.0 0
182097.0 444473.0 0
184424.0 445046.0 0
186356.0 442847.0 0
190386.0 442783.0 0
188118.0 446074.0 0
194487.0 442570.0 0
192936.0 444911.0 0
196788.0 443835.0 0
200355.0 444217.0 0
203915.0 442062.0 0
207969.0 442522.0 0
212053.0 443855.0 0
215536.0 441510.0 0
219460.0 444014.0 0
222542.0 441184.0 0
223522.0 444475.0 0
226281.0 441089.0 0
229930.0 442821.0 0
227675.0 445324.0 0
232734.0 441848.0 0
235840.0 440693.0 0
235437.0 444622.0 0
238730.0 443087.0 0
242981.0 441479.0 0
246719.0 441503.0 0
245283.0 445008.0 0
249566.0 444222.0 0
252733.0 441570.0 0
253920.0 445077.0 0
256236.0 441558.0 0
257666.0 444867.0 0
260655.0 442113.0 0
263918.0 444905.0 0
265173.0 441071.0 0
267670.0 443864.0 0
269930.0 440585.0 0
271088.0 445146.0 0
274020.0 443167.0 0
276771.0 441543.0 0
278626.0 444465.0 0
280389.0 440442.0 0
282275.0 443815.0 0
285432.0 441786.0 0
287996.0 445467.0 0
290390.0 442724.0 0
294538.0 444059.0 0
297192.0 442941.0 0
302451.0 441054.0 0
299530.0 443041.0 0
302119.0 445171.0 0
308230.0 441129.0 0
305685.0 443409.0 0
312336.0 444382.0 0
309126.0 445475.0 0
315978.0 443269.0 0
319511.0 442284.0 0
322727.0 441639.0 0
320144.0 445600.0 0
322492.0 444758.0 0
326064.0 442522.0 0
324836.0 446422.0 0
329123.0 446124.0 0
329699.0 441711.0 0
332724.0 443867.0 0
335001.0 442044.0 0
339278.0 442847.0 0
336911.0 443944.0 0
334798.0 446234.0 0
343800.0 443269.0 0
341327.0 445794.0 0
346625.0 442358.0 0
345883.0 446411.0 0
348634.0 445360.0 0
351282.0 444046.0 0
354639.0 445289.0 0
358171.0 444714.0 0
360910.0 443421.0 0
363854.0 446684.0 0
365627.0 443195.0 0
368328.0 446786.0 0
370808.0 444768.0 0
373599.0 442880.0 0
379672.0 444491.0 0
376761.0 443457.0 0
375674.0 445861.0 0
383479.0 443887.0 0
382290.0 446813.0 0
385744.0 446229.0 0
388537.0 446305.0 0
390650.0 442559.0 0
395262.0 444149.0 0
392524.0 446325.0 0
399057.0 442519.0 0
399214.0 445988.0 0
402953.0 444471.0 0
405379.0 443302.0 0
404929.0 446772.0 0
407703.0 445405.0 0
410825.0 446736.0 0
80246.6 452221.0 0
83382.5 451003.0 0
86458.3 449003.0 0
87642.6 451278.0 0
90960.1 449602.0 0
93668.5 448080.0 0
94212.2 450965.0 0
90404.7 451812.0 0
96652.1 447334.0 0
97756.6 450024.0 0
101067.0 449758.0 0
104369.0 448368.0 0
105910.0 450462.0 0
108743.0 448650.0 0
113402.0 449624.0 0
110809.0 451630.0 0
117895.0 448644.0 0
116056.0 451682.0 0
120047.0 450242.0 0
123667.0 450551.0 0
126769.0 448199.0 0
129333.0 449813.0 0
131649.0 447677.0 0
134109.0 450450.0 0
136184.0 447916.0 0
140040.0 448308.0 0
137646.0 451012.0 0
143364.0 450740.0 0
149030.0 447522.0 0
152513.0 448160.0 0
152001.0 451794.0 0
155846.0 451290.0 0
156499.0 447414.0 0
160035.0 449349.0 0
164895.0 448591.0 0
168275.0 446372.0 0
170442.0 449349.0 0
172431.0 448520.0 0
175621.0 450393.0 0
179288.0 448866.0 0
181590.0 447066.0 0
184401.0 448390.0 0
181226.0 450989.0 0
184070.0 452005.0 0
187495.0 450637.0 0
195708.0 447501.0 0
191294.0 448686.0 0
194633.0 451113.0 0
198643.0 447343.0 0
198106.0 451338.0 0
204551.0 446336.0 0
201469.0 449185.0 0
205457.0 450541.0 0
208649.0 447427.0 0
215438.0 445892.0 0
212163.0 448789.0 0
215449.0 450063.0 0
217977.0 448232.0 0
221300.0 448537.0 0
224956.0 447762.0 0
228676.0 450450.0 0
231570.0 446457.0 0
234729.0 448612.0 0
238720.0 447987.0 0
241610.0 445142.0 0
243176.0 448333.0 0
247127.0 448208.0 0
251256.0 448882.0 0
256168.0 449694.0 0
260479.0 446981.0 0
263485.0 448944.0 0
267482.0 448319.0 0
272153.0 449525.0 0
275383.0 446926.0 0
279256.0 449066.0 0
282302.0 447035.0 0
285767.0 446191.0 0
285308.0 449130.0 0
288113.0 449862.0 0
289747.0 447405.0 0
293095.0 447398.0 0
298249.0 447110.0 0
296067.0 450831.0 0
301765.0 450035.0 0
305490.0 448052.0 0
312883.0 448011.0 0
309855.0 450503.0 0
316830.0 447945.0 0
321804.0 448962.0 0
319018.0 452054.0 0
325609.0 450128.0 0
328760.0 449874.0 0
332672.0 448503.0 0
338184.0 447907.0 0
336048.0 451031.0 0
340844.0 451225.0 0
343919.0 448904.0 0
349297.0 448776.0 0
346906.0 450979.0 0
352231.0 448207.0 0
353023.0 451785.0 0
356076.0 449428.0 0
359801.0 448272.0 0
364965.0 450630.0 0
368647.0 450361.0 0
370814.0 448237.0 0
373231.0 447270.0 0
372020.0 450808.0 0
375649.0 450601.0 0
378864.0 448092.0 0
378909.0 452175.0 0
384973.0 448607.0 0
382683.0 451082.0 0
387812.0 449571.0 0
390470.0 450096.0 0
386753.0 452447.0 0
393316.0 450467.0 0
396864.0 449072.0 0
402329.0 448310.0 0
405700.0 449324.0 0
402096.0 451221.0 0
408478.0 449110.0 0
413460.0 448892.0 0
411368.0 451267.0 0
416595.0 450627.0 0
73884.5 456290.0 0
77125.3 454853.0 0
80405.3 455008.0 0
83274.1 454851.0 0
85897.2 453536.0 0
88730.2 453885.0 0
86698.2 456212.0 0
91939.7 453659.0 0
90223.7 456855.0 0
94699.1 453607.0 0
97781.3 453110.0 0
94672.5 456597.0 0
102271.0 452664.0 0
99275.5 455497.0 0
104405.0 455290.0 0
107543.0 453355.0 0
109012.0 456190.0 0
111590.0 455240.0 0
114233.0 454007.0 0
118525.0 453678.0 0
115951.0 456851.0 0
121476.0 453841.0 0
123762.0 456453.0 0
126330.0 453364.0 0
127114.0 456810.0 0
130454.0 453308.0 0
134464.0 453674.0 0
129996.0 457189.0 0
136791.0 453657.0 0
139911.0 453031.0 0
143326.0 455686.0 0
147874.0 452281.0 0
151134.0 456344.0 0
154381.0 455001.0 0
158935.0 453250.0 0
157224.0 456696.0 0
162692.0 452175.0 0
161191.0 456388.0 0
167602.0 452028.0 0
165237.0 456093.0 0
171573.0 452561.0 0
174288.0 455573.0 0
178460.0 453437.0 0
182010.0 455239.0 0
186552.0 454600.0 0
190993.0 454090.0 0
195658.0 455173.0 0
199412.0 454866.0 0
202426.0 453177.0 0
205703.0 454320.0 0
208625.0 452207.0 0
210359.0 455914.0 0
212522.0 452842.0 0
218266.0 450745.0 0
215980.0 453567.0 0
220345.0 453387.0 0
224363.0 451783.0 0
223480.0 455544.0 0
226846.0 455152.0 0
230396.0 455044.0 0
232690.0 451236.0 0
234073.0 454790.0 0
236669.0 451865.0 0
238830.0 455047.0 0
240958.0 451677.0 0
242895.0 455679.0 0
244890.0 451754.0 0
248645.0 451613.0 0
252350.0 454325.0 0
257712.0 455315.0 0
261148.0 452027.0 0
269331.0 451909.0 0
265292.0 453194.0 0
268865.0 454528.0 0
272808.0 454094.0 0
276272.0 451537.0 0
283010.0 451043.0 0
280403.0 453906.0 0
285809.0 452291.0 0
288816.0 453836.0 0
291976.0 451473.0 0
292266.0 455928.0 0
295625.0 454632.0 0
299974.0 453537.0 0
305422.0 453223.0 0
309423.0 454982.0 0
312525.0 457203.0 0
314415.0 453168.0 0
319023.0 456827.0 0
323303.0 454133.0 0
327936.0 453394.0 0
331731.0 452123.0 0
331132.0 456251.0 0
335017.0 455107.0 0
338939.0 454240.0 0
343916.0 454076.0 0
348308.0 455193.0 0
350217.0 452084.0 0
352281.0 455739.0 0
355522.0 454240.0 0
357531.0 452387.0 0
359060.0 455210.0 0
361322.0 452072.0 0
362959.0 455881.0 0
365861.0 453812.0 0
368787.0 453691.0 0
366745.0 456901.0 0
371918.0 453659.0 0
370091.0 456961.0 0
373836.0 457488.0 0
375370.0 453996.0 0
378640.0 454930.0 0
382411.0 454996.0 0
385790.0 455562.0 0
390083.0 452992.0 0
389055.0 456041.0 0
393576.0 453778.0 0
398404.0 453399.0 0
405665.0 453110.0 0
402219.0 456030.0 0
405561.0 457544.0 0
409469.0 454144.0 0
413368.0 456474.0 0
414446.0 452953.0 0
416831.0 454770.0 0
419598.0 453178.0 0
420874.0 456926.0 0
423945.0 455516.0 0
427444.0 456814.0 0
62235.9 463483.0 0
65632.6 462077.0 0
67982.1 459467.0 0
70898.6 458067.0 0
70223.0 461681.0 0
73989.4 459584.0 0
77207.0 458312.0 0
80634.9 458204.0 0
78984.0 461947.0 0
84299.2 458712.0 0
87867.4 460098.0 0
92742.4 459623.0 0
90793.3 462457.0 0
97217.5 458215.0 0
95339.0 461146.0 0
99727.3 460151.0 0
101720.0 457611.0 0
103674.0 459755.0 0
106269.0 457906.0 0
106858.0 461860.0 0
109875.0 459388.0 0
112712.0 457988.0 0
114094.0 460811.0 0
111285.0 461708.0 0
119584.0 457971.0 0
116910.0 460936.0 0
122965.0 459760.0 0
125682.0 459155.0 0
127784.0 459450.0 0
124851.0 461737.0 0
128197.0 462600.0 0
134063.0 457039.0 0
131371.0 460299.0 0
138758.0 457332.0 0
135202.0 461209.0 0
139287.0 462028.0 0
142856.0 460533.0 0
146936.0 457353.0 0
146824.0 461151.0 0
154410.0 459588.0 0
150428.0 460346.0 0
159136.0 459979.0 0
163258.0 460017.0 0
169579.0 456865.0 0
166749.0 459722.0 0
168538.0 460881.0 0
172492.0 460303.0 0
177924.0 458363.0 0
182117.0 459692.0 0
185227.0 458192.0 0
188625.0 458425.0 0
192401.0 458580.0 0
198658.0 458043.0 0
195842.0 459370.0 0
202888.0 458275.0 0
207511.0 457196.0 0
210370.0 459973.0 0
213500.0 457375.0 0
217758.0 456276.0 0
216888.0 460086.0 0
220925.0 458040.0 0
224907.0 458549.0 0
228506.0 458872.0 0
232283.0 459009.0 0
236105.0 457358.0 0
235646.0 460649.0 0
240104.0 459896.0 0
245195.0 459367.0 0
247376.0 455358.0 0
249550.0 458607.0 0
252520.0 458878.0 0
255113.0 458251.0 0
258486.0 459918.0 0
262105.0 457377.0 0
266480.0 457823.0 0
264767.0 461302.0 0
270357.0 457821.0 0
271536.0 460368.0 0
274240.0 458521.0 0
276881.0 455884.0 0
277023.0 458910.0 0
280195.0 459135.0 0
284823.0 456518.0 0
289542.0 457626.0 0
292541.0 460396.0 0
298348.0 457825.0 0
294912.0 458193.0 0
303253.0 457324.0 0
307016.0 457203.0 0
306331.0 461193.0 0
309678.0 459186.0 0
313310.0 461336.0 0
315505.0 458130.0 0
317116.0 461071.0 0
323452.0 459062.0 0
320464.0 460587.0 0
327244.0 457472.0 0
326900.0 461615.0 0
334410.0 459303.0 0
330680.0 459963.0 0
337915.0 457809.0 0
338456.0 461482.0 0
341821.0 457776.0 0
345828.0 458619.0 0
349508.0 459365.0 0
353706.0 460026.0 0
356774.0 457222.0 0
357943.0 461288.0 0
360571.0 458847.0 0
364810.0 459492.0 0
362473.0 462072.0 0
368571.0 460388.0 0
372588.0 461926.0 0
378206.0 458025.0 0
376610.0 461119.0 0
380500.0 462051.0 0
382249.0 458554.0 0
384392.0 462555.0 0
385958.0 458966.0 0
389544.0 459873.0 0
392894.0 457501.0 0
393466.0 461136.0 0
397247.0 457929.0 0
396794.0 461591.0 0
400177.0 461959.0 0
400991.0 459032.0 0
404047.0 460083.0 0
409348.0 458883.0 0
406675.0 461366.0 0
413987.0 460194.0 0
411062.0 462953.0 0
415114.0 462806.0 0
417295.0 458330.0 0
418493.0 461598.0 0
422227.0 460311.0 0
425248.0 458660.0 0
429893.0 459561.0 0
427245.0 462351.0 0
433342.0 461561.0 0
59627.8 466735.0 0
64415.5 465563.0 0
64076.7 468213.0 0
67924.2 465128.0 0
72470.2 463802.0 0
71539.4 466829.0 0
75447.9 462555.0 0
75367.3 466115.0 0
78597.5 465444.0 0
82939.7 462844.0 0
81984.3 467479.0 0
86700.7 464312.0 0
93680.5 464027.0 0
90343.5 466771.0 0
96301.6 465405.0 0
97752.8 462700.0 0
99868.1 465747.0 0
102171.0 462999.0 0
104904.0 465847.0 0
109480.0 464460.0 0
112943.0 463983.0 0
116068.0 464978.0 0
118547.0 467504.0 0
120606.0 463202.0 0
121558.0 467421.0 0
125001.0 465518.0 0
128598.0 466650.0 0
131949.0 464293.0 0
136624.0 465398.0 0
140684.0 465113.0 0
144327.0 464571.0 0
148783.0 464302.0 0
152672.0 463665.0 0
154872.0 466975.0 0
156882.0 463551.0 0
161246.0 464058.0 0
165627.0 463517.0 0
169608.0 464217.0 0
173131.0 464771.0 0
176136.0 462774.0 0
180572.0 463837.0 0
184326.0 466540.0 0
185539.0 461982.0 0
189917.0 462005.0 0
187919.0 465133.0 0
194090.0 462834.0 0
191484.0 466631.0 0
198984.0 462471.0 0
203159.0 462902.0 0
206793.0 461466.0 0
205773.0 465821.0 0
209820.0 464428.0 0
213264.0 462716.0 0
220050.0 462143.0 0
217154.0 464672.0 0
222459.0 461139.0 0
221644.0 465332.0 0
230184.0 462537.0 0
225885.0 462869.0 0
228383.0 465689.0 0
233468.0 463375.0 0
236962.0 463487.0 0
243329.0 462133.0 0
240535.0 465631.0 0
247914.0 461924.0 0
245452.0 465210.0 0
249579.0 465637.0 0
251496.0 462118.0 0
253602.0 465629.0 0
255036.0 461518.0 0
257850.0 464702.0 0
261493.0 462111.0 0
261838.0 466040.0 0
268836.0 462482.0 0
265196.0 465394.0 0
273602.0 462498.0 0
272137.0 465358.0 0
276983.0 461708.0 0
275636.0 465709.0 0
283879.0 462106.0 0
279787.0 464844.0 0
288236.0 461106.0 0
287577.0 466254.0 0
291126.0 463954.0 0
294304.0 464341.0 0
296215.0 461081.0 0
297710.0 464450.0 0
300885.0 461604.0 0
304156.0 464752.0 0
308298.0 466006.0 0
309879.0 462569.0 0
311936.0 464924.0 0
319500.0 463491.0 0
316095.0 465453.0 0
323582.0 463848.0 0
328247.0 466615.0 0
330134.0 463067.0 0
334347.0 464467.0 0
340009.0 465530.0 0
342578.0 462037.0 0
343847.0 465678.0 0
346702.0 462713.0 0
351096.0 464093.0 0
356000.0 465084.0 0
359989.0 464213.0 0
363305.0 466893.0 0
366166.0 463430.0 0
369928.0 464786.0 0
373422.0 467263.0 0
376831.0 464996.0 0
381459.0 466174.0 0
388181.0 463043.0 0
389209.0 465766.0 0
386036.0 467207.0 0
392028.0 464297.0 0
396264.0 465446.0 0
399861.0 465519.0 0
403703.0 463432.0 0
403447.0 467226.0 0
407512.0 464794.0 0
409593.0 467721.0 0
412840.0 466641.0 0
416115.0 465894.0 0
419661.0 464860.0 0
423158.0 463734.0 0
422018.0 467810.0 0
425800.0 467246.0 0
429937.0 466785.0 0
432154.0 464334.0 0
435306.0 466243.0 0
436856.0 463508.0 0
440125.0 465305.0 0
438009.0 467363.0 0
51207.8 470473.0 0
48190.5 472842.0 0
55210.6 469076.0 0
54008.0 472854.0 0
58715.0 472258.0 0
62500.4 470948.0 0
67774.3 469179.0 0
72685.3 470070.0 0
77008.1 469799.0 0
81215.7 471991.0 0
84531.2 470483.0 0
86109.3 467911.0 0
88218.6 470891.0 0
92046.4 470580.0 0
93995.5 467936.0 0
97743.9 468831.0 0
95434.8 472169.0 0
101921.0 467945.0 0
100486.0 471318.0 0
104731.0 469921.0 0
107882.0 468079.0 0
108345.0 471521.0 0
111948.0 468106.0 0
111942.0 472473.0 0
115695.0 469489.0 0
119863.0 471634.0 0
124763.0 470047.0 0
128913.0 469962.0 0
133143.0 468540.0 0
138455.0 468865.0 0
135921.0 472181.0 0
142162.0 468647.0 0
146807.0 468187.0 0
149722.0 471922.0 0
151272.0 467641.0 0
154636.0 471349.0 0
158761.0 468050.0 0
158750.0 472252.0 0
162964.0 467538.0 0
161303.0 470704.0 0
164298.0 471070.0 0
166801.0 467701.0 0
167878.0 471266.0 0
171394.0 468913.0 0
176209.0 467135.0 0
180186.0 469514.0 0
175404.0 472054.0 0
184420.0 470260.0 0
188014.0 469128.0 0
192096.0 471869.0 0
196111.0 467438.0 0
199419.0 469924.0 0
201309.0 466943.0 0
204492.0 470144.0 0
208893.0 468976.0 0
213549.0 468096.0 0
218520.0 468741.0 0
222169.0 469491.0 0
225043.0 467673.0 0
228534.0 469329.0 0
231476.0 466296.0 0
232307.0 470588.0 0
235523.0 467517.0 0
239283.0 470632.0 0
243669.0 469704.0 0
247092.0 468988.0 0
251219.0 470259.0 0
256003.0 469740.0 0
259480.0 468909.0 0
262969.0 470160.0 0
269353.0 466952.0 0
266687.0 469346.0 0
269770.0 471127.0 0
273220.0 469202.0 0
277756.0 469486.0 0
283605.0 466565.0 0
281765.0 469761.0 0
285312.0 469512.0 0
288213.0 471152.0 0
292084.0 468706.0 0
296585.0 468099.0 0
299957.0 471318.0 0
300642.0 466935.0 0
304422.0 472808.0 0
304231.0 468741.0 0
308263.0 470416.0 0
312842.0 469107.0 0
317561.0 470387.0 0
320511.0 467205.0 0
324056.0 468026.0 0
321732.0 470960.0 0
325406.0 470854.0 0
329011.0 471127.0 0
333554.0 469884.0 0
337502.0 468170.0 0
338187.0 471656.0 0
340240.0 469349.0 0
343067.0 468695.0 0
341739.0 472014.0 0
344323.0 471447.0 0
347595.0 468394.0 0
353107.0 468856.0 0
356962.0 469375.0 0
359243.0 467528.0 0
360898.0 471460.0 0
364887.0 471058.0 0
367906.0 468185.0 0
371349.0 470796.0 0
375254.0 471673.0 0
378296.0 469054.0 0
382838.0 470414.0 0
390266.0 468030.0 0
387846.0 471978.0 0
393700.0 468023.0 0
392548.0 471591.0 0
397261.0 470075.0 0
400331.0 468372.0 0
399534.0 473168.0 0
402225.0 471022.0 0
406141.0 468830.0 0
410074.0 471515.0 0
405867.0 472096.0 0
414316.0 470368.0 0
417830.0 469022.0 0
421202.0 471019.0 0
424769.0 471090.0 0
429017.0 471680.0 0
433818.0 469837.0 0
438198.0 470605.0 0
439984.0 468438.0 0
441065.0 471378.0 0
443360.0 468202.0 0
447420.0 470351.0 0
451391.0 471454.0 0
41001.0 477349.0 0
44327.2 474711.0 0
44188.7 477875.0 0
48381.5 476954.0 0
51593.0 473826.0 0
52895.7 476505.0 0
55712.1 475402.0 0
59043.7 476747.0 0
62202.9 474931.0 0
62689.6 478509.0 0
65800.8 473106.0 0
65326.2 476731.0 0
70315.6 473342.0 0
68489.0 476814.0 0
72211.6 476942.0 0
74304.1 473582.0 0
77776.5 473838.0 0
76056.2 476962.0 0
80708.4 476303.0 0
84523.2 473720.0 0
88312.4 475083.0 0
85020.4 477369.0 0
91769.3 473883.0 0
91002.9 476851.0 0
98389.1 475034.0 0
94210.9 476726.0 0
104314.0 474373.0 0
109207.0 475667.0 0
113258.0 476580.0 0
115545.0 473470.0 0
118232.0 476656.0 0
122957.0 475018.0 0
127033.0 474138.0 0
131140.0 473099.0 0
133408.0 475803.0 0
129701.0 477208.0 0
137550.0 477328.0 0
140243.0 472819.0 0
144647.0 472493.0 0
142542.0 477245.0 0
147731.0 476601.0 0
152506.0 475789.0 0
156701.0 475607.0 0
161571.0 475335.0 0
166231.0 474260.0 0
170892.0 474673.0 0
175307.0 477208.0 0
179078.0 474751.0 0
182737.0 473015.0 0
182871.0 477089.0 0
186982.0 473794.0 0
190510.0 476448.0 0
197015.0 472620.0 0
200177.0 476241.0 0
201366.0 471803.0 0
203846.0 474318.0 0
207278.0 472824.0 0
211642.0 473518.0 0
216401.0 473142.0 0
220284.0 472453.0 0
224750.0 473476.0 0
229421.0 473409.0 0
232260.0 475412.0 0
235717.0 473008.0 0
238931.0 475822.0 0
242183.0 473450.0 0
246850.0 474142.0 0
251049.0 474681.0 0
254657.0 474742.0 0
259229.0 473855.0 0
262873.0 473933.0 0
266314.0 473972.0 0
272379.0 473017.0 0
270041.0 474808.0 0
275868.0 473587.0 0
284625.0 472958.0 0
280446.0 474382.0 0
287603.0 475160.0 0
291222.0 474036.0 0
295413.0 472364.0 0
297845.0 475126.0 0
301216.0 475875.0 0
308055.0 474854.0 0
304974.0 476662.0 0
311315.0 473091.0 0
311607.0 477101.0 0
315133.0 473808.0 0
323865.0 474049.0 0
319867.0 475148.0 0
327457.0 474624.0 0
331540.0 474430.0 0
335647.0 474617.0 0
344059.0 474695.0 0
340160.0 475584.0 0
346688.0 472932.0 0
347871.0 477373.0 0
350918.0 473211.0 0
356201.0 473702.0 0
360449.0 475400.0 0
364321.0 474948.0 0
368013.0 473007.0 0
368636.0 476663.0 0
372064.0 474511.0 0
376281.0 475739.0 0
379658.0 473002.0 0
384049.0 474219.0 0
380766.0 477269.0 0
388026.0 476289.0 0
391891.0 475541.0 0
395980.0 474208.0 0
395301.0 477981.0 0
399203.0 476502.0 0
403316.0 475446.0 0
408022.0 475436.0 0
410399.0 478174.0 0
413403.0 475109.0 0
418189.0 473399.0 0
421349.0 476705.0 0
417834.0 477786.0 0
422675.0 474066.0 0
426322.0 474329.0 0
425160.0 477005.0 0
429627.0 476839.0 0
432529.0 474173.0 0
436448.0 474120.0 0
434113.0 477284.0 0
440170.0 474832.0 0
437603.0 477213.0 0
444358.0 473386.0 0
443844.0 477027.0 0
449436.0 474093.0 0
447306.0 477220.0 0
451472.0 477708.0 0
454014.0 474385.0 0
457689.0 475855.0 0
31854.0 482477.0 0
33489.3 480649.0 0
37181.1 480836.0 0
41969.6 480881.0 0
44966.0 480156.0 0
44592.6 483544.0 0
47842.1 481171.0 0
52057.6 480400.0 0
55700.6 478768.0 0
55962.6 482413.0 0
59349.8 480500.0 0
63473.2 482763.0 0
66501.7 479835.0 0
70247.5 480149.0 0
73980.9 480218.0 0
77997.5 479888.0 0
82194.6 480085.0 0
86081.3 480774.0 0
88628.7 478597.0 0
91568.7 479083.0 0
89627.2 482327.0 0
93929.1 481155.0 0
97033.9 478992.0 0
98618.2 482268.0 0
101107.0 478253.0 0
102799.0 481879.0 0
105957.0 479055.0 0
110173.0 480095.0 0
112743.0 482935.0 0
114994.0 479953.0 0
119181.0 481010.0 0
122148.0 478575.0 0
124225.0 482284.0 0
126235.0 478413.0 0
129508.0 481437.0 0
132505.0 479092.0 0
135028.0 482165.0 0
140306.0 482173.0 0
145438.0 481618.0 0
154478.0 478642.0 0
150625.0 480520.0 0
158052.0 479439.0 0
161981.0 480507.0 0
166712.0 478955.0 0
171771.0 480036.0 0
179106.0 479645.0 0
175652.0 482191.0 0
182958.0 481725.0 0
186906.0 478816.0 0
194560.0 477153.0 0
190736.0 480462.0 0
198084.0 480496.0 0
203094.0 480131.0 0
207303.0 477443.0 0
207059.0 482099.0 0
211180.0 477551.0 0
215227.0 478286.0 0
211164.0 481634.0 0
220158.0 476752.0 0
218794.0 481168.0 0
222932.0 480800.0 0
228701.0 476939.0 0
225689.0 478011.0 0
228031.0 480991.0 0
231445.0 479228.0 0
235332.0 478514.0 0
239419.0 480944.0 0
243108.0 477759.0 0
243695.0 481656.0 0
247121.0 480074.0 0
250661.0 477991.0 0
254069.0 478446.0 0
257783.0 479389.0 0
262949.0 478227.0 0
268482.0 479209.0 0
272965.0 476954.0 0
276891.0 478229.0 0
284421.0 477108.0 0
280701.0 478790.0 0
289574.0 479942.0 0
294443.0 477055.0 0
298286.0 478923.0 0
294666.0 481603.0 0
303019.0 480406.0 0
307862.0 478996.0 0
315839.0 478687.0 0
320030.0 480029.0 0
324917.0 478933.0 0
329063.0 480871.0 0
329978.0 477951.0 0
333328.0 477653.0 0
333122.0 482082.0 0
336747.0 479045.0 0
340470.0 480087.0 0
343764.0 478601.0 0
346252.0 481307.0 0
352501.0 477834.0 0
350543.0 482133.0 0
355552.0 477775.0 0
358399.0 477951.0 0
355633.0 481160.0 0
359518.0 481317.0 0
361993.0 478534.0 0
365638.0 478958.0 0
368965.0 481433.0 0
372841.0 478670.0 0
377688.0 480645.0 0
384667.0 478197.0 0
382663.0 482119.0 0
387630.0 480941.0 0
390460.0 478645.0 0
392548.0 478462.0 0
392475.0 481725.0 0
396379.0 481768.0 0
398965.0 479939.0 0
400346.0 483100.0 0
402275.0 479764.0 0
406115.0 479095.0 0
404341.0 483457.0 0
409523.0 482456.0 0
413956.0 479892.0 0
418496.0 481759.0 0
422792.0 480166.0 0
426703.0 479769.0 0
429463.0 480420.0 0
430922.0 483094.0 0
432774.0 480436.0 0
436588.0 480238.0 0
440855.0 479323.0 0
439451.0 483098.0 0
445448.0 480456.0 0
448876.0 480173.0 0
452220.0 481614.0 0
455590.0 478865.0 0
455843.0 483232.0 0
458646.0 481314.0 0
460600.0 478481.0 0
464394.0 479771.0 0
467441.0 482268.0 0
463210.0 482863.0 0
25761.5 486723.0 0
28980.3 484624.0 0
33384.5 485399.0 0
37033.0 485675.0 0
40687.1 484632.0 0
44309.0 488156.0 0
48778.1 484772.0 0
52841.2 484057.0 0
51705.8 487264.0 0
48367.9 488877.0 0
56131.5 487323.0 0
59204.0 484052.0 0
61617.5 486631.0 0
67810.5 483332.0 0
65613.3 486447.0 0
69652.2 486871.0 0
71850.7 483379.0 0
75857.6 483492.0 0
73522.2 487232.0 0
76524.2 486662.0 0
79824.7 482972.0 0
79419.1 486313.0 0
84106.4 484484.0 0
88591.0 486294.0 0
92913.0 485879.0 0
95526.1 483523.0 0
97419.7 486302.0 0
102242.0 486064.0 0
106333.0 483323.0 0
106357.0 487604.0 0
109675.0 484706.0 0
112940.0 485821.0 0
115796.0 483953.0 0
119795.0 485455.0 0
124153.0 487399.0 0
127819.0 484885.0 0
132155.0 486098.0 0
136437.0 485704.0 0
139395.0 486257.0 0
143546.0 486249.0 0
148966.0 486213.0 0
154798.0 483450.0 0
159446.0 484071.0 0
157393.0 487574.0 0
164723.0 484995.0 0
169202.0 483297.0 0
172430.0 484600.0 0
179421.0 484398.0 0
175577.0 486619.0 0
183484.0 486132.0 0
187111.0 483372.0 0
187391.0 487437.0 0
194084.0 482056.0 0
191041.0 485190.0 0
194309.0 487341.0 0
196429.0 484629.0 0
200525.0 484321.0 0
204648.0 484514.0 0
208689.0 486877.0 0
212520.0 485229.0 0
215594.0 483801.0 0
220047.0 485631.0 0
225642.0 485510.0 0
230307.0 484587.0 0
231496.0 482082.0 0
235000.0 484000.0 0
241993.0 485006.0 0
245667.0 483492.0 0
249286.0 484262.0 0
245899.0 487110.0 0
253115.0 482035.0 0
253035.0 486666.0 0
256977.0 484669.0 0
261369.0 483308.0 0
264832.0 486820.0 0
265329.0 482589.0 0
269068.0 484625.0 0
273226.0 481644.0 0
278203.0 483316.0 0
283967.0 482040.0 0
282395.0 487063.0 0
287606.0 485933.0 0
292267.0 485658.0 0
298833.0 483744.0 0
303698.0 485553.0 0
307017.0 483055.0 0
311825.0 482553.0 0
313289.0 487014.0 0
317089.0 484252.0 0
322607.0 484083.0 0
328319.0 484926.0 0
333787.0 487472.0 0
338225.0 483990.0 0
343064.0 482945.0 0
342593.0 487149.0 0
346761.0 485045.0 0
354197.0 484943.0 0
350768.0 487677.0 0
358905.0 485448.0 0
363570.0 483048.0 0
362674.0 486801.0 0
366820.0 484379.0 0
370021.0 486063.0 0
366010.0 487110.0 0
373824.0 483596.0 0
378793.0 485923.0 0
383097.0 486156.0 0
386116.0 484807.0 0
389567.0 484406.0 0
385588.0 487896.0 0
388852.0 487560.0 0
393008.0 486209.0 0
397147.0 485352.0 0
401395.0 487704.0 0
406912.0 487733.0 0
411678.0 486268.0 0
414894.0 483606.0 0
415808.0 487599.0 0
419132.0 485452.0 0
422199.0 483650.0 0
426745.0 483669.0 0
423439.0 486944.0 0
431381.0 486578.0 0
427763.0 488351.0 0
435439.0 484529.0 0
440447.0 487705.0 0
443532.0 483744.0 0
445507.0 487614.0 0
448233.0 484084.0 0
449762.0 487947.0 0
452761.0 485411.0 0
459328.0 484143.0 0
457493.0 487413.0 0
466964.0 486136.0 0
462574.0 487199.0 0
470760.0 484776.0 0
474710.0 487899.0 0
16708.2 491678.0 0
19545.6 490172.0 0
22395.1 488394.0 0
21372.5 493360.0 0
25458.9 490644.0 0
29930.5 489040.0 0
28407.6 492744.0 0
34807.4 489692.0 0
37693.7 493584.0 0
39426.9 489145.0 0
42461.1 493088.0 0
46901.7 492515.0 0
51527.8 491007.0 0
55905.1 493374.0 0
59791.9 490078.0 0
63922.7 489944.0 0
67431.9 489847.0 0
66367.7 493434.0 0
71584.3 492089.0 0
76697.1 490027.0 0
81732.4 489685.0 0
85409.5 488274.0 0
87668.4 489191.0 0
86013.6 491635.0 0
90786.1 490388.0 0
95166.1 489921.0 0
99440.3 489709.0 0
103180.0 490772.0 0
107306.0 491904.0 0
110587.0 488658.0 0
112184.0 492784.0 0
115435.0 488636.0 0
116956.0 492997.0 0
120221.0 490221.0 0
124369.0 491941.0 0
128172.0 489250.0 0
132109.0 491226.0 0
136418.0 489415.0 0
141210.0 489974.0 0
145785.0 490849.0 0
153568.0 488147.0 0
150950.0 492518.0 0
155638.0 490890.0 0
159275.0 491211.0 0
160994.0 487853.0 0
164582.0 491100.0 0
169384.0 487833.0 0
169249.0 492440.0 0
173189.0 490492.0 0
176395.0 489554.0 0
179776.0 489002.0 0
184171.0 490425.0 0
188109.0 490966.0 0
191348.0 489366.0 0
195222.0 491757.0 0
198061.0 488117.0 0
199342.0 491310.0 0
203042.0 489099.0 0
206842.0 491717.0 0
213601.0 488068.0 0
210814.0 491818.0 0
216862.0 488191.0 0
219646.0 490503.0 0
223068.0 489386.0 0
229303.0 487649.0 0
227346.0 491277.0 0
232075.0 487586.0 0
231849.0 491099.0 0
235257.0 489334.0 0
238686.0 487403.0 0
238930.0 491924.0 0
242427.0 489679.0 0
249711.0 489021.0 0
246330.0 491722.0 0
253121.0 490742.0 0
256443.0 489301.0 0
260421.0 488048.0 0
263447.0 491840.0 0
269157.0 490406.0 0
273232.0 486522.0 0
277532.0 489238.0 0
281896.0 491914.0 0
285521.0 489799.0 0
289090.0 490980.0 0
293132.0 490941.0 0
296294.0 487697.0 0
298268.0 491985.0 0
300486.0 488256.0 0
308739.0 487741.0 0
304166.0 489983.0 0
312532.0 491194.0 0
316552.0 489427.0 0
320184.0 487791.0 0
324484.0 489167.0 0
320508.0 492251.0 0
329461.0 490627.0 0
333264.0 492115.0 0
338254.0 487987.0 0
336590.0 491282.0 0
340401.0 490355.0 0
344258.0 491896.0 0
346635.0 488731.0 0
348957.0 491884.0 0
353679.0 492155.0 0
355241.0 488287.0 0
358851.0 490270.0 0
363856.0 490420.0 0
369595.0 490904.0 0
374157.0 488368.0 0
374516.0 492644.0 0
377604.0 490391.0 0
382222.0 490305.0 0
387110.0 491516.0 0
391789.0 490484.0 0
396495.0 489566.0 0
399826.0 493070.0 0
403950.0 491536.0 0
408111.0 492934.0 0
411759.0 490256.0 0
416119.0 492159.0 0
419960.0 489344.0 0
424639.0 491893.0 0
431474.0 490252.0 0
429071.0 492462.0 0
435504.0 489707.0 0
433001.0 493133.0 0
439664.0 492655.0 0
443915.0 491640.0 0
447605.0 490776.0 0
451740.0 492346.0 0
453666.0 489007.0 0
456727.0 491812.0 0
460912.0 491317.0 0
465831.0 490402.0 0
470197.0 489149.0 0
474363.0 492630.0 0
479304.0 490521.0 0
483213.0 492225.0 0
10415.3 496408.0 0
13997.2 494356.0 0
17419.5 496598.0 0
21178.4 497227.0 0
25433.0 494428.0 0
24045.7 498076.0 0
28423.8 496522.0 0
32462.4 493795.0 0
32023.5 498409.0 0
35886.5 497401.0 0
40780.3 497307.0 0
45297.7 496738.0 0
50164.8 495387.0 0
54023.0 498636.0 0
61687.0 493759.0 0
58926.7 497531.0 0
64096.9 497403.0 0
69020.1 497021.0 0
75915.5 494121.0 0
73821.6 497092.0 0
79227.5 493294.0 0
82722.7 494371.0 0
78691.2 497388.0 0
83170.8 498258.0 0
88602.5 496305.0 0
93642.0 493877.0 0
98191.7 493849.0 0
103412.0 495717.0 0
99036.8 498029.0 0
108599.0 496343.0 0
112868.0 497467.0 0
115021.0 495343.0 0
117569.0 497897.0 0
120982.0 494943.0 0
124865.0 496260.0 0
128326.0 493953.0 0
132088.0 495964.0 0
135171.0 493470.0 0
138877.0 493506.0 0
136311.0 497145.0 0
142735.0 493698.0 0
141015.0 497283.0 0
146426.0 496365.0 0
155817.0 494551.0 0
160889.0 495306.0 0
166845.0 497140.0 0
172801.0 495604.0 0
176931.0 492789.0 0
177650.0 496963.0 0
181225.0 493793.0 0
186152.0 495149.0 0
190963.0 493695.0 0
194459.0 496963.0 0
199330.0 495302.0 0
203752.0 494162.0 0
207935.0 496470.0 0
212539.0 496019.0 0
215545.0 492368.0 0
219193.0 495121.0 0
222955.0 493565.0 0
226301.0 496543.0 0
234897.0 493854.0 0
230636.0 495212.0 0
238653.0 496545.0 0
242738.0 493919.0 0
246176.0 495779.0 0
250749.0 494652.0 0
255768.0 493891.0 0
259108.0 492137.0 0
260557.0 496175.0 0
266385.0 495336.0 0
274055.0 493600.0 0
270002.0 495422.0 0
278654.0 494166.0 0
281769.0 496199.0 0
285725.0 493907.0 0
290475.0 495739.0 0
295108.0 495068.0 0
302566.0 493968.0 0
299265.0 497063.0 0
307753.0 493908.0 0
312486.0 495782.0 0
316377.0 494273.0 0
320282.0 497236.0 0
325449.0 494857.0 0
330673.0 495232.0 0
335198.0 495745.0 0
339727.0 494182.0 0
343534.0 496820.0 0
347097.0 495190.0 0
350775.0 496245.0 0
357550.0 494109.0 0
355083.0 497220.0 0
358950.0 497167.0 0
361492.0 494186.0 0
366384.0 494920.0 0
371526.0 496092.0 0
374469.0 498023.0 0
375323.0 495864.0 0
379146.0 494358.0 0
383996.0 495280.0 0
387493.0 494937.0 0
390501.0 494454.0 0
394882.0 493782.0 0
392865.0 497621.0 0
400305.0 496888.0 0
397375.0 497145.0 0
404458.0 496823.0 0
409471.0 496835.0 0
412671.0 494971.0 0
420187.0 493547.0 0
417447.0 497313.0 0
422902.0 496665.0 0
427198.0 495841.0 0
430649.0 495314.0 0
434246.0 497275.0 0
436207.0 494008.0 0
438980.0 497240.0 0
442855.0 495704.0 0
447298.0 494942.0 0
451534.0 496267.0 0
449472.0 498416.0 0
455539.0 495320.0 0
459755.0 494987.0 0
458466.0 498318.0 0
464177.0 494706.0 0
469504.0 493941.0 0
477774.0 495167.0 0
481881.0 496471.0 0
486671.0 494824.0 0
486043.0 499966.0 0
490650.0 497202.0 0
494524.0 499654.0 0
7266.08 497934.0 0
3280.4 500016.0 0
8516.69 502341.0 0
12854.4 499667.0 0
16758.1 501165.0 0
20319.5 499991.0 0
22877.1 502485.0 0
27884.3 502135.0 0
33502.4 501990.0 0
38209.1 501610.0 0
43711.4 501822.0 0
48709.1 499863.0 0
52141.4 503029.0 0
56748.9 502533.0 0
61048.6 501219.0 0
66429.4 502625.0 0
71523.8 500828.0 0
70397.5 503235.0 0
75780.7 501481.0 0
81083.1 502301.0 0
85973.8 501093.0 0
90268.8 501961.0 0
94492.7 498779.0 0
98018.9 501393.0 0
101473.0 500153.0 0
105939.0 501162.0 0
110480.0 500108.0 0
114320.0 501314.0 0
118284.0 501997.0 0
122426.0 499850.0 0
128176.0 498936.0 0
126278.0 502936.0 0
132598.0 500332.0 0
137785.0 502064.0 0
143590.0 501138.0 0
147917.0 500811.0 0
152007.0 498330.0 0
156922.0 498333.0 0
161298.0 500900.0 0
170355.0 500502.0 0
174314.0 500612.0 0
178604.0 500792.0 0
182341.0 498650.0 0
190117.0 497844.0 0
187158.0 501898.0 0
192785.0 501540.0 0
198422.0 501083.0 0
203269.0 498492.0 0
202882.0 502075.0 0
206647.0 501695.0 0
211638.0 500440.0 0
216167.0 498336.0 0
218879.0 501622.0 0
222068.0 498580.0 0
226021.0 500942.0 0
229368.0 499339.0 0
234182.0 499289.0 0
238977.0 501865.0 0
242915.0 498614.0 0
247446.0 499450.0 0
251812.0 499900.0 0
256281.0 498164.0 0
264224.0 498892.0 0
268680.0 499533.0 0
272477.0 497697.0 0
272895.0 501245.0 0
276866.0 498382.0 0
281274.0 500895.0 0
285728.0 498585.0 0
285238.0 503032.0 0
289594.0 501810.0 0
294867.0 500105.0 0
300275.0 501780.0 0
304241.0 498655.0 0
309727.0 499981.0 0
315509.0 499274.0 0
324172.0 500067.0 0
319790.0 502169.0 0
328335.0 498828.0 0
332360.0 498998.0 0
339106.0 499166.0 0
335375.0 502303.0 0
343277.0 500913.0 0
347346.0 499642.0 0
352156.0 501477.0 0
358160.0 501909.0 0
363120.0 498861.0 0
368203.0 499455.0 0
365745.0 501710.0 0
373014.0 501950.0 0
377866.0 498955.0 0
383154.0 500382.0 0
388060.0 498383.0 0
391243.0 501439.0 0
395946.0 501703.0 0
400606.0 500032.0 0
404354.0 502280.0 0
408541.0 500423.0 0
412848.0 499066.0 0
412162.0 502508.0 0
416399.0 502381.0 0
421364.0 501000.0 0
426079.0 499812.0 0
430156.0 498791.0 0
429322.0 502694.0 0
432994.0 501352.0 0
436630.0 500700.0 0
441045.0 501575.0 0
445270.0 499455.0 0
449751.0 502659.0 0
454227.0 499952.0 0
462265.0 498574.0 0
459216.0 502544.0 0
463624.0 502364.0 0
467560.0 498901.0 0
471262.0 502305.0 0
473545.0 497858.0 0
474979.0 502005.0 0
478401.0 499732.0 0
482000.0 503431.0 0
487150.0 505442.0 0
490709.0 502144.0 0
494609.0 503702.0 0
498267.0 500021.0 0
497899.0 502916.0 0
3686.52 506311.0 0
9384.84 507005.0 0
13588.1 504868.0 0
19170.4 504474.0 0
23729.0 507574.0 0
28594.8 507231.0 0
31776.0 505462.0 0
35377.2 505864.0 0
36731.2 509053.0 0
40116.3 506371.0 0
44572.7 507163.0 0
48055.8 504531.0 0
54599.2 506853.0 0
60670.2 506484.0 0
66756.4 508285.0 0
72076.8 505975.0 0
77158.7 505962.0 0
81690.0 507232.0 0
85517.3 504568.0 0
85692.0 508147.0 0
89713.9 506432.0 0
94833.5 504642.0 0
100907.0 504719.0 0
106927.0 506026.0 0
110800.0 503948.0 0
110721.0 508439.0 0
115714.0 506249.0 0
121474.0 505021.0 0
126302.0 508218.0 0
132195.0 505658.0 0
137276.0 506972.0 0
141645.0 505896.0 0
146454.0 504979.0 0
150906.0 503407.0 0
154611.0 507879.0 0
155740.0 502958.0 0
160660.0 507738.0 0
166614.0 503743.0 0
171309.0 503532.0 0
174578.0 505766.0 0
170447.0 507909.0 0
177344.0 503589.0 0
178086.0 506390.0 0
181590.0 504177.0 0
185879.0 507809.0 0
195891.0 505763.0 0
191131.0 506278.0 0
201704.0 505596.0 0
209981.0 504627.0 0
206285.0 506504.0 0
215233.0 505338.0 0
222586.0 503288.0 0
226929.0 505679.0 0
230662.0 502841.0 0
234748.0 504911.0 0
239978.0 507394.0 0
245004.0 503793.0 0
250342.0 504673.0 0
255904.0 503859.0 0
260549.0 501099.0 0
265232.0 503968.0 0
270896.0 505740.0 0
276787.0 504232.0 0
282043.0 506016.0 0
287957.0 507877.0 0
293095.0 505229.0 0
296984.0 504543.0 0
300611.0 506557.0 0
305586.0 503222.0 0
304943.0 507558.0 0
310355.0 506320.0 0
315473.0 504033.0 0
319042.0 507514.0 0
324220.0 505335.0 0
330006.0 503759.0 0
334798.0 508058.0 0
340426.0 504864.0 0
345616.0 503834.0 0
349449.0 506104.0 0
354826.0 506890.0 0
363381.0 503739.0 0
360395.0 506980.0 0
367773.0 503862.0 0
365251.0 507613.0 0
370657.0 508009.0 0
378940.0 503558.0 0
375953.0 507095.0 0
383249.0 506338.0 0
387647.0 503556.0 0
392390.0 505476.0 0
400249.0 504473.0 0
396344.0 506460.0 0
404047.0 507003.0 0
408804.0 505265.0 0
413660.0 505882.0 0
420572.0 506025.0 0
425328.0 504193.0 0
425662.0 509027.0 0
428732.0 506131.0 0
432513.0 505182.0 0
434976.0 508562.0 0
437329.0 504954.0 0
441479.0 506054.0 0
445192.0 504559.0 0
444469.0 509005.0 0
449846.0 508112.0 0
454676.0 505099.0 0
459213.0 507472.0 0
464241.0 506662.0 0
467146.0 503305.0 0
469291.0 506442.0 0
474187.0 505961.0 0
477675.0 503794.0 0
478828.0 508139.0 0
483625.0 508078.0 0
492189.0 507002.0 0
497484.0 506768.0 0
3215.88 512668.0 0
7550.61 510407.0 0
12091.6 510889.0 0
17319.3 509055.0 0
24972.8 511468.0 0
21420.0 512966.0 0
27815.6 510503.0 0
32269.8 509259.0 0
35502.8 513326.0 0
40135.5 510871.0 0
44475.2 511676.0 0
49482.1 509357.0 0
52255.2 513302.0 0
56788.9 511282.0 0
62260.0 511576.0 0
67224.2 513452.0 0
72070.2 511232.0 0
77731.0 510960.0 0
83271.2 511644.0 0
88405.7 511226.0 0
93094.6 509698.0 0
97769.2 509066.0 0
95815.8 512916.0 0
103725.0 510336.0 0
114319.0 511351.0 0
109335.0 513217.0 0
117726.0 509917.0 0
121066.0 509694.0 0
123888.0 513333.0 0
130767.0 511189.0 0
135120.0 510283.0 0
140000.0 510789.0 0
144570.0 509143.0 0
150064.0 508092.0 0
147542.0 511519.0 0
151596.0 512692.0 0
156271.0 512284.0 0
164819.0 512777.0 0
166262.0 508763.0 0
169814.0 512899.0 0
174878.0 510980.0 0
180554.0 509850.0 0
189893.0 511328.0 0
194404.0 510014.0 0
198752.0 509119.0 0
203306.0 510369.0 0
210497.0 509073.0 0
221062.0 508225.0 0
274666.0 508888.0 0
278673.0 509215.0 0
282914.0 510700.0 0
292180.0 512096.0 0
296145.0 509036.0 0
302020.0 511293.0 0
307367.0 512083.0 0
312588.0 512596.0 0
314859.0 509136.0 0
317465.0 512096.0 0
323202.0 510913.0 0
328200.0 509391.0 0
336320.0 512790.0 0
340045.0 510497.0 0
344867.0 508443.0 0
349158.0 510942.0 0
354021.0 512637.0 0
358132.0 510572.0 0
362409.0 511522.0 0
367288.0 512226.0 0
374802.0 512170.0 0
379507.0 509890.0 0
383773.0 511753.0 0
388750.0 509053.0 0
394259.0 509884.0 0
399484.0 509718.0 0
404380.0 511575.0 0
407579.0 509410.0 0
408254.0 512567.0 0
411792.0 510144.0 0
416448.0 508815.0 0
415995.0 513622.0 0
420751.0 511312.0 0
424687.0 513774.0 0
430754.0 509562.0 0
435266.0 512352.0 0
439459.0 509979.0 0
443024.0 512897.0 0
447505.0 512741.0 0
452718.0 512499.0 0
454865.0 509199.0 0
462648.0 510800.0 0
458061.0 512693.0 0
467301.0 511023.0 0
472154.0 513195.0 0
471759.0 509448.0 0
474826.0 510011.0 0
482077.0 511954.0 0
488016.0 511787.0 0
494108.0 511220.0 0
498006.0 510497.0 0
2012.97 517295.0 0
8759.45 514381.0 0
5698.78 517544.0 0
12766.6 516331.0 0
16097.0 513917.0 0
18538.8 518218.0 0
23304.9 517386.0 0
26575.5 514549.0 0
30584.6 513163.0 0
31206.9 517354.0 0
40683.5 515298.0 0
44425.9 515264.0 0
46211.8 517997.0 0
48097.8 514262.0 0
51305.0 518423.0 0
55220.7 515528.0 0
59324.9 515478.0 0
63185.7 515694.0 0
66015.3 518477.0 0
70139.7 516683.0 0
74977.4 516038.0 0
80664.2 515839.0 0
86062.0 515662.0 0
91597.5 515244.0 0
96417.4 517197.0 0
99602.0 514192.0 0
103881.0 516380.0 0
108358.0 518400.0 0
113998.0 517043.0 0
118772.0 513620.0 0
119358.0 518317.0 0
124015.0 518353.0 0
128577.0 515724.0 0
134084.0 515124.0 0
139477.0 516361.0 0
144091.0 513933.0 0
148199.0 515142.0 0
154134.0 515976.0 0
157884.0 516571.0 0
160410.0 513567.0 0
162839.0 518073.0 0
178510.0 514478.0 0
185043.0 513327.0 0
326802.0 514039.0 0
331812.0 513338.0 0
339165.0 514808.0 0
335597.0 516872.0 0
340350.0 518253.0 0
344532.0 514667.0 0
350281.0 516225.0 0
358881.0 514980.0 0
354955.0 517908.0 0
364278.0 516556.0 0
369869.0 516702.0 0
371034.0 512901.0 0
374724.0 516977.0 0
379394.0 515018.0 0
384531.0 516649.0 0
387638.0 513903.0 0
389256.0 517825.0 0
391681.0 513647.0 0
396706.0 514856.0 0
401395.0 513932.0 0
401471.0 517590.0 0
406083.0 516294.0 0
411206.0 515270.0 0
415908.0 518828.0 0
420637.0 516543.0 0
426153.0 518889.0 0
429247.0 513959.0 0
433488.0 516065.0 0
438989.0 515691.0 0
444924.0 516954.0 0
450580.0 517247.0 0
454881.0 515636.0 0
459857.0 517137.0 0
462972.0 518862.0 0
463898.0 515011.0 0
468332.0 515199.0 0
466760.0 518949.0 0
471896.0 518128.0 0
477242.0 513477.0 0
481285.0 516190.0 0
489164.0 517384.0 0
485356.0 516970.0 0
493018.0 515659.0 0
497562.0 514344.0 0
497911.0 518400.0 0
2746.42 521674.0 0
9743.25 519782.0 0
14351.3 520146.0 0
17492.6 523281.0 0
23299.7 522542.0 0
27094.1 518821.0 0
29962.1 522243.0 0
36407.4 518914.0 0
34044.6 522743.0 0
42025.0 520346.0 0
47189.4 522591.0 0
56798.4 519259.0 0
54167.5 523817.0 0
59059.8 522719.0 0
61365.5 519250.0 0
63617.6 523557.0 0
68969.6 522376.0 0
71984.0 519391.0 0
73886.1 522286.0 0
78393.0 520649.0 0
83616.9 519967.0 0
88725.7 520028.0 0
93169.8 519806.0 0
96594.8 521822.0 0
100326.0 519585.0 0
104568.0 521235.0 0
111387.0 523382.0 0
116748.0 521723.0 0
121282.0 522642.0 0
128022.0 521822.0 0
131669.0 519054.0 0
135812.0 520111.0 0
141919.0 520440.0 0
145612.0 518371.0 0
150630.0 518940.0 0
347372.0 519036.0 0
351012.0 521219.0 0
355999.0 522837.0 0
360120.0 519825.0 0
366959.0 520881.0 0
371518.0 521370.0 0
376470.0 521565.0 0
381200.0 519826.0 0
385724.0 521174.0 0
390176.0 522649.0 0
393816.0 519495.0 0
398600.0 521103.0 0
404468.0 521852.0 0
410524.0 520510.0 0
415156.0 523947.0 0
420488.0 521915.0 0
425002.0 524049.0 0
431169.0 519289.0 0
435842.0 520933.0 0
441690.0 520734.0 0
439408.0 524718.0 0
447021.0 521785.0 0
452113.0 522394.0 0
455863.0 519310.0 0
460132.0 521268.0 0
464289.0 522596.0 0
469607.0 522644.0 0
474105.0 522240.0 0
477123.0 518791.0 0
477899.0 523456.0 0
481963.0 521116.0 0
486948.0 521040.0 0
490676.0 520467.0 0
494247.0 520053.0 0
497789.0 522494.0 0
2912.91 527180.0 0
7221.99 524116.0 0
12416.9 524374.0 0
20369.4 528407.0 0
27456.2 527347.0 0
32787.9 526280.0 0
37933.8 524131.0 0
42753.5 525490.0 0
49637.2 527267.0 0
58631.7 526803.0 0
62810.9 528408.0 0
67233.8 527143.0 0
71887.6 526255.0 0
76789.4 525777.0 0
81950.8 524818.0 0
87228.5 525033.0 0
92500.7 524346.0 0
100358.0 524227.0 0
106515.0 524425.0 0
116452.0 526028.0 0
382079.0 525092.0 0
394691.0 524665.0 0
400522.0 525842.0 0
404762.0 526978.0 0
408565.0 525249.0 0
412175.0 528676.0 0
421970.0 526815.0 0
426442.0 528356.0 0
430274.0 524019.0 0
435385.0 526564.0 0
440411.0 529247.0 0
443683.0 525368.0 0
449945.0 527197.0 0
456476.0 523928.0 0
460910.0 525980.0 0
466649.0 527497.0 0
472683.0 526702.0 0
481166.0 525751.0 0
486143.0 526278.0 0
492243.0 524917.0 0
497569.0 526889.0 0
1224.96 530927.0 0
5316.24 530675.0 0
9119.85 528933.0 0
14195.5 528907.0 0
16695.3 531821.0 0
39099.9 529291.0 0
45000.2 530047.0 0
54474.0 529439.0 0
65853.9 531074.0 0
74310.1 531268.0 0
80060.2 529705.0 0
417656.0 528734.0 0
431397.0 529707.0 0
435930.0 531098.0 0
445359.0 529616.0 0
455702.0 529112.0 0
461671.0 531387.0 0
470940.0 531778.0 0
477530.0 527965.0 0
490059.0 529821.0 0
494208.0 529590.0 0
497909.0 531307.0 0
POINT_DATA 5000
SCALARS Radius float 1
LOOKUP_TABLE default
3163.97 5258.36 5061.3 3642.12 5812.43 5906.14 7513.1 5580.89 6810.52 5415.48 5120.0 6182.6 4998.37 5492.18 5867.73 3951.75 5013.56 4499.64 5542.27 5122.66 5484.19 3557.27 5254.28 4402.52 4436.4 4182.53 5733.48 3588.44 4672.91 5645.7 5553.16 2938.66 6110.27 3672.51 4008.92 5840.26 5073.35 4834.9 3863.18 2356.98 5538.89 5351.6 4715.55 6059.59 4375.68 5701.86 5054.98 6030.06 5325.02 5170.02 4927.31 4688.68 4517.56 4432.58 5903.42 3761.32 5176.86 4366.19 4118.05 5065.13 4940.78 5561.06 5670.04 5085.53 5484.83 7021.47 4730.36 5926.61 2720.68 4955.55 4238.81 4468.59 3563.63 5885.03 5246.2 5200.76 4862.64 5185.34 5205.43 6684.56 3955.56 2635.86 5292.64 6166.5 5936.02 3615.22 5305.17 4380.59 6716.79 3850.77 6044.04 5325.36 6759.9 5416.38 6051.14 4195.44 5836.15 4345.55 2837.58 3653.41 5017.13 3871.88 4827.23 3673.74 4911.47 6116.18 3968.64 4688.67 4385.06 7184.19 4290.3 4231.61 3942.53 3379.84 5546.39 5945.65 5418.62 5493.32 4601.27 5740.68 4277.89 3261.21 5539.32 6704.06 5600.93 3856.01 4390.66 4124.71 5279.39 6337.56 5803.39 7447.37 3255.82 4924.6 5242.73 4733.32 2812.98 2899.43 2924.37 3867.67 4861.08 4003.05 4827.82 7613.27 4951.03 4133.88 4094.62 4927.02 6483.19 6230.49 7054.71 5489.43 3641.64 5054.25 5747.75 4796.33 5360.19 6496.85 5541.59 4839.34 5083.08 5728.85 3998.5 5863.59 4381.97 6257.19 5603.15 4737.14 4065.69 5399.73 4712.33 4805.87 3607.45 3589.27 5759.91 4333.2 4665.12 3936.02 5980.74 4174.52 5109.54 6458.82 5527.54 5573.7 7325.81 4055.8 4794.96 4874.39 2980.99 6186.19 4840.01 6834.49 5525.39 5938.34 6394.38 4024.3 5555.28 4686.65 4695.45 4660.72 5556.96 5390.22 6038.78 5227.21 5123.52 3997.1 3260.67 3383.4 3856.1 4044.71 5816.2 3829.13 5693.81 3091.3 2540.31 5789.98 6138.47 5697.4 4727.62 4005.44 5206.78 6425.26 5143.58 4484.76 5611.2 7933.0 5173.87 5118.27 5169.36 5834.74 3888.21 5788.23 6052.7 5697.78 4295.38 4667.36 3038.33 4780.03 5495.39 4487.31 4778.34 4684.5 4138.16 6029.66 6302.8 4270.95 5555.88 5280.17 5028.96 3866.16 6362.12 5152.36 4220.65 6820.42 4455.12 5380.13 4894.16 5711.87 5932.23 5581.75 3666.57 3798.62 3921.18 6902.81 4392.68 3554.9 5252.48 3996.0 4002.16 5708.81 5043.05 5120.49 5409.61 6038.2 5713.22 6732.43 3183.98 4524.28 3778.1 4511.82 5826.64 4727.24 6959.81 4816.2 6321.41 4896.52 3372.79 4941.22 5791.61 6392.01 6644.76 5891.05 5615.42 4091.31 7199.21 5529.52 5542.21 4015.92 5924.89 6894.71 3486.22 5551.36 4414.54 5201.36 5262.61 5094.81 5972.06 5861.71 5017.78 3794.63 5015.69 6175.81 6677.09 5813.4 4829.35 4089.76 4751.02 5282.64 5184.56 4479.66 3369.13 5308.1 3043.85 4254.17 6730.19 6372.62 7565.34 4523.7 6124.89 5481.78 4937.14 4467.94 4850.81 6038.14 4306.53 5024.9 6135.57 5998.38 4312.67 4270.24 4359.04 4989.15 4947.52 4164.13 4520.1 4642.34 5874.89 4305.57 5201.67 3791.79 5526.55 3192.41 4987.87 4715.72 3315.57 4669.66 5367.2 5461.13 4907.89 5629.19 5255.32 5337.48 6084.86 3307.12 4933.21 5478.92 5094.44 5375.47 4723.12 4717.05 5659.17 5287.2 4562.29 5423.8 3417.33 4926.42 5153.74 4165.81 4293.03 4754.05 4424.7 4925.44 4951.47 6084.93 5215.15 4764.96 5607.24 4808.52 3599.45 4726.76 5655.21 5091.39 4937.02 6037.08 5637.59 3586.91 4948.92 3115.91 5810.84 3748.24 4230.54 4655.49 4566.18 3459.9 4809.42 5856.11 4109.88 5013.13 4234.94 5080.66 5110.45 5248.77 4528.09 3556.85 3895.51 4389.21 4128.98 6246.22 5246.61 4307.28 5804.71 5046.33 5020.12 5053.92 5839.13 3735.44 5090.24 4073.93 4645.41 5923.5 2240.39 6756.95 4049.23 3103.0 5601.05 4516.43 4749.8 4493.48 5082.6 6163.38 4964.09 4997.27 4093.08 5543.27 3327.49 4980.85 3960.8 4923.9 5714.58 4973.78 3329.99 3947.47 4083.97 5208.32 4607.02 6673.96 6291.51 5882.89 4100.38 5538.93 5727.3 6352.26 4242.52 4907.06 4786.6 4433.59 5740.84 5096.78 6324.23 4382.74 4384.42 4362.19 3693.63 3937.74 6061.47 4449.22 5628.24 5992.26 5070.39 4613.31 5091.68 3296.27 4713.25 6243.0 5441.96 5174.89 5370.52 4188.32 4739.42 3697.96 4899.11 4745.45 5356.51 3847.38 3057.03 5163.9 6043.3 5530.87 4973.83 4612.68 3320.52 4727.24 4651.28 6355.42 4151.94 5690.56 5244.78 5478.47 5762.84 6142.37 5806.08 5243.29 4853.39 5365.89 3130.65 5004.67 4511.54 5196.0 6119.09 4204.84 5069.25 5048.89 4288.3 3435.9 3991.03 4652.29 5774.81 5344.77 4723.48 5281.28 4278.07 3818.59 2631.9 4087.15 4863.72 5495.68 5952.75 6445.94 3912.37 4310.18 4929.8 5927.43 5492.26 6640.13 5119.37 3982.23 5351.39 4336.42 7589.94 5409.33 4466.03 4178.15 4898.94 4733.04 7531.29 5935.03 3161.47 6826.57 4495.87 3746.31 5027.98 5097.87 5346.27 7267.18 4143.08 5489.34 5002.48 5708.14 4262.82 5537.72 4281.49 4320.28 4129.43 4685.34 4220.88 6519.71 3092.35 5210.03 4583.31 3402.32 4306.11 5903.66 5419.37 5985.29 4247.23 5788.66 4755.47 4485.99 3903.75 6390.78 7435.25 4788.87 5498.32 6475.1 4758.21 6255.18 7500.97 6332.36 5542.14 4218.06 6342.25 3843.58 6327.9 5449.18 3629.96 4714.54 3320.11 6022.17 4503.89 5313.66 4528.49 5275.32 4268.65 4694.83 4354.08 5509.42 4520.62 5475.7 5475.8 5314.69 6050.81 5543.46 6022.72 5527.33 4969.21 2691.29 4277.88 3920.42 6623.85 4931.53 6691.39 6082.81 3191.99 5367.52 4048.37 5030.91 5507.24 5101.59 6851.54 5935.47 2651.49 5512.23 5349.31 4649.22 5394.55 4256.43 5936.36 5229.48 5127.16 4249.46 4244.99 4643.31 6917.52 6256.02 5402.21 4668.71 7228.46 5102.36 8332.24 7134.64 4602.25 5293.9 5110.37 5664.98 4548.16 4322.15 4659.59 5025.39 3813.22 4377.07 5570.3 3848.93 5234.29 4711.62 4114.24 4645.58 5670.2 2976.22 5094.52 2682.24 5928.32 5415.19 4016.18 5526.75 5435.74 5560.26 5965.81 3702.37 2330.66 4177.19 3691.0 2845.98 5320.92 3948.23 5228.18 5787.31 4342.9 6122.55 5480.13 4270.53 6142.94 4931.38 4736.58 3485.26 3240.09 4556.36 3369.23 3688.8 3695.36 5893.5 4547.19 6020.48 3963.86 5076.35 5200.05 4091.8 5181.4 5166.79 4946.74 3950.63 4612.62 4275.57 3619.07 6385.23 5327.45 6185.89 2983.99 5660.85 4750.17 3990.25 4752.51 3758.07 3587.05 4880.14 4989.09 6362.14 6719.88 5978.82 6308.71 5978.9 2739.94 4790.08 4194.5 4329.05 4792.73 5264.06 4515.71 5358.59 6202.55 3817.13 5023.15 3844.9 5273.35 6375.99 4853.02 6259.23 4662.56 3457.48 3405.98 5417.15 5996.33 6631.19 4467.04 5817.25 3997.96 3460.94 2614.4 6184.4 4373.45 6229.37 4982.31 5269.18 5034.59 4406.1 6155.31 5065.11 5911.67 4223.33 4187.56 5082.47 4840.84 5513.6 5138.31 4901.41 4551.24 6387.01 7111.16 4871.44 4564.34 5088.44 6248.81 4998.21 3931.07 7440.72 3688.16 4681.72 3949.6 5661.62 5626.61 4439.35 6363.92 6205.93 3828.81 5309.98 5830.72 5289.52 5314.85 4305.43 4553.56 4942.77 5069.84 3629.62 5329.64 3323.28 4997.27 3708.04 6013.14 3610.4 4621.75 4581.13 6338.89 4219.07 5584.06 6480.17 3838.56 5872.05 6079.11 4256.67 4427.28 6430.39 4945.39 5376.71 4867.08 5407.78 6648.68 6632.99 5061.98 4923.24 7177.44 4307.48 6718.19 4407.87 5450.44 3848.54 3927.99 5266.5 5868.82 4051.44 4716.19 4301.06 5135.69 5344.25 5344.0 4501.51 4602.86 3856.59 2765.2 5572.95 5372.61 5413.79 3686.21 5402.24 6445.22 5013.42 4962.77 6101.92 5323.3 3082.32 4635.6 4765.02 3658.37 4448.13 5703.6 5070.29 6326.18 4807.28 4713.74 4266.03 4537.6 6179.96 4419.61 5147.36 6260.79 4563.46 4082.57 4236.14 5080.18 5941.4 4263.33 4454.63 4050.9 6695.82 5514.76 3456.98 4290.14 5191.63 5379.87 5925.6 5987.17 3979.82 6723.16 4746.52 4948.5 5651.07 5210.48 3627.55 6239.84 5865.39 5370.85 5629.39 3178.54 2684.03 6157.04 5075.55 4768.61 2261.36 4084.49 4220.03 5703.07 5449.46 6113.54 4662.43 3963.76 5169.9 5733.62 5282.91 4425.84 6510.17 4871.96 5331.02 4066.38 4523.88 6049.55 5709.62 4241.89 6405.76 4593.7 6045.46 4043.57 4138.42 5586.81 5006.58 3824.16 5011.31 5130.91 3868.18 3689.45 4527.02 5383.07 4531.14 7552.94 4519.22 4409.63 7644.38 5521.25 5949.46 3661.9 5136.08 3776.94 5246.47 4010.57 4522.21 5506.19 5280.69 6923.84 6166.29 4043.66 5294.77 6553.94 5282.51 3797.33 3004.16 7256.35 5742.65 5592.32 5835.78 5054.74 4877.67 4020.32 3498.2 4763.45 4481.53 4292.06 5077.33 5330.45 3948.17 5350.88 4959.34 4247.15 4602.85 6552.22 4051.34 6004.68 5379.09 5278.36 6799.4 5107.23 5222.16 4187.31 5558.68 3240.51 6191.29 7422.36 6719.94 5161.01 4950.67 5453.6 4709.05 3077.84 4630.82 5255.18 5528.53 4460.92 5460.65 5945.89 4105.55 4800.69 3279.1 5912.61 4099.77 4978.31 4981.9 4245.72 5941.72 3815.26 4150.99 5681.38 6318.18 5045.38 5125.78 4790.78 5452.83 4591.87 6422.84 5534.94 5180.76 6218.95 5533.42 4802.32 5533.72 4599.38 5730.33 4527.99 4628.4 4376.7 5409.63 5227.59 6051.83 4813.08 4263.16 5726.66 6799.88 4540.86 4767.78 3062.43 5426.78 4042.28 4863.23 3555.86 4402.67 4403.98 5381.16 4948.98 4414.48 5794.24 4537.32 4127.74 6562.18 4216.92 4478.15 5147.67 3771.48 5577.04 4986.77 6034.41 5178.99 4027.09 5801.99 4502.18 3312.06 3361.26 4993.35 4690.55 3678.08 5146.37 5518.57 5463.48 4543.1 5545.46 5680.94 5190.61 5832.37 4298.15 3973.12 4642.93 6024.75 5860.67 5987.42 5990.52 5235.17 6566.1 4560.84 6386.78 5227.52 6086.96 5163.02 4541.21 4302.5 4704.72 5908.1 5445.87 5198.77 4107.03 5423.0 5643.58 5215.05 5137.34 5197.52 5344.43 4373.47 5615.35 6169.11 4135.62 5266.22 5172.53 4860.33 4983.39 3685.13 3418.99 5366.52 4480.95 7132.12 5417.8 4836.16 4232.16 5151.11 5581.55 6550.44 3764.06 5941.9 4440.81 6642.76 6109.49 3764.1 4340.76 5652.0 4421.12 4435.36 6065.22 5565.13 4996.99 6193.35 2476.04 4656.78 3066.13 6048.7 4571.7 4177.94 4138.46 2775.04 3975.31 5198.29 4044.45 6070.58 5490.43 4896.11 5022.28 4318.48 6132.95 5226.97 5754.18 4270.74 4558.15 5132.68 6552.21 5227.02 5300.96 5670.0 5193.01 8325.01 3474.5 4523.39 6348.03 5829.22 5567.93 4497.78 2967.38 4835.83 5811.18 5463.41 4929.75 5254.49 4221.28 6045.22 4470.61 4456.39 4631.83 4156.38 4092.24 6009.88 6006.16 4344.58 5896.46 4850.01 3970.25 4271.69 6035.6 4285.32 3627.82 5262.19 6449.45 4285.66 5339.38 5008.63 4004.35 4763.96 3872.61 6293.89 3450.93 5737.75 6595.03 4350.12 3603.51 3834.43 6609.84 4344.51 4707.06 5491.37 3781.77 3860.83 4792.39 4250.88 5732.27 5434.47 4243.79 4779.5 5332.65 4159.35 4237.98 6439.37 6649.96 4896.39 3701.27 4729.43 5233.78 5105.16 5991.09 5126.91 4562.74 4164.68 4678.38 4742.68 5634.83 4810.12 6898.19 3821.72 5526.14 4244.9 4470.4 4986.51 5311.03 3930.79 5293.51 4238.4 5365.24 5097.45 4446.06 4047.87 5742.47 4185.61 3778.02 4095.75 2761.07 4367.78 3319.67 4076.59 5135.96 5222.51 5658.37 6074.94 3475.67 5278.56 7038.89 5146.37 6917.62 5433.65 6451.33 5604.35 5225.33 3091.67 4614.3 4384.88 4332.87 3633.79 6887.27 4806.34 6008.49 5050.65 5316.75 3633.87 3929.19 7099.43 6396.74 4516.28 5315.4 6048.86 4611.53 6894.26 5255.12 6625.18 4573.72 4917.99 5099.21 4298.45 5636.4 5164.1 4428.14 4972.17 5699.53 3783.54 5527.23 4222.77 5268.38 3863.67 4805.33 4814.12 5631.14 6137.8 5067.56 4442.22 4887.76 5413.31 6477.91 4303.19 4081.97 5514.84 6081.14 5421.53 3942.07 5480.83 5776.57 5448.61 4827.33 5495.84 6268.1 5347.48 5922.5 5776.37 4527.08 5486.68 5100.25 5094.48 5678.96 2681.29 6408.83 5576.92 5323.91 4163.74 4586.19 4296.69 6969.28 3665.95 5283.8 6471.42 6464.15 6016.19 6685.4 4479.11 4850.06 6332.01 7044.29 5980.95 4013.38 7085.01 4343.78 3012.99 5263.3 6316.56 5401.99 6420.81 3914.2 5653.9 5134.39 4256.57 7144.24 5133.97 6600.94 7443.72 3937.08 4374.35 4502.5 4011.77 4287.63 2965.79 4410.55 5805.86 5346.68 4049.02 5296.29 5839.71 6234.32 5997.88 4570.98 4585.31 5698.96 4275.07 6372.13 4124.49 5369.5 5714.25 3230.13 5325.96 5016.02 4581.37 4234.18 3352.35 6193.08 4909.65 2735.53 5116.6 4008.15 4811.32 4669.06 4286.49 6400.08 5580.92 4607.85 4220.46 3600.43 5683.26 5371.02 4906.82 3784.5 5513.57 5022.8 5499.11 5252.34 3921.08 5083.41 4190.31 5683.61 4558.46 5020.71 5737.92 5662.55 4360.23 3755.95 5889.35 5010.04 5388.78 5825.38 6238.32 6804.79 5642.35 5535.91 5404.01 6176.67 5955.86 5412.24 5887.38 4920.21 3936.95 4049.16 6069.3 6153.94 5887.01 6523.86 7693.4 4715.58 5784.3 3317.83 4287.53 3532.3 5598.74 6088.68 6070.3 5131.24 7055.53 6133.92 5113.21 4862.21 5965.78 7055.42 3836.45 5443.58 5731.57 5464.68 3056.7 5591.76 2685.81 5896.26 4394.56 6101.13 4587.67 5599.7 6918.35 4066.57 6357.47 4793.65 4891.38 2949.12 4533.37 4532.89 6040.74 2779.99 6942.34 4848.46 5851.61 6836.82 3862.77 5168.35 3858.17 3747.03 4631.99 2783.85 6184.88 4743.59 5829.32 5208.14 4450.7 5151.52 5769.98 5973.33 2221.99 5937.08 4788.58 6155.1 5260.34 5013.67 3719.84 6125.34 6261.42 4274.61 5975.63 6314.07 5687.85 6401.43 4747.55 4539.07 4510.8 7509.24 5093.82 5756.75 5951.81 4834.3 3924.14 6348.54 5156.76 6101.57 3856.53 5460.89 4054.22 5260.85 5742.09 5807.46 3658.05 4393.16 5478.11 3477.1 5388.39 4356.49 4326.48 4437.07 3449.37 4396.25 5092.24 3583.21 4347.74 5442.32 4135.08 4643.56 5612.21 5894.61 5046.21 5729.23 4178.4 5782.6 2586.12 5433.8 6444.77 6248.6 5703.74 5831.96 4475.83 4146.81 5064.79 4840.44 6639.64 5212.43 6318.23 4206.98 5454.12 4058.87 5948.71 5932.07 5844.72 7228.94 2884.65 4648.21 5393.65 3311.29 4595.12 3110.13 4549.69 5030.15 4740.98 3644.78 5526.31 3728.18 3185.39 4078.93 5128.77 5335.47 4526.81 3994.07 5491.9 3763.05 5551.95 5291.9 5067.46 5128.57 5687.83 4929.14 5196.67 5206.48 4709.35 5004.23 5669.65 5934.22 5011.84 5820.48 5253.55 7034.11 6946.21 5564.02 4497.59 4512.11 5759.46 5708.99 6333.29 4558.47 4691.91 4477.04 5480.3 5344.83 7046.11 3427.63 5216.26 6342.48 3687.65 5478.95 3851.85 5174.75 4984.46 5048.55 4024.31 3992.97 5989.05 4961.99 4441.22 5853.89 4386.8 6484.43 6423.81 6192.77 4312.15 5934.82 4583.52 4219.94 5633.61 6405.0 3918.87 5907.46 4659.16 4518.04 4009.62 3101.75 5369.08 4863.01 5620.74 6000.7 5945.08 6496.67 6586.45 5876.71 3780.23 5826.04 3471.03 4004.04 4359.62 5690.26 5607.14 5062.71 6057.22 4156.2 4289.17 4470.98 4933.65 5950.04 6098.1 4231.83 2435.33 4074.48 3614.96 4745.43 3886.68 4449.98 4255.34 4863.97 5439.49 5589.37 4887.52 6571.31 3634.5 4392.65 6413.15 6103.11 4955.16 4904.51 4147.31 5950.88 2202.77 5751.15 4149.55 6551.93 4140.4 4625.67 3485.54 4501.78 4458.64 7122.87 5048.19 6799.23 4264.91 5549.49 5399.29 3580.58 5356.79 4766.06 5233.29 5139.5 5604.21 6442.69 7493.3 5474.8 6320.71 5226.0 5624.49 5339.78 4373.3 4648.04 4750.78 5029.78 3923.03 4730.41 5696.88 3745.84 4643.85 4203.26 5411.85 5082.74 4413.85 6915.83 4844.57 3999.94 6072.45 4027.46 3901.8 5511.88 5941.61 5782.48 3735.24 4031.78 6574.95 6817.57 6853.04 3420.08 4912.04 7165.9 4771.65 4036.91 5110.11 4027.63 6379.14 6631.28 5420.67 5416.45 6459.51 5754.6 3288.01 6870.97 6201.86 5474.01 5307.35 7554.58 3380.69 4725.01 5966.75 5510.9 3657.69 4883.63 6418.11 4243.26 3572.94 4888.27 4153.84 6740.71 6487.56 5789.55 4874.18 2081.58 4011.37 2511.46 3979.54 4778.82 4312.56 3169.67 4968.03 4814.55 5304.13 5833.06 5944.09 3527.05 5698.77 6262.72 3095.48 3664.11 6607.87 3365.82 4166.08 6608.73 3979.26 5188.81 3999.48 6062.05 6939.12 4735.33 6171.13 6853.85 5092.37 4864.22 4020.4 3374.08 3497.9 2395.5 4188.87 5564.23 5151.21 5108.06 5398.64 4693.52 4568.41 3624.7 5262.35 4281.98 4320.42 4504.35 4701.5 5012.97 4891.67 6818.91 3503.65 5569.2 5350.88 5305.59 6114.89 4330.58 5351.86 4355.83 6056.87 5230.02 4342.18 3639.44 5166.89 5446.4 5725.37 5491.63 4505.28 5138.33 3492.83 6015.02 4922.49 5797.36 5119.86 5001.58 4820.17 4592.15 5084.17 6605.86 5423.42 4854.11 2775.69 4901.2 6505.78 5657.36 4612.06 5204.04 3361.92 3306.14 5467.84 5029.47 5490.58 4750.58 4863.79 4702.06 6515.84 5117.47 4163.5 5762.59 4861.06 4143.78 6481.79 5320.28 4298.67 5750.71 5873.69 5960.66 4472.17 4962.09 5654.31 5470.77 4831.47 5563.79 5516.95 4151.76 4406.4 3905.51 3493.47 4721.02 3546.71 4254.37 4596.75 5768.57 4498.25 4222.4 4914.45 4698.87 3573.73 4000.43 3984.88 4661.03 5318.53 5160.59 4732.09 5138.2 5783.48 7001.83 4593.7 3766.69 4349.13 5188.53 3429.57 4521.75 5410.33 4642.74 6735.97 3636.15 5483.7 5652.87 5135.63 6384.7 3152.86 3896.27 5963.36 5169.48 5087.14 6016.08 4731.21 3868.62 6064.71 6102.98 3425.69 4971.29 3743.76 6280.13 5244.22 3684.15 5585.14 7039.98 4729.42 5089.26 4633.05 4901.44 5971.22 2275.45 4909.31 5012.5 6522.59 6124.08 6519.43 5876.64 3619.79 5053.95 4270.15 5395.14 6710.88 3464.83 3967.48 2477.07 4923.41 5374.51 4538.95 5724.64 4123.6 4970.88 7092.87 5224.12 4850.14 3637.61 4569.12 6098.14 4796.58 4938.74 3493.7 6222.42 4200.03 5313.22 3474.39 3436.15 5328.22 4216.17 5711.11 6484.17 4575.94 5021.88 4938.72 5956.65 4597.29 4200.09 5931.77 5097.95 5313.12 5498.42 5351.56 3344.57 6448.66 5220.76 4453.97 6945.98 6412.67 4482.9 5513.8 5036.98 4882.66 6746.66 3840.21 4081.34 3908.56 4844.83 5377.37 5244.78 4311.48 4899.73 5018.69 6394.19 5952.38 5807.52 5518.11 4192.21 5712.35 4743.9 3124.7 3719.11 6060.17 6711.21 5510.45 4236.86 5832.29 4438.76 6456.58 4159.81 3886.72 5244.98 5415.45 4998.22 5533.19 3776.8 5711.62 5417.21 4785.25 5435.19 5461.55 3562.79 7093.13 3298.2 5926.11 6306.21 6667.68 6213.04 2990.77 3163.78 4497.31 4925.63 5965.15 3830.46 4305.16 4763.66 4666.81 4888.6 5882.65 6739.08 7042.12 4797.52 6326.39 4471.58 5462.21 5463.38 6313.06 5945.21 6470.3 6345.13 4050.08 5599.49 4719.7 4097.57 5452.42 5005.85 4893.49 5325.44 5102.75 4834.87 3672.21 5938.17 5760.22 4795.43 5607.3 2928.82 4638.18 4811.76 4196.37 5211.6 5806.31 3556.79 7317.04 3503.41 6204.65 3971.08 5438.92 6550.4 4244.49 4120.07 4775.04 4952.52 3646.95 4954.76 6334.53 4906.11 5869.67 4564.1 5457.66 4848.14 5366.22 5973.89 6193.73 5254.24 3742.11 5701.52 3597.43 6776.22 4467.13 3877.8 5153.18 6273.6 4730.14 5902.67 5454.11 2606.51 5393.76 3994.39 4941.02 3864.92 6006.89 3814.65 2955.36 3965.3 5792.98 5096.43 6156.21 6602.43 6104.26 4383.56 4990.79 4798.17 6865.76 4953.1 5253.37 5424.46 5235.11 5211.38 5266.01 5767.9 4721.32 6515.8 3293.56 5092.28 6413.11 5078.86 4918.77 4739.14 4780.2 5163.55 4636.5 4819.73 6817.32 3382.7 6471.55 5085.71 6343.14 6643.85 5501.93 6049.79 5862.86 5374.98 4390.41 6113.95 5226.56 5274.19 4901.07 3981.07 5186.3 6496.52 5017.5 3991.42 4388.63 5966.61 4940.28 2216.82 4514.79 4509.89 6752.75 3004.34 5269.38 3022.6 5375.1 4172.6 6100.73 4745.79 4198.94 5470.04 5456.71 4908.75 4211.82 6556.26 6003.78 2628.22 5684.25 4901.29 4124.76 4050.03 4147.49 4813.33 4833.55 4705.68 7224.99 4869.48 4749.96 3623.19 4658.24 4387.39 4745.16 5825.55 5509.51 3199.4 4316.5 7261.51 4968.14 4914.03 4158.91 5144.56 5321.17 5311.55 3360.86 4869.25 5545.21 4763.4 5024.32 4708.17 3779.45 2741.2 5806.61 4618.73 4983.1 5784.37 3668.93 6119.99 4960.64 4983.3 4128.1 5372.82 6592.93 4385.81 4034.05 6350.71 6436.74 3568.28 5583.61 5425.98 2895.63 5166.79 4516.53 6449.64 4857.84 3940.49 2040.66 6031.67 5384.76 5529.42 5274.14 6138.12 5257.12 4434.19 4903.82 5100.1 4940.42 3954.91 3703.1 5923.4 4623.61 4946.42 5409.66 4082.47 4319.79 6263.44 5960.56 5122.63 5774.97 4020.95 2315.64 6766.43 4703.08 4890.5 4488.85 3731.84 5010.2 3554.48 4579.69 4997.83 6123.03 5148.08 3718.69 5578.94 6192.0 5885.28 7610.49 6579.31 4286.17 6028.09 5323.55 5452.36 4609.02 3804.5 6486.37 4896.65 5561.74 6083.28 4788.08 6163.54 5212.37 5965.58 4607.18 5058.51 7200.89 3899.7 5162.67 4802.98 5760.98 5469.35 5384.86 3835.81 4019.34 5510.96 6653.07 4697.91 5071.98 5719.79 4371.08 5148.1 5224.64 5949.73 5214.63 3495.68 5086.29 4312.48 5527.13 3034.16 5139.18 5551.43 5049.99 4201.03 4333.87 5136.87 5638.7 5813.79 5790.42 5293.13 7123.04 6010.59 3682.35 4009.24 4446.58 4402.17 7778.01 5690.96 2460.79 4653.83 4456.11 6063.64 5996.66 5818.95 4986.71 6479.39 4093.99 5079.22 4122.92 6464.8 2978.76 3604.14 7016.27 4908.49 6622.11 4962.21 4689.15 4428.78 5884.9 5089.62 3685.65 4965.89 6790.73 5746.28 4371.99 4590.55 5659.95 5187.7 5243.43 4741.26 6090.91 5920.32 3561.29 4537.14 4186.6 3295.83 6413.02 2965.01 5203.08 5412.31 6235.57 3492.19 5374.07 4863.27 4584.5 4118.84 5916.16 3623.87 5163.77 6934.37 6027.62 3423.15 6098.95 5765.42 5453.98 4817.16 5653.03 3989.7 4157.29 4777.03 4246.61 5107.0 3684.56 5327.75 4946.23 4532.7 4852.58 4504.86 3217.67 5975.23 5079.64 4473.29 4509.46 996.652 4680.69 6500.49 3352.34 4972.18 2403.72 5078.59 4365.58 5134.33 5419.57 2646.13 4636.53 3629.49 5766.05 5117.64 3916.42 5429.3 4944.51 5532.72 4584.81 3220.8 5179.17 5579.39 5270.51 5490.75 4407.79 6548.29 5783.94 4278.57 6370.33 6318.25 5081.08 5001.87 3667.93 4493.79 5684.05 4644.88 3142.09 4028.22 5591.77 3756.96 5182.13 5906.57 5401.4 5053.15 5127.82 5798.38 4125.9 5124.17 3862.91 5096.24 5366.11 6171.71 4405.42 7382.3 4997.91 3598.08 4452.54 4599.81 2995.67 4684.44 5381.54 4406.05 4749.59 4858.44 4680.94 3468.42 3685.13 5828.35 5799.69 4673.35 5571.72 3876.21 4655.16 5869.4 4916.22 5297.19 3701.16 6022.7 4152.85 5551.9 4219.78 3867.19 4188.3 4963.34 5081.78 4260.92 5499.39 5644.82 4407.9 4718.54 4440.57 6736.03 3087.09 4055.54 5548.29 7480.41 4588.7 3766.55 6107.89 5469.13 4976.12 5530.49 4304.41 5660.55 4892.44 6789.23 5069.89 6212.15 5361.87 4783.07 6813.72 4757.2 6200.63 6816.66 3844.54 5241.75 5034.69 5849.53 4651.99 3538.53 4420.11 6127.39 5640.12 4918.64 5329.76 6638.25 4815.47 4759.99 5214.4 5193.58 3889.98 5490.64 5399.43 5034.34 4507.46 5695.44 3769.2 3468.45 3422.21 5603.68 5036.14 4526.34 5610.95 5042.75 4598.92 5241.22 5673.75 6647.08 4979.52 3422.29 4537.03 3990.96 4114.2 4326.06 5352.24 7362.42 4202.77 5836.14 6864.06 6008.81 4279.44 4932.56 5192.49 4899.19 7350.26 3768.46 5167.53 6110.48 7541.76 5910.86 4775.49 4681.29 6239.68 5805.1 7320.78 5039.12 4064.58 3908.98 4668.88 3419.87 3628.89 4022.56 6589.82 5522.21 5027.43 5698.23 5810.77 3772.3 4855.01 5089.1 7300.58 2711.19 4714.83 4028.32 5876.72 5236.43 5689.26 3809.69 4992.42 7051.9 5251.4 4940.84 4345.67 4453.64 4255.85 5019.93 3885.86 4459.28 5235.29 5177.64 5453.3 5191.08 6116.33 4479.94 3838.47 2588.37 6250.23 5887.15 4435.51 7234.66 8659.64 6599.66 4886.12 6419.12 5683.95 4301.61 4233.8 5206.33 4446.84 5065.26 3746.36 4356.36 4741.28 4215.2 2603.64 2856.55 2205.51 3703.49 4553.68 6502.97 4268.19 3205.68 3758.22 4583.94 5969.37 4928.35 5046.31 1937.5 4337.32 4731.53 3763.9 4788.7 5084.5 5863.0 6562.03 6206.98 4410.82 4368.12 6443.99 7212.97 5698.53 3856.73 5887.71 5635.32 5409.08 5481.64 5360.67 4778.37 5968.54 6263.3 4501.05 5124.34 3247.97 5592.54 4358.81 4904.37 5034.46 4651.64 5757.29 5793.12 5473.05 5537.34 4373.2 3487.31 5058.34 5884.99 5726.42 3918.94 3852.82 4507.36 5575.11 5487.63 5003.3 6245.52 4932.29 5499.59 5749.6 3845.9 4834.44 6016.87 3125.13 4234.88 4141.21 4439.71 4824.81 4384.28 5782.43 6328.42 5769.14 7307.21 5522.75 3608.06 5867.64 5474.15 7519.2 4099.92 6633.61 4771.13 3208.96 5285.07 4884.59 3858.06 4680.14 4478.6 5097.69 5895.77 5511.6 6261.75 4765.72 4517.73 3757.34 2908.7 5857.79 6415.61 4039.91 4338.08 5276.7 4541.8 6134.99 4255.31 5424.88 5148.58 4062.5 3583.49 4928.27 4199.45 3548.39 3673.28 5421.64 5415.85 4858.51 4366.74 4207.54 3375.28 4603.5 5297.16 5354.66 5625.65 4647.67 4936.96 5378.23 4481.76 3184.64 4787.97 4981.43 5375.12 5452.78 4061.6 5473.72 6214.73 5175.89 3894.64 5232.85 6618.21 4374.74 3717.47 4062.56 4051.18 4685.4 6240.42 5146.0 5721.14 6006.16 4288.45 4577.73 4987.28 4071.75 5549.71 5131.77 5482.76 4967.51 3745.02 5173.82 3720.7 4211.36 5378.24 4450.49 3604.31 5817.74 5661.6 4827.61 4316.45 5285.75 5385.03 5134.17 4169.15 5370.9 4074.16 4529.77 4904.35 4325.13 6172.27 5390.33 5278.54 5729.92 5016.46 5469.17 5061.75 3769.24 6022.78 4087.32 6643.4 4674.9 6599.28 5461.72 4361.24 7145.73 5800.81 4990.23 4168.52 3220.29 3954.77 3784.94 5166.05 6715.73 4174.44 5667.51 4456.26 5113.6 5944.3 3563.14 4810.98 3381.82 5135.5 5431.29 6208.9 3619.72 5347.9 4923.57 4646.51 3340.09 4438.58 4565.93 6059.93 5602.53 5217.95 4608.41 6355.68 4732.09 4184.23 4083.79 4833.46 3988.3 4144.57 5750.07 4351.38 6136.49 4642.66 5550.75 6543.13 4809.67 5149.72 4752.14 4687.64 4950.97 5037.06 5660.16 5842.56 6200.54 5713.03 4094.73 4652.01 5849.65 5134.67 4110.59 5775.31 5052.84 4847.14 3332.49 4165.21 4215.0 3683.86 3950.27 5116.66 3566.79 4214.44 3629.44 3299.24 5374.67 6246.56 5826.78 4508.18 5064.67 5836.26 4383.68 6666.67 2617.39 5144.44 6063.44 2904.46 4826.52 5120.92 4629.02 4924.07 4927.73 5914.5 4602.57 3565.32 3419.07 4608.62 5407.96 5344.44 3186.07 4626.72 4369.86 5728.58 4887.73 6297.99 5918.95 4538.89 6556.86 3242.31 4898.29 6099.28 3234.26 5372.25 4830.13 3494.16 5620.88 4941.52 5900.0 4262.74 4581.1 6241.77 3783.79 5317.19 5078.73 4248.14 5729.0 5192.92 5275.57 4179.87 6224.13 4786.66 4761.84 3661.67 5370.1 5517.65 4009.68 6647.85 2569.12 7025.09 4433.12 3392.26 6224.85 2549.95 5138.93 5403.97 4556.19 5106.46 5368.66 6793.1 4506.66 5515.73 4068.31 3671.06 5209.55 5077.29 7035.54 4708.31 4564.41 3873.92 4198.9 4027.33 4850.5 5026.76 5951.86 5091.22 4252.18 4833.67 5023.41 6282.38 5640.72 4504.52 7107.63 6061.63 5073.02 5484.36 4511.7 4187.94 4304.63 4829.35 5980.59 3953.55 4063.9 5263.27 5933.7 5021.77 6834.41 4757.74 7248.4 4356.25 4378.3 3796.15 5469.47 4419.71 4244.21 5512.16 5411.02 3197.63 4989.56 5175.29 3645.12 4287.16 4863.96 5199.44 5580.34 3852.6 5009.83 5131.15 4706.5 5717.8 4811.22 5210.75 4474.83 6555.44 4918.76 5293.75 5003.78 5114.07 4208.41 5730.61 4385.49 7124.45 6358.93 4559.74 5064.23 6061.85 6015.22 4454.74 5512.44 6449.06 3460.93 3200.6 7168.2 4571.74 3763.85 5710.33 4096.86 3622.48 5001.51 5115.42 6432.8 4209.0 4082.4 4930.72 6424.77 5485.84 4335.79 5453.69 5689.56 5432.04 3921.27 3702.45 5265.63 4431.06 6523.78 5730.2 4045.67 6005.95 4308.49 4930.17 4745.44 5762.82 7360.12 5279.19 4016.6 7050.08 5580.44 5891.25 5129.4 5114.51 4622.73 3303.49 4655.37 4161.32 5161.74 7336.37 5256.75 5099.9 6945.69 4795.08 6406.8 6562.92 5501.73 5648.78 4697.24 3612.44 4983.43 6331.74 5233.76 5426.4 5763.05 5357.39 5129.68 4659.88 5076.84 5325.91 5851.63 5727.79 5212.92 2279.05 4867.7 4831.93 5788.97 6545.43 3472.91 4075.28 6760.92 4277.24 4469.54 4989.2 4314.56 6300.92 5161.1 3928.53 5291.05 5036.58 5329.59 5776.96 4888.12 4409.27 5439.9 4588.99 4321.21 4617.55 3875.05 3540.11 3456.47 5950.45 5471.74 4344.34 5088.57 5966.42 4923.43 5666.95 5210.38 4127.53 4489.99 4548.45 4658.11 5260.52 4551.26 5678.58 5658.14 3185.09 6570.35 4242.63 5114.23 3269.54 4263.18 5846.95 7142.95 5701.63 4620.95 5268.15 5368.93 5819.0 4488.39 6347.72 6121.56 5124.86 5740.78 4796.12 5997.91 5385.86 6791.86 6031.22 3618.64 5703.84 3530.82 5797.32 4002.99 4886.99 3161.1 5159.67 5764.52 5684.88 3770.22 4390.64 5150.84 4645.86 4608.01 5087.97 5339.82 4519.03 5460.57 5110.27 4085.96 6668.98 6649.52 6223.98 3035.06 5821.49 4262.19 5998.13 5095.52 4746.15 6275.25 3720.38 4758.84 5585.25 4731.37 5023.61 6351.89 5932.28 5118.86 4298.7 7086.69 6170.9 6875.73 5226.42 6081.3 4436.48 5615.35 5117.52 5866.91 6405.69 2820.07 5679.74 3791.41 4546.44 4092.07 5657.55 5853.12 4213.05 4224.3 4208.37 4184.21 5157.38 6203.03 4700.07 5188.82 5615.84 4464.73 4023.93 4928.85 5868.89 8137.11 6650.77 5484.32 5007.21 6045.67 6226.14 4209.49 4216.95 6119.63 5742.74 5464.25 3821.94 4209.31 5486.48 3498.16 4247.69 5718.28 5301.47 4752.9 4947.24 6242.79 6506.86 5391.48 4803.57 5467.63 4728.55 4554.68 4929.6 4568.64 3919.62 4642.2 5984.8 4945.0 4212.15 4585.04 3127.83 6102.49 4241.68 3469.18 2945.34 3372.95 4095.83 5695.25 5495.0 4489.29 7407.91 5676.61 4301.93 5796.26 5716.42 4603.04 5293.37 4870.94 5271.88 5559.79 5879.24 2980.31 3148.79 6348.93 6824.53 4332.64 4742.82 4422.23 4820.68 4171.02 3989.26 7012.36 5028.06 4293.3 5587.3 3572.73 6583.37 4864.38 4848.98 4491.96 5184.98 4467.51 4479.5 6261.67 5065.78 5703.34 4612.68 3207.84 3977.98 4232.33 5462.6 5617.29 4747.68 4597.88 3093.38 4845.91 4878.93 2002.78 5631.32 6892.33 4505.3 4452.36 4672.86 3976.0 6530.78 2960.5 5560.23 4975.32 5237.55 4183.4 3902.48 4733.79 4304.64 5833.78 4905.53 5758.98 4823.06 3967.76 5254.49 6311.89 4683.28 4217.36 6549.8 4825.73 4851.18 5247.01 4165.36 5005.72 5288.33 6296.54 5235.87 4841.7 5702.4 5273.37 5069.9 5043.14 4717.73 6440.38 4732.37 5556.0 4985.3 5072.5 4711.04 3904.07 7144.05 3274.85 4173.54 5545.59 4619.2 5466.33 5599.29 5280.12 3946.28 5984.81 7216.98 5721.05 7013.17 3805.67 4590.01 5367.73 4514.39 5078.31 4640.06 4807.35 4227.41 5993.0 6761.81 6047.14 4140.92 5630.9 4512.07 4368.28 4692.32 5750.35 5463.06 5236.24 3986.41 5532.75 3587.93 6949.65 4517.29 4975.85 4495.75 5323.95 6171.01 4468.26 5578.18 5106.33 5198.94 4028.35 5933.54 5464.05 5453.2 5264.83 3901.53 5136.51 6815.51 5313.86 5232.16 5189.91 4457.05 5777.26 5151.19 6119.0 3792.06 5128.59 5485.61 4993.49 5310.33 3688.83 4569.32 3402.44 5537.61 4397.06 6084.88 3543.98 4053.12 4014.44 3435.13 6604.72 4431.46 6002.77 4610.55 4521.42 4967.02 4614.49 6043.34 4939.56 4128.93 5770.92 4959.72 4723.71 3808.04 4461.67 4405.61 6322.0 6126.5 5793.14 6007.1 4491.26 4511.34 4068.41 4832.21 6463.71 5059.37 5783.38 3043.77 4139.39 3909.94 6264.03 6030.39 6589.8 3799.01 7392.65 5319.1 5288.64 3757.23 6213.24 6734.39 5942.45 4150.76 6123.46 5368.52 4871.77 5811.26 5797.21 5685.74 5473.89 952.938 6740.35 6089.45 5810.17 4966.07 5713.36 4657.24 5748.9 4749.18 5553.94 4506.18 5606.51 4801.8 5166.41 5740.65 6038.68 4444.97 5046.12 5271.02 4807.4 3000.29 4350.15 5261.19 6329.53 4139.3 6541.45 4601.74 6101.86 5228.75 6545.99 5334.36 2918.64 3903.91 6139.64 3990.94 4756.8 4896.43 5477.8 4176.32 5486.89 4462.35 4639.8 4549.51 6069.78 5025.42 5196.08 6379.38 6257.79 4849.5 6229.83 4523.81 5977.66 5065.74 5791.25 5876.51 4873.23 6731.89 5410.6 4286.61 4733.41 2932.52 4603.66 4969.68 3557.46 6636.43 5431.14 6298.8 5971.95 3689.24 5178.07 6412.84 6509.54 2589.19 6079.55 4696.06 5308.4 6581.13 5803.3 3228.27 4721.98 5252.82 4199.44 5056.26 5878.55 5445.91 4812.59 3794.47 7115.67 5400.69 4462.5 5573.31 4712.17 5004.68 4023.88 5348.11 5428.24 4034.88 5108.84 3511.5 4520.14 6345.2 4609.65 5704.61 5009.21 5410.73 4742.35 5394.79 5645.54 5264.08 5088.64 3562.8 4526.87 4151.74 5192.82 6920.92 3729.16 4174.22 3783.36 4181.93 3573.84 3038.91 6828.8 5987.88 3579.59 4228.53 6161.94 4065.28 6142.88 5155.28 5111.26 5388.73 5062.77 4678.7 6019.35 3673.6 6075.99 6028.63 3306.84 3450.07 5265.21 4400.14 6215.87 4550.92 5191.26 5494.28 4067.96 4824.12 6542.5 7104.73 5067.56 2596.96 3834.47 6349.67 5701.75 3272.75 5262.47 4264.54 3512.94 7043.44 3516.27 3831.52 4263.65 4750.49 4263.78 4643.9 6106.43 3787.08 5644.81 4013.86 4816.51 4177.47 4218.16 5218.42 5345.73 4933.49 4841.23 4770.63 4357.11 2804.54 5589.53 5005.6 7208.19 5234.2 4612.13 4965.24 5846.6 5327.05 5438.55 5353.23 4434.65 4290.49 6688.53 5209.5 6175.27 5927.1 6500.45 4907.55 4103.76 6605.11 4757.87 6379.33 5130.57 5652.73 3979.46 5402.45 6321.97 3985.93 6071.59 5985.75 3856.4 4137.16 4937.36 5984.55 5672.46 3956.24 7558.99 4142.1 5043.14 5333.04 5089.1 4521.99 6842.54 2853.68 5675.45 6038.56 2807.46 5599.16 3488.34 4179.8 5658.35 4582.12 5886.81 4295.25 5067.92 5488.96 3188.21 5128.03 4379.91 3720.92 4574.03 4942.63 5290.37 4227.66 5850.38 4691.01 4594.89 5245.95 4067.89 5821.42 3922.28 6294.09 6570.43 6883.86 3350.99 4979.5 5057.59 4745.37 4461.14 5418.98 5285.6 5205.38 5575.11 4949.55 4884.93 4600.71 4764.83 5262.79 5927.2 5146.1 4419.79 6485.77 5866.42 3669.32 6060.06 4704.92 3663.0 4762.1 5610.53 4099.26 5206.47 4954.81 4834.39 2970.9 6162.3 4383.47 5971.21 4608.34 4835.97 5493.89 4057.17 4184.47 2781.96 7066.96 4467.0 3104.96 4994.65 4587.7 5601.55 4258.98 4462.87 5196.92 5759.79 4598.54 4711.15 3825.48 4658.59 5188.22 3810.68 4196.62 2809.19 5453.77 4916.7 4104.04 5030.33 5593.79 5157.73 5104.39 5847.91 3539.68 4934.66 4984.01 4109.44 6217.33 4903.84 4605.39 4557.1 6270.59 6045.26 6263.87 4094.63 5743.8 5084.76 5581.01 6834.92 5749.53 5090.48 5247.73 5034.02 5582.28 5945.25 4649.5 5181.31 5475.83 6189.29 4329.8 3074.49 6571.26 5728.27 5202.33 4313.38 5580.95 3393.59 3549.92 5250.56 4032.06 5246.81 5888.95 5394.78 3463.34 5122.38 4998.37 3361.11 5901.71 6559.82 6565.95 4577.98 5043.34 4487.51 4246.24 7394.47 5357.14 4850.95 4729.45 5919.27 5087.3 6139.74 4975.57 7066.26 3057.3 4730.97 3677.85 6150.31 5214.71 4677.84 4515.02 3463.53 4571.57 6126.03 3445.92 3820.19 5131.07 4121.07 5236.69 4586.82 6026.04 5939.29 6200.05 4574.54 5859.17 5615.06 3132.34 1969.87 5490.54 4841.28 3957.38 4047.95 4494.15 5035.71 5507.38 6889.5 4710.88 5407.69 5544.27 3484.81 3742.31 3987.69 4316.0 4546.96 6304.49 4287.25 4580.06 3926.11 5134.72 5695.79 4271.07 4191.01 5464.83 3622.8 4589.06 6419.64 4920.88 4770.51 5414.58 4431.23 4991.35 6511.37 5740.98 4346.07 3999.5 4216.44 6710.14 4012.92 5034.05 4426.02 3953.26 5467.51 4474.39 5459.92 4625.53 2347.41 4096.47 4542.16 6478.35 5114.67 5353.66 2638.82 5527.27 5765.14 4541.22 4767.54 4946.08 2927.84 4696.03 6177.68 5466.13 4698.7 6229.64 2848.44 4220.43 4975.56 7282.36 6666.34 4645.91 3826.01 6959.88 4125.75 3746.62 4876.37 4532.67 4769.62 5260.13 3995.08 4810.74 5019.84 4028.13 3900.93 5784.38 4149.17 6260.58 3053.19 4720.22 5827.3 6598.99 3633.58 2468.16 6294.14 5203.75 2459.88 5262.85 5169.09 5329.84 4210.24 5470.67 5225.11 5342.9 3879.83 5252.22 5733.12 6436.29 6805.02 5402.81 5354.48 5640.63 6261.13 5374.09 4793.06 6637.38 3421.81 6188.33 6111.23 6916.18 5786.06 5873.62 4811.11 4996.91 4924.52 4866.8 5379.52 6044.69 5524.28 2970.24 3133.28 5105.54 4197.87 5731.43 6353.81 3414.67 4052.49 4034.41 3518.14 4150.44 5061.74 5203.54 6189.67 6142.94 4948.96 5001.69 5117.83 4416.87 3869.39 5960.5 5300.17 5308.33 5152.78 6502.99 6896.55 5424.55 4666.12 5755.15 4392.75 4921.1 3814.16 6219.34 4420.6 6023.07 5340.05 6506.63 3626.86 4215.05 4140.04 6371.96 4668.8 5995.4 3495.3 5577.41 5322.11 5917.34 5700.79 4697.49 5735.08 7133.44 4726.2 4750.81 4282.11 4656.01 6589.13 5602.62 5714.51 3543.37 2030.03 4938.33 5628.97 4484.78 4621.33 4801.16 5071.38 5121.08 5616.66 5688.77 4802.36 5368.28 4880.78 5257.38 5075.23 5625.02 5212.05 5479.86 4829.77 6474.5 3928.99 4763.04 4444.92 5944.52 5971.9 4413.56 5050.2 2513.38 5316.05 4908.32 4499.52 3874.12 5759.19 4457.73 3113.64 6476.35 4304.75 4067.24 5480.86 2832.83 4474.96 4084.87 3010.1 6036.99 3825.98 3584.05 4589.22 4339.97 5087.03 4667.84 4512.6 4691.15 4260.38 4636.45 4932.27 5638.51 6793.49 4962.35 6786.37 4333.23 4600.81 4124.33 5168.97 4900.26 5783.88 4167.55 6271.22 4720.34 5244.47 5378.75 3920.64 6186.24 5510.89 5822.7 3780.07 4137.41 4159.89 3868.69 5447.74 3920.44 4450.51 6033.72 3768.62 5314.67 5658.05 6593.1 5462.1 4066.36 4000.51 6032.45 5444.36 5522.34 5326.03 5771.98 4420.35 5899.78 5717.45 5772.57 5256.82 6581.56 4117.9 4052.43 5393.43 3980.46 5534.23 4753.76 4638.09 6025.77 4685.65 4441.91 5377.01 5674.63 5287.25 5828.25 5939.22 4725.11 5092.93 5418.12 5934.05 2803.01 4271.93 4604.1 5125.17 5890.25 4399.52 5322.07 4859.01 5076.11 5524.45 5990.75 5600.21 5101.6 5327.39 5781.62 4037.86 4981.81 4138.59 4970.55 5141.03 4840.44 8123.59 4819.83 6286.27 6327.54 4188.16 5507.07 4654.92 2943.17 5286.55 5327.71 4322.56 5509.09 4850.49 3873.72 4592.49 4981.55 3625.98 5144.23 6188.62 4702.32 5908.57 7296.47 5742.39 4821.41 4780.16 4924.53 5616.11 4813.24 5312.2 5847.27 4490.2 5734.84 3982.31 6139.9 4582.24 4758.76 4790.63 4916.75 5259.29 4818.53 3906.41 4123.08 6224.64 4221.03 3799.55 5082.66 4550.77 6060.19 3563.33 3860.8 4328.76 4919.13 5940.5 4358.06 5002.38 5093.51 6705.93 4865.11 4731.16 5502.14 6470.87 4495.33 5282.67 5466.49 5178.55 4038.17 5007.41 3851.47 4907.48 3692.99 4966.74 5563.47 5651.46 1635.31 3162.27 6033.93 5011.37 2827.92 4026.03 5044.68 5092.44 2649.69 4441.44 6908.32 3467.11 5000.74 4813.81 6153.26 5268.27 4013.86 4061.87 5165.31 4057.4 4896.67 4585.37 5383.9 3934.11 3798.09 5158.44 4466.22 4288.5 5330.26 6470.23 4475.38 5917.08 5483.37 6561.94 5259.21 5317.83 4256.08 6738.9 5640.67 5881.93 4460.89 4157.1 4714.66 8052.53 4444.0 6771.18 6182.19 5770.07 4984.17 4867.12 5910.66 7415.84 4637.3 1458.87 5734.07 6241.48 3997.68 5125.45 6033.28 3784.68 3717.22 6649.21 3470.69 4859.95 4132.08 5522.18 5223.1 4699.77 5093.41 6842.35 5464.34 3621.63 6153.07 4414.06 6833.5 2613.78 5417.07 3834.01 5738.37 4433.23 6789.66 4739.41 6760.64 4706.59 2515.5 5177.88 5551.79 4950.07 3916.15 5367.05 4088.72 3743.85 6236.46 5097.85 5584.64 3795.63 5189.4 4576.71 4337.93 5201.3 3550.88 4345.51 5536.0 5145.13 5561.63 3747.96 5611.29 6568.45 5004.22 5647.93 6201.49 5449.09 4605.61 5154.74 4465.56 4131.08 5747.9 5386.95 3864.19 5146.69 6203.24 6818.23 6213.74 4959.94 2329.93 6938.87 5639.4 6185.73 5516.37 4083.24 6520.96 4232.44 4612.4 5336.61 4817.75 3312.3 5563.09 5637.53 5244.95 4645.93 4439.09 3882.37 4634.25 5448.64 5901.8 6351.48 6417.61 4781.9 5715.51 4496.51 6815.96 4511.05 6153.71 3830.7 5339.6 6074.39 5432.4 5350.9 3775.38 3483.61 4262.52 7430.48 4844.2 5992.06 5545.68 6080.69 3751.73 3939.96 4554.24 3374.62 5555.89 4970.12 4967.93 6044.01 6520.19 5973.57 5922.62 5130.56 4957.99 4414.09 4063.26 5191.29 5957.82 6305.9 4542.62 5093.28 4881.51 6131.52 6009.88 6729.99 6664.54 3922.98 5161.73 5259.48 4777.96 4803.4 5801.89 8013.28 6608.94 3796.73 4644.68 5283.65 3082.16 2892.36 5656.84 5911.29 4694.27 5416.41 4849.21 3793.83 4785.55 6981.47 4449.73 5647.11 3945.62 5342.17 6379.3 6189.04 5015.67 6538.04 4894.15 6157.59 5848.41 6223.33 5438.6 7370.52 4521.88 3724.23 5103.3 4280.92 4601.54 7263.57 4696.92 5705.96 6437.99 6898.8 6632.04 6540.57 4287.93 5315.71 6158.93 4488.41 5081.65 4369.87 4823.14 6679.12 5412.07 5652.19 5806.74 5512.57 4806.99 5432.2 3771.91 5217.62 6178.19 4746.19 6381.58 4848.15 5715.25 3282.57 4798.13 4611.21 5523.81 4095.4 5188.57 4718.61 6697.45 5395.12 5717.67 5357.33 3886.56 5783.69 5252.37 3456.3 6210.0 4499.54 5782.25 5037.58 6457.89 4081.77 5114.61 6572.17 2181.29 6118.13 4420.3 4926.62 6332.64 4766.47 4871.1 6369.66 3917.09 6009.93 5678.08 5872.45 5270.1 6351.95 5195.09 5345.05 4947.64 4997.89 3997.52 7679.2 4909.74 5779.9 2626.41 4311.92 5299.03 5036.84 4565.36 5813.68 4025.08 5254.93 4008.67 4770.21 4868.66 5159.9 3846.55 4987.48 5943.61 5981.54 5020.37 4542.25 4414.23 5233.88 5245.4 6189.81 4090.28 4048.73 4246.83 4726.5 5467.05 4963.88 5888.94 4727.98 3832.09 4122.2 5175.88 5267.65 3509.34 5360.88 5332.11 4893.72 6004.72 4072.4 5373.78 5345.65 5438.5 4621.32 5699.4 6578.62 4813.55 5856.43 4796.04 3839.0 3465.03 5349.85 4616.81 6011.4 5799.86 4672.34 5212.2 4362.94 5648.59 4469.82 5108.42 4630.5 3873.79 4432.32 6296.36 5515.59 5237.27 3721.69 3224.81 4451.76 7885.41 4750.76 4046.22 4104.97 4948.21 4575.72 4444.95 4987.01 5606.22 4721.2 4706.31 4202.12 5161.02 5003.81 2694.25 4203.68 4735.99 6492.44 4083.1 4613.32 3482.73 5145.39 3996.93 6225.05 5434.04 5200.1 5994.21 4884.93 4444.54 5403.81 5082.25 6964.78 5310.33 4374.05 5282.51 5504.65 5669.41 5732.11 5040.9 3618.53 3783.35 4037.16 4004.39 6395.63 4248.58 5479.17 4516.26 5739.69 3647.26 4790.16 3731.58 7360.62 4977.64 4983.56 4985.45 5699.51 5499.37 2489.44 4489.18 5863.36 4632.75 3878.8 5237.76 4698.94 6284.12 3948.21 4286.84 5669.15 5229.56 5296.05 5263.86 6988.4 5172.1 5056.32 6052.22 5376.41 6545.78 3354.94 4404.87 2932.2 5105.72 4082.01 4944.08 5576.16 5767.65 5003.49 3964.03 4305.35 5210.22 4907.03 4216.33 5497.27 5617.91 3903.9 5051.39 6673.92 3943.77 5242.38 6265.48 3124.49 6081.35 5459.52 4739.56 6262.18 3818.37 4701.03 5566.5 5663.36 3352.46 4276.59 5579.04 5125.53 5405.6 3929.35 4223.53 4759.38 4535.94 6960.97 4287.15 5126.08 5604.0 3760.4 4951.02 3919.47 4602.7 5596.68 3166.37 5369.42 5207.08 5205.53 4714.52 4587.19 5543.05 4883.13 4836.76 4752.94 4994.98 5551.09 6423.96 6058.13 5581.47 5894.69 4274.05 3330.85 6635.51 5533.52 4060.17 5410.33 5003.63 4870.14 4695.7 4380.86 4909.13 4287.61 5269.39 3999.81 5648.02 4867.13 3308.75 4604.34 4439.17 5832.72 4929.35 5442.79 6853.07 6327.61 4633.59 5151.68 4884.94 5362.15 4609.98 4455.61 4738.72 4752.31 5240.97 5569.85 5306.31 5523.96 4733.37 3037.72 4523.9 6028.89 5333.16 4888.17 3950.53 4501.1 5755.98 4384.91 5077.2 6550.61 4987.01 5529.09 4713.56 6051.35 4747.24 5302.53 6779.82 5543.67 4072.95 6210.48 6377.45 4863.27 2451.27 2701.42 5677.42 4502.12 3255.93 5733.59 5575.8 5268.93 3695.72 6874.6 5106.9 5392.85 5275.27 4277.54 4531.46 6094.34 5925.82 5448.68 4739.5 4491.62 3865.5 4182.05 
SCALARS Velocity float 1
LOOKUP_TABLE default
1.26536 1.25063 1.30553 1.27315 1.29493 1.30525 1.33836 1.20596 1.26247 1.23757 1.29362 1.28551 1.3279 1.24519 1.24279 1.33351 1.33981 1.31492 1.29197 1.29732 1.30514 1.35846 1.33423 1.25767 1.29854 1.23453 1.24751 1.26384 1.32351 1.28694 1.27293 1.24349 1.2807 1.27532 1.2534 1.21884 1.23535 1.2007 1.29917 1.24493 1.32097 1.27519 1.24129 1.24251 1.31224 1.33121 1.29189 1.29682 1.30258 1.34269 1.35163 1.31296 1.23313 1.31905 1.33139 1.31812 1.33299 1.28396 1.32512 1.24889 1.19405 1.23083 1.24762 1.31563 1.28681 1.30628 1.2267 1.23446 1.28793 1.30689 1.30348 1.31063 1.33127 1.30383 1.31303 1.34501 1.34268 1.28977 1.36542 1.33239 1.32543 1.32558 1.32631 1.3199 1.17885 1.19228 1.24712 1.25317 1.22445 1.21187 1.20243 1.3194 1.28507 1.2966 1.2896 1.282 1.33514 1.30739 1.32007 1.30387 1.35083 1.31236 1.34803 1.37237 1.37345 1.36512 1.32712 1.32284 1.31317 1.34093 1.21089 1.22335 1.27785 1.24527 1.25857 1.32398 1.28752 1.31002 1.29735 1.34818 1.28737 1.2764 1.33361 1.30227 1.31391 1.32251 1.3489 1.36399 1.34546 1.38509 1.38105 1.31202 1.30257 1.33747 1.29481 1.31743 1.35948 1.34598 1.39191 1.23361 1.26459 1.24104 1.24606 1.21604 1.23312 1.31758 1.2913 1.31791 1.251 1.31941 1.30912 1.29389 1.35077 1.33867 1.32446 1.2971 1.3296 1.31062 1.32304 1.41997 1.38102 1.33372 1.38592 1.40376 1.3347 1.28908 1.34515 1.28129 1.38969 1.17512 1.24227 1.21694 1.229 1.22855 1.24488 1.22464 1.20353 1.153 1.29241 1.21865 1.31421 1.33292 1.30557 1.32354 1.29243 1.35045 1.38698 1.3487 1.35517 1.34292 1.40991 1.33641 1.38874 1.37667 1.4151 1.33987 1.2757 1.2839 1.33893 1.37612 1.37046 1.19017 1.24983 1.22825 1.23874 1.23093 1.29287 1.20264 1.16382 1.26693 1.23863 1.34123 1.32327 1.39101 1.39009 1.35282 1.31337 1.28625 1.27839 1.41281 1.40176 1.35502 1.34206 1.35766 1.38103 1.41069 1.31101 1.23823 1.28146 1.32822 1.18469 1.18666 1.2547 1.22866 1.28456 1.31998 1.21952 1.23262 1.26493 1.17854 1.15324 1.32533 1.36792 1.36541 1.2791 1.44758 1.40031 1.37618 1.33816 1.37714 1.38019 1.37547 1.47107 1.45138 1.29549 1.459 1.50932 1.28845 1.28869 1.3732 1.24775 1.2519 1.24556 1.30168 1.24006 1.14442 1.31102 1.28067 1.23118 1.18775 1.35727 1.34241 1.35716 1.43616 1.38731 1.37006 1.41103 1.37469 1.38053 1.37404 1.48315 1.43965 1.44266 1.34207 1.44514 1.35876 1.37745 1.28048 1.25342 1.35831 1.29228 1.28327 1.30632 1.22281 1.24496 1.1692 1.29015 1.27557 1.25169 1.38919 1.39844 1.35581 1.23105 1.34311 1.65622 1.39326 1.39909 1.37417 1.41311 1.41498 1.4295 1.35997 1.38275 1.42397 1.35701 1.38694 1.45378 1.30963 1.29972 1.38141 1.35967 1.37884 1.32951 1.30323 1.30798 1.30101 1.21026 1.24028 1.33746 1.33524 1.31992 1.26904 1.35598 1.46227 1.58946 1.57094 1.31935 1.3727 1.39069 1.41335 1.44751 1.46702 1.45791 1.52541 1.28567 1.51591 1.24276 1.39702 1.35889 1.38824 1.44431 1.39112 1.43265 1.39901 1.44537 1.39563 1.37275 1.24792 1.3364 1.22619 1.18024 1.28312 1.27887 1.31535 1.39219 1.29154 1.3671 1.46242 1.47242 1.51808 1.31897 1.34233 1.42033 1.4706 1.49262 1.52299 1.68744 1.1787 1.35991 1.42693 1.45139 1.45841 1.49738 1.52069 1.48813 1.49375 1.45619 1.37071 1.38876 1.2223 1.39648 1.28107 1.18403 1.30019 1.27396 1.33853 1.29848 1.26913 1.24935 1.34183 1.47511 1.5062 1.46478 1.43784 1.45621 1.42486 1.47137 1.45302 1.43162 1.47866 1.4871 1.62375 1.74559 1.12908 1.73405 1.35377 1.46933 1.41998 1.47274 1.492 1.47946 1.50333 1.45772 1.48035 1.38763 1.34916 1.43843 1.29158 1.49322 1.27071 1.29929 1.27993 1.16054 1.35882 1.40896 1.38587 1.42308 1.35503 1.41919 1.48957 1.3836 1.39886 1.28584 1.45639 1.56241 1.40319 1.55649 1.28658 1.47208 1.48125 1.46859 1.50462 1.68561 1.53092 1.63994 1.68714 1.41305 1.2799 1.50247 1.48862 1.3939 1.48211 1.47422 1.47445 1.42202 1.59344 1.24406 1.2917 1.19538 1.26755 1.33885 1.1153 1.56306 1.58993 1.45527 1.38173 1.46613 1.59196 1.56804 1.45545 1.49877 1.57011 1.53152 1.60421 1.58013 1.48933 1.32783 1.54312 1.71591 1.46595 1.36622 1.542 1.52618 1.60427 1.46923 1.48386 1.35306 1.12715 1.27559 1.21512 1.52446 1.26189 1.15856 1.15999 1.05654 1.46028 1.54904 1.49493 1.47041 1.44315 1.55348 1.49513 1.45536 1.59034 1.53302 1.61815 1.60252 1.73659 1.53223 1.50279 1.53351 1.53131 1.47052 1.48844 1.48473 1.50125 1.47466 1.58466 1.44557 1.65439 1.63774 1.52472 1.54464 1.53841 1.52613 1.51276 1.23243 1.24617 1.50788 1.14797 1.41881 1.26362 1.8365 1.5697 1.53509 1.49759 1.43643 1.52789 1.55016 1.67043 1.65141 1.54877 1.69506 1.49423 1.5137 1.52172 1.52029 1.5062 1.50324 1.52617 1.51504 1.54805 1.55134 1.63224 1.52741 1.56774 1.52885 1.47075 1.56758 1.46664 1.65729 1.08809 1.10997 1.33723 2.3627 2.1363 1.41348 1.49952 1.5434 1.65218 1.72903 1.5995 1.59802 1.66143 1.42445 1.54099 1.53376 1.53553 1.54361 1.52457 1.52885 1.52537 1.53496 1.5508 1.42533 1.56541 1.54166 1.65998 1.81374 1.89731 1.64278 2.48217 1.96235 1.83615 1.49007 1.15162 1.4302 1.64766 1.83719 1.61086 1.59849 1.64003 1.53606 1.46204 1.52489 1.51262 1.5375 1.51041 1.52884 1.53901 1.55061 1.53854 1.57638 1.51339 1.41682 1.49202 1.9469 1.89254 1.46373 1.92431 2.48545 1.86756 1.89485 1.57878 1.89429 1.23568 1.43571 1.45003 1.58803 1.41441 1.50345 1.65682 1.58683 1.54635 1.52699 1.54096 1.52392 1.45971 1.5479 1.53944 1.54858 1.56822 1.5483 1.77751 1.41024 1.87773 1.469 1.56765 1.74867 1.95752 1.79703 1.19178 1.9167 1.64205 1.50447 1.36003 1.43422 1.44326 1.50528 1.46017 1.4944 1.47817 1.47159 1.56218 1.52446 1.50902 1.51028 1.54751 1.51278 1.52077 1.50777 1.55484 1.52681 1.59938 1.5451 1.52658 1.54016 1.51224 1.51689 1.45891 1.47003 1.68694 1.6738 1.49439 1.52904 1.74186 1.71484 1.67361 1.59822 1.54686 1.19178 1.75845 1.68686 1.53674 1.48532 1.51468 1.48399 1.49482 1.46535 1.47708 1.4691 1.48485 1.48464 1.46586 1.47499 1.49056 1.50306 1.49596 1.47939 1.53999 1.55503 1.52424 1.54113 1.54108 1.52939 1.4973 1.5063 1.47302 1.48872 1.47507 1.49803 1.48312 1.44551 1.6051 1.59076 1.54627 1.50548 1.52604 1.50554 1.48957 1.75108 1.38292 1.58463 1.19178 1.58433 1.47777 1.50133 1.47362 1.48515 1.49308 1.48346 1.48589 1.47927 1.4432 1.50544 1.50017 1.47688 1.49764 1.45191 1.44887 1.4978 1.43129 1.50883 1.5066 1.50792 1.48309 1.54774 1.48732 1.46222 1.47676 1.66704 1.51399 1.4541 1.42833 1.47642 1.4201 1.42852 1.41056 1.40817 1.54306 1.50539 1.50951 1.4671 1.46214 1.46889 1.45285 1.45109 1.54234 1.54097 1.47518 1.37224 1.4526 1.49568 1.41832 1.43004 1.46678 1.46291 1.4248 1.42281 1.53127 1.48442 1.48123 1.55141 1.4522 1.60854 1.4415 1.56533 1.53681 1.40098 1.4302 1.40381 1.4313 1.424 1.44155 1.47574 1.43428 1.4096 1.4438 1.47803 1.47132 1.42656 1.46483 1.43923 1.44817 1.32618 1.43392 1.40397 1.48119 1.41165 1.41076 1.4392 1.40132 1.41809 1.39469 1.43007 1.39895 1.31656 1.63726 1.50464 1.4784 1.40238 1.40104 1.46891 1.42901 1.41171 1.42028 1.39765 1.39496 1.38871 1.44227 1.43112 1.44531 1.43283 1.19178 1.3923 1.41629 1.30938 1.35127 1.43025 1.50403 1.43235 1.43428 1.39267 1.39733 1.3637 1.34771 1.3848 1.40598 1.38499 1.39612 1.3983 1.40353 1.41624 1.40022 1.41334 1.40005 1.40471 1.40963 1.37474 1.37539 1.55794 1.42538 1.45422 1.42677 1.44998 1.42181 1.44157 1.43603 1.42776 1.41284 1.39123 1.40095 1.42303 1.42448 1.41678 1.19178 1.19178 1.36207 1.3706 1.3576 1.4865 1.31408 1.466 1.38261 1.39242 1.36485 1.3671 1.3801 1.38838 1.39291 1.38408 1.38298 1.38694 1.39754 1.38275 1.38939 1.40857 1.40459 1.36489 1.41481 1.32958 1.38974 1.41778 1.40726 1.41144 1.42036 1.41149 1.43279 1.42998 1.43295 1.41391 1.39522 1.4021 1.40304 1.38778 1.40062 1.41424 1.40164 1.36677 1.36664 1.33566 1.37614 1.3421 1.36306 1.42345 1.30891 1.30484 1.40053 1.35152 1.36586 1.38858 1.38063 1.36725 1.37218 1.3751 1.37945 1.37785 1.37792 1.37903 1.37645 1.3789 1.37693 1.37202 1.38268 1.43107 1.28616 1.38544 1.35695 1.3969 1.40934 1.40739 1.40764 1.43858 1.43268 1.37079 1.38555 1.37694 1.40315 1.39746 1.40443 1.39796 1.35874 1.34828 1.33839 1.34458 1.3265 1.34444 1.34813 1.34755 1.35175 1.34357 1.36307 1.36071 1.35192 1.36989 1.36071 1.37747 1.36907 1.37438 1.38061 1.37417 1.3789 1.37126 1.37883 1.38496 1.27518 1.30225 1.39241 1.35645 1.40155 1.39239 1.38234 1.39277 1.37392 1.4112 1.4406 1.44148 1.30825 1.43105 1.36693 1.31747 1.2143 1.40168 1.40935 1.38463 1.36652 1.342 1.33447 1.34184 1.34067 1.33657 1.337 1.33634 1.33857 1.3466 1.35652 1.35729 1.38067 1.37369 1.37484 1.38244 1.37125 1.36914 1.36381 1.34593 1.3258 1.27655 1.29819 1.42497 1.33408 1.37193 1.36383 1.3799 1.38872 1.36657 1.37809 1.43377 1.39489 1.35992 1.44599 1.37043 1.36561 1.23514 1.33245 1.47877 1.40579 1.35244 1.35268 1.35752 1.19178 1.34019 1.33423 1.32715 1.33101 1.33279 1.33562 1.33489 1.33567 1.34585 1.35293 1.34797 1.35879 1.35548 1.3853 1.39986 1.34869 1.37888 1.36698 1.35754 1.37093 1.35702 1.33771 1.30214 1.32091 1.31429 1.31563 1.31131 1.29359 1.38053 1.37875 1.35726 1.29425 1.29629 1.31328 1.39337 1.43714 1.36052 1.41379 1.3448 1.34494 1.19178 1.33129 1.33026 1.32767 1.32458 1.32236 1.32199 1.33131 1.32797 1.33052 1.33267 1.32926 1.3319 1.33082 1.32813 1.33979 1.34916 1.34134 1.34442 1.35345 1.3462 1.38227 1.38389 1.36864 1.37418 1.37961 1.35268 1.3521 1.33865 1.31872 1.33009 1.32655 1.29741 1.29171 1.37199 1.36585 1.33646 1.34056 1.31694 1.28076 1.3052 1.30121 1.32965 1.27999 1.387 1.40805 1.33409 1.29964 1.32641 1.32391 1.31937 1.3228 1.31471 1.31902 1.32412 1.32508 1.31124 1.32892 1.32709 1.33659 1.34167 1.34038 1.36328 1.35702 1.37254 1.24252 1.34697 1.18309 1.35433 1.34615 1.35101 1.31582 1.3298 1.32096 1.31087 1.31908 1.29689 1.2931 1.29869 1.30904 1.31389 1.32523 1.32311 1.31495 1.26977 1.32412 1.24821 1.30322 1.25066 1.41203 1.50409 1.25575 1.23669 1.19178 1.32107 1.32145 1.3176 1.32104 1.31946 1.31543 1.31771 1.32448 1.31872 1.33572 1.33037 1.33774 1.32478 1.34001 1.34414 1.34763 1.39938 1.27091 1.35428 1.34447 1.26742 1.35923 1.35396 1.35083 1.33023 1.34235 1.32394 1.32778 1.30558 1.3052 1.30417 1.30081 1.29744 1.29788 1.30497 1.30931 1.31092 1.31209 1.31644 1.32354 1.31717 1.24662 1.29383 1.263 1.29207 1.36389 1.31645 1.22857 1.2499 1.31989 1.31656 1.31797 1.3155 1.31912 1.32243 1.31991 1.32102 1.32533 1.3436 1.31739 1.33347 1.34506 1.35024 1.34985 1.3681 1.36517 1.40996 1.28998 1.37683 1.37566 1.36116 1.32452 1.30324 1.29844 1.26868 1.34546 1.30784 1.29581 1.28928 1.29755 1.29786 1.29022 1.30041 1.29735 1.29706 1.29898 1.30731 1.30801 1.29238 1.29535 1.30587 1.29393 1.29965 1.27791 1.24782 1.30778 1.309 1.31292 1.31135 1.31796 1.32546 1.32074 1.31179 1.31783 1.31829 1.34775 1.35074 1.36969 1.37725 1.32494 1.35896 1.29736 1.31001 1.27697 1.24502 1.33119 1.31442 1.30703 1.29417 1.28029 1.25179 1.28127 1.29756 1.29823 1.30589 1.29772 1.30238 1.29585 1.29679 1.27537 1.28322 1.27902 1.30495 1.30123 1.29488 1.30151 1.3005 1.2686 1.28094 1.25015 1.24944 1.30029 1.28095 1.33253 1.30145 1.31278 1.29732 1.30948 1.3032 1.30486 1.31947 1.31786 1.32072 1.36189 1.31048 1.33105 1.37821 1.39708 1.32986 1.35764 1.28436 1.2967 1.25261 1.2417 1.30262 1.32599 1.28361 1.29056 1.32318 1.20844 1.30463 1.31495 1.29955 1.30929 1.27084 1.27087 1.28351 1.30851 1.26144 1.28318 1.32517 1.29689 1.28271 1.2513 1.23885 1.27466 1.27092 1.26124 1.33828 1.31358 1.25215 1.31186 1.2895 1.28672 1.2867 1.25968 1.30212 1.27994 1.2897 1.26489 1.39389 1.37223 1.29558 1.27468 1.30112 1.28511 1.29446 1.31863 1.22464 1.29198 1.30233 1.29704 1.28235 1.29476 1.24754 1.2647 1.34467 1.33139 1.15874 1.23468 1.26203 1.31142 1.28566 1.2991 1.29659 1.33473 1.24606 1.25775 1.24202 1.21367 1.19178 1.25931 1.22806 1.24958 1.23023 1.30781 1.29799 1.28533 1.28602 1.27477 1.27313 1.28068 1.24656 1.29562 1.23635 1.31984 1.20441 1.39169 1.27145 1.35316 1.30335 1.27001 1.33254 1.32576 1.2628 1.28533 1.27164 1.35131 1.29479 1.28774 1.33882 1.28319 1.26228 1.19572 1.2234 1.30156 1.25967 1.29871 1.2923 1.33356 1.31448 1.25528 1.2196 1.19001 1.18117 1.17534 1.15626 1.22218 1.26151 1.27316 1.24619 1.27067 1.30608 1.26895 1.29694 1.30432 1.29134 1.24861 1.23817 1.2567 1.09405 1.27896 1.0397 1.29003 1.31544 1.28296 1.30782 1.33233 1.32983 1.36955 1.29828 1.29293 1.29916 1.30607 1.29667 1.32693 1.28681 1.33642 1.27659 1.30171 1.31231 1.25219 1.19607 1.18432 1.17261 1.26774 1.23715 1.29442 1.29235 1.28585 1.27102 1.27751 1.19357 1.18227 1.18588 1.18743 1.15903 1.1399 1.26865 1.28834 1.2435 1.26216 1.2764 1.25675 1.2803 1.28796 1.34959 1.18717 1.21549 1.18087 1.18386 1.18105 1.17145 1.15394 1.20845 1.32316 1.37596 1.34069 1.236 1.30049 1.30785 1.25672 1.26315 1.27614 1.34328 1.34611 1.31143 1.28667 1.25625 1.19645 1.18759 1.19067 1.28718 1.29169 1.30151 1.21291 1.2493 1.19935 1.22064 1.26788 1.22368 1.19178 1.20255 1.19905 1.37474 1.31844 1.22126 1.29427 1.27783 1.25185 1.26837 1.31267 0.975889 1.23411 1.15092 1.17436 1.22405 1.17923 1.2473 1.25911 1.19389 1.27986 1.21349 1.26691 1.34669 1.24167 1.32067 1.07815 1.1833 1.27228 1.35679 1.3514 1.3477 1.5348 1.31372 1.31703 1.33729 1.30481 1.28629 1.24582 1.26231 1.25846 1.21883 1.20341 1.24073 1.45294 0.849485 1.13167 1.09155 1.26438 1.26036 1.40672 1.34443 1.32593 5.26295 0.969109 3.68925 0.876655 1.38713 1.61841 1.5078 1.18307 1.26474 1.33711 1.23267 1.064 1.16564 1.3088 1.34625 1.16259 1.1951 1.19786 1.12222 1.15271 1.18174 1.18576 1.19178 1.23129 1.16702 1.26871 1.20627 1.23826 1.29957 1.22992 1.08843 1.213 1.18886 1.19336 1.22688 1.44567 1.40623 1.42994 1.27953 1.31332 1.26853 1.31278 1.20895 1.22868 1.26042 1.25445 1.29751 1.25862 1.10638 1.308 0.903724 1.46598 1.35583 1.06637 1.16478 1.31756 1.97066 1.6111 1.00509 1.02329 1.01284 1.12822 1.05117 1.25146 2.34294 1.56639 2.27422 2.52198 2.76547 1.48113 1.06109 1.06597 1.50687 1.29283 0.993681 1.29077 1.22178 1.1778 1.18705 1.15824 1.1948 1.14773 1.17556 1.16693 1.18504 1.17671 1.18024 1.16719 1.18002 1.17513 1.17547 1.20254 1.21243 1.22591 1.22826 1.17629 1.16779 1.02473 1.08517 1.33241 1.18665 1.33736 1.25761 1.26967 1.27438 1.33102 1.13271 1.27266 1.10694 1.77765 1.12928 1.51227 1.41552 1.4482 0.97807 1.30461 2.28002 0.88439 0.829277 0.103075 0.181571 0.794287 0.72134 0.165455 0.553142 0.82113 0.952278 0.952573 0.884459 0.838895 0.904042 1.10653 1.07866 0.907793 1.26097 0.91442 0.836658 0.953915 0.996761 0.93702 1.13931 1.18358 1.19658 1.10922 1.19119 1.05652 1.14056 1.53037 1.30596 1.23864 1.10692 1.18665 1.1696 1.10337 1.10757 1.14375 1.1787 1.18314 1.21225 1.10626 1.12006 1.1082 0.796355 1.07866 1.12545 1.34011 1.2487 0.936486 1.09422 1.25752 1.16628 1.2445 1.25565 1.26689 1.37723 1.14198 1.33205 1.40613 1.2936 1.15836 1.01287 0.89992 1.01407 1.28266 0.505294 1.12208 1.23277 1.35112 0.995288 1.18239 0.921572 0.832879 0.761714 0.732967 0.778243 0.793146 0.705056 0.748374 0.717936 0.794186 0.75089 0.717597 0.788736 0.77132 0.800358 0.769076 0.850856 0.81412 0.822426 0.806362 0.802151 0.821501 0.872482 0.783773 0.768784 0.569296 0.808623 0.73475 1.01558 0.878229 0.948731 1.00718 1.00632 0.909608 0.74208 1.16704 1.60362 1.22593 1.27344 1.14608 1.03484 1.09468 1.19629 1.1198 1.01845 1.09222 1.16504 1.22116 1.22195 1.04742 0.803297 1.20532 1.04776 0.844373 0.991306 1.02559 0.974693 1.16092 0.793198 1.27044 1.25682 1.24775 1.30802 1.16839 1.2102 1.51128 1.15003 1.09042 1.24581 1.13093 0.997698 1.22682 1.09829 0.540644 1.1087 1.03555 1.10185 1.29141 0.984198 0.997106 0.942825 1.00716 0.966739 0.852372 0.810357 0.79535 0.829379 0.806638 0.803245 0.840378 0.721493 0.712206 0.756243 0.695156 0.696398 0.991656 1.02267 0.871961 0.833444 0.37614 0.697422 0.675447 0.500211 0.796397 0.753698 0.724512 0.695408 0.787723 0.759218 0.743756 0.757559 0.775573 0.75521 0.794781 0.777983 0.869673 0.869187 0.988132 0.892232 0.956547 1.04787 1.10135 0.924145 1.07748 1.02707 0.887538 1.15127 1.34827 0.798578 1.0503 0.976925 0.783162 0.808047 1.06512 1.06586 1.09131 1.11258 1.12011 0.982676 1.07133 0.980309 0.934658 1.18662 1.50854 1.0597 0.986144 0.97313 1.03416 0.941782 0.942192 1.36242 0.817893 0.966387 1.29035 1.24336 1.36395 1.17305 1.11571 1.07894 1.20015 1.2343 1.04208 1.19249 0.955788 1.03838 1.06592 1.03096 1.04296 1.16108 1.09161 0.95664 0.909074 0.932106 0.926812 0.893463 0.867011 0.832118 0.852386 0.829727 0.807788 0.811089 0.808421 0.724132 0.775909 0.789849 0.67473 0.672786 0.680308 0.657102 0.654364 0.562786 0.907547 0.739447 0.804987 0.456316 0.303723 0.542807 0.325585 0.531766 0.690749 0.712098 0.690044 0.698125 0.715475 0.760523 0.721785 0.769736 0.811221 0.783207 0.800525 0.881378 0.891357 1.17027 1.21829 0.791741 0.911066 0.836867 0.813988 0.90083 0.88655 0.748919 0.816645 0.986424 0.876236 0.956571 1.11905 1.23322 1.12963 0.860156 1.01791 0.895227 1.12118 1.07649 0.913389 0.985913 1.22138 0.911048 1.04657 1.01329 1.02658 1.15466 0.947776 0.948799 0.798492 0.899199 1.05341 1.03113 1.09455 1.03752 0.885771 0.949843 1.40299 0.956996 0.585761 0.990074 0.807904 0.928699 1.00487 0.954695 1.08304 1.00668 0.919768 0.911612 0.880158 0.959691 0.825641 0.864037 0.84504 0.855927 0.859311 0.817358 0.77748 0.772991 0.826271 0.761097 0.691934 0.717324 0.776107 0.652093 0.643031 0.675441 0.660591 0.644811 0.642148 0.63579 0.638396 0.498738 0.524609 0.475677 0.589727 0.519121 0.495212 0.478552 0.593743 0.630494 0.675429 0.721636 0.681721 0.849084 0.754089 0.662137 0.705285 0.65407 0.675929 0.775117 0.800717 0.812494 0.836423 0.921725 0.73185 0.729664 0.857607 0.769603 0.823894 0.836846 0.839858 0.970817 0.929557 0.927422 0.890318 0.947332 0.968872 0.975876 0.996474 0.843922 0.911356 0.979231 0.966572 0.804196 1.10369 0.904066 0.697418 0.822826 0.909448 0.993071 1.05754 1.1689 1.4366 0.820405 0.633118 0.8537 0.810604 0.742941 0.967134 0.963668 0.896022 0.959096 0.746501 0.915604 1.03395 0.957264 0.869433 0.834117 0.887786 0.768555 0.808076 0.741997 0.804728 0.883834 0.946751 0.933986 0.783607 0.471662 1.05235 0.561174 0.791192 0.74947 0.83254 0.760659 0.82133 0.783682 0.834709 0.840388 0.731786 0.724945 0.691179 0.670766 0.713756 0.638331 0.654471 0.672126 0.640692 0.643769 0.666151 0.64891 0.639655 0.644256 0.632486 0.631011 0.549701 0.571353 0.575731 0.522562 0.504062 0.543624 0.476721 0.588395 0.572828 0.605146 0.592615 0.624384 0.639719 0.607725 0.767239 0.686187 0.686873 0.654155 0.632781 0.643502 0.673278 0.71715 0.730367 0.78952 0.817331 0.768663 0.701088 0.734629 0.757202 0.767348 0.742236 0.73471 0.713023 0.845013 0.799511 0.707085 0.809062 0.817172 0.833036 0.843673 0.874814 0.776397 0.823449 0.827375 0.961581 1.00528 0.887384 0.854662 0.923815 0.843313 0.821545 0.748816 0.768996 0.806802 0.88491 0.853966 0.913047 1.05836 1.18651 0.735384 0.79721 0.728067 0.793978 0.779184 0.75575 0.829751 0.912914 0.927046 0.846258 0.778972 0.877703 0.770652 0.926435 0.80077 0.821148 0.82799 0.775615 0.787722 0.732253 0.827688 0.751523 0.731004 0.810553 0.847189 0.84348 0.837152 0.798127 0.340721 0.644353 0.50761 0.719884 0.673813 0.561271 0.79151 0.908783 0.906213 0.839959 0.734395 0.963929 0.756284 0.710508 0.710192 0.656068 0.661038 0.650445 0.648311 0.638428 0.641597 0.620786 0.619415 0.60544 0.600907 0.596093 0.580773 0.588546 0.588096 0.586874 0.581655 0.534833 0.5025 0.612205 0.600865 0.699221 0.626999 0.626979 0.653884 0.551195 0.578018 0.558296 0.563117 0.631397 0.698784 0.696138 0.686849 0.659478 0.729502 0.724726 0.742759 0.78605 0.770807 0.75827 0.845865 0.928415 0.79843 0.752638 0.799534 0.731958 0.734702 0.741026 0.737454 0.741859 0.826404 0.811402 0.829785 0.825904 0.81903 0.831157 0.864558 0.739848 0.694581 0.719928 0.776462 0.839755 0.901629 0.77594 0.764944 0.807889 0.855465 0.868743 1.06407 1.09158 0.97878 1.0698 0.769635 0.841476 0.955353 0.673915 0.759213 0.757619 0.748604 0.786618 0.797423 0.849508 0.735126 0.861235 0.743277 0.816215 0.82677 0.787317 0.810375 0.795892 0.767599 0.755345 0.767539 0.797006 0.842668 0.711511 0.57197 0.684304 0.602782 0.59723 0.613699 0.620403 0.677959 0.620487 0.236431 0.678743 0.987289 0.895409 1.17419 0.670628 0.442283 0.659204 0.589455 0.677184 0.623686 0.636734 0.628379 0.647847 0.623581 0.619053 0.623199 0.616483 0.617236 0.599687 0.589629 0.606921 0.593043 0.575492 0.585092 0.56536 0.560297 0.557424 0.552815 0.586977 0.590928 0.589306 0.588943 0.591866 0.594017 0.598538 0.594 0.597961 0.599966 0.598791 0.598559 0.614839 0.618834 0.582169 0.592267 0.621683 0.552075 0.610198 0.620691 0.654837 0.64136 0.611908 0.628995 0.646271 0.629178 0.60127 0.606407 0.546207 0.693764 0.640023 0.695647 0.690756 0.714062 0.716497 0.699206 0.696791 0.74145 0.716558 0.752581 0.794249 0.695683 0.802429 0.788391 0.791694 0.800323 0.835399 0.824497 0.824243 0.795668 0.784617 0.687513 0.910786 1.03815 0.740936 0.781596 0.793038 0.764113 0.755907 0.781994 0.751724 1.0071 1.1051 0.885919 0.742265 0.742934 0.725581 0.782578 0.633463 0.731069 0.646376 0.786993 0.529773 0.9274 0.846378 0.822735 0.802671 0.792274 0.734285 0.697955 0.764552 0.724316 0.793359 0.775936 0.66712 0.754028 0.717211 0.621997 0.667657 0.657835 0.747489 0.633152 0.261016 0.56647 0.886786 0.386463 0.640753 0.629521 0.58411 0.630284 0.6305 0.630544 0.636924 0.6319 0.616057 0.620644 0.619297 0.618749 0.619746 0.615835 0.609268 0.636826 0.602914 0.628107 0.605104 0.61953 0.531412 0.532232 0.506871 0.532096 0.499116 0.520779 0.496537 0.585263 0.627191 0.594351 0.553951 0.560562 0.581377 0.598741 0.588286 0.575298 0.598356 0.590435 0.57575 0.601264 0.621662 0.613209 0.4164 0.646404 0.655043 0.630351 0.619457 0.642497 0.631623 0.621102 0.635065 0.621401 0.638067 0.674757 0.663089 0.711655 0.694936 0.678813 0.687817 0.687997 0.694581 0.687175 0.680045 0.674911 0.686438 0.685241 0.763002 0.711908 0.729777 0.773076 0.779688 0.780096 0.775008 0.746385 0.735907 0.713938 0.424352 0.714059 0.763518 0.469256 0.56974 0.78296 0.55242 0.67699 0.759723 0.820747 0.757938 0.727362 0.757467 0.721442 0.77101 0.689695 1.07735 0.653709 0.785161 0.709385 0.665184 0.711394 0.595479 0.480096 0.769844 0.755747 0.656523 0.747506 0.821122 0.752487 0.726779 0.804108 0.724417 0.683181 0.76964 0.763858 0.743678 0.751008 0.764043 0.669741 0.650049 0.663222 0.671082 0.676983 0.664007 0.667951 0.670893 0.586951 0.538716 0.562005 0.604213 0.628368 0.632049 0.613228 0.627558 0.630424 0.621521 0.622454 0.618251 0.618247 0.61835 0.609651 0.610531 0.595402 0.626367 0.681225 0.703793 0.637618 0.769956 0.500047 0.639148 0.480748 0.468911 0.467187 0.446183 0.464002 0.592944 0.599694 0.580202 0.514696 0.54919 0.551633 0.515261 0.567656 0.532188 0.561934 0.577946 0.566961 0.578001 0.577078 0.5809 0.55979 0.968242 0.534798 0.293121 0.742307 0.589574 0.555525 0.671158 0.633816 0.560245 0.629761 0.634256 0.642726 0.638433 0.662189 0.636369 0.689275 0.678289 0.604748 0.697857 0.677309 0.665662 0.682688 0.716279 0.689894 0.714594 0.668807 0.676716 0.676475 0.697066 0.703921 0.739839 0.739888 0.688595 0.839768 0.852853 0.827445 0.543505 0.654867 0.732695 0.771528 0.668833 0.625094 0.799628 0.725659 0.472455 0.994671 0.997386 0.606374 0.737519 0.752422 0.670924 0.608394 0.78948 0.419059 0.589596 0.709411 0.615074 0.786687 0.754354 0.773804 0.734212 0.723877 0.800603 0.724019 0.684146 0.64812 0.817445 0.747385 0.742022 0.735911 0.628818 0.641148 0.655745 0.625878 0.631375 0.672616 0.649785 0.646791 0.668849 0.57022 0.620686 0.610265 0.601571 0.639717 0.622752 0.617537 0.602396 0.619777 0.617339 0.597663 0.553989 0.570546 0.496819 0.630494 0.458365 0.815717 0.673555 0.628859 0.688787 0.726413 0.605586 0.55386 0.62748 0.472982 0.488446 0.506436 0.572691 0.48134 0.485025 0.48219 0.484672 0.531094 0.599354 0.614307 0.608086 0.576083 0.560623 0.566972 0.570601 0.573644 0.562741 0.565511 0.560727 0.558867 0.56707 0.531371 0.56484 0.553706 0.56342 0.546588 0.585801 0.581881 0.588985 0.579779 0.583715 0.571804 0.566881 0.577139 0.557293 0.506708 0.604594 0.605504 0.58761 0.636264 0.607012 0.618992 0.622078 0.612455 0.664315 0.605461 0.591788 0.598674 0.615593 0.642891 0.664717 0.600433 0.654811 0.72168 0.698504 0.68907 0.55401 0.729179 0.599058 0.746052 0.750313 0.864542 0.804509 0.755737 0.562341 0.962355 0.657326 0.840675 0.530506 0.49232 0.591602 0.714834 0.629395 0.726335 0.791501 0.658764 0.886485 0.874889 0.989367 0.577093 0.715979 0.537319 0.590607 0.616987 0.700016 0.534257 0.51136 0.586509 0.592948 0.541924 0.768197 0.726079 0.688802 0.726575 0.673059 0.689469 0.644822 0.757749 0.728745 0.665233 0.633797 0.517823 0.617993 0.616503 0.615184 0.6258 0.631858 0.60524 0.579629 0.612206 0.666617 0.599262 0.624746 0.623665 0.68196 0.611505 0.610295 0.630284 0.608575 0.602372 0.583816 0.587236 0.555961 0.534867 0.56589 0.57148 0.513956 0.644519 0.69453 0.766246 0.671935 0.550531 0.543984 0.731602 0.515618 0.502691 0.509129 0.48691 0.499174 0.491758 0.477885 0.485864 0.470022 0.453914 0.502617 0.483703 0.442549 0.685127 0.646646 0.594163 0.619135 0.591147 0.560874 0.563549 0.531283 0.555598 0.53598 0.502177 0.50381 0.520514 0.456758 0.58296 0.620626 0.592733 0.601772 0.589862 0.602023 0.608151 0.590197 0.574683 0.562946 0.571681 0.61499 0.628303 0.623893 0.615856 0.604708 0.598428 0.594322 0.591322 0.591064 0.577987 0.604314 0.598476 0.611977 0.656173 0.639606 0.693959 0.620516 0.678357 0.511446 0.529412 0.60151 0.603867 0.63449 0.589938 0.589381 0.625221 0.238572 0.521133 0.624015 0.538545 0.541928 0.538889 0.635608 0.582896 0.704376 0.766199 0.757282 0.881893 0.911138 0.662484 0.712056 0.545553 0.53996 0.520076 0.557476 0.534083 0.598347 0.53399 0.543343 0.557326 0.576688 0.560816 0.574928 0.581852 0.584246 0.557203 0.565809 0.659067 0.657357 0.634344 0.63616 0.671892 0.658499 0.707748 0.698881 0.613694 0.649511 0.549589 0.604415 0.546103 0.591608 0.550962 0.576639 0.559272 0.579331 0.550905 0.580894 0.608562 0.588029 0.553466 0.590607 0.557389 0.564558 0.654243 0.569168 0.466875 0.566794 0.415039 0.559358 0.576924 0.580225 0.55285 0.567636 0.564388 0.581573 0.493264 0.138609 0.512524 0.450248 0.407249 0.502124 0.521171 0.499673 0.493464 0.481802 0.484498 0.462956 0.459024 0.466204 0.439767 0.439387 0.428618 0.430531 0.433042 0.50805 0.511591 0.495496 0.552381 0.535731 0.460738 0.539238 0.606062 0.713196 0.607548 0.570007 0.558727 0.520712 0.534863 0.493007 0.476251 0.481037 0.499259 0.435714 0.686197 0.624327 0.664954 0.621925 0.599065 0.594423 0.575651 0.58165 0.580523 0.592992 0.633408 0.607942 0.630781 0.620218 0.582619 0.572362 0.583058 0.610994 0.601286 0.653407 0.665353 0.668506 0.439069 0.476558 0.508222 0.572417 0.606469 0.619567 0.574076 0.621458 0.55776 0.564411 0.542024 0.549773 0.496325 0.6097 0.493847 0.614569 0.614229 0.61454 0.579331 0.588382 0.619901 0.814526 0.925438 0.874793 0.664844 0.624566 0.524863 0.514665 0.541913 0.529763 0.546403 0.547385 0.577387 0.583025 0.585653 0.611636 0.600901 0.590621 0.638653 0.623176 0.670857 0.633735 0.676543 0.699894 0.564891 0.629162 0.54578 0.558755 0.541981 0.562312 0.591364 0.58773 0.50605 0.593616 0.504946 0.599322 0.512258 0.586046 0.482487 0.556357 0.516698 0.572128 0.577408 0.55363 0.480803 0.498414 0.471866 0.476188 0.498689 0.518798 0.545501 0.533374 0.541532 0.534808 0.532534 0.509155 0.469816 0.450403 0.43585 0.460596 0.429562 0.433929 0.442662 0.440245 0.502035 0.499304 0.502953 0.501604 0.499596 0.545286 0.492442 0.478578 0.465881 0.421057 0.588381 0.484136 0.502734 0.52047 0.511835 0.485169 0.416562 0.389992 0.43147 0.370939 0.362439 0.639689 0.493245 0.522947 0.417728 0.488861 0.588761 0.471278 0.546471 0.574975 0.546015 0.561113 0.545589 0.571787 0.536477 0.474815 0.563463 0.496344 0.579513 0.523222 0.618163 0.530608 0.513672 0.517415 0.552781 0.585918 0.561086 0.560515 0.553226 0.568905 0.563166 0.5764 0.564615 0.609273 0.611211 0.604272 0.580695 0.645894 0.695641 0.751261 0.541103 0.70145 1.1886 0.61248 0.607591 0.762063 0.613825 0.582362 0.511433 0.537405 0.538569 0.548081 0.541544 0.550593 0.544828 0.556274 0.602824 0.574899 0.593056 0.605649 0.624164 0.618646 0.641088 0.605426 0.628724 0.574529 0.523209 0.563857 0.54068 0.550687 0.566253 0.597979 0.584787 0.61323 0.685251 0.576245 0.559586 0.559149 0.55936 0.544056 0.572766 0.540546 0.595708 0.542661 0.58973 0.577188 0.529412 0.531402 0.527235 0.498456 0.50135 0.503952 0.524663 0.520944 0.515077 0.538071 0.521237 0.495418 0.449218 0.519536 0.516538 0.43056 0.470169 0.439308 0.449632 0.44543 0.444043 0.448249 0.458627 0.428142 0.42524 0.432798 0.479424 0.460074 0.507983 0.509884 0.502952 0.496774 0.476655 0.465142 0.494509 0.491895 0.47051 0.435217 0.498307 0.535925 0.431014 0.482146 0.497694 0.468028 0.470954 0.224559 0.242876 0.613672 0.547765 0.656541 0.511721 0.490024 0.505342 0.490969 0.544175 0.605471 0.53364 0.626388 0.499692 0.48392 0.516486 0.459949 0.500084 0.479699 0.50982 0.52184 0.535326 0.5341 0.517673 0.518825 0.510975 0.519551 0.538836 0.558105 0.560784 0.55074 0.549019 0.556537 0.562426 0.579041 0.583827 0.596454 0.589979 0.61482 0.607701 0.604875 0.481975 0.441526 0.17358 0.446316 0.84832 0.640944 0.511303 0.519639 0.530358 0.536487 0.547819 0.549072 0.547101 0.548362 0.549194 0.554002 0.553949 0.551152 0.555616 0.573111 0.583285 0.587724 0.613374 0.622983 0.590593 0.570178 0.557081 0.542686 0.507103 0.529759 0.518152 0.530426 0.5325 0.565352 0.504398 0.547752 0.561058 0.642368 0.570938 0.6907 0.58488 0.543439 0.551727 0.527156 0.536797 0.508282 0.499101 0.510923 0.479381 0.457924 0.506064 0.437668 0.445646 0.519177 0.463644 0.532873 0.569625 0.550565 0.582764 0.538932 0.56187 0.537434 0.532969 0.560389 0.461612 0.630072 0.460758 0.3249 0.440691 0.448462 0.448661 0.446938 0.445566 0.460832 0.436499 0.452456 0.439501 0.455795 0.47808 0.487884 0.52521 0.557711 0.506767 0.49628 0.478503 0.469778 0.428421 0.465565 0.405311 0.435903 0.450572 0.518396 0.384212 0.424188 0.3775 0.176806 0.217257 0.556993 0.555178 0.539939 0.477976 0.381955 0.49148 0.640442 0.467992 0.408803 0.435091 0.456961 0.478885 0.492719 0.495051 0.50945 0.515486 0.5186 0.515931 0.511713 0.51208 0.521374 0.529776 0.542472 0.529765 0.542221 0.533143 0.548509 0.56435 0.570187 0.572565 0.565194 0.574456 0.57921 0.562579 0.595027 0.572953 0.52519 0.583202 0.537376 0.30506 0.382651 0.653802 0.509121 0.607939 0.166947 0.509078 0.570803 0.555564 0.540492 0.557916 0.56083 0.564489 0.556043 0.553557 0.550125 0.562677 0.541519 0.541508 0.553428 0.530542 0.579517 0.559989 0.585677 0.571634 0.594345 0.572567 0.595379 0.556895 0.520117 0.535623 0.499977 0.499489 0.486995 0.512433 0.515512 0.501126 0.511976 0.540466 0.573368 0.539381 0.4883 0.479776 0.492395 0.526345 0.504529 0.503721 0.496557 0.479058 0.448247 0.456079 0.485609 0.482818 0.468149 0.515263 0.563061 0.519395 0.550164 0.455987 0.52188 0.629201 0.461727 0.536841 0.464099 0.453572 0.415613 0.411661 0.41616 0.437651 0.438141 0.441654 0.434917 0.432544 0.418551 0.422326 0.430776 0.414152 0.395719 0.413459 0.512817 0.439953 0.432478 0.411471 0.417648 0.42088 0.426479 0.419125 0.426793 0.387899 0.391419 0.380655 0.379161 0.354063 0.308701 0.339779 0.355581 0.436071 0.539588 0.449422 0.412811 0.436901 0.431097 0.415402 0.356037 0.444615 0.481713 0.506294 0.492539 0.501971 0.500918 0.506639 0.503581 0.504749 0.510725 0.510732 0.511661 0.511994 0.511887 0.513587 0.512031 0.518496 0.523893 0.533925 0.531609 0.554509 0.559388 0.575081 0.549721 0.54431 0.555295 0.553609 0.562184 0.502522 0.432698 0.482313 0.454168 0.460016 0.305806 0.336656 0.506813 0.550042 0.570587 0.54946 0.561275 0.559873 0.562755 0.558001 0.52667 0.532344 0.517424 0.531431 0.545091 0.570715 0.563424 0.549274 0.566663 0.504427 0.527882 0.506211 0.483489 0.477839 0.483041 0.496138 0.479095 0.495893 0.514266 0.520161 0.510358 0.515584 0.524527 0.523036 0.51565 0.513009 0.492353 0.472547 0.481974 0.502773 0.495146 0.493895 0.492221 0.485613 0.481923 0.460493 0.463947 0.446475 0.462351 0.444964 0.426721 0.418736 0.354098 0.420253 0.403061 0.475151 0.401169 0.375088 0.327094 0.43611 0.441587 0.425012 0.417384 0.422435 0.42227 0.431954 0.425426 0.430599 0.427848 0.425574 0.434051 0.42818 0.422873 0.413931 0.41611 0.40954 0.403224 0.424224 0.441026 0.427428 0.456085 0.439809 0.414906 0.41071 0.413115 0.42207 0.424072 0.417797 0.412652 0.415042 0.413861 0.41371 0.409198 0.409986 0.390423 0.400235 0.378761 0.405948 0.464157 0.511776 0.44021 0.383245 0.409214 0.379041 0.29364 0.420257 0.510002 0.477729 0.497442 0.557361 0.540488 0.52843 0.51792 0.511691 0.511849 0.512451 0.514238 0.513384 0.51493 0.515328 0.520372 0.530046 0.536618 0.535379 0.55376 0.592918 0.54224 0.51662 0.539803 0.543604 0.540241 0.507748 0.505583 0.497759 0.398193 0.356502 0.392065 0.502634 0.514534 0.56295 0.532329 0.554551 0.573083 0.564274 0.540591 0.510728 0.501609 0.516261 0.553355 0.570125 0.555418 0.532397 0.493903 0.495059 0.487512 0.478535 0.479568 0.489155 0.476525 0.505272 0.519171 0.521098 0.508882 0.51773 0.49853 0.500008 0.485473 0.47911 0.491377 0.493704 0.490485 0.4894 0.484755 0.484152 0.473093 0.490864 0.482527 0.520898 0.478741 0.401839 0.39946 0.391323 0.415777 0.397226 0.412609 0.396822 0.38414 0.388037 0.398608 0.415242 0.415872 0.403928 0.41077 0.41783 0.420609 0.416137 0.421748 0.4186 0.42622 0.424777 0.427998 0.426954 0.432296 0.426008 0.422234 0.46057 0.458258 0.440329 0.425148 0.419302 0.414783 0.420524 0.414798 0.418291 0.409676 0.413361 0.410161 0.412831 0.409332 0.412619 0.41232 0.417837 0.419171 0.414179 0.409303 0.418806 0.413496 0.400638 0.419787 0.400899 0.417867 0.405169 0.419286 0.405463 0.415578 0.396003 0.374578 0.343993 0.384902 0.35054 0.440904 0.77638 0.731451 0.593361 0.528412 0.546176 0.510427 0.512144 0.513002 0.515175 0.516507 0.517732 0.518558 0.516582 0.550506 0.530809 0.493071 0.425914 0.49448 0.482379 0.502484 0.53172 0.513384 0.537552 0.543842 0.535377 0.534391 0.526083 0.517782 0.538738 0.343351 0.422656 0.400053 0.406882 0.406136 0.492753 0.476136 0.569247 0.525775 0.558629 0.580968 0.51666 0.494914 0.471585 0.511898 0.567357 0.542278 0.571783 0.516381 0.481012 0.471784 0.47049 0.490199 0.503656 0.512808 0.524358 0.513958 0.525669 0.518242 0.514056 0.508639 0.493543 0.499394 0.492231 0.48952 0.492831 0.491688 0.490395 0.490417 0.486953 0.486804 0.487654 0.508266 0.489226 0.544618 0.61274 0.589135 0.709409 0.593106 0.559064 0.422852 0.487796 0.437624 0.416225 0.405901 0.396972 0.392897 0.392333 0.399042 0.400685 0.394293 0.408285 0.413806 0.420613 0.412212 0.427316 0.430971 0.43673 0.43366 0.442454 0.436773 0.422691 0.417669 0.409598 0.424181 0.444974 0.454002 0.418062 0.42007 0.414263 0.396634 0.403688 0.403402 0.402146 0.39978 0.39998 0.402228 0.402559 0.410589 0.404867 0.411752 0.413278 0.418294 0.416294 0.418998 0.422839 0.422953 0.426187 0.429761 0.428214 0.429436 0.425794 0.420778 0.412417 0.406628 0.407651 0.407437 0.405335 0.38266 0.295814 0.300611 0.451694 0.173559 0.536697 0.485605 0.498524 0.5081 0.508925 0.505952 0.511214 0.514778 0.515583 0.521787 0.521502 0.524682 0.522152 0.530225 0.55594 0.551936 0.437667 0.438905 0.426228 0.449031 0.489108 0.526142 0.540571 0.546663 0.543737 0.542351 0.574404 0.403476 0.408884 0.380897 0.439271 0.366659 0.520056 0.552637 0.627477 0.520234 0.49658 0.512189 0.534841 0.613135 0.484492 0.467701 0.48461 0.457912 0.51414 0.5212 0.501964 0.501578 0.483645 0.478755 0.475303 0.48436 0.502796 0.512444 0.515909 0.512637 0.507098 0.505595 0.497166 0.500908 0.494003 0.489162 0.488425 0.484132 0.482753 0.487301 0.480361 0.472807 0.457775 0.457315 0.452173 0.440256 0.436778 0.50844 0.0797289 0.290206 0.367804 0.383253 0.390831 0.379166 0.385009 0.384182 0.387854 0.381022 0.389511 0.387774 0.404985 0.409786 0.422303 0.420792 0.431968 0.432932 0.444735 0.436996 0.450463 0.415688 0.435464 0.391086 0.356157 0.381501 0.424679 0.428698 0.346915 0.386615 0.399009 0.373667 0.39546 0.370456 0.392997 0.38146 0.390602 0.394843 0.393921 0.395174 0.397489 0.406259 0.402222 0.414774 0.426674 0.436308 0.434249 0.435549 0.439217 0.437447 0.432265 0.433305 0.406798 0.415087 0.408922 0.41311 0.399899 0.398605 0.362038 0.38848 0.395185 0.478848 0.418065 0.516738 0.487837 0.506484 0.499512 0.501787 0.50601 0.508549 0.509914 0.51438 0.515618 0.521122 0.519336 0.519851 0.512911 0.474047 0.481488 0.455014 0.453384 0.458144 0.455229 0.47443 0.518743 0.491497 0.537661 0.553443 0.565165 0.548256 0.536005 0.446854 0.458977 0.423828 0.397475 0.40837 0.404065 0.416614 0.406707 0.276937 0.740657 0.683947 0.531434 0.565826 0.64128 0.444297 0.43844 0.475178 0.476439 0.509181 0.446085 0.471382 0.489234 0.486877 0.473404 0.485402 0.477868 0.484764 0.493162 0.487272 0.505346 0.51257 0.5112 0.512654 0.506705 0.505637 0.503921 0.50338 0.502331 0.496353 0.494695 0.485553 0.480801 0.473715 0.47018 0.463592 0.466671 0.465747 0.495904 0.403132 0.412272 0.357731 0.381273 0.379016 0.380885 0.379186 0.380256 0.387447 0.383258 0.392902 0.378108 0.385386 0.401162 0.416679 0.425509 0.443211 0.447816 0.453671 0.430652 0.388971 0.334775 0.307669 0.248371 0.255372 0.316857 0.306287 0.305154 0.366096 0.321137 0.351465 0.368183 0.352922 0.350427 0.368834 0.385638 0.39436 0.389793 0.396093 0.395634 0.396502 0.389553 0.444624 0.448354 0.445323 0.447984 0.448576 0.459516 0.451834 0.44837 0.455655 0.42762 0.436763 0.423524 0.421082 0.409174 0.422343 0.414643 0.432283 0.453634 0.502612 0.466758 0.500316 0.509905 0.516816 0.515769 0.50807 0.505954 0.510805 0.516727 0.524864 0.519135 0.508111 0.508503 0.485774 0.476806 0.475604 0.472504 0.472692 0.491493 0.510126 0.535819 0.649527 0.586227 0.495189 0.431908 0.459136 0.402409 0.444773 0.319545 0.243567 0.441209 0.855759 0.969662 0.603608 0.40973 0.523738 0.427617 0.436012 0.466684 0.497594 0.498722 0.460119 0.491108 0.472872 0.501644 0.501878 0.48619 0.495264 0.506859 0.520179 0.509835 0.515257 0.510254 0.513599 0.500363 0.515071 0.505587 0.498294 0.489009 0.480053 0.481853 0.473209 0.462129 0.475382 0.475663 0.483239 0.455658 0.471719 0.427305 0.449416 0.409445 0.398345 0.387696 0.384749 0.380614 0.377933 0.374561 0.375064 0.371156 0.377061 0.363019 0.377958 0.395935 0.416435 0.37341 0.437373 0.454093 0.443489 0.469906 0.425085 0.281026 0.191737 0.225124 0.16929 0.165514 0.0715782 0.123265 1.8735 0.24535 0.282766 0.253928 0.289338 0.32229 0.351609 0.37245 0.363273 0.379826 0.396854 0.385774 0.398902 0.405648 0.356327 0.454381 0.478902 0.450996 0.470923 0.4544 0.445648 0.442224 0.435119 0.431941 0.426835 0.427302 0.43245 0.435047 0.4265 0.489588 0.463937 0.520184 0.510575 0.512937 0.516262 0.509623 0.512564 0.517906 0.439869 0.504693 0.494307 0.495702 0.486344 0.49423 0.491114 0.476862 0.484662 0.508947 0.528892 0.525827 0.635174 0.456161 0.479074 0.482942 0.480359 0.412645 0.341334 0.409606 0.242812 0.176705 0.42921 0.886171 0.615392 0.469808 0.508581 0.433072 0.424971 0.453116 0.495322 0.458852 0.506585 0.510428 0.463112 0.442428 0.521603 0.481087 0.530365 0.50927 0.504702 0.527516 0.521545 0.529222 0.519655 0.528409 0.527316 0.505541 0.491705 0.51153 0.483785 0.480491 0.498777 0.48551 0.475129 0.463794 0.442348 0.436359 0.418458 0.394878 0.417932 0.382611 0.374946 0.3713 0.374165 0.364178 0.38229 0.358103 0.346779 0.35433 0.346473 0.412332 0.456879 0.454837 0.51033 0.49137 0.490785 0.398118 0.384645 0.410961 0.412507 0.290539 0.135614 0.0815788 1.42358 0.0752661 0.216667 0.297394 0.233477 0.309809 0.330544 0.351165 0.368525 0.354494 0.377662 0.368217 0.395671 0.395394 0.401394 0.397264 0.624963 0.573264 0.515483 0.453029 0.447682 0.429205 0.439141 0.433445 0.432126 0.435204 0.436838 0.447044 0.448106 0.45245 0.486654 0.502278 0.508578 0.51246 0.518768 0.513646 0.51607 0.516707 0.518719 0.524708 0.50024 0.476876 0.487054 0.492926 0.519465 0.504763 0.506974 0.489938 0.511907 0.394404 0.49087 0.505941 0.397756 0.492383 0.456463 0.466245 0.395279 0.347994 0.384415 0.170907 0.0149299 0.952574 0.858958 0.689313 0.490142 0.46218 0.477672 0.476149 0.498084 0.503909 0.427961 0.487578 0.396148 0.609135 0.612872 0.541131 0.547374 0.543736 0.536403 0.538913 0.549592 0.547938 0.528836 0.547215 0.513075 0.56297 0.515836 0.473306 0.496447 0.483342 0.488026 0.474768 0.454464 0.46515 0.448311 0.442558 0.444003 0.361565 0.355647 0.348607 0.350873 0.358102 0.358702 0.334391 0.327797 0.322939 0.303292 0.283646 0.346613 0.337091 0.37629 0.669222 0.719603 0.481423 0.420519 0.38236 0.416922 0.223782 0.0928932 0.337938 0.324409 0.374258 0.343398 0.304061 0.286206 0.335332 0.348813 0.334407 0.351761 0.400093 0.419304 0.453178 0.45925 0.491166 0.405458 0.458053 0.439754 0.409361 0.436339 0.425907 0.432002 0.446192 0.425275 0.456441 0.442582 0.465029 0.472003 0.486256 0.50835 0.510627 0.517148 0.523862 0.508413 0.508265 0.519361 0.52212 0.518416 0.51369 0.486203 0.475819 0.509783 0.495565 0.467947 0.408206 0.504494 0.43189 0.530937 0.672039 0.656755 0.458385 0.48139 0.476366 0.531128 0.506567 0.420868 0.361249 0.324188 0.586979 0.554376 0.548731 0.54295 0.548313 0.567087 0.578918 0.561296 0.570621 0.623309 0.507852 0.504487 0.492393 0.484208 0.475456 0.464341 0.453178 0.442992 0.447937 0.439474 0.436034 0.445796 0.421178 0.43506 0.344855 0.37578 0.324089 0.295416 0.306306 0.279822 0.310024 0.303752 0.321377 0.423466 0.191806 0.793282 0.542153 0.334453 0.290497 0.253695 0.144121 0.415386 0.377807 0.34486 0.570714 0.391276 0.546026 0.349228 0.331433 0.340849 0.326215 0.281483 0.298546 0.393729 0.438453 0.373415 0.385196 0.382694 0.315732 0.0745528 0.430303 0.453588 0.379677 0.459818 0.443673 0.390064 0.413133 0.502903 0.460649 0.474232 0.475826 0.493345 0.501219 0.507142 0.509369 0.512813 0.507989 0.517197 0.525426 0.517601 0.517166 0.526751 0.5294 0.496606 0.576244 0.557167 0.545765 0.555076 0.545358 0.545067 0.559657 0.572301 0.577333 0.51224 0.615825 0.7373 0.4086 0.530204 0.493261 0.489341 0.489741 0.485016 0.478344 0.472091 0.472348 0.455173 0.4509 0.459168 0.437572 0.423163 0.460036 0.444353 0.407048 0.214042 0.267379 0.296693 0.375278 0.358676 0.35707 0.302115 0.322566 0.163984 0.287554 0.296429 0.265652 0.180428 0.307907 0.189252 0.229749 0.466025 0.541742 0.625453 0.585798 0.2787 0.306509 0.370365 0.296942 0.300631 0.349274 0.396691 0.333972 0.335751 0.327325 0.281027 0.537597 0.513499 0.725694 0.382261 0.375715 0.452933 0.404925 0.385557 0.516626 0.503152 0.453166 0.492695 0.499505 0.505152 0.509179 0.510459 0.513307 0.520209 0.518247 0.524952 0.54637 0.540813 0.568138 0.521103 0.508265 0.611048 0.372015 0.527056 0.509272 0.505774 0.484265 0.482407 0.48202 0.481749 0.481313 0.431042 0.416731 0.413338 0.405346 0.361108 0.402756 0.240144 0.294845 0.339164 0.383899 0.335884 0.256031 0.203955 0.180528 0.100256 0.194608 0.22473 0.32239 0.319826 0.261368 0.495569 0.528727 0.597104 0.513573 0.360637 0.271587 0.339045 0.318701 0.362717 0.288294 0.501599 0.394206 0.328163 0.438172 0.512034 0.462966 0.470907 0.45362 0.517058 0.518797 0.568541 0.506165 0.488918 0.487489 0.487015 0.482159 0.390873 0.392976 0.409272 0.410924 0.388125 0.402713 0.43532 0.378373 0.380065 0.279086 0.263103 0.156069 0.250641 0.320134 0.30747 0.496458 0.805872 0.757375 0.812551 0.300244 0.298251 0.36246 0.31296 0.380349 0.56629 0.603595 0.480361 0.396641 0.416248 0.38028 0.460973 0.394016 0.273022 0.421097 0.294991 0.328477 0.319368 
SCALARS Stress float 1
LOOKUP_TABLE default
-23242000000.0 -41451500000.0 -62130700000.0 -49368500000.0 -73967200000.0 -118171000000.0 -199350000000.0 -21661300000.0 -62099200000.0 -38513200000.0 -67190800000.0 -99000500000.0 -164950000000.0 -103855000000.0 -145044000000.0 -93526200000.0 -264981000000.0 -122459000000.0 -188389000000.0 -246371000000.0 -153390000000.0 -231109000000.0 -87460700000.0 -132953000000.0 -100413000000.0 -28042400000.0 -115235000000.0 -36063900000.0 -145366000000.0 -242401000000.0 -115109000000.0 -52212700000.0 -76372400000.0 -158168000000.0 -74346100000.0 -66407800000.0 -43380600000.0 -28994600000.0 -127590000000.0 -20074200000.0 -382337000000.0 -115295000000.0 -145282000000.0 -218522000000.0 -226757000000.0 -428200000000.0 -339782000000.0 -364528000000.0 -292421000000.0 -234417000000.0 -383482000000.0 -131220000000.0 -82633400000.0 -206020000000.0 -218505000000.0 -441835000000.0 -407779000000.0 -67931100000.0 -269538000000.0 -172623000000.0 -50846500000.0 -69057600000.0 -73045800000.0 -130571000000.0 -243034000000.0 -619907000000.0 -26820300000.0 -89860000000.0 -377622000000.0 -330090000000.0 -186806000000.0 -295067000000.0 -241097000000.0 -593132000000.0 -672360000000.0 -440968000000.0 -415849000000.0 -171363000000.0 -430170000000.0 -510314000000.0 -430587000000.0 -162516000000.0 -182360000000.0 -551585000000.0 -39934000000.0 -13300400000.0 -147441000000.0 -77987200000.0 -47806000000.0 -29866800000.0 -53218600000.0 -262092000000.0 -430300000000.0 -717148000000.0 -596267000000.0 -442508000000.0 -815535000000.0 -207666000000.0 -328436000000.0 -404128000000.0 -840792000000.0 -135298000000.0 -995087000000.0 -130108000000.0 -635837000000.0 -1.23086e+12 -287587000000.0 -208159000000.0 -340181000000.0 -675296000000.0 -107981000000.0 -88899300000.0 -211950000000.0 -175570000000.0 -127484000000.0 -391918000000.0 -575183000000.0 -293029000000.0 -268121000000.0 -848418000000.0 -338339000000.0 -297123000000.0 -780185000000.0 -971858000000.0 -655333000000.0 -208964000000.0 -594969000000.0 -361428000000.0 -1.07146e+12 -732776000000.0 -1.38719e+12 -506894000000.0 -364957000000.0 -345846000000.0 -403278000000.0 -551402000000.0 -99880700000.0 -481200000000.0 -323956000000.0 -265732000000.0 -353918000000.0 -259471000000.0 -34162600000.0 -179471000000.0 -39216200000.0 -45805100000.0 -64590900000.0 -194534000000.0 -157222000000.0 -463607000000.0 -906415000000.0 -619175000000.0 -158649000000.0 -752941000000.0 -1.28644e+12 -438464000000.0 -996838000000.0 -1.20361e+12 -1.14269e+12 -738811000000.0 -1.18444e+12 -1.31358e+12 -695680000000.0 -1.44319e+12 -707517000000.0 -753971000000.0 -635759000000.0 -615046000000.0 -218313000000.0 -64385100000.0 -209057000000.0 -120673000000.0 -61545300000.0 -147454000000.0 -245995000000.0 -33257300000.0 -37062900000.0 -51906100000.0 -370353000000.0 -252022000000.0 -692904000000.0 -1.2886e+12 -719290000000.0 -1.01431e+12 -1.25824e+12 -940996000000.0 -619189000000.0 -1.75998e+12 -310224000000.0 -885759000000.0 -561711000000.0 -2.41557e+12 -905616000000.0 -1.73659e+12 -2.08545e+12 -841533000000.0 -499026000000.0 -945308000000.0 -881087000000.0 -437723000000.0 -310926000000.0 -277663000000.0 -616459000000.0 -314993000000.0 -222834000000.0 -39409500000.0 -27627700000.0 -17471600000.0 -33183100000.0 -67081600000.0 -681288000000.0 -364387000000.0 -876551000000.0 -228334000000.0 -329731000000.0 -1.19181e+12 -1.54071e+12 -1.06169e+12 -616255000000.0 -1.03486e+12 -1.39827e+12 -1.59864e+12 -903801000000.0 -1.4585e+12 -1.99404e+12 -3.32124e+12 -937189000000.0 -777702000000.0 -628171000000.0 -1.06973e+12 -147527000000.0 -607732000000.0 -887172000000.0 -318688000000.0 -64619300000.0 -229951000000.0 -23555200000.0 -45042200000.0 -165842000000.0 -278068000000.0 -309994000000.0 -1.14171e+12 -589065000000.0 -1.18696e+12 -1.30673e+12 -915318000000.0 -2.22687e+12 -1.64031e+12 -1.7002e+12 -1.11505e+12 -2.13874e+12 -1.57811e+12 -785984000000.0 -3.52113e+12 -1.47369e+12 -2.28843e+12 -2.57544e+12 -1.51782e+12 -1.8223e+12 -906388000000.0 -141644000000.0 -342064000000.0 -140953000000.0 -353939000000.0 -77954000000.0 -21009000000.0 -81399900000.0 -87624600000.0 -81145800000.0 -512216000000.0 -1.01294e+12 -972103000000.0 -1.83741e+12 -1.49692e+12 -2.21999e+12 -2.75837e+12 -543981000000.0 -468985000000.0 -1.02634e+12 -1.24506e+12 -1.92732e+12 -1.38165e+12 -2.9608e+12 -1.44046e+12 -2.83104e+12 -1.0156e+12 -474653000000.0 -1.39662e+12 -1.70481e+12 -512085000000.0 -640862000000.0 -958260000000.0 -877048000000.0 -375099000000.0 -222848000000.0 -57971700000.0 -284249000000.0 -383859000000.0 -459031000000.0 -957587000000.0 -672778000000.0 -1.30618e+12 -1.06736e+12 -1.71112e+12 -932816000000.0 -2.04992e+12 -2.80772e+12 -3.17521e+12 -1.04192e+12 -862971000000.0 -1.05149e+12 -2.10488e+12 -2.51173e+12 -3.27255e+12 -1.07314e+12 -1.95696e+12 -2.4822e+12 -2.08551e+12 -1.79563e+12 -294378000000.0 -590226000000.0 -593822000000.0 -459024000000.0 -762060000000.0 -1.36702e+12 -598925000000.0 -325290000000.0 -45698300000.0 -153522000000.0 -590428000000.0 -650711000000.0 -809798000000.0 -1.18257e+12 -2.54844e+12 -1.10535e+12 -1.48108e+12 -2.36869e+12 -2.45029e+12 -1.75356e+12 -2.18392e+12 -1.31366e+12 -2.30579e+12 -1.65628e+12 -1.23074e+12 -795989000000.0 -2.16915e+12 -2.68175e+12 -2.43271e+12 -2.32368e+12 -942949000000.0 -2.05145e+12 -1.45677e+12 -1.0568e+12 -1.74015e+12 -707391000000.0 -1.65754e+12 -972765000000.0 -1.24157e+12 -682658000000.0 -600177000000.0 -54354600000.0 -199459000000.0 -263048000000.0 -443034000000.0 -1.13792e+12 -786829000000.0 -1.33649e+12 -1.9202e+12 -1.39679e+12 -2.20291e+12 -2.82083e+12 -1.75481e+12 -1.52748e+12 -3.16689e+12 -1.32279e+12 -1.36938e+12 -2.71895e+12 -1.61227e+12 -1.46893e+12 -2.04514e+12 -1.31649e+12 -2.65616e+12 -1.86411e+12 -2.0661e+12 -2.64818e+12 -1.18821e+12 -1.79182e+12 -1.06226e+12 -142858000000.0 -1.93569e+12 -882827000000.0 -624335000000.0 -86932100000.0 -164060000000.0 -157829000000.0 -191677000000.0 -418870000000.0 -88422900000.0 -646387000000.0 -868419000000.0 -361684000000.0 -1.76758e+12 -1.3885e+12 -1.16468e+12 -2.23312e+12 -2.09212e+12 -932485000000.0 -2.70732e+12 -1.74679e+12 -2.812e+12 -2.77411e+12 -2.50168e+12 -1.99079e+12 -1.3957e+12 -2.25655e+12 -1.89987e+12 -2.39147e+12 -4.34446e+12 -3.28539e+12 -2.62399e+12 -2.4688e+12 -1.61218e+12 -2.42129e+12 -2.0275e+12 -1.6479e+12 -1.04099e+12 -1.0179e+12 -994685000000.0 -1.29711e+12 -1.30033e+12 -247562000000.0 -502550000000.0 -64975500000.0 -93971000000.0 -439661000000.0 -640441000000.0 -966116000000.0 -969412000000.0 -648443000000.0 -2.59026e+12 -2.1992e+12 -2.54588e+12 -1.37602e+12 -3.33579e+12 -965247000000.0 -2.98292e+12 -2.41541e+12 -1.78322e+12 -2.75971e+12 -3.43943e+12 -1.43387e+12 -1.78202e+12 -1.9777e+12 -2.78866e+12 -3.32253e+12 -4.81312e+12 -2.70619e+12 -3.96754e+12 -2.98471e+12 -3.11529e+12 -3.26738e+12 -2.78173e+12 -2.1404e+12 -1.66789e+12 -1.25343e+12 -619024000000.0 -1.33159e+12 -483151000000.0 -161173000000.0 -103877000000.0 -380696000000.0 -439226000000.0 -998487000000.0 -1.29705e+12 -3.92034e+12 -1.85707e+12 -3.29737e+12 -2.73691e+12 -3.16002e+12 -3.91086e+12 -4.08683e+12 -1.66556e+12 -3.29976e+12 -4.59484e+12 -4.15416e+12 -3.36997e+12 -5.18937e+12 -2.73579e+12 -3.24833e+12 -1.24078e+12 -3.32004e+12 -2.14441e+12 -3.25885e+12 -1.5805e+12 -382589000000.0 -1.53518e+12 -2.06013e+12 -714253000000.0 -902117000000.0 -108727000000.0 -214664000000.0 -123340000000.0 -80574900000.0 -188632000000.0 -543439000000.0 -1.29908e+12 -1.91285e+12 -2.64172e+12 -2.12271e+12 -3.21249e+12 -1.99676e+12 -3.83567e+12 -3.57915e+12 -2.96623e+12 -1.39609e+12 -3.59e+12 -3.68246e+12 -3.92949e+12 -4.86525e+12 -3.2566e+12 -3.35129e+12 -2.81242e+12 -2.51839e+12 -2.14689e+12 -3.12908e+12 -3.38496e+12 -4.35543e+12 -4.14096e+12 -3.17615e+12 -4.09803e+12 -2.00922e+12 -2.57696e+12 -1.07172e+12 -2.21813e+12 -2.89124e+12 -1.35574e+12 -2.47327e+12 -688675000000.0 -668613000000.0 -65484600000.0 -235239000000.0 -912468000000.0 -1.97253e+12 -4.53754e+12 -3.54946e+12 -2.50195e+12 -4.36381e+12 -2.94456e+12 -6.70443e+12 -3.19777e+12 -3.43578e+12 -2.98927e+12 -3.19388e+12 -3.94734e+12 -6.94734e+12 -5.42076e+12 -1.75924e+12 -7.04845e+12 -2.95997e+12 -2.496e+12 -3.79624e+12 -4.02694e+12 -4.50796e+12 -7.86659e+12 -2.14703e+12 -3.61001e+12 -3.3975e+12 -3.93964e+12 -1.266e+12 -1.91702e+12 -894280000000.0 -216724000000.0 -77960400000.0 -283924000000.0 -2.31991e+12 -5.90552e+12 -2.41301e+12 -3.55527e+12 -3.66324e+12 -2.85615e+12 -3.02635e+12 -6.15917e+12 -4.74764e+12 -5.88829e+12 -3.55358e+12 -5.48597e+12 -3.96866e+12 -4.36548e+12 -3.36521e+12 -6.4706e+12 -9.17705e+12 -3.62123e+12 -4.35857e+12 -6.47119e+12 -4.09117e+12 -6.32384e+12 -6.55529e+12 -5.33082e+12 -2.40724e+12 -2.98673e+12 -1.50461e+12 -685688000000.0 -1.08295e+12 -5.686e+12 -2.20853e+12 -4.45604e+12 -2.27503e+12 -5.53374e+12 -3.70512e+12 -5.69814e+12 -3.6884e+12 -5.37937e+12 -3.67312e+12 -4.54078e+12 -3.66381e+12 -5.59958e+12 -4.25248e+12 -6.23671e+12 -5.93568e+12 -5.62331e+12 -6.85255e+12 -6.37263e+12 -7.17297e+12 -5.96433e+12 -3.79158e+12 -2.04632e+12 -4.57442e+12 -4.45665e+12 -8.64889e+12 -4.61381e+12 -3.0163e+12 -4.62747e+12 -1.59425e+12 -5.78924e+12 -3.37826e+12 -5.49003e+12 -6.33554e+12 -5.57531e+12 -8.51548e+12 -6.64079e+12 -2.24567e+12 -5.5379e+12 -5.5382e+12 -4.84093e+12 -5.55747e+12 -4.10035e+12 -6.44031e+12 -5.77149e+12 -5.48277e+12 -4.42034e+12 -3.83283e+12 -5.33414e+12 -8.00329e+12 -6.87361e+12 -5.73087e+12 -4.71985e+12 -9.98093e+12 -6.53234e+12 -1.14629e+13 -8.85116e+12 -3.8189e+12 -12549700000.0 -3.73074e+12 -6.34879e+12 -4.62168e+12 -4.40594e+12 -5.12688e+12 -5.5736e+12 -3.56197e+12 -3.88816e+12 -6.61137e+12 -3.68287e+12 -5.35346e+12 -4.75266e+12 -4.12851e+12 -4.64008e+12 -6.35122e+12 -2.40036e+12 -5.50206e+12 -2.0506e+12 -7.10215e+12 -5.52348e+12 -3.51167e+12 -5.90981e+12 -6.02588e+12 -6.59741e+12 -7.05087e+12 -3.50123e+12 -1.47529e+12 -3.68976e+12 -3.26876e+12 -2.35006e+12 -6.25576e+12 -4.17888e+12 -5.9298e+12 -6.28655e+12 -4.83281e+12 -7.85384e+12 -4.92671e+12 -3.11413e+12 -12549700000.0 -3.41147e+12 -3.46137e+12 -3.00468e+12 -2.59935e+12 -4.23377e+12 -2.93979e+12 -3.32765e+12 -3.22031e+12 -6.86674e+12 -4.77092e+12 -7.25966e+12 -3.88578e+12 -5.81475e+12 -5.77176e+12 -3.86087e+12 -6.09464e+12 -6.14974e+12 -5.92705e+12 -4.263e+12 -4.91968e+12 -4.07599e+12 -3.37799e+12 -7.80733e+12 -6.26902e+12 -7.84405e+12 -2.77777e+12 -6.79988e+12 -5.41183e+12 -3.45499e+12 -4.65166e+12 -3.58112e+12 -3.31493e+12 -5.5518e+12 -5.42914e+12 -8.28026e+12 -9.31164e+12 -7.32522e+12 -8.56751e+12 -7.56286e+12 -2.53759e+12 -5.43651e+12 -3.12587e+12 -12549700000.0 -3.83411e+12 -6.15492e+12 -4.775e+12 -6.88299e+12 -8.81349e+12 -4.20337e+12 -6.03139e+12 -3.89828e+12 -6.23811e+12 -8.24232e+12 -5.98763e+12 -8.06552e+12 -5.07896e+12 -3.26305e+12 -3.38263e+12 -6.65587e+12 -7.98204e+12 -9.84484e+12 -5.16534e+12 -7.767e+12 -3.96142e+12 -3.56265e+12 -2.5178e+12 -8.1887e+12 -4.82806e+12 -7.95064e+12 -5.59637e+12 -6.40603e+12 -6.18683e+12 -5.2916e+12 -8.40411e+12 -6.08271e+12 -7.54659e+12 -4.5075e+12 -4.41341e+12 -4.24173e+12 -3.97921e+12 -4.93589e+12 -4.34637e+12 -5.78919e+12 -5.03794e+12 -9.46717e+12 -1.12233e+13 -5.72916e+12 -5.67446e+12 -6.01469e+12 -8.47503e+12 -5.97224e+12 -4.19604e+12 -1.15185e+13 -4.08927e+12 -5.76535e+12 -4.43355e+12 -7.65785e+12 -8.01924e+12 -5.10601e+12 -9.24476e+12 -8.87686e+12 -4.36416e+12 -7.34648e+12 -8.1277e+12 -6.58654e+12 -6.27491e+12 -4.7993e+12 -5.25474e+12 -5.95166e+12 -5.9249e+12 -3.74661e+12 -6.33972e+12 -3.42797e+12 -4.2023e+12 -2.72961e+12 -6.11959e+12 -3.90832e+12 -5.64224e+12 -5.14879e+12 -9.38514e+12 -4.73075e+12 -7.60009e+12 -9.70117e+12 -4.79103e+12 -7.66571e+12 -8.4562e+12 -4.69565e+12 -5.47676e+12 -9.61659e+12 -6.0009e+12 -6.80286e+12 -6.16339e+12 -7.64034e+12 -9.54526e+12 -1.00385e+13 -6.56485e+12 -6.51142e+12 -1.15536e+13 -4.87098e+12 -9.88131e+12 -5.18015e+12 -6.87006e+12 -4.38342e+12 -4.44268e+12 -6.5913e+12 -7.7817e+12 -4.47902e+12 -5.62086e+12 -4.45707e+12 -6.44373e+12 -4.81784e+12 -5.06571e+12 -12549700000.0 -3.84093e+12 -3.99206e+12 -2.70792e+12 -7.52431e+12 -7.44004e+12 -7.03078e+12 -3.90072e+12 -7.10249e+12 -9.18113e+12 -6.40497e+12 -6.41627e+12 -8.34062e+12 -6.68942e+12 -3.12894e+12 -5.53104e+12 -5.57376e+12 -3.93266e+12 -5.0182e+12 -7.53149e+12 -6.50594e+12 -9.25208e+12 -6.18296e+12 -5.97967e+12 -4.87853e+12 -5.26475e+12 -8.73616e+12 -5.54372e+12 -6.55631e+12 -8.95658e+12 -5.32276e+12 -4.82083e+12 -4.83279e+12 -6.20606e+12 -7.73677e+12 -4.63738e+12 -5.05678e+12 -4.96826e+12 -1.07911e+13 -7.72971e+12 -2.61383e+12 -3.45261e+12 -12549700000.0 -12549700000.0 -6.35141e+12 -6.27637e+12 -5.16914e+12 -1.0858e+13 -6.13789e+12 -6.70445e+12 -8.13416e+12 -6.95172e+12 -4.55812e+12 -8.90882e+12 -8.01481e+12 -6.68756e+12 -7.22094e+12 -3.39653e+12 -2.64328e+12 -8.74825e+12 -6.39177e+12 -5.85841e+12 -2.29813e+12 -4.42754e+12 -4.88419e+12 -7.87134e+12 -7.73494e+12 -9.89692e+12 -6.03899e+12 -4.6598e+12 -6.32659e+12 -7.84617e+12 -6.82938e+12 -4.82182e+12 -9.45392e+12 -6.28218e+12 -7.76674e+12 -4.52914e+12 -5.49424e+12 -8.57543e+12 -8.2782e+12 -5.47326e+12 -1.01763e+13 -4.1091e+12 -6.92953e+12 -3.33722e+12 -3.31791e+12 -7.11753e+12 -6.63625e+12 -4.33214e+12 -6.50778e+12 -6.77141e+12 -4.18617e+12 -3.61853e+12 -5.75142e+12 -6.75766e+12 -5.58791e+12 -1.23894e+13 -5.87116e+12 -5.68401e+12 -1.31533e+13 -7.4883e+12 -7.91989e+12 -4.19733e+12 -6.6401e+12 -4.15914e+12 -6.56054e+12 -4.22724e+12 -5.59751e+12 -8.03514e+12 -7.02142e+12 -1.13152e+13 -9.53829e+12 -5.185e+12 -7.19987e+12 -1.01438e+13 -6.9126e+12 -4.62975e+12 -3.11335e+12 -1.15084e+13 -8.13202e+12 -7.46681e+12 -7.79607e+12 -6.25014e+12 -6.27956e+12 -4.5077e+12 -3.66401e+12 -4.10708e+12 -4.07602e+12 -4.0951e+12 -6.59212e+12 -7.28025e+12 -4.32023e+12 -7.64782e+12 -6.25267e+12 -5.18876e+12 -6.0308e+12 -9.96476e+12 -5.26196e+12 -8.98093e+12 -7.98102e+12 -7.54038e+12 -1.10421e+13 -6.97885e+12 -7.4184e+12 -4.8432e+12 -7.98154e+12 -3.89251e+12 -8.79949e+12 -1.26896e+13 -1.04912e+13 -6.88347e+12 -6.32697e+12 -7.16911e+12 -5.75841e+12 -3.06534e+12 -5.65279e+12 -7.48938e+12 -7.11806e+12 -5.45906e+12 -7.40632e+12 -8.38417e+12 -4.64439e+12 -6.08837e+12 -3.64168e+12 -8.17971e+12 -4.53866e+12 -6.09962e+12 -6.95048e+12 -5.03106e+12 -8.37197e+12 -2.76229e+12 -3.46602e+12 -5.98834e+12 -9.91939e+12 -6.38586e+12 -7.82412e+12 -6.77683e+12 -7.70195e+12 -5.95799e+12 -1.00212e+13 -7.80009e+12 -7.36383e+12 -8.6696e+12 -7.62029e+12 -6.22905e+12 -8.09945e+12 -5.90761e+12 -7.97018e+12 -5.74563e+12 -5.99629e+12 -5.41263e+12 -7.49493e+12 -7.36783e+12 -8.95735e+12 -6.12344e+12 -5.71757e+12 -8.25886e+12 -1.05843e+13 -6.07513e+12 -5.53574e+12 -3.37418e+12 -7.45445e+12 -4.73662e+12 -6.53269e+12 -4.51103e+12 -5.43201e+12 -5.57009e+12 -7.62925e+12 -6.3099e+12 -5.53055e+12 -8.18418e+12 -5.44831e+12 -5.26121e+12 -7.78611e+12 -3.57214e+12 -12549700000.0 -4.67173e+12 -3.21637e+12 -7.86278e+12 -6.66024e+12 -9.40109e+12 -7.45699e+12 -4.90352e+12 -8.70845e+12 -5.87301e+12 -3.2842e+12 -3.16517e+12 -6.20767e+12 -5.84304e+12 -4.9321e+12 -7.32968e+12 -8.06956e+12 -7.5537e+12 -6.42617e+12 -8.16024e+12 -8.3977e+12 -6.99652e+12 -8.88816e+12 -5.61797e+12 -4.82882e+12 -5.98521e+12 -8.70563e+12 -8.67066e+12 -8.78912e+12 -9.74714e+12 -7.33595e+12 -1.05291e+13 -5.76885e+12 -1.0231e+13 -8.12658e+12 -9.63606e+12 -7.06334e+12 -5.92968e+12 -5.34367e+12 -4.37383e+12 -6.70564e+12 -12549700000.0 -5.45574e+12 -3.32421e+12 -7.69688e+12 -8.0889e+12 -7.70778e+12 -7.34733e+12 -7.04916e+12 -7.98412e+12 -4.98272e+12 -7.7929e+12 -8.86813e+12 -4.98092e+12 -7.43097e+12 -7.5997e+12 -6.04243e+12 -6.58705e+12 -4.07063e+12 -3.04581e+12 -7.27129e+12 -5.55404e+12 -1.17151e+13 -7.59845e+12 -7.07235e+12 -5.49063e+12 -7.16293e+12 -9.09336e+12 -1.09824e+13 -5.59875e+12 -8.7119e+12 -6.41384e+12 -1.08628e+13 -9.72238e+12 -4.69445e+12 -5.69452e+12 -8.76776e+12 -5.42099e+12 -5.9765e+12 -9.7999e+12 -8.37212e+12 -6.65535e+12 -9.52442e+12 -2.66008e+12 -5.73986e+12 -3.72844e+12 -9.23415e+12 -4.37455e+12 -3.92627e+12 -3.60593e+12 -1.93318e+12 -4.48223e+12 -7.30066e+12 -5.22918e+12 -9.31684e+12 -8.39587e+12 -6.64231e+12 -6.78872e+12 -5.11161e+12 -9.36867e+12 -6.99412e+12 -8.54062e+12 -5.26949e+12 -6.8491e+12 -7.45537e+12 -1.08207e+13 -7.16018e+12 -7.38146e+12 -7.9929e+12 -7.77417e+12 -1.64388e+13 -4.63223e+12 -6.09453e+12 -1.0473e+13 -9.76351e+12 -8.41764e+12 -5.69488e+12 -3.4482e+12 -6.30995e+12 -8.96944e+12 -7.70302e+12 -6.89383e+12 -7.25559e+12 -5.16945e+12 -8.75789e+12 -5.36786e+12 -5.61324e+12 -6.20082e+12 -5.52941e+12 -4.97882e+12 -9.7052e+12 -8.89143e+12 -3.84923e+12 -7.36281e+12 -12549700000.0 -3.32019e+12 -3.83572e+12 -9.71425e+12 -6.37296e+12 -4.52317e+12 -7.28561e+12 -1.08579e+13 -5.17994e+12 -7.3906e+12 -6.33312e+12 -5.07597e+12 -5.70483e+12 -4.36937e+12 -1.03147e+13 -4.33951e+12 -8.60597e+12 -1.11705e+13 -6.09494e+12 -4.51724e+12 -4.36007e+12 -1.11045e+13 -5.40401e+12 -5.85219e+12 -7.86537e+12 -4.53157e+12 -5.32018e+12 -6.40424e+12 -6.08034e+12 -8.56458e+12 -7.8311e+12 -6.00264e+12 -6.14989e+12 -7.97837e+12 -5.56219e+12 -4.88742e+12 -1.06813e+13 -1.02853e+13 -7.79082e+12 -4.27899e+12 -6.55346e+12 -7.45664e+12 -7.3461e+12 -9.13792e+12 -7.56546e+12 -6.83142e+12 -6.33175e+12 -5.95425e+12 -4.17565e+12 -6.56229e+12 -5.07632e+12 -9.43055e+12 -6.02925e+12 -8.62008e+12 -5.54274e+12 -6.07867e+12 -6.70003e+12 -7.75006e+12 -4.85809e+12 -7.56256e+12 -5.58517e+12 -7.65328e+12 -7.59848e+12 -4.88529e+12 -4.83484e+12 -8.18838e+12 -5.60879e+12 -4.15381e+12 -5.44814e+12 -2.84084e+12 -5.07564e+12 -3.32419e+12 -4.62939e+12 -7.11224e+12 -7.53628e+12 -7.8312e+12 -9.85408e+12 -4.46853e+12 -7.47505e+12 -1.2234e+13 -7.15794e+12 -1.28776e+13 -8.64681e+12 -1.09258e+13 -7.99345e+12 -7.7413e+12 -3.93377e+12 -6.01107e+12 -5.23802e+12 -5.22439e+12 -4.95621e+12 -1.27367e+13 -6.77283e+12 -9.61266e+12 -7.77869e+12 -5.2633e+12 -3.3039e+12 -3.5349e+12 -1.20783e+13 -1.07863e+13 -7.10003e+12 -7.25511e+12 -1.03544e+13 -7.4712e+12 -1.24845e+13 -8.37951e+12 -1.1719e+13 -6.68493e+12 -6.4742e+12 -7.80836e+12 -5.1517e+12 -8.86114e+12 -6.80569e+12 -6.40426e+12 -7.29454e+12 -8.66495e+12 -4.27798e+12 -8.26221e+12 -6.3777e+12 -7.84283e+12 -5.70958e+12 -6.58318e+12 -7.11264e+12 -9.2301e+12 -8.8928e+12 -7.16638e+12 -5.55757e+12 -6.89325e+12 -7.62694e+12 -1.00174e+13 -5.30282e+12 -5.26766e+12 -8.19884e+12 -8.96361e+12 -8.76732e+12 -5.43571e+12 -8.06111e+12 -1.0126e+13 -8.59072e+12 -7.54326e+12 -6.3024e+12 -7.81713e+12 -5.50467e+12 -7.62191e+12 -9.33232e+12 -6.34355e+12 -8.80381e+12 -7.75363e+12 -7.63048e+12 -8.86972e+12 -3.43963e+12 -1.07125e+13 -8.30036e+12 -7.66493e+12 -5.10234e+12 -6.87138e+12 -6.12869e+12 -1.31724e+13 -4.12165e+12 -9.10759e+12 -1.16914e+13 -1.09947e+13 -1.04418e+13 -1.16208e+13 -5.78082e+12 -6.49247e+12 -1.05055e+13 -1.29474e+13 -9.56366e+12 -5.08725e+12 -1.2695e+13 -4.88934e+12 -3.48744e+12 -7.47529e+12 -1.08162e+13 -8.45635e+12 -1.08923e+13 -5.14587e+12 -8.31965e+12 -8.44678e+12 -5.76753e+12 -1.29286e+13 -7.17576e+12 -1.10112e+13 -1.05241e+13 -3.79994e+12 -4.11706e+12 -4.30031e+12 -5.07161e+12 -5.60898e+12 -3.15252e+12 -6.18e+12 -9.18267e+12 -7.65427e+12 -5.90695e+12 -8.51168e+12 -8.84977e+12 -1.00179e+13 -9.03939e+12 -5.48771e+12 -7.00898e+12 -8.87027e+12 -5.61537e+12 -1.04441e+13 -5.16995e+12 -8.23582e+12 -9.32851e+12 -4.32236e+12 -8.55378e+12 -7.07123e+12 -7.12009e+12 -5.75974e+12 -4.14327e+12 -9.61885e+12 -6.24662e+12 -2.9829e+12 -7.27014e+12 -5.46282e+12 -7.13676e+12 -6.90216e+12 -6.02653e+12 -1.09113e+13 -8.2909e+12 -6.92151e+12 -5.34608e+12 -5.7545e+12 -8.47686e+12 -8.48895e+12 -6.88039e+12 -3.18577e+12 -5.81059e+12 -12549700000.0 -6.02702e+12 -5.38847e+12 -4.68693e+12 -9.27656e+12 -5.55803e+12 -8.86766e+12 -6.27637e+12 -7.73642e+12 -8.79394e+12 -9.61802e+12 -5.93298e+12 -4.63316e+12 -9.16982e+12 -6.59782e+12 -8.23935e+12 -1.00675e+13 -1.14105e+13 -1.25826e+13 -1.01855e+13 -9.17627e+12 -8.18292e+12 -1.08382e+13 -9.29751e+12 -8.19937e+12 -9.24244e+12 -7.2841e+12 -5.83858e+12 -5.45789e+12 -9.2448e+12 -1.06288e+13 -9.48986e+12 -1.19475e+13 -1.44864e+13 -6.84942e+12 -8.41922e+12 -4.40793e+12 -5.54295e+12 -5.1147e+12 -9.1399e+12 -1.04976e+13 -1.01837e+13 -8.19848e+12 -9.78513e+12 -7.84883e+12 -5.66005e+12 -5.1072e+12 -1.0606e+13 -1.29431e+13 -5.94034e+12 -8.97657e+12 -9.34464e+12 -8.7146e+12 -3.75475e+12 -8.07661e+12 -3.68697e+12 -8.74674e+12 -6.34612e+12 -9.34286e+12 -6.3064e+12 -1.00214e+13 -1.25245e+13 -6.50316e+12 -1.13847e+13 -6.82493e+12 -7.27777e+12 -3.03299e+12 -7.02498e+12 -6.35748e+12 -9.68523e+12 -3.56514e+12 -1.23199e+13 -6.96319e+12 -9.90825e+12 -1.29845e+13 -5.97925e+12 -7.33473e+12 -5.09751e+12 -4.97541e+12 -6.06968e+12 -3.45835e+12 -1.10584e+13 -6.91798e+12 -9.38698e+12 -8.00545e+12 -6.30746e+12 -7.78501e+12 -8.23368e+12 -1.02632e+13 -2.61538e+12 -1.08202e+13 -7.3556e+12 -1.11362e+13 -8.86125e+12 -5.38525e+12 -3.27619e+12 -7.94128e+12 -7.00986e+12 -5.87686e+12 -1.06971e+13 -1.1851e+13 -9.90737e+12 -1.0934e+13 -7.09832e+12 -6.10896e+12 -6.19335e+12 -1.53336e+13 -7.84211e+12 -9.2551e+12 -1.04353e+13 -6.62565e+12 -5.23939e+12 -1.15944e+13 -8.56854e+12 -9.81155e+12 -4.8599e+12 -8.59157e+12 -5.6267e+12 -8.38696e+12 -8.77256e+12 -8.64513e+12 -5.06266e+12 -6.07889e+12 -7.37119e+12 -4.4447e+12 -8.08048e+12 -5.41614e+12 -5.66157e+12 -6.34265e+12 -3.94163e+12 -5.75794e+12 -6.99818e+12 -4.32657e+12 -5.64126e+12 -8.23269e+12 -5.88498e+12 -5.76503e+12 -9.35337e+12 -9.12475e+12 -7.6668e+12 -7.08197e+12 -12549700000.0 -6.72757e+12 -3.0634e+12 -6.10488e+12 -1.15108e+13 -1.20886e+13 -9.86183e+12 -9.72909e+12 -6.46759e+12 -5.92806e+12 -8.03795e+12 -7.14745e+12 -1.13186e+13 -8.22572e+12 -1.12316e+13 -5.72184e+12 -7.61517e+12 -6.0024e+12 -9.03717e+12 -1.05131e+13 -9.77887e+12 -1.38398e+13 -4.15014e+12 -6.61641e+12 -8.53688e+12 -4.03477e+12 -6.80467e+12 -3.68657e+12 -6.64094e+12 -7.26859e+12 -6.25938e+12 -4.71975e+12 -8.17761e+12 -4.29439e+12 -3.60006e+12 -5.06004e+12 -7.47496e+12 -7.87778e+12 -5.91768e+12 -5.36783e+12 -8.6616e+12 -4.15727e+12 -8.98488e+12 -6.98256e+12 -7.17529e+12 -7.99071e+12 -9.3726e+12 -7.49771e+12 -8.38458e+12 -8.63046e+12 -4.76293e+12 -9.127e+12 -7.08156e+12 -7.93579e+12 -6.27422e+12 -6.6986e+12 -7.35591e+12 -326998000000.0 -1.15711e+13 -9.88811e+12 -6.56314e+12 -5.99102e+12 -1.01996e+13 -9.57993e+12 -1.09216e+13 -7.29968e+12 -7.57622e+12 -6.42982e+12 -8.51798e+12 -8.59189e+12 -1.287e+13 -5.2331e+12 -7.37091e+12 -1.09288e+13 -4.68649e+12 -8.67767e+12 -4.90518e+12 -7.66268e+12 -7.96268e+12 -7.50376e+12 -6.01941e+12 -5.17317e+12 -9.99995e+12 -7.45472e+12 -7.26142e+12 -1.01202e+13 -6.64752e+12 -1.07155e+13 -1.05798e+13 -1.02375e+13 -5.78499e+12 -9.31099e+12 -6.97051e+12 -6.24233e+12 -9.01542e+12 -1.14605e+13 -5.34261e+12 -1.02546e+13 -6.8381e+12 -6.27552e+12 -5.03323e+12 -3.58879e+12 -7.99001e+12 -6.65318e+12 -9.1916e+12 -1.08747e+13 -1.0078e+13 -1.20264e+13 -1.02237e+13 -1.08009e+13 -4.45889e+12 -9.15793e+12 -2.96226e+12 -4.557e+12 -5.34379e+12 -8.36969e+12 -1.01022e+13 -9.50633e+12 -1.23895e+13 -6.76368e+12 -6.03863e+12 -5.96275e+12 -7.49015e+12 -1.09521e+13 -1.11266e+13 -6.24166e+12 -3.40113e+12 -5.49143e+12 -5.01077e+12 -7.14202e+12 -4.94307e+12 -6.67995e+12 -6.13433e+12 -7.12962e+12 -8.98473e+12 -9.89258e+12 -6.83047e+12 -1.17173e+13 -5.17075e+12 -6.61071e+12 -1.06927e+13 -1.01747e+13 -7.34109e+12 -6.89528e+12 -5.29411e+12 -9.3175e+12 -2.3453e+12 -9.0632e+12 -6.80673e+12 -1.11372e+13 -6.31983e+12 -7.29374e+12 -5.18879e+12 -6.56314e+12 -6.7182e+12 -1.42067e+13 -6.8742e+12 -1.2776e+13 -7.11116e+12 -9.5009e+12 -8.49538e+12 -5.05563e+12 -9.07352e+12 -7.13978e+12 -8.65566e+12 -8.82994e+12 -8.82688e+12 -1.23373e+13 -1.70787e+13 -1.21076e+13 -1.22326e+13 -1.01008e+13 -7.86837e+12 -7.43479e+12 -8.11403e+12 -8.10217e+12 -6.21579e+12 -6.55839e+12 -3.81947e+12 -4.72576e+12 -8.47179e+12 -3.91266e+12 -8.15265e+12 -7.22385e+12 -1.07973e+13 -8.14831e+12 -7.96854e+12 -1.50407e+13 -8.83906e+12 -6.31486e+12 -1.1546e+13 -6.04638e+12 -6.32185e+12 -1.00649e+13 -1.11854e+13 -1.09146e+13 -5.5421e+12 -5.58743e+12 -1.30284e+13 -1.35753e+13 -1.48028e+13 -5.01856e+12 -6.98264e+12 -1.48849e+13 -7.00947e+12 -5.89417e+12 -7.55635e+12 -5.35025e+12 -1.14948e+13 -1.11925e+13 -9.27047e+12 -8.67743e+12 -1.06837e+13 -9.18328e+12 -5.39276e+12 -1.26929e+13 -9.87952e+12 -8.8506e+12 -8.36457e+12 -1.51323e+13 -4.30942e+12 -6.92255e+12 -1.03106e+13 -9.20054e+12 -5.82126e+12 -7.98535e+12 -1.10518e+13 -5.95147e+12 -4.57271e+12 -7.77911e+12 -6.29002e+12 -1.25745e+13 -1.23735e+13 -1.01898e+13 -7.30397e+12 -2.25578e+12 -6.37994e+12 -3.11743e+12 -5.50528e+12 -7.62168e+12 -7.54053e+12 -3.62864e+12 -8.82013e+12 -8.15711e+12 -1.0004e+13 -1.18918e+13 -1.11322e+13 -5.73977e+12 -1.17627e+13 -1.04742e+13 -2.97079e+12 -4.00155e+12 -1.36805e+13 -5.62914e+12 -4.12215e+12 -1.03097e+13 -4.59219e+12 -6.23426e+12 -8.31724e+12 -1.27033e+13 -1.43858e+13 -7.94629e+12 -1.13522e+13 -1.45548e+13 -9.34113e+12 -7.5331e+12 -7.10256e+12 -4.58374e+12 -4.83565e+12 -3.09452e+12 -5.93523e+12 -8.49085e+12 -8.75238e+12 -8.16298e+12 -9.05382e+12 -7.39188e+12 -6.23122e+12 -4.55548e+12 -8.49247e+12 -6.32407e+12 -6.18311e+12 -6.48311e+12 -6.93787e+12 -7.76759e+12 -7.11021e+12 -1.29087e+13 -4.22447e+12 -8.14117e+12 -9.30869e+12 -8.82607e+12 -1.11672e+13 -6.32431e+12 -8.52979e+12 -6.22614e+12 -1.09788e+13 -7.80931e+12 -6.19308e+12 -4.76461e+12 -7.59322e+12 -9.09363e+12 -8.81063e+12 -8.062e+12 -6.66883e+12 -7.07097e+12 -4.85266e+12 -1.02694e+13 -6.97636e+12 -8.94187e+12 -8.16042e+12 -7.31786e+12 -7.18329e+12 -8.01938e+12 -7.51548e+12 -1.29156e+13 -7.83862e+12 -7.06448e+12 -4.00602e+12 -6.62418e+12 -1.36632e+13 -9.79283e+12 -7.10777e+12 -8.89852e+12 -4.96308e+12 -5.56145e+12 -9.63659e+12 -8.62439e+12 -1.08901e+13 -8.57645e+12 -8.88062e+12 -9.02382e+12 -1.29818e+13 -8.85072e+12 -6.66929e+12 -9.04551e+12 -5.56506e+12 -6.91704e+12 -1.08091e+13 -6.13642e+12 -4.6907e+12 -7.44504e+12 -8.46898e+12 -9.06815e+12 -8.30922e+12 -9.84406e+12 -1.10357e+13 -9.40006e+12 -7.94616e+12 -1.01416e+13 -1.05496e+13 -6.64673e+12 -7.23046e+12 -6.04775e+12 -4.29186e+12 -7.58119e+12 -4.71489e+12 -6.85408e+12 -6.55543e+12 -1.03736e+13 -6.81633e+12 -6.04429e+12 -8.18142e+12 -6.1875e+12 -4.40547e+12 -4.97739e+12 -5.52993e+12 -6.41383e+12 -8.04371e+12 -8.52091e+12 -8.99724e+12 -8.347e+12 -1.01775e+13 -1.39877e+13 -6.35232e+12 -5.06512e+12 -6.07484e+12 -7.57498e+12 -4.19851e+12 -6.46433e+12 -8.83728e+12 -7.05368e+12 -1.31073e+13 -4.9672e+12 -9.86641e+12 -9.40273e+12 -7.71228e+12 -1.10397e+13 -4.11688e+12 -4.95722e+12 -9.89114e+12 -8.00215e+12 -7.54872e+12 -9.5254e+12 -6.14058e+12 -5.53756e+12 -1.07375e+13 -9.80444e+12 -4.58686e+12 -7.08044e+12 -5.19732e+12 -1.083e+13 -8.01363e+12 -5.57523e+12 -8.94177e+12 -1.29556e+13 -6.87246e+12 -7.97964e+12 -6.78982e+12 -6.89149e+12 -1.13067e+13 -2.75159e+12 -7.52178e+12 -9.52484e+12 -1.29337e+13 -1.16758e+13 -1.36861e+13 -1.13902e+13 -5.49564e+12 -8.15588e+12 -6.85797e+12 -9.25936e+12 -1.46569e+13 -4.73831e+12 -6.84193e+12 -3.58328e+12 -8.25217e+12 -1.0608e+13 -7.2336e+12 -1.06052e+13 -7.96351e+12 -8.895e+12 -1.32343e+13 -6.2724e+12 -6.38704e+12 -4.33422e+12 -4.55729e+12 -9.27658e+12 -5.46991e+12 -8.53715e+12 -6.08733e+12 -1.26182e+13 -7.71542e+12 -8.98951e+12 -5.7946e+12 -4.3818e+12 -9.06937e+12 -5.58932e+12 -1.05522e+13 -1.3764e+13 -7.42057e+12 -7.93555e+12 -7.25824e+12 -1.11399e+13 -7.31723e+12 -6.26966e+12 -1.12611e+13 -8.47515e+12 -8.02346e+12 -1.03079e+13 -8.57107e+12 -4.00025e+12 -1.18103e+13 -8.71488e+12 -7.25813e+12 -1.34872e+13 -1.18773e+13 -6.97497e+12 -8.3643e+12 -7.58602e+12 -6.84303e+12 -1.1548e+13 -4.12107e+12 -5.37367e+12 -5.02054e+12 -6.27596e+12 -8.21362e+12 -6.96894e+12 -5.97088e+12 -7.63803e+12 -7.91601e+12 -1.07968e+13 -9.42404e+12 -8.80275e+12 -8.54251e+12 -5.08202e+12 -8.14696e+12 -6.34758e+12 -4.04542e+12 -4.16488e+12 -1.03467e+13 -1.27509e+13 -8.10697e+12 -6.31534e+12 -9.53371e+12 -6.19028e+12 -1.1972e+13 -6.7662e+12 -5.65969e+12 -8.63298e+12 -8.68859e+12 -8.20249e+12 -9.37053e+12 -5.73668e+12 -1.04355e+13 -8.99092e+12 -9.3614e+12 -9.47497e+12 -8.87041e+12 -6.31433e+12 -1.51747e+13 -5.46581e+12 -1.02634e+13 -1.3045e+13 -1.46215e+13 -1.16088e+13 -4.01687e+12 -4.08449e+12 -6.6671e+12 -8.3082e+12 -1.17101e+13 -5.54588e+12 -6.5858e+12 -9.67144e+12 -8.40105e+12 -8.63829e+12 -1.15579e+13 -1.04497e+13 -1.17242e+13 -5.76759e+12 -9.70894e+12 -4.85679e+12 -6.91399e+12 -6.52436e+12 -1.3006e+13 -1.16817e+13 -1.24567e+13 -1.27335e+13 -6.45149e+12 -1.02679e+13 -7.01002e+12 -6.60206e+12 -9.46554e+12 -8.02882e+12 -7.52315e+12 -8.73372e+12 -8.22707e+12 -8.03123e+12 -5.64455e+12 -1.17326e+13 -1.0234e+13 -7.19412e+12 -8.92396e+12 -3.67767e+12 -6.64671e+12 -7.7225e+12 -6.25134e+12 -7.64046e+12 -9.92558e+12 -5.1431e+12 -1.48384e+13 -5.31258e+12 -1.03068e+13 -6.11227e+12 -8.40438e+12 -1.17911e+13 -5.0089e+12 -4.86833e+12 -6.71807e+12 -6.97071e+12 -4.1622e+12 -6.91893e+12 -1.05888e+13 -7.4605e+12 -9.12075e+12 -6.81304e+12 -8.20172e+12 -6.37159e+12 -8.44339e+12 -9.76133e+12 -1.02209e+13 -7.60954e+12 -4.25728e+12 -8.89396e+12 -4.30428e+12 -1.13488e+13 -6.63294e+12 -5.71536e+12 -8.61607e+12 -1.08406e+13 -6.68443e+12 -1.0174e+13 -8.21271e+12 -2.9371e+12 -7.13893e+12 -5.2027e+12 -6.76407e+12 -5.23776e+12 -1.03576e+13 -5.34138e+12 -2.75604e+12 -5.40228e+12 -8.9786e+12 -8.29957e+12 -1.03284e+13 -1.23636e+13 -1.03622e+13 -6.65142e+12 -7.72728e+12 -7.47406e+12 -1.34061e+13 -8.93691e+12 -9.50402e+12 -9.52322e+12 -9.5499e+12 -9.31032e+12 -8.58019e+12 -1.04483e+13 -7.77965e+12 -1.22631e+13 -5.3458e+12 -9.05475e+12 -1.31721e+13 -1.01947e+13 -8.01593e+12 -7.73271e+12 -8.63033e+12 -9.92093e+12 -7.87274e+12 -8.34194e+12 -1.04342e+13 -5.44835e+12 -9.60654e+12 -5.4242e+12 -9.46597e+12 -9.28354e+12 -7.28707e+12 -1.1698e+13 -1.09105e+13 -1.10335e+13 -7.09176e+12 -1.19281e+13 -9.49575e+12 -9.42994e+12 -7.45513e+12 -6.01136e+12 -8.21183e+12 -1.26094e+13 -7.82747e+12 -6.17435e+12 -6.81538e+12 -1.04539e+13 -8.29507e+12 -2.91058e+12 -7.31134e+12 -7.03248e+12 -1.35634e+13 -3.53101e+12 -9.49515e+12 -4.06478e+12 -8.76908e+12 -5.5125e+12 -1.10751e+13 -6.90335e+12 -6.04596e+12 -8.75701e+12 -7.97472e+12 -7.44694e+12 -6.30522e+12 -1.17292e+13 -9.89081e+12 -3.34327e+12 -9.72427e+12 -6.81532e+12 -5.7716e+12 -5.22936e+12 -5.13922e+12 -6.30051e+12 -6.40413e+12 -6.37909e+12 -1.23523e+13 -7.39808e+12 -7.28615e+12 -4.30137e+12 -6.05871e+12 -5.48755e+12 -6.66282e+12 -9.16514e+12 -7.84184e+12 -4.04328e+12 -5.43838e+12 -1.33531e+13 -7.01924e+12 -6.71113e+12 -5.72109e+12 -7.15041e+12 -7.32044e+12 -7.44427e+12 -3.99299e+12 -7.4779e+12 -8.47406e+12 -7.15351e+12 -6.96639e+12 -6.04538e+12 -4.64017e+12 -3.37301e+12 -9.51632e+12 -6.67683e+12 -7.59949e+12 -1.03707e+13 -4.1512e+12 -1.05092e+13 -7.39081e+12 -7.38653e+12 -5.58347e+12 -8.65812e+12 -1.35377e+13 -6.58504e+12 -5.48575e+12 -1.1925e+13 -1.08913e+13 -4.82774e+12 -9.225e+12 -8.19083e+12 -4.22939e+12 -8.2664e+12 -7.6159e+12 -1.2088e+13 -7.32889e+12 -6.24116e+12 -2.93333e+12 -1.13548e+13 -9.09526e+12 -1.06132e+13 -1.04777e+13 -1.13196e+13 -8.77907e+12 -7.36682e+12 -8.02577e+12 -8.21781e+12 -8.12743e+12 -5.54475e+12 -6.2917e+12 -7.96991e+12 -5.2331e+12 -8.17362e+12 -7.07446e+12 -3.94427e+12 -4.62278e+12 -8.12766e+12 -8.26617e+12 -9.27858e+12 -1.21948e+13 -6.35443e+12 -2.84816e+12 -1.36597e+13 -6.28451e+12 -8.23127e+12 -6.51578e+12 -5.06334e+12 -8.70602e+12 -5.20678e+12 -6.94753e+12 -8.98879e+12 -1.12918e+13 -8.24951e+12 -5.85731e+12 -9.87787e+12 -1.1508e+13 -1.1251e+13 -1.61279e+13 -1.20196e+13 -7.27524e+12 -1.04177e+13 -7.9407e+12 -8.76001e+12 -6.51323e+12 -4.64249e+12 -1.1094e+13 -6.92925e+12 -8.75726e+12 -1.03608e+13 -7.579e+12 -1.01588e+13 -7.84114e+12 -1.0291e+13 -6.13048e+12 -7.21768e+12 -1.30746e+13 -4.77395e+12 -7.64857e+12 -6.68302e+12 -8.23078e+12 -7.94641e+12 -8.12354e+12 -4.53783e+12 -4.98584e+12 -8.18367e+12 -1.13234e+13 -6.67253e+12 -6.54668e+12 -8.29725e+12 -5.86741e+12 -6.40897e+12 -7.91984e+12 -8.93478e+12 -6.97526e+12 -4.12348e+12 -6.81789e+12 -5.29399e+12 -7.71825e+12 -3.38866e+12 -7.41196e+12 -7.60207e+12 -6.90641e+12 -5.65164e+12 -5.93405e+12 -6.70089e+12 -8.25772e+12 -8.64206e+12 -8.77909e+12 -7.6944e+12 -1.31649e+13 -9.74058e+12 -5.02635e+12 -5.26064e+12 -6.09661e+12 -6.48316e+12 -1.58381e+13 -9.55968e+12 -3.20829e+12 -6.08256e+12 -5.30691e+12 -1.03313e+13 -1.13182e+13 -1.00352e+13 -8.2042e+12 -1.27697e+13 -6.54454e+12 -7.21503e+12 -6.01038e+12 -1.17319e+13 -4.37501e+12 -4.74031e+12 -1.40373e+13 -7.65703e+12 -1.34414e+13 -7.77022e+12 -7.85808e+12 -6.40692e+12 -1.10412e+13 -7.8863e+12 -5.30946e+12 -7.97201e+12 -1.33272e+13 -9.06003e+12 -7.49922e+12 -7.62248e+12 -1.01349e+13 -8.93319e+12 -8.76315e+12 -7.40708e+12 -8.94377e+12 -9.66316e+12 -3.07251e+12 -4.75649e+12 -5.80416e+12 -2.92092e+12 -8.0723e+12 -2.7945e+12 -6.28898e+12 -8.30592e+12 -8.58986e+12 -4.77264e+12 -9.29098e+12 -7.00807e+12 -6.95372e+12 -6.25109e+12 -1.05392e+13 -5.23252e+12 -8.52969e+12 -1.46829e+13 -1.07522e+13 -4.87668e+12 -1.01188e+13 -9.90433e+12 -8.23181e+12 -7.47518e+12 -9.33574e+12 -6.11552e+12 -5.95753e+12 -7.3064e+12 -5.46216e+12 -7.35184e+12 -5.8888e+12 -8.53578e+12 -7.85572e+12 -6.10004e+12 -7.00218e+12 -6.62345e+12 -3.42022e+12 -1.04935e+13 -6.6915e+12 -5.59625e+12 -5.70202e+12 -1.23197e+12 -6.70798e+12 -1.04888e+13 -4.51735e+12 -7.38651e+12 -2.27843e+12 -6.48276e+12 -4.54045e+12 -6.5115e+12 -8.09027e+12 -2.96418e+12 -5.67777e+12 -4.04428e+12 -8.84098e+12 -6.73464e+12 -4.6655e+12 -7.29036e+12 -7.08126e+12 -7.87841e+12 -5.79767e+12 -3.63868e+12 -7.16274e+12 -7.67812e+12 -7.32675e+12 -7.7128e+12 -5.89247e+12 -1.04415e+13 -8.58768e+12 -6.0672e+12 -1.02874e+13 -9.79675e+12 -7.03225e+12 -6.76335e+12 -4.41886e+12 -5.63243e+12 -8.50581e+12 -5.87417e+12 -4.14496e+12 -5.17558e+12 -8.1497e+12 -4.12731e+12 -7.41231e+12 -9.76223e+12 -7.72457e+12 -8.08359e+12 -7.88516e+12 -9.3364e+12 -5.26929e+12 -7.10553e+12 -4.66044e+12 -7.53968e+12 -7.47761e+12 -1.09238e+13 -6.3168e+12 -1.34127e+13 -7.42717e+12 -4.29534e+12 -6.67937e+12 -6.00746e+12 -3.02647e+12 -7.04778e+12 -8.50484e+12 -5.92043e+12 -7.1094e+12 -7.54507e+12 -7.14138e+12 -4.71417e+12 -5.57268e+12 -1.00319e+13 -9.20993e+12 -6.70434e+12 -9.92955e+12 -5.0914e+12 -7.08777e+12 -1.01712e+13 -7.60822e+12 -8.84093e+12 -5.68092e+12 -1.0709e+13 -6.13172e+12 -6.85187e+12 -4.01161e+12 -5.2602e+12 -5.80271e+12 -5.64522e+12 -5.2362e+12 -4.80113e+12 -6.01717e+12 -6.86839e+12 -7.12877e+12 -8.45168e+12 -8.0649e+12 -1.21514e+13 -4.59597e+12 -6.52951e+12 -8.63007e+12 -1.54192e+13 -6.84482e+12 -5.34984e+12 -1.12452e+13 -8.47612e+12 -8.22961e+12 -8.33768e+12 -5.67333e+12 -9.14979e+12 -6.85427e+12 -1.19257e+13 -7.68186e+12 -1.12163e+13 -8.29274e+12 -7.13839e+12 -1.1535e+13 -6.30841e+12 -1.00574e+13 -1.24099e+13 -4.55709e+12 -7.21243e+12 -7.0824e+12 -8.92147e+12 -6.29797e+12 -4.17823e+12 -5.6648e+12 -9.49869e+12 -8.07645e+12 -6.7576e+12 -6.7671e+12 -1.11899e+13 -6.27726e+12 -6.09404e+12 -6.52927e+12 -7.17146e+12 -4.68185e+12 -7.75311e+12 -7.43903e+12 -6.60817e+12 -5.43728e+12 -7.51729e+12 -4.33471e+12 -3.56367e+12 -3.87585e+12 -8.22176e+12 -6.16612e+12 -5.63517e+12 -7.55748e+12 -6.82847e+12 -5.87384e+12 -7.15241e+12 -7.80789e+12 -1.05099e+13 -6.24817e+12 -3.91006e+12 -5.71267e+12 -4.97847e+12 -4.79345e+12 -4.4688e+12 -7.75123e+12 -1.28623e+13 -6.29948e+12 -8.84711e+12 -1.10405e+13 -8.87714e+12 -5.33975e+12 -6.7127e+12 -6.80154e+12 -6.53578e+12 -1.31798e+13 -4.57395e+12 -7.17197e+12 -9.18112e+12 -1.42228e+13 -1.00876e+13 -6.63011e+12 -6.4163e+12 -1.10183e+13 -9.04459e+12 -1.39499e+13 -6.55592e+12 -4.81304e+12 -4.72471e+12 -6.29991e+12 -3.70901e+12 -4.48665e+12 -5.08334e+12 -1.12371e+13 -8.16142e+12 -6.89809e+12 -9.17112e+12 -9.29417e+12 -5.07042e+12 -7.96896e+12 -7.62173e+12 -1.42792e+13 -3.59374e+12 -6.45683e+12 -4.89056e+12 -9.96562e+12 -8.331e+12 -9.58228e+12 -5.2867e+12 -8.56735e+12 -1.22208e+13 -8.49269e+12 -7.8477e+12 -5.83728e+12 -6.35127e+12 -6.26931e+12 -8.69624e+12 -6.02825e+12 -4.30333e+12 -5.90891e+12 -5.75546e+12 -5.92609e+12 -5.49655e+12 -7.49681e+12 -6.25325e+12 -4.81362e+12 -3.07088e+12 -1.07195e+13 -8.9889e+12 -7.49248e+12 -1.34122e+13 -1.94871e+13 -1.14851e+13 -7.52762e+12 -1.11321e+13 -8.77335e+12 -6.29901e+12 -5.08862e+12 -7.37068e+12 -5.93215e+12 -6.93808e+12 -4.87242e+12 -5.52488e+12 -6.55854e+12 -5.00701e+12 -2.37383e+12 -3.09458e+12 -2.44309e+12 -4.03245e+12 -5.31086e+12 -1.07236e+13 -5.82702e+12 -3.62029e+12 -4.41494e+12 -5.99552e+12 -8.94981e+12 -7.11443e+12 -6.58225e+12 -1.96786e+12 -4.93914e+12 -6.05038e+12 -4.68139e+12 -6.24659e+12 -6.83919e+12 -8.55824e+12 -1.04137e+13 -9.80873e+12 -6.01913e+12 -5.65052e+12 -1.03699e+13 -1.17996e+13 -8.08625e+12 -4.52342e+12 -8.17558e+12 -7.33719e+12 -7.39016e+12 -6.98398e+12 -7.07769e+12 -5.68792e+12 -8.61769e+12 -8.9116e+12 -5.40126e+12 -6.08727e+12 -3.3932e+12 -7.27614e+12 -4.85147e+12 -5.96677e+12 -6.58769e+12 -5.77872e+12 -8.14605e+12 -8.78912e+12 -7.59388e+12 -7.37001e+12 -4.98747e+12 -3.98913e+12 -7.119e+12 -7.61867e+12 -8.29505e+12 -4.65215e+12 -4.51324e+12 -6.456e+12 -7.65227e+12 -7.50878e+12 -6.9141e+12 -1.01441e+13 -7.18045e+12 -8.53355e+12 -8.35167e+12 -4.66989e+12 -5.41364e+12 -8.7269e+12 -3.73461e+12 -4.80443e+12 -5.00259e+12 -5.81751e+12 -6.29965e+12 -6.30962e+12 -8.87047e+12 -1.12127e+13 -8.64259e+12 -1.33058e+13 -8.30772e+12 -4.52179e+12 -9.26878e+12 -8.89124e+12 -1.38863e+13 -5.84862e+12 -1.19641e+13 -7.72777e+12 -4.16274e+12 -8.50129e+12 -6.85814e+12 -4.58543e+12 -6.36458e+12 -6.35376e+12 -7.87516e+12 -9.71202e+12 -8.47962e+12 -1.10179e+13 -7.17204e+12 -6.52372e+12 -5.37603e+12 -3.70403e+12 -9.49199e+12 -8.75483e+12 -5.51961e+12 -4.45533e+12 -5.52537e+12 -4.53759e+12 -7.58414e+12 -4.3731e+12 -8.46425e+12 -8.3167e+12 -4.71775e+12 -3.90514e+12 -6.29179e+12 -5.30779e+12 -3.63103e+12 -3.9119e+12 -7.93326e+12 -7.62059e+12 -7.38424e+12 -5.61719e+12 -6.33204e+12 -3.75936e+12 -6.63442e+12 -7.23386e+12 -7.2686e+12 -8.5354e+12 -6.07671e+12 -7.11569e+12 -7.75634e+12 -5.53218e+12 -3.61253e+12 -6.30753e+12 -6.83181e+12 -7.71513e+12 -7.95624e+12 -5.35329e+12 -8.06674e+12 -9.5355e+12 -7.76524e+12 -4.6512e+12 -6.84057e+12 -1.07083e+13 -5.54445e+12 -4.22629e+12 -4.74371e+12 -4.20493e+12 -6.36774e+12 -9.33247e+12 -6.6052e+12 -8.09431e+12 -9.14517e+12 -5.24663e+12 -5.56878e+12 -6.57963e+12 -4.45329e+12 -7.60912e+12 -6.32484e+12 -7.28879e+12 -6.66966e+12 -4.27273e+12 -6.68096e+12 -4.43322e+12 -4.69837e+12 -6.77486e+12 -5.71537e+12 -3.98677e+12 -7.732e+12 -7.60449e+12 -6.1763e+12 -5.39877e+12 -6.6305e+12 -6.44943e+12 -6.65542e+12 -4.47827e+12 -6.6679e+12 -4.69748e+12 -5.27409e+12 -6.06292e+12 -5.11719e+12 -8.57437e+12 -7.15999e+12 -6.91318e+12 -7.79276e+12 -6.5877e+12 -7.42904e+12 -6.39259e+12 -4.19611e+12 -8.11549e+12 -4.93116e+12 -1.01709e+13 -5.9691e+12 -1.06538e+13 -7.59593e+12 -5.65998e+12 -1.21789e+13 -8.30026e+12 -6.41715e+12 -5.34112e+12 -3.56606e+12 -4.21166e+12 -4.49172e+12 -7.10498e+12 -1.08169e+13 -5.51443e+12 -8.05245e+12 -5.86636e+12 -6.53567e+12 -9.60962e+12 -4.48429e+12 -6.50833e+12 -4.43199e+12 -6.6623e+12 -7.53071e+12 -1.01185e+13 -4.84416e+12 -8.03127e+12 -7.91597e+12 -6.04481e+12 -4.26645e+12 -5.26786e+12 -6.25777e+12 -9.12684e+12 -8.6195e+12 -8.15402e+12 -6.78315e+12 -1.0331e+13 -6.89592e+12 -5.70072e+12 -5.49665e+12 -6.31362e+12 -5.06594e+12 -5.64806e+12 -8.79137e+12 -6.03208e+12 -1.07514e+13 -6.87806e+12 -8.92408e+12 -1.16886e+13 -7.05311e+12 -5.94213e+12 -4.49807e+12 -5.13772e+12 -4.7807e+12 -4.9257e+12 -6.86566e+12 -1.02359e+13 -9.99763e+12 -8.27213e+12 -5.01533e+12 -6.95745e+12 -8.43654e+12 -7.22932e+12 -5.45269e+12 -8.1865e+12 -6.24524e+12 -6.48493e+12 -3.27465e+12 -5.30242e+12 -5.15569e+12 -4.33694e+12 -4.67143e+12 -7.40405e+12 -4.07155e+12 -5.63877e+12 -3.83271e+12 -3.3325e+12 -7.82428e+12 -1.0355e+13 -8.45471e+12 -6.05619e+12 -6.87148e+12 -8.8364e+12 -5.44764e+12 -1.06822e+13 -2.95738e+12 -6.69622e+12 -8.71773e+12 -2.95668e+12 -5.83586e+12 -6.71771e+12 -5.42513e+12 -6.01507e+12 -5.83423e+12 -8.23187e+12 -5.43252e+12 -3.77061e+12 -3.54643e+12 -5.51166e+12 -6.87354e+12 -6.874e+12 -3.06269e+12 -5.19422e+12 -4.77461e+12 -7.64033e+12 -6.56112e+12 -9.12011e+12 -7.93717e+12 -5.31235e+12 -9.22369e+12 -3.66008e+12 -5.89897e+12 -8.18445e+12 -3.2311e+12 -6.76659e+12 -5.4478e+12 -3.4816e+12 -7.00288e+12 -5.89037e+12 -7.80106e+12 -5.007e+12 -5.24602e+12 -8.21454e+12 -4.2657e+12 -6.86514e+12 -6.23452e+12 -4.90501e+12 -7.37904e+12 -6.47553e+12 -6.78877e+12 -4.95607e+12 -8.37165e+12 -5.69928e+12 -5.30701e+12 -3.8971e+12 -6.45659e+12 -6.97058e+12 -4.43931e+12 -9.44292e+12 -2.41931e+12 -1.09155e+13 -5.59004e+12 -3.58842e+12 -8.84755e+12 -2.65473e+12 -7.02822e+12 -6.64834e+12 -6.03931e+12 -6.17545e+12 -7.37159e+12 -1.05291e+13 -5.76644e+12 -7.51323e+12 -4.73337e+12 -3.87725e+12 -7.44924e+12 -6.49998e+12 -1.12176e+13 -6.63562e+12 -5.83419e+12 -4.31348e+12 -4.74754e+12 -4.83279e+12 -6.03894e+12 -6.00845e+12 -8.89469e+12 -6.17035e+12 -5.28978e+12 -5.89218e+12 -6.64173e+12 -9.28361e+12 -8.21253e+12 -6.34612e+12 -1.2345e+13 -9.92732e+12 -7.21079e+12 -8.1162e+12 -6.06665e+12 -5.74229e+12 -5.62051e+12 -6.5767e+12 -9.68064e+12 -5.61209e+12 -5.11416e+12 -8.33687e+12 -1.01355e+13 -8.10374e+12 -1.18482e+13 -7.10432e+12 -1.33557e+13 -6.03345e+12 -4.02171e+12 -4.57282e+12 -5.7142e+12 -4.33862e+12 -3.45762e+12 -5.44891e+12 -5.53287e+12 -3.4676e+12 -6.58669e+12 -7.67395e+12 -3.81908e+12 -4.25051e+12 -6.36212e+12 -7.56196e+12 -7.97777e+12 -4.3162e+12 -6.97958e+12 -6.74619e+12 -5.77614e+12 -8.13933e+12 -5.72108e+12 -6.92631e+12 -5.69788e+12 -1.01607e+13 -6.20407e+12 -7.58243e+12 -6.08393e+12 -6.81017e+12 -5.16687e+12 -8.67158e+12 -5.02496e+12 -1.1699e+13 -9.86801e+12 -5.93726e+12 -7.08684e+12 -8.66711e+12 -8.94394e+12 -5.78504e+12 -7.39171e+12 -9.63016e+12 -3.7007e+12 -3.11345e+12 -1.06721e+13 -4.95962e+12 -3.69657e+12 -6.88505e+12 -3.98556e+12 -3.908e+12 -6.58758e+12 -5.90643e+12 -9.05856e+12 -4.93868e+12 -4.3427e+12 -5.4787e+12 -9.45561e+12 -7.17033e+12 -4.8596e+12 -6.94805e+12 -7.53784e+12 -6.77207e+12 -3.93918e+12 -3.87907e+12 -6.04505e+12 -5.17744e+12 -8.42861e+12 -6.96443e+12 -4.39811e+12 -7.53987e+12 -4.9045e+12 -5.60223e+12 -5.26341e+12 -7.43134e+12 -1.10369e+13 -6.44497e+12 -4.56614e+12 -9.8692e+12 -6.99604e+12 -7.50409e+12 -6.08637e+12 -5.80472e+12 -4.68882e+12 -3.04289e+12 -4.52779e+12 -4.20798e+12 -6.46796e+12 -1.09709e+13 -6.73206e+12 -6.65081e+12 -1.05952e+13 -6.09596e+12 -9.38004e+12 -9.85795e+12 -7.52115e+12 -8.23658e+12 -5.96309e+12 -4.18318e+12 -6.35392e+12 -9.22411e+12 -7.12294e+12 -7.41413e+12 -8.01586e+12 -6.60949e+12 -6.45844e+12 -5.97273e+12 -6.18707e+12 -7.24143e+12 -8.61236e+12 -8.00535e+12 -6.66224e+12 -2.61345e+12 -6.20904e+12 -6.00561e+12 -8.55036e+12 -1.04887e+13 -4.26998e+12 -5.09218e+12 -1.11464e+13 -4.91897e+12 -6.08703e+12 -6.809e+12 -6.007e+12 -1.07e+13 -7.52692e+12 -5.17971e+12 -8.11867e+12 -7.47117e+12 -5.37198e+12 -8.55904e+12 -4.5085e+12 -3.92403e+12 -5.24944e+12 -5.33858e+12 -5.6007e+12 -5.81273e+12 -4.60042e+12 -4.40826e+12 -3.73272e+12 -8.20175e+12 -7.09428e+12 -5.07162e+12 -6.43745e+12 -8.8665e+12 -6.20463e+12 -7.73295e+12 -7.32467e+12 -4.51537e+12 -5.519e+12 -5.54437e+12 -5.64941e+12 -6.64284e+12 -6.01822e+12 -7.72624e+12 -8.14837e+12 -3.22577e+12 -9.98617e+12 -5.07217e+12 -6.21383e+12 -3.29792e+12 -5.70257e+12 -8.95491e+12 -1.17424e+13 -7.66607e+12 -5.54508e+12 -6.72922e+12 -6.69888e+12 -8.28428e+12 -5.60641e+12 -9.81222e+12 -8.53661e+12 -6.60564e+12 -7.88387e+12 -5.78592e+12 -7.9147e+12 -6.82531e+12 -9.6409e+12 -7.65136e+12 -3.58046e+12 -6.89075e+12 -3.34549e+12 -6.73812e+12 -3.80507e+12 -5.51714e+12 -2.87748e+12 -5.73053e+12 -6.75675e+12 -7.17555e+12 -3.82308e+12 -4.15118e+12 -5.27494e+12 -4.84758e+12 -4.4392e+12 -5.64667e+12 -6.00744e+12 -4.69865e+12 -6.14018e+12 -5.66984e+12 -4.34827e+12 -8.12925e+12 -9.08705e+12 -8.23443e+12 -2.86255e+12 -6.65571e+12 -4.60776e+12 -7.19733e+12 -6.09295e+12 -4.94583e+12 -7.94864e+12 -3.62472e+12 -5.29966e+12 -6.35267e+12 -4.66185e+12 -5.80847e+12 -8.47046e+12 -7.92217e+12 -6.09413e+12 -4.70956e+12 -1.03924e+13 -7.92111e+12 -1.02805e+13 -6.95655e+12 -8.4423e+12 -5.31303e+12 -7.5485e+12 -6.52854e+12 -8.47912e+12 -8.65334e+12 -2.71707e+12 -7.35714e+12 -3.95842e+12 -5.34603e+12 -4.91738e+12 -8.04702e+12 -7.93562e+12 -4.83327e+12 -4.67449e+12 -4.97139e+12 -4.94755e+12 -6.40875e+12 -9.10601e+12 -5.6052e+12 -6.90599e+12 -7.5337e+12 -5.36874e+12 -4.27641e+12 -6.65898e+12 -9.14087e+12 -1.59143e+13 -1.09469e+13 -8.45903e+12 -6.8419e+12 -9.49157e+12 -1.04511e+13 -5.3621e+12 -5.80135e+12 -6.3489e+12 -8.4051e+12 -5.25027e+12 -2.70509e+12 -3.3308e+12 -5.50256e+12 -2.52677e+12 -3.60663e+12 -7.91762e+12 -7.27227e+12 -6.33484e+12 -7.06634e+12 -9.18828e+12 -9.71867e+12 -7.46962e+12 -5.79545e+12 -7.4527e+12 -5.20475e+12 -5.30371e+12 -6.20193e+12 -5.35479e+12 -4.81536e+12 -5.84122e+12 -8.52159e+12 -6.03787e+12 -4.43567e+12 -5.01279e+12 -2.96262e+12 -9.03543e+12 -5.03481e+12 -4.01294e+12 -2.49889e+12 -3.10284e+12 -4.39597e+12 -7.09981e+12 -7.87331e+12 -5.38318e+12 -1.20687e+13 -7.8374e+12 -5.19066e+12 -7.64149e+12 -7.78383e+12 -5.41397e+12 -6.44217e+12 -5.83281e+12 -6.53601e+12 -6.95943e+12 -7.54807e+12 -2.44705e+12 -2.6132e+12 -8.30754e+12 -9.69238e+12 -4.98368e+12 -5.34515e+12 -4.31781e+12 -5.35042e+12 -4.47204e+12 -4.05429e+12 -8.96464e+12 -5.21685e+12 -3.44809e+12 -5.91146e+12 -3.56329e+12 -8.45456e+12 -4.80977e+12 -4.96217e+12 -3.94665e+12 -4.73612e+12 -4.61401e+12 -4.48959e+12 -6.73121e+12 -4.80957e+12 -6.84413e+12 -4.36367e+12 -2.38427e+12 -3.77492e+12 -3.46821e+12 -5.18875e+12 -6.34511e+12 -4.78198e+12 -4.7061e+12 -2.85863e+12 -4.95325e+12 -5.38894e+12 -1.55553e+12 -6.07021e+12 -8.72035e+12 -4.64599e+12 -3.43436e+12 -4.94996e+12 -3.76833e+12 -8.71802e+12 -2.47496e+12 -5.93548e+12 -5.22571e+12 -5.28237e+12 -4.29775e+12 -3.44507e+12 -5.1486e+12 -4.34824e+12 -7.67513e+12 -5.51184e+12 -7.52545e+12 -5.51957e+12 -4.63682e+12 -6.62516e+12 -8.47871e+12 -5.54723e+12 -4.88592e+12 -9.16372e+12 -5.73406e+12 -5.78926e+12 -6.36924e+12 -4.60552e+12 -5.75655e+12 -6.57264e+12 -8.81592e+12 -6.97118e+12 -6.61654e+12 -7.99246e+12 -6.89011e+12 -6.69257e+12 -6.1828e+12 -5.99606e+12 -9.71471e+12 -5.72387e+12 -8.1187e+12 -5.73326e+12 -6.46349e+12 -5.45459e+12 -4.27865e+12 -1.17745e+13 -3.73135e+12 -5.47262e+12 -7.35079e+12 -5.51142e+12 -7.5728e+12 -7.49633e+12 -7.35255e+12 -4.73878e+12 -5.91303e+12 -1.18858e+13 -5.78727e+12 -8.04706e+12 -4.19421e+12 -5.1855e+12 -7.14974e+12 -5.5497e+12 -6.40585e+12 -5.45277e+12 -5.89955e+12 -5.14453e+12 -8.61533e+12 -1.0226e+13 -8.99963e+12 -4.23693e+12 -7.34987e+12 -5.11222e+12 -4.83979e+12 -5.24902e+12 -7.69244e+12 -7.00277e+12 -6.50934e+12 -4.31361e+12 -6.84579e+12 -3.78481e+12 -1.02224e+13 -5.42622e+12 -5.97434e+12 -4.77348e+12 -6.92729e+12 -8.24613e+12 -4.47364e+12 -6.85528e+12 -6.03918e+12 -6.05463e+12 -4.14824e+12 -7.39227e+12 -6.65045e+12 -5.72776e+12 -5.8891e+12 -4.05679e+12 -6.37063e+12 -8.76082e+12 -5.77666e+12 -5.36105e+12 -5.374e+12 -4.63545e+12 -6.77558e+12 -5.1985e+12 -6.9197e+12 -3.47981e+12 -5.26552e+12 -5.74647e+12 -4.65263e+12 -5.24183e+12 -3.19158e+12 -4.33577e+12 -2.77857e+12 -5.29035e+12 -3.46311e+12 -6.3706e+12 -2.79419e+12 -2.8821e+12 -3.68848e+12 -3.19611e+12 -7.50973e+12 -4.11001e+12 -6.4423e+12 -4.19862e+12 -3.85351e+12 -4.76092e+12 -4.17321e+12 -6.16286e+12 -4.28203e+12 -3.63014e+12 -5.58664e+12 -3.7953e+12 -4.58047e+12 -3.24445e+12 -4.07699e+12 -3.86246e+12 -7.81976e+12 -6.31326e+12 -6.85111e+12 -6.40573e+12 -4.52799e+12 -3.60713e+12 -3.48669e+12 -5.15679e+12 -7.93579e+12 -5.59696e+12 -5.53916e+12 -2.41174e+12 -3.99799e+12 -3.89188e+12 -7.01461e+12 -6.78716e+12 -7.35301e+12 -4.09547e+12 -9.97828e+12 -5.49219e+12 -6.40418e+12 -3.64342e+12 -8.04304e+12 -9.87128e+12 -7.70438e+12 -4.48621e+12 -7.85218e+12 -6.67144e+12 -5.97919e+12 -7.0725e+12 -7.96805e+12 -7.69082e+12 -7.16387e+12 -1.00769e+12 -9.65806e+12 -8.03096e+12 -7.63147e+12 -6.02512e+12 -7.64294e+12 -5.31403e+12 -7.54406e+12 -5.61446e+12 -6.85243e+12 -5.21696e+12 -7.6193e+12 -6.40818e+12 -6.77833e+12 -8.27862e+12 -9.11327e+12 -4.98524e+12 -6.0972e+12 -4.50362e+12 -3.73143e+12 -2.7935e+12 -3.09088e+12 -4.2821e+12 -6.53099e+12 -4.31854e+12 -9.48412e+12 -5.43777e+12 -8.39702e+12 -6.50765e+12 -9.36246e+12 -6.78745e+12 -2.94535e+12 -4.4095e+12 -7.72648e+12 -4.3782e+12 -5.41232e+12 -5.64658e+12 -6.21548e+12 -4.26925e+12 -6.60561e+12 -5.12119e+12 -5.31503e+12 -4.80109e+12 -7.68801e+12 -5.35486e+12 -6.14531e+12 -8.23057e+12 -7.83509e+12 -5.62973e+12 -7.85009e+12 -4.3168e+12 -7.319e+12 -5.42331e+12 -7.14325e+12 -7.23691e+12 -5.3196e+12 -8.09219e+12 -5.59195e+12 -4.09664e+12 -4.44009e+12 -1.87209e+12 -4.04577e+12 -5.00406e+12 -2.97366e+12 -7.95298e+12 -6.141e+12 -6.99624e+12 -6.60432e+12 -3.28959e+12 -5.47457e+12 -6.21754e+12 -7.46244e+12 -2.13704e+12 -6.46812e+12 -3.93077e+12 -5.03665e+12 -6.38894e+12 -6.21883e+12 -2.26453e+12 -3.97423e+12 -5.13051e+12 -3.0777e+12 -4.4864e+12 -5.39359e+12 -5.01715e+12 -3.99816e+12 -2.97242e+12 -8.56107e+12 -5.04079e+12 -4.17578e+12 -5.02134e+12 -4.06572e+12 -4.97308e+12 -2.94224e+12 -4.54797e+12 -5.01016e+12 -3.89204e+12 -4.59251e+12 -2.80886e+12 -3.49741e+12 -6.34133e+12 -3.99943e+12 -4.8952e+12 -5.00464e+12 -5.35531e+12 -4.29657e+12 -5.39643e+12 -5.05444e+12 -4.60476e+12 -5.25691e+12 -2.82202e+12 -3.74099e+12 -3.18455e+12 -5.87904e+12 -8.68444e+12 -3.68382e+12 -3.49435e+12 -3.22022e+12 -3.64696e+12 -2.47476e+12 -2.11515e+12 -8.52092e+12 -7.76291e+12 -3.36729e+12 -4.51154e+12 -7.16336e+12 -4.18627e+12 -7.9153e+12 -6.06279e+12 -5.55516e+12 -6.28319e+12 -5.77788e+12 -5.68714e+12 -7.08909e+12 -4.27536e+12 -7.78238e+12 -7.55578e+12 -3.3031e+12 -3.09635e+12 -5.97271e+12 -4.83827e+12 -8.44232e+12 -5.19478e+12 -6.2953e+12 -7.22374e+12 -4.64077e+12 -5.95016e+12 -9.68521e+12 -1.10298e+13 -5.82373e+12 -2.4597e+12 -4.09976e+12 -6.36759e+12 -5.45541e+12 -1.91897e+12 -3.87022e+12 -2.81037e+12 -3.34318e+12 -9.98983e+12 -3.42966e+12 -3.60166e+12 -4.36632e+12 -5.27418e+12 -4.63353e+12 -4.78234e+12 -7.90037e+12 -3.69113e+12 -7.14374e+12 -3.84756e+12 -4.98625e+12 -4.5563e+12 -4.72093e+12 -5.57958e+12 -5.77215e+12 -5.45023e+12 -5.2472e+12 -4.88736e+12 -4.42695e+12 -2.13835e+12 -6.5046e+12 -4.69248e+12 -9.78589e+12 -5.63698e+12 -4.13585e+12 -5.60515e+12 -6.07107e+12 -5.561e+12 -6.2121e+12 -6.13043e+12 -4.6708e+12 -3.6777e+12 -7.96108e+12 -5.58613e+12 -7.83172e+12 -6.6574e+12 -7.99417e+12 -4.40862e+12 -2.8321e+12 -6.26667e+12 -4.9072e+12 -6.4534e+12 -4.31023e+12 -5.82156e+12 -3.66758e+12 -5.28048e+12 -6.76041e+12 -2.93287e+12 -6.74386e+12 -5.24282e+12 -2.51631e+12 -2.89838e+12 -4.89627e+12 -4.91686e+12 -5.05187e+12 -3.36942e+12 -7.48812e+12 -3.61271e+12 -4.0803e+12 -4.43024e+12 -3.80911e+12 -4.12396e+12 -6.09064e+12 -2.35836e+12 -4.73248e+12 -5.00015e+12 -2.17735e+12 -4.94912e+12 -2.55744e+12 -3.56127e+12 -5.33308e+12 -3.58288e+12 -4.6039e+12 -3.37073e+12 -3.81304e+12 -5.21341e+12 -1.8581e+12 -4.50403e+12 -3.48434e+12 -2.91724e+12 -4.31386e+12 -4.04412e+12 -4.58621e+12 -3.64141e+12 -4.5018e+12 -4.17878e+12 -4.33878e+12 -5.23216e+12 -3.06322e+12 -5.62252e+12 -3.66061e+12 -6.63824e+12 -8.38641e+12 -8.13447e+12 -2.62234e+12 -4.30086e+12 -5.31546e+12 -4.28422e+12 -4.18574e+12 -5.92993e+12 -6.00592e+12 -5.80665e+12 -6.28198e+12 -5.03196e+12 -4.49528e+12 -4.72546e+12 -4.335e+12 -5.56653e+12 -6.84797e+12 -5.85412e+12 -4.68644e+12 -8.57036e+12 -7.43095e+12 -3.40523e+12 -7.43662e+12 -4.96847e+12 -3.76928e+12 -4.92029e+12 -5.84577e+12 -4.8361e+12 -6.2712e+12 -5.21998e+12 -5.23788e+12 -2.60542e+12 -8.65623e+12 -4.85557e+12 -8.02902e+12 -5.11161e+12 -5.65931e+12 -4.59578e+12 -2.74154e+12 -2.74181e+12 -1.76843e+12 -6.32843e+12 -4.73898e+12 -2.6985e+12 -5.60518e+12 -5.25339e+12 -6.28824e+12 -4.01384e+12 -4.41375e+12 -5.59616e+12 -5.96236e+12 -4.52675e+12 -4.29322e+12 -3.04918e+12 -4.41584e+12 -5.6563e+12 -3.46512e+12 -3.79128e+12 -1.90495e+12 -4.76453e+12 -3.85623e+12 -3.80658e+12 -4.40409e+12 -6.51103e+12 -5.55657e+12 -5.32733e+12 -5.63726e+12 -2.88673e+12 -4.41541e+12 -4.58419e+12 -3.72613e+12 -5.96098e+12 -4.28003e+12 -2.2378e+12 -4.34894e+12 -6.38663e+12 -5.71636e+12 -6.71576e+12 -3.42015e+12 -5.70836e+12 -4.22129e+12 -6.12784e+12 -7.31196e+12 -5.48687e+12 -4.0051e+12 -4.10841e+12 -3.77132e+12 -5.35227e+12 -4.59778e+12 -3.01089e+12 -4.16607e+12 -4.08314e+12 -4.86782e+12 -3.17042e+12 -2.2641e+12 -5.55761e+12 -3.96297e+12 -3.32658e+12 -2.8562e+12 -3.45137e+12 -1.34272e+12 -2.50008e+12 -3.41164e+12 -2.47564e+12 -3.63155e+12 -4.56904e+12 -4.67394e+12 -2.06267e+12 -2.89471e+12 -3.54892e+12 -2.71168e+12 -3.75797e+12 -5.74608e+12 -5.84458e+12 -3.42264e+12 -3.59155e+12 -2.69272e+12 -3.0548e+12 -5.15891e+12 -4.45244e+12 -3.58733e+12 -3.33555e+12 -4.77484e+12 -4.22717e+12 -6.03886e+12 -4.63894e+12 -6.4289e+12 -2.47526e+12 -3.97026e+12 -2.96725e+12 -5.20101e+12 -4.92471e+12 -4.48898e+12 -3.58325e+12 -2.31263e+12 -3.78707e+12 -5.01132e+12 -3.12555e+12 -2.9313e+12 -3.86291e+12 -3.38838e+12 -5.14303e+12 -4.31998e+12 -6.15216e+12 -6.70276e+12 -7.12851e+12 -4.7686e+12 -5.59946e+12 -5.60312e+12 -2.545e+12 -1.34733e+12 -5.15789e+12 -4.57756e+12 -3.42825e+12 -3.08766e+12 -4.11762e+12 -5.30518e+12 -5.38094e+12 -8.12834e+12 -4.66161e+12 -5.69031e+12 -5.66551e+12 -3.10902e+12 -3.40085e+12 -3.75824e+12 -3.8171e+12 -4.63955e+12 -7.56635e+12 -4.64504e+12 -4.82414e+12 -3.86868e+12 -5.73149e+12 -6.69957e+12 -4.12192e+12 -4.28955e+12 -4.32725e+12 -2.11795e+12 -2.90993e+12 -8.00505e+12 -3.35913e+12 -3.4356e+12 -5.50289e+12 -4.60502e+12 -5.47253e+12 -7.51519e+12 -6.26546e+12 -4.56454e+12 -4.09122e+12 -4.16617e+12 -7.43887e+12 -3.81661e+12 -4.85055e+12 -3.803e+12 -2.85682e+12 -5.33885e+12 -3.82663e+12 -5.2257e+12 -3.95338e+12 -1.76439e+12 -3.98681e+12 -3.91181e+12 -6.44853e+12 -5.13755e+12 -4.4411e+12 -2.10037e+12 -5.6487e+12 -4.99796e+12 -3.48537e+12 -3.39588e+12 -4.42881e+12 -1.83455e+12 -4.03952e+12 -6.65067e+12 -5.33766e+12 -4.35968e+12 -5.32333e+12 -1.855e+12 -3.08604e+12 -3.50267e+12 -6.9246e+12 -6.52132e+12 -3.22273e+12 -1.87668e+12 -6.7691e+12 -3.28768e+12 -1.8701e+12 -2.8952e+12 -1.93596e+12 -2.70442e+12 -4.05812e+12 -1.72051e+12 -3.61918e+12 -2.69845e+12 -2.20314e+12 -2.38216e+12 -5.23374e+12 -2.92778e+12 -3.10558e+12 -1.85427e+12 -1.88852e+12 -2.76594e+12 -5.08241e+12 -1.39589e+12 -1.07026e+12 -3.01794e+12 -3.24709e+12 -572926000000.0 -2.99553e+12 -3.48596e+12 -3.40504e+12 -1.52216e+12 -3.54954e+12 -3.21886e+12 -3.07996e+12 -2.24187e+12 -3.02662e+12 -4.25513e+12 -4.4035e+12 -6.74966e+12 -3.49018e+12 -2.78321e+12 -2.76448e+12 -5.13232e+12 -4.08138e+12 -4.20015e+12 -5.61371e+12 -1.23299e+12 -4.60436e+12 -5.7978e+12 -5.93937e+12 -3.02091e+12 -3.95339e+12 -3.49308e+12 -2.18153e+12 -3.39913e+12 -4.3622e+12 -2.87222e+12 -4.61984e+12 -3.86346e+12 -1.55864e+12 -2.60792e+12 -4.80573e+12 -2.64497e+12 -5.84582e+12 -5.8862e+12 -2.39687e+12 -2.91593e+12 -3.48144e+12 -2.49427e+12 -2.85108e+12 -4.08837e+12 -4.98585e+12 -5.29053e+12 -5.66659e+12 -5.31423e+12 -4.69877e+12 -5.00654e+12 -3.71094e+12 -3.41595e+12 -5.56992e+12 -5.38164e+12 -5.15345e+12 -5.04746e+12 -7.33632e+12 -7.87034e+12 -6.01186e+12 -4.01464e+12 -5.99021e+12 -3.7689e+12 -4.9384e+12 -3.94581e+12 -7.01504e+12 -3.97174e+12 -7.5024e+12 -3.80836e+12 -5.46244e+12 -1.29959e+12 -2.74534e+12 -2.22302e+12 -5.82225e+12 -3.93246e+12 -5.90724e+12 -2.58904e+12 -5.83706e+12 -4.56591e+12 -6.77655e+12 -5.53561e+12 -3.68228e+12 -6.07777e+12 -8.0092e+12 -5.00523e+12 -4.13227e+12 -3.74155e+12 -3.3058e+12 -5.02957e+12 -5.00292e+12 -5.03703e+12 -3.14881e+12 -1.42044e+12 -4.57693e+12 -4.74042e+12 -3.10866e+12 -4.10275e+12 -3.17791e+12 -3.41666e+12 -4.21737e+12 -4.10773e+12 -4.33662e+12 -3.52571e+12 -4.73943e+12 -3.67333e+12 -4.64979e+12 -3.94647e+12 -4.27599e+12 -3.99161e+12 -3.54376e+12 -4.37821e+12 -3.79295e+12 -2.45636e+12 -2.71415e+12 -3.33824e+12 -2.36883e+12 -4.31942e+12 -2.57942e+12 -2.96858e+12 -1.47091e+12 -2.61166e+12 -2.56787e+12 -3.03292e+12 -1.41968e+12 -3.18979e+12 -2.74616e+12 -1.61125e+12 -4.3803e+12 -2.56664e+12 -1.26102e+12 -3.34594e+12 -552325000000.0 -1.99387e+12 -2.28178e+12 -1.54246e+12 -2.9436e+12 -1.85112e+12 -1.03499e+12 -2.05415e+12 -1.94738e+12 -2.52901e+12 -2.15928e+12 -1.87903e+12 -1.59762e+12 -2.34783e+12 -2.29104e+12 -2.63756e+12 -2.58379e+12 -2.80371e+12 -2.53567e+12 -5.08122e+12 -1.37816e+12 -3.03975e+12 -1.3422e+12 -1.8726e+12 -3.5187e+12 -3.58078e+12 -2.49174e+12 -3.72996e+12 -2.69486e+12 -3.17885e+12 -3.73838e+12 -2.6113e+12 -5.68003e+12 -3.82206e+12 -4.13789e+12 -1.84328e+12 -2.76328e+12 -1.89737e+12 -2.55433e+12 -3.11083e+12 -2.20029e+12 -1.98231e+12 -3.66261e+12 -2.29307e+12 -3.33282e+12 -4.12033e+12 -5.17513e+12 -4.79348e+12 -1.5757e+12 -2.84585e+12 -4.91011e+12 -4.06777e+12 -4.73101e+12 -4.54692e+12 -4.02421e+12 -3.44278e+12 -5.77639e+12 -5.96844e+12 -6.0345e+12 -5.28726e+12 -7.06671e+12 -3.45258e+12 -2.77301e+12 -4.34286e+12 -2.64359e+12 -5.21041e+12 -3.77545e+12 -4.40206e+12 -5.87229e+12 -4.74513e+12 -3.48881e+12 -5.36999e+12 -6.15059e+12 -5.396e+12 -5.83879e+12 -3.44689e+12 -2.94996e+12 -3.63385e+12 -3.75888e+12 -5.36747e+12 -2.1813e+12 -3.70528e+12 -2.74956e+12 -4.53562e+12 -5.10557e+12 -3.61276e+12 -4.54495e+12 -3.04955e+12 -3.41537e+12 -4.72251e+12 -5.14203e+12 -5.22064e+12 -4.08807e+12 -4.32252e+12 -4.5729e+12 -3.00955e+12 -3.2598e+12 -3.27418e+12 -3.75677e+12 -2.42037e+12 -4.04332e+12 -8.28892e+12 -4.17741e+12 -4.98809e+12 -4.39335e+12 -3.00073e+12 -4.14007e+12 -3.20571e+12 -2.11591e+12 -2.99439e+12 -4.03051e+12 -2.9877e+12 -4.60667e+12 -3.00283e+12 -2.62243e+12 -2.78178e+12 -3.10787e+12 -1.84272e+12 -2.74286e+12 -2.63276e+12 -1.92902e+12 -3.57845e+12 -3.47733e+12 -2.39111e+12 -2.77667e+12 -1.86109e+12 -1.87711e+12 -2.05516e+12 -2.39127e+12 -2.38451e+12 -3.17144e+12 -2.27625e+12 -1.59487e+12 -1.34013e+12 -4.01986e+12 -2.44092e+12 -1.87118e+12 -1.55379e+12 -2.09316e+12 -2.71919e+12 -1.57945e+12 -502801000000.0 -1.652e+12 -2.17702e+12 -644589000000.0 -1.18933e+12 -746735000000.0 -1.43137e+12 -3.61684e+12 -1.15701e+12 -1.35415e+12 -847128000000.0 -2.21692e+12 -1.56641e+12 -2.15175e+12 -3.28099e+12 -2.17711e+12 -3.82631e+12 -3.33489e+12 -1.8608e+12 -2.45628e+12 -3.49769e+12 -1.66167e+12 -2.40483e+12 -4.05652e+12 -3.39138e+12 -2.34997e+12 -2.46826e+12 -2.4054e+12 -2.56509e+12 -2.21609e+12 -3.50664e+12 -4.06457e+12 -3.33334e+12 -359864000000.0 -1.76493e+12 -4.64797e+12 -2.56224e+12 -1.83856e+12 -2.07921e+12 -3.62678e+12 -3.53376e+12 -1.66782e+12 -2.55483e+12 -5.36237e+12 -2.02184e+12 -3.94615e+12 -4.965e+12 -4.72826e+12 -4.46203e+12 -2.3106e+12 -3.04981e+12 -3.54014e+12 -2.97995e+12 -2.9067e+12 -3.21428e+12 -4.1429e+12 -3.08256e+12 -2.74481e+12 -4.73219e+12 -3.23021e+12 -3.65398e+12 -4.72888e+12 -7.31437e+12 -3.02311e+12 -4.84785e+12 -3.59177e+12 -5.84174e+12 -2.82995e+12 -2.91205e+12 -2.57302e+12 -3.04116e+12 -3.17538e+12 -5.07874e+12 -3.59045e+12 -2.82819e+12 -3.87474e+12 -8.36195e+12 -2.9748e+12 -6.90868e+12 -3.6524e+12 -5.02521e+12 -3.79021e+12 -3.08025e+12 -6.00118e+12 -6.0723e+12 -3.39317e+12 -1.06923e+12 -3.84649e+12 -4.0227e+12 -2.16439e+12 -2.71966e+12 -3.37996e+12 -2.13146e+12 -2.04265e+12 -4.3224e+12 -1.76265e+12 -2.8133e+12 -2.18092e+12 -2.32524e+12 -2.37273e+12 -1.53623e+12 -2.81445e+12 -3.90476e+12 -2.68902e+12 -865108000000.0 -2.03478e+12 -2.37363e+12 -4.95608e+12 -194378000000.0 -1.49692e+12 -1.79034e+12 -2.76921e+12 -1.95519e+12 -2.62993e+12 -604879000000.0 -2.51548e+12 -1.36947e+12 -148573000000.0 -1.02085e+12 -1.66315e+12 -1.06974e+12 -880542000000.0 -1.59094e+12 -537375000000.0 -828400000000.0 -1.79163e+12 -783589000000.0 -1.99977e+12 -295333000000.0 -1.06916e+12 -344202000000.0 -1.21556e+12 -992531000000.0 -1.23581e+12 -1.33044e+12 -1.03358e+12 -1.05528e+12 -2.64967e+12 -627059000000.0 -2.16928e+12 -2.66006e+12 -1.18894e+12 -2.01429e+12 -1.72323e+12 -1.56024e+12 -1.09432e+12 -1.44561e+12 -1.99316e+12 -1.47742e+12 -3.31684e+12 -2.72566e+12 -1.72767e+12 -2.09463e+12 -2.93912e+12 -4.12255e+12 -4.85668e+12 -2.98198e+12 -1.1653e+12 -3.24958e+12 -4.1497e+12 -3.10937e+12 -3.07319e+12 -2.49479e+12 -5.11743e+12 -1.93139e+12 -1.61603e+12 -3.9077e+12 -3.14616e+12 -1.59901e+12 -3.4614e+12 -4.32308e+12 -4.09723e+12 -3.24459e+12 -2.65097e+12 -1.92912e+12 -3.32502e+12 -3.33139e+12 -4.8315e+12 -6.2396e+12 -6.01876e+12 -3.3396e+12 -3.87956e+12 -3.05932e+12 -6.31899e+12 -2.50884e+12 -4.67364e+12 -2.4074e+12 -3.54882e+12 -3.90839e+12 -3.00585e+12 -4.02903e+12 -2.34032e+12 -1.31572e+12 -2.09963e+12 -3.32261e+12 -2.85816e+12 -3.55526e+12 -4.19768e+12 -1.81665e+12 -1.9651e+12 -2.75848e+12 -2.41734e+12 -1.2501e+12 -3.51064e+12 -2.57142e+12 -3.49448e+12 -4.23455e+12 -2.94429e+12 -2.97799e+12 -1.92198e+12 -3.15974e+12 -2.37827e+12 -1.90405e+12 -2.29843e+12 -2.26685e+12 -1.53392e+12 -3.25543e+12 -2.48878e+12 -2.70295e+12 -1.62707e+12 -1.77911e+12 -3.22385e+12 -3.16518e+12 -1.78797e+12 -1.16236e+12 -2.08849e+12 -2.11548e+12 -1.77541e+12 -1.55743e+12 -1.95693e+12 -2.70068e+12 -3.11104e+12 -1.40005e+12 -1.20059e+12 -1.60091e+12 -759571000000.0 -583959000000.0 -1.27169e+12 -1.63068e+12 -1.15252e+12 -980376000000.0 -536078000000.0 -560211000000.0 -775168000000.0 -979118000000.0 -750643000000.0 -291950000000.0 -416761000000.0 -384324000000.0 -429537000000.0 -852784000000.0 -613694000000.0 -883307000000.0 -908493000000.0 -335944000000.0 -395436000000.0 -1.07941e+12 -1.30386e+12 -1.04933e+12 -934246000000.0 -831182000000.0 -1.38739e+12 -428458000000.0 -1.23778e+12 -2.20594e+12 -1.43371e+12 -1.44664e+12 -2.89597e+12 -3.4841e+12 -1.6535e+12 -2.37291e+12 -1.2355e+12 -1.87846e+12 -2.05754e+12 -1.80475e+12 -1.79869e+12 -1.38415e+12 -1.35996e+12 -3.71376e+12 -3.35078e+12 -3.79874e+12 -1.85504e+12 -2.81836e+12 -1.9365e+12 -3.51602e+12 -1.51906e+12 -2.94531e+12 -3.88672e+12 -2.89719e+12 -4.34601e+12 -2.60217e+12 -2.35132e+12 -1.16792e+12 -2.47477e+12 -3.14211e+12 -3.36755e+12 -2.22313e+12 -3.1331e+12 -1.75503e+12 -4.11477e+12 -3.52975e+12 -3.46579e+12 -2.71329e+12 -2.71301e+12 -4.68062e+12 -2.90705e+12 -1.70693e+12 -3.80157e+12 -2.69395e+12 -3.40819e+12 -1.84262e+12 -2.03365e+12 -1.63112e+12 -1.03142e+12 -4.66894e+12 -552673000000.0 -2.54838e+12 -1.97258e+12 -1.83999e+12 -2.92215e+12 -2.27156e+12 -1.61469e+12 -3.03191e+12 -723883000000.0 -3.07897e+12 -3.1977e+12 -3.03794e+12 -1.15632e+12 -2.68569e+12 -2.11527e+12 -2.41733e+12 -1.41588e+12 -1.49094e+12 -1.03554e+12 -4.49151e+12 -1.19059e+12 -1.86242e+12 -490015000000.0 -1.2964e+12 -1.49027e+12 -1.8521e+12 -1.43419e+12 -1.64766e+12 -605971000000.0 -2.03514e+12 -1.23499e+12 -666731000000.0 -670357000000.0 -729562000000.0 -1.15044e+12 -299936000000.0 -784083000000.0 -1.0218e+12 -299785000000.0 -287773000000.0 -364027000000.0 -287298000000.0 -274766000000.0 -331800000000.0 -175809000000.0 -166239000000.0 -137088000000.0 -230174000000.0 -508520000000.0 -193429000000.0 -394257000000.0 -229291000000.0 -810529000000.0 -115797000000.0 -382919000000.0 -746037000000.0 -369824000000.0 -1.41447e+12 -1.22708e+12 -1.1639e+12 -2.01647e+12 -1.50301e+12 -2.06983e+12 -2.18003e+12 -1.36096e+12 -1.50005e+12 -2.79436e+12 -2.88128e+12 -860679000000.0 -1.99789e+12 -1.98544e+12 -2.13539e+12 -1.22164e+12 -1.63543e+12 -2.33844e+12 -3.20851e+12 -3.71009e+12 -2.2745e+12 -2.29343e+12 -1.74771e+12 -2.20416e+12 -2.25293e+12 -2.26961e+12 -1.68831e+12 -1.59899e+12 -2.14044e+12 -3.15354e+12 -2.03628e+12 -2.29235e+12 -2.04462e+12 -1.11581e+12 -1.55704e+12 -3.50665e+12 -2.13696e+12 -1.74572e+12 -1.59702e+12 -1.28722e+12 -1.60362e+12 -1.44413e+12 -2.24783e+12 -1.20297e+12 -2.5299e+12 -1.04144e+12 -1.9078e+12 -1.25773e+12 -1.21057e+12 -424793000000.0 -1.3221e+12 -1.81151e+12 -1.95596e+12 -1.98473e+12 -1.79e+12 -1.06182e+12 -1.73789e+12 -1.32527e+12 -1.96913e+12 -1.45587e+12 -1.26291e+12 -1.61221e+12 -1.28075e+12 -1.27037e+12 -1.73635e+12 -1.30629e+12 -2.23327e+12 -1.30576e+12 -613381000000.0 -1.04943e+12 -814454000000.0 -933104000000.0 -920273000000.0 -1.10682e+12 -292818000000.0 -419804000000.0 -254522000000.0 -681222000000.0 -331433000000.0 -140258000000.0 -241482000000.0 -229410000000.0 -683154000000.0 -518361000000.0 -218134000000.0 -96087000000.0 -1.43641e+12 -922186000000.0 -717138000000.0 -424945000000.0 -930324000000.0 -654301000000.0 -250038000000.0 -623573000000.0 -1.36269e+12 -701554000000.0 -1.41143e+12 -1.20891e+12 -1.30695e+12 -1.40548e+12 -1.68352e+12 -1.26906e+12 -1.4393e+12 -1.98795e+12 -1.1139e+12 -1.18968e+12 -2.21492e+12 -1.8705e+12 -1.9306e+12 -1.37484e+12 -2.05357e+12 -2.7323e+12 -1.41338e+12 -1.50863e+12 -380949000000.0 -1.14089e+12 -1.78271e+12 -1.4526e+12 -1.64087e+12 -2.34043e+12 -2.32726e+12 -1.30248e+12 -1.44919e+12 -1.98574e+12 -1.67269e+12 -1.1303e+12 -764354000000.0 -1.83389e+12 -447609000000.0 -446017000000.0 -1.28528e+12 -654184000000.0 -568083000000.0 -2.47217e+12 -420593000000.0 -2.00283e+12 -703560000000.0 -1.23268e+12 -1.20611e+12 -461143000000.0 -1.34494e+12 -777145000000.0 -1.75103e+12 -1.24563e+12 -855347000000.0 -932749000000.0 -1.11344e+12 -1.0233e+12 -918198000000.0 -348021000000.0 -1.01729e+12 -330122000000.0 -541095000000.0 -519766000000.0 -266492000000.0 -311205000000.0 -425717000000.0 -259911000000.0 -117347000000.0 -247897000000.0 -291063000000.0 -122648000000.0 -283534000000.0 -265381000000.0 -465568000000.0 -246389000000.0 -329260000000.0 -487089000000.0 -1.0244e+12 -669208000000.0 -419743000000.0 -911249000000.0 -1.16554e+12 -1.04678e+12 -856054000000.0 -691521000000.0 -593061000000.0 -1.1392e+12 -571983000000.0 -2.1065e+12 -1.43088e+12 -785585000000.0 -825625000000.0 -1.37209e+12 -825104000000.0 -1.29555e+12 -736964000000.0 -1.02729e+12 -1.05765e+12 -1.09594e+12 -359921000000.0 -1.24113e+12 -1.34108e+12 -945851000000.0 -1.65065e+12 -750644000000.0 -401580000000.0 -761363000000.0 -516179000000.0 -500031000000.0 -433632000000.0 -190221000000.0 -655908000000.0 -626570000000.0 -445785000000.0 -282525000000.0 -210154000000.0 -302217000000.0 -948926000000.0 -721622000000.0 -950218000000.0 -510841000000.0 -367472000000.0 -137117000000.0 -70821600000.0 -139461000000.0 -267776000000.0 -327022000000.0 -231864000000.0 -152621000000.0 -620701000000.0 -427351000000.0 -457359000000.0 -244742000000.0 -1.30155e+12 -564889000000.0 -390986000000.0 -494031000000.0 -488900000000.0 -1.09717e+12 -876568000000.0 -829440000000.0 -899531000000.0 -558583000000.0 -649541000000.0 -676188000000.0 -435025000000.0 -35807500000.0 -39324600000.0 -191855000000.0 -187287000000.0 -87211200000.0 -250751000000.0 -275263000000.0 -230120000000.0 -85796200000.0 -442986000000.0 -259009000000.0 -444956000000.0 -327654000000.0 -183422000000.0 -288296000000.0 -245706000000.0 -268611000000.0 -254334000000.0 -326527000000.0 -206241000000.0 -147743000000.0 -102777000000.0 