# vtk DataFile Version 2.0
Time step 43
ASCII
DATASET UNSTRUCTURED_GRID
POINTS 5000 float
202703.0 331869.0 0
207551.0 329888.0 0
213322.0 330818.0 0
281172.0 332194.0 0
288541.0 329360.0 0
297464.0 330198.0 0
202416.0 336921.0 0
209046.0 333252.0 0
206309.0 334665.0 0
211371.0 336009.0 0
216788.0 335438.0 0
221790.0 333669.0 0
227895.0 335628.0 0
231408.0 333520.0 0
232024.0 336817.0 0
236035.0 334413.0 0
241396.0 336742.0 0
266615.0 335707.0 0
271738.0 333406.0 0
276932.0 336741.0 0
286988.0 335034.0 0
297176.0 335461.0 0
203015.0 342179.0 0
207316.0 338895.0 0
214321.0 340097.0 0
219928.0 340104.0 0
223971.0 337576.0 0
225398.0 341625.0 0
229656.0 339988.0 0
235232.0 339950.0 0
240064.0 341956.0 0
245199.0 341524.0 0
250437.0 337754.0 0
256792.0 338345.0 0
261824.0 337706.0 0
261556.0 342094.0 0
265240.0 340282.0 0
269469.0 340207.0 0
272588.0 337789.0 0
274075.0 341810.0 0
278749.0 341326.0 0
282223.0 338112.0 0
283843.0 341792.0 0
286368.0 339826.0 0
289696.0 341249.0 0
292153.0 337430.0 0
296657.0 341487.0 0
201908.0 346745.0 0
206308.0 346616.0 0
210089.0 343165.0 0
213195.0 347397.0 0
216881.0 344129.0 0
222030.0 345608.0 0
227864.0 346208.0 0
231907.0 343534.0 0
232533.0 347655.0 0
236142.0 344981.0 0
240858.0 347267.0 0
249288.0 343140.0 0
246245.0 346688.0 0
253347.0 342918.0 0
251042.0 346859.0 0
257631.0 342963.0 0
255950.0 347077.0 0
260533.0 346430.0 0
265434.0 345138.0 0
269991.0 344208.0 0
273355.0 346822.0 0
277320.0 345039.0 0
281704.0 344923.0 0
286529.0 344415.0 0
290431.0 344616.0 0
293762.0 345686.0 0
203287.0 350903.0 0
209315.0 351473.0 0
217902.0 348366.0 0
221694.0 351563.0 0
224715.0 348754.0 0
227277.0 351257.0 0
231307.0 351044.0 0
236364.0 349528.0 0
244065.0 351314.0 0
248836.0 351189.0 0
253337.0 350880.0 0
258287.0 351503.0 0
263725.0 350811.0 0
269092.0 347921.0 0
268629.0 351572.0 0
271352.0 350155.0 0
274477.0 351039.0 0
279044.0 349630.0 0
284717.0 349324.0 0
290144.0 348790.0 0
291413.0 352745.0 0
296216.0 350465.0 0
202013.0 355022.0 0
206017.0 355868.0 0
211240.0 357153.0 0
215596.0 353144.0 0
220249.0 356959.0 0
225109.0 355850.0 0
234463.0 353097.0 0
230410.0 355447.0 0
239253.0 353682.0 0
243087.0 354857.0 0
246784.0 355646.0 0
251585.0 355499.0 0
255172.0 353927.0 0
256524.0 357021.0 0
261026.0 356334.0 0
266938.0 356667.0 0
271774.0 354108.0 0
276969.0 355767.0 0
282061.0 353527.0 0
281670.0 357431.0 0
287857.0 352710.0 0
285420.0 356063.0 0
289783.0 355920.0 0
293417.0 355244.0 0
297552.0 355849.0 0
202041.0 358756.0 0
202291.0 362613.0 0
207263.0 360935.0 0
212928.0 362719.0 0
215958.0 358788.0 0
223545.0 361180.0 0
227841.0 359498.0 0
231073.0 359777.0 0
235452.0 358281.0 0
239839.0 359222.0 0
242892.0 357730.0 0
242775.0 362127.0 0
245977.0 359688.0 0
249496.0 359459.0 0
253847.0 360084.0 0
251223.0 363011.0 0
258575.0 361126.0 0
263581.0 361483.0 0
268573.0 362047.0 0
271813.0 358765.0 0
274893.0 361082.0 0
278132.0 360237.0 0
277643.0 362810.0 0
280441.0 360323.0 0
284020.0 360956.0 0
287620.0 359153.0 0
291097.0 359674.0 0
294568.0 358297.0 0
294287.0 362648.0 0
297866.0 359906.0 0
201932.0 366714.0 0
205277.0 365304.0 0
209337.0 365369.0 0
216389.0 367619.0 0
218310.0 362568.0 0
221264.0 364588.0 0
221314.0 368419.0 0
228442.0 363157.0 0
225475.0 366332.0 0
230374.0 367143.0 0
232871.0 363355.0 0
238166.0 364002.0 0
234870.0 368117.0 0
242899.0 366845.0 0
247117.0 364018.0 0
250966.0 366976.0 0
255371.0 365106.0 0
260506.0 366058.0 0
266055.0 366125.0 0
271854.0 363195.0 0
270848.0 367614.0 0
275201.0 365504.0 0
280282.0 363548.0 0
283665.0 365692.0 0
288156.0 363276.0 0
291372.0 366505.0 0
295459.0 366536.0 0
298505.0 365822.0 0
298390.0 363207.0 0
202303.0 373423.0 0
201670.0 369800.0 0
204396.0 371551.0 0
206952.0 369259.0 0
211614.0 368705.0 0
210465.0 372257.0 0
219569.0 372907.0 0
224152.0 372061.0 0
227996.0 370488.0 0
232538.0 373007.0 0
239223.0 369242.0 0
243474.0 371978.0 0
246917.0 368716.0 0
250077.0 370340.0 0
254305.0 371107.0 0
259353.0 371068.0 0
263620.0 369712.0 0
267156.0 370837.0 0
271353.0 372810.0 0
278980.0 367834.0 0
275161.0 370393.0 0
278741.0 372694.0 0
282280.0 370069.0 0
287060.0 367544.0 0
285486.0 371499.0 0
289583.0 371109.0 0
294219.0 370535.0 0
297906.0 368956.0 0
297837.0 372536.0 0
196957.0 379847.0 0
200514.0 377776.0 0
204185.0 375868.0 0
203500.0 378927.0 0
207590.0 374540.0 0
214599.0 373369.0 0
211250.0 375591.0 0
218378.0 377763.0 0
223284.0 376977.0 0
227649.0 375063.0 0
230939.0 377805.0 0
234771.0 378515.0 0
238125.0 374197.0 0
242601.0 376519.0 0
248371.0 372986.0 0
246903.0 376598.0 0
251714.0 376122.0 0
257635.0 377243.0 0
263001.0 373994.0 0
267435.0 375710.0 0
271574.0 377970.0 0
275345.0 375229.0 0
282608.0 374649.0 0
286902.0 374875.0 0
288265.0 377518.0 0
291483.0 374727.0 0
298904.0 376559.0 0
295269.0 375454.0 0
296323.0 379594.0 0
301419.0 379994.0 0
189822.0 384370.0 0
186754.0 386074.0 0
193568.0 382474.0 0
200404.0 380952.0 0
198000.0 383448.0 0
201763.0 384681.0 0
202710.0 381806.0 0
206528.0 378787.0 0
205326.0 381877.0 0
207968.0 382692.0 0
210042.0 379237.0 0
210994.0 383677.0 0
214056.0 378738.0 0
212876.0 381921.0 0
216221.0 383366.0 0
220839.0 382134.0 0
224657.0 381480.0 0
227634.0 379302.0 0
227417.0 383409.0 0
231392.0 382442.0 0
239217.0 379377.0 0
236340.0 383714.0 0
244313.0 380792.0 0
240852.0 383074.0 0
249420.0 380153.0 0
247357.0 383776.0 0
253377.0 380557.0 0
263371.0 379000.0 0
260537.0 381917.0 0
264127.0 383686.0 0
267564.0 380857.0 0
271472.0 383055.0 0
275477.0 380372.0 0
279379.0 378031.0 0
281167.0 382845.0 0
284469.0 379060.0 0
288065.0 382084.0 0
284833.0 383846.0 0
292107.0 379583.0 0
294196.0 382768.0 0
298078.0 383203.0 0
302092.0 384082.0 0
305559.0 381434.0 0
309051.0 384039.0 0
178209.0 391075.0 0
183719.0 387441.0 0
181327.0 389835.0 0
185704.0 389030.0 0
187322.0 390472.0 0
189838.0 388745.0 0
193259.0 386530.0 0
194033.0 389442.0 0
196998.0 386680.0 0
196948.0 390174.0 0
200970.0 388195.0 0
205263.0 385259.0 0
205602.0 389465.0 0
208639.0 385991.0 0
210205.0 388688.0 0
212791.0 386485.0 0
219532.0 387257.0 0
215845.0 388531.0 0
224024.0 386367.0 0
228895.0 387160.0 0
233158.0 387992.0 0
238130.0 388562.0 0
240339.0 385894.0 0
243760.0 385709.0 0
241654.0 388630.0 0
247270.0 386900.0 0
249729.0 389202.0 0
251412.0 384878.0 0
256503.0 384408.0 0
260835.0 386134.0 0
267614.0 385705.0 0
270400.0 387311.0 0
273668.0 386653.0 0
276993.0 384659.0 0
283562.0 387577.0 0
279828.0 387394.0 0
288039.0 387281.0 0
291160.0 384495.0 0
291455.0 389410.0 0
294696.0 386602.0 0
299977.0 387679.0 0
305506.0 386415.0 0
304485.0 390434.0 0
312543.0 386656.0 0
309401.0 389010.0 0
311312.0 390663.0 0
316416.0 388824.0 0
319981.0 390135.0 0
170214.0 396238.0 0
172933.0 394236.0 0
175689.0 392817.0 0
180108.0 393438.0 0
177469.0 395876.0 0
183718.0 391358.0 0
182527.0 394659.0 0
185829.0 393008.0 0
188726.0 392452.0 0
186793.0 395755.0 0
189721.0 395248.0 0
192350.0 392092.0 0
193624.0 396242.0 0
197029.0 393438.0 0
201134.0 392190.0 0
204635.0 394292.0 0
208962.0 392912.0 0
213049.0 391501.0 0
214796.0 394945.0 0
217477.0 391668.0 0
221409.0 391083.0 0
225846.0 391176.0 0
230072.0 391713.0 0
233285.0 392865.0 0
236126.0 391222.0 0
237301.0 394559.0 0
240642.0 392473.0 0
245165.0 390556.0 0
249259.0 394160.0 0
254283.0 390225.0 0
259172.0 389913.0 0
264200.0 389092.0 0
262102.0 393326.0 0
268428.0 390305.0 0
266213.0 393522.0 0
272415.0 390553.0 0
270598.0 394425.0 0
276553.0 389970.0 0
274569.0 393369.0 0
277975.0 394398.0 0
280335.0 391165.0 0
283408.0 391134.0 0
282441.0 394392.0 0
286468.0 392014.0 0
289443.0 391984.0 0
292472.0 393663.0 0
296329.0 391255.0 0
295434.0 395535.0 0
300900.0 391970.0 0
298879.0 394946.0 0
304080.0 394423.0 0
308050.0 391977.0 0
307573.0 395697.0 0
311318.0 394021.0 0
313932.0 391363.0 0
315760.0 393951.0 0
318783.0 393020.0 0
322882.0 391153.0 0
321948.0 393409.0 0
325281.0 394258.0 0
328987.0 395241.0 0
164810.0 399762.0 0
162056.0 401364.0 0
167322.0 397850.0 0
169964.0 400185.0 0
173702.0 397518.0 0
180647.0 398133.0 0
177015.0 400365.0 0
184277.0 396682.0 0
183783.0 400067.0 0
187175.0 398553.0 0
190374.0 398780.0 0
194496.0 399775.0 0
197551.0 397252.0 0
197167.0 400798.0 0
200250.0 399418.0 0
200878.0 395666.0 0
203459.0 398187.0 0
207353.0 397338.0 0
209372.0 400498.0 0
211290.0 396236.0 0
213240.0 399265.0 0
219054.0 395296.0 0
216858.0 398539.0 0
223144.0 395852.0 0
227541.0 395975.0 0
231237.0 396299.0 0
234467.0 396322.0 0
236857.0 398747.0 0
240412.0 396911.0 0
244113.0 395210.0 0
243312.0 399173.0 0
246929.0 398374.0 0
253484.0 395362.0 0
257664.0 394693.0 0
255299.0 398487.0 0
258627.0 399574.0 0
264037.0 396947.0 0
260825.0 397140.0 0
267456.0 397136.0 0
270408.0 399280.0 0
274504.0 397446.0 0
278437.0 399245.0 0
280559.0 396712.0 0
283007.0 398963.0 0
285511.0 396159.0 0
287183.0 399975.0 0
289412.0 396056.0 0
293372.0 398103.0 0
297659.0 398616.0 0
301504.0 396216.0 0
301891.0 399158.0 0
304915.0 397938.0 0
308842.0 398629.0 0
306014.0 400986.0 0
312249.0 397277.0 0
312745.0 400523.0 0
316046.0 397251.0 0
316631.0 401165.0 0
319500.0 396532.0 0
322278.0 396435.0 0
323231.0 399199.0 0
320230.0 399541.0 0
326527.0 397922.0 0
326862.0 401201.0 0
331187.0 398296.0 0
334652.0 399225.0 0
337573.0 400846.0 0
153605.0 406537.0 0
159306.0 403124.0 0
156574.0 405245.0 0
163673.0 403444.0 0
161316.0 405143.0 0
164373.0 405523.0 0
166598.0 402180.0 0
169971.0 403550.0 0
167475.0 405374.0 0
173585.0 402309.0 0
174437.0 406662.0 0
171526.0 405863.0 0
179732.0 402579.0 0
176566.0 404464.0 0
183256.0 404581.0 0
187446.0 402135.0 0
188482.0 405694.0 0
191980.0 402449.0 0
196236.0 404250.0 0
200976.0 402966.0 0
203931.0 405388.0 0
205118.0 401162.0 0
206844.0 403342.0 0
209328.0 404396.0 0
212674.0 403497.0 0
216825.0 402610.0 0
220534.0 404423.0 0
220845.0 400142.0 0
223697.0 403074.0 0
225179.0 400054.0 0
228820.0 400868.0 0
226825.0 405077.0 0
232842.0 400177.0 0
231170.0 404988.0 0
235586.0 403128.0 0
239733.0 401521.0 0
243623.0 402474.0 0
247546.0 402400.0 0
251287.0 399519.0 0
252405.0 403653.0 0
249269.0 405527.0 0
255750.0 401984.0 0
262218.0 400406.0 0
259989.0 404220.0 0
265757.0 400875.0 0
269327.0 403558.0 0
273891.0 402218.0 0
277459.0 402999.0 0
281309.0 402889.0 0
285203.0 402984.0 0
288574.0 405065.0 0
290807.0 400630.0 0
291851.0 404069.0 0
295500.0 402632.0 0
299095.0 404241.0 0
299713.0 401852.0 0
302990.0 403157.0 0
307165.0 405340.0 0
310045.0 402621.0 0
314143.0 404765.0 0
318907.0 404983.0 0
323821.0 402801.0 0
320914.0 402391.0 0
326610.0 404896.0 0
330674.0 402667.0 0
335114.0 401959.0 0
335086.0 404602.0 0
338025.0 405282.0 0
339705.0 402750.0 0
342670.0 404660.0 0
345645.0 406505.0 0
145309.0 411452.0 0
148171.0 410743.0 0
151075.0 408595.0 0
155063.0 408969.0 0
152809.0 411614.0 0
158485.0 407545.0 0
157776.0 410338.0 0
161960.0 408049.0 0
162984.0 410862.0 0
165072.0 407870.0 0
168294.0 408185.0 0
166393.0 410620.0 0
170960.0 408827.0 0
174262.0 409862.0 0
178745.0 407422.0 0
176905.0 411589.0 0
180217.0 411310.0 0
182157.0 408579.0 0
183164.0 410945.0 0
185338.0 408143.0 0
189160.0 410055.0 0
192392.0 406739.0 0
193493.0 410203.0 0
195956.0 408235.0 0
199562.0 407681.0 0
203233.0 409464.0 0
207070.0 407049.0 0
210849.0 407655.0 0
214822.0 407536.0 0
212133.0 410552.0 0
218067.0 406071.0 0
219782.0 409273.0 0
223017.0 406426.0 0
224893.0 409310.0 0
228682.0 409332.0 0
234595.0 406677.0 0
232455.0 409715.0 0
238390.0 406317.0 0
236034.0 409384.0 0
241567.0 404777.0 0
245067.0 405653.0 0
242213.0 408186.0 0
247182.0 409347.0 0
252772.0 408548.0 0
255745.0 405224.0 0
257787.0 408636.0 0
264623.0 405633.0 0
261969.0 409493.0 0
268531.0 408283.0 0
272497.0 406456.0 0
275789.0 405831.0 0
279181.0 409853.0 0
279413.0 406689.0 0
283704.0 407220.0 0
281866.0 410919.0 0
287198.0 409053.0 0
290658.0 409298.0 0
293576.0 407222.0 0
295964.0 409679.0 0
297760.0 407362.0 0
300975.0 406089.0 0
301142.0 409370.0 0
304067.0 407177.0 0
304425.0 410354.0 0
307743.0 409513.0 0
311241.0 407520.0 0
314442.0 410896.0 0
316189.0 407705.0 0
319018.0 408616.0 0
322608.0 407158.0 0
327424.0 408541.0 0
330789.0 406489.0 0
333751.0 408210.0 0
330775.0 409898.0 0
337220.0 408254.0 0
336578.0 410895.0 0
341176.0 407251.0 0
340077.0 409693.0 0
344584.0 409223.0 0
342998.0 411359.0 0
348927.0 408121.0 0
348126.0 410939.0 0
352070.0 410197.0 0
355066.0 411739.0 0
138418.0 415611.0 0
143409.0 412901.0 0
141126.0 415005.0 0
145670.0 414944.0 0
148740.0 414306.0 0
152133.0 415024.0 0
154500.0 415200.0 0
155776.0 412866.0 0
160041.0 411946.0 0
157939.0 414916.0 0
161274.0 414691.0 0
163486.0 413553.0 0
169687.0 411674.0 0
166565.0 414822.0 0
172547.0 413198.0 0
175562.0 414880.0 0
179349.0 415120.0 0
185654.0 411532.0 0
183290.0 414254.0 0
187245.0 414464.0 0
192013.0 414125.0 0
196718.0 411652.0 0
199887.0 411765.0 0
196437.0 415597.0 0
200376.0 414783.0 0
203027.0 413040.0 0
207621.0 411847.0 0
211962.0 414253.0 0
215437.0 411823.0 0
218782.0 414246.0 0
222665.0 412417.0 0
226570.0 413674.0 0
230483.0 413504.0 0
235290.0 413747.0 0
239292.0 411044.0 0
243289.0 411662.0 0
246128.0 414272.0 0
250240.0 413051.0 0
254222.0 412760.0 0
256863.0 411951.0 0
259715.0 412260.0 0
265426.0 410594.0 0
268999.0 413872.0 0
271850.0 410294.0 0
273947.0 413826.0 0
275626.0 409748.0 0
278316.0 413672.0 0
282507.0 415197.0 0
285319.0 412209.0 0
288964.0 412837.0 0
293889.0 412969.0 0
298725.0 412594.0 0
302370.0 412899.0 0
302390.0 416367.0 0
305620.0 413482.0 0
310360.0 413417.0 0
314045.0 415852.0 0
318946.0 411454.0 0
317080.0 414674.0 0
320738.0 416354.0 0
323583.0 412383.0 0
329177.0 412832.0 0
327270.0 415991.0 0
333524.0 412585.0 0
331744.0 416029.0 0
338933.0 412460.0 0
336550.0 415198.0 0
342086.0 414279.0 0
345584.0 412844.0 0
349069.0 414155.0 0
346024.0 416188.0 0
351631.0 412805.0 0
350989.0 416357.0 0
353626.0 414748.0 0
357806.0 413462.0 0
356392.0 415652.0 0
360689.0 415243.0 0
131914.0 419755.0 0
129883.0 422156.0 0
134203.0 418525.0 0
133510.0 421875.0 0
136309.0 417121.0 0
138598.0 419051.0 0
135560.0 420802.0 0
142895.0 417237.0 0
141604.0 420395.0 0
145799.0 418059.0 0
148859.0 418005.0 0
145051.0 421510.0 0
152161.0 417953.0 0
152058.0 421278.0 0
154846.0 420642.0 0
155876.0 417730.0 0
159865.0 417375.0 0
158766.0 420052.0 0
163163.0 417672.0 0
161808.0 421410.0 0
170308.0 416500.0 0
166628.0 420051.0 0
174239.0 418982.0 0
178101.0 418437.0 0
181823.0 418100.0 0
179857.0 421144.0 0
183024.0 421280.0 0
184896.0 417729.0 0
185798.0 420402.0 0
188810.0 418173.0 0
191035.0 420476.0 0
192774.0 417888.0 0
195106.0 420655.0 0
199588.0 418766.0 0
204190.0 416774.0 0
208303.0 416616.0 0
207264.0 420719.0 0
211418.0 418653.0 0
215178.0 416332.0 0
214942.0 420633.0 0
218798.0 419156.0 0
222484.0 416124.0 0
225468.0 417678.0 0
222577.0 420056.0 0
228796.0 417805.0 0
232229.0 417170.0 0
236305.0 418869.0 0
241027.0 416263.0 0
245447.0 418394.0 0
248800.0 417365.0 0
253103.0 416739.0 0
257761.0 416079.0 0
263364.0 415518.0 0
260024.0 420499.0 0
268122.0 419015.0 0
272410.0 417572.0 0
275937.0 416681.0 0
275897.0 420865.0 0
279700.0 418122.0 0
284036.0 419959.0 0
286554.0 416518.0 0
290896.0 417051.0 0
294231.0 420156.0 0
294965.0 417017.0 0
298493.0 417662.0 0
300091.0 421188.0 0
303067.0 420784.0 0
306889.0 417956.0 0
311879.0 419290.0 0
316928.0 419496.0 0
324767.0 418074.0 0
321721.0 420849.0 0
327608.0 420494.0 0
329496.0 417850.0 0
334233.0 418251.0 0
331605.0 419995.0 0
337158.0 419347.0 0
340105.0 417576.0 0
344012.0 419350.0 0
349078.0 418375.0 0
347154.0 420657.0 0
353300.0 418397.0 0
351166.0 421516.0 0
359361.0 416955.0 0
356531.0 419300.0 0
359274.0 421448.0 0
363449.0 417295.0 0
361624.0 419227.0 0
364546.0 421981.0 0
366295.0 419570.0 0
369576.0 421563.0 0
121030.0 427042.0 0
123960.0 425408.0 0
126658.0 423363.0 0
127720.0 426603.0 0
133873.0 423637.0 0
131146.0 425090.0 0
133636.0 427032.0 0
137387.0 422703.0 0
135778.0 424824.0 0
137747.0 426620.0 0
140214.0 423683.0 0
143972.0 424668.0 0
148635.0 422006.0 0
146672.0 426322.0 0
153613.0 424439.0 0
150257.0 425738.0 0
156829.0 422866.0 0
157755.0 425786.0 0
159912.0 423967.0 0
161393.0 426061.0 0
164885.0 424480.0 0
170164.0 421472.0 0
169223.0 425240.0 0
172664.0 423644.0 0
176420.0 423260.0 0
180844.0 425800.0 0
184759.0 423725.0 0
188035.0 422044.0 0
187692.0 425750.0 0
191195.0 423743.0 0
194934.0 425899.0 0
198830.0 423183.0 0
203075.0 421361.0 0
201693.0 425080.0 0
205288.0 424715.0 0
207983.0 424348.0 0
210931.0 423398.0 0
214991.0 424282.0 0
219158.0 424006.0 0
223006.0 423429.0 0
225977.0 421142.0 0
229269.0 422497.0 0
232742.0 421021.0 0
232390.0 425026.0 0
236116.0 424126.0 0
239653.0 421662.0 0
243352.0 421746.0 0
247885.0 421939.0 0
245273.0 425934.0 0
249149.0 426028.0 0
251542.0 420478.0 0
252398.0 424266.0 0
255828.0 421204.0 0
260697.0 424699.0 0
264252.0 421688.0 0
268652.0 424015.0 0
271633.0 421350.0 0
273773.0 425325.0 0
277942.0 424775.0 0
280262.0 422338.0 0
282860.0 423275.0 0
285240.0 424160.0 0
289149.0 421891.0 0
293687.0 424385.0 0
297428.0 422379.0 0
297531.0 426507.0 0
300943.0 424623.0 0
304780.0 425205.0 0
307637.0 422571.0 0
311304.0 423363.0 0
314969.0 423377.0 0
319040.0 424083.0 0
323024.0 425078.0 0
325219.0 422219.0 0
326751.0 425493.0 0
329846.0 423630.0 0
333104.0 422433.0 0
334011.0 425524.0 0
336415.0 422491.0 0
337413.0 426051.0 0
340324.0 422153.0 0
340629.0 425791.0 0
344582.0 423391.0 0
348357.0 424271.0 0
354602.0 422343.0 0
350727.0 426738.0 0
352392.0 424949.0 0
354736.0 425533.0 0
357378.0 424116.0 0
359753.0 426878.0 0
362291.0 424136.0 0
367296.0 423947.0 0
369057.0 426304.0 0
365484.0 426911.0 0
372332.0 423732.0 0
376383.0 424829.0 0
378958.0 426684.0 0
117812.0 429615.0 0
115089.0 432055.0 0
124098.0 428670.0 0
121418.0 430469.0 0
126526.0 429305.0 0
126979.0 432218.0 0
130434.0 428687.0 0
131100.0 431780.0 0
135667.0 430022.0 0
139438.0 430626.0 0
141268.0 427336.0 0
144445.0 429348.0 0
148017.0 429312.0 0
151690.0 429085.0 0
155029.0 427624.0 0
159168.0 428441.0 0
155938.0 430774.0 0
162991.0 429508.0 0
166690.0 428562.0 0
173216.0 427028.0 0
170403.0 429363.0 0
174460.0 430760.0 0
176857.0 427726.0 0
178613.0 430380.0 0
182246.0 430459.0 0
184448.0 427262.0 0
186499.0 430188.0 0
190968.0 428644.0 0
194825.0 431485.0 0
198618.0 427807.0 0
203305.0 428865.0 0
208218.0 427817.0 0
212345.0 427928.0 0
216585.0 427205.0 0
219778.0 428990.0 0
215889.0 430692.0 0
222168.0 426496.0 0
223810.0 429908.0 0
226027.0 425928.0 0
229779.0 427591.0 0
227284.0 430306.0 0
233786.0 428978.0 0
236898.0 427583.0 0
240701.0 426419.0 0
243775.0 429793.0 0
247781.0 429549.0 0
252334.0 428835.0 0
256667.0 425948.0 0
256168.0 430280.0 0
260601.0 429539.0 0
264705.0 426586.0 0
264182.0 431190.0 0
265886.0 429662.0 0
269914.0 428653.0 0
274418.0 429540.0 0
277689.0 428295.0 0
281772.0 426715.0 0
280492.0 430474.0 0
285748.0 427617.0 0
288116.0 426172.0 0
288649.0 429735.0 0
290990.0 427311.0 0
294064.0 428292.0 0
296929.0 430822.0 0
301924.0 429701.0 0
309268.0 426774.0 0
306216.0 428839.0 0
309418.0 430486.0 0
312916.0 426597.0 0
313053.0 430636.0 0
316676.0 427288.0 0
317422.0 431476.0 0
321259.0 428673.0 0
325489.0 428826.0 0
328777.0 428644.0 0
331356.0 427028.0 0
332842.0 430901.0 0
334658.0 427923.0 0
337271.0 429325.0 0
340399.0 428826.0 0
344108.0 427048.0 0
343272.0 429996.0 0
347185.0 427812.0 0
346816.0 431118.0 0
352910.0 427396.0 0
350408.0 429665.0 0
353875.0 430557.0 0
356245.0 428112.0 0
358926.0 430614.0 0
362996.0 428849.0 0
362039.0 431899.0 0
366766.0 430212.0 0
373994.0 427072.0 0
370817.0 429743.0 0
377167.0 427893.0 0
376281.0 430719.0 0
379134.0 431597.0 0
381230.0 428964.0 0
384120.0 430909.0 0
387339.0 431693.0 0
105718.0 436358.0 0
108475.0 435155.0 0
111435.0 433628.0 0
119160.0 432912.0 0
116448.0 436079.0 0
123338.0 433540.0 0
120157.0 435666.0 0
128428.0 435519.0 0
124924.0 437352.0 0
131462.0 435864.0 0
134934.0 434694.0 0
139003.0 435023.0 0
142566.0 433168.0 0
146198.0 432362.0 0
149344.0 432386.0 0
147081.0 435083.0 0
153312.0 433152.0 0
150076.0 435979.0 0
159280.0 432511.0 0
156339.0 435596.0 0
163330.0 433844.0 0
160096.0 436907.0 0
166774.0 432100.0 0
167374.0 435957.0 0
170690.0 432906.0 0
173959.0 434592.0 0
176884.0 433356.0 0
180577.0 434946.0 0
185052.0 433760.0 0
189776.0 432889.0 0
199363.0 431499.0 0
198187.0 435619.0 0
202754.0 434011.0 0
206432.0 431826.0 0
210001.0 432444.0 0
206690.0 435837.0 0
212982.0 431661.0 0
210096.0 436475.0 0
214354.0 435375.0 0
218294.0 432818.0 0
221340.0 432762.0 0
225541.0 435291.0 0
230333.0 431906.0 0
234102.0 433600.0 0
230500.0 435580.0 0
238048.0 431035.0 0
241777.0 433413.0 0
246416.0 434135.0 0
250381.0 432347.0 0
253675.0 433234.0 0
257682.0 434421.0 0
262525.0 434626.0 0
267805.0 433207.0 0
273156.0 433417.0 0
277344.0 432311.0 0
280905.0 434478.0 0
284728.0 431428.0 0
289033.0 432992.0 0
292094.0 431350.0 0
291793.0 436013.0 0
294863.0 434053.0 0
299485.0 434976.0 0
303501.0 434243.0 0
306704.0 432633.0 0
310614.0 434108.0 0
315531.0 435888.0 0
320833.0 433323.0 0
324845.0 432470.0 0
324771.0 436150.0 0
328883.0 432306.0 0
328536.0 435856.0 0
332812.0 435273.0 0
336335.0 432638.0 0
337024.0 436043.0 0
340067.0 432269.0 0
340726.0 435548.0 0
344068.0 433512.0 0
349740.0 432867.0 0
347992.0 435221.0 0
352380.0 433799.0 0
356991.0 433008.0 0
355513.0 436014.0 0
359877.0 434458.0 0
362529.0 436674.0 0
369553.0 433333.0 0
365622.0 434085.0 0
373841.0 432613.0 0
371616.0 435726.0 0
375609.0 435685.0 0
378651.0 434863.0 0
383005.0 434627.0 0
389966.0 434382.0 0
386838.0 435037.0 0
393038.0 434864.0 0
395767.0 437569.0 0
96393.8 441979.0 0
103156.0 437441.0 0
100334.0 440984.0 0
103438.0 439941.0 0
106168.0 438924.0 0
108485.0 441655.0 0
109241.0 438224.0 0
112772.0 437849.0 0
112301.0 441640.0 0
117263.0 439633.0 0
115449.0 441729.0 0
121194.0 438655.0 0
119420.0 441353.0 0
123651.0 441302.0 0
127675.0 439466.0 0
130335.0 438333.0 0
133583.0 438444.0 0
131838.0 441863.0 0
137269.0 439253.0 0
135270.0 441913.0 0
140862.0 438150.0 0
144161.0 436718.0 0
140108.0 441651.0 0
143704.0 441049.0 0
147929.0 439039.0 0
152662.0 437459.0 0
151681.0 441626.0 0
155971.0 439309.0 0
163806.0 438004.0 0
159565.0 440591.0 0
163553.0 442281.0 0
167878.0 440212.0 0
171135.0 437036.0 0
172048.0 440062.0 0
176091.0 438286.0 0
180021.0 439793.0 0
183878.0 438196.0 0
187626.0 436453.0 0
192734.0 436906.0 0
196392.0 439834.0 0
199270.0 439439.0 0
202948.0 438819.0 0
207616.0 440461.0 0
212071.0 439487.0 0
215658.0 439211.0 0
219440.0 436845.0 0
222419.0 439591.0 0
229194.0 439716.0 0
233489.0 438356.0 0
238112.0 436889.0 0
242952.0 438122.0 0
246635.0 439069.0 0
251084.0 437228.0 0
255594.0 438593.0 0
259730.0 438961.0 0
263339.0 439222.0 0
266437.0 437341.0 0
271353.0 438230.0 0
274796.0 440956.0 0
276759.0 436894.0 0
278617.0 441049.0 0
281177.0 438345.0 0
286331.0 436974.0 0
290663.0 439888.0 0
295961.0 437202.0 0
299509.0 439712.0 0
295019.0 441345.0 0
303351.0 438093.0 0
307314.0 436890.0 0
306207.0 440480.0 0
309097.0 440787.0 0
310943.0 437494.0 0
313195.0 440802.0 0
316776.0 441074.0 0
319043.0 439215.0 0
320818.0 436457.0 0
323371.0 440442.0 0
327277.0 438754.0 0
331426.0 439338.0 0
335726.0 439207.0 0
344623.0 437521.0 0
340517.0 439713.0 0
348135.0 438747.0 0
351217.0 437168.0 0
350496.0 441613.0 0
354325.0 439710.0 0
359095.0 438793.0 0
364513.0 439022.0 0
363185.0 441594.0 0
368105.0 438082.0 0
367175.0 441948.0 0
372523.0 439037.0 0
379690.0 437916.0 0
376142.0 439623.0 0
380123.0 442101.0 0
383390.0 438933.0 0
387076.0 438647.0 0
390742.0 438011.0 0
391253.0 440705.0 0
387613.0 441551.0 0
393626.0 436948.0 0
394716.0 441280.0 0
398390.0 440155.0 0
401830.0 441606.0 0
88511.7 447358.0 0
90960.5 445565.0 0
94185.8 444499.0 0
98704.2 443657.0 0
96934.4 446319.0 0
102571.0 443959.0 0
100156.0 446721.0 0
103684.0 446649.0 0
105461.0 442681.0 0
106203.0 445457.0 0
109019.0 444999.0 0
112307.0 445282.0 0
116822.0 445291.0 0
121344.0 444381.0 0
127325.0 443027.0 0
124791.0 445920.0 0
129589.0 446511.0 0
133185.0 445718.0 0
137581.0 445080.0 0
142495.0 445117.0 0
146913.0 443412.0 0
149572.0 445681.0 0
152769.0 446068.0 0
156040.0 443470.0 0
159814.0 444970.0 0
163128.0 446794.0 0
166661.0 444858.0 0
170522.0 443468.0 0
174215.0 442411.0 0
173681.0 446846.0 0
177786.0 443636.0 0
180950.0 446187.0 0
182852.0 442631.0 0
184745.0 446123.0 0
188171.0 441866.0 0
187697.0 446284.0 0
193632.0 442839.0 0
195284.0 446416.0 0
199114.0 443754.0 0
203910.0 443286.0 0
207102.0 445870.0 0
210327.0 443033.0 0
214200.0 442706.0 0
218691.0 442103.0 0
222296.0 442732.0 0
224279.0 444617.0 0
225384.0 440986.0 0
228129.0 444736.0 0
232223.0 442827.0 0
231219.0 445887.0 0
236252.0 442065.0 0
238908.0 445488.0 0
240364.0 441385.0 0
241766.0 444349.0 0
244453.0 442716.0 0
248961.0 442452.0 0
253006.0 441669.0 0
257345.0 443853.0 0
262494.0 443443.0 0
266989.0 441951.0 0
271167.0 443977.0 0
275843.0 445540.0 0
280313.0 444675.0 0
283899.0 442103.0 0
287360.0 445703.0 0
287948.0 442014.0 0
291088.0 444534.0 0
299737.0 444570.0 0
303490.0 442563.0 0
307233.0 444229.0 0
311388.0 444717.0 0
316013.0 444762.0 0
319594.0 442817.0 0
320041.0 446034.0 0
323160.0 444734.0 0
326053.0 446888.0 0
327722.0 442818.0 0
334938.0 442844.0 0
331854.0 443716.0 0
335072.0 446536.0 0
338266.0 442420.0 0
338432.0 445913.0 0
341672.0 444365.0 0
345399.0 442370.0 0
348988.0 445904.0 0
355089.0 443170.0 0
352448.0 445438.0 0
358862.0 443345.0 0
359777.0 447370.0 0
362980.0 445029.0 0
366797.0 445569.0 0
370648.0 445642.0 0
371065.0 442076.0 0
374846.0 442960.0 0
374276.0 446334.0 0
378558.0 445756.0 0
384413.0 442881.0 0
383009.0 447031.0 0
386728.0 445626.0 0
390005.0 444418.0 0
393955.0 444146.0 0
393962.0 446864.0 0
398786.0 444069.0 0
396641.0 445317.0 0
404807.0 443438.0 0
402060.0 446425.0 0
407694.0 445032.0 0
410430.0 447813.0 0
83396.3 449913.0 0
81748.0 452030.0 0
85886.8 448892.0 0
86519.1 452230.0 0
93246.4 448720.0 0
89798.0 449428.0 0
90845.3 452333.0 0
96251.9 450483.0 0
100298.0 450142.0 0
107909.0 448291.0 0
104472.0 449876.0 0
108926.0 452045.0 0
111210.0 448859.0 0
112368.0 452187.0 0
114648.0 449045.0 0
118554.0 449203.0 0
115926.0 452726.0 0
121256.0 447658.0 0
123238.0 448935.0 0
120784.0 451596.0 0
126753.0 449025.0 0
124475.0 452634.0 0
130694.0 450039.0 0
134508.0 449645.0 0
138019.0 450940.0 0
139964.0 448191.0 0
142353.0 449770.0 0
145808.0 447556.0 0
149542.0 449380.0 0
153337.0 449795.0 0
156277.0 447403.0 0
156703.0 450730.0 0
159488.0 449055.0 0
162483.0 450136.0 0
169387.0 447221.0 0
165933.0 448642.0 0
169657.0 451320.0 0
173812.0 450928.0 0
177699.0 448960.0 0
182380.0 449577.0 0
186881.0 449776.0 0
191252.0 446884.0 0
191079.0 451179.0 0
194355.0 449041.0 0
198021.0 448523.0 0
202453.0 447498.0 0
205352.0 451339.0 0
209433.0 449925.0 0
211855.0 446401.0 0
213889.0 450564.0 0
216451.0 446675.0 0
218385.0 451160.0 0
220972.0 446769.0 0
222629.0 451131.0 0
225160.0 447850.0 0
226649.0 450948.0 0
230191.0 449355.0 0
234584.0 447101.0 0
238309.0 450574.0 0
242364.0 447343.0 0
246714.0 446984.0 0
249397.0 451151.0 0
252150.0 446647.0 0
256781.0 449276.0 0
261272.0 447980.0 0
266490.0 447338.0 0
271622.0 448777.0 0
279897.0 448689.0 0
275830.0 450657.0 0
283194.0 450027.0 0
283879.0 446791.0 0
286815.0 449601.0 0
290710.0 449029.0 0
295614.0 447232.0 0
298411.0 451263.0 0
300257.0 448469.0 0
304025.0 447493.0 0
306100.0 451092.0 0
308808.0 448627.0 0
313730.0 448439.0 0
318032.0 448812.0 0
322709.0 449109.0 0
327380.0 451222.0 0
330813.0 447575.0 0
334484.0 450045.0 0
338430.0 449923.0 0
344950.0 447650.0 0
341367.0 447859.0 0
342597.0 451183.0 0
345771.0 451810.0 0
349155.0 450133.0 0
352752.0 448595.0 0
355879.0 446812.0 0
356857.0 450724.0 0
363819.0 448808.0 0
360986.0 451626.0 0
368250.0 449864.0 0
372256.0 449675.0 0
376722.0 450714.0 0
380810.0 450178.0 0
385498.0 450532.0 0
387602.0 448248.0 0
388992.0 452477.0 0
391167.0 448864.0 0
395099.0 451370.0 0
396328.0 447904.0 0
398842.0 448124.0 0
398838.0 450883.0 0
402089.0 450377.0 0
405878.0 447866.0 0
405502.0 451291.0 0
408824.0 451242.0 0
414044.0 450222.0 0
418257.0 451591.0 0
73715.7 457493.0 0
76568.0 455257.0 0
78813.5 453255.0 0
79082.0 457776.0 0
82311.7 455799.0 0
86400.9 455747.0 0
89894.1 455159.0 0
92282.7 457676.0 0
93914.2 453899.0 0
97958.3 453346.0 0
96661.2 455262.0 0
100817.0 453601.0 0
100026.0 456991.0 0
105098.0 453638.0 0
108334.0 456054.0 0
111091.0 454814.0 0
114335.0 457078.0 0
118615.0 455946.0 0
119267.0 453693.0 0
121454.0 454900.0 0
128457.0 453031.0 0
125141.0 456630.0 0
128699.0 456558.0 0
132419.0 454030.0 0
136314.0 455076.0 0
138827.0 457279.0 0
140746.0 453774.0 0
145540.0 452557.0 0
146769.0 456470.0 0
150017.0 453440.0 0
154290.0 453672.0 0
159325.0 453521.0 0
162869.0 455683.0 0
164782.0 452553.0 0
167665.0 456525.0 0
172491.0 455163.0 0
176007.0 452763.0 0
176900.0 456467.0 0
179593.0 452912.0 0
183600.0 453519.0 0
187314.0 453962.0 0
191093.0 455825.0 0
195963.0 453010.0 0
199005.0 456875.0 0
200573.0 451810.0 0
202639.0 455560.0 0
207205.0 456067.0 0
210844.0 453853.0 0
215263.0 454998.0 0
224977.0 453970.0 0
229347.0 454390.0 0
233479.0 452047.0 0
236180.0 455467.0 0
243991.0 452451.0 0
239878.0 454573.0 0
248428.0 455274.0 0
253397.0 451500.0 0
252111.0 455258.0 0
259702.0 452170.0 0
256253.0 454396.0 0
264032.0 452292.0 0
268752.0 452618.0 0
272957.0 453960.0 0
276841.0 454555.0 0
279916.0 452610.0 0
284319.0 453550.0 0
289405.0 453893.0 0
294303.0 452393.0 0
298755.0 456051.0 0
302463.0 452183.0 0
305867.0 454356.0 0
308972.0 453316.0 0
312057.0 451828.0 0
312792.0 456228.0 0
316369.0 453324.0 0
320018.0 455338.0 0
320439.0 452022.0 0
324048.0 454159.0 0
328902.0 455328.0 0
331594.0 452419.0 0
332844.0 456200.0 0
335866.0 453514.0 0
340270.0 454223.0 0
344639.0 455603.0 0
349065.0 454700.0 0
353296.0 452745.0 0
352540.0 455971.0 0
355441.0 456215.0 0
358136.0 454410.0 0
365204.0 452843.0 0
361993.0 455805.0 0
365756.0 457650.0 0
368913.0 454958.0 0
371397.0 452767.0 0
374125.0 454203.0 0
371867.0 456213.0 0
376374.0 456971.0 0
379122.0 454651.0 0
382805.0 453401.0 0
383480.0 457473.0 0
386652.0 455233.0 0
391168.0 455885.0 0
392290.0 453267.0 0
393897.0 454906.0 0
394499.0 457540.0 0
400618.0 453826.0 0
397021.0 454799.0 0
399393.0 456941.0 0
404095.0 454370.0 0
401631.0 457121.0 0
404170.0 457381.0 0
408009.0 454723.0 0
406616.0 457003.0 0
410846.0 457038.0 0
411506.0 453070.0 0
415984.0 453819.0 0
413906.0 455804.0 0
421041.0 454200.0 0
418506.0 456400.0 0
424312.0 456549.0 0
63841.8 462512.0 0
67322.2 461284.0 0
70706.7 459589.0 0
72701.9 462968.0 0
75956.3 459684.0 0
76555.2 462647.0 0
80300.6 461319.0 0
88133.5 459251.0 0
83660.1 459710.0 0
85460.2 462744.0 0
89939.1 462805.0 0
96294.1 458058.0 0
93370.0 461433.0 0
97091.1 460891.0 0
100430.0 460499.0 0
104040.0 457430.0 0
104428.0 461129.0 0
107576.0 459141.0 0
108244.0 462057.0 0
110330.0 458505.0 0
112185.0 461893.0 0
118036.0 458745.0 0
116415.0 461516.0 0
121315.0 457909.0 0
120031.0 460913.0 0
123523.0 459972.0 0
127153.0 460565.0 0
131801.0 458546.0 0
129948.0 462447.0 0
136115.0 458655.0 0
138850.0 460201.0 0
142437.0 457526.0 0
142093.0 461301.0 0
145834.0 460046.0 0
148339.0 461692.0 0
150337.0 457710.0 0
152235.0 461543.0 0
155309.0 457459.0 0
156232.0 461484.0 0
159670.0 458510.0 0
162115.0 461302.0 0
163699.0 458635.0 0
165812.0 461474.0 0
170150.0 460113.0 0
173744.0 459088.0 0
178205.0 461465.0 0
180800.0 456850.0 0
184190.0 456743.0 0
182951.0 460424.0 0
187144.0 458253.0 0
190677.0 460514.0 0
194941.0 458405.0 0
198273.0 461801.0 0
201279.0 459148.0 0
204148.0 458903.0 0
207896.0 461367.0 0
211740.0 458117.0 0
216038.0 459645.0 0
220548.0 456433.0 0
225404.0 457369.0 0
228364.0 459708.0 0
232359.0 457557.0 0
235744.0 460873.0 0
240297.0 458466.0 0
245259.0 458261.0 0
249952.0 458997.0 0
254771.0 459621.0 0
261242.0 458040.0 0
266413.0 456433.0 0
266918.0 461062.0 0
270043.0 457211.0 0
274747.0 458332.0 0
271206.0 461057.0 0
278320.0 461838.0 0
280569.0 457465.0 0
285980.0 458460.0 0
290007.0 458659.0 0
293826.0 457007.0 0
292539.0 461285.0 0
296733.0 460965.0 0
301150.0 461174.0 0
303497.0 457386.0 0
305374.0 461809.0 0
308436.0 458377.0 0
313391.0 460854.0 0
317758.0 458911.0 0
321811.0 458105.0 0
326190.0 458868.0 0
330471.0 459258.0 0
334171.0 459543.0 0
336424.0 462141.0 0
337422.0 457831.0 0
340292.0 461137.0 0
341568.0 457938.0 0
344895.0 460622.0 0
347934.0 458500.0 0
349155.0 461916.0 0
351675.0 458783.0 0
355980.0 459876.0 0
359183.0 458145.0 0
359308.0 461714.0 0
362766.0 460634.0 0
367224.0 461166.0 0
369769.0 458819.0 0
373376.0 458587.0 0
372320.0 462358.0 0
378776.0 458924.0 0
376631.0 461558.0 0
380956.0 461038.0 0
380473.0 457441.0 0
385758.0 460927.0 0
388692.0 458003.0 0
391856.0 459490.0 0
395127.0 461875.0 0
397728.0 458819.0 0
400968.0 459836.0 0
398823.0 462130.0 0
404774.0 461155.0 0
408283.0 459469.0 0
410370.0 462218.0 0
413058.0 460093.0 0
415967.0 458438.0 0
415144.0 462465.0 0
417918.0 460975.0 0
420576.0 459138.0 0
423879.0 459980.0 0
422450.0 462111.0 0
426022.0 461517.0 0
428021.0 458642.0 0
429652.0 462330.0 0
431992.0 460344.0 0
434741.0 462575.0 0
56701.3 466183.0 0
60731.7 465561.0 0
64543.0 465327.0 0
65142.8 468202.0 0
68054.6 464474.0 0
67998.7 467654.0 0
71960.3 466656.0 0
75765.7 465365.0 0
79125.3 465527.0 0
82348.0 464282.0 0
83548.7 467025.0 0
87234.4 466113.0 0
91477.3 465654.0 0
94969.7 464439.0 0
97593.1 467534.0 0
98917.7 464053.0 0
102138.0 463560.0 0
101985.0 466737.0 0
105667.0 464995.0 0
110039.0 465296.0 0
118627.0 463727.0 0
115048.0 465254.0 0
122773.0 463213.0 0
119145.0 467163.0 0
123361.0 466692.0 0
126652.0 464532.0 0
129983.0 465806.0 0
134247.0 462547.0 0
134076.0 467208.0 0
138929.0 464641.0 0
144492.0 464735.0 0
149717.0 465012.0 0
154471.0 465775.0 0
159259.0 463608.0 0
161702.0 466662.0 0
162914.0 463672.0 0
164950.0 466130.0 0
168813.0 464624.0 0
173216.0 463047.0 0
175893.0 465915.0 0
179272.0 466192.0 0
182730.0 464697.0 0
186848.0 462863.0 0
190721.0 464663.0 0
193705.0 462222.0 0
194977.0 465665.0 0
202737.0 462464.0 0
205637.0 466063.0 0
210262.0 465634.0 0
212756.0 462550.0 0
214238.0 466186.0 0
216232.0 463612.0 0
220063.0 462278.0 0
224240.0 461386.0 0
222600.0 466213.0 0
227555.0 465149.0 0
231575.0 461924.0 0
232830.0 465646.0 0
239145.0 462998.0 0
236648.0 465259.0 0
242953.0 462782.0 0
247517.0 462590.0 0
251331.0 462665.0 0
254496.0 465293.0 0
258233.0 462868.0 0
258375.0 466525.0 0
262696.0 464593.0 0
266693.0 466142.0 0
270155.0 465109.0 0
274505.0 463749.0 0
278961.0 466434.0 0
283360.0 463337.0 0
288787.0 463219.0 0
293979.0 465572.0 0
298607.0 465143.0 0
302718.0 465643.0 0
306768.0 465095.0 0
309875.0 463181.0 0
314261.0 464970.0 0
316965.0 462772.0 0
318519.0 465666.0 0
322453.0 462784.0 0
328117.0 462944.0 0
331557.0 466483.0 0
332609.0 462617.0 0
335763.0 466053.0 0
338807.0 464610.0 0
342526.0 464702.0 0
346839.0 465211.0 0
351099.0 465442.0 0
353304.0 462748.0 0
355169.0 466541.0 0
357083.0 463483.0 0
359422.0 465822.0 0
360901.0 463277.0 0
364657.0 463789.0 0
362272.0 464403.0 0
366003.0 466179.0 0
368779.0 464670.0 0
372902.0 467477.0 0
375929.0 465153.0 0
379333.0 464713.0 0
383286.0 464229.0 0
390189.0 463156.0 0
387232.0 466423.0 0
393596.0 465997.0 0
397601.0 465656.0 0
401756.0 464284.0 0
404650.0 466918.0 0
407361.0 464374.0 0
409715.0 467767.0 0
412481.0 464687.0 0
413943.0 467658.0 0
416583.0 465373.0 0
419596.0 463652.0 0
421375.0 466847.0 0
424103.0 465012.0 0
426206.0 463720.0 0
426371.0 467806.0 0
429252.0 465564.0 0
432606.0 464483.0 0
432612.0 467323.0 0
435283.0 466465.0 0
437696.0 463654.0 0
440009.0 464362.0 0
441688.0 466367.0 0
438475.0 467102.0 0
444499.0 468163.0 0
46969.7 473037.0 0
50691.3 471398.0 0
54089.5 469357.0 0
54285.9 472889.0 0
57042.0 472766.0 0
57795.6 468794.0 0
62393.0 468579.0 0
61073.1 471650.0 0
65532.0 471318.0 0
69242.0 470848.0 0
76067.0 468354.0 0
72724.5 470488.0 0
75599.2 472185.0 0
80422.6 469545.0 0
87682.2 469853.0 0
84918.6 470354.0 0
90280.4 468571.0 0
88919.4 472412.0 0
91449.0 471039.0 0
93690.0 468211.0 0
95283.7 472008.0 0
99989.6 470531.0 0
107328.0 468249.0 0
104102.0 469924.0 0
112125.0 467863.0 0
109336.0 470868.0 0
112980.0 472472.0 0
115598.0 469249.0 0
118314.0 472409.0 0
121938.0 470031.0 0
126218.0 469063.0 0
130517.0 469883.0 0
137130.0 468942.0 0
134302.0 471153.0 0
137657.0 471917.0 0
140533.0 468889.0 0
143980.0 469434.0 0
147112.0 470042.0 0
147429.0 467541.0 0
150840.0 468833.0 0
154936.0 470171.0 0
158350.0 467932.0 0
158280.0 471480.0 0
162329.0 470407.0 0
166685.0 469885.0 0
171841.0 468661.0 0
176976.0 470655.0 0
181845.0 469096.0 0
186589.0 467904.0 0
191245.0 469019.0 0
195405.0 469573.0 0
200021.0 467331.0 0
204336.0 469834.0 0
201626.0 472010.0 0
208656.0 470075.0 0
212019.0 468472.0 0
218163.0 466718.0 0
215298.0 470996.0 0
220715.0 470436.0 0
225270.0 469764.0 0
230239.0 469733.0 0
235483.0 470027.0 0
240342.0 467360.0 0
243697.0 470717.0 0
245107.0 466729.0 0
249678.0 467010.0 0
253328.0 470565.0 0
257544.0 470193.0 0
260845.0 468985.0 0
264542.0 469808.0 0
268924.0 469716.0 0
274403.0 469040.0 0
279142.0 470579.0 0
282899.0 468872.0 0
286322.0 467223.0 0
289977.0 467829.0 0
293331.0 471350.0 0
296934.0 468481.0 0
299681.0 468157.0 0
302377.0 470331.0 0
306135.0 468798.0 0
308482.0 471766.0 0
310625.0 468161.0 0
315942.0 470415.0 0
321921.0 467497.0 0
320635.0 470867.0 0
324332.0 470728.0 0
326429.0 466997.0 0
327196.0 471744.0 0
330213.0 470632.0 0
335050.0 470907.0 0
339645.0 468412.0 0
342938.0 471460.0 0
343888.0 468055.0 0
349519.0 467758.0 0
347301.0 470108.0 0
352521.0 469672.0 0
357947.0 470429.0 0
363240.0 468369.0 0
368071.0 468780.0 0
371010.0 471749.0 0
375112.0 471397.0 0
378031.0 468951.0 0
382603.0 468319.0 0
391023.0 468681.0 0
386719.0 470737.0 0
390612.0 472333.0 0
395619.0 469742.0 0
393578.0 472209.0 0
400450.0 469116.0 0
397990.0 472040.0 0
406004.0 470842.0 0
411215.0 471039.0 0
415309.0 471019.0 0
418330.0 468251.0 0
419795.0 471845.0 0
423307.0 469827.0 0
426579.0 472556.0 0
429770.0 469975.0 0
433255.0 470301.0 0
436531.0 469656.0 0
441103.0 469430.0 0
439596.0 471240.0 0
447476.0 469674.0 0
444062.0 471354.0 0
446829.0 472732.0 0
450076.0 471747.0 0
40508.3 477072.0 0
44247.4 475790.0 0
50377.8 474964.0 0
47594.2 476984.0 0
50573.2 478364.0 0
54298.1 476090.0 0
58571.6 476152.0 0
63681.6 474587.0 0
67178.5 473981.0 0
67204.1 477100.0 0
71521.5 474851.0 0
75929.6 475739.0 0
82821.3 472976.0 0
79280.8 474027.0 0
82824.0 476896.0 0
85767.4 473656.0 0
87778.0 477125.0 0
91832.6 475316.0 0
96017.0 476720.0 0
102015.0 473714.0 0
98676.0 474342.0 0
99902.8 476780.0 0
105785.0 473007.0 0
103784.0 476255.0 0
106971.0 475851.0 0
108892.0 474064.0 0
110061.0 476397.0 0
114710.0 476577.0 0
123036.0 473166.0 0
120108.0 476543.0 0
127143.0 473240.0 0
124771.0 477116.0 0
128425.0 476387.0 0
131104.0 473676.0 0
131593.0 477527.0 0
135039.0 474777.0 0
138455.0 475402.0 0
140985.0 472756.0 0
142311.0 477183.0 0
144637.0 473388.0 0
148618.0 472931.0 0
146770.0 477034.0 0
152268.0 472434.0 0
150662.0 475996.0 0
155477.0 475830.0 0
160633.0 474471.0 0
165510.0 475310.0 0
169514.0 472965.0 0
170707.0 476547.0 0
172992.0 473293.0 0
175836.0 476515.0 0
180557.0 473857.0 0
184438.0 476728.0 0
184714.0 472285.0 0
188715.0 473820.0 0
192951.0 472643.0 0
192688.0 476794.0 0
197449.0 473695.0 0
205287.0 474251.0 0
210834.0 475206.0 0
218607.0 475539.0 0
223739.0 474101.0 0
227760.0 472913.0 0
232159.0 474882.0 0
239869.0 472322.0 0
236757.0 474629.0 0
239345.0 476595.0 0
243205.0 475663.0 0
248242.0 472779.0 0
252261.0 476381.0 0
256162.0 474219.0 0
260919.0 473747.0 0
266628.0 475420.0 0
271649.0 473340.0 0
276811.0 475289.0 0
282331.0 473615.0 0
287507.0 472055.0 0
298506.0 472287.0 0
295638.0 475483.0 0
302891.0 475203.0 0
305634.0 472404.0 0
307768.0 475536.0 0
311434.0 473349.0 0
315057.0 476141.0 0
319196.0 474815.0 0
322726.0 473637.0 0
322783.0 477196.0 0
326226.0 474604.0 0
330984.0 475197.0 0
336285.0 476652.0 0
339203.0 472659.0 0
341835.0 475682.0 0
346261.0 474631.0 0
350415.0 473207.0 0
352313.0 475412.0 0
354636.0 473561.0 0
358935.0 476221.0 0
362248.0 472814.0 0
363781.0 477022.0 0
366512.0 472651.0 0
367458.0 476536.0 0
370073.0 475054.0 0
374635.0 475784.0 0
378061.0 472990.0 0
379248.0 476751.0 0
382186.0 473235.0 0
387281.0 475529.0 0
392513.0 475556.0 0
396157.0 474227.0 0
401487.0 473791.0 0
398969.0 476984.0 0
405696.0 476006.0 0
409292.0 473885.0 0
409334.0 477336.0 0
411916.0 476587.0 0
412735.0 474277.0 0
415847.0 475075.0 0
418902.0 475122.0 0
422092.0 477436.0 0
422887.0 473894.0 0
426167.0 476456.0 0
430434.0 473347.0 0
429423.0 475664.0 0
433341.0 473818.0 0
436169.0 472920.0 0
432782.0 477763.0 0
436340.0 476322.0 0
438661.0 474014.0 0
439971.0 477113.0 0
442516.0 473974.0 0
446669.0 476110.0 0
443574.0 477886.0 0
449954.0 475132.0 0
451864.0 477010.0 0
453174.0 473638.0 0
455750.0 476074.0 0
458871.0 476749.0 0
461299.0 478494.0 0
34096.6 481883.0 0
37289.3 479239.0 0
40719.0 480661.0 0
37160.8 483549.0 0
44370.6 479566.0 0
48571.5 479483.0 0
50637.1 481511.0 0
46900.3 482304.0 0
53394.7 479552.0 0
56723.0 479714.0 0
62692.5 479451.0 0
69930.1 479435.0 0
67352.6 481347.0 0
71964.0 482825.0 0
74313.6 479045.0 0
78534.1 478426.0 0
77182.9 482959.0 0
81013.0 480947.0 0
84488.5 480555.0 0
92489.5 479759.0 0
88365.9 480875.0 0
97072.0 480085.0 0
101563.0 479978.0 0
106217.0 478763.0 0
109806.0 480244.0 0
114308.0 481741.0 0
117774.0 479062.0 0
119560.0 481680.0 0
122019.0 479393.0 0
124333.0 482108.0 0
127937.0 479964.0 0
131686.0 481880.0 0
135696.0 479055.0 0
139039.0 478238.0 0
139909.0 482242.0 0
144921.0 480886.0 0
150548.0 480488.0 0
155817.0 480998.0 0
160332.0 479048.0 0
164332.0 480260.0 0
168301.0 479866.0 0
172737.0 480376.0 0
177416.0 481973.0 0
180234.0 478331.0 0
182872.0 481551.0 0
188318.0 479952.0 0
193076.0 480905.0 0
196822.0 479109.0 0
201300.0 477191.0 0
200681.0 481836.0 0
205898.0 479684.0 0
210622.0 480354.0 0
214607.0 478765.0 0
218017.0 481720.0 0
222679.0 479486.0 0
227570.0 477431.0 0
231420.0 480139.0 0
235965.0 478929.0 0
240911.0 480677.0 0
247485.0 478821.0 0
252400.0 481125.0 0
256745.0 478785.0 0
259310.0 481476.0 0
261708.0 478822.0 0
269585.0 480411.0 0
265435.0 480791.0 0
271690.0 477049.0 0
274135.0 479599.0 0
278403.0 481352.0 0
281279.0 478142.0 0
285789.0 477665.0 0
291299.0 476999.0 0
295810.0 479186.0 0
299063.0 477034.0 0
298863.0 480567.0 0
302366.0 479886.0 0
305295.0 478375.0 0
308518.0 480240.0 0
311321.0 477259.0 0
313854.0 481658.0 0
318814.0 479562.0 0
322872.0 481226.0 0
327406.0 479302.0 0
332508.0 480109.0 0
336438.0 482103.0 0
340699.0 480225.0 0
345423.0 479091.0 0
349951.0 477991.0 0
348778.0 482307.0 0
353319.0 482055.0 0
354446.0 477729.0 0
357492.0 480948.0 0
362044.0 481790.0 0
370341.0 478801.0 0
366838.0 480586.0 0
373812.0 480532.0 0
377629.0 480320.0 0
380472.0 480135.0 0
383412.0 478602.0 0
384702.0 482282.0 0
390472.0 478272.0 0
387474.0 479936.0 0
391197.0 481682.0 0
395101.0 479201.0 0
399761.0 480345.0 0
402999.0 478996.0 0
404921.0 482622.0 0
407173.0 479873.0 0
411530.0 480455.0 0
414743.0 477870.0 0
416270.0 481430.0 0
418183.0 478289.0 0
420813.0 481429.0 0
425167.0 480304.0 0
429068.0 479093.0 0
429427.0 483273.0 0
433411.0 481732.0 0
437162.0 480126.0 0
441376.0 480636.0 0
444883.0 480682.0 0
448531.0 479623.0 0
451764.0 479017.0 0
451236.0 483151.0 0
453564.0 480074.0 0
455992.0 480636.0 0
458971.0 480585.0 0
462531.0 482576.0 0
463900.0 479917.0 0
466479.0 481549.0 0
469203.0 483512.0 0
24328.0 487852.0 0
27349.8 485710.0 0
30545.9 483736.0 0
29455.0 488138.0 0
32626.5 486195.0 0
35626.0 487087.0 0
38977.7 488015.0 0
40402.2 484829.0 0
43631.6 484111.0 0
43056.7 488302.0 0
50106.4 484387.0 0
47258.9 486417.0 0
54024.0 483744.0 0
52062.2 487294.0 0
56151.0 487820.0 0
58394.9 483519.0 0
60091.1 487338.0 0
63982.5 484781.0 0
68301.8 484566.0 0
70698.6 487695.0 0
74056.4 486027.0 0
76372.9 487203.0 0
81865.8 484020.0 0
79532.6 486585.0 0
85441.4 484453.0 0
87289.4 487939.0 0
90036.3 484097.0 0
91395.7 487430.0 0
94434.5 483820.0 0
98900.0 484137.0 0
99948.2 487346.0 0
104775.0 484143.0 0
109836.0 484115.0 0
109241.0 487474.0 0
112423.0 485900.0 0
116610.0 485867.0 0
121258.0 485757.0 0
128133.0 484156.0 0
125053.0 485959.0 0
131851.0 485924.0 0
135347.0 483266.0 0
136083.0 486930.0 0
143875.0 484615.0 0
140610.0 487179.0 0
147434.0 484220.0 0
149017.0 486941.0 0
153331.0 485920.0 0
159481.0 484353.0 0
165198.0 484925.0 0
169759.0 483304.0 0
173373.0 484756.0 0
176698.0 486453.0 0
180624.0 485821.0 0
185978.0 485718.0 0
191243.0 484476.0 0
196011.0 483751.0 0
204086.0 484167.0 0
208765.0 484682.0 0
213533.0 483156.0 0
212571.0 487043.0 0
216717.0 486155.0 0
221880.0 485157.0 0
227195.0 482867.0 0
234526.0 483401.0 0
238065.0 483826.0 0
236590.0 486850.0 0
244760.0 483168.0 0
241193.0 486282.0 0
248771.0 483383.0 0
251729.0 486364.0 0
256360.0 484100.0 0
258999.0 487015.0 0
262066.0 484273.0 0
267481.0 485191.0 0
273223.0 484294.0 0
277998.0 485697.0 0
283528.0 482435.0 0
281735.0 486548.0 0
288638.0 482273.0 0
293204.0 482274.0 0
296883.0 482759.0 0
297567.0 486168.0 0
300506.0 483623.0 0
305181.0 483842.0 0
309680.0 484611.0 0
313018.0 487283.0 0
316375.0 485587.0 0
320301.0 484749.0 0
325396.0 484346.0 0
329594.0 483327.0 0
328736.0 487124.0 0
333268.0 484584.0 0
340094.0 484936.0 0
344563.0 483248.0 0
344294.0 487418.0 0
347919.0 485659.0 0
352052.0 485958.0 0
357543.0 485843.0 0
366088.0 483876.0 0
362948.0 487026.0 0
370473.0 483455.0 0
368176.0 486926.0 0
375492.0 484428.0 0
380814.0 484092.0 0
385134.0 486062.0 0
388054.0 483641.0 0
388476.0 487029.0 0
391680.0 485868.0 0
394263.0 483317.0 0
396149.0 486210.0 0
397905.0 483099.0 0
401011.0 486632.0 0
401859.0 483052.0 0
405217.0 486667.0 0
408935.0 484084.0 0
408493.0 487329.0 0
411285.0 487995.0 0
413535.0 484827.0 0
421754.0 485173.0 0
418351.0 485110.0 0
424626.0 483824.0 0
423741.0 487139.0 0
427106.0 487152.0 0
430938.0 487513.0 0
436547.0 484192.0 0
433649.0 485746.0 0
436887.0 487658.0 0
439701.0 483384.0 0
439734.0 486266.0 0
443001.0 487015.0 0
443130.0 483893.0 0
446901.0 483846.0 0
446852.0 487465.0 0
451025.0 487655.0 0
455338.0 484887.0 0
459315.0 484142.0 0
461931.0 486680.0 0
458229.0 488106.0 0
465269.0 484971.0 0
468626.0 487421.0 0
472354.0 486188.0 0
475749.0 487949.0 0
14125.9 493145.0 0
20638.7 489504.0 0
17642.8 492046.0 0
21219.9 493306.0 0
24140.4 491453.0 0
27218.8 489762.0 0
30321.9 491288.0 0
27657.2 492950.0 0
32779.5 489606.0 0
32877.2 492781.0 0
35711.2 491134.0 0
39653.5 491399.0 0
46061.5 490416.0 0
42708.2 493274.0 0
49030.3 489066.0 0
48085.3 493246.0 0
50897.4 490948.0 0
53579.0 490428.0 0
56339.3 491932.0 0
59355.6 490195.0 0
62688.7 488478.0 0
66653.5 488620.0 0
62887.3 491535.0 0
66593.9 492379.0 0
70202.7 491486.0 0
73962.0 489532.0 0
73815.7 492575.0 0
77994.2 490358.0 0
81534.7 492481.0 0
82936.4 488588.0 0
85792.6 491620.0 0
89873.0 490709.0 0
92436.9 492970.0 0
95350.5 488795.0 0
99348.0 491342.0 0
102393.0 488850.0 0
105775.0 488950.0 0
103373.0 492688.0 0
108390.0 492097.0 0
113246.0 490292.0 0
118571.0 489942.0 0
123011.0 489435.0 0
127879.0 489030.0 0
124961.0 493001.0 0
132611.0 490577.0 0
137717.0 491793.0 0
142372.0 491143.0 0
145522.0 488365.0 0
149604.0 490450.0 0
154421.0 492005.0 0
157497.0 488639.0 0
161583.0 489752.0 0
166153.0 489927.0 0
169763.0 487521.0 0
173508.0 489002.0 0
177541.0 490185.0 0
182439.0 490934.0 0
187086.0 490190.0 0
189716.0 488324.0 0
194308.0 488875.0 0
190084.0 491900.0 0
200120.0 487253.0 0
203479.0 491847.0 0
205100.0 487773.0 0
209077.0 490807.0 0
214732.0 491042.0 0
219717.0 489765.0 0
226024.0 487840.0 0
228799.0 490941.0 0
231087.0 486793.0 0
234288.0 491053.0 0
238643.0 489874.0 0
242835.0 491725.0 0
246543.0 487790.0 0
250182.0 490692.0 0
255606.0 490366.0 0
261728.0 489630.0 0
266507.0 489946.0 0
271040.0 489183.0 0
275458.0 488658.0 0
278965.0 488713.0 0
277717.0 491313.0 0
282241.0 491849.0 0
286779.0 487346.0 0
292838.0 487382.0 0
290447.0 491139.0 0
297375.0 490167.0 0
302177.0 488300.0 0
304793.0 492279.0 0
308031.0 489060.0 0
312863.0 491682.0 0
317718.0 489453.0 0
323788.0 489577.0 0
329441.0 492240.0 0
332569.0 488598.0 0
334641.0 491778.0 0
336715.0 487720.0 0
338764.0 491965.0 0
340735.0 488845.0 0
343874.0 492306.0 0
348957.0 489990.0 0
354681.0 490222.0 0
360055.0 491456.0 0
365989.0 489336.0 0
364765.0 491723.0 0
368767.0 491117.0 0
372859.0 488595.0 0
377821.0 488200.0 0
376759.0 492712.0 0
382600.0 490109.0 0
386885.0 489115.0 0
387658.0 492432.0 0
389976.0 489673.0 0
393719.0 489544.0 0
398476.0 490123.0 0
404006.0 491803.0 0
408278.0 490079.0 0
411996.0 492002.0 0
416296.0 489446.0 0
421111.0 488250.0 0
421170.0 492554.0 0
424797.0 490290.0 0
429482.0 491189.0 0
433829.0 489371.0 0
433935.0 493267.0 0
437292.0 490940.0 0
440289.0 489245.0 0
440602.0 492512.0 0
444296.0 490911.0 0
449430.0 492102.0 0
454466.0 489423.0 0
454354.0 492868.0 0
462020.0 489812.0 0
458860.0 492429.0 0
465735.0 489614.0 0
464432.0 493575.0 0
471472.0 490077.0 0
469034.0 491633.0 0
474492.0 491593.0 0
478027.0 491535.0 0
479027.0 489040.0 0
481689.0 491952.0 0
11398.2 495239.0 0
8052.75 498973.0 0
11767.7 498059.0 0
15103.8 496239.0 0
18515.3 495606.0 0
21535.5 497517.0 0
17965.8 499043.0 0
24722.9 495462.0 0
30711.5 494571.0 0
28126.7 496713.0 0
31911.9 497320.0 0
34027.9 495083.0 0
37670.8 494931.0 0
40611.3 497469.0 0
45134.6 496527.0 0
49287.1 496544.0 0
52532.8 493981.0 0
52286.6 497876.0 0
56608.6 495967.0 0
59958.1 493742.0 0
60739.5 496504.0 0
63573.2 495142.0 0
67480.6 495650.0 0
71032.0 494485.0 0
71208.5 498069.0 0
73808.2 495796.0 0
77187.2 494270.0 0
80153.3 496780.0 0
84399.2 495069.0 0
87167.9 497068.0 0
88449.8 494016.0 0
91228.4 497054.0 0
96184.0 493569.0 0
94228.7 495532.0 0
98679.6 495031.0 0
100572.0 494133.0 0
101394.0 496796.0 0
105850.0 496061.0 0
111419.0 496310.0 0
116140.0 493952.0 0
115584.0 497886.0 0
120774.0 493213.0 0
118816.0 496644.0 0
123278.0 496743.0 0
128861.0 494697.0 0
133723.0 495461.0 0
138301.0 496764.0 0
141491.0 494607.0 0
145956.0 493624.0 0
150143.0 494369.0 0
153387.0 497467.0 0
159106.0 494308.0 0
164383.0 494373.0 0
168971.0 497482.0 0
169808.0 492654.0 0
173322.0 496304.0 0
174559.0 492566.0 0
178078.0 495127.0 0
182775.0 496489.0 0
186588.0 493899.0 0
189716.0 495566.0 0
193648.0 494353.0 0
198487.0 492590.0 0
201627.0 496118.0 0
206762.0 496501.0 0
212394.0 495723.0 0
218380.0 494623.0 0
223967.0 492621.0 0
226551.0 497508.0 0
230493.0 494585.0 0
234766.0 496040.0 0
238420.0 493749.0 0
242049.0 495544.0 0
245860.0 496312.0 0
251438.0 495218.0 0
259613.0 493818.0 0
256221.0 495734.0 0
264068.0 494464.0 0
269683.0 494302.0 0
274256.0 492415.0 0
274220.0 496590.0 0
277774.0 494677.0 0
287108.0 492322.0 0
285554.0 496338.0 0
293875.0 492436.0 0
290320.0 495835.0 0
295043.0 497138.0 0
297390.0 493923.0 0
301020.0 493156.0 0
303834.0 496756.0 0
308529.0 494846.0 0
313032.0 495895.0 0
317149.0 494458.0 0
321498.0 493857.0 0
325657.0 496266.0 0
330427.0 497251.0 0
333238.0 494991.0 0
336535.0 495264.0 0
340799.0 495944.0 0
345233.0 497055.0 0
348182.0 494551.0 0
351941.0 493775.0 0
356171.0 495379.0 0
360861.0 496894.0 0
364250.0 494975.0 0
367717.0 494598.0 0
370675.0 497442.0 0
372113.0 493512.0 0
375134.0 497393.0 0
379296.0 496751.0 0
380583.0 494150.0 0
384448.0 496048.0 0
389790.0 496991.0 0
392008.0 493366.0 0
395631.0 493031.0 0
396143.0 497727.0 0
399270.0 493959.0 0
402053.0 496860.0 0
407015.0 497019.0 0
408670.0 493657.0 0
412237.0 496681.0 0
416121.0 494443.0 0
419345.0 495691.0 0
426029.0 494394.0 0
422806.0 497578.0 0
430445.0 495508.0 0
431440.0 497952.0 0
434724.0 497236.0 0
437581.0 494361.0 0
438300.0 497354.0 0
440929.0 495403.0 0
444576.0 494912.0 0
445490.0 498575.0 0
448244.0 496303.0 0
452691.0 496402.0 0
457472.0 496734.0 0
461602.0 495739.0 0
461051.0 498085.0 0
465095.0 498791.0 0
468139.0 494992.0 0
472084.0 494517.0 0
473775.0 498135.0 0
477562.0 495824.0 0
481949.0 496038.0 0
485352.0 494095.0 0
485286.0 498363.0 0
488368.0 498953.0 0
488838.0 496010.0 0
492102.0 497784.0 0
3105.15 499999.0 0
9762.95 502707.0 0
13906.5 500591.0 0
18057.8 502491.0 0
21567.4 501094.0 0
25214.5 499285.0 0
25217.8 503421.0 0
29615.1 500694.0 0
35466.1 499403.0 0
32356.9 503296.0 0
40025.1 501599.0 0
43647.9 500226.0 0
47962.6 500316.0 0
52065.2 502001.0 0
55399.1 499657.0 0
56523.0 502871.0 0
59286.6 499376.0 0
61227.5 502966.0 0
63449.6 498660.0 0
67123.2 498922.0 0
65471.8 501993.0 0
69095.6 501160.0 0
75891.3 498703.0 0
72555.5 501756.0 0
76556.1 502945.0 0
79229.1 500533.0 0
80519.9 503827.0 0
83336.4 499911.0 0
88212.0 500932.0 0
92584.6 501085.0 0
96517.9 498412.0 0
100498.0 500921.0 0
104003.0 499447.0 0
107438.0 499221.0 0
109940.0 500910.0 0
113605.0 500721.0 0
117606.0 500843.0 0
120215.0 499008.0 0
122554.0 501602.0 0
126713.0 498774.0 0
130677.0 499119.0 0
132355.0 502105.0 0
134944.0 499567.0 0
139363.0 500830.0 0
142216.0 501861.0 0
143397.0 498469.0 0
148207.0 498076.0 0
145090.0 502926.0 0
150462.0 502621.0 0
157359.0 497713.0 0
156371.0 501648.0 0
160840.0 498624.0 0
160899.0 502291.0 0
165237.0 498903.0 0
168468.0 501624.0 0
171775.0 499949.0 0
175956.0 499788.0 0
179849.0 499402.0 0
183206.0 501888.0 0
186768.0 498258.0 0
187343.0 502013.0 0
191929.0 499863.0 0
197332.0 497520.0 0
196744.0 502006.0 0
201027.0 500045.0 0
204928.0 501722.0 0
209664.0 501107.0 0
213385.0 499727.0 0
217733.0 500032.0 0
221872.0 497250.0 0
222900.0 501442.0 0
230847.0 498566.0 0
234107.0 500247.0 0
239432.0 498989.0 0
244464.0 501564.0 0
249572.0 500560.0 0
254758.0 499846.0 0
260218.0 498862.0 0
266610.0 500212.0 0
271393.0 498653.0 0
274325.0 501161.0 0
277283.0 498466.0 0
281243.0 497442.0 0
284743.0 501263.0 0
289065.0 500268.0 0
293074.0 501538.0 0
297392.0 500668.0 0
299544.0 497297.0 0
301013.0 500652.0 0
305685.0 501866.0 0
311015.0 499691.0 0
315588.0 498958.0 0
318635.0 498052.0 0
319620.0 501444.0 0
321361.0 497631.0 0
323639.0 500460.0 0
328184.0 501571.0 0
332125.0 500124.0 0
334361.0 498295.0 0
337807.0 498518.0 0
337987.0 501771.0 0
341944.0 500445.0 0
346555.0 500814.0 0
351503.0 498954.0 0
357200.0 500402.0 0
361952.0 501283.0 0
366116.0 498946.0 0
371330.0 502629.0 0
375931.0 501367.0 0
378353.0 499549.0 0
379353.0 502844.0 0
381922.0 499813.0 0
386676.0 501361.0 0
391836.0 501490.0 0
395588.0 502219.0 0
400547.0 500314.0 0
403619.0 500003.0 0
406709.0 501151.0 0
410378.0 500800.0 0
414113.0 500664.0 0
417911.0 498853.0 0
417503.0 502908.0 0
422776.0 502833.0 0
427550.0 498860.0 0
427912.0 503109.0 0
432754.0 501195.0 0
441856.0 498384.0 0
438343.0 501557.0 0
443619.0 501701.0 0
449868.0 501376.0 0
455252.0 500202.0 0
459717.0 501553.0 0
463978.0 502561.0 0
468520.0 502826.0 0
469910.0 498796.0 0
473135.0 502021.0 0
477461.0 500853.0 0
481777.0 500006.0 0
486869.0 502021.0 0
490161.0 500296.0 0
493313.0 500036.0 0
492130.0 503177.0 0
496839.0 500023.0 0
2138.48 503888.0 0
2075.66 506944.0 0
5923.12 503568.0 0
8756.13 505576.0 0
5758.37 507433.0 0
13489.4 505042.0 0
11101.6 509389.0 0
21558.7 505028.0 0
17818.2 506002.0 0
20394.4 508323.0 0
24775.3 507904.0 0
28773.0 505541.0 0
36200.3 504237.0 0
32583.0 507293.0 0
36218.4 508674.0 0
40566.0 506247.0 0
44379.3 503866.0 0
44764.6 508324.0 0
48336.7 504634.0 0
48950.8 508027.0 0
53044.4 506027.0 0
57860.7 506331.0 0
61479.0 507092.0 0
65015.2 505972.0 0
68755.8 504355.0 0
72518.0 506454.0 0
77683.2 507305.0 0
84641.7 504651.0 0
90082.8 505870.0 0
95905.2 504117.0 0
100641.0 504829.0 0
105634.0 503620.0 0
111091.0 504605.0 0
111633.0 508045.0 0
115199.0 503544.0 0
114896.0 507309.0 0
118446.0 504512.0 0
122477.0 506387.0 0
127958.0 503828.0 0
132441.0 505341.0 0
135952.0 503328.0 0
136138.0 507640.0 0
140357.0 504807.0 0
143687.0 506411.0 0
147381.0 506545.0 0
153926.0 507059.0 0
158984.0 505397.0 0
163124.0 507324.0 0
164443.0 503015.0 0
167675.0 505261.0 0
173157.0 504742.0 0
169703.0 507338.0 0
178682.0 503450.0 0
181783.0 506573.0 0
185999.0 505699.0 0
189966.0 504479.0 0
194391.0 507112.0 0
200744.0 504841.0 0
207929.0 505749.0 0
213761.0 504247.0 0
218980.0 505344.0 0
223983.0 505950.0 0
228328.0 502616.0 0
228648.0 507096.0 0
233424.0 504917.0 0
238131.0 503973.0 0
242270.0 506310.0 0
247873.0 505996.0 0
253063.0 504742.0 0
257877.0 503904.0 0
262164.0 503665.0 0
265760.0 506142.0 0
270750.0 505107.0 0
275623.0 505548.0 0
279421.0 502279.0 0
279108.0 506212.0 0
283204.0 506579.0 0
288854.0 505139.0 0
294335.0 506486.0 0
299160.0 504265.0 0
303046.0 506586.0 0
310482.0 503989.0 0
307719.0 507734.0 0
315032.0 503361.0 0
319450.0 506342.0 0
324102.0 504535.0 0
328787.0 507286.0 0
333944.0 504207.0 0
340218.0 505542.0 0
344662.0 503887.0 0
349509.0 504343.0 0
354303.0 504341.0 0
359358.0 504991.0 0
362944.0 507174.0 0
365817.0 504479.0 0
369522.0 507531.0 0
373113.0 507530.0 0
376357.0 505333.0 0
380938.0 507135.0 0
383090.0 503526.0 0
385840.0 506176.0 0
389962.0 505311.0 0
394814.0 505559.0 0
398760.0 503179.0 0
400296.0 507084.0 0
403350.0 503754.0 0
408502.0 504819.0 0
413363.0 504787.0 0
418633.0 506680.0 0
422883.0 508371.0 0
426823.0 506982.0 0
431519.0 505754.0 0
435419.0 504897.0 0
435119.0 508414.0 0
441878.0 504824.0 0
438670.0 506559.0 0
446287.0 505201.0 0
451440.0 506355.0 0
455341.0 504407.0 0
455310.0 508406.0 0
460668.0 506655.0 0
465495.0 505387.0 0
465243.0 508807.0 0
468713.0 507047.0 0
472155.0 505638.0 0
474250.0 508331.0 0
477142.0 505328.0 0
482521.0 504515.0 0
487665.0 505424.0 0
485145.0 508416.0 0
488729.0 508966.0 0
491593.0 507014.0 0
497186.0 504173.0 0
498424.0 507147.0 0
2553.22 510675.0 0
7356.13 510447.0 0
5572.63 511769.0 0
11966.8 514247.0 0
16210.0 508911.0 0
14962.6 511930.0 0
18653.2 511747.0 0
22390.8 510956.0 0
25584.5 512419.0 0
29020.9 510062.0 0
33459.5 512190.0 0
39669.3 511347.0 0
44311.4 512249.0 0
47902.1 511665.0 0
55627.8 509068.0 0
51941.8 510327.0 0
55029.2 512438.0 0
59489.6 510527.0 0
64056.8 510007.0 0
68014.0 508508.0 0
67163.4 512629.0 0
70934.2 511159.0 0
74771.1 510460.0 0
81642.6 508219.0 0
78415.9 512502.0 0
85859.8 508745.0 0
83452.8 512823.0 0
88554.8 511124.0 0
93749.0 510168.0 0
98181.7 508338.0 0
98872.6 512389.0 0
102438.0 508710.0 0
107697.0 509074.0 0
112505.0 511895.0 0
118419.0 508686.0 0
121816.0 511094.0 0
126119.0 509057.0 0
128046.0 511483.0 0
130521.0 508974.0 0
133808.0 511591.0 0
137835.0 511392.0 0
140783.0 508902.0 0
144813.0 510153.0 0
149584.0 510671.0 0
154116.0 512522.0 0
158535.0 509890.0 0
167162.0 509452.0 0
171691.0 510286.0 0
177646.0 507759.0 0
175850.0 512050.0 0
180691.0 511123.0 0
189284.0 508038.0 0
185674.0 510630.0 0
190613.0 511741.0 0
199484.0 510103.0 0
204064.0 508534.0 0
203014.0 512633.0 0
207331.0 511184.0 0
211882.0 509415.0 0
216658.0 509507.0 0
221076.0 509788.0 0
225983.0 510273.0 0
231635.0 510586.0 0
237269.0 508699.0 0
241658.0 511687.0 0
247100.0 511689.0 0
252182.0 509753.0 0
256980.0 508692.0 0
261959.0 509402.0 0
267349.0 510932.0 0
272263.0 509958.0 0
277636.0 510519.0 0
283152.0 511984.0 0
286813.0 509501.0 0
290650.0 510060.0 0
294530.0 511136.0 0
299009.0 509760.0 0
303935.0 511356.0 0
312908.0 507784.0 0
312462.0 512364.0 0
316634.0 509383.0 0
315777.0 512059.0 0
319723.0 512601.0 0
323836.0 509513.0 0
327447.0 511332.0 0
332998.0 509264.0 0
335639.0 512564.0 0
336505.0 508433.0 0
340373.0 510800.0 0
346121.0 508726.0 0
351881.0 508560.0 0
356188.0 508453.0 0
354591.0 512376.0 0
360584.0 509992.0 0
366034.0 510059.0 0
371710.0 512140.0 0
376552.0 509451.0 0
380706.0 511810.0 0
385034.0 510080.0 0
388876.0 508938.0 0
388588.0 512289.0 0
392468.0 508356.0 0
393023.0 512126.0 0
396684.0 509376.0 0
401116.0 511294.0 0
405363.0 508509.0 0
410577.0 508718.0 0
408854.0 511777.0 0
414933.0 509330.0 0
412375.0 512658.0 0
416311.0 513097.0 0
419282.0 510986.0 0
422706.0 512596.0 0
426582.0 511432.0 0
430734.0 509899.0 0
434529.0 512424.0 0
438638.0 510592.0 0
443123.0 509153.0 0
446786.0 513011.0 0
448406.0 509052.0 0
452253.0 509788.0 0
450606.0 512274.0 0
454634.0 513155.0 0
458732.0 510957.0 0
463208.0 512155.0 0
468468.0 511208.0 0
471593.0 509184.0 0
477444.0 509573.0 0
474172.0 512671.0 0
481208.0 509083.0 0
479528.0 513353.0 0
483701.0 512284.0 0
487294.0 511813.0 0
492046.0 512511.0 0
495021.0 508501.0 0
498043.0 509930.0 0
497291.0 513183.0 0
3467.08 515811.0 0
8173.17 513761.0 0
8622.96 517372.0 0
13172.8 518116.0 0
16627.3 515106.0 0
21513.0 515090.0 0
29342.4 514382.0 0
26078.3 516058.0 0
31854.3 516239.0 0
36573.1 516125.0 0
42114.4 515488.0 0
43658.7 518547.0 0
51147.6 514161.0 0
46844.9 515834.0 0
50928.5 517838.0 0
54522.0 516140.0 0
58154.7 514402.0 0
58659.9 517991.0 0
62808.3 514513.0 0
67443.2 517039.0 0
70346.2 514522.0 0
72131.7 517373.0 0
73764.3 513897.0 0
76396.7 516946.0 0
80354.0 516286.0 0
83962.9 517902.0 0
87240.4 514756.0 0
90402.3 513928.0 0
94593.4 516034.0 0
100028.0 516952.0 0
103556.0 513397.0 0
105080.0 518362.0 0
108110.0 514213.0 0
111111.0 517359.0 0
114390.0 515083.0 0
117407.0 512835.0 0
121369.0 515323.0 0
125431.0 513171.0 0
125468.0 517208.0 0
130014.0 514674.0 0
136199.0 514937.0 0
141317.0 513741.0 0
143547.0 517602.0 0
146167.0 514377.0 0
150324.0 515799.0 0
158386.0 514421.0 0
155109.0 517813.0 0
163329.0 513077.0 0
168707.0 513779.0 0
166034.0 517526.0 0
172351.0 514048.0 0
170429.0 517503.0 0
174556.0 516668.0 0
179055.0 515707.0 0
183701.0 515234.0 0
187640.0 514639.0 0
191545.0 516723.0 0
195311.0 512996.0 0
199604.0 514467.0 0
205926.0 515417.0 0
209932.0 514195.0 0
214035.0 514096.0 0
218409.0 513336.0 0
222800.0 513992.0 0
227647.0 515194.0 0
232881.0 516038.0 0
237183.0 513766.0 0
244175.0 515565.0 0
240543.0 515742.0 0
251606.0 514916.0 0
259679.0 513342.0 0
255778.0 513009.0 0
257724.0 517037.0 0
263292.0 513746.0 0
266942.0 515981.0 0
271078.0 514056.0 0
279479.0 514789.0 0
275372.0 515834.0 0
282245.0 515766.0 0
287625.0 513571.0 0
292243.0 514710.0 0
296930.0 514375.0 0
300879.0 514179.0 0
304782.0 516627.0 0
308204.0 512905.0 0
315617.0 515412.0 0
310970.0 517198.0 0
325189.0 515755.0 0
330886.0 513163.0 0
330303.0 517465.0 0
334701.0 517325.0 0
339330.0 515668.0 0
344672.0 514455.0 0
350039.0 513001.0 0
353198.0 516062.0 0
358372.0 513344.0 0
357998.0 518065.0 0
362941.0 514495.0 0
367418.0 513903.0 0
366815.0 517253.0 0
370835.0 517731.0 0
375204.0 516866.0 0
376659.0 513212.0 0
379752.0 516128.0 0
384874.0 515197.0 0
390483.0 516378.0 0
394785.0 516145.0 0
397682.0 513679.0 0
401656.0 515691.0 0
405254.0 513466.0 0
405390.0 517395.0 0
409539.0 516199.0 0
414455.0 516491.0 0
419776.0 515988.0 0
425468.0 516011.0 0
430299.0 514412.0 0
435084.0 517255.0 0
438370.0 514251.0 0
442387.0 513703.0 0
440665.0 518061.0 0
445674.0 516794.0 0
450783.0 516205.0 0
455608.0 517614.0 0
459347.0 515206.0 0
460070.0 518624.0 0
463606.0 516763.0 0
466313.0 514332.0 0
467296.0 517161.0 0
470216.0 514983.0 0
474002.0 517020.0 0
478191.0 517397.0 0
483235.0 516296.0 0
487834.0 515678.0 0
494084.0 516747.0 0
490339.0 518854.0 0
498228.0 516376.0 0
1370.86 519891.0 0
5225.99 520456.0 0
2336.06 523280.0 0
9388.33 521725.0 0
14513.9 522656.0 0
18655.0 519065.0 0
18815.2 523658.0 0
23609.8 518739.0 0
21709.3 521742.0 0
25014.3 521946.0 0
28649.3 519260.0 0
33271.8 519469.0 0
31848.5 522774.0 0
40164.8 518782.0 0
37003.7 521481.0 0
42038.5 521697.0 0
47005.8 520661.0 0
51279.9 521221.0 0
54780.1 519801.0 0
53929.4 523568.0 0
58596.1 522475.0 0
62857.2 519185.0 0
62685.2 523121.0 0
66635.1 521317.0 0
70331.7 520214.0 0
74229.4 521075.0 0
79193.6 520581.0 0
83584.1 521647.0 0
86347.4 520742.0 0
89165.6 518105.0 0
88980.3 521967.0 0
92610.7 521218.0 0
96737.1 520291.0 0
100651.0 521958.0 0
108428.0 521683.0 0
113174.0 522205.0 0
116861.0 518121.0 0
121847.0 519746.0 0
125307.0 521005.0 0
128661.0 519790.0 0
133434.0 518963.0 0
138950.0 518914.0 0
142885.0 521748.0 0
147189.0 519868.0 0
151298.0 520102.0 0
154540.0 522713.0 0
160897.0 519086.0 0
167991.0 521113.0 0
173015.0 521722.0 0
177398.0 519631.0 0
181801.0 519672.0 0
186854.0 519035.0 0
193381.0 521856.0 0
196630.0 517759.0 0
198212.0 521456.0 0
200831.0 517860.0 0
204462.0 519984.0 0
209547.0 518667.0 0
215154.0 519549.0 0
219961.0 517346.0 0
224090.0 518913.0 0
220340.0 522315.0 0
228335.0 520062.0 0
232788.0 520936.0 0
237496.0 518873.0 0
242206.0 519066.0 0
247837.0 519726.0 0
253659.0 519351.0 0
262434.0 517956.0 0
262267.0 522538.0 0
266696.0 521079.0 0
271160.0 518576.0 0
275232.0 520512.0 0
279712.0 518979.0 0
285328.0 517764.0 0
289573.0 518489.0 0
293947.0 519269.0 0
299493.0 518343.0 0
296937.0 522289.0 0
303243.0 521193.0 0
307618.0 520994.0 0
312287.0 522224.0 0
315342.0 519370.0 0
319595.0 517823.0 0
318126.0 521893.0 0
322618.0 521972.0 0
327781.0 521185.0 0
331927.0 520591.0 0
335314.0 521969.0 0
340371.0 520961.0 0
344645.0 518737.0 0
346307.0 522538.0 0
349056.0 517942.0 0
353165.0 520301.0 0
360616.0 522400.0 0
363472.0 519587.0 0
368006.0 521788.0 0
373864.0 522726.0 0
378226.0 520054.0 0
382532.0 519916.0 0
387655.0 520113.0 0
393923.0 520287.0 0
398959.0 523260.0 0
398285.0 518420.0 0
402747.0 520010.0 0
407638.0 520936.0 0
412025.0 519921.0 0
416492.0 520308.0 0
421143.0 520566.0 0
425655.0 520346.0 0
430020.0 518589.0 0
428269.0 520898.0 0
433862.0 521376.0 0
437799.0 521251.0 0
441144.0 521918.0 0
444753.0 520821.0 0
448910.0 519785.0 0
452906.0 520381.0 0
457833.0 521789.0 0
462967.0 520618.0 0
466870.0 520044.0 0
465949.0 522976.0 0
470615.0 518728.0 0
470735.0 522965.0 0
474678.0 520529.0 0
478316.0 521386.0 0
482185.0 520012.0 0
486303.0 519313.0 0
485249.0 522537.0 0
488868.0 522099.0 0
493699.0 520776.0 0
497732.0 519337.0 0
497361.0 523090.0 0
2424.67 527389.0 0
6115.44 524906.0 0
10678.1 526476.0 0
16266.0 527373.0 0
22552.0 526420.0 0
27807.7 524114.0 0
27234.7 528156.0 0
31034.7 526855.0 0
34946.0 525287.0 0
39872.8 525330.0 0
36809.8 528195.0 0
44854.1 524778.0 0
43471.6 528761.0 0
47340.2 527575.0 0
49714.7 524757.0 0
52840.0 526542.0 0
56497.9 526457.0 0
61149.5 527176.0 0
65556.2 524997.0 0
70461.9 524442.0 0
75628.9 525629.0 0
81265.9 525683.0 0
86220.3 523993.0 0
86044.1 528118.0 0
90611.4 525598.0 0
95836.0 524612.0 0
104512.0 524725.0 0
109637.0 526537.0 0
114361.0 526646.0 0
118647.0 523717.0 0
123161.0 523363.0 0
122768.0 527081.0 0
126829.0 524575.0 0
131153.0 523302.0 0
135665.0 523263.0 0
138128.0 526541.0 0
139244.0 523177.0 0
141261.0 525277.0 0
145282.0 525770.0 0
150049.0 524259.0 0
158770.0 524374.0 0
154272.0 527883.0 0
163955.0 523640.0 0
161625.0 527033.0 0
168530.0 525466.0 0
172964.0 527059.0 0
178732.0 524887.0 0
184698.0 523792.0 0
189397.0 525113.0 0
193348.0 526496.0 0
197057.0 525120.0 0
201391.0 524004.0 0
206355.0 524642.0 0
211219.0 523507.0 0
215919.0 525507.0 0
224567.0 522774.0 0
223027.0 526608.0 0
228136.0 524685.0 0
233227.0 525735.0 0
238139.0 524165.0 0
243014.0 523430.0 0
247396.0 525932.0 0
252198.0 524102.0 0
257507.0 522863.0 0
260630.0 526391.0 0
265263.0 526372.0 0
271604.0 524201.0 0
278229.0 523878.0 0
283793.0 522935.0 0
281151.0 527309.0 0
290198.0 523778.0 0
295555.0 526876.0 0
300545.0 524725.0 0
305292.0 525273.0 0
309308.0 524801.0 0
316031.0 526286.0 0
321310.0 526870.0 0
326040.0 525979.0 0
331649.0 525673.0 0
337686.0 526529.0 0
342830.0 525837.0 0
347207.0 527303.0 0
350804.0 524120.0 0
356234.0 524589.0 0
361569.0 526558.0 0
364310.0 523450.0 0
366291.0 526827.0 0
369747.0 525523.0 0
372831.0 528031.0 0
379705.0 524366.0 0
384853.0 524293.0 0
387463.0 527896.0 0
390919.0 524408.0 0
395141.0 523755.0 0
395923.0 528109.0 0
400889.0 527763.0 0
403854.0 524086.0 0
404722.0 527924.0 0
408307.0 525523.0 0
413340.0 524203.0 0
418569.0 525045.0 0
423813.0 524763.0 0
429730.0 524073.0 0
435938.0 525397.0 0
439846.0 524130.0 0
441200.0 528087.0 0
443764.0 524675.0 0
448759.0 524231.0 0
453711.0 524258.0 0
457643.0 527249.0 0
462198.0 524708.0 0
467072.0 526546.0 0
472674.0 528160.0 0
476034.0 524455.0 0
478090.0 528391.0 0
481285.0 524795.0 0
487056.0 526562.0 0
492217.0 524717.0 0
496788.0 527618.0 0
2058.25 531579.0 0
5527.87 534093.0 0
6554.82 529545.0 0
9244.9 532743.0 0
12707.9 530773.0 0
19235.6 530946.0 0
24543.0 532549.0 0
29927.1 531245.0 0
33623.2 529748.0 0
36833.3 532138.0 0
39754.2 529724.0 0
50709.8 528784.0 0
47155.5 532141.0 0
53922.0 528915.0 0
52841.0 532573.0 0
57193.5 530499.0 0
61413.1 532304.0 0
66603.3 529569.0 0
70429.7 533362.0 0
71890.6 528826.0 0
74896.6 531461.0 0
78324.5 529496.0 0
82156.5 530540.0 0
89717.4 530007.0 0
94254.5 529417.0 0
99719.7 528278.0 0
101743.0 532951.0 0
105064.0 529632.0 0
109434.0 531203.0 0
113631.0 530823.0 0
118321.0 528830.0 0
122168.0 531811.0 0
127148.0 529742.0 0
133159.0 528274.0 0
137969.0 530543.0 0
141479.0 528658.0 0
144747.0 530232.0 0
148797.0 529158.0 0
151757.0 532806.0 0
159200.0 529963.0 0
163026.0 531939.0 0
164886.0 528311.0 0
168942.0 530436.0 0
173175.0 531240.0 0
176207.0 529472.0 0
179668.0 530368.0 0
184126.0 529094.0 0
188615.0 529228.0 0
192116.0 529949.0 0
196217.0 529296.0 0
199892.0 527900.0 0
200149.0 532513.0 0
205062.0 529808.0 0
209719.0 527916.0 0
213398.0 529722.0 0
209659.0 532458.0 0
217978.0 530414.0 0
222945.0 531791.0 0
226945.0 529163.0 0
231455.0 530334.0 0
237358.0 529993.0 0
242807.0 528309.0 0
247211.0 530160.0 0
251011.0 529138.0 0
255547.0 527943.0 0
259454.0 532044.0 0
264610.0 531013.0 0
269670.0 529568.0 0
275889.0 529408.0 0
281832.0 532107.0 0
285965.0 528311.0 0
291114.0 529994.0 0
300169.0 529691.0 0
295730.0 531934.0 0
305484.0 530476.0 0
310771.0 528961.0 0
315690.0 532738.0 0
324092.0 529598.0 0
320945.0 531403.0 0
326937.0 529685.0 0
330039.0 530639.0 0
334487.0 530699.0 0
341670.0 530869.0 0
347523.0 532837.0 0
352259.0 528876.0 0
357949.0 530804.0 0
363780.0 530947.0 0
369076.0 531082.0 0
374400.0 532814.0 0
377250.0 528407.0 0
378875.0 532401.0 0
382498.0 529313.0 0
387769.0 532749.0 0
391320.0 529294.0 0
393570.0 533515.0 0
398666.0 532461.0 0
403022.0 531861.0 0
411781.0 528695.0 0
407802.0 530488.0 0
412020.0 533228.0 0
416247.0 529914.0 0
421380.0 529232.0 0
426570.0 528793.0 0
424436.0 533064.0 0
431995.0 529094.0 0
429079.0 533037.0 0
433866.0 533471.0 0
436844.0 530341.0 0
440572.0 532442.0 0
446338.0 528522.0 0
444544.0 532655.0 0
451904.0 529069.0 0
448635.0 532385.0 0
455941.0 532275.0 0
463064.0 529444.0 0
459584.0 531204.0 0
464541.0 533487.0 0
468026.0 531114.0 0
472083.0 533227.0 0
476041.0 532039.0 0
482817.0 529327.0 0
480197.0 532238.0 0
486470.0 532001.0 0
491445.0 530069.0 0
497083.0 532524.0 0
2078.07 535508.0 0
8814.3 536186.0 0
15971.4 533865.0 0
12305.4 535459.0 0
15502.0 538446.0 0
19775.6 536139.0 0
24280.3 538365.0 0
29296.9 535848.0 0
33175.9 533822.0 0
36802.6 536208.0 0
41108.9 537984.0 0
41543.8 533576.0 0
45045.8 536357.0 0
49582.9 536471.0 0
54219.7 537103.0 0
57459.0 534537.0 0
60769.5 537249.0 0
65482.7 535261.0 0
69292.2 538064.0 0
74020.9 536178.0 0
79175.1 534313.0 0
86008.0 533423.0 0
82916.3 538032.0 0
91507.5 533549.0 0
92959.1 537694.0 0
96981.2 533976.0 0
101863.0 537145.0 0
106204.0 534672.0 0
111373.0 535143.0 0
117377.0 533393.0 0
115513.0 537575.0 0
120858.0 537148.0 0
125982.0 535097.0 0
129091.0 537771.0 0
131251.0 533985.0 0
132087.0 538107.0 0
136747.0 535175.0 0
141624.0 532951.0 0
146648.0 534366.0 0
151604.0 537507.0 0
156841.0 535116.0 0
162028.0 535874.0 0
166309.0 534646.0 0
171378.0 535308.0 0
176490.0 533552.0 0
181688.0 534898.0 0
187303.0 533433.0 0
190553.0 536975.0 0
194562.0 533916.0 0
205341.0 535222.0 0
214271.0 534295.0 0
219336.0 535566.0 0
223832.0 537066.0 0
227748.0 534140.0 0
233178.0 534909.0 0
238590.0 536006.0 0
244037.0 533638.0 0
249486.0 533228.0 0
253944.0 532536.0 0
251836.0 536150.0 0
255679.0 537300.0 0
263785.0 534813.0 0
260466.0 537678.0 0
267694.0 533758.0 0
272281.0 534315.0 0
277466.0 535583.0 0
282367.0 537341.0 0
287169.0 533683.0 0
292216.0 534983.0 0
299749.0 535103.0 0
295841.0 537425.0 0
304526.0 535080.0 0
309589.0 534958.0 0
313551.0 536900.0 0
320391.0 536165.0 0
325922.0 534399.0 0
331811.0 534922.0 0
337554.0 535506.0 0
343065.0 536435.0 0
349378.0 537632.0 0
353329.0 534471.0 0
361419.0 535656.0 0
357092.0 537897.0 0
366108.0 534874.0 0
370530.0 536602.0 0
377887.0 536640.0 0
382785.0 535308.0 0
389346.0 538100.0 0
393858.0 538122.0 0
397125.0 536180.0 0
401722.0 536831.0 0
407190.0 535321.0 0
415360.0 536187.0 0
419514.0 533754.0 0
422904.0 536814.0 0
427137.0 537319.0 0
431331.0 536415.0 0
435573.0 537615.0 0
437728.0 534600.0 0
441744.0 536678.0 0
447565.0 537423.0 0
452064.0 534703.0 0
455994.0 536900.0 0
460384.0 534974.0 0
461732.0 539056.0 0
464236.0 536769.0 0
468472.0 536045.0 0
473836.0 537527.0 0
478010.0 535517.0 0
483053.0 536692.0 0
488472.0 536243.0 0
493107.0 534955.0 0
497651.0 537245.0 0
1778.55 538959.0 0
2683.38 543031.0 0
6128.74 539462.0 0
11144.1 539856.0 0
14429.4 542997.0 0
19229.0 541018.0 0
23636.1 543428.0 0
28739.7 540519.0 0
32878.6 538736.0 0
32319.0 543137.0 0
37242.0 541446.0 0
44018.2 539009.0 0
42872.3 542418.0 0
46953.3 539905.0 0
50623.2 540326.0 0
51004.8 542898.0 0
54552.1 541701.0 0
57520.9 538923.0 0
59756.7 542160.0 0
64591.2 540184.0 0
68753.0 543283.0 0
72906.6 540450.0 0
77648.8 539814.0 0
81361.8 542244.0 0
85381.1 542082.0 0
88136.9 538164.0 0
89289.2 542587.0 0
93057.7 542071.0 0
97568.5 539860.0 0
102144.0 541843.0 0
106075.0 539239.0 0
111078.0 540284.0 0
115990.0 541987.0 0
120316.0 541869.0 0
125237.0 540175.0 0
130073.0 541710.0 0
135680.0 540845.0 0
141938.0 538472.0 0
147365.0 539253.0 0
150957.0 542120.0 0
155260.0 540281.0 0
159790.0 539875.0 0
165141.0 539726.0 0
170528.0 540592.0 0
176019.0 538870.0 0
181007.0 541431.0 0
185844.0 538836.0 0
190219.0 541919.0 0
194875.0 539399.0 0
197873.0 542857.0 0
200633.0 538605.0 0
205406.0 539674.0 0
210196.0 538188.0 0
215662.0 539335.0 0
219829.0 539750.0 0
223022.0 541949.0 0
227061.0 541505.0 0
229853.0 538634.0 0
234586.0 539663.0 0
238911.0 540959.0 0
242913.0 539096.0 0
247894.0 537926.0 0
252148.0 541112.0 0
257047.0 542634.0 0
264880.0 538679.0 0
262143.0 542432.0 0
269113.0 537865.0 0
267608.0 542759.0 0
273783.0 539574.0 0
281903.0 541810.0 0
287379.0 539362.0 0
292635.0 539732.0 0
298774.0 539788.0 0
303337.0 539449.0 0
307952.0 539846.0 0
309846.0 542790.0 0
312720.0 540281.0 0
316478.0 538184.0 0
317137.0 542801.0 0
322059.0 540946.0 0
327650.0 540698.0 0
333582.0 539984.0 0
337980.0 540204.0 0
341710.0 541231.0 0
345986.0 539743.0 0
349617.0 541443.0 0
352916.0 539337.0 0
355987.0 542856.0 0
360845.0 540761.0 0
365262.0 539059.0 0
364373.0 543086.0 0
369621.0 542852.0 0
374612.0 539806.0 0
378869.0 540948.0 0
384066.0 541157.0 0
397475.0 540995.0 0
402274.0 541581.0 0
406125.0 540067.0 0
411262.0 538140.0 0
410149.0 543032.0 0
414959.0 541185.0 0
419255.0 538879.0 0
424031.0 541171.0 0
432580.0 538952.0 0
430242.0 539713.0 0
428808.0 543222.0 0
433794.0 541750.0 0
438854.0 539824.0 0
443440.0 541723.0 0
448863.0 542734.0 0
452442.0 539764.0 0
457815.0 541552.0 0
462851.0 542609.0 0
465956.0 540273.0 0
470035.0 540018.0 0
473488.0 542443.0 0
478447.0 539497.0 0
477904.0 542983.0 0
481856.0 542064.0 0
487008.0 541355.0 0
492514.0 539607.0 0
497281.0 541745.0 0
2526.2 547351.0 0
9076.57 544576.0 0
13503.5 547557.0 0
18811.0 546560.0 0
28137.5 544886.0 0
30710.1 548424.0 0
35598.0 546769.0 0
40004.3 545586.0 0
43655.1 547038.0 0
47597.0 544468.0 0
52130.7 546027.0 0
56361.1 545677.0 0
59730.5 547313.0 0
63728.8 545025.0 0
67099.5 547801.0 0
73661.2 544558.0 0
75384.2 548045.0 0
78204.0 545038.0 0
83333.3 546686.0 0
90689.4 546315.0 0
96178.0 545912.0 0
101865.0 546931.0 0
106995.0 544321.0 0
112436.0 545703.0 0
118315.0 546777.0 0
122475.0 548847.0 0
123663.0 544973.0 0
128141.0 546195.0 0
132988.0 545889.0 0
137168.0 546598.0 0
140125.0 543753.0 0
145600.0 544435.0 0
150776.0 547082.0 0
154949.0 544586.0 0
162203.0 543356.0 0
159252.0 546456.0 0
167481.0 543918.0 0
164474.0 547474.0 0
171831.0 545720.0 0
176565.0 544038.0 0
180122.0 545710.0 0
185447.0 544630.0 0
194271.0 544042.0 0
190888.0 546835.0 0
199352.0 545810.0 0
203006.0 543852.0 0
207897.0 543068.0 0
212474.0 542914.0 0
218249.0 544127.0 0
226276.0 545928.0 0
231046.0 543403.0 0
235927.0 544024.0 0
240737.0 544647.0 0
243459.0 547892.0 0
246197.0 543482.0 0
251858.0 545576.0 0
259741.0 546405.0 0
264437.0 547119.0 0
269010.0 547422.0 0
272555.0 544657.0 0
277575.0 543459.0 0
285451.0 544380.0 0
290608.0 544393.0 0
296030.0 543324.0 0
298386.0 547948.0 0
301086.0 543947.0 0
306023.0 543962.0 0
308405.0 547595.0 0
312780.0 545127.0 0
321287.0 545970.0 0
316557.0 547817.0 0
326101.0 545891.0 0
331628.0 545462.0 0
337417.0 544219.0 0
342243.0 545164.0 0
344257.0 548115.0 0
346277.0 544244.0 0
351405.0 544660.0 0
354482.0 547725.0 0
360814.0 546351.0 0
371937.0 547588.0 0
375519.0 544645.0 0
380107.0 544607.0 0
378228.0 547593.0 0
386251.0 547019.0 0
391721.0 543470.0 0
396509.0 545376.0 0
394146.0 547793.0 0
400622.0 545353.0 0
405305.0 544606.0 0
414593.0 546764.0 0
419517.0 543823.0 0
424709.0 545447.0 0
428778.0 548070.0 0
433112.0 546277.0 0
438409.0 544369.0 0
445596.0 546118.0 0
450031.0 547514.0 0
453413.0 544304.0 0
457414.0 546499.0 0
460739.0 545418.0 0
468714.0 544026.0 0
464642.0 546608.0 0
472070.0 546601.0 0
475639.0 545809.0 0
479889.0 547031.0 0
484240.0 545578.0 0
487871.0 545705.0 0
492237.0 544804.0 0
497393.0 546485.0 0
2108.48 551405.0 0
6756.75 549933.0 0
10353.8 548528.0 0
11790.7 551642.0 0
16007.7 551217.0 0
20405.1 551421.0 0
24723.7 548909.0 0
23666.1 553835.0 0
28453.8 553062.0 0
34885.2 552710.0 0
39988.5 549608.0 0
44519.2 551324.0 0
48843.1 549263.0 0
48856.6 553774.0 0
54887.8 551533.0 0
63020.7 550449.0 0
71393.9 548608.0 0
68008.8 551948.0 0
75521.5 551026.0 0
72512.6 553272.0 0
78896.2 549619.0 0
83160.0 552362.0 0
87628.1 549527.0 0
92659.9 551025.0 0
98710.1 551545.0 0
106512.0 550212.0 0
111883.0 550671.0 0
116247.0 551371.0 0
120408.0 551675.0 0
125745.0 550260.0 0
130457.0 550075.0 0
135791.0 551392.0 0
141209.0 548686.0 0
146497.0 550885.0 0
151462.0 551276.0 0
155302.0 549277.0 0
159895.0 551566.0 0
168824.0 549423.0 0
176647.0 549554.0 0
182598.0 549138.0 0
187074.0 549151.0 0
185330.0 552893.0 0
190904.0 551892.0 0
195974.0 548080.0 0
195352.0 552231.0 0
202087.0 549200.0 0
207622.0 548271.0 0
213651.0 548171.0 0
219063.0 549166.0 0
223287.0 549588.0 0
227924.0 551431.0 0
232283.0 548242.0 0
232895.0 552739.0 0
237601.0 548673.0 0
241511.0 551818.0 0
248512.0 549183.0 0
255426.0 548283.0 0
260711.0 552043.0 0
267445.0 552231.0 0
275053.0 549291.0 0
281289.0 548301.0 0
287525.0 549107.0 0
293288.0 549465.0 0
300736.0 552909.0 0
303558.0 548193.0 0
307176.0 552722.0 0
312084.0 549603.0 0
320093.0 550283.0 0
316515.0 552314.0 0
323932.0 549586.0 0
328899.0 550947.0 0
334550.0 550188.0 0
339747.0 549149.0 0
344334.0 552855.0 0
349160.0 549123.0 0
353598.0 552130.0 0
357759.0 550121.0 0
361652.0 551871.0 0
366840.0 549109.0 0
371734.0 551358.0 0
375260.0 548967.0 0
375392.0 552333.0 0
378763.0 551019.0 0
381446.0 548240.0 0
383525.0 552711.0 0
390787.0 548480.0 0
388673.0 551791.0 0
393235.0 551861.0 0
398059.0 549275.0 0
401772.0 552770.0 0
403825.0 548661.0 0
405963.0 551902.0 0
408915.0 548512.0 0
415640.0 552664.0 0
420022.0 548873.0 0
424796.0 548978.0 0
423244.0 552078.0 0
427575.0 552839.0 0
432780.0 551561.0 0
436734.0 548802.0 0
438120.0 553147.0 0
441575.0 548983.0 0
446514.0 551024.0 0
451229.0 552250.0 0
454545.0 549225.0 0
457675.0 552843.0 0
460634.0 549359.0 0
464921.0 551540.0 0
468791.0 548677.0 0
470058.0 553308.0 0
475079.0 550446.0 0
482604.0 550264.0 0
479841.0 553435.0 0
486829.0 549727.0 0
492193.0 550359.0 0
497366.0 551069.0 0
3368.44 556099.0 0
8553.92 554327.0 0
12547.5 555732.0 0
18374.9 556770.0 0
26061.3 557375.0 0
31361.8 557903.0 0
40468.3 554041.0 0
41133.6 556987.0 0
37594.7 558654.0 0
44604.5 556398.0 0
51896.3 556592.0 0
56281.0 558368.0 0
60109.0 554760.0 0
64649.8 554927.0 0
68804.6 556621.0 0
73499.5 558220.0 0
77682.7 554577.0 0
82174.3 557457.0 0
87979.0 554055.0 0
92256.9 556848.0 0
95650.4 554336.0 0
98254.9 556548.0 0
103277.0 555364.0 0
109184.0 555237.0 0
113757.0 554339.0 0
117890.0 555495.0 0
123418.0 556051.0 0
128323.0 553976.0 0
132214.0 554930.0 0
136142.0 557770.0 0
141148.0 554190.0 0
146077.0 556785.0 0
150010.0 554553.0 0
154994.0 554714.0 0
160503.0 557409.0 0
165396.0 553446.0 0
171610.0 553513.0 0
169356.0 557164.0 0
176318.0 554888.0 0
180710.0 553784.0 0
184052.0 557352.0 0
189033.0 556799.0 0
199261.0 553519.0 0
194872.0 557153.0 0
204294.0 553403.0 0
200028.0 557608.0 0
203489.0 558080.0 0
208803.0 553094.0 0
207519.0 557460.0 0
213463.0 553946.0 0
218291.0 553655.0 0
223080.0 554086.0 0
227373.0 556998.0 0
232288.0 557046.0 0
237306.0 553978.0 0
241567.0 556606.0 0
245540.0 553738.0 0
249782.0 554148.0 0
254540.0 553694.0 0
251728.0 557982.0 0
269003.0 557205.0 0
272847.0 554333.0 0
278335.0 553850.0 0
282507.0 553115.0 0
282838.0 557473.0 0
285996.0 553698.0 0
290279.0 553587.0 0
287643.0 556974.0 0
294911.0 554586.0 0
291465.0 558008.0 0
294829.0 558019.0 0
312564.0 554034.0 0
315835.0 556919.0 0
319909.0 555094.0 0
324314.0 553961.0 0
328587.0 556495.0 0
332939.0 554742.0 0
337766.0 554105.0 0
341351.0 557128.0 0
345906.0 557994.0 0
349690.0 554678.0 0
354277.0 556343.0 0
357466.0 553696.0 0
358457.0 557663.0 0
362849.0 556244.0 0
367593.0 555068.0 0
372999.0 555982.0 0
378028.0 555214.0 0
381452.0 556852.0 0
387977.0 556904.0 0
397221.0 553553.0 0
393854.0 557182.0 0
401488.0 557254.0 0
398197.0 556600.0 0
405702.0 555975.0 0
410247.0 553902.0 0
420154.0 553437.0 0
419133.0 556410.0 0
423545.0 556275.0 0
430784.0 554976.0 0
428554.0 557831.0 0
434422.0 557666.0 0
439868.0 557108.0 0
443000.0 554381.0 0
448108.0 556443.0 0
453789.0 556400.0 0
458195.0 556981.0 0
461864.0 555128.0 0
466049.0 555974.0 0
470202.0 558444.0 0
475165.0 556343.0 0
484211.0 553524.0 0
482840.0 557730.0 0
488703.0 555098.0 0
494325.0 555118.0 0
498287.0 554867.0 0
497875.0 558293.0 0
3686.69 562633.0 0
8918.8 559106.0 0
13777.8 561505.0 0
18884.6 563491.0 0
23205.6 560765.0 0
27858.4 561865.0 0
33579.9 563213.0 0
42761.1 561583.0 0
48649.5 560217.0 0
53233.5 563028.0 0
58573.1 563602.0 0
62675.5 559530.0 0
68663.4 562084.0 0
74404.5 563361.0 0
78098.5 559969.0 0
87019.3 559140.0 0
82392.6 562430.0 0
91355.3 562016.0 0
96162.5 560559.0 0
100916.0 560198.0 0
106837.0 560992.0 0
113578.0 559370.0 0
119181.0 560016.0 0
123868.0 561926.0 0
129469.0 559336.0 0
133175.0 563163.0 0
141577.0 559581.0 0
146023.0 561935.0 0
151116.0 559004.0 0
155836.0 559645.0 0
166125.0 559945.0 0
173147.0 559225.0 0
170016.0 563024.0 0
178843.0 558693.0 0
182723.0 562014.0 0
187732.0 561797.0 0
198434.0 561312.0 0
203271.0 562539.0 0
209022.0 562654.0 0
212215.0 558537.0 0
214279.0 562475.0 0
217015.0 558328.0 0
218633.0 562695.0 0
221818.0 558655.0 0
222731.0 562796.0 0
226841.0 561805.0 0
232144.0 562390.0 0
236906.0 559060.0 0
242186.0 561606.0 0
246684.0 558742.0 0
252553.0 562418.0 0
257176.0 559301.0 0
263692.0 558235.0 0
261270.0 562934.0 0
268414.0 562283.0 0
273053.0 559426.0 0
277822.0 558894.0 0
282255.0 562620.0 0
290374.0 562550.0 0
294697.0 561320.0 0
298574.0 558291.0 0
304393.0 558706.0 0
310292.0 558442.0 0
314889.0 562223.0 0
319410.0 559571.0 0
324266.0 559138.0 0
327939.0 562946.0 0
332525.0 559764.0 0
337276.0 558846.0 0
340894.0 561753.0 0
350954.0 559964.0 0
356517.0 563033.0 0
361803.0 560603.0 0
365604.0 559059.0 0
369704.0 559991.0 0
374484.0 560807.0 0
378970.0 560017.0 0
383730.0 560084.0 0
390877.0 561505.0 0
398331.0 560661.0 0
404348.0 561480.0 0
409675.0 559275.0 0
412573.0 562776.0 0
415168.0 558582.0 0
420555.0 560163.0 0
425103.0 560247.0 0
423302.0 562713.0 0
430951.0 561767.0 0
435058.0 563063.0 0
439195.0 561172.0 0
443414.0 558945.0 0
442998.0 562944.0 0
447241.0 561863.0 0
452086.0 561094.0 0
456453.0 560561.0 0
461240.0 559969.0 0
465916.0 560108.0 0
473811.0 561118.0 0
478416.0 560879.0 0
483183.0 563087.0 0
487337.0 560313.0 0
492324.0 559407.0 0
490765.0 563637.0 0
496342.0 562221.0 0
9472.64 564805.0 0
14544.3 567740.0 0
20135.6 567821.0 0
24204.9 565706.0 0
29210.4 566282.0 0
33307.8 568426.0 0
38926.0 565668.0 0
46590.4 565701.0 0
50721.9 568283.0 0
55163.8 567655.0 0
61448.0 567160.0 0
63885.2 564270.0 0
66769.6 566565.0 0
71379.0 568279.0 0
77409.3 567285.0 0
78560.9 563751.0 0
82941.0 567419.0 0
86970.9 564297.0 0
91397.4 566288.0 0
96151.9 565629.0 0
101672.0 565230.0 0
106696.0 566951.0 0
111632.0 564588.0 0
115935.0 563746.0 0
116854.0 568596.0 0
119705.0 564192.0 0
122931.0 566724.0 0
128516.0 566026.0 0
134609.0 567955.0 0
137956.0 563395.0 0
142737.0 565673.0 0
147267.0 567825.0 0
150404.0 564037.0 0
152038.0 568480.0 0
155588.0 564280.0 0
161219.0 563404.0 0
166299.0 565526.0 0
174215.0 564362.0 0
178488.0 563482.0 0
182342.0 567420.0 0
188398.0 567302.0 0
193360.0 563504.0 0
198809.0 566373.0 0
205940.0 567037.0 0
212392.0 567100.0 0
216568.0 565933.0 0
220719.0 566861.0 0
226140.0 566888.0 0
231010.0 567358.0 0
238307.0 563224.0 0
236255.0 567732.0 0
242491.0 567092.0 0
247527.0 563684.0 0
247298.0 567744.0 0
251310.0 566762.0 0
257907.0 564172.0 0
255934.0 567736.0 0
260608.0 567160.0 0
265531.0 567182.0 0
273176.0 563884.0 0
270402.0 567076.0 0
275205.0 568242.0 0
277624.0 563641.0 0
280628.0 567554.0 0
285098.0 567216.0 0
286326.0 563523.0 0
289747.0 567443.0 0
294227.0 565684.0 0
299185.0 564073.0 0
304188.0 563859.0 0
305630.0 567333.0 0
309125.0 564158.0 0
314430.0 567747.0 0
321859.0 564073.0 0
325088.0 566964.0 0
329471.0 568179.0 0
332100.0 564255.0 0
336305.0 563371.0 0
334729.0 567917.0 0
341124.0 567519.0 0
345994.0 563501.0 0
351080.0 565200.0 0
361350.0 564279.0 0
365838.0 563936.0 0
371592.0 565043.0 0
377098.0 564749.0 0
381329.0 563656.0 0
386626.0 564045.0 0
383210.0 567295.0 0
390687.0 565780.0 0
394860.0 564529.0 0
400243.0 565607.0 0
405479.0 567271.0 0
408926.0 564008.0 0
417164.0 564043.0 0
413209.0 566234.0 0
422213.0 566318.0 0
427003.0 564034.0 0
431946.0 566413.0 0
438525.0 565772.0 0
445197.0 566193.0 0
450709.0 566368.0 0
454867.0 564018.0 0
456105.0 568054.0 0
458855.0 564299.0 0
463812.0 564645.0 0
469681.0 564027.0 0
479202.0 565678.0 0
474480.0 567826.0 0
483626.0 567888.0 0
487118.0 564472.0 0
494099.0 565854.0 0
497994.0 565964.0 0
3223.27 569014.0 0
9360.78 569917.0 0
6285.87 573298.0 0
12972.4 573322.0 0
18747.9 572243.0 0
22809.2 569891.0 0
23770.2 573556.0 0
26808.1 570137.0 0
33012.9 572495.0 0
37715.3 571216.0 0
43366.0 570349.0 0
48465.0 572398.0 0
54257.2 572607.0 0
59027.2 570537.0 0
64553.1 570812.0 0
75672.3 570907.0 0
72652.4 573458.0 0
79782.4 571264.0 0
84119.5 571827.0 0
87948.5 569299.0 0
93476.2 570231.0 0
99085.0 569091.0 0
97507.1 572975.0 0
103090.0 570088.0 0
106977.0 571259.0 0
111129.0 569554.0 0
121660.0 570959.0 0
126259.0 571287.0 0
131293.0 572695.0 0
136443.0 572760.0 0
139394.0 568649.0 0
143282.0 570353.0 0
148308.0 572785.0 0
156944.0 569395.0 0
153387.0 572992.0 0
161775.0 568578.0 0
162176.0 573350.0 0
166046.0 570458.0 0
170996.0 568504.0 0
176713.0 568712.0 0
178852.0 572998.0 0
183033.0 572535.0 0
188009.0 573055.0 0
193736.0 569587.0 0
198671.0 571805.0 0
202479.0 568913.0 0
203181.0 572389.0 0
208905.0 572402.0 0
215995.0 570054.0 0
220175.0 571867.0 0
225305.0 572403.0 0
230663.0 572045.0 0
235492.0 573196.0 0
239987.0 572037.0 0
245736.0 572756.0 0
252691.0 572786.0 0
259127.0 572078.0 0
263970.0 572118.0 0
268664.0 571940.0 0
273084.0 571849.0 0
278487.0 572615.0 0
283144.0 571374.0 0
286830.0 570675.0 0
290847.0 572765.0 0
296539.0 569992.0 0
301699.0 569047.0 0
305924.0 571346.0 0
309947.0 569300.0 0
319506.0 568868.0 0
325785.0 571869.0 0
337336.0 572670.0 0
342159.0 572426.0 0
347525.0 569368.0 0
353681.0 569843.0 0
360104.0 568890.0 0
366359.0 569688.0 0
371152.0 569927.0 0
369358.0 573403.0 0
374774.0 568454.0 0
374657.0 573023.0 0
379090.0 569538.0 0
383378.0 572784.0 0
387760.0 569590.0 0
392515.0 569047.0 0
392385.0 572799.0 0
396729.0 569121.0 0
401446.0 570548.0 0
407095.0 570323.0 0
410529.0 569603.0 0
416306.0 569717.0 0
421132.0 570678.0 0
427061.0 569477.0 0
423952.0 573742.0 0
431772.0 570865.0 0
435998.0 569760.0 0
438376.0 573476.0 0
441672.0 569965.0 0
447025.0 570323.0 0
452588.0 571864.0 0
459939.0 570844.0 0
464428.0 569623.0 0
469194.0 569358.0 0
471993.0 571963.0 0
475644.0 572848.0 0
479570.0 570269.0 0
484132.0 573083.0 0
489478.0 569333.0 0
496087.0 570045.0 0
2039.87 573873.0 0
4249.11 577803.0 0
8847.0 576495.0 0
12758.0 578364.0 0
17446.4 577267.0 0
21182.7 575595.0 0
23842.4 577715.0 0
28878.4 575094.0 0
26952.6 578952.0 0
35448.1 576867.0 0
41092.6 574776.0 0
44800.6 574701.0 0
47356.1 578028.0 0
51299.0 575947.0 0
58541.0 575177.0 0
62963.4 575607.0 0
68255.0 574738.0 0
76927.6 575160.0 0
82199.6 576323.0 0
88080.6 574893.0 0
93358.2 575009.0 0
101916.0 574609.0 0
97675.3 577863.0 0
106754.0 575516.0 0
112306.0 575039.0 0
118368.0 575197.0 0
123579.0 574897.0 0
127915.0 577448.0 0
134403.0 578439.0 0
140829.0 574410.0 0
144495.0 573525.0 0
145200.0 577001.0 0
149941.0 578022.0 0
157762.0 573858.0 0
155189.0 577808.0 0
160199.0 577628.0 0
168264.0 577245.0 0
164350.0 577187.0 0
169151.0 573418.0 0
172323.0 578389.0 0
173938.0 573556.0 0
177862.0 578203.0 0
184157.0 577629.0 0
192352.0 573718.0 0
192712.0 576748.0 0
189282.0 577716.0 0
197855.0 577576.0 0
203901.0 577058.0 0
214286.0 573403.0 0
213844.0 576841.0 0
217500.0 575857.0 0
222069.0 576635.0 0
227191.0 577237.0 0
232654.0 577510.0 0
238623.0 577018.0 0
243040.0 577112.0 0
247554.0 578427.0 0
251440.0 577603.0 0
255418.0 578320.0 0
260410.0 577251.0 0
265501.0 576602.0 0
271364.0 577583.0 0
276504.0 576858.0 0
281806.0 577643.0 0
287176.0 576269.0 0
295776.0 575577.0 0
300611.0 573706.0 0
300052.0 578093.0 0
305335.0 576962.0 0
309704.0 573654.0 0
315484.0 573761.0 0
311183.0 578354.0 0
321279.0 578276.0 0
321427.0 573508.0 0
331568.0 573398.0 0
326747.0 577274.0 0
331840.0 578145.0 0
336227.0 577960.0 0
341087.0 576985.0 0
345855.0 574770.0 0
350337.0 573556.0 0
352411.0 577782.0 0
357256.0 574622.0 0
363167.0 574330.0 0
372178.0 577004.0 0
367602.0 577541.0 0
376678.0 577995.0 0
379105.0 574109.0 0
381771.0 577554.0 0
388628.0 574886.0 0
397226.0 574355.0 0
401483.0 573987.0 0
401474.0 577141.0 0
406311.0 574340.0 0
413286.0 574353.0 0
418979.0 574841.0 0
428571.0 574769.0 0
433807.0 574965.0 0
437882.0 576901.0 0
442668.0 575505.0 0
448199.0 575206.0 0
453347.0 577048.0 0
457029.0 574097.0 0
461761.0 574953.0 0
467204.0 574410.0 0
472492.0 575985.0 0
476092.0 577204.0 0
479464.0 575262.0 0
482920.0 578112.0 0
488631.0 575714.0 0
493052.0 574253.0 0
493907.0 578427.0 0
497564.0 574775.0 0
497903.0 578977.0 0
2915.18 583122.0 0
8367.46 581248.0 0
16111.0 581761.0 0
20674.1 580662.0 0
30333.5 580313.0 0
25539.0 583006.0 0
34396.7 581927.0 0
38801.3 581243.0 0
42631.5 578747.0 0
45358.9 582480.0 0
50436.4 580781.0 0
55025.6 579365.0 0
60726.0 579598.0 0
65906.2 579173.0 0
63560.6 583819.0 0
68031.6 583216.0 0
72381.5 579443.0 0
78553.1 580350.0 0
86116.7 579535.0 0
82839.5 580586.0 0
91538.1 580183.0 0
97328.7 583677.0 0
103138.0 580252.0 0
109339.0 580021.0 0
113800.0 579569.0 0
117551.0 581175.0 0
122558.0 579758.0 0
129506.0 583504.0 0
140712.0 579766.0 0
145547.0 581693.0 0
153105.0 582934.0 0
163027.0 581299.0 0
158355.0 581681.0 0
168334.0 582119.0 0
174432.0 581504.0 0
181913.0 582380.0 0
187118.0 582651.0 0
192769.0 581336.0 0
197831.0 583211.0 0
202020.0 581603.0 0
209488.0 579429.0 0
215150.0 581116.0 0
219527.0 581814.0 0
222499.0 581161.0 0
226522.0 582877.0 0
231821.0 582533.0 0
236836.0 582000.0 0
241967.0 581273.0 0
246501.0 583201.0 0
252500.0 581680.0 0
256506.0 582911.0 0
261314.0 582403.0 0
266976.0 581994.0 0
272349.0 583370.0 0
277205.0 581374.0 0
286642.0 581378.0 0
291317.0 578716.0 0
296269.0 581774.0 0
302377.0 582283.0 0
307439.0 582244.0 0
312062.0 583359.0 0
316371.0 580152.0 0
320784.0 583259.0 0
326287.0 583239.0 0
331651.0 582705.0 0
337457.0 583455.0 0
343101.0 581600.0 0
347605.0 579417.0 0
352706.0 583476.0 0
357884.0 580705.0 0
363102.0 579325.0 0
362424.0 583657.0 0
366373.0 582032.0 0
371268.0 581817.0 0
375998.0 582456.0 0
379990.0 581808.0 0
386607.0 580005.0 0
392852.0 578884.0 0
398329.0 580085.0 0
405011.0 580975.0 0
410580.0 578897.0 0
412231.0 583634.0 0
416185.0 579592.0 0
421201.0 583356.0 0
423455.0 578967.0 0
429718.0 580053.0 0
435215.0 579990.0 0
440349.0 580185.0 0
445723.0 580251.0 0
450864.0 581079.0 0
458480.0 579017.0 0
464117.0 579276.0 0
469365.0 579658.0 0
474124.0 580391.0 0
478841.0 579987.0 0
482548.0 583534.0 0
486867.0 580377.0 0
491395.0 581630.0 0
495926.0 582870.0 0
1221.16 586772.0 0
6977.97 585738.0 0
12316.2 584082.0 0
19387.7 585280.0 0
23050.0 586964.0 0
27145.5 588835.0 0
31117.9 585066.0 0
36925.7 586314.0 0
41601.4 584445.0 0
47189.1 587272.0 0
52549.1 584976.0 0
58291.7 584253.0 0
61568.8 588460.0 0
67147.4 588074.0 0
71565.7 585338.0 0
76632.5 585283.0 0
81820.9 584142.0 0
86980.1 584090.0 0
91843.8 586001.0 0
99664.9 588776.0 0
102293.0 585492.0 0
107058.0 584729.0 0
109626.0 588490.0 0
113027.0 583884.0 0
113622.0 588448.0 0
118965.0 585922.0 0
123867.0 584814.0 0
135980.0 585179.0 0
140414.0 583926.0 0
139936.0 588516.0 0
144060.0 586518.0 0
148642.0 584561.0 0
151465.0 588305.0 0
157631.0 587230.0 0
163248.0 586041.0 0
167892.0 587884.0 0
172994.0 585704.0 0
177726.0 583668.0 0
178281.0 588226.0 0
183626.0 587084.0 0
188482.0 587160.0 0
192926.0 586828.0 0
197578.0 587837.0 0
202256.0 586635.0 0
206081.0 584607.0 0
213062.0 586357.0 0
217582.0 586510.0 0
222500.0 586378.0 0
227985.0 588112.0 0
233154.0 587036.0 0
238018.0 586786.0 0
242778.0 585732.0 0
248215.0 587250.0 0
252270.0 585780.0 0
256440.0 587131.0 0
260866.0 587434.0 0
265635.0 587229.0 0
270749.0 588529.0 0
276852.0 587404.0 0
281812.0 583950.0 0
281936.0 588343.0 0
286616.0 587270.0 0
291151.0 584164.0 0
298609.0 587944.0 0
304048.0 586819.0 0
308369.0 586602.0 0
316268.0 584989.0 0
312933.0 588487.0 0
323275.0 587300.0 0
327836.0 588434.0 0
333129.0 587804.0 0
342503.0 587375.0 0
347407.0 584431.0 0
350968.0 588487.0 0
357822.0 586130.0 0
368068.0 586403.0 0
378540.0 586318.0 0
383659.0 584878.0 0
390305.0 584790.0 0
395743.0 584023.0 0
397944.0 588705.0 0
400584.0 584411.0 0
407910.0 586044.0 0
403286.0 588679.0 0
412687.0 588847.0 0
417024.0 585202.0 0
421925.0 587717.0 0
425363.0 584170.0 0
432913.0 583899.0 0
429397.0 585882.0 0
437531.0 584563.0 0
442910.0 585042.0 0
448129.0 585196.0 0
452289.0 584670.0 0
456278.0 584072.0 0
461426.0 583894.0 0
464080.0 587885.0 0
466696.0 583962.0 0
471649.0 584267.0 0
477296.0 584215.0 0
474692.0 588150.0 0
479732.0 588127.0 0
484241.0 588077.0 0
488315.0 585518.0 0
492609.0 585221.0 0
493687.0 588923.0 0
497786.0 587129.0 0
2838.22 590382.0 0
8085.74 589957.0 0
13188.2 588880.0 0
11298.2 593761.0 0
17821.5 589386.0 0
22010.9 591067.0 0
28877.3 593922.0 0
32658.7 590182.0 0
37570.5 591650.0 0
41994.5 589114.0 0
47072.5 592447.0 0
51317.9 590004.0 0
56345.1 589376.0 0
62164.9 593625.0 0
66739.1 592975.0 0
73336.4 589800.0 0
78469.7 590383.0 0
84340.0 589482.0 0
89899.2 590336.0 0
95041.2 589873.0 0
98546.1 593691.0 0
104754.0 589648.0 0
109160.0 593325.0 0
117115.0 589918.0 0
114493.0 593342.0 0
119758.0 593665.0 0
122570.0 589365.0 0
128766.0 590811.0 0
134903.0 590290.0 0
138880.0 592912.0 0
147224.0 589349.0 0
143638.0 591506.0 0
147234.0 592631.0 0
157640.0 593562.0 0
162834.0 591164.0 0
167686.0 592869.0 0
173342.0 591975.0 0
177921.0 592678.0 0
181732.0 592195.0 0
187070.0 591698.0 0
193256.0 592745.0 0
198966.0 591843.0 0
203107.0 591174.0 0
208654.0 588829.0 0
207485.0 593083.0 0
212268.0 591767.0 0
217524.0 591278.0 0
222345.0 591386.0 0
226419.0 592597.0 0
231174.0 591565.0 0
236387.0 591612.0 0
241598.0 590442.0 0
247175.0 592293.0 0
253284.0 591299.0 0
258492.0 591557.0 0
262485.0 591324.0 0
266834.0 592160.0 0
273624.0 592724.0 0
278063.0 592826.0 0
281888.0 591885.0 0
286840.0 592464.0 0
292575.0 589182.0 0
290866.0 593649.0 0
306080.0 591067.0 0
301737.0 592248.0 0
310330.0 592336.0 0
314789.0 593733.0 0
318605.0 589407.0 0
325242.0 593632.0 0
330919.0 592623.0 0
335648.0 593400.0 0
337761.0 589511.0 0
346664.0 590870.0 0
356345.0 591365.0 0
362641.0 589221.0 0
368147.0 593063.0 0
373342.0 589057.0 0
382284.0 589747.0 0
387661.0 590106.0 0
393238.0 588963.0 0
395348.0 593130.0 0
400673.0 593492.0 0
407963.0 590909.0 0
404639.0 592352.0 0
417723.0 590238.0 0
422265.0 592621.0 0
426659.0 589583.0 0
431377.0 593556.0 0
433658.0 589018.0 0
436393.0 593730.0 0
439846.0 589763.0 0
445769.0 590157.0 0
452189.0 589707.0 0
458924.0 589278.0 0
469127.0 589030.0 0
473271.0 593886.0 0
479352.0 593327.0 0
483890.0 592081.0 0
488182.0 590750.0 0
497571.0 591660.0 0
1350.07 594270.0 0
2249.19 597741.0 0
6192.18 594764.0 0
17090.3 594532.0 0
24216.4 595735.0 0
28440.5 599167.0 0
33719.8 595430.0 0
38538.1 596043.0 0
42671.6 594155.0 0
46685.9 598292.0 0
51510.0 594694.0 0
56865.9 594863.0 0
63377.3 598922.0 0
70909.8 594250.0 0
68089.7 597784.0 0
75709.0 594438.0 0
72450.5 598776.0 0
81414.7 595727.0 0
87649.0 594001.0 0
87326.5 598371.0 0
92523.9 594338.0 0
103843.0 595286.0 0
108020.0 598536.0 0
112246.0 597211.0 0
116619.0 597668.0 0
121147.0 598326.0 0
124552.0 595660.0 0
128818.0 596800.0 0
134005.0 594749.0 0
137773.0 598122.0 0
143041.0 596749.0 0
151716.0 594033.0 0
148053.0 597572.0 0
163001.0 596159.0 0
167301.0 597400.0 0
172104.0 597834.0 0
177540.0 596339.0 0
182499.0 597115.0 0
186721.0 596359.0 0
190789.0 598327.0 0
197867.0 597431.0 0
203507.0 596205.0 0
208203.0 597628.0 0
213196.0 596903.0 0
218025.0 596309.0 0
222039.0 596260.0 0
225828.0 596888.0 0
230811.0 597074.0 0
236591.0 596845.0 0
242428.0 596395.0 0
248039.0 597825.0 0
252419.0 597355.0 0
256665.0 595893.0 0
261127.0 597868.0 0
266681.0 597959.0 0
272352.0 597268.0 0
277818.0 598061.0 0
283134.0 596068.0 0
288340.0 597896.0 0
293291.0 598277.0 0
296032.0 593914.0 0
301055.0 596847.0 0
307438.0 597159.0 0
313277.0 598666.0 0
319785.0 594485.0 0
322768.0 598133.0 0
331779.0 597518.0 0
341545.0 593989.0 0
337042.0 598760.0 0
346658.0 596100.0 0
350872.0 593910.0 0
355897.0 597167.0 0
361039.0 595267.0 0
368226.0 598126.0 0
372524.0 597124.0 0
378069.0 594108.0 0
381936.0 597675.0 0
384202.0 594301.0 0
387196.0 598503.0 0
390636.0 594654.0 0
397600.0 597969.0 0
402540.0 598336.0 0
406891.0 595702.0 0
411380.0 598901.0 0
413317.0 594106.0 0
418083.0 594886.0 0
422277.0 597727.0 0
426864.0 594834.0 0
431954.0 598316.0 0
441195.0 595297.0 0
446129.0 595248.0 0
451433.0 596339.0 0
456884.0 594661.0 0
461662.0 594181.0 0
466960.0 594656.0 0
477276.0 598439.0 0
486768.0 596183.0 0
492660.0 594229.0 0
497910.0 596125.0 0
5731.26 599405.0 0
10764.0 599633.0 0
17208.1 600979.0 0
22647.0 600352.0 0
33835.7 600865.0 0
39256.5 600813.0 0
43425.3 602437.0 0
52937.5 599640.0 0
58114.1 600121.0 0
77025.4 599402.0 0
83444.8 600289.0 0
92818.8 599503.0 0
98241.9 599213.0 0
102874.0 599887.0 0
126079.0 599833.0 0
132561.0 600375.0 0
153824.0 599326.0 0
159045.0 598838.0 0
297186.0 599755.0 0
318324.0 599249.0 0
327044.0 599185.0 0
342204.0 599941.0 0
346610.0 600070.0 0
351180.0 599338.0 0
359717.0 600209.0 0
364292.0 599385.0 0
371985.0 601584.0 0
376455.0 599404.0 0
392590.0 599330.0 0
406655.0 600715.0 0
417025.0 600161.0 0
426928.0 600036.0 0
437429.0 599226.0 0
442862.0 600314.0 0
447509.0 600019.0 0
452755.0 602065.0 0
456619.0 599267.0 0
461517.0 599277.0 0
466497.0 599929.0 0
471717.0 599994.0 0
482273.0 599234.0 0
488080.0 601130.0 0
492070.0 599599.0 0
496239.0 599762.0 0
POINT_DATA 5000
SCALARS Radius float 1
LOOKUP_TABLE default
5415.48 5120.0 6182.6 6810.52 5840.26 5073.35 4834.9 2356.98 3863.18 4998.37 5492.18 5258.36 5061.3 3163.97 3642.12 5812.43 5906.14 5733.48 5580.89 5645.7 6110.27 5670.04 6044.04 5085.53 5351.6 5867.73 3951.75 5013.56 4499.64 5542.27 5122.66 5484.19 7513.1 5254.28 4436.4 4517.56 4182.53 4672.91 3588.44 5176.86 4366.19 5553.16 2938.66 3672.51 4008.92 5561.06 6716.79 3850.77 5325.36 5484.83 5538.89 4715.55 6059.59 5701.86 4375.68 4238.81 5054.98 6030.06 3557.27 5170.02 4688.68 4927.31 4402.52 5185.34 4432.58 5903.42 3761.32 5292.64 4118.05 5065.13 4940.78 3615.22 4380.59 5546.39 6759.9 4730.36 5926.61 2720.68 4955.55 3563.63 4468.59 5325.02 5200.76 4862.64 5205.43 6684.56 3955.56 3968.64 2635.86 4385.06 6166.5 5936.02 5305.17 3379.84 7613.27 4133.88 5945.65 5418.62 7021.47 5416.38 6051.14 4345.55 5836.15 5885.03 2837.58 5246.2 5017.13 3673.74 4827.23 6116.18 7447.37 4688.67 7184.19 4290.3 3867.67 4231.61 4861.08 3942.53 3607.45 4951.03 4094.62 4665.12 6483.19 6230.49 5493.32 5740.68 4195.44 3261.21 6704.06 3653.41 3871.88 5600.93 3856.01 4390.66 5279.39 4124.71 4911.47 5803.39 4381.97 4924.6 4733.32 2899.43 2812.98 2924.37 5399.73 4003.05 4827.82 3589.27 5759.91 4333.2 3936.02 4927.02 4174.52 7054.71 4601.27 3641.64 5489.43 4277.89 5747.75 4796.33 5539.32 6496.85 5360.19 4874.39 5541.59 5083.08 5728.85 6337.56 5863.59 3255.82 6257.19 5242.73 4065.69 5390.22 4805.87 5227.21 3997.1 3038.33 3260.67 4780.03 3383.4 3856.1 5980.74 5109.54 3829.13 5527.54 5573.7 5054.25 7325.81 4794.96 6186.19 4839.34 2980.99 6834.49 5525.39 3998.5 4024.3 5555.28 5603.15 4737.14 4686.65 4695.45 4712.33 4660.72 6038.78 5123.52 4295.38 4392.68 5252.48 5495.39 4044.71 3996.0 5816.2 6458.82 3091.3 6138.47 5697.4 4727.62 4055.8 5280.17 6425.26 5143.58 4840.01 4484.76 5611.2 7933.0 5938.34 6394.38 5118.27 5169.36 5556.96 3888.21 3921.18 5697.78 5529.52 4667.36 4091.31 7199.21 5337.48 4929.8 6124.89 3554.9 5708.81 5043.05 4015.92 4487.31 4002.16 4138.16 5693.81 4684.5 5789.98 2540.31 6029.66 6302.8 4270.95 5206.78 4005.44 5555.88 5028.96 6732.43 6362.12 3866.16 5152.36 4511.82 4220.65 5173.87 4455.12 4894.16 5380.13 5711.87 5932.23 5834.74 5788.23 6052.7 5891.05 3798.62 6902.81 4254.17 5615.42 4523.7 5255.32 6037.08 4382.74 4049.23 5601.05 3586.91 3103.0 5637.59 5481.78 3307.12 5542.21 4937.14 5924.89 4778.34 6894.71 3486.22 4414.54 5120.49 5409.61 5262.61 6038.2 5713.22 5861.71 5017.78 3183.98 4524.28 3794.63 3778.1 4727.24 5826.64 6820.42 4816.2 4896.52 3372.79 4941.22 5791.61 5581.75 4479.66 6392.01 3666.57 5308.1 6644.76 6372.62 7565.34 5629.19 6756.95 5091.39 2240.39 6324.23 4727.24 4685.34 4151.94 4651.28 4384.42 6355.42 4516.43 4362.19 4948.92 3115.91 4493.48 4749.8 6084.86 5810.84 5478.92 5551.36 4850.81 6038.14 5201.36 5024.9 4306.53 5094.81 5972.06 4312.67 4270.24 4359.04 4989.15 5015.69 6175.81 6677.09 6959.81 4829.35 6321.41 5201.67 4751.02 4089.76 5184.56 5526.55 5282.64 3192.41 4987.87 4715.72 3369.13 4669.66 5367.2 3043.85 5461.13 6730.19 3599.45 4937.02 4907.89 5655.21 5090.24 4786.6 5923.5 5096.78 4612.68 5293.9 3320.52 4129.43 6142.94 3843.58 4931.38 4736.58 4329.05 6082.81 5927.43 5690.56 5492.26 3693.63 5762.84 3937.74 5082.6 4230.54 5094.44 3748.24 4655.49 4467.94 4933.21 5375.47 4964.09 4723.12 4809.42 5659.17 4717.05 6135.57 5998.38 5423.8 3417.33 4926.42 4164.13 4947.52 4642.34 4520.1 4305.57 5813.4 4293.03 4389.21 4424.7 3791.79 4754.05 4951.47 6084.93 5215.15 3315.57 4764.96 4808.52 5046.33 5607.24 4726.76 5839.13 3735.44 4907.06 4073.93 4645.41 5163.9 5740.84 4433.59 5530.87 6445.94 4973.83 3912.37 4281.49 4310.18 6342.25 4218.06 6691.39 4602.25 4194.5 4501.51 4792.73 5513.6 3485.26 4556.36 3240.09 5110.37 3191.99 5664.98 6327.9 4048.37 4659.59 5244.78 4220.88 6640.13 5478.47 5351.39 6142.37 6061.47 6163.38 4997.27 4566.18 3459.9 4093.08 5543.27 5856.11 4109.88 5287.2 4234.94 4562.29 5013.13 4980.85 5080.66 5714.58 5110.45 5248.77 4083.97 5153.74 5874.89 4528.09 3895.51 4165.81 4128.98 6291.51 4925.44 6246.22 5246.61 4307.28 5804.71 5020.12 5727.3 5053.92 4242.52 6352.26 3057.03 3847.38 5495.68 5489.34 6043.3 5952.75 5537.72 5542.14 4320.28 4931.53 7134.64 4270.53 4790.08 5082.47 5191.63 5344.25 5344.0 4043.57 5925.6 5379.87 3708.04 6013.14 4901.41 5138.31 5264.06 4551.24 3369.23 3688.8 5358.59 4548.16 5449.18 6519.71 4322.15 4714.54 3092.35 3629.96 5210.03 6022.17 5119.37 4583.31 3982.23 5806.08 5243.29 4853.39 4449.22 5628.24 3130.65 3327.49 5992.26 3960.8 5070.39 4923.9 3329.99 4973.78 5208.32 3947.47 3296.27 4607.02 4713.25 6243.0 6673.96 3556.85 5441.96 5882.89 5174.89 5370.52 4188.32 4100.38 3697.96 4739.42 5538.93 4723.48 4899.11 4745.45 5281.28 2631.9 5356.51 3818.59 4087.15 4863.72 4143.08 5002.48 5708.14 6623.85 4262.82 3920.42 6332.36 6122.55 5480.13 5978.9 2739.94 4187.56 3629.62 4840.84 4997.27 5135.69 4301.06 4593.7 6045.46 4763.45 4150.99 3771.48 4478.15 5681.38 4138.42 5987.17 3979.82 2765.2 4602.86 4621.75 4581.13 4219.07 3610.4 4515.71 6387.01 5367.52 5025.39 5893.5 3320.11 5030.91 5507.24 6851.54 4503.89 4336.42 5570.3 4306.11 3402.32 7589.94 5004.67 5365.89 5409.33 4511.54 5196.0 4613.31 6119.09 5091.68 4204.84 5069.25 5048.89 3991.03 3161.47 3435.9 4288.3 6826.57 4652.29 4495.87 5774.81 5344.77 5027.98 5097.87 4278.07 7267.18 6255.18 4277.88 4668.71 4758.21 7500.97 3948.23 5102.36 5228.18 5787.31 8332.24 6155.31 4342.9 6308.71 4223.33 4716.19 5911.67 5514.76 3456.98 4290.14 6405.76 3815.26 4020.32 5445.87 4216.92 4704.72 4177.94 3929.19 5922.5 4271.69 3633.87 4107.03 5198.77 3970.25 5147.67 5643.58 4292.06 5011.31 5577.04 5006.58 4481.53 3948.17 5586.81 3856.59 4746.52 5413.79 5572.95 6202.55 6338.89 7111.16 3817.13 4547.19 5023.15 3844.9 4377.07 3695.36 5101.59 3848.93 3813.22 6020.48 5935.47 5903.66 4528.49 5313.66 5419.37 4466.03 5275.32 5985.29 4898.94 4178.15 4247.23 4694.83 4733.04 5788.66 7531.29 3903.75 4755.47 5935.03 6390.78 7435.25 5314.69 5543.46 4788.87 3746.31 6022.72 5498.32 5527.33 5346.27 6475.1 4969.21 2691.29 6256.02 2845.98 5320.92 7228.46 6362.14 6719.88 5065.11 5978.82 5069.84 4553.56 5329.64 4051.44 3323.28 6695.82 5835.78 4877.67 3498.2 4245.72 6562.18 4571.7 5908.1 6048.7 4742.68 4344.58 5896.46 5634.83 5495.84 4862.21 5113.21 4502.5 5499.11 2775.04 5347.48 4810.12 4850.01 4138.46 3821.72 5215.05 4986.77 6318.18 5137.34 5330.45 5423.0 5077.33 3824.16 3689.45 3868.18 6723.16 5584.06 5372.61 3686.21 6480.17 6445.22 4564.34 3963.86 4871.44 5076.35 6375.99 5200.05 5234.29 4091.8 4645.58 2651.49 5512.23 4711.62 5349.31 4649.22 4268.65 5509.42 4354.08 4256.43 5936.36 4520.62 5229.48 5475.7 5415.19 4016.18 4485.99 5127.16 5475.8 4244.99 6050.81 5560.26 4249.46 5965.81 3702.37 4643.31 2330.66 4177.19 6917.52 5402.21 4880.14 4989.09 4982.31 5289.52 5269.18 4406.1 5034.59 4942.77 5080.18 3927.99 5266.5 5868.82 4050.9 4066.38 6049.55 4241.89 5709.62 5054.74 5941.72 5794.24 4541.21 4127.74 3066.13 4302.5 4156.38 6006.16 6009.88 4164.68 5022.8 5316.75 6268.1 3784.5 4178.4 5782.6 7034.11 4011.77 6261.42 4527.08 5965.78 4374.35 6396.74 6898.19 5526.14 6035.6 5198.29 3975.31 5344.43 5125.78 5045.38 4373.47 5350.88 5130.91 5402.24 4948.5 4527.02 4519.22 4531.14 5013.42 3838.56 5651.07 6248.81 5872.05 5273.35 6259.23 5181.4 5670.2 4114.24 5166.79 4662.56 2976.22 5417.15 5394.55 5094.52 3688.16 4946.74 2682.24 5928.32 3950.63 4612.62 5526.75 5435.74 4275.57 6385.23 5327.45 2614.4 2983.99 6185.89 3997.96 4750.17 5660.85 3460.94 3990.25 3691.0 3758.07 4752.51 3587.05 6229.37 6718.19 5314.85 4307.48 3848.54 4305.43 5941.4 5450.44 5331.02 6510.17 4263.33 4454.63 4523.88 5912.61 3279.1 4978.31 4099.77 4981.9 4414.48 4537.32 5163.02 2476.04 4656.78 5991.09 5105.16 4678.38 5050.65 5448.61 4827.33 6133.92 7055.53 3719.84 5013.67 5729.23 5669.65 5934.22 3780.23 4359.62 5253.55 5820.48 2586.12 6946.21 6125.34 5433.8 5252.34 5975.63 2965.79 7099.43 5315.4 6449.45 4044.45 5262.19 3627.82 6070.58 4244.9 6034.41 5490.43 5452.83 5022.28 4959.34 5178.99 5383.07 4591.87 4247.15 6552.22 4602.85 4962.77 4853.02 6101.92 5323.3 5088.44 4998.21 4635.6 3457.48 4256.67 6079.11 3931.07 3405.98 7440.72 4681.72 4945.39 3949.6 5996.33 5661.62 6631.19 3619.07 4467.04 5626.61 5817.25 6363.92 6205.93 4439.35 5830.72 6184.4 3828.81 4373.45 5309.98 4236.14 5733.62 4407.87 5282.91 4425.84 7256.35 4871.96 5742.65 4863.23 5592.32 4402.67 5381.16 4403.98 5565.13 4948.98 4560.84 5227.52 4092.24 4729.43 4562.74 5126.91 5776.57 3942.07 5133.97 3937.08 7443.72 5513.57 5371.02 5260.34 5206.48 6586.45 5624.49 5826.04 3095.48 4861.06 3979.26 3471.03 6608.73 5188.81 3745.84 5696.88 5011.84 6057.22 5690.26 5062.71 4156.2 4497.59 4289.17 5564.02 4274.61 4410.55 4287.63 6314.07 5776.37 3921.08 4516.28 5678.96 4190.31 5486.68 6048.86 4285.32 6894.26 4986.51 5197.52 5339.38 6169.11 5615.35 4790.78 4027.09 6422.84 4502.18 5379.09 5210.48 7552.94 4051.34 3627.55 6239.84 5865.39 4427.28 3082.32 6430.39 3658.37 5376.71 5703.6 6326.18 4867.08 4266.03 6648.68 4713.74 5407.78 4084.49 5061.98 6632.99 4537.6 4923.24 5147.36 4419.61 7177.44 4563.46 4082.57 5255.18 6553.94 5169.9 5282.51 3004.16 4460.92 3797.33 5945.89 4042.28 4105.55 4800.69 6566.1 3555.86 6386.78 4470.61 6086.96 6193.35 3701.27 5233.78 6008.49 4806.34 7144.24 3600.43 5598.74 6600.94 4906.82 4788.58 4709.35 6155.1 6496.67 5876.71 5226.0 5339.78 4750.78 4373.3 4166.08 5762.59 6481.79 5320.28 4796.58 4298.67 5960.66 3999.48 4962.09 4203.26 5654.31 4643.85 4730.41 3923.03 4004.04 5607.14 6915.83 6072.45 6444.77 4470.98 5759.46 5083.41 7055.42 5683.61 5100.25 4049.02 4470.4 5311.03 5255.12 4285.66 4896.11 5172.53 4135.62 6132.95 5801.99 4860.33 5534.94 3685.13 7644.38 3312.06 6004.68 3361.26 6799.4 4409.63 5521.25 3661.9 5370.85 5949.46 3178.54 3776.94 4765.02 5629.39 4448.13 2684.03 5070.29 4768.61 4807.28 2261.36 5075.55 5280.69 4220.03 6923.84 5449.46 6179.96 5703.07 6113.54 4662.43 6260.79 4043.66 3963.76 5528.53 5726.66 5460.65 4767.78 5235.17 4779.5 4340.76 4421.12 4435.36 5254.49 6065.22 4996.99 4221.28 4456.39 4631.83 4896.39 4384.88 6887.27 5480.83 5653.9 4220.46 5683.26 5612.21 5046.21 5894.61 5687.83 5131.24 5196.67 5004.23 6442.69 5474.8 6320.71 4648.04 6262.72 5029.78 3664.11 5374.51 3365.82 5224.12 7092.87 4850.14 6739.08 3637.61 5463.38 4569.12 6098.14 5873.69 4472.17 5750.71 6222.42 5470.77 5082.74 6062.05 4735.33 5411.85 3999.94 4844.57 5092.37 6171.13 4027.46 3901.8 4864.22 5511.88 5941.61 4512.11 6248.6 5443.58 3836.45 4558.46 5805.86 5346.68 5296.29 4611.53 2681.29 5094.48 3872.61 4318.48 4238.4 6408.83 3930.79 5266.22 5226.97 5754.18 5180.76 5132.68 3418.99 4480.95 5278.36 6218.95 5222.16 5107.23 5533.72 5136.08 5533.42 5558.68 4802.32 4010.57 4599.38 5246.47 6157.04 6191.29 4522.21 5506.19 5161.01 6719.94 4950.67 5227.59 6166.29 5453.6 5294.77 5409.63 3077.84 4709.05 4630.82 4813.08 6799.88 4540.86 3062.43 5426.78 2967.38 5652.0 5463.41 5225.33 4929.75 6045.22 6649.96 4303.19 5514.84 6081.14 3633.79 4256.57 3914.2 5421.53 4607.85 4287.53 6070.3 4929.14 5128.57 5945.08 5139.5 7493.3 4814.55 5833.06 3527.05 5698.77 6607.87 6515.84 4163.5 4123.6 4143.78 4538.95 4970.88 5965.15 4763.66 7042.12 4797.52 6343.14 5501.93 4471.58 5462.21 6313.06 5945.21 3493.7 6470.3 4938.74 3474.39 4200.03 4831.47 5516.95 6939.12 4406.4 4413.85 6853.85 4020.4 2395.5 3497.9 4933.65 5782.48 4031.78 6098.1 5708.99 2435.33 5687.85 6401.43 4558.47 5020.71 5997.88 5839.71 4360.23 5576.92 6234.32 5365.24 4004.35 5293.51 4763.96 5008.63 4270.74 6293.89 6595.03 4558.15 4993.35 4983.39 5366.52 4690.55 5146.37 3678.08 5518.57 4187.31 5463.48 7422.36 3240.51 4527.99 4298.15 4376.7 4628.4 5190.61 5832.37 6051.83 4642.93 3973.12 4263.16 6024.75 6109.49 5860.67 5987.42 5990.52 3764.1 4835.83 4159.35 5604.35 6477.91 3091.67 4237.98 6439.37 4081.97 4614.3 5401.99 5134.39 5784.3 5769.98 6088.68 5937.08 2221.99 4643.56 4135.08 6000.7 5620.74 5233.29 5604.21 3979.54 4968.03 3169.67 5204.04 5304.13 5944.09 5490.58 4863.79 4702.06 3464.83 2477.07 4923.41 5724.64 5117.47 2990.77 4925.63 3163.78 4305.16 4888.6 3293.56 5882.65 4666.81 4780.2 5078.86 6326.39 5163.55 6817.32 4319.79 5960.56 6643.85 5774.97 4020.95 5862.86 6049.79 6345.13 5374.98 5226.56 5274.19 4719.7 5599.49 4097.57 5313.22 5563.79 5328.22 4151.76 4216.17 3905.51 6484.17 3493.47 4721.02 4596.75 4254.37 3374.08 5564.23 5950.04 3735.24 4231.83 4074.48 6333.29 3614.96 4477.04 3886.68 5731.57 5703.74 5662.55 4747.55 5737.92 3056.7 3755.95 5591.76 4585.31 4586.19 6625.18 4446.06 3450.93 5323.91 5097.45 4185.61 5737.75 5742.47 2761.07 3778.02 6552.21 5417.8 5227.02 7132.12 4836.16 5300.96 5151.11 5680.94 5730.33 5545.46 4543.1 6550.44 8325.01 3764.06 5732.27 4440.81 5941.9 4523.39 5434.47 6642.76 5829.22 4497.78 5567.93 4243.79 5811.18 5433.65 5332.65 4442.22 6451.33 5413.31 6316.56 4332.87 6420.81 4715.58 3317.83 4450.7 5580.92 5151.52 3532.3 5973.33 3583.21 4347.74 5442.32 5067.46 4863.01 3580.58 5356.79 4778.82 4312.56 4612.06 6124.08 3361.92 5467.84 4750.58 3306.14 6710.88 5395.14 3967.48 6213.04 4497.31 4721.32 3830.46 6413.11 5092.28 5274.14 4739.14 4918.77 4434.19 4636.5 4819.73 3382.7 4940.42 3954.91 6471.55 4946.42 5085.71 5923.4 2965.01 6263.44 4863.27 4584.5 5122.63 4118.84 6766.43 2315.64 4703.08 4390.41 4890.5 6113.95 4050.08 5452.42 5186.3 5017.5 3436.15 5005.85 5711.11 4575.94 3546.71 4938.72 5768.57 5956.65 4498.25 4188.87 5151.21 6574.95 5398.64 6817.57 6853.04 4745.43 5831.96 5464.68 4475.83 2685.81 4510.8 5889.35 5010.04 4394.56 4570.98 4275.07 5825.38 4573.72 4047.87 5099.21 4917.99 5636.4 4367.78 4350.12 4095.75 3603.51 5670.0 4232.16 5222.51 6609.84 4344.51 5135.96 3781.77 3834.43 5581.55 5193.01 3474.5 5491.37 3860.83 4250.88 6348.03 3475.67 4792.39 5278.56 5146.37 6917.62 5631.14 6137.8 4343.78 5263.3 4008.15 4887.76 4669.06 3012.99 4811.32 6400.08 4743.59 5829.32 5208.14 4396.25 3763.05 5092.24 5369.08 4518.04 5291.9 4766.06 4009.62 4874.18 2081.58 4011.37 2511.46 2775.69 5657.36 6519.43 3619.79 5029.47 5053.95 6667.68 5926.11 5235.11 5211.38 6031.67 5384.76 5529.42 6138.12 5257.12 4428.78 4903.82 5100.1 5746.28 4371.99 3703.1 5187.7 6090.91 3561.29 4152.85 4082.47 4623.61 3295.83 4963.34 4219.78 5081.78 4260.92 5499.39 5644.82 4407.9 4440.57 6413.02 3492.19 6235.57 5412.31 5548.29 5916.16 3623.87 5163.77 6934.37 3731.84 4488.85 3981.07 4579.69 3554.48 4901.07 6496.52 5966.61 5325.44 4893.49 5021.88 5102.75 5760.22 4597.29 5938.17 4200.09 5931.77 5108.06 3573.73 4222.4 4000.43 4693.52 4568.41 3624.7 3420.08 4912.04 4691.91 4539.07 4255.34 5064.79 5480.3 7509.24 5896.26 5388.78 6101.13 5599.7 4163.74 6969.28 3665.95 4296.69 5698.96 3319.67 4298.45 6471.42 5283.8 4076.59 5164.1 6464.15 5658.37 4972.17 4707.06 6074.94 5699.53 4222.77 3783.54 5268.38 5527.23 7038.89 3863.67 4814.12 4013.38 5067.56 6069.3 3352.35 2735.53 5116.6 4909.65 2783.85 6523.86 7693.4 4286.49 4326.48 4437.07 6184.88 3449.37 5491.9 6405.0 5551.95 4659.16 3918.87 3101.75 5549.49 5423.42 6605.86 6505.78 4785.25 5461.55 4270.15 5876.64 6306.21 5253.37 5424.46 5266.01 5767.9 2978.76 6515.8 2040.66 6622.11 4689.15 6790.73 4965.89 5243.43 5659.95 5920.32 5409.66 4537.14 5551.9 4188.3 4453.64 4459.28 5019.93 3885.86 5235.29 4255.31 6116.33 6250.23 4479.94 2588.37 4718.54 6736.03 5203.08 3087.09 5374.07 7480.41 3766.55 3423.15 6027.62 5765.42 5010.2 6098.95 6123.03 4997.83 4388.63 3991.42 3718.69 4834.87 4514.79 2216.82 3672.21 4509.89 6752.75 4795.43 5269.38 5097.95 5607.3 2928.82 4914.45 5313.12 4698.87 3984.88 4661.03 5318.53 5160.59 5262.35 4732.09 4320.42 4281.98 7165.9 5344.83 7046.11 3427.63 4863.97 4146.81 6342.48 5756.75 5093.82 4587.67 5951.81 3924.14 5212.43 6918.35 6238.32 6804.79 6372.13 5369.5 4428.14 6016.19 4479.11 4124.49 3230.13 5714.25 6685.4 5325.96 4850.06 6332.01 7044.29 4805.33 7085.01 5980.95 6193.08 5887.01 3862.77 5168.35 3747.03 5388.39 4356.49 5335.47 4526.81 3994.07 5048.19 4219.94 5907.46 6740.71 4264.91 5399.29 5789.55 4633.05 2275.45 4901.2 6522.59 5012.5 5711.62 5435.19 4383.56 3562.79 7093.13 3298.2 4953.1 6865.76 6449.64 4857.84 4908.49 7016.27 4962.21 5884.9 5089.62 3468.42 3685.65 3685.13 4590.55 4655.16 5869.4 4741.26 4916.22 4186.6 3701.16 5251.4 3867.19 6022.7 4255.85 4345.67 5097.69 5511.6 6261.75 4765.72 4517.73 3757.34 5177.64 6415.61 4338.08 4752.14 5660.16 4541.8 6134.99 5842.56 5453.3 3838.47 4062.5 5424.88 5887.15 4435.51 8659.64 4588.7 4055.54 6419.12 5683.95 5469.13 6107.89 4233.8 4976.12 5453.98 4817.16 5148.08 6192.0 4940.28 5885.28 6579.31 3004.34 5323.55 3022.6 5375.1 4811.76 5498.42 5351.56 3344.57 6448.66 5220.76 6945.98 5138.2 5783.48 4701.5 4449.98 4771.65 5589.37 4840.44 5439.49 6639.64 3687.65 5454.12 4834.3 5478.95 6348.54 4066.57 5642.35 5156.76 6357.47 5404.01 4891.38 5535.91 5955.86 6176.67 4848.46 5412.24 2779.99 5016.02 4920.21 4581.37 4234.18 4049.16 5851.61 3936.95 6153.94 6836.82 3858.17 4631.99 3477.1 4740.98 3185.39 5128.77 3728.18 7122.87 5633.61 4243.26 6799.23 4888.27 4592.15 6487.56 4854.11 5971.22 4998.22 5533.19 4909.31 5417.21 6602.43 4990.79 4798.17 5166.79 4516.53 2895.63 5818.95 4122.92 3940.49 4093.99 5079.22 6464.8 4684.44 4749.59 4680.94 4858.44 5799.69 4673.35 5571.72 3876.21 5689.26 4992.42 5297.19 7051.9 4940.84 5895.77 4732.09 3988.3 5857.79 2908.7 6136.49 4039.91 4642.66 5276.7 4687.64 4378.3 4419.71 4888.12 5411.02 4950.97 5037.06 4989.56 5175.29 4863.96 5199.44 4094.73 5191.08 6200.54 4199.45 5148.58 5415.85 5421.64 4858.51 7234.66 4207.54 6599.66 4886.12 4936.96 4301.61 3184.64 4446.84 5206.33 5530.49 5065.26 5660.55 4304.41 5653.03 5578.94 3989.7 7610.49 4286.17 4246.61 3684.56 6028.09 5452.36 4172.6 3804.5 4638.18 4196.37 5211.6 3556.79 5806.31 4453.97 3503.41 7317.04 6412.67 7001.83 4504.35 5012.97 4036.91 5110.11 6379.14 5216.26 4887.52 3851.85 6318.23 4206.98 4058.87 5174.75 5932.07 6101.57 4793.65 2949.12 3856.53 4532.89 5460.89 4533.37 5260.85 5742.09 2884.65 5887.38 5807.46 6942.34 3658.05 5478.11 4549.69 5526.31 5030.15 3644.78 4312.15 4078.93 5934.82 4501.78 4922.49 3572.94 5797.36 5001.58 4153.84 4820.17 5119.86 5084.17 4901.44 5415.45 3776.8 5096.43 6156.21 3568.28 6104.26 5425.98 5583.61 5996.66 6479.39 4405.42 4997.91 3598.08 4599.81 3604.14 5381.54 4452.54 5810.77 4406.05 5089.1 5828.35 2711.19 4028.32 5876.72 3809.69 5236.43 4771.13 3208.96 5285.07 3858.06 4608.41 4680.14 4083.79 4184.23 4144.57 4351.38 4833.46 5750.07 5550.75 5933.7 6543.13 5149.72 5036.58 4757.74 5469.47 5329.59 6119.63 5464.25 3498.16 4244.21 5439.9 4752.9 5512.16 3197.63 4287.16 4617.55 3645.12 3456.47 5471.74 4344.34 4652.01 5713.03 3548.39 5849.65 3583.49 3673.28 5052.84 4366.74 3375.28 5625.65 5297.16 4603.5 4647.67 4481.76 4214.44 5375.12 4787.97 5452.78 4356.36 4892.44 4741.28 6789.23 5069.89 4157.29 4777.03 5107.0 6212.15 6813.72 5327.75 4609.02 6486.37 4896.65 6083.28 6100.73 4745.79 5456.71 4908.75 6556.26 3971.08 6204.65 4482.9 4593.7 4349.13 4891.67 6818.91 3503.65 3634.5 6631.28 4027.63 6571.31 5420.67 4392.65 6413.15 6103.11 5048.55 4984.46 4024.31 5948.71 5844.72 3992.97 5989.05 6040.74 4054.22 7228.94 5393.65 4961.99 4648.21 4393.16 3311.29 3110.13 6484.43 6423.81 6192.77 3485.54 4583.52 6418.11 3492.83 6015.02 5244.22 5585.14 7039.98 6456.58 4729.42 4159.81 5089.26 5244.98 3886.72 5792.98 6592.93 6350.71 6436.74 2460.79 4456.11 4653.83 6063.64 4986.71 6171.71 7382.3 2995.67 4668.88 4022.56 5522.21 5698.23 7300.58 4714.83 5474.15 7519.2 4099.92 6633.61 4884.59 6355.68 4478.6 5484.36 4511.7 4187.94 4304.63 5980.59 6834.41 4809.67 5021.77 4356.25 7248.4 5776.96 6045.67 4209.49 4216.95 5742.74 3946.28 3821.94 5984.81 4209.31 7013.17 3805.67 5486.48 4409.27 5301.47 4247.69 4947.24 3875.05 4588.99 4321.21 3540.11 5950.45 5088.57 5580.34 3852.6 4928.27 5134.67 5775.31 4165.21 3332.49 4215.0 5354.66 3566.79 5116.66 3629.44 5378.23 5374.67 4981.43 4061.6 3746.36 5473.72 4215.2 2603.64 2856.55 2205.51 4553.68 5361.87 6502.97 4783.07 3758.22 4946.23 4757.2 4852.58 5561.74 5975.23 4788.08 4198.94 5470.04 4211.82 6003.78 5684.25 5438.92 4244.49 6550.4 5036.98 3766.69 5513.8 5188.53 4521.75 3429.57 5569.2 5350.88 4642.74 6735.97 5305.59 5416.45 6459.51 5754.6 4955.16 4904.51 4147.31 2202.77 5751.15 5950.88 4441.22 4149.55 5853.89 6551.93 4595.12 4140.4 4386.8 4625.67 4725.01 4458.64 5966.75 5510.9 3657.69 4883.63 4971.29 6280.13 3684.15 5832.29 4438.76 6006.89 4618.73 3814.65 3965.3 4960.64 4983.3 4385.81 4034.05 5690.96 5798.38 3862.91 4125.9 5366.11 5096.24 5039.12 3908.98 3628.89 6589.82 6328.42 5027.43 3772.3 7307.21 4855.01 5522.75 5867.64 3608.06 6208.9 4923.57 3340.09 5217.95 5602.53 4867.7 2279.05 4829.35 3953.55 4075.28 4063.9 5263.27 4469.54 4314.56 6300.92 5161.1 3796.15 3928.53 6226.14 5466.33 5280.12 4801.8 7216.98 4444.97 5721.05 5046.12 3000.29 5271.02 4807.4 6329.53 4590.01 5718.28 5367.73 4514.39 4640.06 6101.86 6242.79 6506.86 4227.41 5391.48 4803.57 5966.42 5131.15 4110.59 5210.38 4847.14 5717.8 4706.5 3950.27 4811.22 3683.86 5003.78 4918.76 5293.75 3299.24 4208.41 6246.56 5826.78 4508.18 6214.73 5175.89 3894.64 3703.49 4268.19 4374.74 4062.56 3205.68 6200.63 4532.7 4504.86 3217.67 4473.29 5079.64 996.652 6163.54 5212.37 4680.69 6500.49 2628.22 5965.58 5058.51 3352.34 4901.29 4124.76 4050.03 4775.04 4120.07 4952.52 4882.66 3840.21 6746.66 5410.33 4954.76 3908.56 4844.83 5244.78 3636.15 6114.89 4330.58 5135.63 3288.01 4355.83 6870.97 5351.86 6056.87 5474.01 6201.86 7554.58 3380.69 5166.89 3639.44 5446.4 5725.37 3868.62 5138.33 3743.76 4505.28 3425.69 6711.21 5510.45 4730.14 2606.51 4941.02 3994.39 3864.92 6119.99 2955.36 3668.93 4128.1 4009.24 5372.82 4402.17 7778.01 5127.82 5124.17 5805.1 7320.78 4064.58 3419.87 4234.88 4824.81 5769.14 5944.3 3563.14 3381.82 3619.72 4646.51 4438.58 4565.93 6059.93 4504.52 7107.63 6061.63 5073.02 6545.43 4277.24 6760.92 4989.2 8137.11 5291.05 6650.77 4173.54 5606.51 5599.29 5166.41 5740.65 6038.68 5067.56 3834.47 2596.96 6162.3 6349.67 4350.15 4264.54 4139.3 3516.27 5261.19 6541.45 7043.44 4601.74 4263.78 4750.49 4643.9 5078.31 5993.0 5228.75 4807.35 6047.14 4923.43 5467.63 5009.83 4568.64 5666.95 4642.2 4127.53 5210.75 4474.83 6555.44 5658.14 5730.61 7124.45 6358.93 5064.67 6618.21 5232.85 2617.39 3717.47 5144.44 4051.18 5969.37 6816.66 3844.54 5034.69 5849.53 4509.46 3538.53 4420.11 6127.39 4972.18 5329.76 4607.18 3899.7 7200.89 2403.72 4813.33 4802.98 4833.55 4081.34 7224.99 6334.53 5377.37 5652.87 5483.7 5018.69 6384.7 3152.86 5952.38 3896.27 5807.52 5963.36 5230.02 5307.35 4342.18 5169.48 6016.08 4731.21 5491.63 3124.7 6064.71 6102.98 6060.17 5153.18 4763.4 4236.86 5902.67 5393.76 5806.61 4983.1 6010.59 7123.04 5906.57 4446.58 5401.4 5053.15 5910.86 3220.29 6239.68 3845.9 4141.21 4834.44 5782.43 4384.28 4456.26 5113.6 4810.98 5135.5 5091.22 5347.9 5640.72 5851.63 5727.79 5212.92 4831.93 5788.97 3472.91 4464.73 4023.93 4928.85 5868.89 4711.04 5484.32 5007.21 7144.05 4619.2 4506.18 4067.96 4824.12 2970.9 6542.5 7104.73 4383.47 4834.39 3926.11 5971.21 5701.75 3272.75 5262.47 3104.96 3512.94 4991.35 4263.65 3831.52 4587.7 4258.98 5196.92 6106.43 5644.81 6761.81 3903.91 4728.55 3919.62 4929.6 4368.28 5750.35 4489.99 4548.45 4945.0 4658.11 4551.26 5114.07 5678.58 4385.49 6570.35 4263.18 7142.95 4383.68 4559.74 5836.26 6666.67 6063.44 4583.94 5046.31 4928.35 1937.5 5241.75 4731.53 3763.9 4651.99 4788.7 5863.0 5084.5 5640.12 5078.59 5134.33 4147.49 5419.57 5162.67 3646.95 5760.98 4705.68 5384.86 4749.96 4019.34 4658.24 5869.67 4311.48 4899.73 5457.66 6394.19 5973.89 5366.22 6193.73 5518.11 5087.14 5712.35 5701.52 4743.9 6776.22 5321.17 3719.11 4467.13 3877.8 6273.6 5136.87 5454.11 4708.17 3779.45 2741.2 5790.42 5784.37 3142.09 3682.35 5182.13 3756.96 6110.48 7541.76 4775.49 4681.29 4990.23 5499.59 5749.6 6715.73 4439.71 5667.51 4708.31 4027.33 4198.9 3873.92 5431.29 5026.76 5023.41 6282.38 4546.44 4092.07 5657.55 4213.05 4224.3 4184.21 4700.07 5188.82 5615.84 5043.14 4717.73 6440.38 5072.5 5556.0 3274.85 3904.07 5748.9 5545.59 5494.28 5610.53 4099.26 5206.47 6304.49 4580.06 5755.15 4608.34 4835.97 6419.64 5493.89 4057.17 5464.83 7066.96 4467.0 4431.23 5917.34 4994.65 5601.55 3787.08 4462.87 4013.86 6545.99 5334.36 2918.64 4554.68 5630.9 4140.92 4512.07 4692.32 4896.43 5984.8 5236.24 3127.83 4585.04 4212.15 5260.52 3185.09 5114.23 4242.63 3269.54 7407.91 5064.23 6015.22 6061.85 4454.74 5512.44 2904.46 4826.52 5120.92 4337.32 4685.4 6240.42 5146.0 5721.14 4288.45 4577.73 4987.28 4918.64 6206.98 6638.25 4759.99 4815.47 2646.13 4368.12 4365.58 5214.4 4636.53 3629.49 5766.05 5469.35 3835.81 4869.48 3623.19 4906.11 4387.39 4564.1 5825.55 5509.51 4848.14 4316.5 3199.4 5254.24 3742.11 4192.21 4914.03 3597.43 5144.56 4158.91 3360.86 5311.55 3034.16 4869.25 5545.21 4333.87 3667.93 5638.7 5024.32 4644.88 5813.79 7350.26 5591.77 3768.46 5167.53 5003.3 6245.52 4932.29 3954.77 3784.94 6793.1 6016.87 3125.13 4506.66 5515.73 5209.55 4174.44 4564.41 6331.74 5951.86 4252.18 4833.67 4659.88 5325.91 3791.41 5853.12 5157.38 6203.03 5235.87 5273.37 6089.45 4732.37 4985.3 5810.17 4966.07 5713.36 4749.18 5553.94 3669.32 4704.92 3663.0 3742.31 4954.81 4546.96 5424.55 5134.72 5695.79 5287.25 4420.6 3622.8 2781.96 5414.58 4770.51 5577.41 6511.37 5740.98 4216.44 4346.07 3999.5 4012.92 5759.79 4177.47 4598.54 4218.16 5218.42 4933.49 6139.64 3990.94 4756.8 4357.11 5477.8 5463.06 4176.32 4639.8 3986.41 4241.68 6102.49 3469.18 2945.34 5495.0 3372.95 4489.29 4301.93 5846.95 5268.15 5819.0 6449.06 4924.07 3200.6 4629.02 5914.5 6006.16 4608.62 5407.96 4071.75 4626.72 6562.03 4410.82 6443.99 3889.98 5193.58 5399.43 5695.44 5117.64 3422.21 3916.42 5429.3 5510.96 6653.07 4745.16 4697.91 5532.72 4584.81 5071.98 5719.79 4371.08 7261.51 4968.14 5086.29 4312.48 5527.13 5139.18 4278.57 5551.43 5049.99 4201.03 5001.87 5684.05 4493.79 4279.44 4899.19 5058.34 4028.22 5293.13 3918.94 5575.11 5487.63 3852.82 4507.36 7145.73 4168.52 5403.97 5800.81 5106.46 4068.31 5166.05 5077.29 7035.54 4850.5 5426.4 5763.05 5129.68 5679.74 5357.39 5076.84 5247.01 4208.37 4841.7 5702.4 5069.9 5473.89 952.938 4678.7 3673.6 3306.84 5265.21 4657.24 4400.14 5866.42 4762.1 3987.69 3484.81 4316.0 6502.99 4287.25 4392.75 4921.1 3814.16 4271.07 4191.01 4475.38 4589.06 5340.05 4920.88 4184.47 5890.25 5700.79 6710.14 5034.05 4726.2 4426.02 4816.51 5345.73 3825.48 4770.63 5188.22 3810.68 4841.23 2804.54 5005.6 5486.89 4462.35 6069.78 5532.75 6949.65 4095.83 4975.85 5695.25 5676.61 5716.42 5701.63 4620.95 6347.72 3460.93 4488.39 5124.86 4927.73 4602.57 3763.85 3565.32 3419.07 5710.33 5344.44 5131.77 6432.8 5549.71 3186.07 4967.51 5173.82 7212.97 5490.64 5034.34 3769.2 4507.46 5036.14 5603.68 4944.51 5610.95 3220.8 5042.75 5179.17 5579.39 5270.51 5148.1 5490.75 5224.64 5949.73 3495.68 5783.94 6370.33 5081.08 6318.25 4202.77 6864.06 6008.81 4932.56 5192.49 3487.31 6643.4 4674.9 5461.72 6599.28 6224.85 4556.19 5368.66 4795.08 6562.92 5501.73 3671.06 4697.24 3612.44 4983.43 5233.76 5866.91 4683.28 6405.69 2820.07 6549.8 4851.18 4825.73 4165.36 5288.33 6296.54 5797.21 5685.74 6740.35 6028.63 3450.07 5927.2 4550.92 6215.87 5191.26 6060.06 5544.27 5308.33 6896.55 4666.12 4685.65 6219.34 6023.07 5674.63 6506.63 4140.04 4668.8 5995.4 3495.3 5322.11 5735.08 7133.44 4750.81 4711.15 4474.39 4658.59 4196.62 6478.35 2809.19 5453.77 4916.7 5589.53 7208.19 5025.42 4549.51 5196.08 3587.93 4517.29 4495.75 5323.95 6171.01 4468.26 5796.26 4603.04 4870.94 5368.93 5271.88 6121.56 7168.2 4571.74 4096.86 3622.48 5001.51 5385.86 5115.42 4082.4 4369.86 5482.76 3745.02 3720.7 4211.36 5698.53 3604.31 3856.73 4450.49 3468.45 5887.71 5635.32 4526.34 4316.45 4827.61 5409.08 5481.64 4598.92 5241.22 6647.08 4979.52 3422.29 4407.79 5214.63 6548.29 3990.96 5352.24 7362.42 5793.12 5836.14 5473.05 5537.34 4373.2 5884.99 5726.42 7025.09 3392.26 4433.12 2549.95 4361.24 5138.93 6406.8 7086.69 5648.78 6875.73 5226.42 6081.3 5615.35 5117.52 3967.76 6311.89 6734.39 4217.36 5942.45 4150.76 5005.72 4871.77 5368.52 5155.28 5811.26 5062.77 6019.35 5205.38 6075.99 4884.93 4600.71 5262.79 4494.15 5146.1 5035.71 6485.77 4419.79 5407.69 5960.5 3869.39 4117.9 5393.43 4753.76 4638.09 5377.01 4441.91 5330.26 6470.23 5939.22 4215.05 4271.93 4697.49 5125.17 4859.01 5524.45 5990.75 5600.21 3953.26 5467.51 4625.53 5459.92 4096.47 5114.67 5353.66 4104.04 5030.33 5593.79 5234.2 4965.24 6379.38 6257.79 5327.05 4849.5 5353.23 6229.83 4523.81 5578.18 5106.33 5293.37 5198.94 5933.54 5559.79 2980.31 5879.24 3148.79 5740.78 4796.12 5997.91 4742.82 6791.86 4209.0 4930.72 5728.58 4887.73 6297.99 5378.24 4538.89 5817.74 5661.6 5285.75 5385.03 4169.15 5673.75 5360.67 5968.54 6263.3 4501.05 4537.03 3247.97 5124.34 4114.2 4904.37 4326.06 5034.46 5757.29 5016.46 5469.17 5061.75 6022.78 3769.24 4087.32 6647.85 2569.12 5161.74 7336.37 5099.9 6945.69 5118.86 4183.4 6170.9 5833.78 4733.79 4436.48 5758.98 5288.64 6213.24 5987.88 3579.59 4228.53 6123.46 6142.88 5111.26 5388.73 4574.54 4949.55 4764.83 4841.28 3957.38 5507.38 6889.5 4710.88 5300.17 5152.78 4052.43 4057.4 5534.23 6025.77 4781.9 6815.96 5339.6 5828.25 4725.11 3626.86 5418.12 6371.96 4604.1 5322.07 5076.11 5770.07 5101.6 4282.11 4656.01 6589.13 2347.41 5602.62 4542.16 3543.37 2030.03 5628.97 2638.82 5527.27 5104.39 5847.91 4612.13 5846.6 4109.44 4903.84 5438.55 4290.49 4434.65 5977.66 5209.5 5065.74 5791.25 4873.23 4028.35 5464.05 5453.2 6348.93 6824.53 4332.64 5232.16 4422.23 4820.68 6031.22 5485.84 6424.77 5453.69 5918.95 5432.04 5689.56 3702.45 6556.86 3242.31 6099.28 5372.25 3234.26 4830.13 3494.16 4778.37 5134.17 4074.16 4904.35 5592.54 5390.33 5078.73 4358.81 5278.54 4651.64 5729.0 5729.92 4179.87 6224.13 4761.84 3661.67 5517.65 4009.68 3303.49 4622.73 4161.32 5585.25 5256.75 6351.89 5932.28 2960.5 4975.32 4298.7 3902.48 4304.64 6030.39 4905.53 4823.06 3799.01 7392.65 5254.49 3757.23 6828.8 6161.94 4065.28 5057.59 4461.14 5939.29 5418.98 5285.6 5615.06 1969.87 3132.34 5490.54 5203.54 4047.95 6142.94 5001.69 4416.87 6581.56 3980.46 4896.67 3934.11 5158.44 4466.22 3886.56 4496.51 6153.71 5917.08 5483.37 5092.93 5934.05 4714.66 6771.18 4984.17 5327.39 5781.62 4037.86 4138.59 5714.51 4938.33 4484.78 4621.33 5157.73 4541.22 4934.66 3539.68 4984.01 6217.33 4557.1 6688.53 5927.1 6175.27 5876.51 6731.89 2932.52 5410.6 4733.41 5264.83 3901.53 5136.51 6815.51 5313.86 4457.05 3989.26 5189.91 3618.64 5777.26 5703.84 4335.79 3530.82 5797.32 3921.27 4886.99 3161.1 5265.63 4898.29 4431.06 5730.2 5620.88 5370.9 4529.77 4325.13 4262.74 6172.27 3783.79 4248.14 5279.19 4016.6 5192.92 5275.57 4786.66 5891.25 5370.1 5095.52 5129.4 5114.51 3720.38 4655.37 5023.61 4731.37 4672.86 6530.78 5560.23 3043.77 4139.39 5237.55 3909.94 5088.64 6589.8 3729.16 5319.1 4181.93 3038.91 6570.43 6883.86 3350.99 3820.19 4979.5 4745.37 6200.05 5575.11 4052.49 5061.74 5326.03 6189.67 4948.96 5117.83 5256.82 4013.86 4061.87 5383.9 5165.31 3798.09 4288.5 5715.51 4511.05 3456.3 6561.94 5259.21 4256.08 5881.93 2803.01 4399.52 4444.0 4554.24 6182.19 3939.96 5910.66 7415.84 4981.81 5141.03 4970.55 4840.44 8123.59 5765.14 4946.08 4767.54 2927.84 5121.08 4696.03 6177.68 4605.39 6270.59 6045.26 6500.45 4907.55 4103.76 4286.61 4603.66 4969.68 6636.43 5431.14 6298.8 3689.24 5178.07 5151.19 4171.02 7012.36 5028.06 4002.99 4293.3 5587.3 5159.67 3572.73 5764.52 5684.88 6523.78 4645.86 4045.67 6005.95 4941.52 4308.49 5900.0 4581.1 6241.77 5317.19 7360.12 6223.98 5821.49 7050.08 5580.44 5998.13 6275.25 4746.15 6892.33 4758.84 3976.0 4452.36 4068.41 6463.71 5059.37 5783.38 5645.54 6264.03 4526.87 3562.8 5192.82 6920.92 4174.22 3783.36 3573.84 4067.89 3922.28 6294.09 3445.92 4571.57 5131.07 5236.69 5524.28 4586.82 3133.28 6026.04 6353.81 5859.17 4034.41 4150.44 5522.34 5771.98 4420.35 5899.78 5717.45 5772.57 4813.81 5268.27 5244.95 4645.93 5448.64 4585.37 5901.8 6417.61 3721.69 5395.12 5783.69 6074.39 5317.83 6738.9 4460.89 4157.1 8052.53 4867.12 6044.01 4637.3 1458.87 6520.19 5734.07 3997.68 6033.28 4819.83 4801.16 5071.38 5616.66 5688.77 5368.28 4698.7 6229.64 2848.44 4220.43 6263.87 5743.8 4094.63 5084.76 6605.11 4757.87 3557.46 6379.33 5971.95 5652.73 3979.46 6321.97 6412.84 6509.54 6119.0 2589.19 3792.06 5128.59 4993.49 5310.33 4864.38 6583.37 3770.22 3688.83 3402.44 4390.64 4848.98 5150.84 4608.01 5087.97 5339.82 4519.03 4930.17 5110.27 4745.44 4085.96 5762.82 4612.68 4232.33 5462.6 5617.29 3035.06 5770.92 4262.19 4597.88 3093.38 4878.93 4845.91 2002.78 4505.3 4491.26 4511.34 4832.21 5009.21 4742.35 5394.79 4574.03 5290.37 5264.08 4227.66 4151.74 4691.01 4594.89 5245.95 5821.42 4515.02 3463.53 6126.03 4121.07 6044.69 4197.87 2970.24 5105.54 5731.43 3518.14 3414.67 5444.36 2649.69 5044.68 6908.32 3467.11 5000.74 6153.26 5637.53 3882.37 4634.25 4095.4 5188.57 6351.48 3830.7 5357.33 6210.0 5350.9 3483.61 4262.52 7430.48 5992.06 5545.68 6080.69 4970.12 4967.93 6369.66 5973.57 6241.48 5125.45 5957.82 6286.27 6327.54 5507.07 4802.36 5466.13 5327.71 5257.38 5075.23 4975.56 7282.36 6666.34 4645.91 5581.01 6834.92 4125.75 5130.57 5090.48 5402.45 3985.93 6071.59 6079.55 3856.4 5485.61 4937.36 5308.4 4569.32 5537.61 6084.88 4491.96 4397.06 5184.98 4199.44 4467.51 4053.12 4479.5 6261.67 5460.57 5065.78 5703.34 4521.42 6668.98 6649.52 3977.98 6043.34 4939.56 4747.68 4712.17 4723.71 4461.67 5631.32 6322.0 5793.14 6345.2 4609.65 5704.61 5128.03 5410.73 4379.91 4942.63 5850.38 7066.26 4730.97 3677.85 5214.71 4677.84 4811.11 4924.52 4866.8 5658.05 6593.1 5462.1 4000.51 6032.45 5011.37 4026.03 2827.92 4441.44 4232.44 5336.61 4817.75 3312.3 5563.09 4848.15 4439.09 5523.81 4718.61 3873.79 5717.67 5515.59 5252.37 5432.4 4499.54 5037.58 5640.67 6572.17 3751.73 5555.89 4766.47 4871.1 5678.08 5922.62 4414.09 5191.29 3784.68 4188.16 3717.22 6649.21 4654.92 2943.17 5286.55 4880.78 4322.56 5509.09 5625.02 5212.05 4829.77 3826.01 6474.5 3928.99 4444.92 6959.88 5971.9 5749.53 5247.73 4876.37 5034.02 4769.62 5582.28 5945.25 5181.31 4696.06 4137.16 6189.29 5984.55 6581.13 5803.3 4721.98 5252.82 3543.98 5056.26 5878.55 4014.44 3435.13 6604.72 6002.77 4431.46 3794.47 4610.55 3207.84 4967.02 4614.49 5400.69 4128.93 4462.5 5573.31 4959.72 5004.68 4023.88 3808.04 5348.11 4405.61 6126.5 4034.88 3511.5 6007.1 5067.92 5488.96 3188.21 5919.27 3720.92 5087.3 4793.06 6637.38 6139.74 4975.57 3057.3 6150.31 5873.62 4996.91 3920.44 5379.52 4450.51 3768.62 5314.67 5563.47 5651.46 4066.36 6033.93 3162.27 5516.37 5092.44 5432.2 4612.4 4746.19 6381.58 3282.57 5212.2 4798.13 5648.59 6697.45 4432.32 6296.36 4451.76 3224.81 3775.38 4046.22 6457.89 4844.2 4575.72 5114.61 6118.13 3374.62 4420.3 4926.62 3917.09 6009.93 5872.45 5270.1 5130.56 4947.64 6305.9 3470.69 4542.62 4859.95 4132.08 5522.18 5223.1 3873.72 4850.49 4592.49 3625.98 5479.86 4702.32 4763.04 5944.52 4413.56 3746.62 4532.67 5316.05 5260.13 4908.32 4649.5 5019.84 4810.74 5985.75 5475.83 4149.17 4329.8 5728.27 5672.46 5202.33 3228.27 3956.24 7558.99 4142.1 5043.14 5333.04 5445.91 4521.99 4812.59 6842.54 7115.67 5675.45 3361.11 6038.56 2807.46 5599.16 4179.8 3488.34 5658.35 5428.24 5108.84 4582.12 4520.14 5357.14 4850.95 6271.22 3421.81 6188.33 6111.23 6916.18 5786.06 4137.41 3780.07 3868.69 5466.49 5447.74 5007.41 6033.72 3851.47 3692.99 4966.74 4959.94 1635.31 5639.4 6185.73 4083.24 6520.96 4806.99 3771.91 5217.62 3839.0 6178.19 4616.81 5715.25 4611.21 5108.42 4630.5 3354.94 4404.87 5237.27 5767.65 7885.41 5782.25 4104.97 5497.27 4081.77 4948.21 4987.01 2181.29 4202.12 6332.64 2694.25 6492.44 4083.1 3482.73 5145.39 3996.93 4957.99 4063.26 4997.89 5093.28 6131.52 6009.88 4699.77 4981.55 5093.41 5144.23 6188.62 6153.07 4414.06 5908.57 7296.47 5050.2 2513.38 4821.41 4924.53 3995.08 5616.11 4499.52 4028.13 3874.12 3900.93 4457.73 5784.38 6476.35 6260.58 3074.49 3053.19 4067.24 6571.26 5580.95 3393.59 3549.92 4032.06 5246.81 5089.1 5888.95 5394.78 3463.34 5122.38 2853.68 5262.85 4998.37 5329.84 6559.82 3879.83 6565.95 4577.98 5886.81 4487.51 4246.24 6805.02 4295.25 7394.47 5354.48 4900.26 4729.45 5374.09 6261.13 4167.55 4720.34 5244.47 5378.75 3920.64 5510.89 6186.24 5822.7 4159.89 5282.67 5178.55 4038.17 5146.69 4907.48 6213.74 2329.93 4369.87 6938.87 5412.07 5512.57 4813.55 5856.43 3465.03 5349.85 5799.86 5172.1 4362.94 4469.82 6545.78 4870.14 2932.2 5105.72 4082.01 5003.49 4750.76 3964.03 4907.03 4216.33 5832.72 5617.91 4721.2 4706.31 4735.99 6265.48 4203.68 4739.56 4613.32 4701.03 3352.46 6351.95 5195.09 5345.05 5200.1 3997.52 7679.2 4881.51 4311.92 2626.41 6729.99 6664.54 6842.35 5464.34 3621.63 4777.96 5801.89 6833.5 5742.39 4780.16 5738.37 4813.24 4433.23 5759.19 3113.64 4304.75 5480.86 6139.9 4720.22 4313.38 6598.99 5250.56 3633.58 2468.16 6294.14 4339.97 5203.75 5169.09 4691.15 2459.88 4210.24 5470.67 5901.71 5225.11 5342.9 5733.12 5043.34 6436.29 5402.81 4600.81 4919.13 5640.63 5168.97 5783.88 5002.38 6705.93 4865.11 4731.16 5502.14 6470.87 4495.33 4465.56 4131.08 5747.9 3864.19 4287.93 6203.24 6818.23 4488.41 6679.12 5652.19 4621.32 5806.74 3878.8 6578.62 6284.12 4796.04 5229.56 6011.4 4672.34 6052.22 5376.41 5003.63 4695.7 4944.08 5576.16 5269.39 4305.35 5210.22 2451.27 3903.9 4444.95 5161.02 3124.49 6081.35 5003.81 6262.18 3818.37 5663.36 6225.05 5434.04 5125.53 5994.21 4444.54 5779.9 4909.74 5310.33 5299.03 4565.36 3922.98 5161.73 4025.08 5259.48 4008.67 5254.93 4803.4 6608.94 2613.78 3796.73 5417.07 3834.01 5656.84 6789.66 4739.41 5312.2 5847.27 4490.2 4706.59 5734.84 3982.31 4950.07 4582.24 2832.83 5827.3 6036.99 3010.1 3825.98 4589.22 5087.03 4667.84 3906.41 4123.08 4512.6 4260.38 4636.45 4932.27 5638.51 6793.49 5252.22 3563.33 6060.19 4962.35 6786.37 4333.23 4328.76 4124.33 5561.63 4358.06 5093.51 5647.93 6201.49 5449.09 5154.74 4605.61 5386.95 5332.11 5315.71 6158.93 5081.65 5373.78 4823.14 5438.5 5345.65 5863.36 5699.4 5237.76 4698.94 3948.21 4286.84 5669.15 5296.05 5263.86 3330.85 5056.32 5533.52 4060.17 5410.33 4747.24 4380.86 5302.53 4909.13 4287.61 5648.02 3308.75 4604.34 4439.17 5677.42 4929.35 5606.22 5051.39 3943.77 5242.38 4884.94 5459.52 4609.98 5566.5 4752.31 4276.59 5579.04 5405.6 3929.35 5403.81 5082.25 6964.78 4374.05 5036.84 5504.65 5813.68 5732.11 3618.53 5040.9 5596.68 4770.21 8013.28 3846.55 5283.65 3082.16 4644.68 2892.36 5911.29 5416.41 4694.27 6760.64 2515.5 5177.88 5551.79 6981.47 3916.15 4474.96 4084.87 4758.76 4790.63 5259.29 3584.05 4916.75 4818.53 5097.85 5584.64 6189.04 6224.64 4221.03 3799.55 5082.66 4550.77 4337.93 3550.88 4345.51 5536.0 4048.73 5145.13 3860.8 3747.96 5611.29 5940.5 6568.45 5004.22 4601.54 4280.92 4696.92 6437.99 6898.8 6632.04 6540.57 4893.72 6004.72 4072.4 4983.56 5699.51 4489.18 2489.44 4632.75 4752.94 4994.98 3950.53 6423.96 4501.1 6058.13 5894.69 6988.4 6635.51 6051.35 6779.82 5543.67 3999.81 4867.13 4863.27 2701.42 4502.12 5442.79 6673.92 5151.68 5733.59 5362.15 4455.61 4738.72 6874.6 5240.97 5569.85 5523.96 4884.93 4223.53 4759.38 4733.37 6960.97 4287.15 4523.9 5282.51 5669.41 4951.02 3919.47 4602.7 3783.35 4868.66 4004.39 5159.9 4987.48 5943.61 5981.54 4248.58 4542.25 4414.23 5233.88 4849.21 4785.55 3793.83 5245.4 6189.81 5367.05 4449.73 5647.11 4088.72 3945.62 3743.85 6236.46 5342.17 6379.3 5015.67 3795.63 5189.4 4576.71 6538.04 4894.15 6157.59 5201.3 5848.41 4090.28 6223.33 5438.6 7370.52 4726.5 4521.88 3724.23 4963.88 7263.57 5888.94 3832.09 5705.96 5267.65 5739.69 3509.34 5360.88 7360.62 3166.37 4977.64 5369.42 4985.45 5205.53 4714.52 5499.37 5543.05 4883.13 4836.76 5333.16 5551.09 5755.98 5581.47 4384.91 6550.61 4987.01 4713.56 6094.34 5448.68 6210.48 6377.45 4182.05 3255.93 6853.07 6327.61 4633.59 5575.8 5268.93 3695.72 5106.9 5306.31 4535.94 3037.72 5126.08 5604.0 3760.4 4037.16 6395.63 5479.17 5020.37 4246.83 5467.05 5103.3 4727.98 4122.2 5175.88 4516.26 4790.16 3647.26 3731.58 5207.08 4587.19 6028.89 4888.17 5392.85 5077.2 4274.05 5275.27 4277.54 5529.09 4531.46 5925.82 4739.5 4072.95 4491.62 3865.5 
SCALARS Velocity float 1
LOOKUP_TABLE default
1.52575 1.43885 1.43282 1.55878 1.45492 1.56653 1.52939 1.47329 1.58031 1.39332 1.53363 1.65338 1.68036 1.70694 1.71249 1.53108 1.54224 1.63574 1.60189 1.58014 1.49934 1.56272 1.53453 1.54821 1.4945 1.58524 1.69373 1.67838 1.68219 1.55008 1.58553 1.48213 1.54663 1.63988 1.66471 1.65014 1.69797 1.57361 1.56711 1.56939 1.57593 1.56582 1.55298 1.51079 1.58154 1.55306 1.56179 1.54689 1.59354 1.60084 1.64404 1.57197 1.56241 1.56743 1.54514 1.541 1.53896 1.57333 1.51154 1.52063 1.5808 1.52412 1.64569 1.6251 1.63217 1.68512 1.58282 1.54233 1.59328 1.53741 1.57763 1.56409 1.59854 1.58394 1.61968 1.5855 1.52489 1.44828 1.51894 1.48612 1.52926 1.55954 1.49148 1.52778 1.73598 1.64425 1.60484 1.57386 1.61729 1.45639 1.56325 1.55207 1.56968 1.59985 1.6032 1.58825 1.59814 1.56662 1.61933 1.54824 1.50565 1.4862 1.47764 1.52183 1.58744 1.5567 1.48254 1.62592 1.42654 1.62441 1.63131 1.46432 1.35497 1.65393 1.77972 1.61584 1.74493 1.5883 1.57202 1.5947 1.58743 1.57235 1.56342 1.50333 1.6692 1.46429 1.50933 1.48509 1.51878 1.57398 1.61788 1.61962 1.6217 1.51239 1.3292 1.47545 1.48716 1.60194 1.58661 1.49673 1.47488 0.894726 0.90329 2.05558 1.69422 1.721 1.49336 1.51589 1.44421 1.60052 1.59303 1.38564 1.71637 1.89047 1.98361 1.1552 1.28782 1.61774 1.67675 1.59397 1.553 1.53838 1.54274 1.62697 1.64359 1.58264 1.3154 1.52863 1.50671 1.60381 1.49808 1.5103 2.01111 1.56061 1.66818 1.6142 1.05689 1.45446 1.52829 1.4586 1.58767 1.91252 1.67167 2.03382 1.75624 1.44053 1.2119 1.54977 1.45515 1.50248 1.66968 1.66704 1.74051 1.35398 1.59023 1.4406 1.46466 1.51889 1.8888 1.55496 1.52813 1.62478 1.91864 1.95187 2.07795 0.775024 1.47867 1.95334 1.33924 1.35695 1.56097 1.5084 1.69575 1.83998 1.71834 1.5683 1.35871 1.41913 1.38384 1.44885 1.45278 1.68259 1.56104 1.49182 1.25943 1.43063 1.46437 1.43633 1.3973 1.69376 1.7484 1.67222 1.33644 1.79935 3.68771 2.07566 2.57376 1.05429 1.26758 1.1526 1.28835 1.48135 1.45623 1.36817 1.09041 1.79928 1.57885 1.58138 1.73781 1.88618 2.25073 2.60712 1.60324 1.33909 1.33577 1.35069 1.3145 1.35239 1.48909 1.53128 1.6025 1.37876 1.32098 1.64879 1.27428 1.40162 1.45688 1.47786 1.36303 1.35396 1.74251 2.10806 1.80648 1.53828 1.27628 1.67355 1.73002 1.74002 1.88065 1.3736 1.07181 1.03983 0.993807 1.08172 1.02748 1.10656 1.21021 1.23302 1.2279 1.12324 1.30521 1.26293 1.3381 1.67331 1.35491 1.69474 0.713447 0.843248 1.58451 1.78158 1.40714 1.33217 1.01448 1.88657 1.54437 1.31008 1.2983 1.34987 0.836982 1.2221 1.48603 1.5104 1.56918 1.39915 0.918276 1.6909 1.5247 1.65263 1.52107 1.64756 1.25726 1.32199 1.36547 1.1831 1.21097 1.13441 1.12042 1.09092 1.26407 1.34295 0.962686 0.979883 0.978204 0.995714 0.988316 1.12122 1.09569 1.12524 1.09101 0.992667 1.02965 0.975917 0.921507 0.942362 1.08569 1.31791 1.10658 1.39761 1.07141 1.47632 1.50227 1.37124 1.19299 1.32477 1.60544 0.363221 1.48639 1.38181 1.12943 1.39158 1.36221 1.54672 1.32683 1.43769 1.472 1.12797 1.3252 1.18566 1.32713 1.20139 1.42725 1.38971 1.33507 1.40587 0.824952 1.05609 1.18029 1.10258 1.15208 1.2264 1.00168 1.12284 0.91747 1.07137 1.01517 1.01194 0.999899 1.33109 1.07997 1.13878 1.03741 0.984819 0.984641 0.979336 0.98907 0.966143 1.04604 0.988036 1.03216 1.01198 1.00632 0.963942 1.00465 1.0994 1.20686 1.29283 1.13963 1.31524 1.09728 0.982701 0.912736 1.00412 1.44285 1.29232 1.43873 1.31184 1.1549 0.837529 0.7231 1.10432 1.51304 1.38165 1.51077 1.57516 1.39303 1.71227 1.00393 1.26673 1.1658 1.61193 1.32259 1.61431 1.33114 1.14257 1.31385 1.34883 1.29767 1.10654 1.08373 1.06314 1.16138 1.09584 1.00477 0.924624 0.882803 0.986236 0.999858 1.02566 1.00478 1.02494 1.07567 1.05645 1.01287 1.01963 1.06537 0.960314 0.952877 0.963122 0.996487 0.977187 0.993541 0.973717 0.989555 0.986225 0.988224 0.9876 0.971136 1.00166 0.95194 0.962001 0.97162 0.978095 0.945908 0.952256 1.00579 0.97693 1.02456 1.10475 1.10854 1.09541 1.05074 1.00154 0.960917 1.19103 1.40119 1.33583 1.42662 1.51288 1.07903 1.02937 0.943057 1.09242 1.01258 1.0894 1.45325 2.07356 1.58224 1.57928 1.59691 1.76804 1.12498 1.40149 1.27842 0.865789 1.53434 0.989172 1.25755 1.17335 1.17567 1.12757 1.06042 1.07014 1.05697 1.04543 1.06155 0.828993 0.872235 1.02419 1.08754 1.00294 0.967468 0.985007 1.01952 1.04181 0.867461 0.839099 0.982748 0.92294 0.915091 0.957641 0.970798 0.981207 0.97127 0.969993 0.943543 0.972858 0.962288 0.916493 0.942804 0.951274 0.950347 0.950873 0.960926 0.965532 0.964211 0.933997 0.961016 0.975991 1.00517 1.0775 1.04089 1.06872 1.02089 1.12807 1.14393 1.05386 1.01264 1.12949 1.03472 1.34071 1.23449 1.24663 1.12516 1.08209 1.15405 1.16393 1.2772 1.22465 1.46562 2.02585 1.43325 0.281288 1.10013 1.52257 1.32197 1.27132 1.30038 1.04099 1.19759 1.35805 1.07017 1.22336 1.16552 0.75157 1.22116 1.20138 1.08372 1.02501 1.17727 1.03339 1.19815 1.12625 1.48384 1.07078 0.901808 0.824867 1.04569 1.07784 0.99522 1.01947 0.859972 0.925386 0.977048 0.89969 0.851444 0.893045 0.864083 0.886283 0.864707 0.917826 0.877736 0.907129 0.926652 0.932172 0.952147 0.956744 0.921444 0.916281 0.937911 0.938443 0.934127 0.880569 0.940064 1.01144 1.01092 0.934374 0.865619 0.999661 0.975227 0.958304 1.04777 0.988671 1.04814 1.03595 1.04659 1.31384 0.86942 1.05068 1.01503 0.979943 0.982051 1.02944 1.20752 1.20672 1.14015 1.13895 1.21604 1.23303 0.785539 0.505387 0.78503 1.18968 1.14995 1.2285 1.16058 1.17602 1.21161 1.16678 1.16464 1.0535 0.896156 0.915847 1.0479 1.12469 1.00373 0.862335 0.885943 1.03858 0.701075 0.721792 1.01045 0.884241 0.901214 0.986996 1.0428 1.00176 0.946513 1.02686 0.852841 0.890616 0.885787 0.889618 0.913612 0.9234 0.895282 0.931402 0.912895 0.932775 0.939484 0.943392 0.829902 0.823186 0.852313 0.840375 0.880236 0.885605 0.856734 0.844866 0.884074 0.896594 0.919985 0.919504 0.93763 0.943535 0.901193 0.88246 0.878726 0.865982 0.847729 0.854766 0.994222 0.947538 0.964919 0.943598 0.942387 0.910274 0.942083 1.00372 0.954091 0.988383 0.98274 0.935389 1.0095 1.05492 1.0196 0.97121 1.01487 1.03724 0.984892 1.09121 1.35047 1.3077 1.25073 1.40893 1.02025 1.3385 0.922975 0.79813 0.738379 0.85308 1.09874 1.10554 1.14447 0.992968 1.23965 1.17909 1.04104 0.977258 0.9656 0.945603 0.970869 1.05098 1.08942 1.12508 1.00935 1.01403 0.924837 1.04149 0.912013 0.913772 0.967886 0.942781 0.994285 1.08473 0.997706 1.19829 0.979728 0.920561 0.929272 0.901352 0.918522 0.9028 0.895082 0.933076 0.887692 0.886695 0.949234 0.922038 0.92139 0.953126 0.964457 0.820324 0.820794 0.824074 0.834463 0.861909 0.849713 0.867608 0.878091 0.874108 0.866112 0.913373 0.963672 0.946869 0.907299 0.873277 0.907386 0.851028 0.84392 0.83563 0.947667 0.980526 0.998759 0.992163 0.950312 0.914619 0.897399 0.93533 0.988717 1.03856 1.04011 1.00129 0.995785 0.98308 0.940577 0.96447 0.947816 1.01046 0.60493 1.08555 1.19721 1.03769 0.846087 1.1477 1.01587 1.02396 0.862443 0.857989 0.902498 0.91667 0.952884 1.03785 1.01518 1.08996 0.981925 1.15792 1.34074 1.22798 1.03033 0.9543 0.936043 0.94202 0.966776 1.02415 1.07654 1.02651 1.02123 0.987155 0.952152 1.00284 0.954163 0.985562 1.00154 1.02769 0.945748 1.01255 0.888773 1.2065 1.2442 0.755923 0.883509 0.885942 0.817409 0.934859 0.918662 0.887868 0.897231 0.900973 0.911114 0.849726 0.767513 0.891198 0.933022 0.937724 0.890373 0.992717 0.954834 0.924003 0.847954 0.866589 0.839218 0.844845 0.843832 0.875408 0.852499 0.899623 0.858458 0.961109 0.958122 0.923753 0.85656 0.843543 0.820087 0.956595 0.946126 0.954766 1.00506 0.951102 0.948941 0.877279 0.905005 0.840313 0.933846 0.991927 0.997234 1.02397 0.930849 0.928186 0.921632 0.937322 0.824489 0.912441 1.07602 0.978842 1.14737 1.08291 1.05874 0.971113 1.00433 1.00293 1.01419 0.946691 0.930493 0.961047 1.04618 1.08717 1.07793 0.999207 1.21608 0.391313 1.142 1.22197 1.19825 0.999901 0.962904 1.00843 0.983188 1.01396 1.00736 1.00995 1.03652 0.972284 0.958488 0.980843 0.944626 0.961081 0.956626 0.955152 0.990862 0.966801 1.00615 1.0433 1.06719 0.945823 0.971999 1.1148 0.897286 0.903937 0.923287 0.966867 0.924941 0.954515 0.879091 0.898532 0.881005 0.866463 0.827609 0.768667 0.783559 0.790828 1.01242 0.856786 0.991357 0.961304 0.919259 0.911425 0.950574 1.05404 0.942222 0.899713 0.886037 0.880941 0.94627 0.847561 0.850652 0.839208 0.878641 0.991413 0.989903 0.966537 0.972348 0.921467 0.834157 0.821552 0.97511 0.833842 0.942546 0.912946 0.867277 0.852361 0.911769 0.846423 0.863534 0.818612 0.791639 0.865028 0.938606 0.980547 0.90066 0.871006 0.901808 0.912274 0.913595 0.913424 0.935701 0.966962 0.996138 1.05459 1.06318 1.04977 1.01523 1.02061 1.03681 1.00007 0.906349 0.955023 1.02222 1.097 1.0033 0.713632 0.882765 1.12608 1.074 1.02942 0.982307 1.02349 1.00539 1.04967 0.940187 0.923113 0.932106 0.93789 0.941104 0.938791 0.965982 0.94201 0.950172 0.897552 0.912441 0.907357 0.844556 0.779668 0.852122 0.778864 0.921068 0.955822 0.968424 0.887339 0.883434 0.878652 0.821014 0.833506 0.770748 0.762531 0.849238 0.790089 0.854909 0.855263 0.714504 1.09688 0.730206 1.29833 0.678124 0.835609 0.981364 0.817538 0.820555 0.840188 0.803613 0.89331 0.867231 0.776203 0.752241 0.763359 0.781367 0.777783 0.836724 0.768055 0.880001 0.779583 0.837973 0.815036 0.887797 0.785661 0.863373 0.713299 0.858721 0.835709 0.928601 0.888686 0.84009 0.816176 0.808909 0.782899 0.797353 0.817711 0.806931 0.819101 0.875284 0.919788 0.967025 0.894159 0.867481 0.842337 0.89798 0.961423 1.00692 1.02686 1.04747 1.04439 1.05404 1.02155 0.97597 0.933227 0.962775 1.008 0.917073 0.857855 0.793529 0.903105 0.944635 0.89694 1.00632 0.925745 1.00923 0.999215 0.983506 0.946467 0.922744 0.871552 0.906505 0.920793 0.881697 0.921078 0.930525 0.915834 0.916073 0.971158 0.960412 0.966892 0.934596 0.929718 0.885574 0.834605 0.820158 0.887072 1.03626 0.923191 1.22578 0.886833 0.806186 0.927991 0.787398 0.911214 0.842552 0.900305 0.999886 0.984651 0.770938 0.667032 0.75397 0.95078 0.716454 1.38348 0.884533 0.575095 0.629513 0.968358 0.932607 0.855 0.841013 0.809058 0.875431 0.822606 0.862626 0.836704 0.847365 0.788056 0.780582 0.690873 0.803145 0.683254 0.713849 0.801279 0.895661 0.720852 0.918945 0.870337 0.850541 0.859249 0.814719 0.797879 0.794765 0.796919 0.790429 0.800833 0.821819 0.852578 0.915807 0.900551 0.921442 0.923559 0.918211 0.876143 0.869403 0.863757 0.93186 0.999439 1.01266 1.05 1.03979 1.04091 1.02737 1.05183 1.0775 1.03703 1.04062 0.99733 0.983425 0.968556 0.970907 0.949264 0.970231 0.948281 0.884831 0.881764 0.919119 0.913959 0.855738 0.871204 0.990571 1.01233 1.00452 0.961781 0.893204 0.913719 0.936006 0.925552 0.922534 0.934141 0.929048 0.926035 0.905802 0.947975 0.909942 0.956813 0.902439 0.915937 0.877004 0.877617 0.868269 0.815887 1.07699 0.856873 0.490485 0.575009 0.612112 0.575053 0.815335 0.925456 0.88134 0.879655 0.757131 0.852725 0.823187 0.762962 0.954287 0.922418 0.929342 0.799707 0.972913 0.639585 0.747891 0.667289 0.698868 0.928273 0.917105 0.963604 0.957276 0.877061 0.951065 0.882256 0.8437 0.866933 0.805237 0.834175 0.898505 0.969804 0.760433 0.858871 0.874306 0.729948 0.856681 0.597932 0.761103 0.804771 0.872536 0.565344 0.634528 0.956656 1.1029 0.85864 0.839595 0.830071 0.84467 0.819382 0.828134 0.806629 0.808844 0.803489 0.818411 0.836211 0.817883 0.862093 0.962089 0.911572 0.889429 0.880749 0.872446 0.901004 0.926229 0.939032 1.151 1.08031 1.01947 1.03392 1.02365 1.03507 1.0443 1.03573 0.983503 1.05646 1.01977 0.998157 0.976569 0.954281 0.941449 0.947235 0.902098 0.923976 0.935491 0.936819 0.792585 0.859872 0.965763 0.967056 0.956152 0.9444 0.916748 0.927485 0.916245 0.910511 0.930977 0.936456 0.934346 0.932688 0.923348 0.912244 0.909767 0.896269 0.882327 0.864421 0.860475 0.883841 0.889789 0.898788 0.913946 0.881086 0.915627 0.721746 0.760419 0.793564 0.92694 1.01107 0.760249 0.831559 0.801792 0.933487 0.900545 0.842362 0.912896 0.889994 0.864682 0.83282 0.709598 0.771223 0.713079 0.733226 0.764821 0.738418 0.781181 0.844294 0.758365 0.811043 0.883099 0.82279 0.72174 0.799189 0.836324 0.865318 0.891448 0.899266 0.930754 0.908901 0.726959 0.635516 0.756273 0.759633 0.777179 0.781639 0.741062 0.765856 0.742152 0.897895 0.824149 0.848856 0.828791 0.80038 0.843197 0.848956 0.823098 0.85727 0.855512 0.881932 0.786996 0.817225 0.915184 0.911657 1.00539 0.835077 0.937881 0.911291 0.849708 0.985241 0.924062 0.870759 1.05204 1.04161 1.03712 1.03981 1.05658 1.0168 0.9735 0.988799 0.963029 0.980523 1.00729 0.943096 1.01743 0.950416 0.951097 0.853533 0.839618 0.83795 0.974306 0.946151 0.933734 0.933167 0.923777 0.946088 0.953763 0.95632 0.987445 0.94896 0.935732 0.93394 0.91762 0.91487 0.911657 0.926294 0.894972 0.883871 0.897031 0.912531 0.989642 0.881703 1.06177 0.699248 0.774101 0.762428 0.646721 0.809705 0.881623 0.907879 0.866448 0.792052 1.24439 0.782758 0.878429 0.954618 0.850362 1.00843 0.885378 0.889261 0.847378 0.838035 0.796469 0.814959 0.732165 0.785053 0.779282 0.759686 0.778428 0.745434 0.765393 0.770116 0.767571 0.798779 0.798297 0.695505 0.704827 0.70206 0.748034 0.726986 0.742 0.796672 0.786079 0.818395 0.753414 0.688679 0.768846 0.666513 0.643145 0.654247 0.840772 0.716322 0.828847 1.08517 0.560096 0.67687 0.787121 0.812348 0.760028 0.800088 0.78235 0.79686 0.786798 0.809406 0.834339 0.832292 0.844789 0.844384 0.821048 0.867972 0.843141 0.855292 0.831466 0.84837 0.832846 0.886573 0.870512 0.984101 1.06404 0.955468 0.950415 1.00349 1.20454 1.1101 0.904804 0.885496 0.885079 0.873284 0.884251 0.901586 0.955641 1.04521 1.05828 1.02626 1.09308 1.02405 0.972841 1.00085 1.00238 0.987052 0.993376 1.01885 0.974107 0.950454 0.975257 0.92869 0.859073 0.921536 0.85498 0.843078 0.936824 0.940337 0.945935 0.940413 0.944305 0.921351 0.93194 0.91405 0.980463 1.06025 0.983699 0.894144 0.907536 0.946659 0.92503 0.910451 0.897857 0.895393 0.884002 0.894335 0.938605 0.955922 0.989219 1.0206 0.705761 0.467534 0.938412 0.733698 0.616252 0.796203 0.769624 0.574546 0.820612 0.832548 1.49139 0.583673 1.0119 0.895632 0.807882 0.879614 0.883754 0.861894 0.86407 0.781134 0.864929 0.789736 0.800886 0.832256 0.886989 0.815846 0.80729 0.878855 0.874718 0.838063 0.924834 0.937586 0.854327 0.705162 0.729865 0.706244 0.700132 0.677432 0.695736 0.723397 0.688668 0.711879 0.768401 0.734237 0.670701 0.708357 0.682271 0.825093 0.698613 0.676653 0.847266 0.925207 0.644225 0.864484 0.927347 0.810062 0.775769 0.798083 0.799587 0.815308 0.834105 0.834997 0.85242 0.862144 0.875341 0.867606 0.859337 0.906928 0.923537 1.0755 1.04024 0.967791 0.901031 0.796198 0.975839 0.857438 0.890385 0.881711 0.880359 0.893867 0.913737 1.02865 1.0569 1.08506 1.06543 1.01687 1.1268 0.979795 1.04853 0.981966 0.992536 0.992836 1.00621 1.00347 1.00279 1.00377 1.03393 0.996455 0.999242 0.972421 0.929389 0.952789 0.896303 0.885087 0.884752 0.937106 0.944535 0.937136 0.927023 0.911095 1.02109 1.12234 1.16443 1.31802 0.877622 0.915651 0.950275 0.901293 0.939113 0.910888 0.895369 0.881925 0.843565 1.11383 0.782148 1.49138 1.2711 0.735328 0.813159 0.677122 0.898282 0.631976 0.779037 0.734289 0.894259 0.937519 0.67038 0.821123 0.696974 0.781278 0.93696 0.970689 0.85965 0.771562 0.903864 0.819819 0.796717 0.855659 0.800984 0.866085 0.882562 0.885363 0.782352 1.08066 1.04358 1.64038 1.58327 1.60225 0.580377 1.40744 0.0567266 0.704039 0.671108 0.70259 0.767179 0.817733 0.759253 0.693712 0.69397 0.698539 0.68491 0.647058 0.668505 0.628878 0.779965 0.871923 0.868343 0.832633 0.737034 0.752825 0.80371 0.774992 0.80606 0.705818 0.787365 0.992818 0.928125 0.844746 0.718266 0.787299 0.795896 0.806802 0.820628 0.852436 0.834109 0.851098 0.852201 0.880033 0.890842 0.885102 0.882283 0.878619 0.89271 0.840398 0.785932 0.966618 0.91653 0.879471 0.93083 0.915801 0.896117 0.900474 0.901847 0.939861 0.932074 0.956503 1.15808 1.01231 1.02127 1.00834 1.01452 1.02946 1.01804 0.998483 1.00805 1.01668 1.00199 1.06927 1.0039 0.982808 0.946225 0.954597 0.940874 0.92099 0.887055 0.929148 0.940942 0.950471 0.934644 0.93041 0.913836 0.906384 0.881877 0.935858 1.15805 1.22057 0.309398 1.07532 1.21376 1.44084 0.973885 0.941849 0.908531 0.898777 0.894448 0.906784 0.902031 0.907294 1.0756 0.77163 0.773425 0.816915 0.804402 0.807496 0.919872 0.978091 0.852399 1.0273 0.853224 0.528567 0.881878 0.685771 0.795613 0.724097 0.767244 0.738349 0.73034 0.791913 0.714338 0.839533 1.16266 0.74965 1.05783 1.00246 0.631279 0.966238 0.907807 1.02785 0.633513 0.633882 0.672034 0.718291 0.285322 0.831063 0.621564 0.720973 0.73537 0.71636 0.729026 0.74831 0.832249 0.825519 0.829633 0.78166 0.771166 0.805541 0.800064 0.789199 0.806653 0.803725 0.787617 0.790246 0.807483 0.884264 0.803434 0.833082 0.782371 0.798704 0.801638 0.796041 0.803904 0.817786 0.818738 0.833325 0.869152 0.86794 0.892004 0.893278 0.895765 0.898374 0.885094 0.894943 0.860675 0.78726 0.950959 0.951012 0.97063 0.927377 0.91651 0.92371 0.917161 0.915326 0.917427 0.912797 0.922333 0.917545 0.952531 0.862691 1.04966 1.02261 1.00639 1.04455 1.02317 1.05354 1.03231 1.00621 0.96843 0.932666 1.04576 0.96295 0.965777 0.9721 0.94777 0.926581 0.964335 0.929762 0.949074 0.905388 0.895425 0.886004 0.920933 1.04936 0.752618 0.729976 0.737844 0.912445 0.757985 0.771213 0.896417 0.862851 0.893421 0.919589 0.954821 0.973699 0.981044 0.773358 0.817129 0.764965 0.81212 0.812613 0.832792 0.861005 0.886684 0.733775 0.77744 0.891061 0.551673 0.663544 0.680289 0.580037 0.772731 0.640185 0.681152 0.673102 0.763626 0.479248 0.582275 0.614204 0.675346 0.868603 0.747895 0.88681 0.852801 0.793803 0.771182 0.775887 0.578194 0.8293 0.851769 0.380181 0.85385 1.08158 1.32237 0.670488 0.441554 0.806258 0.597803 0.654591 0.625596 0.666535 0.602935 0.410874 0.416928 0.388374 0.600367 0.57874 0.677549 0.711029 0.689161 0.63498 0.737794 0.889418 0.786135 0.783162 0.789695 0.752814 0.747125 0.756521 0.779363 0.777916 0.806408 0.825798 0.814295 0.801206 0.800818 0.797203 0.804771 0.831703 0.846736 0.89458 0.918217 0.900271 0.896904 0.876236 0.830885 1.03911 1.01688 0.929251 0.919985 0.920371 0.920741 0.926997 0.933389 0.93288 0.939429 0.946802 0.953657 0.897559 0.923174 0.905165 1.03794 1.02775 1.04839 1.09823 0.997593 0.971047 0.968456 1.03302 0.986759 0.960979 0.961815 0.962259 0.997396 0.971734 0.991413 0.936257 0.973472 0.982765 0.9608 0.944502 0.948743 0.948866 0.873128 0.92747 0.929786 0.943429 1.05221 0.863044 0.898168 0.81149 0.735059 0.828162 0.877151 0.92768 0.889052 0.905484 0.954513 0.928681 0.887188 0.849578 0.806616 0.862185 0.914843 1.12336 0.700947 0.484969 0.775431 0.742957 0.804596 0.857399 0.848155 0.623594 0.578805 0.563278 0.65366 0.772422 0.689558 0.619084 0.64194 0.642909 0.66158 0.626096 0.706114 0.772741 0.546843 0.285559 0.60942 1.10879 1.01042 1.18845 1.18528 0.400851 0.427177 0.64592 0.0482477 0.38969 0.670907 0.724084 0.692013 0.566903 0.462364 0.822135 0.414152 0.319875 0.417684 0.534996 0.457637 0.472562 0.61483 0.640963 0.698974 0.678873 0.68295 0.631675 0.685656 0.756761 0.817457 0.746555 0.7345 0.71751 0.753757 0.711212 0.727305 0.704042 0.745078 0.777791 0.780139 0.792214 0.805725 0.805559 0.813868 0.804685 0.786387 0.80776 0.792493 0.828286 0.853929 0.823709 0.899711 0.900904 0.903364 0.853824 0.857857 0.799815 0.898688 0.920004 0.932225 0.934937 0.919642 0.932919 0.940967 0.944237 0.948477 0.931843 0.938297 0.961052 0.948583 1.03631 1.0599 1.14461 0.955508 0.985 0.975497 0.978603 1.00087 1.04999 1.02075 1.00596 0.983316 0.953396 0.948246 0.982821 0.999935 0.985762 0.998553 1.00369 0.952607 0.964124 0.960895 0.975167 0.950956 0.937878 0.896891 1.00551 0.920552 0.990932 0.93921 0.90175 0.823831 0.8535 0.846904 0.867866 0.883118 0.898539 0.833875 0.867132 0.799506 0.823486 0.777086 0.819692 0.68295 0.597658 0.67816 0.704951 0.813758 0.775722 0.885482 0.854398 0.983618 0.504972 0.686357 0.632382 0.636514 0.67367 0.662048 0.680375 0.658533 0.666879 0.681263 0.657612 0.721563 0.670407 0.700537 0.870843 0.747948 0.654578 0.642614 0.462575 0.671421 0.872079 1.05353 0.836247 0.701943 0.841634 0.508986 0.595809 0.644038 0.744132 0.419047 0.549529 0.493015 0.491729 0.662491 0.661356 0.77417 0.713499 0.704162 0.663342 0.656818 0.536639 0.553125 0.594708 0.634366 0.652277 0.637855 0.656392 0.743397 0.72168 0.681896 0.761836 0.749787 0.792389 0.763868 0.740587 0.726163 0.680918 0.691741 0.700419 0.697776 0.721494 0.805006 0.777025 0.807855 0.813445 0.800509 0.814587 0.802449 0.796063 0.787863 0.770362 0.797148 0.741769 0.849038 0.876215 0.907688 0.896242 0.892913 0.870152 0.836659 0.863028 0.949534 0.949589 0.949642 0.946469 0.92852 0.948642 0.949699 0.958849 0.962233 0.953175 0.942855 0.937821 0.958643 1.02112 1.05774 1.0424 1.18751 1.197 0.95591 0.997676 1.02847 1.0027 1.04895 1.02765 0.9988 0.977917 0.981019 0.978991 0.99131 0.992174 1.00501 1.00742 1.01407 1.04583 0.988275 0.971786 0.976254 0.963746 0.945951 0.913263 0.984387 0.949052 0.799623 0.882953 0.954935 0.917137 0.87151 0.878515 0.868052 0.884763 0.902856 0.855355 0.854966 0.851869 0.821765 0.841432 0.852812 0.826691 0.713205 0.781035 0.729784 0.767009 0.831871 0.758418 0.64277 0.666332 0.659546 0.676307 0.674616 0.667693 0.683714 0.694605 0.7085 0.735885 0.723555 0.712584 0.6375 0.702921 0.899274 0.853142 0.542489 0.780037 0.498541 0.551613 0.645262 0.526658 0.661233 0.724313 0.696379 0.605522 0.408658 0.543263 0.640566 0.545956 0.56288 0.491576 0.519774 0.691998 0.617929 0.664058 0.722387 0.62333 0.533582 0.608914 0.651508 0.637034 0.683509 0.692283 0.743639 0.739323 0.739679 0.747293 0.749923 0.73978 0.708798 0.710039 0.668242 0.703407 0.711054 0.780015 0.755049 0.820045 0.810018 0.817066 0.812676 0.815876 0.818207 0.808164 0.759592 0.769882 0.743949 0.779944 0.759643 0.74238 0.877054 0.884174 0.895071 0.906887 0.928093 0.927016 0.879016 0.860564 0.962603 0.970722 0.973478 0.948386 0.952248 0.9459 0.925199 0.958124 0.973155 0.982105 0.973164 0.930559 0.985558 1.05371 1.12812 1.03108 0.842528 0.938646 0.951931 1.00379 1.065 1.00866 1.04698 1.01414 1.03651 0.999122 0.990789 0.99298 1.00029 1.00357 1.02337 1.0189 1.02925 1.0477 1.0266 1.01681 0.968273 0.916041 0.964691 0.961814 0.930102 1.04544 1.00872 0.978619 0.931558 0.898508 0.907992 0.904333 0.880614 0.881706 0.88684 0.911195 0.82905 0.85877 0.866018 0.848601 0.847679 0.849432 0.833033 0.837358 0.819502 0.778758 0.810319 0.805421 0.833091 0.80349 0.773882 0.719654 0.723917 0.674385 0.681765 0.667929 0.670031 0.695252 0.685331 0.724446 0.713037 0.744523 0.671388 0.628808 0.600574 0.676586 0.71587 0.861802 0.78896 1.17766 0.664175 0.565952 0.540528 0.628348 0.577254 0.37241 0.500075 0.18922 0.427968 0.396428 0.305522 1.85411 0.595598 0.618012 0.542966 0.577693 0.80428 0.870266 0.763976 0.561778 0.467252 0.585546 0.635912 0.642021 0.699159 0.734475 0.702116 0.727015 0.703242 0.7255 0.730295 0.714311 0.706271 0.664592 0.66112 0.674727 0.702594 0.768011 0.738852 0.817429 0.834902 0.818186 0.814814 0.812844 0.787344 0.73408 0.689226 0.710797 0.667695 0.866764 0.909916 0.89869 0.928201 0.906582 0.906001 0.957205 0.926197 0.963484 0.78525 0.89434 0.868681 0.852004 0.742819 0.740068 0.9564 0.973741 0.95912 0.944469 0.952493 1.01578 0.997628 1.01367 0.968767 1.02275 1.05445 0.903897 1.02028 0.804523 0.94465 1.15398 0.988935 0.910591 0.964994 0.92658 1.02332 0.990667 1.04032 1.04761 1.02437 1.01122 0.998608 1.00837 1.0119 1.01968 1.03439 1.06761 1.0619 0.992131 1.01926 1.07096 0.918306 0.967545 0.963367 0.933708 0.96092 1.04048 1.02126 0.997256 0.990462 0.935472 0.901545 0.893762 0.920004 0.911731 0.896183 0.896664 0.923265 0.859749 0.873493 0.848707 0.849175 0.851623 0.851776 0.849712 0.841231 0.831517 0.778903 0.81283 0.793123 0.770554 0.747293 0.685657 0.712745 0.674811 0.658534 0.652992 0.674381 0.688353 0.703262 0.644055 0.579533 0.5717 0.618179 0.395358 0.465673 0.591353 0.569877 0.622163 0.464536 0.400563 0.0149432 0.292041 0.167132 2.92541 0.0566904 0.0740376 0.746951 0.434896 1.04544 0.31059 0.347231 0.513116 0.175128 0.371099 0.571484 0.51519 0.48131 0.487086 0.463643 0.579175 0.624334 0.657798 0.668006 0.658318 0.679673 0.69169 0.686853 0.694183 0.685722 0.669054 0.706059 0.800377 0.832752 0.806033 0.800055 0.772384 0.674965 0.769572 0.64282 0.640067 0.83746 0.979941 0.939911 0.929614 0.913379 0.886642 0.876058 0.810545 0.86804 0.872854 0.831443 0.981923 0.978827 0.991289 0.958143 0.979161 0.961359 0.945325 1.02714 1.00276 1.06647 0.935625 0.88765 1.00322 1.2451 0.99983 0.972779 0.979321 0.940319 1.01906 0.99428 1.01969 1.04505 1.04494 1.01815 1.02928 1.01806 1.01604 1.02916 1.04559 1.0481 1.06398 1.08571 1.0222 0.913213 0.943806 0.904366 0.984243 0.971008 1.00942 1.00889 1.01015 0.929381 0.917431 0.914836 0.919874 0.886835 0.842837 0.890568 0.887963 0.879583 0.862071 0.861255 0.858134 0.865572 0.858903 0.839036 0.821073 0.830717 0.840226 0.810149 0.787476 0.739204 0.705535 0.666366 0.67244 0.665486 0.681711 0.680479 0.682425 0.644894 0.620245 0.594928 0.613189 0.536512 0.408257 0.459356 0.492085 0.495044 0.495233 0.616592 0.560096 0.490345 0.528106 0.560712 0.756025 0.292756 0.304991 0.239572 1.43397 0.873274 0.485289 0.0724461 0.464452 0.346996 0.548409 0.49343 0.460702 0.516985 0.665884 0.671332 0.666159 0.683539 0.684309 0.687713 0.685825 0.686899 0.686166 0.671725 0.664089 0.70707 0.821481 0.758145 0.837978 0.865863 0.839712 0.805901 0.767546 0.736338 0.742888 0.65837 0.71239 1.07033 0.941833 0.928766 0.918215 0.925484 0.898771 0.864877 0.855251 0.841309 0.853406 0.903862 0.907554 1.00166 0.971417 0.975919 0.998482 0.953531 1.0235 1.04409 1.02753 0.9618 0.816101 0.861175 0.989738 1.03917 1.28859 1.11779 0.98617 0.939582 1.00406 0.996636 1.02494 1.03907 1.04586 1.01573 1.04805 1.04852 1.0425 1.06454 1.07899 1.10367 1.08223 1.01658 0.944417 0.951408 0.95436 0.899234 0.910646 0.939712 0.993116 1.00378 1.01487 1.00577 0.994128 0.961363 0.920857 0.935638 0.957555 0.954126 0.880481 0.890686 0.884436 0.871692 0.864335 0.864233 0.883572 0.88367 0.84761 0.841826 0.845306 0.839715 0.849846 0.829525 0.861508 0.817863 0.843954 0.847261 0.768737 0.711525 0.663314 0.69122 0.698188 0.716566 0.688012 0.72349 0.683509 0.643325 0.679883 0.653407 0.547075 0.572089 0.523403 0.505095 0.557215 0.456634 0.629788 0.5356 0.701425 0.345726 0.366202 0.693607 0.491813 0.602162 0.4018 1.10813 0.733702 0.444195 0.379172 0.551833 0.43065 0.626738 0.669555 0.719173 0.672898 0.692698 0.688737 0.681726 0.695369 0.694838 0.691861 0.698311 0.684537 0.689351 0.665152 0.674826 0.708259 0.745435 0.840428 0.891273 0.867062 0.868753 0.807437 0.634655 0.66371 0.541378 0.546784 0.922426 0.969109 1.0359 0.955056 0.911943 0.909154 0.896493 0.870613 0.872233 0.893714 0.848999 0.900648 0.938683 0.930511 0.990368 0.999664 1.00552 0.982985 1.01425 0.998734 0.989188 1.04335 1.04226 1.02962 1.02267 0.977225 1.00692 0.90922 1.01591 1.19707 1.08526 0.987784 0.953471 0.999842 1.02313 1.00519 1.0538 1.01313 1.04287 1.03348 1.03468 1.05143 1.05076 1.06012 1.03879 1.0674 1.10245 1.12023 1.04745 0.997111 0.979754 0.91485 0.926296 0.930733 0.976739 1.01945 1.00457 0.999709 0.992187 0.936597 0.940771 0.930101 0.82187 0.819935 0.884492 0.913239 0.901384 0.877664 0.888848 0.880737 0.87268 0.858635 0.899575 0.832856 0.826945 0.840705 0.854246 0.867196 0.85908 0.824963 0.854735 0.668472 0.702711 0.708154 0.72538 0.727524 0.722198 0.774941 0.689242 0.680237 0.5738 0.543657 0.672713 0.652349 0.664419 0.579395 0.464404 0.584002 0.595208 0.322375 0.527678 0.473455 0.594778 0.428433 0.659355 0.571799 0.688626 0.355424 0.499936 0.431631 0.66843 0.604294 0.782597 0.820533 0.709237 0.766499 0.719421 0.752633 0.719579 0.691388 0.708502 0.70403 0.710884 0.713408 0.702117 0.717886 0.723847 0.700489 0.675617 0.886541 0.904977 0.88678 0.873494 0.869718 0.862407 0.846077 0.518486 1.05644 0.952645 0.995272 0.938459 0.897261 0.90386 0.85862 0.91062 0.935615 0.916683 0.932965 0.950313 0.98373 1.02001 1.00665 0.997148 1.02723 1.04825 1.02427 0.997929 1.06758 1.0154 1.04809 0.892559 1.02542 1.13896 1.06404 1.12611 0.97059 0.98687 0.983546 1.02371 1.06375 1.06612 1.03919 1.03138 1.06406 1.05169 1.04376 1.0594 1.08177 1.05079 1.18846 1.0176 1.01788 1.03828 0.989976 0.933329 0.905857 0.966077 0.961471 1.0072 0.994727 0.995505 0.99119 0.998491 0.906625 0.930878 0.982218 0.938855 0.887836 0.900829 0.889414 0.897679 0.889751 0.866245 0.825102 0.881745 0.777183 0.810609 0.844252 0.890933 0.823128 0.81756 0.856103 0.58714 0.696584 0.624057 0.684983 0.692593 0.712645 0.714135 0.842041 0.597506 0.711242 0.644692 0.629866 0.651758 0.66159 0.670603 0.510959 0.562217 0.59983 0.524756 0.587297 0.599452 0.584968 0.595757 0.636261 0.597277 0.61677 0.628228 0.367599 0.777989 0.796251 0.776619 0.783827 0.802224 0.742692 0.796175 0.710772 0.735763 0.738977 0.715973 0.716747 0.711213 0.727116 0.754429 0.70365 0.509746 0.927697 0.896603 0.905718 0.85493 0.817492 1.14324 0.96269 0.935341 0.941696 0.907271 0.872311 0.844159 0.868467 0.860124 0.934646 0.92679 0.966048 1.00908 0.956312 0.986133 0.964516 1.01608 1.02523 1.03383 1.02498 1.01457 1.05594 1.00652 1.04594 1.06146 0.982643 1.15601 0.953771 1.05318 1.0291 1.03741 0.998858 1.03024 1.00259 1.04667 1.05851 1.0757 1.104 1.11812 1.05952 1.05667 1.07496 1.07664 1.08956 1.08279 0.939078 1.07398 1.03322 0.990927 1.0002 1.0129 0.999427 1.0096 0.976071 1.03045 0.901576 0.875525 0.954838 0.935708 0.924929 0.965922 0.894398 0.933971 0.904308 0.867736 0.849998 0.786719 0.836968 0.790554 0.805452 0.829312 0.870554 0.884235 0.814038 0.841056 0.757131 0.649231 0.680479 0.671205 0.663508 0.742135 0.794178 0.507268 0.579414 0.752719 0.717779 0.666783 0.579068 0.615793 0.559413 0.650053 0.683404 0.716107 0.633587 0.740095 0.615542 0.56976 0.741859 0.880511 0.751026 0.784293 0.800948 0.790206 0.75975 0.723717 0.751294 0.724164 0.739621 0.710173 0.722429 0.745733 0.867905 0.622862 0.942336 0.945264 0.933621 0.893509 0.870503 1.0799 1.02115 1.01439 0.946412 0.934408 0.904425 0.852319 0.835263 0.873357 0.991323 1.00464 1.01947 0.984047 0.990675 1.04123 1.04817 1.03643 1.02483 1.04068 1.02465 1.00361 1.06587 1.01953 1.05266 1.04525 1.01677 1.01882 1.17108 0.995944 1.14008 1.012 0.927903 1.02881 1.04854 1.0737 1.00253 1.05405 1.08215 1.04546 1.10338 1.04861 1.07641 1.0389 1.09648 1.10359 1.08281 0.995193 1.00953 0.965869 1.02767 1.01587 1.00569 1.00852 1.01508 1.00624 1.00198 1.04528 1.02061 0.864275 0.912502 0.952229 0.971283 0.982898 0.975273 0.952088 0.965978 0.912686 0.88673 0.799647 0.801439 0.849846 0.870597 0.85429 0.900004 0.87566 0.829963 0.821459 0.753049 0.808285 0.695816 0.75227 0.703048 0.714476 0.736265 0.885252 0.984112 0.582774 0.970556 0.707763 0.831126 0.471382 0.796398 0.704508 0.782406 0.602224 0.574938 0.737753 0.740228 0.734121 0.75922 0.719006 0.751417 1.03791 0.968819 0.896411 0.768468 0.776022 0.783162 0.799744 0.789121 0.783425 0.767427 0.777258 0.766365 0.765868 0.71381 0.749631 0.791219 0.895276 0.933067 0.93818 0.935111 0.941562 0.889802 0.905 0.889224 0.98087 0.973966 0.947505 0.917597 0.954183 0.860454 0.789382 0.98959 0.933945 1.0329 1.01798 1.02246 1.02639 1.01638 1.06627 1.05908 1.00614 1.04966 1.02033 0.985516 1.03731 1.05688 1.04559 1.16172 1.14079 0.96948 0.978687 1.06222 1.07855 1.02624 1.04964 1.08056 1.13824 1.10712 1.23826 1.07897 1.05616 1.07466 1.11308 1.10375 1.11459 1.06235 1.00917 0.991737 1.03404 1.06629 1.0099 0.981319 1.00474 1.00967 0.979495 1.15146 0.984016 0.907797 0.914031 0.973345 0.955431 0.996585 0.955606 1.00694 0.936023 0.922814 0.752028 0.899643 0.903953 0.908085 0.990713 0.87043 0.844768 0.8096 0.735831 0.68752 0.662918 0.790656 0.903685 1.31615 0.932116 0.435308 0.565237 0.690479 0.752434 0.87841 0.670495 0.825242 0.801473 0.776451 0.785052 0.788491 0.849774 0.878083 0.834776 0.901326 0.790083 0.791225 0.798094 0.762967 0.734986 0.790438 0.790418 0.800062 0.790118 0.786427 0.811035 0.801202 0.775381 0.753356 0.801615 0.929253 0.934985 0.950549 0.959868 0.946673 0.975267 1.00949 0.920409 0.91821 0.975018 0.983169 0.96517 0.983964 0.865692 0.73199 1.03363 1.03068 1.03085 1.03854 1.02721 1.06719 1.02911 1.00784 1.05634 1.03036 1.06401 1.04353 1.05605 1.04838 1.03689 1.03061 1.17183 1.1994 1.09566 0.947749 1.10232 1.09217 1.07893 1.06531 1.03257 1.03576 1.06068 1.16731 1.1514 1.09331 1.08371 1.08952 1.08868 1.10193 1.12188 1.07326 1.02733 0.963279 1.04199 0.959131 0.922557 0.922392 1.03787 1.08207 1.05004 1.06769 1.03236 1.13944 0.878434 1.06967 0.935543 0.87218 0.947411 0.990913 1.00527 1.02535 0.960071 0.917091 1.01411 0.948291 0.8637 0.881563 0.926372 1.01523 0.998473 1.00563 0.923408 0.872756 0.742482 0.756034 0.735233 0.75966 0.836967 0.815492 0.812874 0.754938 0.852103 0.702055 0.673838 0.793515 0.854661 0.737789 0.737792 0.866971 0.843727 0.806475 0.814012 0.912462 0.986588 0.933639 0.842604 0.806676 0.906998 0.818063 0.810856 0.806619 0.807267 0.821778 0.808329 0.92636 0.802552 0.993137 0.941021 0.974055 0.962338 0.954652 1.00745 0.948156 0.962996 0.986338 0.989046 0.913817 0.742287 0.702189 1.0418 1.05922 1.04894 1.03698 1.05666 1.04384 1.05495 1.04559 1.05867 1.02754 1.06833 1.06666 1.05782 1.06909 1.04479 1.05209 1.05516 1.03594 1.03002 1.21315 1.14188 1.11124 1.09115 1.079 1.06722 1.05645 1.05109 1.05573 1.16559 1.11607 1.08031 1.08787 1.11072 1.10098 1.08201 1.06657 1.02089 1.04156 1.09273 1.00712 1.14937 1.09567 1.05312 1.08564 1.08984 1.03175 1.1057 0.878998 0.943241 1.07706 1.026 0.992856 0.979475 1.01817 0.931501 1.00855 0.966198 0.979824 0.952158 0.901565 0.957059 0.855947 0.912794 1.00802 0.969245 0.941559 0.748742 0.771838 0.874381 0.853992 0.882249 0.808445 0.799401 0.804972 0.804526 0.848656 0.827069 0.794534 0.722993 0.87897 0.82731 0.826691 0.839714 0.944626 0.970453 1.03152 0.994049 0.89278 0.856138 0.849144 0.92069 0.918597 0.839263 0.815712 0.81196 0.802795 0.779946 0.861205 1.12366 0.930742 0.965421 0.953527 0.91185 0.938831 0.953008 1.03052 0.979265 0.981875 1.01719 0.994269 0.87551 0.83908 1.41592 1.04841 1.04708 1.04228 1.05941 1.0492 1.04719 1.06994 1.11576 1.08258 1.05376 1.03675 1.03819 1.06506 1.0703 1.10183 1.04131 1.21654 1.16043 1.10887 1.07696 1.10074 1.0911 1.09105 1.09271 1.09306 1.06998 1.12508 1.12524 1.10709 1.11668 1.08519 1.07743 1.09531 1.04612 1.0797 1.17191 1.09015 1.04481 1.09179 1.07025 1.02083 1.05761 1.15367 0.97074 1.09249 1.02837 1.03546 0.998973 0.914995 1.02534 0.938771 0.95849 0.972895 1.01584 1.00433 0.9628 0.983977 0.957359 0.917468 0.965063 0.89483 1.00928 0.960421 1.0398 0.987596 0.881725 0.952129 0.842103 0.789726 0.838937 0.86911 0.912873 0.893378 0.919189 0.835891 0.940578 0.853029 0.880593 0.848527 0.873338 0.796725 0.699626 0.682011 0.845105 0.848282 0.865561 0.961396 0.952773 0.994192 0.908614 0.9536 0.875805 0.827268 0.827706 0.8311 0.842585 0.822183 1.04633 1.16405 1.04536 0.94287 0.928707 0.947346 0.956677 1.07476 0.987132 1.00116 0.998805 1.04054 1.00353 0.941944 0.812043 0.982027 1.1338 1.08844 1.05613 1.03828 1.06186 1.05115 1.04986 1.12553 1.08546 1.1504 1.18762 1.09375 1.06025 1.04316 1.10033 1.04911 1.12061 1.05866 1.04788 1.11672 1.1994 1.18763 1.16218 1.11008 1.07499 1.11058 1.08663 1.09268 1.09565 1.12898 1.03177 1.12544 1.06605 1.11771 1.13899 1.10293 1.08423 1.08338 1.09447 1.12069 1.10072 1.09826 1.1202 1.08701 1.08979 1.0929 1.08212 1.0738 1.01235 1.05165 1.11092 1.17327 1.00509 1.07761 1.03921 1.05384 1.05455 1.02825 0.926488 1.01832 0.961266 1.01521 1.00228 0.933823 0.960682 0.968632 0.951965 0.996078 0.965015 0.983483 0.959972 0.969689 0.837964 0.840367 0.902631 0.885117 0.88329 0.891998 0.994194 0.963671 0.921387 0.890406 0.876516 0.835262 0.777848 0.806184 0.848347 0.868874 0.878146 0.880441 0.982294 0.954558 0.89587 0.938007 0.981721 0.973789 0.872708 0.85818 0.892614 1.14241 0.964151 1.08944 0.953954 0.92999 0.963521 1.03253 0.974765 1.00758 0.978637 1.04574 1.02046 0.933888 0.82904 0.975042 1.06667 1.06329 1.05157 1.07352 1.05777 1.07241 1.11437 1.12944 1.07904 1.08199 1.07446 1.12333 1.09091 1.11572 1.1572 1.18307 1.19177 1.13049 1.15234 1.09338 1.10204 1.12457 1.08612 1.09785 1.10131 1.13481 1.07869 1.16054 1.17021 1.17854 1.1285 1.13816 1.10675 1.08515 1.13741 1.12163 1.10616 1.1847 1.11873 1.11134 1.08226 1.08114 1.17588 1.05744 1.10126 1.1717 1.06465 1.05375 1.04724 1.03905 1.04172 1.03711 1.03355 1.03035 1.00584 0.965118 0.981083 0.988342 1.01766 1.03828 0.955248 0.982987 0.913027 0.894952 0.947254 0.907607 0.902183 0.917049 0.928849 1.00826 0.992154 0.95054 0.926431 0.826457 0.978362 0.835805 0.835008 0.861513 0.857063 0.878743 0.938714 0.941854 0.957791 0.977285 1.01906 0.907858 0.974643 0.874547 0.72453 1.07115 0.997866 1.09945 1.0028 0.96692 0.979149 0.972295 0.976434 1.02887 1.02148 0.976581 1.04289 1.03787 0.970017 1.00424 0.964132 0.874491 0.972009 1.02849 1.06174 1.07505 1.1114 1.10271 1.0607 1.03456 1.07438 1.13184 1.11636 1.13054 1.08487 1.09277 1.12773 1.13961 1.09974 1.14296 1.14058 1.19919 1.14008 1.14516 1.10503 1.10933 1.15808 1.10013 1.16027 1.16308 1.11275 1.1596 1.1847 1.18954 1.13257 1.13528 1.13762 1.12576 1.11238 1.07143 1.05741 1.03437 1.1444 1.13036 1.1131 1.17088 1.15743 1.13039 1.10868 1.12147 1.17837 1.14687 1.07445 1.07763 1.09324 1.17951 1.04075 1.06269 1.05856 1.04237 1.05492 1.05269 1.03566 1.03757 1.03273 1.03556 0.99485 0.977359 0.979112 0.982731 1.03339 1.01104 0.95701 1.00472 0.89788 0.922651 0.943218 0.973678 0.997665 0.9881 0.99848 0.928225 0.943836 1.02193 1.00638 0.843573 0.846591 0.886582 0.872957 0.99841 0.948466 0.991507 0.936036 0.96575 0.979758 0.99839 0.979487 0.911219 1.06121 1.04812 0.929407 1.08668 1.05272 0.957962 1.0209 0.985111 0.935835 1.01173 1.01622 0.998417 1.04194 1.07997 1.05499 1.03559 0.997721 1.02097 1.05637 1.12833 1.01303 1.04847 1.10838 1.10773 1.0568 1.04174 1.12474 1.12819 1.1188 1.11126 1.14455 1.15223 1.10887 1.1306 1.14291 1.11082 1.15845 1.15355 1.12897 1.17307 1.13352 1.14455 1.09885 1.14932 1.19998 1.14612 1.17227 1.18705 1.19134 1.14065 1.11472 1.14372 1.11361 1.08361 1.15946 1.16025 1.13334 1.15415 1.14214 1.09541 1.1537 1.11065 1.19552 1.06211 1.08455 1.06397 1.04611 1.07076 1.06772 1.0613 1.06077 1.05655 1.19449 1.04874 1.05519 1.04944 0.999748 0.983582 1.0081 1.00064 1.02861 0.952145 1.01187 0.959533 0.918003 0.838026 0.903677 0.993097 0.954665 1.00099 1.0793 0.930625 0.952326 0.919857 1.03056 1.05658 1.06492 0.875821 0.879122 1.01409 1.01693 0.990538 0.933424 0.997369 0.975267 1.00516 0.932495 0.931542 1.00853 1.06096 1.00719 1.13453 1.08453 1.04458 1.01357 0.989186 0.930947 1.03113 1.03455 1.00434 1.07362 1.08217 1.04715 1.02129 1.02443 1.04057 1.11711 1.14203 1.08815 1.12887 1.13013 1.16646 1.05721 1.04408 1.12795 1.12623 1.13853 1.1278 1.13313 1.13322 1.15021 1.12394 1.13939 1.14036 1.13507 1.1171 1.15879 1.16912 1.16774 1.20642 1.13993 1.15878 1.14989 1.16233 1.12645 1.14133 1.17897 1.161 1.18446 1.14173 1.15104 1.14775 1.1588 1.17317 1.15909 1.13041 1.15477 1.15124 1.14702 1.10911 1.119 1.1167 1.10482 1.1691 1.15568 1.16734 1.14127 1.06576 1.06872 1.08651 1.08869 1.0793 1.06087 1.02611 1.08811 1.06268 1.0731 1.13586 1.07473 1.0167 0.978992 0.974148 1.01267 1.02233 1.00375 1.02503 0.978907 0.930823 1.00684 0.969828 1.02088 1.09638 1.09526 0.955615 0.934079 0.930146 1.05644 1.18516 1.10963 0.869607 0.89122 0.887216 0.895225 1.02354 0.999297 0.974249 1.04884 0.924944 0.964842 1.03219 1.0356 1.1239 1.13728 1.07079 1.0436 1.0338 1.0327 1.04364 1.0189 0.968861 1.06249 1.0526 1.02915 1.02485 1.08466 1.07734 1.04431 1.01794 1.14394 1.03476 1.12805 1.08758 1.14426 1.1034 1.13258 1.11518 1.12515 1.14115 1.14929 1.13308 1.14041 1.12503 1.16606 1.13391 1.18758 1.16515 1.26896 1.16523 1.15297 1.18744 1.14338 1.14489 1.19178 1.16829 1.18982 1.14775 1.15372 1.15499 1.17007 1.17786 1.16405 1.15206 1.1577 1.12446 1.11405 1.12164 1.15138 1.16432 1.16339 1.11563 1.05976 1.13736 1.08943 1.07071 1.07907 1.08376 1.02199 1.06392 1.12541 1.10172 1.06631 1.01081 1.00461 1.02822 1.03492 0.992022 0.968534 0.983143 1.00762 0.960791 1.00452 0.995197 1.02471 1.11714 1.04524 0.942661 0.931538 1.02349 0.982668 1.10069 1.00303 0.972914 1.02906 1.00061 1.0569 1.02603 0.916241 1.00514 0.951485 1.0506 1.04971 1.13417 1.06176 1.03466 1.0629 1.02135 0.98912 1.08772 1.05339 1.05889 1.03727 1.08803 1.08205 1.06978 1.10771 1.02582 1.0333 1.13954 1.03761 1.14647 1.08918 1.1212 1.15904 0.973524 1.06002 1.14744 1.12358 1.15435 1.15803 1.1535 1.15689 1.16666 1.13406 1.14378 1.13031 1.1887 1.1494 1.19641 1.19149 1.19178 1.17499 1.1626 1.20283 1.15364 1.17229 1.20522 1.16907 1.189 1.14812 1.14996 1.15751 1.16881 1.16868 1.16923 1.16205 1.17195 1.16313 1.15846 1.12076 1.12565 1.14127 1.15671 1.16618 1.14052 1.04988 1.13769 1.09075 1.08723 1.12056 1.10444 1.08298 1.04107 1.06375 1.09459 1.02959 1.11344 1.02749 1.00804 0.981716 1.00057 1.07424 1.10162 1.01019 0.979506 1.02214 1.01676 1.13365 1.08121 1.05937 1.02777 1.0252 1.07721 1.02756 1.10218 0.958712 1.08589 0.983723 1.01004 1.02523 1.03387 1.02851 1.06227 1.05301 1.044 1.09039 1.01762 1.05643 1.04239 1.0555 1.1311 1.08126 1.03971 1.06717 1.02001 1.03113 1.10931 1.07169 1.04309 1.05752 1.10102 1.07508 1.10782 1.12997 1.17574 1.06646 1.06426 1.13449 1.16354 1.12954 1.15089 1.16153 1.1877 1.15311 1.19178 1.15346 1.15793 1.18625 1.18017 1.14624 1.14396 1.13187 1.19286 1.16786 1.17406 1.19214 1.19178 1.1929 1.18598 1.17097 1.19041 1.17965 1.17839 1.17653 1.18917 1.18581 1.1647 1.17091 1.16578 1.16934 1.16991 1.16655 1.1662 1.16499 1.17259 1.12506 1.13068 1.12947 1.16476 1.17359 1.11342 1.11297 1.15888 1.09162 1.08654 1.13879 1.15313 1.09928 1.05848 1.10898 1.04199 1.08543 1.03332 1.1402 1.01589 0.983625 1.09024 1.02077 1.0512 1.03001 1.00209 1.04207 1.01292 1.1057 1.04102 1.03344 1.09992 0.976059 1.07748 1.02259 1.04 1.04461 1.03426 1.03405 1.10179 1.02568 1.0693 1.05385 1.08073 1.08488 1.08858 1.03814 1.06778 1.0628 1.07612 1.13769 1.05972 1.09204 1.05497 1.05905 1.05511 1.07138 1.10016 1.16556 1.13149 1.18661 1.12701 1.13545 1.13863 1.14086 1.16228 1.06115 1.07962 1.20485 1.15288 1.15675 1.18602 1.18061 1.19587 1.15252 1.16314 1.18569 1.1714 1.19142 1.1938 1.19617 1.18835 1.17148 1.19075 1.17555 1.17961 1.19 1.18452 1.1854 1.16494 1.17822 1.16688 1.16203 1.16713 1.17385 1.17043 1.17203 1.16604 1.13203 1.12951 1.16778 1.17368 1.14135 1.15031 1.12368 1.13942 1.09177 1.09294 1.13908 1.09627 1.12136 1.09632 1.08059 1.10452 1.0821 1.13232 1.05691 1.04291 1.03527 1.03108 1.0218 1.10762 1.09086 1.01357 1.00969 1.04381 1.0134 1.10313 1.11125 1.07628 1.0664 1.01663 1.01696 1.02058 1.11023 1.05763 1.03 1.1146 1.0694 1.04415 1.09271 1.08485 1.03622 1.09474 1.12545 1.05713 1.10563 1.08536 1.13183 1.13146 1.07342 1.16293 1.17747 1.13003 1.16224 1.141 1.12412 1.13975 1.093 1.09759 1.09577 1.11353 1.06601 1.04408 1.02692 1.09263 1.04729 1.00197 1.05738 1.02663 1.10312 1.10763 1.0773 1.03025 1.03938 1.01186 1.02287 1.03531 
SCALARS Stress float 1
LOOKUP_TABLE default
-231697000000.0 -111794000000.0 -168934000000.0 -296613000000.0 -154384000000.0 -154444000000.0 -298680000000.0 -159762000000.0 -269864000000.0 -393702000000.0 -477275000000.0 -262715000000.0 -329822000000.0 -83464400000.0 -419483000000.0 -218181000000.0 -219798000000.0 -298190000000.0 -215282000000.0 -478450000000.0 -656269000000.0 -671332000000.0 -935493000000.0 -692686000000.0 -944408000000.0 -685722000000.0 -680846000000.0 -1.06813e+12 -700232000000.0 -711534000000.0 -971227000000.0 -498024000000.0 -393951000000.0 -184402000000.0 -146087000000.0 -1.17444e+12 -957917000000.0 -655264000000.0 -605254000000.0 -562671000000.0 -797952000000.0 -1.32637e+12 -705165000000.0 -520505000000.0 -813551000000.0 -914463000000.0 -929815000000.0 -866252000000.0 -1.53494e+12 -1.23008e+12 -1.82742e+12 -1.32205e+12 -1.45019e+12 -1.05207e+12 -1.00088e+12 -804567000000.0 -1.50354e+12 -1.88022e+12 -388431000000.0 -811188000000.0 -933701000000.0 -1.46154e+12 -1.29186e+12 -1.54565e+12 -568197000000.0 -1.85998e+12 -737584000000.0 -1.74768e+12 -1.2702e+12 -1.20529e+12 -1.01031e+12 -1.42466e+12 -1.96093e+12 -1.45179e+12 -3.33018e+12 -2.56421e+12 -1.81427e+12 -878454000000.0 -1.5418e+12 -923787000000.0 -1.14622e+12 -2.35766e+12 -1.829e+12 -2.07585e+12 -1.5921e+12 -2.8791e+12 -1.03968e+12 -1.6576e+12 -582433000000.0 -2.38847e+12 -2.40428e+12 -1.97999e+12 -1.33769e+12 -993896000000.0 -2.47099e+12 -1.91614e+12 -4.12219e+12 -2.23636e+12 -3.37149e+12 -2.59577e+12 -4.13911e+12 -1.71551e+12 -2.9237e+12 -1.68439e+12 -1.33728e+12 -2.03607e+12 -1.13432e+12 -2.2999e+12 -3.12417e+12 -3.36054e+12 -5.89806e+12 -2.41569e+12 -3.47946e+12 -1.35005e+12 -1.84616e+12 -1.7806e+12 -1.90037e+12 -1.02468e+12 -804476000000.0 -2.12485e+12 -1.00555e+12 -1.91728e+12 -4.6207e+12 -3.60061e+12 -4.15275e+12 -2.1393e+12 -2.21811e+12 -1.40345e+12 -3.76006e+12 -1.63427e+12 -1.39622e+12 -4.54957e+12 -2.13827e+12 -1.75101e+12 -2.9473e+12 -2.67274e+12 -1.95295e+12 -3.46859e+12 -1.25983e+12 -2.48148e+12 -3.02459e+12 -1.39091e+12 -1.42409e+12 -1.27794e+12 -3.06102e+12 -2.43995e+12 -2.86907e+12 -1.74225e+12 -3.99308e+12 -1.8587e+12 -1.37604e+12 -4.35313e+12 -3.07474e+12 -5.91337e+12 -1.79952e+12 -1.96272e+12 -5.32933e+12 -1.88424e+12 -3.39824e+12 -2.62922e+12 -3.55012e+12 -4.19947e+12 -3.71098e+12 -2.45718e+12 -3.19518e+12 -3.89798e+12 -3.03062e+12 -4.50494e+12 -4.01349e+12 -1.03264e+12 -4.34254e+12 -3.49604e+12 -2.0596e+12 -3.61992e+12 -1.8141e+12 -3.62608e+12 -2.67824e+12 -1.05018e+12 -1.131e+12 -2.9805e+12 -1.13644e+12 -3.17985e+12 -5.22984e+12 -4.12348e+12 -3.05573e+12 -4.50651e+12 -4.73738e+12 -4.36696e+12 -6.52045e+12 -2.79289e+12 -4.54764e+12 -3.28092e+12 -2.08143e+12 -4.76335e+12 -4.53211e+12 -2.39732e+12 -1.29452e+12 -4.18137e+12 -4.12407e+12 -2.61338e+12 -2.7456e+12 -3.65422e+12 -3.71625e+12 -4.24486e+12 -6.54143e+12 -3.60798e+12 -2.38986e+12 -2.81814e+12 -5.14476e+12 -4.97105e+12 -4.04857e+12 -4.15929e+12 -5.58901e+12 -6.12126e+12 -2.1968e+12 -6.30079e+12 -4.05558e+12 -3.36892e+12 -2.76573e+12 -3.62695e+12 -5.1386e+12 -4.7646e+12 -3.1146e+12 -2.6853e+12 -4.02214e+12 -6.32034e+12 -5.33734e+12 -6.34092e+12 -3.9069e+12 -3.51367e+12 -5.25731e+12 -2.52331e+12 -3.73365e+12 -6.1795e+12 -5.25055e+12 -4.04914e+12 -4.20653e+12 -8.79018e+12 -5.63444e+12 -4.50999e+12 -7.00635e+12 -4.02274e+12 -7.81899e+12 -5.94774e+12 -3.93671e+12 -4.58071e+12 -3.91707e+12 -4.00717e+12 -6.08548e+12 -4.52607e+12 -6.35465e+12 -2.17499e+12 -6.03782e+12 -6.87944e+12 -3.60734e+12 -4.40751e+12 -3.29706e+12 -3.51041e+12 -3.85509e+12 -6.50859e+12 -6.14604e+12 -3.0124e+12 -4.02675e+12 -4.22281e+12 -2.87357e+12 -4.14057e+12 -3.89753e+12 -3.71365e+12 -4.44587e+12 -4.90475e+12 -5.84787e+12 -5.31654e+12 -5.34858e+12 -6.05475e+12 -6.98388e+12 -3.39358e+12 -8.99124e+12 -4.99074e+12 -7.897e+12 -6.66249e+12 -5.78936e+12 -7.05853e+12 -4.14014e+12 -3.36469e+12 -5.47974e+12 -4.02913e+12 -2.95877e+12 -7.93934e+12 -7.59569e+12 -3.72322e+12 -7.75786e+12 -6.41188e+12 -8.51712e+12 -5.36275e+12 -9.91918e+12 -3.07342e+12 -4.68168e+12 -5.25944e+12 -5.3194e+12 -5.70398e+12 -5.85404e+12 -5.34773e+12 -4.74201e+12 -4.37659e+12 -2.21477e+12 -3.00044e+12 -3.04807e+12 -2.99162e+12 -4.58285e+12 -4.82268e+12 -5.92708e+12 -4.50629e+12 -3.85411e+12 -2.47851e+12 -5.08565e+12 -5.83112e+12 -5.58573e+12 -4.37315e+12 -7.2303e+12 -3.57801e+12 -6.5595e+12 -9.69766e+12 -1.02512e+13 -1.33124e+13 -8.22908e+12 -8.30648e+12 -7.33544e+12 -2.43846e+12 -7.4859e+12 -4.44099e+12 -4.76869e+12 -3.82155e+12 -4.16665e+12 -5.61286e+12 -1.04374e+13 -5.28198e+12 -5.05226e+12 -6.20898e+12 -3.30215e+12 -4.62465e+12 -6.3286e+12 -8.92454e+12 -8.41238e+12 -7.34754e+12 -7.52182e+12 -5.89955e+12 -7.84748e+12 -5.14019e+12 -5.00802e+12 -3.67341e+12 -4.59673e+12 -6.31206e+12 -2.78046e+12 -3.16349e+12 -3.80163e+12 -4.5169e+12 -3.54737e+12 -6.11025e+12 -6.60038e+12 -6.49428e+12 -3.53345e+12 -5.97586e+12 -4.57227e+12 -3.91007e+12 -2.62672e+12 -5.23912e+12 -4.91892e+12 -4.80609e+12 -2.1856e+12 -4.23826e+12 -4.58933e+12 -3.04679e+12 -4.09543e+12 -5.1085e+12 -2.60533e+12 -6.69865e+12 -1.05891e+13 -4.02769e+12 -6.673e+12 -5.91377e+12 -7.66199e+12 -6.92364e+12 -6.25014e+12 -8.40499e+12 -6.91005e+12 -6.21653e+12 -7.25294e+12 -2.32157e+12 -5.3701e+12 -6.89241e+12 -3.85806e+12 -4.77376e+12 -4.63967e+12 -4.00526e+12 -9.95564e+12 -9.90352e+12 -8.62803e+12 -8.81069e+12 -4.392e+12 -8.31164e+12 -4.58691e+12 -6.69573e+12 -5.0124e+12 -6.49987e+12 -4.09577e+12 -5.44049e+12 -5.29928e+12 -5.53324e+12 -6.31478e+12 -4.75725e+12 -4.64012e+12 -4.75408e+12 -6.30825e+12 -4.998e+12 -7.0683e+12 -6.32649e+12 -5.00925e+12 -2.58473e+12 -4.38879e+12 -2.58945e+12 -4.09745e+12 -3.83542e+12 -3.86054e+12 -3.74385e+12 -4.99174e+12 -3.62637e+12 -3.19064e+12 -3.43164e+12 -3.03817e+12 -4.4715e+12 -4.68406e+12 -6.34233e+12 -4.86107e+12 -2.74266e+12 -4.26132e+12 -4.99449e+12 -5.07726e+12 -6.12167e+12 -5.0291e+12 -7.56946e+12 -3.68115e+12 -5.7573e+12 -4.53873e+12 -5.63212e+12 -6.62732e+12 -8.02614e+12 -5.94091e+12 -7.78266e+12 -1.0354e+13 -6.5341e+12 -5.05653e+12 -5.05827e+12 -5.23006e+12 -1.08821e+13 -5.74259e+12 -8.65363e+12 -4.69202e+12 -3.43731e+12 -3.86331e+12 -4.39195e+12 -5.62693e+12 -3.98965e+12 -6.24353e+12 -3.67168e+12 -7.11566e+12 -4.26698e+12 -8.05731e+12 -1.02779e+13 -5.11142e+12 -5.98044e+12 -7.6152e+12 -5.57725e+12 -1.04094e+13 -7.90372e+12 -7.5252e+12 -8.74354e+12 -8.35999e+12 -7.8963e+12 -5.53108e+12 -4.49244e+12 -2.98743e+12 -3.99102e+12 -6.24915e+12 -6.61496e+12 -3.37262e+12 -4.96418e+12 -3.61329e+12 -3.97667e+12 -3.74312e+12 -3.55127e+12 -4.42021e+12 -4.57531e+12 -4.62446e+12 -4.15242e+12 -3.4419e+12 -4.09292e+12 -4.93603e+12 -3.25795e+12 -2.97541e+12 -2.73497e+12 -2.99375e+12 -5.42961e+12 -3.93971e+12 -7.13856e+12 -4.76046e+12 -4.16634e+12 -6.72022e+12 -5.41624e+12 -5.6717e+12 -5.32835e+12 -4.69059e+12 -8.02162e+12 -2.82444e+12 -4.25841e+12 -6.79983e+12 -7.27578e+12 -8.73604e+12 -8.99242e+12 -8.23734e+12 -7.80682e+12 -5.56336e+12 -7.64231e+12 -1.29596e+13 -5.32021e+12 -6.36877e+12 -7.17208e+12 -4.88296e+12 -5.7053e+12 -5.92851e+12 -3.75306e+12 -7.11988e+12 -5.68791e+12 -5.04381e+12 -1.01308e+13 -6.58673e+12 -6.91684e+12 -7.26241e+12 -5.46867e+12 -3.90006e+12 -4.09327e+12 -7.33367e+12 -5.44958e+12 -7.01646e+12 -1.00954e+13 -5.45022e+12 -5.89405e+12 -3.56492e+12 -3.61315e+12 -6.85244e+12 -8.78465e+12 -6.64866e+12 -5.54456e+12 -4.37361e+12 -7.21219e+12 -6.26613e+12 -5.55534e+12 -4.43434e+12 -5.93881e+12 -2.5884e+12 -3.16389e+12 -5.76025e+12 -3.34578e+12 -4.51022e+12 -3.53724e+12 -2.45647e+12 -4.15564e+12 -4.20975e+12 -3.37898e+12 -2.39676e+12 -3.99834e+12 -4.09716e+12 -6.22645e+12 -6.68193e+12 -2.71339e+12 -5.1843e+12 -5.4645e+12 -4.09889e+12 -5.458e+12 -3.41838e+12 -3.68318e+12 -3.43646e+12 -4.29693e+12 -5.46678e+12 -4.32499e+12 -5.24521e+12 -5.0207e+12 -5.84995e+12 -2.70261e+12 -5.86533e+12 -3.9116e+12 -4.24125e+12 -5.78177e+12 -4.32794e+12 -6.30049e+12 -8.1133e+12 -9.97133e+12 -4.93833e+12 -4.74741e+12 -1.04162e+13 -9.95657e+12 -8.12317e+12 -9.27202e+12 -3.72449e+12 -5.24392e+12 -5.00991e+12 -6.76818e+12 -6.79643e+12 -7.63689e+12 -4.97581e+12 -4.24542e+12 -1.01284e+13 -4.6198e+12 -3.56455e+12 -3.13037e+12 -4.1063e+12 -6.27481e+12 -5.54275e+12 -9.66226e+12 -4.70659e+12 -3.07443e+12 -5.70115e+12 -5.87197e+12 -5.72543e+12 -4.95503e+12 -4.26411e+12 -5.89516e+12 -9.81738e+12 -7.14717e+12 -6.2666e+12 -7.88558e+12 -3.56624e+12 -6.28851e+12 -7.23971e+12 -9.87383e+12 -4.42233e+12 -4.11651e+12 -6.37644e+12 -4.37798e+12 -3.23539e+12 -1.03667e+13 -5.17987e+12 -5.45703e+12 -5.63865e+12 -4.39946e+12 -3.75406e+12 -3.1179e+12 -5.83957e+12 -4.70583e+12 -3.85096e+12 -4.65501e+12 -4.63031e+12 -3.34695e+12 -2.20398e+12 -2.65532e+12 -3.57272e+12 -7.85854e+12 -4.76737e+12 -3.92969e+12 -6.11809e+12 -5.14217e+12 -4.95836e+12 -5.17962e+12 -4.28651e+12 -9.93514e+12 -7.7878e+12 -4.53828e+12 -4.94285e+12 -5.98522e+12 -1.22625e+13 -4.83132e+12 -6.82627e+12 -6.83145e+12 -8.69455e+12 -1.55372e+13 -9.97456e+12 -5.48333e+12 -9.67836e+12 -5.1551e+12 -6.27292e+12 -8.84786e+12 -8.12814e+12 -4.55388e+12 -5.64731e+12 -1.0815e+13 -4.79538e+12 -4.89681e+12 -7.98124e+12 -3.71459e+12 -6.22672e+12 -3.07539e+12 -3.27826e+12 -6.96132e+12 -3.8014e+12 -4.66702e+12 -3.43537e+12 -8.07703e+12 -4.45493e+12 -7.51898e+12 -8.50295e+12 -5.78523e+12 -6.55127e+12 -8.09792e+12 -7.10651e+12 -5.40217e+12 -5.08392e+12 -7.77492e+12 -4.72148e+12 -5.79979e+12 -7.61973e+12 -7.83829e+12 -9.76339e+12 -1.01493e+13 -1.11671e+13 -4.18158e+12 -5.20722e+12 -5.98652e+12 -3.47319e+12 -4.57198e+12 -3.39671e+12 -5.82176e+12 -3.87525e+12 -4.05245e+12 -7.35323e+12 -7.57343e+12 -6.73982e+12 -4.97643e+12 -5.27077e+12 -5.60766e+12 -4.04621e+12 -5.34693e+12 -6.2338e+12 -4.73205e+12 -3.54861e+12 -3.7875e+12 -2.91319e+12 -4.23427e+12 -6.20787e+12 -8.04709e+12 -3.06706e+12 -4.07287e+12 -6.42088e+12 -6.91904e+12 -7.44279e+12 -4.86761e+12 -5.52552e+12 -4.25695e+12 -3.15126e+12 -6.26843e+12 -5.78948e+12 -5.16906e+12 -5.45862e+12 -8.68378e+12 -5.41565e+12 -2.64601e+12 -6.72715e+12 -2.50011e+12 -5.54395e+12 -1.10843e+13 -9.06329e+12 -1.00481e+13 -6.73855e+12 -8.2986e+12 -6.09862e+12 -5.1791e+12 -7.08865e+12 -4.68344e+12 -4.22091e+12 -1.1487e+13 -9.18505e+12 -6.67006e+12 -5.03071e+12 -5.83638e+12 -1.03908e+13 -6.80784e+12 -9.24767e+12 -1.05077e+13 -4.72644e+12 -5.8102e+12 -9.85503e+12 -5.96611e+12 -6.41272e+12 -5.27242e+12 -5.19311e+12 -4.22819e+12 -8.74686e+12 -2.72064e+12 -7.64753e+12 -6.33178e+12 -6.41302e+12 -4.68395e+12 -5.0455e+12 -7.36595e+12 -7.3016e+12 -1.01442e+13 -7.02202e+12 -7.46503e+12 -7.3854e+12 -6.1892e+12 -4.19907e+12 -3.90548e+12 -4.17421e+12 -1.01878e+13 -7.83959e+12 -7.30824e+12 -4.58033e+12 -9.52213e+12 -8.18979e+12 -4.80673e+12 -3.7771e+12 -5.38896e+12 -5.91871e+12 -8.29538e+12 -6.14058e+12 -5.76051e+12 -4.10075e+12 -4.50106e+12 -2.04539e+12 -5.43236e+12 -4.78942e+12 -4.14513e+12 -4.2294e+12 -3.28159e+12 -4.70346e+12 -3.61836e+12 -3.73413e+12 -5.43247e+12 -4.01289e+12 -4.35843e+12 -4.48612e+12 -4.91842e+12 -3.19352e+12 -4.28399e+12 -4.46748e+12 -4.73442e+12 -2.76064e+12 -6.05512e+12 -5.38638e+12 -3.84965e+12 -5.83041e+12 -2.87622e+12 -4.19348e+12 -1.67313e+12 -3.69549e+12 -7.63729e+12 -5.74847e+12 -5.16372e+12 -5.1002e+12 -5.12795e+12 -5.67139e+12 -6.18854e+12 -4.85336e+12 -6.11264e+12 -6.14255e+12 -6.30598e+12 -4.38827e+12 -6.28379e+12 -7.49428e+12 -4.65703e+12 -4.58491e+12 -8.73972e+12 -4.78632e+12 -8.66241e+12 -6.56969e+12 -9.01738e+12 -8.3399e+12 -6.3183e+12 -4.56427e+12 -3.38787e+12 -4.63965e+12 -5.48442e+12 -9.31659e+12 -9.35819e+12 -5.75911e+12 -8.02422e+12 -7.93843e+12 -7.74508e+12 -3.36452e+12 -3.25327e+12 -6.46057e+12 -9.24201e+12 -5.80606e+12 -1.02733e+13 -5.56864e+12 -9.60164e+12 -6.13695e+12 -1.09912e+13 -1.17845e+13 -8.24433e+12 -9.12603e+12 -7.3483e+12 -4.83865e+12 -7.38454e+12 -6.27142e+12 -6.40744e+12 -5.2182e+12 -7.13985e+12 -6.63381e+12 -6.86634e+12 -5.88514e+12 -4.58966e+12 -5.17483e+12 -4.51043e+12 -5.46837e+12 -4.0733e+12 -6.75716e+12 -8.31628e+12 -6.01544e+12 -5.79541e+12 -7.34449e+12 -4.48464e+12 -5.56025e+12 -3.82565e+12 -4.30628e+12 -4.39568e+12 -1.96362e+12 -5.18167e+12 -4.42094e+12 -4.40145e+12 -2.59405e+12 -3.25055e+12 -1.99508e+12 -4.58722e+12 -2.22689e+12 -3.27641e+12 -4.15976e+12 -3.90577e+12 -3.39878e+12 -5.21301e+12 -4.15258e+12 -1.57879e+12 -2.11018e+12 -5.98372e+12 -3.35251e+12 -3.89919e+12 -4.79156e+12 -2.51217e+12 -3.40663e+12 -3.09563e+12 -2.53479e+12 -4.03273e+12 -3.05632e+12 -7.36265e+12 -7.39637e+12 -5.62179e+12 -4.51496e+12 -3.65009e+12 -4.64995e+12 -6.95072e+12 -6.84352e+12 -6.90451e+12 -9.01159e+12 -4.67385e+12 -4.94338e+12 -5.00058e+12 -7.82855e+12 -3.34534e+12 -6.08627e+12 -4.61282e+12 -6.43564e+12 -4.98778e+12 -5.41536e+12 -6.67553e+12 -2.51715e+12 -5.54957e+12 -8.44712e+12 -6.96442e+12 -6.59017e+12 -7.77993e+12 -7.74363e+12 -7.11431e+12 -1.02815e+13 -1.3045e+13 -4.90749e+12 -7.22394e+12 -9.11467e+12 -6.28694e+12 -7.77813e+12 -3.37746e+12 -4.34865e+12 -5.58306e+12 -7.48361e+12 -3.70187e+12 -1.20097e+13 -8.9429e+12 -8.30447e+12 -7.94661e+12 -9.5216e+12 -3.56349e+12 -1.21966e+13 -7.66791e+12 -9.90515e+12 -4.77045e+12 -6.97619e+12 -4.21019e+12 -8.32673e+12 -4.83509e+12 -8.38532e+12 -7.0228e+12 -6.94935e+12 -6.16428e+12 -6.06531e+12 -6.2223e+12 -6.32628e+12 -5.08634e+12 -4.36235e+12 -7.97821e+12 -4.4092e+12 -5.2293e+12 -5.32306e+12 -7.0096e+12 -5.6268e+12 -5.42415e+12 -3.72517e+12 -3.90042e+12 -3.18998e+12 -3.40108e+12 -5.39872e+12 -3.2132e+12 -2.398e+12 -6.16688e+12 -3.13268e+12 -3.53821e+12 -2.96241e+12 -5.2744e+12 -5.64806e+12 -6.52565e+12 -2.48031e+12 -3.3494e+12 -4.28096e+12 -4.92221e+12 -6.69865e+12 -6.34e+12 -3.1975e+12 -5.70346e+12 -6.06826e+12 -2.78295e+12 -2.65695e+12 -3.99446e+12 -3.80611e+12 -5.55561e+12 -4.18974e+12 -5.33391e+12 -4.00327e+12 -8.77898e+12 -5.23735e+12 -6.84454e+12 -5.08572e+12 -6.57672e+12 -4.42428e+12 -6.27747e+12 -5.02928e+12 -6.7232e+12 -6.06906e+12 -5.68651e+12 -6.79432e+12 -4.59594e+12 -5.70522e+12 -5.3339e+12 -6.35573e+12 -8.30007e+12 -4.98233e+12 -7.5887e+12 -5.47744e+12 -1.34359e+13 -8.24497e+12 -7.88886e+12 -7.53107e+12 -7.37732e+12 -1.15349e+13 -6.36091e+12 -1.00501e+13 -2.22398e+12 -4.71193e+12 -3.52854e+12 -2.726e+12 -8.17599e+12 -7.0631e+12 -4.76583e+12 -8.567e+12 -7.89491e+12 -1.06358e+13 -8.78212e+12 -7.25938e+12 -5.1754e+12 -6.0956e+12 -5.70809e+12 -8.43248e+12 -5.97116e+12 -5.29056e+12 -5.66822e+12 -9.88382e+12 -8.61557e+12 -4.67057e+12 -5.75508e+12 -7.64695e+12 -5.17817e+12 -7.38543e+12 -8.60921e+12 -5.07407e+12 -9.95854e+12 -6.09889e+12 -6.27084e+12 -6.44146e+12 -7.93019e+12 -6.63258e+12 -5.2807e+12 -4.07797e+12 -7.40081e+12 -4.71232e+12 -6.26318e+12 -6.22121e+12 -1.01449e+13 -4.30649e+12 -3.66255e+12 -6.35256e+12 -4.97077e+12 -3.22653e+12 -1.77265e+12 -6.2972e+12 -2.65689e+12 -4.64648e+12 -5.36257e+12 -5.34175e+12 -3.46867e+12 -3.2705e+12 -5.75827e+12 -3.51025e+12 -4.42192e+12 -3.36903e+12 -5.35262e+12 -6.41878e+12 -3.74372e+12 -2.58556e+12 -4.31518e+12 -3.66281e+12 -7.22559e+12 -4.0204e+12 -3.34447e+12 -5.01677e+12 -6.56872e+12 -5.00399e+12 -4.78574e+12 -2.0022e+12 -3.72808e+12 -3.4171e+12 -6.83591e+12 -3.85983e+12 -4.29714e+12 -5.23363e+12 -8.36858e+12 -3.60633e+12 -8.08084e+12 -4.64956e+12 -8.78967e+12 -8.26544e+12 -4.48973e+12 -6.78557e+12 -8.63459e+12 -6.45103e+12 -1.14825e+13 -4.40118e+12 -8.089e+12 -1.07135e+13 -6.30454e+12 -6.76872e+12 -7.27073e+12 -9.06229e+12 -1.11702e+13 -9.70587e+12 -7.69873e+12 -7.86028e+12 -6.41336e+12 -5.58596e+12 -4.42054e+12 -9.39649e+12 -8.00774e+12 -6.64777e+12 -4.48766e+12 -4.13942e+12 -6.78156e+12 -5.41841e+12 -7.32049e+12 -5.81224e+12 -9.25962e+12 -6.24279e+12 -6.2754e+12 -4.7139e+12 -4.812e+12 -8.26952e+12 -1.20668e+13 -8.64369e+12 -9.41599e+12 -5.80722e+12 -8.42409e+12 -6.81827e+12 -1.12276e+13 -7.75622e+12 -6.6496e+12 -4.49895e+12 -4.9729e+12 -6.52567e+12 -6.24396e+12 -4.05906e+12 -5.16897e+12 -5.80372e+12 -4.21117e+12 -6.57545e+12 -5.82149e+12 -5.02104e+12 -6.14078e+12 -2.56716e+12 -9.61748e+12 -2.98441e+12 -6.87241e+12 -2.26439e+12 -6.97689e+12 -3.68654e+12 -3.77646e+12 -2.62412e+12 -5.05154e+12 -5.27177e+12 -2.06395e+12 -2.95481e+12 -3.87836e+12 -4.27895e+12 -3.18311e+12 -2.06492e+12 -3.68547e+12 -3.60181e+12 -3.55968e+12 -1.22535e+12 -3.02955e+12 -3.93609e+12 -3.22275e+12 -6.12019e+12 -4.38346e+12 -6.57593e+12 -4.95578e+12 -5.53443e+12 -4.52675e+12 -6.09268e+12 -2.37569e+12 -3.12978e+12 -5.1987e+12 -5.41995e+12 -5.27368e+12 -3.81462e+12 -4.9585e+12 -3.95707e+12 -4.12646e+12 -4.02211e+12 -4.33257e+12 -6.23225e+12 -7.57976e+12 -5.50146e+12 -4.59735e+12 -4.37001e+12 -5.04604e+12 -5.33072e+12 -4.73421e+12 -1.03337e+13 -7.28934e+12 -7.5974e+12 -4.84137e+12 -8.09914e+12 -7.56657e+12 -6.62828e+12 -8.2178e+12 -8.22339e+12 -6.43815e+12 -7.66e+12 -7.16821e+12 -1.04361e+13 -8.18931e+12 -9.96542e+12 -6.22259e+12 -9.9244e+12 -7.16068e+12 -4.63591e+12 -8.93657e+12 -3.45016e+12 -5.73794e+12 -1.28988e+13 -4.82813e+12 -8.8938e+12 -3.16236e+12 -5.86027e+12 -4.41675e+12 -1.0339e+13 -1.00369e+13 -6.33105e+12 -9.28375e+12 -9.84077e+12 -8.04106e+12 -6.59088e+12 -9.42644e+12 -6.68417e+12 -7.17244e+12 -4.84648e+12 -7.13723e+12 -6.78544e+12 -8.78651e+12 -4.87311e+12 -4.426e+12 -6.08826e+12 -7.47301e+12 -8.224e+12 -5.73559e+12 -8.82564e+12 -7.00854e+12 -4.30752e+12 -5.3758e+12 -7.64567e+12 -6.26589e+12 -5.95879e+12 -4.90661e+12 -2.12268e+12 -5.33185e+12 -3.31437e+12 -4.49828e+12 -3.92895e+12 -7.14416e+12 -3.30337e+12 -4.51515e+12 -5.00331e+12 -5.25288e+12 -4.33829e+12 -4.51789e+12 -2.28145e+12 -3.27071e+12 -4.31618e+12 -5.43687e+12 -5.08893e+12 -4.56544e+12 -5.22888e+12 -4.2409e+12 -4.63378e+12 -4.17923e+12 -3.44169e+12 -2.53455e+12 -3.78467e+12 -3.60613e+12 -5.11543e+12 -4.58163e+12 -2.72775e+12 -3.61701e+12 -3.72783e+12 -5.94591e+12 -3.11153e+12 -3.39283e+12 -3.9987e+12 -4.27348e+12 -4.68257e+12 -4.44818e+12 -2.02946e+12 -3.91696e+12 -3.1955e+12 -3.33329e+12 -7.1632e+12 -4.03479e+12 -1.55725e+12 -3.80633e+12 -1.61323e+12 -4.70539e+12 -5.35483e+12 -5.285e+12 -4.36171e+12 -7.20034e+12 -8.80167e+12 -4.44217e+12 -6.01852e+12 -7.76414e+12 -3.4781e+12 -3.92629e+12 -3.89205e+12 -6.59093e+12 -5.28045e+12 -5.06799e+12 -8.11626e+12 -6.56466e+12 -6.62511e+12 -8.65494e+12 -7.10432e+12 -1.22443e+13 -7.15374e+12 -8.86641e+12 -4.26016e+12 -7.69608e+12 -1.09913e+13 -1.02251e+13 -5.01439e+12 -5.45738e+12 -5.32642e+12 -6.43392e+12 -7.80686e+12 -9.75722e+12 -7.08038e+12 -9.67217e+12 -4.79868e+12 -7.99841e+12 -5.81298e+12 -4.56378e+12 -8.57971e+12 -1.05773e+13 -8.90413e+12 -4.46948e+12 -1.03647e+13 -6.33748e+12 -4.01933e+12 -5.17463e+12 -6.14779e+12 -7.42362e+12 -1.0589e+13 -5.42721e+12 -4.9854e+12 -1.04186e+13 -4.58046e+12 -2.16515e+12 -3.77044e+12 -6.17624e+12 -7.5378e+12 -4.42483e+12 -8.29956e+12 -6.78443e+12 -1.84046e+12 -7.10439e+12 -8.50061e+12 -4.95523e+12 -5.59141e+12 -6.76624e+12 -5.2834e+12 -4.29704e+12 -5.87027e+12 -6.31469e+12 -4.73034e+12 -3.25743e+12 -5.09746e+12 -4.09973e+12 -4.4089e+12 -3.26016e+12 -6.98246e+12 -6.48661e+12 -3.13459e+12 -4.06507e+12 -3.72565e+12 -4.15484e+12 -3.51381e+12 -3.85569e+12 -2.48166e+12 -2.81089e+12 -1.44446e+12 -3.57343e+12 -6.17495e+12 -2.35146e+12 -3.5616e+12 -2.98431e+12 -2.27153e+12 -3.62968e+12 -3.60111e+12 -4.71491e+12 -5.19379e+12 -2.98208e+12 -2.85683e+12 -3.0325e+12 -5.72226e+12 -4.88689e+12 -5.44201e+12 -4.35237e+12 -5.14224e+12 -2.84621e+12 -3.86359e+12 -3.62415e+12 -5.48149e+12 -7.07705e+12 -2.36002e+12 -4.17897e+12 -7.32575e+12 -3.24341e+12 -4.52315e+12 -5.5813e+12 -5.67878e+12 -6.72713e+12 -6.16663e+12 -7.6105e+12 -7.50462e+12 -2.09744e+12 -4.74631e+12 -4.14769e+12 -8.55026e+12 -7.00961e+12 -6.44713e+12 -6.96595e+12 -4.24247e+12 -6.01651e+12 -2.91456e+12 -6.16345e+12 -6.98431e+12 -8.09206e+12 -7.33593e+12 -6.34011e+12 -5.89038e+12 -4.20085e+12 -2.8055e+12 -6.23274e+12 -8.05011e+12 -6.93378e+12 -3.24026e+12 -6.54754e+12 -3.21165e+12 -4.8383e+12 -7.02117e+12 -3.83392e+12 -8.80889e+12 -7.06428e+12 -6.9384e+12 -7.59937e+12 -7.60804e+12 -7.38639e+12 -8.43397e+12 -3.67279e+12 -6.52561e+12 -7.77814e+12 -8.65897e+12 -5.25653e+12 -8.69968e+12 -9.55506e+12 -1.01936e+13 -8.4402e+12 -7.70644e+12 -7.39087e+12 -6.09387e+12 -7.94709e+12 -4.72364e+12 -7.19036e+12 -7.92575e+12 -7.02685e+12 -4.48047e+12 -4.79223e+12 -4.49211e+12 -8.90227e+12 -3.74099e+12 -5.63582e+12 -4.9927e+12 -4.44313e+12 -3.47788e+12 -6.19011e+12 -7.19445e+12 -3.53958e+12 -4.27389e+12 -3.54065e+12 -7.6752e+12 -3.38837e+12 -3.99421e+12 -3.37942e+12 -5.64047e+12 -6.55762e+12 -6.1523e+12 -5.1938e+12 -5.95771e+12 -2.22915e+12 -3.29344e+12 -5.37704e+12 -3.77407e+12 -4.04026e+12 -5.70045e+12 -3.3853e+12 -2.54752e+12 -4.85622e+12 -4.46445e+12 -2.71692e+12 -5.70643e+12 -4.1465e+12 -1.11774e+12 -2.61821e+12 -5.8168e+12 -4.4111e+12 -3.98026e+12 -5.59456e+12 -3.88882e+12 -3.88886e+12 -4.02719e+12 -3.53113e+12 -3.59652e+12 -3.94594e+12 -2.52303e+12 -4.69872e+12 -7.35269e+12 -1.83866e+12 -2.97576e+12 -2.1824e+12 -4.35758e+12 -3.40665e+12 -5.36066e+12 -6.04328e+12 -4.93631e+12 -3.72055e+12 -5.13997e+12 -3.53161e+12 -5.31675e+12 -4.08964e+12 -4.26885e+12 -2.59809e+12 -5.95231e+12 -4.8562e+12 -5.53457e+12 -4.34007e+12 -7.47641e+12 -4.34866e+12 -2.77441e+12 -3.82656e+12 -5.7759e+12 -5.34831e+12 -3.19246e+12 -6.25859e+12 -3.20167e+12 -3.84927e+12 -5.98315e+12 -5.63582e+12 -5.22744e+12 -2.97729e+12 -5.54317e+12 -5.00778e+12 -4.58291e+12 -5.30818e+12 -7.80825e+12 -3.218e+12 -6.73089e+12 -5.71309e+12 -3.10388e+12 -1.00123e+13 -7.11199e+12 -4.95981e+12 -9.44292e+12 -5.56294e+12 -6.19489e+12 -4.6198e+12 -9.53238e+12 -6.84243e+12 -7.01986e+12 -6.31071e+12 -6.55493e+12 -5.42957e+12 -5.58769e+12 -7.18689e+12 -4.34388e+12 -6.50662e+12 -4.85684e+12 -7.93387e+12 -7.25759e+12 -4.95947e+12 -6.25169e+12 -2.06576e+12 -7.217e+12 -6.68521e+12 -5.53965e+12 -7.26783e+12 -5.51305e+12 -1.10667e+13 -2.52868e+12 -6.5684e+12 -5.07391e+12 -6.32248e+12 -8.59182e+12 -4.83478e+12 -7.2703e+12 -7.02933e+12 -6.37241e+12 -3.9801e+12 -6.16119e+12 -7.26377e+12 -5.17291e+12 -3.33992e+12 -5.45615e+12 -6.51443e+12 -6.9933e+12 -4.9143e+12 -3.80957e+12 -5.33905e+12 -8.3647e+12 -6.01869e+12 -8.45836e+12 -7.4458e+12 -4.38641e+12 -5.52394e+12 -5.05275e+12 -4.06884e+12 -1.68877e+12 -3.67798e+12 -6.24294e+12 -4.52419e+12 -3.9554e+12 -3.79663e+12 -2.39618e+12 -5.43665e+12 -3.06451e+12 -3.06778e+12 -3.84031e+12 -3.50312e+12 -4.58839e+12 -2.52954e+12 -2.39022e+12 -2.09346e+12 -2.10206e+12 -3.95834e+12 -1.96475e+12 -3.26253e+12 -4.40912e+12 -3.23213e+12 -3.43384e+12 -2.24539e+12 -2.13829e+12 -4.32506e+12 -3.67585e+12 -1.59906e+12 -3.05476e+12 -2.11956e+12 -2.7672e+12 -4.255e+12 -1.58096e+12 -2.27224e+12 -3.81276e+12 -3.53054e+12 -5.99188e+12 -3.70604e+12 -4.72876e+12 -2.53779e+12 -3.33742e+12 -2.95849e+12 -3.43466e+12 -3.31209e+12 -1.70887e+12 -3.68751e+12 -4.85432e+12 -3.74987e+12 -6.083e+12 -4.83925e+12 -3.2517e+12 -3.22909e+12 -5.08799e+12 -5.10783e+12 -4.098e+12 -5.87962e+12 -4.6556e+12 -3.83183e+12 -4.77247e+12 -1.35583e+12 -3.74257e+12 -1.69374e+12 -2.65076e+12 -7.04323e+12 -8.58693e+12 -3.56622e+12 -5.94373e+12 -6.50441e+12 -1.03319e+13 -8.21996e+12 -7.0967e+12 -7.28805e+12 -9.14076e+12 -7.73366e+12 -7.83834e+12 -8.97218e+12 -7.44316e+12 -5.74395e+12 -6.47064e+12 -6.66539e+12 -8.46194e+12 -5.03525e+12 -4.22974e+12 -7.56734e+12 -8.78e+12 -4.32592e+12 -5.10189e+12 -4.93033e+12 -4.01166e+12 -2.42944e+12 -4.60341e+12 -5.0888e+12 -4.99152e+12 -3.79155e+12 -5.51221e+12 -5.85264e+12 -5.86683e+12 -6.39209e+12 -9.58221e+12 -4.35905e+12 -9.95474e+12 -7.61803e+12 -8.19254e+12 -8.9449e+12 -5.05138e+12 -7.35079e+12 -1.10793e+13 -3.75703e+12 -5.45739e+12 -4.2745e+12 -5.10134e+12 -3.77028e+12 -6.24475e+12 -9.46175e+12 -8.16538e+12 -6.10399e+12 -5.43988e+12 -5.52781e+12 -5.80651e+12 -6.69158e+12 -5.15352e+12 -6.56508e+12 -4.25108e+12 -6.21879e+12 -5.40052e+12 -2.95994e+12 -3.58826e+12 -2.94202e+12 -3.99393e+12 -3.96333e+12 -2.90823e+12 -2.83434e+12 -4.1515e+12 -4.03156e+12 -3.73937e+12 -3.68364e+12 -3.71886e+12 -4.73818e+12 -9.2702e+12 -4.6832e+12 -4.72149e+12 -4.4963e+12 -4.41151e+12 -3.16382e+12 -5.02679e+12 -2.39246e+12 -3.58425e+12 -4.05496e+12 -2.36317e+12 -1.64872e+12 -4.02277e+12 -2.83393e+12 -955981000000.0 -2.78823e+12 -4.42127e+12 -3.17204e+12 -3.43451e+12 -2.95508e+12 -4.47055e+12 -3.70029e+12 -2.41566e+12 -2.30865e+12 -3.18307e+12 -3.86934e+12 -5.73376e+12 -2.0404e+12 -2.38875e+12 -2.37403e+12 -4.39871e+12 -3.69124e+12 -1.56501e+12 -947194000000.0 -4.06392e+12 -4.1674e+12 -1.22549e+12 -6.18186e+12 -8.08317e+12 -3.14428e+12 -3.62369e+12 -3.52189e+12 -5.69778e+12 -2.34064e+12 -5.78405e+12 -5.9262e+12 -4.83901e+12 -3.95988e+12 -3.29177e+12 -2.71918e+12 -5.20267e+12 -5.03038e+12 -7.6343e+12 -7.60728e+12 -5.22345e+12 -6.37199e+12 -4.74828e+12 -6.79036e+12 -9.00781e+12 -6.31566e+12 -7.22567e+12 -6.18564e+12 -7.25267e+12 -2.70093e+12 -1.00227e+13 -1.98536e+12 -1.03386e+13 -5.92438e+12 -1.01867e+13 -6.74833e+12 -7.11185e+12 -7.99557e+12 -8.75997e+12 -7.7748e+12 -5.4192e+12 -7.46691e+12 -5.21951e+12 -5.248e+12 -4.16991e+12 -6.65718e+12 -4.79207e+12 -5.25151e+12 -3.45822e+12 -6.10873e+12 -9.33244e+12 -5.64394e+12 -2.63746e+12 -6.15116e+12 -1.10531e+13 -8.06666e+12 -3.75346e+12 -8.00634e+12 -1.26187e+13 -4.91893e+12 -4.0626e+12 -8.65338e+12 -7.69524e+12 -6.01548e+12 -8.23141e+12 -8.26905e+12 -5.75e+12 -4.44464e+12 -4.38884e+12 -3.04247e+12 -4.8477e+12 -4.37425e+12 -1.28676e+12 -3.27872e+12 -4.1176e+12 -8.27375e+12 -4.35098e+12 -4.95215e+12 -5.05786e+12 -5.53319e+12 -2.00905e+12 -4.68957e+12 -5.418e+12 -4.07151e+12 -2.83062e+12 -3.84748e+12 -4.37015e+12 -5.0678e+12 -5.25716e+12 -4.11383e+12 -4.26322e+12 -4.22717e+12 -7.29088e+12 -5.72747e+12 -5.94425e+12 -2.29511e+12 -3.40616e+12 -3.35745e+12 -4.85613e+12 -5.32374e+12 -3.42727e+12 -3.74316e+12 -3.58364e+12 -2.82238e+12 -3.50233e+12 -5.82033e+12 -5.46018e+12 -4.68653e+12 -4.37994e+12 -3.20507e+12 -2.68783e+12 -2.78722e+12 -2.21302e+12 -2.42741e+12 -1.37829e+12 -3.26308e+12 -4.51156e+12 -2.81277e+12 -3.337e+12 -4.17974e+12 -3.42823e+12 -3.77269e+12 -4.14777e+12 -4.69342e+12 -3.26807e+12 -4.29268e+12 -2.37332e+12 -2.83215e+12 -2.70193e+12 -3.78598e+12 -2.39183e+12 -3.94994e+12 -3.14883e+12 -3.13381e+12 -4.25244e+12 -2.54825e+12 -4.63011e+12 -5.97714e+12 -3.66534e+12 -5.0556e+12 -6.01241e+12 -4.16837e+12 -1.75926e+12 -4.80075e+12 -7.26068e+12 -5.68899e+12 -6.28788e+12 -5.4431e+12 -4.32675e+12 -3.18157e+12 -8.9029e+12 -2.93955e+12 -5.28737e+12 -9.04908e+12 -8.28711e+12 -5.30607e+12 -5.46352e+12 -1.03152e+13 -5.91895e+12 -8.13586e+12 -6.2624e+12 -3.56584e+12 -3.60826e+12 -4.0406e+12 -5.06183e+12 -5.5632e+12 -7.90804e+12 -6.47305e+12 -6.3616e+12 -4.82453e+12 -4.28831e+12 -6.65269e+12 -4.46457e+12 -8.44551e+12 -5.52395e+12 -5.16162e+12 -6.94433e+12 -7.85689e+12 -9.19957e+12 -6.13947e+12 -5.89784e+12 -4.46194e+12 -5.3629e+12 -7.11204e+12 -3.83861e+12 -4.31577e+12 -5.29424e+12 -3.95395e+12 -8.88968e+12 -8.45664e+12 -7.83405e+12 -4.12239e+12 -4.70766e+12 -7.19678e+12 -8.1212e+12 -6.0318e+12 -1.65605e+13 -5.92192e+12 -5.09397e+12 -9.05733e+12 -8.16423e+12 -7.28364e+12 -8.06651e+12 -4.59136e+12 -5.88419e+12 -6.26783e+12 -5.58197e+12 -5.55942e+12 -7.88688e+12 -5.12762e+12 -6.63374e+12 -8.04097e+12 -2.76809e+12 -5.01424e+12 -2.52985e+12 -4.69755e+12 -4.23523e+12 -5.37888e+12 -4.72111e+12 -2.93074e+12 -5.49161e+12 -4.24384e+12 -6.85501e+12 -4.91063e+12 -4.8705e+12 -4.01917e+12 -2.56369e+12 -2.73422e+12 -2.68322e+12 -4.15486e+12 -3.31328e+12 -4.06494e+12 -1.79182e+12 -3.89741e+12 -2.9641e+12 -3.33408e+12 -3.65597e+12 -2.16339e+12 -4.53093e+12 -2.87911e+12 -4.45793e+12 -3.14959e+12 -2.28893e+12 -2.9045e+12 -2.46035e+12 -3.01418e+12 -1.63771e+12 -2.20866e+12 -1.35513e+12 -1.98428e+12 -2.48081e+12 -2.54555e+12 -2.66167e+12 -2.41204e+12 -2.97993e+12 -1.85628e+12 -4.61573e+12 -4.58268e+12 -1.59775e+12 -2.87989e+12 -1.92744e+12 -2.50891e+12 -1.64724e+12 -3.27365e+12 -2.13999e+12 -5.6109e+12 -4.10871e+12 -3.29589e+12 -6.39479e+12 -3.18806e+12 -2.7738e+12 -7.02419e+12 -3.97516e+12 -5.95011e+12 -3.93832e+12 -5.0226e+12 -4.98635e+12 -6.02653e+12 -6.68635e+12 -5.22585e+12 -4.29086e+12 -6.09616e+12 -4.31127e+12 -2.48897e+12 -6.32542e+12 -3.8555e+12 -3.85926e+12 -3.85233e+12 -5.35868e+12 -7.99147e+12 -5.1766e+12 -4.97238e+12 -4.72249e+12 -5.53776e+12 -7.55895e+12 -5.18524e+12 -7.16362e+12 -4.32595e+12 -7.37608e+12 -6.54987e+12 -6.97083e+12 -1.05663e+13 -6.30735e+12 -8.40779e+12 -6.02954e+12 -4.81355e+12 -8.45718e+12 -2.66897e+12 -8.82597e+12 -4.39134e+12 -5.21794e+12 -7.08213e+12 -6.29618e+12 -3.37069e+12 -3.79234e+12 -4.67987e+12 -4.64893e+12 -3.96629e+12 -4.57163e+12 -5.96695e+12 -6.4386e+12 -5.84373e+12 -6.91741e+12 -5.23234e+12 -7.18282e+12 -8.87156e+12 -4.83446e+12 -6.56803e+12 -7.25013e+12 -6.49212e+12 -5.72008e+12 -1.1932e+13 -4.70715e+12 -1.03983e+13 -6.01081e+12 -5.59329e+12 -4.71256e+12 -2.93901e+12 -4.62117e+12 -6.01349e+12 -6.4021e+12 -5.46411e+12 -6.69379e+12 -4.43543e+12 -6.56315e+12 -6.19571e+12 -3.24737e+12 -8.82099e+12 -4.16239e+12 -3.69821e+12 -3.25449e+12 -7.05341e+12 -5.39118e+12 -2.6778e+12 -3.01573e+12 -3.40748e+12 -3.18737e+12 -4.08468e+12 -2.29891e+12 -5.52467e+12 -3.19825e+12 -2.98623e+12 -6.8255e+12 -5.48587e+12 -6.2141e+12 -3.47913e+12 -3.33673e+12 -2.37657e+12 -2.82028e+12 -3.78938e+12 -3.02676e+12 -2.13068e+12 -1.91601e+12 -3.98886e+12 -1.35899e+12 -2.06751e+12 -2.74086e+12 -2.96337e+12 -3.41485e+12 -2.17443e+12 -760437000000.0 -688089000000.0 -2.29222e+12 -1.38249e+12 -2.86444e+12 -2.56197e+12 -2.31834e+12 -1.34567e+12 -2.16321e+12 -2.55771e+12 -5.07465e+12 -1.47029e+12 -2.45676e+12 -1.9656e+12 -3.06901e+12 -2.89476e+12 -1.62066e+12 -2.00387e+12 -1.68111e+12 -3.60534e+12 -3.05519e+12 -2.49143e+12 -2.42909e+12 -3.32635e+12 -3.27037e+12 -2.81694e+12 -3.06278e+12 -3.48477e+12 -3.48733e+12 -3.82078e+12 -4.59632e+12 -2.70995e+12 -3.77578e+12 -4.40252e+12 -2.64296e+12 -5.49585e+12 -4.5317e+12 -5.64148e+12 -6.65226e+12 -6.49542e+12 -4.07703e+12 -5.03206e+12 -2.82896e+12 -3.87684e+12 -3.30596e+12 -6.03811e+12 -4.35051e+12 -6.4255e+12 -4.25906e+12 -5.24712e+12 -7.12677e+12 -2.30083e+12 -3.88853e+12 -7.80747e+12 -3.83756e+12 -6.63182e+12 -5.57785e+12 -2.89605e+12 -6.70241e+12 -4.37676e+12 -5.303e+12 -5.38457e+12 -3.94721e+12 -4.69964e+12 -4.19398e+12 -4.72839e+12 -5.57987e+12 -7.82265e+12 -7.3184e+12 -8.52188e+12 -1e+13 -6.75721e+12 -6.34439e+12 -6.22111e+12 -7.35417e+12 -7.37652e+12 -6.41267e+12 -5.15452e+12 -2.09267e+12 -3.19244e+12 -4.69984e+12 -5.83411e+12 -7.11707e+12 -3.21052e+12 -4.45224e+12 -5.11578e+12 -3.97403e+12 -3.14417e+12 -6.77977e+12 -5.2647e+12 -5.44949e+12 -7.0546e+12 -3.51626e+12 -7.12214e+12 -3.54511e+12 -3.6074e+12 -5.57262e+12 -4.39387e+12 -3.34708e+12 -7.11024e+12 -5.8706e+12 -4.88503e+12 -4.20546e+12 -4.26158e+12 -3.65661e+12 -5.38473e+12 -4.32798e+12 -5.41018e+12 -3.52343e+12 -4.38293e+12 -4.16288e+12 -7.18543e+12 -4.87212e+12 -3.92124e+12 -5.18861e+12 -4.69338e+12 -7.34176e+12 -7.45912e+12 -4.97351e+12 -3.64734e+12 -5.99105e+12 -4.23798e+12 -5.89807e+12 -5.23304e+12 -4.43906e+12 -4.15064e+12 -3.50755e+12 -5.60802e+12 -3.0984e+12 -4.94716e+12 -3.23294e+12 -2.59292e+12 -2.10951e+12 -2.95015e+12 -4.37065e+12 -1.72937e+12 -1.89374e+12 -4.22636e+12 -1.46691e+12 -3.89071e+12 -2.74252e+12 -2.70162e+12 -2.81591e+12 -3.94211e+12 -2.61774e+12 -2.62048e+12 -1.29883e+12 -2.78816e+12 -2.10763e+12 -1.72013e+12 -2.32156e+12 -2.76484e+12 -1.17958e+12 -3.48957e+12 -2.00815e+12 -2.20103e+12 -1.39202e+12 -2.22206e+12 -1.57312e+12 -1.2732e+12 -2.49712e+12 -2.5031e+12 -2.19534e+12 -1.20817e+12 -1.71929e+12 -3.7623e+12 -1.15874e+12 -2.24411e+12 -2.37884e+12 -2.34846e+12 -4.23331e+12 -4.51598e+12 -3.83564e+12 -1.92446e+12 -2.95189e+12 -3.78113e+12 -2.6393e+12 -3.98264e+12 -6.19781e+12 -6.1825e+12 -5.20338e+12 -1.80674e+12 -3.09784e+12 -3.80085e+12 -5.26403e+12 -5.11722e+12 -5.38988e+12 -8.13347e+12 -2.12561e+12 -3.66552e+12 -2.98489e+12 -6.02125e+12 -6.71325e+12 -8.60937e+12 -4.74834e+12 -6.12515e+12 -1.07166e+13 -4.21124e+12 -8.41055e+12 -5.4772e+12 -8.13422e+12 -4.72128e+12 -6.28792e+12 -4.56369e+12 -4.26947e+12 -4.21192e+12 -7.71923e+12 -9.50199e+12 -5.84935e+12 -6.13816e+12 -5.45442e+12 -1.08711e+13 -7.74826e+12 -8.30372e+12 -4.70026e+12 -4.55708e+12 -7.63756e+12 -4.9979e+12 -2.7798e+12 -6.31437e+12 -2.90387e+12 -7.14313e+12 -4.34879e+12 -6.84812e+12 -5.23634e+12 -6.2221e+12 -4.57819e+12 -6.04676e+12 -3.78053e+12 -5.08512e+12 -4.63748e+12 -3.31542e+12 -7.48999e+12 -5.64331e+12 -6.89972e+12 -3.93478e+12 -5.26067e+12 -5.65333e+12 -6.62471e+12 -4.03822e+12 -2.71743e+12 -3.78186e+12 -4.892e+12 -2.97057e+12 -4.81085e+12 -3.16836e+12 -5.6456e+12 -5.33619e+12 -4.50794e+12 -3.55823e+12 -2.3867e+12 -4.91477e+12 -3.54297e+12 -2.11392e+12 -1.80311e+12 -1.49447e+12 -3.07064e+12 -4.99508e+12 -5.35212e+12 -3.66103e+12 -2.56385e+12 -4.08176e+12 -3.7819e+12 -3.46028e+12 -3.63646e+12 -5.4788e+12 -3.10379e+12 -3.19072e+12 -3.32394e+12 -3.08879e+12 -4.12489e+12 -3.69159e+12 -2.23466e+12 -1.74183e+12 -4.43411e+12 -3.16222e+12 -2.0701e+12 -2.05831e+12 -2.73723e+12 -2.27408e+12 -1.29822e+12 -3.44143e+12 -2.64754e+12 -2.33984e+12 -3.48054e+12 -1.46148e+12 -2.07236e+12 -2.85855e+12 -2.87895e+12 -1.90441e+12 -2.06792e+12 -985850000000.0 -517366000000.0 -1.37861e+12 -1.71538e+12 -2.41951e+12 -1.6892e+12 -3.17461e+12 -3.83185e+12 -2.12015e+12 -1.36574e+12 -1.79698e+12 -2.98248e+12 -2.10397e+12 -1.63073e+12 -3.09155e+12 -3.39235e+12 -1.77976e+12 -2.41618e+12 -2.1228e+12 -3.16603e+12 -1.65464e+12 -3.59187e+12 -2.81817e+12 -3.18137e+12 -2.70625e+12 -2.20386e+12 -1.92402e+12 -3.25522e+12 -3.05029e+12 -3.21456e+12 -3.05361e+12 -4.63926e+12 -4.56131e+12 -2.56307e+12 -2.44652e+12 -4.98833e+12 -3.99802e+12 -2.95069e+12 -2.16063e+12 -3.44992e+12 -6.42135e+12 -6.57788e+12 -4.36164e+12 -3.53128e+12 -6.88189e+12 -5.62387e+12 -5.66525e+12 -5.26305e+12 -3.02262e+12 -5.97969e+12 -5.20907e+12 -3.4073e+12 -5.67895e+12 -6.17473e+12 -4.97398e+12 -1.75807e+12 -4.30727e+12 -3.58212e+12 -3.87405e+12 -3.74586e+12 -5.58036e+12 -4.86056e+12 -5.05962e+12 -8.91282e+12 -6.04485e+12 -4.08209e+12 -4.03529e+12 -7.76389e+12 -6.94567e+12 -6.58024e+12 -5.86978e+12 -1.13791e+13 -5.81975e+12 -5.54873e+12 -6.21323e+12 -2.74442e+12 -4.63343e+12 -3.44125e+12 -4.19077e+12 -4.80298e+12 -7.12299e+12 -6.18874e+12 -4.72537e+12 -5.26626e+12 -7.46719e+12 -7.56819e+12 -7.67437e+12 -4.17117e+12 -6.16387e+12 -5.47769e+12 -7.0223e+12 -5.42135e+12 -4.15399e+12 -5.31725e+12 -4.77841e+12 -5.63171e+12 -3.77481e+12 -3.49581e+12 -4.71638e+12 -3.12222e+12 -4.06462e+12 -4.5667e+12 -5.08585e+12 -2.24852e+12 -2.83423e+12 -6.53874e+12 -6.41557e+12 -3.99405e+12 -5.15234e+12 -4.10805e+12 -3.09244e+12 -2.61667e+12 -3.30465e+12 -2.83685e+12 -1.59198e+12 -2.4725e+12 -5.03886e+12 -2.78625e+12 -2.30822e+12 -1.47672e+12 -2.75266e+12 -3.6824e+12 -10988200000.0 -4.47466e+12 -3.54619e+12 -1.68554e+12 -3.68129e+12 -1.12053e+12 -3.14646e+12 -2.34543e+12 -1.39196e+12 -2.76063e+12 -1.10735e+12 -2.35745e+12 -2.07329e+12 -1.93549e+12 -965403000000.0 -2.3594e+12 -1.82808e+12 -3.25654e+12 -2.98273e+12 -3.08589e+12 -1.03469e+12 -1.41859e+12 -2.34998e+12 -1.52003e+12 -2.26216e+12 -2.11886e+12 -1.71935e+12 -461817000000.0 -1.25e+12 -2.11654e+12 -2.01603e+12 -2.92625e+12 -2.1875e+12 -2.06441e+12 -4.03855e+12 -1.52857e+12 -1.83372e+12 -1.53705e+12 -3.02781e+12 -2.35688e+12 -1.21712e+12 -1.70205e+12 -1.02568e+12 -1.83284e+12 -811879000000.0 -2.25587e+12 -2.62165e+12 -2.60713e+12 -1.30526e+12 -1.72433e+12 -1.91281e+12 -1.57833e+12 -3.16863e+12 -1.68143e+12 -1.07385e+12 -2.33676e+12 -2.83704e+12 -3.12846e+12 -3.15814e+12 -6.60707e+12 -2.87768e+12 -4.20451e+12 -3.82437e+12 -5.91897e+12 -3.00574e+12 -2.23398e+12 -2.88885e+12 -3.7764e+12 -4.38695e+12 -6.34215e+12 -3.43259e+12 -2.01592e+12 -2.87644e+12 -4.51447e+12 -3.41108e+12 -4.51093e+12 -5.8703e+12 -4.29218e+12 -6.60928e+12 -6.3654e+12 -5.4016e+12 -7.53048e+12 -4.07882e+12 -7.18569e+12 -5.04574e+12 -1.1665e+13 -6.95804e+12 -8.81397e+12 -4.23845e+12 -5.96151e+12 -7.11443e+12 -5.90528e+12 -7.4779e+12 -7.9359e+12 -5.11409e+12 -3.68528e+12 -2.46844e+12 -6.90959e+12 -4.12584e+12 -2.71483e+12 -2.87084e+12 -3.39292e+12 -3.05527e+12 -4.71576e+12 -8.5426e+12 -8.57784e+12 -4.59732e+12 -4.44547e+12 -4.34497e+12 -3.56243e+12 -5.3267e+12 -7.58426e+12 -5.74516e+12 -5.11979e+12 -7.19232e+12 -4.74345e+12 -4.65859e+12 -4.58887e+12 -4.39901e+12 -5.49344e+12 -4.10664e+12 -3.71253e+12 -5.10724e+12 -3.80294e+12 -7.07582e+12 -5.50604e+12 -5.84674e+12 -7.56453e+12 -5.41174e+12 -4.92281e+12 -4.8878e+12 -3.30187e+12 -1.81008e+12 -2.18638e+12 -3.34709e+12 -1.68282e+12 -5.37413e+12 -4.32988e+12 -2.33495e+12 -3.78953e+12 -3.92536e+12 -1.7692e+12 -1.4089e+12 -1.87917e+12 -2.75398e+12 -3.36127e+12 -2.55249e+12 -1.87724e+12 -1.11263e+12 -3.30422e+12 -1.25795e+12 -1.62809e+12 -1.54718e+12 -2.13313e+12 -2.01779e+12 -2.86197e+12 -3.16033e+12 -1.22806e+12 -1.30991e+12 -1.55827e+12 -1.83445e+12 -2.69527e+12 -690668000000.0 -2.58423e+12 -731418000000.0 -1.6888e+12 -1.78943e+12 -1.67175e+12 -2.06407e+12 -1.56941e+12 -2.65707e+12 -2.56384e+12 -2.01209e+12 -1.57061e+12 -1.65507e+12 -2.12388e+12 -1.78062e+12 -2.83936e+12 -1.86118e+12 -2.17928e+12 -2.01961e+12 -2.62113e+12 -2.20924e+12 -2.64166e+12 -2.06735e+12 -2.59277e+12 -4.04968e+12 -2.82337e+12 -3.08798e+12 -3.74359e+12 -2.23542e+12 -3.99739e+12 -2.07157e+12 -4.55466e+12 -1.88262e+12 -2.67871e+12 -3.17807e+12 -3.72101e+12 -3.61465e+12 -2.34994e+12 -3.76572e+12 -2.96813e+12 -3.9661e+12 -3.97677e+12 -4.13174e+12 -5.24008e+12 -4.93521e+12 -5.48923e+12 -4.29783e+12 -3.66421e+12 -6.26477e+12 -2.7922e+12 -3.46596e+12 -3.68492e+12 -4.47744e+12 -6.86323e+12 -4.41474e+12 -6.0338e+12 -4.82413e+12 -8.52217e+12 -4.8313e+12 -4.43499e+12 -3.50874e+12 -4.61189e+12 -2.4376e+12 -7.82624e+12 -9.25707e+12 -4.20081e+12 -5.00273e+12 -3.73055e+12 -7.21132e+12 -4.87837e+12 -2.28119e+12 -3.92453e+12 -2.74901e+12 -3.02598e+12 -4.66893e+12 -3.82115e+12 -3.38945e+12 -4.10184e+12 -3.94123e+12 -4.9734e+12 -6.6244e+12 -4.52345e+12 -6.99318e+12 -3.1654e+12 -4.14289e+12 -3.32827e+12 -4.66358e+12 -3.38178e+12 -5.36308e+12 -3.36453e+12 -3.51386e+12 -3.90183e+12 -3.79988e+12 -4.35745e+12 -4.06587e+12 -3.95749e+12 -3.73712e+12 -5.84176e+12 -2.29488e+12 -6.93252e+12 -3.59246e+12 -2.07301e+12 -5.20103e+12 -5.68998e+12 -3.91211e+12 -3.03785e+12 -3.51217e+12 -3.27863e+12 -661822000000.0 -2.5157e+12 -3.43622e+12 -2.37683e+12 -2.51939e+12 -2.193e+12 -2.92227e+12 -1.95526e+12 -3.51894e+12 -3.09986e+12 -2.72706e+12 -893126000000.0 -2.1389e+12 -1.90326e+12 -1.28331e+12 -2.01735e+12 -965183000000.0 -2.57948e+12 -2.03664e+12 -1.03156e+12 -1.49645e+12 -1.82606e+12 -888652000000.0 -1.47168e+12 -2.14241e+12 -1.81509e+12 -2.69176e+12 -1.7311e+12 -2.25179e+12 -1.70583e+12 -1.52734e+12 -1.48834e+12 -1.44555e+12 -1.3366e+12 -2.82897e+12 -1.68818e+12 -878459000000.0 -744744000000.0 -1.55207e+12 -3.10732e+12 -2.10748e+12 -2.783e+12 -2.07737e+12 -1.92636e+12 -1.2159e+12 -2.60574e+12 -3.20176e+12 -1.57487e+12 -1.11382e+12 -2.66979e+12 -1.59112e+12 -4.76147e+12 -6.26788e+12 -1.68668e+12 -2.69654e+12 -2.29914e+12 -3.5803e+12 -2.90171e+12 -2.88563e+12 -1.96695e+12 -4.46889e+12 -2.62255e+12 -2.16402e+12 -2.62451e+12 -2.38797e+12 -3.65521e+12 -3.22244e+12 -3.6188e+12 -5.27354e+12 -3.00327e+12 -2.95938e+12 -5.23506e+12 -2.48042e+12 -3.29091e+12 -2.59107e+12 -4.02412e+12 -4.23354e+12 -5.45604e+12 -4.11903e+12 -3.69148e+12 -6.70952e+12 -4.3301e+12 -5.8898e+12 -2.41423e+12 -3.43031e+12 -5.42901e+12 -6.53217e+12 -4.80072e+12 -5.14285e+12 -3.74072e+12 -5.99754e+12 -5.98966e+12 -4.29784e+12 -5.97456e+12 -3.93766e+12 -5.08621e+12 -6.77431e+12 -6.2063e+12 -2.98794e+12 -4.12377e+12 -5.343e+12 -3.97739e+12 -3.06356e+12 -5.87172e+12 -4.42322e+12 -4.84037e+12 -2.01986e+12 -3.63497e+12 -2.81957e+12 -6.37222e+12 -5.07305e+12 -1.6602e+12 -3.37104e+12 -4.54149e+12 -2.42064e+12 -3.27719e+12 -4.36416e+12 -3.55698e+12 -4.89667e+12 -3.09897e+12 -1.63153e+12 -2.82714e+12 -2.73704e+12 -3.68715e+12 -1.08765e+12 -2.40631e+12 -3.13448e+12 -1.75312e+12 -7.05401e+12 -2.72567e+12 -4.92936e+12 -3.14718e+12 -2.43582e+12 -2.29463e+12 -1.78915e+12 -2.14345e+12 -3.10437e+12 -2.2457e+12 -2.38846e+12 -2.97995e+12 -3.31045e+12 -2.67843e+12 -2.20579e+12 -1.54005e+12 -1.51504e+12 -3.66168e+12 -3.93103e+12 -3.73776e+12 -1.89193e+12 -2.08323e+12 -194955000000.0 -1.46513e+12 -759087000000.0 -2.23905e+12 -898921000000.0 -786700000000.0 -2.11337e+12 -2.29709e+12 -747862000000.0 -1.64552e+12 -481126000000.0 -1.00287e+12 -942314000000.0 -943441000000.0 -1.85124e+12 -2.12456e+12 -1.3745e+12 -1.52579e+12 -486326000000.0 -1.16371e+12 -444114000000.0 -487920000000.0 -802374000000.0 -313450000000.0 -1.43213e+12 -636165000000.0 -1.06503e+12 -1.08073e+12 -1.02843e+12 -1.36342e+12 -2.21582e+12 -1.05628e+12 -883013000000.0 -866349000000.0 -2.33164e+12 -1.95618e+12 -1.70445e+12 -2.74854e+12 -2.10594e+12 -1.08012e+12 -1.1024e+12 -2.37809e+12 -4.0377e+12 -1.62337e+12 -1.48854e+12 -1.98552e+12 -3.07484e+12 -3.46872e+12 -1.10454e+12 -2.82847e+12 -3.70594e+12 -3.07914e+12 -2.55756e+12 -2.40719e+12 -4.28088e+12 -4.81305e+12 -3.20482e+12 -3.0307e+12 -2.90823e+12 -4.4362e+12 -2.29852e+12 -4.21912e+12 -3.54913e+12 -4.11519e+12 -2.51864e+12 -3.77352e+12 -4.46721e+12 -4.4459e+12 -4.09063e+12 -4.36231e+12 -3.59124e+12 -4.32504e+12 -3.19186e+12 -5.18498e+12 -2.64914e+12 -3.19761e+12 -2.9229e+12 -2.67386e+12 -4.66526e+12 -3.83411e+12 -3.95869e+12 -4.04733e+12 -5.092e+12 -4.32305e+12 -2.90154e+12 -2.15048e+12 -807639000000.0 -4.77103e+12 -2.41733e+12 -5.01898e+12 -7.18645e+12 -4.58565e+12 -3.49949e+12 -2.7424e+12 -3.21777e+12 -2.78751e+12 -3.46525e+12 -2.87466e+12 -2.90004e+12 -3.53748e+12 -3.12966e+12 -3.60948e+12 -5.26592e+12 -3.0386e+12 -3.37599e+12 -2.74328e+12 -3.31469e+12 -4.24313e+12 -2.9543e+12 -3.12318e+12 -2.5281e+12 -903380000000.0 -3.60184e+12 -1.8928e+12 -1.27305e+12 -3.36772e+12 -1.76505e+12 -2.15159e+12 -2.9871e+12 -3.33712e+12 -3.69565e+12 -3.84576e+12 -4.29983e+12 -3.01437e+12 -1.18958e+12 -2.0985e+12 -3.87528e+12 -3.3042e+12 -2.04731e+12 -1.87221e+12 -2.14406e+12 -1.91618e+12 -2.88527e+12 -1.64028e+12 -2.68514e+12 -1.0464e+12 -1.60012e+12 -1.17411e+12 -1.23811e+12 -1.62804e+12 -536780000000.0 -1.07262e+12 -2.04331e+12 -1.48716e+12 -2.23556e+12 -1.65921e+12 -896455000000.0 -1.16564e+12 -1.25496e+12 -1.75602e+12 -1.52898e+12 -1.35664e+12 -1.72218e+12 -1.48444e+12 -700274000000.0 -1.09043e+12 -1.33975e+12 -1.29978e+12 -971828000000.0 -1.40815e+12 -1.29752e+12 -1.09025e+12 -1.31476e+12 -1.57751e+12 -1.93668e+12 -1.10279e+12 -1.11294e+12 -1.66118e+12 -1.1569e+12 -2.16859e+12 -1.30294e+12 -1.4809e+12 -2.32503e+12 -1.66037e+12 -2.26603e+12 -4.31553e+12 -3.23281e+12 -2.47566e+12 -3.12929e+12 -3.25253e+12 -2.17332e+12 -2.98166e+12 -1.40528e+12 -3.40185e+12 -3.73184e+12 -3.58705e+12 -4.45694e+12 -2.64659e+12 -3.01686e+12 -3.70142e+12 -3.18193e+12 -2.26964e+12 -2.29552e+12 -2.51326e+12 -4.75498e+12 -3.9979e+12 -4.2538e+12 -766023000000.0 -3.69053e+12 -1.22661e+12 -1.85015e+12 -4.53238e+12 -3.92702e+12 -2.45607e+12 -3.77585e+12 -3.24975e+12 -2.29558e+12 -2.07534e+12 -3.17805e+12 -5.57488e+12 -2.71052e+12 -3.60845e+12 -3.84792e+12 -1.99821e+12 -3.30034e+12 -2.47715e+12 -3.20775e+12 -2.74495e+12 -3.4547e+12 -2.14789e+12 -1.90861e+12 -4.56135e+12 -4.02619e+12 -4.71508e+12 -3.58282e+12 -3.94293e+12 -2.62121e+12 -2.96544e+12 -3.23564e+12 -2.77612e+12 -3.02857e+12 -3.89336e+12 -2.60205e+12 -2.66512e+12 -1.20355e+12 -3.67641e+12 -2.57314e+12 -3.27511e+12 -3.71956e+12 -1.81283e+12 -5.61706e+12 -1.76826e+12 -2.61636e+12 -2.77212e+12 -3.30076e+12 -3.28037e+12 -2.60944e+12 -2.68899e+12 -3.91456e+12 -1.51385e+12 -943549000000.0 -1.89943e+12 -2.94199e+12 -1.72579e+12 -809848000000.0 -1.70583e+12 -1.56963e+12 -2.6707e+12 -2.12201e+12 -1.09541e+12 -2.25663e+12 -2.09107e+12 -1.09165e+12 -1.5238e+12 -1.9047e+12 -1.88913e+12 -1.93116e+12 -1.12015e+12 -758370000000.0 -1.11873e+12 -1.19499e+12 -2.19416e+12 -1.1056e+12 -892936000000.0 -363386000000.0 -561687000000.0 -987520000000.0 -2.06323e+12 -1.03292e+12 -1.46342e+12 -1.34342e+12 -890756000000.0 -1.14851e+12 -30934400000.0 -879596000000.0 -985769000000.0 -1.01616e+12 -1.64645e+12 -830682000000.0 -1.21166e+12 -2.08067e+12 -1.2888e+12 -1.48888e+12 -882546000000.0 -2.44815e+12 -989421000000.0 -2.21122e+12 -2.34261e+12 -3.00099e+12 -1.83517e+12 -2.63039e+12 -1.87501e+12 -2.87927e+12 -3.35118e+12 -1.54268e+12 -1.68649e+12 -1.41686e+12 -3.00135e+12 -1.91501e+12 -4.14397e+12 -3.51992e+12 -3.93107e+12 -1.31941e+12 -3.68335e+12 -2.48944e+12 -2.40035e+12 -2.72567e+12 -3.25781e+12 -4.31688e+12 -3.62603e+12 -4.18066e+12 -5.31368e+12 -3.74986e+12 -1.77355e+12 -3.89853e+12 -2.84476e+12 -4.8946e+12 -4.37563e+12 -4.09522e+12 -4.20475e+12 -3.95092e+12 -6.09008e+12 -2.59643e+12 -2.48798e+12 -4.87728e+12 -3.77092e+12 -4.10892e+12 -4.97361e+12 -880286000000.0 -2.42226e+12 -4.00275e+12 -1.72581e+12 -3.35792e+12 -4.79372e+12 -6.02206e+12 -2.85689e+12 -3.01298e+12 -2.69408e+12 -4.07614e+12 -2.38292e+12 -4.59313e+12 -1.18446e+12 -2.69242e+12 -2.80797e+12 -3.52047e+12 -5.63893e+12 -2.18574e+12 -2.57912e+12 -2.79918e+12 -1.18227e+12 -2.72335e+12 -2.80555e+12 -2.25535e+12 -1.95681e+12 -1.99854e+12 -3.81144e+12 -2.69056e+12 -1.87786e+12 -3.02685e+12 -2.02903e+12 -2.57142e+12 -3.78708e+12 -2.02835e+12 -1.19615e+12 -906542000000.0 -1.57801e+12 -2.71373e+12 -1.62896e+12 -831004000000.0 -1.08746e+12 -1.64688e+12 -1.4194e+12 -1.48842e+12 -1.36231e+12 -1.12349e+12 -559553000000.0 -491376000000.0 -762681000000.0 -201521000000.0 -705309000000.0 -994382000000.0 -1.08604e+12 -843066000000.0 -427881000000.0 -991742000000.0 -1.37448e+12 -1.20048e+12 -1.64903e+12 -857459000000.0 -682770000000.0 -541732000000.0 -389917000000.0 -816359000000.0 -596164000000.0 -450392000000.0 -853034000000.0 -1.46657e+12 -1.1141e+12 -1.57931e+12 -1.05464e+12 -1.75611e+12 -350847000000.0 -1.93683e+12 -1.45156e+12 -2.51898e+12 -1.10631e+12 -805480000000.0 -597087000000.0 -1.34488e+12 -1.68049e+12 -2.70082e+12 -4.20851e+12 -1.96841e+12 -3.5001e+12 -2.16689e+12 -2.8915e+12 -1.90634e+12 -2.14067e+12 -1.60956e+12 -3.04923e+12 -5.0696e+12 -2.61409e+12 -2.4708e+12 -634967000000.0 -1.90693e+12 -3.62245e+12 -3.64779e+12 -2.24204e+12 -2.5716e+12 -2.31772e+12 -5.09453e+12 -3.06126e+12 -5.17706e+12 -2.85291e+12 -2.65342e+12 -4.04287e+12 -3.57083e+12 -2.976e+12 -2.99724e+12 -4.37861e+12 -2.99453e+12 -3.89296e+12 -4.58097e+12 -3.03879e+12 -2.42055e+12 -4.03289e+12 -3.59129e+12 -3.00148e+12 -4.18723e+12 -2.67367e+12 -3.11964e+12 -4.79417e+12 -3.80835e+12 -1.30868e+12 -3.18179e+12 -3.36869e+12 -3.80164e+12 -2.44439e+12 -3.63761e+12 -3.98667e+12 -3.30706e+12 -1.48535e+12 -3.08688e+12 -2.50371e+12 -2.43126e+12 -1.76957e+12 -2.90175e+12 -3.29031e+12 -1.74475e+12 -1.76294e+12 -3.08944e+12 -2.2247e+12 -1.87198e+12 -3.32004e+12 -2.79063e+12 -2.05304e+12 -1.77851e+12 -3.1783e+12 -1.98642e+12 -904110000000.0 -2.50985e+12 -1.65906e+12 -3.09765e+12 -2.51994e+12 -2.14538e+12 -2.40456e+12 -456367000000.0 -2.02316e+12 -810966000000.0 -1.31043e+12 -1.19637e+12 -1.53664e+12 -831529000000.0 -2.04147e+12 -773318000000.0 -1.33283e+12 -1.49855e+12 -1.28676e+12 -1.27483e+12 -628424000000.0 -806107000000.0 -1.15617e+12 -1.19509e+12 -654901000000.0 -820200000000.0 -94389100000.0 -1.04227e+12 -1.20841e+12 -1.13859e+12 -884993000000.0 -476773000000.0 -49543600000.0 -408050000000.0 -523996000000.0 -944607000000.0 -588060000000.0 -677351000000.0 -421653000000.0 -1.31611e+12 -844907000000.0 -702930000000.0 -579069000000.0 -1.57591e+12 -768546000000.0 -1.37042e+12 -1.79358e+12 -596985000000.0 -1.52557e+12 -2.54194e+12 -1.28755e+12 -3.17039e+12 -1.60385e+12 -1.56146e+12 -3.17627e+12 -2.43803e+12 -1.58384e+12 -2.09954e+12 -1.91706e+12 -2.45374e+12 -3.54072e+12 -2.70169e+12 -867857000000.0 -2.04576e+12 -2.66324e+12 -3.78448e+12 -2.42548e+12 -2.78697e+12 -3.30323e+12 -1.97527e+12 -3.39236e+12 -2.52308e+12 -2.00924e+12 -3.05569e+12 -4.11673e+12 -2.29059e+12 -3.45151e+12 -2.20654e+12 -2.02975e+12 -2.69175e+12 -3.13815e+12 -3.66774e+12 -3.69479e+12 -3.62997e+12 -3.61827e+12 -5.2624e+12 -1.59608e+12 -1.44638e+12 -2.5394e+12 -4.09744e+12 -1.8384e+12 -2.03115e+12 -2.00329e+12 -3.54923e+12 -2.90144e+12 -1.26586e+12 -1.80047e+12 -4.30837e+12 -1.2125e+12 -3.09061e+12 -2.38748e+12 -1.22494e+12 -451965000000.0 -3.22891e+12 -599421000000.0 -1.75329e+12 -1.51082e+12 -2.13343e+12 -2.47044e+12 -2.31166e+12 -2.06826e+12 -2.69832e+12 -2.52344e+12 -1.96267e+12 -2.09144e+12 -2.41274e+12 -2.38707e+12 -2.46695e+12 -2.05161e+12 -1.91518e+12 -693953000000.0 -1.96792e+12 -1.75076e+12 -1.69011e+12 -1.54007e+12 -770268000000.0 -1.6152e+12 -676823000000.0 -660349000000.0 -1.50218e+12 -1.50064e+12 -1.75633e+12 -1.09004e+12 -1.61707e+12 -1.36896e+12 -1.65027e+12 -347179000000.0 -1.38789e+12 -22603900000.0 -741407000000.0 -899011000000.0 -381818000000.0 -414998000000.0 -337067000000.0 -894015000000.0 -1.21996e+12 -377253000000.0 -518635000000.0 -961692000000.0 -587735000000.0 -280497000000.0 -927764000000.0 -635600000000.0 -837416000000.0 -676991000000.0 -1.1092e+12 -353285000000.0 -1.12183e+12 -1.24986e+12 -137574000000.0 -1.13155e+12 -539698000000.0 -709620000000.0 -366468000000.0 -891413000000.0 -959214000000.0 -768884000000.0 -1.55193e+12 -1.8411e+12 -640579000000.0 -394018000000.0 -1.08735e+12 -936762000000.0 -1.63003e+12 -2.37541e+12 -1.1674e+12 -1.46794e+12 -1.22582e+12 -3.24575e+12 -2.48748e+12 -455046000000.0 -2.42038e+12 -2.33817e+12 -1.70425e+12 -2.47237e+12 -1.13169e+12 -2.75909e+12 -2.37182e+12 -2.97064e+12 -2.76873e+12 -956815000000.0 -1.16085e+12 -1.96828e+12 -2.57303e+12 -1.82362e+12 -3.22612e+12 -1.67539e+12 -965679000000.0 -4.07708e+12 -1.64179e+12 -2.44933e+12 -2.13996e+12 -2.37553e+12 -2.05204e+12 -1.54664e+12 -1.0168e+12 -2.5932e+12 -4.22066e+12 -2.22162e+12 -2.2837e+12 -919747000000.0 -1.57765e+12 -3.40078e+12 -3.05401e+12 -2.54494e+12 -3.28468e+12 -2.05251e+12 -1.02373e+12 -2.75059e+12 -2.64372e+12 -2.55399e+12 -1.82592e+12 -1.9116e+12 -2.19298e+12 -2.1684e+12 -1.14996e+12 -1.68673e+12 -2.57828e+12 -1.16577e+12 -2.60597e+12 -3.1033e+12 -2.91234e+12 -2.21215e+12 -2.77815e+12 -618531000000.0 -1.89342e+12 -1.31455e+12 -1.28597e+12 -1.28533e+12 -2.48999e+12 -1.50909e+12 -1.44093e+12 -639326000000.0 -1.12859e+12 -1.14026e+12 -131440000000.0 -885927000000.0 -923071000000.0 -469384000000.0 -317212000000.0 -685452000000.0 -483424000000.0 -503579000000.0 -395498000000.0 -579339000000.0 -516197000000.0 -385512000000.0 -310053000000.0 -554252000000.0 -731995000000.0 -718844000000.0 -170691000000.0 -196723000000.0 -313254000000.0 -332577000000.0 -412099000000.0 -555084000000.0 -290552000000.0 -1.06555e+12 -409095000000.0 -846511000000.0 -1.261e+12 -604367000000.0 -982668000000.0 -1.18088e+12 -670448000000.0 -186244000000.0 -714651000000.0 -332127000000.0 -366322000000.0 -349545000000.0 -2.1433e+12 -797163000000.0 -67255000000.0 -1.18896e+12 -1.00418e+12 -557124000000.0 -1.63127e+12 -2.10487e+12 -706339000000.0 -1.35113e+12 -880046000000.0 -608371000000.0 -2.1711e+12 -2.15552e+12 -641658000000.0 -1.52654e+12 -1.58313e+12 -1.39897e+12 -1.90172e+12 -2.40949e+12 -1.13093e+12 -2.18895e+12 -2.57569e+12 -3.19089e+12 -2.51839e+12 -2.36632e+12 -2.51892e+12 -1.67779e+12 -2.44903e+12 -2.6492e+12 -2.08944e+12 -1.41076e+12 -2.94697e+12 -2.34968e+12 -1.87304e+12 -1.8325e+12 -4.01626e+12 -2.22064e+12 -1.628e+12 -1.97172e+12 -1.22572e+12 -850429000000.0 -1.02136e+12 -2.30292e+12 -2.27671e+12 -458829000000.0 -2.72954e+12 -4.03958e+12 -1.78073e+12 -1.36504e+12 -1.78871e+12 -1.18546e+12 -2.16682e+12 -1.91066e+12 -1.38371e+12 -1.47476e+12 -746931000000.0 -1.46728e+12 -1.40907e+12 -2.55873e+12 -1.01091e+12 -1.91377e+12 -1.74005e+12 -2.87849e+12 -1.44047e+12 -993208000000.0 -671068000000.0 -463396000000.0 -1.63242e+12 -1.45352e+12 -926015000000.0 -579523000000.0 -724716000000.0 -1.3857e+12 -103529000000.0 -772151000000.0 -1.37203e+12 -394463000000.0 -287832000000.0 -62887300000.0 -730401000000.0 -452716000000.0 -592122000000.0 -624839000000.0 -479072000000.0 -449557000000.0 -419998000000.0 -360531000000.0 -416590000000.0 -523062000000.0 -243401000000.0 -888973000000.0 -658661000000.0 -380187000000.0 -260753000000.0 -952559000000.0 -271308000000.0 -856934000000.0 -795074000000.0 -349654000000.0 -972541000000.0 -746975000000.0 -134691000000.0 -555729000000.0 -471587000000.0 -303179000000.0 -507330000000.0 -506023000000.0 -1.36625e+12 -873946000000.0 -1.19343e+12 -314186000000.0 -1.03138e+12 -969144000000.0 -909679000000.0 -1.34753e+12 -1.35552e+12 -721051000000.0 -766471000000.0 -1.03687e+12 -589543000000.0 -1.05049e+12 -1.2763e+12 -757463000000.0 -1.21846e+12 -1.40522e+12 -1.6722e+12 -1.90776e+12 -1.3931e+12 -194606000000.0 -1.68852e+12 -2.38129e+12 -2.44154e+12 -1.70466e+12 -2.56306e+12 -2.07997e+12 -1.84883e+12 -2.46796e+12 -3.32894e+12 -2.34302e+12 -3.19289e+12 -2.00049e+12 -2.57831e+12 -1.83805e+12 -1.20384e+12 -1.93129e+12 -1.74718e+12 -2.43817e+12 -2.99018e+12 -1.55433e+12 -1.72384e+12 -2.70551e+12 -3.42474e+12 -2.25841e+12 -1.91884e+12 -1.51185e+12 -635326000000.0 -2.69191e+12 -1.51833e+12 -2.30202e+12 -1.54558e+12 -169747000000.0 -2.01435e+12 -2.47627e+12 -1.20401e+12 -1.1612e+12 -1.34742e+12 -2.43415e+12 -1.64569e+12 -1.84011e+12 -814356000000.0 -2.20886e+12 -1.01138e+12 -2.59543e+12 -868927000000.0 -583160000000.0 -1.52442e+12 -1.81914e+12 -1.67716e+12 -1.33094e+12 -1.35763e+12 -1.71224e+12 -398173000000.0 -647811000000.0 -1.23767e+12 -1.20906e+12 -965890000000.0 -1.38487e+12 -991234000000.0 -671724000000.0 -1.06639e+12 -173104000000.0 -234154000000.0 -680749000000.0 -544850000000.0 -775027000000.0 -470506000000.0 -577763000000.0 -32936000000.0 -273962000000.0 -113393000000.0 -220650000000.0 -220426000000.0 -265149000000.0 -255829000000.0 -240511000000.0 -261250000000.0 -156860000000.0 -364106000000.0 -217316000000.0 -624733000000.0 -450600000000.0 -649374000000.0 -324567000000.0 -165057000000.0 -503335000000.0 -508488000000.0 -334920000000.0 -301007000000.0 -491397000000.0 -581179000000.0 -31296100000.0 -172306000000.0 -408154000000.0 -126292000000.0 -985276000000.0 -352142000000.0 -358679000000.0 -552793000000.0 -961025000000.0 -683697000000.0 -1.2815e+12 -890179000000.0 -1.27701e+12 -1.01021e+12 -411274000000.0 -933978000000.0 -992133000000.0 -886328000000.0 -236179000000.0 -1.46958e+12 -466541000000.0 -832821000000.0 -1.06162e+12 -1.35299e+12 -1.44452e+12 -1.58977e+12 -870077000000.0 -1.56864e+12 -1.9569e+12 -1.26231e+12 -707626000000.0 -1.85416e+12 -972549000000.0 -1.11134e+12 -2.19258e+12 -914682000000.0 -1.7241e+12 -1.9126e+12 -1.75134e+12 -1.56492e+12 -1.08935e+12 -836548000000.0 -1.96763e+12 -2.83715e+12 -1.12219e+12 -764440000000.0 -2.08392e+12 -2.49668e+12 -1.29633e+12 -880185000000.0 -2.95236e+12 -1.99668e+12 -1.49618e+12 -2.47053e+12 -1.96366e+12 -904898000000.0 -2.25417e+12 -1.80953e+12 -1.74045e+12 -850462000000.0 -1.84259e+12 -1.7815e+12 -577038000000.0 -1.34441e+12 -1.09816e+12 -793782000000.0 -1.2549e+12 -1.75758e+12 -1.27395e+12 -1.23219e+12 -1.48663e+12 -1.50421e+12 -369086000000.0 -709959000000.0 -945549000000.0 -554423000000.0 -705100000000.0 -881144000000.0 -445966000000.0 -397762000000.0 -269824000000.0 -633022000000.0 -112323000000.0 -397712000000.0 -678918000000.0 -567254000000.0 -531169000000.0 -182851000000.0 -465633000000.0 -230001000000.0 -12549600000.0 -169924000000.0 -110174000000.0 -90829700000.0 -122119000000.0 -249179000000.0 -244073000000.0 -291245000000.0 -248564000000.0 -338240000000.0 -153289000000.0 -230620000000.0 -607268000000.0 -77547000000.0 -515384000000.0 -339978000000.0 -388971000000.0 -294869000000.0 -488482000000.0 -394123000000.0 -808492000000.0 -486433000000.0 -743472000000.0 -906594000000.0 -836487000000.0 -1.15362e+12 -343430000000.0 -336068000000.0 -428018000000.0 -576622000000.0 -930630000000.0 -1.0799e+12 -1.16757e+12 -604810000000.0 -1.23118e+12 -913482000000.0 -499921000000.0 -1.09342e+12 -724766000000.0 -1.71528e+12 -1.92894e+12 -1.30604e+12 -861934000000.0 -1.33341e+12 -1.24148e+12 -1.47438e+12 -865845000000.0 -1.06664e+12 -815393000000.0 -1.74139e+12 -1.61586e+12 -355794000000.0 -2.24738e+12 -1.21143e+12 -1.01736e+12 -2.02549e+12 -1.815e+12 -744403000000.0 -1.73478e+12 -1.72865e+12 -1.64737e+12 -2.32359e+12 -1.40439e+12 -1.47469e+12 -1.44165e+12 -1.22311e+12 -1.04777e+12 -790330000000.0 -1.3253e+12 -1.36849e+12 -762777000000.0 -1.4922e+12 -895397000000.0 -1.37581e+12 -1.06321e+12 -877877000000.0 -1.03615e+12 -1.15598e+12 -445500000000.0 -280562000000.0 -731285000000.0 -518446000000.0 -1.44662e+12 -706559000000.0 -646745000000.0 -1.09919e+12 -554610000000.0 -692333000000.0 -833496000000.0 -272106000000.0 -521222000000.0 -878870000000.0 -819476000000.0 -1.21363e+12 -811387000000.0 -159629000000.0 -825457000000.0 -400551000000.0 -594127000000.0 -528462000000.0 -296714000000.0 -467640000000.0 -141912000000.0 -460250000000.0 -411594000000.0 -411894000000.0 -358035000000.0 -126834000000.0 -345550000000.0 -160542000000.0 -163978000000.0 -240279000000.0 -232271000000.0 -203143000000.0 -297326000000.0 -178690000000.0 -126210000000.0 -282677000000.0 -212296000000.0 -49793400000.0 -257150000000.0 -244621000000.0 -272828000000.0 -395475000000.0 -440287000000.0 -414850000000.0 -493572000000.0 -127570000000.0 -105818000000.0 -234343000000.0 -415291000000.0 -239371000000.0 -365339000000.0 -234974000000.0 -113597000000.0 -464874000000.0 -508287000000.0 -270896000000.0 -23020200000.0 -602482000000.0 -371371000000.0 -615207000000.0 -437677000000.0 -274757000000.0 -1.03188e+12 -1.18313e+12 -641510000000.0 -1.15682e+12 -989849000000.0 -344666000000.0 -356177000000.0 -998060000000.0 -824404000000.0 -606054000000.0 -925902000000.0 -1.53791e+12 -1.04556e+12 -449635000000.0 -2.0541e+12 -270977000000.0 -1.40075e+12 -1.1197e+12 -1.08137e+12 -838807000000.0 -1.19169e+12 -1.45412e+12 -231145000000.0 -1.21067e+12 -1.23853e+12 -1.73963e+12 -2.53872e+12 -1.02762e+12 -1.23617e+12 -581376000000.0 -607782000000.0 -529515000000.0 -942775000000.0 -1.56401e+12 -473692000000.0 -910610000000.0 -93035500000.0 -1.28308e+12 -530767000000.0 -546518000000.0 -1.08977e+12 -982354000000.0 -1.38548e+12 -885382000000.0 -443141000000.0 -343458000000.0 -994298000000.0 -1.21828e+12 -181891000000.0 -1.05798e+12 -623884000000.0 -958721000000.0 -1.12273e+12 -830830000000.0 -589312000000.0 -913677000000.0 -512428000000.0 -372680000000.0 -1.11276e+12 -906157000000.0 -615219000000.0 -746746000000.0 -162589000000.0 -63594100000.0 -389228000000.0 -113911000000.0 -414563000000.0 -385862000000.0 -328734000000.0 -334952000000.0 -429809000000.0 -340121000000.0 -288983000000.0 -119100000000.0 -307392000000.0 -285267000000.0 -147225000000.0 -262163000000.0 -150164000000.0 -189573000000.0 -225031000000.0 -106968000000.0 -127844000000.0 -142858000000.0 -96820300000.0 -205625000000.0 -107227000000.0 -272377000000.0 -153599000000.0 -32731100000.0 -15227400000.0 -297959000000.0 -19627500000.0 -411336000000.0 -193453000000.0 -207949000000.0 -349485000000.0 -105427000000.0 -185728000000.0 -197103000000.0 -237195000000.0 -232146000000.0 -479414000000.0 -470685000000.0 -76983000000.0 -500458000000.0 -632096000000.0 -1.01606e+12 -805785000000.0 -613206000000.0 -106933000000.0 -748825000000.0 -611950000000.0 -787127000000.0 -255284000000.0 -838869000000.0 -481177000000.0 -29061600000.0 -1.28825e+12 -593324000000.0 -484941000000.0 -582251000000.0 -1.4824e+12 -1.03936e+12 -2.16587e+12 -1.57087e+12 -868082000000.0 -621134000000.0 -585494000000.0 -1.0898e+12 -600501000000.0 -1.40458e+12 -639061000000.0 -1.22435e+12 -915025000000.0 -345418000000.0 -1.00023e+12 -1.1689e+12 -1.27932e+12 -2.17146e+12 -1.5238e+12 -749365000000.0 -965164000000.0 -539954000000.0 -499622000000.0 -1.04795e+12 -20794600000.0 -388600000000.0 -1.07815e+12 -573473000000.0 -880730000000.0 -345729000000.0 -363999000000.0 -557652000000.0 -502355000000.0 -914893000000.0 -406742000000.0 -890048000000.0 -941563000000.0 -995001000000.0 -684794000000.0 -819781000000.0 -770208000000.0 -198218000000.0 -639206000000.0 -820015000000.0 -335951000000.0 -731474000000.0 -581008000000.0 -426091000000.0 -186522000000.0 -266480000000.0 -273316000000.0 -63851300000.0 -291373000000.0 -577785000000.0 -177507000000.0 -133090000000.0 -127057000000.0 -182326000000.0 -92902300000.0 -330781000000.0 -241765000000.0 -354411000000.0 -47755400000.0 -30197500000.0 -237243000000.0 -170596000000.0 -141893000000.0 -28865600000.0 -31571500000.0 -23113400000.0 -47947700000.0 -97133800000.0 -121575000000.0 -55389000000.0 -83295300000.0 -89559900000.0 -53506800000.0 -112692000000.0 -99512800000.0 -160515000000.0 -164580000000.0 -161152000000.0 -244095000000.0 -132359000000.0 -331056000000.0 -31650600000.0 -431343000000.0 -491589000000.0 -260841000000.0 -763047000000.0 -321355000000.0 -148554000000.0 -414632000000.0 -72974200000.0 -252957000000.0 -175202000000.0 -338682000000.0 -194522000000.0 -409121000000.0 -65388800000.0 -168960000000.0 -1.06814e+12 -885028000000.0 -422824000000.0 -405156000000.0 -186797000000.0 -748876000000.0 -854113000000.0 -290649000000.0 -1.05962e+12 -339765000000.0 -1.0549e+12 -458605000000.0 -745202000000.0 -529045000000.0 -643323000000.0 -765108000000.0 -638967000000.0 -388435000000.0 -1.05018e+12 -739914000000.0 -388198000000.0 -163472000000.0 -1.37031e+12 -873237000000.0 -315958000000.0 -1.42668e+12 -309060000000.0 -695300000000.0 -1.15409e+12 -231922000000.0 -1.17896e+12 -807319000000.0 -420405000000.0 -666921000000.0 -608730000000.0 -643692000000.0 -401687000000.0 -541187000000.0 -652632000000.0 -441656000000.0 -386440000000.0 -192420000000.0 -298909000000.0 -831314000000.0 -665634000000.0 -645025000000.0 -567723000000.0 -515176000000.0 -930076000000.0 -225321000000.0 -668832000000.0 -170326000000.0 -786841000000.0 -163120000000.0 -461851000000.0 -394716000000.0 -420406000000.0 -324675000000.0 -433733000000.0 -462170000000.0 -274056000000.0 -352773000000.0 -403563000000.0 -98929700000.0 -75522500000.0 -35097000000.0 -121182000000.0 -83505600000.0 -108177000000.0 -292783000000.0 -124139000000.0 -103543000000.0 -147973000000.0 -51252000000.0 -29234200000.0 -27877900000.0 -55884700000.0 -69804100000.0 -31612400000.0 -46859000000.0 -48513200000.0 -12549700000.0 -57089300000.0 -42237000000.0 -115979000000.0 -153288000000.0 -216477000000.0 -205237000000.0 -40769500000.0 -187760000000.0 -117375000000.0 -52391200000.0 -149548000000.0 -209584000000.0 -74929600000.0 -117062000000.0 -61751300000.0 -293569000000.0 -40388600000.0 -267046000000.0 -334532000000.0 -842155000000.0 -563553000000.0 -374720000000.0 -303328000000.0 -165033000000.0 -91348700000.0 -272412000000.0 -982584000000.0 -922328000000.0 -291836000000.0 -1.34781e+12 -1.0078e+12 -422269000000.0 -442124000000.0 -827831000000.0 -1.20795e+12 -522775000000.0 -394856000000.0 -989190000000.0 -1.29494e+12 -571767000000.0 -608775000000.0 -602255000000.0 -506903000000.0 -453889000000.0 -819174000000.0 -374006000000.0 -699534000000.0 -286184000000.0 -861021000000.0 -235247000000.0 -183678000000.0 -549198000000.0 -622091000000.0 -256203000000.0 -775293000000.0 -235577000000.0 -764676000000.0 -71801300000.0 -450149000000.0 -809310000000.0 -248662000000.0 -303504000000.0 -209847000000.0 -510749000000.0 -173558000000.0 -165613000000.0 -543115000000.0 -710674000000.0 -150519000000.0 -206619000000.0 -312735000000.0 -102717000000.0 -135799000000.0 -89233200000.0 -163498000000.0 -223651000000.0 -166999000000.0 -22569600000.0 -95618700000.0 -136944000000.0 -209506000000.0 -315819000000.0 -132583000000.0 -115794000000.0 -109542000000.0 -161189000000.0 -82608100000.0 -19964000000.0 -39631000000.0 -66439700000.0 -158241000000.0 -50105900000.0 -13078000000.0 -73356300000.0 -25313000000.0 -13708900000.0 -12549700000.0 -26294400000.0 -52453400000.0 -40415000000.0 -17777600000.0 -37991500000.0 -21270700000.0 -63834600000.0 -47303600000.0 -53644400000.0 -119786000000.0 -95776400000.0 -80412000000.0 -62895300000.0 -57096400000.0 -210312000000.0 -51142000000.0 -101268000000.0 -35057400000.0 -132096000000.0 -130185000000.0 -112065000000.0 -150158000000.0 -218633000000.0 -419413000000.0 -377874000000.0 -61423100000.0 -315463000000.0 -224304000000.0 -241056000000.0 -190032000000.0 -714133000000.0 -538492000000.0 -288695000000.0 -448480000000.0 -800163000000.0 -235729000000.0 -500928000000.0 -793074000000.0 -372719000000.0 -350431000000.0 -421248000000.0 -342751000000.0 -1.19421e+12 -400385000000.0 -623004000000.0 -566861000000.0 -421231000000.0 -967285000000.0 -48667000000.0 -837665000000.0 -419515000000.0 -377961000000.0 -605328000000.0 -251597000000.0 -523402000000.0 -595547000000.0 -506027000000.0 -275319000000.0 -398472000000.0 -252639000000.0 -227562000000.0 -517653000000.0 -314675000000.0 -549799000000.0 -232215000000.0 -304541000000.0 -366307000000.0 -130719000000.0 -424443000000.0 -109475000000.0 -205824000000.0 -328683000000.0 -256041000000.0 -166896000000.0 -353413000000.0 -268018000000.0 -599902000000.0 -256007000000.0 -408340000000.0 -234811000000.0 -258279000000.0 -214547000000.0 -113433000000.0 -168963000000.0 -219323000000.0 -213815000000.0 -314264000000.0 -16939600000.0 -51959400000.0 -18482000000.0 -71146600000.0 -13468100000.0 -53768600000.0 -12549700000.0 -37368600000.0 -68901600000.0 -25478900000.0 -33746100000.0 -33033900000.0 -104059000000.0 -22052500000.0 -13906000000.0 -46870500000.0 -34109600000.0 -12659100000.0 -12549700000.0 -13053700000.0 -16301200000.0 -38976800000.0 -14564000000.0 -42154800000.0 -84052200000.0 -74324000000.0 -34837200000.0 -40972000000.0 -67863700000.0 -32917500000.0 -45130600000.0 -41935400000.0 -17204000000.0 -97314400000.0 -32073400000.0 -88023900000.0 -19116800000.0 -42152400000.0 -90543500000.0 -129307000000.0 -116990000000.0 -104001000000.0 -49184200000.0 -115839000000.0 -54348800000.0 -255946000000.0 -467350000000.0 -188234000000.0 -289859000000.0 -289150000000.0 -460314000000.0 -40971100000.0 -118673000000.0 -166524000000.0 -258936000000.0 -14404000000.0 -271052000000.0 -214580000000.0 -113130000000.0 -287106000000.0 -493694000000.0 -55859400000.0 -595144000000.0 -243626000000.0 -523318000000.0 -515694000000.0 -354299000000.0 -622545000000.0 -188743000000.0 -327865000000.0 -41954700000.0 -298014000000.0 -51385100000.0 -82101300000.0 -187378000000.0 -267906000000.0 -96284800000.0 -70892300000.0 -259435000000.0 -218225000000.0 -244255000000.0 -146483000000.0 -270776000000.0 -265936000000.0 -107009000000.0 -249849000000.0 -85929900000.0 -68910100000.0 -70402600000.0 -182669000000.0 -102671000000.0 -35855400000.0 -142782000000.0 -217765000000.0 -51071900000.0 -26184500000.0 -29368800000.0 -13635100000.0 -125724000000.0 -95158200000.0 -100799000000.0 -81003000000.0 -86103700000.0 -213404000000.0 -58650200000.0 -19024100000.0 -22912400000.0 -26603000000.0 -13573500000.0 -15756900000.0 -14404600000.0 -28464000000.0 -41402000000.0 -31856400000.0 -20403700000.0 -18972400000.0 -19299200000.0 -19336300000.0 -20938600000.0 -33598700000.0 -28425400000.0 -36548700000.0 -16853000000.0 -14315600000.0 -22910400000.0 -20357000000.0 -34941000000.0 -24460900000.0 -29181100000.0 -38508300000.0 -34554900000.0 -24033800000.0 -69772900000.0 -58897900000.0 -88092000000.0 -71180200000.0 -96568400000.0 -52657700000.0 -71135300000.0 -163896000000.0 -80998500000.0 -64096100000.0 -117791000000.0 -136745000000.0 -180898000000.0 -63811500000.0 -165130000000.0 -306704000000.0 -22227800000.0 -160255000000.0 -47663900000.0 -186834000000.0 -70203800000.0 -65665000000.0 -180698000000.0 -83082400000.0 -201358000000.0 -272691000000.0 -61243700000.0 -215028000000.0 -125942000000.0 -362752000000.0 -187835000000.0 -429265000000.0 -261741000000.0 -294960000000.0 -340474000000.0 -129727000000.0 -348910000000.0 -411209000000.0 -81192000000.0 -50888400000.0 -124657000000.0 -114507000000.0 -38765800000.0 -57139800000.0 -67492900000.0 -35304700000.0 -53820300000.0 -88028700000.0 -64037000000.0 -18635400000.0 -49851100000.0 -45813300000.0 -27718400000.0 -21721700000.0 -61477000000.0 -64985000000.0 -31758500000.0 -17722300000.0 -62034400000.0 -40450900000.0 -60339700000.0 -61334400000.0 -78394300000.0 -41897600000.0 -60252600000.0 -23326900000.0 -25674800000.0 -64559900000.0 -46689300000.0 -82491100000.0 -46869500000.0 -104724000000.0 -87804600000.0 -76947200000.0 -70135100000.0 -44728200000.0 -57309300000.0 -57276600000.0 -99106000000.0 -110922000000.0 -48032300000.0 -69745200000.0 -38387800000.0 