# vtk DataFile Version 2.0
Time step 45
ASCII
DATASET UNSTRUCTURED_GRID
POINTS 5000 float
207635.0 321049.0 0
213178.0 322166.0 0
289413.0 321070.0 0
297464.0 320942.0 0
202706.0 322868.0 0
206565.0 325364.0 0
209458.0 324257.0 0
211330.0 327345.0 0
217090.0 326443.0 0
222038.0 324500.0 0
228341.0 325995.0 0
231804.0 323801.0 0
232490.0 327098.0 0
236988.0 325565.0 0
267129.0 326484.0 0
272212.0 324211.0 0
280508.0 323000.0 0
286779.0 326357.0 0
297178.0 326198.0 0
202416.0 327905.0 0
207031.0 329688.0 0
214581.0 331102.0 0
220557.0 330882.0 0
224562.0 328240.0 0
225882.0 332373.0 0
230095.0 330379.0 0
235044.0 330771.0 0
242385.0 327773.0 0
244894.0 332786.0 0
249648.0 328534.0 0
256004.0 328290.0 0
260851.0 328542.0 0
264646.0 330581.0 0
268884.0 331468.0 0
271875.0 328777.0 0
276317.0 327879.0 0
278389.0 332294.0 0
281698.0 328893.0 0
285611.0 331048.0 0
289167.0 331452.0 0
292200.0 328135.0 0
296661.0 332226.0 0
203009.0 333155.0 0
201911.0 337710.0 0
206380.0 337432.0 0
210078.0 333817.0 0
217353.0 334870.0 0
222397.0 336459.0 0
228018.0 337108.0 0
231849.0 334330.0 0
236149.0 335805.0 0
239859.0 332607.0 0
249033.0 334159.0 0
246452.0 337646.0 0
252984.0 333428.0 0
257196.0 332793.0 0
256090.0 337217.0 0
261267.0 332939.0 0
260747.0 337245.0 0
265508.0 335492.0 0
270090.0 335356.0 0
273645.0 332784.0 0
276933.0 335936.0 0
282994.0 332772.0 0
281184.0 336038.0 0
285944.0 335300.0 0
289903.0 334843.0 0
293328.0 335991.0 0
203449.0 341796.0 0
213391.0 337976.0 0
209455.0 342224.0 0
218095.0 339100.0 0
221763.0 342369.0 0
224992.0 339818.0 0
227863.0 342089.0 0
232619.0 338481.0 0
231893.0 341990.0 0
236463.0 340355.0 0
241000.0 337979.0 0
244346.0 342166.0 0
249202.0 341916.0 0
251258.0 337631.0 0
253886.0 341483.0 0
258697.0 341463.0 0
264177.0 341417.0 0
268812.0 338960.0 0
269001.0 342857.0 0
273316.0 338074.0 0
271201.0 341001.0 0
274008.0 342615.0 0
278398.0 340693.0 0
284233.0 340289.0 0
289972.0 339054.0 0
296212.0 340692.0 0
202016.0 345889.0 0
206077.0 346797.0 0
211260.0 347958.0 0
215684.0 343865.0 0
220403.0 347751.0 0
225347.0 346438.0 0
234897.0 344163.0 0
230852.0 346346.0 0
239544.0 344342.0 0
243380.0 345761.0 0
247289.0 346395.0 0
252095.0 345853.0 0
256179.0 344661.0 0
260473.0 346712.0 0
266508.0 347582.0 0
271758.0 345938.0 0
277101.0 347225.0 0
281578.0 344405.0 0
285401.0 345802.0 0
288047.0 342792.0 0
289636.0 345997.0 0
291541.0 342998.0 0
293385.0 345670.0 0
297554.0 346197.0 0
202043.0 349650.0 0
207360.0 352014.0 0
215986.0 349514.0 0
219391.0 352567.0 0
224061.0 351758.0 0
228164.0 349983.0 0
231490.0 350660.0 0
235961.0 349352.0 0
240560.0 348750.0 0
243894.0 348618.0 0
242589.0 352567.0 0
246722.0 350777.0 0
250308.0 349864.0 0
254028.0 352243.0 0
255785.0 348349.0 0
258448.0 351952.0 0
263069.0 352198.0 0
267792.0 353194.0 0
271201.0 350340.0 0
274640.0 352282.0 0
277995.0 351885.0 0
280472.0 350833.0 0
282308.0 348322.0 0
284205.0 352302.0 0
287260.0 349233.0 0
291292.0 349275.0 0
294813.0 348713.0 0
297875.0 350465.0 0
202312.0 353546.0 0
201931.0 357361.0 0
205524.0 356698.0 0
213229.0 353579.0 0
209611.0 356300.0 0
217986.0 357644.0 0
222228.0 355494.0 0
229065.0 353366.0 0
226540.0 356543.0 0
233113.0 354405.0 0
238304.0 355095.0 0
242644.0 357743.0 0
246622.0 355112.0 0
250531.0 353874.0 0
250521.0 357972.0 0
254980.0 357085.0 0
259960.0 356889.0 0
265149.0 357161.0 0
271124.0 354176.0 0
274027.0 356611.0 0
277154.0 354573.0 0
280088.0 354098.0 0
282659.0 357082.0 0
289062.0 352908.0 0
286794.0 356405.0 0
294221.0 353012.0 0
291452.0 356766.0 0
295508.0 357130.0 0
298509.0 356598.0 0
298384.0 353889.0 0
201644.0 360308.0 0
204495.0 360584.0 0
208425.0 360555.0 0
213000.0 358884.0 0
212079.0 362708.0 0
223349.0 359666.0 0
227853.0 361591.0 0
230772.0 358459.0 0
235124.0 359044.0 0
239165.0 360499.0 0
243324.0 363027.0 0
246499.0 359755.0 0
249373.0 361304.0 0
253310.0 362736.0 0
258297.0 361937.0 0
262615.0 360804.0 0
269762.0 358633.0 0
266062.0 361934.0 0
274158.0 361323.0 0
277998.0 358455.0 0
280977.0 361375.0 0
284680.0 360931.0 0
288938.0 360519.0 0
293864.0 361015.0 0
297892.0 359799.0 0
202324.0 363617.0 0
205610.0 364327.0 0
209245.0 365425.0 0
212921.0 365966.0 0
216060.0 363538.0 0
220425.0 362997.0 0
224518.0 364642.0 0
228593.0 366297.0 0
233007.0 363867.0 0
238374.0 365627.0 0
242652.0 367821.0 0
247992.0 364270.0 0
246709.0 368089.0 0
251148.0 367768.0 0
256959.0 368488.0 0
261970.0 365083.0 0
266366.0 366858.0 0
270198.0 363772.0 0
274113.0 366037.0 0
277738.0 363537.0 0
278265.0 368290.0 0
282326.0 365404.0 0
286019.0 364313.0 0
286229.0 367778.0 0
289841.0 364770.0 0
294142.0 365082.0 0
297835.0 363378.0 0
297286.0 367563.0 0
202705.0 367655.0 0
201723.0 370953.0 0
205009.0 371445.0 0
206695.0 368560.0 0
208240.0 372158.0 0
211182.0 369498.0 0
214166.0 372187.0 0
215629.0 368890.0 0
220219.0 368114.0 0
222397.0 373356.0 0
225035.0 369236.0 0
226388.0 373630.0 0
229029.0 370836.0 0
231912.0 368653.0 0
235481.0 369814.0 0
239383.0 371110.0 0
244151.0 372319.0 0
249044.0 371860.0 0
252848.0 372056.0 0
259776.0 373341.0 0
262449.0 370295.0 0
266458.0 371999.0 0
270528.0 368955.0 0
274601.0 371209.0 0
282452.0 370424.0 0
286449.0 372326.0 0
292156.0 372997.0 0
291038.0 369223.0 0
296502.0 372321.0 0
195839.0 380585.0 0
199911.0 378506.0 0
202559.0 374173.0 0
204432.0 377861.0 0
208447.0 378707.0 0
206594.0 374742.0 0
210045.0 375917.0 0
211585.0 373076.0 0
213995.0 375527.0 0
212522.0 378604.0 0
217802.0 373412.0 0
216668.0 378096.0 0
221130.0 377796.0 0
229162.0 375143.0 0
225865.0 378035.0 0
232565.0 373290.0 0
236553.0 375824.0 0
240917.0 374896.0 0
240497.0 377829.0 0
243761.0 377478.0 0
247038.0 375493.0 0
247060.0 378803.0 0
250990.0 376588.0 0
255842.0 375606.0 0
263102.0 375194.0 0
259783.0 377820.0 0
266712.0 376692.0 0
270381.0 373828.0 0
270641.0 378444.0 0
274429.0 376276.0 0
278869.0 373997.0 0
283006.0 374910.0 0
284720.0 378970.0 0
287130.0 376183.0 0
289615.0 374611.0 0
292921.0 376664.0 0
296330.0 377274.0 0
299297.0 377523.0 0
302887.0 380184.0 0
189182.0 384036.0 0
191013.0 385486.0 0
192413.0 382523.0 0
195471.0 384810.0 0
198833.0 382774.0 0
199772.0 385497.0 0
202598.0 382021.0 0
202772.0 385783.0 0
206421.0 382524.0 0
211043.0 382785.0 0
214909.0 381140.0 0
219390.0 381456.0 0
216748.0 384274.0 0
223554.0 382209.0 0
228255.0 382455.0 0
231220.0 378388.0 0
234584.0 381092.0 0
232324.0 384004.0 0
238781.0 380791.0 0
236990.0 384480.0 0
242130.0 380535.0 0
249661.0 381055.0 0
245346.0 382666.0 0
254194.0 381632.0 0
259106.0 381955.0 0
263412.0 380638.0 0
267612.0 380001.0 0
266859.0 383268.0 0
270393.0 382720.0 0
274008.0 381397.0 0
277203.0 378727.0 0
277715.0 382593.0 0
280693.0 378662.0 0
280387.0 382357.0 0
282873.0 383798.0 0
286756.0 383542.0 0
289795.0 379818.0 0
294745.0 381406.0 0
299304.0 382317.0 0
306276.0 382744.0 0
303364.0 385181.0 0
309716.0 384649.0 0
313046.0 385823.0 0
178277.0 390881.0 0
183595.0 387702.0 0
180957.0 389513.0 0
185041.0 389991.0 0
186820.0 386379.0 0
188795.0 388409.0 0
187449.0 391090.0 0
193149.0 386274.0 0
191339.0 388684.0 0
194036.0 388591.0 0
197445.0 388154.0 0
201450.0 388998.0 0
206406.0 386627.0 0
204836.0 389871.0 0
209682.0 387635.0 0
213598.0 386968.0 0
217955.0 388178.0 0
220839.0 385197.0 0
221783.0 389267.0 0
225176.0 386903.0 0
229776.0 387231.0 0
234439.0 386902.0 0
231966.0 390578.0 0
238674.0 387897.0 0
241139.0 384604.0 0
244362.0 387572.0 0
249480.0 386050.0 0
253495.0 387226.0 0
257092.0 386024.0 0
261476.0 385936.0 0
264757.0 385525.0 0
268815.0 387155.0 0
265060.0 389119.0 0
272289.0 385341.0 0
275433.0 385706.0 0
276932.0 388752.0 0
279424.0 386272.0 0
282543.0 388346.0 0
284999.0 386698.0 0
287881.0 388141.0 0
291164.0 385192.0 0
291105.0 389672.0 0
295098.0 386146.0 0
294387.0 389465.0 0
298520.0 386509.0 0
298235.0 390413.0 0
301901.0 388042.0 0
306389.0 386330.0 0
305811.0 389155.0 0
309265.0 388208.0 0
311931.0 389384.0 0
315086.0 389356.0 0
315747.0 386686.0 0
318064.0 388615.0 0
320140.0 391052.0 0
174914.0 393283.0 0
172356.0 394715.0 0
177750.0 393613.0 0
182488.0 392637.0 0
185564.0 394511.0 0
189457.0 392343.0 0
188717.0 395661.0 0
191825.0 391629.0 0
194877.0 391433.0 0
192140.0 394615.0 0
195006.0 394919.0 0
198575.0 392662.0 0
199019.0 396044.0 0
202297.0 392951.0 0
205415.0 393762.0 0
207973.0 391213.0 0
208811.0 395079.0 0
211636.0 391501.0 0
212609.0 395201.0 0
215316.0 390999.0 0
216132.0 394374.0 0
219186.0 392282.0 0
223628.0 392863.0 0
227410.0 391141.0 0
230212.0 394467.0 0
234441.0 393721.0 0
235573.0 389882.0 0
238194.0 392058.0 0
241575.0 390274.0 0
244591.0 392005.0 0
241194.0 394764.0 0
247650.0 390308.0 0
251796.0 391501.0 0
255719.0 390407.0 0
258405.0 392787.0 0
258999.0 389301.0 0
255185.0 394374.0 0
261806.0 390499.0 0
261467.0 394164.0 0
264956.0 393301.0 0
268554.0 391683.0 0
272790.0 389474.0 0
271913.0 394255.0 0
276054.0 392413.0 0
279550.0 390692.0 0
282415.0 393042.0 0
285515.0 391145.0 0
289212.0 392547.0 0
293211.0 393124.0 0
296496.0 393086.0 0
297884.0 395586.0 0
302621.0 391477.0 0
300292.0 393459.0 0
304624.0 393874.0 0
307944.0 392395.0 0
308052.0 395839.0 0
311497.0 392893.0 0
314872.0 392774.0 0
317491.0 392483.0 0
318646.0 395179.0 0
315390.0 395691.0 0
325279.0 392940.0 0
322485.0 392981.0 0
327134.0 395741.0 0
330609.0 396711.0 0
164388.0 399958.0 0
169961.0 396538.0 0
167122.0 398180.0 0
168576.0 400047.0 0
175175.0 397361.0 0
171625.0 398920.0 0
174687.0 400551.0 0
178586.0 399414.0 0
180536.0 396196.0 0
183901.0 397869.0 0
181913.0 400464.0 0
187027.0 400178.0 0
191345.0 398295.0 0
195786.0 398403.0 0
200228.0 399846.0 0
201903.0 396049.0 0
205136.0 397662.0 0
208256.0 399988.0 0
210165.0 397693.0 0
212560.0 399197.0 0
215889.0 398316.0 0
220250.0 396365.0 0
224252.0 396964.0 0
221952.0 399544.0 0
224762.0 399999.0 0
226773.0 394914.0 0
228217.0 398488.0 0
232764.0 398144.0 0
237269.0 396444.0 0
236289.0 399772.0 0
239974.0 399611.0 0
244832.0 395534.0 0
242986.0 398024.0 0
248345.0 394643.0 0
249509.0 398603.0 0
246260.0 398696.0 0
252082.0 396283.0 0
254808.0 398050.0 0
258566.0 397570.0 0
263583.0 397893.0 0
268223.0 396830.0 0
269991.0 400574.0 0
272563.0 398600.0 0
274932.0 396304.0 0
278874.0 395771.0 0
276355.0 399630.0 0
282757.0 396897.0 0
284904.0 400075.0 0
286476.0 395584.0 0
288222.0 399693.0 0
290786.0 397041.0 0
296705.0 398515.0 0
294817.0 396596.0 0
302254.0 396193.0 0
300120.0 398952.0 0
303539.0 401231.0 0
305702.0 398235.0 0
311664.0 397086.0 0
309152.0 400580.0 0
314310.0 400373.0 0
316471.0 398201.0 0
322135.0 396639.0 0
319503.0 398400.0 0
321934.0 401152.0 0
325430.0 398901.0 0
333095.0 398054.0 0
329874.0 399512.0 0
330850.0 401389.0 0
335281.0 399962.0 0
158721.0 403330.0 0
156089.0 405438.0 0
159884.0 405754.0 0
161742.0 402009.0 0
163169.0 404463.0 0
166448.0 401998.0 0
169202.0 402198.0 0
166301.0 404702.0 0
169390.0 404567.0 0
172055.0 402197.0 0
172727.0 404905.0 0
175700.0 405297.0 0
179373.0 403166.0 0
176116.0 402610.0 0
179038.0 406245.0 0
183446.0 403547.0 0
186857.0 404653.0 0
189390.0 403099.0 0
192815.0 401566.0 0
193365.0 405421.0 0
197002.0 402662.0 0
197828.0 406067.0 0
200579.0 404156.0 0
203777.0 401997.0 0
207058.0 403969.0 0
211180.0 402133.0 0
214714.0 402581.0 0
214731.0 405440.0 0
218558.0 401341.0 0
222247.0 403562.0 0
226869.0 402763.0 0
230513.0 402189.0 0
234323.0 402571.0 0
237701.0 402619.0 0
243452.0 401552.0 0
240591.0 404492.0 0
247695.0 403070.0 0
252642.0 401667.0 0
257276.0 402401.0 0
261429.0 401919.0 0
263449.0 405095.0 0
266137.0 401927.0 0
269909.0 403989.0 0
273758.0 402952.0 0
277454.0 403261.0 0
280289.0 400699.0 0
280077.0 405301.0 0
283525.0 403886.0 0
287367.0 403660.0 0
290887.0 402319.0 0
293987.0 403966.0 0
294081.0 400483.0 0
297411.0 401215.0 0
296424.0 404002.0 0
300045.0 403194.0 0
299383.0 406291.0 0
303263.0 405326.0 0
307017.0 403715.0 0
311785.0 402897.0 0
314649.0 404082.0 0
318092.0 402667.0 0
323354.0 404647.0 0
326666.0 402452.0 0
329243.0 404852.0 0
326445.0 406114.0 0
333576.0 402373.0 0
332672.0 405190.0 0
338141.0 401837.0 0
336637.0 404455.0 0
335677.0 406760.0 0
340788.0 403499.0 0
340297.0 406573.0 0
343521.0 404791.0 0
148131.0 409942.0 0
150109.0 408436.0 0
153075.0 407678.0 0
153091.0 411257.0 0
157467.0 408328.0 0
156365.0 411434.0 0
162401.0 407259.0 0
160236.0 409669.0 0
164439.0 408984.0 0
162156.0 411829.0 0
167111.0 407511.0 0
165707.0 411490.0 0
167866.0 410310.0 0
170569.0 407272.0 0
173969.0 407984.0 0
170893.0 411293.0 0
176947.0 409406.0 0
179901.0 411265.0 0
181311.0 408053.0 0
184179.0 407188.0 0
187269.0 406775.0 0
189558.0 406267.0 0
187155.0 409753.0 0
190839.0 409325.0 0
195459.0 409591.0 0
199396.0 411363.0 0
200595.0 407769.0 0
203554.0 406038.0 0
203525.0 409590.0 0
206143.0 407678.0 0
210705.0 406878.0 0
215037.0 409098.0 0
217940.0 405967.0 0
221403.0 408388.0 0
225179.0 406325.0 0
225328.0 409856.0 0
228988.0 406660.0 0
232480.0 405960.0 0
232596.0 409899.0 0
236618.0 407022.0 0
244092.0 405466.0 0
241701.0 410054.0 0
246697.0 408165.0 0
250656.0 406674.0 0
254519.0 405939.0 0
257471.0 405850.0 0
260088.0 405645.0 0
257475.0 409763.0 0
262447.0 410020.0 0
267534.0 407482.0 0
272356.0 407257.0 0
274292.0 410327.0 0
276393.0 407159.0 0
280191.0 409465.0 0
283668.0 407681.0 0
286784.0 406951.0 0
291447.0 407163.0 0
296022.0 407881.0 0
299120.0 410346.0 0
301677.0 408595.0 0
306632.0 409073.0 0
310744.0 406556.0 0
313462.0 410428.0 0
314982.0 407134.0 0
319512.0 407509.0 0
325057.0 409006.0 0
329408.0 409019.0 0
332445.0 407778.0 0
338661.0 408288.0 0
334824.0 409612.0 0
338092.0 411176.0 0
345404.0 406819.0 0
342266.0 408522.0 0
344793.0 410442.0 0
348430.0 407936.0 0
347403.0 410413.0 0
349200.0 412439.0 0
350966.0 409188.0 0
353450.0 410741.0 0
136106.0 417122.0 0
138554.0 415787.0 0
143078.0 412692.0 0
140764.0 414320.0 0
142958.0 415941.0 0
145909.0 412000.0 0
147055.0 414395.0 0
150167.0 411940.0 0
149936.0 414847.0 0
153136.0 414873.0 0
158733.0 411915.0 0
156409.0 414541.0 0
159892.0 414463.0 0
164004.0 413928.0 0
162744.0 416584.0 0
167272.0 414466.0 0
174662.0 412593.0 0
170767.0 416109.0 0
178422.0 415174.0 0
183643.0 411402.0 0
182279.0 414778.0 0
185806.0 414227.0 0
188430.0 412818.0 0
189430.0 415680.0 0
191908.0 413323.0 0
193651.0 415899.0 0
195551.0 413448.0 0
197963.0 415975.0 0
202710.0 413650.0 0
207174.0 411488.0 0
210008.0 415411.0 0
211339.0 411588.0 0
214535.0 413257.0 0
218253.0 410730.0 0
218067.0 414989.0 0
222044.0 413248.0 0
226324.0 413282.0 0
228838.0 410283.0 0
227981.0 416149.0 0
230188.0 413334.0 0
233430.0 414096.0 0
236643.0 412019.0 0
239851.0 415103.0 0
245782.0 412406.0 0
248958.0 411210.0 0
253089.0 410238.0 0
251334.0 414185.0 0
259128.0 414816.0 0
255283.0 414897.0 0
263356.0 415801.0 0
267100.0 412829.0 0
271025.0 411126.0 0
274092.0 414808.0 0
270243.0 415128.0 0
277605.0 412098.0 0
281447.0 414581.0 0
283858.0 411688.0 0
288062.0 411241.0 0
291226.0 414780.0 0
291816.0 411389.0 0
298801.0 413685.0 0
295016.0 412635.0 0
297324.0 416349.0 0
303428.0 413199.0 0
308464.0 414785.0 0
310412.0 411362.0 0
313469.0 414976.0 0
317241.0 411800.0 0
322039.0 411560.0 0
320558.0 414042.0 0
323401.0 416031.0 0
327909.0 412280.0 0
324974.0 412972.0 0
326865.0 415566.0 0
332638.0 412043.0 0
330125.0 414567.0 0
332704.0 416331.0 0
335972.0 414748.0 0
339904.0 415886.0 0
341786.0 412145.0 0
344691.0 414904.0 0
346334.0 413279.0 0
348875.0 415621.0 0
352009.0 412866.0 0
354874.0 414188.0 0
352184.0 416608.0 0
356257.0 412471.0 0
358934.0 414470.0 0
357126.0 416412.0 0
361716.0 416710.0 0
134033.0 419562.0 0
130856.0 420730.0 0
137626.0 419033.0 0
138175.0 420633.0 0
139731.0 417842.0 0
141640.0 419378.0 0
140163.0 421651.0 0
144527.0 420459.0 0
146020.0 417491.0 0
149478.0 418515.0 0
148515.0 421564.0 0
152897.0 418570.0 0
156349.0 417956.0 0
159004.0 417380.0 0
157580.0 421169.0 0
160804.0 419589.0 0
163828.0 420587.0 0
165606.0 417938.0 0
168848.0 420266.0 0
174272.0 417442.0 0
173068.0 421191.0 0
176526.0 419762.0 0
180220.0 419358.0 0
183942.0 417513.0 0
187208.0 416942.0 0
187796.0 419625.0 0
190870.0 417694.0 0
194072.0 418991.0 0
197776.0 421022.0 0
201736.0 418011.0 0
204722.0 419723.0 0
206002.0 416144.0 0
208415.0 419385.0 0
211285.0 419807.0 0
213415.0 417438.0 0
216926.0 418691.0 0
221012.0 418484.0 0
224477.0 416889.0 0
223846.0 420490.0 0
227258.0 420007.0 0
231477.0 417805.0 0
234157.0 420673.0 0
236431.0 417339.0 0
243483.0 415672.0 0
240661.0 419983.0 0
247856.0 415959.0 0
245140.0 419961.0 0
248910.0 420029.0 0
252140.0 418114.0 0
256242.0 419805.0 0
260021.0 418938.0 0
263714.0 420631.0 0
267504.0 417917.0 0
272104.0 419420.0 0
275962.0 419068.0 0
277974.0 416644.0 0
280416.0 417888.0 0
282832.0 418655.0 0
286638.0 416496.0 0
285651.0 420674.0 0
291063.0 419028.0 0
294671.0 417232.0 0
297831.0 420004.0 0
300525.0 417190.0 0
301828.0 421176.0 0
304693.0 418051.0 0
308109.0 418996.0 0
311528.0 418766.0 0
317944.0 416647.0 0
315395.0 419683.0 0
319333.0 420675.0 0
321598.0 418175.0 0
323316.0 421136.0 0
326307.0 419150.0 0
329502.0 417712.0 0
329247.0 421448.0 0
332230.0 419615.0 0
336008.0 419100.0 0
342812.0 416918.0 0
340095.0 419834.0 0
343840.0 420592.0 0
346696.0 418352.0 0
347735.0 421895.0 0
354786.0 418712.0 0
350129.0 419488.0 0
353066.0 421345.0 0
359982.0 419136.0 0
357884.0 421287.0 0
364863.0 418615.0 0
362738.0 421147.0 0
367488.0 420717.0 0
370828.0 421364.0 0
122140.0 426908.0 0
125176.0 424457.0 0
128049.0 422836.0 0
128115.0 426095.0 0
131625.0 423844.0 0
130550.0 426628.0 0
134375.0 425509.0 0
135404.0 422316.0 0
137891.0 423781.0 0
141887.0 423314.0 0
139607.0 426743.0 0
145340.0 423790.0 0
148364.0 426072.0 0
150865.0 423461.0 0
153976.0 422166.0 0
152134.0 426331.0 0
155408.0 425567.0 0
158767.0 424175.0 0
161706.0 422462.0 0
163089.0 424809.0 0
165554.0 422440.0 0
166778.0 425637.0 0
170115.0 424320.0 0
173752.0 425148.0 0
176922.0 423069.0 0
177663.0 426645.0 0
184391.0 422062.0 0
180456.0 423785.0 0
181726.0 426526.0 0
185255.0 426272.0 0
188031.0 423406.0 0
189712.0 426402.0 0
190648.0 421404.0 0
193770.0 423765.0 0
201424.0 422480.0 0
205726.0 423524.0 0
210271.0 423010.0 0
214179.0 422215.0 0
218348.0 421671.0 0
217675.0 425078.0 0
221595.0 423243.0 0
225619.0 423987.0 0
228661.0 425536.0 0
230554.0 422472.0 0
234664.0 424071.0 0
237076.0 421377.0 0
239016.0 424821.0 0
243581.0 423750.0 0
247503.0 423567.0 0
252006.0 422617.0 0
255738.0 424226.0 0
259870.0 423867.0 0
263061.0 425962.0 0
264284.0 424012.0 0
268292.0 422830.0 0
272522.0 423788.0 0
275635.0 422685.0 0
279524.0 421196.0 0
278411.0 424907.0 0
283355.0 422136.0 0
282434.0 425948.0 0
286218.0 424182.0 0
288448.0 421871.0 0
289511.0 425955.0 0
291336.0 423012.0 0
294038.0 425835.0 0
294587.0 421483.0 0
298752.0 425068.0 0
302996.0 424847.0 0
305929.0 422386.0 0
306071.0 426141.0 0
309450.0 422182.0 0
309550.0 426195.0 0
312993.0 422649.0 0
317379.0 424229.0 0
321382.0 424161.0 0
324334.0 424944.0 0
326879.0 423425.0 0
329016.0 426592.0 0
333144.0 423004.0 0
330448.0 423576.0 0
332865.0 426182.0 0
336364.0 422836.0 0
336056.0 425839.0 0
339750.0 423513.0 0
339250.0 426411.0 0
342896.0 424119.0 0
346157.0 423530.0 0
348636.0 424241.0 0
346406.0 426269.0 0
350139.0 422377.0 0
352119.0 424771.0 0
355849.0 424080.0 0
359188.0 425883.0 0
365106.0 423453.0 0
361489.0 423952.0 0
370257.0 424481.0 0
366866.0 426713.0 0
375240.0 424381.0 0
373279.0 422880.0 0
377557.0 426659.0 0
113203.0 432202.0 0
115900.0 430848.0 0
119368.0 429369.0 0
123589.0 430429.0 0
125619.0 428143.0 0
127641.0 430866.0 0
131402.0 429455.0 0
135315.0 428462.0 0
139106.0 431579.0 0
143350.0 427029.0 0
142970.0 431276.0 0
146497.0 429573.0 0
150281.0 428972.0 0
153504.0 429488.0 0
150727.0 431673.0 0
159818.0 427048.0 0
157153.0 429418.0 0
163061.0 428791.0 0
160227.0 431775.0 0
166831.0 429872.0 0
170332.0 428029.0 0
174058.0 428699.0 0
176951.0 430685.0 0
179555.0 429234.0 0
183006.0 430950.0 0
187081.0 429470.0 0
193415.0 428055.0 0
190314.0 431275.0 0
197764.0 426433.0 0
201929.0 426284.0 0
200413.0 430612.0 0
204839.0 428832.0 0
208372.0 426873.0 0
208704.0 430617.0 0
211988.0 427103.0 0
214712.0 425793.0 0
212004.0 430973.0 0
216128.0 429646.0 0
220077.0 427039.0 0
222996.0 426875.0 0
220881.0 431079.0 0
226617.0 429758.0 0
231590.0 426679.0 0
231607.0 429969.0 0
235428.0 428127.0 0
242295.0 427708.0 0
246718.0 428228.0 0
250229.0 426190.0 0
253274.0 426869.0 0
256838.0 428770.0 0
261461.0 429210.0 0
266606.0 427502.0 0
271624.0 427712.0 0
275515.0 426684.0 0
278956.0 428990.0 0
286465.0 427353.0 0
289089.0 430282.0 0
292224.0 429122.0 0
296362.0 430344.0 0
300178.0 429382.0 0
303484.0 428495.0 0
307571.0 429630.0 0
313568.0 426773.0 0
312415.0 431401.0 0
316848.0 428773.0 0
320882.0 427991.0 0
322121.0 431715.0 0
325203.0 428254.0 0
325762.0 431728.0 0
329541.0 430536.0 0
333093.0 429290.0 0
336396.0 429004.0 0
340086.0 429845.0 0
342908.0 427310.0 0
343840.0 431214.0 0
349949.0 427361.0 0
346079.0 429272.0 0
348845.0 430819.0 0
355037.0 427459.0 0
353083.0 429541.0 0
358160.0 428933.0 0
356005.0 431306.0 0
362825.0 427270.0 0
365411.0 430246.0 0
361575.0 431174.0 0
369703.0 429700.0 0
372541.0 426758.0 0
374863.0 428741.0 0
372161.0 431595.0 0
376246.0 431622.0 0
380412.0 428595.0 0
379888.0 432001.0 0
383579.0 429338.0 0
385766.0 431773.0 0
388474.0 432027.0 0
108296.0 434257.0 0
106563.0 436331.0 0
110381.0 433465.0 0
109441.0 436721.0 0
112667.0 435517.0 0
116876.0 435014.0 0
121152.0 433000.0 0
120896.0 436685.0 0
124923.0 433586.0 0
129317.0 434667.0 0
124975.0 436508.0 0
132561.0 432645.0 0
132047.0 436837.0 0
134427.0 434984.0 0
135537.0 432337.0 0
137187.0 435327.0 0
140821.0 435850.0 0
144120.0 434362.0 0
147785.0 433135.0 0
146329.0 437248.0 0
153370.0 432889.0 0
150804.0 435809.0 0
156149.0 433200.0 0
158966.0 435180.0 0
163654.0 433304.0 0
162288.0 436630.0 0
167126.0 433881.0 0
170688.0 431842.0 0
170754.0 436143.0 0
174071.0 432927.0 0
174783.0 435937.0 0
178842.0 434293.0 0
182856.0 435604.0 0
186695.0 433721.0 0
195231.0 432212.0 0
198716.0 434964.0 0
201486.0 434505.0 0
204988.0 433559.0 0
209587.0 434983.0 0
213897.0 433836.0 0
217295.0 433515.0 0
223537.0 434003.0 0
226397.0 435237.0 0
230193.0 433853.0 0
234497.0 432579.0 0
239089.0 431115.0 0
243684.0 432369.0 0
241179.0 435625.0 0
247245.0 433151.0 0
251426.0 431180.0 0
252925.0 435957.0 0
255439.0 433212.0 0
259180.0 433488.0 0
262612.0 433813.0 0
265413.0 431696.0 0
270137.0 432609.0 0
273469.0 435484.0 0
275160.0 431364.0 0
277121.0 435616.0 0
279421.0 432884.0 0
284295.0 431589.0 0
289098.0 434340.0 0
292777.0 432553.0 0
296993.0 434763.0 0
300671.0 433066.0 0
304540.0 432337.0 0
303554.0 435612.0 0
306370.0 436188.0 0
308031.0 432987.0 0
310436.0 436213.0 0
314021.0 436434.0 0
316027.0 434302.0 0
318111.0 431761.0 0
320254.0 435763.0 0
324353.0 434458.0 0
328561.0 434893.0 0
333274.0 432862.0 0
332607.0 436215.0 0
336814.0 432280.0 0
337132.0 436378.0 0
340869.0 433827.0 0
344300.0 435056.0 0
346730.0 433303.0 0
349659.0 435209.0 0
352073.0 432801.0 0
355330.0 435752.0 0
358565.0 433752.0 0
360530.0 436160.0 0
364072.0 435048.0 0
367444.0 432533.0 0
368840.0 435276.0 0
372190.0 434884.0 0
375670.0 434859.0 0
379093.0 435942.0 0
383561.0 433433.0 0
383023.0 436613.0 0
387779.0 435598.0 0
390151.0 433679.0 0
392550.0 435541.0 0
98675.4 441686.0 0
100750.0 439265.0 0
103446.0 441364.0 0
104286.0 438543.0 0
107093.0 440531.0 0
112702.0 438749.0 0
109638.0 439500.0 0
110171.0 442438.0 0
112990.0 442035.0 0
116223.0 438636.0 0
116244.0 442445.0 0
119377.0 439154.0 0
122995.0 438721.0 0
127719.0 438216.0 0
125188.0 441305.0 0
131104.0 440381.0 0
135680.0 438990.0 0
139114.0 438698.0 0
143026.0 438275.0 0
141282.0 441992.0 0
145986.0 441312.0 0
149930.0 439652.0 0
152654.0 441546.0 0
154881.0 437568.0 0
155674.0 441987.0 0
158981.0 439442.0 0
162755.0 440929.0 0
166265.0 438018.0 0
169345.0 440589.0 0
173214.0 439325.0 0
176850.0 438271.0 0
180465.0 439301.0 0
183645.0 441540.0 0
185618.0 438155.0 0
187479.0 441433.0 0
190778.0 436983.0 0
190289.0 441398.0 0
195998.0 438091.0 0
197519.0 441612.0 0
201299.0 438775.0 0
205883.0 437789.0 0
209029.0 440195.0 0
212189.0 437417.0 0
213674.0 440725.0 0
215882.0 437045.0 0
217990.0 441122.0 0
220108.0 436484.0 0
223564.0 437157.0 0
222308.0 441181.0 0
225422.0 439001.0 0
229080.0 438617.0 0
233142.0 436777.0 0
232068.0 439735.0 0
237176.0 436093.0 0
239664.0 439525.0 0
235351.0 440810.0 0
242612.0 438667.0 0
245055.0 436823.0 0
249235.0 436600.0 0
246788.0 441185.0 0
251971.0 440986.0 0
257002.0 438444.0 0
261888.0 438018.0 0
266153.0 436425.0 0
270121.0 438427.0 0
274588.0 440157.0 0
278859.0 439280.0 0
282280.0 436682.0 0
282208.0 441467.0 0
285493.0 440191.0 0
286341.0 436393.0 0
289033.0 439261.0 0
293060.0 436762.0 0
297648.0 439701.0 0
301049.0 437530.0 0
304670.0 439456.0 0
308780.0 440009.0 0
313304.0 440060.0 0
316737.0 438049.0 0
317186.0 441289.0 0
320194.0 440161.0 0
324407.0 438280.0 0
328103.0 438851.0 0
331320.0 439450.0 0
334788.0 439236.0 0
335673.0 442336.0 0
338548.0 440666.0 0
342099.0 438692.0 0
346878.0 438043.0 0
346214.0 442076.0 0
349917.0 441188.0 0
351640.0 438404.0 0
355137.0 440708.0 0
359118.0 438787.0 0
359751.0 442064.0 0
363169.0 438856.0 0
367164.0 441919.0 0
367132.0 438343.0 0
375013.0 438926.0 0
370928.0 438798.0 0
379053.0 439595.0 0
382290.0 439512.0 0
385968.0 437805.0 0
390788.0 437966.0 0
386126.0 441286.0 0
389480.0 440392.0 0
395228.0 438178.0 0
394515.0 441775.0 0
392068.0 441573.0 0
398505.0 439540.0 0
401545.0 441388.0 0
87607.9 447280.0 0
92939.3 444587.0 0
90358.5 446092.0 0
95457.2 442749.0 0
97643.0 445955.0 0
94421.0 446549.0 0
101084.0 443526.0 0
100206.0 447898.0 0
104247.0 444274.0 0
107283.0 443252.0 0
104270.0 447375.0 0
108541.0 446694.0 0
111759.0 445158.0 0
115317.0 445801.0 0
118814.0 446427.0 0
120542.0 442689.0 0
122500.0 447145.0 0
128342.0 442963.0 0
124466.0 444644.0 0
126676.0 445743.0 0
133368.0 443617.0 0
130129.0 446008.0 0
133626.0 447481.0 0
137244.0 442767.0 0
137350.0 446971.0 0
141320.0 446485.0 0
144552.0 444744.0 0
146769.0 446261.0 0
149212.0 443898.0 0
152591.0 445384.0 0
156433.0 445532.0 0
159224.0 443186.0 0
159711.0 446470.0 0
162335.0 444937.0 0
165966.0 442547.0 0
165246.0 445745.0 0
168718.0 444309.0 0
172103.0 442934.0 0
172379.0 446926.0 0
176390.0 442540.0 0
176527.0 446418.0 0
180428.0 444391.0 0
185112.0 444753.0 0
189595.0 445015.0 0
193719.0 442156.0 0
193745.0 446477.0 0
196829.0 444395.0 0
200191.0 443397.0 0
204780.0 442046.0 0
202837.0 445909.0 0
207439.0 446054.0 0
211125.0 444021.0 0
215330.0 445027.0 0
219738.0 445598.0 0
223890.0 445419.0 0
226497.0 442117.0 0
227684.0 445330.0 0
230823.0 443023.0 0
234157.0 445369.0 0
238646.0 444480.0 0
242717.0 441666.0 0
249207.0 445422.0 0
253085.0 445788.0 0
256429.0 443774.0 0
260764.0 442571.0 0
265702.0 441898.0 0
270532.0 443184.0 0
274382.0 445429.0 0
278336.0 443375.0 0
281543.0 444745.0 0
285100.0 444171.0 0
288827.0 443786.0 0
293532.0 442314.0 0
296325.0 446279.0 0
298064.0 443526.0 0
301720.0 442563.0 0
303783.0 446109.0 0
306391.0 443761.0 0
311239.0 443649.0 0
315411.0 444120.0 0
319950.0 444407.0 0
323261.0 442334.0 0
324556.0 446610.0 0
327944.0 443061.0 0
332419.0 442864.0 0
331440.0 446002.0 0
335507.0 446187.0 0
338524.0 444165.0 0
342007.0 443667.0 0
345760.0 446209.0 0
349482.0 444533.0 0
352521.0 443117.0 0
353590.0 447059.0 0
356750.0 444308.0 0
360762.0 445755.0 0
363482.0 442388.0 0
365256.0 446403.0 0
369173.0 445716.0 0
370699.0 442142.0 0
374719.0 442881.0 0
373263.0 447059.0 0
379159.0 443559.0 0
377548.0 447121.0 0
382696.0 442523.0 0
381664.0 447277.0 0
383732.0 445011.0 0
390282.0 443385.0 0
387349.0 445436.0 0
392504.0 444698.0 0
395212.0 445513.0 0
398443.0 443897.0 0
398363.0 447686.0 0
404264.0 442897.0 0
402119.0 445696.0 0
406777.0 445527.0 0
410317.0 447890.0 0
80417.6 452842.0 0
82751.6 450787.0 0
85780.5 449476.0 0
90675.6 449265.0 0
89945.8 452419.0 0
94716.5 449521.0 0
93844.4 452320.0 0
97849.1 451155.0 0
101885.0 450620.0 0
100659.0 452695.0 0
104929.0 450475.0 0
112884.0 448795.0 0
109180.0 450571.0 0
116177.0 449180.0 0
114574.0 451720.0 0
119468.0 450341.0 0
122295.0 452385.0 0
123093.0 450050.0 0
125669.0 448625.0 0
129087.0 449584.0 0
125029.0 451487.0 0
132581.0 450552.0 0
136230.0 451582.0 0
140485.0 451051.0 0
144417.0 449151.0 0
149308.0 449558.0 0
153552.0 449153.0 0
157661.0 449455.0 0
162284.0 449348.0 0
165636.0 451321.0 0
167469.0 448056.0 0
170254.0 451837.0 0
175321.0 450494.0 0
178768.0 448102.0 0
179863.0 451646.0 0
182358.0 448101.0 0
186267.0 448566.0 0
189932.0 449192.0 0
187101.0 451681.0 0
193701.0 450973.0 0
198718.0 448346.0 0
203994.0 449822.0 0
208391.0 450808.0 0
212084.0 448206.0 0
216581.0 449346.0 0
222029.0 450726.0 0
226280.0 448322.0 0
227521.0 451449.0 0
230790.0 448024.0 0
235797.0 449249.0 0
239446.0 448320.0 0
243944.0 446700.0 0
248217.0 449482.0 0
251745.0 449411.0 0
259272.0 446699.0 0
255832.0 448699.0 0
263474.0 446887.0 0
268095.0 447209.0 0
265635.0 451027.0 0
271942.0 448960.0 0
275673.0 449283.0 0
278537.0 447245.0 0
282794.0 448196.0 0
287636.0 448596.0 0
292330.0 447315.0 0
296728.0 450981.0 0
300261.0 447160.0 0
303523.0 449294.0 0
306603.0 448322.0 0
309653.0 446897.0 0
310356.0 451181.0 0
313889.0 448566.0 0
317409.0 450620.0 0
317856.0 447308.0 0
321342.0 449460.0 0
326107.0 450738.0 0
328626.0 447980.0 0
329887.0 451802.0 0
332866.0 449413.0 0
339613.0 447289.0 0
337287.0 450294.0 0
342555.0 447923.0 0
341547.0 451670.0 0
345847.0 450744.0 0
349754.0 448456.0 0
349482.0 451704.0 0
352310.0 451814.0 0
355274.0 450836.0 0
357890.0 448360.0 0
359195.0 452268.0 0
362384.0 449453.0 0
365873.0 451677.0 0
368022.0 449072.0 0
370793.0 450357.0 0
375603.0 450946.0 0
379553.0 450622.0 0
385021.0 449100.0 0
382971.0 452141.0 0
387506.0 452387.0 0
388268.0 449877.0 0
390089.0 451584.0 0
390947.0 448014.0 0
394583.0 447883.0 0
392935.0 451796.0 0
396349.0 450431.0 0
399685.0 451820.0 0
401720.0 449244.0 0
405063.0 448610.0 0
404218.0 452106.0 0
407640.0 450670.0 0
414402.0 449179.0 0
412046.0 451458.0 0
417107.0 451741.0 0
77521.7 455104.0 0
74463.1 457237.0 0
82937.3 455255.0 0
79764.2 457193.0 0
86136.0 453234.0 0
87707.2 457128.0 0
91610.1 455694.0 0
96206.7 454869.0 0
99988.3 455418.0 0
103456.0 457438.0 0
104032.0 453856.0 0
107660.0 454380.0 0
107189.0 457996.0 0
112096.0 453034.0 0
110675.0 455871.0 0
113576.0 455656.0 0
117382.0 454332.0 0
121077.0 454821.0 0
122819.0 457299.0 0
128099.0 453336.0 0
124409.0 454692.0 0
126484.0 456615.0 0
131615.0 453601.0 0
130000.0 457454.0 0
134405.0 455556.0 0
138800.0 454896.0 0
141478.0 454203.0 0
141577.0 456738.0 0
145041.0 453488.0 0
144551.0 457613.0 0
147813.0 456562.0 0
149686.0 453717.0 0
151193.0 457062.0 0
153535.0 453185.0 0
158264.0 453333.0 0
162485.0 454350.0 0
165046.0 457036.0 0
166294.0 454187.0 0
168662.0 456549.0 0
173313.0 454528.0 0
176937.0 454226.0 0
181165.0 456628.0 0
183691.0 451942.0 0
185706.0 455386.0 0
189823.0 453471.0 0
192997.0 455737.0 0
197235.0 453718.0 0
201287.0 452622.0 0
202884.0 455039.0 0
205141.0 453528.0 0
209052.0 455812.0 0
212972.0 452373.0 0
217377.0 453785.0 0
221302.0 456598.0 0
229248.0 455255.0 0
225129.0 454908.0 0
232213.0 452197.0 0
233002.0 456612.0 0
236392.0 454393.0 0
240355.0 451838.0 0
245099.0 452390.0 0
249587.0 453143.0 0
254227.0 453743.0 0
260567.0 452566.0 0
265895.0 455758.0 0
269004.0 451970.0 0
273627.0 453153.0 0
270108.0 455774.0 0
277108.0 456591.0 0
279249.0 452175.0 0
284440.0 453166.0 0
288323.0 453385.0 0
291982.0 451832.0 0
290841.0 456061.0 0
294919.0 455798.0 0
299174.0 456132.0 0
301232.0 452342.0 0
303198.0 456787.0 0
305936.0 453253.0 0
310554.0 455557.0 0
315253.0 454158.0 0
319217.0 453357.0 0
323596.0 454090.0 0
327731.0 454789.0 0
331227.0 455246.0 0
334382.0 453675.0 0
337241.0 456990.0 0
338496.0 453928.0 0
341832.0 456517.0 0
344856.0 454473.0 0
348599.0 454475.0 0
352865.0 455377.0 0
356119.0 454314.0 0
359757.0 456828.0 0
362830.0 454272.0 0
368898.0 452504.0 0
366844.0 455346.0 0
370180.0 454902.0 0
372985.0 453314.0 0
375607.0 455118.0 0
380030.0 454982.0 0
377490.0 457497.0 0
377133.0 453686.0 0
385234.0 454509.0 0
390367.0 454493.0 0
387884.0 456292.0 0
396255.0 453350.0 0
394240.0 455019.0 0
397930.0 454400.0 0
400543.0 454712.0 0
397043.0 456753.0 0
402693.0 454052.0 0
404326.0 456886.0 0
406842.0 454616.0 0
409877.0 453422.0 0
409096.0 457684.0 0
414496.0 453913.0 0
411920.0 455997.0 0
416463.0 456597.0 0
420286.0 454015.0 0
419693.0 457290.0 0
424019.0 456143.0 0
427865.0 457766.0 0
67772.9 460058.0 0
64980.6 462916.0 0
71172.7 458886.0 0
68683.0 463200.0 0
71705.2 462198.0 0
76638.9 460480.0 0
80373.9 460185.0 0
79439.1 462959.0 0
82633.9 462820.0 0
84082.8 458544.0 0
85776.2 461580.0 0
88964.4 460231.0 0
92671.4 459356.0 0
96257.5 458557.0 0
94120.6 462414.0 0
97697.4 461588.0 0
99916.1 458409.0 0
101998.0 461035.0 0
105080.0 460773.0 0
111200.0 458618.0 0
108641.0 461511.0 0
112147.0 462308.0 0
115124.0 459234.0 0
119548.0 458065.0 0
122031.0 460300.0 0
118847.0 461681.0 0
125734.0 459696.0 0
132993.0 459292.0 0
129633.0 461235.0 0
132852.0 462386.0 0
137367.0 459001.0 0
142066.0 461190.0 0
147861.0 460726.0 0
152698.0 460562.0 0
155083.0 457203.0 0
159232.0 457354.0 0
157542.0 461346.0 0
162437.0 459476.0 0
166085.0 459275.0 0
168680.0 460999.0 0
172254.0 458420.0 0
176368.0 457947.0 0
178211.0 461056.0 0
181550.0 461257.0 0
185123.0 459812.0 0
189175.0 458113.0 0
192799.0 459932.0 0
195713.0 457540.0 0
196873.0 461065.0 0
200057.0 457469.0 0
204508.0 457751.0 0
207330.0 461090.0 0
211458.0 459730.0 0
213946.0 456590.0 0
215294.0 460103.0 0
217388.0 457623.0 0
218918.0 460838.0 0
222931.0 460857.0 0
227306.0 459552.0 0
232233.0 460287.0 0
238625.0 457532.0 0
235979.0 459127.0 0
242176.0 456397.0 0
240066.0 461369.0 0
244347.0 460195.0 0
246955.0 456640.0 0
248773.0 461290.0 0
250571.0 456749.0 0
253564.0 459012.0 0
257441.0 457311.0 0
257159.0 461133.0 0
261618.0 459203.0 0
265557.0 460722.0 0
269020.0 459753.0 0
273334.0 458468.0 0
277750.0 461128.0 0
282013.0 458039.0 0
284914.0 461884.0 0
287258.0 457925.0 0
292345.0 460339.0 0
296802.0 460027.0 0
300755.0 460614.0 0
304623.0 460123.0 0
307419.0 458142.0 0
311529.0 459861.0 0
313524.0 457494.0 0
315786.0 459548.0 0
320113.0 457890.0 0
323718.0 462045.0 0
325503.0 458282.0 0
329748.0 458355.0 0
333446.0 457905.0 0
332863.0 461745.0 0
335845.0 460384.0 0
339581.0 460457.0 0
343938.0 460930.0 0
346115.0 457675.0 0
348167.0 461085.0 0
350182.0 458321.0 0
352200.0 462098.0 0
353847.0 458982.0 0
356224.0 457620.0 0
356324.0 461501.0 0
357911.0 459219.0 0
359267.0 460446.0 0
364350.0 457604.0 0
361730.0 459803.0 0
363126.0 462097.0 0
365976.0 460986.0 0
369434.0 458737.0 0
373505.0 457811.0 0
372871.0 461493.0 0
376030.0 461202.0 0
379758.0 460179.0 0
383075.0 457815.0 0
387595.0 459973.0 0
391889.0 458193.0 0
395324.0 458789.0 0
393817.0 462104.0 0
400824.0 458370.0 0
397977.0 461320.0 0
406328.0 459679.0 0
403371.0 461829.0 0
411075.0 460091.0 0
408453.0 462222.0 0
413787.0 458439.0 0
412710.0 462800.0 0
415591.0 460983.0 0
418422.0 459509.0 0
420215.0 462225.0 0
421863.0 458787.0 0
425576.0 459981.0 0
422398.0 460917.0 0
430701.0 460007.0 0
428450.0 461847.0 0
434107.0 461423.0 0
436911.0 462406.0 0
56605.7 467790.0 0
61768.7 463059.0 0
60231.6 465998.0 0
65944.0 465994.0 0
68950.1 466028.0 0
71869.6 465902.0 0
75220.0 463731.0 0
75116.3 467440.0 0
78946.9 465764.0 0
86857.2 464494.0 0
83171.0 466525.0 0
90471.7 463557.0 0
90607.0 467005.0 0
87747.4 467698.0 0
93526.1 465658.0 0
96613.6 465027.0 0
100553.0 464322.0 0
102503.0 467521.0 0
104893.0 464012.0 0
106263.0 468248.0 0
108652.0 465391.0 0
112322.0 466021.0 0
115597.0 463880.0 0
122627.0 463896.0 0
118999.0 465535.0 0
126585.0 463200.0 0
125220.0 466737.0 0
129222.0 465746.0 0
133342.0 466381.0 0
136761.0 463347.0 0
136796.0 467463.0 0
139315.0 465132.0 0
142254.0 465638.0 0
145522.0 464898.0 0
148680.0 465129.0 0
151050.0 463735.0 0
154242.0 464249.0 0
157984.0 465802.0 0
161375.0 463539.0 0
160888.0 467373.0 0
165231.0 462390.0 0
164516.0 466297.0 0
168691.0 465205.0 0
173704.0 463297.0 0
179053.0 465548.0 0
183948.0 464136.0 0
188668.0 463153.0 0
193157.0 464248.0 0
197246.0 464824.0 0
201917.0 462760.0 0
206133.0 465031.0 0
210391.0 464846.0 0
213017.0 462257.0 0
216102.0 464912.0 0
221268.0 464798.0 0
225710.0 464240.0 0
230178.0 464160.0 0
235518.0 464031.0 0
244268.0 464329.0 0
240214.0 466003.0 0
253142.0 463852.0 0
256970.0 464983.0 0
259875.0 463501.0 0
263427.0 464434.0 0
267792.0 464231.0 0
273243.0 463630.0 0
277928.0 465180.0 0
281628.0 463542.0 0
288485.0 462510.0 0
286106.0 466650.0 0
291819.0 466047.0 0
295277.0 463314.0 0
297939.0 463075.0 0
300656.0 465312.0 0
304171.0 463741.0 0
306803.0 466840.0 0
308488.0 463205.0 0
314029.0 464914.0 0
318692.0 462239.0 0
318362.0 466363.0 0
321071.0 464848.0 0
323707.0 466538.0 0
328686.0 462266.0 0
327178.0 466372.0 0
332349.0 466458.0 0
336833.0 464071.0 0
340247.0 467008.0 0
341059.0 463696.0 0
344529.0 465665.0 0
346735.0 463411.0 0
349760.0 465207.0 0
355165.0 465933.0 0
360347.0 464217.0 0
365074.0 464892.0 0
369982.0 463812.0 0
372182.0 467635.0 0
375069.0 465323.0 0
379529.0 464524.0 0
383673.0 462752.0 0
383718.0 467270.0 0
390596.0 463136.0 0
387248.0 465012.0 0
391734.0 466893.0 0
400518.0 464210.0 0
395942.0 465779.0 0
405935.0 465142.0 0
402759.0 467766.0 0
410335.0 465003.0 0
414607.0 465607.0 0
417484.0 464097.0 0
419546.0 467031.0 0
422387.0 464954.0 0
425271.0 463421.0 0
426820.0 466922.0 0
429321.0 464337.0 0
431817.0 463490.0 0
430173.0 467265.0 0
435541.0 464469.0 0
433395.0 466345.0 0
439028.0 464675.0 0
441938.0 466561.0 0
437853.0 467069.0 0
444740.0 467969.0 0
49913.4 471186.0 0
53241.9 469814.0 0
54317.5 473151.0 0
57719.5 470579.0 0
60596.5 470217.0 0
63757.4 468283.0 0
66191.7 471647.0 0
68409.2 468940.0 0
72519.3 469086.0 0
70094.8 471399.0 0
74735.6 472631.0 0
77837.2 469221.0 0
79104.2 472782.0 0
81879.8 470658.0 0
85606.0 469952.0 0
91776.5 469476.0 0
88785.5 470849.0 0
94053.4 468037.0 0
97729.7 468742.0 0
94432.5 472362.0 0
100924.0 471097.0 0
104134.0 471495.0 0
107347.0 471975.0 0
109902.0 469445.0 0
110383.0 472299.0 0
113090.0 469461.0 0
113044.0 472292.0 0
116274.0 468282.0 0
117570.0 472613.0 0
121442.0 468895.0 0
126003.0 469864.0 0
129983.0 469831.0 0
131280.0 472958.0 0
133786.0 470221.0 0
137573.0 471129.0 0
139906.0 468305.0 0
141081.0 471336.0 0
143591.0 468867.0 0
147351.0 468605.0 0
151334.0 467654.0 0
149619.0 472027.0 0
153251.0 471080.0 0
155170.0 467972.0 0
158169.0 471555.0 0
163180.0 470617.0 0
168000.0 470489.0 0
171795.0 467757.0 0
173233.0 471086.0 0
175259.0 467862.0 0
178007.0 471354.0 0
182584.0 468806.0 0
186382.0 471787.0 0
186669.0 467396.0 0
190578.0 468916.0 0
194489.0 471918.0 0
194754.0 467833.0 0
199170.0 468831.0 0
203517.0 467532.0 0
203091.0 472048.0 0
207362.0 469298.0 0
212740.0 469900.0 0
219049.0 469653.0 0
224170.0 468421.0 0
228098.0 467369.0 0
228117.0 471654.0 0
232551.0 468976.0 0
237156.0 468364.0 0
239709.0 470250.0 0
243434.0 469177.0 0
248743.0 467181.0 0
251648.0 471481.0 0
254605.0 468356.0 0
259788.0 468469.0 0
265652.0 469860.0 0
270563.0 467801.0 0
270647.0 471443.0 0
275676.0 469792.0 0
281068.0 468202.0 0
289888.0 471528.0 0
294149.0 470189.0 0
296923.0 467129.0 0
297554.0 471765.0 0
301393.0 470088.0 0
304032.0 467314.0 0
306193.0 470493.0 0
309809.0 468203.0 0
309881.0 472035.0 0
313479.0 470774.0 0
317471.0 469809.0 0
321207.0 468504.0 0
321117.0 472063.0 0
324656.0 469776.0 0
329208.0 470746.0 0
334228.0 472296.0 0
336584.0 468214.0 0
339499.0 471143.0 0
343760.0 470091.0 0
347782.0 468623.0 0
349748.0 470752.0 0
352001.0 468972.0 0
356300.0 471621.0 0
359537.0 468497.0 0
363692.0 468635.0 0
364733.0 472446.0 0
368085.0 467893.0 0
367340.0 471098.0 0
371912.0 471854.0 0
375272.0 469169.0 0
379360.0 469463.0 0
384591.0 471780.0 0
388079.0 468795.0 0
391880.0 470037.0 0
389726.0 472050.0 0
394094.0 469118.0 0
394240.0 471819.0 0
398303.0 469406.0 0
402396.0 472779.0 0
406123.0 470714.0 0
408134.0 468153.0 0
409626.0 471566.0 0
412134.0 468562.0 0
416561.0 469184.0 0
413160.0 472312.0 0
416302.0 472382.0 0
420180.0 470811.0 0
423634.0 469076.0 0
426480.0 472473.0 0
427372.0 470255.0 0
430390.0 470701.0 0
436243.0 468675.0 0
433015.0 469664.0 0
435118.0 471360.0 0
440642.0 469153.0 0
439161.0 471547.0 0
443554.0 470616.0 0
447129.0 469926.0 0
446563.0 473283.0 0
450002.0 471668.0 0
40123.2 477462.0 0
43289.9 475324.0 0
47077.9 474008.0 0
50852.6 474083.0 0
47252.1 477327.0 0
50724.8 476958.0 0
52677.6 476534.0 0
55577.7 477249.0 0
58091.4 473683.0 0
62007.8 473716.0 0
59236.9 476993.0 0
65528.0 477086.0 0
69700.5 474051.0 0
72615.6 476445.0 0
77629.6 476286.0 0
81851.9 475214.0 0
85640.6 473616.0 0
84139.2 478008.0 0
87381.0 477252.0 0
90656.4 474296.0 0
91556.2 477842.0 0
95539.2 476840.0 0
98325.8 473604.0 0
101708.0 473870.0 0
100088.0 477136.0 0
104759.0 475881.0 0
109183.0 474911.0 0
112838.0 476121.0 0
117185.0 477889.0 0
122968.0 472968.0 0
120554.0 475273.0 0
122266.0 478035.0 0
127701.0 473708.0 0
124693.0 475709.0 0
130975.0 476505.0 0
134423.0 474144.0 0
138629.0 475136.0 0
141917.0 473745.0 0
143347.0 477347.0 0
145322.0 472585.0 0
148023.0 476121.0 0
153221.0 475701.0 0
158318.0 476541.0 0
163146.0 475124.0 0
167604.0 475434.0 0
171239.0 474299.0 0
174992.0 475227.0 0
179426.0 476835.0 0
182267.0 473290.0 0
184793.0 476564.0 0
190197.0 475003.0 0
194943.0 475961.0 0
198641.0 474135.0 0
202373.0 476812.0 0
207391.0 474667.0 0
211982.0 475026.0 0
216018.0 473724.0 0
219144.0 476444.0 0
223207.0 473588.0 0
227909.0 476827.0 0
232086.0 474255.0 0
236412.0 472602.0 0
241212.0 474281.0 0
246845.0 473066.0 0
252128.0 475746.0 0
256277.0 472935.0 0
258720.0 475785.0 0
261114.0 473335.0 0
264766.0 475224.0 0
268760.0 474806.0 0
273063.0 474015.0 0
277313.0 475738.0 0
280110.0 472666.0 0
284506.0 472177.0 0
282322.0 476885.0 0
287322.0 476708.0 0
294349.0 473812.0 0
291766.0 476702.0 0
297288.0 475299.0 0
300778.0 474574.0 0
303826.0 473419.0 0
307234.0 474985.0 0
312483.0 476419.0 0
317193.0 474349.0 0
321074.0 476146.0 0
325550.0 474458.0 0
330623.0 475594.0 0
338586.0 475718.0 0
343150.0 474497.0 0
347530.0 473352.0 0
351040.0 477338.0 0
351919.0 473077.0 0
355162.0 476203.0 0
359597.0 477422.0 0
361013.0 472814.0 0
364267.0 476373.0 0
367694.0 474746.0 0
371205.0 476507.0 0
375009.0 476350.0 0
376509.0 472867.0 0
377813.0 476126.0 0
380790.0 474701.0 0
384862.0 476161.0 0
387729.0 474648.0 0
392466.0 475487.0 0
396483.0 476262.0 0
397840.0 473548.0 0
400661.0 476291.0 0
405869.0 474205.0 0
404442.0 476915.0 0
408341.0 473644.0 0
408725.0 477248.0 0
411624.0 474687.0 0
415361.0 475327.0 0
419488.0 474341.0 0
423493.0 473048.0 0
422432.0 477027.0 0
426093.0 476006.0 0
429677.0 474580.0 0
433091.0 473413.0 0
436904.0 474264.0 0
434240.0 477019.0 0
439984.0 475770.0 0
437770.0 478394.0 0
441272.0 478541.0 0
443138.0 473901.0 0
444603.0 477789.0 0
447015.0 476201.0 0
449128.0 475046.0 0
449387.0 477577.0 0
452763.0 474106.0 0
456134.0 475033.0 0
452485.0 477543.0 0
456074.0 478575.0 0
458904.0 476996.0 0
461632.0 478495.0 0
36989.1 480078.0 0
33437.4 481929.0 0
40214.2 481693.0 0
43564.4 478860.0 0
42648.2 483688.0 0
45599.1 481990.0 0
49087.9 480302.0 0
52531.4 479451.0 0
52841.5 482284.0 0
56461.4 480900.0 0
60916.4 480578.0 0
66760.4 482027.0 0
70107.9 478160.0 0
70969.4 481077.0 0
74839.7 479459.0 0
77124.5 482359.0 0
80420.7 479707.0 0
85253.0 481031.0 0
88916.7 480992.0 0
93631.9 481060.0 0
98074.4 480753.0 0
102883.0 480461.0 0
108176.0 480123.0 0
113010.0 480190.0 0
115131.0 482260.0 0
119140.0 482121.0 0
126937.0 478346.0 0
123786.0 482127.0 0
127449.0 482007.0 0
130618.0 480218.0 0
135034.0 478498.0 0
133571.0 482125.0 0
139236.0 479087.0 0
137874.0 482570.0 0
142664.0 482249.0 0
146557.0 480011.0 0
150041.0 479568.0 0
151017.0 482506.0 0
155325.0 481360.0 0
161290.0 480078.0 0
166652.0 480131.0 0
171262.0 477923.0 0
171513.0 482067.0 0
175053.0 479372.0 0
178451.0 481044.0 0
182459.0 480765.0 0
187848.0 480664.0 0
193122.0 479476.0 0
197852.0 478779.0 0
201939.0 482330.0 0
205675.0 479185.0 0
210209.0 479515.0 0
213950.0 481678.0 0
214766.0 477883.0 0
218043.0 480654.0 0
223056.0 479311.0 0
227104.0 481834.0 0
232070.0 480312.0 0
235575.0 477098.0 0
238889.0 477655.0 0
236745.0 480978.0 0
244399.0 477480.0 0
241167.0 480613.0 0
248386.0 477482.0 0
246364.0 481898.0 0
251348.0 480545.0 0
255960.0 478370.0 0
258416.0 481325.0 0
261485.0 478650.0 0
266767.0 479579.0 0
272364.0 478682.0 0
277140.0 480025.0 0
280806.0 480957.0 0
285784.0 481711.0 0
291769.0 481682.0 0
295367.0 477526.0 0
296409.0 480747.0 0
299112.0 478211.0 0
303793.0 478330.0 0
308276.0 479273.0 0
311496.0 482028.0 0
314734.0 480521.0 0
318498.0 479588.0 0
323497.0 479361.0 0
327580.0 478439.0 0
326933.0 482153.0 0
334472.0 477817.0 0
331135.0 479919.0 0
338263.0 480338.0 0
342544.0 478615.0 0
345855.0 480974.0 0
346606.0 477619.0 0
349857.0 481227.0 0
355191.0 481092.0 0
360616.0 482594.0 0
363672.0 479590.0 0
365686.0 482748.0 0
367949.0 479312.0 0
373011.0 480332.0 0
378353.0 480029.0 0
382255.0 478392.0 0
382814.0 482011.0 0
385730.0 479757.0 0
388753.0 477898.0 0
389410.0 482027.0 0
391847.0 479605.0 0
393962.0 482472.0 0
395355.0 479446.0 0
398856.0 482934.0 0
398760.0 479117.0 0
402276.0 479938.0 0
406467.0 480901.0 0
411015.0 481568.0 0
413464.0 478151.0 0
415773.0 481748.0 0
418099.0 478201.0 0
419159.0 481890.0 0
421971.0 480485.0 0
426694.0 480142.0 0
430561.0 478395.0 0
431009.0 482296.0 0
433914.0 480794.0 0
436826.0 481185.0 0
436974.0 483832.0 0
440277.0 481517.0 0
444006.0 481942.0 0
448201.0 480557.0 0
452520.0 481560.0 0
456700.0 482314.0 0
459749.0 480876.0 0
462635.0 483123.0 0
464112.0 480070.0 0
466783.0 481996.0 0
23299.3 487828.0 0
27149.5 486086.0 0
30212.7 483907.0 0
29958.5 487764.0 0
32360.6 486179.0 0
35717.5 484325.0 0
35741.7 487564.0 0
38800.9 485191.0 0
41910.3 487087.0 0
38456.8 489341.0 0
45957.7 486102.0 0
49664.5 483770.0 0
49748.5 487510.0 0
52413.0 485537.0 0
55675.0 484641.0 0
53305.4 487923.0 0
56210.5 487690.0 0
59288.4 484812.0 0
62424.4 487086.0 0
63191.0 484240.0 0
65797.5 485865.0 0
69609.4 485308.0 0
73538.0 483996.0 0
72941.2 487818.0 0
76568.8 485866.0 0
79129.7 483870.0 0
82249.3 483149.0 0
80520.6 486932.0 0
85353.9 485281.0 0
89067.5 484526.0 0
87902.1 488385.0 0
91637.7 487634.0 0
92571.4 484316.0 0
96815.3 485580.0 0
100934.0 483695.0 0
101525.0 487319.0 0
104337.0 484305.0 0
111850.0 483669.0 0
107823.0 484836.0 0
115669.0 486662.0 0
120826.0 486184.0 0
125160.0 485916.0 0
129824.0 485106.0 0
134903.0 486295.0 0
140091.0 487104.0 0
144494.0 486221.0 0
147684.0 483634.0 0
152105.0 485747.0 0
157276.0 487621.0 0
159324.0 483916.0 0
163232.0 485439.0 0
167964.0 484672.0 0
171879.0 487053.0 0
175392.0 483520.0 0
176503.0 487080.0 0
179470.0 484703.0 0
184308.0 485788.0 0
188980.0 485034.0 0
191625.0 483230.0 0
191982.0 486744.0 0
196230.0 483857.0 0
200497.0 487656.0 0
205411.0 487037.0 0
206786.0 482820.0 0
210798.0 485652.0 0
216349.0 485306.0 0
221338.0 483895.0 0
225463.0 486760.0 0
230020.0 484519.0 0
234599.0 485170.0 0
238796.0 484115.0 0
242997.0 485897.0 0
249712.0 484860.0 0
255009.0 484572.0 0
261072.0 483893.0 0
265741.0 484200.0 0
270204.0 483456.0 0
274593.0 482947.0 0
273381.0 486638.0 0
278043.0 483023.0 0
276812.0 485579.0 0
281281.0 486146.0 0
289285.0 485291.0 0
286045.0 486621.0 0
292707.0 486672.0 0
296214.0 484611.0 0
300913.0 482804.0 0
303429.0 486726.0 0
306598.0 483601.0 0
311257.0 486379.0 0
316119.0 484369.0 0
322077.0 484445.0 0
327615.0 487154.0 0
330791.0 483832.0 0
332810.0 486929.0 0
334807.0 482811.0 0
336780.0 487169.0 0
338759.0 484164.0 0
342320.0 482780.0 0
341823.0 487607.0 0
346846.0 485297.0 0
352412.0 485453.0 0
357591.0 486525.0 0
363370.0 485195.0 0
362079.0 487606.0 0
366195.0 486806.0 0
370387.0 484325.0 0
375412.0 483998.0 0
380284.0 485855.0 0
386188.0 483075.0 0
384594.0 485042.0 0
387754.0 485687.0 0
391515.0 485639.0 0
396280.0 486306.0 0
403136.0 483745.0 0
406490.0 484127.0 0
406099.0 486895.0 0
409097.0 484759.0 0
414044.0 486111.0 0
421228.0 483778.0 0
418682.0 484894.0 0
424482.0 483901.0 0
422273.0 486978.0 0
426864.0 487894.0 0
428302.0 484199.0 0
431040.0 485922.0 0
434117.0 484202.0 0
434240.0 487441.0 0
437450.0 486556.0 0
440296.0 484740.0 0
443975.0 485754.0 0
448199.0 484940.0 0
452433.0 485364.0 0
455997.0 485682.0 0
459616.0 485104.0 0
458828.0 488535.0 0
462729.0 487950.0 0
465775.0 485705.0 0
469749.0 484571.0 0
468957.0 488382.0 0
473109.0 486284.0 0
476403.0 487394.0 0
16714.4 491527.0 0
13830.7 493711.0 0
20249.4 490404.0 0
20577.4 493756.0 0
23670.7 491625.0 0
26561.9 489603.0 0
30020.8 490659.0 0
27131.0 493609.0 0
33124.8 489163.0 0
35536.2 490702.0 0
32866.9 492211.0 0
35911.0 493055.0 0
39250.1 493517.0 0
42301.8 490613.0 0
45954.5 490195.0 0
50834.4 490843.0 0
55185.8 490766.0 0
59174.6 488508.0 0
59133.8 492428.0 0
65706.2 488874.0 0
62659.7 490584.0 0
63286.2 493125.0 0
66455.8 492261.0 0
69092.9 488810.0 0
70448.3 491764.0 0
76440.9 488923.0 0
73862.4 490797.0 0
76213.3 492339.0 0
79473.3 490834.0 0
82275.0 493304.0 0
83771.3 489088.0 0
86488.1 491672.0 0
90553.6 490768.0 0
94495.7 489575.0 0
93538.4 493423.0 0
96533.1 491786.0 0
98492.1 489827.0 0
101029.0 491029.0 0
105500.0 488351.0 0
102894.0 490055.0 0
103683.0 492690.0 0
110560.0 487956.0 0
107937.0 491839.0 0
113410.0 492334.0 0
118528.0 490401.0 0
122750.0 489552.0 0
121181.0 493720.0 0
127357.0 489326.0 0
125250.0 492357.0 0
131564.0 490184.0 0
136381.0 490936.0 0
140903.0 492071.0 0
143968.0 489836.0 0
148205.0 488573.0 0
152613.0 489203.0 0
155241.0 492648.0 0
161958.0 490577.0 0
166884.0 489059.0 0
170377.0 491886.0 0
174957.0 490804.0 0
179796.0 489687.0 0
184527.0 491256.0 0
188443.0 488636.0 0
191645.0 490316.0 0
195560.0 489218.0 0
199167.0 492371.0 0
203745.0 491384.0 0
209128.0 491573.0 0
214573.0 490031.0 0
219902.0 488565.0 0
222913.0 491311.0 0
227354.0 491784.0 0
230730.0 488433.0 0
234890.0 490187.0 0
238611.0 487968.0 0
241443.0 489402.0 0
245156.0 490779.0 0
250702.0 489337.0 0
258930.0 487990.0 0
255514.0 489833.0 0
263348.0 488651.0 0
268874.0 488493.0 0
273328.0 490768.0 0
276835.0 488887.0 0
284577.0 490620.0 0
280253.0 491608.0 0
289275.0 489977.0 0
293882.0 491380.0 0
296187.0 488230.0 0
299840.0 487713.0 0
298145.0 491672.0 0
302402.0 491570.0 0
306895.0 489393.0 0
311249.0 490575.0 0
315328.0 489344.0 0
319411.0 488310.0 0
319285.0 492137.0 0
323566.0 490763.0 0
328295.0 492005.0 0
331295.0 490012.0 0
334573.0 490494.0 0
338706.0 491208.0 0
343234.0 492185.0 0
346166.0 489794.0 0
349889.0 489001.0 0
354141.0 490559.0 0
359004.0 491686.0 0
362719.0 490796.0 0
365773.0 490187.0 0
369876.0 489024.0 0
374448.0 488334.0 0
376985.0 492296.0 0
378258.0 489803.0 0
385416.0 488238.0 0
382156.0 491620.0 0
387501.0 492728.0 0
389808.0 489358.0 0
393355.0 489180.0 0
401631.0 488367.0 0
396861.0 490166.0 0
399528.0 493246.0 0
406394.0 490238.0 0
409801.0 488642.0 0
409896.0 493175.0 0
413807.0 491090.0 0
417002.0 492303.0 0
418794.0 489217.0 0
423547.0 491089.0 0
431201.0 489920.0 0
427869.0 492239.0 0
436821.0 489674.0 0
434517.0 491354.0 0
440912.0 488907.0 0
438363.0 492204.0 0
442282.0 493076.0 0
446100.0 490034.0 0
450184.0 488583.0 0
450588.0 493326.0 0
454529.0 489866.0 0
462148.0 491856.0 0
458526.0 491729.0 0
466433.0 489485.0 0
466055.0 492737.0 0
472212.0 489809.0 0
469793.0 492555.0 0
475690.0 489775.0 0
475207.0 494015.0 0
479234.0 490401.0 0
482974.0 492602.0 0
6007.51 499875.0 0
10458.9 497440.0 0
14029.6 496580.0 0
16221.9 498956.0 0
17294.7 494626.0 0
20305.9 497121.0 0
23778.8 495569.0 0
23862.8 499191.0 0
30262.5 494436.0 0
27320.6 497478.0 0
33796.9 495065.0 0
31315.4 498466.0 0
36811.5 497686.0 0
43324.7 494252.0 0
45389.4 497718.0 0
47401.7 493952.0 0
51617.5 494162.0 0
50064.5 497301.0 0
54668.2 494370.0 0
57676.7 496034.0 0
61396.2 495897.0 0
65345.1 495561.0 0
69025.5 494897.0 0
67704.1 498286.0 0
71096.4 497180.0 0
73428.0 494483.0 0
74650.5 498082.0 0
78047.5 495267.0 0
81299.1 496911.0 0
85479.9 496324.0 0
89298.2 493510.0 0
90492.8 497042.0 0
94936.5 497184.0 0
98891.0 494492.0 0
102770.0 496845.0 0
106209.0 495381.0 0
109445.0 495115.0 0
111735.0 496976.0 0
117430.0 493848.0 0
115194.0 496828.0 0
118727.0 496845.0 0
121659.0 497514.0 0
125315.0 496462.0 0
129163.0 493684.0 0
133138.0 494438.0 0
134688.0 497298.0 0
137418.0 494865.0 0
141734.0 496128.0 0
144415.0 496827.0 0
145973.0 493753.0 0
150435.0 492543.0 0
151272.0 497362.0 0
157067.0 496946.0 0
159072.0 493191.0 0
161951.0 495227.0 0
166241.0 493459.0 0
166001.0 497687.0 0
169792.0 495860.0 0
173186.0 494335.0 0
177413.0 494249.0 0
181276.0 493867.0 0
184619.0 496184.0 0
188658.0 492769.0 0
188792.0 496346.0 0
193748.0 494688.0 0
198651.0 496907.0 0
202429.0 495175.0 0
206227.0 496237.0 0
210746.0 497008.0 0
213733.0 494083.0 0
218535.0 493732.0 0
223823.0 495436.0 0
229361.0 496553.0 0
231543.0 492308.0 0
234270.0 494519.0 0
239429.0 493180.0 0
244129.0 496070.0 0
249101.0 494698.0 0
254153.0 493858.0 0
259547.0 492928.0 0
265850.0 494331.0 0
270550.0 492795.0 0
273364.0 495311.0 0
276311.0 492620.0 0
278377.0 496358.0 0
283611.0 495423.0 0
287767.0 494216.0 0
291736.0 495479.0 0
296088.0 495158.0 0
299770.0 494770.0 0
304103.0 496706.0 0
309184.0 494290.0 0
313723.0 493650.0 0
316736.0 493007.0 0
317854.0 496242.0 0
321640.0 494886.0 0
326009.0 496221.0 0
329824.0 494799.0 0
332234.0 493278.0 0
335669.0 493905.0 0
336439.0 497093.0 0
340117.0 495509.0 0
344685.0 495858.0 0
349571.0 494055.0 0
355362.0 495367.0 0
359925.0 496144.0 0
364160.0 494532.0 0
368629.0 493001.0 0
372899.0 492910.0 0
373600.0 496824.0 0
376030.0 495055.0 0
379551.0 495230.0 0
384255.0 496809.0 0
389430.0 497233.0 0
393801.0 493957.0 0
393010.0 498528.0 0
397987.0 496787.0 0
401156.0 496146.0 0
404613.0 493370.0 0
404328.0 497333.0 0
408029.0 497077.0 0
411766.0 497064.0 0
415545.0 495407.0 0
420383.0 494214.0 0
425026.0 495544.0 0
428819.0 494761.0 0
431971.0 494052.0 0
430018.0 498100.0 0
435780.0 494074.0 0
435300.0 498260.0 0
439221.0 495210.0 0
440187.0 498273.0 0
443383.0 496617.0 0
446186.0 494316.0 0
455841.0 494244.0 0
453387.0 497078.0 0
458251.0 498546.0 0
459550.0 494703.0 0
463313.0 496770.0 0
467778.0 496730.0 0
471454.0 496261.0 0
475179.0 498850.0 0
479771.0 494353.0 0
483350.0 496908.0 0
479589.0 497909.0 0
486457.0 497996.0 0
486406.0 494503.0 0
489441.0 496125.0 0
488521.0 498612.0 0
492433.0 498864.0 0
2190.26 500079.0 0
9036.58 502107.0 0
9052.96 504527.0 0
12026.7 501522.0 0
15547.0 503151.0 0
20277.5 500407.0 0
19435.8 503869.0 0
23168.9 503102.0 0
27111.3 501944.0 0
31118.9 502864.0 0
34607.1 501187.0 0
38588.1 502594.0 0
41231.8 498032.0 0
43255.3 501927.0 0
47507.1 500941.0 0
51293.4 501359.0 0
54372.1 498320.0 0
55410.0 502581.0 0
58655.7 499325.0 0
59984.9 502821.0 0
63274.9 499553.0 0
67091.7 502150.0 0
70915.4 500499.0 0
74655.1 502658.0 0
78705.3 499521.0 0
82623.9 499953.0 0
87113.2 500766.0 0
92325.6 501785.0 0
98167.1 500071.0 0
102761.0 500759.0 0
107647.0 499672.0 0
112879.0 500767.0 0
116774.0 499865.0 0
120014.0 500166.0 0
124443.0 501113.0 0
130206.0 498876.0 0
134539.0 500428.0 0
138165.0 498546.0 0
137953.0 502812.0 0
142248.0 500227.0 0
146284.0 498590.0 0
145471.0 502038.0 0
149139.0 501877.0 0
154568.0 502124.0 0
162603.0 498557.0 0
159595.0 500395.0 0
164060.0 502003.0 0
169277.0 499500.0 0
171051.0 501663.0 0
174584.0 499107.0 0
178920.0 502093.0 0
180111.0 497849.0 0
183037.0 501000.0 0
187177.0 499895.0 0
191138.0 498860.0 0
190343.0 502250.0 0
195513.0 501387.0 0
202610.0 500084.0 0
207984.0 501059.0 0
215444.0 498253.0 0
220424.0 498883.0 0
225251.0 499881.0 0
229326.0 501102.0 0
234059.0 499202.0 0
238719.0 498252.0 0
242550.0 500940.0 0
247825.0 500167.0 0
252740.0 498778.0 0
257333.0 497836.0 0
261483.0 497746.0 0
264978.0 500207.0 0
269843.0 499211.0 0
274628.0 499687.0 0
278105.0 500148.0 0
282153.0 500615.0 0
287815.0 499065.0 0
293471.0 500270.0 0
298490.0 498534.0 0
301921.0 501419.0 0
308904.0 498617.0 0
306510.0 502500.0 0
313288.0 497839.0 0
311603.0 502272.0 0
317298.0 501250.0 0
321828.0 499006.0 0
326972.0 501772.0 0
332033.0 498549.0 0
338695.0 500564.0 0
342974.0 498985.0 0
347669.0 499378.0 0
352507.0 499147.0 0
357620.0 499999.0 0
360771.0 502686.0 0
363515.0 499851.0 0
369105.0 498154.0 0
367304.0 502921.0 0
370885.0 502958.0 0
374058.0 500760.0 0
376965.0 498277.0 0
378536.0 502529.0 0
380588.0 498829.0 0
383137.0 501424.0 0
387291.0 500753.0 0
391772.0 501806.0 0
396035.0 499751.0 0
398665.0 503016.0 0
400972.0 499707.0 0
406179.0 500871.0 0
411011.0 501072.0 0
415146.0 499346.0 0
416096.0 503074.0 0
420350.0 499368.0 0
425376.0 499833.0 0
428973.0 502720.0 0
432706.0 501905.0 0
435952.0 503214.0 0
438941.0 501467.0 0
443362.0 501156.0 0
448359.0 498820.0 0
450447.0 503324.0 0
454099.0 501199.0 0
462446.0 500474.0 0
466948.0 500814.0 0
464153.0 503187.0 0
471058.0 500208.0 0
470367.0 504195.0 0
474809.0 503478.0 0
479789.0 502450.0 0
484249.0 500532.0 0
487951.0 500617.0 0
486970.0 503350.0 0
491707.0 502366.0 0
497148.0 500039.0 0
2070.72 503285.0 0
2543.26 507352.0 0
5549.43 504483.0 0
7938.58 507136.0 0
5779.79 508425.0 0
12131.3 506856.0 0
17412.3 506996.0 0
21333.4 506451.0 0
25395.7 506220.0 0
23258.5 509213.0 0
29551.7 506981.0 0
34368.1 504962.0 0
37590.9 507178.0 0
42066.3 507005.0 0
47023.2 504958.0 0
51057.6 504643.0 0
50011.3 508220.0 0
54073.4 506795.0 0
57747.6 505644.0 0
61477.9 506961.0 0
63541.0 503554.0 0
66088.2 506123.0 0
70027.8 504537.0 0
72663.0 507208.0 0
76458.1 506534.0 0
80023.7 503938.0 0
84108.0 503594.0 0
88031.6 505141.0 0
90996.9 506722.0 0
95927.7 505981.0 0
100273.0 504282.0 0
100730.0 508366.0 0
104340.0 504695.0 0
109422.0 505257.0 0
113344.0 504008.0 0
116730.0 503674.0 0
114055.0 507757.0 0
120598.0 503694.0 0
119354.0 507691.0 0
123845.0 505961.0 0
128048.0 503945.0 0
129954.0 506403.0 0
132438.0 503962.0 0
135538.0 506549.0 0
139471.0 506598.0 0
142445.0 504233.0 0
146387.0 505596.0 0
150883.0 506124.0 0
155414.0 507542.0 0
159513.0 504678.0 0
168304.0 503582.0 0
164567.0 507473.0 0
172836.0 504581.0 0
176933.0 506282.0 0
181733.0 505486.0 0
186581.0 504703.0 0
191360.0 505827.0 0
195782.0 507229.0 0
200301.0 504876.0 0
205049.0 504907.0 0
209320.0 505829.0 0
212988.0 502925.0 0
217651.0 502615.0 0
218915.0 506565.0 0
221942.0 503413.0 0
226631.0 504291.0 0
232131.0 504802.0 0
237593.0 502958.0 0
241585.0 506119.0 0
246971.0 505827.0 0
252029.0 503814.0 0
256636.0 502549.0 0
259595.0 507616.0 0
255754.0 506938.0 0
261440.0 503542.0 0
266881.0 504859.0 0
271728.0 503816.0 0
276971.0 504445.0 0
282312.0 505889.0 0
285848.0 503323.0 0
289673.0 503786.0 0
286667.0 507283.0 0
293379.0 504976.0 0
297794.0 504114.0 0
302676.0 506022.0 0
306969.0 507600.0 0
311176.0 506969.0 0
314712.0 504614.0 0
314407.0 507280.0 0
318203.0 507236.0 0
322041.0 503927.0 0
325599.0 505753.0 0
329090.0 507418.0 0
331216.0 503556.0 0
333758.0 506839.0 0
334729.0 502795.0 0
338528.0 505576.0 0
344427.0 503955.0 0
350167.0 503319.0 0
348777.0 507626.0 0
354306.0 503052.0 0
353183.0 506988.0 0
358273.0 505288.0 0
363882.0 505314.0 0
369605.0 507483.0 0
374328.0 504821.0 0
378532.0 507164.0 0
382605.0 505480.0 0
385768.0 504037.0 0
386696.0 507202.0 0
389093.0 504298.0 0
391373.0 507244.0 0
394926.0 504592.0 0
399000.0 507100.0 0
403326.0 504474.0 0
406802.0 507847.0 0
408260.0 504775.0 0
412363.0 505761.0 0
416616.0 507210.0 0
420361.0 504618.0 0
424430.0 503596.0 0
424051.0 507692.0 0
428360.0 506924.0 0
432536.0 505511.0 0
436102.0 506998.0 0
440800.0 505374.0 0
446407.0 504679.0 0
450403.0 506337.0 0
448486.0 508167.0 0
453945.0 505311.0 0
457086.0 508383.0 0
459007.0 503881.0 0
463227.0 506194.0 0
467207.0 505040.0 0
466263.0 508553.0 0
472883.0 506783.0 0
470106.0 507851.0 0
476831.0 507427.0 0
480552.0 507040.0 0
483502.0 508969.0 0
483720.0 504744.0 0
486098.0 506919.0 0
489820.0 506153.0 0
494951.0 504734.0 0
498413.0 503086.0 0
498044.0 505916.0 0
3471.12 512355.0 0
8316.4 510410.0 0
12115.0 511535.0 0
15523.1 509555.0 0
19438.5 509824.0 0
16802.0 512490.0 0
22098.6 512969.0 0
26618.3 510596.0 0
30162.8 511451.0 0
26167.5 514340.0 0
33654.5 509220.0 0
33456.2 512815.0 0
38265.0 511885.0 0
46374.6 508724.0 0
43700.2 511523.0 0
48539.4 512185.0 0
53051.1 510544.0 0
56260.0 512430.0 0
57113.3 508967.0 0
60272.8 510989.0 0
64818.0 510523.0 0
69023.8 508657.0 0
69010.3 513126.0 0
71885.2 510637.0 0
73571.3 513478.0 0
75106.7 509985.0 0
79562.4 508935.0 0
77659.2 513031.0 0
81807.7 512097.0 0
84295.9 508223.0 0
85503.8 513087.0 0
88573.4 509598.0 0
92085.6 509545.0 0
96153.0 511717.0 0
101466.0 512907.0 0
105249.0 509387.0 0
109777.0 510561.0 0
113654.0 512615.0 0
116808.0 510085.0 0
119120.0 513115.0 0
123342.0 510167.0 0
127377.0 508075.0 0
127344.0 512115.0 0
131875.0 509621.0 0
137596.0 509985.0 0
142800.0 508964.0 0
144911.0 512734.0 0
147629.0 509834.0 0
151825.0 510969.0 0
156648.0 512745.0 0
159728.0 509134.0 0
167387.0 511762.0 0
169881.0 507956.0 0
173488.0 508342.0 0
171696.0 511678.0 0
175713.0 510923.0 0
180054.0 509975.0 0
184592.0 509331.0 0
188405.0 508662.0 0
192196.0 510694.0 0
196867.0 512595.0 0
202953.0 508535.0 0
199340.0 509034.0 0
201050.0 511821.0 0
206904.0 509493.0 0
211049.0 509415.0 0
214738.0 507833.0 0
223152.0 507747.0 0
219874.0 510747.0 0
224066.0 512186.0 0
227951.0 509127.0 0
232929.0 510317.0 0
237081.0 508025.0 0
244037.0 509744.0 0
240348.0 510054.0 0
251588.0 508852.0 0
257453.0 511082.0 0
263169.0 507651.0 0
262146.0 511820.0 0
266668.0 509885.0 0
270709.0 507905.0 0
274937.0 509749.0 0
270804.0 512438.0 0
278966.0 508608.0 0
281670.0 509591.0 0
284650.0 511520.0 0
288750.0 512477.0 0
291057.0 508460.0 0
295679.0 508741.0 0
299553.0 508654.0 0
303478.0 511124.0 0
309600.0 511943.0 0
314124.0 510361.0 0
318109.0 512374.0 0
323590.0 510214.0 0
328636.0 511760.0 0
332770.0 511524.0 0
337140.0 510261.0 0
342445.0 509620.0 0
347561.0 512129.0 0
351861.0 510820.0 0
356475.0 508846.0 0
361015.0 509654.0 0
365364.0 508987.0 0
365172.0 512264.0 0
369151.0 512968.0 0
373460.0 512016.0 0
374592.0 508467.0 0
377979.0 511348.0 0
383033.0 510365.0 0
388445.0 511193.0 0
392634.0 511532.0 0
395551.0 509209.0 0
399243.0 511375.0 0
403060.0 509248.0 0
402886.0 512948.0 0
410141.0 509296.0 0
407198.0 512250.0 0
412060.0 513477.0 0
413696.0 509661.0 0
417279.0 511916.0 0
420111.0 508565.0 0
422647.0 511998.0 0
432070.0 509724.0 0
427201.0 511202.0 0
434731.0 513885.0 0
436596.0 510258.0 0
440510.0 509799.0 0
444760.0 508651.0 0
444008.0 512573.0 0
452717.0 509552.0 0
448672.0 512019.0 0
457251.0 512682.0 0
461309.0 509471.0 0
461816.0 513370.0 0
464904.0 511794.0 0
473804.0 510525.0 0
468990.0 511805.0 0
479674.0 511266.0 0
484230.0 512702.0 0
487535.0 510073.0 0
492608.0 509435.0 0
494246.0 513468.0 0
497311.0 509334.0 0
498229.0 512546.0 0
1371.27 516311.0 0
8581.73 514027.0 0
5315.54 516939.0 0
9637.95 518278.0 0
13228.7 515326.0 0
18645.5 515988.0 0
23120.6 517058.0 0
20307.8 519378.0 0
26579.1 517761.0 0
30399.2 515441.0 0
35149.1 515484.0 0
33639.2 518691.0 0
41665.1 514719.0 0
38562.1 517393.0 0
45168.2 514590.0 0
43469.0 517642.0 0
48435.7 516832.0 0
52494.7 514068.0 0
52667.6 517397.0 0
56116.9 516074.0 0
59972.5 514510.0 0
59922.1 518704.0 0
64206.0 515032.0 0
67979.0 517199.0 0
71801.9 516244.0 0
75713.9 517079.0 0
80709.4 516011.0 0
85014.6 516805.0 0
87755.7 515946.0 0
90510.8 513285.0 0
90300.2 517173.0 0
93871.4 516555.0 0
98165.6 516015.0 0
102005.0 518053.0 0
106235.0 514225.0 0
110621.0 516223.0 0
115333.0 517301.0 0
123926.0 514707.0 0
127262.0 516083.0 0
130383.0 514654.0 0
134999.0 514010.0 0
140327.0 513922.0 0
140645.0 518088.0 0
144226.0 516629.0 0
148599.0 514904.0 0
152771.0 515045.0 0
155996.0 517536.0 0
162418.0 513539.0 0
169316.0 515299.0 0
174270.0 515971.0 0
178539.0 513928.0 0
182840.0 513827.0 0
187763.0 513028.0 0
192819.0 515928.0 0
200102.0 515082.0 0
204526.0 513842.0 0
209720.0 513552.0 0
215367.0 513451.0 0
220846.0 515722.0 0
228022.0 513980.0 0
225058.0 516404.0 0
232399.0 515092.0 0
237340.0 513254.0 0
242082.0 513191.0 0
243168.0 517338.0 0
247788.0 513590.0 0
253453.0 513251.0 0
257384.0 516488.0 0
262057.0 516433.0 0
266370.0 514898.0 0
274814.0 514386.0 0
279285.0 512792.0 0
277845.0 517603.0 0
283409.0 516667.0 0
289731.0 517654.0 0
293098.0 512764.0 0
295032.0 516551.0 0
298190.0 512840.0 0
301951.0 515448.0 0
306184.0 515590.0 0
310686.0 517127.0 0
313905.0 514343.0 0
317069.0 516349.0 0
321460.0 516237.0 0
326482.0 515512.0 0
330527.0 514895.0 0
334079.0 516086.0 0
339161.0 515210.0 0
343693.0 513840.0 0
345635.0 517235.0 0
356264.0 513345.0 0
351207.0 515199.0 0
359045.0 517332.0 0
361864.0 514535.0 0
366392.0 516861.0 0
372322.0 517731.0 0
376637.0 515137.0 0
380990.0 515034.0 0
386122.0 515314.0 0
391350.0 515535.0 0
395794.0 514147.0 0
400216.0 515550.0 0
404807.0 516415.0 0
409015.0 516395.0 0
415666.0 516123.0 0
420430.0 516031.0 0
425366.0 515649.0 0
428008.0 516348.0 0
430086.0 514293.0 0
433204.0 517807.0 0
437022.0 517762.0 0
439565.0 514181.0 0
440121.0 518115.0 0
443487.0 516879.0 0
447175.0 515625.0 0
453040.0 513728.0 0
450809.0 516557.0 0
455615.0 517517.0 0
459439.0 515942.0 0
463091.0 516910.0 0
465703.0 514540.0 0
466481.0 518225.0 0
472358.0 514595.0 0
468702.0 515460.0 0
476935.0 514285.0 0
474848.0 517521.0 0
478446.0 518069.0 0
481571.0 515908.0 0
489157.0 513664.0 0
485767.0 515881.0 0
488151.0 518429.0 0
491169.0 516725.0 0
494340.0 517524.0 0
497762.0 515593.0 0
2334.06 519584.0 0
2422.13 523550.0 0
6130.91 521180.0 0
15248.8 519788.0 0
10658.5 522682.0 0
19317.6 522389.0 0
24289.6 521915.0 0
29527.7 519960.0 0
32592.4 522714.0 0
36469.9 521254.0 0
41211.8 521249.0 0
46109.2 520748.0 0
48543.6 523421.0 0
51095.9 520806.0 0
55323.2 519762.0 0
54160.7 522599.0 0
57879.4 522681.0 0
64032.6 518930.0 0
62556.6 523017.0 0
66897.9 520823.0 0
71756.8 520286.0 0
76890.7 521451.0 0
82508.9 520790.0 0
87236.2 523169.0 0
87495.8 519145.0 0
91768.1 520852.0 0
96836.8 520056.0 0
106834.0 519354.0 0
111622.0 521330.0 0
116329.0 521670.0 0
120644.0 518661.0 0
125074.0 518376.0 0
124500.0 522104.0 0
128592.0 519772.0 0
132676.0 518213.0 0
137127.0 518224.0 0
134563.0 523156.0 0
139559.0 521374.0 0
142709.0 520063.0 0
146796.0 520317.0 0
151618.0 519107.0 0
155895.0 522619.0 0
160231.0 518796.0 0
163144.0 521234.0 0
165411.0 517901.0 0
166323.0 522463.0 0
169952.0 519634.0 0
174307.0 521250.0 0
180063.0 519168.0 0
185945.0 517718.0 0
190066.0 520226.0 0
194298.0 520100.0 0
197529.0 517902.0 0
202180.0 518418.0 0
200550.0 522004.0 0
207175.0 518151.0 0
212161.0 518055.0 0
209796.0 521982.0 0
216971.0 519284.0 0
222851.0 520470.0 0
228622.0 518508.0 0
233696.0 519667.0 0
238552.0 518446.0 0
242781.0 522133.0 0
247399.0 519764.0 0
252143.0 517970.0 0
255622.0 521609.0 0
260475.0 520022.0 0
265090.0 520189.0 0
271146.0 518032.0 0
280710.0 520931.0 0
285450.0 522058.0 0
294683.0 521453.0 0
298885.0 518422.0 0
303394.0 519621.0 0
307442.0 519515.0 0
315065.0 520529.0 0
320236.0 521071.0 0
324914.0 520248.0 0
330479.0 519858.0 0
336544.0 520771.0 0
341725.0 519930.0 0
345792.0 522222.0 0
349558.0 519356.0 0
354690.0 519497.0 0
360031.0 521334.0 0
362671.0 518244.0 0
364745.0 521386.0 0
368246.0 520548.0 0
371419.0 522774.0 0
375713.0 523084.0 0
378210.0 519326.0 0
383298.0 519451.0 0
385728.0 523331.0 0
389164.0 519973.0 0
393230.0 518873.0 0
397012.0 518945.0 0
399233.0 523316.0 0
401828.0 519603.0 0
403369.0 522906.0 0
407011.0 520388.0 0
412432.0 519387.0 0
417811.0 520384.0 0
423153.0 520025.0 0
428958.0 519794.0 0
435038.0 521802.0 0
438934.0 520465.0 0
442696.0 520810.0 0
447550.0 520200.0 0
452385.0 520449.0 0
456515.0 523251.0 0
459925.0 519848.0 0
463920.0 520335.0 0
467017.0 522473.0 0
470983.0 519267.0 0
475999.0 521170.0 0
484466.0 518780.0 0
481114.0 521376.0 0
486711.0 522753.0 0
491878.0 521051.0 0
497388.0 519481.0 0
496779.0 523701.0 0
2053.7 527552.0 0
6539.49 525652.0 0
11912.0 527228.0 0
15675.3 524722.0 0
20501.7 526311.0 0
25746.6 528052.0 0
28810.2 523932.0 0
31193.0 527123.0 0
34875.7 525701.0 0
38062.7 524166.0 0
37967.0 528054.0 0
40933.1 525603.0 0
44634.1 524638.0 0
48161.0 527909.0 0
51852.9 524707.0 0
55060.8 524889.0 0
53763.5 528429.0 0
58098.9 526700.0 0
62387.4 527974.0 0
67832.3 525390.0 0
73053.4 524491.0 0
76368.4 526618.0 0
79734.1 524722.0 0
83408.1 525473.0 0
86932.8 528410.0 0
90762.6 525176.0 0
95269.1 524812.0 0
100675.0 523504.0 0
103103.0 527633.0 0
106161.0 524054.0 0
110511.0 525762.0 0
114748.0 525562.0 0
120139.0 523701.0 0
118657.0 528025.0 0
123618.0 526857.0 0
128563.0 524870.0 0
139441.0 525230.0 0
142948.0 523262.0 0
143107.0 527415.0 0
146192.0 524697.0 0
150221.0 523750.0 0
153079.0 527240.0 0
160925.0 524198.0 0
164685.0 526108.0 0
170209.0 524610.0 0
174406.0 525312.0 0
177552.0 523670.0 0
177544.0 527674.0 0
181015.0 524774.0 0
185298.0 522935.0 0
187598.0 527796.0 0
189628.0 524241.0 0
192972.0 523411.0 0
196954.0 522916.0 0
194932.0 527518.0 0
200487.0 526501.0 0
204882.0 522978.0 0
213873.0 523149.0 0
210324.0 526233.0 0
218440.0 524244.0 0
223268.0 525644.0 0
227008.0 522811.0 0
231543.0 524039.0 0
237466.0 524192.0 0
243947.0 527420.0 0
246958.0 523896.0 0
249369.0 526834.0 0
251056.0 522752.0 0
253797.0 526108.0 0
259267.0 525861.0 0
264375.0 524802.0 0
269353.0 523456.0 0
267374.0 527583.0 0
275461.0 523046.0 0
281207.0 525634.0 0
290279.0 524253.0 0
286143.0 527551.0 0
294660.0 526500.0 0
299679.0 523467.0 0
304885.0 524439.0 0
309989.0 523091.0 0
314725.0 526935.0 0
319833.0 525545.0 0
322944.0 523805.0 0
325736.0 523921.0 0
328776.0 524839.0 0
333115.0 524772.0 0
340809.0 524967.0 0
346339.0 527874.0 0
350889.0 523916.0 0
356624.0 525580.0 0
362411.0 525480.0 0
367623.0 525530.0 0
372766.0 527349.0 0
377148.0 527055.0 0
380868.0 524347.0 0
385919.0 528239.0 0
389521.0 524821.0 0
394135.0 523500.0 0
397585.0 527362.0 0
401944.0 526809.0 0
406592.0 525256.0 0
410523.0 523562.0 0
410773.0 527996.0 0
415064.0 524832.0 0
420464.0 524278.0 0
425763.0 524280.0 0
423332.0 528025.0 0
428163.0 528836.0 0
431034.0 525132.0 0
435629.0 526827.0 0
440135.0 524338.0 0
439301.0 528597.0 0
445358.0 524401.0 0
443462.0 528319.0 0
447537.0 528225.0 0
450879.0 525092.0 0
455248.0 528131.0 0
462260.0 524170.0 0
459165.0 527080.0 0
466757.0 527102.0 0
472172.0 524479.0 0
477704.0 524831.0 0
475362.0 528395.0 0
482553.0 526063.0 0
479420.0 528336.0 0
486632.0 527838.0 0
491420.0 526092.0 0
497088.0 528414.0 0
2071.14 531281.0 0
5448.21 530129.0 0
8850.5 528971.0 0
9226.08 531997.0 0
13014.4 531461.0 0
16534.1 529097.0 0
16583.8 533616.0 0
20668.5 531222.0 0
30264.8 531633.0 0
34252.5 529768.0 0
37805.4 532034.0 0
42085.3 533727.0 0
42590.0 529403.0 0
46015.3 532092.0 0
50460.7 532146.0 0
55032.0 532836.0 0
58520.5 530610.0 0
61902.6 532879.0 0
66438.7 530767.0 0
71947.0 528844.0 0
70352.4 533217.0 0
75682.8 531185.0 0
80750.0 529410.0 0
84303.3 533171.0 0
89433.9 532818.0 0
92350.6 528729.0 0
94350.2 532526.0 0
98437.8 529018.0 0
103093.0 531701.0 0
107394.0 529139.0 0
112465.0 529749.0 0
116658.0 532091.0 0
121996.0 532021.0 0
127263.0 530231.0 0
130576.0 532325.0 0
132587.0 528712.0 0
133560.0 532648.0 0
138011.0 529721.0 0
143256.0 532776.0 0
148055.0 528753.0 0
152718.0 531748.0 0
158180.0 529103.0 0
163336.0 529910.0 0
167683.0 528967.0 0
172633.0 529370.0 0
177034.0 533003.0 0
182297.0 529665.0 0
186808.0 533115.0 0
191299.0 530878.0 0
201562.0 532400.0 0
205798.0 528352.0 0
210591.0 531520.0 0
214823.0 527860.0 0
219782.0 529416.0 0
224263.0 531008.0 0
228003.0 527841.0 0
233448.0 528614.0 0
230040.0 532283.0 0
238784.0 530132.0 0
247813.0 531580.0 0
251732.0 529760.0 0
255697.0 530428.0 0
263516.0 528617.0 0
260309.0 531598.0 0
264745.0 532419.0 0
268932.0 531577.0 0
271953.0 527950.0 0
277117.0 529223.0 0
282100.0 530792.0 0
290897.0 529204.0 0
294870.0 530538.0 0
299090.0 529049.0 0
303691.0 528836.0 0
308653.0 529093.0 0
312506.0 531034.0 0
315353.0 532283.0 0
319289.0 530548.0 0
324695.0 528596.0 0
330594.0 529141.0 0
336372.0 529166.0 0
341575.0 530745.0 0
348687.0 532404.0 0
352280.0 529325.0 0
356147.0 532483.0 0
360348.0 530161.0 0
364905.0 529238.0 0
369215.0 531197.0 0
375912.0 531106.0 0
380732.0 530275.0 0
391929.0 528828.0 0
388358.0 533213.0 0
392891.0 533268.0 0
395920.0 530936.0 0
400627.0 531572.0 0
406054.0 530058.0 0
410120.0 532700.0 0
414202.0 530671.0 0
418389.0 528479.0 0
421473.0 531626.0 0
425553.0 532053.0 0
432524.0 529950.0 0
429745.0 533149.0 0
436565.0 531068.0 0
441067.0 532311.0 0
446479.0 533138.0 0
451068.0 530411.0 0
454889.0 532635.0 0
462630.0 528485.0 0
459387.0 531177.0 0
463923.0 531671.0 0
468046.0 531826.0 0
471080.0 528952.0 0
473482.0 532935.0 0
477943.0 531749.0 0
483005.0 532115.0 0
488518.0 531901.0 0
493170.0 530768.0 0
497657.0 532971.0 0
1781.81 534513.0 0
2680.45 538345.0 0
6270.15 535095.0 0
11418.6 535477.0 0
15046.0 537906.0 0
20248.0 536066.0 0
25125.7 533737.0 0
24441.3 538756.0 0
29486.9 536272.0 0
33758.6 534507.0 0
38151.9 537128.0 0
45035.4 534697.0 0
43842.5 538037.0 0
47984.8 535589.0 0
51730.6 535813.0 0
51953.4 538342.0 0
55621.0 537267.0 0
58511.5 534344.0 0
60792.6 537584.0 0
65790.6 535520.0 0
70173.5 538285.0 0
74157.9 535193.0 0
79010.9 534863.0 0
82799.3 537185.0 0
86945.4 537092.0 0
90842.8 536900.0 0
94473.4 536790.0 0
98971.3 534698.0 0
103576.0 536255.0 0
107429.0 533624.0 0
112349.0 534828.0 0
117240.0 536531.0 0
121531.0 536709.0 0
126248.0 535292.0 0
131319.0 536042.0 0
136978.0 535375.0 0
141468.0 537947.0 0
148602.0 533499.0 0
152137.0 536263.0 0
156429.0 534309.0 0
160903.0 533835.0 0
163107.0 537302.0 0
166208.0 533925.0 0
168660.0 538049.0 0
171533.0 534557.0 0
177875.0 538000.0 0
182037.0 535520.0 0
191264.0 535798.0 0
195801.0 533007.0 0
198845.0 536552.0 0
195330.0 537683.0 0
203354.0 537862.0 0
206241.0 532713.0 0
208025.0 536228.0 0
212566.0 536344.0 0
215894.0 532950.0 0
218520.0 537696.0 0
219949.0 533531.0 0
223220.0 535383.0 0
227175.0 535062.0 0
234673.0 533474.0 0
231002.0 537073.0 0
238951.0 535073.0 0
235768.0 537860.0 0
243011.0 533336.0 0
246771.0 537305.0 0
252292.0 534306.0 0
257149.0 535695.0 0
262142.0 536240.0 0
267542.0 536454.0 0
273570.0 533201.0 0
277454.0 536978.0 0
281723.0 535226.0 0
287015.0 533131.0 0
292385.0 533650.0 0
295503.0 537377.0 0
298248.0 533796.0 0
300483.0 537576.0 0
303002.0 533231.0 0
305366.0 537913.0 0
307572.0 534101.0 0
309246.0 537288.0 0
311748.0 534402.0 0
316969.0 536514.0 0
321889.0 534864.0 0
327348.0 534449.0 0
333097.0 533929.0 0
337475.0 533912.0 0
341003.0 535485.0 0
336743.0 538085.0 0
345026.0 533620.0 0
348600.0 536010.0 0
352115.0 534290.0 0
355547.0 537451.0 0
360076.0 535093.0 0
364458.0 533331.0 0
363534.0 537206.0 0
368562.0 537456.0 0
373359.0 534515.0 0
377787.0 535123.0 0
382984.0 535696.0 0
391173.0 538137.0 0
396736.0 535718.0 0
401452.0 536262.0 0
405166.0 534707.0 0
409141.0 537627.0 0
413707.0 535662.0 0
417941.0 533508.0 0
422720.0 535907.0 0
418083.0 538298.0 0
428651.0 536236.0 0
426706.0 535405.0 0
431495.0 537369.0 0
434113.0 534014.0 0
437933.0 534672.0 0
442033.0 537412.0 0
448429.0 538010.0 0
451431.0 534930.0 0
457801.0 536678.0 0
461937.0 534431.0 0
462651.0 537930.0 0
465825.0 535750.0 0
470020.0 535551.0 0
473721.0 537872.0 0
477820.0 535518.0 0
478248.0 538881.0 0
481800.0 537272.0 0
486960.0 536802.0 0
492505.0 535244.0 0
497281.0 537273.0 0
2522.91 542408.0 0
9294.29 539831.0 0
13768.7 542352.0 0
10582.4 543659.0 0
19253.7 541420.0 0
28774.9 540659.0 0
33131.3 538850.0 0
31977.4 543534.0 0
36746.7 542316.0 0
41059.4 541185.0 0
44641.8 542607.0 0
48555.5 540055.0 0
53051.2 541421.0 0
57412.5 541147.0 0
60940.0 542506.0 0
65000.9 540030.0 0
68535.9 542571.0 0
75161.1 539209.0 0
76744.9 542786.0 0
72798.1 543219.0 0
79599.5 539938.0 0
84583.3 541528.0 0
91868.6 540706.0 0
97393.8 540516.0 0
103065.0 541267.0 0
108236.0 538729.0 0
113557.0 540192.0 0
119249.0 541489.0 0
124597.0 539996.0 0
129225.0 540317.0 0
134036.0 540207.0 0
138269.0 540451.0 0
142239.0 542798.0 0
146800.0 538533.0 0
151874.0 541180.0 0
155976.0 538636.0 0
160162.0 540285.0 0
165330.0 541316.0 0
173059.0 539566.0 0
169723.0 542943.0 0
181461.0 539765.0 0
183677.0 543297.0 0
186529.0 538807.0 0
188121.0 543394.0 0
191485.0 540649.0 0
196241.0 541920.0 0
199673.0 539768.0 0
202425.0 543166.0 0
207740.0 541344.0 0
213783.0 541536.0 0
219174.0 542686.0 0
226218.0 539493.0 0
232441.0 541801.0 0
237704.0 542301.0 0
241267.0 538518.0 0
244068.0 541737.0 0
249157.0 542999.0 0
251518.0 538689.0 0
259205.0 539828.0 0
254866.0 541654.0 0
264433.0 540835.0 0
269014.0 541152.0 0
272454.0 538233.0 0
274775.0 542846.0 0
285017.0 538080.0 0
280954.0 541971.0 0
290107.0 538140.0 0
287136.0 542828.0 0
292944.0 543044.0 0
298056.0 541817.0 0
302835.0 541877.0 0
308648.0 540794.0 0
312660.0 538828.0 0
320880.0 539840.0 0
316402.0 541500.0 0
325584.0 539566.0 0
331035.0 539362.0 0
341226.0 539355.0 0
339000.0 542996.0 0
343449.0 542148.0 0
345129.0 538234.0 0
350914.0 538758.0 0
348315.0 542987.0 0
353648.0 542086.0 0
360449.0 540665.0 0
371138.0 541999.0 0
374510.0 539151.0 0
374447.0 543388.0 0
378968.0 538849.0 0
377402.0 541939.0 0
380733.0 542337.0 0
385607.0 541299.0 0
390113.0 542979.0 0
395823.0 540058.0 0
393492.0 542469.0 0
399871.0 540007.0 0
404453.0 539257.0 0
403010.0 543287.0 0
408058.0 543108.0 0
413579.0 541310.0 0
422265.0 539942.0 0
419205.0 543304.0 0
426874.0 539376.0 0
427826.0 544184.0 0
423999.0 542844.0 0
431740.0 541776.0 0
436510.0 538929.0 0
440619.0 543018.0 0
445164.0 541024.0 0
449517.0 542490.0 0
453129.0 539237.0 0
457054.0 541634.0 0
460489.0 540674.0 0
468899.0 539332.0 0
464608.0 541591.0 0
472193.0 542057.0 0
475725.0 541374.0 0
480004.0 542796.0 0
484094.0 540800.0 0
487785.0 541125.0 0
492183.0 540254.0 0
497393.0 541817.0 0
2103.98 546248.0 0
6765.35 544802.0 0
12102.2 546545.0 0
16205.7 545831.0 0
20501.6 546296.0 0
24946.4 544243.0 0
29243.8 547795.0 0
35687.6 548180.0 0
40965.7 545225.0 0
45486.5 546786.0 0
49737.2 544817.0 0
55687.5 546759.0 0
64556.3 545108.0 0
69432.0 546610.0 0
76803.5 545733.0 0
73790.7 547907.0 0
80218.1 544487.0 0
84554.2 547144.0 0
88892.0 543960.0 0
89433.4 548344.0 0
93871.8 545385.0 0
99934.9 545896.0 0
107677.0 544528.0 0
112981.0 545134.0 0
117192.0 546069.0 0
121191.0 546413.0 0
123310.0 543793.0 0
126815.0 544230.0 0
131452.0 544338.0 0
128971.0 548062.0 0
136834.0 545249.0 0
141949.0 548261.0 0
147509.0 544878.0 0
152456.0 545320.0 0
156357.0 543356.0 0
161077.0 545227.0 0
166494.0 547158.0 0
172596.0 546914.0 0
177800.0 543372.0 0
181471.0 547844.0 0
186264.0 547017.0 0
192335.0 545612.0 0
196863.0 545993.0 0
200484.0 547906.0 0
205132.0 547076.0 0
209302.0 546013.0 0
213851.0 547266.0 0
218658.0 547147.0 0
223371.0 543265.0 0
223384.0 547764.0 0
228070.0 544912.0 0
233005.0 546278.0 0
237367.0 547616.0 0
241524.0 545335.0 0
245532.0 547035.0 0
249566.0 548117.0 0
254173.0 547098.0 0
260322.0 545418.0 0
267075.0 545844.0 0
272545.0 547777.0 0
278000.0 547437.0 0
282176.0 546804.0 0
285655.0 547400.0 0
289895.0 547067.0 0
300468.0 546726.0 0
306887.0 545861.0 0
312046.0 543246.0 0
316006.0 545920.0 0
312100.0 547626.0 0
319751.0 544205.0 0
323544.0 543349.0 0
323776.0 547727.0 0
328380.0 544880.0 0
333925.0 544016.0 0
337154.0 547876.0 0
343774.0 546766.0 0
352707.0 546387.0 0
356608.0 547589.0 0
357123.0 544074.0 0
360833.0 546148.0 0
366183.0 543739.0 0
371223.0 545705.0 0
374922.0 546633.0 0
378191.0 545238.0 0
382866.0 546894.0 0
387932.0 546072.0 0
392439.0 546445.0 0
397394.0 543875.0 0
396480.0 548029.0 0
401024.0 547370.0 0
405169.0 546437.0 0
409624.0 548404.0 0
414928.0 547002.0 0
423103.0 546219.0 0
419586.0 547520.0 0
427043.0 548736.0 0
432247.0 546933.0 0
435811.0 543635.0 0
437777.0 547787.0 0
445527.0 545774.0 0
450349.0 546988.0 0
453924.0 544198.0 0
457339.0 547389.0 0
460672.0 544458.0 0
464853.0 546445.0 0
468711.0 543742.0 0
469873.0 548231.0 0
475191.0 546017.0 0
482177.0 546160.0 0
484121.0 548836.0 0
486474.0 545021.0 0
491999.0 545614.0 0
497359.0 546230.0 0
3409.19 550713.0 0
8626.16 549014.0 0
8861.96 553783.0 0
12437.1 550583.0 0
18083.6 551388.0 0
23485.2 548955.0 0
26436.7 551807.0 0
31659.9 552952.0 0
41168.8 549637.0 0
41906.7 552584.0 0
45362.4 551688.0 0
49907.9 549477.0 0
53236.0 552144.0 0
57976.4 552868.0 0
61401.1 548973.0 0
65961.6 549479.0 0
70000.5 551229.0 0
74565.6 552809.0 0
78856.8 549330.0 0
83252.0 552161.0 0
88261.4 553122.0 0
93634.1 551194.0 0
96857.5 548566.0 0
99299.5 550847.0 0
104372.0 549584.0 0
110189.0 549600.0 0
114706.0 548915.0 0
118773.0 550253.0 0
124281.0 550531.0 0
132946.0 548383.0 0
130217.0 553369.0 0
136620.0 551566.0 0
146906.0 550698.0 0
150891.0 548557.0 0
151893.0 552988.0 0
155830.0 548804.0 0
161510.0 550870.0 0
169812.0 550168.0 0
173190.0 552782.0 0
177110.0 548604.0 0
178928.0 552683.0 0
184775.0 551310.0 0
189696.0 550255.0 0
195492.0 550697.0 0
200939.0 551970.0 0
204345.0 551791.0 0
208063.0 550360.0 0
212421.0 551758.0 0
217157.0 551695.0 0
221918.0 552247.0 0
227780.0 550483.0 0
232668.0 550586.0 0
237132.0 552738.0 0
241687.0 550086.0 0
246699.0 552040.0 0
251762.0 551751.0 0
257223.0 552468.0 0
263641.0 551397.0 0
268877.0 550687.0 0
272830.0 552873.0 0
277566.0 552427.0 0
282587.0 551177.0 0
287135.0 550755.0 0
294592.0 548144.0 0
291036.0 551448.0 0
294395.0 551571.0 0
298128.0 551959.0 0
303971.0 551864.0 0
309838.0 551918.0 0
315346.0 550471.0 0
319388.0 548644.0 0
318914.0 553097.0 0
323784.0 552874.0 0
328198.0 550462.0 0
332429.0 548561.0 0
340803.0 550671.0 0
336930.0 552580.0 0
345178.0 552001.0 0
348784.0 548596.0 0
353847.0 550526.0 0
358150.0 551382.0 0
362612.0 550222.0 0
365146.0 553174.0 0
367343.0 549385.0 0
372644.0 550229.0 0
377612.0 549434.0 0
380968.0 551038.0 0
387426.0 551089.0 0
393295.0 551657.0 0
397642.0 551008.0 0
400895.0 551776.0 0
405057.0 550430.0 0
414349.0 552835.0 0
418145.0 550468.0 0
422380.0 550443.0 0
428384.0 553441.0 0
430407.0 550431.0 0
434230.0 552696.0 0
439292.0 551962.0 0
442456.0 549366.0 0
442929.0 553770.0 0
447593.0 551173.0 0
453332.0 550770.0 0
457749.0 551475.0 0
461481.0 549718.0 0
465632.0 550774.0 0
469422.0 553176.0 0
474467.0 551867.0 0
479606.0 549559.0 0
483528.0 552858.0 0
488677.0 550313.0 0
494312.0 550174.0 0
498288.0 549951.0 0
497875.0 553306.0 0
3678.7 557113.0 0
13636.8 556212.0 0
18825.5 557887.0 0
23127.2 554946.0 0
27645.0 556268.0 0
33731.6 558408.0 0
38270.5 554163.0 0
43700.1 556839.0 0
49475.0 555286.0 0
54478.4 556887.0 0
59694.5 558152.0 0
63799.6 553857.0 0
64704.9 558487.0 0
69537.6 556618.0 0
75236.9 557879.0 0
79051.9 554557.0 0
79370.1 558380.0 0
83188.8 557034.0 0
87847.4 558150.0 0
92420.4 556247.0 0
97365.8 554987.0 0
102027.0 554287.0 0
107784.0 555278.0 0
114395.0 553915.0 0
117153.0 558021.0 0
119899.0 554821.0 0
124678.0 556320.0 0
133932.0 557026.0 0
142434.0 553560.0 0
138615.0 557075.0 0
146883.0 555794.0 0
151136.0 557947.0 0
157177.0 553636.0 0
156202.0 558172.0 0
161630.0 556789.0 0
167060.0 553413.0 0
170490.0 556900.0 0
174558.0 557825.0 0
182979.0 555739.0 0
178864.0 557468.0 0
187952.0 555173.0 0
193466.0 556908.0 0
198568.0 555094.0 0
203378.0 556126.0 0
209077.0 555710.0 0
214460.0 555661.0 0
218735.0 556027.0 0
222819.0 556364.0 0
226899.0 555213.0 0
232203.0 555891.0 0
238583.0 556886.0 0
242339.0 555040.0 0
248082.0 556861.0 0
252999.0 556110.0 0
257795.0 557328.0 0
261149.0 556047.0 0
268138.0 555683.0 0
272882.0 557303.0 0
277317.0 557112.0 0
281989.0 556315.0 0
289784.0 555917.0 0
285960.0 557563.0 0
294166.0 554829.0 0
298621.0 557688.0 0
303619.0 557007.0 0
308572.0 557519.0 0
314383.0 555744.0 0
321120.0 557599.0 0
327880.0 556232.0 0
332297.0 553521.0 0
331946.0 557950.0 0
336144.0 557090.0 0
340691.0 555233.0 0
345606.0 557413.0 0
350312.0 553815.0 0
355998.0 556733.0 0
361315.0 554477.0 0
360765.0 558077.0 0
365231.0 557964.0 0
369210.0 554107.0 0
373974.0 554946.0 0
378453.0 554151.0 0
380900.0 557764.0 0
383196.0 554178.0 0
385959.0 558133.0 0
390241.0 555727.0 0
397731.0 555087.0 0
403743.0 555925.0 0
408970.0 553717.0 0
411945.0 557095.0 0
408353.0 558413.0 0
416557.0 558201.0 0
419645.0 554266.0 0
422505.0 556736.0 0
424229.0 554184.0 0
426262.0 557947.0 0
430807.0 557000.0 0
434843.0 558014.0 0
438907.0 556103.0 0
442647.0 557774.0 0
446793.0 556504.0 0
451560.0 555440.0 0
455921.0 554962.0 0
454367.0 558372.0 0
458302.0 558730.0 0
460707.0 554523.0 0
465266.0 554872.0 0
469244.0 558549.0 0
474256.0 556875.0 0
478771.0 555152.0 0
483297.0 557987.0 0
487692.0 555514.0 0
492602.0 554474.0 0
490988.0 558664.0 0
496640.0 557269.0 0
3224.23 563356.0 0
9324.05 559479.0 0
14517.6 562141.0 0
19970.9 562186.0 0
23999.5 559989.0 0
28895.4 560479.0 0
32074.7 563598.0 0
39239.0 559951.0 0
47658.2 560841.0 0
51640.8 563585.0 0
55672.3 561649.0 0
62589.7 561490.0 0
67316.9 560970.0 0
71899.0 562617.0 0
77951.8 561847.0 0
82833.8 561905.0 0
91556.8 560508.0 0
87939.2 563246.0 0
96190.6 559856.0 0
101628.0 559227.0 0
99129.3 563079.0 0
106604.0 561013.0 0
112436.0 559081.0 0
116626.0 562956.0 0
120741.0 558944.0 0
124078.0 561153.0 0
129462.0 560090.0 0
135479.0 561733.0 0
140162.0 562343.0 0
143351.0 559247.0 0
147783.0 561441.0 0
152440.0 562452.0 0
157317.0 563321.0 0
162008.0 561940.0 0
166579.0 558978.0 0
171234.0 561943.0 0
176914.0 562169.0 0
182524.0 561069.0 0
188523.0 560678.0 0
193849.0 562969.0 0
198769.0 560049.0 0
202767.0 562053.0 0
206298.0 560299.0 0
212240.0 560321.0 0
216407.0 559093.0 0
216010.0 563069.0 0
220492.0 560260.0 0
225897.0 560218.0 0
230732.0 560785.0 0
235962.0 561074.0 0
242180.0 560474.0 0
246990.0 560805.0 0
251068.0 560219.0 0
255726.0 560823.0 0
260372.0 560235.0 0
265239.0 560544.0 0
270093.0 560459.0 0
274857.0 561668.0 0
280122.0 561119.0 0
284556.0 561175.0 0
289147.0 560814.0 0
293621.0 559140.0 0
296188.0 563261.0 0
305101.0 560586.0 0
301355.0 562490.0 0
309788.0 562557.0 0
314359.0 561261.0 0
319385.0 562566.0 0
324723.0 560009.0 0
329004.0 561543.0 0
334288.0 561555.0 0
340493.0 560928.0 0
350661.0 559033.0 0
347120.0 563215.0 0
359668.0 562656.0 0
370971.0 559040.0 0
376669.0 558688.0 0
374232.0 562295.0 0
378444.0 563457.0 0
382647.0 561463.0 0
387244.0 563586.0 0
390023.0 559850.0 0
391989.0 562993.0 0
394208.0 558871.0 0
396153.0 563471.0 0
399663.0 559981.0 0
404940.0 561649.0 0
412751.0 560466.0 0
421604.0 560422.0 0
426545.0 563452.0 0
431878.0 561431.0 0
438183.0 560650.0 0
444939.0 560860.0 0
450354.0 560783.0 0
455667.0 562494.0 0
463231.0 559329.0 0
469318.0 563749.0 0
474387.0 561907.0 0
479043.0 559920.0 0
483832.0 562596.0 0
487217.0 559501.0 0
494258.0 560840.0 0
498002.0 561052.0 0
2033.57 568099.0 0
9484.66 564554.0 0
6224.82 567681.0 0
13208.9 567800.0 0
18672.7 566586.0 0
22683.7 564172.0 0
23624.3 567817.0 0
26666.7 564396.0 0
33093.6 567551.0 0
37165.9 565058.0 0
42954.0 564110.0 0
44326.7 568533.0 0
47946.0 566333.0 0
54989.2 566672.0 0
59663.6 564403.0 0
65191.6 565231.0 0
76049.3 565358.0 0
73028.1 567847.0 0
80067.9 565908.0 0
84423.3 566161.0 0
93555.1 564456.0 0
97808.0 566912.0 0
103003.0 564042.0 0
106754.0 565300.0 0
102206.0 568562.0 0
110899.0 563793.0 0
121715.0 564799.0 0
126433.0 565024.0 0
131624.0 566081.0 0
136943.0 566521.0 0
141343.0 567967.0 0
143874.0 563943.0 0
144967.0 567085.0 0
148734.0 566379.0 0
153739.0 566933.0 0
158041.0 567749.0 0
162326.0 566694.0 0
166248.0 563876.0 0
169432.0 566701.0 0
174183.0 567004.0 0
179085.0 566392.0 0
183257.0 566102.0 0
188233.0 566423.0 0
192563.0 567115.0 0
198701.0 565378.0 0
203253.0 565581.0 0
208988.0 565772.0 0
214414.0 566475.0 0
220022.0 565239.0 0
225158.0 565705.0 0
230524.0 565488.0 0
235373.0 566539.0 0
239819.0 565273.0 0
245582.0 565900.0 0
252524.0 565888.0 0
258865.0 565123.0 0
263649.0 565083.0 0
268341.0 565290.0 0
272762.0 565288.0 0
278156.0 565979.0 0
282836.0 564865.0 0
286567.0 564345.0 0
290792.0 565972.0 0
300490.0 567111.0 0
305717.0 564555.0 0
309481.0 566881.0 0
315216.0 567281.0 0
321149.0 567224.0 0
325205.0 565037.0 0
331348.0 566622.0 0
337125.0 566212.0 0
341942.0 565715.0 0
345284.0 568546.0 0
349923.0 567348.0 0
353254.0 563627.0 0
356820.0 568363.0 0
365918.0 563632.0 0
362696.0 568166.0 0
370677.0 563805.0 0
369051.0 567233.0 0
374149.0 566863.0 0
378555.0 567967.0 0
382699.0 566356.0 0
392517.0 566707.0 0
388664.0 568624.0 0
397072.0 568645.0 0
400926.0 564827.0 0
401641.0 568194.0 0
406742.0 564548.0 0
406200.0 568570.0 0
410126.0 563736.0 0
412916.0 568451.0 0
415938.0 563855.0 0
420766.0 564814.0 0
423586.0 567839.0 0
431010.0 565680.0 0
435790.0 564680.0 0
438391.0 568143.0 0
441486.0 564535.0 0
446850.0 564912.0 0
452157.0 566220.0 0
456941.0 567480.0 0
459990.0 564299.0 0
462042.0 568299.0 0
464607.0 564127.0 0
467484.0 568751.0 0
471836.0 566509.0 0
475498.0 566911.0 0
479508.0 564456.0 0
484007.0 567511.0 0
489626.0 564190.0 0
493032.0 569145.0 0
496205.0 565095.0 0
3954.29 572060.0 0
9072.83 570586.0 0
12708.6 572881.0 0
17215.0 571484.0 0
21103.8 569939.0 0
24084.4 571939.0 0
28645.1 569362.0 0
27106.1 573335.0 0
36378.4 571175.0 0
40703.5 568434.0 0
42696.7 572188.0 0
47439.6 571385.0 0
51411.0 569327.0 0
55113.5 572868.0 0
59130.1 569075.0 0
60830.8 573613.0 0
63377.4 569823.0 0
66074.2 573404.0 0
68672.5 569126.0 0
72539.0 573846.0 0
77211.2 569728.0 0
82556.6 570663.0 0
86643.7 573441.0 0
88627.8 568808.0 0
93862.5 569160.0 0
97967.4 571759.0 0
107060.0 569469.0 0
112623.0 569098.0 0
114019.0 573660.0 0
118637.0 569151.0 0
123795.0 568662.0 0
123158.0 573602.0 0
128299.0 570845.0 0
134777.0 571822.0 0
141082.0 573313.0 0
145545.0 570520.0 0
150329.0 571225.0 0
155543.0 571735.0 0
160544.0 571076.0 0
164657.0 570409.0 0
168549.0 570507.0 0
172543.0 571818.0 0
178180.0 571585.0 0
184495.0 571095.0 0
193068.0 570112.0 0
189620.0 571044.0 0
198199.0 571088.0 0
204189.0 570232.0 0
213843.0 569893.0 0
209698.0 572782.0 0
217502.0 568984.0 0
222032.0 569950.0 0
227169.0 570465.0 0
232615.0 570872.0 0
238677.0 570215.0 0
243099.0 570399.0 0
247298.0 571608.0 0
251158.0 570673.0 0
255121.0 571475.0 0
260086.0 570297.0 0
265203.0 569954.0 0
271155.0 570838.0 0
276274.0 570202.0 0
281669.0 570837.0 0
287025.0 569385.0 0
295662.0 568852.0 0
291155.0 571849.0 0
299917.0 571405.0 0
305162.0 570194.0 0
310906.0 571843.0 0
320978.0 571922.0 0
326270.0 570427.0 0
331291.0 571361.0 0
335623.0 571334.0 0
340544.0 570801.0 0
347240.0 573105.0 0
352027.0 571510.0 0
362921.0 573117.0 0
371870.0 570946.0 0
367280.0 571244.0 0
376363.0 571921.0 0
381430.0 571183.0 0
386276.0 573539.0 0
392530.0 572825.0 0
401338.0 571345.0 0
410444.0 573097.0 0
416034.0 573806.0 0
418618.0 568961.0 0
423227.0 573048.0 0
428186.0 568808.0 0
433410.0 569531.0 0
437544.0 571379.0 0
442586.0 569936.0 0
448086.0 569762.0 0
453326.0 571305.0 0
458685.0 572292.0 0
464158.0 573275.0 0
472666.0 570410.0 0
476120.0 571658.0 0
479212.0 569420.0 0
482722.0 572116.0 0
488489.0 570289.0 0
493966.0 573194.0 0
497562.0 569872.0 0
497906.0 574096.0 0
2912.04 577376.0 0
8172.74 575303.0 0
12218.3 577983.0 0
16227.3 576062.0 0
20681.8 574576.0 0
25401.0 577200.0 0
30518.7 574449.0 0
34546.6 575995.0 0
39616.6 575563.0 0
45567.2 575797.0 0
42479.9 578626.0 0
50488.7 574182.0 0
52425.2 578466.0 0
58176.8 578095.0 0
63497.2 577897.0 0
68011.4 577450.0 0
78711.0 574406.0 0
83529.0 574884.0 0
81762.8 578151.0 0
91930.0 574185.0 0
87308.1 577998.0 0
97599.8 577539.0 0
103402.0 574140.0 0
107245.0 578640.0 0
109540.0 573971.0 0
113071.0 577911.0 0
118018.0 574517.0 0
124431.0 578662.0 0
129920.0 576877.0 0
136390.0 578501.0 0
140851.0 577453.0 0
145998.0 575143.0 0
152759.0 576540.0 0
148480.0 578558.0 0
163541.0 574564.0 0
159026.0 575239.0 0
168692.0 575357.0 0
174721.0 574870.0 0
177833.0 577028.0 0
181970.0 575670.0 0
187471.0 576062.0 0
193076.0 574691.0 0
198111.0 576696.0 0
202175.0 574739.0 0
206134.0 577841.0 0
215454.0 574117.0 0
219801.0 574959.0 0
222584.0 573747.0 0
226281.0 576059.0 0
231580.0 575844.0 0
236483.0 575020.0 0
241752.0 574491.0 0
246293.0 576394.0 0
252500.0 574641.0 0
256386.0 576012.0 0
261179.0 575405.0 0
266849.0 575291.0 0
272244.0 576600.0 0
277120.0 574645.0 0
281747.0 577145.0 0
286518.0 574507.0 0
290987.0 577322.0 0
296089.0 574983.0 0
302285.0 575557.0 0
307351.0 575438.0 0
311898.0 576814.0 0
316075.0 573642.0 0
316112.0 578443.0 0
320441.0 576848.0 0
326111.0 576435.0 0
331475.0 575902.0 0
337380.0 576619.0 0
342970.0 575217.0 0
347301.0 578125.0 0
352523.0 576942.0 0
357756.0 574388.0 0
362270.0 577402.0 0
366227.0 575762.0 0
371133.0 575772.0 0
375859.0 576363.0 0
379823.0 575478.0 0
383649.0 578541.0 0
389740.0 578521.0 0
395267.0 577983.0 0
397955.0 574040.0 0
400134.0 578095.0 0
404874.0 575156.0 0
412267.0 577727.0 0
421057.0 577450.0 0
425187.0 578206.0 0
429493.0 574111.0 0
432763.0 577971.0 0
434986.0 574395.0 0
437374.0 578855.0 0
440182.0 574516.0 0
445539.0 574656.0 0
450745.0 575305.0 0
452236.0 578936.0 0
455829.0 576997.0 0
461010.0 577511.0 0
466330.0 578069.0 0
469420.0 574012.0 0
474165.0 574820.0 0
471308.0 578408.0 0
478889.0 574254.0 0
476938.0 578310.0 0
482313.0 578005.0 0
486365.0 574628.0 0
490844.0 575830.0 0
495170.0 577497.0 0
1218.54 580958.0 0
7044.47 579829.0 0
8136.88 584000.0 0
13211.2 582772.0 0
19736.5 579273.0 0
17861.3 583265.0 0
23194.9 581198.0 0
27281.5 582972.0 0
31293.7 579198.0 0
37098.5 580329.0 0
42102.9 583222.0 0
47006.9 580678.0 0
51064.4 583494.0 0
55958.6 583117.0 0
61206.1 582374.0 0
66942.1 582244.0 0
71451.2 579644.0 0
76535.8 579177.0 0
73568.0 583859.0 0
84580.8 583307.0 0
92146.0 579957.0 0
95281.5 583838.0 0
99862.0 582597.0 0
102534.0 579344.0 0
104905.0 583506.0 0
110119.0 582153.0 0
114104.0 582327.0 0
119368.0 579259.0 0
117741.0 583353.0 0
122624.0 583015.0 0
134787.0 583463.0 0
140129.0 582040.0 0
144076.0 579787.0 0
147238.0 582617.0 0
151567.0 582058.0 0
157571.0 580572.0 0
163177.0 579276.0 0
167892.0 580990.0 0
173106.0 579016.0 0
178383.0 581574.0 0
183833.0 580302.0 0
188787.0 580567.0 0
193217.0 580151.0 0
197828.0 581311.0 0
202185.0 579614.0 0
208885.0 581930.0 0
213191.0 579284.0 0
217709.0 579475.0 0
222453.0 579362.0 0
228043.0 581188.0 0
233283.0 580213.0 0
238120.0 579666.0 0
242803.0 578900.0 0
241511.0 583489.0 0
248282.0 580315.0 0
252258.0 578647.0 0
256345.0 580225.0 0
260765.0 580435.0 0
265526.0 580511.0 0
270645.0 581761.0 0
276732.0 580645.0 0
281809.0 581529.0 0
286459.0 580399.0 0
292552.0 582287.0 0
298620.0 581058.0 0
304072.0 580042.0 0
308375.0 579779.0 0
312826.0 581913.0 0
318570.0 582790.0 0
323229.0 580654.0 0
327809.0 581596.0 0
333078.0 580951.0 0
337558.0 582987.0 0
342230.0 580715.0 0
350951.0 581964.0 0
357568.0 579795.0 0
362350.0 582937.0 0
367757.0 580171.0 0
373221.0 582321.0 0
378574.0 580021.0 0
382290.0 583408.0 0
387615.0 584030.0 0
397763.0 582497.0 0
393056.0 582390.0 0
407941.0 580065.0 0
403073.0 582209.0 0
412646.0 582952.0 0
416980.0 579376.0 0
421840.0 581807.0 0
426633.0 583457.0 0
429228.0 579707.0 0
433290.0 583081.0 0
442755.0 579415.0 0
439542.0 584053.0 0
448031.0 579423.0 0
451894.0 583992.0 0
458488.0 582816.0 0
463747.0 581982.0 0
468772.0 583105.0 0
474336.0 582256.0 0
479332.0 582185.0 0
483794.0 582655.0 0
487581.0 579722.0 0
491792.0 579649.0 0
493713.0 582973.0 0
497792.0 581222.0 0
2913.71 584468.0 0
1349.16 588292.0 0
6282.21 588824.0 0
11381.5 587700.0 0
17147.9 588431.0 0
22021.9 585076.0 0
29290.8 587966.0 0
32819.2 584177.0 0
37620.4 585668.0 0
43099.9 588142.0 0
47218.2 585841.0 0
51605.1 588179.0 0
56945.7 588570.0 0
62258.8 587432.0 0
66855.9 587153.0 0
71070.1 588215.0 0
75873.7 588318.0 0
78712.1 584118.0 0
90114.2 584231.0 0
87823.7 587862.0 0
92692.3 588251.0 0
98917.9 587505.0 0
109427.0 586964.0 0
114746.0 586738.0 0
119949.0 587364.0 0
128879.0 584124.0 0
134065.0 588120.0 0
138954.0 586366.0 0
143644.0 584755.0 0
147314.0 585604.0 0
151852.0 587786.0 0
157723.0 586882.0 0
162762.0 584304.0 0
167574.0 585981.0 0
173252.0 585258.0 0
177855.0 585686.0 0
181665.0 585285.0 0
187012.0 584962.0 0
193182.0 586057.0 0
199185.0 585323.0 0
203204.0 584125.0 0
207572.0 586138.0 0
212308.0 584735.0 0
217524.0 584239.0 0
222317.0 584343.0 0
226367.0 585629.0 0
231179.0 584682.0 0
236286.0 584584.0 0
247088.0 585324.0 0
253197.0 584386.0 0
258410.0 584540.0 0
262404.0 584317.0 0
266708.0 585361.0 0
273764.0 585784.0 0
278203.0 585992.0 0
282028.0 585051.0 0
286837.0 585582.0 0
290864.0 586762.0 0
296009.0 587007.0 0
306107.0 584292.0 0
301739.0 585363.0 0
310290.0 585747.0 0
314753.0 587119.0 0
319739.0 587872.0 0
325137.0 586757.0 0
330796.0 585717.0 0
335443.0 586874.0 0
341351.0 587321.0 0
346505.0 584052.0 0
350512.0 587342.0 0
356059.0 585013.0 0
360865.0 588977.0 0
368103.0 586399.0 0
377810.0 587491.0 0
383929.0 588037.0 0
390625.0 588509.0 0
395280.0 586924.0 0
400683.0 587169.0 0
407893.0 584895.0 0
404544.0 585834.0 0
413035.0 588217.0 0
417674.0 584391.0 0
417791.0 589036.0 0
421927.0 586691.0 0
426625.0 588688.0 0
431208.0 587689.0 0
435908.0 587849.0 0
445469.0 584259.0 0
456572.0 588222.0 0
461339.0 587638.0 0
466553.0 588663.0 0
472886.0 587971.0 0
478950.0 587298.0 0
483605.0 586666.0 0
488212.0 584880.0 0
492683.0 588268.0 0
497572.0 585718.0 0
2250.75 591736.0 0
5847.39 593138.0 0
10868.1 593559.0 0
24541.5 589514.0 0
22719.5 594024.0 0
28505.4 593186.0 0
34162.9 589344.0 0
38962.9 589956.0 0
47114.3 592196.0 0
52981.4 593154.0 0
58098.0 593869.0 0
63354.7 592740.0 0
68033.5 591539.0 0
72321.3 592814.0 0
81572.6 589484.0 0
76939.5 592852.0 0
83869.7 593909.0 0
87232.9 592196.0 0
92744.4 593415.0 0
98084.6 592951.0 0
104185.0 589143.0 0
102718.0 593605.0 0
108452.0 592234.0 0
112550.0 590616.0 0
116733.0 591281.0 0
121424.0 591797.0 0
124824.0 589094.0 0
126416.0 593236.0 0
129115.0 590103.0 0
132782.0 593746.0 0
137941.0 591382.0 0
143214.0 590005.0 0
148134.0 591265.0 0
154099.0 593022.0 0
163082.0 589255.0 0
159261.0 592113.0 0
167367.0 590530.0 0
172148.0 591130.0 0
177530.0 589352.0 0
182383.0 590206.0 0
186628.0 589609.0 0
190674.0 591613.0 0
197939.0 590587.0 0
203534.0 589180.0 0
208200.0 590696.0 0
213178.0 589875.0 0
218002.0 589255.0 0
222014.0 589187.0 0
225784.0 589918.0 0
230762.0 590183.0 0
236534.0 589810.0 0
242377.0 589465.0 0
248026.0 590844.0 0
252401.0 590325.0 0
256664.0 588911.0 0
261130.0 590874.0 0
266676.0 591150.0 0
272321.0 590279.0 0
277764.0 591210.0 0
283097.0 589273.0 0
288330.0 591005.0 0
293276.0 591370.0 0
297158.0 592872.0 0
301011.0 589952.0 0
307367.0 590421.0 0
313183.0 592030.0 0
318234.0 592619.0 0
322601.0 591225.0 0
326862.0 592342.0 0
331576.0 590620.0 0
336793.0 592032.0 0
346365.0 589619.0 0
341942.0 593274.0 0
346339.0 593582.0 0
350892.0 592752.0 0
355712.0 590822.0 0
359513.0 593898.0 0
364174.0 593039.0 0
367991.0 591457.0 0
372327.0 590626.0 0
376308.0 592820.0 0
381469.0 591270.0 0
387004.0 592168.0 0
392485.0 593209.0 0
397390.0 591514.0 0
402275.0 592126.0 0
406671.0 589618.0 0
411028.0 592975.0 0
416658.0 594284.0 0
422100.0 591694.0 0
426692.0 593888.0 0
431786.0 592432.0 0
437279.0 593129.0 0
441277.0 589448.0 0
446189.0 589286.0 0
447019.0 593739.0 0
451411.0 590629.0 0
456504.0 592833.0 0
461403.0 592735.0 0
466282.0 593931.0 0
471499.0 594103.0 0
477036.0 592410.0 0
482075.0 592986.0 0
486883.0 590439.0 0
491800.0 593589.0 0
497910.0 590171.0 0
495969.0 593665.0 0
17316.0 594874.0 0
33911.1 594770.0 0
39318.9 594756.0 0
43578.9 596101.0 0
371853.0 595094.0 0
406239.0 594612.0 0
442441.0 594595.0 0
453148.0 596224.0 0
487950.0 595440.0 0
POINT_DATA 5000
SCALARS Radius float 1
LOOKUP_TABLE default
5120.0 6182.6 5840.26 5073.35 5415.48 3863.18 2356.98 4998.37 5492.18 5258.36 5061.3 3163.97 3642.12 5812.43 5733.48 5580.89 6810.52 6110.27 5670.04 4834.9 5085.53 5351.6 5867.73 3951.75 5013.56 4499.64 5542.27 5906.14 5484.19 7513.1 5254.28 4436.4 4182.53 4672.91 3588.44 5645.7 4366.19 5553.16 3672.51 4008.92 5561.06 6716.79 6044.04 3850.77 5325.36 5484.83 4715.55 6059.59 5701.86 4375.68 5054.98 5122.66 3557.27 5170.02 4688.68 4402.52 5185.34 4517.56 4432.58 5903.42 3761.32 5176.86 4118.05 2938.66 5065.13 4940.78 3615.22 4380.59 5546.39 5538.89 6759.9 4730.36 5926.61 2720.68 4955.55 4238.81 3563.63 4468.59 6030.06 5325.02 5200.76 4927.31 4862.64 5205.43 6684.56 3955.56 3968.64 5292.64 2635.86 4385.06 6166.5 5936.02 5305.17 7613.27 4133.88 5945.65 5418.62 7021.47 5416.38 6051.14 4345.55 5836.15 5885.03 2837.58 5246.2 5017.13 3673.74 6116.18 7447.37 4688.67 7184.19 4290.3 4861.08 4231.61 3942.53 3379.84 3607.45 4951.03 4094.62 6483.19 5493.32 4601.27 5740.68 4195.44 3261.21 6704.06 3653.41 3871.88 5600.93 3856.01 4390.66 5279.39 4827.23 4911.47 5803.39 4381.97 4924.6 4733.32 2899.43 2924.37 3867.67 5399.73 4003.05 4827.82 3589.27 4333.2 4665.12 3936.02 4927.02 6230.49 4174.52 7054.71 3641.64 4277.89 5747.75 5539.32 6496.85 4874.39 5541.59 4124.71 5083.08 5728.85 6337.56 5863.59 3255.82 5242.73 2812.98 4065.69 5390.22 4805.87 4712.33 5759.91 5227.21 3997.1 3038.33 3260.67 3383.4 3856.1 5980.74 5109.54 3829.13 5489.43 5054.25 4796.33 5360.19 4794.96 6186.19 4839.34 2980.99 6834.49 5525.39 3998.5 6257.19 4024.3 4737.14 5603.15 4695.45 4660.72 6038.78 5123.52 4295.38 4780.03 4044.71 5816.2 3091.3 6458.82 5527.54 5573.7 4727.62 7325.81 6425.26 5143.58 4840.01 4484.76 5611.2 7933.0 5938.34 6394.38 5555.28 5169.36 4686.65 5834.74 5556.96 3888.21 3921.18 5697.78 4667.36 4392.68 5529.52 5495.39 3554.9 3996.0 4487.31 4002.16 5693.81 2540.31 5789.98 6138.47 6302.8 5697.4 4270.95 5206.78 4055.8 5280.17 5028.96 6362.12 5152.36 4220.65 4455.12 5173.87 5380.13 5118.27 5932.23 6052.7 5891.05 4091.31 6902.81 7199.21 5337.48 6124.89 5252.48 5708.81 5043.05 4015.92 4778.34 4138.16 4684.5 3486.22 6029.66 5120.49 5409.61 4005.44 6038.2 5555.88 6732.43 3866.16 3183.98 4524.28 4511.82 3778.1 5826.64 6820.42 4894.16 4816.2 4896.52 5711.87 4941.22 5791.61 5788.23 3798.62 6392.01 3666.57 4254.17 5615.42 4523.7 5255.32 6037.08 4049.23 3586.91 4929.8 5637.59 5481.78 3307.12 5542.21 4937.14 5924.89 6894.71 4414.54 5262.61 5201.36 5094.81 5972.06 5713.22 5861.71 4312.67 5017.78 4359.04 3794.63 4727.24 6175.81 6959.81 4829.35 6321.41 3372.79 4751.02 5184.56 5282.64 4479.66 4715.72 5581.75 3369.13 5367.2 5308.1 6644.76 6372.62 7565.34 6756.95 5091.39 6324.23 4727.24 4151.94 4382.74 4651.28 4384.42 5601.05 4516.43 4362.19 3103.0 4948.92 3115.91 6084.86 5478.92 5551.36 4467.94 4850.81 6038.14 5024.9 4306.53 5659.17 6135.57 5998.38 4270.24 5423.8 4989.15 5015.69 4947.52 6677.09 4305.57 5813.4 5201.67 4089.76 5526.55 4754.05 3192.41 4987.87 3315.57 4669.66 4808.52 3043.85 5461.13 6730.19 3599.45 4937.02 4907.89 5629.19 5655.21 5090.24 2240.39 5923.5 5096.78 4612.68 5293.9 3320.52 4129.43 6142.94 4685.34 4329.05 5927.43 6355.42 5690.56 3693.63 5762.84 4493.48 4749.8 3937.74 5082.6 5810.84 4230.54 5094.44 4655.49 4933.21 4566.18 5375.47 4964.09 4723.12 4809.42 4717.05 5287.2 4562.29 5013.13 5080.66 3417.33 4926.42 4164.13 4642.34 5248.77 4520.1 5874.89 4293.03 4389.21 3791.79 4165.81 4424.7 4128.98 4925.44 4951.47 6084.93 5246.61 5215.15 4764.96 5046.33 5607.24 4726.76 5839.13 3735.44 4907.06 4786.6 4073.93 4645.41 5740.84 4433.59 5530.87 4973.83 3912.37 4281.49 4310.18 3843.58 6342.25 6691.39 4602.25 4792.73 4931.38 4736.58 3485.26 6082.81 5110.37 3191.99 6327.9 5492.26 5244.78 4220.88 6640.13 5478.47 6142.37 6061.47 3748.24 6163.38 4997.27 3459.9 4093.08 5543.27 5856.11 4109.88 3327.49 3960.8 4234.94 4980.85 5714.58 5110.45 3329.99 5208.32 4083.97 3296.27 5153.74 3895.51 4607.02 4528.09 3556.85 6291.51 5882.89 6246.22 4188.32 4100.38 4307.28 5804.71 4739.42 5020.12 5727.3 5053.92 4242.52 6352.26 3057.03 3847.38 5163.9 5495.68 5489.34 6043.3 6445.94 5952.75 5537.72 4320.28 4218.06 5542.14 4931.53 7134.64 4194.5 4270.53 4790.08 5191.63 4501.51 5379.87 3708.04 5513.6 4901.41 4556.36 3240.09 5264.06 3369.23 5664.98 3688.8 4548.16 4048.37 4659.59 5449.18 6519.71 3092.35 5210.03 5351.39 6022.17 5119.37 4583.31 3982.23 5806.08 5243.29 4853.39 4449.22 3130.65 5628.24 5992.26 5070.39 4923.9 4973.78 3947.47 4713.25 5091.68 6243.0 6673.96 5441.96 5174.89 4288.3 5370.52 4652.29 5774.81 3697.96 5538.93 4723.48 4899.11 4745.45 5281.28 2631.9 5356.51 3818.59 4087.15 4863.72 4143.08 5002.48 5708.14 4262.82 3920.42 6332.36 6122.55 5480.13 5978.9 2739.94 5082.47 4187.56 5344.25 4840.84 4997.27 5344.0 5135.69 4593.7 4478.15 4043.57 5925.6 5987.17 6013.14 3979.82 5138.31 4602.86 4621.75 4581.13 4551.24 4219.07 3610.4 5358.59 4515.71 6387.01 5367.52 5025.39 4322.15 4714.54 3629.96 3320.11 5030.91 5507.24 6851.54 5570.3 4503.89 4336.42 4306.11 3402.32 7589.94 5004.67 5365.89 5409.33 4511.54 4898.94 5196.0 4613.31 4733.04 6119.09 4204.84 7531.29 5069.25 5048.89 3991.03 3161.47 3435.9 6390.78 7435.25 6826.57 4495.87 3746.31 5344.77 5027.98 5097.87 4278.07 7267.18 6255.18 4277.88 4758.21 7500.97 6623.85 5228.18 5102.36 8332.24 6155.31 6308.71 3629.62 4301.06 4716.19 5514.76 6045.46 3456.98 4290.14 4763.45 3815.26 5445.87 4150.99 4216.92 3929.19 4271.69 3771.48 4107.03 5198.77 5681.38 5147.67 4138.42 4292.06 5011.31 2765.2 5006.58 5586.81 3856.59 4746.52 5413.79 6202.55 6338.89 7111.16 5893.5 3817.13 4547.19 4377.07 3695.36 5101.59 3848.93 3813.22 6020.48 5935.47 5903.66 5313.66 4528.49 5419.37 4466.03 5275.32 5985.29 4247.23 4178.15 4268.65 4694.83 4354.08 5788.66 4520.62 3903.75 4755.47 5935.03 4485.99 5314.69 5475.8 6050.81 5543.46 4788.87 6022.72 4249.46 5498.32 5527.33 5346.27 6475.1 4969.21 2691.29 4668.71 6256.02 2845.98 7228.46 6362.14 3948.23 6719.88 5787.31 4342.9 5065.11 5069.84 4223.33 4553.56 4051.44 5911.67 5329.64 3323.28 6695.82 5835.78 6405.76 4877.67 4020.32 4245.72 4704.72 4571.7 5908.1 4177.94 4742.68 4344.58 5634.83 5922.5 4502.5 3633.87 2775.04 3970.25 4850.01 4138.46 5215.05 5643.58 5577.04 4986.77 6318.18 4481.53 3948.17 5330.45 5077.33 3689.45 5572.95 6723.16 5584.06 5372.61 3686.21 6480.17 5023.15 3844.9 4564.34 3963.86 5076.35 6375.99 5200.05 4091.8 5234.29 4645.58 2651.49 5512.23 4711.62 5349.31 4649.22 2976.22 5394.55 5509.42 4256.43 5936.36 5229.48 5928.32 5475.7 5415.19 4016.18 5127.16 5435.74 4244.99 5327.45 5560.26 5965.81 3702.37 4643.31 2330.66 4177.19 6917.52 3691.0 5402.21 4880.14 4982.31 5320.92 5289.52 5269.18 4406.1 5034.59 5978.82 4942.77 5080.18 3927.99 5266.5 5868.82 4050.9 4066.38 6049.55 5709.62 3498.2 5941.72 5794.24 6562.18 3066.13 6048.7 4541.21 4156.38 5896.46 6009.88 5495.84 4164.68 6268.1 3784.5 5782.6 4862.21 5113.21 4011.77 5499.11 4527.08 4374.35 5347.48 4810.12 3821.72 6898.19 6035.6 5198.29 5137.34 5423.0 3975.31 5344.43 5125.78 3824.16 5045.38 3868.18 5350.88 5130.91 4948.5 5402.24 4527.02 6445.22 4519.22 4531.14 5013.42 3838.56 5651.07 4871.44 6248.81 5273.35 6259.23 5181.4 5670.2 4114.24 4662.56 5166.79 5417.15 3688.16 5094.52 4946.74 2682.24 5996.33 3950.63 4612.62 5526.75 4275.57 6385.23 2614.4 2983.99 6185.89 3997.96 4750.17 5660.85 3460.94 3990.25 6184.4 3758.07 4752.51 4373.45 3587.05 6229.37 4989.09 6718.19 4307.48 5314.85 3848.54 4305.43 5941.4 5450.44 6510.17 4263.33 4454.63 4523.88 5912.61 4241.89 3279.1 4978.31 5054.74 4099.77 4981.9 4414.48 4537.32 4127.74 2476.04 4656.78 4302.5 5105.16 6006.16 5050.65 5022.8 5316.75 6133.92 7055.53 4178.4 3719.84 5669.65 5253.55 5820.48 7034.11 2586.12 6261.42 6125.34 5965.78 6396.74 7099.43 5526.14 5315.4 6449.45 4044.45 5262.19 3627.82 4373.47 6070.58 6034.41 5490.43 5452.83 4959.34 5383.07 4591.87 4247.15 6552.22 4602.85 4962.77 5210.48 5872.05 4853.02 6101.92 5323.3 5088.44 4635.6 4998.21 3457.48 4256.67 6079.11 3931.07 3405.98 6430.39 7440.72 4681.72 3949.6 4945.39 5661.62 6631.19 3619.07 4467.04 5626.61 5817.25 6363.92 6205.93 4439.35 5830.72 3828.81 5309.98 4236.14 5733.62 4407.87 5282.91 4425.84 5331.02 7256.35 4871.96 5742.65 4863.23 5592.32 4402.67 5381.16 4403.98 4948.98 5227.52 5163.02 4729.43 5991.09 4092.24 4562.74 4678.38 5126.91 5448.61 3942.07 4827.33 3937.08 7443.72 5513.57 5013.67 5729.23 5260.34 5206.48 5934.22 6586.45 3780.23 5624.49 3095.48 3471.03 5188.81 4359.62 3745.84 5011.84 6057.22 6946.21 5062.71 5433.8 5975.63 4497.59 5252.34 4274.61 4410.55 2965.79 4287.63 5776.37 4516.28 5678.96 5486.68 4244.9 6048.86 4285.32 4986.51 5022.28 5339.38 5197.52 5178.99 5615.35 4790.78 4027.09 6422.84 4502.18 5379.09 7552.94 4051.34 3627.55 6239.84 5865.39 4427.28 3082.32 3658.37 4765.02 5376.71 5703.6 6326.18 4867.08 4807.28 4266.03 6648.68 4220.03 4713.74 5407.78 4084.49 5061.98 6632.99 4537.6 4923.24 5147.36 4419.61 7177.44 4563.46 4082.57 5255.18 5169.9 5282.51 3004.16 4460.92 3797.33 5945.89 4042.28 4105.55 4800.69 6566.1 3555.86 6386.78 5565.13 4470.61 4560.84 6193.35 6086.96 3701.27 5233.78 4806.34 5776.57 7144.24 5133.97 3600.43 6600.94 5371.02 4788.58 6155.1 4709.35 5876.71 5826.04 5226.0 5339.78 4166.08 4861.06 5960.66 3979.26 3999.48 6608.73 4203.26 5696.88 4730.41 3923.03 4004.04 5690.26 5607.14 4156.2 4289.17 5564.02 6072.45 6444.77 6314.07 3921.08 4190.31 7055.42 5683.61 5100.25 4049.02 6894.26 4470.4 5311.03 5255.12 6169.11 4896.11 5172.53 4135.62 5801.99 4860.33 5534.94 3685.13 7644.38 3312.06 6004.68 3361.26 6799.4 4409.63 5521.25 3661.9 5107.23 5370.85 5136.08 5949.46 3178.54 5558.68 3776.94 5629.39 4448.13 2684.03 5070.29 4768.61 6157.04 2261.36 5075.55 5280.69 5506.19 6719.94 6923.84 5449.46 6179.96 5703.07 6113.54 4662.43 6260.79 4709.05 4043.66 3963.76 5528.53 6553.94 5726.66 5460.65 4767.78 5235.17 4779.5 4340.76 4421.12 4435.36 6065.22 4221.28 4996.99 4631.83 4896.39 4384.88 6887.27 6008.49 5480.83 4220.46 5653.9 5683.26 5598.74 5046.21 4906.82 5687.83 5131.24 6496.67 5196.67 5474.8 4373.3 4750.78 5762.59 6262.72 5029.78 6481.79 5374.51 3365.82 5320.28 5224.12 3637.61 4796.58 4569.12 4298.67 5873.69 4472.17 4962.09 6222.42 5654.31 4643.85 5470.77 6062.05 5082.74 5411.85 4844.57 6915.83 5092.37 4470.98 4027.46 3901.8 5759.46 5511.88 4512.11 5083.41 6248.6 5443.58 3836.45 4558.46 5805.86 5346.68 5296.29 4611.53 2681.29 5094.48 4285.66 3872.61 4238.4 4318.48 6408.83 6132.95 3930.79 5266.22 5226.97 5754.18 5180.76 5132.68 3418.99 4480.95 5278.36 4993.35 6218.95 5222.16 5533.72 5533.42 4802.32 4010.57 4599.38 5246.47 4187.31 6191.29 4522.21 5161.01 4298.15 4950.67 5227.59 6166.29 5453.6 5409.63 5294.77 3077.84 4630.82 4813.08 6799.88 4540.86 3062.43 5426.78 2967.38 5652.0 5463.41 5225.33 4929.75 5254.49 6045.22 6649.96 4456.39 4303.19 5514.84 3633.79 6081.14 5421.53 4607.85 4287.53 6070.3 5612.21 4929.14 5894.61 5945.08 5139.5 5004.23 6442.69 7493.3 6320.71 4814.55 4648.04 5833.06 3527.05 3664.11 6607.87 4163.5 4123.6 7092.87 4538.95 4850.14 4970.88 6739.08 7042.12 5501.93 4471.58 5463.38 6098.14 5945.21 5750.71 3493.7 4938.74 3474.39 4200.03 4831.47 4735.33 6939.12 3999.94 4413.85 6171.13 4020.4 2395.5 4864.22 5941.61 3497.9 4933.65 6098.1 5708.99 5687.85 6401.43 5020.71 5997.88 5839.71 4360.23 5576.92 6234.32 5365.24 4004.35 5293.51 4763.96 5008.63 4270.74 3450.93 6293.89 6595.03 4983.39 5366.52 4690.55 5146.37 7132.12 3678.08 4836.16 5518.57 5463.48 3240.51 7422.36 4527.99 4376.7 4628.4 5190.61 5832.37 6051.83 3764.06 4642.93 3973.12 4263.16 6024.75 6109.49 5860.67 5987.42 5990.52 3764.1 4835.83 4159.35 5604.35 6477.91 3091.67 4237.98 6439.37 4081.97 4614.3 5401.99 5134.39 4256.57 5784.3 3914.2 5769.98 6088.68 5937.08 2221.99 4643.56 4135.08 5128.57 5620.74 6000.7 5604.21 3979.54 4968.03 5304.13 5944.09 5698.77 4863.79 4702.06 3464.83 2477.07 6515.84 4143.78 5117.47 5724.64 4925.63 5965.15 4763.66 4888.6 4666.81 4797.52 4780.2 6326.39 6343.14 6643.85 5462.21 4020.95 6313.06 5374.98 6345.13 6470.3 4719.7 5313.22 5516.95 5563.79 5328.22 4406.4 4151.76 3905.51 6853.85 3493.47 4254.37 5782.48 4596.75 3374.08 4031.78 5564.23 5950.04 4231.83 2435.33 4074.48 6333.29 3614.96 4477.04 4558.47 3886.68 5731.57 5662.55 5737.92 3056.7 3755.95 5591.76 4585.31 4586.19 6625.18 4446.06 5323.91 5097.45 4185.61 5737.75 4558.15 2761.07 3778.02 6552.21 5417.8 5227.02 5670.0 5300.96 4232.16 5151.11 4344.51 5680.94 5730.33 5545.46 4543.1 6550.44 8325.01 5732.27 4440.81 5941.9 4523.39 5434.47 6642.76 5829.22 4497.78 5567.93 4243.79 5811.18 5433.65 5332.65 4442.22 6451.33 5413.31 6316.56 4332.87 6420.81 4715.58 3317.83 5580.92 5151.52 3532.3 5973.33 3583.21 5442.32 5067.46 4863.01 5356.79 5233.29 3169.67 4312.56 4612.06 5204.04 3361.92 5490.58 4750.58 3306.14 5395.14 4923.41 3967.48 2990.77 4497.31 3163.78 4305.16 4721.32 3293.56 5092.28 5882.65 5078.86 4739.14 5163.55 4918.77 4819.73 6817.32 3382.7 6471.55 5085.71 4319.79 6263.44 5960.56 4863.27 5122.63 5774.97 5862.86 2315.64 4703.08 6049.79 4390.41 5226.56 5274.19 5599.49 4050.08 5452.42 4097.57 5017.5 3436.15 4216.17 5711.11 4575.94 6484.17 4721.02 3546.71 4938.72 5768.57 3735.24 4188.87 5151.21 6574.95 6817.57 6853.04 4745.43 5703.74 4747.55 5831.96 5464.68 2685.81 4510.8 5889.35 5010.04 4394.56 4570.98 4275.07 5825.38 4573.72 4047.87 5099.21 5742.47 4917.99 5636.4 4367.78 4350.12 4095.75 3603.51 4298.45 5222.51 6609.84 5135.96 3781.77 3834.43 5581.55 5658.37 4707.06 5193.01 6074.94 3474.5 5491.37 3860.83 4250.88 6348.03 3475.67 4792.39 5278.56 5146.37 6917.62 4013.38 5631.14 6137.8 4343.78 5263.3 4008.15 4887.76 4669.06 3012.99 4811.32 6400.08 6184.88 4743.59 5208.14 4450.7 4396.25 3763.05 5092.24 5369.08 4347.74 4518.04 5291.9 4766.06 4009.62 3580.58 4874.18 2081.58 2511.46 4778.82 4011.37 2775.69 5657.36 6124.08 5467.84 3619.79 5029.47 5053.95 6710.88 6667.68 6213.04 3830.46 5211.38 6413.11 6031.67 5274.14 5529.42 4434.19 5257.12 4636.5 4903.82 5100.1 4940.42 4371.99 3954.91 4946.42 3703.1 5923.4 3561.29 4623.61 3295.83 5644.82 2965.01 6413.02 3492.19 4584.5 4118.84 6766.43 3623.87 5916.16 4890.5 6934.37 6113.95 3731.84 4488.85 3981.07 4901.07 5186.3 5966.61 5005.85 4893.49 5325.44 5102.75 5021.88 5956.65 4597.29 4498.25 4200.09 5931.77 5108.06 5398.64 4222.4 3573.73 4693.52 4568.41 3624.7 3420.08 4912.04 4691.91 4539.07 4255.34 4475.83 5064.79 5480.3 7509.24 5896.26 5388.78 6101.13 5599.7 4163.74 6969.28 3665.95 5698.96 3319.67 6471.42 5283.8 4076.59 5164.1 6464.15 4972.17 4479.11 5699.53 4222.77 3783.54 5268.38 5527.23 7038.89 3863.67 4814.12 5067.56 6193.08 6069.3 3352.35 2735.53 5116.6 4909.65 2783.85 6523.86 7693.4 4286.49 4326.48 4437.07 3449.37 5829.32 5491.9 6405.0 5551.95 4659.16 3918.87 5549.49 3101.75 5423.42 6605.86 6505.78 4785.25 6519.43 4270.15 5876.64 6306.21 5926.11 5424.46 5235.11 5253.37 5767.9 5384.76 6515.8 6138.12 6622.11 4428.78 4965.89 5746.28 5659.95 5187.7 6090.91 5409.66 4152.85 4082.47 4537.14 4219.78 5551.9 4963.34 5081.78 4188.3 4459.28 4260.92 5499.39 6250.23 4407.9 4440.57 6235.57 5203.08 5412.31 5548.29 3087.09 7480.41 5163.77 3766.55 6027.62 3423.15 4579.69 5010.2 3554.48 6496.52 6123.03 3991.42 4388.63 4514.79 4834.87 2216.82 3672.21 4509.89 5760.22 6752.75 5938.17 4795.43 5097.95 2928.82 4914.45 4698.87 4000.43 3984.88 4661.03 5160.59 5262.35 4732.09 4281.98 4320.42 7165.9 5344.83 7046.11 3427.63 4863.97 4146.81 6342.48 5756.75 5093.82 4587.67 5951.81 5212.43 3924.14 6918.35 4296.69 4834.3 6238.32 6804.79 6372.13 5369.5 4428.14 5404.01 6016.19 4124.49 3230.13 5714.25 6685.4 5325.96 4850.06 6332.01 7044.29 4805.33 4234.18 7085.01 5980.95 6836.82 3862.77 5887.01 4631.99 5168.35 3747.03 5388.39 4356.49 3728.18 5335.47 4526.81 3994.07 5048.19 4219.94 5907.46 6740.71 4264.91 5399.29 5789.55 4633.05 2275.45 4901.2 6522.59 5012.5 5435.19 4383.56 5461.55 3562.79 7093.13 3298.2 6865.76 6449.64 5266.01 2978.76 4857.84 2040.66 4908.49 7016.27 5884.9 5089.62 4689.15 3685.13 6790.73 5243.43 4590.55 4655.16 4741.26 5920.32 3701.16 4186.6 5251.4 4453.64 3867.19 4345.67 5019.93 5511.6 3885.86 5235.29 4517.73 5177.64 4541.8 4255.31 6116.33 4479.94 5453.3 3838.47 2588.37 5887.15 4718.54 6736.03 4435.51 8659.64 5374.07 4588.7 5683.95 5469.13 5765.42 4233.8 4976.12 6098.95 4817.16 5453.98 4997.83 3718.69 5148.08 6192.0 4940.28 5885.28 6579.31 5269.38 3004.34 5323.55 5607.3 3022.6 4811.76 5313.12 5351.56 3344.57 6448.66 5318.53 5220.76 6945.98 5138.2 5783.48 4701.5 4449.98 4771.65 5589.37 4840.44 5439.49 6639.64 3687.65 5454.12 5478.95 6348.54 4066.57 5642.35 5156.76 6357.47 6101.57 4891.38 5535.91 5955.86 6176.67 4848.46 5412.24 2779.99 5016.02 4581.37 4920.21 4049.16 5851.61 3936.95 6153.94 5478.11 5526.31 3858.17 5030.15 3477.1 4740.98 3185.39 5128.77 7122.87 5633.61 4243.26 6799.23 4888.27 6487.56 4854.11 5971.22 5533.19 4909.31 5417.21 6602.43 5711.62 4798.17 4990.79 5166.79 4516.53 4953.1 2895.63 5818.95 4093.99 3940.49 6464.8 4684.44 4962.21 4749.59 3468.42 4858.44 3685.65 5799.69 4673.35 3876.21 5869.4 4916.22 4992.42 5297.19 6022.7 4255.85 5097.69 5895.77 4765.72 4732.09 3988.3 6261.75 5857.79 2908.7 3757.34 4039.91 6415.61 4338.08 4642.66 5276.7 4752.14 4378.3 5660.16 5037.06 5842.56 6134.99 4094.73 5191.08 5424.88 4062.5 4199.45 5415.85 7234.66 6599.66 4055.54 4886.12 6419.12 4301.61 6107.89 4446.84 5530.49 5660.55 5653.03 5578.94 7610.49 4286.17 3684.56 6028.09 5375.1 5452.36 3804.5 4172.6 5498.42 4638.18 4196.37 5211.6 5806.31 3556.79 4453.97 3503.41 7317.04 6412.67 7001.83 4504.35 4593.7 5012.97 4036.91 5110.11 6379.14 5216.26 4887.52 6571.31 3851.85 6318.23 4058.87 4206.98 5174.75 5932.07 4984.46 5948.71 4793.65 2949.12 3856.53 4532.89 5460.89 4533.37 6040.74 5260.85 5742.09 2884.65 5887.38 5807.46 6942.34 3658.05 4549.69 6423.81 6192.77 3644.78 4312.15 4078.93 5934.82 4501.78 4922.49 3572.94 5797.36 5001.58 4153.84 4820.17 4592.15 5119.86 5084.17 4901.44 3776.8 4998.22 5096.43 6156.21 6104.26 3568.28 5583.61 5425.98 5996.66 6479.39 4122.92 4405.42 4997.91 5079.22 4599.81 3604.14 5381.54 4452.54 5810.77 4406.05 4680.94 5828.35 5876.72 5571.72 5236.43 5689.26 3809.69 4771.13 7051.9 4940.84 4680.14 4608.41 4184.23 4144.57 4833.46 5750.07 6136.49 6543.13 5149.72 4687.64 5469.47 4419.71 4888.12 4244.21 5411.02 4950.97 3197.63 4989.56 5175.29 3645.12 4863.96 5199.44 5471.74 6200.54 5148.58 4652.01 3548.39 5421.64 3583.49 3673.28 4858.51 4366.74 4207.54 3375.28 5625.65 4936.96 4647.67 4481.76 3184.64 5206.33 5375.12 5452.78 5065.26 4356.36 4892.44 4304.41 6789.23 3989.7 5069.89 4157.29 4246.61 4777.03 6813.72 5327.75 4609.02 6486.37 6083.28 6100.73 4745.79 5456.71 4908.75 6556.26 3971.08 6204.65 4482.9 6550.4 4349.13 3766.69 4891.67 6818.91 3503.65 3634.5 4027.63 6631.28 5350.88 5420.67 4392.65 6413.15 6103.11 5048.55 6459.51 4024.31 5844.72 3992.97 5989.05 4054.22 7228.94 5393.65 4961.99 4648.21 4393.16 4595.12 3311.29 3110.13 6484.43 3485.54 4625.67 4458.64 4583.52 6418.11 3492.83 6015.02 5244.22 5585.14 7039.98 6456.58 4729.42 4159.81 5089.26 5244.98 3886.72 5415.45 5792.98 6592.93 6350.71 6436.74 2460.79 4456.11 4653.83 6063.64 4986.71 7382.3 3598.08 2995.67 4022.56 5522.21 5698.23 5089.1 2711.19 4714.83 4028.32 7519.2 3208.96 4099.92 5285.07 4884.59 6355.68 3858.06 4478.6 4083.79 4511.7 4187.94 4351.38 5550.75 5933.7 4809.67 4757.74 5036.58 4356.25 5776.96 5329.59 6119.63 4209.49 5464.25 3821.94 3498.16 4209.31 5439.9 4409.27 4752.9 5512.16 4617.55 4947.24 4287.16 3456.47 3875.05 3540.11 5950.45 4344.34 5713.03 5849.65 4928.27 5052.84 5775.31 5297.16 4165.21 3332.49 4215.0 4603.5 5354.66 4214.44 3566.79 3629.44 5378.23 5374.67 4787.97 4981.43 3746.36 4741.28 5473.72 2603.64 4215.2 2856.55 5107.0 2205.51 4553.68 6212.15 5361.87 6502.97 4783.07 4946.23 4757.2 4896.65 4852.58 5561.74 5975.23 4788.08 4198.94 5470.04 4211.82 6003.78 5684.25 5438.92 4244.49 5036.98 5513.8 5188.53 4521.75 3429.57 5569.2 5410.33 4642.74 6735.97 5305.59 5416.45 4330.58 5754.6 4955.16 4904.51 4147.31 2202.77 5751.15 5950.88 4441.22 4149.55 5853.89 6551.93 4140.4 4386.8 4725.01 5446.4 5966.75 5510.9 3657.69 4883.63 4505.28 4971.29 6280.13 3684.15 5832.29 4438.76 3994.39 6006.89 4618.73 3814.65 3965.3 4960.64 4983.3 4385.81 4034.05 5690.96 5798.38 3862.91 4125.9 5096.24 6171.71 3908.98 3628.89 4668.88 6589.82 6328.42 5027.43 3772.3 7300.58 4855.01 5522.75 3608.06 5474.15 6208.9 4923.57 3340.09 6633.61 5217.95 5484.36 4867.7 4304.63 3953.55 5980.59 4063.9 5263.27 6834.41 5021.77 6300.92 7248.4 6045.67 3796.15 4216.95 5466.33 5742.74 5280.12 3946.28 7216.98 5984.81 5721.05 6329.53 7013.17 3805.67 5718.28 5486.48 4247.69 5301.47 4514.39 4588.99 4640.06 4321.21 6242.79 6506.86 5088.57 4803.57 5580.34 3852.6 5966.42 5134.67 4110.59 4847.14 4706.5 3950.27 4811.22 3683.86 5116.66 4918.76 5003.78 3299.24 6246.56 4061.6 5826.78 4508.18 6214.73 5175.89 3894.64 3703.49 4268.19 3758.22 4374.74 4062.56 3205.68 6200.63 4532.7 4504.86 3217.67 4473.29 5079.64 996.652 6163.54 5212.37 6500.49 5965.58 2628.22 5058.51 4901.29 4607.18 4124.76 4050.03 4775.04 4120.07 4952.52 4882.66 3840.21 6746.66 4954.76 3908.56 4844.83 5244.78 3636.15 6114.89 5135.63 6384.7 3288.01 4355.83 6870.97 5351.86 6056.87 5474.01 6201.86 7554.58 3380.69 5166.89 3639.44 5491.63 5725.37 3868.62 5138.33 3743.76 3425.69 6711.21 5510.45 4730.14 2606.51 4941.02 3864.92 6119.99 2955.36 3668.93 4128.1 4009.24 5372.82 4402.17 7778.01 5127.82 5124.17 5805.1 5366.11 5039.12 4064.58 3419.87 4824.81 5769.14 5944.3 7307.21 3563.14 3381.82 3619.72 5867.64 4646.51 4438.58 4565.93 6059.93 5602.53 6061.63 2279.05 4829.35 6545.43 4075.28 6760.92 4277.24 4989.2 4469.54 4314.56 5161.1 5291.05 6650.77 3928.53 6226.14 5599.29 4801.8 5740.65 4444.97 5046.12 6038.68 3000.29 5271.02 4807.4 2596.96 6349.67 4350.15 4139.3 3516.27 4590.01 6541.45 5367.73 4263.78 4601.74 6101.86 5078.31 4227.41 5993.0 5391.48 6047.14 4923.43 5009.83 5131.15 5666.95 5210.38 4642.2 5717.8 5210.75 4474.83 6555.44 5293.75 4208.41 5730.61 7124.45 6358.93 5064.67 6618.21 5232.85 3717.47 4051.18 5969.37 6816.66 3844.54 5034.69 5849.53 4509.46 4680.69 3538.53 4420.11 6127.39 3352.34 4972.18 5329.76 3899.7 2403.72 7200.89 4147.49 4813.33 4802.98 4833.55 4081.34 3646.95 7224.99 6334.53 5377.37 5652.87 5483.7 5018.69 3152.86 5952.38 3896.27 5807.52 5963.36 5230.02 5307.35 4342.18 5169.48 6016.08 4731.21 3124.7 6064.71 6102.98 6060.17 5153.18 4763.4 4236.86 5902.67 5393.76 5454.11 5806.61 4983.1 6010.59 7123.04 5906.57 4446.58 5401.4 5053.15 5910.86 3220.29 6239.68 7320.78 3845.9 4141.21 4834.44 4234.88 5782.43 4384.28 4456.26 5113.6 4810.98 5135.5 5091.22 5347.9 5640.72 5851.63 4504.52 5727.79 7107.63 5073.02 5788.97 3472.91 4928.85 4023.93 5868.89 8137.11 4711.04 5484.32 4173.54 5606.51 4619.2 5166.41 4824.12 6542.5 7104.73 5067.56 3834.47 4383.47 6162.3 5701.75 4264.54 5262.47 5261.19 3104.96 3512.94 7043.44 4263.65 4750.49 4643.9 4258.98 6106.43 5228.75 4807.35 6761.81 5467.63 4568.64 4728.55 4929.6 3919.62 5750.35 4127.53 4489.99 4548.45 4658.11 4551.26 5658.14 5114.07 4385.49 4263.18 7142.95 4383.68 4559.74 5836.26 6666.67 2617.39 5144.44 6063.44 4583.94 4826.52 5046.31 4928.35 1937.5 5241.75 4731.53 3763.9 4651.99 4788.7 5863.0 5084.5 5640.12 5078.59 6638.25 5134.33 5419.57 5162.67 5760.98 4705.68 5469.35 5384.86 4749.96 4658.24 5869.67 4311.48 4387.39 4899.73 5457.66 6394.19 5973.89 5366.22 6193.73 5518.11 5087.14 3742.11 4192.21 5712.35 5701.52 4743.9 6776.22 5321.17 3719.11 4467.13 4869.25 3877.8 6273.6 5136.87 5024.32 4708.17 3779.45 2741.2 5790.42 5784.37 3142.09 5591.77 3682.35 5182.13 3756.96 6110.48 7541.76 4775.49 4932.29 4681.29 4990.23 5499.59 5749.6 6715.73 4439.71 5667.51 4708.31 4027.33 4198.9 3873.92 5431.29 5026.76 5023.41 6282.38 4092.07 4546.44 5657.55 4184.21 5212.92 4831.93 5188.82 5615.84 4464.73 4717.73 6440.38 5556.0 3274.85 3904.07 5007.21 5545.59 7144.05 4506.18 4067.96 5610.53 2970.9 4099.26 5206.47 4580.06 4608.34 4834.39 3926.11 5971.21 5493.89 3272.75 4057.17 7066.96 4467.0 4991.35 3831.52 4587.7 4994.65 5601.55 5196.92 3787.08 4462.87 5644.81 4013.86 6545.99 3903.91 5334.36 5630.9 4554.68 4512.07 4368.28 4692.32 5984.8 4945.0 5236.24 3127.83 4585.04 4212.15 5678.58 5260.52 3185.09 6570.35 5114.23 4242.63 3269.54 7407.91 5064.23 6015.22 4454.74 5512.44 2904.46 6449.06 5120.92 4337.32 4685.4 6240.42 5146.0 5721.14 4288.45 4577.73 4987.28 6206.98 4918.64 4815.47 4759.99 2646.13 4368.12 4365.58 5214.4 4636.53 3629.49 5766.05 5117.64 4019.34 3835.81 3916.42 4869.48 3623.19 4906.11 4564.1 4745.16 4697.91 5825.55 5509.51 4848.14 4316.5 3199.4 5254.24 4914.03 3597.43 5086.29 5144.56 4158.91 5311.55 5139.18 3360.86 3034.16 5049.99 4201.03 5545.21 4333.87 3667.93 5638.7 5813.79 4644.88 5293.13 7350.26 3768.46 5167.53 5003.3 6245.52 5800.81 3954.77 3784.94 6016.87 3125.13 4506.66 5515.73 5209.55 4174.44 4564.41 6331.74 5951.86 4252.18 4833.67 4659.88 5325.91 3791.41 4213.05 5853.12 5157.38 4224.3 6203.03 4700.07 5235.87 5043.14 5273.37 6089.45 4732.37 4985.3 5072.5 4966.07 5748.9 5713.36 5553.94 5494.28 4704.92 3663.0 6304.49 4954.81 5755.15 5134.72 4835.97 6419.64 5287.25 5464.83 3622.8 2781.96 4431.23 5414.58 5577.41 5917.34 5740.98 4346.07 3999.5 4012.92 5759.79 4177.47 4598.54 4218.16 5218.42 2918.64 4933.49 6139.64 4140.92 3990.94 4756.8 4896.43 5477.8 5463.06 4639.8 3986.41 4241.68 6102.49 3469.18 2945.34 5495.0 3372.95 4489.29 4301.93 5846.95 6061.85 5268.15 5819.0 4924.07 3200.6 4629.02 5914.5 6006.16 3565.32 4608.62 5407.96 4071.75 4626.72 6562.03 4410.82 6443.99 3889.98 5193.58 5399.43 5695.44 3422.21 5429.3 5510.96 6653.07 5532.72 4584.81 3220.8 5071.98 5719.79 4371.08 5148.1 7261.51 4968.14 5949.73 4312.48 5527.13 4278.57 5551.43 5081.08 6318.25 6864.06 5001.87 4493.79 5684.05 4279.44 4899.19 5058.34 4028.22 3918.94 5575.11 5487.63 3852.82 4507.36 7145.73 4168.52 5403.97 6793.1 5106.46 4068.31 5166.05 5077.29 7035.54 4850.5 5426.4 5763.05 5129.68 5357.39 5076.84 5247.01 4208.37 4841.7 5702.4 5069.9 952.938 5473.89 4678.7 3673.6 5810.17 3306.84 5265.21 4657.24 4749.18 4400.14 5866.42 3669.32 4762.1 3742.31 3987.69 4546.96 4316.0 5424.55 4287.25 4392.75 4921.1 5695.79 3814.16 4191.01 4420.6 4475.38 4589.06 4770.51 4920.88 4184.47 6511.37 5890.25 4216.44 6710.14 5034.05 4426.02 4816.51 5345.73 4770.63 3810.68 4841.23 4357.11 2804.54 5005.6 4176.32 5486.89 4462.35 6069.78 5532.75 6949.65 4975.85 4095.83 5695.25 5676.61 5716.42 5701.63 4620.95 6347.72 3460.93 4488.39 5124.86 4927.73 4602.57 7168.2 3763.85 3419.07 5710.33 5344.44 6432.8 5131.77 3186.07 5549.71 4369.86 4967.51 5173.82 7212.97 5490.64 5034.34 3769.2 4507.46 5036.14 3468.45 5603.68 4944.51 4526.34 5610.95 5042.75 5179.17 5579.39 5270.51 4979.52 5490.75 5224.64 5214.63 3495.68 5783.94 6370.33 4202.77 5836.14 6008.81 4932.56 5192.49 3487.31 6643.4 4674.9 5461.72 6599.28 6224.85 4556.19 5368.66 4795.08 6562.92 5501.73 3671.06 4697.24 3612.44 4983.43 5117.52 5233.76 5866.91 4683.28 6405.69 2820.07 5679.74 4851.18 4825.73 4165.36 5288.33 6296.54 5797.21 5685.74 6740.35 6028.63 3450.07 4550.92 6215.87 5191.26 6060.06 5544.27 3484.81 5308.33 6502.99 4666.12 4271.07 6219.34 6023.07 5674.63 5340.05 6506.63 4140.04 5995.4 5322.11 5700.79 5735.08 7133.44 4726.2 4750.81 4711.15 3825.48 4474.39 4658.59 5188.22 6478.35 4196.62 2809.19 5453.77 4916.7 5589.53 7208.19 4549.51 5196.08 3587.93 4517.29 6257.79 4495.75 5323.95 6171.01 4468.26 5796.26 4603.04 4870.94 5368.93 5293.37 5271.88 6121.56 4571.74 4096.86 4796.12 3622.48 5001.51 5385.86 5115.42 4082.4 5482.76 3745.02 3720.7 4887.73 4211.36 5698.53 5378.24 3604.31 3856.73 4450.49 5817.74 5887.71 5635.32 4316.45 4827.61 5409.08 5481.64 4598.92 5241.22 6647.08 6263.3 3422.29 4501.05 4407.79 4537.03 6548.29 3990.96 5352.24 4326.06 7362.42 5793.12 5473.05 5469.17 4373.2 5537.34 5884.99 5726.42 7025.09 4433.12 3392.26 2549.95 4361.24 5138.93 6406.8 7086.69 5648.78 6875.73 5226.42 6081.3 5615.35 3967.76 6311.89 6734.39 4217.36 6549.8 4150.76 5005.72 5368.52 4871.77 5155.28 5811.26 5062.77 6019.35 5205.38 4884.93 6075.99 5262.79 5927.2 4494.15 5146.1 5035.71 4419.79 6485.77 5407.69 5960.5 3869.39 5393.43 6896.55 4685.65 4638.09 5377.01 4441.91 5330.26 6470.23 5939.22 4215.05 4668.8 3495.3 4271.93 5125.17 4697.49 4859.01 5524.45 5600.21 3953.26 5467.51 4625.53 5459.92 4096.47 5114.67 5353.66 4104.04 5030.33 5593.79 5025.42 5234.2 4965.24 6379.38 5327.05 5438.55 4849.5 5353.23 6229.83 4523.81 5578.18 5106.33 5198.94 5933.54 5559.79 2980.31 5879.24 3148.79 5740.78 6824.53 5997.91 4742.82 6791.86 4209.0 4930.72 5728.58 6424.77 6297.99 5918.95 4538.89 6556.86 5661.6 6099.28 5285.75 5385.03 4169.15 5673.75 5360.67 4778.37 5968.54 5592.54 3247.97 5124.34 4114.2 4904.37 4358.81 4651.64 5034.46 5757.29 5016.46 5061.75 3769.24 6022.78 4087.32 6647.85 2569.12 4161.32 5161.74 7336.37 5099.9 6945.69 5118.86 4183.4 6170.9 4733.79 5833.78 4436.48 5758.98 5288.64 6213.24 5942.45 5987.88 3579.59 4228.53 6123.46 6142.88 4461.14 5111.26 5388.73 4574.54 4949.55 4600.71 4764.83 3957.38 5507.38 6889.5 4710.88 5300.17 4117.9 5152.78 4057.4 5534.23 4753.76 6025.77 4781.9 6815.96 5339.6 5828.25 4725.11 3626.86 5418.12 6371.96 4604.1 5322.07 5076.11 5990.75 5770.07 5101.6 4282.11 6589.13 2347.41 5602.62 4542.16 3543.37 2030.03 5628.97 2638.82 5527.27 5104.39 5847.91 4612.13 5846.6 4109.44 4903.84 4290.49 4434.65 5977.66 5209.5 5065.74 5791.25 4873.23 4028.35 5464.05 5453.2 6348.93 5136.51 4332.64 5232.16 4422.23 4820.68 3989.26 6031.22 3618.64 5485.84 4335.79 5453.69 5432.04 5689.56 3702.45 3921.27 5265.63 3242.31 4898.29 4431.06 5372.25 5730.2 3234.26 4830.13 3494.16 5134.17 5370.9 4074.16 4529.77 4904.35 6172.27 5390.33 5078.73 5278.54 5729.0 5729.92 5275.57 4179.87 6224.13 4761.84 5370.1 3661.67 5129.4 5517.65 5114.51 4009.68 3303.49 4622.73 5585.25 5256.75 6351.89 5932.28 2960.5 4975.32 5560.23 4298.7 3902.48 4304.64 6030.39 4905.53 4823.06 3799.01 7392.65 5254.49 3757.23 6828.8 6883.86 6161.94 4065.28 5057.59 5939.29 5418.98 5285.6 5615.06 5575.11 1969.87 3132.34 5203.54 4841.28 4047.95 6142.94 5001.69 4416.87 6581.56 4052.43 3980.46 4896.67 3934.11 5158.44 4466.22 3886.56 4496.51 6153.71 5917.08 5483.37 5092.93 5934.05 4714.66 2803.01 6771.18 4984.17 4656.01 5327.39 5781.62 4037.86 4138.59 5714.51 4938.33 4484.78 4621.33 5157.73 4541.22 4934.66 3539.68 4946.08 4984.01 6217.33 4557.1 6688.53 5927.1 6175.27 5876.51 6731.89 5410.6 4733.41 5264.83 3901.53 5431.14 6815.51 5313.86 4457.05 5189.91 5777.26 5703.84 4171.02 3530.82 5028.06 5797.32 4002.99 4886.99 5159.67 3161.1 5764.52 5684.88 6523.78 4645.86 5620.88 4941.52 5900.0 4325.13 4262.74 6241.77 3783.79 4248.14 5317.19 5279.19 4016.6 5192.92 5821.49 4786.66 7050.08 5891.25 5580.44 5998.13 5095.52 4746.15 3720.38 4655.37 5023.61 4731.37 4672.86 6530.78 3043.77 5783.38 4139.39 5237.55 3909.94 6264.03 5088.64 6589.8 3729.16 5319.1 3783.36 4181.93 3038.91 3922.28 6570.43 3445.92 3350.99 3820.19 4979.5 4745.37 4586.82 6026.04 6200.05 4052.49 5859.17 5490.54 5061.74 4034.41 5326.03 6189.67 5717.45 4948.96 5117.83 5256.82 4013.86 4061.87 5383.9 5165.31 3798.09 4288.5 5715.51 4511.05 3456.3 6561.94 5259.21 4256.08 5881.93 4399.52 4444.0 4554.24 6182.19 5910.66 7415.84 4981.81 5141.03 4970.55 8123.59 5765.14 4767.54 2927.84 5121.08 4696.03 6177.68 4605.39 4698.7 6270.59 6045.26 6500.45 4907.55 4103.76 4286.61 2932.52 4603.66 4969.68 4757.87 6636.43 5971.95 6298.8 3689.24 5178.07 5151.19 6509.54 6119.0 7012.36 5128.59 4293.3 5587.3 3572.73 4864.38 3770.22 4390.64 5150.84 4608.01 4045.67 5087.97 6005.95 4308.49 4930.17 4581.1 4745.44 4085.96 5762.82 7360.12 6223.98 5462.6 5617.29 3035.06 4262.19 4597.88 6275.25 6892.33 4758.84 4452.36 4505.3 3976.0 4068.41 4832.21 6463.71 5059.37 5394.79 5645.54 4526.87 4151.74 3562.8 5192.82 6920.92 4174.22 3573.84 4067.89 6294.09 4571.57 5131.07 5236.69 4121.07 5524.28 3133.28 5731.43 6353.81 4150.44 3518.14 5522.34 5771.98 4420.35 5899.78 5772.57 4813.81 5268.27 5244.95 4645.93 5448.64 4585.37 5901.8 6417.61 3721.69 3830.7 5783.69 6074.39 5317.83 6738.9 4460.89 5992.06 4157.1 8052.53 3939.96 4867.12 6044.01 4637.3 1458.87 5734.07 4840.44 3997.68 6033.28 4819.83 4801.16 5071.38 5616.66 5688.77 5368.28 5466.13 6229.64 2848.44 4220.43 6263.87 5743.8 4094.63 5084.76 6605.11 3557.46 6834.92 6379.33 5652.73 3979.46 5402.45 6321.97 6412.84 2589.19 6079.55 3792.06 5485.61 4993.49 5310.33 6583.37 3688.83 3402.44 4848.98 4491.96 5184.98 4467.51 5339.82 4519.03 5460.57 5110.27 5703.34 4612.68 6668.98 6649.52 4232.33 4939.56 4747.68 5770.92 3093.38 4878.93 4845.91 2002.78 5631.32 6322.0 5793.14 4491.26 4511.34 4609.65 5704.61 5009.21 4742.35 4574.03 4379.91 5290.37 5264.08 4227.66 4691.01 4594.89 3677.85 5245.95 5821.42 4515.02 3463.53 6126.03 6044.69 2970.24 4197.87 5105.54 6032.45 3414.67 5444.36 5044.68 2649.69 6908.32 3467.11 5000.74 4817.75 6153.26 5637.53 3882.37 4634.25 4095.4 5188.57 6351.48 5395.12 5357.33 6210.0 5350.9 3483.61 4262.52 7430.48 5545.68 6080.69 4970.12 4967.93 6369.66 6520.19 5973.57 6241.48 5125.45 5957.82 6286.27 4188.16 6327.54 5507.07 4802.36 2943.17 5327.71 4880.78 5257.38 5075.23 4975.56 7282.36 6666.34 3826.01 4645.91 5581.01 4125.75 5130.57 5749.53 5090.48 5034.02 3985.93 5582.28 5945.25 6071.59 3856.4 4696.06 4937.36 4137.16 5308.4 6581.13 4569.32 5537.61 6084.88 4397.06 4199.44 4053.12 4479.5 6261.67 3435.13 5065.78 4431.46 4521.42 3207.84 3977.98 6043.34 4128.93 4959.72 4712.17 4723.71 3808.04 4461.67 6126.5 4034.88 6007.1 6345.2 5488.96 5128.03 5410.73 3720.92 5087.3 4942.63 6139.74 5850.38 7066.26 4730.97 3057.3 6150.31 5214.71 4677.84 4811.11 3920.44 4924.52 5379.52 4866.8 5658.05 6593.1 5462.1 4000.51 4066.36 6033.93 5011.37 2827.92 4026.03 5092.44 4441.44 4232.44 5336.61 3312.3 5563.09 4848.15 4439.09 3282.57 4798.13 5523.81 4718.61 6697.45 3873.79 5717.67 5515.59 5252.37 5432.4 4499.54 5037.58 6457.89 5640.67 6572.17 3751.73 5555.89 4766.47 4871.1 5678.08 5922.62 4414.09 5191.29 3784.68 3717.22 6649.21 4654.92 5286.55 4322.56 5522.18 5509.09 5625.02 3873.72 5212.05 4829.77 6474.5 3928.99 4444.92 6959.88 5971.9 3746.62 5247.73 4876.37 4769.62 5260.13 4649.5 5181.31 5985.75 5475.83 6189.29 5984.55 5672.46 5803.3 3228.27 4721.98 5252.82 3543.98 4142.1 5056.26 5878.55 4014.44 6604.72 6002.77 3794.47 4610.55 4967.02 4614.49 5400.69 4462.5 5573.31 5004.68 4023.88 5348.11 4405.61 5428.24 3511.5 5108.84 4520.14 5067.92 5357.14 3188.21 5919.27 4793.06 6637.38 4975.57 6188.33 6916.18 5873.62 4996.91 3868.69 5447.74 4450.51 6033.72 3768.62 3851.47 5314.67 4966.74 5563.47 5651.46 3162.27 5516.37 6520.96 5432.2 4612.4 4746.19 6381.58 5212.2 5648.59 4630.5 6296.36 4432.32 4451.76 3224.81 3775.38 4046.22 4104.97 4844.2 4575.72 5114.61 6118.13 3374.62 4420.3 4926.62 3917.09 6009.93 5872.45 3482.73 5270.1 5130.56 4947.64 6305.9 3470.69 4542.62 4859.95 4132.08 5223.1 4850.49 4592.49 3625.98 4981.55 5479.86 4702.32 4763.04 5944.52 4413.56 5050.2 4532.67 2513.38 5316.05 4908.32 3995.08 5019.84 4810.74 3900.93 5784.38 4149.17 4329.8 5728.27 3074.49 5202.33 3956.24 7558.99 3393.59 5043.14 5333.04 5445.91 4521.99 4812.59 6842.54 7115.67 5675.45 3361.11 6038.56 2807.46 5599.16 4179.8 3488.34 5658.35 4487.51 4582.12 4295.25 7394.47 4729.45 4850.95 5374.09 6271.22 3421.81 5378.75 3920.64 6111.23 6186.24 5786.06 5822.7 4137.41 3780.07 5466.49 4038.17 5007.41 3692.99 4907.48 6213.74 4959.94 2329.93 1635.31 6938.87 5639.4 5412.07 6185.73 4083.24 4806.99 3771.91 5217.62 3839.0 6178.19 4616.81 5715.25 4362.94 4611.21 4469.82 5108.42 6545.78 3354.94 4404.87 5237.27 5767.65 7885.41 4750.76 5782.25 5497.27 4081.77 4948.21 4987.01 2181.29 4202.12 6332.64 2694.25 6492.44 4083.1 4613.32 5145.39 3996.93 6351.95 4957.99 5195.09 4063.26 5345.05 4997.89 7679.2 5093.28 6131.52 4311.92 6009.88 4699.77 5093.41 5144.23 6188.62 3621.63 6153.07 4414.06 5801.89 5908.57 7296.47 5742.39 4821.41 4924.53 5616.11 4499.52 3874.12 4028.13 4457.73 6476.35 6260.58 3053.19 4067.24 6571.26 5580.95 3549.92 6598.99 4032.06 5246.81 5089.1 5888.95 5394.78 3463.34 5122.38 2853.68 5262.85 4998.37 5329.84 6559.82 3879.83 6565.95 4577.98 5886.81 5043.34 4246.24 6805.02 5354.48 4900.26 6261.13 4167.55 4720.34 5244.47 4731.16 5510.89 4495.33 4159.89 5282.67 5178.55 5146.69 6203.24 6818.23 4369.87 5652.19 5806.74 5512.57 6578.62 4813.55 5856.43 3465.03 5349.85 5799.86 5172.1 6052.22 5376.41 4870.14 2932.2 5105.72 4082.01 5003.49 3964.03 4907.03 4216.33 5832.72 5617.91 4444.95 4721.2 4706.31 6265.48 4735.99 4203.68 4739.56 4701.03 3818.37 3352.46 6225.05 5434.04 5200.1 3997.52 4881.51 2626.41 4909.74 6729.99 5310.33 6664.54 6842.35 5161.73 5464.34 5259.48 4777.96 4803.4 6833.5 6608.94 2613.78 4780.16 5738.37 3834.01 4813.24 4433.23 5759.19 3113.64 4490.2 4304.75 5480.86 6139.9 4720.22 4313.38 5827.3 5250.56 3633.58 2468.16 6294.14 4339.97 5203.75 5169.09 4691.15 2459.88 4210.24 5470.67 5901.71 5225.11 5342.9 5252.22 5733.12 4962.35 6436.29 5402.81 4600.81 4919.13 5640.63 4124.33 5168.97 5783.88 5002.38 6705.93 4865.11 5449.09 5502.14 6470.87 4465.56 4131.08 5747.9 3864.19 4287.93 5315.71 6158.93 5081.65 4488.41 4823.14 6679.12 4621.32 3878.8 4698.94 6284.12 3948.21 4796.04 5669.15 5229.56 6011.4 4672.34 3330.85 5056.32 5533.52 5410.33 5003.63 4695.7 4747.24 4944.08 4380.86 5576.16 5269.39 4305.35 5210.22 2451.27 3903.9 4929.35 5606.22 5161.02 3943.77 3124.49 6081.35 5003.81 6262.18 5566.5 5663.36 4276.59 5579.04 5125.53 5994.21 4444.54 5779.9 5403.81 6964.78 5299.03 5036.84 4565.36 3922.98 5813.68 4025.08 4008.67 5254.93 3618.53 4770.21 3846.55 3796.73 5417.07 3082.16 5656.84 6789.66 4739.41 5312.2 5847.27 4706.59 5734.84 3982.31 4950.07 4582.24 2832.83 4084.87 6036.99 3010.1 3825.98 4589.22 5087.03 4667.84 3906.41 5584.64 4123.08 4512.6 4260.38 4636.45 4932.27 5638.51 6793.49 3563.33 6060.19 5536.0 6786.37 4333.23 4328.76 5561.63 5940.5 4358.06 5093.51 5647.93 4280.92 6201.49 5154.74 4605.61 6898.8 5386.95 6540.57 5332.11 4893.72 6004.72 5373.78 4072.4 5438.5 5345.65 5863.36 5699.4 5237.76 4994.98 4286.84 6423.96 5296.05 6058.13 5263.86 6988.4 6635.51 4060.17 6051.35 5302.53 4909.13 4287.61 5648.02 3308.75 4604.34 4439.17 5677.42 2701.42 5442.79 5051.39 6673.92 5242.38 4884.94 5459.52 4609.98 4738.72 4752.31 5240.97 5569.85 5405.6 3929.35 4884.93 4759.38 5082.25 4374.05 4287.15 5282.51 5504.65 5732.11 5040.9 5596.68 8013.28 5159.9 5283.65 4644.68 2892.36 5981.54 5911.29 5416.41 4694.27 6760.64 2515.5 5177.88 5551.79 6981.47 3916.15 4474.96 4758.76 4790.63 5259.29 3584.05 4916.75 4818.53 5097.85 6189.04 6224.64 4221.03 3799.55 5082.66 4550.77 4337.93 3550.88 4345.51 4048.73 6223.33 5145.13 3860.8 3747.96 5611.29 4521.88 6568.45 5004.22 4601.54 7263.57 4696.92 5705.96 6437.99 5739.69 6632.04 7360.62 4977.64 4985.45 4983.56 5699.51 4489.18 2489.44 4883.13 4632.75 4836.76 4752.94 5551.09 3950.53 4501.1 5894.69 4987.01 4713.56 6094.34 6779.82 5543.67 3999.81 4867.13 6377.45 4863.27 4502.12 3255.93 6853.07 5151.68 4633.59 5733.59 5362.15 4455.61 6874.6 5106.9 5306.31 5523.96 4223.53 4733.37 6960.97 4535.94 3037.72 4523.9 5126.08 5604.0 5669.41 3760.4 4951.02 3919.47 4602.7 3783.35 4868.66 4037.16 4004.39 6395.63 4987.48 5943.61 4248.58 5479.17 4542.25 5020.37 4414.23 5233.88 4849.21 4785.55 3793.83 5245.4 6189.81 5367.05 4449.73 5647.11 4088.72 3945.62 3743.85 6236.46 5342.17 6379.3 5015.67 3795.63 5189.4 4576.71 6538.04 4894.15 6157.59 5201.3 5848.41 4090.28 4246.83 5438.6 7370.52 4726.5 5467.05 3724.23 5103.3 4963.88 5888.94 3832.09 4727.98 4122.2 5175.88 5267.65 4516.26 4790.16 3509.34 5360.88 3731.58 3166.37 5369.42 5207.08 5205.53 4714.52 5499.37 5543.05 6028.89 5333.16 4888.17 5755.98 5392.85 5581.47 4384.91 4274.05 6550.61 4277.54 5529.09 4531.46 5925.82 5448.68 4739.5 6210.48 4491.62 4182.05 3865.5 6327.61 5575.8 5268.93 3695.72 3647.26 4587.19 5077.2 5275.27 4072.95 
SCALARS Velocity float 1
LOOKUP_TABLE default
1.53158 1.4951 1.3823 1.58685 1.52005 1.53161 1.52964 1.51102 1.51002 1.53747 1.62805 1.59094 1.5819 1.54354 1.50872 1.54786 1.54259 1.46584 1.58934 1.521 1.5275 1.52835 1.54546 1.58021 1.56665 1.6017 1.57501 1.53191 1.4994 1.57589 1.736 1.49628 1.54341 1.52657 1.56036 1.45472 1.50643 1.54759 1.48285 1.70311 1.59676 1.58867 1.5166 1.51813 1.52637 1.54341 1.56078 1.52756 1.59435 1.60216 1.57663 1.55412 1.57553 1.54743 1.62936 1.74722 1.67842 1.50651 1.52944 1.5405 1.52815 1.58246 1.54409 1.50873 1.48552 1.49054 1.69097 1.6748 1.53745 1.57119 1.52955 1.54494 1.56754 1.51472 1.62534 1.61649 1.60453 1.58745 1.52396 1.50009 1.62643 1.6203 1.67831 1.56252 1.5366 1.52821 1.50349 1.49085 1.52145 1.47219 1.51861 1.48959 1.66765 1.68787 1.57252 1.54868 1.51338 1.5017 1.57037 1.66714 1.52781 1.62478 1.66814 1.42336 1.51865 1.79231 1.54577 1.45406 1.52819 1.46351 1.50993 1.53801 1.70104 1.66636 1.66155 1.66125 1.64704 1.66367 1.60538 1.57158 1.49644 1.62545 1.61275 1.76316 1.62643 1.54506 1.76259 1.43143 1.58208 1.42767 1.77785 0.943475 1.49165 1.92158 1.49881 1.46385 1.49773 1.52211 1.51613 1.55352 1.58743 1.60825 1.66056 1.66447 1.6421 1.65349 1.65525 1.73767 1.66146 1.57261 1.57222 1.67739 1.60788 1.76189 1.54609 1.5959 1.50721 1.46614 1.3898 1.86147 1.65053 1.01324 1.70216 1.47982 1.51812 1.516 1.53281 1.52101 1.49957 1.69591 1.77767 1.63357 1.63706 1.59722 1.64545 1.64993 1.75855 1.74974 1.63516 1.59334 1.65163 1.60226 1.53013 1.51642 1.61529 1.44262 1.48741 1.45641 1.57493 1.37214 1.63299 1.56237 1.54816 1.53699 1.53332 1.54796 1.52891 1.42471 1.74175 1.60604 1.63595 1.72855 1.69399 1.72588 1.67829 1.65217 1.65228 1.5737 1.56399 1.57754 1.41601 1.44063 1.46621 1.41332 1.40862 1.5022 1.55242 1.54346 1.55139 1.54817 1.51466 1.54901 1.49828 1.55601 1.70876 1.66037 1.59412 1.6506 1.55716 1.65412 1.71482 1.75066 1.7873 1.72878 1.67203 1.71258 1.69361 1.6332 1.53679 1.55907 1.58382 1.59551 1.5965 1.51803 1.41513 1.40611 1.38201 1.44135 1.45537 1.49897 1.51711 1.55435 1.56908 1.49947 2.038 1.32399 1.46338 1.3657 1.51356 1.62946 1.36768 1.63399 1.88169 1.58721 2.02294 1.7752 1.47574 1.67873 1.68673 1.75922 1.50905 1.65045 1.548 1.60125 1.48412 1.35569 1.28489 1.35841 1.35937 1.32506 1.38507 1.48828 1.44745 1.38856 1.49739 1.57035 1.54873 1.64071 1.55944 1.44449 0.98028 2.40343 1.41373 1.55701 1.70084 1.13939 1.21833 1.23503 1.22086 1.28503 1.26502 1.27682 1.35028 1.17246 1.17464 1.75105 1.32958 2.01187 1.34452 1.28375 1.55594 1.71629 1.73765 1.81577 1.47086 1.23 1.38773 1.32381 1.36668 1.28057 1.42813 1.316 1.41988 1.46419 1.41004 1.46423 1.57059 1.5339 1.45321 1.87788 1.82012 1.22139 1.25383 1.74855 1.61139 1.39716 1.30012 1.25496 1.25842 1.2621 1.13205 1.14938 1.11216 1.08347 1.18328 1.09186 1.06551 1.28405 1.13458 1.09052 1.18765 1.142 1.49834 1.3665 1.11284 0.854333 1.52796 1.35965 1.48137 1.80764 1.6397 0.793738 1.11714 1.27618 1.31829 1.3163 1.37309 1.36917 1.35729 1.31132 1.38218 1.37466 1.3081 1.37633 1.54279 1.43158 1.47891 1.24566 1.49383 1.38366 1.42208 1.46244 1.37601 1.25302 1.23748 1.37277 1.41659 1.17545 1.38795 1.10689 1.08049 1.04029 1.25979 1.13244 1.27472 0.8163 0.886628 1.01712 1.03091 1.05852 1.08262 1.05719 1.07121 1.07685 1.07674 1.06098 1.10051 1.18713 1.17212 1.24038 1.36185 1.42186 1.12683 0.996421 1.32384 1.20308 1.37677 1.00215 1.51995 1.17524 1.11284 0.950042 1.17908 1.23877 1.28554 1.21426 1.34962 1.36438 1.3468 1.25128 1.31555 1.35191 1.24385 1.18804 1.24526 1.30431 1.35034 1.29849 1.29108 1.40311 1.3267 1.21552 1.30926 1.30173 0.954686 0.803087 1.28173 1.22641 1.20675 1.07958 1.14343 0.987278 0.9983 0.72355 0.914296 0.952959 1.23168 2.31669 0.0440454 0.427816 0.987599 0.938441 0.97232 0.975761 0.928606 0.968552 0.940459 1.11605 1.09008 1.04775 1.08804 1.05666 1.05787 1.07893 1.17896 1.20645 1.37475 0.977624 1.20016 1.02551 1.13509 1.17944 1.12978 1.13644 1.06753 1.34669 1.13846 1.13418 1.17075 1.16867 1.19847 1.24377 1.21854 1.30772 1.25031 1.2464 1.35408 1.43184 1.15022 1.20113 1.22083 1.15841 1.20203 1.24068 1.25743 1.16349 1.25068 1.22776 1.26813 1.27035 1.26991 1.07125 1.30283 1.0712 0.811534 0.928729 1.18095 1.02881 1.15731 1.07131 1.01572 1.6597 1.23302 1.33186 1.31829 0.728887 0.950214 0.911057 0.761413 1.01847 1.00816 1.00406 1.00419 0.991902 0.984172 0.962629 0.966223 0.972324 0.942554 1.03286 1.09933 1.12161 1.04656 1.26934 1.14411 0.986497 0.999162 1.07762 1.01374 1.0541 0.985661 1.092 1.2142 1.01994 0.990639 1.17505 1.1061 1.19479 1.02355 1.07991 1.11877 1.16696 1.17524 1.20412 1.17334 1.23454 1.27619 1.02565 1.12843 1.05441 1.14658 1.11578 1.14359 1.06697 1.15751 1.04538 1.09487 1.31961 1.16474 1.24194 1.34154 1.12773 1.06219 0.981068 0.996557 0.976348 0.95983 1.24428 1.09031 1.10054 1.08369 1.10683 1.02161 0.961098 0.845724 0.920957 0.84135 0.910995 0.883868 0.866313 1.01024 0.970532 0.903632 0.940627 0.982217 0.883195 0.986005 0.975327 0.952954 0.944738 0.899033 0.868658 0.907004 0.918927 0.905126 0.903735 0.945968 0.941207 1.04493 0.885301 0.918426 1.01124 0.901123 1.06794 0.867738 0.984123 0.998412 0.965008 1.02704 1.09705 0.982873 0.99817 0.877277 1.14662 1.08163 1.04888 1.05884 1.09024 1.12219 1.15228 1.13303 1.15559 1.19028 1.15055 1.17679 1.22655 1.14581 1.00888 1.0273 1.03108 0.976487 1.07201 1.10583 1.08976 1.12257 1.13322 0.957724 1.36629 1.09154 1.04524 0.988089 0.973831 0.962785 1.04619 1.06254 1.01659 1.0718 0.956329 0.907547 0.913836 0.767829 0.883261 1.05307 0.73507 1.47887 0.900218 0.308344 0.836317 0.752928 0.328578 0.445867 0.839261 0.852834 0.893666 0.857407 0.903015 0.903989 0.884473 0.887377 0.883853 0.867575 0.89712 0.913877 0.869276 0.93148 0.905076 0.893741 1.00993 1.01574 0.961883 0.968424 0.95802 0.931336 0.869523 1.48112 1.18117 0.868155 0.929537 0.911547 0.915663 0.955422 1.21544 1.01628 1.17807 1.10627 1.05251 1.06695 1.08799 1.11505 1.0718 1.10226 1.08943 1.12551 1.13052 1.10651 1.15571 1.18493 1.14274 0.906598 1.16997 0.998504 1.03043 1.07088 1.07105 1.03643 1.10634 1.01989 1.00152 1.25203 1.16632 1.16573 0.964828 1.07385 0.984522 0.976076 0.968511 1.02227 0.999609 1.03448 1.05411 1.0179 1.00853 0.813559 0.990505 0.9328 0.848824 0.776885 0.777882 0.629925 0.913623 1.4998 1.16641 0.931399 0.850165 0.773386 0.790522 0.787162 0.70232 0.845555 0.857249 0.924761 0.8505 0.841209 0.796475 0.880151 0.812832 0.942709 0.987144 0.915456 0.89794 0.887387 0.894508 0.902056 0.887961 0.875778 0.894177 0.890232 0.911562 0.871449 1.03101 1.00279 0.930722 0.918878 0.941346 0.949534 1.62738 0.894612 0.831081 0.986012 0.894234 0.960592 1.28781 0.911483 1.3428 0.895812 1.12239 1.14516 1.03147 1.02932 1.00714 1.03054 1.05618 1.04895 1.08894 1.10638 1.10579 1.08777 1.07923 1.07633 1.0963 1.13744 0.922305 0.95552 1.00299 1.02057 0.990904 1.04645 0.979958 1.02705 1.07273 1.04722 1.07422 1.08651 1.01484 0.908928 0.895152 0.922146 0.915134 1.00555 0.985116 0.966451 0.970069 0.997958 0.992891 1.01164 0.914302 1.03358 0.878033 0.778876 1.22775 1.14412 1.25794 1.02987 1.13191 0.866209 0.894665 0.874608 0.897485 0.918201 0.981428 0.934267 1.0215 1.02342 0.849836 0.816299 0.790555 0.801193 0.761841 0.820013 0.867598 0.785889 0.944106 0.908529 0.872189 0.8794 0.827943 0.832701 0.862413 0.873805 0.909212 0.909483 0.954212 0.899127 0.997724 0.852007 0.923576 0.848314 0.823977 0.841764 0.726143 0.825893 0.808 0.818862 0.928181 0.874941 0.905724 0.923369 1.12879 1.07002 0.711267 1.12455 1.16683 0.952703 1.01615 0.997695 0.995608 1.01451 1.03511 1.08255 1.12338 1.06808 1.06261 1.09227 1.09418 0.986074 0.963557 0.956622 0.970064 0.98538 0.991307 0.9821 0.985339 1.00457 0.989076 1.01199 1.03189 1.004 1.01727 0.980798 1.06024 1.05257 0.820306 0.918364 0.931727 0.965388 1.03096 1.04996 0.964043 1.02337 1.00261 1.02128 1.01963 0.915553 1.02177 1.00527 0.901507 0.935585 1.12532 0.934979 1.13625 1.18758 0.995824 0.824032 1.09344 0.933715 0.822008 0.853659 0.855291 0.826013 0.87012 0.829308 0.821355 0.896771 0.804808 0.870906 0.891658 0.864419 0.839699 0.839799 0.840558 0.897747 0.934645 0.806617 0.844429 0.816675 0.816842 0.828321 0.852013 0.826444 0.882901 0.859475 0.85558 0.875791 0.936317 0.992974 0.960849 0.823315 0.839495 0.821216 0.835857 0.976867 0.933104 0.988211 1.0364 0.938642 0.908411 0.591509 0.807031 0.76284 1.01483 0.905567 1.05778 1.02272 1.00965 1.01232 0.997487 1.00883 1.02538 1.04705 1.05803 1.05849 1.06775 1.07318 1.02381 0.960644 0.96769 0.958313 0.990765 0.97212 0.995391 0.992835 1.01431 0.946087 1.3506 0.840701 0.921354 1.14587 0.934326 1.03877 1.02721 0.828548 0.965899 0.801015 0.946075 0.850774 0.793674 0.880702 1.05036 0.979712 0.771818 0.948843 0.886524 0.833378 0.787985 0.807763 0.808041 0.816576 0.856594 0.837844 0.854611 0.815363 0.764541 0.834656 0.744488 0.796766 0.750872 0.698595 0.601204 0.5722 0.91293 0.842886 0.878639 0.629952 0.558095 0.769214 0.817491 0.813274 0.815947 0.854215 0.866158 0.847731 0.852736 0.861457 0.848349 0.82185 0.81819 0.830027 0.823646 0.778628 0.840743 0.802234 0.870489 0.874186 0.888936 0.846285 0.963823 0.974418 0.908347 0.876416 0.890713 0.848901 0.870956 0.894087 0.929641 0.922262 0.944989 0.950688 0.944543 1.02893 1.03584 0.988329 1.00101 1.01002 1.03257 0.994615 1.05637 1.02716 1.04151 1.04795 1.02072 1.0063 0.973355 0.940806 0.960746 0.966635 0.958988 0.95207 0.950315 0.954371 0.96186 0.943614 1.0124 0.877369 1.11549 0.633358 0.895276 0.786245 0.788133 0.833 0.919469 0.97735 0.884752 0.914615 0.885873 0.80979 0.886941 0.752232 0.806622 0.802412 0.849942 0.876893 0.954013 0.944102 0.860181 0.882828 0.808367 0.835811 0.866091 0.861986 0.892303 0.859163 0.7951 0.805041 0.830114 0.882641 0.803338 0.584995 0.584142 1.05378 0.99471 1.0839 0.778848 1.0517 0.854938 0.954398 0.756518 0.832634 0.859817 0.827218 0.830663 0.875024 0.83732 0.796297 0.795711 0.801506 0.797694 0.803085 0.873404 0.806659 0.845701 0.887367 0.87557 0.863984 0.867452 0.894412 0.914 0.902651 0.886952 0.856714 0.876965 0.921966 0.906719 0.915754 0.930932 0.929948 0.927493 0.931697 0.936674 0.970387 1.03212 1.0195 0.970331 1.00186 0.966832 0.982935 0.973282 0.930669 1.00813 1.00578 1.02389 1.01151 1.02511 1.06344 1.03801 1.02838 1.05994 1.03559 1.06817 1.00347 0.971891 0.940042 0.946501 0.968829 0.956721 0.953948 0.932466 0.913775 0.925247 0.931528 0.941922 0.959339 0.914069 0.976402 0.890346 0.858365 0.901472 0.943202 0.938906 0.911838 0.936027 0.867737 0.894294 0.733922 0.735308 0.789498 0.842429 0.869228 0.773336 0.782796 0.934876 0.958992 0.953034 0.90668 0.933689 0.953893 0.891404 0.885537 0.965375 0.940879 0.876577 0.990314 0.823164 0.872751 1.13037 0.594368 0.883476 1.18233 0.758039 0.766319 0.851888 0.87535 0.93452 0.978447 1.01722 1.10422 0.932868 0.648569 0.643302 0.786846 0.609234 0.789042 0.773623 0.790784 0.833766 0.831135 0.822384 0.812542 0.819455 0.827301 0.863482 0.834254 0.806092 0.862891 0.714557 0.780553 0.779047 0.960628 0.898697 0.843517 0.893835 0.899495 0.914459 0.896762 0.913001 0.91768 0.91168 0.898873 0.894033 0.887967 0.906363 0.910163 0.929868 0.930206 0.922473 0.926765 0.934734 0.950883 0.957934 0.9367 0.865193 0.972071 0.955544 0.961692 0.885768 1.02317 1.06583 0.998591 1.03954 1.09907 1.04363 1.03455 0.987559 0.964373 0.93265 0.929319 0.982472 0.923667 0.987077 0.914612 0.941923 0.949026 0.95067 0.933521 0.930094 0.93016 0.914558 0.894427 0.894331 0.906921 0.920224 0.912757 0.908387 0.857936 0.869008 0.834573 0.802072 0.767032 0.806666 0.813119 0.861842 0.78886 0.807078 0.819027 0.752709 0.933106 0.753588 0.751375 1.06647 1.03124 0.733952 0.90361 0.798657 0.883802 0.786164 0.857609 0.769913 0.863597 0.70722 0.40143 0.800184 0.590183 0.764956 0.787364 0.748444 0.748586 0.803487 0.790956 0.798584 0.804136 0.825457 0.788216 0.922253 0.748838 0.674319 0.689636 0.772877 0.799073 0.787489 0.801027 0.829173 0.826987 0.802611 0.804542 0.821319 0.82305 0.794975 0.865455 0.79803 0.858475 0.843815 0.815037 0.883397 0.932999 0.90001 0.93879 0.916307 0.922777 0.930866 0.926379 0.939397 0.931411 0.938273 0.927635 0.938262 0.913776 0.915523 0.897894 0.920398 0.967273 0.976221 0.995725 0.851665 0.728518 0.927626 1.09283 1.22572 1.12121 1.03033 1.00532 0.935508 0.968301 0.914994 0.9198 0.92669 0.843893 0.932569 0.969748 0.903969 0.931046 0.936739 0.924487 0.924502 0.916431 0.90233 0.906964 0.908241 0.90854 0.911476 0.91103 0.907915 0.904631 0.879775 0.88527 0.837653 0.831826 0.819708 0.839958 0.818785 0.818567 0.849641 0.858623 0.852169 0.83571 0.813447 0.848422 0.779884 0.775359 0.830051 0.808105 0.768425 0.791637 0.847904 0.787712 0.805379 0.900562 0.912827 0.967824 0.879777 0.882255 0.938451 0.762645 0.658428 0.832214 0.689442 0.787196 0.770862 0.773464 0.784641 0.825781 0.872359 0.807896 0.830736 0.79638 0.861109 0.918954 0.767987 0.776153 0.73792 0.758007 0.772437 0.743257 0.83316 0.840979 0.825835 0.823924 0.834038 0.812275 0.85668 0.827795 0.901714 0.832226 0.840471 0.816976 0.832838 0.857761 0.967356 0.84628 0.87409 0.92475 0.877685 0.836061 0.885764 0.850709 0.947711 0.961626 0.933332 0.947168 0.951477 0.943471 0.944666 0.94086 0.936094 0.922569 0.900393 0.892617 0.887328 0.885374 0.904131 0.955125 0.980994 1.00752 0.993877 0.811052 1.09383 0.905774 1.42372 1.34499 1.42285 0.999486 1.00865 1.00436 0.928567 0.91408 0.905001 0.902529 0.914037 0.925349 0.940547 0.917765 0.928652 0.929024 0.927203 0.92402 0.914406 0.916506 0.909845 0.907508 0.909335 0.908076 0.898672 0.906751 0.88936 0.882244 0.855886 0.855173 0.837087 0.840684 0.824726 0.836436 0.856508 0.856151 0.862369 0.816123 0.826158 0.796031 0.847147 0.784872 0.780466 0.782641 0.784464 0.777893 0.810556 0.839606 0.815984 0.977141 0.806904 0.98406 0.69845 0.806094 0.795731 0.767529 0.734879 0.808914 0.719607 0.792407 0.779804 0.802497 0.802609 0.825227 0.810008 0.771766 0.806178 0.718724 0.884061 0.88219 0.920991 0.822677 0.734187 0.820788 0.860741 0.811647 0.792898 0.746079 0.782568 0.746788 0.840314 0.799122 0.799858 0.662547 0.685875 0.711498 0.6338 0.779604 0.77622 0.804452 0.788134 0.854508 0.851838 0.855371 0.798858 0.74114 0.856674 0.786289 0.838875 0.946533 0.767305 0.987279 1.03894 0.99045 0.96147 0.956273 0.96713 0.95102 0.93986 0.938403 0.925088 0.910771 0.889381 0.88525 0.87885 0.88219 0.896543 0.913424 1.04704 1.02455 0.966169 1.01225 0.943695 0.693222 0.936349 1.2412 0.57374 0.691721 1.26729 0.879295 1.20402 1.0347 1.03872 1.05454 1.07982 0.973585 1.01534 0.932778 0.931386 0.926414 0.922992 0.936227 0.934596 0.936139 0.92647 0.92632 0.917003 0.916832 0.918869 0.900128 0.903348 0.902499 0.90885 0.901261 0.896461 0.898915 0.887386 0.867094 0.87161 0.860686 0.857014 0.84902 0.841987 0.858159 0.852012 0.85931 0.855337 0.870736 0.858687 0.865611 0.855251 0.808559 0.868952 0.872892 0.813578 0.795617 0.799142 0.787961 0.796716 0.812428 0.757669 0.695462 0.799895 0.716677 1.0641 0.771851 0.757915 0.772251 0.789509 0.753238 0.76503 0.812992 0.723511 0.796394 0.796502 0.747592 0.81975 0.818849 0.792206 0.797096 0.721178 0.766685 0.755001 0.598135 0.71335 0.544598 1.12573 1.17293 0.839687 0.755264 0.654237 0.634917 0.765307 0.706349 0.783176 0.579838 0.51894 0.66273 0.656232 0.562312 0.604391 0.632561 0.775219 0.780298 0.895945 0.881859 0.862439 0.94304 0.863232 0.814177 0.747712 0.742166 0.783353 0.688914 0.735604 0.547609 0.696374 0.824379 0.915136 1.01548 0.960963 0.951266 0.944538 0.953755 0.944475 0.961093 0.953424 0.934042 0.923658 0.897104 0.885052 0.880458 0.886852 0.872598 0.839406 0.944993 0.943117 0.797279 0.774436 0.895655 1.05897 1.06993 1.01832 1.11885 0.972807 0.96453 0.941614 0.942775 0.943002 0.951437 0.945801 0.933687 0.944019 0.93569 0.917913 0.907876 0.896168 0.943413 0.854459 0.893694 0.90772 0.90266 0.899273 0.904237 0.904692 0.884594 0.885271 0.872546 0.864054 0.865133 0.860369 0.861263 0.851149 0.861672 0.867 0.839589 0.838932 0.802563 0.812948 0.778007 0.765982 0.835004 0.762302 0.733949 0.889665 0.914301 0.811452 1.17888 0.821301 0.687977 0.74229 0.72983 0.759797 0.758272 0.728092 0.795513 0.767425 0.655658 0.696525 0.659451 0.690106 0.662761 0.711217 0.67919 0.677903 0.659929 0.757126 0.771844 0.604762 0.665342 0.686931 0.930576 0.824018 0.701507 0.621562 0.587895 0.557019 0.622178 0.623843 0.700925 0.598226 0.674112 0.623312 0.648612 0.630298 0.675536 0.642617 0.722004 0.909447 0.929969 0.851306 0.962023 0.833082 0.971609 0.805415 0.830499 0.729374 0.728714 0.730621 0.692013 0.640032 0.541498 0.645854 0.672335 0.829723 1.02822 0.974347 1.01483 0.977389 0.913491 0.84316 0.950581 0.946497 0.927493 0.938594 0.92686 0.917983 0.90366 0.90488 0.893809 0.872932 0.875463 0.868791 0.867403 0.854206 0.84412 0.899343 0.89238 0.851338 0.84768 0.904433 0.952045 1.10348 1.20863 1.14468 0.967397 0.786714 1.0454 0.967069 0.956807 0.956942 0.964126 0.964178 0.958687 0.959829 0.940705 0.91383 0.924283 0.904308 0.916107 0.886331 0.880438 0.895872 0.896709 0.898301 0.900985 0.897874 0.895731 0.879452 0.86393 0.865786 0.865532 0.860522 0.870415 0.870793 0.886221 0.928852 0.834372 0.810275 0.834844 0.812862 0.794122 0.804527 0.792649 0.759004 0.728213 0.710231 0.592119 0.768717 0.617328 0.285448 1.06644 0.799499 0.673803 0.776497 0.69395 0.690474 0.730067 0.620735 0.67174 0.72547 0.739254 0.69925 0.800851 0.755874 0.670772 0.663382 0.681167 0.681192 0.674939 0.656129 0.648536 0.658974 0.64094 0.527631 0.584941 0.591705 0.561769 0.512397 0.615348 0.634331 0.475025 0.562255 0.821065 0.683997 0.663298 0.651313 0.659101 0.688852 0.694306 0.627051 0.654154 0.616327 0.663507 0.754193 0.82502 0.69715 0.736217 0.821541 0.861843 0.860482 0.821607 0.778441 0.735767 0.746556 0.71157 0.736814 0.725518 0.755993 0.713725 0.760065 0.800363 0.849162 0.838893 0.960045 0.99994 0.903766 0.852066 0.918407 0.906675 0.919557 0.918574 0.914275 0.905359 0.88785 0.869526 0.86202 0.850088 0.856328 0.909036 0.903071 0.937412 0.925967 0.965148 0.918157 1.07233 1.21452 1.00721 0.857906 0.955686 0.940687 0.941665 0.944199 0.958492 0.963863 0.972177 0.975603 0.950522 0.934246 0.963279 0.962026 0.971931 0.924083 0.944889 0.862352 0.9048 0.891145 0.902206 0.898859 0.894259 0.873801 0.866047 0.861483 0.864878 0.875073 0.870457 0.891652 0.771128 0.842221 0.829441 0.809491 0.807596 0.79143 0.793287 0.813039 0.777878 0.760755 0.847536 0.686023 0.90688 0.567195 0.582293 0.805922 0.703313 0.758091 0.72406 0.776156 0.707328 0.721054 0.73255 0.738751 0.717099 0.757719 0.698402 0.642528 0.678858 0.684825 0.636978 0.624003 0.706401 0.680774 0.708349 0.655391 0.711065 0.624832 0.630649 0.711593 0.620523 0.638869 0.659106 0.599566 0.648283 0.502478 0.488391 0.561443 0.553542 0.532757 0.545487 0.870782 0.717616 0.705736 0.70917 0.768125 0.790128 0.715926 0.832416 0.786629 0.807324 1.02873 1.13403 0.913215 0.859819 0.858705 0.812161 0.755896 0.755502 0.7774 0.718523 0.910123 0.823832 0.788668 0.784692 0.831888 0.838398 0.864619 0.945191 0.979905 0.938357 0.95211 0.895948 0.904622 0.913841 0.912781 0.920214 0.9237 0.91684 0.900906 0.878064 0.862538 0.852419 0.856758 0.891649 0.926633 0.923342 0.959144 0.954745 1.00108 1.04964 1.02687 1.16788 0.940479 1.03729 0.915691 1.02253 1.05955 0.936957 0.922506 0.925103 0.932078 0.955912 0.959408 0.966794 0.927999 0.942865 0.960312 0.85861 0.887941 0.9405 0.965579 0.924769 0.91457 0.887639 0.913078 0.90471 0.896615 0.903582 0.858384 0.880392 0.864978 0.863307 0.873752 0.868628 0.899015 0.926244 0.823248 0.795995 0.788637 0.812541 0.810843 0.812648 0.788982 0.798138 0.752519 0.7978 0.735016 0.71623 0.726334 0.769061 0.717671 0.793946 0.668849 0.699106 0.713397 0.764826 0.750217 0.745212 0.744975 0.72752 0.684942 0.758702 0.766051 0.729967 0.822704 0.625993 0.7625 0.693034 0.729101 0.717104 0.666126 0.678126 0.614159 0.677884 0.638362 0.638133 0.645774 0.636102 0.642947 0.641491 0.589663 0.612259 0.566349 0.660484 0.624637 0.808582 0.860491 0.904247 1.03929 0.949625 0.744209 0.634441 0.872741 0.776953 0.832087 0.775353 0.824038 0.799119 0.730321 0.730094 0.70208 0.815254 0.629896 0.355988 0.423908 0.488829 0.854662 1.16672 0.711698 0.73929 0.783087 0.791815 0.787814 0.816725 0.733604 0.693731 0.543513 0.780451 0.88977 0.857449 0.8634 0.918709 0.964416 0.943198 0.92166 0.890998 0.893464 0.908436 0.92203 0.937498 0.929893 0.9196 0.908121 0.892557 0.901938 0.875107 0.866834 0.855082 0.86686 0.899236 0.973829 0.985473 1.02315 1.03448 0.989147 0.919397 0.948209 0.955039 0.950406 0.950994 0.978583 0.969111 0.972995 0.979487 0.963121 0.970399 0.954932 0.989514 0.952615 0.9689 0.918265 0.942398 0.959847 0.951146 0.936856 0.894689 0.92262 0.925369 0.881974 0.886248 0.879074 0.863219 0.86809 0.866315 0.868105 0.881275 0.933833 1.03573 0.804614 0.906052 0.855602 0.852315 0.850707 0.835528 0.755477 0.771611 0.737809 0.689428 0.694524 0.665818 0.678485 0.70589 0.712098 0.721399 0.735433 0.743387 0.732644 0.705907 0.682328 0.692034 0.721926 0.664771 0.665372 0.614649 0.438926 0.353954 0.618562 0.611178 0.489349 0.554516 0.632994 0.623862 0.618844 0.643105 0.549615 0.671723 0.715529 0.672346 0.785461 0.653045 0.596295 0.613295 0.61619 0.544385 0.357785 0.634738 0.601674 0.607561 0.48489 0.611888 0.696711 0.800514 0.667704 0.666315 0.779042 0.77677 0.595957 0.67983 0.766153 0.687338 0.807024 0.796785 0.708662 0.708703 0.687331 0.644353 0.611407 0.566394 0.571039 0.737793 0.706215 0.74947 0.788333 0.806293 0.783982 0.78592 0.798035 0.797264 0.798104 0.79355 0.81354 0.645724 0.534924 0.461485 0.755453 0.884485 1.01911 0.900263 0.873267 0.867657 0.936488 1.00491 0.93674 0.860362 0.876229 0.897614 0.947196 0.937975 0.927472 0.921226 0.921209 0.895888 0.888442 0.857283 0.870004 0.986665 1.00373 1.02465 1.02492 1.02691 1.00697 0.949228 0.976946 0.881094 0.963831 0.973053 0.972803 0.977862 0.988635 0.986611 0.977623 0.951311 0.979451 0.977811 0.956008 0.951864 0.942611 0.961403 0.919648 0.97305 0.961045 0.926537 0.970474 0.95218 0.951952 0.956771 0.953896 0.85478 0.856562 0.910448 0.862872 0.88796 0.896802 1.01214 0.719739 0.647396 0.865741 0.876884 0.882505 0.857932 0.772674 0.867964 0.750626 0.700638 0.632302 0.722465 0.709878 0.730144 0.722875 0.741429 0.77233 0.742788 0.769771 0.736311 0.6958 0.725195 0.666427 0.714767 0.720477 0.621211 0.725667 0.692576 0.581964 0.83323 0.737026 0.760538 0.550458 0.689367 0.625317 0.585215 0.539742 0.501801 0.563409 0.54552 0.651381 0.828589 0.898914 0.538781 0.953853 0.344738 0.659167 0.2441 0.239507 0.464024 0.575256 0.483083 0.418394 0.492106 0.566443 0.646123 0.622602 0.627189 0.626344 0.643217 0.704818 0.834154 0.783776 0.711553 0.761198 0.755002 0.732822 0.719564 0.744372 0.629241 0.638845 0.631201 0.728915 0.778743 0.759456 0.785085 0.788941 0.790025 0.787653 0.811702 0.704613 0.961757 0.77821 1.05012 1.22743 1.11497 0.890545 0.862948 0.874528 0.851871 0.966683 0.916079 1.04696 0.939233 0.854836 0.850853 0.828468 0.857795 0.870706 0.903752 0.960734 0.951933 0.944654 0.930344 0.938631 0.949403 0.925364 0.905497 0.864676 0.851063 0.849295 0.993494 1.02751 1.03369 1.01383 1.02865 1.00628 0.92978 0.861385 0.934411 0.986571 0.99817 0.992323 0.998124 0.987744 0.988035 1.00168 0.976598 1.01401 1.00779 0.93883 0.951935 0.93532 0.985892 0.977868 0.917605 0.926149 0.965595 0.952354 0.976217 0.998646 0.801571 0.695197 0.862379 0.914082 0.894331 0.947611 0.981401 0.76334 0.714758 0.88982 0.944552 0.887876 0.939242 0.928395 0.731054 0.623941 0.633968 0.669116 0.806453 0.795818 0.844968 0.813492 0.779379 0.769782 0.75401 0.711983 0.669808 0.735545 0.666531 0.734534 0.725791 0.750945 0.734308 0.664963 0.696479 0.66449 0.75495 0.670947 0.662156 0.608656 0.649066 0.528199 0.538047 0.775401 0.812394 0.260456 0.490008 0.494004 0.482121 0.537959 0.397844 1.55346 0.708367 1.0273 0.690718 0.731061 0.544875 0.72848 0.546518 0.486377 0.548752 0.602942 0.682093 0.649089 0.741373 0.735425 1.08558 0.854235 0.690954 0.727128 0.672691 0.714826 0.770318 0.760594 0.785708 0.61558 0.694842 0.781349 0.74436 0.784663 0.769448 0.769829 0.720728 1.1014 0.811215 1.18406 0.891009 0.860732 0.857239 0.836065 0.770406 0.751147 0.79369 0.907923 0.887413 0.864493 0.909482 0.873115 0.91976 0.935096 0.953419 0.963959 0.951335 0.979038 0.964175 0.959028 0.982287 0.942287 0.854252 0.905899 1.08074 1.05515 1.02712 1.01197 1.01165 0.927688 0.812675 0.936557 0.962006 1.02905 1.00127 1.00501 0.986742 0.984136 1.03611 0.991645 1.01224 1.01734 0.914773 0.899525 0.967764 0.934923 0.996202 0.99019 0.899927 0.987309 0.931111 1.02134 0.788289 0.848 0.890635 0.969052 0.933292 0.878182 0.869808 0.80848 0.845826 0.845719 0.911308 0.940691 0.934568 0.985135 0.994941 0.979593 0.760732 0.690753 0.603609 0.776237 0.88747 0.802689 0.770471 0.824228 0.762611 0.719472 0.721003 0.79828 0.686284 0.680521 0.708237 0.683186 0.684003 0.75146 0.635953 0.579085 0.639812 0.675387 0.758013 1.1302 0.816096 0.732566 0.63818 0.689403 0.401248 2.60704 0.786606 0.990237 0.703452 0.264895 0.629138 0.701406 0.418372 0.530322 0.534112 0.697793 0.593755 0.66241 0.699316 0.638058 0.394969 0.810409 0.744196 0.719726 0.606716 0.647276 0.698739 0.80849 0.805015 0.75466 0.717069 0.654632 1.07085 0.478533 0.929853 0.842835 0.793945 0.754179 0.765526 0.750484 0.905335 1.09346 0.919343 0.606091 0.741981 0.951461 1.05181 0.968586 0.869742 0.882123 0.839441 0.810474 0.788981 0.83577 0.894996 0.91144 0.94184 0.927859 0.946459 0.970793 0.979302 0.983793 1.01541 1.00366 0.885057 0.845615 0.99027 1.1208 1.0826 1.09074 1.05643 1.0133 0.989346 0.942608 0.873069 0.936003 0.954995 1.05983 0.952962 1.04855 0.984321 1.03598 1.02797 1.01891 0.996528 1.02358 1.03202 1.0261 1.0431 0.918307 0.907128 0.946602 0.928182 0.858794 0.720291 0.980804 0.991987 0.977532 1.02191 0.999399 1.02467 1.0177 0.901113 0.785575 0.92667 0.898427 1.02166 0.951546 0.907039 0.909421 0.860759 0.909452 0.871045 0.926069 1.05463 0.889608 1.10981 1.17944 0.764598 0.675779 0.630538 0.636927 0.898695 0.768493 0.827128 0.852528 0.757501 0.803289 0.658371 0.88737 0.807648 0.684651 0.725572 0.696827 0.711563 0.725926 0.652487 0.6806 0.592569 0.636602 0.459807 0.485362 0.467763 0.474517 0.436381 0.417577 0.713917 0.759958 0.604259 0.336326 0.115356 0.4209 0.775419 0.314034 0.649369 0.7538 0.447628 0.620259 0.452352 0.676387 0.994291 0.332328 0.750118 0.567752 0.599854 0.587618 0.695116 0.720247 0.726054 0.680392 0.660679 0.618102 0.878771 0.798829 0.69836 0.674478 0.622543 0.60766 0.295912 0.459091 0.651626 0.826097 0.925218 1.09162 0.691643 0.771119 0.750862 0.767251 0.78985 0.886444 0.800405 0.853374 0.894285 0.935533 0.925712 0.915294 0.869651 0.828938 0.849057 0.814224 0.871956 0.902829 0.924539 0.956117 0.955304 0.951917 0.980696 0.974829 0.985112 0.994009 1.01034 1.04505 0.710084 0.8776 0.86243 0.984829 1.04841 0.92032 1.07761 1.06255 1.08998 1.09861 1.0055 0.963709 0.937605 0.932352 0.907647 0.988602 1.02778 1.0326 1.05398 1.02974 1.0364 1.02938 1.03211 1.01627 1.01456 1.03082 1.00592 1.02465 0.899413 0.924776 0.935482 0.928263 0.839734 0.956321 0.982762 1.01685 1.0637 0.963187 0.896166 1.04949 0.944556 0.772764 0.87249 0.937081 0.89715 0.815519 0.85555 0.964852 0.79993 0.862447 0.992981 1.05195 0.973673 0.825015 0.6916 0.75751 0.417835 0.667734 0.500964 0.635885 0.735566 0.861033 0.806491 0.748936 0.704833 0.721583 0.606711 0.460442 0.686431 0.564171 0.710098 0.680192 0.635283 0.549166 0.55192 0.477677 0.546399 0.516403 0.4139 0.412818 0.538214 0.586469 0.615645 0.455403 0.489324 0.860985 0.499981 0.787307 0.580948 0.521456 0.650358 0.342766 0.440153 0.362553 0.76743 0.338739 0.618229 0.71258 0.725562 0.71946 0.688601 0.704308 0.692634 0.623344 0.589922 0.430847 0.516794 0.863984 0.72231 0.650228 0.624205 0.723301 0.872856 0.870882 0.901554 0.888807 0.851239 0.787665 0.75652 0.779357 0.921178 0.893816 0.914191 0.864936 0.916983 0.896303 0.854071 0.876133 0.885723 0.876044 0.889481 0.908326 0.951537 0.985296 0.984011 0.980492 1.00508 1.02859 1.02241 1.06645 1.0316 0.983691 1.05727 1.08532 0.987357 0.78348 1.02469 0.90985 0.949122 1.01951 1.02088 0.98996 1.03781 1.05185 1.04564 1.031 1.0264 1.03986 1.03953 1.01239 1.04357 1.031 0.929594 0.968135 0.907155 0.894306 0.854717 0.96095 0.957335 0.985693 1.01373 1.03749 0.974919 0.82336 0.922551 0.833874 0.946585 0.878967 0.890112 0.889241 0.860267 0.834479 0.824964 0.924403 0.967735 0.938785 0.845826 0.746927 0.769519 0.682265 0.726412 0.841356 0.764418 0.787989 0.710715 0.64352 0.496693 0.536198 0.562971 0.597808 0.685535 0.619037 0.641109 0.635285 0.589239 0.547933 0.578491 0.61276 0.55434 0.493204 0.566514 0.547121 0.509816 0.575879 0.54887 0.612 0.619531 0.632365 0.633999 0.815079 0.79949 0.747467 0.504111 0.464988 0.47149 0.450289 0.615656 0.544595 0.796836 0.684071 0.680056 0.612665 0.625627 0.573689 0.629334 0.540064 0.82338 0.751082 0.747888 0.695511 0.753898 0.806889 0.848358 0.863902 0.860277 0.844824 0.890165 0.947542 0.914672 0.916106 0.896098 0.903468 0.870221 0.915908 0.904653 0.900463 0.894297 0.896324 0.938857 0.899616 0.926622 0.960413 1.00859 0.998201 1.01156 0.994271 0.991537 0.985954 1.05818 0.808856 1.10011 1.3521 0.985802 1.00518 1.02417 1.025 1.05169 1.07168 1.07212 0.994036 1.0538 0.954026 1.04874 1.01087 1.00677 1.04933 1.00643 1.04724 1.03399 1.04707 1.03929 1.02061 1.09266 0.981428 0.915187 0.99076 0.950498 0.97239 1.00377 0.995173 1.02801 0.916061 0.80773 0.879579 0.893851 0.897511 0.911568 0.897026 0.921089 0.941269 0.858826 0.866083 0.836174 0.877339 0.972128 0.895746 0.853416 0.874966 0.889061 0.774468 0.901295 0.767457 0.777861 0.850582 0.655758 0.589028 0.526936 0.566724 0.593001 0.638397 0.647969 0.617958 0.610701 0.611898 0.60867 0.618715 0.576211 0.671067 0.670397 0.717816 0.758163 0.781624 0.802054 0.283201 0.41728 0.401176 0.683195 0.722904 0.889663 0.791647 0.785872 0.728306 0.665365 0.679877 0.650147 0.658998 0.633975 0.660374 0.491597 0.75227 0.739372 0.762016 0.80568 0.806799 0.821719 0.845977 0.841924 0.841212 0.785595 0.827772 0.860211 0.926763 0.915629 0.938876 0.96775 0.881117 0.865627 0.908124 0.922566 0.945328 0.939491 0.927394 0.961188 1.01146 1.02541 0.995968 1.00925 0.992333 0.992903 0.982856 1.07494 0.9451 0.828153 1.0634 1.07077 1.04138 1.03227 1.03654 1.07651 1.07699 1.07691 1.07977 1.08509 1.07466 0.970304 1.06141 1.01634 1.03534 1.0446 1.06226 1.07371 1.03562 1.03111 1.01183 1.04953 1.04791 1.05658 1.04734 1.04475 1.06556 1.00812 0.99753 1.00261 0.954256 0.967904 0.978754 0.99572 1.02207 1.01876 0.88919 0.847312 0.879552 0.910353 0.933544 0.973383 0.947243 0.876449 0.813708 0.856025 0.842398 0.858052 0.896941 0.865137 0.875339 0.907906 0.896625 0.879663 0.835411 0.939103 0.91236 0.785756 0.716439 0.59443 0.703312 0.582947 0.660569 0.609338 0.572399 0.627092 0.672502 0.686385 0.64434 0.647026 0.665555 0.66992 0.636352 0.713286 0.759416 0.731841 0.755425 0.75575 0.744977 0.889456 0.919491 0.393391 0.479896 0.646051 0.615573 0.815073 0.813142 0.727182 0.700968 0.675862 0.678343 0.672501 0.739041 0.593988 0.746148 0.786961 0.797014 0.826597 0.842168 0.821011 0.829882 0.867933 0.844046 0.814757 0.823494 0.876161 0.89686 0.945022 0.956406 0.929701 0.879083 0.932801 0.906449 0.916143 0.91726 0.96287 0.940539 0.975191 1.04119 1.04077 0.974384 1.02056 0.957128 0.90722 0.971734 1.02815 1.05959 1.0758 1.0889 1.08438 1.07348 1.05894 1.08793 1.03753 1.07434 0.96856 1.05994 0.992128 1.08113 1.03144 1.01096 1.03322 1.03332 1.04388 1.05641 1.04823 1.05808 1.05037 1.07527 1.0375 1.00287 1.0214 1.013 0.986598 0.976366 0.993606 1.06312 1.01625 0.877812 0.879573 0.921567 0.914451 0.919122 0.91557 0.999433 0.908961 0.861314 0.818302 0.867753 0.890847 0.910106 0.90405 0.924739 0.915865 0.962232 0.984386 0.828995 0.917442 1.05281 0.773515 0.783344 0.725365 0.607654 0.639422 0.729992 0.707683 0.794775 0.670059 0.681964 0.704474 0.655004 0.814682 0.756623 0.738924 0.752974 0.761565 0.784641 0.827129 0.601446 0.750634 0.735045 0.748398 0.714534 0.762293 0.749212 0.735678 0.697556 0.720767 0.696457 0.718514 0.74394 0.772283 0.809653 0.77051 0.814202 0.831812 0.877577 0.820066 0.854943 0.841676 0.950421 0.843381 0.876691 0.916088 0.921016 0.945522 0.957576 0.939428 0.900832 0.936785 0.915896 0.983858 0.946923 0.987255 1.02644 1.02303 1.02897 0.986806 1.00941 1.03052 0.996897 0.990153 1.02327 1.04926 1.07492 1.03754 1.03227 1.09399 1.09705 1.09249 1.08828 1.07629 1.07581 1.09301 1.09108 1.02946 1.07644 0.960546 1.0209 0.953967 1.03629 1.12285 1.2269 1.01998 1.04672 1.04559 1.07224 1.04034 1.05547 1.07224 1.0748 1.0708 1.05869 1.0501 1.042 1.01327 1.00163 1.03959 1.05383 1.03823 1.03068 1.01467 1.0468 1.01026 1.01838 1.07136 0.89159 0.872584 0.902435 0.938289 0.935069 0.962281 0.915686 0.883102 1.01985 0.938021 0.861499 0.894592 0.918774 0.913185 0.913341 0.93478 0.850519 0.936026 0.98191 1.39759 0.726415 0.685513 0.653184 0.824108 0.834993 0.80123 0.849735 0.726313 0.771744 0.774504 0.678924 0.71805 0.681956 0.659697 0.706747 0.897434 0.788888 0.750405 0.760819 0.804247 0.684795 0.806116 0.705222 0.813253 0.728335 0.757359 0.801228 0.763017 0.737857 0.752077 0.725621 0.770704 0.770389 0.801706 0.851815 0.875269 0.936207 0.881546 0.961857 0.851155 0.859214 0.952421 0.911441 0.937015 0.932064 0.949487 0.943913 0.920937 0.9437 0.946469 1.0179 0.997359 0.970196 0.991046 1.01219 1.05132 1.05892 1.07241 1.1036 1.02049 1.01544 1.00309 1.01708 1.04123 1.00323 1.06314 1.03288 1.11745 1.09178 1.087 1.08765 1.1107 1.0729 1.066 1.02083 1.07518 1.13988 1.14361 1.08748 1.05266 1.01607 1.05494 1.07086 1.0286 1.06101 1.07808 1.07625 1.08195 1.06286 1.06427 1.14991 1.069 1.04483 1.06312 1.04454 1.02547 1.02339 1.01509 1.03629 1.04381 0.961682 1.03914 0.928188 0.939554 0.912946 0.922405 0.936902 1.00267 0.972326 1.00742 0.96382 0.907025 0.881705 0.85129 0.924784 0.910828 0.909373 0.922141 0.933159 0.996408 0.923656 0.89624 0.876042 1.00959 0.701541 0.768432 0.807123 0.92164 0.870819 0.865616 0.766561 0.735078 0.733206 0.834948 0.660731 0.742932 0.717738 0.872155 0.744774 0.766524 0.780789 0.822826 0.712484 0.771028 0.881735 0.828543 0.738975 0.843337 0.79225 0.743107 0.798804 0.742289 0.790707 0.881579 0.919133 0.904408 0.95988 0.868174 0.880834 0.955417 0.995415 0.958488 0.933759 0.933002 0.948126 0.947425 0.943694 0.922342 0.95615 0.941383 0.967484 1.01319 0.996667 0.992798 0.997435 1.00561 1.09462 1.10006 1.08072 1.02391 1.01815 1.0403 1.08624 1.05366 0.960838 1.11673 1.19881 1.10718 1.08966 1.06361 1.07197 1.11669 1.11638 1.07524 1.09513 1.12078 1.05116 1.11895 1.13519 1.04248 1.08722 1.07045 1.06134 1.08425 1.07243 1.06932 1.103 1.07994 1.07802 1.0942 1.04571 1.04541 1.04864 1.03567 1.03708 1.02834 1.04081 0.926254 1.01837 1.00224 0.953973 0.908536 0.906232 0.955437 0.998272 0.981374 0.973542 0.885669 0.905339 0.942087 0.881191 0.921401 0.939061 0.897976 0.887449 0.915334 0.783305 0.828592 0.827951 0.862179 0.905532 0.891349 0.868773 0.936222 0.764817 0.852782 0.821669 0.878839 0.7114 0.592132 0.727452 0.792858 0.805981 0.806756 0.876579 0.821625 0.836497 0.765318 0.889217 0.76609 0.906471 0.791576 0.737522 0.732832 0.8328 0.725197 0.770262 0.924586 0.91798 0.900987 0.939523 0.956877 0.894232 0.868239 1.03873 0.960009 0.959347 0.924187 0.935014 0.943541 0.946579 0.943849 0.972167 1.11528 1.00604 1.00573 1.00442 1.00093 1.00804 0.99433 1.11343 1.11335 1.04422 1.03074 0.991063 1.06122 1.08167 1.06607 0.948818 1.04844 1.21394 1.12899 1.10584 1.09533 1.10969 1.1209 1.06244 1.11661 1.10267 1.02341 1.15896 1.15594 1.07633 1.08494 1.07761 1.06242 1.08309 1.09052 1.08818 1.09212 1.07507 1.08478 1.0985 1.09268 1.09661 1.10286 1.05587 1.03268 1.04803 1.0429 1.03005 1.02429 1.04123 0.932805 1.06699 1.02357 0.994822 0.96146 0.924393 0.996996 0.961203 0.984303 0.903111 0.943717 0.901065 0.917418 0.919787 0.915311 0.93972 0.828783 0.851221 0.838708 0.88643 0.921158 0.910183 0.918863 0.93322 0.935343 0.944976 0.900055 0.93573 0.75828 0.462519 0.778368 0.808398 0.82806 0.811176 0.815635 0.888469 0.882607 0.92783 0.968797 0.912428 0.738879 0.805936 0.878517 0.885577 1.02854 0.912717 0.90623 0.892032 0.935291 0.956277 0.885979 0.851568 0.865159 1.04914 0.980457 0.905818 0.956731 0.941358 0.945756 0.912337 0.93546 0.988762 1.01413 0.999344 1.05192 1.0153 1.02323 1.03629 1.03684 1.11441 1.09755 1.00827 1.07814 1.06884 1.01633 1.08336 1.07912 1.03741 1.06813 1.18696 1.1164 1.08639 1.09641 1.12199 1.12827 1.06026 1.12345 1.13451 1.05692 1.16334 1.1551 1.10453 1.09389 1.09205 1.0733 1.09717 1.08875 1.08968 1.08226 1.0884 1.1182 1.087 1.09013 1.08619 1.05682 1.07029 1.04297 1.04651 1.02815 1.04936 1.08109 1.04195 1.05934 1.00777 0.965856 0.934572 0.977392 0.980387 0.985757 0.97777 0.966757 0.927769 0.922485 0.93298 0.937455 0.931236 0.943189 0.916665 1.04584 1.05493 0.966362 0.76008 0.875796 0.896244 0.90111 0.921502 0.93138 0.936771 0.943392 0.921555 0.930597 0.887003 0.945983 0.807894 1.04246 0.817144 0.779079 0.810076 0.797273 0.800437 0.915928 0.858718 0.90304 0.934709 0.953422 0.928989 0.767229 0.903939 0.940698 0.933982 1.0003 0.933529 0.917264 0.956006 0.871259 0.904724 0.965982 1.03194 0.92142 0.974721 0.969946 0.981638 0.945532 0.90104 0.953709 1.01121 1.01799 1.0392 1.06894 1.08002 1.09183 0.997983 1.02415 1.11039 1.09705 1.10397 1.08786 1.06376 1.0968 1.07682 1.05523 1.15389 1.13794 1.15243 1.08748 1.20642 1.0956 1.11784 1.12691 1.11507 1.13644 1.15457 1.12344 1.16309 1.16197 1.1115 1.10311 1.09567 1.10976 1.07769 1.09948 1.10049 1.12554 1.13451 1.10659 1.13495 1.08732 1.04361 1.19211 1.0939 1.04712 1.05855 1.04706 1.03579 1.05825 0.980535 0.978057 1.02131 0.98256 0.958791 0.993925 0.992576 1.01832 0.945699 0.934979 0.937261 0.94055 0.954644 1.01518 1.00728 0.787518 0.907508 0.914576 0.931415 0.901063 0.918774 0.953844 0.875577 1.00528 0.866957 0.793936 0.793801 0.789472 0.951514 0.868391 0.890469 0.895575 0.927828 0.951507 0.951728 0.963685 0.794674 0.964417 1.00748 1.03479 1.01141 0.990781 1.00986 0.944052 0.820757 0.915486 0.903834 0.928235 0.946258 0.996239 0.973074 0.986563 0.973852 1.00028 1.07733 1.00273 1.0581 1.0373 1.09951 1.08243 1.07662 1.095 1.00814 1.03562 1.11094 1.11091 1.15597 1.09848 1.08498 1.07213 1.10643 1.08405 1.0741 1.14047 1.10991 1.18653 1.10981 1.12952 1.12547 1.12074 1.1305 1.15379 1.15592 1.16855 1.1938 1.11093 1.09551 1.11567 1.06888 1.08163 1.12166 1.11404 1.1413 1.14074 1.08818 1.03105 1.17452 1.11664 1.06453 1.0705 1.04175 1.04685 1.05226 1.06066 1.02093 1.03811 0.995608 1.01989 1.02099 0.994659 1.02972 1.02823 1.03651 0.935028 0.952747 0.962149 0.95638 0.949282 0.988129 0.98559 0.959506 1.01735 1.05136 0.876093 0.850214 0.856677 0.910555 0.909727 0.91425 1.19954 1.19701 1.17721 0.955829 0.970557 0.964202 0.914675 0.964551 0.886823 0.817497 0.82708 0.782479 0.937498 1.03263 0.880982 0.944794 0.934135 0.95694 0.997812 0.98179 0.923909 1.05766 1.06277 1.06443 1.06394 1.0762 1.0132 0.974128 0.94326 0.902207 0.899425 0.922881 0.946271 0.921364 1.04353 1.04107 0.970724 1.00506 1.00157 1.01952 1.02063 1.11088 1.05303 1.05415 1.11326 1.06053 1.10546 1.07859 1.10031 1.0191 1.08436 1.13957 1.16153 1.09909 1.09501 1.09712 1.09866 1.11517 1.09695 1.13449 1.20126 1.11585 1.09867 1.12708 1.13716 1.11087 1.13401 1.14511 1.15498 1.17344 1.15586 1.16787 1.11343 1.13089 1.11398 1.1366 1.15111 1.12634 1.15649 1.1173 1.13333 1.08875 1.04384 1.1768 1.12594 1.09972 1.03626 1.06575 1.06089 1.03853 1.02195 1.03798 0.992338 1.02839 1.06844 1.00732 0.959666 0.951251 0.984365 0.991238 1.03971 0.936773 0.93042 0.926583 0.917618 0.892928 0.909873 1.18118 1.00693 0.949774 0.953657 0.946552 0.919738 0.843978 0.871709 0.754295 0.738204 0.923938 1.0392 1.03588 0.925186 0.990787 0.991216 1.02164 0.974111 0.931231 1.10667 0.957619 1.12171 1.09955 1.02454 0.933888 0.914969 0.956255 0.952857 0.994891 1.00319 1.02742 1.00789 0.989199 1.00428 1.01529 1.01906 1.10995 1.04508 1.11299 1.06949 1.10966 1.07862 1.07891 1.03988 1.13062 1.07474 1.17317 1.10038 1.09915 1.1205 1.09727 1.0984 1.10067 1.12507 1.11918 1.1973 1.12241 1.13125 1.14129 1.11538 1.17138 1.14298 1.15028 1.19178 1.16783 1.17751 1.12508 1.13429 1.1219 1.13269 1.15147 1.15197 1.13419 1.12497 1.13119 1.09908 1.09472 1.09505 1.05917 1.16466 1.13122 1.1369 1.07113 1.06454 1.06918 1.06325 1.04393 1.03799 1.02037 0.989908 1.04026 1.04437 1.03851 1.01516 1.03227 1.04847 0.958326 0.978093 1.02149 1.04284 0.932517 0.948566 0.931867 0.935566 0.958473 0.89652 0.924921 0.93371 1.26933 1.11549 0.981259 0.964671 0.94933 0.973367 0.949742 0.951683 0.921584 0.902338 1.02082 0.855699 0.9439 1.0143 0.998467 1.03102 0.986001 1.01416 0.983879 0.983599 1.01045 0.998727 0.960132 1.10762 1.11603 1.05782 0.987379 0.931536 0.923259 0.95289 0.95254 1.02205 1.01064 1.00825 1.0085 1.00326 1.01653 1.0324 1.04453 1.10386 1.08463 1.06216 1.09902 1.08732 1.10748 1.12931 1.06434 1.10511 1.13439 1.17995 1.09884 1.09642 1.12224 1.10376 1.10928 1.10115 1.18988 1.15302 1.19607 1.19143 1.1734 1.16174 1.14154 1.20815 1.1447 1.16998 1.1659 1.2142 1.16914 1.1794 1.12965 1.13765 1.12696 1.13497 1.1534 1.16441 1.15107 1.11977 1.12021 1.09938 1.11512 1.09228 1.16664 1.1417 1.10565 1.12 1.07257 1.06342 1.04771 1.03641 1.13218 1.02924 1.0485 0.997226 1.03647 1.09311 0.986816 1.07325 0.982526 0.98847 1.01429 1.00103 1.01115 0.964396 0.921404 0.930844 0.922856 0.926463 1.09157 0.938504 0.976131 0.982956 0.928163 0.917474 0.91421 0.873138 0.961161 0.962608 0.972019 0.987937 0.984296 1.01714 1.01485 1.0037 1.00227 1.02012 0.996542 0.983242 1.10473 1.11323 1.07081 1.0081 0.932109 0.979625 0.940735 0.972324 1.0162 1.02002 1.01292 1.01242 1.03391 1.03359 1.04113 1.12461 1.09748 1.09856 1.10923 1.18699 1.06233 1.10639 1.13836 1.18298 1.10266 1.18219 1.14764 1.13321 1.1145 1.09439 1.19406 1.1685 1.18454 1.19178 1.1928 1.17519 1.15531 1.1896 1.17629 1.16289 1.18693 1.18622 1.13292 1.18103 1.14403 1.1408 1.15628 1.16169 1.15967 1.12452 1.15781 1.09003 1.1095 1.11864 1.16895 1.15205 1.10243 1.1176 1.13266 1.08546 1.06704 1.04087 1.12198 1.11769 1.03666 0.987797 1.05396 1.05365 0.994865 1.08024 0.981641 0.990475 0.988871 1.00804 1.01377 0.956386 0.967055 0.931286 1.08134 1.10973 0.968561 0.97893 0.928744 0.911531 0.921758 0.96915 0.963615 0.994769 0.986901 1.01715 1.03552 1.05768 1.00599 1.03016 1.00897 1.01261 1.13607 1.07663 1.01365 1.0223 0.962957 1.028 1.1264 1.00601 1.02695 1.01289 1.02912 1.01869 1.05222 1.02384 1.03442 1.04068 1.0561 1.09483 1.09678 1.13369 1.09244 1.10412 1.111 1.06358 1.07441 1.14094 1.11517 1.1792 1.09764 1.18023 1.14931 1.13524 1.12008 1.15267 1.18629 1.16704 1.17141 1.19468 1.19848 1.17538 1.15985 1.19157 1.17126 1.17975 1.19078 1.17748 1.18231 1.13413 1.19105 1.1481 1.13339 1.16407 1.15628 1.14704 1.15976 1.11184 1.11675 1.12362 1.17772 1.16116 1.15291 1.13136 1.06073 1.1171 1.06176 1.08715 1.06332 1.04836 1.05724 1.12364 1.10402 1.11364 1.07467 1.03017 0.997072 1.06614 1.04342 1.01027 0.974912 0.983371 1.00261 1.01652 0.959704 1.02812 0.959396 0.945698 1.10221 0.919439 1.08003 1.10914 0.968128 0.972652 0.949633 1.09754 0.964949 0.985442 0.964043 1.00633 1.01835 1.02867 1.00601 1.04052 1.10153 1.0181 0.934482 0.95379 0.955259 
SCALARS Stress float 1
LOOKUP_TABLE default
-134712000000.0 -209330000000.0 -118303000000.0 -163494000000.0 -189229000000.0 -267911000000.0 -138449000000.0 -642299000000.0 -396813000000.0 -205307000000.0 -290809000000.0 -65906100000.0 -256228000000.0 -228582000000.0 -345766000000.0 -302827000000.0 -277199000000.0 -593750000000.0 -745526000000.0 -342971000000.0 -885772000000.0 -1.07515e+12 -579713000000.0 -539413000000.0 -724402000000.0 -405553000000.0 -1.02023e+12 -268124000000.0 -1.13042e+12 -514272000000.0 -261903000000.0 -87875600000.0 -635848000000.0 -430825000000.0 -235513000000.0 -591078000000.0 -798534000000.0 -1.24006e+12 -664223000000.0 -883366000000.0 -1.03109e+12 -1.022e+12 -1.1961e+12 -814305000000.0 -1.50349e+12 -989843000000.0 -1.37005e+12 -1.48976e+12 -1.69623e+12 -1.00332e+12 -1.4063e+12 -1.01774e+12 -452061000000.0 -1.27386e+12 -1.04271e+12 -1.18941e+12 -1.29664e+12 -1.18774e+12 -831207000000.0 -1.36807e+12 -901679000000.0 -221963000000.0 -1.53548e+12 -616752000000.0 -1.51634e+12 -848726000000.0 -1.22381e+12 -2.03152e+12 -1.4991e+12 -1.27752e+12 -3.02284e+12 -2.50338e+12 -2.08832e+12 -703411000000.0 -1.70028e+12 -923979000000.0 -1.01424e+12 -969892000000.0 -1.21531e+12 -2.20143e+12 -2.10331e+12 -1.62745e+12 -1.81457e+12 -1.88592e+12 -2.45403e+12 -535960000000.0 -1.44013e+12 -1.53156e+12 -985288000000.0 -1.95085e+12 -1.82093e+12 -1.74294e+12 -1.33679e+12 -1.94915e+12 -1.81363e+12 -3.7394e+12 -1.97473e+12 -3.0963e+12 -2.28818e+12 -4.03917e+12 -1.95811e+12 -2.96589e+12 -1.94117e+12 -1.03753e+12 -1.96699e+12 -1.87532e+12 -1.49953e+12 -2.0175e+12 -5.6017e+12 -2.53992e+12 -2.8055e+12 -1.89866e+12 -2.14244e+12 -2.4759e+12 -1.41317e+12 -1.06722e+12 -565531000000.0 -1.87633e+12 -915981000000.0 -3.87088e+12 -4.00726e+12 -1.96924e+12 -2.90502e+12 -2.74283e+12 -1.33847e+12 -3.12719e+12 -1.61613e+12 -2.08182e+12 -3.57653e+12 -1.47386e+12 -1.72038e+12 -3.55872e+12 -2.93999e+12 -2.64658e+12 -3.66515e+12 -1.52032e+12 -2.78202e+12 -2.71882e+12 -1.25083e+12 -856571000000.0 -1.23137e+12 -2.06464e+12 -1.6476e+12 -2.92629e+12 -2.05239e+12 -1.74385e+12 -1.65966e+12 -1.70085e+12 -3.50169e+12 -3.46364e+12 -2.96747e+12 -5.52078e+12 -1.87546e+12 -2.52443e+12 -4.00994e+12 -3.66469e+12 -5.08626e+12 -2.64849e+12 -3.85113e+12 -2.35639e+12 -3.76603e+12 -3.56978e+12 -5.0622e+12 -4.35156e+12 -1.11132e+12 -4.08913e+12 -1.22072e+12 -1.92051e+12 -4.175e+12 -2.50697e+12 -2.99634e+12 -3.70059e+12 -4.04349e+12 -2.40692e+12 -1.01063e+12 -883697000000.0 -1.67979e+12 -2.50478e+12 -5.55268e+12 -3.7648e+12 -3.31116e+12 -4.53833e+12 -3.24063e+12 -3.06639e+12 -4.61957e+12 -2.84192e+12 -4.95509e+12 -3.5357e+12 -2.27048e+12 -5.78765e+12 -3.75723e+12 -2.46116e+12 -4.45759e+12 -1.33756e+12 -2.62283e+12 -3.72002e+12 -4.1303e+12 -3.43317e+12 -5.93215e+12 -3.03791e+12 -2.07526e+12 -3.14846e+12 -2.77741e+12 -6.3793e+12 -2.4922e+12 -6.02465e+12 -5.7392e+12 -5.1657e+12 -3.7257e+12 -6.46452e+12 -5.65319e+12 -4.67079e+12 -3.12729e+12 -3.10005e+12 -4.89929e+12 -6.8439e+12 -5.23807e+12 -6.32971e+12 -4.28699e+12 -3.81254e+12 -2.75574e+12 -5.3719e+12 -4.13547e+12 -2.93533e+12 -2.05004e+12 -5.60056e+12 -4.15033e+12 -2.1187e+12 -3.75565e+12 -3.70605e+12 -2.2309e+12 -3.26575e+12 -3.72382e+12 -3.26938e+12 -6.02211e+12 -1.69905e+12 -6.04512e+12 -5.44765e+12 -7.17524e+12 -6.12034e+12 -4.18307e+12 -4.97959e+12 -3.22879e+12 -3.92108e+12 -3.67281e+12 -6.39083e+12 -4.39974e+12 -3.23775e+12 -3.85515e+12 -4.19332e+12 -4.60944e+12 -3.96791e+12 -5.93811e+12 -6.15434e+12 -5.90137e+12 -4.83471e+12 -7.18615e+12 -7.14874e+12 -5.42291e+12 -6.76615e+12 -4.52495e+12 -7.44702e+12 -5.68576e+12 -3.49879e+12 -4.49801e+12 -3.97762e+12 -4.60925e+12 -2.60552e+12 -6.05684e+12 -5.10151e+12 -5.37269e+12 -3.66894e+12 -6.04934e+12 -5.35578e+12 -5.72999e+12 -3.08923e+12 -2.33104e+12 -2.96288e+12 -4.39732e+12 -3.05695e+12 -5.117e+12 -6.76202e+12 -3.37558e+12 -4.10096e+12 -4.1211e+12 -5.83547e+12 -4.77419e+12 -6.16456e+12 -4.76833e+12 -2.71743e+12 -7.71511e+12 -3.61469e+12 -4.11801e+12 -7.59554e+12 -5.37068e+12 -5.16287e+12 -7.03742e+12 -2.94675e+12 -3.93306e+12 -4.40186e+12 -7.95126e+12 -8.05995e+12 -3.59206e+12 -7.60046e+12 -6.26393e+12 -8.43595e+12 -9.30975e+12 -4.52527e+12 -5.74249e+12 -5.79157e+12 -4.69402e+12 -6.19686e+12 -5.22192e+12 -6.14142e+12 -3.87286e+12 -4.55719e+12 -3.6927e+12 -3.07249e+12 -4.74193e+12 -6.12969e+12 -6.35296e+12 -4.41133e+12 -5.43528e+12 -2.87303e+12 -5.04432e+12 -5.34307e+12 -5.07384e+12 -4.26747e+12 -4.55536e+12 -5.47889e+12 -2.72657e+12 -5.38242e+12 -6.7065e+12 -9.40283e+12 -9.53066e+12 -1.30201e+13 -8.00462e+12 -7.66714e+12 -7.3154e+12 -4.93756e+12 -3.71286e+12 -3.906e+12 -4.40006e+12 -6.17246e+12 -5.97722e+12 -5.00018e+12 -5.2846e+12 -3.07541e+12 -6.18216e+12 -3.39823e+12 -8.81917e+12 -7.46684e+12 -6.70672e+12 -5.21978e+12 -5.81076e+12 -8.09824e+12 -5.70679e+12 -4.07787e+12 -6.68489e+12 -6.52683e+12 -7.05336e+12 -3.16219e+12 -5.59826e+12 -4.11638e+12 -4.0857e+12 -3.53812e+12 -6.56051e+12 -3.55517e+12 -6.30155e+12 -3.7923e+12 -3.53799e+12 -5.6822e+12 -4.10905e+12 -2.44571e+12 -4.909e+12 -2.70987e+12 -3.96648e+12 -4.61555e+12 -2.62203e+12 -6.53039e+12 -9.94699e+12 -3.74063e+12 -6.57807e+12 -5.88017e+12 -7.96714e+12 -7.38351e+12 -6.93791e+12 -2.75841e+12 -9.08782e+12 -7.03957e+12 -5.95825e+12 -7.80737e+12 -2.46205e+12 -3.46438e+12 -6.95597e+12 -4.53191e+12 -4.15828e+12 -8.87813e+12 -1.08835e+13 -8.54319e+12 -3.97968e+12 -8.39416e+12 -4.86139e+12 -6.38692e+12 -4.53641e+12 -6.66956e+12 -8.32582e+12 -5.2047e+12 -6.35929e+12 -5.38924e+12 -5.72741e+12 -4.8369e+12 -6.15927e+12 -5.34484e+12 -5.10495e+12 -5.34458e+12 -5.19528e+12 -5.21265e+12 -3.78548e+12 -4.87864e+12 -5.17614e+12 -2.59542e+12 -4.74154e+12 -3.16374e+12 -3.87e+12 -4.57399e+12 -4.0105e+12 -5.20857e+12 -3.38497e+12 -3.53102e+12 -3.10486e+12 -2.96544e+12 -3.37288e+12 -3.7499e+12 -4.66878e+12 -4.72666e+12 -6.73528e+12 -5.44139e+12 -5.67822e+12 -4.30065e+12 -5.43791e+12 -6.42889e+12 -5.40164e+12 -7.51936e+12 -3.71038e+12 -5.75894e+12 -6.03931e+12 -4.33023e+12 -6.04593e+12 -8.08308e+12 -6.03913e+12 -7.95848e+12 -6.47593e+12 -4.72596e+12 -6.03533e+12 -5.11015e+12 -3.22169e+12 -8.38967e+12 -9.35805e+12 -4.42652e+12 -4.24337e+12 -4.75118e+12 -4.69703e+12 -4.24617e+12 -1.02401e+13 -7.3688e+12 -4.36314e+12 -1.00862e+13 -8.46447e+12 -7.72968e+12 -5.63103e+12 -1.06893e+13 -7.99111e+12 -9.0659e+12 -8.62071e+12 -3.86765e+12 -8.12809e+12 -5.54802e+12 -3.0271e+12 -3.83791e+12 -6.53177e+12 -6.44148e+12 -3.5586e+12 -2.94266e+12 -3.54885e+12 -3.98604e+12 -4.44095e+12 -5.59365e+12 -5.13778e+12 -2.81147e+12 -4.61166e+12 -3.74407e+12 -2.61261e+12 -4.30268e+12 -3.17182e+12 -4.06535e+12 -3.47085e+12 -2.83919e+12 -6.3445e+12 -6.51595e+12 -6.56889e+12 -4.01228e+12 -3.32878e+12 -4.40109e+12 -6.43967e+12 -4.65967e+12 -5.92118e+12 -6.99208e+12 -5.38847e+12 -4.47352e+12 -8.51722e+12 -3.10216e+12 -4.12498e+12 -6.72859e+12 -7.10968e+12 -7.36556e+12 -8.76539e+12 -1.01621e+13 -8.70145e+12 -7.99814e+12 -5.73096e+12 -5.51811e+12 -7.76178e+12 -7.0375e+12 -1.2312e+13 -3.82475e+12 -5.90578e+12 -6.30693e+12 -5.26743e+12 -3.95631e+12 -5.81035e+12 -5.28219e+12 -5.61913e+12 -6.49411e+12 -6.22214e+12 -3.61707e+12 -7.30318e+12 -3.81977e+12 -8.5116e+12 -4.10168e+12 -5.67601e+12 -5.12456e+12 -6.20741e+12 -7.28338e+12 -9.81686e+12 -3.30758e+12 -6.77736e+12 -7.40141e+12 -9.074e+12 -6.70441e+12 -5.47844e+12 -4.32988e+12 -7.76528e+12 -6.49528e+12 -5.49009e+12 -4.02952e+12 -3.01027e+12 -6.42623e+12 -7.05432e+12 -5.32407e+12 -4.68218e+12 -4.96476e+12 -3.54594e+12 -4.44328e+12 -4.92443e+12 -6.76267e+12 -6.91584e+12 -5.02037e+12 -4.89315e+12 -4.03771e+12 -4.81442e+12 -4.96004e+12 -5.77722e+12 -3.35074e+12 -5.90853e+12 -4.68677e+12 -5.27237e+12 -5.35483e+12 -6.45146e+12 -2.33055e+12 -6.19025e+12 -4.06056e+12 -4.12996e+12 -5.83892e+12 -4.49213e+12 -6.74855e+12 -8.55919e+12 -5.10959e+12 -5.14096e+12 -1.09516e+13 -1.08471e+13 -8.389e+12 -9.56811e+12 -3.65001e+12 -7.41444e+12 -5.57431e+12 -5.641e+12 -7.06108e+12 -6.81264e+12 -5.76571e+12 -7.46017e+12 -4.42008e+12 -4.09775e+12 -4.03065e+12 -7.08693e+12 -1.02089e+13 -1.03182e+13 -4.65577e+12 -7.2471e+12 -5.92172e+12 -5.83231e+12 -5.77853e+12 -5.48347e+12 -5.11236e+12 -4.36308e+12 -7.65253e+12 -6.21797e+12 -1.01398e+13 -7.6654e+12 -6.75224e+12 -5.51378e+12 -5.98735e+12 -3.62213e+12 -3.24822e+12 -6.20699e+12 -7.60318e+12 -1.02704e+13 -6.98552e+12 -4.79771e+12 -4.49257e+12 -4.5459e+12 -3.30037e+12 -1.08092e+13 -5.52611e+12 -5.35267e+12 -5.90484e+12 -4.80571e+12 -4.91844e+12 -4.69341e+12 -4.54799e+12 -3.72551e+12 -6.60579e+12 -4.12222e+12 -8.88699e+12 -4.82485e+12 -4.5921e+12 -3.00787e+12 -2.48698e+12 -1.96114e+12 -6.8704e+12 -9.626e+12 -8.23988e+12 -4.10717e+12 -3.1838e+12 -5.02288e+12 -5.13201e+12 -5.51529e+12 -4.60841e+12 -1.0435e+13 -8.11618e+12 -4.91387e+12 -5.96332e+12 -1.2963e+13 -1.05873e+13 -7.15535e+12 -7.38552e+12 -1.54838e+13 -1.07363e+13 -9.92701e+12 -4.94545e+12 -5.36504e+12 -6.43259e+12 -8.49748e+12 -7.41858e+12 -4.18071e+12 -5.5512e+12 -4.72126e+12 -5.02722e+12 -8.206e+12 -3.868e+12 -3.7891e+12 -3.35332e+12 -3.82745e+12 -3.26022e+12 -3.46138e+12 -8.4265e+12 -6.34205e+12 -7.54145e+12 -5.83768e+12 -6.01142e+12 -7.01635e+12 -3.31371e+12 -7.54172e+12 -8.02531e+12 -4.91356e+12 -5.88779e+12 -7.67702e+12 -1.02155e+13 -1.05101e+13 -1.15455e+13 -8.17984e+12 -4.52278e+12 -5.30799e+12 -5.01902e+12 -3.44317e+12 -6.0408e+12 -3.84515e+12 -4.32633e+12 -7.63927e+12 -7.59377e+12 -7.22298e+12 -5.67645e+12 -5.11524e+12 -5.88388e+12 -4.11073e+12 -5.55945e+12 -6.36493e+12 -3.86466e+12 -3.71055e+12 -4.26524e+12 -4.3843e+12 -4.05689e+12 -6.3616e+12 -4.27977e+12 -3.31482e+12 -4.17358e+12 -6.54899e+12 -4.56716e+12 -5.04868e+12 -5.14996e+12 -6.99824e+12 -6.25514e+12 -4.42852e+12 -6.47097e+12 -4.14095e+12 -5.82455e+12 -5.6723e+12 -6.34167e+12 -8.70478e+12 -5.88146e+12 -2.79656e+12 -5.56608e+12 -7.81435e+12 -2.33846e+12 -1.15835e+13 -9.62683e+12 -5.03943e+12 -1.04392e+13 -9.09412e+12 -5.78956e+12 -6.50838e+12 -6.14235e+12 -5.72135e+12 -5.74813e+12 -5.26305e+12 -9.07812e+12 -7.18287e+12 -4.08021e+12 -1.11448e+13 -9.66533e+12 -1.00039e+13 -6.67372e+12 -5.41476e+12 -5.96505e+12 -6.51874e+12 -6.96821e+12 -9.90264e+12 -3.29121e+12 -4.87946e+12 -6.21245e+12 -6.10429e+12 -6.99711e+12 -4.26056e+12 -4.78333e+12 -2.82714e+12 -4.79314e+12 -6.44383e+12 -5.01992e+12 -7.534e+12 -8.74286e+12 -8.03726e+12 -7.55249e+12 -1.03614e+13 -5.66349e+12 -5.22529e+12 -7.88918e+12 -6.49525e+12 -3.93555e+12 -8.11219e+12 -1.01478e+13 -7.95466e+12 -7.86368e+12 -4.69702e+12 -9.89675e+12 -6.39688e+12 -3.75429e+12 -4.93224e+12 -3.68451e+12 -6.20562e+12 -8.64958e+12 -6.20202e+12 -4.11688e+12 -6.03406e+12 -4.3192e+12 -2.10354e+12 -5.77258e+12 -5.0713e+12 -5.144e+12 -4.37705e+12 -2.11656e+12 -5.58793e+12 -5.63644e+12 -4.02444e+12 -6.09789e+12 -4.84748e+12 -5.15354e+12 -4.92209e+12 -5.16322e+12 -3.46247e+12 -4.94799e+12 -4.0399e+12 -3.39492e+12 -5.20741e+12 -6.03781e+12 -6.31977e+12 -3.08053e+12 -4.49214e+12 -1.86579e+12 -4.01842e+12 -8.7023e+12 -3.31024e+12 -6.11644e+12 -5.20666e+12 -5.38604e+12 -6.85772e+12 -6.58793e+12 -6.82415e+12 -5.09839e+12 -6.50155e+12 -8.64583e+12 -6.67889e+12 -6.8431e+12 -4.49634e+12 -6.69285e+12 -7.79303e+12 -4.9274e+12 -4.50328e+12 -8.7873e+12 -8.55056e+12 -4.75124e+12 -8.98386e+12 -8.38493e+12 -1.07315e+13 -3.39533e+12 -1.06482e+13 -6.47374e+12 -5.86091e+12 -1.014e+13 -9.56373e+12 -6.59001e+12 -6.20292e+12 -8.60926e+12 -3.43566e+12 -6.70204e+12 -5.40217e+12 -5.39173e+12 -5.89432e+12 -8.99989e+12 -6.09766e+12 -6.18257e+12 -7.53616e+12 -6.53098e+12 -5.4658e+12 -1.21781e+13 -8.95505e+12 -7.72581e+12 -6.89035e+12 -7.10752e+12 -4.78381e+12 -7.76995e+12 -6.42401e+12 -4.09855e+12 -6.55846e+12 -4.27686e+12 -7.41282e+12 -6.75127e+12 -6.23119e+12 -7.14037e+12 -5.02896e+12 -8.97945e+12 -5.34494e+12 -4.95667e+12 -5.84918e+12 -4.05562e+12 -6.67731e+12 -5.32897e+12 -8.69184e+12 -6.04232e+12 -7.72623e+12 -5.68905e+12 -5.8466e+12 -3.97881e+12 -4.52736e+12 -4.67013e+12 -5.12009e+12 -3.53473e+12 -4.5774e+12 -4.66297e+12 -1.58791e+12 -5.29756e+12 -2.16867e+12 -3.50897e+12 -4.77383e+12 -3.5464e+12 -5.4134e+12 -2.08695e+12 -2.14293e+12 -6.50364e+12 -3.50235e+12 -4.25967e+12 -5.34675e+12 -2.86747e+12 -3.59019e+12 -6.65274e+12 -2.93318e+12 -4.33675e+12 -3.3036e+12 -3.38615e+12 -7.7692e+12 -5.42796e+12 -8.08696e+12 -4.84408e+12 -6.15956e+12 -3.88781e+12 -4.86599e+12 -7.55846e+12 -7.36923e+12 -9.71984e+12 -5.18026e+12 -5.25295e+12 -5.35405e+12 -7.83466e+12 -4.6862e+12 -3.65408e+12 -6.18208e+12 -6.84119e+12 -4.4385e+12 -6.3441e+12 -5.35859e+12 -5.64003e+12 -4.59746e+12 -2.60155e+12 -5.71695e+12 -5.03131e+12 -7.16477e+12 -9.55882e+12 -7.95375e+12 -7.91126e+12 -7.91934e+12 -1.0362e+13 -1.32522e+13 -4.02392e+12 -3.24923e+12 -6.5828e+12 -5.91365e+12 -7.19234e+12 -9.5107e+12 -3.7756e+12 -1.0352e+13 -9.69914e+12 -9.34075e+12 -1.11961e+13 -1.23005e+13 -8.54309e+12 -8.46696e+12 -1.03134e+13 -4.88452e+12 -7.22186e+12 -4.53301e+12 -5.37859e+12 -8.32176e+12 -8.71279e+12 -7.43957e+12 -7.29873e+12 -6.45029e+12 -6.5626e+12 -5.25487e+12 -4.59998e+12 -8.79383e+12 -5.37109e+12 -6.21809e+12 -6.18622e+12 -6.79784e+12 -5.64509e+12 -7.64351e+12 -6.05334e+12 -5.89718e+12 -4.46778e+12 -4.49212e+12 -3.22728e+12 -3.80437e+12 -6.15238e+12 -3.36762e+12 -2.6041e+12 -7.0303e+12 -8.09385e+12 -4.10219e+12 -3.4011e+12 -4.48077e+12 -6.18541e+12 -6.94466e+12 -2.71173e+12 -4.07041e+12 -4.18964e+12 -5.50978e+12 -7.15827e+12 -6.68127e+12 -3.46153e+12 -6.20774e+12 -3.42257e+12 -5.23854e+12 -4.05035e+12 -5.96414e+12 -4.50432e+12 -5.35573e+12 -4.48561e+12 -7.44978e+12 -9.83886e+12 -6.19215e+12 -7.67239e+12 -5.76962e+12 -7.18872e+12 -5.06252e+12 -7.13103e+12 -5.01096e+12 -6.2955e+12 -7.14287e+12 -6.71408e+12 -6.03115e+12 -8.56919e+12 -5.23303e+12 -5.77077e+12 -6.52036e+12 -6.81522e+12 -8.11168e+12 -5.41136e+12 -7.5433e+12 -5.76547e+12 -1.38134e+13 -8.65517e+12 -7.44558e+12 -8.84203e+12 -7.7449e+12 -8.43962e+12 -6.84994e+12 -1.18278e+13 -3.9219e+12 -6.05142e+12 -2.39638e+12 -2.65179e+12 -5.49247e+12 -4.0737e+12 -4.96892e+12 -7.35907e+12 -1.10652e+13 -1.25641e+13 -7.29331e+12 -8.28419e+12 -9.81999e+12 -6.60777e+12 -8.00011e+12 -6.11615e+12 -5.37503e+12 -3.64801e+12 -5.62728e+12 -8.46255e+12 -5.73927e+12 -8.09678e+12 -7.60402e+12 -4.98473e+12 -8.91947e+12 -5.34111e+12 -6.26136e+12 -6.28769e+12 -6.75558e+12 -6.57992e+12 -6.59871e+12 -7.18036e+12 -5.62634e+12 -4.30334e+12 -8.36036e+12 -5.04751e+12 -6.76016e+12 -1.07417e+13 -4.57961e+12 -3.75531e+12 -7.03768e+12 -5.82452e+12 -3.58643e+12 -2.14163e+12 -3.15534e+12 -4.54695e+12 -5.63513e+12 -6.22249e+12 -6.28463e+12 -4.22963e+12 -4.08881e+12 -3.63926e+12 -5.85339e+12 -3.57765e+12 -4.34635e+12 -4.83001e+12 -3.64327e+12 -5.5592e+12 -7.18994e+12 -4.06905e+12 -3.29319e+12 -4.58412e+12 -4.08543e+12 -7.99007e+12 -3.52698e+12 -3.13017e+12 -5.16342e+12 -5.07102e+12 -5.51238e+12 -2.32307e+12 -4.12803e+12 -3.82849e+12 -7.27e+12 -4.06506e+12 -4.37624e+12 -5.53053e+12 -8.7926e+12 -3.84381e+12 -8.89818e+12 -7.44478e+12 -5.38758e+12 -5.72877e+12 -8.81622e+12 -8.94052e+12 -4.58797e+12 -6.85881e+12 -6.3939e+12 -7.99837e+12 -1.20249e+13 -7.6212e+12 -4.68086e+12 -1.10362e+13 -8.62306e+12 -6.69162e+12 -1.01493e+13 -7.06831e+12 -1.03995e+13 -9.31894e+12 -7.84972e+12 -8.32067e+12 -3.99295e+12 -5.04835e+12 -6.65813e+12 -3.64896e+12 -5.24739e+12 -8.0661e+12 -5.53154e+12 -8.82654e+12 -6.19905e+12 -5.10155e+12 -4.99493e+12 -8.94405e+12 -8.65621e+12 -5.55135e+12 -5.69167e+12 -8.13644e+12 -9.6028e+12 -1.02931e+13 -1.0353e+13 -4.59889e+12 -5.30492e+12 -1.16513e+13 -8.16007e+12 -6.96719e+12 -4.62652e+12 -1.06942e+13 -5.26714e+12 -6.94424e+12 -6.60376e+12 -8.32058e+12 -5.51609e+12 -6.19389e+12 -4.5412e+12 -6.55483e+12 -5.23821e+12 -6.48735e+12 -2.84415e+12 -1.01557e+13 -3.06872e+12 -7.48209e+12 -2.59725e+12 -7.63136e+12 -4.21821e+12 -4.73366e+12 -2.99401e+12 -5.17196e+12 -5.48861e+12 -4.65704e+12 -5.75326e+12 -2.3282e+12 -4.66756e+12 -3.20205e+12 -5.40695e+12 -3.9987e+12 -2.33884e+12 -4.58943e+12 -4.17558e+12 -6.34629e+12 -1.25413e+12 -3.89602e+12 -4.2779e+12 -4.06131e+12 -6.8092e+12 -7.16759e+12 -5.01024e+12 -7.07455e+12 -5.66129e+12 -6.15226e+12 -4.80579e+12 -6.59573e+12 -4.18262e+12 -2.70502e+12 -3.1409e+12 -5.24878e+12 -7.90101e+12 -6.12106e+12 -5.41882e+12 -4.32336e+12 -5.46921e+12 -4.51208e+12 -4.36147e+12 -4.19754e+12 -4.74838e+12 -8.06376e+12 -5.01443e+12 -5.94997e+12 -5.48063e+12 -5.52223e+12 -5.25291e+12 -1.09851e+13 -9.0957e+12 -7.59658e+12 -4.86832e+12 -8.01336e+12 -8.32796e+12 -7.78422e+12 -6.87782e+12 -6.81413e+12 -8.53165e+12 -6.8489e+12 -1.1695e+13 -8.09995e+12 -8.70853e+12 -6.20195e+12 -6.75729e+12 -9.71728e+12 -1.02172e+13 -6.8173e+12 -8.52968e+12 -8.41676e+12 -4.28537e+12 -6.51594e+12 -6.00762e+12 -3.15443e+12 -4.62399e+12 -4.25508e+12 -4.20809e+12 -1.01341e+13 -6.13215e+12 -7.56232e+12 -9.96127e+12 -9.18495e+12 -5.62343e+12 -8.06176e+12 -1.00432e+13 -6.53651e+12 -7.31525e+12 -7.04435e+12 -1.19661e+13 -6.9492e+12 -5.52881e+12 -4.93822e+12 -4.68565e+12 -8.63158e+12 -7.49101e+12 -5.93081e+12 -6.67009e+12 -9.20393e+12 -7.30967e+12 -4.61813e+12 -5.34921e+12 -7.67862e+12 -6.36325e+12 -6.44568e+12 -5.27144e+12 -2.45433e+12 -5.59183e+12 -4.355e+12 -3.48942e+12 -4.29213e+12 -4.74045e+12 -7.77942e+12 -7.17273e+12 -3.62063e+12 -5.10745e+12 -5.33998e+12 -5.69248e+12 -4.7537e+12 -4.6994e+12 -2.42278e+12 -3.61087e+12 -5.01313e+12 -5.16467e+12 -6.08629e+12 -5.59005e+12 -5.4916e+12 -5.00841e+12 -3.80414e+12 -2.73418e+12 -4.28484e+12 -4.42682e+12 -3.15653e+12 -5.96217e+12 -3.62414e+12 -4.23822e+12 -3.44005e+12 -3.76846e+12 -4.1505e+12 -4.93332e+12 -5.21356e+12 -4.49943e+12 -5.05431e+12 -2.10967e+12 -3.3322e+12 -3.80848e+12 -8.11012e+12 -4.43905e+12 -1.99484e+12 -4.55801e+12 -1.96474e+12 -5.40819e+12 -5.75299e+12 -5.61092e+12 -4.72156e+12 -6.46664e+12 -7.50547e+12 -9.26372e+12 -5.00505e+12 -4.61587e+12 -6.7181e+12 -3.75599e+12 -8.28873e+12 -7.26193e+12 -5.67171e+12 -4.95445e+12 -8.21373e+12 -7.80289e+12 -6.93413e+12 -8.26177e+12 -8.96756e+12 -7.14603e+12 -7.36854e+12 -1.08293e+13 -1.26413e+13 -9.93879e+12 -7.72743e+12 -6.46951e+12 -9.25405e+12 -4.49525e+12 -4.68427e+12 -1.11338e+13 -5.45827e+12 -5.611e+12 -1.28335e+13 -6.79886e+12 -4.78139e+12 -8.39744e+12 -8.87794e+12 -9.9187e+12 -5.91864e+12 -4.66296e+12 -6.43485e+12 -9.84135e+12 -9.22702e+12 -9.27195e+12 -4.71889e+12 -6.45368e+12 -4.20596e+12 -5.21452e+12 -6.61613e+12 -6.85794e+12 -1.10093e+13 -4.99866e+12 -5.35797e+12 -8.8785e+12 -4.3259e+12 -2.45491e+12 -5.7301e+12 -8.34957e+12 -3.72909e+12 -5.84884e+12 -8.46798e+12 -7.89625e+12 -7.8411e+12 -8.56665e+12 -6.20849e+12 -7.45467e+12 -6.05049e+12 -4.64824e+12 -6.4261e+12 -7.19e+12 -5.34075e+12 -3.50039e+12 -5.43008e+12 -4.54142e+12 -4.87458e+12 -3.42892e+12 -2.60777e+12 -7.12587e+12 -6.20782e+12 -4.08363e+12 -4.65493e+12 -3.54153e+12 -3.98504e+12 -5.66646e+12 -2.62106e+12 -3.45816e+12 -4.12934e+12 -3.76866e+12 -2.77497e+12 -7.39079e+12 -4.07282e+12 -2.73762e+12 -4.02925e+12 -4.22015e+12 -5.14779e+12 -5.25267e+12 -2.10204e+12 -3.73308e+12 -3.15206e+12 -3.19644e+12 -6.17851e+12 -5.48769e+12 -6.08207e+12 -5.21378e+12 -5.84186e+12 -3.20945e+12 -4.30477e+12 -3.92926e+12 -5.9575e+12 -7.46867e+12 -2.61731e+12 -4.41068e+12 -7.73583e+12 -3.65413e+12 -4.83054e+12 -5.8173e+12 -5.99971e+12 -4.34288e+12 -7.16364e+12 -4.16804e+12 -6.75938e+12 -8.09809e+12 -8.02031e+12 -2.14426e+12 -4.97905e+12 -4.48044e+12 -6.89271e+12 -7.46933e+12 -8.71803e+12 -7.28671e+12 -4.45689e+12 -6.41848e+12 -7.54287e+12 -8.84439e+12 -8.32156e+12 -6.49742e+12 -6.03957e+12 -4.27619e+12 -2.90033e+12 -1.06936e+13 -5.36303e+12 -7.05947e+12 -8.13127e+12 -6.62287e+12 -9.11934e+12 -7.45574e+12 -7.00547e+12 -7.43387e+12 -4.99757e+12 -7.18321e+12 -7.75257e+12 -8.1604e+12 -7.85285e+12 -8.39851e+12 -5.44834e+12 -1.08642e+13 -7.90383e+12 -1.07555e+13 -1.05452e+13 -6.19258e+12 -7.21616e+12 -7.87228e+12 -8.05766e+12 -7.19339e+12 -5.58025e+12 -4.6481e+12 -4.65655e+12 -1.06405e+13 -3.84219e+12 -4.50783e+12 -7.60079e+12 -5.27012e+12 -3.631e+12 -4.56701e+12 -6.91041e+12 -7.9845e+12 -4.77684e+12 -2.16937e+12 -3.99824e+12 -8.0215e+12 -3.6866e+12 -5.01078e+12 -4.97134e+12 -3.36216e+12 -6.67564e+12 -6.56978e+12 -6.24147e+12 -2.35532e+12 -3.51054e+12 -5.6709e+12 -4.24033e+12 -4.68371e+12 -6.60082e+12 -3.68222e+12 -5.23231e+12 -4.90727e+12 -3.00976e+12 -5.89767e+12 -3.53586e+12 -1.95887e+12 -2.23247e+12 -6.22305e+12 -4.60545e+12 -4.12669e+12 -4.03021e+12 -4.91042e+12 -2.80861e+12 -4.23503e+12 -3.228e+12 -4.3415e+12 -4.85413e+12 -5.00416e+12 -3.14961e+12 -5.72967e+12 -8.28264e+12 -3.47339e+12 -2.61791e+12 -5.13517e+12 -3.69754e+12 -5.73952e+12 -6.71146e+12 -5.49675e+12 -3.96843e+12 -5.6285e+12 -3.83547e+12 -5.81898e+12 -4.57864e+12 -4.84981e+12 -3.16287e+12 -6.90435e+12 -5.80629e+12 -5.72113e+12 -4.60967e+12 -7.99237e+12 -4.67789e+12 -2.93904e+12 -6.15648e+12 -5.6164e+12 -3.47335e+12 -6.8082e+12 -3.51802e+12 -6.3363e+12 -5.65649e+12 -5.31916e+12 -6.11648e+12 -6.85932e+12 -2.9021e+12 -4.8879e+12 -5.43224e+12 -6.22124e+12 -3.32856e+12 -7.32377e+12 -5.78133e+12 -3.53188e+12 -6.91311e+12 -6.34336e+12 -5.25383e+12 -3.20229e+12 -5.55092e+12 -3.16298e+12 -5.29465e+12 -6.32864e+12 -3.56582e+12 -6.95067e+12 -9.09823e+12 -7.74899e+12 -6.40264e+12 -7.61589e+12 -6.79825e+12 -7.5423e+12 -8.84712e+12 -4.3512e+12 -7.92566e+12 -5.05169e+12 -4.04127e+12 -7.93559e+12 -6.50569e+12 -6.70461e+12 -7.17121e+12 -8.79526e+12 -8.56592e+12 -2.56411e+12 -6.71584e+12 -1.00553e+13 -5.20333e+12 -7.69279e+12 -7.33834e+12 -8.19988e+12 -5.11175e+12 -7.42886e+12 -5.18307e+12 -6.36004e+12 -3.92218e+12 -4.93874e+12 -7.49212e+12 -5.62864e+12 -9.52954e+12 -5.90044e+12 -3.81513e+12 -6.21436e+12 -7.19837e+12 -3.81905e+12 -4.2531e+12 -5.5323e+12 -8.62862e+12 -8.72502e+12 -8.3011e+12 -4.54169e+12 -6.64325e+12 -5.37932e+12 -5.99266e+12 -5.1499e+12 -1.66559e+12 -4.14745e+12 -7.21175e+12 -5.03357e+12 -4.00382e+12 -4.10289e+12 -2.90087e+12 -5.78329e+12 -3.4564e+12 -3.41458e+12 -4.50539e+12 -5.26895e+12 -3.99597e+12 -4.91046e+12 -3.07884e+12 -2.75022e+12 -2.70229e+12 -2.34242e+12 -2.46399e+12 -4.64735e+12 -5.60058e+12 -4.45948e+12 -2.92964e+12 -1.67994e+12 -4.42569e+12 -3.63163e+12 -3.95219e+12 -4.15992e+12 -4.27476e+12 -1.92654e+12 -4.3653e+12 -2.35375e+12 -2.37893e+12 -4.52945e+12 -1.67207e+12 -2.74432e+12 -4.28657e+12 -4.03761e+12 -6.73444e+12 -2.78185e+12 -4.33461e+12 -5.38102e+12 -3.00623e+12 -3.94083e+12 -3.28287e+12 -4.00743e+12 -4.12342e+12 -2.68237e+12 -3.92888e+12 -6.15995e+12 -6.17016e+12 -4.33196e+12 -5.11612e+12 -4.10648e+12 -3.57681e+12 -3.40031e+12 -5.4212e+12 -5.50084e+12 -4.21129e+12 -4.32837e+12 -6.10837e+12 -4.89504e+12 -3.90543e+12 -3.17022e+12 -5.09376e+12 -1.52753e+12 -1.95127e+12 -5.23143e+12 -3.96743e+12 -2.68644e+12 -7.22557e+12 -8.34313e+12 -7.09748e+12 -3.81872e+12 -6.34809e+12 -6.68333e+12 -1.04435e+13 -1.04827e+13 -9.52446e+12 -4.61297e+12 -7.37676e+12 -9.39174e+12 -9.60398e+12 -7.38444e+12 -8.11808e+12 -5.47292e+12 -7.57796e+12 -5.67628e+12 -6.7245e+12 -6.90424e+12 -6.68364e+12 -5.24746e+12 -5.2622e+12 -7.35005e+12 -4.30307e+12 -6.69634e+12 -4.26243e+12 -4.20886e+12 -2.3288e+12 -5.75087e+12 -2.26697e+12 -7.83921e+12 -4.30955e+12 -5.74764e+12 -5.39433e+12 -1.04471e+13 -4.78851e+12 -9.14942e+12 -6.42209e+12 -1.07576e+13 -8.97054e+12 -3.7852e+12 -5.57779e+12 -4.29752e+12 -6.29572e+12 -7.05752e+12 -8.16643e+12 -6.49333e+12 -5.90538e+12 -6.66121e+12 -6.13521e+12 -6.40124e+12 -7.74661e+12 -5.57022e+12 -5.19656e+12 -4.49935e+12 -6.73213e+12 -5.70465e+12 -6.1247e+12 -3.9455e+12 -3.2487e+12 -5.12228e+12 -4.69037e+12 -3.46337e+12 -2.97456e+12 -4.85698e+12 -4.25677e+12 -3.89918e+12 -4.04126e+12 -3.8105e+12 -4.90724e+12 -5.64666e+12 -9.08895e+12 -5.19478e+12 -5.01569e+12 -4.96208e+12 -4.99231e+12 -3.52804e+12 -5.77791e+12 -2.53043e+12 -4.47227e+12 -2.70433e+12 -5.43952e+12 -3.85664e+12 -1.79209e+12 -3.49279e+12 -4.91049e+12 -2.67162e+12 -2.4387e+12 -4.63774e+12 -3.26922e+12 -2.37686e+12 -3.31887e+12 -4.3078e+12 -6.41645e+12 -2.4503e+12 -2.82798e+12 -4.73371e+12 -4.09628e+12 -4.46742e+12 -1.86851e+12 -1.22618e+12 -4.33425e+12 -4.55456e+12 -1.55065e+12 -6.69445e+12 -8.01576e+12 -3.46016e+12 -4.1254e+12 -4.27995e+12 -2.69037e+12 -6.13984e+12 -5.41064e+12 -6.35261e+12 -5.25405e+12 -4.22185e+12 -3.51319e+12 -5.57965e+12 -2.78578e+12 -5.39608e+12 -8.15661e+12 -7.98747e+12 -5.41161e+12 -9.0084e+12 -4.96736e+12 -7.20339e+12 -9.15212e+12 -8.97075e+12 -7.51221e+12 -6.97681e+12 -7.27449e+12 -7.57442e+12 -7.86801e+12 -9.78223e+12 -9.1045e+12 -1.02905e+13 -6.09513e+12 -7.02184e+12 -8.95156e+12 -8.33227e+12 -7.65334e+12 -8.96282e+12 -7.92434e+12 -5.7571e+12 -5.01512e+12 -5.92889e+12 -5.09147e+12 -7.5407e+12 -4.65612e+12 -4.85672e+12 -5.19551e+12 -4.07151e+12 -3.87672e+12 -5.43573e+12 -9.6267e+12 -5.93919e+12 -6.3535e+12 -1.01782e+13 -8.05237e+12 -7.70025e+12 -7.82524e+12 -3.60457e+12 -1.26447e+13 -6.84284e+12 -4.99311e+12 -8.91059e+12 -4.17637e+12 -5.25088e+12 -6.1633e+12 -3.79259e+12 -9.42466e+12 -8.5187e+12 -4.58726e+12 -4.94934e+12 -4.86838e+12 -5.43422e+12 -1.67511e+12 -3.63068e+12 -4.44088e+12 -7.24095e+12 -8.66226e+12 -7.31896e+12 -4.79252e+12 -5.3478e+12 -2.20639e+12 -4.95495e+12 -4.53325e+12 -3.66882e+12 -3.16989e+12 -4.5141e+12 -5.33068e+12 -5.04283e+12 -4.21405e+12 -4.25409e+12 -4.35166e+12 -7.80693e+12 -5.92312e+12 -7.36053e+12 -2.59853e+12 -4.21664e+12 -3.69354e+12 -5.56126e+12 -5.70122e+12 -3.79843e+12 -4.0925e+12 -4.05813e+12 -3.90931e+12 -3.13139e+12 -6.72097e+12 -3.43331e+12 -3.03075e+12 -5.77806e+12 -5.64676e+12 -5.15908e+12 -3.90213e+12 -3.34712e+12 -3.75136e+12 -3.58467e+12 -2.66114e+12 -1.64032e+12 -3.88212e+12 -4.54303e+12 -4.26802e+12 -2.76174e+12 -4.09772e+12 -4.31838e+12 -4.16023e+12 -3.05086e+12 -5.07472e+12 -5.31922e+12 -5.50045e+12 -2.69158e+12 -4.69326e+12 -3.20812e+12 -3.04316e+12 -2.79444e+12 -4.04437e+12 -2.72582e+12 -2.33282e+12 -4.01021e+12 -3.25527e+12 -3.03249e+12 -4.43906e+12 -3.25276e+12 -5.99244e+12 -6.74079e+12 -3.89059e+12 -5.52981e+12 -6.37759e+12 -4.47188e+12 -1.85515e+12 -5.09768e+12 -7.64646e+12 -5.9207e+12 -5.74369e+12 -4.44621e+12 -6.56107e+12 -3.24345e+12 -9.24991e+12 -3.19244e+12 -9.40629e+12 -8.57748e+12 -6.48996e+12 -2.60307e+12 -5.38798e+12 -1.89409e+12 -5.70484e+12 -1.1091e+13 -8.41215e+12 -6.28143e+12 -6.11093e+12 -4.10722e+12 -1.02561e+13 -7.58724e+12 -5.47887e+12 -5.53051e+12 -6.65274e+12 -9.04667e+12 -4.34152e+12 -5.03734e+12 -6.85112e+12 -5.46072e+12 -4.7252e+12 -5.0971e+12 -6.73557e+12 -7.90537e+12 -4.74025e+12 -5.16597e+12 -5.79076e+12 -5.34945e+12 -4.11783e+12 -3.65533e+12 -6.39036e+12 -5.59523e+12 -7.62022e+12 -4.39387e+12 -2.82546e+12 -8.58741e+12 -6.78285e+12 -1.13587e+13 -6.12174e+12 -1.65756e+13 -8.00686e+12 -5.73876e+12 -8.1627e+12 -7.49383e+12 -7.85547e+12 -4.6084e+12 -6.00318e+12 -8.4319e+12 -5.86637e+12 -6.76742e+12 -6.29805e+12 -3.99012e+12 -6.10034e+12 -8.25071e+12 -5.63914e+12 -7.21248e+12 -8.36838e+12 -5.34088e+12 -2.85577e+12 -5.34612e+12 -5.88509e+12 -2.69303e+12 -4.3302e+12 -5.60545e+12 -5.16291e+12 -3.06045e+12 -7.32444e+12 -5.2957e+12 -4.98484e+12 -7.80255e+12 -5.25237e+12 -4.6333e+12 -4.20175e+12 -3.9941e+12 -3.24462e+12 -3.2592e+12 -4.42296e+12 -3.69328e+12 -4.58237e+12 -1.97423e+12 -4.17324e+12 -3.64003e+12 -4.60367e+12 -2.26913e+12 -5.26631e+12 -4.10382e+12 -4.8424e+12 -4.39843e+12 -2.47212e+12 -3.73981e+12 -3.16452e+12 -3.88553e+12 -2.58203e+12 -2.30673e+12 -1.53727e+12 -2.96395e+12 -3.02616e+12 -2.85905e+12 -2.7494e+12 -3.75167e+12 -2.21292e+12 -5.30823e+12 -2.86466e+12 -3.78194e+12 -1.91778e+12 -3.45675e+12 -2.00346e+12 -3.02682e+12 -1.50612e+12 -3.8498e+12 -5.82696e+12 -4.66558e+12 -3.54618e+12 -7.11793e+12 -3.82263e+12 -7.47e+12 -4.36407e+12 -6.35154e+12 -5.35343e+12 -5.25856e+12 -6.22433e+12 -7.22392e+12 -6.55593e+12 -4.51268e+12 -5.53284e+12 -6.29839e+12 -4.52959e+12 -5.51004e+12 -2.60521e+12 -6.67138e+12 -3.99467e+12 -3.96754e+12 -8.10597e+12 -5.26557e+12 -6.03312e+12 -5.49665e+12 -3.53721e+12 -5.7143e+12 -3.72532e+12 -7.76086e+12 -5.31022e+12 -4.43612e+12 -8.03797e+12 -6.4905e+12 -6.73515e+12 -7.16084e+12 -8.93728e+12 -5.55926e+12 -7.0558e+12 -8.29791e+12 -6.36503e+12 -6.09795e+12 -4.75355e+12 -9.03494e+12 -8.56018e+12 -2.80067e+12 -4.34015e+12 -4.78035e+12 -7.49903e+12 -3.81196e+12 -5.77143e+12 -7.62022e+12 -4.29081e+12 -3.56677e+12 -5.41261e+12 -4.67091e+12 -8.18801e+12 -8.87836e+12 -5.19019e+12 -7.30681e+12 -7.25642e+12 -4.66245e+12 -4.97086e+12 -7.39918e+12 -1.21343e+13 -1.05999e+13 -5.29421e+12 -6.09925e+12 -9.33554e+12 -4.7635e+12 -8.34891e+12 -4.66104e+12 -6.13391e+12 -7.10679e+12 -6.92731e+12 -6.67659e+12 -1.03321e+13 -4.48236e+12 -3.23079e+12 -7.13429e+12 -5.17525e+12 -5.34903e+12 -3.24413e+12 -3.06338e+12 -4.82072e+12 -4.56956e+12 -3.67611e+12 -4.7091e+12 -5.092e+12 -2.43889e+12 -3.56198e+12 -3.27086e+12 -7.69948e+12 -7.19157e+12 -6.72216e+12 -2.96232e+12 -2.75939e+12 -3.43528e+12 -2.682e+12 -2.97401e+12 -4.17662e+12 -3.25686e+12 -2.42385e+12 -4.10201e+12 -2.25659e+12 -4.54637e+12 -2.61112e+12 -2.05453e+12 -3.63154e+12 -4.24248e+12 -3.00507e+12 -3.05468e+12 -2.50848e+12 -1.2459e+12 -1.07476e+12 -2.86923e+12 -2.49397e+12 -3.13019e+12 -3.91115e+12 -3.20085e+12 -3.0839e+12 -1.60344e+12 -2.9678e+12 -3.21835e+12 -5.86779e+12 -1.65305e+12 -2.41946e+12 -3.00633e+12 -2.79554e+12 -1.61047e+12 -2.648e+12 -1.985e+12 -3.76829e+12 -3.32418e+12 -2.88e+12 -2.67527e+12 -3.53605e+12 -3.80426e+12 -3.34654e+12 -3.56406e+12 -2.81577e+12 -4.1019e+12 -4.20851e+12 -4.26529e+12 -2.98311e+12 -4.30526e+12 -4.28483e+12 -5.39846e+12 -5.87676e+12 -2.88791e+12 -5.86684e+12 -4.8783e+12 -6.93149e+12 -7.022e+12 -4.03426e+12 -4.23714e+12 -5.12581e+12 -5.50422e+12 -4.07344e+12 -3.47988e+12 -6.10358e+12 -4.56503e+12 -6.58786e+12 -4.75457e+12 -5.32654e+12 -7.40521e+12 -7.98435e+12 -7.30302e+12 -6.80294e+12 -7.63589e+12 -3.93224e+12 -5.69339e+12 -1.10971e+13 -6.46715e+12 -5.58345e+12 -5.26888e+12 -4.34495e+12 -4.08503e+12 -5.69195e+12 -8.47748e+12 -8.98285e+12 -1.0313e+13 -6.7221e+12 -5.98614e+12 -7.58657e+12 -3.64369e+12 -4.83357e+12 -3.2189e+12 -4.50982e+12 -4.12857e+12 -3.37563e+12 -6.01098e+12 -6.56932e+12 -4.00294e+12 -5.98884e+12 -6.67184e+12 -6.78771e+12 -9.02101e+12 -6.7836e+12 -5.77079e+12 -3.61001e+12 -6.49056e+12 -3.68919e+12 -3.55058e+12 -5.98519e+12 -4.68229e+12 -4.91036e+12 -3.45415e+12 -7.26358e+12 -5.89378e+12 -4.87036e+12 -4.54873e+12 -3.1332e+12 -6.22164e+12 -5.98821e+12 -5.91896e+12 -5.61973e+12 -4.16381e+12 -5.11308e+12 -4.60794e+12 -8.62669e+12 -3.98767e+12 -4.79402e+12 -3.39066e+12 -3.9551e+12 -5.06486e+12 -7.65833e+12 -5.23046e+12 -3.81296e+12 -6.82827e+12 -6.93516e+12 -5.49637e+12 -4.59417e+12 -4.36561e+12 -3.64171e+12 -4.63276e+12 -4.04905e+12 -4.71866e+12 -3.58616e+12 -5.38394e+12 -2.4287e+12 -2.26804e+12 -2.98148e+12 -4.8685e+12 -1.89672e+12 -2.01908e+12 -1.6645e+12 -4.4916e+12 -2.56906e+12 -2.52479e+12 -2.89217e+12 -3.35338e+12 -5.09032e+12 -3.15138e+12 -3.43001e+12 -1.97919e+12 -2.74378e+12 -2.03129e+12 -2.93602e+12 -1.62732e+12 -4.23529e+12 -2.62559e+12 -2.71535e+12 -1.87494e+12 -2.4991e+12 -2.4538e+12 -1.75937e+12 -1.4676e+12 -3.22502e+12 -1.30205e+12 -3.34354e+12 -1.974e+12 -2.15471e+12 -4.44738e+12 -1.6854e+12 -2.95009e+12 -2.80223e+12 -2.64414e+12 -5.02426e+12 -5.3709e+12 -4.21188e+12 -2.17384e+12 -3.02941e+12 -3.9502e+12 -2.86639e+12 -5.04128e+12 -4.40304e+12 -6.76664e+12 -6.85709e+12 -6.61128e+12 -1.76722e+12 -2.67682e+12 -3.73818e+12 -5.61667e+12 -5.34475e+12 -8.65106e+12 -2.87795e+12 -2.20027e+12 -3.16287e+12 -6.15128e+12 -6.8421e+12 -6.02311e+12 -2.39089e+12 -5.1389e+12 -4.16818e+12 -1.11663e+13 -3.00628e+12 -4.41456e+12 -6.91569e+12 -5.73809e+12 -8.51863e+12 -4.58407e+12 -5.03636e+12 -4.01801e+12 -4.76016e+12 -4.41918e+12 -5.10669e+12 -7.57941e+12 -9.05176e+12 -6.3406e+12 -6.13885e+12 -6.63856e+12 -5.43919e+12 -7.92466e+12 -7.42837e+12 -6.54632e+12 -4.87994e+12 -5.32116e+12 -2.68656e+12 -1.97782e+12 -2.90022e+12 -4.59591e+12 -5.29217e+12 -6.10034e+12 -7.17129e+12 -5.17504e+12 -6.06599e+12 -4.50842e+12 -3.22078e+12 -4.00583e+12 -3.3613e+12 -7.77768e+12 -5.07158e+12 -7.60212e+12 -7.42177e+12 -5.58886e+12 -5.70854e+12 -6.90929e+12 -5.77592e+12 -4.07918e+12 -2.7867e+12 -3.6223e+12 -4.84718e+12 -5.62908e+12 -4.05027e+12 -3.28201e+12 -3.30129e+12 -5.92948e+12 -5.68633e+12 -4.84159e+12 -4.98876e+12 -2.89094e+12 -4.74051e+12 -5.44063e+12 -2.21838e+12 -3.82207e+12 -1.87117e+12 -4.58013e+12 -1.52837e+12 -3.18838e+12 -7.39078e+12 -5.12221e+12 -5.66447e+12 -3.57204e+12 -4.15029e+12 -3.24941e+12 -4.14557e+12 -4.76045e+12 -5.29054e+12 -6.02073e+12 -3.20908e+12 -3.21639e+12 -3.89318e+12 -3.50153e+12 -5.07606e+12 -3.46208e+12 -3.9239e+12 -1.54805e+12 -3.20649e+12 -2.29734e+12 -2.74026e+12 -2.50193e+12 -1.46771e+12 -3.64819e+12 -3.19903e+12 -1.58366e+12 -2.75166e+12 -2.19688e+12 -3.07196e+12 -2.51175e+12 -4.29409e+12 -2.53806e+12 -2.14867e+12 -1.12266e+12 -550374000000.0 -1.76001e+12 -1.79124e+12 -2.76363e+12 -1.91638e+12 -3.81971e+12 -4.50978e+12 -1.70074e+12 -2.14241e+12 -2.35214e+12 -3.4782e+12 -3.63091e+12 -3.81282e+12 -2.01619e+12 -2.52507e+12 -2.32816e+12 -2.29338e+12 -3.66633e+12 -1.97566e+12 -4.14988e+12 -3.05816e+12 -1.85149e+12 -3.28347e+12 -3.03338e+12 -2.36119e+12 -2.04445e+12 -3.33076e+12 -3.41073e+12 -3.44375e+12 -3.37112e+12 -5.14429e+12 -4.36585e+12 -3.22209e+12 -3.01701e+12 -4.45849e+12 -5.87975e+12 -2.4797e+12 -3.57324e+12 -3.85995e+12 -6.99289e+12 -6.91746e+12 -4.40563e+12 -3.565e+12 -9.19577e+12 -5.8132e+12 -5.90931e+12 -3.25255e+12 -6.55136e+12 -6.45165e+12 -5.582e+12 -3.54074e+12 -8.85409e+12 -6.02995e+12 -6.53183e+12 -5.26331e+12 -4.53573e+12 -3.68046e+12 -8.17583e+12 -4.03796e+12 -6.18543e+12 -1.02833e+13 -6.97261e+12 -9.12397e+12 -1.14474e+13 -8.2092e+12 -4.40038e+12 -4.69122e+12 -7.03382e+12 -7.84207e+12 -6.79147e+12 -5.08612e+12 -1.19445e+13 -6.50597e+12 -5.64367e+12 -6.332e+12 -7.37477e+12 -4.45234e+12 -7.30112e+12 -6.91817e+12 -4.75216e+12 -6.39415e+12 -4.92491e+12 -5.19017e+12 -5.31312e+12 -4.88569e+12 -8.33026e+12 -8.90924e+12 -6.18748e+12 -5.48964e+12 -7.26898e+12 -4.08419e+12 -7.44609e+12 -5.75332e+12 -4.41179e+12 -5.24988e+12 -4.71874e+12 -3.33173e+12 -4.88354e+12 -3.13088e+12 -5.01753e+12 -4.81777e+12 -4.40187e+12 -2.53737e+12 -7.05811e+12 -3.82983e+12 -6.97018e+12 -4.3679e+12 -5.6381e+12 -4.46673e+12 -3.19494e+12 -2.68873e+12 -3.52166e+12 -2.80945e+12 -3.20615e+12 -2.74744e+12 -1.92538e+12 -6.74286e+12 -3.15757e+12 -2.75843e+12 -1.69983e+12 -2.99637e+12 -3.74212e+12 -481493000000.0 -4.26052e+12 -5.00268e+12 -3.86113e+12 -4.33144e+12 -1.01642e+12 -2.75391e+12 -2.33023e+12 -2.00398e+12 -1.23248e+12 -2.33431e+12 -2.31325e+12 -2.29116e+12 -1.41668e+12 -2.78134e+12 -1.90134e+12 -3.07213e+12 -3.19922e+12 -1.62547e+12 -1.77802e+12 -2.47377e+12 -851808000000.0 -2.39443e+12 -2.30812e+12 -3.31594e+12 -966866000000.0 -1.55876e+12 -2.88957e+12 -2.53078e+12 -3.38139e+12 -2.64095e+12 -2.77318e+12 -4.83678e+12 -1.80479e+12 -2.17381e+12 -1.77851e+12 -2.17087e+12 -3.10944e+12 -1.50465e+12 -2.30311e+12 -762263000000.0 -1.16929e+12 -2.85128e+12 -2.95418e+12 -3.01612e+12 -1.45878e+12 -1.79124e+12 -1.90321e+12 -3.31339e+12 -2.03944e+12 -1.31442e+12 -1.93958e+12 -3.25892e+12 -3.47425e+12 -3.33717e+12 -7.36746e+12 -3.16507e+12 -4.50117e+12 -4.84697e+12 -5.37464e+12 -3.45262e+12 -3.23697e+12 -2.4389e+12 -4.14265e+12 -5.12966e+12 -6.63017e+12 -6.95119e+12 -3.31246e+12 -1.98661e+12 -3.05212e+12 -5.66227e+12 -4.74482e+12 -3.77554e+12 -4.72019e+12 -6.30788e+12 -6.60666e+12 -6.97304e+12 -1.91179e+12 -4.83871e+12 -8.05462e+12 -3.8507e+12 -7.9826e+12 -4.11724e+12 -5.51565e+12 -4.67633e+12 -5.2202e+12 -6.47856e+12 -6.93789e+12 -9.38232e+12 -4.50505e+12 -8.43153e+12 -7.43839e+12 -6.01281e+12 -8.16706e+12 -5.8495e+12 -6.21168e+12 -8.35859e+12 -2.71454e+12 -4.71446e+12 -3.95287e+12 -2.17747e+12 -6.23612e+12 -2.35242e+12 -4.60178e+12 -3.34161e+12 -5.13828e+12 -9.14894e+12 -6.47625e+12 -4.69007e+12 -5.04958e+12 -7.48988e+12 -6.21423e+12 -4.89287e+12 -7.20949e+12 -6.56822e+12 -7.72294e+12 -5.57157e+12 -5.59404e+12 -5.77832e+12 -6.09795e+12 -5.65453e+12 -4.56998e+12 -6.26356e+12 -5.38432e+12 -4.02125e+12 -7.32091e+12 -5.16585e+12 -3.25622e+12 -6.37376e+12 -8.32141e+12 -6.02997e+12 -5.19553e+12 -5.47617e+12 -3.68135e+12 -2.38897e+12 -2.56441e+12 -5.02698e+12 -5.03936e+12 -2.67213e+12 -4.153e+12 -4.48957e+12 -2.42794e+12 -2.43608e+12 -1.87637e+12 -1.71854e+12 -2.86718e+12 -2.23272e+12 -3.73032e+12 -3.043e+12 -1.65112e+12 -1.36141e+12 -3.74466e+12 -1.3015e+12 -1.86851e+12 -1.91905e+12 -2.65142e+12 -2.5271e+12 -1.55092e+12 -3.26323e+12 -2.83629e+12 -1.77536e+12 -2.87689e+12 -2.87482e+12 -2.28808e+12 -547215000000.0 -3.21224e+12 -861133000000.0 -2.67524e+12 -2.86889e+12 -2.21836e+12 -2.7811e+12 -1.88623e+12 -3.14534e+12 -3.16834e+12 -2.22511e+12 -1.9532e+12 -2.55902e+12 -2.34348e+12 -2.44924e+12 -1.72941e+12 -3.03363e+12 -2.31331e+12 -2.95444e+12 -2.99458e+12 -3.03388e+12 -2.359e+12 -2.11943e+12 -2.82409e+12 -4.04012e+12 -3.7377e+12 -3.24289e+12 -4.08028e+12 -2.83518e+12 -4.1114e+12 -2.31921e+12 -4.89007e+12 -6.8022e+12 -2.06707e+12 -2.98124e+12 -3.61942e+12 -3.19147e+12 -4.42178e+12 -3.94977e+12 -3.21596e+12 -4.43334e+12 -2.98301e+12 -3.30592e+12 -5.14301e+12 -4.37876e+12 -5.64086e+12 -5.42476e+12 -4.56596e+12 -5.90167e+12 -7.45451e+12 -5.72293e+12 -6.43197e+12 -2.84285e+12 -4.63305e+12 -4.01057e+12 -7.2965e+12 -1.22988e+13 -5.24549e+12 -6.69087e+12 -4.61786e+12 -6.30624e+12 -4.98147e+12 -6.27364e+12 -4.73613e+12 -8.87071e+12 -1.03783e+13 -5.80676e+12 -3.68462e+12 -4.76681e+12 -7.59189e+12 -3.01532e+12 -2.68429e+12 -4.04604e+12 -5.76108e+12 -2.70264e+12 -3.22243e+12 -9.0976e+12 -4.25491e+12 -4.77804e+12 -4.63529e+12 -4.18669e+12 -6.871e+12 -5.94693e+12 -5.35345e+12 -8.11446e+12 -5.84081e+12 -4.40963e+12 -4.55012e+12 -4.74283e+12 -3.58554e+12 -5.78597e+12 -3.99362e+12 -3.76716e+12 -3.75327e+12 -4.19924e+12 -4.65305e+12 -5.01721e+12 -5.34481e+12 -3.21375e+12 -3.47678e+12 -7.93632e+12 -3.92564e+12 -2.53912e+12 -5.54009e+12 -6.01154e+12 -1.98923e+12 -3.51813e+12 -5.12019e+12 -3.76633e+12 -2.04863e+12 -3.63294e+12 -3.36357e+12 -722268000000.0 -3.00186e+12 -3.988e+12 -2.68276e+12 -3.03146e+12 -2.63829e+12 -4.11761e+12 -2.4441e+12 -3.71118e+12 -2.88539e+12 -4.18846e+12 -2.9708e+12 -2.34355e+12 -2.44251e+12 -2.63937e+12 -1.7937e+12 -3.12833e+12 -2.6637e+12 -1.41248e+12 -1.70996e+12 -2.42929e+12 -1.37279e+12 -1.2059e+12 -1.95919e+12 -2.81954e+12 -2.36311e+12 -3.63104e+12 -2.62019e+12 -2.32101e+12 -2.22343e+12 -1.94163e+12 -702340000000.0 -499571000000.0 -1.97439e+12 -1.54847e+12 -1.72452e+12 -3.55261e+12 -2.46054e+12 -1.27277e+12 -1.12099e+12 -1.99127e+12 -1.78835e+12 -3.06881e+12 -2.54871e+12 -2.56984e+12 -1.73764e+12 -2.13826e+12 -1.6892e+12 -3.08187e+12 -3.26705e+12 -1.77291e+12 -2.35509e+12 -1.36135e+12 -3.10583e+12 -1.54586e+12 -5.07152e+12 -6.13042e+12 -2.34191e+12 -2.54179e+12 -3.4814e+12 -2.49035e+12 -3.24932e+12 -3.34058e+12 -3.25517e+12 -2.4316e+12 -4.82252e+12 -3.19296e+12 -3.32484e+12 -2.40897e+12 -2.78203e+12 -3.88223e+12 -3.39691e+12 -4.18634e+12 -6.18712e+12 -2.99059e+12 -3.71765e+12 -5.37826e+12 -3.02002e+12 -4.76127e+12 -3.86006e+12 -4.82595e+12 -5.37606e+12 -3.55305e+12 -3.63887e+12 -6.44668e+12 -5.55686e+12 -2.42463e+12 -3.32824e+12 -5.5321e+12 -6.62346e+12 -9.40981e+12 -4.79266e+12 -3.579e+12 -5.92258e+12 -2.41298e+12 -3.27891e+12 -5.67445e+12 -5.10109e+12 -4.63858e+12 -5.54422e+12 -4.05686e+12 -7.77614e+12 -5.96394e+12 -2.08523e+12 -2.89779e+12 -5.5255e+12 -3.94848e+12 -4.9474e+12 -3.6018e+12 -4.39661e+12 -4.61735e+12 -5.20016e+12 -4.73112e+12 -2.93855e+12 -3.61012e+12 -6.21893e+12 -3.47786e+12 -6.26426e+12 -3.64876e+12 -5.17595e+12 -4.9189e+12 -3.53088e+12 -3.50306e+12 -3.43011e+12 -4.1564e+12 -6.00278e+12 -4.39482e+12 -3.7312e+12 -1.95126e+12 -3.28974e+12 -3.35852e+12 -5.61838e+12 -4.47092e+12 -1.75256e+12 -6.25299e+12 -2.62365e+12 -2.48193e+12 -1.94618e+12 -7.55468e+12 -3.10274e+12 -5.31442e+12 -2.02703e+12 -4.26924e+12 -2.1133e+12 -5.01711e+12 -3.2728e+12 -2.43832e+12 -2.60573e+12 -3.42898e+12 -3.50522e+12 -3.27133e+12 -2.78583e+12 -1.87882e+12 -2.26369e+12 -4.19321e+12 -3.94596e+12 -2.47524e+12 -2.09989e+12 -249224000000.0 -1.59835e+12 -1.08213e+12 -2.71443e+12 -1.27461e+12 -1.24299e+12 -3.41727e+12 -1.34543e+12 -1.22081e+12 -1.93805e+12 -1.83368e+12 -1.45737e+12 -762874000000.0 -979409000000.0 -1.08493e+12 -1.53374e+12 -1.55804e+12 -2.71185e+12 -2.75774e+12 -1.43015e+12 -1.94728e+12 -647393000000.0 -1.54268e+12 -1.12597e+12 -599193000000.0 -803964000000.0 -1.87913e+12 -747638000000.0 -1.53266e+12 -1.66812e+12 -1.22177e+12 -1.37176e+12 -1.71169e+12 -1.33766e+12 -2.71654e+12 -1.00474e+12 -897923000000.0 -1.40411e+12 -1.65348e+12 -2.20953e+12 -2.6653e+12 -3.39693e+12 -1.52639e+12 -1.99697e+12 -3.12571e+12 -4.1868e+12 -3.53807e+12 -1.35931e+12 -2.45036e+12 -3.99982e+12 -1.5798e+12 -2.72865e+12 -4.29505e+12 -3.40973e+12 -2.76362e+12 -2.67102e+12 -4.54209e+12 -5.34754e+12 -3.36185e+12 -3.25942e+12 -3.30848e+12 -4.68989e+12 -2.75575e+12 -2.83511e+12 -4.70449e+12 -2.67077e+12 -3.39461e+12 -5.66423e+12 -4.47835e+12 -4.40836e+12 -2.94415e+12 -4.19595e+12 -6.44453e+12 -4.25243e+12 -4.60859e+12 -4.58483e+12 -4.43356e+12 -5.78273e+12 -5.08664e+12 -4.91093e+12 -5.38881e+12 -4.04435e+12 -2.7595e+12 -6.38665e+12 -3.94737e+12 -5.475e+12 -4.84758e+12 -5.11139e+12 -7.52552e+12 -4.92224e+12 -4.26291e+12 -2.1707e+12 -920527000000.0 -3.36936e+12 -5.03401e+12 -5.14712e+12 -6.32447e+12 -6.00648e+12 -3.35614e+12 -3.23503e+12 -3.23346e+12 -4.76935e+12 -3.23241e+12 -3.19792e+12 -3.66914e+12 -3.51006e+12 -1.75447e+12 -3.92824e+12 -5.64127e+12 -2.69122e+12 -3.26193e+12 -3.85112e+12 -4.30131e+12 -3.97948e+12 -4.20759e+12 -3.32061e+12 -2.74944e+12 -1.21087e+12 -4.44408e+12 -2.10985e+12 -1.4607e+12 -3.56223e+12 -1.87662e+12 -2.45096e+12 -3.13715e+12 -3.35419e+12 -4.64412e+12 -3.75611e+12 -4.4491e+12 -3.24064e+12 -1.1944e+12 -2.6424e+12 -4.75337e+12 -4.02275e+12 -1.98053e+12 -2.7249e+12 -1.96591e+12 -2.46113e+12 -2.45453e+12 -3.6073e+12 -1.8687e+12 -2.87152e+12 -1.24796e+12 -2.02213e+12 -1.92558e+12 -1.50029e+12 -868868000000.0 -1.94764e+12 -2.05004e+12 -2.01189e+12 -1.43176e+12 -1.54084e+12 -257306000000.0 -1.82848e+12 -1.30325e+12 -1.56983e+12 -2.28886e+12 -2.38861e+12 -2.18505e+12 -1.4939e+12 -1.30103e+12 -1.85964e+12 -1.15507e+12 -1.70767e+12 -1.43822e+12 -2.02499e+12 -1.6472e+12 -1.73005e+12 -2.0321e+12 -1.73736e+12 -1.9858e+12 -1.40704e+12 -1.43194e+12 -894127000000.0 -1.86984e+12 -1.97603e+12 -2.89594e+12 -1.93711e+12 -1.92407e+12 -4.75378e+12 -3.6398e+12 -2.54506e+12 -4.18863e+12 -2.65452e+12 -2.69601e+12 -3.25841e+12 -1.52342e+12 -4.11242e+12 -3.97146e+12 -3.8241e+12 -4.24737e+12 -3.04901e+12 -3.6201e+12 -4.0015e+12 -4.12953e+12 -2.73441e+12 -4.11568e+12 -5.03282e+12 -3.45374e+12 -651059000000.0 -4.65589e+12 -4.27773e+12 -2.04632e+12 -5.47273e+12 -2.17987e+12 -4.98477e+12 -4.44595e+12 -4.33771e+12 -3.08245e+12 -5.0378e+12 -3.0029e+12 -4.06928e+12 -2.28136e+12 -2.76468e+12 -4.05087e+12 -3.83859e+12 -5.32611e+12 -4.00555e+12 -3.99848e+12 -3.2632e+12 -5.21174e+12 -2.86353e+12 -2.81294e+12 -4.1181e+12 -4.39065e+12 -3.27099e+12 -2.66109e+12 -2.52341e+12 -2.42684e+12 -6.61924e+12 -5.40436e+12 -3.56098e+12 -5.65328e+12 -4.1187e+12 -2.85298e+12 -3.31624e+12 -3.77374e+12 -3.44812e+12 -2.76439e+12 -3.13527e+12 -2.96449e+12 -1.31817e+12 -3.70126e+12 -3.02639e+12 -3.39263e+12 -3.45561e+12 -4.15179e+12 -2.58966e+12 -6.17788e+12 -3.19505e+12 -2.03917e+12 -3.3312e+12 -3.97461e+12 -4.51151e+12 -2.66534e+12 -2.95576e+12 -4.53467e+12 -1.65716e+12 -1.4982e+12 -2.22338e+12 -3.39376e+12 -2.14381e+12 -3.98598e+12 -1.10208e+12 -1.7796e+12 -2.88147e+12 -2.74336e+12 -2.40386e+12 -1.1899e+12 -1.41995e+12 -2.65096e+12 -1.52892e+12 -1.76558e+12 -2.15648e+12 -1.76584e+12 -2.40043e+12 -1.47287e+12 -1.2027e+12 -489603000000.0 -1.27962e+12 -875783000000.0 -2.59976e+12 -1.32771e+12 -1.37146e+12 -1.37645e+12 -334951000000.0 -1.03722e+12 -2.42137e+12 -1.45867e+12 -813680000000.0 -1.8441e+12 -1.14254e+12 -1.00917e+12 -67505200000.0 -1.11131e+12 -1.38298e+12 -1.22802e+12 -1.9536e+12 -2.48604e+12 -1.8279e+12 -1.94377e+12 -859319000000.0 -3.15974e+12 -1.40315e+12 -2.51495e+12 -2.73466e+12 -2.58909e+12 -1.92084e+12 -2.50615e+12 -2.92736e+12 -3.67887e+12 -3.9293e+12 -2.04783e+12 -2.16819e+12 -1.59706e+12 -3.97226e+12 -2.67335e+12 -2.43608e+12 -4.44147e+12 -3.71551e+12 -4.55142e+12 -1.00986e+12 -3.88129e+12 -2.63298e+12 -2.98523e+12 -2.7029e+12 -2.80945e+12 -4.25507e+12 -4.41577e+12 -4.23548e+12 -5.47535e+12 -4.33615e+12 -2.1933e+12 -3.28362e+12 -5.53673e+12 -4.90643e+12 -4.23334e+12 -5.26169e+12 -2.53573e+12 -4.37421e+12 -6.95601e+12 -3.46328e+12 -3.44009e+12 -5.05867e+12 -4.31377e+12 -4.54883e+12 -3.97146e+12 -5.17734e+12 -1.32753e+12 -4.60682e+12 -3.99255e+12 -5.38221e+12 -4.89953e+12 -6.41027e+12 -4.17881e+12 -3.07795e+12 -3.14353e+12 -2.87922e+12 -2.92912e+12 -4.21862e+12 -4.27414e+12 -5.13763e+12 -2.69469e+12 -1.37149e+12 -3.42233e+12 -3.27642e+12 -3.64393e+12 -6.01481e+12 -3.20528e+12 -3.1602e+12 -1.81754e+12 -3.49727e+12 -3.58949e+12 -3.0782e+12 -2.53535e+12 -3.4613e+12 -2.70226e+12 -3.56121e+12 -2.84374e+12 -1.93356e+12 -3.67464e+12 -2.98825e+12 -2.33556e+12 -3.3316e+12 -2.34132e+12 -1.46178e+12 -1.80086e+12 -1.22301e+12 -2.03024e+12 -3.54184e+12 -1.9561e+12 -1.12944e+12 -1.83716e+12 -1.67959e+12 -1.57976e+12 -1.84007e+12 -970456000000.0 -1.16752e+12 -1.47227e+12 -1.08648e+12 -1.08656e+12 -920221000000.0 -1.31785e+12 -1.40496e+12 -1.08296e+12 -410021000000.0 -1.29133e+12 -1.53702e+12 -1.88642e+12 -1.08976e+12 -1.72341e+12 -1.07305e+12 -1.29763e+12 -715673000000.0 -412637000000.0 -593875000000.0 -445849000000.0 -959116000000.0 -542255000000.0 -1.14736e+12 -919211000000.0 -2.32726e+12 -2.25305e+12 -1.74037e+12 -1.5061e+12 -428276000000.0 -1.50152e+12 -2.78432e+12 -2.13261e+12 -3.14748e+12 -1.17038e+12 -1.32248e+12 -765972000000.0 -1.45009e+12 -2.28585e+12 -2.90047e+12 -4.28904e+12 -2.5505e+12 -4.16683e+12 -2.84598e+12 -3.34896e+12 -3.11809e+12 -2.1485e+12 -3.53842e+12 -4.69808e+12 -2.74421e+12 -3.94576e+12 -817936000000.0 -2.77639e+12 -4.01768e+12 -3.82927e+12 -2.73924e+12 -2.54188e+12 -2.73878e+12 -5.21686e+12 -3.76953e+12 -2.84522e+12 -5.27333e+12 -3.95502e+12 -4.31794e+12 -3.79579e+12 -3.52408e+12 -3.58173e+12 -3.30378e+12 -4.86985e+12 -3.77876e+12 -4.50839e+12 -2.31862e+12 -3.00717e+12 -6.36302e+12 -2.82138e+12 -3.24766e+12 -3.70268e+12 -3.5209e+12 -4.39671e+12 -5.46677e+12 -4.24778e+12 -1.75036e+12 -3.09056e+12 -2.57023e+12 -3.19506e+12 -3.9206e+12 -2.8459e+12 -2.91853e+12 -3.82543e+12 -3.51178e+12 -1.60278e+12 -3.36053e+12 -2.7363e+12 -2.8212e+12 -2.05518e+12 -3.50926e+12 -3.59779e+12 -1.88072e+12 -2.46319e+12 -3.9745e+12 -2.73732e+12 -2.83075e+12 -2.68377e+12 -3.75813e+12 -2.63707e+12 -2.90339e+12 -2.20592e+12 -3.38403e+12 -2.75594e+12 -1.0895e+12 -3.00518e+12 -1.91886e+12 -2.66536e+12 -2.11942e+12 -2.31571e+12 -1.10771e+12 -2.96767e+12 -1.17e+12 -1.68272e+12 -2.2083e+12 -2.0881e+12 -1.2717e+12 -2.37039e+12 -851527000000.0 -1.58414e+12 -2.23305e+12 -2.35562e+12 -1.96459e+12 -2.55048e+12 -976650000000.0 -1.88306e+12 -1.43394e+12 -1.33227e+12 -1.11679e+12 -1.02848e+12 -62540700000.0 -1.29437e+12 -1.03996e+12 -1.0831e+12 -1.53215e+12 -1.12614e+12 -388790000000.0 -795090000000.0 -1.09568e+12 -717829000000.0 -1.02606e+12 -1.11221e+12 -612055000000.0 -1.59306e+12 -930844000000.0 -1.40902e+12 -1.02634e+12 -1.43224e+12 -1.90468e+12 -2.19322e+12 -808516000000.0 -1.48473e+12 -1.72676e+12 -2.98202e+12 -1.11594e+12 -3.87214e+12 -2.13878e+12 -2.29933e+12 -3.81006e+12 -1.86819e+12 -3.05756e+12 -2.65233e+12 -1.8872e+12 -3.32991e+12 -4.09111e+12 -2.95344e+12 -3.67112e+12 -1.05847e+12 -1.89705e+12 -3.13428e+12 -4.48346e+12 -1.44336e+12 -2.64353e+12 -3.49156e+12 -3.80507e+12 -3.63895e+12 -2.18535e+12 -2.4093e+12 -1.63975e+12 -4.35746e+12 -4.75984e+12 -2.45061e+12 -4.1113e+12 -2.44842e+12 -2.37145e+12 -1.85876e+12 -4.06242e+12 -4.12114e+12 -4.35384e+12 -3.97089e+12 -3.95481e+12 -4.01933e+12 -5.77397e+12 -2.05003e+12 -1.66711e+12 -3.06609e+12 -4.71222e+12 -2.5103e+12 -2.4925e+12 -2.52743e+12 -4.20388e+12 -3.63008e+12 -2.60767e+12 -1.21213e+12 -4.51014e+12 -1.26482e+12 -3.31264e+12 -2.50477e+12 -1.32221e+12 -409613000000.0 -3.46558e+12 -472682000000.0 -2.05528e+12 -2.18829e+12 -2.37701e+12 -2.5595e+12 -2.58815e+12 -2.32945e+12 -2.4657e+12 -2.41317e+12 -2.62309e+12 -3.14254e+12 -2.99465e+12 -2.6011e+12 -2.53781e+12 -1.84067e+12 -857325000000.0 -1.89667e+12 -2.24029e+12 -2.08166e+12 -3.1807e+12 -1.42608e+12 -2.09449e+12 -614873000000.0 -1.08549e+12 -1.55716e+12 -1.84533e+12 -124124000000.0 -1.7894e+12 -869582000000.0 -1.33004e+12 -1.61015e+12 -1.39086e+12 -447990000000.0 -686042000000.0 -655450000000.0 -638939000000.0 -837875000000.0 -585290000000.0 -1.23571e+12 -563694000000.0 -762653000000.0 -693780000000.0 -493292000000.0 -1.38466e+12 -1.09181e+12 -353532000000.0 -1.02956e+12 -535074000000.0 -325099000000.0 -843741000000.0 -493778000000.0 -1.02164e+12 -945853000000.0 -1.4119e+12 -457430000000.0 -440597000000.0 -1.30651e+12 -1.3038e+12 -985515000000.0 -44414200000.0 -1.32009e+12 -1.06602e+12 -1.1507e+12 -762270000000.0 -691237000000.0 -761222000000.0 -1.37312e+12 -1.05515e+12 -2.25897e+12 -2.63453e+12 -309514000000.0 -1.3193e+12 -1.32938e+12 -1.0253e+12 -1.33014e+12 -1.55064e+12 -3.06235e+12 -1.82e+12 -1.72726e+12 -1.99242e+12 -4.00489e+12 -2.9787e+12 -294121000000.0 -3.07418e+12 -3.29604e+12 -3.25495e+12 -2.01648e+12 -2.71295e+12 -3.26637e+12 -2.97324e+12 -3.50836e+12 -3.2779e+12 -3.50969e+12 -835291000000.0 -1.52201e+12 -3.60987e+12 -2.75859e+12 -2.44553e+12 -3.32624e+12 -2.79987e+12 -1.96455e+12 -4.21639e+12 -2.5404e+12 -2.20872e+12 -2.46685e+12 -2.3712e+12 -2.11503e+12 -1.96843e+12 -1.98267e+12 -1.40905e+12 -3.00929e+12 -4.6732e+12 -2.62796e+12 -2.74896e+12 -2.30404e+12 -1.62635e+12 -1.24146e+12 -3.63755e+12 -2.91444e+12 -1.56209e+12 -3.24058e+12 -3.92125e+12 -2.25918e+12 -1.25009e+12 -3.02479e+12 -2.88766e+12 -2.69813e+12 -1.90174e+12 -2.43896e+12 -2.75519e+12 -2.23689e+12 -1.27915e+12 -1.46052e+12 -2.25991e+12 -3.3418e+12 -1.21513e+12 -3.74285e+12 -3.28834e+12 -3.44997e+12 -2.60365e+12 -3.10091e+12 -2.48054e+12 -1.5071e+12 -1.85097e+12 -1.22637e+12 -1.27195e+12 -2.32334e+12 -1.78371e+12 -1.01239e+12 -1.61429e+12 -1.28352e+12 -1.13789e+12 -913742000000.0 -516375000000.0 -715511000000.0 -575494000000.0 -372822000000.0 -941303000000.0 -720839000000.0 -382144000000.0 -693380000000.0 -605304000000.0 -588951000000.0 -573513000000.0 -645448000000.0 -725430000000.0 -1.19733e+12 -89074900000.0 -99982000000.0 -324675000000.0 -412382000000.0 -448942000000.0 -258550000000.0 -812440000000.0 -233099000000.0 -1.36604e+12 -1.22165e+12 -1.09878e+12 -1.2016e+12 -1.84576e+12 -562515000000.0 -1.2065e+12 -1.27337e+12 -838426000000.0 -119197000000.0 -1.03025e+12 -742940000000.0 -700484000000.0 -583852000000.0 -2.57366e+12 -394249000000.0 -1.81562e+12 -1.60564e+12 -1.41191e+12 -837836000000.0 -1.15246e+12 -2.03318e+12 -2.86273e+12 -1.04544e+12 -1.81328e+12 -924537000000.0 -1.16027e+12 -637747000000.0 -810972000000.0 -2.55496e+12 -1.02166e+12 -955055000000.0 -1.69139e+12 -2.05514e+12 -1.80625e+12 -1.64222e+12 -2.1546e+12 -2.46533e+12 -2.32812e+12 -2.76434e+12 -1.92945e+12 -2.7064e+12 -2.04138e+12 -2.83305e+12 -3.14914e+12 -1.69562e+12 -3.1898e+12 -2.78435e+12 -2.1036e+12 -1.42779e+12 -2.4456e+12 -2.98159e+12 -2.2422e+12 -1.25633e+12 -2.92909e+12 -2.86008e+12 -2.08864e+12 -1.82007e+12 -4.37144e+12 -2.55034e+12 -2.00367e+12 -2.45463e+12 -1.00737e+12 -1.71004e+12 -2.75833e+12 -2.67811e+12 -2.7071e+12 -4.15048e+12 -1.85345e+12 -1.82889e+12 -1.95494e+12 -3.74744e+12 -3.18724e+12 -1.92303e+12 -838850000000.0 -1.79902e+12 -1.58705e+12 -2.56732e+12 -1.37868e+12 -1.6809e+12 -2.62314e+12 -2.40591e+12 -3.20972e+12 -1.65751e+12 -1.33328e+12 -1.22849e+12 -770503000000.0 -1.05539e+12 -1.67653e+12 -1.89895e+12 -2.19029e+12 -1.5743e+12 -1.08385e+12 -854734000000.0 -1.35417e+12 -590205000000.0 -1.23584e+12 -1.58862e+12 -2.22019e+12 -816644000000.0 -446327000000.0 -639105000000.0 -647707000000.0 -578553000000.0 -25212700000.0 -328615000000.0 -438657000000.0 -474471000000.0 -385115000000.0 -397479000000.0 -599999000000.0 -349899000000.0 -353353000000.0 -932511000000.0 -823648000000.0 -693482000000.0 -686796000000.0 -1.03654e+12 -370799000000.0 -801140000000.0 -777260000000.0 -306666000000.0 -634863000000.0 -773768000000.0 -1.0734e+12 -706662000000.0 -734878000000.0 -661159000000.0 -1.3422e+12 -289113000000.0 -690401000000.0 -768111000000.0 -1.74623e+12 -1.35537e+12 -1.7454e+12 -857982000000.0 -1.24813e+12 -1.26847e+12 -1.11011e+12 -1.69407e+12 -2.16985e+12 -789064000000.0 -1.25518e+12 -848770000000.0 -1.46758e+12 -1.71322e+12 -1.58544e+12 -2.04656e+12 -1.62155e+12 -2.19083e+12 -446982000000.0 -2.11766e+12 -2.99641e+12 -1.51482e+12 -1.45497e+12 -2.58548e+12 -2.20448e+12 -2.31127e+12 -2.77541e+12 -2.68358e+12 -2.51141e+12 -2.71391e+12 -2.20401e+12 -1.63039e+12 -2.66877e+12 -2.29425e+12 -2.92517e+12 -3.01564e+12 -1.76221e+12 -1.6163e+12 -2.49657e+12 -3.53304e+12 -2.35566e+12 -2.40184e+12 -1.72365e+12 -2.59072e+12 -1.33151e+12 -3.95806e+12 -826107000000.0 -1.81072e+12 -2.24058e+12 -1.82863e+12 -61514300000.0 -2.89434e+12 -896791000000.0 -914368000000.0 -2.80446e+12 -1.63077e+12 -2.76792e+12 -1.98941e+12 -2.3569e+12 -1.16106e+12 -2.44746e+12 -1.1809e+12 -2.87918e+12 -1.15876e+12 -681158000000.0 -2.07247e+12 -2.21726e+12 -1.86386e+12 -1.52566e+12 -2.00274e+12 -440465000000.0 -1.2856e+12 -736002000000.0 -1.43477e+12 -1.15473e+12 -654390000000.0 -1.6602e+12 -1.72479e+12 -313437000000.0 -702632000000.0 -568344000000.0 -469275000000.0 -1.0068e+12 -717267000000.0 -942292000000.0 -517329000000.0 -298116000000.0 -401766000000.0 -555089000000.0 -395811000000.0 -171413000000.0 -368728000000.0 -289651000000.0 -232184000000.0 -367891000000.0 -498326000000.0 -453000000000.0 -600072000000.0 -1.01058e+12 -677280000000.0 -462748000000.0 -631296000000.0 -402865000000.0 -27393000000.0 -203362000000.0 -521334000000.0 -130425000000.0 -1.02449e+12 -639646000000.0 -1.06878e+12 -490974000000.0 -537267000000.0 -926369000000.0 -1.31311e+12 -1.02856e+12 -1.09618e+12 -1.50912e+12 -835151000000.0 -1.43839e+12 -1.36059e+12 -590325000000.0 -936600000000.0 -1.16475e+12 -934101000000.0 -1.1127e+12 -2.03946e+12 -648407000000.0 -1.09041e+12 -1.16892e+12 -1.93096e+12 -849892000000.0 -1.86737e+12 -1.78638e+12 -1.71435e+12 -960297000000.0 -3.05286e+12 -1.71929e+12 -1.1347e+12 -2.51348e+12 -847138000000.0 -2.27511e+12 -1.90572e+12 -2.07309e+12 -1.73306e+12 -1.63967e+12 -1.11543e+12 -1.04734e+12 -2.91225e+12 -3.14747e+12 -1.37164e+12 -2.10132e+12 -2.20358e+12 -2.80242e+12 -1.39695e+12 -1.0145e+12 -3.64815e+12 -1.7858e+12 -3.0259e+12 -1.84281e+12 -1.63679e+12 -1.97681e+12 -2.03091e+12 -2.06249e+12 -2.0927e+12 -1.44796e+12 -2.00967e+12 -2.2202e+12 -1.38504e+12 -849229000000.0 -1.62044e+12 -1.25329e+12 -243421000000.0 -1.85804e+12 -1.05065e+12 -1.8447e+12 -1.34005e+12 -1.92861e+12 -2.20921e+12 -2.14765e+12 -788891000000.0 -539160000000.0 -1.03837e+12 -939019000000.0 -912205000000.0 -1.65323e+12 -1.1608e+12 -1.30011e+12 -426252000000.0 -906155000000.0 -998350000000.0 -461540000000.0 -359129000000.0 -678144000000.0 -920562000000.0 -262405000000.0 -855643000000.0 -772641000000.0 -1.158e+12 -392101000000.0 -483693000000.0 -88960100000.0 -214664000000.0 -177535000000.0 -284949000000.0 -230088000000.0 -234863000000.0 -448649000000.0 -128120000000.0 -105415000000.0 -121365000000.0 -119184000000.0 -659441000000.0 -495480000000.0 -657480000000.0 -314762000000.0 -493060000000.0 -288284000000.0 -436396000000.0 -446416000000.0 -138315000000.0 -694436000000.0 -994973000000.0 -505621000000.0 -421808000000.0 -724976000000.0 -490778000000.0 -660910000000.0 -778083000000.0 -1.59284e+12 -1.04985e+12 -932882000000.0 -1.38792e+12 -853884000000.0 -1.38266e+12 -1.6555e+12 -1.3007e+12 -551368000000.0 -420976000000.0 -1.43325e+12 -1.24462e+12 -1.0629e+12 -1.93986e+12 -2.32004e+12 -1.75287e+12 -1.04327e+12 -540993000000.0 -2.4668e+12 -1.5929e+12 -780777000000.0 -1.49706e+12 -1.02107e+12 -1.47605e+12 -1.33874e+12 -2.23294e+12 -581086000000.0 -2.74247e+12 -1.18477e+12 -1.14267e+12 -384413000000.0 -1.44791e+12 -2.1841e+12 -2.19931e+12 -2.48065e+12 -198375000000.0 -1.91296e+12 -2.11979e+12 -2.45789e+12 -2.37297e+12 -1.8198e+12 -1.56804e+12 -1.8902e+12 -1.63818e+12 -1.53317e+12 -1.16883e+12 -1.16337e+12 -2.01804e+12 -1.15414e+12 -2.04116e+12 -1.58049e+12 -1.29981e+12 -1.39368e+12 -1.59719e+12 -1.16836e+12 -1.30146e+12 -765254000000.0 -1.23932e+12 -1.81411e+12 -1.27022e+12 -1.42647e+12 -1.04537e+12 -1.10277e+12 -1.42105e+12 -632534000000.0 -751839000000.0 -464172000000.0 -995313000000.0 -1.56352e+12 -1.43394e+12 -329130000000.0 -1.06805e+12 -517989000000.0 -603750000000.0 -523067000000.0 -424930000000.0 -567177000000.0 -337305000000.0 -602223000000.0 -832957000000.0 -574657000000.0 -220557000000.0 -638625000000.0 -120938000000.0 -205073000000.0 -308347000000.0 -169086000000.0 -92181400000.0 -280529000000.0 -422734000000.0 -263517000000.0 -442223000000.0 -435150000000.0 -253315000000.0 -277964000000.0 -345588000000.0 -399884000000.0 -422309000000.0 -582417000000.0 -546469000000.0 -287448000000.0 -264356000000.0 -544163000000.0 -379064000000.0 -202830000000.0 -302147000000.0 -444110000000.0 -265458000000.0 -577462000000.0 -456078000000.0 -24128800000.0 -809215000000.0 -338296000000.0 -844143000000.0 -1.37776e+12 -682653000000.0 -866834000000.0 -1.49165e+12 -699260000000.0 -964273000000.0 -1.20259e+12 -933923000000.0 -1.42903e+12 -1.02389e+12 -543451000000.0 -897524000000.0 -1.25061e+12 -1.74474e+12 -1.20327e+12 -538379000000.0 -1.4558e+12 -1.9057e+12 -1.76859e+12 -1.25721e+12 -1.63777e+12 -2.00809e+12 -1.48548e+12 -1.53939e+12 -1.46234e+12 -1.44879e+12 -1.41344e+12 -1.04286e+12 -780029000000.0 -763425000000.0 -1.22112e+12 -1.06138e+12 -658120000000.0 -1.08596e+12 -131256000000.0 -1.6922e+12 -627229000000.0 -791722000000.0 -1.15655e+12 -1.31962e+12 -1.31432e+12 -963487000000.0 -498590000000.0 -936348000000.0 -800598000000.0 -866924000000.0 -1.77717e+12 -383143000000.0 -1.09147e+12 -1.13842e+12 -1.08103e+12 -924063000000.0 -1.14538e+12 -985049000000.0 -670654000000.0 -942218000000.0 -1.33629e+12 -825303000000.0 -387361000000.0 -714231000000.0 -542903000000.0 -301919000000.0 -585964000000.0 -460781000000.0 -294685000000.0 -557154000000.0 -557898000000.0 -405013000000.0 -474889000000.0 -271848000000.0 -409795000000.0 -234549000000.0 -538690000000.0 -335872000000.0 -82805500000.0 -516506000000.0 -121074000000.0 -290018000000.0 -31683800000.0 -204624000000.0 -253353000000.0 -90785600000.0 -289459000000.0 -236754000000.0 -243725000000.0 -231424000000.0 -92249100000.0 -16227000000.0 -440478000000.0 -20914200000.0 -661698000000.0 -198595000000.0 -176169000000.0 -389977000000.0 -301288000000.0 -138032000000.0 -389062000000.0 -1.0107e+12 -621027000000.0 -596276000000.0 -165696000000.0 -722782000000.0 -72932800000.0 -436492000000.0 -173248000000.0 -761062000000.0 -1.31381e+12 -1.00517e+12 -954861000000.0 -1.01733e+12 -338608000000.0 -724293000000.0 -993544000000.0 -568440000000.0 -32070200000.0 -662992000000.0 -1.50725e+12 -958154000000.0 -397383000000.0 -572632000000.0 -776434000000.0 -744086000000.0 -837872000000.0 -1.5683e+12 -1.10688e+12 -1.65051e+12 -886213000000.0 -972946000000.0 -816089000000.0 -1.58938e+12 -627827000000.0 -1.80465e+12 -329340000000.0 -694200000000.0 -184204000000.0 -1.45654e+12 -2.09124e+12 -620346000000.0 -1.07445e+12 -1.02383e+12 -1.49509e+12 -3.13619e+12 -1.33263e+12 -1.61079e+12 -1.22541e+12 -563976000000.0 -822590000000.0 -1.30024e+12 -20989300000.0 -475078000000.0 -1.39717e+12 -759607000000.0 -1.20345e+12 -788579000000.0 -418342000000.0 -737044000000.0 -368112000000.0 -443139000000.0 -1.28344e+12 -730003000000.0 -846064000000.0 -874196000000.0 -1.39757e+12 -1.36116e+12 -1.1104e+12 -1.33212e+12 -1.01943e+12 -752444000000.0 -1.19983e+12 -381528000000.0 -804609000000.0 -977046000000.0 -434713000000.0 -594869000000.0 -788257000000.0 -400743000000.0 -685718000000.0 -695418000000.0 -210900000000.0 -440654000000.0 -120328000000.0 -633331000000.0 -276375000000.0 -200594000000.0 -214743000000.0 -130475000000.0 -265480000000.0 -516687000000.0 -48982300000.0 -248007000000.0 -527257000000.0 -150571000000.0 -65140500000.0 -188381000000.0 -67096900000.0 -101662000000.0 -152204000000.0 -183516000000.0 -116542000000.0 -42413400000.0 -81109900000.0 -54327900000.0 -136798000000.0 -136172000000.0 -187882000000.0 -309703000000.0 -325784000000.0 -310783000000.0 -99438200000.0 -527588000000.0 -143007000000.0 -557373000000.0 -667835000000.0 -439235000000.0 -449597000000.0 -365694000000.0 -351802000000.0 -582797000000.0 -203398000000.0 -350010000000.0 -399603000000.0 -893426000000.0 -480107000000.0 -604447000000.0 -299946000000.0 -1.00781e+12 -1.18643e+12 -1.62276e+12 -1.07496e+12 -1.1734e+12 -518483000000.0 -592447000000.0 -1.305e+12 -510371000000.0 -1.07112e+12 -843221000000.0 -799865000000.0 -1.41736e+12 -749109000000.0 -803132000000.0 -1.11407e+12 -1.11003e+12 -635820000000.0 -1.51238e+12 -777694000000.0 -1.12133e+12 -448444000000.0 -1.09496e+12 -777307000000.0 -696051000000.0 -992894000000.0 -544057000000.0 -708297000000.0 -711371000000.0 -697597000000.0 -512619000000.0 -722816000000.0 -590677000000.0 -414804000000.0 -267217000000.0 -282707000000.0 -608595000000.0 -313449000000.0 -629596000000.0 -608208000000.0 -609399000000.0 -140853000000.0 -252047000000.0 -1.35953e+12 -652567000000.0 -544204000000.0 -779708000000.0 -457648000000.0 -625073000000.0 -308497000000.0 -405991000000.0 -274549000000.0 -640281000000.0 -355638000000.0 -110827000000.0 -391758000000.0 -321801000000.0 -318228000000.0 -343877000000.0 -334881000000.0 -259939000000.0 -122520000000.0 -185547000000.0 -166450000000.0 -260473000000.0 -458863000000.0 -116719000000.0 -143179000000.0 -136761000000.0 -56393900000.0 -38983000000.0 -65635700000.0 -120981000000.0 -103059000000.0 -46786300000.0 -53589800000.0 -52990500000.0 -12549700000.0 -78123400000.0 -67665000000.0 -191476000000.0 -147637000000.0 -318751000000.0 -143225000000.0 -333846000000.0 -327660000000.0 -339659000000.0 -141222000000.0 -57151100000.0 -255050000000.0 -443675000000.0 -275719000000.0 -201368000000.0 -43618000000.0 -98384800000.0 -519685000000.0 -104126000000.0 -454042000000.0 -567579000000.0 -1.04598e+12 -442316000000.0 -336738000000.0 -220607000000.0 -181414000000.0 -291438000000.0 -280652000000.0 -791357000000.0 -472342000000.0 -328583000000.0 -574763000000.0 -1.55504e+12 -558515000000.0 -960653000000.0 -531883000000.0 -439676000000.0 -622971000000.0 -897270000000.0 -1.39629e+12 -1.12799e+12 -1.71697e+12 -444778000000.0 -379094000000.0 -312040000000.0 -946675000000.0 -834996000000.0 -640610000000.0 -606294000000.0 -622357000000.0 -985052000000.0 -519686000000.0 -734856000000.0 -1.31292e+12 -373203000000.0 -1.22171e+12 -347904000000.0 -309668000000.0 -369250000000.0 -445958000000.0 -738051000000.0 -466290000000.0 -636388000000.0 -656150000000.0 -200519000000.0 -854929000000.0 -586937000000.0 -478700000000.0 -187708000000.0 -259520000000.0 -422626000000.0 -263565000000.0 -662052000000.0 -376236000000.0 -671563000000.0 -788717000000.0 -834548000000.0 -491184000000.0 -343567000000.0 -331768000000.0 -502903000000.0 -121355000000.0 -257819000000.0 -202557000000.0 -111204000000.0 -310952000000.0 -28139500000.0 -216360000000.0 -329986000000.0 -23008000000.0 -360348000000.0 -261680000000.0 -139479000000.0 -33104500000.0 -300262000000.0 -32235200000.0 -108355000000.0 -106545000000.0 -246189000000.0 -70609000000.0 -13965900000.0 -83017300000.0 -26568800000.0 -13999700000.0 -17206000000.0 -54501400000.0 -67599100000.0 -58080300000.0 -19919200000.0 -59967500000.0 -38757100000.0 -25637200000.0 -100529000000.0 -77836100000.0 -121803000000.0 -153478000000.0 -196604000000.0 -124760000000.0 -108369000000.0 -124183000000.0 -104883000000.0 -132065000000.0 -71254700000.0 -288009000000.0 -117496000000.0 -153632000000.0 -189200000000.0 -349081000000.0 -160246000000.0 -574240000000.0 -167420000000.0 -349163000000.0 -674183000000.0 -389266000000.0 -441008000000.0 -491131000000.0 -430522000000.0 -584262000000.0 -464253000000.0 -52918800000.0 -977271000000.0 -227366000000.0 -621551000000.0 -1.08453e+12 -503014000000.0 -214332000000.0 -572809000000.0 -615025000000.0 -413299000000.0 -698682000000.0 -832936000000.0 -738952000000.0 -751261000000.0 -92041400000.0 -546327000000.0 -718513000000.0 -638001000000.0 -536881000000.0 -970350000000.0 -655488000000.0 -343113000000.0 -576090000000.0 -381655000000.0 -105580000000.0 -152372000000.0 -398321000000.0 -354356000000.0 -386020000000.0 -290236000000.0 -443631000000.0 -159087000000.0 -442949000000.0 -137709000000.0 -224839000000.0 -217513000000.0 -342017000000.0 -209258000000.0 -360591000000.0 -170016000000.0 -317615000000.0 -318724000000.0 -131561000000.0 -179216000000.0 -352488000000.0 -288733000000.0 -295755000000.0 -383317000000.0 -405548000000.0 -130468000000.0 -155539000000.0 -109158000000.0 -13754800000.0 -214437000000.0 -103490000000.0 -79214700000.0 -20644300000.0 -160466000000.0 -46586200000.0 -77708100000.0 -69418000000.0 -153954000000.0 -26433400000.0 -14095300000.0 -40196800000.0 -33734700000.0 -12549700000.0 -13051200000.0 -21088700000.0 -53129300000.0 -16016600000.0 -108371000000.0 -105537000000.0 -33032800000.0 -40947000000.0 -109035000000.0 -20426600000.0 -60530400000.0 -63473900000.0 -20549100000.0 -32188600000.0 -117315000000.0 -69641900000.0 -31476500000.0 -173087000000.0 -125648000000.0 -127017000000.0 -144429000000.0 -154585000000.0 -57033500000.0 -255436000000.0 -84939200000.0 -230312000000.0 -337858000000.0 -269962000000.0 -210966000000.0 -303365000000.0 -184463000000.0 -315139000000.0 -275852000000.0 -81561900000.0 -374787000000.0 -35558800000.0 -236766000000.0 -305639000000.0 -313508000000.0 -297901000000.0 -232972000000.0 -335173000000.0 -72252400000.0 -377687000000.0 -306720000000.0 -319468000000.0 -415165000000.0 -649980000000.0 -365245000000.0 -356934000000.0 -105108000000.0 -512915000000.0 -386309000000.0 -64135800000.0 -61002900000.0 -148986000000.0 -246347000000.0 -59002200000.0 -133679000000.0 -316900000000.0 -287559000000.0 -293459000000.0 -146815000000.0 -134674000000.0 -173469000000.0 -125500000000.0 -83669900000.0 -276783000000.0 -59126500000.0 -31434800000.0 -50440700000.0 -66470900000.0 -81504800000.0 -300881000000.0 -33973800000.0 -96897900000.0 -118879000000.0 -75475300000.0 -30940800000.0 -178392000000.0 -27121000000.0 -119807000000.0 -85009300000.0 -87405800000.0 -104287000000.0 -61540100000.0 -65846100000.0 -54132300000.0 -50772600000.0 -28883200000.0 -51152700000.0 -14577600000.0 -25891400000.0 -31016200000.0 -42254800000.0 -52108000000.0 -39019100000.0 -22633400000.0 -28745300000.0 -21848100000.0 -21458100000.0 -24575100000.0 -41046200000.0 -31307200000.0 -41686700000.0 -16723300000.0 -13724300000.0 -29323900000.0 -24263900000.0 -53294400000.0 -25470400000.0 -42068100000.0 -60800500000.0 -49535100000.0 -41434900000.0 -28256300000.0 -112675000000.0 -147008000000.0 -64612800000.0 -56630700000.0 -46065700000.0 -39967600000.0 -83147200000.0 -92563800000.0 -112874000000.0 -65854300000.0 -67516200000.0 -96886900000.0 -141825000000.0 -44239300000.0 -62201800000.0 -65892700000.0 -146728000000.0 -25146700000.0 -24818200000.0 -78274800000.0 -83890600000.0 -132494000000.0 -114631000000.0 -275718000000.0 -114350000000.0 -103100000000.0 -124440000000.0 -94502700000.0 -182802000000.0 -132256000000.0 -448831000000.0 -271207000000.0 -72630600000.0 -528405000000.0 -45908700000.0 -54655900000.0 -76228800000.0 -122118000000.0 -145158000000.0 -85837500000.0 -381798000000.0 -83915600000.0 -98338500000.0 -44808700000.0 -129069000000.0 -109772000000.0 -103857000000.0 -50228900000.0 -22637900000.0 -51401000000.0 -97907300000.0 -93892000000.0 -56167000000.0 