# vtk DataFile Version 2.0
Time step 42
ASCII
DATASET UNSTRUCTURED_GRID
POINTS 5000 float
202703.0 336515.0 0
207402.0 334226.0 0
208860.0 337595.0 0
213692.0 335088.0 0
281484.0 336765.0 0
288220.0 333699.0 0
297464.0 334832.0 0
202416.0 341540.0 0
206300.0 339294.0 0
211413.0 340129.0 0
216668.0 340021.0 0
221788.0 338584.0 0
227494.0 340570.0 0
231058.0 338569.0 0
235526.0 338980.0 0
240826.0 341441.0 0
266570.0 340556.0 0
271601.0 338066.0 0
273048.0 342297.0 0
277366.0 341365.0 0
287277.0 339486.0 0
292217.0 342137.0 0
297177.0 340098.0 0
203308.0 346706.0 0
207656.0 343406.0 0
213865.0 344509.0 0
219400.0 344888.0 0
223616.0 342658.0 0
225156.0 346635.0 0
229317.0 344880.0 0
231811.0 341835.0 0
235408.0 344560.0 0
240207.0 346745.0 0
245206.0 345571.0 0
249112.0 347655.0 0
250780.0 342406.0 0
257097.0 343164.0 0
261901.0 342556.0 0
262027.0 346936.0 0
265777.0 345270.0 0
269942.0 344686.0 0
274503.0 346361.0 0
279159.0 345953.0 0
282626.0 342730.0 0
284360.0 346435.0 0
286770.0 344283.0 0
289902.0 346001.0 0
296660.0 346143.0 0
201906.0 351137.0 0
206262.0 351400.0 0
209949.0 347912.0 0
212704.0 352328.0 0
216105.0 348784.0 0
221494.0 350267.0 0
224474.0 353143.0 0
227963.0 350953.0 0
231973.0 348110.0 0
232589.0 352243.0 0
236196.0 349568.0 0
240867.0 352014.0 0
246204.0 350991.0 0
253746.0 347519.0 0
251094.0 351258.0 0
258064.0 347755.0 0
256130.0 351775.0 0
260792.0 351209.0 0
265794.0 350113.0 0
269516.0 352796.0 0
270252.0 348746.0 0
273648.0 351376.0 0
277678.0 349684.0 0
282065.0 349542.0 0
286874.0 349263.0 0
290758.0 349262.0 0
293964.0 350426.0 0
202878.0 355400.0 0
208916.0 356386.0 0
217447.0 353016.0 0
221454.0 356107.0 0
226850.0 355840.0 0
230878.0 355439.0 0
234163.0 357423.0 0
236328.0 354040.0 0
239029.0 358145.0 0
243925.0 356060.0 0
248625.0 355546.0 0
253213.0 355330.0 0
258244.0 356354.0 0
263872.0 355658.0 0
268762.0 356436.0 0
271593.0 355152.0 0
274790.0 355617.0 0
279426.0 354314.0 0
284916.0 354034.0 0
290182.0 353402.0 0
287694.0 357649.0 0
291371.0 357234.0 0
296229.0 355163.0 0
202018.0 359576.0 0
202030.0 363341.0 0
205959.0 360848.0 0
211218.0 361837.0 0
215376.0 357891.0 0
220182.0 361453.0 0
224975.0 360440.0 0
230188.0 359880.0 0
235237.0 362647.0 0
242748.0 359655.0 0
242863.0 362584.0 0
246531.0 360264.0 0
251183.0 359821.0 0
254757.0 358537.0 0
253754.0 364104.0 0
256872.0 361177.0 0
261326.0 360950.0 0
267275.0 361635.0 0
272077.0 358751.0 0
272357.0 363305.0 0
277405.0 360287.0 0
282854.0 358482.0 0
282003.0 362147.0 0
286144.0 361652.0 0
290164.0 360344.0 0
293573.0 359720.0 0
297552.0 360712.0 0
202302.0 367105.0 0
207273.0 365794.0 0
212764.0 367044.0 0
216183.0 363601.0 0
221218.0 368687.0 0
223549.0 365633.0 0
227959.0 367863.0 0
227837.0 364096.0 0
230997.0 364177.0 0
239723.0 363731.0 0
237727.0 368278.0 0
242577.0 366993.0 0
245886.0 364492.0 0
249369.0 363920.0 0
251153.0 367398.0 0
258475.0 365466.0 0
263358.0 366066.0 0
269442.0 366827.0 0
272640.0 368083.0 0
275281.0 365823.0 0
278256.0 364525.0 0
278118.0 367211.0 0
280173.0 365500.0 0
283498.0 365796.0 0
287100.0 365681.0 0
290372.0 364022.0 0
294254.0 362876.0 0
293844.0 366997.0 0
297853.0 364803.0 0
298531.0 371007.0 0
201936.0 370861.0 0
200440.0 377431.0 0
201671.0 373827.0 0
205571.0 370070.0 0
210279.0 374021.0 0
209636.0 370266.0 0
214873.0 372404.0 0
217827.0 367912.0 0
220058.0 372376.0 0
224882.0 370989.0 0
229974.0 371752.0 0
232442.0 367895.0 0
234732.0 372690.0 0
239369.0 373223.0 0
243321.0 371594.0 0
247200.0 368742.0 0
247319.0 373647.0 0
251103.0 371648.0 0
255233.0 369084.0 0
260291.0 370627.0 0
263849.0 373857.0 0
266189.0 370267.0 0
271225.0 372136.0 0
276042.0 370352.0 0
280389.0 368808.0 0
280022.0 372861.0 0
284452.0 370254.0 0
289021.0 368582.0 0
291760.0 371503.0 0
287560.0 372790.0 0
295910.0 370433.0 0
298382.0 368146.0 0
294565.0 374171.0 0
297933.0 373935.0 0
300623.0 378514.0 0
194132.0 381615.0 0
197483.0 379683.0 0
197188.0 383201.0 0
203367.0 376521.0 0
202662.0 379783.0 0
200340.0 381350.0 0
205932.0 374220.0 0
206193.0 379649.0 0
209093.0 377472.0 0
213384.0 378167.0 0
218448.0 377155.0 0
223045.0 376180.0 0
227202.0 374984.0 0
231780.0 377309.0 0
237621.0 377988.0 0
243327.0 376602.0 0
248358.0 377831.0 0
250732.0 375406.0 0
255205.0 374965.0 0
260039.0 375797.0 0
267337.0 374894.0 0
263743.0 378324.0 0
268256.0 379504.0 0
272500.0 377080.0 0
276214.0 375063.0 0
279878.0 377512.0 0
283485.0 374841.0 0
286365.0 376704.0 0
287735.0 379840.0 0
290357.0 376391.0 0
293600.0 378738.0 0
297359.0 377207.0 0
297185.0 380853.0 0
299657.0 382439.0 0
304057.0 381605.0 0
308394.0 383200.0 0
181228.0 389018.0 0
186912.0 386181.0 0
190692.0 384266.0 0
189827.0 388313.0 0
193817.0 388951.0 0
194518.0 385524.0 0
199542.0 383769.0 0
198014.0 386963.0 0
203331.0 383111.0 0
201280.0 385786.0 0
205000.0 385787.0 0
207865.0 383619.0 0
210042.0 380476.0 0
212394.0 383652.0 0
216968.0 382082.0 0
219569.0 386116.0 0
222102.0 381089.0 0
226610.0 379276.0 0
223516.0 385454.0 0
230024.0 381888.0 0
226607.0 383341.0 0
234072.0 382533.0 0
238293.0 383280.0 0
241848.0 381223.0 0
246167.0 380867.0 0
249638.0 383670.0 0
252408.0 379827.0 0
258196.0 381566.0 0
264019.0 383130.0 0
268078.0 384689.0 0
272299.0 382004.0 0
276441.0 379826.0 0
275988.0 384788.0 0
280411.0 382956.0 0
283474.0 379632.0 0
286135.0 383568.0 0
290226.0 381352.0 0
290226.0 386055.0 0
293982.0 383761.0 0
297618.0 385000.0 0
297974.0 389088.0 0
301406.0 385712.0 0
305246.0 385710.0 0
308387.0 388340.0 0
311901.0 385820.0 0
315482.0 388493.0 0
173374.0 394267.0 0
175917.0 392520.0 0
178993.0 391294.0 0
183105.0 391025.0 0
181056.0 393460.0 0
184039.0 387784.0 0
184560.0 392733.0 0
186995.0 390941.0 0
191264.0 391067.0 0
194841.0 392164.0 0
198605.0 390416.0 0
202536.0 388225.0 0
206079.0 388292.0 0
203427.0 392183.0 0
209107.0 387241.0 0
207656.0 390897.0 0
211721.0 387519.0 0
211014.0 390970.0 0
214985.0 387803.0 0
218390.0 391174.0 0
222939.0 390146.0 0
226495.0 387214.0 0
227799.0 390832.0 0
230642.0 386265.0 0
235823.0 387914.0 0
239788.0 389623.0 0
244642.0 385295.0 0
240411.0 386502.0 0
242952.0 389490.0 0
246220.0 390080.0 0
248387.0 387808.0 0
253730.0 384398.0 0
252146.0 388532.0 0
257103.0 388539.0 0
261251.0 386168.0 0
264821.0 387883.0 0
268230.0 389733.0 0
271756.0 386898.0 0
271534.0 390959.0 0
274935.0 389887.0 0
278883.0 388471.0 0
283090.0 387101.0 0
285680.0 391191.0 0
287062.0 387865.0 0
290424.0 391135.0 0
293807.0 388133.0 0
294436.0 391882.0 0
303092.0 389766.0 0
302583.0 393337.0 0
307314.0 392556.0 0
310723.0 393866.0 0
312175.0 390770.0 0
313985.0 392503.0 0
319554.0 390784.0 0
316651.0 393009.0 0
323195.0 392149.0 0
326021.0 393119.0 0
167843.0 397724.0 0
164877.0 399379.0 0
170581.0 395708.0 0
171362.0 399041.0 0
177772.0 395118.0 0
175075.0 397371.0 0
180170.0 396920.0 0
182211.0 398642.0 0
183512.0 395161.0 0
186590.0 394420.0 0
184930.0 397930.0 0
187693.0 397032.0 0
190488.0 393891.0 0
191522.0 398023.0 0
195231.0 395461.0 0
199128.0 394614.0 0
198962.0 398252.0 0
202684.0 396938.0 0
207082.0 395232.0 0
211098.0 395289.0 0
214444.0 392888.0 0
216844.0 395391.0 0
220607.0 394884.0 0
225050.0 394832.0 0
229369.0 395301.0 0
231926.0 391448.0 0
235162.0 393482.0 0
238283.0 392829.0 0
241550.0 392480.0 0
245173.0 394202.0 0
249416.0 392276.0 0
254178.0 394189.0 0
259295.0 393774.0 0
261590.0 390388.0 0
264900.0 393482.0 0
269601.0 393905.0 0
273679.0 394060.0 0
277734.0 393476.0 0
281264.0 395143.0 0
284202.0 394311.0 0
281673.0 391532.0 0
287661.0 395433.0 0
290892.0 395050.0 0
293939.0 395958.0 0
298678.0 394308.0 0
301867.0 397475.0 0
305724.0 395658.0 0
309586.0 397085.0 0
313838.0 395820.0 0
314353.0 399080.0 0
318123.0 395842.0 0
318315.0 399132.0 0
321299.0 394980.0 0
324604.0 395421.0 0
321851.0 398424.0 0
324717.0 398258.0 0
328134.0 396052.0 0
328722.0 399789.0 0
331595.0 396882.0 0
156871.0 404647.0 0
162347.0 401304.0 0
159599.0 402907.0 0
167474.0 401683.0 0
164151.0 403783.0 0
170961.0 403885.0 0
178116.0 399961.0 0
174521.0 402048.0 0
177435.0 404394.0 0
181405.0 401822.0 0
184922.0 400814.0 0
188236.0 400813.0 0
192254.0 401572.0 0
195470.0 399231.0 0
194595.0 402973.0 0
197519.0 401973.0 0
201234.0 400922.0 0
205242.0 399880.0 0
209196.0 399094.0 0
211455.0 401627.0 0
213643.0 398015.0 0
217772.0 399159.0 0
222131.0 399472.0 0
226679.0 399479.0 0
230669.0 399523.0 0
232960.0 396168.0 0
234091.0 399598.0 0
236918.0 397426.0 0
240033.0 400519.0 0
240842.0 396454.0 0
244085.0 399058.0 0
249183.0 397776.0 0
253483.0 399389.0 0
257801.0 398719.0 0
261952.0 397159.0 0
265202.0 399330.0 0
267893.0 397170.0 0
272046.0 398095.0 0
268674.0 401114.0 0
275861.0 397080.0 0
276071.0 401469.0 0
279171.0 398095.0 0
282177.0 400021.0 0
283909.0 397766.0 0
287165.0 399492.0 0
284774.0 402269.0 0
291127.0 399006.0 0
297025.0 397866.0 0
295144.0 400533.0 0
299466.0 400450.0 0
305069.0 398982.0 0
303744.0 401429.0 0
307642.0 399493.0 0
311104.0 400309.0 0
307781.0 402630.0 0
312027.0 404292.0 0
314970.0 402416.0 0
318840.0 402988.0 0
325471.0 401222.0 0
322528.0 401362.0 0
325990.0 404712.0 0
329233.0 403015.0 0
337005.0 400701.0 0
333553.0 399797.0 0
337524.0 403527.0 0
339894.0 402292.0 0
342047.0 404216.0 0
151154.0 408073.0 0
148675.0 410103.0 0
154121.0 406784.0 0
156208.0 409054.0 0
161279.0 405032.0 0
158906.0 406739.0 0
161960.0 407157.0 0
167449.0 405159.0 0
165078.0 407099.0 0
172062.0 408238.0 0
169115.0 407547.0 0
174086.0 406024.0 0
176416.0 409064.0 0
181175.0 406348.0 0
185348.0 404301.0 0
186561.0 407918.0 0
190003.0 404561.0 0
190372.0 408869.0 0
194375.0 406370.0 0
199019.0 405323.0 0
201836.0 408094.0 0
203319.0 403869.0 0
207444.0 403211.0 0
204987.0 406198.0 0
207726.0 406994.0 0
211221.0 405642.0 0
215030.0 402271.0 0
215688.0 406280.0 0
219482.0 403608.0 0
222137.0 406328.0 0
224187.0 403631.0 0
228105.0 404002.0 0
232255.0 403373.0 0
236449.0 401977.0 0
234904.0 406320.0 0
239260.0 405120.0 0
242970.0 402994.0 0
243069.0 406491.0 0
246685.0 402256.0 0
250816.0 403324.0 0
255231.0 402626.0 0
253553.0 406654.0 0
256942.0 405575.0 0
259250.0 402951.0 0
262203.0 401147.0 0
262582.0 404615.0 0
265760.0 403621.0 0
272066.0 402684.0 0
274629.0 406345.0 0
278353.0 406119.0 0
280238.0 402582.0 0
282747.0 406020.0 0
286957.0 406194.0 0
289032.0 403114.0 0
290694.0 407899.0 0
292760.0 403376.0 0
294124.0 406711.0 0
297556.0 404927.0 0
301184.0 406467.0 0
301513.0 403894.0 0
304942.0 405379.0 0
302980.0 408350.0 0
309159.0 406955.0 0
316364.0 406640.0 0
313381.0 409134.0 0
321026.0 407075.0 0
322945.0 404335.0 0
324915.0 408961.0 0
333107.0 404258.0 0
329005.0 406630.0 0
336968.0 406393.0 0
332674.0 408473.0 0
340161.0 406727.0 0
339407.0 409739.0 0
344913.0 406071.0 0
343346.0 408719.0 0
347869.0 407898.0 0
351153.0 409518.0 0
141031.0 414389.0 0
142939.0 412943.0 0
145779.0 412241.0 0
152701.0 410501.0 0
150455.0 413198.0 0
155402.0 411859.0 0
153508.0 414421.0 0
159750.0 409782.0 0
157824.0 413404.0 0
160918.0 412765.0 0
166007.0 409970.0 0
162799.0 409605.0 0
164149.0 412408.0 0
168675.0 410551.0 0
172000.0 411501.0 0
167534.0 413470.0 0
174708.0 413259.0 0
178104.0 413024.0 0
179896.0 410194.0 0
181107.0 412492.0 0
183293.0 409936.0 0
183537.0 413570.0 0
186911.0 412448.0 0
191143.0 412326.0 0
193847.0 410370.0 0
194323.0 413816.0 0
197540.0 410151.0 0
201216.0 412354.0 0
205017.0 409709.0 0
208939.0 410060.0 0
212636.0 410005.0 0
216151.0 410251.0 0
219008.0 408088.0 0
218875.0 412472.0 0
222044.0 409501.0 0
225749.0 408019.0 0
223850.0 412395.0 0
230248.0 408089.0 0
233633.0 409753.0 0
237506.0 409684.0 0
240840.0 408694.0 0
243996.0 410028.0 0
246872.0 406575.0 0
250316.0 408031.0 0
253152.0 411917.0 0
256222.0 408822.0 0
260458.0 408023.0 0
265313.0 408732.0 0
269799.0 406514.0 0
269412.0 411470.0 0
273369.0 410178.0 0
277010.0 409711.0 0
279542.0 412288.0 0
280850.0 409484.0 0
285460.0 410092.0 0
289147.0 411710.0 0
292689.0 412292.0 0
295508.0 409943.0 0
297637.0 412278.0 0
299656.0 409640.0 0
306274.0 409370.0 0
303385.0 411416.0 0
307026.0 412543.0 0
310150.0 411101.0 0
315984.0 412817.0 0
318328.0 409850.0 0
321356.0 410712.0 0
320499.0 413640.0 0
329340.0 410676.0 0
335904.0 409918.0 0
332815.0 411838.0 0
335669.0 414220.0 0
338799.0 412499.0 0
342202.0 411235.0 0
341137.0 414129.0 0
346728.0 410648.0 0
345130.0 412847.0 0
347744.0 414319.0 0
350233.0 412357.0 0
354277.0 411577.0 0
353869.0 414145.0 0
357363.0 413174.0 0
360162.0 414937.0 0
129886.0 421030.0 0
136107.0 417057.0 0
134145.0 418484.0 0
138750.0 416507.0 0
136512.0 420598.0 0
140850.0 418694.0 0
143417.0 416449.0 0
146520.0 415875.0 0
143719.0 419703.0 0
146695.0 419605.0 0
149967.0 416709.0 0
150027.0 419634.0 0
152278.0 416806.0 0
155653.0 416460.0 0
153823.0 419344.0 0
158741.0 416291.0 0
161204.0 415475.0 0
157817.0 419097.0 0
161116.0 419272.0 0
164625.0 416572.0 0
170269.0 414994.0 0
168255.0 418578.0 0
173278.0 416490.0 0
181102.0 415946.0 0
177016.0 416904.0 0
180056.0 419494.0 0
184770.0 416997.0 0
189820.0 416469.0 0
197625.0 414272.0 0
194661.0 417852.0 0
198952.0 417003.0 0
201555.0 415725.0 0
206102.0 414381.0 0
210597.0 413140.0 0
210669.0 416740.0 0
214253.0 414156.0 0
221517.0 415674.0 0
217420.0 417258.0 0
225313.0 416751.0 0
227581.0 412378.0 0
231321.0 412821.0 0
229320.0 416655.0 0
234808.0 412497.0 0
233987.0 416998.0 0
237765.0 414476.0 0
240853.0 412388.0 0
243762.0 414203.0 0
247836.0 411991.0 0
246116.0 417097.0 0
250321.0 416428.0 0
254086.0 416509.0 0
256712.0 415190.0 0
258235.0 412197.0 0
262607.0 412873.0 0
259921.0 415567.0 0
266200.0 413662.0 0
272532.0 414037.0 0
276267.0 414029.0 0
280222.0 416188.0 0
283023.0 413330.0 0
284199.0 417815.0 0
286844.0 414817.0 0
290645.0 415603.0 0
295788.0 416004.0 0
300611.0 414649.0 0
304303.0 414621.0 0
303948.0 418396.0 0
307180.0 415837.0 0
311893.0 415385.0 0
315571.0 417887.0 0
318552.0 416790.0 0
322386.0 418430.0 0
325404.0 414505.0 0
331125.0 414909.0 0
329160.0 418122.0 0
331933.0 419786.0 0
334011.0 417725.0 0
338777.0 416834.0 0
344310.0 415862.0 0
342363.0 419254.0 0
351308.0 415482.0 0
348247.0 417697.0 0
351279.0 419680.0 0
353233.0 417675.0 0
355938.0 416087.0 0
355466.0 419741.0 0
358743.0 417130.0 0
361704.0 418509.0 0
363046.0 416722.0 0
365816.0 418777.0 0
124686.0 424599.0 0
127903.0 423400.0 0
132100.0 419848.0 0
133516.0 422182.0 0
131542.0 423278.0 0
131819.0 425080.0 0
135325.0 424294.0 0
139499.0 421913.0 0
142896.0 423128.0 0
146497.0 423734.0 0
149903.0 422928.0 0
152794.0 422297.0 0
154922.0 424485.0 0
156788.0 421730.0 0
159987.0 423140.0 0
164602.0 421916.0 0
168147.0 423738.0 0
172244.0 420788.0 0
176389.0 420425.0 0
178645.0 422777.0 0
181399.0 423622.0 0
182817.0 420365.0 0
184343.0 422933.0 0
186971.0 420519.0 0
189370.0 422758.0 0
191089.0 420164.0 0
193505.0 422978.0 0
198019.0 420928.0 0
202762.0 419428.0 0
206889.0 419086.0 0
209888.0 421153.0 0
213830.0 418867.0 0
213200.0 423034.0 0
221058.0 419350.0 0
217277.0 422343.0 0
224082.0 420800.0 0
227489.0 420678.0 0
231072.0 420698.0 0
235774.0 421566.0 0
240656.0 418712.0 0
244979.0 421038.0 0
248676.0 420515.0 0
253084.0 420711.0 0
257877.0 419175.0 0
263842.0 418631.0 0
269464.0 417288.0 0
272589.0 421329.0 0
274337.0 418018.0 0
277401.0 418647.0 0
276658.0 423018.0 0
280942.0 420664.0 0
285372.0 422542.0 0
288245.0 419246.0 0
292620.0 419863.0 0
296568.0 420579.0 0
300107.0 420031.0 0
301693.0 423544.0 0
304754.0 422859.0 0
308601.0 420141.0 0
313611.0 421392.0 0
318693.0 421612.0 0
326472.0 420186.0 0
323537.0 423050.0 0
327261.0 424213.0 0
329754.0 422218.0 0
336443.0 419931.0 0
334069.0 422163.0 0
339457.0 420978.0 0
338416.0 424047.0 0
346292.0 420972.0 0
342573.0 423799.0 0
349408.0 422256.0 0
353188.0 422897.0 0
356657.0 423714.0 0
358633.0 420764.0 0
361469.0 422879.0 0
364015.0 420750.0 0
366838.0 423539.0 0
368680.0 421066.0 0
371982.0 423067.0 0
369742.0 425396.0 0
374828.0 425302.0 0
115718.0 430918.0 0
119081.0 428259.0 0
122020.0 426623.0 0
125733.0 427955.0 0
121996.0 429974.0 0
124385.0 430599.0 0
129082.0 426425.0 0
128339.0 430142.0 0
131486.0 428548.0 0
133685.0 426394.0 0
135700.0 428293.0 0
138121.0 425352.0 0
141742.0 426341.0 0
139169.0 429250.0 0
144481.0 427975.0 0
151572.0 426047.0 0
148213.0 427477.0 0
153034.0 429132.0 0
155819.0 427448.0 0
158053.0 425564.0 0
159250.0 427795.0 0
163008.0 426635.0 0
170916.0 425467.0 0
167251.0 427626.0 0
171200.0 428787.0 0
174827.0 424925.0 0
178902.0 427820.0 0
186507.0 424612.0 0
183105.0 426181.0 0
185897.0 428355.0 0
189604.0 426157.0 0
193382.0 428269.0 0
197323.0 425453.0 0
201565.0 423864.0 0
200266.0 427566.0 0
203912.0 427233.0 0
205944.0 423333.0 0
206702.0 426817.0 0
209845.0 426184.0 0
214241.0 426790.0 0
218433.0 427166.0 0
221262.0 423341.0 0
225025.0 424182.0 0
222298.0 426625.0 0
228689.0 425233.0 0
232522.0 424191.0 0
235811.0 427055.0 0
239114.0 424283.0 0
242717.0 424480.0 0
247095.0 424646.0 0
250931.0 424308.0 0
252983.0 427311.0 0
256365.0 424488.0 0
260506.0 423266.0 0
260664.0 427561.0 0
264563.0 424961.0 0
268453.0 422581.0 0
272131.0 425011.0 0
274912.0 427994.0 0
278923.0 426997.0 0
281265.0 424703.0 0
283927.0 425710.0 0
286396.0 426702.0 0
290541.0 424765.0 0
295429.0 423556.0 0
295467.0 427834.0 0
298861.0 424540.0 0
299587.0 428487.0 0
302786.0 426705.0 0
306515.0 427422.0 0
309348.0 424742.0 0
313046.0 425516.0 0
314681.0 428745.0 0
316765.0 425503.0 0
320908.0 426289.0 0
325087.0 427195.0 0
331779.0 425378.0 0
328876.0 427611.0 0
335154.0 425165.0 0
333533.0 428867.0 0
336521.0 427804.0 0
339649.0 427603.0 0
342835.0 427346.0 0
342558.0 430423.0 0
346958.0 425057.0 0
346308.0 428716.0 0
350702.0 426108.0 0
352967.0 428668.0 0
349355.0 429624.0 0
354472.0 426464.0 0
356821.0 426841.0 0
355081.0 428910.0 0
358103.0 429658.0 0
359472.0 425556.0 0
361653.0 428386.0 0
364371.0 425661.0 0
365041.0 430233.0 0
371455.0 427786.0 0
367756.0 428271.0 0
376385.0 428905.0 0
378725.0 426307.0 0
381207.0 428085.0 0
379472.0 429569.0 0
383583.0 430429.0 0
109234.0 435007.0 0
112916.0 433412.0 0
119214.0 431693.0 0
116927.0 434245.0 0
121128.0 434852.0 0
124724.0 433581.0 0
128797.0 433274.0 0
133529.0 431557.0 0
137340.0 432563.0 0
140610.0 435187.0 0
142330.0 431129.0 0
145969.0 430950.0 0
144233.0 434021.0 0
149718.0 430868.0 0
147363.0 434101.0 0
157031.0 430406.0 0
153730.0 432436.0 0
157027.0 434558.0 0
160789.0 431303.0 0
164506.0 431202.0 0
168278.0 431672.0 0
174825.0 429375.0 0
172392.0 432540.0 0
176088.0 432361.0 0
179771.0 432491.0 0
182464.0 429668.0 0
184274.0 432780.0 0
189144.0 431038.0 0
193481.0 433735.0 0
197232.0 430119.0 0
198141.0 433864.0 0
202033.0 431397.0 0
206988.0 430273.0 0
211417.0 430777.0 0
215518.0 430140.0 0
218720.0 432091.0 0
221396.0 429671.0 0
225384.0 428914.0 0
229185.0 430442.0 0
231878.0 427974.0 0
233281.0 431883.0 0
236503.0 430502.0 0
240394.0 429278.0 0
245108.0 428729.0 0
243708.0 432542.0 0
247810.0 432140.0 0
249269.0 428385.0 0
252284.0 431725.0 0
256897.0 429277.0 0
260806.0 432614.0 0
264566.0 429791.0 0
268914.0 427718.0 0
267435.0 431722.0 0
271547.0 431719.0 0
275714.0 432497.0 0
278812.0 430679.0 0
282809.0 429109.0 0
281640.0 432910.0 0
286731.0 430167.0 0
289177.0 428961.0 0
289762.0 432413.0 0
292184.0 429995.0 0
294879.0 431846.0 0
298423.0 432634.0 0
303589.0 431969.0 0
311001.0 428984.0 0
307910.0 431081.0 0
311017.0 432789.0 0
314705.0 432851.0 0
318430.0 429462.0 0
319130.0 433625.0 0
323118.0 430854.0 0
327512.0 430938.0 0
331102.0 430647.0 0
330651.0 434288.0 0
334951.0 433281.0 0
336440.0 430370.0 0
339361.0 430845.0 0
338778.0 434283.0 0
342262.0 433863.0 0
345455.0 431681.0 0
348731.0 433086.0 0
352309.0 431668.0 0
355822.0 432341.0 0
360890.0 432103.0 0
358982.0 434612.0 0
363996.0 433356.0 0
368756.0 431616.0 0
372868.0 431260.0 0
371426.0 434791.0 0
375738.0 434319.0 0
378261.0 432757.0 0
381319.0 432895.0 0
386528.0 432417.0 0
389867.0 433263.0 0
392343.0 435874.0 0
100886.0 438871.0 0
103467.0 437765.0 0
106269.0 436537.0 0
104090.0 440307.0 0
107083.0 439668.0 0
110624.0 439240.0 0
114208.0 437580.0 0
115367.0 441022.0 0
117951.0 436897.0 0
119102.0 439924.0 0
126192.0 437020.0 0
122693.0 438757.0 0
125953.0 440608.0 0
129008.0 437565.0 0
128835.0 440143.0 0
132403.0 436183.0 0
132105.0 440115.0 0
136490.0 436739.0 0
139043.0 439673.0 0
144961.0 436895.0 0
142463.0 439182.0 0
151372.0 435187.0 0
147989.0 437679.0 0
150781.0 439489.0 0
154383.0 437956.0 0
161387.0 435369.0 0
158479.0 438728.0 0
164990.0 434873.0 0
162472.0 439435.0 0
166235.0 438375.0 0
169210.0 435223.0 0
170384.0 438970.0 0
173171.0 436011.0 0
176353.0 435547.0 0
179990.0 437044.0 0
184367.0 436457.0 0
188478.0 435156.0 0
197097.0 437913.0 0
201651.0 436647.0 0
205157.0 434407.0 0
208779.0 434696.0 0
211648.0 435593.0 0
214531.0 433801.0 0
217437.0 435769.0 0
220585.0 435795.0 0
223004.0 432941.0 0
226617.0 433233.0 0
229759.0 434811.0 0
233587.0 436545.0 0
237564.0 433940.0 0
241502.0 436108.0 0
246274.0 436831.0 0
250338.0 435174.0 0
253739.0 436231.0 0
256183.0 433380.0 0
258004.0 437319.0 0
263125.0 437284.0 0
265004.0 433570.0 0
268540.0 435848.0 0
274195.0 436749.0 0
278538.0 434794.0 0
282340.0 436909.0 0
285913.0 433940.0 0
290064.0 435824.0 0
292976.0 434304.0 0
296208.0 436135.0 0
300772.0 437112.0 0
304905.0 436584.0 0
308228.0 434961.0 0
312367.0 439765.0 0
312143.0 436399.0 0
317097.0 438140.0 0
322423.0 435644.0 0
322395.0 438924.0 0
326491.0 434730.0 0
326225.0 438583.0 0
330038.0 438018.0 0
334272.0 437466.0 0
338349.0 437704.0 0
342071.0 437241.0 0
345827.0 435475.0 0
346160.0 439412.0 0
351723.0 434945.0 0
349726.0 437221.0 0
353092.0 439154.0 0
354413.0 435688.0 0
357441.0 437797.0 0
361832.0 435999.0 0
361019.0 440377.0 0
367500.0 435552.0 0
364447.0 438259.0 0
366435.0 440603.0 0
369996.0 439555.0 0
373458.0 437286.0 0
377320.0 437716.0 0
380325.0 436561.0 0
381520.0 439658.0 0
384584.0 436161.0 0
388678.0 436336.0 0
385313.0 440352.0 0
389039.0 439822.0 0
392633.0 439361.0 0
395446.0 436389.0 0
397664.0 438735.0 0
395384.0 439197.0 0
400221.0 441301.0 0
94272.4 443308.0 0
92010.4 445859.0 0
98263.7 442285.0 0
96570.4 445008.0 0
100486.0 445367.0 0
101601.0 441528.0 0
103489.0 444160.0 0
106588.0 443165.0 0
110413.0 443056.0 0
113520.0 443067.0 0
117626.0 442826.0 0
121787.0 442697.0 0
125428.0 444179.0 0
130005.0 443653.0 0
135550.0 440964.0 0
133335.0 443704.0 0
138812.0 443089.0 0
142115.0 443301.0 0
146378.0 441009.0 0
150290.0 443735.0 0
154500.0 441502.0 0
158329.0 442404.0 0
162404.0 443871.0 0
166781.0 442246.0 0
175054.0 440242.0 0
170882.0 442142.0 0
178871.0 441945.0 0
182814.0 440758.0 0
186736.0 439179.0 0
191671.0 439230.0 0
195457.0 442144.0 0
198396.0 441571.0 0
202131.0 441359.0 0
205909.0 438406.0 0
209526.0 438869.0 0
206938.0 443053.0 0
211320.0 442373.0 0
213945.0 438652.0 0
215034.0 442424.0 0
218933.0 439914.0 0
224991.0 438288.0 0
221884.0 442693.0 0
229989.0 438570.0 0
228731.0 442776.0 0
233070.0 441334.0 0
237776.0 439744.0 0
242719.0 440846.0 0
246445.0 441818.0 0
250942.0 440055.0 0
255634.0 441295.0 0
260008.0 441679.0 0
263667.0 441949.0 0
266859.0 440067.0 0
271540.0 441455.0 0
275811.0 442327.0 0
278415.0 439139.0 0
282527.0 440975.0 0
287564.0 439743.0 0
293169.0 438798.0 0
291747.0 442702.0 0
297303.0 439490.0 0
300694.0 442037.0 0
308685.0 439234.0 0
304580.0 440416.0 0
307417.0 442836.0 0
310368.0 443112.0 0
314499.0 443075.0 0
318124.0 443267.0 0
320681.0 441615.0 0
325056.0 443100.0 0
328886.0 440975.0 0
333140.0 441554.0 0
337509.0 441178.0 0
342135.0 441456.0 0
340182.0 444414.0 0
347123.0 444299.0 0
349838.0 440692.0 0
352357.0 443569.0 0
356298.0 441685.0 0
360612.0 444596.0 0
365234.0 443256.0 0
369413.0 443336.0 0
373028.0 444039.0 0
374144.0 440880.0 0
378021.0 441502.0 0
376629.0 444737.0 0
382111.0 443805.0 0
386580.0 444096.0 0
392958.0 442413.0 0
389588.0 442918.0 0
396666.0 442886.0 0
395924.0 445702.0 0
403689.0 442775.0 0
400732.0 445355.0 0
406649.0 444596.0 0
409529.0 446183.0 0
83206.0 450561.0 0
86045.1 448889.0 0
88602.0 447035.0 0
90917.6 449942.0 0
94880.6 447655.0 0
94178.7 451689.0 0
98251.9 448052.0 0
98296.2 451438.0 0
101746.0 448167.0 0
104159.0 446855.0 0
107159.0 446434.0 0
110498.0 446779.0 0
105998.0 449549.0 0
109066.0 450545.0 0
115098.0 446612.0 0
112632.0 450391.0 0
119674.0 445975.0 0
116544.0 450497.0 0
119560.0 449297.0 0
123197.0 447414.0 0
121822.0 450330.0 0
127742.0 447941.0 0
131642.0 447612.0 0
136151.0 446449.0 0
137841.0 450027.0 0
145467.0 445418.0 0
140859.0 447225.0 0
144334.0 449525.0 0
148177.0 447739.0 0
154815.0 445557.0 0
151469.0 448148.0 0
155046.0 449442.0 0
158657.0 446794.0 0
161910.0 448596.0 0
165393.0 446832.0 0
168094.0 449339.0 0
169382.0 445623.0 0
173088.0 444450.0 0
172461.0 449047.0 0
176591.0 445843.0 0
179723.0 448653.0 0
181619.0 445078.0 0
183545.0 448609.0 0
187073.0 444455.0 0
186576.0 448836.0 0
190220.0 449297.0 0
192620.0 445133.0 0
194275.0 448708.0 0
198172.0 446010.0 0
203189.0 445842.0 0
209539.0 445950.0 0
213381.0 445826.0 0
218041.0 445206.0 0
221716.0 445797.0 0
224909.0 444060.0 0
223743.0 447645.0 0
227686.0 447919.0 0
231821.0 445868.0 0
235944.0 444977.0 0
240134.0 444204.0 0
241585.0 447161.0 0
244293.0 445487.0 0
248863.0 445245.0 0
252986.0 444426.0 0
257397.0 446518.0 0
262611.0 446223.0 0
267124.0 444885.0 0
271360.0 447111.0 0
276133.0 447266.0 0
279629.0 443495.0 0
281064.0 447217.0 0
284837.0 444998.0 0
288142.0 448410.0 0
288948.0 444779.0 0
292096.0 447322.0 0
296158.0 443859.0 0
300861.0 447037.0 0
304628.0 444946.0 0
308388.0 446600.0 0
312576.0 447053.0 0
317216.0 447055.0 0
320870.0 445122.0 0
321072.0 448450.0 0
324161.0 447268.0 0
327334.0 448764.0 0
329589.0 445000.0 0
336791.0 444888.0 0
333718.0 446044.0 0
336602.0 448829.0 0
343371.0 446344.0 0
340030.0 448006.0 0
346542.0 449686.0 0
350677.0 447935.0 0
357018.0 445312.0 0
354149.0 447420.0 0
357377.0 449108.0 0
364293.0 446819.0 0
361084.0 448860.0 0
365753.0 450242.0 0
368433.0 446972.0 0
372279.0 447578.0 0
375955.0 448174.0 0
380146.0 447398.0 0
385160.0 448159.0 0
388819.0 447111.0 0
392008.0 446071.0 0
389570.0 449833.0 0
393200.0 450451.0 0
398728.0 446859.0 0
396020.0 448416.0 0
398374.0 449391.0 0
403916.0 447730.0 0
400859.0 449618.0 0
404070.0 451779.0 0
407722.0 449077.0 0
412278.0 448969.0 0
415923.0 451397.0 0
80514.6 451697.0 0
77252.6 454226.0 0
79926.7 454099.0 0
84373.0 453707.0 0
87296.1 450868.0 0
88817.0 453618.0 0
91887.2 455033.0 0
95818.4 454720.0 0
98594.6 454790.0 0
102660.0 451422.0 0
102724.0 455391.0 0
106801.0 453637.0 0
109361.0 456026.0 0
110635.0 453608.0 0
114268.0 454141.0 0
118987.0 452922.0 0
117660.0 455206.0 0
125298.0 450862.0 0
122562.0 454170.0 0
129245.0 451542.0 0
126728.0 454759.0 0
130685.0 455571.0 0
133236.0 451320.0 0
136532.0 453148.0 0
140600.0 451635.0 0
143982.0 454444.0 0
148151.0 451411.0 0
152022.0 451882.0 0
155439.0 452757.0 0
158286.0 450964.0 0
161265.0 452069.0 0
163451.0 454717.0 0
164648.0 450703.0 0
168330.0 453508.0 0
172545.0 453178.0 0
176483.0 451298.0 0
181218.0 452131.0 0
185736.0 452241.0 0
190033.0 453569.0 0
193344.0 451399.0 0
196975.0 450855.0 0
201387.0 449831.0 0
204110.0 453682.0 0
206327.0 448666.0 0
208466.0 453361.0 0
210926.0 449598.0 0
215660.0 449762.0 0
220296.0 449822.0 0
224454.0 450862.0 0
229988.0 452526.0 0
230867.0 448987.0 0
234348.0 450060.0 0
238717.0 448354.0 0
242269.0 450164.0 0
246671.0 449786.0 0
252168.0 449431.0 0
256819.0 451961.0 0
261285.0 450729.0 0
266579.0 450262.0 0
271737.0 451784.0 0
279906.0 450798.0 0
276087.0 452777.0 0
282784.0 452752.0 0
284494.0 449926.0 0
287924.0 452187.0 0
291866.0 451838.0 0
296730.0 449858.0 0
301359.0 451030.0 0
305150.0 449959.0 0
307204.0 453564.0 0
309981.0 451030.0 0
313254.0 454225.0 0
314962.0 450794.0 0
319289.0 451280.0 0
321789.0 454486.0 0
324018.0 451506.0 0
328608.0 453381.0 0
332154.0 449900.0 0
335830.0 452346.0 0
339896.0 452114.0 0
342905.0 449944.0 0
344114.0 453293.0 0
347307.0 453919.0 0
350715.0 452232.0 0
354399.0 450762.0 0
354935.0 454815.0 0
358852.0 452995.0 0
362923.0 452693.0 0
366973.0 454511.0 0
370078.0 451594.0 0
373136.0 454447.0 0
374333.0 451505.0 0
376099.0 455890.0 0
378860.0 452637.0 0
382881.0 451126.0 0
387422.0 452047.0 0
384449.0 454679.0 0
391114.0 453939.0 0
394311.0 454979.0 0
397101.0 452928.0 0
400840.0 452387.0 0
402578.0 455323.0 0
407416.0 452630.0 0
406025.0 455799.0 0
410708.0 452366.0 0
413383.0 454250.0 0
410006.0 455950.0 0
417862.0 455000.0 0
420141.0 452768.0 0
422954.0 455394.0 0
69003.3 460649.0 0
72049.3 458534.0 0
74275.5 460774.0 0
74996.2 456249.0 0
77322.2 458996.0 0
80632.3 457823.0 0
84605.6 457311.0 0
87947.7 456529.0 0
86302.1 460810.0 0
94582.9 456711.0 0
90495.3 458925.0 0
94788.9 459711.0 0
98209.7 458317.0 0
99180.9 461832.0 0
102771.0 459416.0 0
106482.0 457496.0 0
108741.0 459583.0 0
112686.0 458534.0 0
116348.0 460357.0 0
116894.0 457467.0 0
119737.0 456446.0 0
119590.0 459481.0 0
123468.0 458256.0 0
127110.0 458342.0 0
130199.0 460350.0 0
134568.0 457021.0 0
134610.0 460644.0 0
139264.0 455865.0 0
137257.0 459217.0 0
140964.0 459589.0 0
145274.0 458395.0 0
148596.0 455470.0 0
148860.0 459789.0 0
152977.0 455777.0 0
153824.0 459611.0 0
158045.0 455526.0 0
161554.0 457916.0 0
166352.0 458830.0 0
171174.0 457374.0 0
174792.0 455059.0 0
175507.0 458808.0 0
178425.0 455371.0 0
182547.0 456200.0 0
186306.0 456318.0 0
189986.0 458311.0 0
194867.0 455441.0 0
199436.0 454235.0 0
198006.0 459317.0 0
201729.0 458002.0 0
206482.0 458369.0 0
210497.0 457117.0 0
213133.0 453673.0 0
217732.0 454216.0 0
222070.0 454211.0 0
224476.0 457013.0 0
226200.0 453828.0 0
228774.0 457455.0 0
233386.0 455066.0 0
238242.0 453465.0 0
236181.0 458422.0 0
244025.0 455296.0 0
239897.0 457465.0 0
249465.0 453956.0 0
248528.0 458128.0 0
253538.0 454382.0 0
252252.0 458197.0 0
259660.0 455000.0 0
256394.0 457420.0 0
263986.0 455025.0 0
268726.0 455688.0 0
273301.0 456451.0 0
277182.0 456868.0 0
280223.0 454944.0 0
284985.0 455726.0 0
290233.0 456623.0 0
295321.0 455176.0 0
299459.0 453921.0 0
303524.0 454762.0 0
306974.0 456877.0 0
310109.0 455753.0 0
313951.0 458659.0 0
317609.0 455743.0 0
321317.0 457781.0 0
325453.0 456668.0 0
332864.0 454776.0 0
330214.0 457729.0 0
334236.0 458550.0 0
337247.0 455754.0 0
341731.0 456411.0 0
346158.0 457758.0 0
350619.0 456851.0 0
354008.0 458037.0 0
356837.0 458757.0 0
359308.0 456714.0 0
363101.0 456885.0 0
367180.0 459000.0 0
370783.0 456812.0 0
373775.0 457753.0 0
374464.0 460322.0 0
377693.0 458947.0 0
381022.0 456999.0 0
380495.0 460585.0 0
382963.0 460153.0 0
388649.0 456532.0 0
385525.0 458585.0 0
390320.0 459856.0 0
392919.0 457590.0 0
395778.0 456529.0 0
396471.0 459056.0 0
398991.0 456390.0 0
401272.0 458544.0 0
403494.0 458638.0 0
399701.0 460541.0 0
408512.0 458262.0 0
406030.0 458851.0 0
412763.0 458326.0 0
410208.0 460706.0 0
414989.0 461327.0 0
415764.0 456991.0 0
417908.0 459607.0 0
420410.0 457537.0 0
420051.0 462066.0 0
422573.0 460317.0 0
426260.0 457766.0 0
425813.0 461175.0 0
429983.0 459873.0 0
58954.8 466673.0 0
61971.2 463679.0 0
62959.4 466369.0 0
65485.6 462429.0 0
66641.3 465641.0 0
70864.7 464081.0 0
74583.0 463808.0 0
78344.7 463116.0 0
81723.7 461577.0 0
83699.3 464342.0 0
88446.2 464129.0 0
91794.8 462660.0 0
93499.2 465743.0 0
95801.6 462454.0 0
97518.6 465520.0 0
103164.0 463160.0 0
106341.0 461059.0 0
106715.0 464287.0 0
110609.0 463326.0 0
114798.0 463160.0 0
116975.0 465482.0 0
118390.0 462595.0 0
121796.0 461628.0 0
121131.0 465004.0 0
125444.0 462299.0 0
128285.0 464249.0 0
132637.0 464456.0 0
137345.0 462200.0 0
140623.0 463384.0 0
144381.0 462090.0 0
146848.0 463850.0 0
150722.0 463716.0 0
154745.0 463624.0 0
158233.0 460590.0 0
160684.0 463492.0 0
162333.0 460912.0 0
164422.0 463852.0 0
168713.0 462628.0 0
172231.0 461414.0 0
179428.0 459364.0 0
176719.0 463815.0 0
182663.0 459552.0 0
181610.0 463161.0 0
185835.0 460590.0 0
189561.0 462941.0 0
193895.0 460873.0 0
200382.0 461558.0 0
203379.0 461274.0 0
207109.0 463854.0 0
211159.0 461223.0 0
214805.0 458186.0 0
220009.0 459515.0 0
215462.0 462944.0 0
224847.0 460563.0 0
228056.0 462712.0 0
232153.0 460343.0 0
240321.0 461403.0 0
245346.0 461162.0 0
250082.0 461913.0 0
254986.0 462592.0 0
261584.0 460915.0 0
266923.0 459775.0 0
270638.0 459976.0 0
275331.0 460883.0 0
281145.0 459787.0 0
286560.0 460877.0 0
290670.0 461450.0 0
294626.0 459811.0 0
299702.0 458767.0 0
302055.0 463830.0 0
304524.0 459962.0 0
306359.0 464345.0 0
309544.0 460881.0 0
314549.0 463348.0 0
318966.0 461351.0 0
323126.0 460547.0 0
327584.0 461521.0 0
331911.0 461695.0 0
335585.0 461950.0 0
337988.0 464383.0 0
338866.0 460072.0 0
343058.0 460142.0 0
341843.0 463391.0 0
346471.0 462797.0 0
349561.0 460660.0 0
350770.0 464101.0 0
353375.0 461043.0 0
358103.0 462332.0 0
360898.0 460212.0 0
361829.0 463954.0 0
364478.0 461762.0 0
365462.0 465383.0 0
368516.0 462977.0 0
371023.0 460641.0 0
373651.0 464222.0 0
378027.0 463245.0 0
382317.0 463137.0 0
387059.0 462664.0 0
393767.0 461020.0 0
391965.0 464723.0 0
397027.0 463409.0 0
402940.0 461461.0 0
401091.0 463820.0 0
406746.0 462534.0 0
412430.0 463508.0 0
409537.0 465559.0 0
417197.0 463555.0 0
414623.0 466001.0 0
418784.0 466298.0 0
421722.0 464882.0 0
424533.0 463417.0 0
427971.0 462786.0 0
426171.0 466397.0 0
428266.0 465059.0 0
431620.0 463636.0 0
431337.0 466914.0 0
434634.0 465869.0 0
433939.0 461569.0 0
440547.0 464681.0 0
436688.0 463757.0 0
442686.0 466968.0 0
52320.3 470467.0 0
54894.2 467317.0 0
56104.8 469967.0 0
60716.7 469570.0 0
63466.5 469210.0 0
66364.1 468650.0 0
67567.9 471732.0 0
70654.7 468092.0 0
74705.4 469610.0 0
74503.5 466592.0 0
77698.1 467071.0 0
80868.7 466220.0 0
82474.4 468927.0 0
85930.3 467384.0 0
86064.2 471102.0 0
88793.7 470069.0 0
90123.0 467041.0 0
92189.3 469697.0 0
95976.8 469024.0 0
100646.0 465184.0 0
104076.0 467139.0 0
100275.0 468472.0 0
108747.0 467161.0 0
106006.0 470232.0 0
113405.0 466969.0 0
110734.0 469868.0 0
117575.0 468993.0 0
125068.0 466360.0 0
121830.0 468547.0 0
128440.0 467709.0 0
132580.0 469197.0 0
137385.0 466668.0 0
135678.0 471018.0 0
143009.0 466872.0 0
148236.0 467239.0 0
153019.0 467965.0 0
157788.0 465718.0 0
160194.0 468763.0 0
161508.0 465917.0 0
163527.0 468565.0 0
167432.0 467170.0 0
171852.0 465526.0 0
174746.0 468386.0 0
178241.0 468513.0 0
181844.0 467371.0 0
185798.0 465246.0 0
189708.0 467157.0 0
192667.0 464698.0 0
194002.0 468174.0 0
197300.0 464258.0 0
201831.0 464829.0 0
204669.0 468446.0 0
209362.0 468415.0 0
212044.0 465674.0 0
215507.0 467065.0 0
219523.0 465370.0 0
223900.0 464667.0 0
227491.0 468188.0 0
231423.0 464760.0 0
232776.0 468550.0 0
235640.0 463765.0 0
239125.0 465897.0 0
236618.0 468181.0 0
243018.0 465731.0 0
247621.0 465536.0 0
251498.0 465592.0 0
254718.0 468282.0 0
258486.0 465801.0 0
262941.0 467534.0 0
267316.0 464256.0 0
271706.0 463784.0 0
270801.0 467944.0 0
278991.0 464341.0 0
275131.0 466367.0 0
284015.0 465865.0 0
289453.0 465962.0 0
293291.0 464067.0 0
299466.0 467910.0 0
297567.0 463754.0 0
303681.0 468223.0 0
307799.0 467636.0 0
311000.0 465715.0 0
315437.0 467557.0 0
318137.0 465304.0 0
319788.0 468285.0 0
323703.0 465224.0 0
328068.0 469680.0 0
329741.0 465548.0 0
333010.0 469306.0 0
334127.0 465183.0 0
337359.0 468263.0 0
340414.0 466939.0 0
344149.0 466934.0 0
348461.0 467424.0 0
352724.0 467616.0 0
355038.0 464875.0 0
356713.0 468751.0 0
358978.0 465686.0 0
360775.0 468612.0 0
363330.0 466558.0 0
361667.0 465970.0 0
364844.0 470416.0 0
367033.0 467678.0 0
369881.0 466503.0 0
369458.0 470535.0 0
374316.0 469259.0 0
377376.0 466896.0 0
380774.0 466669.0 0
384355.0 470094.0 0
384866.0 466114.0 0
389013.0 468030.0 0
392912.0 470331.0 0
395438.0 467553.0 0
397828.0 470999.0 0
399606.0 466924.0 0
404219.0 466050.0 0
402581.0 470307.0 0
407537.0 468686.0 0
412072.0 469127.0 0
416501.0 468805.0 0
420204.0 469567.0 0
423366.0 468166.0 0
425137.0 471225.0 0
428361.0 469188.0 0
434015.0 469160.0 0
436448.0 468356.0 0
438549.0 466439.0 0
440385.0 468838.0 0
445595.0 468852.0 0
442916.0 470740.0 0
448806.0 470504.0 0
42393.3 476959.0 0
45072.8 474234.0 0
48879.4 472537.0 0
48432.9 476117.0 0
52548.9 473976.0 0
52322.8 477048.0 0
55341.4 473941.0 0
59450.3 472714.0 0
63783.7 472374.0 0
61762.1 475940.0 0
65203.5 474902.0 0
65579.4 477972.0 0
71462.7 471863.0 0
69597.0 475635.0 0
78989.1 471347.0 0
74332.0 473626.0 0
83480.9 472227.0 0
81213.5 474789.0 0
84145.5 475584.0 0
87268.7 473909.0 0
89845.7 472550.0 0
93625.3 473632.0 0
98245.2 472304.0 0
102414.0 471767.0 0
100443.0 475515.0 0
104302.0 474802.0 0
108037.0 472887.0 0
114155.0 471116.0 0
111623.0 474519.0 0
120410.0 471915.0 0
116879.0 474375.0 0
124711.0 470972.0 0
121617.0 475114.0 0
125764.0 475202.0 0
129066.0 471853.0 0
132913.0 473197.0 0
139100.0 470992.0 0
136322.0 474053.0 0
139652.0 474973.0 0
142575.0 471675.0 0
145735.0 472349.0 0
145953.0 469781.0 0
149420.0 471091.0 0
150939.0 474713.0 0
153560.0 472398.0 0
156934.0 470131.0 0
156964.0 473701.0 0
161038.0 472528.0 0
165450.0 472438.0 0
170675.0 471175.0 0
175927.0 473105.0 0
180814.0 471641.0 0
185666.0 470419.0 0
190334.0 471601.0 0
194527.0 472134.0 0
199100.0 469808.0 0
203403.0 472322.0 0
207597.0 472492.0 0
213085.0 469574.0 0
211319.0 472599.0 0
217939.0 469758.0 0
222436.0 469146.0 0
225113.0 472775.0 0
230221.0 472744.0 0
235452.0 472994.0 0
240343.0 470278.0 0
245217.0 469727.0 0
249888.0 469937.0 0
258623.0 469520.0 0
257849.0 473235.0 0
261177.0 471959.0 0
267168.0 468860.0 0
265001.0 472607.0 0
269451.0 472491.0 0
275013.0 471798.0 0
279557.0 469037.0 0
279751.0 473294.0 0
283453.0 471488.0 0
286941.0 469977.0 0
290641.0 470627.0 0
294713.0 468366.0 0
297655.0 471260.0 0
300394.0 470933.0 0
303179.0 472923.0 0
307056.0 471375.0 0
306435.0 474988.0 0
311649.0 470719.0 0
317019.0 473102.0 0
323709.0 469595.0 0
321754.0 472286.0 0
325476.0 473284.0 0
328727.0 474239.0 0
332399.0 473873.0 0
337062.0 472939.0 0
341423.0 470754.0 0
344516.0 473820.0 0
345579.0 470332.0 0
351152.0 469973.0 0
348918.0 472374.0 0
354127.0 471945.0 0
359496.0 472937.0 0
363838.0 475066.0 0
368047.0 474673.0 0
372462.0 473578.0 0
379518.0 470791.0 0
376579.0 473249.0 0
379528.0 474917.0 0
383708.0 474858.0 0
388625.0 472424.0 0
392687.0 474167.0 0
395633.0 473293.0 0
398099.0 473956.0 0
401965.0 475175.0 0
407193.0 472686.0 0
411696.0 472700.0 0
410422.0 476098.0 0
413736.0 475553.0 0
416416.0 472574.0 0
420017.0 476269.0 0
421175.0 472949.0 0
424083.0 475180.0 0
431313.0 471706.0 0
428047.0 474117.0 0
434974.0 472102.0 0
432111.0 474974.0 0
435075.0 475447.0 0
438270.0 471285.0 0
438073.0 474591.0 0
441428.0 472817.0 0
440607.0 475720.0 0
444380.0 475236.0 0
445951.0 472445.0 0
448603.0 473896.0 0
448547.0 477342.0 0
451628.0 472700.0 0
455323.0 474966.0 0
451991.0 475761.0 0
459301.0 476982.0 0
35619.2 480293.0 0
38711.9 478201.0 0
39353.5 481726.0 0
43150.8 481072.0 0
45834.8 478439.0 0
47638.7 480609.0 0
49578.7 479312.0 0
49756.1 482558.0 0
52469.9 480577.0 0
56916.6 477305.0 0
55839.8 481384.0 0
61467.2 481046.0 0
67683.7 480729.0 0
74099.5 477023.0 0
71796.3 479742.0 0
77724.5 476192.0 0
76002.3 480385.0 0
80996.5 478779.0 0
90108.3 476885.0 0
86156.4 478854.0 0
94372.6 478384.0 0
90993.7 481400.0 0
97058.2 476152.0 0
95669.9 481787.0 0
98405.0 478586.0 0
102320.0 478064.0 0
107393.0 476013.0 0
105483.0 477715.0 0
108630.0 478346.0 0
113329.0 478678.0 0
118743.0 478563.0 0
123450.0 479099.0 0
129772.0 475697.0 0
127125.0 478383.0 0
130341.0 479584.0 0
133755.0 476873.0 0
137195.0 477641.0 0
143306.0 475702.0 0
147298.0 475261.0 0
145512.0 479390.0 0
149403.0 478323.0 0
154232.0 478077.0 0
159511.0 476571.0 0
164360.0 477895.0 0
168382.0 475520.0 0
169614.0 479148.0 0
171906.0 475827.0 0
174853.0 479008.0 0
179617.0 476383.0 0
183835.0 474815.0 0
183564.0 479292.0 0
187889.0 476468.0 0
192139.0 475239.0 0
196693.0 476271.0 0
200864.0 474552.0 0
204603.0 476851.0 0
210310.0 477582.0 0
215296.0 473930.0 0
220621.0 473469.0 0
223558.0 477185.0 0
227618.0 475917.0 0
232034.0 477924.0 0
239775.0 475375.0 0
236601.0 477691.0 0
243594.0 473689.0 0
248244.0 475622.0 0
253541.0 473653.0 0
256598.0 477282.0 0
261423.0 476682.0 0
267174.0 478199.0 0
272226.0 476162.0 0
277402.0 478083.0 0
282981.0 476346.0 0
288211.0 474917.0 0
294035.0 474193.0 0
299256.0 475068.0 0
296342.0 478319.0 0
303660.0 477845.0 0
308574.0 478106.0 0
309346.0 474325.0 0
312302.0 475904.0 0
315778.0 478800.0 0
319875.0 477658.0 0
322939.0 475715.0 0
326691.0 477008.0 0
331240.0 478084.0 0
336874.0 478694.0 0
340737.0 475311.0 0
343368.0 478050.0 0
347819.0 476952.0 0
351956.0 475522.0 0
353703.0 477825.0 0
356091.0 475958.0 0
360398.0 478632.0 0
365265.0 479267.0 0
368908.0 478564.0 0
371571.0 477010.0 0
371700.0 480820.0 0
376077.0 477709.0 0
380751.0 478684.0 0
384918.0 480080.0 0
388821.0 477135.0 0
393610.0 477848.0 0
391667.0 480481.0 0
396948.0 476306.0 0
400181.0 479000.0 0
404130.0 480384.0 0
406541.0 477513.0 0
410478.0 479231.0 0
413288.0 478264.0 0
416816.0 476813.0 0
419461.0 479678.0 0
416074.0 479799.0 0
423198.0 478762.0 0
427293.0 477906.0 0
430353.0 480404.0 0
430767.0 477088.0 0
434212.0 479325.0 0
437964.0 477941.0 0
441547.0 478810.0 0
444986.0 478983.0 0
445974.0 481962.0 0
449433.0 481131.0 0
452260.0 480139.0 0
452884.0 478200.0 0
454285.0 481503.0 0
456588.0 478536.0 0
460338.0 481412.0 0
462061.0 478966.0 0
464994.0 480593.0 0
467849.0 482399.0 0
25523.1 486857.0 0
28789.4 484839.0 0
32471.6 482899.0 0
31520.0 487042.0 0
35853.1 484565.0 0
37878.2 488699.0 0
39506.9 485645.0 0
42728.9 485421.0 0
46062.6 483483.0 0
52889.3 485022.0 0
49092.4 485615.0 0
57242.3 485396.0 0
63081.5 486366.0 0
66311.2 483380.0 0
67871.2 486478.0 0
71062.5 483648.0 0
79189.7 482377.0 0
75652.3 484758.0 0
82910.7 482306.0 0
80353.4 485563.0 0
86843.1 482589.0 0
88703.8 485743.0 0
93133.1 485522.0 0
100225.0 481854.0 0
104834.0 480663.0 0
108462.0 482286.0 0
113012.0 483892.0 0
116427.0 481135.0 0
118284.0 483723.0 0
120731.0 481412.0 0
123096.0 484132.0 0
126676.0 481977.0 0
126935.0 486226.0 0
134467.0 481231.0 0
130429.0 483974.0 0
134091.0 485446.0 0
137818.0 480581.0 0
141046.0 479509.0 0
143718.0 483287.0 0
149366.0 482849.0 0
154680.0 483349.0 0
159045.0 481169.0 0
162874.0 482948.0 0
167036.0 482494.0 0
171777.0 482894.0 0
179325.0 480871.0 0
182037.0 484127.0 0
187528.0 482586.0 0
191939.0 479418.0 0
192324.0 483554.0 0
196098.0 481746.0 0
200583.0 479819.0 0
205176.0 482362.0 0
209926.0 482908.0 0
213976.0 481497.0 0
218383.0 478649.0 0
222421.0 482618.0 0
227368.0 480483.0 0
231215.0 483178.0 0
239240.0 479558.0 0
235839.0 482088.0 0
243216.0 478626.0 0
240893.0 483563.0 0
247606.0 481698.0 0
252421.0 479129.0 0
256741.0 481873.0 0
261660.0 481862.0 0
269855.0 483262.0 0
265598.0 483539.0 0
272239.0 479973.0 0
274795.0 482441.0 0
281841.0 480914.0 0
286387.0 480567.0 0
291971.0 479936.0 0
296525.0 482033.0 0
299812.0 479815.0 0
303156.0 482610.0 0
299635.0 483343.0 0
306052.0 480947.0 0
309211.0 482884.0 0
312051.0 479875.0 0
314564.0 484295.0 0
319574.0 482300.0 0
323531.0 479627.0 0
323570.0 483861.0 0
327994.0 482082.0 0
333248.0 482653.0 0
337315.0 484148.0 0
341531.0 482211.0 0
346627.0 481471.0 0
351279.0 480390.0 0
349850.0 484701.0 0
354494.0 484474.0 0
355823.0 480119.0 0
358724.0 483384.0 0
363312.0 484147.0 0
368165.0 482741.0 0
367317.0 486092.0 0
371726.0 485524.0 0
375189.0 482460.0 0
379119.0 482251.0 0
382204.0 482183.0 0
388644.0 481788.0 0
385594.0 484009.0 0
389080.0 485448.0 0
392438.0 483743.0 0
396519.0 481331.0 0
395507.0 485364.0 0
399236.0 485114.0 0
401467.0 482511.0 0
403156.0 485463.0 0
408302.0 481462.0 0
405862.0 484024.0 0
409972.0 485707.0 0
412790.0 482178.0 0
417701.0 483157.0 0
422119.0 482919.0 0
422987.0 486725.0 0
425871.0 485346.0 0
426388.0 481715.0 0
430612.0 484672.0 0
434645.0 483261.0 0
438547.0 481795.0 0
437818.0 485700.0 0
441249.0 485162.0 0
442714.0 482260.0 0
444745.0 485367.0 0
448424.0 485309.0 0
452665.0 484475.0 0
456834.0 486752.0 0
457245.0 482861.0 0
460857.0 485256.0 0
463822.0 483228.0 0
466666.0 485639.0 0
463423.0 487618.0 0
470826.0 484524.0 0
470261.0 488185.0 0
474292.0 487397.0 0
18910.8 490594.0 0
22524.3 488985.0 0
28226.5 488998.0 0
22578.1 492578.0 0
25685.3 490663.0 0
28751.0 492215.0 0
31430.3 490606.0 0
34426.6 488451.0 0
31535.5 493603.0 0
34606.4 492252.0 0
41895.1 489552.0 0
46269.2 487768.0 0
44924.0 491693.0 0
47987.3 490556.0 0
50994.4 488701.0 0
54986.9 489416.0 0
59173.3 489011.0 0
58123.8 491765.0 0
61628.5 490143.0 0
65469.5 490274.0 0
72091.8 487524.0 0
69503.2 489853.0 0
74772.2 488739.0 0
72835.2 491202.0 0
78153.0 488317.0 0
84050.1 486194.0 0
81693.1 490192.0 0
86130.8 489641.0 0
90211.6 489093.0 0
97573.2 485968.0 0
98728.5 489263.0 0
103491.0 486139.0 0
104511.0 491005.0 0
108571.0 486226.0 0
107975.0 489592.0 0
111170.0 488067.0 0
115392.0 487996.0 0
120045.0 487786.0 0
123881.0 488012.0 0
126760.0 491131.0 0
130707.0 488090.0 0
138682.0 484641.0 0
135000.0 489154.0 0
142737.0 487048.0 0
146292.0 486673.0 0
147951.0 489415.0 0
152276.0 488286.0 0
158571.0 486600.0 0
164355.0 487504.0 0
168893.0 485816.0 0
172500.0 487316.0 0
175849.0 489026.0 0
176523.0 484511.0 0
179795.0 488402.0 0
185192.0 488360.0 0
190488.0 487153.0 0
195269.0 486435.0 0
199957.0 484520.0 0
203367.0 486882.0 0
208072.0 487398.0 0
212812.0 485930.0 0
217519.0 484544.0 0
221240.0 488233.0 0
226915.0 485953.0 0
234103.0 486644.0 0
237825.0 486564.0 0
244834.0 486041.0 0
248847.0 486401.0 0
252403.0 483983.0 0
259295.0 484626.0 0
256258.0 487174.0 0
262270.0 487225.0 0
267747.0 487991.0 0
273605.0 487118.0 0
278991.0 484251.0 0
278401.0 488610.0 0
284142.0 485397.0 0
289280.0 485241.0 0
293921.0 485242.0 0
297638.0 485551.0 0
301219.0 486416.0 0
305901.0 486597.0 0
310413.0 487275.0 0
317151.0 488208.0 0
321131.0 487491.0 0
326187.0 487106.0 0
330500.0 486091.0 0
334398.0 487016.0 0
337637.0 490232.0 0
340905.0 487110.0 0
345416.0 485463.0 0
345191.0 489671.0 0
348830.0 487974.0 0
353080.0 488357.0 0
358681.0 488278.0 0
364119.0 489389.0 0
369360.0 489104.0 0
374017.0 490711.0 0
376662.0 486397.0 0
378929.0 490275.0 0
381905.0 486211.0 0
386262.0 487925.0 0
389596.0 488892.0 0
392796.0 487843.0 0
397327.0 488209.0 0
402135.0 488893.0 0
406480.0 488426.0 0
409807.0 489027.0 0
414723.0 486476.0 0
412510.0 489683.0 0
419622.0 486816.0 0
424979.0 488682.0 0
422373.0 489906.0 0
428347.0 488703.0 0
434820.0 487264.0 0
432105.0 489001.0 0
434892.0 491039.0 0
440575.0 488000.0 0
437828.0 489354.0 0
441326.0 490962.0 0
443802.0 488331.0 0
447930.0 489083.0 0
452318.0 488940.0 0
455886.0 491076.0 0
459883.0 489454.0 0
463611.0 490994.0 0
467237.0 490203.0 0
472401.0 491176.0 0
469994.0 492785.0 0
475981.0 492300.0 0
478127.0 489418.0 0
480042.0 493105.0 0
481403.0 490534.0 0
12438.0 494190.0 0
9396.05 496504.0 0
15964.1 493094.0 0
12709.7 497084.0 0
16342.9 496456.0 0
19541.9 494448.0 0
19660.9 498505.0 0
26113.4 493916.0 0
23113.3 496620.0 0
29474.4 495407.0 0
26849.2 497472.0 0
30697.7 498200.0 0
32851.3 496005.0 0
36640.9 496020.0 0
38451.9 492272.0 0
41528.0 494561.0 0
46876.4 494673.0 0
49828.4 492470.0 0
52441.3 491980.0 0
51330.1 495604.0 0
55148.4 493630.0 0
61599.7 493215.0 0
58715.2 495432.0 0
65285.1 494073.0 0
68948.6 493416.0 0
72555.6 494242.0 0
76762.7 491992.0 0
80394.4 494096.0 0
88749.3 492475.0 0
84652.2 493284.0 0
87325.0 495848.0 0
94146.3 490676.0 0
91237.0 494954.0 0
94964.3 495552.0 0
98114.7 493352.0 0
101137.0 490921.0 0
102144.0 494798.0 0
107130.0 494223.0 0
112040.0 492443.0 0
117416.0 492051.0 0
121831.0 491442.0 0
119713.0 495323.0 0
123825.0 494943.0 0
131459.0 492822.0 0
139568.0 489649.0 0
136583.0 494131.0 0
141305.0 493710.0 0
144452.0 490886.0 0
148562.0 492953.0 0
153426.0 494351.0 0
156510.0 490872.0 0
160573.0 492189.0 0
165219.0 492519.0 0
168894.0 490100.0 0
172661.0 491595.0 0
176720.0 492795.0 0
181654.0 493563.0 0
186321.0 492892.0 0
188942.0 491023.0 0
193541.0 491615.0 0
199371.0 489989.0 0
204360.0 490511.0 0
208257.0 493624.0 0
211840.0 489917.0 0
215971.0 489027.0 0
218763.0 492794.0 0
225426.0 490810.0 0
230549.0 490169.0 0
234410.0 493827.0 0
236683.0 489708.0 0
238803.0 492768.0 0
241149.0 489039.0 0
246427.0 490813.0 0
251649.0 489591.0 0
259116.0 489948.0 0
255734.0 493414.0 0
261900.0 492590.0 0
266783.0 492829.0 0
271396.0 492086.0 0
275838.0 491562.0 0
279385.0 491649.0 0
282188.0 489486.0 0
287288.0 490356.0 0
293393.0 490400.0 0
298165.0 489006.0 0
298005.0 493060.0 0
302839.0 491091.0 0
308768.0 491763.0 0
313772.0 489938.0 0
313664.0 494361.0 0
318482.0 492114.0 0
324578.0 492400.0 0
329481.0 489911.0 0
333413.0 491086.0 0
335542.0 494319.0 0
339736.0 494372.0 0
341664.0 491113.0 0
344832.0 494635.0 0
349921.0 492333.0 0
355715.0 492651.0 0
361170.0 493918.0 0
367213.0 491608.0 0
365949.0 494032.0 0
369948.0 493363.0 0
373238.0 495726.0 0
377923.0 494795.0 0
383780.0 492145.0 0
388025.0 491028.0 0
388793.0 494449.0 0
394830.0 491537.0 0
391071.0 491631.0 0
393110.0 495370.0 0
399541.0 492244.0 0
396736.0 495103.0 0
400470.0 496009.0 0
405245.0 493758.0 0
409491.0 491847.0 0
409888.0 495532.0 0
413195.0 493785.0 0
417507.0 491143.0 0
426017.0 491888.0 0
422369.0 494268.0 0
430688.0 492820.0 0
427226.0 496043.0 0
435252.0 494978.0 0
438466.0 492640.0 0
439062.0 496068.0 0
445351.0 492141.0 0
441883.0 494322.0 0
446184.0 495920.0 0
450930.0 493434.0 0
455986.0 494581.0 0
460440.0 493791.0 0
466017.0 494668.0 0
462997.0 497230.0 0
470171.0 496575.0 0
473457.0 495226.0 0
474488.0 499182.0 0
478425.0 496893.0 0
482599.0 496492.0 0
483902.0 493340.0 0
487381.0 495368.0 0
490691.0 497195.0 0
6277.61 499996.0 0
3059.94 502385.0 0
9698.57 499984.0 0
16031.1 499612.0 0
12376.5 501263.0 0
16842.1 502904.0 0
20760.2 501738.0 0
24027.3 500180.0 0
28319.7 501555.0 0
34290.5 500418.0 0
39441.8 498871.0 0
42456.4 501739.0 0
43922.4 497992.0 0
48045.9 498073.0 0
51042.8 499557.0 0
55395.4 497734.0 0
54175.8 501431.0 0
58110.8 501192.0 0
59516.1 498273.0 0
62300.8 496882.0 0
62272.7 500492.0 0
66194.5 497449.0 0
65949.5 500774.0 0
69789.1 496349.0 0
69983.9 499900.0 0
72558.0 497446.0 0
75984.0 495914.0 0
74639.9 500291.0 0
83348.7 496755.0 0
79066.8 498314.0 0
86102.5 498982.0 0
90011.4 499138.0 0
93002.5 497539.0 0
97454.9 497079.0 0
99332.6 496202.0 0
100188.0 498910.0 0
104638.0 498247.0 0
110250.0 498409.0 0
115053.0 496058.0 0
114523.0 499889.0 0
117874.0 498729.0 0
122461.0 498823.0 0
127597.0 496970.0 0
132471.0 497756.0 0
137061.0 499065.0 0
140377.0 497153.0 0
144936.0 496221.0 0
149186.0 496922.0 0
152581.0 499918.0 0
158067.0 496754.0 0
163401.0 496925.0 0
168925.0 495255.0 0
172514.0 498932.0 0
173721.0 495180.0 0
177282.0 497773.0 0
181990.0 499122.0 0
185819.0 496633.0 0
189329.0 494652.0 0
188920.0 498362.0 0
192894.0 497183.0 0
197681.0 495390.0 0
202685.0 494624.0 0
200794.0 498879.0 0
213891.0 494079.0 0
217580.0 497833.0 0
223020.0 495481.0 0
227852.0 494147.0 0
230450.0 497179.0 0
234618.0 498862.0 0
238343.0 496686.0 0
242832.0 494976.0 0
250163.0 493868.0 0
246195.0 499251.0 0
251724.0 498329.0 0
259844.0 496813.0 0
256486.0 498800.0 0
264339.0 497411.0 0
269999.0 497231.0 0
274630.0 495351.0 0
278120.0 494251.0 0
278184.0 497639.0 0
282692.0 494816.0 0
287644.0 495386.0 0
286083.0 499406.0 0
291048.0 494257.0 0
294516.0 495449.0 0
298110.0 496872.0 0
301695.0 495966.0 0
305517.0 495035.0 0
309358.0 497516.0 0
304657.0 499360.0 0
313864.0 498606.0 0
317986.0 497145.0 0
322408.0 496779.0 0
326612.0 499123.0 0
330381.0 494992.0 0
334232.0 497699.0 0
337526.0 497728.0 0
341801.0 498362.0 0
346164.0 499507.0 0
349120.0 496942.0 0
352901.0 496194.0 0
357161.0 497829.0 0
361879.0 499401.0 0
365252.0 497291.0 0
368828.0 496930.0 0
371840.0 499778.0 0
376326.0 499481.0 0
380474.0 498864.0 0
381750.0 496209.0 0
385602.0 498148.0 0
390931.0 499078.0 0
397264.0 499772.0 0
403255.0 498863.0 0
408189.0 499001.0 0
413418.0 498563.0 0
417308.0 496187.0 0
419042.0 500645.0 0
420529.0 497459.0 0
423987.0 499307.0 0
428735.0 500504.0 0
431681.0 497134.0 0
432684.0 499562.0 0
436005.0 498897.0 0
439630.0 498885.0 0
442752.0 497255.0 0
442819.0 500279.0 0
446285.0 499624.0 0
449540.0 497721.0 0
454027.0 497880.0 0
459053.0 498347.0 0
456501.0 501627.0 0
462657.0 499961.0 0
466643.0 499652.0 0
478101.0 502056.0 0
471087.0 500676.0 0
482448.0 500898.0 0
485597.0 498703.0 0
487198.0 502852.0 0
488227.0 499399.0 0
490045.0 500908.0 0
492516.0 500735.0 0
493605.0 498733.0 0
2117.1 506306.0 0
8189.56 503907.0 0
5442.3 506448.0 0
8584.33 507320.0 0
12523.0 505349.0 0
19619.8 505225.0 0
16569.1 507254.0 0
23995.1 504688.0 0
27964.5 506429.0 0
31308.5 504138.0 0
35090.1 505465.0 0
38836.7 503048.0 0
43126.5 505469.0 0
46734.4 501925.0 0
47151.9 506305.0 0
50869.8 503735.0 0
55418.4 504659.0 0
60200.3 504822.0 0
64435.0 503920.0 0
67944.6 503061.0 0
71418.6 503586.0 0
77983.0 501835.0 0
75409.1 504503.0 0
82285.5 501589.0 0
79346.7 504885.0 0
86859.8 503120.0 0
91319.7 503204.0 0
95277.6 500460.0 0
99277.8 503022.0 0
102822.0 501683.0 0
106295.0 501382.0 0
108878.0 503029.0 0
112560.0 502701.0 0
114235.0 505363.0 0
116671.0 502757.0 0
119474.0 501035.0 0
121597.0 503857.0 0
125697.0 501204.0 0
129534.0 501501.0 0
131228.0 504534.0 0
133743.0 501927.0 0
138142.0 503081.0 0
140876.0 504396.0 0
142333.0 501047.0 0
147296.0 500725.0 0
156558.0 500246.0 0
155759.0 504170.0 0
160094.0 500937.0 0
160257.0 504615.0 0
164466.0 501562.0 0
168192.0 500118.0 0
167676.0 504381.0 0
170981.0 502626.0 0
175182.0 502450.0 0
179129.0 502103.0 0
185942.0 501089.0 0
191130.0 502682.0 0
196623.0 500471.0 0
200567.0 502862.0 0
205873.0 499399.0 0
209242.0 503733.0 0
211522.0 498831.0 0
213224.0 502614.0 0
217601.0 503392.0 0
221438.0 500196.0 0
226301.0 500058.0 0
230575.0 501183.0 0
233754.0 503038.0 0
239191.0 501964.0 0
242335.0 498918.0 0
244422.0 504394.0 0
249692.0 503650.0 0
254972.0 502947.0 0
260477.0 501889.0 0
266903.0 503197.0 0
271720.0 501602.0 0
274583.0 499540.0 0
274694.0 504120.0 0
277691.0 501436.0 0
281697.0 500437.0 0
285194.0 504324.0 0
290917.0 498962.0 0
295754.0 500075.0 0
298073.0 503506.0 0
300382.0 500248.0 0
306362.0 504509.0 0
311781.0 502397.0 0
316400.0 501703.0 0
319491.0 500747.0 0
322287.0 500520.0 0
324514.0 503340.0 0
320389.0 504210.0 0
329109.0 504408.0 0
331418.0 500045.0 0
333118.0 502938.0 0
335366.0 501028.0 0
338823.0 500948.0 0
338678.0 504274.0 0
342794.0 502989.0 0
347419.0 503324.0 0
352417.0 501425.0 0
358147.0 502883.0 0
362965.0 503810.0 0
367173.0 501296.0 0
372366.0 505030.0 0
379467.0 501711.0 0
376950.0 503511.0 0
380417.0 505019.0 0
383052.0 501972.0 0
384189.0 505705.0 0
387819.0 503520.0 0
392994.0 503636.0 0
396770.0 504319.0 0
399972.0 505239.0 0
404714.0 502093.0 0
401631.0 502271.0 0
404537.0 505914.0 0
407822.0 503131.0 0
411537.0 502770.0 0
415254.0 502628.0 0
418652.0 504774.0 0
423887.0 504572.0 0
429025.0 504761.0 0
433868.0 502852.0 0
439414.0 503274.0 0
436526.0 506615.0 0
444862.0 503236.0 0
443002.0 506411.0 0
450850.0 502685.0 0
456171.0 505807.0 0
460933.0 503346.0 0
465144.0 503098.0 0
465629.0 506410.0 0
469254.0 504504.0 0
474044.0 503569.0 0
472781.0 507248.0 0
483044.0 505671.0 0
488181.0 506526.0 0
492383.0 503979.0 0
496923.0 500508.0 0
2108.31 509357.0 0
2578.98 512917.0 0
6422.92 510264.0 0
12219.6 510199.0 0
17580.4 510407.0 0
20714.0 508348.0 0
24616.8 509230.0 0
21622.8 511667.0 0
31649.4 508359.0 0
35036.0 510163.0 0
39314.3 507863.0 0
43641.1 509981.0 0
47899.6 509714.0 0
51978.1 507763.0 0
56880.5 508139.0 0
54658.5 510825.0 0
60590.2 508942.0 0
58610.2 512341.0 0
67906.8 506333.0 0
64147.7 507885.0 0
67315.1 510436.0 0
71916.1 508395.0 0
77359.7 508658.0 0
82996.6 506870.0 0
80603.8 511056.0 0
84750.0 510916.0 0
88798.3 507974.0 0
94756.7 506214.0 0
99630.2 506933.0 0
104656.0 505823.0 0
110169.0 506680.0 0
110954.0 510089.0 0
117495.0 506383.0 0
114185.0 509045.0 0
121108.0 508862.0 0
126845.0 506339.0 0
131405.0 507782.0 0
134881.0 505739.0 0
135180.0 510098.0 0
139361.0 507082.0 0
142834.0 508600.0 0
144637.0 505201.0 0
146592.0 508942.0 0
149941.0 505188.0 0
153439.0 509626.0 0
158560.0 507931.0 0
163678.0 505760.0 0
166905.0 508088.0 0
172388.0 507450.0 0
177904.0 506152.0 0
182482.0 504729.0 0
180969.0 509328.0 0
186621.0 504935.0 0
189310.0 507424.0 0
185279.0 508664.0 0
195880.0 504982.0 0
200041.0 507688.0 0
204453.0 504770.0 0
207693.0 508574.0 0
213133.0 507140.0 0
218204.0 508828.0 0
222917.0 504227.0 0
223324.0 508887.0 0
228241.0 505364.0 0
233404.0 507769.0 0
238138.0 506995.0 0
242292.0 509264.0 0
247933.0 509041.0 0
253209.0 507827.0 0
258106.0 506984.0 0
262440.0 506680.0 0
271081.0 508091.0 0
275978.0 508523.0 0
279820.0 505294.0 0
289182.0 508326.0 0
289639.0 503467.0 0
293770.0 504553.0 0
299274.0 507269.0 0
301570.0 503842.0 0
303418.0 509180.0 0
311163.0 506692.0 0
315780.0 506181.0 0
324989.0 507394.0 0
320280.0 509112.0 0
334787.0 507113.0 0
341031.0 508140.0 0
345509.0 506445.0 0
350373.0 506870.0 0
355187.0 506881.0 0
360209.0 507486.0 0
363932.0 509504.0 0
366897.0 506894.0 0
370570.0 509968.0 0
374196.0 509941.0 0
377427.0 507561.0 0
382042.0 509350.0 0
386971.0 508373.0 0
391126.0 507510.0 0
393636.0 510569.0 0
396019.0 507710.0 0
401436.0 509248.0 0
409636.0 506812.0 0
406570.0 510704.0 0
414516.0 506810.0 0
411701.0 510704.0 0
419685.0 508610.0 0
424002.0 510055.0 0
427983.0 508645.0 0
432650.0 507434.0 0
431941.0 511605.0 0
436275.0 510143.0 0
439796.0 508278.0 0
444141.0 510861.0 0
447350.0 506825.0 0
449312.0 510786.0 0
452286.0 507850.0 0
455989.0 509944.0 0
453032.0 511418.0 0
461263.0 508398.0 0
465927.0 510107.0 0
469128.0 508534.0 0
472085.0 510737.0 0
474794.0 509999.0 0
477910.0 511175.0 0
477768.0 506853.0 0
481751.0 510456.0 0
485654.0 509642.0 0
492286.0 508120.0 0
489362.0 510141.0 0
495123.0 510491.0 0
497191.0 505556.0 0
498413.0 508798.0 0
3474.75 517711.0 0
9001.77 513042.0 0
6273.03 513962.0 0
8708.58 516267.0 0
12346.7 515010.0 0
15662.1 513166.0 0
19148.2 513743.0 0
16567.0 516778.0 0
24742.9 513832.0 0
28511.3 511289.0 0
28645.9 515448.0 0
32691.3 513850.0 0
38635.5 513046.0 0
41135.8 517261.0 0
43310.0 513977.0 0
46899.7 513343.0 0
50962.6 512069.0 0
50244.0 515902.0 0
54136.7 514209.0 0
57328.9 516229.0 0
63263.2 511889.0 0
66493.9 514495.0 0
70455.3 513025.0 0
73089.4 515800.0 0
74571.2 512178.0 0
77644.9 514961.0 0
82814.4 515376.0 0
87620.1 513272.0 0
92848.2 512221.0 0
97285.0 510433.0 0
98022.1 514531.0 0
101584.0 510876.0 0
102856.0 515535.0 0
106988.0 511255.0 0
112060.0 513854.0 0
117038.0 511626.0 0
120815.0 513591.0 0
125057.0 511470.0 0
127076.0 513915.0 0
129603.0 511483.0 0
133000.0 514222.0 0
137052.0 513792.0 0
139947.0 511197.0 0
144020.0 512454.0 0
148885.0 513060.0 0
153429.0 515100.0 0
157947.0 512554.0 0
162587.0 510149.0 0
166551.0 512350.0 0
169009.0 510147.0 0
171076.0 513093.0 0
176844.0 510590.0 0
180010.0 513910.0 0
188628.0 511016.0 0
185064.0 513668.0 0
193769.0 510178.0 0
199023.0 513067.0 0
203620.0 511237.0 0
206820.0 514092.0 0
211481.0 512425.0 0
216228.0 513147.0 0
220715.0 513037.0 0
228293.0 509922.0 0
225664.0 513168.0 0
231410.0 513374.0 0
237202.0 511696.0 0
252244.0 512837.0 0
257081.0 511777.0 0
262111.0 512427.0 0
266047.0 509193.0 0
272394.0 513049.0 0
279439.0 509282.0 0
277831.0 513595.0 0
283541.0 509673.0 0
287129.0 512703.0 0
294585.0 509666.0 0
290992.0 513311.0 0
299457.0 512726.0 0
304462.0 513955.0 0
308207.0 510354.0 0
313434.0 510562.0 0
317279.0 512007.0 0
316370.0 514702.0 0
324605.0 512367.0 0
329615.0 510186.0 0
328227.0 514224.0 0
333833.0 512181.0 0
337366.0 511266.0 0
341222.0 513509.0 0
346978.0 511317.0 0
352766.0 511125.0 0
357110.0 511085.0 0
361636.0 512403.0 0
367018.0 512507.0 0
372678.0 514587.0 0
377665.0 511726.0 0
377625.0 515558.0 0
381739.0 514109.0 0
390003.0 511186.0 0
386120.0 512322.0 0
389659.0 514607.0 0
394095.0 514420.0 0
397820.0 511619.0 0
402317.0 513498.0 0
406578.0 515654.0 0
410289.0 513950.0 0
415999.0 511541.0 0
413796.0 515146.0 0
417696.0 515323.0 0
420446.0 512894.0 0
423959.0 514198.0 0
427827.0 513022.0 0
431515.0 516175.0 0
435668.0 514199.0 0
439736.0 512403.0 0
439331.0 516145.0 0
443335.0 515582.0 0
447623.0 514840.0 0
451406.0 514031.0 0
455354.0 514797.0 0
459369.0 512627.0 0
460197.0 516741.0 0
463985.0 513717.0 0
469060.0 512865.0 0
466880.0 516133.0 0
470654.0 516828.0 0
474649.0 514429.0 0
479994.0 514868.0 0
484094.0 513726.0 0
487654.0 512971.0 0
492108.0 514199.0 0
498049.0 511785.0 0
497299.0 515179.0 0
1366.28 521768.0 0
5092.28 522510.0 0
8246.09 519621.0 0
12745.1 519418.0 0
18378.6 520827.0 0
21535.3 517020.0 0
26095.6 517785.0 0
23376.6 520720.0 0
30692.0 517970.0 0
35603.5 518003.0 0
32457.3 521255.0 0
39297.1 520671.0 0
45941.5 517544.0 0
42811.9 520327.0 0
50156.4 519593.0 0
53712.0 517936.0 0
62032.7 516365.0 0
57905.5 519852.0 0
66675.6 518956.0 0
69633.8 516392.0 0
71332.6 519300.0 0
75587.6 519215.0 0
79614.9 518733.0 0
83259.0 520386.0 0
86696.4 517143.0 0
88408.0 520615.0 0
89656.1 515935.0 0
93740.6 518254.0 0
99271.8 519066.0 0
104447.0 520400.0 0
107619.0 516309.0 0
110092.0 519931.0 0
113213.0 517538.0 0
116571.0 515722.0 0
120535.0 517913.0 0
124502.0 515632.0 0
124612.0 519725.0 0
129090.0 517166.0 0
135649.0 517474.0 0
140612.0 516130.0 0
142785.0 520114.0 0
145412.0 516749.0 0
149573.0 518253.0 0
157633.0 517151.0 0
162639.0 515933.0 0
168052.0 516669.0 0
171697.0 516902.0 0
173898.0 519574.0 0
175210.0 514972.0 0
178465.0 518607.0 0
183136.0 518284.0 0
187079.0 517695.0 0
190031.0 514779.0 0
194813.0 516033.0 0
199159.0 517485.0 0
202698.0 515416.0 0
209531.0 517047.0 0
205490.0 518395.0 0
213709.0 517116.0 0
218217.0 516786.0 0
222651.0 517164.0 0
227583.0 518068.0 0
232852.0 518896.0 0
237227.0 516757.0 0
241687.0 514672.0 0
244200.0 518626.0 0
240580.0 518759.0 0
247147.0 514756.0 0
251638.0 518037.0 0
259763.0 516384.0 0
255829.0 516092.0 0
263399.0 516814.0 0
267465.0 514066.0 0
271202.0 517178.0 0
279664.0 517909.0 0
275528.0 518932.0 0
283421.0 515119.0 0
282455.0 518924.0 0
287965.0 516806.0 0
294950.0 514284.0 0
292723.0 517942.0 0
297456.0 517412.0 0
301638.0 517031.0 0
308732.0 515566.0 0
313027.0 515136.0 0
316221.0 518099.0 0
320345.0 515343.0 0
325836.0 518584.0 0
331671.0 516099.0 0
336486.0 515445.0 0
340211.0 518483.0 0
345539.0 517103.0 0
350828.0 515699.0 0
353891.0 518734.0 0
359285.0 515644.0 0
355389.0 515039.0 0
358826.0 520402.0 0
363855.0 516999.0 0
368360.0 516418.0 0
367630.0 519800.0 0
376147.0 519351.0 0
380666.0 518485.0 0
385881.0 517470.0 0
391522.0 518797.0 0
398820.0 515902.0 0
395857.0 518426.0 0
402886.0 517875.0 0
406586.0 519631.0 0
410822.0 518466.0 0
416010.0 518922.0 0
421421.0 517881.0 0
426838.0 517541.0 0
430765.0 520530.0 0
435957.0 519172.0 0
441499.0 519996.0 0
446591.0 518802.0 0
451538.0 518019.0 0
456529.0 519160.0 0
460498.0 520305.0 0
464164.0 518538.0 0
467780.0 519073.0 0
471017.0 520730.0 0
474276.0 518890.0 0
478377.0 519038.0 0
483343.0 517980.0 0
487732.0 517097.0 0
486507.0 520954.0 0
494186.0 518677.0 0
490368.0 520250.0 0
498230.0 518485.0 0
2330.3 525178.0 0
9402.56 523638.0 0
14391.0 524246.0 0
18499.1 525620.0 0
21300.4 523712.0 0
24494.7 524204.0 0
28065.6 521560.0 0
27429.2 526337.0 0
31552.0 524870.0 0
36194.8 523466.0 0
41323.7 523565.0 0
46304.9 522361.0 0
50599.6 523034.0 0
54061.9 521640.0 0
53291.1 525477.0 0
62119.0 521112.0 0
57908.7 524429.0 0
61998.1 525117.0 0
65896.0 523332.0 0
69536.6 522212.0 0
73373.0 523119.0 0
78422.1 522985.0 0
82808.2 524162.0 0
85594.0 523278.0 0
88271.4 524448.0 0
91953.7 523603.0 0
96038.6 522537.0 0
100093.0 524026.0 0
107277.0 524266.0 0
112136.0 524788.0 0
115842.0 520713.0 0
120904.0 522285.0 0
124396.0 523450.0 0
127852.0 522340.0 0
132685.0 521398.0 0
138262.0 521605.0 0
142285.0 524451.0 0
146485.0 522305.0 0
150519.0 522935.0 0
154252.0 520504.0 0
160079.0 521904.0 0
165305.0 520429.0 0
169733.0 520422.0 0
167299.0 524037.0 0
172345.0 524640.0 0
176756.0 522538.0 0
181178.0 522673.0 0
186271.0 522103.0 0
191017.0 519781.0 0
196163.0 520797.0 0
200423.0 520937.0 0
204169.0 523072.0 0
209233.0 521529.0 0
214853.0 522615.0 0
219876.0 520723.0 0
224111.0 521843.0 0
228358.0 522990.0 0
232802.0 523885.0 0
237475.0 521836.0 0
242197.0 522138.0 0
247829.0 522875.0 0
253694.0 522500.0 0
257769.0 520109.0 0
262499.0 521022.0 0
267046.0 519132.0 0
271295.0 521705.0 0
279857.0 522118.0 0
275383.0 523625.0 0
285564.0 520974.0 0
289865.0 521589.0 0
294205.0 522672.0 0
300274.0 521213.0 0
303994.0 524148.0 0
305549.0 519524.0 0
308343.0 523926.0 0
311503.0 519934.0 0
313019.0 524942.0 0
315927.0 522009.0 0
320206.0 520627.0 0
328316.0 524082.0 0
330930.0 520372.0 0
332529.0 523459.0 0
335491.0 520232.0 0
345187.0 521400.0 0
340953.0 523879.0 0
349762.0 520770.0 0
346840.0 525278.0 0
354085.0 522926.0 0
361213.0 524942.0 0
364244.0 522235.0 0
368851.0 524265.0 0
371724.0 520192.0 0
379137.0 522612.0 0
383420.0 522168.0 0
388455.0 522486.0 0
395109.0 522635.0 0
399803.0 525476.0 0
399437.0 520582.0 0
403811.0 522267.0 0
408651.0 523273.0 0
412970.0 522196.0 0
421372.0 522668.0 0
417022.0 523025.0 0
426014.0 521891.0 0
424421.0 526589.0 0
428649.0 522644.0 0
430138.0 525915.0 0
434486.0 523307.0 0
440279.0 526103.0 0
438441.0 523211.0 0
441767.0 523892.0 0
445461.0 522786.0 0
449867.0 522002.0 0
453874.0 521823.0 0
453788.0 525764.0 0
458345.0 523635.0 0
462543.0 526658.0 0
463385.0 522447.0 0
467284.0 522000.0 0
466292.0 524952.0 0
471060.0 525046.0 0
474951.0 522438.0 0
478546.0 523151.0 0
476357.0 526433.0 0
482383.0 521764.0 0
485556.0 524166.0 0
489291.0 523733.0 0
493547.0 522745.0 0
497726.0 521525.0 0
497358.0 525325.0 0
2430.79 529147.0 0
6153.49 526811.0 0
10728.5 528305.0 0
15943.5 529384.0 0
22081.1 528608.0 0
26820.6 530365.0 0
30644.1 529045.0 0
34537.1 527562.0 0
39291.7 527324.0 0
36558.2 530495.0 0
44373.3 526498.0 0
43004.5 530406.0 0
46812.2 529482.0 0
49105.4 526591.0 0
50051.9 530762.0 0
52192.6 528502.0 0
55852.6 528494.0 0
53256.0 530944.0 0
60521.0 529228.0 0
64863.6 527106.0 0
69733.0 526534.0 0
74950.4 527552.0 0
80527.9 528246.0 0
85494.1 526521.0 0
85358.7 530676.0 0
89956.3 528013.0 0
95313.8 526947.0 0
103486.0 527459.0 0
108681.0 529129.0 0
113430.0 529235.0 0
117702.0 526259.0 0
122292.0 525875.0 0
121866.0 529563.0 0
126080.0 526888.0 0
130491.0 525783.0 0
135011.0 525793.0 0
138631.0 525934.0 0
137367.0 529321.0 0
140514.0 528154.0 0
144466.0 528725.0 0
149210.0 527085.0 0
153764.0 525515.0 0
158014.0 527227.0 0
163212.0 526511.0 0
160871.0 529920.0 0
167802.0 528419.0 0
178044.0 527830.0 0
184061.0 526872.0 0
188842.0 528133.0 0
192896.0 524926.0 0
197667.0 524532.0 0
196566.0 528210.0 0
200911.0 527007.0 0
205855.0 527907.0 0
210674.0 526431.0 0
219905.0 525696.0 0
215296.0 528617.0 0
224191.0 525715.0 0
227800.0 527646.0 0
232959.0 528770.0 0
237945.0 527162.0 0
242923.0 526559.0 0
247351.0 529097.0 0
252204.0 527268.0 0
257545.0 526049.0 0
262338.0 525605.0 0
266831.0 524262.0 0
271786.0 527341.0 0
278335.0 527062.0 0
283877.0 526135.0 0
290260.0 526932.0 0
297755.0 525203.0 0
295811.0 529712.0 0
301343.0 527718.0 0
306127.0 528269.0 0
310168.0 527682.0 0
318552.0 524708.0 0
316508.0 529220.0 0
323081.0 524934.0 0
326573.0 528898.0 0
332211.0 528577.0 0
335885.0 524889.0 0
338256.0 529420.0 0
343451.0 528834.0 0
347950.0 529927.0 0
351486.0 526658.0 0
356936.0 527328.0 0
362349.0 529171.0 0
365270.0 526162.0 0
370462.0 528062.0 0
367073.0 529698.0 0
374646.0 525293.0 0
380351.0 527080.0 0
385474.0 526697.0 0
388231.0 530223.0 0
391764.0 526669.0 0
395997.0 526156.0 0
396781.0 530427.0 0
401687.0 530083.0 0
404645.0 526409.0 0
405438.0 530372.0 0
408935.0 527963.0 0
412287.0 531179.0 0
413941.0 526748.0 0
419333.0 527454.0 0
426912.0 530866.0 0
432341.0 531109.0 0
436334.0 527395.0 0
441541.0 530110.0 0
444129.0 526769.0 0
446654.0 530934.0 0
448879.0 526482.0 0
452237.0 530858.0 0
457743.0 528971.0 0
463170.0 531473.0 0
467336.0 528621.0 0
473017.0 530262.0 0
478505.0 530420.0 0
481538.0 526605.0 0
483182.0 531239.0 0
487192.0 528201.0 0
492388.0 526814.0 0
496784.0 530082.0 0
2036.59 533093.0 0
4719.83 535553.0 0
6707.97 531367.0 0
8683.11 535008.0 0
12118.9 532988.0 0
15197.8 536169.0 0
18661.7 533192.0 0
24116.6 534750.0 0
29532.8 533475.0 0
33267.9 531969.0 0
32784.0 536038.0 0
36463.0 534418.0 0
39575.1 531996.0 0
46374.7 534155.0 0
52101.4 534627.0 0
56507.7 532625.0 0
60826.4 534364.0 0
66108.4 531740.0 0
71490.1 530926.0 0
69821.8 535803.0 0
74237.4 534018.0 0
77747.1 532186.0 0
81570.4 533175.0 0
88992.2 532464.0 0
93524.7 531786.0 0
90862.1 535944.0 0
98923.5 530989.0 0
104274.0 532373.0 0
108677.0 533876.0 0
112828.0 533464.0 0
117437.0 531392.0 0
121342.0 534285.0 0
126325.0 532065.0 0
132383.0 530811.0 0
137092.0 533454.0 0
140671.0 531630.0 0
143971.0 533220.0 0
148054.0 532082.0 0
153509.0 530730.0 0
158474.0 532921.0 0
164154.0 531243.0 0
168279.0 533410.0 0
172279.0 530018.0 0
172553.0 534229.0 0
175569.0 532446.0 0
179074.0 533303.0 0
183612.0 532227.0 0
188113.0 532273.0 0
192822.0 529586.0 0
191611.0 533065.0 0
195748.0 532382.0 0
199433.0 530959.0 0
204776.0 533140.0 0
209496.0 530976.0 0
213147.0 532999.0 0
217833.0 533327.0 0
223047.0 529663.0 0
226909.0 532263.0 0
231391.0 533490.0 0
237247.0 533004.0 0
242749.0 531462.0 0
247288.0 533371.0 0
251025.0 532267.0 0
255582.0 531138.0 0
260616.0 529848.0 0
264757.0 534214.0 0
265244.0 529537.0 0
269740.0 532670.0 0
276004.0 532627.0 0
281272.0 530547.0 0
286112.0 531512.0 0
291365.0 532996.0 0
300456.0 532613.0 0
305830.0 533534.0 0
311203.0 531980.0 0
321830.0 529864.0 0
324695.0 532550.0 0
321535.0 534392.0 0
327588.0 532607.0 0
330749.0 533558.0 0
335311.0 533787.0 0
342017.0 533918.0 0
352917.0 531525.0 0
358631.0 533489.0 0
364423.0 533761.0 0
369764.0 533991.0 0
373483.0 530744.0 0
377968.0 531240.0 0
383292.0 531928.0 0
388683.0 535165.0 0
392118.0 531555.0 0
394448.0 535745.0 0
399372.0 534942.0 0
403721.0 534345.0 0
408451.0 533040.0 0
412817.0 535657.0 0
416778.0 532091.0 0
421846.0 531691.0 0
424744.0 535403.0 0
429406.0 535159.0 0
434259.0 535538.0 0
437266.0 532411.0 0
441212.0 534523.0 0
445236.0 535174.0 0
449468.0 534751.0 0
459314.0 532772.0 0
455889.0 534456.0 0
460722.0 536335.0 0
464951.0 535400.0 0
468364.0 533151.0 0
472463.0 535434.0 0
476464.0 534007.0 0
480637.0 534473.0 0
486368.0 534530.0 0
491143.0 532018.0 0
497079.0 535114.0 0
2087.96 538287.0 0
7276.94 538083.0 0
11315.7 538015.0 0
15077.2 540698.0 0
19261.6 538288.0 0
23818.7 540561.0 0
28922.1 538155.0 0
36287.2 538628.0 0
40987.0 536022.0 0
40668.4 540460.0 0
44539.8 538697.0 0
48912.0 538522.0 0
56862.6 536689.0 0
53544.9 539268.0 0
56900.6 540975.0 0
60219.1 539331.0 0
64913.1 537460.0 0
68676.4 540544.0 0
73395.5 538788.0 0
78546.2 536993.0 0
85428.6 536136.0 0
92237.2 540119.0 0
96236.4 536449.0 0
101028.0 535721.0 0
101304.0 539927.0 0
105539.0 537423.0 0
110702.0 537880.0 0
116578.0 536024.0 0
114884.0 540320.0 0
120207.0 539661.0 0
125282.0 537371.0 0
128278.0 540159.0 0
130646.0 536584.0 0
136080.0 538237.0 0
140821.0 535966.0 0
145921.0 537360.0 0
151101.0 535763.0 0
156257.0 538167.0 0
162348.0 534940.0 0
161457.0 538928.0 0
165703.0 537640.0 0
170801.0 538320.0 0
175944.0 536538.0 0
181214.0 537819.0 0
186874.0 536517.0 0
194105.0 537017.0 0
199700.0 535605.0 0
209387.0 535559.0 0
205228.0 538584.0 0
213937.0 537576.0 0
219079.0 538528.0 0
222821.0 534846.0 0
227629.0 537279.0 0
233059.0 538097.0 0
238512.0 539080.0 0
244037.0 536790.0 0
249634.0 536425.0 0
254128.0 536024.0 0
259595.0 535193.0 0
263927.0 538034.0 0
267852.0 536932.0 0
272428.0 537566.0 0
277620.0 538806.0 0
282049.0 535374.0 0
287484.0 536837.0 0
292574.0 537977.0 0
296048.0 534835.0 0
300087.0 538069.0 0
304943.0 538207.0 0
310068.0 537964.0 0
316225.0 535697.0 0
320951.0 539126.0 0
326561.0 537336.0 0
332461.0 537802.0 0
338164.0 538893.0 0
343803.0 539333.0 0
348082.0 535457.0 0
353898.0 537130.0 0
361896.0 538505.0 0
366641.0 537789.0 0
371119.0 539438.0 0
375144.0 535665.0 0
379696.0 535202.0 0
378782.0 539502.0 0
383740.0 537960.0 0
394294.0 540328.0 0
397758.0 538693.0 0
402351.0 539337.0 0
407949.0 537915.0 0
415552.0 539249.0 0
419630.0 536316.0 0
423178.0 539198.0 0
427533.0 539552.0 0
431740.0 538561.0 0
436041.0 539686.0 0
433074.0 541114.0 0
438195.0 536600.0 0
442070.0 538958.0 0
448015.0 539901.0 0
452643.0 537634.0 0
456938.0 539190.0 0
461387.0 540678.0 0
464221.0 538643.0 0
468594.0 538155.0 0
473775.0 539971.0 0
477948.0 537673.0 0
482966.0 539260.0 0
488319.0 538883.0 0
492656.0 536882.0 0
497643.0 539752.0 0
1782.82 541764.0 0
6228.47 542220.0 0
11021.8 542559.0 0
14331.1 545456.0 0
18978.3 543243.0 0
23434.1 545693.0 0
28259.2 542900.0 0
32433.0 541211.0 0
31960.7 545572.0 0
36868.5 543934.0 0
43641.4 541428.0 0
42541.4 544887.0 0
46614.4 542291.0 0
50315.7 542293.0 0
50473.4 545024.0 0
54051.2 544034.0 0
59162.1 544190.0 0
64011.9 542414.0 0
72219.1 543114.0 0
68032.3 545882.0 0
76984.0 542559.0 0
82258.5 540784.0 0
87488.5 541089.0 0
92305.2 544515.0 0
96885.3 542351.0 0
101491.0 544620.0 0
105498.0 542080.0 0
110509.0 543115.0 0
115448.0 544772.0 0
119703.0 544418.0 0
124742.0 542411.0 0
129562.0 543953.0 0
132150.0 540602.0 0
135215.0 543992.0 0
141312.0 541583.0 0
146820.0 542275.0 0
150993.0 540496.0 0
154809.0 543356.0 0
159315.0 542980.0 0
164642.0 542756.0 0
170049.0 543646.0 0
175520.0 541902.0 0
180495.0 544562.0 0
185330.0 541906.0 0
190099.0 540095.0 0
194470.0 542508.0 0
200289.0 541735.0 0
205010.0 543026.0 0
210058.0 541645.0 0
215628.0 542525.0 0
223583.0 540035.0 0
219864.0 542685.0 0
229744.0 541835.0 0
234518.0 542834.0 0
238857.0 544050.0 0
242869.0 542205.0 0
247916.0 541107.0 0
251930.0 539419.0 0
255706.0 540894.0 0
260542.0 540844.0 0
264945.0 541957.0 0
269202.0 541077.0 0
273901.0 542823.0 0
282509.0 540640.0 0
287586.0 542565.0 0
292875.0 542787.0 0
296140.0 540451.0 0
299008.0 542757.0 0
303541.0 542553.0 0
308150.0 542761.0 0
314120.0 539803.0 0
313036.0 543056.0 0
317007.0 541256.0 0
322029.0 544053.0 0
327644.0 543817.0 0
333593.0 542944.0 0
337929.0 543595.0 0
346274.0 542968.0 0
341814.0 543967.0 0
349485.0 540476.0 0
350105.0 544280.0 0
353220.0 541932.0 0
357502.0 540755.0 0
361185.0 543680.0 0
365638.0 542017.0 0
375198.0 542517.0 0
379354.0 543899.0 0
384545.0 543956.0 0
389752.0 540755.0 0
397704.0 543506.0 0
402605.0 544080.0 0
406634.0 542731.0 0
411564.0 541337.0 0
415417.0 544307.0 0
419614.0 541581.0 0
424516.0 543520.0 0
430733.0 541914.0 0
429336.0 545485.0 0
434333.0 543952.0 0
439150.0 542220.0 0
443775.0 544072.0 0
449144.0 545267.0 0
453136.0 542086.0 0
458221.0 544119.0 0
463237.0 545255.0 0
465609.0 542194.0 0
468195.0 546319.0 0
469703.0 542280.0 0
473018.0 544817.0 0
478397.0 541785.0 0
477471.0 545186.0 0
481675.0 544611.0 0
487005.0 543948.0 0
492655.0 541797.0 0
497283.0 544252.0 0
2686.38 545831.0 0
2526.42 550199.0 0
8948.84 547335.0 0
13411.0 550126.0 0
18663.6 548930.0 0
27890.1 547311.0 0
35229.0 549297.0 0
39652.1 548089.0 0
43305.0 549546.0 0
47267.7 546956.0 0
51853.5 548491.0 0
56099.9 548068.0 0
59384.1 549986.0 0
62990.9 547209.0 0
66014.2 550477.0 0
70452.0 551221.0 0
72968.1 547311.0 0
77534.2 547885.0 0
80675.8 545078.0 0
82824.1 549537.0 0
84667.3 544865.0 0
88574.9 545657.0 0
90121.9 549321.0 0
95567.7 548425.0 0
101259.0 549693.0 0
106450.0 547217.0 0
112031.0 548548.0 0
118067.0 549519.0 0
123299.0 547155.0 0
131740.0 548503.0 0
136011.0 549329.0 0
139594.0 547030.0 0
145173.0 547502.0 0
150522.0 545155.0 0
154622.0 547670.0 0
161812.0 546513.0 0
166996.0 546937.0 0
171398.0 548813.0 0
176136.0 547140.0 0
179668.0 548865.0 0
184977.0 547723.0 0
189764.0 545014.0 0
193843.0 547153.0 0
197475.0 545972.0 0
198696.0 549056.0 0
202936.0 546905.0 0
207948.0 546633.0 0
212553.0 546238.0 0
218102.0 547378.0 0
222879.0 545206.0 0
226945.0 544729.0 0
226207.0 549164.0 0
231001.0 546620.0 0
235937.0 547202.0 0
240586.0 547789.0 0
246079.0 546645.0 0
252027.0 544545.0 0
251929.0 549015.0 0
256975.0 546090.0 0
262101.0 545662.0 0
267761.0 545992.0 0
272713.0 547948.0 0
277739.0 546695.0 0
282112.0 545129.0 0
285719.0 547629.0 0
290905.0 547567.0 0
296341.0 546348.0 0
301429.0 547147.0 0
306406.0 546993.0 0
310194.0 545595.0 0
312747.0 548367.0 0
317136.0 546011.0 0
321413.0 549075.0 0
326251.0 549055.0 0
331792.0 548491.0 0
337653.0 547602.0 0
342810.0 547845.0 0
346999.0 547347.0 0
356152.0 545676.0 0
351615.0 547698.0 0
360990.0 549248.0 0
364768.0 546079.0 0
370139.0 545701.0 0
376072.0 547383.0 0
380679.0 547523.0 0
386542.0 549942.0 0
391981.0 546282.0 0
396764.0 548027.0 0
400816.0 547818.0 0
405511.0 547262.0 0
410448.0 546095.0 0
414757.0 549883.0 0
420203.0 546604.0 0
425326.0 547817.0 0
429009.0 550439.0 0
433485.0 548587.0 0
438835.0 546842.0 0
445857.0 548638.0 0
450339.0 550083.0 0
453674.0 546773.0 0
457578.0 548993.0 0
460922.0 548054.0 0
464590.0 549458.0 0
471726.0 548911.0 0
475291.0 548133.0 0
479554.0 549198.0 0
484186.0 548139.0 0
482754.0 551859.0 0
487868.0 548394.0 0
492239.0 547168.0 0
497391.0 549004.0 0
2109.73 554285.0 0
6764.31 552785.0 0
10301.5 551227.0 0
15919.8 553774.0 0
11725.0 554326.0 0
20199.4 553847.0 0
24520.5 551277.0 0
23427.3 556180.0 0
30343.4 550960.0 0
28148.9 555610.0 0
34519.2 555297.0 0
39628.6 552147.0 0
44178.3 553858.0 0
48564.5 551764.0 0
54610.4 554135.0 0
62140.2 553588.0 0
67239.4 554697.0 0
74596.4 550940.0 0
75031.5 553962.0 0
78287.5 552409.0 0
82607.9 555141.0 0
87203.9 552661.0 0
92450.6 553837.0 0
98471.9 554491.0 0
105831.0 553194.0 0
111263.0 553518.0 0
115688.0 554046.0 0
122451.0 551116.0 0
120336.0 554424.0 0
127073.0 549878.0 0
124744.0 553848.0 0
130236.0 553138.0 0
135552.0 554421.0 0
140889.0 551831.0 0
146192.0 553954.0 0
150424.0 550128.0 0
151140.0 554364.0 0
154945.0 552386.0 0
158952.0 549718.0 0
164224.0 550653.0 0
168599.0 552722.0 0
176204.0 552733.0 0
182172.0 552277.0 0
186654.0 552243.0 0
190442.0 549937.0 0
195262.0 551322.0 0
201700.0 552214.0 0
207321.0 551809.0 0
213375.0 551572.0 0
218850.0 552432.0 0
223125.0 552777.0 0
232223.0 551493.0 0
237571.0 551918.0 0
243294.0 551046.0 0
248332.0 552371.0 0
255562.0 551612.0 0
259854.0 549731.0 0
264543.0 550319.0 0
269126.0 550696.0 0
275243.0 552597.0 0
281495.0 551541.0 0
287754.0 552353.0 0
293497.0 552713.0 0
298558.0 551046.0 0
304055.0 551300.0 0
308276.0 550944.0 0
312035.0 552846.0 0
316531.0 551045.0 0
320171.0 553364.0 0
324031.0 552726.0 0
329050.0 553966.0 0
334882.0 553186.0 0
340180.0 552418.0 0
344624.0 551031.0 0
349533.0 552281.0 0
354816.0 550680.0 0
358065.0 553150.0 0
362008.0 554804.0 0
367083.0 551860.0 0
371836.0 554427.0 0
372226.0 550623.0 0
375660.0 551747.0 0
375570.0 555180.0 0
378637.0 550410.0 0
378988.0 553859.0 0
381783.0 551219.0 0
391116.0 551332.0 0
388962.0 554697.0 0
394523.0 550611.0 0
393546.0 554703.0 0
398535.0 551970.0 0
403802.0 551277.0 0
406360.0 555015.0 0
402161.0 555630.0 0
408939.0 551444.0 0
420184.0 551766.0 0
424905.0 551379.0 0
423680.0 554757.0 0
427999.0 555371.0 0
433090.0 553855.0 0
437087.0 551254.0 0
441900.0 551582.0 0
446858.0 553626.0 0
451621.0 554985.0 0
454857.0 551815.0 0
457757.0 555736.0 0
460541.0 552075.0 0
464903.0 554276.0 0
468730.0 551190.0 0
474837.0 552830.0 0
480016.0 554951.0 0
486786.0 552467.0 0
492168.0 552826.0 0
497364.0 553602.0 0
3368.02 559008.0 0
8551.83 557163.0 0
12554.4 558461.0 0
18437.4 559408.0 0
25582.3 559843.0 0
30893.3 560581.0 0
40143.0 556599.0 0
40796.6 559555.0 0
44291.1 559002.0 0
48489.3 556250.0 0
51364.9 559117.0 0
59497.3 558059.0 0
64075.8 557911.0 0
71829.1 555906.0 0
68312.5 559438.0 0
77314.5 557456.0 0
87243.9 557288.0 0
91800.8 559694.0 0
95326.8 557272.0 0
97946.4 559488.0 0
102934.0 558551.0 0
108784.0 558185.0 0
113341.0 557140.0 0
117534.0 558173.0 0
123020.0 559081.0 0
127991.0 557010.0 0
131936.0 557901.0 0
140806.0 557340.0 0
145752.0 559858.0 0
149695.0 557650.0 0
154678.0 557848.0 0
159549.0 554848.0 0
165077.0 556672.0 0
171318.0 556923.0 0
176086.0 558182.0 0
180360.0 556951.0 0
184960.0 556001.0 0
190488.0 555014.0 0
194949.0 555535.0 0
198940.0 556637.0 0
203820.0 556464.0 0
208691.0 556581.0 0
213361.0 557355.0 0
218177.0 556943.0 0
222970.0 557287.0 0
227841.0 554691.0 0
232900.0 555991.0 0
237324.0 557237.0 0
241544.0 555074.0 0
245597.0 557070.0 0
249898.0 557244.0 0
254708.0 557012.0 0
260926.0 555368.0 0
267666.0 555552.0 0
273063.0 557679.0 0
278565.0 557128.0 0
282744.0 556363.0 0
286238.0 557006.0 0
290538.0 556893.0 0
295201.0 557808.0 0
300790.0 556090.0 0
307258.0 556128.0 0
312722.0 557274.0 0
316685.0 555553.0 0
320097.0 558318.0 0
324499.0 557099.0 0
328777.0 559504.0 0
333135.0 557716.0 0
337997.0 557267.0 0
344757.0 555812.0 0
350029.0 557813.0 0
353983.0 555190.0 0
354469.0 559446.0 0
357859.0 556752.0 0
363025.0 559284.0 0
367978.0 557818.0 0
373355.0 559010.0 0
378341.0 558022.0 0
381680.0 559911.0 0
383762.0 555691.0 0
388236.0 559831.0 0
397563.0 556335.0 0
401758.0 560140.0 0
398464.0 559455.0 0
406013.0 558996.0 0
410552.0 556815.0 0
416032.0 555766.0 0
420634.0 556328.0 0
419406.0 559269.0 0
424062.0 559092.0 0
431385.0 557427.0 0
429144.0 560295.0 0
434911.0 560393.0 0
438380.0 555707.0 0
440136.0 559782.0 0
443272.0 557033.0 0
448363.0 559098.0 0
454017.0 559347.0 0
461981.0 557950.0 0
458448.0 559955.0 0
466164.0 558662.0 0
470075.0 555860.0 0
470802.0 560836.0 0
476043.0 558804.0 0
484148.0 556328.0 0
488747.0 557721.0 0
494325.0 557644.0 0
498287.0 557421.0 0
497873.0 560865.0 0
8930.28 561937.0 0
13837.8 564209.0 0
23273.7 563614.0 0
27869.2 564939.0 0
37220.2 561184.0 0
42296.2 564182.0 0
48272.6 562943.0 0
55464.8 561346.0 0
62470.6 562665.0 0
73099.7 560908.0 0
77822.1 562730.0 0
81947.5 560311.0 0
86686.7 562320.0 0
91133.0 564996.0 0
95822.9 563389.0 0
100621.0 563424.0 0
106621.0 564096.0 0
113298.0 562220.0 0
118880.0 562815.0 0
123679.0 564910.0 0
129314.0 562366.0 0
135796.0 560910.0 0
141265.0 562701.0 0
145734.0 565009.0 0
150764.0 562126.0 0
155439.0 562802.0 0
160166.0 560684.0 0
165802.0 563207.0 0
169236.0 560679.0 0
173088.0 562606.0 0
178770.0 561951.0 0
183804.0 560490.0 0
188842.0 560040.0 0
194708.0 560484.0 0
198415.0 564553.0 0
199829.0 560738.0 0
203269.0 561392.0 0
207327.0 560928.0 0
212284.0 561997.0 0
217083.0 561669.0 0
221893.0 561906.0 0
227201.0 560290.0 0
232116.0 560276.0 0
236920.0 562336.0 0
241578.0 559874.0 0
246669.0 562101.0 0
251696.0 561161.0 0
257102.0 562711.0 0
263650.0 561712.0 0
269166.0 560545.0 0
273169.0 562780.0 0
277942.0 562175.0 0
282971.0 560737.0 0
287836.0 560330.0 0
291672.0 561340.0 0
295050.0 561237.0 0
294929.0 564626.0 0
298806.0 561570.0 0
304626.0 562167.0 0
310536.0 561744.0 0
316023.0 560183.0 0
319654.0 562796.0 0
324530.0 562306.0 0
332432.0 563057.0 0
337152.0 561962.0 0
341375.0 560618.0 0
346073.0 561027.0 0
351121.0 563117.0 0
358644.0 560768.0 0
362016.0 563691.0 0
365824.0 562097.0 0
369971.0 563027.0 0
374741.0 563890.0 0
379280.0 563179.0 0
384052.0 563143.0 0
391103.0 564443.0 0
394130.0 560044.0 0
398593.0 563556.0 0
404615.0 564420.0 0
410009.0 562243.0 0
415529.0 561641.0 0
420902.0 563022.0 0
425984.0 563003.0 0
423910.0 565310.0 0
431317.0 564422.0 0
439585.0 563945.0 0
443736.0 561643.0 0
447644.0 564606.0 0
452551.0 564056.0 0
456974.0 563629.0 0
461757.0 562829.0 0
466558.0 562757.0 0
474198.0 563368.0 0
478497.0 564077.0 0
482614.0 560532.0 0
487313.0 562921.0 0
492369.0 562010.0 0
496396.0 564862.0 0
3689.79 565571.0 0
9540.24 567607.0 0
14585.6 570501.0 0
18926.9 566225.0 0
24192.3 568634.0 0
29361.2 569409.0 0
33407.9 565891.0 0
38695.1 568594.0 0
45994.9 568344.0 0
52645.4 566141.0 0
54739.2 570712.0 0
58039.3 566476.0 0
60940.0 570085.0 0
63638.4 567431.0 0
66618.6 569597.0 0
68335.6 564992.0 0
74130.7 566062.0 0
77050.4 570095.0 0
78292.7 566541.0 0
82203.5 565360.0 0
86825.9 567422.0 0
91224.9 569336.0 0
95995.9 568489.0 0
101498.0 568457.0 0
106519.0 570111.0 0
111522.0 567562.0 0
115726.0 566603.0 0
119488.0 567023.0 0
122624.0 569708.0 0
128244.0 569058.0 0
132965.0 566271.0 0
137762.0 566595.0 0
142614.0 568911.0 0
150090.0 567188.0 0
155286.0 567453.0 0
160945.0 566715.0 0
166065.0 568801.0 0
169737.0 566223.0 0
174239.0 567742.0 0
178492.0 566752.0 0
182719.0 565250.0 0
187753.0 565113.0 0
193373.0 566873.0 0
198864.0 569648.0 0
203250.0 565855.0 0
209014.0 566070.0 0
214260.0 565976.0 0
218561.0 566091.0 0
216669.0 569440.0 0
222667.0 566073.0 0
226799.0 565147.0 0
232120.0 565626.0 0
238232.0 566536.0 0
242110.0 564889.0 0
247280.0 567081.0 0
252344.0 565628.0 0
257849.0 567576.0 0
261244.0 566427.0 0
268513.0 565629.0 0
273280.0 567237.0 0
277737.0 566940.0 0
282381.0 565904.0 0
286494.0 566673.0 0
290603.0 565902.0 0
294474.0 568996.0 0
299429.0 567363.0 0
304436.0 567311.0 0
309387.0 567467.0 0
315158.0 565517.0 0
322196.0 567318.0 0
327968.0 566344.0 0
332155.0 567569.0 0
336316.0 566525.0 0
340988.0 565236.0 0
346191.0 566599.0 0
351283.0 568377.0 0
356722.0 566139.0 0
361572.0 567418.0 0
366079.0 566976.0 0
371820.0 568157.0 0
377407.0 567790.0 0
381693.0 566782.0 0
386912.0 567187.0 0
390983.0 568912.0 0
395104.0 567447.0 0
400511.0 568528.0 0
405754.0 570205.0 0
409204.0 566938.0 0
412887.0 565789.0 0
417511.0 567078.0 0
413485.0 569238.0 0
422696.0 568966.0 0
427516.0 566941.0 0
432232.0 569155.0 0
435409.0 565825.0 0
439071.0 568568.0 0
443411.0 565663.0 0
445504.0 568994.0 0
451036.0 569251.0 0
455272.0 566983.0 0
459561.0 567337.0 0
464611.0 567349.0 0
470452.0 566589.0 0
483315.0 565971.0 0
479499.0 568880.0 0
487261.0 567083.0 0
490837.0 566245.0 0
494118.0 568518.0 0
497994.0 568652.0 0
3223.72 571987.0 0
9366.81 572753.0 0
20042.0 570657.0 0
18624.6 575135.0 0
22689.1 572803.0 0
26685.4 573105.0 0
33774.1 571151.0 0
33208.7 575279.0 0
37995.8 574303.0 0
43661.9 573438.0 0
50223.8 570746.0 0
48848.0 575266.0 0
58629.0 573539.0 0
64153.5 573745.0 0
71288.9 571080.0 0
75450.6 573826.0 0
79540.1 574051.0 0
82833.1 570404.0 0
83860.8 574878.0 0
87799.6 572458.0 0
93545.1 573179.0 0
98750.4 572213.0 0
102883.0 573304.0 0
106906.0 574395.0 0
111061.0 572581.0 0
116802.0 571466.0 0
121565.0 574036.0 0
126191.0 574410.0 0
134286.0 571102.0 0
139082.0 571634.0 0
143167.0 573632.0 0
147144.0 571135.0 0
151956.0 571554.0 0
156849.0 572523.0 0
161710.0 571888.0 0
165987.0 573756.0 0
170957.0 571848.0 0
176699.0 572116.0 0
182315.0 570707.0 0
188376.0 570642.0 0
193699.0 572963.0 0
202433.0 572324.0 0
205877.0 570416.0 0
212452.0 570485.0 0
215994.0 573524.0 0
220853.0 570230.0 0
226281.0 570283.0 0
231171.0 570637.0 0
236413.0 571151.0 0
242640.0 570364.0 0
247438.0 571148.0 0
251432.0 570057.0 0
256021.0 571214.0 0
260711.0 570677.0 0
265644.0 570550.0 0
270518.0 570442.0 0
275347.0 571573.0 0
280892.0 570740.0 0
285367.0 570405.0 0
283239.0 574670.0 0
290008.0 570807.0 0
286927.0 573897.0 0
296554.0 573425.0 0
301720.0 572456.0 0
305958.0 574744.0 0
305958.0 570734.0 0
309958.0 572647.0 0
314429.0 571033.0 0
319765.0 572126.0 0
325212.0 570431.0 0
329621.0 571553.0 0
334888.0 571131.0 0
341273.0 570986.0 0
347644.0 572504.0 0
353763.0 573116.0 0
360206.0 572053.0 0
366481.0 572760.0 0
371308.0 573154.0 0
374934.0 571638.0 0
379284.0 572592.0 0
383489.0 570477.0 0
388044.0 572752.0 0
392803.0 572197.0 0
397024.0 572050.0 0
401746.0 573479.0 0
407286.0 573334.0 0
410738.0 572601.0 0
416479.0 572769.0 0
421351.0 573329.0 0
427393.0 572415.0 0
432171.0 573626.0 0
436356.0 572432.0 0
442007.0 572911.0 0
447341.0 573151.0 0
452876.0 574808.0 0
456448.0 570947.0 0
460030.0 574014.0 0
464350.0 572363.0 0
469117.0 571949.0 0
471810.0 574792.0 0
474700.0 570996.0 0
483542.0 570801.0 0
479709.0 573502.0 0
489459.0 571981.0 0
496071.0 572736.0 0
2042.36 576859.0 0
6325.35 576267.0 0
8816.46 579545.0 0
13052.3 576073.0 0
12859.1 581080.0 0
17624.5 580263.0 0
23645.7 576506.0 0
21026.9 578509.0 0
29048.7 577939.0 0
35402.2 579861.0 0
41466.3 577855.0 0
45223.7 577700.0 0
51169.7 579155.0 0
54117.4 575753.0 0
58505.6 578211.0 0
62938.2 578658.0 0
67960.3 577686.0 0
72348.8 576335.0 0
76675.5 577923.0 0
81884.2 579380.0 0
87749.2 578075.0 0
93017.9 577953.0 0
97343.4 576221.0 0
101763.0 577856.0 0
106627.0 578661.0 0
112180.0 578123.0 0
118266.0 578287.0 0
123492.0 578008.0 0
131188.0 576024.0 0
136340.0 575821.0 0
140655.0 577657.0 0
144341.0 576856.0 0
148163.0 576113.0 0
153256.0 576098.0 0
157682.0 576991.0 0
162121.0 576682.0 0
169068.0 576758.0 0
173864.0 576933.0 0
178786.0 576423.0 0
182956.0 575865.0 0
187927.0 576411.0 0
192271.0 577086.0 0
198666.0 575109.0 0
203167.0 575791.0 0
208895.0 575753.0 0
214255.0 576858.0 0
217494.0 579429.0 0
220229.0 575226.0 0
225362.0 575818.0 0
230706.0 575317.0 0
235500.0 576598.0 0
240023.0 575555.0 0
245787.0 576139.0 0
252743.0 576244.0 0
259201.0 575587.0 0
264085.0 575633.0 0
268773.0 575323.0 0
273191.0 575160.0 0
278591.0 575995.0 0
287234.0 579732.0 0
290855.0 576177.0 0
295790.0 579015.0 0
300618.0 577120.0 0
309771.0 577011.0 0
315572.0 577044.0 0
325927.0 575266.0 0
321527.0 576843.0 0
331489.0 576855.0 0
337250.0 576026.0 0
342063.0 575932.0 0
345942.0 577925.0 0
350457.0 576865.0 0
357432.0 577835.0 0
363346.0 577485.0 0
369332.0 576587.0 0
372250.0 580138.0 0
374905.0 576235.0 0
379448.0 577157.0 0
383865.0 576264.0 0
392360.0 575923.0 0
388654.0 578094.0 0
397108.0 577334.0 0
401319.0 576890.0 0
401487.0 580042.0 0
406409.0 577361.0 0
413400.0 577412.0 0
419123.0 577866.0 0
424016.0 576557.0 0
428583.0 577796.0 0
433849.0 577912.0 0
438007.0 579751.0 0
438480.0 576296.0 0
442777.0 578482.0 0
448318.0 578080.0 0
453397.0 580050.0 0
457200.0 577311.0 0
461606.0 578181.0 0
466989.0 577268.0 0
472283.0 578798.0 0
475747.0 576061.0 0
475984.0 579840.0 0
479681.0 578453.0 0
484370.0 576152.0 0
488807.0 578919.0 0
493023.0 576924.0 0
497563.0 577476.0 0
4247.04 580814.0 0
8386.51 584306.0 0
15972.9 584681.0 0
23837.0 580676.0 0
20749.1 583729.0 0
27004.0 581790.0 0
30385.2 583177.0 0
34329.9 584979.0 0
38678.9 584352.0 0
42557.6 581982.0 0
47266.1 581345.0 0
50464.5 583905.0 0
55012.9 582437.0 0
60702.0 582654.0 0
65852.7 582247.0 0
72285.1 582360.0 0
78414.9 583545.0 0
85762.5 582724.0 0
82434.9 583640.0 0
91378.9 583249.0 0
97647.9 581099.0 0
103113.0 583478.0 0
109257.0 583152.0 0
113719.0 582653.0 0
117357.0 584521.0 0
122293.0 582846.0 0
127741.0 580752.0 0
134224.0 581815.0 0
140560.0 583011.0 0
145120.0 580350.0 0
149846.0 581471.0 0
155076.0 580931.0 0
160096.0 580962.0 0
162893.0 584662.0 0
168165.0 580587.0 0
164247.0 580555.0 0
172218.0 581758.0 0
177768.0 581615.0 0
174308.0 584886.0 0
184069.0 580994.0 0
192626.0 580122.0 0
189198.0 581082.0 0
192685.0 584715.0 0
197738.0 580891.0 0
203794.0 580472.0 0
213812.0 580296.0 0
209404.0 582791.0 0
215022.0 584623.0 0
222089.0 580010.0 0
227198.0 580692.0 0
232667.0 580921.0 0
238586.0 580458.0 0
243004.0 580448.0 0
242096.0 584653.0 0
247634.0 581803.0 0
251540.0 581075.0 0
255528.0 581752.0 0
260537.0 580748.0 0
265619.0 580004.0 0
271480.0 580977.0 0
276629.0 580260.0 0
277249.0 584796.0 0
281853.0 581065.0 0
286667.0 584836.0 0
291361.0 582202.0 0
300104.0 581506.0 0
305405.0 580353.0 0
311282.0 581680.0 0
316471.0 583458.0 0
321395.0 581623.0 0
326876.0 580682.0 0
331972.0 581584.0 0
336367.0 581381.0 0
341186.0 580205.0 0
347755.0 582559.0 0
352612.0 581057.0 0
357903.0 583940.0 0
363150.0 582533.0 0
367690.0 580812.0 0
371322.0 584973.0 0
376712.0 581267.0 0
381792.0 580859.0 0
386696.0 583236.0 0
392941.0 582037.0 0
398454.0 583121.0 0
405004.0 583978.0 0
410644.0 581968.0 0
416277.0 582647.0 0
423636.0 581878.0 0
429892.0 583037.0 0
435392.0 582892.0 0
440406.0 583148.0 0
445839.0 583202.0 0
450951.0 584111.0 0
458434.0 582304.0 0
464112.0 582385.0 0
469264.0 582538.0 0
474061.0 583106.0 0
478776.0 583104.0 0
482981.0 581520.0 0
487068.0 583583.0 0
493898.0 581106.0 0
491691.0 584542.0 0
497901.0 581685.0 0
496254.0 585746.0 0
2915.58 586161.0 0
1221.77 589828.0 0
6969.41 588809.0 0
12299.1 587242.0 0
19206.4 588258.0 0
22985.8 589748.0 0
25668.5 585923.0 0
30919.1 587979.0 0
36784.8 589448.0 0
45438.7 585875.0 0
41526.4 587509.0 0
52538.3 588095.0 0
58282.6 587301.0 0
63553.7 586909.0 0
68036.9 586261.0 0
71615.6 588328.0 0
76672.9 588522.0 0
81825.6 587279.0 0
86923.6 587240.0 0
91797.8 589124.0 0
97307.0 586906.0 0
102255.0 588721.0 0
107063.0 587926.0 0
112974.0 586985.0 0
118774.0 589266.0 0
123608.0 587914.0 0
129296.0 586840.0 0
135764.0 588568.0 0
140153.0 587163.0 0
145324.0 585077.0 0
143948.0 589945.0 0
148756.0 587534.0 0
153302.0 586186.0 0
158271.0 585035.0 0
163247.0 589402.0 0
168325.0 585463.0 0
172987.0 589123.0 0
177725.0 587082.0 0
181926.0 585808.0 0
187031.0 586038.0 0
197747.0 586587.0 0
201957.0 585033.0 0
206045.0 588000.0 0
212989.0 589885.0 0
219407.0 585260.0 0
222427.0 584893.0 0
222500.0 589897.0 0
226551.0 586346.0 0
231846.0 585948.0 0
236981.0 585502.0 0
242755.0 589179.0 0
246626.0 586588.0 0
252500.0 585199.0 0
252239.0 589334.0 0
256537.0 586363.0 0
261352.0 585915.0 0
267010.0 585422.0 0
272387.0 586782.0 0
281836.0 587412.0 0
291198.0 587594.0 0
296335.0 585218.0 0
302465.0 585684.0 0
307484.0 585639.0 0
308369.0 590004.0 0
312114.0 586709.0 0
320853.0 586609.0 0
316329.0 588310.0 0
326334.0 586646.0 0
331699.0 586139.0 0
337501.0 586912.0 0
342957.0 584931.0 0
347402.0 587575.0 0
352764.0 586842.0 0
357908.0 589362.0 0
362452.0 586888.0 0
366416.0 585299.0 0
368155.0 589677.0 0
376047.0 585735.0 0
380059.0 585144.0 0
378528.0 589629.0 0
383795.0 588138.0 0
390494.0 587963.0 0
395942.0 587115.0 0
400774.0 587691.0 0
407928.0 589099.0 0
412291.0 586724.0 0
417113.0 588281.0 0
421282.0 586292.0 0
425455.0 587126.0 0
432860.0 587056.0 0
429382.0 589129.0 0
437520.0 587547.0 0
442910.0 587921.0 0
448130.0 588260.0 0
452306.0 587707.0 0
456346.0 587395.0 0
461524.0 587103.0 0
466840.0 587023.0 0
471832.0 587150.0 0
477448.0 587373.0 0
482606.0 586535.0 0
488625.0 588692.0 0
492924.0 588125.0 0
497785.0 590131.0 0
2837.25 593455.0 0
8082.58 593045.0 0
13211.5 592054.0 0
17869.1 592438.0 0
21989.4 594284.0 0
27016.7 591826.0 0
32510.5 593356.0 0
37564.0 594772.0 0
41937.1 592173.0 0
47277.8 590695.0 0
51561.1 593183.0 0
56424.9 592427.0 0
61674.0 591610.0 0
67214.7 591123.0 0
73233.6 592898.0 0
78385.7 593653.0 0
84271.3 592639.0 0
89847.2 593481.0 0
94968.4 593069.0 0
99622.1 592016.0 0
104730.0 592855.0 0
109523.0 591752.0 0
113510.0 591556.0 0
116896.0 593243.0 0
122541.0 592537.0 0
128692.0 594171.0 0
134934.0 593725.0 0
139773.0 591849.0 0
147146.0 592737.0 0
143581.0 594943.0 0
151323.0 591463.0 0
157644.0 590645.0 0
162834.0 594684.0 0
167874.0 591292.0 0
178256.0 591642.0 0
183559.0 590548.0 0
188416.0 590549.0 0
192864.0 590219.0 0
197520.0 591220.0 0
202285.0 590147.0 0
203076.0 594696.0 0
208533.0 592272.0 0
217509.0 590028.0 0
217524.0 594797.0 0
222376.0 594909.0 0
227985.0 591593.0 0
233110.0 590472.0 0
231197.0 595029.0 0
237979.0 590330.0 0
241620.0 593925.0 0
248151.0 590711.0 0
253314.0 594779.0 0
256441.0 590585.0 0
260866.0 590942.0 0
262517.0 594820.0 0
265634.0 590653.0 0
270757.0 591935.0 0
276870.0 590829.0 0
281985.0 591805.0 0
286672.0 590726.0 0
292581.0 592627.0 0
298619.0 591410.0 0
304051.0 590257.0 0
306082.0 594513.0 0
312944.0 591857.0 0
318612.0 592765.0 0
323293.0 590685.0 0
327848.0 591857.0 0
333151.0 591248.0 0
337836.0 592824.0 0
342620.0 590757.0 0
346744.0 594293.0 0
351017.0 591854.0 0
356391.0 594583.0 0
362707.0 592475.0 0
373377.0 592468.0 0
382343.0 592984.0 0
387733.0 593228.0 0
393254.0 592245.0 0
397954.0 591887.0 0
403415.0 591980.0 0
412741.0 591933.0 0
408005.0 593983.0 0
417862.0 593321.0 0
422019.0 590690.0 0
422376.0 595619.0 0
426641.0 592826.0 0
433758.0 592130.0 0
439961.0 592719.0 0
445878.0 593312.0 0
452281.0 592732.0 0
459048.0 592546.0 0
464219.0 591055.0 0
469140.0 592191.0 0
474707.0 591192.0 0
479815.0 591304.0 0
484366.0 591049.0 0
483967.0 595072.0 0
488229.0 593888.0 0
493667.0 591930.0 0
497572.0 594648.0 0
1350.55 597361.0 0
6121.64 597878.0 0
11223.6 596906.0 0
17019.8 597564.0 0
24113.4 598987.0 0
28684.3 596949.0 0
33478.4 598639.0 0
38319.3 599207.0 0
42453.1 597268.0 0
46962.1 595872.0 0
51514.2 597881.0 0
56884.8 597910.0 0
62221.7 596787.0 0
66791.1 596031.0 0
70932.6 597430.0 0
75725.6 597772.0 0
81461.1 598931.0 0
87593.7 597152.0 0
92420.8 597532.0 0
98410.6 596969.0 0
103745.0 598484.0 0
109094.0 596586.0 0
114433.0 596780.0 0
119720.0 596845.0 0
124447.0 598996.0 0
128707.0 600163.0 0
133928.0 598120.0 0
138800.0 596268.0 0
147154.0 596137.0 0
151649.0 597203.0 0
157587.0 596977.0 0
162972.0 599711.0 0
167700.0 596281.0 0
173358.0 595393.0 0
177924.0 596182.0 0
177543.0 599843.0 0
181735.0 595687.0 0
187066.0 595113.0 0
186734.0 599889.0 0
193279.0 596143.0 0
198915.0 595227.0 0
203498.0 599704.0 0
207451.0 596549.0 0
212268.0 595288.0 0
218039.0 599834.0 0
222054.0 599791.0 0
226453.0 596109.0 0
236417.0 595127.0 0
242450.0 599871.0 0
247201.0 595771.0 0
258522.0 595068.0 0
256668.0 599392.0 0
266877.0 595610.0 0
273556.0 596181.0 0
277995.0 596269.0 0
281826.0 595347.0 0
283145.0 599510.0 0
286840.0 595922.0 0
290870.0 597093.0 0
296025.0 597373.0 0
301745.0 595716.0 0
310353.0 595718.0 0
314814.0 597107.0 0
319818.0 597839.0 0
325294.0 597081.0 0
330977.0 596087.0 0
335729.0 596721.0 0
341619.0 597375.0 0
346754.0 599438.0 0
350988.0 597279.0 0
355950.0 600386.0 0
361117.0 598538.0 0
368141.0 596419.0 0
372619.0 600367.0 0
378212.0 597430.0 0
384353.0 597491.0 0
390572.0 597877.0 0
395278.0 596289.0 0
400601.0 596708.0 0
404561.0 595698.0 0
407017.0 598816.0 0
413457.0 597202.0 0
418232.0 597987.0 0
426874.0 598070.0 0
431337.0 596610.0 0
436361.0 596907.0 0
441199.0 598290.0 0
446137.0 598424.0 0
451477.0 599365.0 0
457016.0 597950.0 0
461797.0 597438.0 0
467103.0 597890.0 0
473391.0 596957.0 0
479478.0 596496.0 0
486799.0 599230.0 0
492702.0 597275.0 0
497910.0 599108.0 0
2249.3 600944.0 0
5675.97 602735.0 0
10719.8 602788.0 0
17192.3 604007.0 0
22655.9 603640.0 0
28489.1 602215.0 0
33826.0 604072.0 0
39243.2 603948.0 0
43373.6 605664.0 0
46844.6 601694.0 0
52939.6 602829.0 0
58128.7 603166.0 0
63419.7 602089.0 0
68144.6 600996.0 0
72512.5 601948.0 0
77081.4 602615.0 0
83260.9 603588.0 0
87372.2 601532.0 0
92776.9 602703.0 0
98286.0 602502.0 0
102927.0 603116.0 0
107891.0 601780.0 0
112173.0 600641.0 0
116770.0 600992.0 0
121181.0 601832.0 0
125951.0 603178.0 0
132467.0 603721.0 0
137694.0 601499.0 0
142980.0 600189.0 0
148026.0 600788.0 0
153695.0 602527.0 0
158934.0 602267.0 0
167311.0 600813.0 0
172114.0 601252.0 0
182505.0 600608.0 0
190853.0 601747.0 0
197845.0 600876.0 0
208207.0 601087.0 0
213209.0 600421.0 0
225847.0 600397.0 0
230832.0 600539.0 0
236615.0 600361.0 0
248043.0 601306.0 0
252427.0 600870.0 0
261130.0 601370.0 0
266685.0 601410.0 0
272360.0 600746.0 0
277832.0 601508.0 0
288351.0 601344.0 0
293301.0 601748.0 0
297192.0 603240.0 0
301047.0 600313.0 0
307435.0 600610.0 0
313298.0 602042.0 0
318352.0 602602.0 0
322825.0 601588.0 0
327107.0 602628.0 0
331854.0 600982.0 0
337135.0 602168.0 0
342306.0 603325.0 0
346718.0 603409.0 0
351298.0 602707.0 0
359745.0 603466.0 0
364376.0 602654.0 0
368342.0 601479.0 0
372057.0 604825.0 0
376518.0 602703.0 0
382158.0 600911.0 0
387200.0 601796.0 0
392647.0 602506.0 0
397704.0 601306.0 0
402668.0 601469.0 0
406751.0 603828.0 0
411493.0 602004.0 0
417124.0 603272.0 0
422315.0 600985.0 0
427141.0 603267.0 0
432099.0 601355.0 0
437563.0 602350.0 0
442993.0 603264.0 0
447649.0 603149.0 0
452669.0 605123.0 0
456693.0 602558.0 0
461592.0 602530.0 0
466574.0 603164.0 0
471794.0 603059.0 0
477311.0 601586.0 0
482320.0 602307.0 0
488172.0 604164.0 0
492171.0 602653.0 0
496340.0 602787.0 0
POINT_DATA 5000
SCALARS Radius float 1
LOOKUP_TABLE default
5415.48 5120.0 2356.98 6182.6 6810.52 5840.26 5073.35 4834.9 3863.18 4998.37 5492.18 5258.36 5061.3 3163.97 5812.43 5906.14 5733.48 5580.89 3588.44 5645.7 6110.27 5561.06 5670.04 6044.04 5085.53 5351.6 5867.73 3951.75 5013.56 4499.64 3642.12 5542.27 5122.66 5484.19 3557.27 7513.1 5254.28 4436.4 4517.56 4182.53 4672.91 5176.86 4366.19 5553.16 2938.66 3672.51 4008.92 6716.79 3850.77 5325.36 5484.83 5538.89 4715.55 6059.59 2720.68 5701.86 4375.68 4238.81 5054.98 6030.06 5170.02 4688.68 4927.31 4402.52 5185.34 4432.58 5903.42 3955.56 3761.32 5292.64 4118.05 5065.13 4940.78 3615.22 4380.59 5546.39 6759.9 4730.36 5926.61 4955.55 3563.63 4345.55 4468.59 5885.03 5325.02 5200.76 4862.64 5205.43 6684.56 3968.64 2635.86 4385.06 6166.5 5936.02 5305.17 4231.61 3379.84 7613.27 4133.88 4094.62 5945.65 5418.62 7021.47 5416.38 6051.14 5836.15 6704.06 2837.58 3871.88 5246.2 5017.13 3673.74 5279.39 4827.23 6116.18 7447.37 4688.67 4924.6 7184.19 4290.3 3867.67 4861.08 3942.53 3607.45 4951.03 4665.12 6483.19 6230.49 5493.32 3641.64 5740.68 4277.89 4195.44 3261.21 3653.41 6496.85 5600.93 3856.01 4390.66 4124.71 4911.47 5803.39 4381.97 3255.82 4733.32 2899.43 2812.98 2924.37 5399.73 4003.05 4827.82 3589.27 5759.91 4333.2 3038.33 3936.02 4780.03 3383.4 4927.02 5109.54 4174.52 7054.71 4601.27 5489.43 5747.75 4796.33 5539.32 5360.19 4794.96 4874.39 5541.59 4839.34 5083.08 5728.85 6337.56 3998.5 5863.59 6257.19 5242.73 4065.69 5603.15 5390.22 4805.87 5227.21 4712.33 3997.1 3260.67 5123.52 4295.38 5529.52 5252.48 5495.39 3554.9 3856.1 4044.71 3996.0 5980.74 5816.2 3829.13 6458.82 5527.54 5573.7 5054.25 7325.81 6425.26 6186.19 4840.01 2980.99 6834.49 5525.39 4024.3 5938.34 6394.38 5555.28 4737.14 4686.65 4695.45 4660.72 3888.21 6038.78 5697.78 4392.68 4667.36 4091.31 7199.21 5255.32 4049.23 5337.48 6124.89 5481.78 5542.21 5708.81 4015.92 5043.05 4487.31 4002.16 4138.16 5693.81 3091.3 5789.98 6138.47 6302.8 5697.4 4727.62 4270.95 4055.8 5206.78 5280.17 5028.96 5143.58 4484.76 5152.36 5611.2 7933.0 5173.87 5380.13 5118.27 5169.36 5932.23 5834.74 5556.96 6052.7 3921.18 5891.05 6902.81 4254.17 6644.76 5615.42 4523.7 7565.34 6037.08 6756.95 4651.28 4382.74 5601.05 3586.91 4516.43 4929.8 3103.0 5637.59 3307.12 4937.14 5924.89 4778.34 3486.22 6894.71 4684.5 4414.54 2540.31 5120.49 6029.66 5409.61 6038.2 4005.44 5713.22 5555.88 6732.43 3183.98 6362.12 3866.16 4524.28 3778.1 4511.82 4220.65 5826.64 6820.42 4455.12 4894.16 4896.52 5711.87 3372.79 4941.22 5791.61 5788.23 5581.75 3798.62 6392.01 3666.57 5308.1 6372.62 4937.02 5629.19 5090.24 5091.39 2240.39 6324.23 5096.78 4727.24 3320.52 4685.34 4329.05 4151.94 5927.43 4384.42 6355.42 4362.19 3693.63 4948.92 3115.91 4493.48 4749.8 6084.86 5810.84 5478.92 5551.36 4467.94 4850.81 6038.14 5201.36 5262.61 4306.53 5094.81 5972.06 4312.67 5861.71 4359.04 5017.78 3794.63 6175.81 4727.24 6959.81 4829.35 4816.2 6321.41 4751.02 5184.56 5282.64 4715.72 3369.13 4479.66 5367.2 3043.85 5461.13 6730.19 4907.89 5655.21 4786.6 5923.5 5740.84 4612.68 5530.87 5293.9 4129.43 4973.83 3912.37 6142.94 6342.25 3843.58 4792.73 4931.38 4736.58 6082.81 5110.37 6327.9 5690.56 5492.26 5244.78 5762.84 3937.74 5082.6 4230.54 5094.44 3748.24 4655.49 4933.21 5375.47 4723.12 4809.42 5024.9 5659.17 6135.57 5998.38 5423.8 4270.24 3417.33 4989.15 4164.13 5015.69 4947.52 6677.09 4305.57 5813.4 5201.67 4424.7 4089.76 5526.55 4754.05 3192.41 6084.93 4987.87 3315.57 4669.66 4808.52 4764.96 5607.24 3599.45 4726.76 5839.13 3735.44 4907.06 4073.93 4645.41 5163.9 6043.3 4433.59 6445.94 4281.49 4310.18 5542.14 4218.06 4602.25 6691.39 4270.53 4194.5 5191.63 4501.51 5379.87 5513.6 4901.41 3485.26 4556.36 3240.09 3191.99 5664.98 4048.37 4659.59 4220.88 6519.71 6640.13 5478.47 5351.39 6142.37 5119.37 6061.47 6163.38 4997.27 4566.18 4964.09 3459.9 4093.08 5543.27 4717.05 5856.11 5287.2 4234.94 4562.29 5013.13 5080.66 4926.42 5110.45 5248.77 4642.34 4083.97 4520.1 5874.89 4293.03 4528.09 4165.81 4389.21 3791.79 4128.98 4925.44 4951.47 5246.61 4307.28 5215.15 5804.71 5020.12 5046.33 5727.3 5053.92 4242.52 6352.26 3057.03 3847.38 5495.68 3818.59 5489.34 5952.75 5708.14 5537.72 4320.28 6332.36 7134.64 4931.53 4790.08 5480.13 5082.47 4187.56 5344.25 4840.84 5344.0 4593.7 4478.15 4043.57 5925.6 3708.04 6013.14 5138.31 4602.86 5264.06 4621.75 4551.24 3688.8 3369.23 5358.59 4548.16 5449.18 4515.71 4322.15 4714.54 3092.35 3629.96 5210.03 3320.11 6022.17 4583.31 3982.23 4503.89 5806.08 5243.29 4853.39 4449.22 5628.24 3327.49 4109.88 5992.26 3960.8 4980.85 5070.39 5714.58 3329.99 5208.32 3296.27 4607.02 5153.74 3895.51 6673.96 3556.85 6291.51 5882.89 6246.22 5370.52 4188.32 4100.38 3697.96 4739.42 5538.93 4899.11 4745.45 5281.28 2631.9 5356.51 4863.72 4087.15 4143.08 5002.48 6623.85 4262.82 3920.42 5102.36 6122.55 5978.9 2739.94 6308.71 3629.62 4997.27 4716.19 5135.69 4301.06 3456.98 6045.46 4763.45 3815.26 4150.99 4216.92 3929.19 3771.48 4107.03 5681.38 5198.77 5147.67 4138.42 5987.17 4292.06 5011.31 3979.82 5006.58 2765.2 4581.13 5586.81 4219.07 3610.4 3856.59 5413.79 6387.01 5367.52 6202.55 5025.39 5030.91 5893.5 4547.19 5507.24 6851.54 4336.42 5570.3 4306.11 3402.32 7589.94 3130.65 5004.67 5365.89 4511.54 5409.33 5196.0 4923.9 4973.78 4613.31 3947.47 6119.09 5091.68 4713.25 4204.84 6243.0 5069.25 5048.89 3991.03 3161.47 5441.96 5174.89 3435.9 4288.3 4652.29 5774.81 5344.77 4723.48 5027.98 5097.87 4278.07 7267.18 6255.18 4277.88 4668.71 4758.21 7500.97 3948.23 5228.18 5787.31 8332.24 6155.31 4342.9 4553.56 4223.33 5911.67 5514.76 6695.82 4290.14 6405.76 4877.67 4020.32 5445.87 4245.72 4704.72 4571.7 4177.94 4742.68 4502.5 5922.5 4271.69 3970.25 3633.87 2775.04 4850.01 5643.58 5577.04 6318.18 4481.53 3948.17 5077.33 4746.52 5572.95 6338.89 5584.06 7111.16 3817.13 5023.15 3844.9 4377.07 3695.36 5101.59 3848.93 3813.22 6020.48 5935.47 5903.66 4528.49 5419.37 4466.03 5275.32 4898.94 5985.29 4178.15 4694.83 4733.04 5788.66 7531.29 3903.75 4755.47 5935.03 6390.78 7435.25 6826.57 4788.87 4495.87 3746.31 6022.72 5498.32 5527.33 5346.27 6475.1 2691.29 6256.02 2845.98 5320.92 7228.46 6362.14 6719.88 5065.11 5978.82 3927.99 5069.84 5329.64 4051.44 3323.28 6049.55 5835.78 5709.62 3498.2 6562.18 4541.21 5908.1 6048.7 4344.58 5896.46 5634.83 5495.84 4164.68 6268.1 5782.6 4862.21 5113.21 5499.11 4011.77 4527.08 5347.48 4374.35 4810.12 4138.46 3821.72 5215.05 4986.77 6035.6 5137.34 5330.45 5423.0 5125.78 3824.16 3689.45 3868.18 6723.16 3686.21 5372.61 5402.24 6480.17 6445.22 3963.86 4564.34 4871.44 5076.35 6375.99 5200.05 5234.29 4091.8 4645.58 5313.66 2651.49 5512.23 4711.62 5349.31 4247.23 4268.65 4649.22 5509.42 4354.08 5936.36 4520.62 5229.48 5475.7 4485.99 5127.16 5475.8 5314.69 4244.99 6050.81 5543.46 4249.46 5965.81 3702.37 4643.31 2330.66 4177.19 6917.52 4969.21 5402.21 4880.14 4989.09 4982.31 5289.52 5269.18 4406.1 4305.43 5034.59 4942.77 5080.18 5868.82 5266.5 4050.9 4523.88 4066.38 4241.89 5054.74 4099.77 5941.72 4981.9 5794.24 4127.74 4537.32 3066.13 4302.5 2476.04 5105.16 4156.38 6006.16 6009.88 5050.65 5022.8 5316.75 6133.92 3784.5 4178.4 3719.84 5669.65 5820.48 7034.11 6261.42 2586.12 6125.34 5965.78 6396.74 6898.19 5526.14 6449.45 5198.29 3975.31 4044.45 5344.43 5262.19 5045.38 4373.47 6034.41 5350.88 5130.91 4948.5 4519.22 4527.02 4531.14 5013.42 3838.56 5651.07 6248.81 5872.05 5273.35 4853.02 6259.23 5181.4 5670.2 4114.24 5166.79 2976.22 5394.55 5094.52 4256.43 4946.74 2682.24 5928.32 5415.19 3950.63 4612.62 4016.18 5526.75 5435.74 6385.23 5327.45 5560.26 2983.99 6185.89 3997.96 4750.17 5660.85 3460.94 3990.25 3691.0 3758.07 4752.51 3587.05 6229.37 6718.19 5314.85 4307.48 3848.54 5941.4 5450.44 5331.02 6510.17 4263.33 4454.63 5592.32 5912.61 3279.1 4978.31 4403.98 4948.98 4414.48 5163.02 4656.78 5991.09 4678.38 5126.91 5448.61 4827.33 7055.53 3937.08 5513.57 5013.67 5729.23 5934.22 3780.23 5624.49 3471.03 4359.62 5253.55 3745.84 5011.84 6057.22 6946.21 5062.71 5433.8 4497.59 5252.34 5975.63 4274.61 2965.79 4410.55 7099.43 4287.63 5315.4 4516.28 3627.82 5678.96 6070.58 4244.9 4285.32 5490.43 5452.83 5022.28 4959.34 5197.52 5178.99 5383.07 4790.78 4591.87 4247.15 6552.22 4602.85 4962.77 6101.92 5323.3 5088.44 4998.21 3457.48 4662.56 3931.07 3405.98 5417.15 3688.16 4681.72 4945.39 5996.33 5661.62 6631.19 3619.07 4467.04 4275.57 5626.61 5817.25 2614.4 6363.92 6205.93 4439.35 5830.72 6184.4 3828.81 4373.45 4236.14 5733.62 4407.87 5282.91 3797.33 4425.84 7256.35 4871.96 4800.69 5742.65 4863.23 4402.67 5381.16 5565.13 4560.84 5227.52 6086.96 4092.24 4729.43 5233.78 4562.74 5776.57 3942.07 7144.24 7443.72 5133.97 3600.43 6600.94 5371.02 5260.34 5206.48 4709.35 6586.45 5826.04 5876.71 5226.0 5339.78 3095.48 4861.06 4166.08 6481.79 3979.26 5960.66 6608.73 3999.48 4203.26 5188.81 4730.41 5696.88 5690.26 4156.2 4289.17 5564.02 6444.77 6314.07 5776.37 3921.08 4190.31 5486.68 6048.86 6894.26 4986.51 5339.38 6169.11 5615.35 6422.84 4027.09 4502.18 5379.09 5210.48 7552.94 4051.34 3627.55 6239.84 4635.6 4256.67 5865.39 4427.28 6079.11 3082.32 6430.39 7440.72 3658.37 3949.6 5376.71 5703.6 6326.18 4867.08 4266.03 6648.68 4713.74 5407.78 4084.49 5061.98 6632.99 4537.6 4923.24 4419.61 7177.44 5309.98 4563.46 4082.57 5255.18 5282.51 5169.9 3004.16 4460.92 5945.89 4042.28 4105.55 6566.1 3555.86 6386.78 4470.61 6193.35 4631.83 6887.27 3701.27 6008.49 4806.34 5683.26 5598.74 4906.82 5131.24 4788.58 6155.1 5196.67 6496.67 5474.8 4750.78 4373.3 5762.59 5029.78 5320.28 5374.51 5224.12 4850.14 4569.12 4796.58 4298.67 5873.69 4962.09 6222.42 5654.31 5470.77 4643.85 3923.03 4004.04 5607.14 5082.74 5411.85 6915.83 4844.57 6072.45 5092.37 4027.46 4470.98 3901.8 5759.46 5083.41 7055.42 3836.45 5100.25 5683.61 5805.86 4049.02 5311.03 4470.4 4611.53 5255.12 4285.66 4896.11 4318.48 5172.53 4135.62 6132.95 5801.99 4860.33 5534.94 3685.13 7644.38 3312.06 5180.76 6004.68 3361.26 6799.4 4409.63 3661.9 5370.85 5949.46 3178.54 4765.02 3776.94 5629.39 4448.13 5070.29 4807.28 2261.36 5075.55 5280.69 4220.03 6923.84 5449.46 6179.96 5703.07 6113.54 5147.36 4662.43 6260.79 4043.66 3963.76 5528.53 6553.94 5726.66 5460.65 4767.78 5235.17 4779.5 4340.76 4421.12 4435.36 5254.49 6065.22 4996.99 4221.28 4456.39 4384.88 4896.39 6081.14 5480.83 5653.9 4220.46 4287.53 5046.21 5612.21 4929.14 5894.61 5687.83 5004.23 6442.69 6320.71 4648.04 6262.72 3527.05 6607.87 3365.82 3664.11 4163.5 7092.87 4123.6 4538.95 4970.88 6739.08 7042.12 3637.61 4471.58 5463.38 6098.14 4472.17 5750.71 4938.74 3474.39 4831.47 6062.05 6939.12 4735.33 4413.85 3999.94 6171.13 4864.22 2395.5 5511.88 5941.61 4512.11 4933.65 6098.1 6248.6 5443.58 4558.46 6401.43 5346.68 5296.29 2681.29 5094.48 3872.61 5576.92 4238.4 6408.83 3930.79 5266.22 5226.97 5754.18 5132.68 3418.99 4480.95 5278.36 6218.95 5521.25 5222.16 5107.23 5136.08 5558.68 4010.57 5246.47 2684.03 6157.04 4768.61 4522.21 5506.19 6719.94 4950.67 5227.59 6166.29 5453.6 5294.77 5409.63 3077.84 4709.05 4630.82 4813.08 6799.88 3062.43 5426.78 2967.38 5652.0 4159.35 5463.41 5225.33 4237.98 4929.75 6045.22 6649.96 4303.19 5514.84 3633.79 4256.57 3914.2 5421.53 4607.85 5937.08 6070.3 5128.57 6000.7 5945.08 3979.54 5139.5 4968.03 7493.3 4814.55 5833.06 5944.09 5698.77 3464.83 6515.84 4143.78 5724.64 5965.15 4925.63 4763.66 4666.81 4888.6 4780.2 4797.52 6326.39 6643.85 6343.14 4020.95 5501.93 5462.21 6313.06 5945.21 3493.7 6345.13 4200.03 6470.3 4719.7 5516.95 5313.22 5563.79 4406.4 3905.51 6853.85 3493.47 4020.4 3497.9 4596.75 5782.48 4031.78 5950.04 5708.99 4231.83 5687.85 2435.33 6333.29 4558.47 5020.71 5731.57 5997.88 5662.55 5839.71 4360.23 6234.32 5365.24 4004.35 5293.51 4763.96 5008.63 4270.74 6293.89 6595.03 4993.35 4558.15 4983.39 5366.52 4690.55 5533.72 5533.42 4802.32 3678.08 4599.38 5518.57 4187.31 6191.29 5463.48 7422.36 3240.51 5161.01 4527.99 4298.15 4376.7 4628.4 5190.61 5832.37 6051.83 4642.93 3973.12 4263.16 6024.75 6109.49 5860.67 4540.86 5990.52 3764.1 4835.83 5604.35 6477.91 3091.67 6439.37 4614.3 4081.97 5401.99 5134.39 5784.3 5769.98 6088.68 2221.99 4643.56 4135.08 5620.74 5233.29 5604.21 3169.67 4612.06 5204.04 5304.13 3361.92 3306.14 4863.79 5490.58 5395.14 4702.06 2477.07 4923.41 5117.47 2990.77 3163.78 4497.31 3293.56 4305.16 5882.65 5092.28 4739.14 5078.86 4918.77 5163.55 4636.5 4819.73 6817.32 3382.7 6471.55 6263.44 4319.79 4863.27 5960.56 5122.63 5774.97 5862.86 6049.79 5374.98 5226.56 5274.19 5599.49 5452.42 4097.57 5017.5 5328.22 4151.76 4216.17 6484.17 4721.02 3546.71 4254.37 3374.08 5768.57 5564.23 3735.24 6574.95 4074.48 3614.96 4477.04 3886.68 5703.74 4747.55 5737.92 3056.7 3755.95 5591.76 4585.31 4586.19 4446.06 6625.18 3450.93 5323.91 5097.45 4185.61 5737.75 2761.07 3778.02 6552.21 5417.8 5146.37 7132.12 5227.02 4836.16 5300.96 5151.11 5730.33 5545.46 4543.1 6550.44 8325.01 3764.06 4440.81 5941.9 6642.76 5829.22 4497.78 5567.93 5987.42 5433.65 5332.65 4442.22 6451.33 5413.31 6316.56 4332.87 6420.81 4715.58 3317.83 4450.7 5580.92 3532.3 5151.52 5973.33 3583.21 4347.74 5442.32 5067.46 4863.01 3580.58 5356.79 4011.37 4778.82 4312.56 6124.08 5467.84 4750.58 6710.88 3967.48 6667.68 6213.04 4721.32 3830.46 6413.11 5274.14 5529.42 4434.19 5257.12 4903.82 5100.1 4940.42 3954.91 4371.99 3703.1 4946.42 6090.91 3561.29 5085.71 3295.83 5923.4 4963.34 5644.82 2965.01 6413.02 3492.19 4584.5 4118.84 5548.29 6766.43 5916.16 2315.64 4703.08 4390.41 4890.5 6113.95 3731.84 3981.07 4050.08 4901.07 5186.3 3436.15 5711.11 5005.85 4575.94 5325.44 4938.72 5021.88 5956.65 4188.87 4498.25 5151.21 5398.64 6817.57 3573.73 6853.04 4745.43 5831.96 5464.68 4475.83 2685.81 4510.8 5889.35 5010.04 4394.56 4570.98 4275.07 5825.38 4573.72 4047.87 5099.21 5742.47 4917.99 5636.4 4367.78 4350.12 3603.51 5670.0 4232.16 6609.84 4344.51 5135.96 5680.94 3781.77 3834.43 5581.55 5193.01 3474.5 5491.37 3860.83 6348.03 5732.27 4523.39 4792.39 5434.47 5278.56 6917.62 5631.14 4243.79 4343.78 5811.18 5263.3 4008.15 4887.76 4669.06 3012.99 4811.32 6400.08 6184.88 4743.59 5829.32 5208.14 4396.25 3763.05 5092.24 5369.08 4518.04 5291.9 4766.06 4009.62 4874.18 2511.46 2081.58 6505.78 2775.69 5657.36 4785.25 6519.43 3619.79 5029.47 6306.21 5053.95 5926.11 5253.37 5235.11 5767.9 5211.38 6031.67 6515.8 5384.76 6138.12 4428.78 4965.89 5746.28 5659.95 5187.7 4152.85 4082.47 4623.61 4219.78 5081.78 4188.3 4459.28 6116.33 4260.92 5499.39 6250.23 4407.9 4718.54 4440.57 6235.57 5412.31 5203.08 3087.09 5374.07 3623.87 7480.41 6934.37 5163.77 4488.85 3423.15 5010.2 4579.69 3554.48 6496.52 5966.61 4893.49 4388.63 4834.87 5102.75 4597.29 5760.22 4200.09 5938.17 5931.77 4795.43 5097.95 5108.06 4222.4 4693.52 4000.43 4661.03 4568.41 3624.7 3420.08 4912.04 4320.42 4691.91 4539.07 4255.34 5064.79 5480.3 7509.24 5896.26 5388.78 6101.13 5599.7 4163.74 6969.28 3665.95 5698.96 4095.75 3319.67 4298.45 5222.51 4076.59 5164.1 6464.15 5658.37 4707.06 6074.94 4250.88 4222.77 3783.54 3475.67 5268.38 5527.23 7038.89 5146.37 3863.67 4814.12 4013.38 5067.56 6137.8 3352.35 2735.53 5116.6 4909.65 3747.03 6523.86 7693.4 4286.49 4326.48 4437.07 3449.37 5491.9 6405.0 5551.95 4659.16 3918.87 3101.75 5549.49 5423.42 6605.86 5012.5 5435.19 5461.55 5876.64 4270.15 3298.2 6865.76 5424.46 5266.01 2978.76 2040.66 7016.27 6622.11 4689.15 5089.62 3685.13 6790.73 4655.16 5243.43 4741.26 5409.66 5920.32 4537.14 4186.6 5251.4 5551.9 3867.19 4453.64 4345.67 5511.6 5019.93 3885.86 6261.75 5235.29 5177.64 4517.73 4338.08 4541.8 4255.31 6134.99 5453.3 4479.94 3838.47 2588.37 4062.5 5887.15 6736.03 4435.51 8659.64 4588.7 3766.55 5683.95 6027.62 5469.13 5765.42 6123.03 6098.95 4997.83 5453.98 3991.42 5148.08 3718.69 4514.79 3672.21 2216.82 4509.89 6752.75 5269.38 5607.3 4914.45 2928.82 5313.12 4698.87 3984.88 5160.59 5262.35 4732.09 4281.98 7165.9 5344.83 7046.11 3427.63 4863.97 4146.81 6342.48 5756.75 4587.67 5093.82 5951.81 3924.14 6918.35 4296.69 6238.32 6804.79 6471.42 5283.8 5369.5 4428.14 6016.19 4479.11 4124.49 4972.17 6685.4 5699.53 4850.06 6332.01 7044.29 4805.33 7085.01 5980.95 6193.08 6069.3 5887.01 3862.77 5168.35 5388.39 2783.85 4356.49 5335.47 4526.81 3994.07 4219.94 5907.46 6740.71 4264.91 5399.29 5789.55 4633.05 2275.45 4901.2 6522.59 5711.62 4383.56 3562.79 4990.79 7093.13 4953.1 5818.95 6449.64 4857.84 3940.49 4908.49 4962.21 4749.59 5884.9 3468.42 3685.65 4590.55 3876.21 4673.35 5869.4 4916.22 5297.19 3701.16 6022.7 4255.85 5097.69 4765.72 3988.3 5857.79 2908.7 3757.34 4039.91 6415.61 5276.7 4752.14 4378.3 4419.71 4950.97 5037.06 5660.16 5175.29 5842.56 5199.44 4094.73 5191.08 5424.88 5415.85 4199.45 7234.66 6599.66 4055.54 4886.12 6419.12 4233.8 6107.89 4976.12 4446.84 4817.16 5660.55 5653.03 6192.0 4940.28 5885.28 6579.31 3004.34 5323.55 3022.6 5375.1 4811.76 4172.6 5351.56 5498.42 4196.37 3344.57 5318.53 5220.76 6945.98 5138.2 5783.48 4701.5 4449.98 4771.65 4840.44 5439.49 6639.64 5212.43 3687.65 5454.12 4834.3 6348.54 4066.57 5642.35 6372.13 6357.47 5404.01 4891.38 3230.13 5535.91 5714.25 5955.86 6176.67 5325.96 5412.24 5016.02 4920.21 4581.37 4234.18 4049.16 3936.95 6153.94 6836.82 3858.17 4631.99 4740.98 3477.1 3185.39 5128.77 3728.18 7122.87 5633.61 5048.19 4243.26 6799.23 4888.27 4592.15 6487.56 4854.11 5971.22 4998.22 5533.19 4909.31 5417.21 6602.43 4798.17 3568.28 5425.98 5166.79 4516.53 2895.63 4093.99 4122.92 4997.91 5079.22 6464.8 3604.14 4452.54 4684.44 4406.05 4858.44 4680.94 5828.35 5799.69 5571.72 5689.26 3809.69 4771.13 4992.42 7051.9 4940.84 5895.77 4608.41 4184.23 4732.09 4833.46 5750.07 6136.49 6543.13 4642.66 5149.72 4687.64 5469.47 5036.58 4888.12 5329.59 6119.63 4244.21 5411.02 4989.56 5512.16 3197.63 4287.16 3645.12 4863.96 3456.47 5471.74 6200.54 5148.58 4652.01 3548.39 5421.64 4858.51 4207.54 4366.74 3375.28 5625.65 4301.61 4936.96 3184.64 4481.76 5206.33 5530.49 5452.78 5065.26 4304.41 5578.94 3989.7 7610.49 4777.03 4286.17 4246.61 3684.56 6028.09 5452.36 3804.5 6486.37 4638.18 6448.66 5211.6 3556.79 4453.97 3503.41 7317.04 6412.67 7001.83 4504.35 5012.97 4036.91 5589.37 5110.11 6379.14 5216.26 4887.52 5478.95 3851.85 6318.23 4206.98 5156.76 5932.07 6101.57 4793.65 2949.12 4532.89 4533.37 4848.46 2779.99 5742.09 5887.38 5807.46 6942.34 5851.61 3658.05 5478.11 5526.31 5030.15 3644.78 4078.93 5934.82 4501.78 3572.94 5797.36 5001.58 4153.84 5119.86 5089.26 5084.17 4901.44 5415.45 3776.8 5096.43 6156.21 6104.26 5583.61 6063.64 5996.66 4986.71 6479.39 4405.42 3598.08 4599.81 5381.54 5810.77 5089.1 2711.19 5876.72 4028.32 5236.43 3208.96 4099.92 5285.07 4680.14 3858.06 4478.6 4144.57 4083.79 4187.94 4351.38 5550.75 5933.7 4809.67 4757.74 4356.25 5776.96 4209.49 4216.95 5742.74 5464.25 3946.28 3821.94 3498.16 4209.31 5439.9 5486.48 4409.27 4752.9 5301.47 4617.55 4947.24 3875.05 4588.99 4321.21 3540.11 5950.45 4344.34 5713.03 5849.65 3583.49 3673.28 4928.27 5052.84 5297.16 4165.21 4603.5 4647.67 4214.44 5375.12 4787.97 4892.44 4356.36 3746.36 6789.23 4741.28 4215.2 5069.89 4157.29 5107.0 6212.15 6813.72 5327.75 4609.02 4946.23 4896.65 6083.28 5806.31 6100.73 4745.79 5456.71 4908.75 6556.26 3971.08 6204.65 4482.9 4593.7 4349.13 4891.67 6818.91 3503.65 3634.5 6631.28 6571.31 4392.65 6413.15 4058.87 5174.75 5048.55 4984.46 5948.71 5844.72 3856.53 3992.97 5460.89 6040.74 5260.85 2884.65 7228.94 5393.65 4961.99 4648.21 4393.16 3311.29 4549.69 6423.81 6192.77 4312.15 4583.52 6418.11 6015.02 4922.49 5244.22 5585.14 7039.98 4820.17 4729.42 4159.81 5244.98 3886.72 5792.98 6592.93 6350.71 6436.74 2460.79 4456.11 4653.83 5096.24 6171.71 7382.3 2995.67 4668.88 5522.21 4022.56 5027.43 5698.23 3772.3 4855.01 7300.58 4714.83 3608.06 5474.15 7519.2 4884.59 6633.61 6355.68 5217.95 5484.36 4511.7 3953.55 5980.59 4304.63 5263.27 6834.41 5021.77 7248.4 6045.67 3796.15 5466.33 5280.12 4801.8 7216.98 4444.97 5984.81 5721.05 5271.02 7013.17 6329.53 3805.67 4247.69 5718.28 5367.73 4514.39 4640.06 6242.79 6506.86 5088.57 4803.57 5580.34 3852.6 5134.67 5775.31 4110.59 4847.14 3332.49 4215.0 4706.5 5354.66 3950.27 3566.79 5116.66 3629.44 5378.23 5003.78 4981.43 5374.67 4061.6 5473.72 2603.64 2856.55 2205.51 4553.68 5361.87 6502.97 4783.07 3758.22 4757.2 4852.58 5561.74 5975.23 4788.08 4198.94 5470.04 4211.82 6003.78 5684.25 5438.92 6550.4 5036.98 3766.69 5513.8 5188.53 4521.75 4027.63 3429.57 5569.2 5350.88 5420.67 4642.74 6103.11 5416.45 6459.51 4024.31 4955.16 4904.51 4147.31 5989.05 4054.22 5751.15 5950.88 4441.22 4149.55 5853.89 6551.93 4595.12 3110.13 4386.8 6484.43 4625.67 4725.01 3485.54 4458.64 3657.69 4883.63 3492.83 6280.13 4971.29 3684.15 5832.29 4438.76 6006.89 6456.58 3814.65 3965.3 4960.64 4983.3 4385.81 4034.05 5690.96 5798.38 3862.91 4125.9 5366.11 5039.12 3908.98 3628.89 6589.82 6328.42 7307.21 5522.75 5867.64 6208.9 4923.57 6059.93 3340.09 5602.53 6061.63 4867.7 2279.05 4829.35 4075.28 4063.9 4277.24 4469.54 4314.56 6300.92 5161.1 5291.05 3928.53 6226.14 5740.65 5599.29 6038.68 5046.12 5067.56 3000.29 3834.47 2596.96 4807.4 4350.15 4590.01 4139.3 3516.27 6541.45 4601.74 4263.78 6101.86 5078.31 4227.41 5993.0 5391.48 4923.43 5966.42 5009.83 5131.15 5210.38 5717.8 4811.22 3683.86 4918.76 3299.24 5293.75 6246.56 4208.41 5826.78 4508.18 6214.73 5175.89 3894.64 3703.49 4268.19 4374.74 3717.47 4062.56 3205.68 6200.63 4532.7 4504.86 3217.67 4473.29 5079.64 996.652 6163.54 5212.37 2628.22 5965.58 5058.51 3352.34 4901.29 4244.49 4124.76 4050.03 4775.04 4120.07 4882.66 6746.66 5410.33 3908.56 6735.97 5244.78 5305.59 3636.15 6114.89 4330.58 5754.6 3288.01 4355.83 6870.97 2202.77 5351.86 6056.87 5474.01 6201.86 7554.58 3380.69 4140.4 5166.89 3639.44 5446.4 5725.37 5966.75 5510.9 3743.76 4505.28 6711.21 5510.45 4730.14 2606.51 3994.39 3864.92 4941.02 6119.99 4618.73 2955.36 3668.93 4128.1 4009.24 5372.82 4402.17 7778.01 5127.82 5124.17 5805.1 7320.78 3419.87 4064.58 4234.88 4824.81 4384.28 5769.14 5944.3 3563.14 5135.5 3619.72 3381.82 5347.9 4646.51 4438.58 4565.93 4504.52 7107.63 5073.02 6545.43 6760.92 3472.91 4989.2 4023.93 8137.11 5484.32 6650.77 4173.54 4619.2 5606.51 5166.41 4824.12 7104.73 4383.47 6162.3 6349.67 4264.54 5262.47 5261.19 7043.44 4263.65 4750.49 4643.9 4258.98 5228.75 4807.35 6047.14 5467.63 4568.64 5666.95 4642.2 3919.62 4127.53 5750.35 4474.83 5210.75 4548.45 6555.44 5658.14 5730.61 5114.07 4385.49 7124.45 6358.93 5064.67 6618.21 5232.85 2617.39 4051.18 5144.44 5969.37 6816.66 3844.54 5034.69 5849.53 4509.46 3538.53 4680.69 4420.11 6500.49 6127.39 4972.18 4607.18 3899.7 7200.89 4813.33 4952.52 4802.98 3840.21 4081.34 4833.55 4954.76 6334.53 4844.83 5377.37 5652.87 5483.7 5135.63 5018.69 6384.7 5952.38 3896.27 5807.52 5963.36 5230.02 5307.35 4342.18 6016.08 4731.21 5491.63 6102.98 3868.62 5138.33 5153.18 3425.69 4763.4 4236.86 5393.76 4983.1 5806.61 7123.04 5906.57 4446.58 5401.4 5053.15 5910.86 3220.29 6239.68 3845.9 4141.21 4834.44 5782.43 4456.26 5113.6 3873.92 4810.98 5091.22 5640.72 6282.38 5851.63 4546.44 5727.79 5212.92 4831.93 5788.97 5615.84 4464.73 4928.85 6440.38 5868.89 5556.0 4711.04 5007.21 3274.85 7144.05 4506.18 4067.96 4099.26 2970.9 5206.47 6542.5 4580.06 4834.39 5971.21 3926.11 5493.89 5701.75 3272.75 7066.96 3104.96 3512.94 4467.0 4991.35 3831.52 4587.7 4994.65 5196.92 6106.43 3787.08 5644.81 6761.81 5334.36 3903.91 4728.55 4929.6 4554.68 4368.28 4692.32 4489.99 4945.0 4658.11 4212.15 4551.26 5678.58 6570.35 4263.18 7142.95 4383.68 4559.74 5836.26 6015.22 6666.67 6063.44 4583.94 5046.31 4928.35 1937.5 5241.75 4731.53 3763.9 4651.99 4788.7 5863.0 5084.5 5640.12 5329.76 5078.59 2403.72 5134.33 4147.49 5162.67 3646.95 5760.98 7224.99 5384.86 4749.96 4658.24 5869.67 4311.48 4899.73 3152.86 5457.66 6394.19 5973.89 5518.11 5087.14 5712.35 5169.48 4743.9 3124.7 6776.22 6064.71 3719.11 6060.17 4467.13 6273.6 5136.87 5902.67 5454.11 3779.45 2741.2 5784.37 6010.59 3142.09 3682.35 3756.96 6110.48 7541.76 4775.49 4681.29 5499.59 5749.6 6715.73 4439.71 4174.44 5667.51 4027.33 4708.31 4198.9 5431.29 5026.76 5023.41 5325.91 4092.07 5657.55 4213.05 4224.3 4184.21 4700.07 5188.82 5273.37 5043.14 4717.73 4732.37 4985.3 5072.5 3904.07 5748.9 5545.59 5553.94 5494.28 5610.53 3663.0 4954.81 6304.49 5755.15 4608.34 4835.97 6419.64 4057.17 5464.83 2781.96 5414.58 4431.23 5917.34 5740.98 5601.55 4462.87 4346.07 4013.86 6545.99 4177.47 4218.16 5630.9 2918.64 4140.92 4512.07 5984.8 4896.43 5236.24 3127.83 4585.04 5260.52 3185.09 5114.23 4242.63 5495.0 3269.54 7407.91 5064.23 6061.85 4454.74 5512.44 2904.46 4826.52 5120.92 4337.32 4685.4 6240.42 5146.0 5721.14 4288.45 4577.73 4987.28 4918.64 6638.25 4759.99 2646.13 4365.58 5419.57 5214.4 4636.53 3629.49 4705.68 5469.35 3835.81 4019.34 3623.19 4869.48 4906.11 4387.39 4564.1 5825.55 5509.51 4848.14 5366.22 4316.5 3199.4 6193.73 5254.24 3742.11 4192.21 3597.43 5701.52 4158.91 3360.86 5311.55 5321.17 3034.16 4869.25 3877.8 5545.21 4333.87 3667.93 5024.32 4708.17 4644.88 5790.42 7350.26 5591.77 5182.13 5003.3 6245.52 4932.29 3954.77 3784.94 4990.23 6793.1 6016.87 3125.13 4506.66 5209.55 4564.41 6331.74 5951.86 4833.67 4252.18 4659.88 3791.41 5853.12 5157.38 6203.03 5235.87 5473.89 6089.45 5810.17 4966.07 5713.36 4749.18 3669.32 4704.92 3742.31 4316.0 4546.96 5424.55 5134.72 5695.79 3814.16 5287.25 4420.6 3622.8 4770.51 5577.41 6511.37 4216.44 3999.5 4012.92 5759.79 5034.05 4598.54 5218.42 4933.49 6139.64 3990.94 4756.8 4357.11 5463.06 5477.8 4176.32 4639.8 3986.41 4241.68 6102.49 3469.18 2945.34 3372.95 4489.29 4301.93 5846.95 5268.15 5819.0 6449.06 4924.07 3200.6 4629.02 5914.5 6006.16 4608.62 5407.96 4071.75 6206.98 6562.03 4815.47 4368.12 4410.82 6443.99 3889.98 5193.58 5399.43 5766.05 5117.64 3916.42 5429.3 5510.96 6653.07 4745.16 4697.91 4584.81 5071.98 5719.79 4371.08 7261.51 4968.14 4914.03 5086.29 5144.56 5139.18 5551.43 4278.57 5049.99 4201.03 5001.87 5684.05 4279.44 5638.7 4899.19 5813.79 5058.34 4028.22 5293.13 5487.63 3768.46 3852.82 5167.53 4168.52 7145.73 5800.81 5403.97 5106.46 4068.31 5166.05 5077.29 5515.73 4850.5 5426.4 5763.05 5129.68 5679.74 5357.39 5076.84 5247.01 4208.37 5702.4 4841.7 5069.9 5685.74 952.938 6740.35 4678.7 3450.07 3673.6 3306.84 5265.21 4657.24 4400.14 5191.26 5866.42 5544.27 4762.1 3987.69 3484.81 6502.99 4287.25 4392.75 4666.12 4921.1 4271.07 4191.01 4475.38 4589.06 5340.05 4920.88 4184.47 5890.25 5700.79 6710.14 4726.2 4426.02 4816.51 5345.73 3825.48 4770.63 5188.22 3810.68 4841.23 4196.62 2804.54 5005.6 2809.19 5486.89 4462.35 6069.78 5532.75 6949.65 4095.83 4975.85 5695.25 5676.61 5716.42 5701.63 4620.95 6347.72 3460.93 4488.39 5124.86 4927.73 4602.57 3565.32 3763.85 3419.07 5710.33 5344.44 4626.72 5131.77 5549.71 3186.07 4967.51 7212.97 5490.64 5034.34 5695.44 3422.21 4507.46 5036.14 5603.68 4944.51 5532.72 5610.95 3220.8 5179.17 5579.39 5270.51 5148.1 5490.75 5224.64 5949.73 4312.48 5527.13 6370.33 5081.08 6318.25 6864.06 4493.79 6008.81 4932.56 5192.49 3487.31 3918.94 6643.4 5575.11 5461.72 6599.28 4507.36 6224.85 4556.19 5368.66 4795.08 6562.92 5501.73 3671.06 3612.44 4697.24 7035.54 5233.76 5866.91 4683.28 6405.69 2820.07 6549.8 4851.18 4825.73 4165.36 5288.33 4871.77 6296.54 5797.21 6019.35 6075.99 6028.63 5927.2 4550.92 5146.1 6215.87 6485.77 6060.06 5960.5 5308.33 6896.55 4685.65 6219.34 5377.01 6023.07 5674.63 6506.63 4140.04 4668.8 5995.4 3495.3 5322.11 4697.49 5735.08 7133.44 4750.81 4711.15 3953.26 4474.39 4658.59 6478.35 5453.77 4916.7 5589.53 7208.19 4549.51 5025.42 5196.08 3587.93 4517.29 4495.75 5323.95 4849.5 6171.01 5796.26 4603.04 4870.94 5368.93 5271.88 6121.56 7168.2 4571.74 4096.86 3622.48 5001.51 6432.8 5115.42 4369.86 5482.76 5173.82 3745.02 3720.7 4211.36 5698.53 3604.31 3769.2 3856.73 4450.49 3468.45 5635.32 4526.34 4316.45 5409.08 5042.75 4598.92 5241.22 6647.08 4979.52 3422.29 4407.79 5214.63 3495.68 3990.96 5783.94 5352.24 7362.42 4202.77 5836.14 5473.05 5537.34 5884.99 5726.42 4674.9 3392.26 4433.12 2549.95 4361.24 5138.93 6406.8 5648.78 6875.73 5226.42 6081.3 4983.43 5117.52 6311.89 6734.39 4217.36 5942.45 4150.76 5005.72 5368.52 5155.28 5811.26 5062.77 5205.38 4884.93 4600.71 5262.79 4494.15 5035.71 4419.79 3869.39 5407.69 5152.78 4117.9 5393.43 4753.76 4638.09 4441.91 5330.26 6470.23 5939.22 4215.05 4271.93 5125.17 4859.01 5524.45 5990.75 5600.21 5467.51 5459.92 4625.53 4096.47 5114.67 4104.04 5353.66 2638.82 5030.33 5593.79 5234.2 4965.24 6379.38 6257.79 5353.23 6229.83 4468.26 4523.81 5578.18 5106.33 5293.37 5198.94 5933.54 5559.79 2980.31 5879.24 5740.78 4796.12 5997.91 5385.86 6791.86 4082.4 4209.0 4930.72 5728.58 4887.73 6297.99 5378.24 5817.74 5887.71 4827.61 5661.6 5285.75 5385.03 5481.64 5673.75 5360.67 5968.54 6263.3 4501.05 4537.03 6548.29 4114.2 4326.06 5034.46 5757.29 5793.12 5469.17 5061.75 4373.2 6022.78 4087.32 6647.85 7025.09 5161.74 7336.37 5099.9 6945.69 5118.86 7086.69 6170.9 5833.78 4436.48 5758.98 5615.35 3967.76 5288.64 6213.24 3579.59 4228.53 6123.46 6142.88 5111.26 5388.73 4574.54 4949.55 4764.83 4841.28 1969.87 3957.38 5507.38 6889.5 4710.88 5300.17 4052.43 4057.4 5534.23 6025.77 4781.9 6815.96 5339.6 5828.25 4725.11 3626.86 6371.96 4604.1 5322.07 5076.11 5770.07 5101.6 4282.11 4656.01 6589.13 2347.41 5602.62 4542.16 3543.37 2030.03 5628.97 5527.27 5104.39 4612.13 5847.91 5846.6 5327.05 5438.55 4434.65 5977.66 5209.5 5065.74 5791.25 4873.23 4028.35 5464.05 5453.2 3148.79 6348.93 6824.53 4332.64 4742.82 4422.23 4820.68 6031.22 5485.84 6424.77 5453.69 5918.95 4538.89 5689.56 6556.86 3242.31 6099.28 5372.25 4169.15 3234.26 4778.37 5134.17 4074.16 4904.35 5592.54 3247.97 5124.34 4904.37 4358.81 4651.64 5729.92 5016.46 6224.13 4761.84 3769.24 3661.67 5517.65 4009.68 2569.12 4622.73 4161.32 5256.75 6351.89 5932.28 2960.5 4298.7 4975.32 4183.4 3902.48 4304.64 4733.79 4905.53 4823.06 5254.49 3757.23 6828.8 5987.88 6161.94 4065.28 5057.59 4461.14 5418.98 5285.6 5615.06 3132.34 5490.54 5203.54 4047.95 6142.94 5001.69 4416.87 6581.56 3980.46 4896.67 5383.9 3934.11 5158.44 4466.22 3886.56 4496.51 6153.71 5917.08 5483.37 5418.12 5092.93 5934.05 4714.66 6771.18 4984.17 5781.62 4037.86 4138.59 5714.51 4938.33 4484.78 4621.33 5157.73 4541.22 4946.08 4934.66 4984.01 4109.44 6217.33 4903.84 4290.49 4557.1 6688.53 5927.1 6175.27 5876.51 6731.89 5410.6 5264.83 3901.53 5136.51 6815.51 5232.16 4457.05 3989.26 3618.64 5703.84 4335.79 3530.82 5797.32 5432.04 3921.27 3702.45 3161.1 5265.63 4898.29 4431.06 5730.2 4830.13 3494.16 5620.88 5370.9 4529.77 4325.13 6172.27 5390.33 3783.79 5078.73 5278.54 5729.0 5192.92 5275.57 4179.87 4786.66 5891.25 5370.1 5129.4 5114.51 3303.49 4655.37 5585.25 5023.61 4672.86 6530.78 5560.23 3043.77 5237.55 6030.39 3909.94 6589.8 3799.01 7392.65 5319.1 4181.93 6570.43 6883.86 3350.99 4979.5 4745.37 5939.29 6200.05 5575.11 4052.49 5061.74 5326.03 6189.67 4948.96 5117.83 5256.82 4013.86 4061.87 5165.31 3798.09 4288.5 5715.51 4511.05 3721.69 3456.3 6561.94 5259.21 4256.08 5881.93 2803.01 4444.0 4399.52 4554.24 6182.19 3939.96 5327.39 5910.66 7415.84 4981.81 5141.03 4970.55 8123.59 5765.14 4767.54 3539.68 2927.84 4696.03 6177.68 4605.39 6270.59 6045.26 6500.45 4907.55 4103.76 2932.52 4286.61 4733.41 4603.66 4969.68 6636.43 5431.14 6298.8 5313.86 3689.24 5178.07 5189.91 5777.26 4171.02 7012.36 5028.06 4002.99 4886.99 5159.67 5764.52 5684.88 6523.78 4645.86 4045.67 4941.52 5900.0 4262.74 6241.77 5317.19 4248.14 5279.19 4016.6 5821.49 7050.08 5580.44 5998.13 5095.52 4746.15 3720.38 4758.84 4731.37 3976.0 4068.41 6463.71 5059.37 5783.38 4139.39 6264.03 5088.64 3562.8 5192.82 6920.92 4174.22 3729.16 3783.36 3573.84 3038.91 4067.89 3922.28 3445.92 4571.57 3820.19 5131.07 5236.69 4586.82 3133.28 5524.28 6026.04 5859.17 4034.41 4150.44 5522.34 5771.98 4420.35 5717.45 5772.57 4813.81 5268.27 5244.95 4645.93 5448.64 4585.37 6417.61 5395.12 5783.69 6074.39 5317.83 6738.9 4460.89 4157.1 8052.53 4867.12 6044.01 4637.3 1458.87 5734.07 4840.44 3997.68 4819.83 4801.16 5121.08 5071.38 5688.77 4698.7 6229.64 2848.44 4220.43 6263.87 5743.8 4094.63 5084.76 6605.11 4757.87 3557.46 5971.95 5652.73 3979.46 6321.97 5151.19 6509.54 6119.0 3792.06 5128.59 4293.3 5587.3 3572.73 4864.38 3770.22 4390.64 5150.84 4608.01 5087.97 6005.95 4308.49 4930.17 4581.1 4745.44 4085.96 5762.82 7360.12 6223.98 5462.6 5617.29 3035.06 4262.19 4597.88 4878.93 6275.25 6892.33 4505.3 4452.36 4511.34 4832.21 5009.21 4742.35 5394.79 5645.54 5264.08 4526.87 4227.66 4151.74 4594.89 5245.95 5821.42 4515.02 3463.53 6294.09 6126.03 4121.07 4197.87 2970.24 5105.54 5731.43 6353.81 3518.14 3414.67 5444.36 2649.69 5044.68 6908.32 5899.78 3467.11 5000.74 6153.26 5637.53 4634.25 3882.37 4095.4 5901.8 5188.57 6351.48 3830.7 6210.0 5350.9 3483.61 4262.52 5992.06 5545.68 4970.12 4967.93 6520.19 5973.57 6241.48 6033.28 6286.27 5616.66 4802.36 5368.28 5466.13 5257.38 5075.23 4975.56 7282.36 6666.34 4645.91 5581.01 6834.92 6379.33 5130.57 5090.48 5402.45 3985.93 6412.84 6071.59 2589.19 6079.55 5485.61 4993.49 5310.33 6583.37 4569.32 3688.83 3402.44 4848.98 4491.96 5184.98 4467.51 5339.82 4519.03 5460.57 5110.27 5703.34 4612.68 6668.98 6649.52 4232.33 4939.56 4747.68 5770.92 3093.38 4845.91 2002.78 4461.67 5631.32 6322.0 5793.14 4491.26 4609.65 5704.61 5410.73 4379.91 4574.03 5290.37 5850.38 4691.01 4730.97 3677.85 5214.71 4677.84 4811.11 4924.52 4866.8 6044.69 5658.05 6593.1 5462.1 6032.45 5011.37 4026.03 2827.92 4441.44 5336.61 4817.75 5563.09 4848.15 4439.09 5523.81 4718.61 3873.79 5717.67 5357.33 5252.37 5432.4 5037.58 7430.48 5640.67 6572.17 6080.69 5555.89 4766.47 6369.66 5678.08 5922.62 5125.45 5191.29 5957.82 3784.68 4188.16 3717.22 6327.54 5507.07 4654.92 2943.17 5327.71 4880.78 4322.56 5509.09 5625.02 5212.05 4829.77 3826.01 3928.99 4444.92 6959.88 4125.75 5749.53 5247.73 5034.02 5582.28 5945.25 5181.31 3856.4 4696.06 4137.16 4937.36 5308.4 6581.13 5803.3 5537.61 6084.88 4397.06 4199.44 3543.98 4053.12 4479.5 6261.67 3435.13 5065.78 4431.46 4521.42 3207.84 3977.98 6043.34 4128.93 4959.72 4712.17 3808.04 4723.71 4405.61 6126.5 4034.88 6007.1 6345.2 5488.96 5128.03 3720.92 5087.3 4942.63 6139.74 4975.57 7066.26 3057.3 6150.31 5873.62 4996.91 3920.44 5379.52 3768.62 5314.67 5563.47 5651.46 4066.36 4000.51 6033.93 3162.27 5516.37 5092.44 5432.2 4232.44 4612.4 3312.3 4746.19 6381.58 3282.57 4798.13 5648.59 6697.45 5515.59 4432.32 3224.81 4499.54 3775.38 4046.22 6457.89 4844.2 3751.73 6118.13 3374.62 4926.62 4871.1 3917.09 6009.93 5872.45 4414.09 5270.1 4947.64 6305.9 6649.21 3470.69 4859.95 5286.55 4132.08 5522.18 5223.1 3873.72 4592.49 3625.98 5479.86 6474.5 4702.32 4763.04 5971.9 3746.62 4532.67 4876.37 4769.62 5260.13 4649.5 4810.74 5985.75 5475.83 6189.29 5984.55 5672.46 3228.27 4721.98 5252.82 4142.1 5056.26 5878.55 4014.44 6604.72 6002.77 3794.47 4610.55 4967.02 4614.49 5400.69 4462.5 5573.31 5004.68 4023.88 4179.8 5348.11 3488.34 5428.24 5108.84 4582.12 3511.5 4520.14 5067.92 5357.14 3188.21 5919.27 4793.06 6637.38 6188.33 6111.23 6916.18 5786.06 4137.41 3868.69 5447.74 4450.51 6033.72 3851.47 4966.74 4959.94 1635.31 5639.4 6185.73 4083.24 6520.96 3771.91 5217.62 6178.19 4616.81 5715.25 5212.2 4611.21 5108.42 4630.5 3354.94 6296.36 4451.76 5237.27 7885.41 5782.25 4104.97 4575.72 4081.77 5114.61 4948.21 4987.01 4420.3 2181.29 6332.64 6492.44 4083.1 3482.73 3996.93 5130.56 4957.99 4063.26 4997.89 4542.62 5093.28 6131.52 6009.88 4699.77 4850.49 4981.55 5144.23 6188.62 6153.07 4414.06 5944.52 4413.56 5050.2 2513.38 5316.05 4908.32 3995.08 5019.84 3900.93 5784.38 4149.17 4329.8 5728.27 3074.49 5202.33 3956.24 7558.99 3393.59 4032.06 5043.14 5333.04 5445.91 4521.99 4812.59 6842.54 7115.67 5675.45 3361.11 6038.56 2807.46 5599.16 4577.98 5658.35 5886.81 4487.51 4295.25 7394.47 4850.95 4729.45 5374.09 6271.22 3421.81 5378.75 3920.64 6186.24 5822.7 3780.07 4159.89 5466.49 4038.17 5007.41 3692.99 4907.48 6213.74 2329.93 4369.87 6938.87 5412.07 5512.57 4806.99 4813.55 5856.43 3465.03 3839.0 5349.85 5799.86 5172.1 4362.94 4469.82 6545.78 4870.14 4404.87 2932.2 5105.72 5767.65 5003.49 4750.76 4907.03 5497.27 5617.91 4721.2 4202.12 4706.31 2694.25 4735.99 4203.68 4739.56 4613.32 5145.39 3352.46 6351.95 5195.09 5345.05 7679.2 4881.51 4311.92 2626.41 6729.99 5093.41 6842.35 5464.34 3621.63 4777.96 5801.89 5908.57 7296.47 5742.39 4821.41 4924.53 5616.11 4499.52 4813.24 4028.13 3874.12 4457.73 6476.35 3113.64 6260.58 3053.19 4067.24 6139.9 6571.26 5580.95 3549.92 6598.99 5250.56 5246.81 5089.1 5888.95 5394.78 3463.34 5169.09 5122.38 2853.68 5262.85 4998.37 5329.84 6559.82 3879.83 5342.9 6565.95 5733.12 5043.34 4246.24 6805.02 5354.48 5640.63 4900.26 6261.13 4167.55 4720.34 5244.47 4731.16 5510.89 6470.87 4495.33 5282.67 5747.9 5178.55 5146.69 6203.24 6818.23 4488.41 6679.12 5652.19 5806.74 6578.62 6284.12 4796.04 5229.56 6011.4 4672.34 6052.22 5376.41 5003.63 4695.7 4944.08 4082.01 5269.39 3964.03 4305.35 4216.33 5210.22 5832.72 2451.27 3903.9 4444.95 5161.02 3124.49 6265.48 5003.81 6262.18 4701.03 3818.37 6225.05 5434.04 5200.1 3997.52 4444.54 5779.9 4909.74 5310.33 5299.03 6664.54 3922.98 5161.73 5259.48 5254.93 4803.4 6833.5 6608.94 2613.78 4780.16 5417.07 3834.01 5738.37 4433.23 4739.41 5759.19 5847.27 4490.2 4304.75 5480.86 4720.22 4313.38 5827.3 6036.99 3633.58 2468.16 3825.98 6294.14 4339.97 5203.75 3906.41 4691.15 2459.88 4512.6 4210.24 5470.67 5901.71 5225.11 5252.22 4962.35 6436.29 5402.81 4600.81 4328.76 4919.13 5168.97 4124.33 5783.88 5002.38 6705.93 4865.11 5449.09 5502.14 4605.61 4465.56 4131.08 5386.95 3864.19 4287.93 5332.11 5315.71 6158.93 5081.65 4823.14 5438.5 4621.32 5699.4 3878.8 4698.94 3948.21 4286.84 5669.15 5296.05 5263.86 3330.85 5056.32 5533.52 5410.33 4747.24 4380.86 5576.16 5648.02 3308.75 4439.17 5677.42 4929.35 5606.22 3943.77 5242.38 6081.35 5459.52 4609.98 5566.5 5663.36 4276.59 5579.04 5125.53 5994.21 5403.81 5082.25 6964.78 4374.05 5036.84 4565.36 5813.68 4025.08 4008.67 3618.53 4770.21 8013.28 3846.55 3796.73 3082.16 4644.68 5656.84 6789.66 5416.41 5312.2 4706.59 5734.84 3982.31 4950.07 4582.24 2832.83 4474.96 4084.87 3010.1 5259.29 3584.05 4589.22 5087.03 4818.53 4667.84 5584.64 4123.08 6224.64 4260.38 4636.45 3799.55 4932.27 5638.51 6793.49 3563.33 6060.19 5536.0 6786.37 4333.23 5145.13 5561.63 5940.5 4358.06 5093.51 5647.93 4280.92 6201.49 4696.92 5154.74 6437.99 6898.8 6540.57 4893.72 6004.72 4072.4 5373.78 5345.65 5863.36 4489.18 4632.75 5237.76 4752.94 4994.98 6423.96 6058.13 5894.69 6988.4 6635.51 4060.17 6051.35 5302.53 4909.13 4287.61 3999.81 4867.13 4604.34 4863.27 2701.42 5442.79 5051.39 6673.92 5151.68 4884.94 5362.15 4455.61 4738.72 4752.31 5240.97 5569.85 5405.6 3929.35 4884.93 4759.38 6960.97 4287.15 5282.51 5504.65 5669.41 5732.11 5040.9 5596.68 4868.66 4004.39 5159.9 5283.65 2892.36 5981.54 5911.29 4542.25 4694.27 6760.64 2515.5 4849.21 5177.88 5551.79 3793.83 6981.47 3916.15 5367.05 4758.76 4790.63 4088.72 3945.62 4916.75 5097.85 6379.3 6189.04 4221.03 5189.4 5082.66 4550.77 4337.93 3550.88 5201.3 4345.51 4048.73 6223.33 3860.8 3747.96 5611.29 4521.88 6568.45 5004.22 4601.54 7263.57 3832.09 5705.96 5267.65 5739.69 6632.04 5360.88 7360.62 4977.64 4985.45 4983.56 5699.51 2489.44 5499.37 4883.13 4836.76 5551.09 3950.53 4501.1 5581.47 4384.91 6550.61 4987.01 4713.56 6094.34 6779.82 5543.67 6210.48 6377.45 4182.05 4502.12 3255.93 6853.07 6327.61 4633.59 5733.59 5575.8 5268.93 3695.72 6874.6 5106.9 5306.31 5523.96 4223.53 4733.37 4535.94 3037.72 4523.9 5126.08 5604.0 3760.4 4951.02 3919.47 4602.7 3783.35 4037.16 6395.63 4987.48 5943.61 4248.58 5479.17 5020.37 4414.23 5233.88 4785.55 5245.4 6189.81 4449.73 5647.11 3743.85 6236.46 5342.17 5015.67 3795.63 4576.71 6538.04 4894.15 6157.59 5848.41 4090.28 4246.83 5438.6 7370.52 4726.5 5467.05 3724.23 5103.3 4963.88 5888.94 4727.98 4122.2 5175.88 4516.26 4790.16 3509.34 3647.26 3731.58 3166.37 5369.42 5207.08 5205.53 4714.52 4587.19 5543.05 6028.89 5333.16 4888.17 5755.98 5392.85 5077.2 4274.05 5275.27 4277.54 5529.09 4531.46 5925.82 5448.68 4739.5 4072.95 4491.62 3865.5 
SCALARS Velocity float 1
LOOKUP_TABLE default
1.61299 1.49071 1.47417 1.4988 1.55244 1.51191 1.55509 1.6073 1.56897 1.44552 1.55908 1.66815 1.66089 1.75142 1.55755 1.64362 1.63968 1.57893 1.51851 1.55051 1.5353 1.6208 1.56159 1.57694 1.54535 1.51135 1.64594 1.73703 1.71346 1.63269 1.7201 1.565 1.66167 1.32904 1.53115 1.59126 1.63775 1.63694 1.63838 1.69196 1.50778 1.52184 1.5456 1.5723 1.60013 1.53099 1.63221 1.57647 1.49434 1.64975 1.60728 1.7011 1.61691 1.61612 1.54527 1.64763 1.54897 1.56194 1.53397 1.64584 1.42668 1.55305 1.45108 1.60065 1.5621 1.60849 1.67764 1.62892 1.51862 1.53148 1.50358 1.57557 1.70377 1.5781 1.57847 1.52158 1.71546 1.60274 1.58246 1.59786 1.50474 1.42474 1.47661 1.42809 1.65896 1.47643 1.47967 1.57412 1.62801 1.62372 1.66212 1.57996 1.50731 1.67687 1.54298 1.81667 1.56475 1.55466 1.53089 1.5407 1.72958 1.6446 1.63843 1.56163 1.59708 1.52989 1.43423 1.66139 1.66638 1.59652 1.48012 1.56325 1.41534 1.50006 1.53304 1.65804 1.62487 1.59855 1.55863 1.79065 1.7719 1.87735 1.65011 1.48961 1.60134 1.48931 1.67018 1.51059 1.62417 1.5003 1.56309 1.6585 1.61085 1.54141 1.50873 1.40097 1.69236 1.63622 1.55876 1.50345 1.48557 1.49101 1.64575 1.65702 1.6466 1.59421 1.64331 1.53717 1.73045 2.09191 1.67836 1.49002 1.41221 1.67864 2.4469 1.21244 0.955842 1.11024 1.83526 1.591 1.44231 1.68947 1.71678 1.56139 1.61597 1.63838 1.60624 1.57087 1.24778 1.59307 1.53466 1.60666 1.54385 1.40821 1.54736 1.47927 1.33222 1.45105 1.72664 1.61158 1.60907 1.69801 2.0036 2.14945 1.85236 0.55608 1.67713 1.57057 2.74866 1.43322 1.06393 1.00323 1.30976 1.76094 1.6668 1.45305 2.01651 2.15653 1.83886 1.55381 1.55287 1.56955 1.66304 1.49311 1.24819 1.44948 1.58797 1.61775 1.39138 1.66201 1.23314 1.65844 1.0537 1.44249 1.79636 1.80371 1.80031 1.84139 1.5767 1.70029 1.05432 2.53121 1.62465 1.29194 1.26686 1.23173 0.908194 1.14604 1.19773 1.28684 1.22003 1.29657 1.45466 1.56968 1.8778 2.17371 1.46146 1.86235 1.71134 1.42799 1.41439 1.37237 1.49095 1.5693 1.4502 1.44478 1.51096 1.32233 1.27963 1.45021 1.40094 1.19337 1.32855 1.50177 1.41161 1.05779 1.27214 1.63365 1.51282 1.5542 1.91918 1.78219 1.45908 1.73758 1.04802 1.10791 1.38614 1.16975 1.23604 1.23684 1.09825 1.12897 0.777638 0.744595 0.729261 1.08658 1.38404 1.08173 1.42818 1.25603 1.10904 0.857181 0.927604 0.840734 0.517062 0.919265 1.36568 1.18696 1.67056 1.86629 1.44658 1.32001 1.29478 1.36258 1.23606 1.31139 1.28654 1.22961 1.37013 1.20607 1.29143 1.27115 1.24715 1.37915 1.36825 1.39454 1.52824 1.36447 1.18503 1.18979 1.24074 1.27281 1.48278 1.37062 1.26556 1.56061 1.5375 1.37062 1.18375 1.29765 0.346242 1.28135 1.20202 1.10588 1.22904 1.21964 1.16823 1.25147 1.23557 0.908238 0.995965 0.852452 0.887767 0.990342 0.927653 1.17468 0.980901 1.01875 0.858475 1.0151 0.941375 0.903384 0.847106 0.887472 1.08542 1.10703 0.994953 0.849545 1.68193 1.42272 1.19851 1.22064 1.13232 1.15785 1.2196 1.11815 1.2599 1.26946 1.27185 1.30459 1.35677 1.31613 1.52149 1.42836 1.22978 1.28396 1.30728 1.1798 1.20512 1.31824 1.11595 1.34865 1.02406 1.1858 1.01359 0.602813 0.762887 1.0384 0.926579 1.04805 0.995427 1.16656 1.20063 1.04033 1.03129 1.1906 0.985019 1.08788 0.974794 0.996238 0.985793 0.934656 0.991003 1.06906 1.1018 1.03204 0.971063 1.05383 1.20535 1.06277 1.06678 0.983004 1.21554 1.33859 1.20079 1.20158 1.37071 0.948755 1.11291 1.20451 1.15099 1.07863 1.12524 1.16038 1.17764 1.20494 1.23693 1.26052 1.25537 1.30318 1.30436 1.28574 1.19852 0.990716 1.32015 1.27124 1.20847 1.28922 1.22162 1.30103 1.36225 1.18918 1.13129 1.32301 1.15413 1.11268 1.07567 1.12858 1.28601 1.00821 0.857991 0.875895 0.879811 0.956922 0.949608 0.957928 1.034 0.99923 0.992357 1.01047 0.945387 0.979812 0.951647 0.900278 0.900239 0.959233 0.913447 0.973877 0.905635 0.967559 0.981397 1.00432 1.03682 1.07467 0.959939 1.03426 0.946344 0.974814 0.968472 1.05697 1.0343 1.0629 0.987242 0.955424 1.04893 1.20718 1.15354 1.17091 1.15928 1.1186 0.954094 1.14532 1.16117 1.16553 1.10282 1.10906 1.07682 1.14271 1.20513 1.15957 1.24212 1.20702 1.19521 1.28214 1.23911 1.26384 1.20027 1.22581 1.20753 1.21065 1.21593 1.11545 1.20615 1.18425 1.1175 1.17439 1.13164 1.5163 1.18469 1.29146 1.00343 1.1889 1.11796 1.15083 1.1945 1.0889 1.07373 0.970102 0.988024 0.934198 0.963219 0.952435 0.955622 0.981984 1.01424 0.876108 1.02094 0.869341 0.889614 0.867748 0.870801 0.854891 0.854171 0.986576 0.906888 0.91139 0.94459 0.991575 0.948893 0.930232 0.941728 0.91439 0.989036 1.00596 1.00281 1.00089 0.955052 0.896084 0.92683 0.960614 0.976394 0.968139 0.793863 0.892117 0.898393 1.09454 1.05048 1.02238 1.15704 1.05296 1.35273 1.1952 1.08362 1.02582 1.15816 1.13163 1.07571 1.07939 1.08121 1.08081 1.06555 1.07949 1.22722 1.27952 1.19183 1.22641 1.12584 1.1084 1.26147 1.20757 1.15904 1.20489 1.2642 1.20559 1.10714 1.02631 1.01978 1.12235 0.885515 1.2561 1.09813 1.02044 1.07092 1.0674 0.994699 0.96243 1.00541 0.87132 1.0131 1.00975 0.888633 0.93556 0.974522 0.984486 0.942964 0.991431 0.892672 1.00084 0.851139 0.872053 0.877197 0.832921 0.84528 0.860632 0.891887 0.931449 0.773571 0.987009 0.859859 1.02712 0.85913 0.796103 0.931855 1.00683 0.833918 0.897371 0.928706 0.875323 0.913597 0.915655 0.847364 1.01328 1.02965 0.927821 0.923522 0.911632 0.926185 0.909102 0.901348 0.855836 0.995863 0.27944 1.32021 1.08906 1.21928 0.980366 0.605652 1.11926 0.990966 1.00909 1.04398 1.038 1.07616 1.06431 1.1017 1.08515 1.03414 1.105 1.09 1.12349 1.33283 1.37391 1.04198 1.10839 1.06822 1.15203 1.26455 1.09056 1.31216 1.08859 1.12029 1.22615 1.34051 1.15352 1.03083 1.03119 1.01014 0.97993 0.982579 1.33883 0.786211 0.863137 0.861351 0.854872 0.938257 0.933554 0.916988 0.936533 0.933299 0.927635 0.941723 1.00708 0.914253 0.975372 0.960146 0.983472 0.855951 0.92674 0.865814 0.851113 0.888699 0.857787 0.922361 0.95164 0.934677 0.932368 0.831771 0.747644 0.850535 0.818255 0.804298 0.869935 0.843387 0.839368 0.873313 0.915889 0.889179 0.849215 0.882598 0.90683 0.877488 0.897663 0.973873 0.895647 0.822805 0.53632 1.29909 1.44992 1.08712 0.966793 0.894605 0.935377 0.922459 0.823263 1.11849 1.04442 1.01742 1.02582 0.995729 1.08894 1.07893 1.09935 1.07771 1.09325 0.812662 0.973935 1.02253 1.06682 1.35247 0.888093 1.08606 1.34792 1.58825 1.5175 1.05427 0.907776 1.03065 0.995233 0.980262 1.14146 1.6133 0.960373 0.93368 0.920655 0.851992 0.90569 0.921318 0.954449 0.963754 0.976871 0.963198 0.916517 1.04004 0.942155 0.914733 0.978016 0.96132 0.970278 0.782081 0.774561 0.899621 0.926795 0.946497 0.922456 0.936196 0.942716 0.949118 0.970472 0.796355 0.69911 0.738834 0.720898 0.830488 0.771463 0.769444 0.890749 1.03346 0.856538 1.00571 0.905515 0.898136 0.964528 0.930859 0.881773 0.908786 0.847792 0.900516 0.859891 0.912049 0.902342 0.893095 0.985223 0.884416 0.854629 1.00033 0.901384 1.00409 0.922693 0.896523 0.883986 0.896064 1.05532 1.03951 1.03108 1.04974 1.03668 0.979638 0.933346 1.07719 1.08717 1.07855 1.08186 1.04954 0.966295 0.866239 0.910525 1.04906 1.04985 1.2676 0.762786 1.14852 0.820705 0.917883 1.04591 1.20344 1.51411 1.0466 0.977016 0.943344 0.984009 1.04001 1.04025 1.33099 1.22279 0.596553 0.801155 0.853058 0.915997 0.900977 0.928587 0.926363 0.910477 0.940595 0.963149 0.93762 0.990488 1.06063 0.985 1.05454 0.936402 0.944237 0.91419 1.00837 0.955646 1.10372 1.17033 0.950024 0.826358 0.866322 0.909783 0.743547 0.932822 0.863056 0.942613 0.865572 0.947565 0.920261 0.988497 0.910732 0.886169 0.922695 0.921852 0.863112 0.850559 0.838488 0.89464 0.948708 0.914777 0.978213 0.906635 0.994248 0.882463 0.93745 0.907792 0.833274 0.930738 0.942431 0.998962 0.886544 1.16249 0.910312 1.01605 1.06717 0.988606 1.03782 1.0972 0.947688 0.977163 0.908884 0.899957 0.870875 0.928371 0.872089 1.04749 1.02325 0.89193 1.05845 1.09784 1.08525 1.05943 1.00195 0.993838 1.03664 0.952161 0.998907 1.04283 0.995593 0.949551 0.873806 0.890914 1.08841 1.02768 1.09987 1.17908 1.16877 0.74706 0.871106 0.966153 0.994993 0.965936 1.01096 1.09869 1.01125 1.11612 1.37038 1.02822 0.936255 0.918639 0.946503 0.939262 0.917703 0.916901 0.9156 0.929894 0.944973 0.973337 0.92576 0.972569 1.02114 0.914816 0.903962 0.882033 0.905531 0.903092 0.971439 0.814288 0.799599 0.843144 0.837395 0.850966 0.884863 0.831747 0.860212 0.948172 0.859778 0.927681 0.947775 0.889876 0.88203 0.879485 0.865711 0.844246 0.861421 0.858386 0.907475 0.811333 0.878899 0.798057 0.984225 0.883111 0.600057 1.20574 0.70708 1.06643 0.713839 1.06902 0.792868 1.08405 1.22191 0.908508 0.980354 1.02266 1.30514 0.960082 0.93975 1.1937 0.720617 1.12471 1.11345 0.874004 0.810269 0.936276 0.868372 0.867562 0.889257 0.874075 1.16689 1.07126 0.906209 1.41796 1.1234 1.05117 1.05154 1.0626 1.01908 1.01975 1.02366 0.983204 0.989902 0.968247 0.948775 0.96299 1.02319 0.982929 0.995692 1.04638 1.04071 0.942141 0.879125 0.954408 0.991011 1.03172 1.02454 0.82012 0.939313 0.923013 0.93944 0.906303 0.925306 0.91255 0.92913 0.951731 0.932012 0.934304 0.904609 0.90704 0.864623 0.833287 0.857342 0.863244 1.05043 0.870858 0.926687 0.964816 0.874157 0.856611 0.80629 0.847329 0.836186 0.860496 0.860924 0.845138 0.88934 0.855422 0.873551 0.791984 0.801411 0.832026 0.81717 0.814875 0.87352 0.790242 0.878446 0.805019 0.84904 0.866194 0.836206 0.85489 0.844351 0.827536 0.839414 0.828167 0.803961 0.804861 0.732063 0.743592 0.739734 0.868062 0.839762 0.969264 0.456675 1.03293 0.922716 0.780577 0.967914 0.780583 0.652985 0.883927 0.873144 0.901435 0.896628 0.904459 0.916913 0.945155 0.73101 0.389008 1.00453 0.950735 1.01535 1.02031 1.06052 1.10604 1.07802 1.02852 1.02328 1.03889 1.02962 1.03806 1.02479 0.993358 0.980189 0.969188 0.955794 0.930037 0.946785 0.971256 0.996645 1.13722 0.612792 0.883426 0.98347 1.0341 1.01295 1.01886 0.905702 0.933667 0.924453 0.933947 0.926714 0.908041 0.887425 0.875793 0.950866 1.01891 0.916808 0.931204 0.894795 0.855871 0.90722 0.873101 0.889095 0.908114 0.866258 0.820425 0.813445 0.849166 0.845894 0.865641 0.863426 0.851224 0.857518 0.834705 0.822508 0.839105 0.840976 0.825352 0.790158 0.785833 0.77205 0.754786 1.00551 0.925457 0.915545 0.874638 0.823782 0.804595 0.780146 0.789769 0.830311 0.84167 0.800875 0.799365 0.770648 0.887624 0.737584 0.795239 0.769208 0.789738 0.77501 0.739154 0.732656 0.778347 0.774559 0.553121 0.888599 0.795278 0.895562 0.804669 0.768775 0.862285 0.787785 0.827104 0.732654 0.728678 0.82381 0.888862 0.88084 0.891394 0.934626 0.895904 0.91949 0.898308 0.9148 0.915558 0.90889 0.856874 0.801777 0.813306 0.734253 1.01435 1.06159 1.08891 1.06504 1.03779 1.03725 1.03363 1.0697 1.03746 1.00367 0.980991 0.963827 0.979176 0.955318 0.940084 0.91411 0.940244 1.0019 1.16523 0.629134 0.895916 0.946466 1.01944 0.981378 1.01053 1.01262 0.98047 0.957979 0.926203 0.907731 0.886599 0.871868 0.885125 0.876735 0.917642 0.793484 0.96353 0.925715 0.98888 0.94034 0.89276 0.893997 0.875627 0.867558 0.915844 0.884205 0.89075 0.760239 0.816827 0.784671 0.810898 0.847454 0.829875 0.820207 0.825888 0.858503 0.850992 0.8499 0.857053 0.843107 0.849936 0.837088 0.773476 0.835264 0.820174 0.76647 0.753656 0.754965 1.17468 0.552331 0.979976 0.849316 0.949374 0.791527 0.771353 0.832825 0.824284 0.809711 1.00364 0.872586 0.722909 0.753427 0.753863 0.760637 0.757349 0.808578 0.834028 0.76973 0.84843 0.808765 0.732232 0.901982 0.871334 0.830796 0.797795 0.834082 0.828614 0.758163 0.766272 0.891176 0.855226 0.929046 0.946679 0.919765 0.935361 0.903529 0.878233 0.862659 0.819699 0.862599 0.868128 1.01487 1.19025 1.12501 1.12197 1.04885 1.03325 1.07694 1.05989 1.00546 0.988796 0.951412 0.964005 0.942743 0.91747 0.928782 0.982721 1.1033 0.81736 0.743758 0.900707 1.05829 0.993745 1.04585 0.998152 0.968749 0.932429 0.91076 0.900664 0.892487 0.886434 0.918791 0.933176 0.923789 0.869625 0.91386 0.914139 0.905411 0.88994 0.898207 0.893949 0.881757 0.87501 0.89748 0.892585 0.830831 0.808811 0.829438 0.765931 0.893908 0.869083 0.876697 0.863262 0.842541 0.802311 0.862498 0.87154 0.857096 0.838194 0.835301 0.794927 0.825992 0.769771 0.758118 0.810509 0.753852 0.756579 0.766534 0.746791 0.714375 0.771841 0.70416 0.782942 0.895856 0.783825 0.784198 0.833334 0.811428 0.734515 0.798092 0.778667 0.635339 0.751147 0.755123 0.723427 0.798235 0.798998 0.797402 0.804158 0.816173 0.840365 0.841028 0.848432 0.880842 0.849859 0.872004 0.853307 0.85671 0.838887 0.8258 0.868457 0.852902 0.939186 0.793898 0.910524 0.925414 0.92742 0.910625 0.928766 0.93352 0.95207 0.885422 0.911552 0.896359 0.825578 1.01752 0.935996 0.846745 1.32316 1.21072 1.06139 1.03676 1.0363 0.994709 1.0631 0.998004 0.977605 0.993298 0.961235 0.977024 0.96104 0.96934 0.963394 0.976258 0.95082 0.998057 0.929938 1.05481 0.943483 0.845339 0.866419 0.818946 1.0047 1.0376 0.99651 0.95482 0.920987 0.895143 0.891304 0.88765 0.908882 0.969046 0.914186 0.937554 0.911461 0.904716 0.909912 0.922268 0.91746 0.910698 0.914024 0.885252 0.809598 0.778683 0.861882 0.801863 0.675398 0.856319 0.859741 0.84018 0.885614 0.812501 0.816263 0.816293 0.836049 0.853748 0.842931 0.873898 0.848197 0.810992 0.883422 0.800782 0.801564 0.792696 0.801277 0.763973 0.733523 0.752208 0.751453 0.767808 0.774138 0.780561 0.794035 0.788264 0.691036 0.802953 0.631874 0.792786 0.652788 0.744958 0.813811 0.865965 0.863499 0.795445 0.68695 0.694242 0.608838 0.706227 0.666894 0.793252 0.745032 0.841737 0.763673 0.77876 0.830164 0.813413 0.859711 0.880829 0.864499 0.858516 0.850623 0.851529 0.867961 0.865536 0.895686 0.924081 0.913869 0.877506 0.900725 0.928146 0.928144 0.957374 0.944416 0.955604 0.935873 1.01085 0.993661 0.918707 0.934337 0.964221 0.921349 0.860646 0.688523 1.18938 1.09267 1.03416 1.17675 1.08826 1.0125 0.933516 0.988508 0.978283 0.980073 0.989476 0.970321 1.09317 0.969733 0.944264 0.876454 0.859801 1.01681 1.04057 1.00677 0.971376 0.949931 0.923878 0.899911 0.918521 0.858394 0.902996 1.04737 0.928935 0.933836 0.947912 0.907818 0.910576 0.925904 0.954469 0.936384 0.960172 0.956281 0.953342 0.8764 0.954998 0.78897 0.799056 0.763447 0.859139 0.80207 0.775206 0.805645 0.824884 0.826829 0.836003 0.84186 0.860641 0.957702 0.797756 0.808581 0.832925 0.74375 0.834626 0.742491 0.767359 0.769564 0.788113 0.76961 0.760903 0.765854 0.76299 0.771378 0.793786 0.627629 0.773918 0.603507 0.696117 0.695184 0.677044 0.669606 0.680428 0.699633 0.669786 0.658476 0.786679 0.742368 0.768052 0.839775 0.723927 0.557766 0.642301 0.688791 0.71018 0.628341 0.682219 0.74557 0.84855 0.838533 0.796483 0.83341 0.786482 0.762013 0.895291 0.864433 0.889003 0.843547 0.844972 0.864545 0.855278 0.89197 0.928806 0.91897 0.891912 0.873013 0.897282 0.919649 0.96422 0.952806 0.92151 0.87721 0.944753 0.907699 0.938838 0.956647 0.952884 0.95333 0.866527 0.813595 0.80213 1.08477 1.24368 1.08765 1.08664 1.03313 0.964241 0.990096 0.971917 0.96633 0.979715 0.988852 0.993057 0.982835 0.998923 0.985517 0.991599 1.03569 0.960672 0.97918 0.936889 0.949226 0.913736 1.02296 1.02331 1.05142 1.05529 0.931407 0.941639 0.894133 0.915838 0.909861 0.94017 0.842576 0.712071 1.08996 1.19386 1.05185 0.944426 1.02515 0.935035 0.934363 0.97052 0.983156 1.00705 0.926786 0.924197 0.953628 0.901362 0.936847 0.824073 0.734645 0.842361 0.831281 0.819406 0.821483 0.830404 0.794061 0.805591 0.81584 0.851303 0.826887 0.830121 1.01487 0.793317 1.17943 0.921762 0.937998 0.770369 0.762879 0.767135 0.774771 0.716106 0.654282 0.780505 0.793711 0.53569 0.708312 0.532998 0.828473 0.731685 0.733535 0.782569 0.668141 0.730814 0.683461 0.680857 0.749004 0.764661 0.644581 0.625881 0.669385 0.654143 0.766162 0.855245 0.886316 0.841185 0.680412 0.598249 0.58728 0.771882 0.903433 0.866714 0.844184 0.773639 0.692722 0.865706 0.850523 0.877948 0.881014 0.842528 0.835559 0.803047 0.826917 0.830231 0.867198 0.849847 0.884176 0.910541 0.932355 0.929099 0.931269 0.915794 0.910229 0.903555 0.902431 0.857326 0.96189 0.935829 0.900052 0.925892 0.913931 0.953702 0.933468 0.896682 0.809045 0.81501 1.20959 1.29679 1.04509 1.06174 1.05032 1.02141 1.00325 0.957918 1.01976 0.985145 1.00092 1.02086 1.00502 0.997879 0.985135 0.978794 0.968311 0.944323 0.965914 0.944609 0.934191 1.03508 1.03368 1.00937 1.02529 0.892294 0.941326 0.914922 0.918157 0.924615 0.907693 0.921446 0.904485 0.835665 1.60368 1.12689 1.05634 0.929664 0.860219 1.01374 0.838002 0.960755 1.08354 1.17662 0.811257 0.849485 0.848242 0.895181 0.874038 0.800334 0.815291 0.807258 0.814871 0.654425 0.738769 0.767578 0.437836 0.7779 0.499896 0.726443 0.640985 0.662018 0.644975 0.777477 0.722389 0.77986 0.840966 0.864869 0.649605 0.874194 0.749352 1.06997 0.730073 0.62992 0.627206 0.705721 0.525544 0.635003 0.668459 0.512966 0.65307 0.811615 0.531864 0.783302 0.828169 0.643009 0.678526 0.547019 0.508607 0.679085 0.605053 0.762876 0.8884 0.92263 1.01724 0.777779 0.886601 0.811489 0.811802 0.836762 0.820997 0.74614 0.887711 0.710806 0.800893 0.764588 0.732283 0.79303 0.845962 0.908952 0.859152 0.801167 0.802328 0.786832 0.796761 0.823067 0.868181 0.919698 0.927956 0.917341 0.905593 0.882851 0.820421 0.953518 0.931297 0.934278 0.920361 0.895388 0.907756 0.909111 0.91871 0.951831 0.931194 0.908161 0.819906 0.834222 1.03557 0.973385 1.05781 1.06532 1.02412 1.01697 1.11776 1.04342 1.01572 0.960607 1.02579 1.0349 1.01472 0.968103 0.986205 0.979669 0.978449 1.07021 1.0427 1.03296 1.04021 0.942073 0.918761 0.918267 0.914746 0.916735 0.919127 0.851833 0.755133 0.936386 0.824423 1.41416 1.31275 0.969834 0.885849 0.876275 0.911017 0.929893 1.02683 0.591321 0.746693 0.553298 0.813424 0.820899 0.765413 0.792014 0.792265 0.794173 0.797443 0.782514 0.753333 0.832372 0.795085 0.722044 0.692692 0.673975 0.806837 0.646651 0.638553 0.65143 0.590962 0.656007 0.787263 0.974772 0.686937 0.623062 0.581432 0.494267 0.577037 0.538058 0.658384 0.540368 0.550572 0.600221 0.567218 0.642297 0.654138 0.631974 0.496282 0.498241 0.402143 0.43248 0.727517 0.72838 0.569824 0.622258 0.924471 0.690891 0.751718 0.759981 0.695945 0.808222 0.820124 0.843542 0.772132 0.816043 0.690829 0.69537 0.767907 0.806799 0.876325 0.899546 0.874393 0.831765 0.817337 0.798188 0.786223 0.796322 0.843656 0.810125 0.847561 0.892393 0.902615 0.92177 0.899492 0.897448 0.85776 0.999568 0.952733 0.899434 0.916672 0.912596 0.931723 0.924271 0.929435 0.920552 0.907062 0.907799 1.055 1.0135 1.03955 1.08326 1.03037 0.998198 0.978347 1.04947 1.02483 0.974953 0.985475 0.937611 1.04778 1.04388 0.978752 0.935493 1.00714 0.994699 0.976535 1.04295 1.07117 1.03229 1.01397 0.969642 1.00549 0.929376 0.928751 0.920801 0.92418 0.914547 0.89315 0.942559 0.954186 0.954716 0.896977 0.482624 0.999474 0.897164 0.921486 0.900267 0.878575 0.88103 0.976822 0.821741 0.834814 0.749009 0.654261 0.764468 0.791843 0.768243 0.730721 0.746069 0.782624 0.792487 0.775033 0.792619 0.793726 0.805285 0.798813 0.763187 0.779152 0.752384 0.790658 0.701304 0.701319 0.687628 0.68268 0.643803 0.623375 0.658551 0.624691 0.672324 0.806502 0.764927 0.643107 0.623679 0.693968 0.690265 0.596135 0.472742 0.387597 0.594541 0.539147 0.36891 0.600292 0.704386 0.694076 0.471584 0.532552 0.490113 0.44941 0.476079 0.480332 0.585817 0.506867 0.695328 0.675951 0.492413 0.491849 0.495143 0.675186 0.588779 0.613954 0.725925 0.677805 0.740142 0.758938 0.77599 0.726589 0.781734 0.775501 0.736789 0.698549 0.677422 0.737455 0.755456 0.823066 0.855703 0.884992 0.88505 0.895667 0.858691 0.804914 0.796121 0.802942 0.823022 0.898495 0.86761 0.927053 0.938007 0.967303 0.90363 0.856463 0.927388 0.886021 0.913063 0.913148 0.912518 0.917656 0.93745 0.940932 0.940454 0.93013 0.950421 1.02381 1.03541 1.02732 1.10292 1.01733 1.07339 0.93693 0.948055 1.04781 0.952613 1.11171 1.05946 0.999405 0.965028 0.982354 1.00781 1.00824 1.04633 1.06009 1.06999 1.00407 0.991493 0.958761 0.925895 0.937864 0.947141 0.998856 0.974332 0.913934 0.769049 0.756448 0.733038 0.832597 0.826539 0.897302 0.920019 0.941762 0.811019 0.77859 0.73762 0.760993 0.777129 0.756549 0.757011 0.76501 0.769045 0.782759 0.775782 0.771902 0.748931 0.765945 0.760515 0.694853 0.734089 0.680088 0.647409 0.660837 0.670571 0.627323 0.65301 0.673218 0.637805 0.621376 0.584256 0.672616 0.661408 0.674759 0.527213 0.174253 0.530275 0.203611 0.905159 0.620699 1.08382 0.787223 0.843633 0.754292 0.777745 0.684639 0.602741 0.573298 0.436219 0.524532 0.575825 0.517226 0.522146 0.533341 0.51335 0.542806 0.580675 0.598592 0.633331 0.681769 0.687421 0.658935 0.743985 0.686075 0.660585 0.720993 0.737261 0.762128 0.72326 0.703143 0.704401 0.73012 0.726285 0.752819 0.763334 0.794051 0.839307 0.850115 0.865479 0.863163 0.831013 0.793547 0.818622 0.763198 0.866784 0.92145 0.881317 1.00512 0.970692 0.948578 0.864708 0.83876 0.913948 0.917317 0.904861 0.912991 0.919002 0.93264 0.956501 0.946798 0.96729 0.969636 1.0011 1.04767 1.05834 1.05239 1.09056 0.996258 1.12642 0.953743 0.969501 0.978516 0.921848 0.995117 1.22832 0.94995 1.03432 0.993727 0.993416 1.00626 1.0057 1.01828 1.02698 1.05072 1.05916 0.994445 1.01274 0.97394 0.934721 0.928424 0.938014 0.943053 0.990231 1.04052 1.04925 0.995507 0.776736 0.799666 0.843757 0.875241 0.919583 0.931476 0.895446 0.896767 0.849784 0.820917 0.777245 0.780166 0.763107 0.777447 0.773708 0.763968 0.77377 0.775262 0.780362 0.782604 0.776186 0.771637 0.777567 0.768206 0.748097 0.702434 0.738935 0.689886 0.71431 0.696852 0.681911 0.695855 0.660773 0.689705 0.670098 0.659625 0.72443 0.69347 0.66989 0.77806 0.751227 0.438933 0.54968 0.437429 0.551806 1.00044 1.04253 1.24793 1.07236 1.56186 1.1562 0.753442 0.931301 0.516475 0.432288 0.509505 0.538659 0.524357 0.628876 0.6553 0.637097 0.686145 0.71437 0.707811 0.725924 0.724707 0.716847 0.721457 0.738843 0.730751 0.732292 0.738551 0.741996 0.737743 0.749509 0.732577 0.709574 0.707912 0.747236 0.779308 0.764695 0.812693 0.829505 0.822125 0.86097 0.837234 0.827233 0.803235 0.805356 0.766547 0.901481 0.909051 0.881632 1.03717 0.977957 0.921892 0.861863 0.928688 0.90107 0.907996 0.922161 0.919507 0.930942 0.930093 0.969614 0.953142 1.03444 1.00529 1.00099 1.01766 1.01439 1.09776 1.1002 1.01037 1.08649 0.882407 0.97483 0.993449 1.10793 1.16779 0.974675 1.04268 1.01904 1.03762 1.0085 1.01389 1.016 1.01796 1.02414 1.02899 1.06418 1.05429 1.09253 1.05628 1.04578 0.988872 0.955883 0.924758 0.932699 0.949653 0.956442 1.02443 1.04072 1.03363 1.12564 0.903853 0.857946 0.883291 0.881336 0.902324 0.91445 0.926013 0.854182 0.86943 0.87214 0.79031 0.796138 0.781437 0.793238 0.792204 0.783626 0.782606 0.784512 0.773863 0.747667 0.744213 0.746691 0.73513 0.714344 0.704614 0.706114 0.701469 0.696681 0.687877 0.688141 0.66127 0.668748 0.688584 0.754862 0.635108 0.790574 0.817147 0.389718 0.885975 0.166712 0.298721 0.266065 0.425971 0.414029 0.456318 1.51313 1.26123 0.462985 0.946758 0.430362 0.228797 0.453451 0.385355 0.446944 0.470796 0.422389 0.59776 0.672743 0.760088 0.720239 0.707346 0.712096 0.704997 0.711408 0.732446 0.742199 0.747746 0.687496 0.716052 0.718359 0.628048 0.809336 0.811693 0.799917 0.824327 0.879041 0.842645 0.820452 0.801147 0.780571 0.774142 0.761598 0.837764 0.901436 0.904034 0.875122 0.918902 0.737749 0.967061 0.993718 0.926287 0.923623 0.898744 0.877755 0.867372 0.923534 0.907836 0.969758 0.94046 0.933221 0.938712 1.02013 1.02361 1.03104 1.00878 1.07436 1.00183 1.11402 1.01513 1.10488 1.02382 0.912621 0.879692 0.979383 0.996335 1.15145 0.932085 1.02667 1.04083 1.03578 1.02494 1.02223 1.01944 1.01803 1.02376 1.03408 1.0449 1.09631 1.02999 1.00249 1.05232 0.933611 0.933068 0.962138 0.962769 1.01636 1.02524 0.972191 1.03784 1.04494 1.06086 1.15462 0.881385 0.88753 0.892977 0.89435 0.910717 0.9156 0.925257 0.867095 0.874068 0.801864 0.77683 0.797054 0.802296 0.802262 0.809033 0.813984 0.807646 0.801976 0.796771 0.762955 0.828931 0.779515 0.78468 0.784343 0.762903 0.724824 0.703416 0.707036 0.699012 0.702088 0.673853 0.685213 0.639929 0.607009 0.627266 0.710077 0.624115 0.73443 0.727087 0.708438 0.391894 0.487061 0.644685 2.08664 0.996831 0.769319 0.691257 0.471851 0.429354 0.190819 0.392152 0.0952796 0.498739 1.02937 0.877407 0.690437 0.664952 0.67693 0.689482 0.667038 0.698198 0.684893 0.736302 0.717566 0.724738 0.73259 0.588624 0.842212 0.903211 0.816651 0.824862 0.818379 0.777639 0.827282 0.811053 0.797631 0.767905 0.765819 0.898221 0.907609 0.827039 0.88427 1.01676 0.510926 0.800292 0.821617 0.841672 0.876104 0.895001 0.898727 0.954898 0.989134 0.952284 0.934657 0.993361 0.982413 1.03491 1.04373 1.04781 1.04343 1.03323 1.08014 1.04099 1.01814 1.15352 0.982675 1.04456 0.916155 0.991896 1.01462 0.993663 1.03305 1.03364 1.04212 1.03832 1.01783 1.01758 1.03411 1.09456 1.12426 1.05036 1.02752 1.12115 0.89005 0.941304 0.984626 1.02574 0.98454 1.0567 0.929899 0.906991 0.916648 0.92498 0.907608 0.869333 0.893124 0.890985 0.891431 0.810667 0.816324 0.816895 0.829811 0.844541 0.831701 0.824293 0.784853 0.843046 0.796068 0.773381 0.76329 0.705784 0.700337 0.705251 0.713704 0.708401 0.696972 0.678406 0.659625 0.655095 0.618804 0.575156 0.606895 0.588368 0.633908 0.664167 0.678616 0.712096 0.642063 0.614749 0.546088 0.482553 0.656495 0.564082 1.14286 1.42977 1.19464 0.65171 0.624445 0.64005 0.591175 0.49623 0.545331 0.61504 0.471471 0.548365 0.481938 0.600668 0.968691 0.706886 0.641306 0.657908 0.644554 0.659414 0.638068 0.656321 0.679366 0.709789 0.714966 0.710367 0.737801 0.673462 0.874039 0.817038 0.81537 0.810097 0.791658 0.810042 0.813166 0.814089 0.82385 0.782447 0.960442 0.880879 0.87953 0.868107 0.876037 1.04537 0.827961 0.714875 0.799085 0.830202 0.891625 0.936016 0.965795 0.999903 0.980424 0.975884 1.02489 0.982554 1.04483 1.05981 1.05695 1.04954 1.00676 1.00362 1.04129 1.16806 1.10435 0.945223 0.955713 0.983137 1.01568 1.04733 1.04951 1.03877 1.04607 1.04763 1.05177 1.04652 1.04615 1.08755 1.0773 1.10271 1.02671 0.877573 0.909712 0.959144 0.931495 0.929794 1.01481 1.03064 1.03409 1.05071 1.03016 0.952765 0.927667 0.925743 0.951696 0.90693 0.889766 0.885173 0.828883 0.809659 0.839616 0.831488 0.829711 0.849447 0.863568 0.855136 0.854334 0.860682 0.864263 0.833732 0.963164 0.889096 0.772616 0.702426 0.689359 0.729387 0.715091 0.711729 0.708042 0.704481 0.668691 0.639159 0.566465 0.545116 0.534568 0.570449 0.699908 0.648075 0.701552 0.734826 0.609729 0.56828 0.528355 0.814498 0.919266 0.850004 0.627247 0.619805 0.583653 0.5413 0.654185 0.786215 0.621559 0.721498 0.802269 0.789104 0.72318 0.695403 0.613228 0.646573 0.617463 0.655081 0.699284 0.684276 0.730689 0.727361 0.747965 0.816211 0.828409 0.819181 0.83815 0.837102 0.805069 0.815852 0.82436 0.808716 0.815097 0.905413 0.876612 0.925422 0.894678 0.881776 0.901903 0.912275 0.896512 0.693082 0.855706 0.843078 0.766618 0.986887 0.99564 1.0033 0.999937 1.016 1.02778 1.01141 1.06071 1.0613 1.05442 1.05224 1.06324 1.01015 1.02408 1.02355 1.06398 1.13125 1.10685 0.985801 0.996529 1.02139 1.01808 1.04368 1.03177 1.04125 1.05748 1.04153 1.05043 1.04805 1.07168 1.06358 1.05652 1.05944 1.05319 1.06435 1.0925 1.0689 1.09191 1.04421 1.00263 0.929494 0.96058 0.941148 0.96283 0.992421 1.07426 1.04237 1.00758 0.942794 0.960843 0.943501 0.873676 0.94855 0.878127 0.919924 0.902058 0.917696 0.841302 0.839754 0.836978 0.878996 0.863027 0.865676 0.869569 0.863549 0.856912 0.98688 0.861999 0.701265 0.703768 0.719098 0.697438 0.729663 0.645622 0.546462 0.562069 0.558752 0.670261 0.713053 0.731667 0.619558 0.664752 0.62588 0.646296 0.735896 0.554872 0.792794 0.603655 0.582093 0.639069 0.681358 0.686438 0.749403 0.767648 0.733715 0.732767 0.725623 0.710685 0.558131 0.630699 0.659419 0.679094 0.709421 0.707352 0.705519 0.736903 0.752235 0.765751 0.806187 0.847953 0.846598 0.836006 0.822254 0.794559 0.816754 0.921828 0.91979 0.903934 0.904089 0.890714 0.898589 0.877205 1.02597 0.854707 0.618616 1.15584 1.00537 0.995816 1.01575 1.01229 1.00999 1.01638 1.0159 1.04871 1.0684 1.06471 1.05967 1.06835 1.04367 1.03825 1.07803 1.13148 1.00652 1.01042 1.01471 1.02027 1.05064 1.06921 1.06586 1.0508 1.04631 1.07851 1.06674 1.06495 1.06293 1.09018 1.0529 1.12559 0.987791 1.03527 1.04025 1.03713 0.95424 0.96205 0.925045 0.980973 1.01522 1.0242 0.99338 1.0386 0.93362 1.01944 0.976525 0.953086 0.942788 0.907573 0.944723 0.900087 0.939933 0.904944 0.798534 0.863165 0.882075 0.825019 0.858546 0.887713 0.856988 0.802771 0.65926 0.965309 0.491127 0.575773 0.602928 0.637588 0.703863 0.701112 0.699127 0.658923 0.689928 0.8133 0.576923 0.455647 0.545762 0.605099 0.602544 0.683892 0.6844 0.745354 0.728253 0.659374 0.730848 0.674195 0.627927 0.621264 0.698094 0.756443 0.7281 0.586182 0.622141 0.634827 0.681611 0.705515 0.727105 0.744609 0.778858 0.736861 0.817485 0.504103 0.366437 0.643235 0.618369 0.705364 0.703085 0.767537 0.737107 0.695982 0.747985 0.758659 0.743759 0.872312 0.858042 0.881419 0.826969 0.811088 0.952329 0.941658 0.908921 0.901295 0.900993 0.913143 0.858283 0.888584 0.965225 0.973352 0.994449 1.17611 1.03979 1.11244 1.02385 0.997599 0.98503 0.987943 1.02392 1.03099 1.07587 1.05192 1.06952 1.05802 1.06575 1.0488 1.08724 1.05744 1.13098 1.08656 1.02365 1.02837 1.03787 1.031 1.06991 1.08153 1.07086 1.07082 1.05141 1.08847 1.07116 1.08001 1.08908 1.05434 0.999374 0.960711 1.04353 1.05439 1.02417 0.966758 1.00225 1.02846 1.01886 0.994725 1.0192 1.00685 1.0357 0.933418 0.907992 0.955798 0.938247 0.99074 0.916991 1.02726 0.97343 0.956875 0.834012 0.829966 0.842912 0.867086 0.855364 0.867857 0.863829 0.867658 0.807961 0.788663 0.817951 0.916743 0.70804 0.65422 0.705733 0.746857 0.624014 0.879588 0.766564 0.644993 0.413017 0.674488 0.73383 0.75994 0.728265 0.690862 0.71723 0.600279 0.710581 0.747995 0.564693 0.725373 0.671327 0.744028 0.677398 0.637622 0.677017 0.716312 0.742589 0.73698 0.728931 0.780978 0.848765 0.740229 0.747097 0.867439 0.639803 0.733667 0.767148 0.800213 0.860386 0.91207 0.892028 0.843514 0.806472 0.790509 0.905987 0.976154 0.9725 0.922943 0.919848 0.9108 0.882344 0.971191 1.01293 1.10383 1.05554 1.06873 1.0418 1.02585 1.00853 1.03669 1.03045 1.02758 1.03338 1.02257 1.08407 1.05486 1.0786 1.08793 1.06762 1.06333 1.11423 1.06802 1.09796 1.0491 1.04516 1.05765 1.06708 1.03639 1.07962 1.09574 1.07524 1.07614 1.19132 1.08899 1.07893 1.06259 1.08628 1.0976 1.09436 1.03566 1.00332 1.04765 1.0314 1.04418 1.03377 1.0449 1.02618 1.02788 1.10178 1.0329 0.932249 0.940616 0.995438 1.03776 0.980741 0.999436 0.93376 0.888551 0.832907 0.833279 0.89593 0.868675 0.86515 0.824442 0.771204 0.98518 0.857591 0.723081 0.684552 0.686861 0.740852 0.835639 0.833137 0.651816 0.98739 0.629693 0.663356 0.71809 0.737608 0.727506 0.828506 0.857765 0.685351 0.772727 0.930476 0.782047 0.665167 0.631652 0.671925 0.712603 0.780212 0.875993 0.972361 0.92634 0.845586 0.68435 0.807142 0.67282 0.204922 0.556129 0.698327 0.839348 0.890401 0.919897 0.948509 0.811189 0.843161 0.977338 0.978123 0.991665 0.957072 0.927363 0.940448 0.895801 0.858558 0.896842 0.973944 1.06231 1.07368 1.05539 1.04989 1.03152 1.03822 1.04542 1.05949 1.02756 1.03203 1.01688 1.06179 1.07207 1.08014 1.07789 1.12721 1.10467 1.04748 1.04989 1.06764 1.08156 1.05292 1.08171 1.09617 1.1859 1.07699 1.09513 1.08173 1.0976 1.08919 1.10332 1.08827 1.02247 0.988732 1.01577 1.06848 1.03796 1.00375 1.02821 1.02859 1.01677 1.15601 0.98855 0.927156 0.931485 0.992912 1.02047 1.00863 1.01894 0.993991 1.02209 0.960335 0.759387 0.911887 0.825661 0.891141 1.0649 0.945384 0.882427 0.782795 0.776209 0.723408 0.769011 0.658415 0.771255 0.82884 1.03118 0.904519 0.644029 0.643133 0.717985 0.770135 0.741469 0.890528 0.824333 0.687118 0.793348 0.934822 0.847892 0.799449 0.643364 0.69144 0.742549 0.833246 0.894454 0.871666 0.889462 0.864461 0.893595 0.856702 0.531086 0.627514 0.884152 0.472497 0.747805 0.938259 0.906488 0.945887 0.97029 1.07236 0.825765 0.82346 0.997224 1.02263 0.979858 0.908896 0.899491 0.858166 0.832928 0.911584 1.07867 1.08295 1.05157 1.04907 1.00075 1.0992 1.06527 1.03212 1.0422 1.07395 1.05684 1.06904 1.08035 1.09726 1.12815 1.15377 1.08193 1.03756 1.04199 1.08603 1.08497 1.05117 1.06644 1.09627 1.11508 1.20144 1.09069 1.11119 1.09242 1.09804 1.11267 1.10756 1.03522 1.01577 1.00865 1.06495 1.00172 1.01269 0.963593 1.10043 1.05197 1.05164 1.0064 1.12355 1.11139 1.1191 1.01146 0.985596 0.894953 1.00226 1.005 1.02345 0.96101 1.01482 0.972654 0.922933 0.887667 0.781904 0.889146 1.17667 1.0696 0.922715 0.805186 0.801781 0.776464 0.788639 0.849683 0.816675 0.849437 0.963429 0.88163 0.991569 0.697406 0.795154 0.781696 0.801748 0.76278 0.797538 0.836206 0.825805 0.752345 0.821824 0.934667 0.972648 0.983844 0.744342 0.742084 0.850272 0.89304 0.883261 0.895772 0.938596 1.0387 0.606615 1.03464 0.806993 0.935221 0.943751 0.985608 1.01267 0.988215 0.999608 1.01187 1.15751 1.07767 0.751232 0.972725 1.02218 0.930101 0.918196 0.851083 0.977331 0.999218 1.12395 1.04337 1.04222 1.03309 1.11878 1.02172 1.0484 1.05237 1.07859 1.06797 1.05891 1.09057 1.08964 1.14611 1.05645 1.19399 1.12282 1.10003 1.10199 1.09812 1.10551 1.09336 1.08502 1.02444 1.08961 1.16802 1.17497 1.18837 1.1076 1.1014 1.10952 1.08819 1.1298 1.13966 1.0718 1.03083 1.09683 1.09881 0.981165 1.10477 1.10306 1.05557 1.06623 1.03198 1.12499 1.13198 1.07322 0.964242 1.01469 0.992176 1.02792 1.01023 0.960902 1.00914 1.01661 0.987084 0.914763 0.827985 0.819011 1.1234 1.06092 0.938536 0.825839 0.796019 0.781694 0.87394 0.859056 0.856157 0.895125 0.854832 0.898929 0.978779 0.816672 0.823114 0.789946 0.71 0.58352 0.916243 0.82962 0.840524 0.991367 1.08871 0.943794 0.804648 0.933894 0.786613 0.795382 0.764266 0.882154 0.869278 0.912917 0.889645 0.898684 0.942231 1.02473 1.04979 0.959064 1.06516 1.08992 1.01298 0.921419 1.20241 0.935439 1.08204 1.05644 0.953647 0.920256 0.861045 1.01297 1.19144 1.12252 1.00443 1.00379 1.07704 1.02529 1.01285 1.03285 1.03321 1.20974 1.08839 1.14411 1.07485 1.08805 1.07582 1.0655 1.13246 1.04809 1.18552 1.15021 1.11105 1.09455 1.10529 1.11889 1.0947 1.09385 1.13252 1.13673 1.10907 1.14038 1.12493 1.11096 1.15771 1.1046 1.06097 1.11084 1.13038 1.11026 1.10528 1.04981 1.06261 1.03074 1.02209 1.09141 1.04002 1.0527 1.00769 1.02361 1.00651 0.971639 1.05318 1.05219 0.962396 0.973689 0.971316 0.968651 1.01733 1.01013 1.01223 0.992448 1.00291 0.951129 0.846173 1.12521 0.947734 1.07621 0.974301 0.888253 0.959725 0.851196 0.779037 0.846134 0.906962 0.895897 0.945381 0.912302 0.975015 0.9047 0.924108 0.831648 0.872327 0.545985 0.949824 0.869378 0.850215 1.00519 1.0539 0.999583 0.876413 0.828161 0.950862 0.880789 0.884092 0.926334 0.940684 1.00776 1.09809 0.967211 0.949337 1.02284 1.00477 1.219 0.949756 1.02219 1.02461 1.14491 0.991923 0.940784 0.976498 1.05446 1.03918 1.03595 1.09618 1.03243 1.04543 1.05395 1.21949 1.12912 1.17241 1.1898 1.10156 1.07698 1.06868 1.13274 1.07395 1.06716 1.17078 1.15314 1.12047 1.10168 1.11465 1.10751 1.12079 1.11211 1.12643 1.07406 1.12223 1.13699 1.13868 1.13959 1.11714 1.12393 1.16716 1.12478 1.09589 1.087 1.14405 1.10926 1.10886 1.10595 1.06438 1.03444 1.0014 1.07174 1.04719 1.0507 1.04621 1.05687 1.03206 1.03373 0.973902 1.03282 0.964522 1.04919 1.01751 1.00438 0.988296 0.948492 0.998055 1.05085 1.05653 1.03285 1.00934 1.02099 1.00036 0.84247 0.836405 0.939827 0.884201 0.928421 0.921585 0.922078 0.964198 0.983483 1.01539 0.900122 0.808715 0.78497 0.977295 1.09087 0.917939 0.86569 0.862937 0.873147 1.01616 0.938698 0.956434 1.0713 0.873648 0.930113 0.99339 0.986055 1.01857 0.88975 0.92061 0.989422 1.14302 1.01279 0.94646 1.16206 1.06357 0.982902 1.01167 1.0371 1.04103 1.13121 1.08028 1.0324 1.05744 1.06707 1.11315 1.11172 1.18985 1.15763 1.13724 1.08418 1.106 1.13266 1.10935 1.07721 1.13089 1.17115 1.16795 1.13565 1.11494 1.12481 1.10566 1.12416 1.11533 1.13769 1.09216 1.1454 1.17931 1.13893 1.14422 1.11653 1.13588 1.19918 1.13166 1.09296 1.12796 1.11807 1.16941 1.12264 1.1137 1.10857 1.07054 1.12887 1.05323 1.16778 1.04436 1.06354 1.04667 1.05035 1.02685 1.00687 1.02539 1.0981 1.05158 1.01914 1.0034 0.996124 0.998661 1.03675 1.03095 1.01185 1.00524 0.868717 0.915565 0.97111 0.941367 0.951835 0.989837 1.05533 0.996009 0.90226 0.707852 1.15046 1.08652 0.92246 0.914057 0.910187 1.01427 0.972227 0.951923 0.929713 1.00176 1.06238 0.926728 1.01877 0.965865 0.99457 1.00248 0.961714 1.00253 1.04275 1.09903 1.0917 0.922793 0.956334 0.94299 1.03476 1.10075 1.0416 0.945394 1.17457 1.06012 1.02964 0.97807 0.999673 1.04237 1.04044 1.05653 1.12985 1.0979 1.07378 1.07359 1.12972 1.11797 1.09448 1.15374 1.13833 1.11545 1.12554 1.13591 1.12571 1.12999 1.1598 1.18053 1.15051 1.18015 1.12195 1.13717 1.10907 1.13356 1.11938 1.14865 1.10211 1.14585 1.18192 1.14172 1.14263 1.12116 1.14358 1.09636 1.1378 1.12957 1.12496 1.17071 1.12562 1.12063 1.08787 1.13562 1.13238 1.07285 1.17471 1.04369 1.0819 1.04971 1.07248 1.02669 1.01322 0.991877 1.08801 1.10688 1.07002 0.988515 1.00076 1.00532 1.01282 1.03378 1.03525 1.03678 0.845485 1.0082 0.971872 0.933292 0.99105 0.955027 0.969405 0.980586 0.998636 1.04545 0.972849 0.846538 0.997952 1.10552 0.923608 0.91417 0.906756 0.937256 1.02115 0.965089 0.976661 0.996088 0.998242 1.00418 0.965332 0.985518 1.04008 1.04822 0.950765 1.02304 1.01651 1.04688 0.964601 0.985936 0.959911 1.04328 1.05854 1.11258 0.998588 1.07746 1.13589 1.06454 1.04103 1.00506 1.06113 1.06366 1.08271 0.970658 1.116 1.13862 1.05014 1.0649 1.13231 1.12661 1.1414 1.15667 1.13271 1.13529 1.13524 1.15335 1.1488 1.15229 1.17751 1.14675 1.14913 1.12216 1.16001 1.11553 1.14931 1.12033 1.1708 1.18911 1.1516 1.14819 1.13303 1.09476 1.10439 1.12064 1.1424 1.10114 1.16263 1.1617 1.14499 1.15528 1.1344 1.11978 1.10371 1.17272 1.13736 1.09593 1.17288 1.0593 1.11791 1.07791 1.03557 1.21694 1.1393 1.03156 1.14228 1.09478 1.06063 0.996071 1.00506 1.02181 1.03329 1.04621 0.818204 1.0005 0.967831 0.988927 1.0008 0.97864 1.00297 0.991247 1.06186 0.949968 0.741159 1.00273 1.11022 0.999645 1.08116 0.917695 0.931376 1.02067 1.01621 1.05668 0.934987 0.910646 1.02037 0.998695 0.995965 1.00504 1.02943 1.02998 1.0402 1.10842 1.04389 1.01278 1.066 0.995402 1.00969 0.967852 1.03491 1.12327 1.00455 1.11294 1.10501 1.06985 1.06243 1.0646 1.0669 1.1319 1.04525 1.11296 1.13462 1.14978 1.06164 1.06869 1.14214 1.13845 1.14712 1.16132 1.14619 1.14429 1.13482 1.13747 1.15078 1.14091 1.17135 1.21035 1.1444 1.18177 1.12019 1.15433 1.18474 1.14818 1.17035 1.18796 1.19083 1.15439 1.12516 1.14909 1.17236 1.15317 1.16409 1.16402 1.13768 1.1292 1.15207 1.13865 1.16788 1.15384 1.17748 1.07572 1.12981 1.0978 1.08236 1.12611 1.09786 1.14265 1.0369 1.17513 1.04145 1.09838 1.00806 0.990646 0.991606 1.02614 1.04347 1.07312 0.953042 1.03866 1.03679 0.981343 0.999544 1.01368 0.992595 1.01101 1.07085 1.10011 1.04716 0.977451 1.10432 0.929755 1.07826 1.01702 1.07778 0.933474 0.933467 1.03151 1.05417 0.995602 1.00375 1.02766 0.999306 1.02288 1.03885 1.08709 1.05217 1.12248 1.03116 1.02796 1.04486 1.06123 1.03669 1.10345 1.11382 1.05371 1.05663 1.10039 1.09318 1.06893 1.07061 1.12667 1.06237 1.12469 1.14827 1.116 1.13976 1.16971 1.06929 1.15284 1.15194 1.14133 1.1481 1.14409 1.15609 1.14954 1.15525 1.14601 1.14597 1.14846 1.14303 1.15398 1.17248 1.14402 1.1887 1.14751 1.18431 1.16029 1.16765 1.13235 1.14495 1.14828 1.17385 1.16507 1.18551 1.15933 1.15726 1.15638 1.16138 1.15938 1.17102 1.18123 1.15868 1.14474 1.1407 1.13203 1.14006 1.15657 1.15957 1.16418 1.13171 1.08379 1.1202 1.10017 1.10348 1.14249 1.10533 1.11682 1.11298 1.09956 1.07067 1.04308 1.02229 1.04323 1.08187 0.998074 1.01792 1.00897 1.00063 1.01759 1.01833 1.10768 1.0812 1.02678 0.955079 1.06189 1.12433 1.08367 0.938532 1.00328 0.934481 0.979565 1.04589 1.04932 1.0555 1.08452 0.999239 0.987284 1.01664 1.03391 1.08165 1.16012 1.05372 1.0507 1.02854 1.05818 1.05539 1.04872 1.10084 1.06405 1.05878 1.07831 1.09509 1.09561 1.08854 1.0756 1.1314 1.06851 1.13692 1.1531 1.11631 1.15195 1.16318 1.04322 1.10448 1.17622 1.15497 1.14177 1.15819 1.15472 1.17298 1.16246 1.14815 1.15776 1.15111 1.19458 1.1703 1.25883 1.19178 1.18374 1.15987 1.18647 1.19178 1.15214 1.19178 1.20252 1.1703 1.18874 1.16657 1.16137 1.17581 1.16189 1.16858 1.15282 1.14527 1.14775 1.14615 1.13964 1.13361 1.15636 1.15866 1.16724 1.16198 1.09398 1.14466 1.09801 1.10717 1.13228 1.1291 1.11816 1.13405 1.11779 1.11688 1.07342 1.06011 1.11614 1.04358 1.05481 1.07282 1.01793 1.00678 1.07035 1.10161 1.02038 0.983898 1.06828 1.03906 1.11843 1.09774 1.05893 0.97798 1.07811 1.04471 1.06764 1.00163 1.00746 1.05105 1.04815 1.08475 1.0316 1.08927 1.02384 1.0943 1.07551 1.05167 1.16732 1.08085 1.0268 1.07162 1.05474 1.07067 1.10541 1.06603 1.08636 1.10164 1.09712 1.0943 1.1007 1.0741 1.12912 1.08365 1.14229 1.16284 1.13832 1.1496 1.16668 1.0842 1.154 1.19178 1.15755 1.15413 1.18089 1.16127 1.15495 1.14942 1.18929 1.19241 1.16627 1.19146 1.19178 1.19347 1.1843 1.16464 1.17487 1.19764 1.17976 1.17249 1.17982 1.17117 1.18726 1.18324 1.16346 1.15797 1.16198 1.17628 1.17079 1.16692 1.17502 1.16578 1.16953 1.15168 1.14451 1.15015 1.16122 1.16268 1.13449 1.14972 1.15688 1.14205 1.08827 1.1135 1.15548 1.09971 1.05461 1.0925 1.09222 1.12968 1.05199 1.04831 1.06793 1.02951 1.04397 1.11191 1.06218 1.01081 1.1036 1.03905 1.11119 1.12358 1.09069 1.02863 1.05656 1.02937 1.02716 1.0464 1.02351 1.00396 1.05135 1.07374 1.07103 1.02835 1.10176 1.0394 1.10031 1.0864 1.06107 1.16999 1.08471 1.02638 1.07401 1.05732 1.08866 1.1205 1.08436 1.07958 1.10306 1.11859 1.09517 1.10219 1.15793 1.08591 1.13229 1.14365 1.14591 1.14424 1.18744 1.08829 1.15399 1.20121 1.1596 1.15766 1.18693 1.18728 1.18561 1.16603 1.19458 1.15828 1.15118 1.18472 1.17331 1.19209 1.19334 1.19519 1.18918 1.19084 1.17832 1.17783 1.18934 1.18597 1.17104 1.17214 1.16742 1.17494 1.1682 1.17121 1.16692 1.17206 1.1763 1.1563 1.15044 1.14228 1.17113 1.17196 1.1404 1.15298 1.13687 1.14244 1.08796 1.12056 1.13398 1.10248 1.13171 1.08301 1.1044 1.09247 1.1123 1.12833 1.05987 1.05794 1.06811 1.10603 1.05201 1.09332 1.02391 1.1102 1.03959 1.12804 1.10163 1.11743 1.04745 1.05091 1.0403 1.03644 1.00326 1.10866 1.13099 1.07333 1.02836 1.11153 1.04469 1.0956 1.07501 1.0894 1.17 1.09052 1.02736 1.07597 1.09554 1.08676 1.08875 1.1168 1.08275 1.1037 1.12012 1.10356 1.10132 1.16076 1.12531 1.18717 1.13426 1.13589 1.14898 1.16878 1.09987 1.09818 1.15857 1.16037 1.15799 1.18512 1.16437 1.17062 1.17243 1.19136 1.18823 1.17477 1.19065 1.17872 1.19023 1.18657 1.17095 1.17808 1.16853 1.16862 1.17618 1.18219 1.17536 1.17191 1.14979 1.1413 1.17231 1.17033 1.17307 1.15925 1.15281 1.13721 1.14189 1.11144 1.11718 1.13316 1.10135 1.12184 1.10107 1.13357 1.09245 1.14359 1.08073 1.0558 1.06002 1.06789 1.09427 1.10687 1.05028 1.06785 1.01115 1.06543 1.04929 1.12905 1.10121 1.11599 1.04602 1.06755 1.04505 1.03719 1.03807 1.0178 
SCALARS Stress float 1
LOOKUP_TABLE default
-296741000000.0 -133843000000.0 -182597000000.0 -211110000000.0 -365174000000.0 -184777000000.0 -150438000000.0 -396255000000.0 -313086000000.0 -437749000000.0 -518216000000.0 -256594000000.0 -279697000000.0 -97818200000.0 -228956000000.0 -279724000000.0 -304682000000.0 -209796000000.0 -645248000000.0 -647991000000.0 -912058000000.0 -1.23335e+12 -681302000000.0 -965726000000.0 -681795000000.0 -1.02183e+12 -931165000000.0 -694607000000.0 -1.28623e+12 -812960000000.0 -340328000000.0 -638990000000.0 -1.13201e+12 -476522000000.0 -295774000000.0 -516660000000.0 -221441000000.0 -139002000000.0 -1.17744e+12 -965325000000.0 -689440000000.0 -532207000000.0 -843485000000.0 -1.27349e+12 -523479000000.0 -609608000000.0 -977455000000.0 -1.0653e+12 -969286000000.0 -1.69257e+12 -1.42952e+12 -2.09713e+12 -1.09219e+12 -1.8819e+12 -690346000000.0 -1.13549e+12 -874308000000.0 -995200000000.0 -1.66573e+12 -2.07221e+12 -463550000000.0 -869416000000.0 -1.08784e+12 -1.22814e+12 -1.27592e+12 -462882000000.0 -1.8895e+12 -1.04286e+12 -614923000000.0 -1.59144e+12 -1.13535e+12 -1.17722e+12 -1.16782e+12 -1.57016e+12 -2.15502e+12 -1.3022e+12 -3.48626e+12 -2.46702e+12 -1.76355e+12 -1.77322e+12 -827734000000.0 -1.50582e+12 -1.61471e+12 -1.90882e+12 -2.50528e+12 -1.5713e+12 -2.00701e+12 -1.11514e+12 -2.79944e+12 -1.55963e+12 -550334000000.0 -2.27814e+12 -2.37991e+12 -2.66416e+12 -1.35448e+12 -1.39054e+12 -1.14961e+12 -2.80734e+12 -1.89401e+12 -1.34777e+12 -4.56771e+12 -2.70806e+12 -3.36885e+12 -2.96356e+12 -4.43877e+12 -3.01821e+12 -3.74121e+12 -1.16772e+12 -1.53271e+12 -2.0096e+12 -1.68673e+12 -2.24073e+12 -2.68239e+12 -3.04772e+12 -4.14617e+12 -5.17152e+12 -2.22e+12 -2.70357e+12 -3.50339e+12 -591683000000.0 -1.90938e+12 -1.2613e+12 -1.78689e+12 -1.35742e+12 -1.90647e+12 -2.0682e+12 -5.12461e+12 -5.22763e+12 -3.74135e+12 -2.46779e+12 -2.67033e+12 -1.8836e+12 -2.1668e+12 -1.60782e+12 -1.47451e+12 -4.44435e+12 -4.03981e+12 -1.97979e+12 -1.84411e+12 -2.51799e+12 -2.116e+12 -3.99713e+12 -1.31179e+12 -1.46501e+12 -2.85609e+12 -1.78377e+12 -1.45901e+12 -1.39693e+12 -4.03484e+12 -2.81832e+12 -2.41602e+12 -1.35394e+12 -3.72787e+12 -1.47142e+12 -1.32375e+12 -1.67941e+12 -3.95829e+12 -1.55675e+12 -4.21329e+12 -5.12058e+12 -2.44102e+12 -6.49909e+12 -2.12024e+12 -4.3551e+12 -3.44376e+12 -2.33514e+12 -2.97903e+12 -2.93287e+12 -2.70831e+12 -2.82805e+12 -3.12776e+12 -2.82299e+12 -3.47317e+12 -3.78008e+12 -3.69936e+12 -2.56476e+12 -3.55715e+12 -3.69572e+12 -2.89734e+12 -2.34339e+12 -4.68235e+12 -3.62675e+12 -2.81014e+12 -4.65314e+12 -3.74634e+12 -2.6908e+12 -796770000000.0 -5.49119e+12 -2.65064e+12 -5.05598e+12 -5.27883e+12 -5.05868e+12 -4.05273e+12 -3.76789e+12 -4.31456e+12 -4.22753e+12 -5.4244e+12 -6.45125e+12 -3.39263e+12 -6.7443e+12 -4.40366e+12 -4.44504e+12 -4.66584e+12 -6.8397e+12 -4.05402e+12 -4.05022e+12 -3.12499e+12 -1.23476e+12 -4.64315e+12 -5.50311e+12 -1.6224e+12 -5.4634e+12 -6.07409e+12 -4.51415e+12 -2.73001e+12 -2.96531e+12 -3.46342e+12 -4.80675e+12 -3.56973e+12 -6.54911e+12 -6.97409e+12 -4.63143e+12 -5.80597e+12 -4.95121e+12 -8.74239e+12 -5.75823e+12 -3.13625e+12 -5.59876e+12 -6.96547e+12 -7.90772e+12 -7.80032e+12 -7.96531e+12 -4.14117e+12 -6.48881e+12 -4.82375e+12 -4.04121e+12 -4.10464e+12 -6.60018e+12 -2.53018e+12 -5.93477e+12 -6.23041e+12 -7.15943e+12 -3.97243e+12 -3.26385e+12 -3.78128e+12 -2.94422e+12 -4.44971e+12 -3.44062e+12 -3.87028e+12 -4.15038e+12 -2.93332e+12 -2.96254e+12 -3.72912e+12 -6.52786e+12 -3.98297e+12 -4.35646e+12 -4.20834e+12 -3.54204e+12 -6.05372e+12 -4.70658e+12 -5.51243e+12 -6.32925e+12 -3.02663e+12 -6.97754e+12 -9.29108e+12 -5.13988e+12 -9.37888e+12 -8.49245e+12 -6.73616e+12 -1.34607e+13 -6.9831e+12 -8.08391e+12 -4.01987e+12 -3.99877e+12 -5.71595e+12 -4.1067e+12 -5.24919e+12 -4.39938e+12 -3.08374e+12 -7.7276e+12 -3.79564e+12 -6.17997e+12 -8.16917e+12 -5.53278e+12 -3.22513e+12 -1.02716e+13 -4.53384e+12 -4.78801e+12 -2.00323e+12 -5.01107e+12 -6.11829e+12 -5.75167e+12 -6.11193e+12 -3.3209e+12 -5.72888e+12 -3.73559e+12 -5.46703e+12 -2.12794e+12 -5.46025e+12 -2.5075e+12 -3.44763e+12 -2.66594e+12 -3.72148e+12 -2.69897e+12 -5.00009e+12 -5.76296e+12 -3.83045e+12 -3.42047e+12 -3.75529e+12 -5.67217e+12 -2.51438e+12 -4.52608e+12 -5.81189e+12 -6.41176e+12 -6.31487e+12 -3.90944e+12 -7.43901e+12 -3.83758e+12 -6.81958e+12 -9.91239e+12 -6.37074e+12 -8.0852e+12 -6.6737e+12 -7.4907e+12 -2.36849e+12 -7.38006e+12 -7.15652e+12 -4.51654e+12 -2.48695e+12 -4.67074e+12 -3.89583e+12 -3.79802e+12 -9.63592e+12 -5.57498e+12 -1.03512e+13 -5.11884e+12 -4.2818e+12 -5.98024e+12 -3.20108e+12 -4.81049e+12 -5.97255e+12 -8.68818e+12 -8.25159e+12 -7.15101e+12 -7.34908e+12 -4.98875e+12 -5.7318e+12 -7.39923e+12 -5.73393e+12 -5.33843e+12 -4.03774e+12 -4.72557e+12 -6.49217e+12 -3.02237e+12 -5.60195e+12 -3.55252e+12 -4.03878e+12 -3.10265e+12 -5.88349e+12 -3.26938e+12 -5.70446e+12 -2.9197e+12 -4.32499e+12 -4.69007e+12 -3.85518e+12 -4.85323e+12 -4.47717e+12 -4.72815e+12 -2.95127e+12 -4.18767e+12 -5.67934e+12 -2.76655e+12 -6.21344e+12 -9.63448e+12 -6.09654e+12 -7.27048e+12 -5.8248e+12 -8.52048e+12 -7.54193e+12 -6.04949e+12 -7.78607e+12 -7.3336e+12 -5.33776e+12 -6.4549e+12 -4.9439e+12 -6.98938e+12 -1.06933e+13 -3.85573e+12 -4.4163e+12 -4.76607e+12 -4.57538e+12 -9.70738e+12 -7.01954e+12 -1.01782e+13 -8.35359e+12 -8.68617e+12 -7.61976e+12 -8.06327e+12 -4.40088e+12 -6.66565e+12 -4.74699e+12 -6.32531e+12 -3.66975e+12 -5.18262e+12 -5.49438e+12 -5.93116e+12 -4.79043e+12 -4.71174e+12 -4.49414e+12 -6.12288e+12 -6.93982e+12 -6.42799e+12 -5.08364e+12 -3.07733e+12 -2.38559e+12 -3.32296e+12 -2.1901e+12 -4.18798e+12 -3.94599e+12 -5.8078e+12 -3.27898e+12 -4.15147e+12 -4.58809e+12 -3.16224e+12 -2.92128e+12 -4.61818e+12 -3.78005e+12 -1.84355e+12 -5.69822e+12 -4.30573e+12 -2.71887e+12 -4.08978e+12 -5.11374e+12 -4.37107e+12 -6.19114e+12 -3.81638e+12 -4.90069e+12 -7.12217e+12 -3.72497e+12 -5.74052e+12 -4.52335e+12 -5.57471e+12 -6.34254e+12 -8.46222e+12 -5.79021e+12 -1.01353e+13 -5.01963e+12 -5.18411e+12 -7.59166e+12 -5.44566e+12 -4.67211e+12 -8.29919e+12 -5.49162e+12 -3.47663e+12 -5.02423e+12 -3.82455e+12 -5.64766e+12 -5.58141e+12 -6.60692e+12 -3.89511e+12 -6.17795e+12 -3.62953e+12 -4.27457e+12 -7.68152e+12 -5.00453e+12 -5.91259e+12 -5.53749e+12 -9.91015e+12 -1.00624e+13 -7.53707e+12 -7.16989e+12 -8.48916e+12 -6.35385e+12 -7.77579e+12 -7.70593e+12 -5.31757e+12 -4.35362e+12 -4.71849e+12 -2.89941e+12 -3.78504e+12 -5.59744e+12 -4.26949e+12 -6.5212e+12 -4.71541e+12 -3.65131e+12 -3.44868e+12 -3.9805e+12 -4.20575e+12 -3.82695e+12 -4.3671e+12 -3.84076e+12 -3.4966e+12 -3.23465e+12 -3.54679e+12 -4.46191e+12 -2.77355e+12 -3.28237e+12 -3.55585e+12 -2.91827e+12 -2.02545e+12 -3.19846e+12 -3.4875e+12 -5.17733e+12 -4.78966e+12 -3.19e+12 -5.45604e+12 -6.6804e+12 -5.41062e+12 -5.17611e+12 -5.56012e+12 -5.40216e+12 -4.66105e+12 -7.60446e+12 -2.82335e+12 -4.18814e+12 -6.82368e+12 -3.87552e+12 -7.21387e+12 -8.67353e+12 -7.61059e+12 -7.92931e+12 -5.56278e+12 -1.02833e+13 -1.30886e+13 -7.59808e+12 -6.63991e+12 -8.13251e+12 -6.93739e+12 -5.28156e+12 -5.65076e+12 -6.73517e+12 -5.89712e+12 -4.16097e+12 -4.10997e+12 -3.56824e+12 -7.12083e+12 -4.90428e+12 -9.9794e+12 -6.83218e+12 -5.51865e+12 -7.3136e+12 -5.77955e+12 -5.52716e+12 -4.06921e+12 -3.87017e+12 -7.20846e+12 -5.28065e+12 -6.97748e+12 -5.68033e+12 -5.26138e+12 -5.69007e+12 -3.47574e+12 -3.54498e+12 -6.64526e+12 -3.46932e+12 -8.25875e+12 -5.48317e+12 -4.28832e+12 -4.41701e+12 -6.93849e+12 -5.71699e+12 -5.29655e+12 -4.13931e+12 -6.11018e+12 -2.57866e+12 -3.31282e+12 -6.07454e+12 -3.42545e+12 -3.15861e+12 -4.51813e+12 -4.35917e+12 -2.39882e+12 -4.23975e+12 -2.21719e+12 -3.67598e+12 -3.29798e+12 -2.56942e+12 -6.1476e+12 -3.02308e+12 -6.41101e+12 -4.89298e+12 -5.65839e+12 -4.85855e+12 -2.56841e+12 -2.7867e+12 -3.17206e+12 -4.00091e+12 -5.46507e+12 -5.07704e+12 -4.8688e+12 -5.38592e+12 -2.62699e+12 -5.69642e+12 -5.70304e+12 -4.07928e+12 -4.16929e+12 -6.12866e+12 -9.42274e+12 -4.92913e+12 -4.8026e+12 -6.82467e+12 -9.91847e+12 -9.09143e+12 -3.56806e+12 -9.43024e+12 -4.95274e+12 -6.60682e+12 -6.18668e+12 -7.53025e+12 -4.98271e+12 -4.47316e+12 -1.00317e+13 -4.51802e+12 -4.72707e+12 -3.41948e+12 -3.61034e+12 -3.24758e+12 -3.11501e+12 -3.43119e+12 -6.1816e+12 -7.83011e+12 -7.44436e+12 -5.29701e+12 -9.37194e+12 -5.75954e+12 -6.33982e+12 -4.6775e+12 -6.81729e+12 -3.02015e+12 -5.66616e+12 -7.47177e+12 -4.93753e+12 -4.12857e+12 -4.503e+12 -7.61783e+12 -9.75635e+12 -6.73851e+12 -9.41911e+12 -6.32381e+12 -5.8606e+12 -7.97894e+12 -4.82787e+12 -6.64692e+12 -9.45664e+12 -3.96009e+12 -6.0003e+12 -4.04844e+12 -3.12847e+12 -1.00897e+13 -2.52584e+12 -4.8171e+12 -4.66574e+12 -4.36984e+12 -5.33371e+12 -3.65683e+12 -3.2484e+12 -4.09547e+12 -2.94583e+12 -3.37932e+12 -5.40548e+12 -5.10998e+12 -3.70667e+12 -3.19092e+12 -5.21705e+12 -4.01264e+12 -4.05121e+12 -3.28893e+12 -2.07193e+12 -5.55224e+12 -4.33326e+12 -2.53962e+12 -3.31723e+12 -4.48374e+12 -5.12362e+12 -5.49924e+12 -4.11487e+12 -4.7758e+12 -4.93673e+12 -3.91125e+12 -9.55308e+12 -7.83809e+12 -4.57427e+12 -4.90071e+12 -5.96116e+12 -1.15583e+13 -4.52011e+12 -6.6765e+12 -8.49718e+12 -1.53775e+13 -9.72043e+12 -5.55046e+12 -5.19901e+12 -5.08173e+12 -8.77547e+12 -7.95526e+12 -1.12857e+13 -5.52466e+12 -1.06016e+13 -6.70065e+12 -4.81447e+12 -7.88433e+12 -5.77691e+12 -6.08972e+12 -6.74711e+12 -3.00964e+12 -4.62428e+12 -4.25665e+12 -6.85729e+12 -3.72298e+12 -4.38868e+12 -4.5607e+12 -2.65001e+12 -6.35976e+12 -8.31984e+12 -7.97514e+12 -9.86219e+12 -5.26985e+12 -4.94516e+12 -6.08372e+12 -5.74193e+12 -7.56211e+12 -9.95487e+12 -7.5398e+12 -1.09202e+13 -4.28717e+12 -5.51557e+12 -3.38077e+12 -4.0582e+12 -3.41454e+12 -5.55774e+12 -3.68967e+12 -3.87826e+12 -6.97629e+12 -7.16874e+12 -6.59334e+12 -4.84613e+12 -5.45982e+12 -3.63267e+12 -5.68947e+12 -4.33532e+12 -5.39581e+12 -3.38195e+12 -3.34262e+12 -3.45282e+12 -5.64363e+12 -6.08688e+12 -2.94445e+12 -3.82307e+12 -5.61224e+12 -6.66825e+12 -7.20026e+12 -7.49207e+12 -4.5201e+12 -3.54408e+12 -2.60056e+12 -4.70945e+12 -5.52755e+12 -4.86142e+12 -5.17149e+12 -8.45765e+12 -2.29946e+12 -6.75203e+12 -2.54415e+12 -5.4033e+12 -1.09624e+13 -8.64844e+12 -9.65241e+12 -6.563e+12 -8.03074e+12 -4.287e+12 -5.93899e+12 -6.92475e+12 -4.38078e+12 -4.23038e+12 -8.4996e+12 -9.04777e+12 -8.56712e+12 -4.85823e+12 -1.01145e+13 -6.11408e+12 -9.13398e+12 -1.02124e+13 -5.75708e+12 -9.7203e+12 -5.9743e+12 -6.284e+12 -5.62424e+12 -7.59769e+12 -6.36295e+12 -5.19746e+12 -5.17416e+12 -8.47981e+12 -5.75766e+12 -5.54446e+12 -7.68553e+12 -6.06014e+12 -6.13258e+12 -4.6599e+12 -4.66532e+12 -7.21603e+12 -7.00926e+12 -9.00191e+12 -6.94757e+12 -7.10374e+12 -7.29522e+12 -6.36827e+12 -4.10764e+12 -3.83513e+12 -4.11735e+12 -9.90278e+12 -4.19945e+12 -6.80473e+12 -6.4679e+12 -9.27503e+12 -7.85115e+12 -3.59789e+12 -4.67535e+12 -5.04752e+12 -5.6311e+12 -8.00064e+12 -5.8588e+12 -5.57005e+12 -4.02928e+12 -4.38241e+12 -4.98377e+12 -2.0556e+12 -4.95867e+12 -3.80216e+12 -4.13658e+12 -3.31831e+12 -3.09422e+12 -4.31366e+12 -3.87812e+12 -3.91663e+12 -5.19439e+12 -3.49472e+12 -3.94463e+12 -4.93996e+12 -3.46193e+12 -4.68315e+12 -4.3739e+12 -5.25228e+12 -2.44916e+12 -5.84758e+12 -5.0888e+12 -3.32769e+12 -5.26417e+12 -2.57792e+12 -3.83422e+12 -1.62131e+12 -3.60999e+12 -7.14386e+12 -5.10641e+12 -4.87893e+12 -4.81314e+12 -5.33972e+12 -5.06521e+12 -5.45474e+12 -5.98781e+12 -4.7157e+12 -4.55122e+12 -5.89235e+12 -5.80975e+12 -6.00257e+12 -7.22743e+12 -6.00428e+12 -4.46764e+12 -4.79804e+12 -4.48727e+12 -4.70538e+12 -6.2194e+12 -4.56237e+12 -8.76354e+12 -6.21287e+12 -8.27753e+12 -4.61892e+12 -5.39282e+12 -3.39464e+12 -4.64547e+12 -2.41529e+12 -6.78013e+12 -5.35973e+12 -9.32833e+12 -9.37209e+12 -7.70258e+12 -7.78475e+12 -8.17719e+12 -1.02889e+13 -3.34299e+12 -3.48554e+12 -4.9049e+12 -6.26683e+12 -7.37607e+12 -9.32162e+12 -1.01243e+13 -3.60814e+12 -8.78054e+12 -9.47787e+12 -1.08546e+13 -1.19434e+13 -7.87902e+12 -9.7751e+12 -7.04846e+12 -4.76254e+12 -4.6437e+12 -7.18047e+12 -6.80311e+12 -6.35255e+12 -5.27369e+12 -8.36578e+12 -6.80055e+12 -6.14171e+12 -5.66497e+12 -5.14987e+12 -4.59286e+12 -3.96654e+12 -5.05541e+12 -3.88845e+12 -5.60871e+12 -7.6588e+12 -5.67173e+12 -5.671e+12 -5.11664e+12 -7.06628e+12 -4.44611e+12 -4.73827e+12 -3.51296e+12 -3.89556e+12 -1.83988e+12 -4.08107e+12 -4.04402e+12 -3.63713e+12 -2.92655e+12 -1.87393e+12 -3.8507e+12 -4.59488e+12 -2.14757e+12 -2.84064e+12 -2.30292e+12 -3.87997e+12 -4.5388e+12 -5.53229e+12 -4.25128e+12 -4.1563e+12 -1.53579e+12 -6.23555e+12 -3.26928e+12 -3.86593e+12 -4.47306e+12 -2.3974e+12 -3.34776e+12 -3.0929e+12 -2.50326e+12 -4.0986e+12 -3.03551e+12 -6.7675e+12 -7.21373e+12 -5.48694e+12 -4.44113e+12 -3.57829e+12 -6.68155e+12 -6.61329e+12 -6.67619e+12 -8.55464e+12 -4.50955e+12 -4.68237e+12 -6.62043e+12 -7.26556e+12 -3.18256e+12 -5.89232e+12 -4.65666e+12 -5.86719e+12 -5.03222e+12 -6.44437e+12 -5.46027e+12 -8.40801e+12 -6.37509e+12 -6.2518e+12 -7.54865e+12 -6.90615e+12 -1.28224e+13 -5.48629e+12 -8.2789e+12 -7.24668e+12 -8.93728e+12 -7.73664e+12 -3.45986e+12 -6.36238e+12 -2.74575e+12 -4.2746e+12 -5.55004e+12 -4.58008e+12 -7.60232e+12 -1.03594e+13 -1.18414e+13 -7.25834e+12 -8.46204e+12 -6.10305e+12 -7.80829e+12 -9.58515e+12 -5.54829e+12 -3.28222e+12 -5.69145e+12 -1.21285e+13 -5.44245e+12 -7.54304e+12 -5.70524e+12 -4.01732e+12 -7.49695e+12 -8.43387e+12 -4.7821e+12 -5.07852e+12 -6.89688e+12 -6.384e+12 -5.889e+12 -5.34941e+12 -5.43734e+12 -5.82921e+12 -6.32197e+12 -4.90861e+12 -4.47394e+12 -3.98677e+12 -7.24806e+12 -4.77805e+12 -5.03938e+12 -6.57299e+12 -5.30645e+12 -5.32721e+12 -3.86543e+12 -2.4031e+12 -3.76174e+12 -3.13877e+12 -2.17977e+12 -4.87478e+12 -2.39863e+12 -2.79038e+12 -3.24404e+12 -5.0887e+12 -5.22392e+12 -6.0815e+12 -2.28076e+12 -3.00661e+12 -3.4304e+12 -4.36342e+12 -4.18532e+12 -730485000000.0 -5.26191e+12 -5.10325e+12 -3.19394e+12 -5.91945e+12 -5.8502e+12 -2.78928e+12 -2.80379e+12 -3.34863e+12 -4.97629e+12 -4.09752e+12 -5.29109e+12 -3.19351e+12 -3.76465e+12 -8.25967e+12 -5.03898e+12 -5.04641e+12 -6.74828e+12 -4.96023e+12 -4.30845e+12 -6.12993e+12 -6.22573e+12 -5.2593e+12 -6.6784e+12 -8.45858e+12 -4.45934e+12 -5.53621e+12 -6.54035e+12 -5.30015e+12 -8.07056e+12 -4.77831e+12 -1.09503e+13 -1.31326e+13 -7.39663e+12 -4.19661e+12 -1.05536e+13 -7.90707e+12 -7.47462e+12 -7.78631e+12 -7.26644e+12 -1.17419e+13 -1.01833e+13 -9.59211e+12 -7.67932e+12 -7.52014e+12 -2.27262e+12 -4.89023e+12 -5.20446e+12 -7.98731e+12 -3.44341e+12 -6.64944e+12 -8.02142e+12 -5.28339e+12 -5.78379e+12 -7.33232e+12 -5.95876e+12 -8.61576e+12 -8.50057e+12 -4.92579e+12 -5.66093e+12 -7.99981e+12 -9.77461e+12 -9.5364e+12 -8.45309e+12 -4.74719e+12 -4.92766e+12 -7.0153e+12 -8.49616e+12 -9.81162e+12 -5.8322e+12 -6.05299e+12 -7.45581e+12 -6.13013e+12 -6.65823e+12 -3.9163e+12 -4.42814e+12 -6.29777e+12 -6.36881e+12 -9.80006e+12 -4.23496e+12 -3.55773e+12 -5.91418e+12 -3.47455e+12 -2.54536e+12 -4.23089e+12 -2.96274e+12 -5.73273e+12 -1.67786e+12 -6.10987e+12 -5.49394e+12 -2.45318e+12 -2.72881e+12 -4.21632e+12 -5.0433e+12 -4.87469e+12 -3.06665e+12 -3.07705e+12 -5.6335e+12 -3.17265e+12 -4.0643e+12 -3.1779e+12 -5.19153e+12 -5.97763e+12 -3.28467e+12 -3.61313e+12 -3.7856e+12 -6.99565e+12 -3.64083e+12 -4.07161e+12 -3.18964e+12 -4.63851e+12 -4.5296e+12 -4.72889e+12 -1.8636e+12 -3.56911e+12 -6.64997e+12 -3.80751e+12 -4.10916e+12 -7.68613e+12 -3.42602e+12 -7.81871e+12 -4.52386e+12 -7.71983e+12 -5.00194e+12 -9.74468e+12 -4.27192e+12 -8.17792e+12 -6.13888e+12 -7.7969e+12 -8.00482e+12 -6.18265e+12 -6.33662e+12 -6.70214e+12 -9.00461e+12 -7.40831e+12 -1.11103e+13 -8.35697e+12 -6.84261e+12 -5.63464e+12 -9.39612e+12 -7.11574e+12 -6.5183e+12 -8.74688e+12 -5.64831e+12 -4.77865e+12 -4.3367e+12 -4.46906e+12 -4.09016e+12 -9.93884e+12 -7.17714e+12 -9.7001e+12 -8.95018e+12 -7.93913e+12 -6.35798e+12 -4.61294e+12 -4.64972e+12 -8.12422e+12 -6.62278e+12 -6.99603e+12 -1.18609e+13 -7.10297e+12 -8.82754e+12 -6.90054e+12 -4.63746e+12 -5.53008e+12 -4.41354e+12 -8.34254e+12 -6.76799e+12 -1.06117e+13 -4.31457e+12 -6.3812e+12 -7.42224e+12 -7.4567e+12 -4.42617e+12 -6.30806e+12 -4.80044e+12 -4.69227e+12 -5.90986e+12 -3.78943e+12 -4.99517e+12 -4.35489e+12 -5.63307e+12 -3.90279e+12 -6.16122e+12 -5.2948e+12 -4.89653e+12 -5.99251e+12 -2.42524e+12 -9.48452e+12 -2.96071e+12 -4.1606e+12 -6.63914e+12 -2.11239e+12 -6.66591e+12 -3.40883e+12 -2.4272e+12 -4.71994e+12 -5.0072e+12 -1.95012e+12 -3.57907e+12 -2.82288e+12 -3.63358e+12 -2.84637e+12 -3.36384e+12 -3.30534e+12 -1.15037e+12 -2.71919e+12 -3.73231e+12 -3.03986e+12 -5.82597e+12 -4.18285e+12 -6.50983e+12 -4.80968e+12 -4.04872e+12 -4.26576e+12 -4.15862e+12 -5.75103e+12 -2.39791e+12 -3.13688e+12 -4.73404e+12 -5.95194e+12 -5.11346e+12 -5.03512e+12 -3.57212e+12 -4.7696e+12 -3.7166e+12 -4.05778e+12 -4.01192e+12 -4.34508e+12 -5.69019e+12 -7.5316e+12 -5.38923e+12 -4.5746e+12 -4.33013e+12 -4.41632e+12 -5.24406e+12 -7.42075e+12 -6.94953e+12 -7.04413e+12 -4.77669e+12 -4.76258e+12 -6.66233e+12 -7.39886e+12 -6.29065e+12 -8.38021e+12 -8.03586e+12 -6.96868e+12 -1.05411e+13 -1.01606e+13 -6.05351e+12 -1.00558e+13 -4.35819e+12 -1.07861e+13 -3.45836e+12 -4.62144e+12 -4.86037e+12 -1.25186e+13 -5.36677e+12 -6.42905e+12 -7.74757e+12 -8.77083e+12 -9.64847e+12 -2.7225e+12 -3.81465e+12 -6.69691e+12 -1.03646e+13 -6.24044e+12 -9.24514e+12 -6.49507e+12 -3.86457e+12 -6.1659e+12 -9.08318e+12 -1.11102e+13 -6.47307e+12 -4.97477e+12 -4.63166e+12 -8.72465e+12 -6.04617e+12 -2.11384e+12 -7.41432e+12 -8.1024e+12 -5.57282e+12 -6.03816e+12 -8.00271e+12 -8.3717e+12 -6.73256e+12 -5.2128e+12 -8.08262e+12 -6.08341e+12 -5.76955e+12 -1.97815e+12 -5.07448e+12 -3.16151e+12 -5.6728e+12 -3.77804e+12 -6.77073e+12 -3.20674e+12 -4.16867e+12 -4.73447e+12 -5.0127e+12 -4.43985e+12 -2.20832e+12 -3.07611e+12 -4.23215e+12 -5.82309e+12 -3.20837e+12 -4.06751e+12 -4.04416e+12 -3.91911e+12 -3.98172e+12 -2.5738e+12 -3.34867e+12 -1.92954e+12 -4.76069e+12 -3.37579e+12 -2.50084e+12 -3.33944e+12 -5.56115e+12 -3.09737e+12 -3.2777e+12 -3.82228e+12 -3.88578e+12 -4.6199e+12 -3.7183e+12 -2.14936e+12 -2.89955e+12 -3.16416e+12 -3.38012e+12 -6.73552e+12 -1.3933e+12 -3.41141e+12 -1.44018e+12 -4.3766e+12 -3.45526e+12 -5.07217e+12 -5.04366e+12 -3.99611e+12 -4.08425e+12 -6.77496e+12 -8.58433e+12 -4.27776e+12 -5.79542e+12 -3.29157e+12 -3.673e+12 -3.72912e+12 -6.37891e+12 -4.91157e+12 -7.35075e+12 -7.61501e+12 -6.43295e+12 -8.42317e+12 -8.37011e+12 -4.27867e+12 -7.13806e+12 -5.87333e+12 -1.23796e+13 -7.12505e+12 -8.68552e+12 -8.66277e+12 -7.80557e+12 -4.06868e+12 -1.0184e+13 -5.14218e+12 -8.08331e+12 -9.5479e+12 -6.49653e+12 -7.10543e+12 -7.00764e+12 -7.00347e+12 -6.90656e+12 -4.81911e+12 -7.56468e+12 -7.73828e+12 -7.9535e+12 -4.97355e+12 -5.65159e+12 -8.07796e+12 -1.02364e+13 -8.80613e+12 -4.26998e+12 -9.70085e+12 -5.05575e+12 -1.05067e+13 -6.01604e+12 -7.61216e+12 -7.04411e+12 -7.77967e+12 -5.41172e+12 -4.56728e+12 -1.02108e+13 -3.65336e+12 -4.54453e+12 -3.67115e+12 -4.8905e+12 -7.34148e+12 -4.3075e+12 -6.98991e+12 -6.5968e+12 -4.19744e+12 -6.9493e+12 -1.7391e+12 -7.44436e+12 -4.80076e+12 -5.30092e+12 -5.35328e+12 -6.41268e+12 -5.92985e+12 -4.84686e+12 -4.16281e+12 -5.78056e+12 -4.65762e+12 -3.17882e+12 -4.99118e+12 -3.81987e+12 -3.87504e+12 -3.39966e+12 -6.80484e+12 -6.24815e+12 -3.93189e+12 -2.90056e+12 -3.49131e+12 -3.01419e+12 -3.91644e+12 -4.93697e+12 -4.37501e+12 -3.21453e+12 -2.26145e+12 -3.39195e+12 -2.71906e+12 -1.20484e+12 -4.19843e+12 -3.46541e+12 -5.73629e+12 -2.21951e+12 -3.50765e+12 -3.32289e+12 -2.60507e+12 -2.14042e+12 -3.30826e+12 -3.53492e+12 -4.87019e+12 -4.76879e+12 -2.50487e+12 -2.41927e+12 -2.59541e+12 -4.7721e+12 -4.49317e+12 -5.22714e+12 -3.85878e+12 -4.7417e+12 -2.7066e+12 -3.65203e+12 -5.18135e+12 -6.78315e+12 -2.18526e+12 -6.96943e+12 -4.23108e+12 -2.82862e+12 -5.36542e+12 -5.41418e+12 -6.49748e+12 -5.85779e+12 -7.32376e+12 -2.08261e+12 -4.73907e+12 -4.20236e+12 -6.57e+12 -6.34458e+12 -6.74632e+12 -2.88478e+12 -4.90184e+12 -6.03305e+12 -6.81021e+12 -3.44454e+12 -3.11959e+12 -6.35123e+12 -7.32453e+12 -7.27277e+12 -5.83925e+12 -2.67317e+12 -6.12845e+12 -6.72159e+12 -3.14662e+12 -3.09646e+12 -5.41374e+12 -3.78559e+12 -4.97431e+12 -8.78646e+12 -6.92639e+12 -6.24767e+12 -7.49869e+12 -6.53839e+12 -7.37112e+12 -5.79798e+12 -7.13735e+12 -8.31568e+12 -4.34915e+12 -7.86122e+12 -7.20759e+12 -3.66361e+12 -6.80512e+12 -6.65826e+12 -7.30673e+12 -8.595e+12 -8.61058e+12 -9.29264e+12 -8.03669e+12 -7.30748e+12 -7.24703e+12 -7.71173e+12 -7.14593e+12 -4.72365e+12 -6.32195e+12 -7.02397e+12 -4.63814e+12 -4.9012e+12 -8.99564e+12 -5.41613e+12 -3.23164e+12 -4.36359e+12 -3.39036e+12 -6.36619e+12 -5.9501e+12 -3.41282e+12 -8.09971e+12 -3.36981e+12 -3.26079e+12 -3.8138e+12 -3.27288e+12 -6.40423e+12 -5.07721e+12 -5.61556e+12 -2.12676e+12 -3.16121e+12 -5.14258e+12 -3.73238e+12 -3.78175e+12 -3.27784e+12 -5.73577e+12 -2.688e+12 -4.42575e+12 -3.86529e+12 -2.45872e+12 -5.49426e+12 -982065000000.0 -2.37052e+12 -5.09918e+12 -4.16388e+12 -3.80812e+12 -5.35612e+12 -3.566e+12 -3.62002e+12 -3.58328e+12 -3.47401e+12 -3.3637e+12 -3.58113e+12 -2.26795e+12 -4.35317e+12 -6.28162e+12 -1.93809e+12 -2.16116e+12 -3.83164e+12 -5.06691e+12 -4.3446e+12 -3.49258e+12 -4.78991e+12 -3.9547e+12 -3.86993e+12 -4.03029e+12 -2.42732e+12 -5.54914e+12 -4.52444e+12 -5.13565e+12 -4.17007e+12 -7.07029e+12 -4.06487e+12 -2.62179e+12 -3.77071e+12 -5.52451e+12 -3.02491e+12 -5.18849e+12 -5.99979e+12 -3.00978e+12 -3.6886e+12 -5.66796e+12 -5.113e+12 -5.16925e+12 -2.3335e+12 -5.75736e+12 -2.85416e+12 -4.78424e+12 -4.39376e+12 -7.47843e+12 -6.38662e+12 -5.45967e+12 -9.70427e+12 -4.87863e+12 -9.89572e+12 -9.20668e+12 -5.99155e+12 -4.43618e+12 -9.24024e+12 -6.90644e+12 -8.23346e+12 -5.36993e+12 -7.36567e+12 -6.71788e+12 -6.40516e+12 -6.42951e+12 -4.75465e+12 -4.89504e+12 -4.21937e+12 -7.18193e+12 -8.58933e+12 -4.11439e+12 -4.82388e+12 -2.28599e+12 -6.27296e+12 -4.74123e+12 -5.75094e+12 -2.05542e+12 -9.56596e+12 -4.33665e+12 -5.50893e+12 -5.38223e+12 -8.15234e+12 -1.121e+13 -8.90657e+12 -2.38693e+12 -6.37807e+12 -5.17833e+12 -6.1351e+12 -8.25865e+12 -3.67761e+12 -4.12773e+12 -4.72305e+12 -6.09236e+12 -6.88923e+12 -3.81225e+12 -7.20827e+12 -6.15833e+12 -4.8577e+12 -6.06886e+12 -5.09764e+12 -5.61587e+12 -6.70718e+12 -3.65031e+12 -4.82129e+12 -5.20425e+12 -5.90199e+12 -8.22046e+12 -2.89097e+12 -7.18891e+12 -4.24169e+12 -5.30749e+12 -4.89996e+12 -4.11668e+12 -1.61128e+12 -3.44363e+12 -6.05996e+12 -4.32378e+12 -3.77107e+12 -3.34938e+12 -2.70874e+12 -5.21882e+12 -2.8709e+12 -2.89454e+12 -3.61351e+12 -3.78851e+12 -3.21899e+12 -4.5532e+12 -2.32341e+12 -2.0264e+12 -1.45703e+12 -3.68941e+12 -1.63218e+12 -4.20637e+12 -2.97653e+12 -3.18247e+12 -3.19571e+12 -2.10601e+12 -1.97813e+12 -4.05865e+12 -3.41306e+12 -1.45486e+12 -2.7499e+12 -1.88101e+12 -4.15793e+12 -2.75292e+12 -3.08154e+12 -2.31566e+12 -5.05484e+12 -3.4525e+12 -5.13987e+12 -3.19945e+12 -3.37083e+12 -2.16135e+12 -4.99478e+12 -3.14251e+12 -2.76526e+12 -3.23447e+12 -2.86607e+12 -1.48436e+12 -3.1096e+12 -4.4835e+12 -4.67829e+12 -3.64182e+12 -5.87459e+12 -4.71711e+12 -3.29464e+12 -3.10028e+12 -4.99461e+12 -4.9761e+12 -4.00775e+12 -5.63099e+12 -4.53056e+12 -3.5978e+12 -5.22662e+12 -1.49399e+12 -1.36223e+12 -7.18382e+12 -2.33258e+12 -6.50068e+12 -4.9128e+12 -8.16037e+12 -3.39076e+12 -5.78576e+12 -8.68907e+12 -6.46988e+12 -7.89067e+12 -5.80978e+12 -6.91238e+12 -7.22628e+12 -7.24966e+12 -9.02108e+12 -1.01274e+13 -7.51883e+12 -9.11832e+12 -5.86405e+12 -6.66535e+12 -8.41178e+12 -7.78122e+12 -7.33701e+12 -4.92221e+12 -4.75186e+12 -5.70902e+12 -4.83823e+12 -4.80992e+12 -5.16531e+12 -3.95525e+12 -6.50115e+12 -3.50836e+12 -5.3519e+12 -8.9544e+12 -5.58836e+12 -5.84423e+12 -6.17751e+12 -9.90113e+12 -7.4226e+12 -8.01811e+12 -3.6394e+12 -7.72168e+12 -5.05423e+12 -1.23723e+13 -1.10141e+13 -7.35482e+12 -5.28136e+12 -3.97102e+12 -5.80133e+12 -4.96661e+12 -3.67441e+12 -9.23296e+12 -8.04872e+12 -5.52933e+12 -4.36166e+12 -4.78321e+12 -5.82686e+12 -4.98988e+12 -6.59638e+12 -4.14079e+12 -6.32097e+12 -6.03419e+12 -4.19517e+12 -4.94889e+12 -5.26909e+12 -3.46956e+12 -3.87958e+12 -2.82642e+12 -3.67735e+12 -3.87991e+12 -2.88335e+12 -2.76219e+12 -3.97727e+12 -4.17569e+12 -3.89234e+12 -3.5881e+12 -3.58156e+12 -3.41987e+12 -4.45039e+12 -8.91778e+12 -4.18475e+12 -4.54673e+12 -4.44615e+12 -4.19078e+12 -3.03675e+12 -4.65391e+12 -2.33709e+12 -4.33951e+12 -1.50778e+12 -1.66239e+12 -1.71987e+12 -2.89793e+12 -839212000000.0 -2.67371e+12 -4.03559e+12 -2.86694e+12 -2.58989e+12 -4.28388e+12 -2.6117e+12 -2.20882e+12 -2.20428e+12 -1.1792e+12 -2.93845e+12 -3.59778e+12 -5.40101e+12 -3.21855e+12 -1.81291e+12 -2.18444e+12 -1.9592e+12 -4.14712e+12 -4.29644e+12 -1.4461e+12 -958568000000.0 -3.81127e+12 -4.00078e+12 -2.59536e+12 -5.81093e+12 -7.55262e+12 -3.54608e+12 -3.38579e+12 -3.25097e+12 -1.87811e+12 -4.82923e+12 -6.75099e+12 -4.78399e+12 -3.83449e+12 -3.29503e+12 -2.66782e+12 -5.07457e+12 -4.87089e+12 -7.62766e+12 -5.46647e+12 -5.22389e+12 -6.14825e+12 -6.54101e+12 -4.55689e+12 -2.76457e+12 -8.86341e+12 -6.661e+12 -5.97814e+12 -2.39664e+12 -1.74057e+12 -9.95799e+12 -1.01371e+13 -5.87554e+12 -6.3844e+12 -4.01297e+12 -1.04429e+13 -5.55573e+12 -6.88977e+12 -6.26689e+12 -7.57848e+12 -8.607e+12 -5.67863e+12 -4.9772e+12 -6.49575e+12 -7.21242e+12 -4.37857e+12 -5.39968e+12 -4.98353e+12 -7.82373e+12 -6.48569e+12 -4.82836e+12 -9.04832e+12 -4.77631e+12 -4.82304e+12 -5.57374e+12 -3.36049e+12 -3.97706e+12 -3.3338e+12 -8.98534e+12 -7.44527e+12 -5.27908e+12 -4.0813e+12 -2.38668e+12 -4.61703e+12 -7.77948e+12 -1.11495e+13 -6.16421e+12 -1.63606e+13 -5.86471e+12 -4.84359e+12 -7.7135e+12 -8.45666e+12 -6.60555e+12 -7.23885e+12 -8.05066e+12 -7.81049e+12 -5.59958e+12 -6.03183e+12 -4.27884e+12 -5.40968e+12 -2.95148e+12 -4.2658e+12 -3.19623e+12 -1.24524e+12 -4.05237e+12 -8.14056e+12 -4.74093e+12 -5.33561e+12 -4.60107e+12 -1.93154e+12 -5.31727e+12 -3.94366e+12 -2.70623e+12 -4.95925e+12 -5.18914e+12 -3.95668e+12 -4.1405e+12 -6.99236e+12 -5.49217e+12 -5.49247e+12 -2.08655e+12 -2.99586e+12 -3.11123e+12 -4.43461e+12 -5.06781e+12 -3.49656e+12 -3.17775e+12 -3.43391e+12 -2.69086e+12 -5.47925e+12 -3.43846e+12 -5.00355e+12 -3.80012e+12 -4.30444e+12 -2.74056e+12 -2.98567e+12 -2.48362e+12 -2.42008e+12 -2.04252e+12 -2.26923e+12 -3.37518e+12 -4.20202e+12 -3.10291e+12 -3.05315e+12 -3.91492e+12 -3.28252e+12 -3.53256e+12 -3.68269e+12 -4.24865e+12 -2.89488e+12 -3.32003e+12 -4.14233e+12 -2.22465e+12 -2.65494e+12 -3.62892e+12 -1.12483e+12 -2.2243e+12 -3.98242e+12 -3.44412e+12 -2.37532e+12 -2.23998e+12 -5.00361e+12 -4.58258e+12 -3.27355e+12 -4.92289e+12 -5.95547e+12 -4.10317e+12 -1.72615e+12 -4.78595e+12 -7.2325e+12 -6.04083e+12 -4.20421e+12 -3.15065e+12 -4.98089e+12 -8.56237e+12 -4.97321e+12 -6.5841e+12 -8.23114e+12 -5.49577e+12 -3.71581e+12 -5.22591e+12 -5.84222e+12 -4.85537e+12 -7.78655e+12 -3.40911e+12 -3.70132e+12 -5.15083e+12 -4.19004e+12 -5.24159e+12 -7.7509e+12 -6.23948e+12 -6.80891e+12 -4.09381e+12 -8.41976e+12 -5.42641e+12 -6.75185e+12 -6.31207e+12 -4.54306e+12 -8.42852e+12 -2.5674e+12 -4.60201e+12 -4.71826e+12 -9.21682e+12 -6.89708e+12 -3.7594e+12 -3.1884e+12 -3.51921e+12 -4.05781e+12 -4.60388e+12 -5.38194e+12 -6.68619e+12 -8.57916e+12 -6.73293e+12 -5.09314e+12 -6.95062e+12 -7.06743e+12 -7.07587e+12 -4.81209e+12 -1.14785e+13 -1.00342e+13 -4.78109e+12 -5.70754e+12 -8.48496e+12 -4.60478e+12 -7.72165e+12 -5.88516e+12 -4.47144e+12 -5.54834e+12 -6.6833e+12 -6.39355e+12 -7.72839e+12 -5.02712e+12 -6.61119e+12 -7.94293e+12 -2.72721e+12 -4.86386e+12 -2.47038e+12 -4.52732e+12 -4.10372e+12 -2.52237e+12 -4.52987e+12 -5.31081e+12 -3.21752e+12 -2.8646e+12 -4.08058e+12 -3.9968e+12 -6.49713e+12 -4.70124e+12 -5.11019e+12 -3.5621e+12 -2.14083e+12 -2.49932e+12 -3.98519e+12 -3.06382e+12 -3.76266e+12 -3.29881e+12 -1.63854e+12 -3.67717e+12 -2.74494e+12 -3.42552e+12 -1.66073e+12 -4.00641e+12 -4.02897e+12 -4.21824e+12 -2.91114e+12 -2.12569e+12 -1.19787e+12 -2.29776e+12 -3.12536e+12 -2.60842e+12 -2.80949e+12 -2.3603e+12 -2.34003e+12 -1.87095e+12 -2.3963e+12 -2.06433e+12 -2.31831e+12 -2.39489e+12 -1.73778e+12 -4.14325e+12 -4.12291e+12 -1.46345e+12 -2.74453e+12 -2.29305e+12 -1.89027e+12 -1.66361e+12 -3.06508e+12 -2.07868e+12 -5.56359e+12 -4.02088e+12 -3.93624e+12 -3.21579e+12 -6.23909e+12 -2.98133e+12 -2.75556e+12 -6.28105e+12 -3.82339e+12 -5.79197e+12 -3.74367e+12 -4.90017e+12 -4.86816e+12 -5.93085e+12 -6.46329e+12 -4.19237e+12 -2.52731e+12 -4.38542e+12 -5.8676e+12 -3.95611e+12 -2.06064e+12 -3.6462e+12 -3.41524e+12 -4.75886e+12 -5.23734e+12 -7.60784e+12 -3.27823e+12 -4.27575e+12 -4.74485e+12 -4.29335e+12 -5.35896e+12 -4.34762e+12 -6.69473e+12 -7.35236e+12 -7.01365e+12 -7.19706e+12 -3.75669e+12 -5.54352e+12 -6.44457e+12 -1.04118e+13 -6.2323e+12 -8.22937e+12 -5.25488e+12 -4.56005e+12 -5.96336e+12 -5.59555e+12 -8.04823e+12 -9.22289e+12 -9.72336e+12 -6.36778e+12 -6.85938e+12 -5.75541e+12 -7.13973e+12 -6.22365e+12 -4.28032e+12 -6.99389e+12 -6.32897e+12 -3.12918e+12 -4.57686e+12 -5.95079e+12 -6.84859e+12 -3.1256e+12 -4.32937e+12 -3.88025e+12 -5.87885e+12 -3.09361e+12 -6.64397e+12 -8.71078e+12 -6.39442e+12 -5.37698e+12 -3.46957e+12 -6.31803e+12 -5.4768e+12 -4.53943e+12 -4.24653e+12 -3.30236e+12 -6.99292e+12 -4.58813e+12 -5.3982e+12 -2.83904e+12 -4.16921e+12 -5.90917e+12 -6.42535e+12 -5.27566e+12 -5.40308e+12 -4.43693e+12 -6.03988e+12 -3.24371e+12 -8.55003e+12 -5.09074e+12 -4.11878e+12 -3.52476e+12 -3.21736e+12 -6.9365e+12 -5.31502e+12 -2.9496e+12 -5.80742e+12 -3.27738e+12 -5.00819e+12 -3.73118e+12 -2.13259e+12 -3.01823e+12 -2.88094e+12 -6.36717e+12 -4.68005e+12 -6.14544e+12 -3.41203e+12 -3.21593e+12 -2.26542e+12 -2.34726e+12 -2.5888e+12 -3.51007e+12 -2.81065e+12 -1.90002e+12 -3.13052e+12 -1.77042e+12 -3.54204e+12 -1.09864e+12 -2.40456e+12 -2.34951e+12 -2.96874e+12 -1.65193e+12 -430168000000.0 -2.07548e+12 -2.54504e+12 -1.70767e+12 -1.24096e+12 -2.07298e+12 -1.81385e+12 -2.22478e+12 -4.37908e+12 -2.51039e+12 -1.30482e+12 -2.2973e+12 -2.69891e+12 -2.58839e+12 -1.65442e+12 -1.53884e+12 -3.5299e+12 -2.98039e+12 -2.32211e+12 -3.29454e+12 -3.11581e+12 -2.34689e+12 -3.36446e+12 -2.93187e+12 -2.87432e+12 -3.37479e+12 -4.26791e+12 -2.47446e+12 -3.48557e+12 -3.95856e+12 -5.24633e+12 -5.52206e+12 -5.08244e+12 -6.50491e+12 -5.11463e+12 -6.70108e+12 -3.87354e+12 -2.76206e+12 -3.72762e+12 -5.93671e+12 -6.62656e+12 -4.96403e+12 -2.26053e+12 -7.53101e+12 -3.65834e+12 -6.47979e+12 -2.8361e+12 -4.13386e+12 -6.58579e+12 -5.27824e+12 -4.27559e+12 -4.69123e+12 -4.08643e+12 -3.92798e+12 -4.2272e+12 -4.63964e+12 -7.36237e+12 -8.68696e+12 -5.81206e+12 -6.02895e+12 -5.45372e+12 -7.73561e+12 -4.68275e+12 -4.63859e+12 -7.90156e+12 -4.98732e+12 -4.5816e+12 -2.81848e+12 -1.90485e+12 -2.82197e+12 -4.58967e+12 -6.66017e+12 -5.07839e+12 -5.63667e+12 -5.78025e+12 -4.91739e+12 -5.72365e+12 -3.60504e+12 -4.90897e+12 -4.4476e+12 -3.14365e+12 -7.46554e+12 -5.20746e+12 -6.91447e+12 -6.99461e+12 -3.43166e+12 -3.53037e+12 -5.08657e+12 -5.47483e+12 -5.76112e+12 -3.96267e+12 -4.80922e+12 -4.16877e+12 -3.5679e+12 -5.26174e+12 -4.23035e+12 -4.35843e+12 -3.37714e+12 -2.29141e+12 -6.93743e+12 -4.05136e+12 -3.37266e+12 -4.71318e+12 -3.84724e+12 -4.58852e+12 -7.2364e+12 -7.32912e+12 -4.87531e+12 -3.63914e+12 -3.97935e+12 -4.40867e+12 -5.53106e+12 -5.43905e+12 -4.93885e+12 -4.2622e+12 -3.86957e+12 -3.22223e+12 -5.35863e+12 -2.9708e+12 -4.48996e+12 -3.0711e+12 -2.43058e+12 -1.95625e+12 -2.78926e+12 -4.14239e+12 -1.60105e+12 -1.7665e+12 -3.93608e+12 -3.59695e+12 -2.58491e+12 -2.57343e+12 -1.81183e+12 -2.25367e+12 -2.55104e+12 -2.66009e+12 -2.48473e+12 -2.25956e+12 -897002000000.0 -1.58075e+12 -1.44206e+12 -2.26591e+12 -2.53384e+12 -1.11405e+12 -3.14162e+12 -1.70126e+12 -1.76884e+12 -1.09282e+12 -2.02187e+12 -1.45056e+12 -1.73451e+12 -2.19272e+12 -1.87187e+12 -1.68491e+12 -1.5027e+12 -3.46886e+12 -2.05082e+12 -2.35823e+12 -2.29326e+12 -2.31938e+12 -3.89216e+12 -3.06692e+12 -3.47262e+12 -1.71394e+12 -3.69184e+12 -2.46224e+12 -3.67039e+12 -5.83771e+12 -5.8552e+12 -4.75119e+12 -1.80025e+12 -3.06511e+12 -3.69693e+12 -3.81369e+12 -5.28026e+12 -7.95999e+12 -2.02663e+12 -3.54387e+12 -5.93554e+12 -2.90667e+12 -4.24343e+12 -6.66782e+12 -3.48189e+12 -5.47154e+12 -8.36615e+12 -4.57996e+12 -2.91951e+12 -5.93048e+12 -1.05056e+13 -5.38697e+12 -8.26538e+12 -7.99357e+12 -5.5665e+12 -6.09523e+12 -4.46568e+12 -3.26525e+12 -7.52648e+12 -4.11908e+12 -5.76157e+12 -9.2607e+12 -6.06019e+12 -1.0692e+13 -8.29749e+12 -4.12792e+12 -6.84571e+12 -6.63074e+12 -5.51671e+12 -1.102e+13 -5.33574e+12 -5.64122e+12 -5.44068e+12 -4.49575e+12 -7.25628e+12 -4.77164e+12 -3.97996e+12 -4.75187e+12 -7.27607e+12 -6.11743e+12 -4.84848e+12 -4.9529e+12 -7.20114e+12 -7.35106e+12 -5.59119e+12 -5.39501e+12 -6.74451e+12 -3.84894e+12 -5.55286e+12 -6.4668e+12 -4.07711e+12 -4.66182e+12 -2.63449e+12 -3.7074e+12 -3.66829e+12 -4.93728e+12 -3.48243e+12 -2.98899e+12 -4.76678e+12 -3.16958e+12 -5.53238e+12 -4.03666e+12 -4.48807e+12 -5.28961e+12 -3.55354e+12 -4.64811e+12 -2.06327e+12 -1.72019e+12 -1.44769e+12 -2.93462e+12 -4.8521e+12 -5.2512e+12 -3.57869e+12 -2.55408e+12 -3.73519e+12 -3.04025e+12 -3.05355e+12 -5.28581e+12 -3.05382e+12 -2.92556e+12 -2.86165e+12 -2.80614e+12 -3.67565e+12 -3.60922e+12 -1.83872e+12 -4.06796e+12 -3.01918e+12 -1.92957e+12 -1.81322e+12 -2.72278e+12 -2.10057e+12 -1.30661e+12 -1.15896e+12 -3.17767e+12 -2.45779e+12 -2.6422e+12 -2.47867e+12 -3.47167e+12 -1.43615e+12 -3.02837e+12 -1.40019e+12 -1.76756e+12 -2.03876e+12 -1.0596e+12 -2.19901e+12 -826350000000.0 -1.58885e+12 -1.91941e+12 -2.2786e+12 -1.65137e+12 -2.80965e+12 -3.41281e+12 -1.91457e+12 -1.13825e+12 -1.59813e+12 -2.12621e+12 -2.68518e+12 -1.93502e+12 -1.09951e+12 -1.44705e+12 -1.63566e+12 -2.35408e+12 -1.00331e+12 -3.19572e+12 -2.18198e+12 -1.55566e+12 -3.39698e+12 -2.76147e+12 -3.01137e+12 -4.07487e+12 -2.03871e+12 -1.85507e+12 -3.15884e+12 -2.78797e+12 -3.03935e+12 -2.83628e+12 -4.32198e+12 -4.38486e+12 -2.33829e+12 -2.19853e+12 -4.67275e+12 -3.00089e+12 -2.10319e+12 -3.4019e+12 -6.21582e+12 -6.39082e+12 -6.6356e+12 -5.50496e+12 -5.08232e+12 -5.81842e+12 -5.07521e+12 -5.83231e+12 -3.3643e+12 -6.05664e+12 -6.18545e+12 -4.82379e+12 -1.67994e+12 -4.18653e+12 -3.78505e+12 -3.25803e+12 -4.2715e+12 -4.35754e+12 -5.04576e+12 -8.65679e+12 -5.71285e+12 -6.66692e+12 -3.90048e+12 -7.9956e+12 -7.28677e+12 -7.05665e+12 -8.12302e+12 -5.66373e+12 -5.0907e+12 -2.83254e+12 -3.93926e+12 -2.25702e+12 -4.26392e+12 -3.05249e+12 -4.22771e+12 -3.1813e+12 -3.09879e+12 -8.53383e+12 -4.9279e+12 -3.79502e+12 -7.03493e+12 -5.34765e+12 -4.21868e+12 -7.42811e+12 -5.92095e+12 -4.52668e+12 -6.80878e+12 -4.40886e+12 -5.27436e+12 -5.19184e+12 -5.43691e+12 -4.54947e+12 -3.12394e+12 -4.5462e+12 -2.4279e+12 -5.22626e+12 -6.57744e+12 -3.59029e+12 -5.92144e+12 -3.77397e+12 -4.92111e+12 -4.01698e+12 -2.91313e+12 -2.5572e+12 -3.30242e+12 -2.82307e+12 -2.30669e+12 -1.61774e+12 -2.43656e+12 -4.99101e+12 -2.93347e+12 -2.13677e+12 -1.3681e+12 -2.72929e+12 -3.72966e+12 -11622000000.0 -4.17073e+12 -2.9345e+12 -1.17549e+12 -3.06477e+12 -2.37345e+12 -1.38915e+12 -2.46883e+12 -1.72365e+12 -1.00292e+12 -2.2199e+12 -1.87244e+12 -1.70201e+12 -2.05897e+12 -3.10513e+12 -2.51361e+12 -724341000000.0 -3.24922e+12 -1.83689e+12 -1.3577e+12 -1.26929e+12 -1.91582e+12 -1.90289e+12 -2.08604e+12 -422780000000.0 -1.11372e+12 -1.80985e+12 -407885000000.0 -1.51441e+12 -2.67165e+12 -2.02102e+12 -1.76747e+12 -3.61638e+12 -1.39551e+12 -1.17808e+12 -1.64969e+12 -1.39758e+12 -2.74315e+12 -2.05606e+12 -2.64085e+12 -3.27351e+12 -1.2126e+12 -1.40731e+12 -2.11513e+12 -2.44144e+12 -2.39507e+12 -1.18985e+12 -1.94983e+12 -1.44873e+12 -1.62883e+12 -2.9694e+12 -2.49167e+12 -1.53587e+12 -934710000000.0 -2.41319e+12 -2.4228e+12 -2.77334e+12 -2.99963e+12 -6.12004e+12 -2.61179e+12 -3.92802e+12 -3.41281e+12 -5.83663e+12 -2.16317e+12 -2.75976e+12 -2.68955e+12 -3.63675e+12 -3.48349e+12 -4.08072e+12 -6.13684e+12 -3.33774e+12 -3.75604e+12 -2.67262e+12 -2.08718e+12 -4.06935e+12 -4.42625e+12 -3.25217e+12 -4.41599e+12 -4.23322e+12 -6.41245e+12 -5.37692e+12 -7.53022e+12 -7.24253e+12 -2.77506e+12 -5.08921e+12 -3.58765e+12 -1.13859e+13 -5.97185e+12 -8.18897e+12 -4.13713e+12 -4.31041e+12 -5.90444e+12 -5.93947e+12 -4.54041e+12 -9.07249e+12 -3.80433e+12 -6.87434e+12 -3.8144e+12 -2.41007e+12 -3.84526e+12 -4.02782e+12 -7.82455e+12 -3.17514e+12 -4.31633e+12 -4.14525e+12 -3.36127e+12 -5.41892e+12 -4.94706e+12 -6.95411e+12 -4.40308e+12 -4.30092e+12 -5.257e+12 -3.94704e+12 -3.19781e+12 -3.58001e+12 -5.0736e+12 -3.67227e+12 -4.89058e+12 -3.2632e+12 -6.67549e+12 -4.68072e+12 -4.4717e+12 -4.52696e+12 -3.59931e+12 -6.95458e+12 -5.10365e+12 -4.7321e+12 -4.73812e+12 -3.25529e+12 -1.72472e+12 -2.15305e+12 -3.52689e+12 -4.4192e+12 -3.80187e+12 -2.2006e+12 -3.63572e+12 -3.53286e+12 -1.44655e+12 -1.01234e+12 -1.78462e+12 -1.86717e+12 -3.73944e+12 -2.60781e+12 -2.92441e+12 -1.78083e+12 -917077000000.0 -3.07835e+12 -1.51048e+12 -794987000000.0 -1.51214e+12 -1.67735e+12 -1.68857e+12 -1.72371e+12 -2.98324e+12 -2.78837e+12 -1.10436e+12 -982396000000.0 -1.18433e+12 -1.46161e+12 -1.80759e+12 -1.15315e+12 -2.00265e+12 -2.33775e+12 -784005000000.0 -1.38748e+12 -1.52453e+12 -1.43867e+12 -1.81392e+12 -1.45426e+12 -2.32332e+12 -1.92277e+12 -1.2847e+12 -1.73486e+12 -967859000000.0 -1.34126e+12 -1.91636e+12 -692374000000.0 -1.59656e+12 -1.87799e+12 -1.88373e+12 -2.0466e+12 -2.53955e+12 -4.15856e+12 -2.39432e+12 -2.94033e+12 -3.49106e+12 -1.95612e+12 -3.95208e+12 -1.93244e+12 -4.50391e+12 -1.8048e+12 -2.49884e+12 -2.98243e+12 -3.46732e+12 -2.13004e+12 -3.5467e+12 -2.25794e+12 -2.69313e+12 -3.70479e+12 -5.18513e+12 -4.96387e+12 -4.78914e+12 -3.08133e+12 -5.29286e+12 -4.2666e+12 -3.69136e+12 -6.22864e+12 -5.46072e+12 -3.45215e+12 -4.4655e+12 -6.68009e+12 -6.96723e+12 -5.95436e+12 -4.47653e+12 -4.90629e+12 -2.43366e+12 -8.84046e+12 -4.34923e+12 -3.18445e+12 -3.5479e+12 -2.25325e+12 -5.91105e+12 -7.87006e+12 -4.10929e+12 -4.66905e+12 -6.55911e+12 -3.39694e+12 -5.92343e+12 -3.98054e+12 -2.02252e+12 -5.42324e+12 -2.12794e+12 -2.72328e+12 -3.27677e+12 -4.66238e+12 -3.4198e+12 -4.10413e+12 -4.30396e+12 -4.46123e+12 -6.66965e+12 -2.60757e+12 -4.42631e+12 -6.86756e+12 -4.81071e+12 -3.00905e+12 -3.93347e+12 -4.5519e+12 -3.19019e+12 -3.24836e+12 -4.24885e+12 -3.13161e+12 -3.62351e+12 -3.44381e+12 -2.55871e+12 -3.65418e+12 -4.26541e+12 -5.91219e+12 -2.27091e+12 -6.66909e+12 -3.44495e+12 -1.70822e+12 -5.04993e+12 -4.65568e+12 -5.3942e+12 -3.33973e+12 -2.61994e+12 -3.34468e+12 -3.01713e+12 -573223000000.0 -2.14233e+12 -3.09914e+12 -2.20402e+12 -2.14985e+12 -1.91207e+12 -2.4981e+12 -1.72329e+12 -3.29805e+12 -2.53609e+12 -3.08689e+12 -1.19494e+12 -2.47392e+12 -688440000000.0 -1.71002e+12 -1.09796e+12 -1.81466e+12 -2.68571e+12 -2.08657e+12 -1.58761e+12 -1.27684e+12 -1.60846e+12 -875926000000.0 -1.20444e+12 -523036000000.0 -1.62338e+12 -1.4e+12 -2.27473e+12 -1.56251e+12 -1.38742e+12 -1.2591e+12 -2.33138e+12 -1.13984e+12 -1.54144e+12 -2.44398e+12 -1.93582e+12 -726818000000.0 -2.89214e+12 -602757000000.0 -2.73499e+12 -2.04119e+12 -2.50422e+12 -2.64353e+12 -1.76383e+12 -1.0918e+12 -3.14309e+12 -2.47731e+12 -1.51337e+12 -1.019e+12 -1.50339e+12 -4.49198e+12 -5.92104e+12 -1.44555e+12 -2.36557e+12 -3.61176e+12 -2.68205e+12 -2.72188e+12 -1.88256e+12 -2.36881e+12 -4.26356e+12 -1.96436e+12 -2.39545e+12 -2.44123e+12 -3.34917e+12 -3.0418e+12 -3.36174e+12 -4.12798e+12 -2.54263e+12 -4.83484e+12 -2.45879e+12 -3.12569e+12 -2.43332e+12 -4.11679e+12 -4.3225e+12 -4.04077e+12 -4.18931e+12 -3.70669e+12 -4.43724e+12 -3.92312e+12 -4.36161e+12 -3.46042e+12 -5.37163e+12 -6.5974e+12 -5.40638e+12 -4.79631e+12 -5.0687e+12 -2.90022e+12 -4.61599e+12 -5.65876e+12 -5.94106e+12 -3.76432e+12 -5.13896e+12 -6.14885e+12 -2.878e+12 -4.16073e+12 -896626000000.0 -5.23833e+12 -3.9935e+12 -4.8712e+12 -4.1742e+12 -4.69254e+12 -3.04394e+12 -2.63733e+12 -2.10305e+12 -5.89922e+12 -2.91825e+12 -3.33886e+12 -4.27647e+12 -1.49465e+12 -2.27001e+12 -3.12238e+12 -4.57116e+12 -3.37566e+12 -2.87354e+12 -1.52908e+12 -2.70977e+12 -3.73105e+12 -1.04082e+12 -2.28682e+12 -2.90726e+12 -3.39003e+12 -1.93154e+12 -6.4428e+12 -2.50542e+12 -3.20954e+12 -2.0903e+12 -2.17279e+12 -1.49605e+12 -2.81538e+12 -3.12695e+12 -2.1467e+12 -2.3677e+12 -2.854e+12 -3.26353e+12 -2.3613e+12 -1.8482e+12 -1.33731e+12 -1.37123e+12 -3.44881e+12 -3.49911e+12 -1.70262e+12 -147901000000.0 -592834000000.0 -2.11746e+12 -1.94187e+12 -913433000000.0 -696351000000.0 -779917000000.0 -2.021e+12 -497440000000.0 -872736000000.0 -315786000000.0 -1.39889e+12 -725967000000.0 -861255000000.0 -630160000000.0 -1.70973e+12 -1.74098e+12 -1.4221e+12 -1.48937e+12 -1.3741e+12 -431733000000.0 -2.15034e+12 -948612000000.0 -293212000000.0 -434237000000.0 -207865000000.0 -1.37113e+12 -539957000000.0 -961026000000.0 -905827000000.0 -1.36417e+12 -903537000000.0 -1.03945e+12 -1.421e+12 -1.81373e+12 -910788000000.0 -742348000000.0 -2.12485e+12 -2.09644e+12 -1.83831e+12 -2.26975e+12 -2.52768e+12 -1.84716e+12 -2.47132e+12 -2.04934e+12 -4.07579e+12 -1.54397e+12 -1.51404e+12 -1.85224e+12 -2.10179e+12 -2.86971e+12 -3.18028e+12 -929957000000.0 -2.78184e+12 -2.70805e+12 -2.15324e+12 -4.01068e+12 -4.31742e+12 -2.87475e+12 -3.06324e+12 -2.71641e+12 -2.1174e+12 -3.77023e+12 -2.73552e+12 -4.05238e+12 -3.47861e+12 -4.13859e+12 -4.46173e+12 -4.19095e+12 -3.30153e+12 -4.33403e+12 -3.22733e+12 -2.48281e+12 -3.06482e+12 -2.66798e+12 -3.10886e+12 -3.95116e+12 -3.66106e+12 -4.1443e+12 -5.21862e+12 -1.87313e+12 -4.34171e+12 -2.92667e+12 -2.15809e+12 -2.61327e+12 -5.24852e+12 -6.96178e+12 -3.34743e+12 -2.99887e+12 -2.83836e+12 -4.00465e+12 -3.45962e+12 -2.56744e+12 -2.63466e+12 -3.35817e+12 -5.09156e+12 -2.92778e+12 -3.18275e+12 -2.6373e+12 -4.10793e+12 -3.01396e+12 -2.88485e+12 -2.96764e+12 -2.45254e+12 -1.13167e+12 -3.32031e+12 -1.76413e+12 -1.23695e+12 -1.71307e+12 -1.89076e+12 -2.79373e+12 -3.14471e+12 -3.34317e+12 -3.63917e+12 -4.19731e+12 -2.91272e+12 -1.23127e+12 -1.83757e+12 -3.43565e+12 -2.78796e+12 -1.48333e+12 -1.7391e+12 -2.04481e+12 -3.56389e+12 -2.51052e+12 -1.85326e+12 -1.36485e+12 -1.5374e+12 -2.54825e+12 -920191000000.0 -1.44758e+12 -1.00666e+12 -1.83079e+12 -1.40548e+12 -854951000000.0 -1.64887e+12 -1.36803e+12 -1.82509e+12 -1.50917e+12 -902463000000.0 -1.11364e+12 -1.6294e+12 -1.48738e+12 -1.22771e+12 -1.37286e+12 -1.27447e+12 -697193000000.0 -636374000000.0 -1.27439e+12 -1.16956e+12 -1.29425e+12 -940176000000.0 -1.13751e+12 -970343000000.0 -1.15431e+12 -1.53674e+12 -938602000000.0 -687625000000.0 -1.13052e+12 -1.47095e+12 -1.70388e+12 -1.26414e+12 -1.8759e+12 -2.02986e+12 -991830000000.0 -1.4909e+12 -757669000000.0 -2.91844e+12 -4.19906e+12 -2.6507e+12 -2.37178e+12 -3.11959e+12 -1.91296e+12 -2.55947e+12 -1.50066e+12 -3.48374e+12 -3.31903e+12 -3.65219e+12 -4.39437e+12 -2.37373e+12 -2.65059e+12 -3.69964e+12 -2.98498e+12 -1.96437e+12 -2.43382e+12 -4.80378e+12 -3.51305e+12 -2.9213e+12 -3.9467e+12 -581700000000.0 -4.63163e+12 -3.59858e+12 -1.80922e+12 -1.11795e+12 -1.80458e+12 -4.44189e+12 -3.24324e+12 -3.1635e+12 -3.75516e+12 -4.03756e+12 -4.05975e+12 -3.12068e+12 -2.27976e+12 -1.99325e+12 -5.44459e+12 -2.48872e+12 -3.44338e+12 -2.37766e+12 -3.6779e+12 -3.143e+12 -1.94326e+12 -2.64066e+12 -2.53245e+12 -3.22086e+12 -2.37484e+12 -2.14843e+12 -4.97642e+12 -3.66814e+12 -4.26261e+12 -3.83531e+12 -2.47852e+12 -3.09363e+12 -3.0531e+12 -2.65373e+12 -3.04874e+12 -4.05058e+12 -2.56322e+12 -2.46608e+12 -2.16488e+12 -1.09192e+12 -3.45755e+12 -1.08482e+12 -2.16642e+12 -3.21495e+12 -3.66003e+12 -2.10435e+12 -5.23284e+12 -1.61467e+12 -2.3259e+12 -2.47838e+12 -2.64671e+12 -3.38991e+12 -2.53017e+12 -2.55148e+12 -3.72302e+12 -1.38639e+12 -948576000000.0 -1.80671e+12 -2.8473e+12 -1.37486e+12 -1.51495e+12 -621201000000.0 -1.44435e+12 -2.50623e+12 -1.65249e+12 -1.64874e+12 -1.00364e+12 -1.80848e+12 -986283000000.0 -1.37807e+12 -1.83038e+12 -1.65913e+12 -952804000000.0 -1.09689e+12 -527673000000.0 -1.05216e+12 -1.02221e+12 -1.91238e+12 -911859000000.0 -1.01981e+12 -864710000000.0 -321305000000.0 -694507000000.0 -1.59541e+12 -808554000000.0 -1.14388e+12 -1.1109e+12 -680373000000.0 -1.00544e+12 -985994000000.0 -1.15009e+12 -906967000000.0 -857565000000.0 -1.62566e+12 -1.30899e+12 -1.64991e+12 -1.56265e+12 -1.17096e+12 -1.23683e+12 -810692000000.0 -1.07381e+12 -2.14523e+12 -1.24345e+12 -2.07358e+12 -2.11526e+12 -2.31172e+12 -3.03015e+12 -1.37163e+12 -2.78075e+12 -1.53984e+12 -2.95444e+12 -2.83455e+12 -1.32531e+12 -1.24881e+12 -1.54474e+12 -2.99865e+12 -1.85112e+12 -3.71116e+12 -3.20177e+12 -3.57299e+12 -1.43395e+12 -3.65188e+12 -2.41634e+12 -2.33737e+12 -2.70264e+12 -3.36964e+12 -3.87096e+12 -4.26155e+12 -3.99771e+12 -4.51376e+12 -4.68301e+12 -3.47039e+12 -3.97212e+12 -2.84312e+12 -2.4122e+12 -5.56037e+12 -4.68039e+12 -3.694e+12 -3.97961e+12 -3.67697e+12 -5.74756e+12 -2.17806e+12 -4.77617e+12 -3.96794e+12 -3.94819e+12 -4.36736e+12 -4.47261e+12 -1.36709e+12 -2.98933e+12 -4.02851e+12 -1.87021e+12 -2.472e+12 -2.93306e+12 -4.39994e+12 -5.60865e+12 -2.65213e+12 -2.95471e+12 -1.45509e+12 -2.60503e+12 -3.6584e+12 -4.06558e+12 -2.46847e+12 -2.55894e+12 -3.20962e+12 -5.04458e+12 -2.29647e+12 -2.13232e+12 -2.62053e+12 -1.21079e+12 -2.56261e+12 -2.73724e+12 -2.32774e+12 -2.02826e+12 -2.32953e+12 -3.79729e+12 -2.54783e+12 -1.91057e+12 -2.97345e+12 -1.97902e+12 -2.44574e+12 -3.66307e+12 -1.5266e+12 -1.01677e+12 -730477000000.0 -1.3199e+12 -1.94263e+12 -1.39648e+12 -872142000000.0 -1.41208e+12 -1.73484e+12 -1.28631e+12 -1.40098e+12 -1.24629e+12 -1.0177e+12 -507779000000.0 -600395000000.0 -450595000000.0 -678334000000.0 -98134500000.0 -831835000000.0 -781721000000.0 -771789000000.0 -785504000000.0 -607735000000.0 -1.073e+12 -1.62019e+12 -652620000000.0 -616773000000.0 -476207000000.0 -358677000000.0 -677713000000.0 -13369000000.0 -430752000000.0 -746239000000.0 -703061000000.0 -1.21449e+12 -685783000000.0 -1.51875e+12 -775657000000.0 -1.54034e+12 -1.49294e+12 -1.16486e+12 -858875000000.0 -1.02434e+12 -738145000000.0 -472807000000.0 -1.19078e+12 -1.28832e+12 -2.39358e+12 -1.86047e+12 -3.30701e+12 -1.80831e+12 -2.71806e+12 -2.35689e+12 -1.92938e+12 -2.601e+12 -4.78702e+12 -2.52245e+12 -2.7699e+12 -581717000000.0 -1.6369e+12 -3.56736e+12 -2.07499e+12 -2.85089e+12 -2.22683e+12 -2.71598e+12 -2.53751e+12 -2.43985e+12 -3.76536e+12 -3.08761e+12 -2.97803e+12 -2.06812e+12 -3.17622e+12 -3.16574e+12 -2.49981e+12 -2.72922e+12 -3.73718e+12 -3.01624e+12 -2.99927e+12 -2.04012e+12 -2.60542e+12 -4.81072e+12 -3.59908e+12 -997228000000.0 -3.0051e+12 -2.59374e+12 -2.14347e+12 -3.43416e+12 -3.75449e+12 -2.87539e+12 -2.8573e+12 -2.58374e+12 -2.37594e+12 -1.64116e+12 -2.91142e+12 -1.60302e+12 -2.93355e+12 -489077000000.0 -1.74916e+12 -2.9694e+12 -2.06262e+12 -1.67017e+12 -3.06962e+12 -2.23281e+12 -3.14275e+12 -2.23897e+12 -1.88659e+12 -1.02529e+12 -2.43959e+12 -1.38594e+12 -2.95565e+12 -2.39013e+12 -2.04703e+12 -2.50332e+12 -582611000000.0 -1.73427e+12 -976301000000.0 -773834000000.0 -1.2524e+12 -2.2914e+12 -1.72909e+12 -652106000000.0 -714572000000.0 -1.26269e+12 -1.21839e+12 -1.08296e+12 -1.05068e+12 -563537000000.0 -1.08983e+12 -511752000000.0 -403516000000.0 -1.00044e+12 -659597000000.0 -701293000000.0 -1.15141e+12 -833103000000.0 -1.16074e+12 -785320000000.0 -794153000000.0 -371765000000.0 -37656900000.0 -495697000000.0 -800827000000.0 -614450000000.0 -400775000000.0 -1.18854e+12 -838986000000.0 -473685000000.0 -486871000000.0 -182228000000.0 -1.22826e+12 -1.09685e+12 -1.50725e+12 -2.16801e+12 -1.35333e+12 -2.23132e+12 -1.5141e+12 -2.53864e+12 -1.45367e+12 -3.8459e+12 -2.92243e+12 -2.04428e+12 -1.79885e+12 -1.94453e+12 -1.30113e+12 -1.32455e+12 -1.99392e+12 -3.13849e+12 -773863000000.0 -1.9929e+12 -2.23028e+12 -3.16823e+12 -2.17642e+12 -1.75397e+12 -3.04392e+12 -1.71225e+12 -3.18012e+12 -2.2531e+12 -870860000000.0 -1.88861e+12 -2.48238e+12 -3.76798e+12 -2.32021e+12 -2.87047e+12 -1.4769e+12 -2.63245e+12 -2.92776e+12 -3.49489e+12 -3.17406e+12 -3.65062e+12 -3.79818e+12 -4.82267e+12 -1.44129e+12 -1.34722e+12 -4.1232e+12 -2.18321e+12 -2.01442e+12 -1.60373e+12 -3.26999e+12 -2.59161e+12 -1.21783e+12 -1.79815e+12 -4.09422e+12 -1.1209e+12 -2.84212e+12 -2.01069e+12 -1.16634e+12 -268143000000.0 -3.0179e+12 -1.97151e+12 -1.49759e+12 -2.27464e+12 -1.63772e+12 -1.94592e+12 -1.7949e+12 -2.25077e+12 -1.77779e+12 -2.12565e+12 -2.01808e+12 -2.25844e+12 -1.8141e+12 -1.85248e+12 -693084000000.0 -2.21962e+12 -1.5388e+12 -522039000000.0 -1.65494e+12 -1.08857e+12 -498249000000.0 -775694000000.0 -756763000000.0 -482746000000.0 -1.41901e+12 -1.41342e+12 -1.47059e+12 -979222000000.0 -1.31083e+12 -722597000000.0 -1.44846e+12 -1.05969e+12 -22942600000.0 -641199000000.0 -710909000000.0 -74138600000.0 -260966000000.0 -721771000000.0 -1.05675e+12 -337643000000.0 -442476000000.0 -690669000000.0 -311813000000.0 -458742000000.0 -484155000000.0 -795168000000.0 -723896000000.0 -936713000000.0 -746559000000.0 -930070000000.0 -958996000000.0 -704382000000.0 -185548000000.0 -1.04674e+12 -533981000000.0 -647170000000.0 -393529000000.0 -492455000000.0 -779949000000.0 -1.33856e+12 -1.68886e+12 -675578000000.0 -1.02773e+12 -161634000000.0 -1.15865e+12 -822313000000.0 -1.48869e+12 -1.45331e+12 -830108000000.0 -1.28815e+12 -2.28211e+12 -485603000000.0 -2.24408e+12 -2.3756e+12 -1.68605e+12 -1.46359e+12 -2.06829e+12 -1.21018e+12 -1.84531e+12 -2.53579e+12 -2.60259e+12 -997107000000.0 -1.90902e+12 -2.17378e+12 -1.58307e+12 -3.05087e+12 -1.59875e+12 -490066000000.0 -4.03063e+12 -1.26193e+12 -2.08706e+12 -1.91297e+12 -1.94108e+12 -2.47911e+12 -2.14694e+12 -1.34354e+12 -634434000000.0 -2.13094e+12 -3.46189e+12 -2.29695e+12 -2.40389e+12 -2.20638e+12 -1.00066e+12 -1.45599e+12 -3.2008e+12 -3.20504e+12 -3.04678e+12 -1.9272e+12 -892156000000.0 -2.53636e+12 -2.22373e+12 -1.96127e+12 -1.92812e+12 -2.05904e+12 -1.46007e+12 -1.04321e+12 -1.88427e+12 -1.25118e+12 -1.86515e+12 -2.01629e+12 -2.78765e+12 -1.7121e+12 -1.18172e+12 -1.98835e+12 -3.01998e+12 -2.30477e+12 -1.80071e+12 -2.04465e+12 -1.90738e+12 -1.27997e+12 -741577000000.0 -2.138e+12 -1.30675e+12 -1.36313e+12 -355299000000.0 -881224000000.0 -184030000000.0 -748229000000.0 -266376000000.0 -287750000000.0 -585440000000.0 -1.21104e+12 -391861000000.0 -287589000000.0 -267975000000.0 -324791000000.0 -355400000000.0 -315128000000.0 -294945000000.0 -293767000000.0 -260708000000.0 -415672000000.0 -537614000000.0 -570486000000.0 -153483000000.0 -257350000000.0 -481019000000.0 -351573000000.0 -148776000000.0 -424069000000.0 -582612000000.0 -908647000000.0 -296481000000.0 -314026000000.0 -742276000000.0 -848534000000.0 -438554000000.0 -1.01092e+12 -482683000000.0 -666450000000.0 -643199000000.0 -751462000000.0 -278716000000.0 -277521000000.0 -1.92883e+12 -747399000000.0 -16590400000.0 -1.21679e+12 -1.86858e+12 -374566000000.0 -1.81992e+12 -824519000000.0 -2.67281e+12 -1.28156e+12 -854693000000.0 -1.95921e+12 -1.76121e+12 -451250000000.0 -1.68473e+12 -1.21403e+12 -2.85182e+12 -1.69198e+12 -1.83491e+12 -1.11602e+12 -1.66366e+12 -2.34853e+12 -3.02732e+12 -2.20761e+12 -2.10593e+12 -2.27705e+12 -1.89187e+12 -2.49678e+12 -2.56207e+12 -1.32682e+12 -2.87551e+12 -2.23506e+12 -1.5015e+12 -1.84229e+12 -1.55063e+12 -3.83618e+12 -2.13829e+12 -1.55455e+12 -1.91661e+12 -1.26761e+12 -786519000000.0 -657246000000.0 -2.27573e+12 -2.20474e+12 -759772000000.0 -2.49109e+12 -2.80276e+12 -3.80343e+12 -1.61864e+12 -1.217e+12 -1.61747e+12 -1.15288e+12 -1.82382e+12 -1.11919e+12 -667611000000.0 -733672000000.0 -1.22799e+12 -2.84518e+12 -548364000000.0 -1.64638e+12 -1.34978e+12 -2.42935e+12 -1.27068e+12 -743472000000.0 -502749000000.0 -252081000000.0 -1.08875e+12 -565869000000.0 -1.54911e+12 -1.38128e+12 -1.07995e+12 -590598000000.0 -1.29853e+12 -691607000000.0 -1.34479e+12 -993718000000.0 -625523000000.0 -571539000000.0 -950390000000.0 -328196000000.0 -257392000000.0 -481104000000.0 -370003000000.0 -487568000000.0 -399333000000.0 -327337000000.0 -308410000000.0 -232553000000.0 -405483000000.0 -698709000000.0 -174294000000.0 -398493000000.0 -318832000000.0 -423150000000.0 -460100000000.0 -228220000000.0 -742083000000.0 -565613000000.0 -162139000000.0 -930048000000.0 -911564000000.0 -106502000000.0 -121655000000.0 -448554000000.0 -322022000000.0 -297748000000.0 -443881000000.0 -1.22097e+12 -521221000000.0 -1.15967e+12 -1.00287e+12 -1.16657e+12 -1.35742e+12 -835633000000.0 -1.18454e+12 -1.30888e+12 -595368000000.0 -594275000000.0 -652451000000.0 -800939000000.0 -667768000000.0 -540075000000.0 -1.18885e+12 -616147000000.0 -1.03901e+12 -1.28858e+12 -1.33855e+12 -1.28182e+12 -1.2637e+12 -416943000000.0 -1.69283e+12 -1.5213e+12 -2.46019e+12 -1.46846e+12 -2.27116e+12 -1.79328e+12 -1.89383e+12 -2.39991e+12 -2.26819e+12 -2.83642e+12 -1.62863e+12 -2.29189e+12 -1.69688e+12 -1.08075e+12 -1.91175e+12 -1.53608e+12 -2.65777e+12 -1.62661e+12 -2.66815e+12 -3.06871e+12 -2.19449e+12 -1.85651e+12 -1.48118e+12 -462685000000.0 -1.9185e+12 -1.38743e+12 -1.82741e+12 -1.43171e+12 -132740000000.0 -2.20231e+12 -1.26091e+12 -1.19708e+12 -1.11047e+12 -2.3754e+12 -1.09544e+12 -1.32931e+12 -838251000000.0 -888742000000.0 -2.15256e+12 -727447000000.0 -675945000000.0 -1.55513e+12 -1.59661e+12 -1.51631e+12 -849366000000.0 -1.4338e+12 -1.51245e+12 -337414000000.0 -1.34817e+12 -1.21639e+12 -932030000000.0 -1.23567e+12 -55996000000.0 -483193000000.0 -815690000000.0 -69330100000.0 -572866000000.0 -72147600000.0 -600877000000.0 -493793000000.0 -314041000000.0 -31637300000.0 -219638000000.0 -255959000000.0 -248058000000.0 -236982000000.0 -239649000000.0 -187344000000.0 -294940000000.0 -490066000000.0 -507897000000.0 -361348000000.0 -582406000000.0 -739612000000.0 -238514000000.0 -380464000000.0 -411583000000.0 -281024000000.0 -340588000000.0 -527091000000.0 -164842000000.0 -612866000000.0 -503980000000.0 -837233000000.0 -473734000000.0 -320195000000.0 -450729000000.0 -969740000000.0 -566784000000.0 -1.12638e+12 -305288000000.0 -918681000000.0 -814618000000.0 -303252000000.0 -841947000000.0 -702095000000.0 -131351000000.0 -1.23302e+12 -420179000000.0 -628398000000.0 -997564000000.0 -1.01432e+12 -1.03265e+12 -1.47663e+12 -797800000000.0 -1.66118e+12 -1.71111e+12 -2.34208e+12 -1.13288e+12 -632735000000.0 -1.34048e+12 -766381000000.0 -1.29416e+12 -2.24303e+12 -3.05275e+12 -649609000000.0 -1.53424e+12 -1.86585e+12 -1.67189e+12 -1.18579e+12 -1.38878e+12 -900055000000.0 -2.43294e+12 -1.77942e+12 -1.67926e+12 -835243000000.0 -2.09051e+12 -2.39951e+12 -1.26597e+12 -788939000000.0 -1.90649e+12 -1.36682e+12 -1.72391e+12 -815512000000.0 -2.15794e+12 -1.66755e+12 -1.48429e+12 -1.09783e+12 -1.5764e+12 -1.56378e+12 -814372000000.0 -1.93804e+12 -839311000000.0 -1.66767e+12 -1.26878e+12 -972523000000.0 -1.17813e+12 -1.23035e+12 -215739000000.0 -732756000000.0 -839315000000.0 -236607000000.0 -712354000000.0 -845191000000.0 -384601000000.0 -364873000000.0 -771882000000.0 -257136000000.0 -176164000000.0 -559232000000.0 -280890000000.0 -392045000000.0 -592823000000.0 -465622000000.0 -356959000000.0 -205702000000.0 -99972900000.0 -200839000000.0 -200347000000.0 -148580000000.0 -88199200000.0 -160087000000.0 -144515000000.0 -248739000000.0 -197128000000.0 -288757000000.0 -271132000000.0 -185041000000.0 -428497000000.0 -59926900000.0 -308109000000.0 -311052000000.0 -197010000000.0 -15101100000.0 -352787000000.0 -100156000000.0 -350933000000.0 -692370000000.0 -464200000000.0 -667050000000.0 -248003000000.0 -771807000000.0 -989874000000.0 -322223000000.0 -369899000000.0 -728989000000.0 -959243000000.0 -784701000000.0 -979500000000.0 -1.03495e+12 -497748000000.0 -1.00117e+12 -793753000000.0 -412727000000.0 -900817000000.0 -504991000000.0 -1.15645e+12 -1.56408e+12 -1.89849e+12 -1.14073e+12 -1.39813e+12 -861017000000.0 -1.41255e+12 -702056000000.0 -859863000000.0 -1.72984e+12 -1.46331e+12 -1.84194e+12 -1.28857e+12 -795389000000.0 -1.64574e+12 -1.61464e+12 -1.45556e+12 -1.7254e+12 -329646000000.0 -1.33527e+12 -2.17964e+12 -1.34067e+12 -2.7357e+12 -1.39737e+12 -1.21758e+12 -2.23433e+12 -552423000000.0 -880361000000.0 -2.0123e+12 -455294000000.0 -1.64359e+12 -742375000000.0 -1.18853e+12 -1.52028e+12 -909182000000.0 -852326000000.0 -962043000000.0 -379853000000.0 -1.2836e+12 -267395000000.0 -159729000000.0 -769645000000.0 -526399000000.0 -1.23396e+12 -590420000000.0 -717376000000.0 -962486000000.0 -417876000000.0 -620195000000.0 -280160000000.0 -388187000000.0 -841710000000.0 -479327000000.0 -909192000000.0 -614566000000.0 -742066000000.0 -533425000000.0 -403995000000.0 -181662000000.0 -99669000000.0 -424454000000.0 -125197000000.0 -489332000000.0 -474448000000.0 -361267000000.0 -277307000000.0 -138592000000.0 -393911000000.0 -14725400000.0 -91855800000.0 -139393000000.0 -109828000000.0 -147682000000.0 -212181000000.0 -177534000000.0 -207660000000.0 -118167000000.0 -140334000000.0 -55575200000.0 -61104200000.0 -388080000000.0 -377815000000.0 -413946000000.0 -236339000000.0 -196738000000.0 -426971000000.0 -216075000000.0 -323571000000.0 -253399000000.0 -410381000000.0 -800975000000.0 -156372000000.0 -308440000000.0 -367974000000.0 -645279000000.0 -626076000000.0 -773331000000.0 -1.00566e+12 -984479000000.0 -471151000000.0 -1.07116e+12 -724398000000.0 -289340000000.0 -275963000000.0 -807673000000.0 -493798000000.0 -832881000000.0 -1.50646e+12 -1.07923e+12 -431120000000.0 -819555000000.0 -1.79809e+12 -228452000000.0 -1.31449e+12 -1.22164e+12 -909680000000.0 -676212000000.0 -812952000000.0 -352070000000.0 -903099000000.0 -1.30169e+12 -320043000000.0 -805500000000.0 -1.65777e+12 -2.21121e+12 -1.69209e+12 -825833000000.0 -789630000000.0 -1.31958e+12 -480109000000.0 -931120000000.0 -1.47309e+12 -260499000000.0 -858036000000.0 -1.18322e+12 -461697000000.0 -1.09324e+12 -1.01841e+12 -729950000000.0 -1.04576e+12 -1.03444e+12 -841179000000.0 -376625000000.0 -1.02005e+12 -975308000000.0 -1.2123e+12 -199204000000.0 -671792000000.0 -790689000000.0 -799742000000.0 -921371000000.0 -823911000000.0 -312024000000.0 -289125000000.0 -275267000000.0 -846076000000.0 -660331000000.0 -707165000000.0 -537332000000.0 -748690000000.0 -89674400000.0 -318633000000.0 -97889000000.0 -358058000000.0 -375369000000.0 -265895000000.0 -372569000000.0 -261635000000.0 -246176000000.0 -316947000000.0 -335683000000.0 -132259000000.0 -152333000000.0 -122635000000.0 -286248000000.0 -86720000000.0 -150170000000.0 -140284000000.0 -201334000000.0 -257883000000.0 -145091000000.0 -245613000000.0 -191238000000.0 -232905000000.0 -208739000000.0 -226488000000.0 -358277000000.0 -355630000000.0 -111315000000.0 -90632000000.0 -159153000000.0 -380726000000.0 -168421000000.0 -79526000000.0 -115931000000.0 -207298000000.0 -102019000000.0 -211245000000.0 -430155000000.0 -67639600000.0 -21263400000.0 -535899000000.0 -379900000000.0 -96593700000.0 -392508000000.0 -552193000000.0 -844502000000.0 -660794000000.0 -306496000000.0 -626076000000.0 -807161000000.0 -766681000000.0 -714039000000.0 -457513000000.0 -1.21986e+12 -596400000000.0 -415485000000.0 -609350000000.0 -1.5281e+12 -825991000000.0 -1.86018e+12 -821789000000.0 -637004000000.0 -944800000000.0 -641139000000.0 -1.05203e+12 -1.08674e+12 -762923000000.0 -1.1886e+12 -374719000000.0 -227975000000.0 -1.27139e+12 -573696000000.0 -1.24979e+12 -1.97683e+12 -1.48918e+12 -672717000000.0 -669169000000.0 -571770000000.0 -150849000000.0 -487763000000.0 -970591000000.0 -435757000000.0 -19493300000.0 -915408000000.0 -581220000000.0 -270149000000.0 -340376000000.0 -458254000000.0 -218816000000.0 -802371000000.0 -379571000000.0 -634772000000.0 -916612000000.0 -949250000000.0 -977870000000.0 -683022000000.0 -682250000000.0 -818672000000.0 -718711000000.0 -589401000000.0 -670912000000.0 -264965000000.0 -621151000000.0 -628038000000.0 -149231000000.0 -181675000000.0 -198393000000.0 -75451500000.0 -312203000000.0 -264401000000.0 -247009000000.0 -151376000000.0 -265384000000.0 -130809000000.0 -222020000000.0 -227878000000.0 -34485200000.0 -173525000000.0 -182623000000.0 -194232000000.0 -28896000000.0 -29512800000.0 -106580000000.0 -73062300000.0 -99341900000.0 -190108000000.0 -110032000000.0 -250551000000.0 -142665000000.0 -29424200000.0 -14784400000.0 -225713000000.0 -18809100000.0 -354234000000.0 -133678000000.0 -307195000000.0 -266634000000.0 -20156200000.0 -192881000000.0 -559651000000.0 -420463000000.0 -350575000000.0 -71633100000.0 -314511000000.0 -121240000000.0 -357588000000.0 -50234400000.0 -994366000000.0 -713782000000.0 -23877900000.0 -363070000000.0 -415639000000.0 -592395000000.0 -159208000000.0 -33974200000.0 -270180000000.0 -1.00246e+12 -379101000000.0 -854077000000.0 -382815000000.0 -641213000000.0 -428277000000.0 -1.39815e+12 -605453000000.0 -618121000000.0 -521172000000.0 -430320000000.0 -382126000000.0 -830471000000.0 -730582000000.0 -393804000000.0 -282668000000.0 -887393000000.0 -958853000000.0 -783872000000.0 -153794000000.0 -1.24408e+12 -1.08601e+12 -660144000000.0 -1.09359e+12 -1.1247e+12 -825763000000.0 -503350000000.0 -519989000000.0 -349270000000.0 -653144000000.0 -456305000000.0 -487895000000.0 -635017000000.0 -440110000000.0 -394637000000.0 -615041000000.0 -385590000000.0 -821159000000.0 -659112000000.0 -761186000000.0 -734770000000.0 -261333000000.0 -461812000000.0 -187151000000.0 -566864000000.0 -214365000000.0 -446723000000.0 -322325000000.0 -376033000000.0 -305404000000.0 -380321000000.0 -469514000000.0 -406675000000.0 -279908000000.0 -194634000000.0 -47503300000.0 -478497000000.0 -129758000000.0 -80312000000.0 -117014000000.0 -112790000000.0 -89148500000.0 -214694000000.0 -120386000000.0 -230031000000.0 -21124200000.0 -210479000000.0 -231975000000.0 -94381400000.0 -140157000000.0 -36915800000.0 -139666000000.0 -50924500000.0 -54966900000.0 -56092400000.0 -108203000000.0 -52847500000.0 -67950200000.0 -34279100000.0 -83779700000.0 -47996600000.0 -99889200000.0 -88593600000.0 -139332000000.0 -117587000000.0 -129987000000.0 -192198000000.0 -227743000000.0 -189571000000.0 -31893000000.0 -352534000000.0 -441136000000.0 -252978000000.0 -159668000000.0 -123109000000.0 -220570000000.0 -156274000000.0 -275202000000.0 -122807000000.0 -232691000000.0 -135106000000.0 -741060000000.0 -368722000000.0 -341209000000.0 -99400600000.0 -177302000000.0 -788948000000.0 -898079000000.0 -920755000000.0 -252896000000.0 -1.08598e+12 -819417000000.0 -304588000000.0 -1.00731e+12 -518782000000.0 -398447000000.0 -779755000000.0 -1.09719e+12 -570992000000.0 -542384000000.0 -391476000000.0 -421238000000.0 -439373000000.0 -862481000000.0 -245624000000.0 -651561000000.0 -195909000000.0 -201923000000.0 -773628000000.0 -797366000000.0 -359001000000.0 -206721000000.0 -129196000000.0 -454772000000.0 -592214000000.0 -194100000000.0 -556789000000.0 -211879000000.0 -569008000000.0 -110754000000.0 -72168300000.0 -682579000000.0 -313827000000.0 -469566000000.0 -476427000000.0 -349551000000.0 -275041000000.0 -223293000000.0 -542896000000.0 -570893000000.0 -219855000000.0 -222170000000.0 -264070000000.0 -125530000000.0 -175998000000.0 -203381000000.0 -405020000000.0 -138531000000.0 -20780600000.0 -323819000000.0 -113359000000.0 -215034000000.0 -394089000000.0 -15896400000.0 -110163000000.0 -29730700000.0 -142808000000.0 -62743100000.0 -46472200000.0 -64081700000.0 -103538000000.0 -105951000000.0 -73745100000.0 -25305600000.0 -30857000000.0 -29959800000.0 -12549700000.0 -36710500000.0 -68857100000.0 -31092200000.0 -12549700000.0 -48869900000.0 -12549700000.0 -19928200000.0 -49563500000.0 -37514900000.0 -87448800000.0 -140075000000.0 -72949300000.0 -173755000000.0 -154446000000.0 -100629000000.0 -66346700000.0 -41248000000.0 -118224000000.0 -62028900000.0 -92911500000.0 -104945000000.0 -62485900000.0 -244496000000.0 -22410700000.0 -291768000000.0 -250304000000.0 -329557000000.0 -307370000000.0 -209655000000.0 -159154000000.0 -60583000000.0 -244042000000.0 -216801000000.0 -175293000000.0 -688737000000.0 -481573000000.0 -402055000000.0 -565291000000.0 -354461000000.0 -620611000000.0 -633611000000.0 -276556000000.0 -416310000000.0 -282501000000.0 -1.03518e+12 -380940000000.0 -385048000000.0 -564500000000.0 -409271000000.0 -752350000000.0 -583292000000.0 -314150000000.0 -455459000000.0 -363951000000.0 -504351000000.0 -427601000000.0 -395582000000.0 -238649000000.0 -178534000000.0 -454667000000.0 -543152000000.0 -244305000000.0 -668433000000.0 -260452000000.0 -123485000000.0 -290325000000.0 -303186000000.0 -198676000000.0 -360881000000.0 -267995000000.0 -161501000000.0 -262208000000.0 -184839000000.0 -534911000000.0 -188236000000.0 -297366000000.0 -98431100000.0 -220161000000.0 -119707000000.0 -101594000000.0 -138701000000.0 -177602000000.0 -274717000000.0 -17048800000.0 -78548400000.0 -19175000000.0 -59727600000.0 -261769000000.0 -139520000000.0 -12549700000.0 -96634200000.0 -20337300000.0 -26712100000.0 -43564200000.0 -115355000000.0 -37175300000.0 -12911700000.0 -13502000000.0 -47175700000.0 -13203600000.0 -12549700000.0 -13327300000.0 -15888500000.0 -51435900000.0 -36052900000.0 -39140200000.0 -38063500000.0 -38715300000.0 -61875500000.0 -53266800000.0 -39023600000.0 -35247200000.0 -38293300000.0 -92715400000.0 -66155600000.0 -39220200000.0 -39543700000.0 -89465300000.0 -50329500000.0 -88165000000.0 -71352800000.0 -95563600000.0 -125468000000.0 -106953000000.0 -121666000000.0 -183053000000.0 -89423900000.0 -337792000000.0 -57364000000.0 -53386800000.0 -240574000000.0 -392491000000.0 -238894000000.0 -272246000000.0 -419297000000.0 -54664700000.0 -223873000000.0 -177197000000.0 -333693000000.0 -201752000000.0 -183266000000.0 -263011000000.0 -140351000000.0 -118456000000.0 -459593000000.0 -499596000000.0 -167985000000.0 -455467000000.0 -426421000000.0 -34698300000.0 -228874000000.0 -473179000000.0 -150359000000.0 -383081000000.0 -289289000000.0 -109702000000.0 -198856000000.0 -330699000000.0 -19752000000.0 -190720000000.0 -323116000000.0 -293165000000.0 -102670000000.0 -259333000000.0 -191529000000.0 -165448000000.0 -115956000000.0 -94843200000.0 -229269000000.0 -252131000000.0 -215771000000.0 -134418000000.0 -207571000000.0 -65861100000.0 -192281000000.0 -88073200000.0 -98967600000.0 -186716000000.0 -173917000000.0 -195788000000.0 -146747000000.0 -194437000000.0 -118131000000.0 -89914000000.0 -89374600000.0 -44775700000.0 -13463200000.0 -179519000000.0 -56816700000.0 -17650800000.0 -33113800000.0 -65954800000.0 -22200100000.0 -13350200000.0 -26211900000.0 -24984700000.0 -13893300000.0 -78312500000.0 -18856000000.0 -27657200000.0 -33761100000.0 -12642900000.0 -17816300000.0 -17984600000.0 -15916400000.0 -13884300000.0 -32623400000.0 -74606500000.0 -30057900000.0 -20945600000.0 -55539900000.0 -31679300000.0 -43826400000.0 -36425100000.0 -32884600000.0 -16872100000.0 -31801700000.0 -59847500000.0 -17891600000.0 -35838500000.0 -68929700000.0 -81457100000.0 -93045700000.0 -88461900000.0 -42523000000.0 -135491000000.0 -57170300000.0 -109939000000.0 -115140000000.0 -147982000000.0 -189044000000.0 -150721000000.0 -265023000000.0 -147550000000.0 -137160000000.0 -75406600000.0 -145892000000.0 -71523400000.0 -193202000000.0 -140777000000.0 -194135000000.0 -206598000000.0 -253311000000.0 -53264400000.0 -341730000000.0 -152322000000.0 -379817000000.0 -206554000000.0 -286248000000.0 -290617000000.0 -604298000000.0 -200196000000.0 -314104000000.0 -385677000000.0 -88231800000.0 -63625700000.0 -36434500000.0 -102382000000.0 -110613000000.0 -37179700000.0 -74727200000.0 -55260500000.0 -65137900000.0 -36124300000.0 -71282000000.0 -50913400000.0 -88828900000.0 -100181000000.0 -80373100000.0 -66459900000.0 -66404300000.0 -19362900000.0 -31897600000.0 -37452800000.0 -40235800000.0 -25155600000.0 -47365100000.0 -24132600000.0 -30035400000.0 -13440000000.0 -21275400000.0 -58093300000.0 -73127300000.0 -74616600000.0 -52245500000.0 -54318500000.0 -30000100000.0 -21330800000.0 -26041100000.0 -14532300000.0 -23727000000.0 -34075400000.0 -18868400000.0 -17296800000.0 -19456900000.0 -30119100000.0 -25752400000.0 -17072100000.0 -14066900000.0 -18827500000.0 -30142500000.0 -22398800000.0 -26869200000.0 -31128100000.0 -21065500000.0 -15977900000.0 -47875000000.0 -68676200000.0 -54788600000.0 -49985700000.0 -39800100000.0 -32508900000.0 -56368800000.0 -63843600000.0 -47685900000.0 -49480400000.0 -64538900000.0 -32026400000.0 -44061300000.0 -50041800000.0 -22776700000.0 -24254900000.0 -21374800000.0 -36639900000.0 -52059900000.0 -46259300000.0 -47903400000.0 -40652800000.0 -98036500000.0 -88128600000.0 -89294300000.0 -41092100000.0 -105647000000.0 -89419300000.0 -84792500000.0 -70093300000.0 -62869000000.0 -37414000000.0 -58350400000.0 -48023100000.0 -92541500000.0 -125137000000.0 -108391000000.0 -43717300000.0 -65979800000.0 -40454400000.0 