# vtk DataFile Version 2.0
Time step 77
ASCII
DATASET UNSTRUCTURED_GRID
POINTS 5000 float
219713.0 182776.0 0
227671.0 182975.0 0
233114.0 181267.0 0
231762.0 184371.0 0
236721.0 183921.0 0
273398.0 182974.0 0
279427.0 181546.0 0
196451.0 188094.0 0
202313.0 186693.0 0
206150.0 189963.0 0
209165.0 185263.0 0
214808.0 186662.0 0
220229.0 188280.0 0
224665.0 186299.0 0
228623.0 187670.0 0
233502.0 188556.0 0
238771.0 188929.0 0
242478.0 184951.0 0
248933.0 186521.0 0
255238.0 185731.0 0
259767.0 187335.0 0
263851.0 185725.0 0
265311.0 189764.0 0
268879.0 186359.0 0
273930.0 187457.0 0
278470.0 187651.0 0
283756.0 185997.0 0
285759.0 189725.0 0
289486.0 185169.0 0
292672.0 189039.0 0
297343.0 187598.0 0
302771.0 187983.0 0
194398.0 193212.0 0
199576.0 191517.0 0
202542.0 190612.0 0
203437.0 194424.0 0
211184.0 190949.0 0
216093.0 191551.0 0
220668.0 194136.0 0
225079.0 190807.0 0
229595.0 192428.0 0
234109.0 193656.0 0
243906.0 190598.0 0
239548.0 194276.0 0
248708.0 192850.0 0
252467.0 190658.0 0
253339.0 194719.0 0
256535.0 190487.0 0
261353.0 191454.0 0
267729.0 194140.0 0
271625.0 190739.0 0
272543.0 194765.0 0
276244.0 192492.0 0
280346.0 194550.0 0
282286.0 190821.0 0
289004.0 190267.0 0
285963.0 193705.0 0
291953.0 193387.0 0
297177.0 193480.0 0
302782.0 193354.0 0
193614.0 198687.0 0
198465.0 196028.0 0
208710.0 195733.0 0
213944.0 195708.0 0
217817.0 199332.0 0
222451.0 198021.0 0
226106.0 196017.0 0
230889.0 196887.0 0
235840.0 197911.0 0
244790.0 196250.0 0
249717.0 197971.0 0
254517.0 199790.0 0
258175.0 195025.0 0
260177.0 199562.0 0
262849.0 195609.0 0
270777.0 197969.0 0
273558.0 199709.0 0
276926.0 197738.0 0
283340.0 198643.0 0
289296.0 198007.0 0
294135.0 197053.0 0
298240.0 198783.0 0
303047.0 198372.0 0
308559.0 197842.0 0
191155.0 202968.0 0
198727.0 201221.0 0
204708.0 200398.0 0
211697.0 201069.0 0
216742.0 204879.0 0
222882.0 202248.0 0
228203.0 200771.0 0
232589.0 200257.0 0
231656.0 204757.0 0
235992.0 202094.0 0
240581.0 199903.0 0
243971.0 204569.0 0
240966.0 204335.0 0
245898.0 201303.0 0
250679.0 202865.0 0
257453.0 202859.0 0
261908.0 204748.0 0
266004.0 200042.0 0
271039.0 201744.0 0
275065.0 203031.0 0
279357.0 201983.0 0
284095.0 205209.0 0
289335.0 202965.0 0
293442.0 200903.0 0
293162.0 205422.0 0
296843.0 203139.0 0
300462.0 203314.0 0
305802.0 204440.0 0
189354.0 210586.0 0
195102.0 205526.0 0
193408.0 210032.0 0
200764.0 206467.0 0
206455.0 206157.0 0
211782.0 206982.0 0
215754.0 209906.0 0
221386.0 207822.0 0
226873.0 205065.0 0
226192.0 208972.0 0
229924.0 208848.0 0
237045.0 207190.0 0
242801.0 208415.0 0
246954.0 205677.0 0
247227.0 209447.0 0
254546.0 205668.0 0
250494.0 207420.0 0
258283.0 208459.0 0
268275.0 206441.0 0
274142.0 207626.0 0
278725.0 207163.0 0
281200.0 209977.0 0
284022.0 210390.0 0
289142.0 206897.0 0
286842.0 209435.0 0
295082.0 209362.0 0
298784.0 207040.0 0
302510.0 208990.0 0
306046.0 210009.0 0
310163.0 208950.0 0
188049.0 215012.0 0
192778.0 214497.0 0
198053.0 212442.0 0
204201.0 211424.0 0
210562.0 212749.0 0
219231.0 211867.0 0
223586.0 213008.0 0
228651.0 212564.0 0
233353.0 211546.0 0
239061.0 213051.0 0
244830.0 213197.0 0
249554.0 212520.0 0
253769.0 210557.0 0
258381.0 213719.0 0
263228.0 210425.0 0
268076.0 211997.0 0
271508.0 210513.0 0
272273.0 214958.0 0
276969.0 211717.0 0
286451.0 212886.0 0
281830.0 214094.0 0
290774.0 210949.0 0
294633.0 214254.0 0
298650.0 211815.0 0
303451.0 213845.0 0
308416.0 213224.0 0
190184.0 218970.0 0
196422.0 218459.0 0
201222.0 216639.0 0
205798.0 216687.0 0
210917.0 219008.0 0
216207.0 215058.0 0
220861.0 217303.0 0
227350.0 218106.0 0
233446.0 216695.0 0
238450.0 218144.0 0
243230.0 217775.0 0
248061.0 216815.0 0
246194.0 220111.0 0
253091.0 215722.0 0
257088.0 219449.0 0
265126.0 215697.0 0
261026.0 217379.0 0
267835.0 219229.0 0
277427.0 216458.0 0
281249.0 219220.0 0
285446.0 217589.0 0
289995.0 215951.0 0
288830.0 220127.0 0
294199.0 219642.0 0
298896.0 216776.0 0
303850.0 219223.0 0
307960.0 217346.0 0
311568.0 217583.0 0
311015.0 220677.0 0
189338.0 222685.0 0
192848.0 221809.0 0
196912.0 223864.0 0
201249.0 221560.0 0
206001.0 220985.0 0
208589.0 223087.0 0
212748.0 224194.0 0
216692.0 220299.0 0
222454.0 222012.0 0
227095.0 223758.0 0
231095.0 221993.0 0
235138.0 221084.0 0
241217.0 222484.0 0
246346.0 223693.0 0
251446.0 221296.0 0
262372.0 221486.0 0
267794.0 224035.0 0
272187.0 220436.0 0
274807.0 224617.0 0
277082.0 220748.0 0
280074.0 224783.0 0
285040.0 222579.0 0
290880.0 224375.0 0
295711.0 224980.0 0
299440.0 222152.0 0
304673.0 225271.0 0
307624.0 221997.0 0
309748.0 225779.0 0
191123.0 226312.0 0
190950.0 230372.0 0
195504.0 228910.0 0
200119.0 226657.0 0
199735.0 230844.0 0
205041.0 225521.0 0
204005.0 230363.0 0
209068.0 225767.0 0
208375.0 228841.0 0
218170.0 225553.0 0
213548.0 229403.0 0
223634.0 227212.0 0
227691.0 229220.0 0
230797.0 226279.0 0
236285.0 225934.0 0
241444.0 227566.0 0
245833.0 227873.0 0
250450.0 226699.0 0
253175.0 230269.0 0
256996.0 225878.0 0
263158.0 226310.0 0
261583.0 229938.0 0
266696.0 229742.0 0
271365.0 227648.0 0
276530.0 229407.0 0
286645.0 227773.0 0
293706.0 229349.0 0
299922.0 228340.0 0
312987.0 230628.0 0
192062.0 234454.0 0
196580.0 233527.0 0
200371.0 234688.0 0
205163.0 235129.0 0
209568.0 232667.0 0
214869.0 234184.0 0
219421.0 230971.0 0
224559.0 231775.0 0
233133.0 230285.0 0
229172.0 233319.0 0
238104.0 230932.0 0
243495.0 232372.0 0
239510.0 234686.0 0
248733.0 231240.0 0
252090.0 234786.0 0
257607.0 232913.0 0
263397.0 233647.0 0
267729.0 234313.0 0
271809.0 232173.0 0
276359.0 234875.0 0
281820.0 229807.0 0
285778.0 232052.0 0
289439.0 231481.0 0
292513.0 233961.0 0
297277.0 233764.0 0
301897.0 233493.0 0
306687.0 230806.0 0
193817.0 239513.0 0
201453.0 239193.0 0
206833.0 240255.0 0
210593.0 236888.0 0
214362.0 237796.0 0
217296.0 239507.0 0
219637.0 235907.0 0
221776.0 240158.0 0
225009.0 236452.0 0
230138.0 238489.0 0
234687.0 235271.0 0
238556.0 237641.0 0
242390.0 237181.0 0
247427.0 235502.0 0
246048.0 238626.0 0
250090.0 239161.0 0
255731.0 239092.0 0
260774.0 237082.0 0
265644.0 238673.0 0
269971.0 240107.0 0
271481.0 236907.0 0
275053.0 239803.0 0
279215.0 238741.0 0
282124.0 235110.0 0
288024.0 236350.0 0
294471.0 238629.0 0
305066.0 236316.0 0
308080.0 240073.0 0
197804.0 242714.0 0
203505.0 244543.0 0
212791.0 242200.0 0
208131.0 244948.0 0
218662.0 243446.0 0
223110.0 244126.0 0
226326.0 241543.0 0
230774.0 243710.0 0
235173.0 240775.0 0
234701.0 245263.0 0
238203.0 244765.0 0
239764.0 240830.0 0
243412.0 240674.0 0
242094.0 244503.0 0
246876.0 243015.0 0
252157.0 244167.0 0
257469.0 244468.0 0
260925.0 241244.0 0
264331.0 243138.0 0
268086.0 243206.0 0
272243.0 243248.0 0
279677.0 241854.0 0
276741.0 244066.0 0
281336.0 245128.0 0
283685.0 240411.0 0
285198.0 243862.0 0
289419.0 242035.0 0
295281.0 243842.0 0
301008.0 240543.0 0
199186.0 247215.0 0
208554.0 248375.0 0
211664.0 247348.0 0
216075.0 246907.0 0
221192.0 248025.0 0
226970.0 246899.0 0
232414.0 249156.0 0
236646.0 248350.0 0
244600.0 247623.0 0
240290.0 248776.0 0
248490.0 247390.0 0
255087.0 248056.0 0
251503.0 250306.0 0
258415.0 248922.0 0
261574.0 245964.0 0
261967.0 249984.0 0
269935.0 246492.0 0
266115.0 247199.0 0
273509.0 247255.0 0
274641.0 250448.0 0
277651.0 248174.0 0
281340.0 249815.0 0
285307.0 247639.0 0
289431.0 246722.0 0
293309.0 248168.0 0
299891.0 246779.0 0
201503.0 250660.0 0
201976.0 253824.0 0
205019.0 249963.0 0
204859.0 254424.0 0
207479.0 254078.0 0
210039.0 251884.0 0
214359.0 254571.0 0
217913.0 251356.0 0
213988.0 250675.0 0
218448.0 255668.0 0
221689.0 253178.0 0
224788.0 250913.0 0
228953.0 252074.0 0
225479.0 255060.0 0
233091.0 254087.0 0
236931.0 252468.0 0
243294.0 251260.0 0
240750.0 252745.0 0
244277.0 254909.0 0
246873.0 251165.0 0
248875.0 254458.0 0
253013.0 254485.0 0
255669.0 251730.0 0
259028.0 252662.0 0
256495.0 255562.0 0
262486.0 254296.0 0
265604.0 251382.0 0
270148.0 250918.0 0
266650.0 255221.0 0
273735.0 253785.0 0
277752.0 252875.0 0
281761.0 254035.0 0
284618.0 251589.0 0
288817.0 251348.0 0
285988.0 255097.0 0
292604.0 253431.0 0
296714.0 251557.0 0
202713.0 258125.0 0
206834.0 257574.0 0
210779.0 256929.0 0
212564.0 260452.0 0
215366.0 258699.0 0
222414.0 257554.0 0
219225.0 259698.0 0
226474.0 259603.0 0
229591.0 256546.0 0
232781.0 258225.0 0
236133.0 257219.0 0
240053.0 256212.0 0
242927.0 259275.0 0
247063.0 258431.0 0
251123.0 257783.0 0
254473.0 257784.0 0
253194.0 260572.0 0
259525.0 256665.0 0
257642.0 260767.0 0
263120.0 259075.0 0
270475.0 256277.0 0
267418.0 259186.0 0
274390.0 257785.0 0
278429.0 257438.0 0
282902.0 258218.0 0
289846.0 256990.0 0
286806.0 259723.0 0
293297.0 256676.0 0
293613.0 260054.0 0
296915.0 256847.0 0
202127.0 262691.0 0
205347.0 261264.0 0
208864.0 261448.0 0
205612.0 264585.0 0
211822.0 263377.0 0
209072.0 265592.0 0
216156.0 263358.0 0
223094.0 262022.0 0
219978.0 262660.0 0
223817.0 265803.0 0
220427.0 265859.0 0
227454.0 264253.0 0
230403.0 260911.0 0
234291.0 261714.0 0
231084.0 263915.0 0
233275.0 265528.0 0
238743.0 261076.0 0
236619.0 265347.0 0
242393.0 262890.0 0
240335.0 265533.0 0
243939.0 265923.0 0
249908.0 261347.0 0
245950.0 262660.0 0
249284.0 264853.0 0
253661.0 264751.0 0
261753.0 263701.0 0
264891.0 265945.0 0
266255.0 262534.0 0
268653.0 265858.0 0
270812.0 261233.0 0
273320.0 265187.0 0
275706.0 261534.0 0
280014.0 262293.0 0
277297.0 265735.0 0
284306.0 261906.0 0
283592.0 265500.0 0
290050.0 261730.0 0
287062.0 263871.0 0
289956.0 265957.0 0
293676.0 264514.0 0
297679.0 261493.0 0
297750.0 265208.0 0
202280.0 266541.0 0
203093.0 270944.0 0
206332.0 267995.0 0
213055.0 266763.0 0
210004.0 268949.0 0
213240.0 270007.0 0
217372.0 268768.0 0
221951.0 269462.0 0
225860.0 269013.0 0
230303.0 268315.0 0
234478.0 269278.0 0
238205.0 269230.0 0
242076.0 269295.0 0
246766.0 266471.0 0
245859.0 269471.0 0
250182.0 269315.0 0
254777.0 269683.0 0
258000.0 266340.0 0
258495.0 270864.0 0
261571.0 268565.0 0
265366.0 269511.0 0
268473.0 269945.0 0
271631.0 269112.0 0
280386.0 266730.0 0
275629.0 269039.0 0
279236.0 270024.0 0
282819.0 268610.0 0
286565.0 268394.0 0
294979.0 268607.0 0
291129.0 269697.0 0
298391.0 268206.0 0
197272.0 273630.0 0
202009.0 274878.0 0
207746.0 271928.0 0
205857.0 275528.0 0
211617.0 273055.0 0
215966.0 273458.0 0
220358.0 273251.0 0
224400.0 273079.0 0
228428.0 272834.0 0
226408.0 275844.0 0
232182.0 272784.0 0
236046.0 273153.0 0
244218.0 272685.0 0
240115.0 273469.0 0
247713.0 273390.0 0
252048.0 273642.0 0
254952.0 275641.0 0
255811.0 272919.0 0
258511.0 274840.0 0
262235.0 273203.0 0
270362.0 273034.0 0
266561.0 273436.0 0
273808.0 272107.0 0
273444.0 275826.0 0
276655.0 272937.0 0
279850.0 274385.0 0
276877.0 275536.0 0
283125.0 271961.0 0
287100.0 272927.0 0
294851.0 272406.0 0
291479.0 274524.0 0
295224.0 276244.0 0
297903.0 271138.0 0
297987.0 274271.0 0
202888.0 278751.0 0
207435.0 279924.0 0
210185.0 276826.0 0
214415.0 277351.0 0
218470.0 276957.0 0
216719.0 280711.0 0
222845.0 277064.0 0
220332.0 279548.0 0
222548.0 281340.0 0
226757.0 280382.0 0
230064.0 276598.0 0
234122.0 276758.0 0
232060.0 280285.0 0
238044.0 277095.0 0
235796.0 280603.0 0
239442.0 280309.0 0
243567.0 277546.0 0
249078.0 277387.0 0
246797.0 281311.0 0
252775.0 277380.0 0
251696.0 281413.0 0
256769.0 279435.0 0
261180.0 277618.0 0
264905.0 277174.0 0
263581.0 280460.0 0
269208.0 276978.0 0
267267.0 280810.0 0
272382.0 281003.0 0
279119.0 277662.0 0
276192.0 278210.0 0
283447.0 276742.0 0
281154.0 280204.0 0
287650.0 277856.0 0
289032.0 281349.0 0
292552.0 279178.0 0
297916.0 277639.0 0
296898.0 281282.0 0
202253.0 282522.0 0
203084.0 286473.0 0
205453.0 282719.0 0
208542.0 285267.0 0
212117.0 281798.0 0
212613.0 285982.0 0
215924.0 285052.0 0
219725.0 283192.0 0
223309.0 284452.0 0
226828.0 285981.0 0
230630.0 283788.0 0
234577.0 284729.0 0
238409.0 283804.0 0
242646.0 283036.0 0
245515.0 284993.0 0
248587.0 284357.0 0
255917.0 284994.0 0
260690.0 281600.0 0
264703.0 284274.0 0
260552.0 285344.0 0
269446.0 285391.0 0
274981.0 285795.0 0
277262.0 281446.0 0
280284.0 285135.0 0
284874.0 281856.0 0
284586.0 286221.0 0
288255.0 285482.0 0
292322.0 283455.0 0
295086.0 285382.0 0
298158.0 285140.0 0
202951.0 290798.0 0
207045.0 289539.0 0
214124.0 288325.0 0
211075.0 288951.0 0
217013.0 288463.0 0
215803.0 291519.0 0
220233.0 287129.0 0
223989.0 288658.0 0
227941.0 290226.0 0
230915.0 287726.0 0
234154.0 289357.0 0
237631.0 287591.0 0
237334.0 291216.0 0
240708.0 286569.0 0
243842.0 287759.0 0
240929.0 290672.0 0
247330.0 287894.0 0
249765.0 290865.0 0
251354.0 286753.0 0
253972.0 290163.0 0
258193.0 289950.0 0
262780.0 288860.0 0
266637.0 288874.0 0
270198.0 290460.0 0
272072.0 288029.0 0
274523.0 290935.0 0
277991.0 289389.0 0
282339.0 290097.0 0
287689.0 290972.0 0
292237.0 287929.0 0
296749.0 289164.0 0
302750.0 287363.0 0
201538.0 293899.0 0
202485.0 296673.0 0
208342.0 292916.0 0
204895.0 293749.0 0
212201.0 292181.0 0
213842.0 295514.0 0
210474.0 295951.0 0
216996.0 295491.0 0
220468.0 291980.0 0
220046.0 296336.0 0
223362.0 296817.0 0
225129.0 292981.0 0
228288.0 294032.0 0
231220.0 292261.0 0
230573.0 296017.0 0
234802.0 294132.0 0
238850.0 294996.0 0
242404.0 294385.0 0
245354.0 291758.0 0
248595.0 294989.0 0
245325.0 296699.0 0
252364.0 294127.0 0
259092.0 293870.0 0
255754.0 293678.0 0
262100.0 292541.0 0
262131.0 296761.0 0
266292.0 293862.0 0
270795.0 294434.0 0
274648.0 294955.0 0
279335.0 294281.0 0
284148.0 294817.0 0
288194.0 296562.0 0
292871.0 293033.0 0
297778.0 293070.0 0
297328.0 296455.0 0
304194.0 293133.0 0
202394.0 300031.0 0
206494.0 297156.0 0
205594.0 300258.0 0
207993.0 301655.0 0
213046.0 298901.0 0
209394.0 299456.0 0
216735.0 298718.0 0
218963.0 301630.0 0
219672.0 298999.0 0
223030.0 300884.0 0
227215.0 297396.0 0
226970.0 301341.0 0
233459.0 297314.0 0
230619.0 299782.0 0
234484.0 300702.0 0
236281.0 297466.0 0
239048.0 298965.0 0
241702.0 296995.0 0
243016.0 300220.0 0
249867.0 297893.0 0
247638.0 300344.0 0
253226.0 297609.0 0
251402.0 301210.0 0
257296.0 297148.0 0
255221.0 301123.0 0
259873.0 300780.0 0
265241.0 298049.0 0
263802.0 300178.0 0
267738.0 297801.0 0
270441.0 297882.0 0
266495.0 300563.0 0
269758.0 301231.0 0
272970.0 297166.0 0
273142.0 300019.0 0
276511.0 298281.0 0
280080.0 298910.0 0
283411.0 298211.0 0
290077.0 300166.0 0
286458.0 300992.0 0
293030.0 297634.0 0
294637.0 301391.0 0
297940.0 299592.0 0
197681.0 305294.0 0
202289.0 303261.0 0
202321.0 306447.0 0
205552.0 303159.0 0
208959.0 303867.0 0
206043.0 306281.0 0
211096.0 302032.0 0
212189.0 304877.0 0
215165.0 302307.0 0
218278.0 304766.0 0
215322.0 306141.0 0
221116.0 304116.0 0
224513.0 305067.0 0
221349.0 307071.0 0
228087.0 305453.0 0
230377.0 302962.0 0
233154.0 304313.0 0
237898.0 302378.0 0
236346.0 305407.0 0
239520.0 306960.0 0
241177.0 303408.0 0
243759.0 306762.0 0
245132.0 303460.0 0
248186.0 304029.0 0
250883.0 303998.0 0
254416.0 305195.0 0
257673.0 303643.0 0
257922.0 306694.0 0
263965.0 303832.0 0
260405.0 304879.0 0
267489.0 303516.0 0
270324.0 304585.0 0
267687.0 306416.0 0
273227.0 303599.0 0
273795.0 306827.0 0
277330.0 302456.0 0
277351.0 306468.0 0
280466.0 306604.0 0
281993.0 302910.0 0
285510.0 306076.0 0
289557.0 304761.0 0
291719.0 302310.0 0
293904.0 305164.0 0
297983.0 302788.0 0
297532.0 305739.0 0
202670.0 309842.0 0
206216.0 309965.0 0
209587.0 307267.0 0
213573.0 309204.0 0
210054.0 311878.0 0
218336.0 308141.0 0
224456.0 309416.0 0
220837.0 310977.0 0
228153.0 309553.0 0
231612.0 307932.0 0
234722.0 310810.0 0
235232.0 307964.0 0
237284.0 309180.0 0
240319.0 309983.0 0
243100.0 310397.0 0
247808.0 308024.0 0
246251.0 312113.0 0
251137.0 307384.0 0
253556.0 310117.0 0
256464.0 308617.0 0
259426.0 309359.0 0
261331.0 307475.0 0
264520.0 308221.0 0
262463.0 312010.0 0
267021.0 310297.0 0
270673.0 308592.0 0
273525.0 311762.0 0
279890.0 310482.0 0
276291.0 310126.0 0
282966.0 308691.0 0
284537.0 311342.0 0
290791.0 308686.0 0
287329.0 309410.0 0
294407.0 308476.0 0
294419.0 311132.0 0
297659.0 308873.0 0
297574.0 311939.0 0
202486.0 313111.0 0
201777.0 315997.0 0
206169.0 313380.0 0
204785.0 315665.0 0
208598.0 316006.0 0
212853.0 315331.0 0
216549.0 312461.0 0
219008.0 316285.0 0
221862.0 314034.0 0
223449.0 317247.0 0
225388.0 313986.0 0
228830.0 313068.0 0
231942.0 312183.0 0
233608.0 315504.0 0
229936.0 316280.0 0
237951.0 313383.0 0
242008.0 313121.0 0
243745.0 315481.0 0
240657.0 317246.0 0
247451.0 315721.0 0
250489.0 312352.0 0
254090.0 315108.0 0
250871.0 317407.0 0
257102.0 312427.0 0
259949.0 315957.0 0
263563.0 317292.0 0
265817.0 314055.0 0
269395.0 312714.0 0
275404.0 315021.0 0
271685.0 316095.0 0
277733.0 313511.0 0
279921.0 316308.0 0
281756.0 313367.0 0
284325.0 314910.0 0
287529.0 312984.0 0
287701.0 316751.0 0
290969.0 312305.0 0
294144.0 313449.0 0
291122.0 315501.0 0
293801.0 315901.0 0
297410.0 315113.0 0
196515.0 318927.0 0
202922.0 319041.0 0
202225.0 322029.0 0
206438.0 318020.0 0
207635.0 320057.0 0
205460.0 321474.0 0
210645.0 318641.0 0
213287.0 321032.0 0
209443.0 322353.0 0
215438.0 318387.0 0
217642.0 320801.0 0
221183.0 320116.0 0
227129.0 318189.0 0
224840.0 321017.0 0
229797.0 321015.0 0
232083.0 319037.0 0
233796.0 321114.0 0
236702.0 318811.0 0
239085.0 321794.0 0
236015.0 322621.0 0
241808.0 320430.0 0
245145.0 319198.0 0
248503.0 320963.0 0
253659.0 320104.0 0
256476.0 317846.0 0
260002.0 320279.0 0
257000.0 322079.0 0
262804.0 320294.0 0
267989.0 318460.0 0
266007.0 322200.0 0
273698.0 318921.0 0
270848.0 321160.0 0
273202.0 322229.0 0
276764.0 317381.0 0
280265.0 320025.0 0
276800.0 320916.0 0
283556.0 318073.0 0
283996.0 321709.0 0
290744.0 318973.0 0
286707.0 320139.0 0
293962.0 318973.0 0
294541.0 322307.0 0
297420.0 318405.0 0
298335.0 320956.0 0
303051.0 318259.0 0
195692.0 323845.0 0
202866.0 324957.0 0
206581.0 324342.0 0
212449.0 325512.0 0
209478.0 327113.0 0
216605.0 323534.0 0
216645.0 327068.0 0
220409.0 323911.0 0
224072.0 324981.0 0
219862.0 327298.0 0
227658.0 324055.0 0
232673.0 323515.0 0
230577.0 326593.0 0
235929.0 325529.0 0
243477.0 323427.0 0
239956.0 324910.0 0
246386.0 324078.0 0
246963.0 327393.0 0
252105.0 322677.0 0
254347.0 324424.0 0
250059.0 325167.0 0
252552.0 326891.0 0
258906.0 325129.0 0
262185.0 323880.0 0
263419.0 326954.0 0
269594.0 323952.0 0
266329.0 325322.0 0
270279.0 327193.0 0
273431.0 325283.0 0
277407.0 324878.0 0
280155.0 327382.0 0
281117.0 323125.0 0
282426.0 325479.0 0
289641.0 322573.0 0
285938.0 324741.0 0
289248.0 327548.0 0
293308.0 325954.0 0
297915.0 323313.0 0
297780.0 325887.0 0
202887.0 328632.0 0
201935.0 331897.0 0
206219.0 327748.0 0
208403.0 330356.0 0
205316.0 331629.0 0
213656.0 329368.0 0
211277.0 330628.0 0
217641.0 330290.0 0
215172.0 332618.0 0
223514.0 329366.0 0
220262.0 331756.0 0
227169.0 328158.0 0
229010.0 330502.0 0
233929.0 328647.0 0
231911.0 331723.0 0
238008.0 327840.0 0
237399.0 330919.0 0
243339.0 327934.0 0
239978.0 328158.0 0
244691.0 331651.0 0
240741.0 330473.0 0
249628.0 327900.0 0
247775.0 330363.0 0
251316.0 329973.0 0
254924.0 331758.0 0
255952.0 327765.0 0
260266.0 328977.0 0
263736.0 330522.0 0
266953.0 328300.0 0
267602.0 332031.0 0
273817.0 328818.0 0
271462.0 331011.0 0
274180.0 332488.0 0
276629.0 329187.0 0
284380.0 328125.0 0
281747.0 330305.0 0
286400.0 329674.0 0
290635.0 331058.0 0
287824.0 332674.0 0
293635.0 330217.0 0
297078.0 329032.0 0
297696.0 332183.0 0
202002.0 334392.0 0
202162.0 336928.0 0
208930.0 333528.0 0
205503.0 334477.0 0
205674.0 337661.0 0
211766.0 333134.0 0
209185.0 336545.0 0
211756.0 335634.0 0
218600.0 334053.0 0
214732.0 335827.0 0
217696.0 336563.0 0
221766.0 335048.0 0
225678.0 333565.0 0
229373.0 334483.0 0
232468.0 335231.0 0
235140.0 333033.0 0
239151.0 334267.0 0
236269.0 336025.0 0
241911.0 332870.0 0
242694.0 335760.0 0
249384.0 333584.0 0
246207.0 335249.0 0
252766.0 335459.0 0
258516.0 333032.0 0
255514.0 337550.0 0
258601.0 336689.0 0
262126.0 333360.0 0
264645.0 334552.0 0
261759.0 336414.0 0
269027.0 335514.0 0
265800.0 337515.0 0
271540.0 334014.0 0
273358.0 335480.0 0
278161.0 332882.0 0
276385.0 336595.0 0
284226.0 333035.0 0
281454.0 335235.0 0
285443.0 335708.0 0
288289.0 335249.0 0
294667.0 333160.0 0
291735.0 333849.0 0
291560.0 336827.0 0
294930.0 335592.0 0
298155.0 334533.0 0
298004.0 336764.0 0
202053.0 339423.0 0
202749.0 342221.0 0
206431.0 341105.0 0
210193.0 339701.0 0
213615.0 338847.0 0
211250.0 342852.0 0
217067.0 339743.0 0
214465.0 342569.0 0
220925.0 338708.0 0
221091.0 342889.0 0
224657.0 338685.0 0
228019.0 338395.0 0
224907.0 342722.0 0
227863.0 342783.0 0
231501.0 339082.0 0
235020.0 339147.0 0
237288.0 341014.0 0
239912.0 338075.0 0
243213.0 338548.0 0
241854.0 341222.0 0
244638.0 342650.0 0
247037.0 339290.0 0
249536.0 342792.0 0
250824.0 338416.0 0
252368.0 341025.0 0
259769.0 339871.0 0
255464.0 340685.0 0
263091.0 338727.0 0
263145.0 341788.0 0
267955.0 340234.0 0
271268.0 338234.0 0
274351.0 339754.0 0
270924.0 341443.0 0
278514.0 338495.0 0
277916.0 341094.0 0
281837.0 338182.0 0
285131.0 338210.0 0
281128.0 341244.0 0
285409.0 341268.0 0
288487.0 338422.0 0
288505.0 341503.0 0
293466.0 339952.0 0
291363.0 341921.0 0
296820.0 339624.0 0
297976.0 342495.0 0
196497.0 343791.0 0
202492.0 345214.0 0
201800.0 347794.0 0
207676.0 344343.0 0
205468.0 346406.0 0
210814.0 346658.0 0
217772.0 343225.0 0
214786.0 345962.0 0
217788.0 346612.0 0
221268.0 346571.0 0
225039.0 346122.0 0
227643.0 346095.0 0
231451.0 343444.0 0
234754.0 343840.0 0
230571.0 346697.0 0
237591.0 345167.0 0
239733.0 343013.0 0
235554.0 347422.0 0
240474.0 346371.0 0
243427.0 345951.0 0
247250.0 344869.0 0
248253.0 347825.0 0
253426.0 343815.0 0
251251.0 345745.0 0
255621.0 345372.0 0
258170.0 343310.0 0
258914.0 346969.0 0
261367.0 344096.0 0
261823.0 347782.0 0
264895.0 346541.0 0
266489.0 343315.0 0
269594.0 344917.0 0
272401.0 343445.0 0
273389.0 347248.0 0
275700.0 342872.0 0
279370.0 343523.0 0
276921.0 346401.0 0
283719.0 343155.0 0
281678.0 345180.0 0
285688.0 345938.0 0
288161.0 344264.0 0
289573.0 347796.0 0
291984.0 345005.0 0
294772.0 343812.0 0
293911.0 347514.0 0
297725.0 345056.0 0
297144.0 347794.0 0
303399.0 344161.0 0
202496.0 350347.0 0
209190.0 349448.0 0
205825.0 349404.0 0
205577.0 352942.0 0
214153.0 349317.0 0
212272.0 351799.0 0
217287.0 350129.0 0
220345.0 349507.0 0
224618.0 349083.0 0
222863.0 351438.0 0
227127.0 348825.0 0
229435.0 349478.0 0
226299.0 351953.0 0
228316.0 351861.0 0
233282.0 348401.0 0
232545.0 351453.0 0
238712.0 350090.0 0
235978.0 352380.0 0
242310.0 350682.0 0
244989.0 349138.0 0
246503.0 352741.0 0
253307.0 348614.0 0
250224.0 351319.0 0
254713.0 351673.0 0
256779.0 348422.0 0
257923.0 351621.0 0
261352.0 351624.0 0
267042.0 349317.0 0
270210.0 348442.0 0
265511.0 352246.0 0
271246.0 352213.0 0
274085.0 350847.0 0
276530.0 350264.0 0
279749.0 351817.0 0
280758.0 348161.0 0
284255.0 349333.0 0
282783.0 353237.0 0
287292.0 350792.0 0
289026.0 353116.0 0
293639.0 350206.0 0
291285.0 350343.0 0
291282.0 352305.0 0
294590.0 352886.0 0
297805.0 350648.0 0
197463.0 356810.0 0
201982.0 353161.0 0
202007.0 355443.0 0
201323.0 357386.0 0
209026.0 353173.0 0
204798.0 357978.0 0
205257.0 355465.0 0
214214.0 353952.0 0
209359.0 356313.0 0
212690.0 356599.0 0
217564.0 353455.0 0
217518.0 356610.0 0
220944.0 353647.0 0
219930.0 357967.0 0
222656.0 356785.0 0
225464.0 354741.0 0
228139.0 356227.0 0
229961.0 353729.0 0
232485.0 355263.0 0
235792.0 356059.0 0
239103.0 356573.0 0
240220.0 353985.0 0
243235.0 354033.0 0
243957.0 357086.0 0
247614.0 356177.0 0
252335.0 355476.0 0
256699.0 354740.0 0
258629.0 356380.0 0
261575.0 355805.0 0
265242.0 355863.0 0
268758.0 353332.0 0
268545.0 355331.0 0
270043.0 357304.0 0
272578.0 355471.0 0
275236.0 353711.0 0
274681.0 357733.0 0
277936.0 354426.0 0
278331.0 357535.0 0
281672.0 356132.0 0
285462.0 354083.0 0
283467.0 357543.0 0
290313.0 355262.0 0
286168.0 356583.0 0
288757.0 356902.0 0
293445.0 355607.0 0
298004.0 353515.0 0
297916.0 355997.0 0
202063.0 361659.0 0
201906.0 359363.0 0
208922.0 359135.0 0
205229.0 363662.0 0
206047.0 360808.0 0
212463.0 359994.0 0
210387.0 361144.0 0
213713.0 362703.0 0
215448.0 358378.0 0
219414.0 360660.0 0
216909.0 361174.0 0
224201.0 359496.0 0
221545.0 361371.0 0
224399.0 362480.0 0
226963.0 359193.0 0
226700.0 362649.0 0
229591.0 361722.0 0
231074.0 358349.0 0
233189.0 363172.0 0
234933.0 359883.0 0
237671.0 360958.0 0
241069.0 358794.0 0
244389.0 361916.0 0
241049.0 362426.0 0
245376.0 359735.0 0
247832.0 359869.0 0
249036.0 362961.0 0
246086.0 363375.0 0
250148.0 359046.0 0
254462.0 359227.0 0
251445.0 361359.0 0
254052.0 362937.0 0
257892.0 359515.0 0
259097.0 362355.0 0
261912.0 359123.0 0
264055.0 361408.0 0
266310.0 358589.0 0
267548.0 361388.0 0
271055.0 360004.0 0
271387.0 362702.0 0
274025.0 360234.0 0
279069.0 360751.0 0
282179.0 359936.0 0
284460.0 360905.0 0
286832.0 360166.0 0
289977.0 360159.0 0
293134.0 359185.0 0
294265.0 362213.0 0
297147.0 358618.0 0
297726.0 361460.0 0
202287.0 364153.0 0
203353.0 367096.0 0
209016.0 364018.0 0
207860.0 366784.0 0
212319.0 365115.0 0
213265.0 368087.0 0
216733.0 364260.0 0
219477.0 364499.0 0
216428.0 366989.0 0
221096.0 363887.0 0
223851.0 365379.0 0
219598.0 367483.0 0
222389.0 367832.0 0
229022.0 365357.0 0
226643.0 366162.0 0
234255.0 366865.0 0
231534.0 367171.0 0
235491.0 364760.0 0
237502.0 363818.0 0
236573.0 367444.0 0
238758.0 366032.0 0
242519.0 365522.0 0
240954.0 368318.0 0
249137.0 367022.0 0
245499.0 366368.0 0
252039.0 365006.0 0
253358.0 366995.0 0
256463.0 364395.0 0
256633.0 367918.0 0
262183.0 364002.0 0
260457.0 367069.0 0
265296.0 366025.0 0
268264.0 364592.0 0
273343.0 364664.0 0
270435.0 367366.0 0
274506.0 366936.0 0
276132.0 363067.0 0
277897.0 366041.0 0
280906.0 363794.0 0
283715.0 363996.0 0
279985.0 367557.0 0
283180.0 368086.0 0
286804.0 363955.0 0
290069.0 363551.0 0
286687.0 367950.0 0
289510.0 366447.0 0
292837.0 364391.0 0
290923.0 368408.0 0
294029.0 366679.0 0
297297.0 364277.0 0
297456.0 367382.0 0
201694.0 369819.0 0
201871.0 372060.0 0
205647.0 370770.0 0
208967.0 370784.0 0
210789.0 368915.0 0
210413.0 373377.0 0
212820.0 372575.0 0
215821.0 371491.0 0
219062.0 370707.0 0
221777.0 373167.0 0
224303.0 370944.0 0
229068.0 369493.0 0
226772.0 368887.0 0
229767.0 372231.0 0
226984.0 373062.0 0
232826.0 370129.0 0
234807.0 373303.0 0
235256.0 369263.0 0
238597.0 369720.0 0
236839.0 371476.0 0
242538.0 371688.0 0
239832.0 372575.0 0
244682.0 369705.0 0
247868.0 370711.0 0
251912.0 369000.0 0
250720.0 371633.0 0
252823.0 373083.0 0
258888.0 370736.0 0
255023.0 371144.0 0
262070.0 369978.0 0
260528.0 373134.0 0
264930.0 373152.0 0
265239.0 369567.0 0
268301.0 369842.0 0
267367.0 374100.0 0
269419.0 372433.0 0
272915.0 369499.0 0
272816.0 372645.0 0
276170.0 368436.0 0
277479.0 370285.0 0
279419.0 370656.0 0
276218.0 372395.0 0
282682.0 371931.0 0
285567.0 373148.0 0
288224.0 370985.0 0
293174.0 369725.0 0
293723.0 372286.0 0
290307.0 372958.0 0
297378.0 370286.0 0
297002.0 373725.0 0
198192.0 378625.0 0
200632.0 377907.0 0
196237.0 380422.0 0
202567.0 374828.0 0
202505.0 379491.0 0
205301.0 375323.0 0
205536.0 378964.0 0
208295.0 375300.0 0
210476.0 378313.0 0
212692.0 376439.0 0
215171.0 377699.0 0
217523.0 378433.0 0
216804.0 374902.0 0
219810.0 375865.0 0
223903.0 376442.0 0
228982.0 376599.0 0
226210.0 375991.0 0
231898.0 375279.0 0
232928.0 379155.0 0
236434.0 377741.0 0
238674.0 375062.0 0
244163.0 375105.0 0
241770.0 377028.0 0
247359.0 374422.0 0
249717.0 376063.0 0
246460.0 378758.0 0
253164.0 376634.0 0
257472.0 373636.0 0
256735.0 377145.0 0
262536.0 375465.0 0
264874.0 377506.0 0
260172.0 378674.0 0
267509.0 377041.0 0
269907.0 375728.0 0
268535.0 379273.0 0
271378.0 378477.0 0
273129.0 376110.0 0
277815.0 374691.0 0
276237.0 378076.0 0
280456.0 374137.0 0
281595.0 377421.0 0
283753.0 376300.0 0
288407.0 378608.0 0
286732.0 376028.0 0
291575.0 376061.0 0
295072.0 376843.0 0
299299.0 377354.0 0
301770.0 378181.0 0
303295.0 380485.0 0
299742.0 379891.0 0
187510.0 386022.0 0
189977.0 384786.0 0
194168.0 381515.0 0
191802.0 382793.0 0
195485.0 384704.0 0
198580.0 381904.0 0
200778.0 381646.0 0
197884.0 385146.0 0
200355.0 384624.0 0
203096.0 382346.0 0
204970.0 381908.0 0
202476.0 384336.0 0
206539.0 383534.0 0
208456.0 380201.0 0
209668.0 383286.0 0
212242.0 380955.0 0
214980.0 381282.0 0
218083.0 381283.0 0
220071.0 383946.0 0
220635.0 379073.0 0
223616.0 380091.0 0
222816.0 383270.0 0
225949.0 380013.0 0
228122.0 379163.0 0
227236.0 382632.0 0
230015.0 383448.0 0
230012.0 380038.0 0
233224.0 383132.0 0
238300.0 380635.0 0
236608.0 383947.0 0
241567.0 380924.0 0
244357.0 380042.0 0
242522.0 384139.0 0
248696.0 380355.0 0
245178.0 382224.0 0
247863.0 383884.0 0
251557.0 379961.0 0
253094.0 382574.0 0
255483.0 380845.0 0
257665.0 382337.0 0
262016.0 381447.0 0
264800.0 379956.0 0
266236.0 380814.0 0
269442.0 382431.0 0
266812.0 383940.0 0
271961.0 381076.0 0
274552.0 381194.0 0
279379.0 379878.0 0
277869.0 382930.0 0
283881.0 379479.0 0
282453.0 382535.0 0
280255.0 384614.0 0
285903.0 381204.0 0
286780.0 383841.0 0
288977.0 384316.0 0
292560.0 379949.0 0
290252.0 381200.0 0
292282.0 384120.0 0
296019.0 380101.0 0
298330.0 382818.0 0
294536.0 383240.0 0
300927.0 383340.0 0
305151.0 382181.0 0
308222.0 382187.0 0
306289.0 385056.0 0
309961.0 383525.0 0
311425.0 385330.0 0
177954.0 391573.0 0
180066.0 390365.0 0
182461.0 389161.0 0
185394.0 388066.0 0
190025.0 388411.0 0
188988.0 390454.0 0
192895.0 386863.0 0
193783.0 389206.0 0
197690.0 388101.0 0
197107.0 390942.0 0
200406.0 388026.0 0
205032.0 385948.0 0
203132.0 388660.0 0
207953.0 386582.0 0
205991.0 390060.0 0
209138.0 389373.0 0
211523.0 384975.0 0
211624.0 388515.0 0
215120.0 388323.0 0
214754.0 384706.0 0
217538.0 384968.0 0
217761.0 387744.0 0
220455.0 387644.0 0
223022.0 387669.0 0
225149.0 384468.0 0
226187.0 387558.0 0
229406.0 387022.0 0
232437.0 388592.0 0
240052.0 385859.0 0
235842.0 388053.0 0
238809.0 389653.0 0
242755.0 388847.0 0
245219.0 386479.0 0
249293.0 388200.0 0
246842.0 389198.0 0
250891.0 385210.0 0
251691.0 389149.0 0
253831.0 387257.0 0
255755.0 384782.0 0
258250.0 385826.0 0
259067.0 388803.0 0
259893.0 384142.0 0
262316.0 387679.0 0
263946.0 384551.0 0
266280.0 388240.0 0
268554.0 387442.0 0
271494.0 385896.0 0
274916.0 385341.0 0
276632.0 388668.0 0
279888.0 386874.0 0
282782.0 386884.0 0
281115.0 389580.0 0
284723.0 385480.0 0
285141.0 388670.0 0
287734.0 389171.0 0
289718.0 387437.0 0
292882.0 388238.0 0
297334.0 385662.0 0
295755.0 387820.0 0
300059.0 387338.0 0
302785.0 386199.0 0
300231.0 390238.0 0
304354.0 388780.0 0
308556.0 386830.0 0
307440.0 389235.0 0
313719.0 386858.0 0
310975.0 389390.0 0
315947.0 388625.0 0
318889.0 388901.0 0
320620.0 391128.0 0
171430.0 394762.0 0
174059.0 394390.0 0
175799.0 392545.0 0
179784.0 394409.0 0
182621.0 393141.0 0
183131.0 395980.0 0
185644.0 391820.0 0
186749.0 394421.0 0
189566.0 394580.0 0
191006.0 392158.0 0
194042.0 393107.0 0
194308.0 395994.0 0
199118.0 393078.0 0
202361.0 392195.0 0
204428.0 394391.0 0
207570.0 392882.0 0
209860.0 394577.0 0
212296.0 392378.0 0
214772.0 391603.0 0
217564.0 390437.0 0
216305.0 393791.0 0
220079.0 391159.0 0
223137.0 391474.0 0
225776.0 394820.0 0
225862.0 391304.0 0
228570.0 394613.0 0
228936.0 391394.0 0
232889.0 392396.0 0
235882.0 392512.0 0
239606.0 393048.0 0
243270.0 391529.0 0
243851.0 394133.0 0
245611.0 391460.0 0
248226.0 393205.0 0
250428.0 391291.0 0
253411.0 392874.0 0
255829.0 390384.0 0
257831.0 393652.0 0
260032.0 391973.0 0
264108.0 391223.0 0
262206.0 394124.0 0
267216.0 391514.0 0
267800.0 394048.0 0
269546.0 390694.0 0
271702.0 389816.0 0
270586.0 393909.0 0
273348.0 389711.0 0
273004.0 392990.0 0
274830.0 391695.0 0
276802.0 393737.0 0
279056.0 391832.0 0
280023.0 394688.0 0
282219.0 394021.0 0
283409.0 390152.0 0
284305.0 392923.0 0
287248.0 392722.0 0
289936.0 392870.0 0
290473.0 390959.0 0
292788.0 391362.0 0
292430.0 394262.0 0
297452.0 390876.0 0
295528.0 392416.0 0
294972.0 395593.0 0
303042.0 391552.0 0
299231.0 393799.0 0
301859.0 394698.0 0
305822.0 393583.0 0
307903.0 392012.0 0
310529.0 393854.0 0
312333.0 391820.0 0
309804.0 396480.0 0
315427.0 392044.0 0
318321.0 393086.0 0
315329.0 396057.0 0
322911.0 392441.0 0
319544.0 396184.0 0
322254.0 396141.0 0
325147.0 393689.0 0
327352.0 394748.0 0
329293.0 396141.0 0
331729.0 396517.0 0
162321.0 401457.0 0
163850.0 399766.0 0
165493.0 398642.0 0
167590.0 397915.0 0
169686.0 397105.0 0
167141.0 401081.0 0
169608.0 401014.0 0
171756.0 397713.0 0
175069.0 396958.0 0
171802.0 400908.0 0
174234.0 399865.0 0
178535.0 396934.0 0
176058.0 401343.0 0
178785.0 399981.0 0
181395.0 398613.0 0
184931.0 397404.0 0
183096.0 399821.0 0
187136.0 398569.0 0
189465.0 396693.0 0
188110.0 401374.0 0
191722.0 397333.0 0
191261.0 400004.0 0
199251.0 396274.0 0
196376.0 398205.0 0
199087.0 399619.0 0
200748.0 400663.0 0
202329.0 397616.0 0
204448.0 400387.0 0
205955.0 397346.0 0
208274.0 398356.0 0
212472.0 395836.0 0
211269.0 398859.0 0
214650.0 396145.0 0
216203.0 398689.0 0
219682.0 395079.0 0
219114.0 398989.0 0
222824.0 396161.0 0
227111.0 398052.0 0
230234.0 398564.0 0
231635.0 395392.0 0
234015.0 399457.0 0
234485.0 397166.0 0
236737.0 395733.0 0
238691.0 398706.0 0
241439.0 396346.0 0
243988.0 398903.0 0
246331.0 395547.0 0
247273.0 398470.0 0
250656.0 396058.0 0
253255.0 396089.0 0
254387.0 399465.0 0
256097.0 396476.0 0
258788.0 397784.0 0
259987.0 395389.0 0
261147.0 398125.0 0
263655.0 397329.0 0
266082.0 395685.0 0
267920.0 397468.0 0
270693.0 399518.0 0
270552.0 396638.0 0
272943.0 397413.0 0
274064.0 395503.0 0
276532.0 396727.0 0
275621.0 399570.0 0
279302.0 396947.0 0
279727.0 399641.0 0
282399.0 397812.0 0
284647.0 396180.0 0
287731.0 396083.0 0
287129.0 398920.0 0
289418.0 400471.0 0
291356.0 398275.0 0
290618.0 396250.0 0
293087.0 400145.0 0
298008.0 395952.0 0
294917.0 398240.0 0
299039.0 398421.0 0
297218.0 400000.0 0
303499.0 397129.0 0
301758.0 399449.0 0
306733.0 397024.0 0
307472.0 400347.0 0
313326.0 398142.0 0
310197.0 399987.0 0
314131.0 401166.0 0
318594.0 401267.0 0
318299.0 399028.0 0
322222.0 399189.0 0
323522.0 401063.0 0
324855.0 396774.0 0
328694.0 399157.0 0
325903.0 398529.0 0
333395.0 398156.0 0
331510.0 399024.0 0
334866.0 400036.0 0
332731.0 401413.0 0
337098.0 400885.0 0
157120.0 403983.0 0
155263.0 406296.0 0
160323.0 403452.0 0
163912.0 405187.0 0
160717.0 406184.0 0
165699.0 403167.0 0
169970.0 404157.0 0
168143.0 406346.0 0
172781.0 403538.0 0
174835.0 405557.0 0
180025.0 402499.0 0
177718.0 404330.0 0
179325.0 406946.0 0
182773.0 402242.0 0
185443.0 403035.0 0
181007.0 405279.0 0
182442.0 405005.0 0
189871.0 403616.0 0
188654.0 405591.0 0
185875.0 406158.0 0
193701.0 401264.0 0
193010.0 404735.0 0
197010.0 401239.0 0
198961.0 403822.0 0
196352.0 406189.0 0
203048.0 402013.0 0
205785.0 403112.0 0
201849.0 404652.0 0
204369.0 405229.0 0
207635.0 401362.0 0
208155.0 405280.0 0
209967.0 403478.0 0
213265.0 401306.0 0
214263.0 404435.0 0
217083.0 401803.0 0
219151.0 403706.0 0
220900.0 400772.0 0
224239.0 400135.0 0
221909.0 405519.0 0
224461.0 403783.0 0
227434.0 401799.0 0
226882.0 405257.0 0
230158.0 401856.0 0
232994.0 401636.0 0
230323.0 405569.0 0
234481.0 403518.0 0
236752.0 400972.0 0
239000.0 403744.0 0
241390.0 401427.0 0
243418.0 403597.0 0
244784.0 405710.0 0
245409.0 401807.0 0
248151.0 402630.0 0
250767.0 400006.0 0
252504.0 403560.0 0
256530.0 401710.0 0
258845.0 400768.0 0
255467.0 404658.0 0
260366.0 404065.0 0
261335.0 401234.0 0
264600.0 401180.0 0
268474.0 404071.0 0
267712.0 400810.0 0
270696.0 403485.0 0
273132.0 401120.0 0
274349.0 404047.0 0
278220.0 401800.0 0
284149.0 400853.0 0
281482.0 402532.0 0
281087.0 405541.0 0
285802.0 403924.0 0
288719.0 403155.0 0
291014.0 404532.0 0
293478.0 402747.0 0
296020.0 404765.0 0
296535.0 401489.0 0
298516.0 404110.0 0
299329.0 401863.0 0
302789.0 402087.0 0
301905.0 404572.0 0
305713.0 402056.0 0
304421.0 405090.0 0
306294.0 404786.0 0
308823.0 405215.0 0
311392.0 402237.0 0
309690.0 403059.0 0
312143.0 405230.0 0
314308.0 404057.0 0
316518.0 402467.0 0
317747.0 404615.0 0
316235.0 406776.0 0
320654.0 403419.0 0
321451.0 405733.0 0
325782.0 402848.0 0
329197.0 402248.0 0
325202.0 405493.0 0
334212.0 403672.0 0
331249.0 404828.0 0
339219.0 403125.0 0
336561.0 404852.0 0
339394.0 406419.0 0
342083.0 404261.0 0
344265.0 406617.0 0
148380.0 409922.0 0
145966.0 411307.0 0
150640.0 408216.0 0
153156.0 407578.0 0
149977.0 411775.0 0
153172.0 410729.0 0
157932.0 407610.0 0
155553.0 412115.0 0
157929.0 410336.0 0
162481.0 408400.0 0
160860.0 410955.0 0
165372.0 408326.0 0
165218.0 411008.0 0
168810.0 409464.0 0
171926.0 407377.0 0
172216.0 409924.0 0
174270.0 410132.0 0
175868.0 408287.0 0
178501.0 409284.0 0
176296.0 410887.0 0
181259.0 407456.0 0
183457.0 407294.0 0
180687.0 411243.0 0
183007.0 409879.0 0
187593.0 408932.0 0
185523.0 410931.0 0
189179.0 411497.0 0
190704.0 407754.0 0
192154.0 409866.0 0
194929.0 409186.0 0
198806.0 408608.0 0
198711.0 411158.0 0
200887.0 407479.0 0
202476.0 408781.0 0
201553.0 411031.0 0
206048.0 408342.0 0
209801.0 408433.0 0
211709.0 406476.0 0
213666.0 408522.0 0
215671.0 410577.0 0
216615.0 406272.0 0
218321.0 409001.0 0
221542.0 409004.0 0
224971.0 407596.0 0
227509.0 409927.0 0
232938.0 408088.0 0
236363.0 406124.0 0
238651.0 409403.0 0
241186.0 405914.0 0
242775.0 408458.0 0
245057.0 408436.0 0
247967.0 405939.0 0
247738.0 409330.0 0
251146.0 406063.0 0
253370.0 408499.0 0
258547.0 406662.0 0
264186.0 405425.0 0
260997.0 410484.0 0
261748.0 408069.0 0
264594.0 409483.0 0
267300.0 406153.0 0
269596.0 407599.0 0
271876.0 406019.0 0
271447.0 409403.0 0
274814.0 409143.0 0
277319.0 405845.0 0
279347.0 409107.0 0
281804.0 409578.0 0
283985.0 407227.0 0
287882.0 407252.0 0
286993.0 410071.0 0
291322.0 407959.0 0
298532.0 409001.0 0
295073.0 408311.0 0
301162.0 407418.0 0
303479.0 409877.0 0
304296.0 406759.0 0
305779.0 406909.0 0
306750.0 409990.0 0
309428.0 408006.0 0
313090.0 408642.0 0
318453.0 408075.0 0
317000.0 410742.0 0
322863.0 408076.0 0
320553.0 410268.0 0
326410.0 407985.0 0
328807.0 406784.0 0
326282.0 411168.0 0
329413.0 410809.0 0
330485.0 408984.0 0
332953.0 407663.0 0
331496.0 410551.0 0
334337.0 410303.0 0
335852.0 407115.0 0
339505.0 408503.0 0
337422.0 410083.0 0
342396.0 408928.0 0
347098.0 407350.0 0
349531.0 408636.0 0
345915.0 410659.0 0
348111.0 411770.0 0
351528.0 410974.0 0
136756.0 417013.0 0
141206.0 413743.0 0
144261.0 413236.0 0
139368.0 415926.0 0
144382.0 416154.0 0
147663.0 413902.0 0
150852.0 414021.0 0
153591.0 414639.0 0
157081.0 414709.0 0
159712.0 413805.0 0
159563.0 415927.0 0
162646.0 412863.0 0
163667.0 415501.0 0
166375.0 414639.0 0
167073.0 412094.0 0
169115.0 415728.0 0
170250.0 412329.0 0
173155.0 413940.0 0
172181.0 416773.0 0
175901.0 413754.0 0
179486.0 413870.0 0
176167.0 416646.0 0
180104.0 416520.0 0
183500.0 413537.0 0
184322.0 415422.0 0
187195.0 412934.0 0
187547.0 415195.0 0
190148.0 414828.0 0
191299.0 412600.0 0
191194.0 416531.0 0
194087.0 413740.0 0
194300.0 416341.0 0
195956.0 411816.0 0
198692.0 414264.0 0
206107.0 411702.0 0
202381.0 413434.0 0
210091.0 411510.0 0
206390.0 415269.0 0
209842.0 414727.0 0
212699.0 411458.0 0
212103.0 415214.0 0
214593.0 414573.0 0
217818.0 413409.0 0
220449.0 415728.0 0
224058.0 410945.0 0
221132.0 412594.0 0
223638.0 414299.0 0
230644.0 411334.0 0
226724.0 414107.0 0
235138.0 411306.0 0
231240.0 414461.0 0
234611.0 414849.0 0
237713.0 414850.0 0
240001.0 412617.0 0
242849.0 411187.0 0
242955.0 414861.0 0
245916.0 412682.0 0
250585.0 414175.0 0
250973.0 410574.0 0
254237.0 413960.0 0
256993.0 410965.0 0
257355.0 415562.0 0
260019.0 413653.0 0
262791.0 412618.0 0
267535.0 410624.0 0
265736.0 414389.0 0
268238.0 415483.0 0
270345.0 412687.0 0
273395.0 412437.0 0
275832.0 413989.0 0
278293.0 412210.0 0
281865.0 412484.0 0
285053.0 412246.0 0
288474.0 413561.0 0
290304.0 411274.0 0
292724.0 412859.0 0
292564.0 415548.0 0
299156.0 411961.0 0
295068.0 411828.0 0
297174.0 413946.0 0
301954.0 412413.0 0
299575.0 416284.0 0
302410.0 415381.0 0
304586.0 412694.0 0
308281.0 413559.0 0
305681.0 415358.0 0
311107.0 411832.0 0
314708.0 412165.0 0
310746.0 416458.0 0
313476.0 415106.0 0
319339.0 412636.0 0
318042.0 415067.0 0
323441.0 411999.0 0
322186.0 413983.0 0
325257.0 416967.0 0
327335.0 414735.0 0
330805.0 414817.0 0
333094.0 413166.0 0
337104.0 412682.0 0
339140.0 413854.0 0
335769.0 414534.0 0
338192.0 415455.0 0
340326.0 412049.0 0
343040.0 412323.0 0
345211.0 414418.0 0
340506.0 416798.0 0
342038.0 415576.0 0
344065.0 416763.0 0
348000.0 415021.0 0
353802.0 412579.0 0
350616.0 415401.0 0
354223.0 416028.0 0
357011.0 413273.0 0
359371.0 415615.0 0
132408.0 420335.0 0
130336.0 422092.0 0
134870.0 418755.0 0
138802.0 420464.0 0
136348.0 421939.0 0
141304.0 418153.0 0
143012.0 420905.0 0
147290.0 417697.0 0
146057.0 420749.0 0
150236.0 417393.0 0
153325.0 418040.0 0
149875.0 420937.0 0
154175.0 420950.0 0
156428.0 417319.0 0
157758.0 419000.0 0
156505.0 422135.0 0
161133.0 417398.0 0
160515.0 419772.0 0
163981.0 420678.0 0
165004.0 418415.0 0
167994.0 418324.0 0
166335.0 422106.0 0
169229.0 420879.0 0
172690.0 419280.0 0
175970.0 418988.0 0
178534.0 418500.0 0
179808.0 420872.0 0
182347.0 418073.0 0
184504.0 419715.0 0
187402.0 418086.0 0
190087.0 419811.0 0
193400.0 419207.0 0
198387.0 417341.0 0
197167.0 421078.0 0
202655.0 417398.0 0
203491.0 420700.0 0
207660.0 418548.0 0
210144.0 418024.0 0
212401.0 419040.0 0
215150.0 418229.0 0
218070.0 417404.0 0
220133.0 420618.0 0
222756.0 417629.0 0
225416.0 418759.0 0
228682.0 417298.0 0
231719.0 418521.0 0
234604.0 418487.0 0
237552.0 419179.0 0
240387.0 417456.0 0
244638.0 417686.0 0
243221.0 420592.0 0
247141.0 416613.0 0
248913.0 419605.0 0
251952.0 417681.0 0
255249.0 418123.0 0
258261.0 420349.0 0
259921.0 417014.0 0
262712.0 416861.0 0
265517.0 419200.0 0
268938.0 419413.0 0
271201.0 416639.0 0
272038.0 420724.0 0
273849.0 415770.0 0
273405.0 419240.0 0
275898.0 418032.0 0
278848.0 416556.0 0
281950.0 416198.0 0
279857.0 420847.0 0
282345.0 419616.0 0
284973.0 416295.0 0
289119.0 417124.0 0
285305.0 420318.0 0
291065.0 420407.0 0
294104.0 419461.0 0
295064.0 416504.0 0
297420.0 417999.0 0
300095.0 420265.0 0
302963.0 419109.0 0
305941.0 418939.0 0
308832.0 418859.0 0
313854.0 419977.0 0
315937.0 417542.0 0
318699.0 419341.0 0
318337.0 421420.0 0
321377.0 417129.0 0
322427.0 421183.0 0
326132.0 420575.0 0
329437.0 420622.0 0
330824.0 418117.0 0
333797.0 418629.0 0
334100.0 421927.0 0
335950.0 417443.0 0
339074.0 419732.0 0
345121.0 419703.0 0
342420.0 420665.0 0
347528.0 418211.0 0
350165.0 419431.0 0
350048.0 422248.0 0
352335.0 418051.0 0
353934.0 420231.0 0
356855.0 417294.0 0
356710.0 419713.0 0
360078.0 419939.0 0
358070.0 421809.0 0
362010.0 417602.0 0
364439.0 418913.0 0
364679.0 422214.0 0
367387.0 419942.0 0
369495.0 421747.0 0
121992.0 426156.0 0
124862.0 425292.0 0
127721.0 423886.0 0
132509.0 425017.0 0
130007.0 426865.0 0
135048.0 424541.0 0
137799.0 426611.0 0
139463.0 424158.0 0
141961.0 423783.0 0
141905.0 426914.0 0
147167.0 423104.0 0
144532.0 424667.0 0
145399.0 426626.0 0
148866.0 425617.0 0
151558.0 422714.0 0
153242.0 424780.0 0
151929.0 426785.0 0
159585.0 422745.0 0
155532.0 425060.0 0
159562.0 425595.0 0
163029.0 423140.0 0
162598.0 425159.0 0
165550.0 424668.0 0
169842.0 424283.0 0
173494.0 422890.0 0
172311.0 426421.0 0
174235.0 425434.0 0
176843.0 422136.0 0
177698.0 424902.0 0
181729.0 422331.0 0
180386.0 425196.0 0
183434.0 424715.0 0
185561.0 422213.0 0
188382.0 423159.0 0
186397.0 426100.0 0
192147.0 422416.0 0
194018.0 422624.0 0
190914.0 425513.0 0
193835.0 425777.0 0
197274.0 425783.0 0
200623.0 422075.0 0
200915.0 425781.0 0
203895.0 424736.0 0
207217.0 421918.0 0
207991.0 425558.0 0
210657.0 422069.0 0
213825.0 422428.0 0
210990.0 425503.0 0
213961.0 425459.0 0
216551.0 421492.0 0
216752.0 424528.0 0
219039.0 424741.0 0
223230.0 421816.0 0
222022.0 425039.0 0
225340.0 425963.0 0
228901.0 421680.0 0
225836.0 422098.0 0
228616.0 426089.0 0
231739.0 425947.0 0
232197.0 422050.0 0
235094.0 422773.0 0
235041.0 426373.0 0
240223.0 421557.0 0
237743.0 422505.0 0
241668.0 425029.0 0
245397.0 425999.0 0
246485.0 422105.0 0
253054.0 421352.0 0
250445.0 423864.0 0
253422.0 425632.0 0
255856.0 423354.0 0
262280.0 420957.0 0
260475.0 423532.0 0
263897.0 423393.0 0
265808.0 422749.0 0
266361.0 426057.0 0
269107.0 423703.0 0
272940.0 423687.0 0
276443.0 422203.0 0
277757.0 426111.0 0
281038.0 424033.0 0
283631.0 423286.0 0
287719.0 422268.0 0
286243.0 424318.0 0
288798.0 424860.0 0
292091.0 424003.0 0
296745.0 421052.0 0
294967.0 423109.0 0
297887.0 424078.0 0
296144.0 425483.0 0
299684.0 427015.0 0
301142.0 423740.0 0
303651.0 422395.0 0
303372.0 426569.0 0
306343.0 422579.0 0
306736.0 425932.0 0
310558.0 422024.0 0
310959.0 425636.0 0
315618.0 423120.0 0
318438.0 424624.0 0
320836.0 422868.0 0
321405.0 426297.0 0
323999.0 425583.0 0
325964.0 423956.0 0
328508.0 424297.0 0
327983.0 426972.0 0
331591.0 423647.0 0
331258.0 427228.0 0
337271.0 422169.0 0
335100.0 425509.0 0
337971.0 425047.0 0
340137.0 423582.0 0
342534.0 424099.0 0
341839.0 426824.0 0
347291.0 422888.0 0
345727.0 425944.0 0
353238.0 422893.0 0
351968.0 425954.0 0
354858.0 427168.0 0
355960.0 423455.0 0
360411.0 422924.0 0
356957.0 425764.0 0
359329.0 426056.0 0
362603.0 423176.0 0
364074.0 426478.0 0
366390.0 423288.0 0
369129.0 424626.0 0
366489.0 425867.0 0
372307.0 422764.0 0
374139.0 424381.0 0
370880.0 426810.0 0
376659.0 425187.0 0
378411.0 425986.0 0
112705.0 432459.0 0
114349.0 430148.0 0
117562.0 430036.0 0
120018.0 428518.0 0
122782.0 430141.0 0
120190.0 432416.0 0
123671.0 432376.0 0
125248.0 428548.0 0
128329.0 429774.0 0
126502.0 432508.0 0
132377.0 427822.0 0
131133.0 431623.0 0
134963.0 427947.0 0
137790.0 430640.0 0
134568.0 430858.0 0
139434.0 428096.0 0
140332.0 430479.0 0
143587.0 428453.0 0
148167.0 428695.0 0
145249.0 430707.0 0
153320.0 429231.0 0
150639.0 430490.0 0
156513.0 427798.0 0
154837.0 432374.0 0
158957.0 431281.0 0
161752.0 428063.0 0
165078.0 428146.0 0
168756.0 427574.0 0
165463.0 431775.0 0
168540.0 432085.0 0
173039.0 428420.0 0
170731.0 430009.0 0
176239.0 428159.0 0
175790.0 431870.0 0
180215.0 429031.0 0
183511.0 428622.0 0
189056.0 428247.0 0
186350.0 430055.0 0
193048.0 428824.0 0
190445.0 431066.0 0
198993.0 428792.0 0
195829.0 430271.0 0
199421.0 431570.0 0
205408.0 427088.0 0
201920.0 429036.0 0
205185.0 431198.0 0
208136.0 428700.0 0
210670.0 428649.0 0
213897.0 429064.0 0
216463.0 427441.0 0
215584.0 431510.0 0
219573.0 429078.0 0
223397.0 429427.0 0
226246.0 430339.0 0
228798.0 430148.0 0
231975.0 429450.0 0
234788.0 429870.0 0
238006.0 426402.0 0
238129.0 430542.0 0
241237.0 429147.0 0
244211.0 430017.0 0
248912.0 427456.0 0
252313.0 428775.0 0
258021.0 426426.0 0
255482.0 428018.0 0
257926.0 430129.0 0
255284.0 431371.0 0
262715.0 426871.0 0
260343.0 429870.0 0
264673.0 430440.0 0
267982.0 429183.0 0
270169.0 426843.0 0
270851.0 430652.0 0
273660.0 427561.0 0
277077.0 430110.0 0
281333.0 427647.0 0
279833.0 430988.0 0
282972.0 431541.0 0
284616.0 426826.0 0
287938.0 427408.0 0
284956.0 430089.0 0
287985.0 431084.0 0
290987.0 427682.0 0
293912.0 426874.0 0
291450.0 430582.0 0
297314.0 427590.0 0
295244.0 430155.0 0
300318.0 429658.0 0
303487.0 430134.0 0
307100.0 429198.0 0
314636.0 427145.0 0
310466.0 428865.0 0
314297.0 430997.0 0
318275.0 427772.0 0
317080.0 430738.0 0
319820.0 430643.0 0
322967.0 430241.0 0
326175.0 429153.0 0
334557.0 427605.0 0
331081.0 430940.0 0
334446.0 430570.0 0
337128.0 429718.0 0
339222.0 427652.0 0
344253.0 428892.0 0
341835.0 430128.0 0
340559.0 432019.0 0
349534.0 427714.0 0
345722.0 431489.0 0
348388.0 430665.0 0
352966.0 430919.0 0
355938.0 429819.0 0
358246.0 429192.0 0
358006.0 431813.0 0
360422.0 431636.0 0
361590.0 428455.0 0
364058.0 431116.0 0
366605.0 430142.0 0
368780.0 428883.0 0
374276.0 427689.0 0
370950.0 431111.0 0
374080.0 430729.0 0
377878.0 428657.0 0
380086.0 427629.0 0
380858.0 430744.0 0
377300.0 430949.0 0
382247.0 428226.0 0
383787.0 430490.0 0
386221.0 431223.0 0
107723.0 435858.0 0
104855.0 437540.0 0
110416.0 434581.0 0
112766.0 436340.0 0
115935.0 432870.0 0
116568.0 436220.0 0
119916.0 434816.0 0
123281.0 435140.0 0
120745.0 437386.0 0
127572.0 434465.0 0
125432.0 437751.0 0
130518.0 434753.0 0
129187.0 437260.0 0
133130.0 436540.0 0
135876.0 434071.0 0
138790.0 435024.0 0
141647.0 432918.0 0
142718.0 436090.0 0
146628.0 433382.0 0
145752.0 436420.0 0
149936.0 433314.0 0
153086.0 433883.0 0
149870.0 436157.0 0
152990.0 436787.0 0
157019.0 434783.0 0
162374.0 432758.0 0
159855.0 435750.0 0
162519.0 435944.0 0
165833.0 435482.0 0
169394.0 434759.0 0
172660.0 432445.0 0
173060.0 435519.0 0
179616.0 432849.0 0
175844.0 435428.0 0
178499.0 436366.0 0
183363.0 432660.0 0
181829.0 436205.0 0
184080.0 434841.0 0
185077.0 436902.0 0
186997.0 433394.0 0
189525.0 436383.0 0
192872.0 433382.0 0
197004.0 434054.0 0
194697.0 436096.0 0
199474.0 434696.0 0
201782.0 433179.0 0
201699.0 436186.0 0
208625.0 432497.0 0
205362.0 435590.0 0
209031.0 435786.0 0
211155.0 431663.0 0
213073.0 434283.0 0
215950.0 436486.0 0
218458.0 433602.0 0
220547.0 436093.0 0
222483.0 432984.0 0
224041.0 436421.0 0
225593.0 432836.0 0
228283.0 435450.0 0
231194.0 432620.0 0
232284.0 436501.0 0
234734.0 433671.0 0
239132.0 434669.0 0
241511.0 432331.0 0
243490.0 434156.0 0
247614.0 432182.0 0
245861.0 436864.0 0
249892.0 436386.0 0
251793.0 432477.0 0
254200.0 435722.0 0
258050.0 433730.0 0
261376.0 432694.0 0
265023.0 434172.0 0
267739.0 432623.0 0
269918.0 433236.0 0
268522.0 436380.0 0
272300.0 435217.0 0
273959.0 432196.0 0
276565.0 433972.0 0
275453.0 436783.0 0
279410.0 434479.0 0
282957.0 435153.0 0
285496.0 433230.0 0
288581.0 434965.0 0
292486.0 434114.0 0
298246.0 432713.0 0
295627.0 436164.0 0
302135.0 433088.0 0
300073.0 436018.0 0
302359.0 436146.0 0
305975.0 432291.0 0
304763.0 434708.0 0
308422.0 436165.0 0
310313.0 432622.0 0
313322.0 435968.0 0
318889.0 433119.0 0
316398.0 434442.0 0
321041.0 434596.0 0
323612.0 433544.0 0
320602.0 436758.0 0
324883.0 436373.0 0
327459.0 432436.0 0
328378.0 436063.0 0
332512.0 435272.0 0
335567.0 433797.0 0
337980.0 432660.0 0
337426.0 436110.0 0
339129.0 435150.0 0
341885.0 434225.0 0
344458.0 433677.0 0
340697.0 437023.0 0
344397.0 437297.0 0
350402.0 433081.0 0
348174.0 434450.0 0
347779.0 437290.0 0
354684.0 433695.0 0
352510.0 435580.0 0
357608.0 434699.0 0
360738.0 435226.0 0
356210.0 437501.0 0
363358.0 433396.0 0
363201.0 437691.0 0
367380.0 433024.0 0
366089.0 435395.0 0
369994.0 433434.0 0
368523.0 437564.0 0
374351.0 433754.0 0
371681.0 435924.0 0
376893.0 435078.0 0
379312.0 433038.0 0
381760.0 435080.0 0
383770.0 433462.0 0
386121.0 434327.0 0
384054.0 437165.0 0
386196.0 436755.0 0
388291.0 432952.0 0
390557.0 434450.0 0
389058.0 437123.0 0
393203.0 435744.0 0
395442.0 437575.0 0
96157.5 442971.0 0
101766.0 438738.0 0
99198.5 441427.0 0
102224.0 441641.0 0
105564.0 440752.0 0
108925.0 439227.0 0
111603.0 438911.0 0
109867.0 441968.0 0
116073.0 440505.0 0
120190.0 439337.0 0
122629.0 439982.0 0
122307.0 442805.0 0
127208.0 441101.0 0
131073.0 440081.0 0
135714.0 438473.0 0
134534.0 440782.0 0
138756.0 438726.0 0
138487.0 441954.0 0
141707.0 438726.0 0
143367.0 440780.0 0
141068.0 442369.0 0
147065.0 439367.0 0
150656.0 439447.0 0
149718.0 442056.0 0
153166.0 441262.0 0
155902.0 437658.0 0
158757.0 439826.0 0
162764.0 438954.0 0
160948.0 442595.0 0
166653.0 439170.0 0
170567.0 438278.0 0
173924.0 439181.0 0
171243.0 442453.0 0
175546.0 437919.0 0
178134.0 439573.0 0
175274.0 442094.0 0
179732.0 442204.0 0
181421.0 439266.0 0
185360.0 440162.0 0
189490.0 440664.0 0
192848.0 438171.0 0
197594.0 437313.0 0
195362.0 440137.0 0
199850.0 439260.0 0
197956.0 442186.0 0
202961.0 438602.0 0
202034.0 441424.0 0
208107.0 439033.0 0
205523.0 439000.0 0
208950.0 442278.0 0
211739.0 438688.0 0
214997.0 440490.0 0
218595.0 438019.0 0
217986.0 440619.0 0
221676.0 439857.0 0
225721.0 439901.0 0
229547.0 440143.0 0
233290.0 439292.0 0
236611.0 437500.0 0
235736.0 441646.0 0
239571.0 440188.0 0
241739.0 436968.0 0
243760.0 440067.0 0
248373.0 440345.0 0
252407.0 439647.0 0
258008.0 437272.0 0
255899.0 439196.0 0
259466.0 441010.0 0
261546.0 436780.0 0
263702.0 441304.0 0
265177.0 437722.0 0
267924.0 440565.0 0
272193.0 439423.0 0
278488.0 437977.0 0
276052.0 441759.0 0
281545.0 438066.0 0
280454.0 441275.0 0
283909.0 440701.0 0
285977.0 437365.0 0
288487.0 440161.0 0
294111.0 439229.0 0
291249.0 438183.0 0
298239.0 438936.0 0
301879.0 439455.0 0
305685.0 438500.0 0
308802.0 442277.0 0
310979.0 438777.0 0
317949.0 437744.0 0
314842.0 439657.0 0
323149.0 439109.0 0
319912.0 441349.0 0
328481.0 439432.0 0
326116.0 442269.0 0
332374.0 438799.0 0
334756.0 440059.0 0
331293.0 440925.0 0
333595.0 442018.0 0
336261.0 437999.0 0
336716.0 442648.0 0
339436.0 440069.0 0
343372.0 440270.0 0
347548.0 440196.0 0
351374.0 437967.0 0
355307.0 440707.0 0
350646.0 441174.0 0
359341.0 438158.0 0
359253.0 440782.0 0
361725.0 440014.0 0
366088.0 440210.0 0
370228.0 439952.0 0
369203.0 442001.0 0
373620.0 438161.0 0
372629.0 441051.0 0
375897.0 442395.0 0
377299.0 438841.0 0
380406.0 437998.0 0
380614.0 441856.0 0
382891.0 439427.0 0
385263.0 441138.0 0
387688.0 440099.0 0
390885.0 441739.0 0
391550.0 438085.0 0
393664.0 439955.0 0
395760.0 441336.0 0
398073.0 439199.0 0
400410.0 441378.0 0
403398.0 442047.0 0
90848.7 445599.0 0
88839.6 447935.0 0
93444.1 444522.0 0
94008.8 447890.0 0
97461.7 446228.0 0
99942.4 444730.0 0
102635.0 443626.0 0
101760.0 445768.0 0
101220.0 447998.0 0
106462.0 443638.0 0
104083.0 445607.0 0
108414.0 446017.0 0
104661.0 447867.0 0
112685.0 443818.0 0
111715.0 447409.0 0
115523.0 446231.0 0
118955.0 443766.0 0
119710.0 447140.0 0
122906.0 447173.0 0
125224.0 444358.0 0
128941.0 444385.0 0
126635.0 447372.0 0
131632.0 443607.0 0
129276.0 446909.0 0
132479.0 446940.0 0
135264.0 443059.0 0
138652.0 445185.0 0
135704.0 446072.0 0
141852.0 445690.0 0
144367.0 443885.0 0
147042.0 442946.0 0
148845.0 444598.0 0
145640.0 445940.0 0
147170.0 446318.0 0
151205.0 443600.0 0
150216.0 446968.0 0
152848.0 445841.0 0
155882.0 443520.0 0
158812.0 444996.0 0
155823.0 447476.0 0
158748.0 447655.0 0
164220.0 442984.0 0
161332.0 445357.0 0
161779.0 447567.0 0
167994.0 442954.0 0
164974.0 446703.0 0
168110.0 445811.0 0
171032.0 446400.0 0
173713.0 445133.0 0
177664.0 444297.0 0
175905.0 447163.0 0
182476.0 442465.0 0
180553.0 446209.0 0
184116.0 445400.0 0
186922.0 443697.0 0
189616.0 446670.0 0
192456.0 443291.0 0
196012.0 444834.0 0
200399.0 444461.0 0
205229.0 442608.0 0
203228.0 445366.0 0
207172.0 446164.0 0
212201.0 443664.0 0
214244.0 446682.0 0
219146.0 442782.0 0
216280.0 444007.0 0
219603.0 446022.0 0
222726.0 443507.0 0
226883.0 443765.0 0
232216.0 442269.0 0
230289.0 444956.0 0
233682.0 445033.0 0
237579.0 444797.0 0
241756.0 444677.0 0
245920.0 443281.0 0
248698.0 444501.0 0
251103.0 443359.0 0
253294.0 446581.0 0
255371.0 443129.0 0
259042.0 444989.0 0
262329.0 445396.0 0
267231.0 445729.0 0
270753.0 443028.0 0
273383.0 445329.0 0
279827.0 445133.0 0
283543.0 444547.0 0
287000.0 442890.0 0
286808.0 446596.0 0
291688.0 441558.0 0
290147.0 444209.0 0
293025.0 446578.0 0
295619.0 442804.0 0
300037.0 443160.0 0
298665.0 446448.0 0
304064.0 443119.0 0
301612.0 446331.0 0
305228.0 446479.0 0
308430.0 446944.0 0
313168.0 442959.0 0
312538.0 446716.0 0
316533.0 443204.0 0
316205.0 446685.0 0
319748.0 445720.0 0
323417.0 444945.0 0
328021.0 445982.0 0
330390.0 443655.0 0
333787.0 444522.0 0
331241.0 446524.0 0
335412.0 446816.0 0
338475.0 445920.0 0
340896.0 443459.0 0
343514.0 445591.0 0
345701.0 442759.0 0
349706.0 444928.0 0
353725.0 444605.0 0
357740.0 443950.0 0
360670.0 444060.0 0
356211.0 446880.0 0
364515.0 443692.0 0
364040.0 447602.0 0
368947.0 445232.0 0
372111.0 443448.0 0
374600.0 445058.0 0
371763.0 447568.0 0
378596.0 443526.0 0
378992.0 445841.0 0
376987.0 447401.0 0
383183.0 443688.0 0
386021.0 445577.0 0
381709.0 446308.0 0
385524.0 447732.0 0
388014.0 444130.0 0
389691.0 446395.0 0
392531.0 444561.0 0
394909.0 443221.0 0
394402.0 447201.0 0
397284.0 443332.0 0
397794.0 446261.0 0
400930.0 445033.0 0
405607.0 443967.0 0
403737.0 446839.0 0
408468.0 445670.0 0
411107.0 447103.0 0
80554.1 452484.0 0
83565.6 450970.0 0
85900.0 448860.0 0
86897.4 452813.0 0
90827.2 450475.0 0
92454.7 453180.0 0
95780.5 450024.0 0
96075.4 453081.0 0
98892.2 448865.0 0
102984.0 449200.0 0
99742.1 451993.0 0
102955.0 452041.0 0
107295.0 448948.0 0
106285.0 451702.0 0
110326.0 450146.0 0
113614.0 448985.0 0
109419.0 452961.0 0
112921.0 452001.0 0
116269.0 448497.0 0
116617.0 451426.0 0
120026.0 450400.0 0
123283.0 450081.0 0
120700.0 452722.0 0
123254.0 452692.0 0
126573.0 450077.0 0
126484.0 453281.0 0
129920.0 449844.0 0
133290.0 450449.0 0
136310.0 449169.0 0
135398.0 452416.0 0
138261.0 453019.0 0
139628.0 449251.0 0
144187.0 448548.0 0
142432.0 452230.0 0
147916.0 449789.0 0
152686.0 449380.0 0
150288.0 452073.0 0
153067.0 452685.0 0
156112.0 450413.0 0
158659.0 450199.0 0
161993.0 450474.0 0
168082.0 447855.0 0
165810.0 450533.0 0
169567.0 450085.0 0
173458.0 449448.0 0
178355.0 449327.0 0
176202.0 451672.0 0
182114.0 449911.0 0
185713.0 448851.0 0
187119.0 452392.0 0
193797.0 447805.0 0
190693.0 450849.0 0
194683.0 451027.0 0
198341.0 447757.0 0
198145.0 452183.0 0
202871.0 449372.0 0
207459.0 450611.0 0
210685.0 447315.0 0
211099.0 450844.0 0
213927.0 449707.0 0
216741.0 447314.0 0
217572.0 450722.0 0
224093.0 446955.0 0
221574.0 449253.0 0
224908.0 451203.0 0
227246.0 448424.0 0
230968.0 449097.0 0
234667.0 448619.0 0
238612.0 448870.0 0
242564.0 450029.0 0
246197.0 447788.0 0
248746.0 451499.0 0
250278.0 447259.0 0
251612.0 450052.0 0
254422.0 449915.0 0
256993.0 447374.0 0
258171.0 450846.0 0
260263.0 448403.0 0
263876.0 449529.0 0
267534.0 451438.0 0
271145.0 448790.0 0
274616.0 450888.0 0
276610.0 447608.0 0
278558.0 452067.0 0
280208.0 449358.0 0
283508.0 448846.0 0
289635.0 447641.0 0
287406.0 451212.0 0
291708.0 450371.0 0
296214.0 447569.0 0
295911.0 451424.0 0
303834.0 449380.0 0
299997.0 449846.0 0
308053.0 451052.0 0
312560.0 451219.0 0
320176.0 449145.0 0
316994.0 450638.0 0
322864.0 448356.0 0
322971.0 451205.0 0
326173.0 448686.0 0
329391.0 448648.0 0
329763.0 452067.0 0
333131.0 449772.0 0
336760.0 450377.0 0
339562.0 449626.0 0
342471.0 448361.0 0
342377.0 452597.0 0
344795.0 450701.0 0
347342.0 448162.0 0
348716.0 451935.0 0
350680.0 449871.0 0
352075.0 448094.0 0
354626.0 449738.0 0
353054.0 452319.0 0
357181.0 450987.0 0
359869.0 448074.0 0
361265.0 451521.0 0
364382.0 450475.0 0
367214.0 448096.0 0
367648.0 450401.0 0
370244.0 450573.0 0
374764.0 449911.0 0
372907.0 452696.0 0
380596.0 450257.0 0
377804.0 452314.0 0
383589.0 449040.0 0
385654.0 451660.0 0
387329.0 449732.0 0
389478.0 448647.0 0
389809.0 452039.0 0
392227.0 449182.0 0
392563.0 451775.0 0
396103.0 451373.0 0
399023.0 449578.0 0
402251.0 449889.0 0
406406.0 451613.0 0
407009.0 448632.0 0
410166.0 449797.0 0
413655.0 448660.0 0
416300.0 450141.0 0
413811.0 451642.0 0
418425.0 452110.0 0
72089.7 458041.0 0
75019.4 456161.0 0
77732.6 454197.0 0
82239.7 455214.0 0
79214.3 457015.0 0
85004.4 455614.0 0
86170.9 458293.0 0
89118.4 454827.0 0
92585.3 456109.0 0
89547.4 457635.0 0
96832.4 456037.0 0
94444.5 458137.0 0
100137.0 455250.0 0
103356.0 455400.0 0
106456.0 454303.0 0
106835.0 456792.0 0
109597.0 455264.0 0
111672.0 456057.0 0
113500.0 454516.0 0
117420.0 454157.0 0
115609.0 456809.0 0
120328.0 455804.0 0
122855.0 454855.0 0
124847.0 456258.0 0
128338.0 457310.0 0
130555.0 453756.0 0
133685.0 455779.0 0
137553.0 456948.0 0
141240.0 455669.0 0
146172.0 453754.0 0
144318.0 457627.0 0
153380.0 455670.0 0
149873.0 455555.0 0
156328.0 453610.0 0
159608.0 453237.0 0
156204.0 457578.0 0
163288.0 454019.0 0
160259.0 456616.0 0
164105.0 457428.0 0
167510.0 454572.0 0
171916.0 453472.0 0
170084.0 457186.0 0
172549.0 456771.0 0
175726.0 454835.0 0
179799.0 453066.0 0
179050.0 456825.0 0
183619.0 453092.0 0
182756.0 456369.0 0
185492.0 455444.0 0
188469.0 455407.0 0
191868.0 454546.0 0
195195.0 454571.0 0
197769.0 456257.0 0
200754.0 453641.0 0
203860.0 453509.0 0
201911.0 457319.0 0
206818.0 454925.0 0
209997.0 453600.0 0
210404.0 456954.0 0
213608.0 454033.0 0
217747.0 455059.0 0
221583.0 453246.0 0
228541.0 453050.0 0
225198.0 455169.0 0
227740.0 457278.0 0
232171.0 452771.0 0
230561.0 456691.0 0
233452.0 455528.0 0
235459.0 452373.0 0
239152.0 453110.0 0
236640.0 456414.0 0
242308.0 454395.0 0
244269.0 457146.0 0
245430.0 453191.0 0
248438.0 456679.0 0
252179.0 454110.0 0
255871.0 453425.0 0
259111.0 455349.0 0
261260.0 452197.0 0
264367.0 454508.0 0
268297.0 456315.0 0
271237.0 453502.0 0
275314.0 455510.0 0
279405.0 455365.0 0
283002.0 453458.0 0
281528.0 457256.0 0
286849.0 455114.0 0
291297.0 455141.0 0
300271.0 453817.0 0
296426.0 456530.0 0
303835.0 453398.0 0
303272.0 456368.0 0
300651.0 457517.0 0
305569.0 456779.0 0
307499.0 455039.0 0
315224.0 454774.0 0
311531.0 456145.0 0
318404.0 454861.0 0
320860.0 452631.0 0
322375.0 455850.0 0
326004.0 453444.0 0
330027.0 455938.0 0
332712.0 454396.0 0
333014.0 457314.0 0
336008.0 453941.0 0
339402.0 453925.0 0
336142.0 457690.0 0
340568.0 458094.0 0
343891.0 455290.0 0
346337.0 453804.0 0
350293.0 454590.0 0
347946.0 455981.0 0
355405.0 454854.0 0
352564.0 457306.0 0
358183.0 453330.0 0
357388.0 457779.0 0
359915.0 456094.0 0
362886.0 454727.0 0
366395.0 453893.0 0
370092.0 454636.0 0
366900.0 457943.0 0
376052.0 455811.0 0
372246.0 457656.0 0
380626.0 455853.0 0
383048.0 453427.0 0
385518.0 455875.0 0
383122.0 456972.0 0
388043.0 453984.0 0
390847.0 456776.0 0
392703.0 454400.0 0
395435.0 454329.0 0
395945.0 456412.0 0
398757.0 456735.0 0
399388.0 453821.0 0
401440.0 457654.0 0
403430.0 453813.0 0
404431.0 457732.0 0
408014.0 456355.0 0
410368.0 453362.0 0
413639.0 455780.0 0
415710.0 453835.0 0
416744.0 457211.0 0
418670.0 455677.0 0
421304.0 453282.0 0
421432.0 457671.0 0
423723.0 455317.0 0
426695.0 456938.0 0
63192.4 462989.0 0
66242.9 461653.0 0
68698.7 459440.0 0
70671.2 461425.0 0
74092.3 460846.0 0
75989.7 458732.0 0
76743.1 461711.0 0
78351.2 459626.0 0
80067.4 461023.0 0
81874.4 458270.0 0
77739.9 463461.0 0
83323.1 460349.0 0
87602.1 461323.0 0
91447.2 460674.0 0
96789.4 460863.0 0
94160.9 463127.0 0
99511.4 458754.0 0
102730.0 458401.0 0
98875.3 463455.0 0
101205.0 462015.0 0
105368.0 459862.0 0
103974.0 462684.0 0
108138.0 461912.0 0
109324.0 458899.0 0
112821.0 459488.0 0
111016.0 463001.0 0
118403.0 458823.0 0
115876.0 461916.0 0
122598.0 458704.0 0
120489.0 462575.0 0
125520.0 459940.0 0
128057.0 461497.0 0
124092.0 462715.0 0
131845.0 460175.0 0
136170.0 461522.0 0
140583.0 459508.0 0
143689.0 461966.0 0
147801.0 458807.0 0
147715.0 461934.0 0
151891.0 459071.0 0
151190.0 463135.0 0
159153.0 460055.0 0
155620.0 462372.0 0
161497.0 459492.0 0
164381.0 462378.0 0
167498.0 458804.0 0
168929.0 462101.0 0
171074.0 459696.0 0
172789.0 462227.0 0
174860.0 458804.0 0
175712.0 462651.0 0
178434.0 460645.0 0
182628.0 460736.0 0
186433.0 458689.0 0
186449.0 462795.0 0
190098.0 458257.0 0
193740.0 458568.0 0
189584.0 461577.0 0
197699.0 460835.0 0
202624.0 461869.0 0
206336.0 458998.0 0
214374.0 459234.0 0
210095.0 461252.0 0
218087.0 458656.0 0
218741.0 461763.0 0
221597.0 457768.0 0
222083.0 462245.0 0
225347.0 459940.0 0
229070.0 461258.0 0
233534.0 459771.0 0
237950.0 460284.0 0
240537.0 457286.0 0
242578.0 461136.0 0
246282.0 460329.0 0
249948.0 462052.0 0
252100.0 458268.0 0
254597.0 461412.0 0
255506.0 457413.0 0
258444.0 460038.0 0
261772.0 458008.0 0
262236.0 462320.0 0
265662.0 459459.0 0
269880.0 461746.0 0
271783.0 457539.0 0
274597.0 460136.0 0
278328.0 458736.0 0
284942.0 458363.0 0
281824.0 461113.0 0
288767.0 458116.0 0
287834.0 461585.0 0
293429.0 458740.0 0
291584.0 460413.0 0
298819.0 461109.0 0
295274.0 461197.0 0
304054.0 460796.0 0
308356.0 458816.0 0
312842.0 461455.0 0
315737.0 458225.0 0
319467.0 458963.0 0
317774.0 462907.0 0
322979.0 459968.0 0
326687.0 458241.0 0
330868.0 459957.0 0
334466.0 460857.0 0
337949.0 461116.0 0
345579.0 458142.0 0
344051.0 461299.0 0
349417.0 459735.0 0
347106.0 462818.0 0
352332.0 462843.0 0
355277.0 460212.0 0
360699.0 459809.0 0
358405.0 462347.0 0
363530.0 458067.0 0
361741.0 462818.0 0
364836.0 461492.0 0
369452.0 459660.0 0
367772.0 462209.0 0
370790.0 462683.0 0
373854.0 461424.0 0
377359.0 459916.0 0
380748.0 459409.0 0
381195.0 462985.0 0
383906.0 459532.0 0
383947.0 462500.0 0
387497.0 459047.0 0
390635.0 460852.0 0
387307.0 462472.0 0
394261.0 459465.0 0
398124.0 460048.0 0
401509.0 460485.0 0
400392.0 463397.0 0
404850.0 461153.0 0
409382.0 460805.0 0
412965.0 458651.0 0
416377.0 460841.0 0
419925.0 460839.0 0
424559.0 459289.0 0
426850.0 461080.0 0
423499.0 462881.0 0
429558.0 459408.0 0
430617.0 463385.0 0
433514.0 461500.0 0
437035.0 462787.0 0
54511.6 468305.0 0
57913.1 466888.0 0
60330.0 464262.0 0
61054.1 468098.0 0
67413.1 464122.0 0
66199.1 466751.0 0
63308.5 465541.0 0
70599.7 464312.0 0
70831.9 467953.0 0
73869.4 463701.0 0
75473.1 466540.0 0
80954.9 464148.0 0
79038.4 467467.0 0
85299.1 463384.0 0
83794.1 466589.0 0
87448.8 466788.0 0
89334.7 464134.0 0
91931.7 465884.0 0
90215.3 468714.0 0
94266.0 467660.0 0
96418.0 465579.0 0
100015.0 466512.0 0
102478.0 465434.0 0
106575.0 464913.0 0
104455.0 467831.0 0
109700.0 466869.0 0
114098.0 465240.0 0
117651.0 465164.0 0
116255.0 467659.0 0
121371.0 466444.0 0
118369.0 467259.0 0
126733.0 463427.0 0
125140.0 466251.0 0
130380.0 465900.0 0
134980.0 465698.0 0
139884.0 463567.0 0
138644.0 467393.0 0
143032.0 466669.0 0
146503.0 465414.0 0
149485.0 466835.0 0
153441.0 466613.0 0
157597.0 466723.0 0
160107.0 463102.0 0
161906.0 467502.0 0
166741.0 466431.0 0
170701.0 464910.0 0
179055.0 464575.0 0
174755.0 466297.0 0
183414.0 466108.0 0
188826.0 466457.0 0
192880.0 463140.0 0
192720.0 467163.0 0
196132.0 465788.0 0
199821.0 464582.0 0
203120.0 466672.0 0
206606.0 463807.0 0
212724.0 463603.0 0
210210.0 465562.0 0
212931.0 466483.0 0
215966.0 464248.0 0
220181.0 466300.0 0
225096.0 465262.0 0
229159.0 466118.0 0
231866.0 463738.0 0
235763.0 464334.0 0
239713.0 463676.0 0
239183.0 467303.0 0
242576.0 466112.0 0
245880.0 464293.0 0
248616.0 466887.0 0
252938.0 465965.0 0
258161.0 465247.0 0
263637.0 467150.0 0
265934.0 463639.0 0
268123.0 467645.0 0
274137.0 464649.0 0
270985.0 465925.0 0
278065.0 463129.0 0
284763.0 463670.0 0
281360.0 466005.0 0
288418.0 465836.0 0
290688.0 463569.0 0
293695.0 464052.0 0
291472.0 466670.0 0
297525.0 465416.0 0
301595.0 464609.0 0
308327.0 463037.0 0
305930.0 466869.0 0
311241.0 466378.0 0
315507.0 466487.0 0
319483.0 467686.0 0
322508.0 464304.0 0
327018.0 462788.0 0
326870.0 467792.0 0
331356.0 464902.0 0
336303.0 464025.0 0
341097.0 463773.0 0
338860.0 466939.0 0
345169.0 466263.0 0
349787.0 465408.0 0
355627.0 465416.0 0
360272.0 466530.0 0
364256.0 465158.0 0
367895.0 465351.0 0
371395.0 466071.0 0
375102.0 465103.0 0
378349.0 463199.0 0
378830.0 466279.0 0
385497.0 465957.0 0
381739.0 466438.0 0
390414.0 463658.0 0
389496.0 466794.0 0
393933.0 463677.0 0
393367.0 467665.0 0
397441.0 463559.0 0
397071.0 466884.0 0
400372.0 467077.0 0
404000.0 465077.0 0
408262.0 465485.0 0
411809.0 466595.0 0
413092.0 463618.0 0
416696.0 465030.0 0
414936.0 467470.0 0
420468.0 466184.0 0
427258.0 464695.0 0
424618.0 466992.0 0
432163.0 466638.0 0
428749.0 468165.0 0
434924.0 464394.0 0
436616.0 468121.0 0
439446.0 465531.0 0
442739.0 467437.0 0
52016.4 471481.0 0
47688.8 473765.0 0
56832.5 470103.0 0
55779.2 472988.0 0
59692.1 471731.0 0
63909.4 469713.0 0
67185.6 469945.0 0
63430.6 472873.0 0
66915.0 473108.0 0
70059.3 471835.0 0
74551.5 470732.0 0
78327.7 471963.0 0
81963.8 469720.0 0
85782.4 469708.0 0
84079.6 472593.0 0
88279.2 471200.0 0
93151.3 470876.0 0
97777.1 469614.0 0
95954.5 473677.0 0
101793.0 469016.0 0
100518.0 472332.0 0
106836.0 469571.0 0
103672.0 471270.0 0
106415.0 473398.0 0
110985.0 471667.0 0
113422.0 468408.0 0
115504.0 470133.0 0
119096.0 470626.0 0
122818.0 469830.0 0
122834.0 473533.0 0
126609.0 470021.0 0
130569.0 470756.0 0
134206.0 470193.0 0
138261.0 471103.0 0
142078.0 470504.0 0
146335.0 469810.0 0
151060.0 470221.0 0
155199.0 470390.0 0
158858.0 470357.0 0
160764.0 471403.0 0
164874.0 471034.0 0
170596.0 469578.0 0
175223.0 470533.0 0
178557.0 468609.0 0
178193.0 472994.0 0
181528.0 470278.0 0
185602.0 470183.0 0
188877.0 471073.0 0
191565.0 470044.0 0
199280.0 467892.0 0
195858.0 471039.0 0
201013.0 470825.0 0
207501.0 467926.0 0
204668.0 470282.0 0
207861.0 472446.0 0
211216.0 469602.0 0
213635.0 471977.0 0
215886.0 468729.0 0
219305.0 470362.0 0
222737.0 469893.0 0
226408.0 469989.0 0
232844.0 467624.0 0
229952.0 470079.0 0
232952.0 471985.0 0
236381.0 469662.0 0
241024.0 471090.0 0
244953.0 468946.0 0
248091.0 471690.0 0
251249.0 469697.0 0
255389.0 470917.0 0
260491.0 470941.0 0
265544.0 472352.0 0
272666.0 468564.0 0
270170.0 471977.0 0
274607.0 471773.0 0
277301.0 468375.0 0
281481.0 470392.0 0
285384.0 468652.0 0
290208.0 471091.0 0
294423.0 468184.0 0
295213.0 471893.0 0
298105.0 470010.0 0
301468.0 468480.0 0
301028.0 472242.0 0
304473.0 471373.0 0
309551.0 470938.0 0
313601.0 469425.0 0
314090.0 473006.0 0
317079.0 470254.0 0
322849.0 469001.0 0
320890.0 472074.0 0
324773.0 471927.0 0
328204.0 471630.0 0
331203.0 469948.0 0
335015.0 468233.0 0
334695.0 472399.0 0
338563.0 470730.0 0
342244.0 469070.0 0
345973.0 471270.0 0
348294.0 468576.0 0
350020.0 472119.0 0
352753.0 468491.0 0
354537.0 473105.0 0
357372.0 469633.0 0
361431.0 470433.0 0
365406.0 469621.0 0
369561.0 469222.0 0
368511.0 472982.0 0
373751.0 468953.0 0
372043.0 471814.0 0
375958.0 472681.0 0
377405.0 469238.0 0
381379.0 470811.0 0
385380.0 469501.0 0
386042.0 473341.0 0
389432.0 470422.0 0
393483.0 471479.0 0
395968.0 472742.0 0
397326.0 470505.0 0
401639.0 470839.0 0
404565.0 468698.0 0
405996.0 472926.0 0
407856.0 469149.0 0
411176.0 469775.0 0
409906.0 473137.0 0
414542.0 470792.0 0
417607.0 468656.0 0
421597.0 470281.0 0
418123.0 472049.0 0
425292.0 469756.0 0
426815.0 472536.0 0
430031.0 471370.0 0
433328.0 470546.0 0
438470.0 472239.0 0
441412.0 470231.0 0
446058.0 469265.0 0
444499.0 472154.0 0
447190.0 473069.0 0
449187.0 470966.0 0
452157.0 473706.0 0
40823.1 477445.0 0
43742.6 475125.0 0
46586.2 477291.0 0
44244.8 478361.0 0
51377.4 476601.0 0
55393.7 476088.0 0
59553.3 475694.0 0
63818.4 476616.0 0
68058.6 476739.0 0
72550.7 474615.0 0
76618.6 475047.0 0
75313.6 477638.0 0
81288.9 474744.0 0
78822.1 478098.0 0
86681.7 473917.0 0
84629.7 476693.0 0
88808.9 476640.0 0
90676.3 473473.0 0
92888.9 475704.0 0
95621.2 477838.0 0
98716.0 476046.0 0
102689.0 476004.0 0
106498.0 477885.0 0
109232.0 475831.0 0
112399.0 475835.0 0
115518.0 473589.0 0
115867.0 478221.0 0
119003.0 474567.0 0
120319.0 477703.0 0
127800.0 474066.0 0
124768.0 477449.0 0
131856.0 474295.0 0
129754.0 477900.0 0
133405.0 478099.0 0
135709.0 474342.0 0
138157.0 478023.0 0
140289.0 474268.0 0
142717.0 477645.0 0
144346.0 473768.0 0
148668.0 473795.0 0
146437.0 477114.0 0
153073.0 474369.0 0
150359.0 478304.0 0
157558.0 473963.0 0
154660.0 477891.0 0
158570.0 478165.0 0
161579.0 474747.0 0
165134.0 475513.0 0
168374.0 473786.0 0
168245.0 477961.0 0
173021.0 474734.0 0
176650.0 477558.0 0
182888.0 473628.0 0
180370.0 476361.0 0
183968.0 478252.0 0
187032.0 474689.0 0
191789.0 474756.0 0
196036.0 476002.0 0
199425.0 474617.0 0
203783.0 473625.0 0
202541.0 477015.0 0
206719.0 476951.0 0
211641.0 475539.0 0
216706.0 473368.0 0
215722.0 476958.0 0
218554.0 476446.0 0
220858.0 473475.0 0
224738.0 473810.0 0
228865.0 474116.0 0
226743.0 477577.0 0
232558.0 475487.0 0
237084.0 474395.0 0
244393.0 473847.0 0
241101.0 475468.0 0
248096.0 476163.0 0
251609.0 473851.0 0
254693.0 475334.0 0
251863.0 477635.0 0
257916.0 475104.0 0
261729.0 474942.0 0
264714.0 477091.0 0
268544.0 476221.0 0
272979.0 476009.0 0
278709.0 473090.0 0
276181.0 474663.0 0
277669.0 477535.0 0
281800.0 473325.0 0
285152.0 473739.0 0
281445.0 476089.0 0
289262.0 476771.0 0
293891.0 475480.0 0
298445.0 474436.0 0
302453.0 475152.0 0
306826.0 475234.0 0
311354.0 476097.0 0
317721.0 473704.0 0
316213.0 477343.0 0
319799.0 475955.0 0
323822.0 476397.0 0
327216.0 474479.0 0
328361.0 478189.0 0
331411.0 474796.0 0
337868.0 473878.0 0
336211.0 477439.0 0
342286.0 474709.0 0
347860.0 475599.0 0
351688.0 475778.0 0
356007.0 478327.0 0
359449.0 473896.0 0
364460.0 474284.0 0
367910.0 476404.0 0
371941.0 475979.0 0
376410.0 477275.0 0
379530.0 474495.0 0
383106.0 476087.0 0
390595.0 474736.0 0
387534.0 477719.0 0
395402.0 475923.0 0
399202.0 474150.0 0
400747.0 478134.0 0
402638.0 474712.0 0
405711.0 477442.0 0
408884.0 476044.0 0
411955.0 477222.0 0
413380.0 474031.0 0
416253.0 475455.0 0
415301.0 478630.0 0
420168.0 475017.0 0
419571.0 478606.0 0
423361.0 473858.0 0
423855.0 478002.0 0
427343.0 476070.0 0
431022.0 474762.0 0
430390.0 478292.0 0
434862.0 473997.0 0
433693.0 477948.0 0
442214.0 475407.0 0
437931.0 477718.0 0
446682.0 476271.0 0
448855.0 474271.0 0
449649.0 476985.0 0
452938.0 478834.0 0
456039.0 475739.0 0
459852.0 476743.0 0
33670.2 481927.0 0
36976.1 479292.0 0
36842.9 482326.0 0
40927.5 481449.0 0
45208.2 481011.0 0
47878.1 479664.0 0
50729.8 481081.0 0
47497.5 483244.0 0
54143.0 479587.0 0
54065.7 482901.0 0
57029.0 483511.0 0
57917.0 479870.0 0
60379.6 483560.0 0
62232.8 480179.0 0
65769.8 480504.0 0
69241.7 480749.0 0
67573.4 483798.0 0
72125.0 483526.0 0
72460.3 479195.0 0
75765.4 481118.0 0
82405.4 479087.0 0
79736.3 482339.0 0
83237.1 481956.0 0
86580.3 480127.0 0
91503.5 479210.0 0
89460.5 483032.0 0
95298.5 482363.0 0
99260.4 479518.0 0
102844.0 480549.0 0
106496.0 481815.0 0
110805.0 479888.0 0
113919.0 483157.0 0
118091.0 482055.0 0
122091.0 481334.0 0
127160.0 481316.0 0
131305.0 482158.0 0
135721.0 482145.0 0
140928.0 481848.0 0
145960.0 481437.0 0
150096.0 482456.0 0
152823.0 481009.0 0
155864.0 481445.0 0
163184.0 479528.0 0
159488.0 481755.0 0
167111.0 482786.0 0
172168.0 480363.0 0
176392.0 481272.0 0
180184.0 480396.0 0
188588.0 479736.0 0
193851.0 479577.0 0
191617.0 482557.0 0
198906.0 479324.0 0
203746.0 480857.0 0
209118.0 481346.0 0
213532.0 479852.0 0
217690.0 480533.0 0
222202.0 477892.0 0
224930.0 480713.0 0
221397.0 482739.0 0
230405.0 478314.0 0
228328.0 481261.0 0
232868.0 482175.0 0
234227.0 478323.0 0
238524.0 479546.0 0
244046.0 478650.0 0
248659.0 480149.0 0
245539.0 482607.0 0
253001.0 481622.0 0
255796.0 478508.0 0
260185.0 479044.0 0
263811.0 481209.0 0
267378.0 480525.0 0
274846.0 479817.0 0
271211.0 479946.0 0
277814.0 482367.0 0
284974.0 479249.0 0
280771.0 479872.0 0
288629.0 481563.0 0
293022.0 480670.0 0
296978.0 478113.0 0
298009.0 482589.0 0
300565.0 478100.0 0
304605.0 478971.0 0
302425.0 481708.0 0
308753.0 479963.0 0
312583.0 479870.0 0
316052.0 482047.0 0
320680.0 480338.0 0
325506.0 481402.0 0
329824.0 481948.0 0
332016.0 478976.0 0
333557.0 481808.0 0
337277.0 481881.0 0
341781.0 480269.0 0
345621.0 478432.0 0
348552.0 479332.0 0
346636.0 481812.0 0
350228.0 482013.0 0
351393.0 478709.0 0
352854.0 481441.0 0
355391.0 482856.0 0
359741.0 482806.0 0
361785.0 478380.0 0
365738.0 478508.0 0
365152.0 482988.0 0
369684.0 480509.0 0
373673.0 480253.0 0
380351.0 479204.0 0
377166.0 481892.0 0
381199.0 483149.0 0
384356.0 480528.0 0
388807.0 481702.0 0
391899.0 478977.0 0
396704.0 480492.0 0
393224.0 482909.0 0
400628.0 482854.0 0
404054.0 481034.0 0
409216.0 479077.0 0
407856.0 482146.0 0
412460.0 481759.0 0
417253.0 482099.0 0
427513.0 480673.0 0
422619.0 482563.0 0
432042.0 481273.0 0
430702.0 483761.0 0
435416.0 480984.0 0
438818.0 482557.0 0
441656.0 479860.0 0
445267.0 479692.0 0
446375.0 482816.0 0
443053.0 483087.0 0
448865.0 480426.0 0
452431.0 482521.0 0
455819.0 482705.0 0
457878.0 479520.0 0
459906.0 483086.0 0
462350.0 479600.0 0
465844.0 480953.0 0
463858.0 484172.0 0
468634.0 483510.0 0
26079.3 485280.0 0
24443.2 487098.0 0
29766.1 485440.0 0
34321.9 485390.0 0
32948.0 489118.0 0
36985.6 484481.0 0
36803.7 488003.0 0
39689.7 485404.0 0
40863.7 489073.0 0
44068.1 485040.0 0
44940.5 488699.0 0
47849.1 487048.0 0
50801.3 484938.0 0
50930.3 488786.0 0
54601.2 487122.0 0
58560.6 486174.0 0
61680.8 487500.0 0
63736.7 484143.0 0
65694.4 487073.0 0
69495.4 486948.0 0
73619.5 487356.0 0
76466.8 484702.0 0
77223.1 488342.0 0
82102.8 484688.0 0
79759.7 486152.0 0
82625.3 486962.0 0
85381.0 484823.0 0
88113.7 487055.0 0
92108.1 486300.0 0
96918.9 487073.0 0
100164.0 483721.0 0
101114.0 488192.0 0
104180.0 484746.0 0
105949.0 488142.0 0
109217.0 484929.0 0
113038.0 486859.0 0
116968.0 486442.0 0
120466.0 485366.0 0
123192.0 487519.0 0
124210.0 484295.0 0
128252.0 486599.0 0
133269.0 486784.0 0
138603.0 486377.0 0
143554.0 485775.0 0
147870.0 485727.0 0
152864.0 485600.0 0
157655.0 484693.0 0
162366.0 485269.0 0
166708.0 487945.0 0
170668.0 485586.0 0
174344.0 488108.0 0
174460.0 483998.0 0
178661.0 484963.0 0
184095.0 483522.0 0
181764.0 487949.0 0
189130.0 485364.0 0
193617.0 484493.0 0
192888.0 488752.0 0
196673.0 483010.0 0
197002.0 486702.0 0
200451.0 483932.0 0
205147.0 485349.0 0
209707.0 486937.0 0
213985.0 484336.0 0
218166.0 484498.0 0
216629.0 487474.0 0
225188.0 484307.0 0
229263.0 485429.0 0
233101.0 487483.0 0
237013.0 484650.0 0
239915.0 487416.0 0
241651.0 483223.0 0
244397.0 487459.0 0
249609.0 485257.0 0
254383.0 486955.0 0
257200.0 483059.0 0
261284.0 483911.0 0
262605.0 486928.0 0
269987.0 484099.0 0
265661.0 485193.0 0
273705.0 483146.0 0
272709.0 487010.0 0
275589.0 485861.0 0
279205.0 486827.0 0
282842.0 483820.0 0
287154.0 485347.0 0
290822.0 484123.0 0
294284.0 485419.0 0
291031.0 487602.0 0
297976.0 487809.0 0
302127.0 485880.0 0
306527.0 483783.0 0
305370.0 487928.0 0
308974.0 487919.0 0
311611.0 484093.0 0
312837.0 488072.0 0
319238.0 484484.0 0
315764.0 486258.0 0
323176.0 484978.0 0
328052.0 486107.0 0
332118.0 485100.0 0
335875.0 485419.0 0
340058.0 484965.0 0
344240.0 484881.0 0
342097.0 488064.0 0
348886.0 485657.0 0
352777.0 484645.0 0
352768.0 488516.0 0
356884.0 487130.0 0
361639.0 487301.0 0
364732.0 487095.0 0
369570.0 484497.0 0
367625.0 487119.0 0
371284.0 487631.0 0
373444.0 483990.0 0
374983.0 487967.0 0
377872.0 485540.0 0
385532.0 484523.0 0
382188.0 487373.0 0
390109.0 485931.0 0
394142.0 486841.0 0
397388.0 484927.0 0
400548.0 486426.0 0
403992.0 484650.0 0
402516.0 487039.0 0
405447.0 488035.0 0
407768.0 485568.0 0
411106.0 485498.0 0
409299.0 488655.0 0
415403.0 485430.0 0
413591.0 488887.0 0
419497.0 485231.0 0
423172.0 487260.0 0
427083.0 484991.0 0
431763.0 487164.0 0
434622.0 484150.0 0
435826.0 487146.0 0
438078.0 485893.0 0
441358.0 486258.0 0
439078.0 488804.0 0
445266.0 485904.0 0
447895.0 488710.0 0
449484.0 484930.0 0
454006.0 485956.0 0
457374.0 485645.0 0
460616.0 487056.0 0
466892.0 486606.0 0
464163.0 488613.0 0
471196.0 488121.0 0
472156.0 484635.0 0
475019.0 487010.0 0
477900.0 489261.0 0
14763.3 493146.0 0
18209.5 491422.0 0
21487.6 489292.0 0
22234.6 493562.0 0
25754.2 489906.0 0
29217.2 490044.0 0
26824.1 494068.0 0
31382.3 493409.0 0
36338.9 492483.0 0
40373.2 493098.0 0
43714.2 491714.0 0
48140.0 492013.0 0
53641.1 491371.0 0
56979.1 492573.0 0
57958.8 489591.0 0
60993.8 492268.0 0
64002.5 489924.0 0
64834.2 493813.0 0
67671.6 490626.0 0
71318.0 490222.0 0
67768.2 494043.0 0
70603.7 493822.0 0
75133.6 492117.0 0
80587.0 490079.0 0
84910.7 489161.0 0
86401.0 491598.0 0
83643.8 493789.0 0
89518.5 490345.0 0
93725.5 489897.0 0
97228.2 491333.0 0
100590.0 492766.0 0
103682.0 491072.0 0
106708.0 492194.0 0
110117.0 489336.0 0
110689.0 493816.0 0
115147.0 490662.0 0
120007.0 489532.0 0
119107.0 493319.0 0
125035.0 491145.0 0
130619.0 491628.0 0
136007.0 491227.0 0
141413.0 490355.0 0
145470.0 488661.0 0
145584.0 493427.0 0
149090.0 489560.0 0
153035.0 490759.0 0
157914.0 489398.0 0
162980.0 490684.0 0
166805.0 492961.0 0
170417.0 490520.0 0
174156.0 492819.0 0
178223.0 490139.0 0
181982.0 492185.0 0
185521.0 488982.0 0
189232.0 491505.0 0
196729.0 491201.0 0
201232.0 488788.0 0
205600.0 489391.0 0
208927.0 492252.0 0
213676.0 489766.0 0
217429.0 493104.0 0
221209.0 488511.0 0
226096.0 488316.0 0
225361.0 491868.0 0
229129.0 490182.0 0
232817.0 492522.0 0
236801.0 489959.0 0
241183.0 492019.0 0
248408.0 489482.0 0
246426.0 492217.0 0
251443.0 490969.0 0
255623.0 490962.0 0
259067.0 488267.0 0
264137.0 490910.0 0
269034.0 488923.0 0
275301.0 489817.0 0
279510.0 491149.0 0
283850.0 489151.0 0
288266.0 489804.0 0
286414.0 493131.0 0
294175.0 489579.0 0
302244.0 490417.0 0
306447.0 491592.0 0
311498.0 492216.0 0
316102.0 490418.0 0
319755.0 488407.0 0
324296.0 489857.0 0
328731.0 490987.0 0
333680.0 489879.0 0
338714.0 488560.0 0
337995.0 491542.0 0
345645.0 489260.0 0
342151.0 492506.0 0
349509.0 490121.0 0
355465.0 491107.0 0
352299.0 492883.0 0
359900.0 491693.0 0
364990.0 490464.0 0
368929.0 490448.0 0
373116.0 492126.0 0
376478.0 493315.0 0
378480.0 490305.0 0
383511.0 492283.0 0
387196.0 489355.0 0
392327.0 490623.0 0
395883.0 492870.0 0
397561.0 489308.0 0
401778.0 490169.0 0
399170.0 493561.0 0
406422.0 491695.0 0
411013.0 492655.0 0
415852.0 493556.0 0
418966.0 489521.0 0
423773.0 491411.0 0
427301.0 489087.0 0
430851.0 490711.0 0
427933.0 492829.0 0
435298.0 490585.0 0
439856.0 492555.0 0
443741.0 490046.0 0
448927.0 493137.0 0
452030.0 489241.0 0
453867.0 493123.0 0
456663.0 489583.0 0
458101.0 493406.0 0
461139.0 490870.0 0
465775.0 492917.0 0
467483.0 489607.0 0
470763.0 492703.0 0
474806.0 491423.0 0
477618.0 494521.0 0
481205.0 491972.0 0
485306.0 494225.0 0
8932.67 496514.0 0
6139.77 499315.0 0
11743.1 495046.0 0
14016.1 497860.0 0
17869.5 495138.0 0
20672.7 497219.0 0
17948.9 498856.0 0
24420.9 498307.0 0
29374.9 497723.0 0
34143.3 497214.0 0
38661.2 496606.0 0
41646.3 499439.0 0
43416.3 495384.0 0
51639.1 494857.0 0
47656.4 497960.0 0
55315.4 495586.0 0
53065.4 499098.0 0
58868.9 495564.0 0
57611.6 499197.0 0
62524.6 497860.0 0
67472.1 497458.0 0
72287.1 497484.0 0
75916.7 495958.0 0
78093.9 496938.0 0
79343.2 494109.0 0
81185.3 498215.0 0
85686.8 497792.0 0
88201.4 494400.0 0
90208.1 497775.0 0
93044.3 494035.0 0
97224.3 495533.0 0
94021.9 498544.0 0
101408.0 496749.0 0
103817.0 493974.0 0
106228.0 496876.0 0
110957.0 498557.0 0
115102.0 495713.0 0
123153.0 495501.0 0
118835.0 497901.0 0
127347.0 494545.0 0
127098.0 498645.0 0
130149.0 495769.0 0
134151.0 495749.0 0
139591.0 495930.0 0
144160.0 498080.0 0
148048.0 497635.0 0
150279.0 494211.0 0
151693.0 498027.0 0
155589.0 495339.0 0
160226.0 493849.0 0
163449.0 495307.0 0
160144.0 498376.0 0
166606.0 497405.0 0
170508.0 495326.0 0
178232.0 494748.0 0
174485.0 497303.0 0
182152.0 496879.0 0
185493.0 494043.0 0
188777.0 495635.0 0
186182.0 498228.0 0
192933.0 494597.0 0
197240.0 495675.0 0
200063.0 493541.0 0
204056.0 493320.0 0
201406.0 498245.0 0
206466.0 496359.0 0
213079.0 494177.0 0
209884.0 497355.0 0
214702.0 498182.0 0
222100.0 493389.0 0
220372.0 497774.0 0
229021.0 494241.0 0
225267.0 495979.0 0
228474.0 497140.0 0
232238.0 498138.0 0
236808.0 495048.0 0
243766.0 494952.0 0
240785.0 497209.0 0
245330.0 498702.0 0
246268.0 495537.0 0
249626.0 495719.0 0
254322.0 494599.0 0
259307.0 493860.0 0
263766.0 496636.0 0
267154.0 494382.0 0
268562.0 498466.0 0
271557.0 493549.0 0
276621.0 494597.0 0
282240.0 495317.0 0
286999.0 497594.0 0
291436.0 493950.0 0
295163.0 498702.0 0
297736.0 493470.0 0
303177.0 495038.0 0
307949.0 496202.0 0
312817.0 497460.0 0
315799.0 494637.0 0
320531.0 493846.0 0
322448.0 498282.0 0
326037.0 495402.0 0
331577.0 495071.0 0
337475.0 495648.0 0
343221.0 497853.0 0
347431.0 494102.0 0
347826.0 498096.0 0
352184.0 497102.0 0
356226.0 494770.0 0
356367.0 498454.0 0
360458.0 497198.0 0
363758.0 494328.0 0
365098.0 497599.0 0
368525.0 494568.0 0
372360.0 495972.0 0
375791.0 496046.0 0
379814.0 494869.0 0
384220.0 496938.0 0
388783.0 494536.0 0
393352.0 494642.0 0
396481.0 495969.0 0
392611.0 498517.0 0
400124.0 497000.0 0
403177.0 494279.0 0
404283.0 498312.0 0
407977.0 495943.0 0
412687.0 497003.0 0
420752.0 494432.0 0
417667.0 497827.0 0
422490.0 499051.0 0
424959.0 495518.0 0
428993.0 496693.0 0
432212.0 494011.0 0
436468.0 495029.0 0
433111.0 499093.0 0
437513.0 498391.0 0
440537.0 496438.0 0
444068.0 494981.0 0
447701.0 498027.0 0
443628.0 499070.0 0
452046.0 497199.0 0
455814.0 496179.0 0
459955.0 497763.0 0
461965.0 494490.0 0
464968.0 497311.0 0
469120.0 496937.0 0
473896.0 496207.0 0
481798.0 497207.0 0
486736.0 499450.0 0
488851.0 495728.0 0
491789.0 498025.0 0
2504.24 500069.0 0
10023.7 500655.0 0
13756.4 501685.0 0
16618.6 502373.0 0
20742.7 501118.0 0
23814.9 503251.0 0
27407.4 501708.0 0
31914.1 501171.0 0
36759.8 500572.0 0
39990.7 503774.0 0
45211.7 502630.0 0
50379.8 502606.0 0
55476.8 502995.0 0
60719.8 502646.0 0
65472.8 501732.0 0
69173.7 500937.0 0
72846.9 502231.0 0
76360.8 499386.0 0
78627.7 504062.0 0
83822.2 501642.0 0
88471.3 501631.0 0
93868.2 503359.0 0
98040.8 499862.0 0
102855.0 500944.0 0
107564.0 501308.0 0
105562.0 503636.0 0
111409.0 503389.0 0
114908.0 500367.0 0
122605.0 500405.0 0
118666.0 502702.0 0
125552.0 502671.0 0
131810.0 499515.0 0
129241.0 502896.0 0
133107.0 503269.0 0
136285.0 500480.0 0
141370.0 502345.0 0
146170.0 500907.0 0
149838.0 501310.0 0
155163.0 501444.0 0
163954.0 501112.0 0
159841.0 502952.0 0
167276.0 500385.0 0
167649.0 503634.0 0
170741.0 499996.0 0
178341.0 498779.0 0
175289.0 501667.0 0
179604.0 502218.0 0
183238.0 500665.0 0
187273.0 502685.0 0
190274.0 498891.0 0
191490.0 502205.0 0
195269.0 499859.0 0
199173.0 502754.0 0
203484.0 503161.0 0
206305.0 499624.0 0
208718.0 503962.0 0
211231.0 500532.0 0
213627.0 503014.0 0
217435.0 501759.0 0
221825.0 503472.0 0
227558.0 499725.0 0
224460.0 499970.0 0
226400.0 503029.0 0
229865.0 502371.0 0
233814.0 503075.0 0
237093.0 500081.0 0
241444.0 501467.0 0
249346.0 500560.0 0
245672.0 503124.0 0
252742.0 498670.0 0
253856.0 502355.0 0
257099.0 498747.0 0
257838.0 503468.0 0
261338.0 500528.0 0
265536.0 502765.0 0
273645.0 498793.0 0
278409.0 498940.0 0
283017.0 501646.0 0
288118.0 502203.0 0
290965.0 499326.0 0
293209.0 503158.0 0
300034.0 498861.0 0
304657.0 499568.0 0
301878.0 503356.0 0
309717.0 500636.0 0
306892.0 503946.0 0
313613.0 501782.0 0
318041.0 499340.0 0
321831.0 502990.0 0
325721.0 500755.0 0
329316.0 498911.0 0
329944.0 503369.0 0
333798.0 500057.0 0
339000.0 501237.0 0
342970.0 502505.0 0
350120.0 500373.0 0
346316.0 501482.0 0
354136.0 501718.0 0
358900.0 501473.0 0
363710.0 501490.0 0
368883.0 499395.0 0
367717.0 503274.0 0
373944.0 499482.0 0
371697.0 503245.0 0
379670.0 499664.0 0
376719.0 503851.0 0
384609.0 501049.0 0
385856.0 503854.0 0
387860.0 499098.0 0
389911.0 502929.0 0
394922.0 503325.0 0
397344.0 499734.0 0
401104.0 501003.0 0
398716.0 503288.0 0
405147.0 502290.0 0
409485.0 500215.0 0
408198.0 503671.0 0
414593.0 501133.0 0
419525.0 502347.0 0
427005.0 499928.0 0
424648.0 504014.0 0
430000.0 503087.0 0
434489.0 503150.0 0
437568.0 501691.0 0
440454.0 499632.0 0
441685.0 502966.0 0
446365.0 502045.0 0
450661.0 501254.0 0
455397.0 500227.0 0
457725.0 503558.0 0
459753.0 501565.0 0
463778.0 500766.0 0
467955.0 500598.0 0
466583.0 503953.0 0
470250.0 504315.0 0
472384.0 500536.0 0
477731.0 500044.0 0
475427.0 505090.0 0
482628.0 501277.0 0
486077.0 504079.0 0
491374.0 502859.0 0
495592.0 500003.0 0
497388.0 503194.0 0
2114.05 503692.0 0
3320.39 508065.0 0
7789.17 505158.0 0
12517.2 504297.0 0
15998.1 505808.0 0
12559.3 508579.0 0
19901.2 505181.0 0
24473.1 508491.0 0
29184.2 504836.0 0
30219.0 508286.0 0
34254.7 505140.0 0
38478.1 508443.0 0
43551.6 507015.0 0
47876.4 506282.0 0
52354.7 506813.0 0
58276.1 507878.0 0
64210.2 505700.0 0
68704.5 504819.0 0
67567.4 509614.0 0
72948.0 506451.0 0
76404.4 508841.0 0
84836.6 506323.0 0
89504.9 505639.0 0
88614.4 508851.0 0
91994.4 507750.0 0
96378.8 508840.0 0
99130.2 504309.0 0
100856.0 508308.0 0
103300.0 505687.0 0
107958.0 506311.0 0
112791.0 508426.0 0
115131.0 504734.0 0
118117.0 507733.0 0
122262.0 505051.0 0
126443.0 506389.0 0
131171.0 506750.0 0
136665.0 506045.0 0
142166.0 508226.0 0
146141.0 504590.0 0
147121.0 508394.0 0
151226.0 505501.0 0
157166.0 507566.0 0
163297.0 506186.0 0
168168.0 507838.0 0
172019.0 504742.0 0
177176.0 506339.0 0
182825.0 504715.0 0
181475.0 508615.0 0
186199.0 508071.0 0
191206.0 506320.0 0
195794.0 504953.0 0
200088.0 507475.0 0
204882.0 507193.0 0
212666.0 507297.0 0
217056.0 505779.0 0
220772.0 508560.0 0
225482.0 507297.0 0
230230.0 506514.0 0
234703.0 507564.0 0
238170.0 504588.0 0
242348.0 505320.0 0
245595.0 507388.0 0
250110.0 505623.0 0
254854.0 506440.0 0
258744.0 507839.0 0
261503.0 504742.0 0
263141.0 508528.0 0
267383.0 507410.0 0
271146.0 503737.0 0
273749.0 507879.0 0
277029.0 503701.0 0
277112.0 508368.0 0
281266.0 507042.0 0
285794.0 506101.0 0
289755.0 505765.0 0
293993.0 508106.0 0
297464.0 502889.0 0
299207.0 507599.0 0
303938.0 507419.0 0
311445.0 505573.0 0
317011.0 505635.0 0
321971.0 507686.0 0
325892.0 505724.0 0
330142.0 508368.0 0
335198.0 505665.0 0
340537.0 505756.0 0
345178.0 506016.0 0
349673.0 504208.0 0
353692.0 506638.0 0
357202.0 504848.0 0
360975.0 505712.0 0
365361.0 506479.0 0
369248.0 506293.0 0
373527.0 507811.0 0
378725.0 508293.0 0
381981.0 504794.0 0
384216.0 507149.0 0
387516.0 507389.0 0
392832.0 507859.0 0
397995.0 507154.0 0
401986.0 505075.0 0
406383.0 506179.0 0
411848.0 505674.0 0
408612.0 509193.0 0
416720.0 504763.0 0
416434.0 508554.0 0
420357.0 506459.0 0
424138.0 509295.0 0
428778.0 507649.0 0
433404.0 506566.0 0
436826.0 509096.0 0
437885.0 505358.0 0
441248.0 507086.0 0
444704.0 505587.0 0
449033.0 505945.0 0
453555.0 504495.0 0
457801.0 507735.0 0
453085.0 509245.0 0
462375.0 505324.0 0
467124.0 508329.0 0
471405.0 508169.0 0
478646.0 509389.0 0
474647.0 509661.0 0
481045.0 505261.0 0
484943.0 507762.0 0
489361.0 507846.0 0
494497.0 506884.0 0
498302.0 506651.0 0
8378.74 510760.0 0
14381.2 513866.0 0
17961.0 509416.0 0
20528.8 513659.0 0
29216.3 511717.0 0
26312.3 513385.0 0
31241.0 514018.0 0
33798.7 510789.0 0
38269.6 513268.0 0
42336.4 510932.0 0
47229.8 510829.0 0
53007.4 511863.0 0
58352.2 513928.0 0
61211.8 511863.0 0
63005.1 509660.0 0
64162.3 514023.0 0
72480.2 511248.0 0
77115.1 512509.0 0
80739.9 509460.0 0
80920.4 513775.0 0
85578.0 511887.0 0
91470.9 512346.0 0
96523.2 513758.0 0
100782.0 512340.0 0
104497.0 509650.0 0
108468.0 510399.0 0
111489.0 513527.0 0
116462.0 511895.0 0
122526.0 509381.0 0
127677.0 511347.0 0
133579.0 510688.0 0
137952.0 510554.0 0
140849.0 513278.0 0
145745.0 512962.0 0
151419.0 511122.0 0
160715.0 510824.0 0
161335.0 513911.0 0
164629.0 511190.0 0
168954.0 511822.0 0
172840.0 509531.0 0
177928.0 512447.0 0
183778.0 512335.0 0
190408.0 512204.0 0
194882.0 512537.0 0
195286.0 509222.0 0
198605.0 512669.0 0
203731.0 511546.0 0
208460.0 509389.0 0
212105.0 511498.0 0
216294.0 510417.0 0
219687.0 513578.0 0
223448.0 511875.0 0
227075.0 511279.0 0
231707.0 511966.0 0
237070.0 511708.0 0
241526.0 509595.0 0
246619.0 512293.0 0
251027.0 510334.0 0
255274.0 511046.0 0
260473.0 513480.0 0
266398.0 511986.0 0
270586.0 510160.0 0
274826.0 511978.0 0
279380.0 511491.0 0
284434.0 511348.0 0
289459.0 510098.0 0
292777.0 512777.0 0
297329.0 512673.0 0
303337.0 512466.0 0
308079.0 509086.0 0
309569.0 513652.0 0
313231.0 510181.0 0
318716.0 511628.0 0
325544.0 510795.0 0
330050.0 513390.0 0
334258.0 510936.0 0
338394.0 509484.0 0
342477.0 509397.0 0
345783.0 512490.0 0
349372.0 509190.0 0
353662.0 510722.0 0
357690.0 509264.0 0
356149.0 513522.0 0
362618.0 510869.0 0
368625.0 511055.0 0
376231.0 510547.0 0
373858.0 512640.0 0
378213.0 512716.0 0
383410.0 511098.0 0
389490.0 512034.0 0
394867.0 512794.0 0
398773.0 511226.0 0
403533.0 510127.0 0
408347.0 513133.0 0
412549.0 510966.0 0
420173.0 510188.0 0
417239.0 513418.0 0
422198.0 513434.0 0
428248.0 513022.0 0
432688.0 510838.0 0
435965.0 512261.0 0
440464.0 510670.0 0
445061.0 509646.0 0
443172.0 513953.0 0
447627.0 514008.0 0
449352.0 510197.0 0
452205.0 513467.0 0
457437.0 513033.0 0
462402.0 510457.0 0
461980.0 514655.0 0
466310.0 513311.0 0
471207.0 512540.0 0
476291.0 513250.0 0
482428.0 509578.0 0
481333.0 513400.0 0
486440.0 512109.0 0
493090.0 511220.0 0
497881.0 509788.0 0
497516.0 513582.0 0
3677.13 514131.0 0
9263.56 515643.0 0
12585.6 519038.0 0
17980.9 518670.0 0
21608.2 517301.0 0
24541.4 516315.0 0
28777.6 516580.0 0
34481.9 515256.0 0
38070.3 517813.0 0
43072.3 515427.0 0
45873.9 519158.0 0
48789.8 515869.0 0
53809.2 517204.0 0
61069.5 518361.0 0
57083.2 519428.0 0
66129.0 518967.0 0
69129.4 514974.0 0
74515.7 515996.0 0
78614.1 517027.0 0
83841.5 516764.0 0
88187.9 516462.0 0
93625.0 518412.0 0
99666.8 516894.0 0
105658.0 514555.0 0
107148.0 518251.0 0
110548.0 518142.0 0
115889.0 517234.0 0
121884.0 514650.0 0
126979.0 516208.0 0
131400.0 515331.0 0
136289.0 514645.0 0
134172.0 518693.0 0
139762.0 517933.0 0
144360.0 517802.0 0
150471.0 517960.0 0
156605.0 514224.0 0
160517.0 518338.0 0
164680.0 516056.0 0
168111.0 514915.0 0
167862.0 517770.0 0
172309.0 514952.0 0
176557.0 518513.0 0
181782.0 516899.0 0
186510.0 516041.0 0
194777.0 515969.0 0
190582.0 517748.0 0
198739.0 518547.0 0
201809.0 515649.0 0
208468.0 515322.0 0
214940.0 515863.0 0
223439.0 516717.0 0
227800.0 515016.0 0
235307.0 516481.0 0
241290.0 515464.0 0
251679.0 514578.0 0
270513.0 515409.0 0
278049.0 516335.0 0
282924.0 516022.0 0
288612.0 515142.0 0
285766.0 518973.0 0
294081.0 518109.0 0
300068.0 516834.0 0
306412.0 516382.0 0
314598.0 514764.0 0
310177.0 518496.0 0
314881.0 519067.0 0
320482.0 517699.0 0
325843.0 515627.0 0
329776.0 518794.0 0
334792.0 516194.0 0
340508.0 514293.0 0
345569.0 518291.0 0
351004.0 514801.0 0
355646.0 518148.0 0
360108.0 515589.0 0
365522.0 516205.0 0
371047.0 516087.0 0
375778.0 516427.0 0
380981.0 517005.0 0
386462.0 516185.0 0
391698.0 516794.0 0
400884.0 514545.0 0
397403.0 518150.0 0
404762.0 514993.0 0
403036.0 518566.0 0
408155.0 518277.0 0
412499.0 515499.0 0
416048.0 517689.0 0
420331.0 518014.0 0
424811.0 516509.0 0
429337.0 518446.0 0
433653.0 515745.0 0
437599.0 519296.0 0
438636.0 514673.0 0
441711.0 517604.0 0
446222.0 518978.0 0
450689.0 517460.0 0
454792.0 517312.0 0
459517.0 517874.0 0
464520.0 518481.0 0
469174.0 516823.0 0
473425.0 517259.0 0
478635.0 516475.0 0
481896.0 518068.0 0
484541.0 515831.0 0
490265.0 514951.0 0
494066.0 514832.0 0
493607.0 518561.0 0
498001.0 517542.0 0
3196.26 519971.0 0
8177.47 519755.0 0
6169.09 523811.0 0
10610.0 523350.0 0
15346.1 523087.0 0
20324.9 523263.0 0
23190.4 520011.0 0
25217.7 523950.0 0
27951.8 520653.0 0
32985.4 519766.0 0
41742.2 520194.0 0
38413.7 521369.0 0
36018.5 524025.0 0
40327.3 524109.0 0
45483.6 523654.0 0
50087.8 520452.0 0
50687.8 524668.0 0
54123.1 521886.0 0
58788.4 523039.0 0
63208.9 522245.0 0
71241.2 519917.0 0
67588.4 524477.0 0
76442.1 520626.0 0
81375.9 520607.0 0
86008.1 520228.0 0
89335.5 522383.0 0
93776.6 524422.0 0
98757.4 521917.0 0
103531.0 519510.0 0
107955.0 521789.0 0
112984.0 522160.0 0
117810.0 524269.0 0
120384.0 520040.0 0
123347.0 524170.0 0
124716.0 519393.0 0
129549.0 520167.0 0
133432.0 523580.0 0
136997.0 521228.0 0
141026.0 522588.0 0
145761.0 522290.0 0
149874.0 523738.0 0
156174.0 519249.0 0
154358.0 523179.0 0
159381.0 523227.0 0
165176.0 521225.0 0
171075.0 520549.0 0
175567.0 524014.0 0
180737.0 521935.0 0
185257.0 520409.0 0
194176.0 520885.0 0
204049.0 519448.0 0
281616.0 519787.0 0
299080.0 521314.0 0
303910.0 520006.0 0
312252.0 522993.0 0
317629.0 523483.0 0
322892.0 523175.0 0
325388.0 519837.0 0
327599.0 523123.0 0
334189.0 521847.0 0
339062.0 520016.0 0
342915.0 523752.0 0
347362.0 522935.0 0
350941.0 520448.0 0
360063.0 520429.0 0
364976.0 521965.0 0
369083.0 519758.0 0
369881.0 524078.0 0
373542.0 520570.0 0
378581.0 522063.0 0
383912.0 521903.0 0
388393.0 520558.0 0
392985.0 521954.0 0
400875.0 522346.0 0
397161.0 523267.0 0
405830.0 523280.0 0
410608.0 523451.0 0
412918.0 520156.0 0
416915.0 520767.0 0
415031.0 524708.0 0
420068.0 523201.0 0
424757.0 521204.0 0
429546.0 523599.0 0
433513.0 520983.0 0
441880.0 521786.0 0
438247.0 523248.0 0
446358.0 524252.0 0
450945.0 521993.0 0
456466.0 522003.0 0
461156.0 521503.0 0
464511.0 523370.0 0
468937.0 521342.0 0
473330.0 521638.0 0
477422.0 520080.0 0
481515.0 522755.0 0
487506.0 520061.0 0
492972.0 523010.0 0
497558.0 521629.0 0
2040.09 524730.0 0
2887.71 529124.0 0
8246.85 527930.0 0
13083.4 527108.0 0
17869.1 527406.0 0
22349.0 526965.0 0
30643.6 525074.0 0
26510.5 528672.0 0
30533.1 529622.0 0
35227.1 529086.0 0
41036.5 528641.0 0
46970.4 529113.0 0
51779.8 528575.0 0
55096.4 526126.0 0
59764.4 527964.0 0
63086.3 525482.0 0
64664.6 528714.0 0
70734.6 529219.0 0
73689.7 524910.0 0
76284.7 529344.0 0
78895.9 524977.0 0
81481.8 529336.0 0
84660.2 524787.0 0
86024.3 529410.0 0
89475.1 526868.0 0
97928.3 527227.0 0
93498.3 529317.0 0
103528.0 525384.0 0
109037.0 526266.0 0
113556.0 527245.0 0
120591.0 527873.0 0
128640.0 525717.0 0
124685.0 529232.0 0
137508.0 524863.0 0
134764.0 528091.0 0
143452.0 525927.0 0
139789.0 528734.0 0
147179.0 526591.0 0
152038.0 528362.0 0
168565.0 524953.0 0
337967.0 524754.0 0
350289.0 524815.0 0
346869.0 527111.0 0
355622.0 524371.0 0
351663.0 528196.0 0
358570.0 528643.0 0
361386.0 525721.0 0
366078.0 527226.0 0
370757.0 529020.0 0
374813.0 525727.0 0
381297.0 524728.0 0
379575.0 528215.0 0
384101.0 526693.0 0
388923.0 525604.0 0
394766.0 526541.0 0
399629.0 526949.0 0
404388.0 528325.0 0
409297.0 527174.0 0
419320.0 528497.0 0
424245.0 526308.0 0
428931.0 528743.0 0
434727.0 526531.0 0
441293.0 527108.0 0
446312.0 528667.0 0
450772.0 527243.0 0
455820.0 527057.0 0
460461.0 525445.0 0
464325.0 527643.0 0
459392.0 529995.0 0
467585.0 525092.0 0
468416.0 528601.0 0
471409.0 525303.0 0
476507.0 525067.0 0
481042.0 527961.0 0
485381.0 525694.0 0
489705.0 525536.0 0
487668.0 529052.0 0
493911.0 527296.0 0
490935.0 529643.0 0
497913.0 525747.0 0
497788.0 529893.0 0
2908.12 534595.0 0
7842.31 532889.0 0
11733.5 530914.0 0
15951.4 531980.0 0
21758.1 532002.0 0
27213.2 533290.0 0
31919.5 533392.0 0
38579.5 533181.0 0
43544.7 533341.0 0
50782.8 532589.0 0
55484.4 531119.0 0
62016.0 532289.0 0
66884.9 532747.0 0
73552.4 533849.0 0
78902.0 533859.0 0
84517.8 533794.0 0
89511.8 531316.0 0
96043.7 533029.0 0
101587.0 531872.0 0
106747.0 529794.0 0
106854.0 534108.0 0
110991.0 531637.0 0
117269.0 531047.0 0
130923.0 529886.0 0
362261.0 530690.0 0
367125.0 532547.0 0
375308.0 530865.0 0
382067.0 532496.0 0
386769.0 530811.0 0
391789.0 530011.0 0
396525.0 530776.0 0
401091.0 531688.0 0
407994.0 531811.0 0
413573.0 530332.0 0
418077.0 533413.0 0
424143.0 531596.0 0
428974.0 533641.0 0
432811.0 531691.0 0
438011.0 532441.0 0
443763.0 532176.0 0
448889.0 531917.0 0
454078.0 531875.0 0
463612.0 532334.0 0
469198.0 533989.0 0
472744.0 529645.0 0
476945.0 529663.0 0
475260.0 534092.0 0
479637.0 532468.0 0
484214.0 532168.0 0
489269.0 533174.0 0
493814.0 531981.0 0
497583.0 534388.0 0
1222.07 538313.0 0
7421.53 538070.0 0
12232.8 535445.0 0
17980.7 537426.0 0
24496.6 537838.0 0
35382.6 537357.0 0
40917.2 537922.0 0
47805.7 536381.0 0
53816.5 535779.0 0
56379.3 538878.0 0
58358.1 535195.0 0
63519.5 537719.0 0
69445.6 537128.0 0
91890.9 534992.0 0
98560.5 535816.0 0
393437.0 535112.0 0
404195.0 535556.0 0
410234.0 536399.0 0
414463.0 535395.0 0
421935.0 536671.0 0
427296.0 538082.0 0
432869.0 536244.0 0
437577.0 538250.0 0
441839.0 536250.0 0
446710.0 536437.0 0
451695.0 536463.0 0
458864.0 535317.0 0
464254.0 537817.0 0
472718.0 538872.0 0
477782.0 538475.0 0
481352.0 536015.0 0
486170.0 537627.0 0
492878.0 537255.0 0
497912.0 538783.0 0
3503.67 539383.0 0
11956.2 540321.0 0
15520.7 541784.0 0
489703.0 541574.0 0
495244.0 541741.0 0
POINT_DATA 5000
SCALARS Radius float 1
LOOKUP_TABLE default
5258.36 5061.3 3163.97 3642.12 5812.43 5580.89 6810.52 5415.48 5120.0 4998.37 6182.6 5492.18 5867.73 3951.75 4499.64 5542.27 5122.66 5906.14 7513.1 5254.28 4402.52 4436.4 4182.53 5733.48 3588.44 5645.7 5553.16 2938.66 6110.27 4008.92 5840.26 5073.35 4834.9 3863.18 2356.98 5484.83 5351.6 4715.55 6059.59 5013.56 4375.68 5054.98 5484.19 6030.06 5170.02 3557.27 4927.31 4688.68 4517.56 5903.42 4672.91 3761.32 5176.86 4118.05 4366.19 3672.51 5065.13 4940.78 5561.06 5670.04 6044.04 5085.53 5538.89 4730.36 5926.61 2720.68 5701.86 4238.81 4468.59 5325.02 5200.76 4862.64 5185.34 5205.43 4432.58 3955.56 2635.86 5292.64 6166.5 5936.02 3615.22 5305.17 4380.59 6716.79 3850.77 5325.36 6759.9 7021.47 5416.38 6051.14 4955.55 3563.63 5836.15 4345.55 5885.03 2837.58 3653.41 5246.2 5017.13 3673.74 6116.18 6684.56 3968.64 4688.67 4385.06 7184.19 4290.3 4231.61 4861.08 3942.53 3379.84 7613.27 4133.88 5546.39 4094.62 5945.65 5418.62 5493.32 4601.27 5740.68 4195.44 4277.89 3261.21 6704.06 5600.93 3871.88 3856.01 4827.23 4390.66 4911.47 7447.37 4924.6 4733.32 2812.98 2899.43 3867.67 2924.37 4003.05 4827.82 3607.45 3589.27 4951.03 4665.12 4927.02 6483.19 6230.49 7054.71 3641.64 5747.75 4796.33 5539.32 6496.85 5541.59 4124.71 5279.39 6337.56 5803.39 4381.97 3255.82 6257.19 5242.73 4065.69 5603.15 5399.73 4712.33 4805.87 5759.91 4333.2 3936.02 5980.74 4174.52 5109.54 6458.82 5489.43 5054.25 7325.81 5360.19 4874.39 4839.34 5083.08 2980.99 5728.85 5525.39 5863.59 3998.5 4024.3 4737.14 4695.45 4660.72 5390.22 3888.21 6038.78 5227.21 5123.52 3997.1 3260.67 3038.33 3383.4 3856.1 4044.71 5816.2 3829.13 3091.3 5789.98 5527.54 5573.7 4727.62 4055.8 4794.96 6186.19 4840.01 6834.49 5938.34 6394.38 5555.28 5169.36 4686.65 5834.74 5556.96 6052.7 3921.18 5697.78 4667.36 4295.38 4392.68 4780.03 3554.9 5495.39 4487.31 4002.16 5693.81 4778.34 2540.31 4138.16 6138.47 6029.66 5697.4 4005.44 5206.78 6425.26 5143.58 4484.76 5611.2 4220.65 7933.0 5173.87 4455.12 5380.13 5118.27 5932.23 5788.23 5891.05 6902.81 5529.52 5252.48 3996.0 4015.92 5708.81 4684.5 5120.49 6302.8 4270.95 5280.17 5555.88 5028.96 6362.12 3866.16 5152.36 5826.64 6820.42 4894.16 4896.52 5711.87 5791.61 5581.75 3666.57 3798.62 4254.17 5615.42 4091.31 7199.21 6124.89 5542.21 5924.89 5043.05 3486.22 4414.54 5409.61 5262.61 6038.2 5713.22 6732.43 3183.98 4524.28 4511.82 3778.1 4727.24 6959.81 4816.2 6321.41 3372.79 4941.22 5282.64 4479.66 6392.01 6644.76 6372.62 4523.7 5255.32 5337.48 5481.78 6894.71 4937.14 5201.36 4306.53 5094.81 5972.06 5861.71 4312.67 4359.04 5017.78 3794.63 5015.69 6175.81 6677.09 5813.4 4829.35 4089.76 4751.02 5184.56 3369.13 4715.72 5367.2 5308.1 3043.85 6730.19 4937.02 7565.34 5637.59 3307.12 4467.94 5551.36 6038.14 6135.57 5998.38 4270.24 4947.52 4989.15 4520.1 4305.57 5874.89 3791.79 5201.67 4754.05 3192.41 5526.55 4987.87 3315.57 4669.66 4808.52 5461.13 4907.89 5629.19 6037.08 3103.0 4049.23 6084.86 3586.91 3115.91 5478.92 5094.44 4850.81 4933.21 5375.47 4723.12 5024.9 5659.17 4717.05 4562.29 5423.8 4164.13 3417.33 4926.42 4642.34 5153.74 4165.81 4293.03 4424.7 4389.21 4925.44 4951.47 6084.93 5246.61 4764.96 5607.24 4726.76 3599.45 5655.21 5090.24 5091.39 6756.95 5601.05 4948.92 5810.84 3748.24 4655.49 4809.42 4566.18 5856.11 5287.2 4234.94 5013.13 5080.66 5110.45 5248.77 4528.09 3556.85 3895.51 4128.98 6291.51 6246.22 5215.15 4307.28 5046.33 5053.92 5839.13 5923.5 4073.93 2240.39 5096.78 6324.23 4382.74 4516.43 4749.8 4384.42 4230.54 4493.48 6163.38 4964.09 3459.9 4093.08 4997.27 5543.27 4109.88 4980.85 3327.49 3960.8 5714.58 4923.9 3329.99 4973.78 3947.47 4083.97 5208.32 4607.02 6673.96 5882.89 4188.32 4100.38 5538.93 5804.71 5727.3 5020.12 6352.26 4242.52 3735.44 4907.06 4645.41 4786.6 4433.59 5740.84 4727.24 4612.68 4651.28 6355.42 4362.19 5082.6 3693.63 3937.74 6061.47 4449.22 5628.24 5992.26 5070.39 4613.31 5091.68 3296.27 4713.25 6243.0 5441.96 5174.89 4288.3 5370.52 4739.42 3697.96 4899.11 3847.38 4745.45 5356.51 3057.03 5163.9 4973.83 5530.87 3320.52 4929.8 4151.94 5690.56 5244.78 5478.47 6142.37 5806.08 4853.39 5365.89 3130.65 4511.54 5196.0 4204.84 6119.09 5069.25 5048.89 3991.03 3435.9 4652.29 5774.81 4723.48 5344.77 4278.07 5281.28 3818.59 4863.72 2631.9 5495.68 6043.3 3912.37 6445.94 4281.49 4310.18 4129.43 5927.43 5492.26 5762.84 5119.37 3982.23 5351.39 5243.29 4336.42 3402.32 7589.94 5004.67 5409.33 4466.03 4178.15 4898.94 4733.04 7531.29 5935.03 4755.47 3161.47 6390.78 6826.57 4495.87 5027.98 3746.31 5097.87 5346.27 7267.18 4087.15 4143.08 5489.34 5002.48 5952.75 4262.82 5537.72 4320.28 6342.25 4685.34 6327.9 4220.88 6519.71 6640.13 3092.35 5210.03 4583.31 4306.11 5903.66 5419.37 5985.29 4247.23 5788.66 3903.75 4485.99 7435.25 4788.87 5498.32 5543.46 6475.1 6255.18 4758.21 7500.97 5708.14 3920.42 6332.36 5542.14 4218.06 3843.58 6082.81 5449.18 3629.96 4714.54 3320.11 5507.24 6022.17 4503.89 5313.66 4528.49 5275.32 4268.65 4649.22 4694.83 4354.08 5509.42 4520.62 5475.7 5475.8 5314.69 6050.81 6022.72 5527.33 4969.21 2691.29 6256.02 4277.88 6623.85 8332.24 4931.53 6691.39 5293.9 3191.99 5110.37 5367.52 4048.37 5030.91 4322.15 4659.59 5101.59 6851.54 3813.22 5570.3 5935.47 2651.49 5512.23 4711.62 5349.31 5394.55 4256.43 5936.36 5229.48 5415.19 5127.16 4249.46 4244.99 4643.31 5965.81 6917.52 5402.21 4668.71 7228.46 5102.36 5787.31 7134.64 4602.25 5480.13 6142.94 4931.38 5664.98 3485.26 3240.09 5025.39 4548.16 4377.07 3695.36 3848.93 6020.48 5234.29 5200.05 4114.24 4645.58 5670.2 2976.22 5094.52 2682.24 5928.32 4016.18 5526.75 5435.74 4275.57 5560.26 5327.45 6185.89 2330.66 3702.37 4177.19 3691.0 3990.25 4752.51 2845.98 4880.14 5320.92 3948.23 5228.18 4342.9 5978.82 6122.55 5978.9 4270.53 4329.05 4736.58 4792.73 4556.36 3369.23 5264.06 3688.8 4515.71 5893.5 4547.19 3817.13 3963.86 5076.35 3844.9 5273.35 4091.8 5181.4 5166.79 4662.56 5417.15 4946.74 5996.33 3950.63 4612.62 3619.07 6385.23 2983.99 3997.96 5660.85 4750.17 3758.07 3587.05 4373.45 4989.09 4982.31 6362.14 5269.18 4406.1 6719.88 6155.31 6308.71 2739.94 4790.08 4194.5 5082.47 5513.6 4901.41 5358.59 6202.55 6387.01 5023.15 6375.99 4871.44 4853.02 6259.23 3931.07 3457.48 3405.98 3688.16 4681.72 6631.19 5661.62 4467.04 5817.25 2614.4 4439.35 3460.94 6184.4 6205.93 3828.81 6229.37 5289.52 5034.59 5314.85 5065.11 4553.56 5911.67 4223.33 4187.56 3629.62 4840.84 4997.27 5138.31 3708.04 4551.24 3610.4 4621.75 6338.89 7111.16 6480.17 4564.34 3838.56 6248.81 5088.44 4998.21 6079.11 4256.67 7440.72 3949.6 4945.39 5376.71 4867.08 5626.61 5407.78 6648.68 6363.92 6632.99 4923.24 5830.72 5309.98 4307.48 6718.19 4305.43 5450.44 4942.77 3927.99 5069.84 5868.82 5329.64 3323.28 4051.44 4301.06 5344.25 4501.51 6013.14 4602.86 4581.13 3856.59 2765.2 4219.07 5372.61 5413.79 5584.06 3686.21 6445.22 5872.05 4962.77 5323.3 4427.28 3082.32 6430.39 4765.02 3658.37 4448.13 5703.6 6326.18 4713.74 5061.98 4537.6 6179.96 4419.61 7177.44 6260.79 4407.87 4082.57 4236.14 3848.54 5080.18 5941.4 5266.5 4454.63 4716.19 4050.9 5135.69 5514.76 5344.0 3456.98 5191.63 5379.87 5925.6 5572.95 6723.16 4746.52 5402.24 4948.5 5013.42 5651.07 5210.48 6101.92 4635.6 6239.84 5370.85 5070.29 5629.39 4807.28 4768.61 4266.03 4084.49 5075.55 4220.03 5703.07 5147.36 4662.43 4563.46 3963.76 5169.9 5282.91 6510.17 4871.96 4263.33 4066.38 6695.82 6049.55 5709.62 6405.76 4290.14 4593.7 5987.17 4043.57 3979.82 5586.81 5006.58 5130.91 3868.18 4527.02 5383.07 7552.94 4519.22 3627.55 4409.63 5865.39 5521.25 3178.54 5949.46 6157.04 2684.03 5246.47 3776.94 2261.36 4522.21 5280.69 6923.84 5449.46 6113.54 4043.66 5733.62 6553.94 4425.84 5282.51 3797.33 5331.02 4523.88 5742.65 4241.89 5835.78 5054.74 4877.67 6045.46 4763.45 4138.42 4481.53 3824.16 5011.31 5330.45 3689.45 5077.33 3948.17 4531.14 4959.34 4247.15 4602.85 7644.38 4051.34 5278.36 3661.9 5136.08 5107.23 4010.57 4187.31 5506.19 6191.29 6719.94 6166.29 4950.67 5453.6 5294.77 4709.05 3077.84 5255.18 5528.53 3004.16 4460.92 7256.35 5945.89 5592.32 4800.69 3279.1 4099.77 4020.32 3498.2 5941.72 4245.72 3815.26 4150.99 4292.06 5681.38 6318.18 5045.38 5350.88 5125.78 4790.78 5452.83 6552.22 6422.84 5379.09 6004.68 5534.94 5180.76 6799.4 5222.16 5533.42 5558.68 3240.51 4599.38 5730.33 7422.36 4527.99 5161.01 4628.4 5409.63 5227.59 4630.82 4813.08 5726.66 5460.65 4767.78 3062.43 4105.55 4042.28 5912.61 4978.31 4402.67 4403.98 4981.9 4948.98 5794.24 4537.32 6562.18 4216.92 4478.15 5147.67 3771.48 5577.04 4986.77 6034.41 4591.87 5178.99 4027.09 5801.99 4502.18 3312.06 6218.95 5533.72 4993.35 3678.08 4802.32 5146.37 5518.57 5463.48 4543.1 5545.46 4376.7 5190.61 4298.15 6051.83 3973.12 4263.16 6024.75 5860.67 6799.88 4540.86 5426.78 5235.17 4863.23 3555.86 6566.1 5381.16 4560.84 5227.52 4414.48 6086.96 5163.02 4127.74 4541.21 4704.72 5908.1 5445.87 5198.77 5423.0 5643.58 5215.05 5197.52 5344.43 5615.35 4135.62 4860.33 5266.22 3361.26 4983.39 3685.13 3418.99 4690.55 5366.52 7132.12 5417.8 4836.16 5680.94 5581.55 5832.37 6550.44 3764.06 4642.93 5941.9 6642.76 5987.42 5990.52 6109.49 5652.0 4340.76 4435.36 6065.22 6386.78 5565.13 4996.99 6193.35 4656.78 4302.5 3066.13 2476.04 6048.7 4571.7 4850.01 4107.03 4138.46 2775.04 5137.34 5198.29 3975.31 4373.47 6070.58 5490.43 6169.11 4896.11 5172.53 4318.48 6132.95 5226.97 5754.18 4480.95 4558.15 6552.21 5227.02 4232.16 5151.11 5300.96 5193.01 8325.01 4440.81 4523.39 5829.22 5567.93 3764.1 2967.38 4835.83 5463.41 4421.12 4929.75 5254.49 6045.22 4221.28 4470.61 4456.39 4156.38 4631.83 4092.24 6009.88 4177.94 4344.58 4271.69 3970.25 4044.45 3821.72 6035.6 4285.32 3627.82 5262.19 5022.28 4285.66 5339.38 5008.63 4004.35 4763.96 4270.74 3450.93 6293.89 5132.68 5737.75 6595.03 4350.12 5670.0 3834.43 6609.84 4344.51 4707.06 5491.37 3781.77 3474.5 6348.03 3860.83 4792.39 5732.27 5434.47 4497.78 4243.79 5811.18 5332.65 4779.5 4159.35 4237.98 6649.96 3701.27 4729.43 5105.16 5991.09 6006.16 4164.68 5896.46 4742.68 4810.12 6898.19 6449.45 5526.14 4244.9 6048.86 4986.51 3872.61 5311.03 3930.79 5293.51 4238.4 5365.24 5097.45 4446.06 2761.07 5742.47 3778.02 3603.51 4367.78 4095.75 5135.96 5222.51 6074.94 5658.37 4250.88 3475.67 5278.56 7038.89 6917.62 5146.37 5433.65 6451.33 5225.33 5604.35 3091.67 6439.37 4614.3 4896.39 5233.78 4384.88 6887.27 4562.74 5126.91 6008.49 4806.34 4678.38 3942.07 5050.65 5634.83 5316.75 3633.87 3929.19 7099.43 4516.28 4470.4 5315.4 4611.53 6894.26 5255.12 6408.83 6625.18 4185.61 4047.87 5099.21 4573.72 4917.99 5636.4 3319.67 4076.59 4298.45 5164.1 4428.14 4972.17 5699.53 3783.54 4222.77 5268.38 3863.67 5527.23 5631.14 4814.12 5067.56 6137.8 4442.22 4343.78 4887.76 5413.31 6477.91 4332.87 4303.19 3633.79 4081.97 6081.14 5421.53 5480.83 5448.61 4827.33 5776.57 5495.84 6268.1 4502.5 5922.5 5499.11 5347.48 4374.35 6396.74 5776.37 5486.68 5100.25 5678.96 5296.29 2681.29 5094.48 5576.92 4586.19 4163.74 5323.91 6969.28 5698.96 6471.42 5283.8 6464.15 6016.19 6685.4 4850.06 4479.11 6332.01 4805.33 7044.29 5980.95 4013.38 7085.01 5263.3 3012.99 4909.65 4008.15 6316.56 5401.99 6420.81 5514.84 5134.39 3914.2 7144.24 5653.9 5133.97 7443.72 5022.8 3784.5 6133.92 3937.08 5782.6 6261.42 5113.21 4862.21 5965.78 4011.77 4527.08 5252.34 4410.55 2965.79 4287.63 3921.08 4190.31 5805.86 5346.68 4049.02 5997.88 4360.23 5889.35 6234.32 4585.31 5010.04 4570.98 4296.69 4275.07 5825.38 3665.95 6238.32 6372.13 6804.79 5369.5 4124.49 5535.91 5714.25 3230.13 6176.67 5325.96 5016.02 4581.37 4234.18 6193.08 3352.35 2735.53 5116.6 5887.01 4669.06 4811.32 6400.08 4286.49 4256.57 5580.92 4715.58 4607.85 4220.46 4287.53 3600.43 5683.26 5598.74 6600.94 5371.02 4906.82 5513.57 7055.53 3719.84 5013.67 4178.4 5669.65 5011.84 5253.55 5820.48 7034.11 2586.12 5433.8 6125.34 5975.63 4274.61 6314.07 5083.41 5683.61 7055.42 4558.46 3836.45 5731.57 5020.71 5662.55 5737.92 5839.71 3755.95 3056.7 5591.76 4394.56 5388.78 6101.13 5599.7 6918.35 5404.01 5642.35 6357.47 4793.65 5955.86 4533.37 4532.89 5412.24 2779.99 5887.38 4920.21 4049.16 5851.61 3936.95 6153.94 6069.3 3862.77 5168.35 6523.86 7693.4 6184.88 4743.59 3317.83 5208.14 5784.3 3532.3 5769.98 6088.68 5937.08 5131.24 6070.3 4788.58 6155.1 5046.21 5260.34 5729.23 5206.48 5934.22 4709.35 6586.45 3780.23 5826.04 3471.03 5690.26 4359.62 6057.22 5062.71 4156.2 6946.21 4289.17 4497.59 5564.02 6444.77 5759.46 6248.6 5443.58 5687.85 6401.43 5703.74 4747.55 5464.68 2685.81 4510.8 5896.26 4587.67 5093.82 5951.81 3924.14 4834.3 6348.54 4066.57 6101.57 4891.38 3856.53 2949.12 6040.74 4848.46 5742.09 6942.34 4393.16 3658.05 6836.82 5478.11 3858.17 3477.1 4631.99 3747.03 5388.39 2783.85 4356.49 4326.48 4437.07 5829.32 3449.37 4396.25 4450.7 5151.52 5973.33 3583.21 2221.99 4643.56 5442.32 5612.21 4135.08 5291.9 5894.61 5128.57 4929.14 5687.83 5196.67 5004.23 6496.67 5139.5 5876.71 5474.8 6442.69 5624.49 6320.71 5226.0 5339.78 4750.78 5029.78 3095.48 5188.81 3923.03 3745.84 4730.41 5696.88 4643.85 4203.26 4004.04 5607.14 5082.74 5411.85 6915.83 3999.94 4844.57 4027.46 6072.45 3901.8 5511.88 4470.98 5941.61 4512.11 4933.65 5708.99 6098.1 2435.33 4074.48 6333.29 4477.04 4558.47 5831.96 4539.07 5064.79 4475.83 5480.3 7509.24 4146.81 5756.75 5212.43 5454.12 6318.23 4058.87 4206.98 5156.76 5932.07 5948.71 5844.72 5460.89 4054.22 5260.85 2884.65 5393.65 5807.46 4648.21 3311.29 3110.13 5526.31 5030.15 3644.78 4078.93 4740.98 3185.39 3728.18 5335.47 5128.77 4526.81 3994.07 5491.9 3763.05 5092.24 5551.95 4659.16 3918.87 4347.74 5369.08 5067.46 4518.04 4863.01 4009.62 6000.7 5620.74 5945.08 5604.21 7493.3 3979.54 4968.03 5304.13 4814.55 4648.04 5833.06 4373.3 6262.72 3527.05 4166.08 3664.11 5762.59 3365.82 4861.06 3979.26 5960.66 6608.73 3999.48 5654.31 6062.05 4735.33 6939.12 4413.85 6853.85 5092.37 6171.13 4020.4 4864.22 5782.48 2395.5 3497.9 4031.78 3735.24 5564.23 5950.04 6574.95 4231.83 6853.04 6817.57 3614.96 3886.68 4745.43 4912.04 4691.91 4255.34 5344.83 7046.11 4863.97 3427.63 6342.48 4840.44 6639.64 5439.49 5216.26 3687.65 4887.52 5478.95 3851.85 6571.31 4392.65 5174.75 5048.55 4984.46 4024.31 4147.31 3992.97 5989.05 7228.94 4441.22 4961.99 4595.12 5853.89 4386.8 4549.69 6423.81 3485.54 6192.77 4312.15 5934.82 4501.78 5633.61 6405.0 4219.94 5048.19 5907.46 4264.91 5399.29 5549.49 5789.55 3101.75 4766.06 3580.58 5356.79 4874.18 5233.29 2081.58 4011.37 4778.82 3169.67 4312.56 4612.06 5204.04 3361.92 3306.14 5467.84 5944.09 5490.58 5698.77 6607.87 4863.79 4163.5 6515.84 6481.79 5374.51 4123.6 5320.28 7092.87 4796.58 4569.12 4298.67 5873.69 5750.71 4472.17 4962.09 6222.42 5470.77 4831.47 5516.95 5563.79 4151.76 3905.51 4406.4 4721.02 3546.71 3493.47 4596.75 4254.37 3374.08 4188.87 5768.57 4498.25 5151.21 5108.06 3573.73 5398.64 4693.52 4568.41 3624.7 5262.35 3420.08 4320.42 4281.98 7165.9 4701.5 4449.98 4771.65 4036.91 5589.37 5110.11 6379.14 3634.5 6631.28 6413.15 6103.11 6459.51 4955.16 4904.51 2202.77 5950.88 5751.15 4149.55 6201.86 6551.93 6484.43 3380.69 4140.4 4725.01 4625.67 4458.64 4583.52 3657.69 6418.11 7122.87 4243.26 3572.94 6799.23 4888.27 4153.84 6740.71 5423.42 6487.56 6605.86 4901.2 2511.46 2775.69 6505.78 5657.36 6124.08 5029.47 3619.79 4750.58 5876.64 5395.14 4702.06 6710.88 3967.48 3464.83 5117.47 2477.07 4923.41 4143.78 4538.95 5724.64 4970.88 5224.12 4850.14 4763.66 4666.81 6739.08 4471.58 3637.61 6098.14 5463.38 5945.21 3493.7 4938.74 4200.03 5313.22 3474.39 3436.15 5328.22 5711.11 4575.94 4216.17 5021.88 6484.17 4938.72 4597.29 5956.65 5931.77 4200.09 5097.95 4222.4 4914.45 4000.43 4698.87 3984.88 4661.03 3344.57 5318.53 5220.76 5160.59 4732.09 5783.48 5138.2 4504.35 7001.83 4593.7 5012.97 4349.13 4891.67 6818.91 3429.57 4027.63 3503.65 5569.2 5420.67 5350.88 5416.45 5305.59 6114.89 4330.58 5754.6 3288.01 4355.83 6870.97 6056.87 5474.01 5307.35 7554.58 4342.18 3639.44 5446.4 5966.75 5725.37 3868.62 5510.9 4883.63 3492.83 6015.02 4922.49 5797.36 5001.58 5119.86 4820.17 4729.42 4854.11 4592.15 5084.17 4633.05 4901.44 5971.22 2275.45 6522.59 4909.31 5012.5 6519.43 5711.62 4785.25 4270.15 5461.55 5053.95 3298.2 6306.21 5926.11 6667.68 6213.04 2990.77 3163.78 4497.31 3830.46 4925.63 5965.15 4888.6 4721.32 4305.16 3293.56 5882.65 7042.12 5078.86 4780.2 4797.52 6326.39 5501.93 6343.14 5462.21 5374.98 6049.79 6313.06 5226.56 6345.13 5274.19 6470.3 5599.49 4050.08 5452.42 4719.7 4097.57 5017.5 5005.85 4893.49 4834.87 5325.44 5102.75 3672.21 5760.22 5938.17 4795.43 2928.82 4811.76 5313.12 5498.42 5351.56 6448.66 4453.97 6945.98 7317.04 6412.67 6204.65 4482.9 3766.69 5513.8 5188.53 4521.75 6746.66 5410.33 4642.74 6735.97 3636.15 5483.7 5135.63 6384.7 3896.27 5952.38 5351.86 5963.36 5230.02 5169.48 6016.08 5166.89 5491.63 6064.71 6102.98 5138.33 3743.76 4505.28 3425.69 4971.29 6280.13 5244.22 5510.45 3684.15 5585.14 7039.98 5832.29 6456.58 4159.81 5089.26 3886.72 5415.45 4998.22 5533.19 5417.21 6602.43 5435.19 3562.79 4383.56 7093.13 4990.79 6865.76 5424.46 5253.37 5235.11 5266.01 5211.38 6515.8 6413.11 6031.67 5092.28 4739.14 5274.14 4918.77 4636.5 5163.55 4819.73 3382.7 4903.82 6817.32 6471.55 3954.91 5085.71 5923.4 4319.79 5960.56 6643.85 4020.95 5774.97 5862.86 4890.5 4390.41 6113.95 3731.84 4901.07 3981.07 3554.48 6496.52 5186.3 3991.42 3718.69 5966.61 4388.63 4940.28 4514.79 2216.82 4509.89 6752.75 5269.38 3004.34 3022.6 5607.3 5375.1 4638.18 4172.6 5211.6 4196.37 5806.31 4745.79 3556.79 3503.41 5456.71 4908.75 6556.26 3971.08 5684.25 5438.92 6550.4 4244.49 5036.98 4120.07 4775.04 4952.52 4882.66 3840.21 4081.34 3908.56 4954.76 6334.53 5244.78 4844.83 5377.37 5869.67 5652.87 4311.48 4899.73 3152.86 5018.69 6394.19 5973.89 5807.52 5087.14 5518.11 4192.21 5712.35 4731.21 4743.9 3124.7 3719.11 4467.13 6060.17 5153.18 6711.21 5902.67 4236.86 4730.14 4438.76 2606.51 3994.39 6006.89 5244.98 3814.65 3965.3 2955.36 4960.64 5792.98 3776.8 4983.3 5096.43 6592.93 6156.21 6350.71 6104.26 3568.28 4798.17 5425.98 5166.79 4953.1 2895.63 4516.53 6449.64 5818.95 5767.9 3940.49 4857.84 2040.66 5384.76 2978.76 5529.42 7016.27 5257.12 6138.12 4689.15 4434.19 5100.1 4428.78 4965.89 4940.42 5746.28 3703.1 4946.42 4371.99 4623.61 5409.66 5187.7 4082.47 3561.29 5203.08 2965.01 6235.57 6263.44 4863.27 3492.19 4584.5 5122.63 6766.43 4118.84 2315.64 5916.16 4703.08 3423.15 6934.37 4488.85 5010.2 4579.69 4997.83 6123.03 5578.94 5148.08 6192.0 4777.03 7610.49 5885.28 6579.31 5323.55 6028.09 4609.02 3804.5 5452.36 6486.37 5561.74 6083.28 6100.73 5470.04 4198.94 4211.82 5212.37 2628.22 6003.78 5058.51 4124.76 4901.29 7200.89 4050.03 4813.33 4833.55 3646.95 4705.68 7224.99 4749.96 4658.24 4906.11 4387.39 4564.1 5457.66 5509.51 4848.14 5366.22 6193.73 5254.24 5701.52 3742.11 3597.43 4914.03 6776.22 4158.91 5311.55 5321.17 3877.8 4869.25 6273.6 4763.4 5454.11 5024.32 4708.17 5393.76 4941.02 3779.45 5806.61 3864.92 4618.73 4983.1 3668.93 6119.99 4128.1 5372.82 4385.81 6436.74 4034.05 5690.96 5583.61 2460.79 4653.83 6063.64 5996.66 4093.99 6479.39 4122.92 5079.22 6464.8 4908.49 4452.54 3604.14 6622.11 4684.44 4962.21 5884.9 5089.62 3685.65 3468.42 3685.13 6790.73 4590.55 5243.43 5659.95 6090.91 4741.26 5920.32 4186.6 4537.14 4152.85 3701.16 3295.83 5551.9 4219.78 5644.82 5499.39 6413.02 4440.57 5412.31 6736.03 5374.07 5548.29 3087.09 3623.87 7480.41 5163.77 3766.55 5469.13 6027.62 5765.42 6098.95 4817.16 5453.98 5660.55 5653.03 4157.29 3989.7 5107.0 4246.61 4286.17 3684.56 5327.75 4946.23 4852.58 4896.65 4532.7 5975.23 4504.86 4473.29 4788.08 5079.64 996.652 4680.69 6163.54 6500.49 5965.58 4607.18 3352.34 2403.72 3899.7 5134.33 4147.49 5419.57 5162.67 4802.98 5760.98 5469.35 5384.86 4019.34 4869.48 5510.96 3623.19 6653.07 4745.16 4697.91 5825.55 5719.79 3199.4 4316.5 7261.51 5148.1 5224.64 4968.14 5949.73 5086.29 5144.56 5139.18 3360.86 3034.16 5551.43 5049.99 5545.21 4333.87 4201.03 5136.87 5638.7 2741.2 5790.42 5784.37 7123.04 6010.59 4009.24 3682.35 3756.96 4402.17 4446.58 5401.4 7778.01 5127.82 4456.11 5798.38 4125.9 5096.24 3862.91 5366.11 4986.71 6171.71 7382.3 4405.42 4997.91 2995.67 3598.08 4599.81 5381.54 4022.56 5522.21 4749.59 4406.05 5698.23 4858.44 4680.94 5828.35 5799.69 5089.1 4673.35 5876.72 3876.21 5571.72 4655.16 5689.26 4916.22 5869.4 5297.19 6022.7 5251.4 3867.19 4188.3 4345.67 4453.64 4963.34 5081.78 5019.93 4459.28 5235.29 5453.3 4260.92 6116.33 4479.94 6250.23 4407.9 4718.54 4435.51 8659.64 4055.54 4588.7 4886.12 5683.95 6107.89 4976.12 4233.8 5530.49 5065.26 4304.41 4892.44 3746.36 6789.23 5069.89 2205.51 5361.87 6212.15 6813.72 4783.07 4757.2 6200.63 6816.66 3844.54 5241.75 3217.67 5034.69 5849.53 3538.53 4509.46 6127.39 5640.12 4972.18 5078.59 5329.76 4365.58 4759.99 2646.13 5214.4 3629.49 4636.53 5399.43 5766.05 5117.64 3835.81 3916.42 5429.3 4944.51 5532.72 4584.81 5071.98 5179.17 5579.39 4371.08 5270.51 5490.75 5214.63 4312.48 3495.68 5783.94 5527.13 6370.33 4278.57 5081.08 6318.25 5001.87 6864.06 3667.93 4493.79 5684.05 5813.79 4644.88 3142.09 5293.13 5591.77 5182.13 5906.57 7541.76 5053.15 5124.17 5910.86 5805.1 6239.68 5039.12 7320.78 3908.98 3628.89 4064.58 3419.87 4668.88 4824.81 6589.82 5027.43 3772.3 5810.77 7300.58 4855.01 2711.19 4714.83 4028.32 5236.43 3809.69 4099.92 4992.42 4771.13 5285.07 7051.9 4940.84 4680.14 4255.85 5097.69 5511.6 6261.75 3885.86 4517.73 3757.34 5177.64 6415.61 4338.08 4255.31 6134.99 5191.08 5424.88 5148.58 3838.47 2588.37 4062.5 3583.49 5887.15 4199.45 5415.85 3548.39 7234.66 4858.51 4207.54 6599.66 5625.65 4936.96 6419.12 4301.61 4481.76 5206.33 3184.64 5375.12 4446.84 4356.36 5452.78 5473.72 4741.28 4215.2 4553.68 2603.64 2856.55 3703.49 3894.64 4268.19 6502.97 3758.22 4374.74 4062.56 5969.37 3205.68 4583.94 4928.35 5046.31 4337.32 4731.53 3763.9 4651.99 4788.7 4420.11 5863.0 5084.5 4918.64 6562.03 6638.25 4815.47 4368.12 5193.58 3889.98 5490.64 5695.44 3769.2 3422.21 4507.46 5036.14 5603.68 5610.95 3220.8 5042.75 4598.92 5241.22 6647.08 4979.52 3422.29 4407.79 4537.03 6548.29 3990.96 5352.24 7362.42 4202.77 5836.14 6008.81 4932.56 4279.44 5192.49 4028.22 4899.19 5058.34 7350.26 5167.53 3768.46 6110.48 3852.82 4507.36 5003.3 4775.49 6245.52 4681.29 4932.29 5499.59 5749.6 3845.9 4834.44 4234.88 4141.21 4439.71 5782.43 4384.28 5769.14 6328.42 7307.21 5522.75 3608.06 5474.15 5867.64 7519.2 4923.57 6633.61 3208.96 4884.59 6059.93 3858.06 4478.6 5217.95 5895.77 4732.09 4608.41 4184.23 4765.72 3988.3 5857.79 2908.7 5750.07 4039.91 6136.49 4642.66 5276.7 6543.13 5149.72 4752.14 5037.06 5660.16 4541.8 5842.56 6200.54 5713.03 4652.01 5849.65 4928.27 3673.28 5134.67 5775.31 5421.64 5052.84 4366.74 3375.28 4165.21 5297.16 4603.5 5354.66 4647.67 4214.44 3566.79 3629.44 5378.23 5374.67 4787.97 4981.43 4061.6 4508.18 5064.67 6214.73 5175.89 5836.26 6618.21 5232.85 2617.39 5144.44 3717.47 4051.18 4685.4 1937.5 6240.42 5146.0 5721.14 4577.73 4288.45 4987.28 6206.98 5131.77 4410.82 5549.71 4967.51 6443.99 5173.82 7212.97 5698.53 5034.34 3856.73 4450.49 3468.45 5887.71 4526.34 5635.32 4316.45 5409.08 5481.64 5673.75 5360.67 5968.54 6263.3 5592.54 4501.05 3247.97 5124.34 4114.2 4358.81 4326.06 5034.46 5757.29 5793.12 5469.17 5473.05 5061.75 4373.2 5537.34 3487.31 5884.99 5726.42 3918.94 6643.4 5487.63 5575.11 6599.28 7145.73 4990.23 5800.81 3220.29 3784.94 6016.87 3125.13 5166.05 6715.73 4174.44 5667.51 4456.26 4708.31 5113.6 5944.3 4810.98 3563.14 3381.82 5135.5 5431.29 3619.72 6208.9 5347.9 4646.51 3340.09 4438.58 4565.93 5602.53 4504.52 6355.68 6061.63 4083.79 4511.7 4144.57 4833.46 4304.63 4351.38 4187.94 5980.59 5550.75 5933.7 5021.77 4809.67 4757.74 4687.64 4378.3 4356.25 5469.47 5512.16 5411.02 4950.97 5175.29 4989.56 4863.96 5199.44 4094.73 3852.6 5580.34 5131.15 5009.83 4110.59 4847.14 3332.49 4811.22 4215.0 3683.86 3950.27 5116.66 4918.76 5003.78 3299.24 4208.41 5730.61 6246.56 5826.78 6358.93 4383.68 6666.67 6015.22 2904.46 6063.44 4826.52 5120.92 6449.06 4629.02 4924.07 4927.73 5914.5 6006.16 3565.32 3419.07 4608.62 5407.96 5344.44 4071.75 4626.72 3186.07 4369.86 5482.76 3745.02 4887.73 3720.7 4211.36 6297.99 5378.24 3604.31 4538.89 5817.74 5661.6 4827.61 5385.03 5285.75 3234.26 4169.15 4830.13 3494.16 4778.37 5134.17 5370.9 4074.16 4325.13 4904.35 6172.27 5390.33 4904.37 5278.54 4651.64 5729.92 5275.57 5016.46 6224.13 3769.24 6022.78 3661.67 4087.32 6647.85 4674.9 7025.09 5461.72 3392.26 4433.12 2549.95 4361.24 4168.52 6224.85 5403.97 3954.77 5106.46 6793.1 4068.31 4506.66 3671.06 5515.73 5209.55 5077.29 7035.54 4564.41 3873.92 4198.9 4027.33 5026.76 5951.86 5091.22 4252.18 4833.67 5023.41 6282.38 5640.72 5325.91 7107.63 5851.63 5073.02 5484.36 4867.7 2279.05 4829.35 6545.43 3953.55 4063.9 4075.28 4277.24 5263.27 4469.54 6834.41 4314.56 6300.92 7248.4 5161.1 3796.15 3928.53 5036.58 4419.71 5776.96 5329.59 4888.12 4409.27 5439.9 4244.21 4588.99 4617.55 3197.63 3875.05 4287.16 3456.47 3645.12 3540.11 5471.74 4344.34 5966.42 5210.38 5666.95 5717.8 4706.5 4127.53 4489.99 5210.75 4548.45 4658.11 4474.83 6555.44 4551.26 5293.75 5658.14 5114.07 6570.35 4385.49 4263.18 4242.63 7124.45 7142.95 4559.74 6061.85 4454.74 5268.15 5512.44 5819.0 3460.93 6347.72 3200.6 7168.2 4602.57 4571.74 3763.85 4096.86 5710.33 3622.48 5001.51 6432.8 5115.42 4209.0 4082.4 5728.58 4930.72 6424.77 5453.69 5918.95 6556.86 5689.56 3242.31 4898.29 6099.28 4431.06 5372.25 5730.2 5620.88 4941.52 4529.77 5900.0 4262.74 6241.77 3783.79 5317.19 5078.73 4248.14 5729.0 5279.19 5192.92 7050.08 4179.87 4786.66 4761.84 5517.65 5370.1 4009.68 5114.51 2569.12 4622.73 5161.74 4161.32 7336.37 5138.93 6945.69 4556.19 5368.66 6406.8 4795.08 6562.92 5501.73 4697.24 3612.44 4850.5 4983.43 6331.74 5233.76 5426.4 5763.05 5357.39 5129.68 4659.88 2820.07 5076.84 4546.44 3791.41 4092.07 5657.55 5727.79 5212.92 4224.3 4831.93 4184.21 5788.97 3472.91 4700.07 6760.92 4989.2 4023.93 4928.85 5868.89 8137.11 5291.05 6650.77 6045.67 4209.49 4216.95 6226.14 6119.63 5742.74 5464.25 3821.94 4209.31 5486.48 3498.16 5718.28 4752.9 5301.47 4247.69 4947.24 6242.79 4321.21 6506.86 5950.45 5391.48 5088.57 4803.57 4728.55 4923.43 4568.64 4929.6 3919.62 4642.2 4945.0 4212.15 5260.52 4585.04 6102.49 5678.58 3185.09 2945.34 5114.23 3372.95 3269.54 5495.0 7407.91 5846.95 5064.23 5716.42 5701.63 4620.95 5368.93 4488.39 6121.56 5124.86 5879.24 5740.78 4796.12 5385.86 5997.91 6791.86 6031.22 5485.84 3618.64 5703.84 4335.79 5797.32 5432.04 3702.45 3921.27 3161.1 5265.63 5684.88 6523.78 4645.86 4045.67 6005.95 4308.49 4519.03 4930.17 4581.1 4745.44 5762.82 7360.12 6223.98 4016.6 5821.49 5580.44 3035.06 5891.25 5129.4 5095.52 4746.15 3303.49 4655.37 3720.38 5585.25 5256.75 5099.9 6351.89 5932.28 5118.86 4298.7 7086.69 5648.78 6170.9 6875.73 5226.42 6081.3 4436.48 5615.35 5117.52 5866.91 6405.69 5679.74 4825.73 5247.01 5853.12 4213.05 4208.37 6203.03 5157.38 5188.82 5235.87 5615.84 5273.37 4464.73 5043.14 4717.73 6440.38 5556.0 4711.04 5484.32 5007.21 3904.07 7144.05 5466.33 4173.54 5280.12 5599.29 3946.28 7216.98 5984.81 5721.05 7013.17 6329.53 3805.67 4590.01 5367.73 4514.39 4640.06 5078.31 4807.35 4227.41 5993.0 6047.14 5467.63 4554.68 4140.92 4368.28 5750.35 5984.8 5463.06 3127.83 5236.24 4241.68 3986.41 5532.75 6949.65 3469.18 4095.83 5695.25 4489.29 5323.95 5676.61 4301.93 5796.26 4603.04 4870.94 5293.37 5271.88 5559.79 2980.31 3148.79 6348.93 6824.53 4332.64 4742.82 5232.16 4422.23 4820.68 3989.26 4171.02 3530.82 7012.36 5028.06 4886.99 4002.99 5587.3 5159.67 3572.73 5764.52 3770.22 4390.64 5150.84 5087.97 4608.01 4467.51 5339.82 5460.57 5110.27 5703.34 4085.96 6668.98 6649.52 5462.6 4262.19 5617.29 4597.88 5998.13 4878.93 6275.25 6892.33 4758.84 4505.3 4731.37 5023.61 3976.0 4672.86 6530.78 2960.5 5560.23 4975.32 4183.4 5237.55 3902.48 4304.64 4733.79 5833.78 4905.53 4823.06 5758.98 5254.49 3967.76 5288.64 6311.89 6213.24 4683.28 4217.36 6549.8 4851.18 4150.76 4165.36 5005.72 5368.52 5288.33 6296.54 4841.7 5797.21 5702.4 5069.9 952.938 5473.89 6089.45 4732.37 5810.17 4985.3 5072.5 4966.07 5713.36 3274.85 5545.59 5748.9 4619.2 4506.18 5606.51 4801.8 6038.68 4444.97 5271.02 5046.12 3000.29 4807.4 6349.67 5261.19 4350.15 4139.3 3516.27 6541.45 4601.74 6101.86 5228.75 6545.99 6761.81 3903.91 2918.64 5630.9 6139.64 4512.07 4756.8 4896.43 4692.32 4176.32 4462.35 4639.8 6069.78 5196.08 3587.93 4517.29 4975.85 6257.79 4495.75 4849.5 6171.01 6229.83 4468.26 4523.81 5065.74 5578.18 5791.25 5106.33 4873.23 5198.94 5933.54 4028.35 5464.05 5410.6 5453.2 4733.41 4969.68 5264.83 3901.53 5136.51 5431.14 6815.51 5313.86 5189.91 4457.05 5151.19 5777.26 6119.0 3792.06 5128.59 4293.3 4993.49 5310.33 6583.37 4864.38 3688.83 3402.44 4848.98 4491.96 5184.98 4397.06 4479.5 6261.67 5065.78 3435.13 4431.46 4612.68 3207.84 4521.42 3977.98 4232.33 4939.56 4747.68 5770.92 4845.91 3093.38 4723.71 2002.78 5631.32 4461.67 6322.0 5793.14 4452.36 4068.41 6463.71 5059.37 3043.77 5783.38 4139.39 6264.03 3909.94 5088.64 6030.39 3799.01 6589.8 7392.65 5319.1 3757.23 6828.8 6734.39 5942.45 4228.53 6123.46 6142.88 4871.77 5811.26 5685.74 5388.73 6740.35 4678.7 6075.99 3673.6 6028.63 3306.84 5265.21 4657.24 4400.14 4550.92 4749.18 6215.87 5553.94 5191.26 5494.28 5166.41 4067.96 5740.65 4824.12 7104.73 6542.5 5067.56 2596.96 3834.47 6162.3 5701.75 3272.75 5262.47 4264.54 3512.94 7043.44 3831.52 4263.65 4750.49 4258.98 4263.78 4643.9 3787.08 6106.43 4013.86 5644.81 4177.47 4218.16 5218.42 5345.73 5334.36 4933.49 3990.94 4841.23 4357.11 5477.8 5486.89 5589.53 7208.19 4549.51 5025.42 4965.24 6379.38 5327.05 5438.55 5353.23 5977.66 5209.5 6175.27 5876.51 6731.89 4286.61 2932.52 4603.66 6636.43 3557.46 5971.95 6298.8 3689.24 5178.07 6509.54 6079.55 2589.19 5485.61 5308.4 6581.13 4569.32 5537.61 6084.88 3543.98 4721.98 4053.12 4199.44 5878.55 4014.44 6604.72 6002.77 4610.55 3794.47 4967.02 4614.49 6043.34 4128.93 4959.72 3808.04 4712.17 5348.11 6126.5 4405.61 4034.88 6007.1 4491.26 6345.2 4511.34 4832.21 4609.65 5009.21 4742.35 5394.79 5645.54 5264.08 4526.87 3562.8 4151.74 5192.82 6920.92 3729.16 3783.36 4174.22 3573.84 4181.93 3038.91 3922.28 6570.43 5987.88 3579.59 6883.86 6161.94 4065.28 5155.28 5057.59 4461.14 5111.26 5285.6 5062.77 6019.35 5205.38 4884.93 4600.71 3450.07 5262.79 5927.2 5146.1 5866.42 6485.77 4704.92 3669.32 3663.0 5610.53 4099.26 5206.47 2970.9 4954.81 4834.39 4383.47 4608.34 5971.21 4835.97 5493.89 4057.17 5695.79 5464.83 2781.96 4184.47 7066.96 4467.0 4991.35 3104.96 4994.65 4587.7 5740.98 5601.55 4346.07 4462.87 5196.92 4012.92 5759.79 4598.54 4711.15 4816.51 3825.48 4658.59 5188.22 4770.63 3810.68 2804.54 4196.62 2809.19 5005.6 4104.04 5593.79 5104.39 5234.2 5847.91 4612.13 4934.66 5846.6 4109.44 4903.84 4290.49 4557.1 4434.65 6688.53 5927.1 6500.45 4907.55 4103.76 6605.11 4757.87 6379.33 5130.57 5652.73 5402.45 3979.46 6321.97 6412.84 3985.93 6071.59 3856.4 5985.75 4696.06 4137.16 4937.36 5984.55 5672.46 5803.3 3228.27 3956.24 5252.82 5056.26 5333.04 5445.91 4521.99 4812.59 6842.54 7115.67 5675.45 5400.69 4462.5 2807.46 5004.68 5573.31 4023.88 4179.8 3488.34 5658.35 5428.24 5108.84 3511.5 4520.14 4582.12 5067.92 5488.96 5704.61 3188.21 5128.03 5410.73 3720.92 4574.03 4379.91 5290.37 5850.38 4227.66 4691.01 4594.89 5245.95 3677.85 5821.42 4067.89 4515.02 6294.09 4571.57 3445.92 3350.99 3820.19 5236.69 4979.5 4586.82 4745.37 5418.98 5939.29 5575.11 4574.54 4949.55 3132.34 4764.83 1969.87 4841.28 3957.38 4494.15 4047.95 5035.71 5507.38 4419.79 4710.88 6060.06 5544.27 4762.1 3484.81 3742.31 4316.0 3987.69 4546.96 4287.25 6304.49 4580.06 3926.11 5134.72 4191.01 4271.07 6419.64 3622.8 4589.06 5340.05 4140.04 4920.88 4770.51 5995.4 5414.58 4431.23 5577.41 5917.34 6511.37 4216.44 3999.5 6710.14 5034.05 3953.26 4426.02 5467.51 4474.39 4625.53 5459.92 4096.47 2347.41 4542.16 6478.35 5453.77 4916.7 2638.82 5353.66 5030.33 5157.73 4541.22 4946.08 3539.68 4696.03 4984.01 6177.68 6217.33 4605.39 4698.7 6270.59 6045.26 6263.87 5743.8 4094.63 6666.34 5084.76 5581.01 6834.92 5749.53 5247.73 5090.48 5034.02 5582.28 4649.5 5945.25 5181.31 5475.83 6189.29 3074.49 6571.26 5202.33 5580.95 7558.99 4142.1 3393.59 5043.14 5246.81 5089.1 5394.78 2853.68 5122.38 4998.37 3361.11 6038.56 6559.82 5599.16 4577.98 5043.34 5886.81 4487.51 4246.24 4295.25 5357.14 4850.95 5919.27 5087.3 4942.63 6139.74 4975.57 7066.26 4730.97 3057.3 5214.71 6150.31 4677.84 3463.53 4811.11 6126.03 5131.07 4121.07 5524.28 3133.28 6026.04 5731.43 6200.05 5859.17 4052.49 5615.06 5490.54 4034.41 5203.54 6189.67 6142.94 6889.5 5001.69 5407.69 3869.39 4416.87 5960.5 5308.33 6502.99 6896.55 5424.55 4666.12 5755.15 4392.75 4921.1 6219.34 3814.16 6023.07 4420.6 5287.25 6506.63 5939.22 3626.86 5418.12 4215.05 6371.96 4668.8 3495.3 4271.93 5890.25 5322.11 5700.79 4697.49 5524.45 5735.08 4726.2 7133.44 4750.81 5600.21 4282.11 4656.01 6589.13 5602.62 5714.51 3543.37 2030.03 5114.67 5628.97 4484.78 5527.27 4621.33 5765.14 4767.54 4801.16 5121.08 2927.84 5688.77 5368.28 5466.13 6229.64 5257.38 2848.44 5625.02 4220.43 4975.56 7282.36 4829.77 3826.01 4645.91 4444.92 6959.88 4125.75 3746.62 5971.9 4532.67 4876.37 5260.13 4769.62 5019.84 4810.74 3900.93 4028.13 5784.38 4149.17 4329.8 5728.27 6260.58 3053.19 4313.38 4720.22 5827.3 3549.92 6598.99 4032.06 5250.56 2468.16 6294.14 5888.95 3463.34 5203.75 5169.09 2459.88 5262.85 5329.84 5901.71 5225.11 3879.83 5342.9 6565.95 5733.12 6436.29 5402.81 6805.02 5354.48 7394.47 4729.45 6261.13 5374.09 4793.06 6637.38 3421.81 6188.33 6111.23 6916.18 5786.06 5873.62 4137.41 4996.91 4924.52 3920.44 5379.52 4866.8 3768.62 6044.69 2970.24 4197.87 5105.54 5462.1 6353.81 3414.67 3518.14 6032.45 4150.44 5061.74 5522.34 5326.03 4420.35 4948.96 5717.45 5772.57 5117.83 5256.82 5300.17 5152.78 6581.56 4052.43 4117.9 5393.43 5534.23 4057.4 4753.76 4638.09 6025.77 4685.65 4441.91 5377.01 5674.63 5828.25 5917.08 4725.11 5483.37 5092.93 5934.05 2803.01 4604.1 5125.17 4399.52 5322.07 4859.01 5076.11 5770.07 5990.75 5101.6 5327.39 5781.62 4037.86 4138.59 4970.55 4938.33 8123.59 4819.83 6286.27 6327.54 5071.38 5616.66 4802.36 2943.17 5327.71 4880.78 5075.23 5509.09 3873.72 5212.05 4592.49 3625.98 5479.86 6474.5 3928.99 4763.04 5944.52 5050.2 4413.56 2513.38 4821.41 5316.05 3995.08 4908.32 4499.52 3874.12 5759.19 4457.73 3113.64 6476.35 4304.75 5480.86 4067.24 6139.9 2832.83 4474.96 4084.87 6036.99 3633.58 3010.1 3584.05 3825.98 4589.22 4339.97 4667.84 4512.6 4691.15 4210.24 4260.38 5470.67 4636.45 4932.27 5638.51 5252.22 4962.35 6786.37 4333.23 4600.81 4919.13 5640.63 4900.26 5168.97 4167.55 5783.88 4720.34 6271.22 5244.47 5378.75 3920.64 5510.89 6186.24 5822.7 3780.07 3868.69 4159.89 5447.74 4450.51 6033.72 5314.67 3851.47 5658.05 4966.74 6593.1 5563.47 4066.36 3162.27 4000.51 6033.93 5011.37 5444.36 4026.03 2827.92 5044.68 5771.98 2649.69 5899.78 5000.74 4813.81 6153.26 5268.27 4013.86 4061.87 3980.46 5165.31 4896.67 4585.37 5383.9 3798.09 3934.11 5158.44 4466.22 4288.5 4781.9 5330.26 6470.23 6815.96 4475.38 5339.6 6561.94 5259.21 5317.83 4256.08 6738.9 5881.93 4460.89 4157.1 5992.06 4714.66 8052.53 4444.0 4554.24 6771.18 6182.19 4984.17 4867.12 5910.66 7415.84 4981.81 5141.03 5734.07 4840.44 3997.68 6033.28 4188.16 3784.68 3717.22 6649.21 5507.07 3470.69 4654.92 5286.55 5522.18 4322.56 5223.1 4850.49 4981.55 5144.23 6188.62 6153.07 4702.32 4414.06 5908.57 7296.47 5742.39 4780.16 4924.53 5616.11 4813.24 4433.23 5312.2 5847.27 4490.2 5734.84 3982.31 4582.24 4758.76 4790.63 5259.29 4916.75 4818.53 5087.03 3906.41 4123.08 6224.64 4221.03 4576.71 3799.55 5082.66 4550.77 6793.49 3563.33 6060.19 3550.88 5536.0 3860.8 4328.76 5561.63 4124.33 5940.5 4358.06 5002.38 6705.93 4865.11 4731.16 5502.14 6470.87 4495.33 5282.67 5466.49 5178.55 4038.17 5007.41 4907.48 3692.99 6213.74 4959.94 5651.46 1635.31 5639.4 6185.73 5516.37 5092.44 4441.44 6908.32 4232.44 3467.11 5336.61 4817.75 5563.09 5637.53 5244.95 4439.09 4645.93 3882.37 4634.25 5448.64 5901.8 6351.48 5188.57 6417.61 5715.51 4496.51 4511.05 3886.56 6153.71 3456.3 6074.39 5350.9 3483.61 5640.67 6572.17 5545.68 6080.69 3939.96 3751.73 3374.62 5555.89 4970.12 4967.93 6044.01 6520.19 5973.57 1458.87 4637.3 5922.62 6241.48 4414.09 5125.45 5191.29 5957.82 6305.9 4542.62 5093.28 4859.95 4132.08 6009.88 4699.77 5093.41 6842.35 5464.34 3621.63 4777.96 5801.89 6833.5 2613.78 3796.73 5417.07 3834.01 5738.37 6789.66 4739.41 6760.64 2515.5 4706.59 5177.88 5551.79 4950.07 3916.15 5367.05 4449.73 4088.72 3743.85 6236.46 5097.85 5584.64 6189.04 3795.63 5189.4 6538.04 4894.15 4337.93 5201.3 4345.51 6223.33 5145.13 3747.96 5611.29 6568.45 5093.51 5004.22 5647.93 6201.49 5449.09 5154.74 4605.61 4465.56 4131.08 5386.95 5747.9 3864.19 5146.69 4287.93 6203.24 6818.23 2329.93 4488.41 4369.87 6938.87 5412.07 5512.57 4083.24 6520.96 5432.2 4612.4 3312.3 6178.19 4746.19 6381.58 4848.15 3282.57 4798.13 5523.81 4611.21 5648.59 4095.4 4718.61 6697.45 5395.12 3873.79 5717.67 5357.33 5783.69 3830.7 5252.37 6210.0 5432.4 4262.52 5037.58 7430.48 4844.2 5114.61 6118.13 2181.29 4420.3 4926.62 4766.47 4871.1 6369.66 3917.09 6009.93 5678.08 5872.45 3482.73 5270.1 5130.56 4957.99 4063.26 4947.64 4997.89 7679.2 4881.51 6131.52 2626.41 4311.92 6729.99 6664.54 3922.98 5161.73 5259.48 4025.08 5254.93 4803.4 8013.28 6608.94 5283.65 4644.68 3082.16 2892.36 5656.84 5911.29 5416.41 4694.27 4849.21 4414.23 4785.55 3793.83 6981.47 6189.81 5647.11 3945.62 5342.17 6379.3 5015.67 6157.59 5848.41 4048.73 5438.6 4246.83 7370.52 4521.88 3724.23 4280.92 5103.3 4601.54 7263.57 4696.92 5705.96 6437.99 6898.8 6632.04 6540.57 5332.11 5315.71 6158.93 5081.65 4823.14 6679.12 5652.19 5806.74 4806.99 6578.62 3771.91 4813.55 5856.43 5217.62 3839.0 5349.85 4616.81 5799.86 5715.25 5172.1 5212.2 4362.94 6052.22 4469.82 5108.42 4630.5 6296.36 4432.32 5515.59 3721.69 4451.76 3224.81 4499.54 3775.38 5782.25 4046.22 6457.89 4081.77 4575.72 4948.21 4987.01 4721.2 4706.31 5161.02 4202.12 6332.64 4735.99 2694.25 5003.81 4203.68 6492.44 4083.1 4739.56 4613.32 5145.39 3996.93 6351.95 6225.05 5195.09 5345.05 3997.52 4444.54 5403.81 5779.9 4909.74 5310.33 5299.03 5504.65 5036.84 5669.41 4565.36 5813.68 5040.9 4008.67 4770.21 4868.66 4004.39 3846.55 5159.9 4987.48 5943.61 5981.54 5479.17 5020.37 4542.25 5233.88 5245.4 4090.28 4726.5 5467.05 4963.88 5888.94 4727.98 3832.09 4122.2 5175.88 5267.65 5739.69 3509.34 5360.88 4893.72 6004.72 4072.4 4983.56 5373.78 5345.65 5438.5 4621.32 5699.4 4698.94 3878.8 6284.12 3948.21 4796.04 3465.03 5669.15 5229.56 6011.4 5263.86 4672.34 5056.32 3330.85 5533.52 5376.41 6545.78 3354.94 4404.87 5105.72 4082.01 5237.27 5767.65 7885.41 4750.76 4907.03 4104.97 5497.27 5617.91 4444.95 5606.22 3943.77 6265.48 5242.38 3124.49 6081.35 5459.52 6262.18 3818.37 4701.03 5663.36 3352.46 4276.59 5579.04 5434.04 5125.53 5200.1 5405.6 5994.21 3929.35 4884.93 5082.25 4759.38 6964.78 4374.05 5282.51 3760.4 5732.11 4951.02 3618.53 4602.7 3783.35 5596.68 4037.16 6395.63 4248.58 4516.26 3647.26 4790.16 7360.62 3731.58 3166.37 4977.64 4985.45 5205.53 5699.51 2489.44 5499.37 4489.18 5863.36 4632.75 5237.76 4994.98 4286.84 6058.13 5296.05 5894.69 6988.4 6635.51 4060.17 5410.33 5003.63 4870.14 4695.7 4747.24 2932.2 4380.86 4944.08 5576.16 5269.39 5003.49 3964.03 4305.35 5210.22 3308.75 4216.33 4439.17 5832.72 4929.35 3903.9 5051.39 6673.92 4633.59 5151.68 4884.94 5362.15 4609.98 5566.5 4752.31 5240.97 5569.85 5306.31 5523.96 4223.53 4535.94 6960.97 4287.15 4523.9 5126.08 5604.0 3919.47 5369.42 5207.08 4714.52 4587.19 5543.05 4883.13 4836.76 4752.94 5551.09 6423.96 4501.1 5581.47 4384.91 4274.05 6550.61 4987.01 4713.56 6051.35 5302.53 6779.82 4909.13 4287.61 5543.67 3999.81 5648.02 4867.13 4604.34 4863.27 2451.27 5677.42 5442.79 6853.07 6327.61 5733.59 5575.8 5268.93 4455.61 3695.72 4738.72 6874.6 5106.9 4733.37 3037.72 6028.89 5333.16 4888.17 3950.53 5755.98 5392.85 5077.2 5275.27 4277.54 5529.09 4531.46 6094.34 5925.82 5448.68 4739.5 4072.95 6210.48 6377.45 4182.05 2701.42 4502.12 3255.93 4491.62 3865.5 
SCALARS Velocity float 1
LOOKUP_TABLE default
1.3216 1.30574 1.4123 1.42112 1.41828 1.43454 1.30265 1.20502 1.24309 1.23654 1.22756 1.35598 1.31757 1.2947 1.27356 1.42195 1.42191 1.39593 1.33241 1.38569 1.4308 1.32682 1.33407 1.31552 1.4411 1.30188 1.27734 1.30752 1.31399 1.32296 1.23296 1.19645 1.22999 1.14686 1.31155 1.30481 1.38828 1.35239 1.31432 1.34594 1.37678 1.40608 1.29419 1.42652 1.33185 1.35462 1.35207 1.39952 1.42892 1.40525 1.36644 1.35957 1.26771 1.31656 1.35218 1.25159 1.30054 1.31095 1.27503 1.18862 1.1756 1.17659 1.44196 1.36428 1.33816 1.33054 1.35346 1.38125 1.4093 1.46763 1.46891 1.31562 1.40548 1.42227 1.43643 1.39048 1.41168 1.24277 1.2784 1.30782 1.22474 1.263 1.19425 1.22482 1.12813 1.18209 1.31409 1.42696 1.36476 1.33704 1.38585 1.394 1.38635 1.40356 1.43413 1.41399 1.43257 1.47283 1.45142 1.39959 1.41775 1.41277 1.39461 1.40216 1.23862 1.29996 1.29354 1.20921 1.20076 1.25175 1.39168 1.21926 1.19233 1.21565 1.36987 1.28055 1.30292 1.39111 1.1803 1.34691 1.40864 1.42915 1.41181 1.40499 1.4305 1.50111 1.48509 1.49701 1.45188 1.47769 1.38324 1.38382 1.45121 1.48812 1.19722 1.27547 1.33546 1.29557 1.34134 1.15142 1.2639 1.28265 1.205 1.38835 1.28502 1.43621 1.52814 1.29475 1.4506 1.42974 1.4196 1.37771 1.49554 1.41534 1.46815 1.47441 1.40843 1.33586 1.39137 1.42815 1.44214 1.33792 1.48639 1.36306 1.30395 1.33354 1.29072 1.22355 1.20621 1.36353 1.32742 1.48579 1.48731 1.54928 1.61024 1.49651 1.44049 1.36079 1.6763 1.3554 1.54055 1.45419 1.47426 1.36476 1.45756 1.70092 1.47207 1.48274 1.46257 1.36424 1.35751 1.47658 1.32842 1.26297 1.21145 1.25909 1.28443 1.48438 1.07819 1.22091 1.34683 1.48292 1.51764 1.45022 1.49587 1.55522 1.46239 1.617 1.44108 1.49013 1.45921 1.45035 1.45843 1.57187 1.41579 1.45328 1.48478 1.51167 1.44507 1.49908 1.32108 1.2869 1.47207 1.4196 1.14965 1.56192 1.71382 1.29735 1.31922 1.3401 1.42557 1.48105 1.52865 1.49573 1.48523 1.39817 1.5547 1.6991 1.61597 1.50379 1.44732 1.44533 1.44806 1.47222 1.48037 1.46277 1.48579 1.50784 1.53136 1.48745 1.55307 1.42796 1.32143 1.24229 1.73189 1.27898 1.36152 1.48015 1.47647 1.40234 1.46101 1.5859 1.58457 1.63903 1.47941 1.42231 1.46233 1.46897 1.48822 1.48774 1.52749 1.45384 1.49672 1.5197 1.62092 1.54841 1.50285 1.48807 1.43433 1.17701 1.50307 1.85058 1.42248 1.39759 1.46839 1.43899 1.52809 1.48503 1.50927 1.56735 1.58322 1.57964 1.47314 1.46239 1.49312 1.54032 1.4987 1.49053 1.51661 1.49831 1.5742 1.48227 1.57044 1.59307 1.5965 1.52432 1.51107 1.5252 0.988219 1.60587 2.18766 1.47558 1.66535 1.5558 1.45389 1.53935 1.57561 1.57377 1.57753 1.52536 1.4765 1.48933 1.49835 1.52398 1.50429 1.48995 1.49033 1.49119 1.51711 1.6608 1.60996 1.59706 1.64515 1.57157 1.56108 1.59056 1.98289 1.66592 1.55522 1.48362 1.89166 1.5349 1.41687 1.53968 1.57551 1.54803 1.51672 1.52313 1.5192 1.50072 1.51372 1.50109 1.49876 1.50716 1.57087 1.50965 1.61732 1.57468 1.63672 1.5693 1.43694 1.52595 1.82919 1.72289 1.67248 2.02353 1.9722 1.81562 1.50316 1.53138 1.85717 1.46605 2.00185 1.24628 1.47201 1.50013 1.55231 1.52458 1.56157 1.54518 1.52683 1.52513 1.52511 1.51848 1.51721 1.51389 1.50802 1.5121 1.51051 1.51804 1.51561 1.53502 1.52072 1.47195 1.63733 1.53803 1.48803 1.51528 1.51842 1.63238 1.7697 1.87424 1.62085 1.6867 1.48468 1.6401 1.40541 1.33115 1.48855 1.55366 1.55298 1.53922 1.5304 1.52463 1.519 1.51323 1.51495 1.51164 1.5185 1.51153 1.5094 1.53779 1.5219 1.40551 1.58511 1.54835 1.53899 1.5299 1.58073 1.54405 1.59245 1.66034 1.69761 1.60676 1.60619 1.4109 1.46809 1.51788 1.46174 1.38276 1.48787 1.48734 1.50474 1.52458 1.53235 1.5191 1.52553 1.52653 1.51841 1.52041 1.51685 1.51349 1.51232 1.51588 1.5087 1.50627 1.49732 1.48365 1.49437 1.46909 1.47021 1.48393 1.48019 1.56024 1.50596 1.53619 1.52968 1.51458 1.50444 1.4904 1.52961 1.53122 1.49825 1.54809 1.45432 1.50018 1.37278 1.42288 1.36624 1.46433 1.4963 1.50912 1.5095 1.51008 1.50823 1.51027 1.50908 1.50478 1.50212 1.49289 1.49487 1.4804 1.48254 1.47018 1.46473 1.47642 1.53389 1.49315 1.50797 1.51537 1.50042 1.50386 1.46853 1.48974 1.19178 1.43274 1.45196 1.43638 1.38335 1.4266 1.47327 1.49391 1.49704 1.47845 1.49584 1.49717 1.50238 1.50116 1.49489 1.48728 1.47612 1.48245 1.46875 1.46362 1.46798 1.4637 1.48257 1.47873 1.49291 1.49092 1.48351 1.49863 1.47655 1.48819 1.46885 1.47605 1.49042 1.48146 1.42869 1.40942 1.39941 1.42896 1.44662 1.44191 1.46481 1.44611 1.4498 1.45954 1.48253 1.48516 1.47225 1.48944 1.48005 1.47975 1.49053 1.47991 1.46984 1.47223 1.45916 1.46506 1.44587 1.45757 1.45246 1.46303 1.45309 1.47384 1.47875 1.473 1.47919 1.47405 1.4683 1.46172 1.46573 1.47061 1.4625 1.42871 1.42233 1.41029 1.41831 1.42179 1.41611 1.42982 1.44539 1.44645 1.44898 1.45765 1.46968 1.47534 1.47634 1.45562 1.45147 1.44947 1.41783 1.44911 1.38126 1.46298 1.44281 1.46224 1.4671 1.46499 1.4488 1.45643 1.45286 1.44746 1.4522 1.42406 1.41939 1.41608 1.41143 1.42347 1.40981 1.44321 1.43857 1.44135 1.45386 1.46848 1.47151 1.46664 1.47848 1.45454 1.47057 1.4411 1.43687 1.44826 1.433 1.4283 1.40029 1.48793 1.39337 1.4193 1.42515 1.45363 1.44892 1.44494 1.44257 1.43939 1.19178 1.4231 1.42208 1.41256 1.42671 1.40323 1.39392 1.393 1.40977 1.43592 1.44147 1.42664 1.42741 1.44567 1.45917 1.46264 1.46224 1.47474 1.45565 1.4322 1.425 1.3825 1.4086 1.38285 1.41899 1.39207 1.41172 1.44993 1.38239 1.41468 1.4301 1.45147 1.43048 1.42583 1.42907 1.41921 1.19178 1.41483 1.42125 1.40093 1.35569 1.3875 1.39452 1.39909 1.41116 1.4221 1.40537 1.42694 1.39498 1.47639 1.4602 1.48299 1.47441 1.49241 1.44109 1.35612 1.39719 1.37674 1.40618 1.39518 1.38646 1.39826 1.4118 1.44647 1.43287 1.43348 1.36282 1.43798 1.39918 1.35578 1.31997 1.4219 1.40644 1.43883 1.4191 1.41203 1.41727 1.41925 1.41042 1.19178 1.40965 1.40653 1.4111 1.36832 1.40626 1.39287 1.38979 1.3913 1.41324 1.40081 1.39798 1.39252 1.39487 1.39973 1.44377 1.48058 1.5372 1.51795 1.3779 1.34926 1.37891 1.37405 1.3753 1.38345 1.39663 1.41726 1.41049 1.42543 1.40486 1.43131 1.39569 1.42356 1.29231 1.33222 1.38099 1.35163 1.44224 1.42701 1.41194 1.40254 1.43999 1.42969 1.3992 1.39474 1.4019 1.39489 1.37077 1.39856 1.37171 1.40447 1.40093 1.40605 1.41511 1.47489 1.45069 1.50519 1.41604 1.35697 1.38551 1.36335 1.3349 1.38539 1.3846 1.39631 1.40437 1.4094 1.39678 1.39815 1.41131 1.44337 1.38609 1.42127 1.28961 1.41145 1.40546 1.38416 1.39603 1.43482 1.41284 1.37558 1.36632 1.39223 1.3858 1.39932 1.3849 1.38581 1.39862 1.40138 1.38975 1.41445 1.39019 1.38812 1.37752 1.42385 1.44261 1.36898 1.38686 1.35615 1.27658 1.39283 1.37092 1.38239 1.3842 1.37663 1.38605 1.38615 1.39251 1.39771 1.41198 1.41055 1.3973 1.36801 1.36293 1.39967 1.39852 1.38143 1.37092 1.37664 1.3961 1.3793 1.38303 1.36474 1.19178 1.37902 1.37851 1.36828 1.37989 1.37736 1.40231 1.39948 1.37346 1.40867 1.40107 1.34247 1.39806 1.4339 1.34967 1.3339 1.2339 1.34632 1.37566 1.32055 1.44427 1.3526 1.363 1.38133 1.38267 1.3861 1.37782 1.38665 1.40327 1.39501 1.39524 1.41006 1.36848 1.38268 1.36727 1.37437 1.39111 1.37187 1.37431 1.36186 1.37612 1.36656 1.36061 1.35838 1.19178 1.19178 1.37503 1.3776 1.3659 1.35703 1.4054 1.41113 1.35019 1.38268 1.34472 1.38268 1.27095 1.33573 1.33888 1.41683 1.39044 1.34484 1.35719 1.37739 1.37976 1.37878 1.3735 1.38081 1.3827 1.38634 1.40385 1.39227 1.39879 1.36223 1.36555 1.34684 1.35367 1.35315 1.366 1.36581 1.35997 1.35491 1.35644 1.35612 1.36853 1.37161 1.37387 1.36866 1.37515 1.35354 1.35514 1.37164 1.33218 1.35921 1.33381 1.36848 1.34468 1.3818 1.35942 1.33043 1.35092 1.35851 1.45234 1.39064 1.4788 1.36593 1.35842 1.3635 1.3613 1.37761 1.3698 1.40818 1.3984 1.38933 1.36774 1.37881 1.35646 1.34659 1.35258 1.34703 1.36177 1.34867 1.35884 1.3512 1.3488 1.34346 1.37406 1.37281 1.37162 1.37543 1.36768 1.35703 1.37157 1.36362 1.33124 1.3271 1.32096 1.33751 1.35288 1.34653 1.3651 1.34701 1.40407 1.35029 1.54871 1.43414 1.35612 1.38253 1.36145 1.29466 1.34142 1.33545 1.41464 1.3951 1.41315 1.38101 1.39315 1.37445 1.36971 1.33616 1.33696 1.34367 1.33594 1.34377 1.35142 1.34654 1.34745 1.34465 1.33928 1.33536 1.32419 1.36576 1.36196 1.3651 1.36445 1.35703 1.35011 1.32145 1.37066 1.33074 1.33495 1.34789 1.35677 1.34948 1.35399 1.36489 1.3717 1.31566 1.33464 1.39745 1.3504 1.38787 1.38733 1.36423 1.36341 1.36042 1.36846 1.34867 1.39793 1.38428 1.38902 1.37657 1.36349 1.37772 1.32908 1.3242 1.3302 1.34006 1.3203 1.32447 1.35393 1.36761 1.33942 1.34867 1.31528 1.31222 1.19178 1.36404 1.36721 1.36345 1.3629 1.35539 1.31797 1.3582 1.32372 1.33173 1.34137 1.36663 1.36604 1.33521 1.3485 1.31727 1.33236 1.31874 1.3355 1.35398 1.36828 1.35447 1.35523 1.35615 1.35687 1.37022 1.36855 1.37292 1.3769 1.37677 1.38517 1.3819 1.37272 1.36355 1.36905 1.32371 1.37842 1.3332 1.30802 1.29791 1.34359 1.27787 1.34508 1.31852 1.36985 1.31073 1.29032 1.19178 1.37158 1.36921 1.36443 1.38321 1.34139 1.33638 1.33207 1.33039 1.31249 1.32931 1.37598 1.35459 1.36382 1.36354 1.34439 1.33495 1.32253 1.32216 1.34326 1.34339 1.34339 1.35209 1.34476 1.35013 1.36194 1.36076 1.36921 1.37064 1.37868 1.37783 1.33599 1.35677 1.3953 1.36195 1.33001 1.28556 1.30083 1.26432 1.27802 1.34175 1.25408 1.27449 1.29856 1.27842 1.19178 1.3975 1.41897 1.41763 1.33979 1.40978 1.39881 1.31363 1.30568 1.28471 1.32396 1.32715 1.32752 1.32866 1.34111 1.36722 1.36697 1.35401 1.33483 1.32187 1.33145 1.33321 1.34281 1.34579 1.33495 1.34153 1.35016 1.34582 1.3581 1.35483 1.31908 1.32333 1.27944 1.3189 1.3942 1.4285 1.4061 1.37937 1.31452 1.26501 1.29513 1.28489 1.29067 1.31714 1.27106 1.27349 1.28102 1.3565 1.4067 1.46288 1.29708 1.27072 1.2936 1.82677 1.30361 1.30118 1.34461 1.29826 1.36201 1.34086 1.34925 1.36089 1.35866 1.36723 1.35653 1.35838 1.32731 1.3783 1.34188 1.321 1.32063 1.32501 1.33235 1.31929 1.32407 1.3334 1.35499 1.35041 1.3481 1.32564 1.30357 1.32265 1.25923 1.32501 1.29908 1.24728 1.30123 1.48386 1.33633 1.3189 1.38604 1.33425 1.31963 1.27651 1.32006 1.29093 1.29895 1.39223 1.60702 1.41342 1.56144 1.20201 1.26235 1.40071 1.3371 1.37256 1.34382 1.33089 1.36418 1.34441 1.39869 1.35698 1.32536 1.35583 1.31126 1.40336 1.44803 1.42818 1.31093 1.28762 1.23966 1.32341 1.33127 1.34806 1.3289 1.315 1.20824 1.23306 1.22832 1.25189 1.40611 1.28039 1.40162 1.44171 1.39326 1.28428 1.43548 1.26199 1.47495 1.43315 1.39278 1.38907 1.65369 1.262 1.00153 1.54045 1.31562 1.31476 1.92042 0.872589 2.27711 1.2156 1.51615 1.57677 1.32547 1.30181 1.36554 1.4135 1.32372 1.37639 1.36064 1.35681 1.395 1.26525 1.39699 1.4213 1.50408 1.58501 1.19751 1.21479 1.25821 1.28603 1.28685 1.19816 1.32232 1.24308 1.35092 1.23175 1.25066 1.17431 1.18753 1.26474 1.22124 1.25521 1.35765 1.27851 1.36305 1.33375 1.32089 1.34734 1.41327 1.4929 1.34705 2.45057 2.39496 1.05451 1.07483 2.09311 1.39545 1.65484 1.13832 2.17793 1.78511 2.17776 1.25205 1.64004 1.67656 1.50681 0.890918 1.28802 1.19131 1.47045 1.29577 1.46931 1.41084 1.2761 1.12384 0.946539 1.11095 1.26978 1.2715 1.26649 1.15686 1.24999 1.39406 1.31855 1.35356 1.21356 1.13696 1.25009 1.19473 1.1838 1.17262 1.19609 1.23017 1.30971 1.27797 1.34665 1.33393 1.51243 1.37207 1.40847 0.275331 1.48836 1.34719 1.36936 1.05198 0.581428 0.929227 1.04191 1.12635 1.16891 1.0279 1.0665 1.12017 1.28184 1.35075 1.06659 1.70676 1.65173 0.724758 1.55139 1.53745 1.21161 1.17531 1.22921 1.01249 1.44014 1.18584 1.14329 1.11125 1.48747 1.26999 1.2555 1.32837 1.31489 1.22139 1.07838 1.05908 1.29154 1.11933 1.31438 1.24105 1.31296 1.13874 0.979432 1.33448 1.24384 1.24062 1.17971 1.20939 1.2132 1.188 1.19468 1.21398 1.28146 1.27489 1.50625 1.32892 1.13912 1.55288 1.67322 1.50361 1.05711 1.29711 1.11014 1.34749 1.38297 1.21963 1.1622 1.11052 0.779307 0.878646 0.861077 0.718697 0.792541 0.790759 0.792973 0.833411 0.954072 0.837015 1.03436 0.785649 1.00148 1.00387 1.16514 0.94928 0.872261 1.09117 1.15004 0.971649 1.37357 1.60476 1.1961 1.34885 1.03511 1.08726 1.03727 1.19483 1.24654 1.22812 1.2561 1.13538 1.08911 1.21618 1.02088 1.1528 1.18767 1.12873 1.13554 1.09232 1.07124 1.07426 1.18708 1.18528 1.18977 1.22359 1.13051 1.23994 1.14421 1.19798 1.23071 1.16441 1.05036 1.14705 1.22496 1.21524 1.14661 1.22506 1.04031 1.37931 0.831437 1.09465 1.10616 1.00261 0.967044 1.08013 0.9652 0.824544 0.987349 0.728588 0.906011 0.716478 0.756015 0.778637 0.784914 0.798599 0.803582 0.753148 0.761533 0.771173 0.716882 0.797787 1.04659 0.935791 0.857669 0.929254 0.980189 0.993443 1.05143 1.26042 0.808381 1.10324 1.12831 1.02633 1.09012 1.25096 1.18253 1.04821 1.16481 0.983838 1.14295 1.08064 1.11867 1.05755 1.16879 1.13779 1.13906 1.16965 1.06784 1.05423 1.12342 1.11659 1.11328 1.03069 0.970249 1.11827 1.09996 1.18639 1.20665 1.10028 1.16678 1.22048 1.04933 0.948798 1.0281 0.961971 1.15439 1.26532 1.21386 1.26411 1.03637 1.16685 1.14538 1.30366 1.04372 0.824218 1.05765 1.0401 0.923974 0.915236 0.971818 0.945305 0.869245 1.07788 0.953169 0.856843 0.746128 1.05582 0.785966 0.802808 0.792689 0.793757 0.796488 0.805485 0.813086 0.724076 0.726499 0.726708 0.728171 0.728212 0.722152 0.710932 0.796268 0.813885 0.798164 0.787246 0.794594 0.848901 0.809984 0.715743 0.558722 0.799291 1.1027 0.940634 0.733528 0.88178 0.805007 0.923311 0.862132 0.837412 0.835456 0.846185 1.0494 1.10608 0.965418 1.16021 1.04896 1.14104 1.06603 1.39485 1.17431 1.14547 0.807967 0.952756 1.04944 0.981343 1.02388 1.07672 1.05571 1.10309 1.11336 1.14483 1.05794 1.05993 1.02068 1.03062 1.08225 1.09103 1.08823 1.03903 0.983739 1.02194 1.03364 1.04632 1.05554 1.08145 1.1331 0.949509 1.10312 0.944004 1.00741 0.981398 1.09783 1.13391 0.731108 1.00131 1.61886 1.4379 1.20406 1.16278 0.783536 1.10979 1.11252 0.85196 1.04537 0.847535 0.728117 0.798431 0.799224 0.789987 0.752813 0.930292 0.813274 0.740598 0.811476 0.793399 0.802726 0.74188 0.835677 0.695768 0.840812 0.688529 0.699528 0.686866 0.716085 0.71168 0.70612 0.71659 0.719145 0.76521 0.721028 0.993845 0.616491 0.624707 0.197604 0.502068 0.757709 0.555551 0.437282 0.856742 0.884584 0.843965 0.813432 0.874978 0.851184 0.879666 0.886164 1.01268 0.919996 0.894412 0.845642 0.957202 1.05976 1.04799 1.07028 1.03678 0.922883 0.924161 1.06069 1.01794 0.975334 1.19212 0.994463 0.953529 0.799091 0.844278 0.738294 0.950493 0.996263 1.03628 1.12625 1.12017 0.941939 1.05338 0.967747 1.00084 0.976901 1.03362 1.10507 1.05707 0.999406 0.991388 1.0315 1.00332 1.01797 0.991072 0.962052 0.990469 0.9766 1.04939 0.987042 0.917124 1.0622 0.894909 0.839929 0.597329 0.79883 0.994949 0.99649 1.07414 0.814215 1.0277 0.910899 0.892924 0.888076 0.892596 0.740943 0.860552 0.800634 0.777128 0.783126 0.776008 0.792292 0.812367 0.792295 0.769159 0.782827 0.802248 0.749474 0.753941 0.699642 0.712639 0.715667 0.713079 0.704336 0.663282 0.655601 0.678123 0.676658 0.667812 0.662371 0.698458 0.67822 0.681594 0.683532 0.69004 0.73013 0.737789 0.840859 1.00329 0.839496 0.682458 0.748433 0.507567 1.10295 0.63643 0.804993 0.830769 0.84098 0.818646 0.84106 0.880532 0.892454 0.879449 0.891987 0.880733 0.906361 0.896212 0.864914 0.970489 1.04016 1.15087 1.17337 1.04137 0.885848 0.874293 0.855549 1.16558 1.1085 0.759617 1.06608 0.915941 0.993429 1.1719 0.982389 0.797559 0.978031 0.947624 0.976629 1.01261 0.999786 1.00411 0.976592 0.988256 0.964253 0.993042 0.976652 0.967327 0.971376 0.934221 0.905319 0.86282 0.825202 0.994233 0.881198 0.992617 0.872912 0.898708 0.848673 0.74819 0.737404 0.843595 0.807871 0.772318 0.838687 0.777336 0.782758 0.788913 0.785723 0.76748 0.752441 0.795521 0.770298 0.756803 0.766135 0.733117 0.73671 0.743693 0.746159 0.716301 0.749 0.730983 0.699936 0.703479 0.689448 0.679517 0.701382 0.62626 0.641506 0.653177 0.632291 0.639305 0.654119 0.656809 0.661615 0.670418 0.691797 0.692612 0.708839 0.709966 0.716765 0.725703 0.700827 0.722511 0.694222 0.669944 0.632085 0.564447 0.633037 0.763215 0.825888 0.823249 0.843259 0.871692 0.881316 0.874754 0.865423 0.875093 0.858229 0.877655 0.872665 1.11814 0.801065 0.812077 0.734653 0.771188 0.878228 0.741976 0.813691 0.675772 0.977111 0.905013 1.13241 0.84565 0.894336 0.79768 0.832215 0.737026 0.782105 0.782773 0.909513 1.05073 0.901969 0.760122 1.04272 1.01255 1.0325 1.06772 0.894093 0.978983 0.985417 0.946362 0.974147 0.910024 0.957548 0.955017 0.93624 0.937033 0.868217 0.665779 0.835521 0.888617 0.821742 0.855516 0.876641 0.90867 0.843781 0.867043 0.745412 0.818829 0.826611 0.851714 0.84338 0.697206 0.616812 0.849936 0.740035 0.729953 0.733689 0.836338 0.673912 0.727976 0.956895 0.7426 0.747776 0.718084 0.712408 0.738005 0.732759 0.693739 0.66852 0.656105 0.71406 0.666681 0.681172 0.679532 0.697917 0.690685 0.698409 0.693136 0.692163 0.614785 0.615549 0.622308 0.624014 0.617667 0.637793 0.634013 0.636278 0.634884 0.645758 0.659508 0.646536 0.663849 0.670575 0.675252 0.661658 0.686438 0.680488 0.690744 0.689424 0.683405 0.678959 0.703311 0.700087 0.688481 0.760628 0.748838 0.824658 0.810905 0.862737 0.840735 0.821236 0.79518 0.72838 0.598297 0.674719 0.828325 0.81104 0.785076 0.768822 0.837693 0.873675 0.775096 0.840356 0.830457 0.750002 0.773364 0.770902 0.792593 0.743485 0.72057 0.80041 0.991841 1.14326 0.766414 0.924405 0.929326 1.03863 0.899289 0.887109 0.990493 0.919063 1.00783 1.07233 0.941549 0.932653 0.825168 0.890339 0.865956 0.733243 0.787921 0.73055 0.755155 0.806363 0.893528 0.880817 0.68263 0.740946 0.846502 0.881886 0.683022 0.732286 0.734751 0.600336 0.814158 0.822079 0.801504 0.604098 0.786527 0.758956 0.824152 0.788194 0.763132 0.690023 0.642093 0.705461 0.709282 0.698821 0.702678 0.705899 0.702084 0.695438 0.70669 0.690069 0.687248 0.684462 0.667636 0.682248 0.673648 0.60871 0.60925 0.612604 0.612532 0.609936 0.618279 0.617239 0.614636 0.626203 0.624484 0.629637 0.62745 0.633453 0.653796 0.655785 0.658841 0.656759 0.674324 0.660492 0.668689 0.675689 0.671975 0.663459 0.686252 0.686034 0.695594 0.714135 0.721002 0.751197 0.781259 0.745441 0.779846 0.829918 0.814327 0.76569 0.793833 0.742805 0.750333 0.732312 0.715334 0.674763 0.616323 0.619453 0.842115 0.803511 0.835445 0.786875 0.792622 0.793566 0.806098 0.813851 0.834195 0.717808 0.754638 0.800879 0.787049 0.8343 0.783684 0.787645 0.751988 0.793083 0.765824 0.871595 0.758517 0.859702 0.662916 0.818527 0.778247 0.554638 0.703204 0.80996 0.985225 0.95514 0.870557 0.85275 0.85049 0.916454 0.872042 0.942752 0.85506 0.857182 0.871352 0.73495 0.79922 0.805276 0.731258 0.857881 0.791241 0.797907 0.718714 0.657689 0.68513 0.672012 0.636767 0.731411 0.650816 0.88169 0.750674 0.653441 0.644961 0.55492 0.672156 0.583521 0.972415 0.848586 0.621085 0.808763 0.662008 0.930325 0.905884 0.999353 0.986163 0.793348 0.289398 0.728987 0.560381 0.68249 0.682045 0.68623 0.67345 0.687647 0.671857 0.667267 0.715171 0.671468 0.681306 0.670777 0.62785 0.667353 0.664687 0.650143 0.638515 0.631053 0.590826 0.598712 0.607159 0.608624 0.609317 0.608538 0.611492 0.610576 0.607039 0.61121 0.605407 0.610078 0.614448 0.617263 0.614918 0.619654 0.616598 0.620137 0.650089 0.649611 0.658782 0.647432 0.67115 0.674093 0.65532 0.66589 0.681106 0.704567 0.719692 0.709788 0.732294 0.709281 0.736627 0.71889 0.731571 0.72173 0.755748 0.749968 0.753046 0.802388 0.627657 0.833641 0.480198 0.684264 0.583228 0.760581 0.806674 0.778508 0.78249 0.807272 0.778489 0.751074 0.82026 0.738999 0.806997 0.788628 0.744757 0.75734 0.682472 0.830671 0.672645 0.427726 0.718444 0.878519 0.772718 0.822024 0.685289 0.782214 0.659817 0.746624 0.859372 0.889671 0.747512 0.853524 0.815719 0.811067 0.818911 0.810606 0.843715 0.824186 0.826336 0.8268 0.816934 0.725974 0.849787 0.736089 0.744352 0.679905 0.642222 0.63341 0.594608 0.666055 0.638291 0.594803 0.61889 0.606612 0.609954 0.707561 0.637516 0.581331 0.658595 0.60756 0.912237 0.420671 0.553453 0.848153 0.650995 0.498185 0.604357 0.665473 0.629529 0.632107 0.554319 0.596424 0.652674 0.608348 0.630745 0.638856 0.648112 0.634373 0.641527 0.639248 0.621709 0.619056 0.638709 0.617351 0.609538 0.607459 0.543562 0.547985 0.569612 0.654934 0.608784 0.617934 0.620602 0.618114 0.622964 0.617348 0.62005 0.615444 0.621136 0.625758 0.620454 0.608895 0.625121 0.634231 0.642745 0.653106 0.65649 0.684481 0.677738 0.706322 0.720959 0.683272 0.676393 0.770875 0.696961 0.670287 0.764738 0.68042 0.723698 0.56094 0.772529 0.723088 0.766772 0.730877 0.824268 0.765736 0.870168 0.799401 0.538834 0.456681 0.521846 0.715826 0.78031 0.757558 0.756306 0.729359 0.769388 0.772645 0.73874 0.756329 0.78148 0.778555 0.780099 0.758588 0.73841 0.756714 0.722535 0.715515 0.693836 0.739329 0.569871 0.587101 0.574315 0.6865 0.837144 0.785668 0.736264 0.652367 0.758209 0.766994 0.697249 0.687521 0.724687 0.725472 0.708828 0.706634 0.758636 0.797697 0.826464 0.803219 0.830196 0.749517 0.752247 0.680788 0.751254 0.688522 0.722839 0.693617 0.746109 0.824982 0.780006 0.632268 0.712795 0.615535 0.6268 0.713726 0.680023 0.659432 0.623159 0.607403 0.606627 0.773944 0.513173 0.592617 0.886961 0.512245 0.601436 0.496852 0.518131 0.496132 0.501944 0.602793 0.536411 0.57351 0.57444 0.62379 0.68188 0.602076 0.629136 0.648187 0.637657 0.62296 0.637162 0.632439 0.634905 0.637191 0.614424 0.618141 0.619684 0.588762 0.609732 0.596983 0.605905 0.613386 0.612799 0.608391 0.555728 0.551553 0.553166 0.545304 0.537079 0.540823 0.599481 0.563152 0.623412 0.627794 0.622687 0.620308 0.613975 0.605324 0.596803 0.614044 0.626906 0.626792 0.639793 0.644956 0.663117 0.652405 0.702792 0.676141 0.659235 0.699069 0.60524 0.641732 0.67432 0.633485 0.663668 0.7623 0.723635 0.710729 0.75098 0.724224 0.707851 0.765289 0.595537 0.596633 0.433428 0.658287 0.809542 1.00953 0.768993 0.654185 0.501704 0.49259 0.85124 0.679431 0.702888 0.763005 0.758931 0.735336 0.79295 0.74625 0.679561 0.655845 0.671817 0.644577 0.596428 0.558715 0.607609 0.667163 0.723481 0.82159 0.821764 0.800813 0.71425 0.65628 0.700692 0.680277 0.666023 0.700308 0.609418 0.747993 0.675273 0.775938 0.848272 0.792847 0.681928 0.770145 0.723084 0.628742 0.69412 0.720474 0.770141 0.725979 0.749119 0.8119 0.672509 0.727414 0.749277 0.597627 0.576329 0.927777 0.762865 0.69176 0.667964 0.73424 0.615805 0.615726 0.572466 0.604713 0.610639 0.587615 0.611291 0.554021 0.597979 0.605748 0.602949 0.625487 0.613329 0.605689 0.627518 0.629742 0.601755 0.617669 0.607141 0.576846 0.571467 0.614331 0.591693 0.57849 0.590727 0.573992 0.580918 0.539955 0.533085 0.559195 0.550547 0.567452 0.560354 0.55059 0.567814 0.578692 0.548105 0.554364 0.579975 0.553511 0.677617 0.70398 0.647166 0.63298 0.620449 0.592165 0.606697 0.587983 0.571904 0.598915 0.580209 0.600063 0.578588 0.699293 0.625323 0.627715 0.653824 0.662738 0.674942 0.680852 0.678357 0.673672 0.710743 0.677325 0.641536 0.620722 0.611754 0.674291 0.742792 0.678101 0.740129 0.712376 0.724147 0.71384 0.706188 0.703878 0.699427 0.644344 0.63198 0.637436 0.625788 0.598764 0.720103 0.724721 0.749898 0.530586 1.23172 1.07186 0.70545 0.834278 0.636502 0.751986 0.732082 0.712159 0.791442 0.693583 0.615654 0.600309 0.641946 0.646436 0.642129 0.66246 0.634198 0.677969 0.693444 0.767133 0.834745 0.723319 0.645867 0.710282 0.621883 0.617936 0.752734 0.696278 0.692839 0.756846 0.697477 0.710962 0.69573 0.64307 0.669953 0.599497 0.643743 0.61347 0.669836 0.738698 0.682492 0.751585 0.722937 0.688894 0.607457 0.655264 0.686992 0.537746 0.61624 0.559307 0.589136 0.720535 0.615815 0.623505 0.643806 0.643756 0.647127 0.612132 0.67354 0.604036 0.597958 0.594806 0.594119 0.603889 0.597695 0.601389 0.604133 0.614486 0.584472 0.606139 0.603401 0.594086 0.553259 0.582671 0.564104 0.563942 0.560372 0.557306 0.539165 0.550519 0.569305 0.561131 0.55213 0.542085 0.500648 0.53725 0.529301 0.508371 0.508396 0.516157 0.534608 0.535705 0.565066 0.543374 0.559055 0.576801 0.575985 0.622357 0.725068 0.662392 0.923343 0.69906 0.633778 0.623807 0.585125 0.551151 0.538851 0.532176 0.547217 0.515404 0.525899 0.506204 0.440092 0.552566 0.608556 0.571294 0.685472 0.743475 0.728591 0.693849 0.700782 0.738364 0.687274 0.737012 0.755413 0.709002 0.711273 0.682833 0.648756 0.677745 0.655608 0.649477 0.656667 0.586511 0.677909 0.654512 0.579652 0.541507 0.605527 0.66323 0.72458 0.792825 0.735531 0.640628 0.700358 0.660985 0.697105 0.60137 0.640524 0.641157 0.61061 0.652724 0.66275 0.660913 0.634751 0.615837 0.662735 0.695979 0.628219 0.757895 0.77839 0.867361 0.738197 0.599909 0.545639 0.588004 0.616147 0.572208 0.609838 0.694115 0.695474 0.663858 0.702545 0.671165 0.608633 0.583544 0.636617 0.617798 0.653794 0.696723 0.696123 0.632744 0.643456 0.664467 0.62534 0.599054 0.589864 0.592661 0.579988 0.515299 0.583724 0.527834 0.610251 0.690854 0.583291 0.698413 0.641347 0.638587 0.631047 0.634126 0.614206 0.616315 0.596144 0.597889 0.592177 0.609001 0.590745 0.610155 0.63143 0.608992 0.61422 0.616841 0.550762 0.573958 0.573558 0.546356 0.538402 0.489236 0.511447 0.57207 0.548299 0.549652 0.543727 0.536962 0.546614 0.535859 0.566098 0.531882 0.510151 0.569639 0.491372 0.505646 0.399183 0.473454 0.526819 0.499576 0.541264 0.524804 0.549982 0.538317 0.895861 0.368022 0.558509 0.553532 0.544174 0.574337 0.644166 0.56048 0.525794 0.490209 0.562488 0.550204 0.588942 0.573364 0.692534 0.693835 0.657852 0.618041 0.651087 0.686915 0.742019 0.535139 0.640998 0.615197 0.576915 0.606173 0.605451 0.564782 0.586848 0.603468 0.630499 0.573248 0.613507 0.565564 0.56802 0.510481 0.568725 0.602644 0.613375 0.654645 0.663181 0.649773 0.71276 0.725123 0.679711 0.659793 0.639103 0.607817 0.628329 0.620722 0.624656 0.634982 0.641319 0.653603 0.665861 0.67191 0.677542 0.670175 0.683691 0.656675 0.668126 0.676194 0.6561 0.715016 0.953599 0.612458 0.634999 0.602409 0.583575 0.591483 0.641006 0.623211 0.634869 0.667167 0.60585 0.588015 0.554583 0.537037 0.597191 0.531699 0.573216 0.636141 0.586256 0.6684 0.680687 0.658519 0.690456 0.639218 0.583879 0.59923 0.596712 0.60257 0.584513 0.57202 0.613353 0.514943 0.629753 0.507739 0.647059 0.573586 0.606798 0.613508 0.599096 0.574915 0.615045 0.579467 0.563463 0.573952 0.550756 0.607886 0.63514 0.604216 0.62709 0.67871 0.659227 0.555514 0.518988 0.541075 0.496693 0.482852 0.540942 0.508318 0.547787 0.553123 0.558598 0.548738 0.5416 0.53174 0.521579 0.512959 0.503122 0.497726 0.480499 0.477984 0.476587 0.494539 0.549998 0.517941 0.522613 0.471947 0.476504 0.433167 0.542511 0.483481 0.347628 0.534239 0.539217 0.485465 0.477975 0.468988 0.278535 0.453014 0.438074 0.452147 0.465266 0.551399 0.622873 0.547772 0.519213 0.577734 0.541832 0.464686 0.322857 0.633137 0.500229 0.450583 0.540906 0.528039 0.638559 0.634308 0.616108 0.639095 0.563178 0.542753 0.609395 0.55625 0.62224 0.573716 0.567851 0.547435 0.546158 0.533401 0.559207 0.544716 0.553239 0.531797 0.528172 0.519414 0.534705 0.588702 0.530733 0.612437 0.643601 0.690886 0.641152 0.663784 0.630435 0.608816 0.61014 0.60569 0.605396 0.653211 0.679452 0.688025 0.677007 0.675937 0.682275 0.667559 0.710014 0.6413 0.659133 0.53833 0.343476 0.37869 0.582767 0.603922 0.64129 0.623287 0.597663 0.62374 0.614191 0.615256 0.620971 0.673618 0.616372 0.592051 0.626512 0.554071 0.533447 0.541183 0.60731 0.643743 0.56541 0.614953 0.711739 0.652753 0.580516 0.565281 0.598751 0.555931 0.539874 0.549228 0.551755 0.563635 0.579094 0.569981 0.556082 0.568677 0.534282 0.555805 0.527168 0.527262 0.540141 0.551255 0.556513 0.549404 0.581493 0.543239 0.558839 0.622789 0.587976 0.681627 0.624398 0.584764 0.475866 0.525205 0.540295 0.554303 0.558427 0.520243 0.48921 0.458393 0.474768 0.465055 0.451059 0.424495 0.412675 0.445098 0.472645 0.485451 0.502692 0.50313 0.491071 0.498631 0.492887 0.463704 0.477931 0.376077 0.387382 0.297768 0.706278 0.675917 0.607495 0.540483 0.476627 0.454079 0.409055 0.437873 0.42142 0.462532 0.482531 0.462786 0.498808 0.504073 0.415265 0.40753 0.446969 0.540259 0.425278 0.473246 0.477242 0.547164 0.612033 0.560267 0.584675 0.59223 0.492027 0.492989 0.511553 0.561368 0.529798 0.527 0.517999 0.533437 0.521073 0.517224 0.538248 0.584866 0.579203 0.602957 0.616886 0.626584 0.659688 0.657737 0.667738 0.65887 0.612758 0.591718 0.613903 0.680585 0.729374 0.704067 0.679232 0.673892 0.675816 0.65576 0.621076 0.6184 0.585891 0.489442 0.543579 0.572648 0.597548 0.617774 0.613738 0.610324 0.612545 0.612493 0.616222 0.603342 0.603612 0.602504 0.562455 0.544965 0.554841 0.54679 0.553871 0.544188 0.53909 0.606682 0.547787 0.555578 0.519384 0.532055 0.514276 0.534031 0.517657 0.56364 0.574053 0.542899 0.529719 0.516443 0.515754 0.533893 0.510495 0.486325 0.517175 0.570557 0.559102 0.603876 0.558293 0.500183 0.569872 0.472375 0.494383 0.500033 0.495822 0.548309 0.579781 0.49999 0.588215 0.439623 0.537508 0.434945 0.464425 0.411257 0.391793 0.401864 0.389411 0.436107 0.423352 0.501905 0.538872 0.52918 0.494479 0.465972 0.47501 0.479939 0.456096 0.38285 0.396229 0.570868 0.561798 0.600653 0.464809 0.355778 0.395635 0.430245 0.44223 0.493421 0.48667 0.489198 0.422721 0.423491 0.492828 0.339982 0.453389 0.432793 0.441866 0.487149 0.43343 0.508186 0.509555 0.533235 0.522646 0.508211 0.501909 0.514137 0.516371 0.513989 0.515565 0.518987 0.524671 0.521563 0.514684 0.52479 0.52981 0.555967 0.605828 0.592362 0.630993 0.645878 0.630772 0.644675 0.687527 0.582974 0.590926 0.587957 0.572097 0.625116 0.815203 0.703902 1.02359 0.732485 0.518581 0.602976 0.602596 0.611651 0.599262 0.588199 0.5544 0.600151 0.58934 0.599262 0.60318 0.606873 0.611787 0.596984 0.595364 0.587246 0.593477 0.574115 0.581744 0.568627 0.560355 0.55314 0.554315 0.544103 0.535118 0.534406 0.533241 0.541732 0.522149 0.532068 0.517184 0.520694 0.513919 0.513659 0.531586 0.513109 0.518935 0.500352 0.53663 0.54645 0.520315 0.492886 0.496846 0.489706 0.490349 0.478269 0.467652 0.488824 0.427603 0.461477 0.441901 0.357856 0.240812 0.471244 0.388439 0.474756 0.436843 0.48304 0.495281 0.46106 0.49263 0.507163 0.516117 0.498195 0.478835 0.47975 0.465482 0.447208 0.405297 0.396626 0.374783 0.381722 0.379579 0.347097 0.308766 0.396918 0.40553 0.36532 0.366148 0.340559 0.393899 0.405222 0.39133 0.36993 0.370886 0.413743 0.418826 0.605388 0.578923 0.431707 0.486613 0.423452 0.366664 0.435659 0.449822 0.492056 0.450573 0.431406 0.428847 0.433653 0.413066 0.440946 0.465699 0.448759 0.44695 0.442833 0.453363 0.477459 0.478539 0.489588 0.513201 0.513293 0.505603 0.510648 0.508048 0.504663 0.495357 0.504168 0.502585 0.501382 0.502406 0.508997 0.508153 0.509556 0.510008 0.517708 0.526831 0.526231 0.530214 0.534556 0.525811 0.56327 0.59129 0.635015 0.64435 0.648165 0.613215 0.562606 0.602809 0.64454 0.644358 0.592257 0.569656 0.70702 0.626191 1.20461 0.646397 0.596203 0.506301 0.657947 0.634155 0.618334 0.721615 0.593211 0.565307 0.57581 0.587717 0.601035 0.605813 0.592058 0.592157 0.605038 0.608031 0.605875 0.581892 0.590679 0.583996 0.579037 0.573817 0.564979 0.54367 0.551564 0.535468 0.528679 0.534732 0.530787 0.527675 0.516174 0.524664 0.511937 0.507407 0.507719 0.505586 0.520636 0.512789 0.502047 0.495519 0.488248 0.497272 0.497361 0.492111 0.480481 0.459618 0.511275 0.463314 0.4477 0.434161 0.434295 0.440225 0.471447 0.471736 0.441113 0.493806 0.474252 0.510169 0.489731 0.476897 0.47734 0.436597 0.470037 0.413299 0.332891 0.396128 0.317232 0.353398 0.31696 0.291559 0.285355 0.267793 0.374964 0.393501 0.367387 0.367885 0.370104 0.360211 0.374829 0.37687 0.396135 0.402282 0.418074 0.40458 0.404922 0.388905 0.378132 0.388684 0.414164 0.422263 0.367512 0.486697 0.489525 0.463816 0.432906 0.444612 0.458347 0.455415 0.457864 0.460723 0.434678 0.437828 0.448735 0.449444 0.452632 0.457766 0.476174 0.492413 0.50759 0.511265 0.509861 0.504612 0.50316 0.503654 0.506411 0.504102 0.515698 0.522783 0.530727 0.535768 0.550544 0.560516 0.581142 0.651625 0.608928 0.586863 0.627466 0.685512 0.665053 0.728088 0.717071 0.704459 0.687617 0.792656 1.08061 0.780913 0.730206 0.760704 0.689757 0.836189 0.621149 0.539457 0.574252 0.599428 0.600928 0.610229 0.583966 0.620741 0.577228 0.582067 0.591868 0.582377 0.583166 0.584102 0.587439 0.591696 0.580334 0.570457 0.557521 0.536118 0.521911 0.531096 0.530653 0.534973 0.524643 0.518636 0.509162 0.509902 0.514761 0.513309 0.506082 0.514341 0.516002 0.509287 0.512762 0.509881 0.512339 0.50398 0.497753 0.500075 0.497886 0.503099 0.498677 0.482983 0.481954 0.445091 0.472841 0.442813 0.449878 0.432732 0.43692 0.433311 0.435441 0.458543 0.458042 0.435247 0.446135 0.416996 0.404018 0.380012 0.333114 0.342908 0.38111 0.317442 0.290961 0.28444 0.274884 0.268963 0.257781 0.247855 0.259356 0.248546 0.366661 0.34421 0.375086 0.381112 0.394046 0.396279 0.393046 0.387566 0.379807 0.380427 0.37859 0.379833 0.384508 0.387938 0.400984 0.397129 0.401226 0.40481 0.404191 0.409782 0.41805 0.429931 0.439078 0.436777 0.447256 0.442097 0.451109 0.456409 0.457298 0.45991 0.455845 0.456818 0.442116 0.45791 0.451291 0.45953 0.463908 0.46769 0.484954 0.480472 0.491462 0.506783 0.512945 0.51436 0.511088 0.508703 0.50634 0.511998 0.524537 0.52891 0.535137 0.531947 0.537755 0.535616 0.543258 0.610752 0.580897 0.458613 0.697022 0.595669 0.597117 0.610611 0.57461 0.643517 0.733541 0.7527 0.682347 0.629692 0.393984 0.152144 0.462193 0.709796 0.755468 0.715809 0.352403 0.592658 0.619443 0.60601 0.637065 0.608113 0.619651 0.664635 0.603974 0.583148 0.557847 0.501103 0.612801 0.564951 0.629318 0.573719 0.604106 0.603026 0.635372 0.618303 0.587183 0.592344 0.542724 0.565752 0.526929 0.508992 0.547036 0.531248 0.525211 0.521444 0.53179 0.518375 0.518375 0.521713 0.519966 0.516436 0.519059 0.509146 0.514606 0.514134 0.504871 0.510147 0.506201 0.495521 0.504485 0.479123 0.469906 0.450845 0.445511 0.432532 0.440175 0.435361 0.429505 0.432516 0.432436 0.433384 0.433316 0.433868 0.44697 0.45784 0.443541 0.431853 0.4328 0.419763 0.403309 0.423016 0.376845 0.379586 0.335905 0.305187 0.289284 0.276848 0.257444 0.26964 0.24911 0.261533 0.268684 0.275704 0.131693 0.256719 0.322459 0.450023 0.4155 0.410298 0.429789 0.398332 0.400122 0.379794 0.377773 0.382958 0.396882 0.406264 0.402146 0.410664 0.403029 0.411513 0.406993 0.416028 0.42437 0.432803 0.428989 0.445595 0.456074 0.455061 0.455658 0.461314 0.458978 0.46574 0.462237 0.462874 0.466858 0.462616 0.474323 0.472169 0.477825 0.4781 0.498801 0.505558 0.512599 0.514954 0.51415 0.519289 0.515262 0.515385 0.51459 0.521707 0.533663 0.534469 0.536832 0.540446 0.542353 0.570465 0.447705 0.602876 0.625295 0.650373 0.596093 0.636567 0.633914 0.68034 0.65249 0.575401 0.419519 0.468987 0.608857 0.583258 0.906595 0.761532 0.539509 0.4869 0.612132 0.598168 0.651615 0.649677 0.639823 0.50852 0.436302 0.494404 0.555974 0.609172 0.6731 0.614247 0.5653 0.547386 0.542961 0.536582 0.565245 0.538086 0.554834 0.527526 0.542239 0.525597 0.524743 0.528172 0.524683 0.521857 0.517681 0.519803 0.516672 0.511657 0.506713 0.49224 0.475704 0.464507 0.455547 0.444811 0.453737 0.437006 0.433622 0.433945 0.435781 0.448196 0.456707 0.446149 0.468475 0.437224 0.433084 0.409082 0.399171 0.349727 0.365413 0.316765 0.332318 0.298345 0.286589 0.265117 0.252756 0.247812 0.219909 0.293993 0.327959 0.0768956 0.104619 0.113068 0.586312 0.479289 0.478594 0.488377 0.447988 0.370869 0.394612 0.372076 0.35676 0.372583 0.391463 0.381237 0.408866 0.415759 0.414245 0.43474 0.415328 0.44889 0.423697 0.432592 0.445619 0.445438 0.46145 0.471325 0.469303 0.481869 0.46836 0.464933 0.463335 0.474466 0.469949 0.478472 0.484274 0.480054 0.498135 0.491696 0.501407 0.504943 0.506859 0.51198 0.516999 0.523519 0.524517 0.519831 0.522887 0.52299 0.525046 0.530105 0.531238 0.542198 0.538519 0.540593 0.53181 0.506977 0.505126 0.490484 0.524183 0.541841 0.638314 0.645813 0.680666 0.662746 0.565839 0.615831 0.597226 0.451054 0.533241 0.448459 0.460359 0.592028 0.531307 0.468485 0.535485 0.602412 0.566177 0.767638 0.776347 0.293235 0.580846 0.751344 0.707987 0.576804 0.653602 0.687816 0.685699 0.623307 0.480567 0.383436 0.370296 0.553063 0.606756 0.725831 0.601542 0.588482 0.553216 0.571018 0.559145 0.556696 0.558506 0.549246 0.532385 0.542228 0.539479 0.528232 0.535747 0.528607 0.529414 0.535245 0.523387 0.525093 0.523451 0.516278 0.513626 0.493076 0.47798 0.466622 0.488758 0.452333 0.447114 0.450671 0.442237 0.438155 0.43735 0.432862 0.426554 0.44939 0.489246 0.44682 0.443666 0.472916 0.4623 0.44729 0.429944 0.432095 0.449272 0.40843 0.384447 0.378013 0.312243 0.33131 0.295807 0.22982 0.227008 0.310027 0.419629 0.467982 2.10856 0.578297 0.400153 0.351451 0.39252 0.390798 0.361142 0.404248 0.356804 0.335625 0.364607 0.402926 0.43709 0.44019 0.51379 0.427022 0.455555 0.452057 0.491582 0.492099 0.50621 0.497377 0.482411 0.488081 0.489713 0.494754 0.49496 0.491436 0.503245 0.500334 0.508127 0.511831 0.512586 0.517253 0.51788 0.5256 0.528336 0.524668 0.534073 0.543966 0.542058 0.549399 0.548815 0.542661 0.523444 0.524759 0.578943 0.547095 0.556814 0.542262 0.583584 0.625791 0.646023 0.599352 0.591954 0.492639 0.508454 0.457002 0.462035 0.520566 0.573343 0.565267 0.579414 0.549036 0.464888 0.600972 0.684497 0.433859 0.439282 0.517903 0.498872 0.56389 0.668404 0.449411 0.451337 0.748019 0.642345 0.63459 0.419913 0.397515 0.368943 0.644169 0.50248 0.659222 0.805356 0.457628 0.688666 0.622556 0.635481 0.573753 0.563858 0.572553 0.56084 0.559404 0.555093 0.544445 0.549503 0.543472 0.538377 0.532183 0.530997 0.530391 0.528167 0.528044 0.526291 0.522612 0.527592 0.525783 0.502264 0.499446 0.487835 0.476527 0.472137 0.477644 0.465616 0.451123 0.465116 0.447572 0.447017 0.422754 0.449066 0.433916 0.451099 0.461012 0.464118 0.464801 0.449281 0.436036 0.416736 0.415866 0.418079 0.388571 0.342212 0.386517 0.359864 0.298149 0.208686 0.308689 0.185023 0.240674 0.499702 0.947404 0.582448 0.171299 0.340831 0.513067 0.343617 0.281039 0.332232 0.340518 0.523633 0.536841 0.344271 0.346865 0.349525 0.348024 0.384593 0.421579 0.362931 0.704742 0.498151 0.369905 0.530113 0.498062 0.510019 0.510091 0.521974 0.510898 0.510203 0.499962 0.505156 0.498834 0.499402 0.503892 0.499456 0.507398 0.508577 0.513765 0.518785 0.524668 0.536493 0.538118 0.541949 0.54049 0.551453 0.551405 0.594401 0.526206 0.593744 0.547773 0.567578 0.572922 0.569938 0.609408 0.603108 0.560733 0.474539 0.468521 0.57371 0.605399 0.672708 0.565134 0.628387 0.504241 0.262866 0.182997 0.487417 0.735704 0.442572 0.462827 0.614649 0.684133 0.580135 0.495832 0.545519 0.474651 0.67931 0.382024 0.397136 0.907339 0.952243 0.647932 0.502247 0.628375 0.647571 0.601756 0.592421 0.571329 0.565858 0.55767 0.551801 0.551275 0.544579 0.541523 0.537282 0.531892 0.528484 0.518411 0.522629 0.528782 0.539867 0.519416 0.493397 0.477179 0.470267 0.462975 0.470104 0.455218 0.465025 0.457056 0.460758 0.446809 0.445934 0.465258 0.449172 0.457728 0.462366 0.445328 0.44354 0.438287 0.443286 0.406856 0.413976 0.384059 0.313212 0.389298 0.240106 0.128564 0.198153 0.593452 0.46569 0.539178 0.470586 0.393054 0.483486 0.434714 0.638536 0.713963 0.316358 0.493696 0.399644 0.370572 0.348463 0.218321 1.03957 0.751463 0.496645 0.473479 0.506171 0.507805 0.529689 0.532303 0.51774 0.522772 0.510614 0.503491 0.502629 0.50969 0.512056 0.513712 0.519482 0.52673 0.532467 0.542114 0.547551 0.550926 0.611759 0.591528 0.591348 0.6009 0.595801 0.574871 0.586707 0.584785 0.599189 0.596224 0.607741 0.601665 0.529639 0.434249 0.464649 0.0953371 0.239103 0.263374 0.717755 0.265467 0.385725 0.257712 0.103742 0.622318 0.42199 0.58728 0.285772 0.530937 0.546509 0.341607 0.376341 0.630027 0.538496 0.690104 0.513875 0.356072 0.534507 0.584642 0.625074 0.615011 0.592677 0.577615 0.573416 0.576377 0.559503 0.557647 0.549964 0.559748 0.547012 0.54057 0.529517 0.538546 0.531264 0.506829 0.519243 0.512672 0.474382 0.472342 0.471942 0.469368 0.468468 0.470849 0.475849 0.460457 0.436863 0.436853 0.489821 0.467808 0.49763 0.464647 0.443106 0.436208 0.43469 0.447382 0.43451 0.479033 0.426567 0.413138 0.288712 0.416385 0.334759 0.711096 0.363491 0.236263 0.434157 0.630157 0.496449 0.368355 0.204704 0.277791 0.642034 0.709888 0.42293 0.445995 0.737598 0.421897 0.329947 0.118125 0.140003 0.402203 0.764652 0.479535 0.49005 0.537864 0.510611 0.533567 0.513341 0.503443 0.467289 0.491977 0.505124 0.513694 0.526681 0.531246 0.535224 0.535553 0.550715 0.5563 0.565285 0.568595 0.589823 0.584756 0.59111 0.59186 0.582661 0.579446 0.582257 0.581574 0.613891 0.605738 0.700936 0.673704 0.440343 0.349976 0.354992 0.384743 0.561914 0.301135 0.377457 0.255197 0.565795 0.417191 0.293748 0.413325 0.566566 0.395857 0.787122 0.505897 0.663429 0.680512 0.659476 0.648339 0.632178 0.607498 0.582876 0.582833 0.569527 0.568325 0.557846 0.552265 0.545305 0.543686 0.531207 0.513383 0.515297 0.473848 0.505906 0.471932 0.482296 0.472825 0.471893 0.46825 0.465284 0.482261 0.495827 0.403402 0.375724 0.432743 0.407428 0.37476 0.440617 0.401243 0.415786 0.414949 0.471605 0.410776 0.374757 0.352699 0.456389 0.605565 0.32541 0.294364 0.208551 0.4904 0.619586 0.507915 0.541862 0.435004 0.277511 0.145375 0.262889 0.522075 0.472262 0.610791 0.661199 0.510423 0.161226 0.34914 0.169609 0.124661 0.108536 0.159047 0.254832 0.662957 0.48815 0.444352 0.484689 0.455792 0.551393 0.480424 0.479756 0.495358 0.48868 0.512844 0.516739 0.518424 0.531211 0.526579 0.533774 0.550819 0.551826 0.554838 0.566503 0.573504 0.578074 0.582232 0.595932 0.588496 0.58341 0.575997 0.576575 0.573381 0.618485 0.389187 0.589768 0.248778 0.478235 0.570634 0.636071 0.643151 0.654028 0.649937 0.619299 0.606604 0.605064 0.588641 0.578664 0.565776 0.563018 0.551679 0.558854 0.545119 0.532321 0.530675 0.516049 0.518186 0.500778 0.514369 0.482825 0.484695 0.468337 0.464553 0.463763 0.459581 0.455229 0.457766 0.518056 0.377257 0.360997 0.339395 0.391236 0.348757 0.400521 0.381666 0.392469 0.312675 0.32599 0.346321 0.488403 0.305106 0.29208 0.484891 0.478037 0.520358 0.532184 0.373328 0.298848 0.425389 0.270056 0.403537 0.429813 0.347211 0.328946 0.231455 0.186302 0.281744 0.313334 0.437591 0.485564 0.533198 0.511681 0.47507 0.516284 0.477745 0.485466 0.493202 0.446905 0.44799 0.474805 0.47756 0.511001 0.534915 0.543431 0.543492 0.552802 0.574687 0.573599 0.575938 0.573779 0.590089 0.582776 0.61206 0.58641 0.603498 0.578447 0.588635 0.580591 0.574265 0.570272 0.565229 0.554947 0.5348 0.55354 0.536664 0.52544 0.527663 0.519823 0.512437 0.474876 0.44287 0.460645 0.474716 0.472607 0.384853 0.337358 0.329403 0.249484 0.364227 0.373421 0.286826 0.393517 0.326638 0.377691 0.340993 0.347822 0.420366 0.409 0.391385 0.30146 0.321435 0.33027 0.34868 0.480524 0.517059 0.535729 0.421809 0.342075 0.275397 0.394749 0.429619 0.252536 0.36311 0.303158 0.447416 0.46876 0.496741 0.54132 0.487803 0.473097 0.542481 0.482478 0.480273 0.494819 0.504543 0.535521 0.57306 0.579296 0.573097 0.560779 0.557512 0.542105 0.533098 0.533593 0.529223 0.503821 0.472108 0.476378 0.430308 0.461 0.482777 0.455602 0.421333 0.342881 0.282586 0.326555 0.331604 0.385151 0.374945 0.382118 0.443867 0.387249 0.337113 0.327389 0.324677 0.501147 0.478632 0.546672 0.414995 0.342563 0.390474 0.215697 0.331709 0.415482 0.514083 0.444711 0.464932 0.482421 0.567336 0.474431 0.537482 0.51977 0.512168 0.488551 0.478464 0.511803 0.4757 0.453082 0.449388 0.434317 0.405366 0.325373 0.319759 0.373161 0.374567 0.438754 0.375469 0.329924 0.334468 0.454633 0.569463 0.349207 0.387389 0.346368 
SCALARS Stress float 1
LOOKUP_TABLE default
-62978600000.0 -73399700000.0 -43629300000.0 -131190000000.0 -168237000000.0 -111710000000.0 -91645800000.0 -18249300000.0 -36803000000.0 -141514000000.0 -57751700000.0 -144315000000.0 -316233000000.0 -143780000000.0 -158115000000.0 -486398000000.0 -499725000000.0 -247158000000.0 -356253000000.0 -145063000000.0 -164220000000.0 -86674400000.0 -168755000000.0 -128738000000.0 -300469000000.0 -423006000000.0 -175045000000.0 -69641600000.0 -136113000000.0 -194246000000.0 -77654600000.0 -34359700000.0 -30643700000.0 -23923800000.0 -37437600000.0 -254331000000.0 -264473000000.0 -434588000000.0 -742053000000.0 -121684000000.0 -102618000000.0 -654842000000.0 -164145000000.0 -941783000000.0 -218290000000.0 -302055000000.0 -672085000000.0 -291643000000.0 -267796000000.0 -579839000000.0 -422084000000.0 -427225000000.0 -327351000000.0 -248325000000.0 -171238000000.0 -41221100000.0 -194901000000.0 -295413000000.0 -95187900000.0 -27052900000.0 -70823200000.0 -162196000000.0 -462630000000.0 -191961000000.0 -566820000000.0 -330089000000.0 -653505000000.0 -366910000000.0 -567649000000.0 -448549000000.0 -662038000000.0 -63524600000.0 -902280000000.0 -951086000000.0 -507640000000.0 -575699000000.0 -155168000000.0 -109281000000.0 -442317000000.0 -557191000000.0 -42368700000.0 -131367000000.0 -50039300000.0 -52563600000.0 -23839800000.0 -38410100000.0 -157247000000.0 -1.04963e+12 -249338000000.0 -843258000000.0 -440895000000.0 -348097000000.0 -1.21262e+12 -792612000000.0 -931298000000.0 -766536000000.0 -1.11921e+12 -885904000000.0 -664844000000.0 -491578000000.0 -1.53586e+12 -1.43159e+12 -712592000000.0 -410288000000.0 -321404000000.0 -888296000000.0 -431649000000.0 -96272100000.0 -284859000000.0 -228788000000.0 -122377000000.0 -141039000000.0 -36400500000.0 -30134400000.0 -123134000000.0 -119799000000.0 -348168000000.0 -1.40524e+12 -282996000000.0 -669503000000.0 -934213000000.0 -852860000000.0 -308101000000.0 -2.96651e+12 -1.6188e+12 -486592000000.0 -982851000000.0 -985777000000.0 -1.18922e+12 -1.35456e+12 -2.46128e+12 -1.02832e+12 -778186000000.0 -90940200000.0 -15282800000.0 -803221000000.0 -51874800000.0 -326166000000.0 -174764000000.0 -24999200000.0 -121680000000.0 -75864800000.0 -58613700000.0 -223040000000.0 -435863000000.0 -902932000000.0 -1.84312e+12 -670183000000.0 -1.59655e+12 -1.50943e+12 -1.63173e+12 -2.01798e+12 -2.18849e+12 -531802000000.0 -1.38133e+12 -2.46204e+12 -1.20095e+12 -1.28191e+12 -745114000000.0 -1.35345e+12 -636513000000.0 -154084000000.0 -495240000000.0 -853718000000.0 -243169000000.0 -367405000000.0 -381274000000.0 -113049000000.0 -15574900000.0 -367820000000.0 -274793000000.0 -737519000000.0 -2.07672e+12 -929315000000.0 -1.18596e+12 -2.20395e+12 -977488000000.0 -1.74494e+12 -1.18614e+12 -1.7301e+12 -672161000000.0 -2.3591e+12 -1.61494e+12 -1.90301e+12 -2.35512e+12 -1.36687e+12 -1.11871e+12 -574737000000.0 -751975000000.0 -1.35401e+12 -927169000000.0 -832195000000.0 -460930000000.0 -312262000000.0 -91285900000.0 -31243000000.0 -44378900000.0 -60882800000.0 -38533600000.0 -50288800000.0 -778123000000.0 -491761000000.0 -524983000000.0 -2.71387e+12 -1.32735e+12 -1.79702e+12 -1.74153e+12 -1.09108e+12 -1.97923e+12 -2.50131e+12 -1.56657e+12 -3.16525e+12 -1.89358e+12 -2.956e+12 -2.12524e+12 -2.57147e+12 -1.79499e+12 -1.58218e+12 -1.13726e+12 -1.87096e+12 -462395000000.0 -627337000000.0 -346953000000.0 -162360000000.0 -19371100000.0 -223362000000.0 -313620000000.0 -189498000000.0 -121632000000.0 -380933000000.0 -1.36489e+12 -887776000000.0 -478434000000.0 -820099000000.0 -2.78628e+12 -2.12947e+12 -2.36587e+12 -1.30124e+12 -2.42047e+12 -3.36188e+12 -2.81231e+12 -2.15284e+12 -2.93914e+12 -1.93121e+12 -2.74098e+12 -3.49518e+12 -2.37228e+12 -1.2891e+12 -2.76902e+12 -2.39756e+12 -2.16491e+12 -1.21662e+12 -871551000000.0 -110956000000.0 -670495000000.0 -74423900000.0 -396731000000.0 -1.42666e+12 -1.4482e+12 -1.84879e+12 -3.00789e+12 -1.2086e+12 -3.10689e+12 -2.76649e+12 -2.24268e+12 -3.57642e+12 -2.26839e+12 -2.92515e+12 -4.08032e+12 -4.09121e+12 -1.92575e+12 -3.25793e+12 -3.58833e+12 -2.69394e+12 -2.70732e+12 -1.21079e+12 -577667000000.0 -1.44235e+12 -1.45284e+12 -550712000000.0 -560822000000.0 -1.26806e+12 -1.166e+12 -2.76396e+12 -1.85455e+12 -2.06387e+12 -2.70533e+12 -3.18565e+12 -3.88518e+12 -3.55862e+12 -3.67099e+12 -4.95335e+12 -1.41084e+12 -2.01134e+12 -2.2156e+12 -1.98143e+12 -2.08179e+12 -5.06088e+12 -3.2376e+12 -3.40693e+12 -1.681e+12 -2.36359e+12 -3.15132e+12 -2.71594e+12 -3.79538e+12 -3.0541e+12 -2.3355e+12 -615520000000.0 -96110200000.0 -2.19816e+12 -1.90371e+12 -3.68192e+12 -3.08877e+12 -3.48648e+12 -2.97914e+12 -3.17756e+12 -5.09115e+12 -4.02203e+12 -3.65731e+12 -2.67067e+12 -3.78752e+12 -2.75671e+12 -4.01071e+12 -5.43081e+12 -5.75579e+12 -5.33065e+12 -2.90733e+12 -2.93514e+12 -3.33227e+12 -3.69938e+12 -1.69542e+12 -2.5145e+12 -2.87503e+12 -1.31048e+12 -1.32702e+12 -3.68576e+12 -1.19264e+12 -1.30274e+12 -1.77635e+12 -2.44893e+12 -3.01418e+12 -4.69732e+12 -4.67201e+12 -4.42591e+12 -4.31926e+12 -3.51803e+12 -4.20899e+12 -3.19917e+12 -4.04873e+12 -3.55985e+12 -4.91519e+12 -1.94904e+12 -4.15624e+12 -3.75208e+12 -1.50694e+12 -4.13126e+12 -3.67518e+12 -2.09572e+12 -2.86896e+12 -3.47204e+12 -4.10893e+12 -4.24773e+12 -3.75349e+12 -1.7391e+12 -1.45771e+12 -1.67034e+12 -3.10239e+12 -2.40444e+12 -1.80456e+12 -4.15012e+12 -4.54953e+12 -3.96394e+12 -4.78608e+12 -5.29762e+12 -3.76646e+12 -5.03065e+12 -5.44735e+12 -4.16319e+12 -3.2544e+12 -3.55552e+12 -3.43217e+12 -2.08098e+12 -3.35056e+12 -3.77415e+12 -4.53057e+12 -2.91042e+12 -2.98086e+12 -3.28627e+12 -3.12161e+12 -4.58163e+12 -4.94667e+12 -4.18357e+12 -4.85359e+12 -4.35103e+12 -4.58803e+12 -3.77224e+12 -2.35188e+12 -3.95641e+12 -4.43904e+12 -4.52115e+12 -5.88056e+12 -3.46465e+12 -4.77131e+12 -5.12999e+12 -3.10076e+12 -3.9981e+12 -4.07471e+12 -4.05712e+12 -6.26749e+12 -5.12586e+12 -3.59595e+12 -3.95246e+12 -4.1606e+12 -4.68305e+12 -4.95044e+12 -3.89761e+12 -2.68488e+12 -3.53255e+12 -3.51307e+12 -5.63839e+12 -6.45464e+12 -4.78764e+12 -4.05465e+12 -4.49325e+12 -3.94619e+12 -6.26899e+12 -5.42974e+12 -3.05056e+12 -1.67733e+12 -4.95753e+12 -4.79396e+12 -2.34142e+12 -4.48677e+12 -3.76871e+12 -3.58031e+12 -4.21423e+12 -3.89986e+12 -6.49241e+12 -4.28987e+12 -3.27412e+12 -3.67874e+12 -5.12039e+12 -5.27849e+12 -3.17764e+12 -3.94499e+12 -2.3309e+12 -3.56886e+12 -5.06297e+12 -4.60603e+12 -2.49213e+12 -4.79644e+12 -3.16684e+12 -3.23927e+12 -4.7591e+12 -4.72543e+12 -7.93333e+12 -6.36028e+12 -3.98349e+12 -3.01301e+12 -5.30548e+12 -5.21293e+12 -6.394e+12 -4.53544e+12 -7.09469e+12 -3.64174e+12 -3.4707e+12 -4.93747e+12 -4.09503e+12 -4.38687e+12 -4.06422e+12 -5.38751e+12 -2.78941e+12 -3.1227e+12 -2.65792e+12 -5.54097e+12 -3.90359e+12 -5.3835e+12 -2.79928e+12 -3.91961e+12 -6.82932e+12 -4.14445e+12 -6.31985e+12 -6.41723e+12 -5.17048e+12 -4.48287e+12 -5.37249e+12 -2.66029e+12 -4.67155e+12 -7.2359e+12 -5.82872e+12 -4.91022e+12 -3.69823e+12 -5.75384e+12 -4.50809e+12 -3.32151e+12 -5.21834e+12 -3.46135e+12 -4.73561e+12 -5.29696e+12 -2.3773e+12 -4.77113e+12 -4.82933e+12 -5.35566e+12 -1.94716e+12 -12549700000.0 -3.05173e+12 -6.64137e+12 -6.06537e+12 -6.25354e+12 -7.83545e+12 -6.70575e+12 -5.02166e+12 -5.87956e+12 -2.70488e+12 -4.21987e+12 -5.58344e+12 -4.59162e+12 -7.63193e+12 -5.39724e+12 -4.82666e+12 -3.93823e+12 -2.92379e+12 -4.60501e+12 -6.15525e+12 -4.95347e+12 -6.01386e+12 -4.29025e+12 -5.72186e+12 -3.13519e+12 -4.9811e+12 -1.94958e+12 -6.1073e+12 -7.49844e+12 -3.19672e+12 -8.60394e+12 -4.1194e+12 -2.91208e+12 -2.61866e+12 -5.41858e+12 -6.82609e+12 -7.03042e+12 -5.76554e+12 -3.65932e+12 -6.23663e+12 -5.406e+12 -4.32903e+12 -3.09804e+12 -1.05804e+13 -5.20157e+12 -5.74066e+12 -4.53971e+12 -3.82986e+12 -5.02974e+12 -5.2391e+12 -1.03657e+13 -7.23592e+12 -5.47876e+12 -2.83085e+12 -8.61245e+12 -9.11418e+12 -4.40408e+12 -5.30993e+12 -3.46448e+12 -5.76642e+12 -6.49903e+12 -1.06073e+13 -3.68318e+12 -4.32248e+12 -5.8539e+12 -5.88067e+12 -7.5109e+12 -5.03293e+12 -6.72968e+12 -3.16596e+12 -5.88229e+12 -3.91787e+12 -6.72678e+12 -4.95028e+12 -8.91757e+12 -8.88372e+12 -2.88038e+12 -5.68638e+12 -4.92759e+12 -4.44764e+12 -7.70404e+12 -6.92918e+12 -6.97097e+12 -4.33462e+12 -6.94366e+12 -3.86131e+12 -4.95911e+12 -1.14055e+13 -5.12945e+12 -6.55843e+12 -7.29937e+12 -8.94426e+12 -8.54585e+12 -5.65451e+12 -1.15696e+13 -6.87114e+12 -4.73457e+12 -8.98223e+12 -7.15463e+12 -5.00259e+12 -2.86901e+12 -6.03851e+12 -7.02941e+12 -3.19282e+12 -5.1316e+12 -3.20288e+12 -6.74621e+12 -7.62037e+12 -5.21486e+12 -6.3761e+12 -5.21233e+12 -6.24532e+12 -4.40867e+12 -5.31996e+12 -5.03405e+12 -4.56072e+12 -6.6128e+12 -5.1517e+12 -7.18748e+12 -7.12702e+12 -6.95198e+12 -8.35596e+12 -8.12552e+12 -7.07206e+12 -6.21532e+12 -2.78052e+12 -8.49324e+12 -5.38385e+12 -1.04242e+13 -1.45198e+13 -6.76725e+12 -7.36943e+12 -12549700000.0 -2.17733e+12 -4.41773e+12 -6.42639e+12 -4.42168e+12 -5.61918e+12 -4.65932e+12 -5.69105e+12 -6.03648e+12 -9.966e+12 -3.99472e+12 -7.2355e+12 -7.72988e+12 -2.39592e+12 -6.56884e+12 -5.28357e+12 -6.4289e+12 -6.44461e+12 -4.68814e+12 -7.78929e+12 -6.25277e+12 -6.64516e+12 -6.13511e+12 -4.9071e+12 -4.69828e+12 -5.89591e+12 -8.2917e+12 -9.92948e+12 -6.82206e+12 -5.82567e+12 -1.10381e+13 -7.20239e+12 -8.23534e+12 -1.14929e+13 -4.20939e+12 -5.3651e+12 -12549700000.0 -4.20527e+12 -7.23286e+12 -3.25434e+12 -2.80324e+12 -5.97363e+12 -4.94922e+12 -4.60372e+12 -3.89638e+12 -3.92253e+12 -7.82465e+12 -6.23153e+12 -6.45956e+12 -4.39686e+12 -5.3371e+12 -6.99253e+12 -2.82498e+12 -5.9693e+12 -2.59443e+12 -7.60242e+12 -4.04944e+12 -6.7399e+12 -6.5065e+12 -4.61777e+12 -7.35474e+12 -6.98984e+12 -8.82713e+12 -2.00894e+12 -3.95065e+12 -4.28929e+12 -3.61595e+12 -4.00162e+12 -5.34153e+12 -2.73303e+12 -5.94923e+12 -7.02123e+12 -4.74204e+12 -6.69693e+12 -5.58029e+12 -8.7341e+12 -8.39896e+12 -8.24908e+12 -3.46957e+12 -12549700000.0 -3.91658e+12 -4.04767e+12 -4.90554e+12 -3.23396e+12 -6.71682e+12 -3.72573e+12 -5.37638e+12 -7.76259e+12 -5.25354e+12 -4.4446e+12 -4.17365e+12 -6.46446e+12 -4.31234e+12 -6.78056e+12 -4.37251e+12 -6.02871e+12 -6.19974e+12 -5.23435e+12 -6.91129e+12 -6.17652e+12 -8.12998e+12 -4.44022e+12 -5.14409e+12 -3.57195e+12 -9.0285e+12 -3.41128e+12 -4.28789e+12 -7.41845e+12 -5.59324e+12 -3.80714e+12 -3.76032e+12 -5.16183e+12 -5.90967e+12 -6.12707e+12 -9.19552e+12 -6.78737e+12 -5.41577e+12 -1.01468e+13 -8.88283e+12 -9.05925e+12 -2.75949e+12 -5.82163e+12 -3.40316e+12 -4.74361e+12 -5.31684e+12 -6.3967e+12 -7.34809e+12 -9.34348e+12 -1.00698e+13 -6.54476e+12 -8.93244e+12 -6.27189e+12 -6.46605e+12 -8.68637e+12 -4.87028e+12 -3.39283e+12 -3.81885e+12 -4.2668e+12 -5.70927e+12 -9.66109e+12 -7.89339e+12 -5.34666e+12 -8.23274e+12 -2.80436e+12 -5.0432e+12 -3.5291e+12 -8.34081e+12 -9.25264e+12 -4.66416e+12 -8.43906e+12 -7.42733e+12 -6.31316e+12 -6.60056e+12 -6.1688e+12 -5.18562e+12 -8.05948e+12 -5.02437e+12 -4.61002e+12 -3.8523e+12 -4.16425e+12 -4.26716e+12 -4.81632e+12 -2.8815e+12 -5.47232e+12 -4.31651e+12 -5.89096e+12 -9.69205e+12 -1.19812e+13 -1.00089e+13 -5.78886e+12 -5.2013e+12 -9.14721e+12 -6.14013e+12 -6.26361e+12 -9.18738e+12 -4.92519e+12 -1.25693e+13 -4.85888e+12 -6.21033e+12 -7.93792e+12 -6.66936e+12 -7.97104e+12 -7.45581e+12 -1.00412e+13 -9.75e+12 -1.00483e+13 -6.66294e+12 -8.21992e+12 -7.83974e+12 -4.88588e+12 -1.02231e+13 -5.14474e+12 -7.02535e+12 -5.94753e+12 -4.58568e+12 -6.2792e+12 -8.1875e+12 -6.59648e+12 -3.34466e+12 -4.52405e+12 -5.06864e+12 -5.02751e+12 -12549700000.0 -6.44415e+12 -3.95642e+12 -4.93522e+12 -3.96923e+12 -2.50525e+12 -5.07628e+12 -7.58794e+12 -7.5128e+12 -7.72294e+12 -4.44327e+12 -9.45245e+12 -7.85035e+12 -6.79659e+12 -6.75315e+12 -5.32477e+12 -3.1651e+12 -1.04736e+13 -6.112e+12 -4.29348e+12 -5.33149e+12 -8.2645e+12 -9.71088e+12 -6.01978e+12 -7.17556e+12 -5.67873e+12 -8.77061e+12 -5.799e+12 -1.19702e+13 -9.20242e+12 -5.38289e+12 -4.84733e+12 -5.25822e+12 -4.06425e+12 -6.6396e+12 -8.36755e+12 -7.07164e+12 -5.27125e+12 -5.8908e+12 -5.1215e+12 -6.4313e+12 -7.89341e+12 -5.53808e+12 -2.50887e+12 -12549700000.0 -12549700000.0 -6.40481e+12 -7.72176e+12 -1.0982e+13 -6.4819e+12 -7.9292e+12 -6.91554e+12 -6.31415e+12 -8.69442e+12 -7.90572e+12 -9.01207e+12 -5.66827e+12 -9.65881e+12 -7.23365e+12 -6.69006e+12 -7.90184e+12 -6.40455e+12 -5.88653e+12 -4.97389e+12 -4.79443e+12 -7.02826e+12 -4.76544e+12 -8.16108e+12 -6.99429e+12 -6.16713e+12 -5.89432e+12 -4.79277e+12 -7.21047e+12 -7.12514e+12 -1.01847e+13 -6.71407e+12 -5.03783e+12 -4.78092e+12 -1.11302e+13 -8.957e+12 -8.74679e+12 -1.06748e+13 -3.37026e+12 -4.32847e+12 -6.56895e+12 -3.48406e+12 -5.688e+12 -7.50578e+12 -6.85543e+12 -7.03915e+12 -4.14247e+12 -6.22188e+12 -7.04885e+12 -1.28269e+13 -6.19095e+12 -4.5924e+12 -5.8407e+12 -8.17207e+12 -8.04123e+12 -3.66426e+12 -8.54858e+12 -9.32519e+12 -3.10076e+12 -7.18384e+12 -4.54348e+12 -2.27046e+12 -5.85915e+12 -7.56902e+12 -1.12984e+13 -7.68949e+12 -1.01136e+13 -5.47222e+12 -8.02661e+12 -1.0735e+13 -5.38956e+12 -6.99388e+12 -4.82701e+12 -7.76105e+12 -5.81092e+12 -8.44022e+12 -5.70069e+12 -8.54856e+12 -6.30946e+12 -6.55802e+12 -7.07731e+12 -4.34675e+12 -3.3539e+12 -4.12647e+12 -4.46369e+12 -6.79613e+12 -7.39943e+12 -4.14288e+12 -6.90859e+12 -4.61931e+12 -6.13892e+12 -6.61769e+12 -5.24434e+12 -6.33122e+12 -1.35934e+13 -5.71438e+12 -7.95583e+12 -4.58167e+12 -7.07371e+12 -7.52046e+12 -4.33247e+12 -5.30297e+12 -8.5782e+12 -8.95905e+12 -1.0623e+13 -8.8951e+12 -6.41683e+12 -7.52897e+12 -7.63716e+12 -6.24134e+12 -3.29861e+12 -8.14572e+12 -7.66781e+12 -3.24709e+12 -5.90449e+12 -1.23944e+13 -8.71528e+12 -7.99461e+12 -6.1158e+12 -3.32947e+12 -4.97656e+12 -4.71184e+12 -3.69727e+12 -8.56951e+12 -5.56434e+12 -2.82644e+12 -3.48925e+12 -4.22248e+12 -6.31832e+12 -1.03293e+13 -6.68606e+12 -7.87338e+12 -8.22039e+12 -7.30467e+12 -7.9318e+12 -1.06178e+13 -1.04717e+13 -8.20397e+12 -9.54081e+12 -8.37205e+12 -7.79075e+12 -1.17157e+13 -7.65238e+12 -8.04233e+12 -8.29725e+12 -4.06213e+12 -6.20132e+12 -8.35029e+12 -1.37062e+13 -6.23709e+12 -7.06893e+12 -5.91619e+12 -8.14582e+12 -7.33402e+12 -5.46474e+12 -6.7131e+12 -8.45227e+12 -7.47091e+12 -6.13023e+12 -3.2048e+12 -4.57913e+12 -4.56247e+12 -8.53388e+12 -6.20441e+12 -5.61747e+12 -5.65425e+12 -6.71295e+12 -6.14427e+12 -8.17426e+12 -5.71023e+12 -8.37393e+12 -3.61814e+12 -12549700000.0 -4.81831e+12 -3.27865e+12 -8.22906e+12 -7.06588e+12 -9.83032e+12 -6.37442e+12 -7.93841e+12 -4.95864e+12 -9.38321e+12 -6.19998e+12 -3.42978e+12 -8.80167e+12 -8.63311e+12 -6.42628e+12 -5.18621e+12 -6.69656e+12 -7.2629e+12 -8.20496e+12 -7.89408e+12 -6.80894e+12 -8.57554e+12 -5.94279e+12 -7.47116e+12 -5.65584e+12 -9.17391e+12 -4.88423e+12 -6.02497e+12 -9.96638e+12 -9.06172e+12 -1.07851e+13 -6.14981e+12 -8.1119e+12 -7.54329e+12 -6.29213e+12 -4.28813e+12 -1.12445e+13 -7.17013e+12 -6.57107e+12 -8.32591e+12 -6.17002e+12 -1.00602e+13 -6.99891e+12 -5.89527e+12 -5.77399e+12 -4.22643e+12 -6.81757e+12 -12549700000.0 -5.64378e+12 -8.27274e+12 -8.45222e+12 -8.20324e+12 -7.52711e+12 -8.27196e+12 -8.31507e+12 -5.36495e+12 -6.15355e+12 -7.49386e+12 -3.37952e+12 -7.04958e+12 -4.23374e+12 -3.50087e+12 -6.38903e+12 -7.80872e+12 -1.19181e+13 -7.82917e+12 -7.30591e+12 -8.75758e+12 -9.41683e+12 -9.59828e+12 -1.16554e+13 -5.77332e+12 -6.06135e+12 -9.95365e+12 -1.04364e+13 -9.90639e+12 -9.03001e+12 -9.94273e+12 -8.68384e+12 -5.64968e+12 -6.78267e+12 -9.96009e+12 -1.05666e+13 -8.59265e+12 -7.06027e+12 -9.71759e+12 -5.87826e+12 -5.51833e+12 -3.62201e+12 -2.57723e+12 -9.28518e+12 -4.40938e+12 -12549700000.0 -3.34002e+12 -3.76676e+12 -1.8197e+12 -7.47586e+12 -7.24526e+12 -4.3457e+12 -5.28441e+12 -9.64744e+12 -8.20345e+12 -9.38648e+12 -7.32019e+12 -7.9331e+12 -5.73798e+12 -9.96074e+12 -7.50997e+12 -9.06017e+12 -5.76255e+12 -7.09083e+12 -1.13915e+13 -7.31393e+12 -5.83436e+12 -7.36443e+12 -7.456e+12 -8.47219e+12 -1.71974e+13 -6.22822e+12 -5.90861e+12 -9.87251e+12 -8.21508e+12 -4.64817e+12 -3.38402e+12 -6.22618e+12 -7.30745e+12 -6.7908e+12 -7.473e+12 -7.22479e+12 -9.20774e+12 -5.20345e+12 -5.56583e+12 -5.98183e+12 -4.74969e+12 -5.18079e+12 -5.25483e+12 -9.50515e+12 -3.71962e+12 -4.25436e+12 -3.89075e+12 -3.65225e+12 -5.39152e+12 -6.03048e+12 -1.03357e+13 -5.868e+12 -4.51353e+12 -8.81967e+12 -7.10322e+12 -4.83823e+12 -7.9773e+12 -6.59138e+12 -5.043e+12 -6.74582e+12 -5.88012e+12 -4.43153e+12 -1.10651e+13 -8.1438e+12 -9.10512e+12 -1.16975e+13 -5.84503e+12 -8.35845e+12 -4.56533e+12 -1.08821e+13 -5.78352e+12 -6.50857e+12 -8.33163e+12 -4.65658e+12 -5.03081e+12 -1.09324e+13 -5.1692e+12 -6.24683e+12 -8.86731e+12 -7.8626e+12 -6.81439e+12 -5.46038e+12 -8.7055e+12 -8.00481e+12 -6.71937e+12 -6.06227e+12 -5.40429e+12 -1.11941e+13 -4.47017e+12 -6.46192e+12 -7.62875e+12 -9.12263e+12 -9.06585e+12 -5.92244e+12 -7.36918e+12 -4.56261e+12 -4.91016e+12 -1.06981e+13 -1.16325e+13 -9.39264e+12 -5.43493e+12 -1.0474e+13 -7.0554e+12 -4.73206e+12 -8.68538e+12 -4.90862e+12 -7.18725e+12 -5.29171e+12 -8.354e+12 -7.51702e+12 -5.64394e+12 -3.18162e+12 -8.39093e+12 -4.42542e+12 -4.72785e+12 -5.36271e+12 -5.76292e+12 -7.3963e+12 -8.04413e+12 -9.98319e+12 -9.48556e+12 -5.60747e+12 -4.15789e+12 -8.17088e+12 -1.30244e+13 -1.26183e+13 -8.29738e+12 -8.17264e+12 -1.12607e+13 -7.98972e+12 -8.38485e+12 -3.95912e+12 -1.10512e+13 -6.21917e+12 -8.0252e+12 -8.07287e+12 -5.76049e+12 -1.2872e+13 -7.38852e+12 -7.23437e+12 -1.03543e+13 -7.41747e+12 -6.16744e+12 -5.37104e+12 -7.8537e+12 -6.88092e+12 -5.75789e+12 -3.87317e+12 -4.47092e+12 -1.66303e+13 -6.75215e+12 -6.13298e+12 -9.34609e+12 -6.74102e+12 -1.31214e+13 -8.99021e+12 -1.21056e+13 -1.188e+13 -5.88226e+12 -4.77168e+12 -7.12194e+12 -6.33023e+12 -7.66011e+12 -8.98301e+12 -3.90838e+12 -5.04533e+12 -5.74453e+12 -7.42545e+12 -6.12226e+12 -7.74839e+12 -9.1683e+12 -5.10986e+12 -5.79671e+12 -8.0217e+12 -6.1192e+12 -8.20062e+12 -9.89817e+12 -7.37828e+12 -8.06227e+12 -1.01338e+13 -5.42104e+12 -5.05811e+12 -7.4996e+12 -8.45515e+12 -1.0402e+13 -5.2251e+12 -5.03464e+12 -4.9553e+12 -5.55728e+12 -9.71266e+12 -9.49394e+12 -8.7583e+12 -9.18546e+12 -8.4168e+12 -1.0691e+13 -6.69539e+12 -8.71338e+12 -4.63758e+12 -1.00715e+13 -8.02395e+12 -7.54743e+12 -6.4256e+12 -1.21282e+13 -1.13503e+13 -1.06694e+13 -8.15419e+12 -1.0579e+13 -8.11721e+12 -3.76526e+12 -8.24052e+12 -8.96528e+12 -6.81262e+12 -5.38312e+12 -8.6502e+12 -1.34351e+13 -9.94816e+12 -1.23648e+13 -8.40408e+12 -1.07285e+13 -1.10505e+13 -1.2045e+13 -7.02355e+12 -6.22155e+12 -1.07469e+13 -7.17496e+12 -1.2847e+13 -9.60181e+12 -5.29214e+12 -1.29102e+13 -7.49055e+12 -4.13316e+12 -7.22526e+12 -5.53562e+12 -1.09859e+13 -9.41111e+12 -1.08561e+13 -8.27749e+12 -7.72518e+12 -6.0452e+12 -1.39972e+13 -8.84038e+12 -8.14748e+12 -1.53845e+13 -8.24293e+12 -3.74496e+12 -9.07981e+12 -7.03912e+12 -7.62353e+12 -1.05567e+13 -5.90186e+12 -6.33845e+12 -1.33619e+13 -6.71494e+12 -7.9451e+12 -8.51692e+12 -7.32574e+12 -3.44953e+12 -7.09197e+12 -6.0387e+12 -6.20654e+12 -1.05408e+13 -7.93603e+12 -6.41405e+12 -9.87787e+12 -6.13062e+12 -1.02099e+13 -1.1054e+13 -5.73154e+12 -7.23583e+12 -5.92628e+12 -5.88363e+12 -5.33839e+12 -1.03041e+13 -4.70159e+12 -1.11059e+13 -1.19215e+13 -1.30371e+13 -8.11326e+12 -5.79235e+12 -9.08237e+12 -9.03322e+12 -4.36269e+12 -9.96223e+12 -8.29766e+12 -7.5396e+12 -7.77732e+12 -6.47893e+12 -1.00432e+13 -3.9763e+12 -2.76657e+12 -7.42471e+12 -1.04333e+13 -7.9825e+12 -7.62311e+12 -1.15645e+13 -6.42173e+12 -7.17323e+12 -9.28542e+12 -7.49904e+12 -7.46361e+12 -5.79146e+12 -6.24136e+12 -6.57069e+12 -9.929e+12 -1.06818e+13 -1.34415e+13 -9.13805e+12 -8.33471e+12 -1.14191e+13 -1.29032e+13 -3.84545e+12 -9.4566e+12 -5.13701e+12 -7.96838e+12 -6.79424e+12 -7.48747e+12 -8.72877e+12 -1.27387e+13 -4.04022e+12 -1.15724e+13 -1.22288e+13 -1.27002e+13 -7.25694e+12 -1.26501e+13 -9.51678e+12 -1.00589e+13 -1.58287e+13 -7.99489e+12 -5.99947e+12 -1.00602e+13 -7.98769e+12 -1.02074e+13 -9.84064e+12 -1.04269e+13 -5.35783e+12 -3.37869e+12 -8.76674e+12 -6.97696e+12 -9.20939e+12 -1.05385e+13 -8.9934e+12 -1.34536e+13 -9.30711e+12 -9.65522e+12 -1.11536e+13 -7.12934e+12 -9.36055e+12 -7.15758e+12 -6.37799e+12 -7.62804e+12 -3.40901e+12 -1.00219e+13 -7.52643e+12 -5.66866e+12 -9.54636e+12 -5.50376e+12 -9.83198e+12 -8.69787e+12 -5.61378e+12 -7.53807e+12 -1.23968e+13 -1.54178e+13 -1.14159e+13 -7.52824e+12 -4.42258e+12 -8.1915e+12 -1.08085e+13 -4.37311e+12 -9.82217e+12 -1.05017e+13 -1.05585e+13 -8.65706e+12 -1.15142e+13 -8.97779e+12 -1.32713e+13 -9.07694e+12 -1.00906e+13 -1.17382e+13 -9.56856e+12 -8.89838e+12 -9.58783e+12 -1.25053e+13 -3.65463e+12 -9.38541e+12 -3.37452e+12 -8.82445e+12 -5.03678e+12 -1.19723e+13 -1.04992e+13 -7.27445e+12 -1.73173e+13 -7.20677e+12 -8.26171e+12 -1.02924e+13 -1.38471e+13 -1.03974e+13 -1.28583e+13 -1.03389e+13 -1.02698e+13 -1.27682e+13 -9.62942e+12 -8.41506e+12 -9.04142e+12 -2.94037e+12 -6.30766e+12 -1.01589e+13 -7.51057e+12 -7.92773e+12 -9.45709e+12 -5.9334e+12 -8.86324e+12 -1.08673e+13 -5.99739e+12 -1.02763e+13 -7.28226e+12 -5.21223e+12 -2.96798e+12 -9.83371e+12 -7.03572e+12 -9.77334e+12 -1.26655e+13 -6.55283e+12 -5.38879e+12 -1.28868e+13 -8.35597e+12 -4.80584e+12 -4.24501e+12 -6.51209e+12 -4.97934e+12 -7.83193e+12 -3.5949e+12 -5.35647e+12 -5.9518e+12 -6.52266e+12 -1.00834e+13 -4.50502e+12 -6.33211e+12 -6.97113e+12 -7.64962e+12 -1.01187e+13 -5.04371e+12 -2.98702e+12 -7.75878e+12 -8.66881e+12 -9.87244e+12 -6.48758e+12 -8.43263e+12 -1.20377e+13 -9.33245e+12 -8.55527e+12 -1.16641e+13 -1.01031e+13 -9.31265e+12 -1.51699e+13 -9.74251e+12 -1.16843e+13 -1.11475e+13 -1.39175e+13 -8.24368e+12 -1.4073e+13 -9.45106e+12 -7.18016e+12 -5.52455e+12 -5.96294e+12 -2.94926e+12 -6.63522e+12 -4.32961e+12 -3.91272e+12 -5.05803e+12 -8.67415e+12 -7.73711e+12 -6.58993e+12 -6.65206e+12 -1.05161e+13 -9.1112e+12 -1.02423e+13 -1.56285e+13 -6.82596e+12 -8.52824e+12 -7.44161e+12 -1.2827e+13 -5.70277e+12 -9.63297e+12 -7.37296e+12 -1.12172e+13 -7.82087e+12 -8.75954e+12 -9.66346e+12 -1.1976e+13 -3.63876e+12 -6.15009e+12 -1.24207e+13 -6.98274e+12 -7.36639e+12 -1.06423e+13 -6.68002e+12 -8.2622e+12 -6.78849e+12 -9.07365e+12 -1.57592e+13 -5.90839e+12 -9.17676e+12 -8.89372e+12 -8.13815e+12 -1.07842e+13 -5.26872e+12 -5.66095e+12 -8.45431e+12 -1.00651e+13 -1.03524e+13 -9.58815e+12 -8.57615e+12 -5.934e+12 -8.78326e+12 -3.90522e+12 -8.42052e+12 -9.08027e+12 -6.28647e+12 -3.84698e+12 -3.39125e+12 -8.77815e+12 -7.69296e+12 -4.40944e+12 -5.17403e+12 -6.69083e+12 -4.05918e+12 -4.91271e+12 -7.49253e+12 -6.96792e+12 -6.26635e+12 -5.86058e+12 -8.67961e+12 -5.89751e+12 -7.6835e+12 -9.48076e+12 -7.28376e+12 -5.44386e+12 -6.15876e+12 -8.596e+12 -7.96764e+12 -6.94808e+12 -7.48787e+12 -5.22049e+12 -1.15107e+13 -9.19763e+12 -1.0828e+13 -9.89138e+12 -1.68881e+13 -6.52443e+12 -8.1001e+12 -9.37059e+12 -8.27874e+12 -8.35849e+12 -1.16557e+13 -7.81784e+12 -1.33462e+13 -4.48843e+12 -4.14194e+12 -6.43583e+12 -8.79783e+12 -5.51777e+12 -5.36218e+12 -4.48506e+12 -8.63022e+12 -1.1285e+13 -7.79513e+12 -1.09719e+13 -1.3132e+13 -8.81385e+12 -1.41787e+13 -7.21689e+12 -1.4788e+13 -8.04694e+12 -1.12138e+13 -5.52418e+12 -6.98246e+12 -1.06219e+13 -2.94287e+12 -5.47104e+12 -6.31476e+12 -6.29362e+12 -9.80637e+12 -1.23406e+13 -1.36822e+13 -6.54195e+12 -1.41603e+13 -1.33953e+13 -5.44937e+12 -5.35962e+12 -6.66718e+12 -7.31392e+12 -6.97495e+12 -6.64044e+12 -8.42803e+12 -1.40227e+13 -7.58868e+12 -4.5321e+12 -1.2035e+13 -6.97218e+12 -1.14648e+13 -8.15418e+12 -7.7792e+12 -5.56442e+12 -7.17744e+12 -8.22915e+12 -5.01571e+12 -1.12524e+13 -6.24011e+12 -7.68865e+12 -7.09489e+12 -7.70708e+12 -4.63687e+12 -5.60072e+12 -4.68805e+12 -9.925e+12 -1.19381e+13 -6.55774e+12 -6.482e+12 -5.66519e+12 -9.10482e+12 -5.92952e+12 -6.23955e+12 -9.44236e+12 -4.22765e+12 -1.10689e+13 -5.97837e+12 -9.93495e+12 -6.69993e+12 -9.33583e+12 -1.06602e+13 -6.23214e+12 -7.97543e+12 -1.05914e+13 -5.51711e+12 -9.77899e+12 -8.76647e+12 -1.03666e+13 -4.1538e+12 -7.07231e+12 -5.44076e+12 -9.0742e+12 -7.07459e+12 -8.70547e+12 -2.38022e+12 -5.3317e+12 -6.97516e+12 -4.61573e+12 -6.32396e+12 -8.10693e+12 -8.98296e+12 -4.55743e+12 -5.33496e+12 -8.99112e+12 -1.1232e+13 -9.64792e+12 -1.06225e+13 -1.3126e+13 -8.78329e+12 -6.90662e+12 -1.26031e+13 -1.07045e+13 -1.01933e+13 -7.9314e+12 -6.22724e+12 -1.30137e+13 -4.70037e+12 -5.156e+12 -4.99086e+12 -8.24341e+12 -1.09569e+13 -7.28389e+12 -9.74762e+12 -1.2262e+13 -9.84521e+12 -8.16105e+12 -1.02892e+13 -1.05552e+13 -6.05367e+12 -6.35365e+12 -7.10828e+12 -7.66094e+12 -5.22011e+12 -4.64829e+12 -7.29274e+12 -6.56904e+12 -4.62291e+12 -5.66666e+12 -1.01761e+13 -6.07858e+12 -8.07297e+12 -8.53159e+12 -4.9076e+12 -9.07709e+12 -7.34039e+12 -7.3746e+12 -4.78823e+12 -8.57523e+12 -4.34016e+12 -6.16846e+12 -5.70968e+12 -1.34383e+13 -7.30833e+12 -6.0768e+12 -6.98359e+12 -5.80992e+12 -8.69151e+12 -7.73625e+12 -1.17546e+13 -5.24982e+12 -1.25159e+13 -1.14544e+13 -1.0447e+13 -1.087e+13 -7.70377e+12 -7.20053e+12 -2.29636e+12 -8.17538e+12 -8.90677e+12 -5.78551e+12 -1.06704e+13 -1.19262e+13 -1.17536e+13 -4.30997e+12 -5.51084e+12 -6.56495e+12 -5.71707e+12 -5.21819e+12 -6.3238e+12 -5.26896e+12 -1.08316e+13 -1.28533e+13 -6.78392e+12 -4.61384e+12 -1.27534e+13 -8.33552e+12 -6.53717e+12 -1.27091e+13 -8.26603e+12 -1.18407e+13 -1.33903e+13 -6.49826e+12 -3.31415e+12 -3.09953e+12 -1.22737e+13 -9.82938e+12 -1.14899e+13 -8.01691e+12 -5.42326e+12 -8.8341e+12 -1.10195e+13 -8.71163e+12 -8.70383e+12 -1.40806e+13 -6.49628e+12 -4.91635e+12 -8.9445e+12 -3.42176e+12 -7.42017e+12 -6.454e+12 -7.01118e+12 -1.09044e+13 -9.05832e+12 -6.24705e+12 -6.14828e+12 -9.43592e+12 -8.33009e+12 -1.03084e+13 -5.18745e+12 -4.00986e+12 -8.87979e+12 -7.19375e+12 -1.14779e+13 -6.44902e+12 -8.51958e+12 -7.66457e+12 -9.44292e+12 -5.57671e+12 -4.37431e+12 -8.61793e+12 -9.07768e+12 -8.44437e+12 -6.43817e+12 -8.43823e+12 -1.32673e+13 -7.66044e+12 -7.08976e+12 -1.06731e+13 -1.05985e+13 -6.46774e+12 -7.69312e+12 -6.03943e+12 -8.30892e+12 -5.44172e+12 -6.20258e+12 -5.30308e+12 -5.96353e+12 -4.13789e+12 -8.11705e+12 -8.49824e+12 -8.01226e+12 -7.31778e+12 -9.47725e+12 -9.15937e+12 -6.54399e+12 -1.34602e+13 -6.21193e+12 -7.73157e+12 -5.7359e+12 -6.70339e+12 -1.29511e+13 -4.587e+12 -5.5982e+12 -4.39234e+12 -8.82584e+12 -8.57687e+12 -8.31161e+12 -9.15067e+12 -7.8727e+12 -9.06949e+12 -5.76065e+12 -9.3911e+12 -3.91812e+12 -5.78679e+12 -1.24178e+13 -9.91874e+12 -9.00415e+12 -8.54696e+12 -1.47142e+13 -6.18836e+12 -4.76281e+12 -8.44196e+12 -9.30976e+12 -9.07423e+12 -4.92614e+12 -8.54789e+12 -7.14102e+12 -4.24987e+12 -9.90184e+12 -7.42314e+12 -9.37774e+12 -8.03108e+12 -7.31806e+12 -8.07036e+12 -6.48432e+12 -7.8278e+12 -6.62883e+12 -6.93161e+12 -6.44584e+12 -7.45642e+12 -9.94877e+12 -3.42952e+12 -1.15423e+13 -7.19199e+12 -9.81134e+12 -1.24637e+13 -1.00716e+13 -7.87856e+12 -6.58474e+12 -8.6779e+12 -8.89341e+12 -4.39805e+12 -1.1822e+13 -1.04717e+13 -1.32366e+13 -1.12284e+13 -4.12955e+12 -4.12373e+12 -7.20042e+12 -5.77068e+12 -8.26942e+12 -1.10531e+13 -8.50591e+12 -7.2738e+12 -6.54867e+12 -4.82597e+12 -1.1503e+13 -1.13417e+13 -1.0308e+13 -8.53641e+12 -5.84224e+12 -9.55488e+12 -6.93304e+12 -9.4495e+12 -7.17938e+12 -1.08408e+13 -1.09538e+13 -1.24443e+13 -9.21757e+12 -1.2274e+13 -9.82742e+12 -1.31158e+13 -9.5736e+12 -7.03644e+12 -9.66719e+12 -6.87361e+12 -6.68424e+12 -7.27043e+12 -8.30568e+12 -7.27384e+12 -7.37842e+12 -9.40894e+12 -8.15393e+12 -5.71352e+12 -9.702e+12 -1.12204e+13 -7.09084e+12 -3.50434e+12 -7.36377e+12 -8.36239e+12 -9.04177e+12 -8.39484e+12 -1.12372e+13 -6.69771e+12 -1.27167e+13 -1.4714e+13 -1.11211e+13 -1.13821e+13 -6.5211e+12 -5.14129e+12 -7.99547e+12 -7.81103e+12 -6.50805e+12 -1.10664e+13 -7.564e+12 -6.23193e+12 -1.09296e+13 -4.58902e+12 -7.62758e+12 -7.06786e+12 -1.03571e+13 -4.93816e+12 -8.86252e+12 -7.77946e+12 -9.33965e+12 -7.8388e+12 -7.37268e+12 -9.04577e+12 -6.64397e+12 -8.24111e+12 -9.25109e+12 -9.04471e+12 -7.13893e+12 -4.86761e+12 -5.94817e+12 -4.14709e+12 -6.76886e+12 -1.05115e+13 -7.59807e+12 -8.25147e+12 -4.57841e+12 -9.14713e+12 -1.2542e+13 -9.223e+12 -1.07707e+13 -5.23382e+12 -7.51507e+12 -5.2423e+12 -8.378e+12 -7.55738e+12 -8.93919e+12 -9.12973e+12 -1.23279e+13 -9.21328e+12 -4.21269e+12 -7.02116e+12 -1.5618e+13 -7.94437e+12 -1.44754e+13 -8.79532e+12 -8.82665e+12 -9.45296e+12 -8.53585e+12 -8.83998e+12 -1.29752e+13 -1.30887e+13 -1.05287e+13 -8.80111e+12 -8.42478e+12 -9.81072e+12 -7.90656e+12 -8.07603e+12 -9.66352e+12 -7.8458e+12 -5.25883e+12 -7.78676e+12 -9.46743e+12 -9.68113e+12 -5.687e+12 -5.7808e+12 -8.21161e+12 -4.53765e+12 -8.19333e+12 -1.01769e+13 -5.82707e+12 -1.19755e+13 -1.02951e+13 -8.35621e+12 -6.97387e+12 -1.2048e+13 -4.89025e+12 -7.60818e+12 -6.11426e+12 -5.40972e+12 -1.2791e+13 -8.57324e+12 -6.29702e+12 -5.05366e+12 -9.94745e+12 -6.48422e+12 -8.02445e+12 -6.62112e+12 -2.84531e+12 -6.77206e+12 -1.31358e+13 -9.1061e+12 -4.02835e+12 -3.8921e+12 -8.61227e+12 -8.73958e+12 -6.87744e+12 -6.12378e+12 -8.05819e+12 -5.72011e+12 -1.0164e+13 -7.52819e+12 -5.20514e+12 -4.70071e+12 -8.32817e+12 -7.17945e+12 -1.08835e+13 -5.65125e+12 -8.66479e+12 -8.58958e+12 -1.09025e+13 -5.78904e+12 -7.01928e+12 -5.36222e+12 -6.33688e+12 -6.52807e+12 -6.89363e+12 -4.37177e+12 -5.24952e+12 -5.17327e+12 -7.1504e+12 -9.84816e+12 -7.55799e+12 -6.16934e+12 -6.95031e+12 -8.63052e+12 -8.10218e+12 -5.57941e+12 -6.09864e+12 -4.20361e+12 -6.73777e+12 -1.07e+13 -8.72952e+12 -8.43991e+12 -7.53293e+12 -8.2313e+12 -5.45453e+12 -8.03991e+12 -6.59937e+12 -6.95625e+12 -3.32246e+12 -4.5409e+12 -5.73903e+12 -9.35903e+12 -7.03678e+12 -1.16787e+13 -8.78911e+12 -5.68702e+12 -6.29013e+12 -6.29605e+12 -2.77788e+12 -4.68906e+12 -9.03144e+12 -7.55179e+12 -4.76413e+12 -5.15903e+12 -2.75603e+12 -6.82444e+12 -9.12712e+12 -5.19739e+12 -6.89625e+12 -7.84879e+12 -1.19506e+13 -1.16267e+13 -1.06543e+13 -1.12995e+13 -5.38644e+12 -6.599e+12 -8.24188e+12 -8.58672e+12 -7.13862e+12 -3.94777e+12 -6.88382e+12 -1.19483e+13 -9.54369e+12 -1.02852e+13 -6.35006e+12 -6.86914e+12 -2.56891e+12 -1.0131e+13 -4.27547e+12 -1.03382e+13 -1.42946e+13 -8.36516e+12 -1.11037e+13 -7.68786e+12 -7.58153e+12 -7.9279e+12 -6.60814e+12 -8.40748e+12 -8.06001e+12 -1.04176e+13 -6.41657e+12 -8.01407e+12 -6.07375e+12 -5.02814e+12 -6.87913e+12 -9.26296e+12 -4.24288e+12 -3.09543e+12 -6.74257e+12 -2.81849e+12 -8.60839e+12 -8.15476e+12 -7.24562e+12 -5.05337e+12 -6.97741e+12 -9.37093e+12 -1.39786e+13 -6.04435e+12 -2.7977e+12 -1.0184e+13 -6.63521e+12 -4.83354e+12 -1.39907e+13 -5.9701e+12 -7.93988e+12 -6.7935e+12 -7.43233e+12 -1.05772e+13 -9.44264e+12 -8.13321e+12 -1.13857e+13 -7.57625e+12 -1.61938e+13 -1.05126e+13 -1.12493e+13 -8.28549e+12 -1.0811e+13 -6.66964e+12 -4.56596e+12 -7.92955e+12 -1.10293e+13 -8.63501e+12 -1.08223e+13 -1.0162e+13 -8.40373e+12 -5.92101e+12 -6.28654e+12 -7.65207e+12 -3.55393e+12 -9.78552e+12 -6.95307e+12 -5.37995e+12 -6.95201e+12 -1.1862e+13 -5.0271e+12 -6.03994e+12 -6.43301e+12 -4.2276e+12 -6.06658e+12 -1.2742e+13 -6.37788e+12 -5.44669e+12 -6.12794e+12 -5.3421e+12 -5.73719e+12 -7.87503e+12 -7.48223e+12 -6.48665e+12 -7.69286e+12 -9.35953e+12 -7.30394e+12 -8.28922e+12 -4.17555e+12 -3.83497e+12 -6.39104e+12 -1.06111e+13 -5.04799e+12 -7.36793e+12 -6.74508e+12 -4.93737e+12 -6.39208e+12 -1.02403e+13 -6.27275e+12 -7.62906e+12 -6.26835e+12 -5.98258e+12 -7.04888e+12 -6.28233e+12 -4.13346e+12 -8.50549e+12 -4.83525e+12 -6.19399e+12 -6.83145e+12 -4.29447e+12 -8.91755e+12 -4.94283e+12 -8.21495e+12 -6.41133e+12 -1.05315e+13 -6.30917e+12 -9.00141e+12 -9.21183e+12 -2.92038e+12 -6.07893e+12 -1.05195e+13 -1.0279e+13 -6.16612e+12 -1.17772e+13 -6.17732e+12 -6.83936e+12 -1.22473e+13 -7.61271e+12 -6.01223e+12 -4.23625e+12 -1.24405e+13 -6.30349e+12 -8.18779e+12 -1.10371e+13 -7.68838e+12 -5.14565e+12 -4.48202e+12 -5.32756e+12 -1.30873e+13 -6.54183e+12 -8.65991e+12 -9.6811e+12 -1.09562e+13 -8.15573e+12 -1.0359e+13 -6.46729e+12 -4.56109e+12 -5.67168e+12 -5.06639e+12 -2.70594e+12 -7.65992e+12 -4.22302e+12 -6.54105e+12 -6.04047e+12 -8.58129e+12 -7.5869e+12 -8.56403e+12 -1.27554e+13 -9.22625e+12 -8.61411e+12 -4.77925e+12 -4.98834e+12 -1.59134e+13 -8.41447e+12 -5.63023e+12 -8.99651e+12 -1.04637e+13 -1.00118e+13 -1.05743e+13 -7.48463e+12 -8.73213e+12 -8.92506e+12 -9.76562e+12 -5.46438e+12 -6.00602e+12 -7.81497e+12 -5.96534e+12 -5.75503e+12 -4.96638e+12 -8.7501e+12 -7.4874e+12 -7.55824e+12 -6.83264e+12 -6.49141e+12 -1.01858e+13 -5.72384e+12 -5.84284e+12 -7.43278e+12 -7.10555e+12 -1.19258e+12 -6.47048e+12 -9.78442e+12 -1.0928e+13 -9.62805e+12 -6.23772e+12 -3.88512e+12 -2.50135e+12 -4.78924e+12 -6.35239e+12 -5.06774e+12 -7.42607e+12 -7.04589e+12 -6.17064e+12 -7.8393e+12 -7.17463e+12 -7.44177e+12 -4.74615e+12 -6.6792e+12 -7.64233e+12 -4.05806e+12 -9.6069e+12 -6.23358e+12 -6.08464e+12 -8.19833e+12 -7.55058e+12 -3.47306e+12 -5.34893e+12 -1.19409e+13 -6.75071e+12 -7.36719e+12 -6.72516e+12 -8.36394e+12 -6.56189e+12 -6.43217e+12 -6.80216e+12 -3.71067e+12 -2.94614e+12 -7.63432e+12 -6.66955e+12 -7.48002e+12 -5.13021e+12 -4.94207e+12 -6.32454e+12 -7.19868e+12 -2.95937e+12 -8.04428e+12 -9.38207e+12 -1.21872e+13 -8.90104e+12 -4.99795e+12 -4.59599e+12 -4.18244e+12 -5.92489e+12 -5.63491e+12 -8.18607e+12 -1.45647e+13 -7.86811e+12 -4.95697e+12 -8.8977e+12 -5.1627e+12 -6.98973e+12 -4.42755e+12 -8.02398e+12 -8.0476e+12 -9.86278e+12 -1.37678e+13 -5.80203e+12 -7.62584e+12 -3.27763e+12 -4.04258e+12 -6.52124e+12 -8.13979e+12 -4.87695e+12 -8.92089e+12 -7.01352e+12 -6.18171e+12 -8.83821e+12 -7.48282e+12 -6.30752e+12 -8.63541e+12 -8.86108e+12 -8.08636e+12 -7.43064e+12 -1.03568e+13 -5.05478e+12 -9.33973e+12 -7.54223e+12 -9.23869e+12 -7.62579e+12 -9.45066e+12 -9.01798e+12 -1.09236e+13 -8.55346e+12 -5.11086e+12 -6.43698e+12 -6.4107e+12 -5.94945e+12 -5.48933e+12 -5.32838e+12 -8.27724e+12 -4.37074e+12 -5.77245e+12 -5.9047e+12 -4.74742e+12 -7.47081e+12 -6.34129e+12 -1.09075e+13 -6.5436e+12 -8.55863e+12 -7.33113e+12 -1.93509e+13 -6.74319e+12 -6.93762e+12 -7.17687e+12 -9.38587e+12 -1.11129e+13 -8.19911e+12 -5.78809e+12 -8.28795e+12 -7.16697e+12 -5.37962e+12 -6.58619e+12 -4.7851e+12 -1.17228e+13 -7.02704e+12 -2.67455e+12 -8.09803e+12 -9.87638e+12 -1.16491e+13 -6.98557e+12 -6.69991e+12 -1.03035e+13 -1.15001e+13 -4.6448e+12 -7.37177e+12 -3.60594e+12 -6.19369e+12 -8.51282e+12 -4.05206e+12 -5.9373e+12 -9.56113e+12 -8.4804e+12 -7.47135e+12 -6.46266e+12 -7.22714e+12 -5.18049e+12 -5.6973e+12 -2.62322e+12 -6.75617e+12 -3.928e+12 -5.61491e+12 -6.97046e+12 -8.50306e+12 -6.32412e+12 -4.11334e+12 -4.04494e+12 -7.25689e+12 -6.61569e+12 -7.19709e+12 -5.25745e+12 -6.5432e+12 -6.4174e+12 -7.03813e+12 -4.97463e+12 -6.91533e+12 -7.00021e+12 -6.88619e+12 -5.06967e+12 -3.99965e+12 -7.8474e+12 -7.69147e+12 -9.44395e+12 -5.41562e+12 -6.98323e+12 -9.24235e+12 -6.16681e+12 -1.03914e+13 -4.24253e+12 -5.78723e+12 -7.40121e+12 -7.73124e+12 -5.6125e+12 -3.63465e+12 -7.38388e+12 -7.95158e+12 -7.18558e+12 -9.2941e+12 -1.37386e+13 -7.31277e+12 -6.8061e+12 -9.3738e+12 -7.78503e+12 -1.03275e+13 -7.42448e+12 -1.29395e+13 -4.81981e+12 -4.28938e+12 -4.65095e+12 -3.71474e+12 -6.06458e+12 -6.5177e+12 -1.07448e+13 -6.8515e+12 -5.15668e+12 -9.34367e+12 -1.37588e+13 -8.0475e+12 -3.42025e+12 -6.82268e+12 -5.18497e+12 -8.35497e+12 -4.90573e+12 -6.24096e+12 -7.8426e+12 -7.22256e+12 -7.78393e+12 -1.35856e+13 -7.88972e+12 -7.04179e+12 -5.94828e+12 -7.37662e+12 -8.49057e+12 -1.07116e+13 -6.03704e+12 -6.54046e+12 -5.19853e+12 -5.59463e+12 -8.69089e+12 -4.51348e+12 -4.31806e+12 -7.50021e+12 -5.55788e+12 -8.52975e+12 -8.50784e+12 -4.80016e+12 -3.14371e+12 -4.67137e+12 -3.84332e+12 -9.22641e+12 -5.24582e+12 -8.86076e+12 -3.92512e+12 -1.45711e+13 -7.29461e+12 -6.88162e+12 -1.26213e+13 -8.34025e+12 -7.97533e+12 -1.06983e+13 -6.43033e+12 -6.1186e+12 -7.83977e+12 -3.4173e+12 -7.77485e+12 -5.68297e+12 -5.8323e+12 -8.15431e+12 -7.76533e+12 -6.521e+12 -4.87842e+12 -5.51957e+12 -2.45454e+12 -2.98791e+12 -4.36891e+12 -4.78028e+12 -5.5537e+12 -1.10738e+13 -4.35417e+12 -5.50182e+12 -4.34102e+12 -9.29523e+12 -3.53804e+12 -5.50725e+12 -7.07927e+12 -6.39202e+12 -5.09827e+12 -5.7032e+12 -4.51164e+12 -5.4576e+12 -5.84068e+12 -5.44446e+12 -8.61512e+12 -6.67221e+12 -6.78571e+12 -9.81038e+12 -1.04489e+13 -6.24061e+12 -5.12979e+12 -6.44658e+12 -4.49179e+12 -7.27137e+12 -7.36165e+12 -3.84196e+12 -3.52095e+12 -5.14909e+12 -5.96313e+12 -7.18308e+12 -7.37707e+12 -3.26205e+12 -5.78003e+12 -5.24145e+12 -6.68981e+12 -9.59099e+12 -6.25955e+12 -3.37995e+12 -4.91219e+12 -4.89538e+12 -9.23305e+12 -4.40249e+12 -6.95081e+12 -1.15963e+13 -5.11609e+12 -7.62059e+12 -8.086e+12 -6.15707e+12 -4.88221e+12 -6.48217e+12 -4.68571e+12 -5.94406e+12 -6.30874e+12 -1.16284e+13 -7.29321e+12 -4.11305e+12 -9.39287e+12 -4.61907e+12 -5.67096e+12 -6.62778e+12 -6.49322e+12 -9.59909e+12 -6.40319e+12 -6.39232e+12 -7.69379e+12 -8.08447e+12 -4.73011e+12 -6.60786e+12 -4.87251e+12 -4.74385e+12 -5.2597e+12 -8.41005e+12 -6.15578e+12 -8.50747e+12 -1.07085e+13 -1.30551e+13 -8.58092e+12 -5.17251e+12 -8.47022e+12 -9.02861e+12 -1.45102e+13 -7.15191e+12 -1.09451e+13 -4.07699e+12 -6.76456e+12 -9.16832e+12 -4.92424e+12 -6.00596e+12 -7.94569e+12 -9.5714e+12 -6.08875e+12 -6.0557e+12 -5.01802e+12 -7.78233e+12 -5.05268e+12 -1.00301e+13 -3.61168e+12 -8.64711e+12 -5.39344e+12 -1.13324e+13 -6.92257e+12 -5.53764e+12 -1.2114e+13 -6.15104e+12 -4.5612e+12 -4.92919e+12 -6.6243e+12 -4.6561e+12 -9.68961e+12 -1.00238e+13 -8.39256e+12 -7.00988e+12 -8.65803e+12 -6.8183e+12 -4.10538e+12 -6.92542e+12 -8.71116e+12 -7.9906e+12 -6.55203e+12 -5.93276e+12 -4.10702e+12 -4.88141e+12 -7.23925e+12 -5.75928e+12 -7.19391e+12 -6.25119e+12 -5.11483e+12 -3.96364e+12 -3.7545e+12 -7.47638e+12 -7.86876e+12 -6.95847e+12 -6.80375e+12 -5.14531e+12 -5.85709e+12 -7.13187e+12 -1.03499e+13 -7.9226e+12 -8.92571e+12 -1.07059e+13 -7.07391e+12 -3.0687e+12 -6.41621e+12 -3.98973e+12 -4.62217e+12 -5.81334e+12 -1.83137e+12 -9.20891e+12 -7.30965e+12 -8.10136e+12 -5.71896e+12 -4.85483e+12 -6.34771e+12 -9.26927e+12 -6.0267e+12 -5.87087e+12 -7.51575e+12 -6.17237e+12 -9.21045e+12 -6.46321e+12 -1.1061e+13 -7.58281e+12 -5.94052e+12 -4.02703e+12 -4.79676e+12 -3.36219e+12 -7.55205e+12 -5.18889e+12 -6.80366e+12 -4.56275e+12 -6.38478e+12 -6.45318e+12 -6.79995e+12 -6.75596e+12 -7.83022e+12 -8.44003e+12 -6.77531e+12 -4.71002e+12 -2.80519e+12 -5.62932e+12 -4.23539e+12 -4.50478e+12 -4.5624e+12 -5.96204e+12 -7.37137e+12 -7.66892e+12 -6.75802e+12 -6.8588e+12 -5.87084e+12 -4.79969e+12 -7.07552e+12 -3.78187e+12 -7.70194e+12 -7.63683e+12 -4.47087e+12 -9.67142e+12 -7.12002e+12 -7.14068e+12 -9.92423e+12 -1.1318e+13 -6.15416e+12 -7.79175e+12 -3.62952e+12 -4.37877e+12 -8.97563e+12 -3.63154e+12 -7.03085e+12 -1.05076e+13 -5.20206e+12 -7.32785e+12 -5.59416e+12 -5.76133e+12 -6.62767e+12 -9.1963e+12 -6.433e+12 -4.40519e+12 -3.97866e+12 -6.41389e+12 -7.28964e+12 -4.39251e+12 -1.00841e+13 -7.61665e+12 -6.34936e+12 -3.80943e+12 -5.62321e+12 -6.09602e+12 -8.71502e+12 -6.04356e+12 -1.01315e+13 -9.89709e+12 -5.19958e+12 -5.90542e+12 -4.66197e+12 -6.0615e+12 -5.85924e+12 -6.15821e+12 -4.96388e+12 -1.01375e+13 -9.02276e+12 -1.00667e+13 -8.53644e+12 -7.36047e+12 -7.46584e+12 -4.87836e+12 -3.99388e+12 -6.38267e+12 -5.85482e+12 -5.88743e+12 -5.64831e+12 -4.86679e+12 -7.76485e+12 -6.96342e+12 -6.20117e+12 -6.4991e+12 -5.22143e+12 -4.65659e+12 -8.49724e+12 -7.05768e+12 -6.95123e+12 -5.8443e+12 -6.3275e+12 -3.88483e+12 -5.94416e+12 -4.47435e+12 -4.18185e+12 -4.4799e+12 -7.00508e+12 -6.40134e+12 -6.29232e+12 -3.49826e+12 -4.91284e+12 -8.78397e+12 -9.95011e+12 -8.45286e+12 -9.88679e+12 -5.79717e+12 -1.06035e+13 -8.6943e+12 -3.4095e+12 -8.96862e+12 -5.80593e+12 -6.42335e+12 -9.26524e+12 -6.08066e+12 -5.96218e+12 -6.15674e+12 -8.43902e+12 -8.44583e+12 -3.71354e+12 -3.43519e+12 -5.36306e+12 -6.83706e+12 -6.79427e+12 -4.4584e+12 -5.2037e+12 -3.05929e+12 -4.66258e+12 -6.82279e+12 -3.86548e+12 -5.66179e+12 -4.04097e+12 -4.89346e+12 -8.37259e+12 -6.3985e+12 -3.74927e+12 -5.11293e+12 -7.23176e+12 -7.32981e+12 -5.73788e+12 -5.81234e+12 -6.01336e+12 -2.57649e+12 -3.89953e+12 -4.49008e+12 -3.0537e+12 -5.11998e+12 -5.89965e+12 -6.09039e+12 -4.1546e+12 -4.29902e+12 -5.38031e+12 -7.38722e+12 -5.90057e+12 -5.71695e+12 -5.5754e+12 -4.92624e+12 -6.67284e+12 -5.91846e+12 -5.92351e+12 -7.9022e+12 -3.8898e+12 -7.08284e+12 -3.5358e+12 -4.37096e+12 -9.11339e+12 -5.53799e+12 -1.02057e+13 -6.78016e+12 -3.25604e+12 -5.17955e+12 -2.16225e+12 -4.93437e+12 -5.17662e+12 -8.79568e+12 -6.83416e+12 -4.44917e+12 -6.77153e+12 -1.03688e+13 -4.91732e+12 -5.35291e+12 -3.732e+12 -7.20886e+12 -6.95041e+12 -6.07802e+12 -1.0824e+13 -5.50707e+12 -3.86119e+12 -4.57211e+12 -4.6534e+12 -6.05452e+12 -8.60286e+12 -6.16432e+12 -4.95004e+12 -6.44943e+12 -6.45388e+12 -9.869e+12 -8.11918e+12 -7.27911e+12 -1.23564e+13 -8.29386e+12 -7.08691e+12 -7.85417e+12 -6.77469e+12 -2.44254e+12 -6.07023e+12 -1.06003e+13 -4.61247e+12 -4.75891e+12 -4.81443e+12 -4.91418e+12 -8.66975e+12 -6.13929e+12 -1.14902e+13 -6.16014e+12 -1.08308e+13 -1.29374e+13 -7.13454e+12 -4.79848e+12 -4.93303e+12 -7.10989e+12 -4.5983e+12 -8.86485e+12 -5.54601e+12 -4.62672e+12 -3.38436e+12 -5.31984e+12 -3.51333e+12 -6.37301e+12 -5.61199e+12 -3.74589e+12 -4.24083e+12 -4.22361e+12 -3.72502e+12 -4.00287e+12 -3.65564e+12 -7.56345e+12 -6.16889e+12 -8.71533e+12 -7.22724e+12 -7.96773e+12 -8.16678e+12 -5.94512e+12 -4.63093e+12 -5.47842e+12 -6.67686e+12 -5.37621e+12 -5.93596e+12 -5.82012e+12 -1.02342e+13 -5.59743e+12 -8.07946e+12 -8.16004e+12 -7.03143e+12 -9.66766e+12 -4.99205e+12 -5.54126e+12 -4.95045e+12 -1.15732e+13 -1.1311e+13 -6.46439e+12 -8.71459e+12 -5.47883e+12 -6.65287e+12 -7.92885e+12 -7.69798e+12 -3.7399e+12 -9.44896e+12 -3.31126e+12 -1.05487e+13 -5.59332e+12 -5.10993e+12 -3.6249e+12 -4.18432e+12 -7.08114e+12 -3.77768e+12 -6.19751e+12 -8.757e+12 -5.85147e+12 -4.60586e+12 -4.41045e+12 -6.81925e+12 -5.12803e+12 -8.40796e+12 -6.82692e+12 -7.74503e+12 -8.30294e+12 -6.97483e+12 -3.49524e+12 -5.27747e+12 -7.88701e+12 -4.79473e+12 -6.14499e+12 -5.75607e+12 -5.9758e+12 -5.40385e+12 -4.55652e+12 -6.38123e+12 -4.41391e+12 -6.90454e+12 -3.49703e+12 -5.93692e+12 -5.3406e+12 -3.66154e+12 -6.82007e+12 -5.75228e+12 -5.84657e+12 -8.59745e+12 -4.41991e+12 -5.14751e+12 -5.13175e+12 -5.84559e+12 -6.01819e+12 -4.20848e+12 -5.4967e+12 -2.36117e+12 -4.30079e+12 -6.09171e+12 -3.79053e+12 -1.05911e+13 -6.59665e+12 -9.72106e+12 -5.43663e+12 -6.50666e+12 -8.37013e+12 -5.84014e+12 -9.71303e+12 -7.17279e+12 -5.44239e+12 -4.01232e+12 -6.19249e+12 -6.17795e+12 -8.84658e+12 -6.39999e+12 -7.01139e+12 -7.75257e+12 -6.81547e+12 -6.4215e+12 -6.26017e+12 -3.04212e+12 -6.20386e+12 -5.10008e+12 -3.90422e+12 -4.41646e+12 -7.94214e+12 -7.92791e+12 -6.82638e+12 -4.40274e+12 -6.06972e+12 -4.86673e+12 -7.9948e+12 -4.70558e+12 -6.12045e+12 -1.09569e+13 -6.83966e+12 -4.47373e+12 -6.73464e+12 -9.28536e+12 -1.60583e+13 -8.38209e+12 -1.13766e+13 -9.41973e+12 -5.93631e+12 -6.01771e+12 -1.0576e+13 -6.79604e+12 -9.02597e+12 -5.44396e+12 -3.02527e+12 -3.44755e+12 -5.18837e+12 -2.66795e+12 -7.47591e+12 -5.81798e+12 -7.22797e+12 -4.61976e+12 -6.27141e+12 -9.65625e+12 -5.16685e+12 -1.02774e+13 -8.76777e+12 -7.56343e+12 -7.04263e+12 -6.37852e+12 -5.63844e+12 -6.73498e+12 -5.09231e+12 -5.96379e+12 -4.62619e+12 -5.88575e+12 -5.85137e+12 -4.60152e+12 -6.49469e+12 -4.79576e+12 -8.68355e+12 -7.50124e+12 -3.39269e+12 -2.58412e+12 -6.26778e+12 -2.95357e+12 -3.61026e+12 -7.52073e+12 -1.18032e+13 -8.22505e+12 -6.75777e+12 -7.40068e+12 -7.56109e+12 -5.53352e+12 -6.60726e+12 -5.46999e+12 -8.32566e+12 -6.71171e+12 -7.36506e+12 -7.55391e+12 -5.63655e+12 -6.64578e+12 -7.46086e+12 -8.73589e+12 -6.10797e+12 -6.03561e+12 -3.3188e+12 -6.84352e+12 -4.85347e+12 -6.71254e+12 -6.40708e+12 -3.43541e+12 -3.30268e+12 -2.52767e+12 -5.59559e+12 -5.82573e+12 -7.13355e+12 -4.20993e+12 -3.94659e+12 -6.67139e+12 -4.6399e+12 -4.51532e+12 -4.5225e+12 -3.98762e+12 -4.14843e+12 -6.59408e+12 -9.4083e+12 -7.30511e+12 -3.78672e+12 -5.40366e+12 -6.48616e+12 -2.86905e+12 -7.02732e+12 -5.25175e+12 -5.33167e+12 -4.71152e+12 -2.81683e+12 -4.35835e+12 -3.3247e+12 -5.54204e+12 -6.49224e+12 -6.67572e+12 -7.73342e+12 -7.49e+12 -5.47586e+12 -3.97874e+12 -9.8558e+12 -7.8609e+12 -7.59944e+12 -9.69174e+12 -6.57431e+12 -7.91431e+12 -5.24579e+12 -6.78918e+12 -6.14036e+12 -8.13616e+12 -8.89934e+12 -7.54449e+12 -5.8154e+12 -6.46276e+12 -7.91767e+12 -4.72264e+12 -4.673e+12 -8.40799e+12 -6.14014e+12 -6.78941e+12 -6.49977e+12 -7.67356e+12 -7.04588e+12 -5.40796e+12 -6.40928e+12 -6.12189e+12 -9.86467e+12 -8.24695e+12 -5.67124e+12 -8.66093e+12 -6.92058e+12 -4.20049e+12 -1.17902e+13 -7.62537e+12 -5.84981e+12 -7.59198e+12 -8.05007e+12 -5.29484e+12 -1.23572e+13 -6.24962e+12 -6.01854e+12 -8.2597e+12 -6.88961e+12 -4.38827e+12 -5.49677e+12 -7.26926e+12 -5.56667e+12 -5.96011e+12 -6.29436e+12 -5.77137e+12 -5.39862e+12 -8.99735e+12 -8.33648e+12 -7.47614e+12 -5.56025e+12 -4.49155e+12 -4.6205e+12 -7.53975e+12 -8.52444e+12 -6.90963e+12 -2.96938e+12 -6.33829e+12 -4.966e+12 -4.01617e+12 -6.96165e+12 -1.03428e+13 -3.93809e+12 -4.31421e+12 -7.1542e+12 -5.3651e+12 -6.15324e+12 -7.32872e+12 -5.01577e+12 -7.56005e+12 -5.29131e+12 -5.6677e+12 -6.29086e+12 -6.317e+12 -6.81169e+12 -2.35409e+12 -2.44682e+12 -7.91942e+12 -9.50249e+12 -4.51306e+12 -4.76713e+12 -4.82501e+12 -4.38012e+12 -4.75222e+12 -3.43737e+12 -3.95455e+12 -3.38199e+12 -8.27829e+12 -5.1999e+12 -5.08376e+12 -3.91739e+12 -5.91137e+12 -4.6421e+12 -3.26845e+12 -6.02416e+12 -3.12231e+12 -3.20464e+12 -4.63183e+12 -5.31948e+12 -4.40141e+12 -3.90653e+12 -5.39814e+12 -4.37667e+12 -4.49486e+12 -5.75925e+12 -3.81082e+12 -7.27265e+12 -8.04651e+12 -3.89367e+12 -3.6133e+12 -5.3321e+12 -4.05658e+12 -6.10581e+12 -4.6591e+12 -7.40577e+12 -7.37344e+12 -4.71072e+12 -4.24847e+12 -4.15645e+12 -5.20994e+12 -3.31656e+12 -4.23509e+12 -7.68442e+12 -2.4354e+12 -5.92568e+12 -4.91899e+12 -4.13108e+12 -4.6206e+12 -3.08926e+12 -4.26078e+12 -5.01369e+12 -7.54988e+12 -5.3315e+12 -5.58613e+12 -7.29338e+12 -6.13101e+12 -4.16431e+12 -6.3277e+12 -8.50086e+12 -8.41896e+12 -5.62297e+12 -4.63796e+12 -8.97928e+12 -5.64117e+12 -4.39375e+12 -4.67852e+12 -5.68334e+12 -6.42413e+12 -6.3592e+12 -7.91982e+12 -6.1549e+12 -7.87659e+12 -7.70672e+12 -6.40608e+12 -1.0444e+12 -7.45073e+12 -8.21683e+12 -6.11738e+12 -7.74402e+12 -6.24674e+12 -6.00144e+12 -5.9965e+12 -7.47522e+12 -3.96013e+12 -7.54795e+12 -7.5463e+12 -5.4699e+12 -5.42872e+12 -7.31474e+12 -6.16871e+12 -8.89832e+12 -5.80766e+12 -4.77158e+12 -6.48601e+12 -2.75772e+12 -4.02285e+12 -6.67704e+12 -4.43315e+12 -3.35997e+12 -4.46504e+12 -3.57536e+12 -9.80402e+12 -5.6374e+12 -8.83296e+12 -6.75381e+12 -9.18082e+12 -9.72247e+12 -4.40218e+12 -3.08848e+12 -7.15908e+12 -7.68924e+12 -4.97549e+12 -5.36055e+12 -5.60272e+12 -5.14334e+12 -4.33037e+12 -5.09479e+12 -5.31669e+12 -7.61172e+12 -6.31552e+12 -3.85034e+12 -5.4666e+12 -6.0207e+12 -7.7782e+12 -4.83944e+12 -5.13652e+12 -8.01774e+12 -8.12997e+12 -4.48043e+12 -4.37688e+12 -5.29642e+12 -6.80978e+12 -7.03034e+12 -5.93282e+12 -5.19066e+12 -5.92502e+12 -7.30428e+12 -4.05177e+12 -6.45423e+12 -5.35617e+12 -5.47248e+12 -4.23205e+12 -4.79562e+12 -5.64615e+12 -3.95715e+12 -6.28783e+12 -5.72931e+12 -8.25501e+12 -5.41164e+12 -5.13835e+12 -4.3614e+12 -4.90083e+12 -6.25721e+12 -6.08787e+12 -2.91587e+12 -5.0715e+12 -3.65593e+12 -5.19901e+12 -5.08135e+12 -6.13616e+12 -3.79655e+12 -2.8773e+12 -2.42567e+12 -4.11791e+12 -2.97795e+12 -3.95082e+12 -2.77994e+12 -3.98127e+12 -6.17887e+12 -4.18017e+12 -1.98036e+12 -2.9053e+12 -3.762e+12 -1.89633e+12 -3.04007e+12 -2.42688e+12 -3.52475e+12 -3.88794e+12 -3.40327e+12 -5.40658e+12 -3.87141e+12 -2.57504e+12 -3.22578e+12 -1.29896e+12 -4.95458e+12 -3.42113e+12 -6.84329e+12 -6.11965e+12 -2.73796e+12 -2.6598e+12 -7.50063e+12 -4.87197e+12 -2.38607e+12 -5.48744e+12 -3.78182e+12 -6.36496e+12 -3.7141e+12 -4.98311e+12 -6.49713e+12 -4.10411e+12 -6.88697e+12 -9.52692e+12 -5.17805e+12 -3.33866e+12 -8.14529e+12 -9.43605e+12 -7.22994e+12 -4.2835e+12 -7.61889e+12 -7.96084e+12 -5.68852e+12 -7.28286e+12 -7.60385e+12 -6.56278e+12 -9.74792e+12 -5.68579e+12 -7.85879e+12 -4.08416e+12 -7.48525e+12 -3.25222e+12 -6.14512e+12 -5.10846e+12 -4.96891e+12 -5.24585e+12 -5.79456e+12 -8.44843e+12 -7.4151e+12 -6.80894e+12 -7.49707e+12 -6.63787e+12 -4.79628e+12 -8.35963e+12 -6.16377e+12 -1.13889e+13 -1.01123e+13 -6.19925e+12 -2.56369e+12 -4.20396e+12 -8.93688e+12 -5.75215e+12 -2.13047e+12 -3.89876e+12 -3.03933e+12 -3.39067e+12 -1.03721e+13 -3.8634e+12 -4.3558e+12 -5.57527e+12 -4.35521e+12 -5.01959e+12 -5.31811e+12 -3.8057e+12 -8.13181e+12 -4.06498e+12 -7.21946e+12 -4.49694e+12 -4.81402e+12 -5.7679e+12 -6.08954e+12 -6.93525e+12 -5.65425e+12 -4.09538e+12 -5.03995e+12 -4.33667e+12 -6.30667e+12 -6.70006e+12 -6.58572e+12 -9.83757e+12 -4.78553e+12 -5.35296e+12 -5.6446e+12 -8.15853e+12 -5.59474e+12 -5.91913e+12 -6.1052e+12 -7.32917e+12 -5.31716e+12 -7.62965e+12 -7.06143e+12 -7.87223e+12 -4.00507e+12 -1.80671e+12 -3.88316e+12 -7.61719e+12 -2.85142e+12 -6.23833e+12 -6.48056e+12 -3.12194e+12 -5.12327e+12 -6.44966e+12 -5.84662e+12 -1.84462e+12 -4.5447e+12 -4.57752e+12 -5.68898e+12 -4.19452e+12 -4.2477e+12 -5.39126e+12 -2.34145e+12 -3.25606e+12 -2.37376e+12 -2.36882e+12 -3.94463e+12 -3.16145e+12 -5.63053e+12 -4.40835e+12 -2.88845e+12 -2.4445e+12 -3.65039e+12 -3.22448e+12 -5.18841e+12 -3.13328e+12 -3.8371e+12 -2.72885e+12 -3.5562e+12 -3.85891e+12 -5.56334e+12 -3.79863e+12 -2.69616e+12 -5.31472e+12 -4.01344e+12 -5.86678e+12 -3.18159e+12 -3.92639e+12 -4.22797e+12 -4.21328e+12 -4.65957e+12 -5.06726e+12 -4.48848e+12 -4.16409e+12 -3.48548e+12 -2.67122e+12 -2.96836e+12 -5.7718e+12 -8.2941e+12 -3.56893e+12 -3.09923e+12 -3.26273e+12 -2.33826e+12 -3.32705e+12 -2.06968e+12 -3.62786e+12 -8.19381e+12 -7.44571e+12 -3.17127e+12 -7.84817e+12 -6.87869e+12 -4.15281e+12 -5.76525e+12 -5.20039e+12 -3.94861e+12 -5.54646e+12 -5.96775e+12 -6.01455e+12 -7.74469e+12 -5.76381e+12 -5.117e+12 -5.14157e+12 -3.30564e+12 -5.27403e+12 -6.8981e+12 -5.99946e+12 -7.68492e+12 -8.73049e+12 -5.10765e+12 -3.52579e+12 -3.95114e+12 -6.65141e+12 -5.09814e+12 -6.36383e+12 -2.77342e+12 -5.51974e+12 -5.52313e+12 -4.99603e+12 -5.25818e+12 -8.25971e+12 -5.79373e+12 -4.83623e+12 -2.92281e+12 -6.8698e+12 -4.63304e+12 -1.77423e+12 -2.75632e+12 -6.8515e+12 -5.03419e+12 -6.16265e+12 -2.59842e+12 -5.97599e+12 -5.35419e+12 -6.679e+12 -6.81488e+12 -4.80797e+12 -4.67931e+12 -6.06829e+12 -4.10651e+12 -6.75583e+12 -4.85884e+12 -4.02659e+12 -4.89084e+12 -3.33705e+12 -4.68791e+12 -5.70114e+12 -4.89225e+12 -3.48948e+12 -2.16677e+12 -3.73305e+12 -1.962e+12 -4.83847e+12 -3.87851e+12 -6.54784e+12 -5.37942e+12 -5.63375e+12 -5.69224e+12 -4.10077e+12 -4.38625e+12 -6.05565e+12 -3.73634e+12 -4.40903e+12 -3.72998e+12 -4.52242e+12 -4.66118e+12 -7.70411e+12 -6.29559e+12 -7.74225e+12 -4.19297e+12 -2.60745e+12 -5.91485e+12 -4.73966e+12 -6.07195e+12 -4.05469e+12 -5.54364e+12 -5.03346e+12 -3.54419e+12 -6.40352e+12 -5.75176e+12 -2.92911e+12 -5.45044e+12 -2.21036e+12 -4.96055e+12 -4.20073e+12 -2.18424e+12 -3.62561e+12 -5.51843e+12 -4.52736e+12 -4.07749e+12 -1.66508e+12 -3.0356e+12 -4.48972e+12 -3.70819e+12 -3.59562e+12 -3.9305e+12 -3.47873e+12 -3.21306e+12 -6.81887e+12 -7.2161e+12 -4.55905e+12 -3.94967e+12 -2.91971e+12 -1.92813e+12 -3.84079e+12 -3.8303e+12 -2.32831e+12 -2.59464e+12 -2.07344e+12 -4.82245e+12 -3.72131e+12 -2.95964e+12 -2.23557e+12 -2.92183e+12 -3.07401e+12 -3.4527e+12 -4.92922e+12 -4.15149e+12 -1.60725e+12 -3.76369e+12 -3.65236e+12 -2.37605e+12 -4.07905e+12 -2.7682e+12 -4.22197e+12 -4.14194e+12 -3.32367e+12 -3.96469e+12 -4.13394e+12 -4.98296e+12 -2.84996e+12 -5.36549e+12 -2.87383e+12 -3.38542e+12 -6.39497e+12 -3.60029e+12 -3.07981e+12 -2.44941e+12 -2.80087e+12 -5.0178e+12 -4.03097e+12 -4.23222e+12 -4.12989e+12 -5.86174e+12 -6.47261e+12 -6.3226e+12 -4.76787e+12 -5.06647e+12 -1.7863e+12 -4.35665e+12 -1.29993e+12 -4.80544e+12 -3.55562e+12 -4.1295e+12 -3.39699e+12 -5.34621e+12 -6.04659e+12 -4.7493e+12 -4.92403e+12 -7.75159e+12 -5.98656e+12 -4.80017e+12 -3.01011e+12 -3.32068e+12 -4.23976e+12 -3.43236e+12 -4.89995e+12 -4.80723e+12 -7.87297e+12 -5.02152e+12 -3.94119e+12 -5.82747e+12 -4.44138e+12 -4.13166e+12 -8.13823e+12 -2.41264e+12 -3.16791e+12 -4.0633e+12 -2.43132e+12 -3.58595e+12 -3.62811e+12 -6.81652e+12 -5.8685e+12 -4.93833e+12 -6.48634e+12 -7.30636e+12 -8.20241e+12 -4.34372e+12 -4.25848e+12 -7.8709e+12 -4.50269e+12 -3.64908e+12 -3.9941e+12 -5.23907e+12 -4.55402e+12 -4.53328e+12 -5.69624e+12 -4.1869e+12 -1.7124e+12 -3.9902e+12 -6.48534e+12 -4.89334e+12 -4.01561e+12 -2.10249e+12 -4.52161e+12 -4.52486e+12 -5.58787e+12 -3.53328e+12 -4.49218e+12 -2.89011e+12 -4.01856e+12 -4.55134e+12 -6.57899e+12 -5.86663e+12 -2.9647e+12 -3.4913e+12 -5.86844e+12 -4.74505e+12 -6.26167e+12 -5.4429e+12 -3.30006e+12 -6.28643e+12 -4.07124e+12 -6.01221e+12 -6.97218e+12 -5.23505e+12 -3.90346e+12 -3.77489e+12 -3.62658e+12 -5.21605e+12 -2.98741e+12 -5.18071e+12 -4.09692e+12 -4.4815e+12 -4.9069e+12 -1.38523e+12 -5.2521e+12 -3.0733e+12 -2.70069e+12 -6.14059e+12 -3.1628e+12 -623130000000.0 -3.16005e+12 -3.33106e+12 -3.13965e+12 -2.53213e+12 -2.03485e+12 -2.9597e+12 -1.67257e+12 -1.16509e+12 -4.22709e+12 -4.29282e+12 -4.07202e+12 -1.90871e+12 -4.30838e+12 -3.6662e+12 -3.0171e+12 -2.58999e+12 -2.70312e+12 -4.00983e+12 -2.87598e+12 -4.09834e+12 -3.66467e+12 -3.48103e+12 -5.59734e+12 -4.16124e+12 -6.05264e+12 -3.77953e+12 -2.37904e+12 -4.76131e+12 -4.8991e+12 -4.37645e+12 -2.17063e+12 -3.2482e+12 -4.77033e+12 -3.66236e+12 -3.28548e+12 -3.61327e+12 -2.55664e+12 -5.97364e+12 -5.58852e+12 -7.00689e+12 -5.58781e+12 -3.24144e+12 -5.14354e+12 -5.19518e+12 -2.51282e+12 -5.23189e+12 -7.1986e+12 -7.07574e+12 -8.18058e+12 -4.67389e+12 -5.85208e+12 -3.58357e+12 -3.94809e+12 -6.56716e+12 -5.53715e+12 -7.62517e+12 -8.311e+12 -6.28388e+12 -4.14421e+12 -6.16765e+12 -3.92397e+12 -5.04239e+12 -7.07296e+12 -4.00283e+12 -7.43683e+12 -3.74249e+12 -5.05561e+12 -6.39877e+12 -5.39752e+12 -1.68776e+12 -3.60238e+12 -2.65431e+12 -6.96733e+12 -4.61614e+12 -3.0139e+12 -4.17369e+12 -5.97235e+12 -5.60064e+12 -6.0943e+12 -4.24109e+12 -5.26237e+12 -6.35046e+12 -5.03992e+12 -8.42754e+12 -4.4743e+12 -5.67935e+12 -4.11177e+12 -3.75194e+12 -6.64084e+12 -4.99738e+12 -4.76577e+12 -3.09142e+12 -1.37959e+12 -5.22136e+12 -4.69348e+12 -3.11094e+12 -5.59179e+12 -3.84363e+12 -5.15607e+12 -3.57384e+12 -3.64589e+12 -4.26813e+12 -1.84328e+12 -4.32957e+12 -4.57669e+12 -4.91905e+12 -6.03011e+12 -4.48105e+12 -1.28385e+12 -4.28345e+12 -3.36729e+12 -3.3183e+12 -6.64003e+12 -4.24889e+12 -1.75264e+12 -3.06012e+12 -3.24497e+12 -6.51231e+12 -3.12498e+12 -1.60972e+12 -4.15839e+12 -1.81589e+12 -2.76216e+12 -4.02589e+12 -2.62982e+12 -2.56228e+12 -3.11188e+12 -2.45166e+12 -1.32888e+12 -3.35079e+12 -2.73241e+12 -3.43944e+12 -4.55884e+12 -2.59788e+12 -1.05695e+12 -2.67876e+12 -1.81198e+12 -2.9389e+12 -1.48231e+12 -4.20928e+12 -1.85953e+12 -2.4821e+12 -1.29234e+12 -2.31326e+12 -3.97466e+12 -2.03241e+12 -3.10219e+12 -2.35445e+12 -1.48822e+12 -2.0982e+12 -3.32576e+12 -2.90216e+12 -1.88245e+12 -2.35283e+12 -1.65242e+12 -4.20563e+12 -4.32239e+12 -4.06982e+12 -3.19913e+12 -3.84912e+12 -2.72278e+12 -6.38037e+12 -2.07099e+12 -5.12932e+12 -3.78323e+12 -3.79739e+12 -4.98064e+12 -1.13703e+12 -3.96685e+12 -5.35603e+12 -5.46423e+12 -2.60191e+12 -3.73392e+12 -2.54266e+12 -2.05427e+12 -3.21467e+12 -2.10886e+12 -2.70297e+12 -4.24833e+12 -2.23738e+12 -4.61392e+12 -1.3319e+12 -2.47149e+12 -4.64472e+12 -4.66599e+12 -5.56149e+12 -2.19078e+12 -1.51329e+12 -4.53855e+12 -2.43574e+12 -4.35637e+12 -4.83557e+12 -4.76479e+12 -2.87013e+12 -4.49405e+12 -5.37382e+12 -5.30601e+12 -4.73294e+12 -5.5582e+12 -5.62506e+12 -5.21499e+12 -6.51191e+12 -3.63158e+12 -3.15816e+12 -5.449e+12 -5.54003e+12 -2.6422e+12 -3.78226e+12 -4.48749e+12 -5.94735e+12 -4.82278e+12 -3.50695e+12 -5.30949e+12 -5.75948e+12 -6.51008e+12 -5.60239e+12 -3.82341e+12 -4.45652e+12 -2.40999e+12 -6.15678e+12 -2.29846e+12 -3.30188e+12 -4.76277e+12 -3.54938e+12 -4.91e+12 -3.91837e+12 -4.12632e+12 -5.41786e+12 -6.03208e+12 -4.23131e+12 -4.12106e+12 -4.5699e+12 -1.53093e+12 -2.93203e+12 -3.46985e+12 -4.59636e+12 -7.83156e+12 -4.25144e+12 -5.48689e+12 -4.32018e+12 -3.567e+12 -4.16612e+12 -3.47992e+12 -2.0985e+12 -3.92527e+12 -3.60781e+12 -4.1385e+12 -4.57591e+12 -2.55656e+12 -4.13768e+12 -2.77789e+12 -1.85449e+12 -3.45351e+12 -3.57301e+12 -2.31849e+12 -2.65743e+12 -2.09944e+12 -2.68303e+12 -2.38031e+12 -1.38198e+12 -2.50321e+12 -2.34544e+12 -1.92598e+12 -2.17982e+12 -2.07575e+12 -1.47992e+12 -2.37188e+12 -1.76133e+12 -1.1846e+12 -3.34672e+12 -2.19493e+12 -2.94442e+12 -957062000000.0 -1.95092e+12 -854364000000.0 -1.47009e+12 -2.06717e+12 -2.34241e+12 -751799000000.0 -572738000000.0 -561565000000.0 -1.0217e+12 -968797000000.0 -441027000000.0 -1.74203e+12 -1.42323e+12 -1.77348e+12 -2.27891e+12 -1.08911e+12 -2.51248e+12 -1.61682e+12 -2.28851e+12 -2.05636e+12 -2.16159e+12 -3.13279e+12 -3.16207e+12 -1.52604e+12 -2.69918e+12 -1.56946e+12 -3.50185e+12 -2.70153e+12 -2.74733e+12 -1.96886e+12 -3.21715e+12 -2.94409e+12 -3.17534e+12 -2.76923e+12 -3.11013e+12 -2.27843e+12 -3.31774e+12 -5.26231e+12 -3.83976e+12 -1.69726e+12 -2.44936e+12 -1.70146e+12 -2.94893e+12 -1.84285e+12 -3.39005e+12 -3.03654e+12 -2.30591e+12 -4.13602e+12 -3.38859e+12 -5.09038e+12 -3.8927e+12 -1.88683e+12 -1.77799e+12 -2.37339e+12 -4.44795e+12 -3.15688e+12 -4.55765e+12 -2.21679e+12 -986185000000.0 -4.26144e+12 -4.56533e+12 -1.89029e+12 -5.42342e+12 -3.60224e+12 -3.75327e+12 -4.23389e+12 -3.72644e+12 -3.01435e+12 -2.74212e+12 -3.31107e+12 -3.58796e+12 -3.56109e+12 -2.77389e+12 -4.23518e+12 -2.98318e+12 -3.09504e+12 -4.77315e+12 -3.19418e+12 -3.65314e+12 -3.40317e+12 -4.47817e+12 -5.81278e+12 -6.25796e+12 -3.97426e+12 -4.48645e+12 -6.21825e+12 -3.69885e+12 -2.98833e+12 -2.02917e+12 -4.58516e+12 -3.133e+12 -3.34221e+12 -3.23348e+12 -4.51371e+12 -3.44802e+12 -6.05163e+12 -3.15647e+12 -3.65442e+12 -6.43998e+12 -6.08009e+12 -3.79971e+12 -4.19796e+12 -5.24128e+12 -6.01088e+12 -2.73118e+12 -2.7429e+12 -3.00794e+12 -2.82009e+12 -2.50349e+12 -3.83024e+12 -3.12047e+12 -2.35355e+12 -2.23333e+12 -4.94859e+12 -4.19044e+12 -1.72576e+12 -3.15865e+12 -2.80649e+12 -1.86607e+12 -3.13998e+12 -2.15731e+12 -2.99955e+12 -3.0441e+12 -2.67298e+12 -2.47794e+12 -1.86555e+12 -1.85576e+12 -2.28036e+12 -3.3037e+12 -2.98811e+12 -2.10686e+12 -1.63609e+12 -1.72008e+12 -1.27876e+12 -2.2309e+12 -1.58866e+12 -1.28141e+12 -2.67153e+12 -1.77878e+12 -1.11191e+12 -1.20109e+12 -753316000000.0 -1.36639e+12 -1.09195e+12 -1.27677e+12 -870404000000.0 -1.3919e+12 -1.46468e+12 -1.49826e+12 -1.14846e+12 -2.26045e+12 -1.12714e+12 -1.08761e+12 -1.10944e+12 -1.7629e+12 -1.42378e+12 -3.40127e+12 -691136000000.0 -2.33877e+12 -693412000000.0 -2.36619e+12 -306771000000.0 -1.39606e+12 -1.58352e+12 -651236000000.0 -2.35567e+12 -2.09008e+12 -2.31311e+12 -3.27365e+12 -2.47369e+12 -1.33056e+12 -2.12398e+12 -3.02496e+12 -1.4007e+12 -2.12405e+12 -3.89796e+12 -3.3169e+12 -2.29413e+12 -2.37292e+12 -2.47553e+12 -2.15117e+12 -4.76007e+12 -2.72359e+12 -2.74259e+12 -854781000000.0 -4.15494e+12 -4.19011e+12 -3.08875e+12 -3.39006e+12 -2.84206e+12 -5.68827e+12 -2.7568e+12 -1.98127e+12 -3.95771e+12 -3.11424e+12 -3.75098e+12 -4.13091e+12 -3.98418e+12 -2.5615e+12 -2.81836e+12 -2.05769e+12 -3.98191e+12 -3.19339e+12 -5.81724e+12 -6.88625e+12 -3.75844e+12 -6.27874e+12 -3.6977e+12 -3.40736e+12 -2.38519e+12 -2.60422e+12 -4.65297e+12 -1.79892e+12 -5.3394e+12 -4.41015e+12 -1.87725e+12 -3.57054e+12 -3.14495e+12 -3.64869e+12 -3.76342e+12 -1.92961e+12 -2.1735e+12 -1.86588e+12 -3.64383e+12 -3.0104e+12 -4.37225e+12 -3.63459e+12 -4.96859e+12 -3.33543e+12 -355095000000.0 -3.65069e+12 -3.17438e+12 -4.54961e+12 -2.27018e+12 -3.06315e+12 -3.9611e+12 -2.98456e+12 -3.68424e+12 -2.59906e+12 -2.11096e+12 -2.71671e+12 -2.08918e+12 -3.24651e+12 -1.24036e+12 -2.73821e+12 -3.75887e+12 -2.56549e+12 -775691000000.0 -1.60302e+12 -1.85075e+12 -4.69879e+12 -296255000000.0 -1.24157e+12 -1.71452e+12 -1.22438e+12 -2.5705e+12 -1.80319e+12 -633951000000.0 -1.40496e+12 -726157000000.0 -1.24156e+12 -652594000000.0 -1.24795e+12 -868189000000.0 -813687000000.0 -1.82487e+12 -719159000000.0 -588210000000.0 -846311000000.0 -1.22299e+12 -1.42099e+12 -1.53086e+12 -762229000000.0 -778297000000.0 -739250000000.0 -437398000000.0 -621495000000.0 -520775000000.0 -1.04215e+12 -820445000000.0 -2.19836e+12 -2.00199e+12 -437707000000.0 -1.11669e+12 -948395000000.0 -1.17429e+12 -1.05886e+12 -1.93176e+12 -1.97795e+12 -1.28578e+12 -1.1465e+12 -985619000000.0 -1.75311e+12 -1.40011e+12 -2.55939e+12 -3.23402e+12 -1.6884e+12 -1.99982e+12 -1.23292e+12 -2.85874e+12 -4.05663e+12 -1.14593e+12 -1.95913e+12 -1.62144e+12 -3.51117e+12 -2.27102e+12 -2.23598e+12 -2.31181e+12 -3.4701e+12 -3.51e+12 -2.05479e+12 -1.55085e+12 -3.82087e+12 -2.26614e+12 -3.74981e+12 -2.81303e+12 -1.83369e+12 -2.9403e+12 -3.37705e+12 -2.5713e+12 -4.19737e+12 -2.62009e+12 -2.69689e+12 -5.27209e+12 -4.12542e+12 -2.06059e+12 -4.07784e+12 -2.50951e+12 -4.39414e+12 -2.19498e+12 -2.63318e+12 -3.7355e+12 -3.27945e+12 -1.74809e+12 -2.30071e+12 -4.7133e+12 -1.74658e+12 -1.73508e+12 -2.64175e+12 -979306000000.0 -2.32734e+12 -2.18451e+12 -3.28504e+12 -1.85321e+12 -3.8808e+12 -2.03762e+12 -4.10209e+12 -3.25065e+12 -3.82472e+12 -1.69735e+12 -2.35999e+12 -2.19186e+12 -2.00442e+12 -1.5951e+12 -3.01808e+12 -2.43124e+12 -4.55899e+12 -1.28926e+12 -1.85103e+12 -758945000000.0 -1.2312e+12 -2.96576e+12 -1.66031e+12 -1.12564e+12 -2.02212e+12 -2.00448e+12 -634708000000.0 -1.93106e+12 -1.44352e+12 -2.24148e+12 -2.87468e+12 -1.15499e+12 -1.20105e+12 -695846000000.0 -474531000000.0 -1.27328e+12 -1.18486e+12 -1.1523e+12 -1.0244e+12 -573013000000.0 -362388000000.0 -184255000000.0 -478138000000.0 -844368000000.0 -450998000000.0 -357562000000.0 -339170000000.0 -191276000000.0 -415917000000.0 -272632000000.0 -464332000000.0 -322767000000.0 -490724000000.0 -861081000000.0 -137324000000.0 -797427000000.0 -287167000000.0 -726278000000.0 -442758000000.0 -552634000000.0 -644645000000.0 -1.71082e+12 -1.03392e+12 -1.29417e+12 -2.62876e+12 -3.41795e+12 -1.6028e+12 -2.29846e+12 -1.23394e+12 -1.87472e+12 -1.93778e+12 -1.82047e+12 -1.99724e+12 -3.83304e+12 -2.94058e+12 -3.10781e+12 -2.68136e+12 -2.4309e+12 -1.53775e+12 -1.47489e+12 -2.53233e+12 -3.01222e+12 -2.02749e+12 -1.51807e+12 -2.77482e+12 -3.6322e+12 -2.17981e+12 -2.07679e+12 -3.19568e+12 -2.6047e+12 -3.43983e+12 -2.63667e+12 -3.30961e+12 -1.98276e+12 -3.84156e+12 -2.34733e+12 -2.97904e+12 -2.2282e+12 -1.71617e+12 -1.60741e+12 -2.18881e+12 -2.76068e+12 -3.84946e+12 -1.38267e+12 -3.21713e+12 -917755000000.0 -1.81044e+12 -1.52042e+12 -1.46394e+12 -1.28873e+12 -1.87165e+12 -2.00431e+12 -1.12749e+12 -3.11951e+12 -2.43175e+12 -687551000000.0 -1.8923e+12 -1.22783e+12 -3.09681e+12 -570550000000.0 -1.17595e+12 -1.49957e+12 -1.50836e+12 -1.50551e+12 -3.78944e+12 -1.59744e+12 -2.16627e+12 -2.09551e+12 -1.12518e+12 -818446000000.0 -1.62138e+12 -1.89003e+12 -702020000000.0 -2.07571e+12 -1.2809e+12 -998627000000.0 -2.33536e+12 -1.06639e+12 -1.46228e+12 -1.56188e+12 -989254000000.0 -1.11612e+12 -625021000000.0 -421161000000.0 -661697000000.0 -686024000000.0 -594964000000.0 -213022000000.0 -470794000000.0 -649497000000.0 -232337000000.0 -198062000000.0 -150339000000.0 -177036000000.0 -225280000000.0 -94369600000.0 -323165000000.0 -345701000000.0 -209488000000.0 -349321000000.0 -186026000000.0 -722590000000.0 -103095000000.0 -393098000000.0 -685307000000.0 -676163000000.0 -404719000000.0 -1.44255e+12 -1.16829e+12 -2.00611e+12 -1.34307e+12 -830726000000.0 -1.37629e+12 -1.2536e+12 -1.30719e+12 -1.74159e+12 -2.65303e+12 -1.94923e+12 -1.37196e+12 -2.43473e+12 -1.16312e+12 -1.69166e+12 -1.05537e+12 -1.52686e+12 -1.87744e+12 -3.50099e+12 -1.89587e+12 -1.45586e+12 -2.40831e+12 -1.01775e+12 -2.35309e+12 -1.82142e+12 -3.95985e+12 -778543000000.0 -1.1229e+12 -1.51214e+12 -1.54473e+12 -2.71843e+12 -2.88945e+12 -3.51381e+12 -1.96765e+12 -1.29491e+12 -954367000000.0 -724228000000.0 -1.54007e+12 -910326000000.0 -2.00953e+12 -1.24191e+12 -1.91997e+12 -1.44695e+12 -341421000000.0 -1.17157e+12 -404868000000.0 -2.12323e+12 -914642000000.0 -1.06209e+12 -1.8806e+12 -1.12631e+12 -596706000000.0 -1.12461e+12 -1.44076e+12 -471938000000.0 -1.10127e+12 -1.02709e+12 -1.39285e+12 -650261000000.0 -1.07919e+12 -746998000000.0 -581585000000.0 -2.28193e+12 -767460000000.0 -1.04386e+12 -353960000000.0 -804645000000.0 -212540000000.0 -326694000000.0 -207224000000.0 -381329000000.0 -259345000000.0 -273425000000.0 -320605000000.0 -134796000000.0 -233993000000.0 -529676000000.0 -205305000000.0 -1.58637e+12 -94862800000.0 -162369000000.0 -997915000000.0 -424033000000.0 -744079000000.0 -1.49552e+12 -378648000000.0 -887660000000.0 -946904000000.0 -1.19079e+12 -958317000000.0 -826676000000.0 -1.2344e+12 -438701000000.0 -1.69016e+12 -1.74975e+12 -2.08511e+12 -1.8132e+12 -2.37939e+12 -1.05548e+12 -716838000000.0 -1.89931e+12 -1.3443e+12 -1.32476e+12 -786272000000.0 -311981000000.0 -1.03206e+12 -1.77662e+12 -1.44373e+12 -1.36294e+12 -2.34711e+12 -546467000000.0 -1.6388e+12 -2.02504e+12 -1.25928e+12 -1.08357e+12 -580288000000.0 -620989000000.0 -912015000000.0 -664028000000.0 -1.09282e+12 -1.19859e+12 -840642000000.0 -827870000000.0 -525666000000.0 -1.16438e+12 -926282000000.0 -1.26003e+12 -947156000000.0 -762868000000.0 -543248000000.0 -314801000000.0 -203184000000.0 -366540000000.0 -364995000000.0 -756340000000.0 -636602000000.0 -138125000000.0 -252447000000.0 -274357000000.0 -112574000000.0 -350742000000.0 -290948000000.0 -225793000000.0 -202706000000.0 -484160000000.0 -736661000000.0 -691339000000.0 -505178000000.0 -1.04827e+12 -1.0904e+12 -480708000000.0 -739533000000.0 -548969000000.0 -810420000000.0 -901682000000.0 -704683000000.0 -657376000000.0 -1.24357e+12 -1.11451e+12 -1.28076e+12 -1.55172e+12 -1.62023e+12 -850452000000.0 -737141000000.0 -1.30206e+12 -930088000000.0 -1.04306e+12 -744582000000.0 -97825400000.0 -424588000000.0 -797576000000.0 -727142000000.0 -429401000000.0 -428084000000.0 -375714000000.0 -250661000000.0 -297009000000.0 -95692300000.0 -441022000000.0 -474788000000.0 -290093000000.0 -159774000000.0 -65719500000.0 -276259000000.0 -249516000000.0 -227274000000.0 -248527000000.0 -329401000000.0 -213235000000.0 -271166000000.0 -284735000000.0 -278301000000.0 -323056000000.0 -214051000000.0 -591227000000.0 -386942000000.0 -273851000000.0 -203020000000.0 -329183000000.0 -492941000000.0 -758397000000.0 -193667000000.0 -96433900000.0 -169707000000.0 -88386000000.0 -172279000000.0 -104125000000.0 