# vtk DataFile Version 2.0
Time step 39
ASCII
DATASET UNSTRUCTURED_GRID
POINTS 5000 float
206134.0 347145.0 0
297464.0 347765.0 0
202700.0 351032.0 0
207993.0 350384.0 0
212662.0 348488.0 0
221410.0 352999.0 0
271420.0 352204.0 0
282592.0 350991.0 0
288021.0 347780.0 0
202413.0 355982.0 0
206666.0 353182.0 0
207797.0 357391.0 0
210991.0 353647.0 0
216201.0 354016.0 0
222874.0 357297.0 0
226365.0 354273.0 0
230328.0 357434.0 0
230434.0 354086.0 0
234860.0 353683.0 0
240245.0 355794.0 0
262481.0 357682.0 0
266330.0 354507.0 0
273726.0 356005.0 0
278140.0 355249.0 0
283994.0 356767.0 0
288712.0 353572.0 0
293329.0 356725.0 0
297175.0 353041.0 0
203764.0 360938.0 0
209665.0 362135.0 0
212960.0 358205.0 0
218379.0 359179.0 0
223168.0 361657.0 0
226740.0 358965.0 0
230180.0 361672.0 0
234427.0 359168.0 0
239468.0 361117.0 0
245052.0 358606.0 0
247942.0 361988.0 0
251398.0 357815.0 0
257748.0 358057.0 0
255256.0 362198.0 0
259238.0 362609.0 0
263164.0 361989.0 0
266418.0 359413.0 0
270571.0 358451.0 0
271526.0 362393.0 0
275228.0 359990.0 0
278589.0 362943.0 0
280314.0 359555.0 0
288097.0 358340.0 0
285633.0 360476.0 0
290895.0 360489.0 0
296665.0 361476.0 0
201908.0 365014.0 0
206385.0 365733.0 0
214561.0 362776.0 0
212060.0 366978.0 0
219209.0 364832.0 0
223050.0 366427.0 0
226805.0 365316.0 0
231534.0 365692.0 0
235377.0 363961.0 0
239841.0 366491.0 0
244196.0 363718.0 0
247929.0 367100.0 0
251401.0 364042.0 0
256909.0 366685.0 0
261535.0 366118.0 0
267340.0 364352.0 0
271000.0 367106.0 0
274813.0 365130.0 0
279655.0 367578.0 0
283006.0 363366.0 0
287744.0 363552.0 0
290285.0 367493.0 0
291919.0 363623.0 0
294578.0 365896.0 0
202054.0 373041.0 0
202748.0 369114.0 0
208109.0 371064.0 0
216629.0 368701.0 0
221420.0 370202.0 0
229696.0 368734.0 0
226304.0 370491.0 0
232446.0 371007.0 0
235318.0 368472.0 0
238878.0 371966.0 0
243935.0 369778.0 0
242383.0 373296.0 0
249430.0 371788.0 0
252625.0 368605.0 0
255343.0 371632.0 0
259473.0 370843.0 0
269465.0 370361.0 0
264987.0 369956.0 0
272610.0 371984.0 0
273672.0 368694.0 0
276170.0 370827.0 0
285095.0 368400.0 0
285176.0 373347.0 0
288459.0 371817.0 0
291557.0 370874.0 0
296250.0 370565.0 0
196101.0 379655.0 0
199379.0 378032.0 0
201953.0 376348.0 0
205908.0 375943.0 0
210860.0 376745.0 0
214058.0 372908.0 0
219130.0 374697.0 0
224372.0 375393.0 0
229427.0 374447.0 0
234766.0 375621.0 0
238810.0 377627.0 0
241900.0 376322.0 0
245040.0 378370.0 0
245711.0 374351.0 0
248887.0 377140.0 0
252891.0 375159.0 0
257433.0 375256.0 0
262545.0 375264.0 0
268749.0 375924.0 0
274791.0 375625.0 0
277662.0 378861.0 0
280264.0 373810.0 0
284226.0 377145.0 0
281169.0 378215.0 0
288134.0 376277.0 0
291659.0 373941.0 0
292414.0 377553.0 0
290046.0 379903.0 0
295058.0 375180.0 0
299110.0 375497.0 0
301605.0 378455.0 0
304819.0 379744.0 0
189664.0 384576.0 0
192895.0 382124.0 0
195648.0 382165.0 0
193760.0 384859.0 0
199227.0 381378.0 0
197944.0 384770.0 0
203225.0 381119.0 0
208025.0 380928.0 0
212478.0 380951.0 0
215394.0 384165.0 0
215946.0 378683.0 0
218480.0 382377.0 0
221036.0 379240.0 0
225462.0 380841.0 0
228206.0 378700.0 0
231644.0 378774.0 0
230581.0 382603.0 0
235944.0 381609.0 0
241475.0 380816.0 0
247755.0 381627.0 0
251969.0 379576.0 0
251718.0 384067.0 0
259622.0 379253.0 0
255855.0 381842.0 0
264424.0 380506.0 0
269044.0 382294.0 0
272913.0 379544.0 0
275430.0 381481.0 0
278330.0 383767.0 0
280388.0 380708.0 0
282857.0 379981.0 0
282268.0 383064.0 0
286262.0 380954.0 0
290288.0 383729.0 0
294035.0 381544.0 0
295994.0 378079.0 0
297190.0 384915.0 0
298537.0 380703.0 0
300758.0 384040.0 0
302384.0 380923.0 0
303770.0 382812.0 0
307323.0 382672.0 0
306768.0 385795.0 0
185924.0 386747.0 0
182113.0 389640.0 0
186049.0 390734.0 0
188816.0 388318.0 0
190201.0 390797.0 0
194203.0 387344.0 0
191411.0 387583.0 0
193351.0 390552.0 0
197432.0 388871.0 0
201831.0 386005.0 0
205623.0 384937.0 0
202261.0 389175.0 0
206229.0 389256.0 0
210554.0 385949.0 0
214653.0 389438.0 0
218964.0 387372.0 0
222350.0 383960.0 0
224126.0 388073.0 0
227048.0 384915.0 0
233663.0 386534.0 0
239528.0 385421.0 0
244080.0 384425.0 0
243205.0 389082.0 0
247881.0 386776.0 0
251478.0 387596.0 0
255981.0 387909.0 0
260817.0 384432.0 0
265652.0 385706.0 0
269309.0 386850.0 0
273466.0 385210.0 0
277161.0 388861.0 0
281029.0 387221.0 0
285066.0 385678.0 0
288247.0 386980.0 0
291128.0 388666.0 0
293789.0 386094.0 0
293724.0 390090.0 0
297361.0 389768.0 0
300811.0 388308.0 0
303808.0 386346.0 0
305039.0 389887.0 0
307857.0 388445.0 0
311494.0 386235.0 0
311455.0 390780.0 0
316097.0 388019.0 0
314738.0 390783.0 0
319745.0 390747.0 0
171638.0 395884.0 0
174502.0 393209.0 0
174807.0 396251.0 0
178117.0 391670.0 0
177470.0 395056.0 0
181503.0 393858.0 0
185287.0 394474.0 0
189146.0 393902.0 0
192636.0 393587.0 0
195929.0 392814.0 0
199992.0 391615.0 0
198130.0 394841.0 0
201595.0 395240.0 0
203397.0 392185.0 0
205946.0 394587.0 0
210422.0 392071.0 0
217925.0 392855.0 0
221400.0 390952.0 0
224672.0 392147.0 0
229287.0 390182.0 0
233420.0 393675.0 0
237331.0 390150.0 0
241241.0 393542.0 0
246622.0 392347.0 0
250155.0 390678.0 0
253808.0 393111.0 0
259347.0 394012.0 0
262543.0 389164.0 0
267206.0 390470.0 0
264975.0 394749.0 0
272525.0 391095.0 0
277073.0 393816.0 0
284080.0 389942.0 0
280772.0 392042.0 0
287821.0 391299.0 0
291613.0 393811.0 0
295293.0 393118.0 0
298671.0 394829.0 0
302677.0 393283.0 0
308021.0 391508.0 0
307290.0 395040.0 0
311700.0 395223.0 0
316760.0 394291.0 0
320661.0 396088.0 0
323623.0 393563.0 0
327929.0 396015.0 0
162766.0 400611.0 0
165521.0 399187.0 0
168212.0 397335.0 0
169821.0 399722.0 0
173191.0 399184.0 0
176112.0 398236.0 0
179537.0 398080.0 0
176203.0 401152.0 0
183002.0 396939.0 0
183453.0 400311.0 0
186712.0 397939.0 0
188883.0 401495.0 0
190838.0 397419.0 0
194821.0 396320.0 0
198307.0 399091.0 0
203011.0 398429.0 0
205922.0 397908.0 0
209702.0 397715.0 0
214134.0 395297.0 0
218314.0 398641.0 0
221496.0 395040.0 0
225391.0 395628.0 0
222416.0 398627.0 0
229528.0 396398.0 0
233657.0 399467.0 0
237237.0 395667.0 0
244916.0 396713.0 0
240311.0 397614.0 0
250066.0 395608.0 0
254550.0 397406.0 0
262856.0 398498.0 0
269435.0 395429.0 0
266663.0 399285.0 0
274046.0 396778.0 0
277595.0 399910.0 0
280706.0 397289.0 0
284796.0 394762.0 0
288806.0 397254.0 0
293052.0 399324.0 0
295036.0 396392.0 0
298362.0 399594.0 0
302012.0 397714.0 0
305496.0 398532.0 0
309316.0 399756.0 0
313797.0 398989.0 0
317759.0 399078.0 0
322803.0 397577.0 0
321389.0 400581.0 0
325222.0 398206.0 0
325639.0 401203.0 0
331683.0 397472.0 0
329297.0 400402.0 0
332850.0 400753.0 0
334584.0 398482.0 0
336724.0 401403.0 0
154349.0 406314.0 0
159998.0 402634.0 0
156934.0 404349.0 0
159683.0 406599.0 0
163677.0 404036.0 0
167466.0 402501.0 0
172171.0 402101.0 0
174477.0 403994.0 0
171000.0 405503.0 0
179379.0 401345.0 0
177583.0 404333.0 0
180757.0 403821.0 0
185035.0 403976.0 0
189115.0 405406.0 0
193517.0 400853.0 0
192646.0 404497.0 0
196763.0 403767.0 0
201579.0 402958.0 0
205851.0 400965.0 0
209712.0 402536.0 0
206018.0 405155.0 0
212899.0 404497.0 0
213939.0 400499.0 0
216865.0 404259.0 0
221335.0 403182.0 0
225419.0 405001.0 0
226002.0 400337.0 0
229351.0 403349.0 0
233248.0 404577.0 0
238259.0 400186.0 0
239895.0 403215.0 0
236620.0 403761.0 0
241898.0 400685.0 0
245256.0 401267.0 0
248652.0 399566.0 0
247981.0 403478.0 0
252595.0 401393.0 0
258546.0 400681.0 0
263459.0 402793.0 0
268214.0 404162.0 0
270900.0 400067.0 0
273052.0 404123.0 0
274422.0 401030.0 0
277214.0 404184.0 0
281336.0 402899.0 0
284914.0 400105.0 0
289188.0 404997.0 0
285643.0 404659.0 0
288928.0 401713.0 0
292675.0 403525.0 0
295763.0 402641.0 0
299128.0 404105.0 0
303803.0 402129.0 0
308213.0 403626.0 0
312625.0 402576.0 0
311532.0 405650.0 0
317012.0 402486.0 0
314993.0 405594.0 0
318100.0 405835.0 0
321534.0 404167.0 0
329326.0 403832.0 0
325614.0 404354.0 0
332444.0 403315.0 0
332365.0 406311.0 0
336171.0 404744.0 0
340452.0 402443.0 0
343406.0 404699.0 0
340407.0 406349.0 0
346260.0 406284.0 0
148325.0 409979.0 0
151493.0 407977.0 0
154013.0 410060.0 0
151482.0 411093.0 0
156481.0 408784.0 0
159911.0 410045.0 0
163591.0 408779.0 0
167264.0 407186.0 0
167281.0 411114.0 0
174854.0 407687.0 0
170642.0 409687.0 0
178529.0 407278.0 0
178791.0 410892.0 0
181792.0 407291.0 0
183703.0 411022.0 0
185716.0 407528.0 0
187989.0 409126.0 0
191167.0 408363.0 0
195034.0 407514.0 0
199199.0 407239.0 0
197619.0 410863.0 0
203038.0 407368.0 0
202003.0 411125.0 0
206103.0 409856.0 0
209444.0 407157.0 0
213483.0 408327.0 0
217965.0 409283.0 0
222666.0 408522.0 0
227494.0 408941.0 0
231030.0 407358.0 0
234929.0 408413.0 0
239151.0 407301.0 0
243579.0 405559.0 0
246279.0 409235.0 0
250556.0 407035.0 0
253947.0 410152.0 0
256189.0 405842.0 0
260878.0 406501.0 0
264647.0 407516.0 0
268590.0 409217.0 0
271557.0 407483.0 0
279154.0 407342.0 0
275486.0 408464.0 0
282496.0 407518.0 0
287969.0 408092.0 0
285351.0 409410.0 0
292010.0 407387.0 0
296213.0 406902.0 0
302252.0 405855.0 0
300705.0 408452.0 0
309424.0 407739.0 0
305427.0 407480.0 0
311034.0 411671.0 0
313773.0 408620.0 0
318085.0 409656.0 0
321661.0 407731.0 0
329341.0 407151.0 0
325624.0 408350.0 0
328921.0 410768.0 0
332232.0 410004.0 0
335272.0 408282.0 0
338578.0 410423.0 0
344244.0 408351.0 0
342826.0 411024.0 0
348774.0 408409.0 0
346802.0 410807.0 0
351852.0 410409.0 0
136341.0 417068.0 0
144854.0 411976.0 0
142258.0 414121.0 0
145163.0 415719.0 0
147437.0 413303.0 0
154412.0 412382.0 0
150806.0 413966.0 0
153627.0 415274.0 0
157668.0 412324.0 0
159288.0 415267.0 0
156381.0 415496.0 0
164991.0 412840.0 0
161739.0 412448.0 0
162051.0 415587.0 0
165433.0 416163.0 0
169672.0 414459.0 0
174342.0 412248.0 0
173241.0 416311.0 0
176657.0 415699.0 0
180329.0 414621.0 0
184272.0 415310.0 0
188396.0 412737.0 0
193206.0 411829.0 0
196063.0 414962.0 0
199320.0 413525.0 0
202174.0 414827.0 0
205920.0 414339.0 0
209765.0 411457.0 0
213903.0 412806.0 0
217584.0 414154.0 0
220964.0 413120.0 0
224971.0 413057.0 0
229428.0 413341.0 0
231504.0 410419.0 0
234138.0 412879.0 0
238006.0 411123.0 0
237956.0 415029.0 0
241907.0 410678.0 0
242022.0 415049.0 0
245158.0 412831.0 0
249929.0 412890.0 0
258579.0 411144.0 0
254520.0 413300.0 0
262600.0 411523.0 0
265950.0 411236.0 0
268756.0 413728.0 0
265053.0 414524.0 0
271988.0 411448.0 0
275456.0 413282.0 0
279491.0 411729.0 0
283675.0 412412.0 0
287910.0 413025.0 0
291031.0 410837.0 0
292435.0 414911.0 0
294705.0 411234.0 0
296674.0 415793.0 0
298405.0 411155.0 0
300118.0 414317.0 0
303533.0 412330.0 0
307196.0 413604.0 0
307534.0 410949.0 0
309234.0 414948.0 0
312657.0 415617.0 0
315485.0 412913.0 0
322380.0 411922.0 0
319679.0 414809.0 0
323939.0 416239.0 0
326347.0 413368.0 0
334801.0 412522.0 0
330820.0 414767.0 0
335497.0 416439.0 0
339185.0 414525.0 0
342980.0 414722.0 0
346072.0 413621.0 0
345521.0 417239.0 0
348356.0 415565.0 0
350120.0 412881.0 0
353184.0 415062.0 0
355070.0 412407.0 0
358609.0 414203.0 0
356566.0 416824.0 0
361621.0 416178.0 0
128545.0 421777.0 0
134127.0 418698.0 0
131798.0 420842.0 0
136364.0 420493.0 0
139330.0 420535.0 0
139357.0 416277.0 0
143463.0 418477.0 0
142698.0 421815.0 0
148194.0 417055.0 0
147115.0 420023.0 0
145341.0 421782.0 0
151163.0 418097.0 0
150385.0 421068.0 0
153187.0 421774.0 0
154394.0 418786.0 0
157851.0 418285.0 0
155987.0 421626.0 0
161367.0 418574.0 0
164200.0 420330.0 0
167905.0 418814.0 0
171057.0 418768.0 0
174193.0 418827.0 0
177087.0 418732.0 0
176073.0 421663.0 0
180656.0 419136.0 0
184934.0 418758.0 0
187800.0 416825.0 0
188442.0 420301.0 0
191648.0 416660.0 0
191700.0 420868.0 0
195435.0 419247.0 0
199360.0 417123.0 0
203305.0 418260.0 0
207043.0 419588.0 0
210306.0 416028.0 0
212111.0 419109.0 0
214790.0 416792.0 0
218410.0 417556.0 0
222369.0 417145.0 0
226968.0 417437.0 0
230235.0 419418.0 0
232296.0 416795.0 0
235991.0 419233.0 0
239742.0 418189.0 0
242840.0 419168.0 0
246155.0 416527.0 0
249865.0 417531.0 0
253357.0 416591.0 0
257234.0 415476.0 0
256675.0 418646.0 0
261406.0 416644.0 0
267166.0 418463.0 0
272408.0 416797.0 0
277780.0 417023.0 0
281753.0 416117.0 0
283775.0 419522.0 0
280793.0 419747.0 0
285552.0 416727.0 0
289650.0 417970.0 0
293883.0 419376.0 0
297821.0 420105.0 0
301634.0 417533.0 0
301056.0 420505.0 0
305952.0 417042.0 0
308495.0 420861.0 0
309900.0 418112.0 0
313191.0 419078.0 0
316486.0 417259.0 0
321350.0 419434.0 0
327371.0 416916.0 0
326185.0 419903.0 0
331503.0 420517.0 0
339164.0 417580.0 0
337385.0 420733.0 0
342244.0 419098.0 0
347601.0 419096.0 0
351213.0 416992.0 0
353863.0 418884.0 0
350855.0 420136.0 0
359960.0 417993.0 0
357115.0 420010.0 0
359737.0 420910.0 0
364547.0 417675.0 0
362783.0 420447.0 0
367327.0 419430.0 0
365805.0 421512.0 0
370157.0 421180.0 0
124151.0 424622.0 0
122297.0 426923.0 0
126525.0 423228.0 0
127154.0 425609.0 0
129556.0 427167.0 0
130570.0 424260.0 0
133328.0 426853.0 0
134705.0 423222.0 0
137513.0 424319.0 0
144273.0 424492.0 0
140654.0 424699.0 0
148077.0 424008.0 0
151592.0 424468.0 0
155003.0 425159.0 0
159421.0 422564.0 0
163340.0 424706.0 0
167760.0 422253.0 0
171759.0 422644.0 0
174982.0 425350.0 0
179385.0 423773.0 0
184522.0 423104.0 0
189728.0 424669.0 0
194089.0 423178.0 0
196357.0 425023.0 0
199816.0 422203.0 0
204165.0 422071.0 0
206461.0 424460.0 0
210653.0 422517.0 0
215479.0 421100.0 0
220295.0 421180.0 0
218047.0 424641.0 0
224295.0 421648.0 0
228331.0 422169.0 0
232549.0 421344.0 0
231187.0 425779.0 0
235661.0 424084.0 0
239431.0 421917.0 0
242938.0 423245.0 0
247232.0 421506.0 0
252951.0 421355.0 0
256496.0 423869.0 0
259201.0 421638.0 0
263801.0 421472.0 0
262128.0 424671.0 0
267393.0 423678.0 0
271061.0 421721.0 0
274713.0 424093.0 0
275313.0 420294.0 0
278743.0 423077.0 0
283490.0 423579.0 0
287012.0 421185.0 0
287999.0 425520.0 0
291174.0 422570.0 0
295203.0 423446.0 0
300248.0 424550.0 0
304835.0 421785.0 0
308773.0 424976.0 0
311620.0 422030.0 0
317015.0 422268.0 0
321114.0 424491.0 0
324262.0 423205.0 0
328287.0 424634.0 0
332461.0 426406.0 0
335235.0 424162.0 0
338623.0 425119.0 0
340925.0 422667.0 0
342821.0 425419.0 0
345480.0 421945.0 0
349815.0 424007.0 0
346314.0 425606.0 0
354924.0 422703.0 0
353717.0 426899.0 0
358912.0 423736.0 0
356810.0 426539.0 0
362362.0 423841.0 0
368819.0 423159.0 0
365761.0 425137.0 0
372963.0 423248.0 0
371036.0 425278.0 0
375849.0 425563.0 0
113005.0 432081.0 0
118867.0 428220.0 0
116033.0 430366.0 0
119550.0 431613.0 0
122737.0 430265.0 0
126011.0 427664.0 0
125528.0 429579.0 0
127119.0 431388.0 0
129006.0 429557.0 0
132301.0 430532.0 0
136716.0 427843.0 0
135676.0 431416.0 0
140491.0 428553.0 0
144456.0 427363.0 0
144505.0 430728.0 0
147464.0 427286.0 0
148116.0 430330.0 0
150959.0 427443.0 0
151464.0 430867.0 0
154424.0 429325.0 0
158838.0 427514.0 0
162568.0 429656.0 0
167437.0 426971.0 0
165490.0 431443.0 0
169704.0 431338.0 0
171591.0 426605.0 0
173650.0 429168.0 0
176308.0 430768.0 0
177574.0 427397.0 0
179335.0 429841.0 0
181900.0 427326.0 0
181735.0 431471.0 0
184539.0 429646.0 0
186082.0 426880.0 0
188715.0 429807.0 0
193570.0 427710.0 0
198638.0 428118.0 0
202748.0 426443.0 0
205789.0 429070.0 0
209767.0 426801.0 0
209717.0 430833.0 0
213866.0 426115.0 0
217864.0 428462.0 0
222025.0 425858.0 0
221101.0 430072.0 0
224656.0 429882.0 0
226266.0 425912.0 0
228642.0 429694.0 0
234191.0 429869.0 0
239905.0 427765.0 0
244389.0 430448.0 0
245500.0 426437.0 0
250049.0 425849.0 0
248177.0 429893.0 0
254236.0 425867.0 0
253164.0 429817.0 0
258827.0 427460.0 0
265241.0 428541.0 0
271429.0 427345.0 0
276892.0 427554.0 0
280671.0 426726.0 0
284578.0 428240.0 0
289259.0 430366.0 0
292408.0 427027.0 0
296987.0 428230.0 0
301309.0 429027.0 0
305137.0 427285.0 0
306652.0 430779.0 0
313470.0 426604.0 0
309811.0 429802.0 0
318887.0 428108.0 0
324411.0 428037.0 0
329480.0 429398.0 0
333559.0 430313.0 0
336235.0 427931.0 0
338119.0 431441.0 0
341908.0 430854.0 0
340334.0 428038.0 0
349210.0 428356.0 0
344963.0 428991.0 0
353096.0 430937.0 0
357236.0 430647.0 0
360229.0 427536.0 0
363802.0 427759.0 0
360807.0 431382.0 0
363459.0 430933.0 0
368665.0 427807.0 0
366365.0 430125.0 0
373646.0 428046.0 0
371303.0 431014.0 0
379080.0 427515.0 0
376279.0 429986.0 0
378967.0 431583.0 0
382407.0 430023.0 0
386087.0 430928.0 0
106964.0 437117.0 0
109969.0 434528.0 0
113392.0 436201.0 0
115813.0 433709.0 0
118375.0 434563.0 0
121799.0 434608.0 0
124375.0 432976.0 0
127194.0 435852.0 0
129901.0 433057.0 0
132930.0 435049.0 0
139059.0 432400.0 0
136697.0 435545.0 0
142490.0 433564.0 0
140168.0 436255.0 0
146966.0 434296.0 0
150239.0 433241.0 0
153435.0 433318.0 0
150958.0 436289.0 0
154736.0 436918.0 0
157710.0 432705.0 0
162018.0 433958.0 0
165938.0 435005.0 0
169557.0 435959.0 0
173743.0 434515.0 0
178365.0 433141.0 0
177497.0 436426.0 0
181249.0 435335.0 0
184913.0 433244.0 0
188775.0 435301.0 0
192732.0 431996.0 0
193171.0 436124.0 0
196909.0 432412.0 0
199989.0 435447.0 0
201856.0 431343.0 0
202907.0 434672.0 0
206215.0 434055.0 0
210733.0 435025.0 0
214116.0 431244.0 0
218396.0 432671.0 0
222351.0 433556.0 0
226558.0 434257.0 0
230741.0 432820.0 0
234283.0 435527.0 0
237815.0 432834.0 0
241852.0 433666.0 0
246297.0 434417.0 0
250302.0 433233.0 0
253692.0 435303.0 0
257128.0 432315.0 0
261416.0 432806.0 0
266131.0 434699.0 0
270476.0 432416.0 0
273849.0 435199.0 0
275266.0 431421.0 0
278242.0 435811.0 0
280256.0 431026.0 0
282519.0 434986.0 0
285013.0 432491.0 0
287714.0 433633.0 0
290232.0 434660.0 0
294635.0 432979.0 0
299832.0 432217.0 0
303574.0 431705.0 0
303911.0 435826.0 0
307512.0 433842.0 0
311575.0 434368.0 0
314531.0 431422.0 0
318215.0 432385.0 0
315996.0 435985.0 0
319906.0 435388.0 0
322145.0 431967.0 0
323671.0 435932.0 0
326529.0 432710.0 0
330964.0 433476.0 0
334887.0 433824.0 0
339194.0 435406.0 0
342023.0 433798.0 0
344926.0 436221.0 0
345227.0 432791.0 0
348782.0 432226.0 0
348152.0 435334.0 0
352178.0 434667.0 0
358987.0 433944.0 0
355722.0 434625.0 0
361254.0 433256.0 0
361667.0 437002.0 0
364035.0 433855.0 0
367928.0 433423.0 0
366071.0 437112.0 0
375076.0 432971.0 0
372142.0 435120.0 0
375563.0 436728.0 0
379408.0 435505.0 0
383596.0 433943.0 0
388437.0 432610.0 0
386665.0 434272.0 0
388297.0 437273.0 0
390908.0 435013.0 0
393733.0 436941.0 0
97058.0 441801.0 0
102986.0 438922.0 0
99903.2 440533.0 0
107356.0 441516.0 0
110603.0 438307.0 0
111183.0 441276.0 0
114442.0 439889.0 0
118097.0 437767.0 0
122564.0 437945.0 0
119644.0 441338.0 0
122241.0 442156.0 0
126113.0 441097.0 0
130689.0 438617.0 0
138219.0 438697.0 0
134705.0 440191.0 0
138505.0 441911.0 0
144003.0 437084.0 0
141374.0 439956.0 0
147746.0 438001.0 0
145553.0 441427.0 0
150970.0 440641.0 0
158890.0 437458.0 0
155690.0 441007.0 0
159832.0 441457.0 0
162870.0 438153.0 0
166989.0 438997.0 0
170902.0 439052.0 0
174801.0 439198.0 0
179463.0 439565.0 0
184489.0 438407.0 0
189779.0 440532.0 0
194154.0 439916.0 0
196698.0 436534.0 0
198625.0 440449.0 0
203240.0 438150.0 0
207667.0 438900.0 0
211944.0 438543.0 0
215303.0 440789.0 0
215293.0 436051.0 0
219512.0 436284.0 0
218372.0 439176.0 0
223188.0 438125.0 0
227460.0 439359.0 0
230227.0 436719.0 0
231921.0 440706.0 0
235165.0 439215.0 0
239039.0 437762.0 0
244245.0 438790.0 0
248378.0 440447.0 0
249742.0 436987.0 0
252970.0 439988.0 0
258066.0 437083.0 0
262530.0 437024.0 0
266082.0 440185.0 0
270246.0 437621.0 0
274714.0 439961.0 0
278983.0 440561.0 0
282190.0 438719.0 0
286411.0 437082.0 0
285056.0 441006.0 0
290398.0 438181.0 0
293041.0 437105.0 0
293343.0 440550.0 0
296212.0 438352.0 0
299206.0 440519.0 0
299671.0 436415.0 0
303319.0 440593.0 0
308427.0 438854.0 0
312897.0 438328.0 0
315794.0 440189.0 0
319685.0 439559.0 0
324335.0 440060.0 0
328497.0 437300.0 0
331751.0 441298.0 0
332987.0 437308.0 0
336516.0 437285.0 0
335896.0 441021.0 0
340264.0 439870.0 0
342065.0 436947.0 0
344186.0 440008.0 0
347526.0 439188.0 0
350617.0 437430.0 0
351180.0 441070.0 0
354355.0 438470.0 0
357907.0 437431.0 0
357373.0 440808.0 0
360357.0 440825.0 0
364400.0 440303.0 0
369837.0 437666.0 0
367928.0 440249.0 0
373691.0 440440.0 0
377829.0 439706.0 0
381472.0 438955.0 0
384743.0 437776.0 0
382786.0 442497.0 0
385865.0 441164.0 0
390157.0 440800.0 0
394237.0 440635.0 0
396878.0 437660.0 0
398738.0 439916.0 0
401642.0 440275.0 0
403392.0 442355.0 0
87973.0 447247.0 0
92107.7 446140.0 0
94293.9 442992.0 0
96221.1 445198.0 0
101088.0 443574.0 0
98873.5 444818.0 0
100577.0 448054.0 0
104236.0 443899.0 0
108828.0 445366.0 0
112256.0 444387.0 0
116314.0 443271.0 0
115482.0 446797.0 0
119991.0 444914.0 0
122993.0 444620.0 0
126659.0 445180.0 0
130297.0 442817.0 0
129629.0 447065.0 0
133372.0 444362.0 0
137052.0 444960.0 0
141370.0 443540.0 0
144344.0 445338.0 0
148332.0 444666.0 0
152898.0 444552.0 0
157084.0 445208.0 0
161224.0 445395.0 0
164129.0 441991.0 0
168489.0 442518.0 0
165899.0 445552.0 0
172063.0 442386.0 0
170931.0 446859.0 0
176157.0 443858.0 0
181153.0 443088.0 0
183426.0 446292.0 0
185338.0 442470.0 0
188677.0 446509.0 0
194119.0 444402.0 0
198988.0 445502.0 0
202794.0 442637.0 0
206625.0 443616.0 0
209673.0 445358.0 0
210938.0 442199.0 0
213832.0 444668.0 0
217058.0 443904.0 0
220435.0 442289.0 0
224642.0 442174.0 0
228318.0 443662.0 0
232446.0 445447.0 0
236605.0 442792.0 0
241302.0 441603.0 0
240847.0 445592.0 0
245950.0 444804.0 0
250642.0 443557.0 0
254303.0 444602.0 0
256784.0 441481.0 0
258786.0 445710.0 0
261310.0 441298.0 0
269567.0 441396.0 0
264454.0 445582.0 0
267890.0 443559.0 0
271997.0 444590.0 0
277519.0 445112.0 0
281891.0 442965.0 0
285821.0 445140.0 0
289393.0 442080.0 0
293448.0 444101.0 0
296485.0 442537.0 0
299927.0 444100.0 0
304159.0 445445.0 0
308253.0 443621.0 0
311541.0 446597.0 0
312688.0 442478.0 0
315079.0 446098.0 0
317229.0 443591.0 0
322270.0 444710.0 0
327626.0 442308.0 0
327408.0 445873.0 0
331260.0 445370.0 0
335122.0 444888.0 0
339396.0 444277.0 0
343675.0 443865.0 0
347449.0 442835.0 0
354817.0 442757.0 0
351392.0 445285.0 0
355141.0 446492.0 0
358195.0 444720.0 0
362322.0 444111.0 0
370432.0 442733.0 0
366872.0 444671.0 0
371949.0 445562.0 0
375567.0 445122.0 0
379080.0 442655.0 0
379971.0 446168.0 0
383920.0 446274.0 0
387235.0 444199.0 0
391127.0 445214.0 0
394684.0 444134.0 0
398187.0 443269.0 0
401103.0 443604.0 0
398518.0 446750.0 0
405947.0 444887.0 0
401972.0 447063.0 0
409320.0 446304.0 0
81898.8 451235.0 0
85564.0 449889.0 0
90181.4 448944.0 0
88745.8 451543.0 0
92535.4 451828.0 0
94144.7 448990.0 0
97063.1 448408.0 0
96057.9 452129.0 0
98701.3 451336.0 0
101821.0 451448.0 0
104212.0 447732.0 0
107397.0 447775.0 0
104973.0 451732.0 0
111554.0 447537.0 0
109508.0 451013.0 0
114491.0 450712.0 0
118342.0 452454.0 0
119415.0 448520.0 0
122570.0 452456.0 0
124099.0 448213.0 0
127159.0 450064.0 0
133428.0 447612.0 0
131237.0 451872.0 0
136378.0 449487.0 0
140688.0 447501.0 0
140389.0 451700.0 0
145444.0 449692.0 0
150048.0 447908.0 0
150129.0 451884.0 0
153910.0 448658.0 0
158227.0 449961.0 0
162926.0 449056.0 0
166989.0 448833.0 0
169128.0 451304.0 0
179319.0 447450.0 0
175114.0 448624.0 0
183527.0 451590.0 0
192786.0 449097.0 0
195879.0 448409.0 0
199494.0 450451.0 0
203254.0 446986.0 0
207001.0 447795.0 0
208469.0 451268.0 0
211814.0 448513.0 0
214382.0 451146.0 0
217474.0 448007.0 0
223703.0 447245.0 0
220317.0 451387.0 0
228842.0 447562.0 0
232046.0 450411.0 0
236865.0 448743.0 0
242342.0 449813.0 0
246317.0 450090.0 0
250995.0 448350.0 0
256162.0 449496.0 0
261135.0 449882.0 0
265296.0 450132.0 0
268775.0 448055.0 0
273997.0 450211.0 0
278834.0 449936.0 0
281964.0 447451.0 0
285781.0 449472.0 0
290904.0 448224.0 0
296598.0 447029.0 0
295210.0 451213.0 0
300604.0 447887.0 0
304114.0 450393.0 0
307886.0 448101.0 0
311068.0 450329.0 0
314204.0 449983.0 0
318325.0 448626.0 0
322135.0 449945.0 0
325285.0 448569.0 0
325246.0 451830.0 0
329870.0 450091.0 0
333839.0 447906.0 0
338266.0 448537.0 0
342657.0 447706.0 0
342184.0 451780.0 0
347350.0 447401.0 0
345422.0 450740.0 0
348651.0 452257.0 0
352483.0 450297.0 0
357724.0 449561.0 0
361337.0 447750.0 0
365440.0 448760.0 0
362745.0 451686.0 0
370372.0 448286.0 0
368113.0 451752.0 0
374419.0 448965.0 0
378426.0 449348.0 0
382350.0 449734.0 0
385688.0 452254.0 0
387972.0 448500.0 0
395614.0 447235.0 0
392917.0 448931.0 0
397527.0 451030.0 0
400973.0 450366.0 0
405546.0 448891.0 0
403863.0 451171.0 0
409342.0 450740.0 0
412489.0 448238.0 0
415246.0 449773.0 0
413131.0 452720.0 0
417896.0 452494.0 0
76292.9 454864.0 0
73307.9 456220.0 0
77541.0 457657.0 0
79416.6 453051.0 0
80533.4 455494.0 0
83058.5 457669.0 0
84347.5 453876.0 0
88177.5 455265.0 0
92309.7 455234.0 0
96546.8 455728.0 0
100223.0 454189.0 0
103604.0 455627.0 0
107512.0 455168.0 0
111470.0 454735.0 0
114844.0 454133.0 0
114094.0 457587.0 0
117211.0 455421.0 0
120661.0 456088.0 0
126292.0 453318.0 0
124203.0 456879.0 0
128499.0 456972.0 0
132922.0 455781.0 0
136090.0 453602.0 0
139704.0 456053.0 0
143382.0 453818.0 0
146759.0 454385.0 0
150560.0 455798.0 0
154226.0 453036.0 0
157574.0 454926.0 0
161143.0 453407.0 0
163967.0 456076.0 0
165428.0 452501.0 0
168618.0 455983.0 0
172763.0 452473.0 0
177900.0 451912.0 0
175772.0 455611.0 0
179701.0 455685.0 0
182770.0 456011.0 0
189306.0 452330.0 0
186523.0 456650.0 0
190618.0 456164.0 0
194711.0 453446.0 0
200497.0 455069.0 0
204224.0 451842.0 0
207598.0 454643.0 0
211681.0 454061.0 0
216649.0 453987.0 0
220340.0 454630.0 0
223565.0 453020.0 0
227597.0 451873.0 0
230872.0 455075.0 0
235166.0 454086.0 0
239608.0 453038.0 0
241261.0 455784.0 0
244229.0 454177.0 0
249014.0 453628.0 0
253391.0 452716.0 0
258189.0 454573.0 0
263920.0 454324.0 0
268967.0 453112.0 0
273289.0 456031.0 0
278279.0 454710.0 0
282639.0 452205.0 0
287729.0 453677.0 0
292164.0 453256.0 0
295424.0 456017.0 0
299657.0 452561.0 0
304638.0 455392.0 0
308372.0 452694.0 0
312503.0 453812.0 0
316921.0 453446.0 0
321421.0 453622.0 0
325298.0 455200.0 0
328461.0 454221.0 0
334670.0 451916.0 0
331943.0 455538.0 0
338975.0 453036.0 0
336994.0 456826.0 0
341853.0 455740.0 0
345758.0 454703.0 0
351094.0 455981.0 0
355571.0 454169.0 0
359253.0 453309.0 0
359020.0 457005.0 0
362035.0 455531.0 0
366024.0 454787.0 0
370356.0 455713.0 0
372497.0 452543.0 0
375048.0 456955.0 0
376926.0 452886.0 0
379641.0 456566.0 0
381057.0 453163.0 0
384706.0 457195.0 0
390815.0 452610.0 0
389075.0 455876.0 0
394487.0 452874.0 0
393160.0 457293.0 0
395769.0 455359.0 0
399252.0 455608.0 0
401916.0 453196.0 0
406036.0 452948.0 0
404157.0 454478.0 0
409246.0 454665.0 0
407027.0 456248.0 0
412009.0 456491.0 0
415788.0 455582.0 0
421504.0 454898.0 0
418833.0 457643.0 0
425816.0 456325.0 0
67327.1 461493.0 0
70714.9 458281.0 0
70954.8 461455.0 0
74285.7 459322.0 0
79676.0 460600.0 0
83083.3 461004.0 0
86308.9 458801.0 0
89754.4 458534.0 0
92526.7 458599.0 0
89092.3 461058.0 0
92333.6 462489.0 0
96567.3 460331.0 0
100482.0 458029.0 0
101142.0 461541.0 0
106196.0 458282.0 0
103688.0 459841.0 0
110059.0 458849.0 0
113475.0 460363.0 0
111715.0 462453.0 0
114786.0 462059.0 0
117391.0 459407.0 0
121454.0 460254.0 0
125446.0 461071.0 0
131986.0 459140.0 0
135843.0 457962.0 0
134491.0 462336.0 0
143549.0 457731.0 0
139240.0 461042.0 0
144010.0 461888.0 0
147523.0 458271.0 0
151064.0 459210.0 0
153934.0 457358.0 0
153809.0 462096.0 0
157016.0 458578.0 0
159306.0 461417.0 0
160432.0 457322.0 0
164296.0 460330.0 0
168618.0 460277.0 0
172644.0 458547.0 0
177394.0 459317.0 0
181979.0 459511.0 0
189553.0 458994.0 0
186362.0 461270.0 0
193127.0 458573.0 0
197331.0 457750.0 0
201017.0 460867.0 0
204419.0 457111.0 0
209123.0 458208.0 0
213739.0 458447.0 0
218597.0 458691.0 0
222348.0 456609.0 0
222854.0 459800.0 0
226493.0 457053.0 0
229924.0 458217.0 0
233653.0 459343.0 0
238307.0 457206.0 0
242384.0 458631.0 0
247060.0 458382.0 0
252711.0 457819.0 0
257560.0 460023.0 0
262126.0 458789.0 0
267720.0 458614.0 0
272890.0 460722.0 0
280482.0 459170.0 0
283771.0 456574.0 0
284383.0 460371.0 0
287590.0 458680.0 0
291217.0 456811.0 0
291557.0 460574.0 0
295658.0 460630.0 0
300479.0 458578.0 0
305203.0 459373.0 0
309262.0 457548.0 0
311479.0 460785.0 0
314317.0 458003.0 0
317437.0 461291.0 0
319177.0 457539.0 0
323591.0 458037.0 0
326082.0 461367.0 0
328431.0 458378.0 0
333123.0 460263.0 0
337388.0 461832.0 0
340516.0 459332.0 0
344606.0 459104.0 0
347784.0 457451.0 0
349011.0 460398.0 0
352093.0 460517.0 0
355315.0 458634.0 0
359618.0 461221.0 0
363654.0 459161.0 0
367779.0 458756.0 0
371872.0 460021.0 0
375908.0 462197.0 0
378319.0 459576.0 0
379401.0 462447.0 0
381861.0 460508.0 0
386315.0 462283.0 0
389756.0 459918.0 0
394233.0 461603.0 0
397184.0 459352.0 0
400361.0 460259.0 0
403259.0 458016.0 0
401719.0 461695.0 0
404916.0 461833.0 0
408306.0 459394.0 0
407896.0 462876.0 0
410177.0 462495.0 0
412316.0 460197.0 0
415770.0 459055.0 0
414003.0 462413.0 0
420539.0 460383.0 0
417292.0 462257.0 0
423353.0 458578.0 0
422643.0 462964.0 0
425564.0 461061.0 0
428702.0 459006.0 0
432455.0 461624.0 0
56615.1 467034.0 0
60078.3 465825.0 0
63843.2 463839.0 0
65561.1 467119.0 0
68647.8 465073.0 0
72113.6 464782.0 0
75868.8 463070.0 0
76836.1 466815.0 0
80867.5 464774.0 0
85587.9 463144.0 0
83455.8 467654.0 0
87122.8 467772.0 0
89433.9 464770.0 0
91587.0 466812.0 0
94984.5 465451.0 0
103271.0 463731.0 0
98948.1 464406.0 0
102047.0 466324.0 0
107098.0 462819.0 0
110444.0 465216.0 0
113877.0 465071.0 0
118213.0 463841.0 0
116738.0 467116.0 0
121976.0 463947.0 0
125159.0 466098.0 0
129484.0 462652.0 0
129480.0 466292.0 0
132265.0 465125.0 0
136189.0 466409.0 0
140723.0 464945.0 0
148564.0 462249.0 0
144628.0 466340.0 0
149691.0 466211.0 0
157437.0 464686.0 0
162310.0 465769.0 0
167194.0 464510.0 0
170918.0 462297.0 0
171527.0 466128.0 0
174646.0 462741.0 0
175463.0 466877.0 0
178843.0 463635.0 0
182810.0 463692.0 0
186346.0 466524.0 0
191126.0 463250.0 0
195915.0 462103.0 0
198724.0 465365.0 0
203220.0 465721.0 0
206096.0 461918.0 0
207762.0 466476.0 0
210775.0 462672.0 0
215612.0 463021.0 0
220328.0 463079.0 0
224711.0 462780.0 0
222757.0 466025.0 0
228885.0 461738.0 0
232346.0 464313.0 0
238381.0 462127.0 0
244311.0 463873.0 0
239932.0 466170.0 0
250051.0 462624.0 0
254372.0 462922.0 0
259888.0 463549.0 0
264381.0 463179.0 0
269243.0 464377.0 0
273967.0 465323.0 0
277480.0 462506.0 0
279572.0 466081.0 0
282248.0 463100.0 0
287795.0 463546.0 0
293574.0 465197.0 0
299082.0 464049.0 0
303487.0 462665.0 0
307837.0 462563.0 0
311212.0 464820.0 0
314216.0 462968.0 0
318181.0 465879.0 0
321814.0 462559.0 0
325563.0 464723.0 0
329794.0 463668.0 0
334535.0 464835.0 0
338704.0 465685.0 0
341824.0 462859.0 0
346358.0 463495.0 0
350921.0 464754.0 0
355360.0 463519.0 0
358754.0 464620.0 0
361540.0 465369.0 0
363923.0 463048.0 0
365511.0 466592.0 0
367840.0 462980.0 0
372039.0 464520.0 0
375728.0 466176.0 0
379248.0 465455.0 0
382724.0 464174.0 0
385649.0 465852.0 0
391048.0 463814.0 0
388275.0 465475.0 0
395734.0 465161.0 0
398582.0 463053.0 0
399312.0 466776.0 0
401857.0 464308.0 0
405704.0 465333.0 0
408862.0 465628.0 0
412183.0 464270.0 0
415591.0 465715.0 0
419813.0 464760.0 0
419204.0 467906.0 0
425814.0 464925.0 0
422928.0 466531.0 0
428771.0 463529.0 0
427229.0 468015.0 0
430072.0 466642.0 0
432213.0 465461.0 0
436510.0 463941.0 0
434415.0 466365.0 0
440697.0 465780.0 0
438148.0 467744.0 0
444181.0 466937.0 0
49837.5 470492.0 0
53794.9 469916.0 0
55455.9 472894.0 0
57889.9 469864.0 0
61978.4 469021.0 0
60628.9 471675.0 0
65810.3 471659.0 0
69542.3 468727.0 0
69851.0 471773.0 0
72448.1 472488.0 0
73588.5 468654.0 0
76037.0 471503.0 0
79102.4 469388.0 0
82552.9 471425.0 0
86184.9 471308.0 0
90120.4 470227.0 0
94090.7 469387.0 0
96153.9 471331.0 0
98352.1 468430.0 0
100037.0 472429.0 0
102251.0 469397.0 0
106248.0 467668.0 0
104627.0 472016.0 0
110545.0 468138.0 0
108898.0 471694.0 0
112448.0 471159.0 0
113769.0 468203.0 0
116420.0 470917.0 0
120449.0 468005.0 0
120332.0 472320.0 0
123390.0 470139.0 0
127847.0 470388.0 0
132194.0 467980.0 0
133199.0 472267.0 0
137092.0 470085.0 0
140350.0 468624.0 0
142707.0 470692.0 0
146486.0 470458.0 0
154122.0 467349.0 0
150467.0 470366.0 0
156608.0 470317.0 0
158292.0 467803.0 0
160500.0 470875.0 0
164795.0 469952.0 0
168296.0 468839.0 0
172777.0 471300.0 0
178417.0 467171.0 0
177896.0 470950.0 0
181675.0 467742.0 0
186936.0 471070.0 0
191026.0 468783.0 0
194979.0 466755.0 0
197035.0 469502.0 0
199978.0 468852.0 0
204123.0 470869.0 0
209250.0 470968.0 0
212453.0 467214.0 0
218059.0 468233.0 0
223104.0 469780.0 0
227088.0 466610.0 0
231292.0 468854.0 0
235883.0 466988.0 0
240045.0 470179.0 0
248781.0 466906.0 0
245356.0 469943.0 0
250271.0 470822.0 0
252639.0 467089.0 0
256809.0 466515.0 0
262305.0 469477.0 0
267732.0 468604.0 0
271463.0 468816.0 0
276451.0 469304.0 0
284000.0 467725.0 0
280711.0 472028.0 0
289548.0 468932.0 0
294052.0 470081.0 0
298151.0 468759.0 0
303513.0 467543.0 0
308441.0 467778.0 0
310797.0 471419.0 0
314027.0 468314.0 0
318813.0 471130.0 0
322998.0 468261.0 0
327276.0 467624.0 0
331637.0 468834.0 0
336125.0 468808.0 0
339953.0 469079.0 0
343477.0 467284.0 0
342444.0 471477.0 0
347727.0 467273.0 0
346662.0 470726.0 0
354325.0 467554.0 0
351182.0 469944.0 0
355704.0 470996.0 0
358198.0 467816.0 0
360018.0 471922.0 0
362877.0 469190.0 0
369172.0 467741.0 0
366474.0 470509.0 0
370113.0 471363.0 0
373160.0 468568.0 0
374538.0 472000.0 0
378422.0 469578.0 0
382881.0 468430.0 0
382021.0 472228.0 0
385489.0 471996.0 0
387290.0 468543.0 0
389889.0 471654.0 0
392132.0 468205.0 0
397012.0 470028.0 0
400947.0 471863.0 0
403055.0 468277.0 0
405328.0 471876.0 0
407279.0 468637.0 0
409824.0 471865.0 0
411889.0 468329.0 0
415892.0 469866.0 0
413684.0 473533.0 0
421086.0 470677.0 0
424232.0 469318.0 0
425731.0 472585.0 0
431662.0 469289.0 0
428933.0 471525.0 0
433980.0 468434.0 0
433349.0 472580.0 0
436642.0 470583.0 0
440114.0 471123.0 0
442569.0 469326.0 0
446689.0 469466.0 0
443706.0 472927.0 0
446298.0 472383.0 0
450051.0 471635.0 0
453451.0 473408.0 0
40029.1 477380.0 0
43879.3 475665.0 0
47411.9 473543.0 0
47448.4 477032.0 0
51230.7 473464.0 0
50355.2 477449.0 0
54502.9 476513.0 0
57949.5 473361.0 0
62372.2 474243.0 0
59015.0 476664.0 0
62379.0 477384.0 0
65341.4 475929.0 0
69071.5 474975.0 0
74471.7 476165.0 0
78600.6 473580.0 0
81627.7 475101.0 0
78879.8 477170.0 0
82670.0 477842.0 0
84813.9 474628.0 0
88263.1 473937.0 0
85867.1 477113.0 0
92502.0 473468.0 0
89624.5 477921.0 0
96373.8 474229.0 0
98690.7 477215.0 0
102362.0 475636.0 0
107001.0 474930.0 0
109139.0 477679.0 0
112366.0 474929.0 0
115638.0 477808.0 0
116877.0 474524.0 0
120123.0 476934.0 0
123867.0 473757.0 0
128252.0 475099.0 0
131448.0 476566.0 0
134916.0 477025.0 0
139010.0 473791.0 0
141713.0 477093.0 0
144084.0 474321.0 0
148744.0 474923.0 0
153513.0 472485.0 0
152647.0 477045.0 0
155936.0 475380.0 0
157373.0 472689.0 0
159428.0 475416.0 0
163598.0 474633.0 0
167987.0 473235.0 0
171174.0 476090.0 0
175098.0 475845.0 0
178964.0 474983.0 0
182819.0 472366.0 0
186854.0 475193.0 0
189976.0 472908.0 0
194416.0 472550.0 0
191219.0 476585.0 0
199026.0 472719.0 0
202290.0 476145.0 0
206883.0 475194.0 0
210760.0 475214.0 0
213840.0 472019.0 0
214176.0 476303.0 0
218210.0 474260.0 0
222826.0 473917.0 0
226984.0 471704.0 0
230686.0 473445.0 0
235060.0 472301.0 0
238659.0 474605.0 0
235979.0 476889.0 0
242819.0 474529.0 0
247612.0 474478.0 0
251669.0 474698.0 0
255377.0 471728.0 0
259293.0 474474.0 0
263822.0 476244.0 0
268353.0 473015.0 0
272984.0 472537.0 0
276831.0 474795.0 0
281474.0 477053.0 0
285979.0 473694.0 0
291854.0 473966.0 0
296741.0 473176.0 0
300068.0 476968.0 0
301478.0 472593.0 0
304296.0 476865.0 0
306641.0 472552.0 0
310744.0 474851.0 0
314670.0 473460.0 0
318494.0 475603.0 0
322967.0 475840.0 0
322659.0 472439.0 0
327060.0 476957.0 0
327287.0 472532.0 0
334004.0 472833.0 0
331733.0 476959.0 0
338408.0 472314.0 0
337094.0 476625.0 0
341540.0 475349.0 0
344961.0 473871.0 0
349070.0 474670.0 0
353302.0 474339.0 0
356099.0 477013.0 0
357572.0 474656.0 0
361373.0 476109.0 0
363979.0 472884.0 0
365062.0 476500.0 0
367828.0 472601.0 0
366382.0 473614.0 0
369293.0 476350.0 0
371721.0 473628.0 0
374144.0 476147.0 0
378865.0 474812.0 0
383884.0 476298.0 0
388751.0 475511.0 0
393963.0 473907.0 0
398288.0 475103.0 0
402834.0 475768.0 0
407704.0 475834.0 0
412029.0 477570.0 0
416502.0 477134.0 0
418136.0 473426.0 0
421389.0 477175.0 0
422833.0 473554.0 0
426195.0 476261.0 0
430189.0 475210.0 0
435095.0 475939.0 0
437656.0 473784.0 0
440554.0 473638.0 0
439099.0 476709.0 0
446283.0 476488.0 0
443026.0 476374.0 0
447858.0 474487.0 0
450857.0 475496.0 0
456541.0 475768.0 0
453724.0 476859.0 0
460217.0 478051.0 0
30851.4 483304.0 0
33452.8 481489.0 0
37246.6 480177.0 0
40157.2 481563.0 0
43269.1 479337.0 0
42834.0 483395.0 0
44883.1 482458.0 0
47262.0 480072.0 0
51878.6 481167.0 0
56487.9 480117.0 0
60527.7 480519.0 0
65476.2 479860.0 0
70079.3 478740.0 0
69399.5 482495.0 0
76834.6 479865.0 0
73283.2 481224.0 0
79983.7 480599.0 0
85072.9 481156.0 0
89132.2 482400.0 0
92719.0 481604.0 0
94124.6 477797.0 0
96558.1 480795.0 0
100504.0 480342.0 0
103208.0 481898.0 0
104515.0 478387.0 0
107185.0 481213.0 0
112400.0 480520.0 0
117285.0 481076.0 0
121735.0 481204.0 0
124785.0 477936.0 0
126105.0 481900.0 0
128787.0 479198.0 0
132033.0 479596.0 0
134848.0 481421.0 0
138211.0 478835.0 0
141309.0 479811.0 0
145168.0 478406.0 0
146923.0 482079.0 0
149448.0 479560.0 0
153043.0 480818.0 0
156766.0 479086.0 0
161221.0 479550.0 0
166900.0 479195.0 0
172970.0 480545.0 0
177977.0 479272.0 0
182796.0 477778.0 0
187434.0 479968.0 0
191959.0 480501.0 0
196702.0 478075.0 0
201467.0 480288.0 0
205894.0 479903.0 0
210530.0 478964.0 0
216694.0 478838.0 0
221191.0 478226.0 0
226535.0 477338.0 0
229610.0 481752.0 0
231984.0 477439.0 0
239925.0 478983.0 0
234996.0 481899.0 0
244969.0 478718.0 0
249874.0 479023.0 0
254976.0 477526.0 0
259244.0 478186.0 0
258234.0 482067.0 0
261816.0 480697.0 0
268359.0 477558.0 0
265932.0 481275.0 0
272291.0 476671.0 0
270791.0 481162.0 0
276780.0 480409.0 0
281928.0 481317.0 0
286024.0 480247.0 0
288895.0 477349.0 0
291375.0 480166.0 0
295573.0 477730.0 0
299038.0 480396.0 0
301983.0 479859.0 0
308603.0 477867.0 0
309747.0 481616.0 0
305649.0 481477.0 0
313928.0 478636.0 0
319965.0 480936.0 0
324869.0 479779.0 0
328678.0 480576.0 0
332014.0 481576.0 0
335925.0 481182.0 0
341315.0 480267.0 0
345508.0 477483.0 0
346620.0 481479.0 0
349468.0 478821.0 0
353409.0 478941.0 0
358695.0 479369.0 0
364009.0 480988.0 0
368768.0 481190.0 0
372804.0 480173.0 0
381023.0 479022.0 0
377077.0 479450.0 0
383615.0 480779.0 0
387718.0 480536.0 0
392642.0 478120.0 0
396766.0 478765.0 0
400201.0 478243.0 0
397624.0 482641.0 0
401078.0 481310.0 0
402490.0 478910.0 0
406300.0 480434.0 0
411154.0 482369.0 0
415308.0 480960.0 0
418379.0 480116.0 0
421127.0 481687.0 0
424698.0 480077.0 0
423930.0 483521.0 0
428548.0 479214.0 0
427769.0 482922.0 0
431692.0 482615.0 0
432479.0 478852.0 0
436780.0 479309.0 0
435202.0 481616.0 0
440314.0 479982.0 0
438583.0 483592.0 0
446491.0 479725.0 0
442938.0 482586.0 0
443794.0 479653.0 0
446271.0 483006.0 0
449723.0 478768.0 0
449566.0 482667.0 0
453605.0 480367.0 0
457124.0 479125.0 0
456454.0 483342.0 0
457967.0 481667.0 0
461539.0 482351.0 0
463722.0 479753.0 0
466504.0 481769.0 0
469407.0 483362.0 0
24060.1 487815.0 0
27838.5 485802.0 0
35642.6 484481.0 0
32003.0 487219.0 0
36338.0 488054.0 0
39817.0 485154.0 0
39592.5 488808.0 0
44115.3 485602.0 0
47604.2 483783.0 0
51376.3 485425.0 0
47725.0 487652.0 0
56812.7 485309.0 0
62060.8 483954.0 0
66105.4 484446.0 0
62419.5 487112.0 0
67138.4 488105.0 0
71438.3 485403.0 0
76572.8 483932.0 0
74637.9 487683.0 0
81585.6 484284.0 0
78324.4 487803.0 0
82494.4 488046.0 0
86498.2 486010.0 0
91232.3 485524.0 0
94729.2 483773.0 0
95106.1 487870.0 0
98158.1 483834.0 0
101121.0 483597.0 0
100045.0 486794.0 0
103918.0 484797.0 0
108863.0 485223.0 0
112066.0 487465.0 0
114382.0 484688.0 0
116446.0 487376.0 0
119333.0 485017.0 0
123289.0 484322.0 0
122860.0 487781.0 0
126710.0 485802.0 0
130516.0 483042.0 0
130653.0 487607.0 0
134066.0 484997.0 0
137484.0 487398.0 0
138626.0 483164.0 0
143033.0 482643.0 0
141823.0 486770.0 0
145713.0 485635.0 0
150774.0 485275.0 0
156339.0 483405.0 0
161419.0 485104.0 0
165853.0 484066.0 0
169210.0 483644.0 0
172553.0 486385.0 0
177309.0 484039.0 0
181643.0 482480.0 0
185557.0 485066.0 0
189787.0 483612.0 0
194587.0 484624.0 0
198952.0 482767.0 0
202985.0 484862.0 0
209140.0 482210.0 0
208450.0 486829.0 0
213571.0 482897.0 0
219152.0 482648.0 0
223728.0 481880.0 0
222299.0 486382.0 0
226535.0 484804.0 0
231139.0 486865.0 0
239195.0 484800.0 0
235784.0 486836.0 0
243030.0 482763.0 0
248001.0 484724.0 0
253642.0 482883.0 0
257058.0 486346.0 0
262120.0 485427.0 0
268172.0 486762.0 0
273564.0 484891.0 0
278787.0 486850.0 0
284500.0 485169.0 0
289989.0 484737.0 0
295628.0 483488.0 0
301254.0 483896.0 0
305914.0 486257.0 0
310830.0 485807.0 0
312436.0 482513.0 0
315220.0 483873.0 0
318878.0 486691.0 0
323193.0 485596.0 0
326038.0 483354.0 0
329666.0 484316.0 0
333808.0 485686.0 0
339497.0 485797.0 0
343909.0 484327.0 0
347764.0 485645.0 0
355803.0 482778.0 0
351285.0 483105.0 0
357375.0 485454.0 0
359879.0 483667.0 0
363774.0 486755.0 0
368299.0 485469.0 0
375525.0 483102.0 0
372268.0 484171.0 0
375601.0 486813.0 0
380143.0 483791.0 0
384826.0 484649.0 0
388988.0 485859.0 0
392958.0 482741.0 0
392687.0 487566.0 0
395863.0 485785.0 0
400557.0 486432.0 0
404281.0 484208.0 0
405626.0 487733.0 0
408457.0 485425.0 0
414982.0 484191.0 0
412620.0 486564.0 0
418053.0 483356.0 0
421076.0 485248.0 0
417198.0 487256.0 0
425770.0 486925.0 0
430307.0 486468.0 0
434576.0 485152.0 0
438347.0 487892.0 0
442462.0 486301.0 0
446582.0 486309.0 0
449713.0 485951.0 0
453341.0 484440.0 0
456534.0 487585.0 0
458636.0 484925.0 0
461510.0 486711.0 0
465003.0 485207.0 0
468042.0 486103.0 0
472189.0 485111.0 0
471177.0 488274.0 0
475254.0 487299.0 0
14087.9 493610.0 0
17305.4 492256.0 0
20242.7 490147.0 0
22940.8 491264.0 0
25721.8 492160.0 0
27701.4 489589.0 0
27983.1 493752.0 0
30666.3 491469.0 0
34493.4 490799.0 0
38410.0 492496.0 0
43287.2 488714.0 0
43010.1 492492.0 0
46650.6 490762.0 0
52083.9 489876.0 0
55418.2 492846.0 0
58776.1 490244.0 0
63392.7 490432.0 0
66702.8 492292.0 0
71288.5 490253.0 0
75979.5 491190.0 0
80135.4 491573.0 0
85181.7 490749.0 0
89692.1 489660.0 0
92810.7 492568.0 0
98720.6 492179.0 0
103906.0 488880.0 0
108615.0 490452.0 0
114047.0 489943.0 0
118910.0 489948.0 0
122746.0 491736.0 0
126653.0 490554.0 0
130853.0 491853.0 0
133960.0 488413.0 0
135534.0 492329.0 0
140606.0 490984.0 0
146143.0 490269.0 0
151644.0 490701.0 0
155878.0 488167.0 0
159643.0 490302.0 0
163686.0 489668.0 0
166653.0 492198.0 0
167289.0 487543.0 0
170459.0 490670.0 0
176870.0 488837.0 0
181143.0 487402.0 0
185337.0 491095.0 0
189861.0 487901.0 0
194176.0 490247.0 0
190289.0 492102.0 0
198783.0 488175.0 0
203343.0 490924.0 0
212374.0 490775.0 0
216952.0 487826.0 0
226303.0 489476.0 0
238660.0 488682.0 0
235181.0 491329.0 0
242888.0 487846.0 0
247528.0 490867.0 0
252485.0 488184.0 0
256696.0 491091.0 0
261624.0 490833.0 0
273158.0 488872.0 0
276015.0 491122.0 0
270329.0 491999.0 0
283196.0 489800.0 0
287890.0 489941.0 0
293862.0 489531.0 0
298249.0 487401.0 0
298578.0 491211.0 0
301855.0 488643.0 0
305352.0 490977.0 0
308516.0 489203.0 0
312003.0 490614.0 0
314777.0 487615.0 0
317549.0 492073.0 0
322893.0 490202.0 0
327215.0 487579.0 0
326925.0 491908.0 0
331758.0 490833.0 0
336867.0 489830.0 0
340527.0 492283.0 0
344493.0 489406.0 0
349997.0 489075.0 0
354420.0 487496.0 0
353155.0 492212.0 0
357756.0 492042.0 0
359270.0 488082.0 0
362661.0 491771.0 0
367802.0 491139.0 0
372002.0 488236.0 0
372023.0 491599.0 0
375650.0 491727.0 0
379251.0 488651.0 0
383252.0 488426.0 0
385790.0 492530.0 0
386488.0 488436.0 0
389555.0 490010.0 0
393064.0 491455.0 0
396404.0 489129.0 0
399654.0 490549.0 0
403266.0 490459.0 0
409920.0 489246.0 0
407149.0 490964.0 0
414003.0 490966.0 0
421954.0 488903.0 0
418661.0 491956.0 0
426076.0 490656.0 0
423679.0 492729.0 0
429187.0 490115.0 0
427716.0 493303.0 0
431392.0 493597.0 0
434119.0 489656.0 0
441432.0 490269.0 0
438402.0 492075.0 0
445074.0 489519.0 0
444085.0 492462.0 0
447366.0 492658.0 0
448610.0 489512.0 0
452444.0 488923.0 0
451507.0 493069.0 0
455762.0 492743.0 0
459902.0 490506.0 0
462916.0 493197.0 0
464442.0 489399.0 0
467590.0 489762.0 0
466439.0 493455.0 0
470157.0 493050.0 0
473827.0 491101.0 0
475933.0 493500.0 0
478430.0 489989.0 0
482627.0 492216.0 0
486304.0 493602.0 0
8793.77 496495.0 0
11541.0 495914.0 0
16057.6 496575.0 0
19569.9 495129.0 0
17515.8 500121.0 0
22513.8 494062.0 0
24815.3 495551.0 0
21582.8 497865.0 0
30211.4 494918.0 0
27750.6 496895.0 0
30439.0 497581.0 0
33511.4 494800.0 0
36734.6 496158.0 0
40759.2 496000.0 0
44306.6 495374.0 0
46406.8 497193.0 0
47777.1 493671.0 0
51844.9 494501.0 0
49186.0 497065.0 0
52146.6 498404.0 0
55326.7 496206.0 0
58235.4 494265.0 0
62184.4 494269.0 0
58902.0 497565.0 0
65987.1 495622.0 0
69384.4 493628.0 0
69656.5 496572.0 0
73256.7 494019.0 0
73599.3 497876.0 0
77839.2 495387.0 0
82873.3 494651.0 0
87446.3 493797.0 0
85311.0 497560.0 0
90248.5 497201.0 0
94919.7 495959.0 0
97792.0 497581.0 0
101287.0 496549.0 0
104041.0 493109.0 0
104933.0 496514.0 0
107372.0 494595.0 0
111601.0 494478.0 0
116232.0 493995.0 0
119971.0 493891.0 0
118591.0 497628.0 0
123463.0 496375.0 0
127877.0 494646.0 0
131717.0 496156.0 0
136446.0 497506.0 0
139615.0 494851.0 0
143183.0 494459.0 0
144867.0 497180.0 0
149346.0 495796.0 0
155784.0 493951.0 0
162047.0 494809.0 0
169896.0 495059.0 0
173365.0 497083.0 0
174565.0 492869.0 0
177563.0 496948.0 0
179827.0 492404.0 0
183002.0 496918.0 0
188421.0 495762.0 0
193299.0 495083.0 0
198061.0 493133.0 0
201444.0 495672.0 0
208140.0 492064.0 0
206100.0 496408.0 0
210971.0 495230.0 0
216099.0 493824.0 0
221211.0 491988.0 0
226151.0 494958.0 0
230418.0 492094.0 0
233046.0 495937.0 0
236783.0 495227.0 0
240372.0 492765.0 0
244606.0 495191.0 0
248743.0 495768.0 0
252287.0 493137.0 0
259348.0 493885.0 0
256108.0 496431.0 0
262720.0 496151.0 0
265915.0 492098.0 0
268271.0 496689.0 0
274322.0 495779.0 0
280103.0 493187.0 0
285356.0 494465.0 0
290942.0 494720.0 0
296068.0 494784.0 0
300207.0 495249.0 0
301713.0 492336.0 0
303858.0 494985.0 0
308594.0 494524.0 0
313259.0 494963.0 0
320060.0 496220.0 0
324073.0 495594.0 0
329005.0 495611.0 0
333202.0 495554.0 0
336727.0 494167.0 0
340459.0 497097.0 0
344325.0 494587.0 0
348593.0 492954.0 0
348194.0 497454.0 0
351801.0 495656.0 0
355896.0 496172.0 0
361243.0 496364.0 0
366682.0 496540.0 0
371993.0 495331.0 0
377057.0 497049.0 0
380499.0 492720.0 0
382301.0 496613.0 0
390342.0 494066.0 0
391728.0 497112.0 0
393975.0 495110.0 0
396900.0 493125.0 0
401143.0 493772.0 0
398112.0 497192.0 0
402966.0 497941.0 0
405888.0 494507.0 0
410340.0 493888.0 0
416219.0 495259.0 0
413609.0 494431.0 0
413133.0 497443.0 0
421068.0 496946.0 0
426017.0 495653.0 0
429409.0 496855.0 0
435492.0 493879.0 0
434245.0 497637.0 0
438512.0 495903.0 0
441463.0 494089.0 0
442323.0 497374.0 0
445113.0 495479.0 0
449225.0 496501.0 0
454619.0 497707.0 0
459285.0 495270.0 0
464161.0 497571.0 0
469241.0 497604.0 0
473047.0 495448.0 0
476412.0 497071.0 0
479740.0 494448.0 0
481370.0 498853.0 0
484223.0 495429.0 0
485899.0 498194.0 0
488935.0 496469.0 0
493025.0 498911.0 0
6923.17 498088.0 0
3423.23 500035.0 0
9380.62 500522.0 0
13356.3 498826.0 0
15600.3 504368.0 0
13380.1 501738.0 0
21410.1 501226.0 0
25173.3 499250.0 0
24923.0 503473.0 0
28619.0 500328.0 0
30622.1 504067.0 0
33317.4 499520.0 0
38111.1 499456.0 0
40448.9 502895.0 0
43251.9 499199.0 0
44488.6 502787.0 0
47859.8 500412.0 0
55738.1 499912.0 0
52015.5 502332.0 0
56289.0 502826.0 0
59254.6 501342.0 0
62559.5 498666.0 0
66096.2 499203.0 0
62912.4 502825.0 0
66656.8 502205.0 0
69556.1 499972.0 0
72829.7 501933.0 0
77222.2 499831.0 0
81024.3 498277.0 0
80253.4 502482.0 0
83427.3 500852.0 0
86847.9 501417.0 0
90681.2 501875.0 0
94409.1 500049.0 0
98563.4 501414.0 0
103407.0 500675.0 0
108826.0 499254.0 0
112226.0 502718.0 0
114221.0 498528.0 0
116941.0 501811.0 0
121116.0 500901.0 0
127638.0 499663.0 0
132785.0 501199.0 0
137715.0 502007.0 0
141242.0 498874.0 0
145621.0 500652.0 0
153813.0 498352.0 0
150648.0 501883.0 0
158115.0 499510.0 0
162766.0 500045.0 0
166441.0 497733.0 0
170267.0 499496.0 0
174476.0 500881.0 0
179481.0 502198.0 0
184151.0 501584.0 0
186803.0 499655.0 0
191484.0 500381.0 0
197415.0 498848.0 0
202366.0 499546.0 0
209898.0 499209.0 0
214159.0 498363.0 0
219532.0 497752.0 0
224160.0 499725.0 0
229361.0 499597.0 0
236311.0 498538.0 0
238336.0 501794.0 0
240857.0 498199.0 0
246081.0 500153.0 0
251502.0 499248.0 0
259416.0 498891.0 0
262250.0 501668.0 0
267257.0 501700.0 0
271914.0 500828.0 0
276468.0 500516.0 0
279040.0 497565.0 0
282850.0 498406.0 0
280116.0 500675.0 0
287896.0 499500.0 0
293773.0 499793.0 0
298562.0 498526.0 0
301023.0 501707.0 0
305616.0 499471.0 0
311592.0 499480.0 0
316615.0 497780.0 0
316391.0 502337.0 0
321206.0 500326.0 0
327201.0 500966.0 0
331999.0 499043.0 0
336242.0 498731.0 0
337911.0 502359.0 0
342124.0 501742.0 0
344425.0 498697.0 0
347381.0 502474.0 0
352695.0 500341.0 0
358470.0 500753.0 0
364248.0 501676.0 0
370129.0 498300.0 0
369112.0 501088.0 0
372972.0 499884.0 0
376260.0 502393.0 0
381129.0 500984.0 0
385031.0 502322.0 0
387314.0 498338.0 0
394475.0 498212.0 0
392189.0 500797.0 0
396724.0 501556.0 0
400223.0 500932.0 0
403879.0 501863.0 0
408742.0 499479.0 0
416782.0 499628.0 0
413377.0 501306.0 0
420984.0 502196.0 0
425931.0 500227.0 0
430789.0 501013.0 0
435678.0 501708.0 0
439223.0 499837.0 0
445789.0 498959.0 0
442978.0 500965.0 0
446527.0 502170.0 0
449940.0 500540.0 0
453174.0 502359.0 0
457563.0 502353.0 0
459767.0 499009.0 0
462964.0 502491.0 0
466941.0 501109.0 0
466664.0 503976.0 0
470869.0 502998.0 0
473356.0 499628.0 0
477303.0 500989.0 0
480638.0 504046.0 0
485320.0 502299.0 0
491976.0 502698.0 0
489286.0 500720.0 0
494461.0 502724.0 0
497352.0 500032.0 0
497672.0 503348.0 0
3108.12 505475.0 0
6702.23 503507.0 0
7480.59 507469.0 0
10490.4 504694.0 0
19624.3 504114.0 0
17601.2 507884.0 0
21874.7 507686.0 0
26726.6 506976.0 0
30379.9 509086.0 0
35593.7 503339.0 0
34737.3 507661.0 0
38484.4 506298.0 0
43054.7 506876.0 0
47457.6 504409.0 0
50633.8 506094.0 0
54570.6 505700.0 0
58934.4 505182.0 0
62122.2 506803.0 0
66338.3 505829.0 0
69232.9 503340.0 0
71248.1 506192.0 0
75983.7 504202.0 0
74907.9 507538.0 0
79590.2 507298.0 0
83716.0 504440.0 0
87775.4 505571.0 0
91200.2 504374.0 0
92651.6 507654.0 0
93579.3 503609.0 0
95671.5 503073.0 0
97075.0 505653.0 0
101520.0 504912.0 0
107161.0 505031.0 0
111579.0 506471.0 0
115173.0 505464.0 0
119686.0 505457.0 0
123223.0 508148.0 0
124198.0 503769.0 0
128845.0 505109.0 0
133603.0 505833.0 0
137534.0 505776.0 0
141989.0 504125.0 0
146481.0 504608.0 0
155527.0 504152.0 0
160941.0 504526.0 0
166500.0 503020.0 0
170019.0 506979.0 0
171361.0 503191.0 0
174877.0 506010.0 0
183643.0 505479.0 0
187162.0 503334.0 0
190652.0 506056.0 0
195618.0 504356.0 0
200695.0 503835.0 0
206228.0 502857.0 0
211953.0 503508.0 0
216849.0 502316.0 0
221496.0 504424.0 0
226332.0 503385.0 0
229611.0 505826.0 0
233822.0 502613.0 0
237573.0 505652.0 0
242255.0 504471.0 0
249682.0 503452.0 0
256147.0 502669.0 0
260311.0 506149.0 0
264903.0 506433.0 0
270629.0 506158.0 0
275449.0 504443.0 0
278916.0 503285.0 0
279085.0 506767.0 0
283600.0 503886.0 0
289803.0 504339.0 0
293668.0 504603.0 0
297244.0 503539.0 0
300533.0 505682.0 0
304223.0 504728.0 0
307903.0 503449.0 0
311954.0 505113.0 0
316115.0 506866.0 0
320289.0 505672.0 0
324689.0 505177.0 0
333280.0 503743.0 0
340085.0 505341.0 0
337113.0 506980.0 0
344133.0 506135.0 0
348465.0 507428.0 0
351740.0 505092.0 0
355637.0 504347.0 0
360162.0 505761.0 0
365149.0 507162.0 0
368524.0 504640.0 0
372138.0 504021.0 0
375334.0 507144.0 0
379639.0 505615.0 0
383770.0 505079.0 0
382507.0 508001.0 0
388910.0 504454.0 0
394367.0 505366.0 0
400709.0 505968.0 0
406609.0 504814.0 0
408049.0 508124.0 0
411537.0 504888.0 0
416861.0 504515.0 0
414665.0 508740.0 0
422407.0 506838.0 0
424360.0 503794.0 0
427983.0 505299.0 0
432903.0 504866.0 0
436824.0 504268.0 0
437264.0 507942.0 0
439923.0 503916.0 0
443445.0 503944.0 0
446422.0 505446.0 0
448452.0 508433.0 0
449880.0 504500.0 0
454415.0 507536.0 0
460249.0 505801.0 0
464821.0 507627.0 0
469361.0 506557.0 0
473641.0 507886.0 0
475690.0 504322.0 0
478967.0 507809.0 0
484980.0 507252.0 0
489436.0 504694.0 0
493220.0 504882.0 0
491572.0 508050.0 0
496856.0 507028.0 0
2118.23 509345.0 0
2116.3 512635.0 0
5327.05 510297.0 0
8824.19 510797.0 0
12756.1 508707.0 0
16815.7 511421.0 0
20722.9 512020.0 0
25373.9 510402.0 0
24380.8 513880.0 0
29031.5 513000.0 0
34674.0 512430.0 0
39085.3 509995.0 0
43583.0 511334.0 0
47324.6 508644.0 0
48397.5 512823.0 0
51867.8 509389.0 0
53533.3 512748.0 0
56779.3 509108.0 0
57525.7 512971.0 0
60899.8 510547.0 0
64295.7 509063.0 0
64513.6 512511.0 0
67946.4 509572.0 0
72257.1 510222.0 0
76429.3 510373.0 0
79891.3 512948.0 0
84001.4 509052.0 0
88432.2 509942.0 0
91895.2 513224.0 0
96700.8 510133.0 0
99977.2 508439.0 0
101938.0 512778.0 0
103398.0 508160.0 0
106064.0 509889.0 0
109711.0 509421.0 0
111610.0 512182.0 0
116824.0 508069.0 0
113782.0 509362.0 0
115078.0 512882.0 0
119374.0 510802.0 0
126847.0 509440.0 0
128841.0 512308.0 0
130955.0 509332.0 0
135315.0 509794.0 0
137580.0 511597.0 0
140112.0 509345.0 0
144990.0 508504.0 0
150233.0 507549.0 0
154188.0 507830.0 0
153721.0 511908.0 0
157702.0 508385.0 0
158210.0 512150.0 0
161956.0 509726.0 0
165651.0 507949.0 0
168395.0 510721.0 0
172738.0 510644.0 0
176818.0 510970.0 0
179612.0 507822.0 0
183620.0 510101.0 0
186676.0 507461.0 0
188979.0 511747.0 0
194400.0 509406.0 0
198737.0 508118.0 0
204001.0 508921.0 0
199737.0 512103.0 0
209807.0 508456.0 0
212053.0 512108.0 0
215819.0 507416.0 0
220153.0 509311.0 0
225229.0 508841.0 0
229532.0 509826.0 0
233810.0 507796.0 0
232534.0 511950.0 0
238591.0 510877.0 0
242487.0 508555.0 0
246476.0 508039.0 0
252076.0 507629.0 0
256846.0 508159.0 0
260735.0 511349.0 0
272265.0 510597.0 0
275308.0 508604.0 0
278545.0 510541.0 0
282774.0 509648.0 0
287204.0 508013.0 0
292117.0 508956.0 0
297400.0 508394.0 0
300070.0 511865.0 0
303170.0 509266.0 0
307529.0 507641.0 0
313355.0 510398.0 0
318191.0 510286.0 0
321397.0 509459.0 0
324294.0 508971.0 0
328875.0 507601.0 0
326600.0 511787.0 0
333720.0 508730.0 0
335209.0 511669.0 0
337945.0 510505.0 0
341070.0 508871.0 0
345178.0 510991.0 0
341139.0 512545.0 0
349990.0 511266.0 0
355326.0 509600.0 0
361279.0 510673.0 0
366122.0 511718.0 0
370508.0 508799.0 0
379631.0 509748.0 0
386250.0 508215.0 0
383472.0 511156.0 0
387439.0 511837.0 0
391203.0 509846.0 0
396391.0 510073.0 0
399959.0 510822.0 0
405061.0 508516.0 0
403122.0 511501.0 0
407492.0 512143.0 0
410987.0 509233.0 0
417165.0 512801.0 0
418590.0 508760.0 0
421561.0 511641.0 0
426751.0 510493.0 0
431845.0 508995.0 0
431536.0 513133.0 0
435744.0 512381.0 0
442897.0 508538.0 0
439750.0 511880.0 0
446385.0 511738.0 0
450828.0 512232.0 0
455745.0 512761.0 0
459948.0 510006.0 0
459637.0 513768.0 0
465125.0 513136.0 0
469517.0 509884.0 0
473317.0 511710.0 0
470101.0 513325.0 0
477158.0 511170.0 0
475771.0 514073.0 0
482386.0 511760.0 0
487719.0 510687.0 0
491943.0 512337.0 0
497173.0 511381.0 0
2592.14 516235.0 0
6723.21 514005.0 0
9133.51 517252.0 0
6451.73 517696.0 0
12430.7 514139.0 0
17760.8 514907.0 0
15563.6 517737.0 0
18938.0 518773.0 0
21488.7 516020.0 0
26967.3 517241.0 0
31743.8 515924.0 0
39738.8 514066.0 0
36202.8 518045.0 0
40992.3 517852.0 0
44153.2 515227.0 0
51481.4 515708.0 0
47946.4 517206.0 0
55664.2 516719.0 0
60761.5 515147.0 0
64619.1 516473.0 0
69080.8 514350.0 0
72133.3 518206.0 0
74565.4 514191.0 0
77086.3 517531.0 0
81364.6 517266.0 0
85604.5 514424.0 0
94463.5 517638.0 0
96783.6 514121.0 0
98999.3 517953.0 0
107629.0 513639.0 0
108642.0 517060.0 0
111980.0 515947.0 0
118355.0 516115.0 0
124284.0 514067.0 0
128937.0 515499.0 0
132622.0 513337.0 0
132488.0 518025.0 0
137192.0 514102.0 0
140558.0 516058.0 0
142858.0 512947.0 0
144450.0 516650.0 0
148000.0 512986.0 0
151546.0 517479.0 0
156750.0 515821.0 0
161237.0 514163.0 0
165162.0 512736.0 0
164561.0 516579.0 0
169976.0 515659.0 0
175599.0 514991.0 0
180237.0 513731.0 0
184455.0 514098.0 0
187317.0 516608.0 0
193991.0 514047.0 0
198318.0 516906.0 0
203222.0 514624.0 0
207897.0 513257.0 0
211936.0 516677.0 0
216629.0 512979.0 0
222139.0 513295.0 0
227613.0 514212.0 0
232919.0 516757.0 0
237645.0 516017.0 0
244095.0 512955.0 0
249583.0 512908.0 0
255095.0 512382.0 0
253104.0 517226.0 0
258241.0 516514.0 0
262818.0 516059.0 0
267348.0 512355.0 0
275333.0 513152.0 0
271716.0 517240.0 0
276740.0 517562.0 0
280632.0 514443.0 0
286838.0 513203.0 0
291545.0 513550.0 0
295911.0 513375.0 0
300099.0 516163.0 0
303192.0 513327.0 0
304631.0 517156.0 0
308041.0 512888.0 0
312982.0 514930.0 0
317747.0 514912.0 0
322417.0 512847.0 0
326947.0 515917.0 0
331235.0 513072.0 0
337213.0 515737.0 0
343540.0 516609.0 0
347981.0 514556.0 0
352855.0 515011.0 0
357808.0 515151.0 0
362861.0 515406.0 0
370136.0 514604.0 0
366812.0 517005.0 0
375547.0 512902.0 0
380730.0 513825.0 0
381063.0 517779.0 0
385422.0 515437.0 0
390308.0 514638.0 0
394602.0 514055.0 0
393139.0 517620.0 0
396825.0 517592.0 0
399420.0 514493.0 0
404186.0 515813.0 0
412427.0 513070.0 0
409315.0 517158.0 0
414637.0 516990.0 0
419283.0 517036.0 0
424021.0 515346.0 0
428718.0 515740.0 0
434529.0 516937.0 0
442906.0 513712.0 0
439053.0 515496.0 0
442449.0 517932.0 0
447265.0 516262.0 0
452965.0 516340.0 0
456974.0 516218.0 0
461153.0 517330.0 0
465673.0 518386.0 0
469900.0 517372.0 0
473357.0 515153.0 0
478963.0 515340.0 0
483422.0 516325.0 0
486999.0 514113.0 0
487625.0 518084.0 0
490466.0 515989.0 0
494745.0 515872.0 0
498409.0 514605.0 0
498026.0 517489.0 0
3491.41 521073.0 0
8428.54 520848.0 0
12100.1 519415.0 0
15756.6 521782.0 0
20198.5 523091.0 0
23249.3 519817.0 0
27062.7 521610.0 0
30984.4 520235.0 0
39811.0 521937.0 0
44239.5 519178.0 0
44304.9 523225.0 0
48240.9 521144.0 0
51750.4 519313.0 0
51708.7 523442.0 0
55275.2 521275.0 0
59223.9 519089.0 0
59228.5 523551.0 0
63214.7 520287.0 0
66347.1 522087.0 0
67737.7 519041.0 0
70218.6 521918.0 0
74569.0 521898.0 0
79718.5 521893.0 0
84453.1 519803.0 0
86663.6 522670.0 0
89720.0 518950.0 0
95497.5 521640.0 0
100423.0 522687.0 0
104536.0 518309.0 0
109647.0 520925.0 0
114443.0 519156.0 0
118239.0 521127.0 0
122470.0 519137.0 0
124529.0 521695.0 0
127229.0 519424.0 0
130832.0 522595.0 0
137444.0 518468.0 0
134739.0 521583.0 0
141764.0 519902.0 0
146729.0 520739.0 0
155837.0 520765.0 0
160507.0 518670.0 0
164458.0 520968.0 0
166807.0 518641.0 0
169087.0 521537.0 0
174254.0 519253.0 0
178594.0 518402.0 0
183174.0 517958.0 0
186771.0 520196.0 0
192049.0 519397.0 0
202158.0 520483.0 0
206661.0 518329.0 0
210628.0 522169.0 0
217046.0 518514.0 0
222185.0 518163.0 0
227599.0 518903.0 0
225059.0 522322.0 0
230858.0 522338.0 0
236849.0 520822.0 0
241945.0 517973.0 0
247700.0 518412.0 0
252344.0 522409.0 0
257291.0 521451.0 0
262418.0 521799.0 0
266579.0 518548.0 0
272525.0 522410.0 0
280211.0 518637.0 0
284444.0 518580.0 0
290075.0 518008.0 0
287689.0 522127.0 0
295616.0 518946.0 0
305625.0 521763.0 0
309655.0 518625.0 0
314851.0 519091.0 0
318803.0 520423.0 0
322255.0 517887.0 0
326727.0 520954.0 0
331915.0 518833.0 0
336247.0 520808.0 0
339830.0 520005.0 0
343752.0 522329.0 0
349497.0 519686.0 0
355399.0 519306.0 0
359935.0 519353.0 0
364713.0 520257.0 0
361896.0 523082.0 0
369885.0 520174.0 0
373707.0 517943.0 0
377341.0 518128.0 0
380277.0 521712.0 0
384793.0 520150.0 0
389317.0 518691.0 0
392879.0 521118.0 0
400876.0 518827.0 0
397384.0 521816.0 0
405232.0 520453.0 0
409543.0 522350.0 0
412988.0 520288.0 0
416596.0 520723.0 0
420143.0 521468.0 0
422981.0 519369.0 0
426780.0 519571.0 0
431004.0 519424.0 0
438205.0 519696.0 0
434457.0 522227.0 0
441441.0 521977.0 0
445556.0 521223.0 0
449902.0 520359.0 0
453591.0 519880.0 0
457413.0 520120.0 0
462353.0 521866.0 0
467036.0 521720.0 0
470986.0 521649.0 0
474702.0 523597.0 0
475266.0 518995.0 0
480248.0 519849.0 0
483441.0 523716.0 0
484569.0 519981.0 0
488195.0 522838.0 0
492303.0 520123.0 0
497299.0 520972.0 0
1339.22 524199.0 0
2703.62 526969.0 0
6948.2 524821.0 0
11611.9 524390.0 0
16854.1 526626.0 0
24703.6 524021.0 0
22076.3 526938.0 0
29390.8 524235.0 0
26967.3 527857.0 0
34493.5 523824.0 0
31442.3 527364.0 0
38308.6 526037.0 0
41406.3 525654.0 0
45057.3 528008.0 0
48358.3 524984.0 0
50824.7 527995.0 0
55007.2 525834.0 0
59777.5 528582.0 0
63687.0 525019.0 0
67931.4 524956.0 0
68131.9 528459.0 0
72183.1 526064.0 0
76687.5 525517.0 0
80447.1 527101.0 0
83665.0 523791.0 0
85601.7 527340.0 0
91003.6 525031.0 0
96666.5 526221.0 0
101856.0 527674.0 0
105269.0 523545.0 0
107444.0 527575.0 0
110477.0 524939.0 0
113972.0 523354.0 0
117941.0 525628.0 0
121935.0 523386.0 0
122052.0 527571.0 0
126579.0 525063.0 0
134158.0 525743.0 0
138541.0 523368.0 0
143192.0 524392.0 0
140208.0 527624.0 0
147391.0 525945.0 0
151216.0 522987.0 0
155008.0 525603.0 0
160332.0 524474.0 0
165917.0 525284.0 0
169584.0 525554.0 0
173221.0 523865.0 0
178164.0 523147.0 0
183296.0 523017.0 0
181097.0 527566.0 0
188317.0 523975.0 0
185079.0 527148.0 0
193132.0 525318.0 0
197547.0 522511.0 0
198336.0 527007.0 0
201550.0 524768.0 0
205687.0 523242.0 0
208771.0 526531.0 0
213027.0 526881.0 0
215453.0 522974.0 0
217632.0 526512.0 0
220000.0 522589.0 0
222068.0 526748.0 0
227170.0 527384.0 0
237396.0 526012.0 0
241677.0 523478.0 0
247143.0 524290.0 0
259759.0 525681.0 0
255804.0 525750.0 0
263774.0 526236.0 0
267646.0 523665.0 0
271496.0 526678.0 0
278045.0 522875.0 0
280034.0 527269.0 0
283785.0 524158.0 0
288331.0 526260.0 0
291618.0 522963.0 0
295603.0 523803.0 0
293195.0 527648.0 0
300332.0 522546.0 0
297916.0 527156.0 0
304149.0 525579.0 0
309933.0 524003.0 0
314497.0 523785.0 0
317966.0 523240.0 0
317936.0 526682.0 0
322081.0 523694.0 0
330359.0 522812.0 0
327964.0 527155.0 0
333875.0 524596.0 0
338847.0 524210.0 0
342457.0 527481.0 0
348351.0 525764.0 0
353402.0 524182.0 0
357928.0 523328.0 0
356443.0 527136.0 0
361594.0 527939.0 0
366861.0 525096.0 0
370973.0 524017.0 0
375336.0 522877.0 0
371295.0 527389.0 0
380002.0 526334.0 0
383611.0 524163.0 0
385215.0 528176.0 0
388775.0 523846.0 0
394166.0 525587.0 0
401904.0 523471.0 0
398837.0 526337.0 0
406080.0 525088.0 0
409987.0 526308.0 0
414256.0 524742.0 0
419210.0 525320.0 0
424456.0 523720.0 0
423056.0 528362.0 0
428038.0 527893.0 0
429563.0 523520.0 0
432973.0 526867.0 0
438261.0 525577.0 0
443609.0 525940.0 0
453471.0 523793.0 0
448594.0 524638.0 0
451674.0 528040.0 0
455694.0 527448.0 0
458388.0 524520.0 0
461885.0 525840.0 0
465460.0 524921.0 0
464537.0 528647.0 0
468393.0 527799.0 0
468830.0 524481.0 0
471805.0 526030.0 0
478790.0 524457.0 0
475398.0 527535.0 0
482562.0 527639.0 0
486500.0 526610.0 0
494162.0 524781.0 0
490303.0 526617.0 0
498224.0 524481.0 0
497726.0 527728.0 0
2367.04 531087.0 0
7189.8 529246.0 0
5884.73 533274.0 0
12559.4 529689.0 0
16832.6 531747.0 0
19796.8 529834.0 0
23341.8 530341.0 0
26599.5 532635.0 0
30829.3 531140.0 0
35334.4 529352.0 0
38579.8 533078.0 0
40359.4 529220.0 0
43554.4 532627.0 0
47971.1 530901.0 0
51237.3 532498.0 0
54914.7 530246.0 0
58268.1 532671.0 0
64306.2 529250.0 0
62293.6 532941.0 0
67288.3 533056.0 0
71188.2 530241.0 0
75839.4 529808.0 0
79965.7 531160.0 0
82754.3 530040.0 0
82655.3 533289.0 0
85482.4 531271.0 0
89173.7 530429.0 0
93386.4 529453.0 0
97511.1 531342.0 0
104494.0 531882.0 0
109378.0 532636.0 0
113138.0 528406.0 0
118249.0 530122.0 0
121850.0 531256.0 0
125508.0 530185.0 0
130582.0 529312.0 0
136322.0 530496.0 0
144105.0 529718.0 0
147576.0 532375.0 0
151430.0 529326.0 0
157617.0 530283.0 0
163030.0 529052.0 0
167500.0 529201.0 0
165076.0 532769.0 0
171676.0 528417.0 0
176342.0 527793.0 0
174721.0 531756.0 0
179154.0 531952.0 0
189131.0 529044.0 0
184313.0 531534.0 0
194271.0 530169.0 0
198481.0 530835.0 0
202654.0 532291.0 0
204699.0 527719.0 0
207960.0 531551.0 0
213793.0 532522.0 0
218988.0 530653.0 0
223468.0 531101.0 0
227662.0 532466.0 0
232717.0 527780.0 0
232233.0 532848.0 0
237145.0 531179.0 0
244116.0 528245.0 0
240511.0 528395.0 0
242004.0 531868.0 0
251573.0 527718.0 0
253714.0 532240.0 0
257853.0 529711.0 0
262644.0 530632.0 0
267290.0 528824.0 0
271675.0 531261.0 0
275898.0 528363.0 0
280432.0 531553.0 0
282955.0 528133.0 0
285989.0 530507.0 0
290381.0 531325.0 0
295874.0 532115.0 0
302129.0 529491.0 0
307536.0 528574.0 0
313130.0 528612.0 0
317993.0 530699.0 0
322169.0 529043.0 0
333148.0 528906.0 0
333638.0 532366.0 0
337611.0 529037.0 0
346315.0 529711.0 0
352450.0 529522.0 0
357149.0 531270.0 0
363182.0 532820.0 0
366969.0 530468.0 0
371745.0 531734.0 0
375820.0 528735.0 0
381369.0 530984.0 0
386765.0 533095.0 0
390455.0 529201.0 0
396401.0 530062.0 0
400799.0 532780.0 0
402874.0 528288.0 0
405592.0 533428.0 0
407673.0 529525.0 0
416872.0 528853.0 0
412560.0 529579.0 0
420144.0 531490.0 0
425994.0 532429.0 0
430687.0 528884.0 0
431612.0 532435.0 0
436298.0 529962.0 0
442041.0 532784.0 0
440229.0 529862.0 0
443456.0 530127.0 0
447222.0 528942.0 0
445662.0 533185.0 0
450370.0 532726.0 0
455099.0 531497.0 0
459782.0 529342.0 0
463861.0 532868.0 0
467491.0 531024.0 0
472004.0 530922.0 0
478781.0 528875.0 0
476847.0 532290.0 0
481950.0 532543.0 0
485952.0 529995.0 0
489607.0 530205.0 0
493652.0 529025.0 0
492547.0 533336.0 0
497362.0 531810.0 0
2417.54 535227.0 0
6436.19 538014.0 0
10227.7 534327.0 0
15223.0 535946.0 0
21157.9 534643.0 0
25990.7 536746.0 0
30079.7 535359.0 0
34133.0 533952.0 0
33287.2 538271.0 0
37058.6 537031.0 0
41523.3 536579.0 0
45296.9 537292.0 0
47620.2 534632.0 0
50918.9 535954.0 0
54588.3 535189.0 0
52140.1 538231.0 0
59393.1 536626.0 0
65036.0 538475.0 0
72410.3 534405.0 0
77730.2 535659.0 0
82744.9 537277.0 0
87170.4 534975.0 0
92494.2 533846.0 0
96143.3 537927.0 0
100849.0 535226.0 0
105816.0 536993.0 0
110636.0 537255.0 0
114949.0 534139.0 0
119694.0 533752.0 0
119046.0 537467.0 0
123639.0 534607.0 0
128200.0 533716.0 0
132732.0 534067.0 0
137051.0 534981.0 0
134610.0 537629.0 0
140722.0 533259.0 0
147098.0 536783.0 0
151227.0 534456.0 0
155691.0 535499.0 0
160884.0 535059.0 0
165504.0 537213.0 0
170165.0 533557.0 0
175844.0 537045.0 0
181941.0 536309.0 0
186879.0 537374.0 0
191020.0 534296.0 0
196117.0 533842.0 0
194811.0 537512.0 0
199393.0 536347.0 0
204525.0 537279.0 0
209578.0 536430.0 0
218986.0 535684.0 0
223311.0 535090.0 0
226955.0 537164.0 0
237714.0 536572.0 0
242842.0 536410.0 0
247731.0 532649.0 0
252334.0 537106.0 0
257700.0 535777.0 0
262623.0 535273.0 0
267237.0 534030.0 0
272331.0 536920.0 0
275888.0 533084.0 0
278816.0 536610.0 0
284371.0 535776.0 0
290741.0 536631.0 0
300230.0 533859.0 0
296847.0 537570.0 0
305526.0 533098.0 0
302968.0 537506.0 0
310085.0 532981.0 0
307864.0 537360.0 0
314849.0 533581.0 0
312096.0 536714.0 0
319441.0 534193.0 0
324007.0 533928.0 0
329292.0 533085.0 0
333296.0 537449.0 0
337233.0 533710.0 0
342715.0 533262.0 0
348823.0 533359.0 0
353692.0 534672.0 0
359152.0 536036.0 0
364851.0 537041.0 0
368555.0 534518.0 0
371997.0 535687.0 0
376968.0 534472.0 0
382431.0 535748.0 0
388619.0 537551.0 0
392712.0 534233.0 0
396948.0 533643.0 0
398080.0 537816.0 0
403282.0 537305.0 0
407515.0 537312.0 0
410349.0 533897.0 0
415907.0 533823.0 0
413044.0 538006.0 0
422164.0 535782.0 0
427701.0 537619.0 0
438092.0 534233.0 0
433614.0 537724.0 0
443251.0 537124.0 0
448506.0 537399.0 0
454001.0 536981.0 0
459132.0 534553.0 0
458969.0 538749.0 0
463778.0 537931.0 0
468296.0 534978.0 0
473739.0 536687.0 0
478880.0 536172.0 0
483142.0 537811.0 0
487196.0 534461.0 0
490977.0 538476.0 0
496782.0 536902.0 0
2027.22 539166.0 0
3801.33 542392.0 0
7793.02 542001.0 0
11387.8 539514.0 0
14898.5 542397.0 0
18740.4 539635.0 0
24232.3 541681.0 0
29238.7 539654.0 0
32042.0 542377.0 0
35801.0 541586.0 0
39533.6 540093.0 0
44561.4 541730.0 0
48795.7 538686.0 0
51427.7 542231.0 0
55466.9 539620.0 0
59884.4 541541.0 0
70488.7 538526.0 0
69075.2 542921.0 0
73811.0 541565.0 0
77746.2 540537.0 0
81400.7 541303.0 0
85976.3 539826.0 0
90707.1 538687.0 0
88695.9 542865.0 0
93882.6 543308.0 0
101255.0 540570.0 0
105999.0 541803.0 0
110216.0 541654.0 0
114714.0 539451.0 0
118829.0 542259.0 0
123574.0 539768.0 0
129693.0 539046.0 0
134548.0 541803.0 0
137794.0 538196.0 0
138639.0 541600.0 0
142037.0 538139.0 0
142077.0 542766.0 0
146009.0 541577.0 0
152081.0 539778.0 0
158324.0 538418.0 0
157264.0 542194.0 0
161674.0 539869.0 0
165864.0 542221.0 0
170072.0 539058.0 0
173525.0 541728.0 0
177787.0 542321.0 0
182673.0 541704.0 0
187279.0 541535.0 0
190953.0 539015.0 0
194042.0 541814.0 0
197683.0 540208.0 0
204409.0 542702.0 0
209181.0 541111.0 0
214275.0 538513.0 0
217815.0 542565.0 0
222402.0 539610.0 0
226569.0 541925.0 0
232532.0 537912.0 0
237114.0 542467.0 0
242773.0 541371.0 0
247402.0 538978.0 0
251223.0 542092.0 0
255834.0 540959.0 0
260986.0 540384.0 0
265499.0 539322.0 0
270152.0 542286.0 0
276453.0 542292.0 0
281746.0 540194.0 0
286621.0 541290.0 0
292077.0 542571.0 0
300383.0 541904.0 0
305989.0 542542.0 0
311584.0 541241.0 0
317074.0 538685.0 0
322610.0 538801.0 0
325783.0 541786.0 0
327506.0 538002.0 0
328754.0 541734.0 0
332067.0 542589.0 0
339372.0 538416.0 0
345238.0 538343.0 0
350031.0 538110.0 0
354839.0 540083.0 0
360610.0 542064.0 0
366262.0 542025.0 0
369483.0 538525.0 0
374203.0 539186.0 0
378871.0 540310.0 0
384328.0 540648.0 0
390110.0 542628.0 0
393332.0 539031.0 0
400731.0 542231.0 0
404962.0 541640.0 0
409687.0 541145.0 0
414536.0 542687.0 0
418086.0 539147.0 0
423131.0 540588.0 0
430865.0 541738.0 0
435272.0 542580.0 0
438591.0 539353.0 0
442436.0 541808.0 0
446610.0 541467.0 0
451151.0 541449.0 0
455968.0 541710.0 0
460960.0 542247.0 0
465472.0 542099.0 0
469092.0 539711.0 0
473589.0 542037.0 0
477860.0 540212.0 0
481773.0 542091.0 0
486403.0 541454.0 0
492113.0 543531.0 0
497064.0 542218.0 0
2100.37 546031.0 0
6429.91 545364.0 0
10815.2 544495.0 0
14879.9 546995.0 0
11119.2 549000.0 0
19087.7 544775.0 0
23544.6 547582.0 0
28901.8 545615.0 0
34541.6 546110.0 0
39523.1 544501.0 0
43664.5 546631.0 0
47965.3 545824.0 0
55894.3 543856.0 0
52853.7 547094.0 0
56391.8 547080.0 0
59715.9 546298.0 0
64217.5 544408.0 0
67639.5 547757.0 0
72498.0 546387.0 0
77938.9 545303.0 0
84146.3 545380.0 0
89894.0 547196.0 0
98641.5 544617.0 0
103437.0 545687.0 0
108572.0 546282.0 0
114053.0 544236.0 0
118098.0 547536.0 0
123233.0 545216.0 0
126000.0 548295.0 0
128859.0 545170.0 0
134302.0 546842.0 0
139279.0 545811.0 0
144456.0 546806.0 0
149648.0 544871.0 0
154896.0 547432.0 0
161414.0 544030.0 0
160293.0 548002.0 0
164681.0 547035.0 0
170260.0 543245.0 0
169866.0 547633.0 0
174721.0 545643.0 0
180040.0 547015.0 0
186277.0 545834.0 0
190299.0 543568.0 0
193745.0 546855.0 0
199069.0 544624.0 0
208589.0 545766.0 0
213015.0 543204.0 0
213129.0 547878.0 0
222626.0 544842.0 0
227647.0 546934.0 0
231239.0 542917.0 0
233062.0 547676.0 0
244186.0 546712.0 0
247570.0 543362.0 0
249927.0 546511.0 0
254422.0 546639.0 0
259751.0 545250.0 0
264873.0 544066.0 0
268150.0 546603.0 0
272761.0 547202.0 0
282371.0 545087.0 0
287698.0 546726.0 0
292790.0 547743.0 0
296402.0 544770.0 0
300759.0 547483.0 0
305660.0 547501.0 0
310855.0 547275.0 0
317168.0 545177.0 0
322393.0 543323.0 0
327865.0 546543.0 0
333880.0 546816.0 0
337173.0 543252.0 0
342986.0 543163.0 0
349541.0 543974.0 0
355613.0 545788.0 0
362967.0 547576.0 0
367615.0 546454.0 0
371491.0 543286.0 0
376606.0 545630.0 0
381045.0 544272.0 0
385660.0 546484.0 0
391338.0 548417.0 0
395958.0 543281.0 0
395897.0 547774.0 0
399783.0 546175.0 0
404638.0 546986.0 0
410559.0 546322.0 0
416011.0 547353.0 0
419845.0 544272.0 0
426767.0 543394.0 0
423879.0 546875.0 0
432509.0 545860.0 0
428503.0 547876.0 0
437031.0 546947.0 0
434220.0 548517.0 0
439052.0 543560.0 0
442406.0 546371.0 0
448446.0 546683.0 0
453417.0 545363.0 0
458040.0 546119.0 0
461864.0 548239.0 0
463757.0 545161.0 0
469225.0 544598.0 0
465997.0 548332.0 0
474046.0 547014.0 0
478050.0 544396.0 0
482587.0 547312.0 0
487941.0 546047.0 0
492696.0 548698.0 0
497646.0 546905.0 0
1795.3 549597.0 0
6475.75 550082.0 0
14249.8 552240.0 0
18612.1 549841.0 0
22613.5 552946.0 0
27474.2 550680.0 0
31564.1 549503.0 0
36116.8 551754.0 0
40055.2 548789.0 0
43088.4 549511.0 0
42205.6 553098.0 0
46078.5 550189.0 0
49569.1 549387.0 0
48815.5 551855.0 0
52501.3 552301.0 0
57706.9 550737.0 0
62992.3 549795.0 0
70740.0 550734.0 0
75592.9 550766.0 0
80953.6 550016.0 0
86090.9 550458.0 0
90624.0 551700.0 0
94933.9 549191.0 0
99763.1 548600.0 0
98910.6 553028.0 0
103671.0 550820.0 0
108766.0 551863.0 0
112888.0 548814.0 0
118194.0 552290.0 0
122525.0 550445.0 0
127593.0 552020.0 0
130658.0 549192.0 0
133653.0 552791.0 0
140044.0 551405.0 0
145583.0 551675.0 0
149630.0 549696.0 0
158225.0 551981.0 0
153766.0 552825.0 0
163555.0 552157.0 0
169131.0 552903.0 0
174728.0 551156.0 0
184416.0 551106.0 0
189399.0 549623.0 0
193598.0 552474.0 0
203959.0 548201.0 0
199529.0 552230.0 0
204366.0 552740.0 0
208806.0 551415.0 0
218376.0 547966.0 0
215641.0 552492.0 0
223201.0 550292.0 0
219912.0 551987.0 0
229590.0 551685.0 0
234428.0 552573.0 0
238524.0 548831.0 0
242857.0 552077.0 0
247998.0 551158.0 0
252158.0 549779.0 0
255933.0 551522.0 0
264237.0 547985.0 0
260836.0 550868.0 0
269578.0 550812.0 0
265305.0 551973.0 0
274287.0 552801.0 0
277950.0 548597.0 0
282960.0 550423.0 0
288125.0 552463.0 0
293526.0 552542.0 0
296638.0 549816.0 0
299532.0 552147.0 0
304120.0 552030.0 0
308780.0 552069.0 0
314997.0 549199.0 0
313957.0 552410.0 0
318012.0 550695.0 0
322099.0 548475.0 0
334164.0 552059.0 0
339533.0 548683.0 0
345376.0 548141.0 0
346636.0 552346.0 0
349773.0 549535.0 0
353838.0 550542.0 0
358591.0 550053.0 0
362531.0 552728.0 0
367009.0 550940.0 0
371887.0 548725.0 0
376529.0 551090.0 0
380899.0 548753.0 0
380733.0 553021.0 0
385982.0 552620.0 0
399029.0 551103.0 0
403884.0 551954.0 0
408204.0 551059.0 0
413051.0 550629.0 0
420302.0 549939.0 0
425351.0 551531.0 0
432050.0 549551.0 0
430510.0 553254.0 0
435584.0 551608.0 0
439784.0 550168.0 0
444556.0 551227.0 0
449636.0 552476.0 0
453239.0 549703.0 0
458303.0 551497.0 0
463397.0 551794.0 0
467769.0 552594.0 0
469990.0 548943.0 0
472836.0 552116.0 0
477999.0 549678.0 0
476880.0 553285.0 0
481200.0 552639.0 0
487309.0 551219.0 0
497276.0 551470.0 0
2681.29 553742.0 0
2539.1 558442.0 0
7714.54 555828.0 0
12642.4 556799.0 0
18085.7 556555.0 0
26814.0 555294.0 0
31077.3 553790.0 0
34614.0 557303.0 0
39027.2 556012.0 0
43045.8 557694.0 0
47236.4 555124.0 0
52036.5 557223.0 0
56162.6 555174.0 0
61182.5 554519.0 0
64070.9 558240.0 0
66550.3 553723.0 0
71678.3 554962.0 0
75701.1 557056.0 0
78988.4 554109.0 0
83394.8 554372.0 0
87822.3 554773.0 0
93756.7 555835.0 0
99384.4 558258.0 0
104785.0 556093.0 0
110569.0 557292.0 0
113891.0 553347.0 0
117607.0 557433.0 0
123223.0 555425.0 0
129483.0 556767.0 0
133779.0 557897.0 0
138066.0 556924.0 0
144007.0 556898.0 0
149369.0 554457.0 0
155535.0 556843.0 0
160294.0 555708.0 0
166111.0 556187.0 0
170544.0 558074.0 0
175292.0 556479.0 0
179684.0 554128.0 0
188674.0 554673.0 0
184000.0 557576.0 0
192646.0 557104.0 0
196382.0 556296.0 0
203152.0 556807.0 0
208177.0 556810.0 0
212761.0 556355.0 0
217974.0 557449.0 0
222811.0 555382.0 0
226914.0 554802.0 0
231004.0 556507.0 0
238785.0 553837.0 0
235932.0 557050.0 0
240722.0 557516.0 0
245922.0 556632.0 0
251955.0 554887.0 0
257257.0 556512.0 0
262383.0 555699.0 0
268058.0 556120.0 0
273127.0 557986.0 0
278240.0 556664.0 0
282656.0 554994.0 0
286308.0 557578.0 0
291589.0 557402.0 0
297158.0 555981.0 0
302277.0 556912.0 0
307255.0 556370.0 0
311028.0 554822.0 0
317236.0 556175.0 0
321860.0 553561.0 0
327567.0 553224.0 0
332091.0 557642.0 0
338393.0 553311.0 0
338028.0 557374.0 0
342302.0 553945.0 0
342772.0 557919.0 0
350963.0 553362.0 0
347862.0 556629.0 0
356651.0 554751.0 0
352326.0 556995.0 0
361793.0 558233.0 0
366012.0 555266.0 0
371521.0 554870.0 0
377557.0 556056.0 0
382241.0 556536.0 0
392610.0 554337.0 0
395666.0 558516.0 0
397518.0 555515.0 0
401589.0 555793.0 0
406358.0 555476.0 0
411483.0 555090.0 0
416775.0 553679.0 0
421792.0 555360.0 0
426559.0 555951.0 0
430314.0 558288.0 0
434972.0 556469.0 0
440432.0 555073.0 0
446241.0 556070.0 0
450594.0 557888.0 0
453995.0 554638.0 0
458137.0 556445.0 0
461799.0 555321.0 0
465841.0 556933.0 0
470517.0 555748.0 0
474270.0 556350.0 0
478968.0 557094.0 0
484688.0 555270.0 0
482948.0 558458.0 0
488131.0 557107.0 0
492211.0 554458.0 0
497390.0 556294.0 0
2115.21 562716.0 0
6876.01 561443.0 0
10790.3 559865.0 0
14823.3 560761.0 0
11595.2 563276.0 0
19005.0 562086.0 0
23567.5 559423.0 0
29600.4 558953.0 0
33818.7 563371.0 0
39075.8 560179.0 0
43662.5 562118.0 0
48215.6 560090.0 0
54178.4 563086.0 0
58453.9 558457.0 0
61023.5 562335.0 0
66081.2 562346.0 0
68748.1 558591.0 0
72419.2 560615.0 0
76355.9 561671.0 0
80775.8 558735.0 0
88947.4 558698.0 0
87711.0 562886.0 0
92949.0 562104.0 0
104615.0 562247.0 0
110173.0 562400.0 0
114471.0 561657.0 0
121766.0 559571.0 0
118466.0 562709.0 0
125486.0 559580.0 0
122773.0 563125.0 0
129430.0 561767.0 0
134749.0 563020.0 0
140371.0 561591.0 0
145850.0 563166.0 0
150139.0 559430.0 0
154640.0 561865.0 0
159221.0 559906.0 0
164524.0 560499.0 0
168900.0 562596.0 0
178679.0 558466.0 0
175121.0 562323.0 0
181039.0 562015.0 0
185489.0 562195.0 0
189157.0 559743.0 0
193938.0 561388.0 0
197630.0 559489.0 0
201342.0 561953.0 0
207041.0 561917.0 0
213145.0 561763.0 0
218674.0 562532.0 0
222994.0 562796.0 0
226296.0 559302.0 0
232023.0 561509.0 0
237399.0 561947.0 0
243130.0 561031.0 0
248188.0 562357.0 0
252180.0 559409.0 0
256041.0 561717.0 0
260416.0 559943.0 0
265096.0 560722.0 0
269710.0 560989.0 0
275781.0 562655.0 0
282056.0 561555.0 0
288313.0 562396.0 0
294087.0 562687.0 0
299172.0 560784.0 0
304264.0 561442.0 0
308413.0 560617.0 0
312667.0 558300.0 0
312023.0 562822.0 0
316458.0 561208.0 0
320464.0 562893.0 0
321846.0 558654.0 0
324411.0 562370.0 0
326631.0 558619.0 0
335586.0 562163.0 0
340936.0 562039.0 0
345390.0 560372.0 0
350343.0 561640.0 0
355618.0 559987.0 0
359042.0 562294.0 0
367909.0 560749.0 0
373148.0 559999.0 0
376766.0 560385.0 0
379890.0 559269.0 0
379849.0 562765.0 0
382969.0 560339.0 0
387778.0 558810.0 0
392521.0 560134.0 0
399565.0 560421.0 0
404334.0 559472.0 0
409440.0 560223.0 0
415473.0 559228.0 0
421188.0 560720.0 0
426007.0 559807.0 0
429328.0 563169.0 0
434433.0 561780.0 0
438643.0 559529.0 0
443521.0 560329.0 0
448652.0 562520.0 0
455329.0 559689.0 0
460875.0 559542.0 0
465225.0 561746.0 0
469855.0 559498.0 0
474991.0 561398.0 0
480775.0 562156.0 0
486198.0 561186.0 0
491782.0 560308.0 0
497344.0 560971.0 0
3362.82 567667.0 0
8490.05 566060.0 0
12529.0 567324.0 0
18371.2 568277.0 0
22604.2 564244.0 0
24717.4 568038.0 0
27419.5 563802.0 0
39515.7 564700.0 0
40087.5 567668.0 0
43614.0 567395.0 0
47905.7 564670.0 0
50611.2 567837.0 0
59178.0 567090.0 0
63868.3 566405.0 0
70134.9 564807.0 0
73914.1 564408.0 0
77449.0 566603.0 0
82621.1 564055.0 0
86689.3 567258.0 0
95054.1 566018.0 0
98678.9 563773.0 0
97392.4 568569.0 0
102545.0 568200.0 0
108278.0 567134.0 0
113285.0 565527.0 0
117511.0 567157.0 0
128240.0 566303.0 0
132224.0 567421.0 0
139363.0 567101.0 0
150740.0 563812.0 0
149030.0 567157.0 0
154050.0 567493.0 0
159077.0 564922.0 0
164589.0 566614.0 0
170822.0 567185.0 0
179755.0 566866.0 0
184408.0 566171.0 0
189361.0 564919.0 0
193828.0 565694.0 0
198007.0 566008.0 0
203197.0 566341.0 0
208526.0 566685.0 0
213196.0 567558.0 0
218023.0 567069.0 0
222838.0 567345.0 0
227812.0 564959.0 0
232851.0 566040.0 0
237279.0 567316.0 0
241487.0 565113.0 0
245608.0 567171.0 0
249973.0 567160.0 0
254845.0 567084.0 0
261187.0 565649.0 0
267945.0 565755.0 0
273429.0 567710.0 0
279166.0 567183.0 0
283376.0 566393.0 0
286807.0 567462.0 0
291133.0 566954.0 0
295794.0 567818.0 0
301082.0 566041.0 0
307592.0 566484.0 0
313244.0 567194.0 0
317360.0 565660.0 0
325150.0 566750.0 0
329531.0 563344.0 0
333915.0 566733.0 0
338855.0 567048.0 0
345632.0 565199.0 0
350684.0 567250.0 0
354756.0 564638.0 0
358797.0 565940.0 0
362980.0 563983.0 0
368796.0 566733.0 0
372416.0 563745.0 0
376267.0 563866.0 0
374560.0 568049.0 0
379549.0 567013.0 0
384476.0 564929.0 0
389703.0 563816.0 0
394297.0 564614.0 0
398713.0 564989.0 0
402242.0 568679.0 0
407382.0 564069.0 0
403257.0 564133.0 0
406716.0 568001.0 0
411417.0 565554.0 0
417120.0 564987.0 0
421781.0 565334.0 0
420527.0 568445.0 0
424933.0 563678.0 0
424956.0 568361.0 0
432754.0 565461.0 0
430129.0 568080.0 0
439541.0 564268.0 0
441105.0 568508.0 0
444583.0 565577.0 0
453473.0 564072.0 0
449762.0 568180.0 0
458499.0 563828.0 0
462968.0 565863.0 0
459890.0 568315.0 0
466635.0 567943.0 0
469915.0 564357.0 0
477853.0 566877.0 0
483919.0 565356.0 0
488785.0 566162.0 0
494213.0 565118.0 0
498282.0 564803.0 0
497794.0 568248.0 0
9127.06 570927.0 0
14084.6 573433.0 0
23889.9 572548.0 0
30255.5 568958.0 0
36507.9 569290.0 0
41447.6 572640.0 0
47470.9 571625.0 0
54848.6 570033.0 0
62329.3 571521.0 0
67643.2 569125.0 0
72802.7 569503.0 0
77468.7 571791.0 0
81938.1 569504.0 0
86438.6 572104.0 0
91732.3 568808.0 0
95761.4 572695.0 0
100609.0 573311.0 0
106666.0 573366.0 0
113091.0 570843.0 0
118626.0 571883.0 0
123075.0 568486.0 0
128704.0 571965.0 0
135116.0 571440.0 0
140704.0 572432.0 0
144729.0 568958.0 0
150027.0 571721.0 0
154685.0 572503.0 0
159520.0 570612.0 0
165227.0 572998.0 0
169051.0 571108.0 0
173044.0 572693.0 0
175597.0 568432.0 0
178695.0 572020.0 0
183729.0 570742.0 0
188815.0 570265.0 0
194699.0 570633.0 0
199822.0 570489.0 0
203224.0 571447.0 0
207324.0 571114.0 0
212257.0 572244.0 0
217063.0 571842.0 0
221879.0 572005.0 0
227022.0 570592.0 0
231944.0 570349.0 0
236934.0 572460.0 0
241555.0 569932.0 0
246640.0 572259.0 0
251653.0 571137.0 0
256999.0 572896.0 0
263596.0 572176.0 0
268979.0 570860.0 0
273109.0 572848.0 0
277889.0 572158.0 0
283332.0 571042.0 0
288122.0 570896.0 0
292176.0 571483.0 0
295572.0 571246.0 0
299344.0 571662.0 0
305174.0 572612.0 0
311094.0 571744.0 0
320848.0 568363.0 0
316693.0 570077.0 0
320445.0 572844.0 0
325405.0 571990.0 0
329666.0 568955.0 0
332529.0 573207.0 0
337138.0 571592.0 0
341776.0 570922.0 0
346598.0 570491.0 0
351682.0 572600.0 0
355131.0 568961.0 0
359419.0 570076.0 0
363832.0 568703.0 0
362739.0 573217.0 0
366567.0 571701.0 0
370867.0 571973.0 0
375673.0 572958.0 0
380293.0 572663.0 0
382718.0 569381.0 0
385058.0 572793.0 0
388874.0 568987.0 0
394604.0 570155.0 0
398710.0 568450.0 0
399653.0 572602.0 0
405620.0 573600.0 0
410907.0 570986.0 0
416508.0 570823.0 0
421761.0 572379.0 0
428109.0 571753.0 0
425394.0 573611.0 0
432133.0 573131.0 0
435839.0 569044.0 0
440536.0 572767.0 0
444763.0 570268.0 0
453317.0 573064.0 0
455490.0 568542.0 0
457841.0 572885.0 0
462575.0 571954.0 0
467458.0 572112.0 0
471080.0 569238.0 0
474962.0 570653.0 0
478566.0 573256.0 0
482786.0 569701.0 0
487645.0 571490.0 0
492957.0 570079.0 0
497482.0 572505.0 0
3696.95 574373.0 0
9615.36 576619.0 0
19387.5 575188.0 0
24599.0 577675.0 0
28414.0 574029.0 0
33884.0 574846.0 0
39062.6 577885.0 0
45096.4 576990.0 0
52034.6 574750.0 0
57539.3 575149.0 0
62667.3 576629.0 0
67710.5 574603.0 0
73506.5 574954.0 0
77644.6 575658.0 0
81628.0 574643.0 0
86761.6 577052.0 0
91074.9 574394.0 0
95591.8 577852.0 0
101076.0 578443.0 0
111336.0 577032.0 0
115265.0 575496.0 0
118903.0 576306.0 0
123090.0 574391.0 0
132435.0 575948.0 0
137701.0 576868.0 0
145420.0 574185.0 0
149557.0 576907.0 0
154799.0 577189.0 0
160493.0 576655.0 0
169261.0 575873.0 0
173901.0 577875.0 0
178149.0 576796.0 0
182476.0 575535.0 0
187535.0 575351.0 0
193205.0 577003.0 0
198321.0 574799.0 0
203179.0 576038.0 0
208946.0 576314.0 0
214177.0 576247.0 0
218464.0 576310.0 0
222575.0 576192.0 0
226762.0 575492.0 0
232107.0 575733.0 0
238151.0 576713.0 0
242010.0 574972.0 0
247135.0 577285.0 0
252133.0 575644.0 0
257703.0 577777.0 0
261185.0 576903.0 0
268618.0 575969.0 0
273483.0 577337.0 0
277992.0 576977.0 0
282730.0 576227.0 0
286922.0 576695.0 0
291097.0 576089.0 0
295445.0 574767.0 0
299964.0 577484.0 0
305012.0 577758.0 0
310013.0 577489.0 0
315797.0 575468.0 0
323125.0 577114.0 0
328378.0 576445.0 0
332567.0 577745.0 0
341490.0 575564.0 0
336666.0 576344.0 0
346872.0 576130.0 0
351999.0 577936.0 0
357372.0 575436.0 0
366821.0 576594.0 0
362244.0 577073.0 0
372684.0 577150.0 0
378091.0 577024.0 0
382487.0 576998.0 0
387063.0 577395.0 0
390841.0 574041.0 0
391526.0 578277.0 0
395474.0 576068.0 0
401266.0 577671.0 0
410023.0 576548.0 0
413515.0 574765.0 0
418118.0 576375.0 0
413983.0 578267.0 0
423598.0 577275.0 0
428524.0 576017.0 0
433182.0 578038.0 0
436233.0 574509.0 0
444125.0 574979.0 0
440036.0 577593.0 0
448323.0 573710.0 0
446326.0 578261.0 0
451874.0 578319.0 0
456258.0 576351.0 0
460393.0 576657.0 0
465545.0 576615.0 0
472250.0 574928.0 0
483644.0 574976.0 0
479791.0 578059.0 0
487738.0 575599.0 0
491284.0 574507.0 0
494361.0 576885.0 0
497997.0 576639.0 0
3224.96 580941.0 0
9189.56 581717.0 0
14875.1 579433.0 0
19990.2 579902.0 0
22660.7 582115.0 0
29664.2 578603.0 0
26744.4 582356.0 0
34077.5 580261.0 0
38148.7 583622.0 0
43860.7 582480.0 0
49362.8 579613.0 0
54021.8 579368.0 0
59802.5 579280.0 0
57466.9 582827.0 0
65708.4 579043.0 0
62988.9 583049.0 0
70654.4 580281.0 0
76190.3 579181.0 0
74757.8 583107.0 0
78876.7 583030.0 0
82531.9 579699.0 0
90869.3 578937.0 0
87336.1 582119.0 0
93440.5 582717.0 0
97900.4 581880.0 0
106305.0 579503.0 0
102738.0 583198.0 0
110907.0 582074.0 0
116699.0 580949.0 0
121893.0 579177.0 0
121538.0 583642.0 0
127560.0 578664.0 0
133566.0 580850.0 0
142853.0 578601.0 0
138413.0 581558.0 0
142545.0 583446.0 0
146872.0 581613.0 0
151655.0 581272.0 0
156553.0 582244.0 0
161446.0 581823.0 0
165683.0 578604.0 0
170702.0 582045.0 0
176505.0 582158.0 0
182216.0 581057.0 0
188290.0 580902.0 0
193676.0 583095.0 0
198618.0 579951.0 0
202250.0 582585.0 0
205653.0 580568.0 0
212430.0 580745.0 0
216759.0 580187.0 0
221018.0 580458.0 0
226445.0 580810.0 0
231362.0 580805.0 0
236602.0 581459.0 0
242796.0 580430.0 0
247575.0 581363.0 0
251556.0 580143.0 0
256102.0 581532.0 0
260840.0 581181.0 0
265800.0 580914.0 0
270717.0 580760.0 0
275629.0 581648.0 0
281341.0 580878.0 0
285829.0 580446.0 0
290473.0 581033.0 0
294970.0 579154.0 0
301636.0 582825.0 0
306879.0 580998.0 0
310656.0 582700.0 0
315151.0 581058.0 0
320702.0 581959.0 0
325487.0 580755.0 0
329939.0 581710.0 0
335244.0 581046.0 0
341186.0 581280.0 0
347526.0 582227.0 0
353607.0 583101.0 0
360225.0 581673.0 0
366441.0 582463.0 0
374447.0 581549.0 0
378991.0 582086.0 0
383733.0 580981.0 0
388596.0 582730.0 0
393274.0 581630.0 0
397487.0 581025.0 0
402152.0 582719.0 0
406363.0 579604.0 0
408012.0 582764.0 0
411444.0 581778.0 0
417222.0 582136.0 0
422255.0 581734.0 0
427772.0 581561.0 0
432773.0 582524.0 0
437120.0 581475.0 0
442742.0 582196.0 0
448251.0 582393.0 0
457218.0 580457.0 0
460857.0 583656.0 0
465158.0 581710.0 0
469570.0 579796.0 0
471183.0 583409.0 0
475031.0 580515.0 0
483924.0 579825.0 0
480249.0 582753.0 0
489934.0 580473.0 0
496628.0 581011.0 0
2044.91 585918.0 0
6287.92 585325.0 0
12979.1 584871.0 0
18575.8 584527.0 0
23665.2 585827.0 0
21057.4 587849.0 0
29168.8 587287.0 0
33339.3 584505.0 0
41864.3 586870.0 0
45621.0 587165.0 0
48973.5 584381.0 0
53760.7 586085.0 0
58492.6 587523.0 0
62873.4 588109.0 0
67155.0 586749.0 0
71711.1 585709.0 0
76216.9 587092.0 0
83146.9 584278.0 0
87278.9 587746.0 0
97023.3 586068.0 0
92547.9 587492.0 0
101478.0 587760.0 0
106762.0 583845.0 0
106426.0 588152.0 0
112016.0 587697.0 0
118113.0 587800.0 0
126197.0 584257.0 0
123353.0 587744.0 0
131119.0 586183.0 0
136215.0 585281.0 0
140291.0 587643.0 0
147954.0 586573.0 0
144020.0 586641.0 0
153002.0 585862.0 0
157414.0 586744.0 0
161891.0 586872.0 0
165680.0 583811.0 0
168609.0 587016.0 0
173442.0 587216.0 0
178408.0 586524.0 0
182617.0 586274.0 0
187611.0 586683.0 0
191983.0 587123.0 0
198563.0 585438.0 0
203083.0 586053.0 0
208821.0 586004.0 0
214124.0 587367.0 0
215951.0 584074.0 0
220331.0 585454.0 0
225445.0 586325.0 0
230769.0 585493.0 0
235550.0 586898.0 0
240126.0 586026.0 0
245931.0 586394.0 0
252900.0 586638.0 0
259341.0 586100.0 0
264175.0 586187.0 0
268921.0 585679.0 0
273409.0 585196.0 0
278715.0 586237.0 0
283437.0 584994.0 0
287125.0 583966.0 0
290943.0 586469.0 0
296469.0 583820.0 0
300671.0 587517.0 0
306007.0 584882.0 0
309884.0 587032.0 0
315721.0 587197.0 0
326240.0 585542.0 0
321742.0 587058.0 0
331352.0 587145.0 0
337082.0 586234.0 0
341909.0 586219.0 0
345987.0 587791.0 0
350543.0 587024.0 0
357642.0 587601.0 0
363614.0 587477.0 0
371150.0 583713.0 0
368597.0 586702.0 0
375262.0 586074.0 0
379913.0 586657.0 0
384370.0 586219.0 0
392505.0 585597.0 0
388967.0 588031.0 0
397352.0 586515.0 0
401575.0 586161.0 0
406783.0 586777.0 0
413835.0 586712.0 0
419239.0 587434.0 0
424032.0 585679.0 0
428596.0 587068.0 0
433900.0 587102.0 0
439039.0 585493.0 0
442951.0 587869.0 0
448601.0 587465.0 0
453137.0 584023.0 0
457467.0 586451.0 0
461486.0 588127.0 0
466794.0 587079.0 0
472340.0 587335.0 0
476436.0 585520.0 0
480485.0 587801.0 0
485127.0 585127.0 0
489059.0 588708.0 0
492884.0 585861.0 0
497556.0 585942.0 0
3918.69 590162.0 0
8456.84 588845.0 0
8250.37 593598.0 0
12694.3 589809.0 0
17554.2 589880.0 0
23854.0 590066.0 0
20844.9 593269.0 0
27067.7 591178.0 0
30474.0 592588.0 0
35624.8 589298.0 0
41959.7 591029.0 0
50381.0 589005.0 0
46669.6 591493.0 0
50311.1 593546.0 0
54769.1 591732.0 0
60521.5 592041.0 0
65741.1 591693.0 0
72131.1 591828.0 0
81373.8 588937.0 0
78173.2 593341.0 0
85222.0 592364.0 0
81898.7 593219.0 0
91535.0 593007.0 0
97546.3 590935.0 0
102971.0 593390.0 0
109053.0 592685.0 0
113550.0 592309.0 0
121793.0 592508.0 0
127442.0 590800.0 0
133897.0 592097.0 0
140286.0 593016.0 0
144991.0 590662.0 0
149693.0 591915.0 0
154824.0 590744.0 0
159848.0 591148.0 0
167959.0 590919.0 0
164020.0 590994.0 0
172016.0 592126.0 0
177558.0 591729.0 0
183899.0 591387.0 0
192406.0 590156.0 0
189047.0 591334.0 0
197586.0 591228.0 0
203642.0 590765.0 0
213820.0 590824.0 0
209274.0 593059.0 0
217541.0 590134.0 0
222158.0 590510.0 0
227270.0 591205.0 0
232750.0 591258.0 0
238536.0 590931.0 0
242950.0 590592.0 0
247724.0 592090.0 0
251657.0 591462.0 0
255647.0 592179.0 0
260690.0 591262.0 0
265777.0 590407.0 0
271648.0 591330.0 0
276801.0 590567.0 0
281960.0 591330.0 0
287371.0 590090.0 0
295851.0 589431.0 0
291459.0 592665.0 0
300245.0 591859.0 0
305539.0 590495.0 0
311417.0 591847.0 0
316594.0 593634.0 0
321538.0 591859.0 0
327036.0 591017.0 0
332174.0 591831.0 0
336598.0 591676.0 0
341428.0 590502.0 0
347396.0 592634.0 0
352362.0 591355.0 0
357828.0 593792.0 0
363154.0 592588.0 0
372317.0 589853.0 0
367789.0 591117.0 0
376807.0 591112.0 0
381929.0 590691.0 0
386985.0 593102.0 0
393467.0 591661.0 0
401772.0 589358.0 0
399005.0 592708.0 0
405351.0 593403.0 0
411064.0 591382.0 0
416656.0 592347.0 0
423811.0 591239.0 0
430067.0 592330.0 0
438129.0 588948.0 0
435535.0 592126.0 0
440482.0 592513.0 0
445991.0 592604.0 0
453741.0 589299.0 0
451171.0 593326.0 0
458392.0 592304.0 0
464088.0 592299.0 0
469269.0 592204.0 0
474025.0 591757.0 0
476702.0 589104.0 0
478729.0 592430.0 0
483075.0 591428.0 0
487160.0 593378.0 0
493844.0 590051.0 0
491893.0 593651.0 0
497898.0 590208.0 0
2915.67 595617.0 0
7041.67 598175.0 0
14892.4 593993.0 0
11662.9 597206.0 0
18337.9 597413.0 0
22316.8 598516.0 0
25797.4 595387.0 0
34406.7 594493.0 0
30997.7 597508.0 0
38743.8 594138.0 0
45717.5 596287.0 0
41595.6 597295.0 0
52356.2 597822.0 0
58039.4 596646.0 0
63355.2 596318.0 0
67896.3 595816.0 0
71579.9 597825.0 0
76632.6 598391.0 0
81745.0 596916.0 0
86852.6 596759.0 0
91604.7 598959.0 0
97118.3 596744.0 0
102036.0 598644.0 0
107180.0 597632.0 0
116998.0 594616.0 0
112479.0 596754.0 0
123076.0 597603.0 0
128838.0 596978.0 0
135487.0 598830.0 0
139784.0 597161.0 0
144883.0 595469.0 0
148735.0 597292.0 0
153354.0 596158.0 0
158370.0 595347.0 0
163002.0 595215.0 0
168302.0 595798.0 0
174248.0 595171.0 0
177611.0 597190.0 0
181907.0 596271.0 0
186873.0 596435.0 0
192510.0 595036.0 0
197603.0 596873.0 0
201842.0 595357.0 0
205956.0 598304.0 0
214809.0 595162.0 0
219213.0 595727.0 0
222357.0 595735.0 0
226592.0 596855.0 0
231875.0 596284.0 0
237148.0 596045.0 0
242254.0 595137.0 0
246853.0 596911.0 0
252500.0 595757.0 0
256640.0 596806.0 0
261464.0 596438.0 0
267118.0 595862.0 0
272528.0 597137.0 0
277403.0 595138.0 0
281931.0 597878.0 0
286708.0 595189.0 0
291296.0 597882.0 0
296498.0 595619.0 0
302522.0 596092.0 0
307513.0 595824.0 0
312138.0 596911.0 0
320923.0 596854.0 0
316363.0 598492.0 0
326392.0 596981.0 0
331741.0 596384.0 0
337514.0 597283.0 0
342937.0 595306.0 0
347472.0 597718.0 0
352866.0 597043.0 0
362248.0 596950.0 0
366291.0 595550.0 0
371829.0 594836.0 0
376552.0 595589.0 0
380600.0 595197.0 0
384367.0 598162.0 0
391048.0 597650.0 0
396506.0 596717.0 0
401342.0 597431.0 0
408063.0 598738.0 0
412537.0 596281.0 0
417404.0 597967.0 0
421652.0 595909.0 0
425886.0 596410.0 0
432727.0 596627.0 0
437448.0 596956.0 0
442858.0 597196.0 0
448050.0 597799.0 0
452243.0 597059.0 0
456349.0 597427.0 0
461592.0 597081.0 0
467015.0 596823.0 0
472213.0 596086.0 0
477334.0 596800.0 0
482355.0 596176.0 0
489185.0 598302.0 0
493410.0 597130.0 0
496560.0 594450.0 0
497782.0 598972.0 0
1222.1 599296.0 0
2877.35 602914.0 0
8143.94 602431.0 0
13361.6 601871.0 0
18076.1 601847.0 0
22081.2 603936.0 0
27033.3 601338.0 0
32480.9 603069.0 0
36748.3 599149.0 0
41925.3 601961.0 0
47449.6 601137.0 0
51890.9 603293.0 0
56581.9 601908.0 0
61837.7 601154.0 0
67378.5 600882.0 0
72922.1 602539.0 0
78400.2 603502.0 0
84272.5 602237.0 0
89804.0 603405.0 0
94682.4 603031.0 0
99330.8 601896.0 0
104426.0 602840.0 0
109202.0 601728.0 0
113171.0 601307.0 0
116370.0 603322.0 0
118391.0 599400.0 0
122457.0 602320.0 0
139486.0 602147.0 0
143759.0 600438.0 0
147093.0 603070.0 0
151116.0 601370.0 0
157438.0 600872.0 0
163121.0 599987.0 0
167854.0 601638.0 0
172967.0 599441.0 0
178147.0 601747.0 0
183472.0 601036.0 0
188328.0 600930.0 0
192775.0 600556.0 0
197442.0 601515.0 0
202341.0 600687.0 0
208286.0 602671.0 0
212828.0 600446.0 0
217500.0 600586.0 0
222500.0 600455.0 0
227977.0 602118.0 0
233020.0 600847.0 0
237894.0 600922.0 0
242755.0 599738.0 0
248034.0 601151.0 0
252180.0 599950.0 0
256430.0 601033.0 0
260856.0 601454.0 0
265623.0 601069.0 0
270772.0 602257.0 0
276929.0 601223.0 0
282151.0 602276.0 0
286808.0 601074.0 0
292568.0 602959.0 0
298626.0 601869.0 0
304054.0 600699.0 0
308350.0 600200.0 0
312915.0 602081.0 0
318583.0 602987.0 0
323300.0 600979.0 0
327849.0 602213.0 0
333171.0 601642.0 0
337910.0 603103.0 0
342725.0 601051.0 0
351086.0 602048.0 0
358144.0 599250.0 0
362820.0 602558.0 0
368323.0 599833.0 0
373499.0 602772.0 0
378555.0 599686.0 0
382517.0 602865.0 0
387930.0 602787.0 0
393375.0 602188.0 0
398065.0 601649.0 0
403692.0 601889.0 0
412936.0 601522.0 0
408258.0 603670.0 0
418138.0 603037.0 0
422293.0 600386.0 0
426785.0 602776.0 0
429451.0 599031.0 0
433962.0 601829.0 0
440169.0 602117.0 0
446044.0 603563.0 0
452320.0 602129.0 0
459072.0 602560.0 0
464185.0 601083.0 0
469092.0 602113.0 0
474565.0 600706.0 0
479774.0 600736.0 0
484727.0 600449.0 0
488247.0 603358.0 0
493542.0 601035.0 0
497571.0 603512.0 0
1350.56 606806.0 0
5993.09 607465.0 0
11136.5 606664.0 0
16967.5 606974.0 0
23843.9 608778.0 0
28391.0 606612.0 0
33184.5 608395.0 0
37517.4 604492.0 0
38049.1 608967.0 0
42235.2 607091.0 0
46904.3 606297.0 0
51585.3 608023.0 0
56947.6 607434.0 0
62314.6 606340.0 0
66944.1 605818.0 0
71080.9 607311.0 0
75878.9 607712.0 0
81664.4 608629.0 0
87327.3 606940.0 0
92231.7 607557.0 0
98073.3 607014.0 0
103444.0 608479.0 0
108811.0 606576.0 0
114168.0 607035.0 0
119564.0 606600.0 0
128503.0 604353.0 0
134939.0 604010.0 0
133732.0 608334.0 0
138687.0 606613.0 0
143516.0 605462.0 0
147082.0 606682.0 0
151533.0 607144.0 0
157477.0 607206.0 0
162834.0 605242.0 0
167714.0 606633.0 0
173368.0 605720.0 0
177902.0 606689.0 0
181716.0 606199.0 0
187060.0 605521.0 0
193313.0 606484.0 0
198826.0 605529.0 0
203012.0 605257.0 0
207383.0 606995.0 0
212269.0 605847.0 0
217524.0 605355.0 0
222450.0 605478.0 0
226536.0 606647.0 0
231271.0 605475.0 0
236422.0 605685.0 0
241655.0 604399.0 0
247242.0 606242.0 0
253369.0 605285.0 0
258576.0 605618.0 0
262575.0 605419.0 0
266969.0 606021.0 0
273439.0 606591.0 0
277879.0 606705.0 0
281716.0 605802.0 0
286859.0 606273.0 0
290890.0 607438.0 0
296011.0 607822.0 0
301766.0 606161.0 0
306102.0 604959.0 0
310416.0 606004.0 0
314874.0 607404.0 0
319899.0 608037.0 0
325409.0 607500.0 0
331108.0 606541.0 0
335879.0 607051.0 0
341772.0 607702.0 0
346867.0 604576.0 0
351180.0 607473.0 0
356425.0 604446.0 0
361241.0 608656.0 0
368173.0 606635.0 0
378590.0 607497.0 0
384756.0 607246.0 0
390055.0 607824.0 0
394849.0 606460.0 0
400266.0 606684.0 0
404238.0 605747.0 0
407106.0 608497.0 0
413399.0 606849.0 0
422624.0 605360.0 0
418296.0 607735.0 0
427042.0 608009.0 0
431456.0 606322.0 0
436254.0 606777.0 0
441190.0 607786.0 0
446039.0 608845.0 0
451488.0 608774.0 0
457192.0 608030.0 0
461989.0 607374.0 0
467318.0 608045.0 0
473565.0 606640.0 0
484018.0 604507.0 0
479663.0 606307.0 0
487004.0 608700.0 0
492866.0 606463.0 0
497910.0 607982.0 0
2249.8 610700.0 0
5559.95 612706.0 0
10605.8 612571.0 0
17135.1 613442.0 0
22611.7 613499.0 0
28277.9 611903.0 0
33582.2 613831.0 0
38995.7 613716.0 0
47113.0 612096.0 0
53034.6 612981.0 0
58226.4 612703.0 0
63522.7 611639.0 0
68321.9 610914.0 0
72693.2 611834.0 0
77287.0 612321.0 0
82846.1 613480.0 0
87392.0 611331.0 0
92689.3 612728.0 0
98323.7 612550.0 0
102965.0 613164.0 0
107600.0 611773.0 0
112086.0 610999.0 0
117035.0 611018.0 0
121293.0 612333.0 0
124148.0 609085.0 0
125635.0 613277.0 0
128393.0 610352.0 0
132190.0 613894.0 0
137536.0 611675.0 0
142911.0 610721.0 0
147999.0 610831.0 0
153454.0 612531.0 0
162941.0 610315.0 0
158702.0 612526.0 0
167337.0 611169.0 0
172142.0 611586.0 0
177548.0 610376.0 0
182519.0 611115.0 0
186759.0 610466.0 0
190963.0 612124.0 0
197807.0 611292.0 0
203482.0 610219.0 0
208214.0 611522.0 0
213232.0 610976.0 0
218065.0 610402.0 0
222081.0 610370.0 0
225883.0 610934.0 0
230871.0 610985.0 0
236658.0 610911.0 0
242489.0 610347.0 0
248060.0 611783.0 0
252450.0 611415.0 0
256688.0 609927.0 0
261153.0 611901.0 0
266709.0 611821.0 0
272389.0 611193.0 0
277862.0 611952.0 0
283166.0 609927.0 0
288394.0 611703.0 0
293335.0 612229.0 0
297227.0 613720.0 0
301052.0 610752.0 0
307446.0 611065.0 0
313354.0 612341.0 0
318425.0 612801.0 0
322949.0 612016.0 0
327239.0 613040.0 0
332006.0 611438.0 0
337314.0 612530.0 0
342496.0 613652.0 0
346953.0 609665.0 0
351494.0 612902.0 0
346913.0 613640.0 0
355986.0 610263.0 0
359469.0 613692.0 0
364277.0 612950.0 0
368234.0 611703.0 0
372900.0 610283.0 0
376738.0 612717.0 0
382717.0 610762.0 0
386915.0 611938.0 0
392514.0 612270.0 0
397648.0 611451.0 0
402794.0 611220.0 0
406833.0 613521.0 0
411566.0 611719.0 0
417185.0 613038.0 0
422374.0 610758.0 0
427461.0 613198.0 0
432338.0 611074.0 0
437810.0 612085.0 0
443218.0 612692.0 0
447883.0 612789.0 0
456929.0 612643.0 0
461822.0 612472.0 0
466768.0 613327.0 0
471955.0 612771.0 0
477445.0 611333.0 0
482495.0 611744.0 0
488146.0 613702.0 0
492287.0 611841.0 0
497062.0 611896.0 0
43092.6 615513.0 0
372242.0 614730.0 0
452563.0 614565.0 0
POINT_DATA 5000
SCALARS Radius float 1
LOOKUP_TABLE default
5120.0 5073.35 5415.48 2356.98 6182.6 5258.36 5580.89 6810.52 5840.26 4834.9 3863.18 5085.53 4998.37 5492.18 3951.75 5061.3 3642.12 3163.97 5812.43 5906.14 4436.4 5733.48 3588.44 5645.7 5553.16 6110.27 5561.06 5670.04 6044.04 5484.83 5351.6 5867.73 5013.56 4499.64 4375.68 5542.27 5122.66 5484.19 3557.27 7513.1 5254.28 4688.68 4402.52 4517.56 4182.53 4672.91 3761.32 5176.86 4118.05 4366.19 3672.51 2938.66 4008.92 6716.79 3850.77 5325.36 4715.55 5538.89 6059.59 2720.68 5701.86 4238.81 5054.98 6030.06 5170.02 5200.76 4927.31 5185.34 4432.58 5903.42 3955.56 5292.64 6166.5 5065.13 4940.78 5305.17 3615.22 4380.59 4133.88 5546.39 6759.9 4730.36 5926.61 3563.63 4955.55 4345.55 4468.59 5885.03 5325.02 2837.58 5017.13 4862.64 3673.74 5205.43 3968.64 6684.56 4688.67 2635.86 4385.06 5936.02 4290.3 4231.61 3379.84 7613.27 3936.02 4665.12 4094.62 5945.65 5418.62 7021.47 5416.38 6051.14 5836.15 6704.06 3653.41 3871.88 3856.01 5246.2 4390.66 5279.39 4827.23 6116.18 7447.37 4924.6 4733.32 7184.19 3867.67 2899.43 4861.08 3942.53 4827.82 4003.05 3607.45 4951.03 4333.2 3038.33 5495.39 4780.03 3383.4 3856.1 4927.02 5980.74 6483.19 6230.49 4601.27 5489.43 5493.32 3641.64 5740.68 4277.89 4195.44 3261.21 5539.32 6496.85 5600.93 5541.59 4124.71 5083.08 4911.47 5728.85 5803.39 5863.59 4381.97 3255.82 5242.73 2812.98 2924.37 4065.69 5399.73 5390.22 4805.87 3589.27 5227.21 5759.91 3997.1 3260.67 4295.38 5529.52 4392.68 5252.48 6124.89 5708.81 3554.9 4015.92 4044.71 3996.0 4487.31 5816.2 5109.54 4174.52 3829.13 6458.82 7054.71 5527.54 5573.7 5747.75 5054.25 4796.33 5360.19 4794.96 4874.39 6186.19 4839.34 2980.99 6834.49 6337.56 3998.5 4024.3 6257.19 5555.28 4737.14 5603.15 4695.45 4660.72 4712.33 3888.21 6038.78 5697.78 5123.52 4667.36 4091.31 7199.21 5615.42 5255.32 4523.7 6037.08 5601.05 4049.23 3586.91 5337.48 4929.8 5481.78 5542.21 5043.05 4002.16 4138.16 5693.81 3486.22 4684.5 3091.3 5789.98 6138.47 5697.4 4727.62 4055.8 7325.81 5280.17 6425.26 5143.58 4484.76 4840.01 5611.2 7933.0 5525.39 5938.34 5173.87 6394.38 5118.27 4686.65 5169.36 5556.96 6052.7 3921.18 5891.05 6902.81 4254.17 6644.76 6372.62 7565.34 5091.39 6756.95 6324.23 4151.94 4651.28 4382.74 4384.42 4516.43 3103.0 5637.59 4948.92 3307.12 6084.86 4937.14 5478.92 5924.89 4778.34 6894.71 4414.54 2540.31 6029.66 6302.8 6038.2 4270.95 5206.78 4005.44 5555.88 6732.43 5028.96 6362.12 3866.16 5152.36 4220.65 4455.12 5380.13 4894.16 5711.87 4941.22 5932.23 5834.74 5788.23 5581.75 3798.62 6392.01 3666.57 5308.1 4937.02 5629.19 5090.24 2240.39 5923.5 5096.78 4612.68 4727.24 5293.9 4129.43 3320.52 6142.94 4931.38 4685.34 4329.05 6082.81 5927.43 6355.42 4362.19 3693.63 5690.56 3115.91 4493.48 4749.8 5810.84 5094.44 5551.36 4467.94 4850.81 6038.14 5120.49 5262.61 5201.36 4306.53 5409.61 5094.81 5972.06 4312.67 5713.22 5861.71 4359.04 3183.98 3794.63 5017.78 4524.28 3778.1 4511.82 4727.24 5826.64 6820.42 4816.2 6321.41 4896.52 4751.02 3372.79 5184.56 5282.64 5791.61 3369.13 4715.72 4479.66 5367.2 3043.85 5461.13 6730.19 4907.89 5655.21 3735.44 4786.6 4073.93 4645.41 5740.84 4973.83 5530.87 3912.37 4281.49 6342.25 3843.58 4602.25 6691.39 4194.5 4792.73 4736.58 3485.26 4556.36 5110.37 3191.99 6327.9 5492.26 4220.88 5762.84 5244.78 3937.74 5478.47 5082.6 6142.37 4230.54 3748.24 4655.49 4933.21 5375.47 4566.18 4723.12 4964.09 4809.42 5024.9 5659.17 6135.57 5998.38 5423.8 4270.24 4989.15 5015.69 6175.81 4947.52 6677.09 4305.57 6959.81 4829.35 5201.67 4424.7 4089.76 3192.41 5526.55 4987.87 4669.66 3315.57 4808.52 5607.24 3599.45 4726.76 4907.06 5839.13 5495.68 5163.9 6043.3 4433.59 4310.18 6445.94 4320.28 5542.14 4218.06 7134.64 4270.53 4790.08 5191.63 5082.47 5344.25 4043.57 4501.51 5379.87 3708.04 5513.6 3240.09 4901.41 5264.06 5664.98 3688.8 3369.23 4048.37 4659.59 4548.16 5449.18 6519.71 6640.13 3092.35 5210.03 5351.39 5119.37 6061.47 6163.38 4997.27 3459.9 4093.08 5543.27 4717.05 5287.2 4234.94 4562.29 5013.13 5080.66 3417.33 4926.42 4164.13 5248.77 4642.34 4083.97 4520.1 5874.89 5813.4 4293.03 4389.21 3791.79 4925.44 4128.98 4754.05 4951.47 6084.93 5215.15 5804.71 4764.96 5020.12 5046.33 5727.3 5053.92 4242.52 6352.26 3057.03 3847.38 3818.59 4863.72 5489.34 5952.75 5708.14 4262.82 5537.72 4931.53 6332.36 6122.55 5480.13 5978.9 4187.56 3629.62 4997.27 4840.84 5135.69 5344.0 4593.7 6045.46 4763.45 3771.48 4478.15 5681.38 4138.42 5987.17 5925.6 6013.14 3979.82 5138.31 4602.86 2765.2 4621.75 4581.13 4219.07 4551.24 5358.59 3610.4 4515.71 5367.52 4322.15 4714.54 3629.96 3320.11 5030.91 6022.17 4583.31 3982.23 4503.89 5806.08 4336.42 5243.29 4853.39 4449.22 5628.24 5856.11 3327.49 4109.88 3960.8 4980.85 5714.58 3329.99 5110.45 5208.32 3296.27 4607.02 5153.74 3895.51 4528.09 4165.81 3556.85 6291.51 5882.89 6246.22 5246.61 4307.28 3697.96 4100.38 4739.42 5538.93 4899.11 4745.45 5281.28 2631.9 5356.51 4277.88 4087.15 4143.08 5002.48 6623.85 3920.42 5102.36 8332.24 2739.94 6155.31 6308.71 4716.19 4301.06 3456.98 5514.76 3815.26 4290.14 4020.32 4150.99 5445.87 4216.92 4704.72 4177.94 3929.19 5922.5 4107.03 4271.69 3970.25 5198.77 5643.58 5147.67 4292.06 5006.58 5011.31 5586.81 3856.59 5413.79 6387.01 6202.55 5025.39 5893.5 4547.19 5507.24 6851.54 5570.3 4306.11 3402.32 7589.94 3130.65 5004.67 5365.89 5992.26 5070.39 4511.54 4923.9 4973.78 3947.47 6119.09 5091.68 4713.25 4204.84 6243.0 6673.96 3161.47 5441.96 5174.89 3435.9 4288.3 5370.52 4652.29 4188.32 5774.81 5344.77 4723.48 5027.98 5097.87 4278.07 7267.18 6255.18 4668.71 4758.21 7500.97 3948.23 5228.18 5787.31 5065.11 4342.9 4553.56 4223.33 5329.64 5911.67 6695.82 3323.28 6405.76 5835.78 4877.67 3498.2 4245.72 4571.7 5908.1 4742.68 4344.58 5634.83 4862.21 4502.5 5113.21 5499.11 5347.48 3633.87 2775.04 4138.46 4850.01 5215.05 5577.04 4986.77 6318.18 4481.53 5330.45 3948.17 5077.33 4746.52 3689.45 5572.95 6338.89 5584.06 7111.16 3686.21 6480.17 3817.13 5023.15 3844.9 4377.07 3695.36 5101.59 3963.86 3848.93 3813.22 6020.48 5935.47 5903.66 4528.49 5419.37 4466.03 5275.32 5409.33 4898.94 5196.0 4178.15 4694.83 4613.31 4733.04 5788.66 7531.29 3903.75 5069.25 5048.89 4755.47 3991.03 5935.03 6390.78 7435.25 6826.57 4495.87 3746.31 5498.32 5527.33 5346.27 6475.1 2691.29 6256.02 2845.98 7228.46 5320.92 6362.14 6719.88 5978.82 3927.99 5069.84 5868.82 4050.9 4051.44 5709.62 6049.55 5941.72 5794.24 6562.18 4541.21 3066.13 4302.5 6048.7 4156.38 5896.46 6009.88 5495.84 4164.68 5022.8 6268.1 3784.5 7034.11 5782.6 6261.42 4011.77 4527.08 4374.35 4810.12 6898.19 3821.72 6035.6 5137.34 5198.29 5423.0 3975.31 5125.78 3824.16 3868.18 5045.38 5350.88 6723.16 5372.61 5402.24 4519.22 6445.22 4564.34 3838.56 4871.44 5076.35 6375.99 5200.05 5273.35 5234.29 4645.58 5313.66 2651.49 5512.23 4711.62 5985.29 4247.23 4268.65 5509.42 4354.08 5936.36 4520.62 5229.48 5475.7 4485.99 5127.16 5475.8 5314.69 6050.81 5543.46 4249.46 4788.87 5965.81 6022.72 3702.37 4643.31 2330.66 4177.19 6917.52 4969.21 4880.14 4989.09 4982.31 5289.52 5269.18 4406.1 5314.85 4305.43 5034.59 5450.44 4942.77 5080.18 5266.5 4523.88 4066.38 4978.31 4241.89 5054.74 4099.77 4981.9 4127.74 4537.32 2476.04 5991.09 5105.16 6006.16 4678.38 5316.75 5050.65 4827.33 7055.53 6133.92 4178.4 3719.84 5729.23 5669.65 5934.22 4359.62 5820.48 5253.55 6946.21 2586.12 5433.8 6125.34 5965.78 6396.74 5252.34 2965.79 7099.43 5526.14 4044.45 6449.45 3627.82 5344.43 5262.19 4373.47 6070.58 6034.41 5130.91 5452.83 4959.34 4948.5 4527.02 4531.14 5013.42 5651.07 6248.81 5872.05 4853.02 4091.8 6259.23 5181.4 5670.2 4114.24 5166.79 5349.31 4649.22 2976.22 5394.55 5094.52 4256.43 4946.74 2682.24 5928.32 5415.19 4612.62 4016.18 5526.75 5435.74 4244.99 5327.45 5560.26 6185.89 3997.96 4750.17 5660.85 3460.94 3990.25 3691.0 3758.07 4752.51 3587.05 5402.21 6229.37 6718.19 4307.48 3848.54 5941.4 5331.02 6510.17 5742.65 4263.33 4454.63 5592.32 5912.61 3279.1 4403.98 4948.98 4414.48 5227.52 5163.02 4656.78 4092.24 4562.74 5126.91 5448.61 3942.07 7443.72 3937.08 5513.57 5013.67 5260.34 5206.48 6586.45 5826.04 3780.23 5624.49 3095.48 4861.06 3979.26 6608.73 3471.03 5188.81 5011.84 3745.84 5696.88 6057.22 5062.71 4497.59 5975.63 5564.02 4274.61 4410.55 4287.63 5315.4 5776.37 4516.28 5678.96 4244.9 4285.32 5490.43 5022.28 5197.52 5178.99 5383.07 4591.87 4790.78 4247.15 6422.84 6552.22 4602.85 5210.48 4962.77 7552.94 6101.92 5323.3 5088.44 4998.21 3457.48 4662.56 3931.07 3405.98 5417.15 3688.16 4681.72 4945.39 5996.33 3950.63 5661.62 6631.19 3619.07 4467.04 4275.57 5626.61 6385.23 2983.99 5817.25 2614.4 6363.92 6205.93 4439.35 5830.72 6184.4 3828.81 4373.45 4236.14 5733.62 4407.87 5282.51 5282.91 3797.33 4425.84 7256.35 4871.96 4800.69 4863.23 4402.67 5381.16 5565.13 4560.84 4729.43 6086.96 3701.27 5233.78 5776.57 5133.97 7144.24 3600.43 6600.94 5371.02 4788.58 6155.1 4709.35 5876.71 5226.0 5339.78 4166.08 4750.78 6481.79 5762.59 5320.28 4298.67 5960.66 3999.48 4962.09 5654.31 4203.26 4730.41 4643.85 3923.03 4004.04 5690.26 4156.2 5607.14 4289.17 6915.83 6072.45 4470.98 6444.77 5759.46 6314.07 3921.08 4190.31 7055.42 5486.68 6048.86 5100.25 6894.26 4986.51 5311.03 5339.38 6169.11 5615.35 4027.09 4135.62 5379.09 4502.18 7644.38 4051.34 3627.55 6239.84 4635.6 4256.67 4427.28 6079.11 3082.32 6430.39 7440.72 3658.37 3949.6 5703.6 6326.18 4867.08 4266.03 6648.68 4713.74 5407.78 4084.49 5061.98 6632.99 4537.6 4923.24 4419.61 7177.44 5309.98 4563.46 4082.57 5255.18 5169.9 3004.16 4460.92 5945.89 4042.28 4105.55 4340.76 6566.1 3555.86 6386.78 4470.61 4996.99 6193.35 4631.83 4384.88 6887.27 6008.49 4806.34 5683.26 5653.9 5598.74 5046.21 4906.82 5131.24 5196.67 6442.69 6496.67 4373.3 5474.8 6262.72 5029.78 5374.51 3365.82 7092.87 5224.12 4850.14 4970.88 6739.08 4569.12 3637.61 6098.14 4796.58 4472.17 5750.71 5873.69 6222.42 5470.77 6062.05 5082.74 5411.85 4844.57 5092.37 4027.46 4864.22 3901.8 5511.88 5083.41 4512.11 6248.6 3836.45 5683.61 5805.86 4049.02 4470.4 4611.53 5255.12 4285.66 4896.11 4318.48 5172.53 6132.95 5801.99 5534.94 4860.33 3685.13 3312.06 6004.68 5180.76 3361.26 6799.4 4409.63 5865.39 3661.9 5370.85 5949.46 3178.54 4765.02 5376.71 4448.13 5070.29 4807.28 2261.36 5075.55 5280.69 4220.03 6923.84 5449.46 6179.96 5703.07 6113.54 5147.36 6260.79 3963.76 5528.53 6553.94 5726.66 5460.65 4767.78 5235.17 4779.5 4421.12 4435.36 6065.22 5254.49 4221.28 6649.96 4456.39 4896.39 6081.14 5480.83 4220.46 4607.85 4287.53 5612.21 4929.14 5894.61 5945.08 5687.83 5139.5 5004.23 7493.3 6320.71 4814.55 4648.04 5833.06 3527.05 6607.87 3664.11 4123.6 4163.5 4538.95 4143.78 5965.15 4763.66 7042.12 4666.81 4797.52 6343.14 4471.58 5501.93 5463.38 5945.21 3493.7 4938.74 3474.39 4831.47 4200.03 5516.95 6939.12 4735.33 4406.4 3999.94 4413.85 6171.13 2395.5 4020.4 3497.9 5941.61 4933.65 6098.1 5443.58 4558.46 5687.85 5346.68 6401.43 5020.71 5296.29 2681.29 5094.48 5839.71 3872.61 5576.92 4238.4 6408.83 3930.79 5266.22 5226.97 5754.18 3418.99 5132.68 4480.95 5278.36 6218.95 5521.25 5107.23 5136.08 5558.68 3776.94 4010.57 5629.39 2684.03 6157.04 4768.61 4522.21 5506.19 6719.94 4950.67 5227.59 6166.29 5453.6 5294.77 4662.43 3077.84 4709.05 4043.66 4630.82 4813.08 6799.88 3062.43 5426.78 2967.38 5652.0 4159.35 5463.41 5225.33 4237.98 4929.75 6045.22 4614.3 4303.19 5514.84 3633.79 4256.57 3914.2 5421.53 5937.08 6070.3 5128.57 6000.7 5604.21 3979.54 3169.67 4968.03 5304.13 5944.09 4863.79 5698.77 3464.83 6515.84 2477.07 5117.47 5724.64 2990.77 3163.78 4925.63 4888.6 3293.56 5078.86 5882.65 4780.2 4918.77 5163.55 6326.39 6817.32 4319.79 5960.56 6643.85 5774.97 4020.95 5462.21 6313.06 5374.98 6345.13 6470.3 5274.19 5599.49 4719.7 4097.57 5313.22 3905.51 5563.79 4151.76 6853.85 3493.47 4596.75 5782.48 3374.08 4031.78 5950.04 5708.99 4231.83 2435.33 6333.29 4558.47 5997.88 5731.57 5662.55 4360.23 6234.32 5365.24 4004.35 5293.51 4763.96 4446.06 5008.63 4270.74 6293.89 6595.03 4993.35 4983.39 5366.52 5222.16 4690.55 5533.72 5533.42 4802.32 4599.38 3678.08 5246.47 4187.31 6191.29 7422.36 3240.51 5161.01 4298.15 4628.4 5832.37 6051.83 4642.93 5409.63 3973.12 4263.16 6024.75 6109.49 5860.67 4540.86 5990.52 3764.1 4835.83 5604.35 6477.91 3091.67 6439.37 4081.97 5401.99 5134.39 5784.3 5769.98 6088.68 2221.99 4643.56 4135.08 4863.01 5620.74 5233.29 4312.56 4612.06 5204.04 3361.92 5490.58 3306.14 5395.14 4702.06 3967.48 4923.41 4497.31 4721.32 4305.16 5092.28 4739.14 5274.14 4636.5 4434.19 4819.73 5100.1 4940.42 3382.7 6471.55 3954.91 5085.71 4946.42 3295.83 2965.01 6263.44 3492.19 4863.27 5122.63 4118.84 6766.43 5862.86 2315.64 4703.08 6049.79 4390.41 5226.56 6113.95 4050.08 5452.42 5017.5 3436.15 5328.22 5711.11 4216.17 6484.17 4575.94 4721.02 4938.72 3546.71 4254.37 5768.57 5564.23 4188.87 3735.24 6574.95 4074.48 6817.57 3614.96 4477.04 3886.68 5703.74 5737.92 4747.55 3056.7 3755.95 5591.76 4585.31 4586.19 6625.18 3450.93 5323.91 5097.45 4185.61 5737.75 4558.15 2761.07 3778.02 6552.21 5417.8 5146.37 7132.12 4836.16 5518.57 5151.11 5463.48 5730.33 4527.99 5545.46 4543.1 4376.7 5190.61 8325.01 3764.06 4440.81 5941.9 6642.76 5434.47 5829.22 4497.78 5567.93 5987.42 5332.65 4442.22 6451.33 5413.31 6316.56 4332.87 6420.81 4715.58 3317.83 5580.92 4450.7 3532.3 5151.52 3583.21 5973.33 4347.74 5442.32 5291.9 5067.46 5356.79 3580.58 4011.37 4778.82 5657.36 6124.08 5467.84 3619.79 5029.47 4750.58 5053.95 6710.88 6667.68 5235.11 6213.04 5211.38 3830.46 6031.67 6413.11 5529.42 5384.76 5257.12 4903.82 4965.89 4371.99 5746.28 3703.1 5187.7 6090.91 3561.29 5923.4 4963.34 4623.61 4219.78 5081.78 4459.28 4260.92 5499.39 5644.82 4407.9 6413.02 4440.57 6235.57 4584.5 5548.29 5412.31 3087.09 3623.87 5916.16 6934.37 4890.5 3731.84 4488.85 4579.69 3981.07 4901.07 3554.48 5186.3 6496.52 5005.85 4893.49 5325.44 5021.88 4597.29 5956.65 4200.09 4498.25 5931.77 5151.21 5398.64 3573.73 4693.52 6853.04 3420.08 4745.43 5831.96 5464.68 4539.07 4475.83 2685.81 4510.8 5889.35 5010.04 4394.56 4570.98 4275.07 5825.38 4573.72 4047.87 5742.47 5099.21 4917.99 5636.4 4367.78 4350.12 5227.02 3603.51 5670.0 4232.16 5300.96 4344.51 5680.94 3781.77 3834.43 5581.55 5193.01 3474.5 6550.44 3860.83 6348.03 5732.27 4523.39 5278.56 5146.37 6917.62 5631.14 4243.79 4343.78 5811.18 5263.3 5433.65 4008.15 4887.76 4669.06 4811.32 3012.99 4286.49 6400.08 4743.59 6184.88 5208.14 5829.32 4396.25 3763.05 5092.24 5369.08 3101.75 4518.04 4766.06 4009.62 4874.18 2511.46 2081.58 6505.78 2775.69 4785.25 6519.43 5876.64 6306.21 5926.11 5253.37 5767.9 6515.8 6622.11 4689.15 6138.12 6790.73 4428.78 5243.43 5659.95 5409.66 4152.85 4082.47 4537.14 4453.64 5551.9 4188.3 5019.93 5235.29 3885.86 5177.64 4541.8 4255.31 6116.33 4479.94 6250.23 3838.47 2588.37 4718.54 6736.03 5203.08 5374.07 7480.41 5163.77 3766.55 3423.15 6027.62 5010.2 6123.03 4997.83 3991.42 5966.61 4388.63 4834.87 3672.21 5102.75 5760.22 5938.17 4795.43 5097.95 5108.06 4914.45 4222.4 4000.43 4661.03 4568.41 3624.7 4912.04 4320.42 4691.91 4255.34 5064.79 5480.3 7509.24 5896.26 5388.78 6101.13 5599.7 4163.74 6969.28 3665.95 5698.96 4095.75 4298.45 5222.51 6609.84 5164.1 5135.96 5658.37 6464.15 4707.06 6074.94 5491.37 4250.88 4222.77 3783.54 3475.67 5268.38 4792.39 5527.23 7038.89 3863.67 4814.12 4013.38 5067.56 6137.8 3352.35 2735.53 4909.65 3747.03 5116.6 6523.86 7693.4 4326.48 4437.07 3449.37 5491.9 6405.0 5551.95 4659.16 3918.87 5549.49 5423.42 6605.86 5012.5 5435.19 4270.15 5461.55 3298.2 6865.76 5424.46 5266.01 2978.76 4857.84 4908.49 2040.66 7016.27 5884.9 5089.62 3685.13 4590.55 4655.16 3876.21 4741.26 5869.4 4916.22 5920.32 4186.6 3701.16 5251.4 6022.7 4345.67 4255.85 3867.19 5097.69 5511.6 4765.72 6261.75 4517.73 2908.7 3757.34 6415.61 4338.08 4752.14 4378.3 5037.06 5660.16 6134.99 5842.56 4094.73 5453.3 5191.08 4062.5 5887.15 4435.51 5415.85 8659.64 4588.7 5683.95 4055.54 6419.12 5469.13 5765.42 4233.8 6098.95 4976.12 4817.16 5453.98 5148.08 3718.69 6192.0 4514.79 2216.82 4940.28 4509.89 6752.75 3004.34 5269.38 3022.6 5607.3 2928.82 4811.76 5313.12 4698.87 5351.56 3984.88 5318.53 5160.59 5262.35 4732.09 4281.98 7165.9 5344.83 7046.11 3427.63 4146.81 6342.48 5756.75 4587.67 5951.81 3924.14 6918.35 4296.69 6238.32 3319.67 6804.79 6471.42 5283.8 4076.59 5369.5 4428.14 6016.19 4479.11 4124.49 4972.17 6685.4 5699.53 4850.06 6332.01 7044.29 4805.33 7085.01 5980.95 6193.08 6069.3 5887.01 5168.35 5388.39 2783.85 4356.49 5335.47 4526.81 3994.07 4219.94 5907.46 6740.71 4264.91 5399.29 4633.05 5789.55 2275.45 4901.2 6522.59 5711.62 3562.79 4383.56 4990.79 7093.13 4953.1 5818.95 6449.64 4093.99 3940.49 6464.8 4962.21 4684.44 4749.59 3468.42 4858.44 3685.65 4673.35 5799.69 5689.26 4992.42 5297.19 4940.84 5895.77 4732.09 3988.3 5857.79 6136.49 4039.91 4642.66 5276.7 4687.64 4419.71 5469.47 4888.12 4244.21 5411.02 4950.97 4989.56 4287.16 5175.29 3645.12 4863.96 5199.44 6200.54 5424.88 5148.58 4199.45 7234.66 4207.54 6599.66 4886.12 4301.61 6107.89 4446.84 5530.49 5660.55 5653.03 5578.94 7610.49 5885.28 6579.31 5323.55 5375.1 4172.6 5498.42 4196.37 3344.57 6448.66 5220.76 6945.98 5138.2 5783.48 4701.5 4449.98 4504.35 4863.97 4771.65 4840.44 5093.82 6639.64 5212.43 5454.12 3687.65 4834.3 6348.54 5642.35 6372.13 5404.01 3230.13 5535.91 5714.25 6176.67 5325.96 5412.24 5016.02 4234.18 4049.16 4920.21 3936.95 6153.94 6836.82 3862.77 3858.17 4631.99 4740.98 3185.39 5128.77 3728.18 7122.87 5633.61 5048.19 4243.26 6799.23 4888.27 4592.15 6487.56 4854.11 5971.22 4998.22 5533.19 4909.31 5417.21 6602.43 4798.17 3568.28 5425.98 5166.79 4516.53 6479.39 2895.63 4122.92 4997.91 5079.22 3604.14 4452.54 4680.94 4406.05 5828.35 5571.72 5876.72 3809.69 5236.43 4771.13 3208.96 5285.07 7051.9 4608.41 4680.14 4184.23 4144.57 4351.38 4833.46 5750.07 5550.75 5933.7 6543.13 4757.74 5149.72 5036.58 4356.25 5776.96 5329.59 4209.49 6119.63 5464.25 3821.94 3498.16 5439.9 4752.9 5512.16 5301.47 3197.63 4617.55 4947.24 3456.47 3875.05 3540.11 5471.74 4344.34 4652.01 3548.39 3583.49 5421.64 4858.51 3673.28 5052.84 4366.74 3375.28 5625.65 5297.16 4936.96 3184.64 4481.76 5206.33 5375.12 5452.78 5065.26 4304.41 4892.44 6789.23 3989.7 4157.29 4777.03 4286.17 4246.61 3684.56 6028.09 5452.36 3804.5 4609.02 6486.37 4638.18 5211.6 5806.31 3556.79 4453.97 3503.41 7317.04 6412.67 7001.83 5012.97 4036.91 5589.37 5110.11 5439.49 6379.14 5216.26 4887.52 5478.95 3851.85 4066.57 6318.23 4206.98 5156.76 6357.47 6101.57 4891.38 4793.65 2949.12 5955.86 4532.89 4533.37 4848.46 2779.99 5742.09 5887.38 4581.37 5807.46 6942.34 5851.61 5478.11 5526.31 5030.15 3644.78 3477.1 4078.93 5934.82 4501.78 3572.94 5797.36 5001.58 4153.84 5119.86 5089.26 5084.17 4901.44 5415.45 3776.8 5096.43 6156.21 6104.26 5583.61 6063.64 5996.66 4986.71 4405.42 2995.67 3598.08 4599.81 5381.54 5522.21 5698.23 5810.77 5089.1 4028.32 2711.19 4714.83 7519.2 4099.92 4884.59 3858.06 6355.68 4478.6 4083.79 4511.7 4187.94 5980.59 6834.41 4809.67 7248.4 6045.67 4216.95 5280.12 5742.74 7216.98 3946.28 4444.97 5984.81 5721.05 4209.31 7013.17 5486.48 4409.27 5367.73 4247.69 4640.06 4588.99 6242.79 4321.21 6506.86 5950.45 5713.03 5580.34 5849.65 3852.6 4928.27 4165.21 5775.31 3332.49 4215.0 4603.5 4647.67 5354.66 3566.79 4214.44 5378.23 4787.97 4356.36 4981.43 3746.36 4741.28 4215.2 5069.89 5107.0 6212.15 6813.72 4783.07 5327.75 4946.23 4896.65 6083.28 6100.73 4745.79 5456.71 4908.75 3971.08 6556.26 6204.65 4482.9 4593.7 4349.13 4891.67 6818.91 3503.65 3634.5 6631.28 6571.31 4392.65 4058.87 5174.75 5932.07 4984.46 5948.71 3856.53 3992.97 5460.89 6040.74 5260.85 2884.65 5393.65 4961.99 4648.21 4393.16 3658.05 4549.69 3311.29 6423.81 6192.77 4312.15 4583.52 6418.11 6015.02 4922.49 5244.22 5585.14 7039.98 4820.17 4729.42 4159.81 5244.98 3886.72 5792.98 6592.93 6350.71 6436.74 2460.79 4456.11 4653.83 5096.24 6171.71 3628.89 7382.3 4022.56 4668.88 5027.43 3772.3 4855.01 7300.58 5474.15 3608.06 4923.57 6633.61 5217.95 4867.7 5484.36 4304.63 3953.55 4063.9 5263.27 4314.56 6300.92 5021.77 5161.1 3796.15 3928.53 6226.14 5466.33 4801.8 5740.65 6038.68 3000.29 5046.12 3834.47 5271.02 4807.4 6329.53 3805.67 4590.01 5718.28 4514.39 4601.74 6101.86 4227.41 5993.0 5088.57 5391.48 4803.57 5966.42 5134.67 4110.59 4847.14 4706.5 3950.27 5116.66 3629.44 5003.78 5374.67 3299.24 6246.56 4061.6 5473.72 2603.64 6214.73 2856.55 2205.51 4553.68 5361.87 6502.97 3758.22 4757.2 4852.58 4532.7 5561.74 5975.23 4788.08 4198.94 5470.04 4211.82 5684.25 5438.92 6550.4 5036.98 3766.69 5513.8 4521.75 4027.63 5569.2 5350.88 5420.67 6413.15 6103.11 5048.55 6459.51 4024.31 4955.16 5844.72 4147.31 5989.05 4054.22 7228.94 4441.22 5853.89 6551.93 4595.12 3110.13 4386.8 6484.43 4625.67 3485.54 4458.64 3657.69 4883.63 3492.83 6280.13 3684.15 5832.29 4438.76 6456.58 3965.3 3814.65 4960.64 4983.3 4385.81 4034.05 5690.96 5798.38 3862.91 4125.9 5366.11 5039.12 3908.98 3419.87 6589.82 6328.42 7307.21 5522.75 3619.72 5867.64 6208.9 4438.58 6059.93 3340.09 5602.53 6061.63 2279.05 6545.43 4829.35 4075.28 4277.24 4989.2 4469.54 8137.11 5291.05 6650.77 4173.54 5606.51 5599.29 5166.41 7104.73 5067.56 2596.96 6162.3 6349.67 4350.15 4264.54 4139.3 3516.27 6541.45 4263.78 4750.49 5078.31 4643.9 5228.75 6047.14 4923.43 5009.83 5131.15 5666.95 5210.38 4642.2 5717.8 4127.53 4811.22 3683.86 4474.83 4918.76 5293.75 4208.41 5730.61 5826.78 4508.18 6358.93 5175.89 3894.64 6618.21 3703.49 4268.19 4374.74 3717.47 3205.68 4062.56 4051.18 6200.63 4504.86 3217.67 4473.29 5079.64 996.652 6163.54 5212.37 6003.78 2628.22 5965.58 5058.51 3352.34 4901.29 4244.49 4050.03 4775.04 4120.07 5188.53 4882.66 3429.57 6746.66 5410.33 4642.74 6735.97 3908.56 5305.59 3636.15 5416.45 4330.58 5754.6 3288.01 4904.51 4355.83 6870.97 2202.77 5751.15 5950.88 4149.55 6201.86 3380.69 4140.4 3639.44 5446.4 4725.01 5966.75 5510.9 3743.76 4505.28 4971.29 5510.45 4730.14 2606.51 3994.39 6006.89 3864.92 4618.73 2955.36 3668.93 4128.1 5372.82 4009.24 4402.17 7778.01 5127.82 5124.17 5805.1 4064.58 4824.81 4234.88 4384.28 5769.14 5944.3 3563.14 3381.82 5135.5 5347.9 4646.51 5851.63 4565.93 4504.52 7107.63 5073.02 4831.93 5788.97 6760.92 3472.91 4023.93 5868.89 4711.04 5484.32 5007.21 7144.05 4619.2 4067.96 4506.18 4824.12 2970.9 6542.5 4383.47 5971.21 5701.75 5262.47 5261.19 3104.96 3512.94 7043.44 4263.65 3831.52 4587.7 4258.98 6106.43 4807.35 5467.63 6761.81 3903.91 4568.64 3919.62 4929.6 5750.35 5210.75 4548.45 6555.44 4551.26 5658.14 5114.07 4385.49 7124.45 4383.68 5064.67 5836.26 5232.85 2617.39 5144.44 5969.37 6816.66 3844.54 5034.69 5849.53 4509.46 3538.53 4680.69 4420.11 6500.49 6127.39 4972.18 4607.18 4124.76 3899.7 7200.89 4813.33 4952.52 3840.21 4081.34 4954.76 6334.53 4844.83 5244.78 5652.87 6114.89 5135.63 6384.7 5952.38 3896.27 5351.86 6056.87 5474.01 5230.02 5307.35 4342.18 7554.58 5166.89 6016.08 4731.21 5491.63 5725.37 3868.62 5138.33 5153.18 3425.69 4763.4 6711.21 4236.86 5393.76 4941.02 4983.1 6119.99 7123.04 5906.57 4446.58 5401.4 5053.15 5910.86 6239.68 3220.29 7320.78 4834.44 4439.71 5782.43 4456.26 5113.6 4027.33 3873.92 4810.98 5091.22 5640.72 6282.38 4546.44 5657.55 5727.79 5212.92 5615.84 4928.85 4464.73 4717.73 6440.38 5556.0 3274.85 5545.59 5494.28 5610.53 4099.26 5206.47 4580.06 4834.39 4835.97 3926.11 5493.89 3272.75 4057.17 7066.96 4467.0 4991.35 4994.65 5601.55 5196.92 3787.08 5644.81 5334.36 4728.55 5630.9 4554.68 4368.28 4512.07 4692.32 4489.99 5984.8 4945.0 3127.83 4658.11 4212.15 5678.58 6570.35 4263.18 3269.54 7142.95 4559.74 6015.22 6666.67 6063.44 4583.94 5046.31 4928.35 1937.5 5241.75 4731.53 4651.99 3763.9 4788.7 5863.0 5640.12 5329.76 5078.59 2403.72 5134.33 4147.49 4802.98 4833.55 3646.95 7224.99 4749.96 5377.37 5869.67 5483.7 5018.69 3152.86 5457.66 6394.19 5973.89 5807.52 5963.36 5518.11 5087.14 5712.35 5169.48 4743.9 3124.7 6064.71 6102.98 3719.11 6060.17 5136.87 5902.67 5454.11 3779.45 5806.61 5784.37 6010.59 3682.35 3756.96 6110.48 7541.76 4775.49 4681.29 5499.59 3784.94 5749.6 3845.9 4141.21 4174.44 5667.51 4708.31 4198.9 5026.76 5431.29 5023.41 5325.91 4092.07 4213.05 4224.3 4184.21 4700.07 5188.82 5043.14 5273.37 4732.37 4985.3 5072.5 3904.07 5748.9 5553.94 3663.0 4954.81 4546.96 6304.49 5755.15 5134.72 4608.34 5695.79 6419.64 5464.83 2781.96 5414.58 4431.23 5917.34 5740.98 4462.87 4346.07 4013.86 5759.79 6545.99 4177.47 4218.16 2918.64 6139.64 4140.92 4756.8 4896.43 5463.06 5236.24 4585.04 3986.41 5260.52 3185.09 5114.23 4242.63 5495.0 7407.91 5064.23 6061.85 4454.74 5512.44 2904.46 4826.52 5120.92 4337.32 4685.4 6240.42 5146.0 5721.14 4577.73 4288.45 4987.28 5084.5 4918.64 6638.25 4759.99 2646.13 5419.57 5162.67 5760.98 4636.53 4705.68 3629.49 5469.35 5384.86 3835.81 4019.34 4658.24 3623.19 4906.11 4311.48 4387.39 4899.73 4564.1 5825.55 4848.14 5366.22 6193.73 3742.11 4192.21 3597.43 5701.52 4158.91 6776.22 3360.86 5321.17 4869.25 4467.13 3877.8 5545.21 6273.6 4333.87 3667.93 5024.32 4708.17 2741.2 4644.88 5790.42 3142.09 7350.26 5591.77 5182.13 5003.3 6245.52 4932.29 4990.23 3954.77 6793.1 6016.87 3125.13 6715.73 4506.66 5209.55 4564.41 5426.4 6331.74 5951.86 4833.67 4252.18 4659.88 3791.41 5853.12 5157.38 6203.03 5702.4 5069.9 5235.87 5473.89 6089.45 5810.17 5713.36 4966.07 4657.24 4400.14 4749.18 3669.32 4704.92 4762.1 3987.69 3742.31 4316.0 5424.55 4287.25 4921.1 3814.16 5287.25 4420.6 3622.8 4589.06 4770.51 5577.41 4184.47 6511.37 4216.44 3999.5 4012.92 5034.05 4598.54 5218.42 5345.73 4933.49 4770.63 3990.94 4357.11 5477.8 4176.32 4639.8 4462.35 6069.78 4241.68 6102.49 3469.18 2945.34 4095.83 3372.95 4489.29 4301.93 5846.95 5268.15 5819.0 6449.06 4924.07 3200.6 4629.02 5914.5 6006.16 5407.96 4071.75 6206.98 6562.03 4815.47 4368.12 4410.82 4365.58 5214.4 3889.98 5193.58 5766.05 5399.43 5117.64 3916.42 5429.3 4869.48 5510.96 6653.07 4745.16 4697.91 4584.81 5509.51 5071.98 5719.79 4316.5 3199.4 4371.08 5254.24 4968.14 4914.03 5086.29 5144.56 5139.18 5311.55 5551.43 3034.16 5049.99 4201.03 5001.87 5684.05 5638.7 5813.79 4028.22 5293.13 3768.46 3852.82 5167.53 4168.52 5800.81 5106.46 4068.31 5166.05 5077.29 5515.73 4850.5 5866.91 5763.05 5129.68 5679.74 5357.39 4825.73 5076.84 4208.37 5247.01 4841.7 5685.74 952.938 6740.35 4678.7 3450.07 3673.6 3306.84 5265.21 4550.92 6215.87 5191.26 5866.42 5544.27 3484.81 6502.99 4392.75 4666.12 6219.34 4271.07 4191.01 4475.38 5674.63 5340.05 4920.88 5995.4 5890.25 5700.79 6710.14 4726.2 4426.02 4816.51 4711.15 3825.48 5188.22 3810.68 4841.23 2804.54 5005.6 2809.19 5486.89 7208.19 5532.75 6949.65 4975.85 5695.25 5676.61 6171.01 5716.42 5701.63 4620.95 6347.72 3460.93 4488.39 5124.86 4927.73 4602.57 3565.32 3763.85 4608.62 5344.44 4626.72 5131.77 5549.71 4967.51 6443.99 7212.97 5490.64 5034.34 5695.44 3422.21 4507.46 5036.14 5603.68 4944.51 5532.72 3220.8 5179.17 5270.51 5148.1 7261.51 5224.64 5949.73 4312.48 5527.13 6370.33 4278.57 5081.08 6318.25 6864.06 4493.79 6008.81 4279.44 4932.56 4899.19 5192.49 5058.34 3487.31 3918.94 5575.11 5487.63 6599.28 4507.36 7145.73 5403.97 4795.08 6562.92 5501.73 3671.06 3612.44 7035.54 5233.76 4683.28 6405.69 2820.07 6549.8 4851.18 4165.36 5288.33 6296.54 4871.77 5797.21 6019.35 6028.63 6075.99 5927.2 5146.1 6485.77 6060.06 3869.39 5960.5 5308.33 6896.55 4685.65 5377.01 6023.07 6470.23 6506.63 4140.04 4668.8 3495.3 5322.11 4697.49 5735.08 7133.44 4750.81 3953.26 4474.39 4658.59 6478.35 4196.62 5453.77 4916.7 5589.53 4549.51 5025.42 5196.08 3587.93 4517.29 4495.75 5323.95 4849.5 6229.83 5796.26 4603.04 4870.94 5368.93 5271.88 6121.56 7168.2 4571.74 3419.07 4096.86 5710.33 3622.48 5001.51 6432.8 3186.07 5115.42 4369.86 5482.76 5173.82 3720.7 4211.36 5698.53 3604.31 3769.2 4450.49 3468.45 5635.32 4526.34 5610.95 5409.08 5042.75 4598.92 5579.39 6647.08 4979.52 5490.75 4407.79 5214.63 3495.68 5783.94 5352.24 7362.42 4202.77 5836.14 5473.05 5537.34 5884.99 5726.42 6643.4 4674.9 3392.26 5461.72 2549.95 4361.24 6224.85 4556.19 5368.66 5648.78 6875.73 5226.42 4697.24 4983.43 5117.52 6311.89 6734.39 4217.36 4150.76 5005.72 5368.52 5155.28 5811.26 5062.77 4884.93 4600.71 5262.79 4494.15 5035.71 4419.79 5407.69 5152.78 4117.9 5393.43 4753.76 4638.09 4441.91 5330.26 5828.25 5939.22 4215.05 4271.93 5125.17 4859.01 4604.1 5524.45 5990.75 5600.21 5467.51 5459.92 4096.47 5114.67 4104.04 5353.66 2638.82 5030.33 5593.79 5234.2 4965.24 6379.38 6257.79 5353.23 4468.26 5578.18 5106.33 5293.37 5933.54 5559.79 2980.31 5879.24 5740.78 4796.12 5997.91 5385.86 6791.86 4082.4 4209.0 4930.72 3745.02 5728.58 4887.73 6297.99 5378.24 3856.73 5817.74 5887.71 4827.61 4316.45 5285.75 5481.64 5673.75 5241.22 5360.67 6263.3 3422.29 4501.05 4537.03 6548.29 3990.96 4326.06 5034.46 5793.12 5469.17 5061.75 4373.2 6022.78 4087.32 6647.85 7025.09 4433.12 7336.37 5099.9 5138.93 6406.8 7086.69 6170.9 5833.78 4436.48 6081.3 5615.35 3967.76 6213.24 5987.88 5942.45 3579.59 4228.53 6123.46 6142.88 5111.26 5388.73 5205.38 4574.54 4764.83 4949.55 4841.28 1969.87 3957.38 5507.38 6889.5 4710.88 5300.17 4052.43 4057.4 5534.23 4896.67 6025.77 4781.9 6815.96 5339.6 5917.08 4725.11 3626.86 6371.96 5322.07 5076.11 5770.07 5101.6 4282.11 6589.13 4625.53 2347.41 5602.62 4542.16 3543.37 2030.03 5628.97 5527.27 5104.39 4612.13 5846.6 5327.05 5438.55 4434.65 5977.66 4523.81 5209.5 5065.74 5791.25 5198.94 4028.35 5464.05 5453.2 3148.79 6348.93 6824.53 4332.64 4742.82 4820.68 4422.23 6031.22 5485.84 6424.77 5918.95 4538.89 5689.56 5661.6 6556.86 3242.31 6099.28 5385.03 5372.25 4169.15 3234.26 4778.37 5134.17 5968.54 4904.35 5592.54 3247.97 5124.34 4114.2 4904.37 4651.64 4358.81 5729.92 5757.29 5016.46 6224.13 4761.84 3769.24 3661.67 5517.65 4009.68 2569.12 4622.73 4161.32 5161.74 5932.28 6945.69 5118.86 4298.7 4183.4 4304.64 4733.79 4905.53 4823.06 5758.98 5254.49 5288.64 3757.23 6828.8 6161.94 4065.28 5057.59 4461.14 5285.6 5615.06 3132.34 5490.54 5203.54 4047.95 6142.94 5001.69 4416.87 6581.56 3980.46 5383.9 3934.11 5158.44 4466.22 3886.56 4496.51 6153.71 5483.37 5418.12 5092.93 5934.05 4714.66 6771.18 4984.17 4656.01 5781.62 4037.86 4138.59 5714.51 4938.33 4484.78 5157.73 4541.22 5847.91 4934.66 4984.01 4109.44 4903.84 4290.49 6688.53 5927.1 6175.27 5876.51 4873.23 6731.89 5410.6 5264.83 3901.53 5136.51 6815.51 5232.16 4457.05 3989.26 3618.64 5703.84 4335.79 5453.69 5432.04 5797.32 3921.27 3702.45 5265.63 4898.29 4431.06 5730.2 4830.13 3494.16 5370.9 4074.16 4529.77 4325.13 6172.27 5390.33 5078.73 5278.54 5729.0 5192.92 5275.57 4179.87 4786.66 5891.25 5370.1 5129.4 5114.51 3303.49 5585.25 5256.75 6351.89 6530.78 2960.5 5560.23 4975.32 3043.77 3902.48 5237.55 6030.39 3909.94 6589.8 3799.01 7392.65 5319.1 4181.93 6883.86 3820.19 3350.99 4979.5 4745.37 5939.29 5418.98 5575.11 4052.49 5061.74 5326.03 6189.67 4948.96 5117.83 5256.82 4013.86 4061.87 5165.31 3798.09 4288.5 5715.51 4511.05 3721.69 3456.3 6561.94 5259.21 4256.08 5881.93 2803.01 4444.0 4399.52 4554.24 6182.19 5327.39 7415.84 4981.81 5141.03 4970.55 8123.59 4621.33 5765.14 4767.54 4946.08 3539.68 4696.03 6217.33 4557.1 4605.39 6270.59 6500.45 4907.55 4103.76 2932.52 4286.61 4733.41 4603.66 4969.68 6636.43 5431.14 6298.8 5313.86 5178.07 5189.91 5777.26 4171.02 3530.82 7012.36 5028.06 4002.99 4886.99 5159.67 3161.1 5764.52 5684.88 6523.78 4645.86 4045.67 5620.88 4941.52 5900.0 4262.74 6241.77 3783.79 5317.19 4248.14 5279.19 4016.6 5821.49 7050.08 5580.44 5998.13 5095.52 4746.15 3720.38 4655.37 4758.84 4731.37 3976.0 5023.61 4068.41 4672.86 5059.37 5783.38 4139.39 6264.03 5088.64 3562.8 6920.92 3729.16 3783.36 3038.91 4067.89 3922.28 6570.43 3445.92 5236.69 4586.82 6026.04 6200.05 5859.17 4034.41 5522.34 5771.98 4420.35 5717.45 5772.57 5268.27 4645.93 5448.64 4585.37 6417.61 5395.12 5783.69 6074.39 5317.83 6738.9 4460.89 4157.1 8052.53 3939.96 4867.12 5910.66 4637.3 1458.87 5734.07 4840.44 3997.68 4819.83 4801.16 5121.08 2927.84 5688.77 6177.68 4698.7 2848.44 6045.26 4220.43 6263.87 5743.8 4094.63 5084.76 4757.87 3557.46 5971.95 3689.24 3979.46 6321.97 5151.19 6509.54 6119.0 5128.59 4293.3 5587.3 3572.73 4864.38 3770.22 4390.64 5150.84 4608.01 5087.97 6005.95 4308.49 4930.17 4581.1 4745.44 4085.96 5762.82 7360.12 6223.98 5462.6 5617.29 3035.06 4262.19 4597.88 4878.93 6275.25 6892.33 4505.3 4452.36 4832.21 6463.71 4742.35 5394.79 5645.54 5264.08 4526.87 4151.74 5192.82 5245.95 4174.22 3573.84 5821.42 4515.02 6294.09 4571.57 5131.07 4121.07 4197.87 3133.28 5524.28 5105.54 5731.43 6353.81 3518.14 3414.67 4150.44 5444.36 2649.69 5044.68 5899.78 3467.11 5000.74 4813.81 6153.26 5244.95 4634.25 3882.37 4095.4 5901.8 6351.48 3830.7 6210.0 5350.9 3483.61 4262.52 5992.06 5545.68 4970.12 6044.01 6520.19 5973.57 6241.48 6033.28 6286.27 5071.38 5616.66 4802.36 5368.28 5466.13 6229.64 5075.23 4975.56 7282.36 6666.34 4645.91 6605.11 6834.92 6379.33 5130.57 5652.73 5402.45 3985.93 6412.84 6071.59 2589.19 6079.55 3792.06 5485.61 4993.49 5310.33 6583.37 3688.83 3402.44 4848.98 4491.96 5184.98 4467.51 5339.82 4519.03 5460.57 5110.27 5703.34 4612.68 6668.98 6649.52 4232.33 4939.56 4747.68 5770.92 3093.38 4845.91 2002.78 5631.32 6322.0 5793.14 4511.34 4491.26 4609.65 5704.61 5009.21 5410.73 4379.91 4574.03 5290.37 5850.38 4227.66 4691.01 4594.89 4730.97 3677.85 5214.71 4677.84 4811.11 3463.53 4924.52 6126.03 6044.69 2970.24 5658.05 6593.1 5462.1 6032.45 5011.37 4026.03 2827.92 4441.44 6908.32 5336.61 4817.75 4848.15 5637.53 4439.09 5523.81 4718.61 5188.57 3873.79 5717.67 5357.33 5252.37 5432.4 5037.58 7430.48 5640.67 6080.69 5555.89 4967.93 6369.66 5678.08 5922.62 5125.45 5957.82 4188.16 6327.54 5507.07 2943.17 5327.71 4880.78 5257.38 5509.09 5625.02 4829.77 3826.01 3928.99 5581.01 4125.75 5749.53 5090.48 5034.02 5582.28 5945.25 3856.4 4696.06 4137.16 4937.36 5308.4 6581.13 4569.32 5537.61 6084.88 4397.06 4199.44 4053.12 4479.5 6261.67 3435.13 5065.78 4431.46 4521.42 3207.84 3977.98 6043.34 4128.93 4959.72 4712.17 3808.04 4723.71 4461.67 6126.5 4034.88 6007.1 6345.2 5488.96 5128.03 3720.92 4942.63 5087.3 6139.74 4975.57 7066.26 6150.31 3057.3 5873.62 4996.91 3920.44 5379.52 4866.8 3768.62 5314.67 5563.47 4066.36 4000.51 6033.93 3162.27 5516.37 5092.44 5432.2 4232.44 3312.3 4612.4 5563.09 4746.19 6381.58 3282.57 4798.13 5648.59 6697.45 5515.59 4432.32 3224.81 4499.54 3775.38 4046.22 6457.89 4844.2 6572.17 3751.73 3374.62 4766.47 4926.62 4871.1 6009.93 5872.45 4414.09 5191.29 3784.68 4947.64 3717.22 6305.9 6649.21 4654.92 3470.69 4859.95 5286.55 4322.56 5522.18 5223.1 3873.72 5212.05 4592.49 5479.86 6474.5 4444.92 4702.32 6959.88 5971.9 5247.73 3746.62 4532.67 4876.37 4769.62 5260.13 4649.5 5181.31 5985.75 5475.83 6189.29 5984.55 5672.46 5803.3 3228.27 4721.98 5252.82 3543.98 5056.26 5878.55 4014.44 6604.72 6002.77 3794.47 4610.55 4967.02 4614.49 5400.69 4462.5 5573.31 5004.68 4023.88 5348.11 4405.61 5108.84 3511.5 4520.14 5067.92 5357.14 3188.21 5919.27 4793.06 6637.38 6188.33 6111.23 6916.18 5786.06 3868.69 5447.74 4450.51 6033.72 3851.47 4966.74 4959.94 5651.46 1635.31 5639.4 6185.73 4083.24 6520.96 3771.91 5217.62 6178.19 4616.81 5212.2 4611.21 5108.42 4630.5 3354.94 6296.36 4451.76 5237.27 7885.41 5782.25 4104.97 4575.72 5114.61 6118.13 4420.3 2181.29 6332.64 3917.09 4083.1 3482.73 5270.1 5130.56 4957.99 4063.26 4997.89 4542.62 5093.28 4132.08 6009.88 4850.49 4699.77 4981.55 3625.98 5144.23 6188.62 6153.07 4763.04 4414.06 5944.52 4413.56 5050.2 5316.05 2513.38 4908.32 3995.08 5019.84 4810.74 3900.93 5784.38 4149.17 4329.8 5728.27 3074.49 5202.33 3956.24 7558.99 3393.59 4142.1 5043.14 5333.04 5445.91 4521.99 4812.59 6842.54 7115.67 5675.45 3361.11 6038.56 2807.46 5599.16 4179.8 3488.34 5658.35 5428.24 4487.51 4582.12 4295.25 7394.47 4850.95 4729.45 5374.09 6271.22 3421.81 5378.75 3920.64 6186.24 5822.7 4137.41 3780.07 5466.49 4038.17 5007.41 3692.99 4907.48 6213.74 2329.93 6938.87 5412.07 5512.57 4806.99 4813.55 5856.43 3839.0 5349.85 5799.86 5715.25 4362.94 4469.82 6545.78 4870.14 4404.87 5105.72 5767.65 5003.49 4750.76 4907.03 5497.27 4081.77 5617.91 4948.21 4987.01 4202.12 4706.31 2694.25 4735.99 6492.44 4613.32 3996.93 5145.39 3352.46 6351.95 5195.09 5345.05 7679.2 6131.52 4881.51 4311.92 2626.41 6729.99 5093.41 6842.35 5464.34 3621.63 5801.89 5908.57 7296.47 5742.39 4821.41 4924.53 5616.11 4499.52 4028.13 3874.12 4457.73 6476.35 6260.58 3053.19 4067.24 6571.26 5580.95 3549.92 6598.99 4032.06 5246.81 5089.1 5888.95 5394.78 3463.34 5122.38 2853.68 5262.85 4998.37 5329.84 6559.82 3879.83 6565.95 4577.98 5886.81 5043.34 4246.24 6805.02 5354.48 5640.63 4900.26 6261.13 4167.55 4720.34 5244.47 4731.16 5510.89 6470.87 4495.33 4159.89 5282.67 5178.55 5146.69 6203.24 6818.23 4369.87 4488.41 6679.12 5652.19 5806.74 6578.62 6284.12 3465.03 4796.04 5229.56 6011.4 5172.1 4672.34 6052.22 5376.41 5003.63 4695.7 2932.2 4944.08 4082.01 5269.39 3964.03 4305.35 4216.33 5832.72 3903.9 4721.2 4444.95 5161.02 3124.49 6265.48 4203.68 5003.81 4739.56 4701.03 3818.37 6225.05 5434.04 5200.1 3997.52 4444.54 5779.9 4909.74 5310.33 5299.03 6664.54 3922.98 5161.73 4777.96 5259.48 4803.4 6833.5 6608.94 2613.78 4780.16 3834.01 5738.37 4433.23 4813.24 5759.19 3113.64 4490.2 4304.75 5480.86 6139.9 4720.22 4313.38 5827.3 5250.56 3633.58 2468.16 6294.14 4339.97 5203.75 5169.09 4691.15 2459.88 4210.24 5470.67 5901.71 5225.11 5342.9 5252.22 5733.12 4962.35 6436.29 5402.81 4600.81 4919.13 5168.97 4124.33 5783.88 5002.38 6705.93 4865.11 5449.09 5502.14 4465.56 4131.08 5747.9 3864.19 4287.93 5315.71 6158.93 5081.65 4823.14 5438.5 4621.32 5699.4 3878.8 4698.94 3948.21 5669.15 5296.05 5263.86 3330.85 5056.32 5533.52 5410.33 4747.24 4380.86 5576.16 5648.02 3308.75 5210.22 4439.17 2451.27 5677.42 4929.35 5606.22 3943.77 5242.38 6081.35 5459.52 6262.18 5566.5 5663.36 4276.59 5579.04 5125.53 5994.21 5403.81 5082.25 6964.78 4374.05 5036.84 4565.36 5813.68 4025.08 4008.67 3618.53 5254.93 4770.21 3796.73 5417.07 3082.16 5656.84 6789.66 4739.41 5312.2 5847.27 4706.59 5734.84 3982.31 4950.07 4582.24 2832.83 4084.87 6036.99 3010.1 3825.98 4589.22 5087.03 4667.84 3906.41 4123.08 4512.6 4260.38 4636.45 4932.27 5638.51 6793.49 3563.33 6060.19 5536.0 6786.37 4333.23 4328.76 5561.63 5940.5 4358.06 5093.51 5647.93 4280.92 6201.49 5154.74 4605.61 6898.8 5386.95 6540.57 5332.11 4893.72 6004.72 4072.4 5373.78 5345.65 5863.36 4489.18 4632.75 5237.76 4994.98 4286.84 6423.96 6058.13 5894.69 6988.4 6635.51 4060.17 6051.35 5302.53 4909.13 4287.61 4867.13 4604.34 4863.27 2701.42 5442.79 5051.39 6673.92 5151.68 4884.94 5362.15 4609.98 4455.61 4738.72 4752.31 5240.97 5569.85 5405.6 3929.35 4884.93 4759.38 6960.97 4287.15 5282.51 5504.65 5669.41 5732.11 5040.9 5596.68 8013.28 3846.55 5159.9 5283.65 4644.68 2892.36 5981.54 5911.29 5416.41 4694.27 6760.64 2515.5 5177.88 5551.79 6981.47 3916.15 4474.96 4758.76 4790.63 5259.29 3584.05 4916.75 4818.53 5097.85 5584.64 6189.04 6224.64 4221.03 3799.55 5082.66 4550.77 4337.93 3550.88 4345.51 4048.73 6223.33 3860.8 5145.13 3747.96 5611.29 4521.88 6568.45 5004.22 4601.54 7263.57 4696.92 5705.96 6437.99 5739.69 6632.04 7360.62 4977.64 4985.45 4983.56 5699.51 2489.44 5499.37 4883.13 4752.94 4836.76 5551.09 3950.53 4501.1 5581.47 4384.91 6550.61 4987.01 4713.56 6094.34 6779.82 3999.81 5543.67 6210.48 6377.45 4182.05 4502.12 3255.93 6853.07 6327.61 4633.59 5733.59 5575.8 5268.93 6874.6 5106.9 5306.31 5523.96 4223.53 4733.37 4535.94 3037.72 4523.9 5126.08 5604.0 3760.4 4951.02 3919.47 4602.7 3783.35 4868.66 4037.16 4004.39 6395.63 4987.48 5943.61 4248.58 5479.17 4542.25 5020.37 4414.23 5233.88 4849.21 4785.55 3793.83 5245.4 6189.81 5367.05 4449.73 5647.11 4088.72 3945.62 3743.85 6236.46 5342.17 6379.3 5015.67 3795.63 5189.4 4576.71 6538.04 4894.15 6157.59 5201.3 5848.41 4090.28 4246.83 5438.6 7370.52 4726.5 5467.05 3724.23 5103.3 4963.88 5888.94 4727.98 3832.09 5175.88 4122.2 5267.65 4516.26 4790.16 3509.34 5360.88 3731.58 3166.37 5369.42 5207.08 5205.53 4714.52 4587.19 5543.05 6028.89 5333.16 4888.17 5755.98 5392.85 5077.2 4274.05 4277.54 5529.09 4531.46 5925.82 5448.68 4739.5 4072.95 4491.62 3865.5 3695.72 3647.26 5275.27 
SCALARS Velocity float 1
LOOKUP_TABLE default
1.46421 1.524 1.70974 1.38119 1.59743 1.49387 1.63766 1.72039 1.60671 1.69222 1.50163 1.56446 1.63585 1.66854 1.63567 1.43367 1.67671 1.66278 1.74299 1.64797 1.50407 1.44022 1.63439 1.60331 1.67375 1.60048 1.74897 1.52866 1.69501 1.57731 1.61467 1.72449 1.66606 1.51204 1.54761 1.75694 1.62316 1.57464 1.6779 1.68178 1.67981 1.68126 1.68733 1.5403 1.46452 1.68424 1.61404 1.55466 1.51163 1.51827 1.61094 1.64967 1.76039 1.82296 1.71661 1.64758 1.60917 1.61603 1.75326 1.52958 1.65029 1.43626 1.77152 1.60595 1.52333 1.46078 1.62731 1.69964 1.62641 1.4713 1.58123 1.51755 1.56404 1.59657 1.68851 1.59758 1.72476 1.84692 1.69449 1.69706 1.60294 1.92435 1.59257 1.46677 1.68587 1.61169 1.79808 1.6748 1.4971 1.43134 1.53725 1.66556 1.3383 1.53753 1.54255 1.53515 1.52486 1.62305 1.96073 1.67881 1.67216 1.48315 1.40305 1.85644 0.832275 0.48243 1.9416 1.55342 1.51672 1.85929 1.51922 1.71286 1.77693 1.52326 1.51238 1.41278 1.40753 1.60467 1.16106 1.15102 1.47576 1.58289 1.56197 1.55599 1.52484 1.57578 1.73342 1.65574 1.58485 1.48458 1.51791 1.45378 1.91431 2.42868 0.74681 1.38919 1.05221 0.947548 1.02259 1.07221 1.06331 0.989773 2.02094 1.75252 1.2989 1.46901 1.69105 1.95282 1.6803 1.37266 1.79744 1.40101 1.52744 1.57032 1.43888 1.09168 1.20811 1.23044 1.56313 1.51699 1.6264 1.41645 1.5819 1.37933 1.4728 1.63242 1.71472 1.69784 1.94055 1.53285 1.60801 2.24325 1.32969 2.29418 1.94304 2.16644 0.956946 0.771132 0.985443 1.13901 1.22399 1.14634 1.10305 1.24455 1.20563 1.15703 1.48182 1.86234 2.15652 1.92008 1.32869 1.27095 1.32234 1.33022 1.23114 1.53909 1.35037 1.19597 1.59525 1.41554 1.30166 1.408 1.5401 1.1569 1.51669 1.65752 1.29596 1.29707 1.28187 1.4334 1.48369 2.1766 1.17001 1.10316 1.49163 1.17836 1.32543 1.51567 1.49035 1.24429 1.0788 1.0605 1.09809 1.12184 1.11725 1.15043 1.15233 1.14768 1.13141 1.19679 1.13523 1.17379 0.961789 0.971755 1.0852 1.1544 0.753295 0.716825 1.19886 1.3664 1.31431 1.33021 1.24038 1.09208 1.51159 1.42902 1.26802 1.34605 1.36302 1.17592 1.49127 1.81163 1.14113 1.54862 1.3169 1.12661 1.35271 1.59562 1.76532 1.49859 0.557313 1.12564 1.20455 1.3017 1.36855 1.19804 1.1742 1.12483 1.14357 1.15278 1.15407 1.1441 1.03825 1.0792 1.13488 1.09268 1.09981 1.12197 1.1483 1.09696 1.05525 1.14847 1.02789 1.14429 1.07273 1.20866 1.16664 1.14727 1.24168 1.22621 1.25323 1.23538 1.08612 1.26944 1.2026 1.33445 1.34996 1.39348 1.23489 1.25253 1.50506 1.68957 1.14155 1.23952 1.19627 1.24231 1.04885 1.60064 1.4403 1.09847 1.16265 1.19443 1.26981 1.39426 1.51044 1.26458 1.13516 1.09025 1.16242 1.07368 1.1398 1.03305 1.13597 1.10946 1.1191 1.12679 1.11992 0.975596 0.984548 0.985439 0.925021 0.985281 1.06412 1.08785 1.0888 1.05597 1.16155 1.08131 1.09114 1.1049 0.486559 1.47232 1.06372 0.969256 1.01009 1.16115 1.21366 1.11739 1.22265 1.22468 1.14558 1.27257 1.26689 1.2856 1.50102 1.38821 1.13906 1.16106 1.24002 1.23227 1.36151 1.7103 1.6994 0.951091 1.44051 1.23966 1.25064 1.2926 1.28934 1.28467 1.23339 1.12083 1.57566 0.896406 1.32792 1.1416 1.078 1.13054 1.2173 1.25449 0.904751 1.13609 0.845787 1.0935 1.00841 1.01627 1.09894 1.07772 1.0989 1.15005 0.885305 1.12032 1.05275 1.06959 1.13132 1.03966 1.16127 1.09905 0.997006 1.21312 0.910342 1.05825 0.990122 1.0514 1.0534 1.00623 1.00658 0.960269 0.977635 1.00753 0.890527 0.705548 0.792441 1.0598 1.12225 0.981587 1.00787 0.997759 0.924648 1.08548 1.21396 1.17716 1.11016 1.22966 1.04765 1.44679 1.33344 1.24798 1.38217 0.611427 0.982651 1.15987 1.1194 1.18949 1.13105 1.22775 1.24226 1.35606 1.24986 1.06527 1.214 0.7391 0.914206 1.06999 1.32939 1.13373 0.890774 1.2933 1.02166 0.783408 0.874459 0.941923 0.903927 0.818231 0.783212 0.873624 0.754981 0.746657 1.11762 0.846023 1.05072 0.998682 1.01785 0.955207 0.899191 0.983193 1.02595 1.20616 1.11158 1.04777 0.727863 1.18992 0.910239 1.06099 1.02032 1.06536 0.870565 0.930003 0.986923 0.998563 0.999702 0.970522 0.932434 1.003 0.996168 1.06183 0.992865 0.948736 0.838586 1.03261 1.24226 1.24842 1.04542 1.19102 1.09216 1.07412 1.38467 1.51558 1.06359 1.06303 1.10676 0.995612 0.6674 0.825113 1.28404 1.20582 0.93624 1.18108 1.19319 1.15758 1.24919 1.30397 1.34795 0.979744 0.932605 1.13621 1.0393 0.996953 1.03875 1.05306 1.10795 0.953053 1.27633 1.5219 0.383772 0.745519 0.912013 0.967085 0.904712 0.965895 0.957362 0.922809 0.940979 0.92293 0.858832 0.843021 0.906369 0.873177 0.914112 0.983853 0.954776 0.996798 0.977465 0.981778 0.989299 0.841392 0.912173 0.892844 0.952714 0.877208 0.922366 0.825074 1.05224 1.18787 1.02455 1.01381 0.812987 0.747096 0.820673 0.959737 0.958807 0.92785 0.762772 0.971795 0.980843 0.999832 0.984925 0.952056 0.924444 0.958088 0.963732 0.959653 0.945229 1.00596 0.946356 0.929607 0.930575 0.893028 1.72747 1.53081 0.875943 0.993332 1.03695 1.12534 1.09972 1.26507 1.30131 0.768544 1.30525 0.978477 0.824505 0.954553 1.0845 1.4996 1.54918 0.804427 1.16254 1.23506 1.39797 1.147 1.13433 1.23316 1.0177 1.02744 1.06382 1.06435 1.08577 1.1177 1.20335 1.11704 0.74394 0.849391 0.825542 0.91593 0.976023 0.982536 0.993314 0.829056 1.00084 0.794786 0.88292 0.886951 0.888642 0.910244 0.925856 0.882685 0.859998 1.00839 0.952179 1.01106 0.994898 1.01358 0.849811 0.877616 0.831767 0.892768 0.914506 0.906598 0.950524 0.93902 0.933795 0.865039 0.940819 0.972438 0.968488 0.992187 0.872461 0.950768 0.9103 0.945383 0.93616 0.96184 0.961139 0.926756 0.874719 0.827714 0.769156 2.48835 1.22017 0.734128 1.1035 1.11963 1.17256 1.11315 1.13517 0.997397 1.05069 0.91078 1.06995 1.0604 1.07252 1.25344 0.489855 0.806918 0.839032 0.865842 1.06468 1.26065 1.27506 1.23226 1.00379 1.10511 1.09395 1.08772 1.07601 1.0849 1.06865 1.13253 1.07907 0.975263 0.932535 0.964745 0.974751 1.00694 1.01585 1.00299 1.00856 0.974578 0.977868 0.882408 0.922494 0.92614 0.91249 0.97324 0.939732 0.890802 0.902685 1.01167 0.908101 1.02413 1.04053 1.03066 0.795235 0.82935 0.819873 0.91979 0.924583 0.937244 0.941556 0.986221 0.987402 0.892256 0.940165 0.909574 0.909869 0.96118 0.991306 1.00362 1.07598 1.03694 1.01949 1.00734 0.952778 0.963285 0.920989 0.93511 0.949536 0.951612 0.944246 0.953102 0.95732 0.953229 0.954808 0.948958 0.948472 0.940236 0.938208 0.858874 0.935613 0.788092 1.03072 0.946243 0.947571 1.03767 1.16196 1.13287 1.15361 1.11795 1.09923 1.04508 0.987868 1.04214 1.11202 1.10377 1.18395 1.16355 0.889627 1.00531 0.642464 0.994976 1.20627 1.08936 1.00767 1.04723 1.05551 1.09636 1.12345 1.07128 1.05799 1.05805 1.01588 1.03088 0.976924 0.9929 1.01902 1.006 1.00129 0.980031 0.996378 1.00992 0.949014 0.977341 0.972152 0.871452 0.91259 0.916612 0.883564 0.88413 0.9508 0.899674 1.0009 0.955534 0.974879 0.947946 0.887481 1.01869 1.02555 0.701505 0.698288 0.951677 0.942505 0.881949 0.878762 0.915214 0.789755 0.766076 0.95003 0.704193 0.789573 0.774733 0.791575 0.959252 0.938546 0.979623 0.971133 0.94535 0.934354 0.948155 0.93357 0.949293 0.950373 0.951899 0.948642 0.955015 0.962065 0.897821 0.818032 0.898107 1.02293 0.997987 0.953356 0.932781 0.985367 1.01986 1.09043 1.19975 1.1534 1.01493 0.946601 0.986451 1.02969 1.04611 1.18963 1.06554 0.993169 0.838514 1.27251 1.07815 1.3132 1.16846 1.0895 1.02154 1.02003 1.0207 1.03776 1.05273 1.05831 1.07231 1.16133 1.00854 0.946532 0.999117 0.97651 0.997497 0.967702 0.964632 0.949621 0.970597 0.94889 0.980439 0.990915 0.980171 0.962818 0.943188 0.904197 0.93354 0.924544 0.896716 0.963264 0.84891 0.922393 0.880878 0.802371 0.881968 0.899789 0.772189 0.984425 1.07688 1.15236 0.934184 0.994264 1.03336 1.01996 1.01097 1.03266 1.01348 0.74345 0.79969 0.756454 1.09047 0.954375 1.09913 1.01479 0.883273 0.825307 0.8501 0.805646 0.796067 0.980585 0.696907 0.735994 0.937655 1.08539 1.05187 1.00977 0.989443 0.947334 0.935728 0.922562 0.923721 0.944951 0.937348 0.94109 0.946357 0.93881 0.959838 0.927254 0.977603 1.03825 1.03312 0.979139 1.0687 1.06357 1.123 1.09608 1.31853 1.3547 1.02221 0.998205 0.958618 0.991402 0.995146 1.02022 1.20723 0.992343 1.02188 1.04394 0.943924 1.14953 1.12781 1.26898 1.08941 1.04678 1.01791 1.04419 1.03411 1.05907 1.05528 1.06211 1.08211 1.09813 1.096 1.05833 0.942792 0.952937 0.947406 0.944434 0.940751 0.956028 0.956333 0.959028 0.962735 0.959013 0.945588 0.95475 0.918202 0.877365 0.905715 0.881592 0.922805 0.882985 0.921852 0.849762 0.827996 0.72222 0.744398 0.877375 0.99099 0.878343 0.948101 0.707149 0.713642 0.794431 0.764005 0.948592 0.880607 0.864739 0.832854 0.799913 0.798383 0.785312 0.704358 0.666846 0.69455 0.925448 1.05323 0.910446 0.929161 0.868764 0.834886 0.791203 0.789017 0.775041 0.962871 1.03016 0.790181 0.934811 1.00893 0.984401 0.950067 0.905438 0.901951 0.91377 0.927799 0.918352 0.90632 0.921702 0.905269 0.91246 0.865672 0.924424 0.927195 0.958643 0.985513 1.04988 1.00361 1.08848 1.09675 1.10907 1.01633 0.825145 1.03106 1.01755 1.02012 1.02624 1.03288 1.07373 1.05949 1.05343 1.02741 1.03325 0.96639 0.993918 1.04122 1.10315 1.01057 1.18075 0.98264 1.01984 1.02952 1.03849 1.05699 1.06602 1.07231 1.06414 1.04237 0.922033 0.919406 0.929618 0.915786 0.931736 0.94503 0.95096 0.957613 0.960307 0.968794 0.957663 0.915391 0.879866 0.880188 0.870043 0.883615 0.87941 0.818161 0.688875 0.817153 0.739601 0.863266 0.728381 0.781177 0.807093 0.696175 0.812549 0.764922 0.662409 0.74243 0.7506 0.776801 0.68334 0.776694 0.786603 0.808337 0.800887 0.802145 0.765436 0.769253 0.808426 0.762471 0.792139 0.735831 0.971467 0.906892 0.872604 0.854534 0.783942 0.781143 0.705074 0.773519 0.628174 0.740236 1.17942 0.861212 0.89984 0.987535 1.01244 0.960388 0.928845 0.901141 0.893692 0.887633 0.892201 0.894899 0.897197 0.893361 0.894334 0.906923 0.940203 0.976412 1.00909 1.107 1.06245 1.06578 1.01429 1.00235 0.936638 0.903172 1.03558 0.987305 1.04111 1.04321 1.01684 0.990934 1.06279 1.01633 0.933907 0.964822 1.00213 0.982411 1.00476 0.97363 1.01269 1.0411 1.07849 1.06823 1.09003 1.0736 1.05194 0.971354 0.950093 0.927524 0.919585 0.944026 0.957686 0.955034 0.967091 0.975459 0.989742 0.961202 1.00561 0.894692 0.97409 0.925578 0.88663 0.896048 0.874953 0.80587 0.906465 0.899973 0.81146 0.852267 0.88313 0.838232 0.845139 0.784272 0.830256 0.916435 0.828717 0.731782 0.643493 0.698317 0.718128 0.704611 0.705684 0.72179 0.72094 0.785883 0.80043 0.793042 0.791111 0.802967 0.834409 0.835367 0.79605 0.797182 0.838434 0.728208 0.836604 0.868766 0.80424 0.728596 0.774921 0.759543 0.69257 0.971507 0.876278 0.893304 0.868573 0.918785 0.909801 0.906568 0.900819 0.884372 0.888123 0.889607 0.88763 0.892879 0.890894 0.897331 0.902833 0.902465 0.896052 0.926717 0.944637 0.983224 0.979757 1.00886 1.01575 1.08265 1.03705 0.993379 0.978159 0.959577 1.01444 1.03187 1.05332 1.0361 1.00304 0.935612 0.963317 1.05198 1.04469 0.960628 0.861187 0.882296 1.09716 1.16457 0.980153 0.988523 1.06877 1.0664 1.08291 1.10102 1.07415 0.977971 0.950711 0.943952 0.961976 0.960031 0.958247 0.984946 0.961282 1.00172 0.972075 1.00025 1.00077 0.916378 0.875218 0.895573 0.891343 0.897398 0.967512 0.847366 0.861052 0.823765 0.850337 0.839858 0.856643 0.852578 0.797357 0.876254 0.984463 0.905864 1.04761 0.920255 0.859859 0.632949 0.903587 0.83217 0.791471 0.834873 0.736871 0.736235 0.722261 0.744803 0.765012 0.828382 0.775438 0.785564 0.827695 0.847987 0.81604 0.804657 0.821833 0.703344 0.840171 0.90592 0.825623 0.808393 0.885726 0.82084 0.876711 0.788697 0.85083 0.795155 0.752623 0.813324 0.87361 0.837188 0.876679 0.891172 0.886645 0.892234 0.882382 0.886374 0.881983 0.885616 0.888824 0.8917 0.890957 0.889632 0.891259 0.888174 0.89419 0.92519 0.958012 1.00659 0.997971 1.00849 0.963965 0.956641 1.00876 0.999394 0.991114 0.991468 1.01467 1.02262 1.0458 1.0403 1.00085 0.96191 0.947268 1.04623 0.990202 0.831526 0.734938 0.986497 1.04341 1.02117 0.998972 0.971728 1.04542 1.04089 1.03464 1.09947 1.09948 1.06985 0.972554 0.934816 0.965841 0.96192 0.962435 0.950473 0.925533 0.948762 0.946742 0.953142 0.98266 0.987864 1.03547 0.989814 0.921832 0.883185 0.891237 0.916601 0.963986 0.780354 0.787064 0.887599 0.868841 0.862393 0.866539 0.855694 0.940115 0.989238 0.909586 0.902031 0.871448 0.704742 0.682494 0.631354 0.74098 0.759294 0.735971 0.775998 0.739718 0.726666 0.74015 0.736631 0.743528 0.748422 0.765288 0.786955 0.799131 0.797237 0.78254 0.818962 0.880299 0.806245 0.788642 0.784446 0.714218 0.662189 0.740529 0.806626 0.730646 0.738681 0.742061 0.726977 0.648728 0.914172 0.832186 0.805947 0.802556 0.785777 0.83213 0.848392 0.861614 0.861415 0.881324 0.888489 0.878624 0.880336 0.878566 0.860589 0.888659 0.904775 0.886727 0.897631 0.931255 0.926939 0.955478 0.949136 0.973064 1.02508 1.01163 0.975599 0.97418 0.986642 1.01339 1.01066 1.01015 1.00907 1.01504 1.01418 1.02699 1.04007 0.982533 0.952218 0.982627 0.960242 1.06075 0.951366 1.07879 0.827708 1.0971 0.987745 1.10818 1.09685 0.958658 1.08334 1.09323 1.09336 1.15118 1.02965 1.12812 0.966729 0.964508 0.93644 0.927846 0.911628 0.928808 0.951955 0.966647 0.970868 0.950213 0.897792 0.930277 0.924672 0.900039 0.908247 0.981758 0.864763 0.786733 0.934406 0.873067 0.854081 0.907582 0.771884 1.04956 1.00388 1.41479 0.951466 0.800264 0.770358 0.800663 0.763486 0.700686 0.895586 0.777857 0.779132 0.775396 0.784187 0.783677 0.781884 0.761891 0.798424 0.735506 0.799377 0.68835 0.714881 0.735605 0.718349 0.751236 0.765982 0.782289 0.767582 0.805814 0.763952 0.76383 0.786146 0.725221 0.718769 0.722852 0.751888 0.743727 0.748019 0.683376 0.708463 0.8006 0.772671 0.797132 0.810498 0.783659 0.803414 0.792134 0.770193 0.813834 0.812548 0.813842 0.837149 0.853166 0.880318 0.871382 0.874928 0.878435 0.89021 0.884505 0.886528 0.884146 0.900111 0.895465 0.929163 0.97372 0.946759 0.964762 0.970855 0.978809 0.975286 1.01427 1.01537 0.987293 1.01742 0.995161 0.987876 1.00918 1.01646 1.02316 1.04552 1.04796 0.965733 0.948186 0.973049 1.02846 1.00968 1.07494 1.14571 1.18224 0.914281 1.21677 1.03888 0.903624 0.92533 0.817112 1.04181 1.1331 1.0752 1.09558 1.01559 0.995546 1.04261 1.01983 0.931185 0.922279 0.890886 0.938726 0.951916 0.96605 0.952138 0.961577 0.972239 0.915888 0.945617 0.935323 0.869899 0.956242 0.820642 1.03884 0.639652 0.88 0.793768 0.644549 0.75684 0.825805 0.754943 0.793068 0.801546 0.858209 0.698284 0.774847 0.384803 1.16326 1.01029 0.965439 0.840106 0.860311 0.833475 0.840148 0.841336 0.772956 0.784833 0.777401 0.786817 0.784438 0.761356 0.797958 0.822029 0.756814 0.680768 0.827181 0.774839 0.724903 0.736218 0.686141 0.603134 0.657152 0.675355 0.687471 0.620501 0.729667 0.812034 0.777705 0.770914 0.735014 0.742143 0.750322 0.710049 0.71791 0.719217 0.72017 0.71805 0.734383 0.741127 0.714487 0.736527 0.741733 0.771568 0.813268 0.835584 0.799827 0.810075 0.798603 0.799042 0.815515 0.804406 0.830449 0.848546 0.876148 0.890375 0.893479 0.904566 0.902433 0.905559 0.906958 0.941052 0.92744 0.918933 0.935529 0.980243 0.991398 0.988277 0.923918 0.952648 0.945438 1.01425 1.03125 1.03727 1.05101 1.00364 0.996176 0.972975 1.03679 1.02955 1.02522 1.03241 1.04773 1.05056 0.956702 0.938291 0.980127 0.972373 0.992701 1.03861 1.12322 1.16662 0.923978 0.932711 1.17861 1.01402 0.957479 0.863386 0.893244 1.02402 1.1262 0.954471 1.06863 1.06438 1.11573 1.02445 1.00294 0.989558 0.898504 0.954054 0.906627 0.950018 0.908733 0.980445 0.926512 0.920041 0.934706 0.963837 0.991958 0.91349 0.912645 0.917928 0.863728 0.990487 1.22841 0.752443 1.6475 0.88757 0.866114 0.792921 0.610622 0.625915 0.734128 0.912821 0.854709 0.595609 1.13672 0.852985 0.865553 0.80384 0.816798 0.816534 0.763178 0.755034 0.740014 0.768474 0.814484 0.722725 0.748749 0.775879 0.730667 0.71444 0.739198 0.736834 0.718442 0.61684 0.616736 0.647253 0.411422 0.602289 0.412352 0.516962 0.471887 0.784954 0.759702 0.752028 0.690337 0.693583 0.687277 0.699179 0.690172 0.719216 0.712269 0.745303 0.765068 0.780676 0.801944 0.807717 0.820093 0.818381 0.831801 0.782924 0.777427 0.831653 0.840838 0.858432 0.85789 0.881379 0.90617 0.897931 0.90288 0.90786 0.947601 0.945162 0.962108 0.94141 0.960072 1.04237 0.907254 0.94098 0.931411 1.05557 1.03964 1.01821 0.986968 0.960006 1.0421 1.04176 1.04683 1.07728 1.04622 1.02246 0.986535 0.993388 1.02789 1.10114 1.17483 0.890495 0.914679 0.900006 1.11695 0.948575 1.02962 1.05151 1.01425 0.896895 1.35082 0.93707 0.990865 1.0095 0.996095 0.962203 0.902951 0.909558 1.0548 0.982392 0.971623 0.881028 0.917678 0.946046 0.908263 0.929094 0.942743 0.944641 0.963596 0.887141 0.909167 1.03327 0.91471 0.868689 0.561749 0.787632 0.416141 0.699663 0.88793 0.765357 0.773518 0.739132 0.721154 0.673107 0.684242 0.54368 0.710851 0.84321 0.758316 0.773339 0.760203 0.730478 0.686809 0.653259 0.706128 0.752491 0.64495 0.736025 0.642434 0.791446 0.651352 0.820636 0.653284 0.776116 0.659637 0.724097 0.736283 0.677208 0.743325 0.77516 0.660832 0.650712 0.626417 0.581461 0.577448 0.673204 0.588301 0.604882 0.540273 0.27432 1.33471 1.0058 0.809571 0.81512 0.726022 0.700679 0.668597 0.670747 0.65125 0.685195 0.70258 0.703201 0.71627 0.710156 0.717515 0.725957 0.747215 0.789639 0.792738 0.80088 0.805095 0.802716 0.80504 0.821592 0.745014 0.77803 0.908031 0.853656 0.84066 0.827126 0.892239 0.881706 0.908588 0.932108 0.903896 0.889703 0.912747 0.923519 0.965091 0.968018 0.922514 0.867913 1.04924 0.911961 0.841282 0.91152 0.887666 1.06189 1.02828 1.00954 0.992322 0.98287 1.0368 1.04373 1.05653 1.05709 1.06619 1.06347 1.03766 1.06212 1.06399 1.03248 1.04481 1.11006 1.12071 1.01029 0.875222 0.992378 1.03748 1.00456 1.0587 1.03398 1.01366 0.993695 1.02135 0.913362 0.965157 0.947977 0.935369 0.983097 0.898726 0.91367 0.922659 0.915101 0.941883 0.944563 0.905383 0.928233 0.934678 0.935525 0.977982 0.889972 0.892462 0.960535 1.10867 0.747107 0.347148 0.747103 0.825804 0.762441 0.791034 0.743316 0.727342 0.740567 0.687204 0.556326 0.589793 0.72002 0.661861 0.627931 0.734602 0.679038 0.683679 0.729237 0.671186 0.67123 0.645133 0.585224 0.587966 0.686807 0.663913 0.82569 0.650265 0.642891 0.617178 0.550816 1.14985 0.883753 0.730726 0.462292 0.26407 0.423673 0.319084 0.539231 0.611561 0.224903 1.21021 0.778605 0.627024 0.656064 0.635726 0.647229 0.637612 0.65884 0.693871 0.70595 0.712767 0.727266 0.733069 0.811907 0.816001 0.809206 0.807794 0.895877 0.847273 0.821764 0.945765 0.852964 0.942848 0.901571 0.905149 0.985468 0.951596 0.922215 0.862686 0.814866 0.843515 0.954002 0.89702 0.964055 1.02472 1.03879 1.02721 1.0221 1.03418 1.00556 1.00915 1.07831 1.06256 1.05757 1.05809 1.04986 1.07487 1.0944 1.09756 1.04866 0.933491 1.03132 0.938763 1.01595 1.0406 1.05696 1.04242 1.005 1.02169 1.03053 1.01505 0.981019 0.904197 0.911147 0.904546 0.976921 0.946826 0.973201 0.96224 0.90125 0.894096 0.929212 0.95215 0.934325 0.944848 0.94975 0.959472 1.00119 0.906669 0.891509 0.89861 0.881538 1.33132 0.92561 0.81824 1.39188 1.02955 0.896561 0.767773 0.770176 0.792588 0.72514 0.772084 0.692858 0.662814 0.695964 0.764638 0.699814 0.685538 0.751813 0.741761 0.710212 0.653909 0.807542 0.631778 0.644427 0.635212 0.653574 0.630506 0.597672 0.62509 0.562017 0.601309 0.64633 0.369587 0.540753 0.463999 0.588565 0.582379 0.487651 0.417319 0.330951 1.07608 1.23644 0.608204 0.452803 0.348092 0.234908 0.118953 0.187593 0.537803 0.455293 0.561295 0.477121 0.417867 0.733801 0.848446 0.780284 0.790707 0.643422 0.709904 0.645196 0.622799 0.636424 0.632707 0.604017 0.670804 0.700218 0.699684 0.702053 0.701057 0.714486 0.727065 0.733897 0.749696 0.788005 0.805663 0.834033 0.748541 0.797421 0.837617 0.839493 0.914314 0.875129 0.816532 0.805089 0.67519 0.83867 0.885992 0.934242 0.931784 0.956741 0.863813 0.952833 0.909993 0.83472 0.904101 0.961365 0.987117 1.0051 0.995191 1.03545 1.04299 1.03746 1.02999 1.0691 1.03222 1.027 1.09357 1.10046 1.08202 1.05653 1.06373 1.06716 1.04149 1.07773 1.08155 1.08911 1.10552 0.996735 1.05816 1.08164 1.03696 1.02752 0.955202 0.971405 1.02601 1.05902 1.0837 1.16609 1.07914 1.07193 0.948099 0.864225 0.962494 0.992558 1.00319 0.978738 0.887699 0.886313 0.922023 0.943452 0.938937 0.94047 0.941888 0.949367 0.870372 0.871946 0.942976 0.981499 1.06905 0.80426 0.833546 0.822855 0.840213 0.804309 0.833917 0.817859 0.786666 0.779195 0.752234 0.754213 0.744433 0.741827 0.720622 0.741733 0.750213 0.841505 0.967375 0.622015 0.606027 0.706585 0.774171 0.681791 0.622448 0.587572 0.519572 0.512316 0.495896 0.556455 0.494966 0.417182 0.566885 0.245519 0.122425 0.559185 2.28851 0.844065 0.533692 0.997703 1.24783 0.0985019 0.444825 0.805956 0.644667 0.674396 0.555418 0.704154 0.748819 0.791119 0.708436 0.725644 0.606773 0.644544 0.605972 0.589335 0.633789 0.675938 0.64983 0.679866 0.700662 0.717368 0.733882 0.741434 0.769563 0.76853 0.796072 0.794155 0.81234 0.933569 0.86627 0.890463 0.840935 0.861112 0.817105 0.731141 0.881115 0.941186 0.935173 0.925128 0.903274 0.970047 0.985691 0.868546 0.855002 0.872963 0.920152 0.966993 1.03712 1.05216 1.05141 1.05665 1.05719 1.0674 1.09337 1.1136 1.10708 1.05765 1.06397 1.03667 1.0586 1.08612 1.09169 1.05774 1.09896 1.11537 0.999274 0.84943 0.98076 0.990825 1.06554 1.00668 1.03343 1.07115 1.14327 1.10499 1.09457 0.878315 0.867299 0.878899 1.02093 1.00257 1.0472 0.927776 0.935371 0.902356 0.932331 0.930959 0.942441 0.950248 0.936707 0.863261 0.897017 0.908932 0.953638 0.895577 0.669761 0.835249 0.85039 0.835292 0.84699 0.837932 0.834084 0.813014 0.742445 0.759678 0.692543 0.67654 0.59664 0.64187 1.25963 0.863622 0.78395 0.779927 0.762952 0.716713 0.636096 0.652556 0.571708 0.527329 0.53044 0.460999 0.517213 0.497197 0.484054 0.637481 0.192318 0.377639 0.195732 1.00241 0.156348 0.862167 1.00165 1.09373 1.05374 0.186398 1.19502 1.18864 0.795811 0.544532 0.717347 0.680359 0.713941 0.681472 0.689423 0.643096 0.620153 0.573785 0.707243 0.708011 0.719319 0.744415 0.764628 0.777747 0.792212 0.795421 0.814116 0.822727 0.758145 0.812478 0.948345 0.862962 0.878815 0.850736 0.835669 0.848007 0.824398 0.684963 0.786109 0.971165 0.904042 0.907768 0.912386 0.950093 0.901164 0.875189 0.887081 0.941717 0.93965 0.972298 1.06454 1.06127 1.0596 1.06846 1.08788 1.10985 1.10339 1.12962 1.06462 1.06471 1.01267 1.02462 1.05102 1.07622 1.06787 1.09195 1.13008 1.06389 0.930845 0.999248 1.0127 1.03333 1.02085 1.05386 1.10987 1.01528 1.08903 1.06977 1.1263 0.810477 0.981552 1.02254 0.935371 1.07069 0.930335 1.07736 0.918475 0.92899 0.938113 0.949205 0.953471 0.964228 0.936878 0.957369 1.00791 0.891815 0.801172 0.820099 0.761164 0.805776 0.839487 0.827746 0.808504 0.811142 0.750881 0.768853 0.744003 0.610974 0.620944 0.512509 0.731814 0.80909 0.889411 0.208269 0.554696 0.547287 0.722475 0.66818 0.607989 0.515528 0.428861 0.331139 0.49432 0.40991 0.619859 0.447954 0.325315 0.575323 0.251823 1.12357 0.984095 0.922883 0.933821 0.605539 0.683467 0.969951 0.411417 0.511283 0.432753 0.629502 0.649062 0.660649 0.656906 0.637636 0.616255 0.612714 0.572597 0.635382 0.692985 0.687855 0.708897 0.720491 0.771232 0.803132 0.807792 0.811042 0.790288 0.785414 0.832464 0.914513 0.860423 0.873548 0.853321 0.844084 0.83893 0.897312 0.8229 0.754188 0.810853 1.01308 0.940719 0.913379 0.889596 0.874124 0.882895 0.943084 0.971624 0.927637 0.944341 0.907489 0.942905 1.08217 0.907075 0.956167 0.936331 1.09164 1.07615 1.05137 1.06353 1.07189 1.04285 1.10144 1.12279 1.12162 1.13711 1.14028 1.1375 1.06712 1.02949 1.01803 1.03787 1.04752 1.05879 1.07923 1.00876 1.08553 1.10094 1.13268 0.912647 0.98864 1.05664 1.00703 1.0543 1.06849 0.995117 1.00042 1.05648 1.10349 0.82627 0.973508 1.05216 0.950959 1.02184 0.990936 1.04012 1.03475 1.0616 0.96132 0.927374 1.02055 0.949768 0.949167 0.962292 0.981908 0.986054 0.846263 0.796368 0.805046 0.815639 0.795845 0.801752 0.821144 0.861225 0.805037 0.840316 0.868178 0.729451 0.790438 0.855155 0.727284 0.505166 0.401629 0.769859 0.565222 0.616897 0.615943 0.600924 0.664909 0.65828 0.710209 0.598844 0.331217 0.244778 0.634589 0.382364 0.749923 0.615116 0.65589 0.63705 0.398062 0.846048 0.840437 0.64142 0.773772 0.636892 0.442958 0.55592 0.441628 0.769245 0.619226 0.638432 0.639933 0.642627 0.644958 0.672311 0.607966 0.652104 0.646414 0.68667 0.759209 0.761203 0.820285 0.811763 0.822949 0.811206 0.802769 0.765455 0.775749 0.842766 0.861149 0.860227 0.837021 0.89167 1.01048 0.931058 0.903088 0.931527 0.877894 0.94582 0.936366 0.952446 0.975797 0.971 0.986876 1.06082 1.04637 1.03883 0.938811 1.10581 0.941997 1.05473 1.07773 1.02513 1.13077 1.14844 1.13247 1.13994 1.1137 1.03576 1.03195 1.04948 1.05984 0.976892 1.07078 1.09865 1.08824 1.11611 1.1172 1.06007 0.978057 1.08167 0.96612 1.04441 1.0905 1.03763 1.0062 1.0575 1.09457 1.05663 1.04831 0.897554 0.994934 1.02654 1.00436 1.03514 1.03416 1.0473 0.960873 0.950228 0.950671 0.97789 0.995177 0.976687 1.06952 0.815173 0.772393 0.828428 0.830863 0.819138 0.843762 0.835536 0.821754 0.829768 0.864024 0.875559 0.851731 0.676891 0.925899 1.04897 0.648 0.609506 0.61773 0.669564 0.616962 0.617462 0.677906 0.733849 0.967882 0.622649 1.14326 0.571351 0.567168 0.672083 0.6385 0.67411 0.525674 0.521066 0.677914 0.761142 0.664134 0.555294 0.500809 0.498907 0.72952 0.674333 0.659409 0.658739 0.729387 0.692123 0.612732 0.575245 0.481568 0.666755 0.711901 0.84558 0.777381 0.772441 0.766268 0.839215 0.837001 0.826723 0.809306 0.789055 0.801305 0.836491 0.859739 0.874639 0.887486 0.933156 0.93305 0.967991 0.950736 0.944475 0.943825 0.923829 0.944707 0.946858 0.946642 1.01836 1.05016 1.02918 1.00581 0.984488 1.08563 1.22736 1.06897 1.05836 1.01017 1.07266 1.12565 1.15011 1.10966 1.05898 1.04037 1.04566 1.05306 1.05986 0.998563 1.09011 1.11088 1.13186 1.07533 1.08915 1.08896 1.03123 1.13778 1.0804 1.10102 1.15506 1.01663 0.975414 0.925356 0.98073 1.03152 1.03175 1.048 1.03487 1.04465 1.07395 0.990203 0.945579 0.954351 1.00674 0.932527 0.975038 1.04871 1.13334 0.820575 0.777429 0.839561 0.847688 0.846599 0.861445 0.846613 0.844972 0.849411 0.793766 0.637102 0.718677 0.827568 1.10948 0.477071 0.907153 0.706864 0.661005 0.635061 0.609492 0.640532 0.65664 1.07981 0.550604 0.976226 1.02157 0.451675 0.603278 0.622194 0.674587 0.634799 0.760378 0.737675 0.719279 0.708625 0.55089 0.505567 0.752045 0.73904 0.704458 0.729018 0.683698 0.706797 0.687556 0.672515 0.583375 0.553241 1.15565 0.915954 0.828977 0.766115 0.866031 0.767585 0.850802 0.827227 0.857709 0.834811 0.903489 0.87164 0.865012 0.864342 0.900627 0.920741 0.921303 0.942914 0.954318 0.959612 0.963872 0.951396 0.965617 0.937026 0.918312 0.932167 0.992031 0.995134 1.02782 1.04608 1.03601 0.960434 1.0668 1.20251 1.06273 1.05606 1.04014 1.11349 1.01145 1.15451 1.14744 1.08112 1.11173 1.15707 1.1247 1.11265 1.09884 1.0893 1.09681 1.06538 1.07375 0.999528 1.10838 1.05264 1.12642 1.08639 1.10997 1.09185 1.03165 1.06465 1.12387 1.09654 1.09801 1.16314 1.11066 1.19513 1.18769 1.04806 0.985579 0.97461 1.01814 1.02924 0.956751 1.03363 1.05738 1.02902 1.03296 1.04175 1.06225 0.971566 0.953414 0.998805 0.923083 1.05194 0.932091 1.08456 0.986369 0.981992 0.746553 0.757492 0.837161 0.851929 0.878096 0.921233 0.857069 0.8443 0.805669 0.510047 0.721767 0.58976 0.811207 0.924612 0.869552 1.01473 0.704568 0.628737 0.682703 0.67113 0.659033 0.664544 0.648538 0.901955 0.77531 0.764031 0.704791 0.664502 0.502222 0.640937 0.569386 0.584785 0.739963 0.794275 0.765877 0.756183 0.705014 0.711388 0.715293 0.506842 1.14491 0.862546 0.649934 0.702288 0.707114 0.69927 0.681488 0.663511 0.607946 1.30207 0.99584 0.864132 0.864165 0.636585 0.635897 0.806915 0.842704 0.846774 0.901139 0.910961 0.929551 0.919342 0.893156 0.873301 0.888742 0.898424 0.943468 0.952883 0.977591 0.964891 0.951935 0.962746 0.995032 1.03788 1.07673 1.0364 1.04106 1.05216 1.07308 1.07018 1.06293 1.15461 1.14742 1.09503 1.03919 1.11086 1.02901 1.18297 1.08742 1.12232 1.21597 1.16376 1.16356 1.14638 1.07184 1.03525 1.03753 1.09002 1.12494 1.12739 1.13003 1.12151 1.13348 1.13327 1.13709 1.11723 1.09057 1.06935 1.09255 1.12275 1.11213 1.1419 1.03391 1.02292 1.0277 0.987284 1.08988 0.959881 1.04777 1.05289 1.05051 1.01019 1.07774 1.04465 0.909562 1.02488 0.951669 1.13118 1.04098 0.742869 0.878176 0.909102 0.872409 0.901355 0.816472 0.848118 0.827579 0.836121 0.912311 0.703112 0.813392 0.849893 0.956518 0.871814 0.981498 0.759038 0.744856 0.803432 0.705353 0.679011 0.67716 0.764189 0.774153 0.83226 0.576526 0.736546 0.654393 0.588015 0.803513 0.73523 0.766252 0.770577 0.64625 0.699166 0.700637 1.21411 0.6326 0.763169 0.691234 0.736922 0.72498 0.750916 0.604085 1.2166 1.16372 0.965543 0.874375 0.933534 0.771318 0.854805 0.864864 0.93145 0.942054 0.926291 0.879561 0.84012 0.958873 0.863624 1.02257 0.997108 0.985651 1.00353 0.944872 0.962796 0.977901 1.03832 0.991824 1.07607 1.0813 1.04581 1.03685 1.052 1.07557 1.06557 1.12929 1.09778 1.08728 1.05376 1.07647 1.09044 1.06378 1.1091 1.20358 1.14694 1.23076 1.10393 1.09211 1.13613 1.13007 1.14248 1.12717 1.13956 1.12096 1.10399 1.08327 1.10128 1.11116 1.14663 1.04044 0.963026 1.0255 1.13201 1.01764 0.990946 0.997285 1.03011 1.14791 0.990131 1.07536 1.04862 1.01721 1.05131 1.00454 1.04708 1.07302 0.875074 0.979953 0.971869 1.08565 1.07181 0.816314 0.978031 0.919916 0.923604 0.877455 0.823111 0.804769 0.82713 0.820024 0.893287 0.70931 0.916546 0.866076 0.881356 0.717573 0.692774 0.706215 0.726074 0.789354 0.806362 0.840982 0.689343 0.779407 0.729755 0.752946 0.800343 0.650959 0.789772 0.828292 0.819093 0.429438 0.855025 0.963224 0.600448 0.748073 0.816758 0.820476 1.11909 1.02579 0.956125 0.84689 0.815867 0.96044 0.913115 0.948579 0.889463 1.00897 0.928311 0.892527 0.878792 0.833553 1.08653 0.836059 1.08273 1.0356 0.985835 0.946904 0.981941 0.962589 1.09997 1.12063 1.10652 1.09896 1.08743 1.05143 1.05032 1.05706 1.07342 1.05928 1.07012 1.13053 1.04377 1.04419 1.08079 1.06045 1.10951 1.07611 1.11495 1.20967 1.13174 1.02316 1.14533 1.11215 1.05504 1.09442 1.14067 1.13274 1.12244 1.13792 1.20385 1.13107 1.119 1.1172 1.11321 1.12442 1.14987 1.08663 1.10832 1.03796 1.08193 0.930758 1.11172 1.06691 1.07274 1.04874 1.01432 1.07888 1.02859 1.02885 1.06894 0.882321 0.95779 0.994596 1.09879 1.10503 0.775713 0.976201 0.865031 0.9282 0.872678 0.835926 0.869938 0.863408 0.82401 0.884656 0.922344 0.966354 0.737513 0.572595 0.727137 0.791563 0.821002 0.815999 0.873463 0.737886 0.883814 0.766806 0.805461 0.832923 0.886332 0.834466 0.676998 0.435337 0.703852 0.670525 0.838696 0.98474 0.854378 0.934925 1.03105 1.03788 0.88233 0.961057 0.884906 0.866597 0.824578 0.909974 0.948564 0.94589 1.05066 0.888538 1.16842 0.897929 1.11809 1.04279 0.950613 0.934467 0.965376 0.982123 0.967826 1.11999 1.08998 1.08219 1.08571 1.08206 1.09317 1.06584 1.07816 1.05219 1.04173 1.04271 1.08928 1.15085 1.12299 1.03864 1.1826 1.15623 1.1526 1.14865 1.11061 1.08591 1.09931 1.14258 1.13863 1.14978 1.22997 1.1816 1.13386 1.11606 1.10838 1.12485 1.12717 1.1527 1.17623 1.0951 1.16941 1.07817 1.09075 0.918435 1.10326 1.02631 1.06674 1.04975 1.06052 1.04482 1.0449 0.912115 0.98762 1.09046 1.07608 1.11698 0.86729 0.960587 1.07481 0.845762 0.990524 0.941666 0.837855 0.852139 1.06493 1.04024 0.880456 1.04386 0.941588 0.886716 0.878332 0.983856 0.780397 0.60361 0.793966 0.78508 0.8027 0.810801 0.787682 0.886659 0.694345 0.938463 0.848624 0.805742 0.838003 0.893484 0.905333 0.949174 0.671597 0.796788 0.941583 1.00132 0.893542 0.980106 1.01953 0.999505 1.01734 1.01736 1.01553 0.975319 0.900526 1.00483 0.952993 0.957331 1.0143 1.00435 0.868724 0.816212 1.05731 1.01096 0.904892 1.08884 1.07983 0.953501 0.953 0.981408 0.987805 0.979551 1.12184 1.09242 1.09048 1.08995 1.0916 1.08682 1.05186 1.05507 1.10363 1.07606 1.13293 1.12439 1.16222 1.14241 1.11615 1.1394 1.14496 1.1978 1.14386 1.1391 1.1221 1.13753 1.1426 1.1512 1.26065 1.22943 1.13898 1.17515 1.11761 1.13593 1.1518 1.13005 1.13072 1.12564 1.14253 1.07072 1.08089 1.14612 1.06094 1.0826 1.09189 1.08733 1.10639 1.03444 1.0927 1.04826 1.07701 1.09815 1.02355 1.08005 1.05131 0.94277 0.991192 1.0116 1.06344 1.02726 1.03731 0.982191 1.08399 1.02468 1.012 1.02424 1.02342 0.896727 0.866536 0.925252 1.0779 0.9224 0.801423 0.612582 0.83866 0.776795 0.827979 0.834883 0.892828 1.04643 1.01423 0.970552 0.839288 0.835299 0.900844 0.947747 0.947256 0.946485 0.99343 0.952453 0.999272 0.928157 0.885965 0.979958 1.01673 0.984766 0.935881 1.02271 1.02437 1.01639 0.954092 1.07052 1.01931 1.0036 0.953183 0.945299 1.03851 1.01629 1.10477 1.12519 0.960503 0.903308 0.99469 0.987961 1.13922 1.10478 1.09901 1.04089 1.09018 1.06972 1.07385 1.07318 1.11399 1.1536 1.15339 1.14509 1.21498 1.14676 1.12271 1.15878 1.13444 1.21571 1.16196 1.13762 1.1391 1.13769 1.1384 1.14693 1.16321 1.1929 1.16921 1.16135 1.15093 1.18322 1.13309 1.1209 1.13795 1.12495 1.18138 1.09877 1.04044 1.17304 1.10544 1.10178 1.06583 1.07722 1.08502 1.1333 1.13361 1.09614 1.07329 1.05394 1.1143 1.04722 1.11466 0.985515 1.07107 1.04029 0.875823 0.616645 0.420249 1.03335 1.0298 0.993732 1.15874 1.1584 1.02021 0.905718 0.999877 1.11969 0.924446 1.09549 0.997193 0.861055 0.812946 0.872485 0.890123 0.955976 0.967537 0.919395 0.916465 0.970417 0.817206 0.854011 0.969352 0.965077 1.00387 0.95336 1.00936 1.04415 1.04808 0.930294 0.92138 0.894337 0.961936 1.01287 1.03458 1.03575 1.03461 1.01892 1.00134 1.07178 1.06405 1.01256 1.00297 1.01452 0.928023 1.04223 1.08558 0.947443 1.21248 0.98004 1.009 1.13054 1.02574 0.998556 1.13001 1.09254 1.1032 1.12432 1.11124 1.08062 1.10497 1.11438 1.0945 1.13521 1.15545 1.15737 1.16179 1.24631 1.16322 1.13588 1.15837 1.12783 1.15476 1.16887 1.14648 1.15188 1.14754 1.14342 1.16754 1.15055 1.15802 1.17795 1.1727 1.13911 1.14824 1.19275 1.15044 1.14238 1.18884 1.11558 1.10181 1.12008 1.16738 1.12157 1.11377 1.112 1.1111 1.04792 1.0709 1.07595 1.09711 1.10466 1.08247 0.998729 1.00087 1.06911 1.06397 1.06638 1.03862 1.01903 0.352906 1.17662 1.04271 0.941257 1.0991 1.1003 0.975867 0.831435 0.974023 1.04997 1.06871 1.15285 0.968635 0.834287 0.878341 0.938373 0.957901 0.933901 0.976379 0.814642 0.880811 0.988406 1.0008 0.995924 1.07629 1.04703 1.04819 1.00113 0.896683 0.887656 0.984676 1.01128 1.01352 1.05219 1.03135 1.05451 1.09666 1.05097 1.01171 1.01152 0.985246 1.05033 1.03073 1.0888 1.05982 0.973679 1.00588 1.09559 1.08476 1.11994 1.11604 1.12341 1.12505 1.11406 1.08726 1.13317 1.15871 1.17145 1.16227 1.1676 1.09455 1.17031 1.14141 1.16037 1.12519 1.15542 1.17702 1.14352 1.1573 1.15098 1.15195 1.13848 1.15067 1.16703 1.16599 1.13394 1.14938 1.15023 1.16445 1.15344 1.15603 1.14678 1.15533 1.124 1.15081 1.10832 1.10165 1.06111 1.09439 1.08037 1.09922 1.11518 1.0742 1.08725 1.00138 1.01641 1.04847 1.03074 1.07489 1.04085 1.00791 1.28485 1.21048 0.970345 0.995053 1.01453 1.02772 0.965487 1.09674 1.07012 1.06654 1.0469 1.06378 0.963553 0.871485 1.04637 1.04844 1.06477 1.0274 1.15006 0.931452 0.973381 0.886474 1.07329 0.979178 0.93285 0.998846 0.994923 0.845752 0.908496 0.916507 1.01978 1.08144 1.09924 0.988487 0.902549 1.00599 0.997716 1.02329 1.04608 1.06194 1.0573 1.05386 1.03287 1.02429 1.10514 1.08959 1.12808 1.0695 0.959709 1.02787 1.10221 1.12054 1.17961 1.11351 1.08422 1.12541 1.12296 1.11344 1.11233 1.14771 1.12049 1.1043 1.16447 1.17731 1.17041 1.15325 1.21882 1.15274 1.15048 1.1641 1.12666 1.15881 1.20125 1.15408 1.16042 1.15407 1.15573 1.14275 1.16081 1.18281 1.17589 1.13271 1.1423 1.16125 1.18188 1.15545 1.15735 1.15356 1.16544 1.13941 1.15638 1.14258 1.16174 1.10703 1.11215 1.16156 1.04481 1.15346 1.09399 1.09948 1.12355 1.08502 1.12671 1.12068 1.17434 1.01734 1.03667 1.10164 1.07633 1.0852 1.03098 1.27096 1.17334 1.10942 1.08023 0.980573 1.07432 1.05936 1.00559 0.99482 1.06441 1.03234 1.03957 1.0608 1.05399 1.08778 1.11124 0.970227 1.06896 1.00555 0.980491 1.11562 1.04179 0.998134 0.904415 0.916923 0.999775 1.03275 1.0862 1.11523 1.06634 0.955112 1.0723 0.99698 1.02045 0.999624 1.08021 1.06198 1.09388 1.03623 1.03217 1.05645 1.10804 1.10183 1.13526 1.09305 0.963575 1.12047 1.1089 1.15563 1.16078 1.09431 1.12895 1.12348 1.11954 1.10095 1.13053 1.16326 1.1757 1.16889 1.15347 1.16545 1.16246 1.15975 1.16732 1.12681 1.15955 1.20148 1.16638 1.16199 1.1564 1.15926 1.14629 1.16254 1.18447 1.17606 1.13167 1.15096 1.16406 1.16935 1.15657 1.15778 1.15335 1.1685 1.142 1.14232 1.18184 1.14952 1.16096 1.16102 1.17054 1.11035 1.1008 1.07636 1.1745 1.11378 1.02747 1.06102 1.3181 1.17683 1.11747 1.08966 1.02706 1.09167 1.1262 1.02673 1.0671 1.02579 1.02505 1.03268 1.04273 1.04726 1.11581 1.0541 1.11004 1.10567 1.08154 1.1307 1.12503 1.02932 1.00771 1.04903 1.095 0.997842 0.947469 0.972401 0.913844 1.02537 1.02948 1.08096 1.10841 1.13036 1.1219 1.13524 0.932508 1.07205 0.994074 0.991087 1.00882 1.0899 1.11282 1.01632 1.04188 1.12627 1.15289 1.11014 1.07421 1.06312 1.10303 1.07178 1.10606 1.1122 1.08197 1.13411 1.09565 1.14555 1.10945 1.11255 1.11681 1.13303 1.13441 1.15992 1.13776 1.17388 1.13 1.1179 1.11807 1.10925 1.1506 1.11953 1.17742 1.16837 1.15321 1.16829 1.16667 1.15029 1.16377 1.24482 1.16223 1.1888 1.17269 1.16287 1.15813 1.16043 1.14991 1.16645 1.18596 1.17157 1.17944 1.14505 1.16999 1.1749 1.16201 1.15958 1.1718 1.16245 1.14326 1.14785 1.17032 1.19261 1.15565 1.16682 1.16146 1.13062 1.12555 1.1169 1.16545 1.10509 1.08173 1.28291 1.14851 1.05341 1.09453 1.09273 1.08981 1.0886 1.05418 1.07474 1.03896 1.05098 1.05317 1.04381 1.08623 1.09261 1.14086 1.10395 1.06418 0.952762 0.982939 1.06057 1.05999 1.08528 0.996116 0.947225 1.04277 1.0417 1.0761 1.11422 1.1338 1.12285 1.10767 0.899014 1.01536 1.06959 0.994817 1.13826 1.10269 1.06256 1.02554 1.13883 1.09641 1.07472 1.07247 1.11544 1.10692 1.13614 1.093 1.10352 1.09975 1.09511 1.13159 1.12349 1.15768 1.10606 1.14248 1.1686 1.13903 1.13027 1.12257 1.14854 1.14482 1.17546 1.17256 1.13334 1.18118 1.1697 1.16649 1.16969 1.1668 1.16836 1.19367 1.20041 1.16421 1.18948 1.17485 1.16475 1.20329 1.16766 1.17883 1.18803 1.19178 1.17687 1.14747 1.17142 1.19341 1.20055 1.16733 1.17779 1.17338 1.14819 1.13517 1.15578 1.16889 1.17331 1.1607 1.17284 1.16274 1.14825 1.13408 1.12901 1.17205 1.162 1.16507 1.11162 1.07867 1.12107 1.16569 1.14442 1.10134 1.09205 1.08779 1.06229 1.08293 1.06893 1.05528 1.07035 1.06857 1.09104 1.10146 1.08996 1.04259 1.12194 1.10878 0.980877 1.06934 1.08601 1.03875 1.09215 1.04534 0.975381 1.07523 1.07574 1.08559 1.07684 1.12907 1.13493 1.11569 1.10057 1.11745 1.13045 1.01489 1.17846 1.17785 1.15477 1.13698 1.07552 1.05845 1.12439 1.10128 1.12022 1.08772 1.0996 1.11723 1.11575 1.13074 1.10629 1.09856 1.11555 1.14824 1.16407 1.14367 1.17098 1.17683 1.13657 1.15598 1.18277 1.20083 1.18548 1.13876 1.1765 1.17549 1.16764 1.16988 1.16966 1.19526 1.16838 1.20441 1.19379 1.18808 1.16833 1.1952 1.16291 1.1736 1.17525 1.1869 1.1901 1.17747 1.1765 1.18106 1.15784 1.16732 1.17868 1.18219 1.17449 1.15148 1.15171 1.15945 1.17326 1.17229 1.1593 1.17331 1.16766 1.16712 1.13934 1.13571 1.16282 1.12243 1.17147 1.12027 1.09907 1.13512 1.11419 1.09312 1.1023 1.08726 1.09062 1.11386 1.08927 1.062 1.08367 1.08557 1.09923 1.08363 1.08201 1.0642 1.13271 1.12132 1.11125 0.993004 1.05782 1.08389 1.13151 1.08947 1.04365 1.03923 0.993565 1.07914 1.09587 1.1056 1.14388 1.08984 1.03063 1.09505 1.11984 1.09472 1.1184 1.18707 1.14092 1.13225 1.10402 1.06183 1.08778 1.12561 1.1336 1.10177 1.08709 1.11753 1.11889 1.13208 1.11757 1.14836 1.13863 1.11365 1.15362 1.16159 1.14304 1.18941 1.14239 1.14543 1.1608 1.20418 1.18231 1.1716 1.13993 1.18259 1.17411 1.17191 1.16964 1.17315 1.17203 1.1903 1.19056 1.1938 1.18904 1.17016 1.19409 1.19404 1.17673 1.19178 1.18503 1.18901 1.19712 1.17441 1.17849 1.19018 1.16681 1.16099 1.17953 1.18241 1.15657 1.15511 1.17165 1.16003 1.17258 1.15847 1.17623 1.17597 1.17121 1.15845 1.15304 1.16486 1.14937 1.13062 1.11622 1.14156 1.11733 1.11082 1.09996 1.11889 1.10253 1.11863 1.13015 1.06645 1.06894 1.10492 1.0921 1.08183 1.07488 1.1288 1.13082 1.11939 1.04419 1.09911 1.12356 1.09099 1.03555 1.01124 1.01844 1.07622 1.06617 1.09608 1.13785 1.09716 1.10367 1.10179 1.10123 1.11944 1.13744 1.17586 1.1595 1.11413 1.07666 1.17308 1.1373 1.13221 1.09887 1.12329 1.13159 1.1252 1.14333 1.14265 1.13926 1.14787 1.14866 1.11765 1.17012 1.1928 1.16903 1.14591 1.15852 1.20475 1.17564 1.17161 1.1408 1.18461 1.17266 1.17439 1.17026 1.19021 1.17964 1.19307 1.19178 1.19178 1.19241 1.17574 1.19631 1.19178 1.18343 1.19487 1.18445 1.18757 1.19336 1.17088 1.18299 1.19025 1.16742 1.16473 1.18526 1.18398 1.15763 1.15667 1.16283 1.17236 1.17377 1.17816 1.17726 1.1741 1.15856 1.13891 1.14808 1.15569 1.17861 1.16703 1.1339 1.12213 1.15051 1.13388 1.13739 1.1042 1.11431 1.12348 1.13789 1.12375 1.12122 1.13417 1.10305 1.18922 1.08417 1.12846 1.1358 1.12064 1.1346 1.12674 1.08864 1.09032 1.03989 1.02594 1.06085 1.08948 1.14087 1.09824 1.11655 1.11143 1.10792 1.12037 1.12378 1.13914 1.16877 1.15585 1.11826 1.08145 1.16954 1.14793 1.13395 1.10877 1.11271 1.13592 1.14839 1.14327 1.14552 1.14728 1.11963 1.1566 1.16319 1.15874 1.1729 1.19316 1.19145 1.14917 1.15959 1.19178 1.17589 1.17304 1.1833 1.1868 1.17745 1.17555 1.16996 1.19197 1.18304 1.19189 1.19178 1.19178 1.19163 1.183 1.19178 1.18633 1.18564 1.18943 1.19174 1.20017 1.17839 1.17873 1.18565 1.18745 1.16769 1.16934 1.18748 1.18175 1.18229 1.16526 1.17316 1.16005 1.17925 1.18225 1.18227 1.17648 1.16805 1.15907 1.14021 1.14837 1.17188 1.13635 1.1319 1.14528 1.1554 1.13448 1.14544 1.11913 1.11244 1.13986 1.1246 1.12568 1.13346 1.14694 1.11301 1.16643 1.09086 1.13158 1.12384 1.16219 1.13649 1.09039 1.12861 1.10284 1.04389 1.03139 1.12654 1.14343 1.14381 1.10203 1.12297 1.11314 1.11161 1.12772 1.16651 1.15353 1.11808 1.08208 1.14551 1.15403 1.10627 1.12311 1.11255 1.13481 1.14659 1.14703 1.14567 1.175 1.14987 1.18368 1.15493 1.15626 1.15727 1.15825 1.15424 1.19286 1.15495 1.15384 1.19421 1.16226 1.17632 1.17424 1.19178 1.18623 1.19316 1.17854 1.18125 1.18821 1.18209 1.19156 1.19252 1.19326 1.19033 1.18245 1.19101 1.18561 1.18597 1.19051 1.19078 1.18995 1.17844 1.18163 1.18546 1.18379 1.17104 1.18848 1.18349 1.18242 1.18227 1.17388 1.16085 1.18063 1.17856 1.18169 1.17937 1.17624 1.16614 1.15911 1.16622 1.14187 1.1775 1.16806 1.17202 1.12198 1.13157 1.1276 1.15527 1.13014 1.1466 1.11636 1.12118 1.13224 1.12016 1.1422 1.12602 1.1335 1.12789 1.11042 1.11436 1.13384 1.12424 1.16493 1.14351 1.13118 1.08136 1.11778 1.04817 1.04856 1.11782 1.12136 1.08968 
SCALARS Stress float 1
LOOKUP_TABLE default
-127729000000.0 -137415000000.0 -480879000000.0 -30865200000.0 -249782000000.0 -238966000000.0 -276066000000.0 -511298000000.0 -257746000000.0 -620382000000.0 -388471000000.0 -793904000000.0 -777232000000.0 -415859000000.0 -280777000000.0 -201628000000.0 -393014000000.0 -157755000000.0 -426557000000.0 -491508000000.0 -390193000000.0 -298518000000.0 -602946000000.0 -501401000000.0 -1.39827e+12 -862681000000.0 -1.57809e+12 -522895000000.0 -1.50046e+12 -1.63257e+12 -1.19339e+12 -802372000000.0 -1.37242e+12 -671130000000.0 -281396000000.0 -966708000000.0 -592993000000.0 -630753000000.0 -729910000000.0 -777451000000.0 -399514000000.0 -1.87344e+12 -1.44755e+12 -1.37209e+12 -497276000000.0 -527686000000.0 -758497000000.0 -534895000000.0 -1.63591e+12 -1.11393e+12 -676487000000.0 -543031000000.0 -1.15531e+12 -1.32175e+12 -1.14882e+12 -2.23717e+12 -1.19071e+12 -1.46516e+12 -2.7332e+12 -768159000000.0 -1.26999e+12 -1.11953e+12 -1.92927e+12 -2.86861e+12 -1.20261e+12 -1.61108e+12 -1.5229e+12 -1.2666e+12 -983253000000.0 -1.50889e+12 -1.24857e+12 -1.73448e+12 -3.21942e+12 -1.03742e+12 -1.23278e+12 -2.31441e+12 -1.26733e+12 -2.86175e+12 -1.80152e+12 -2.6344e+12 -4.30938e+12 -2.75729e+12 -2.38396e+12 -1.26663e+12 -2.04092e+12 -1.97322e+12 -1.48273e+12 -2.61001e+12 -1.95102e+12 -1.52236e+12 -1.81296e+12 -1.42516e+12 -732321000000.0 -1.71073e+12 -2.11981e+12 -3.13108e+12 -2.997e+12 -739411000000.0 -2.48258e+12 -1.86182e+12 -2.38898e+12 -1.81099e+12 -2.52423e+12 -4.19847e+12 -2.38532e+12 -3.59534e+12 -3.1733e+12 -4.96193e+12 -3.94389e+12 -5.19985e+12 -3.78379e+12 -3.07896e+12 -3.84683e+12 -4.78917e+12 -1.80919e+12 -1.22903e+12 -1.61966e+12 -3.06143e+12 -1.84693e+12 -1.7938e+12 -1.67326e+12 -3.76384e+12 -3.49849e+12 -2.11806e+12 -2.09639e+12 -4.44307e+12 -1.64999e+12 -1.42217e+12 -1.9595e+12 -1.79039e+12 -3.65592e+12 -2.94502e+12 -2.41006e+12 -2.22668e+12 -2.909e+12 -1.26954e+12 -4.58929e+12 -3.37335e+12 -3.4026e+12 -3.86981e+12 -5.79807e+12 -7.3386e+12 -7.2213e+12 -6.90063e+12 -3.98692e+12 -4.23364e+12 -2.43999e+12 -2.21203e+12 -4.53023e+12 -1.87962e+12 -2.00732e+12 -1.29505e+12 -3.11941e+12 -3.62062e+12 -2.96394e+12 -2.55687e+12 -1.32222e+12 -2.79393e+12 -2.83746e+12 -3.1241e+12 -3.64352e+12 -3.5857e+12 -1.86033e+12 -2.08709e+12 -3.29485e+12 -1.40222e+12 -1.52576e+12 -2.55467e+12 -3.42543e+12 -4.34033e+12 -3.20638e+12 -2.37203e+12 -5.31998e+12 -5.80922e+12 -3.91688e+12 -2.69779e+12 -4.28462e+12 -4.55779e+12 -5.19268e+12 -4.63093e+12 -6.07986e+12 -7.87025e+12 -3.86575e+12 -4.08335e+12 -4.30082e+12 -4.09772e+12 -4.73362e+12 -6.83821e+12 -4.86346e+12 -4.04103e+12 -3.58402e+12 -7.77982e+12 -7.98304e+12 -4.55265e+12 -3.93965e+12 -4.89173e+12 -4.08657e+12 -2.91764e+12 -3.14373e+12 -1.9166e+12 -3.1456e+12 -3.92251e+12 -1.77384e+12 -1.56449e+12 -3.58921e+12 -4.30338e+12 -669084000000.0 -2.20283e+12 -4.67561e+12 -4.36087e+12 -3.45107e+12 -4.99837e+12 -4.61034e+12 -4.21106e+12 -3.89328e+12 -3.6478e+12 -6.61075e+12 -6.95014e+12 -6.15035e+12 -5.5571e+12 -4.94067e+12 -8.03277e+12 -7.83332e+12 -4.44965e+12 -5.70954e+12 -6.22635e+12 -5.28099e+12 -3.09997e+12 -3.85367e+12 -5.00575e+12 -6.32782e+12 -7.6909e+12 -7.06433e+12 -6.19865e+12 -4.19838e+12 -4.20058e+12 -6.62512e+12 -3.40045e+12 -4.81502e+12 -2.86172e+12 -6.14309e+12 -6.6022e+12 -4.98653e+12 -4.26619e+12 -3.07274e+12 -4.67514e+12 -4.00483e+12 -3.83793e+12 -3.82878e+12 -2.42156e+12 -2.58709e+12 -5.00021e+12 -7.05636e+12 -3.69323e+12 -4.19391e+12 -3.78224e+12 -4.32028e+12 -4.04376e+12 -4.1035e+12 -4.0706e+12 -5.61489e+12 -6.08347e+12 -4.15612e+12 -7.20781e+12 -8.83279e+12 -4.78693e+12 -9.41194e+12 -9.095e+12 -1.32543e+13 -7.19144e+12 -7.98214e+12 -6.81865e+12 -3.4299e+12 -3.96775e+12 -3.49418e+12 -5.40556e+12 -5.40184e+12 -3.25276e+12 -7.39703e+12 -5.82433e+12 -3.85376e+12 -7.9069e+12 -5.90154e+12 -6.47519e+12 -7.74993e+12 -5.29919e+12 -8.9109e+12 -4.19796e+12 -2.16209e+12 -6.19879e+12 -6.69637e+12 -4.47497e+12 -2.87365e+12 -4.23973e+12 -3.00126e+12 -4.13169e+12 -4.93577e+12 -3.44427e+12 -5.11361e+12 -2.41827e+12 -2.48826e+12 -2.03074e+12 -3.32995e+12 -3.61614e+12 -2.85491e+12 -4.25447e+12 -3.98514e+12 -4.74369e+12 -5.7428e+12 -5.99042e+12 -4.89647e+12 -3.61777e+12 -7.13356e+12 -3.59804e+12 -6.21005e+12 -5.4273e+12 -7.80943e+12 -6.92913e+12 -2.47527e+12 -8.2488e+12 -7.17823e+12 -5.52434e+12 -4.23893e+12 -7.18529e+12 -4.64223e+12 -2.36787e+12 -6.49122e+12 -4.46923e+12 -4.47745e+12 -3.76512e+12 -9.21386e+12 -9.1648e+12 -9.51757e+12 -5.26124e+12 -4.17202e+12 -8.05389e+12 -3.06729e+12 -5.00003e+12 -5.49668e+12 -7.68113e+12 -5.92299e+12 -6.55757e+12 -4.17803e+12 -4.98825e+12 -6.72378e+12 -5.29221e+12 -5.19847e+12 -5.30172e+12 -3.86885e+12 -4.92457e+12 -3.1127e+12 -4.12839e+12 -3.23786e+12 -4.5253e+12 -4.8948e+12 -3.84159e+12 -925905000000.0 -2.64321e+12 -3.78639e+12 -3.02079e+12 -2.63077e+12 -3.42077e+12 -3.74171e+12 -3.6586e+12 -5.40709e+12 -2.37186e+12 -5.14944e+12 -3.41586e+12 -3.42217e+12 -2.059e+12 -4.03815e+12 -3.36525e+12 -5.57408e+12 -2.44345e+12 -2.99575e+12 -3.47059e+12 -5.35097e+12 -2.13247e+12 -6.28914e+12 -8.15358e+12 -4.93078e+12 -6.7202e+12 -3.66364e+12 -5.67956e+12 -4.12583e+12 -5.307e+12 -7.3062e+12 -5.98316e+12 -6.91264e+12 -4.64383e+12 -5.43431e+12 -9.74967e+12 -3.17775e+12 -3.95388e+12 -1.04862e+13 -3.1536e+12 -4.36912e+12 -4.10678e+12 -3.94068e+12 -5.80247e+12 -6.47827e+12 -3.99892e+12 -9.71054e+12 -8.14883e+12 -5.10202e+12 -7.84346e+12 -7.38737e+12 -4.17864e+12 -6.62007e+12 -6.03261e+12 -7.8598e+12 -4.64801e+12 -3.58732e+12 -4.81405e+12 -5.02912e+12 -5.56416e+12 -4.04023e+12 -4.91409e+12 -3.98019e+12 -4.02158e+12 -4.54459e+12 -5.39705e+12 -5.07714e+12 -5.03743e+12 -3.62611e+12 -3.59068e+12 -3.0812e+12 -3.8015e+12 -4.24737e+12 -3.79794e+12 -6.14926e+12 -3.51034e+12 -7.37041e+12 -2.99687e+12 -3.76243e+12 -3.02813e+12 -3.18324e+12 -1.84987e+12 -4.29495e+12 -2.88961e+12 -3.58383e+12 -2.26192e+12 -4.54745e+12 -5.32108e+12 -3.89383e+12 -4.54398e+12 -5.32767e+12 -6.62529e+12 -6.10101e+12 -5.82399e+12 -7.6542e+12 -5.5007e+12 -5.24535e+12 -9.37116e+12 -5.40167e+12 -7.20018e+12 -5.39041e+12 -1.18314e+13 -5.24261e+12 -6.52341e+12 -4.83792e+12 -6.22571e+12 -5.18582e+12 -3.57376e+12 -3.83037e+12 -5.79025e+12 -4.66021e+12 -7.79983e+12 -3.23106e+12 -6.30843e+12 -6.83777e+12 -7.53856e+12 -4.07874e+12 -3.53365e+12 -4.61667e+12 -5.66143e+12 -4.82515e+12 -6.73998e+12 -9.25835e+12 -9.47281e+12 -3.03673e+12 -5.7489e+12 -6.34101e+12 -5.80282e+12 -7.14181e+12 -7.43621e+12 -5.07678e+12 -2.83166e+12 -3.60939e+12 -4.19272e+12 -3.6643e+12 -4.61442e+12 -2.80239e+12 -3.14431e+12 -3.28766e+12 -3.53116e+12 -2.09071e+12 -3.16769e+12 -2.66241e+12 -3.43947e+12 -1.90786e+12 -1.4674e+12 -3.49557e+12 -3.06406e+12 -3.51998e+12 -3.42083e+12 -2.50345e+12 -2.86225e+12 -3.82264e+12 -3.19848e+12 -3.57026e+12 -4.59095e+12 -4.82093e+12 -4.54856e+12 -5.40643e+12 -4.86108e+12 -4.65557e+12 -4.78589e+12 -5.43097e+12 -5.17266e+12 -4.51845e+12 -6.80731e+12 -2.44604e+12 -3.84141e+12 -3.47039e+12 -5.3393e+12 -6.75321e+12 -8.10875e+12 -7.08507e+12 -4.53746e+12 -7.44547e+12 -6.87898e+12 -9.75974e+12 -9.25804e+12 -7.70726e+12 -8.63121e+12 -4.91806e+12 -4.34565e+12 -6.12433e+12 -6.42589e+12 -6.96749e+12 -5.44195e+12 -3.81065e+12 -9.05829e+12 -4.21054e+12 -3.07076e+12 -3.88103e+12 -6.23543e+12 -4.92245e+12 -9.22501e+12 -6.63875e+12 -9.7913e+12 -5.00713e+12 -7.1812e+12 -5.5932e+12 -3.07059e+12 -5.74153e+12 -5.40394e+12 -4.69277e+12 -5.24416e+12 -6.75709e+12 -4.14192e+12 -5.3289e+12 -6.78029e+12 -4.97817e+12 -5.06918e+12 -3.1832e+12 -3.15039e+12 -5.38683e+12 -7.00342e+12 -5.1383e+12 -3.95536e+12 -4.18966e+12 -6.37928e+12 -4.11415e+12 -5.46102e+12 -4.88684e+12 -3.55087e+12 -4.52211e+12 -5.38592e+12 -2.39859e+12 -2.66435e+12 -2.20467e+12 -2.69772e+12 -3.92828e+12 -2.56941e+12 -3.05363e+12 -3.3943e+12 -1.7655e+12 -2.61287e+12 -3.68484e+12 -2.29833e+12 -2.98121e+12 -2.99112e+12 -1.83311e+12 -3.21792e+12 -3.8108e+12 -5.20232e+12 -3.39331e+12 -2.77303e+12 -2.46577e+12 -2.7827e+12 -3.66327e+12 -5.10068e+12 -4.04124e+12 -3.99354e+12 -4.62286e+12 -2.36601e+12 -5.03213e+12 -3.87174e+12 -3.52316e+12 -4.20565e+12 -5.95747e+12 -8.88254e+12 -4.49095e+12 -6.14191e+12 -1.40676e+13 -3.06501e+12 -9.15972e+12 -9.4617e+12 -6.09472e+12 -5.08725e+12 -4.39619e+12 -7.44193e+12 -4.56929e+12 -5.48415e+12 -4.36523e+12 -3.34341e+12 -7.30247e+12 -3.26562e+12 -6.08588e+12 -2.92422e+12 -3.26872e+12 -6.35633e+12 -3.34238e+12 -4.92965e+12 -4.7047e+12 -7.82709e+12 -7.88111e+12 -7.43022e+12 -5.13009e+12 -6.19946e+12 -6.70736e+12 -7.38419e+12 -4.2756e+12 -7.12825e+12 -9.45569e+12 -8.93213e+12 -6.05571e+12 -6.75132e+12 -4.60705e+12 -6.11714e+12 -8.63164e+12 -4.94016e+12 -3.37817e+12 -3.38771e+12 -8.62223e+12 -2.32699e+12 -3.71645e+12 -4.32397e+12 -5.13185e+12 -3.70901e+12 -3.80327e+12 -2.77863e+12 -3.91207e+12 -2.04414e+12 -5.07747e+12 -3.30131e+12 -2.85721e+12 -2.82691e+12 -4.60551e+12 -5.14918e+12 -2.27255e+12 -2.99839e+12 -3.59715e+12 -2.09039e+12 -2.11875e+12 -4.00437e+12 -4.16753e+12 -2.91836e+12 -4.67906e+12 -3.71826e+12 -3.4684e+12 -3.54636e+12 -4.0677e+12 -2.64432e+12 -9.18105e+12 -7.01072e+12 -4.03171e+12 -4.99672e+12 -1.09395e+13 -4.0975e+12 -6.38355e+12 -7.68898e+12 -5.9542e+12 -5.30191e+12 -5.17985e+12 -5.14947e+12 -6.62791e+12 -8.14867e+12 -1.08444e+13 -4.12971e+12 -1.01516e+13 -8.77831e+12 -6.51458e+12 -4.38098e+12 -5.46131e+12 -6.42764e+12 -8.38502e+12 -4.56062e+12 -5.32323e+12 -5.81476e+12 -5.14441e+12 -4.46851e+12 -4.93179e+12 -8.13737e+12 -7.61506e+12 -3.82899e+12 -2.74736e+12 -4.92007e+12 -5.7767e+12 -7.00174e+12 -7.83134e+12 -6.50883e+12 -9.21472e+12 -5.18038e+12 -6.90125e+12 -4.30687e+12 -6.08549e+12 -5.70778e+12 -3.80797e+12 -7.36873e+12 -9.37102e+12 -6.86732e+12 -9.87988e+12 -3.70957e+12 -8.31816e+12 -3.75016e+12 -5.06944e+12 -3.49987e+12 -3.96998e+12 -3.24832e+12 -4.97331e+12 -3.33302e+12 -3.40031e+12 -3.49108e+12 -6.09682e+12 -5.74424e+12 -6.07488e+12 -3.57958e+12 -4.66518e+12 -3.36654e+12 -4.80281e+12 -3.97817e+12 -3.71329e+12 -2.68724e+12 -2.94462e+12 -2.62728e+12 -2.52536e+12 -2.71004e+12 -3.43691e+12 -5.24141e+12 -2.26739e+12 -3.38946e+12 -3.25602e+12 -2.94558e+12 -2.82286e+12 -4.01603e+12 -3.41936e+12 -5.01893e+12 -5.28594e+12 -2.35005e+12 -2.30727e+12 -4.32169e+12 -3.34446e+12 -3.98566e+12 -7.21902e+12 -1.45437e+12 -6.56414e+12 -2.46337e+12 -9.99024e+12 -4.5458e+12 -7.67776e+12 -8.6629e+12 -7.25219e+12 -3.53132e+12 -5.61679e+12 -6.85707e+12 -4.18128e+12 -4.19523e+12 -8.25024e+12 -7.90444e+12 -8.46962e+12 -8.02595e+12 -1.009e+13 -5.85459e+12 -3.07286e+12 -4.92713e+12 -9.99667e+12 -4.82724e+12 -9.52054e+12 -8.93402e+12 -6.04209e+12 -5.35527e+12 -7.7632e+12 -7.5333e+12 -3.29823e+12 -9.16679e+12 -6.25693e+12 -1.04163e+13 -5.38416e+12 -5.35366e+12 -5.82867e+12 -6.34779e+12 -1.17113e+13 -4.76663e+12 -8.93963e+12 -6.58584e+12 -6.71542e+12 -7.13983e+12 -4.61466e+12 -6.50242e+12 -3.92592e+12 -4.02251e+12 -5.86886e+12 -6.09081e+12 -9.11729e+12 -6.20078e+12 -5.97312e+12 -4.84162e+12 -7.17661e+12 -4.40628e+12 -3.61054e+12 -4.73352e+12 -5.0144e+12 -7.18877e+12 -5.51195e+12 -4.78744e+12 -3.65497e+12 -3.53405e+12 -3.7303e+12 -1.88385e+12 -3.90542e+12 -3.02721e+12 -4.89516e+12 -2.55782e+12 -2.25561e+12 -2.84513e+12 -3.038e+12 -4.23495e+12 -3.14315e+12 -3.23637e+12 -3.60917e+12 -3.60592e+12 -3.36841e+12 -4.95671e+12 -3.32379e+12 -4.83437e+12 -3.78038e+12 -2.88622e+12 -2.19527e+12 -4.03792e+12 -4.25512e+12 -2.17932e+12 -3.10133e+12 -1.34873e+12 -2.9855e+12 -5.51757e+12 -4.32349e+12 -4.22154e+12 -4.24746e+12 -4.6074e+12 -4.79699e+12 -5.21264e+12 -4.34104e+12 -4.74312e+12 -4.24034e+12 -5.3594e+12 -5.93004e+12 -5.09323e+12 -5.29535e+12 -5.70637e+12 -4.56566e+12 -3.91918e+12 -5.38638e+12 -4.47431e+12 -6.19558e+12 -4.30593e+12 -5.95042e+12 -4.57985e+12 -5.3995e+12 -2.226e+12 -8.13111e+12 -6.43864e+12 -9.03272e+12 -6.2623e+12 -8.50712e+12 -7.57146e+12 -6.90131e+12 -1.22306e+13 -9.98693e+12 -3.49965e+12 -4.56121e+12 -8.94492e+12 -6.1025e+12 -7.20529e+12 -3.89853e+12 -7.22673e+12 -4.97243e+12 -1.1523e+13 -3.28258e+12 -8.16314e+12 -9.27456e+12 -9.59948e+12 -1.04749e+13 -7.43571e+12 -3.22466e+12 -1.18044e+13 -8.13155e+12 -4.59917e+12 -9.30978e+12 -3.85356e+12 -7.01131e+12 -6.417e+12 -5.11646e+12 -7.88253e+12 -7.30861e+12 -5.60943e+12 -5.97485e+12 -4.91516e+12 -5.03725e+12 -4.12005e+12 -3.72643e+12 -4.85616e+12 -5.64471e+12 -6.24856e+12 -4.54917e+12 -4.72693e+12 -3.48917e+12 -5.49052e+12 -3.94556e+12 -3.9008e+12 -3.05111e+12 -3.18294e+12 -3.571e+12 -3.46123e+12 -1.51787e+12 -3.23464e+12 -3.24084e+12 -2.91127e+12 -1.76913e+12 -1.35552e+12 -3.55947e+12 -2.48779e+12 -2.7624e+12 -2.17551e+12 -3.02157e+12 -2.91293e+12 -2.81392e+12 -2.74218e+12 -4.16842e+12 -4.91362e+12 -2.48975e+12 -3.17002e+12 -3.50917e+12 -1.91038e+12 -3.07727e+12 -2.80735e+12 -2.22481e+12 -3.53949e+12 -2.3788e+12 -3.97114e+12 -5.35373e+12 -6.36204e+12 -3.90821e+12 -2.97803e+12 -5.85076e+12 -6.19593e+12 -7.73567e+12 -6.23592e+12 -4.01417e+12 -4.61445e+12 -6.27717e+12 -6.98376e+12 -2.9195e+12 -4.43587e+12 -5.69558e+12 -4.97281e+12 -6.4582e+12 -6.12468e+12 -5.44439e+12 -4.22568e+12 -5.26128e+12 -6.82092e+12 -7.45792e+12 -4.71304e+12 -1.24079e+13 -5.39912e+12 -8.49385e+12 -6.85398e+12 -7.08592e+12 -7.86557e+12 -1.14285e+13 -9.5197e+12 -3.44423e+12 -6.01987e+12 -2.13027e+12 -4.45557e+12 -3.29093e+12 -8.21238e+12 -2.86902e+12 -7.18289e+12 -6.5247e+12 -4.13123e+12 -8.14952e+12 -9.1314e+12 -7.52227e+12 -5.94961e+12 -8.6628e+12 -7.56375e+12 -4.84997e+12 -5.40232e+12 -5.37628e+12 -7.25586e+12 -7.59385e+12 -5.26661e+12 -7.06284e+12 -4.42873e+12 -4.86731e+12 -6.41825e+12 -5.47942e+12 -5.15775e+12 -4.9434e+12 -5.55835e+12 -3.82786e+12 -4.22074e+12 -3.94187e+12 -5.55095e+12 -6.75895e+12 -3.70876e+12 -5.90622e+12 -4.99591e+12 -8.39085e+12 -4.77179e+12 -4.11423e+12 -3.98787e+12 -3.16841e+12 -2.32735e+12 -2.91445e+12 -2.20206e+12 -2.37932e+12 -2.67651e+12 -1.77749e+12 -2.00476e+12 -2.11614e+12 -3.508e+12 -2.11833e+12 -5.06468e+12 -3.32447e+12 -1.54707e+12 -2.04475e+12 -2.75564e+12 -3.59144e+12 -6.06045e+12 -1.56487e+12 -2.55025e+12 -689045000000.0 -5.13678e+12 -3.94322e+12 -2.49344e+12 -5.40893e+12 -5.03539e+12 -2.43464e+12 -2.69473e+12 -2.45332e+12 -4.89285e+12 -2.70251e+12 -4.62757e+12 -3.73185e+12 -2.68268e+12 -2.75756e+12 -7.85461e+12 -4.56978e+12 -4.91116e+12 -4.53069e+12 -3.84103e+12 -5.88784e+12 -6.12752e+12 -4.82812e+12 -5.33466e+12 -8.02158e+12 -3.81549e+12 -6.06918e+12 -7.65755e+12 -6.76341e+12 -1.1022e+13 -3.88586e+12 -1.00054e+13 -7.77881e+12 -6.62501e+12 -8.87427e+12 -7.04678e+12 -9.06717e+12 -7.35388e+12 -7.37453e+12 -5.39519e+12 -6.68701e+12 -8.06644e+12 -8.71306e+12 -6.3498e+12 -3.67025e+12 -6.43647e+12 -5.06294e+12 -6.73304e+12 -8.60191e+12 -5.36647e+12 -6.09708e+12 -6.01745e+12 -4.651e+12 -4.8239e+12 -7.84634e+12 -4.74416e+12 -7.55069e+12 -5.48148e+12 -1.08885e+13 -8.95446e+12 -5.34838e+12 -9.6433e+12 -7.59305e+12 -8.70262e+12 -4.42733e+12 -4.66963e+12 -9.97517e+12 -6.72172e+12 -7.96856e+12 -5.81637e+12 -8.60844e+12 -5.72151e+12 -5.64583e+12 -5.74294e+12 -6.25968e+12 -6.02801e+12 -3.77093e+12 -3.59567e+12 -5.25275e+12 -3.96e+12 -7.83633e+12 -3.05442e+12 -2.17484e+12 -5.56841e+12 -2.49895e+12 -2.36068e+12 -3.63908e+12 -4.88782e+12 -2.2745e+12 -4.28046e+12 -4.60911e+12 -1.97969e+12 -2.14272e+12 -4.18922e+12 -3.56351e+12 -2.39203e+12 -1.82301e+12 -3.95283e+12 -1.9754e+12 -2.92957e+12 -2.38306e+12 -3.26002e+12 -3.89421e+12 -3.18485e+12 -3.29222e+12 -3.40389e+12 -5.47837e+12 -2.88282e+12 -3.30851e+12 -2.60482e+12 -4.33621e+12 -4.48144e+12 -1.71015e+12 -3.0903e+12 -4.90257e+12 -3.1922e+12 -3.78541e+12 -3.51873e+12 -6.6804e+12 -3.00844e+12 -7.17905e+12 -4.1929e+12 -4.76029e+12 -7.24791e+12 -4.79041e+12 -4.28377e+12 -8.87165e+12 -7.11537e+12 -5.70984e+12 -7.40866e+12 -6.64832e+12 -7.29203e+12 -5.73162e+12 -6.09319e+12 -6.45109e+12 -6.90704e+12 -1.0139e+13 -1.06261e+13 -5.38354e+12 -8.20716e+12 -9.25772e+12 -6.93383e+12 -8.72697e+12 -3.56068e+12 -1.1931e+13 -5.73076e+12 -4.54797e+12 -7.87778e+12 -8.4579e+12 -3.79386e+12 -2.796e+12 -9.6866e+12 -4.42246e+12 -5.62385e+12 -8.69146e+12 -9.15669e+12 -9.43458e+12 -7.36292e+12 -9.00782e+12 -6.41527e+12 -7.01383e+12 -6.68087e+12 -7.00436e+12 -4.37914e+12 -5.89978e+12 -4.19787e+12 -6.89659e+12 -6.05431e+12 -5.03417e+12 -7.89351e+12 -4.18885e+12 -7.09971e+12 -7.09612e+12 -3.98068e+12 -4.1568e+12 -4.14303e+12 -5.13213e+12 -3.0551e+12 -4.50084e+12 -3.89531e+12 -5.24019e+12 -5.11742e+12 -4.5795e+12 -5.10973e+12 -4.24442e+12 -1.65956e+12 -2.70571e+12 -5.58655e+12 -3.14067e+12 -1.66636e+12 -5.14784e+12 -2.29635e+12 -4.1001e+12 -2.37759e+12 -3.39149e+12 -4.14142e+12 -1.71104e+12 -2.97708e+12 -3.32985e+12 -1.8791e+12 -2.37633e+12 -2.61833e+12 -966671000000.0 -1.5415e+12 -2.48198e+12 -2.08273e+12 -4.3363e+12 -2.84108e+12 -4.5742e+12 -3.393e+12 -3.51302e+12 -3.12552e+12 -4.56802e+12 -2.59168e+12 -3.47206e+12 -5.19241e+12 -4.64079e+12 -4.67652e+12 -3.0079e+12 -3.45742e+12 -2.77311e+12 -3.70697e+12 -4.14638e+12 -7.15482e+12 -5.01159e+12 -4.26102e+12 -7.71211e+12 -3.71645e+12 -4.09662e+12 -5.78377e+12 -6.26964e+12 -4.41861e+12 -4.57797e+12 -4.67947e+12 -6.81904e+12 -5.72167e+12 -7.73817e+12 -7.4745e+12 -7.46161e+12 -6.50996e+12 -6.63549e+12 -1.17605e+13 -9.61045e+12 -6.7719e+12 -6.03434e+12 -8.19648e+12 -4.11033e+12 -1.02161e+13 -3.95724e+12 -5.22504e+12 -4.92226e+12 -6.01715e+12 -4.96175e+12 -8.88112e+12 -6.60069e+12 -9.01774e+12 -6.64792e+12 -4.66117e+12 -7.03704e+12 -4.07957e+12 -8.21205e+12 -7.90805e+12 -8.84637e+12 -4.47406e+12 -6.63045e+12 -3.82963e+12 -6.34321e+12 -5.12596e+12 -7.37991e+12 -1.09997e+13 -6.28414e+12 -5.12523e+12 -4.81555e+12 -5.01563e+12 -8.63327e+12 -1.9692e+12 -4.21589e+12 -3.34045e+12 -7.64984e+12 -5.58871e+12 -7.42462e+12 -6.66447e+12 -4.90178e+12 -6.59704e+12 -5.49379e+12 -7.09242e+12 -4.65263e+12 -5.27289e+12 -1.55242e+12 -4.55062e+12 -3.78237e+12 -2.80512e+12 -5.00599e+12 -3.18784e+12 -5.7502e+12 -2.8493e+12 -3.65274e+12 -4.0439e+12 -4.22895e+12 -1.93285e+12 -3.77003e+12 -2.55775e+12 -4.37798e+12 -4.61059e+12 -3.69412e+12 -3.22665e+12 -2.66811e+12 -3.19371e+12 -2.42643e+12 -2.23891e+12 -2.40107e+12 -1.50821e+12 -2.89414e+12 -2.68322e+12 -1.59925e+12 -2.30465e+12 -3.82304e+12 -2.66264e+12 -2.38013e+12 -2.03068e+12 -3.11619e+12 -3.32617e+12 -2.33513e+12 -559302000000.0 -2.41397e+12 -2.22164e+12 -2.52624e+12 -3.18351e+12 -5.60518e+12 -1.03912e+12 -2.9309e+12 -1.39259e+12 -3.51258e+12 -3.05573e+12 -4.43422e+12 -4.4402e+12 -3.66272e+12 -3.30495e+12 -6.00498e+12 -3.654e+12 -3.96649e+12 -5.35856e+12 -3.34393e+12 -3.33405e+12 -3.17871e+12 -5.79768e+12 -6.74582e+12 -7.17747e+12 -6.25794e+12 -7.78463e+12 -6.39565e+12 -4.08684e+12 -2.97962e+12 -5.76877e+12 -6.24597e+12 -8.34319e+12 -5.92398e+12 -7.56408e+12 -3.71218e+12 -9.68397e+12 -2.33732e+12 -6.37403e+12 -8.24047e+12 -2.95657e+12 -3.07171e+12 -6.23676e+12 -6.46856e+12 -3.53876e+12 -6.985e+12 -7.99008e+12 -6.58264e+12 -6.40336e+12 -6.89664e+12 -7.19417e+12 -8.31076e+12 -3.77911e+12 -6.497e+12 -7.89011e+12 -9.01045e+12 -5.58928e+12 -7.93471e+12 -1.07136e+13 -7.39133e+12 -1.01446e+13 -9.98985e+12 -7.14182e+12 -7.33635e+12 -5.8554e+12 -4.66399e+12 -6.85833e+12 -4.05571e+12 -7.32701e+12 -4.31015e+12 -9.70876e+12 -3.18382e+12 -4.3542e+12 -6.76343e+12 -3.16437e+12 -4.01761e+12 -6.44933e+12 -6.1821e+12 -4.14204e+12 -1.55829e+12 -6.06168e+12 -4.31125e+12 -5.96676e+12 -4.82645e+12 -5.37187e+12 -3.75177e+12 -4.81483e+12 -3.94535e+12 -2.94412e+12 -4.53247e+12 -3.22701e+12 -2.69521e+12 -2.94142e+12 -3.26134e+12 -5.27062e+12 -5.3922e+12 -3.22657e+12 -3.59088e+12 -3.52111e+12 -3.0186e+12 -1.51959e+12 -3.40375e+12 -3.1788e+12 -2.57797e+12 -2.66397e+12 -1.73002e+12 -2.3508e+12 -928210000000.0 -3.57063e+12 -4.37635e+12 -1.60758e+12 -2.27807e+12 -1.40714e+12 -2.21731e+12 -3.95144e+12 -3.62146e+12 -2.58279e+12 -2.80055e+12 -1.9111e+12 -1.47076e+12 -2.6852e+12 -2.7647e+12 -4.24993e+12 -2.98928e+12 -3.85298e+12 -2.71833e+12 -2.93453e+12 -4.56592e+12 -6.24155e+12 -1.825e+12 -6.14863e+12 -2.04802e+12 -4.86325e+12 -4.906e+12 -6.04334e+12 -5.32799e+12 -6.65475e+12 -1.90591e+12 -4.48056e+12 -4.0253e+12 -4.82203e+12 -6.18496e+12 -5.99431e+12 -4.35765e+12 -4.70824e+12 -5.90627e+12 -3.1738e+12 -6.86533e+12 -2.90724e+12 -6.83446e+12 -5.2425e+12 -4.46569e+12 -5.92712e+12 -5.17896e+12 -5.39857e+12 -5.10704e+12 -7.21187e+12 -6.30564e+12 -6.55676e+12 -5.7809e+12 -5.60481e+12 -6.75133e+12 -6.54059e+12 -6.22415e+12 -3.68366e+12 -7.34261e+12 -4.64086e+12 -4.80488e+12 -6.70638e+12 -2.23158e+12 -2.17072e+12 -6.82489e+12 -4.27472e+12 -6.80181e+12 -7.33995e+12 -4.83902e+12 -1.10981e+13 -9.08537e+12 -2.52068e+12 -6.19991e+12 -8.53718e+12 -5.32858e+12 -6.97967e+12 -8.0599e+12 -4.50916e+12 -6.83679e+12 -5.86311e+12 -3.24915e+12 -6.44465e+12 -6.83561e+12 -4.59239e+12 -8.20408e+12 -4.6259e+12 -4.81511e+12 -5.05386e+12 -3.2299e+12 -4.24286e+12 -5.86388e+12 -5.49826e+12 -3.23399e+12 -3.09364e+12 -7.61826e+12 -3.62324e+12 -6.79728e+12 -3.50357e+12 -3.57038e+12 -2.92471e+12 -5.76052e+12 -5.0746e+12 -4.67794e+12 -1.88128e+12 -2.93786e+12 -4.65308e+12 -3.01203e+12 -3.23575e+12 -5.08947e+12 -2.67571e+12 -3.35047e+12 -3.5842e+12 -2.59185e+12 -4.5841e+12 -2.27771e+12 -685190000000.0 -1.90369e+12 -4.2612e+12 -3.12605e+12 -2.22099e+12 -4.43325e+12 -2.71153e+12 -2.31505e+12 -1.7385e+12 -2.32662e+12 -2.54164e+12 -2.66304e+12 -2.33441e+12 -1.34034e+12 -1.33238e+12 -3.16182e+12 -3.8144e+12 -1.90427e+12 -1.65368e+12 -2.99166e+12 -4.70585e+12 -3.51463e+12 -3.32491e+12 -2.82585e+12 -3.41827e+12 -2.77813e+12 -3.29555e+12 -3.36215e+12 -5.18718e+12 -3.07915e+12 -5.03781e+12 -3.71951e+12 -5.95077e+12 -3.55927e+12 -2.31765e+12 -4.79142e+12 -3.40614e+12 -2.64839e+12 -4.49833e+12 -2.67263e+12 -5.27246e+12 -3.25508e+12 -5.12934e+12 -5.06353e+12 -4.79781e+12 -5.43941e+12 -1.94917e+12 -2.73509e+12 -4.5718e+12 -6.39777e+12 -7.0336e+12 -5.84621e+12 -3.13995e+12 -5.35862e+12 -5.03095e+12 -6.01708e+12 -9.00303e+12 -9.1333e+12 -6.6631e+12 -8.17241e+12 -6.88609e+12 -4.16415e+12 -8.19086e+12 -9.33751e+12 -7.64795e+12 -7.16375e+12 -6.59107e+12 -5.78549e+12 -5.9962e+12 -4.94618e+12 -7.94284e+12 -3.60948e+12 -7.04484e+12 -8.28343e+12 -3.88357e+12 -8.27339e+12 -4.36302e+12 -5.36969e+12 -4.75726e+12 -4.73525e+12 -3.62403e+12 -3.51675e+12 -5.28354e+12 -5.53228e+12 -5.61129e+12 -9.86632e+12 -5.91778e+12 -9.7975e+12 -5.82185e+12 -7.5674e+12 -7.28949e+12 -3.51441e+12 -4.49324e+12 -8.49919e+12 -1.02251e+13 -6.14985e+12 -3.8444e+12 -5.08335e+12 -4.80694e+12 -3.93643e+12 -5.46963e+12 -3.49568e+12 -5.96722e+12 -8.30161e+12 -5.84065e+12 -5.20764e+12 -5.47925e+12 -4.87825e+12 -4.63282e+12 -5.33301e+12 -3.75398e+12 -4.33081e+12 -5.45329e+12 -4.86512e+12 -5.28337e+12 -2.7438e+12 -3.76456e+12 -6.76564e+12 -2.37955e+12 -3.81267e+12 -4.52505e+12 -4.45299e+12 -3.37153e+12 -4.09433e+12 -1.48158e+12 -3.34246e+12 -5.35273e+12 -3.25992e+12 -2.87705e+12 -2.29917e+12 -2.57797e+12 -3.69747e+12 -2.29254e+12 -2.77766e+12 -3.32744e+12 -2.81483e+12 -2.47441e+12 -3.35844e+12 -1.58881e+12 -2.08045e+12 -2.86395e+12 -954243000000.0 -2.52926e+12 -1.46078e+12 -2.52997e+12 -2.01489e+12 -2.19309e+12 -1.61488e+12 -1.17705e+12 -3.24714e+12 -2.4816e+12 -847786000000.0 -2.61061e+12 -1.50342e+12 -2.9917e+12 -1.65801e+12 -2.58648e+12 -2.32911e+12 -1.61282e+12 -4.38754e+12 -2.67803e+12 -1.47946e+12 -2.248e+12 -3.39252e+12 -3.09318e+12 -2.20214e+12 -2.10465e+12 -2.77344e+12 -2.41385e+12 -1.98519e+12 -1.17146e+12 -3.04977e+12 -3.38634e+12 -3.27117e+12 -3.34157e+12 -4.37955e+12 -4.92831e+12 -2.93881e+12 -2.84473e+12 -3.58615e+12 -4.83053e+12 -2.58128e+12 -3.6334e+12 -3.67999e+12 -2.7715e+12 -4.75778e+12 -1.50201e+12 -1.1337e+12 -6.55251e+12 -2.37301e+12 -4.92883e+12 -7.84221e+12 -6.14715e+12 -8.30398e+12 -6.68364e+12 -6.03755e+12 -6.98549e+12 -9.57158e+12 -9.33066e+12 -5.73105e+12 -8.89638e+12 -9.81579e+12 -5.64783e+12 -6.65674e+12 -7.91931e+12 -7.1898e+12 -4.8851e+12 -4.86098e+12 -5.65251e+12 -4.97117e+12 -7.22388e+12 -4.45432e+12 -6.11854e+12 -4.70106e+12 -4.58322e+12 -4.76492e+12 -3.77067e+12 -3.53058e+12 -6.25054e+12 -5.30819e+12 -8.91358e+12 -4.25898e+12 -2.56719e+12 -6.00826e+12 -1.07857e+13 -7.71984e+12 -7.47006e+12 -1.19438e+13 -6.88209e+12 -4.31738e+12 -3.55564e+12 -8.03154e+12 -5.5962e+12 -7.60588e+12 -5.63e+12 -3.53592e+12 -7.54749e+12 -4.02911e+12 -3.91499e+12 -3.1735e+12 -5.23204e+12 -6.53907e+12 -5.56128e+12 -3.6111e+12 -4.40619e+12 -4.7487e+12 -3.87158e+12 -3.01483e+12 -3.07145e+12 -2.97819e+12 -3.32238e+12 -2.43535e+12 -3.08911e+12 -3.68313e+12 -3.20564e+12 -3.30899e+12 -3.84939e+12 -3.87877e+12 -6.2267e+12 -2.80716e+12 -3.59961e+12 -4.33094e+12 -2.91043e+12 -2.37516e+12 -2.87037e+12 -1.36707e+12 -2.17883e+12 -1.18743e+12 -1.42425e+12 -2.36812e+12 -2.85281e+12 -2.38449e+12 -2.44993e+12 -2.07907e+12 -2.5171e+12 -1.67135e+12 -3.26524e+12 -1.77917e+12 -1.93449e+12 -1.03141e+12 -1.53001e+12 -573197000000.0 -2.09682e+12 -1.36596e+12 -2.47022e+12 -3.10509e+12 -979754000000.0 -784101000000.0 -2.37895e+12 -2.90856e+12 -3.95971e+12 -1.31283e+12 -527151000000.0 -2.70467e+12 -1.31182e+12 -2.2503e+12 -3.26763e+12 -5.88429e+12 -2.94999e+12 -2.77389e+12 -1.58231e+12 -3.62777e+12 -5.03893e+12 -5.10429e+12 -3.14528e+12 -2.33482e+12 -4.66096e+12 -4.03662e+12 -5.5565e+12 -4.69398e+12 -5.63451e+12 -4.30576e+12 -5.96877e+12 -2.38136e+12 -8.39403e+12 -6.41947e+12 -4.74173e+12 -2.33412e+12 -5.09037e+12 -4.52094e+12 -1.58265e+12 -9.21662e+12 -7.24693e+12 -5.91074e+12 -3.75025e+12 -5.04125e+12 -5.53997e+12 -4.02101e+12 -5.86954e+12 -7.58631e+12 -5.87608e+12 -7.88531e+12 -4.87167e+12 -4.05266e+12 -6.78178e+12 -8.02469e+12 -4.85829e+12 -4.84912e+12 -4.24522e+12 -5.87545e+12 -7.24584e+12 -6.00963e+12 -9.18829e+12 -5.18626e+12 -2.80448e+12 -4.12628e+12 -9.30161e+12 -3.47854e+12 -4.05084e+12 -3.14537e+12 -4.06676e+12 -5.3365e+12 -8.27228e+12 -7.86782e+12 -4.73104e+12 -6.99848e+12 -6.04502e+12 -4.31106e+12 -7.93841e+12 -6.174e+12 -7.01026e+12 -1.48875e+13 -5.7106e+12 -6.92237e+12 -3.96942e+12 -8.18073e+12 -6.02344e+12 -6.53487e+12 -4.12865e+12 -7.52216e+12 -5.40937e+12 -5.36277e+12 -5.52062e+12 -5.16947e+12 -3.12366e+12 -6.14745e+12 -3.69327e+12 -1.06194e+12 -4.42949e+12 -3.78751e+12 -7.29938e+12 -2.46927e+12 -3.99722e+12 -2.34244e+12 -4.6804e+12 -1.61358e+12 -3.67972e+12 -4.53088e+12 -2.33888e+12 -3.93637e+12 -2.013e+12 -4.1327e+12 -3.40197e+12 -4.56111e+12 -3.11004e+12 -3.68143e+12 -5.51273e+12 -4.20652e+12 -4.37353e+12 -2.09608e+12 -2.72101e+12 -4.38384e+12 -3.9124e+12 -2.08868e+12 -3.28346e+12 -2.15796e+12 -4.315e+12 -2.81031e+12 -2.9253e+12 -1.60923e+12 -3.01435e+12 -2.5615e+12 -2.0474e+12 -488295000000.0 -2.07034e+12 -1.64419e+12 -1.59126e+12 -1.59323e+12 -1.75656e+12 -2.31697e+12 -2.82432e+12 -2.12696e+12 -1.83164e+12 -2.46061e+12 -2.36411e+12 -2.51249e+12 -2.78867e+12 -2.81269e+12 -3.6725e+12 -2.39963e+12 -3.06333e+12 -1.95931e+12 -1.96594e+12 -1.58304e+12 -1.66797e+12 -3.26416e+12 -2.62043e+12 -1.80799e+12 -2.3181e+12 -4.23477e+12 -5.30014e+12 -3.25296e+12 -5.1584e+12 -3.41328e+12 -4.53934e+12 -1.43629e+12 -4.25115e+12 -6.9094e+12 -5.11005e+12 -2.80923e+12 -3.37197e+12 -4.16332e+12 -7.83439e+12 -4.48018e+12 -6.11073e+12 -7.47609e+12 -3.09455e+12 -3.60428e+12 -6.83977e+12 -5.53115e+12 -4.29903e+12 -4.56235e+12 -3.10571e+12 -4.81135e+12 -3.20019e+12 -4.76294e+12 -6.38626e+12 -6.50733e+12 -6.02252e+12 -6.65123e+12 -6.04706e+12 -7.72964e+12 -5.30683e+12 -4.31856e+12 -8.18545e+12 -8.79142e+12 -4.56078e+12 -6.04319e+12 -6.35417e+12 -5.3507e+12 -3.41043e+12 -7.30135e+12 -4.33302e+12 -3.22228e+12 -4.89631e+12 -3.75527e+12 -5.25246e+12 -4.14149e+12 -6.17017e+12 -3.29849e+12 -5.53993e+12 -6.26983e+12 -7.92975e+12 -6.56777e+12 -5.65223e+12 -4.37119e+12 -1.00446e+13 -4.499e+12 -8.64365e+12 -5.54155e+12 -3.83678e+12 -7.06663e+12 -3.90087e+12 -5.94961e+12 -6.01178e+12 -5.20076e+12 -5.26738e+12 -8.03914e+12 -5.91517e+12 -7.0681e+12 -4.25727e+12 -4.26947e+12 -3.04072e+12 -4.0042e+12 -2.47294e+12 -2.34405e+12 -4.95257e+12 -3.68469e+12 -5.27049e+12 -3.84803e+12 -4.05534e+12 -3.28802e+12 -2.8349e+12 -2.19668e+12 -1.73125e+12 -3.02858e+12 -3.13299e+12 -2.11327e+12 -2.84076e+12 -2.60784e+12 -2.77539e+12 -1.08026e+12 -1.43422e+12 -1.65969e+12 -3.1666e+12 -2.79336e+12 -1.98372e+12 -602461000000.0 -1.45092e+12 -2.19056e+12 -2.03335e+12 -1.45483e+12 -1.95846e+12 -1.16618e+12 -1.67125e+12 -2.16417e+12 -2.11442e+12 -1.2231e+12 -3.3423e+12 -3.24024e+12 -1.63296e+12 -921717000000.0 -2.13947e+12 -2.0598e+12 -1.10891e+12 -2.4481e+12 -1.42844e+12 -4.54405e+12 -3.00286e+12 -2.22381e+12 -2.47721e+12 -4.33658e+12 -3.44751e+12 -2.28248e+12 -4.38531e+12 -3.42795e+12 -4.02684e+12 -3.32488e+12 -3.95471e+12 -3.90001e+12 -4.21274e+12 -5.70095e+12 -3.7824e+12 -3.1618e+12 -3.64684e+12 -5.40755e+12 -3.20331e+12 -6.13715e+12 -1.69373e+12 -2.75206e+12 -4.36316e+12 -5.03762e+12 -3.09678e+12 -3.82477e+12 -3.92851e+12 -4.14468e+12 -5.88501e+12 -6.42676e+12 -6.89305e+12 -3.45897e+12 -5.72365e+12 -5.10529e+12 -2.05444e+12 -5.87094e+12 -9.9234e+12 -4.96358e+12 -4.91077e+12 -4.42278e+12 -3.99336e+12 -4.56177e+12 -5.52722e+12 -7.86332e+12 -7.12306e+12 -8.20335e+12 -9.46341e+12 -5.69935e+12 -6.04211e+12 -6.02798e+12 -4.74558e+12 -7.52194e+12 -6.82043e+12 -4.88259e+12 -6.22038e+12 -4.72418e+12 -2.4586e+12 -2.46395e+12 -4.75153e+12 -5.45081e+12 -5.85792e+12 -4.78427e+12 -2.81755e+12 -4.66488e+12 -5.14963e+12 -3.15918e+12 -3.49179e+12 -3.20591e+12 -6.42176e+12 -4.6863e+12 -5.07702e+12 -3.26398e+12 -3.37786e+12 -5.73702e+12 -5.51394e+12 -3.45835e+12 -5.19996e+12 -4.10147e+12 -3.13729e+12 -5.90511e+12 -5.49625e+12 -4.58068e+12 -2.37388e+12 -3.76094e+12 -5.18108e+12 -5.3487e+12 -4.41694e+12 -4.18871e+12 -3.03618e+12 -4.01506e+12 -6.75032e+12 -3.11575e+12 -3.09869e+12 -4.10054e+12 -2.94059e+12 -3.92065e+12 -2.96792e+12 -6.49245e+12 -4.97308e+12 -2.91345e+12 -3.15498e+12 -5.33937e+12 -3.42272e+12 -3.48499e+12 -4.92978e+12 -1.77135e+12 -2.44812e+12 -2.53378e+12 -4.96374e+12 -3.22028e+12 -4.63263e+12 -2.41717e+12 -2.14654e+12 -2.60721e+12 -1.95696e+12 -2.34558e+12 -2.63089e+12 -2.09045e+12 -1.01583e+12 -2.12379e+12 -1.15143e+12 -1.54709e+12 -2.66833e+12 -880830000000.0 -1.8678e+12 -2.45163e+12 -2.53713e+12 -1.71743e+12 -788964000000.0 -261681000000.0 -2.00392e+12 -1.37646e+12 -1.78327e+12 -1.43824e+12 -749997000000.0 -1.46517e+12 -1.03113e+12 -910115000000.0 -1.47874e+12 -2.97222e+12 -1.5133e+12 -2.0177e+12 -1.29141e+12 -1.14077e+12 -892649000000.0 -1.38619e+12 -1.46534e+12 -2.85859e+12 -2.68033e+12 -2.02478e+12 -2.4412e+12 -2.84323e+12 -2.66109e+12 -2.99581e+12 -1.96741e+12 -3.16861e+12 -2.89126e+12 -4.03964e+12 -2.1786e+12 -3.25158e+12 -4.56965e+12 -4.0294e+12 -3.68175e+12 -3.37658e+12 -5.78889e+12 -4.49493e+12 -3.15285e+12 -1.73115e+12 -1.95584e+12 -3.89472e+12 -5.64529e+12 -4.85388e+12 -6.11862e+12 -6.25485e+12 -4.16872e+12 -3.18234e+12 -2.1113e+12 -4.08913e+12 -9.9446e+12 -4.01434e+12 -4.85692e+12 -3.94928e+12 -7.24262e+12 -4.25373e+12 -3.65435e+12 -4.13986e+12 -3.94665e+12 -7.30005e+12 -8.3817e+12 -5.47669e+12 -1.01406e+13 -7.34657e+12 -4.65458e+12 -7.02825e+12 -8.04634e+12 -1.11347e+13 -4.26925e+12 -5.40614e+12 -5.28896e+12 -4.86033e+12 -3.67005e+12 -4.48345e+12 -5.93863e+12 -4.46984e+12 -5.37266e+12 -4.18648e+12 -4.85044e+12 -4.76011e+12 -6.62265e+12 -3.98486e+12 -7.20372e+12 -6.82036e+12 -6.70776e+12 -6.49008e+12 -6.66607e+12 -3.52699e+12 -4.50206e+12 -3.52198e+12 -5.84801e+12 -2.27731e+12 -3.24734e+12 -4.01472e+12 -3.98282e+12 -4.36594e+12 -2.84199e+12 -3.471e+12 -5.29133e+12 -3.92084e+12 -2.97233e+12 -4.11741e+12 -2.62794e+12 -3.39573e+12 -2.90901e+12 -3.86062e+12 -3.82419e+12 -6.29341e+12 -6.8578e+12 -3.00031e+12 -4.40159e+12 -3.20968e+12 -3.28509e+12 -4.30315e+12 -4.68053e+12 -2.75789e+12 -2.83362e+12 -2.57082e+12 -2.41828e+12 -4.80478e+12 -3.5662e+12 -2.63377e+12 -2.02996e+12 -1.57831e+12 -2.11409e+12 -3.6505e+12 -1.27118e+12 -1.43944e+12 -2.97081e+12 -2.33275e+12 -2.08621e+12 -1.32822e+12 -1.48467e+12 -1.64275e+12 -2.07533e+12 -1.97932e+12 -505760000000.0 -1.2704e+12 -1.30761e+12 -1.36554e+12 -1.64188e+12 -554072000000.0 -1.00857e+12 -1.04435e+12 -528734000000.0 -1.40344e+12 -1.07803e+12 -1.3618e+12 -1.11973e+12 -2.82841e+12 -1.52803e+12 -1.29078e+12 -1.76068e+12 -2.68011e+12 -2.15622e+12 -1.97535e+12 -2.134e+12 -1.63927e+12 -3.39101e+12 -3.6223e+12 -1.88276e+12 -1.84826e+12 -2.57509e+12 -2.0631e+12 -2.66669e+12 -5.01608e+12 -5.4589e+12 -3.78953e+12 -1.46886e+12 -2.30135e+12 -2.73233e+12 -2.86314e+12 -4.54706e+12 -3.16667e+12 -7.07864e+12 -3.14866e+12 -3.38204e+12 -4.01055e+12 -2.93989e+12 -5.00452e+12 -7.12638e+12 -5.31188e+12 -2.50157e+12 -4.35265e+12 -7.57971e+12 -4.9925e+12 -4.63991e+12 -5.68096e+12 -3.86195e+12 -3.05385e+12 -3.19154e+12 -5.46599e+12 -4.52475e+12 -7.88926e+12 -5.74032e+12 -4.77963e+12 -3.61711e+12 -3.60947e+12 -6.82355e+12 -6.52696e+12 -5.88804e+12 -7.22329e+12 -8.3655e+12 -2.40171e+12 -6.16503e+12 -3.40625e+12 -3.17244e+12 -3.98599e+12 -4.79393e+12 -3.34411e+12 -3.3779e+12 -6.43975e+12 -3.86373e+12 -3.95086e+12 -6.23272e+12 -4.04816e+12 -6.52445e+12 -5.37866e+12 -5.36883e+12 -5.13175e+12 -6.06055e+12 -5.02784e+12 -3.84833e+12 -4.46777e+12 -3.39526e+12 -2.47454e+12 -3.85199e+12 -2.88069e+12 -3.25435e+12 -4.78004e+12 -2.00502e+12 -5.34437e+12 -1.99972e+12 -4.04713e+12 -1.80703e+12 -5.23747e+12 -1.16608e+12 -1.09793e+12 -2.47942e+12 -4.48811e+12 -4.14481e+12 -2.25007e+12 -3.35006e+12 -1.9633e+12 -2.36257e+12 -3.92861e+12 -4.28027e+12 -3.0466e+12 -2.23188e+12 -1.70928e+12 -2.36598e+12 -2.9871e+12 -1.03647e+12 -3.49701e+12 -2.50035e+12 -1.53629e+12 -1.3228e+12 -1.37761e+12 -1.07578e+12 -2.43636e+12 -1.63223e+12 -1.57848e+12 -1.8091e+12 -2.61555e+12 -2.21047e+12 -2.52108e+12 -1.21705e+12 -1.0619e+12 -1.75594e+12 -1.09582e+12 -1.42527e+12 -524248000000.0 -2.40237e+12 -1.66387e+12 -2.17973e+12 -2.09825e+12 -1.62019e+12 -801213000000.0 -1.06937e+12 -1.25993e+12 -973425000000.0 -567005000000.0 -1.13512e+12 -1.15004e+12 -2.00287e+12 -1.29508e+12 -3.74843e+12 -1.32405e+12 -2.69282e+12 -2.66668e+12 -2.99173e+12 -1.95496e+12 -1.06815e+12 -2.48115e+12 -2.56554e+12 -2.16321e+12 -2.3707e+12 -3.60103e+12 -3.6881e+12 -1.7235e+12 -1.07729e+12 -2.97102e+12 -3.31534e+12 -1.93266e+12 -1.95708e+12 -5.80304e+12 -5.9649e+12 -5.71823e+12 -4.99515e+12 -2.45284e+12 -4.55369e+12 -5.07125e+12 -2.89824e+12 -4.89946e+12 -2.95266e+12 -4.32111e+12 -6.68075e+12 -1.74372e+12 -6.93487e+12 -3.9002e+12 -3.64659e+12 -4.03781e+12 -4.39757e+12 -3.97551e+12 -1.00144e+13 -6.05232e+12 -7.32831e+12 -3.80445e+12 -4.53981e+12 -6.04376e+12 -4.2646e+12 -8.33798e+12 -5.55275e+12 -1.66022e+12 -6.13108e+12 -5.1642e+12 -2.94279e+12 -2.10189e+12 -2.69939e+12 -2.30388e+12 -6.86917e+12 -3.14561e+12 -3.04406e+12 -4.51837e+12 -3.94687e+12 -4.66095e+12 -4.90227e+12 -3.81469e+12 -3.81264e+12 -4.84173e+12 -4.13058e+12 -4.63362e+12 -3.27358e+12 -5.05712e+12 -3.2277e+12 -3.26572e+12 -2.69652e+12 -2.85572e+12 -3.8408e+12 -4.89452e+12 -3.37283e+12 -3.05837e+12 -4.68627e+12 -3.51795e+12 -4.56578e+12 -3.57496e+12 -2.64394e+12 -3.68849e+12 -2.33691e+12 -2.95594e+12 -2.40979e+12 -2.05225e+12 -2.02206e+12 -1.53885e+12 -1.74875e+12 -4.18351e+12 -2.41909e+12 -1.14259e+12 -2.3167e+12 -3.01971e+12 -410930000000.0 -4.29227e+12 -2.54086e+12 -3.09619e+12 -1.04317e+12 -2.55051e+12 -2.48078e+12 -1.09889e+12 -1.49231e+12 -1.41448e+12 -1.63315e+12 -1.26509e+12 -1.27515e+12 -2.08007e+12 -1.28674e+12 -1.01644e+12 -2.23346e+12 -2.26576e+12 -1.74988e+12 -1.27346e+12 -408873000000.0 -1.05168e+12 -683062000000.0 -782820000000.0 -1.08002e+12 -961199000000.0 -439072000000.0 -1.40036e+12 -851613000000.0 -1.08451e+12 -17301800000.0 -1.12084e+12 -1.50279e+12 -1.27433e+12 -980026000000.0 -998986000000.0 -718163000000.0 -979009000000.0 -1.70043e+12 -1.26607e+12 -1.63051e+12 -1.62037e+12 -659214000000.0 -232784000000.0 -2.13423e+12 -1.78918e+12 -1.60512e+12 -1.05057e+12 -1.35744e+12 -2.07029e+12 -1.07973e+12 -2.34015e+12 -1.57983e+12 -894957000000.0 -1.64478e+12 -1.70283e+12 -1.73212e+12 -2.13885e+12 -4.95499e+12 -2.27046e+12 -3.05764e+12 -1.82514e+12 -1.74386e+12 -3.34417e+12 -2.31374e+12 -3.31768e+12 -3.4211e+12 -5.46508e+12 -3.00274e+12 -1.81638e+12 -3.72051e+12 -3.4382e+12 -4.10036e+12 -4.92991e+12 -4.00304e+12 -3.02578e+12 -6.9894e+12 -4.00579e+12 -4.23122e+12 -5.61186e+12 -6.39607e+12 -2.38348e+12 -3.10311e+12 -5.93446e+12 -3.73329e+12 -5.12999e+12 -4.82949e+12 -6.88281e+12 -3.68891e+12 -2.91041e+12 -4.16233e+12 -3.7989e+12 -1.79846e+12 -6.35269e+12 -3.92141e+12 -5.88911e+12 -4.02811e+12 -3.4986e+12 -3.34219e+12 -1.61404e+12 -2.45761e+12 -6.29334e+12 -2.50092e+12 -2.72396e+12 -3.24688e+12 -2.77011e+12 -5.93885e+12 -4.61497e+12 -4.57076e+12 -6.29823e+12 -2.57551e+12 -2.97781e+12 -2.82866e+12 -3.82239e+12 -4.40737e+12 -3.18604e+12 -3.38132e+12 -5.95261e+12 -2.39342e+12 -4.64445e+12 -3.22625e+12 -2.92153e+12 -5.87558e+12 -2.90644e+12 -4.4124e+12 -4.52409e+12 -2.44698e+12 -1.3655e+12 -2.49821e+12 -3.03343e+12 -2.97229e+12 -1.8329e+12 -2.55806e+12 -3.05601e+12 -771082000000.0 -700511000000.0 -2.37454e+12 -1.9788e+12 -3.65445e+12 -2.0994e+12 -1.85291e+12 -1.4269e+12 -761858000000.0 -604433000000.0 -2.50838e+12 -1.18656e+12 -426041000000.0 -1.1367e+12 -1.05488e+12 -2.2437e+12 -1.71993e+12 -671271000000.0 -1.06151e+12 -653738000000.0 -1.13178e+12 -1.04851e+12 -1.15314e+12 -1.76478e+12 -612830000000.0 -927370000000.0 -1.43052e+12 -1.27116e+12 -633933000000.0 -874448000000.0 -846294000000.0 -1.90849e+12 -1.23397e+12 -1.57889e+12 -1.61318e+12 -915219000000.0 -569948000000.0 -922893000000.0 -510772000000.0 -1.21953e+12 -474280000000.0 -1.1663e+12 -2.42039e+12 -1.05345e+12 -1.32935e+12 -982255000000.0 -1.64099e+12 -2.21369e+12 -3.21383e+12 -1.28159e+12 -2.22624e+12 -2.70511e+12 -1.70788e+12 -3.39314e+12 -4.20835e+12 -1.52814e+12 -4.85585e+12 -3.08783e+12 -2.38454e+12 -3.56034e+12 -1.96738e+12 -2.97834e+12 -2.00138e+12 -1.52867e+12 -1.58575e+12 -2.62442e+12 -4.78566e+12 -4.09074e+12 -2.45518e+12 -4.08062e+12 -4.7012e+12 -4.46619e+12 -4.19756e+12 -3.74366e+12 -2.68636e+12 -2.93678e+12 -5.29173e+12 -4.11738e+12 -1.84712e+12 -5.44838e+12 -5.44925e+12 -4.55205e+12 -3.42773e+12 -4.26676e+12 -3.34007e+12 -3.60891e+12 -3.99873e+12 -3.37357e+12 -5.27381e+12 -1.93649e+12 -2.64592e+12 -5.78677e+12 -2.894e+12 -3.89504e+12 -3.46923e+12 -4.69666e+12 -4.10544e+12 -2.48681e+12 -5.28204e+12 -3.27071e+12 -3.41296e+12 -5.05206e+12 -3.07524e+12 -2.55337e+12 -2.38866e+12 -2.92668e+12 -3.0879e+12 -4.84398e+12 -2.58551e+12 -1.5396e+12 -2.79592e+12 -2.20903e+12 -4.17473e+12 -5.29465e+12 -1.72418e+12 -1.54542e+12 -6.16278e+12 -1.41423e+12 -4.02001e+12 -4.41491e+12 -2.86111e+12 -2.58821e+12 -2.74988e+12 -2.34273e+12 -360384000000.0 -1.17912e+12 -2.07743e+12 -1.21532e+12 -1.77102e+12 -1.72701e+12 -2.14848e+12 -2.68498e+12 -2.4956e+12 -2.73231e+12 -1.01325e+12 -1.60983e+12 -269383000000.0 -885197000000.0 -947058000000.0 -707910000000.0 -1.56359e+12 -838013000000.0 -444290000000.0 -962917000000.0 -1.06239e+12 -653829000000.0 -195022000000.0 -831412000000.0 -867430000000.0 -1.07854e+12 -668349000000.0 -802152000000.0 -1.05372e+12 -994258000000.0 -815516000000.0 -1.34922e+12 -807932000000.0 -983738000000.0 -1.43112e+12 -2.07887e+12 -616580000000.0 -1.60812e+12 -1.87981e+12 -2.0084e+12 -2.26933e+12 -1.43497e+12 -2.13639e+12 -2.6649e+12 -1.88996e+12 -813419000000.0 -1.18558e+12 -3.10838e+12 -4.60351e+12 -998525000000.0 -1.60421e+12 -3.27245e+12 -1.60312e+12 -2.48864e+12 -1.33417e+12 -1.48612e+12 -1.25063e+12 -4.29029e+12 -2.15235e+12 -1.89348e+12 -2.65286e+12 -2.84665e+12 -2.52332e+12 -3.65243e+12 -2.58869e+12 -2.05829e+12 -2.76228e+12 -3.32552e+12 -3.28752e+12 -4.69801e+12 -3.31147e+12 -3.43227e+12 -3.79134e+12 -3.19048e+12 -3.94226e+12 -3.5671e+12 -4.51643e+12 -4.31417e+12 -2.12999e+12 -3.54792e+12 -3.38222e+12 -5.0976e+12 -5.04951e+12 -4.15136e+12 -4.23787e+12 -4.72223e+12 -6.25293e+12 -3.55779e+12 -1.85628e+12 -2.99435e+12 -2.46232e+12 -3.64581e+12 -3.34953e+12 -2.76186e+12 -2.25881e+12 -2.02524e+12 -3.33771e+12 -5.20824e+12 -2.56083e+12 -2.914e+12 -1.29777e+12 -4.7514e+12 -2.87801e+12 -1.56322e+12 -2.6719e+12 -2.39377e+12 -3.19417e+12 -3.01768e+12 -2.00741e+12 -2.63875e+12 -803446000000.0 -1.93957e+12 -2.67228e+12 -2.97785e+12 -5.54161e+12 -1.91879e+12 -2.86937e+12 -1.41694e+12 -1.82189e+12 -954644000000.0 -2.41145e+12 -2.5974e+12 -1.74836e+12 -1.96736e+12 -2.36362e+12 -2.31102e+12 -2.91741e+12 -1.02059e+12 -1.39122e+12 -1.50402e+12 -1.69741e+12 -2.40259e+12 -2.70911e+12 -980824000000.0 -54801600000.0 -1.58253e+12 -1.31028e+12 -1.54524e+12 -661274000000.0 -588942000000.0 -678690000000.0 -1.46108e+12 -766773000000.0 -118178000000.0 -344947000000.0 -743149000000.0 -23369800000.0 -310878000000.0 -706070000000.0 -577560000000.0 -600905000000.0 -283279000000.0 -588817000000.0 -890584000000.0 -848157000000.0 -1.58224e+12 -46063000000.0 -350157000000.0 -35085700000.0 -1.1111e+12 -226040000000.0 -1.69382e+12 -648847000000.0 -722392000000.0 -572662000000.0 -405237000000.0 -704066000000.0 -1.06906e+12 -1.30322e+12 -634095000000.0 -894888000000.0 -945327000000.0 -1.48227e+12 -778774000000.0 -1.09822e+12 -1.24186e+12 -1.49984e+12 -1.78534e+12 -1.49999e+12 -1.85726e+12 -1.16589e+12 -3.618e+12 -1.44471e+12 -1.80454e+12 -1.44384e+12 -2.35094e+12 -2.37553e+12 -1.6168e+12 -2.20382e+12 -1.51413e+12 -1.88954e+12 -3.01377e+12 -2.53631e+12 -3.65084e+12 -4.07474e+12 -1.97238e+12 -1.54645e+12 -1.95617e+12 -1.86634e+12 -2.94142e+12 -2.75327e+12 -4.51674e+12 -4.38052e+12 -2.37967e+12 -3.43384e+12 -3.32728e+12 -3.65821e+12 -3.6991e+12 -4.18618e+12 -2.79393e+12 -2.63437e+12 -3.32839e+12 -3.01332e+12 -2.55176e+12 -3.65854e+12 -3.4911e+12 -2.2869e+12 -2.74462e+12 -2.70332e+12 -3.58267e+12 -2.49027e+12 -3.54632e+12 -2.04825e+12 -3.62031e+12 -2.64407e+12 -1.89842e+12 -2.20279e+12 -2.08985e+12 -2.80897e+12 -2.62071e+12 -5.17431e+12 -2.11507e+12 -2.35745e+12 -2.60796e+12 -2.83604e+12 -1.77077e+12 -1.93339e+12 -3.2355e+12 -2.99688e+12 -1.92474e+12 -2.42224e+12 -2.11727e+12 -3.5312e+12 -2.39601e+12 -2.64353e+12 -1.32655e+12 -3.5994e+12 -2.60119e+12 -3.00442e+12 -1.38409e+12 -1.06753e+12 -1.47024e+12 -1.45995e+12 -1.42878e+12 -2.39658e+12 -2.40472e+12 -2.7852e+12 -2.91515e+12 -3.30846e+12 -2.36464e+12 -982537000000.0 -1.34672e+12 -1.83691e+12 -1.7214e+12 -1.26103e+12 -1.14861e+12 -1.79284e+12 -1.99549e+12 -1.32383e+12 -1.09124e+12 -1.33511e+12 -398998000000.0 -1.45059e+12 -941712000000.0 -1.0712e+12 -1.25749e+12 -602978000000.0 -1.26826e+12 -607019000000.0 -906333000000.0 -736297000000.0 -725464000000.0 -906507000000.0 -868106000000.0 -600119000000.0 -824240000000.0 -968610000000.0 -1.13222e+12 -837167000000.0 -776165000000.0 -350143000000.0 -556739000000.0 -423864000000.0 -655255000000.0 -373933000000.0 -388743000000.0 -829317000000.0 -724275000000.0 -539878000000.0 -605239000000.0 -473594000000.0 -739873000000.0 -754192000000.0 -157980000000.0 -1.20696e+12 -1.04312e+12 -841172000000.0 -997664000000.0 -1.22709e+12 -747687000000.0 -1.07379e+12 -428823000000.0 -2.16092e+12 -1.8927e+12 -2.44451e+12 -1.0533e+12 -837708000000.0 -1.75806e+12 -2.27615e+12 -1.33705e+12 -2.49989e+12 -3.22436e+12 -1.84928e+12 -2.51139e+12 -2.16144e+12 -1.96586e+12 -1.97015e+12 -1.63794e+12 -2.64688e+12 -2.98132e+12 -3.54905e+12 -423179000000.0 -3.33178e+12 -2.92947e+12 -1.48156e+12 -755744000000.0 -1.3556e+12 -3.92163e+12 -2.40662e+12 -5.35518e+12 -3.33367e+12 -4.22124e+12 -4.30314e+12 -2.00092e+12 -4.73928e+12 -3.00786e+12 -2.57505e+12 -4.47126e+12 -2.72022e+12 -2.19576e+12 -2.39325e+12 -4.18675e+12 -2.80418e+12 -2.56408e+12 -3.99846e+12 -3.91774e+12 -2.59167e+12 -3.26037e+12 -2.94414e+12 -1.71182e+12 -2.17224e+12 -1.93376e+12 -1.07076e+12 -2.93904e+12 -2.29658e+12 -2.62146e+12 -668860000000.0 -1.86374e+12 -564437000000.0 -3.0426e+12 -3.71236e+12 -3.00737e+12 -3.34776e+12 -3.07098e+12 -2.10446e+12 -2.55448e+12 -2.53832e+12 -3.33866e+12 -1.85216e+12 -1.93024e+12 -2.90156e+12 -935808000000.0 -966668000000.0 -1.73981e+12 -2.3025e+12 -849497000000.0 -531778000000.0 -958779000000.0 -456202000000.0 -1.40698e+12 -1.34473e+12 -1.39546e+12 -1.2727e+12 -910881000000.0 -1.83789e+12 -1.56248e+12 -1.17456e+12 -698083000000.0 -861800000000.0 -350531000000.0 -459570000000.0 -374190000000.0 -855332000000.0 -613397000000.0 -394594000000.0 -32640700000.0 -307091000000.0 -355150000000.0 -570680000000.0 -498587000000.0 -269569000000.0 -594885000000.0 -574558000000.0 -735363000000.0 -612109000000.0 -610815000000.0 -364785000000.0 -1.19526e+12 -1.28653e+12 -924785000000.0 -947206000000.0 -85029700000.0 -557686000000.0 -688616000000.0 -589334000000.0 -1.25364e+12 -236231000000.0 -649571000000.0 -996906000000.0 -1.55915e+12 -1.49239e+12 -1.38356e+12 -2.97339e+12 -1.75021e+12 -349957000000.0 -2.58839e+12 -1.28379e+12 -429246000000.0 -1.17005e+12 -3.07156e+12 -2.2174e+12 -1.73468e+12 -2.52925e+12 -1.37544e+12 -3.02634e+12 -1.74106e+12 -1.1911e+12 -1.76475e+12 -3.03916e+12 -1.81158e+12 -2.9556e+12 -1.30013e+12 -2.67608e+12 -3.38183e+12 -2.48259e+12 -2.28012e+12 -3.93287e+12 -4.66916e+12 -1.78617e+12 -2.85198e+12 -3.11441e+12 -4.86789e+12 -3.00973e+12 -2.68759e+12 -3.71632e+12 -4.52061e+12 -3.70606e+12 -1.81697e+12 -1.95114e+12 -1.295e+12 -2.21245e+12 -2.03467e+12 -3.76363e+12 -4.29442e+12 -2.29653e+12 -1.38549e+12 -1.96848e+12 -2.83762e+12 -2.59271e+12 -1.30168e+12 -1.80544e+12 -2.31245e+12 -3.31431e+12 -1.76462e+12 -1.14754e+12 -1.39043e+12 -1.3666e+12 -1.62838e+12 -1.42928e+12 -2.10282e+12 -2.71338e+12 -2.22056e+12 -1.79052e+12 -1.83471e+12 -1.68066e+12 -2.5107e+12 -1.64329e+12 -2.60805e+12 -2.91669e+12 -793069000000.0 -1.01986e+12 -947002000000.0 -1.10791e+12 -693643000000.0 -1.0814e+12 -1.0165e+12 -726923000000.0 -678338000000.0 -445376000000.0 -918367000000.0 -1.18871e+12 -751506000000.0 -267931000000.0 -481700000000.0 -372179000000.0 -36731900000.0 -257725000000.0 -147011000000.0 -706672000000.0 -178207000000.0 -782568000000.0 -371692000000.0 -218196000000.0 -565734000000.0 -738453000000.0 -206706000000.0 -373279000000.0 -425219000000.0 -156198000000.0 -311303000000.0 -19425300000.0 -429705000000.0 -367627000000.0 -758392000000.0 -416220000000.0 -812474000000.0 -352829000000.0 -855465000000.0 -254801000000.0 -628645000000.0 -1.58085e+12 -410269000000.0 -690910000000.0 -1.3203e+12 -172951000000.0 -561176000000.0 -2.50889e+12 -673737000000.0 -1.78401e+12 -1.16213e+12 -2.61364e+12 -1.65513e+12 -1.33152e+12 -2.06392e+12 -673776000000.0 -2.65039e+12 -4.15393e+12 -2.05853e+12 -922029000000.0 -1.45649e+12 -2.41013e+12 -1.58455e+12 -2.4305e+12 -2.00427e+12 -2.49837e+12 -1.71187e+12 -2.88503e+12 -2.41031e+12 -2.09578e+12 -574161000000.0 -3.19996e+12 -2.50197e+12 -2.06864e+12 -2.77287e+12 -1.30877e+12 -1.80959e+12 -1.64958e+12 -2.01844e+12 -3.97724e+12 -2.89743e+12 -739665000000.0 -1.70186e+12 -1.92989e+12 -1.81049e+12 -2.27256e+12 -2.89529e+12 -3.11924e+12 -1.22025e+12 -1.52751e+12 -2.54477e+12 -1.17564e+12 -1.98719e+12 -1.02048e+12 -2.18847e+12 -1.0512e+12 -2.40542e+12 -2.70263e+12 -1.72205e+12 -676657000000.0 -1.73131e+12 -2.01108e+12 -2.19152e+12 -1.40657e+12 -1.70913e+12 -515383000000.0 -2.42131e+12 -2.11742e+12 -1.41077e+12 -655886000000.0 -1.15963e+12 -758590000000.0 -920438000000.0 -860694000000.0 -1.59642e+12 -1.19105e+12 -234209000000.0 -250355000000.0 -934739000000.0 -887371000000.0 -1.08785e+12 -673288000000.0 -490712000000.0 -315689000000.0 -204651000000.0 -543021000000.0 -305505000000.0 -154407000000.0 -370565000000.0 -584248000000.0 -772042000000.0 -496775000000.0 -925803000000.0 -664438000000.0 -528736000000.0 -257711000000.0 -82750100000.0 -107049000000.0 -292047000000.0 -247615000000.0 -280197000000.0 -198171000000.0 -621478000000.0 -473593000000.0 -330976000000.0 -290356000000.0 -924179000000.0 -461969000000.0 -884878000000.0 -1.63904e+12 -470880000000.0 -1.22547e+12 -1.23039e+12 -1.00295e+12 -1.5817e+12 -1.61771e+12 -1.6779e+12 -1.64427e+12 -1.40867e+12 -2.68745e+12 -748422000000.0 -678575000000.0 -2.64947e+12 -1.59901e+12 -2.18635e+12 -860523000000.0 -1.06255e+12 -1.18781e+12 -2.20828e+12 -1.46146e+12 -1.23319e+12 -2.0631e+12 -1.19595e+12 -1.82874e+12 -1.45693e+12 -1.1898e+12 -583746000000.0 -2.00482e+12 -1.99603e+12 -2.52142e+12 -2.18481e+12 -2.50736e+12 -1.82116e+12 -2.06013e+12 -2.39511e+12 -2.38157e+12 -3.33695e+12 -2.09457e+12 -3.17441e+12 -3.2102e+12 -2.46382e+12 -1.40053e+12 -960006000000.0 -3.15032e+12 -1.4154e+12 -1.4701e+12 -2.52517e+12 -1.95109e+12 -1.76891e+12 -2.62474e+12 -2.43287e+12 -1.05538e+12 -2.00324e+12 -1.23842e+12 -1.87726e+12 -535808000000.0 -2.02179e+12 -1.51371e+12 -783155000000.0 -1.83911e+12 -1.26147e+12 -1.48167e+12 -2.36693e+12 -1.63225e+12 -1.36476e+12 -2.01378e+12 -1.03798e+12 -1.18818e+12 -1.19234e+12 -2.012e+12 -607420000000.0 -1.74804e+12 -832864000000.0 -459959000000.0 -342010000000.0 -679758000000.0 -563369000000.0 -648171000000.0 -652117000000.0 -454022000000.0 -922264000000.0 -1.12708e+12 -718744000000.0 -575370000000.0 -192076000000.0 -844377000000.0 -484969000000.0 -623324000000.0 -109248000000.0 -388855000000.0 -460396000000.0 -433290000000.0 -14490200000.0 -20682000000.0 -268133000000.0 -524265000000.0 -277556000000.0 -278397000000.0 -326351000000.0 -105068000000.0 -186439000000.0 -436175000000.0 -214715000000.0 -283112000000.0 -422509000000.0 -543368000000.0 -660535000000.0 -246100000000.0 -505304000000.0 -540061000000.0 -381232000000.0 -40591900000.0 -456789000000.0 -358582000000.0 -503183000000.0 -495994000000.0 -37813100000.0 -666970000000.0 -961538000000.0 -1.19999e+12 -1.28874e+12 -759503000000.0 -275828000000.0 -484544000000.0 -1.1066e+12 -704470000000.0 -453614000000.0 -2.05365e+12 -1.13648e+12 -1.65234e+12 -612781000000.0 -1.17287e+12 -1.25198e+12 -653617000000.0 -1.35229e+12 -1.53406e+12 -983607000000.0 -1.94892e+12 -805921000000.0 -780547000000.0 -1.10704e+12 -1.09089e+12 -3.4686e+12 -1.04307e+12 -597721000000.0 -3.14102e+12 -899905000000.0 -2.5698e+12 -2.00339e+12 -1.7927e+12 -1.70759e+12 -1.27405e+12 -649847000000.0 -2.70012e+12 -1.93909e+12 -2.09017e+12 -1.34668e+12 -1.42841e+12 -1.23323e+12 -2.40555e+12 -2.54524e+12 -1.20152e+12 -2.48077e+12 -1.47132e+12 -446881000000.0 -1.10673e+12 -1.32565e+12 -1.50915e+12 -750388000000.0 -446651000000.0 -734474000000.0 -1.44241e+12 -1.18607e+12 -965950000000.0 -1.5295e+12 -986833000000.0 -1.17433e+12 -1.63377e+12 -1.3669e+12 -972298000000.0 -1.15646e+12 -1.42391e+12 -1.08323e+12 -830199000000.0 -394166000000.0 -473622000000.0 -814559000000.0 -1.02897e+12 -99678100000.0 -666789000000.0 -291841000000.0 -665402000000.0 -67504800000.0 -526869000000.0 -667532000000.0 -467453000000.0 -232336000000.0 -15822900000.0 -283707000000.0 -318675000000.0 -253931000000.0 -209338000000.0 -58181100000.0 -78747800000.0 -218066000000.0 -207481000000.0 -277675000000.0 -90133400000.0 -205515000000.0 -214152000000.0 -12984300000.0 -235017000000.0 -217121000000.0 -535814000000.0 -20125900000.0 -48815200000.0 -339331000000.0 -392166000000.0 -191584000000.0 -539276000000.0 -304345000000.0 -522260000000.0 -574778000000.0 -491847000000.0 -635430000000.0 -1.33827e+12 -465385000000.0 -587032000000.0 -68645700000.0 -21685300000.0 -222062000000.0 -988897000000.0 -1.09383e+12 -363254000000.0 -957061000000.0 -206681000000.0 -2.01701e+12 -1.17815e+12 -496422000000.0 -1.14843e+12 -572143000000.0 -336798000000.0 -847528000000.0 -822911000000.0 -2.59147e+12 -1.14153e+12 -1.21382e+12 -603783000000.0 -1.11e+12 -1.26536e+12 -1.7427e+12 -1.30819e+12 -1.64237e+12 -1.86309e+12 -1.34489e+12 -852238000000.0 -1.60076e+12 -1.21218e+12 -1.19874e+12 -2.03235e+12 -1.28645e+12 -1.81511e+12 -383096000000.0 -2.99569e+12 -1.95221e+12 -1.08962e+12 -1.36047e+12 -380221000000.0 -911792000000.0 -929598000000.0 -502501000000.0 -1.49544e+12 -1.81618e+12 -2.80516e+12 -941231000000.0 -656245000000.0 -1.02715e+12 -1.14976e+12 -1.41835e+12 -1.70289e+12 -1.08205e+12 -810620000000.0 -106293000000.0 -769889000000.0 -2.20096e+12 -835824000000.0 -833444000000.0 -1.06705e+12 -856619000000.0 -1.09992e+12 -489964000000.0 -369063000000.0 -576415000000.0 -1.26742e+12 -751686000000.0 -1.20627e+12 -1.13259e+12 -1.10388e+12 -684961000000.0 -732892000000.0 -636737000000.0 -964685000000.0 -516392000000.0 -520844000000.0 -111090000000.0 -481430000000.0 -416608000000.0 -275722000000.0 -239105000000.0 -158042000000.0 -34083900000.0 -226086000000.0 -180410000000.0 -152289000000.0 -157541000000.0 -78517500000.0 -89819600000.0 -177471000000.0 -330109000000.0 -110561000000.0 -274949000000.0 -201186000000.0 -199405000000.0 -275194000000.0 -155747000000.0 -153652000000.0 -485363000000.0 -305675000000.0 -27903900000.0 -510233000000.0 -517213000000.0 -15920800000.0 -41746500000.0 -402148000000.0 -426990000000.0 -189937000000.0 -163690000000.0 -319367000000.0 -177128000000.0 -259883000000.0 -260937000000.0 -887034000000.0 -671078000000.0 -955535000000.0 -864610000000.0 -708322000000.0 -1.2051e+12 -529189000000.0 -533138000000.0 -529694000000.0 -330835000000.0 -992969000000.0 -1.28672e+12 -189649000000.0 -578004000000.0 -1.01401e+12 -1.33904e+12 -1.24052e+12 -1.3098e+12 -341990000000.0 -1.76682e+12 -1.5542e+12 -1.67274e+12 -1.04748e+12 -1.72098e+12 -985813000000.0 -508090000000.0 -1.58502e+12 -1.00656e+12 -1.50765e+12 -1.34516e+12 -1.78112e+12 -1.62844e+12 -1.48275e+12 -1.43541e+12 -1.3994e+12 -641503000000.0 -1.10006e+12 -634607000000.0 -1.08879e+12 -1.82647e+12 -1.06209e+12 -137758000000.0 -1.50584e+12 -962444000000.0 -985667000000.0 -852870000000.0 -1.27237e+12 -601002000000.0 -509279000000.0 -1.1435e+12 -1.99135e+12 -1.05639e+12 -614452000000.0 -1.91591e+12 -614042000000.0 -1.37588e+12 -892381000000.0 -309064000000.0 -593792000000.0 -504431000000.0 -80633300000.0 -797068000000.0 -395556000000.0 -481316000000.0 -766333000000.0 -529043000000.0 -240987000000.0 -749317000000.0 -173433000000.0 -73519000000.0 -311369000000.0 -236039000000.0 -177365000000.0 -15645500000.0 -124880000000.0 -180284000000.0 -158123000000.0 -125053000000.0 -99522900000.0 -62920700000.0 -151747000000.0 -231014000000.0 -248354000000.0 -215717000000.0 -291215000000.0 -361283000000.0 -173748000000.0 -204181000000.0 -244943000000.0 -142471000000.0 -176858000000.0 -320034000000.0 -86234500000.0 -338862000000.0 -289298000000.0 -364196000000.0 -301956000000.0 -275671000000.0 -897118000000.0 -382646000000.0 -578195000000.0 -357655000000.0 -524181000000.0 -393372000000.0 -606775000000.0 -558794000000.0 -80172100000.0 -588382000000.0 -443808000000.0 -978661000000.0 -243949000000.0 -1.07772e+12 -772358000000.0 -503629000000.0 -567872000000.0 -695247000000.0 -728498000000.0 -1.36309e+12 -986985000000.0 -1.21986e+12 -2.01631e+12 -800540000000.0 -296064000000.0 -1.19519e+12 -573392000000.0 -363384000000.0 -1.22971e+12 -1.97172e+12 -393003000000.0 -960333000000.0 -1.02762e+12 -815409000000.0 -155784000000.0 -925672000000.0 -918914000000.0 -517282000000.0 -2.13435e+12 -1.43437e+12 -441918000000.0 -1.53656e+12 -1.72453e+12 -1.14154e+12 -816785000000.0 -1.44182e+12 -935535000000.0 -1.15386e+12 -497589000000.0 -1.85954e+12 -1.15489e+12 -1.15741e+12 -1.15313e+12 -921426000000.0 -1.00194e+12 -577974000000.0 -319554000000.0 -1.26627e+12 -1.08653e+12 -719459000000.0 -885789000000.0 -689107000000.0 -968438000000.0 -757729000000.0 -92789100000.0 -1.09428e+12 -969939000000.0 -672412000000.0 -508669000000.0 -721866000000.0 -115256000000.0 -266269000000.0 -425428000000.0 -223607000000.0 -175625000000.0 -631197000000.0 -55304700000.0 -329442000000.0 -168004000000.0 -328408000000.0 -375881000000.0 -37623700000.0 -34416400000.0 -86560000000.0 -142611000000.0 -84394200000.0 -61320000000.0 -17557600000.0 -29876500000.0 -154534000000.0 -140144000000.0 -127035000000.0 -168264000000.0 -114216000000.0 -225865000000.0 -61617000000.0 -163286000000.0 -127334000000.0 -96069200000.0 -12960600000.0 -202788000000.0 -54074300000.0 -379199000000.0 -297095000000.0 -491586000000.0 -253062000000.0 -27478000000.0 -433248000000.0 -442213000000.0 -554056000000.0 -245796000000.0 -59818200000.0 -407866000000.0 -511460000000.0 -584640000000.0 -116173000000.0 -679526000000.0 -253112000000.0 -608994000000.0 -345747000000.0 -461032000000.0 -753446000000.0 -345530000000.0 -269856000000.0 -538422000000.0 -1.1214e+12 -884051000000.0 -253529000000.0 -1.25532e+12 -848572000000.0 -931512000000.0 -1.25746e+12 -565362000000.0 -897027000000.0 -307511000000.0 -410292000000.0 -1.42008e+12 -947595000000.0 -939906000000.0 -863722000000.0 -1.42535e+12 -577388000000.0 -770898000000.0 -1.41178e+12 -1.6739e+12 -1.51672e+12 -915163000000.0 -682351000000.0 -967967000000.0 -902740000000.0 -935528000000.0 -1.99757e+12 -997352000000.0 -1.33011e+12 -321052000000.0 -747724000000.0 -962679000000.0 -181665000000.0 -1.28888e+12 -534513000000.0 -821808000000.0 -309812000000.0 -969446000000.0 -544345000000.0 -65277300000.0 -539632000000.0 -619283000000.0 -928573000000.0 -456874000000.0 -554900000000.0 -422105000000.0 -404580000000.0 -448241000000.0 -837036000000.0 -76373700000.0 -465975000000.0 -483143000000.0 -310037000000.0 -388964000000.0 -287490000000.0 -75674800000.0 -428609000000.0 -87289200000.0 -250176000000.0 -291622000000.0 -223867000000.0 -179951000000.0 -116055000000.0 -237661000000.0 -41847600000.0 -48736500000.0 -79518400000.0 -65890900000.0 -102523000000.0 -91640900000.0 -116469000000.0 -45062500000.0 -95315100000.0 -28963000000.0 -29248000000.0 -260723000000.0 -151382000000.0 -163769000000.0 -136997000000.0 -114961000000.0 -245967000000.0 -218666000000.0 -138119000000.0 -129285000000.0 -262205000000.0 -491800000000.0 -46824500000.0 -201609000000.0 -246834000000.0 -562801000000.0 -355842000000.0 -540982000000.0 -589340000000.0 -873822000000.0 -528319000000.0 -18352100000.0 -626440000000.0 -367136000000.0 -162338000000.0 -604901000000.0 -332182000000.0 -113434000000.0 -147829000000.0 -1.22989e+12 -269943000000.0 -576869000000.0 -1.47695e+12 -183639000000.0 -956593000000.0 -1.2953e+12 -676163000000.0 -508318000000.0 -259487000000.0 -305827000000.0 -1.23628e+12 -665425000000.0 -938167000000.0 -122852000000.0 -241138000000.0 -893573000000.0 -1.24265e+12 -1.01666e+12 -355768000000.0 -798614000000.0 -956916000000.0 -764010000000.0 -1.0234e+12 -1.03812e+12 -324580000000.0 -665476000000.0 -439595000000.0 -206730000000.0 -406883000000.0 -523927000000.0 -710143000000.0 -730641000000.0 -903386000000.0 -438647000000.0 -674309000000.0 -543308000000.0 -810246000000.0 -575464000000.0 -757437000000.0 -520076000000.0 -191022000000.0 -194743000000.0 -489986000000.0 -641963000000.0 -894117000000.0 -703444000000.0 -602212000000.0 -251003000000.0 -430381000000.0 -200127000000.0 -539563000000.0 -274086000000.0 -277238000000.0 -362276000000.0 -606951000000.0 -496373000000.0 -266673000000.0 -16787100000.0 -96621300000.0 -125832000000.0 -239002000000.0 -257243000000.0 -180975000000.0 -60964800000.0 -271810000000.0 -185355000000.0 -135958000000.0 -177014000000.0 -86307900000.0 -143250000000.0 -86711500000.0 -62244200000.0 -136784000000.0 -85520200000.0 -110913000000.0 -90040000000.0 -107128000000.0 -156934000000.0 -114635000000.0 -132492000000.0 -128412000000.0 -128862000000.0 -117545000000.0 -153949000000.0 -106658000000.0 -210408000000.0 -23821200000.0 -37722100000.0 -151003000000.0 -59497300000.0 -77620400000.0 -172667000000.0 -46621200000.0 -234819000000.0 -20419100000.0 -13046600000.0 -267314000000.0 -105979000000.0 -190875000000.0 -89764100000.0 -407388000000.0 -509933000000.0 -484381000000.0 -400185000000.0 -398344000000.0 -246976000000.0 -772355000000.0 -363626000000.0 -575779000000.0 -409848000000.0 -765959000000.0 -235048000000.0 -543048000000.0 -1.10908e+12 -412358000000.0 -706185000000.0 -330701000000.0 -361806000000.0 -500745000000.0 -394979000000.0 -308244000000.0 -386550000000.0 -890207000000.0 -276423000000.0 -77092400000.0 -758862000000.0 -521974000000.0 -832188000000.0 -1.47303e+12 -1.08107e+12 -469480000000.0 -587817000000.0 -310734000000.0 -386345000000.0 -194100000000.0 -15206700000.0 -540236000000.0 -330276000000.0 -543334000000.0 -44510300000.0 -408772000000.0 -529129000000.0 -611583000000.0 -493940000000.0 -314539000000.0 -338709000000.0 -712275000000.0 -483409000000.0 -514812000000.0 -626772000000.0 -484159000000.0 -504951000000.0 -225323000000.0 -372156000000.0 -442356000000.0 -235674000000.0 -391987000000.0 -440217000000.0 -416935000000.0 -78211600000.0 -98808300000.0 -79737800000.0 -14611500000.0 -182208000000.0 -145152000000.0 -122585000000.0 -242579000000.0 -41519800000.0 -111363000000.0 -147226000000.0 -126015000000.0 -134185000000.0 -25279400000.0 -98472800000.0 -110536000000.0 -102523000000.0 -17318300000.0 -14590400000.0 -21364600000.0 -16567100000.0 -19589700000.0 -86930100000.0 -39531100000.0 -92920300000.0 -54314600000.0 -17951100000.0 -12549700000.0 -111143000000.0 -16545900000.0 -171358000000.0 -26410400000.0 -31437800000.0 -181826000000.0 -56702600000.0 -27645500000.0 -188562000000.0 -32999400000.0 -273590000000.0 -175132000000.0 -134020000000.0 -129065000000.0 -181510000000.0 -140318000000.0 -117505000000.0 -114665000000.0 -561496000000.0 -181741000000.0 -278168000000.0 -119544000000.0 -335515000000.0 -322078000000.0 -137119000000.0 -61562400000.0 -515443000000.0 -363095000000.0 -299250000000.0 -191982000000.0 -369872000000.0 -646320000000.0 -574392000000.0 -351499000000.0 -279147000000.0 -247517000000.0 -268857000000.0 -502232000000.0 -752599000000.0 -363320000000.0 -326684000000.0 -897540000000.0 -482553000000.0 -705968000000.0 -654448000000.0 -538589000000.0 -348861000000.0 -653983000000.0 -903937000000.0 -478141000000.0 -581139000000.0 -303809000000.0 -558351000000.0 -426727000000.0 -189146000000.0 -464974000000.0 -269633000000.0 -317418000000.0 -88336300000.0 -606280000000.0 -246409000000.0 -415699000000.0 -188638000000.0 -144474000000.0 -481306000000.0 -532498000000.0 -581189000000.0 -692998000000.0 -269011000000.0 -409853000000.0 -200809000000.0 -284796000000.0 -205052000000.0 -320800000000.0 -301026000000.0 -151752000000.0 -263388000000.0 -207552000000.0 -409280000000.0 -244366000000.0 -71723200000.0 -29458100000.0 -251758000000.0 -88204100000.0 -45329400000.0 -38306700000.0 -43061200000.0 -177890000000.0 -123803000000.0 -13852100000.0 -113515000000.0 -54320900000.0 -76014900000.0 -30976500000.0 -70242000000.0 -28177600000.0 -31750300000.0 -37787500000.0 -72043700000.0 -16106300000.0 -19237400000.0 -43494800000.0 -25113900000.0 -35782600000.0 -29961200000.0 -31036100000.0 -95286900000.0 -43602300000.0 -187853000000.0 -98702800000.0 -161638000000.0 -38460300000.0 -221398000000.0 -278476000000.0 -200342000000.0 -133077000000.0 -74811200000.0 -150904000000.0 -75088500000.0 -134689000000.0 -84875200000.0 -33088500000.0 -43144700000.0 -487121000000.0 -136800000000.0 -69152100000.0 -200530000000.0 -160059000000.0 -261206000000.0 -480260000000.0 -384141000000.0 -457670000000.0 -198431000000.0 -596671000000.0 -426466000000.0 -359260000000.0 -662479000000.0 -427080000000.0 -244712000000.0 -301392000000.0 -453978000000.0 -788647000000.0 -594214000000.0 -443533000000.0 -337913000000.0 -263956000000.0 -319062000000.0 -312594000000.0 -179803000000.0 -432118000000.0 -423669000000.0 -533755000000.0 -147517000000.0 -144986000000.0 -638161000000.0 -315740000000.0 -81933300000.0 -274458000000.0 -199105000000.0 -361613000000.0 -40885700000.0 -492944000000.0 -355452000000.0 -138557000000.0 -539196000000.0 -114130000000.0 -72241100000.0 -175727000000.0 -221070000000.0 -338206000000.0 -124384000000.0 -190980000000.0 -214204000000.0 -173837000000.0 -399312000000.0 -380625000000.0 -202020000000.0 -164165000000.0 -110061000000.0 -200193000000.0 -125462000000.0 -157897000000.0 -239951000000.0 -107834000000.0 -16691300000.0 -131612000000.0 -123838000000.0 -224054000000.0 -44724900000.0 -18362800000.0 -15858100000.0 -70271100000.0 -67736100000.0 -33851500000.0 -41865900000.0 -121429000000.0 -59219400000.0 -59183400000.0 -43593300000.0 -20665100000.0 -13914900000.0 -13072800000.0 -18591000000.0 -43252700000.0 -16620500000.0 -14749200000.0 -28670400000.0 -12549700000.0 -23735000000.0 -21701500000.0 -25144900000.0 -97792200000.0 -61969300000.0 -45813700000.0 -155675000000.0 -111411000000.0 -108239000000.0 -54445500000.0 -65619400000.0 -77515700000.0 -38956000000.0 -70652300000.0 -103300000000.0 -55393200000.0 -167112000000.0 -82202900000.0 -136215000000.0 -169199000000.0 -173029000000.0 -86528100000.0 -73647200000.0 -132633000000.0 -52594900000.0 -174361000000.0 -428500000000.0 -421802000000.0 -242549000000.0 -215090000000.0 -50116400000.0 -400967000000.0 -266536000000.0 -205086000000.0 -234383000000.0 -459077000000.0 -415414000000.0 -259458000000.0 -353016000000.0 -241832000000.0 -381541000000.0 -232974000000.0 -47511000000.0 -176922000000.0 -162744000000.0 -465542000000.0 -299595000000.0 -622641000000.0 -294016000000.0 -188941000000.0 -184652000000.0 -78945700000.0 -244257000000.0 -373388000000.0 -265205000000.0 -424298000000.0 -236246000000.0 -363885000000.0 -127391000000.0 -193796000000.0 -119819000000.0 -260502000000.0 -279381000000.0 -68375700000.0 -113197000000.0 -83558500000.0 -378309000000.0 -119408000000.0 -179834000000.0 -65310600000.0 -130183000000.0 -104087000000.0 -100678000000.0 -119374000000.0 -104584000000.0 -97993800000.0 -30800800000.0 -25757700000.0 -16105700000.0 -121204000000.0 -110392000000.0 -52780300000.0 -56075100000.0 -85804600000.0 -23230500000.0 -23257900000.0 -30180400000.0 -64192100000.0 -25806100000.0 -12731500000.0 -29062100000.0 -17219400000.0 -12549700000.0 -12549700000.0 -13397900000.0 -33021400000.0 -23680400000.0 -12549700000.0 -24496300000.0 -14978800000.0 -22962200000.0 -17483000000.0 -16820400000.0 -61540000000.0 -28567000000.0 -23613200000.0 -40585800000.0 -53268200000.0 -57660700000.0 -59519300000.0 -38723200000.0 -57404400000.0 -109452000000.0 -80245800000.0 -73864400000.0 -92776100000.0 -30402300000.0 -132207000000.0 -48477100000.0 -210600000000.0 -208171000000.0 -54372600000.0 -68928400000.0 -114680000000.0 -268420000000.0 -232436000000.0 -45539900000.0 -143669000000.0 -113042000000.0 -238255000000.0 -140847000000.0 -115548000000.0 -127814000000.0 -142530000000.0 -254000000000.0 -266538000000.0 -280034000000.0 -18635600000.0 -395955000000.0 -359531000000.0 -133121000000.0 -249875000000.0 -147314000000.0 -30787700000.0 -125658000000.0 -381174000000.0 -91253100000.0 -271105000000.0 -18874300000.0 -156811000000.0 -189596000000.0 -193125000000.0 -108246000000.0 -95174700000.0 -111586000000.0 -97859900000.0 -89337400000.0 -50338600000.0 -73019000000.0 -83080200000.0 -112100000000.0 -150601000000.0 -40937700000.0 -94901700000.0 -40293800000.0 -155339000000.0 -67769900000.0 -67460200000.0 -108932000000.0 -89088300000.0 -76656000000.0 -42494800000.0 -104683000000.0 -160704000000.0 -54186700000.0 -76909200000.0 -18916000000.0 -15256500000.0 -12611400000.0 -85326600000.0 -51100000000.0 -12549700000.0 -22620300000.0 -40086200000.0 -15444400000.0 -18776900000.0 -17187900000.0 -45105400000.0 -16040500000.0 -13113700000.0 -22732800000.0 -12582900000.0 -12549700000.0 -12551700000.0 -12584600000.0 -23755700000.0 -12549700000.0 -22524200000.0 -39999300000.0 -32581300000.0 -25720500000.0 -25339800000.0 -40467100000.0 -25999600000.0 -22400000000.0 -23185800000.0 -18082100000.0 -32502700000.0 -19843500000.0 -26531900000.0 -48581100000.0 -33245800000.0 -39365400000.0 -52358600000.0 -53811700000.0 -49210400000.0 -26280400000.0 -65433800000.0 -46068400000.0 -64203500000.0 -131800000000.0 -61458700000.0 -126429000000.0 -153104000000.0 -74412700000.0 -72778200000.0 -22592600000.0 -119071000000.0 -67157800000.0 -122509000000.0 -57816700000.0 -26049100000.0 -82540000000.0 -137292000000.0 -120849000000.0 -30199000000.0 -179907000000.0 -61598100000.0 -236299000000.0 -97987800000.0 -156149000000.0 -114596000000.0 -325909000000.0 -161914000000.0 -167396000000.0 -179265000000.0 -290722000000.0 -88441400000.0 -50713600000.0 -28582200000.0 -56769700000.0 -71999000000.0 -32550400000.0 -72419400000.0 -61630300000.0 -55371100000.0 -57145800000.0 -37125400000.0 -60856200000.0 -92615900000.0 -67174000000.0 -50960200000.0 -59535300000.0 -18390000000.0 -26650000000.0 -28745400000.0 -30082500000.0 -18994500000.0 -29124000000.0 -15149500000.0 -23528000000.0 -13866500000.0 -65726100000.0 -18071300000.0 -42192500000.0 -32429300000.0 -35097700000.0 -30955200000.0 -29779300000.0 -29045200000.0 -14164000000.0 -23441300000.0 -16628000000.0 -19489300000.0 -12549700000.0 -14112700000.0 -13303400000.0 -18013800000.0 -23226400000.0 -19736200000.0 -15738800000.0 -14871000000.0 -15075400000.0 -15133900000.0 -15799000000.0 -21531200000.0 -18677000000.0 -21887300000.0 -14730500000.0 -13675000000.0 -15307700000.0 -14949600000.0 -22955100000.0 -18833100000.0 -18182400000.0 -23408400000.0 -25553800000.0 -15565000000.0 -15356500000.0 -22827600000.0 -32404000000.0 -29777900000.0 -31688600000.0 -23911700000.0 -23165600000.0 -35386300000.0 -38948200000.0 -31908900000.0 -32830900000.0 -42979300000.0 -33783000000.0 -71531200000.0 -16947100000.0 -20596700000.0 -16543100000.0 -101018000000.0 -22707100000.0 -19171000000.0 -25742600000.0 -40534300000.0 -39586100000.0 -40200200000.0 -29929700000.0 -72679400000.0 -70635200000.0 -75064900000.0 -31783600000.0 -52529200000.0 -50022500000.0 -49264200000.0 -44924500000.0 -40982700000.0 -59443300000.0 -43894400000.0 -66522700000.0 -103586000000.0 -92336600000.0 -25384500000.0 -43817200000.0 -28839300000.0 -31828800000.0 -20552100000.0 -51499200000.0 