# vtk DataFile Version 2.0
Time step 24
ASCII
DATASET UNSTRUCTURED_GRID
POINTS 5000 float
147022.0 410887.0 0
347123.0 408888.0 0
356570.0 413526.0 0
136925.0 417941.0 0
141206.0 414762.0 0
146070.0 415463.0 0
150110.0 413454.0 0
158986.0 413419.0 0
163325.0 414633.0 0
172388.0 414801.0 0
177968.0 415991.0 0
183019.0 414598.0 0
278908.0 416473.0 0
297244.0 416440.0 0
333813.0 414420.0 0
338790.0 411987.0 0
345326.0 414614.0 0
350224.0 415601.0 0
352340.0 411679.0 0
360878.0 416083.0 0
365499.0 419811.0 0
125586.0 423893.0 0
132160.0 420479.0 0
128430.0 422079.0 0
135753.0 422638.0 0
140723.0 421051.0 0
142777.0 417859.0 0
145174.0 419999.0 0
149910.0 417323.0 0
148558.0 421214.0 0
153335.0 418296.0 0
154010.0 414126.0 0
152276.0 422105.0 0
156975.0 416585.0 0
160386.0 417821.0 0
164484.0 419402.0 0
167508.0 415579.0 0
169573.0 419725.0 0
174781.0 420255.0 0
179946.0 421064.0 0
188465.0 416696.0 0
184868.0 419332.0 0
192443.0 418592.0 0
189670.0 421250.0 0
196018.0 417771.0 0
201521.0 416810.0 0
207865.0 417537.0 0
213193.0 416932.0 0
214044.0 421451.0 0
218157.0 418311.0 0
222505.0 418318.0 0
225812.0 417520.0 0
230506.0 417170.0 0
235820.0 418442.0 0
241150.0 417041.0 0
246468.0 419070.0 0
252648.0 417080.0 0
259015.0 417485.0 0
263718.0 418637.0 0
268658.0 417457.0 0
273855.0 417334.0 0
281905.0 419942.0 0
286152.0 418131.0 0
291559.0 418336.0 0
303563.0 416836.0 0
307634.0 419453.0 0
311909.0 417055.0 0
317676.0 417878.0 0
322742.0 416345.0 0
322171.0 420831.0 0
325704.0 419426.0 0
329195.0 416438.0 0
332954.0 419846.0 0
336935.0 417040.0 0
336959.0 420909.0 0
341254.0 416340.0 0
339980.0 419242.0 0
344096.0 419653.0 0
347591.0 422714.0 0
347548.0 418010.0 0
350209.0 419779.0 0
355189.0 418336.0 0
360563.0 420742.0 0
366267.0 424688.0 0
370706.0 422811.0 0
375480.0 424847.0 0
122208.0 426094.0 0
118737.0 428588.0 0
125789.0 427176.0 0
131118.0 425476.0 0
135310.0 426077.0 0
137545.0 428292.0 0
139466.0 425311.0 0
144651.0 424532.0 0
149504.0 425632.0 0
154410.0 426311.0 0
156912.0 421202.0 0
161579.0 423344.0 0
166861.0 424774.0 0
172780.0 425443.0 0
184046.0 424565.0 0
194424.0 422851.0 0
199031.0 421867.0 0
204467.0 422048.0 0
209817.0 422905.0 0
213969.0 426276.0 0
217922.0 423099.0 0
222326.0 422953.0 0
227093.0 421695.0 0
232265.0 422756.0 0
237709.0 423704.0 0
243283.0 423332.0 0
248607.0 423049.0 0
252804.0 423651.0 0
257377.0 422175.0 0
262153.0 422766.0 0
266939.0 422284.0 0
271559.0 421625.0 0
276702.0 421780.0 0
279099.0 426078.0 0
282845.0 423595.0 0
287389.0 423163.0 0
292198.0 422935.0 0
298137.0 421984.0 0
303070.0 422497.0 0
307468.0 422755.0 0
312189.0 422541.0 0
316746.0 422668.0 0
320438.0 424385.0 0
325359.0 423113.0 0
328718.0 421087.0 0
331219.0 424203.0 0
335928.0 425369.0 0
340825.0 423488.0 0
344949.0 425642.0 0
349686.0 427502.0 0
352963.0 423426.0 0
357702.0 423655.0 0
360265.0 427524.0 0
362191.0 425425.0 0
365560.0 428885.0 0
369479.0 427783.0 0
373025.0 426710.0 0
376447.0 427861.0 0
379131.0 426647.0 0
382227.0 428799.0 0
111457.0 433050.0 0
114947.0 430854.0 0
115113.0 434618.0 0
117901.0 431830.0 0
123012.0 434906.0 0
119522.0 434396.0 0
122400.0 430552.0 0
128420.0 428795.0 0
126377.0 432647.0 0
131055.0 430837.0 0
134262.0 429117.0 0
134247.0 433142.0 0
137270.0 434962.0 0
137749.0 431423.0 0
141801.0 429292.0 0
146492.0 429105.0 0
151221.0 430823.0 0
155924.0 431278.0 0
159282.0 427990.0 0
163809.0 428677.0 0
165281.0 431865.0 0
169206.0 429266.0 0
178681.0 427344.0 0
183935.0 430218.0 0
189449.0 427409.0 0
195538.0 427783.0 0
201063.0 426854.0 0
209073.0 428297.0 0
205316.0 427745.0 0
218124.0 428324.0 0
222609.0 427244.0 0
222117.0 431501.0 0
226929.0 426710.0 0
232407.0 428219.0 0
237385.0 428126.0 0
238203.0 431383.0 0
241836.0 428580.0 0
246867.0 427062.0 0
251753.0 428508.0 0
257688.0 426935.0 0
255820.0 431639.0 0
262672.0 427525.0 0
260274.0 431244.0 0
267437.0 426729.0 0
266150.0 431367.0 0
272991.0 426863.0 0
278133.0 431694.0 0
282953.0 428019.0 0
289802.0 426988.0 0
286441.0 429062.0 0
288644.0 431774.0 0
295506.0 426862.0 0
301055.0 427388.0 0
306489.0 427097.0 0
312008.0 427604.0 0
314289.0 431700.0 0
317045.0 427196.0 0
319008.0 431889.0 0
322808.0 428331.0 0
327350.0 426772.0 0
327217.0 431129.0 0
331612.0 429468.0 0
337125.0 431188.0 0
341549.0 428253.0 0
345275.0 429574.0 0
352871.0 432188.0 0
356222.0 428465.0 0
361771.0 430844.0 0
369598.0 431461.0 0
366589.0 433190.0 0
373880.0 430687.0 0
378913.0 430123.0 0
381851.0 432671.0 0
385400.0 431335.0 0
385223.0 435420.0 0
389195.0 433795.0 0
100374.0 439834.0 0
103624.0 437504.0 0
107387.0 435931.0 0
111184.0 436095.0 0
108812.0 438869.0 0
113090.0 438893.0 0
116929.0 436926.0 0
120747.0 438459.0 0
125622.0 438274.0 0
130187.0 435612.0 0
134264.0 437865.0 0
141065.0 434216.0 0
144354.0 432366.0 0
144819.0 435935.0 0
142908.0 439647.0 0
147178.0 432858.0 0
149742.0 436215.0 0
158284.0 434821.0 0
161522.0 432024.0 0
163946.0 436656.0 0
168793.0 433443.0 0
173739.0 431360.0 0
171992.0 435486.0 0
179424.0 434033.0 0
188016.0 433000.0 0
192949.0 432510.0 0
198471.0 432637.0 0
195429.0 436305.0 0
204183.0 431912.0 0
209635.0 434165.0 0
215095.0 431909.0 0
219171.0 433889.0 0
216642.0 436660.0 0
227583.0 432257.0 0
234604.0 432442.0 0
238214.0 436116.0 0
241897.0 433168.0 0
246345.0 432246.0 0
251488.0 433774.0 0
257654.0 436804.0 0
262542.0 434831.0 0
271520.0 433087.0 0
284157.0 432955.0 0
292911.0 433298.0 0
298835.0 433047.0 0
303979.0 433573.0 0
307048.0 433472.0 0
310175.0 432151.0 0
312526.0 435721.0 0
323768.0 433217.0 0
330701.0 435252.0 0
337596.0 436953.0 0
342722.0 434063.0 0
348299.0 432867.0 0
352097.0 436188.0 0
357598.0 434478.0 0
362902.0 435573.0 0
367357.0 437422.0 0
371644.0 435510.0 0
376919.0 439303.0 0
381377.0 436618.0 0
377335.0 434414.0 0
381135.0 440193.0 0
389100.0 438037.0 0
393355.0 438824.0 0
392925.0 435683.0 0
396687.0 437777.0 0
400067.0 439928.0 0
90417.2 445826.0 0
93243.2 443865.0 0
96980.2 442632.0 0
100924.0 443519.0 0
104700.0 440500.0 0
104979.0 444717.0 0
109475.0 442337.0 0
116649.0 440025.0 0
114031.0 443550.0 0
118752.0 443091.0 0
122720.0 442469.0 0
126412.0 442682.0 0
130295.0 441079.0 0
135313.0 442377.0 0
139025.0 438759.0 0
146408.0 439832.0 0
150516.0 441886.0 0
154486.0 437955.0 0
159174.0 439828.0 0
169194.0 437831.0 0
166797.0 441311.0 0
173726.0 439390.0 0
179191.0 440289.0 0
184993.0 437853.0 0
191083.0 437573.0 0
199344.0 438801.0 0
204006.0 437002.0 0
203579.0 441841.0 0
207864.0 439604.0 0
212632.0 438610.0 0
221362.0 437691.0 0
226670.0 438751.0 0
232247.0 436918.0 0
236083.0 441025.0 0
242945.0 438326.0 0
248046.0 437344.0 0
252850.0 437894.0 0
250639.0 441945.0 0
262485.0 440398.0 0
266959.0 437008.0 0
271909.0 439010.0 0
277653.0 438318.0 0
282670.0 437501.0 0
281398.0 441501.0 0
287920.0 437047.0 0
292580.0 437254.0 0
296439.0 438772.0 0
300258.0 437771.0 0
303541.0 438382.0 0
300491.0 441513.0 0
308243.0 438440.0 0
313205.0 440763.0 0
317623.0 437289.0 0
322369.0 436975.0 0
326173.0 437063.0 0
329235.0 441133.0 0
333688.0 438914.0 0
339454.0 441391.0 0
343238.0 439339.0 0
347572.0 437748.0 0
351420.0 440435.0 0
355238.0 438579.0 0
359822.0 439736.0 0
359552.0 444349.0 0
364316.0 439625.0 0
367092.0 441480.0 0
371638.0 441031.0 0
376433.0 444568.0 0
379889.0 442990.0 0
383377.0 443610.0 0
384726.0 439373.0 0
387614.0 442035.0 0
391874.0 442498.0 0
396686.0 441558.0 0
395053.0 445035.0 0
398003.0 445444.0 0
400609.0 443414.0 0
403500.0 442048.0 0
403705.0 445701.0 0
406768.0 444396.0 0
84007.8 450383.0 0
87267.4 447691.0 0
91088.3 449579.0 0
94116.4 446611.0 0
95164.1 449987.0 0
97764.9 446635.0 0
101747.0 447635.0 0
105478.0 448773.0 0
108596.0 446666.0 0
111182.0 445349.0 0
108606.0 450415.0 0
112306.0 448068.0 0
116607.0 446533.0 0
120693.0 446076.0 0
119290.0 449337.0 0
124275.0 446008.0 0
122570.0 448716.0 0
128427.0 446139.0 0
131982.0 444899.0 0
135393.0 447675.0 0
140484.0 444176.0 0
139858.0 448792.0 0
145820.0 444192.0 0
143725.0 448660.0 0
148421.0 448209.0 0
152173.0 446202.0 0
155294.0 443009.0 0
159139.0 444331.0 0
162913.0 442938.0 0
166593.0 445926.0 0
170563.0 443441.0 0
175427.0 445018.0 0
179503.0 444535.0 0
183602.0 444251.0 0
189026.0 442679.0 0
194417.0 441824.0 0
199180.0 444520.0 0
207365.0 444247.0 0
211253.0 442801.0 0
217132.0 442565.0 0
223358.0 442867.0 0
228941.0 444500.0 0
234561.0 445744.0 0
240947.0 443520.0 0
246368.0 444380.0 0
252594.0 445963.0 0
256454.0 442948.0 0
267820.0 442891.0 0
272458.0 443855.0 0
277371.0 444390.0 0
286291.0 443145.0 0
291996.0 441731.0 0
296573.0 444384.0 0
304779.0 443022.0 0
309505.0 444845.0 0
314266.0 446326.0 0
318229.0 443134.0 0
323429.0 441339.0 0
321756.0 446016.0 0
330323.0 445957.0 0
334910.0 443912.0 0
340311.0 446046.0 0
343173.0 443276.0 0
346716.0 442128.0 0
345745.0 446441.0 0
350478.0 445079.0 0
355417.0 443373.0 0
360051.0 448670.0 0
363689.0 444171.0 0
368315.0 445411.0 0
372425.0 446773.0 0
380531.0 446950.0 0
384598.0 448260.0 0
386894.0 445416.0 0
388477.0 448622.0 0
390043.0 446157.0 0
392949.0 446994.0 0
391766.0 450392.0 0
396412.0 449659.0 0
401025.0 448199.0 0
406735.0 447783.0 0
404845.0 450765.0 0
410405.0 447174.0 0
414500.0 449657.0 0
80304.2 453093.0 0
84653.0 454159.0 0
87391.9 451050.0 0
89006.1 454477.0 0
92741.8 452767.0 0
99127.9 450915.0 0
95944.5 453696.0 0
100026.0 455235.0 0
103772.0 452300.0 0
108138.0 454991.0 0
111893.0 452723.0 0
115349.0 450629.0 0
114790.0 454750.0 0
118244.0 453499.0 0
121919.0 452093.0 0
126052.0 450339.0 0
130634.0 449884.0 0
133723.0 452956.0 0
137732.0 451506.0 0
145106.0 452815.0 0
141337.0 452351.0 0
148086.0 452213.0 0
152109.0 451619.0 0
156318.0 448300.0 0
161887.0 448024.0 0
166279.0 451539.0 0
170930.0 448450.0 0
179786.0 448283.0 0
175389.0 450327.0 0
183771.0 451300.0 0
187655.0 447917.0 0
193283.0 447615.0 0
198520.0 449993.0 0
203816.0 447965.0 0
208687.0 448703.0 0
212907.0 447116.0 0
217920.0 448938.0 0
223991.0 448818.0 0
229529.0 450638.0 0
233911.0 450200.0 0
238929.0 449454.0 0
244231.0 448487.0 0
249377.0 448169.0 0
255544.0 449080.0 0
262142.0 447591.0 0
268284.0 447831.0 0
273012.0 448375.0 0
277780.0 449778.0 0
282205.0 447303.0 0
287413.0 449082.0 0
292420.0 447246.0 0
292895.0 451441.0 0
296714.0 449863.0 0
301338.0 447039.0 0
306466.0 449622.0 0
311363.0 449033.0 0
314532.0 451578.0 0
318452.0 448584.0 0
323193.0 450649.0 0
325977.0 446042.0 0
328193.0 450546.0 0
333163.0 449547.0 0
338485.0 450464.0 0
343548.0 450446.0 0
349582.0 450292.0 0
354667.0 448618.0 0
357267.0 452417.0 0
353598.0 452958.0 0
365541.0 449187.0 0
369514.0 449103.0 0
372419.0 450601.0 0
369085.0 453418.0 0
376891.0 450023.0 0
374226.0 454255.0 0
378027.0 454417.0 0
381920.0 452257.0 0
387833.0 452608.0 0
392081.0 454142.0 0
394344.0 453209.0 0
397451.0 453955.0 0
400606.0 452467.0 0
403603.0 454556.0 0
407707.0 454489.0 0
410003.0 451093.0 0
411791.0 454721.0 0
418866.0 452818.0 0
414447.0 453113.0 0
423263.0 454198.0 0
420511.0 456138.0 0
67005.6 461082.0 0
71138.6 458828.0 0
76070.8 456445.0 0
78222.9 459752.0 0
81344.8 457583.0 0
85704.5 457346.0 0
88515.9 458726.0 0
92629.2 456607.0 0
91554.1 460478.0 0
95061.7 460151.0 0
96178.3 456739.0 0
98130.4 458500.0 0
101138.0 459066.0 0
104115.0 457059.0 0
108032.0 459766.0 0
112410.0 457621.0 0
117065.0 457107.0 0
120825.0 455884.0 0
124308.0 454255.0 0
124219.0 458134.0 0
128692.0 454780.0 0
133254.0 458095.0 0
137904.0 455594.0 0
142877.0 456848.0 0
149180.0 455877.0 0
154436.0 456306.0 0
159189.0 452735.0 0
159258.0 457253.0 0
162887.0 455209.0 0
167226.0 457193.0 0
171090.0 453480.0 0
174905.0 454293.0 0
179081.0 453238.0 0
181106.0 457127.0 0
188793.0 452847.0 0
185161.0 455961.0 0
193363.0 452893.0 0
197575.0 455385.0 0
202492.0 453360.0 0
207949.0 453594.0 0
213642.0 452518.0 0
219992.0 454244.0 0
225088.0 454243.0 0
228820.0 454667.0 0
232935.0 453902.0 0
237039.0 454578.0 0
242464.0 453062.0 0
246879.0 452482.0 0
251692.0 452335.0 0
257550.0 454412.0 0
262445.0 453630.0 0
267893.0 453434.0 0
273632.0 453304.0 0
278755.0 455234.0 0
283864.0 452960.0 0
289630.0 453798.0 0
295540.0 454786.0 0
301012.0 452600.0 0
305767.0 454731.0 0
310176.0 453171.0 0
314830.0 456281.0 0
319004.0 453817.0 0
322282.0 457068.0 0
326002.0 454870.0 0
331288.0 455045.0 0
335577.0 453572.0 0
338722.0 454999.0 0
342403.0 455089.0 0
346865.0 454114.0 0
351314.0 457211.0 0
356539.0 456592.0 0
362546.0 454887.0 0
367593.0 457703.0 0
371661.0 457863.0 0
376411.0 458603.0 0
381081.0 457440.0 0
385805.0 456781.0 0
390664.0 457627.0 0
395319.0 456903.0 0
398555.0 460985.0 0
400459.0 457122.0 0
405694.0 458209.0 0
411088.0 458678.0 0
416315.0 456846.0 0
422984.0 457422.0 0
420053.0 460127.0 0
426573.0 457447.0 0
430940.0 459579.0 0
63382.7 462349.0 0
60808.8 465767.0 0
65405.1 464464.0 0
69619.6 463185.0 0
67844.6 466382.0 0
74592.8 461880.0 0
79717.9 462497.0 0
76577.2 465934.0 0
84220.5 461424.0 0
80833.1 465992.0 0
88512.5 463276.0 0
93299.8 464876.0 0
98832.4 463318.0 0
103951.0 461999.0 0
111582.0 462417.0 0
115738.0 460762.0 0
119921.0 459652.0 0
118817.0 463169.0 0
123092.0 463018.0 0
128302.0 460748.0 0
132881.0 463603.0 0
138280.0 461116.0 0
143229.0 461539.0 0
146637.0 459497.0 0
151006.0 460804.0 0
156686.0 462096.0 0
162711.0 459491.0 0
166014.0 461912.0 0
172313.0 458063.0 0
170324.0 462688.0 0
176980.0 457735.0 0
183594.0 460357.0 0
188442.0 459708.0 0
192917.0 457436.0 0
196615.0 460799.0 0
202059.0 459035.0 0
208010.0 459540.0 0
212634.0 457386.0 0
212877.0 462033.0 0
217150.0 459094.0 0
221887.0 459876.0 0
226331.0 458741.0 0
231229.0 457961.0 0
236013.0 459281.0 0
241393.0 457911.0 0
246779.0 457391.0 0
246502.0 462197.0 0
252418.0 457875.0 0
257625.0 459682.0 0
263224.0 459141.0 0
269100.0 459114.0 0
274046.0 458484.0 0
279237.0 460561.0 0
283333.0 457388.0 0
283639.0 461734.0 0
287854.0 458569.0 0
292212.0 457330.0 0
292361.0 461962.0 0
297367.0 459635.0 0
301873.0 457586.0 0
304340.0 462327.0 0
305717.0 458678.0 0
310056.0 458304.0 0
313798.0 461941.0 0
318527.0 459872.0 0
323683.0 461739.0 0
328147.0 459542.0 0
331973.0 462177.0 0
333189.0 459071.0 0
336061.0 457403.0 0
336112.0 461580.0 0
339903.0 458799.0 0
345571.0 459796.0 0
350549.0 462284.0 0
354894.0 461408.0 0
359836.0 460534.0 0
364756.0 460848.0 0
369260.0 461448.0 0
373221.0 461751.0 0
376551.0 463195.0 0
380279.0 462114.0 0
384872.0 461382.0 0
388975.0 461580.0 0
391632.0 461081.0 0
392363.0 464773.0 0
394533.0 460820.0 0
396514.0 464484.0 0
403372.0 461363.0 0
401598.0 465739.0 0
407955.0 462325.0 0
406060.0 464821.0 0
412384.0 463564.0 0
415641.0 460797.0 0
417214.0 464314.0 0
421809.0 464583.0 0
424603.0 461395.0 0
426151.0 465818.0 0
428049.0 463525.0 0
428229.0 460977.0 0
434603.0 462785.0 0
430745.0 463262.0 0
439212.0 465033.0 0
434925.0 466681.0 0
49901.6 471233.0 0
53814.2 469750.0 0
56634.7 466869.0 0
58260.9 469632.0 0
64737.5 468259.0 0
61436.2 470182.0 0
68672.1 470289.0 0
71818.6 466517.0 0
74017.9 469976.0 0
78462.5 468634.0 0
84716.2 466414.0 0
81709.3 469868.0 0
89331.0 468021.0 0
92578.7 469191.0 0
97213.1 468900.0 0
102887.0 467087.0 0
107552.0 464652.0 0
108044.0 469336.0 0
111564.0 466494.0 0
115391.0 465314.0 0
119499.0 466235.0 0
120571.0 469687.0 0
122942.0 467033.0 0
127727.0 466480.0 0
132814.0 468588.0 0
136488.0 466021.0 0
141428.0 466310.0 0
146499.0 463900.0 0
150439.0 465591.0 0
154473.0 467374.0 0
158476.0 467036.0 0
162080.0 464433.0 0
166500.0 466052.0 0
176307.0 463794.0 0
181501.0 463432.0 0
185510.0 464901.0 0
192036.0 463901.0 0
196439.0 465144.0 0
200232.0 463780.0 0
204440.0 463641.0 0
208818.0 464717.0 0
213017.0 466979.0 0
219402.0 463826.0 0
223780.0 463207.0 0
223035.0 467391.0 0
227940.0 463433.0 0
232469.0 462381.0 0
232626.0 467080.0 0
237684.0 463781.0 0
242231.0 464194.0 0
246103.0 467222.0 0
251560.0 464058.0 0
257107.0 463949.0 0
261952.0 465375.0 0
267112.0 463257.0 0
271177.0 462880.0 0
272054.0 466736.0 0
275496.0 463318.0 0
282539.0 467081.0 0
287514.0 464545.0 0
291620.0 467452.0 0
296876.0 464355.0 0
300776.0 464323.0 0
305160.0 466968.0 0
309114.0 463911.0 0
313265.0 466917.0 0
317384.0 464942.0 0
320456.0 463464.0 0
322403.0 467889.0 0
328302.0 465263.0 0
334268.0 465886.0 0
337873.0 469253.0 0
340829.0 464399.0 0
347162.0 466015.0 0
353093.0 466764.0 0
358450.0 465560.0 0
362623.0 464289.0 0
362648.0 468713.0 0
366795.0 465672.0 0
371333.0 464902.0 0
370402.0 468410.0 0
374813.0 466579.0 0
379131.0 466103.0 0
383162.0 465742.0 0
387622.0 465191.0 0
386094.0 469130.0 0
390137.0 468616.0 0
394036.0 469383.0 0
397708.0 468357.0 0
406398.0 468867.0 0
409751.0 466670.0 0
414150.0 467728.0 0
419066.0 468785.0 0
423523.0 469091.0 0
427535.0 469812.0 0
430530.0 466985.0 0
433303.0 470028.0 0
438155.0 469968.0 0
443017.0 467348.0 0
442650.0 470981.0 0
447251.0 470825.0 0
43362.4 475485.0 0
46868.8 473434.0 0
51512.0 474331.0 0
56155.7 472587.0 0
60095.5 473720.0 0
64594.2 472212.0 0
63916.3 476153.0 0
67809.8 474714.0 0
71098.8 473001.0 0
74095.9 473948.0 0
77832.4 472214.0 0
81699.5 474886.0 0
85700.2 470977.0 0
89932.9 472013.0 0
86869.1 475539.0 0
93461.2 472208.0 0
97083.8 475095.0 0
100443.0 471942.0 0
104003.0 471569.0 0
107147.0 474360.0 0
110597.0 472946.0 0
112601.0 469950.0 0
114417.0 473874.0 0
116553.0 469576.0 0
119427.0 474105.0 0
124338.0 470833.0 0
128848.0 471925.0 0
133332.0 473428.0 0
137409.0 470194.0 0
141837.0 471697.0 0
146456.0 469287.0 0
149760.0 473283.0 0
151074.0 469516.0 0
153645.0 471887.0 0
157273.0 470732.0 0
161405.0 469022.0 0
160814.0 473344.0 0
165645.0 471002.0 0
170900.0 468171.0 0
175276.0 469191.0 0
179790.0 469360.0 0
184797.0 469898.0 0
189222.0 468489.0 0
194267.0 468924.0 0
199842.0 468781.0 0
204648.0 467721.0 0
208753.0 469499.0 0
204708.0 471971.0 0
213423.0 472534.0 0
217906.0 468994.0 0
227840.0 469169.0 0
231542.0 471202.0 0
237176.0 468086.0 0
235427.0 472087.0 0
241464.0 468685.0 0
254333.0 468409.0 0
250194.0 469115.0 0
258590.0 469030.0 0
262320.0 471994.0 0
267065.0 468576.0 0
272012.0 471384.0 0
276715.0 468550.0 0
287284.0 469105.0 0
296058.0 468422.0 0
296130.0 472278.0 0
300641.0 468795.0 0
304905.0 471846.0 0
309268.0 469508.0 0
317031.0 469359.0 0
323903.0 472581.0 0
327971.0 471280.0 0
333286.0 470694.0 0
340797.0 472636.0 0
343313.0 469449.0 0
347488.0 471304.0 0
352032.0 471749.0 0
355505.0 473754.0 0
358248.0 470630.0 0
363556.0 473141.0 0
366837.0 470512.0 0
370041.0 471802.0 0
373642.0 470708.0 0
372233.0 474512.0 0
378037.0 469986.0 0
376369.0 474136.0 0
380839.0 473506.0 0
382185.0 469792.0 0
384971.0 473039.0 0
389030.0 472277.0 0
393833.0 474445.0 0
397647.0 471953.0 0
402197.0 471770.0 0
399383.0 475470.0 0
407190.0 472834.0 0
411359.0 471532.0 0
415448.0 476074.0 0
415851.0 471738.0 0
420414.0 473438.0 0
424434.0 472579.0 0
428074.0 473527.0 0
430763.0 471151.0 0
434030.0 472949.0 0
431384.0 474316.0 0
436648.0 474770.0 0
440373.0 474316.0 0
444628.0 474189.0 0
449190.0 475953.0 0
452142.0 472806.0 0
455758.0 475936.0 0
39860.9 477618.0 0
36197.5 481154.0 0
43094.7 478443.0 0
44999.8 481568.0 0
47284.9 477456.0 0
49043.3 482057.0 0
51378.9 478279.0 0
55712.1 476667.0 0
57178.5 480800.0 0
60429.7 478188.0 0
63484.8 480159.0 0
66791.4 478944.0 0
71458.5 477249.0 0
74906.6 480369.0 0
76504.1 476587.0 0
79427.5 479696.0 0
84015.6 479615.0 0
87931.3 479748.0 0
91627.0 476679.0 0
94895.3 480240.0 0
98967.4 479207.0 0
102419.0 476075.0 0
106460.0 478013.0 0
110856.0 477184.0 0
116131.0 477882.0 0
120683.0 479095.0 0
124695.0 475628.0 0
129532.0 476862.0 0
133969.0 478191.0 0
137578.0 474876.0 0
141718.0 475927.0 0
145602.0 474489.0 0
148227.0 478298.0 0
152106.0 476170.0 0
156232.0 474994.0 0
159980.0 478469.0 0
170533.0 474193.0 0
176018.0 473374.0 0
180849.0 474716.0 0
185980.0 474582.0 0
191046.0 473237.0 0
195820.0 473475.0 0
200466.0 474419.0 0
204584.0 477265.0 0
208801.0 474577.0 0
218327.0 474274.0 0
222500.0 473314.0 0
227490.0 473734.0 0
231797.0 475366.0 0
241080.0 473062.0 0
246297.0 473157.0 0
252725.0 473744.0 0
257764.0 472835.0 0
257198.0 476145.0 0
268170.0 473310.0 0
265125.0 477156.0 0
271973.0 477657.0 0
276180.0 473579.0 0
281423.0 472759.0 0
284764.0 477744.0 0
286359.0 473372.0 0
289380.0 477448.0 0
291477.0 472844.0 0
295443.0 477098.0 0
300262.0 474120.0 0
304715.0 477141.0 0
309270.0 474617.0 0
314904.0 474074.0 0
320409.0 473624.0 0
324514.0 476262.0 0
328083.0 475524.0 0
331944.0 475668.0 0
336803.0 474582.0 0
344497.0 475098.0 0
349827.0 476487.0 0
355074.0 478219.0 0
359787.0 475554.0 0
363799.0 478992.0 0
367723.0 475452.0 0
373841.0 478753.0 0
379117.0 477934.0 0
383738.0 477057.0 0
388316.0 476514.0 0
392073.0 479697.0 0
397093.0 479222.0 0
402371.0 479155.0 0
405280.0 476152.0 0
410044.0 476262.0 0
407561.0 480135.0 0
412767.0 480495.0 0
420481.0 477782.0 0
425036.0 476941.0 0
429287.0 477083.0 0
428424.0 481441.0 0
433448.0 478097.0 0
436087.0 481552.0 0
438572.0 478577.0 0
443209.0 477569.0 0
446487.0 479730.0 0
449811.0 481189.0 0
452792.0 478710.0 0
456435.0 480618.0 0
460606.0 479221.0 0
459351.0 482819.0 0
465772.0 482282.0 0
25320.2 485861.0 0
31813.5 482555.0 0
28763.0 485643.0 0
34051.9 485643.0 0
40537.1 481813.0 0
38762.5 486371.0 0
43009.3 485021.0 0
46928.3 485879.0 0
53147.5 481751.0 0
51945.2 486538.0 0
56005.1 484530.0 0
60670.6 483444.0 0
63048.3 487004.0 0
65161.0 483061.0 0
69905.9 482341.0 0
74362.0 484105.0 0
77744.4 483480.0 0
81884.3 483359.0 0
79226.4 486525.0 0
86317.2 483402.0 0
89487.9 485734.0 0
90563.2 481939.0 0
93597.4 485163.0 0
97876.5 483622.0 0
102925.0 481654.0 0
108233.0 481932.0 0
113069.0 481656.0 0
117336.0 481791.0 0
125343.0 480678.0 0
130047.0 481659.0 0
134736.0 482936.0 0
138492.0 479481.0 0
143135.0 479794.0 0
145572.0 483050.0 0
149856.0 482514.0 0
154452.0 480305.0 0
162920.0 482443.0 0
165684.0 477876.0 0
174270.0 478291.0 0
170202.0 481823.0 0
178335.0 479928.0 0
182448.0 479219.0 0
185822.0 478480.0 0
189729.0 478443.0 0
186130.0 482344.0 0
195003.0 478219.0 0
200137.0 480321.0 0
204707.0 482575.0 0
208156.0 479852.0 0
212132.0 478122.0 0
213947.0 482603.0 0
216683.0 478798.0 0
222043.0 478374.0 0
227909.0 479115.0 0
237606.0 477777.0 0
243857.0 478368.0 0
242224.0 482554.0 0
248892.0 478167.0 0
246552.0 482470.0 0
254093.0 479868.0 0
260061.0 478285.0 0
262417.0 482386.0 0
267783.0 482429.0 0
279005.0 478316.0 0
283117.0 481902.0 0
288156.0 482472.0 0
292682.0 480963.0 0
300264.0 479168.0 0
301394.0 482452.0 0
304591.0 482738.0 0
309641.0 480706.0 0
315529.0 479822.0 0
320373.0 478577.0 0
324359.0 482784.0 0
328462.0 479172.0 0
332755.0 480325.0 0
336151.0 479033.0 0
340590.0 478562.0 0
345786.0 480256.0 0
351125.0 481857.0 0
355691.0 482885.0 0
359379.0 480284.0 0
365360.0 483471.0 0
368861.0 480596.0 0
372764.0 483412.0 0
378166.0 483419.0 0
382473.0 481115.0 0
386282.0 480796.0 0
389601.0 483690.0 0
394863.0 483531.0 0
399765.0 483415.0 0
404708.0 483372.0 0
410261.0 485561.0 0
415627.0 484811.0 0
418357.0 481543.0 0
423567.0 481253.0 0
421869.0 483844.0 0
425310.0 485867.0 0
430189.0 485434.0 0
433046.0 482888.0 0
436291.0 484390.0 0
439166.0 482735.0 0
442670.0 481564.0 0
442766.0 486042.0 0
446382.0 483597.0 0
450205.0 485087.0 0
453381.0 482676.0 0
454084.0 486556.0 0
457021.0 484713.0 0
460412.0 485557.0 0
462298.0 483468.0 0
463490.0 487128.0 0
470480.0 484422.0 0
467539.0 486979.0 0
474245.0 486789.0 0
16157.9 492325.0 0
19606.6 490877.0 0
23538.9 488516.0 0
27446.1 490918.0 0
31778.0 489367.0 0
35578.0 489243.0 0
42956.8 488750.0 0
38659.5 491146.0 0
47877.8 490379.0 0
53094.6 491016.0 0
57503.6 488032.0 0
61430.8 490577.0 0
67064.9 486941.0 0
71756.0 487137.0 0
69667.3 490420.0 0
75892.0 487291.0 0
73748.0 490913.0 0
78400.1 490666.0 0
83334.7 487756.0 0
87371.9 489038.0 0
86943.3 486546.0 0
91537.7 489752.0 0
96426.6 488680.0 0
101180.0 487060.0 0
105952.0 485739.0 0
110418.0 486510.0 0
115505.0 485954.0 0
118150.0 488954.0 0
121234.0 484837.0 0
121996.0 489977.0 0
126522.0 485153.0 0
130871.0 486499.0 0
135810.0 488088.0 0
139884.0 484248.0 0
143441.0 486767.0 0
148356.0 487434.0 0
153117.0 485542.0 0
157759.0 484855.0 0
162071.0 487110.0 0
166518.0 485472.0 0
175351.0 483236.0 0
180803.0 484300.0 0
188305.0 486868.0 0
192288.0 483294.0 0
197218.0 484775.0 0
201570.0 485429.0 0
209669.0 483685.0 0
206431.0 487113.0 0
211918.0 487479.0 0
218951.0 483352.0 0
223846.0 483285.0 0
221994.0 487665.0 0
228038.0 484113.0 0
232968.0 482966.0 0
232051.0 487352.0 0
238111.0 483742.0 0
241576.0 487109.0 0
246873.0 487566.0 0
251389.0 484322.0 0
257471.0 484192.0 0
261397.0 487711.0 0
266168.0 486911.0 0
273128.0 484285.0 0
278877.0 484471.0 0
284131.0 486931.0 0
289140.0 487354.0 0
292773.0 485126.0 0
297542.0 483373.0 0
296006.0 487608.0 0
301761.0 485600.0 0
306310.0 486269.0 0
313752.0 483900.0 0
310518.0 486398.0 0
315001.0 488297.0 0
318505.0 484655.0 0
323883.0 488193.0 0
330132.0 483941.0 0
333764.0 486548.0 0
336109.0 483183.0 0
341700.0 484745.0 0
347474.0 484807.0 0
352117.0 487482.0 0
356506.0 486379.0 0
360789.0 485116.0 0
365278.0 488086.0 0
369155.0 485430.0 0
374500.0 487943.0 0
380002.0 488699.0 0
384162.0 485434.0 0
388313.0 487715.0 0
392757.0 487543.0 0
397395.0 487613.0 0
402072.0 487983.0 0
405855.0 487054.0 0
415582.0 489074.0 0
420168.0 487133.0 0
428635.0 487110.0 0
427435.0 490062.0 0
431167.0 489039.0 0
433626.0 486766.0 0
438945.0 485910.0 0
436744.0 487670.0 0
439880.0 489637.0 0
447169.0 487687.0 0
444130.0 490518.0 0
448397.0 491656.0 0
451002.0 488891.0 0
455015.0 489723.0 0
459077.0 489068.0 0
462727.0 490685.0 0
465888.0 490529.0 0
471340.0 487928.0 0
469976.0 490832.0 0
473924.0 490753.0 0
477791.0 488656.0 0
477631.0 491567.0 0
481426.0 491356.0 0
9612.98 496420.0 0
13343.6 495193.0 0
18110.7 495120.0 0
22885.8 493470.0 0
20939.0 497710.0 0
25398.9 496590.0 0
31374.2 492776.0 0
28966.5 494964.0 0
34648.4 492577.0 0
32745.5 495897.0 0
37460.4 495731.0 0
42775.8 493571.0 0
46815.0 493964.0 0
49880.4 494203.0 0
54048.9 494927.0 0
57439.8 493072.0 0
61638.3 495308.0 0
66141.6 495663.0 0
65795.2 491630.0 0
70407.7 494412.0 0
75651.7 494860.0 0
82857.0 493252.0 0
87597.9 492194.0 0
90650.1 494520.0 0
95269.7 493451.0 0
99825.8 491574.0 0
105184.0 489925.0 0
109247.0 490843.0 0
113827.0 490919.0 0
118482.0 493120.0 0
123449.0 494214.0 0
126568.0 490013.0 0
131357.0 491431.0 0
135474.0 493084.0 0
139498.0 491340.0 0
144109.0 491029.0 0
148147.0 492438.0 0
152825.0 491146.0 0
158060.0 490242.0 0
165499.0 492117.0 0
171854.0 488317.0 0
178267.0 489706.0 0
183791.0 489165.0 0
192912.0 488538.0 0
191395.0 493042.0 0
197512.0 489429.0 0
202255.0 490146.0 0
209253.0 490165.0 0
206378.0 491475.0 0
212606.0 492660.0 0
216821.0 488352.0 0
217133.0 492851.0 0
221278.0 492493.0 0
226902.0 488537.0 0
231227.0 491837.0 0
236200.0 488588.0 0
240480.0 492294.0 0
248531.0 492321.0 0
251475.0 488581.0 0
252634.0 492217.0 0
256156.0 489313.0 0
259979.0 492322.0 0
265291.0 492140.0 0
270355.0 489228.0 0
272728.0 492630.0 0
276096.0 489267.0 0
281184.0 492352.0 0
287442.0 492097.0 0
292659.0 489687.0 0
297355.0 491984.0 0
303092.0 490434.0 0
307865.0 489644.0 0
311664.0 490733.0 0
315253.0 492910.0 0
319450.0 490473.0 0
325526.0 492607.0 0
328651.0 488688.0 0
332819.0 490983.0 0
337611.0 489418.0 0
342541.0 490149.0 0
346351.0 488997.0 0
349353.0 491846.0 0
353610.0 493614.0 0
357825.0 490361.0 0
362441.0 491655.0 0
366375.0 492464.0 0
369765.0 489681.0 0
374094.0 492188.0 0
378193.0 493325.0 0
382803.0 492352.0 0
385878.0 490252.0 0
387182.0 495147.0 0
390288.0 491568.0 0
395393.0 492032.0 0
400240.0 492785.0 0
403824.0 491523.0 0
405183.0 494894.0 0
407094.0 490560.0 0
408857.0 493981.0 0
411427.0 491207.0 0
411738.0 495091.0 0
415506.0 493921.0 0
419618.0 491944.0 0
422688.0 494424.0 0
423566.0 490543.0 0
430686.0 492405.0 0
426953.0 494789.0 0
435307.0 491936.0 0
440651.0 493825.0 0
445493.0 494604.0 0
450023.0 495788.0 0
452768.0 492832.0 0
457271.0 493197.0 0
459202.0 496501.0 0
464411.0 493873.0 0
461026.0 493450.0 0
467250.0 497032.0 0
467746.0 493574.0 0
471338.0 495083.0 0
475547.0 495015.0 0
479930.0 494345.0 0
483010.0 496002.0 0
485116.0 493658.0 0
487452.0 498470.0 0
488271.0 495173.0 0
491144.0 497015.0 0
6762.87 499022.0 0
2486.7 500072.0 0
11162.6 499671.0 0
15968.4 499371.0 0
20133.7 501272.0 0
23830.5 500210.0 0
25369.1 502281.0 0
28758.1 499549.0 0
33806.2 500037.0 0
41601.4 497563.0 0
38901.2 499872.0 0
42776.1 500306.0 0
46040.0 497573.0 0
51460.3 498640.0 0
57010.4 497880.0 0
55216.1 501387.0 0
60515.8 499325.0 0
64162.9 498863.0 0
68260.9 498691.0 0
72679.0 498560.0 0
76604.8 498762.0 0
79406.8 496848.0 0
83796.7 498997.0 0
86948.5 495497.0 0
88994.4 498394.0 0
93143.4 497729.0 0
96701.1 497592.0 0
99208.7 495534.0 0
103698.0 494788.0 0
109265.0 495239.0 0
105991.0 499504.0 0
110816.0 499723.0 0
114325.0 496472.0 0
114605.0 500448.0 0
119637.0 498242.0 0
127983.0 494637.0 0
125281.0 498824.0 0
128878.0 497854.0 0
132408.0 496322.0 0
138189.0 495676.0 0
141822.0 494843.0 0
145633.0 495820.0 0
150507.0 496506.0 0
155768.0 496902.0 0
160081.0 494809.0 0
163425.0 497241.0 0
166817.0 497399.0 0
171025.0 495757.0 0
174133.0 499134.0 0
175285.0 493552.0 0
178828.0 497537.0 0
181498.0 493150.0 0
186160.0 494303.0 0
190587.0 498199.0 0
195561.0 494534.0 0
199137.0 493113.0 0
204048.0 494253.0 0
200488.0 497653.0 0
208455.0 496856.0 0
222200.0 496840.0 0
225988.0 493381.0 0
232793.0 497773.0 0
235865.0 493626.0 0
238745.0 497535.0 0
244781.0 496491.0 0
251365.0 497190.0 0
256095.0 494295.0 0
261676.0 496919.0 0
269950.0 496035.0 0
275439.0 493293.0 0
277434.0 496560.0 0
288309.0 497318.0 0
292492.0 494338.0 0
296313.0 496927.0 0
301980.0 496939.0 0
307170.0 493368.0 0
307544.0 498290.0 0
311266.0 495361.0 0
316326.0 498079.0 0
321434.0 495481.0 0
329532.0 492673.0 0
326230.0 497772.0 0
332068.0 495479.0 0
336866.0 494717.0 0
341633.0 494254.0 0
345970.0 494129.0 0
346139.0 498671.0 0
349813.0 496182.0 0
358766.0 496248.0 0
363863.0 495638.0 0
367638.0 498627.0 0
370532.0 494366.0 0
374718.0 495618.0 0
372451.0 498547.0 0
377269.0 499450.0 0
381995.0 497012.0 0
385724.0 499643.0 0
390115.0 499986.0 0
392639.0 496010.0 0
397250.0 496588.0 0
401388.0 496997.0 0
405305.0 499709.0 0
409181.0 497578.0 0
414262.0 499031.0 0
419389.0 496728.0 0
423878.0 498702.0 0
428580.0 499937.0 0
432147.0 496382.0 0
437288.0 496829.0 0
438945.0 500814.0 0
442658.0 498438.0 0
447153.0 498343.0 0
447415.0 501862.0 0
451298.0 499820.0 0
455028.0 497178.0 0
459425.0 500045.0 0
463076.0 497636.0 0
466407.0 500671.0 0
470542.0 499097.0 0
474400.0 498901.0 0
473247.0 501222.0 0
476879.0 502012.0 0
479150.0 498595.0 0
483951.0 499324.0 0
481541.0 502770.0 0
486396.0 502683.0 0
490574.0 501580.0 0
493910.0 499013.0 0
497024.0 501330.0 0
2468.04 504223.0 0
7512.07 502955.0 0
10196.6 505743.0 0
12559.2 503113.0 0
17142.2 503974.0 0
13727.7 506794.0 0
22313.3 504542.0 0
17675.3 507926.0 0
28171.6 504562.0 0
32373.0 504898.0 0
36426.0 503608.0 0
40939.4 503871.0 0
46531.6 503263.0 0
50684.3 506841.0 0
58317.3 502289.0 0
51907.9 503319.0 0
62326.0 502329.0 0
60359.4 506269.0 0
65909.8 501666.0 0
70108.5 503428.0 0
75158.1 502317.0 0
78554.1 505366.0 0
79361.0 500906.0 0
83067.9 503949.0 0
87479.8 502499.0 0
91418.1 501057.0 0
91470.9 505366.0 0
95720.0 501625.0 0
100610.0 499648.0 0
99775.0 504320.0 0
103284.0 503192.0 0
112700.0 503016.0 0
117355.0 503830.0 0
122149.0 502315.0 0
126197.0 504027.0 0
130862.0 501352.0 0
136433.0 499882.0 0
142062.0 499405.0 0
147428.0 501693.0 0
153068.0 500570.0 0
156352.0 502607.0 0
159922.0 499771.0 0
165115.0 501507.0 0
170523.0 501264.0 0
174676.0 502423.0 0
178535.0 503121.0 0
184326.0 499718.0 0
188058.0 502623.0 0
192931.0 503314.0 0
195557.0 499134.0 0
201936.0 503154.0 0
204593.0 499614.0 0
207556.0 502988.0 0
211710.0 500650.0 0
216716.0 498364.0 0
222234.0 501573.0 0
226870.0 498611.0 0
236458.0 502493.0 0
241281.0 502128.0 0
245835.0 501820.0 0
250429.0 503075.0 0
256801.0 498812.0 0
255168.0 502964.0 0
260731.0 503077.0 0
266130.0 500135.0 0
273757.0 499147.0 0
270812.0 502810.0 0
277731.0 502375.0 0
282888.0 498592.0 0
287809.0 502572.0 0
292514.0 499627.0 0
297655.0 502069.0 0
302697.0 502426.0 0
307311.0 503187.0 0
318183.0 503467.0 0
321633.0 500855.0 0
326446.0 503247.0 0
330945.0 500429.0 0
336139.0 499779.0 0
341230.0 499028.0 0
344134.0 502605.0 0
349149.0 503364.0 0
353703.0 499498.0 0
358391.0 501788.0 0
362805.0 500163.0 0
366718.0 503001.0 0
371204.0 502883.0 0
376102.0 504559.0 0
379337.0 502916.0 0
382402.0 501992.0 0
386704.0 503645.0 0
395072.0 500262.0 0
391588.0 504684.0 0
400301.0 501404.0 0
396725.0 504926.0 0
405620.0 504254.0 0
409846.0 502091.0 0
414762.0 504584.0 0
419663.0 502062.0 0
424998.0 503673.0 0
430293.0 505048.0 0
434190.0 501331.0 0
438158.0 504261.0 0
442922.0 504043.0 0
447475.0 505847.0 0
451690.0 504434.0 0
455813.0 501670.0 0
456103.0 505539.0 0
460117.0 504387.0 0
462900.0 501628.0 0
465093.0 504856.0 0
469841.0 503295.0 0
474309.0 503786.0 0
478540.0 506761.0 0
484194.0 506159.0 0
493385.0 504823.0 0
489181.0 506778.0 0
497332.0 506446.0 0
2644.73 508720.0 0
6498.24 506819.0 0
10346.2 509316.0 0
14354.3 510802.0 0
18393.4 512290.0 0
21717.8 509317.0 0
25824.9 510887.0 0
25494.9 507268.0 0
30243.5 509213.0 0
36667.1 509120.0 0
42744.3 507507.0 0
47138.9 508901.0 0
52183.9 510699.0 0
55302.0 506116.0 0
57841.3 510338.0 0
65230.8 506016.0 0
73726.9 507419.0 0
69097.0 509024.0 0
77422.4 510402.0 0
81893.6 508567.0 0
86476.1 506891.0 0
89770.5 510003.0 0
93817.7 509449.0 0
96198.5 506133.0 0
103097.0 507436.0 0
98565.0 510051.0 0
108004.0 504593.0 0
113047.0 508331.0 0
118105.0 508589.0 0
121798.0 506613.0 0
125396.0 508496.0 0
129997.0 507723.0 0
134664.0 505166.0 0
139900.0 504368.0 0
140350.0 508649.0 0
144328.0 505893.0 0
152184.0 504970.0 0
156864.0 507161.0 0
160925.0 504423.0 0
161294.0 508779.0 0
168251.0 505732.0 0
165139.0 508488.0 0
173201.0 506396.0 0
182989.0 504668.0 0
189105.0 507738.0 0
197477.0 503690.0 0
194731.0 508303.0 0
199789.0 507898.0 0
204854.0 507821.0 0
213133.0 503717.0 0
210148.0 508092.0 0
217994.0 504321.0 0
214581.0 506843.0 0
222408.0 507050.0 0
226841.0 503685.0 0
226549.0 507327.0 0
231587.0 503329.0 0
235896.0 507244.0 0
240073.0 505480.0 0
244158.0 506164.0 0
256373.0 508295.0 0
266426.0 505819.0 0
272210.0 508395.0 0
277968.0 508184.0 0
282776.0 505493.0 0
289049.0 508087.0 0
292799.0 504488.0 0
298338.0 507464.0 0
302497.0 506395.0 0
306507.0 508166.0 0
313340.0 503867.0 0
321380.0 506625.0 0
326706.0 508187.0 0
330388.0 504646.0 0
334135.0 504139.0 0
331904.0 508600.0 0
339424.0 504496.0 0
344865.0 506099.0 0
354088.0 504448.0 0
358011.0 506611.0 0
363021.0 505246.0 0
368234.0 507446.0 0
372822.0 507168.0 0
380738.0 506202.0 0
377095.0 509469.0 0
385807.0 509659.0 0
384576.0 507011.0 0
388042.0 507525.0 0
390878.0 508452.0 0
394162.0 508815.0 0
401769.0 505724.0 0
405032.0 509035.0 0
410314.0 507261.0 0
416442.0 509339.0 0
421057.0 507153.0 0
422332.0 510302.0 0
426450.0 509483.0 0
435383.0 506685.0 0
432263.0 510417.0 0
439779.0 507743.0 0
437095.0 510355.0 0
441008.0 511081.0 0
444982.0 509601.0 0
449996.0 509086.0 0
453795.0 508078.0 0
462360.0 507898.0 0
458093.0 509305.0 0
465906.0 509489.0 0
468583.0 507117.0 0
470461.0 511077.0 0
473210.0 507426.0 0
479652.0 511717.0 0
486257.0 509851.0 0
482548.0 509495.0 0
489353.0 511626.0 0
493602.0 509848.0 0
498118.0 510242.0 0
2104.55 513102.0 0
6389.47 511470.0 0
6814.21 515744.0 0
11108.0 513895.0 0
13666.4 517104.0 0
15232.1 514463.0 0
18269.0 516101.0 0
22757.9 514729.0 0
28347.4 514118.0 0
32307.9 513247.0 0
36773.4 515969.0 0
42617.6 512345.0 0
45785.8 516204.0 0
47899.7 512784.0 0
51016.4 516195.0 0
55315.3 513883.0 0
59637.7 514627.0 0
63412.7 511025.0 0
68263.1 513577.0 0
72612.2 511918.0 0
76542.6 514583.0 0
80848.2 513309.0 0
85305.2 511423.0 0
88792.4 514630.0 0
94283.2 514084.0 0
103137.0 512503.0 0
99158.6 514926.0 0
107453.0 510086.0 0
110823.0 512817.0 0
116310.0 512626.0 0
121709.0 512076.0 0
127406.0 512116.0 0
132538.0 512562.0 0
136650.0 509573.0 0
143446.0 509815.0 0
140126.0 512879.0 0
148233.0 508985.0 0
153248.0 510285.0 0
157940.0 513037.0 0
168512.0 510271.0 0
163859.0 512670.0 0
173351.0 512282.0 0
178567.0 508610.0 0
184007.0 509322.0 0
187093.0 512888.0 0
192233.0 512915.0 0
197237.0 512553.0 0
202329.0 512541.0 0
207802.0 513079.0 0
214208.0 511291.0 0
217915.0 508744.0 0
220730.0 511945.0 0
225606.0 511417.0 0
230690.0 508859.0 0
236553.0 512804.0 0
240223.0 508906.0 0
245113.0 512316.0 0
250277.0 508457.0 0
262282.0 508754.0 0
267006.0 511315.0 0
277351.0 513162.0 0
282802.0 511039.0 0
288874.0 512819.0 0
293959.0 508962.0 0
292483.0 512503.0 0
296908.0 513417.0 0
302684.0 511880.0 0
311467.0 509768.0 0
316500.0 508545.0 0
319298.0 512572.0 0
323438.0 510937.0 0
327639.0 513602.0 0
333406.0 513889.0 0
337599.0 510241.0 0
342770.0 509110.0 0
348107.0 509475.0 0
353583.0 508775.0 0
352251.0 513412.0 0
359364.0 511037.0 0
356345.0 513125.0 0
363821.0 510327.0 0
368289.0 512864.0 0
372522.0 510862.0 0
372103.0 514515.0 0
375671.0 513727.0 0
380045.0 513426.0 0
382637.0 510138.0 0
385135.0 511664.0 0
389257.0 512467.0 0
394964.0 513255.0 0
399505.0 509918.0 0
404389.0 514820.0 0
409362.0 512277.0 0
413852.0 513378.0 0
420117.0 510753.0 0
418387.0 513781.0 0
422784.0 513530.0 0
430987.0 515181.0 0
435303.0 512981.0 0
438937.0 513847.0 0
443928.0 514607.0 0
448860.0 513244.0 0
453527.0 511915.0 0
462345.0 512567.0 0
457682.0 514112.0 0
464338.0 516758.0 0
467076.0 513745.0 0
472794.0 515304.0 0
475638.0 511519.0 0
478573.0 516729.0 0
484176.0 513811.0 0
488741.0 515972.0 0
492374.0 513847.0 0
497026.0 514209.0 0
2670.3 517466.0 0
6203.96 520217.0 0
16626.9 518716.0 0
10118.4 518443.0 0
20813.1 519455.0 0
26388.5 518020.0 0
31151.6 517835.0 0
28506.0 521244.0 0
34525.3 520291.0 0
41618.1 516950.0 0
39731.9 520720.0 0
43568.0 519361.0 0
47625.1 520425.0 0
52018.6 521574.0 0
55953.9 518536.0 0
60633.6 518541.0 0
64081.4 516107.0 0
68090.2 518770.0 0
72434.5 516199.0 0
75851.6 518488.0 0
79604.3 517556.0 0
82852.0 517745.0 0
84218.3 515335.0 0
86056.0 518595.0 0
91538.6 519514.0 0
97432.3 519274.0 0
102714.0 518102.0 0
107256.0 515005.0 0
106679.0 518600.0 0
113298.0 515540.0 0
110314.0 518736.0 0
117860.0 516560.0 0
121929.0 517545.0 0
125265.0 515436.0 0
125625.0 518732.0 0
129173.0 516494.0 0
133112.0 519073.0 0
136222.0 515801.0 0
141937.0 516328.0 0
139339.0 518740.0 0
145365.0 514053.0 0
148682.0 518576.0 0
150407.0 513771.0 0
153824.0 516984.0 0
161689.0 517030.0 0
168355.0 514869.0 0
165729.0 518655.0 0
172383.0 518265.0 0
183194.0 513723.0 0
178805.0 514756.0 0
185731.0 517966.0 0
190373.0 517064.0 0
195448.0 517912.0 0
201422.0 517924.0 0
206679.0 518281.0 0
212693.0 517060.0 0
217277.0 514211.0 0
218539.0 518289.0 0
223296.0 516270.0 0
229582.0 513903.0 0
232917.0 517350.0 0
240622.0 515188.0 0
248620.0 517143.0 0
252133.0 513458.0 0
254672.0 517502.0 0
256851.0 513761.0 0
259446.0 517712.0 0
261875.0 513482.0 0
266152.0 518318.0 0
272193.0 514479.0 0
275941.0 518139.0 0
285413.0 514927.0 0
280966.0 516984.0 0
291960.0 517294.0 0
302557.0 517127.0 0
308003.0 514276.0 0
314219.0 514830.0 0
322763.0 515966.0 0
330866.0 518029.0 0
335684.0 518425.0 0
337471.0 514909.0 0
342125.0 514418.0 0
347559.0 514850.0 0
355835.0 516857.0 0
351081.0 518614.0 0
359392.0 514951.0 0
363804.0 515208.0 0
369621.0 517904.0 0
374921.0 518165.0 0
380861.0 518951.0 0
384426.0 514850.0 0
387369.0 518579.0 0
392213.0 517297.0 0
396499.0 517129.0 0
399200.0 514872.0 0
400648.0 518858.0 0
410296.0 517683.0 0
416208.0 518302.0 0
421367.0 517594.0 0
426557.0 518782.0 0
426910.0 514757.0 0
435306.0 516948.0 0
440325.0 518158.0 0
444495.0 519171.0 0
447894.0 517380.0 0
453479.0 517242.0 0
460452.0 516857.0 0
458369.0 520156.0 0
462613.0 519939.0 0
468512.0 518043.0 0
473183.0 520966.0 0
484492.0 518848.0 0
493114.0 517395.0 0
494322.0 522060.0 0
497178.0 519225.0 0
1742.61 521396.0 0
2074.28 524848.0 0
5638.33 523960.0 0
9695.39 522653.0 0
13528.8 520877.0 0
17369.2 522304.0 0
24729.0 521519.0 0
21301.0 524807.0 0
31693.0 522068.0 0
26998.9 525378.0 0
36164.6 523607.0 0
40334.3 525337.0 0
43662.1 522603.0 0
48756.1 525042.0 0
55294.8 522840.0 0
53338.9 525919.0 0
59100.6 522696.0 0
63890.5 521315.0 0
67403.5 524584.0 0
72304.8 521386.0 0
71484.4 525862.0 0
77419.8 522933.0 0
82220.1 521132.0 0
86636.2 523317.0 0
95164.9 522416.0 0
97622.2 525463.0 0
100588.0 521784.0 0
105957.0 522000.0 0
110639.0 523623.0 0
114822.0 519529.0 0
115615.0 524268.0 0
119127.0 520893.0 0
123700.0 522539.0 0
128812.0 521419.0 0
132682.0 523859.0 0
136448.0 521930.0 0
143672.0 519291.0 0
140891.0 523141.0 0
146064.0 523503.0 0
153343.0 523131.0 0
157858.0 519287.0 0
162095.0 522153.0 0
168651.0 522423.0 0
177116.0 519499.0 0
174349.0 523806.0 0
181095.0 519059.0 0
179616.0 523073.0 0
184436.0 523216.0 0
189736.0 521353.0 0
198916.0 522106.0 0
207501.0 523383.0 0
212915.0 523439.0 0
217795.0 522756.0 0
222394.0 521589.0 0
227870.0 518969.0 0
226765.0 523584.0 0
231704.0 522772.0 0
238209.0 519091.0 0
236422.0 523506.0 0
243812.0 518636.0 0
247164.0 522806.0 0
251507.0 520627.0 0
256603.0 522798.0 0
261789.0 522554.0 0
272071.0 519410.0 0
277130.0 523101.0 0
281969.0 522467.0 0
286392.0 519514.0 0
297869.0 519254.0 0
302808.0 522149.0 0
306517.0 518931.0 0
307651.0 523158.0 0
311417.0 519880.0 0
317425.0 519450.0 0
322049.0 520114.0 0
326279.0 519004.0 0
332427.0 523809.0 0
340096.0 519378.0 0
345274.0 519703.0 0
342408.0 524118.0 0
350416.0 524092.0 0
355818.0 522194.0 0
360722.0 519238.0 0
360808.0 524145.0 0
365311.0 519347.0 0
365847.0 524024.0 0
368824.0 521584.0 0
372098.0 522240.0 0
376661.0 522609.0 0
385355.0 522623.0 0
389466.0 524693.0 0
390793.0 521095.0 0
395998.0 521957.0 0
401476.0 523224.0 0
405489.0 520701.0 0
409664.0 522881.0 0
413158.0 521891.0 0
416168.0 523843.0 0
419437.0 522132.0 0
423353.0 521197.0 0
427247.0 523396.0 0
431237.0 520384.0 0
430191.0 525743.0 0
433214.0 525078.0 0
436581.0 521930.0 0
441877.0 522653.0 0
445851.0 522084.0 0
447749.0 525340.0 0
449823.0 521338.0 0
451784.0 524955.0 0
454582.0 522407.0 0
458110.0 524176.0 0
461604.0 523300.0 0
466539.0 522566.0 0
473718.0 526370.0 0
476656.0 523916.0 0
480456.0 522349.0 0
485272.0 523641.0 0
489908.0 521588.0 0
497406.0 523988.0 0
3483.53 529769.0 0
8735.72 527209.0 0
14035.5 525738.0 0
12241.8 530475.0 0
18319.7 529818.0 0
23795.5 529174.0 0
28839.2 530500.0 0
32165.8 526344.0 0
33403.0 530709.0 0
36939.4 528410.0 0
44384.4 526147.0 0
41922.3 530281.0 0
46525.9 528860.0 0
50575.9 529435.0 0
57578.8 526794.0 0
62446.2 526308.0 0
66052.4 528934.0 0
70135.7 529946.0 0
75303.4 528236.0 0
81736.5 527807.0 0
87461.0 527934.0 0
91951.3 525700.0 0
102517.0 525379.0 0
106951.0 526126.0 0
104765.0 529254.0 0
115196.0 529395.0 0
119976.0 525026.0 0
122970.0 528266.0 0
127224.0 525926.0 0
131173.0 527867.0 0
136835.0 527587.0 0
142929.0 527877.0 0
148927.0 528828.0 0
158491.0 525596.0 0
154080.0 528450.0 0
162989.0 528116.0 0
168933.0 527930.0 0
178840.0 528065.0 0
188939.0 527214.0 0
194279.0 523898.0 0
194060.0 528638.0 0
198868.0 527138.0 0
202793.0 524028.0 0
203961.0 528075.0 0
207788.0 527774.0 0
211700.0 528260.0 0
216689.0 527345.0 0
223244.0 527910.0 0
229142.0 527670.0 0
233584.0 527113.0 0
238183.0 528197.0 0
241501.0 523678.0 0
243427.0 528435.0 0
248802.0 528180.0 0
251941.0 524604.0 0
254568.0 528425.0 0
259343.0 527471.0 0
265867.0 525611.0 0
270074.0 528243.0 0
272126.0 524144.0 0
276115.0 527647.0 0
281956.0 528574.0 0
287082.0 524756.0 0
293051.0 523924.0 0
298475.0 524128.0 0
297039.0 528401.0 0
304984.0 527596.0 0
310756.0 525403.0 0
314854.0 524123.0 0
319867.0 523959.0 0
317659.0 527617.0 0
325438.0 524554.0 0
322500.0 528435.0 0
336292.0 528208.0 0
338225.0 524542.0 0
340412.0 528198.0 0
346186.0 524259.0 0
345441.0 528696.0 0
356348.0 527394.0 0
360811.0 528928.0 0
370455.0 526572.0 0
375814.0 527927.0 0
381079.0 524970.0 0
385579.0 527225.0 0
389972.0 529678.0 0
393865.0 526933.0 0
399409.0 527832.0 0
403528.0 526132.0 0
406627.0 525272.0 0
408831.0 528874.0 0
412759.0 526161.0 0
417596.0 527955.0 0
422598.0 525793.0 0
427420.0 527915.0 0
432207.0 529600.0 0
438304.0 527681.0 0
443628.0 526335.0 0
446378.0 530106.0 0
451128.0 528562.0 0
455167.0 526836.0 0
454454.0 530651.0 0
459237.0 527802.0 0
463685.0 526973.0 0
465852.0 531026.0 0
469042.0 527432.0 0
478030.0 527088.0 0
475090.0 530032.0 0
482711.0 527329.0 0
488398.0 527893.0 0
493332.0 526244.0 0
497608.0 528408.0 0
8361.51 531627.0 0
8357.34 535442.0 0
14790.3 534548.0 0
19905.3 534674.0 0
24766.6 533970.0 0
31935.0 534413.0 0
37164.1 533602.0 0
45252.4 535264.0 0
41847.7 534921.0 0
47252.0 532550.0 0
51617.2 534007.0 0
54909.5 530305.0 0
55960.6 534388.0 0
59789.0 530726.0 0
64252.1 532815.0 0
72645.8 532924.0 0
68700.6 534644.0 0
77564.1 533608.0 0
82649.3 533435.0 0
86346.8 531797.0 0
90365.4 530575.0 0
89600.8 534492.0 0
95159.3 530448.0 0
100543.0 530261.0 0
104612.0 533357.0 0
109542.0 530402.0 0
113256.0 534253.0 0
117448.0 533448.0 0
119402.0 530377.0 0
122588.0 534097.0 0
127381.0 530813.0 0
132808.0 533181.0 0
138806.0 533385.0 0
144235.0 533238.0 0
153426.0 532283.0 0
157814.0 530028.0 0
166134.0 532623.0 0
171039.0 532900.0 0
173897.0 529047.0 0
176499.0 533537.0 0
183633.0 528826.0 0
181198.0 532172.0 0
186362.0 533639.0 0
191727.0 532085.0 0
196923.0 532774.0 0
201452.0 530787.0 0
208689.0 532717.0 0
219112.0 531295.0 0
214516.0 532122.0 0
222571.0 533734.0 0
227157.0 532410.0 0
232952.0 532204.0 0
241060.0 532643.0 0
252814.0 533711.0 0
257559.0 532238.0 0
262747.0 529601.0 0
266949.0 531277.0 0
272259.0 532171.0 0
277409.0 532307.0 0
287301.0 529454.0 0
291605.0 529550.0 0
295165.0 533683.0 0
301079.0 532226.0 0
309149.0 529191.0 0
306968.0 533237.0 0
313064.0 528944.0 0
317256.0 532103.0 0
325592.0 533507.0 0
327876.0 529317.0 0
332213.0 529793.0 0
335865.0 532707.0 0
341608.0 533575.0 0
351571.0 529913.0 0
347373.0 533712.0 0
357064.0 533287.0 0
366225.0 529708.0 0
362640.0 533625.0 0
371407.0 531837.0 0
376403.0 533702.0 0
381414.0 530951.0 0
386198.0 531270.0 0
390730.0 535038.0 0
395350.0 531975.0 0
401373.0 534369.0 0
404440.0 529557.0 0
406279.0 532752.0 0
409538.0 532821.0 0
413001.0 530819.0 0
417137.0 533273.0 0
423078.0 531687.0 0
428272.0 531708.0 0
430905.0 534572.0 0
436475.0 533917.0 0
441857.0 532695.0 0
446246.0 535111.0 0
450920.0 533352.0 0
455357.0 534467.0 0
457988.0 531534.0 0
461868.0 530981.0 0
467116.0 535098.0 0
471267.0 532189.0 0
475645.0 533950.0 0
479400.0 531167.0 0
480771.0 535641.0 0
484694.0 532103.0 0
492792.0 530414.0 0
489600.0 533271.0 0
492911.0 534422.0 0
496848.0 533372.0 0
3146.41 535929.0 0
6361.6 539715.0 0
11630.7 539491.0 0
17957.8 538482.0 0
22613.4 538402.0 0
28519.8 537746.0 0
34552.2 538210.0 0
39330.8 538460.0 0
44185.1 538674.0 0
48291.9 537101.0 0
52452.1 538903.0 0
56588.1 538099.0 0
60144.4 535629.0 0
64565.7 537677.0 0
77257.8 538986.0 0
72960.6 536931.0 0
81592.9 537672.0 0
85728.7 536032.0 0
94534.0 536348.0 0
100211.0 535448.0 0
104292.0 538151.0 0
108557.0 535864.0 0
112555.0 539417.0 0
117852.0 537896.0 0
127745.0 535575.0 0
134981.0 537730.0 0
146398.0 538899.0 0
149481.0 534482.0 0
153079.0 538986.0 0
157135.0 534590.0 0
161750.0 534574.0 0
159023.0 538821.0 0
165815.0 537767.0 0
171313.0 538109.0 0
183087.0 538770.0 0
192620.0 536553.0 0
202762.0 535634.0 0
212644.0 537765.0 0
218206.0 535937.0 0
222844.0 538630.0 0
228479.0 537835.0 0
233514.0 537458.0 0
237311.0 535487.0 0
241760.0 537933.0 0
246664.0 534168.0 0
257100.0 536748.0 0
262251.0 534635.0 0
268404.0 537226.0 0
275077.0 536148.0 0
282439.0 535603.0 0
288800.0 534139.0 0
287266.0 538842.0 0
303444.0 536558.0 0
312397.0 534002.0 0
311482.0 538808.0 0
316805.0 536660.0 0
321192.0 534262.0 0
320912.0 538635.0 0
330926.0 534657.0 0
337402.0 537057.0 0
341942.0 538970.0 0
346440.0 538515.0 0
352016.0 535548.0 0
355783.0 538722.0 0
360601.0 537921.0 0
364812.0 538543.0 0
367273.0 534933.0 0
374388.0 538794.0 0
380266.0 537920.0 0
385256.0 535489.0 0
395766.0 537253.0 0
404947.0 538929.0 0
407793.0 535963.0 0
412494.0 536061.0 0
416629.0 537799.0 0
420706.0 536865.0 0
426229.0 537296.0 0
433600.0 537268.0 0
441996.0 538032.0 0
446127.0 538335.0 0
449877.0 538083.0 0
455193.0 538348.0 0
460930.0 536671.0 0
466421.0 540168.0 0
471992.0 537722.0 0
477090.0 537701.0 0
485896.0 537981.0 0
491844.0 538400.0 0
497178.0 539121.0 0
2173.25 540964.0 0
2125.39 545109.0 0
8162.68 542867.0 0
20454.6 542362.0 0
16151.1 542182.0 0
25834.7 542071.0 0
31431.8 542343.0 0
36764.2 542627.0 0
41844.8 542670.0 0
48099.3 541821.0 0
55883.7 541491.0 0
52731.4 543222.0 0
60033.7 540535.0 0
63944.5 541833.0 0
69006.8 540585.0 0
73854.7 541075.0 0
80320.8 541157.0 0
77449.3 543797.0 0
84044.5 541924.0 0
89179.2 539669.0 0
94843.3 542598.0 0
100019.0 540453.0 0
99385.8 544676.0 0
107639.0 541466.0 0
103442.0 543723.0 0
117025.0 543389.0 0
122615.0 540297.0 0
127069.0 539415.0 0
126787.0 543513.0 0
131388.0 540181.0 0
139776.0 539777.0 0
144009.0 543493.0 0
162623.0 541349.0 0
158987.0 543593.0 0
166748.0 542992.0 0
172304.0 543896.0 0
177246.0 539711.0 0
181291.0 542888.0 0
188372.0 539440.0 0
185479.0 543693.0 0
192605.0 542843.0 0
197408.0 539426.0 0
202360.0 541015.0 0
207112.0 540068.0 0
211770.0 543457.0 0
217353.0 542042.0 0
228518.0 543283.0 0
233625.0 542268.0 0
237309.0 539607.0 0
240314.0 543565.0 0
247075.0 540572.0 0
252657.0 539213.0 0
257892.0 541798.0 0
263169.0 540232.0 0
269452.0 542920.0 0
273454.0 540398.0 0
278053.0 539027.0 0
283520.0 541968.0 0
288873.0 543752.0 0
292294.0 539094.0 0
295260.0 544112.0 0
298778.0 539075.0 0
303513.0 541540.0 0
306867.0 538998.0 0
307778.0 542943.0 0
311537.0 543196.0 0
316142.0 541272.0 0
322083.0 543340.0 0
326893.0 539557.0 0
330440.0 543536.0 0
333276.0 539835.0 0
338319.0 541551.0 0
351086.0 540350.0 0
346860.0 543380.0 0
355020.0 542977.0 0
359585.0 542907.0 0
365440.0 543690.0 0
369081.0 539406.0 0
371845.0 544330.0 0
381997.0 541829.0 0
378116.0 543716.0 0
385101.0 540396.0 0
387042.0 544731.0 0
390430.0 540649.0 0
395030.0 541406.0 0
399945.0 541115.0 0
405486.0 544181.0 0
409493.0 540189.0 0
416870.0 542183.0 0
422254.0 541522.0 0
426876.0 542718.0 0
431128.0 540561.0 0
436821.0 539959.0 0
440793.0 543263.0 0
446359.0 542405.0 0
452695.0 542810.0 0
458127.0 541949.0 0
462595.0 543296.0 0
471037.0 543823.0 0
476093.0 541491.0 0
479023.0 543732.0 0
480492.0 540309.0 0
484307.0 544110.0 0
489243.0 542851.0 0
498374.0 543365.0 0
493975.0 543845.0 0
6482.52 546645.0 0
9205.5 549708.0 0
12390.2 545903.0 0
16463.2 549411.0 0
18011.0 545884.0 0
23044.4 546825.0 0
28227.7 546238.0 0
33943.4 547395.0 0
39427.0 547079.0 0
45177.6 545987.0 0
50062.3 546418.0 0
47087.7 549686.0 0
56178.7 550163.0 0
56353.3 545591.0 0
61421.7 545216.0 0
66104.3 544803.0 0
67445.5 549409.0 0
72025.7 545595.0 0
79719.6 548931.0 0
82718.0 545597.0 0
83868.4 547810.0 0
87827.5 544707.0 0
87179.9 549383.0 0
91881.0 547385.0 0
96680.0 547624.0 0
101436.0 548109.0 0
107003.0 545325.0 0
111376.0 545013.0 0
108165.0 548858.0 0
113354.0 549551.0 0
122472.0 545512.0 0
118500.0 549089.0 0
127310.0 547938.0 0
131451.0 545571.0 0
136534.0 544876.0 0
141311.0 547998.0 0
149273.0 544362.0 0
152637.0 549033.0 0
154585.0 544498.0 0
162902.0 545742.0 0
158608.0 549119.0 0
167610.0 547852.0 0
177760.0 545582.0 0
181112.0 548327.0 0
192558.0 548840.0 0
196669.0 545113.0 0
201646.0 546117.0 0
207307.0 544983.0 0
205993.0 548898.0 0
210574.0 548476.0 0
216101.0 548056.0 0
223137.0 544351.0 0
231599.0 547010.0 0
236330.0 545517.0 0
235520.0 548804.0 0
244518.0 546678.0 0
248901.0 545588.0 0
253383.0 544238.0 0
252227.0 549158.0 0
257646.0 547361.0 0
260877.0 544590.0 0
265050.0 545719.0 0
261765.0 548610.0 0
270431.0 547998.0 0
277682.0 544508.0 0
282495.0 546724.0 0
286367.0 548077.0 0
291782.0 548919.0 0
300487.0 544754.0 0
304898.0 545021.0 0
303148.0 548584.0 0
311087.0 548398.0 0
317128.0 547102.0 0
322440.0 548801.0 0
326265.0 545502.0 0
330806.0 548072.0 0
336975.0 547297.0 0
342234.0 544502.0 0
351368.0 545453.0 0
347423.0 547775.0 0
356460.0 547526.0 0
361494.0 547401.0 0
365415.0 548889.0 0
375699.0 549181.0 0
382764.0 546327.0 0
387291.0 549708.0 0
391939.0 545883.0 0
396267.0 544842.0 0
395554.0 549098.0 0
400407.0 547195.0 0
411888.0 545718.0 0
417036.0 546561.0 0
420123.0 545385.0 0
420814.0 549603.0 0
424279.0 546209.0 0
428953.0 546554.0 0
434605.0 545710.0 0
439882.0 547828.0 0
445011.0 548091.0 0
449240.0 546452.0 0
452678.0 547802.0 0
457411.0 546932.0 0
461885.0 547172.0 0
465894.0 546703.0 0
470413.0 549297.0 0
476106.0 545591.0 0
480093.0 547541.0 0
488811.0 547432.0 0
484611.0 549312.0 0
492798.0 548785.0 0
497270.0 548061.0 0
2615.59 549772.0 0
6563.27 551465.0 0
9080.53 554519.0 0
12682.1 551559.0 0
17024.1 553434.0 0
20411.9 550939.0 0
24244.3 552123.0 0
29428.7 551474.0 0
34669.1 552001.0 0
38824.3 551738.0 0
43092.8 550148.0 0
42190.3 554860.0 0
47361.1 554418.0 0
51529.2 550943.0 0
52283.3 555523.0 0
56639.5 554587.0 0
61539.1 550866.0 0
65807.9 554220.0 0
70895.1 553817.0 0
74333.0 550032.0 0
77147.1 554968.0 0
83672.4 553679.0 0
89328.4 554098.0 0
93029.0 551639.0 0
96818.0 551585.0 0
100733.0 553709.0 0
104471.0 550973.0 0
110096.0 553705.0 0
122162.0 553526.0 0
123554.0 549963.0 0
126295.0 553773.0 0
131339.0 551356.0 0
136115.0 549384.0 0
137501.0 553860.0 0
147135.0 549834.0 0
143088.0 554009.0 0
147390.0 553939.0 0
152793.0 554219.0 0
162025.0 553781.0 0
163719.0 549721.0 0
167233.0 553001.0 0
172837.0 550435.0 0
177952.0 549935.0 0
177450.0 553907.0 0
181323.0 552128.0 0
186036.0 549402.0 0
189707.0 554070.0 0
197890.0 549886.0 0
195399.0 554107.0 0
201526.0 553834.0 0
207765.0 553639.0 0
213262.0 552815.0 0
221336.0 549565.0 0
223777.0 553343.0 0
226790.0 549378.0 0
231898.0 552319.0 0
236807.0 552486.0 0
240256.0 549269.0 0
246168.0 551693.0 0
250829.0 553606.0 0
256462.0 553723.0 0
262655.0 552644.0 0
267806.0 552676.0 0
275325.0 549782.0 0
279825.0 549736.0 0
278599.0 554051.0 0
283507.0 550753.0 0
287439.0 553630.0 0
293277.0 554225.0 0
298006.0 549767.0 0
302297.0 552877.0 0
306554.0 551436.0 0
312681.0 553084.0 0
317561.0 553197.0 0
322477.0 553893.0 0
326850.0 552084.0 0
332556.0 553104.0 0
337736.0 553730.0 0
342911.0 550329.0 0
351079.0 550487.0 0
347110.0 553408.0 0
355493.0 552748.0 0
361824.0 553423.0 0
370075.0 549874.0 0
368134.0 554753.0 0
373424.0 554045.0 0
380434.0 549592.0 0
378840.0 554052.0 0
383388.0 552211.0 0
391596.0 550031.0 0
388531.0 554101.0 0
392636.0 553638.0 0
397597.0 553104.0 0
402164.0 552214.0 0
407038.0 549987.0 0
411571.0 551035.0 0
415763.0 550459.0 0
422129.0 554675.0 0
426274.0 550880.0 0
431352.0 550382.0 0
436462.0 551367.0 0
441662.0 552430.0 0
446369.0 553735.0 0
449538.0 550620.0 0
454815.0 552282.0 0
460675.0 551356.0 0
465973.0 551859.0 0
471142.0 553923.0 0
475662.0 550225.0 0
480918.0 552659.0 0
486122.0 553488.0 0
491707.0 553771.0 0
497977.0 552488.0 0
3524.45 555691.0 0
13448.2 556173.0 0
10905.4 560508.0 0
21314.4 555473.0 0
17557.3 559303.0 0
22517.3 560009.0 0
26469.0 556788.0 0
32475.4 556428.0 0
35856.9 560566.0 0
37431.4 555871.0 0
40618.2 559216.0 0
44974.2 558831.0 0
49440.5 559054.0 0
54200.8 559631.0 0
60843.3 556277.0 0
58149.2 559018.0 0
63549.2 559614.0 0
68021.9 558411.0 0
72691.6 558507.0 0
82037.8 560065.0 0
87578.7 558477.0 0
94876.3 556347.0 0
99319.6 557363.0 0
105262.0 554755.0 0
102964.0 558527.0 0
107499.0 558056.0 0
117489.0 555294.0 0
112485.0 559164.0 0
122953.0 557567.0 0
132433.0 556145.0 0
128121.0 558129.0 0
134762.0 557945.0 0
148786.0 557957.0 0
157429.0 554372.0 0
154472.0 558044.0 0
162931.0 558227.0 0
158508.0 558804.0 0
167327.0 558112.0 0
173294.0 556387.0 0
177817.0 558590.0 0
184401.0 555783.0 0
192447.0 558643.0 0
197449.0 558691.0 0
208817.0 559228.0 0
214097.0 558349.0 0
218705.0 554618.0 0
227631.0 555619.0 0
232007.0 557864.0 0
236308.0 556502.0 0
241128.0 554962.0 0
240947.0 559094.0 0
246122.0 558020.0 0
251938.0 558481.0 0
260730.0 557680.0 0
265869.0 557715.0 0
273095.0 554894.0 0
276629.0 558889.0 0
282792.0 554812.0 0
280775.0 557970.0 0
285506.0 559233.0 0
290737.0 558148.0 0
298369.0 554592.0 0
296043.0 558731.0 0
305604.0 555427.0 0
301686.0 557793.0 0
310348.0 556557.0 0
315544.0 558419.0 0
320753.0 558142.0 0
325764.0 557215.0 0
329066.0 555642.0 0
331758.0 557496.0 0
343739.0 555339.0 0
346533.0 558115.0 0
341631.0 558946.0 0
351217.0 555610.0 0
357047.0 557123.0 0
366365.0 559386.0 0
371789.0 559196.0 0
384255.0 557805.0 0
390299.0 558055.0 0
395533.0 557642.0 0
400496.0 556568.0 0
406100.0 555172.0 0
404108.0 558903.0 0
410988.0 555182.0 0
408500.0 559454.0 0
416519.0 555908.0 0
423287.0 559422.0 0
427359.0 556381.0 0
432814.0 555198.0 0
430905.0 559611.0 0
438089.0 556221.0 0
443326.0 557253.0 0
448063.0 557866.0 0
452847.0 557407.0 0
458564.0 555436.0 0
457537.0 559890.0 0
463078.0 556419.0 0
467637.0 556036.0 0
471096.0 557994.0 0
476118.0 555864.0 0
483071.0 557416.0 0
487819.0 557657.0 0
492283.0 559799.0 0
496790.0 556784.0 0
1390.68 560113.0 0
2698.06 564080.0 0
5960.0 560680.0 0
15042.4 564394.0 0
19963.4 563549.0 0
24949.5 563336.0 0
29930.0 561728.0 0
34286.0 564910.0 0
38001.1 564245.0 0
41426.4 563416.0 0
45743.9 563572.0 0
50973.6 564002.0 0
56534.7 563991.0 0
61343.5 563394.0 0
66424.0 563509.0 0
76462.6 560533.0 0
72403.8 563940.0 0
78304.6 564345.0 0
86991.5 562904.0 0
81939.9 565247.0 0
91903.1 561674.0 0
98123.3 562038.0 0
108311.0 562261.0 0
113795.0 564436.0 0
117520.0 561138.0 0
121802.0 561850.0 0
118538.0 564410.0 0
126467.0 562997.0 0
131451.0 560316.0 0
131488.0 564372.0 0
135671.0 562630.0 0
140124.0 559481.0 0
145440.0 562937.0 0
152669.0 561774.0 0
157182.0 563363.0 0
161396.0 562256.0 0
166747.0 564054.0 0
171089.0 560446.0 0
177792.0 563502.0 0
181866.0 559520.0 0
182187.0 563540.0 0
187003.0 561345.0 0
192312.0 563783.0 0
198274.0 562885.0 0
202894.0 560242.0 0
210733.0 563251.0 0
218927.0 559983.0 0
215532.0 563930.0 0
223940.0 559489.0 0
221136.0 564154.0 0
228442.0 559877.0 0
231286.0 562429.0 0
236869.0 561961.0 0
242941.0 562562.0 0
248571.0 563440.0 0
254331.0 563654.0 0
256871.0 559568.0 0
262233.0 562774.0 0
269051.0 563605.0 0
272997.0 559842.0 0
275398.0 563365.0 0
279847.0 562062.0 0
283771.0 564396.0 0
289411.0 563195.0 0
294206.0 563281.0 0
298638.0 564077.0 0
302698.0 562281.0 0
306111.0 563357.0 0
306420.0 559412.0 0
311224.0 562287.0 0
317410.0 562683.0 0
322172.0 563385.0 0
327086.0 561830.0 0
336335.0 559575.0 0
331705.0 561419.0 0
340471.0 562620.0 0
343775.0 562443.0 0
350153.0 560359.0 0
347413.0 563537.0 0
355563.0 562838.0 0
361219.0 559897.0 0
364427.0 563789.0 0
369153.0 563759.0 0
374312.0 562928.0 0
377816.0 559879.0 0
381860.0 562789.0 0
386740.0 563108.0 0
391758.0 563004.0 0
396861.0 562599.0 0
400707.0 560718.0 0
400724.0 564753.0 0
405209.0 563379.0 0
410260.0 564067.0 0
413386.0 560410.0 0
417916.0 560800.0 0
421260.0 563129.0 0
427143.0 561234.0 0
430963.0 564660.0 0
435182.0 560109.0 0
436615.0 564833.0 0
440013.0 560947.0 0
445247.0 561641.0 0
450727.0 561767.0 0
454840.0 564330.0 0
462486.0 561366.0 0
459444.0 564472.0 0
467381.0 560446.0 0
467381.0 565336.0 0
474019.0 560617.0 0
471638.0 564182.0 0
478964.0 560621.0 0
475922.0 564343.0 0
483717.0 562282.0 0
480124.0 565184.0 0
487977.0 561757.0 0
490824.0 564606.0 0
498200.0 560867.0 0
495514.0 564081.0 0
2381.12 569040.0 0
8013.47 565233.0 0
6717.11 569781.0 0
17940.5 568217.0 0
22739.9 567633.0 0
27500.2 566455.0 0
31627.8 568508.0 0
36813.0 568619.0 0
42311.3 568426.0 0
47767.8 568270.0 0
53377.4 569113.0 0
58520.4 568383.0 0
63410.0 567974.0 0
67618.4 567742.0 0
74745.9 569201.0 0
85997.1 568702.0 0
94248.2 567014.0 0
99405.6 567782.0 0
103741.0 564842.0 0
105645.0 568836.0 0
108964.0 566888.0 0
113216.0 569434.0 0
117448.0 567349.0 0
122119.0 566404.0 0
126740.0 568266.0 0
130969.0 568534.0 0
135126.0 567300.0 0
140132.0 565640.0 0
148283.0 568074.0 0
153618.0 566813.0 0
158598.0 567370.0 0
162500.0 568572.0 0
172775.0 564549.0 0
170433.0 568357.0 0
176038.0 568049.0 0
180841.0 567982.0 0
184981.0 566358.0 0
189801.0 569300.0 0
196387.0 567653.0 0
201691.0 565902.0 0
206629.0 564886.0 0
211177.0 567878.0 0
216801.0 569572.0 0
222030.0 569140.0 0
226762.0 565298.0 0
232547.0 567424.0 0
237463.0 567293.0 0
242237.0 568095.0 0
247963.0 569412.0 0
253530.0 568940.0 0
258459.0 567105.0 0
263058.0 568531.0 0
273586.0 568650.0 0
278819.0 566916.0 0
282414.0 568465.0 0
286871.0 569502.0 0
292755.0 568042.0 0
303071.0 566691.0 0
307991.0 566982.0 0
313035.0 568677.0 0
318553.0 567400.0 0
325427.0 567925.0 0
330267.0 565590.0 0
335725.0 565561.0 0
341966.0 567497.0 0
350630.0 567259.0 0
359382.0 567722.0 0
364237.0 568555.0 0
368561.0 567941.0 0
373087.0 567005.0 0
378673.0 566354.0 0
383799.0 566190.0 0
387102.0 568641.0 0
391361.0 568043.0 0
396757.0 568010.0 0
402743.0 569371.0 0
407485.0 567571.0 0
411879.0 568499.0 0
415782.0 564947.0 0
415971.0 569445.0 0
420492.0 567945.0 0
425316.0 565431.0 0
428310.0 569875.0 0
434079.0 569255.0 0
442105.0 566027.0 0
447893.0 566120.0 0
452644.0 568794.0 0
457493.0 568293.0 0
463311.0 565362.0 0
462465.0 569922.0 0
467759.0 569808.0 0
471785.0 568261.0 0
476832.0 569442.0 0
483183.0 569285.0 0
486718.0 565567.0 0
488965.0 569064.0 0
493216.0 568262.0 0
497712.0 568288.0 0
2460.14 573791.0 0
8111.43 574481.0 0
12064.7 569722.0 0
14015.0 574708.0 0
17158.0 572093.0 0
23286.8 572868.0 0
27471.1 570816.0 0
34149.7 572994.0 0
39134.3 572823.0 0
43352.8 573753.0 0
47593.0 573019.0 0
52410.6 574482.0 0
60991.4 571870.0 0
56883.9 572557.0 0
64877.0 572994.0 0
69843.3 571788.0 0
74267.5 573584.0 0
79831.8 570346.0 0
77458.9 573829.0 0
83219.2 573973.0 0
91414.1 571703.0 0
87586.1 574282.0 0
96875.6 572384.0 0
102545.0 571641.0 0
108402.0 572551.0 0
117429.0 571855.0 0
122832.0 572098.0 0
128424.0 572904.0 0
133783.0 572336.0 0
138911.0 572616.0 0
143093.0 570215.0 0
147070.0 573206.0 0
152811.0 572719.0 0
158594.0 571854.0 0
162998.0 574019.0 0
166082.0 570167.0 0
166689.0 574608.0 0
170441.0 573128.0 0
175723.0 573003.0 0
181143.0 573547.0 0
184447.0 570205.0 0
186331.0 574142.0 0
196290.0 573506.0 0
200732.0 571070.0 0
205684.0 570086.0 0
210109.0 573535.0 0
215150.0 574172.0 0
219788.0 573811.0 0
227485.0 570003.0 0
224949.0 573476.0 0
230868.0 573361.0 0
236932.0 572183.0 0
253407.0 574305.0 0
258304.0 572294.0 0
263551.0 573533.0 0
267634.0 569788.0 0
274156.0 573996.0 0
279722.0 572593.0 0
289832.0 573395.0 0
293920.0 573186.0 0
298511.0 569898.0 0
303175.0 573915.0 0
308532.0 571866.0 0
313064.0 574136.0 0
317602.0 572388.0 0
320949.0 574013.0 0
321628.0 570833.0 0
325449.0 573710.0 0
330514.0 570939.0 0
334733.0 572360.0 0
337277.0 570127.0 0
338704.0 574524.0 0
346723.0 570025.0 0
343985.0 573527.0 0
350451.0 573201.0 0
356533.0 572507.0 0
361566.0 572101.0 0
366611.0 573854.0 0
377071.0 570488.0 0
372807.0 572678.0 0
377719.0 574247.0 0
382437.0 571379.0 0
388064.0 573218.0 0
393288.0 572611.0 0
398755.0 573642.0 0
404027.0 574746.0 0
408490.0 572166.0 0
413547.0 573078.0 0
418646.0 573062.0 0
423296.0 572065.0 0
426821.0 574833.0 0
432018.0 574142.0 0
436015.0 571796.0 0
439063.0 570772.0 0
442817.0 574159.0 0
448751.0 570465.0 0
445033.0 569878.0 0
446666.0 573001.0 0
451475.0 574283.0 0
456965.0 572979.0 0
467468.0 574709.0 0
471905.0 571981.0 0
475161.0 574980.0 0
480165.0 573744.0 0
485912.0 574579.0 0
491853.0 572996.0 0
497331.0 573084.0 0
2995.22 579143.0 0
8523.81 579967.0 0
13918.1 579650.0 0
19350.7 576946.0 0
25437.0 577035.0 0
29543.3 575018.0 0
30912.3 579563.0 0
35590.2 577966.0 0
40760.9 577302.0 0
43552.9 579889.0 0
45824.5 577177.0 0
50065.7 579111.0 0
55114.1 578466.0 0
59937.8 576764.0 0
65623.2 577793.0 0
71834.3 578253.0 0
80985.7 577199.0 0
77336.4 577938.0 0
85278.3 578610.0 0
91768.3 577126.0 0
97759.6 577907.0 0
103263.0 577253.0 0
109670.0 578767.0 0
113616.0 574738.0 0
115293.0 578552.0 0
117666.0 576123.0 0
121380.0 577363.0 0
126598.0 578111.0 0
132389.0 579514.0 0
136531.0 576464.0 0
142665.0 575571.0 0
147272.0 578746.0 0
154290.0 579136.0 0
159751.0 577556.0 0
164263.0 578390.0 0
168548.0 577628.0 0
173328.0 577586.0 0
178189.0 578350.0 0
182308.0 578093.0 0
186830.0 579348.0 0
191237.0 575465.0 0
197453.0 578536.0 0
200568.0 575443.0 0
202846.0 579248.0 0
205073.0 575053.0 0
207672.0 578276.0 0
212848.0 578163.0 0
217478.0 577832.0 0
221852.0 578739.0 0
227038.0 578702.0 0
232683.0 579021.0 0
237631.0 577537.0 0
241948.0 574815.0 0
244440.0 579599.0 0
247683.0 575477.0 0
251735.0 579519.0 0
259826.0 576441.0 0
256277.0 578209.0 0
263048.0 578197.0 0
269051.0 575013.0 0
272783.0 578225.0 0
277513.0 578210.0 0
285273.0 574961.0 0
282443.0 578412.0 0
289565.0 577681.0 0
294742.0 578114.0 0
298108.0 574832.0 0
299969.0 578480.0 0
304783.0 579833.0 0
307608.0 576138.0 0
311152.0 579115.0 0
316767.0 578076.0 0
321947.0 577557.0 0
326646.0 579112.0 0
332626.0 577139.0 0
337780.0 579146.0 0
342201.0 578791.0 0
347089.0 577552.0 0
351614.0 578163.0 0
356562.0 578523.0 0
361870.0 577390.0 0
366765.0 579219.0 0
371285.0 578045.0 0
376475.0 578828.0 0
381539.0 577412.0 0
386615.0 578003.0 0
391920.0 577990.0 0
402160.0 578210.0 0
397824.0 579604.0 0
406092.0 579714.0 0
410395.0 576843.0 0
415269.0 577937.0 0
420970.0 578223.0 0
426598.0 580042.0 0
432351.0 579936.0 0
437688.0 576609.0 0
446814.0 576916.0 0
450682.0 579764.0 0
456267.0 578636.0 0
461794.0 575742.0 0
465860.0 580075.0 0
471243.0 578542.0 0
481806.0 577961.0 0
490398.0 578726.0 0
496752.0 578844.0 0
2066.15 584079.0 0
5726.91 583272.0 0
11311.9 584085.0 0
18510.0 583026.0 0
23326.7 581036.0 0
28995.5 583869.0 0
34239.9 582233.0 0
38758.8 581098.0 0
42210.9 583074.0 0
46634.3 583378.0 0
50465.8 584006.0 0
55607.7 583264.0 0
61945.5 583037.0 0
67766.2 582319.0 0
71538.7 583762.0 0
75790.3 583968.0 0
80618.3 581793.0 0
85645.2 584045.0 0
94417.2 582240.0 0
100084.0 582816.0 0
105181.0 582100.0 0
109494.0 584586.0 0
113818.0 582232.0 0
118537.0 581334.0 0
123410.0 582483.0 0
128118.0 583144.0 0
132023.0 584305.0 0
136013.0 583463.0 0
139696.0 580082.0 0
143742.0 582478.0 0
147731.0 584129.0 0
152552.0 584707.0 0
157842.0 584101.0 0
162506.0 582394.0 0
167895.0 582987.0 0
172982.0 582108.0 0
177387.0 583199.0 0
182679.0 583076.0 0
188613.0 584793.0 0
192100.0 580669.0 0
193172.0 584795.0 0
196144.0 582648.0 0
200634.0 583881.0 0
206069.0 583306.0 0
212114.0 583887.0 0
217597.0 582385.0 0
222132.0 583652.0 0
226755.0 583888.0 0
231562.0 584184.0 0
236780.0 582847.0 0
240723.0 580088.0 0
241733.0 583724.0 0
247478.0 584519.0 0
253569.0 584289.0 0
258099.0 582371.0 0
263071.0 582568.0 0
267593.0 580214.0 0
272022.0 582803.0 0
280139.0 582957.0 0
284398.0 582505.0 0
288430.0 582502.0 0
293040.0 582675.0 0
297626.0 582509.0 0
302074.0 584119.0 0
308092.0 583555.0 0
312910.0 584064.0 0
317836.0 583398.0 0
322117.0 581877.0 0
326134.0 584500.0 0
331538.0 583447.0 0
336110.0 582559.0 0
340232.0 583197.0 0
346356.0 583544.0 0
352565.0 582814.0 0
357547.0 583718.0 0
363149.0 583079.0 0
369151.0 583318.0 0
373467.0 581913.0 0
376919.0 583455.0 0
382330.0 583611.0 0
388552.0 582621.0 0
393477.0 582959.0 0
397647.0 584894.0 0
403017.0 584936.0 0
412174.0 581478.0 0
408660.0 584278.0 0
417360.0 582556.0 0
422484.0 584037.0 0
437312.0 583206.0 0
442816.0 580263.0 0
447424.0 584014.0 0
452791.0 584031.0 0
457684.0 584335.0 0
460995.0 580600.0 0
462901.0 584623.0 0
467516.0 584755.0 0
471826.0 583721.0 0
476846.0 580786.0 0
481127.0 584544.0 0
485210.0 581470.0 0
489629.0 584386.0 0
497033.0 584952.0 0
2591.0 588404.0 0
7514.83 587150.0 0
12615.8 588636.0 0
17782.7 588519.0 0
23896.1 586897.0 0
29319.9 588198.0 0
32993.9 586167.0 0
37424.1 585073.0 0
36199.8 589949.0 0
41929.4 588360.0 0
47874.1 588463.0 0
52612.5 587947.0 0
57396.7 588559.0 0
62912.0 589334.0 0
67696.7 587090.0 0
72704.3 587988.0 0
77505.1 588588.0 0
81607.7 586790.0 0
85656.1 589117.0 0
90652.8 586800.0 0
96596.9 587950.0 0
101784.0 587624.0 0
106397.0 588646.0 0
111729.0 589375.0 0
116727.0 586652.0 0
125181.0 588254.0 0
130613.0 588827.0 0
133847.0 587277.0 0
138337.0 588066.0 0
143788.0 587178.0 0
149223.0 589430.0 0
154972.0 588077.0 0
162185.0 587062.0 0
158361.0 589729.0 0
166973.0 588717.0 0
173061.0 587644.0 0
179381.0 588155.0 0
184630.0 588378.0 0
188873.0 589532.0 0
192930.0 588744.0 0
197663.0 588184.0 0
202935.0 588879.0 0
208145.0 588101.0 0
213320.0 589894.0 0
218333.0 587467.0 0
222712.0 587566.0 0
226738.0 588760.0 0
232067.0 589476.0 0
237360.0 588310.0 0
242563.0 588400.0 0
252347.0 589230.0 0
257747.0 587798.0 0
262846.0 587260.0 0
267454.0 585542.0 0
272139.0 589192.0 0
275904.0 585436.0 0
279619.0 588255.0 0
285203.0 587172.0 0
291727.0 588044.0 0
298150.0 587978.0 0
303578.0 588564.0 0
308572.0 589209.0 0
312778.0 588239.0 0
317706.0 589309.0 0
321611.0 585809.0 0
324375.0 589387.0 0
329420.0 588908.0 0
335373.0 588095.0 0
341743.0 588333.0 0
351780.0 588116.0 0
347013.0 589348.0 0
357194.0 588910.0 0
363352.0 589858.0 0
369230.0 588641.0 0
373440.0 586069.0 0
377960.0 587715.0 0
387153.0 588195.0 0
393618.0 588582.0 0
409261.0 589152.0 0
413419.0 586071.0 0
418402.0 587623.0 0
428096.0 585173.0 0
423916.0 589403.0 0
432898.0 586448.0 0
429132.0 590129.0 0
437514.0 588528.0 0
442229.0 585818.0 0
445951.0 588938.0 0
450659.0 588359.0 0
455453.0 588818.0 0
460428.0 589112.0 0
465523.0 588323.0 0
470277.0 588624.0 0
476887.0 586571.0 0
481350.0 590265.0 0
485237.0 586306.0 0
492693.0 588816.0 0
497644.0 590210.0 0
2106.19 592783.0 0
6152.55 591600.0 0
10416.7 592788.0 0
15229.0 593109.0 0
21406.1 592938.0 0
27131.1 592420.0 0
32436.3 593857.0 0
37433.1 594831.0 0
41618.7 593622.0 0
46222.2 593457.0 0
52446.1 592661.0 0
56086.9 594301.0 0
59866.2 593671.0 0
64962.1 594314.0 0
69404.9 591835.0 0
74869.8 593342.0 0
81250.5 592492.0 0
87163.0 593979.0 0
92774.5 592590.0 0
98012.6 593580.0 0
102910.0 592542.0 0
108272.0 593357.0 0
114543.0 594188.0 0
119779.0 591615.0 0
124562.0 594741.0 0
129415.0 592816.0 0
133742.0 592608.0 0
137601.0 592672.0 0
141954.0 592010.0 0
154294.0 592167.0 0
162974.0 592222.0 0
158523.0 593948.0 0
172970.0 593101.0 0
168397.0 593219.0 0
177129.0 593737.0 0
182040.0 593077.0 0
186651.0 592472.0 0
192448.0 593189.0 0
197311.0 592421.0 0
203671.0 594437.0 0
208483.0 592816.0 0
212441.0 594775.0 0
217286.0 594399.0 0
221672.0 591562.0 0
226043.0 593589.0 0
230819.0 594729.0 0
236755.0 594481.0 0
242476.0 593457.0 0
247258.0 590885.0 0
251156.0 593934.0 0
255886.0 593059.0 0
262123.0 593303.0 0
266185.0 591044.0 0
270364.0 594773.0 0
277095.0 593935.0 0
282646.0 591764.0 0
287552.0 592818.0 0
293064.0 594065.0 0
300902.0 593041.0 0
307088.0 594544.0 0
312639.0 592839.0 0
323775.0 593900.0 0
330499.0 592763.0 0
327536.0 592895.0 0
333895.0 593364.0 0
338631.0 593061.0 0
344310.0 594087.0 0
352238.0 594321.0 0
358860.0 594563.0 0
369068.0 593451.0 0
374017.0 591590.0 0
382039.0 590646.0 0
378810.0 594890.0 0
384547.0 594425.0 0
389608.0 593941.0 0
395666.0 594529.0 0
399727.0 590191.0 0
402822.0 594197.0 0
404775.0 590058.0 0
407971.0 594543.0 0
414019.0 592110.0 0
419743.0 592540.0 0
425717.0 594034.0 0
430375.0 594993.0 0
433898.0 591480.0 0
436113.0 593983.0 0
441422.0 590242.0 0
439482.0 594096.0 0
444616.0 593674.0 0
451963.0 594141.0 0
457439.0 592882.0 0
461597.0 593599.0 0
465977.0 592727.0 0
470374.0 593347.0 0
475119.0 591631.0 0
478831.0 595280.0 0
487446.0 590584.0 0
491538.0 594433.0 0
497175.0 595229.0 0
1811.81 596656.0 0
6782.0 596859.0 0
12550.6 597533.0 0
18068.9 597710.0 0
23502.4 598286.0 0
28145.6 597613.0 0
34269.4 599565.0 0
39011.3 598233.0 0
43566.4 597466.0 0
49638.0 596105.0 0
47500.0 598789.0 0
51993.8 600031.0 0
57280.3 598266.0 0
62558.9 598874.0 0
67442.0 598551.0 0
72641.6 599026.0 0
78157.4 598171.0 0
83529.2 597951.0 0
88195.1 599557.0 0
93318.9 598645.0 0
98532.4 598041.0 0
104856.0 597479.0 0
110550.0 598059.0 0
115124.0 599130.0 0
119415.0 597109.0 0
123204.0 598955.0 0
132031.0 597257.0 0
127659.0 598015.0 0
137278.0 596867.0 0
142636.0 597461.0 0
147834.0 595155.0 0
153209.0 598013.0 0
158873.0 598069.0 0
163390.0 597403.0 0
168653.0 598219.0 0
173878.0 597299.0 0
179244.0 598861.0 0
184977.0 597772.0 0
188944.0 595414.0 0
192822.0 598304.0 0
198514.0 596984.0 0
203391.0 600074.0 0
207932.0 597458.0 0
212516.0 599569.0 0
217824.0 600033.0 0
222172.0 596798.0 0
227317.0 598940.0 0
232786.0 599637.0 0
244103.0 598832.0 0
247437.0 595327.0 0
249724.0 598553.0 0
253982.0 600050.0 0
259113.0 597967.0 0
264178.0 599611.0 0
265807.0 595908.0 0
268372.0 599177.0 0
273451.0 598949.0 0
283248.0 596716.0 0
288476.0 598779.0 0
293689.0 599443.0 0
297349.0 596481.0 0
302050.0 598690.0 0
307007.0 599667.0 0
312329.0 599003.0 0
318495.0 596074.0 0
323840.0 598995.0 0
329944.0 597674.0 0
336148.0 597517.0 0
341556.0 600139.0 0
347871.0 598602.0 0
356209.0 599056.0 0
360787.0 599653.0 0
364666.0 596076.0 0
372259.0 597412.0 0
377673.0 600176.0 0
382719.0 598669.0 0
399871.0 596746.0 0
404024.0 599242.0 0
412576.0 597678.0 0
417151.0 596518.0 0
421961.0 597221.0 0
427057.0 599083.0 0
432564.0 599688.0 0
434329.0 595772.0 0
437801.0 598750.0 0
442329.0 597849.0 0
447357.0 598713.0 0
452729.0 600029.0 0
458218.0 598272.0 0
463403.0 597139.0 0
468054.0 597383.0 0
473262.0 596856.0 0
477154.0 599093.0 0
481327.0 598957.0 0
485720.0 596001.0 0
2706.7 601057.0 0
7561.54 603939.0 0
12667.8 602530.0 0
18211.4 603925.0 0
24049.5 603298.0 0
28699.8 602045.0 0
37243.1 603943.0 0
41706.1 602162.0 0
47271.2 603164.0 0
55891.6 603243.0 0
60688.1 603640.0 0
66189.1 603621.0 0
76463.9 602607.0 0
71734.8 604336.0 0
80967.0 602435.0 0
85426.7 603546.0 0
90838.8 604457.0 0
96868.3 602954.0 0
101803.0 601542.0 0
107162.0 602381.0 0
112468.0 602695.0 0
120681.0 602384.0 0
126095.0 602014.0 0
131838.0 603341.0 0
138374.0 602573.0 0
147882.0 600206.0 0
143948.0 602449.0 0
152930.0 604037.0 0
148247.0 605170.0 0
157178.0 602243.0 0
162567.0 602816.0 0
168231.0 603810.0 0
174113.0 602943.0 0
188577.0 601252.0 0
183773.0 603290.0 0
192851.0 604055.0 0
198963.0 604272.0 0
203852.0 604916.0 0
208269.0 603355.0 0
219027.0 604171.0 0
214717.0 604412.0 0
222599.0 603201.0 0
229196.0 603816.0 0
234187.0 604682.0 0
238322.0 600809.0 0
242848.0 604271.0 0
247998.0 603292.0 0
252396.0 603603.0 0
256536.0 604147.0 0
261447.0 603194.0 0
266065.0 603397.0 0
270551.0 603093.0 0
275391.0 604929.0 0
278726.0 600280.0 0
283233.0 603226.0 0
288675.0 604620.0 0
294158.0 604328.0 0
297783.0 601085.0 0
300042.0 604031.0 0
304625.0 603836.0 0
309355.0 603407.0 0
315296.0 603790.0 0
316686.0 600496.0 0
319901.0 601484.0 0
327875.0 604187.0 0
335167.0 602930.0 0
339307.0 604543.0 0
346796.0 603181.0 0
350787.0 604120.0 0
352177.0 600333.0 0
357640.0 604009.0 0
363104.0 603872.0 0
367208.0 605302.0 0
367579.0 600545.0 0
372637.0 603969.0 0
378904.0 605301.0 0
382906.0 603178.0 0
388522.0 600364.0 0
395344.0 600901.0 0
400281.0 602146.0 0
398467.0 605235.0 0
403081.0 605206.0 0
407911.0 604683.0 0
408962.0 600418.0 0
413129.0 603145.0 0
418466.0 601262.0 0
422990.0 604350.0 0
427761.0 603849.0 0
432174.0 604903.0 0
437253.0 603931.0 0
442902.0 602928.0 0
448379.0 604111.0 0
456101.0 603860.0 0
462695.0 601064.0 0
460661.0 604506.0 0
467011.0 602525.0 0
471125.0 600776.0 0
474042.0 603549.0 0
479030.0 603489.0 0
483505.0 605023.0 0
485151.0 601280.0 0
487455.0 604521.0 0
490598.0 600480.0 0
497370.0 600549.0 0
2566.68 606273.0 0
7066.7 609809.0 0
11109.9 607380.0 0
15187.9 608631.0 0
21816.2 609249.0 0
27331.3 607272.0 0
32595.9 605510.0 0
38115.5 608349.0 0
43621.8 606630.0 0
47776.3 608483.0 0
51917.0 605766.0 0
57510.0 607498.0 0
63128.1 607822.0 0
67768.3 608777.0 0
75843.8 607110.0 0
72004.0 608952.0 0
81374.6 607968.0 0
86746.8 608304.0 0
97473.6 608480.0 0
103320.0 606950.0 0
109383.0 607758.0 0
116527.0 606799.0 0
122449.0 607133.0 0
120027.0 610100.0 0
127445.0 607192.0 0
131845.0 608465.0 0
136355.0 608201.0 0
142896.0 607912.0 0
149329.0 610325.0 0
154757.0 608083.0 0
158945.0 606269.0 0
164979.0 606992.0 0
169416.0 609277.0 0
174344.0 608323.0 0
178980.0 606327.0 0
183331.0 609885.0 0
188137.0 606992.0 0
192931.0 608938.0 0
197040.0 609079.0 0
202547.0 608965.0 0
207622.0 608814.0 0
212278.0 608652.0 0
217671.0 609105.0 0
222909.0 608461.0 0
226889.0 607248.0 0
231017.0 608860.0 0
238641.0 605818.0 0
235955.0 609175.0 0
240814.0 609407.0 0
246030.0 608829.0 0
251731.0 607870.0 0
257717.0 609105.0 0
262795.0 608102.0 0
268292.0 607916.0 0
273342.0 609975.0 0
278546.0 609425.0 0
282992.0 607818.0 0
286983.0 609859.0 0
292321.0 609457.0 0
297735.0 607910.0 0
303244.0 608961.0 0
308229.0 607824.0 0
311983.0 605938.0 0
312706.0 609841.0 0
317596.0 608331.0 0
322246.0 605561.0 0
327070.0 609641.0 0
332573.0 608581.0 0
338610.0 608738.0 0
343038.0 605892.0 0
344369.0 609654.0 0
348055.0 607777.0 0
352622.0 607565.0 0
356694.0 609471.0 0
362532.0 609588.0 0
369252.0 610253.0 0
374543.0 609597.0 0
382500.0 608370.0 0
378323.0 609800.0 0
386212.0 605356.0 0
387137.0 609292.0 0
391486.0 606372.0 0
395741.0 609075.0 0
400189.0 609415.0 0
406038.0 608950.0 0
411333.0 608835.0 0
417303.0 607543.0 0
422774.0 610054.0 0
427190.0 607843.0 0
431399.0 610090.0 0
436992.0 609431.0 0
441911.0 608129.0 0
446860.0 609191.0 0
452243.0 607300.0 0
456903.0 609580.0 0
461770.0 608654.0 0
466738.0 609461.0 0
470345.0 606000.0 0
475010.0 608802.0 0
480855.0 608708.0 0
486387.0 609033.0 0
491739.0 606600.0 0
497343.0 605804.0 0
498259.0 610092.0 0
2127.06 610896.0 0
8756.01 614688.0 0
11891.1 611562.0 0
17465.6 612509.0 0
21856.4 614293.0 0
26592.8 612910.0 0
33176.7 612073.0 0
38735.7 614367.0 0
42353.9 611087.0 0
46810.3 613298.0 0
53179.9 612172.0 0
60110.2 611992.0 0
65268.1 613026.0 0
70203.9 613176.0 0
73965.9 614581.0 0
76651.6 611881.0 0
81588.9 614152.0 0
86823.3 612881.0 0
91861.5 610851.0 0
92937.0 615279.0 0
97305.9 614456.0 0
103466.0 613277.0 0
109167.0 613138.0 0
113144.0 611027.0 0
117146.0 612266.0 0
113464.0 615112.0 0
122918.0 612481.0 0
127686.0 612299.0 0
133344.0 613515.0 0
139325.0 612863.0 0
145024.0 614216.0 0
149977.0 614814.0 0
153934.0 612829.0 0
158713.0 610842.0 0
164135.0 611610.0 0
168424.0 614113.0 0
177640.0 610604.0 0
174002.0 614407.0 0
180014.0 614158.0 0
188181.0 612150.0 0
184500.0 614640.0 0
192925.0 613803.0 0
196878.0 612507.0 0
200991.0 614251.0 0
206708.0 614024.0 0
212809.0 614095.0 0
218388.0 614238.0 0
222675.0 614931.0 0
226616.0 612142.0 0
231962.0 613926.0 0
237377.0 614188.0 0
243020.0 613087.0 0
248014.0 614708.0 0
252461.0 612397.0 0
256643.0 614185.0 0
261141.0 612567.0 0
265893.0 612869.0 0
270485.0 613574.0 0
276303.0 614605.0 0
282703.0 613961.0 0
288944.0 614849.0 0
294722.0 614905.0 0
299801.0 612714.0 0
304695.0 613678.0 0
308664.0 612216.0 0
312222.0 614514.0 0
316834.0 613420.0 0
322338.0 610698.0 0
325454.0 614001.0 0
321595.0 615136.0 0
330659.0 614774.0 0
336278.0 613504.0 0
346789.0 612288.0 0
341939.0 613324.0 0
351974.0 612610.0 0
358927.0 613158.0 0
373742.0 613507.0 0
377612.0 613396.0 0
381319.0 612479.0 0
386169.0 614294.0 0
391038.0 611909.0 0
394811.0 614941.0 0
399342.0 614013.0 0
404152.0 613624.0 0
408245.0 612217.0 0
411943.0 614664.0 0
417952.0 613797.0 0
427480.0 612896.0 0
424037.0 614556.0 0
431525.0 615338.0 0
436356.0 613575.0 0
441026.0 613624.0 0
446389.0 614509.0 0
451432.0 612662.0 0
456342.0 614589.0 0
461243.0 613542.0 0
466085.0 614450.0 0
471281.0 613674.0 0
478073.0 614380.0 0
482906.0 612814.0 0
487439.0 614916.0 0
494170.0 611693.0 0
497870.0 614728.0 0
3375.64 616219.0 0
9527.65 619853.0 0
12937.2 615705.0 0
18096.8 618951.0 0
24450.4 617839.0 0
29219.8 620461.0 0
35247.9 618717.0 0
39208.5 618238.0 0
43135.2 617092.0 0
49364.5 616897.0 0
53146.2 620185.0 0
57513.7 616973.0 0
62314.0 616788.0 0
66334.4 619636.0 0
71662.1 619895.0 0
76878.8 617745.0 0
85913.0 617440.0 0
81774.1 620296.0 0
91009.0 619386.0 0
96221.4 619467.0 0
101451.0 619326.0 0
107326.0 618129.0 0
113053.0 620502.0 0
117686.0 616909.0 0
123407.0 618051.0 0
129027.0 617232.0 0
132954.0 618593.0 0
138212.0 618445.0 0
143791.0 620061.0 0
148236.0 618226.0 0
158037.0 615962.0 0
153293.0 619177.0 0
163174.0 618703.0 0
169467.0 619148.0 0
174380.0 619794.0 0
183473.0 618659.0 0
178781.0 619080.0 0
188427.0 617381.0 0
192931.0 618192.0 0
197136.0 617899.0 0
202805.0 618659.0 0
208420.0 618761.0 0
213047.0 619921.0 0
217800.0 618824.0 0
222600.0 619495.0 0
227885.0 617814.0 0
233002.0 618431.0 0
237468.0 619600.0 0
241611.0 617273.0 0
245617.0 619650.0 0
250024.0 619462.0 0
254942.0 619451.0 0
261408.0 618365.0 0
268191.0 618142.0 0
273829.0 619673.0 0
279433.0 619384.0 0
283729.0 618896.0 0
287239.0 619877.0 0
291609.0 619184.0 0
296253.0 620124.0 0
301464.0 618139.0 0
308031.0 618550.0 0
313738.0 618884.0 0
318085.0 617826.0 0
326311.0 618365.0 0
321965.0 620050.0 0
330737.0 620505.0 0
335050.0 618246.0 0
340096.0 618586.0 0
347702.0 617082.0 0
353021.0 618273.0 0
361860.0 615649.0 0
357748.0 617020.0 0
361279.0 620028.0 0
366519.0 615640.0 0
366542.0 620521.0 0
371362.0 617570.0 0
376873.0 618022.0 0
382023.0 617749.0 0
385755.0 619144.0 0
390825.0 618962.0 0
397929.0 617512.0 0
401501.0 617682.0 0
407494.0 617755.0 0
412851.0 620172.0 0
422656.0 617717.0 0
418580.0 620059.0 0
427058.0 618061.0 0
431435.0 619860.0 0
436683.0 618326.0 0
441838.0 618765.0 0
445922.0 619372.0 0
451354.0 618617.0 0
457320.0 619713.0 0
461775.0 618056.0 0
465691.0 618785.0 0
471762.0 619184.0 0
476283.0 619156.0 0
482273.0 618445.0 0
492891.0 616883.0 0
497482.0 619355.0 0
3714.86 623272.0 0
13693.1 624114.0 0
23494.9 622653.0 0
27439.2 625669.0 0
33525.0 624924.0 0
40384.9 622257.0 0
47159.1 621516.0 0
56063.0 625419.0 0
61288.7 622235.0 0
66896.7 625304.0 0
72812.5 625334.0 0
77387.2 622963.0 0
86444.2 623032.0 0
81684.3 625639.0 0
91506.1 625107.0 0
96571.9 624095.0 0
101523.0 624938.0 0
107648.0 624898.0 0
114656.0 625495.0 0
118546.0 621846.0 0
122145.0 625476.0 0
127861.0 623061.0 0
134448.0 623328.0 0
140150.0 624030.0 0
148758.0 622887.0 0
153224.0 624330.0 0
158368.0 623020.0 0
168371.0 623359.0 0
164323.0 624886.0 0
172578.0 624388.0 0
178356.0 624366.0 0
183485.0 623302.0 0
188613.0 622824.0 0
194554.0 623002.0 0
199673.0 623425.0 0
203181.0 623940.0 0
207244.0 623228.0 0
212262.0 624671.0 0
217073.0 623665.0 0
222097.0 624244.0 0
227101.0 623432.0 0
232014.0 622733.0 0
236826.0 624751.0 0
241614.0 622519.0 0
246687.0 624762.0 0
251682.0 623481.0 0
257044.0 625298.0 0
263694.0 624985.0 0
268872.0 623318.0 0
273197.0 624834.0 0
278016.0 624362.0 0
283570.0 623295.0 0
288004.0 623474.0 0
292952.0 623705.0 0
296372.0 623817.0 0
300185.0 623941.0 0
306085.0 624861.0 0
312033.0 623736.0 0
316920.0 622139.0 0
321326.0 624558.0 0
326394.0 623632.0 0
332663.0 625338.0 0
337801.0 623220.0 0
342326.0 623028.0 0
347224.0 622519.0 0
357015.0 621328.0 0
352635.0 623812.0 0
363597.0 624127.0 0
369232.0 623653.0 0
373473.0 622352.0 0
378256.0 623598.0 0
387087.0 623109.0 0
382708.0 625223.0 0
391709.0 624691.0 0
396261.0 621694.0 0
402041.0 622569.0 0
408036.0 623770.0 0
413526.0 624852.0 0
423572.0 623048.0 0
427472.0 622658.0 0
432646.0 623905.0 0
436980.0 623874.0 0
442013.0 623173.0 0
448574.0 623805.0 0
453764.0 623555.0 0
458265.0 624658.0 0
462807.0 622629.0 0
468078.0 622477.0 0
473225.0 624939.0 0
479123.0 623008.0 0
484294.0 625184.0 0
487102.0 620616.0 0
488661.0 624618.0 0
491833.0 621702.0 0
493865.0 625266.0 0
497977.0 623863.0 0
3262.01 630192.0 0
8986.9 627114.0 0
14321.6 630138.0 0
19164.1 626073.0 0
23844.2 629530.0 0
29009.4 630271.0 0
33818.3 630531.0 0
38563.8 628221.0 0
44191.3 626819.0 0
50561.4 626064.0 0
48126.2 630163.0 0
52894.6 630720.0 0
58135.7 629824.0 0
61350.5 627470.0 0
64574.1 629754.0 0
74065.0 630257.0 0
77348.2 628324.0 0
86103.3 628189.0 0
90384.5 629863.0 0
95250.5 629214.0 0
100730.0 630172.0 0
112110.0 628993.0 0
117900.0 627616.0 0
121330.0 630420.0 0
127005.0 629896.0 0
132241.0 628088.0 0
137311.0 628669.0 0
144741.0 626257.0 0
148880.0 629160.0 0
154183.0 629017.0 0
159943.0 628994.0 0
165285.0 630549.0 0
169023.0 628010.0 0
173254.0 629727.0 0
177628.0 629122.0 0
182036.0 628051.0 0
187155.0 627926.0 0
192919.0 629375.0 0
198095.0 627307.0 0
203017.0 628444.0 0
208821.0 628682.0 0
214165.0 628683.0 0
218428.0 628156.0 0
222531.0 628563.0 0
226788.0 628331.0 0
232155.0 628284.0 0
238101.0 629009.0 0
242103.0 627583.0 0
247108.0 629811.0 0
252157.0 628020.0 0
257556.0 630208.0 0
261100.0 629622.0 0
269011.0 628449.0 0
274024.0 629290.0 0
278564.0 629180.0 0
283350.0 628529.0 0
287602.0 628641.0 0
291852.0 628358.0 0
296265.0 627110.0 0
300834.0 629778.0 0
305906.0 630033.0 0
310900.0 629523.0 0
316749.0 627551.0 0
323248.0 629224.0 0
328520.0 628610.0 0
332751.0 629900.0 0
336899.0 628433.0 0
341861.0 627751.0 0
347376.0 628225.0 0
352838.0 629215.0 0
358351.0 626810.0 0
367260.0 628144.0 0
362791.0 629237.0 0
373263.0 627885.0 0
378668.0 628447.0 0
387434.0 628246.0 0
382980.0 629577.0 0
391728.0 629817.0 0
395770.0 627750.0 0
401190.0 628106.0 0
406555.0 629702.0 0
411140.0 628101.0 0
414683.0 628800.0 0
418389.0 626082.0 0
428496.0 626484.0 0
423608.0 628544.0 0
433256.0 628798.0 0
438427.0 628041.0 0
442346.0 627483.0 0
446265.0 628404.0 0
451811.0 628811.0 0
456595.0 628137.0 0
460923.0 628425.0 0
465990.0 627204.0 0
470381.0 629847.0 0
480182.0 627970.0 0
484239.0 630155.0 0
490393.0 629940.0 0
497110.0 628731.0 0
2052.15 635330.0 0
8495.65 632322.0 0
12242.5 635595.0 0
19439.7 631099.0 0
17854.6 635772.0 0
22092.5 633637.0 0
26201.6 634217.0 0
32480.1 634714.0 0
37441.5 634583.0 0
43039.0 632597.0 0
48062.5 635002.0 0
56781.1 633972.0 0
62397.4 634266.0 0
68854.3 632674.0 0
73538.3 634583.0 0
77618.0 633757.0 0
81833.7 630942.0 0
82625.4 635582.0 0
86891.8 633327.0 0
92780.8 634059.0 0
97286.2 633437.0 0
106088.0 630944.0 0
102163.0 635072.0 0
106254.0 635443.0 0
110536.0 633901.0 0
116396.0 632748.0 0
121513.0 634990.0 0
126191.0 635694.0 0
133373.0 633004.0 0
142358.0 630842.0 0
138175.0 633747.0 0
142136.0 635726.0 0
146441.0 633829.0 0
151246.0 633449.0 0
156166.0 634398.0 0
161111.0 634158.0 0
170548.0 634328.0 0
176255.0 633829.0 0
182081.0 633611.0 0
188163.0 633479.0 0
193641.0 635458.0 0
198572.0 632471.0 0
202198.0 635161.0 0
205493.0 632937.0 0
212323.0 633138.0 0
216719.0 633201.0 0
221010.0 632944.0 0
226443.0 633537.0 0
231384.0 633362.0 0
236671.0 633818.0 0
242925.0 633054.0 0
247751.0 633873.0 0
251739.0 632563.0 0
256273.0 634088.0 0
261055.0 633917.0 0
266020.0 633323.0 0
270948.0 633331.0 0
275944.0 633742.0 0
282136.0 633232.0 0
286663.0 633247.0 0
291348.0 633364.0 0
295884.0 631572.0 0
301858.0 635296.0 0
307914.0 633224.0 0
315864.0 633180.0 0
311469.0 635090.0 0
321179.0 634236.0 0
325658.0 632831.0 0
330082.0 633907.0 0
335482.0 633165.0 0
341288.0 633502.0 0
347638.0 634379.0 0
353778.0 634670.0 0
360258.0 633530.0 0
366584.0 634064.0 0
371365.0 635378.0 0
374280.0 632642.0 0
378684.0 634140.0 0
383610.0 633712.0 0
388845.0 633779.0 0
393733.0 633079.0 0
398075.0 632342.0 0
402889.0 633533.0 0
407531.0 633212.0 0
411159.0 632953.0 0
417064.0 632820.0 0
422171.0 633273.0 0
427466.0 633159.0 0
432597.0 633383.0 0
437037.0 632745.0 0
442726.0 632558.0 0
448113.0 632881.0 0
452932.0 634740.0 0
457834.0 632350.0 0
462059.0 634848.0 0
466341.0 632558.0 0
472007.0 634016.0 0
475720.0 630934.0 0
480832.0 633577.0 0
486075.0 635221.0 0
493012.0 635687.0 0
497547.0 634043.0 0
2941.64 640253.0 0
6239.41 636447.0 0
8027.7 640382.0 0
12534.4 640613.0 0
20285.0 639135.0 0
23351.3 637918.0 0
29428.5 638830.0 0
36560.5 640770.0 0
41645.3 637371.0 0
46630.6 639136.0 0
50420.4 640964.0 0
52824.1 637087.0 0
57544.1 638864.0 0
62016.4 639438.0 0
66389.9 638263.0 0
71132.5 637785.0 0
75904.7 638428.0 0
81123.3 640487.0 0
87027.0 639087.0 0
92376.9 639144.0 0
96948.4 637782.0 0
101426.0 639799.0 0
106486.0 639822.0 0
112140.0 639506.0 0
118303.0 639366.0 0
123580.0 639461.0 0
130818.0 638380.0 0
135926.0 637524.0 0
139961.0 639993.0 0
147595.0 638791.0 0
143606.0 638985.0 0
152656.0 638076.0 0
157202.0 638907.0 0
161697.0 639238.0 0
165439.0 636054.0 0
168081.0 639515.0 0
172918.0 639713.0 0
177711.0 638415.0 0
181926.0 638866.0 0
187531.0 639299.0 0
192338.0 639681.0 0
198426.0 638033.0 0
202958.0 638671.0 0
208707.0 638420.0 0
213915.0 640111.0 0
216004.0 636976.0 0
220429.0 638205.0 0
225544.0 639070.0 0
230837.0 638059.0 0
235667.0 639288.0 0
240318.0 638935.0 0
246144.0 638940.0 0
253115.0 639235.0 0
259497.0 638820.0 0
264176.0 638979.0 0
268997.0 638205.0 0
273414.0 637979.0 0
278468.0 638718.0 0
283247.0 637688.0 0
287032.0 637083.0 0
291244.0 638862.0 0
296711.0 636419.0 0
300756.0 639961.0 0
306402.0 636973.0 0
310178.0 639303.0 0
316019.0 639402.0 0
322073.0 639617.0 0
326571.0 637985.0 0
331489.0 639374.0 0
337244.0 638522.0 0
342355.0 638414.0 0
346444.0 640035.0 0
350925.0 638795.0 0
357570.0 639499.0 0
363552.0 639007.0 0
368735.0 638333.0 0
375128.0 638358.0 0
379864.0 638733.0 0
384372.0 638378.0 0
392723.0 636713.0 0
389251.0 639249.0 0
397530.0 637901.0 0
402472.0 637153.0 0
402143.0 640486.0 0
407087.0 637745.0 0
413252.0 638060.0 0
418695.0 638437.0 0
423748.0 637428.0 0
428343.0 638830.0 0
433620.0 638086.0 0
438356.0 637071.0 0
437525.0 640626.0 0
442747.0 638400.0 0
448310.0 638155.0 0
453913.0 640083.0 0
457658.0 637133.0 0
461478.0 639349.0 0
466892.0 638347.0 0
472588.0 638132.0 0
476784.0 636177.0 0
477953.0 639654.0 0
481843.0 638643.0 0
489664.0 639227.0 0
494071.0 640027.0 0
497892.0 638583.0 0
2916.28 645917.0 0
8593.77 645193.0 0
14374.4 645079.0 0
17449.7 641324.0 0
24063.4 642169.0 0
20618.6 644991.0 0
27436.9 642878.0 0
30923.7 644158.0 0
35039.7 645898.0 0
39501.6 645621.0 0
42035.6 641696.0 0
46585.9 643448.0 0
50254.8 645588.0 0
54757.9 643784.0 0
60530.2 643822.0 0
65781.9 643397.0 0
72280.5 643786.0 0
78382.5 645259.0 0
85487.3 644009.0 0
82100.9 644755.0 0
91601.7 644805.0 0
97144.5 642749.0 0
103021.0 645487.0 0
109087.0 644465.0 0
113620.0 644182.0 0
121529.0 644399.0 0
127236.0 643098.0 0
133721.0 644324.0 0
140149.0 645385.0 0
144901.0 643083.0 0
149571.0 644475.0 0
154617.0 642957.0 0
159641.0 643529.0 0
167757.0 643465.0 0
163819.0 643780.0 0
171811.0 644712.0 0
177287.0 644011.0 0
183653.0 643869.0 0
188814.0 644024.0 0
192134.0 642738.0 0
197412.0 643830.0 0
203473.0 643411.0 0
213906.0 643582.0 0
209201.0 645480.0 0
217659.0 643052.0 0
222289.0 643328.0 0
227421.0 643931.0 0
232904.0 643696.0 0
238566.0 643729.0 0
242979.0 643306.0 0
247855.0 644671.0 0
251792.0 644040.0 0
255774.0 644823.0 0
260835.0 643986.0 0
265897.0 642969.0 0
271774.0 643856.0 0
276950.0 643205.0 0
282161.0 643545.0 0
287628.0 642481.0 0
291570.0 645238.0 0
296029.0 642086.0 0
300515.0 644435.0 0
305732.0 642623.0 0
311641.0 644030.0 0
316820.0 645867.0 0
321888.0 644427.0 0
327389.0 643498.0 0
332577.0 644017.0 0
337020.0 644009.0 0
341830.0 642713.0 0
351966.0 643394.0 0
347117.0 645042.0 0
357770.0 645814.0 0
362987.0 644133.0 0
367670.0 642732.0 0
372370.0 642302.0 0
376914.0 643371.0 0
382064.0 643049.0 0
387540.0 644534.0 0
393937.0 643334.0 0
399565.0 644145.0 0
405513.0 644861.0 0
411473.0 643292.0 0
417171.0 643885.0 0
423323.0 643105.0 0
429658.0 644219.0 0
435220.0 644074.0 0
440905.0 643357.0 0
446508.0 643774.0 0
451794.0 644519.0 0
458317.0 643553.0 0
464027.0 643562.0 0
469210.0 643774.0 0
473940.0 642717.0 0
478668.0 643635.0 0
483139.0 643046.0 0
487717.0 643973.0 0
492502.0 643850.0 0
497341.0 643259.0 0
1225.62 649698.0 0
6649.87 649538.0 0
11930.4 648953.0 0
17554.3 648857.0 0
21691.7 649049.0 0
25964.9 647107.0 0
31637.8 649000.0 0
37282.0 650651.0 0
42061.0 649050.0 0
46263.9 648359.0 0
52479.7 649827.0 0
58173.9 648585.0 0
63469.9 648134.0 0
68056.1 647815.0 0
71608.4 650093.0 0
76714.2 650320.0 0
81820.4 648743.0 0
86927.0 648597.0 0
91614.1 651075.0 0
97149.8 648817.0 0
107124.0 649865.0 0
102065.0 650783.0 0
112226.0 648810.0 0
116851.0 646864.0 0
122836.0 649543.0 0
128702.0 649295.0 0
135232.0 651107.0 0
139562.0 649522.0 0
144580.0 648214.0 0
148640.0 649639.0 0
153279.0 648472.0 0
158319.0 647794.0 0
162931.0 648109.0 0
168212.0 648337.0 0
174066.0 647752.0 0
177445.0 649492.0 0
181788.0 648810.0 0
186680.0 648899.0 0
192363.0 647689.0 0
197489.0 649476.0 0
201776.0 648057.0 0
206027.0 650820.0 0
214596.0 647928.0 0
219000.0 648504.0 0
222500.0 648545.0 0
226801.0 649588.0 0
232137.0 648752.0 0
237227.0 648856.0 0
242357.0 647963.0 0
247039.0 649508.0 0
252500.0 648548.0 0
256699.0 649467.0 0
261530.0 649174.0 0
267196.0 648697.0 0
272672.0 649678.0 0
277598.0 647770.0 0
282101.0 650560.0 0
286747.0 647635.0 0
291415.0 650238.0 0
296739.0 648209.0 0
302632.0 648770.0 0
307577.0 648018.0 0
312203.0 649134.0 0
320934.0 649370.0 0
316431.0 650732.0 0
326410.0 649440.0 0
331724.0 648522.0 0
337569.0 649691.0 0
342976.0 647635.0 0
347496.0 650116.0 0
352906.0 649294.0 0
366586.0 647308.0 0
362483.0 648583.0 0
372102.0 647325.0 0
376874.0 647891.0 0
381048.0 647949.0 0
385438.0 649895.0 0
391353.0 649397.0 0
396899.0 648493.0 0
401793.0 649244.0 0
407838.0 650455.0 0
412880.0 648229.0 0
417854.0 649597.0 0
422452.0 648260.0 0
426700.0 648845.0 0
432769.0 648278.0 0
437543.0 648834.0 0
442985.0 648190.0 0
448166.0 649204.0 0
452398.0 648469.0 0
456575.0 648825.0 0
461861.0 648560.0 0
467403.0 648658.0 0
472627.0 647252.0 0
477332.0 648101.0 0
482303.0 647842.0 0
488528.0 649365.0 0
493001.0 648111.0 0
497500.0 648191.0 0
2838.68 653428.0 0
8061.23 654344.0 0
13298.3 653785.0 0
18054.5 653380.0 0
22108.2 655535.0 0
27238.5 653146.0 0
32849.6 654481.0 0
37548.2 656289.0 0
42118.5 654053.0 0
47686.7 653340.0 0
52118.0 655589.0 0
56747.6 653903.0 0
62037.3 653093.0 0
67587.1 653419.0 0
73058.7 655023.0 0
78420.7 655475.0 0
84293.8 654140.0 0
89784.5 655551.0 0
94491.7 655367.0 0
99115.9 654076.0 0
104191.0 655161.0 0
108986.0 654062.0 0
112945.0 653386.0 0
116018.0 655642.0 0
118097.0 651723.0 0
122245.0 654537.0 0
139095.0 654592.0 0
143484.0 653193.0 0
147059.0 655490.0 0
151055.0 653722.0 0
157263.0 653304.0 0
163011.0 652884.0 0
167843.0 654265.0 0
172984.0 652099.0 0
178033.0 654052.0 0
183279.0 653602.0 0
188134.0 653428.0 0
192595.0 653228.0 0
197277.0 654122.0 0
202500.0 653421.0 0
208083.0 655328.0 0
212693.0 653241.0 0
217500.0 653377.0 0
222500.0 653246.0 0
227996.0 654897.0 0
232885.0 653404.0 0
237749.0 653764.0 0
242755.0 652528.0 0
247921.0 653825.0 0
252112.0 652788.0 0
256404.0 653692.0 0
260826.0 654178.0 0
265601.0 653893.0 0
270811.0 654780.0 0
277032.0 653811.0 0
282335.0 654961.0 0
286928.0 653527.0 0
292529.0 655366.0 0
298634.0 654542.0 0
304078.0 653417.0 0
308293.0 652423.0 0
312854.0 654333.0 0
318521.0 655307.0 0
323334.0 653482.0 0
327904.0 654675.0 0
333240.0 654093.0 0
337966.0 655610.0 0
342767.0 653512.0 0
351181.0 654334.0 0
357988.0 651343.0 0
362954.0 654242.0 0
368524.0 651652.0 0
373246.0 655291.0 0
378342.0 652248.0 0
382990.0 654377.0 0
388427.0 654728.0 0
393464.0 654821.0 0
398025.0 653597.0 0
403362.0 654079.0 0
407997.0 655720.0 0
412655.0 653464.0 0
417739.0 654761.0 0
422274.0 652815.0 0
426981.0 654819.0 0
430281.0 651557.0 0
434896.0 654270.0 0
441091.0 653539.0 0
446496.0 656086.0 0
452446.0 653624.0 0
459241.0 654046.0 0
464399.0 652629.0 0
469197.0 654221.0 0
474400.0 651953.0 0
479406.0 652956.0 0
483980.0 652480.0 0
488194.0 654608.0 0
492884.0 652067.0 0
497500.0 653164.0 0
1547.76 658458.0 0
5592.76 658926.0 0
10822.2 658501.0 0
17033.4 658656.0 0
23615.6 660508.0 0
28264.2 658618.0 0
33230.4 659877.0 0
38052.6 660793.0 0
42364.3 659200.0 0
47058.6 658509.0 0
51711.1 660330.0 0
57047.0 659469.0 0
62417.5 658344.0 0
67084.3 658355.0 0
71186.0 659965.0 0
76003.0 659760.0 0
81796.4 660639.0 0
87178.1 659008.0 0
91957.6 659862.0 0
97780.7 659485.0 0
103206.0 660817.0 0
108583.0 658923.0 0
113944.0 659443.0 0
119337.0 658837.0 0
128259.0 656702.0 0
134935.0 656325.0 0
133559.0 660612.0 0
138560.0 659100.0 0
143446.0 658223.0 0
147021.0 659415.0 0
151456.0 659526.0 0
157401.0 659652.0 0
162834.0 658033.0 0
167741.0 659267.0 0
173400.0 658389.0 0
177937.0 659352.0 0
181749.0 658839.0 0
187123.0 658187.0 0
193328.0 659148.0 0
198755.0 658105.0 0
202950.0 658049.0 0
207332.0 659685.0 0
212270.0 658638.0 0
217524.0 658146.0 0
222454.0 658269.0 0
226545.0 659422.0 0
231411.0 658132.0 0
236422.0 658476.0 0
241610.0 657137.0 0
247248.0 658936.0 0
253433.0 658011.0 0
258728.0 658440.0 0
262734.0 658257.0 0
267153.0 658698.0 0
273273.0 659240.0 0
277717.0 659334.0 0
281826.0 658481.0 0
286942.0 658730.0 0
290973.0 659898.0 0
296071.0 660521.0 0
301823.0 658805.0 0
306179.0 657665.0 0
310566.0 658386.0 0
314999.0 659884.0 0
320073.0 660301.0 0
325611.0 660036.0 0
331313.0 659057.0 0
336081.0 659631.0 0
341986.0 660197.0 0
347001.0 656940.0 0
351371.0 659760.0 0
356605.0 656684.0 0
361445.0 660377.0 0
367787.0 658975.0 0
378770.0 659507.0 0
384912.0 658946.0 0
389768.0 660058.0 0
394675.0 659184.0 0
400007.0 658873.0 0
404042.0 658181.0 0
407184.0 660647.0 0
412977.0 658827.0 0
418143.0 659477.0 0
422665.0 657884.0 0
427326.0 660080.0 0
431773.0 658411.0 0
436422.0 659515.0 0
441461.0 659346.0 0
446082.0 661208.0 0
451477.0 660321.0 0
457330.0 660114.0 0
462154.0 658913.0 0
467397.0 660216.0 0
473677.0 658812.0 0
484245.0 656618.0 0
479824.0 658406.0 0
487460.0 660584.0 0
492978.0 657557.0 0
497909.0 659439.0 0
2251.06 662868.0 0
5528.13 664944.0 0
10558.1 664447.0 0
17110.2 665155.0 0
22589.0 665291.0 0
27762.2 664123.0 0
33291.1 665345.0 0
38706.9 665611.0 0
47153.9 664321.0 0
53059.9 665325.0 0
58237.2 664775.0 0
63542.5 663691.0 0
68414.6 663579.0 0
72797.8 664496.0 0
77430.7 664378.0 0
82577.5 665577.0 0
87357.2 663409.0 0
92591.0 665027.0 0
98305.0 665014.0 0
102959.0 665526.0 0
107362.0 664123.0 0
112260.0 663594.0 0
117328.0 663524.0 0
121460.0 665011.0 0
123882.0 661427.0 0
125515.0 665763.0 0
128130.0 662709.0 0
132004.0 666176.0 0
137294.0 664077.0 0
142956.0 663494.0 0
148058.0 663350.0 0
153280.0 664958.0 0
162928.0 663126.0 0
158530.0 665000.0 0
167355.0 663804.0 0
172158.0 664256.0 0
177548.0 663167.0 0
182505.0 663763.0 0
186766.0 663270.0 0
191016.0 664807.0 0
197788.0 663993.0 0
203474.0 662964.0 0
208227.0 664202.0 0
213256.0 663763.0 0
218091.0 663200.0 0
222108.0 663175.0 0
225916.0 663707.0 0
230905.0 663636.0 0
236694.0 663693.0 0
242522.0 663078.0 0
248076.0 664477.0 0
252472.0 664191.0 0
256706.0 662689.0 0
261170.0 664668.0 0
266725.0 664492.0 0
272408.0 663882.0 0
277890.0 664579.0 0
283224.0 662628.0 0
288521.0 664196.0 0
293437.0 664953.0 0
297343.0 666410.0 0
301139.0 663404.0 0
307533.0 663774.0 0
313489.0 664827.0 0
318580.0 665067.0 0
323146.0 664553.0 0
327439.0 665581.0 0
332204.0 663961.0 0
337524.0 665027.0 0
342772.0 666140.0 0
347204.0 662078.0 0
351763.0 665186.0 0
347196.0 666055.0 0
356256.0 662525.0 0
359285.0 666366.0 0
363764.0 665103.0 0
367804.0 664159.0 0
372938.0 662043.0 0
377178.0 664819.0 0
382420.0 663336.0 0
386600.0 664197.0 0
392360.0 664445.0 0
397541.0 663930.0 0
402478.0 663456.0 0
406577.0 665653.0 0
411666.0 663872.0 0
417373.0 664855.0 0
422782.0 663074.0 0
427693.0 665286.0 0
432592.0 663194.0 0
438079.0 664177.0 0
443249.0 664996.0 0
448209.0 664979.0 0
452857.0 666070.0 0
457447.0 664749.0 0
462297.0 664031.0 0
467084.0 665576.0 0
472282.0 665010.0 0
477768.0 663512.0 0
482862.0 663555.0 0
487933.0 665704.0 0
492474.0 663731.0 0
497457.0 663437.0 0
42832.5 667363.0 0
372522.0 666528.0 0
POINT_DATA 5000
SCALARS Radius float 1
LOOKUP_TABLE default
4780.03 7613.27 5529.52 6124.89 5252.48 5495.39 3856.1 4133.88 4834.9 6044.04 5415.48 5120.0 5580.89 6810.52 4380.59 6716.79 5759.91 4333.2 4951.03 5255.32 6756.95 4151.94 5337.48 4049.23 4929.8 5708.81 3554.9 4015.92 3996.0 4487.31 3936.02 4665.12 4044.71 3383.4 4094.62 4927.02 3850.77 5546.39 5325.36 5484.83 3863.18 5085.53 2356.98 5351.6 4998.37 6182.6 5492.18 5258.36 3951.75 5061.3 3642.12 3163.97 5812.43 5122.66 5906.14 5484.19 7513.1 5254.28 4436.4 5733.48 4672.91 3588.44 5645.7 5176.86 5840.26 3672.51 6110.27 5561.06 5073.35 4008.92 3615.22 5670.04 4827.82 3589.27 3997.1 3607.45 3260.67 5123.52 4392.68 3038.33 4295.38 7199.21 6037.08 5096.78 6324.23 4727.24 4329.05 4931.38 4685.34 5601.05 3586.91 3103.0 5481.78 5542.21 5043.05 5816.2 5980.74 5109.54 6483.19 5945.65 5538.89 4730.36 4715.55 5867.73 5013.56 5701.86 4499.64 4375.68 5542.27 5054.98 6030.06 5170.02 3557.27 4927.31 4688.68 4402.52 4517.56 4182.53 5903.42 3968.64 3955.56 3761.32 4118.05 4366.19 5553.16 2938.66 4940.78 4231.61 4003.05 3942.53 3379.84 4805.87 5227.21 5697.78 4091.31 6372.62 5615.42 4523.7 2240.39 5091.39 4612.68 5293.9 4129.43 3320.52 3843.58 4194.5 4792.73 4736.58 4556.36 3485.26 3191.99 5110.37 6082.81 4382.74 5927.43 4651.28 4384.42 4362.19 3693.63 4516.43 5637.59 4937.14 5924.89 4002.16 5693.81 4174.52 3486.22 3829.13 6759.9 5418.62 7021.47 5416.38 6059.59 4955.55 2720.68 3563.63 4238.81 4345.55 4468.59 5885.03 2837.58 3871.88 5325.02 5200.76 5017.13 4862.64 5279.39 5185.34 3673.74 4432.58 5205.43 6684.56 7447.37 4688.67 5292.64 2635.86 4385.06 6166.5 5065.13 5936.02 5305.17 4290.3 4861.08 5399.73 5390.22 4712.33 3888.21 6038.78 6902.81 4667.36 4254.17 5090.24 7565.34 5923.5 3912.37 4973.83 6142.94 4602.25 4270.53 5191.63 5082.47 5344.25 4478.15 4043.57 5379.87 4501.51 3708.04 5513.6 3240.09 5664.98 6327.9 6355.42 5690.56 4948.92 3115.91 4493.48 3937.74 3307.12 6084.86 4778.34 4138.16 6894.71 4684.5 6230.49 3091.3 6458.82 4601.27 5493.32 5740.68 3641.64 5926.61 6051.14 5836.15 3261.21 4195.44 6704.06 3653.41 5600.93 3856.01 5246.2 4390.66 5728.85 4827.23 6116.18 4924.6 4733.32 7184.19 2899.43 2924.37 3867.67 4695.45 4660.72 5891.05 5308.1 6644.76 5629.19 4786.6 5740.84 5530.87 4281.49 6342.25 5978.9 4790.08 6691.39 4187.56 5344.0 4763.45 4593.7 4150.99 4216.92 4107.03 3771.48 5681.38 4138.42 5925.6 5987.17 6013.14 4901.41 5138.31 5264.06 4659.59 4048.37 5492.26 5244.78 5762.84 4749.8 5810.84 5478.92 5551.36 4414.54 4467.94 5789.98 6138.47 7054.71 5489.43 5747.75 4277.89 4727.62 5054.25 4796.33 5539.32 5360.19 6496.85 4794.96 4874.39 5541.59 4124.71 5083.08 6337.56 4911.47 5803.39 5863.59 4381.97 4024.3 6257.19 3255.82 5242.73 2812.98 4065.69 4737.14 5603.15 5556.96 6052.7 3798.62 3921.18 6392.01 3666.57 4907.89 4937.02 5655.21 4645.41 4433.59 6445.94 4320.28 4310.18 4218.06 7134.64 6308.71 3629.62 4997.27 4840.84 5135.69 6045.46 5445.87 3815.26 4245.72 4704.72 4177.94 4571.7 4742.68 5113.21 3929.19 5922.5 4271.69 3970.25 5198.77 5147.67 4292.06 3979.82 2765.2 5011.31 5006.58 4602.86 3688.8 4621.75 4548.16 3369.23 5449.18 4220.88 6519.71 6640.13 3092.35 5082.6 5210.03 5478.47 4230.54 5094.44 3748.24 4655.49 4933.21 4850.81 6038.14 2540.31 6029.66 5527.54 5573.7 5697.4 4270.95 4055.8 7325.81 5280.17 6425.26 5143.58 6186.19 4839.34 2980.99 6834.49 5525.39 3998.5 5938.34 6394.38 5555.28 5169.36 4686.65 5834.74 4479.66 5788.23 5581.75 3043.85 3599.45 6730.19 4907.06 3735.44 4073.93 5163.9 6043.3 5952.75 6332.36 5542.14 4931.53 5480.13 4716.19 5514.76 4301.06 3456.98 4290.14 4020.32 4877.67 6562.18 5908.1 4344.58 6048.7 5634.83 5495.84 5782.6 4862.21 4502.5 5499.11 3633.87 5643.58 4850.01 5215.05 5577.04 6318.18 4481.53 5586.81 3948.17 4581.13 4551.24 5358.59 4515.71 5367.52 4322.15 3629.96 4714.54 3320.11 5351.39 6142.37 6061.47 6163.38 5375.47 5120.49 4723.12 5201.36 5262.61 6302.8 5409.61 6038.2 4005.44 5206.78 5555.88 6732.43 5028.96 3866.16 6362.12 4484.76 4840.01 5611.2 7933.0 4455.12 5173.87 4894.16 5380.13 5711.87 5118.27 3372.79 4941.22 5932.23 5791.61 3369.13 4808.52 5367.2 5607.24 5461.13 4726.76 5839.13 5495.68 5489.34 5708.14 5537.72 3920.42 4262.82 6122.55 2739.94 4223.33 6155.31 5911.67 5329.64 3323.28 6695.82 6405.76 3498.2 3066.13 4302.5 4541.21 4156.38 5316.75 5896.46 4164.68 6268.1 5022.8 3784.5 3719.84 5253.55 5820.48 7034.11 2586.12 6261.42 4011.77 4527.08 5347.48 4374.35 4810.12 2775.04 4138.46 3821.72 4986.77 5137.34 5330.45 3856.59 4219.07 3610.4 5413.79 6387.01 6202.55 5025.39 5893.5 5030.91 6022.17 5119.37 4583.31 3982.23 5806.08 4566.18 3459.9 4964.09 4093.08 5024.9 4809.42 4306.53 5659.17 5094.81 5972.06 5713.22 5861.71 4359.04 3183.98 3794.63 4524.28 3778.1 5152.36 4511.82 5826.64 4220.65 6820.42 4816.2 6321.41 4896.52 4751.02 5184.56 5282.64 4715.72 4669.66 4764.96 5046.33 4242.52 5053.92 6352.26 3847.38 3818.59 4863.72 5002.48 6623.85 5102.36 8332.24 4342.9 4553.56 6049.55 5709.62 5835.78 5794.24 5105.16 5448.61 6006.16 6009.88 7055.53 6133.92 4178.4 5669.65 5934.22 4861.06 3471.03 6608.73 4359.62 5011.84 3745.84 6946.21 5433.8 5062.71 6125.34 4497.59 5965.78 6396.74 6898.19 6035.6 5423.0 5077.33 4746.52 3689.45 5572.95 6338.89 5584.06 7111.16 3817.13 4547.19 5507.24 6851.54 4503.89 4336.42 4997.27 5243.29 4853.39 4449.22 5543.27 4717.05 5287.2 6135.57 5998.38 4312.67 5013.13 5423.8 4270.24 4989.15 5017.78 5015.69 6175.81 4727.24 4947.52 6677.09 4305.57 6959.81 4829.35 5201.67 4424.7 4089.76 4754.05 5526.55 3192.41 6084.93 5215.15 4987.87 4739.42 3315.57 5804.71 5020.12 5727.3 5281.28 5356.51 4277.88 3057.03 4087.15 4758.21 4143.08 7500.97 3948.23 5228.18 5787.31 5065.11 5069.84 4051.44 4241.89 5054.74 5941.72 4127.74 2476.04 5991.09 4678.38 3942.07 5050.65 7443.72 4827.33 3937.08 5513.57 5013.67 5729.23 5826.04 5624.49 5339.78 3095.48 3780.23 6481.79 4166.08 5320.28 5374.51 4298.67 5960.66 3979.26 3999.48 5188.81 4203.26 5696.88 6057.22 5690.26 4156.2 5975.63 4289.17 5252.34 2965.79 7099.43 5526.14 5198.29 6449.45 3975.31 5125.78 3824.16 4373.47 3868.18 6723.16 5372.61 3686.21 6480.17 5023.15 4377.07 5101.59 3813.22 5570.3 4306.11 7589.94 3130.65 5628.24 5856.11 3327.49 4109.88 4234.94 4562.29 4980.85 5080.66 3417.33 5110.45 4926.42 4164.13 5248.77 4642.34 4520.1 5153.74 5874.89 4293.03 5813.4 4389.21 3791.79 4128.98 4925.44 6246.22 4951.47 5246.61 4307.28 3697.96 4723.48 5538.93 4899.11 4745.45 2631.9 7267.18 6255.18 4668.71 5269.18 7228.46 6362.14 6719.88 5978.82 3927.99 5266.5 5868.82 4050.9 4066.38 4978.31 4099.77 4981.9 4537.32 5163.02 4656.78 5126.91 5133.97 5371.02 5260.34 5206.48 6586.45 5226.0 4750.78 5762.59 4123.6 7092.87 5224.12 4850.14 6739.08 4569.12 4796.58 5873.69 4962.09 5654.31 4730.41 5470.77 4643.85 3923.03 4004.04 5607.14 6915.83 5564.02 4274.61 6072.45 4410.55 6314.07 4287.63 5315.4 4516.28 3627.82 4044.45 5262.19 5344.43 6070.58 5045.38 5350.88 5130.91 5402.24 4519.22 6445.22 4564.34 3844.9 3695.36 3963.86 3848.93 5076.35 6020.48 5935.47 3402.32 5903.66 4528.49 5004.67 5365.89 5992.26 3960.8 5070.39 4511.54 4923.9 5714.58 5208.32 3296.27 4083.97 4713.25 4607.02 4528.09 3895.51 4165.81 5441.96 6291.51 5174.89 5882.89 4188.32 4100.38 3746.31 5344.77 5027.98 5097.87 4278.07 2691.29 6256.02 5320.92 4305.43 4406.1 5034.59 4942.77 4263.33 5080.18 4454.63 4523.88 3279.1 4948.98 4403.98 5227.52 4560.84 4729.43 4414.48 4092.24 4562.74 7144.24 3600.43 6600.94 4906.82 4788.58 6155.1 6496.67 4709.35 5876.71 4373.3 5029.78 3365.82 4143.78 4163.5 4538.95 4970.88 4763.66 7042.12 4797.52 6326.39 4471.58 6643.85 3637.61 5501.93 6098.14 5463.38 4472.17 6222.42 5750.71 4938.74 3474.39 4831.47 6062.05 4735.33 5082.74 5411.85 5092.37 4027.46 6444.77 5759.46 3921.08 5776.37 4190.31 5678.96 4244.9 5490.43 6034.41 5452.83 4959.34 4948.5 4527.02 4531.14 5013.42 3838.56 4871.44 5651.07 6375.99 5200.05 5234.29 5313.66 5419.37 4466.03 5409.33 4898.94 5196.0 4973.78 3329.99 3947.47 5091.68 4204.84 6243.0 6673.96 3556.85 3161.47 3435.9 6390.78 7435.25 4288.3 5370.52 4788.87 4652.29 4495.87 5774.81 6022.72 5498.32 5527.33 5346.27 6475.1 4969.21 4880.14 2845.98 5289.52 5314.85 5450.44 6510.17 5742.65 5592.32 5381.16 5912.61 6193.35 6086.96 5233.78 5776.57 5683.26 5598.74 5687.83 5131.24 5196.67 5004.23 6442.69 5474.8 6262.72 3664.11 6607.87 6515.84 2990.77 5724.64 5965.15 4666.81 4780.2 5163.55 4819.73 6817.32 3382.7 6471.55 2965.01 4319.79 6263.44 5960.56 6343.14 5774.97 4020.95 5462.21 5945.21 6313.06 3493.7 6470.3 4719.7 4200.03 6939.12 4406.4 4413.85 4844.57 3999.94 4864.22 3901.8 4470.98 5511.88 5083.41 7055.42 5486.68 6048.86 4285.32 5022.28 5197.52 5178.99 5383.07 4591.87 4790.78 4247.15 6552.22 4602.85 6248.81 5273.35 5872.05 4091.8 4645.58 2651.49 5512.23 5181.4 5275.32 5985.29 4247.23 4178.15 4613.31 4694.83 4733.04 6119.09 5788.66 7531.29 5069.25 3903.75 5048.89 4755.47 5935.03 3991.03 5475.8 5314.69 6826.57 4249.46 5965.81 3702.37 4643.31 2330.66 4177.19 6917.52 5402.21 4989.09 6718.19 4982.31 4307.48 3848.54 5941.4 5331.02 4871.96 4863.23 4402.67 4470.61 5565.13 4384.88 6887.27 3701.27 4806.34 5653.9 5046.21 5894.61 5139.5 7493.3 4814.55 6320.71 4648.04 3527.05 5698.77 3464.83 5117.47 3163.78 4925.63 4888.6 5882.65 5078.86 4918.77 4636.5 5100.1 4940.42 3703.1 3954.91 4946.42 5085.71 5923.4 5081.78 4260.92 5499.39 5644.82 6413.02 4863.27 4118.84 5862.86 5122.63 6049.79 5374.98 6345.13 5274.19 5516.95 5313.22 4097.57 3905.51 5017.5 5563.79 6171.13 3497.9 2395.5 5941.61 4512.11 6248.6 3836.45 5683.61 5100.25 4049.02 6894.26 4470.4 4986.51 5339.38 6169.11 5615.35 4027.09 6422.84 4502.18 5379.09 5210.48 4962.77 4853.02 6259.23 5088.44 5670.2 4711.62 4114.24 4268.65 5349.31 4649.22 5509.42 4354.08 5094.52 4256.43 5936.36 2682.24 4520.62 5229.48 5475.7 4485.99 5127.16 5435.74 4244.99 6050.81 5543.46 6185.89 3997.96 4750.17 5660.85 3460.94 3990.25 3691.0 3587.05 4752.51 4236.14 6229.37 4407.87 5282.91 3797.33 4425.84 7256.35 4800.69 6566.1 3555.86 6386.78 4996.99 4631.83 6081.14 5480.83 6008.49 4287.53 5612.21 4929.14 5945.08 3979.54 5944.09 5833.06 2477.07 4923.41 4497.31 4721.32 3293.56 4305.16 5092.28 4739.14 5274.14 4903.82 4434.19 4371.99 6090.91 3561.29 4219.78 3295.83 4963.34 5019.93 4459.28 3885.86 5235.29 4255.31 6116.33 4479.94 6250.23 5453.3 4718.54 3492.19 4407.9 4584.5 4440.57 5548.29 6766.43 2315.64 4703.08 4390.41 5226.56 6113.95 4050.08 5599.49 5452.42 5328.22 6853.85 4020.4 4596.75 5782.48 4933.65 5443.58 4558.46 5805.86 5346.68 5296.29 5311.03 5255.12 4285.66 4896.11 5172.53 4135.62 5801.99 5534.94 7644.38 7552.94 6101.92 5323.3 4998.21 4635.6 4662.56 5166.79 2976.22 3405.98 5417.15 5394.55 3688.16 4681.72 4946.74 5996.33 5928.32 5415.19 4612.62 4016.18 3619.07 5526.75 4275.57 6385.23 5327.45 2983.99 5560.26 6363.92 6205.93 4439.35 5830.72 6184.4 3758.07 4373.45 4082.57 5733.62 5169.9 5282.51 4460.92 5945.89 4042.28 4105.55 4340.76 5254.49 6065.22 4221.28 4456.39 4896.39 3633.79 5421.53 4607.85 4220.46 6070.3 5128.57 6000.7 5604.21 3169.67 5204.04 4968.03 3361.92 5304.13 3306.14 5490.58 4863.79 3967.48 4702.06 3830.46 6213.04 6413.11 5529.42 5257.12 4965.89 5746.28 5187.7 4152.85 4623.61 4082.47 4453.64 4188.3 5511.6 6261.75 4517.73 4338.08 5177.64 4687.64 4378.3 4419.71 5660.16 5037.06 4541.8 6134.99 4094.73 3838.47 2588.37 6736.03 6235.57 3623.87 5412.31 3087.09 5916.16 6934.37 4890.5 3423.15 3731.84 3981.07 4901.07 5186.3 3436.15 4151.76 6484.17 3493.47 4721.02 4254.37 3374.08 4031.78 6098.1 5708.99 5950.04 4231.83 5687.85 2435.33 6401.43 4611.53 5020.71 2681.29 5094.48 3872.61 4238.4 4318.48 6132.95 5266.22 4860.33 3685.13 3312.06 6004.68 3361.26 4051.34 6799.4 3627.55 6239.84 5865.39 4256.67 3457.48 3931.07 6079.11 6430.39 3949.6 4945.39 6326.18 3950.63 5661.62 6631.19 6648.68 4467.04 5626.61 5817.25 2614.4 5061.98 4537.6 4923.24 4419.61 7177.44 3828.81 4563.46 5309.98 6553.94 5255.18 3004.16 5460.65 4767.78 5235.17 4779.5 4421.12 4929.75 4435.36 6649.96 4303.19 5784.3 5514.84 3914.2 4256.57 6088.68 5937.08 4135.08 5620.74 5233.29 4312.56 4612.06 5467.84 4750.58 6710.88 5395.14 5235.11 5211.38 6031.67 5384.76 4689.15 6138.12 4428.78 4655.16 5243.43 5659.95 4537.14 5551.9 4345.67 4765.72 3757.34 2908.7 4642.66 6415.61 4752.14 5276.7 5036.58 5469.47 4888.12 6119.63 4950.97 5512.16 3197.63 4989.56 5175.29 4287.16 5842.56 4863.96 5887.15 4435.51 5203.08 5374.07 7480.41 3766.55 4488.85 5163.77 4579.69 5010.2 3554.48 6496.52 5005.85 5711.11 4216.17 4575.94 4938.72 3546.71 5956.65 5768.57 5564.23 4188.87 3735.24 4074.48 6333.29 4558.47 5731.57 5997.88 5839.71 5576.92 6408.83 3930.79 4004.35 5226.97 5754.18 5180.76 3418.99 4480.95 5278.36 4409.63 5521.25 4427.28 5370.85 3082.32 5949.46 3658.37 7440.72 5376.71 5703.6 4807.28 4867.08 4266.03 5280.69 4713.74 4220.03 6923.84 5407.78 4084.49 5449.46 6179.96 6632.99 6113.54 5147.36 6260.79 3963.76 5528.53 3062.43 5726.66 5426.78 5652.0 5463.41 5225.33 4237.98 6439.37 6045.22 4614.3 5134.39 3532.3 5769.98 5442.32 2221.99 4643.56 4863.01 4778.82 5356.79 6124.08 5657.36 5029.47 5053.95 5926.11 6667.68 5767.9 6515.8 6622.11 3685.13 6790.73 4741.26 5920.32 5409.66 4186.6 5251.4 3867.19 5097.69 5857.79 4039.91 6543.13 5149.72 5329.59 5776.96 5464.25 5411.02 4752.9 5301.47 4617.55 5199.44 5191.08 5424.88 4062.5 5415.85 8659.64 4588.7 5683.95 5469.13 6027.62 5765.42 6123.03 5966.61 4997.83 4893.49 5325.44 5021.88 4597.29 4200.09 4498.25 5151.21 5931.77 6574.95 6817.57 3614.96 4477.04 3886.68 5703.74 5662.55 5737.92 3056.7 4360.23 5365.24 5293.51 4763.96 4446.06 5008.63 3450.93 5132.68 4993.35 6218.95 3661.9 5222.16 5107.23 5136.08 3178.54 5558.68 4765.02 3776.94 5629.39 4448.13 2684.03 5070.29 4768.61 2261.36 5075.55 6719.94 5227.59 6166.29 5453.6 5703.07 5294.77 4662.43 4630.82 4043.66 4813.08 6799.88 5990.52 4835.83 2967.38 4159.35 5604.35 6477.91 3091.67 4081.97 5401.99 5580.92 5973.33 3583.21 5067.46 5291.9 2511.46 3580.58 4011.37 2775.69 4785.25 3619.79 5876.64 6306.21 5266.01 5253.37 2040.66 7016.27 5089.62 5884.9 4590.55 3685.65 3876.21 5869.4 4916.22 3701.16 4255.85 6022.7 4732.09 3988.3 5750.07 6136.49 4757.74 4216.95 4356.25 4209.49 5742.74 3821.94 4244.21 5486.48 5367.73 4947.24 3875.05 3645.12 3456.47 6200.54 5148.58 4199.45 7234.66 6599.66 4886.12 4055.54 6419.12 4233.8 4976.12 6098.95 5453.98 3991.42 4388.63 4834.87 5102.75 5760.22 5938.17 5097.95 4795.43 5398.64 3573.73 4693.52 6853.04 4745.43 5831.96 4747.55 3755.95 5464.68 6234.32 4586.19 6625.18 4270.74 5323.91 6293.89 6595.03 4558.15 4983.39 5366.52 4690.55 5533.72 5533.42 4802.32 4010.57 4599.38 5246.47 6157.04 6191.29 4522.21 7422.36 5506.19 4950.67 5832.37 4642.93 5409.63 4263.16 4709.05 3077.84 6024.75 6109.49 5860.67 4540.86 5332.65 3764.1 6451.33 5413.31 6316.56 4332.87 6420.81 4715.58 5208.14 4450.7 3317.83 5151.52 5369.08 4347.74 3101.75 4518.04 4766.06 4009.62 2081.58 6505.78 5461.55 6519.43 6865.76 5424.46 4857.84 2978.76 4908.49 4962.21 4858.44 3468.42 4673.35 5689.26 4992.42 5297.19 5895.77 4940.84 4351.38 4833.46 5933.7 4809.67 7248.4 6045.67 5280.12 3946.28 5984.81 5439.9 4409.27 3540.11 4640.06 5471.74 4652.01 5421.64 3548.39 3673.28 4207.54 4858.51 3375.28 5625.65 4301.61 6107.89 4446.84 4817.16 5660.55 5148.08 3718.69 4514.79 2216.82 3672.21 4509.89 6752.75 5269.38 5607.3 5108.06 2928.82 4222.4 4914.45 4000.43 4568.41 3420.08 3624.7 4912.04 4691.91 4539.07 2685.81 4475.83 5591.76 5889.35 4585.31 5010.04 4570.98 5097.45 4275.07 5825.38 2761.07 5737.75 5742.47 3778.02 6552.21 5417.8 5146.37 7132.12 3678.08 4836.16 5518.57 4187.31 5463.48 3240.51 4527.99 5161.01 4376.7 4298.15 5190.61 4628.4 8325.01 6051.83 4440.81 3973.12 5941.9 6642.76 4497.78 5567.93 5987.42 4442.22 4669.06 4811.32 3012.99 6400.08 4743.59 4396.25 5829.32 3763.05 5092.24 5549.49 5423.42 6605.86 4874.18 5012.5 5435.19 3298.2 4270.15 4953.1 6449.64 6464.8 4684.44 4680.94 4749.59 5799.69 5571.72 3809.69 4771.13 7051.9 4184.23 4608.41 4144.57 5550.75 6834.41 5466.33 4444.97 3000.29 5721.05 3498.16 4209.31 4247.69 4514.39 4588.99 4321.21 4344.34 5950.45 3583.49 5713.03 4928.27 5052.84 4366.74 5297.16 3184.64 4936.96 5206.33 5530.49 5065.26 5653.03 4304.41 6192.0 4940.28 5885.28 3004.34 5323.55 3022.6 4811.76 5313.12 4698.87 5351.56 4661.03 5160.59 5262.35 4320.42 4255.34 4510.8 5064.79 5480.3 7509.24 4394.56 5896.26 5388.78 4185.61 6101.13 4047.87 4573.72 5099.21 4917.99 4367.78 5227.02 5670.0 4232.16 5300.96 5151.11 4344.51 5680.94 5730.33 3781.77 5545.46 5193.01 4543.1 6550.44 3860.83 3764.06 4523.39 5278.56 5434.47 5829.22 5631.14 4243.79 4343.78 5811.18 5433.65 4008.15 4887.76 7693.4 4286.49 6184.88 4437.07 5491.9 6405.0 5551.95 4659.16 3918.87 5789.55 2275.45 4633.05 4901.2 4383.56 4990.79 3562.79 7093.13 4516.53 5818.95 4093.99 3940.49 3604.14 4452.54 4406.05 5089.1 5828.35 2711.19 4028.32 5876.72 5236.43 3208.96 4884.59 5285.07 3858.06 4680.14 4083.79 4187.94 5980.59 5021.77 3796.15 6226.14 4801.8 7216.98 5271.02 7013.17 5718.28 6242.79 4601.74 6506.86 5088.57 5580.34 5849.65 3852.6 5134.67 4165.21 5775.31 4215.0 4603.5 4481.76 5452.78 4356.36 4892.44 5578.94 7610.49 4286.17 6579.31 5375.1 4172.6 3804.5 5498.42 3984.88 5318.53 4732.09 4281.98 7165.9 5344.83 7046.11 4146.81 3427.63 6342.48 5756.75 5599.7 6969.28 5636.4 3665.95 5698.96 4350.12 4095.75 3603.51 4298.45 5222.51 6609.84 5135.96 3834.43 5658.37 5581.55 4707.06 6074.94 3474.5 5491.37 4250.88 6348.03 3475.67 5732.27 4792.39 7038.89 5146.37 6917.62 4013.38 5067.56 6137.8 3352.35 5263.3 4909.65 3747.03 6523.86 2783.85 3994.07 4326.48 4219.94 3449.37 5907.46 4264.91 5399.29 4909.31 6522.59 5711.62 4798.17 5425.98 5166.79 6479.39 2895.63 4122.92 4997.91 5079.22 5381.54 5810.77 4714.83 5474.15 7519.2 4099.92 6355.68 4478.6 4511.7 3953.55 4304.63 5263.27 4314.56 6300.92 4173.54 3928.53 5599.29 6038.68 5046.12 4807.4 3805.67 4590.01 6101.86 4227.41 5993.0 4803.57 5966.42 3332.49 4110.59 4706.5 5354.66 4647.67 4214.44 5375.12 4787.97 3746.36 4981.43 6789.23 3989.7 4777.03 3684.56 4246.61 6028.09 5452.36 4609.02 6486.37 4638.18 4196.37 3344.57 6448.66 5220.76 6945.98 5138.2 5783.48 4449.98 4863.97 4840.44 5093.82 4587.67 5951.81 4163.74 3924.14 6918.35 4296.69 6238.32 3319.67 6471.42 4076.59 5283.8 4428.14 5164.1 6464.15 4972.17 5699.53 4222.77 3783.54 5268.38 5527.23 4805.33 3863.67 4814.12 6193.08 6069.3 2735.53 5887.01 5116.6 5388.39 5335.47 4356.49 4526.81 5048.19 6799.23 6740.71 4888.27 6487.56 5971.22 4854.11 5533.19 5417.21 6602.43 3568.28 6063.64 5996.66 7382.3 4405.42 2995.67 3598.08 4599.81 5698.23 7300.58 3608.06 4923.57 6633.61 5217.95 4867.7 5484.36 4277.24 4063.9 4469.54 5291.05 5161.1 4619.2 5606.51 5166.41 5740.65 3834.47 5067.56 2596.96 6349.67 6329.53 4139.3 6541.45 4750.49 5078.31 5391.48 4923.43 5131.15 4847.14 3950.27 5116.66 3566.79 5378.23 5374.67 4215.2 4741.28 5069.89 4157.29 6813.72 5327.75 4946.23 4896.65 6083.28 5211.6 4453.97 3503.41 6412.67 4701.5 7001.83 4504.35 4771.65 5012.97 5589.37 5439.49 5212.43 4834.3 6804.79 6372.13 5369.5 5404.01 6016.19 4124.49 4479.11 5714.25 6685.4 4850.06 6332.01 7044.29 4234.18 7085.01 5980.95 3936.95 3862.77 5168.35 4740.98 3185.39 3728.18 5128.77 5633.61 4243.26 4153.84 5119.86 4592.15 5084.17 4901.44 3776.8 4998.22 6156.21 6104.26 5583.61 4986.71 4668.88 4022.56 5522.21 3772.3 4855.01 6208.9 3340.09 6061.63 2279.05 4829.35 4075.28 8137.11 5484.32 6650.77 4067.96 7104.73 6162.3 5701.75 4350.15 4264.54 3516.27 4643.9 4263.78 5228.75 6047.14 5009.83 5210.38 5717.8 3629.44 3683.86 5003.78 3299.24 6246.56 4061.6 2603.64 5473.72 5107.0 6212.15 6502.97 4783.07 3758.22 4852.58 4757.2 6100.73 5806.31 3556.79 4745.79 5456.71 7317.04 3971.08 4036.91 4593.7 5110.11 6379.14 6639.64 3687.65 5454.12 4887.52 5478.95 6348.54 4066.57 5642.35 5156.76 6357.47 4891.38 5535.91 3230.13 5955.86 6176.67 5325.96 5412.24 5016.02 4581.37 4920.21 4049.16 5851.61 5478.11 6153.94 5526.31 6836.82 3858.17 4631.99 3477.1 4078.93 5934.82 4501.78 7122.87 3572.94 5797.36 5001.58 5089.26 4729.42 3886.72 5415.45 6592.93 5096.43 6350.71 2460.79 6436.74 4653.83 5096.24 6171.71 3628.89 6589.82 6328.42 5027.43 5522.75 5867.64 4438.58 6059.93 5602.53 5073.02 6545.43 6760.92 4989.2 4711.04 7144.05 4506.18 2970.9 4824.12 6542.5 4383.47 3272.75 5971.21 5261.19 3104.96 7043.44 3831.52 4263.65 6106.43 4807.35 5467.63 5666.95 4642.2 4811.22 4127.53 4474.83 4918.76 5293.75 4208.41 5658.14 5826.78 6214.73 2856.55 2205.51 4553.68 5175.89 5361.87 4268.19 4374.74 3205.68 5561.74 4532.7 4504.86 4788.08 5975.23 4198.94 5470.04 4908.75 6556.26 6204.65 5438.92 4482.9 4349.13 6550.4 4891.67 5216.26 3634.5 6571.31 3851.85 6318.23 4206.98 4058.87 5174.75 5932.07 6101.57 4793.65 2949.12 3856.53 4532.89 4533.37 4848.46 5260.85 5742.09 2779.99 5887.38 2884.65 5807.46 6942.34 3658.05 4549.69 6423.81 5030.15 3644.78 4312.15 6418.11 6015.02 5244.22 4922.49 5585.14 7039.98 4820.17 5244.98 4159.81 5792.98 4385.81 4034.05 5798.38 4456.11 5366.11 5039.12 3908.98 4824.81 5769.14 7307.21 3381.82 3619.72 5347.9 4646.51 4565.93 7107.63 4831.93 5788.97 3472.91 4023.93 5868.89 3274.85 5007.21 5494.28 4099.26 5206.47 4834.39 4580.06 3926.11 5493.89 5262.47 3512.94 4467.0 4991.35 4587.7 4258.98 3787.08 6761.81 3903.91 4568.64 3919.62 4929.6 5750.35 5210.75 4489.99 4548.45 6555.44 4551.26 5730.61 4508.18 7124.45 6358.93 5064.67 3894.64 3703.49 5232.85 4062.56 6200.63 3217.67 4473.29 5079.64 6163.54 4211.82 5212.37 5684.25 6003.78 2628.22 5058.51 5036.98 3766.69 5513.8 6818.91 3503.65 4521.75 4027.63 6631.28 5350.88 4392.65 5420.67 6413.15 6103.11 5048.55 4984.46 4024.31 5948.71 5844.72 3992.97 5460.89 6040.74 4054.22 7228.94 5393.65 4961.99 4648.21 4393.16 4595.12 3311.29 6484.43 4625.67 6192.77 4458.64 4583.52 3492.83 6280.13 3684.15 5832.29 4438.76 6006.89 6456.58 4960.64 3965.3 4983.3 7778.01 5690.96 5127.82 5124.17 3862.91 5805.1 4125.9 3419.87 4064.58 4234.88 4384.28 5113.6 5944.3 3563.14 5135.5 5640.72 5851.63 4504.52 5212.92 5615.84 4464.73 4928.85 6440.38 5556.0 5545.59 4954.81 5610.53 5755.15 4835.97 6419.64 4057.17 7066.96 4994.65 5917.34 5196.92 5601.55 4462.87 5644.81 5334.36 5630.9 4728.55 4554.68 4368.28 4692.32 4945.0 4658.11 3127.83 4212.15 5114.07 4385.49 7142.95 4383.68 6618.21 2617.39 3717.47 5144.44 4051.18 6816.66 5969.37 5034.69 996.652 4509.46 4680.69 5965.58 4244.49 3352.34 4050.03 4901.29 4775.04 5188.53 4882.66 5569.2 5410.33 4642.74 5305.59 5416.45 6459.51 4955.16 4904.51 4147.31 5989.05 2202.77 5751.15 5950.88 4441.22 5853.89 6551.93 4140.4 3110.13 4386.8 5446.4 4725.01 3485.54 5966.75 3657.69 5510.9 4883.63 4971.29 5510.45 4730.14 2606.51 3994.39 3814.65 4128.1 4618.73 5372.82 4402.17 5053.15 5910.86 7320.78 4834.44 5782.43 4456.26 4810.98 3873.92 5091.22 5026.76 6282.38 4546.44 5657.55 5727.79 4184.21 5188.82 5043.14 4717.73 5072.5 3904.07 5713.36 5748.9 3663.0 3742.31 6304.49 5134.72 4608.34 5695.79 5464.83 2781.96 5414.58 4431.23 5740.98 4346.07 4013.86 6545.99 4218.16 2918.64 4140.92 4512.07 5984.8 5236.24 4585.04 5678.58 4263.18 6570.35 4242.63 4559.74 3269.54 5836.26 6666.67 4583.94 5046.31 4928.35 3844.54 1937.5 5849.53 3538.53 4651.99 4420.11 6500.49 6127.39 4972.18 4607.18 4124.76 7200.89 4120.07 4952.52 3429.57 3840.21 6746.66 4954.76 3908.56 6735.97 3636.15 4330.58 6114.89 5754.6 5135.63 3288.01 4355.83 6870.97 5351.86 6056.87 5474.01 4149.55 6201.86 7554.58 3380.69 5166.89 3639.44 5491.63 5725.37 3868.62 5138.33 3743.76 3425.69 4505.28 6711.21 4236.86 5393.76 4941.02 6119.99 3864.92 2955.36 3668.93 4446.58 4009.24 7541.76 5401.4 4775.49 4681.29 3220.29 6239.68 3845.9 4439.71 5667.51 4708.31 4027.33 4198.9 5431.29 4833.67 5023.41 4092.07 4213.05 4224.3 6203.03 4700.07 5235.87 5273.37 4732.37 4985.3 4966.07 4749.18 4400.14 5553.94 4704.92 4546.96 4316.0 5424.55 4287.25 4921.1 4392.75 3814.16 4420.6 3622.8 5287.25 4770.51 5577.41 4184.47 4012.92 5759.79 4177.47 5218.42 4933.49 6139.64 4896.43 5463.06 4639.8 5260.52 3185.09 5114.23 7407.91 6015.22 4454.74 6063.44 2904.46 4826.52 5120.92 4337.32 5241.75 4731.53 3763.9 4788.7 5863.0 5640.12 5329.76 3899.7 2403.72 4813.33 4147.49 4802.98 4833.55 4081.34 7224.99 6334.53 4844.83 5244.78 5652.87 5483.7 5018.69 6384.7 5952.38 3896.27 5807.52 5963.36 5230.02 5307.35 4342.18 6016.08 4731.21 3124.7 6064.71 6102.98 5153.18 4763.4 5902.67 5454.11 5806.61 4983.1 6010.59 7123.04 5906.57 4932.29 4990.23 3784.94 5499.59 5749.6 4141.21 4174.44 4564.41 6331.74 5951.86 4252.18 4659.88 5325.91 3791.41 5853.12 5157.38 5702.4 5069.9 6089.45 5810.17 5265.21 4657.24 3669.32 5866.42 4762.1 3987.69 6502.99 6219.34 4271.07 4191.01 4475.38 4589.06 4920.88 5890.25 6511.37 4216.44 3999.5 5034.05 4598.54 5345.73 4770.63 3990.94 4756.8 5477.8 3986.41 4462.35 4241.68 6102.49 3469.18 5495.0 2945.34 4489.29 5064.23 4301.93 6061.85 5512.44 6449.06 4685.4 6240.42 5146.0 5721.14 4577.73 5084.5 4918.64 6638.25 5078.59 4759.99 5134.33 2646.13 5419.57 5162.67 5760.98 3646.95 4705.68 5384.86 4749.96 5377.37 5869.67 4311.48 4899.73 3152.86 5457.66 6394.19 5973.89 5518.11 5087.14 5712.35 5169.48 4743.9 6776.22 3719.11 4467.13 6060.17 6273.6 5136.87 5024.32 4708.17 2741.2 3779.45 5790.42 5784.37 3142.09 3682.35 5591.77 3756.96 5182.13 6110.48 6245.52 3954.77 6793.1 3125.13 6016.87 4506.66 6715.73 5209.55 5426.4 5763.05 5129.68 5357.39 5076.84 5247.01 4208.37 4841.7 5685.74 952.938 5473.89 4678.7 3306.84 3673.6 3450.07 6215.87 5191.26 5544.27 3484.81 5308.33 4666.12 6023.07 5674.63 5340.05 5995.4 5322.11 5700.79 6710.14 4426.02 4816.51 4711.15 5188.22 4841.23 2804.54 4357.11 5005.6 4176.32 6069.78 5532.75 6949.65 3372.95 4095.83 5676.61 5846.95 5268.15 5819.0 6347.72 4924.07 3460.93 3200.6 4629.02 5914.5 6006.16 4288.45 4987.28 6206.98 6562.03 4815.47 4368.12 4365.58 5214.4 4636.53 3629.49 5766.05 5469.35 3835.81 4019.34 4869.48 4658.24 3623.19 4906.11 4387.39 4564.1 5825.55 5509.51 4848.14 5366.22 4316.5 6193.73 5254.24 3742.11 4192.21 3597.43 5701.52 4158.91 5311.55 5321.17 3360.86 4869.25 5545.21 3877.8 4333.87 5684.05 3667.93 5638.7 5813.79 4644.88 5293.13 7350.26 3768.46 5167.53 5003.3 4168.52 5800.81 5106.46 4068.31 5166.05 5077.29 5515.73 4850.5 5866.91 2820.07 6405.69 5679.74 4825.73 5288.33 6296.54 5797.21 6019.35 6740.35 4550.92 5146.1 6485.77 6060.06 5960.5 5393.43 4685.65 6470.23 6506.63 4140.04 3495.3 4697.49 5735.08 4726.2 4750.81 3825.48 3810.68 4196.62 2809.19 4916.7 5486.89 7208.19 4549.51 3587.93 4975.85 5695.25 5323.95 5716.42 5701.63 4620.95 5368.93 4488.39 5124.86 4927.73 4602.57 3565.32 4608.62 5407.96 4071.75 4626.72 5131.77 5549.71 4410.82 6443.99 3889.98 5193.58 5399.43 5695.44 5117.64 3422.21 3916.42 5429.3 5510.96 6653.07 4745.16 4697.91 4584.81 5071.98 5719.79 3199.4 4371.08 7261.51 4968.14 4914.03 5086.29 5144.56 5139.18 5551.43 3034.16 5049.99 4201.03 5001.87 4493.79 4279.44 4899.19 5058.34 4028.22 5575.11 5487.63 3852.82 4507.36 7145.73 5403.97 4795.08 6562.92 5501.73 3671.06 3612.44 7035.54 5233.76 4683.28 4217.36 6549.8 4165.36 4851.18 4871.77 5811.26 6075.99 6028.63 5927.2 4419.79 5407.69 3869.39 5152.78 4117.9 4753.76 6896.55 4638.09 5377.01 5330.26 5939.22 4668.8 5125.17 4859.01 5524.45 7133.44 3953.26 4474.39 4658.59 5459.92 6478.35 5453.77 4104.04 5589.53 5593.79 5025.42 5196.08 4517.29 4495.75 4849.5 6171.01 5796.26 4603.04 4870.94 5271.88 6121.56 7168.2 3763.85 3419.07 5710.33 5344.44 6432.8 3186.07 4967.51 4369.86 5173.82 7212.97 5490.64 5034.34 3769.2 4507.46 5036.14 5603.68 4944.51 5610.95 5532.72 3220.8 5179.17 5579.39 5270.51 5148.1 5224.64 5949.73 4312.48 5527.13 6370.33 4278.57 5081.08 6318.25 6864.06 6008.81 4932.56 5192.49 3487.31 6643.4 3918.94 4674.9 5461.72 6599.28 6224.85 5368.66 4556.19 5648.78 6875.73 5226.42 4697.24 4983.43 6311.89 6734.39 5005.72 5368.52 5155.28 5062.77 5388.73 4884.93 5205.38 4600.71 5262.79 4494.15 5035.71 4710.88 5300.17 4057.4 5534.23 4781.9 6815.96 4441.91 5828.25 4725.11 4215.05 4271.93 4604.1 5076.11 5990.75 5600.21 5467.51 4625.53 4096.47 5114.67 5353.66 2638.82 5030.33 5234.2 4965.24 6379.38 6257.79 5353.23 6229.83 4468.26 5578.18 5293.37 5933.54 5559.79 5879.24 4571.74 4096.86 3622.48 5001.51 5115.42 5482.76 4082.4 3720.7 3745.02 4211.36 5698.53 3604.31 4450.49 3468.45 5635.32 4526.34 4316.45 5409.08 5042.75 4598.92 5241.22 6647.08 4979.52 5490.75 4407.79 5214.63 3495.68 5783.94 5352.24 7362.42 4202.77 5836.14 5473.05 5537.34 5884.99 5726.42 4433.12 2549.95 3392.26 4361.24 5138.93 6406.8 7086.69 6170.9 4436.48 6081.3 5117.52 5615.35 3967.76 6213.24 5987.88 5942.45 4228.53 4150.76 6123.46 6142.88 5111.26 4574.54 4949.55 4764.83 1969.87 3957.38 4841.28 5507.38 6889.5 4416.87 4052.43 4896.67 3934.11 6025.77 4466.22 5339.6 5917.08 5483.37 3626.86 6371.96 5322.07 5770.07 5101.6 4282.11 6589.13 2347.41 4542.16 3543.37 2030.03 5628.97 5527.27 5104.39 4612.13 5846.6 5327.05 5438.55 4434.65 5977.66 4523.81 5106.33 5198.94 4028.35 5464.05 2980.31 5740.78 3148.79 4796.12 5997.91 5385.86 6791.86 4209.0 4930.72 5728.58 4887.73 6297.99 5378.24 3856.73 5817.74 5887.71 5661.6 4827.61 5285.75 5385.03 5481.64 5673.75 5360.67 6263.3 3422.29 4501.05 4537.03 6548.29 4114.2 3990.96 4326.06 5034.46 5793.12 5469.17 5061.75 4373.2 6022.78 4087.32 6647.85 7025.09 5161.74 7336.37 5099.9 6945.69 5118.86 4304.64 4733.79 5833.78 5758.98 5254.49 5288.64 3579.59 6161.94 5057.59 4461.14 5285.6 5615.06 5490.54 3132.34 5203.54 4047.95 6142.94 5001.69 6581.56 3980.46 5383.9 5158.44 3886.56 4496.51 6153.71 5418.12 5934.05 4714.66 6771.18 4984.17 4656.01 4037.86 5602.62 5714.51 4484.78 5157.73 5847.91 4109.44 4934.66 4903.84 4290.49 6688.53 5209.5 5065.74 5791.25 4873.23 5410.6 5453.2 6348.93 6824.53 4742.82 4332.64 4422.23 5232.16 4820.68 6031.22 5485.84 6424.77 4538.89 5918.95 5689.56 6556.86 3242.31 6099.28 3234.26 5372.25 4169.15 4778.37 5134.17 5968.54 4904.35 5592.54 3247.97 5124.34 4904.37 4358.81 4651.64 5729.92 5757.29 5016.46 6224.13 4761.84 3769.24 3661.67 5517.65 4009.68 4622.73 2569.12 4161.32 6351.89 5932.28 2960.5 4298.7 3902.48 4183.4 6030.39 4905.53 3799.01 4823.06 7392.65 5319.1 3757.23 6828.8 6883.86 3350.99 3820.19 4979.5 4745.37 4065.28 5939.29 5418.98 5575.11 4052.49 5061.74 5326.03 6189.67 4948.96 5256.82 4061.87 4013.86 5165.31 3798.09 4288.5 5715.51 3721.69 4511.05 3456.3 6561.94 5259.21 5092.93 5881.93 2803.01 4444.0 6182.19 5327.39 5781.62 4981.81 4138.59 4970.55 4938.33 4621.33 4541.22 4946.08 4984.01 3539.68 6217.33 4557.1 5927.1 6175.27 5876.51 6731.89 4733.41 2932.52 5264.83 3901.53 5136.51 6815.51 5313.86 4457.05 3989.26 3618.64 5703.84 4335.79 5453.69 5797.32 5432.04 3921.27 3702.45 5265.63 4898.29 4431.06 5730.2 4830.13 3494.16 5370.9 4074.16 4529.77 4325.13 6172.27 5390.33 5078.73 5278.54 5729.0 5192.92 5275.57 4179.87 4786.66 5891.25 5370.1 5129.4 5114.51 3303.49 4655.37 5585.25 5256.75 4672.86 6530.78 5560.23 4975.32 3043.77 5237.55 3909.94 5088.64 6589.8 6920.92 3729.16 3038.91 3783.36 4181.93 3922.28 6570.43 3445.92 5236.69 4586.82 6026.04 6200.05 5859.17 4034.41 5522.34 5771.98 4420.35 5717.45 5117.83 5268.27 4645.93 5448.64 4585.37 6417.61 5395.12 5783.69 6074.39 5317.83 3483.61 4256.08 4460.89 4399.52 4554.24 3939.96 5910.66 7415.84 4637.3 5141.03 4840.44 8123.59 5765.14 4767.54 5121.08 2927.84 4696.03 6177.68 4605.39 6270.59 2848.44 6045.26 6500.45 4907.55 4103.76 4286.61 4094.63 4603.66 4969.68 6636.43 5431.14 6298.8 3689.24 5178.07 5189.91 5777.26 4171.02 3530.82 7012.36 5028.06 4886.99 4002.99 5159.67 3161.1 5764.52 5684.88 6523.78 4645.86 4045.67 5620.88 4941.52 5900.0 4262.74 6241.77 3783.79 5317.19 4248.14 5279.19 4016.6 5821.49 7050.08 5580.44 5998.13 5095.52 4746.15 3720.38 4758.84 4731.37 5023.61 4068.41 3976.0 6463.71 5059.37 4139.39 5783.38 6264.03 3562.8 4174.22 3573.84 4067.89 6294.09 4571.57 5131.07 4121.07 5524.28 3133.28 5731.43 6353.81 4150.44 3518.14 5044.68 2649.69 5899.78 5000.74 5772.57 4813.81 5244.95 4634.25 5901.8 6351.48 3830.7 6210.0 5350.9 4262.52 6738.9 5992.06 4157.1 8052.53 4867.12 6044.01 6520.19 1458.87 5734.07 3997.68 6033.28 4819.83 4801.16 5071.38 5616.66 5688.77 4698.7 5368.28 6229.64 4220.43 6263.87 5743.8 6666.34 5084.76 6605.11 4757.87 3557.46 5971.95 5652.73 3979.46 5151.19 6321.97 6509.54 6119.0 3792.06 4293.3 5128.59 5587.3 3572.73 4864.38 3770.22 4390.64 5150.84 4608.01 5087.97 6005.95 4308.49 4930.17 4581.1 4745.44 4085.96 5762.82 7360.12 6223.98 5462.6 5617.29 3035.06 4262.19 4597.88 4878.93 6275.25 6892.33 4505.3 4452.36 4832.21 4511.34 5009.21 4742.35 5394.79 5645.54 5264.08 4151.74 4526.87 4691.01 5192.82 4594.89 5245.95 5821.42 4515.02 3463.53 6126.03 2970.24 4197.87 5105.54 5462.1 3414.67 6032.45 5444.36 4026.03 6908.32 3467.11 4817.75 6153.26 5637.53 3882.37 4095.4 5188.57 3873.79 5357.33 5432.4 5037.58 7430.48 5545.68 4970.12 4967.93 6369.66 5973.57 6241.48 5957.82 6286.27 6327.54 5507.07 4802.36 5466.13 5327.71 5257.38 5075.23 4975.56 7282.36 3826.01 4645.91 5581.01 6834.92 6379.33 5130.57 5402.45 3985.93 6412.84 2589.19 6071.59 6079.55 5485.61 4993.49 5310.33 6583.37 3688.83 3402.44 4848.98 4491.96 5184.98 4467.51 5339.82 4519.03 5460.57 5110.27 5703.34 4612.68 6668.98 6649.52 4232.33 4939.56 4747.68 5770.92 3093.38 4845.91 2002.78 5631.32 6322.0 5793.14 4491.26 4609.65 5704.61 5410.73 4379.91 4574.03 5290.37 4227.66 5850.38 4730.97 3677.85 5214.71 4677.84 4924.52 4811.11 4866.8 6044.69 5658.05 6593.1 4000.51 5011.37 2827.92 4441.44 4232.44 5336.61 5563.09 4848.15 4439.09 5523.81 4718.61 6697.45 5717.67 5515.59 5252.37 3224.81 4499.54 3775.38 4046.22 6457.89 5640.67 6572.17 6080.69 5555.89 4766.47 4871.1 5678.08 5922.62 5125.45 4414.09 5191.29 3784.68 4188.16 3717.22 4654.92 2943.17 4880.78 4322.56 5509.09 5625.02 4829.77 3928.99 4444.92 6959.88 4125.75 5749.53 5090.48 5034.02 5582.28 5945.25 5181.31 3856.4 4696.06 4137.16 4937.36 5308.4 6581.13 4569.32 5537.61 6084.88 4397.06 4199.44 4053.12 4479.5 6261.67 3435.13 5065.78 4431.46 4521.42 3207.84 3977.98 6043.34 4128.93 4959.72 4712.17 3808.04 4723.71 4461.67 6126.5 4034.88 6007.1 6345.2 5488.96 5128.03 3720.92 5087.3 4942.63 6139.74 4975.57 7066.26 6150.31 3057.3 5873.62 4996.91 5379.52 3920.44 3768.62 5314.67 5563.47 5651.46 4066.36 3162.27 6033.93 5092.44 5516.37 5432.2 4612.4 3312.3 4746.19 6381.58 3282.57 4798.13 5648.59 4630.5 4432.32 4451.76 7885.41 5782.25 4104.97 4844.2 5114.61 3751.73 6118.13 3374.62 4926.62 3917.09 6009.93 5872.45 5270.1 4947.64 6305.9 6649.21 3470.69 4859.95 5286.55 4132.08 5522.18 5223.1 3873.72 5212.05 4592.49 3625.98 5479.86 6474.5 4702.32 4763.04 5971.9 5247.73 3746.62 4532.67 4876.37 4769.62 5260.13 4649.5 5985.75 5475.83 6189.29 5984.55 5672.46 5803.3 3228.27 4721.98 5252.82 3543.98 5056.26 5878.55 4014.44 6604.72 6002.77 3794.47 4610.55 4967.02 4614.49 5400.69 4462.5 5573.31 5004.68 4023.88 5348.11 4405.61 5108.84 3511.5 5067.92 4520.14 5357.14 3188.21 5919.27 4793.06 6637.38 6188.33 6111.23 6916.18 5786.06 4137.41 3868.69 5447.74 4450.51 6033.72 3851.47 4966.74 4959.94 1635.31 5639.4 6185.73 4083.24 6520.96 3771.91 5217.62 6178.19 4616.81 5715.25 5212.2 4611.21 5108.42 3354.94 6296.36 5237.27 5767.65 4750.76 4907.03 5497.27 4575.72 4081.77 4948.21 2181.29 4420.3 6332.64 6492.44 4083.1 3482.73 3996.93 5130.56 4957.99 4063.26 4997.89 4542.62 5093.28 6131.52 6009.88 4699.77 4850.49 4981.55 5144.23 6188.62 6153.07 4414.06 5944.52 4413.56 5050.2 5316.05 2513.38 4908.32 3995.08 5019.84 4810.74 3900.93 5784.38 4149.17 4329.8 5728.27 3074.49 5202.33 3956.24 7558.99 3393.59 4142.1 5043.14 5333.04 5445.91 4521.99 4812.59 6842.54 7115.67 5675.45 3361.11 6038.56 2807.46 5599.16 4179.8 3488.34 5658.35 5428.24 4487.51 4582.12 4295.25 7394.47 4729.45 4850.95 5374.09 6271.22 3421.81 5378.75 3920.64 6186.24 5822.7 3780.07 5466.49 4038.17 5007.41 3692.99 4907.48 6213.74 2329.93 4369.87 6938.87 5412.07 5512.57 4806.99 4813.55 5856.43 3839.0 3465.03 5349.85 5799.86 5172.1 4362.94 4469.82 6545.78 4870.14 4404.87 2932.2 5105.72 5003.49 3964.03 4216.33 5832.72 5617.91 4721.2 4987.01 4202.12 4706.31 2694.25 4735.99 4203.68 4739.56 4613.32 5145.39 3352.46 6351.95 5195.09 5345.05 7679.2 4881.51 4311.92 2626.41 6729.99 5093.41 6842.35 5464.34 3621.63 5801.89 5908.57 7296.47 5742.39 4821.41 4924.53 5616.11 4499.52 4028.13 3874.12 4457.73 6476.35 6260.58 4067.24 3053.19 6571.26 5580.95 3549.92 6598.99 4032.06 5246.81 5089.1 5888.95 5394.78 3463.34 5122.38 2853.68 5262.85 4998.37 5329.84 6559.82 3879.83 6565.95 4577.98 5043.34 5886.81 4246.24 6805.02 5354.48 5640.63 4900.26 6261.13 4167.55 4720.34 5244.47 5510.89 4731.16 6470.87 4495.33 5282.67 4159.89 5178.55 5146.69 6203.24 6818.23 4488.41 6679.12 5652.19 5806.74 6578.62 6284.12 4796.04 5229.56 6011.4 4672.34 6052.22 5376.41 5003.63 4695.7 4944.08 4082.01 5269.39 4305.35 5210.22 2451.27 3903.9 4444.95 5161.02 3124.49 6265.48 5003.81 6262.18 3818.37 4701.03 6225.05 5434.04 5200.1 3997.52 4444.54 5779.9 4909.74 5310.33 5299.03 6664.54 5161.73 3922.98 5259.48 4777.96 4803.4 6833.5 6608.94 2613.78 4780.16 3834.01 5738.37 4433.23 4813.24 5759.19 3113.64 4490.2 4304.75 5480.86 6139.9 4720.22 4313.38 5827.3 5250.56 3633.58 2468.16 6294.14 4339.97 5203.75 5169.09 4691.15 2459.88 4210.24 5470.67 5901.71 5225.11 5342.9 5252.22 5733.12 4962.35 6436.29 5402.81 4600.81 4919.13 5168.97 4124.33 5783.88 5002.38 6705.93 4865.11 5449.09 5502.14 4131.08 4465.56 5747.9 3864.19 4287.93 5315.71 6158.93 5081.65 4823.14 5438.5 4621.32 5699.4 3878.8 4698.94 3948.21 5669.15 5296.05 5263.86 3330.85 5056.32 5533.52 5410.33 4747.24 4380.86 5576.16 5648.02 3308.75 4439.17 5677.42 4929.35 5606.22 3943.77 5242.38 6081.35 5459.52 4609.98 5566.5 5663.36 4276.59 5579.04 5125.53 5994.21 5403.81 5082.25 6964.78 4374.05 5036.84 4565.36 5813.68 4025.08 4008.67 3618.53 5254.93 4770.21 3796.73 5417.07 3082.16 5656.84 6789.66 4739.41 5312.2 5847.27 4706.59 5734.84 3982.31 4950.07 4582.24 2832.83 4084.87 6036.99 3010.1 3825.98 4589.22 5087.03 4667.84 3906.41 4123.08 4512.6 4260.38 4636.45 4932.27 5638.51 6793.49 3563.33 6060.19 5536.0 6786.37 4333.23 4328.76 5561.63 5940.5 4358.06 5093.51 5647.93 4280.92 6201.49 5154.74 4605.61 6898.8 5386.95 6540.57 5332.11 4893.72 6004.72 4072.4 5373.78 5345.65 4489.18 5863.36 4632.75 5237.76 4994.98 4286.84 6423.96 6058.13 5894.69 6988.4 6635.51 4060.17 6051.35 5302.53 4909.13 4287.61 4867.13 4604.34 4863.27 2701.42 5442.79 5051.39 6673.92 5151.68 4884.94 5362.15 4455.61 4738.72 4752.31 5240.97 5569.85 5405.6 3929.35 4884.93 4759.38 6960.97 4287.15 5282.51 5504.65 5669.41 5732.11 5040.9 5596.68 8013.28 3846.55 5159.9 5283.65 4644.68 2892.36 5981.54 5911.29 5416.41 4694.27 6760.64 2515.5 5177.88 5551.79 6981.47 3916.15 4474.96 4758.76 4790.63 5259.29 3584.05 4916.75 4818.53 5097.85 5584.64 6189.04 6224.64 4221.03 3799.55 5082.66 4550.77 4337.93 3550.88 4345.51 4048.73 6223.33 3860.8 5145.13 3747.96 5611.29 4521.88 6568.45 5004.22 4601.54 7263.57 4696.92 5705.96 6437.99 5739.69 6632.04 7360.62 4977.64 4985.45 4983.56 5699.51 2489.44 5499.37 4883.13 4836.76 4752.94 5551.09 3950.53 4501.1 5581.47 4384.91 6550.61 4987.01 4713.56 6094.34 6779.82 3999.81 5543.67 6210.48 6377.45 4182.05 4502.12 3255.93 6853.07 6327.61 4633.59 5733.59 5575.8 5268.93 6874.6 5106.9 5306.31 5523.96 4223.53 4733.37 4535.94 3037.72 4523.9 5126.08 5604.0 3760.4 4951.02 3919.47 4602.7 3783.35 4868.66 4037.16 4004.39 6395.63 4987.48 5943.61 4248.58 5479.17 4542.25 5020.37 4414.23 5233.88 4849.21 4785.55 3793.83 5245.4 6189.81 5367.05 4449.73 5647.11 4088.72 3945.62 3743.85 6236.46 5342.17 6379.3 5015.67 3795.63 5189.4 4576.71 6538.04 4894.15 6157.59 5201.3 5848.41 4090.28 4246.83 5438.6 7370.52 4726.5 5467.05 3724.23 5103.3 4963.88 5888.94 4727.98 3832.09 5175.88 4122.2 5267.65 4516.26 4790.16 3509.34 5360.88 3731.58 3166.37 5369.42 5207.08 5205.53 4714.52 4587.19 5543.05 6028.89 5333.16 4888.17 5755.98 5392.85 5077.2 4274.05 5275.27 4277.54 5529.09 4531.46 5925.82 5448.68 4739.5 4072.95 4491.62 3865.5 3695.72 3647.26 
SCALARS Velocity float 1
LOOKUP_TABLE default
1.84784 1.80449 1.39215 1.35307 1.2829 1.47854 1.36669 1.25441 1.62369 1.50125 1.30301 1.29708 1.19377 1.1922 1.16651 1.51944 1.33203 1.59499 2.09992 1.24301 1.1566 1.13133 1.37075 1.25538 1.38674 1.4154 1.44864 1.40181 1.32176 1.42731 1.79236 1.93479 1.55914 1.08979 1.49689 1.48675 1.50901 1.50511 1.33975 1.28088 1.26236 1.30392 1.26712 1.20643 1.19537 1.22943 1.27712 1.22816 1.22352 1.18379 1.1892 1.19567 1.21751 1.18465 1.19829 1.21008 1.19545 1.20831 1.19957 1.19892 1.22483 1.18925 1.19243 1.20739 1.2372 1.19178 1.28861 1.22008 1.48611 1.54714 1.397 1.6586 1.55391 1.19199 1.25273 1.37607 1.26971 1.26015 1.19198 1.57788 1.66877 1.05339 1.04041 1.34706 1.24028 1.21182 0.98583 0.98117 0.371889 1.46679 1.27407 1.35638 1.33179 1.26302 1.40894 1.37303 1.32157 1.33291 1.40436 1.33886 1.32316 1.22112 1.21764 1.27183 1.18592 1.22442 1.25825 1.19474 1.2064 1.20775 1.18257 1.20925 1.21377 1.19986 1.20809 1.21022 1.2019 1.21142 1.21498 1.2038 1.18995 1.22302 1.20234 1.19236 1.23879 1.19178 1.30349 1.26321 1.38527 1.45651 1.57803 1.4586 1.16703 1.31909 1.32405 1.24294 1.6729 1.92272 0.589378 1.49294 1.37123 1.29184 1.28694 1.2113 1.18238 1.15928 1.01315 1.00758 0.957878 0.784561 1.09041 0.840916 0.466702 1.99886 1.38815 0.956565 1.20587 1.1314 1.19793 1.16316 1.176 1.26919 1.39284 1.20838 1.33322 1.38988 1.35846 1.19507 1.28252 1.1883 1.23107 1.23204 1.2277 1.11162 1.21334 1.23291 1.1934 1.19465 1.19584 1.20713 1.18391 1.19158 1.21611 1.21456 1.20251 1.20866 1.20867 1.21334 1.20916 1.20157 1.20451 1.21144 1.20131 1.21387 1.20502 1.17093 1.19271 1.18954 1.26732 1.19326 1.30046 1.22755 1.26887 1.2078 1.27579 1.47016 1.43979 1.48704 1.21748 1.43467 1.40064 1.30569 1.39575 1.02033 1.15577 1.17755 1.26997 1.18827 1.21824 1.17959 1.15893 1.17236 1.02424 1.02043 1.03239 1.05428 1.07574 1.02741 0.937132 1.02834 1.18135 1.01563 1.285 1.25912 1.22581 1.14304 1.11664 1.27277 1.44762 1.23813 1.36498 1.35325 1.22154 1.31407 1.27255 1.18133 1.23262 1.24207 1.15671 1.27855 1.21569 1.20512 1.22947 1.1524 1.22403 1.19511 1.22577 1.19202 1.21635 1.21666 1.20722 1.20876 1.20079 1.21313 1.24677 1.25976 1.2477 1.19178 1.18679 1.24016 1.1665 1.27027 1.25977 1.08304 1.31462 1.32914 1.33914 1.31814 1.10643 1.12358 1.22076 0.725831 1.10797 1.26901 0.817409 1.08194 1.0404 1.1062 1.05441 1.01588 0.983403 1.00225 1.00235 1.0213 1.04867 0.999246 1.02725 1.00752 0.967689 1.01189 1.12711 1.21836 1.25867 1.35565 1.38502 1.47874 1.367 1.30662 1.18516 1.27847 1.29504 1.1758 1.19197 1.23584 1.24095 1.13434 1.20937 1.18973 1.22488 1.20369 1.15295 1.20703 1.22501 1.20427 1.14876 1.21501 1.19044 1.21276 1.20336 1.25376 1.21483 1.20703 1.23757 1.22737 1.19401 1.27689 1.28585 1.23363 1.23052 1.23842 1.20032 1.17533 1.16113 1.2088 1.44464 1.31428 1.12622 1.13027 1.27878 1.38011 1.37759 1.35545 1.27373 1.23639 1.1451 1.14513 1.05082 0.911201 0.763674 0.780667 1.00349 1.04858 1.03498 1.0168 1.01576 0.992087 0.999653 0.996791 0.986454 0.976273 0.952167 0.968284 0.949898 0.96236 0.936739 0.967099 0.993354 0.990432 1.00845 0.980087 0.959677 0.866939 0.986312 1.15003 1.1265 1.28082 1.18978 1.29309 1.46772 1.0812 1.05665 1.09048 1.29276 1.15694 1.32859 1.3367 1.26679 1.11326 1.03039 1.20155 1.18357 1.18163 1.19656 1.23805 1.26996 1.30091 1.1326 1.18479 1.20944 1.22905 1.18973 1.20081 1.18689 1.18959 1.20807 1.20995 1.21216 1.17793 1.22097 1.20164 1.19057 1.28334 1.24057 1.33829 1.16294 1.20682 1.19381 1.24401 1.34343 1.28058 1.15686 1.12372 1.25586 1.23306 1.29828 1.16226 1.35708 1.09124 1.24411 1.2372 1.12204 0.864512 0.865169 0.803471 0.878747 0.791523 0.889958 0.89244 0.938256 0.955228 0.974341 0.955836 0.964812 0.948285 0.938032 0.924458 0.951339 0.94123 0.93236 0.938345 0.934534 0.946046 0.932279 0.846325 0.813269 0.957386 1.10378 1.21126 1.1975 1.2075 1.08916 1.07542 1.0971 0.999877 1.10624 1.27788 1.09919 1.15665 0.970088 1.12971 1.19838 1.20282 1.19836 1.16374 1.22597 1.30618 1.13832 1.13443 1.14143 1.22196 1.23344 1.19358 1.17057 1.18784 1.17181 1.18661 1.20931 1.21054 1.20543 1.18165 1.22445 1.19997 1.18283 1.19284 1.17911 1.18413 1.23017 1.30958 1.14494 1.1661 1.19743 1.22565 1.2197 1.2605 1.21045 1.24646 1.16687 0.997759 1.22057 1.18377 1.17431 1.20698 1.18196 1.07318 1.09647 1.1586 1.01633 1.08615 1.03392 0.965028 0.938862 0.938813 0.915075 0.936857 0.941296 0.955358 0.96762 0.951399 0.95248 0.930398 0.928326 0.917937 0.903422 0.840498 0.890553 0.949807 1.03009 0.911538 1.00028 0.945383 0.886482 0.891303 0.905942 0.837478 0.935086 0.841429 0.842717 1.02345 1.12306 1.25032 1.1879 1.1905 1.20839 1.09683 1.07395 1.08027 1.01454 1.11175 1.04643 1.00809 1.09495 1.18695 1.12946 1.20733 1.23051 1.20931 1.24774 1.22952 1.15923 1.30715 1.14659 1.12861 1.14997 1.21662 1.20845 1.17528 1.18462 1.19924 1.19143 1.16788 1.18819 1.16749 1.20025 1.20692 1.18676 1.22711 1.20321 1.22111 1.21958 1.20955 1.29314 1.08411 1.22853 1.19938 1.22281 1.16225 1.14953 1.21489 1.32701 1.19346 1.12775 1.03921 1.13124 1.173 1.14608 1.15424 1.1632 1.06247 1.02134 0.978772 0.970351 0.934576 0.90755 0.943232 0.964571 0.994965 0.91892 0.885765 0.877156 0.89481 0.932441 0.842666 0.880798 0.916517 0.995868 0.983741 1.10256 1.01995 0.847333 1.07697 0.525128 0.897523 0.933243 0.927972 1.01879 1.20468 1.25258 1.18414 1.18344 1.1877 1.10897 1.03931 1.03267 1.03943 1.05887 1.10744 1.09613 1.07365 1.17706 1.14324 1.1509 1.12458 1.13392 1.00737 1.25809 1.2659 1.10533 1.15499 1.21793 1.21463 1.20863 1.19253 1.17994 1.19884 1.20186 1.17904 1.1954 1.20197 1.16563 1.1914 1.20972 1.18884 1.17985 1.20261 1.22266 1.22247 1.26561 1.24031 1.24712 1.16184 1.27645 1.21655 1.10118 1.23488 1.15438 1.13299 1.12216 1.08343 0.845127 1.2064 1.46963 1.4295 1.22953 1.17211 1.21104 1.16393 1.13663 1.13595 1.15839 1.20078 1.11338 1.09684 1.0762 1.04553 0.996484 1.00886 0.948346 0.921476 0.931663 0.90841 0.959063 0.947977 0.986134 1.03267 1.05575 0.851512 0.883558 0.89668 0.962603 0.893176 0.89905 1.00159 0.825299 0.851403 0.850222 0.868096 0.868231 0.911908 0.905877 0.929482 0.908093 1.02462 0.751401 0.584687 0.897579 0.752205 0.89207 1.01214 1.02476 1.16471 1.16434 0.975231 1.10674 1.239 1.01061 0.988651 1.06414 1.05442 1.0248 1.01913 1.05099 1.06865 1.14421 1.07596 1.12594 1.07046 1.29837 1.12515 1.09867 1.20869 1.20583 1.17235 1.14624 1.26571 1.15701 1.23502 1.19608 1.21693 1.22196 1.19099 1.22374 1.22481 1.20236 1.1799 1.20181 1.17436 1.1943 1.20328 1.19516 1.18597 1.1943 1.18182 1.22216 1.19274 1.2254 1.18412 1.05087 1.20753 1.29925 1.29379 1.16517 1.13691 1.12037 1.13175 1.15336 0.565774 1.14472 1.20446 1.26721 1.1178 1.12872 1.15928 1.09718 1.14067 1.0338 1.00957 1.10074 1.11018 1.14174 1.1115 1.27323 1.08451 0.982798 0.906784 0.973694 1.0427 1.18717 0.878728 0.77112 0.906126 0.853044 0.807981 0.737213 0.770394 0.725731 0.825575 0.847576 0.887688 0.919832 0.909461 0.890613 0.838321 0.81515 0.775216 0.744394 0.66807 0.843918 0.951884 0.908104 0.889717 0.962058 0.600063 0.365528 0.932777 0.943833 0.892829 0.892184 0.977629 1.03106 1.00127 1.09309 1.03841 1.01064 1.01191 1.12119 1.10585 1.14786 1.13114 1.18867 1.12956 1.00654 1.04064 1.29213 1.19458 1.37108 1.22456 1.22207 1.29541 1.17384 1.15938 1.30159 1.17061 1.23064 1.1968 1.18302 1.18852 1.21974 1.20337 1.19561 1.17776 1.19421 1.18261 1.20002 1.19589 1.1973 1.19396 1.19021 1.17187 1.16187 1.17507 1.06186 1.19238 1.18546 1.21568 1.13636 1.11402 1.29541 0.691551 1.10693 1.13545 1.17828 0.897646 1.10414 1.22268 1.13214 1.04547 0.904579 0.952993 1.01686 0.952069 1.0223 1.10006 1.09071 1.1119 0.850746 0.84783 0.888641 0.876387 0.894408 0.903581 0.905216 0.916085 0.908936 0.562503 0.447308 0.73663 0.740016 0.405417 0.747987 0.838149 0.790576 0.769276 0.681352 0.707816 0.79632 0.724835 0.849862 0.850227 0.859467 0.897435 0.877854 0.914879 1.0052 0.855448 0.688157 0.713577 0.766589 0.799633 0.745324 0.841625 0.846454 0.919081 0.831497 0.718735 0.621192 0.77119 1.00111 0.985829 0.995618 1.03979 1.06536 1.04678 1.01446 0.965399 1.15526 1.11197 1.13198 1.16428 1.1053 0.987389 1.1651 1.29473 1.14975 1.15294 1.22791 1.11837 1.13987 1.15964 1.18479 1.19157 1.19178 1.1901 1.22011 1.17927 1.20138 1.19187 1.19588 1.20337 1.19623 1.19487 1.19716 1.19557 1.26719 1.10196 1.19135 1.1293 1.23982 1.20371 1.13168 1.12595 1.19732 1.1478 1.0795 1.13592 1.0917 1.13092 1.33301 0.953932 1.11993 0.823964 1.0053 0.94792 1.19979 0.854358 0.929525 1.00728 1.22535 1.11207 0.983937 0.950528 0.873626 0.894582 0.927533 0.941331 0.956842 0.797579 0.586107 1.06747 0.543313 0.847762 0.722653 0.936787 0.809098 0.673232 0.766664 0.753536 0.736065 0.738545 0.745572 0.585861 0.685015 0.654753 0.628605 0.839272 0.731806 0.757346 0.762706 0.995527 0.768348 0.816064 0.712709 0.865983 0.763794 0.869269 0.85031 0.861106 0.802936 0.849043 0.950714 0.708065 0.734467 0.936958 1.21555 0.998633 0.99935 1.01486 1.03106 1.10643 1.14006 1.0921 1.10968 1.60683 0.834473 1.01288 1.05919 1.1711 1.20955 1.26136 1.26584 1.22971 1.20779 1.18083 1.21901 1.19718 1.12644 1.11408 1.14772 1.17512 1.21884 1.19737 1.19234 1.20542 1.1623 1.18389 1.19546 1.19175 1.19842 1.19784 1.19267 1.20214 1.20152 1.20769 1.20248 1.14146 1.1563 1.11823 1.19095 1.23233 1.23049 1.19054 1.15079 1.07165 1.09298 1.10716 1.10647 1.39357 1.20686 1.0919 1.10534 0.868876 0.976283 0.979849 1.05611 0.910104 0.925876 0.942428 0.959934 0.760867 0.964815 0.978861 0.927838 0.957985 0.965219 0.957294 0.98646 0.87506 0.85959 1.15478 1.23636 0.89721 0.638419 0.605385 0.657116 0.663739 0.664162 0.69708 0.697415 0.723984 0.741564 0.724288 0.751012 0.735136 0.808934 0.735017 0.538782 0.609043 0.535801 0.750771 0.622787 0.69972 0.744069 0.731685 0.739302 0.604969 0.508242 0.443699 1.00048 0.834275 0.732193 0.816704 0.730069 0.739245 0.791997 1.98492 1.27651 1.02273 0.976278 0.951839 0.959045 0.996158 1.04133 1.04706 1.06736 1.01277 1.15014 1.17875 1.06045 1.0267 0.761283 1.01463 1.11066 1.29554 1.1836 1.23328 1.24196 1.21527 1.15717 1.15724 1.16643 1.18553 1.17325 1.22832 1.12514 1.19421 1.20361 1.18049 1.16516 1.22878 1.19178 1.19333 1.17626 1.20096 1.189 1.18193 1.19634 1.18811 1.1984 1.20509 1.14794 1.1523 1.1364 1.18039 1.16987 1.21395 1.21882 1.16504 1.19852 1.11969 1.14988 1.11709 1.09388 1.14665 1.30235 1.19373 1.14577 1.09143 0.914179 1.00859 1.00869 1.02635 0.887964 0.906324 0.968349 0.831363 0.809312 0.97766 0.99141 0.892243 0.960292 0.939859 0.731378 0.759166 0.827519 1.12444 1.02405 1.27028 1.04965 0.696433 0.779375 0.726116 0.685017 0.697091 0.7317 0.731132 0.775597 0.746092 0.835186 0.679966 0.802626 0.668101 1.08974 0.361011 0.490903 0.663811 0.787578 0.405183 0.518291 0.346097 0.242673 0.59136 0.551525 0.800992 0.766846 0.733076 0.665634 0.561415 0.442744 0.663119 0.859197 0.854485 0.786354 0.755193 0.668642 1.27402 0.952124 0.858776 0.91278 0.995749 0.990076 1.03211 1.01462 1.04286 1.10949 1.13853 1.01903 0.977942 1.04734 0.921241 0.838378 1.25336 1.1595 1.23999 1.22423 1.1805 1.14427 1.13835 1.18065 1.16743 1.15811 1.23094 1.21465 1.2062 1.20456 1.18576 1.1762 1.17581 1.20564 1.18408 1.19843 1.18123 1.18494 1.18441 1.19521 1.19048 1.17179 1.18899 1.20025 1.15912 1.15057 1.1376 1.17363 1.21656 1.21319 1.20524 1.22334 1.15126 1.13933 1.12126 1.01538 1.04022 1.15896 1.01802 0.839808 0.951893 0.993331 0.97027 1.07844 1.00366 1.05771 1.10034 0.876015 0.93779 0.924282 0.821868 0.812934 0.820583 0.946103 0.884274 0.837532 0.861608 0.900169 0.892454 0.925993 0.938951 0.91761 0.905609 0.822118 0.806927 0.955481 0.832715 0.724025 0.740589 0.688946 0.669757 0.658662 0.691622 0.670062 0.635694 0.78368 0.866942 0.534775 0.278054 0.251669 1.39498 1.01456 1.30539 1.19777 0.238277 2.24225 0.353194 0.501813 0.425756 0.323381 0.214319 0.572633 1.05376 0.793734 0.818974 0.755286 0.734548 0.661322 0.465956 0.443597 0.85359 0.835749 0.852782 0.845877 0.814728 0.768263 0.907261 1.07957 0.943741 0.910397 0.844328 0.899553 0.951967 0.938198 0.92716 0.99988 0.99703 0.954603 1.05195 1.17296 0.981217 1.16 1.09732 1.07968 1.10799 0.890119 0.89504 1.20671 1.21068 1.19639 1.10856 1.09225 1.0422 1.26311 1.18668 1.15777 1.15812 1.13362 1.1309 1.1793 1.14539 1.16832 1.1776 1.19879 1.18097 1.17585 1.18428 1.17998 1.19688 1.18912 1.18618 1.19337 1.20888 1.18401 1.13714 1.16367 1.13855 1.15696 1.18911 1.20883 1.11564 1.2122 1.22407 1.16046 1.17981 1.13273 1.13583 1.26112 1.36965 1.28283 1.13497 1.40357 1.04279 0.965419 0.903024 1.01795 1.03053 1.08793 0.990371 0.979665 0.970294 0.968934 0.858612 0.805096 0.864555 0.867644 0.881363 0.911677 0.961608 0.923739 0.794332 0.827279 0.822446 0.749707 0.762914 0.720044 0.737413 0.717133 0.738456 0.553612 0.649815 0.650038 0.621451 0.239175 0.458096 0.368401 0.50883 0.672436 0.482759 0.560231 0.993965 1.13312 1.60683 0.21596 0.27878 0.389634 0.402152 0.591517 0.564381 0.365788 0.871764 0.231946 0.975718 0.72495 0.689902 0.572528 0.603261 0.967201 0.455506 0.797265 0.636448 0.820726 0.900668 0.905634 0.900388 0.873242 0.898228 0.88591 0.901549 0.866348 0.884309 0.916173 0.90799 0.913458 0.887869 1.07839 0.974283 0.95164 1.10366 1.07036 1.01897 0.991027 1.13982 1.09897 1.203 1.12085 1.07441 1.06745 1.19048 1.16666 1.14095 1.12786 1.11332 1.18028 1.189 1.17812 1.16959 1.20429 1.18719 1.18342 1.20976 1.17443 1.19642 1.1934 1.18889 1.19115 1.19036 1.2122 1.15562 1.15633 1.1782 1.17487 1.16752 1.15529 1.16363 1.192 1.1261 1.05286 1.1922 1.12006 1.01588 1.09911 1.16726 1.14137 1.11508 1.39402 1.16617 1.04158 0.987767 0.988899 0.877415 0.971131 0.928121 0.942726 0.886458 0.974569 0.977013 0.89531 0.857059 0.89143 0.83874 1.02418 0.978748 0.756981 0.79637 0.825309 0.705171 0.766487 0.731757 0.715967 0.742166 0.646489 0.597283 0.637544 0.65333 0.476163 0.379519 0.269844 1.22158 0.562079 1.28403 0.497928 0.414466 0.557287 0.608559 0.512605 0.315861 1.25703 0.807214 0.975515 0.81605 0.688258 0.700596 0.883095 1.17647 0.764124 0.837409 0.975927 0.99907 0.884479 0.872832 0.870116 0.85114 0.843044 0.879692 0.901533 0.871337 0.893974 1.01135 1.09324 1.0059 0.982109 0.957898 1.08402 1.03814 1.05358 1.08428 1.08255 0.999666 1.11586 1.13359 1.10399 1.0194 1.11 1.18078 1.13939 1.1486 1.13 1.19635 1.1851 1.15985 1.16993 1.19604 1.17274 1.19118 1.18363 1.21364 1.18381 1.20833 1.1775 1.19032 1.19171 1.18298 1.16299 1.17947 1.17243 1.18184 1.15858 1.1692 1.18554 1.12434 1.1728 1.16491 1.10618 1.05788 1.06329 1.09449 1.13177 1.14159 1.34653 1.08998 1.06119 1.03493 1.01727 0.9307 0.942428 0.971133 0.934288 0.969749 0.997461 0.937214 0.959645 0.934779 0.88796 0.999136 1.18832 1.16718 1.24221 0.883991 0.884033 0.941861 0.883779 0.829936 0.655773 0.729159 0.76207 0.646236 0.733771 0.694511 0.540864 0.456514 0.550515 0.362696 0.355072 0.378281 0.713775 1.00461 1.07242 0.710128 0.562327 0.582338 0.604214 0.684074 0.413779 0.683616 0.754656 0.692946 0.713229 0.740962 0.731197 0.72499 0.781228 0.627223 0.487483 0.781246 0.904746 0.937666 0.970576 0.888726 0.845574 0.856329 0.848175 0.825927 0.926437 0.945462 0.975608 1.04586 1.07508 1.01876 0.993906 0.971177 1.06604 1.10013 1.073 1.15331 1.13942 1.16685 1.12645 1.04287 1.1669 1.177 1.21215 1.16634 1.17146 1.09438 1.18046 1.18754 1.18237 1.1791 1.17749 1.18537 1.18216 1.20077 1.20282 1.19053 1.19472 1.18023 1.18399 1.17756 1.17302 1.18764 1.17373 1.18168 1.16159 1.161 1.1589 1.20935 1.20691 1.18309 1.09621 1.09822 1.10822 1.14757 1.09781 1.4108 1.14519 1.11712 0.985188 1.07345 1.05913 1.03998 1.07077 1.03023 0.970089 0.924865 1.00668 0.973265 0.948157 0.969342 0.941877 0.95671 0.678932 1.1083 0.909064 1.1152 0.655224 0.771317 0.915265 0.75471 0.66419 0.789163 0.729775 0.766073 0.629902 0.937943 0.447276 0.429452 0.214449 0.413709 0.706962 0.860794 0.867652 0.799743 0.574843 0.844371 0.609096 0.854363 0.804036 0.718207 0.81789 0.722693 0.734022 0.739171 0.71981 0.664667 0.743165 0.667598 0.873113 0.927834 0.995456 1.00812 0.916203 0.835399 0.854356 0.855948 0.843965 0.825977 0.993852 0.862501 1.05071 1.07873 1.05278 1.00424 1.1305 1.04104 1.02182 1.03525 1.00701 1.01718 1.0082 1.11093 1.09463 1.1459 1.16404 1.15261 1.15022 1.10064 1.12645 1.11596 1.18988 1.19178 1.15851 1.16089 1.17236 1.18067 1.18301 1.18955 1.19111 1.16015 1.18899 1.1829 1.18352 1.19183 1.18629 1.20194 1.19232 1.1959 1.19143 1.18693 1.1806 1.1799 1.16526 1.16721 1.17698 1.1804 1.18135 1.1673 1.17284 1.17691 1.13703 1.10654 1.07639 1.09276 1.13485 1.09864 1.0076 1.10306 1.1127 1.09979 1.05736 1.01745 0.982005 1.09679 1.12425 0.996599 0.953926 0.984316 1.00999 0.894255 0.620005 0.839892 1.0357 1.28541 0.817776 0.8021 0.753262 0.782077 0.885325 0.807021 0.950718 0.9066 1.08217 0.927199 0.493905 0.836033 0.551953 0.65079 0.837351 0.861925 0.49523 0.652008 0.685868 0.903216 0.871979 0.885651 0.772807 0.87257 0.783425 0.768505 0.70119 0.664524 0.715277 0.831087 0.898296 0.883282 0.922527 0.985639 1.04707 0.893066 0.844458 0.854602 0.89435 0.831263 0.938465 1.10479 1.02381 1.10724 1.0976 1.06528 1.04798 1.02167 1.10851 1.09303 1.11981 1.11353 1.14744 1.13454 1.10435 1.10938 1.17239 1.1042 1.13744 1.1832 1.17835 1.16774 1.17684 1.18282 1.19458 1.19272 1.18817 1.18464 1.18935 1.19011 1.19167 1.18725 1.19178 1.18954 1.17487 1.18583 1.18577 1.17299 1.19345 1.19816 1.17907 1.17449 1.16238 1.17162 1.17758 1.19025 1.19432 1.14843 1.14308 1.11414 1.12606 1.17058 1.1231 1.10219 1.09536 1.03997 1.10456 1.1031 1.11095 1.09433 1.06168 1.08066 1.01808 0.935043 0.933539 1.09602 1.00934 1.07439 0.963981 0.90749 0.965975 1.17846 0.828731 1.02678 0.898211 0.304513 0.773556 0.839959 0.733708 0.725855 0.782233 0.79677 0.806871 0.764708 0.847849 0.934045 0.681074 1.13861 0.588687 1.31879 0.344478 0.643725 0.715182 0.430351 0.835172 0.629032 0.739499 0.679747 0.826896 0.90618 0.872665 0.844426 0.86444 0.831391 0.648824 0.7972 0.540458 0.786547 0.970656 0.830802 0.979371 1.07565 0.891069 0.90383 0.874061 0.873947 1.17571 1.05454 1.10171 1.08959 1.0667 1.06282 1.03978 1.11078 1.09138 1.14906 1.12304 1.11642 1.14019 1.1173 1.15359 1.20702 1.18732 1.16628 1.18769 1.1835 1.19593 1.19097 1.19589 1.19567 1.1892 1.19435 1.18792 1.18962 1.19241 1.18948 1.18365 1.17765 1.1865 1.18466 1.19922 1.18147 1.18246 1.19474 1.1906 1.18137 1.17533 1.18526 1.16608 1.17282 1.17994 1.13003 1.16462 1.14592 1.16092 1.11072 1.19178 1.10335 1.11298 1.14123 1.13576 1.11526 1.05079 1.09834 1.11159 1.03798 1.01567 1.02339 0.963202 0.87701 0.992903 1.12407 0.966973 1.04874 0.963504 1.13446 0.94885 0.898114 0.881838 0.811067 0.697918 0.773355 0.744664 0.768671 0.727563 0.901077 0.840575 0.934549 1.14824 1.40724 0.745039 0.697042 0.636614 0.528358 0.217343 0.635359 0.638461 0.817776 0.830113 0.910786 0.873535 0.87469 1.03329 0.870642 0.745241 0.933018 1.01416 1.27223 0.904259 1.01865 0.885158 1.03834 0.909352 0.905567 0.883936 0.84968 0.909115 0.850624 1.20408 1.10248 0.946257 1.03382 1.12123 1.10827 1.07026 1.05555 1.10373 1.07166 1.16869 1.13368 1.11219 1.13811 1.15016 1.14679 1.16684 1.17415 1.22127 1.18264 1.19578 1.18881 1.17671 1.1977 1.18556 1.19327 1.18343 1.19477 1.19189 1.18461 1.18662 1.18151 1.18443 1.1835 1.18379 1.18243 1.17975 1.18177 1.1715 1.18388 1.19057 1.18225 1.15562 1.15897 1.16193 1.15213 1.13177 1.13674 1.13441 1.10252 1.11189 1.10629 1.09292 1.10313 1.05664 1.05266 1.02377 1.0215 0.994002 0.913548 1.03603 1.1258 1.14691 1.06057 1.00115 1.07958 1.01322 0.932593 1.02186 0.822533 0.914451 0.868115 0.743962 0.707136 0.834505 0.925842 0.976889 1.06159 0.851039 0.982307 0.868757 0.747277 0.650194 1.13931 1.6675 0.0638371 0.83892 0.924354 0.837986 0.817571 0.869886 0.909433 0.909268 0.894631 0.964468 1.09176 0.852185 1.08526 0.939946 1.03766 0.902725 0.898795 0.923956 0.889561 0.890379 1.18405 1.02542 0.952224 1.04365 1.10902 1.07163 1.06462 1.14667 1.131 1.12753 1.11958 1.21256 1.14579 1.14352 1.1455 1.20122 1.18919 1.17743 1.19392 1.18938 1.18414 1.19453 1.19155 1.1885 1.18473 1.17979 1.1821 1.18168 1.1869 1.18384 1.18279 1.18076 1.18575 1.18574 1.16316 1.17067 1.19178 1.20395 1.20923 1.14256 1.13842 1.13839 1.12348 1.09991 1.1275 1.13781 1.11073 1.09547 1.07381 1.06846 1.01829 0.953822 1.04075 1.07577 1.09075 1.07365 1.00561 1.05533 1.03986 0.941332 0.864356 0.867162 0.709113 0.95727 0.923939 0.957011 0.858846 0.832283 1.37837 0.122827 0.881572 0.935261 0.898885 0.836932 0.822224 0.868376 0.95726 0.928124 0.944323 1.00894 1.07961 0.868477 0.986286 1.03017 0.982255 0.872362 0.924776 0.908006 1.01588 0.918277 0.968397 1.1442 1.11566 1.12773 1.23038 1.10632 1.12403 1.07799 1.08035 1.11042 1.12082 1.13037 1.11146 1.15332 1.15795 1.15403 1.16605 1.17899 1.17877 1.17344 1.18878 1.19362 1.18042 1.17089 1.19506 1.19405 1.19497 1.19234 1.19178 1.18684 1.18021 1.18693 1.1845 1.18398 1.1872 1.18472 1.18342 1.18276 1.17427 1.17213 1.1766 1.17798 1.18109 1.19092 1.19184 1.17494 1.18486 1.20358 1.16012 1.16467 1.146 1.14105 1.09755 1.12496 1.12664 1.14097 1.16164 1.11571 1.09946 1.07367 1.08185 1.01022 1.02283 1.01509 0.952885 1.03822 1.06366 1.07118 1.05911 1.03568 0.98157 0.902929 1.03766 1.04326 0.874783 0.964587 1.13224 1.10414 0.930401 0.894825 0.89192 0.912239 0.929225 1.51691 0.359001 0.990658 0.930526 0.918302 0.870531 0.830213 0.824991 0.833369 0.92896 0.928225 0.968236 1.00165 1.04426 1.0567 1.05844 1.05916 0.994216 1.07697 1.097 0.916371 1.00063 1.07355 0.978904 0.974142 1.00114 1.04529 1.17009 1.02778 1.13095 1.06334 1.11678 1.0576 1.12537 1.07177 1.08983 1.11157 1.17507 1.17335 1.14888 1.13501 1.1193 1.17056 1.16584 1.15844 1.173 1.16203 1.19134 1.16854 1.18254 1.17214 1.17655 1.19634 1.19522 1.18586 1.1937 1.18598 1.18618 1.19192 1.18317 1.188 1.18702 1.18526 1.1831 1.17602 1.17742 1.19069 1.18383 1.19459 1.17264 1.17919 1.18074 1.1814 1.18122 1.17713 1.18926 1.13555 1.15845 1.17819 1.14354 1.15484 1.10492 1.12047 1.12417 1.13898 1.16693 1.10057 1.14476 1.04376 1.03296 0.996002 1.0151 1.03289 1.09526 1.06957 1.02573 1.01787 1.024 1.06364 1.0281 0.95661 0.813498 0.915486 0.973675 1.07128 1.0717 1.10102 0.978894 0.928643 0.855948 1.34009 0.997252 1.07542 1.2547 0.994073 1.04255 1.04201 0.910203 0.797347 1.09945 1.3333 0.907345 0.931182 1.01339 1.13497 1.117 1.05244 1.03519 1.05262 1.05604 1.01321 1.08906 1.09696 1.05415 1.03392 0.95409 1.13426 1.12743 1.23062 1.15708 1.07566 1.10925 1.14953 1.13776 1.12938 1.11529 1.17788 1.18613 1.17079 1.17162 1.17407 1.14277 1.16193 1.15927 1.16546 1.15465 1.17461 1.18082 1.16312 1.17483 1.18594 1.1774 1.18322 1.18026 1.18291 1.20303 1.18883 1.19163 1.19477 1.1938 1.18813 1.18714 1.19347 1.18713 1.18525 1.17887 1.1922 1.18008 1.18986 1.1907 1.16932 1.17757 1.18295 1.18146 1.18056 1.18378 1.1797 1.19129 1.18312 1.17104 1.19582 1.14426 1.14611 1.10646 1.22288 1.12035 1.13674 1.09945 1.08033 1.1043 1.16198 1.14941 1.16375 1.05217 1.08239 1.09584 1.04083 1.05349 1.09446 1.09828 1.08545 1.05153 1.07004 1.07031 1.02888 0.938259 1.05224 0.915235 1.01927 1.06156 1.08119 0.985392 0.983443 0.952717 1.00052 1.07998 1.20728 1.02828 0.911123 0.907521 1.1294 1.12188 1.13105 0.890351 1.02228 1.00138 1.007 1.08932 1.02837 1.07485 1.09252 1.00951 0.790117 1.11147 1.09031 1.07657 0.977378 1.1776 1.1959 1.14027 1.06218 1.05023 1.11176 1.08609 1.12277 1.16572 1.19178 1.15221 1.19972 1.16553 1.17752 1.14287 1.16115 1.18437 1.17045 1.15661 1.1858 1.1939 1.17717 1.18696 1.18237 1.18995 1.18751 1.18953 1.18921 1.18854 1.19259 1.19178 1.18741 1.187 1.18962 1.19098 1.18259 1.1866 1.20367 1.19373 1.17883 1.18258 1.18317 1.18366 1.18348 1.17921 1.18061 1.19519 1.18628 1.17694 1.17369 1.19892 1.16961 1.14169 1.22258 1.10899 1.1287 1.08304 1.08972 1.17424 1.06039 1.06262 1.08075 1.09597 1.11555 1.08906 1.09785 1.1008 1.06033 1.066 1.07461 1.07654 1.00806 0.982014 1.08473 1.0229 1.03652 1.04107 1.04708 1.10277 0.991616 1.00947 0.98419 1.04374 1.08662 1.14967 1.03064 1.12064 1.05652 1.09215 1.13137 1.13937 1.03582 1.08136 0.948614 1.09234 1.19181 1.11065 1.06748 1.13777 1.09694 1.04518 1.0718 1.02988 1.15322 0.978949 1.22016 1.16091 1.12152 1.11747 1.09118 1.18028 1.11514 1.16971 1.15136 1.15508 1.18571 1.18043 1.16057 1.15463 1.19189 1.18236 1.17398 1.1688 1.186 1.18842 1.18977 1.1822 1.17996 1.18528 1.1794 1.18309 1.18876 1.19 1.18919 1.18906 1.18845 1.18908 1.18934 1.18412 1.18396 1.18985 1.19196 1.18914 1.18912 1.18457 1.18579 1.192 1.17973 1.18293 1.18336 1.18914 1.18158 1.18732 1.18663 1.18204 1.19291 1.19126 1.18559 1.14247 1.20117 1.19105 1.21769 1.10471 1.15038 1.13104 1.13958 1.11303 1.12735 1.11462 1.13939 1.16213 1.18976 1.08526 1.09608 1.09024 1.10273 1.11841 1.13833 1.11595 1.10588 1.08927 1.06372 1.08691 0.967247 0.996719 1.04466 1.04035 1.0499 1.06281 1.04936 1.04923 1.08702 1.07983 1.03182 1.05096 1.02761 1.04318 1.00354 1.04248 1.06065 1.08784 1.12609 1.09364 1.12112 0.995212 0.998719 1.07121 1.12647 1.11175 1.0056 1.12088 1.10935 1.16496 1.1087 1.10918 1.05716 1.11378 1.0763 1.15934 1.17908 1.18041 1.16004 1.16749 1.1271 1.119 1.1396 1.17282 1.1745 1.15756 1.16117 1.18185 1.1723 1.16578 1.19929 1.19178 1.17647 1.18077 1.18314 1.1869 1.18433 1.18266 1.18344 1.17954 1.18145 1.18511 1.18892 1.18791 1.19024 1.18865 1.18968 1.18444 1.18442 1.19026 1.18729 1.19557 1.18775 1.17987 1.18089 1.18028 1.18408 1.18161 1.18413 1.18581 1.19022 1.18721 1.18405 1.14343 1.19505 1.17152 1.16194 1.11585 1.11198 1.13458 1.16765 1.17887 1.16836 1.09576 1.1085 1.12776 1.13134 1.14525 1.11594 1.12248 1.11064 1.08167 1.10064 1.05139 1.08035 1.02819 1.05816 1.07026 1.06546 1.0796 1.07752 1.05273 1.05671 1.07505 1.05284 1.06421 1.08863 1.10021 1.11808 1.07676 1.19327 1.15891 1.11835 1.11308 1.13366 1.07272 1.12228 1.13441 1.17712 1.11859 1.09517 1.12904 1.17555 1.08207 1.16079 1.14574 1.12519 1.16219 1.16259 1.15555 1.17277 1.18734 1.16511 1.13901 1.17247 1.17877 1.16426 1.18001 1.18722 1.17922 1.17283 1.19987 1.1832 1.17561 1.19141 1.18278 1.18482 1.18961 1.18425 1.1859 1.18425 1.17789 1.18417 1.1869 1.18782 1.18997 1.18927 1.18857 1.19013 1.19061 1.19039 1.18758 1.19511 1.18902 1.18859 1.18016 1.19116 1.1889 1.1825 1.18519 1.18633 1.18589 1.19125 1.18478 1.1843 1.18774 1.18595 1.18762 1.15675 1.13637 1.13597 1.15354 1.17055 1.17266 1.10757 1.13503 1.1637 1.14066 1.16549 1.18368 1.16925 1.10511 1.12399 1.14491 1.1384 1.14054 1.11739 1.11279 1.12164 1.06755 1.19178 1.115 1.1128 1.03918 1.06002 1.07053 1.0644 1.08346 1.07592 1.05486 1.09393 1.07908 1.09161 1.08492 1.11158 1.11533 1.07275 1.14921 1.1425 1.13345 1.17646 1.18947 1.09589 1.12969 1.13662 1.22527 1.16757 1.16269 1.12586 1.1776 1.18803 1.17224 1.18176 1.16053 1.15905 1.16893 1.19052 1.17078 1.17664 1.17386 1.19178 1.19193 1.18922 1.18385 1.16395 1.18348 1.18147 1.17751 1.19998 1.1883 1.18342 1.18453 1.18771 1.19027 1.18566 1.18316 1.19178 1.17888 1.18441 1.18439 1.18808 1.18763 1.1883 1.18237 1.18925 1.19069 1.19102 1.19241 1.18551 1.18483 1.19205 1.18975 1.19386 1.19115 1.1884 1.18909 1.18071 1.17939 1.19178 1.19129 1.18902 1.18118 1.18095 1.17606 1.18694 1.18361 1.1867 1.18681 1.18804 1.18738 1.16304 1.20393 1.18155 1.17056 1.17543 1.14447 1.14423 1.14305 1.16379 1.18007 1.16474 1.11293 1.15171 1.13273 1.15788 1.1374 1.15655 1.13288 1.12644 1.07817 1.11536 1.07559 1.08047 1.09643 1.08943 1.09155 1.04095 1.09664 1.09521 1.11999 1.11468 1.10402 1.1182 1.14607 1.14738 1.19633 1.13076 1.11611 1.13097 1.19178 1.17007 1.16989 1.14932 1.18387 1.17873 1.17706 1.17106 1.16575 1.15075 1.18597 1.2084 1.17104 1.16943 1.18644 1.18692 1.19169 1.1821 1.18569 1.17053 1.18414 1.18177 1.1801 1.18702 1.18896 1.1842 1.18525 1.1876 1.18303 1.18548 1.18555 1.18739 1.18804 1.18554 1.18447 1.18802 1.18863 1.19042 1.18906 1.1901 1.19279 1.18794 1.18923 1.18773 1.19039 1.19305 1.18728 1.18853 1.18955 1.18429 1.20355 1.19213 1.19091 1.18713 1.18359 1.18307 1.18571 1.18788 1.18775 1.18775 1.18669 1.15182 1.18848 1.18244 1.17572 1.17986 1.14568 1.15484 1.1607 1.19178 1.18526 1.17392 1.12366 1.13819 1.16774 1.19493 1.16579 1.16223 1.13283 1.20126 1.14091 1.14284 1.07677 1.0993 1.09531 1.10371 1.10135 1.1821 1.11849 1.12315 1.11001 1.10473 1.12516 1.13431 1.13742 1.12165 1.14467 1.14604 1.1941 1.14097 1.15473 1.15557 1.1395 1.17408 1.16451 1.19215 1.16161 1.18536 1.1787 1.17717 1.16856 1.16955 1.17602 1.19556 1.17081 1.18122 1.17939 1.18139 1.18849 1.19346 1.18771 1.19094 1.18475 1.18226 1.18797 1.1893 1.18128 1.1842 1.18571 1.19231 1.18228 1.18174 1.18869 1.18436 1.18692 1.18601 1.1883 1.18884 1.19054 1.18896 1.19013 1.1929 1.18967 1.19014 1.19111 1.18715 1.18876 1.19025 1.19147 1.19096 1.19412 1.19204 1.18717 1.18372 1.18648 1.186 1.18666 1.18814 1.19764 1.18725 1.18636 1.18448 1.17705 1.18388 1.18161 1.18901 1.15858 1.16083 1.18836 1.17634 1.13101 1.17346 1.20291 1.15384 1.15135 1.14821 1.17427 1.15232 1.20184 1.13763 1.14367 1.15348 1.11994 1.14092 1.15345 1.15545 1.12327 1.12098 1.11693 1.1201 1.1285 1.14528 1.15446 1.1523 1.16452 1.14382 1.17574 1.16976 1.15098 1.14445 1.18229 1.16498 1.16421 1.17498 1.1672 1.18004 1.17824 1.18597 1.17503 1.18189 1.18228 1.17583 1.18784 1.1739 1.1811 1.18749 1.1925 1.19236 1.19098 1.18684 1.18959 1.18852 1.1811 1.1865 1.19178 1.19145 1.18711 1.18849 1.18951 1.18475 1.18677 1.18625 1.18837 1.19226 1.19038 1.18878 1.19001 1.19113 1.18978 1.18771 1.18856 1.19081 1.19178 1.18851 1.18978 1.1901 1.1927 1.19034 1.19277 1.18581 1.18617 1.18611 1.19764 1.18759 1.18669 1.18618 1.18499 1.185 1.17795 1.18464 1.15973 1.18216 1.18073 1.17786 1.18865 1.18247 1.14689 1.15726 1.16809 1.18998 1.17472 1.19178 1.16894 1.15227 1.16078 1.19801 1.17109 1.13971 1.14547 1.14407 1.15779 1.13204 1.15105 1.14845 1.15214 1.12865 1.12787 1.12534 1.12553 1.13263 1.15095 1.15588 1.16166 1.16453 1.19436 1.20268 1.17842 1.19178 1.1633 1.17993 1.19178 1.18688 1.17827 1.17457 1.17473 1.1738 1.18525 1.18412 1.18666 1.18238 1.18165 1.18141 1.18257 1.17564 1.18321 1.18787 1.18949 1.18313 1.19175 1.18672 1.185 1.19107 1.18186 1.18921 1.18905 1.19433 1.18741 1.19259 1.19445 1.18995 1.18728 1.1872 1.18634 1.18866 1.18619 1.19011 1.18945 1.18916 1.1891 1.18767 1.188 1.19169 1.19238 1.18843 1.18874 1.18957 1.18933 1.19247 1.18846 1.18524 1.18504 1.18644 1.19042 1.18621 1.18719 1.18727 1.18731 1.18573 1.18548 1.18754 1.18415 1.18667 1.18854 1.18996 1.17895 1.18688 1.16218 1.16969 1.18602 1.16773 1.17326 1.17936 1.15206 1.14173 1.14641 1.14491 1.15125 1.15764 1.14034 1.16654 1.15946 1.13794 1.12833 1.13732 1.12863 1.15669 1.17508 1.16206 1.16719 1.19531 1.20359 1.17422 1.17553 1.18506 1.19141 1.17582 1.18071 1.19923 1.17738 1.18469 1.19122 1.18347 1.18897 1.18843 1.17753 1.18493 1.18252 1.1838 1.18868 1.19249 1.18582 1.18819 1.18755 1.18575 1.18648 1.19066 1.18974 1.19363 1.19228 1.19422 1.19056 1.19163 1.19178 1.18964 1.18599 1.18754 1.19186 1.19174 1.18878 1.18791 1.18923 1.18888 1.19317 1.18923 1.19063 1.18703 1.18809 1.18935 1.18986 1.19033 1.18859 1.18571 1.18653 1.18951 1.18859 1.18442 1.18687 1.18726 1.18708 1.1858 1.18551 1.18443 1.18634 1.18738 1.18939 1.18551 1.18883 1.18598 1.19194 1.18727 1.17771 1.18746 1.18181 1.15309 1.17194 1.16531 1.18065 1.18367 1.18484 1.18643 1.16992 1.17837 1.18243 1.15492 1.14783 1.14713 1.15856 1.18334 1.16948 1.16559 1.16152 1.14947 1.18107 1.13364 1.11763 1.12998 1.15623 1.135 1.13579 1.16222 1.177 1.19178 1.17626 1.17896 1.18103 1.18501 1.18132 1.18307 1.18519 1.19116 1.19452 1.18876 1.18807 1.19911 1.17788 1.18504 1.18517 1.18808 1.18529 1.18028 1.18483 1.18489 1.18876 1.18637 1.18886 1.19093 1.19046 1.18675 1.18921 1.18831 1.19034 1.19002 1.19187 1.19104 1.19077 1.19248 1.19178 1.19189 1.19224 1.19033 1.18893 1.18781 1.19499 1.19545 1.18919 1.18784 1.18863 1.18718 1.18931 1.19342 1.18939 1.19088 1.18738 1.18899 1.18985 1.19026 1.18843 1.19004 1.18806 1.18894 1.18443 1.18479 1.18557 1.18845 1.18998 1.19189 1.18559 1.18521 1.18694 1.18746 1.18695 1.18761 1.18592 1.18906 1.18691 1.19178 1.19178 1.17687 1.18975 1.18725 1.17085 1.19178 1.17075 1.18306 1.18474 1.19342 1.17923 1.18536 1.16139 1.14957 1.15252 1.16803 1.17615 1.18029 1.17243 1.17592 1.18899 1.17987 1.12968 1.18139 1.14377 1.13807 1.13898 1.16857 1.17773 1.17788 1.18353 1.17951 1.16974 1.18821 1.18727 1.18234 1.18577 1.19282 1.19417 1.19273 1.18511 1.19825 1.20032 1.18549 1.18531 1.1836 1.1857 1.18796 1.18561 1.18082 1.18086 1.18565 1.18003 1.18398 1.1865 1.1862 1.18746 1.18829 1.1912 1.18911 1.18875 1.18979 1.18977 1.1891 1.18916 1.18827 1.19254 1.19164 1.19136 1.19183 1.19129 1.1899 1.1891 1.18772 1.18431 1.19087 1.18939 1.18923 1.18798 1.1903 1.19363 1.1898 1.19186 1.18865 1.19126 1.18839 1.18884 1.18895 1.18934 1.18752 1.18908 1.1846 1.18591 1.18843 1.19012 1.18759 1.19073 1.18659 1.18588 1.1875 1.18682 1.18762 1.18739 1.18839 1.18028 1.20175 1.18387 1.17057 1.18557 1.17348 1.18606 1.18985 1.18491 1.18832 1.16639 1.17371 1.1646 1.16784 1.16608 1.16756 1.1816 1.18349 1.17766 1.18055 1.18318 1.17875 1.13363 1.18712 1.14531 1.14718 1.17348 1.1789 1.1783 1.18522 1.17599 1.1884 1.18862 1.19219 1.18803 1.18711 1.18653 1.19064 1.1936 1.18954 1.18452 1.18859 1.18551 1.18867 1.18934 1.18982 1.18863 1.18455 1.18493 1.18471 1.1839 1.19151 1.18688 1.18694 1.18763 1.19037 1.18907 1.19022 1.1892 1.18965 1.18888 1.19179 1.18855 1.19263 1.19112 1.18837 1.19115 1.18982 1.18893 1.18775 1.18423 1.19117 1.18896 1.18932 1.1883 1.19067 1.18994 1.18893 1.19207 1.18995 1.18832 1.18857 1.18889 1.18914 1.18916 1.18947 1.18772 1.18647 1.18648 1.18851 1.18749 1.1858 1.18696 1.18619 1.18798 1.18722 1.18738 1.18433 1.18881 1.18452 1.1888 1.18951 1.18983 1.18228 1.17543 1.18348 1.1938 1.18239 1.18836 1.18453 1.18343 1.16586 1.17976 1.16624 1.1659 1.16834 1.19971 1.1692 1.18234 1.18645 1.18101 1.17998 1.18418 1.17371 1.18245 1.14719 1.14716 1.17711 1.18949 1.17682 1.18794 1.18903 1.18866 1.18836 1.18514 1.1947 1.18965 1.18471 1.18879 1.19105 1.18892 1.18909 1.18969 1.18861 1.1889 1.18644 1.19565 1.19165 1.18603 1.18862 1.18979 1.19048 1.19033 1.18996 1.18988 1.18905 1.18901 1.18874 1.19167 1.19244 1.19002 1.19185 1.19134 1.18994 1.18927 1.18852 1.18438 1.19091 1.18874 1.18905 1.19191 1.19053 1.18956 1.18855 1.19195 1.18997 1.18832 1.1886 1.18886 1.18947 1.1886 1.19175 1.18841 1.18739 1.18846 1.18937 1.18601 1.18763 1.18809 1.19178 1.18848 1.18726 1.18848 1.18741 1.1856 1.18864 1.18744 1.19485 1.18214 1.18608 1.18212 1.18784 1.18769 1.18438 1.18519 1.19178 1.19178 1.16766 1.16868 1.19554 1.17726 1.18862 1.18597 1.18175 1.18133 1.18495 1.18064 1.17674 1.18922 1.19178 1.15562 1.17954 1.14751 1.17877 1.18343 1.18909 1.18492 1.19286 1.18654 1.18942 1.18724 1.18909 1.18629 1.18655 1.19558 1.18677 1.1948 1.1909 1.18558 1.19178 1.19097 1.18857 1.18946 1.18842 1.19068 1.18394 1.19141 1.1863 1.18923 1.18917 1.19105 1.19031 1.19025 1.18977 1.1915 1.19196 1.18911 1.18842 1.19077 1.19164 1.18945 1.1911 1.19036 1.18818 1.19006 1.18998 1.18832 1.19087 1.18906 1.18882 1.19183 1.19062 1.18941 1.18878 1.19084 1.19003 1.1879 1.18841 1.18895 1.18705 1.18868 1.18814 1.18848 1.18737 1.18844 1.18909 1.18718 1.1893 1.18814 1.18855 1.18853 1.18742 1.18762 1.18866 1.18611 1.18913 1.18776 1.19272 1.18283 1.18645 1.18614 1.18973 1.18671 1.18246 1.18905 1.18578 1.17957 1.193 1.19454 1.16933 1.17744 1.19709 1.17267 1.18501 1.17958 1.18716 1.18353 1.18267 1.1799 1.17737 1.1896 1.17214 1.17894 1.1847 1.1861 1.1919 1.19154 1.19369 1.19055 1.19047 1.18761 1.19038 1.18674 1.18941 1.19035 1.19171 1.19306 1.18948 1.18919 1.18882 1.19052 1.19156 1.18914 1.18851 1.18892 1.18935 1.19036 1.19131 1.19138 1.18653 1.18951 1.19072 1.1917 1.1908 1.18931 1.19042 1.19223 1.18992 1.19046 1.18736 1.1907 1.19119 1.18917 1.19062 1.19021 1.18866 1.18949 1.19358 1.19319 1.19126 1.18957 1.18967 1.19155 1.19014 1.18947 1.19005 1.19086 1.18959 1.19066 1.18811 1.18901 1.1918 1.18866 1.19127 1.18869 1.18788 1.18877 1.18859 1.1888 1.18536 1.18902 1.18841 1.18862 1.18752 1.18812 1.18877 1.18691 1.18795 1.1881 1.18543 1.18633 1.18852 1.19361 1.18865 1.18466 1.18374 1.18898 1.19002 1.19341 1.19106 1.19026 1.18288 1.18017 1.19172 1.18425 1.18743 1.18449 1.18469 1.18915 1.18243 1.17962 1.18812 1.18845 1.17324 1.1908 1.18523 1.18529 1.18638 1.19076 1.19025 1.19152 1.18823 1.18979 1.18965 1.18983 1.18895 1.18963 1.19083 1.19115 1.19237 1.18957 1.18832 1.19052 1.18982 1.18905 1.18903 1.1893 1.19014 1.19183 1.18669 1.18947 1.18931 1.19025 1.18977 1.19184 1.19098 1.19162 1.19138 1.18893 1.18959 1.19089 1.1879 1.19058 1.19122 1.19192 1.19053 1.19107 1.18869 1.1911 1.19336 1.19177 1.19104 1.18937 1.18939 1.19255 1.18959 1.18946 1.19066 1.19296 1.19045 1.19178 1.18946 1.18987 1.19565 1.18872 1.19153 1.18853 1.18797 1.18851 1.18873 1.18992 1.18925 1.18915 1.19004 1.18813 1.18806 1.19021 1.18825 1.18722 1.18758 1.19145 1.18657 1.18706 1.19245 1.18929 1.18854 1.18715 1.18772 1.18939 1.1888 1.18977 1.19276 1.19048 1.18959 1.18228 1.18357 1.18615 1.18807 1.1847 1.18765 1.18468 1.18558 1.18728 1.18176 1.18347 1.18081 1.18649 1.18433 1.17395 1.1908 1.18581 1.18823 1.19076 1.19017 1.19008 1.19217 1.19114 1.19027 1.18964 1.18953 1.18959 1.19011 1.19038 1.19127 1.19129 1.1922 1.18884 1.1906 1.1882 1.18956 1.18915 1.18938 1.18915 1.19058 1.19257 1.18904 1.18964 1.1902 1.1909 1.1902 1.19028 1.19033 1.1897 1.19074 1.19097 1.19052 1.19001 1.19158 1.19185 1.19041 1.19108 1.19108 1.18868 1.19282 1.19202 1.19148 1.1888 1.19183 1.19178 1.1899 1.18911 1.19008 1.19097 1.19297 1.19017 1.19012 1.18781 1.18687 1.1888 1.1911 1.19108 1.18806 1.1885 1.18871 1.18991 1.18985 1.18907 1.19008 1.18804 1.19092 1.18853 1.18831 1.18747 1.18785 1.19313 1.19035 1.19428 1.19069 1.18958 1.19178 1.18906 1.18932 1.19012 1.19253 1.19094 1.19178 1.18732 1.18916 1.18738 1.18282 1.18472 1.19046 1.18885 1.19019 1.18035 1.18506 1.18221 1.17479 1.19083 1.18773 1.18846 1.18768 1.18692 1.19218 1.19094 1.18969 1.18968 1.18964 1.19047 1.19092 1.19098 1.19158 1.19166 1.18847 1.18978 1.19093 1.19046 1.19116 1.19015 1.18969 1.18975 1.19103 1.19178 1.18916 1.1896 1.19026 1.19105 1.19019 1.19 1.18987 1.19267 1.18985 1.19119 1.19051 1.19001 1.18991 1.19106 1.19039 1.19141 1.18947 1.19142 1.19167 1.19178 1.19142 1.18932 1.19185 1.19201 1.19008 1.19178 1.19009 1.19098 1.19211 1.19035 1.1902 1.18997 1.18919 1.18883 1.19072 1.19133 1.18817 1.18851 1.18968 1.18863 1.18969 1.18885 1.19021 1.18836 1.18847 1.18864 1.18822 1.18779 1.19185 1.19038 1.19184 1.19029 1.19186 1.19059 1.18888 1.19018 1.18931 1.19017 1.19282 1.19192 1.1905 1.19046 1.1881 1.18997 1.18816 1.18314 1.18566 1.19062 1.18938 1.19001 1.19179 1.18577 1.19178 1.19178 1.19085 1.19101 1.18791 1.18753 1.18954 1.19227 1.18921 1.19081 1.19109 1.19002 1.19039 1.19083 1.19088 1.19123 1.19178 1.18889 1.19035 1.18992 1.19131 1.19169 1.19068 1.18996 1.18966 1.19083 1.19112 1.19129 1.19039 1.1911 1.1907 1.19007 1.18987 1.19265 1.19064 1.19139 1.19044 1.18997 1.19177 1.19104 1.19037 1.19178 1.19061 1.19159 1.19178 1.19178 1.1915 1.19016 1.19198 1.19178 1.1907 1.19219 1.19004 1.19087 1.19199 1.19013 1.1902 1.19008 1.1892 1.18909 1.19123 1.19166 1.18845 1.18866 1.1891 1.18992 1.18998 1.1898 1.18903 1.18987 1.18901 1.1882 1.18805 1.18836 1.19015 1.19106 1.1905 1.19139 1.19126 1.19079 1.1892 1.19035 1.18925 1.19014 1.19245 1.18979 1.19146 1.1911 1.18872 1.18954 1.18845 1.18644 1.18546 1.1915 1.19017 1.19162 1.19181 1.18651 1.19033 1.19178 1.19192 1.19162 1.18944 1.18904 1.18948 1.19244 1.18923 1.19075 1.19106 1.1901 1.19044 1.19082 1.19085 1.19127 1.19131 1.18952 1.19058 1.19013 1.19061 1.19111 1.19071 1.18995 1.1913 1.19064 1.18918 1.18963 1.18939 1.1905 1.19109 1.19104 1.18998 1.18982 1.19178 1.19065 1.19134 1.19075 1.19036 1.19178 1.19088 1.19024 1.19178 1.19078 1.19168 1.19178 1.19179 1.19154 1.19071 1.19178 1.19147 1.19079 1.19096 1.19213 1.19196 1.19119 1.19094 1.19049 1.1906 1.18919 1.1895 1.19146 1.19098 1.19139 1.18951 1.19011 1.18857 1.19055 1.19029 1.18954 1.18996 1.18945 1.18905 1.18822 1.18822 1.18965 1.1905 1.19064 1.19154 1.19157 1.19203 1.19261 1.19052 1.1893 1.19009 1.19219 1.1898 1.19029 1.19163 1.18887 1.18946 1.18834 1.19178 1.18795 1.1898 1.19115 1.19001 1.18915 1.19175 1.19022 1.18915 1.19192 1.19144 1.18939 1.18905 1.18975 1.19178 1.18925 1.19079 1.19012 1.19053 1.1909 1.19091 1.19113 1.19141 1.19053 1.19066 1.19012 1.19044 1.19108 1.19072 1.19012 1.19159 1.19135 1.19054 1.18911 1.19089 1.18917 1.18935 1.19058 1.19113 1.1912 1.19013 1.19185 1.18992 1.19063 1.19127 1.19178 1.19043 1.19189 1.19097 1.19104 1.1913 1.19065 1.19166 1.19183 1.19189 1.19156 1.19066 1.19171 1.19137 1.19073 1.19167 1.19164 1.1917 1.19111 1.19122 1.19044 1.19119 1.1897 1.19161 1.19132 1.19107 1.19133 1.19014 1.18853 1.19057 1.1912 1.19036 1.1897 1.18998 1.18951 1.18906 1.18951 1.18819 1.18991 1.18945 1.19196 1.18993 1.19104 1.19178 1.19178 1.19095 1.19179 1.19148 1.1905 1.18996 1.19024 1.19106 1.18993 1.19047 1.19177 1.18968 1.19015 1.18854 1.19194 1.18805 1.19094 1.1917 1.192 1.19144 1.19178 1.19178 1.1893 1.19042 1.19011 
SCALARS Stress float 1
LOOKUP_TABLE default
-875312000000.0 -1.59796e+12 -2.91818e+12 -3.0079e+12 -1.86248e+12 -2.4348e+12 -854588000000.0 -21698800000.0 -220395000000.0 -236512000000.0 -157227000000.0 -76815400000.0 -14483700000.0 -13413600000.0 -23921200000.0 -232152000000.0 -2.06951e+12 -648518000000.0 -1.50783e+12 -1.90184e+12 -3.8597e+12 -1.76365e+12 -2.56126e+12 -1.80549e+12 -3.37422e+12 -4.28738e+12 -2.54015e+12 -1.795e+12 -1.06371e+12 -1.43676e+12 -909777000000.0 -579898000000.0 -1.1398e+12 -359855000000.0 -620489000000.0 -473494000000.0 -162076000000.0 -1.11673e+12 -677372000000.0 -502704000000.0 -31331900000.0 -227675000000.0 -35878300000.0 -154526000000.0 -27960900000.0 -41648200000.0 -78439900000.0 -47744800000.0 -48305200000.0 -25222500000.0 -17258800000.0 -13782200000.0 -30829300000.0 -22028600000.0 -22197500000.0 -39139100000.0 -27197700000.0 -28045300000.0 -28496500000.0 -27609500000.0 -31907900000.0 -13846900000.0 -14115500000.0 -19612700000.0 -34055000000.0 -12549700000.0 -74253600000.0 -80353700000.0 -148486000000.0 -157904000000.0 -275546000000.0 -300493000000.0 -670994000000.0 -12554100000.0 -719708000000.0 -716001000000.0 -598566000000.0 -1.24613e+12 -1.04571e+12 -1.06657e+12 -2.11681e+12 -5.00255e+12 -5.92405e+12 -4.75285e+12 -3.98257e+12 -2.38338e+12 -2.14632e+12 -2.97495e+12 -3.48032e+12 -2.38128e+12 -2.18006e+12 -1.66391e+12 -4.44769e+12 -1.94304e+12 -1.81848e+12 -2.40961e+12 -1.8908e+12 -1.41851e+12 -1.82566e+12 -881154000000.0 -626463000000.0 -79385600000.0 -29948400000.0 -222421000000.0 -70184100000.0 -142216000000.0 -98635500000.0 -90058600000.0 -86783600000.0 -67648400000.0 -54713100000.0 -56607500000.0 -25334500000.0 -22612600000.0 -27745700000.0 -25507700000.0 -17577900000.0 -17512700000.0 -43822200000.0 -59710500000.0 -12769200000.0 -18686900000.0 -27090600000.0 -13474700000.0 -78584500000.0 -12549700000.0 -163544000000.0 -121970000000.0 -250202000000.0 -311805000000.0 -167369000000.0 -787512000000.0 -721127000000.0 -1.88088e+12 -1.09473e+12 -3.26075e+12 -3.91747e+12 -2.91313e+12 -1.76295e+12 -2.46509e+12 -3.05528e+12 -4.98286e+12 -3.95688e+12 -2.65088e+12 -1.57768e+12 -1.9603e+12 -2.70356e+12 -2.73631e+12 -3.48247e+12 -2.66315e+12 -2.0959e+12 -4.64405e+12 -5.99389e+12 -3.76853e+12 -5.65997e+12 -3.48461e+12 -2.58712e+12 -2.9668e+12 -2.47515e+12 -2.82326e+12 -3.19899e+12 -2.46333e+12 -1.98172e+12 -610028000000.0 -2.00487e+12 -1.27139e+12 -838654000000.0 -233398000000.0 -766709000000.0 -345066000000.0 -713140000000.0 -492926000000.0 -439070000000.0 -91800800000.0 -105649000000.0 -20909500000.0 -28350400000.0 -40357600000.0 -14308300000.0 -34692800000.0 -13071400000.0 -38654000000.0 -36822700000.0 -79085600000.0 -54120300000.0 -38875300000.0 -88819200000.0 -48431700000.0 -29930500000.0 -26038100000.0 -85613300000.0 -48979100000.0 -165461000000.0 -58011800000.0 -67392900000.0 -61075900000.0 -75479600000.0 -114378000000.0 -248138000000.0 -219161000000.0 -361012000000.0 -398156000000.0 -145431000000.0 -779537000000.0 -724951000000.0 -1.03944e+12 -573691000000.0 -2.10212e+12 -3.05645e+12 -1.68655e+12 -2.17315e+12 -3.70552e+12 -7.01896e+12 -4.2256e+12 -3.11104e+12 -2.81343e+12 -6.61386e+12 -4.06273e+12 -3.44913e+12 -3.45764e+12 -4.94026e+12 -3.83601e+12 -2.46495e+12 -2.34994e+12 -3.37447e+12 -4.44458e+12 -3.43367e+12 -5.18781e+12 -2.3759e+12 -5.44817e+12 -5.86575e+12 -6.71261e+12 -5.15423e+12 -2.59748e+12 -1.19452e+12 -1.74888e+12 -1.84643e+12 -1.17731e+12 -3.39035e+12 -700025000000.0 -1.08444e+12 -2.04515e+12 -669649000000.0 -826297000000.0 -576965000000.0 -220105000000.0 -428220000000.0 -619210000000.0 -249420000000.0 -155921000000.0 -345763000000.0 -282596000000.0 -153157000000.0 -54921800000.0 -122446000000.0 -39987900000.0 -55738500000.0 -92885900000.0 -38840300000.0 -65876600000.0 -27762600000.0 -105673000000.0 -68016000000.0 -126937000000.0 -122778000000.0 -113938000000.0 -218207000000.0 -12549700000.0 -13190800000.0 -21795500000.0 -333303000000.0 -645364000000.0 -393549000000.0 -1.09372e+12 -2.63285e+12 -3.72575e+12 -2.72181e+12 -2.65715e+12 -4.12892e+12 -2.03226e+12 -5.49715e+12 -5.42945e+12 -4.35076e+12 -7.82069e+12 -3.58082e+12 -5.33919e+12 -5.11932e+12 -2.63861e+12 -2.06498e+12 -2.18484e+12 -2.29668e+12 -2.03824e+12 -3.89187e+12 -3.27359e+12 -6.40489e+12 -7.17509e+12 -6.85503e+12 -5.07163e+12 -4.6311e+12 -5.00506e+12 -3.59357e+12 -3.10108e+12 -3.53469e+12 -3.63086e+12 -4.23216e+12 -3.15761e+12 -2.61535e+12 -2.0737e+12 -2.25075e+12 -1.23684e+12 -1.36943e+12 -1.43684e+12 -1.52375e+12 -926061000000.0 -633778000000.0 -124416000000.0 -59427000000.0 -208290000000.0 -164380000000.0 -325504000000.0 -118819000000.0 -196708000000.0 -209235000000.0 -95491300000.0 -49965700000.0 -105906000000.0 -13761600000.0 -193802000000.0 -194979000000.0 -54619000000.0 -210370000000.0 -190339000000.0 -135412000000.0 -147282000000.0 -251119000000.0 -252970000000.0 -411513000000.0 -280438000000.0 -285622000000.0 -496390000000.0 -404312000000.0 -880081000000.0 -803505000000.0 -711413000000.0 -186689000000.0 -1.03843e+12 -333973000000.0 -2.20632e+12 -2.55684e+12 -3.26715e+12 -2.44789e+12 -2.71929e+12 -5.18339e+12 -3.71735e+12 -3.34552e+12 -3.29458e+12 -7.10971e+12 -6.68307e+12 -2.69074e+12 -4.08781e+12 -4.42668e+12 -5.19681e+12 -6.90215e+12 -6.18941e+12 -3.62287e+12 -4.54408e+12 -4.95533e+12 -2.26134e+12 -4.84561e+12 -3.23284e+12 -3.58365e+12 -2.07077e+12 -6.45006e+12 -3.72361e+12 -3.20133e+12 -5.14553e+12 -5.29948e+12 -4.21794e+12 -3.46126e+12 -2.33701e+12 -4.47765e+12 -3.86217e+12 -3.69786e+12 -2.15168e+12 -3.87107e+12 -3.35112e+12 -2.35192e+12 -4.13955e+12 -3.38478e+12 -4.6701e+12 -3.78249e+12 -1.03085e+12 -2.41739e+12 -2.49534e+12 -2.86069e+12 -1.96187e+12 -2.1724e+12 -1.15801e+12 -1.13449e+12 -1.02824e+12 -1.38679e+12 -1.09032e+12 -537445000000.0 -890547000000.0 -334569000000.0 -592991000000.0 -503838000000.0 -62540300000.0 -56381100000.0 -345586000000.0 -254101000000.0 -122870000000.0 -101475000000.0 -88502400000.0 -141387000000.0 -37529100000.0 -317700000000.0 -177782000000.0 -141310000000.0 -114564000000.0 -341774000000.0 -333074000000.0 -482510000000.0 -478415000000.0 -966522000000.0 -482817000000.0 -718169000000.0 -978016000000.0 -70470100000.0 -619585000000.0 -2.03609e+12 -1.07351e+12 -1.44863e+12 -1.23213e+12 -2.31441e+12 -4.10101e+12 -4.14952e+12 -4.61095e+12 -3.37298e+12 -3.69038e+12 -4.78389e+12 -3.45597e+12 -5.45524e+12 -4.05773e+12 -2.85479e+12 -3.5287e+12 -3.858e+12 -4.20315e+12 -7.83591e+12 -7.34334e+12 -4.903e+12 -7.35481e+12 -4.61757e+12 -4.30947e+12 -4.92846e+12 -5.37042e+12 -4.83156e+12 -5.5198e+12 -3.02894e+12 -6.18249e+12 -4.49774e+12 -4.69582e+12 -4.8346e+12 -6.81937e+12 -3.53689e+12 -5.84289e+12 -3.14854e+12 -3.71517e+12 -3.46889e+12 -3.56109e+12 -2.32084e+12 -3.64969e+12 -3.2508e+12 -917711000000.0 -2.61982e+12 -1.33861e+12 -1.91951e+12 -2.75172e+12 -2.65817e+12 -1.64045e+12 -883983000000.0 -631863000000.0 -714393000000.0 -503061000000.0 -677297000000.0 -460691000000.0 -433858000000.0 -371620000000.0 -290611000000.0 -297198000000.0 -313112000000.0 -261738000000.0 -151219000000.0 -117093000000.0 -174609000000.0 -126596000000.0 -39449300000.0 -121930000000.0 -222145000000.0 -215869000000.0 -228956000000.0 -284516000000.0 -260903000000.0 -284584000000.0 -275085000000.0 -114206000000.0 -89306900000.0 -423832000000.0 -647046000000.0 -59345100000.0 -433452000000.0 -1.00209e+12 -1.26064e+12 -825555000000.0 -744477000000.0 -1.9669e+12 -1.99263e+12 -2.26161e+12 -2.12901e+12 -2.75185e+12 -1.76951e+12 -1.79911e+12 -5.21045e+12 -1.11536e+12 -3.40758e+12 -4.57737e+12 -4.36898e+12 -4.26083e+12 -1.67498e+12 -6.21953e+12 -6.5395e+12 -2.2909e+12 -2.03314e+12 -4.15835e+12 -4.64569e+12 -4.36063e+12 -6.6208e+12 -7.78918e+12 -4.61407e+12 -5.39954e+12 -6.23924e+12 -1.67238e+12 -3.73098e+12 -3.9725e+12 -5.25253e+12 -7.1234e+12 -2.73173e+12 -8.25233e+12 -3.85571e+12 -3.98598e+12 -5.16699e+12 -4.46764e+12 -4.68288e+12 -1.76487e+12 -3.75922e+12 -3.47938e+12 -4.38138e+12 -4.28732e+12 -3.64848e+12 -2.02912e+12 -2.72089e+12 -2.23982e+12 -4.26018e+12 -4.44103e+12 -4.77532e+12 -2.69447e+12 -2.51395e+12 -1.13359e+12 -1.91704e+12 -1.17575e+12 -1.74872e+12 -489175000000.0 -1.18416e+12 -397017000000.0 -356914000000.0 -394059000000.0 -929781000000.0 -388317000000.0 -833712000000.0 -266728000000.0 -572867000000.0 -262534000000.0 -290096000000.0 -224489000000.0 -79277600000.0 -68385200000.0 -62958300000.0 -19340800000.0 -12964200000.0 -63155700000.0 -129785000000.0 -64715600000.0 -222071000000.0 -270443000000.0 -273790000000.0 -287691000000.0 -531017000000.0 -136632000000.0 -134933000000.0 -53044300000.0 -182160000000.0 -249938000000.0 -405082000000.0 -421226000000.0 -213949000000.0 -746238000000.0 -1.37907e+12 -2.51242e+12 -1.70305e+12 -1.40877e+12 -2.26127e+12 -2.72841e+12 -4.04605e+12 -2.33067e+12 -7.01736e+12 -3.12747e+12 -2.49221e+12 -4.8127e+12 -5.2212e+12 -5.86211e+12 -4.7635e+12 -3.66207e+12 -4.95773e+12 -6.05749e+12 -7.26995e+12 -9.85199e+12 -8.27048e+12 -4.32495e+12 -6.80435e+12 -4.67642e+12 -3.36942e+12 -2.04726e+12 -6.00545e+12 -4.5054e+12 -6.01056e+12 -3.81156e+12 -1.01236e+13 -6.10613e+12 -5.64579e+12 -7.02898e+12 -4.15518e+12 -7.14695e+12 -7.10234e+12 -8.08969e+12 -6.27524e+12 -4.47054e+12 -3.87078e+12 -3.3931e+12 -2.1981e+12 -3.22928e+12 -5.00409e+12 -3.18914e+12 -4.81138e+12 -1.4638e+12 -2.28606e+12 -1.37817e+12 -2.14999e+12 -965105000000.0 -1.5244e+12 -764694000000.0 -1.17968e+12 -945075000000.0 -535828000000.0 -764852000000.0 -284181000000.0 -88369200000.0 -367974000000.0 -385606000000.0 -192916000000.0 -177712000000.0 -203004000000.0 -139482000000.0 -123669000000.0 -157986000000.0 -176007000000.0 -141917000000.0 -191606000000.0 -105302000000.0 -227749000000.0 -23931700000.0 -139944000000.0 -128976000000.0 -126485000000.0 -115771000000.0 -465275000000.0 -257994000000.0 -465281000000.0 -19216200000.0 -749904000000.0 -421445000000.0 -479432000000.0 -434348000000.0 -581079000000.0 -752397000000.0 -1.03154e+12 -936993000000.0 -738573000000.0 -1.34524e+12 -1.52017e+12 -832225000000.0 -941334000000.0 -1.39722e+12 -185362000000.0 -4.94483e+12 -990251000000.0 -2.10506e+12 -3.96026e+12 -3.01021e+12 -3.59291e+12 -2.16821e+12 -2.89996e+12 -3.81645e+12 -5.38511e+12 -3.00686e+12 -1.83044e+12 -5.07209e+12 -3.78813e+12 -2.73686e+12 -4.81093e+12 -9.13222e+12 -4.55539e+12 -3.49156e+12 -6.4587e+12 -6.35117e+12 -7.13586e+12 -7.62542e+12 -7.04125e+12 -6.22862e+12 -2.61596e+12 -3.92182e+12 -5.74201e+12 -4.43013e+12 -4.23605e+12 -6.95573e+12 -3.13689e+12 -5.1851e+12 -2.63426e+12 -3.87618e+12 -6.05743e+12 -4.35887e+12 -6.10176e+12 -7.87375e+12 -6.16828e+12 -3.88553e+12 -6.70019e+12 -3.72358e+12 -4.96557e+12 -1.79139e+12 -7.43449e+12 -3.80226e+12 -4.05089e+12 -5.97975e+12 -2.52191e+12 -3.30851e+12 -1.6282e+12 -3.2995e+12 -2.48099e+12 -4.50709e+12 -2.75282e+12 -1.06696e+12 -3.05674e+12 -1.92054e+12 -1.0971e+12 -1.81e+12 -1.08844e+12 -1.52305e+12 -911221000000.0 -1.20633e+12 -393203000000.0 -499390000000.0 -554344000000.0 -30497500000.0 -116775000000.0 -27366600000.0 -108193000000.0 -245817000000.0 -68289100000.0 -44850200000.0 -133236000000.0 -18220200000.0 -19313900000.0 -45845900000.0 -95943700000.0 -60828500000.0 -63606200000.0 -148368000000.0 -16790700000.0 -113937000000.0 -82468800000.0 -55505900000.0 -28556900000.0 -128042000000.0 -283939000000.0 -237487000000.0 -668473000000.0 -299519000000.0 -298658000000.0 -494370000000.0 -691795000000.0 -817965000000.0 -1.19247e+12 -765110000000.0 -1.72313e+12 -1.52999e+12 -319424000000.0 -1.78846e+12 -3.45269e+12 -3.06807e+12 -3.66332e+12 -3.95963e+12 -2.06567e+12 -2.45427e+12 -3.45909e+12 -2.32469e+12 -1.81353e+12 -2.8208e+12 -2.07464e+12 -3.38331e+12 -3.03628e+12 -4.17239e+12 -3.87698e+12 -4.33681e+12 -4.64657e+12 -5.24567e+12 -5.099e+12 -5.65066e+12 -8.87637e+12 -5.88381e+12 -4.95152e+12 -6.60532e+12 -4.2481e+12 -9.76938e+12 -3.74759e+12 -6.07032e+12 -6.22667e+12 -2.94442e+12 -3.52209e+12 -7.35374e+12 -5.75326e+12 -6.19816e+12 -4.71956e+12 -5.98942e+12 -4.28215e+12 -3.65946e+12 -3.94571e+12 -6.39169e+12 -7.97285e+12 -5.7777e+12 -3.14436e+12 -6.76629e+12 -3.65701e+12 -5.56668e+12 -3.80475e+12 -5.15452e+12 -2.8055e+12 -2.15577e+12 -2.39964e+12 -3.46043e+12 -3.68561e+12 -3.81577e+12 -3.21917e+12 -2.85802e+12 -2.28929e+12 -2.41284e+12 -1.13928e+12 -3.04063e+12 -1.32662e+12 -1.65914e+12 -516463000000.0 -374949000000.0 -758108000000.0 -840952000000.0 -1.26943e+12 -802112000000.0 -425536000000.0 -898996000000.0 -530053000000.0 -735198000000.0 -607585000000.0 -306825000000.0 -142697000000.0 -317797000000.0 -151238000000.0 -20906800000.0 -229315000000.0 -97006600000.0 -96955300000.0 -103905000000.0 -124786000000.0 -70458000000.0 -167841000000.0 -56392100000.0 -136944000000.0 -148607000000.0 -165438000000.0 -215524000000.0 -237422000000.0 -240501000000.0 -425412000000.0 -292006000000.0 -511510000000.0 -295082000000.0 -673876000000.0 -761859000000.0 -511584000000.0 -1.88164e+12 -1.59383e+12 -1.54565e+12 -1.04188e+12 -1.81564e+12 -2.67885e+12 -2.04496e+12 -1.79948e+12 -1.80931e+12 -1.92371e+12 -1.5532e+12 -3.33384e+12 -2.78914e+12 -3.53821e+12 -2.27269e+12 -2.80991e+12 -2.68942e+12 -1.66522e+12 -3.27377e+12 -6.49696e+12 -2.57779e+12 -6.24916e+12 -3.75379e+12 -4.68767e+12 -5.60615e+12 -5.98216e+12 -4.9895e+12 -6.15283e+12 -4.43416e+12 -5.29805e+12 -2.58289e+12 -3.53346e+12 -3.82211e+12 -4.82331e+12 -5.9578e+12 -6.01049e+12 -9.59543e+12 -3.31573e+12 -4.881e+12 -2.85873e+12 -6.14521e+12 -3.68818e+12 -6.8562e+12 -7.5256e+12 -6.64326e+12 -5.07105e+12 -7.81294e+12 -7.34624e+12 -5.19805e+12 -2.63083e+12 -4.2913e+12 -6.29607e+12 -4.02861e+12 -4.97029e+12 -5.09929e+12 -4.4397e+12 -3.08102e+12 -6.05212e+12 -5.09081e+12 -2.53724e+12 -4.34975e+12 -2.95019e+12 -3.50939e+12 -1.33272e+12 -3.27781e+12 -3.95163e+12 -2.95501e+12 -1.89278e+12 -2.32003e+12 -1.85956e+12 -1.10347e+12 -307361000000.0 -1.05555e+12 -828896000000.0 -1.36054e+12 -1.78412e+12 -745746000000.0 -789371000000.0 -587813000000.0 -673399000000.0 -635391000000.0 -547984000000.0 -458733000000.0 -200136000000.0 -141897000000.0 -12549700000.0 -12757000000.0 -136707000000.0 -50280500000.0 -32566300000.0 -130319000000.0 -12930900000.0 -15263400000.0 -32385300000.0 -231260000000.0 -331416000000.0 -133994000000.0 -149176000000.0 -190297000000.0 -283822000000.0 -204322000000.0 -562094000000.0 -533186000000.0 -695160000000.0 -940796000000.0 -880317000000.0 -1.13186e+12 -610442000000.0 -575059000000.0 -956811000000.0 -1.13647e+12 -1.20476e+12 -2.35397e+12 -3.04237e+12 -2.81731e+12 -2.08903e+12 -1.5179e+12 -2.78957e+12 -3.73501e+12 -5.31913e+12 -3.89812e+12 -4.59862e+12 -4.84885e+12 -4.57006e+12 -4.22414e+12 -4.07881e+12 -4.17491e+12 -2.97658e+12 -6.76586e+12 -5.96521e+12 -6.97481e+12 -3.32999e+12 -6.60738e+12 -6.92361e+12 -2.23128e+12 -6.26583e+12 -7.35965e+12 -5.31319e+12 -5.39963e+12 -6.3489e+12 -5.60623e+12 -5.73342e+12 -3.44889e+12 -5.11702e+12 -1.89294e+12 -3.31238e+12 -5.2771e+12 -7.5666e+12 -8.54673e+12 -6.52431e+12 -4.27859e+12 -6.13979e+12 -7.44573e+12 -6.73947e+12 -3.14323e+12 -6.91108e+12 -3.57292e+12 -2.9458e+12 -8.02024e+12 -4.05703e+12 -3.22188e+12 -3.79401e+12 -2.89846e+12 -2.82666e+12 -2.04434e+12 -2.43171e+12 -4.19425e+12 -3.84633e+12 -6.80732e+12 -4.08875e+12 -4.77219e+12 -2.74006e+12 -1.94332e+12 -1.98021e+12 -1.6082e+12 -2.57717e+12 -1.50059e+12 -1.52793e+12 -980164000000.0 -2.12077e+12 -643601000000.0 -868600000000.0 -1.00526e+12 -705972000000.0 -761055000000.0 -827414000000.0 -468485000000.0 -704593000000.0 -412552000000.0 -346354000000.0 -245592000000.0 -38207000000.0 -324561000000.0 -210648000000.0 -174639000000.0 -283641000000.0 -164029000000.0 -154303000000.0 -203176000000.0 -77578500000.0 -12765200000.0 -88982500000.0 -36591900000.0 -147512000000.0 -23843600000.0 -214601000000.0 -144698000000.0 -434051000000.0 -335611000000.0 -359886000000.0 -284544000000.0 -582012000000.0 -95996500000.0 -255514000000.0 -893319000000.0 -1.03634e+12 -596476000000.0 -1.46848e+12 -1.35862e+12 -1.08752e+12 -996947000000.0 -2.0295e+12 -1.48335e+12 -638615000000.0 -1.70226e+12 -1.58113e+12 -1.90567e+12 -2.65803e+12 -1.97393e+12 -4.37382e+12 -1.71344e+12 -2.93821e+12 -3.93925e+12 -3.24987e+12 -5.11132e+12 -3.75142e+12 -6.85115e+12 -4.45703e+12 -5.82865e+12 -3.86133e+12 -3.05943e+12 -4.00468e+12 -2.18375e+12 -4.99673e+12 -2.09265e+12 -4.81973e+12 -5.21394e+12 -6.37921e+12 -5.45576e+12 -5.11439e+12 -5.0153e+12 -5.21948e+12 -5.19848e+12 -3.70885e+12 -4.13463e+12 -5.04739e+12 -3.58859e+12 -7.27081e+12 -3.37714e+12 -3.06364e+12 -4.52263e+12 -4.85928e+12 -7.3572e+12 -5.00775e+12 -4.14429e+12 -6.7742e+12 -5.1508e+12 -5.90285e+12 -4.76459e+12 -6.02003e+12 -5.21471e+12 -5.00415e+12 -5.21492e+12 -3.28755e+12 -2.3189e+12 -3.76992e+12 -3.98872e+12 -4.85289e+12 -1.92493e+12 -1.39205e+12 -3.85377e+12 -1.87819e+12 -5.19121e+12 -1.49679e+12 -2.68205e+12 -2.39558e+12 -2.03877e+12 -3.71874e+12 -1.9638e+12 -2.50293e+12 -2.3078e+12 -2.92978e+12 -1.69889e+12 -1.27897e+12 -2.65833e+12 -902284000000.0 -1.38907e+12 -2.04608e+12 -1.13825e+12 -122937000000.0 -853318000000.0 -547097000000.0 -319705000000.0 -139899000000.0 -25553400000.0 -357441000000.0 -271308000000.0 -144511000000.0 -208688000000.0 -98787800000.0 -131729000000.0 -158419000000.0 -92518900000.0 -12549700000.0 -177276000000.0 -147110000000.0 -123329000000.0 -13278700000.0 -185391000000.0 -134055000000.0 -53292400000.0 -177636000000.0 -224670000000.0 -654241000000.0 -296415000000.0 -464506000000.0 -513871000000.0 -191827000000.0 -229208000000.0 -40752200000.0 -323064000000.0 -375380000000.0 -457857000000.0 -1.18524e+12 -452643000000.0 -1.10524e+12 -185802000000.0 -77627600000.0 -2.1229e+12 -1.36368e+12 -1.43266e+12 -2.38143e+12 -2.52412e+12 -1.21496e+12 -1.64295e+12 -2.94119e+12 -2.86541e+12 -2.10738e+12 -2.89792e+12 -4.56039e+12 -3.29378e+12 -4.67266e+12 -3.68735e+12 -5.6017e+12 -4.40482e+12 -1.52521e+12 -4.17464e+12 -3.50297e+12 -3.95804e+12 -2.63514e+12 -3.97166e+12 -5.12754e+12 -4.4775e+12 -5.35627e+12 -4.69382e+12 -4.18434e+12 -4.48397e+12 -6.3757e+12 -2.87721e+12 -3.92326e+12 -3.09484e+12 -5.07142e+12 -4.92556e+12 -2.42149e+12 -3.85492e+12 -3.30831e+12 -3.01433e+12 -4.94845e+12 -4.13861e+12 -7.66819e+12 -5.56614e+12 -4.40131e+12 -2.96369e+12 -4.01759e+12 -4.02257e+12 -3.36013e+12 -4.1406e+12 -7.4701e+12 -1.63492e+12 -3.95707e+12 -3.87582e+12 -4.45169e+12 -5.09624e+12 -2.72822e+12 -4.12087e+12 -3.06992e+12 -3.0747e+12 -5.91309e+12 -2.36988e+12 -2.54356e+12 -3.1637e+12 -2.94545e+12 -3.29516e+12 -3.08924e+12 -2.21813e+12 -2.68376e+12 -1.97552e+12 -1.33181e+12 -1.9052e+12 -1.443e+12 -1.84907e+12 -1.8101e+12 -1.41087e+12 -1.24529e+12 -1.18417e+12 -1.80113e+12 -1.19927e+12 -1.41103e+12 -707741000000.0 -502657000000.0 -222338000000.0 -385654000000.0 -362001000000.0 -89269100000.0 -94283000000.0 -86973600000.0 -158232000000.0 -147755000000.0 -70734500000.0 -157860000000.0 -137835000000.0 -84134300000.0 -103324000000.0 -52801600000.0 -91382500000.0 -42309900000.0 -177425000000.0 -194380000000.0 -156453000000.0 -73046200000.0 -32408400000.0 -58316200000.0 -380887000000.0 -377639000000.0 -89901900000.0 -276911000000.0 -495762000000.0 -365719000000.0 -653333000000.0 -182280000000.0 -500714000000.0 -852581000000.0 -924152000000.0 -446496000000.0 -1.24082e+12 -580192000000.0 -314825000000.0 -1.01726e+12 -1.20562e+12 -2.41342e+12 -842209000000.0 -1.7027e+12 -2.15526e+12 -1.60043e+12 -2.29286e+12 -2.34362e+12 -1.48374e+12 -2.87714e+12 -3.04042e+12 -4.42552e+12 -3.47675e+12 -2.22904e+12 -2.87073e+12 -3.27918e+12 -1.89491e+12 -4.39042e+12 -1.83842e+12 -4.70549e+12 -3.37306e+12 -2.53051e+12 -2.71566e+12 -2.97029e+12 -4.82281e+12 -5.32026e+12 -4.95745e+12 -4.99024e+12 -4.29022e+12 -6.30489e+12 -5.61679e+12 -3.555e+12 -4.23372e+12 -3.12419e+12 -3.70093e+12 -4.03132e+12 -5.4293e+12 -7.68042e+12 -4.93056e+12 -3.86796e+12 -3.33345e+12 -3.8636e+12 -2.93941e+12 -2.89018e+12 -4.41162e+12 -1.96003e+12 -3.62753e+12 -5.7978e+12 -3.38482e+12 -2.32097e+12 -1.70315e+12 -6.89132e+12 -5.97881e+12 -2.64928e+12 -5.27223e+12 -1.70679e+12 -5.45308e+12 -7.22995e+12 -2.28192e+12 -1.85666e+12 -2.40493e+12 -2.24275e+12 -3.42465e+12 -3.50523e+12 -1.74494e+12 -2.16734e+12 -4.66545e+12 -1.96311e+12 -2.73617e+12 -1.72916e+12 -1.31465e+12 -2.43361e+12 -3.64371e+12 -2.77645e+12 -3.84315e+12 -1.14249e+12 -2.03444e+12 -156260000000.0 -3.25537e+12 -1.34116e+12 -663013000000.0 -743484000000.0 -1.16037e+12 -961535000000.0 -1.71179e+12 -733308000000.0 -2.26774e+12 -1.19395e+12 -1.13733e+12 -728513000000.0 -401095000000.0 -984606000000.0 -397548000000.0 -670848000000.0 -638767000000.0 -437432000000.0 -704534000000.0 -541048000000.0 -44321400000.0 -100427000000.0 -306414000000.0 -372230000000.0 -191942000000.0 -17749900000.0 -96947300000.0 -169770000000.0 -16347500000.0 -149044000000.0 -135861000000.0 -82658100000.0 -90977600000.0 -199454000000.0 -116159000000.0 -36343100000.0 -255898000000.0 -257811000000.0 -162296000000.0 -533747000000.0 -608249000000.0 -33830600000.0 -631523000000.0 -783118000000.0 -1.07797e+12 -881477000000.0 -288651000000.0 -479834000000.0 -517268000000.0 -1.0701e+12 -1.03143e+12 -830055000000.0 -960800000000.0 -859979000000.0 -2.25976e+12 -1.17746e+12 -2.18966e+12 -2.79072e+12 -1.97412e+12 -1.83805e+12 -2.53016e+12 -3.66669e+12 -2.23031e+12 -2.92714e+12 -2.44006e+12 -1.19831e+12 -3.01938e+12 -3.35598e+12 -2.75173e+12 -5.18346e+12 -3.88993e+12 -3.33161e+12 -2.84523e+12 -5.47123e+12 -4.33191e+12 -4.30038e+12 -5.52993e+12 -3.85316e+12 -3.50872e+12 -4.67991e+12 -4.95366e+12 -3.35596e+12 -4.87346e+12 -2.90526e+12 -3.77084e+12 -2.44686e+12 -1.75864e+12 -3.67713e+12 -7.66456e+12 -4.45468e+12 -4.86424e+12 -4.27469e+12 -4.68523e+12 -3.66461e+12 -3.31004e+12 -1.7504e+12 -3.62622e+12 -1.73848e+12 -3.59606e+12 -3.93797e+12 -2.63197e+12 -3.75921e+12 -3.37622e+12 -4.992e+12 -2.87429e+12 -5.77828e+12 -4.59214e+12 -7.15351e+12 -2.28153e+12 -2.39154e+12 -5.30412e+12 -3.0391e+12 -2.88501e+12 -2.206e+12 -4.85075e+12 -3.1468e+12 -3.88148e+12 -1.7407e+12 -1.83706e+12 -2.67613e+12 -1.50254e+12 -3.14927e+12 -2.80327e+12 -2.0691e+12 -1.01675e+12 -1.29379e+12 -1.57801e+12 -2.56674e+12 -2.52671e+12 -2.46908e+12 -2.18324e+12 -1.20306e+12 -1.04318e+12 -977038000000.0 -614450000000.0 -249844000000.0 -873612000000.0 -707606000000.0 -358041000000.0 -125132000000.0 -202133000000.0 -401924000000.0 -376142000000.0 -361551000000.0 -305806000000.0 -187028000000.0 -88592200000.0 -187581000000.0 -208689000000.0 -188864000000.0 -161707000000.0 -144549000000.0 -18768100000.0 -57496500000.0 -66609200000.0 -59468700000.0 -79612000000.0 -48008900000.0 -264841000000.0 -134509000000.0 -234717000000.0 -238176000000.0 -66809700000.0 -211868000000.0 -515466000000.0 -381166000000.0 -212999000000.0 -247740000000.0 -575789000000.0 -206517000000.0 -937592000000.0 -831255000000.0 -1.18014e+12 -1.32351e+12 -989921000000.0 -1.12251e+12 -1.51755e+12 -1.35116e+12 -675040000000.0 -1.50516e+12 -719615000000.0 -2.3175e+12 -2.63382e+12 -564251000000.0 -1.42464e+12 -1.58954e+12 -1.19017e+12 -1.94706e+12 -3.20513e+12 -3.0937e+12 -2.2496e+12 -2.2356e+12 -4.02225e+12 -5.33518e+12 -3.68417e+12 -5.76865e+12 -5.65797e+12 -2.34628e+12 -6.13573e+12 -4.40646e+12 -5.1186e+12 -4.73052e+12 -3.37518e+12 -3.30765e+12 -2.70423e+12 -3.00622e+12 -5.26708e+12 -3.32628e+12 -5.12933e+12 -4.20445e+12 -4.96565e+12 -3.98681e+12 -3.51773e+12 -2.99881e+12 -3.2183e+12 -4.00996e+12 -2.84721e+12 -4.07296e+12 -4.08205e+12 -5.16336e+12 -3.27943e+12 -3.00762e+12 -8.66014e+12 -3.48178e+12 -4.39414e+12 -1.97021e+12 -4.11993e+12 -3.90895e+12 -5.03764e+12 -4.0922e+12 -2.30851e+12 -2.14084e+12 -3.07568e+12 -2.3445e+12 -1.78374e+12 -1.8485e+12 -2.54911e+12 -1.32073e+12 -2.534e+12 -3.4072e+12 -2.63984e+12 -665925000000.0 -842769000000.0 -1.06628e+12 -1.76364e+12 -2.323e+12 -1.5715e+12 -301083000000.0 -1.08457e+12 -793094000000.0 -828632000000.0 -905038000000.0 -954895000000.0 -548321000000.0 -231850000000.0 -232322000000.0 -64536400000.0 -423075000000.0 -74158600000.0 -400087000000.0 -277830000000.0 -153860000000.0 -71461100000.0 -251156000000.0 -90525400000.0 -194221000000.0 -116674000000.0 -14945800000.0 -24977500000.0 -46689000000.0 -46285000000.0 -12893000000.0 -86852500000.0 -110814000000.0 -56089700000.0 -240595000000.0 -221760000000.0 -267815000000.0 -154816000000.0 -235243000000.0 -116577000000.0 -136894000000.0 -556422000000.0 -764321000000.0 -314361000000.0 -481222000000.0 -138822000000.0 -64494600000.0 -137382000000.0 -1.40213e+12 -225359000000.0 -736045000000.0 -1.40225e+12 -1.44526e+12 -1.76221e+12 -905075000000.0 -1.78665e+12 -1.4331e+12 -439786000000.0 -1.09325e+12 -1.4183e+12 -1.2669e+12 -2.26348e+12 -1.04708e+12 -3.58022e+12 -3.66436e+12 -1.68875e+12 -2.40431e+12 -908403000000.0 -4.99328e+12 -3.23071e+12 -3.51904e+12 -2.63695e+12 -1.26073e+12 -2.21864e+12 -3.61011e+12 -3.4951e+12 -2.51621e+12 -3.00664e+12 -4.61636e+12 -3.167e+12 -3.03372e+12 -4.99707e+12 -6.32682e+12 -3.96456e+12 -3.11528e+12 -3.71511e+12 -1.8767e+12 -3.69646e+12 -1.8456e+12 -1.26652e+12 -4.01694e+12 -4.01996e+12 -2.07791e+12 -2.00463e+12 -1.66311e+12 -1.32395e+12 -4.03775e+12 -3.26744e+12 -2.31622e+12 -5.49073e+12 -4.88207e+12 -3.28929e+12 -2.10944e+12 -4.17437e+12 -2.4765e+12 -2.65888e+12 -2.74352e+12 -2.41564e+12 -790553000000.0 -1.21144e+12 -1.58026e+12 -2.80706e+12 -3.21592e+12 -1.93494e+12 -1.55533e+12 -2.34977e+12 -2.1766e+12 -770414000000.0 -1.37268e+12 -2.09503e+12 -929623000000.0 -1.45812e+12 -1.17597e+12 -425810000000.0 -1.05288e+12 -1.4364e+12 -827081000000.0 -789209000000.0 -310455000000.0 -703737000000.0 -309745000000.0 -419328000000.0 -282633000000.0 -359405000000.0 -189883000000.0 -78761500000.0 -146378000000.0 -173289000000.0 -34792100000.0 -132909000000.0 -127048000000.0 -126393000000.0 -75817200000.0 -25498900000.0 -47469800000.0 -157680000000.0 -75793100000.0 -178445000000.0 -131310000000.0 -125589000000.0 -36084900000.0 -197668000000.0 -239152000000.0 -196834000000.0 -308828000000.0 -401651000000.0 -691418000000.0 -144962000000.0 -347978000000.0 -435370000000.0 -897507000000.0 -973904000000.0 -1.39396e+12 -156784000000.0 -942149000000.0 -454194000000.0 -815033000000.0 -1.06536e+12 -453097000000.0 -1.45654e+12 -1.33386e+12 -733607000000.0 -410036000000.0 -1.61575e+12 -1.00348e+12 -637844000000.0 -465473000000.0 -1.8918e+12 -2.79809e+12 -3.04939e+12 -3.32965e+12 -3.30191e+12 -1.6705e+12 -1.21483e+12 -2.49294e+12 -2.78185e+12 -2.21627e+12 -1.9914e+12 -2.64829e+12 -2.91199e+12 -2.15995e+12 -3.79447e+12 -4.1869e+12 -3.54906e+12 -2.67114e+12 -3.3466e+12 -4.77364e+12 -2.69968e+12 -4.29783e+12 -4.12348e+12 -2.94256e+12 -2.2977e+12 -2.86928e+12 -2.45468e+12 -1.90022e+12 -1.39351e+12 -2.44812e+12 -2.93609e+12 -2.39563e+12 -2.57615e+12 -1.05331e+12 -1.89834e+12 -2.98203e+12 -1.99177e+12 -1.68114e+12 -3.74602e+12 -1.1102e+12 -3.76483e+12 -3.02067e+12 -1.93309e+12 -3.14503e+12 -2.21901e+12 -1.07232e+12 -1.14074e+12 -373725000000.0 -1.20306e+12 -1.52448e+12 -2.75754e+12 -995943000000.0 -1.07752e+12 -1.49026e+12 -1.22659e+12 -908783000000.0 -1.23418e+12 -347024000000.0 -963733000000.0 -775401000000.0 -887372000000.0 -880666000000.0 -419941000000.0 -859139000000.0 -383688000000.0 -604118000000.0 -640799000000.0 -1.0762e+12 -656799000000.0 -601761000000.0 -506525000000.0 -805693000000.0 -305716000000.0 -556874000000.0 -12549700000.0 -99198000000.0 -475288000000.0 -116541000000.0 -104829000000.0 -90540300000.0 -83077100000.0 -117169000000.0 -36394300000.0 -46562400000.0 -124806000000.0 -90623500000.0 -124551000000.0 -13713000000.0 -41980800000.0 -14763700000.0 -41665400000.0 -74906300000.0 -182161000000.0 -136343000000.0 -310865000000.0 -147701000000.0 -96768100000.0 -174554000000.0 -220945000000.0 -342846000000.0 -171249000000.0 -84197900000.0 -688059000000.0 -132532000000.0 -741909000000.0 -96291200000.0 -65173000000.0 -756076000000.0 -806915000000.0 -280564000000.0 -1.09642e+12 -443175000000.0 -955732000000.0 -1.17742e+12 -1.36433e+12 -1.05907e+12 -1.4854e+12 -751788000000.0 -2.31871e+12 -959943000000.0 -2.03647e+12 -2.15882e+12 -2.47021e+12 -3.50053e+12 -1.48669e+12 -1.86126e+12 -2.79181e+12 -4.21166e+12 -3.82078e+12 -1.45624e+12 -2.72494e+12 -4.47761e+12 -2.29296e+12 -1.40321e+12 -2.06357e+12 -4.19935e+12 -3.81152e+12 -2.74275e+12 -2.46886e+12 -1.53774e+12 -2.95518e+12 -775697000000.0 -1.48142e+12 -1.70651e+12 -1.66564e+12 -2.50849e+12 -2.24274e+12 -2.38603e+12 -2.83272e+12 -1.16534e+12 -2.53443e+12 -2.30918e+12 -2.69591e+12 -2.34691e+12 -2.26695e+12 -1.27027e+12 -1.89732e+12 -2.88568e+12 -3.06574e+12 -1.2345e+12 -2.52856e+12 -1.75349e+12 -2.51398e+12 -1.7568e+12 -2.53261e+12 -1.00341e+12 -1.35698e+12 -311262000000.0 -1.25239e+12 -1.11887e+12 -1.03448e+12 -1.46448e+12 -802423000000.0 -384762000000.0 -1.08603e+12 -564876000000.0 -344834000000.0 -694503000000.0 -561969000000.0 -824721000000.0 -914875000000.0 -188406000000.0 -405364000000.0 -197189000000.0 -314374000000.0 -301712000000.0 -340949000000.0 -153969000000.0 -67100600000.0 -271016000000.0 -131521000000.0 -142174000000.0 -153834000000.0 -82130700000.0 -80197500000.0 -78130600000.0 -60499100000.0 -97571500000.0 -84927800000.0 -12549700000.0 -138850000000.0 -70769300000.0 -67640200000.0 -177112000000.0 -57523800000.0 -97592900000.0 -58589900000.0 -218155000000.0 -150825000000.0 -84211200000.0 -245214000000.0 -135697000000.0 -265859000000.0 -447865000000.0 -268233000000.0 -209752000000.0 -486103000000.0 -867541000000.0 -113591000000.0 -830448000000.0 -413643000000.0 -1.04616e+12 -1.41451e+12 -1.2865e+12 -1.01191e+12 -676086000000.0 -963321000000.0 -421774000000.0 -694175000000.0 -1.75829e+12 -514648000000.0 -1.24754e+12 -993816000000.0 -2.71625e+12 -1.793e+12 -2.56818e+12 -1.016e+12 -1.47675e+12 -869536000000.0 -1.64188e+12 -2.22384e+12 -1.99062e+12 -2.18347e+12 -514568000000.0 -833484000000.0 -3.56711e+12 -2.37405e+12 -921676000000.0 -2.34202e+12 -3.0804e+12 -2.02015e+12 -2.2011e+12 -1.94261e+12 -1.711e+12 -2.95852e+12 -3.07179e+12 -2.8171e+12 -4.0687e+12 -3.17659e+12 -4.55893e+12 -2.58646e+12 -2.4213e+12 -3.32311e+12 -3.10659e+12 -1.71298e+12 -2.58074e+12 -2.50111e+12 -1.96547e+12 -3.05552e+12 -1.3597e+12 -2.10159e+12 -2.15988e+12 -1.32276e+12 -2.20336e+12 -1.57783e+12 -1.66929e+12 -1.8215e+12 -1.43462e+12 -1.21287e+12 -1.51303e+12 -1.75235e+12 -1.88456e+12 -3.29185e+12 -1.64537e+12 -1.47908e+12 -999800000000.0 -1.08532e+12 -758383000000.0 -956958000000.0 -772178000000.0 -302305000000.0 -1.07958e+12 -601893000000.0 -1.12253e+12 -368940000000.0 -377759000000.0 -662811000000.0 -387904000000.0 -190437000000.0 -199432000000.0 -238169000000.0 -15055900000.0 -156733000000.0 -122102000000.0 -46187100000.0 -63110200000.0 -57155300000.0 -65202900000.0 -14766500000.0 -52256400000.0 -105341000000.0 -83366900000.0 -84428300000.0 -55550900000.0 -120497000000.0 -56537100000.0 -136436000000.0 -15996500000.0 -149473000000.0 -60229500000.0 -72619900000.0 -15279000000.0 -226018000000.0 -24572600000.0 -256947000000.0 -182605000000.0 -91000400000.0 -243229000000.0 -50993000000.0 -330827000000.0 -418589000000.0 -169882000000.0 -559735000000.0 -12549700000.0 -28816100000.0 -469250000000.0 -39689800000.0 -816216000000.0 -603581000000.0 -422693000000.0 -1.12179e+12 -771547000000.0 -1.58443e+12 -1.43967e+12 -935976000000.0 -1.85056e+12 -2.50419e+12 -2.10323e+12 -730841000000.0 -1.14186e+12 -1.48412e+12 -1.17145e+12 -725863000000.0 -2.32608e+12 -1.26479e+12 -499080000000.0 -3.33864e+12 -1.96556e+12 -3.98644e+12 -1.62795e+12 -1.47018e+12 -1.45425e+12 -1.42632e+12 -2.59924e+12 -1.8131e+12 -3.7442e+12 -1.58598e+12 -1.38566e+12 -3.11736e+12 -1.47034e+12 -1.94657e+12 -1.54056e+12 -1.13771e+12 -1.13181e+12 -2.46036e+12 -919956000000.0 -2.86562e+12 -1.40472e+12 -1.59529e+12 -1.35357e+12 -1.18953e+12 -1.81682e+12 -1.82103e+12 -986055000000.0 -1.295e+12 -1.70593e+12 -986812000000.0 -1.08614e+12 -290783000000.0 -1.95748e+12 -1.09762e+12 -1.54592e+12 -176936000000.0 -733912000000.0 -2.26063e+12 -1.24556e+12 -323804000000.0 -1.5439e+12 -646242000000.0 -981047000000.0 -433105000000.0 -404790000000.0 -689768000000.0 -1.04005e+12 -154952000000.0 -173143000000.0 -353834000000.0 -331796000000.0 -295344000000.0 -268166000000.0 -454325000000.0 -326451000000.0 -88087200000.0 -169801000000.0 -234685000000.0 -117191000000.0 -87968000000.0 -119634000000.0 -134288000000.0 -64912000000.0 -99657400000.0 -86187800000.0 -86417700000.0 -92883200000.0 -115382000000.0 -129581000000.0 -40471600000.0 -17786800000.0 -191727000000.0 -64134500000.0 -118028000000.0 -99358100000.0 -223996000000.0 -287660000000.0 -193978000000.0 -15424700000.0 -169078000000.0 -140117000000.0 -245065000000.0 -275962000000.0 -306004000000.0 -476712000000.0 -394496000000.0 -702545000000.0 -1.04158e+12 -505325000000.0 -973368000000.0 -1.3514e+12 -654521000000.0 -741377000000.0 -1.34198e+12 -1.7184e+12 -1.13531e+12 -2.32027e+12 -2.34462e+12 -1.31594e+12 -839288000000.0 -85247200000.0 -813369000000.0 -948032000000.0 -1.96517e+12 -3.26317e+12 -1.06211e+12 -1.20408e+12 -2.47492e+12 -2.10462e+12 -1.89267e+12 -1.95722e+12 -1.37685e+12 -1.41939e+12 -2.30861e+12 -2.2559e+12 -1.66381e+12 -1.86349e+12 -3.40181e+12 -2.55948e+12 -2.76182e+12 -520058000000.0 -1.15562e+12 -985541000000.0 -1.58099e+12 -1.6801e+12 -607045000000.0 -2.18605e+12 -1.50388e+12 -1.83487e+12 -1.54265e+12 -1.21371e+12 -1.6056e+12 -1.47915e+12 -346479000000.0 -866473000000.0 -604907000000.0 -2.29219e+12 -1.74961e+12 -471854000000.0 -709145000000.0 -1.13162e+12 -686492000000.0 -2.49677e+12 -1.19707e+12 -639471000000.0 -584620000000.0 -1.08845e+12 -837863000000.0 -443591000000.0 -637876000000.0 -877820000000.0 -706015000000.0 -337481000000.0 -385100000000.0 -62675700000.0 -422922000000.0 -186970000000.0 -140872000000.0 -35419100000.0 -43372200000.0 -246058000000.0 -86375800000.0 -104549000000.0 -121423000000.0 -81996400000.0 -100305000000.0 -105885000000.0 -119066000000.0 -165595000000.0 -111106000000.0 -115244000000.0 -142696000000.0 -83906500000.0 -74435200000.0 -72136200000.0 -59679300000.0 -199959000000.0 -281161000000.0 -279255000000.0 -12549700000.0 -217017000000.0 -287133000000.0 -244650000000.0 -230579000000.0 -382798000000.0 -465168000000.0 -41716500000.0 -744274000000.0 -465830000000.0 -207388000000.0 -773218000000.0 -1.52644e+12 -896960000000.0 -1.61946e+12 -535964000000.0 -1.26233e+12 -529514000000.0 -947888000000.0 -815902000000.0 -1.51704e+12 -1.44239e+12 -1.83317e+12 -1.7256e+12 -656770000000.0 -1.12881e+12 -870030000000.0 -3.45727e+12 -1.66232e+12 -3.02587e+12 -1.61772e+12 -3.38539e+12 -2.52074e+12 -1.39519e+12 -446262000000.0 -429100000000.0 -775243000000.0 -1.11169e+12 -1.35612e+12 -1.13346e+12 -1.72814e+12 -740331000000.0 -1.61177e+12 -1.14636e+12 -474715000000.0 -226845000000.0 -844429000000.0 -338060000000.0 -1.57809e+12 -1.04195e+12 -310712000000.0 -793216000000.0 -584507000000.0 -890828000000.0 -1.33296e+12 -182638000000.0 -355658000000.0 -655914000000.0 -272405000000.0 -539976000000.0 -519704000000.0 -450977000000.0 -110579000000.0 -382697000000.0 -698609000000.0 -61717200000.0 -360605000000.0 -196454000000.0 -460721000000.0 -471799000000.0 -275314000000.0 -74071800000.0 -186206000000.0 -105488000000.0 -143367000000.0 -86421900000.0 -138207000000.0 -70465600000.0 -27971700000.0 -24349100000.0 -51886100000.0 -69286000000.0 -12549700000.0 -81182800000.0 -82856500000.0 -55551700000.0 -63710000000.0 -14965200000.0 -124062000000.0 -146829000000.0 -20438900000.0 -131406000000.0 -148662000000.0 -193057000000.0 -164442000000.0 -208185000000.0 -100639000000.0 -181139000000.0 -36432200000.0 -102677000000.0 -324113000000.0 -18169700000.0 -441640000000.0 -93682000000.0 -346685000000.0 -478536000000.0 -363274000000.0 -125216000000.0 -536520000000.0 -402529000000.0 -771165000000.0 -1.16813e+12 -858670000000.0 -279565000000.0 -989607000000.0 -637533000000.0 -1.18864e+12 -1.74197e+12 -716278000000.0 -1.10841e+12 -1.31733e+12 -628487000000.0 -1.21262e+12 -2.28763e+12 -1.39442e+12 -2.27339e+12 -1.4945e+12 -1.0963e+12 -1.96039e+12 -2.49751e+12 -2.11653e+12 -607477000000.0 -3.82985e+12 -1.11699e+12 -410500000000.0 -1.35617e+12 -2.83996e+12 -1.06371e+12 -305657000000.0 -1.65613e+12 -1.17652e+12 -449609000000.0 -2.19111e+12 -496879000000.0 -626528000000.0 -1.25734e+12 -1.61358e+12 -344665000000.0 -1.33014e+12 -620010000000.0 -786855000000.0 -595913000000.0 -517934000000.0 -330446000000.0 -890250000000.0 -445041000000.0 -373662000000.0 -573031000000.0 -734883000000.0 -165471000000.0 -54045500000.0 -673377000000.0 -714344000000.0 -1.01894e+12 -104618000000.0 -124562000000.0 -341326000000.0 -379617000000.0 -435908000000.0 -304213000000.0 -233918000000.0 -667562000000.0 -179846000000.0 -319117000000.0 -269249000000.0 -113392000000.0 -484918000000.0 -252473000000.0 -172565000000.0 -20305500000.0 -145058000000.0 -193729000000.0 -302683000000.0 -273705000000.0 -233881000000.0 -33826700000.0 -158449000000.0 -23385400000.0 -95093700000.0 -63065000000.0 -44451900000.0 -102223000000.0 -63057300000.0 -60582100000.0 -64906800000.0 -68629500000.0 -87819800000.0 -56683500000.0 -63665200000.0 -76710100000.0 -38379100000.0 -63626800000.0 -40578800000.0 -99630900000.0 -168272000000.0 -17711300000.0 -57098300000.0 -249067000000.0 -99238400000.0 -33245500000.0 -45583800000.0 -172706000000.0 -293474000000.0 -180202000000.0 -172062000000.0 -342750000000.0 -546613000000.0 -38995400000.0 -532511000000.0 -338446000000.0 -331714000000.0 -293259000000.0 -472675000000.0 -557426000000.0 -553679000000.0 -699009000000.0 -480715000000.0 -306747000000.0 -467257000000.0 -710237000000.0 -1.80833e+12 -581018000000.0 -769702000000.0 -896913000000.0 -804315000000.0 -510861000000.0 -1.92749e+12 -1.46167e+12 -1.33936e+12 -362385000000.0 -1.3235e+12 -1.45453e+12 -335339000000.0 -728550000000.0 -2.61135e+12 -1.09102e+12 -1.70283e+12 -453941000000.0 -1.16126e+12 -481453000000.0 -1.05531e+12 -819552000000.0 -358015000000.0 -315922000000.0 -1.20343e+12 -946637000000.0 -736669000000.0 -139130000000.0 -1.28108e+12 -196584000000.0 -1.07373e+12 -28777000000.0 -516849000000.0 -840774000000.0 -839638000000.0 -692424000000.0 -234043000000.0 -953712000000.0 -366168000000.0 -365515000000.0 -416455000000.0 -977257000000.0 -953768000000.0 -119657000000.0 -557596000000.0 -84024200000.0 -52856900000.0 -143723000000.0 -579991000000.0 -74139600000.0 -380615000000.0 -242760000000.0 -121809000000.0 -116173000000.0 -105121000000.0 -223086000000.0 -159421000000.0 -116099000000.0 -179633000000.0 -59353800000.0 -43610400000.0 -123704000000.0 -194864000000.0 -73195000000.0 -59605700000.0 -72712900000.0 -329630000000.0 -162258000000.0 -177013000000.0 -53786800000.0 -123344000000.0 -109724000000.0 -75550800000.0 -118202000000.0 -58337100000.0 -51466700000.0 -35304200000.0 -94738100000.0 -41351700000.0 -44524900000.0 -38488600000.0 -176009000000.0 -93565800000.0 -118624000000.0 -118706000000.0 -100974000000.0 -38361500000.0 -87634900000.0 -193215000000.0 -42682200000.0 -114969000000.0 -125526000000.0 -127478000000.0 -29359300000.0 -149945000000.0 -77580000000.0 -279766000000.0 -19446300000.0 -232608000000.0 -448848000000.0 -164853000000.0 -33639700000.0 -251024000000.0 -507821000000.0 -820065000000.0 -388463000000.0 -430056000000.0 -415242000000.0 -429362000000.0 -346257000000.0 -288281000000.0 -380739000000.0 -182151000000.0 -364059000000.0 -703023000000.0 -954447000000.0 -544094000000.0 -885764000000.0 -1.29071e+12 -860778000000.0 -392431000000.0 -925079000000.0 -1.54192e+12 -742324000000.0 -1.0182e+12 -1.65712e+12 -995164000000.0 -1.42812e+12 -1.52981e+12 -1.25568e+12 -1.31934e+12 -651726000000.0 -222770000000.0 -679416000000.0 -799985000000.0 -1.48262e+12 -1.33169e+12 -689654000000.0 -369692000000.0 -363057000000.0 -421257000000.0 -676559000000.0 -1.09704e+12 -684877000000.0 -514327000000.0 -224285000000.0 -552735000000.0 -511016000000.0 -494099000000.0 -93710700000.0 -347114000000.0 -326894000000.0 -337118000000.0 -796055000000.0 -28500200000.0 -696470000000.0 -139301000000.0 -66619500000.0 -122839000000.0 -167178000000.0 -367039000000.0 -567185000000.0 -37490000000.0 -12549700000.0 -185630000000.0 -102564000000.0 -205751000000.0 -65229000000.0 -81559400000.0 -52692300000.0 -84032700000.0 -119485000000.0 -128467000000.0 -32707200000.0 -62682800000.0 -168686000000.0 -96019700000.0 -82320500000.0 -40599200000.0 -139946000000.0 -58692200000.0 -55127500000.0 -92361900000.0 -69822700000.0 -12549700000.0 -64796000000.0 -113848000000.0 -58701800000.0 -53118800000.0 -122303000000.0 -64586400000.0 -16916300000.0 -66388300000.0 -155954000000.0 -49467300000.0 -13547600000.0 -75269100000.0 -52788000000.0 -122275000000.0 -17826000000.0 -145867000000.0 -132260000000.0 -144124000000.0 -77943800000.0 -82796100000.0 -163258000000.0 -73882500000.0 -144483000000.0 -168061000000.0 -240480000000.0 -445127000000.0 -355761000000.0 -329339000000.0 -375178000000.0 -488736000000.0 -294500000000.0 -410744000000.0 -298960000000.0 -526636000000.0 -387704000000.0 -1.11629e+12 -585024000000.0 -850231000000.0 -800179000000.0 -775633000000.0 -751592000000.0 -902578000000.0 -551739000000.0 -816311000000.0 -1.00977e+12 -786432000000.0 -1.13123e+12 -714345000000.0 -723031000000.0 -1.93575e+12 -691597000000.0 -780216000000.0 -719367000000.0 -854668000000.0 -26993000000.0 -489283000000.0 -824039000000.0 -420930000000.0 -372378000000.0 -326057000000.0 -391195000000.0 -735255000000.0 -30646400000.0 -164227000000.0 -20731200000.0 -573678000000.0 -479381000000.0 -178000000000.0 -613721000000.0 -504599000000.0 -529544000000.0 -58287200000.0 -539489000000.0 -61667700000.0 -545073000000.0 -381611000000.0 -287441000000.0 -217303000000.0 -176885000000.0 -118613000000.0 -18120600000.0 -220753000000.0 -129025000000.0 -189078000000.0 -25357700000.0 -117830000000.0 -157523000000.0 -101267000000.0 -51975300000.0 -60464800000.0 -124014000000.0 -130345000000.0 -24816500000.0 -14290200000.0 -14231000000.0 -66398200000.0 -155367000000.0 -13409500000.0 -158220000000.0 -88505600000.0 -91542100000.0 -127979000000.0 -35077700000.0 -98211700000.0 -18320800000.0 -59306100000.0 -95978000000.0 -49016400000.0 -48649600000.0 -53846700000.0 -12835000000.0 -57763000000.0 -112067000000.0 -69764100000.0 -77268800000.0 -12614500000.0 -63174800000.0 -92242900000.0 -37381600000.0 -14527700000.0 -75537500000.0 -37491200000.0 -53596500000.0 -140796000000.0 -14053700000.0 -103070000000.0 -116356000000.0 -261137000000.0 -43612300000.0 -14931300000.0 -134737000000.0 -190917000000.0 -130485000000.0 -552764000000.0 -435989000000.0 -328557000000.0 -58399800000.0 -286902000000.0 -382120000000.0 -257324000000.0 -122840000000.0 -337613000000.0 -516530000000.0 -363501000000.0 -483784000000.0 -473383000000.0 -312025000000.0 -510229000000.0 -282987000000.0 -468107000000.0 -588453000000.0 -655946000000.0 -405345000000.0 -392992000000.0 -896780000000.0 -255064000000.0 -801403000000.0 -670395000000.0 -1.02031e+12 -784023000000.0 -947380000000.0 -807654000000.0 -971378000000.0 -362683000000.0 -1.06408e+12 -665417000000.0 -617044000000.0 -679377000000.0 -353141000000.0 -526042000000.0 -532093000000.0 -978428000000.0 -361508000000.0 -564946000000.0 -440451000000.0 -219765000000.0 -536241000000.0 -349622000000.0 -742151000000.0 -240314000000.0 -247780000000.0 -318743000000.0 -195849000000.0 -323413000000.0 -225807000000.0 -87241500000.0 -340452000000.0 -431018000000.0 -402694000000.0 -86665100000.0 -338753000000.0 -181661000000.0 -87415800000.0 -237513000000.0 -84673300000.0 -79214400000.0 -68378200000.0 -52398200000.0 -194044000000.0 -204818000000.0 -41980000000.0 -91160500000.0 -22599800000.0 -12549700000.0 -84465100000.0 -49854900000.0 -85925500000.0 -45878300000.0 -44779100000.0 -111807000000.0 -83592700000.0 -28268900000.0 -128934000000.0 -33057700000.0 -62498500000.0 -47332800000.0 -77975700000.0 -37492800000.0 -77617400000.0 -43590800000.0 -61517100000.0 -56080300000.0 -73001400000.0 -38461200000.0 -25336400000.0 -55444700000.0 -94333100000.0 -75435300000.0 -158199000000.0 -119129000000.0 -172902000000.0 -57881800000.0 -71357300000.0 -88981000000.0 -190138000000.0 -219291000000.0 -209728000000.0 -374221000000.0 -141127000000.0 -373476000000.0 -66386000000.0 -257935000000.0 -36274700000.0 -253335000000.0 -198068000000.0 -279217000000.0 -676641000000.0 -137662000000.0 -335572000000.0 -91020900000.0 -193313000000.0 -268226000000.0 -578190000000.0 -348813000000.0 -435893000000.0 -376831000000.0 -842750000000.0 -878522000000.0 -640567000000.0 -707627000000.0 -477139000000.0 -377885000000.0 -677482000000.0 -241984000000.0 -840007000000.0 -738716000000.0 -564099000000.0 -160142000000.0 -459730000000.0 -464160000000.0 -229546000000.0 -341828000000.0 -82820200000.0 -64718300000.0 -121271000000.0 -706302000000.0 -431359000000.0 -475214000000.0 -314242000000.0 -176438000000.0 -324241000000.0 -340296000000.0 -256195000000.0 -417461000000.0 -198360000000.0 -223621000000.0 -29981100000.0 -285876000000.0 -22117800000.0 -87624900000.0 -349691000000.0 -311026000000.0 -391381000000.0 -242529000000.0 -353193000000.0 -174226000000.0 -165791000000.0 -155338000000.0 -217895000000.0 -46894700000.0 -87750600000.0 -102810000000.0 -110978000000.0 -48208600000.0 -58420000000.0 -65835800000.0 -12610300000.0 -68140700000.0 -88831400000.0 -53744700000.0 -29967500000.0 -54831900000.0 -39936600000.0 -62313400000.0 -100457000000.0 -68911000000.0 -51373200000.0 -36099400000.0 -35825200000.0 -69474500000.0 -58258200000.0 -67190400000.0 -65442700000.0 -43208400000.0 -42988000000.0 -82671000000.0 -74539500000.0 -109197000000.0 -13792200000.0 -40227100000.0 -148170000000.0 -44212100000.0 -109755000000.0 -53885200000.0 -25801800000.0 -34430500000.0 -41586200000.0 -86683500000.0 -112396000000.0 -77901700000.0 -115551000000.0 -45085900000.0 -208239000000.0 -67818000000.0 -372223000000.0 -200251000000.0 -157028000000.0 -471916000000.0 -18117200000.0 -431639000000.0 -388176000000.0 -358917000000.0 -208134000000.0 -480479000000.0 -338267000000.0 -298719000000.0 -416123000000.0 -352202000000.0 -423611000000.0 -118548000000.0 -347802000000.0 -312235000000.0 -12549700000.0 -486562000000.0 -116596000000.0 -367063000000.0 -118919000000.0 -248591000000.0 -596480000000.0 -626059000000.0 -688303000000.0 -23522300000.0 -344962000000.0 -453158000000.0 -512868000000.0 -536735000000.0 -428491000000.0 -270600000000.0 -527481000000.0 -481456000000.0 -697787000000.0 -172295000000.0 -174023000000.0 -63455200000.0 -219637000000.0 -136449000000.0 -103795000000.0 -118083000000.0 -164854000000.0 -46794500000.0 -257183000000.0 -146175000000.0 -48803000000.0 -36770600000.0 -38543300000.0 -266267000000.0 -94435600000.0 -214275000000.0 -34528900000.0 -170289000000.0 -114264000000.0 -69894600000.0 -12549700000.0 -12942400000.0 -49230400000.0 -20228200000.0 -122618000000.0 -21144500000.0 -65597400000.0 -58582100000.0 -22408200000.0 -66164500000.0 -61591900000.0 -80791900000.0 -25094900000.0 -27075100000.0 -44166500000.0 -80604400000.0 -12549700000.0 -39507400000.0 -70153300000.0 -52600700000.0 -13068200000.0 -46547700000.0 -61242300000.0 -32770400000.0 -76754100000.0 -83904300000.0 -65012400000.0 -34422300000.0 -43075200000.0 -68123800000.0 -15037200000.0 -17052000000.0 -37633200000.0 -12678400000.0 -117038000000.0 -42375900000.0 -39790400000.0 -58218600000.0 -12549700000.0 -55689800000.0 -80557000000.0 -57983100000.0 -41141300000.0 -76561900000.0 -118654000000.0 -85439000000.0 -92368100000.0 -110525000000.0 -115898000000.0 -178236000000.0 -97705800000.0 -117703000000.0 -237535000000.0 -164598000000.0 -102474000000.0 -105876000000.0 -181647000000.0 -28651900000.0 -185623000000.0 -283149000000.0 -257225000000.0 -327688000000.0 -160188000000.0 -275560000000.0 -311297000000.0 -294114000000.0 -285831000000.0 -554905000000.0 -779614000000.0 -604289000000.0 -539192000000.0 -282212000000.0 -699920000000.0 -613043000000.0 -506045000000.0 -732821000000.0 -478187000000.0 -519524000000.0 -1.01721e+12 -582567000000.0 -184479000000.0 -203530000000.0 -218807000000.0 -314129000000.0 -176728000000.0 -63827900000.0 -72592700000.0 -166646000000.0 -132781000000.0 -12549700000.0 -146019000000.0 -38826500000.0 -175903000000.0 -123543000000.0 -78008200000.0 -114864000000.0 -128140000000.0 -183580000000.0 -136725000000.0 -190582000000.0 -60754100000.0 -156358000000.0 -69881100000.0 -71053600000.0 -80073900000.0 -38136700000.0 -35732900000.0 -37181400000.0 -117610000000.0 -104097000000.0 -127172000000.0 -95327500000.0 -53746100000.0 -67902900000.0 -43425800000.0 -63465000000.0 -21665100000.0 -21528800000.0 -30268600000.0 -81907400000.0 -31714300000.0 -50941300000.0 -83734300000.0 -47102700000.0 -80253600000.0 -66756300000.0 -45224900000.0 -67581900000.0 -61666800000.0 -57522800000.0 -46575700000.0 -78414400000.0 -86296600000.0 -82690100000.0 -80313900000.0 -81366000000.0 -87884200000.0 -68360400000.0 -40634500000.0 -32776000000.0 -55782000000.0 -54048800000.0 -91270300000.0 -81230700000.0 -14804800000.0 -60751800000.0 -43812600000.0 -41193700000.0 -155410000000.0 -118907000000.0 -45790600000.0 -51929900000.0 -179555000000.0 -174653000000.0 -152722000000.0 -148841000000.0 -212516000000.0 -165717000000.0 -12549700000.0 -107864000000.0 -120426000000.0 -317558000000.0 -72824200000.0 -211713000000.0 -67954900000.0 -146934000000.0 -34479900000.0 -323007000000.0 -331463000000.0 -386178000000.0 -620123000000.0 -51978000000.0 -270769000000.0 -229857000000.0 -557199000000.0 -217460000000.0 -33128200000.0 -573691000000.0 -204119000000.0 -433549000000.0 -729823000000.0 -335445000000.0 -103578000000.0 -144179000000.0 -132750000000.0 -295741000000.0 -140347000000.0 -65741000000.0 -68520600000.0 -98873700000.0 -158898000000.0 -156864000000.0 -127388000000.0 -94915300000.0 -72067700000.0 -178934000000.0 -93995800000.0 -129330000000.0 -81755500000.0 -81591000000.0 -57740500000.0 -159234000000.0 -18909400000.0 -153781000000.0 -57965400000.0 -117405000000.0 -67660400000.0 -49498600000.0 -25688300000.0 -28072500000.0 -38320100000.0 -41419000000.0 -100053000000.0 -35432900000.0 -49311500000.0 -32173300000.0 -58568500000.0 -80330100000.0 -41901100000.0 -38849800000.0 -24464300000.0 -41253800000.0 -28551300000.0 -63623000000.0 -48116700000.0 -28228700000.0 -24700800000.0 -18658800000.0 -40618700000.0 -50318300000.0 -28076700000.0 -50665900000.0 -37059500000.0 -24500300000.0 -24707200000.0 -73334400000.0 -53489200000.0 -71324800000.0 -65765900000.0 -59853100000.0 -70828700000.0 -79104900000.0 -110715000000.0 -85794400000.0 -88429400000.0 -143717000000.0 -127636000000.0 -15732900000.0 -98427700000.0 -141680000000.0 -234575000000.0 -154656000000.0 -142661000000.0 -159904000000.0 -166561000000.0 -240460000000.0 -117166000000.0 -109031000000.0 -242459000000.0 -369243000000.0 -80984300000.0 -125662000000.0 -181343000000.0 -222221000000.0 -170602000000.0 -25099900000.0 -253539000000.0 -58620200000.0 -521816000000.0 -253987000000.0 -245737000000.0 -217629000000.0 -272269000000.0 -186181000000.0 -266521000000.0 -168832000000.0 -239643000000.0 -491981000000.0 -812070000000.0 -313127000000.0 -116526000000.0 -139759000000.0 -125244000000.0 -153338000000.0 -269216000000.0 -156639000000.0 -165207000000.0 -25002100000.0 -49080700000.0 -74910800000.0 -34091900000.0 -18135000000.0 -39703600000.0 -101583000000.0 -48419100000.0 -81500600000.0 -17217900000.0 -58579200000.0 -144133000000.0 -63527000000.0 -154364000000.0 -84021300000.0 -90625000000.0 -52434500000.0 -59909100000.0 -25182400000.0 -14964500000.0 -17368100000.0 -31945200000.0 -58873800000.0 -54978900000.0 -49380200000.0 -34536900000.0 -12549700000.0 -13040600000.0 -16226800000.0 -15277700000.0 -30852800000.0 -13229000000.0 -66188300000.0 -35648400000.0 -35943900000.0 -21832100000.0 -28161700000.0 -55728200000.0 -61892500000.0 -19033000000.0 -31581100000.0 -54379200000.0 -14100300000.0 -33079700000.0 -12549700000.0 -38740100000.0 -27040600000.0 -48823900000.0 -41494000000.0 -42426400000.0 -22383300000.0 -86467700000.0 -14974900000.0 -66809800000.0 -59923800000.0 -25892100000.0 -71173500000.0 -43863500000.0 -73498200000.0 -137402000000.0 -25974900000.0 -113821000000.0 -62843500000.0 -104497000000.0 -160949000000.0 -157141000000.0 -37371100000.0 -75440200000.0 -302284000000.0 -178643000000.0 -79039000000.0 -14114600000.0 -98849000000.0 -12549700000.0 -166994000000.0 -39260300000.0 -174739000000.0 -90170600000.0 -78003000000.0 -294111000000.0 -253400000000.0 -339837000000.0 -167387000000.0 -250851000000.0 -126569000000.0 -130228000000.0 -30242100000.0 -368136000000.0 -157333000000.0 -270135000000.0 -432145000000.0 -164828000000.0 -113630000000.0 -240718000000.0 -163290000000.0 -235506000000.0 -13453500000.0 -14901300000.0 -103558000000.0 -12549700000.0 -72764200000.0 -33333500000.0 -12549700000.0 -41276400000.0 -29992900000.0 -48476200000.0 -50142700000.0 -48334200000.0 -57453600000.0 -48966500000.0 -17137400000.0 -91144400000.0 -26107000000.0 -107015000000.0 -74985900000.0 -27174400000.0 -85291200000.0 -31771000000.0 -31975600000.0 -35282100000.0 -33612300000.0 -47380700000.0 -63891000000.0 -42393900000.0 -37561500000.0 -42377700000.0 -22804100000.0 -42075000000.0 -21792400000.0 -21546800000.0 -19756300000.0 -51660100000.0 -41266700000.0 -38750900000.0 -44455200000.0 -57453500000.0 -54178600000.0 -59695600000.0 -25480100000.0 -60385700000.0 -49127600000.0 -38352700000.0 -30829000000.0 -30144600000.0 -41215400000.0 -42845800000.0 -33841900000.0 -33596100000.0 -13489300000.0 -75789300000.0 -43650600000.0 -46387500000.0 -44835500000.0 -71389600000.0 -23699100000.0 -84928500000.0 -128646000000.0 -23618300000.0 -77840100000.0 -101941000000.0 -114488000000.0 -49444100000.0 -69982400000.0 -53173800000.0 -38127600000.0 -40349200000.0 -108718000000.0 -79246300000.0 -83905000000.0 -136069000000.0 -120568000000.0 -139273000000.0 -103336000000.0 -102984000000.0 -193819000000.0 -55992400000.0 -220754000000.0 -51761300000.0 -363015000000.0 -155073000000.0 -185519000000.0 -115117000000.0 -199676000000.0 -179862000000.0 -103736000000.0 -175333000000.0 -182771000000.0 -203599000000.0 -116984000000.0 -110489000000.0 -237042000000.0 -29921000000.0 -25794600000.0 -85827800000.0 -74099800000.0 -26806500000.0 -36273800000.0 -47344500000.0 -31080000000.0 -14373800000.0 -19011900000.0 -51167600000.0 -15390100000.0 -52589700000.0 -47084400000.0 -38285300000.0 -131407000000.0 -108290000000.0 -55860000000.0 -55583700000.0 -31978700000.0 -27817900000.0 -60526400000.0 -52803900000.0 -36159800000.0 -60571600000.0 -61257300000.0 -50899900000.0 -42911300000.0 -55253200000.0 -43025100000.0 -45224400000.0 -39934900000.0 -43395900000.0 -12549700000.0 -21239300000.0 -13076200000.0 -57452900000.0 -12599600000.0 -14096600000.0 -49558200000.0 -33415400000.0 -30982300000.0 -56001700000.0 -38938500000.0 -48213900000.0 -47659900000.0 -47056700000.0 -48721400000.0 -96888700000.0 -87981700000.0 -18484200000.0 -22330500000.0 -24901000000.0 -22943700000.0 -21255900000.0 -77049200000.0 -61850400000.0 -66791600000.0 -59281000000.0 -28205900000.0 -59698000000.0 -56568900000.0 -35030700000.0 -25830500000.0 -31649200000.0 -48186700000.0 -65097800000.0 -35033900000.0 -30305200000.0 -12646400000.0 -95976000000.0 -58898100000.0 -43059200000.0 -76187400000.0 -224951000000.0 -88684900000.0 -36503500000.0 -51983300000.0 -45186800000.0 -130156000000.0 -105920000000.0 -101923000000.0 -71964500000.0 -81390500000.0 -186403000000.0 -201971000000.0 -113706000000.0 -152656000000.0 -104164000000.0 -209997000000.0 -126172000000.0 -196511000000.0 -75208400000.0 -64078100000.0 -121461000000.0 -61491600000.0 -152135000000.0 -23528000000.0 -382636000000.0 -119259000000.0 -97099700000.0 -72225200000.0 -12549700000.0 -45645500000.0 -152149000000.0 -19668600000.0 -60924100000.0 -73042600000.0 -36613800000.0 -28346800000.0 -24783300000.0 -16562900000.0 -36552200000.0 -36056600000.0 -26068100000.0 -19706900000.0 -55258100000.0 -31874500000.0 -58271000000.0 -63826800000.0 -54687600000.0 -108357000000.0 -24384400000.0 -66617800000.0 -35608800000.0 -20602100000.0 -14688300000.0 -72763400000.0 -31420800000.0 -13981300000.0 -40626600000.0 -22071700000.0 -14356200000.0 -12652800000.0 -64924900000.0 -34235700000.0 -29639700000.0 -12549700000.0 -12564400000.0 -35425700000.0 -30675200000.0 -42561000000.0 -30743900000.0 -19453700000.0 -16620200000.0 -37312600000.0 -38053800000.0 -26228700000.0 -21312600000.0 -29262500000.0 -15083900000.0 -29335400000.0 -25634800000.0 -36753200000.0 -70890000000.0 -43808400000.0 -13158300000.0 -13540500000.0 -13818700000.0 -25440500000.0 -72062300000.0 -41374600000.0 -53087500000.0 -36574200000.0 -67053500000.0 -47294400000.0 -12668400000.0 -80542800000.0 -47427600000.0 -71200800000.0 -61318100000.0 -31951500000.0 -22996000000.0 -66763300000.0 -23863400000.0 -81450700000.0 -12549700000.0 -12549700000.0 -41763800000.0 -47148100000.0 -49585800000.0 -109334000000.0 -12549700000.0 -26354400000.0 -66602100000.0 -90880200000.0 -45741100000.0 -67852000000.0 -40055600000.0 -168558000000.0 -145840000000.0 -44709700000.0 -95723100000.0 -102562000000.0 -23675800000.0 -107523000000.0 -63976100000.0 -189128000000.0 -267525000000.0 -251000000000.0 -183149000000.0 -383431000000.0 -124299000000.0 -56396200000.0 -103062000000.0 -46344900000.0 -43287200000.0 -14417700000.0 -59722700000.0 -117961000000.0 -128476000000.0 -56766400000.0 -64938300000.0 -67379600000.0 -72276400000.0 -56672600000.0 -29682900000.0 -35120800000.0 -33108600000.0 -20603400000.0 -59686300000.0 -35332400000.0 -41013500000.0 -18702000000.0 -34344700000.0 -42193900000.0 -36881200000.0 -36126500000.0 -46510200000.0 -14772300000.0 -70177000000.0 -60880400000.0 -69177600000.0 -93277900000.0 -39269400000.0 -29956100000.0 -40474700000.0 -54242100000.0 -37059700000.0 -35542300000.0 -40273400000.0 -46375500000.0 -36487500000.0 -14688400000.0 -29227900000.0 -12916000000.0 -12628000000.0 -34487000000.0 -25214900000.0 -42425400000.0 -30912900000.0 -25464500000.0 -31004000000.0 -17188900000.0 -23695100000.0 -26914400000.0 -24336100000.0 -18499200000.0 -34144900000.0 -20972100000.0 -18936300000.0 -36761600000.0 -46350500000.0 -57666200000.0 -46370100000.0 -59325700000.0 -80050300000.0 -22926000000.0 -23933900000.0 -51586800000.0 -48467900000.0 -27632800000.0 -26246400000.0 -12806900000.0 -70603000000.0 -21655200000.0 -55537700000.0 -53730400000.0 -40237100000.0 -48514700000.0 -20464600000.0 -43970200000.0 -18482800000.0 -71037000000.0 -62020700000.0 -36619400000.0 -17168800000.0 -50407800000.0 -13385800000.0 -60562900000.0 -15681400000.0 -43860000000.0 -52864200000.0 -112052000000.0 -50608200000.0 -60840300000.0 -110353000000.0 -107224000000.0 -71498800000.0 -107741000000.0 -74254700000.0 -89450400000.0 -88721800000.0 -82368200000.0 -137759000000.0 -225146000000.0 -45738500000.0 -102784000000.0 -17833600000.0 -37776400000.0 -78230000000.0 -88298200000.0 -53479300000.0 -60420400000.0 -12629500000.0 -47477000000.0 -25999900000.0 -36919200000.0 -34209900000.0 -42065300000.0 -45978400000.0 -43471800000.0 -64923400000.0 -43711200000.0 -41124600000.0 -52246500000.0 -56895800000.0 -59249000000.0 -43365600000.0 -57584700000.0 -60843200000.0 -78233100000.0 -17709200000.0 -22958200000.0 -47934500000.0 -35955200000.0 -33774800000.0 -42991800000.0 -36884500000.0 -35529500000.0 -46790700000.0 -19179400000.0 -13994400000.0 -25272400000.0 -28752200000.0 -22265500000.0 -32111200000.0 -12642900000.0 -14612400000.0 -33586400000.0 -22448700000.0 -20934500000.0 -21023400000.0 -21652700000.0 -31028500000.0 -30243700000.0 -30484200000.0 -30400000000.0 -46130400000.0 -33592100000.0 -43521200000.0 -20349900000.0 -38730600000.0 -24177200000.0 -24422400000.0 -34249000000.0 -13947000000.0 -57392200000.0 -34691200000.0 -34013100000.0 -46755900000.0 -46671500000.0 -44465900000.0 -50694000000.0 -44977800000.0 -62486300000.0 -46821300000.0 -37596300000.0 -46524500000.0 -39523900000.0 -20812900000.0 -75908000000.0 -44271800000.0 -31002400000.0 -64118100000.0 -42100700000.0 -42278900000.0 -14930300000.0 -35030100000.0 -50764100000.0 -15703400000.0 -87133100000.0 -67997400000.0 -74522200000.0 -48268900000.0 -41786400000.0 -96991400000.0 -44907300000.0 -86831600000.0 -32780700000.0 -47742300000.0 -63736500000.0 -46602700000.0 -66211000000.0 -49626300000.0 -39670400000.0 -177367000000.0 -54452800000.0 -88469400000.0 -58154200000.0 -39762900000.0 -26205900000.0 -38489400000.0 -38494600000.0 -44430500000.0 -28798800000.0 -24494300000.0 -22330300000.0 -21885800000.0 -21834300000.0 -34325200000.0 -27594600000.0 -13930300000.0 -30890600000.0 -40948200000.0 -36787500000.0 -17679000000.0 -16423200000.0 -21861100000.0 -83306500000.0 -85427400000.0 -46551500000.0 -22433100000.0 -14268100000.0 -19627200000.0 -23338700000.0 -27003200000.0 -41089700000.0 -31425200000.0 -17703600000.0 -26960300000.0 -31492000000.0 -12876600000.0 -12819100000.0 -13162800000.0 -30052200000.0 -15933500000.0 -14000300000.0 -13698100000.0 -13121800000.0 -31279800000.0 -19828100000.0 -20724300000.0 -26147500000.0 -23263900000.0 -21855200000.0 -33578400000.0 -23174700000.0 -28397100000.0 -21661600000.0 -12689700000.0 -25233400000.0 -17298900000.0 -55374200000.0 -34714500000.0 -38026400000.0 -23669700000.0 -43724000000.0 -32174000000.0 -28835600000.0 -12549700000.0 -54854700000.0 -55111800000.0 -33450500000.0 -48212500000.0 -39647400000.0 -43399900000.0 -60430900000.0 -23168400000.0 -48191100000.0 -28257600000.0 -41102400000.0 -36893700000.0 -63955600000.0 -68625000000.0 -19536200000.0 -12549700000.0 -12549700000.0 -33802300000.0 -48219400000.0 -13695400000.0 -83888700000.0 -65717400000.0 -48402800000.0 -60472500000.0 -63313600000.0 -30105600000.0 -37560000000.0 -76161300000.0 -111716000000.0 -12549700000.0 -114597000000.0 -95425000000.0 -19083300000.0 -33596900000.0 -63750400000.0 -28079900000.0 -31354200000.0 -13189500000.0 -25152300000.0 -32099600000.0 -16763500000.0 -45732900000.0 -22332100000.0 -25863500000.0 -17288100000.0 -20719400000.0 -18583100000.0 -23018900000.0 -14027400000.0 -12549700000.0 -37368700000.0 -30141900000.0 -37967200000.0 -42947000000.0 -14831700000.0 -14721200000.0 -25201000000.0 -47151700000.0 -30569000000.0 -33123900000.0 -37553500000.0 -29668400000.0 -22285400000.0 -27535000000.0 -12808400000.0 -12605800000.0 -30512300000.0 -14730100000.0 -25751800000.0 -25846500000.0 -23923500000.0 -20713500000.0 -18542700000.0 -24046200000.0 -24459800000.0 -20532100000.0 -19532400000.0 -20946800000.0 -25598500000.0 -20560300000.0 -19185500000.0 -13873400000.0 -22152500000.0 -15353500000.0 -14173500000.0 -31274300000.0 -24497700000.0 -36019900000.0 -31554200000.0 -26667200000.0 -38267000000.0 -31201500000.0 -36386900000.0 -23318400000.0 -27565900000.0 -51484200000.0 -19177500000.0 -20336900000.0 -29391700000.0 -29648200000.0 -59941900000.0 -46021200000.0 -49078800000.0 -55341500000.0 -51080100000.0 -20684700000.0 -36904900000.0 -15999600000.0 -19935900000.0 -21759900000.0 -18448300000.0 -36604600000.0 -56596600000.0 -60886300000.0 -23872800000.0 -20293300000.0 -33922900000.0 -13557700000.0 -25127600000.0 -19551500000.0 -40811500000.0 -22085100000.0 -37948200000.0 -68049800000.0 -15319000000.0 -50365300000.0 -101189000000.0 -55816000000.0 -33261700000.0 -63437700000.0 -67980300000.0 -83919500000.0 -24214100000.0 -42996600000.0 -32452400000.0 -12573600000.0 -16424500000.0 -15086200000.0 -21426500000.0 -17240400000.0 -26979700000.0 -31513400000.0 -22987300000.0 -27552000000.0 -23180300000.0 -17668300000.0 -19520600000.0 -21703300000.0 -27836000000.0 -19261700000.0 -28193400000.0 -13004700000.0 -25830000000.0 -31336100000.0 -22187800000.0 -16345900000.0 -35308900000.0 -27377800000.0 -17589300000.0 -35863400000.0 -33619500000.0 -26413700000.0 -12621300000.0 -16313300000.0 -22816300000.0 -28610800000.0 -24065800000.0 -26521700000.0 -30211500000.0 -25026200000.0 -29131600000.0 -31209600000.0 -24303400000.0 -14264500000.0 -14521800000.0 -14845300000.0 -27590000000.0 -16799100000.0 -17349000000.0 -18847000000.0 -22767900000.0 -27882100000.0 -23496200000.0 -26409900000.0 -28002200000.0 -31279300000.0 -29873200000.0 -34195100000.0 -25811100000.0 -38483500000.0 -14098200000.0 -12742200000.0 -24049500000.0 -13142000000.0 -29182800000.0 -25123000000.0 -37465600000.0 -16086600000.0 -13627700000.0 -13997600000.0 -29873200000.0 -13418300000.0 -48522800000.0 -33813800000.0 -43217100000.0 -36584200000.0 -45822100000.0 -28307100000.0 -32227800000.0 -26627600000.0 -31836900000.0 -29145700000.0 -25159600000.0 -41036300000.0 -25700700000.0 -12604300000.0 -46447000000.0 -32593000000.0 -30728500000.0 -43135300000.0 -38627600000.0 -48462100000.0 -28959700000.0 -15307200000.0 -79926300000.0 -45469400000.0 -23477300000.0 -56241700000.0 -12994100000.0 -67404400000.0 -78509100000.0 -40625800000.0 -28540100000.0 -48575400000.0 -14734600000.0 -38007100000.0 -29569100000.0 -28295400000.0 -16226300000.0 -18153800000.0 -18378900000.0 -14778400000.0 -26785100000.0 -15661700000.0 -18379800000.0 -22839600000.0 -18629800000.0 -16909600000.0 -24770600000.0 -24108300000.0 -20576200000.0 -27903800000.0 -33996700000.0 -26276100000.0 -30770300000.0 -32701000000.0 -21606800000.0 -36874300000.0 -30369300000.0 -31272500000.0 -39411700000.0 -15374200000.0 -17076000000.0 -16683900000.0 -12563300000.0 -19368500000.0 -15594200000.0 -17950300000.0 -29884100000.0 -17293100000.0 -20488700000.0 -15925900000.0 -19563300000.0 -18579100000.0 -12562000000.0 -22736500000.0 -23003300000.0 -28041600000.0 -14110000000.0 -13876300000.0 -13789600000.0 -14897700000.0 -15906500000.0 -23174400000.0 -18353500000.0 -24173800000.0 -21689600000.0 -14337700000.0 -12717900000.0 -20011300000.0 -12549700000.0 -33164900000.0 -14459500000.0 -14256600000.0 -26183600000.0 -12882400000.0 -28285300000.0 -26878800000.0 -19789700000.0 -44244400000.0 -27521100000.0 -26939900000.0 -29815400000.0 -37175700000.0 -20440500000.0 -22169600000.0 -13989600000.0 -54563700000.0 -27815000000.0 -25144500000.0 -18094000000.0 -15868000000.0 -16854300000.0 -17774100000.0 -15861400000.0 -30399200000.0 -13619000000.0 -23275100000.0 -22275100000.0 -40945800000.0 -33320800000.0 -33960300000.0 -30378400000.0 -29769500000.0 -32986100000.0 -18485900000.0 -30500600000.0 -43919200000.0 -43955900000.0 -14360300000.0 -18829400000.0 -58699800000.0 -37420400000.0 -36010800000.0 -13089400000.0 -23802400000.0 -41020100000.0 -24660100000.0 -33095000000.0 -16484400000.0 -27374700000.0 -24878200000.0 -17041700000.0 -15527100000.0 -14794100000.0 -18247400000.0 -14616700000.0 -15193600000.0 -23631900000.0 -27488400000.0 -24820700000.0 -17487100000.0 -18919200000.0 -17042600000.0 -21126900000.0 -23517500000.0 -26971200000.0 -21203500000.0 -15372700000.0 -14640200000.0 -13334000000.0 -32688600000.0 -23513200000.0 -14368200000.0 -18050700000.0 -34257100000.0 -40086400000.0 -29618000000.0 -16682500000.0 -14056100000.0 -22109000000.0 -18534900000.0 -16307800000.0 -14593500000.0 -15251000000.0 -16188200000.0 -22361100000.0 -17995400000.0 -12605200000.0 -15126100000.0 -15634100000.0 -15032500000.0 -19130200000.0 -14231200000.0 -14698400000.0 -16048500000.0 -19505800000.0 -12576200000.0 -12549700000.0 -17000500000.0 -14467000000.0 -17135900000.0 -16394400000.0 -16207800000.0 -23837300000.0 -21299700000.0 -31340200000.0 -18195300000.0 -23266800000.0 -31417100000.0 -25027700000.0 -40342800000.0 -31707300000.0 -28239500000.0 -20457200000.0 -20161100000.0 -16390800000.0 -26720700000.0 -17414600000.0 -12903300000.0 -18572700000.0 -50396600000.0 -22572200000.0 -26625200000.0 -16222900000.0 -18700800000.0 -17527100000.0 -20356400000.0 -22153400000.0 -12549700000.0 -24012700000.0 -28850600000.0 -16949800000.0 -13118600000.0 -19151700000.0 -12549700000.0 -19587800000.0 -32619400000.0 -30429800000.0 -31051700000.0 -48479900000.0 -19461200000.0 -23722300000.0 -22008600000.0 -25758900000.0 -35715700000.0 -15173300000.0 -17171100000.0 -13577800000.0 -13205800000.0 -25318800000.0 -19753300000.0 -14559100000.0 -17919400000.0 -12859000000.0 -22250100000.0 -13628400000.0 -17765200000.0 -18953800000.0 -19655700000.0 -20011400000.0 -16855000000.0 -16427400000.0 -19331100000.0 -17087300000.0 -23603300000.0 -23888500000.0 -22971600000.0 -17756100000.0 -14836100000.0 -18722800000.0 -18205500000.0 -12549700000.0 -24881500000.0 -20131500000.0 -12667900000.0 -22885300000.0 -21604500000.0 -21704200000.0 -16434700000.0 -13562100000.0 -13491000000.0 -14611400000.0 -16804500000.0 -18230900000.0 -14121300000.0 -19321700000.0 -15733600000.0 -15784600000.0 -15977300000.0 -13562100000.0 -12655600000.0 -12549700000.0 -13210200000.0 -15443300000.0 -12613900000.0 -12774300000.0 -15143400000.0 -12549700000.0 -14411200000.0 -13928600000.0 -13666000000.0 -19707500000.0 -15997300000.0 -18545300000.0 -31284200000.0 -21021400000.0 -19701700000.0 -14642800000.0 -18170200000.0 -18949600000.0 -18985000000.0 -19333000000.0 -13986100000.0 -13502700000.0 -28714000000.0 -15936100000.0 -26482500000.0 -27472700000.0 -22193600000.0 -24703300000.0 -12774800000.0 -14827100000.0 -12580700000.0 -13123800000.0 -15788900000.0 -18039800000.0 -18052800000.0 -13229900000.0 -21685700000.0 -18833700000.0 -15271200000.0 -15854400000.0 -18628400000.0 -18276900000.0 -29505400000.0 -15510500000.0 -27715900000.0 -19436300000.0 -34644400000.0 -12953200000.0 -13574000000.0 -14369900000.0 -12652900000.0 -25977600000.0 -12549700000.0 -12549700000.0 -14306800000.0 -15141900000.0 -26323900000.0 -18578100000.0 -20835200000.0 -21861100000.0 -22546300000.0 -14096500000.0 -16512400000.0 -21191500000.0 -15066800000.0 -16682600000.0 -16689200000.0 -14614800000.0 -12549700000.0 -15842300000.0 -17610700000.0 -16857900000.0 -14385300000.0 -12610100000.0 -14217600000.0 -16366800000.0 -15927800000.0 -15525900000.0 -13930100000.0 -12926900000.0 -14429400000.0 -14847900000.0 -12728100000.0 -17578100000.0 -20187200000.0 -15874100000.0 -15909100000.0 -16253000000.0 -12833200000.0 -15463100000.0 -13429100000.0 -15772900000.0 -13500600000.0 -12549700000.0 -14365000000.0 -13327000000.0 -12549700000.0 -12549700000.0 -12956300000.0 -14664200000.0 -13026500000.0 -12549700000.0 -14697900000.0 -12925700000.0 -14033300000.0 -13272700000.0 -13085100000.0 -15483800000.0 -16566800000.0 -13449200000.0 -15042300000.0 -16739500000.0 -16234900000.0 -15426900000.0 -15064700000.0 -16469800000.0 -22128500000.0 -20547500000.0 -20688300000.0 -24154600000.0 -16115800000.0 -28411400000.0 -16199800000.0 -27443400000.0 -24548300000.0 -19737900000.0 -19257800000.0 -15373300000.0 -14418200000.0 -16450400000.0 -14362200000.0 -14941300000.0 -15978400000.0 -15940300000.0 -19436600000.0 -15993800000.0 -15302900000.0 -16439100000.0 -18724100000.0 -19971600000.0 -25028700000.0 -20367200000.0 -31004600000.0 -28623300000.0 -15469600000.0 -15634700000.0 -14508500000.0 -12804700000.0 -12621300000.0 -23569000000.0 -13540900000.0 -12549700000.0 -12637800000.0 -13180000000.0 -17001600000.0 -18644000000.0 -14456000000.0 -13151500000.0 -16244600000.0 -14294700000.0 -14117500000.0 -16670200000.0 -14918800000.0 -14906000000.0 -15333100000.0 -14415100000.0 -14509100000.0 -15040800000.0 -15920800000.0 -14736200000.0 -13781700000.0 -14046800000.0 -14002700000.0 -14600300000.0 -12890700000.0 -14944500000.0 -20477900000.0 -15818300000.0 -14869400000.0 -14005800000.0 -13793800000.0 -12897800000.0 -15359800000.0 -14905400000.0 -12549700000.0 -13333600000.0 -13525800000.0 -12894000000.0 -13956100000.0 -12549700000.0 -14556300000.0 -12805500000.0 -12596100000.0 -13701200000.0 -12653900000.0 -12549700000.0 -12553900000.0 -12637700000.0 -13915300000.0 -12549700000.0 -12715100000.0 -14242000000.0 -12988600000.0 -12758300000.0 -12889200000.0 -13820200000.0 -13154200000.0 -14074200000.0 -13106800000.0 -13156600000.0 -14728400000.0 -13275500000.0 -13479400000.0 -14472300000.0 -13886300000.0 -14474800000.0 -16566400000.0 -16091400000.0 -16367000000.0 -14051800000.0 -19305600000.0 -15782100000.0 -18133600000.0 -23428800000.0 -16045700000.0 -17004900000.0 -18119200000.0 -16553800000.0 -14375700000.0 -13695900000.0 -13179100000.0 -12705100000.0 -13634100000.0 -14548400000.0 -14320500000.0 -12832900000.0 -15577600000.0 -15242800000.0 -12711100000.0 -14308000000.0 -15725000000.0 -17767800000.0 -12549700000.0 -19866200000.0 -16851400000.0 -19056800000.0 -18205300000.0 -18418500000.0 -12932600000.0 -19200800000.0 -15726700000.0 -12601300000.0 -12664000000.0 -14163000000.0 -14259300000.0 -13099500000.0 -12549700000.0 -13558100000.0 -13138200000.0 -14242500000.0 -13290100000.0 -13421300000.0 -13728600000.0 -13484100000.0 -13154000000.0 -13364400000.0 -12644500000.0 -12853100000.0 -12940000000.0 -12824600000.0 -12697700000.0 -13047500000.0 -12576100000.0 -12654300000.0 -12733700000.0 -15049700000.0 -12705500000.0 -14796600000.0 -14093300000.0 -13086800000.0 -12810500000.0 -12699500000.0 -13237900000.0 -12604200000.0 -13164500000.0 -12796500000.0 -12748900000.0 -12549700000.0 -12899900000.0 -12621100000.0 -12883600000.0 -13309900000.0 -13129600000.0 -12819200000.0 -12745800000.0 -12746500000.0 -12756100000.0 -12820000000.0 -13423400000.0 -12968300000.0 -13174700000.0 -12908000000.0 -12647800000.0 -12723300000.0 -12638300000.0 -13004200000.0 -12752000000.0 -13208200000.0 -13167400000.0 -13623500000.0 -12626500000.0 -12698600000.0 -13469600000.0 -13999100000.0 -14039200000.0 -14364800000.0 -13330000000.0 -13105200000.0 -14099300000.0 -14368800000.0 -13206300000.0 -14707200000.0 -13898300000.0 -13189800000.0 -15539800000.0 -13103600000.0 -13394600000.0 -12646300000.0 -15007200000.0 -12669800000.0 -12549700000.0 -12549700000.0 -12908500000.0 -12653500000.0 -12688900000.0 -12843300000.0 -13215600000.0 -13215200000.0 -12995600000.0 -13037900000.0 -13300700000.0 -13134200000.0 -13499000000.0 -13029600000.0 -14038900000.0 -13272000000.0 -14928800000.0 -13454800000.0 -13290300000.0 -13077100000.0 -12911000000.0 -12549700000.0 -12549700000.0 -12850300000.0 -12939900000.0 -12743500000.0 