# vtk DataFile Version 2.0
Time step 37
ASCII
DATASET UNSTRUCTURED_GRID
POINTS 4650 float
124743.0 424688.0 0
128134.0 422614.0 0
131521.0 424718.0 0
135288.0 423571.0 0
139182.0 424204.0 0
143122.0 423975.0 0
147070.0 424034.0 0
151019.0 424015.0 0
154969.0 424015.0 0
158919.0 424011.0 0
162872.0 424009.0 0
166824.0 424007.0 0
170776.0 424005.0 0
174728.0 424004.0 0
178679.0 424003.0 0
182631.0 424001.0 0
186584.0 424000.0 0
190537.0 423999.0 0
194492.0 423998.0 0
198448.0 423998.0 0
202406.0 423997.0 0
206365.0 423996.0 0
210326.0 423996.0 0
214288.0 423995.0 0
218252.0 423995.0 0
222217.0 423994.0 0
226184.0 423994.0 0
230151.0 423994.0 0
234120.0 423994.0 0
238089.0 423993.0 0
242059.0 423993.0 0
246029.0 423993.0 0
250000.0 423993.0 0
253971.0 423993.0 0
257941.0 423993.0 0
261911.0 423993.0 0
265880.0 423994.0 0
269849.0 423994.0 0
273816.0 423994.0 0
277783.0 423994.0 0
281748.0 423995.0 0
285712.0 423995.0 0
289674.0 423996.0 0
293635.0 423996.0 0
297594.0 423997.0 0
301552.0 423998.0 0
305508.0 423998.0 0
309463.0 423999.0 0
313416.0 424000.0 0
317369.0 424001.0 0
321321.0 424003.0 0
325272.0 424004.0 0
329224.0 424005.0 0
333176.0 424007.0 0
337128.0 424009.0 0
341081.0 424011.0 0
345031.0 424015.0 0
348981.0 424015.0 0
352930.0 424034.0 0
356878.0 423975.0 0
360818.0 424204.0 0
364712.0 423571.0 0
368479.0 424718.0 0
371866.0 422614.0 0
375257.0 424688.0 0
117888.0 428665.0 0
121260.0 426568.0 0
128159.0 426759.0 0
371841.0 426759.0 0
378740.0 426568.0 0
382112.0 428665.0 0
114492.0 430784.0 0
121326.0 430549.0 0
124742.0 428677.0 0
131574.0 428822.0 0
135312.0 427571.0 0
139211.0 428201.0 0
143156.0 427985.0 0
147106.0 428039.0 0
151055.0 428021.0 0
155007.0 428019.0 0
158958.0 428016.0 0
162907.0 428013.0 0
166855.0 428011.0 0
170803.0 428008.0 0
174750.0 428006.0 0
178697.0 428005.0 0
182646.0 428003.0 0
186595.0 428002.0 0
190546.0 428001.0 0
194498.0 427999.0 0
198452.0 427998.0 0
202408.0 427998.0 0
206366.0 427997.0 0
210325.0 427996.0 0
214287.0 427995.0 0
218250.0 427995.0 0
222215.0 427994.0 0
226182.0 427994.0 0
230149.0 427994.0 0
234118.0 427994.0 0
238088.0 427993.0 0
242058.0 427993.0 0
246029.0 427993.0 0
250000.0 427993.0 0
253971.0 427993.0 0
257942.0 427993.0 0
261912.0 427993.0 0
265882.0 427994.0 0
269851.0 427994.0 0
273818.0 427994.0 0
277785.0 427994.0 0
281750.0 427995.0 0
285713.0 427995.0 0
289675.0 427996.0 0
293634.0 427997.0 0
297592.0 427998.0 0
301548.0 427998.0 0
305502.0 427999.0 0
309454.0 428001.0 0
313405.0 428002.0 0
317354.0 428003.0 0
321303.0 428005.0 0
325250.0 428006.0 0
329197.0 428008.0 0
333145.0 428011.0 0
337093.0 428013.0 0
341042.0 428016.0 0
344993.0 428019.0 0
348945.0 428021.0 0
352894.0 428039.0 0
356844.0 427985.0 0
360789.0 428201.0 0
364688.0 427571.0 0
368426.0 428822.0 0
375258.0 428677.0 0
378674.0 430549.0 0
385508.0 430784.0 0
110991.0 432969.0 0
117913.0 432537.0 0
124708.0 432663.0 0
128143.0 430758.0 0
131515.0 432869.0 0
135240.0 431569.0 0
139138.0 432196.0 0
143084.0 431984.0 0
147035.0 432039.0 0
150982.0 432021.0 0
154927.0 432018.0 0
158870.0 432015.0 0
162812.0 432012.0 0
166755.0 432009.0 0
170698.0 432007.0 0
174643.0 432005.0 0
178589.0 432003.0 0
182538.0 432002.0 0
186489.0 432000.0 0
190442.0 431999.0 0
194398.0 431998.0 0
198357.0 431997.0 0
202318.0 431996.0 0
206281.0 431996.0 0
210247.0 431995.0 0
214215.0 431995.0 0
218186.0 431994.0 0
222158.0 431994.0 0
226132.0 431994.0 0
230108.0 431994.0 0
234085.0 431993.0 0
238063.0 431993.0 0
242041.0 431993.0 0
246021.0 431993.0 0
250000.0 431993.0 0
253979.0 431993.0 0
257959.0 431993.0 0
261937.0 431993.0 0
265915.0 431993.0 0
269892.0 431994.0 0
273868.0 431994.0 0
277842.0 431994.0 0
281814.0 431994.0 0
285785.0 431995.0 0
289753.0 431995.0 0
293719.0 431996.0 0
297682.0 431996.0 0
301643.0 431997.0 0
305602.0 431998.0 0
309558.0 431999.0 0
313511.0 432000.0 0
317462.0 432002.0 0
321411.0 432003.0 0
325357.0 432005.0 0
329302.0 432007.0 0
333245.0 432009.0 0
337188.0 432012.0 0
341130.0 432015.0 0
345073.0 432018.0 0
349018.0 432021.0 0
352965.0 432039.0 0
356916.0 431984.0 0
360862.0 432196.0 0
364760.0 431569.0 0
368485.0 432869.0 0
371857.0 430758.0 0
375292.0 432663.0 0
382087.0 432537.0 0
389009.0 432969.0 0
107210.0 435328.0 0
110692.0 436790.0 0
114400.0 434651.0 0
117790.0 436401.0 0
121281.0 434511.0 0
128055.0 434791.0 0
371945.0 434791.0 0
378719.0 434511.0 0
382210.0 436401.0 0
385600.0 434651.0 0
389308.0 436790.0 0
392790.0 435328.0 0
103603.0 437593.0 0
107169.0 439100.0 0
114069.0 438537.0 0
121057.0 438423.0 0
124597.0 436692.0 0
131420.0 436862.0 0
135158.0 435569.0 0
139058.0 436189.0 0
142997.0 435982.0 0
146936.0 436037.0 0
150874.0 436019.0 0
154812.0 436017.0 0
158749.0 436013.0 0
162688.0 436010.0 0
166628.0 436007.0 0
170571.0 436005.0 0
174516.0 436003.0 0
178464.0 436001.0 0
182415.0 436000.0 0
186369.0 435999.0 0
190327.0 435997.0 0
194288.0 435997.0 0
198252.0 435996.0 0
202219.0 435995.0 0
206189.0 435995.0 0
210163.0 435994.0 0
214138.0 435994.0 0
218117.0 435994.0 0
222097.0 435994.0 0
226079.0 435993.0 0
230064.0 435993.0 0
234049.0 435993.0 0
238036.0 435993.0 0
242023.0 435993.0 0
246012.0 435993.0 0
250000.0 435993.0 0
253988.0 435993.0 0
257977.0 435993.0 0
261964.0 435993.0 0
265951.0 435993.0 0
269936.0 435993.0 0
273921.0 435993.0 0
277903.0 435994.0 0
281883.0 435994.0 0
285862.0 435994.0 0
289837.0 435994.0 0
293811.0 435995.0 0
297781.0 435995.0 0
301748.0 435996.0 0
305712.0 435997.0 0
309673.0 435997.0 0
313631.0 435999.0 0
317585.0 436000.0 0
321536.0 436001.0 0
325484.0 436003.0 0
329429.0 436005.0 0
333372.0 436007.0 0
337312.0 436010.0 0
341251.0 436013.0 0
345188.0 436017.0 0
349126.0 436019.0 0
353064.0 436037.0 0
357003.0 435982.0 0
360942.0 436189.0 0
364842.0 435569.0 0
368580.0 436862.0 0
375403.0 436692.0 0
378943.0 438423.0 0
385931.0 438537.0 0
392831.0 439100.0 0
396397.0 437593.0 0
100153.0 439749.0 0
103594.0 441508.0 0
110722.0 440661.0 0
117450.0 440272.0 0
124191.0 440749.0 0
127756.0 439134.0 0
131317.0 440823.0 0
135041.0 439576.0 0
138928.0 440176.0 0
142855.0 439978.0 0
146788.0 440034.0 0
150723.0 440016.0 0
154660.0 440014.0 0
158600.0 440010.0 0
162543.0 440007.0 0
166489.0 440005.0 0
170439.0 440003.0 0
174393.0 440001.0 0
178351.0 440000.0 0
182312.0 439998.0 0
186277.0 439997.0 0
190245.0 439997.0 0
194216.0 439996.0 0
198190.0 439995.0 0
202167.0 439995.0 0
206145.0 439995.0 0
210126.0 439994.0 0
214108.0 439994.0 0
218092.0 439994.0 0
222077.0 439994.0 0
226064.0 439993.0 0
230052.0 439993.0 0
234040.0 439993.0 0
238030.0 439993.0 0
242019.0 439993.0 0
246010.0 439993.0 0
250000.0 439993.0 0
253990.0 439993.0 0
257981.0 439993.0 0
261970.0 439993.0 0
265960.0 439993.0 0
269948.0 439993.0 0
273936.0 439993.0 0
277923.0 439994.0 0
281908.0 439994.0 0
285892.0 439994.0 0
289874.0 439994.0 0
293855.0 439995.0 0
297833.0 439995.0 0
301810.0 439995.0 0
305784.0 439996.0 0
309755.0 439997.0 0
313723.0 439997.0 0
317688.0 439998.0 0
321649.0 440000.0 0
325607.0 440001.0 0
329561.0 440003.0 0
333511.0 440005.0 0
337457.0 440007.0 0
341400.0 440010.0 0
345340.0 440014.0 0
349277.0 440016.0 0
353212.0 440034.0 0
357145.0 439978.0 0
361072.0 440176.0 0
364959.0 439576.0 0
368683.0 440823.0 0
372244.0 439134.0 0
375809.0 440749.0 0
382550.0 440272.0 0
389278.0 440661.0 0
396406.0 441508.0 0
399847.0 439749.0 0
96625.3 441959.0 0
100225.0 443665.0 0
107198.0 442920.0 0
110729.0 444536.0 0
114199.0 442496.0 0
120607.0 442307.0 0
379393.0 442307.0 0
385801.0 442496.0 0
389271.0 444536.0 0
392802.0 442920.0 0
399775.0 443665.0 0
403375.0 441959.0 0
103769.0 445451.0 0
107513.0 446779.0 0
114047.0 446416.0 0
117571.0 444768.0 0
123010.0 445214.0 0
126631.0 443818.0 0
130414.0 444636.0 0
134264.0 443924.0 0
138198.0 444088.0 0
142151.0 443994.0 0
146116.0 443996.0 0
150087.0 443995.0 0
154064.0 443994.0 0
158046.0 443994.0 0
162032.0 443993.0 0
166022.0 443993.0 0
170015.0 443993.0 0
174010.0 443993.0 0
178007.0 443993.0 0
182005.0 443993.0 0
186004.0 443993.0 0
190003.0 443993.0 0
194003.0 443993.0 0
198003.0 443993.0 0
202003.0 443993.0 0
206002.0 443993.0 0
210002.0 443993.0 0
214002.0 443993.0 0
218002.0 443993.0 0
222001.0 443993.0 0
226001.0 443993.0 0
230001.0 443993.0 0
234001.0 443993.0 0
238001.0 443993.0 0
242000.0 443993.0 0
246000.0 443993.0 0
250000.0 443993.0 0
254000.0 443993.0 0
258000.0 443993.0 0
261999.0 443993.0 0
265999.0 443993.0 0
269999.0 443993.0 0
273999.0 443993.0 0
277999.0 443993.0 0
281998.0 443993.0 0
285998.0 443993.0 0
289998.0 443993.0 0
293998.0 443993.0 0
297997.0 443993.0 0
301997.0 443993.0 0
305997.0 443993.0 0
309997.0 443993.0 0
313996.0 443993.0 0
317995.0 443993.0 0
321993.0 443993.0 0
325990.0 443993.0 0
329985.0 443993.0 0
333978.0 443993.0 0
337968.0 443993.0 0
341954.0 443994.0 0
345936.0 443994.0 0
349913.0 443995.0 0
353884.0 443996.0 0
357849.0 443994.0 0
361802.0 444088.0 0
365736.0 443924.0 0
369586.0 444636.0 0
373369.0 443818.0 0
376990.0 445214.0 0
382429.0 444768.0 0
385953.0 446416.0 0
392487.0 446779.0 0
396231.0 445451.0 0
98057.8 446989.0 0
110884.0 448845.0 0
118893.0 448530.0 0
122913.0 449025.0 0
126710.0 447851.0 0
130635.0 448524.0 0
134549.0 447929.0 0
138508.0 448060.0 0
142466.0 447999.0 0
146427.0 448000.0 0
150390.0 447999.0 0
154354.0 447998.0 0
158320.0 447997.0 0
162288.0 447997.0 0
166258.0 447996.0 0
170230.0 447995.0 0
174205.0 447995.0 0
178181.0 447995.0 0
182160.0 447994.0 0
186140.0 447994.0 0
190123.0 447994.0 0
194107.0 447994.0 0
198093.0 447994.0 0
202080.0 447994.0 0
206069.0 447993.0 0
210059.0 447993.0 0
214050.0 447993.0 0
218043.0 447993.0 0
222036.0 447993.0 0
226029.0 447993.0 0
230024.0 447993.0 0
234018.0 447993.0 0
238013.0 447993.0 0
242009.0 447993.0 0
246004.0 447993.0 0
250000.0 447993.0 0
253996.0 447993.0 0
257991.0 447993.0 0
261987.0 447993.0 0
265982.0 447993.0 0
269976.0 447993.0 0
273971.0 447993.0 0
277964.0 447993.0 0
281957.0 447993.0 0
285950.0 447993.0 0
289941.0 447993.0 0
293931.0 447993.0 0
297920.0 447994.0 0
301907.0 447994.0 0
305893.0 447994.0 0
309877.0 447994.0 0
313860.0 447994.0 0
317840.0 447994.0 0
321819.0 447995.0 0
325795.0 447995.0 0
329770.0 447995.0 0
333742.0 447996.0 0
337712.0 447997.0 0
341680.0 447997.0 0
345646.0 447998.0 0
349610.0 447999.0 0
353573.0 448000.0 0
357534.0 447999.0 0
361492.0 448060.0 0
365451.0 447929.0 0
369365.0 448524.0 0
373290.0 447851.0 0
377087.0 449025.0 0
381107.0 448530.0 0
389116.0 448845.0 0
401942.0 446989.0 0
101624.0 448792.0 0
105410.0 450020.0 0
115077.0 450088.0 0
384923.0 450088.0 0
394590.0 450020.0 0
398376.0 448792.0 0
99913.5 452563.0 0
103774.0 453553.0 0
108405.0 452659.0 0
112378.0 452925.0 0
118133.0 452456.0 0
122034.0 452758.0 0
125918.0 451953.0 0
129870.0 452354.0 0
133997.0 451991.0 0
137996.0 452015.0 0
142000.0 451993.0 0
146000.0 451993.0 0
150000.0 451993.0 0
154000.0 451993.0 0
158000.0 451993.0 0
162000.0 451993.0 0
166000.0 451993.0 0
170000.0 451993.0 0
174000.0 451993.0 0
178000.0 451993.0 0
182000.0 451993.0 0
186000.0 451993.0 0
190000.0 451993.0 0
194000.0 451993.0 0
198000.0 451993.0 0
202000.0 451993.0 0
206000.0 451993.0 0
210000.0 451993.0 0
214000.0 451993.0 0
218000.0 451993.0 0
222000.0 451993.0 0
226000.0 451993.0 0
230000.0 451993.0 0
234000.0 451993.0 0
238000.0 451993.0 0
242000.0 451993.0 0
246000.0 451993.0 0
250000.0 451993.0 0
254000.0 451993.0 0
258000.0 451993.0 0
262000.0 451993.0 0
266000.0 451993.0 0
270000.0 451993.0 0
274000.0 451993.0 0
278000.0 451993.0 0
282000.0 451993.0 0
286000.0 451993.0 0
290000.0 451993.0 0
294000.0 451993.0 0
298000.0 451993.0 0
302000.0 451993.0 0
306000.0 451993.0 0
310000.0 451993.0 0
314000.0 451993.0 0
318000.0 451993.0 0
322000.0 451993.0 0
326000.0 451993.0 0
330000.0 451993.0 0
334000.0 451993.0 0
338000.0 451993.0 0
342000.0 451993.0 0
346000.0 451993.0 0
350000.0 451993.0 0
354000.0 451993.0 0
358000.0 451993.0 0
362004.0 452015.0 0
366003.0 451991.0 0
370130.0 452354.0 0
374082.0 451953.0 0
377966.0 452758.0 0
381867.0 452456.0 0
387622.0 452925.0 0
391595.0 452659.0 0
396226.0 453553.0 0
400087.0 452563.0 0
101210.0 456542.0 0
106441.0 456491.0 0
110413.0 456336.0 0
114414.0 456368.0 0
118433.0 456382.0 0
122424.0 456598.0 0
126338.0 455938.0 0
130300.0 456254.0 0
134256.0 455982.0 0
138224.0 456003.0 0
142195.0 455995.0 0
146170.0 455995.0 0
150147.0 455994.0 0
154127.0 455994.0 0
158109.0 455994.0 0
162093.0 455994.0 0
166080.0 455994.0 0
170068.0 455993.0 0
174058.0 455993.0 0
178049.0 455993.0 0
182042.0 455993.0 0
186035.0 455993.0 0
190030.0 455993.0 0
194025.0 455993.0 0
198021.0 455993.0 0
202018.0 455993.0 0
206015.0 455993.0 0
210012.0 455993.0 0
214010.0 455993.0 0
218008.0 455993.0 0
222007.0 455993.0 0
226005.0 455993.0 0
230004.0 455993.0 0
234003.0 455993.0 0
238002.0 455993.0 0
242002.0 455993.0 0
246001.0 455993.0 0
250000.0 455993.0 0
253999.0 455993.0 0
257998.0 455993.0 0
261998.0 455993.0 0
265997.0 455993.0 0
269996.0 455993.0 0
273995.0 455993.0 0
277993.0 455993.0 0
281992.0 455993.0 0
285990.0 455993.0 0
289988.0 455993.0 0
293985.0 455993.0 0
297982.0 455993.0 0
301979.0 455993.0 0
305975.0 455993.0 0
309970.0 455993.0 0
313965.0 455993.0 0
317958.0 455993.0 0
321951.0 455993.0 0
325942.0 455993.0 0
329932.0 455993.0 0
333920.0 455994.0 0
337907.0 455994.0 0
341891.0 455994.0 0
345873.0 455994.0 0
349853.0 455994.0 0
353830.0 455995.0 0
357805.0 455995.0 0
361776.0 456003.0 0
365744.0 455982.0 0
369700.0 456254.0 0
373662.0 455938.0 0
377576.0 456598.0 0
381567.0 456382.0 0
385586.0 456368.0 0
389587.0 456336.0 0
393559.0 456491.0 0
398790.0 456542.0 0
101661.0 460467.0 0
105656.0 460389.0 0
109718.0 460238.0 0
113712.0 460305.0 0
117695.0 460261.0 0
121667.0 460410.0 0
125965.0 459992.0 0
129958.0 460176.0 0
134000.0 459993.0 0
138000.0 459994.0 0
142000.0 459993.0 0
146000.0 459993.0 0
150000.0 459993.0 0
154000.0 459993.0 0
158000.0 459993.0 0
162000.0 459993.0 0
166000.0 459993.0 0
170000.0 459993.0 0
174000.0 459993.0 0
178000.0 459993.0 0
182000.0 459993.0 0
186000.0 459993.0 0
190000.0 459993.0 0
194000.0 459993.0 0
198000.0 459993.0 0
202000.0 459993.0 0
206000.0 459993.0 0
210000.0 459993.0 0
214000.0 459993.0 0
218000.0 459993.0 0
222000.0 459993.0 0
226000.0 459993.0 0
230000.0 459993.0 0
234000.0 459993.0 0
238000.0 459993.0 0
242000.0 459993.0 0
246000.0 459993.0 0
250000.0 459993.0 0
254000.0 459993.0 0
258000.0 459993.0 0
262000.0 459993.0 0
266000.0 459993.0 0
270000.0 459993.0 0
274000.0 459993.0 0
278000.0 459993.0 0
282000.0 459993.0 0
286000.0 459993.0 0
290000.0 459993.0 0
294000.0 459993.0 0
298000.0 459993.0 0
302000.0 459993.0 0
306000.0 459993.0 0
310000.0 459993.0 0
314000.0 459993.0 0
318000.0 459993.0 0
322000.0 459993.0 0
326000.0 459993.0 0
330000.0 459993.0 0
334000.0 459993.0 0
338000.0 459993.0 0
342000.0 459993.0 0
346000.0 459993.0 0
350000.0 459993.0 0
354000.0 459993.0 0
358000.0 459993.0 0
362000.0 459994.0 0
366000.0 459993.0 0
370042.0 460176.0 0
374035.0 459992.0 0
378333.0 460410.0 0
382305.0 460261.0 0
386288.0 460305.0 0
390282.0 460238.0 0
394344.0 460389.0 0
398339.0 460467.0 0
110074.0 464196.0 0
118068.0 464201.0 0
122064.0 464299.0 0
126043.0 463991.0 0
130034.0 464127.0 0
134025.0 463993.0 0
138020.0 463993.0 0
142016.0 463993.0 0
146013.0 463993.0 0
150011.0 463993.0 0
154009.0 463993.0 0
158008.0 463993.0 0
162006.0 463993.0 0
166005.0 463993.0 0
170004.0 463993.0 0
174004.0 463993.0 0
178003.0 463993.0 0
182002.0 463993.0 0
186002.0 463993.0 0
190002.0 463993.0 0
194001.0 463993.0 0
198001.0 463993.0 0
202001.0 463993.0 0
206001.0 463993.0 0
210001.0 463993.0 0
214000.0 463993.0 0
218000.0 463993.0 0
222000.0 463993.0 0
226000.0 463993.0 0
230000.0 463993.0 0
234000.0 463993.0 0
238000.0 463993.0 0
242000.0 463993.0 0
246000.0 463993.0 0
250000.0 463993.0 0
254000.0 463993.0 0
258000.0 463993.0 0
262000.0 463993.0 0
266000.0 463993.0 0
270000.0 463993.0 0
274000.0 463993.0 0
278000.0 463993.0 0
282000.0 463993.0 0
286000.0 463993.0 0
289999.0 463993.0 0
293999.0 463993.0 0
297999.0 463993.0 0
301999.0 463993.0 0
305999.0 463993.0 0
309998.0 463993.0 0
313998.0 463993.0 0
317998.0 463993.0 0
321997.0 463993.0 0
325996.0 463993.0 0
329996.0 463993.0 0
333995.0 463993.0 0
337994.0 463993.0 0
341992.0 463993.0 0
345991.0 463993.0 0
349989.0 463993.0 0
353987.0 463993.0 0
357984.0 463993.0 0
361980.0 463993.0 0
365975.0 463993.0 0
369966.0 464127.0 0
373957.0 463991.0 0
377936.0 464299.0 0
381932.0 464201.0 0
389926.0 464196.0 0
102085.0 464396.0 0
106081.0 464343.0 0
114069.0 464281.0 0
385931.0 464281.0 0
393919.0 464343.0 0
397915.0 464396.0 0
101967.0 468350.0 0
105973.0 468318.0 0
109977.0 468176.0 0
113976.0 468267.0 0
117986.0 468163.0 0
121985.0 468225.0 0
125999.0 467993.0 0
129998.0 468089.0 0
134000.0 467993.0 0
138000.0 467993.0 0
142000.0 467993.0 0
146000.0 467993.0 0
150000.0 467993.0 0
154000.0 467993.0 0
158000.0 467993.0 0
162000.0 467993.0 0
166000.0 467993.0 0
170000.0 467993.0 0
174000.0 467993.0 0
178000.0 467993.0 0
182000.0 467993.0 0
186000.0 467993.0 0
190000.0 467993.0 0
194000.0 467993.0 0
198000.0 467993.0 0
202000.0 467993.0 0
206000.0 467993.0 0
210000.0 467993.0 0
214000.0 467993.0 0
218000.0 467993.0 0
222000.0 467993.0 0
226000.0 467993.0 0
230000.0 467993.0 0
234000.0 467993.0 0
238000.0 467993.0 0
242000.0 467993.0 0
246000.0 467993.0 0
250000.0 467993.0 0
254000.0 467993.0 0
258000.0 467993.0 0
262000.0 467993.0 0
266000.0 467993.0 0
270000.0 467993.0 0
274000.0 467993.0 0
278000.0 467993.0 0
282000.0 467993.0 0
286000.0 467993.0 0
290000.0 467993.0 0
294000.0 467993.0 0
298000.0 467993.0 0
302000.0 467993.0 0
306000.0 467993.0 0
310000.0 467993.0 0
314000.0 467993.0 0
318000.0 467993.0 0
322000.0 467993.0 0
326000.0 467993.0 0
330000.0 467993.0 0
334000.0 467993.0 0
338000.0 467993.0 0
342000.0 467993.0 0
346000.0 467993.0 0
350000.0 467993.0 0
354000.0 467993.0 0
358000.0 467993.0 0
362000.0 467993.0 0
366000.0 467993.0 0
370002.0 468089.0 0
374001.0 467993.0 0
378015.0 468225.0 0
382014.0 468163.0 0
386024.0 468267.0 0
390023.0 468176.0 0
394027.0 468318.0 0
398033.0 468350.0 0
118004.0 472131.0 0
122004.0 472168.0 0
126001.0 471993.0 0
130000.0 472060.0 0
134000.0 471993.0 0
138000.0 471993.0 0
142000.0 471993.0 0
146000.0 471993.0 0
150000.0 471993.0 0
154000.0 471993.0 0
158000.0 471993.0 0
162000.0 471993.0 0
166000.0 471993.0 0
170000.0 471993.0 0
174000.0 471993.0 0
178000.0 471993.0 0
182000.0 471993.0 0
186000.0 471993.0 0
190000.0 471993.0 0
194000.0 471993.0 0
198000.0 471993.0 0
202000.0 471993.0 0
206000.0 471993.0 0
210000.0 471993.0 0
214000.0 471993.0 0
218000.0 471993.0 0
222000.0 471993.0 0
226000.0 471993.0 0
230000.0 471993.0 0
234000.0 471993.0 0
238000.0 471993.0 0
242000.0 471993.0 0
246000.0 471993.0 0
250000.0 471993.0 0
254000.0 471993.0 0
258000.0 471993.0 0
262000.0 471993.0 0
266000.0 471993.0 0
270000.0 471993.0 0
274000.0 471993.0 0
278000.0 471993.0 0
282000.0 471993.0 0
286000.0 471993.0 0
290000.0 471993.0 0
294000.0 471993.0 0
298000.0 471993.0 0
302000.0 471993.0 0
306000.0 471993.0 0
310000.0 471993.0 0
314000.0 471993.0 0
318000.0 471993.0 0
322000.0 471993.0 0
326000.0 471993.0 0
330000.0 471993.0 0
334000.0 471993.0 0
338000.0 471993.0 0
342000.0 471993.0 0
346000.0 471993.0 0
350000.0 471993.0 0
354000.0 471993.0 0
358000.0 471993.0 0
362000.0 471993.0 0
366000.0 471993.0 0
370000.0 472060.0 0
373999.0 471993.0 0
377996.0 472168.0 0
381996.0 472131.0 0
102006.0 472312.0 0
106006.0 472294.0 0
110004.0 472161.0 0
114006.0 472249.0 0
385994.0 472249.0 0
389996.0 472161.0 0
393994.0 472294.0 0
397994.0 472312.0 0
101999.0 476278.0 0
105999.0 476270.0 0
109999.0 476148.0 0
113998.0 476230.0 0
118000.0 476104.0 0
122000.0 476122.0 0
126000.0 475993.0 0
130000.0 476040.0 0
134000.0 475993.0 0
138000.0 475993.0 0
142000.0 475993.0 0
146000.0 475993.0 0
150000.0 475993.0 0
154000.0 475993.0 0
158000.0 475993.0 0
162000.0 475993.0 0
166000.0 475993.0 0
170000.0 475993.0 0
174000.0 475993.0 0
178000.0 475993.0 0
182000.0 475993.0 0
186000.0 475993.0 0
190000.0 475993.0 0
194000.0 475993.0 0
198000.0 475993.0 0
202000.0 475993.0 0
206000.0 475993.0 0
210000.0 475993.0 0
214000.0 475993.0 0
218000.0 475993.0 0
222000.0 475993.0 0
226000.0 475993.0 0
230000.0 475993.0 0
234000.0 475993.0 0
238000.0 475993.0 0
242000.0 475993.0 0
246000.0 475993.0 0
250000.0 475993.0 0
254000.0 475993.0 0
258000.0 475993.0 0
262000.0 475993.0 0
266000.0 475993.0 0
270000.0 475993.0 0
274000.0 475993.0 0
278000.0 475993.0 0
282000.0 475993.0 0
286000.0 475993.0 0
290000.0 475993.0 0
294000.0 475993.0 0
298000.0 475993.0 0
302000.0 475993.0 0
306000.0 475993.0 0
310000.0 475993.0 0
314000.0 475993.0 0
318000.0 475993.0 0
322000.0 475993.0 0
326000.0 475993.0 0
330000.0 475993.0 0
334000.0 475993.0 0
338000.0 475993.0 0
342000.0 475993.0 0
346000.0 475993.0 0
350000.0 475993.0 0
354000.0 475993.0 0
358000.0 475993.0 0
362000.0 475993.0 0
366000.0 475993.0 0
370000.0 476040.0 0
374000.0 475993.0 0
378000.0 476122.0 0
382000.0 476104.0 0
386002.0 476230.0 0
390001.0 476148.0 0
394001.0 476270.0 0
398001.0 476278.0 0
102000.0 480250.0 0
106000.0 480248.0 0
110000.0 480137.0 0
114000.0 480209.0 0
118000.0 480080.0 0
122000.0 480088.0 0
126000.0 479993.0 0
130000.0 480025.0 0
134000.0 479993.0 0
138000.0 479993.0 0
142000.0 479993.0 0
146000.0 479993.0 0
150000.0 479993.0 0
154000.0 479993.0 0
158000.0 479993.0 0
162000.0 479993.0 0
166000.0 479993.0 0
170000.0 479993.0 0
174000.0 479993.0 0
178000.0 479993.0 0
182000.0 479993.0 0
186000.0 479993.0 0
190000.0 479993.0 0
194000.0 479993.0 0
198000.0 479993.0 0
202000.0 479993.0 0
206000.0 479993.0 0
210000.0 479993.0 0
214000.0 479993.0 0
218000.0 479993.0 0
222000.0 479993.0 0
226000.0 479993.0 0
230000.0 479993.0 0
234000.0 479993.0 0
238000.0 479993.0 0
242000.0 479993.0 0
246000.0 479993.0 0
250000.0 479993.0 0
254000.0 479993.0 0
258000.0 479993.0 0
262000.0 479993.0 0
266000.0 479993.0 0
270000.0 479993.0 0
274000.0 479993.0 0
278000.0 479993.0 0
282000.0 479993.0 0
286000.0 479993.0 0
290000.0 479993.0 0
294000.0 479993.0 0
298000.0 479993.0 0
302000.0 479993.0 0
306000.0 479993.0 0
310000.0 479993.0 0
314000.0 479993.0 0
318000.0 479993.0 0
322000.0 479993.0 0
326000.0 479993.0 0
330000.0 479993.0 0
334000.0 479993.0 0
338000.0 479993.0 0
342000.0 479993.0 0
346000.0 479993.0 0
350000.0 479993.0 0
354000.0 479993.0 0
358000.0 479993.0 0
362000.0 479993.0 0
366000.0 479993.0 0
370000.0 480025.0 0
374000.0 479993.0 0
378000.0 480088.0 0
382000.0 480080.0 0
386000.0 480209.0 0
390000.0 480137.0 0
394000.0 480248.0 0
398000.0 480250.0 0
102000.0 484226.0 0
106000.0 484227.0 0
110000.0 484127.0 0
114000.0 484188.0 0
118000.0 484061.0 0
122000.0 484062.0 0
126000.0 483993.0 0
130000.0 484015.0 0
134000.0 483993.0 0
138000.0 483993.0 0
142000.0 483993.0 0
146000.0 483993.0 0
150000.0 483993.0 0
154000.0 483993.0 0
158000.0 483993.0 0
162000.0 483993.0 0
166000.0 483993.0 0
170000.0 483993.0 0
174000.0 483993.0 0
178000.0 483993.0 0
182000.0 483993.0 0
186000.0 483993.0 0
190000.0 483993.0 0
194000.0 483993.0 0
198000.0 483993.0 0
202000.0 483993.0 0
206000.0 483993.0 0
210000.0 483993.0 0
214000.0 483993.0 0
218000.0 483993.0 0
222000.0 483993.0 0
226000.0 483993.0 0
230000.0 483993.0 0
234000.0 483993.0 0
238000.0 483993.0 0
242000.0 483993.0 0
246000.0 483993.0 0
250000.0 483993.0 0
254000.0 483993.0 0
258000.0 483993.0 0
262000.0 483993.0 0
266000.0 483993.0 0
270000.0 483993.0 0
274000.0 483993.0 0
278000.0 483993.0 0
282000.0 483993.0 0
286000.0 483993.0 0
290000.0 483993.0 0
294000.0 483993.0 0
298000.0 483993.0 0
302000.0 483993.0 0
306000.0 483993.0 0
310000.0 483993.0 0
314000.0 483993.0 0
318000.0 483993.0 0
322000.0 483993.0 0
326000.0 483993.0 0
330000.0 483993.0 0
334000.0 483993.0 0
338000.0 483993.0 0
342000.0 483993.0 0
346000.0 483993.0 0
350000.0 483993.0 0
354000.0 483993.0 0
358000.0 483993.0 0
362000.0 483993.0 0
366000.0 483993.0 0
370000.0 484015.0 0
374000.0 483993.0 0
378000.0 484062.0 0
382000.0 484061.0 0
386000.0 484188.0 0
390000.0 484127.0 0
394000.0 484227.0 0
398000.0 484226.0 0
102000.0 488206.0 0
106000.0 488206.0 0
110000.0 488117.0 0
114000.0 488167.0 0
118000.0 488045.0 0
122000.0 488043.0 0
126000.0 487993.0 0
130000.0 488007.0 0
134000.0 487993.0 0
138000.0 487993.0 0
142000.0 487993.0 0
146000.0 487993.0 0
150000.0 487993.0 0
154000.0 487993.0 0
158000.0 487993.0 0
162000.0 487993.0 0
166000.0 487993.0 0
170000.0 487993.0 0
174000.0 487993.0 0
178000.0 487993.0 0
182000.0 487993.0 0
186000.0 487993.0 0
190000.0 487993.0 0
194000.0 487993.0 0
198000.0 487993.0 0
202000.0 487993.0 0
206000.0 487993.0 0
210000.0 487993.0 0
214000.0 487993.0 0
218000.0 487993.0 0
222000.0 487993.0 0
226000.0 487993.0 0
230000.0 487993.0 0
234000.0 487993.0 0
238000.0 487993.0 0
242000.0 487993.0 0
246000.0 487993.0 0
250000.0 487993.0 0
254000.0 487993.0 0
258000.0 487993.0 0
262000.0 487993.0 0
266000.0 487993.0 0
270000.0 487993.0 0
274000.0 487993.0 0
278000.0 487993.0 0
282000.0 487993.0 0
286000.0 487993.0 0
290000.0 487993.0 0
294000.0 487993.0 0
298000.0 487993.0 0
302000.0 487993.0 0
306000.0 487993.0 0
310000.0 487993.0 0
314000.0 487993.0 0
318000.0 487993.0 0
322000.0 487993.0 0
326000.0 487993.0 0
330000.0 487993.0 0
334000.0 487993.0 0
338000.0 487993.0 0
342000.0 487993.0 0
346000.0 487993.0 0
350000.0 487993.0 0
354000.0 487993.0 0
358000.0 487993.0 0
362000.0 487993.0 0
366000.0 487993.0 0
370000.0 488007.0 0
374000.0 487993.0 0
378000.0 488043.0 0
382000.0 488045.0 0
386000.0 488167.0 0
390000.0 488117.0 0
394000.0 488206.0 0
398000.0 488206.0 0
102000.0 492188.0 0
106000.0 492188.0 0
110000.0 492108.0 0
114000.0 492147.0 0
118000.0 492033.0 0
122000.0 492029.0 0
126000.0 491993.0 0
130000.0 492002.0 0
134000.0 491993.0 0
138000.0 491993.0 0
142000.0 491993.0 0
146000.0 491993.0 0
150000.0 491993.0 0
154000.0 491993.0 0
158000.0 491993.0 0
162000.0 491993.0 0
166000.0 491993.0 0
170000.0 491993.0 0
174000.0 491993.0 0
178000.0 491993.0 0
182000.0 491993.0 0
186000.0 491993.0 0
190000.0 491993.0 0
194000.0 491993.0 0
198000.0 491993.0 0
202000.0 491993.0 0
206000.0 491993.0 0
210000.0 491993.0 0
214000.0 491993.0 0
218000.0 491993.0 0
222000.0 491993.0 0
226000.0 491993.0 0
230000.0 491993.0 0
234000.0 491993.0 0
238000.0 491993.0 0
242000.0 491993.0 0
246000.0 491993.0 0
250000.0 491993.0 0
254000.0 491993.0 0
258000.0 491993.0 0
262000.0 491993.0 0
266000.0 491993.0 0
270000.0 491993.0 0
274000.0 491993.0 0
278000.0 491993.0 0
282000.0 491993.0 0
286000.0 491993.0 0
290000.0 491993.0 0
294000.0 491993.0 0
298000.0 491993.0 0
302000.0 491993.0 0
306000.0 491993.0 0
310000.0 491993.0 0
314000.0 491993.0 0
318000.0 491993.0 0
322000.0 491993.0 0
326000.0 491993.0 0
330000.0 491993.0 0
334000.0 491993.0 0
338000.0 491993.0 0
342000.0 491993.0 0
346000.0 491993.0 0
350000.0 491993.0 0
354000.0 491993.0 0
358000.0 491993.0 0
362000.0 491993.0 0
366000.0 491993.0 0
370000.0 492002.0 0
374000.0 491993.0 0
378000.0 492029.0 0
382000.0 492033.0 0
386000.0 492147.0 0
390000.0 492108.0 0
394000.0 492188.0 0
398000.0 492188.0 0
102000.0 496172.0 0
106000.0 496170.0 0
110000.0 496099.0 0
114000.0 496128.0 0
118000.0 496022.0 0
122000.0 496018.0 0
126000.0 495993.0 0
130000.0 495999.0 0
134000.0 495993.0 0
138000.0 495993.0 0
142000.0 495993.0 0
146000.0 495993.0 0
150000.0 495993.0 0
154000.0 495993.0 0
158000.0 495993.0 0
162000.0 495993.0 0
166000.0 495993.0 0
170000.0 495993.0 0
174000.0 495993.0 0
178000.0 495993.0 0
182000.0 495993.0 0
186000.0 495993.0 0
190000.0 495993.0 0
194000.0 495993.0 0
198000.0 495993.0 0
202000.0 495993.0 0
206000.0 495993.0 0
210000.0 495993.0 0
214000.0 495993.0 0
218000.0 495993.0 0
222000.0 495993.0 0
226000.0 495993.0 0
230000.0 495993.0 0
234000.0 495993.0 0
238000.0 495993.0 0
242000.0 495993.0 0
246000.0 495993.0 0
250000.0 495993.0 0
254000.0 495993.0 0
258000.0 495993.0 0
262000.0 495993.0 0
266000.0 495993.0 0
270000.0 495993.0 0
274000.0 495993.0 0
278000.0 495993.0 0
282000.0 495993.0 0
286000.0 495993.0 0
290000.0 495993.0 0
294000.0 495993.0 0
298000.0 495993.0 0
302000.0 495993.0 0
306000.0 495993.0 0
310000.0 495993.0 0
314000.0 495993.0 0
318000.0 495993.0 0
322000.0 495993.0 0
326000.0 495993.0 0
330000.0 495993.0 0
334000.0 495993.0 0
338000.0 495993.0 0
342000.0 495993.0 0
346000.0 495993.0 0
350000.0 495993.0 0
354000.0 495993.0 0
358000.0 495993.0 0
362000.0 495993.0 0
366000.0 495993.0 0
370000.0 495999.0 0
374000.0 495993.0 0
378000.0 496018.0 0
382000.0 496022.0 0
386000.0 496128.0 0
390000.0 496099.0 0
394000.0 496170.0 0
398000.0 496172.0 0
102000.0 500158.0 0
106000.0 500154.0 0
110000.0 500090.0 0
114000.0 500110.0 0
118000.0 500015.0 0
122000.0 500011.0 0
126000.0 499993.0 0
130000.0 499997.0 0
134000.0 499993.0 0
138000.0 499993.0 0
142000.0 499993.0 0
146000.0 499993.0 0
150000.0 499993.0 0
154000.0 499993.0 0
158000.0 499993.0 0
162000.0 499993.0 0
166000.0 499993.0 0
170000.0 499993.0 0
174000.0 499993.0 0
178000.0 499993.0 0
182000.0 499993.0 0
186000.0 499993.0 0
190000.0 499993.0 0
194000.0 499993.0 0
198000.0 499993.0 0
202000.0 499993.0 0
206000.0 499993.0 0
210000.0 499993.0 0
214000.0 499993.0 0
218000.0 499993.0 0
222000.0 499993.0 0
226000.0 499993.0 0
230000.0 499993.0 0
234000.0 499993.0 0
238000.0 499993.0 0
242000.0 499993.0 0
246000.0 499993.0 0
250000.0 499993.0 0
254000.0 499993.0 0
258000.0 499993.0 0
262000.0 499993.0 0
266000.0 499993.0 0
270000.0 499993.0 0
274000.0 499993.0 0
278000.0 499993.0 0
282000.0 499993.0 0
286000.0 499993.0 0
290000.0 499993.0 0
294000.0 499993.0 0
298000.0 499993.0 0
302000.0 499993.0 0
306000.0 499993.0 0
310000.0 499993.0 0
314000.0 499993.0 0
318000.0 499993.0 0
322000.0 499993.0 0
326000.0 499993.0 0
330000.0 499993.0 0
334000.0 499993.0 0
338000.0 499993.0 0
342000.0 499993.0 0
346000.0 499993.0 0
350000.0 499993.0 0
354000.0 499993.0 0
358000.0 499993.0 0
362000.0 499993.0 0
366000.0 499993.0 0
370000.0 499997.0 0
374000.0 499993.0 0
378000.0 500011.0 0
382000.0 500015.0 0
386000.0 500110.0 0
390000.0 500090.0 0
394000.0 500154.0 0
398000.0 500158.0 0
102000.0 504144.0 0
106000.0 504138.0 0
110000.0 504082.0 0
114000.0 504093.0 0
118000.0 504009.0 0
122000.0 504006.0 0
126000.0 503993.0 0
130000.0 503995.0 0
134000.0 503993.0 0
138000.0 503993.0 0
142000.0 503993.0 0
146000.0 503993.0 0
150000.0 503993.0 0
154000.0 503993.0 0
158000.0 503993.0 0
162000.0 503993.0 0
166000.0 503993.0 0
170000.0 503993.0 0
174000.0 503993.0 0
178000.0 503993.0 0
182000.0 503993.0 0
186000.0 503993.0 0
190000.0 503993.0 0
194000.0 503993.0 0
198000.0 503993.0 0
202000.0 503993.0 0
206000.0 503993.0 0
210000.0 503993.0 0
214000.0 503993.0 0
218000.0 503993.0 0
222000.0 503993.0 0
226000.0 503993.0 0
230000.0 503993.0 0
234000.0 503993.0 0
238000.0 503993.0 0
242000.0 503993.0 0
246000.0 503993.0 0
250000.0 503993.0 0
254000.0 503993.0 0
258000.0 503993.0 0
262000.0 503993.0 0
266000.0 503993.0 0
270000.0 503993.0 0
274000.0 503993.0 0
278000.0 503993.0 0
282000.0 503993.0 0
286000.0 503993.0 0
290000.0 503993.0 0
294000.0 503993.0 0
298000.0 503993.0 0
302000.0 503993.0 0
306000.0 503993.0 0
310000.0 503993.0 0
314000.0 503993.0 0
318000.0 503993.0 0
322000.0 503993.0 0
326000.0 503993.0 0
330000.0 503993.0 0
334000.0 503993.0 0
338000.0 503993.0 0
342000.0 503993.0 0
346000.0 503993.0 0
350000.0 503993.0 0
354000.0 503993.0 0
358000.0 503993.0 0
362000.0 503993.0 0
366000.0 503993.0 0
370000.0 503995.0 0
374000.0 503993.0 0
378000.0 504006.0 0
382000.0 504009.0 0
386000.0 504093.0 0
390000.0 504082.0 0
394000.0 504138.0 0
398000.0 504144.0 0
102000.0 508132.0 0
106000.0 508124.0 0
110000.0 508073.0 0
114000.0 508078.0 0
118000.0 508004.0 0
122000.0 508002.0 0
126000.0 507993.0 0
130000.0 507995.0 0
134000.0 507993.0 0
138000.0 507993.0 0
142000.0 507993.0 0
146000.0 507993.0 0
150000.0 507993.0 0
154000.0 507993.0 0
158000.0 507993.0 0
162000.0 507993.0 0
166000.0 507993.0 0
170000.0 507993.0 0
174000.0 507993.0 0
178000.0 507993.0 0
182000.0 507993.0 0
186000.0 507993.0 0
190000.0 507993.0 0
194000.0 507993.0 0
198000.0 507993.0 0
202000.0 507993.0 0
206000.0 507993.0 0
210000.0 507993.0 0
214000.0 507993.0 0
218000.0 507993.0 0
222000.0 507993.0 0
226000.0 507993.0 0
230000.0 507993.0 0
234000.0 507993.0 0
238000.0 507993.0 0
242000.0 507993.0 0
246000.0 507993.0 0
250000.0 507993.0 0
254000.0 507993.0 0
258000.0 507993.0 0
262000.0 507993.0 0
266000.0 507993.0 0
270000.0 507993.0 0
274000.0 507993.0 0
278000.0 507993.0 0
282000.0 507993.0 0
286000.0 507993.0 0
290000.0 507993.0 0
294000.0 507993.0 0
298000.0 507993.0 0
302000.0 507993.0 0
306000.0 507993.0 0
310000.0 507993.0 0
314000.0 507993.0 0
318000.0 507993.0 0
322000.0 507993.0 0
326000.0 507993.0 0
330000.0 507993.0 0
334000.0 507993.0 0
338000.0 507993.0 0
342000.0 507993.0 0
346000.0 507993.0 0
350000.0 507993.0 0
354000.0 507993.0 0
358000.0 507993.0 0
362000.0 507993.0 0
366000.0 507993.0 0
370000.0 507995.0 0
374000.0 507993.0 0
378000.0 508002.0 0
382000.0 508004.0 0
386000.0 508078.0 0
390000.0 508073.0 0
394000.0 508124.0 0
398000.0 508132.0 0
102000.0 512119.0 0
106000.0 512111.0 0
110000.0 512065.0 0
114000.0 512064.0 0
118000.0 512001.0 0
122000.0 511999.0 0
126000.0 511993.0 0
130000.0 511994.0 0
134000.0 511993.0 0
138000.0 511993.0 0
142000.0 511993.0 0
146000.0 511993.0 0
150000.0 511993.0 0
154000.0 511993.0 0
158000.0 511993.0 0
162000.0 511993.0 0
166000.0 511993.0 0
170000.0 511993.0 0
174000.0 511993.0 0
178000.0 511993.0 0
182000.0 511993.0 0
186000.0 511993.0 0
190000.0 511993.0 0
194000.0 511993.0 0
198000.0 511993.0 0
202000.0 511993.0 0
206000.0 511993.0 0
210000.0 511993.0 0
214000.0 511993.0 0
218000.0 511993.0 0
222000.0 511993.0 0
226000.0 511993.0 0
230000.0 511993.0 0
234000.0 511993.0 0
238000.0 511993.0 0
242000.0 511993.0 0
246000.0 511993.0 0
250000.0 511993.0 0
254000.0 511993.0 0
258000.0 511993.0 0
262000.0 511993.0 0
266000.0 511993.0 0
270000.0 511993.0 0
274000.0 511993.0 0
278000.0 511993.0 0
282000.0 511993.0 0
286000.0 511993.0 0
290000.0 511993.0 0
294000.0 511993.0 0
298000.0 511993.0 0
302000.0 511993.0 0
306000.0 511993.0 0
310000.0 511993.0 0
314000.0 511993.0 0
318000.0 511993.0 0
322000.0 511993.0 0
326000.0 511993.0 0
330000.0 511993.0 0
334000.0 511993.0 0
338000.0 511993.0 0
342000.0 511993.0 0
346000.0 511993.0 0
350000.0 511993.0 0
354000.0 511993.0 0
358000.0 511993.0 0
362000.0 511993.0 0
366000.0 511993.0 0
370000.0 511994.0 0
374000.0 511993.0 0
378000.0 511999.0 0
382000.0 512001.0 0
386000.0 512064.0 0
390000.0 512065.0 0
394000.0 512111.0 0
398000.0 512119.0 0
102000.0 516108.0 0
106000.0 516099.0 0
110000.0 516057.0 0
114000.0 516052.0 0
118000.0 515999.0 0
122000.0 515998.0 0
126000.0 515993.0 0
130000.0 515994.0 0
134000.0 515993.0 0
138000.0 515993.0 0
142000.0 515993.0 0
146000.0 515993.0 0
150000.0 515993.0 0
154000.0 515993.0 0
158000.0 515993.0 0
162000.0 515993.0 0
166000.0 515993.0 0
170000.0 515993.0 0
174000.0 515993.0 0
178000.0 515993.0 0
182000.0 515993.0 0
186000.0 515993.0 0
190000.0 515993.0 0
194000.0 515993.0 0
198000.0 515993.0 0
202000.0 515993.0 0
206000.0 515993.0 0
210000.0 515993.0 0
214000.0 515993.0 0
218000.0 515993.0 0
222000.0 515993.0 0
226000.0 515993.0 0
230000.0 515993.0 0
234000.0 515993.0 0
238000.0 515993.0 0
242000.0 515993.0 0
246000.0 515993.0 0
250000.0 515993.0 0
254000.0 515993.0 0
258000.0 515993.0 0
262000.0 515993.0 0
266000.0 515993.0 0
270000.0 515993.0 0
274000.0 515993.0 0
278000.0 515993.0 0
282000.0 515993.0 0
286000.0 515993.0 0
290000.0 515993.0 0
294000.0 515993.0 0
298000.0 515993.0 0
302000.0 515993.0 0
306000.0 515993.0 0
310000.0 515993.0 0
314000.0 515993.0 0
318000.0 515993.0 0
322000.0 515993.0 0
326000.0 515993.0 0
330000.0 515993.0 0
334000.0 515993.0 0
338000.0 515993.0 0
342000.0 515993.0 0
346000.0 515993.0 0
350000.0 515993.0 0
354000.0 515993.0 0
358000.0 515993.0 0
362000.0 515993.0 0
366000.0 515993.0 0
370000.0 515994.0 0
374000.0 515993.0 0
378000.0 515998.0 0
382000.0 515999.0 0
386000.0 516052.0 0
390000.0 516057.0 0
394000.0 516099.0 0
398000.0 516108.0 0
102000.0 520097.0 0
106000.0 520088.0 0
110000.0 520050.0 0
114000.0 520042.0 0
118000.0 519997.0 0
122000.0 519996.0 0
126000.0 519993.0 0
130000.0 519994.0 0
134000.0 519993.0 0
138000.0 519993.0 0
142000.0 519993.0 0
146000.0 519993.0 0
150000.0 519993.0 0
154000.0 519993.0 0
158000.0 519993.0 0
162000.0 519993.0 0
166000.0 519993.0 0
170000.0 519993.0 0
174000.0 519993.0 0
178000.0 519993.0 0
182000.0 519993.0 0
186000.0 519993.0 0
190000.0 519993.0 0
194000.0 519993.0 0
198000.0 519993.0 0
202000.0 519993.0 0
206000.0 519993.0 0
210000.0 519993.0 0
214000.0 519993.0 0
218000.0 519993.0 0
222000.0 519993.0 0
226000.0 519993.0 0
230000.0 519993.0 0
234000.0 519993.0 0
238000.0 519993.0 0
242000.0 519993.0 0
246000.0 519993.0 0
250000.0 519993.0 0
254000.0 519993.0 0
258000.0 519993.0 0
262000.0 519993.0 0
266000.0 519993.0 0
270000.0 519993.0 0
274000.0 519993.0 0
278000.0 519993.0 0
282000.0 519993.0 0
286000.0 519993.0 0
290000.0 519993.0 0
294000.0 519993.0 0
298000.0 519993.0 0
302000.0 519993.0 0
306000.0 519993.0 0
310000.0 519993.0 0
314000.0 519993.0 0
318000.0 519993.0 0
322000.0 519993.0 0
326000.0 519993.0 0
330000.0 519993.0 0
334000.0 519993.0 0
338000.0 519993.0 0
342000.0 519993.0 0
346000.0 519993.0 0
350000.0 519993.0 0
354000.0 519993.0 0
358000.0 519993.0 0
362000.0 519993.0 0
366000.0 519993.0 0
370000.0 519994.0 0
374000.0 519993.0 0
378000.0 519996.0 0
382000.0 519997.0 0
386000.0 520042.0 0
390000.0 520050.0 0
394000.0 520088.0 0
398000.0 520097.0 0
102000.0 524086.0 0
106000.0 524078.0 0
110000.0 524043.0 0
114000.0 524033.0 0
118000.0 523996.0 0
122000.0 523995.0 0
126000.0 523993.0 0
130000.0 523993.0 0
134000.0 523993.0 0
138000.0 523993.0 0
142000.0 523993.0 0
146000.0 523993.0 0
150000.0 523993.0 0
154000.0 523993.0 0
158000.0 523993.0 0
162000.0 523993.0 0
166000.0 523993.0 0
170000.0 523993.0 0
174000.0 523993.0 0
178000.0 523993.0 0
182000.0 523993.0 0
186000.0 523993.0 0
190000.0 523993.0 0
194000.0 523993.0 0
198000.0 523993.0 0
202000.0 523993.0 0
206000.0 523993.0 0
210000.0 523993.0 0
214000.0 523993.0 0
218000.0 523993.0 0
222000.0 523993.0 0
226000.0 523993.0 0
230000.0 523993.0 0
234000.0 523993.0 0
238000.0 523993.0 0
242000.0 523993.0 0
246000.0 523993.0 0
250000.0 523993.0 0
254000.0 523993.0 0
258000.0 523993.0 0
262000.0 523993.0 0
266000.0 523993.0 0
270000.0 523993.0 0
274000.0 523993.0 0
278000.0 523993.0 0
282000.0 523993.0 0
286000.0 523993.0 0
290000.0 523993.0 0
294000.0 523993.0 0
298000.0 523993.0 0
302000.0 523993.0 0
306000.0 523993.0 0
310000.0 523993.0 0
314000.0 523993.0 0
318000.0 523993.0 0
322000.0 523993.0 0
326000.0 523993.0 0
330000.0 523993.0 0
334000.0 523993.0 0
338000.0 523993.0 0
342000.0 523993.0 0
346000.0 523993.0 0
350000.0 523993.0 0
354000.0 523993.0 0
358000.0 523993.0 0
362000.0 523993.0 0
366000.0 523993.0 0
370000.0 523993.0 0
374000.0 523993.0 0
378000.0 523995.0 0
382000.0 523996.0 0
386000.0 524033.0 0
390000.0 524043.0 0
394000.0 524078.0 0
398000.0 524086.0 0
102000.0 528076.0 0
106000.0 528068.0 0
110000.0 528036.0 0
114000.0 528025.0 0
118000.0 527995.0 0
122000.0 527995.0 0
126000.0 527993.0 0
130000.0 527993.0 0
134000.0 527993.0 0
138000.0 527993.0 0
142000.0 527993.0 0
146000.0 527993.0 0
150000.0 527993.0 0
154000.0 527993.0 0
158000.0 527993.0 0
162000.0 527993.0 0
166000.0 527993.0 0
170000.0 527993.0 0
174000.0 527993.0 0
178000.0 527993.0 0
182000.0 527993.0 0
186000.0 527993.0 0
190000.0 527993.0 0
194000.0 527993.0 0
198000.0 527993.0 0
202000.0 527993.0 0
206000.0 527993.0 0
210000.0 527993.0 0
214000.0 527993.0 0
218000.0 527993.0 0
222000.0 527993.0 0
226000.0 527993.0 0
230000.0 527993.0 0
234000.0 527993.0 0
238000.0 527993.0 0
242000.0 527993.0 0
246000.0 527993.0 0
250000.0 527993.0 0
254000.0 527993.0 0
258000.0 527993.0 0
262000.0 527993.0 0
266000.0 527993.0 0
270000.0 527993.0 0
274000.0 527993.0 0
278000.0 527993.0 0
282000.0 527993.0 0
286000.0 527993.0 0
290000.0 527993.0 0
294000.0 527993.0 0
298000.0 527993.0 0
302000.0 527993.0 0
306000.0 527993.0 0
310000.0 527993.0 0
314000.0 527993.0 0
318000.0 527993.0 0
322000.0 527993.0 0
326000.0 527993.0 0
330000.0 527993.0 0
334000.0 527993.0 0
338000.0 527993.0 0
342000.0 527993.0 0
346000.0 527993.0 0
350000.0 527993.0 0
354000.0 527993.0 0
358000.0 527993.0 0
362000.0 527993.0 0
366000.0 527993.0 0
370000.0 527993.0 0
374000.0 527993.0 0
378000.0 527995.0 0
382000.0 527995.0 0
386000.0 528025.0 0
390000.0 528036.0 0
394000.0 528068.0 0
398000.0 528076.0 0
102000.0 532067.0 0
106000.0 532059.0 0
110000.0 532030.0 0
114000.0 532019.0 0
118000.0 531994.0 0
122000.0 531994.0 0
126000.0 531993.0 0
130000.0 531993.0 0
134000.0 531993.0 0
138000.0 531993.0 0
142000.0 531993.0 0
146000.0 531993.0 0
150000.0 531993.0 0
154000.0 531993.0 0
158000.0 531993.0 0
162000.0 531993.0 0
166000.0 531993.0 0
170000.0 531993.0 0
174000.0 531993.0 0
178000.0 531993.0 0
182000.0 531993.0 0
186000.0 531993.0 0
190000.0 531993.0 0
194000.0 531993.0 0
198000.0 531993.0 0
202000.0 531993.0 0
206000.0 531993.0 0
210000.0 531993.0 0
214000.0 531993.0 0
218000.0 531993.0 0
222000.0 531993.0 0
226000.0 531993.0 0
230000.0 531993.0 0
234000.0 531993.0 0
238000.0 531993.0 0
242000.0 531993.0 0
246000.0 531993.0 0
250000.0 531993.0 0
254000.0 531993.0 0
258000.0 531993.0 0
262000.0 531993.0 0
266000.0 531993.0 0
270000.0 531993.0 0
274000.0 531993.0 0
278000.0 531993.0 0
282000.0 531993.0 0
286000.0 531993.0 0
290000.0 531993.0 0
294000.0 531993.0 0
298000.0 531993.0 0
302000.0 531993.0 0
306000.0 531993.0 0
310000.0 531993.0 0
314000.0 531993.0 0
318000.0 531993.0 0
322000.0 531993.0 0
326000.0 531993.0 0
330000.0 531993.0 0
334000.0 531993.0 0
338000.0 531993.0 0
342000.0 531993.0 0
346000.0 531993.0 0
350000.0 531993.0 0
354000.0 531993.0 0
358000.0 531993.0 0
362000.0 531993.0 0
366000.0 531993.0 0
370000.0 531993.0 0
374000.0 531993.0 0
378000.0 531994.0 0
382000.0 531994.0 0
386000.0 532019.0 0
390000.0 532030.0 0
394000.0 532059.0 0
398000.0 532067.0 0
102000.0 536058.0 0
106000.0 536051.0 0
110000.0 536025.0 0
114000.0 536013.0 0
118000.0 535994.0 0
122000.0 535994.0 0
126000.0 535993.0 0
130000.0 535993.0 0
134000.0 535993.0 0
138000.0 535993.0 0
142000.0 535993.0 0
146000.0 535993.0 0
150000.0 535993.0 0
154000.0 535993.0 0
158000.0 535993.0 0
162000.0 535993.0 0
166000.0 535993.0 0
170000.0 535993.0 0
174000.0 535993.0 0
178000.0 535993.0 0
182000.0 535993.0 0
186000.0 535993.0 0
190000.0 535993.0 0
194000.0 535993.0 0
198000.0 535993.0 0
202000.0 535993.0 0
206000.0 535993.0 0
210000.0 535993.0 0
214000.0 535993.0 0
218000.0 535993.0 0
222000.0 535993.0 0
226000.0 535993.0 0
230000.0 535993.0 0
234000.0 535993.0 0
238000.0 535993.0 0
242000.0 535993.0 0
246000.0 535993.0 0
250000.0 535993.0 0
254000.0 535993.0 0
258000.0 535993.0 0
262000.0 535993.0 0
266000.0 535993.0 0
270000.0 535993.0 0
274000.0 535993.0 0
278000.0 535993.0 0
282000.0 535993.0 0
286000.0 535993.0 0
290000.0 535993.0 0
294000.0 535993.0 0
298000.0 535993.0 0
302000.0 535993.0 0
306000.0 535993.0 0
310000.0 535993.0 0
314000.0 535993.0 0
318000.0 535993.0 0
322000.0 535993.0 0
326000.0 535993.0 0
330000.0 535993.0 0
334000.0 535993.0 0
338000.0 535993.0 0
342000.0 535993.0 0
346000.0 535993.0 0
350000.0 535993.0 0
354000.0 535993.0 0
358000.0 535993.0 0
362000.0 535993.0 0
366000.0 535993.0 0
370000.0 535993.0 0
374000.0 535993.0 0
378000.0 535994.0 0
382000.0 535994.0 0
386000.0 536013.0 0
390000.0 536025.0 0
394000.0 536051.0 0
398000.0 536058.0 0
102000.0 540051.0 0
106000.0 540044.0 0
110000.0 540020.0 0
114000.0 540009.0 0
118000.0 539994.0 0
122000.0 539994.0 0
126000.0 539993.0 0
130000.0 539993.0 0
134000.0 539993.0 0
138000.0 539993.0 0
142000.0 539993.0 0
146000.0 539993.0 0
150000.0 539993.0 0
154000.0 539993.0 0
158000.0 539993.0 0
162000.0 539993.0 0
166000.0 539993.0 0
170000.0 539993.0 0
174000.0 539993.0 0
178000.0 539993.0 0
182000.0 539993.0 0
186000.0 539993.0 0
190000.0 539993.0 0
194000.0 539993.0 0
198000.0 539993.0 0
202000.0 539993.0 0
206000.0 539993.0 0
210000.0 539993.0 0
214000.0 539993.0 0
218000.0 539993.0 0
222000.0 539993.0 0
226000.0 539993.0 0
230000.0 539993.0 0
234000.0 539993.0 0
238000.0 539993.0 0
242000.0 539993.0 0
246000.0 539993.0 0
250000.0 539993.0 0
254000.0 539993.0 0
258000.0 539993.0 0
262000.0 539993.0 0
266000.0 539993.0 0
270000.0 539993.0 0
274000.0 539993.0 0
278000.0 539993.0 0
282000.0 539993.0 0
286000.0 539993.0 0
290000.0 539993.0 0
294000.0 539993.0 0
298000.0 539993.0 0
302000.0 539993.0 0
306000.0 539993.0 0
310000.0 539993.0 0
314000.0 539993.0 0
318000.0 539993.0 0
322000.0 539993.0 0
326000.0 539993.0 0
330000.0 539993.0 0
334000.0 539993.0 0
338000.0 539993.0 0
342000.0 539993.0 0
346000.0 539993.0 0
350000.0 539993.0 0
354000.0 539993.0 0
358000.0 539993.0 0
362000.0 539993.0 0
366000.0 539993.0 0
370000.0 539993.0 0
374000.0 539993.0 0
378000.0 539994.0 0
382000.0 539994.0 0
386000.0 540009.0 0
390000.0 540020.0 0
394000.0 540044.0 0
398000.0 540051.0 0
102000.0 544044.0 0
106000.0 544038.0 0
110000.0 544016.0 0
114000.0 544005.0 0
118000.0 543994.0 0
122000.0 543994.0 0
126000.0 543993.0 0
130000.0 543993.0 0
134000.0 543993.0 0
138000.0 543993.0 0
142000.0 543993.0 0
146000.0 543993.0 0
150000.0 543993.0 0
154000.0 543993.0 0
158000.0 543993.0 0
162000.0 543993.0 0
166000.0 543993.0 0
170000.0 543993.0 0
174000.0 543993.0 0
178000.0 543993.0 0
182000.0 543993.0 0
186000.0 543993.0 0
190000.0 543993.0 0
194000.0 543993.0 0
198000.0 543993.0 0
202000.0 543993.0 0
206000.0 543993.0 0
210000.0 543993.0 0
214000.0 543993.0 0
218000.0 543993.0 0
222000.0 543993.0 0
226000.0 543993.0 0
230000.0 543993.0 0
234000.0 543993.0 0
238000.0 543993.0 0
242000.0 543993.0 0
246000.0 543993.0 0
250000.0 543993.0 0
254000.0 543993.0 0
258000.0 543993.0 0
262000.0 543993.0 0
266000.0 543993.0 0
270000.0 543993.0 0
274000.0 543993.0 0
278000.0 543993.0 0
282000.0 543993.0 0
286000.0 543993.0 0
290000.0 543993.0 0
294000.0 543993.0 0
298000.0 543993.0 0
302000.0 543993.0 0
306000.0 543993.0 0
310000.0 543993.0 0
314000.0 543993.0 0
318000.0 543993.0 0
322000.0 543993.0 0
326000.0 543993.0 0
330000.0 543993.0 0
334000.0 543993.0 0
338000.0 543993.0 0
342000.0 543993.0 0
346000.0 543993.0 0
350000.0 543993.0 0
354000.0 543993.0 0
358000.0 543993.0 0
362000.0 543993.0 0
366000.0 543993.0 0
370000.0 543993.0 0
374000.0 543993.0 0
378000.0 543994.0 0
382000.0 543994.0 0
386000.0 544005.0 0
390000.0 544016.0 0
394000.0 544038.0 0
398000.0 544044.0 0
102000.0 548037.0 0
106000.0 548032.0 0
110000.0 548012.0 0
114000.0 548003.0 0
118000.0 547993.0 0
122000.0 547994.0 0
126000.0 547993.0 0
130000.0 547993.0 0
134000.0 547993.0 0
138000.0 547993.0 0
142000.0 547993.0 0
146000.0 547993.0 0
150000.0 547993.0 0
154000.0 547993.0 0
158000.0 547993.0 0
162000.0 547993.0 0
166000.0 547993.0 0
170000.0 547993.0 0
174000.0 547993.0 0
178000.0 547993.0 0
182000.0 547993.0 0
186000.0 547993.0 0
190000.0 547993.0 0
194000.0 547993.0 0
198000.0 547993.0 0
202000.0 547993.0 0
206000.0 547993.0 0
210000.0 547993.0 0
214000.0 547993.0 0
218000.0 547993.0 0
222000.0 547993.0 0
226000.0 547993.0 0
230000.0 547993.0 0
234000.0 547993.0 0
238000.0 547993.0 0
242000.0 547993.0 0
246000.0 547993.0 0
250000.0 547993.0 0
254000.0 547993.0 0
258000.0 547993.0 0
262000.0 547993.0 0
266000.0 547993.0 0
270000.0 547993.0 0
274000.0 547993.0 0
278000.0 547993.0 0
282000.0 547993.0 0
286000.0 547993.0 0
290000.0 547993.0 0
294000.0 547993.0 0
298000.0 547993.0 0
302000.0 547993.0 0
306000.0 547993.0 0
310000.0 547993.0 0
314000.0 547993.0 0
318000.0 547993.0 0
322000.0 547993.0 0
326000.0 547993.0 0
330000.0 547993.0 0
334000.0 547993.0 0
338000.0 547993.0 0
342000.0 547993.0 0
346000.0 547993.0 0
350000.0 547993.0 0
354000.0 547993.0 0
358000.0 547993.0 0
362000.0 547993.0 0
366000.0 547993.0 0
370000.0 547993.0 0
374000.0 547993.0 0
378000.0 547994.0 0
382000.0 547993.0 0
386000.0 548003.0 0
390000.0 548012.0 0
394000.0 548032.0 0
398000.0 548037.0 0
102000.0 552031.0 0
106000.0 552026.0 0
110000.0 552009.0 0
114000.0 552000.0 0
118000.0 551993.0 0
122000.0 551993.0 0
126000.0 551993.0 0
130000.0 551993.0 0
134000.0 551993.0 0
138000.0 551993.0 0
142000.0 551993.0 0
146000.0 551993.0 0
150000.0 551993.0 0
154000.0 551993.0 0
158000.0 551993.0 0
162000.0 551993.0 0
166000.0 551993.0 0
170000.0 551993.0 0
174000.0 551993.0 0
178000.0 551993.0 0
182000.0 551993.0 0
186000.0 551993.0 0
190000.0 551993.0 0
194000.0 551993.0 0
198000.0 551993.0 0
202000.0 551993.0 0
206000.0 551993.0 0
210000.0 551993.0 0
214000.0 551993.0 0
218000.0 551993.0 0
222000.0 551993.0 0
226000.0 551993.0 0
230000.0 551993.0 0
234000.0 551993.0 0
238000.0 551993.0 0
242000.0 551993.0 0
246000.0 551993.0 0
250000.0 551993.0 0
254000.0 551993.0 0
258000.0 551993.0 0
262000.0 551993.0 0
266000.0 551993.0 0
270000.0 551993.0 0
274000.0 551993.0 0
278000.0 551993.0 0
282000.0 551993.0 0
286000.0 551993.0 0
290000.0 551993.0 0
294000.0 551993.0 0
298000.0 551993.0 0
302000.0 551993.0 0
306000.0 551993.0 0
310000.0 551993.0 0
314000.0 551993.0 0
318000.0 551993.0 0
322000.0 551993.0 0
326000.0 551993.0 0
330000.0 551993.0 0
334000.0 551993.0 0
338000.0 551993.0 0
342000.0 551993.0 0
346000.0 551993.0 0
350000.0 551993.0 0
354000.0 551993.0 0
358000.0 551993.0 0
362000.0 551993.0 0
366000.0 551993.0 0
370000.0 551993.0 0
374000.0 551993.0 0
378000.0 551993.0 0
382000.0 551993.0 0
386000.0 552000.0 0
390000.0 552009.0 0
394000.0 552026.0 0
398000.0 552031.0 0
102000.0 556026.0 0
106000.0 556022.0 0
110000.0 556006.0 0
114000.0 555999.0 0
118000.0 555993.0 0
122000.0 555993.0 0
126000.0 555993.0 0
130000.0 555993.0 0
134000.0 555993.0 0
138000.0 555993.0 0
142000.0 555993.0 0
146000.0 555993.0 0
150000.0 555993.0 0
154000.0 555993.0 0
158000.0 555993.0 0
162000.0 555993.0 0
166000.0 555993.0 0
170000.0 555993.0 0
174000.0 555993.0 0
178000.0 555993.0 0
182000.0 555993.0 0
186000.0 555993.0 0
190000.0 555993.0 0
194000.0 555993.0 0
198000.0 555993.0 0
202000.0 555993.0 0
206000.0 555993.0 0
210000.0 555993.0 0
214000.0 555993.0 0
218000.0 555993.0 0
222000.0 555993.0 0
226000.0 555993.0 0
230000.0 555993.0 0
234000.0 555993.0 0
238000.0 555993.0 0
242000.0 555993.0 0
246000.0 555993.0 0
250000.0 555993.0 0
254000.0 555993.0 0
258000.0 555993.0 0
262000.0 555993.0 0
266000.0 555993.0 0
270000.0 555993.0 0
274000.0 555993.0 0
278000.0 555993.0 0
282000.0 555993.0 0
286000.0 555993.0 0
290000.0 555993.0 0
294000.0 555993.0 0
298000.0 555993.0 0
302000.0 555993.0 0
306000.0 555993.0 0
310000.0 555993.0 0
314000.0 555993.0 0
318000.0 555993.0 0
322000.0 555993.0 0
326000.0 555993.0 0
330000.0 555993.0 0
334000.0 555993.0 0
338000.0 555993.0 0
342000.0 555993.0 0
346000.0 555993.0 0
350000.0 555993.0 0
354000.0 555993.0 0
358000.0 555993.0 0
362000.0 555993.0 0
366000.0 555993.0 0
370000.0 555993.0 0
374000.0 555993.0 0
378000.0 555993.0 0
382000.0 555993.0 0
386000.0 555999.0 0
390000.0 556006.0 0
394000.0 556022.0 0
398000.0 556026.0 0
102000.0 560022.0 0
106000.0 560018.0 0
110000.0 560004.0 0
114000.0 559997.0 0
118000.0 559993.0 0
122000.0 559993.0 0
126000.0 559993.0 0
130000.0 559993.0 0
134000.0 559993.0 0
138000.0 559993.0 0
142000.0 559993.0 0
146000.0 559993.0 0
150000.0 559993.0 0
154000.0 559993.0 0
158000.0 559993.0 0
162000.0 559993.0 0
166000.0 559993.0 0
170000.0 559993.0 0
174000.0 559993.0 0
178000.0 559993.0 0
182000.0 559993.0 0
186000.0 559993.0 0
190000.0 559993.0 0
194000.0 559993.0 0
198000.0 559993.0 0
202000.0 559993.0 0
206000.0 559993.0 0
210000.0 559993.0 0
214000.0 559993.0 0
218000.0 559993.0 0
222000.0 559993.0 0
226000.0 559993.0 0
230000.0 559993.0 0
234000.0 559993.0 0
238000.0 559993.0 0
242000.0 559993.0 0
246000.0 559993.0 0
250000.0 559993.0 0
254000.0 559993.0 0
258000.0 559993.0 0
262000.0 559993.0 0
266000.0 559993.0 0
270000.0 559993.0 0
274000.0 559993.0 0
278000.0 559993.0 0
282000.0 559993.0 0
286000.0 559993.0 0
290000.0 559993.0 0
294000.0 559993.0 0
298000.0 559993.0 0
302000.0 559993.0 0
306000.0 559993.0 0
310000.0 559993.0 0
314000.0 559993.0 0
318000.0 559993.0 0
322000.0 559993.0 0
326000.0 559993.0 0
330000.0 559993.0 0
334000.0 559993.0 0
338000.0 559993.0 0
342000.0 559993.0 0
346000.0 559993.0 0
350000.0 559993.0 0
354000.0 559993.0 0
358000.0 559993.0 0
362000.0 559993.0 0
366000.0 559993.0 0
370000.0 559993.0 0
374000.0 559993.0 0
378000.0 559993.0 0
382000.0 559993.0 0
386000.0 559997.0 0
390000.0 560004.0 0
394000.0 560018.0 0
398000.0 560022.0 0
102000.0 564018.0 0
106000.0 564014.0 0
110000.0 564002.0 0
114000.0 563996.0 0
118000.0 563993.0 0
122000.0 563993.0 0
126000.0 563993.0 0
130000.0 563993.0 0
134000.0 563993.0 0
138000.0 563993.0 0
142000.0 563993.0 0
146000.0 563993.0 0
150000.0 563993.0 0
154000.0 563993.0 0
158000.0 563993.0 0
162000.0 563993.0 0
166000.0 563993.0 0
170000.0 563993.0 0
174000.0 563993.0 0
178000.0 563993.0 0
182000.0 563993.0 0
186000.0 563993.0 0
190000.0 563993.0 0
194000.0 563993.0 0
198000.0 563993.0 0
202000.0 563993.0 0
206000.0 563993.0 0
210000.0 563993.0 0
214000.0 563993.0 0
218000.0 563993.0 0
222000.0 563993.0 0
226000.0 563993.0 0
230000.0 563993.0 0
234000.0 563993.0 0
238000.0 563993.0 0
242000.0 563993.0 0
246000.0 563993.0 0
250000.0 563993.0 0
254000.0 563993.0 0
258000.0 563993.0 0
262000.0 563993.0 0
266000.0 563993.0 0
270000.0 563993.0 0
274000.0 563993.0 0
278000.0 563993.0 0
282000.0 563993.0 0
286000.0 563993.0 0
290000.0 563993.0 0
294000.0 563993.0 0
298000.0 563993.0 0
302000.0 563993.0 0
306000.0 563993.0 0
310000.0 563993.0 0
314000.0 563993.0 0
318000.0 563993.0 0
322000.0 563993.0 0
326000.0 563993.0 0
330000.0 563993.0 0
334000.0 563993.0 0
338000.0 563993.0 0
342000.0 563993.0 0
346000.0 563993.0 0
350000.0 563993.0 0
354000.0 563993.0 0
358000.0 563993.0 0
362000.0 563993.0 0
366000.0 563993.0 0
370000.0 563993.0 0
374000.0 563993.0 0
378000.0 563993.0 0
382000.0 563993.0 0
386000.0 563996.0 0
390000.0 564002.0 0
394000.0 564014.0 0
398000.0 564018.0 0
102000.0 568014.0 0
106000.0 568011.0 0
110000.0 568000.0 0
114000.0 567995.0 0
118000.0 567993.0 0
122000.0 567993.0 0
126000.0 567993.0 0
130000.0 567993.0 0
134000.0 567993.0 0
138000.0 567993.0 0
142000.0 567993.0 0
146000.0 567993.0 0
150000.0 567993.0 0
154000.0 567993.0 0
158000.0 567993.0 0
162000.0 567993.0 0
166000.0 567993.0 0
170000.0 567993.0 0
174000.0 567993.0 0
178000.0 567993.0 0
182000.0 567993.0 0
186000.0 567993.0 0
190000.0 567993.0 0
194000.0 567993.0 0
198000.0 567993.0 0
202000.0 567993.0 0
206000.0 567993.0 0
210000.0 567993.0 0
214000.0 567993.0 0
218000.0 567993.0 0
222000.0 567993.0 0
226000.0 567993.0 0
230000.0 567993.0 0
234000.0 567993.0 0
238000.0 567993.0 0
242000.0 567993.0 0
246000.0 567993.0 0
250000.0 567993.0 0
254000.0 567993.0 0
258000.0 567993.0 0
262000.0 567993.0 0
266000.0 567993.0 0
270000.0 567993.0 0
274000.0 567993.0 0
278000.0 567993.0 0
282000.0 567993.0 0
286000.0 567993.0 0
290000.0 567993.0 0
294000.0 567993.0 0
298000.0 567993.0 0
302000.0 567993.0 0
306000.0 567993.0 0
310000.0 567993.0 0
314000.0 567993.0 0
318000.0 567993.0 0
322000.0 567993.0 0
326000.0 567993.0 0
330000.0 567993.0 0
334000.0 567993.0 0
338000.0 567993.0 0
342000.0 567993.0 0
346000.0 567993.0 0
350000.0 567993.0 0
354000.0 567993.0 0
358000.0 567993.0 0
362000.0 567993.0 0
366000.0 567993.0 0
370000.0 567993.0 0
374000.0 567993.0 0
378000.0 567993.0 0
382000.0 567993.0 0
386000.0 567995.0 0
390000.0 568000.0 0
394000.0 568011.0 0
398000.0 568014.0 0
102000.0 572011.0 0
106000.0 572008.0 0
110000.0 571999.0 0
114000.0 571995.0 0
118000.0 571993.0 0
122000.0 571993.0 0
126000.0 571993.0 0
130000.0 571993.0 0
134000.0 571993.0 0
138000.0 571993.0 0
142000.0 571993.0 0
146000.0 571993.0 0
150000.0 571993.0 0
154000.0 571993.0 0
158000.0 571993.0 0
162000.0 571993.0 0
166000.0 571993.0 0
170000.0 571993.0 0
174000.0 571993.0 0
178000.0 571993.0 0
182000.0 571993.0 0
186000.0 571993.0 0
190000.0 571993.0 0
194000.0 571993.0 0
198000.0 571993.0 0
202000.0 571993.0 0
206000.0 571993.0 0
210000.0 571993.0 0
214000.0 571993.0 0
218000.0 571993.0 0
222000.0 571993.0 0
226000.0 571993.0 0
230000.0 571993.0 0
234000.0 571993.0 0
238000.0 571993.0 0
242000.0 571993.0 0
246000.0 571993.0 0
250000.0 571993.0 0
254000.0 571993.0 0
258000.0 571993.0 0
262000.0 571993.0 0
266000.0 571993.0 0
270000.0 571993.0 0
274000.0 571993.0 0
278000.0 571993.0 0
282000.0 571993.0 0
286000.0 571993.0 0
290000.0 571993.0 0
294000.0 571993.0 0
298000.0 571993.0 0
302000.0 571993.0 0
306000.0 571993.0 0
310000.0 571993.0 0
314000.0 571993.0 0
318000.0 571993.0 0
322000.0 571993.0 0
326000.0 571993.0 0
330000.0 571993.0 0
334000.0 571993.0 0
338000.0 571993.0 0
342000.0 571993.0 0
346000.0 571993.0 0
350000.0 571993.0 0
354000.0 571993.0 0
358000.0 571993.0 0
362000.0 571993.0 0
366000.0 571993.0 0
370000.0 571993.0 0
374000.0 571993.0 0
378000.0 571993.0 0
382000.0 571993.0 0
386000.0 571995.0 0
390000.0 571999.0 0
394000.0 572008.0 0
398000.0 572011.0 0
102000.0 576008.0 0
106000.0 576006.0 0
110000.0 575998.0 0
114000.0 575994.0 0
118000.0 575993.0 0
122000.0 575993.0 0
126000.0 575993.0 0
130000.0 575993.0 0
134000.0 575993.0 0
138000.0 575993.0 0
142000.0 575993.0 0
146000.0 575993.0 0
150000.0 575993.0 0
154000.0 575993.0 0
158000.0 575993.0 0
162000.0 575993.0 0
166000.0 575993.0 0
170000.0 575993.0 0
174000.0 575993.0 0
178000.0 575993.0 0
182000.0 575993.0 0
186000.0 575993.0 0
190000.0 575993.0 0
194000.0 575993.0 0
198000.0 575993.0 0
202000.0 575993.0 0
206000.0 575993.0 0
210000.0 575993.0 0
214000.0 575993.0 0
218000.0 575993.0 0
222000.0 575993.0 0
226000.0 575993.0 0
230000.0 575993.0 0
234000.0 575993.0 0
238000.0 575993.0 0
242000.0 575993.0 0
246000.0 575993.0 0
250000.0 575993.0 0
254000.0 575993.0 0
258000.0 575993.0 0
262000.0 575993.0 0
266000.0 575993.0 0
270000.0 575993.0 0
274000.0 575993.0 0
278000.0 575993.0 0
282000.0 575993.0 0
286000.0 575993.0 0
290000.0 575993.0 0
294000.0 575993.0 0
298000.0 575993.0 0
302000.0 575993.0 0
306000.0 575993.0 0
310000.0 575993.0 0
314000.0 575993.0 0
318000.0 575993.0 0
322000.0 575993.0 0
326000.0 575993.0 0
330000.0 575993.0 0
334000.0 575993.0 0
338000.0 575993.0 0
342000.0 575993.0 0
346000.0 575993.0 0
350000.0 575993.0 0
354000.0 575993.0 0
358000.0 575993.0 0
362000.0 575993.0 0
366000.0 575993.0 0
370000.0 575993.0 0
374000.0 575993.0 0
378000.0 575993.0 0
382000.0 575993.0 0
386000.0 575994.0 0
390000.0 575998.0 0
394000.0 576006.0 0
398000.0 576008.0 0
102000.0 580006.0 0
106000.0 580004.0 0
110000.0 579997.0 0
114000.0 579994.0 0
118000.0 579993.0 0
122000.0 579993.0 0
126000.0 579993.0 0
130000.0 579993.0 0
134000.0 579993.0 0
138000.0 579993.0 0
142000.0 579993.0 0
146000.0 579993.0 0
150000.0 579993.0 0
154000.0 579993.0 0
158000.0 579993.0 0
162000.0 579993.0 0
166000.0 579993.0 0
170000.0 579993.0 0
174000.0 579993.0 0
178000.0 579993.0 0
182000.0 579993.0 0
186000.0 579993.0 0
190000.0 579993.0 0
194000.0 579993.0 0
198000.0 579993.0 0
202000.0 579993.0 0
206000.0 579993.0 0
210000.0 579993.0 0
214000.0 579993.0 0
218000.0 579993.0 0
222000.0 579993.0 0
226000.0 579993.0 0
230000.0 579993.0 0
234000.0 579993.0 0
238000.0 579993.0 0
242000.0 579993.0 0
246000.0 579993.0 0
250000.0 579993.0 0
254000.0 579993.0 0
258000.0 579993.0 0
262000.0 579993.0 0
266000.0 579993.0 0
270000.0 579993.0 0
274000.0 579993.0 0
278000.0 579993.0 0
282000.0 579993.0 0
286000.0 579993.0 0
290000.0 579993.0 0
294000.0 579993.0 0
298000.0 579993.0 0
302000.0 579993.0 0
306000.0 579993.0 0
310000.0 579993.0 0
314000.0 579993.0 0
318000.0 579993.0 0
322000.0 579993.0 0
326000.0 579993.0 0
330000.0 579993.0 0
334000.0 579993.0 0
338000.0 579993.0 0
342000.0 579993.0 0
346000.0 579993.0 0
350000.0 579993.0 0
354000.0 579993.0 0
358000.0 579993.0 0
362000.0 579993.0 0
366000.0 579993.0 0
370000.0 579993.0 0
374000.0 579993.0 0
378000.0 579993.0 0
382000.0 579993.0 0
386000.0 579994.0 0
390000.0 579997.0 0
394000.0 580004.0 0
398000.0 580006.0 0
102000.0 584004.0 0
106000.0 584002.0 0
110000.0 583996.0 0
114000.0 583994.0 0
118000.0 583993.0 0
122000.0 583993.0 0
126000.0 583993.0 0
130000.0 583993.0 0
134000.0 583993.0 0
138000.0 583993.0 0
142000.0 583993.0 0
146000.0 583993.0 0
150000.0 583993.0 0
154000.0 583993.0 0
158000.0 583993.0 0
162000.0 583993.0 0
166000.0 583993.0 0
170000.0 583993.0 0
174000.0 583993.0 0
178000.0 583993.0 0
182000.0 583993.0 0
186000.0 583993.0 0
190000.0 583993.0 0
194000.0 583993.0 0
198000.0 583993.0 0
202000.0 583993.0 0
206000.0 583993.0 0
210000.0 583993.0 0
214000.0 583993.0 0
218000.0 583993.0 0
222000.0 583993.0 0
226000.0 583993.0 0
230000.0 583993.0 0
234000.0 583993.0 0
238000.0 583993.0 0
242000.0 583993.0 0
246000.0 583993.0 0
250000.0 583993.0 0
254000.0 583993.0 0
258000.0 583993.0 0
262000.0 583993.0 0
266000.0 583993.0 0
270000.0 583993.0 0
274000.0 583993.0 0
278000.0 583993.0 0
282000.0 583993.0 0
286000.0 583993.0 0
290000.0 583993.0 0
294000.0 583993.0 0
298000.0 583993.0 0
302000.0 583993.0 0
306000.0 583993.0 0
310000.0 583993.0 0
314000.0 583993.0 0
318000.0 583993.0 0
322000.0 583993.0 0
326000.0 583993.0 0
330000.0 583993.0 0
334000.0 583993.0 0
338000.0 583993.0 0
342000.0 583993.0 0
346000.0 583993.0 0
350000.0 583993.0 0
354000.0 583993.0 0
358000.0 583993.0 0
362000.0 583993.0 0
366000.0 583993.0 0
370000.0 583993.0 0
374000.0 583993.0 0
378000.0 583993.0 0
382000.0 583993.0 0
386000.0 583994.0 0
390000.0 583996.0 0
394000.0 584002.0 0
398000.0 584004.0 0
102000.0 588002.0 0
106000.0 588000.0 0
110000.0 587995.0 0
114000.0 587994.0 0
118000.0 587993.0 0
122000.0 587993.0 0
126000.0 587993.0 0
130000.0 587993.0 0
134000.0 587993.0 0
138000.0 587993.0 0
142000.0 587993.0 0
146000.0 587993.0 0
150000.0 587993.0 0
154000.0 587993.0 0
158000.0 587993.0 0
162000.0 587993.0 0
166000.0 587993.0 0
170000.0 587993.0 0
174000.0 587993.0 0
178000.0 587993.0 0
182000.0 587993.0 0
186000.0 587993.0 0
190000.0 587993.0 0
194000.0 587993.0 0
198000.0 587993.0 0
202000.0 587993.0 0
206000.0 587993.0 0
210000.0 587993.0 0
214000.0 587993.0 0
218000.0 587993.0 0
222000.0 587993.0 0
226000.0 587993.0 0
230000.0 587993.0 0
234000.0 587993.0 0
238000.0 587993.0 0
242000.0 587993.0 0
246000.0 587993.0 0
250000.0 587993.0 0
254000.0 587993.0 0
258000.0 587993.0 0
262000.0 587993.0 0
266000.0 587993.0 0
270000.0 587993.0 0
274000.0 587993.0 0
278000.0 587993.0 0
282000.0 587993.0 0
286000.0 587993.0 0
290000.0 587993.0 0
294000.0 587993.0 0
298000.0 587993.0 0
302000.0 587993.0 0
306000.0 587993.0 0
310000.0 587993.0 0
314000.0 587993.0 0
318000.0 587993.0 0
322000.0 587993.0 0
326000.0 587993.0 0
330000.0 587993.0 0
334000.0 587993.0 0
338000.0 587993.0 0
342000.0 587993.0 0
346000.0 587993.0 0
350000.0 587993.0 0
354000.0 587993.0 0
358000.0 587993.0 0
362000.0 587993.0 0
366000.0 587993.0 0
370000.0 587993.0 0
374000.0 587993.0 0
378000.0 587993.0 0
382000.0 587993.0 0
386000.0 587994.0 0
390000.0 587995.0 0
394000.0 588000.0 0
398000.0 588002.0 0
102000.0 592001.0 0
106000.0 591999.0 0
110000.0 591995.0 0
114000.0 591993.0 0
118000.0 591993.0 0
122000.0 591993.0 0
126000.0 591993.0 0
130000.0 591993.0 0
134000.0 591993.0 0
138000.0 591993.0 0
142000.0 591993.0 0
146000.0 591993.0 0
150000.0 591993.0 0
154000.0 591993.0 0
158000.0 591993.0 0
162000.0 591993.0 0
166000.0 591993.0 0
170000.0 591993.0 0
174000.0 591993.0 0
178000.0 591993.0 0
182000.0 591993.0 0
186000.0 591993.0 0
190000.0 591993.0 0
194000.0 591993.0 0
198000.0 591993.0 0
202000.0 591993.0 0
206000.0 591993.0 0
210000.0 591993.0 0
214000.0 591993.0 0
218000.0 591993.0 0
222000.0 591993.0 0
226000.0 591993.0 0
230000.0 591993.0 0
234000.0 591993.0 0
238000.0 591993.0 0
242000.0 591993.0 0
246000.0 591993.0 0
250000.0 591993.0 0
254000.0 591993.0 0
258000.0 591993.0 0
262000.0 591993.0 0
266000.0 591993.0 0
270000.0 591993.0 0
274000.0 591993.0 0
278000.0 591993.0 0
282000.0 591993.0 0
286000.0 591993.0 0
290000.0 591993.0 0
294000.0 591993.0 0
298000.0 591993.0 0
302000.0 591993.0 0
306000.0 591993.0 0
310000.0 591993.0 0
314000.0 591993.0 0
318000.0 591993.0 0
322000.0 591993.0 0
326000.0 591993.0 0
330000.0 591993.0 0
334000.0 591993.0 0
338000.0 591993.0 0
342000.0 591993.0 0
346000.0 591993.0 0
350000.0 591993.0 0
354000.0 591993.0 0
358000.0 591993.0 0
362000.0 591993.0 0
366000.0 591993.0 0
370000.0 591993.0 0
374000.0 591993.0 0
378000.0 591993.0 0
382000.0 591993.0 0
386000.0 591993.0 0
390000.0 591995.0 0
394000.0 591999.0 0
398000.0 592001.0 0
102000.0 596000.0 0
106000.0 595998.0 0
110000.0 595994.0 0
114000.0 595993.0 0
118000.0 595993.0 0
122000.0 595993.0 0
126000.0 595993.0 0
130000.0 595993.0 0
134000.0 595993.0 0
138000.0 595993.0 0
142000.0 595993.0 0
146000.0 595993.0 0
150000.0 595993.0 0
154000.0 595993.0 0
158000.0 595993.0 0
162000.0 595993.0 0
166000.0 595993.0 0
170000.0 595993.0 0
174000.0 595993.0 0
178000.0 595993.0 0
182000.0 595993.0 0
186000.0 595993.0 0
190000.0 595993.0 0
194000.0 595993.0 0
198000.0 595993.0 0
202000.0 595993.0 0
206000.0 595993.0 0
210000.0 595993.0 0
214000.0 595993.0 0
218000.0 595993.0 0
222000.0 595993.0 0
226000.0 595993.0 0
230000.0 595993.0 0
234000.0 595993.0 0
238000.0 595993.0 0
242000.0 595993.0 0
246000.0 595993.0 0
250000.0 595993.0 0
254000.0 595993.0 0
258000.0 595993.0 0
262000.0 595993.0 0
266000.0 595993.0 0
270000.0 595993.0 0
274000.0 595993.0 0
278000.0 595993.0 0
282000.0 595993.0 0
286000.0 595993.0 0
290000.0 595993.0 0
294000.0 595993.0 0
298000.0 595993.0 0
302000.0 595993.0 0
306000.0 595993.0 0
310000.0 595993.0 0
314000.0 595993.0 0
318000.0 595993.0 0
322000.0 595993.0 0
326000.0 595993.0 0
330000.0 595993.0 0
334000.0 595993.0 0
338000.0 595993.0 0
342000.0 595993.0 0
346000.0 595993.0 0
350000.0 595993.0 0
354000.0 595993.0 0
358000.0 595993.0 0
362000.0 595993.0 0
366000.0 595993.0 0
370000.0 595993.0 0
374000.0 595993.0 0
378000.0 595993.0 0
382000.0 595993.0 0
386000.0 595993.0 0
390000.0 595994.0 0
394000.0 595998.0 0
398000.0 596000.0 0
102000.0 599999.0 0
106000.0 599997.0 0
110000.0 599994.0 0
114000.0 599993.0 0
118000.0 599993.0 0
122000.0 599993.0 0
126000.0 599993.0 0
130000.0 599993.0 0
134000.0 599993.0 0
138000.0 599993.0 0
142000.0 599993.0 0
146000.0 599993.0 0
150000.0 599993.0 0
154000.0 599993.0 0
158000.0 599993.0 0
162000.0 599993.0 0
166000.0 599993.0 0
170000.0 599993.0 0
174000.0 599993.0 0
178000.0 599993.0 0
182000.0 599993.0 0
186000.0 599993.0 0
190000.0 599993.0 0
194000.0 599993.0 0
198000.0 599993.0 0
202000.0 599993.0 0
206000.0 599993.0 0
210000.0 599993.0 0
214000.0 599993.0 0
218000.0 599993.0 0
222000.0 599993.0 0
226000.0 599993.0 0
230000.0 599993.0 0
234000.0 599993.0 0
238000.0 599993.0 0
242000.0 599993.0 0
246000.0 599993.0 0
250000.0 599993.0 0
254000.0 599993.0 0
258000.0 599993.0 0
262000.0 599993.0 0
266000.0 599993.0 0
270000.0 599993.0 0
274000.0 599993.0 0
278000.0 599993.0 0
282000.0 599993.0 0
286000.0 599993.0 0
290000.0 599993.0 0
294000.0 599993.0 0
298000.0 599993.0 0
302000.0 599993.0 0
306000.0 599993.0 0
310000.0 599993.0 0
314000.0 599993.0 0
318000.0 599993.0 0
322000.0 599993.0 0
326000.0 599993.0 0
330000.0 599993.0 0
334000.0 599993.0 0
338000.0 599993.0 0
342000.0 599993.0 0
346000.0 599993.0 0
350000.0 599993.0 0
354000.0 599993.0 0
358000.0 599993.0 0
362000.0 599993.0 0
366000.0 599993.0 0
370000.0 599993.0 0
374000.0 599993.0 0
378000.0 599993.0 0
382000.0 599993.0 0
386000.0 599993.0 0
390000.0 599994.0 0
394000.0 599997.0 0
398000.0 599999.0 0
102000.0 603998.0 0
106000.0 603996.0 0
110000.0 603994.0 0
114000.0 603993.0 0
118000.0 603993.0 0
122000.0 603993.0 0
126000.0 603993.0 0
130000.0 603993.0 0
134000.0 603993.0 0
138000.0 603993.0 0
142000.0 603993.0 0
146000.0 603993.0 0
150000.0 603993.0 0
154000.0 603993.0 0
158000.0 603993.0 0
162000.0 603993.0 0
166000.0 603993.0 0
170000.0 603993.0 0
174000.0 603993.0 0
178000.0 603993.0 0
182000.0 603993.0 0
186000.0 603993.0 0
190000.0 603993.0 0
194000.0 603993.0 0
198000.0 603993.0 0
202000.0 603993.0 0
206000.0 603993.0 0
210000.0 603993.0 0
214000.0 603993.0 0
218000.0 603993.0 0
222000.0 603993.0 0
226000.0 603993.0 0
230000.0 603993.0 0
234000.0 603993.0 0
238000.0 603993.0 0
242000.0 603993.0 0
246000.0 603993.0 0
250000.0 603993.0 0
254000.0 603993.0 0
258000.0 603993.0 0
262000.0 603993.0 0
266000.0 603993.0 0
270000.0 603993.0 0
274000.0 603993.0 0
278000.0 603993.0 0
282000.0 603993.0 0
286000.0 603993.0 0
290000.0 603993.0 0
294000.0 603993.0 0
298000.0 603993.0 0
302000.0 603993.0 0
306000.0 603993.0 0
310000.0 603993.0 0
314000.0 603993.0 0
318000.0 603993.0 0
322000.0 603993.0 0
326000.0 603993.0 0
330000.0 603993.0 0
334000.0 603993.0 0
338000.0 603993.0 0
342000.0 603993.0 0
346000.0 603993.0 0
350000.0 603993.0 0
354000.0 603993.0 0
358000.0 603993.0 0
362000.0 603993.0 0
366000.0 603993.0 0
370000.0 603993.0 0
374000.0 603993.0 0
378000.0 603993.0 0
382000.0 603993.0 0
386000.0 603993.0 0
390000.0 603994.0 0
394000.0 603996.0 0
398000.0 603998.0 0
102000.0 607997.0 0
106000.0 607996.0 0
110000.0 607994.0 0
114000.0 607993.0 0
118000.0 607993.0 0
122000.0 607993.0 0
126000.0 607993.0 0
130000.0 607993.0 0
134000.0 607993.0 0
138000.0 607993.0 0
142000.0 607993.0 0
146000.0 607993.0 0
150000.0 607993.0 0
154000.0 607993.0 0
158000.0 607993.0 0
162000.0 607993.0 0
166000.0 607993.0 0
170000.0 607993.0 0
174000.0 607993.0 0
178000.0 607993.0 0
182000.0 607993.0 0
186000.0 607993.0 0
190000.0 607993.0 0
194000.0 607993.0 0
198000.0 607993.0 0
202000.0 607993.0 0
206000.0 607993.0 0
210000.0 607993.0 0
214000.0 607993.0 0
218000.0 607993.0 0
222000.0 607993.0 0
226000.0 607993.0 0
230000.0 607993.0 0
234000.0 607993.0 0
238000.0 607993.0 0
242000.0 607993.0 0
246000.0 607993.0 0
250000.0 607993.0 0
254000.0 607993.0 0
258000.0 607993.0 0
262000.0 607993.0 0
266000.0 607993.0 0
270000.0 607993.0 0
274000.0 607993.0 0
278000.0 607993.0 0
282000.0 607993.0 0
286000.0 607993.0 0
290000.0 607993.0 0
294000.0 607993.0 0
298000.0 607993.0 0
302000.0 607993.0 0
306000.0 607993.0 0
310000.0 607993.0 0
314000.0 607993.0 0
318000.0 607993.0 0
322000.0 607993.0 0
326000.0 607993.0 0
330000.0 607993.0 0
334000.0 607993.0 0
338000.0 607993.0 0
342000.0 607993.0 0
346000.0 607993.0 0
350000.0 607993.0 0
354000.0 607993.0 0
358000.0 607993.0 0
362000.0 607993.0 0
366000.0 607993.0 0
370000.0 607993.0 0
374000.0 607993.0 0
378000.0 607993.0 0
382000.0 607993.0 0
386000.0 607993.0 0
390000.0 607994.0 0
394000.0 607996.0 0
398000.0 607997.0 0
102000.0 611996.0 0
106000.0 611995.0 0
110000.0 611994.0 0
114000.0 611993.0 0
118000.0 611993.0 0
122000.0 611993.0 0
126000.0 611993.0 0
130000.0 611993.0 0
134000.0 611993.0 0
138000.0 611993.0 0
142000.0 611993.0 0
146000.0 611993.0 0
150000.0 611993.0 0
154000.0 611993.0 0
158000.0 611993.0 0
162000.0 611993.0 0
166000.0 611993.0 0
170000.0 611993.0 0
174000.0 611993.0 0
178000.0 611993.0 0
182000.0 611993.0 0
186000.0 611993.0 0
190000.0 611993.0 0
194000.0 611993.0 0
198000.0 611993.0 0
202000.0 611993.0 0
206000.0 611993.0 0
210000.0 611993.0 0
214000.0 611993.0 0
218000.0 611993.0 0
222000.0 611993.0 0
226000.0 611993.0 0
230000.0 611993.0 0
234000.0 611993.0 0
238000.0 611993.0 0
242000.0 611993.0 0
246000.0 611993.0 0
250000.0 611993.0 0
254000.0 611993.0 0
258000.0 611993.0 0
262000.0 611993.0 0
266000.0 611993.0 0
270000.0 611993.0 0
274000.0 611993.0 0
278000.0 611993.0 0
282000.0 611993.0 0
286000.0 611993.0 0
290000.0 611993.0 0
294000.0 611993.0 0
298000.0 611993.0 0
302000.0 611993.0 0
306000.0 611993.0 0
310000.0 611993.0 0
314000.0 611993.0 0
318000.0 611993.0 0
322000.0 611993.0 0
326000.0 611993.0 0
330000.0 611993.0 0
334000.0 611993.0 0
338000.0 611993.0 0
342000.0 611993.0 0
346000.0 611993.0 0
350000.0 611993.0 0
354000.0 611993.0 0
358000.0 611993.0 0
362000.0 611993.0 0
366000.0 611993.0 0
370000.0 611993.0 0
374000.0 611993.0 0
378000.0 611993.0 0
382000.0 611993.0 0
386000.0 611993.0 0
390000.0 611994.0 0
394000.0 611995.0 0
398000.0 611996.0 0
102000.0 615996.0 0
106000.0 615995.0 0
110000.0 615993.0 0
114000.0 615993.0 0
118000.0 615993.0 0
122000.0 615993.0 0
126000.0 615993.0 0
130000.0 615993.0 0
134000.0 615993.0 0
138000.0 615993.0 0
142000.0 615993.0 0
146000.0 615993.0 0
150000.0 615993.0 0
154000.0 615993.0 0
158000.0 615993.0 0
162000.0 615993.0 0
166000.0 615993.0 0
170000.0 615993.0 0
174000.0 615993.0 0
178000.0 615993.0 0
182000.0 615993.0 0
186000.0 615993.0 0
190000.0 615993.0 0
194000.0 615993.0 0
198000.0 615993.0 0
202000.0 615993.0 0
206000.0 615993.0 0
210000.0 615993.0 0
214000.0 615993.0 0
218000.0 615993.0 0
222000.0 615993.0 0
226000.0 615993.0 0
230000.0 615993.0 0
234000.0 615993.0 0
238000.0 615993.0 0
242000.0 615993.0 0
246000.0 615993.0 0
250000.0 615993.0 0
254000.0 615993.0 0
258000.0 615993.0 0
262000.0 615993.0 0
266000.0 615993.0 0
270000.0 615993.0 0
274000.0 615993.0 0
278000.0 615993.0 0
282000.0 615993.0 0
286000.0 615993.0 0
290000.0 615993.0 0
294000.0 615993.0 0
298000.0 615993.0 0
302000.0 615993.0 0
306000.0 615993.0 0
310000.0 615993.0 0
314000.0 615993.0 0
318000.0 615993.0 0
322000.0 615993.0 0
326000.0 615993.0 0
330000.0 615993.0 0
334000.0 615993.0 0
338000.0 615993.0 0
342000.0 615993.0 0
346000.0 615993.0 0
350000.0 615993.0 0
354000.0 615993.0 0
358000.0 615993.0 0
362000.0 615993.0 0
366000.0 615993.0 0
370000.0 615993.0 0
374000.0 615993.0 0
378000.0 615993.0 0
382000.0 615993.0 0
386000.0 615993.0 0
390000.0 615993.0 0
394000.0 615995.0 0
398000.0 615996.0 0
102000.0 619995.0 0
106000.0 619994.0 0
110000.0 619993.0 0
114000.0 619993.0 0
118000.0 619993.0 0
122000.0 619993.0 0
126000.0 619993.0 0
130000.0 619993.0 0
134000.0 619993.0 0
138000.0 619993.0 0
142000.0 619993.0 0
146000.0 619993.0 0
150000.0 619993.0 0
154000.0 619993.0 0
158000.0 619993.0 0
162000.0 619993.0 0
166000.0 619993.0 0
170000.0 619993.0 0
174000.0 619993.0 0
178000.0 619993.0 0
182000.0 619993.0 0
186000.0 619993.0 0
190000.0 619993.0 0
194000.0 619993.0 0
198000.0 619993.0 0
202000.0 619993.0 0
206000.0 619993.0 0
210000.0 619993.0 0
214000.0 619993.0 0
218000.0 619993.0 0
222000.0 619993.0 0
226000.0 619993.0 0
230000.0 619993.0 0
234000.0 619993.0 0
238000.0 619993.0 0
242000.0 619993.0 0
246000.0 619993.0 0
250000.0 619993.0 0
254000.0 619993.0 0
258000.0 619993.0 0
262000.0 619993.0 0
266000.0 619993.0 0
270000.0 619993.0 0
274000.0 619993.0 0
278000.0 619993.0 0
282000.0 619993.0 0
286000.0 619993.0 0
290000.0 619993.0 0
294000.0 619993.0 0
298000.0 619993.0 0
302000.0 619993.0 0
306000.0 619993.0 0
310000.0 619993.0 0
314000.0 619993.0 0
318000.0 619993.0 0
322000.0 619993.0 0
326000.0 619993.0 0
330000.0 619993.0 0
334000.0 619993.0 0
338000.0 619993.0 0
342000.0 619993.0 0
346000.0 619993.0 0
350000.0 619993.0 0
354000.0 619993.0 0
358000.0 619993.0 0
362000.0 619993.0 0
366000.0 619993.0 0
370000.0 619993.0 0
374000.0 619993.0 0
378000.0 619993.0 0
382000.0 619993.0 0
386000.0 619993.0 0
390000.0 619993.0 0
394000.0 619994.0 0
398000.0 619995.0 0
102000.0 623995.0 0
106000.0 623994.0 0
110000.0 623993.0 0
114000.0 623993.0 0
118000.0 623993.0 0
122000.0 623993.0 0
126000.0 623993.0 0
130000.0 623993.0 0
134000.0 623993.0 0
138000.0 623993.0 0
142000.0 623993.0 0
146000.0 623993.0 0
150000.0 623993.0 0
154000.0 623993.0 0
158000.0 623993.0 0
162000.0 623993.0 0
166000.0 623993.0 0
170000.0 623993.0 0
174000.0 623993.0 0
178000.0 623993.0 0
182000.0 623993.0 0
186000.0 623993.0 0
190000.0 623993.0 0
194000.0 623993.0 0
198000.0 623993.0 0
202000.0 623993.0 0
206000.0 623993.0 0
210000.0 623993.0 0
214000.0 623993.0 0
218000.0 623993.0 0
222000.0 623993.0 0
226000.0 623993.0 0
230000.0 623993.0 0
234000.0 623993.0 0
238000.0 623993.0 0
242000.0 623993.0 0
246000.0 623993.0 0
250000.0 623993.0 0
254000.0 623993.0 0
258000.0 623993.0 0
262000.0 623993.0 0
266000.0 623993.0 0
270000.0 623993.0 0
274000.0 623993.0 0
278000.0 623993.0 0
282000.0 623993.0 0
286000.0 623993.0 0
290000.0 623993.0 0
294000.0 623993.0 0
298000.0 623993.0 0
302000.0 623993.0 0
306000.0 623993.0 0
310000.0 623993.0 0
314000.0 623993.0 0
318000.0 623993.0 0
322000.0 623993.0 0
326000.0 623993.0 0
330000.0 623993.0 0
334000.0 623993.0 0
338000.0 623993.0 0
342000.0 623993.0 0
346000.0 623993.0 0
350000.0 623993.0 0
354000.0 623993.0 0
358000.0 623993.0 0
362000.0 623993.0 0
366000.0 623993.0 0
370000.0 623993.0 0
374000.0 623993.0 0
378000.0 623993.0 0
382000.0 623993.0 0
386000.0 623993.0 0
390000.0 623993.0 0
394000.0 623994.0 0
398000.0 623995.0 0
102000.0 627995.0 0
106000.0 627994.0 0
110000.0 627993.0 0
114000.0 627993.0 0
118000.0 627993.0 0
122000.0 627993.0 0
126000.0 627993.0 0
130000.0 627993.0 0
134000.0 627993.0 0
138000.0 627993.0 0
142000.0 627993.0 0
146000.0 627993.0 0
150000.0 627993.0 0
154000.0 627993.0 0
158000.0 627993.0 0
162000.0 627993.0 0
166000.0 627993.0 0
170000.0 627993.0 0
174000.0 627993.0 0
178000.0 627993.0 0
182000.0 627993.0 0
186000.0 627993.0 0
190000.0 627993.0 0
194000.0 627993.0 0
198000.0 627993.0 0
202000.0 627993.0 0
206000.0 627993.0 0
210000.0 627993.0 0
214000.0 627993.0 0
218000.0 627993.0 0
222000.0 627993.0 0
226000.0 627993.0 0
230000.0 627993.0 0
234000.0 627993.0 0
238000.0 627993.0 0
242000.0 627993.0 0
246000.0 627993.0 0
250000.0 627993.0 0
254000.0 627993.0 0
258000.0 627993.0 0
262000.0 627993.0 0
266000.0 627993.0 0
270000.0 627993.0 0
274000.0 627993.0 0
278000.0 627993.0 0
282000.0 627993.0 0
286000.0 627993.0 0
290000.0 627993.0 0
294000.0 627993.0 0
298000.0 627993.0 0
302000.0 627993.0 0
306000.0 627993.0 0
310000.0 627993.0 0
314000.0 627993.0 0
318000.0 627993.0 0
322000.0 627993.0 0
326000.0 627993.0 0
330000.0 627993.0 0
334000.0 627993.0 0
338000.0 627993.0 0
342000.0 627993.0 0
346000.0 627993.0 0
350000.0 627993.0 0
354000.0 627993.0 0
358000.0 627993.0 0
362000.0 627993.0 0
366000.0 627993.0 0
370000.0 627993.0 0
374000.0 627993.0 0
378000.0 627993.0 0
382000.0 627993.0 0
386000.0 627993.0 0
390000.0 627993.0 0
394000.0 627994.0 0
398000.0 627995.0 0
102000.0 631994.0 0
106000.0 631994.0 0
110000.0 631993.0 0
114000.0 631993.0 0
118000.0 631993.0 0
122000.0 631993.0 0
126000.0 631993.0 0
130000.0 631993.0 0
134000.0 631993.0 0
138000.0 631993.0 0
142000.0 631993.0 0
146000.0 631993.0 0
150000.0 631993.0 0
154000.0 631993.0 0
158000.0 631993.0 0
162000.0 631993.0 0
166000.0 631993.0 0
170000.0 631993.0 0
174000.0 631993.0 0
178000.0 631993.0 0
182000.0 631993.0 0
186000.0 631993.0 0
190000.0 631993.0 0
194000.0 631993.0 0
198000.0 631993.0 0
202000.0 631993.0 0
206000.0 631993.0 0
210000.0 631993.0 0
214000.0 631993.0 0
218000.0 631993.0 0
222000.0 631993.0 0
226000.0 631993.0 0
230000.0 631993.0 0
234000.0 631993.0 0
238000.0 631993.0 0
242000.0 631993.0 0
246000.0 631993.0 0
250000.0 631993.0 0
254000.0 631993.0 0
258000.0 631993.0 0
262000.0 631993.0 0
266000.0 631993.0 0
270000.0 631993.0 0
274000.0 631993.0 0
278000.0 631993.0 0
282000.0 631993.0 0
286000.0 631993.0 0
290000.0 631993.0 0
294000.0 631993.0 0
298000.0 631993.0 0
302000.0 631993.0 0
306000.0 631993.0 0
310000.0 631993.0 0
314000.0 631993.0 0
318000.0 631993.0 0
322000.0 631993.0 0
326000.0 631993.0 0
330000.0 631993.0 0
334000.0 631993.0 0
338000.0 631993.0 0
342000.0 631993.0 0
346000.0 631993.0 0
350000.0 631993.0 0
354000.0 631993.0 0
358000.0 631993.0 0
362000.0 631993.0 0
366000.0 631993.0 0
370000.0 631993.0 0
374000.0 631993.0 0
378000.0 631993.0 0
382000.0 631993.0 0
386000.0 631993.0 0
390000.0 631993.0 0
394000.0 631994.0 0
398000.0 631994.0 0
102000.0 635994.0 0
106000.0 635994.0 0
110000.0 635993.0 0
114000.0 635993.0 0
118000.0 635993.0 0
122000.0 635993.0 0
126000.0 635993.0 0
130000.0 635993.0 0
134000.0 635993.0 0
138000.0 635993.0 0
142000.0 635993.0 0
146000.0 635993.0 0
150000.0 635993.0 0
154000.0 635993.0 0
158000.0 635993.0 0
162000.0 635993.0 0
166000.0 635993.0 0
170000.0 635993.0 0
174000.0 635993.0 0
178000.0 635993.0 0
182000.0 635993.0 0
186000.0 635993.0 0
190000.0 635993.0 0
194000.0 635993.0 0
198000.0 635993.0 0
202000.0 635993.0 0
206000.0 635993.0 0
210000.0 635993.0 0
214000.0 635993.0 0
218000.0 635993.0 0
222000.0 635993.0 0
226000.0 635993.0 0
230000.0 635993.0 0
234000.0 635993.0 0
238000.0 635993.0 0
242000.0 635993.0 0
246000.0 635993.0 0
250000.0 635993.0 0
254000.0 635993.0 0
258000.0 635993.0 0
262000.0 635993.0 0
266000.0 635993.0 0
270000.0 635993.0 0
274000.0 635993.0 0
278000.0 635993.0 0
282000.0 635993.0 0
286000.0 635993.0 0
290000.0 635993.0 0
294000.0 635993.0 0
298000.0 635993.0 0
302000.0 635993.0 0
306000.0 635993.0 0
310000.0 635993.0 0
314000.0 635993.0 0
318000.0 635993.0 0
322000.0 635993.0 0
326000.0 635993.0 0
330000.0 635993.0 0
334000.0 635993.0 0
338000.0 635993.0 0
342000.0 635993.0 0
346000.0 635993.0 0
350000.0 635993.0 0
354000.0 635993.0 0
358000.0 635993.0 0
362000.0 635993.0 0
366000.0 635993.0 0
370000.0 635993.0 0
374000.0 635993.0 0
378000.0 635993.0 0
382000.0 635993.0 0
386000.0 635993.0 0
390000.0 635993.0 0
394000.0 635994.0 0
398000.0 635994.0 0
102000.0 639994.0 0
106000.0 639994.0 0
110000.0 639993.0 0
114000.0 639993.0 0
118000.0 639993.0 0
122000.0 639993.0 0
126000.0 639993.0 0
130000.0 639993.0 0
134000.0 639993.0 0
138000.0 639993.0 0
142000.0 639993.0 0
146000.0 639993.0 0
150000.0 639993.0 0
154000.0 639993.0 0
158000.0 639993.0 0
162000.0 639993.0 0
166000.0 639993.0 0
170000.0 639993.0 0
174000.0 639993.0 0
178000.0 639993.0 0
182000.0 639993.0 0
186000.0 639993.0 0
190000.0 639993.0 0
194000.0 639993.0 0
198000.0 639993.0 0
202000.0 639993.0 0
206000.0 639993.0 0
210000.0 639993.0 0
214000.0 639993.0 0
218000.0 639993.0 0
222000.0 639993.0 0
226000.0 639993.0 0
230000.0 639993.0 0
234000.0 639993.0 0
238000.0 639993.0 0
242000.0 639993.0 0
246000.0 639993.0 0
250000.0 639993.0 0
254000.0 639993.0 0
258000.0 639993.0 0
262000.0 639993.0 0
266000.0 639993.0 0
270000.0 639993.0 0
274000.0 639993.0 0
278000.0 639993.0 0
282000.0 639993.0 0
286000.0 639993.0 0
290000.0 639993.0 0
294000.0 639993.0 0
298000.0 639993.0 0
302000.0 639993.0 0
306000.0 639993.0 0
310000.0 639993.0 0
314000.0 639993.0 0
318000.0 639993.0 0
322000.0 639993.0 0
326000.0 639993.0 0
330000.0 639993.0 0
334000.0 639993.0 0
338000.0 639993.0 0
342000.0 639993.0 0
346000.0 639993.0 0
350000.0 639993.0 0
354000.0 639993.0 0
358000.0 639993.0 0
362000.0 639993.0 0
366000.0 639993.0 0
370000.0 639993.0 0
374000.0 639993.0 0
378000.0 639993.0 0
382000.0 639993.0 0
386000.0 639993.0 0
390000.0 639993.0 0
394000.0 639994.0 0
398000.0 639994.0 0
102000.0 643994.0 0
106000.0 643993.0 0
110000.0 643993.0 0
114000.0 643993.0 0
118000.0 643993.0 0
122000.0 643993.0 0
126000.0 643993.0 0
130000.0 643993.0 0
134000.0 643993.0 0
138000.0 643993.0 0
142000.0 643993.0 0
146000.0 643993.0 0
150000.0 643993.0 0
154000.0 643993.0 0
158000.0 643993.0 0
162000.0 643993.0 0
166000.0 643993.0 0
170000.0 643993.0 0
174000.0 643993.0 0
178000.0 643993.0 0
182000.0 643993.0 0
186000.0 643993.0 0
190000.0 643993.0 0
194000.0 643993.0 0
198000.0 643993.0 0
202000.0 643993.0 0
206000.0 643993.0 0
210000.0 643993.0 0
214000.0 643993.0 0
218000.0 643993.0 0
222000.0 643993.0 0
226000.0 643993.0 0
230000.0 643993.0 0
234000.0 643993.0 0
238000.0 643993.0 0
242000.0 643993.0 0
246000.0 643993.0 0
250000.0 643993.0 0
254000.0 643993.0 0
258000.0 643993.0 0
262000.0 643993.0 0
266000.0 643993.0 0
270000.0 643993.0 0
274000.0 643993.0 0
278000.0 643993.0 0
282000.0 643993.0 0
286000.0 643993.0 0
290000.0 643993.0 0
294000.0 643993.0 0
298000.0 643993.0 0
302000.0 643993.0 0
306000.0 643993.0 0
310000.0 643993.0 0
314000.0 643993.0 0
318000.0 643993.0 0
322000.0 643993.0 0
326000.0 643993.0 0
330000.0 643993.0 0
334000.0 643993.0 0
338000.0 643993.0 0
342000.0 643993.0 0
346000.0 643993.0 0
350000.0 643993.0 0
354000.0 643993.0 0
358000.0 643993.0 0
362000.0 643993.0 0
366000.0 643993.0 0
370000.0 643993.0 0
374000.0 643993.0 0
378000.0 643993.0 0
382000.0 643993.0 0
386000.0 643993.0 0
390000.0 643993.0 0
394000.0 643993.0 0
398000.0 643994.0 0
102000.0 647994.0 0
106000.0 647993.0 0
110000.0 647993.0 0
114000.0 647993.0 0
118000.0 647993.0 0
122000.0 647993.0 0
126000.0 647993.0 0
130000.0 647993.0 0
134000.0 647993.0 0
138000.0 647993.0 0
142000.0 647993.0 0
146000.0 647993.0 0
150000.0 647993.0 0
154000.0 647993.0 0
158000.0 647993.0 0
162000.0 647993.0 0
166000.0 647993.0 0
170000.0 647993.0 0
174000.0 647993.0 0
178000.0 647993.0 0
182000.0 647993.0 0
186000.0 647993.0 0
190000.0 647993.0 0
194000.0 647993.0 0
198000.0 647993.0 0
202000.0 647993.0 0
206000.0 647993.0 0
210000.0 647993.0 0
214000.0 647993.0 0
218000.0 647993.0 0
222000.0 647993.0 0
226000.0 647993.0 0
230000.0 647993.0 0
234000.0 647993.0 0
238000.0 647993.0 0
242000.0 647993.0 0
246000.0 647993.0 0
250000.0 647993.0 0
254000.0 647993.0 0
258000.0 647993.0 0
262000.0 647993.0 0
266000.0 647993.0 0
270000.0 647993.0 0
274000.0 647993.0 0
278000.0 647993.0 0
282000.0 647993.0 0
286000.0 647993.0 0
290000.0 647993.0 0
294000.0 647993.0 0
298000.0 647993.0 0
302000.0 647993.0 0
306000.0 647993.0 0
310000.0 647993.0 0
314000.0 647993.0 0
318000.0 647993.0 0
322000.0 647993.0 0
326000.0 647993.0 0
330000.0 647993.0 0
334000.0 647993.0 0
338000.0 647993.0 0
342000.0 647993.0 0
346000.0 647993.0 0
350000.0 647993.0 0
354000.0 647993.0 0
358000.0 647993.0 0
362000.0 647993.0 0
366000.0 647993.0 0
370000.0 647993.0 0
374000.0 647993.0 0
378000.0 647993.0 0
382000.0 647993.0 0
386000.0 647993.0 0
390000.0 647993.0 0
394000.0 647993.0 0
398000.0 647994.0 0
102000.0 651994.0 0
106000.0 651993.0 0
110000.0 651993.0 0
114000.0 651993.0 0
118000.0 651993.0 0
122000.0 651993.0 0
126000.0 651993.0 0
130000.0 651993.0 0
134000.0 651993.0 0
138000.0 651993.0 0
142000.0 651993.0 0
146000.0 651993.0 0
150000.0 651993.0 0
154000.0 651993.0 0
158000.0 651993.0 0
162000.0 651993.0 0
166000.0 651993.0 0
170000.0 651993.0 0
174000.0 651993.0 0
178000.0 651993.0 0
182000.0 651993.0 0
186000.0 651993.0 0
190000.0 651993.0 0
194000.0 651993.0 0
198000.0 651993.0 0
202000.0 651993.0 0
206000.0 651993.0 0
210000.0 651993.0 0
214000.0 651993.0 0
218000.0 651993.0 0
222000.0 651993.0 0
226000.0 651993.0 0
230000.0 651993.0 0
234000.0 651993.0 0
238000.0 651993.0 0
242000.0 651993.0 0
246000.0 651993.0 0
250000.0 651993.0 0
254000.0 651993.0 0
258000.0 651993.0 0
262000.0 651993.0 0
266000.0 651993.0 0
270000.0 651993.0 0
274000.0 651993.0 0
278000.0 651993.0 0
282000.0 651993.0 0
286000.0 651993.0 0
290000.0 651993.0 0
294000.0 651993.0 0
298000.0 651993.0 0
302000.0 651993.0 0
306000.0 651993.0 0
310000.0 651993.0 0
314000.0 651993.0 0
318000.0 651993.0 0
322000.0 651993.0 0
326000.0 651993.0 0
330000.0 651993.0 0
334000.0 651993.0 0
338000.0 651993.0 0
342000.0 651993.0 0
346000.0 651993.0 0
350000.0 651993.0 0
354000.0 651993.0 0
358000.0 651993.0 0
362000.0 651993.0 0
366000.0 651993.0 0
370000.0 651993.0 0
374000.0 651993.0 0
378000.0 651993.0 0
382000.0 651993.0 0
386000.0 651993.0 0
390000.0 651993.0 0
394000.0 651993.0 0
398000.0 651994.0 0
102000.0 655994.0 0
106000.0 655993.0 0
110000.0 655993.0 0
114000.0 655993.0 0
118000.0 655993.0 0
122000.0 655993.0 0
126000.0 655993.0 0
130000.0 655993.0 0
134000.0 655993.0 0
138000.0 655993.0 0
142000.0 655993.0 0
146000.0 655993.0 0
150000.0 655993.0 0
154000.0 655993.0 0
158000.0 655993.0 0
162000.0 655993.0 0
166000.0 655993.0 0
170000.0 655993.0 0
174000.0 655993.0 0
178000.0 655993.0 0
182000.0 655993.0 0
186000.0 655993.0 0
190000.0 655993.0 0
194000.0 655993.0 0
198000.0 655993.0 0
202000.0 655993.0 0
206000.0 655993.0 0
210000.0 655993.0 0
214000.0 655993.0 0
218000.0 655993.0 0
222000.0 655993.0 0
226000.0 655993.0 0
230000.0 655993.0 0
234000.0 655993.0 0
238000.0 655993.0 0
242000.0 655993.0 0
246000.0 655993.0 0
250000.0 655993.0 0
254000.0 655993.0 0
258000.0 655993.0 0
262000.0 655993.0 0
266000.0 655993.0 0
270000.0 655993.0 0
274000.0 655993.0 0
278000.0 655993.0 0
282000.0 655993.0 0
286000.0 655993.0 0
290000.0 655993.0 0
294000.0 655993.0 0
298000.0 655993.0 0
302000.0 655993.0 0
306000.0 655993.0 0
310000.0 655993.0 0
314000.0 655993.0 0
318000.0 655993.0 0
322000.0 655993.0 0
326000.0 655993.0 0
330000.0 655993.0 0
334000.0 655993.0 0
338000.0 655993.0 0
342000.0 655993.0 0
346000.0 655993.0 0
350000.0 655993.0 0
354000.0 655993.0 0
358000.0 655993.0 0
362000.0 655993.0 0
366000.0 655993.0 0
370000.0 655993.0 0
374000.0 655993.0 0
378000.0 655993.0 0
382000.0 655993.0 0
386000.0 655993.0 0
390000.0 655993.0 0
394000.0 655993.0 0
398000.0 655994.0 0
102000.0 659994.0 0
106000.0 659993.0 0
110000.0 659993.0 0
114000.0 659993.0 0
118000.0 659993.0 0
122000.0 659993.0 0
126000.0 659993.0 0
130000.0 659993.0 0
134000.0 659993.0 0
138000.0 659993.0 0
142000.0 659993.0 0
146000.0 659993.0 0
150000.0 659993.0 0
154000.0 659993.0 0
158000.0 659993.0 0
162000.0 659993.0 0
166000.0 659993.0 0
170000.0 659993.0 0
174000.0 659993.0 0
178000.0 659993.0 0
182000.0 659993.0 0
186000.0 659993.0 0
190000.0 659993.0 0
194000.0 659993.0 0
198000.0 659993.0 0
202000.0 659993.0 0
206000.0 659993.0 0
210000.0 659993.0 0
214000.0 659993.0 0
218000.0 659993.0 0
222000.0 659993.0 0
226000.0 659993.0 0
230000.0 659993.0 0
234000.0 659993.0 0
238000.0 659993.0 0
242000.0 659993.0 0
246000.0 659993.0 0
250000.0 659993.0 0
254000.0 659993.0 0
258000.0 659993.0 0
262000.0 659993.0 0
266000.0 659993.0 0
270000.0 659993.0 0
274000.0 659993.0 0
278000.0 659993.0 0
282000.0 659993.0 0
286000.0 659993.0 0
290000.0 659993.0 0
294000.0 659993.0 0
298000.0 659993.0 0
302000.0 659993.0 0
306000.0 659993.0 0
310000.0 659993.0 0
314000.0 659993.0 0
318000.0 659993.0 0
322000.0 659993.0 0
326000.0 659993.0 0
330000.0 659993.0 0
334000.0 659993.0 0
338000.0 659993.0 0
342000.0 659993.0 0
346000.0 659993.0 0
350000.0 659993.0 0
354000.0 659993.0 0
358000.0 659993.0 0
362000.0 659993.0 0
366000.0 659993.0 0
370000.0 659993.0 0
374000.0 659993.0 0
378000.0 659993.0 0
382000.0 659993.0 0
386000.0 659993.0 0
390000.0 659993.0 0
394000.0 659993.0 0
398000.0 659994.0 0
102000.0 663993.0 0
106000.0 663993.0 0
110000.0 663993.0 0
114000.0 663993.0 0
118000.0 663993.0 0
122000.0 663993.0 0
126000.0 663993.0 0
130000.0 663993.0 0
134000.0 663993.0 0
138000.0 663993.0 0
142000.0 663993.0 0
146000.0 663993.0 0
150000.0 663993.0 0
154000.0 663993.0 0
158000.0 663993.0 0
162000.0 663993.0 0
166000.0 663993.0 0
170000.0 663993.0 0
174000.0 663993.0 0
178000.0 663993.0 0
182000.0 663993.0 0
186000.0 663993.0 0
190000.0 663993.0 0
194000.0 663993.0 0
198000.0 663993.0 0
202000.0 663993.0 0
206000.0 663993.0 0
210000.0 663993.0 0
214000.0 663993.0 0
218000.0 663993.0 0
222000.0 663993.0 0
226000.0 663993.0 0
230000.0 663993.0 0
234000.0 663993.0 0
238000.0 663993.0 0
242000.0 663993.0 0
246000.0 663993.0 0
250000.0 663993.0 0
254000.0 663993.0 0
258000.0 663993.0 0
262000.0 663993.0 0
266000.0 663993.0 0
270000.0 663993.0 0
274000.0 663993.0 0
278000.0 663993.0 0
282000.0 663993.0 0
286000.0 663993.0 0
290000.0 663993.0 0
294000.0 663993.0 0
298000.0 663993.0 0
302000.0 663993.0 0
306000.0 663993.0 0
310000.0 663993.0 0
314000.0 663993.0 0
318000.0 663993.0 0
322000.0 663993.0 0
326000.0 663993.0 0
330000.0 663993.0 0
334000.0 663993.0 0
338000.0 663993.0 0
342000.0 663993.0 0
346000.0 663993.0 0
350000.0 663993.0 0
354000.0 663993.0 0
358000.0 663993.0 0
362000.0 663993.0 0
366000.0 663993.0 0
370000.0 663993.0 0
374000.0 663993.0 0
378000.0 663993.0 0
382000.0 663993.0 0
386000.0 663993.0 0
390000.0 663993.0 0
394000.0 663993.0 0
398000.0 663993.0 0
102000.0 667993.0 0
106000.0 667993.0 0
110000.0 667993.0 0
114000.0 667993.0 0
118000.0 667993.0 0
122000.0 667993.0 0
126000.0 667993.0 0
130000.0 667993.0 0
134000.0 667993.0 0
138000.0 667993.0 0
142000.0 667993.0 0
146000.0 667993.0 0
150000.0 667993.0 0
154000.0 667993.0 0
158000.0 667993.0 0
162000.0 667993.0 0
166000.0 667993.0 0
170000.0 667993.0 0
174000.0 667993.0 0
178000.0 667993.0 0
182000.0 667993.0 0
186000.0 667993.0 0
190000.0 667993.0 0
194000.0 667993.0 0
198000.0 667993.0 0
202000.0 667993.0 0
206000.0 667993.0 0
210000.0 667993.0 0
214000.0 667993.0 0
218000.0 667993.0 0
222000.0 667993.0 0
226000.0 667993.0 0
230000.0 667993.0 0
234000.0 667993.0 0
238000.0 667993.0 0
242000.0 667993.0 0
246000.0 667993.0 0
250000.0 667993.0 0
254000.0 667993.0 0
258000.0 667993.0 0
262000.0 667993.0 0
266000.0 667993.0 0
270000.0 667993.0 0
274000.0 667993.0 0
278000.0 667993.0 0
282000.0 667993.0 0
286000.0 667993.0 0
290000.0 667993.0 0
294000.0 667993.0 0
298000.0 667993.0 0
302000.0 667993.0 0
306000.0 667993.0 0
310000.0 667993.0 0
314000.0 667993.0 0
318000.0 667993.0 0
322000.0 667993.0 0
326000.0 667993.0 0
330000.0 667993.0 0
334000.0 667993.0 0
338000.0 667993.0 0
342000.0 667993.0 0
346000.0 667993.0 0
350000.0 667993.0 0
354000.0 667993.0 0
358000.0 667993.0 0
362000.0 667993.0 0
366000.0 667993.0 0
370000.0 667993.0 0
374000.0 667993.0 0
378000.0 667993.0 0
382000.0 667993.0 0
386000.0 667993.0 0
390000.0 667993.0 0
394000.0 667993.0 0
398000.0 667993.0 0
POINT_DATA 4650
SCALARS Radius float 1
LOOKUP_TABLE default
4000.0 4000.0 4000.0 4000.0 4000.0 4000.0 4000.0 4000.0 4000.0 4000.0 4000.0 4000.0 4000.0 4000.0 4000.0 4000.0 4000.0 4000.0 4000.0 4000.0 4000.0 4000.0 4000.0 4000.0 4000.0 4000.0 4000.0 4000.0 4000.0 4000.0 4000.0 4000.0 4000.0 4000.0 4000.0 4000.0 4000.0 4000.0 4000.0 4000.0 4000.0 4000.0 4000.0 4000.0 4000.0 4000.0 4000.0 4000.0 4000.0 4000.0 4000.0 4000.0 4000.0 4000.0 4000.0 4000.0 4000.0 4000.0 4000.0 4000.0 4000.0 4000.0 4000.0 4000.0 4000.0 4000.0 4000.0 4000.0 4000.0 4000.0 4000.0 4000.0 4000.0 4000.0 4000.0 4000.0 4000.0 4000.0 4000.0 4000.0 4000.0 4000.0 4000.0 4000.0 4000.0 4000.0 4000.0 4000.0 4000.0 4000.0 4000.0 4000.0 4000.0 4000.0 4000.0 4000.0 4000.0 4000.0 4000.0 4000.0 4000.0 4000.0 4000.0 4000.0 4000.0 4000.0 4000.0 4000.0 4000.0 4000.0 4000.0 4000.0 4000.0 4000.0 4000.0 4000.0 4000.0 4000.0 4000.0 4000.0 4000.0 4000.0 4000.0 4000.0 4000.0 4000.0 4000.0 4000.0 4000.0 4000.0 4000.0 4000.0 4000.0 4000.0 4000.0 4000.0 4000.0 4000.0 4000.0 4000.0 4000.0 4000.0 4000.0 4000.0 4000.0 4000.0 4000.0 4000.0 4000.0 4000.0 4000.0 4000.0 4000.0 4000.0 4000.0 4000.0 4000.0 4000.0 4000.0 4000.0 4000.0 4000.0 4000.0 4000.0 4000.0 4000.0 4000.0 4000.0 4000.0 4000.0 4000.0 4000.0 4000.0 4000.0 4000.0 4000.0 4000.0 4000.0 4000.0 4000.0 4000.0 4000.0 4000.0 4000.0 4000.0 4000.0 4000.0 4000.0 4000.0 4000.0 4000.0 4000.0 4000.0 4000.0 4000.0 4000.0 4000.0 4000.0 4000.0 4000.0 4000.0 4000.0 4000.0 4000.0 4000.0 4000.0 4000.0 4000.0 4000.0 4000.0 4000.0 4000.0 4000.0 4000.0 4000.0 4000.0 4000.0 4000.0 4000.0 4000.0 4000.0 4000.0 4000.0 4000.0 4000.0 4000.0 4000.0 4000.0 4000.0 4000.0 4000.0 4000.0 4000.0 4000.0 4000.0 4000.0 4000.0 4000.0 4000.0 4000.0 4000.0 4000.0 4000.0 4000.0 4000.0 4000.0 4000.0 4000.0 4000.0 4000.0 4000.0 4000.0 4000.0 4000.0 4000.0 4000.0 4000.0 4000.0 4000.0 4000.0 4000.0 4000.0 4000.0 4000.0 4000.0 4000.0 4000.0 4000.0 4000.0 4000.0 4000.0 4000.0 4000.0 4000.0 4000.0 4000.0 4000.0 4000.0 4000.0 4000.0 4000.0 4000.0 4000.0 4000.0 4000.0 4000.0 4000.0 4000.0 4000.0 4000.0 4000.0 4000.0 4000.0 4000.0 4000.0 4000.0 4000.0 4000.0 4000.0 4000.0 4000.0 4000.0 4000.0 4000.0 4000.0 4000.0 4000.0 4000.0 4000.0 4000.0 4000.0 4000.0 4000.0 4000.0 4000.0 4000.0 4000.0 4000.0 4000.0 4000.0 4000.0 4000.0 4000.0 4000.0 4000.0 4000.0 4000.0 4000.0 4000.0 4000.0 4000.0 4000.0 4000.0 4000.0 4000.0 4000.0 4000.0 4000.0 4000.0 4000.0 4000.0 4000.0 4000.0 4000.0 4000.0 4000.0 4000.0 4000.0 4000.0 4000.0 4000.0 4000.0 4000.0 4000.0 4000.0 4000.0 4000.0 4000.0 4000.0 4000.0 4000.0 4000.0 4000.0 4000.0 4000.0 4000.0 4000.0 4000.0 4000.0 4000.0 4000.0 4000.0 4000.0 4000.0 4000.0 4000.0 4000.0 4000.0 4000.0 4000.0 4000.0 4000.0 4000.0 4000.0 4000.0 4000.0 4000.0 4000.0 4000.0 4000.0 4000.0 4000.0 4000.0 4000.0 4000.0 4000.0 4000.0 4000.0 4000.0 4000.0 4000.0 4000.0 4000.0 4000.0 4000.0 4000.0 4000.0 4000.0 4000.0 4000.0 4000.0 4000.0 4000.0 4000.0 4000.0 4000.0 4000.0 4000.0 4000.0 4000.0 4000.0 4000.0 4000.0 4000.0 4000.0 4000.0 4000.0 4000.0 4000.0 4000.0 4000.0 4000.0 4000.0 4000.0 4000.0 4000.0 4000.0 4000.0 4000.0 4000.0 4000.0 4000.0 4000.0 4000.0 4000.0 4000.0 4000.0 4000.0 4000.0 4000.0 4000.0 4000.0 4000.0 4000.0 4000.0 4000.0 4000.0 4000.0 4000.0 4000.0 4000.0 4000.0 4000.0 4000.0 4000.0 4000.0 4000.0 4000.0 4000.0 4000.0 4000.0 4000.0 4000.0 4000.0 4000.0 4000.0 4000.0 4000.0 4000.0 4000.0 4000.0 4000.0 4000.0 4000.0 4000.0 4000.0 4000.0 4000.0 4000.0 4000.0 4000.0 4000.0 4000.0 4000.0 4000.0 4000.0 4000.0 4000.0 4000.0 4000.0 4000.0 4000.0 4000.0 4000.0 4000.0 4000.0 4000.0 4000.0 4000.0 4000.0 4000.0 4000.0 4000.0 4000.0 4000.0 4000.0 4000.0 4000.0 4000.0 4000.0 4000.0 4000.0 4000.0 4000.0 4000.0 4000.0 4000.0 4000.0 4000.0 4000.0 4000.0 4000.0 4000.0 4000.0 4000.0 4000.0 4000.0 4000.0 4000.0 4000.0 4000.0 4000.0 4000.0 4000.0 4000.0 4000.0 4000.0 4000.0 4000.0 4000.0 4000.0 4000.0 4000.0 4000.0 4000.0 4000.0 4000.0 4000.0 4000.0 4000.0 4000.0 4000.0 4000.0 4000.0 4000.0 4000.0 4000.0 4000.0 4000.0 4000.0 4000.0 4000.0 4000.0 4000.0 4000.0 4000.0 4000.0 4000.0 4000.0 4000.0 4000.0 4000.0 4000.0 4000.0 4000.0 4000.0 4000.0 4000.0 4000.0 4000.0 4000.0 4000.0 4000.0 4000.0 4000.0 4000.0 4000.0 4000.0 4000.0 4000.0 4000.0 4000.0 4000.0 4000.0 4000.0 4000.0 4000.0 4000.0 4000.0 4000.0 4000.0 4000.0 4000.0 4000.0 4000.0 4000.0 4000.0 4000.0 4000.0 4000.0 4000.0 4000.0 4000.0 4000.0 4000.0 4000.0 4000.0 4000.0 4000.0 4000.0 4000.0 4000.0 4000.0 4000.0 4000.0 4000.0 4000.0 4000.0 4000.0 4000.0 4000.0 4000.0 4000.0 4000.0 4000.0 4000.0 4000.0 4000.0 4000.0 4000.0 4000.0 4000.0 4000.0 4000.0 4000.0 4000.0 4000.0 4000.0 4000.0 4000.0 4000.0 4000.0 4000.0 4000.0 4000.0 4000.0 4000.0 4000.0 4000.0 4000.0 4000.0 4000.0 4000.0 4000.0 4000.0 4000.0 4000.0 4000.0 4000.0 4000.0 4000.0 4000.0 4000.0 4000.0 4000.0 4000.0 4000.0 4000.0 4000.0 4000.0 4000.0 4000.0 4000.0 4000.0 4000.0 4000.0 4000.0 4000.0 4000.0 4000.0 4000.0 4000.0 4000.0 4000.0 4000.0 4000.0 4000.0 4000.0 4000.0 4000.0 4000.0 4000.0 4000.0 4000.0 4000.0 4000.0 4000.0 4000.0 4000.0 4000.0 4000.0 4000.0 4000.0 4000.0 4000.0 4000.0 4000.0 4000.0 4000.0 4000.0 4000.0 4000.0 4000.0 4000.0 4000.0 4000.0 4000.0 4000.0 4000.0 4000.0 4000.0 4000.0 4000.0 4000.0 4000.0 4000.0 4000.0 4000.0 4000.0 4000.0 4000.0 4000.0 4000.0 4000.0 4000.0 4000.0 4000.0 4000.0 4000.0 4000.0 4000.0 4000.0 4000.0 4000.0 4000.0 4000.0 4000.0 4000.0 4000.0 4000.0 4000.0 4000.0 4000.0 4000.0 4000.0 4000.0 4000.0 4000.0 4000.0 4000.0 4000.0 4000.0 4000.0 4000.0 4000.0 4000.0 4000.0 4000.0 4000.0 4000.0 4000.0 4000.0 4000.0 4000.0 4000.0 4000.0 4000.0 4000.0 4000.0 4000.0 4000.0 4000.0 4000.0 4000.0 4000.0 4000.0 4000.0 4000.0 4000.0 4000.0 4000.0 4000.0 4000.0 4000.0 4000.0 4000.0 4000.0 4000.0 4000.0 4000.0 4000.0 4000.0 4000.0 4000.0 4000.0 4000.0 4000.0 4000.0 4000.0 4000.0 4000.0 4000.0 4000.0 4000.0 4000.0 4000.0 4000.0 4000.0 4000.0 4000.0 4000.0 4000.0 4000.0 4000.0 4000.0 4000.0 4000.0 4000.0 4000.0 4000.0 4000.0 4000.0 4000.0 4000.0 4000.0 4000.0 4000.0 4000.0 4000.0 4000.0 4000.0 4000.0 4000.0 4000.0 4000.0 4000.0 4000.0 4000.0 4000.0 4000.0 4000.0 4000.0 4000.0 4000.0 4000.0 4000.0 4000.0 4000.0 4000.0 4000.0 4000.0 4000.0 4000.0 4000.0 4000.0 4000.0 4000.0 4000.0 4000.0 4000.0 4000.0 4000.0 4000.0 4000.0 4000.0 4000.0 4000.0 4000.0 4000.0 4000.0 4000.0 4000.0 4000.0 4000.0 4000.0 4000.0 4000.0 4000.0 4000.0 4000.0 4000.0 4000.0 4000.0 4000.0 4000.0 4000.0 4000.0 4000.0 4000.0 4000.0 4000.0 4000.0 4000.0 4000.0 4000.0 4000.0 4000.0 4000.0 4000.0 4000.0 4000.0 4000.0 4000.0 4000.0 4000.0 4000.0 4000.0 4000.0 4000.0 4000.0 4000.0 4000.0 4000.0 4000.0 4000.0 4000.0 4000.0 4000.0 4000.0 4000.0 4000.0 4000.0 4000.0 4000.0 4000.0 4000.0 4000.0 4000.0 4000.0 4000.0 4000.0 4000.0 4000.0 4000.0 4000.0 4000.0 4000.0 4000.0 4000.0 4000.0 4000.0 4000.0 4000.0 4000.0 4000.0 4000.0 4000.0 4000.0 4000.0 4000.0 4000.0 4000.0 4000.0 4000.0 4000.0 4000.0 4000.0 4000.0 4000.0 4000.0 4000.0 4000.0 4000.0 4000.0 4000.0 4000.0 4000.0 4000.0 4000.0 4000.0 4000.0 4000.0 4000.0 4000.0 4000.0 4000.0 4000.0 4000.0 4000.0 4000.0 4000.0 4000.0 4000.0 4000.0 4000.0 4000.0 4000.0 4000.0 4000.0 4000.0 4000.0 4000.0 4000.0 4000.0 4000.0 4000.0 4000.0 4000.0 4000.0 4000.0 4000.0 4000.0 4000.0 4000.0 4000.0 4000.0 4000.0 4000.0 4000.0 4000.0 4000.0 4000.0 4000.0 4000.0 4000.0 4000.0 4000.0 4000.0 4000.0 4000.0 4000.0 4000.0 4000.0 4000.0 4000.0 4000.0 4000.0 4000.0 4000.0 4000.0 4000.0 4000.0 4000.0 4000.0 4000.0 4000.0 4000.0 4000.0 4000.0 4000.0 4000.0 4000.0 4000.0 4000.0 4000.0 4000.0 4000.0 4000.0 4000.0 4000.0 4000.0 4000.0 4000.0 4000.0 4000.0 4000.0 4000.0 4000.0 4000.0 4000.0 4000.0 4000.0 4000.0 4000.0 4000.0 4000.0 4000.0 4000.0 4000.0 4000.0 4000.0 4000.0 4000.0 4000.0 4000.0 4000.0 4000.0 4000.0 4000.0 4000.0 4000.0 4000.0 4000.0 4000.0 4000.0 4000.0 4000.0 4000.0 4000.0 4000.0 4000.0 4000.0 4000.0 4000.0 4000.0 4000.0 4000.0 4000.0 4000.0 4000.0 4000.0 4000.0 4000.0 4000.0 4000.0 4000.0 4000.0 4000.0 4000.0 4000.0 4000.0 4000.0 4000.0 4000.0 4000.0 4000.0 4000.0 4000.0 4000.0 4000.0 4000.0 4000.0 4000.0 4000.0 4000.0 4000.0 4000.0 4000.0 4000.0 4000.0 4000.0 4000.0 4000.0 4000.0 4000.0 4000.0 4000.0 4000.0 4000.0 4000.0 4000.0 4000.0 4000.0 4000.0 4000.0 4000.0 4000.0 4000.0 4000.0 4000.0 4000.0 4000.0 4000.0 4000.0 4000.0 4000.0 4000.0 4000.0 4000.0 4000.0 4000.0 4000.0 4000.0 4000.0 4000.0 4000.0 4000.0 4000.0 4000.0 4000.0 4000.0 4000.0 4000.0 4000.0 4000.0 4000.0 4000.0 4000.0 4000.0 4000.0 4000.0 4000.0 4000.0 4000.0 4000.0 4000.0 4000.0 4000.0 4000.0 4000.0 4000.0 4000.0 4000.0 4000.0 4000.0 4000.0 4000.0 4000.0 4000.0 4000.0 4000.0 4000.0 4000.0 4000.0 4000.0 4000.0 4000.0 4000.0 4000.0 4000.0 4000.0 4000.0 4000.0 4000.0 4000.0 4000.0 4000.0 4000.0 4000.0 4000.0 4000.0 4000.0 4000.0 4000.0 4000.0 4000.0 4000.0 4000.0 4000.0 4000.0 4000.0 4000.0 4000.0 4000.0 4000.0 4000.0 4000.0 4000.0 4000.0 4000.0 4000.0 4000.0 4000.0 4000.0 4000.0 4000.0 4000.0 4000.0 4000.0 4000.0 4000.0 4000.0 4000.0 4000.0 4000.0 4000.0 4000.0 4000.0 4000.0 4000.0 4000.0 4000.0 4000.0 4000.0 4000.0 4000.0 4000.0 4000.0 4000.0 4000.0 4000.0 4000.0 4000.0 4000.0 4000.0 4000.0 4000.0 4000.0 4000.0 4000.0 4000.0 4000.0 4000.0 4000.0 4000.0 4000.0 4000.0 4000.0 4000.0 4000.0 4000.0 4000.0 4000.0 4000.0 4000.0 4000.0 4000.0 4000.0 4000.0 4000.0 4000.0 4000.0 4000.0 4000.0 4000.0 4000.0 4000.0 4000.0 4000.0 4000.0 4000.0 4000.0 4000.0 4000.0 4000.0 4000.0 4000.0 4000.0 4000.0 4000.0 4000.0 4000.0 4000.0 4000.0 4000.0 4000.0 4000.0 4000.0 4000.0 4000.0 4000.0 4000.0 4000.0 4000.0 4000.0 4000.0 4000.0 4000.0 4000.0 4000.0 4000.0 4000.0 4000.0 4000.0 4000.0 4000.0 4000.0 4000.0 4000.0 4000.0 4000.0 4000.0 4000.0 4000.0 4000.0 4000.0 4000.0 4000.0 4000.0 4000.0 4000.0 4000.0 4000.0 4000.0 4000.0 4000.0 4000.0 4000.0 4000.0 4000.0 4000.0 4000.0 4000.0 4000.0 4000.0 4000.0 4000.0 4000.0 4000.0 4000.0 4000.0 4000.0 4000.0 4000.0 4000.0 4000.0 4000.0 4000.0 4000.0 4000.0 4000.0 4000.0 4000.0 4000.0 4000.0 4000.0 4000.0 4000.0 4000.0 4000.0 4000.0 4000.0 4000.0 4000.0 4000.0 4000.0 4000.0 4000.0 4000.0 4000.0 4000.0 4000.0 4000.0 4000.0 4000.0 4000.0 4000.0 4000.0 4000.0 4000.0 4000.0 4000.0 4000.0 4000.0 4000.0 4000.0 4000.0 4000.0 4000.0 4000.0 4000.0 4000.0 4000.0 4000.0 4000.0 4000.0 4000.0 4000.0 4000.0 4000.0 4000.0 4000.0 4000.0 4000.0 4000.0 4000.0 4000.0 4000.0 4000.0 4000.0 4000.0 4000.0 4000.0 4000.0 4000.0 4000.0 4000.0 4000.0 4000.0 4000.0 4000.0 4000.0 4000.0 4000.0 4000.0 4000.0 4000.0 4000.0 4000.0 4000.0 4000.0 4000.0 4000.0 4000.0 4000.0 4000.0 4000.0 4000.0 4000.0 4000.0 4000.0 4000.0 4000.0 4000.0 4000.0 4000.0 4000.0 4000.0 4000.0 4000.0 4000.0 4000.0 4000.0 4000.0 4000.0 4000.0 4000.0 4000.0 4000.0 4000.0 4000.0 4000.0 4000.0 4000.0 4000.0 4000.0 4000.0 4000.0 4000.0 4000.0 4000.0 4000.0 4000.0 4000.0 4000.0 4000.0 4000.0 4000.0 4000.0 4000.0 4000.0 4000.0 4000.0 4000.0 4000.0 4000.0 4000.0 4000.0 4000.0 4000.0 4000.0 4000.0 4000.0 4000.0 4000.0 4000.0 4000.0 4000.0 4000.0 4000.0 4000.0 4000.0 4000.0 4000.0 4000.0 4000.0 4000.0 4000.0 4000.0 4000.0 4000.0 4000.0 4000.0 4000.0 4000.0 4000.0 4000.0 4000.0 4000.0 4000.0 4000.0 4000.0 4000.0 4000.0 4000.0 4000.0 4000.0 4000.0 4000.0 4000.0 4000.0 4000.0 4000.0 4000.0 4000.0 4000.0 4000.0 4000.0 4000.0 4000.0 4000.0 4000.0 4000.0 4000.0 4000.0 4000.0 4000.0 4000.0 4000.0 4000.0 4000.0 4000.0 4000.0 4000.0 4000.0 4000.0 4000.0 4000.0 4000.0 4000.0 4000.0 4000.0 4000.0 4000.0 4000.0 4000.0 4000.0 4000.0 4000.0 4000.0 4000.0 4000.0 4000.0 4000.0 4000.0 4000.0 4000.0 4000.0 4000.0 4000.0 4000.0 4000.0 4000.0 4000.0 4000.0 4000.0 4000.0 4000.0 4000.0 4000.0 4000.0 4000.0 4000.0 4000.0 4000.0 4000.0 4000.0 4000.0 4000.0 4000.0 4000.0 4000.0 4000.0 4000.0 4000.0 4000.0 4000.0 4000.0 4000.0 4000.0 4000.0 4000.0 4000.0 4000.0 4000.0 4000.0 4000.0 4000.0 4000.0 4000.0 4000.0 4000.0 4000.0 4000.0 4000.0 4000.0 4000.0 4000.0 4000.0 4000.0 4000.0 4000.0 4000.0 4000.0 4000.0 4000.0 4000.0 4000.0 4000.0 4000.0 4000.0 4000.0 4000.0 4000.0 4000.0 4000.0 4000.0 4000.0 4000.0 4000.0 4000.0 4000.0 4000.0 4000.0 4000.0 4000.0 4000.0 4000.0 4000.0 4000.0 4000.0 4000.0 4000.0 4000.0 4000.0 4000.0 4000.0 4000.0 4000.0 4000.0 4000.0 4000.0 4000.0 4000.0 4000.0 4000.0 4000.0 4000.0 4000.0 4000.0 4000.0 4000.0 4000.0 4000.0 4000.0 4000.0 4000.0 4000.0 4000.0 4000.0 4000.0 4000.0 4000.0 4000.0 4000.0 4000.0 4000.0 4000.0 4000.0 4000.0 4000.0 4000.0 4000.0 4000.0 4000.0 4000.0 4000.0 4000.0 4000.0 4000.0 4000.0 4000.0 4000.0 4000.0 4000.0 4000.0 4000.0 4000.0 4000.0 4000.0 4000.0 4000.0 4000.0 4000.0 4000.0 4000.0 4000.0 4000.0 4000.0 4000.0 4000.0 4000.0 4000.0 4000.0 4000.0 4000.0 4000.0 4000.0 4000.0 4000.0 4000.0 4000.0 4000.0 4000.0 4000.0 4000.0 4000.0 4000.0 4000.0 4000.0 4000.0 4000.0 4000.0 4000.0 4000.0 4000.0 4000.0 4000.0 4000.0 4000.0 4000.0 4000.0 4000.0 4000.0 4000.0 4000.0 4000.0 4000.0 4000.0 4000.0 4000.0 4000.0 4000.0 4000.0 4000.0 4000.0 4000.0 4000.0 4000.0 4000.0 4000.0 4000.0 4000.0 4000.0 4000.0 4000.0 4000.0 4000.0 4000.0 4000.0 4000.0 4000.0 4000.0 4000.0 4000.0 4000.0 4000.0 4000.0 4000.0 4000.0 4000.0 4000.0 4000.0 4000.0 4000.0 4000.0 4000.0 4000.0 4000.0 4000.0 4000.0 4000.0 4000.0 4000.0 4000.0 4000.0 4000.0 4000.0 4000.0 4000.0 4000.0 4000.0 4000.0 4000.0 4000.0 4000.0 4000.0 4000.0 4000.0 4000.0 4000.0 4000.0 4000.0 4000.0 4000.0 4000.0 4000.0 4000.0 4000.0 4000.0 4000.0 4000.0 4000.0 4000.0 4000.0 4000.0 4000.0 4000.0 4000.0 4000.0 4000.0 4000.0 4000.0 4000.0 4000.0 4000.0 4000.0 4000.0 4000.0 4000.0 4000.0 4000.0 4000.0 4000.0 4000.0 4000.0 4000.0 4000.0 4000.0 4000.0 4000.0 4000.0 4000.0 4000.0 4000.0 4000.0 4000.0 4000.0 4000.0 4000.0 4000.0 4000.0 4000.0 4000.0 4000.0 4000.0 4000.0 4000.0 4000.0 4000.0 4000.0 4000.0 4000.0 4000.0 4000.0 4000.0 4000.0 4000.0 4000.0 4000.0 4000.0 4000.0 4000.0 4000.0 4000.0 4000.0 4000.0 4000.0 4000.0 4000.0 4000.0 4000.0 4000.0 4000.0 4000.0 4000.0 4000.0 4000.0 4000.0 4000.0 4000.0 4000.0 4000.0 4000.0 4000.0 4000.0 4000.0 4000.0 4000.0 4000.0 4000.0 4000.0 4000.0 4000.0 4000.0 4000.0 4000.0 4000.0 4000.0 4000.0 4000.0 4000.0 4000.0 4000.0 4000.0 4000.0 4000.0 4000.0 4000.0 4000.0 4000.0 4000.0 4000.0 4000.0 4000.0 4000.0 4000.0 4000.0 4000.0 4000.0 4000.0 4000.0 4000.0 4000.0 4000.0 4000.0 4000.0 4000.0 4000.0 4000.0 4000.0 4000.0 4000.0 4000.0 4000.0 4000.0 4000.0 4000.0 4000.0 4000.0 4000.0 4000.0 4000.0 4000.0 4000.0 4000.0 4000.0 4000.0 4000.0 4000.0 4000.0 4000.0 4000.0 4000.0 4000.0 4000.0 4000.0 4000.0 4000.0 4000.0 4000.0 4000.0 4000.0 4000.0 4000.0 4000.0 4000.0 4000.0 4000.0 4000.0 4000.0 4000.0 4000.0 4000.0 4000.0 4000.0 4000.0 4000.0 4000.0 4000.0 4000.0 4000.0 4000.0 4000.0 4000.0 4000.0 4000.0 4000.0 4000.0 4000.0 4000.0 4000.0 4000.0 4000.0 4000.0 4000.0 4000.0 4000.0 4000.0 4000.0 4000.0 4000.0 4000.0 4000.0 4000.0 4000.0 4000.0 4000.0 4000.0 4000.0 4000.0 4000.0 4000.0 4000.0 4000.0 4000.0 4000.0 4000.0 4000.0 4000.0 4000.0 4000.0 4000.0 4000.0 4000.0 4000.0 4000.0 4000.0 4000.0 4000.0 4000.0 4000.0 4000.0 4000.0 4000.0 4000.0 4000.0 4000.0 4000.0 4000.0 4000.0 4000.0 4000.0 4000.0 4000.0 4000.0 4000.0 4000.0 4000.0 4000.0 4000.0 4000.0 4000.0 4000.0 4000.0 4000.0 4000.0 4000.0 4000.0 4000.0 4000.0 4000.0 4000.0 4000.0 4000.0 4000.0 4000.0 4000.0 4000.0 4000.0 4000.0 4000.0 4000.0 4000.0 4000.0 4000.0 4000.0 4000.0 4000.0 4000.0 4000.0 4000.0 4000.0 4000.0 4000.0 4000.0 4000.0 4000.0 4000.0 4000.0 4000.0 4000.0 4000.0 4000.0 4000.0 4000.0 4000.0 4000.0 4000.0 4000.0 4000.0 4000.0 4000.0 4000.0 4000.0 4000.0 4000.0 4000.0 4000.0 4000.0 4000.0 4000.0 4000.0 4000.0 4000.0 4000.0 4000.0 4000.0 4000.0 4000.0 4000.0 4000.0 4000.0 4000.0 4000.0 4000.0 4000.0 4000.0 4000.0 4000.0 4000.0 4000.0 4000.0 4000.0 4000.0 4000.0 4000.0 4000.0 4000.0 4000.0 4000.0 4000.0 4000.0 4000.0 4000.0 4000.0 4000.0 4000.0 4000.0 4000.0 4000.0 4000.0 4000.0 4000.0 4000.0 4000.0 4000.0 4000.0 4000.0 4000.0 4000.0 4000.0 4000.0 4000.0 4000.0 4000.0 4000.0 4000.0 4000.0 4000.0 4000.0 4000.0 4000.0 4000.0 4000.0 4000.0 4000.0 4000.0 4000.0 4000.0 4000.0 4000.0 4000.0 4000.0 4000.0 4000.0 4000.0 4000.0 4000.0 4000.0 4000.0 4000.0 4000.0 4000.0 4000.0 4000.0 4000.0 4000.0 4000.0 4000.0 4000.0 4000.0 4000.0 4000.0 4000.0 4000.0 4000.0 4000.0 4000.0 4000.0 4000.0 4000.0 4000.0 4000.0 4000.0 4000.0 4000.0 4000.0 4000.0 4000.0 4000.0 4000.0 4000.0 4000.0 4000.0 4000.0 4000.0 4000.0 4000.0 4000.0 4000.0 4000.0 4000.0 4000.0 4000.0 4000.0 4000.0 4000.0 4000.0 4000.0 4000.0 4000.0 4000.0 4000.0 4000.0 4000.0 4000.0 4000.0 4000.0 4000.0 4000.0 4000.0 4000.0 4000.0 4000.0 4000.0 4000.0 4000.0 4000.0 4000.0 4000.0 4000.0 4000.0 4000.0 4000.0 4000.0 4000.0 4000.0 4000.0 4000.0 4000.0 4000.0 4000.0 4000.0 4000.0 4000.0 4000.0 4000.0 4000.0 4000.0 4000.0 4000.0 4000.0 4000.0 4000.0 4000.0 4000.0 4000.0 4000.0 4000.0 4000.0 4000.0 4000.0 4000.0 4000.0 4000.0 4000.0 4000.0 4000.0 4000.0 4000.0 4000.0 4000.0 4000.0 4000.0 4000.0 4000.0 4000.0 4000.0 4000.0 4000.0 4000.0 4000.0 4000.0 4000.0 4000.0 4000.0 4000.0 4000.0 4000.0 4000.0 4000.0 4000.0 4000.0 4000.0 4000.0 4000.0 4000.0 4000.0 4000.0 4000.0 4000.0 4000.0 4000.0 4000.0 4000.0 4000.0 4000.0 4000.0 4000.0 4000.0 4000.0 4000.0 4000.0 4000.0 4000.0 4000.0 4000.0 4000.0 4000.0 4000.0 4000.0 4000.0 4000.0 4000.0 4000.0 4000.0 4000.0 4000.0 4000.0 4000.0 4000.0 4000.0 4000.0 4000.0 4000.0 4000.0 4000.0 4000.0 4000.0 4000.0 4000.0 4000.0 4000.0 4000.0 4000.0 4000.0 4000.0 4000.0 4000.0 4000.0 4000.0 4000.0 4000.0 4000.0 4000.0 4000.0 4000.0 4000.0 4000.0 4000.0 4000.0 4000.0 4000.0 4000.0 4000.0 4000.0 4000.0 4000.0 4000.0 4000.0 4000.0 4000.0 4000.0 4000.0 4000.0 4000.0 4000.0 4000.0 4000.0 4000.0 4000.0 4000.0 4000.0 4000.0 4000.0 4000.0 4000.0 4000.0 4000.0 4000.0 4000.0 4000.0 4000.0 4000.0 4000.0 4000.0 4000.0 4000.0 4000.0 4000.0 4000.0 4000.0 4000.0 4000.0 4000.0 4000.0 4000.0 4000.0 4000.0 4000.0 4000.0 4000.0 4000.0 4000.0 4000.0 4000.0 4000.0 4000.0 4000.0 4000.0 4000.0 4000.0 4000.0 4000.0 4000.0 4000.0 4000.0 4000.0 4000.0 4000.0 4000.0 4000.0 4000.0 4000.0 4000.0 4000.0 4000.0 4000.0 4000.0 4000.0 4000.0 4000.0 4000.0 4000.0 4000.0 4000.0 4000.0 4000.0 4000.0 4000.0 4000.0 4000.0 4000.0 4000.0 4000.0 4000.0 4000.0 4000.0 4000.0 4000.0 4000.0 4000.0 4000.0 4000.0 4000.0 4000.0 4000.0 4000.0 4000.0 4000.0 4000.0 4000.0 4000.0 4000.0 4000.0 4000.0 4000.0 4000.0 4000.0 4000.0 4000.0 4000.0 4000.0 4000.0 4000.0 4000.0 4000.0 4000.0 4000.0 4000.0 4000.0 4000.0 4000.0 4000.0 4000.0 4000.0 4000.0 4000.0 4000.0 4000.0 4000.0 4000.0 4000.0 4000.0 4000.0 4000.0 4000.0 4000.0 4000.0 4000.0 4000.0 4000.0 4000.0 4000.0 4000.0 4000.0 4000.0 4000.0 4000.0 4000.0 4000.0 4000.0 4000.0 4000.0 4000.0 4000.0 4000.0 4000.0 4000.0 4000.0 4000.0 4000.0 4000.0 4000.0 4000.0 4000.0 4000.0 4000.0 4000.0 4000.0 4000.0 4000.0 4000.0 4000.0 4000.0 4000.0 4000.0 4000.0 4000.0 4000.0 4000.0 4000.0 4000.0 4000.0 4000.0 4000.0 4000.0 4000.0 4000.0 4000.0 4000.0 4000.0 4000.0 4000.0 4000.0 4000.0 4000.0 4000.0 4000.0 4000.0 4000.0 4000.0 4000.0 4000.0 4000.0 4000.0 4000.0 4000.0 4000.0 4000.0 4000.0 4000.0 4000.0 4000.0 4000.0 4000.0 4000.0 4000.0 4000.0 4000.0 4000.0 4000.0 4000.0 4000.0 4000.0 4000.0 4000.0 4000.0 4000.0 4000.0 4000.0 4000.0 4000.0 4000.0 4000.0 4000.0 4000.0 4000.0 4000.0 4000.0 4000.0 4000.0 4000.0 4000.0 4000.0 4000.0 4000.0 4000.0 4000.0 4000.0 4000.0 4000.0 4000.0 4000.0 4000.0 4000.0 4000.0 4000.0 4000.0 4000.0 4000.0 4000.0 4000.0 4000.0 4000.0 4000.0 4000.0 4000.0 4000.0 4000.0 4000.0 4000.0 4000.0 4000.0 4000.0 4000.0 4000.0 4000.0 4000.0 4000.0 4000.0 4000.0 4000.0 4000.0 4000.0 4000.0 4000.0 4000.0 4000.0 4000.0 4000.0 4000.0 4000.0 4000.0 4000.0 4000.0 4000.0 4000.0 4000.0 4000.0 4000.0 4000.0 4000.0 4000.0 4000.0 4000.0 4000.0 4000.0 4000.0 4000.0 4000.0 4000.0 4000.0 4000.0 4000.0 4000.0 4000.0 4000.0 4000.0 4000.0 4000.0 4000.0 4000.0 4000.0 4000.0 4000.0 4000.0 4000.0 4000.0 4000.0 4000.0 4000.0 4000.0 4000.0 4000.0 4000.0 4000.0 4000.0 4000.0 4000.0 4000.0 4000.0 4000.0 4000.0 4000.0 4000.0 4000.0 4000.0 4000.0 4000.0 4000.0 4000.0 4000.0 4000.0 4000.0 4000.0 4000.0 4000.0 4000.0 4000.0 4000.0 4000.0 4000.0 4000.0 4000.0 4000.0 4000.0 4000.0 4000.0 4000.0 4000.0 4000.0 4000.0 4000.0 4000.0 4000.0 4000.0 4000.0 4000.0 4000.0 4000.0 4000.0 4000.0 4000.0 4000.0 4000.0 4000.0 4000.0 4000.0 4000.0 4000.0 4000.0 4000.0 4000.0 4000.0 4000.0 4000.0 4000.0 4000.0 4000.0 4000.0 4000.0 4000.0 4000.0 4000.0 4000.0 4000.0 4000.0 4000.0 4000.0 4000.0 4000.0 4000.0 4000.0 4000.0 4000.0 4000.0 4000.0 4000.0 4000.0 4000.0 4000.0 4000.0 4000.0 4000.0 4000.0 4000.0 4000.0 4000.0 4000.0 4000.0 4000.0 4000.0 4000.0 4000.0 4000.0 4000.0 4000.0 4000.0 4000.0 4000.0 4000.0 4000.0 4000.0 4000.0 4000.0 4000.0 4000.0 4000.0 4000.0 4000.0 4000.0 4000.0 4000.0 4000.0 4000.0 4000.0 4000.0 4000.0 4000.0 4000.0 4000.0 4000.0 4000.0 4000.0 4000.0 4000.0 4000.0 4000.0 4000.0 4000.0 4000.0 4000.0 4000.0 4000.0 4000.0 4000.0 4000.0 4000.0 4000.0 4000.0 4000.0 4000.0 4000.0 4000.0 4000.0 4000.0 4000.0 4000.0 4000.0 4000.0 4000.0 4000.0 4000.0 4000.0 4000.0 4000.0 4000.0 4000.0 4000.0 4000.0 4000.0 4000.0 4000.0 4000.0 4000.0 4000.0 4000.0 4000.0 4000.0 4000.0 4000.0 4000.0 4000.0 4000.0 4000.0 4000.0 4000.0 4000.0 4000.0 4000.0 4000.0 4000.0 4000.0 4000.0 4000.0 4000.0 4000.0 4000.0 4000.0 4000.0 4000.0 4000.0 4000.0 4000.0 4000.0 4000.0 4000.0 4000.0 4000.0 4000.0 4000.0 4000.0 4000.0 4000.0 4000.0 4000.0 4000.0 4000.0 4000.0 4000.0 4000.0 4000.0 4000.0 4000.0 4000.0 4000.0 4000.0 4000.0 4000.0 4000.0 4000.0 4000.0 4000.0 4000.0 4000.0 4000.0 4000.0 4000.0 4000.0 4000.0 4000.0 4000.0 4000.0 4000.0 4000.0 4000.0 4000.0 4000.0 4000.0 4000.0 4000.0 4000.0 4000.0 4000.0 4000.0 4000.0 4000.0 4000.0 4000.0 4000.0 4000.0 4000.0 4000.0 4000.0 4000.0 4000.0 4000.0 4000.0 4000.0 4000.0 4000.0 4000.0 4000.0 4000.0 4000.0 4000.0 4000.0 4000.0 4000.0 4000.0 4000.0 4000.0 4000.0 4000.0 4000.0 4000.0 4000.0 4000.0 4000.0 4000.0 4000.0 4000.0 4000.0 4000.0 4000.0 4000.0 4000.0 4000.0 4000.0 4000.0 4000.0 4000.0 4000.0 4000.0 4000.0 4000.0 4000.0 4000.0 4000.0 4000.0 4000.0 4000.0 4000.0 4000.0 4000.0 4000.0 4000.0 4000.0 4000.0 4000.0 4000.0 4000.0 4000.0 4000.0 4000.0 4000.0 4000.0 4000.0 4000.0 4000.0 4000.0 4000.0 4000.0 4000.0 4000.0 4000.0 4000.0 4000.0 4000.0 4000.0 4000.0 4000.0 4000.0 4000.0 4000.0 4000.0 4000.0 4000.0 4000.0 4000.0 4000.0 4000.0 4000.0 4000.0 4000.0 4000.0 4000.0 4000.0 4000.0 4000.0 4000.0 4000.0 4000.0 4000.0 4000.0 4000.0 4000.0 4000.0 4000.0 4000.0 4000.0 4000.0 4000.0 4000.0 4000.0 4000.0 4000.0 4000.0 4000.0 4000.0 4000.0 4000.0 4000.0 4000.0 4000.0 4000.0 4000.0 4000.0 4000.0 4000.0 4000.0 4000.0 4000.0 4000.0 4000.0 4000.0 4000.0 4000.0 4000.0 4000.0 4000.0 4000.0 4000.0 4000.0 4000.0 4000.0 4000.0 4000.0 4000.0 4000.0 4000.0 4000.0 4000.0 4000.0 4000.0 4000.0 4000.0 4000.0 4000.0 4000.0 4000.0 4000.0 4000.0 4000.0 4000.0 4000.0 4000.0 4000.0 4000.0 4000.0 4000.0 4000.0 4000.0 4000.0 4000.0 4000.0 4000.0 4000.0 4000.0 4000.0 4000.0 4000.0 4000.0 4000.0 4000.0 4000.0 4000.0 4000.0 4000.0 4000.0 4000.0 4000.0 4000.0 4000.0 4000.0 4000.0 4000.0 4000.0 4000.0 4000.0 4000.0 4000.0 4000.0 4000.0 4000.0 4000.0 4000.0 4000.0 4000.0 4000.0 4000.0 4000.0 4000.0 4000.0 4000.0 4000.0 4000.0 4000.0 4000.0 4000.0 4000.0 4000.0 4000.0 4000.0 4000.0 4000.0 4000.0 4000.0 4000.0 4000.0 4000.0 4000.0 4000.0 4000.0 4000.0 4000.0 4000.0 4000.0 4000.0 4000.0 4000.0 4000.0 4000.0 4000.0 4000.0 4000.0 4000.0 4000.0 4000.0 4000.0 4000.0 4000.0 4000.0 4000.0 4000.0 4000.0 4000.0 4000.0 4000.0 4000.0 4000.0 4000.0 4000.0 4000.0 4000.0 4000.0 4000.0 4000.0 4000.0 4000.0 4000.0 4000.0 4000.0 4000.0 4000.0 4000.0 4000.0 4000.0 4000.0 4000.0 4000.0 4000.0 4000.0 4000.0 4000.0 4000.0 4000.0 4000.0 4000.0 4000.0 4000.0 4000.0 4000.0 4000.0 4000.0 4000.0 4000.0 4000.0 4000.0 4000.0 4000.0 4000.0 4000.0 4000.0 4000.0 4000.0 4000.0 4000.0 4000.0 4000.0 4000.0 4000.0 4000.0 4000.0 4000.0 4000.0 4000.0 4000.0 4000.0 4000.0 4000.0 4000.0 4000.0 4000.0 4000.0 4000.0 4000.0 4000.0 4000.0 4000.0 4000.0 4000.0 4000.0 4000.0 4000.0 4000.0 4000.0 4000.0 4000.0 4000.0 4000.0 4000.0 4000.0 4000.0 4000.0 4000.0 4000.0 4000.0 4000.0 4000.0 4000.0 4000.0 4000.0 4000.0 4000.0 4000.0 4000.0 4000.0 4000.0 4000.0 4000.0 4000.0 4000.0 4000.0 4000.0 4000.0 4000.0 4000.0 4000.0 4000.0 4000.0 4000.0 4000.0 4000.0 4000.0 4000.0 4000.0 4000.0 4000.0 4000.0 4000.0 4000.0 4000.0 4000.0 4000.0 4000.0 4000.0 4000.0 4000.0 4000.0 4000.0 4000.0 4000.0 4000.0 4000.0 4000.0 4000.0 4000.0 4000.0 4000.0 4000.0 4000.0 4000.0 4000.0 4000.0 4000.0 4000.0 4000.0 4000.0 4000.0 4000.0 4000.0 4000.0 4000.0 4000.0 4000.0 4000.0 4000.0 4000.0 4000.0 4000.0 4000.0 4000.0 4000.0 4000.0 4000.0 4000.0 4000.0 4000.0 4000.0 4000.0 4000.0 4000.0 4000.0 4000.0 4000.0 4000.0 4000.0 4000.0 4000.0 4000.0 4000.0 4000.0 4000.0 4000.0 4000.0 4000.0 4000.0 4000.0 4000.0 4000.0 4000.0 4000.0 4000.0 4000.0 4000.0 4000.0 4000.0 4000.0 4000.0 4000.0 4000.0 4000.0 4000.0 4000.0 4000.0 4000.0 4000.0 4000.0 4000.0 4000.0 4000.0 4000.0 4000.0 4000.0 4000.0 4000.0 4000.0 4000.0 4000.0 4000.0 4000.0 4000.0 4000.0 4000.0 4000.0 4000.0 4000.0 4000.0 4000.0 4000.0 4000.0 4000.0 4000.0 4000.0 4000.0 4000.0 4000.0 4000.0 4000.0 4000.0 4000.0 4000.0 4000.0 4000.0 4000.0 4000.0 4000.0 4000.0 4000.0 4000.0 4000.0 4000.0 4000.0 4000.0 4000.0 4000.0 4000.0 4000.0 4000.0 4000.0 4000.0 4000.0 4000.0 4000.0 4000.0 4000.0 4000.0 4000.0 4000.0 4000.0 4000.0 4000.0 4000.0 4000.0 4000.0 4000.0 4000.0 4000.0 4000.0 4000.0 4000.0 4000.0 4000.0 4000.0 4000.0 4000.0 4000.0 4000.0 4000.0 4000.0 4000.0 4000.0 4000.0 4000.0 4000.0 4000.0 4000.0 4000.0 4000.0 4000.0 4000.0 4000.0 4000.0 4000.0 4000.0 4000.0 4000.0 4000.0 4000.0 4000.0 4000.0 4000.0 4000.0 4000.0 4000.0 4000.0 4000.0 4000.0 4000.0 4000.0 4000.0 4000.0 4000.0 4000.0 4000.0 4000.0 4000.0 4000.0 4000.0 4000.0 4000.0 4000.0 4000.0 4000.0 4000.0 4000.0 4000.0 4000.0 4000.0 4000.0 4000.0 4000.0 4000.0 4000.0 4000.0 4000.0 4000.0 4000.0 4000.0 4000.0 4000.0 4000.0 4000.0 4000.0 4000.0 4000.0 4000.0 4000.0 4000.0 4000.0 4000.0 4000.0 4000.0 4000.0 4000.0 4000.0 4000.0 4000.0 4000.0 4000.0 4000.0 4000.0 4000.0 4000.0 4000.0 4000.0 4000.0 4000.0 4000.0 4000.0 4000.0 4000.0 4000.0 4000.0 4000.0 4000.0 4000.0 4000.0 4000.0 4000.0 4000.0 4000.0 4000.0 4000.0 4000.0 4000.0 4000.0 4000.0 4000.0 4000.0 4000.0 4000.0 4000.0 4000.0 4000.0 4000.0 4000.0 4000.0 4000.0 4000.0 4000.0 4000.0 4000.0 4000.0 4000.0 4000.0 4000.0 4000.0 4000.0 4000.0 4000.0 4000.0 4000.0 4000.0 4000.0 4000.0 4000.0 4000.0 4000.0 4000.0 4000.0 4000.0 4000.0 4000.0 4000.0 4000.0 4000.0 4000.0 4000.0 4000.0 4000.0 4000.0 4000.0 4000.0 4000.0 4000.0 4000.0 4000.0 4000.0 4000.0 4000.0 4000.0 4000.0 4000.0 4000.0 4000.0 4000.0 4000.0 4000.0 4000.0 4000.0 4000.0 4000.0 4000.0 4000.0 4000.0 4000.0 4000.0 4000.0 4000.0 4000.0 4000.0 4000.0 4000.0 4000.0 4000.0 4000.0 4000.0 4000.0 4000.0 4000.0 4000.0 4000.0 4000.0 4000.0 4000.0 4000.0 4000.0 4000.0 4000.0 4000.0 4000.0 4000.0 4000.0 4000.0 4000.0 4000.0 4000.0 4000.0 4000.0 4000.0 4000.0 4000.0 4000.0 4000.0 4000.0 4000.0 4000.0 4000.0 4000.0 4000.0 4000.0 4000.0 4000.0 4000.0 4000.0 4000.0 4000.0 4000.0 4000.0 4000.0 4000.0 4000.0 4000.0 4000.0 4000.0 4000.0 4000.0 4000.0 4000.0 4000.0 4000.0 4000.0 4000.0 4000.0 4000.0 4000.0 4000.0 4000.0 4000.0 4000.0 4000.0 4000.0 4000.0 4000.0 4000.0 4000.0 4000.0 4000.0 4000.0 4000.0 4000.0 4000.0 4000.0 4000.0 4000.0 4000.0 4000.0 4000.0 4000.0 4000.0 4000.0 4000.0 4000.0 4000.0 4000.0 4000.0 4000.0 4000.0 4000.0 4000.0 4000.0 4000.0 4000.0 4000.0 4000.0 4000.0 4000.0 4000.0 4000.0 4000.0 4000.0 4000.0 4000.0 4000.0 4000.0 4000.0 4000.0 4000.0 4000.0 4000.0 4000.0 4000.0 4000.0 4000.0 4000.0 4000.0 4000.0 4000.0 4000.0 4000.0 4000.0 4000.0 4000.0 4000.0 4000.0 4000.0 4000.0 4000.0 4000.0 4000.0 4000.0 4000.0 4000.0 4000.0 4000.0 4000.0 4000.0 4000.0 4000.0 4000.0 4000.0 4000.0 4000.0 4000.0 4000.0 4000.0 4000.0 4000.0 4000.0 4000.0 4000.0 4000.0 4000.0 4000.0 4000.0 4000.0 4000.0 4000.0 4000.0 4000.0 4000.0 4000.0 4000.0 4000.0 4000.0 4000.0 4000.0 4000.0 4000.0 4000.0 4000.0 4000.0 4000.0 4000.0 4000.0 4000.0 4000.0 4000.0 4000.0 4000.0 4000.0 4000.0 4000.0 4000.0 4000.0 4000.0 4000.0 4000.0 4000.0 4000.0 4000.0 4000.0 4000.0 4000.0 4000.0 4000.0 4000.0 4000.0 4000.0 4000.0 4000.0 4000.0 4000.0 4000.0 4000.0 4000.0 4000.0 4000.0 4000.0 4000.0 4000.0 4000.0 4000.0 4000.0 4000.0 4000.0 4000.0 4000.0 4000.0 4000.0 4000.0 4000.0 4000.0 4000.0 4000.0 4000.0 4000.0 4000.0 4000.0 4000.0 4000.0 4000.0 4000.0 4000.0 4000.0 4000.0 4000.0 4000.0 4000.0 4000.0 4000.0 4000.0 4000.0 4000.0 4000.0 4000.0 4000.0 4000.0 4000.0 4000.0 4000.0 4000.0 4000.0 4000.0 4000.0 4000.0 4000.0 4000.0 4000.0 4000.0 4000.0 4000.0 4000.0 4000.0 4000.0 4000.0 4000.0 4000.0 4000.0 4000.0 4000.0 4000.0 4000.0 4000.0 4000.0 4000.0 4000.0 4000.0 4000.0 4000.0 4000.0 4000.0 4000.0 4000.0 4000.0 4000.0 4000.0 4000.0 4000.0 4000.0 4000.0 4000.0 4000.0 4000.0 4000.0 4000.0 4000.0 4000.0 4000.0 4000.0 4000.0 4000.0 4000.0 4000.0 4000.0 4000.0 4000.0 4000.0 4000.0 4000.0 4000.0 4000.0 4000.0 4000.0 4000.0 4000.0 4000.0 4000.0 4000.0 4000.0 4000.0 4000.0 4000.0 4000.0 4000.0 4000.0 4000.0 4000.0 4000.0 4000.0 4000.0 4000.0 4000.0 4000.0 4000.0 4000.0 4000.0 4000.0 4000.0 4000.0 4000.0 4000.0 4000.0 4000.0 4000.0 4000.0 4000.0 4000.0 4000.0 4000.0 4000.0 4000.0 4000.0 4000.0 4000.0 4000.0 4000.0 4000.0 4000.0 4000.0 4000.0 4000.0 4000.0 4000.0 4000.0 4000.0 4000.0 4000.0 4000.0 4000.0 4000.0 4000.0 4000.0 4000.0 4000.0 4000.0 4000.0 4000.0 4000.0 4000.0 4000.0 4000.0 4000.0 4000.0 4000.0 4000.0 4000.0 4000.0 4000.0 4000.0 4000.0 4000.0 4000.0 4000.0 4000.0 4000.0 4000.0 4000.0 4000.0 4000.0 4000.0 4000.0 4000.0 4000.0 4000.0 4000.0 4000.0 4000.0 4000.0 4000.0 4000.0 4000.0 4000.0 4000.0 4000.0 4000.0 4000.0 4000.0 4000.0 4000.0 4000.0 4000.0 4000.0 4000.0 4000.0 4000.0 4000.0 4000.0 4000.0 4000.0 4000.0 4000.0 4000.0 4000.0 4000.0 4000.0 4000.0 4000.0 4000.0 4000.0 4000.0 4000.0 4000.0 4000.0 4000.0 4000.0 4000.0 4000.0 4000.0 4000.0 4000.0 4000.0 4000.0 4000.0 4000.0 4000.0 4000.0 4000.0 4000.0 4000.0 4000.0 4000.0 4000.0 4000.0 4000.0 4000.0 4000.0 4000.0 4000.0 4000.0 4000.0 4000.0 4000.0 4000.0 4000.0 4000.0 4000.0 4000.0 4000.0 4000.0 4000.0 4000.0 4000.0 4000.0 4000.0 4000.0 4000.0 4000.0 4000.0 4000.0 4000.0 4000.0 4000.0 4000.0 4000.0 4000.0 4000.0 4000.0 4000.0 4000.0 4000.0 4000.0 4000.0 4000.0 4000.0 4000.0 4000.0 4000.0 4000.0 4000.0 4000.0 4000.0 4000.0 4000.0 4000.0 4000.0 4000.0 4000.0 4000.0 4000.0 4000.0 4000.0 4000.0 4000.0 4000.0 4000.0 4000.0 4000.0 4000.0 4000.0 4000.0 4000.0 4000.0 4000.0 4000.0 4000.0 4000.0 4000.0 4000.0 4000.0 4000.0 4000.0 4000.0 4000.0 4000.0 4000.0 4000.0 4000.0 4000.0 4000.0 4000.0 4000.0 4000.0 4000.0 4000.0 4000.0 4000.0 4000.0 4000.0 4000.0 4000.0 4000.0 4000.0 4000.0 4000.0 4000.0 4000.0 4000.0 4000.0 4000.0 4000.0 4000.0 4000.0 4000.0 4000.0 4000.0 4000.0 4000.0 4000.0 4000.0 4000.0 4000.0 4000.0 4000.0 4000.0 4000.0 4000.0 4000.0 4000.0 4000.0 4000.0 4000.0 4000.0 4000.0 4000.0 4000.0 4000.0 4000.0 4000.0 4000.0 4000.0 4000.0 4000.0 4000.0 4000.0 4000.0 4000.0 4000.0 4000.0 4000.0 4000.0 4000.0 4000.0 4000.0 4000.0 4000.0 4000.0 4000.0 4000.0 4000.0 4000.0 4000.0 4000.0 4000.0 4000.0 4000.0 4000.0 4000.0 4000.0 4000.0 4000.0 4000.0 4000.0 4000.0 4000.0 4000.0 4000.0 4000.0 4000.0 4000.0 4000.0 4000.0 4000.0 4000.0 4000.0 4000.0 4000.0 4000.0 4000.0 4000.0 4000.0 4000.0 4000.0 4000.0 4000.0 4000.0 4000.0 4000.0 4000.0 4000.0 4000.0 4000.0 4000.0 4000.0 4000.0 4000.0 4000.0 4000.0 4000.0 4000.0 4000.0 4000.0 4000.0 4000.0 4000.0 4000.0 4000.0 4000.0 4000.0 4000.0 4000.0 4000.0 4000.0 4000.0 4000.0 4000.0 4000.0 4000.0 4000.0 4000.0 4000.0 4000.0 4000.0 4000.0 4000.0 4000.0 4000.0 4000.0 4000.0 4000.0 4000.0 4000.0 4000.0 4000.0 4000.0 4000.0 4000.0 4000.0 4000.0 4000.0 4000.0 4000.0 4000.0 4000.0 4000.0 4000.0 4000.0 4000.0 4000.0 4000.0 4000.0 4000.0 4000.0 4000.0 4000.0 4000.0 4000.0 4000.0 4000.0 4000.0 4000.0 4000.0 4000.0 4000.0 4000.0 4000.0 4000.0 4000.0 4000.0 4000.0 4000.0 4000.0 4000.0 4000.0 4000.0 4000.0 4000.0 4000.0 4000.0 4000.0 4000.0 4000.0 4000.0 4000.0 4000.0 4000.0 4000.0 4000.0 4000.0 4000.0 4000.0 4000.0 4000.0 4000.0 4000.0 4000.0 4000.0 4000.0 4000.0 4000.0 4000.0 4000.0 4000.0 4000.0 4000.0 4000.0 4000.0 4000.0 4000.0 4000.0 4000.0 4000.0 4000.0 4000.0 4000.0 4000.0 4000.0 4000.0 4000.0 4000.0 4000.0 4000.0 4000.0 4000.0 4000.0 4000.0 4000.0 4000.0 4000.0 4000.0 4000.0 4000.0 4000.0 4000.0 4000.0 4000.0 SCALARS Mass float 1
LOOKUP_TABLE default
11309700000.0 11309700000.0 11309700000.0 11309700000.0 11309700000.0 11309700000.0 11309700000.0 11309700000.0 11309700000.0 11309700000.0 11309700000.0 11309700000.0 11309700000.0 11309700000.0 11309700000.0 11309700000.0 11309700000.0 11309700000.0 11309700000.0 11309700000.0 11309700000.0 11309700000.0 11309700000.0 11309700000.0 11309700000.0 11309700000.0 11309700000.0 11309700000.0 11309700000.0 11309700000.0 11309700000.0 11309700000.0 11309700000.0 11309700000.0 11309700000.0 11309700000.0 11309700000.0 11309700000.0 11309700000.0 11309700000.0 11309700000.0 11309700000.0 11309700000.0 11309700000.0 11309700000.0 11309700000.0 11309700000.0 11309700000.0 11309700000.0 11309700000.0 11309700000.0 11309700000.0 11309700000.0 11309700000.0 11309700000.0 11309700000.0 11309700000.0 11309700000.0 11309700000.0 11309700000.0 11309700000.0 11309700000.0 11309700000.0 11309700000.0 11309700000.0 11309700000.0 11309700000.0 11309700000.0 11309700000.0 11309700000.0 11309700000.0 11309700000.0 11309700000.0 11309700000.0 11309700000.0 11309700000.0 11309700000.0 11309700000.0 11309700000.0 11309700000.0 11309700000.0 11309700000.0 11309700000.0 11309700000.0 11309700000.0 11309700000.0 11309700000.0 11309700000.0 11309700000.0 11309700000.0 11309700000.0 11309700000.0 11309700000.0 11309700000.0 11309700000.0 11309700000.0 11309700000.0 11309700000.0 11309700000.0 11309700000.0 11309700000.0 11309700000.0 11309700000.0 11309700000.0 11309700000.0 11309700000.0 11309700000.0 11309700000.0 11309700000.0 11309700000.0 11309700000.0 11309700000.0 11309700000.0 11309700000.0 11309700000.0 11309700000.0 11309700000.0 11309700000.0 11309700000.0 11309700000.0 11309700000.0 11309700000.0 11309700000.0 11309700000.0 11309700000.0 11309700000.0 11309700000.0 11309700000.0 11309700000.0 11309700000.0 11309700000.0 11309700000.0 11309700000.0 11309700000.0 11309700000.0 11309700000.0 11309700000.0 11309700000.0 11309700000.0 11309700000.0 11309700000.0 11309700000.0 11309700000.0 11309700000.0 11309700000.0 11309700000.0 11309700000.0 11309700000.0 11309700000.0 11309700000.0 11309700000.0 11309700000.0 11309700000.0 11309700000.0 11309700000.0 11309700000.0 11309700000.0 11309700000.0 11309700000.0 11309700000.0 11309700000.0 11309700000.0 11309700000.0 11309700000.0 11309700000.0 11309700000.0 11309700000.0 11309700000.0 11309700000.0 11309700000.0 11309700000.0 11309700000.0 11309700000.0 11309700000.0 11309700000.0 11309700000.0 11309700000.0 11309700000.0 11309700000.0 11309700000.0 11309700000.0 11309700000.0 11309700000.0 11309700000.0 11309700000.0 11309700000.0 11309700000.0 11309700000.0 11309700000.0 11309700000.0 11309700000.0 11309700000.0 11309700000.0 11309700000.0 11309700000.0 11309700000.0 11309700000.0 11309700000.0 11309700000.0 11309700000.0 11309700000.0 11309700000.0 11309700000.0 11309700000.0 11309700000.0 11309700000.0 11309700000.0 11309700000.0 11309700000.0 11309700000.0 11309700000.0 11309700000.0 11309700000.0 11309700000.0 11309700000.0 11309700000.0 11309700000.0 11309700000.0 11309700000.0 11309700000.0 11309700000.0 11309700000.0 11309700000.0 11309700000.0 11309700000.0 11309700000.0 11309700000.0 11309700000.0 11309700000.0 11309700000.0 11309700000.0 11309700000.0 11309700000.0 11309700000.0 11309700000.0 11309700000.0 11309700000.0 11309700000.0 11309700000.0 11309700000.0 11309700000.0 11309700000.0 11309700000.0 11309700000.0 11309700000.0 11309700000.0 11309700000.0 11309700000.0 11309700000.0 11309700000.0 11309700000.0 11309700000.0 11309700000.0 11309700000.0 11309700000.0 11309700000.0 11309700000.0 11309700000.0 11309700000.0 11309700000.0 11309700000.0 11309700000.0 11309700000.0 11309700000.0 11309700000.0 11309700000.0 11309700000.0 11309700000.0 11309700000.0 11309700000.0 11309700000.0 11309700000.0 11309700000.0 11309700000.0 11309700000.0 11309700000.0 11309700000.0 11309700000.0 11309700000.0 11309700000.0 11309700000.0 11309700000.0 11309700000.0 11309700000.0 11309700000.0 11309700000.0 11309700000.0 11309700000.0 11309700000.0 11309700000.0 11309700000.0 11309700000.0 11309700000.0 11309700000.0 11309700000.0 11309700000.0 11309700000.0 11309700000.0 11309700000.0 11309700000.0 11309700000.0 11309700000.0 11309700000.0 11309700000.0 11309700000.0 11309700000.0 11309700000.0 11309700000.0 11309700000.0 11309700000.0 11309700000.0 11309700000.0 11309700000.0 11309700000.0 11309700000.0 11309700000.0 11309700000.0 11309700000.0 11309700000.0 11309700000.0 11309700000.0 11309700000.0 11309700000.0 11309700000.0 11309700000.0 11309700000.0 11309700000.0 11309700000.0 11309700000.0 11309700000.0 11309700000.0 11309700000.0 11309700000.0 11309700000.0 11309700000.0 11309700000.0 11309700000.0 11309700000.0 11309700000.0 11309700000.0 11309700000.0 11309700000.0 11309700000.0 11309700000.0 11309700000.0 11309700000.0 11309700000.0 11309700000.0 11309700000.0 11309700000.0 11309700000.0 11309700000.0 11309700000.0 11309700000.0 11309700000.0 11309700000.0 11309700000.0 11309700000.0 11309700000.0 11309700000.0 11309700000.0 11309700000.0 11309700000.0 11309700000.0 11309700000.0 11309700000.0 11309700000.0 11309700000.0 11309700000.0 11309700000.0 11309700000.0 11309700000.0 11309700000.0 11309700000.0 11309700000.0 11309700000.0 11309700000.0 11309700000.0 11309700000.0 11309700000.0 11309700000.0 11309700000.0 11309700000.0 11309700000.0 11309700000.0 11309700000.0 11309700000.0 11309700000.0 11309700000.0 11309700000.0 11309700000.0 11309700000.0 11309700000.0 11309700000.0 11309700000.0 11309700000.0 11309700000.0 11309700000.0 11309700000.0 11309700000.0 11309700000.0 11309700000.0 11309700000.0 11309700000.0 11309700000.0 11309700000.0 11309700000.0 11309700000.0 11309700000.0 11309700000.0 11309700000.0 11309700000.0 11309700000.0 11309700000.0 11309700000.0 11309700000.0 11309700000.0 11309700000.0 11309700000.0 11309700000.0 11309700000.0 11309700000.0 11309700000.0 11309700000.0 11309700000.0 11309700000.0 11309700000.0 11309700000.0 11309700000.0 11309700000.0 11309700000.0 11309700000.0 11309700000.0 11309700000.0 11309700000.0 11309700000.0 11309700000.0 11309700000.0 11309700000.0 11309700000.0 11309700000.0 11309700000.0 11309700000.0 11309700000.0 11309700000.0 11309700000.0 11309700000.0 11309700000.0 11309700000.0 11309700000.0 11309700000.0 11309700000.0 11309700000.0 11309700000.0 11309700000.0 11309700000.0 11309700000.0 11309700000.0 11309700000.0 11309700000.0 11309700000.0 11309700000.0 11309700000.0 11309700000.0 11309700000.0 11309700000.0 11309700000.0 11309700000.0 11309700000.0 11309700000.0 11309700000.0 11309700000.0 11309700000.0 11309700000.0 11309700000.0 11309700000.0 11309700000.0 11309700000.0 11309700000.0 11309700000.0 11309700000.0 11309700000.0 11309700000.0 11309700000.0 11309700000.0 11309700000.0 11309700000.0 11309700000.0 11309700000.0 11309700000.0 11309700000.0 11309700000.0 11309700000.0 11309700000.0 11309700000.0 11309700000.0 11309700000.0 11309700000.0 11309700000.0 11309700000.0 11309700000.0 11309700000.0 11309700000.0 11309700000.0 11309700000.0 11309700000.0 11309700000.0 11309700000.0 11309700000.0 11309700000.0 11309700000.0 11309700000.0 11309700000.0 11309700000.0 11309700000.0 11309700000.0 11309700000.0 11309700000.0 11309700000.0 11309700000.0 11309700000.0 11309700000.0 11309700000.0 11309700000.0 11309700000.0 11309700000.0 11309700000.0 11309700000.0 11309700000.0 11309700000.0 11309700000.0 11309700000.0 11309700000.0 11309700000.0 11309700000.0 11309700000.0 11309700000.0 11309700000.0 11309700000.0 11309700000.0 11309700000.0 11309700000.0 11309700000.0 11309700000.0 11309700000.0 11309700000.0 11309700000.0 11309700000.0 11309700000.0 11309700000.0 11309700000.0 11309700000.0 11309700000.0 11309700000.0 11309700000.0 11309700000.0 11309700000.0 11309700000.0 11309700000.0 11309700000.0 11309700000.0 11309700000.0 11309700000.0 11309700000.0 11309700000.0 11309700000.0 11309700000.0 11309700000.0 11309700000.0 11309700000.0 11309700000.0 11309700000.0 11309700000.0 11309700000.0 11309700000.0 11309700000.0 11309700000.0 11309700000.0 11309700000.0 11309700000.0 11309700000.0 11309700000.0 11309700000.0 11309700000.0 11309700000.0 11309700000.0 11309700000.0 11309700000.0 11309700000.0 11309700000.0 11309700000.0 11309700000.0 11309700000.0 11309700000.0 11309700000.0 11309700000.0 11309700000.0 11309700000.0 11309700000.0 11309700000.0 11309700000.0 11309700000.0 11309700000.0 11309700000.0 11309700000.0 11309700000.0 11309700000.0 11309700000.0 11309700000.0 11309700000.0 11309700000.0 11309700000.0 11309700000.0 11309700000.0 11309700000.0 11309700000.0 11309700000.0 11309700000.0 11309700000.0 11309700000.0 11309700000.0 11309700000.0 11309700000.0 11309700000.0 11309700000.0 11309700000.0 11309700000.0 11309700000.0 11309700000.0 11309700000.0 11309700000.0 11309700000.0 11309700000.0 11309700000.0 11309700000.0 11309700000.0 11309700000.0 11309700000.0 11309700000.0 11309700000.0 11309700000.0 11309700000.0 11309700000.0 11309700000.0 11309700000.0 11309700000.0 11309700000.0 11309700000.0 11309700000.0 11309700000.0 11309700000.0 11309700000.0 11309700000.0 11309700000.0 11309700000.0 11309700000.0 11309700000.0 11309700000.0 11309700000.0 11309700000.0 11309700000.0 11309700000.0 11309700000.0 11309700000.0 11309700000.0 11309700000.0 11309700000.0 11309700000.0 11309700000.0 11309700000.0 11309700000.0 11309700000.0 11309700000.0 11309700000.0 11309700000.0 11309700000.0 11309700000.0 11309700000.0 11309700000.0 11309700000.0 11309700000.0 11309700000.0 11309700000.0 11309700000.0 11309700000.0 11309700000.0 11309700000.0 11309700000.0 11309700000.0 11309700000.0 11309700000.0 11309700000.0 11309700000.0 11309700000.0 11309700000.0 11309700000.0 11309700000.0 11309700000.0 11309700000.0 11309700000.0 11309700000.0 11309700000.0 11309700000.0 11309700000.0 11309700000.0 11309700000.0 11309700000.0 11309700000.0 11309700000.0 11309700000.0 11309700000.0 11309700000.0 11309700000.0 11309700000.0 11309700000.0 11309700000.0 11309700000.0 11309700000.0 11309700000.0 11309700000.0 11309700000.0 11309700000.0 11309700000.0 11309700000.0 11309700000.0 11309700000.0 11309700000.0 11309700000.0 11309700000.0 11309700000.0 11309700000.0 11309700000.0 11309700000.0 11309700000.0 11309700000.0 11309700000.0 11309700000.0 11309700000.0 11309700000.0 11309700000.0 11309700000.0 11309700000.0 11309700000.0 11309700000.0 11309700000.0 11309700000.0 11309700000.0 11309700000.0 11309700000.0 11309700000.0 11309700000.0 11309700000.0 11309700000.0 11309700000.0 11309700000.0 11309700000.0 11309700000.0 11309700000.0 11309700000.0 11309700000.0 11309700000.0 11309700000.0 11309700000.0 11309700000.0 11309700000.0 11309700000.0 11309700000.0 11309700000.0 11309700000.0 11309700000.0 11309700000.0 11309700000.0 11309700000.0 11309700000.0 11309700000.0 11309700000.0 11309700000.0 11309700000.0 11309700000.0 11309700000.0 11309700000.0 11309700000.0 11309700000.0 11309700000.0 11309700000.0 11309700000.0 11309700000.0 11309700000.0 11309700000.0 11309700000.0 11309700000.0 11309700000.0 11309700000.0 11309700000.0 11309700000.0 11309700000.0 11309700000.0 11309700000.0 11309700000.0 11309700000.0 11309700000.0 11309700000.0 11309700000.0 11309700000.0 11309700000.0 11309700000.0 11309700000.0 11309700000.0 11309700000.0 11309700000.0 11309700000.0 11309700000.0 11309700000.0 11309700000.0 11309700000.0 11309700000.0 11309700000.0 11309700000.0 11309700000.0 11309700000.0 11309700000.0 11309700000.0 11309700000.0 11309700000.0 11309700000.0 11309700000.0 11309700000.0 11309700000.0 11309700000.0 11309700000.0 11309700000.0 11309700000.0 11309700000.0 11309700000.0 11309700000.0 11309700000.0 11309700000.0 11309700000.0 11309700000.0 11309700000.0 11309700000.0 11309700000.0 11309700000.0 11309700000.0 11309700000.0 11309700000.0 11309700000.0 11309700000.0 11309700000.0 11309700000.0 11309700000.0 11309700000.0 11309700000.0 11309700000.0 11309700000.0 11309700000.0 11309700000.0 11309700000.0 11309700000.0 11309700000.0 11309700000.0 11309700000.0 11309700000.0 11309700000.0 11309700000.0 11309700000.0 11309700000.0 11309700000.0 11309700000.0 11309700000.0 11309700000.0 11309700000.0 11309700000.0 11309700000.0 11309700000.0 11309700000.0 11309700000.0 11309700000.0 11309700000.0 11309700000.0 11309700000.0 11309700000.0 11309700000.0 11309700000.0 11309700000.0 11309700000.0 11309700000.0 11309700000.0 11309700000.0 11309700000.0 11309700000.0 11309700000.0 11309700000.0 11309700000.0 11309700000.0 11309700000.0 11309700000.0 11309700000.0 11309700000.0 11309700000.0 11309700000.0 11309700000.0 11309700000.0 11309700000.0 11309700000.0 11309700000.0 11309700000.0 11309700000.0 11309700000.0 11309700000.0 11309700000.0 11309700000.0 11309700000.0 11309700000.0 11309700000.0 11309700000.0 11309700000.0 11309700000.0 11309700000.0 11309700000.0 11309700000.0 11309700000.0 11309700000.0 11309700000.0 11309700000.0 11309700000.0 11309700000.0 11309700000.0 11309700000.0 11309700000.0 11309700000.0 11309700000.0 11309700000.0 11309700000.0 11309700000.0 11309700000.0 11309700000.0 11309700000.0 11309700000.0 11309700000.0 11309700000.0 11309700000.0 11309700000.0 11309700000.0 11309700000.0 11309700000.0 11309700000.0 11309700000.0 11309700000.0 11309700000.0 11309700000.0 11309700000.0 11309700000.0 11309700000.0 11309700000.0 11309700000.0 11309700000.0 11309700000.0 11309700000.0 11309700000.0 11309700000.0 11309700000.0 11309700000.0 11309700000.0 11309700000.0 11309700000.0 11309700000.0 11309700000.0 11309700000.0 11309700000.0 11309700000.0 11309700000.0 11309700000.0 11309700000.0 11309700000.0 11309700000.0 11309700000.0 11309700000.0 11309700000.0 11309700000.0 11309700000.0 11309700000.0 11309700000.0 11309700000.0 11309700000.0 11309700000.0 11309700000.0 11309700000.0 11309700000.0 11309700000.0 11309700000.0 11309700000.0 11309700000.0 11309700000.0 11309700000.0 11309700000.0 11309700000.0 11309700000.0 11309700000.0 11309700000.0 11309700000.0 11309700000.0 11309700000.0 11309700000.0 11309700000.0 11309700000.0 11309700000.0 11309700000.0 11309700000.0 11309700000.0 11309700000.0 11309700000.0 11309700000.0 11309700000.0 11309700000.0 11309700000.0 11309700000.0 11309700000.0 11309700000.0 11309700000.0 11309700000.0 11309700000.0 11309700000.0 11309700000.0 11309700000.0 11309700000.0 11309700000.0 11309700000.0 11309700000.0 11309700000.0 11309700000.0 11309700000.0 11309700000.0 11309700000.0 11309700000.0 11309700000.0 11309700000.0 11309700000.0 11309700000.0 11309700000.0 11309700000.0 11309700000.0 11309700000.0 11309700000.0 11309700000.0 11309700000.0 11309700000.0 11309700000.0 11309700000.0 11309700000.0 11309700000.0 11309700000.0 11309700000.0 11309700000.0 11309700000.0 11309700000.0 11309700000.0 11309700000.0 11309700000.0 11309700000.0 11309700000.0 11309700000.0 11309700000.0 11309700000.0 11309700000.0 11309700000.0 11309700000.0 11309700000.0 11309700000.0 11309700000.0 11309700000.0 11309700000.0 11309700000.0 11309700000.0 11309700000.0 11309700000.0 11309700000.0 11309700000.0 11309700000.0 11309700000.0 11309700000.0 11309700000.0 11309700000.0 11309700000.0 11309700000.0 11309700000.0 11309700000.0 11309700000.0 11309700000.0 11309700000.0 11309700000.0 11309700000.0 11309700000.0 11309700000.0 11309700000.0 11309700000.0 11309700000.0 11309700000.0 11309700000.0 11309700000.0 11309700000.0 11309700000.0 11309700000.0 11309700000.0 11309700000.0 11309700000.0 11309700000.0 11309700000.0 11309700000.0 11309700000.0 11309700000.0 11309700000.0 11309700000.0 11309700000.0 11309700000.0 11309700000.0 11309700000.0 11309700000.0 11309700000.0 11309700000.0 11309700000.0 11309700000.0 11309700000.0 11309700000.0 11309700000.0 11309700000.0 11309700000.0 11309700000.0 11309700000.0 11309700000.0 11309700000.0 11309700000.0 11309700000.0 11309700000.0 11309700000.0 11309700000.0 11309700000.0 11309700000.0 11309700000.0 11309700000.0 11309700000.0 11309700000.0 11309700000.0 11309700000.0 11309700000.0 11309700000.0 11309700000.0 11309700000.0 11309700000.0 11309700000.0 11309700000.0 11309700000.0 11309700000.0 11309700000.0 11309700000.0 11309700000.0 11309700000.0 11309700000.0 11309700000.0 11309700000.0 11309700000.0 11309700000.0 11309700000.0 11309700000.0 11309700000.0 11309700000.0 11309700000.0 11309700000.0 11309700000.0 11309700000.0 11309700000.0 11309700000.0 11309700000.0 11309700000.0 11309700000.0 11309700000.0 11309700000.0 11309700000.0 11309700000.0 11309700000.0 11309700000.0 11309700000.0 11309700000.0 11309700000.0 11309700000.0 11309700000.0 11309700000.0 11309700000.0 11309700000.0 11309700000.0 11309700000.0 11309700000.0 11309700000.0 11309700000.0 11309700000.0 11309700000.0 11309700000.0 11309700000.0 11309700000.0 11309700000.0 11309700000.0 11309700000.0 11309700000.0 11309700000.0 11309700000.0 11309700000.0 11309700000.0 11309700000.0 11309700000.0 11309700000.0 11309700000.0 11309700000.0 11309700000.0 11309700000.0 11309700000.0 11309700000.0 11309700000.0 11309700000.0 11309700000.0 11309700000.0 11309700000.0 11309700000.0 11309700000.0 11309700000.0 11309700000.0 11309700000.0 11309700000.0 11309700000.0 11309700000.0 11309700000.0 11309700000.0 11309700000.0 11309700000.0 11309700000.0 11309700000.0 11309700000.0 11309700000.0 11309700000.0 11309700000.0 11309700000.0 11309700000.0 11309700000.0 11309700000.0 11309700000.0 11309700000.0 11309700000.0 11309700000.0 11309700000.0 11309700000.0 11309700000.0 11309700000.0 11309700000.0 11309700000.0 11309700000.0 11309700000.0 11309700000.0 11309700000.0 11309700000.0 11309700000.0 11309700000.0 11309700000.0 11309700000.0 11309700000.0 11309700000.0 11309700000.0 11309700000.0 11309700000.0 11309700000.0 11309700000.0 11309700000.0 11309700000.0 11309700000.0 11309700000.0 11309700000.0 11309700000.0 11309700000.0 11309700000.0 11309700000.0 11309700000.0 11309700000.0 11309700000.0 11309700000.0 11309700000.0 11309700000.0 11309700000.0 11309700000.0 11309700000.0 11309700000.0 11309700000.0 11309700000.0 11309700000.0 11309700000.0 11309700000.0 11309700000.0 11309700000.0 11309700000.0 11309700000.0 11309700000.0 11309700000.0 11309700000.0 11309700000.0 11309700000.0 11309700000.0 11309700000.0 11309700000.0 11309700000.0 11309700000.0 11309700000.0 11309700000.0 11309700000.0 11309700000.0 11309700000.0 11309700000.0 11309700000.0 11309700000.0 11309700000.0 11309700000.0 11309700000.0 11309700000.0 11309700000.0 11309700000.0 11309700000.0 11309700000.0 11309700000.0 11309700000.0 11309700000.0 11309700000.0 11309700000.0 11309700000.0 11309700000.0 11309700000.0 11309700000.0 11309700000.0 11309700000.0 11309700000.0 11309700000.0 11309700000.0 11309700000.0 11309700000.0 11309700000.0 11309700000.0 11309700000.0 11309700000.0 11309700000.0 11309700000.0 11309700000.0 11309700000.0 11309700000.0 11309700000.0 11309700000.0 11309700000.0 11309700000.0 11309700000.0 11309700000.0 11309700000.0 11309700000.0 11309700000.0 11309700000.0 11309700000.0 11309700000.0 11309700000.0 11309700000.0 11309700000.0 11309700000.0 11309700000.0 11309700000.0 11309700000.0 11309700000.0 11309700000.0 11309700000.0 11309700000.0 11309700000.0 11309700000.0 11309700000.0 11309700000.0 11309700000.0 11309700000.0 11309700000.0 11309700000.0 11309700000.0 11309700000.0 11309700000.0 11309700000.0 11309700000.0 11309700000.0 11309700000.0 11309700000.0 11309700000.0 11309700000.0 11309700000.0 11309700000.0 11309700000.0 11309700000.0 11309700000.0 11309700000.0 11309700000.0 11309700000.0 11309700000.0 11309700000.0 11309700000.0 11309700000.0 11309700000.0 11309700000.0 11309700000.0 11309700000.0 11309700000.0 11309700000.0 11309700000.0 11309700000.0 11309700000.0 11309700000.0 11309700000.0 11309700000.0 11309700000.0 11309700000.0 11309700000.0 11309700000.0 11309700000.0 11309700000.0 11309700000.0 11309700000.0 11309700000.0 11309700000.0 11309700000.0 11309700000.0 11309700000.0 11309700000.0 11309700000.0 11309700000.0 11309700000.0 11309700000.0 11309700000.0 11309700000.0 11309700000.0 11309700000.0 11309700000.0 11309700000.0 11309700000.0 11309700000.0 11309700000.0 11309700000.0 11309700000.0 11309700000.0 11309700000.0 11309700000.0 11309700000.0 11309700000.0 11309700000.0 11309700000.0 11309700000.0 11309700000.0 11309700000.0 11309700000.0 11309700000.0 11309700000.0 11309700000.0 11309700000.0 11309700000.0 11309700000.0 11309700000.0 11309700000.0 11309700000.0 11309700000.0 11309700000.0 11309700000.0 11309700000.0 11309700000.0 11309700000.0 11309700000.0 11309700000.0 11309700000.0 11309700000.0 11309700000.0 11309700000.0 11309700000.0 11309700000.0 11309700000.0 11309700000.0 11309700000.0 11309700000.0 11309700000.0 11309700000.0 11309700000.0 11309700000.0 11309700000.0 11309700000.0 11309700000.0 11309700000.0 11309700000.0 11309700000.0 11309700000.0 11309700000.0 11309700000.0 11309700000.0 11309700000.0 11309700000.0 11309700000.0 11309700000.0 11309700000.0 11309700000.0 11309700000.0 11309700000.0 11309700000.0 11309700000.0 11309700000.0 11309700000.0 11309700000.0 11309700000.0 11309700000.0 11309700000.0 11309700000.0 11309700000.0 11309700000.0 11309700000.0 11309700000.0 11309700000.0 11309700000.0 11309700000.0 11309700000.0 11309700000.0 11309700000.0 11309700000.0 11309700000.0 11309700000.0 11309700000.0 11309700000.0 11309700000.0 11309700000.0 11309700000.0 11309700000.0 11309700000.0 11309700000.0 11309700000.0 11309700000.0 11309700000.0 11309700000.0 11309700000.0 11309700000.0 11309700000.0 11309700000.0 11309700000.0 11309700000.0 11309700000.0 11309700000.0 11309700000.0 11309700000.0 11309700000.0 11309700000.0 11309700000.0 11309700000.0 11309700000.0 11309700000.0 11309700000.0 11309700000.0 11309700000.0 11309700000.0 11309700000.0 11309700000.0 11309700000.0 11309700000.0 11309700000.0 11309700000.0 11309700000.0 11309700000.0 11309700000.0 11309700000.0 11309700000.0 11309700000.0 11309700000.0 11309700000.0 11309700000.0 11309700000.0 11309700000.0 11309700000.0 11309700000.0 11309700000.0 11309700000.0 11309700000.0 11309700000.0 11309700000.0 11309700000.0 11309700000.0 11309700000.0 11309700000.0 11309700000.0 11309700000.0 11309700000.0 11309700000.0 11309700000.0 11309700000.0 11309700000.0 11309700000.0 11309700000.0 11309700000.0 11309700000.0 11309700000.0 11309700000.0 11309700000.0 11309700000.0 11309700000.0 11309700000.0 11309700000.0 11309700000.0 11309700000.0 11309700000.0 11309700000.0 11309700000.0 11309700000.0 11309700000.0 11309700000.0 11309700000.0 11309700000.0 11309700000.0 11309700000.0 11309700000.0 11309700000.0 11309700000.0 11309700000.0 11309700000.0 11309700000.0 11309700000.0 11309700000.0 11309700000.0 11309700000.0 11309700000.0 11309700000.0 11309700000.0 11309700000.0 11309700000.0 11309700000.0 11309700000.0 11309700000.0 11309700000.0 11309700000.0 11309700000.0 11309700000.0 11309700000.0 11309700000.0 11309700000.0 11309700000.0 11309700000.0 11309700000.0 11309700000.0 11309700000.0 11309700000.0 11309700000.0 11309700000.0 11309700000.0 11309700000.0 11309700000.0 11309700000.0 11309700000.0 11309700000.0 11309700000.0 11309700000.0 11309700000.0 11309700000.0 11309700000.0 11309700000.0 11309700000.0 11309700000.0 11309700000.0 11309700000.0 11309700000.0 11309700000.0 11309700000.0 11309700000.0 11309700000.0 11309700000.0 11309700000.0 11309700000.0 11309700000.0 11309700000.0 11309700000.0 11309700000.0 11309700000.0 11309700000.0 11309700000.0 11309700000.0 11309700000.0 11309700000.0 11309700000.0 11309700000.0 11309700000.0 11309700000.0 11309700000.0 11309700000.0 11309700000.0 11309700000.0 11309700000.0 11309700000.0 11309700000.0 11309700000.0 11309700000.0 11309700000.0 11309700000.0 11309700000.0 11309700000.0 11309700000.0 11309700000.0 11309700000.0 11309700000.0 11309700000.0 11309700000.0 11309700000.0 11309700000.0 11309700000.0 11309700000.0 11309700000.0 11309700000.0 11309700000.0 11309700000.0 11309700000.0 11309700000.0 11309700000.0 11309700000.0 11309700000.0 11309700000.0 11309700000.0 11309700000.0 11309700000.0 11309700000.0 11309700000.0 11309700000.0 11309700000.0 11309700000.0 11309700000.0 11309700000.0 11309700000.0 11309700000.0 11309700000.0 11309700000.0 11309700000.0 11309700000.0 11309700000.0 11309700000.0 11309700000.0 11309700000.0 11309700000.0 11309700000.0 11309700000.0 11309700000.0 11309700000.0 11309700000.0 11309700000.0 11309700000.0 11309700000.0 11309700000.0 11309700000.0 11309700000.0 11309700000.0 11309700000.0 11309700000.0 11309700000.0 11309700000.0 11309700000.0 11309700000.0 11309700000.0 11309700000.0 11309700000.0 11309700000.0 11309700000.0 11309700000.0 11309700000.0 11309700000.0 11309700000.0 11309700000.0 11309700000.0 11309700000.0 11309700000.0 11309700000.0 11309700000.0 11309700000.0 11309700000.0 11309700000.0 11309700000.0 11309700000.0 11309700000.0 11309700000.0 11309700000.0 11309700000.0 11309700000.0 11309700000.0 11309700000.0 11309700000.0 11309700000.0 11309700000.0 11309700000.0 11309700000.0 11309700000.0 11309700000.0 11309700000.0 11309700000.0 11309700000.0 11309700000.0 11309700000.0 11309700000.0 11309700000.0 11309700000.0 11309700000.0 11309700000.0 11309700000.0 11309700000.0 11309700000.0 11309700000.0 11309700000.0 11309700000.0 11309700000.0 11309700000.0 11309700000.0 11309700000.0 11309700000.0 11309700000.0 11309700000.0 11309700000.0 11309700000.0 11309700000.0 11309700000.0 11309700000.0 11309700000.0 11309700000.0 11309700000.0 11309700000.0 11309700000.0 11309700000.0 11309700000.0 11309700000.0 11309700000.0 11309700000.0 11309700000.0 11309700000.0 11309700000.0 11309700000.0 11309700000.0 11309700000.0 11309700000.0 11309700000.0 11309700000.0 11309700000.0 11309700000.0 11309700000.0 11309700000.0 11309700000.0 11309700000.0 11309700000.0 11309700000.0 11309700000.0 11309700000.0 11309700000.0 11309700000.0 11309700000.0 11309700000.0 11309700000.0 11309700000.0 11309700000.0 11309700000.0 11309700000.0 11309700000.0 11309700000.0 11309700000.0 11309700000.0 11309700000.0 11309700000.0 11309700000.0 11309700000.0 11309700000.0 11309700000.0 11309700000.0 11309700000.0 11309700000.0 11309700000.0 11309700000.0 11309700000.0 11309700000.0 11309700000.0 11309700000.0 11309700000.0 11309700000.0 11309700000.0 11309700000.0 11309700000.0 11309700000.0 11309700000.0 11309700000.0 11309700000.0 11309700000.0 11309700000.0 11309700000.0 11309700000.0 11309700000.0 11309700000.0 11309700000.0 11309700000.0 11309700000.0 11309700000.0 11309700000.0 11309700000.0 11309700000.0 11309700000.0 11309700000.0 11309700000.0 11309700000.0 11309700000.0 11309700000.0 11309700000.0 11309700000.0 11309700000.0 11309700000.0 11309700000.0 11309700000.0 11309700000.0 11309700000.0 11309700000.0 11309700000.0 11309700000.0 11309700000.0 11309700000.0 11309700000.0 11309700000.0 11309700000.0 11309700000.0 11309700000.0 11309700000.0 11309700000.0 11309700000.0 11309700000.0 11309700000.0 11309700000.0 11309700000.0 11309700000.0 11309700000.0 11309700000.0 11309700000.0 11309700000.0 11309700000.0 11309700000.0 11309700000.0 11309700000.0 11309700000.0 11309700000.0 11309700000.0 11309700000.0 11309700000.0 11309700000.0 11309700000.0 11309700000.0 11309700000.0 11309700000.0 11309700000.0 11309700000.0 11309700000.0 11309700000.0 11309700000.0 11309700000.0 11309700000.0 11309700000.0 11309700000.0 11309700000.0 11309700000.0 11309700000.0 11309700000.0 11309700000.0 11309700000.0 11309700000.0 11309700000.0 11309700000.0 11309700000.0 11309700000.0 11309700000.0 11309700000.0 11309700000.0 11309700000.0 11309700000.0 11309700000.0 11309700000.0 11309700000.0 11309700000.0 11309700000.0 11309700000.0 11309700000.0 11309700000.0 11309700000.0 11309700000.0 11309700000.0 11309700000.0 11309700000.0 11309700000.0 11309700000.0 11309700000.0 11309700000.0 11309700000.0 11309700000.0 11309700000.0 11309700000.0 11309700000.0 11309700000.0 11309700000.0 11309700000.0 11309700000.0 11309700000.0 11309700000.0 11309700000.0 11309700000.0 11309700000.0 11309700000.0 11309700000.0 11309700000.0 11309700000.0 11309700000.0 11309700000.0 11309700000.0 11309700000.0 11309700000.0 11309700000.0 11309700000.0 11309700000.0 11309700000.0 11309700000.0 11309700000.0 11309700000.0 11309700000.0 11309700000.0 11309700000.0 11309700000.0 11309700000.0 11309700000.0 11309700000.0 11309700000.0 11309700000.0 11309700000.0 11309700000.0 11309700000.0 11309700000.0 11309700000.0 11309700000.0 11309700000.0 11309700000.0 11309700000.0 11309700000.0 11309700000.0 11309700000.0 11309700000.0 11309700000.0 11309700000.0 11309700000.0 11309700000.0 11309700000.0 11309700000.0 11309700000.0 11309700000.0 11309700000.0 11309700000.0 11309700000.0 11309700000.0 11309700000.0 11309700000.0 11309700000.0 11309700000.0 11309700000.0 11309700000.0 11309700000.0 11309700000.0 11309700000.0 11309700000.0 11309700000.0 11309700000.0 11309700000.0 11309700000.0 11309700000.0 11309700000.0 11309700000.0 11309700000.0 11309700000.0 11309700000.0 11309700000.0 11309700000.0 11309700000.0 11309700000.0 11309700000.0 11309700000.0 11309700000.0 11309700000.0 11309700000.0 11309700000.0 11309700000.0 11309700000.0 11309700000.0 11309700000.0 11309700000.0 11309700000.0 11309700000.0 11309700000.0 11309700000.0 11309700000.0 11309700000.0 11309700000.0 11309700000.0 11309700000.0 11309700000.0 11309700000.0 11309700000.0 11309700000.0 11309700000.0 11309700000.0 11309700000.0 11309700000.0 11309700000.0 11309700000.0 11309700000.0 11309700000.0 11309700000.0 11309700000.0 11309700000.0 11309700000.0 11309700000.0 11309700000.0 11309700000.0 11309700000.0 11309700000.0 11309700000.0 11309700000.0 11309700000.0 11309700000.0 11309700000.0 11309700000.0 11309700000.0 11309700000.0 11309700000.0 11309700000.0 11309700000.0 11309700000.0 11309700000.0 11309700000.0 11309700000.0 11309700000.0 11309700000.0 11309700000.0 11309700000.0 11309700000.0 11309700000.0 11309700000.0 11309700000.0 11309700000.0 11309700000.0 11309700000.0 11309700000.0 11309700000.0 11309700000.0 11309700000.0 11309700000.0 11309700000.0 11309700000.0 11309700000.0 11309700000.0 11309700000.0 11309700000.0 11309700000.0 11309700000.0 11309700000.0 11309700000.0 11309700000.0 11309700000.0 11309700000.0 11309700000.0 11309700000.0 11309700000.0 11309700000.0 11309700000.0 11309700000.0 11309700000.0 11309700000.0 11309700000.0 11309700000.0 11309700000.0 11309700000.0 11309700000.0 11309700000.0 11309700000.0 11309700000.0 11309700000.0 11309700000.0 11309700000.0 11309700000.0 11309700000.0 11309700000.0 11309700000.0 11309700000.0 11309700000.0 11309700000.0 11309700000.0 11309700000.0 11309700000.0 11309700000.0 11309700000.0 11309700000.0 11309700000.0 11309700000.0 11309700000.0 11309700000.0 11309700000.0 11309700000.0 11309700000.0 11309700000.0 11309700000.0 11309700000.0 11309700000.0 11309700000.0 11309700000.0 11309700000.0 11309700000.0 11309700000.0 11309700000.0 11309700000.0 11309700000.0 11309700000.0 11309700000.0 11309700000.0 11309700000.0 11309700000.0 11309700000.0 11309700000.0 11309700000.0 11309700000.0 11309700000.0 11309700000.0 11309700000.0 11309700000.0 11309700000.0 11309700000.0 11309700000.0 11309700000.0 11309700000.0 11309700000.0 11309700000.0 11309700000.0 11309700000.0 11309700000.0 11309700000.0 11309700000.0 11309700000.0 11309700000.0 11309700000.0 11309700000.0 11309700000.0 11309700000.0 11309700000.0 11309700000.0 11309700000.0 11309700000.0 11309700000.0 11309700000.0 11309700000.0 11309700000.0 11309700000.0 11309700000.0 11309700000.0 11309700000.0 11309700000.0 11309700000.0 11309700000.0 11309700000.0 11309700000.0 11309700000.0 11309700000.0 11309700000.0 11309700000.0 11309700000.0 11309700000.0 11309700000.0 11309700000.0 11309700000.0 11309700000.0 11309700000.0 11309700000.0 11309700000.0 11309700000.0 11309700000.0 11309700000.0 11309700000.0 11309700000.0 11309700000.0 11309700000.0 11309700000.0 11309700000.0 11309700000.0 11309700000.0 11309700000.0 11309700000.0 11309700000.0 11309700000.0 11309700000.0 11309700000.0 11309700000.0 11309700000.0 11309700000.0 11309700000.0 11309700000.0 11309700000.0 11309700000.0 11309700000.0 11309700000.0 11309700000.0 11309700000.0 11309700000.0 11309700000.0 11309700000.0 11309700000.0 11309700000.0 11309700000.0 11309700000.0 11309700000.0 11309700000.0 11309700000.0 11309700000.0 11309700000.0 11309700000.0 11309700000.0 11309700000.0 11309700000.0 11309700000.0 11309700000.0 11309700000.0 11309700000.0 11309700000.0 11309700000.0 11309700000.0 11309700000.0 11309700000.0 11309700000.0 11309700000.0 11309700000.0 11309700000.0 11309700000.0 11309700000.0 11309700000.0 11309700000.0 11309700000.0 11309700000.0 11309700000.0 11309700000.0 11309700000.0 11309700000.0 11309700000.0 11309700000.0 11309700000.0 11309700000.0 11309700000.0 11309700000.0 11309700000.0 11309700000.0 11309700000.0 11309700000.0 11309700000.0 11309700000.0 11309700000.0 11309700000.0 11309700000.0 11309700000.0 11309700000.0 11309700000.0 11309700000.0 11309700000.0 11309700000.0 11309700000.0 11309700000.0 11309700000.0 11309700000.0 11309700000.0 11309700000.0 11309700000.0 11309700000.0 11309700000.0 11309700000.0 11309700000.0 11309700000.0 11309700000.0 11309700000.0 11309700000.0 11309700000.0 11309700000.0 11309700000.0 11309700000.0 11309700000.0 11309700000.0 11309700000.0 11309700000.0 11309700000.0 11309700000.0 11309700000.0 11309700000.0 11309700000.0 11309700000.0 11309700000.0 11309700000.0 11309700000.0 11309700000.0 11309700000.0 11309700000.0 11309700000.0 11309700000.0 11309700000.0 11309700000.0 11309700000.0 11309700000.0 11309700000.0 11309700000.0 11309700000.0 11309700000.0 11309700000.0 11309700000.0 11309700000.0 11309700000.0 11309700000.0 11309700000.0 11309700000.0 11309700000.0 11309700000.0 11309700000.0 11309700000.0 11309700000.0 11309700000.0 11309700000.0 11309700000.0 11309700000.0 11309700000.0 11309700000.0 11309700000.0 11309700000.0 11309700000.0 11309700000.0 11309700000.0 11309700000.0 11309700000.0 11309700000.0 11309700000.0 11309700000.0 11309700000.0 11309700000.0 11309700000.0 11309700000.0 11309700000.0 11309700000.0 11309700000.0 11309700000.0 11309700000.0 11309700000.0 11309700000.0 11309700000.0 11309700000.0 11309700000.0 11309700000.0 11309700000.0 11309700000.0 11309700000.0 11309700000.0 11309700000.0 11309700000.0 11309700000.0 11309700000.0 11309700000.0 11309700000.0 11309700000.0 11309700000.0 11309700000.0 11309700000.0 11309700000.0 11309700000.0 11309700000.0 11309700000.0 11309700000.0 11309700000.0 11309700000.0 11309700000.0 11309700000.0 11309700000.0 11309700000.0 11309700000.0 11309700000.0 11309700000.0 11309700000.0 11309700000.0 11309700000.0 11309700000.0 11309700000.0 11309700000.0 11309700000.0 11309700000.0 11309700000.0 11309700000.0 11309700000.0 11309700000.0 11309700000.0 11309700000.0 11309700000.0 11309700000.0 11309700000.0 11309700000.0 11309700000.0 11309700000.0 11309700000.0 11309700000.0 11309700000.0 11309700000.0 11309700000.0 11309700000.0 11309700000.0 11309700000.0 11309700000.0 11309700000.0 11309700000.0 11309700000.0 11309700000.0 11309700000.0 11309700000.0 11309700000.0 11309700000.0 11309700000.0 11309700000.0 11309700000.0 11309700000.0 11309700000.0 11309700000.0 11309700000.0 11309700000.0 11309700000.0 11309700000.0 11309700000.0 11309700000.0 11309700000.0 11309700000.0 11309700000.0 11309700000.0 11309700000.0 11309700000.0 11309700000.0 11309700000.0 11309700000.0 11309700000.0 11309700000.0 11309700000.0 11309700000.0 11309700000.0 11309700000.0 11309700000.0 11309700000.0 11309700000.0 11309700000.0 11309700000.0 11309700000.0 11309700000.0 11309700000.0 11309700000.0 11309700000.0 11309700000.0 11309700000.0 11309700000.0 11309700000.0 11309700000.0 11309700000.0 11309700000.0 11309700000.0 11309700000.0 11309700000.0 11309700000.0 11309700000.0 11309700000.0 11309700000.0 11309700000.0 11309700000.0 11309700000.0 11309700000.0 11309700000.0 11309700000.0 11309700000.0 11309700000.0 11309700000.0 11309700000.0 11309700000.0 11309700000.0 11309700000.0 11309700000.0 11309700000.0 11309700000.0 11309700000.0 11309700000.0 11309700000.0 11309700000.0 11309700000.0 11309700000.0 11309700000.0 11309700000.0 11309700000.0 11309700000.0 11309700000.0 11309700000.0 11309700000.0 11309700000.0 11309700000.0 11309700000.0 11309700000.0 11309700000.0 11309700000.0 11309700000.0 11309700000.0 11309700000.0 11309700000.0 11309700000.0 11309700000.0 11309700000.0 11309700000.0 11309700000.0 11309700000.0 11309700000.0 11309700000.0 11309700000.0 11309700000.0 11309700000.0 11309700000.0 11309700000.0 11309700000.0 11309700000.0 11309700000.0 11309700000.0 11309700000.0 11309700000.0 11309700000.0 11309700000.0 11309700000.0 11309700000.0 11309700000.0 11309700000.0 11309700000.0 11309700000.0 11309700000.0 11309700000.0 11309700000.0 11309700000.0 11309700000.0 11309700000.0 11309700000.0 11309700000.0 11309700000.0 11309700000.0 11309700000.0 11309700000.0 11309700000.0 11309700000.0 11309700000.0 11309700000.0 11309700000.0 11309700000.0 11309700000.0 11309700000.0 11309700000.0 11309700000.0 11309700000.0 11309700000.0 11309700000.0 11309700000.0 11309700000.0 11309700000.0 11309700000.0 11309700000.0 11309700000.0 11309700000.0 11309700000.0 11309700000.0 11309700000.0 11309700000.0 11309700000.0 11309700000.0 11309700000.0 11309700000.0 11309700000.0 11309700000.0 11309700000.0 11309700000.0 11309700000.0 11309700000.0 11309700000.0 11309700000.0 11309700000.0 11309700000.0 11309700000.0 11309700000.0 11309700000.0 11309700000.0 11309700000.0 11309700000.0 11309700000.0 11309700000.0 11309700000.0 11309700000.0 11309700000.0 11309700000.0 11309700000.0 11309700000.0 11309700000.0 11309700000.0 11309700000.0 11309700000.0 11309700000.0 11309700000.0 11309700000.0 11309700000.0 11309700000.0 11309700000.0 11309700000.0 11309700000.0 11309700000.0 11309700000.0 11309700000.0 11309700000.0 11309700000.0 11309700000.0 11309700000.0 11309700000.0 11309700000.0 11309700000.0 11309700000.0 11309700000.0 11309700000.0 11309700000.0 11309700000.0 11309700000.0 11309700000.0 11309700000.0 11309700000.0 11309700000.0 11309700000.0 11309700000.0 11309700000.0 11309700000.0 11309700000.0 11309700000.0 11309700000.0 11309700000.0 11309700000.0 11309700000.0 11309700000.0 11309700000.0 11309700000.0 11309700000.0 11309700000.0 11309700000.0 11309700000.0 11309700000.0 11309700000.0 11309700000.0 11309700000.0 11309700000.0 11309700000.0 11309700000.0 11309700000.0 11309700000.0 11309700000.0 11309700000.0 11309700000.0 11309700000.0 11309700000.0 11309700000.0 11309700000.0 11309700000.0 11309700000.0 11309700000.0 11309700000.0 11309700000.0 11309700000.0 11309700000.0 11309700000.0 11309700000.0 11309700000.0 11309700000.0 11309700000.0 11309700000.0 11309700000.0 11309700000.0 11309700000.0 11309700000.0 11309700000.0 11309700000.0 11309700000.0 11309700000.0 11309700000.0 11309700000.0 11309700000.0 11309700000.0 11309700000.0 11309700000.0 11309700000.0 11309700000.0 11309700000.0 11309700000.0 11309700000.0 11309700000.0 11309700000.0 11309700000.0 11309700000.0 11309700000.0 11309700000.0 11309700000.0 11309700000.0 11309700000.0 11309700000.0 11309700000.0 11309700000.0 11309700000.0 11309700000.0 11309700000.0 11309700000.0 11309700000.0 11309700000.0 11309700000.0 11309700000.0 11309700000.0 11309700000.0 11309700000.0 11309700000.0 11309700000.0 11309700000.0 11309700000.0 11309700000.0 11309700000.0 11309700000.0 11309700000.0 11309700000.0 11309700000.0 11309700000.0 11309700000.0 11309700000.0 11309700000.0 11309700000.0 11309700000.0 11309700000.0 11309700000.0 11309700000.0 11309700000.0 11309700000.0 11309700000.0 11309700000.0 11309700000.0 11309700000.0 11309700000.0 11309700000.0 11309700000.0 11309700000.0 11309700000.0 11309700000.0 11309700000.0 11309700000.0 11309700000.0 11309700000.0 11309700000.0 11309700000.0 11309700000.0 11309700000.0 11309700000.0 11309700000.0 11309700000.0 11309700000.0 11309700000.0 11309700000.0 11309700000.0 11309700000.0 11309700000.0 11309700000.0 11309700000.0 11309700000.0 11309700000.0 11309700000.0 11309700000.0 11309700000.0 11309700000.0 11309700000.0 11309700000.0 11309700000.0 11309700000.0 11309700000.0 11309700000.0 11309700000.0 11309700000.0 11309700000.0 11309700000.0 11309700000.0 11309700000.0 11309700000.0 11309700000.0 11309700000.0 11309700000.0 11309700000.0 11309700000.0 11309700000.0 11309700000.0 11309700000.0 11309700000.0 11309700000.0 11309700000.0 11309700000.0 11309700000.0 11309700000.0 11309700000.0 11309700000.0 11309700000.0 11309700000.0 11309700000.0 11309700000.0 11309700000.0 11309700000.0 11309700000.0 11309700000.0 11309700000.0 11309700000.0 11309700000.0 11309700000.0 11309700000.0 11309700000.0 11309700000.0 11309700000.0 11309700000.0 11309700000.0 11309700000.0 11309700000.0 11309700000.0 11309700000.0 11309700000.0 11309700000.0 11309700000.0 11309700000.0 11309700000.0 11309700000.0 11309700000.0 11309700000.0 11309700000.0 11309700000.0 11309700000.0 11309700000.0 11309700000.0 11309700000.0 11309700000.0 11309700000.0 11309700000.0 11309700000.0 11309700000.0 11309700000.0 11309700000.0 11309700000.0 11309700000.0 11309700000.0 11309700000.0 11309700000.0 11309700000.0 11309700000.0 11309700000.0 11309700000.0 11309700000.0 11309700000.0 11309700000.0 11309700000.0 11309700000.0 11309700000.0 11309700000.0 11309700000.0 11309700000.0 11309700000.0 11309700000.0 11309700000.0 11309700000.0 11309700000.0 11309700000.0 11309700000.0 11309700000.0 11309700000.0 11309700000.0 11309700000.0 11309700000.0 11309700000.0 11309700000.0 11309700000.0 11309700000.0 11309700000.0 11309700000.0 11309700000.0 11309700000.0 11309700000.0 11309700000.0 11309700000.0 11309700000.0 11309700000.0 11309700000.0 11309700000.0 11309700000.0 11309700000.0 11309700000.0 11309700000.0 11309700000.0 11309700000.0 11309700000.0 11309700000.0 11309700000.0 11309700000.0 11309700000.0 11309700000.0 11309700000.0 11309700000.0 11309700000.0 11309700000.0 11309700000.0 11309700000.0 11309700000.0 11309700000.0 11309700000.0 11309700000.0 11309700000.0 11309700000.0 11309700000.0 11309700000.0 11309700000.0 11309700000.0 11309700000.0 11309700000.0 11309700000.0 11309700000.0 11309700000.0 11309700000.0 11309700000.0 11309700000.0 11309700000.0 11309700000.0 11309700000.0 11309700000.0 11309700000.0 11309700000.0 11309700000.0 11309700000.0 11309700000.0 11309700000.0 11309700000.0 11309700000.0 11309700000.0 11309700000.0 11309700000.0 11309700000.0 11309700000.0 11309700000.0 11309700000.0 11309700000.0 11309700000.0 11309700000.0 11309700000.0 11309700000.0 11309700000.0 11309700000.0 11309700000.0 11309700000.0 11309700000.0 11309700000.0 11309700000.0 11309700000.0 11309700000.0 11309700000.0 11309700000.0 11309700000.0 11309700000.0 11309700000.0 11309700000.0 11309700000.0 11309700000.0 11309700000.0 11309700000.0 11309700000.0 11309700000.0 11309700000.0 11309700000.0 11309700000.0 11309700000.0 11309700000.0 11309700000.0 11309700000.0 11309700000.0 11309700000.0 11309700000.0 11309700000.0 11309700000.0 11309700000.0 11309700000.0 11309700000.0 11309700000.0 11309700000.0 11309700000.0 11309700000.0 11309700000.0 11309700000.0 11309700000.0 11309700000.0 11309700000.0 11309700000.0 11309700000.0 11309700000.0 11309700000.0 11309700000.0 11309700000.0 11309700000.0 11309700000.0 11309700000.0 11309700000.0 11309700000.0 11309700000.0 11309700000.0 11309700000.0 11309700000.0 11309700000.0 11309700000.0 11309700000.0 11309700000.0 11309700000.0 11309700000.0 11309700000.0 11309700000.0 11309700000.0 11309700000.0 11309700000.0 11309700000.0 11309700000.0 11309700000.0 11309700000.0 11309700000.0 11309700000.0 11309700000.0 11309700000.0 11309700000.0 11309700000.0 11309700000.0 11309700000.0 11309700000.0 11309700000.0 11309700000.0 11309700000.0 11309700000.0 11309700000.0 11309700000.0 11309700000.0 11309700000.0 11309700000.0 11309700000.0 11309700000.0 11309700000.0 11309700000.0 11309700000.0 11309700000.0 11309700000.0 11309700000.0 11309700000.0 11309700000.0 11309700000.0 11309700000.0 11309700000.0 11309700000.0 11309700000.0 11309700000.0 11309700000.0 11309700000.0 11309700000.0 11309700000.0 11309700000.0 11309700000.0 11309700000.0 11309700000.0 11309700000.0 11309700000.0 11309700000.0 11309700000.0 11309700000.0 11309700000.0 11309700000.0 11309700000.0 11309700000.0 11309700000.0 11309700000.0 11309700000.0 11309700000.0 11309700000.0 11309700000.0 11309700000.0 11309700000.0 11309700000.0 11309700000.0 11309700000.0 11309700000.0 11309700000.0 11309700000.0 11309700000.0 11309700000.0 11309700000.0 11309700000.0 11309700000.0 11309700000.0 11309700000.0 11309700000.0 11309700000.0 11309700000.0 11309700000.0 11309700000.0 11309700000.0 11309700000.0 11309700000.0 11309700000.0 11309700000.0 11309700000.0 11309700000.0 11309700000.0 11309700000.0 11309700000.0 11309700000.0 11309700000.0 11309700000.0 11309700000.0 11309700000.0 11309700000.0 11309700000.0 11309700000.0 11309700000.0 11309700000.0 11309700000.0 11309700000.0 11309700000.0 11309700000.0 11309700000.0 11309700000.0 11309700000.0 11309700000.0 11309700000.0 11309700000.0 11309700000.0 11309700000.0 11309700000.0 11309700000.0 11309700000.0 11309700000.0 11309700000.0 11309700000.0 11309700000.0 11309700000.0 11309700000.0 11309700000.0 11309700000.0 11309700000.0 11309700000.0 11309700000.0 11309700000.0 11309700000.0 11309700000.0 11309700000.0 11309700000.0 11309700000.0 11309700000.0 11309700000.0 11309700000.0 11309700000.0 11309700000.0 11309700000.0 11309700000.0 11309700000.0 11309700000.0 11309700000.0 11309700000.0 11309700000.0 11309700000.0 11309700000.0 11309700000.0 11309700000.0 11309700000.0 11309700000.0 11309700000.0 11309700000.0 11309700000.0 11309700000.0 11309700000.0 11309700000.0 11309700000.0 11309700000.0 11309700000.0 11309700000.0 11309700000.0 11309700000.0 11309700000.0 11309700000.0 11309700000.0 11309700000.0 11309700000.0 11309700000.0 11309700000.0 11309700000.0 11309700000.0 11309700000.0 11309700000.0 11309700000.0 11309700000.0 11309700000.0 11309700000.0 11309700000.0 11309700000.0 11309700000.0 11309700000.0 11309700000.0 11309700000.0 11309700000.0 11309700000.0 11309700000.0 11309700000.0 11309700000.0 11309700000.0 11309700000.0 11309700000.0 11309700000.0 11309700000.0 11309700000.0 11309700000.0 11309700000.0 11309700000.0 11309700000.0 11309700000.0 11309700000.0 11309700000.0 11309700000.0 11309700000.0 11309700000.0 11309700000.0 11309700000.0 11309700000.0 11309700000.0 11309700000.0 11309700000.0 11309700000.0 11309700000.0 11309700000.0 11309700000.0 11309700000.0 11309700000.0 11309700000.0 11309700000.0 11309700000.0 11309700000.0 11309700000.0 11309700000.0 11309700000.0 11309700000.0 11309700000.0 11309700000.0 11309700000.0 11309700000.0 11309700000.0 11309700000.0 11309700000.0 11309700000.0 11309700000.0 11309700000.0 11309700000.0 11309700000.0 11309700000.0 11309700000.0 11309700000.0 11309700000.0 11309700000.0 11309700000.0 11309700000.0 11309700000.0 11309700000.0 11309700000.0 11309700000.0 11309700000.0 11309700000.0 11309700000.0 11309700000.0 11309700000.0 11309700000.0 11309700000.0 11309700000.0 11309700000.0 11309700000.0 11309700000.0 11309700000.0 11309700000.0 11309700000.0 11309700000.0 11309700000.0 11309700000.0 11309700000.0 11309700000.0 11309700000.0 11309700000.0 11309700000.0 11309700000.0 11309700000.0 11309700000.0 11309700000.0 11309700000.0 11309700000.0 11309700000.0 11309700000.0 11309700000.0 11309700000.0 11309700000.0 11309700000.0 11309700000.0 11309700000.0 11309700000.0 11309700000.0 11309700000.0 11309700000.0 11309700000.0 11309700000.0 11309700000.0 11309700000.0 11309700000.0 11309700000.0 11309700000.0 11309700000.0 11309700000.0 11309700000.0 11309700000.0 11309700000.0 11309700000.0 11309700000.0 11309700000.0 11309700000.0 11309700000.0 11309700000.0 11309700000.0 11309700000.0 11309700000.0 11309700000.0 11309700000.0 11309700000.0 11309700000.0 11309700000.0 11309700000.0 11309700000.0 11309700000.0 11309700000.0 11309700000.0 11309700000.0 11309700000.0 11309700000.0 11309700000.0 11309700000.0 11309700000.0 11309700000.0 11309700000.0 11309700000.0 11309700000.0 11309700000.0 11309700000.0 11309700000.0 11309700000.0 11309700000.0 11309700000.0 11309700000.0 11309700000.0 11309700000.0 11309700000.0 11309700000.0 11309700000.0 11309700000.0 11309700000.0 11309700000.0 11309700000.0 11309700000.0 11309700000.0 11309700000.0 11309700000.0 11309700000.0 11309700000.0 11309700000.0 11309700000.0 11309700000.0 11309700000.0 11309700000.0 11309700000.0 11309700000.0 11309700000.0 11309700000.0 11309700000.0 11309700000.0 11309700000.0 11309700000.0 11309700000.0 11309700000.0 11309700000.0 11309700000.0 11309700000.0 11309700000.0 11309700000.0 11309700000.0 11309700000.0 11309700000.0 11309700000.0 11309700000.0 11309700000.0 11309700000.0 11309700000.0 11309700000.0 11309700000.0 11309700000.0 11309700000.0 11309700000.0 11309700000.0 11309700000.0 11309700000.0 11309700000.0 11309700000.0 11309700000.0 11309700000.0 11309700000.0 11309700000.0 11309700000.0 11309700000.0 11309700000.0 11309700000.0 11309700000.0 11309700000.0 11309700000.0 11309700000.0 11309700000.0 11309700000.0 11309700000.0 11309700000.0 11309700000.0 11309700000.0 11309700000.0 11309700000.0 11309700000.0 11309700000.0 11309700000.0 11309700000.0 11309700000.0 11309700000.0 11309700000.0 11309700000.0 11309700000.0 11309700000.0 11309700000.0 11309700000.0 11309700000.0 11309700000.0 11309700000.0 11309700000.0 11309700000.0 11309700000.0 11309700000.0 11309700000.0 11309700000.0 11309700000.0 11309700000.0 11309700000.0 11309700000.0 11309700000.0 11309700000.0 11309700000.0 11309700000.0 11309700000.0 11309700000.0 11309700000.0 11309700000.0 11309700000.0 11309700000.0 11309700000.0 11309700000.0 11309700000.0 11309700000.0 11309700000.0 11309700000.0 11309700000.0 11309700000.0 11309700000.0 11309700000.0 11309700000.0 11309700000.0 11309700000.0 11309700000.0 11309700000.0 11309700000.0 11309700000.0 11309700000.0 11309700000.0 11309700000.0 11309700000.0 11309700000.0 11309700000.0 11309700000.0 11309700000.0 11309700000.0 11309700000.0 11309700000.0 11309700000.0 11309700000.0 11309700000.0 11309700000.0 11309700000.0 11309700000.0 11309700000.0 11309700000.0 11309700000.0 11309700000.0 11309700000.0 11309700000.0 11309700000.0 11309700000.0 11309700000.0 11309700000.0 11309700000.0 11309700000.0 11309700000.0 11309700000.0 11309700000.0 11309700000.0 11309700000.0 11309700000.0 11309700000.0 11309700000.0 11309700000.0 11309700000.0 11309700000.0 11309700000.0 11309700000.0 11309700000.0 11309700000.0 11309700000.0 11309700000.0 11309700000.0 11309700000.0 11309700000.0 11309700000.0 11309700000.0 11309700000.0 11309700000.0 11309700000.0 11309700000.0 11309700000.0 11309700000.0 11309700000.0 11309700000.0 11309700000.0 11309700000.0 11309700000.0 11309700000.0 11309700000.0 11309700000.0 11309700000.0 11309700000.0 11309700000.0 11309700000.0 11309700000.0 11309700000.0 11309700000.0 11309700000.0 11309700000.0 11309700000.0 11309700000.0 11309700000.0 11309700000.0 11309700000.0 11309700000.0 11309700000.0 11309700000.0 11309700000.0 11309700000.0 11309700000.0 11309700000.0 11309700000.0 11309700000.0 11309700000.0 11309700000.0 11309700000.0 11309700000.0 11309700000.0 11309700000.0 11309700000.0 11309700000.0 11309700000.0 11309700000.0 11309700000.0 11309700000.0 11309700000.0 11309700000.0 11309700000.0 11309700000.0 11309700000.0 11309700000.0 11309700000.0 11309700000.0 11309700000.0 11309700000.0 11309700000.0 11309700000.0 11309700000.0 11309700000.0 11309700000.0 11309700000.0 11309700000.0 11309700000.0 11309700000.0 11309700000.0 11309700000.0 11309700000.0 11309700000.0 11309700000.0 11309700000.0 11309700000.0 11309700000.0 11309700000.0 11309700000.0 11309700000.0 11309700000.0 11309700000.0 11309700000.0 11309700000.0 11309700000.0 11309700000.0 11309700000.0 11309700000.0 11309700000.0 11309700000.0 11309700000.0 11309700000.0 11309700000.0 11309700000.0 11309700000.0 11309700000.0 11309700000.0 11309700000.0 11309700000.0 11309700000.0 11309700000.0 11309700000.0 11309700000.0 11309700000.0 11309700000.0 11309700000.0 11309700000.0 11309700000.0 11309700000.0 11309700000.0 11309700000.0 11309700000.0 11309700000.0 11309700000.0 11309700000.0 11309700000.0 11309700000.0 11309700000.0 11309700000.0 11309700000.0 11309700000.0 11309700000.0 11309700000.0 11309700000.0 11309700000.0 11309700000.0 11309700000.0 11309700000.0 11309700000.0 11309700000.0 11309700000.0 11309700000.0 11309700000.0 11309700000.0 11309700000.0 11309700000.0 11309700000.0 11309700000.0 11309700000.0 11309700000.0 11309700000.0 11309700000.0 11309700000.0 11309700000.0 11309700000.0 11309700000.0 11309700000.0 11309700000.0 11309700000.0 11309700000.0 11309700000.0 11309700000.0 11309700000.0 11309700000.0 11309700000.0 11309700000.0 11309700000.0 11309700000.0 11309700000.0 11309700000.0 11309700000.0 11309700000.0 11309700000.0 11309700000.0 11309700000.0 11309700000.0 11309700000.0 11309700000.0 11309700000.0 11309700000.0 11309700000.0 11309700000.0 11309700000.0 11309700000.0 11309700000.0 11309700000.0 11309700000.0 11309700000.0 11309700000.0 11309700000.0 11309700000.0 11309700000.0 11309700000.0 11309700000.0 11309700000.0 11309700000.0 11309700000.0 11309700000.0 11309700000.0 11309700000.0 11309700000.0 11309700000.0 11309700000.0 11309700000.0 11309700000.0 11309700000.0 11309700000.0 11309700000.0 11309700000.0 11309700000.0 11309700000.0 11309700000.0 11309700000.0 11309700000.0 11309700000.0 11309700000.0 11309700000.0 11309700000.0 11309700000.0 11309700000.0 11309700000.0 11309700000.0 11309700000.0 11309700000.0 11309700000.0 11309700000.0 11309700000.0 11309700000.0 11309700000.0 11309700000.0 11309700000.0 11309700000.0 11309700000.0 11309700000.0 11309700000.0 11309700000.0 11309700000.0 11309700000.0 11309700000.0 11309700000.0 11309700000.0 11309700000.0 11309700000.0 11309700000.0 11309700000.0 11309700000.0 11309700000.0 11309700000.0 11309700000.0 11309700000.0 11309700000.0 11309700000.0 11309700000.0 11309700000.0 11309700000.0 11309700000.0 11309700000.0 11309700000.0 11309700000.0 11309700000.0 11309700000.0 11309700000.0 11309700000.0 11309700000.0 11309700000.0 11309700000.0 11309700000.0 11309700000.0 11309700000.0 11309700000.0 11309700000.0 11309700000.0 11309700000.0 11309700000.0 11309700000.0 11309700000.0 11309700000.0 11309700000.0 11309700000.0 11309700000.0 11309700000.0 11309700000.0 11309700000.0 11309700000.0 11309700000.0 11309700000.0 11309700000.0 11309700000.0 11309700000.0 11309700000.0 11309700000.0 11309700000.0 11309700000.0 11309700000.0 11309700000.0 11309700000.0 11309700000.0 11309700000.0 11309700000.0 11309700000.0 11309700000.0 11309700000.0 11309700000.0 11309700000.0 11309700000.0 11309700000.0 11309700000.0 11309700000.0 11309700000.0 11309700000.0 11309700000.0 11309700000.0 11309700000.0 11309700000.0 11309700000.0 11309700000.0 11309700000.0 11309700000.0 11309700000.0 11309700000.0 11309700000.0 11309700000.0 11309700000.0 11309700000.0 11309700000.0 11309700000.0 11309700000.0 11309700000.0 11309700000.0 11309700000.0 11309700000.0 11309700000.0 11309700000.0 11309700000.0 11309700000.0 11309700000.0 11309700000.0 11309700000.0 11309700000.0 11309700000.0 11309700000.0 11309700000.0 11309700000.0 11309700000.0 11309700000.0 11309700000.0 11309700000.0 11309700000.0 11309700000.0 11309700000.0 11309700000.0 11309700000.0 11309700000.0 11309700000.0 11309700000.0 11309700000.0 11309700000.0 11309700000.0 11309700000.0 11309700000.0 11309700000.0 11309700000.0 11309700000.0 11309700000.0 11309700000.0 11309700000.0 11309700000.0 11309700000.0 11309700000.0 11309700000.0 11309700000.0 11309700000.0 11309700000.0 11309700000.0 11309700000.0 11309700000.0 11309700000.0 11309700000.0 11309700000.0 11309700000.0 11309700000.0 11309700000.0 11309700000.0 11309700000.0 11309700000.0 11309700000.0 11309700000.0 11309700000.0 11309700000.0 11309700000.0 11309700000.0 11309700000.0 11309700000.0 11309700000.0 11309700000.0 11309700000.0 11309700000.0 11309700000.0 11309700000.0 11309700000.0 11309700000.0 11309700000.0 11309700000.0 11309700000.0 11309700000.0 11309700000.0 11309700000.0 11309700000.0 11309700000.0 11309700000.0 11309700000.0 11309700000.0 11309700000.0 11309700000.0 11309700000.0 11309700000.0 11309700000.0 11309700000.0 11309700000.0 11309700000.0 11309700000.0 11309700000.0 11309700000.0 11309700000.0 11309700000.0 11309700000.0 11309700000.0 11309700000.0 11309700000.0 11309700000.0 11309700000.0 11309700000.0 11309700000.0 11309700000.0 11309700000.0 11309700000.0 11309700000.0 11309700000.0 11309700000.0 11309700000.0 11309700000.0 11309700000.0 11309700000.0 11309700000.0 11309700000.0 11309700000.0 11309700000.0 11309700000.0 11309700000.0 11309700000.0 11309700000.0 11309700000.0 11309700000.0 11309700000.0 11309700000.0 11309700000.0 11309700000.0 11309700000.0 11309700000.0 11309700000.0 11309700000.0 11309700000.0 11309700000.0 11309700000.0 11309700000.0 11309700000.0 11309700000.0 11309700000.0 11309700000.0 11309700000.0 11309700000.0 11309700000.0 11309700000.0 11309700000.0 11309700000.0 11309700000.0 11309700000.0 11309700000.0 11309700000.0 11309700000.0 11309700000.0 11309700000.0 11309700000.0 11309700000.0 11309700000.0 11309700000.0 11309700000.0 11309700000.0 11309700000.0 11309700000.0 11309700000.0 11309700000.0 11309700000.0 11309700000.0 11309700000.0 11309700000.0 11309700000.0 11309700000.0 11309700000.0 11309700000.0 11309700000.0 11309700000.0 11309700000.0 11309700000.0 11309700000.0 11309700000.0 11309700000.0 11309700000.0 11309700000.0 11309700000.0 11309700000.0 11309700000.0 11309700000.0 11309700000.0 11309700000.0 11309700000.0 11309700000.0 11309700000.0 11309700000.0 11309700000.0 11309700000.0 11309700000.0 11309700000.0 11309700000.0 11309700000.0 11309700000.0 11309700000.0 11309700000.0 11309700000.0 11309700000.0 11309700000.0 11309700000.0 11309700000.0 11309700000.0 11309700000.0 11309700000.0 11309700000.0 11309700000.0 11309700000.0 11309700000.0 11309700000.0 11309700000.0 11309700000.0 11309700000.0 11309700000.0 11309700000.0 11309700000.0 11309700000.0 11309700000.0 11309700000.0 11309700000.0 11309700000.0 11309700000.0 11309700000.0 11309700000.0 11309700000.0 11309700000.0 11309700000.0 11309700000.0 11309700000.0 11309700000.0 11309700000.0 11309700000.0 11309700000.0 11309700000.0 11309700000.0 11309700000.0 11309700000.0 11309700000.0 11309700000.0 11309700000.0 11309700000.0 11309700000.0 11309700000.0 11309700000.0 11309700000.0 11309700000.0 11309700000.0 11309700000.0 11309700000.0 11309700000.0 11309700000.0 11309700000.0 11309700000.0 11309700000.0 11309700000.0 11309700000.0 11309700000.0 11309700000.0 11309700000.0 11309700000.0 11309700000.0 11309700000.0 11309700000.0 11309700000.0 11309700000.0 11309700000.0 11309700000.0 11309700000.0 11309700000.0 11309700000.0 11309700000.0 11309700000.0 11309700000.0 11309700000.0 11309700000.0 11309700000.0 11309700000.0 11309700000.0 11309700000.0 11309700000.0 11309700000.0 11309700000.0 11309700000.0 11309700000.0 11309700000.0 11309700000.0 11309700000.0 11309700000.0 11309700000.0 11309700000.0 11309700000.0 11309700000.0 11309700000.0 11309700000.0 11309700000.0 11309700000.0 11309700000.0 11309700000.0 11309700000.0 11309700000.0 11309700000.0 11309700000.0 11309700000.0 11309700000.0 11309700000.0 11309700000.0 11309700000.0 11309700000.0 11309700000.0 11309700000.0 11309700000.0 11309700000.0 11309700000.0 11309700000.0 11309700000.0 11309700000.0 11309700000.0 11309700000.0 11309700000.0 11309700000.0 11309700000.0 11309700000.0 11309700000.0 11309700000.0 11309700000.0 11309700000.0 11309700000.0 11309700000.0 11309700000.0 11309700000.0 11309700000.0 11309700000.0 11309700000.0 11309700000.0 11309700000.0 11309700000.0 11309700000.0 11309700000.0 11309700000.0 11309700000.0 11309700000.0 11309700000.0 11309700000.0 11309700000.0 11309700000.0 11309700000.0 11309700000.0 11309700000.0 11309700000.0 11309700000.0 11309700000.0 11309700000.0 11309700000.0 11309700000.0 11309700000.0 11309700000.0 11309700000.0 11309700000.0 11309700000.0 11309700000.0 11309700000.0 11309700000.0 11309700000.0 11309700000.0 11309700000.0 11309700000.0 11309700000.0 11309700000.0 11309700000.0 11309700000.0 11309700000.0 11309700000.0 11309700000.0 11309700000.0 11309700000.0 11309700000.0 11309700000.0 11309700000.0 11309700000.0 11309700000.0 11309700000.0 11309700000.0 11309700000.0 11309700000.0 11309700000.0 11309700000.0 11309700000.0 11309700000.0 11309700000.0 11309700000.0 11309700000.0 11309700000.0 11309700000.0 11309700000.0 11309700000.0 11309700000.0 11309700000.0 11309700000.0 11309700000.0 11309700000.0 11309700000.0 11309700000.0 11309700000.0 11309700000.0 11309700000.0 11309700000.0 11309700000.0 11309700000.0 11309700000.0 11309700000.0 11309700000.0 11309700000.0 11309700000.0 11309700000.0 11309700000.0 11309700000.0 11309700000.0 11309700000.0 11309700000.0 11309700000.0 11309700000.0 11309700000.0 11309700000.0 11309700000.0 11309700000.0 11309700000.0 11309700000.0 11309700000.0 11309700000.0 11309700000.0 11309700000.0 11309700000.0 11309700000.0 11309700000.0 11309700000.0 11309700000.0 11309700000.0 11309700000.0 11309700000.0 11309700000.0 11309700000.0 11309700000.0 11309700000.0 11309700000.0 11309700000.0 11309700000.0 11309700000.0 11309700000.0 11309700000.0 11309700000.0 11309700000.0 11309700000.0 11309700000.0 11309700000.0 11309700000.0 11309700000.0 11309700000.0 11309700000.0 11309700000.0 11309700000.0 11309700000.0 11309700000.0 11309700000.0 11309700000.0 11309700000.0 11309700000.0 11309700000.0 11309700000.0 11309700000.0 11309700000.0 11309700000.0 11309700000.0 11309700000.0 11309700000.0 11309700000.0 11309700000.0 11309700000.0 11309700000.0 11309700000.0 11309700000.0 11309700000.0 11309700000.0 11309700000.0 11309700000.0 11309700000.0 11309700000.0 11309700000.0 11309700000.0 11309700000.0 11309700000.0 11309700000.0 11309700000.0 11309700000.0 11309700000.0 11309700000.0 11309700000.0 11309700000.0 11309700000.0 11309700000.0 11309700000.0 11309700000.0 11309700000.0 11309700000.0 11309700000.0 11309700000.0 11309700000.0 11309700000.0 11309700000.0 11309700000.0 11309700000.0 11309700000.0 11309700000.0 11309700000.0 11309700000.0 11309700000.0 11309700000.0 11309700000.0 11309700000.0 11309700000.0 11309700000.0 11309700000.0 11309700000.0 11309700000.0 11309700000.0 11309700000.0 11309700000.0 11309700000.0 11309700000.0 11309700000.0 11309700000.0 11309700000.0 11309700000.0 11309700000.0 11309700000.0 11309700000.0 11309700000.0 11309700000.0 11309700000.0 11309700000.0 11309700000.0 11309700000.0 11309700000.0 11309700000.0 11309700000.0 11309700000.0 11309700000.0 11309700000.0 11309700000.0 11309700000.0 11309700000.0 11309700000.0 11309700000.0 11309700000.0 11309700000.0 11309700000.0 11309700000.0 11309700000.0 11309700000.0 11309700000.0 11309700000.0 11309700000.0 11309700000.0 11309700000.0 11309700000.0 11309700000.0 11309700000.0 11309700000.0 11309700000.0 11309700000.0 11309700000.0 11309700000.0 11309700000.0 11309700000.0 11309700000.0 11309700000.0 11309700000.0 11309700000.0 11309700000.0 11309700000.0 11309700000.0 11309700000.0 11309700000.0 11309700000.0 11309700000.0 11309700000.0 11309700000.0 11309700000.0 11309700000.0 11309700000.0 11309700000.0 11309700000.0 11309700000.0 11309700000.0 11309700000.0 11309700000.0 11309700000.0 11309700000.0 11309700000.0 11309700000.0 11309700000.0 11309700000.0 11309700000.0 11309700000.0 11309700000.0 11309700000.0 11309700000.0 11309700000.0 11309700000.0 11309700000.0 11309700000.0 11309700000.0 11309700000.0 11309700000.0 11309700000.0 11309700000.0 11309700000.0 11309700000.0 11309700000.0 11309700000.0 11309700000.0 11309700000.0 11309700000.0 11309700000.0 11309700000.0 11309700000.0 11309700000.0 11309700000.0 11309700000.0 11309700000.0 11309700000.0 11309700000.0 11309700000.0 11309700000.0 11309700000.0 11309700000.0 11309700000.0 11309700000.0 11309700000.0 11309700000.0 11309700000.0 11309700000.0 11309700000.0 11309700000.0 11309700000.0 11309700000.0 11309700000.0 11309700000.0 11309700000.0 11309700000.0 11309700000.0 11309700000.0 11309700000.0 11309700000.0 11309700000.0 11309700000.0 11309700000.0 11309700000.0 11309700000.0 11309700000.0 11309700000.0 11309700000.0 11309700000.0 11309700000.0 11309700000.0 11309700000.0 11309700000.0 11309700000.0 11309700000.0 11309700000.0 11309700000.0 11309700000.0 11309700000.0 11309700000.0 11309700000.0 11309700000.0 11309700000.0 11309700000.0 11309700000.0 11309700000.0 11309700000.0 11309700000.0 11309700000.0 11309700000.0 11309700000.0 11309700000.0 11309700000.0 11309700000.0 11309700000.0 11309700000.0 11309700000.0 11309700000.0 11309700000.0 11309700000.0 11309700000.0 11309700000.0 11309700000.0 11309700000.0 
SCALARS Velocity float 1
LOOKUP_TABLE default
1.07527 1.07774 0.975334 1.11375 0.801984 0.926407 0.885348 0.895854 0.893438 0.89392 0.893821 0.893917 0.893864 0.893843 0.893861 0.893907 0.893967 0.894027 0.894075 0.894108 0.894123 0.894122 0.894106 0.894079 0.894043 0.894004 0.893965 0.893928 0.893896 0.89387 0.893851 0.893839 0.893835 0.893839 0.893851 0.89387 0.893896 0.893928 0.893965 0.894004 0.894043 0.894079 0.894106 0.894122 0.894123 0.894108 0.894075 0.894027 0.893967 0.893907 0.893861 0.893843 0.893864 0.893917 0.893821 0.89392 0.893438 0.895854 0.885348 0.926407 0.801984 1.11375 0.975334 1.07774 1.07527 0.583268 0.622199 0.987284 0.987284 0.622199 0.583268 0.537799 0.591502 1.06969 0.945013 1.11632 0.808777 0.926079 0.886073 0.897016 0.895128 0.89531 0.894743 0.894441 0.894315 0.89423 0.89416 0.894133 0.894158 0.894212 0.894266 0.894302 0.894311 0.894295 0.894248 0.89417 0.894118 0.894062 0.894007 0.893958 0.893915 0.893881 0.893856 0.893841 0.893835 0.893841 0.893856 0.893881 0.893915 0.893958 0.894007 0.894062 0.894118 0.89417 0.894248 0.894295 0.894311 0.894302 0.894266 0.894212 0.894158 0.894133 0.89416 0.89423 0.894315 0.894441 0.894743 0.89531 0.895128 0.897016 0.886073 0.926079 0.808777 1.11632 0.945013 1.06969 0.591502 0.537799 0.610707 0.565607 1.08009 0.963994 0.8555 1.10171 0.817632 0.931311 0.887599 0.897319 0.893897 0.893975 0.89382 0.893966 0.894005 0.894189 0.894353 0.894429 0.894483 0.894535 0.894578 0.894595 0.89458 0.894527 0.894447 0.894385 0.89429 0.894197 0.894109 0.894028 0.893959 0.893901 0.893861 0.893841 0.893834 0.893841 0.893861 0.893901 0.893959 0.894028 0.894109 0.894197 0.89429 0.894385 0.894447 0.894527 0.89458 0.894595 0.894578 0.894535 0.894483 0.894429 0.894353 0.894189 0.894005 0.893966 0.89382 0.893975 0.893897 0.897319 0.887599 0.931311 0.817632 1.10171 0.8555 0.963994 1.08009 0.565607 0.610707 0.573228 0.654228 0.483941 0.505836 0.527503 1.00186 1.00186 0.527503 0.505836 0.483941 0.654228 0.573228 0.0743987 0.279143 0.585719 0.502642 0.919178 0.832966 1.08226 0.845465 0.925903 0.884201 0.895159 0.893172 0.893687 0.893924 0.894129 0.8944 0.894659 0.894889 0.894986 0.894998 0.894989 0.894974 0.894942 0.894882 0.894781 0.894672 0.89454 0.894402 0.89427 0.894155 0.894057 0.893973 0.893911 0.89387 0.893842 0.893832 0.893842 0.89387 0.893911 0.893973 0.894057 0.894155 0.89427 0.894402 0.89454 0.894672 0.894781 0.894882 0.894942 0.894974 0.894989 0.894998 0.894986 0.894889 0.894659 0.8944 0.894129 0.893924 0.893687 0.893172 0.895159 0.884201 0.925903 0.845465 1.08226 0.832966 0.919178 0.502642 0.585719 0.279143 0.0743987 0.191229 0.206134 0.515022 0.594739 1.0346 1.33769 0.800026 1.15938 0.846505 0.922521 0.882532 0.894903 0.893663 0.894333 0.895108 0.895133 0.895251 0.895287 0.895192 0.894996 0.894757 0.894545 0.894378 0.894243 0.894133 0.894059 0.894004 0.893956 0.89392 0.893892 0.893868 0.893853 0.893847 0.893843 0.893837 0.893834 0.893832 0.893834 0.893837 0.893843 0.893847 0.893853 0.893868 0.893892 0.89392 0.893956 0.894004 0.894059 0.894133 0.894243 0.894378 0.894545 0.894757 0.894996 0.895192 0.895287 0.895251 0.895133 0.895108 0.894333 0.893663 0.894903 0.882532 0.922521 0.846505 1.15938 0.800026 1.33769 1.0346 0.594739 0.515022 0.206134 0.191229 0.381982 0.288413 0.344555 0.473742 0.594237 0.822292 0.822292 0.594237 0.473742 0.344555 0.288413 0.381982 0.46969 0.419058 0.74816 0.951176 0.828358 1.04951 0.771195 1.04833 0.843015 0.909134 0.898212 0.897315 0.896174 0.895529 0.894962 0.894453 0.89421 0.894073 0.893941 0.893862 0.893837 0.893833 0.893832 0.893832 0.893832 0.893832 0.893832 0.893832 0.893832 0.893832 0.893832 0.893832 0.893832 0.893832 0.893832 0.893832 0.893832 0.893832 0.893832 0.893832 0.893832 0.893832 0.893832 0.893832 0.893832 0.893832 0.893832 0.893832 0.893832 0.893832 0.893832 0.893833 0.893837 0.893862 0.893941 0.894073 0.89421 0.894453 0.894962 0.895529 0.896174 0.897315 0.898212 0.909134 0.843015 1.04833 0.771195 1.04951 0.828358 0.951176 0.74816 0.419058 0.46969 0.704916 0.750586 0.79333 0.527851 0.989298 0.655937 0.957107 0.829295 0.89913 0.893973 0.894216 0.894226 0.894253 0.894305 0.894322 0.89431 0.894305 0.894293 0.894256 0.894203 0.894153 0.894108 0.894066 0.894025 0.893986 0.893951 0.893921 0.893897 0.893879 0.893865 0.893854 0.893846 0.89384 0.893835 0.893833 0.893832 0.893833 0.893835 0.89384 0.893846 0.893854 0.893865 0.893879 0.893897 0.893921 0.893951 0.893986 0.894025 0.894066 0.894108 0.894153 0.894203 0.894256 0.894293 0.894305 0.89431 0.894322 0.894305 0.894253 0.894226 0.894216 0.893973 0.89913 0.829295 0.957107 0.655937 0.989298 0.527851 0.79333 0.750586 0.704916 0.874128 0.725061 0.524863 0.524863 0.725061 0.874128 0.940928 0.628134 0.850012 0.827113 0.7822 0.512873 0.967053 0.690501 0.90104 0.845454 0.893832 0.893832 0.893832 0.893832 0.893832 0.893832 0.893832 0.893832 0.893832 0.893832 0.893832 0.893832 0.893832 0.893832 0.893832 0.893832 0.893832 0.893832 0.893832 0.893832 0.893832 0.893832 0.893832 0.893832 0.893832 0.893832 0.893832 0.893832 0.893832 0.893832 0.893832 0.893832 0.893832 0.893832 0.893832 0.893832 0.893832 0.893832 0.893832 0.893832 0.893832 0.893832 0.893832 0.893832 0.893832 0.893832 0.893832 0.893832 0.893832 0.893832 0.893832 0.893832 0.893832 0.893832 0.893832 0.845454 0.90104 0.690501 0.967053 0.512873 0.7822 0.827113 0.850012 0.628134 0.940928 1.07814 0.877268 0.733669 0.912384 0.771922 0.544882 0.956136 0.727054 0.909301 0.860065 0.895081 0.894622 0.894465 0.894371 0.894323 0.894268 0.894189 0.894103 0.89403 0.893973 0.893933 0.893905 0.893886 0.893872 0.893861 0.893854 0.893848 0.893844 0.893841 0.893839 0.893837 0.893835 0.893834 0.893833 0.893833 0.893832 0.893832 0.893832 0.893832 0.893832 0.893833 0.893833 0.893834 0.893835 0.893837 0.893839 0.893841 0.893844 0.893848 0.893854 0.893861 0.893872 0.893886 0.893905 0.893933 0.893973 0.89403 0.894103 0.894189 0.894268 0.894323 0.894371 0.894465 0.894622 0.895081 0.860065 0.909301 0.727054 0.956136 0.544882 0.771922 0.912384 0.733669 0.877268 1.07814 0.859044 0.89512 0.812334 0.971425 0.84526 0.706043 0.898052 0.76019 0.894452 0.883301 0.893832 0.893832 0.893832 0.893832 0.893832 0.893832 0.893832 0.893832 0.893832 0.893832 0.893832 0.893832 0.893832 0.893832 0.893832 0.893832 0.893832 0.893832 0.893832 0.893832 0.893832 0.893832 0.893832 0.893832 0.893832 0.893832 0.893832 0.893832 0.893832 0.893832 0.893832 0.893832 0.893832 0.893832 0.893832 0.893832 0.893832 0.893832 0.893832 0.893832 0.893832 0.893832 0.893832 0.893832 0.893832 0.893832 0.893832 0.893832 0.893832 0.893832 0.893832 0.893832 0.893832 0.893832 0.893832 0.883301 0.894452 0.76019 0.898052 0.706043 0.84526 0.971425 0.812334 0.89512 0.859044 0.845181 0.845191 0.717969 0.899657 0.782874 0.895015 0.893385 0.893878 0.893857 0.893847 0.893841 0.893838 0.893836 0.893835 0.893834 0.893834 0.893833 0.893833 0.893833 0.893833 0.893833 0.893832 0.893832 0.893832 0.893832 0.893832 0.893832 0.893832 0.893832 0.893832 0.893832 0.893832 0.893832 0.893832 0.893832 0.893832 0.893832 0.893832 0.893832 0.893832 0.893832 0.893832 0.893832 0.893832 0.893832 0.893832 0.893832 0.893832 0.893833 0.893833 0.893833 0.893833 0.893833 0.893834 0.893834 0.893835 0.893836 0.893838 0.893841 0.893847 0.893857 0.893878 0.893385 0.895015 0.782874 0.899657 0.717969 0.845191 0.845181 0.844968 0.897673 0.93954 0.93954 0.897673 0.844968 0.837298 0.89166 0.862903 0.92245 0.848759 0.746484 0.893859 0.805589 0.893842 0.893839 0.893838 0.893836 0.893835 0.893834 0.893834 0.893833 0.893833 0.893833 0.893833 0.893833 0.893833 0.893832 0.893832 0.893832 0.893832 0.893832 0.893832 0.893832 0.893832 0.893832 0.893832 0.893832 0.893832 0.893832 0.893832 0.893832 0.893832 0.893832 0.893832 0.893832 0.893832 0.893832 0.893832 0.893832 0.893832 0.893832 0.893832 0.893832 0.893832 0.893832 0.893832 0.893832 0.893832 0.893832 0.893833 0.893833 0.893833 0.893833 0.893833 0.893833 0.893834 0.893834 0.893835 0.893836 0.893838 0.893839 0.893842 0.805589 0.893859 0.746484 0.848759 0.92245 0.862903 0.89166 0.837298 0.850811 0.772028 0.893854 0.826182 0.893842 0.89384 0.893837 0.893836 0.893835 0.893834 0.893834 0.893833 0.893833 0.893833 0.893833 0.893833 0.893833 0.893832 0.893832 0.893832 0.893832 0.893832 0.893832 0.893832 0.893832 0.893832 0.893832 0.893832 0.893832 0.893832 0.893832 0.893832 0.893832 0.893832 0.893832 0.893832 0.893832 0.893832 0.893832 0.893832 0.893832 0.893832 0.893832 0.893832 0.893832 0.893832 0.893832 0.893832 0.893832 0.893832 0.893833 0.893833 0.893833 0.893833 0.893833 0.893833 0.893834 0.893834 0.893835 0.893836 0.893837 0.89384 0.893842 0.826182 0.893854 0.772028 0.850811 0.839129 0.887458 0.873622 0.9118 0.9118 0.873622 0.887458 0.839129 0.845714 0.884814 0.880342 0.903671 0.853041 0.795231 0.893852 0.842869 0.893842 0.893839 0.893837 0.893836 0.893835 0.893834 0.893834 0.893833 0.893833 0.893833 0.893833 0.893833 0.893832 0.893832 0.893832 0.893832 0.893832 0.893832 0.893832 0.893832 0.893832 0.893832 0.893832 0.893832 0.893832 0.893832 0.893832 0.893832 0.893832 0.893832 0.893832 0.893832 0.893832 0.893832 0.893832 0.893832 0.893832 0.893832 0.893832 0.893832 0.893832 0.893832 0.893832 0.893832 0.893832 0.893832 0.893832 0.893833 0.893833 0.893833 0.893833 0.893833 0.893834 0.893834 0.893835 0.893836 0.893837 0.893839 0.893842 0.842869 0.893852 0.795231 0.853041 0.903671 0.880342 0.884814 0.845714 0.854048 0.883057 0.885349 0.896996 0.856489 0.816164 0.89385 0.855934 0.893841 0.893839 0.893837 0.893835 0.893835 0.893834 0.893833 0.893833 0.893833 0.893833 0.893833 0.893833 0.893832 0.893832 0.893832 0.893832 0.893832 0.893832 0.893832 0.893832 0.893832 0.893832 0.893832 0.893832 0.893832 0.893832 0.893832 0.893832 0.893832 0.893832 0.893832 0.893832 0.893832 0.893832 0.893832 0.893832 0.893832 0.893832 0.893832 0.893832 0.893832 0.893832 0.893832 0.893832 0.893832 0.893832 0.893832 0.893833 0.893833 0.893833 0.893833 0.893833 0.893833 0.893834 0.893835 0.893835 0.893837 0.893839 0.893841 0.855934 0.89385 0.816164 0.856489 0.896996 0.885349 0.883057 0.854048 0.86285 0.882057 0.889078 0.891612 0.860677 0.833984 0.893849 0.866162 0.89384 0.893838 0.893836 0.893835 0.893834 0.893834 0.893833 0.893833 0.893833 0.893833 0.893833 0.893832 0.893832 0.893832 0.893832 0.893832 0.893832 0.893832 0.893832 0.893832 0.893832 0.893832 0.893832 0.893832 0.893832 0.893832 0.893832 0.893832 0.893832 0.893832 0.893832 0.893832 0.893832 0.893832 0.893832 0.893832 0.893832 0.893832 0.893832 0.893832 0.893832 0.893832 0.893832 0.893832 0.893832 0.893832 0.893832 0.893832 0.893833 0.893833 0.893833 0.893833 0.893833 0.893834 0.893834 0.893835 0.893836 0.893838 0.89384 0.866162 0.893849 0.833984 0.860677 0.891612 0.889078 0.882057 0.86285 0.871035 0.881754 0.891397 0.887374 0.865156 0.848483 0.893847 0.874097 0.893839 0.893837 0.893836 0.893835 0.893834 0.893833 0.893833 0.893833 0.893833 0.893833 0.893832 0.893832 0.893832 0.893832 0.893832 0.893832 0.893832 0.893832 0.893832 0.893832 0.893832 0.893832 0.893832 0.893832 0.893832 0.893832 0.893832 0.893832 0.893832 0.893832 0.893832 0.893832 0.893832 0.893832 0.893832 0.893832 0.893832 0.893832 0.893832 0.893832 0.893832 0.893832 0.893832 0.893832 0.893832 0.893832 0.893832 0.893832 0.893832 0.893833 0.893833 0.893833 0.893833 0.893833 0.893834 0.893835 0.893836 0.893837 0.893839 0.874097 0.893847 0.848483 0.865156 0.887374 0.891397 0.881754 0.871035 0.877813 0.881942 0.892603 0.884118 0.869589 0.85998 0.893845 0.880087 0.893838 0.893836 0.893835 0.893834 0.893834 0.893833 0.893833 0.893833 0.893833 0.893832 0.893832 0.893832 0.893832 0.893832 0.893832 0.893832 0.893832 0.893832 0.893832 0.893832 0.893832 0.893832 0.893832 0.893832 0.893832 0.893832 0.893832 0.893832 0.893832 0.893832 0.893832 0.893832 0.893832 0.893832 0.893832 0.893832 0.893832 0.893832 0.893832 0.893832 0.893832 0.893832 0.893832 0.893832 0.893832 0.893832 0.893832 0.893832 0.893832 0.893832 0.893833 0.893833 0.893833 0.893833 0.893834 0.893834 0.893835 0.893836 0.893838 0.880087 0.893845 0.85998 0.869589 0.884118 0.892603 0.881942 0.877813 0.88279 0.882408 0.893082 0.881734 0.873697 0.868912 0.893843 0.884473 0.893837 0.893835 0.893834 0.893834 0.893833 0.893833 0.893833 0.893833 0.893832 0.893832 0.893832 0.893832 0.893832 0.893832 0.893832 0.893832 0.893832 0.893832 0.893832 0.893832 0.893832 0.893832 0.893832 0.893832 0.893832 0.893832 0.893832 0.893832 0.893832 0.893832 0.893832 0.893832 0.893832 0.893832 0.893832 0.893832 0.893832 0.893832 0.893832 0.893832 0.893832 0.893832 0.893832 0.893832 0.893832 0.893832 0.893832 0.893832 0.893832 0.893832 0.893832 0.893833 0.893833 0.893833 0.893833 0.893834 0.893834 0.893835 0.893837 0.884473 0.893843 0.868912 0.873697 0.881734 0.893082 0.882408 0.88279 0.886117 0.883002 0.89298 0.88013 0.877377 0.875753 0.89384 0.8876 0.893836 0.893834 0.893834 0.893833 0.893833 0.893833 0.893833 0.893832 0.893832 0.893832 0.893832 0.893832 0.893832 0.893832 0.893832 0.893832 0.893832 0.893832 0.893832 0.893832 0.893832 0.893832 0.893832 0.893832 0.893832 0.893832 0.893832 0.893832 0.893832 0.893832 0.893832 0.893832 0.893832 0.893832 0.893832 0.893832 0.893832 0.893832 0.893832 0.893832 0.893832 0.893832 0.893832 0.893832 0.893832 0.893832 0.893832 0.893832 0.893832 0.893832 0.893832 0.893832 0.893833 0.893833 0.893833 0.893833 0.893834 0.893834 0.893836 0.8876 0.89384 0.875753 0.877377 0.88013 0.89298 0.883002 0.886117 0.888143 0.883656 0.892407 0.879193 0.880634 0.880914 0.893838 0.889772 0.893834 0.893834 0.893833 0.893833 0.893833 0.893832 0.893832 0.893832 0.893832 0.893832 0.893832 0.893832 0.893832 0.893832 0.893832 0.893832 0.893832 0.893832 0.893832 0.893832 0.893832 0.893832 0.893832 0.893832 0.893832 0.893832 0.893832 0.893832 0.893832 0.893832 0.893832 0.893832 0.893832 0.893832 0.893832 0.893832 0.893832 0.893832 0.893832 0.893832 0.893832 0.893832 0.893832 0.893832 0.893832 0.893832 0.893832 0.893832 0.893832 0.893832 0.893832 0.893832 0.893832 0.893832 0.893833 0.893833 0.893833 0.893834 0.893834 0.889772 0.893838 0.880914 0.880634 0.879193 0.892407 0.883656 0.888143 0.889108 0.884337 0.891575 0.87881 0.883474 0.884723 0.893836 0.891238 0.893833 0.893833 0.893833 0.893832 0.893832 0.893832 0.893832 0.893832 0.893832 0.893832 0.893832 0.893832 0.893832 0.893832 0.893832 0.893832 0.893832 0.893832 0.893832 0.893832 0.893832 0.893832 0.893832 0.893832 0.893832 0.893832 0.893832 0.893832 0.893832 0.893832 0.893832 0.893832 0.893832 0.893832 0.893832 0.893832 0.893832 0.893832 0.893832 0.893832 0.893832 0.893832 0.893832 0.893832 0.893832 0.893832 0.893832 0.893832 0.893832 0.893832 0.893832 0.893832 0.893832 0.893832 0.893832 0.893832 0.893833 0.893833 0.893833 0.891238 0.893836 0.884723 0.883474 0.87881 0.891575 0.884337 0.889108 0.889251 0.884993 0.890705 0.878894 0.885885 0.887462 0.893833 0.892202 0.893832 0.893832 0.893832 0.893832 0.893832 0.893832 0.893832 0.893832 0.893832 0.893832 0.893832 0.893832 0.893832 0.893832 0.893832 0.893832 0.893832 0.893832 0.893832 0.893832 0.893832 0.893832 0.893832 0.893832 0.893832 0.893832 0.893832 0.893832 0.893832 0.893832 0.893832 0.893832 0.893832 0.893832 0.893832 0.893832 0.893832 0.893832 0.893832 0.893832 0.893832 0.893832 0.893832 0.893832 0.893832 0.893832 0.893832 0.893832 0.893832 0.893832 0.893832 0.893832 0.893832 0.893832 0.893832 0.893832 0.893832 0.893832 0.893832 0.892202 0.893833 0.887462 0.885885 0.878894 0.890705 0.884993 0.889251 0.888899 0.885563 0.889939 0.879377 0.887871 0.889393 0.893831 0.892823 0.893831 0.893831 0.893832 0.893832 0.893832 0.893832 0.893832 0.893832 0.893832 0.893832 0.893832 0.893832 0.893832 0.893832 0.893832 0.893832 0.893832 0.893832 0.893832 0.893832 0.893832 0.893832 0.893832 0.893832 0.893832 0.893832 0.893832 0.893832 0.893832 0.893832 0.893832 0.893832 0.893832 0.893832 0.893832 0.893832 0.893832 0.893832 0.893832 0.893832 0.893832 0.893832 0.893832 0.893832 0.893832 0.893832 0.893832 0.893832 0.893832 0.893832 0.893832 0.893832 0.893832 0.893832 0.893832 0.893832 0.893832 0.893831 0.893831 0.892823 0.893831 0.889393 0.887871 0.879377 0.889939 0.885563 0.888899 0.888367 0.886018 0.889338 0.880185 0.889455 0.890737 0.893829 0.893217 0.89383 0.893831 0.893831 0.893831 0.893832 0.893832 0.893832 0.893832 0.893832 0.893832 0.893832 0.893832 0.893832 0.893832 0.893832 0.893832 0.893832 0.893832 0.893832 0.893832 0.893832 0.893832 0.893832 0.893832 0.893832 0.893832 0.893832 0.893832 0.893832 0.893832 0.893832 0.893832 0.893832 0.893832 0.893832 0.893832 0.893832 0.893832 0.893832 0.893832 0.893832 0.893832 0.893832 0.893832 0.893832 0.893832 0.893832 0.893832 0.893832 0.893832 0.893832 0.893832 0.893832 0.893832 0.893832 0.893831 0.893831 0.893831 0.89383 0.893217 0.893829 0.890737 0.889455 0.880185 0.889338 0.886018 0.888367 0.887865 0.88637 0.888916 0.881234 0.890683 0.891667 0.893828 0.893465 0.89383 0.89383 0.893831 0.893831 0.893832 0.893832 0.893832 0.893832 0.893832 0.893832 0.893832 0.893832 0.893832 0.893832 0.893832 0.893832 0.893832 0.893832 0.893832 0.893832 0.893832 0.893832 0.893832 0.893832 0.893832 0.893832 0.893832 0.893832 0.893832 0.893832 0.893832 0.893832 0.893832 0.893832 0.893832 0.893832 0.893832 0.893832 0.893832 0.893832 0.893832 0.893832 0.893832 0.893832 0.893832 0.893832 0.893832 0.893832 0.893832 0.893832 0.893832 0.893832 0.893832 0.893832 0.893832 0.893831 0.893831 0.89383 0.89383 0.893465 0.893828 0.891667 0.890683 0.881234 0.888916 0.88637 0.887865 0.887494 0.886653 0.888665 0.882441 0.891612 0.892309 0.893827 0.893617 0.893829 0.89383 0.893831 0.893831 0.893831 0.893832 0.893832 0.893832 0.893832 0.893832 0.893832 0.893832 0.893832 0.893832 0.893832 0.893832 0.893832 0.893832 0.893832 0.893832 0.893832 0.893832 0.893832 0.893832 0.893832 0.893832 0.893832 0.893832 0.893832 0.893832 0.893832 0.893832 0.893832 0.893832 0.893832 0.893832 0.893832 0.893832 0.893832 0.893832 0.893832 0.893832 0.893832 0.893832 0.893832 0.893832 0.893832 0.893832 0.893832 0.893832 0.893832 0.893832 0.893832 0.893832 0.893831 0.893831 0.893831 0.89383 0.893829 0.893617 0.893827 0.892309 0.891612 0.882441 0.888665 0.886653 0.887494 0.887281 0.886908 0.888571 0.883725 0.892298 0.892754 0.893826 0.893709 0.893829 0.89383 0.89383 0.893831 0.893831 0.893832 0.893832 0.893832 0.893832 0.893832 0.893832 0.893832 0.893832 0.893832 0.893832 0.893832 0.893832 0.893832 0.893832 0.893832 0.893832 0.893832 0.893832 0.893832 0.893832 0.893832 0.893832 0.893832 0.893832 0.893832 0.893832 0.893832 0.893832 0.893832 0.893832 0.893832 0.893832 0.893832 0.893832 0.893832 0.893832 0.893832 0.893832 0.893832 0.893832 0.893832 0.893832 0.893832 0.893832 0.893832 0.893832 0.893832 0.893832 0.893832 0.893831 0.893831 0.89383 0.89383 0.893829 0.893709 0.893826 0.892754 0.892298 0.883725 0.888571 0.886908 0.887281 0.887219 0.887166 0.888611 0.885021 0.892793 0.893063 0.893825 0.893763 0.893828 0.89383 0.89383 0.893831 0.893831 0.893831 0.893832 0.893832 0.893832 0.893832 0.893832 0.893832 0.893832 0.893832 0.893832 0.893832 0.893832 0.893832 0.893832 0.893832 0.893832 0.893832 0.893832 0.893832 0.893832 0.893832 0.893832 0.893832 0.893832 0.893832 0.893832 0.893832 0.893832 0.893832 0.893832 0.893832 0.893832 0.893832 0.893832 0.893832 0.893832 0.893832 0.893832 0.893832 0.893832 0.893832 0.893832 0.893832 0.893832 0.893832 0.893832 0.893832 0.893832 0.893831 0.893831 0.893831 0.89383 0.89383 0.893828 0.893763 0.893825 0.893063 0.892793 0.885021 0.888611 0.887166 0.887219 0.887292 0.887446 0.888764 0.886277 0.893144 0.893281 0.893824 0.893793 0.893828 0.893829 0.89383 0.893831 0.893831 0.893831 0.893832 0.893832 0.893832 0.893832 0.893832 0.893832 0.893832 0.893832 0.893832 0.893832 0.893832 0.893832 0.893832 0.893832 0.893832 0.893832 0.893832 0.893832 0.893832 0.893832 0.893832 0.893832 0.893832 0.893832 0.893832 0.893832 0.893832 0.893832 0.893832 0.893832 0.893832 0.893832 0.893832 0.893832 0.893832 0.893832 0.893832 0.893832 0.893832 0.893832 0.893832 0.893832 0.893832 0.893832 0.893832 0.893832 0.893832 0.893831 0.893831 0.893831 0.89383 0.893829 0.893828 0.893793 0.893824 0.893281 0.893144 0.886277 0.888764 0.887446 0.887292 0.887475 0.887757 0.889007 0.887455 0.893387 0.893437 0.893824 0.89381 0.893828 0.893829 0.89383 0.893831 0.893831 0.893831 0.893832 0.893832 0.893832 0.893832 0.893832 0.893832 0.893832 0.893832 0.893832 0.893832 0.893832 0.893832 0.893832 0.893832 0.893832 0.893832 0.893832 0.893832 0.893832 0.893832 0.893832 0.893832 0.893832 0.893832 0.893832 0.893832 0.893832 0.893832 0.893832 0.893832 0.893832 0.893832 0.893832 0.893832 0.893832 0.893832 0.893832 0.893832 0.893832 0.893832 0.893832 0.893832 0.893832 0.893832 0.893832 0.893832 0.893832 0.893831 0.893831 0.893831 0.89383 0.893829 0.893828 0.89381 0.893824 0.893437 0.893387 0.887455 0.889007 0.887757 0.887475 0.887746 0.888099 0.889317 0.888529 0.893551 0.893549 0.893824 0.893819 0.893828 0.893829 0.89383 0.893831 0.893831 0.893831 0.893832 0.893832 0.893832 0.893832 0.893832 0.893832 0.893832 0.893832 0.893832 0.893832 0.893832 0.893832 0.893832 0.893832 0.893832 0.893832 0.893832 0.893832 0.893832 0.893832 0.893832 0.893832 0.893832 0.893832 0.893832 0.893832 0.893832 0.893832 0.893832 0.893832 0.893832 0.893832 0.893832 0.893832 0.893832 0.893832 0.893832 0.893832 0.893832 0.893832 0.893832 0.893832 0.893832 0.893832 0.893832 0.893832 0.893832 0.893831 0.893831 0.893831 0.89383 0.893829 0.893828 0.893819 0.893824 0.893549 0.893551 0.888529 0.889317 0.888099 0.887746 0.888084 0.888467 0.889674 0.889487 0.893659 0.893631 0.893824 0.893823 0.893828 0.893829 0.89383 0.893831 0.893831 0.893831 0.893832 0.893832 0.893832 0.893832 0.893832 0.893832 0.893832 0.893832 0.893832 0.893832 0.893832 0.893832 0.893832 0.893832 0.893832 0.893832 0.893832 0.893832 0.893832 0.893832 0.893832 0.893832 0.893832 0.893832 0.893832 0.893832 0.893832 0.893832 0.893832 0.893832 0.893832 0.893832 0.893832 0.893832 0.893832 0.893832 0.893832 0.893832 0.893832 0.893832 0.893832 0.893832 0.893832 0.893832 0.893832 0.893832 0.893832 0.893831 0.893831 0.893831 0.89383 0.893829 0.893828 0.893823 0.893824 0.893631 0.893659 0.889487 0.889674 0.888467 0.888084 0.888468 0.888854 0.890058 0.890321 0.893728 0.89369 0.893824 0.893825 0.893828 0.893829 0.89383 0.893831 0.893831 0.893831 0.893832 0.893832 0.893832 0.893832 0.893832 0.893832 0.893832 0.893832 0.893832 0.893832 0.893832 0.893832 0.893832 0.893832 0.893832 0.893832 0.893832 0.893832 0.893832 0.893832 0.893832 0.893832 0.893832 0.893832 0.893832 0.893832 0.893832 0.893832 0.893832 0.893832 0.893832 0.893832 0.893832 0.893832 0.893832 0.893832 0.893832 0.893832 0.893832 0.893832 0.893832 0.893832 0.893832 0.893832 0.893832 0.893832 0.893832 0.893831 0.893831 0.893831 0.89383 0.893829 0.893828 0.893825 0.893824 0.89369 0.893728 0.890321 0.890058 0.888854 0.888468 0.88888 0.88925 0.890453 0.891035 0.89377 0.893732 0.893825 0.893826 0.893828 0.89383 0.89383 0.893831 0.893831 0.893832 0.893832 0.893832 0.893832 0.893832 0.893832 0.893832 0.893832 0.893832 0.893832 0.893832 0.893832 0.893832 0.893832 0.893832 0.893832 0.893832 0.893832 0.893832 0.893832 0.893832 0.893832 0.893832 0.893832 0.893832 0.893832 0.893832 0.893832 0.893832 0.893832 0.893832 0.893832 0.893832 0.893832 0.893832 0.893832 0.893832 0.893832 0.893832 0.893832 0.893832 0.893832 0.893832 0.893832 0.893832 0.893832 0.893832 0.893832 0.893832 0.893831 0.893831 0.89383 0.89383 0.893828 0.893826 0.893825 0.893732 0.89377 0.891035 0.890453 0.88925 0.88888 0.889305 0.889648 0.890846 0.891633 0.893795 0.893762 0.893825 0.893827 0.893829 0.89383 0.89383 0.893831 0.893831 0.893832 0.893832 0.893832 0.893832 0.893832 0.893832 0.893832 0.893832 0.893832 0.893832 0.893832 0.893832 0.893832 0.893832 0.893832 0.893832 0.893832 0.893832 0.893832 0.893832 0.893832 0.893832 0.893832 0.893832 0.893832 0.893832 0.893832 0.893832 0.893832 0.893832 0.893832 0.893832 0.893832 0.893832 0.893832 0.893832 0.893832 0.893832 0.893832 0.893832 0.893832 0.893832 0.893832 0.893832 0.893832 0.893832 0.893832 0.893832 0.893832 0.893831 0.893831 0.89383 0.89383 0.893829 0.893827 0.893825 0.893762 0.893795 0.891633 0.890846 0.889648 0.889305 0.889731 0.89004 0.891226 0.892126 0.893809 0.893783 0.893825 0.893827 0.893829 0.89383 0.893831 0.893831 0.893831 0.893832 0.893832 0.893832 0.893832 0.893832 0.893832 0.893832 0.893832 0.893832 0.893832 0.893832 0.893832 0.893832 0.893832 0.893832 0.893832 0.893832 0.893832 0.893832 0.893832 0.893832 0.893832 0.893832 0.893832 0.893832 0.893832 0.893832 0.893832 0.893832 0.893832 0.893832 0.893832 0.893832 0.893832 0.893832 0.893832 0.893832 0.893832 0.893832 0.893832 0.893832 0.893832 0.893832 0.893832 0.893832 0.893832 0.893832 0.893832 0.893832 0.893831 0.893831 0.893831 0.89383 0.893829 0.893827 0.893825 0.893783 0.893809 0.892126 0.891226 0.89004 0.889731 0.890147 0.89042 0.891585 0.892525 0.893817 0.893798 0.893826 0.893828 0.893829 0.89383 0.893831 0.893831 0.893831 0.893832 0.893832 0.893832 0.893832 0.893832 0.893832 0.893832 0.893832 0.893832 0.893832 0.893832 0.893832 0.893832 0.893832 0.893832 0.893832 0.893832 0.893832 0.893832 0.893832 0.893832 0.893832 0.893832 0.893832 0.893832 0.893832 0.893832 0.893832 0.893832 0.893832 0.893832 0.893832 0.893832 0.893832 0.893832 0.893832 0.893832 0.893832 0.893832 0.893832 0.893832 0.893832 0.893832 0.893832 0.893832 0.893832 0.893832 0.893832 0.893832 0.893831 0.893831 0.893831 0.89383 0.893829 0.893828 0.893826 0.893798 0.893817 0.892525 0.891585 0.89042 0.890147 0.890546 0.890783 0.891916 0.892843 0.893821 0.893808 0.893826 0.893828 0.893829 0.89383 0.893831 0.893831 0.893831 0.893832 0.893832 0.893832 0.893832 0.893832 0.893832 0.893832 0.893832 0.893832 0.893832 0.893832 0.893832 0.893832 0.893832 0.893832 0.893832 0.893832 0.893832 0.893832 0.893832 0.893832 0.893832 0.893832 0.893832 0.893832 0.893832 0.893832 0.893832 0.893832 0.893832 0.893832 0.893832 0.893832 0.893832 0.893832 0.893832 0.893832 0.893832 0.893832 0.893832 0.893832 0.893832 0.893832 0.893832 0.893832 0.893832 0.893832 0.893832 0.893832 0.893831 0.893831 0.893831 0.89383 0.893829 0.893828 0.893826 0.893808 0.893821 0.892843 0.891916 0.890783 0.890546 0.890921 0.891126 0.892216 0.893092 0.893824 0.893815 0.893827 0.893828 0.89383 0.89383 0.893831 0.893831 0.893832 0.893832 0.893832 0.893832 0.893832 0.893832 0.893832 0.893832 0.893832 0.893832 0.893832 0.893832 0.893832 0.893832 0.893832 0.893832 0.893832 0.893832 0.893832 0.893832 0.893832 0.893832 0.893832 0.893832 0.893832 0.893832 0.893832 0.893832 0.893832 0.893832 0.893832 0.893832 0.893832 0.893832 0.893832 0.893832 0.893832 0.893832 0.893832 0.893832 0.893832 0.893832 0.893832 0.893832 0.893832 0.893832 0.893832 0.893832 0.893832 0.893832 0.893832 0.893831 0.893831 0.89383 0.89383 0.893828 0.893827 0.893815 0.893824 0.893092 0.892216 0.891126 0.890921 0.89127 0.891446 0.892484 0.893285 0.893825 0.893819 0.893827 0.893829 0.89383 0.893831 0.893831 0.893831 0.893832 0.893832 0.893832 0.893832 0.893832 0.893832 0.893832 0.893832 0.893832 0.893832 0.893832 0.893832 0.893832 0.893832 0.893832 0.893832 0.893832 0.893832 0.893832 0.893832 0.893832 0.893832 0.893832 0.893832 0.893832 0.893832 0.893832 0.893832 0.893832 0.893832 0.893832 0.893832 0.893832 0.893832 0.893832 0.893832 0.893832 0.893832 0.893832 0.893832 0.893832 0.893832 0.893832 0.893832 0.893832 0.893832 0.893832 0.893832 0.893832 0.893832 0.893832 0.893831 0.893831 0.893831 0.89383 0.893829 0.893827 0.893819 0.893825 0.893285 0.892484 0.891446 0.89127 0.891589 0.891742 0.892719 0.893432 0.893826 0.893822 0.893828 0.893829 0.89383 0.893831 0.893831 0.893831 0.893832 0.893832 0.893832 0.893832 0.893832 0.893832 0.893832 0.893832 0.893832 0.893832 0.893832 0.893832 0.893832 0.893832 0.893832 0.893832 0.893832 0.893832 0.893832 0.893832 0.893832 0.893832 0.893832 0.893832 0.893832 0.893832 0.893832 0.893832 0.893832 0.893832 0.893832 0.893832 0.893832 0.893832 0.893832 0.893832 0.893832 0.893832 0.893832 0.893832 0.893832 0.893832 0.893832 0.893832 0.893832 0.893832 0.893832 0.893832 0.893832 0.893832 0.893832 0.893831 0.893831 0.893831 0.89383 0.893829 0.893828 0.893822 0.893826 0.893432 0.892719 0.891742 0.891589 0.891879 0.892013 0.892922 0.893542 0.893826 0.893824 0.893828 0.89383 0.89383 0.893831 0.893831 0.893832 0.893832 0.893832 0.893832 0.893832 0.893832 0.893832 0.893832 0.893832 0.893832 0.893832 0.893832 0.893832 0.893832 0.893832 0.893832 0.893832 0.893832 0.893832 0.893832 0.893832 0.893832 0.893832 0.893832 0.893832 0.893832 0.893832 0.893832 0.893832 0.893832 0.893832 0.893832 0.893832 0.893832 0.893832 0.893832 0.893832 0.893832 0.893832 0.893832 0.893832 0.893832 0.893832 0.893832 0.893832 0.893832 0.893832 0.893832 0.893832 0.893832 0.893832 0.893832 0.893832 0.893831 0.893831 0.89383 0.89383 0.893828 0.893824 0.893826 0.893542 0.892922 0.892013 0.891879 0.892139 0.892259 0.893096 0.893623 0.893827 0.893826 0.893829 0.89383 0.893831 0.893831 0.893831 0.893832 0.893832 0.893832 0.893832 0.893832 0.893832 0.893832 0.893832 0.893832 0.893832 0.893832 0.893832 0.893832 0.893832 0.893832 0.893832 0.893832 0.893832 0.893832 0.893832 0.893832 0.893832 0.893832 0.893832 0.893832 0.893832 0.893832 0.893832 0.893832 0.893832 0.893832 0.893832 0.893832 0.893832 0.893832 0.893832 0.893832 0.893832 0.893832 0.893832 0.893832 0.893832 0.893832 0.893832 0.893832 0.893832 0.893832 0.893832 0.893832 0.893832 0.893832 0.893832 0.893832 0.893831 0.893831 0.893831 0.89383 0.893829 0.893826 0.893827 0.893623 0.893096 0.892259 0.892139 0.892371 0.89248 0.893242 0.893683 0.893828 0.893827 0.893829 0.89383 0.893831 0.893831 0.893831 0.893832 0.893832 0.893832 0.893832 0.893832 0.893832 0.893832 0.893832 0.893832 0.893832 0.893832 0.893832 0.893832 0.893832 0.893832 0.893832 0.893832 0.893832 0.893832 0.893832 0.893832 0.893832 0.893832 0.893832 0.893832 0.893832 0.893832 0.893832 0.893832 0.893832 0.893832 0.893832 0.893832 0.893832 0.893832 0.893832 0.893832 0.893832 0.893832 0.893832 0.893832 0.893832 0.893832 0.893832 0.893832 0.893832 0.893832 0.893832 0.893832 0.893832 0.893832 0.893832 0.893832 0.893831 0.893831 0.893831 0.89383 0.893829 0.893827 0.893828 0.893683 0.893242 0.89248 0.892371 0.892576 0.892678 0.893363 0.893726 0.893828 0.893828 0.89383 0.89383 0.893831 0.893831 0.893832 0.893832 0.893832 0.893832 0.893832 0.893832 0.893832 0.893832 0.893832 0.893832 0.893832 0.893832 0.893832 0.893832 0.893832 0.893832 0.893832 0.893832 0.893832 0.893832 0.893832 0.893832 0.893832 0.893832 0.893832 0.893832 0.893832 0.893832 0.893832 0.893832 0.893832 0.893832 0.893832 0.893832 0.893832 0.893832 0.893832 0.893832 0.893832 0.893832 0.893832 0.893832 0.893832 0.893832 0.893832 0.893832 0.893832 0.893832 0.893832 0.893832 0.893832 0.893832 0.893832 0.893832 0.893832 0.893831 0.893831 0.89383 0.89383 0.893828 0.893828 0.893726 0.893363 0.892678 0.892576 0.892755 0.892853 0.893463 0.893757 0.893829 0.893829 0.89383 0.893831 0.893831 0.893831 0.893832 0.893832 0.893832 0.893832 0.893832 0.893832 0.893832 0.893832 0.893832 0.893832 0.893832 0.893832 0.893832 0.893832 0.893832 0.893832 0.893832 0.893832 0.893832 0.893832 0.893832 0.893832 0.893832 0.893832 0.893832 0.893832 0.893832 0.893832 0.893832 0.893832 0.893832 0.893832 0.893832 0.893832 0.893832 0.893832 0.893832 0.893832 0.893832 0.893832 0.893832 0.893832 0.893832 0.893832 0.893832 0.893832 0.893832 0.893832 0.893832 0.893832 0.893832 0.893832 0.893832 0.893832 0.893832 0.893831 0.893831 0.893831 0.89383 0.893829 0.893829 0.893757 0.893463 0.892853 0.892755 0.892912 0.893007 0.893544 0.893779 0.893829 0.893829 0.89383 0.893831 0.893831 0.893832 0.893832 0.893832 0.893832 0.893832 0.893832 0.893832 0.893832 0.893832 0.893832 0.893832 0.893832 0.893832 0.893832 0.893832 0.893832 0.893832 0.893832 0.893832 0.893832 0.893832 0.893832 0.893832 0.893832 0.893832 0.893832 0.893832 0.893832 0.893832 0.893832 0.893832 0.893832 0.893832 0.893832 0.893832 0.893832 0.893832 0.893832 0.893832 0.893832 0.893832 0.893832 0.893832 0.893832 0.893832 0.893832 0.893832 0.893832 0.893832 0.893832 0.893832 0.893832 0.893832 0.893832 0.893832 0.893832 0.893832 0.893831 0.893831 0.89383 0.893829 0.893829 0.893779 0.893544 0.893007 0.892912 0.893049 0.893141 0.893609 0.893794 0.893829 0.89383 0.893831 0.893831 0.893831 0.893832 0.893832 0.893832 0.893832 0.893832 0.893832 0.893832 0.893832 0.893832 0.893832 0.893832 0.893832 0.893832 0.893832 0.893832 0.893832 0.893832 0.893832 0.893832 0.893832 0.893832 0.893832 0.893832 0.893832 0.893832 0.893832 0.893832 0.893832 0.893832 0.893832 0.893832 0.893832 0.893832 0.893832 0.893832 0.893832 0.893832 0.893832 0.893832 0.893832 0.893832 0.893832 0.893832 0.893832 0.893832 0.893832 0.893832 0.893832 0.893832 0.893832 0.893832 0.893832 0.893832 0.893832 0.893832 0.893832 0.893832 0.893831 0.893831 0.893831 0.89383 0.893829 0.893794 0.893609 0.893141 0.893049 0.893166 0.893256 0.893661 0.893805 0.89383 0.89383 0.893831 0.893831 0.893832 0.893832 0.893832 0.893832 0.893832 0.893832 0.893832 0.893832 0.893832 0.893832 0.893832 0.893832 0.893832 0.893832 0.893832 0.893832 0.893832 0.893832 0.893832 0.893832 0.893832 0.893832 0.893832 0.893832 0.893832 0.893832 0.893832 0.893832 0.893832 0.893832 0.893832 0.893832 0.893832 0.893832 0.893832 0.893832 0.893832 0.893832 0.893832 0.893832 0.893832 0.893832 0.893832 0.893832 0.893832 0.893832 0.893832 0.893832 0.893832 0.893832 0.893832 0.893832 0.893832 0.893832 0.893832 0.893832 0.893832 0.893832 0.893832 0.893831 0.893831 0.89383 0.89383 0.893805 0.893661 0.893256 0.893166 0.893267 0.893356 0.893702 0.893813 0.89383 0.89383 0.893831 0.893831 0.893832 0.893832 0.893832 0.893832 0.893832 0.893832 0.893832 0.893832 0.893832 0.893832 0.893832 0.893832 0.893832 0.893832 0.893832 0.893832 0.893832 0.893832 0.893832 0.893832 0.893832 0.893832 0.893832 0.893832 0.893832 0.893832 0.893832 0.893832 0.893832 0.893832 0.893832 0.893832 0.893832 0.893832 0.893832 0.893832 0.893832 0.893832 0.893832 0.893832 0.893832 0.893832 0.893832 0.893832 0.893832 0.893832 0.893832 0.893832 0.893832 0.893832 0.893832 0.893832 0.893832 0.893832 0.893832 0.893832 0.893832 0.893832 0.893832 0.893831 0.893831 0.89383 0.89383 0.893813 0.893702 0.893356 0.893267 0.893353 0.89344 0.893734 0.893818 0.89383 0.893831 0.893831 0.893832 0.893832 0.893832 0.893832 0.893832 0.893832 0.893832 0.893832 0.893832 0.893832 0.893832 0.893832 0.893832 0.893832 0.893832 0.893832 0.893832 0.893832 0.893832 0.893832 0.893832 0.893832 0.893832 0.893832 0.893832 0.893832 0.893832 0.893832 0.893832 0.893832 0.893832 0.893832 0.893832 0.893832 0.893832 0.893832 0.893832 0.893832 0.893832 0.893832 0.893832 0.893832 0.893832 0.893832 0.893832 0.893832 0.893832 0.893832 0.893832 0.893832 0.893832 0.893832 0.893832 0.893832 0.893832 0.893832 0.893832 0.893832 0.893832 0.893832 0.893832 0.893831 0.893831 0.89383 0.893818 0.893734 0.89344 0.893353 0.893427 0.893511 0.893759 0.893822 0.893831 0.893831 0.893831 0.893832 0.893832 0.893832 0.893832 0.893832 0.893832 0.893832 0.893832 0.893832 0.893832 0.893832 0.893832 0.893832 0.893832 0.893832 0.893832 0.893832 0.893832 0.893832 0.893832 0.893832 0.893832 0.893832 0.893832 0.893832 0.893832 0.893832 0.893832 0.893832 0.893832 0.893832 0.893832 0.893832 0.893832 0.893832 0.893832 0.893832 0.893832 0.893832 0.893832 0.893832 0.893832 0.893832 0.893832 0.893832 0.893832 0.893832 0.893832 0.893832 0.893832 0.893832 0.893832 0.893832 0.893832 0.893832 0.893832 0.893832 0.893832 0.893832 0.893832 0.893832 0.893831 0.893831 0.893831 0.893822 0.893759 0.893511 0.893427 0.893489 0.893571 0.893777 0.893825 0.893831 0.893831 0.893832 0.893832 0.893832 0.893832 0.893832 0.893832 0.893832 0.893832 0.893832 0.893832 0.893832 0.893832 0.893832 0.893832 0.893832 0.893832 0.893832 0.893832 0.893832 0.893832 0.893832 0.893832 0.893832 0.893832 0.893832 0.893832 0.893832 0.893832 0.893832 0.893832 0.893832 0.893832 0.893832 0.893832 0.893832 0.893832 0.893832 0.893832 0.893832 0.893832 0.893832 0.893832 0.893832 0.893832 0.893832 0.893832 0.893832 0.893832 0.893832 0.893832 0.893832 0.893832 0.893832 0.893832 0.893832 0.893832 0.893832 0.893832 0.893832 0.893832 0.893832 0.893832 0.893832 0.893831 0.893831 0.893825 0.893777 0.893571 0.893489 0.893541 0.89362 0.893792 0.893826 0.893831 0.893831 0.893832 0.893832 0.893832 0.893832 0.893832 0.893832 0.893832 0.893832 0.893832 0.893832 0.893832 0.893832 0.893832 0.893832 0.893832 0.893832 0.893832 0.893832 0.893832 0.893832 0.893832 0.893832 0.893832 0.893832 0.893832 0.893832 0.893832 0.893832 0.893832 0.893832 0.893832 0.893832 0.893832 0.893832 0.893832 0.893832 0.893832 0.893832 0.893832 0.893832 0.893832 0.893832 0.893832 0.893832 0.893832 0.893832 0.893832 0.893832 0.893832 0.893832 0.893832 0.893832 0.893832 0.893832 0.893832 0.893832 0.893832 0.893832 0.893832 0.893832 0.893832 0.893832 0.893832 0.893831 0.893831 0.893826 0.893792 0.89362 0.893541 0.893584 0.89366 0.893802 0.893828 0.893831 0.893831 0.893832 0.893832 0.893832 0.893832 0.893832 0.893832 0.893832 0.893832 0.893832 0.893832 0.893832 0.893832 0.893832 0.893832 0.893832 0.893832 0.893832 0.893832 0.893832 0.893832 0.893832 0.893832 0.893832 0.893832 0.893832 0.893832 0.893832 0.893832 0.893832 0.893832 0.893832 0.893832 0.893832 0.893832 0.893832 0.893832 0.893832 0.893832 0.893832 0.893832 0.893832 0.893832 0.893832 0.893832 0.893832 0.893832 0.893832 0.893832 0.893832 0.893832 0.893832 0.893832 0.893832 0.893832 0.893832 0.893832 0.893832 0.893832 0.893832 0.893832 0.893832 0.893832 0.893832 0.893831 0.893831 0.893828 0.893802 0.89366 0.893584 0.893619 0.893692 0.89381 0.893829 0.893831 0.893832 0.893832 0.893832 0.893832 0.893832 0.893832 0.893832 0.893832 0.893832 0.893832 0.893832 0.893832 0.893832 0.893832 0.893832 0.893832 0.893832 0.893832 0.893832 0.893832 0.893832 0.893832 0.893832 0.893832 0.893832 0.893832 0.893832 0.893832 0.893832 0.893832 0.893832 0.893832 0.893832 0.893832 0.893832 0.893832 0.893832 0.893832 0.893832 0.893832 0.893832 0.893832 0.893832 0.893832 0.893832 0.893832 0.893832 0.893832 0.893832 0.893832 0.893832 0.893832 0.893832 0.893832 0.893832 0.893832 0.893832 0.893832 0.893832 0.893832 0.893832 0.893832 0.893832 0.893832 0.893832 0.893831 0.893829 0.89381 0.893692 0.893619 0.893647 0.893718 0.893816 0.89383 0.893832 0.893832 0.893832 0.893832 0.893832 0.893832 0.893832 0.893832 0.893832 0.893832 0.893832 0.893832 0.893832 0.893832 0.893832 0.893832 0.893832 0.893832 0.893832 0.893832 0.893832 0.893832 0.893832 0.893832 0.893832 0.893832 0.893832 0.893832 0.893832 0.893832 0.893832 0.893832 0.893832 0.893832 0.893832 0.893832 0.893832 0.893832 0.893832 0.893832 0.893832 0.893832 0.893832 0.893832 0.893832 0.893832 0.893832 0.893832 0.893832 0.893832 0.893832 0.893832 0.893832 0.893832 0.893832 0.893832 0.893832 0.893832 0.893832 0.893832 0.893832 0.893832 0.893832 0.893832 0.893832 0.893832 0.893832 0.89383 0.893816 0.893718 0.893647 0.893669 0.893737 0.89382 0.89383 0.893832 0.893832 0.893832 0.893832 0.893832 0.893832 0.893832 0.893832 0.893832 0.893832 0.893832 0.893832 0.893832 0.893832 0.893832 0.893832 0.893832 0.893832 0.893832 0.893832 0.893832 0.893832 0.893832 0.893832 0.893832 0.893832 0.893832 0.893832 0.893832 0.893832 0.893832 0.893832 0.893832 0.893832 0.893832 0.893832 0.893832 0.893832 0.893832 0.893832 0.893832 0.893832 0.893832 0.893832 0.893832 0.893832 0.893832 0.893832 0.893832 0.893832 0.893832 0.893832 0.893832 0.893832 0.893832 0.893832 0.893832 0.893832 0.893832 0.893832 0.893832 0.893832 0.893832 0.893832 0.893832 0.893832 0.893832 0.89383 0.89382 0.893737 0.893669 0.893685 0.893751 0.893823 0.89383 0.893832 0.893832 0.893832 0.893832 0.893832 0.893832 0.893832 0.893832 0.893832 0.893832 0.893832 0.893832 0.893832 0.893832 0.893832 0.893832 0.893832 0.893832 0.893832 0.893832 0.893832 0.893832 0.893832 0.893832 0.893832 0.893832 0.893832 0.893832 0.893832 0.893832 0.893832 0.893832 0.893832 0.893832 0.893832 0.893832 0.893832 0.893832 0.893832 0.893832 0.893832 0.893832 0.893832 0.893832 0.893832 0.893832 0.893832 0.893832 0.893832 0.893832 0.893832 0.893832 0.893832 0.893832 0.893832 0.893832 0.893832 0.893832 0.893832 0.893832 0.893832 0.893832 0.893832 0.893832 0.893832 0.893832 0.893832 0.89383 0.893823 0.893751 0.893685 0.893695 0.89376 0.893824 0.893831 0.893832 0.893832 0.893832 0.893832 0.893832 0.893832 0.893832 0.893832 0.893832 0.893832 0.893832 0.893832 0.893832 0.893832 0.893832 0.893832 0.893832 0.893832 0.893832 0.893832 0.893832 0.893832 0.893832 0.893832 0.893832 0.893832 0.893832 0.893832 0.893832 0.893832 0.893832 0.893832 0.893832 0.893832 0.893832 0.893832 0.893832 0.893832 0.893832 0.893832 0.893832 0.893832 0.893832 0.893832 0.893832 0.893832 0.893832 0.893832 0.893832 0.893832 0.893832 0.893832 0.893832 0.893832 0.893832 0.893832 0.893832 0.893832 0.893832 0.893832 0.893832 0.893832 0.893832 0.893832 0.893832 0.893832 0.893832 0.893831 0.893824 0.89376 0.893695 0.8937 0.893764 0.893825 0.893831 0.893832 0.893832 0.893832 0.893832 0.893832 0.893832 0.893832 0.893832 0.893832 0.893832 0.893832 0.893832 0.893832 0.893832 0.893832 0.893832 0.893832 0.893832 0.893832 0.893832 0.893832 0.893832 0.893832 0.893832 0.893832 0.893832 0.893832 0.893832 0.893832 0.893832 0.893832 0.893832 0.893832 0.893832 0.893832 0.893832 0.893832 0.893832 0.893832 0.893832 0.893832 0.893832 0.893832 0.893832 0.893832 0.893832 0.893832 0.893832 0.893832 0.893832 0.893832 0.893832 0.893832 0.893832 0.893832 0.893832 0.893832 0.893832 0.893832 0.893832 0.893832 0.893832 0.893832 0.893832 0.893832 0.893832 0.893832 0.893831 0.893825 0.893764 0.8937 
SCALARS Axial_Stress float 1
LOOKUP_TABLE default
-177868000000.0 -89028600000.0 -290941000000.0 -245825000000.0 -225010000000.0 -217723000000.0 -211837000000.0 -208235000000.0 -205610000000.0 -201213000000.0 -197702000000.0 -197466000000.0 -199010000000.0 -200131000000.0 -199829000000.0 -198002000000.0 -194841000000.0 -190580000000.0 -185464000000.0 -179750000000.0 -173676000000.0 -167449000000.0 -161249000000.0 -155241000000.0 -149566000000.0 -144340000000.0 -139661000000.0 -135605000000.0 -132228000000.0 -129568000000.0 -127652000000.0 -126496000000.0 -126111000000.0 -126496000000.0 -127652000000.0 -129568000000.0 -132228000000.0 -135605000000.0 -139661000000.0 -144340000000.0 -149566000000.0 -155241000000.0 -161249000000.0 -167449000000.0 -173676000000.0 -179750000000.0 -185464000000.0 -190580000000.0 -194841000000.0 -198002000000.0 -199829000000.0 -200131000000.0 -199010000000.0 -197466000000.0 -197702000000.0 -201213000000.0 -205610000000.0 -208235000000.0 -211837000000.0 -217723000000.0 -225010000000.0 -245825000000.0 -290941000000.0 -89028600000.0 -177868000000.0 -466282000000.0 -180711000000.0 -335229000000.0 -335229000000.0 -180711000000.0 -466282000000.0 -558739000000.0 -598191000000.0 -449498000000.0 -264557000000.0 -231598000000.0 -218220000000.0 -205806000000.0 -206385000000.0 -204821000000.0 -202611000000.0 -205624000000.0 -211330000000.0 -215663000000.0 -217142000000.0 -216416000000.0 -214291000000.0 -210999000000.0 -206530000000.0 -200951000000.0 -194468000000.0 -187365000000.0 -179925000000.0 -172395000000.0 -164989000000.0 -157866000000.0 -151201000000.0 -145109000000.0 -139690000000.0 -135015000000.0 -131136000000.0 -128088000000.0 -125897000000.0 -124578000000.0 -124138000000.0 -124578000000.0 -125897000000.0 -128088000000.0 -131136000000.0 -135015000000.0 -139690000000.0 -145109000000.0 -151201000000.0 -157866000000.0 -164989000000.0 -172395000000.0 -179925000000.0 -187365000000.0 -194468000000.0 -200951000000.0 -206530000000.0 -210999000000.0 -214291000000.0 -216416000000.0 -217142000000.0 -215663000000.0 -211330000000.0 -205624000000.0 -202611000000.0 -204821000000.0 -206385000000.0 -205806000000.0 -218220000000.0 -231598000000.0 -264557000000.0 -449498000000.0 -598191000000.0 -558739000000.0 -701067000000.0 -1.09884e+12 -478839000000.0 -344030000000.0 -253455000000.0 -225772000000.0 -227560000000.0 -205207000000.0 -207649000000.0 -222108000000.0 -231690000000.0 -236350000000.0 -236726000000.0 -234255000000.0 -229897000000.0 -223798000000.0 -215995000000.0 -207079000000.0 -197712000000.0 -188174000000.0 -178479000000.0 -168645000000.0 -158789000000.0 -149097000000.0 -139762000000.0 -130949000000.0 -122824000000.0 -115483000000.0 -109009000000.0 -103460000000.0 -98878800000.0 -95290600000.0 -92713300000.0 -91163100000.0 -90645500000.0 -91163100000.0 -92713300000.0 -95290600000.0 -98878800000.0 -103460000000.0 -109009000000.0 -115483000000.0 -122824000000.0 -130949000000.0 -139762000000.0 -149097000000.0 -158789000000.0 -168645000000.0 -178479000000.0 -188174000000.0 -197712000000.0 -207079000000.0 -215995000000.0 -223798000000.0 -229897000000.0 -234255000000.0 -236726000000.0 -236350000000.0 -231690000000.0 -222108000000.0 -207649000000.0 -205207000000.0 -227560000000.0 -225772000000.0 -253455000000.0 -344030000000.0 -478839000000.0 -1.09884e+12 -701067000000.0 -853536000000.0 -1.37214e+12 -1.18207e+12 -1.19967e+12 -756488000000.0 -365838000000.0 -365838000000.0 -756488000000.0 -1.19967e+12 -1.18207e+12 -1.37214e+12 -853536000000.0 -416304000000.0 -1.25407e+12 -1.10352e+12 -949450000000.0 -308127000000.0 -278515000000.0 -200437000000.0 -253414000000.0 -244435000000.0 -249144000000.0 -255097000000.0 -255224000000.0 -252822000000.0 -247888000000.0 -240297000000.0 -230775000000.0 -220283000000.0 -208682000000.0 -196029000000.0 -182973000000.0 -170076000000.0 -157513000000.0 -145261000000.0 -133322000000.0 -121785000000.0 -110800000000.0 -100553000000.0 -91197700000.0 -82839400000.0 -75548100000.0 -69361100000.0 -64294500000.0 -60354200000.0 -57541400000.0 -55856500000.0 -55295100000.0 -55856500000.0 -57541400000.0 -60354200000.0 -64294500000.0 -69361100000.0 -75548100000.0 -82839400000.0 -91197700000.0 -100553000000.0 -110800000000.0 -121785000000.0 -133322000000.0 -145261000000.0 -157513000000.0 -170076000000.0 -182973000000.0 -196029000000.0 -208682000000.0 -220283000000.0 -230775000000.0 -240297000000.0 -247888000000.0 -252822000000.0 -255224000000.0 -255097000000.0 -249144000000.0 -244435000000.0 -253414000000.0 -200437000000.0 -278515000000.0 -308127000000.0 -949450000000.0 -1.10352e+12 -1.25407e+12 -416304000000.0 -427089000000.0 -783629000000.0 -934079000000.0 -1.18499e+12 -705592000000.0 -319238000000.0 -501218000000.0 -288854000000.0 -335668000000.0 -277752000000.0 -268497000000.0 -261375000000.0 -251407000000.0 -240068000000.0 -226934000000.0 -212736000000.0 -198478000000.0 -184248000000.0 -169709000000.0 -155281000000.0 -141735000000.0 -129458000000.0 -118385000000.0 -108292000000.0 -99036600000.0 -90585400000.0 -82945400000.0 -76106200000.0 -70032400000.0 -64698300000.0 -60094400000.0 -56217600000.0 -53063400000.0 -50626500000.0 -48899200000.0 -47869200000.0 -47527000000.0 -47869200000.0 -48899200000.0 -50626500000.0 -53063400000.0 -56217600000.0 -60094400000.0 -64698300000.0 -70032400000.0 -76106200000.0 -82945400000.0 -90585400000.0 -99036600000.0 -108292000000.0 -118385000000.0 -129458000000.0 -141735000000.0 -155281000000.0 -169709000000.0 -184248000000.0 -198478000000.0 -212736000000.0 -226934000000.0 -240068000000.0 -251407000000.0 -261375000000.0 -268497000000.0 -277752000000.0 -335668000000.0 -288854000000.0 -501218000000.0 -319238000000.0 -705592000000.0 -1.18499e+12 -934079000000.0 -783629000000.0 -427089000000.0 -34213200000.0 -323434000000.0 -1.07182e+12 -983240000000.0 -487143000000.0 -1.43177e+12 -1.43177e+12 -487143000000.0 -983240000000.0 -1.07182e+12 -323434000000.0 -34213200000.0 -284423000000.0 -815992000000.0 -1.10211e+12 -428841000000.0 -1.02694e+12 -650512000000.0 -788255000000.0 -301272000000.0 -294124000000.0 -170131000000.0 -137851000000.0 -112133000000.0 -90003100000.0 -71732900000.0 -56088000000.0 -43031300000.0 -33336800000.0 -25843500000.0 -19505800000.0 -14736900000.0 -11926700000.0 -10650600000.0 -10196000000.0 -10064500000.0 -10028000000.0 -10009400000.0 -9989870000.0 -9966860000.0 -9941630000.0 -9915740000.0 -9890530000.0 -9867140000.0 -9846550000.0 -9829630000.0 -9817050000.0 -9809300000.0 -9806680000.0 -9809300000.0 -9817050000.0 -9829630000.0 -9846550000.0 -9867140000.0 -9890530000.0 -9915740000.0 -9941630000.0 -9966860000.0 -9989870000.0 -10009400000.0 -10028000000.0 -10064500000.0 -10196000000.0 -10650600000.0 -11926700000.0 -14736900000.0 -19505800000.0 -25843500000.0 -33336800000.0 -43031300000.0 -56088000000.0 -71732900000.0 -90003100000.0 -112133000000.0 -137851000000.0 -170131000000.0 -294124000000.0 -301272000000.0 -788255000000.0 -650512000000.0 -1.02694e+12 -428841000000.0 -1.10211e+12 -815992000000.0 -284423000000.0 -75229300000.0 -120546000000.0 -34181900000.0 -728614000000.0 -98755100000.0 -512951000000.0 -168603000000.0 -222237000000.0 -167228000000.0 -161213000000.0 -154606000000.0 -147130000000.0 -139476000000.0 -131672000000.0 -123436000000.0 -115022000000.0 -106745000000.0 -98565000000.0 -90463200000.0 -82651700000.0 -75330000000.0 -68540700000.0 -62254800000.0 -56465000000.0 -51196300000.0 -46480300000.0 -42332500000.0 -38743700000.0 -35684500000.0 -33115800000.0 -30999400000.0 -29303800000.0 -28005200000.0 -27087600000.0 -26540800000.0 -26359200000.0 -26540800000.0 -27087600000.0 -28005200000.0 -29303800000.0 -30999400000.0 -33115800000.0 -35684500000.0 -38743700000.0 -42332500000.0 -46480300000.0 -51196300000.0 -56465000000.0 -62254800000.0 -68540700000.0 -75330000000.0 -82651700000.0 -90463200000.0 -98565000000.0 -106745000000.0 -115022000000.0 -123436000000.0 -131672000000.0 -139476000000.0 -147130000000.0 -154606000000.0 -161213000000.0 -167228000000.0 -222237000000.0 -168603000000.0 -512951000000.0 -98755100000.0 -728614000000.0 -34181900000.0 -120546000000.0 -75229300000.0 -114811000000.0 -533304000000.0 -784121000000.0 -784121000000.0 -533304000000.0 -114811000000.0 -38207000000.0 -424713000000.0 -60573400000.0 -332769000000.0 -562443000000.0 -827066000000.0 -131041000000.0 -393644000000.0 -12367400000.0 -44249300000.0 -9035750000.0 -9035750000.0 -9035750000.0 -9035750000.0 -9035750000.0 -9035750000.0 -9035750000.0 -9035750000.0 -9035750000.0 -9035750000.0 -9035750000.0 -9035750000.0 -9035750000.0 -9035750000.0 -9035750000.0 -9035750000.0 -9035750000.0 -9035750000.0 -9035750000.0 -9035750000.0 -9035750000.0 -9035750000.0 -9035750000.0 -9035750000.0 -9035750000.0 -9035750000.0 -9035750000.0 -9035750000.0 -9035750000.0 -9035750000.0 -9035750000.0 -9035750000.0 -9035750000.0 -9035750000.0 -9035750000.0 -9035750000.0 -9035750000.0 -9035750000.0 -9035750000.0 -9035750000.0 -9035750000.0 -9035750000.0 -9035750000.0 -9035750000.0 -9035750000.0 -9035750000.0 -9035750000.0 -9035750000.0 -9035750000.0 -9035750000.0 -9035750000.0 -9035750000.0 -9035750000.0 -9035750000.0 -9035750000.0 -44249300000.0 -12367400000.0 -393644000000.0 -131041000000.0 -827066000000.0 -562443000000.0 -332769000000.0 -60573400000.0 -424713000000.0 -38207000000.0 -232490000000.0 -169434000000.0 -251737000000.0 -10574700000.0 -237978000000.0 -561757000000.0 -121670000000.0 -397294000000.0 -142690000000.0 -145166000000.0 -117151000000.0 -105218000000.0 -94381600000.0 -84790400000.0 -76103000000.0 -67874300000.0 -60039700000.0 -52834500000.0 -46467400000.0 -40994000000.0 -36351600000.0 -32423100000.0 -29085100000.0 -26234900000.0 -23794300000.0 -21701400000.0 -19903800000.0 -18357700000.0 -17028900000.0 -15891200000.0 -14924900000.0 -14114700000.0 -13448300000.0 -12915700000.0 -12509100000.0 -12222600000.0 -12052200000.0 -11995700000.0 -12052200000.0 -12222600000.0 -12509100000.0 -12915700000.0 -13448300000.0 -14114700000.0 -14924900000.0 -15891200000.0 -17028900000.0 -18357700000.0 -19903800000.0 -21701400000.0 -23794300000.0 -26234900000.0 -29085100000.0 -32423100000.0 -36351600000.0 -40994000000.0 -46467400000.0 -52834500000.0 -60039700000.0 -67874300000.0 -76103000000.0 -84790400000.0 -94381600000.0 -105218000000.0 -117151000000.0 -145166000000.0 -142690000000.0 -397294000000.0 -121670000000.0 -561757000000.0 -237978000000.0 -10574700000.0 -251737000000.0 -169434000000.0 -232490000000.0 -208843000000.0 -110311000000.0 -141771000000.0 -71269500000.0 -276791000000.0 -452123000000.0 -15978600000.0 -233577000000.0 -9254580000.0 -15760900000.0 -9035750000.0 -9035750000.0 -9035750000.0 -9035750000.0 -9035750000.0 -9035750000.0 -9035750000.0 -9035750000.0 -9035750000.0 -9035750000.0 -9035750000.0 -9035750000.0 -9035750000.0 -9035750000.0 -9035750000.0 -9035750000.0 -9035750000.0 -9035750000.0 -9035750000.0 -9035760000.0 -9035760000.0 -9035760000.0 -9035760000.0 -9035760000.0 -9035750000.0 -9035750000.0 -9035750000.0 -9035750000.0 -9035750000.0 -9035750000.0 -9035750000.0 -9035760000.0 -9035760000.0 -9035760000.0 -9035760000.0 -9035760000.0 -9035750000.0 -9035750000.0 -9035750000.0 -9035750000.0 -9035750000.0 -9035750000.0 -9035750000.0 -9035750000.0 -9035750000.0 -9035750000.0 -9035750000.0 -9035750000.0 -9035750000.0 -9035750000.0 -9035750000.0 -9035750000.0 -9035750000.0 -9035750000.0 -9035750000.0 -15760900000.0 -9254580000.0 -233577000000.0 -15978600000.0 -452123000000.0 -276791000000.0 -71269500000.0 -141771000000.0 -110311000000.0 -208843000000.0 -112726000000.0 -171701000000.0 -349511000000.0 -42094800000.0 -205270000000.0 -31841300000.0 -27033500000.0 -22427000000.0 -19617800000.0 -17589400000.0 -16057300000.0 -14854600000.0 -13877700000.0 -13068700000.0 -12395600000.0 -11831400000.0 -11354200000.0 -10953100000.0 -10621600000.0 -10350300000.0 -10126700000.0 -9939800000.0 -9781590000.0 -9647100000.0 -9533160000.0 -9437470000.0 -9357970000.0 -9292670000.0 -9239800000.0 -9197840000.0 -9165500000.0 -9141670000.0 -9125390000.0 -9115920000.0 -9112820000.0 -9115920000.0 -9125390000.0 -9141670000.0 -9165500000.0 -9197840000.0 -9239800000.0 -9292670000.0 -9357970000.0 -9437470000.0 -9533160000.0 -9647100000.0 -9781590000.0 -9939800000.0 -10126700000.0 -10350300000.0 -10621600000.0 -10953100000.0 -11354200000.0 -11831400000.0 -12395600000.0 -13068700000.0 -13877700000.0 -14854600000.0 -16057300000.0 -17589400000.0 -19617800000.0 -22427000000.0 -27033500000.0 -31841300000.0 -205270000000.0 -42094800000.0 -349511000000.0 -171701000000.0 -112726000000.0 -196730000000.0 -119121000000.0 -61933600000.0 -61933600000.0 -119121000000.0 -196730000000.0 -171127000000.0 -104126000000.0 -77005800000.0 -70972100000.0 -145865000000.0 -264925000000.0 -9249660000.0 -138497000000.0 -9038150000.0 -9040990000.0 -9037010000.0 -9036660000.0 -9036410000.0 -9036230000.0 -9036110000.0 -9036030000.0 -9035960000.0 -9035920000.0 -9035880000.0 -9035860000.0 -9035850000.0 -9035850000.0 -9035850000.0 -9035840000.0 -9035830000.0 -9035820000.0 -9035810000.0 -9035810000.0 -9035800000.0 -9035800000.0 -9035790000.0 -9035780000.0 -9035770000.0 -9035770000.0 -9035760000.0 -9035760000.0 -9035750000.0 -9035750000.0 -9035750000.0 -9035760000.0 -9035760000.0 -9035770000.0 -9035770000.0 -9035780000.0 -9035790000.0 -9035800000.0 -9035800000.0 -9035810000.0 -9035810000.0 -9035820000.0 -9035830000.0 -9035840000.0 -9035850000.0 -9035850000.0 -9035850000.0 -9035860000.0 -9035880000.0 -9035920000.0 -9035960000.0 -9036030000.0 -9036110000.0 -9036230000.0 -9036410000.0 -9036660000.0 -9037010000.0 -9040990000.0 -9038150000.0 -138497000000.0 -9249660000.0 -264925000000.0 -145865000000.0 -70972100000.0 -77005800000.0 -104126000000.0 -171127000000.0 -126360000000.0 -209942000000.0 -9043690000.0 -104754000000.0 -9049960000.0 -9057570000.0 -9063040000.0 -9084810000.0 -9100340000.0 -9100830000.0 -9114150000.0 -9123130000.0 -9105380000.0 -9075090000.0 -9052310000.0 -9041260000.0 -9037350000.0 -9036260000.0 -9035990000.0 -9035920000.0 -9035900000.0 -9035870000.0 -9035860000.0 -9035840000.0 -9035830000.0 -9035820000.0 -9035800000.0 -9035790000.0 -9035780000.0 -9035770000.0 -9035760000.0 -9035760000.0 -9035750000.0 -9035750000.0 -9035750000.0 -9035760000.0 -9035760000.0 -9035770000.0 -9035780000.0 -9035790000.0 -9035800000.0 -9035820000.0 -9035830000.0 -9035840000.0 -9035860000.0 -9035870000.0 -9035900000.0 -9035920000.0 -9035990000.0 -9036260000.0 -9037350000.0 -9041260000.0 -9052310000.0 -9075090000.0 -9105380000.0 -9123130000.0 -9114150000.0 -9100830000.0 -9100340000.0 -9084810000.0 -9063040000.0 -9057570000.0 -9049960000.0 -104754000000.0 -9043690000.0 -209942000000.0 -126360000000.0 -150909000000.0 -103820000000.0 -64979600000.0 -82226000000.0 -82226000000.0 -64979600000.0 -103820000000.0 -150909000000.0 -129856000000.0 -99897700000.0 -56739100000.0 -88750800000.0 -109132000000.0 -164822000000.0 -9053120000.0 -78641900000.0 -9046590000.0 -9043830000.0 -9041440000.0 -9039850000.0 -9038710000.0 -9037910000.0 -9037380000.0 -9036980000.0 -9036700000.0 -9036490000.0 -9036340000.0 -9036230000.0 -9036150000.0 -9036080000.0 -9036030000.0 -9035990000.0 -9035950000.0 -9035920000.0 -9035890000.0 -9035870000.0 -9035850000.0 -9035830000.0 -9035820000.0 -9035800000.0 -9035790000.0 -9035780000.0 -9035770000.0 -9035760000.0 -9035750000.0 -9035750000.0 -9035750000.0 -9035760000.0 -9035770000.0 -9035780000.0 -9035790000.0 -9035800000.0 -9035820000.0 -9035830000.0 -9035850000.0 -9035870000.0 -9035890000.0 -9035920000.0 -9035950000.0 -9035990000.0 -9036030000.0 -9036080000.0 -9036150000.0 -9036230000.0 -9036340000.0 -9036490000.0 -9036700000.0 -9036980000.0 -9037380000.0 -9037910000.0 -9038710000.0 -9039850000.0 -9041440000.0 -9043830000.0 -9046590000.0 -78641900000.0 -9053120000.0 -164822000000.0 -109132000000.0 -88750800000.0 -56739100000.0 -99897700000.0 -129856000000.0 -111766000000.0 -95961700000.0 -51408500000.0 -91917200000.0 -93021700000.0 -127672000000.0 -9061430000.0 -58797000000.0 -9050540000.0 -9046700000.0 -9043460000.0 -9041300000.0 -9039750000.0 -9038680000.0 -9037950000.0 -9037410000.0 -9037030000.0 -9036750000.0 -9036540000.0 -9036380000.0 -9036260000.0 -9036170000.0 -9036100000.0 -9036040000.0 -9036000000.0 -9035960000.0 -9035920000.0 -9035900000.0 -9035870000.0 -9035850000.0 -9035830000.0 -9035810000.0 -9035790000.0 -9035780000.0 -9035770000.0 -9035760000.0 -9035750000.0 -9035750000.0 -9035750000.0 -9035760000.0 -9035770000.0 -9035780000.0 -9035790000.0 -9035810000.0 -9035830000.0 -9035850000.0 -9035870000.0 -9035900000.0 -9035920000.0 -9035960000.0 -9036000000.0 -9036040000.0 -9036100000.0 -9036170000.0 -9036260000.0 -9036380000.0 -9036540000.0 -9036750000.0 -9037030000.0 -9037410000.0 -9037950000.0 -9038680000.0 -9039750000.0 -9041300000.0 -9043460000.0 -9046700000.0 -9050540000.0 -58797000000.0 -9061430000.0 -127672000000.0 -93021700000.0 -91917200000.0 -51408500000.0 -95961700000.0 -111766000000.0 -96661900000.0 -91398200000.0 -48023800000.0 -92494100000.0 -78265400000.0 -97929000000.0 -9068960000.0 -43948900000.0 -9054160000.0 -9049290000.0 -9045290000.0 -9042620000.0 -9040690000.0 -9039360000.0 -9038460000.0 -9037800000.0 -9037320000.0 -9036970000.0 -9036700000.0 -9036510000.0 -9036360000.0 -9036250000.0 -9036160000.0 -9036090000.0 -9036040000.0 -9035990000.0 -9035950000.0 -9035920000.0 -9035890000.0 -9035860000.0 -9035840000.0 -9035820000.0 -9035800000.0 -9035780000.0 -9035770000.0 -9035760000.0 -9035750000.0 -9035750000.0 -9035750000.0 -9035760000.0 -9035770000.0 -9035780000.0 -9035800000.0 -9035820000.0 -9035840000.0 -9035860000.0 -9035890000.0 -9035920000.0 -9035950000.0 -9035990000.0 -9036040000.0 -9036090000.0 -9036160000.0 -9036250000.0 -9036360000.0 -9036510000.0 -9036700000.0 -9036970000.0 -9037320000.0 -9037800000.0 -9038460000.0 -9039360000.0 -9040690000.0 -9042620000.0 -9045290000.0 -9049290000.0 -9054160000.0 -43948900000.0 -9068960000.0 -97929000000.0 -78265400000.0 -92494100000.0 -48023800000.0 -91398200000.0 -96661900000.0 -84716800000.0 -86480300000.0 -46023300000.0 -90956100000.0 -65143800000.0 -74723700000.0 -9075690000.0 -33038700000.0 -9057390000.0 -9051560000.0 -9046880000.0 -9043760000.0 -9041510000.0 -9039960000.0 -9038900000.0 -9038120000.0 -9037560000.0 -9037150000.0 -9036840000.0 -9036620000.0 -9036450000.0 -9036320000.0 -9036210000.0 -9036130000.0 -9036070000.0 -9036010000.0 -9035970000.0 -9035930000.0 -9035900000.0 -9035870000.0 -9035840000.0 -9035820000.0 -9035800000.0 -9035790000.0 -9035770000.0 -9035760000.0 -9035750000.0 -9035750000.0 -9035750000.0 -9035760000.0 -9035770000.0 -9035790000.0 -9035800000.0 -9035820000.0 -9035840000.0 -9035870000.0 -9035900000.0 -9035930000.0 -9035970000.0 -9036010000.0 -9036070000.0 -9036130000.0 -9036210000.0 -9036320000.0 -9036450000.0 -9036620000.0 -9036840000.0 -9037150000.0 -9037560000.0 -9038120000.0 -9038900000.0 -9039960000.0 -9041510000.0 -9043760000.0 -9046880000.0 -9051560000.0 -9057390000.0 -33038700000.0 -9075690000.0 -74723700000.0 -65143800000.0 -90956100000.0 -46023300000.0 -86480300000.0 -84716800000.0 -75747800000.0 -81458700000.0 -44887600000.0 -87778800000.0 -53773300000.0 -56978600000.0 -9081560000.0 -25206000000.0 -9060200000.0 -9053470000.0 -9048220000.0 -9044720000.0 -9042200000.0 -9040450000.0 -9039260000.0 -9038390000.0 -9037760000.0 -9037300000.0 -9036950000.0 -9036700000.0 -9036510000.0 -9036370000.0 -9036250000.0 -9036170000.0 -9036090000.0 -9036030000.0 -9035980000.0 -9035940000.0 -9035910000.0 -9035880000.0 -9035850000.0 -9035830000.0 -9035800000.0 -9035790000.0 -9035770000.0 -9035760000.0 -9035750000.0 -9035750000.0 -9035750000.0 -9035760000.0 -9035770000.0 -9035790000.0 -9035800000.0 -9035830000.0 -9035850000.0 -9035880000.0 -9035910000.0 -9035940000.0 -9035980000.0 -9036030000.0 -9036090000.0 -9036170000.0 -9036250000.0 -9036370000.0 -9036510000.0 -9036700000.0 -9036950000.0 -9037300000.0 -9037760000.0 -9038390000.0 -9039260000.0 -9040450000.0 -9042200000.0 -9044720000.0 -9048220000.0 -9053470000.0 -9060200000.0 -25206000000.0 -9081560000.0 -56978600000.0 -53773300000.0 -87778800000.0 -44887600000.0 -81458700000.0 -75747800000.0 -69282700000.0 -76521300000.0 -44176500000.0 -83365500000.0 -44149500000.0 -43637900000.0 -9086590000.0 -19718900000.0 -9062520000.0 -9055000000.0 -9049300000.0 -9045480000.0 -9042740000.0 -9040840000.0 -9039540000.0 -9038600000.0 -9037910000.0 -9037410000.0 -9037040000.0 -9036760000.0 -9036560000.0 -9036400000.0 -9036280000.0 -9036190000.0 -9036110000.0 -9036050000.0 -9035990000.0 -9035950000.0 -9035910000.0 -9035880000.0 -9035850000.0 -9035830000.0 -9035810000.0 -9035790000.0 -9035770000.0 -9035760000.0 -9035750000.0 -9035750000.0 -9035750000.0 -9035760000.0 -9035770000.0 -9035790000.0 -9035810000.0 -9035830000.0 -9035850000.0 -9035880000.0 -9035910000.0 -9035950000.0 -9035990000.0 -9036050000.0 -9036110000.0 -9036190000.0 -9036280000.0 -9036400000.0 -9036560000.0 -9036760000.0 -9037040000.0 -9037410000.0 -9037910000.0 -9038600000.0 -9039540000.0 -9040840000.0 -9042740000.0 -9045480000.0 -9049300000.0 -9055000000.0 -9062520000.0 -19718900000.0 -9086590000.0 -43637900000.0 -44149500000.0 -83365500000.0 -44176500000.0 -76521300000.0 -69282700000.0 -64676600000.0 -71777100000.0 -43608400000.0 -78066200000.0 -36159100000.0 -33759600000.0 -9090690000.0 -15963000000.0 -9064320000.0 -9056140000.0 -9050100000.0 -9046050000.0 -9043140000.0 -9041130000.0 -9039750000.0 -9038750000.0 -9038020000.0 -9037490000.0 -9037090000.0 -9036810000.0 -9036590000.0 -9036430000.0 -9036300000.0 -9036200000.0 -9036120000.0 -9036050000.0 -9036000000.0 -9035950000.0 -9035910000.0 -9035880000.0 -9035850000.0 -9035830000.0 -9035810000.0 -9035790000.0 -9035770000.0 -9035760000.0 -9035750000.0 -9035750000.0 -9035750000.0 -9035760000.0 -9035770000.0 -9035790000.0 -9035810000.0 -9035830000.0 -9035850000.0 -9035880000.0 -9035910000.0 -9035950000.0 -9036000000.0 -9036050000.0 -9036120000.0 -9036200000.0 -9036300000.0 -9036430000.0 -9036590000.0 -9036810000.0 -9037090000.0 -9037490000.0 -9038020000.0 -9038750000.0 -9039750000.0 -9041130000.0 -9043140000.0 -9046050000.0 -9050100000.0 -9056140000.0 -9064320000.0 -15963000000.0 -9090690000.0 -33759600000.0 -36159100000.0 -78066200000.0 -43608400000.0 -71777100000.0 -64676600000.0 -61309900000.0 -67272200000.0 -42984100000.0 -72192100000.0 -29633700000.0 -26552100000.0 -9093750000.0 -13449000000.0 -9065590000.0 -9056910000.0 -9050640000.0 -9046430000.0 -9043410000.0 -9041320000.0 -9039880000.0 -9038840000.0 -9038090000.0 -9037540000.0 -9037130000.0 -9036830000.0 -9036610000.0 -9036440000.0 -9036310000.0 -9036200000.0 -9036120000.0 -9036050000.0 -9036000000.0 -9035950000.0 -9035910000.0 -9035880000.0 -9035850000.0 -9035830000.0 -9035810000.0 -9035790000.0 -9035770000.0 -9035760000.0 -9035750000.0 -9035750000.0 -9035750000.0 -9035760000.0 -9035770000.0 -9035790000.0 -9035810000.0 -9035830000.0 -9035850000.0 -9035880000.0 -9035910000.0 -9035950000.0 -9036000000.0 -9036050000.0 -9036120000.0 -9036200000.0 -9036310000.0 -9036440000.0 -9036610000.0 -9036830000.0 -9037130000.0 -9037540000.0 -9038090000.0 -9038840000.0 -9039880000.0 -9041320000.0 -9043410000.0 -9046430000.0 -9050640000.0 -9056910000.0 -9065590000.0 -13449000000.0 -9093750000.0 -26552100000.0 -29633700000.0 -72192100000.0 -42984100000.0 -67272200000.0 -61309900000.0 -58697800000.0 -63020400000.0 -42144400000.0 -66010200000.0 -24398800000.0 -21372800000.0 -9095750000.0 -11803400000.0 -9066340000.0 -9057340000.0 -9050930000.0 -9046630000.0 -9043550000.0 -9041410000.0 -9039950000.0 -9038880000.0 -9038110000.0 -9037560000.0 -9037140000.0 -9036840000.0 -9036610000.0 -9036440000.0 -9036310000.0 -9036200000.0 -9036120000.0 -9036050000.0 -9036000000.0 -9035950000.0 -9035910000.0 -9035880000.0 -9035850000.0 -9035830000.0 -9035800000.0 -9035790000.0 -9035770000.0 -9035760000.0 -9035750000.0 -9035750000.0 -9035750000.0 -9035760000.0 -9035770000.0 -9035790000.0 -9035800000.0 -9035830000.0 -9035850000.0 -9035880000.0 -9035910000.0 -9035950000.0 -9036000000.0 -9036050000.0 -9036120000.0 -9036200000.0 -9036310000.0 -9036440000.0 -9036610000.0 -9036840000.0 -9037140000.0 -9037560000.0 -9038110000.0 -9038880000.0 -9039950000.0 -9041410000.0 -9043550000.0 -9046630000.0 -9050930000.0 -9057340000.0 -9066340000.0 -11803400000.0 -9095750000.0 -21372800000.0 -24398800000.0 -66010200000.0 -42144400000.0 -63020400000.0 -58697800000.0 -56462300000.0 -59025500000.0 -40995900000.0 -59740200000.0 -20284900000.0 -17702100000.0 -9096760000.0 -10748000000.0 -9066620000.0 -9057440000.0 -9051000000.0 -9046670000.0 -9043570000.0 -9041420000.0 -9039950000.0 -9038880000.0 -9038110000.0 -9037550000.0 -9037130000.0 -9036830000.0 -9036600000.0 -9036430000.0 -9036300000.0 -9036190000.0 -9036110000.0 -9036040000.0 -9035990000.0 -9035940000.0 -9035910000.0 -9035870000.0 -9035850000.0 -9035820000.0 -9035800000.0 -9035790000.0 -9035770000.0 -9035760000.0 -9035750000.0 -9035750000.0 -9035750000.0 -9035760000.0 -9035770000.0 -9035790000.0 -9035800000.0 -9035820000.0 -9035850000.0 -9035870000.0 -9035910000.0 -9035940000.0 -9035990000.0 -9036040000.0 -9036110000.0 -9036190000.0 -9036300000.0 -9036430000.0 -9036600000.0 -9036830000.0 -9037130000.0 -9037550000.0 -9038110000.0 -9038880000.0 -9039950000.0 -9041420000.0 -9043570000.0 -9046670000.0 -9051000000.0 -9057440000.0 -9066620000.0 -10748000000.0 -9096760000.0 -17702100000.0 -20284900000.0 -59740200000.0 -40995900000.0 -59025500000.0 -56462300000.0 -54310100000.0 -55279600000.0 -39522400000.0 -53562600000.0 -17123000000.0 -15125700000.0 -9096840000.0 -10082800000.0 -9066450000.0 -9057260000.0 -9050860000.0 -9046570000.0 -9043490000.0 -9041360000.0 -9039900000.0 -9038840000.0 -9038070000.0 -9037520000.0 -9037110000.0 -9036810000.0 -9036580000.0 -9036410000.0 -9036280000.0 -9036180000.0 -9036100000.0 -9036030000.0 -9035980000.0 -9035940000.0 -9035900000.0 -9035870000.0 -9035840000.0 -9035820000.0 -9035800000.0 -9035780000.0 -9035770000.0 -9035760000.0 -9035750000.0 -9035750000.0 -9035750000.0 -9035760000.0 -9035770000.0 -9035780000.0 -9035800000.0 -9035820000.0 -9035840000.0 -9035870000.0 -9035900000.0 -9035940000.0 -9035980000.0 -9036030000.0 -9036100000.0 -9036180000.0 -9036280000.0 -9036410000.0 -9036580000.0 -9036810000.0 -9037110000.0 -9037520000.0 -9038070000.0 -9038840000.0 -9039900000.0 -9041360000.0 -9043490000.0 -9046570000.0 -9050860000.0 -9057260000.0 -9066450000.0 -10082800000.0 -9096840000.0 -15125700000.0 -17123000000.0 -53562600000.0 -39522400000.0 -55279600000.0 -54310100000.0 -52054200000.0 -51757400000.0 -37763200000.0 -47626500000.0 -14746300000.0 -13325600000.0 -9096110000.0 -9670010000.0 -9065900000.0 -9056820000.0 -9050550000.0 -9046340000.0 -9043320000.0 -9041230000.0 -9039800000.0 -9038760000.0 -9038010000.0 -9037470000.0 -9037070000.0 -9036770000.0 -9036550000.0 -9036390000.0 -9036260000.0 -9036160000.0 -9036080000.0 -9036020000.0 -9035970000.0 -9035930000.0 -9035890000.0 -9035860000.0 -9035840000.0 -9035810000.0 -9035800000.0 -9035780000.0 -9035770000.0 -9035760000.0 -9035750000.0 -9035750000.0 -9035750000.0 -9035760000.0 -9035770000.0 -9035780000.0 -9035800000.0 -9035810000.0 -9035840000.0 -9035860000.0 -9035890000.0 -9035930000.0 -9035970000.0 -9036020000.0 -9036080000.0 -9036160000.0 -9036260000.0 -9036390000.0 -9036550000.0 -9036770000.0 -9037070000.0 -9037470000.0 -9038010000.0 -9038760000.0 -9039800000.0 -9041230000.0 -9043320000.0 -9046340000.0 -9050550000.0 -9056820000.0 -9065900000.0 -9670010000.0 -9096110000.0 -13325600000.0 -14746300000.0 -47626500000.0 -37763200000.0 -51757400000.0 -52054200000.0 -49619100000.0 -48422500000.0 -35783400000.0 -42051500000.0 -12997700000.0 -12068400000.0 -9094650000.0 -9417780000.0 -9065020000.0 -9056170000.0 -9050090000.0 -9046000000.0 -9043080000.0 -9041050000.0 -9039660000.0 -9038650000.0 -9037930000.0 -9037400000.0 -9037010000.0 -9036730000.0 -9036520000.0 -9036360000.0 -9036240000.0 -9036140000.0 -9036070000.0 -9036010000.0 -9035960000.0 -9035920000.0 -9035880000.0 -9035850000.0 -9035830000.0 -9035810000.0 -9035790000.0 -9035780000.0 -9035770000.0 -9035760000.0 -9035750000.0 -9035750000.0 -9035750000.0 -9035760000.0 -9035770000.0 -9035780000.0 -9035790000.0 -9035810000.0 -9035830000.0 -9035850000.0 -9035880000.0 -9035920000.0 -9035960000.0 -9036010000.0 -9036070000.0 -9036140000.0 -9036240000.0 -9036360000.0 -9036520000.0 -9036730000.0 -9037010000.0 -9037400000.0 -9037930000.0 -9038650000.0 -9039660000.0 -9041050000.0 -9043080000.0 -9046000000.0 -9050090000.0 -9056170000.0 -9065020000.0 -9417780000.0 -9094650000.0 -12068400000.0 -12997700000.0 -42051500000.0 -35783400000.0 -48422500000.0 -49619100000.0 -47010800000.0 -45240400000.0 -33654600000.0 -36925400000.0 -11737500000.0 -11188100000.0 -9092600000.0 -9266390000.0 -9063860000.0 -9055340000.0 -9049500000.0 -9045570000.0 -9042770000.0 -9040830000.0 -9039490000.0 -9038520000.0 -9037830000.0 -9037320000.0 -9036950000.0 -9036680000.0 -9036480000.0 -9036320000.0 -9036210000.0 -9036120000.0 -9036050000.0 -9035990000.0 -9035940000.0 -9035900000.0 -9035870000.0 -9035850000.0 -9035820000.0 -9035810000.0 -9035790000.0 -9035780000.0 -9035770000.0 -9035760000.0 -9035750000.0 -9035750000.0 -9035750000.0 -9035760000.0 -9035770000.0 -9035780000.0 -9035790000.0 -9035810000.0 -9035820000.0 -9035850000.0 -9035870000.0 -9035900000.0 -9035940000.0 -9035990000.0 -9036050000.0 -9036120000.0 -9036210000.0 -9036320000.0 -9036480000.0 -9036680000.0 -9036950000.0 -9037320000.0 -9037830000.0 -9038520000.0 -9039490000.0 -9040830000.0 -9042770000.0 -9045570000.0 -9049500000.0 -9055340000.0 -9063860000.0 -9266390000.0 -9092600000.0 -11188100000.0 -11737500000.0 -36925400000.0 -33654600000.0 -45240400000.0 -47010800000.0 -44277100000.0 -42187300000.0 -31445300000.0 -32304000000.0 -10847500000.0 -10569100000.0 -9090060000.0 -9177320000.0 -9062490000.0 -9054360000.0 -9048810000.0 -9045070000.0 -9042410000.0 -9040560000.0 -9039290000.0 -9038370000.0 -9037710000.0 -9037230000.0 -9036880000.0 -9036620000.0 -9036430000.0 -9036290000.0 -9036180000.0 -9036090000.0 -9036030000.0 -9035970000.0 -9035930000.0 -9035890000.0 -9035860000.0 -9035840000.0 -9035820000.0 -9035800000.0 -9035790000.0 -9035770000.0 -9035770000.0 -9035760000.0 -9035750000.0 -9035750000.0 -9035750000.0 -9035760000.0 -9035770000.0 -9035770000.0 -9035790000.0 -9035800000.0 -9035820000.0 -9035840000.0 -9035860000.0 -9035890000.0 -9035930000.0 -9035970000.0 -9036030000.0 -9036090000.0 -9036180000.0 -9036290000.0 -9036430000.0 -9036620000.0 -9036880000.0 -9037230000.0 -9037710000.0 -9038370000.0 -9039290000.0 -9040560000.0 -9042410000.0 -9045070000.0 -9048810000.0 -9054360000.0 -9062490000.0 -9177320000.0 -9090060000.0 -10569100000.0 -10847500000.0 -32304000000.0 -31445300000.0 -42187300000.0 -44277100000.0 -41478700000.0 -39253200000.0 -29217000000.0 -28213300000.0 -10231200000.0 -10131200000.0 -9087140000.0 -9125940000.0 -9060950000.0 -9053280000.0 -9048040000.0 -9044520000.0 -9042010000.0 -9040280000.0 -9039080000.0 -9038210000.0 -9037590000.0 -9037140000.0 -9036810000.0 -9036560000.0 -9036380000.0 -9036250000.0 -9036150000.0 -9036070000.0 -9036000000.0 -9035950000.0 -9035910000.0 -9035880000.0 -9035850000.0 -9035830000.0 -9035810000.0 -9035800000.0 -9035780000.0 -9035770000.0 -9035760000.0 -9035760000.0 -9035750000.0 -9035750000.0 -9035750000.0 -9035760000.0 -9035760000.0 -9035770000.0 -9035780000.0 -9035800000.0 -9035810000.0 -9035830000.0 -9035850000.0 -9035880000.0 -9035910000.0 -9035950000.0 -9036000000.0 -9036070000.0 -9036150000.0 -9036250000.0 -9036380000.0 -9036560000.0 -9036810000.0 -9037140000.0 -9037590000.0 -9038210000.0 -9039080000.0 -9040280000.0 -9042010000.0 -9044520000.0 -9048040000.0 -9053280000.0 -9060950000.0 -9125940000.0 -9087140000.0 -10131200000.0 -10231200000.0 -28213300000.0 -29217000000.0 -39253200000.0 -41478700000.0 -38675000000.0 -36439100000.0 -27022700000.0 -24653800000.0 -9813050000.0 -9819700000.0 -9083940000.0 -9096760000.0 -9059300000.0 -9052120000.0 -9047230000.0 -9043930000.0 -9041590000.0 -9039970000.0 -9038850000.0 -9038040000.0 -9037460000.0 -9037040000.0 -9036730000.0 -9036500000.0 -9036330000.0 -9036210000.0 -9036110000.0 -9036040000.0 -9035980000.0 -9035930000.0 -9035900000.0 -9035870000.0 -9035840000.0 -9035820000.0 -9035810000.0 -9035790000.0 -9035780000.0 -9035770000.0 -9035760000.0 -9035760000.0 -9035750000.0 -9035750000.0 -9035750000.0 -9035760000.0 -9035760000.0 -9035770000.0 -9035780000.0 -9035790000.0 -9035810000.0 -9035820000.0 -9035840000.0 -9035870000.0 -9035900000.0 -9035930000.0 -9035980000.0 -9036040000.0 -9036110000.0 -9036210000.0 -9036330000.0 -9036500000.0 -9036730000.0 -9037040000.0 -9037460000.0 -9038040000.0 -9038850000.0 -9039970000.0 -9041590000.0 -9043930000.0 -9047230000.0 -9052120000.0 -9059300000.0 -9096760000.0 -9083940000.0 -9819700000.0 -9813050000.0 -24653800000.0 -27022700000.0 -36439100000.0 -38675000000.0 -35918100000.0 -33753000000.0 -24906000000.0 -21606300000.0 -9535160000.0 -9597000000.0 -9080550000.0 -9080220000.0 -9057570000.0 -9050910000.0 -9046380000.0 -9043330000.0 -9041160000.0 -9039650000.0 -9038610000.0 -9037860000.0 -9037320000.0 -9036930000.0 -9036650000.0 -9036440000.0 -9036280000.0 -9036170000.0 -9036080000.0 -9036010000.0 -9035960000.0 -9035920000.0 -9035880000.0 -9035850000.0 -9035830000.0 -9035810000.0 -9035800000.0 -9035790000.0 -9035780000.0 -9035770000.0 -9035760000.0 -9035760000.0 -9035750000.0 -9035750000.0 -9035750000.0 -9035760000.0 -9035760000.0 -9035770000.0 -9035780000.0 -9035790000.0 -9035800000.0 -9035810000.0 -9035830000.0 -9035850000.0 -9035880000.0 -9035920000.0 -9035960000.0 -9036010000.0 -9036080000.0 -9036170000.0 -9036280000.0 -9036440000.0 -9036650000.0 -9036930000.0 -9037320000.0 -9037860000.0 -9038610000.0 -9039650000.0 -9041160000.0 -9043330000.0 -9046380000.0 -9050910000.0 -9057570000.0 -9080220000.0 -9080550000.0 -9597000000.0 -9535160000.0 -21606300000.0 -24906000000.0 -33753000000.0 -35918100000.0 -33251000000.0 -31206200000.0 -22901100000.0 -19037100000.0 -9354600000.0 -9437410000.0 -9077070000.0 -9070650000.0 -9055820000.0 -9049680000.0 -9045520000.0 -9042710000.0 -9040710000.0 -9039330000.0 -9038370000.0 -9037680000.0 -9037190000.0 -9036830000.0 -9036570000.0 -9036380000.0 -9036230000.0 -9036130000.0 -9036050000.0 -9035990000.0 -9035940000.0 -9035900000.0 -9035870000.0 -9035840000.0 -9035820000.0 -9035810000.0 -9035790000.0 -9035780000.0 -9035770000.0 -9035770000.0 -9035760000.0 -9035760000.0 -9035750000.0 -9035750000.0 -9035750000.0 -9035760000.0 -9035760000.0 -9035770000.0 -9035770000.0 -9035780000.0 -9035790000.0 -9035810000.0 -9035820000.0 -9035840000.0 -9035870000.0 -9035900000.0 -9035940000.0 -9035990000.0 -9036050000.0 -9036130000.0 -9036230000.0 -9036380000.0 -9036570000.0 -9036830000.0 -9037190000.0 -9037680000.0 -9038370000.0 -9039330000.0 -9040710000.0 -9042710000.0 -9045520000.0 -9049680000.0 -9055820000.0 -9070650000.0 -9077070000.0 -9437410000.0 -9354600000.0 -19037100000.0 -22901100000.0 -31206200000.0 -33251000000.0 -30707600000.0 -28809700000.0 -21033200000.0 -16903000000.0 -9240000000.0 -9323170000.0 -9073560000.0 -9064770000.0 -9054060000.0 -9048460000.0 -9044660000.0 -9042090000.0 -9040270000.0 -9039010000.0 -9038140000.0 -9037510000.0 -9037050000.0 -9036730000.0 -9036490000.0 -9036310000.0 -9036180000.0 -9036090000.0 -9036020000.0 -9035960000.0 -9035920000.0 -9035880000.0 -9035850000.0 -9035830000.0 -9035810000.0 -9035800000.0 -9035790000.0 -9035780000.0 -9035770000.0 -9035760000.0 -9035760000.0 -9035760000.0 -9035750000.0 -9035750000.0 -9035750000.0 -9035760000.0 -9035760000.0 -9035760000.0 -9035770000.0 -9035780000.0 -9035790000.0 -9035800000.0 -9035810000.0 -9035830000.0 -9035850000.0 -9035880000.0 -9035920000.0 -9035960000.0 -9036020000.0 -9036090000.0 -9036180000.0 -9036310000.0 -9036490000.0 -9036730000.0 -9037050000.0 -9037510000.0 -9038140000.0 -9039010000.0 -9040270000.0 -9042090000.0 -9044660000.0 -9048460000.0 -9054060000.0 -9064770000.0 -9073560000.0 -9323170000.0 -9240000000.0 -16903000000.0 -21033200000.0 -28809700000.0 -30707600000.0 -28312900000.0 -26573000000.0 -19319200000.0 -15155600000.0 -9168930000.0 -9241760000.0 -9070090000.0 -9060780000.0 -9052340000.0 -9047270000.0 -9043820000.0 -9041490000.0 -9039850000.0 -9038700000.0 -9037910000.0 -9037330000.0 -9036930000.0 -9036630000.0 -9036410000.0 -9036260000.0 -9036140000.0 -9036050000.0 -9035990000.0 -9035940000.0 -9035900000.0 -9035870000.0 -9035840000.0 -9035820000.0 -9035810000.0 -9035790000.0 -9035780000.0 -9035770000.0 -9035770000.0 -9035760000.0 -9035760000.0 -9035760000.0 -9035750000.0 -9035750000.0 -9035750000.0 -9035760000.0 -9035760000.0 -9035760000.0 -9035770000.0 -9035770000.0 -9035780000.0 -9035790000.0 -9035810000.0 -9035820000.0 -9035840000.0 -9035870000.0 -9035900000.0 -9035940000.0 -9035990000.0 -9036050000.0 -9036140000.0 -9036260000.0 -9036410000.0 -9036630000.0 -9036930000.0 -9037330000.0 -9037910000.0 -9038700000.0 -9039850000.0 -9041490000.0 -9043820000.0 -9047270000.0 -9052340000.0 -9060780000.0 -9070090000.0 -9241760000.0 -9168930000.0 -15155600000.0 -19319200000.0 -26573000000.0 -28312900000.0 -26084100000.0 -24502100000.0 -17768600000.0 -13744600000.0 -9125700000.0 -9184100000.0 -9066720000.0 -9057740000.0 -9050680000.0 -9046110000.0 -9043010000.0 -9040910000.0 -9039430000.0 -9038400000.0 -9037680000.0 -9037170000.0 -9036800000.0 -9036540000.0 -9036340000.0 -9036200000.0 -9036090000.0 -9036020000.0 -9035960000.0 -9035910000.0 -9035880000.0 -9035850000.0 -9035830000.0 -9035810000.0 -9035800000.0 -9035790000.0 -9035780000.0 -9035770000.0 -9035770000.0 -9035760000.0 -9035760000.0 -9035750000.0 -9035750000.0 -9035750000.0 -9035750000.0 -9035750000.0 -9035760000.0 -9035760000.0 -9035770000.0 -9035770000.0 -9035780000.0 -9035790000.0 -9035800000.0 -9035810000.0 -9035830000.0 -9035850000.0 -9035880000.0 -9035910000.0 -9035960000.0 -9036020000.0 -9036090000.0 -9036200000.0 -9036340000.0 -9036540000.0 -9036800000.0 -9037170000.0 -9037680000.0 -9038400000.0 -9039430000.0 -9040910000.0 -9043010000.0 -9046110000.0 -9050680000.0 -9057740000.0 -9066720000.0 -9184100000.0 -9125700000.0 -13744600000.0 -17768600000.0 -24502100000.0 -26084100000.0 -24031100000.0 -22599900000.0 -16384400000.0 -12620700000.0 -9099700000.0 -9143530000.0 -9063480000.0 -9055200000.0 -9049100000.0 -9045010000.0 -9042230000.0 -9040360000.0 -9039040000.0 -9038110000.0 -9037470000.0 -9037010000.0 -9036680000.0 -9036450000.0 -9036270000.0 -9036150000.0 -9036050000.0 -9035980000.0 -9035930000.0 -9035890000.0 -9035860000.0 -9035840000.0 -9035820000.0 -9035800000.0 -9035790000.0 -9035780000.0 -9035780000.0 -9035770000.0 -9035760000.0 -9035760000.0 -9035760000.0 -9035750000.0 -9035750000.0 -9035750000.0 -9035750000.0 -9035750000.0 -9035760000.0 -9035760000.0 -9035760000.0 -9035770000.0 -9035780000.0 -9035780000.0 -9035790000.0 -9035800000.0 -9035820000.0 -9035840000.0 -9035860000.0 -9035890000.0 -9035930000.0 -9035980000.0 -9036050000.0 -9036150000.0 -9036270000.0 -9036450000.0 -9036680000.0 -9037010000.0 -9037470000.0 -9038110000.0 -9039040000.0 -9040360000.0 -9042230000.0 -9045010000.0 -9049100000.0 -9055200000.0 -9063480000.0 -9143530000.0 -9099700000.0 -12620700000.0 -16384400000.0 -22599900000.0 -24031100000.0 -22158000000.0 -20866000000.0 -15164200000.0 -11737300000.0 -9083970000.0 -9115090000.0 -9060420000.0 -9052950000.0 -9047600000.0 -9043970000.0 -9041500000.0 -9039840000.0 -9038660000.0 -9037850000.0 -9037270000.0 -9036870000.0 -9036570000.0 -9036360000.0 -9036210000.0 -9036100000.0 -9036020000.0 -9035950000.0 -9035910000.0 -9035870000.0 -9035850000.0 -9035830000.0 -9035810000.0 -9035800000.0 -9035790000.0 -9035780000.0 -9035770000.0 -9035770000.0 -9035760000.0 -9035760000.0 -9035760000.0 -9035750000.0 -9035750000.0 -9035750000.0 -9035750000.0 -9035750000.0 -9035760000.0 -9035760000.0 -9035760000.0 -9035770000.0 -9035770000.0 -9035780000.0 -9035790000.0 -9035800000.0 -9035810000.0 -9035830000.0 -9035850000.0 -9035870000.0 -9035910000.0 -9035950000.0 -9036020000.0 -9036100000.0 -9036210000.0 -9036360000.0 -9036570000.0 -9036870000.0 -9037270000.0 -9037850000.0 -9038660000.0 -9039840000.0 -9041500000.0 -9043970000.0 -9047600000.0 -9052950000.0 -9060420000.0 -9115090000.0 -9083970000.0 -11737300000.0 -15164200000.0 -20866000000.0 -22158000000.0 -20463800000.0 -19297300000.0 -14101700000.0 -11051700000.0 -9074170000.0 -9095180000.0 -9057560000.0 -9050910000.0 -9046210000.0 -9043000000.0 -9040830000.0 -9039360000.0 -9038320000.0 -9037600000.0 -9037090000.0 -9036730000.0 -9036470000.0 -9036290000.0 -9036150000.0 -9036050000.0 -9035980000.0 -9035930000.0 -9035890000.0 -9035860000.0 -9035830000.0 -9035820000.0 -9035800000.0 -9035790000.0 -9035780000.0 -9035770000.0 -9035770000.0 -9035760000.0 -9035760000.0 -9035760000.0 -9035760000.0 -9035750000.0 -9035750000.0 -9035750000.0 -9035750000.0 -9035750000.0 -9035760000.0 -9035760000.0 -9035760000.0 -9035760000.0 -9035770000.0 -9035770000.0 -9035780000.0 -9035790000.0 -9035800000.0 -9035820000.0 -9035830000.0 -9035860000.0 -9035890000.0 -9035930000.0 -9035980000.0 -9036050000.0 -9036150000.0 -9036290000.0 -9036470000.0 -9036730000.0 -9037090000.0 -9037600000.0 -9038320000.0 -9039360000.0 -9040830000.0 -9043000000.0 -9046210000.0 -9050910000.0 -9057560000.0 -9095180000.0 -9074170000.0 -11051700000.0 -14101700000.0 -19297300000.0 -20463800000.0 -18943400000.0 -17888000000.0 -13187000000.0 -10526400000.0 -9067680000.0 -9081150000.0 -9054900000.0 -9049040000.0 -9044920000.0 -9042110000.0 -9040200000.0 -9038910000.0 -9038000000.0 -9037360000.0 -9036920000.0 -9036610000.0 -9036380000.0 -9036220000.0 -9036100000.0 -9036010000.0 -9035950000.0 -9035900000.0 -9035870000.0 -9035840000.0 -9035820000.0 -9035810000.0 -9035790000.0 -9035780000.0 -9035780000.0 -9035770000.0 -9035770000.0 -9035760000.0 -9035760000.0 -9035760000.0 -9035760000.0 -9035750000.0 -9035750000.0 -9035750000.0 -9035750000.0 -9035750000.0 -9035760000.0 -9035760000.0 -9035760000.0 -9035760000.0 -9035770000.0 -9035770000.0 -9035780000.0 -9035780000.0 -9035790000.0 -9035810000.0 -9035820000.0 -9035840000.0 -9035870000.0 -9035900000.0 -9035950000.0 -9036010000.0 -9036100000.0 -9036220000.0 -9036380000.0 -9036610000.0 -9036920000.0 -9037360000.0 -9038000000.0 -9038910000.0 -9040200000.0 -9042110000.0 -9044920000.0 -9049040000.0 -9054900000.0 -9081150000.0 -9067680000.0 -10526400000.0 -13187000000.0 -17888000000.0 -18943400000.0 -17589000000.0 -16630600000.0 -12408400000.0 -10128700000.0 -9063000000.0 -9071150000.0 -9052470000.0 -9047330000.0 -9043740000.0 -9041290000.0 -9039630000.0 -9038500000.0 -9037710000.0 -9037150000.0 -9036770000.0 -9036490000.0 -9036290000.0 -9036150000.0 -9036050000.0 -9035980000.0 -9035920000.0 -9035880000.0 -9035850000.0 -9035830000.0 -9035810000.0 -9035800000.0 -9035790000.0 -9035780000.0 -9035770000.0 -9035770000.0 -9035760000.0 -9035760000.0 -9035760000.0 -9035760000.0 -9035750000.0 -9035750000.0 -9035750000.0 -9035750000.0 -9035750000.0 -9035750000.0 -9035750000.0 -9035760000.0 -9035760000.0 -9035760000.0 -9035760000.0 -9035770000.0 -9035770000.0 -9035780000.0 -9035790000.0 -9035800000.0 -9035810000.0 -9035830000.0 -9035850000.0 -9035880000.0 -9035920000.0 -9035980000.0 -9036050000.0 -9036150000.0 -9036290000.0 -9036490000.0 -9036770000.0 -9037150000.0 -9037710000.0 -9038500000.0 -9039630000.0 -9041290000.0 -9043740000.0 -9047330000.0 -9052470000.0 -9071150000.0 -9063000000.0 -10128700000.0 -12408400000.0 -16630600000.0 -17589000000.0 -16390300000.0 -15516300000.0 -11752700000.0 -9831110000.0 -9059340000.0 -9063880000.0 -9050260000.0 -9045790000.0 -9042680000.0 -9040550000.0 -9039110000.0 -9038130000.0 -9037440000.0 -9036960000.0 -9036630000.0 -9036390000.0 -9036220000.0 -9036100000.0 -9036010000.0 -9035940000.0 -9035900000.0 -9035860000.0 -9035840000.0 -9035820000.0 -9035800000.0 -9035790000.0 -9035780000.0 -9035770000.0 -9035770000.0 -9035760000.0 -9035760000.0 -9035760000.0 -9035760000.0 -9035760000.0 -9035750000.0 -9035750000.0 -9035750000.0 -9035750000.0 -9035750000.0 -9035750000.0 -9035750000.0 -9035760000.0 -9035760000.0 -9035760000.0 -9035760000.0 -9035760000.0 -9035770000.0 -9035770000.0 -9035780000.0 -9035790000.0 -9035800000.0 -9035820000.0 -9035840000.0 -9035860000.0 -9035900000.0 -9035940000.0 -9036010000.0 -9036100000.0 -9036220000.0 -9036390000.0 -9036630000.0 -9036960000.0 -9037440000.0 -9038130000.0 -9039110000.0 -9040550000.0 -9042680000.0 -9045790000.0 -9050260000.0 -9063880000.0 -9059340000.0 -9831110000.0 -11752700000.0 -15516300000.0 -16390300000.0 -15336000000.0 -14535300000.0 -11206400000.0 -9610840000.0 -9056260000.0 -9058460000.0 -9048270000.0 -9044400000.0 -9041720000.0 -9039880000.0 -9038640000.0 -9037800000.0 -9037210000.0 -9036790000.0 -9036500000.0 -9036300000.0 -9036150000.0 -9036050000.0 -9035970000.0 -9035910000.0 -9035870000.0 -9035840000.0 -9035820000.0 -9035810000.0 -9035790000.0 -9035780000.0 -9035780000.0 -9035770000.0 -9035770000.0 -9035760000.0 -9035760000.0 -9035760000.0 -9035760000.0 -9035750000.0 -9035750000.0 -9035750000.0 -9035750000.0 -9035750000.0 -9035750000.0 -9035750000.0 -9035750000.0 -9035750000.0 -9035760000.0 -9035760000.0 -9035760000.0 -9035760000.0 -9035770000.0 -9035770000.0 -9035780000.0 -9035780000.0 -9035790000.0 -9035810000.0 -9035820000.0 -9035840000.0 -9035870000.0 -9035910000.0 -9035970000.0 -9036050000.0 -9036150000.0 -9036300000.0 -9036500000.0 -9036790000.0 -9037210000.0 -9037800000.0 -9038640000.0 -9039880000.0 -9041720000.0 -9044400000.0 -9048270000.0 -9058460000.0 -9056260000.0 -9610840000.0 -11206400000.0 -14535300000.0 -15336000000.0 -14413700000.0 -13677100000.0 -10755800000.0 -9449460000.0 -9053580000.0 -9054310000.0 -9046490000.0 -9043170000.0 -9040860000.0 -9039290000.0 -9038230000.0 -9037500000.0 -9037000000.0 -9036640000.0 -9036390000.0 -9036220000.0 -9036090000.0 -9036000000.0 -9035940000.0 -9035890000.0 -9035850000.0 -9035830000.0 -9035810000.0 -9035800000.0 -9035790000.0 -9035780000.0 -9035770000.0 -9035770000.0 -9035760000.0 -9035760000.0 -9035760000.0 -9035760000.0 -9035760000.0 -9035750000.0 -9035750000.0 -9035750000.0 -9035750000.0 -9035750000.0 -9035750000.0 -9035750000.0 -9035750000.0 -9035750000.0 -9035760000.0 -9035760000.0 -9035760000.0 -9035760000.0 -9035760000.0 -9035770000.0 -9035770000.0 -9035780000.0 -9035790000.0 -9035800000.0 -9035810000.0 -9035830000.0 -9035850000.0 -9035890000.0 -9035940000.0 -9036000000.0 -9036090000.0 -9036220000.0 -9036390000.0 -9036640000.0 -9037000000.0 -9037500000.0 -9038230000.0 -9039290000.0 -9040860000.0 -9043170000.0 -9046490000.0 -9054310000.0 -9053580000.0 -9449460000.0 -10755800000.0 -13677100000.0 -14413700000.0 -13611000000.0 -12931200000.0 -10387800000.0 -9332310000.0 -9051200000.0 -9051050000.0 -9044910000.0 -9042070000.0 -9040100000.0 -9038760000.0 -9037860000.0 -9037240000.0 -9036810000.0 -9036510000.0 -9036300000.0 -9036140000.0 -9036040000.0 -9035960000.0 -9035910000.0 -9035870000.0 -9035840000.0 -9035820000.0 -9035800000.0 -9035790000.0 -9035780000.0 -9035770000.0 -9035770000.0 -9035760000.0 -9035760000.0 -9035760000.0 -9035760000.0 -9035760000.0 -9035750000.0 -9035750000.0 -9035750000.0 -9035750000.0 -9035750000.0 -9035750000.0 -9035750000.0 -9035750000.0 -9035750000.0 -9035750000.0 -9035750000.0 -9035760000.0 -9035760000.0 -9035760000.0 -9035760000.0 -9035760000.0 -9035770000.0 -9035770000.0 -9035780000.0 -9035790000.0 -9035800000.0 -9035820000.0 -9035840000.0 -9035870000.0 -9035910000.0 -9035960000.0 -9036040000.0 -9036140000.0 -9036300000.0 -9036510000.0 -9036810000.0 -9037240000.0 -9037860000.0 -9038760000.0 -9040100000.0 -9042070000.0 -9044910000.0 -9051050000.0 -9051200000.0 -9332310000.0 -10387800000.0 -12931200000.0 -13611000000.0 -12915500000.0 -12287000000.0 -10090100000.0 -9247950000.0 -9049080000.0 -9048420000.0 -9043520000.0 -9041110000.0 -9039440000.0 -9038300000.0 -9037530000.0 -9037010000.0 -9036650000.0 -9036390000.0 -9036210000.0 -9036080000.0 -9035990000.0 -9035930000.0 -9035880000.0 -9035850000.0 -9035820000.0 -9035810000.0 -9035790000.0 -9035780000.0 -9035770000.0 -9035770000.0 -9035770000.0 -9035760000.0 -9035760000.0 -9035760000.0 -9035760000.0 -9035760000.0 -9035750000.0 -9035750000.0 -9035750000.0 -9035750000.0 -9035750000.0 -9035750000.0 -9035750000.0 -9035750000.0 -9035750000.0 -9035750000.0 -9035750000.0 -9035760000.0 -9035760000.0 -9035760000.0 -9035760000.0 -9035760000.0 -9035770000.0 -9035770000.0 -9035770000.0 -9035780000.0 -9035790000.0 -9035810000.0 -9035820000.0 -9035850000.0 -9035880000.0 -9035930000.0 -9035990000.0 -9036080000.0 -9036210000.0 -9036390000.0 -9036650000.0 -9037010000.0 -9037530000.0 -9038300000.0 -9039440000.0 -9041110000.0 -9043520000.0 -9048420000.0 -9049080000.0 -9247950000.0 -10090100000.0 -12287000000.0 -12915500000.0 -12315500000.0 -11734100000.0 -9851630000.0 -9187590000.0 -9047180000.0 -9046260000.0 -9042310000.0 -9040270000.0 -9038860000.0 -9037900000.0 -9037250000.0 -9036810000.0 -9036500000.0 -9036290000.0 -9036140000.0 -9036030000.0 -9035950000.0 -9035900000.0 -9035860000.0 -9035830000.0 -9035810000.0 -9035800000.0 -9035780000.0 -9035780000.0 -9035770000.0 -9035770000.0 -9035760000.0 -9035760000.0 -9035760000.0 -9035760000.0 -9035760000.0 -9035750000.0 -9035750000.0 -9035750000.0 -9035750000.0 -9035750000.0 -9035750000.0 -9035750000.0 -9035750000.0 -9035750000.0 -9035750000.0 -9035750000.0 -9035750000.0 -9035750000.0 -9035760000.0 -9035760000.0 -9035760000.0 -9035760000.0 -9035760000.0 -9035770000.0 -9035770000.0 -9035780000.0 -9035780000.0 -9035800000.0 -9035810000.0 -9035830000.0 -9035860000.0 -9035900000.0 -9035950000.0 -9036030000.0 -9036140000.0 -9036290000.0 -9036500000.0 -9036810000.0 -9037250000.0 -9037900000.0 -9038860000.0 -9040270000.0 -9042310000.0 -9046260000.0 -9047180000.0 -9187590000.0 -9851630000.0 -11734100000.0 -12315500000.0 -11799800000.0 -11262700000.0 -9662300000.0 -9144610000.0 -9045510000.0 -9044460000.0 -9041260000.0 -9039540000.0 -9038360000.0 -9037550000.0 -9037010000.0 -9036640000.0 -9036380000.0 -9036200000.0 -9036070000.0 -9035980000.0 -9035920000.0 -9035870000.0 -9035840000.0 -9035820000.0 -9035800000.0 -9035790000.0 -9035780000.0 -9035770000.0 -9035770000.0 -9035760000.0 -9035760000.0 -9035760000.0 -9035760000.0 -9035760000.0 -9035760000.0 -9035750000.0 -9035750000.0 -9035750000.0 -9035750000.0 -9035750000.0 -9035750000.0 -9035750000.0 -9035750000.0 -9035750000.0 -9035750000.0 -9035750000.0 -9035750000.0 -9035750000.0 -9035760000.0 -9035760000.0 -9035760000.0 -9035760000.0 -9035760000.0 -9035760000.0 -9035770000.0 -9035770000.0 -9035780000.0 -9035790000.0 -9035800000.0 -9035820000.0 -9035840000.0 -9035870000.0 -9035920000.0 -9035980000.0 -9036070000.0 -9036200000.0 -9036380000.0 -9036640000.0 -9037010000.0 -9037550000.0 -9038360000.0 -9039540000.0 -9041260000.0 -9044460000.0 -9045510000.0 -9144610000.0 -9662300000.0 -11262700000.0 -11799800000.0 -11357900000.0 -10863100000.0 -9513340000.0 -9114090000.0 -9044030000.0 -9042960000.0 -9040350000.0 -9038910000.0 -9037920000.0 -9037250000.0 -9036800000.0 -9036490000.0 -9036270000.0 -9036120000.0 -9036020000.0 -9035940000.0 -9035890000.0 -9035850000.0 -9035820000.0 -9035810000.0 -9035790000.0 -9035780000.0 -9035770000.0 -9035770000.0 -9035760000.0 -9035760000.0 -9035760000.0 -9035760000.0 -9035760000.0 -9035760000.0 -9035750000.0 -9035750000.0 -9035750000.0 -9035750000.0 -9035750000.0 -9035750000.0 -9035750000.0 -9035750000.0 -9035750000.0 -9035750000.0 -9035750000.0 -9035750000.0 -9035750000.0 -9035750000.0 -9035750000.0 -9035760000.0 -9035760000.0 -9035760000.0 -9035760000.0 -9035760000.0 -9035760000.0 -9035770000.0 -9035770000.0 -9035780000.0 -9035790000.0 -9035810000.0 -9035820000.0 -9035850000.0 -9035890000.0 -9035940000.0 -9036020000.0 -9036120000.0 -9036270000.0 -9036490000.0 -9036800000.0 -9037250000.0 -9037920000.0 -9038910000.0 -9040350000.0 -9042960000.0 -9044030000.0 -9114090000.0 -9513340000.0 -10863100000.0 -11357900000.0 -10980600000.0 -10526700000.0 -9397170000.0 -9092420000.0 -9042740000.0 -9041700000.0 -9039570000.0 -9038370000.0 -9037550000.0 -9037000000.0 -9036620000.0 -9036360000.0 -9036180000.0 -9036060000.0 -9035970000.0 -9035910000.0 -9035860000.0 -9035830000.0 -9035810000.0 -9035800000.0 -9035780000.0 -9035780000.0 -9035770000.0 -9035770000.0 -9035760000.0 -9035760000.0 -9035760000.0 -9035760000.0 -9035760000.0 -9035750000.0 -9035750000.0 -9035750000.0 -9035750000.0 -9035750000.0 -9035750000.0 -9035750000.0 -9035750000.0 -9035750000.0 -9035750000.0 -9035750000.0 -9035750000.0 -9035750000.0 -9035750000.0 -9035750000.0 -9035750000.0 -9035750000.0 -9035760000.0 -9035760000.0 -9035760000.0 -9035760000.0 -9035760000.0 -9035770000.0 -9035770000.0 -9035780000.0 -9035780000.0 -9035800000.0 -9035810000.0 -9035830000.0 -9035860000.0 -9035910000.0 -9035970000.0 -9036060000.0 -9036180000.0 -9036360000.0 -9036620000.0 -9037000000.0 -9037550000.0 -9038370000.0 -9039570000.0 -9041700000.0 -9042740000.0 -9092420000.0 -9397170000.0 -10526700000.0 -10980600000.0 -10659100000.0 -10245000000.0 -9307340000.0 -9077010000.0 -9041610000.0 -9040640000.0 -9038910000.0 -9037910000.0 -9037240000.0 -9036780000.0 -9036470000.0 -9036250000.0 -9036110000.0 -9036000000.0 -9035930000.0 -9035880000.0 -9035840000.0 -9035820000.0 -9035800000.0 -9035790000.0 -9035780000.0 -9035770000.0 -9035770000.0 -9035760000.0 -9035760000.0 -9035760000.0 -9035760000.0 -9035760000.0 -9035750000.0 -9035750000.0 -9035750000.0 -9035750000.0 -9035750000.0 -9035750000.0 -9035750000.0 -9035750000.0 -9035750000.0 -9035750000.0 -9035750000.0 -9035750000.0 -9035750000.0 -9035750000.0 -9035750000.0 -9035750000.0 -9035750000.0 -9035750000.0 -9035750000.0 -9035760000.0 -9035760000.0 -9035760000.0 -9035760000.0 -9035760000.0 -9035770000.0 -9035770000.0 -9035780000.0 -9035790000.0 -9035800000.0 -9035820000.0 -9035840000.0 -9035880000.0 -9035930000.0 -9036000000.0 -9036110000.0 -9036250000.0 -9036470000.0 -9036780000.0 -9037240000.0 -9037910000.0 -9038910000.0 -9040640000.0 -9041610000.0 -9077010000.0 -9307340000.0 -10245000000.0 -10659100000.0 -10385800000.0 -10010800000.0 -9238440000.0 -9066000000.0 -9040640000.0 -9039750000.0 -9038340000.0 -9037530000.0 -9036970000.0 -9036590000.0 -9036340000.0 -9036160000.0 -9036040000.0 -9035960000.0 -9035900000.0 -9035860000.0 -9035830000.0 -9035810000.0 -9035790000.0 -9035780000.0 -9035770000.0 -9035770000.0 -9035760000.0 -9035760000.0 -9035760000.0 -9035760000.0 -9035760000.0 -9035760000.0 -9035750000.0 -9035750000.0 -9035750000.0 -9035750000.0 -9035750000.0 -9035750000.0 -9035750000.0 -9035750000.0 -9035750000.0 -9035750000.0 -9035750000.0 -9035750000.0 -9035750000.0 -9035750000.0 -9035750000.0 -9035750000.0 -9035750000.0 -9035750000.0 -9035750000.0 -9035760000.0 -9035760000.0 -9035760000.0 -9035760000.0 -9035760000.0 -9035760000.0 -9035770000.0 -9035770000.0 -9035780000.0 -9035790000.0 -9035810000.0 -9035830000.0 -9035860000.0 -9035900000.0 -9035960000.0 -9036040000.0 -9036160000.0 -9036340000.0 -9036590000.0 -9036970000.0 -9037530000.0 -9038340000.0 -9039750000.0 -9040640000.0 -9066000000.0 -9238440000.0 -10010800000.0 -10385800000.0 -10153900000.0 -9817000000.0 -9186020000.0 -9058070000.0 -9039800000.0 -9039000000.0 -9037870000.0 -9037200000.0 -9036750000.0 -9036440000.0 -9036230000.0 -9036090000.0 -9035990000.0 -9035920000.0 -9035870000.0 -9035840000.0 -9035810000.0 -9035790000.0 -9035780000.0 -9035770000.0 -9035770000.0 -9035760000.0 -9035760000.0 -9035760000.0 -9035760000.0 -9035760000.0 -9035760000.0 -9035750000.0 -9035750000.0 -9035750000.0 -9035750000.0 -9035750000.0 -9035750000.0 -9035750000.0 -9035750000.0 -9035750000.0 -9035750000.0 -9035750000.0 -9035750000.0 -9035750000.0 -9035750000.0 -9035750000.0 -9035750000.0 -9035750000.0 -9035750000.0 -9035750000.0 -9035750000.0 -9035750000.0 -9035760000.0 -9035760000.0 -9035760000.0 -9035760000.0 -9035760000.0 -9035760000.0 -9035770000.0 -9035770000.0 -9035780000.0 -9035790000.0 -9035810000.0 -9035840000.0 -9035870000.0 -9035920000.0 -9035990000.0 -9036090000.0 -9036230000.0 -9036440000.0 -9036750000.0 -9037200000.0 -9037870000.0 -9039000000.0 -9039800000.0 -9058070000.0 -9186020000.0 -9817000000.0 -10153900000.0 -9957300000.0 -9657620000.0 -9146430000.0 -9052320000.0 -9039090000.0 -9038380000.0 -9037470000.0 -9036930000.0 -9036560000.0 -9036310000.0 -9036140000.0 -9036020000.0 -9035940000.0 -9035890000.0 -9035850000.0 -9035820000.0 -9035800000.0 -9035790000.0 -9035780000.0 -9035770000.0 -9035770000.0 -9035760000.0 -9035760000.0 -9035760000.0 -9035760000.0 -9035760000.0 -9035750000.0 -9035750000.0 -9035750000.0 -9035750000.0 -9035750000.0 -9035750000.0 -9035750000.0 -9035750000.0 -9035750000.0 -9035750000.0 -9035750000.0 -9035750000.0 -9035750000.0 -9035750000.0 -9035750000.0 -9035750000.0 -9035750000.0 -9035750000.0 -9035750000.0 -9035750000.0 -9035750000.0 -9035750000.0 -9035750000.0 -9035760000.0 -9035760000.0 -9035760000.0 -9035760000.0 -9035760000.0 -9035770000.0 -9035770000.0 -9035780000.0 -9035790000.0 -9035800000.0 -9035820000.0 -9035850000.0 -9035890000.0 -9035940000.0 -9036020000.0 -9036140000.0 -9036310000.0 -9036560000.0 -9036930000.0 -9037470000.0 -9038380000.0 -9039090000.0 -9052320000.0 -9146430000.0 -9657620000.0 -9957300000.0 -9790610000.0 -9527160000.0 -9116740000.0 -9048100000.0 -9038480000.0 -9037870000.0 -9037140000.0 -9036700000.0 -9036400000.0 -9036200000.0 -9036060000.0 -9035970000.0 -9035900000.0 -9035860000.0 -9035830000.0 -9035810000.0 -9035790000.0 -9035780000.0 -9035770000.0 -9035770000.0 -9035760000.0 -9035760000.0 -9035760000.0 -9035760000.0 -9035760000.0 -9035750000.0 -9035750000.0 -9035750000.0 -9035750000.0 -9035750000.0 -9035750000.0 -9035750000.0 -9035750000.0 -9035750000.0 -9035750000.0 -9035750000.0 -9035750000.0 -9035750000.0 -9035750000.0 -9035750000.0 -9035750000.0 -9035750000.0 -9035750000.0 -9035750000.0 -9035750000.0 -9035750000.0 -9035750000.0 -9035750000.0 -9035750000.0 -9035750000.0 -9035760000.0 -9035760000.0 -9035760000.0 -9035760000.0 -9035760000.0 -9035770000.0 -9035770000.0 -9035780000.0 -9035790000.0 -9035810000.0 -9035830000.0 -9035860000.0 -9035900000.0 -9035970000.0 -9036060000.0 -9036200000.0 -9036400000.0 -9036700000.0 -9037140000.0 -9037870000.0 -9038480000.0 -9048100000.0 -9116740000.0 -9527160000.0 -9790610000.0 -9649120000.0 -9420780000.0 -9094610000.0 -9044980000.0 -9037960000.0 -9037440000.0 -9036860000.0 -9036510000.0 -9036270000.0 -9036110000.0 -9036000000.0 -9035920000.0 -9035870000.0 -9035840000.0 -9035810000.0 -9035790000.0 -9035780000.0 -9035770000.0 -9035770000.0 -9035760000.0 -9035760000.0 -9035760000.0 -9035760000.0 -9035760000.0 -9035750000.0 -9035750000.0 -9035750000.0 -9035750000.0 -9035750000.0 -9035750000.0 -9035750000.0 -9035750000.0 -9035750000.0 -9035750000.0 -9035750000.0 -9035750000.0 -9035750000.0 -9035750000.0 -9035750000.0 -9035750000.0 -9035750000.0 -9035750000.0 -9035750000.0 -9035750000.0 -9035750000.0 -9035750000.0 -9035750000.0 -9035750000.0 -9035750000.0 -9035750000.0 -9035750000.0 -9035760000.0 -9035760000.0 -9035760000.0 -9035760000.0 -9035760000.0 -9035770000.0 -9035770000.0 -9035780000.0 -9035790000.0 -9035810000.0 -9035840000.0 -9035870000.0 -9035920000.0 -9036000000.0 -9036110000.0 -9036270000.0 -9036510000.0 -9036860000.0 -9037440000.0 -9037960000.0 -9044980000.0 -9094610000.0 -9420780000.0 -9649120000.0 -9528640000.0 -9334210000.0 -9078190000.0 -9042630000.0 -9037510000.0 -9037080000.0 -9036630000.0 -9036350000.0 -9036160000.0 -9036030000.0 -9035950000.0 -9035890000.0 -9035850000.0 -9035820000.0 -9035800000.0 -9035790000.0 -9035780000.0 -9035770000.0 -9035760000.0 -9035760000.0 -9035760000.0 -9035760000.0 -9035760000.0 -9035750000.0 -9035750000.0 -9035750000.0 -9035750000.0 -9035750000.0 -9035750000.0 -9035750000.0 -9035750000.0 -9035750000.0 -9035750000.0 -9035750000.0 -9035750000.0 -9035750000.0 -9035750000.0 -9035750000.0 -9035750000.0 -9035750000.0 -9035750000.0 -9035750000.0 -9035750000.0 -9035750000.0 -9035750000.0 -9035750000.0 -9035750000.0 -9035750000.0 -9035750000.0 -9035750000.0 -9035750000.0 -9035750000.0 -9035760000.0 -9035760000.0 -9035760000.0 -9035760000.0 -9035760000.0 -9035770000.0 -9035780000.0 -9035790000.0 -9035800000.0 -9035820000.0 -9035850000.0 -9035890000.0 -9035950000.0 -9036030000.0 -9036160000.0 -9036350000.0 -9036630000.0 -9037080000.0 -9037510000.0 -9042630000.0 -9078190000.0 -9334210000.0 -9528640000.0 -9425450000.0 -9263720000.0 -9066030000.0 -9040840000.0 -9037140000.0 -9036790000.0 -9036430000.0 -9036220000.0 -9036070000.0 -9035970000.0 -9035900000.0 -9035860000.0 -9035830000.0 -9035800000.0 -9035790000.0 -9035780000.0 -9035770000.0 -9035770000.0 -9035760000.0 -9035760000.0 -9035760000.0 -9035760000.0 -9035760000.0 -9035750000.0 -9035750000.0 -9035750000.0 -9035750000.0 -9035750000.0 -9035750000.0 -9035750000.0 -9035750000.0 -9035750000.0 -9035750000.0 -9035750000.0 -9035750000.0 -9035750000.0 -9035750000.0 -9035750000.0 -9035750000.0 -9035750000.0 -9035750000.0 -9035750000.0 -9035750000.0 -9035750000.0 -9035750000.0 -9035750000.0 -9035750000.0 -9035750000.0 -9035750000.0 -9035750000.0 -9035750000.0 -9035750000.0 -9035760000.0 -9035760000.0 -9035760000.0 -9035760000.0 -9035760000.0 -9035770000.0 -9035770000.0 -9035780000.0 -9035790000.0 -9035800000.0 -9035830000.0 -9035860000.0 -9035900000.0 -9035970000.0 -9036070000.0 -9036220000.0 -9036430000.0 -9036790000.0 -9037140000.0 -9040840000.0 -9066030000.0 -9263720000.0 -9425450000.0 -9336240000.0 -9206040000.0 -9057010000.0 -9039460000.0 -9036820000.0 -9036540000.0 -9036270000.0 -9036110000.0 -9035990000.0 -9035920000.0 -9035870000.0 -9035830000.0 -9035810000.0 -9035790000.0 -9035780000.0 -9035770000.0 -9035770000.0 -9035760000.0 -9035760000.0 -9035760000.0 -9035760000.0 -9035760000.0 -9035750000.0 -9035750000.0 -9035750000.0 -9035750000.0 -9035750000.0 -9035750000.0 -9035750000.0 -9035750000.0 -9035750000.0 -9035750000.0 -9035750000.0 -9035750000.0 -9035750000.0 -9035750000.0 -9035750000.0 -9035750000.0 -9035750000.0 -9035750000.0 -9035750000.0 -9035750000.0 -9035750000.0 -9035750000.0 -9035750000.0 -9035750000.0 -9035750000.0 -9035750000.0 -9035750000.0 -9035750000.0 -9035750000.0 -9035750000.0 -9035750000.0 -9035760000.0 -9035760000.0 -9035760000.0 -9035760000.0 -9035760000.0 -9035770000.0 -9035770000.0 -9035780000.0 -9035790000.0 -9035810000.0 -9035830000.0 -9035870000.0 -9035920000.0 -9035990000.0 -9036110000.0 -9036270000.0 -9036540000.0 -9036820000.0 -9039460000.0 -9057010000.0 -9206040000.0 -9336240000.0 -9258030000.0 -9158280000.0 -9050250000.0 -9038370000.0 -9036530000.0 -9036320000.0 -9036130000.0 -9036010000.0 -9035930000.0 -9035870000.0 -9035840000.0 -9035810000.0 -9035790000.0 -9035780000.0 -9035770000.0 -9035770000.0 -9035760000.0 -9035760000.0 -9035760000.0 -9035760000.0 -9035760000.0 -9035750000.0 -9035750000.0 -9035750000.0 -9035750000.0 -9035750000.0 -9035750000.0 -9035750000.0 -9035750000.0 -9035750000.0 -9035750000.0 -9035750000.0 -9035750000.0 -9035750000.0 -9035750000.0 -9035750000.0 -9035750000.0 -9035750000.0 -9035750000.0 -9035750000.0 -9035750000.0 -9035750000.0 -9035750000.0 -9035750000.0 -9035750000.0 -9035750000.0 -9035750000.0 -9035750000.0 -9035750000.0 -9035750000.0 -9035750000.0 -9035750000.0 -9035750000.0 -9035750000.0 -9035760000.0 -9035760000.0 -9035760000.0 -9035760000.0 -9035760000.0 -9035770000.0 -9035770000.0 -9035780000.0 -9035790000.0 -9035810000.0 -9035840000.0 -9035870000.0 -9035930000.0 -9036010000.0 -9036130000.0 -9036320000.0 -9036530000.0 -9038370000.0 -9050250000.0 -9158280000.0 -9258030000.0 -9188080000.0 -9117880000.0 -9045060000.0 -9037490000.0 -9036290000.0 -9036140000.0 -9036010000.0 -9035930000.0 -9035870000.0 -9035830000.0 -9035810000.0 -9035790000.0 -9035780000.0 -9035770000.0 -9035770000.0 -9035760000.0 -9035760000.0 -9035760000.0 -9035760000.0 -9035760000.0 -9035750000.0 -9035750000.0 -9035750000.0 -9035750000.0 -9035750000.0 -9035750000.0 -9035750000.0 -9035750000.0 -9035750000.0 -9035750000.0 -9035750000.0 -9035750000.0 -9035750000.0 -9035750000.0 -9035750000.0 -9035750000.0 -9035750000.0 -9035750000.0 -9035750000.0 -9035750000.0 -9035750000.0 -9035750000.0 -9035750000.0 -9035750000.0 -9035750000.0 -9035750000.0 -9035750000.0 -9035750000.0 -9035750000.0 -9035750000.0 -9035750000.0 -9035750000.0 -9035750000.0 -9035750000.0 -9035750000.0 -9035760000.0 -9035760000.0 -9035760000.0 -9035760000.0 -9035760000.0 -9035770000.0 -9035770000.0 -9035780000.0 -9035790000.0 -9035810000.0 -9035830000.0 -9035870000.0 -9035930000.0 -9036010000.0 -9036140000.0 -9036290000.0 -9037490000.0 -9045060000.0 -9117880000.0 -9188080000.0 -9123860000.0 -9082540000.0 -9040900000.0 -9036730000.0 -9036060000.0 -9035980000.0 -9035900000.0 -9035850000.0 -9035820000.0 -9035800000.0 -9035780000.0 -9035780000.0 -9035770000.0 -9035760000.0 -9035760000.0 -9035760000.0 -9035760000.0 -9035760000.0 -9035750000.0 -9035750000.0 -9035750000.0 -9035750000.0 -9035750000.0 -9035750000.0 -9035750000.0 -9035750000.0 -9035750000.0 -9035750000.0 -9035750000.0 -9035750000.0 -9035750000.0 -9035750000.0 -9035750000.0 -9035750000.0 -9035750000.0 -9035750000.0 -9035750000.0 -9035750000.0 -9035750000.0 -9035750000.0 -9035750000.0 -9035750000.0 -9035750000.0 -9035750000.0 -9035750000.0 -9035750000.0 -9035750000.0 -9035750000.0 -9035750000.0 -9035750000.0 -9035750000.0 -9035750000.0 -9035750000.0 -9035750000.0 -9035750000.0 -9035750000.0 -9035750000.0 -9035760000.0 -9035760000.0 -9035760000.0 -9035760000.0 -9035760000.0 -9035770000.0 -9035780000.0 -9035780000.0 -9035800000.0 -9035820000.0 -9035850000.0 -9035900000.0 -9035980000.0 -9036060000.0 -9036730000.0 -9040900000.0 -9082540000.0 -9123860000.0 -9062990000.0 -9050130000.0 -9037320000.0 -9036050000.0 -9035850000.0 -9035820000.0 -9035800000.0 -9035780000.0 -9035770000.0 -9035770000.0 -9035760000.0 -9035760000.0 -9035760000.0 -9035760000.0 -9035760000.0 -9035750000.0 -9035750000.0 -9035750000.0 -9035750000.0 -9035750000.0 -9035750000.0 -9035750000.0 -9035750000.0 -9035750000.0 -9035750000.0 -9035750000.0 -9035750000.0 -9035750000.0 -9035750000.0 -9035750000.0 -9035750000.0 -9035750000.0 -9035750000.0 -9035750000.0 -9035750000.0 -9035750000.0 -9035750000.0 -9035750000.0 -9035750000.0 -9035750000.0 -9035750000.0 -9035750000.0 -9035750000.0 -9035750000.0 -9035750000.0 -9035750000.0 -9035750000.0 -9035750000.0 -9035750000.0 -9035750000.0 -9035750000.0 -9035750000.0 -9035750000.0 -9035750000.0 -9035750000.0 -9035750000.0 -9035750000.0 -9035750000.0 -9035750000.0 -9035750000.0 -9035760000.0 -9035760000.0 -9035760000.0 -9035760000.0 -9035760000.0 -9035770000.0 -9035770000.0 -9035780000.0 -9035800000.0 -9035820000.0 -9035850000.0 -9036050000.0 -9037320000.0 -9050130000.0 -9062990000.0 
SCALARS Shear_Stress float 1
LOOKUP_TABLE default
38491700000.0 21843600000.0 164096000000.0 189733000000.0 193299000000.0 197576000000.0 194062000000.0 190079000000.0 187555000000.0 183138000000.0 179635000000.0 179395000000.0 180938000000.0 182059000000.0 181759000000.0 179935000000.0 176776000000.0 172517000000.0 167403000000.0 161690000000.0 155616000000.0 149389000000.0 143188000000.0 137179000000.0 131502000000.0 126275000000.0 121594000000.0 117537000000.0 114159000000.0 111497000000.0 109580000000.0 108425000000.0 108039000000.0 108425000000.0 109580000000.0 111497000000.0 114159000000.0 117537000000.0 121594000000.0 126275000000.0 131502000000.0 137179000000.0 143188000000.0 149389000000.0 155616000000.0 161690000000.0 167403000000.0 172517000000.0 176776000000.0 179935000000.0 181759000000.0 182059000000.0 180938000000.0 179395000000.0 179635000000.0 183138000000.0 187555000000.0 190079000000.0 194062000000.0 197576000000.0 193299000000.0 189733000000.0 164096000000.0 21843600000.0 38491700000.0 136067000000.0 37858000000.0 144575000000.0 144575000000.0 37858000000.0 136067000000.0 78622400000.0 142399000000.0 143470000000.0 152665000000.0 169071000000.0 171286000000.0 184246000000.0 188587000000.0 186051000000.0 184006000000.0 187008000000.0 192885000000.0 197340000000.0 198865000000.0 198175000000.0 196090000000.0 192846000000.0 188415000000.0 182859000000.0 176386000000.0 169285000000.0 161845000000.0 154317000000.0 146907000000.0 139807000000.0 133140000000.0 127045000000.0 121624000000.0 116948000000.0 113067000000.0 110018000000.0 107826000000.0 106507000000.0 106066000000.0 106507000000.0 107826000000.0 110018000000.0 113067000000.0 116948000000.0 121624000000.0 127045000000.0 133140000000.0 139807000000.0 146907000000.0 154317000000.0 161845000000.0 169285000000.0 176386000000.0 182859000000.0 188415000000.0 192846000000.0 196090000000.0 198175000000.0 198865000000.0 197340000000.0 192885000000.0 187008000000.0 184006000000.0 186051000000.0 188587000000.0 184246000000.0 171286000000.0 169071000000.0 152665000000.0 143470000000.0 142399000000.0 78622400000.0 84347000000.0 188610000000.0 188107000000.0 154593000000.0 128317000000.0 165342000000.0 165839000000.0 177943000000.0 189806000000.0 202043000000.0 212349000000.0 217216000000.0 217957000000.0 215677000000.0 211462000000.0 205447000000.0 197720000000.0 188878000000.0 179565000000.0 170056000000.0 160371000000.0 150534000000.0 140673000000.0 130979000000.0 121650000000.0 112866000000.0 104742000000.0 97401900000.0 90928400000.0 85381900000.0 80802100000.0 77216000000.0 74642700000.0 73091800000.0 72573900000.0 73091800000.0 74642700000.0 77216000000.0 80802100000.0 85381900000.0 90928400000.0 97401900000.0 104742000000.0 112866000000.0 121650000000.0 130979000000.0 140673000000.0 150534000000.0 160371000000.0 170056000000.0 179565000000.0 188878000000.0 197720000000.0 205447000000.0 211462000000.0 215677000000.0 217957000000.0 217216000000.0 212349000000.0 202043000000.0 189806000000.0 177943000000.0 165839000000.0 165342000000.0 128317000000.0 154593000000.0 188107000000.0 188610000000.0 84347000000.0 132895000000.0 52325900000.0 11817100000.0 104363000000.0 28499900000.0 162153000000.0 162153000000.0 28499900000.0 104363000000.0 11817100000.0 52325900000.0 132895000000.0 6152500000.0 442872000000.0 201434000000.0 67802300000.0 147603000000.0 18737100000.0 150394000000.0 161867000000.0 214217000000.0 231139000000.0 234727000000.0 235930000000.0 233841000000.0 229319000000.0 221850000000.0 212489000000.0 202049000000.0 190493000000.0 177886000000.0 164851000000.0 151956000000.0 139381000000.0 127112000000.0 115159000000.0 103617000000.0 92648900000.0 82416200000.0 73069700000.0 64721300000.0 57438400000.0 51259400000.0 46202400000.0 42272400000.0 39467900000.0 37784500000.0 37223600000.0 37784500000.0 39467900000.0 42272400000.0 46202400000.0 51259400000.0 57438400000.0 64721300000.0 73069700000.0 82416200000.0 92648900000.0 103617000000.0 115159000000.0 127112000000.0 139381000000.0 151956000000.0 164851000000.0 177886000000.0 190493000000.0 202049000000.0 212489000000.0 221850000000.0 229319000000.0 233841000000.0 235930000000.0 234727000000.0 231139000000.0 214217000000.0 161867000000.0 150394000000.0 18737100000.0 147603000000.0 67802300000.0 201434000000.0 442872000000.0 6152500000.0 11178700000.0 64411000000.0 231066000000.0 238185000000.0 248130000000.0 171046000000.0 37638300000.0 223755000000.0 191932000000.0 253189000000.0 250661000000.0 242389000000.0 232941000000.0 221701000000.0 208758000000.0 194603000000.0 180408000000.0 166173000000.0 151629000000.0 137208000000.0 123659000000.0 111371000000.0 100284000000.0 90178200000.0 80910500000.0 72457000000.0 64825100000.0 57991200000.0 51923200000.0 46596500000.0 41999000000.0 38126600000.0 34978600000.0 32549000000.0 30825600000.0 29797200000.0 29455500000.0 29797200000.0 30825600000.0 32549000000.0 34978600000.0 38126600000.0 41999000000.0 46596500000.0 51923200000.0 57991200000.0 64825100000.0 72457000000.0 80910500000.0 90178200000.0 100284000000.0 111371000000.0 123659000000.0 137208000000.0 151629000000.0 166173000000.0 180408000000.0 194603000000.0 208758000000.0 221701000000.0 232941000000.0 242389000000.0 250661000000.0 253189000000.0 191932000000.0 223755000000.0 37638300000.0 171046000000.0 248130000000.0 238185000000.0 231066000000.0 64411000000.0 11178700000.0 20975000000.0 130619000000.0 257836000000.0 141356000000.0 107160000000.0 100351000000.0 100351000000.0 107160000000.0 141356000000.0 257836000000.0 130619000000.0 20975000000.0 47816700000.0 215742000000.0 129745000000.0 146693000000.0 262286000000.0 358035000000.0 31055900000.0 266642000000.0 136849000000.0 151809000000.0 119941000000.0 94167800000.0 72004900000.0 53710200000.0 38045500000.0 24976500000.0 15274900000.0 7776560000.0 1435740000.0 3334360000.0 6144810000.0 7420900000.0 7875550000.0 8007040000.0 8043550000.0 8062060000.0 8081640000.0 8104650000.0 8129880000.0 8155760000.0 8180970000.0 8204370000.0 8224950000.0 8241880000.0 8254460000.0 8262210000.0 8264830000.0 8262210000.0 8254460000.0 8241880000.0 8224950000.0 8204370000.0 8180970000.0 8155760000.0 8129880000.0 8104650000.0 8081640000.0 8062060000.0 8043550000.0 8007040000.0 7875550000.0 7420900000.0 6144810000.0 3334360000.0 1435740000.0 7776560000.0 15274900000.0 24976500000.0 38045500000.0 53710200000.0 72004900000.0 94167800000.0 119941000000.0 151809000000.0 136849000000.0 266642000000.0 31055900000.0 358035000000.0 262286000000.0 146693000000.0 129745000000.0 215742000000.0 47816700000.0 21015500000.0 48985400000.0 28062700000.0 599446000000.0 65820500000.0 269159000000.0 144077000000.0 94720700000.0 148922000000.0 143159000000.0 136548000000.0 129073000000.0 121422000000.0 113619000000.0 105384000000.0 96969900000.0 88692400000.0 80510700000.0 72407100000.0 64593600000.0 57270100000.0 50479000000.0 44191300000.0 38399900000.0 33129800000.0 28412600000.0 24263900000.0 20674400000.0 17614500000.0 15045300000.0 12928600000.0 11232700000.0 9933920000.0 9016200000.0 8469340000.0 8287670000.0 8469340000.0 9016200000.0 9933920000.0 11232700000.0 12928600000.0 15045300000.0 17614500000.0 20674400000.0 24263900000.0 28412600000.0 33129800000.0 38399900000.0 44191300000.0 50479000000.0 57270100000.0 64593600000.0 72407100000.0 80510700000.0 88692400000.0 96969900000.0 105384000000.0 113619000000.0 121422000000.0 129073000000.0 136548000000.0 143159000000.0 148922000000.0 94720700000.0 144077000000.0 269159000000.0 65820500000.0 599446000000.0 28062700000.0 48985400000.0 21015500000.0 6087200000.0 209864000000.0 250356000000.0 250356000000.0 209864000000.0 6087200000.0 16119400000.0 135210000000.0 29167800000.0 42817500000.0 104010000000.0 321783000000.0 103433000000.0 266782000000.0 9243070000.0 40290300000.0 9035750000.0 9035750000.0 9035750000.0 9035750000.0 9035750000.0 9035750000.0 9035750000.0 9035750000.0 9035750000.0 9035750000.0 9035750000.0 9035750000.0 9035750000.0 9035750000.0 9035750000.0 9035750000.0 9035750000.0 9035750000.0 9035750000.0 9035750000.0 9035750000.0 9035750000.0 9035750000.0 9035750000.0 9035750000.0 9035750000.0 9035750000.0 9035750000.0 9035750000.0 9035750000.0 9035750000.0 9035750000.0 9035750000.0 9035750000.0 9035750000.0 9035750000.0 9035750000.0 9035750000.0 9035750000.0 9035750000.0 9035750000.0 9035750000.0 9035750000.0 9035750000.0 9035750000.0 9035750000.0 9035750000.0 9035750000.0 9035750000.0 9035750000.0 9035750000.0 9035750000.0 9035750000.0 9035750000.0 9035750000.0 40290300000.0 9243070000.0 266782000000.0 103433000000.0 321783000000.0 104010000000.0 42817500000.0 29167800000.0 135210000000.0 16119400000.0 116015000000.0 9011770000.0 87290500000.0 10395500000.0 216807000000.0 406687000000.0 97148600000.0 155382000000.0 120173000000.0 94076900000.0 99100600000.0 87173600000.0 76334000000.0 66740100000.0 58049700000.0 49817400000.0 41979300000.0 34771100000.0 28401700000.0 22926600000.0 18283100000.0 14353800000.0 11015200000.0 8164640000.0 5723740000.0 3630590000.0 1832790000.0 286615000.0 1042360000.0 2180140000.0 3146440000.0 3956660000.0 4623100000.0 5155730000.0 5562370000.0 5848880000.0 6019260000.0 6075810000.0 6019260000.0 5848880000.0 5562370000.0 5155730000.0 4623100000.0 3956660000.0 3146440000.0 2180140000.0 1042360000.0 286615000.0 1832790000.0 3630590000.0 5723740000.0 8164640000.0 11015200000.0 14353800000.0 18283100000.0 22926600000.0 28401700000.0 34771100000.0 41979300000.0 49817400000.0 58049700000.0 66740100000.0 76334000000.0 87173600000.0 99100600000.0 94076900000.0 120173000000.0 155382000000.0 97148600000.0 406687000000.0 216807000000.0 10395500000.0 87290500000.0 9011770000.0 116015000000.0 188318000000.0 89818100000.0 115720000000.0 18975500000.0 100027000000.0 330862000000.0 3386770000.0 219024000000.0 9169850000.0 15636800000.0 9035750000.0 9035750000.0 9035750000.0 9035750000.0 9035750000.0 9035750000.0 9035750000.0 9035750000.0 9035750000.0 9035750000.0 9035750000.0 9035750000.0 9035750000.0 9035750000.0 9035750000.0 9035750000.0 9035750000.0 9035750000.0 9035750000.0 9035760000.0 9035760000.0 9035760000.0 9035760000.0 9035760000.0 9035750000.0 9035750000.0 9035750000.0 9035750000.0 9035750000.0 9035750000.0 9035750000.0 9035760000.0 9035760000.0 9035760000.0 9035760000.0 9035760000.0 9035750000.0 9035750000.0 9035750000.0 9035750000.0 9035750000.0 9035750000.0 9035750000.0 9035750000.0 9035750000.0 9035750000.0 9035750000.0 9035750000.0 9035750000.0 9035750000.0 9035750000.0 9035750000.0 9035750000.0 9035750000.0 9035750000.0 15636800000.0 9169850000.0 219024000000.0 3386770000.0 330862000000.0 100027000000.0 18975500000.0 115720000000.0 89818100000.0 188318000000.0 81004200000.0 157117000000.0 299981000000.0 22420500000.0 152298000000.0 13376000000.0 7668530000.0 4356550000.0 1546890000.0 481726000.0 2013910000.0 3216720000.0 4193660000.0 5002740000.0 5675810000.0 6240100000.0 6717320000.0 7118400000.0 7449870000.0 7721240000.0 7944820000.0 8131750000.0 8289960000.0 8424440000.0 8538380000.0 8634070000.0 8713580000.0 8778870000.0 8831740000.0 8873690000.0 8906020000.0 8929840000.0 8946120000.0 8955580000.0 8958690000.0 8955580000.0 8946120000.0 8929840000.0 8906020000.0 8873690000.0 8831740000.0 8778870000.0 8713580000.0 8634070000.0 8538380000.0 8424440000.0 8289960000.0 8131750000.0 7944820000.0 7721240000.0 7449870000.0 7118400000.0 6717320000.0 6240100000.0 5675810000.0 5002740000.0 4193660000.0 3216720000.0 2013910000.0 481726000.0 1546890000.0 4356550000.0 7668530000.0 13376000000.0 152298000000.0 22420500000.0 299981000000.0 157117000000.0 81004200000.0 178939000000.0 86133600000.0 42746500000.0 42746500000.0 86133600000.0 178939000000.0 170938000000.0 104046000000.0 76955800000.0 70937100000.0 143404000000.0 262407000000.0 8825510000.0 138060000000.0 9038150000.0 9040990000.0 9037010000.0 9036660000.0 9036410000.0 9036230000.0 9036110000.0 9036030000.0 9035960000.0 9035920000.0 9035880000.0 9035860000.0 9035850000.0 9035850000.0 9035850000.0 9035840000.0 9035830000.0 9035820000.0 9035810000.0 9035810000.0 9035800000.0 9035800000.0 9035790000.0 9035780000.0 9035770000.0 9035770000.0 9035760000.0 9035760000.0 9035750000.0 9035750000.0 9035750000.0 9035760000.0 9035760000.0 9035770000.0 9035770000.0 9035780000.0 9035790000.0 9035800000.0 9035800000.0 9035810000.0 9035810000.0 9035820000.0 9035830000.0 9035840000.0 9035850000.0 9035850000.0 9035850000.0 9035860000.0 9035880000.0 9035920000.0 9035960000.0 9036030000.0 9036110000.0 9036230000.0 9036410000.0 9036660000.0 9037010000.0 9040990000.0 9038150000.0 138060000000.0 8825510000.0 262407000000.0 143404000000.0 70937100000.0 76955800000.0 104046000000.0 170938000000.0 126166000000.0 209936000000.0 9043690000.0 104754000000.0 9034920000.0 9023940000.0 9015510000.0 8991770000.0 8974820000.0 8973360000.0 8959370000.0 8949900000.0 8967300000.0 8997330000.0 9019920000.0 9030850000.0 9034670000.0 9035690000.0 9035890000.0 9035910000.0 9035890000.0 9035870000.0 9035860000.0 9035840000.0 9035830000.0 9035820000.0 9035800000.0 9035790000.0 9035780000.0 9035770000.0 9035760000.0 9035760000.0 9035750000.0 9035750000.0 9035750000.0 9035760000.0 9035760000.0 9035770000.0 9035780000.0 9035790000.0 9035800000.0 9035820000.0 9035830000.0 9035840000.0 9035860000.0 9035870000.0 9035890000.0 9035910000.0 9035890000.0 9035690000.0 9034670000.0 9030850000.0 9019920000.0 8997330000.0 8967300000.0 8949900000.0 8959370000.0 8973360000.0 8974820000.0 8991770000.0 9015510000.0 9023940000.0 9034920000.0 104754000000.0 9043690000.0 209936000000.0 126166000000.0 149604000000.0 101826000000.0 64277600000.0 82031200000.0 82031200000.0 64277600000.0 101826000000.0 149604000000.0 129855000000.0 99897400000.0 56608900000.0 88620300000.0 109131000000.0 164821000000.0 9053120000.0 78641900000.0 9046590000.0 9043830000.0 9041440000.0 9039850000.0 9038710000.0 9037910000.0 9037380000.0 9036980000.0 9036700000.0 9036490000.0 9036340000.0 9036230000.0 9036150000.0 9036080000.0 9036030000.0 9035990000.0 9035950000.0 9035920000.0 9035890000.0 9035870000.0 9035850000.0 9035830000.0 9035820000.0 9035800000.0 9035790000.0 9035780000.0 9035770000.0 9035760000.0 9035750000.0 9035750000.0 9035750000.0 9035760000.0 9035770000.0 9035780000.0 9035790000.0 9035800000.0 9035820000.0 9035830000.0 9035850000.0 9035870000.0 9035890000.0 9035920000.0 9035950000.0 9035990000.0 9036030000.0 9036080000.0 9036150000.0 9036230000.0 9036340000.0 9036490000.0 9036700000.0 9036980000.0 9037380000.0 9037910000.0 9038710000.0 9039850000.0 9041440000.0 9043830000.0 9046590000.0 78641900000.0 9053120000.0 164821000000.0 109131000000.0 88620300000.0 56608900000.0 99897400000.0 129855000000.0 111765000000.0 95961600000.0 51408500000.0 91917200000.0 93021700000.0 127672000000.0 9061430000.0 58797000000.0 9050540000.0 9046700000.0 9043460000.0 9041300000.0 9039750000.0 9038680000.0 9037950000.0 9037410000.0 9037030000.0 9036750000.0 9036540000.0 9036380000.0 9036260000.0 9036170000.0 9036100000.0 9036040000.0 9036000000.0 9035960000.0 9035920000.0 9035900000.0 9035870000.0 9035850000.0 9035830000.0 9035810000.0 9035790000.0 9035780000.0 9035770000.0 9035760000.0 9035750000.0 9035750000.0 9035750000.0 9035760000.0 9035770000.0 9035780000.0 9035790000.0 9035810000.0 9035830000.0 9035850000.0 9035870000.0 9035900000.0 9035920000.0 9035960000.0 9036000000.0 9036040000.0 9036100000.0 9036170000.0 9036260000.0 9036380000.0 9036540000.0 9036750000.0 9037030000.0 9037410000.0 9037950000.0 9038680000.0 9039750000.0 9041300000.0 9043460000.0 9046700000.0 9050540000.0 58797000000.0 9061430000.0 127672000000.0 93021700000.0 91917200000.0 51408500000.0 95961600000.0 111765000000.0 96661900000.0 91398200000.0 48023800000.0 92494100000.0 78265400000.0 97929000000.0 9068960000.0 43948900000.0 9054160000.0 9049290000.0 9045290000.0 9042620000.0 9040690000.0 9039360000.0 9038460000.0 9037800000.0 9037320000.0 9036970000.0 9036700000.0 9036510000.0 9036360000.0 9036250000.0 9036160000.0 9036090000.0 9036040000.0 9035990000.0 9035950000.0 9035920000.0 9035890000.0 9035860000.0 9035840000.0 9035820000.0 9035800000.0 9035780000.0 9035770000.0 9035760000.0 9035750000.0 9035750000.0 9035750000.0 9035760000.0 9035770000.0 9035780000.0 9035800000.0 9035820000.0 9035840000.0 9035860000.0 9035890000.0 9035920000.0 9035950000.0 9035990000.0 9036040000.0 9036090000.0 9036160000.0 9036250000.0 9036360000.0 9036510000.0 9036700000.0 9036970000.0 9037320000.0 9037800000.0 9038460000.0 9039360000.0 9040690000.0 9042620000.0 9045290000.0 9049290000.0 9054160000.0 43948900000.0 9068960000.0 97929000000.0 78265400000.0 92494100000.0 48023800000.0 91398200000.0 96661900000.0 84716800000.0 86480300000.0 46023300000.0 90956100000.0 65143800000.0 74723700000.0 9075690000.0 33038700000.0 9057390000.0 9051560000.0 9046880000.0 9043760000.0 9041510000.0 9039960000.0 9038900000.0 9038120000.0 9037560000.0 9037150000.0 9036840000.0 9036620000.0 9036450000.0 9036320000.0 9036210000.0 9036130000.0 9036070000.0 9036010000.0 9035970000.0 9035930000.0 9035900000.0 9035870000.0 9035840000.0 9035820000.0 9035800000.0 9035790000.0 9035770000.0 9035760000.0 9035750000.0 9035750000.0 9035750000.0 9035760000.0 9035770000.0 9035790000.0 9035800000.0 9035820000.0 9035840000.0 9035870000.0 9035900000.0 9035930000.0 9035970000.0 9036010000.0 9036070000.0 9036130000.0 9036210000.0 9036320000.0 9036450000.0 9036620000.0 9036840000.0 9037150000.0 9037560000.0 9038120000.0 9038900000.0 9039960000.0 9041510000.0 9043760000.0 9046880000.0 9051560000.0 9057390000.0 33038700000.0 9075690000.0 74723700000.0 65143800000.0 90956100000.0 46023300000.0 86480300000.0 84716800000.0 75747800000.0 81458700000.0 44887600000.0 87778800000.0 53773300000.0 56978600000.0 9081560000.0 25206000000.0 9060200000.0 9053470000.0 9048220000.0 9044720000.0 9042200000.0 9040450000.0 9039260000.0 9038390000.0 9037760000.0 9037300000.0 9036950000.0 9036700000.0 9036510000.0 9036370000.0 9036250000.0 9036170000.0 9036090000.0 9036030000.0 9035980000.0 9035940000.0 9035910000.0 9035880000.0 9035850000.0 9035830000.0 9035800000.0 9035790000.0 9035770000.0 9035760000.0 9035750000.0 9035750000.0 9035750000.0 9035760000.0 9035770000.0 9035790000.0 9035800000.0 9035830000.0 9035850000.0 9035880000.0 9035910000.0 9035940000.0 9035980000.0 9036030000.0 9036090000.0 9036170000.0 9036250000.0 9036370000.0 9036510000.0 9036700000.0 9036950000.0 9037300000.0 9037760000.0 9038390000.0 9039260000.0 9040450000.0 9042200000.0 9044720000.0 9048220000.0 9053470000.0 9060200000.0 25206000000.0 9081560000.0 56978600000.0 53773300000.0 87778800000.0 44887600000.0 81458700000.0 75747800000.0 69282700000.0 76521300000.0 44176500000.0 83365500000.0 44149500000.0 43637900000.0 9086590000.0 19718900000.0 9062520000.0 9055000000.0 9049300000.0 9045480000.0 9042740000.0 9040840000.0 9039540000.0 9038600000.0 9037910000.0 9037410000.0 9037040000.0 9036760000.0 9036560000.0 9036400000.0 9036280000.0 9036190000.0 9036110000.0 9036050000.0 9035990000.0 9035950000.0 9035910000.0 9035880000.0 9035850000.0 9035830000.0 9035810000.0 9035790000.0 9035770000.0 9035760000.0 9035750000.0 9035750000.0 9035750000.0 9035760000.0 9035770000.0 9035790000.0 9035810000.0 9035830000.0 9035850000.0 9035880000.0 9035910000.0 9035950000.0 9035990000.0 9036050000.0 9036110000.0 9036190000.0 9036280000.0 9036400000.0 9036560000.0 9036760000.0 9037040000.0 9037410000.0 9037910000.0 9038600000.0 9039540000.0 9040840000.0 9042740000.0 9045480000.0 9049300000.0 9055000000.0 9062520000.0 19718900000.0 9086590000.0 43637900000.0 44149500000.0 83365500000.0 44176500000.0 76521300000.0 69282700000.0 64676600000.0 71777100000.0 43608400000.0 78066200000.0 36159100000.0 33759600000.0 9090690000.0 15963000000.0 9064320000.0 9056140000.0 9050100000.0 9046050000.0 9043140000.0 9041130000.0 9039750000.0 9038750000.0 9038020000.0 9037490000.0 9037090000.0 9036810000.0 9036590000.0 9036430000.0 9036300000.0 9036200000.0 9036120000.0 9036050000.0 9036000000.0 9035950000.0 9035910000.0 9035880000.0 9035850000.0 9035830000.0 9035810000.0 9035790000.0 9035770000.0 9035760000.0 9035750000.0 9035750000.0 9035750000.0 9035760000.0 9035770000.0 9035790000.0 9035810000.0 9035830000.0 9035850000.0 9035880000.0 9035910000.0 9035950000.0 9036000000.0 9036050000.0 9036120000.0 9036200000.0 9036300000.0 9036430000.0 9036590000.0 9036810000.0 9037090000.0 9037490000.0 9038020000.0 9038750000.0 9039750000.0 9041130000.0 9043140000.0 9046050000.0 9050100000.0 9056140000.0 9064320000.0 15963000000.0 9090690000.0 33759600000.0 36159100000.0 78066200000.0 43608400000.0 71777100000.0 64676600000.0 61309900000.0 67272200000.0 42984100000.0 72192100000.0 29633700000.0 26552100000.0 9093750000.0 13449000000.0 9065590000.0 9056910000.0 9050640000.0 9046430000.0 9043410000.0 9041320000.0 9039880000.0 9038840000.0 9038090000.0 9037540000.0 9037130000.0 9036830000.0 9036610000.0 9036440000.0 9036310000.0 9036200000.0 9036120000.0 9036050000.0 9036000000.0 9035950000.0 9035910000.0 9035880000.0 9035850000.0 9035830000.0 9035810000.0 9035790000.0 9035770000.0 9035760000.0 9035750000.0 9035750000.0 9035750000.0 9035760000.0 9035770000.0 9035790000.0 9035810000.0 9035830000.0 9035850000.0 9035880000.0 9035910000.0 9035950000.0 9036000000.0 9036050000.0 9036120000.0 9036200000.0 9036310000.0 9036440000.0 9036610000.0 9036830000.0 9037130000.0 9037540000.0 9038090000.0 9038840000.0 9039880000.0 9041320000.0 9043410000.0 9046430000.0 9050640000.0 9056910000.0 9065590000.0 13449000000.0 9093750000.0 26552100000.0 29633700000.0 72192100000.0 42984100000.0 67272200000.0 61309900000.0 58697800000.0 63020400000.0 42144400000.0 66010200000.0 24398800000.0 21372800000.0 9095750000.0 11803400000.0 9066340000.0 9057340000.0 9050930000.0 9046630000.0 9043550000.0 9041410000.0 9039950000.0 9038880000.0 9038110000.0 9037560000.0 9037140000.0 9036840000.0 9036610000.0 9036440000.0 9036310000.0 9036200000.0 9036120000.0 9036050000.0 9036000000.0 9035950000.0 9035910000.0 9035880000.0 9035850000.0 9035830000.0 9035800000.0 9035790000.0 9035770000.0 9035760000.0 9035750000.0 9035750000.0 9035750000.0 9035760000.0 9035770000.0 9035790000.0 9035800000.0 9035830000.0 9035850000.0 9035880000.0 9035910000.0 9035950000.0 9036000000.0 9036050000.0 9036120000.0 9036200000.0 9036310000.0 9036440000.0 9036610000.0 9036840000.0 9037140000.0 9037560000.0 9038110000.0 9038880000.0 9039950000.0 9041410000.0 9043550000.0 9046630000.0 9050930000.0 9057340000.0 9066340000.0 11803400000.0 9095750000.0 21372800000.0 24398800000.0 66010200000.0 42144400000.0 63020400000.0 58697800000.0 56462300000.0 59025500000.0 40995900000.0 59740200000.0 20284900000.0 17702100000.0 9096760000.0 10748000000.0 9066620000.0 9057440000.0 9051000000.0 9046670000.0 9043570000.0 9041420000.0 9039950000.0 9038880000.0 9038110000.0 9037550000.0 9037130000.0 9036830000.0 9036600000.0 9036430000.0 9036300000.0 9036190000.0 9036110000.0 9036040000.0 9035990000.0 9035940000.0 9035910000.0 9035870000.0 9035850000.0 9035820000.0 9035800000.0 9035790000.0 9035770000.0 9035760000.0 9035750000.0 9035750000.0 9035750000.0 9035760000.0 9035770000.0 9035790000.0 9035800000.0 9035820000.0 9035850000.0 9035870000.0 9035910000.0 9035940000.0 9035990000.0 9036040000.0 9036110000.0 9036190000.0 9036300000.0 9036430000.0 9036600000.0 9036830000.0 9037130000.0 9037550000.0 9038110000.0 9038880000.0 9039950000.0 9041420000.0 9043570000.0 9046670000.0 9051000000.0 9057440000.0 9066620000.0 10748000000.0 9096760000.0 17702100000.0 20284900000.0 59740200000.0 40995900000.0 59025500000.0 56462300000.0 54310100000.0 55279600000.0 39522400000.0 53562600000.0 17123000000.0 15125700000.0 9096840000.0 10082800000.0 9066450000.0 9057260000.0 9050860000.0 9046570000.0 9043490000.0 9041360000.0 9039900000.0 9038840000.0 9038070000.0 9037520000.0 9037110000.0 9036810000.0 9036580000.0 9036410000.0 9036280000.0 9036180000.0 9036100000.0 9036030000.0 9035980000.0 9035940000.0 9035900000.0 9035870000.0 9035840000.0 9035820000.0 9035800000.0 9035780000.0 9035770000.0 9035760000.0 9035750000.0 9035750000.0 9035750000.0 9035760000.0 9035770000.0 9035780000.0 9035800000.0 9035820000.0 9035840000.0 9035870000.0 9035900000.0 9035940000.0 9035980000.0 9036030000.0 9036100000.0 9036180000.0 9036280000.0 9036410000.0 9036580000.0 9036810000.0 9037110000.0 9037520000.0 9038070000.0 9038840000.0 9039900000.0 9041360000.0 9043490000.0 9046570000.0 9050860000.0 9057260000.0 9066450000.0 10082800000.0 9096840000.0 15125700000.0 17123000000.0 53562600000.0 39522400000.0 55279600000.0 54310100000.0 52054200000.0 51757400000.0 37763200000.0 47626500000.0 14746300000.0 13325600000.0 9096110000.0 9670010000.0 9065900000.0 9056820000.0 9050550000.0 9046340000.0 9043320000.0 9041230000.0 9039800000.0 9038760000.0 9038010000.0 9037470000.0 9037070000.0 9036770000.0 9036550000.0 9036390000.0 9036260000.0 9036160000.0 9036080000.0 9036020000.0 9035970000.0 9035930000.0 9035890000.0 9035860000.0 9035840000.0 9035810000.0 9035800000.0 9035780000.0 9035770000.0 9035760000.0 9035750000.0 9035750000.0 9035750000.0 9035760000.0 9035770000.0 9035780000.0 9035800000.0 9035810000.0 9035840000.0 9035860000.0 9035890000.0 9035930000.0 9035970000.0 9036020000.0 9036080000.0 9036160000.0 9036260000.0 9036390000.0 9036550000.0 9036770000.0 9037070000.0 9037470000.0 9038010000.0 9038760000.0 9039800000.0 9041230000.0 9043320000.0 9046340000.0 9050550000.0 9056820000.0 9065900000.0 9670010000.0 9096110000.0 13325600000.0 14746300000.0 47626500000.0 37763200000.0 51757400000.0 52054200000.0 49619100000.0 48422500000.0 35783400000.0 42051500000.0 12997700000.0 12068400000.0 9094650000.0 9417780000.0 9065020000.0 9056170000.0 9050090000.0 9046000000.0 9043080000.0 9041050000.0 9039660000.0 9038650000.0 9037930000.0 9037400000.0 9037010000.0 9036730000.0 9036520000.0 9036360000.0 9036240000.0 9036140000.0 9036070000.0 9036010000.0 9035960000.0 9035920000.0 9035880000.0 9035850000.0 9035830000.0 9035810000.0 9035790000.0 9035780000.0 9035770000.0 9035760000.0 9035750000.0 9035750000.0 9035750000.0 9035760000.0 9035770000.0 9035780000.0 9035790000.0 9035810000.0 9035830000.0 9035850000.0 9035880000.0 9035920000.0 9035960000.0 9036010000.0 9036070000.0 9036140000.0 9036240000.0 9036360000.0 9036520000.0 9036730000.0 9037010000.0 9037400000.0 9037930000.0 9038650000.0 9039660000.0 9041050000.0 9043080000.0 9046000000.0 9050090000.0 9056170000.0 9065020000.0 9417780000.0 9094650000.0 12068400000.0 12997700000.0 42051500000.0 35783400000.0 48422500000.0 49619100000.0 47010800000.0 45240400000.0 33654600000.0 36925400000.0 11737500000.0 11188100000.0 9092600000.0 9266390000.0 9063860000.0 9055340000.0 9049500000.0 9045570000.0 9042770000.0 9040830000.0 9039490000.0 9038520000.0 9037830000.0 9037320000.0 9036950000.0 9036680000.0 9036480000.0 9036320000.0 9036210000.0 9036120000.0 9036050000.0 9035990000.0 9035940000.0 9035900000.0 9035870000.0 9035850000.0 9035820000.0 9035810000.0 9035790000.0 9035780000.0 9035770000.0 9035760000.0 9035750000.0 9035750000.0 9035750000.0 9035760000.0 9035770000.0 9035780000.0 9035790000.0 9035810000.0 9035820000.0 9035850000.0 9035870000.0 9035900000.0 9035940000.0 9035990000.0 9036050000.0 9036120000.0 9036210000.0 9036320000.0 9036480000.0 9036680000.0 9036950000.0 9037320000.0 9037830000.0 9038520000.0 9039490000.0 9040830000.0 9042770000.0 9045570000.0 9049500000.0 9055340000.0 9063860000.0 9266390000.0 9092600000.0 11188100000.0 11737500000.0 36925400000.0 33654600000.0 45240400000.0 47010800000.0 44277100000.0 42187300000.0 31445300000.0 32304000000.0 10847500000.0 10569100000.0 9090060000.0 9177320000.0 9062490000.0 9054360000.0 9048810000.0 9045070000.0 9042410000.0 9040560000.0 9039290000.0 9038370000.0 9037710000.0 9037230000.0 9036880000.0 9036620000.0 9036430000.0 9036290000.0 9036180000.0 9036090000.0 9036030000.0 9035970000.0 9035930000.0 9035890000.0 9035860000.0 9035840000.0 9035820000.0 9035800000.0 9035790000.0 9035770000.0 9035770000.0 9035760000.0 9035750000.0 9035750000.0 9035750000.0 9035760000.0 9035770000.0 9035770000.0 9035790000.0 9035800000.0 9035820000.0 9035840000.0 9035860000.0 9035890000.0 9035930000.0 9035970000.0 9036030000.0 9036090000.0 9036180000.0 9036290000.0 9036430000.0 9036620000.0 9036880000.0 9037230000.0 9037710000.0 9038370000.0 9039290000.0 9040560000.0 9042410000.0 9045070000.0 9048810000.0 9054360000.0 9062490000.0 9177320000.0 9090060000.0 10569100000.0 10847500000.0 32304000000.0 31445300000.0 42187300000.0 44277100000.0 41478700000.0 39253200000.0 29217000000.0 28213300000.0 10231200000.0 10131200000.0 9087140000.0 9125940000.0 9060950000.0 9053280000.0 9048040000.0 9044520000.0 9042010000.0 9040280000.0 9039080000.0 9038210000.0 9037590000.0 9037140000.0 9036810000.0 9036560000.0 9036380000.0 9036250000.0 9036150000.0 9036070000.0 9036000000.0 9035950000.0 9035910000.0 9035880000.0 9035850000.0 9035830000.0 9035810000.0 9035800000.0 9035780000.0 9035770000.0 9035760000.0 9035760000.0 9035750000.0 9035750000.0 9035750000.0 9035760000.0 9035760000.0 9035770000.0 9035780000.0 9035800000.0 9035810000.0 9035830000.0 9035850000.0 9035880000.0 9035910000.0 9035950000.0 9036000000.0 9036070000.0 9036150000.0 9036250000.0 9036380000.0 9036560000.0 9036810000.0 9037140000.0 9037590000.0 9038210000.0 9039080000.0 9040280000.0 9042010000.0 9044520000.0 9048040000.0 9053280000.0 9060950000.0 9125940000.0 9087140000.0 10131200000.0 10231200000.0 28213300000.0 29217000000.0 39253200000.0 41478700000.0 38675000000.0 36439100000.0 27022700000.0 24653800000.0 9813050000.0 9819700000.0 9083940000.0 9096760000.0 9059300000.0 9052120000.0 9047230000.0 9043930000.0 9041590000.0 9039970000.0 9038850000.0 9038040000.0 9037460000.0 9037040000.0 9036730000.0 9036500000.0 9036330000.0 9036210000.0 9036110000.0 9036040000.0 9035980000.0 9035930000.0 9035900000.0 9035870000.0 9035840000.0 9035820000.0 9035810000.0 9035790000.0 9035780000.0 9035770000.0 9035760000.0 9035760000.0 9035750000.0 9035750000.0 9035750000.0 9035760000.0 9035760000.0 9035770000.0 9035780000.0 9035790000.0 9035810000.0 9035820000.0 9035840000.0 9035870000.0 9035900000.0 9035930000.0 9035980000.0 9036040000.0 9036110000.0 9036210000.0 9036330000.0 9036500000.0 9036730000.0 9037040000.0 9037460000.0 9038040000.0 9038850000.0 9039970000.0 9041590000.0 9043930000.0 9047230000.0 9052120000.0 9059300000.0 9096760000.0 9083940000.0 9819700000.0 9813050000.0 24653800000.0 27022700000.0 36439100000.0 38675000000.0 35918100000.0 33753000000.0 24906000000.0 21606300000.0 9535160000.0 9597000000.0 9080550000.0 9080220000.0 9057570000.0 9050910000.0 9046380000.0 9043330000.0 9041160000.0 9039650000.0 9038610000.0 9037860000.0 9037320000.0 9036930000.0 9036650000.0 9036440000.0 9036280000.0 9036170000.0 9036080000.0 9036010000.0 9035960000.0 9035920000.0 9035880000.0 9035850000.0 9035830000.0 9035810000.0 9035800000.0 9035790000.0 9035780000.0 9035770000.0 9035760000.0 9035760000.0 9035750000.0 9035750000.0 9035750000.0 9035760000.0 9035760000.0 9035770000.0 9035780000.0 9035790000.0 9035800000.0 9035810000.0 9035830000.0 9035850000.0 9035880000.0 9035920000.0 9035960000.0 9036010000.0 9036080000.0 9036170000.0 9036280000.0 9036440000.0 9036650000.0 9036930000.0 9037320000.0 9037860000.0 9038610000.0 9039650000.0 9041160000.0 9043330000.0 9046380000.0 9050910000.0 9057570000.0 9080220000.0 9080550000.0 9597000000.0 9535160000.0 21606300000.0 24906000000.0 33753000000.0 35918100000.0 33251000000.0 31206200000.0 22901100000.0 19037100000.0 9354600000.0 9437410000.0 9077070000.0 9070650000.0 9055820000.0 9049680000.0 9045520000.0 9042710000.0 9040710000.0 9039330000.0 9038370000.0 9037680000.0 9037190000.0 9036830000.0 9036570000.0 9036380000.0 9036230000.0 9036130000.0 9036050000.0 9035990000.0 9035940000.0 9035900000.0 9035870000.0 9035840000.0 9035820000.0 9035810000.0 9035790000.0 9035780000.0 9035770000.0 9035770000.0 9035760000.0 9035760000.0 9035750000.0 9035750000.0 9035750000.0 9035760000.0 9035760000.0 9035770000.0 9035770000.0 9035780000.0 9035790000.0 9035810000.0 9035820000.0 9035840000.0 9035870000.0 9035900000.0 9035940000.0 9035990000.0 9036050000.0 9036130000.0 9036230000.0 9036380000.0 9036570000.0 9036830000.0 9037190000.0 9037680000.0 9038370000.0 9039330000.0 9040710000.0 9042710000.0 9045520000.0 9049680000.0 9055820000.0 9070650000.0 9077070000.0 9437410000.0 9354600000.0 19037100000.0 22901100000.0 31206200000.0 33251000000.0 30707600000.0 28809700000.0 21033200000.0 16903000000.0 9240000000.0 9323170000.0 9073560000.0 9064770000.0 9054060000.0 9048460000.0 9044660000.0 9042090000.0 9040270000.0 9039010000.0 9038140000.0 9037510000.0 9037050000.0 9036730000.0 9036490000.0 9036310000.0 9036180000.0 9036090000.0 9036020000.0 9035960000.0 9035920000.0 9035880000.0 9035850000.0 9035830000.0 9035810000.0 9035800000.0 9035790000.0 9035780000.0 9035770000.0 9035760000.0 9035760000.0 9035760000.0 9035750000.0 9035750000.0 9035750000.0 9035760000.0 9035760000.0 9035760000.0 9035770000.0 9035780000.0 9035790000.0 9035800000.0 9035810000.0 9035830000.0 9035850000.0 9035880000.0 9035920000.0 9035960000.0 9036020000.0 9036090000.0 9036180000.0 9036310000.0 9036490000.0 9036730000.0 9037050000.0 9037510000.0 9038140000.0 9039010000.0 9040270000.0 9042090000.0 9044660000.0 9048460000.0 9054060000.0 9064770000.0 9073560000.0 9323170000.0 9240000000.0 16903000000.0 21033200000.0 28809700000.0 30707600000.0 28312900000.0 26573000000.0 19319200000.0 15155600000.0 9168930000.0 9241760000.0 9070090000.0 9060780000.0 9052340000.0 9047270000.0 9043820000.0 9041490000.0 9039850000.0 9038700000.0 9037910000.0 9037330000.0 9036930000.0 9036630000.0 9036410000.0 9036260000.0 9036140000.0 9036050000.0 9035990000.0 9035940000.0 9035900000.0 9035870000.0 9035840000.0 9035820000.0 9035810000.0 9035790000.0 9035780000.0 9035770000.0 9035770000.0 9035760000.0 9035760000.0 9035760000.0 9035750000.0 9035750000.0 9035750000.0 9035760000.0 9035760000.0 9035760000.0 9035770000.0 9035770000.0 9035780000.0 9035790000.0 9035810000.0 9035820000.0 9035840000.0 9035870000.0 9035900000.0 9035940000.0 9035990000.0 9036050000.0 9036140000.0 9036260000.0 9036410000.0 9036630000.0 9036930000.0 9037330000.0 9037910000.0 9038700000.0 9039850000.0 9041490000.0 9043820000.0 9047270000.0 9052340000.0 9060780000.0 9070090000.0 9241760000.0 9168930000.0 15155600000.0 19319200000.0 26573000000.0 28312900000.0 26084100000.0 24502100000.0 17768600000.0 13744600000.0 9125700000.0 9184100000.0 9066720000.0 9057740000.0 9050680000.0 9046110000.0 9043010000.0 9040910000.0 9039430000.0 9038400000.0 9037680000.0 9037170000.0 9036800000.0 9036540000.0 9036340000.0 9036200000.0 9036090000.0 9036020000.0 9035960000.0 9035910000.0 9035880000.0 9035850000.0 9035830000.0 9035810000.0 9035800000.0 9035790000.0 9035780000.0 9035770000.0 9035770000.0 9035760000.0 9035760000.0 9035750000.0 9035750000.0 9035750000.0 9035750000.0 9035750000.0 9035760000.0 9035760000.0 9035770000.0 9035770000.0 9035780000.0 9035790000.0 9035800000.0 9035810000.0 9035830000.0 9035850000.0 9035880000.0 9035910000.0 9035960000.0 9036020000.0 9036090000.0 9036200000.0 9036340000.0 9036540000.0 9036800000.0 9037170000.0 9037680000.0 9038400000.0 9039430000.0 9040910000.0 9043010000.0 9046110000.0 9050680000.0 9057740000.0 9066720000.0 9184100000.0 9125700000.0 13744600000.0 17768600000.0 24502100000.0 26084100000.0 24031100000.0 22599900000.0 16384400000.0 12620700000.0 9099700000.0 9143530000.0 9063480000.0 9055200000.0 9049100000.0 9045010000.0 9042230000.0 9040360000.0 9039040000.0 9038110000.0 9037470000.0 9037010000.0 9036680000.0 9036450000.0 9036270000.0 9036150000.0 9036050000.0 9035980000.0 9035930000.0 9035890000.0 9035860000.0 9035840000.0 9035820000.0 9035800000.0 9035790000.0 9035780000.0 9035780000.0 9035770000.0 9035760000.0 9035760000.0 9035760000.0 9035750000.0 9035750000.0 9035750000.0 9035750000.0 9035750000.0 9035760000.0 9035760000.0 9035760000.0 9035770000.0 9035780000.0 9035780000.0 9035790000.0 9035800000.0 9035820000.0 9035840000.0 9035860000.0 9035890000.0 9035930000.0 9035980000.0 9036050000.0 9036150000.0 9036270000.0 9036450000.0 9036680000.0 9037010000.0 9037470000.0 9038110000.0 9039040000.0 9040360000.0 9042230000.0 9045010000.0 9049100000.0 9055200000.0 9063480000.0 9143530000.0 9099700000.0 12620700000.0 16384400000.0 22599900000.0 24031100000.0 22158000000.0 20866000000.0 15164200000.0 11737300000.0 9083970000.0 9115090000.0 9060420000.0 9052950000.0 9047600000.0 9043970000.0 9041500000.0 9039840000.0 9038660000.0 9037850000.0 9037270000.0 9036870000.0 9036570000.0 9036360000.0 9036210000.0 9036100000.0 9036020000.0 9035950000.0 9035910000.0 9035870000.0 9035850000.0 9035830000.0 9035810000.0 9035800000.0 9035790000.0 9035780000.0 9035770000.0 9035770000.0 9035760000.0 9035760000.0 9035760000.0 9035750000.0 9035750000.0 9035750000.0 9035750000.0 9035750000.0 9035760000.0 9035760000.0 9035760000.0 9035770000.0 9035770000.0 9035780000.0 9035790000.0 9035800000.0 9035810000.0 9035830000.0 9035850000.0 9035870000.0 9035910000.0 9035950000.0 9036020000.0 9036100000.0 9036210000.0 9036360000.0 9036570000.0 9036870000.0 9037270000.0 9037850000.0 9038660000.0 9039840000.0 9041500000.0 9043970000.0 9047600000.0 9052950000.0 9060420000.0 9115090000.0 9083970000.0 11737300000.0 15164200000.0 20866000000.0 22158000000.0 20463800000.0 19297300000.0 14101700000.0 11051700000.0 9074170000.0 9095180000.0 9057560000.0 9050910000.0 9046210000.0 9043000000.0 9040830000.0 9039360000.0 9038320000.0 9037600000.0 9037090000.0 9036730000.0 9036470000.0 9036290000.0 9036150000.0 9036050000.0 9035980000.0 9035930000.0 9035890000.0 9035860000.0 9035830000.0 9035820000.0 9035800000.0 9035790000.0 9035780000.0 9035770000.0 9035770000.0 9035760000.0 9035760000.0 9035760000.0 9035760000.0 9035750000.0 9035750000.0 9035750000.0 9035750000.0 9035750000.0 9035760000.0 9035760000.0 9035760000.0 9035760000.0 9035770000.0 9035770000.0 9035780000.0 9035790000.0 9035800000.0 9035820000.0 9035830000.0 9035860000.0 9035890000.0 9035930000.0 9035980000.0 9036050000.0 9036150000.0 9036290000.0 9036470000.0 9036730000.0 9037090000.0 9037600000.0 9038320000.0 9039360000.0 9040830000.0 9043000000.0 9046210000.0 9050910000.0 9057560000.0 9095180000.0 9074170000.0 11051700000.0 14101700000.0 19297300000.0 20463800000.0 18943400000.0 17888000000.0 13187000000.0 10526400000.0 9067680000.0 9081150000.0 9054900000.0 9049040000.0 9044920000.0 9042110000.0 9040200000.0 9038910000.0 9038000000.0 9037360000.0 9036920000.0 9036610000.0 9036380000.0 9036220000.0 9036100000.0 9036010000.0 9035950000.0 9035900000.0 9035870000.0 9035840000.0 9035820000.0 9035810000.0 9035790000.0 9035780000.0 9035780000.0 9035770000.0 9035770000.0 9035760000.0 9035760000.0 9035760000.0 9035760000.0 9035750000.0 9035750000.0 9035750000.0 9035750000.0 9035750000.0 9035760000.0 9035760000.0 9035760000.0 9035760000.0 9035770000.0 9035770000.0 9035780000.0 9035780000.0 9035790000.0 9035810000.0 9035820000.0 9035840000.0 9035870000.0 9035900000.0 9035950000.0 9036010000.0 9036100000.0 9036220000.0 9036380000.0 9036610000.0 9036920000.0 9037360000.0 9038000000.0 9038910000.0 9040200000.0 9042110000.0 9044920000.0 9049040000.0 9054900000.0 9081150000.0 9067680000.0 10526400000.0 13187000000.0 17888000000.0 18943400000.0 17589000000.0 16630600000.0 12408400000.0 10128700000.0 9063000000.0 9071150000.0 9052470000.0 9047330000.0 9043740000.0 9041290000.0 9039630000.0 9038500000.0 9037710000.0 9037150000.0 9036770000.0 9036490000.0 9036290000.0 9036150000.0 9036050000.0 9035980000.0 9035920000.0 9035880000.0 9035850000.0 9035830000.0 9035810000.0 9035800000.0 9035790000.0 9035780000.0 9035770000.0 9035770000.0 9035760000.0 9035760000.0 9035760000.0 9035760000.0 9035750000.0 9035750000.0 9035750000.0 9035750000.0 9035750000.0 9035750000.0 9035750000.0 9035760000.0 9035760000.0 9035760000.0 9035760000.0 9035770000.0 9035770000.0 9035780000.0 9035790000.0 9035800000.0 9035810000.0 9035830000.0 9035850000.0 9035880000.0 9035920000.0 9035980000.0 9036050000.0 9036150000.0 9036290000.0 9036490000.0 9036770000.0 9037150000.0 9037710000.0 9038500000.0 9039630000.0 9041290000.0 9043740000.0 9047330000.0 9052470000.0 9071150000.0 9063000000.0 10128700000.0 12408400000.0 16630600000.0 17589000000.0 16390300000.0 15516300000.0 11752700000.0 9831110000.0 9059340000.0 9063880000.0 9050260000.0 9045790000.0 9042680000.0 9040550000.0 9039110000.0 9038130000.0 9037440000.0 9036960000.0 9036630000.0 9036390000.0 9036220000.0 9036100000.0 9036010000.0 9035940000.0 9035900000.0 9035860000.0 9035840000.0 9035820000.0 9035800000.0 9035790000.0 9035780000.0 9035770000.0 9035770000.0 9035760000.0 9035760000.0 9035760000.0 9035760000.0 9035760000.0 9035750000.0 9035750000.0 9035750000.0 9035750000.0 9035750000.0 9035750000.0 9035750000.0 9035760000.0 9035760000.0 9035760000.0 9035760000.0 9035760000.0 9035770000.0 9035770000.0 9035780000.0 9035790000.0 9035800000.0 9035820000.0 9035840000.0 9035860000.0 9035900000.0 9035940000.0 9036010000.0 9036100000.0 9036220000.0 9036390000.0 9036630000.0 9036960000.0 9037440000.0 9038130000.0 9039110000.0 9040550000.0 9042680000.0 9045790000.0 9050260000.0 9063880000.0 9059340000.0 9831110000.0 11752700000.0 15516300000.0 16390300000.0 15336000000.0 14535300000.0 11206400000.0 9610840000.0 9056260000.0 9058460000.0 9048270000.0 9044400000.0 9041720000.0 9039880000.0 9038640000.0 9037800000.0 9037210000.0 9036790000.0 9036500000.0 9036300000.0 9036150000.0 9036050000.0 9035970000.0 9035910000.0 9035870000.0 9035840000.0 9035820000.0 9035810000.0 9035790000.0 9035780000.0 9035780000.0 9035770000.0 9035770000.0 9035760000.0 9035760000.0 9035760000.0 9035760000.0 9035750000.0 9035750000.0 9035750000.0 9035750000.0 9035750000.0 9035750000.0 9035750000.0 9035750000.0 9035750000.0 9035760000.0 9035760000.0 9035760000.0 9035760000.0 9035770000.0 9035770000.0 9035780000.0 9035780000.0 9035790000.0 9035810000.0 9035820000.0 9035840000.0 9035870000.0 9035910000.0 9035970000.0 9036050000.0 9036150000.0 9036300000.0 9036500000.0 9036790000.0 9037210000.0 9037800000.0 9038640000.0 9039880000.0 9041720000.0 9044400000.0 9048270000.0 9058460000.0 9056260000.0 9610840000.0 11206400000.0 14535300000.0 15336000000.0 14413700000.0 13677100000.0 10755800000.0 9449460000.0 9053580000.0 9054310000.0 9046490000.0 9043170000.0 9040860000.0 9039290000.0 9038230000.0 9037500000.0 9037000000.0 9036640000.0 9036390000.0 9036220000.0 9036090000.0 9036000000.0 9035940000.0 9035890000.0 9035850000.0 9035830000.0 9035810000.0 9035800000.0 9035790000.0 9035780000.0 9035770000.0 9035770000.0 9035760000.0 9035760000.0 9035760000.0 9035760000.0 9035760000.0 9035750000.0 9035750000.0 9035750000.0 9035750000.0 9035750000.0 9035750000.0 9035750000.0 9035750000.0 9035750000.0 9035760000.0 9035760000.0 9035760000.0 9035760000.0 9035760000.0 9035770000.0 9035770000.0 9035780000.0 9035790000.0 9035800000.0 9035810000.0 9035830000.0 9035850000.0 9035890000.0 9035940000.0 9036000000.0 9036090000.0 9036220000.0 9036390000.0 9036640000.0 9037000000.0 9037500000.0 9038230000.0 9039290000.0 9040860000.0 9043170000.0 9046490000.0 9054310000.0 9053580000.0 9449460000.0 10755800000.0 13677100000.0 14413700000.0 13611000000.0 12931200000.0 10387800000.0 9332310000.0 9051200000.0 9051050000.0 9044910000.0 9042070000.0 9040100000.0 9038760000.0 9037860000.0 9037240000.0 9036810000.0 9036510000.0 9036300000.0 9036140000.0 9036040000.0 9035960000.0 9035910000.0 9035870000.0 9035840000.0 9035820000.0 9035800000.0 9035790000.0 9035780000.0 9035770000.0 9035770000.0 9035760000.0 9035760000.0 9035760000.0 9035760000.0 9035760000.0 9035750000.0 9035750000.0 9035750000.0 9035750000.0 9035750000.0 9035750000.0 9035750000.0 9035750000.0 9035750000.0 9035750000.0 9035750000.0 9035760000.0 9035760000.0 9035760000.0 9035760000.0 9035760000.0 9035770000.0 9035770000.0 9035780000.0 9035790000.0 9035800000.0 9035820000.0 9035840000.0 9035870000.0 9035910000.0 9035960000.0 9036040000.0 9036140000.0 9036300000.0 9036510000.0 9036810000.0 9037240000.0 9037860000.0 9038760000.0 9040100000.0 9042070000.0 9044910000.0 9051050000.0 9051200000.0 9332310000.0 10387800000.0 12931200000.0 13611000000.0 12915500000.0 12287000000.0 10090100000.0 9247950000.0 9049080000.0 9048420000.0 9043520000.0 9041110000.0 9039440000.0 9038300000.0 9037530000.0 9037010000.0 9036650000.0 9036390000.0 9036210000.0 9036080000.0 9035990000.0 9035930000.0 9035880000.0 9035850000.0 9035820000.0 9035810000.0 9035790000.0 9035780000.0 9035770000.0 9035770000.0 9035770000.0 9035760000.0 9035760000.0 9035760000.0 9035760000.0 9035760000.0 9035750000.0 9035750000.0 9035750000.0 9035750000.0 9035750000.0 9035750000.0 9035750000.0 9035750000.0 9035750000.0 9035750000.0 9035750000.0 9035760000.0 9035760000.0 9035760000.0 9035760000.0 9035760000.0 9035770000.0 9035770000.0 9035770000.0 9035780000.0 9035790000.0 9035810000.0 9035820000.0 9035850000.0 9035880000.0 9035930000.0 9035990000.0 9036080000.0 9036210000.0 9036390000.0 9036650000.0 9037010000.0 9037530000.0 9038300000.0 9039440000.0 9041110000.0 9043520000.0 9048420000.0 9049080000.0 9247950000.0 10090100000.0 12287000000.0 12915500000.0 12315500000.0 11734100000.0 9851630000.0 9187590000.0 9047180000.0 9046260000.0 9042310000.0 9040270000.0 9038860000.0 9037900000.0 9037250000.0 9036810000.0 9036500000.0 9036290000.0 9036140000.0 9036030000.0 9035950000.0 9035900000.0 9035860000.0 9035830000.0 9035810000.0 9035800000.0 9035780000.0 9035780000.0 9035770000.0 9035770000.0 9035760000.0 9035760000.0 9035760000.0 9035760000.0 9035760000.0 9035750000.0 9035750000.0 9035750000.0 9035750000.0 9035750000.0 9035750000.0 9035750000.0 9035750000.0 9035750000.0 9035750000.0 9035750000.0 9035750000.0 9035750000.0 9035760000.0 9035760000.0 9035760000.0 9035760000.0 9035760000.0 9035770000.0 9035770000.0 9035780000.0 9035780000.0 9035800000.0 9035810000.0 9035830000.0 9035860000.0 9035900000.0 9035950000.0 9036030000.0 9036140000.0 9036290000.0 9036500000.0 9036810000.0 9037250000.0 9037900000.0 9038860000.0 9040270000.0 9042310000.0 9046260000.0 9047180000.0 9187590000.0 9851630000.0 11734100000.0 12315500000.0 11799800000.0 11262700000.0 9662300000.0 9144610000.0 9045510000.0 9044460000.0 9041260000.0 9039540000.0 9038360000.0 9037550000.0 9037010000.0 9036640000.0 9036380000.0 9036200000.0 9036070000.0 9035980000.0 9035920000.0 9035870000.0 9035840000.0 9035820000.0 9035800000.0 9035790000.0 9035780000.0 9035770000.0 9035770000.0 9035760000.0 9035760000.0 9035760000.0 9035760000.0 9035760000.0 9035760000.0 9035750000.0 9035750000.0 9035750000.0 9035750000.0 9035750000.0 9035750000.0 9035750000.0 9035750000.0 9035750000.0 9035750000.0 9035750000.0 9035750000.0 9035750000.0 9035760000.0 9035760000.0 9035760000.0 9035760000.0 9035760000.0 9035760000.0 9035770000.0 9035770000.0 9035780000.0 9035790000.0 9035800000.0 9035820000.0 9035840000.0 9035870000.0 9035920000.0 9035980000.0 9036070000.0 9036200000.0 9036380000.0 9036640000.0 9037010000.0 9037550000.0 9038360000.0 9039540000.0 9041260000.0 9044460000.0 9045510000.0 9144610000.0 9662300000.0 11262700000.0 11799800000.0 11357900000.0 10863100000.0 9513340000.0 9114090000.0 9044030000.0 9042960000.0 9040350000.0 9038910000.0 9037920000.0 9037250000.0 9036800000.0 9036490000.0 9036270000.0 9036120000.0 9036020000.0 9035940000.0 9035890000.0 9035850000.0 9035820000.0 9035810000.0 9035790000.0 9035780000.0 9035770000.0 9035770000.0 9035760000.0 9035760000.0 9035760000.0 9035760000.0 9035760000.0 9035760000.0 9035750000.0 9035750000.0 9035750000.0 9035750000.0 9035750000.0 9035750000.0 9035750000.0 9035750000.0 9035750000.0 9035750000.0 9035750000.0 9035750000.0 9035750000.0 9035750000.0 9035750000.0 9035760000.0 9035760000.0 9035760000.0 9035760000.0 9035760000.0 9035760000.0 9035770000.0 9035770000.0 9035780000.0 9035790000.0 9035810000.0 9035820000.0 9035850000.0 9035890000.0 9035940000.0 9036020000.0 9036120000.0 9036270000.0 9036490000.0 9036800000.0 9037250000.0 9037920000.0 9038910000.0 9040350000.0 9042960000.0 9044030000.0 9114090000.0 9513340000.0 10863100000.0 11357900000.0 10980600000.0 10526700000.0 9397170000.0 9092420000.0 9042740000.0 9041700000.0 9039570000.0 9038370000.0 9037550000.0 9037000000.0 9036620000.0 9036360000.0 9036180000.0 9036060000.0 9035970000.0 9035910000.0 9035860000.0 9035830000.0 9035810000.0 9035800000.0 9035780000.0 9035780000.0 9035770000.0 9035770000.0 9035760000.0 9035760000.0 9035760000.0 9035760000.0 9035760000.0 9035750000.0 9035750000.0 9035750000.0 9035750000.0 9035750000.0 9035750000.0 9035750000.0 9035750000.0 9035750000.0 9035750000.0 9035750000.0 9035750000.0 9035750000.0 9035750000.0 9035750000.0 9035750000.0 9035750000.0 9035760000.0 9035760000.0 9035760000.0 9035760000.0 9035760000.0 9035770000.0 9035770000.0 9035780000.0 9035780000.0 9035800000.0 9035810000.0 9035830000.0 9035860000.0 9035910000.0 9035970000.0 9036060000.0 9036180000.0 9036360000.0 9036620000.0 9037000000.0 9037550000.0 9038370000.0 9039570000.0 9041700000.0 9042740000.0 9092420000.0 9397170000.0 10526700000.0 10980600000.0 10659100000.0 10245000000.0 9307340000.0 9077010000.0 9041610000.0 9040640000.0 9038910000.0 9037910000.0 9037240000.0 9036780000.0 9036470000.0 9036250000.0 9036110000.0 9036000000.0 9035930000.0 9035880000.0 9035840000.0 9035820000.0 9035800000.0 9035790000.0 9035780000.0 9035770000.0 9035770000.0 9035760000.0 9035760000.0 9035760000.0 9035760000.0 9035760000.0 9035750000.0 9035750000.0 9035750000.0 9035750000.0 9035750000.0 9035750000.0 9035750000.0 9035750000.0 9035750000.0 9035750000.0 9035750000.0 9035750000.0 9035750000.0 9035750000.0 9035750000.0 9035750000.0 9035750000.0 9035750000.0 9035750000.0 9035760000.0 9035760000.0 9035760000.0 9035760000.0 9035760000.0 9035770000.0 9035770000.0 9035780000.0 9035790000.0 9035800000.0 9035820000.0 9035840000.0 9035880000.0 9035930000.0 9036000000.0 9036110000.0 9036250000.0 9036470000.0 9036780000.0 9037240000.0 9037910000.0 9038910000.0 9040640000.0 9041610000.0 9077010000.0 9307340000.0 10245000000.0 10659100000.0 10385800000.0 10010800000.0 9238440000.0 9066000000.0 9040640000.0 9039750000.0 9038340000.0 9037530000.0 9036970000.0 9036590000.0 9036340000.0 9036160000.0 9036040000.0 9035960000.0 9035900000.0 9035860000.0 9035830000.0 9035810000.0 9035790000.0 9035780000.0 9035770000.0 9035770000.0 9035760000.0 9035760000.0 9035760000.0 9035760000.0 9035760000.0 9035760000.0 9035750000.0 9035750000.0 9035750000.0 9035750000.0 9035750000.0 9035750000.0 9035750000.0 9035750000.0 9035750000.0 9035750000.0 9035750000.0 9035750000.0 9035750000.0 9035750000.0 9035750000.0 9035750000.0 9035750000.0 9035750000.0 9035750000.0 9035760000.0 9035760000.0 9035760000.0 9035760000.0 9035760000.0 9035760000.0 9035770000.0 9035770000.0 9035780000.0 9035790000.0 9035810000.0 9035830000.0 9035860000.0 9035900000.0 9035960000.0 9036040000.0 9036160000.0 9036340000.0 9036590000.0 9036970000.0 9037530000.0 9038340000.0 9039750000.0 9040640000.0 9066000000.0 9238440000.0 10010800000.0 10385800000.0 10153900000.0 9817000000.0 9186020000.0 9058070000.0 9039800000.0 9039000000.0 9037870000.0 9037200000.0 9036750000.0 9036440000.0 9036230000.0 9036090000.0 9035990000.0 9035920000.0 9035870000.0 9035840000.0 9035810000.0 9035790000.0 9035780000.0 9035770000.0 9035770000.0 9035760000.0 9035760000.0 9035760000.0 9035760000.0 9035760000.0 9035760000.0 9035750000.0 9035750000.0 9035750000.0 9035750000.0 9035750000.0 9035750000.0 9035750000.0 9035750000.0 9035750000.0 9035750000.0 9035750000.0 9035750000.0 9035750000.0 9035750000.0 9035750000.0 9035750000.0 9035750000.0 9035750000.0 9035750000.0 9035750000.0 9035750000.0 9035760000.0 9035760000.0 9035760000.0 9035760000.0 9035760000.0 9035760000.0 9035770000.0 9035770000.0 9035780000.0 9035790000.0 9035810000.0 9035840000.0 9035870000.0 9035920000.0 9035990000.0 9036090000.0 9036230000.0 9036440000.0 9036750000.0 9037200000.0 9037870000.0 9039000000.0 9039800000.0 9058070000.0 9186020000.0 9817000000.0 10153900000.0 9957300000.0 9657620000.0 9146430000.0 9052320000.0 9039090000.0 9038380000.0 9037470000.0 9036930000.0 9036560000.0 9036310000.0 9036140000.0 9036020000.0 9035940000.0 9035890000.0 9035850000.0 9035820000.0 9035800000.0 9035790000.0 9035780000.0 9035770000.0 9035770000.0 9035760000.0 9035760000.0 9035760000.0 9035760000.0 9035760000.0 9035750000.0 9035750000.0 9035750000.0 9035750000.0 9035750000.0 9035750000.0 9035750000.0 9035750000.0 9035750000.0 9035750000.0 9035750000.0 9035750000.0 9035750000.0 9035750000.0 9035750000.0 9035750000.0 9035750000.0 9035750000.0 9035750000.0 9035750000.0 9035750000.0 9035750000.0 9035750000.0 9035760000.0 9035760000.0 9035760000.0 9035760000.0 9035760000.0 9035770000.0 9035770000.0 9035780000.0 9035790000.0 9035800000.0 9035820000.0 9035850000.0 9035890000.0 9035940000.0 9036020000.0 9036140000.0 9036310000.0 9036560000.0 9036930000.0 9037470000.0 9038380000.0 9039090000.0 9052320000.0 9146430000.0 9657620000.0 9957300000.0 9790610000.0 9527160000.0 9116740000.0 9048100000.0 9038480000.0 9037870000.0 9037140000.0 9036700000.0 9036400000.0 9036200000.0 9036060000.0 9035970000.0 9035900000.0 9035860000.0 9035830000.0 9035810000.0 9035790000.0 9035780000.0 9035770000.0 9035770000.0 9035760000.0 9035760000.0 9035760000.0 9035760000.0 9035760000.0 9035750000.0 9035750000.0 9035750000.0 9035750000.0 9035750000.0 9035750000.0 9035750000.0 9035750000.0 9035750000.0 9035750000.0 9035750000.0 9035750000.0 9035750000.0 9035750000.0 9035750000.0 9035750000.0 9035750000.0 9035750000.0 9035750000.0 9035750000.0 9035750000.0 9035750000.0 9035750000.0 9035750000.0 9035750000.0 9035760000.0 9035760000.0 9035760000.0 9035760000.0 9035760000.0 9035770000.0 9035770000.0 9035780000.0 9035790000.0 9035810000.0 9035830000.0 9035860000.0 9035900000.0 9035970000.0 9036060000.0 9036200000.0 9036400000.0 9036700000.0 9037140000.0 9037870000.0 9038480000.0 9048100000.0 9116740000.0 9527160000.0 9790610000.0 9649120000.0 9420780000.0 9094610000.0 9044980000.0 9037960000.0 9037440000.0 9036860000.0 9036510000.0 9036270000.0 9036110000.0 9036000000.0 9035920000.0 9035870000.0 9035840000.0 9035810000.0 9035790000.0 9035780000.0 9035770000.0 9035770000.0 9035760000.0 9035760000.0 9035760000.0 9035760000.0 9035760000.0 9035750000.0 9035750000.0 9035750000.0 9035750000.0 9035750000.0 9035750000.0 9035750000.0 9035750000.0 9035750000.0 9035750000.0 9035750000.0 9035750000.0 9035750000.0 9035750000.0 9035750000.0 9035750000.0 9035750000.0 9035750000.0 9035750000.0 9035750000.0 9035750000.0 9035750000.0 9035750000.0 9035750000.0 9035750000.0 9035750000.0 9035750000.0 9035760000.0 9035760000.0 9035760000.0 9035760000.0 9035760000.0 9035770000.0 9035770000.0 9035780000.0 9035790000.0 9035810000.0 9035840000.0 9035870000.0 9035920000.0 9036000000.0 9036110000.0 9036270000.0 9036510000.0 9036860000.0 9037440000.0 9037960000.0 9044980000.0 9094610000.0 9420780000.0 9649120000.0 9528640000.0 9334210000.0 9078190000.0 9042630000.0 9037510000.0 9037080000.0 9036630000.0 9036350000.0 9036160000.0 9036030000.0 9035950000.0 9035890000.0 9035850000.0 9035820000.0 9035800000.0 9035790000.0 9035780000.0 9035770000.0 9035760000.0 9035760000.0 9035760000.0 9035760000.0 9035760000.0 9035750000.0 9035750000.0 9035750000.0 9035750000.0 9035750000.0 9035750000.0 9035750000.0 9035750000.0 9035750000.0 9035750000.0 9035750000.0 9035750000.0 9035750000.0 9035750000.0 9035750000.0 9035750000.0 9035750000.0 9035750000.0 9035750000.0 9035750000.0 9035750000.0 9035750000.0 9035750000.0 9035750000.0 9035750000.0 9035750000.0 9035750000.0 9035750000.0 9035750000.0 9035760000.0 9035760000.0 9035760000.0 9035760000.0 9035760000.0 9035770000.0 9035780000.0 9035790000.0 9035800000.0 9035820000.0 9035850000.0 9035890000.0 9035950000.0 9036030000.0 9036160000.0 9036350000.0 9036630000.0 9037080000.0 9037510000.0 9042630000.0 9078190000.0 9334210000.0 9528640000.0 9425450000.0 9263720000.0 9066030000.0 9040840000.0 9037140000.0 9036790000.0 9036430000.0 9036220000.0 9036070000.0 9035970000.0 9035900000.0 9035860000.0 9035830000.0 9035800000.0 9035790000.0 9035780000.0 9035770000.0 9035770000.0 9035760000.0 9035760000.0 9035760000.0 9035760000.0 9035760000.0 9035750000.0 9035750000.0 9035750000.0 9035750000.0 9035750000.0 9035750000.0 9035750000.0 9035750000.0 9035750000.0 9035750000.0 9035750000.0 9035750000.0 9035750000.0 9035750000.0 9035750000.0 9035750000.0 9035750000.0 9035750000.0 9035750000.0 9035750000.0 9035750000.0 9035750000.0 9035750000.0 9035750000.0 9035750000.0 9035750000.0 9035750000.0 9035750000.0 9035750000.0 9035760000.0 9035760000.0 9035760000.0 9035760000.0 9035760000.0 9035770000.0 9035770000.0 9035780000.0 9035790000.0 9035800000.0 9035830000.0 9035860000.0 9035900000.0 9035970000.0 9036070000.0 9036220000.0 9036430000.0 9036790000.0 9037140000.0 9040840000.0 9066030000.0 9263720000.0 9425450000.0 9336240000.0 9206040000.0 9057010000.0 9039460000.0 9036820000.0 9036540000.0 9036270000.0 9036110000.0 9035990000.0 9035920000.0 9035870000.0 9035830000.0 9035810000.0 9035790000.0 9035780000.0 9035770000.0 9035770000.0 9035760000.0 9035760000.0 9035760000.0 9035760000.0 9035760000.0 9035750000.0 9035750000.0 9035750000.0 9035750000.0 9035750000.0 9035750000.0 9035750000.0 9035750000.0 9035750000.0 9035750000.0 9035750000.0 9035750000.0 9035750000.0 9035750000.0 9035750000.0 9035750000.0 9035750000.0 9035750000.0 9035750000.0 9035750000.0 9035750000.0 9035750000.0 9035750000.0 9035750000.0 9035750000.0 9035750000.0 9035750000.0 9035750000.0 9035750000.0 9035750000.0 9035750000.0 9035760000.0 9035760000.0 9035760000.0 9035760000.0 9035760000.0 9035770000.0 9035770000.0 9035780000.0 9035790000.0 9035810000.0 9035830000.0 9035870000.0 9035920000.0 9035990000.0 9036110000.0 9036270000.0 9036540000.0 9036820000.0 9039460000.0 9057010000.0 9206040000.0 9336240000.0 9258030000.0 9158280000.0 9050250000.0 9038370000.0 9036530000.0 9036320000.0 9036130000.0 9036010000.0 9035930000.0 9035870000.0 9035840000.0 9035810000.0 9035790000.0 9035780000.0 9035770000.0 9035770000.0 9035760000.0 9035760000.0 9035760000.0 9035760000.0 9035760000.0 9035750000.0 9035750000.0 9035750000.0 9035750000.0 9035750000.0 9035750000.0 9035750000.0 9035750000.0 9035750000.0 9035750000.0 9035750000.0 9035750000.0 9035750000.0 9035750000.0 9035750000.0 9035750000.0 9035750000.0 9035750000.0 9035750000.0 9035750000.0 9035750000.0 9035750000.0 9035750000.0 9035750000.0 9035750000.0 9035750000.0 9035750000.0 9035750000.0 9035750000.0 9035750000.0 9035750000.0 9035750000.0 9035750000.0 9035760000.0 9035760000.0 9035760000.0 9035760000.0 9035760000.0 9035770000.0 9035770000.0 9035780000.0 9035790000.0 9035810000.0 9035840000.0 9035870000.0 9035930000.0 9036010000.0 9036130000.0 9036320000.0 9036530000.0 9038370000.0 9050250000.0 9158280000.0 9258030000.0 9188080000.0 9117880000.0 9045060000.0 9037490000.0 9036290000.0 9036140000.0 9036010000.0 9035930000.0 9035870000.0 9035830000.0 9035810000.0 9035790000.0 9035780000.0 9035770000.0 9035770000.0 9035760000.0 9035760000.0 9035760000.0 9035760000.0 9035760000.0 9035750000.0 9035750000.0 9035750000.0 9035750000.0 9035750000.0 9035750000.0 9035750000.0 9035750000.0 9035750000.0 9035750000.0 9035750000.0 9035750000.0 9035750000.0 9035750000.0 9035750000.0 9035750000.0 9035750000.0 9035750000.0 9035750000.0 9035750000.0 9035750000.0 9035750000.0 9035750000.0 9035750000.0 9035750000.0 9035750000.0 9035750000.0 9035750000.0 9035750000.0 9035750000.0 9035750000.0 9035750000.0 9035750000.0 9035750000.0 9035750000.0 9035760000.0 9035760000.0 9035760000.0 9035760000.0 9035760000.0 9035770000.0 9035770000.0 9035780000.0 9035790000.0 9035810000.0 9035830000.0 9035870000.0 9035930000.0 9036010000.0 9036140000.0 9036290000.0 9037490000.0 9045060000.0 9117880000.0 9188080000.0 9123860000.0 9082540000.0 9040900000.0 9036730000.0 9036060000.0 9035980000.0 9035900000.0 9035850000.0 9035820000.0 9035800000.0 9035780000.0 9035780000.0 9035770000.0 9035760000.0 9035760000.0 9035760000.0 9035760000.0 9035760000.0 9035750000.0 9035750000.0 9035750000.0 9035750000.0 9035750000.0 9035750000.0 9035750000.0 9035750000.0 9035750000.0 9035750000.0 9035750000.0 9035750000.0 9035750000.0 9035750000.0 9035750000.0 9035750000.0 9035750000.0 9035750000.0 9035750000.0 9035750000.0 9035750000.0 9035750000.0 9035750000.0 9035750000.0 9035750000.0 9035750000.0 9035750000.0 9035750000.0 9035750000.0 9035750000.0 9035750000.0 9035750000.0 9035750000.0 9035750000.0 9035750000.0 9035750000.0 9035750000.0 9035750000.0 9035750000.0 9035760000.0 9035760000.0 9035760000.0 9035760000.0 9035760000.0 9035770000.0 9035780000.0 9035780000.0 9035800000.0 9035820000.0 9035850000.0 9035900000.0 9035980000.0 9036060000.0 9036730000.0 9040900000.0 9082540000.0 9123860000.0 9062990000.0 9050130000.0 9037320000.0 9036050000.0 9035850000.0 9035820000.0 9035800000.0 9035780000.0 9035770000.0 9035770000.0 9035760000.0 9035760000.0 9035760000.0 9035760000.0 9035760000.0 9035750000.0 9035750000.0 9035750000.0 9035750000.0 9035750000.0 9035750000.0 9035750000.0 9035750000.0 9035750000.0 9035750000.0 9035750000.0 9035750000.0 9035750000.0 9035750000.0 9035750000.0 9035750000.0 9035750000.0 9035750000.0 9035750000.0 9035750000.0 9035750000.0 9035750000.0 9035750000.0 9035750000.0 9035750000.0 9035750000.0 9035750000.0 9035750000.0 9035750000.0 9035750000.0 9035750000.0 9035750000.0 9035750000.0 9035750000.0 9035750000.0 9035750000.0 9035750000.0 9035750000.0 9035750000.0 9035750000.0 9035750000.0 9035750000.0 9035750000.0 9035750000.0 9035750000.0 9035760000.0 9035760000.0 9035760000.0 9035760000.0 9035760000.0 9035770000.0 9035770000.0 9035780000.0 9035800000.0 9035820000.0 9035850000.0 9036050000.0 9037320000.0 9050130000.0 9062990000.0 