# vtk DataFile Version 2.0
Time step 20
ASCII
DATASET UNSTRUCTURED_GRID
POINTS 5000 float
119747.0 428231.0 0
125067.0 426944.0 0
134472.0 427469.0 0
356907.0 426931.0 0
362943.0 428193.0 0
367811.0 423690.0 0
377674.0 427436.0 0
111260.0 432988.0 0
114615.0 430761.0 0
117894.0 432100.0 0
121877.0 431967.0 0
126080.0 432758.0 0
130084.0 429537.0 0
133213.0 433420.0 0
137282.0 431705.0 0
141761.0 432321.0 0
145311.0 430871.0 0
149457.0 431606.0 0
153425.0 432133.0 0
158264.0 430444.0 0
162757.0 431074.0 0
167090.0 431249.0 0
171875.0 430022.0 0
177665.0 430251.0 0
182858.0 429366.0 0
187296.0 431350.0 0
192500.0 432671.0 0
196087.0 431843.0 0
201703.0 431139.0 0
207644.0 431959.0 0
212969.0 431225.0 0
218127.0 432380.0 0
222479.0 432393.0 0
225791.0 431610.0 0
230434.0 431464.0 0
235802.0 432493.0 0
241157.0 431181.0 0
246483.0 433193.0 0
252659.0 431175.0 0
259024.0 431646.0 0
263740.0 432748.0 0
268693.0 431610.0 0
273891.0 431737.0 0
278886.0 430583.0 0
286255.0 432227.0 0
291647.0 432644.0 0
297255.0 430542.0 0
303538.0 431224.0 0
307613.0 433661.0 0
312065.0 431655.0 0
317864.0 432225.0 0
323117.0 431461.0 0
327175.0 432980.0 0
336354.0 430311.0 0
331747.0 432261.0 0
339142.0 433085.0 0
342922.0 429626.0 0
347304.0 432181.0 0
351825.0 431176.0 0
356947.0 433550.0 0
360015.0 431719.0 0
367727.0 428914.0 0
372668.0 429904.0 0
378267.0 432431.0 0
383163.0 430633.0 0
103891.0 437791.0 0
107084.0 438676.0 0
107826.0 435427.0 0
111607.0 438093.0 0
115061.0 434750.0 0
116169.0 438741.0 0
119798.0 436255.0 0
123992.0 436629.0 0
127198.0 436953.0 0
129854.0 433873.0 0
131297.0 437684.0 0
136420.0 437307.0 0
141099.0 436481.0 0
144760.0 434725.0 0
148394.0 435799.0 0
157528.0 434464.0 0
153147.0 436794.0 0
161784.0 435826.0 0
166940.0 435927.0 0
173252.0 435516.0 0
178635.0 435610.0 0
183769.0 434378.0 0
188811.0 435697.0 0
193715.0 436848.0 0
198381.0 436135.0 0
204033.0 436692.0 0
213762.0 435758.0 0
209458.0 437000.0 0
217616.0 437484.0 0
222039.0 437154.0 0
226819.0 435839.0 0
232195.0 436906.0 0
237674.0 437745.0 0
243269.0 437542.0 0
248494.0 437240.0 0
252706.0 437743.0 0
257293.0 436306.0 0
262286.0 436921.0 0
267023.0 436455.0 0
271605.0 435790.0 0
276901.0 436078.0 0
281979.0 433965.0 0
282829.0 437639.0 0
287500.0 437331.0 0
292750.0 437152.0 0
298253.0 436069.0 0
303144.0 436916.0 0
307389.0 436948.0 0
312487.0 437324.0 0
317342.0 437084.0 0
322310.0 435918.0 0
327500.0 437311.0 0
335972.0 435807.0 0
331961.0 437023.0 0
341705.0 435774.0 0
345164.0 434867.0 0
349116.0 436046.0 0
354015.0 435664.0 0
359702.0 435905.0 0
364896.0 434084.0 0
370332.0 434434.0 0
372269.0 437412.0 0
374592.0 434895.0 0
377331.0 438360.0 0
380685.0 436100.0 0
384054.0 434921.0 0
387298.0 433996.0 0
390489.0 433753.0 0
389841.0 436840.0 0
393204.0 435677.0 0
396482.0 438249.0 0
96347.1 442867.0 0
100321.0 440025.0 0
100004.0 443395.0 0
103887.0 441853.0 0
111225.0 442185.0 0
107856.0 441758.0 0
114829.0 443093.0 0
119608.0 441063.0 0
125273.0 440077.0 0
123036.0 443381.0 0
129196.0 441592.0 0
133932.0 442443.0 0
138958.0 441834.0 0
143554.0 440419.0 0
148803.0 440641.0 0
158078.0 439064.0 0
154128.0 442545.0 0
163290.0 441329.0 0
170473.0 440369.0 0
176691.0 441508.0 0
182497.0 439518.0 0
188321.0 441849.0 0
194502.0 441888.0 0
200169.0 441216.0 0
208309.0 441955.0 0
204481.0 441985.0 0
213449.0 440571.0 0
217710.0 442385.0 0
222576.0 441425.0 0
226889.0 440841.0 0
232426.0 442371.0 0
237409.0 442170.0 0
241799.0 442790.0 0
246845.0 441294.0 0
251776.0 442627.0 0
257736.0 441061.0 0
262725.0 441694.0 0
267467.0 440905.0 0
273022.0 441035.0 0
279518.0 440251.0 0
283249.0 442423.0 0
290498.0 441281.0 0
286867.0 442821.0 0
296194.0 440957.0 0
301669.0 442014.0 0
307073.0 441363.0 0
312523.0 442434.0 0
317511.0 441614.0 0
321535.0 439826.0 0
325092.0 442839.0 0
329945.0 441747.0 0
334367.0 440317.0 0
339233.0 439623.0 0
344575.0 439589.0 0
348843.0 442100.0 0
352009.0 439349.0 0
356871.0 440106.0 0
353042.0 443369.0 0
362456.0 439933.0 0
368357.0 440035.0 0
374008.0 441061.0 0
380836.0 440188.0 0
378186.0 443211.0 0
385359.0 439118.0 0
389682.0 440166.0 0
392902.0 439265.0 0
396555.0 442074.0 0
392981.0 443294.0 0
400478.0 440863.0 0
404276.0 442804.0 0
89909.2 446404.0 0
92748.2 444330.0 0
94460.7 447704.0 0
98210.8 446519.0 0
102343.0 446094.0 0
105935.0 444841.0 0
105420.0 448518.0 0
109799.0 445935.0 0
114055.0 448729.0 0
119294.0 446307.0 0
126565.0 443961.0 0
124952.0 447927.0 0
130104.0 446092.0 0
133966.0 446644.0 0
137658.0 447038.0 0
141050.0 445306.0 0
145552.0 445427.0 0
150305.0 445230.0 0
156151.0 448224.0 0
158403.0 444775.0 0
161891.0 446078.0 0
167495.0 444165.0 0
165481.0 447823.0 0
172019.0 446209.0 0
178000.0 447991.0 0
182982.0 444941.0 0
187216.0 447543.0 0
192168.0 446993.0 0
197717.0 446582.0 0
203492.0 446190.0 0
209051.0 448298.0 0
214598.0 446217.0 0
218881.0 447702.0 0
222096.0 445687.0 0
227570.0 446383.0 0
234412.0 446706.0 0
237968.0 445478.0 0
241800.0 447379.0 0
246258.0 446480.0 0
251510.0 447895.0 0
255853.0 445769.0 0
260313.0 445408.0 0
266231.0 445559.0 0
271616.0 447287.0 0
278227.0 445807.0 0
284304.0 447271.0 0
288718.0 445792.0 0
292888.0 447622.0 0
298838.0 447415.0 0
303979.0 447651.0 0
307500.0 447475.0 0
315802.0 445846.0 0
312007.0 447327.0 0
320583.0 445699.0 0
325016.0 447980.0 0
328635.0 445801.0 0
332660.0 448470.0 0
337253.0 444854.0 0
343509.0 445787.0 0
349810.0 447485.0 0
355909.0 447327.0 0
360166.0 444482.0 0
361355.0 448924.0 0
365265.0 445565.0 0
371379.0 445458.0 0
375724.0 446436.0 0
382870.0 444385.0 0
388446.0 444643.0 0
397184.0 446014.0 0
393023.0 447538.0 0
401308.0 445053.0 0
407481.0 444525.0 0
405572.0 447193.0 0
410269.0 446352.0 0
413257.0 448195.0 0
77652.1 453701.0 0
80337.3 452185.0 0
83093.2 450189.0 0
84015.1 452592.0 0
86814.1 449010.0 0
87592.7 453503.0 0
90713.6 450419.0 0
94863.0 452086.0 0
100003.0 450326.0 0
104239.0 452716.0 0
108809.0 450734.0 0
111936.0 453168.0 0
116690.0 452351.0 0
120892.0 451206.0 0
124929.0 453769.0 0
129300.0 451170.0 0
133770.0 449988.0 0
137596.0 451603.0 0
142546.0 450321.0 0
151849.0 449129.0 0
147971.0 452174.0 0
155084.0 452938.0 0
160844.0 451122.0 0
166368.0 452280.0 0
168849.0 449518.0 0
171701.0 452783.0 0
183489.0 451946.0 0
189724.0 451920.0 0
194192.0 451081.0 0
198634.0 452539.0 0
203476.0 451289.0 0
207453.0 453709.0 0
212253.0 452641.0 0
216394.0 450899.0 0
221231.0 451411.0 0
226434.0 453000.0 0
232065.0 451203.0 0
238022.0 450214.0 0
242881.0 452153.0 0
248050.0 451560.0 0
252866.0 451937.0 0
257691.0 450956.0 0
262587.0 448997.0 0
267387.0 451420.0 0
272440.0 453185.0 0
278218.0 452450.0 0
283300.0 451814.0 0
288568.0 451106.0 0
293270.0 451765.0 0
297189.0 453382.0 0
302363.0 451943.0 0
305771.0 452369.0 0
310590.0 452378.0 0
315231.0 450237.0 0
320432.0 451405.0 0
325222.0 452153.0 0
328967.0 451591.0 0
335849.0 451962.0 0
340059.0 450729.0 0
348202.0 452916.0 0
353353.0 452125.0 0
358196.0 452007.0 0
364577.0 451586.0 0
369032.0 449991.0 0
374122.0 450066.0 0
376340.0 453323.0 0
379802.0 449801.0 0
385616.0 449264.0 0
389773.0 449597.0 0
389046.0 453227.0 0
392646.0 452162.0 0
396581.0 450349.0 0
401173.0 449522.0 0
399468.0 453690.0 0
403001.0 453697.0 0
405188.0 450714.0 0
406720.0 452955.0 0
409312.0 449856.0 0
413146.0 451775.0 0
416562.0 450533.0 0
416559.0 453883.0 0
420330.0 453392.0 0
71409.0 458669.0 0
74906.2 456101.0 0
79110.2 456398.0 0
83208.5 456141.0 0
87535.4 457531.0 0
91185.5 454795.0 0
91316.4 459180.0 0
95080.2 456537.0 0
98245.1 454163.0 0
101240.0 454480.0 0
99143.4 457457.0 0
103592.0 457394.0 0
107593.0 455077.0 0
110736.0 456533.0 0
114709.0 455734.0 0
116273.0 458833.0 0
119280.0 455907.0 0
123040.0 457817.0 0
128076.0 458339.0 0
133511.0 455220.0 0
138997.0 456252.0 0
144095.0 455889.0 0
147675.0 459163.0 0
151167.0 456338.0 0
155408.0 457478.0 0
159436.0 456711.0 0
163825.0 455862.0 0
168288.0 456821.0 0
173349.0 458629.0 0
177410.0 454192.0 0
177617.0 458459.0 0
181873.0 458730.0 0
187339.0 456885.0 0
192848.0 456463.0 0
198166.0 458236.0 0
202890.0 456041.0 0
206963.0 458340.0 0
210900.0 456992.0 0
216597.0 456829.0 0
222876.0 456935.0 0
228476.0 458597.0 0
236033.0 455200.0 0
240942.0 457633.0 0
246405.0 458266.0 0
250841.0 456071.0 0
256684.0 457153.0 0
262733.0 454573.0 0
268165.0 456933.0 0
272780.0 458066.0 0
277721.0 458501.0 0
281867.0 455763.0 0
286853.0 457192.0 0
292734.0 456388.0 0
297520.0 458750.0 0
301508.0 455817.0 0
305770.0 457742.0 0
310966.0 458137.0 0
315796.0 455276.0 0
320993.0 457281.0 0
326553.0 456566.0 0
332327.0 455435.0 0
338615.0 457001.0 0
343639.0 454240.0 0
343980.0 459074.0 0
351227.0 456106.0 0
348072.0 458124.0 0
356399.0 456975.0 0
362030.0 455413.0 0
367291.0 454841.0 0
372007.0 454522.0 0
376034.0 457323.0 0
380209.0 455960.0 0
384661.0 454195.0 0
388311.0 457087.0 0
392675.0 456883.0 0
396042.0 454327.0 0
397116.0 457202.0 0
400667.0 457434.0 0
405698.0 457351.0 0
410339.0 454463.0 0
410095.0 458868.0 0
414485.0 456849.0 0
419721.0 457515.0 0
424388.0 455854.0 0
428633.0 458955.0 0
67192.9 462005.0 0
76262.7 459570.0 0
72820.0 463004.0 0
80565.1 460366.0 0
77143.9 463050.0 0
84861.3 459640.0 0
83833.9 463278.0 0
87866.5 461803.0 0
92172.2 464016.0 0
95670.8 460828.0 0
100534.0 461882.0 0
104478.0 463189.0 0
107678.0 459741.0 0
107713.0 464161.0 0
111010.0 463077.0 0
112528.0 459312.0 0
115080.0 462298.0 0
119534.0 461038.0 0
123955.0 461615.0 0
132432.0 459766.0 0
130751.0 462797.0 0
136270.0 460389.0 0
139445.0 463141.0 0
143324.0 461211.0 0
147926.0 463760.0 0
152993.0 461631.0 0
158950.0 462014.0 0
164050.0 460474.0 0
168809.0 461985.0 0
177552.0 462225.0 0
186342.0 462153.0 0
192068.0 462337.0 0
197701.0 463766.0 0
202963.0 461577.0 0
207878.0 462451.0 0
212332.0 461395.0 0
217383.0 463213.0 0
223502.0 462900.0 0
234131.0 459785.0 0
233531.0 464247.0 0
238572.0 463437.0 0
243938.0 462667.0 0
249088.0 462286.0 0
252436.0 460268.0 0
255516.0 463261.0 0
262453.0 461745.0 0
268634.0 461899.0 0
273383.0 462602.0 0
278236.0 463886.0 0
282650.0 461290.0 0
287868.0 463162.0 0
293080.0 461713.0 0
297432.0 464221.0 0
302214.0 461658.0 0
307885.0 463028.0 0
312662.0 462410.0 0
316360.0 461114.0 0
320950.0 462831.0 0
324213.0 460214.0 0
328093.0 461764.0 0
334349.0 459909.0 0
332624.0 463673.0 0
337640.0 463174.0 0
342891.0 464055.0 0
347838.0 462683.0 0
352130.0 460315.0 0
356287.0 463141.0 0
360822.0 460551.0 0
366291.0 459685.0 0
364060.0 464000.0 0
371958.0 460038.0 0
376113.0 460583.0 0
379324.0 460427.0 0
384169.0 459946.0 0
389796.0 461928.0 0
395769.0 461135.0 0
402862.0 460309.0 0
400073.0 461246.0 0
403060.0 463739.0 0
406236.0 461740.0 0
410111.0 463210.0 0
413409.0 460719.0 0
417352.0 461053.0 0
421357.0 461510.0 0
424091.0 459515.0 0
425684.0 463479.0 0
433084.0 460347.0 0
430108.0 462206.0 0
432731.0 463601.0 0
436414.0 463643.0 0
54868.0 467686.0 0
58375.6 466498.0 0
60968.7 469211.0 0
62306.3 464370.0 0
65682.5 467744.0 0
69316.9 465019.0 0
70671.4 467642.0 0
75422.6 467284.0 0
79855.3 464850.0 0
79645.5 469299.0 0
83017.5 467279.0 0
86607.9 466589.0 0
89026.5 464770.0 0
89963.9 467788.0 0
93393.8 467954.0 0
96528.3 465507.0 0
100690.0 466899.0 0
105380.0 467603.0 0
109618.0 466985.0 0
113303.0 466097.0 0
117204.0 464885.0 0
116289.0 468914.0 0
121446.0 466238.0 0
126829.0 464820.0 0
130662.0 467673.0 0
134366.0 464803.0 0
138403.0 467560.0 0
142226.0 465308.0 0
145325.0 467925.0 0
150736.0 468583.0 0
155785.0 466465.0 0
159518.0 469025.0 0
163534.0 466003.0 0
168772.0 466938.0 0
173183.0 464286.0 0
172527.0 468243.0 0
177009.0 467224.0 0
181904.0 464795.0 0
187469.0 467154.0 0
192072.0 467625.0 0
196760.0 469211.0 0
201742.0 467088.0 0
207253.0 467391.0 0
213056.0 466801.0 0
219931.0 468315.0 0
229110.0 464627.0 0
225036.0 468224.0 0
228772.0 468716.0 0
232835.0 468010.0 0
237002.0 468653.0 0
242205.0 466965.0 0
246655.0 466646.0 0
251473.0 466304.0 0
257772.0 468512.0 0
262732.0 467807.0 0
268233.0 467520.0 0
274039.0 467545.0 0
279283.0 469378.0 0
284462.0 467224.0 0
289580.0 468103.0 0
293035.0 465970.0 0
295984.0 469065.0 0
301742.0 467223.0 0
306770.0 468159.0 0
311298.0 466956.0 0
315839.0 465719.0 0
320178.0 467949.0 0
325118.0 466340.0 0
330125.0 467728.0 0
335604.0 468900.0 0
340417.0 467925.0 0
344060.0 468381.0 0
348053.0 467721.0 0
352492.0 466397.0 0
360503.0 465084.0 0
357522.0 469129.0 0
363269.0 468432.0 0
369456.0 466225.0 0
376121.0 464425.0 0
374831.0 469109.0 0
379052.0 468625.0 0
381454.0 464370.0 0
385676.0 464402.0 0
384085.0 468699.0 0
389088.0 467429.0 0
393943.0 466228.0 0
398972.0 465620.0 0
402991.0 468004.0 0
406929.0 466471.0 0
411659.0 467931.0 0
414930.0 464878.0 0
416222.0 469232.0 0
420339.0 465723.0 0
425009.0 468003.0 0
429515.0 466013.0 0
434100.0 467694.0 0
438224.0 467915.0 0
440292.0 465456.0 0
443547.0 468409.0 0
48151.8 472160.0 0
52332.2 471084.0 0
55968.3 473959.0 0
56984.3 470150.0 0
59297.6 472678.0 0
63244.1 473005.0 0
68087.8 471771.0 0
72022.3 471038.0 0
75500.2 472711.0 0
80471.8 473359.0 0
85232.5 471519.0 0
90966.7 472373.0 0
96782.8 470710.0 0
102053.0 471251.0 0
107089.0 471884.0 0
111621.0 470170.0 0
110470.0 473840.0 0
114847.0 473909.0 0
120241.0 472135.0 0
125818.0 470190.0 0
134165.0 472122.0 0
141885.0 470927.0 0
139152.0 473682.0 0
146115.0 472995.0 0
155869.0 471198.0 0
159827.0 473225.0 0
164687.0 471855.0 0
169984.0 471570.0 0
174834.0 471613.0 0
183222.0 469535.0 0
179173.0 471183.0 0
182278.0 474038.0 0
187123.0 472835.0 0
192172.0 472121.0 0
201485.0 472691.0 0
207473.0 473363.0 0
212333.0 471745.0 0
216976.0 473115.0 0
221733.0 473948.0 0
226186.0 472751.0 0
231126.0 472068.0 0
235965.0 473321.0 0
241354.0 471864.0 0
246786.0 471579.0 0
252473.0 471805.0 0
257603.0 473761.0 0
263617.0 473319.0 0
269507.0 473200.0 0
274469.0 472530.0 0
283921.0 471680.0 0
288481.0 473118.0 0
292565.0 471522.0 0
298488.0 473608.0 0
303313.0 472079.0 0
307417.0 472379.0 0
311931.0 472139.0 0
317147.0 471661.0 0
322247.0 472907.0 0
326819.0 470933.0 0
331277.0 472709.0 0
335714.0 474365.0 0
338705.0 472397.0 0
342065.0 471567.0 0
346107.0 471704.0 0
351770.0 472507.0 0
357085.0 474384.0 0
361422.0 473206.0 0
366693.0 472225.0 0
371847.0 472377.0 0
376736.0 473070.0 0
380833.0 472325.0 0
384524.0 473193.0 0
388386.0 472172.0 0
397300.0 469665.0 0
393241.0 471462.0 0
400298.0 469835.0 0
399372.0 473820.0 0
403029.0 471339.0 0
408334.0 471976.0 0
413333.0 471631.0 0
416913.0 473610.0 0
420702.0 470634.0 0
425209.0 472246.0 0
429456.0 470204.0 0
433669.0 472048.0 0
436923.0 470383.0 0
437471.0 474248.0 0
440031.0 470860.0 0
441135.0 474467.0 0
448394.0 470751.0 0
444198.0 472536.0 0
448348.0 474387.0 0
453013.0 474449.0 0
38497.8 478680.0 0
41385.5 476573.0 0
45320.6 475083.0 0
49619.7 474808.0 0
48390.2 478144.0 0
52379.1 475965.0 0
55796.7 477755.0 0
59853.8 476875.0 0
63412.8 478171.0 0
66468.3 476001.0 0
70792.4 474535.0 0
69451.5 478797.0 0
73379.4 476618.0 0
77645.3 477068.0 0
85387.7 475656.0 0
82140.2 476535.0 0
84207.1 478990.0 0
89027.3 478433.0 0
94519.7 476434.0 0
99144.3 475204.0 0
102334.0 479113.0 0
103871.0 474764.0 0
107485.0 476790.0 0
111706.0 476905.0 0
114954.0 478838.0 0
118276.0 476680.0 0
123310.0 477006.0 0
128723.0 474610.0 0
132021.0 477461.0 0
136870.0 478063.0 0
142343.0 476542.0 0
146784.0 477779.0 0
151689.0 474841.0 0
154533.0 479104.0 0
158849.0 478052.0 0
163445.0 476749.0 0
168063.0 476274.0 0
174196.0 477720.0 0
179548.0 477594.0 0
183980.0 478711.0 0
189864.0 477793.0 0
196264.0 474943.0 0
194343.0 478770.0 0
200051.0 477704.0 0
204188.0 478160.0 0
208565.0 478507.0 0
212871.0 476420.0 0
219192.0 477865.0 0
223425.0 477397.0 0
227664.0 477482.0 0
232478.0 476679.0 0
237746.0 477802.0 0
242302.0 478241.0 0
246662.0 476409.0 0
251816.0 478037.0 0
257309.0 478050.0 0
262142.0 479525.0 0
267577.0 477380.0 0
271644.0 476943.0 0
279840.0 474718.0 0
275982.0 477351.0 0
284217.0 476081.0 0
288455.0 478423.0 0
293442.0 476075.0 0
298100.0 478343.0 0
301974.0 477430.0 0
305957.0 476126.0 0
310733.0 477886.0 0
315685.0 476251.0 0
320025.0 478349.0 0
323342.0 476939.0 0
326982.0 475636.0 0
331933.0 478424.0 0
340836.0 475671.0 0
337256.0 478487.0 0
346486.0 477269.0 0
352898.0 479146.0 0
359135.0 479247.0 0
364769.0 477329.0 0
369305.0 476030.0 0
373625.0 477305.0 0
378266.0 477186.0 0
382335.0 476430.0 0
386869.0 476194.0 0
391029.0 476125.0 0
395248.0 475755.0 0
398224.0 478754.0 0
402491.0 478310.0 0
404360.0 474978.0 0
408352.0 478681.0 0
412868.0 475815.0 0
417466.0 478770.0 0
421145.0 475088.0 0
422200.0 479080.0 0
426153.0 476834.0 0
430031.0 474675.0 0
430423.0 479192.0 0
433592.0 476498.0 0
436861.0 478010.0 0
440088.0 477979.0 0
444794.0 477607.0 0
450022.0 478073.0 0
458261.0 476603.0 0
455603.0 479226.0 0
34756.8 480867.0 0
31081.9 483122.0 0
34385.7 483853.0 0
38746.2 482598.0 0
43582.0 479676.0 0
43087.1 483397.0 0
47999.4 482670.0 0
52324.3 480044.0 0
53045.2 484250.0 0
57090.8 481627.0 0
61351.5 481193.0 0
65520.1 480650.0 0
68745.6 483244.0 0
73924.6 481357.0 0
79985.3 481143.0 0
84905.7 483547.0 0
93282.1 481115.0 0
97311.8 480360.0 0
99920.2 483891.0 0
103824.0 483292.0 0
106502.0 480970.0 0
110553.0 480814.0 0
114463.0 483866.0 0
119017.0 480865.0 0
123737.0 482684.0 0
128139.0 479742.0 0
128369.0 484688.0 0
132654.0 481841.0 0
136678.0 484268.0 0
141429.0 482082.0 0
146340.0 481805.0 0
150478.0 480573.0 0
148847.0 484512.0 0
154287.0 482824.0 0
159640.0 482591.0 0
163451.0 481227.0 0
168510.0 481888.0 0
173016.0 483090.0 0
177726.0 483331.0 0
182867.0 483635.0 0
187490.0 482655.0 0
192644.0 482747.0 0
198304.0 482438.0 0
203270.0 482153.0 0
207660.0 483226.0 0
212336.0 481407.0 0
217435.0 482958.0 0
222663.0 481590.0 0
227586.0 483104.0 0
232515.0 481383.0 0
237117.0 482115.0 0
241414.0 482715.0 0
246114.0 481427.0 0
254467.0 482498.0 0
250305.0 483115.0 0
258747.0 483172.0 0
267285.0 482706.0 0
272341.0 480841.0 0
277011.0 482643.0 0
282937.0 481420.0 0
287910.0 482957.0 0
292420.0 481619.0 0
297018.0 482379.0 0
301737.0 482452.0 0
306494.0 480820.0 0
310793.0 483178.0 0
315347.0 481176.0 0
319614.0 482788.0 0
325181.0 481560.0 0
331169.0 484543.0 0
341513.0 480871.0 0
336783.0 483342.0 0
346324.0 482891.0 0
350715.0 484148.0 0
355589.0 484212.0 0
360043.0 484515.0 0
364103.0 482509.0 0
368900.0 480555.0 0
373095.0 482162.0 0
376802.0 480869.0 0
376181.0 484373.0 0
380805.0 480735.0 0
385478.0 480036.0 0
383743.0 484056.0 0
387949.0 484094.0 0
389776.0 480219.0 0
391899.0 483711.0 0
394081.0 480024.0 0
395911.0 484154.0 0
401039.0 483459.0 0
405071.0 481244.0 0
406780.0 484482.0 0
413113.0 480409.0 0
411290.0 484221.0 0
416148.0 483960.0 0
421318.0 483384.0 0
426515.0 481656.0 0
431051.0 484208.0 0
438269.0 480917.0 0
434209.0 480434.0 0
435658.0 483563.0 0
442397.0 481405.0 0
447313.0 481592.0 0
451320.0 481234.0 0
454578.0 483595.0 0
458705.0 483263.0 0
462000.0 479869.0 0
462628.0 484524.0 0
467074.0 483271.0 0
20132.4 489122.0 0
23072.6 488073.0 0
27275.5 486721.0 0
31807.8 487529.0 0
36094.1 487015.0 0
40384.6 486880.0 0
45004.7 486871.0 0
49877.8 487427.0 0
54395.5 489473.0 0
56310.2 485643.0 0
59665.4 485330.0 0
58700.1 488935.0 0
63985.8 484781.0 0
67638.8 487362.0 0
71978.4 486645.0 0
75778.1 488739.0 0
76913.5 485109.0 0
80642.5 485819.0 0
83557.1 488076.0 0
89980.1 484710.0 0
95302.9 485478.0 0
91859.3 488839.0 0
98906.3 488070.0 0
103055.0 487235.0 0
107653.0 485084.0 0
110975.0 487524.0 0
115034.0 489294.0 0
119495.0 486189.0 0
124380.0 487873.0 0
128872.0 489506.0 0
132744.0 486788.0 0
136817.0 488613.0 0
140967.0 487468.0 0
145089.0 485792.0 0
152335.0 486704.0 0
148343.0 488203.0 0
157096.0 486156.0 0
162425.0 486604.0 0
168262.0 488029.0 0
173921.0 487313.0 0
178913.0 488713.0 0
184492.0 488238.0 0
189764.0 487298.0 0
194671.0 487205.0 0
204067.0 486367.0 0
199470.0 488165.0 0
208516.0 488286.0 0
213305.0 486663.0 0
217987.0 488258.0 0
222500.0 487391.0 0
227500.0 487680.0 0
231423.0 485512.0 0
231695.0 489694.0 0
235376.0 486151.0 0
241067.0 487102.0 0
246284.0 487303.0 0
252720.0 487812.0 0
257760.0 486926.0 0
262522.0 486123.0 0
268444.0 487426.0 0
272284.0 485492.0 0
276466.0 487687.0 0
282570.0 487209.0 0
287619.0 487356.0 0
292813.0 487086.0 0
297460.0 486251.0 0
301688.0 487992.0 0
306413.0 485688.0 0
311014.0 488372.0 0
316775.0 487255.0 0
322541.0 487069.0 0
326536.0 486326.0 0
330283.0 488945.0 0
334288.0 489318.0 0
339191.0 487963.0 0
342938.0 485341.0 0
347070.0 487723.0 0
352638.0 489412.0 0
358431.0 489115.0 0
363647.0 487693.0 0
367881.0 485172.0 0
372574.0 486875.0 0
379706.0 485015.0 0
377679.0 489553.0 0
383323.0 488745.0 0
388428.0 488587.0 0
393263.0 488097.0 0
398545.0 488464.0 0
403869.0 488506.0 0
409262.0 488743.0 0
414214.0 488122.0 0
419836.0 488360.0 0
426066.0 486256.0 0
430139.0 489158.0 0
435149.0 488025.0 0
439823.0 485011.0 0
442813.0 487707.0 0
445311.0 485105.0 0
448424.0 488697.0 0
450675.0 485326.0 0
452946.0 489516.0 0
455750.0 486735.0 0
459631.0 487258.0 0
463431.0 488524.0 0
465798.0 486765.0 0
467105.0 489372.0 0
468959.0 487458.0 0
472518.0 486514.0 0
477186.0 488636.0 0
13815.4 494493.0 0
17863.6 492083.0 0
22683.7 492502.0 0
27833.2 491476.0 0
33318.2 491964.0 0
37460.2 490265.0 0
37652.6 494202.0 0
41504.6 490970.0 0
46355.3 491439.0 0
50453.6 491651.0 0
57974.7 492987.0 0
63152.5 490311.0 0
68666.9 490806.0 0
66510.7 494565.0 0
70359.8 494142.0 0
72567.8 491160.0 0
76385.8 492258.0 0
79764.4 489880.0 0
83158.3 491791.0 0
87496.1 489942.0 0
90350.8 493884.0 0
95561.2 491922.0 0
101371.0 492130.0 0
106665.0 490709.0 0
111062.0 491558.0 0
119218.0 491625.0 0
123816.0 492889.0 0
128614.0 494249.0 0
133201.0 491866.0 0
137964.0 492749.0 0
142046.0 494366.0 0
144598.0 490394.0 0
146500.0 494475.0 0
151382.0 492236.0 0
157403.0 491377.0 0
163234.0 492656.0 0
172125.0 492254.0 0
176370.0 494000.0 0
180580.0 493291.0 0
183960.0 492151.0 0
187963.0 492412.0 0
193300.0 491868.0 0
198572.0 493795.0 0
203453.0 491407.0 0
207257.0 493847.0 0
211355.0 492281.0 0
216004.0 492680.0 0
221453.0 492574.0 0
227382.0 492998.0 0
237622.0 491844.0 0
243885.0 492495.0 0
248936.0 492285.0 0
254168.0 493938.0 0
257365.0 490265.0 0
260307.0 492298.0 0
265403.0 491275.0 0
272285.0 491792.0 0
279378.0 492401.0 0
285327.0 491464.0 0
289957.0 491309.0 0
293321.0 494563.0 0
296920.0 491306.0 0
301833.0 493318.0 0
306273.0 490949.0 0
311288.0 494493.0 0
317211.0 493132.0 0
322208.0 492034.0 0
326653.0 490083.0 0
330721.0 492797.0 0
335076.0 494208.0 0
338552.0 492422.0 0
343239.0 491688.0 0
348488.0 493372.0 0
355563.0 494167.0 0
360322.0 493913.0 0
364517.0 492565.0 0
368292.0 489997.0 0
368736.0 494873.0 0
372848.0 492372.0 0
377022.0 494545.0 0
382365.0 494588.0 0
386863.0 492447.0 0
390957.0 492681.0 0
395783.0 492754.0 0
400958.0 492887.0 0
405980.0 493107.0 0
410896.0 493400.0 0
416393.0 493411.0 0
421859.0 493172.0 0
425532.0 490775.0 0
429345.0 493019.0 0
433387.0 492914.0 0
437209.0 492018.0 0
436824.0 494671.0 0
440286.0 490005.0 0
439976.0 494213.0 0
442995.0 492742.0 0
444969.0 490078.0 0
445945.0 493382.0 0
449973.0 492789.0 0
457153.0 490550.0 0
454743.0 493646.0 0
458705.0 494499.0 0
461086.0 491369.0 0
465897.0 492799.0 0
470352.0 491331.0 0
474470.0 491560.0 0
478132.0 492622.0 0
480775.0 490876.0 0
484412.0 492823.0 0
9828.75 496319.0 0
6604.4 499400.0 0
13035.5 498293.0 0
17751.2 497112.0 0
22217.9 497901.0 0
26473.5 495777.0 0
30234.2 494923.0 0
26477.0 499297.0 0
29737.5 498705.0 0
33503.6 496964.0 0
37828.7 499338.0 0
42613.0 495699.0 0
41938.0 499499.0 0
45040.3 499465.0 0
47870.4 495654.0 0
49189.3 499283.0 0
52988.3 495031.0 0
57152.7 497613.0 0
61736.7 495475.0 0
65442.2 498380.0 0
69763.3 498237.0 0
74066.3 495617.0 0
79684.3 495178.0 0
80537.5 499544.0 0
82617.6 497563.0 0
85437.1 495108.0 0
88873.4 498077.0 0
93854.1 498026.0 0
98950.1 495845.0 0
103571.0 496888.0 0
108679.0 495533.0 0
114474.0 495217.0 0
116860.0 499701.0 0
120111.0 496374.0 0
124860.0 497781.0 0
130227.0 499341.0 0
135208.0 496831.0 0
139135.0 499239.0 0
144192.0 499251.0 0
149397.0 497621.0 0
154259.0 497288.0 0
159085.0 496109.0 0
163268.0 498322.0 0
168176.0 496125.0 0
173404.0 497286.0 0
178950.0 498462.0 0
184359.0 496343.0 0
191158.0 496947.0 0
196086.0 498528.0 0
203765.0 496651.0 0
200443.0 499183.0 0
208757.0 497781.0 0
213084.0 496676.0 0
218134.0 497333.0 0
223449.0 497422.0 0
227776.0 498001.0 0
232802.0 497161.0 0
237983.0 497848.0 0
242267.0 496678.0 0
246595.0 496590.0 0
251445.0 498379.0 0
257617.0 498245.0 0
262614.0 496490.0 0
268009.0 496516.0 0
273489.0 498420.0 0
279276.0 498579.0 0
283800.0 495692.0 0
288852.0 496390.0 0
293644.0 498775.0 0
298620.0 497300.0 0
302981.0 496599.0 0
302777.0 499742.0 0
306226.0 496723.0 0
315260.0 497894.0 0
320126.0 498120.0 0
326213.0 496270.0 0
331999.0 497718.0 0
336084.0 499638.0 0
338757.0 496535.0 0
344359.0 498044.0 0
350251.0 497990.0 0
355395.0 499805.0 0
359717.0 497917.0 0
364386.0 497797.0 0
369523.0 499555.0 0
373559.0 497172.0 0
378410.0 499337.0 0
388247.0 496973.0 0
393298.0 496765.0 0
398167.0 497132.0 0
403176.0 497269.0 0
408274.0 497996.0 0
412774.0 497296.0 0
416706.0 499228.0 0
421306.0 497591.0 0
426330.0 496180.0 0
431127.0 496665.0 0
435437.0 497321.0 0
443782.0 495922.0 0
440029.0 498773.0 0
447851.0 496654.0 0
452570.0 497085.0 0
456919.0 497737.0 0
462495.0 495008.0 0
461318.0 498629.0 0
469297.0 494967.0 0
466089.0 497531.0 0
472654.0 495160.0 0
470578.0 498148.0 0
474383.0 498650.0 0
476737.0 495725.0 0
481216.0 494917.0 0
479940.0 499144.0 0
484338.0 497260.0 0
487459.0 495182.0 0
487714.0 499514.0 0
491032.0 497402.0 0
494268.0 498898.0 0
2122.82 500024.0 0
2794.91 503489.0 0
6909.93 504202.0 0
10905.2 501870.0 0
15883.7 501653.0 0
19953.1 502395.0 0
24222.3 501658.0 0
28093.8 502445.0 0
32758.7 502006.0 0
37018.8 503679.0 0
41498.1 503262.0 0
47159.0 503916.0 0
52854.5 500287.0 0
52230.2 504953.0 0
56852.9 502862.0 0
61200.6 503980.0 0
61342.3 500000.0 0
65636.9 502573.0 0
70735.0 502736.0 0
75876.1 500527.0 0
80322.8 503077.0 0
84695.2 500609.0 0
85694.1 505031.0 0
90008.9 502654.0 0
94987.3 503260.0 0
98875.6 500119.0 0
103114.0 501687.0 0
107944.0 500623.0 0
112753.0 500646.0 0
115884.0 504075.0 0
121087.0 501373.0 0
125962.0 502729.0 0
130357.0 504347.0 0
134569.0 502560.0 0
139379.0 503762.0 0
143934.0 504498.0 0
148884.0 502694.0 0
158011.0 500813.0 0
154066.0 504312.0 0
162985.0 504599.0 0
170148.0 502504.0 0
176656.0 504165.0 0
182257.0 503205.0 0
186838.0 500790.0 0
191627.0 502233.0 0
196313.0 503208.0 0
201099.0 504141.0 0
205441.0 501232.0 0
208725.0 503786.0 0
211633.0 501328.0 0
216507.0 502524.0 0
221772.0 501838.0 0
226750.0 502485.0 0
232072.0 501432.0 0
236173.0 502742.0 0
241528.0 501183.0 0
246848.0 501696.0 0
251492.0 502630.0 0
256197.0 503372.0 0
261501.0 501815.0 0
266264.0 500962.0 0
270476.0 503235.0 0
276522.0 503396.0 0
284693.0 500797.0 0
290023.0 501213.0 0
293640.0 503368.0 0
297158.0 501597.0 0
304408.0 504545.0 0
307264.0 500514.0 0
309283.0 503640.0 0
311848.0 500264.0 0
313226.0 504581.0 0
316332.0 501655.0 0
320702.0 504053.0 0
325146.0 501662.0 0
330498.0 502628.0 0
334998.0 504209.0 0
339857.0 502673.0 0
344711.0 503633.0 0
348384.0 501993.0 0
352096.0 503825.0 0
360842.0 502758.0 0
365932.0 502806.0 0
369923.0 504263.0 0
373758.0 501717.0 0
377765.0 503877.0 0
382079.0 504857.0 0
383886.0 500188.0 0
388062.0 502400.0 0
391618.0 500466.0 0
395710.0 501477.0 0
400808.0 501797.0 0
405741.0 502918.0 0
409449.0 501850.0 0
412906.0 501458.0 0
414375.0 504975.0 0
416599.0 503270.0 0
420476.0 502600.0 0
424945.0 500995.0 0
427740.0 503923.0 0
429228.0 500317.0 0
433241.0 500142.0 0
432179.0 504494.0 0
436972.0 502975.0 0
442032.0 503866.0 0
445156.0 500246.0 0
447542.0 504940.0 0
450086.0 500571.0 0
452167.0 504013.0 0
455014.0 501206.0 0
459753.0 502892.0 0
464446.0 501621.0 0
468062.0 500697.0 0
468099.0 504467.0 0
471801.0 501865.0 0
476057.0 502288.0 0
484445.0 500863.0 0
481094.0 504293.0 0
485916.0 504570.0 0
489413.0 503098.0 0
493415.0 502068.0 0
497841.0 500068.0 0
497586.0 504003.0 0
2457.96 507533.0 0
6398.45 508545.0 0
13942.7 505386.0 0
10384.9 506714.0 0
13839.3 509590.0 0
17134.9 505635.0 0
19699.3 505729.0 0
18931.1 509564.0 0
23685.5 505854.0 0
29134.3 506846.0 0
34431.8 506426.0 0
38492.0 506447.0 0
42762.0 509054.0 0
49540.8 507607.0 0
52374.7 509595.0 0
55303.2 507032.0 0
58914.8 507024.0 0
60430.4 510064.0 0
63142.0 506893.0 0
67877.5 506684.0 0
71987.3 506536.0 0
74343.3 508984.0 0
76162.8 505502.0 0
79115.5 509579.0 0
82051.3 505942.0 0
84447.1 509047.0 0
88651.7 507707.0 0
92014.9 506497.0 0
95224.9 507493.0 0
99717.0 505642.0 0
105481.0 505708.0 0
110851.0 505438.0 0
107596.0 509928.0 0
110758.0 509458.0 0
115046.0 509666.0 0
120315.0 506467.0 0
125091.0 507190.0 0
129540.0 508770.0 0
133521.0 506798.0 0
137320.0 507941.0 0
141590.0 508063.0 0
147460.0 508360.0 0
153019.0 509598.0 0
157714.0 507765.0 0
161278.0 509998.0 0
168129.0 508938.0 0
172977.0 507658.0 0
180148.0 507435.0 0
184910.0 508328.0 0
190079.0 506764.0 0
194339.0 507970.0 0
198113.0 507239.0 0
203373.0 508056.0 0
206313.0 505870.0 0
212398.0 507058.0 0
216944.0 507029.0 0
221106.0 506680.0 0
225855.0 507414.0 0
231081.0 505826.0 0
235800.0 507698.0 0
240502.0 506399.0 0
248547.0 506442.0 0
252657.0 506265.0 0
260020.0 506424.0 0
256109.0 508366.0 0
265440.0 506209.0 0
270047.0 510197.0 0
272735.0 506718.0 0
275460.0 507339.0 0
281771.0 506323.0 0
288112.0 505921.0 0
293250.0 508025.0 0
298590.0 505999.0 0
308535.0 507355.0 0
312635.0 509334.0 0
316738.0 506924.0 0
322750.0 509138.0 0
326814.0 506095.0 0
331945.0 507380.0 0
335581.0 508730.0 0
340536.0 508155.0 0
345480.0 507898.0 0
349925.0 507379.0 0
355946.0 506595.0 0
361339.0 508947.0 0
366448.0 507010.0 0
370444.0 510032.0 0
374287.0 506564.0 0
378589.0 507432.0 0
386902.0 507271.0 0
392315.0 505515.0 0
397787.0 506081.0 0
402332.0 506505.0 0
406278.0 507613.0 0
410313.0 505523.0 0
413924.0 508394.0 0
418940.0 507978.0 0
424163.0 505849.0 0
428657.0 508162.0 0
433409.0 509351.0 0
438766.0 508607.0 0
443868.0 507782.0 0
451940.0 507810.0 0
456039.0 505722.0 0
463609.0 505315.0 0
460225.0 508122.0 0
465817.0 508206.0 0
472978.0 505855.0 0
469537.0 508132.0 0
476916.0 506048.0 0
475952.0 508464.0 0
479646.0 508730.0 0
484107.0 508623.0 0
488801.0 507785.0 0
492888.0 506355.0 0
496994.0 508634.0 0
2450.65 511688.0 0
9895.42 510425.0 0
6824.13 512781.0 0
11223.6 513396.0 0
15597.9 513671.0 0
20298.8 514079.0 0
24502.9 510716.0 0
24672.7 514759.0 0
28468.1 513072.0 0
32097.9 510516.0 0
37075.1 510335.0 0
39910.8 513951.0 0
44685.8 515079.0 0
47949.0 510842.0 0
49065.9 514246.0 0
53485.9 514407.0 0
56508.4 510327.0 0
58749.6 513730.0 0
64922.0 511317.0 0
70383.6 510437.0 0
74234.8 513696.0 0
78883.7 514824.0 0
83053.3 513283.0 0
87549.0 511309.0 0
92007.0 511066.0 0
97413.6 511332.0 0
100479.0 514661.0 0
102750.0 510525.0 0
109956.0 513029.0 0
118683.0 513545.0 0
122414.0 510921.0 0
126133.0 510524.0 0
128332.0 514050.0 0
133751.0 512029.0 0
139230.0 512388.0 0
144791.0 513927.0 0
149780.0 512813.0 0
157346.0 512689.0 0
153228.0 514703.0 0
164349.0 511558.0 0
171951.0 511516.0 0
168914.0 514449.0 0
176942.0 511476.0 0
182579.0 513589.0 0
189655.0 511990.0 0
194750.0 512505.0 0
199909.0 511649.0 0
204014.0 513657.0 0
207777.0 510752.0 0
211216.0 514431.0 0
216416.0 512551.0 0
221883.0 510961.0 0
226692.0 512669.0 0
232635.0 511785.0 0
238619.0 511601.0 0
244789.0 510619.0 0
251391.0 511299.0 0
256841.0 512894.0 0
261843.0 511004.0 0
266244.0 514319.0 0
274081.0 513050.0 0
277779.0 510389.0 0
283158.0 512660.0 0
288681.0 511221.0 0
292966.0 513458.0 0
296952.0 510842.0 0
302726.0 511003.0 0
308490.0 511926.0 0
317794.0 512129.0 0
323405.0 514564.0 0
327815.0 511231.0 0
332921.0 513193.0 0
338349.0 512980.0 0
343552.0 512416.0 0
348506.0 511725.0 0
353002.0 510440.0 0
357090.0 513546.0 0
362065.0 514725.0 0
365934.0 512335.0 0
369303.0 514853.0 0
376698.0 510805.0 0
373748.0 514626.0 0
379086.0 515003.0 0
382167.0 510520.0 0
384047.0 514188.0 0
386942.0 512407.0 0
390643.0 510287.0 0
390917.0 514664.0 0
395220.0 510418.0 0
400216.0 510411.0 0
405051.0 512386.0 0
410006.0 510580.0 0
414682.0 512682.0 0
419552.0 513944.0 0
424411.0 511373.0 0
429925.0 513183.0 0
435558.0 514164.0 0
443154.0 511207.0 0
440469.0 513897.0 0
448156.0 510925.0 0
444882.0 514699.0 0
452269.0 513952.0 0
455745.0 510638.0 0
456259.0 514857.0 0
463435.0 511420.0 0
459642.0 513298.0 0
467918.0 511880.0 0
472928.0 510731.0 0
471079.0 514583.0 0
477338.0 511314.0 0
481779.0 513477.0 0
487167.0 512005.0 0
489775.0 515210.0 0
492351.0 511548.0 0
497298.0 513511.0 0
2691.79 516116.0 0
7968.8 516703.0 0
12625.6 517221.0 0
17161.9 518011.0 0
22315.2 518189.0 0
27534.1 517655.0 0
33877.3 516140.0 0
40221.7 519128.0 0
45153.6 519721.0 0
49332.5 518123.0 0
57071.2 518507.0 0
62727.2 516506.0 0
68702.6 515331.0 0
66382.4 519888.0 0
72428.9 518426.0 0
77195.9 519132.0 0
82222.4 518013.0 0
87377.0 515769.0 0
90133.8 519590.0 0
92435.4 515999.0 0
96628.7 515881.0 0
99975.2 518896.0 0
105486.0 515774.0 0
114048.0 515819.0 0
118615.0 518527.0 0
122981.0 516025.0 0
127266.0 519640.0 0
132618.0 517811.0 0
138239.0 517908.0 0
143122.0 519012.0 0
149310.0 517483.0 0
154228.0 519231.0 0
158770.0 517403.0 0
163708.0 515983.0 0
167791.0 519374.0 0
172786.0 516305.0 0
178402.0 516883.0 0
182760.0 518710.0 0
186734.0 516210.0 0
192446.0 516909.0 0
196992.0 517434.0 0
201485.0 517147.0 0
207126.0 516917.0 0
212782.0 517467.0 0
217762.0 518492.0 0
222023.0 515633.0 0
226875.0 517760.0 0
231620.0 517390.0 0
236510.0 516701.0 0
241311.0 516116.0 0
240126.0 519477.0 0
244063.0 520247.0 0
245873.0 515950.0 0
250477.0 517188.0 0
255220.0 517056.0 0
260785.0 517165.0 0
266729.0 519820.0 0
271089.0 516742.0 0
277963.0 516401.0 0
283163.0 519478.0 0
288226.0 516490.0 0
293249.0 518347.0 0
298161.0 516028.0 0
303214.0 516538.0 0
307907.0 516909.0 0
313998.0 517509.0 0
318879.0 516808.0 0
321911.0 520162.0 0
328609.0 516605.0 0
332768.0 517488.0 0
336323.0 517327.0 0
341606.0 517895.0 0
346512.0 516030.0 0
346005.0 519743.0 0
351691.0 516325.0 0
356336.0 518546.0 0
360901.0 519388.0 0
366063.0 517877.0 0
371467.0 519814.0 0
377308.0 518996.0 0
383368.0 517729.0 0
386805.0 519182.0 0
387266.0 516333.0 0
389977.0 518929.0 0
395549.0 515493.0 0
393341.0 518837.0 0
397266.0 519884.0 0
400684.0 515677.0 0
405171.0 516898.0 0
410739.0 515328.0 0
408706.0 519786.0 0
415625.0 518009.0 0
421327.0 518833.0 0
425105.0 520401.0 0
426015.0 516684.0 0
427404.0 519880.0 0
431633.0 518972.0 0
438436.0 519316.0 0
442270.0 517261.0 0
444281.0 519670.0 0
448657.0 517503.0 0
453908.0 517927.0 0
463140.0 515539.0 0
459285.0 518152.0 0
467273.0 516152.0 0
464565.0 520083.0 0
471384.0 518784.0 0
475893.0 515338.0 0
476287.0 519942.0 0
480252.0 518249.0 0
486056.0 516146.0 0
489237.0 518959.0 0
493727.0 517067.0 0
498118.0 517547.0 0
4738.97 520445.0 0
2100.96 523777.0 0
9738.06 520901.0 0
6907.96 525028.0 0
13906.8 520860.0 0
12002.2 524083.0 0
19724.9 522554.0 0
15484.5 523709.0 0
25172.9 521963.0 0
29795.8 521335.0 0
34836.2 523119.0 0
43062.4 523525.0 0
48400.6 523522.0 0
52900.2 520912.0 0
56296.2 523650.0 0
61363.3 521903.0 0
66082.8 524739.0 0
69887.2 521899.0 0
73813.2 522445.0 0
80657.2 522658.0 0
76705.1 525422.0 0
85999.9 520713.0 0
90449.5 524388.0 0
94873.7 520496.0 0
99873.6 523956.0 0
104261.0 521459.0 0
109957.0 520551.0 0
108377.0 525395.0 0
115097.0 520605.0 0
113273.0 525011.0 0
118833.0 524130.0 0
122612.0 520585.0 0
124797.0 524176.0 0
130049.0 524513.0 0
134853.0 522456.0 0
138683.0 522217.0 0
141946.0 522907.0 0
146872.0 522702.0 0
152171.0 523634.0 0
160278.0 521706.0 0
164191.0 521553.0 0
167224.0 523920.0 0
172644.0 520576.0 0
178151.0 522386.0 0
183579.0 523398.0 0
188489.0 521226.0 0
194154.0 521981.0 0
199302.0 521904.0 0
204408.0 521740.0 0
214249.0 520900.0 0
209738.0 522034.0 0
213803.0 525303.0 0
217596.0 522878.0 0
222231.0 521123.0 0
226365.0 521548.0 0
225483.0 525460.0 0
230572.0 522901.0 0
235830.0 521439.0 0
240179.0 523060.0 0
250331.0 522573.0 0
256431.0 522398.0 0
262598.0 522793.0 0
267343.0 525327.0 0
272535.0 522350.0 0
278324.0 522200.0 0
282998.0 525031.0 0
289358.0 522057.0 0
294283.0 522885.0 0
298693.0 521447.0 0
302895.0 520512.0 0
307036.0 521979.0 0
312093.0 523492.0 0
317107.0 522226.0 0
323912.0 524564.0 0
327147.0 521486.0 0
332669.0 521763.0 0
338675.0 523431.0 0
344020.0 522884.0 0
349923.0 522408.0 0
357326.0 522792.0 0
367062.0 523103.0 0
362412.0 523930.0 0
371749.0 525346.0 0
375813.0 522544.0 0
380609.0 521938.0 0
385796.0 522083.0 0
388347.0 523672.0 0
392589.0 523354.0 0
398230.0 524576.0 0
402863.0 521135.0 0
413205.0 522802.0 0
418257.0 522794.0 0
422991.0 523317.0 0
427868.0 523200.0 0
435077.0 523208.0 0
438689.0 524442.0 0
442049.0 522873.0 0
446984.0 522920.0 0
451556.0 521749.0 0
456122.0 522029.0 0
460771.0 523329.0 0
465061.0 524962.0 0
468667.0 522711.0 0
473636.0 523677.0 0
484691.0 520411.0 0
480060.0 524008.0 0
488689.0 523512.0 0
492328.0 521189.0 0
492976.0 524931.0 0
497018.0 521784.0 0
2703.73 528124.0 0
6934.23 529812.0 0
14303.8 526641.0 0
10688.7 527911.0 0
14340.0 530382.0 0
18407.5 527587.0 0
23239.2 526260.0 0
22164.8 530423.0 0
28113.0 525569.0 0
25709.5 529297.0 0
28977.8 529568.0 0
31859.6 527386.0 0
39395.4 525931.0 0
35787.6 528496.0 0
39290.7 529718.0 0
43300.9 528395.0 0
47808.7 528570.0 0
52594.9 527605.0 0
57307.9 528020.0 0
61420.1 526794.0 0
65122.7 529881.0 0
70909.2 526061.0 0
73772.8 528926.0 0
77315.8 529704.0 0
80550.5 526963.0 0
80347.9 529775.0 0
84956.6 525546.0 0
83357.6 530118.0 0
88796.1 530380.0 0
95476.4 525602.0 0
94621.3 530234.0 0
99772.5 529259.0 0
104271.0 526491.0 0
103801.0 530305.0 0
110651.0 528462.0 0
115146.0 528868.0 0
119328.0 529659.0 0
122632.0 527556.0 0
126634.0 528573.0 0
133578.0 528189.0 0
138166.0 526391.0 0
139972.0 529989.0 0
143531.0 527640.0 0
149568.0 527330.0 0
157118.0 526203.0 0
153183.0 530439.0 0
163071.0 526304.0 0
167781.0 528510.0 0
173023.0 526287.0 0
183194.0 527800.0 0
178685.0 528498.0 0
187007.0 526643.0 0
192133.0 526855.0 0
197105.0 526278.0 0
202187.0 526585.0 0
207670.0 527167.0 0
217082.0 528160.0 0
220588.0 525964.0 0
223167.0 530309.0 0
229473.0 527952.0 0
236492.0 526944.0 0
240617.0 529230.0 0
245130.0 526392.0 0
252309.0 527525.0 0
257025.0 527863.0 0
262023.0 527530.0 0
272397.0 528450.0 0
277573.0 527173.0 0
285676.0 528881.0 0
289204.0 526812.0 0
292836.0 526457.0 0
297295.0 527321.0 0
303136.0 525756.0 0
308544.0 527952.0 0
314672.0 528758.0 0
319765.0 526362.0 0
323524.0 529456.0 0
328363.0 526965.0 0
334248.0 527113.0 0
338207.0 528558.0 0
342895.0 528130.0 0
348447.0 527729.0 0
354087.0 526407.0 0
358538.0 526580.0 0
361812.0 527858.0 0
357685.0 530313.0 0
366236.0 528120.0 0
375795.0 526179.0 0
376398.0 530311.0 0
379485.0 526585.0 0
383922.0 525856.0 0
388454.0 527124.0 0
395186.0 528891.0 0
399685.0 528419.0 0
402634.0 526283.0 0
408003.0 525739.0 0
404462.0 530286.0 0
414094.0 528229.0 0
420342.0 527983.0 0
425539.0 527045.0 0
431560.0 526173.0 0
428807.0 529765.0 0
436342.0 528185.0 0
441779.0 527538.0 0
446187.0 527096.0 0
448611.0 529209.0 0
450900.0 526208.0 0
456606.0 527379.0 0
462001.0 527473.0 0
465680.0 528991.0 0
469894.0 527346.0 0
475752.0 528967.0 0
482050.0 529876.0 0
487510.0 528226.0 0
493094.0 528292.0 0
497160.0 527154.0 0
1743.29 532105.0 0
2090.26 535599.0 0
5611.79 533670.0 0
10386.8 532353.0 0
14646.6 535493.0 0
18244.4 532047.0 0
21701.3 535251.0 0
27132.4 533649.0 0
32276.0 531393.0 0
36767.8 533078.0 0
41282.3 532780.0 0
46000.0 532868.0 0
50040.8 531298.0 0
50447.7 535060.0 0
54902.8 532691.0 0
60128.6 531633.0 0
64168.2 534917.0 0
69998.0 531244.0 0
74633.0 534219.0 0
79842.2 533227.0 0
84470.3 534925.0 0
93243.9 533807.0 0
97604.3 533083.0 0
102396.0 533745.0 0
107385.0 531498.0 0
112607.0 532371.0 0
117746.0 533801.0 0
122341.0 535368.0 0
123162.0 531033.0 0
127144.0 533551.0 0
131917.0 532415.0 0
136732.0 531491.0 0
135060.0 535513.0 0
142276.0 532691.0 0
147379.0 531995.0 0
157092.0 533193.0 0
160816.0 530704.0 0
165011.0 532245.0 0
171705.0 532244.0 0
176634.0 533004.0 0
180734.0 532925.0 0
185458.0 531744.0 0
190202.0 531097.0 0
189344.0 535359.0 0
195331.0 531857.0 0
201310.0 531985.0 0
206570.0 532390.0 0
212577.0 531143.0 0
218424.0 532349.0 0
222273.0 535642.0 0
227733.0 533044.0 0
232788.0 531438.0 0
238119.0 533107.0 0
243733.0 532701.0 0
248564.0 531279.0 0
254864.0 531619.0 0
251597.0 534647.0 0
259642.0 531808.0 0
266364.0 532326.0 0
272294.0 533450.0 0
276159.0 532104.0 0
281216.0 530985.0 0
286734.0 533460.0 0
292343.0 531260.0 0
298275.0 533161.0 0
302982.0 531043.0 0
307056.0 532621.0 0
311910.0 533921.0 0
318275.0 533143.0 0
322906.0 533987.0 0
327068.0 532466.0 0
331690.0 531381.0 0
336983.0 532276.0 0
341420.0 533258.0 0
346910.0 532927.0 0
352760.0 531659.0 0
362204.0 532364.0 0
357342.0 535684.0 0
366832.0 532561.0 0
371031.0 530629.0 0
370500.0 534430.0 0
382444.0 531245.0 0
378147.0 535001.0 0
387018.0 534198.0 0
390708.0 531377.0 0
394367.0 533499.0 0
399575.0 533296.0 0
405341.0 534900.0 0
409378.0 531716.0 0
413872.0 533475.0 0
417384.0 531862.0 0
417308.0 535337.0 0
420960.0 533681.0 0
424589.0 531352.0 0
428145.0 534394.0 0
432954.0 532399.0 0
436251.0 535484.0 0
440015.0 532581.0 0
445292.0 531306.0 0
448924.0 534666.0 0
444701.0 535562.0 0
452071.0 530921.0 0
453098.0 535035.0 0
456543.0 532811.0 0
460638.0 531301.0 0
461594.0 535307.0 0
464532.0 532656.0 0
469390.0 532578.0 0
474552.0 534015.0 0
478637.0 533240.0 0
486121.0 532877.0 0
491655.0 532774.0 0
497387.0 532126.0 0
3861.78 540461.0 0
9032.94 537076.0 0
12901.3 540322.0 0
18450.8 540350.0 0
24075.6 539740.0 0
29053.2 540535.0 0
32200.4 536195.0 0
33674.3 540615.0 0
37180.9 537879.0 0
42688.2 536490.0 0
46610.9 537398.0 0
50198.3 539711.0 0
54126.7 537576.0 0
58691.8 536453.0 0
62647.5 539147.0 0
68661.8 535869.0 0
66964.6 540041.0 0
72088.8 539297.0 0
79095.6 539282.0 0
84955.0 539735.0 0
89901.4 536874.0 0
95661.7 537035.0 0
100565.0 538342.0 0
105146.0 538522.0 0
109089.0 536184.0 0
114168.0 537066.0 0
118651.0 537999.0 0
126199.0 538435.0 0
130692.0 536749.0 0
139560.0 536583.0 0
144779.0 537004.0 0
152206.0 536580.0 0
157528.0 538896.0 0
161512.0 535887.0 0
167752.0 536220.0 0
174306.0 537580.0 0
179608.0 537067.0 0
184436.0 537060.0 0
198713.0 536126.0 0
194005.0 537799.0 0
202579.0 538115.0 0
207323.0 537516.0 0
212764.0 537531.0 0
217658.0 536812.0 0
226621.0 537711.0 0
231558.0 536863.0 0
236422.0 537583.0 0
241376.0 537727.0 0
247222.0 536766.0 0
251956.0 538639.0 0
256682.0 536850.0 0
261883.0 536677.0 0
266044.0 539629.0 0
272296.0 538194.0 0
277464.0 537177.0 0
282312.0 536463.0 0
287367.0 538711.0 0
293347.0 537930.0 0
298801.0 538053.0 0
303190.0 536091.0 0
308041.0 537151.0 0
315489.0 538121.0 0
311314.0 539156.0 0
320544.0 537764.0 0
326212.0 538082.0 0
333245.0 537291.0 0
339187.0 537762.0 0
343469.0 537094.0 0
351660.0 537142.0 0
347311.0 537672.0 0
362569.0 537382.0 0
367728.0 537261.0 0
371949.0 540454.0 0
373537.0 535979.0 0
377620.0 540583.0 0
382796.0 537344.0 0
387497.0 539417.0 0
391199.0 536274.0 0
396053.0 538020.0 0
402078.0 539333.0 0
406811.0 538284.0 0
409715.0 536362.0 0
409964.0 540647.0 0
414008.0 537955.0 0
418976.0 539278.0 0
424085.0 537547.0 0
431512.0 536333.0 0
429099.0 539080.0 0
434055.0 539493.0 0
440456.0 538961.0 0
447316.0 539920.0 0
452583.0 538863.0 0
456592.0 536964.0 0
460224.0 538943.0 0
465942.0 536896.0 0
471583.0 537965.0 0
477706.0 537051.0 0
475824.0 540462.0 0
482259.0 535823.0 0
487539.0 537798.0 0
492959.0 538327.0 0
497601.0 536768.0 0
9050.07 541721.0 0
8443.31 545724.0 0
14597.7 545104.0 0
19710.8 545435.0 0
25399.1 544847.0 0
31199.2 545035.0 0
36525.9 544357.0 0
41206.0 541004.0 0
45030.9 545483.0 0
41328.7 545681.0 0
46123.1 541688.0 0
49955.7 544656.0 0
54008.2 542013.0 0
58749.4 541627.0 0
63412.7 543608.0 0
69692.1 543193.0 0
74599.5 544796.0 0
79849.8 544909.0 0
84014.6 543990.0 0
88328.3 541593.0 0
88267.4 545377.0 0
93098.2 542077.0 0
98572.9 543264.0 0
102985.0 542128.0 0
107952.0 542949.0 0
113817.0 542309.0 0
121915.0 541196.0 0
118118.0 543258.0 0
126264.0 544045.0 0
129882.0 540998.0 0
135575.0 541159.0 0
141780.0 541501.0 0
147879.0 542397.0 0
153029.0 545855.0 0
153080.0 541943.0 0
156961.0 543343.0 0
162370.0 541933.0 0
168419.0 541751.0 0
173594.0 542849.0 0
178607.0 542039.0 0
183415.0 542836.0 0
188750.0 541266.0 0
193873.0 542689.0 0
198557.0 541148.0 0
203813.0 542148.0 0
201206.0 544775.0 0
207650.0 541914.0 0
211570.0 542363.0 0
216580.0 541408.0 0
219028.0 545352.0 0
223196.0 542011.0 0
229063.0 541767.0 0
233504.0 541183.0 0
238105.0 542284.0 0
243370.0 542464.0 0
248750.0 542177.0 0
254519.0 542443.0 0
259328.0 541691.0 0
262871.0 543576.0 0
270189.0 542286.0 0
267042.0 545324.0 0
276240.0 541674.0 0
282082.0 542589.0 0
287443.0 543441.0 0
291758.0 543548.0 0
297375.0 542355.0 0
305291.0 541582.0 0
309466.0 543253.0 0
313371.0 542849.0 0
318437.0 541519.0 0
322500.0 542513.0 0
328235.0 543103.0 0
332647.0 543336.0 0
336687.0 541992.0 0
340771.0 541724.0 0
345807.0 542023.0 0
351990.0 543185.0 0
356963.0 540963.0 0
361574.0 542225.0 0
367164.0 543044.0 0
372274.0 545622.0 0
383481.0 543435.0 0
392124.0 541318.0 0
388517.0 543937.0 0
397424.0 543372.0 0
406038.0 542731.0 0
410568.0 544738.0 0
414173.0 542754.0 0
418883.0 544582.0 0
425541.0 543706.0 0
431016.0 542794.0 0
436816.0 544790.0 0
442636.0 544417.0 0
447318.0 545390.0 0
451975.0 543523.0 0
456580.0 540858.0 0
456534.0 544663.0 0
460057.0 542852.0 0
463791.0 541151.0 0
467959.0 541021.0 0
466516.0 545078.0 0
472015.0 543351.0 0
476773.0 544418.0 0
480514.0 540932.0 0
485700.0 543178.0 0
490278.0 541626.0 0
490373.0 545765.0 0
493948.0 545159.0 0
496840.0 541961.0 0
3157.32 546697.0 0
6255.59 550765.0 0
11444.5 550275.0 0
17482.5 549536.0 0
22264.6 549172.0 0
28611.4 549352.0 0
33827.6 548944.0 0
38744.6 549376.0 0
43654.3 549293.0 0
47774.9 548572.0 0
54361.5 546327.0 0
51864.6 550162.0 0
56059.7 549912.0 0
59021.0 546724.0 0
63525.7 549186.0 0
68097.7 547095.0 0
76419.2 549953.0 0
72032.7 549786.0 0
80919.7 549178.0 0
85277.1 548155.0 0
92744.7 548372.0 0
98732.4 548530.0 0
103155.0 546291.0 0
107320.0 548567.0 0
111761.0 546914.0 0
116097.0 546446.0 0
116869.0 551005.0 0
121289.0 547040.0 0
126329.0 548957.0 0
131577.0 546873.0 0
137612.0 547091.0 0
143073.0 547098.0 0
149066.0 548087.0 0
156930.0 548001.0 0
161523.0 548564.0 0
165764.0 546352.0 0
170688.0 546680.0 0
176141.0 547494.0 0
180898.0 546204.0 0
186101.0 547679.0 0
191495.0 546171.0 0
192517.0 550613.0 0
196713.0 546822.0 0
202594.0 549622.0 0
208606.0 546854.0 0
214432.0 546197.0 0
218147.0 549996.0 0
222508.0 547777.0 0
227125.0 546531.0 0
232925.0 546286.0 0
237295.0 549564.0 0
241038.0 546699.0 0
246656.0 548193.0 0
252814.0 547749.0 0
257547.0 546238.0 0
257125.0 550764.0 0
262267.0 548596.0 0
272350.0 546235.0 0
275217.0 550179.0 0
277505.0 546303.0 0
282564.0 549628.0 0
288922.0 548134.0 0
295413.0 547625.0 0
301363.0 546227.0 0
303701.0 550589.0 0
307244.0 547257.0 0
312709.0 547938.0 0
317582.0 545981.0 0
316805.0 550737.0 0
325803.0 547268.0 0
321434.0 548361.0 0
331194.0 548189.0 0
336220.0 546477.0 0
337992.0 550756.0 0
342064.0 547079.0 0
347868.0 547188.0 0
352526.0 548819.0 0
357604.0 546605.0 0
363241.0 547001.0 0
367891.0 548433.0 0
377600.0 546476.0 0
381677.0 550379.0 0
387074.0 548299.0 0
392614.0 546885.0 0
397140.0 549875.0 0
402691.0 547373.0 0
407596.0 545954.0 0
409203.0 548936.0 0
413767.0 547777.0 0
418018.0 549161.0 0
422096.0 548539.0 0
427197.0 550038.0 0
431618.0 546963.0 0
434968.0 549311.0 0
442913.0 549680.0 0
446968.0 548846.0 0
450898.0 548421.0 0
455128.0 548238.0 0
461095.0 548645.0 0
467642.0 549952.0 0
473427.0 548764.0 0
478553.0 549601.0 0
481204.0 546053.0 0
485937.0 549535.0 0
492319.0 550838.0 0
497154.0 547598.0 0
2170.61 551707.0 0
2123.61 555815.0 0
6036.15 554520.0 0
20086.9 553445.0 0
15648.9 553541.0 0
25108.4 553243.0 0
31896.4 553852.0 0
37242.2 554097.0 0
42221.0 553935.0 0
47593.9 553350.0 0
54166.3 553819.0 0
58908.9 553002.0 0
63027.5 553424.0 0
67762.1 553023.0 0
73083.6 553963.0 0
78841.1 552309.0 0
77347.4 555975.0 0
82280.1 554038.0 0
87730.5 552537.0 0
93586.2 554840.0 0
98991.1 553501.0 0
103131.0 551044.0 0
106485.0 554515.0 0
111400.0 552211.0 0
121624.0 553660.0 0
126200.0 552924.0 0
130610.0 553617.0 0
134341.0 551216.0 0
139195.0 553409.0 0
145934.0 552610.0 0
152606.0 552709.0 0
158558.0 552437.0 0
162277.0 554911.0 0
165814.0 551565.0 0
171319.0 551884.0 0
177073.0 553714.0 0
182942.0 552898.0 0
188244.0 553466.0 0
197293.0 553505.0 0
202266.0 555020.0 0
207015.0 554069.0 0
212597.0 551879.0 0
222801.0 552676.0 0
228452.0 551956.0 0
233492.0 551541.0 0
237309.0 553685.0 0
241765.0 551987.0 0
247098.0 554599.0 0
252686.0 553250.0 0
257914.0 555823.0 0
263135.0 554201.0 0
268509.0 551283.0 0
273589.0 554436.0 0
278187.0 553066.0 0
283688.0 555991.0 0
287448.0 552865.0 0
292488.0 553039.0 0
298979.0 553059.0 0
303705.0 555546.0 0
307126.0 553063.0 0
311772.0 552779.0 0
321331.0 552766.0 0
316448.0 555283.0 0
327400.0 553281.0 0
333829.0 553514.0 0
338925.0 555263.0 0
342541.0 552513.0 0
347128.0 552092.0 0
351920.0 553764.0 0
356755.0 552292.0 0
361656.0 551563.0 0
365894.0 552305.0 0
370280.0 552803.0 0
375825.0 552051.0 0
386098.0 553285.0 0
382818.0 554481.0 0
391388.0 552800.0 0
396046.0 553987.0 0
401094.0 554066.0 0
406349.0 552117.0 0
411715.0 552612.0 0
416895.0 553533.0 0
422551.0 553737.0 0
427487.0 555176.0 0
432283.0 553081.0 0
438011.0 552492.0 0
442644.0 555105.0 0
448014.0 553046.0 0
454616.0 553374.0 0
460524.0 554882.0 0
465158.0 554197.0 0
470973.0 554984.0 0
476481.0 553284.0 0
478903.0 555937.0 0
481223.0 552984.0 0
491198.0 555916.0 0
498377.0 551566.0 0
496217.0 555260.0 0
5494.08 558829.0 0
11144.0 556866.0 0
15219.3 560255.0 0
17695.5 557168.0 0
22672.5 558255.0 0
27935.8 557223.0 0
32549.8 559448.0 0
38577.9 559167.0 0
43684.1 558526.0 0
48361.1 558470.0 0
52245.6 556912.0 0
56476.5 557365.0 0
61513.0 557381.0 0
66159.1 557878.0 0
71127.4 558434.0 0
82617.1 557994.0 0
88365.3 557789.0 0
92466.0 560542.0 0
97896.8 557587.0 0
102323.0 556840.0 0
105937.0 558503.0 0
110363.0 557905.0 0
116383.0 556620.0 0
122122.0 558912.0 0
126485.0 557044.0 0
131171.0 559030.0 0
136317.0 558766.0 0
143421.0 557143.0 0
148887.0 558155.0 0
154227.0 558205.0 0
158650.0 557235.0 0
162450.0 559585.0 0
166333.0 556893.0 0
171963.0 557736.0 0
177393.0 559630.0 0
181009.0 557047.0 0
185242.0 557659.0 0
192472.0 556915.0 0
196623.0 559140.0 0
201609.0 560139.0 0
207269.0 558986.0 0
211734.0 557577.0 0
217311.0 556151.0 0
223116.0 558403.0 0
228510.0 557404.0 0
233611.0 556355.0 0
231613.0 561113.0 0
236367.0 559563.0 0
240366.0 557637.0 0
244557.0 560771.0 0
248925.0 559619.0 0
253410.0 558275.0 0
260906.0 558612.0 0
265109.0 559642.0 0
269595.0 556976.0 0
277840.0 558549.0 0
282598.0 560880.0 0
289069.0 557724.0 0
295414.0 558087.0 0
300645.0 558750.0 0
305126.0 559015.0 0
308058.0 557004.0 0
311825.0 557182.0 0
317398.0 561152.0 0
322365.0 557468.0 0
326729.0 559243.0 0
331514.0 557579.0 0
337270.0 561010.0 0
342628.0 558486.0 0
347153.0 556990.0 0
351745.0 558914.0 0
355651.0 556610.0 0
360284.0 556498.0 0
357219.0 561179.0 0
366647.0 557404.0 0
362402.0 560885.0 0
373099.0 557715.0 0
379409.0 557230.0 0
384006.0 560090.0 0
388056.0 557666.0 0
397168.0 557519.0 0
392923.0 558724.0 0
401109.0 560191.0 0
406460.0 557543.0 0
413075.0 558566.0 0
418281.0 559525.0 0
421424.0 558158.0 0
425432.0 559113.0 0
430152.0 558677.0 0
435941.0 558376.0 0
441639.0 559808.0 0
446812.0 558949.0 0
450950.0 556877.0 0
452700.0 559994.0 0
457368.0 558894.0 0
461918.0 558742.0 0
466028.0 558880.0 0
470803.0 560959.0 0
475864.0 557533.0 0
480964.0 559241.0 0
485842.0 556131.0 0
489662.0 560196.0 0
497265.0 560533.0 0
2624.64 563030.0 0
8708.02 561299.0 0
6879.31 564033.0 0
12070.4 563325.0 0
16725.0 564035.0 0
20904.2 562995.0 0
23380.1 566036.0 0
27459.5 562789.0 0
34603.6 563550.0 0
38705.8 564213.0 0
42502.4 562570.0 0
46448.3 562429.0 0
51085.5 562619.0 0
55846.2 561994.0 0
61184.2 563233.0 0
67205.8 562589.0 0
73284.3 563102.0 0
78796.4 561558.0 0
83247.2 561434.0 0
83106.8 566084.0 0
87593.2 562521.0 0
92296.7 565070.0 0
96068.6 565118.0 0
97762.5 561555.0 0
102060.0 561354.0 0
104012.0 565046.0 0
107500.0 562262.0 0
112934.0 562162.0 0
118119.0 562464.0 0
127031.0 561479.0 0
123219.0 563494.0 0
130979.0 564833.0 0
135927.0 563300.0 0
141111.0 561862.0 0
146918.0 563744.0 0
152383.0 562798.0 0
158351.0 563170.0 0
167417.0 561761.0 0
163488.0 563561.0 0
172692.0 564280.0 0
177828.0 563978.0 0
180919.0 562231.0 0
181259.0 566043.0 0
185870.0 563372.0 0
192421.0 562928.0 0
197792.0 563854.0 0
205973.0 562910.0 0
210567.0 562606.0 0
216094.0 562172.0 0
221344.0 563632.0 0
226802.0 563482.0 0
235560.0 562853.0 0
240283.0 563343.0 0
246173.0 565797.0 0
252249.0 563194.0 0
257679.0 561389.0 0
261827.0 562537.0 0
270422.0 562085.0 0
275356.0 563775.0 0
279865.0 563833.0 0
283611.0 564659.0 0
286531.0 562039.0 0
291940.0 562923.0 0
298172.0 563776.0 0
303339.0 562562.0 0
306756.0 565406.0 0
311330.0 562398.0 0
322837.0 562485.0 0
331096.0 562133.0 0
327017.0 566083.0 0
343245.0 564100.0 0
347762.0 561374.0 0
351477.0 563993.0 0
366195.0 562674.0 0
370978.0 563294.0 0
376666.0 562675.0 0
381443.0 563306.0 0
384469.0 566001.0 0
388035.0 562875.0 0
392365.0 563509.0 0
396281.0 562277.0 0
402625.0 565309.0 0
407819.0 563478.0 0
412506.0 563937.0 0
416775.0 563470.0 0
421828.0 562485.0 0
427158.0 564021.0 0
432097.0 562705.0 0
436580.0 564340.0 0
441822.0 564878.0 0
446524.0 566295.0 0
449856.0 563259.0 0
455320.0 564448.0 0
461105.0 563074.0 0
466441.0 564088.0 0
471443.0 565934.0 0
476063.0 562296.0 0
481135.0 564559.0 0
485237.0 561550.0 0
486097.0 566095.0 0
493221.0 562452.0 0
497975.0 565046.0 0
3802.15 568954.0 0
9329.54 567170.0 0
14012.9 567890.0 0
19426.9 567989.0 0
27013.1 568865.0 0
32273.3 567457.0 0
37311.9 568540.0 0
42030.2 567577.0 0
47333.0 567224.0 0
52424.8 567250.0 0
56870.7 566670.0 0
60823.4 569008.0 0
65054.4 567203.0 0
70286.6 567250.0 0
76633.7 567836.0 0
88607.4 567499.0 0
94209.4 569910.0 0
99952.2 567294.0 0
98679.4 571002.0 0
105969.0 568359.0 0
110720.0 566990.0 0
117181.0 568778.0 0
121890.0 567093.0 0
126013.0 567446.0 0
132433.0 570223.0 0
137214.0 567826.0 0
142819.0 567892.0 0
147130.0 567882.0 0
152739.0 568023.0 0
157361.0 568475.0 0
161932.0 567719.0 0
167143.0 566951.0 0
173169.0 570250.0 0
177446.0 567964.0 0
184180.0 569845.0 0
189484.0 568113.0 0
195399.0 568127.0 0
201427.0 567820.0 0
207672.0 567685.0 0
213192.0 566986.0 0
218677.0 568673.0 0
223757.0 567426.0 0
227620.0 569687.0 0
231911.0 566421.0 0
236821.0 566547.0 0
236297.0 570562.0 0
241125.0 569051.0 0
250861.0 567641.0 0
256493.0 567754.0 0
262671.0 566580.0 0
267821.0 566780.0 0
273148.0 568907.0 0
278666.0 568158.0 0
282887.0 568929.0 0
287520.0 567589.0 0
293390.0 568248.0 0
298360.0 568611.0 0
302493.0 566857.0 0
306057.0 569459.0 0
310513.0 570605.0 0
312832.0 567119.0 0
317715.0 567272.0 0
322647.0 567945.0 0
325942.0 571233.0 0
329245.0 569649.0 0
332631.0 567185.0 0
338016.0 567471.0 0
343373.0 569217.0 0
346995.0 567813.0 0
351466.0 569144.0 0
355826.0 566370.0 0
362167.0 566945.0 0
357439.0 570764.0 0
368516.0 568073.0 0
374097.0 567679.0 0
379537.0 567703.0 0
388546.0 567539.0 0
392731.0 567313.0 0
390744.0 571387.0 0
396021.0 571086.0 0
398057.0 566478.0 0
400998.0 569769.0 0
406248.0 568590.0 0
411104.0 567993.0 0
416634.0 569084.0 0
422369.0 567819.0 0
427599.0 569691.0 0
433072.0 568384.0 0
438466.0 569100.0 0
443478.0 569842.0 0
448250.0 570451.0 0
452996.0 569509.0 0
458648.0 568266.0 0
463362.0 568746.0 0
467999.0 568328.0 0
471179.0 570212.0 0
476446.0 568197.0 0
482572.0 569673.0 0
487302.0 570579.0 0
491535.0 567133.0 0
496947.0 569502.0 0
1390.09 573218.0 0
6428.23 573976.0 0
11313.8 572541.0 0
17038.0 572736.0 0
22293.4 571845.0 0
23270.1 575957.0 0
28510.4 574615.0 0
34191.0 572563.0 0
39271.1 572731.0 0
43694.4 572267.0 0
48212.0 572318.0 0
53013.9 571912.0 0
57500.0 572429.0 0
62725.0 573006.0 0
67176.1 571650.0 0
72451.9 571765.0 0
76234.5 573832.0 0
81808.5 572689.0 0
86381.0 576268.0 0
87701.0 572061.0 0
91493.9 575472.0 0
97742.2 575545.0 0
102457.0 571835.0 0
107044.0 572054.0 0
108214.0 576173.0 0
112274.0 572847.0 0
117405.0 574644.0 0
121601.0 575876.0 0
122878.0 571624.0 0
127807.0 571886.0 0
131119.0 574164.0 0
134633.0 572041.0 0
140037.0 573469.0 0
148774.0 571837.0 0
152631.0 575702.0 0
154506.0 571986.0 0
162941.0 572147.0 0
158531.0 572893.0 0
161362.0 576518.0 0
167349.0 572087.0 0
171130.0 574417.0 0
177590.0 572656.0 0
181645.0 573562.0 0
186953.0 575340.0 0
192379.0 572613.0 0
197388.0 572743.0 0
202862.0 574221.0 0
208796.0 573264.0 0
214084.0 572425.0 0
218902.0 574045.0 0
223917.0 573545.0 0
228422.0 573923.0 0
231997.0 571925.0 0
231262.0 576486.0 0
236847.0 576025.0 0
240947.0 573171.0 0
246155.0 572047.0 0
251971.0 572516.0 0
256891.0 573649.0 0
260736.0 571739.0 0
265874.0 571815.0 0
272968.0 573862.0 0
276679.0 572901.0 0
279855.0 576142.0 0
280847.0 572075.0 0
285611.0 573213.0 0
290815.0 572183.0 0
296127.0 572776.0 0
301769.0 571765.0 0
302718.0 576273.0 0
306494.0 573509.0 0
315711.0 572513.0 0
311331.0 576343.0 0
320929.0 572205.0 0
327175.0 575887.0 0
331871.0 571622.0 0
336611.0 573348.0 0
332130.0 575538.0 0
346448.0 572050.0 0
341960.0 573170.0 0
350438.0 573928.0 0
355845.0 576501.0 0
361523.0 573475.0 0
366682.0 572793.0 0
372142.0 572817.0 0
378163.0 573538.0 0
384693.0 571717.0 0
391968.0 576478.0 0
397111.0 576178.0 0
400827.0 573973.0 0
404435.0 572467.0 0
408905.0 572695.0 0
413767.0 573851.0 0
418315.0 573964.0 0
423506.0 572712.0 0
427437.0 574576.0 0
431234.0 572914.0 0
435597.0 573088.0 0
440459.0 573898.0 0
445459.0 574253.0 0
451293.0 574111.0 0
457233.0 572796.0 0
462338.0 573856.0 0
467330.0 572759.0 0
473800.0 573363.0 0
478883.0 573376.0 0
483907.0 574466.0 0
488245.0 574570.0 0
492633.0 572948.0 0
498194.0 573737.0 0
2704.97 577080.0 0
8592.6 578441.0 0
14178.1 577593.0 0
19192.1 577178.0 0
22658.8 580799.0 0
27492.6 579760.0 0
33159.4 577316.0 0
37292.1 577489.0 0
40795.8 577055.0 0
45087.7 577603.0 0
50356.5 577155.0 0
55925.2 577473.0 0
60777.6 576939.0 0
65885.4 576865.0 0
63034.5 581513.0 0
67234.7 581083.0 0
71977.6 577178.0 0
78628.9 577719.0 0
82366.3 578093.0 0
94100.2 580762.0 0
99255.1 581623.0 0
103412.0 578427.0 0
108759.0 580806.0 0
113742.0 578146.0 0
118278.0 578112.0 0
117357.0 581130.0 0
122078.0 580392.0 0
126337.0 576848.0 0
131382.0 578246.0 0
135624.0 576665.0 0
135030.0 581227.0 0
140099.0 579640.0 0
145382.0 576826.0 0
157096.0 577421.0 0
153446.0 580783.0 0
158381.0 581473.0 0
166805.0 578056.0 0
172790.0 578551.0 0
177763.0 577561.0 0
182155.0 577568.0 0
184954.0 580369.0 0
192313.0 577769.0 0
198278.0 576924.0 0
201660.0 579883.0 0
206598.0 578875.0 0
210721.0 577284.0 0
215517.0 578006.0 0
221122.0 578213.0 0
226747.0 579367.0 0
232540.0 581476.0 0
237457.0 581356.0 0
242926.0 576556.0 0
248555.0 577445.0 0
254312.0 577711.0 0
258459.0 581139.0 0
262258.0 576829.0 0
269073.0 577693.0 0
275410.0 577364.0 0
278855.0 580887.0 0
283837.0 578373.0 0
289461.0 577230.0 0
294253.0 577315.0 0
298681.0 578117.0 0
306098.0 577448.0 0
303139.0 580685.0 0
308062.0 581030.0 0
317504.0 576778.0 0
318638.0 581488.0 0
322268.0 577477.0 0
330422.0 579610.0 0
335891.0 579350.0 0
340558.0 576687.0 0
344207.0 576626.0 0
342057.0 581558.0 0
347961.0 577335.0 0
351070.0 581173.0 0
359402.0 581623.0 0
364829.0 577324.0 0
369552.0 577430.0 0
374615.0 576641.0 0
373364.0 580797.0 0
382102.0 576649.0 0
378972.0 580285.0 0
386984.0 577112.0 0
383987.0 580139.0 0
391681.0 581576.0 0
401150.0 578052.0 0
405789.0 576876.0 0
407929.0 581179.0 0
410830.0 577729.0 0
416366.0 578298.0 0
421530.0 576554.0 0
420933.0 581490.0 0
425686.0 578838.0 0
431322.0 578033.0 0
437027.0 577839.0 0
442573.0 579075.0 0
448427.0 578563.0 0
454792.0 577498.0 0
457510.0 581389.0 0
463224.0 578584.0 0
459430.0 577327.0 0
467290.0 577771.0 0
471763.0 577969.0 0
475956.0 577176.0 0
480214.0 577999.0 0
486596.0 578149.0 0
490899.0 577663.0 0
493231.0 581384.0 0
495762.0 577311.0 0
2384.77 582112.0 0
6774.99 582958.0 0
12117.1 583326.0 0
17326.1 581699.0 0
17078.9 585696.0 0
23199.3 586135.0 0
27481.2 584054.0 0
31799.1 581779.0 0
33848.2 586615.0 0
36831.1 582431.0 0
42358.4 582229.0 0
47859.7 581954.0 0
53071.8 582551.0 0
58103.8 581897.0 0
61116.3 585704.0 0
56964.6 586296.0 0
69737.2 584991.0 0
74643.4 582334.0 0
79731.6 583670.0 0
85963.7 582153.0 0
91207.4 585477.0 0
96688.7 586201.0 0
105293.0 582494.0 0
102409.0 585545.0 0
108306.0 586401.0 0
113107.0 583187.0 0
117232.0 585811.0 0
126690.0 582266.0 0
122666.0 586166.0 0
130928.0 582425.0 0
133668.0 586288.0 0
138801.0 586610.0 0
143017.0 584259.0 0
148109.0 582034.0 0
152800.0 586724.0 0
162500.0 582650.0 0
158602.0 585954.0 0
166102.0 584177.0 0
170474.0 582383.0 0
176014.0 582103.0 0
180827.0 582045.0 0
184445.0 584252.0 0
189790.0 583290.0 0
196371.0 581676.0 0
200753.0 585055.0 0
205714.0 584091.0 0
211120.0 581911.0 0
216850.0 583635.0 0
222078.0 583188.0 0
227533.0 584061.0 0
236974.0 586252.0 0
242243.0 582091.0 0
247967.0 583421.0 0
253539.0 583000.0 0
258345.0 586329.0 0
263031.0 582645.0 0
267616.0 583868.0 0
273613.0 582737.0 0
279736.0 586565.0 0
282447.0 582439.0 0
286906.0 583470.0 0
292811.0 582082.0 0
298583.0 583908.0 0
308622.0 585923.0 0
313109.0 582712.0 0
317732.0 586486.0 0
325587.0 581979.0 0
321770.0 584869.0 0
330622.0 584970.0 0
334848.0 586385.0 0
337252.0 583991.0 0
347004.0 583751.0 0
356699.0 586516.0 0
361711.0 585697.0 0
364437.0 582167.0 0
368819.0 581948.0 0
377297.0 584393.0 0
373006.0 586523.0 0
387412.0 582492.0 0
382802.0 585391.0 0
397340.0 581638.0 0
393671.0 586150.0 0
403264.0 583182.0 0
412245.0 582237.0 0
408809.0 585859.0 0
416373.0 582971.0 0
419014.0 586622.0 0
423758.0 585636.0 0
428675.0 583316.0 0
434758.0 582453.0 0
436015.0 585873.0 0
439753.0 584038.0 0
448317.0 583075.0 0
444707.0 583460.0 0
447290.0 586254.0 0
452630.0 582078.0 0
457386.0 586262.0 0
462365.0 583258.0 0
467556.0 582404.0 0
471864.0 582112.0 0
471895.0 585848.0 0
477045.0 582397.0 0
483373.0 582166.0 0
488918.0 581640.0 0
491280.0 585948.0 0
497710.0 581708.0 0
497330.0 586542.0 0
2460.35 586920.0 0
7899.57 587861.0 0
13943.4 588345.0 0
19424.6 590544.0 0
25004.4 590502.0 0
29110.3 588396.0 0
34997.2 591738.0 0
38876.6 586836.0 0
40793.5 591274.0 0
43171.2 587566.0 0
47435.7 586742.0 0
46269.5 591257.0 0
52352.3 588054.0 0
60045.8 590617.0 0
64995.5 586993.0 0
65722.5 591809.0 0
73932.2 587496.0 0
77500.0 587470.0 0
81085.7 591125.0 0
82800.5 587593.0 0
87182.3 587835.0 0
91185.2 590926.0 0
97758.2 591737.0 0
103294.0 591440.0 0
113461.0 588774.0 0
117669.0 590201.0 0
121379.0 591451.0 0
128291.0 586936.0 0
136489.0 590397.0 0
142540.0 589590.0 0
147049.0 587201.0 0
163042.0 588057.0 0
159734.0 591715.0 0
166711.0 588681.0 0
170448.0 587164.0 0
168547.0 591668.0 0
173326.0 591632.0 0
175734.0 587059.0 0
181155.0 587611.0 0
186351.0 588150.0 0
191264.0 589455.0 0
196334.0 587533.0 0
200631.0 589432.0 0
205064.0 589055.0 0
210112.0 587580.0 0
215154.0 588218.0 0
219830.0 587878.0 0
224990.0 587527.0 0
230909.0 587426.0 0
237655.0 591608.0 0
241982.0 588899.0 0
247724.0 589488.0 0
253457.0 588364.0 0
259807.0 590494.0 0
263575.0 587642.0 0
269089.0 589078.0 0
274199.0 588084.0 0
285291.0 588924.0 0
289740.0 587455.0 0
289518.0 591742.0 0
293828.0 587259.0 0
297988.0 588826.0 0
303252.0 587922.0 0
307662.0 590194.0 0
313170.0 588170.0 0
321107.0 588054.0 0
325569.0 587769.0 0
322056.0 591614.0 0
332743.0 591172.0 0
339085.0 588246.0 0
344397.0 587373.0 0
350573.0 587127.0 0
347277.0 591569.0 0
362033.0 591201.0 0
366727.0 587581.0 0
377967.0 588152.0 0
381763.0 591405.0 0
388480.0 587096.0 0
392222.0 591564.0 0
399105.0 587403.0 0
404389.0 588599.0 0
410661.0 590579.0 0
413899.0 586850.0 0
427350.0 588370.0 0
432631.0 587370.0 0
438280.0 589914.0 0
443443.0 587502.0 0
447160.0 590231.0 0
451892.0 587693.0 0
462154.0 589182.0 0
467656.0 587482.0 0
471440.0 591342.0 0
475695.0 588121.0 0
480481.0 586739.0 0
481710.0 591199.0 0
485729.0 587719.0 0
2996.34 592327.0 0
8448.35 593719.0 0
13906.1 593284.0 0
18499.9 596673.0 0
23364.7 594765.0 0
29877.6 593041.0 0
33103.4 595817.0 0
38292.7 594791.0 0
43703.5 593753.0 0
42221.6 596923.0 0
50617.9 592984.0 0
55289.7 592520.0 0
67842.7 596368.0 0
71940.3 592327.0 0
77447.6 591953.0 0
80720.0 595643.0 0
85408.9 592456.0 0
94149.5 595871.0 0
99768.5 596817.0 0
104906.0 596403.0 0
109403.0 592684.0 0
115292.0 592535.0 0
113760.0 596198.0 0
118494.0 595383.0 0
126598.0 592194.0 0
123373.0 596545.0 0
132406.0 593528.0 0
139645.0 594051.0 0
147156.0 592752.0 0
143666.0 596523.0 0
154236.0 593158.0 0
162490.0 596449.0 0
164262.0 592446.0 0
172972.0 596152.0 0
178184.0 592412.0 0
182304.0 592161.0 0
186842.0 593355.0 0
192113.0 594671.0 0
197453.0 592614.0 0
196128.0 596710.0 0
202863.0 593266.0 0
207648.0 592338.0 0
212854.0 592209.0 0
217485.0 591879.0 0
217595.0 596432.0 0
221873.0 592729.0 0
227061.0 592759.0 0
232706.0 593088.0 0
244486.0 593614.0 0
240772.0 594129.0 0
251705.0 593600.0 0
256279.0 592303.0 0
258121.0 596455.0 0
263020.0 592267.0 0
263094.0 596609.0 0
267627.0 594277.0 0
272805.0 592309.0 0
272043.0 596887.0 0
277534.0 592186.0 0
282443.0 592489.0 0
284388.0 596667.0 0
288422.0 596571.0 0
294693.0 592181.0 0
293033.0 596758.0 0
299868.0 592466.0 0
297620.0 596550.0 0
304694.0 593783.0 0
311240.0 593137.0 0
316866.0 592122.0 0
322191.0 595938.0 0
326762.0 593172.0 0
336140.0 596379.0 0
337961.0 593038.0 0
342408.0 592946.0 0
351819.0 592084.0 0
356765.0 592538.0 0
352683.0 596764.0 0
366867.0 593006.0 0
363249.0 596900.0 0
371368.0 591974.0 0
376662.0 592736.0 0
373595.0 595794.0 0
386894.0 591853.0 0
388652.0 596560.0 0
393600.0 596624.0 0
402462.0 592054.0 0
398074.0 593388.0 0
406402.0 593598.0 0
412570.0 595535.0 0
415526.0 591855.0 0
417354.0 596595.0 0
421286.0 591852.0 0
427003.0 593634.0 0
432849.0 593199.0 0
443293.0 593808.0 0
450956.0 593229.0 0
456603.0 592031.0 0
461350.0 594064.0 0
466235.0 593549.0 0
476814.0 594186.0 0
485173.0 594787.0 0
490324.0 591854.0 0
496748.0 592331.0 0
2069.54 597794.0 0
5839.17 597259.0 0
7812.07 601082.0 0
11500.4 597864.0 0
23918.8 600663.0 0
29016.2 597654.0 0
29312.9 601985.0 0
32998.5 599955.0 0
37440.0 598928.0 0
46666.2 597457.0 0
50500.1 597929.0 0
55664.2 597337.0 0
52571.7 601930.0 0
61996.6 596969.0 0
67731.5 601146.0 0
71680.4 597694.0 0
75944.3 597986.0 0
72768.1 601948.0 0
85735.3 597922.0 0
81665.3 600648.0 0
90738.2 600723.0 0
101846.0 601505.0 0
109422.0 598523.0 0
116604.0 600676.0 0
128083.0 597236.0 0
132019.0 598303.0 0
136021.0 597501.0 0
133784.0 601313.0 0
147688.0 598133.0 0
143719.0 601227.0 0
152516.0 598737.0 0
157816.0 598146.0 0
162152.0 601117.0 0
167884.0 597031.0 0
173033.0 601685.0 0
177376.0 597259.0 0
182666.0 597054.0 0
188627.0 598797.0 0
193182.0 598891.0 0
200631.0 597892.0 0
206067.0 597341.0 0
212111.0 597932.0 0
218324.0 601515.0 0
222123.0 597720.0 0
222699.0 601634.0 0
226747.0 597942.0 0
231554.0 598242.0 0
236781.0 596940.0 0
241742.0 597777.0 0
247490.0 598555.0 0
253582.0 598352.0 0
257752.0 601874.0 0
262847.0 601300.0 0
267462.0 599603.0 0
280113.0 596960.0 0
275925.0 599520.0 0
285239.0 601271.0 0
298184.0 602014.0 0
302081.0 598131.0 0
307950.0 597551.0 0
312978.0 598093.0 0
317908.0 597452.0 0
326209.0 598560.0 0
321680.0 599870.0 0
331610.0 597475.0 0
340221.0 597252.0 0
346476.0 597575.0 0
357662.0 597753.0 0
369248.0 597155.0 0
376919.0 597533.0 0
373524.0 599958.0 0
382339.0 597644.0 0
377987.0 601779.0 0
397886.0 598694.0 0
403267.0 598821.0 0
408935.0 598192.0 0
413637.0 600180.0 0
422732.0 597691.0 0
418739.0 601438.0 0
428023.0 598913.0 0
432776.0 600360.0 0
437289.0 597259.0 0
442515.0 599385.0 0
447812.0 597688.0 0
452984.0 597553.0 0
451101.0 602041.0 0
457886.0 597827.0 0
463145.0 598180.0 0
467759.0 598328.0 0
472121.0 597602.0 0
476823.0 600017.0 0
481152.0 597931.0 0
489682.0 597614.0 0
485306.0 599685.0 0
497033.0 598452.0 0
2391.82 602186.0 0
2107.17 606621.0 0
6183.56 605471.0 0
12621.9 602498.0 0
10527.9 606731.0 0
17799.4 602233.0 0
15361.6 606914.0 0
21407.1 606711.0 0
27172.1 606243.0 0
36111.0 603807.0 0
41871.9 602287.0 0
47822.6 602356.0 0
52449.3 606656.0 0
57355.9 602622.0 0
62893.4 603304.0 0
69487.7 605821.0 0
77582.2 602529.0 0
81347.1 606532.0 0
85701.0 603000.0 0
96678.0 602058.0 0
92719.1 606581.0 0
106429.0 602665.0 0
102856.0 606475.0 0
111586.0 603367.0 0
119693.0 605630.0 0
125131.0 602326.0 0
130565.0 602900.0 0
129365.0 606890.0 0
133694.0 606688.0 0
137553.0 606752.0 0
138269.0 602142.0 0
141907.0 606068.0 0
149170.0 603447.0 0
154860.0 602162.0 0
154206.0 606256.0 0
158291.0 603731.0 0
162949.0 606276.0 0
166944.0 602761.0 0
173276.0 607131.0 0
179355.0 602229.0 0
182116.0 607095.0 0
184610.0 602344.0 0
186733.0 606542.0 0
188848.0 603524.0 0
192927.0 602844.0 0
197649.0 602188.0 0
197323.0 606427.0 0
202920.0 602896.0 0
208134.0 602139.0 0
208468.0 606854.0 0
213310.0 603940.0 0
221645.0 605626.0 0
226728.0 602812.0 0
232055.0 603533.0 0
237353.0 602403.0 0
242554.0 602456.0 0
247256.0 604920.0 0
252350.0 603290.0 0
255876.0 607129.0 0
266168.0 605098.0 0
272142.0 603259.0 0
279650.0 602326.0 0
282659.0 605851.0 0
287567.0 606893.0 0
291763.0 602138.0 0
300963.0 607062.0 0
303615.0 602568.0 0
308607.0 603232.0 0
312817.0 602266.0 0
312672.0 606864.0 0
317746.0 603343.0 0
324473.0 603519.0 0
329509.0 602958.0 0
330559.0 606820.0 0
327597.0 606934.0 0
335462.0 602111.0 0
338701.0 607085.0 0
341837.0 602359.0 0
351859.0 602069.0 0
347107.0 603390.0 0
357271.0 602945.0 0
363438.0 603907.0 0
369294.0 602509.0 0
374002.0 605615.0 0
382135.0 604629.0 0
387256.0 602146.0 0
393756.0 602291.0 0
399839.0 604021.0 0
404884.0 604123.0 0
409344.0 603089.0 0
413975.0 606184.0 0
419819.0 606450.0 0
423879.0 603147.0 0
429111.0 603883.0 0
437495.0 602585.0 0
433820.0 605473.0 0
441568.0 603868.0 0
446378.0 602654.0 0
455938.0 602488.0 0
457504.0 606767.0 0
460914.0 602894.0 0
465521.0 602114.0 0
466043.0 606556.0 0
470296.0 602405.0 0
470477.0 607129.0 0
475203.0 605407.0 0
481344.0 603647.0 0
487390.0 604089.0 0
492623.0 602236.0 0
497640.0 603714.0 0
1813.0 610530.0 0
6798.83 610745.0 0
12602.0 611302.0 0
18132.7 611571.0 0
28162.0 611779.0 0
32456.6 607858.0 0
37530.7 608642.0 0
41757.1 607572.0 0
43683.4 611437.0 0
46358.9 607424.0 0
49709.9 610159.0 0
59923.8 607706.0 0
56125.0 608222.0 0
65023.3 608274.0 0
74960.5 607300.0 0
78178.7 612181.0 0
83551.5 611964.0 0
87088.1 607901.0 0
97964.7 607573.0 0
98535.9 612029.0 0
104705.0 611471.0 0
108202.0 607417.0 0
110567.0 612080.0 0
114496.0 608142.0 0
119338.0 611129.0 0
124508.0 608813.0 0
131996.0 611324.0 0
127621.0 612074.0 0
137245.0 610949.0 0
142606.0 611518.0 0
147790.0 609178.0 0
153180.0 612114.0 0
158475.0 607949.0 0
158773.0 612075.0 0
163298.0 611464.0 0
168397.0 607297.0 0
177213.0 607809.0 0
173796.0 611387.0 0
184923.0 611868.0 0
192395.0 607288.0 0
188921.0 609562.0 0
198510.0 611026.0 0
203651.0 608455.0 0
207898.0 611492.0 0
212423.0 608817.0 0
217271.0 608482.0 0
222167.0 610860.0 0
226023.0 607638.0 0
230796.0 608781.0 0
236734.0 608551.0 0
242452.0 607513.0 0
247421.0 609360.0 0
251142.0 607985.0 0
259077.0 612055.0 0
262123.0 607381.0 0
270348.0 608834.0 0
265798.0 609959.0 0
277103.0 607995.0 0
283274.0 610801.0 0
293073.0 608166.0 0
297404.0 610498.0 0
307119.0 608566.0 0
318539.0 610111.0 0
323859.0 608030.0 0
329985.0 611727.0 0
333962.0 607375.0 0
336191.0 611537.0 0
344379.0 608126.0 0
352227.0 608282.0 0
358926.0 608601.0 0
364729.0 610128.0 0
369031.0 607329.0 0
372005.0 611466.0 0
378854.0 608855.0 0
384569.0 608456.0 0
389626.0 607937.0 0
395706.0 608314.0 0
402901.0 608065.0 0
399907.0 610566.0 0
408050.0 608490.0 0
412608.0 611708.0 0
417167.0 610414.0 0
421971.0 611182.0 0
425572.0 607823.0 0
430228.0 608797.0 0
436216.0 607828.0 0
434218.0 609400.0 0
439609.0 607786.0 0
442380.0 611478.0 0
444754.0 607345.0 0
451975.0 607925.0 0
458302.0 612202.0 0
461670.0 607498.0 0
463456.0 611080.0 0
468120.0 611254.0 0
473339.0 610658.0 0
479292.0 608894.0 0
485834.0 609596.0 0
491620.0 607925.0 0
497255.0 608764.0 0
2708.1 614963.0 0
12611.5 616309.0 0
23508.5 612377.0 0
28666.1 616219.0 0
34275.0 613596.0 0
39011.3 612311.0 0
41752.3 616122.0 0
47500.0 612867.0 0
47301.2 617211.0 0
52040.9 614104.0 0
55940.6 617317.0 0
57313.7 612293.0 0
62599.8 612834.0 0
67448.7 612554.0 0
72655.6 612992.0 0
76493.2 616753.0 0
80989.2 616449.0 0
88207.1 613598.0 0
93322.9 612643.0 0
96800.0 617017.0 0
101734.0 615597.0 0
107108.0 616347.0 0
115052.0 613167.0 0
112411.0 616748.0 0
120631.0 616402.0 0
123115.0 613020.0 0
126045.0 616070.0 0
138334.0 616656.0 0
147823.0 614232.0 0
143907.0 616508.0 0
157197.0 616296.0 0
162580.0 616891.0 0
168564.0 612261.0 0
174123.0 617019.0 0
179179.0 612894.0 0
188600.0 615353.0 0
192835.0 612400.0 0
203374.0 614132.0 0
212473.0 613610.0 0
217782.0 614039.0 0
222591.0 617280.0 0
227316.0 612989.0 0
232785.0 613676.0 0
238321.0 614841.0 0
244107.0 612881.0 0
249702.0 612588.0 0
248008.0 617337.0 0
253943.0 614128.0 0
264154.0 613654.0 0
261456.0 617261.0 0
268350.0 613237.0 0
273440.0 613006.0 0
270559.0 617135.0 0
278734.0 614338.0 0
283240.0 617285.0 0
288521.0 612818.0 0
293737.0 613453.0 0
297830.0 615098.0 0
302102.0 612712.0 0
307049.0 613736.0 0
312365.0 613026.0 0
316719.0 614528.0 0
319931.0 615524.0 0
323879.0 613046.0 0
335171.0 616950.0 0
341593.0 614172.0 0
346793.0 617216.0 0
347928.0 612651.0 0
356252.0 613085.0 0
352229.0 614397.0 0
360835.0 613698.0 0
367601.0 614615.0 0
377663.0 614144.0 0
382719.0 612692.0 0
383031.0 617201.0 0
388530.0 614362.0 0
395366.0 614720.0 0
400290.0 616052.0 0
404030.0 613130.0 0
408957.0 614419.0 0
413113.0 617180.0 0
418419.0 615183.0 0
427088.0 613034.0 0
432627.0 613401.0 0
437879.0 612485.0 0
442947.0 616811.0 0
447360.0 612517.0 0
452756.0 613815.0 0
462792.0 615036.0 0
467169.0 616438.0 0
471252.0 614609.0 0
477396.0 612612.0 0
478977.0 617137.0 0
481570.0 612751.0 0
485513.0 614912.0 0
490970.0 614052.0 0
497370.0 614103.0 0
2546.17 620209.0 0
7549.35 617910.0 0
11109.9 621458.0 0
18135.9 617824.0 0
23994.6 617396.0 0
27383.7 621281.0 0
32666.0 619566.0 0
37301.2 617956.0 0
38045.8 622397.0 0
43610.6 620695.0 0
51965.1 619844.0 0
60749.4 617615.0 0
57488.8 621596.0 0
66251.5 617642.0 0
63054.9 621878.0 0
71850.1 618322.0 0
75849.4 621253.0 0
81400.9 621986.0 0
85450.6 617624.0 0
90873.2 618477.0 0
86775.8 622324.0 0
103339.0 620980.0 0
109334.0 621737.0 0
116495.0 620833.0 0
122366.0 621166.0 0
127363.0 621260.0 0
131792.0 617387.0 0
136284.0 622274.0 0
142942.0 621986.0 0
152947.0 618079.0 0
148263.0 619191.0 0
154732.0 622143.0 0
158944.0 620330.0 0
168243.0 617859.0 0
165008.0 621057.0 0
174327.0 622396.0 0
178989.0 620391.0 0
183807.0 617404.0 0
188155.0 621080.0 0
192875.0 618152.0 0
198986.0 618373.0 0
203849.0 618997.0 0
208247.0 617421.0 0
218998.0 618173.0 0
214703.0 618436.0 0
229113.0 617896.0 0
226885.0 621379.0 0
234201.0 618715.0 0
238652.0 619849.0 0
242862.0 618322.0 0
252400.0 617699.0 0
251759.0 621969.0 0
256543.0 618195.0 0
262801.0 622170.0 0
266074.0 617421.0 0
268296.0 621941.0 0
275394.0 618979.0 0
282987.0 621876.0 0
288687.0 618660.0 0
294168.0 618343.0 0
300046.0 618077.0 0
297723.0 621947.0 0
304629.0 617882.0 0
309355.0 617405.0 0
308230.0 621822.0 0
315318.0 617818.0 0
311983.0 619935.0 0
317583.0 622374.0 0
322242.0 619621.0 0
327864.0 618223.0 0
339312.0 618566.0 0
343041.0 619934.0 0
350781.0 618164.0 0
348042.0 621816.0 0
352609.0 621611.0 0
357665.0 618044.0 0
363128.0 617927.0 0
367245.0 619309.0 0
372680.0 618006.0 0
378988.0 619258.0 0
382500.0 622448.0 0
386328.0 619406.0 0
391629.0 620299.0 0
398422.0 619112.0 0
403030.0 619173.0 0
407863.0 618681.0 0
417240.0 621623.0 0
422912.0 618332.0 0
427690.0 617824.0 0
427181.0 621832.0 0
432166.0 618629.0 0
437267.0 617703.0 0
442069.0 622041.0 0
448397.0 617944.0 0
452159.0 621269.0 0
455990.0 617782.0 0
460574.0 618394.0 0
474002.0 617564.0 0
470366.0 620098.0 0
483497.0 618490.0 0
481001.0 622297.0 0
487314.0 618465.0 0
491731.0 620260.0 0
497342.0 619369.0 0
2127.75 624855.0 0
7081.49 623795.0 0
15215.8 622608.0 0
11913.0 625544.0 0
17408.2 626536.0 0
21667.0 623228.0 0
26502.9 626837.0 0
33115.2 626144.0 0
42290.0 625142.0 0
47778.8 622530.0 0
46768.4 627329.0 0
53153.9 626266.0 0
60088.6 626089.0 0
65246.5 627125.0 0
67697.2 622839.0 0
70183.8 627211.0 0
71937.7 622943.0 0
76602.2 626032.0 0
86832.5 626904.0 0
91872.1 624876.0 0
97497.9 622535.0 0
103421.0 627308.0 0
109117.0 627159.0 0
113081.0 625032.0 0
117074.0 626306.0 0
119972.0 624159.0 0
122906.0 626488.0 0
131771.0 622512.0 0
127675.0 626364.0 0
133341.0 627541.0 0
139323.0 626896.0 0
149320.0 624353.0 0
153910.0 626889.0 0
158688.0 624901.0 0
164108.0 625664.0 0
169396.0 623333.0 0
177610.0 624649.0 0
183336.0 623950.0 0
188162.0 626239.0 0
192931.0 623015.0 0
197040.0 623157.0 0
196866.0 626585.0 0
202579.0 623057.0 0
207651.0 622886.0 0
212305.0 622696.0 0
217655.0 623125.0 0
222904.0 622583.0 0
226667.0 626205.0 0
231046.0 622900.0 0
235984.0 623220.0 0
240831.0 623431.0 0
243018.0 627120.0 0
246050.0 622878.0 0
252468.0 626499.0 0
257719.0 623152.0 0
261176.0 626646.0 0
265929.0 626908.0 0
273336.0 624019.0 0
278540.0 623480.0 0
286989.0 623897.0 0
292314.0 623511.0 0
299799.0 626746.0 0
303257.0 623009.0 0
308653.0 626215.0 0
312681.0 623844.0 0
316824.0 627459.0 0
322316.0 624759.0 0
327052.0 623721.0 0
332571.0 622605.0 0
336295.0 627544.0 0
338607.0 622765.0 0
344360.0 623699.0 0
346786.0 626330.0 0
341921.0 627362.0 0
351972.0 626657.0 0
356685.0 623504.0 0
358914.0 627196.0 0
362530.0 623640.0 0
369253.0 624274.0 0
374544.0 623675.0 0
378299.0 623755.0 0
377580.0 627362.0 0
381339.0 626702.0 0
387347.0 623324.0 0
391091.0 625836.0 0
395747.0 623147.0 0
400083.0 623343.0 0
405956.0 622946.0 0
411256.0 622858.0 0
408232.0 626304.0 0
422757.0 624041.0 0
427646.0 626750.0 0
431509.0 623855.0 0
437117.0 623241.0 0
436778.0 627437.0 0
441066.0 627528.0 0
447027.0 623087.0 0
451526.0 626668.0 0
456804.0 623578.0 0
461653.0 622574.0 0
461343.0 627502.0 0
466621.0 623420.0 0
475143.0 622791.0 0
482868.0 626509.0 0
486517.0 623018.0 0
494201.0 625359.0 0
498259.0 623662.0 0
3369.42 630200.0 0
8757.75 628685.0 0
12943.5 629695.0 0
21796.0 628279.0 0
24430.5 631803.0 0
38679.3 628436.0 0
39153.5 632319.0 0
43100.8 631130.0 0
49301.8 630948.0 0
57490.9 631065.0 0
62292.2 630886.0 0
73904.8 628722.0 0
81597.3 628173.0 0
76909.8 631797.0 0
85920.0 631464.0 0
92896.3 629315.0 0
97267.5 628511.0 0
107326.0 632171.0 0
113499.0 629109.0 0
117708.0 630939.0 0
123434.0 632054.0 0
129065.0 631304.0 0
133007.0 632624.0 0
138183.0 632468.0 0
145021.0 628253.0 0
149968.0 628897.0 0
148218.0 632303.0 0
158014.0 630021.0 0
168396.0 628167.0 0
173974.0 628449.0 0
179987.0 628200.0 0
184468.0 628711.0 0
188379.0 631471.0 0
192911.0 627876.0 0
192884.0 632261.0 0
197084.0 631928.0 0
200980.0 628328.0 0
206694.0 628089.0 0
212794.0 628141.0 0
218373.0 628257.0 0
222664.0 628901.0 0
227917.0 631880.0 0
231966.0 627970.0 0
233037.0 632467.0 0
237380.0 628241.0 0
241627.0 631311.0 0
248001.0 628768.0 0
256670.0 628237.0 0
261409.0 632445.0 0
268190.0 632195.0 0
270516.0 627645.0 0
276309.0 628640.0 0
282709.0 628003.0 0
288950.0 628880.0 0
294726.0 628947.0 0
304702.0 627727.0 0
301454.0 632174.0 0
308021.0 632560.0 0
312206.0 628519.0 0
318066.0 631864.0 0
325469.0 628029.0 0
321623.0 629205.0 0
326321.0 632394.0 0
330674.0 628807.0 0
335058.0 632285.0 0
340103.0 632632.0 0
347749.0 631114.0 0
353067.0 632312.0 0
361888.0 629641.0 0
357797.0 631074.0 0
366548.0 629680.0 0
371376.0 631648.0 0
373715.0 627563.0 0
376891.0 632069.0 0
382050.0 631812.0 0
386260.0 628311.0 0
394784.0 628973.0 0
397921.0 631530.0 0
399297.0 627954.0 0
401495.0 631734.0 0
404118.0 627649.0 0
407445.0 631794.0 0
411973.0 628681.0 0
417976.0 627856.0 0
422747.0 631603.0 0
424235.0 628484.0 0
427159.0 631889.0 0
431604.0 629123.0 0
436707.0 632215.0 0
446437.0 628406.0 0
451408.0 632628.0 0
456443.0 628603.0 0
461757.0 632043.0 0
466186.0 628437.0 0
471388.0 627655.0 0
478152.0 628420.0 0
482442.0 632536.0 0
487245.0 628954.0 0
492839.0 630543.0 0
497869.0 628440.0 0
3714.96 637268.0 0
9511.4 633874.0 0
18084.2 632980.0 0
23484.0 636625.0 0
29155.6 634518.0 0
35192.0 632790.0 0
40354.9 636297.0 0
47106.3 635572.0 0
53090.5 634232.0 0
61317.0 636342.0 0
66339.7 633698.0 0
71671.4 633898.0 0
77416.2 637016.0 0
81802.3 634353.0 0
86461.2 637105.0 0
91007.1 633438.0 0
96220.1 633530.0 0
101450.0 633370.0 0
113063.0 634519.0 0
118525.0 635981.0 0
127869.0 637081.0 0
134453.0 637373.0 0
143758.0 634092.0 0
148751.0 636964.0 0
153276.0 633242.0 0
163158.0 632749.0 0
158358.0 637073.0 0
168363.0 637411.0 0
169449.0 633198.0 0
174363.0 633834.0 0
183459.0 632733.0 0
178765.0 633123.0 0
183482.0 637375.0 0
188611.0 636910.0 0
194552.0 637055.0 0
202802.0 632733.0 0
199669.0 637504.0 0
208419.0 632821.0 0
207239.0 637287.0 0
213051.0 633963.0 0
217797.0 632843.0 0
217139.0 637692.0 0
222603.0 633463.0 0
227108.0 637494.0 0
232035.0 636765.0 0
237496.0 633654.0 0
241624.0 636599.0 0
245616.0 633716.0 0
250020.0 633518.0 0
254938.0 633491.0 0
251690.0 637531.0 0
268871.0 637369.0 0
273833.0 633706.0 0
279433.0 633420.0 0
283729.0 632938.0 0
283563.0 637337.0 0
287238.0 633924.0 0
287992.0 637524.0 0
291606.0 633221.0 0
292956.0 637743.0 0
296248.0 634167.0 0
313710.0 632895.0 0
316962.0 636189.0 0
321965.0 634053.0 0
326407.0 637678.0 0
330743.0 634540.0 0
337801.0 637298.0 0
342331.0 637073.0 0
347227.0 636547.0 0
357021.0 635373.0 0
361340.0 634026.0 0
366548.0 634566.0 0
369246.0 637695.0 0
373501.0 636421.0 0
378271.0 637705.0 0
385801.0 633160.0 0
387141.0 637126.0 0
390905.0 633059.0 0
396359.0 635755.0 0
402143.0 636614.0 0
412971.0 634177.0 0
418706.0 634023.0 0
423572.0 637126.0 0
427473.0 636739.0 0
431482.0 633819.0 0
441847.0 632867.0 0
442015.0 637265.0 0
445962.0 633283.0 0
453765.0 637596.0 0
457317.0 633747.0 0
462809.0 636626.0 0
465675.0 632765.0 0
468029.0 636482.0 0
471715.0 633183.0 0
476242.0 633159.0 0
479079.0 637020.0 0
487327.0 634668.0 0
492130.0 635431.0 0
497426.0 633062.0 0
497977.0 637568.0 0
8974.68 641134.0 0
13708.9 638171.0 0
19191.9 640100.0 0
27366.6 639723.0 0
33450.9 638994.0 0
38510.3 642261.0 0
44142.4 640877.0 0
50542.1 640097.0 0
56043.7 639447.0 0
61355.8 641577.0 0
66901.3 639367.0 0
72816.9 639339.0 0
77348.2 642401.0 0
81709.6 639698.0 0
86121.2 642259.0 0
91538.6 639157.0 0
96606.5 638156.0 0
101561.0 638981.0 0
107686.0 638948.0 0
114631.0 639524.0 0
122179.0 639554.0 0
117895.0 641615.0 0
132250.0 642131.0 0
137303.0 642721.0 0
140151.0 638090.0 0
144734.0 640331.0 0
153222.0 638395.0 0
164315.0 638931.0 0
172571.0 638430.0 0
169017.0 642090.0 0
178348.0 638409.0 0
182005.0 642114.0 0
187123.0 642001.0 0
198077.0 641372.0 0
203177.0 638012.0 0
202999.0 642502.0 0
208805.0 642682.0 0
212296.0 638716.0 0
214161.0 642744.0 0
218421.0 642204.0 0
222119.0 638215.0 0
222524.0 642595.0 0
226781.0 642392.0 0
232147.0 642326.0 0
236822.0 638800.0 0
242125.0 641662.0 0
246700.0 638826.0 0
252173.0 642068.0 0
257052.0 639332.0 0
263704.0 639063.0 0
269042.0 642498.0 0
273202.0 638867.0 0
278020.0 638399.0 0
283384.0 642573.0 0
287635.0 642660.0 0
291885.0 642402.0 0
296399.0 637892.0 0
300215.0 637985.0 0
296294.0 641150.0 0
306120.0 638884.0 0
312071.0 637772.0 0
321330.0 638561.0 0
316780.0 641597.0 0
328503.0 642670.0 0
332654.0 639381.0 0
336888.0 642480.0 0
341849.0 641793.0 0
347365.0 642254.0 0
352636.0 637847.0 0
358347.0 640855.0 0
363590.0 638164.0 0
367254.0 642182.0 0
373259.0 641956.0 0
378662.0 642533.0 0
382758.0 639228.0 0
387452.0 642267.0 0
391768.0 638696.0 0
395789.0 641807.0 0
401209.0 642142.0 0
408150.0 637779.0 0
411194.0 642152.0 0
413534.0 638871.0 0
414744.0 642817.0 0
418410.0 640044.0 0
428441.0 640579.0 0
423558.0 642651.0 0
432702.0 637872.0 0
433220.0 642782.0 0
437037.0 637771.0 0
438259.0 642017.0 0
442197.0 641586.0 0
448568.0 637760.0 0
446159.0 642313.0 0
451728.0 642824.0 0
458275.0 638689.0 0
456516.0 642179.0 0
460930.0 642460.0 0
465999.0 641242.0 0
473178.0 638940.0 0
484295.0 639096.0 0
480238.0 641961.0 0
488661.0 638695.0 0
493759.0 639207.0 0
497110.0 642585.0 0
3268.68 644195.0 0
8494.15 646346.0 0
14369.8 644192.0 0
19438.9 645177.0 0
23827.0 643616.0 0
22092.5 647731.0 0
28974.9 644314.0 0
33783.0 644601.0 0
43041.3 646664.0 0
48102.3 644194.0 0
52860.8 644834.0 0
58093.3 643864.0 0
64601.8 643829.0 0
68879.5 646751.0 0
74032.8 644271.0 0
77623.6 647801.0 0
81847.0 645001.0 0
90414.2 643897.0 0
86951.1 647390.0 0
95280.6 643273.0 0
100761.0 644212.0 0
97329.1 647490.0 0
106115.0 644990.0 0
112133.0 643058.0 0
116408.0 646817.0 0
121341.0 644493.0 0
127009.0 643916.0 0
133361.0 647050.0 0
142342.0 644911.0 0
138158.0 647824.0 0
146439.0 647878.0 0
148880.0 643223.0 0
151244.0 647511.0 0
154182.0 643082.0 0
159942.0 643044.0 0
165276.0 644624.0 0
173219.0 643769.0 0
177592.0 643160.0 0
176250.0 647849.0 0
182076.0 647673.0 0
188157.0 647548.0 0
192893.0 643422.0 0
198615.0 646529.0 0
205521.0 646970.0 0
212368.0 647217.0 0
216764.0 647305.0 0
221053.0 647041.0 0
226489.0 647605.0 0
231428.0 647411.0 0
238111.0 643054.0 0
236714.0 647872.0 0
242969.0 647130.0 0
247109.0 643876.0 0
247797.0 647931.0 0
251780.0 646612.0 0
257540.0 644245.0 0
261089.0 643688.0 0
266052.0 647371.0 0
274058.0 643317.0 0
270979.0 647379.0 0
278598.0 643212.0 0
275975.0 647771.0 0
282172.0 647276.0 0
286688.0 647325.0 0
291373.0 647407.0 0
300860.0 643822.0 0
295920.0 645644.0 0
305933.0 644057.0 0
310927.0 643558.0 0
307930.0 647255.0 0
315890.0 647223.0 0
323226.0 643238.0 0
325653.0 646877.0 0
332738.0 643944.0 0
335466.0 647211.0 0
341273.0 647542.0 0
352828.0 643250.0 0
360251.0 647574.0 0
362787.0 643282.0 0
374284.0 646715.0 0
382994.0 643584.0 0
383634.0 647717.0 0
391739.0 643856.0 0
388870.0 647827.0 0
393769.0 647177.0 0
398106.0 646393.0 0
402934.0 647537.0 0
406589.0 643694.0 0
407522.0 647216.0 0
411153.0 647003.0 0
417059.0 646876.0 0
422165.0 647360.0 0
427460.0 647229.0 0
432592.0 647439.0 0
437028.0 646772.0 0
442713.0 646546.0 0
448090.0 646945.0 0
457840.0 646385.0 0
466374.0 646604.0 0
470403.0 643877.0 0
475760.0 644900.0 0
484259.0 644073.0 0
480882.0 647536.0 0
490422.0 643977.0 0
497547.0 647902.0 0
2052.23 649333.0 0
6235.2 650472.0 0
12234.4 649628.0 0
17845.4 649848.0 0
23349.4 651985.0 0
26205.0 648288.0 0
29421.9 652907.0 0
32475.3 648794.0 0
37435.3 648628.0 0
41628.3 651432.0 0
48081.6 649034.0 0
52834.4 651139.0 0
56794.6 648029.0 0
57551.7 652923.0 0
62410.0 648332.0 0
66396.6 652334.0 0
71139.5 651870.0 0
73555.7 648677.0 0
75916.4 652474.0 0
82679.4 649634.0 0
92826.9 648133.0 0
96964.6 651832.0 0
102172.0 649117.0 0
106262.0 649489.0 0
110549.0 647962.0 0
121523.0 649062.0 0
126208.0 649714.0 0
130816.0 652428.0 0
135922.0 651565.0 0
142144.0 649795.0 0
147568.0 652846.0 0
152631.0 652144.0 0
156158.0 648483.0 0
157228.0 652984.0 0
161101.0 648210.0 0
165433.0 650092.0 0
170547.0 648386.0 0
177682.0 652442.0 0
181892.0 652926.0 0
193644.0 649500.0 0
198417.0 652093.0 0
202243.0 649217.0 0
202946.0 652738.0 0
208692.0 652456.0 0
216025.0 651076.0 0
220456.0 652282.0 0
230861.0 652106.0 0
240343.0 653022.0 0
246167.0 652990.0 0
256311.0 648142.0 0
259521.0 652882.0 0
261091.0 647984.0 0
268982.0 652279.0 0
273400.0 652057.0 0
278458.0 652766.0 0
283237.0 651742.0 0
287034.0 651213.0 0
291281.0 652905.0 0
296734.0 650493.0 0
301875.0 649341.0 0
306422.0 651008.0 0
311487.0 649116.0 0
321212.0 648272.0 0
330086.0 647962.0 0
326581.0 652044.0 0
337255.0 652581.0 0
342371.0 652446.0 0
347623.0 648409.0 0
350948.0 652857.0 0
353762.0 648706.0 0
366576.0 648106.0 0
363536.0 653048.0 0
371353.0 649436.0 0
368713.0 652383.0 0
375104.0 652430.0 0
378708.0 648159.0 0
379843.0 652764.0 0
384349.0 652390.0 0
392717.0 650800.0 0
397531.0 651951.0 0
402490.0 651155.0 0
407086.0 651797.0 0
413252.0 652108.0 0
418696.0 652495.0 0
423755.0 651510.0 0
428357.0 652897.0 0
433634.0 652137.0 0
438366.0 651096.0 0
442759.0 652433.0 0
448325.0 652203.0 0
452925.0 648749.0 0
457656.0 651168.0 0
462077.0 648865.0 0
466967.0 652398.0 0
472106.0 648051.0 0
472666.0 652168.0 0
476832.0 650141.0 0
481831.0 652619.0 0
486103.0 649257.0 0
493073.0 649710.0 0
497892.0 652446.0 0
2989.7 654322.0 0
8031.16 654404.0 0
12537.7 654646.0 0
20283.9 653205.0 0
17447.8 655394.0 0
24075.0 656234.0 0
27444.4 656962.0 0
36579.8 654820.0 0
42053.5 655753.0 0
46712.6 653190.0 0
50440.1 655021.0 0
46604.1 657502.0 0
54773.2 657847.0 0
60544.9 657894.0 0
62022.6 653508.0 0
65795.9 657468.0 0
72292.9 657870.0 0
81137.3 654526.0 0
85511.1 658072.0 0
87045.8 653149.0 0
92394.9 653196.0 0
101443.0 653845.0 0
97141.1 656800.0 0
106502.0 653867.0 0
112157.0 653565.0 0
118319.0 653442.0 0
123597.0 653482.0 0
127230.0 657141.0 0
139947.0 654051.0 0
143597.0 653064.0 0
144896.0 657152.0 0
154615.0 657015.0 0
161722.0 653309.0 0
159639.0 657586.0 0
168063.0 653562.0 0
167753.0 657513.0 0
163817.0 657845.0 0
172900.0 653777.0 0
177272.0 658071.0 0
183638.0 657921.0 0
187535.0 653368.0 0
192337.0 653761.0 0
188797.0 658099.0 0
192119.0 656817.0 0
197394.0 657889.0 0
203456.0 657478.0 0
213889.0 654179.0 0
213913.0 657650.0 0
217669.0 657144.0 0
222300.0 657409.0 0
225572.0 653137.0 0
227432.0 658004.0 0
232913.0 657737.0 0
235689.0 653337.0 0
238566.0 657807.0 0
242979.0 657383.0 0
253138.0 653279.0 0
251800.0 658080.0 0
264188.0 653070.0 0
260841.0 658053.0 0
265908.0 657061.0 0
271790.0 657915.0 0
276966.0 657262.0 0
282178.0 657572.0 0
287644.0 656503.0 0
300765.0 654004.0 0
296049.0 656152.0 0
305742.0 656661.0 0
310191.0 653347.0 0
316031.0 653444.0 0
311651.0 658069.0 0
322083.0 653670.0 0
331499.0 653428.0 0
327404.0 657557.0 0
332592.0 658071.0 0
337035.0 658067.0 0
346459.0 654070.0 0
341838.0 656744.0 0
351958.0 657463.0 0
357553.0 653536.0 0
367664.0 656787.0 0
372367.0 656389.0 0
376917.0 657432.0 0
382071.0 657151.0 0
389220.0 653300.0 0
393954.0 657396.0 0
402142.0 654539.0 0
411481.0 657344.0 0
417178.0 657946.0 0
423325.0 657186.0 0
437549.0 654663.0 0
435220.0 658151.0 0
440928.0 657395.0 0
446531.0 657826.0 0
453898.0 654100.0 0
458314.0 657559.0 0
461487.0 653364.0 0
464027.0 657579.0 0
469209.0 657837.0 0
473940.0 656777.0 0
477944.0 653637.0 0
478668.0 657698.0 0
483129.0 657025.0 0
489716.0 653243.0 0
487706.0 657965.0 0
494126.0 654031.0 0
492491.0 657827.0 0
497341.0 657303.0 0
2916.28 659986.0 0
8587.78 659217.0 0
14345.1 659126.0 0
11899.4 663000.0 0
17535.1 662896.0 0
20626.8 659052.0 0
21673.0 663075.0 0
25972.3 661191.0 0
30935.4 658231.0 0
35056.2 659959.0 0
31660.1 663067.0 0
39517.5 659675.0 0
42078.0 663103.0 0
50268.8 659647.0 0
46280.8 662412.0 0
58181.7 662653.0 0
63476.6 662201.0 0
68062.3 661891.0 0
78403.1 659302.0 0
82120.2 658793.0 0
81830.4 662795.0 0
91597.6 658854.0 0
86936.1 662663.0 0
97162.6 662885.0 0
103021.0 659536.0 0
109084.0 658510.0 0
112218.0 662858.0 0
113618.0 658246.0 0
116848.0 660928.0 0
121534.0 658480.0 0
133713.0 658373.0 0
140138.0 659441.0 0
144559.0 662282.0 0
149569.0 658533.0 0
153260.0 662525.0 0
158298.0 661844.0 0
162907.0 662199.0 0
168189.0 662387.0 0
171802.0 658777.0 0
174050.0 661821.0 0
181775.0 662862.0 0
186666.0 662950.0 0
192352.0 661756.0 0
201773.0 662129.0 0
209195.0 659515.0 0
214573.0 662000.0 0
218977.0 662580.0 0
222500.0 662622.0 0
232191.0 662798.0 0
237228.0 662934.0 0
242375.0 662044.0 0
247865.0 658725.0 0
252500.0 662625.0 0
255778.0 658875.0 0
261535.0 663241.0 0
267202.0 662778.0 0
277607.0 661826.0 0
286751.0 661678.0 0
291572.0 659279.0 0
300535.0 658504.0 0
296752.0 662273.0 0
302643.0 662843.0 0
307582.0 662058.0 0
312207.0 663173.0 0
316830.0 659907.0 0
321902.0 658479.0 0
331725.0 662573.0 0
342968.0 661670.0 0
347100.0 659082.0 0
357758.0 659849.0 0
362978.0 658176.0 0
366571.0 661362.0 0
362465.0 662626.0 0
372116.0 661404.0 0
376890.0 661952.0 0
381051.0 662027.0 0
387556.0 658599.0 0
396901.0 662564.0 0
399565.0 658222.0 0
405519.0 658907.0 0
412892.0 662279.0 0
422468.0 662343.0 0
426716.0 662924.0 0
429661.0 658289.0 0
432779.0 662344.0 0
437554.0 662899.0 0
442995.0 662234.0 0
448172.0 663264.0 0
451821.0 658559.0 0
452403.0 662515.0 0
456583.0 662836.0 0
461871.0 662585.0 0
467412.0 662724.0 0
472628.0 661313.0 0
477324.0 662162.0 0
482297.0 661921.0 0
493001.0 662189.0 0
497500.0 662268.0 0
1225.61 663767.0 0
2838.65 667496.0 0
6681.95 663579.0 0
13294.1 667823.0 0
18049.8 667417.0 0
27242.0 667231.0 0
37299.1 664705.0 0
42124.9 668121.0 0
47690.8 667397.0 0
52487.3 663889.0 0
56751.1 667970.0 0
62040.4 667159.0 0
67589.7 667489.0 0
71614.5 664168.0 0
76720.8 664358.0 0
84288.4 668199.0 0
91624.9 665134.0 0
99110.8 668151.0 0
107117.0 663919.0 0
102084.0 664835.0 0
108981.0 668116.0 0
112938.0 667434.0 0
118083.0 665789.0 0
122836.0 663620.0 0
128689.0 663338.0 0
135222.0 665156.0 0
139556.0 663578.0 0
143467.0 667261.0 0
148622.0 663694.0 0
151038.0 667775.0 0
157246.0 667355.0 0
162996.0 666974.0 0
167835.0 668327.0 0
172980.0 666171.0 0
177434.0 663552.0 0
178028.0 668111.0 0
183265.0 667653.0 0
188120.0 667505.0 0
192581.0 667295.0 0
197482.0 663534.0 0
197264.0 668179.0 0
202500.0 667499.0 0
206040.0 664865.0 0
212677.0 667316.0 0
217500.0 667454.0 0
222500.0 667323.0 0
226805.0 663661.0 0
232872.0 667461.0 0
237734.0 667844.0 0
242755.0 666606.0 0
247064.0 663565.0 0
247909.0 667889.0 0
252105.0 666871.0 0
256703.0 663520.0 0
256404.0 667744.0 0
260824.0 668244.0 0
265600.0 667972.0 0
272682.0 663738.0 0
277045.0 667868.0 0
282111.0 664613.0 0
286925.0 667582.0 0
291420.0 664279.0 0
304070.0 667496.0 0
308277.0 666468.0 0
320936.0 663419.0 0
316436.0 664771.0 0
326412.0 663497.0 0
323333.0 667533.0 0
333236.0 668146.0 0
337570.0 663750.0 0
342769.0 667567.0 0
347486.0 664155.0 0
352896.0 663333.0 0
357991.0 665375.0 0
362950.0 668285.0 0
368522.0 665700.0 0
378337.0 666316.0 0
385447.0 663958.0 0
391356.0 663473.0 0
401799.0 663291.0 0
398022.0 667670.0 0
407821.0 664511.0 0
403361.0 668128.0 0
412643.0 667513.0 0
417864.0 663657.0 0
422269.0 666897.0 0
430300.0 665632.0 0
434919.0 668341.0 0
441112.0 667588.0 0
452461.0 667671.0 0
459259.0 668077.0 0
464413.0 666652.0 0
469195.0 668291.0 0
474396.0 666017.0 0
479400.0 667032.0 0
483974.0 666559.0 0
488510.0 663361.0 0
492816.0 666141.0 0
497500.0 667242.0 0
1571.26 672537.0 0
8060.79 668412.0 0
5616.62 673002.0 0
10844.2 672554.0 0
17019.7 672701.0 0
22096.4 669585.0 0
28266.4 672704.0 0
32861.3 668528.0 0
37552.8 670352.0 0
42374.7 673268.0 0
47067.2 672565.0 0
52119.6 669649.0 0
62424.3 672410.0 0
67090.7 672425.0 0
73058.7 669101.0 0
78411.8 669518.0 0
89780.7 669602.0 0
87177.3 673061.0 0
94484.9 669437.0 0
104188.0 669224.0 0
108576.0 672977.0 0
115999.0 669705.0 0
122229.0 668606.0 0
119318.0 672898.0 0
128251.0 670745.0 0
134937.0 670374.0 0
139075.0 668650.0 0
138553.0 673160.0 0
147046.0 669551.0 0
143440.0 672291.0 0
162834.0 672110.0 0
167745.0 673328.0 0
173406.0 672460.0 0
177944.0 673414.0 0
181756.0 672896.0 0
187123.0 672264.0 0
193330.0 673212.0 0
198748.0 672160.0 0
202943.0 672126.0 0
208061.0 669389.0 0
212272.0 672714.0 0
217524.0 672223.0 0
222454.0 672347.0 0
227997.0 668971.0 0
231421.0 672195.0 0
236422.0 672553.0 0
241600.0 671210.0 0
247244.0 673001.0 0
253438.0 672085.0 0
258744.0 672523.0 0
262750.0 672337.0 0
267170.0 672767.0 0
270814.0 668837.0 0
273256.0 673307.0 0
277700.0 673394.0 0
282316.0 669015.0 0
281856.0 672542.0 0
286949.0 672785.0 0
292515.0 669411.0 0
298623.0 668613.0 0
301829.0 672863.0 0
306188.0 671735.0 0
310578.0 672435.0 0
312850.0 668373.0 0
318517.0 669349.0 0
327901.0 668732.0 0
331323.0 673115.0 0
337964.0 669656.0 0
351183.0 668377.0 0
347008.0 670989.0 0
356606.0 670715.0 0
367772.0 673029.0 0
373235.0 669351.0 0
382987.0 668440.0 0
384898.0 673009.0 0
388423.0 668800.0 0
393460.0 668893.0 0
394658.0 673260.0 0
399990.0 672954.0 0
407991.0 669781.0 0
404027.0 672268.0 0
412958.0 672877.0 0
417725.0 668821.0 0
422666.0 671965.0 0
426985.0 668878.0 0
431787.0 672476.0 0
441468.0 673397.0 0
446514.0 670143.0 0
462148.0 672960.0 0
473671.0 672886.0 0
484245.0 670693.0 0
479818.0 672472.0 0
488155.0 668605.0 0
492976.0 671629.0 0
2251.06 676948.0 0
10559.3 678498.0 0
23603.2 674558.0 0
27762.2 678201.0 0
33242.6 673923.0 0
38061.4 674856.0 0
47157.6 678377.0 0
51717.9 674390.0 0
57054.3 673536.0 0
63545.9 677758.0 0
71191.7 674035.0 0
68418.0 677647.0 0
76007.4 673810.0 0
72800.6 678567.0 0
77433.2 678440.0 0
81798.6 674700.0 0
87355.2 677462.0 0
91935.0 673922.0 0
97776.7 673552.0 0
103203.0 674880.0 0
107364.0 678179.0 0
113936.0 673511.0 0
112263.0 677667.0 0
117333.0 677596.0 0
123875.0 675469.0 0
128121.0 676751.0 0
133550.0 674656.0 0
137291.0 678137.0 0
147015.0 673482.0 0
142957.0 677562.0 0
151451.0 673578.0 0
148073.0 677419.0 0
157396.0 673702.0 0
162928.0 677205.0 0
167357.0 677866.0 0
172159.0 678326.0 0
177548.0 677244.0 0
182503.0 677821.0 0
186767.0 677349.0 0
197787.0 678060.0 0
203474.0 677035.0 0
207325.0 673748.0 0
208228.0 678263.0 0
213258.0 677839.0 0
218094.0 677278.0 0
222111.0 677254.0 0
226546.0 673497.0 0
225919.0 677782.0 0
230908.0 677699.0 0
236697.0 677769.0 0
242524.0 677150.0 0
248077.0 678541.0 0
252474.0 678267.0 0
256707.0 676764.0 0
266725.0 678560.0 0
272409.0 677953.0 0
283229.0 676697.0 0
288531.0 678249.0 0
290981.0 673950.0 0
296076.0 674598.0 0
301145.0 677479.0 0
307539.0 677845.0 0
315010.0 673937.0 0
320083.0 674338.0 0
325622.0 674098.0 0
336092.0 673683.0 0
332210.0 678019.0 0
341997.0 674253.0 0
351381.0 673803.0 0
347217.0 676128.0 0
356258.0 676555.0 0
361437.0 674420.0 0
367785.0 678239.0 0
372921.0 676100.0 0
378756.0 673570.0 0
382420.0 677414.0 0
386600.0 678275.0 0
389751.0 674132.0 0
392355.0 678513.0 0
397537.0 678007.0 0
402474.0 677530.0 0
407188.0 674710.0 0
411674.0 677929.0 0
418136.0 673537.0 0
422801.0 677145.0 0
427337.0 674139.0 0
432598.0 677261.0 0
436430.0 673590.0 0
438083.0 678253.0 0
446087.0 675265.0 0
451481.0 674368.0 0
457330.0 674192.0 0
462300.0 678078.0 0
467387.0 674280.0 0
477765.0 677593.0 0
482859.0 677627.0 0
487460.0 674659.0 0
492474.0 677809.0 0
497909.0 673510.0 0
497459.0 677509.0 0
5531.6 679018.0 0
17112.1 679200.0 0
22590.7 679344.0 0
33295.8 679391.0 0
38710.7 679674.0 0
42837.9 681422.0 0
53062.8 679386.0 0
58240.8 678842.0 0
82572.7 679639.0 0
92586.1 679085.0 0
98303.8 679081.0 0
102958.0 679588.0 0
121481.0 679073.0 0
125535.0 679829.0 0
131994.0 680220.0 0
153268.0 679012.0 0
158517.0 679051.0 0
191022.0 678873.0 0
261171.0 678745.0 0
277892.0 678638.0 0
293440.0 679030.0 0
297347.0 680484.0 0
313498.0 678879.0 0
318589.0 679103.0 0
323158.0 678616.0 0
327449.0 679651.0 0
337531.0 679079.0 0
342784.0 680196.0 0
351773.0 679230.0 0
347208.0 680104.0 0
359259.0 680418.0 0
363738.0 679155.0 0
377183.0 678888.0 0
372526.0 680586.0 0
406579.0 679716.0 0
417377.0 678916.0 0
427690.0 679346.0 0
443256.0 679055.0 0
448204.0 679041.0 0
452856.0 680119.0 0
457454.0 678827.0 0
467079.0 679646.0 0
472277.0 679086.0 0
487933.0 679779.0 0
POINT_DATA 5000
SCALARS Radius float 1
LOOKUP_TABLE default
5337.48 6124.89 4780.03 7613.27 4951.03 5529.52 6756.95 4329.05 4151.94 4049.23 4929.8 5708.81 5252.48 4015.92 5495.39 3996.0 3856.1 4665.12 3383.4 4133.88 4834.9 3850.77 6044.04 5415.48 5120.0 3863.18 2356.98 4998.37 6182.6 5492.18 5258.36 5061.3 3642.12 3163.97 5812.43 5122.66 5906.14 5484.19 7513.1 5254.28 4436.4 5733.48 4672.91 5580.89 5645.7 5176.86 6810.52 5840.26 3672.51 6110.27 5561.06 5073.35 3615.22 4380.59 5670.04 3589.27 6716.79 3607.45 5759.91 3038.33 4333.2 5255.32 6037.08 5096.78 6324.23 4736.58 3485.26 4931.38 6082.81 4685.34 4382.74 5601.05 3586.91 3103.0 3554.9 5481.78 5542.21 4487.31 3936.02 4044.71 4094.62 5980.74 4927.02 5546.39 5325.36 5484.83 5085.53 5351.6 4730.36 4715.55 5867.73 3951.75 5013.56 4499.64 4375.68 5542.27 5054.98 6030.06 5170.02 3557.27 4927.31 4688.68 4402.52 4517.56 4182.53 5903.42 3588.44 3955.56 3761.32 4118.05 4366.19 5553.16 2938.66 4940.78 4231.61 4008.92 3942.53 4827.82 3379.84 3997.1 3260.67 5123.52 4392.68 4295.38 7199.21 4523.7 2240.39 5091.39 4612.68 5293.9 4129.43 4727.24 3843.58 3320.52 4194.5 5191.63 5379.87 4792.73 4501.51 4556.36 3191.99 5110.37 5927.43 4651.28 4384.42 4362.19 4516.43 5637.59 4937.14 5043.05 5816.2 5109.54 5693.81 6483.19 5945.65 6759.9 5538.89 7021.47 5416.38 6059.59 4955.55 2720.68 5701.86 3563.63 4238.81 4468.59 5885.03 2837.58 5325.02 5200.76 5017.13 4862.64 5185.34 4432.58 6684.56 3968.64 4688.67 5292.64 2635.86 6166.5 5065.13 5936.02 5305.17 4861.08 4003.05 5390.22 4712.33 4805.87 5227.21 5697.78 4667.36 4091.31 6372.62 4254.17 5615.42 7565.34 5923.5 3912.37 4973.83 6142.94 4602.25 4270.53 5082.47 4790.08 5344.25 4593.7 4478.15 4043.57 5925.6 3708.04 5513.6 3240.09 4901.41 5664.98 6327.9 6355.42 3693.63 5690.56 4948.92 3115.91 4493.48 3307.12 5924.89 4002.16 4138.16 4174.52 3486.22 3829.13 4684.5 6230.49 6458.82 5418.62 4601.27 5493.32 5740.68 5926.61 6051.14 5836.15 3261.21 4345.55 6704.06 3653.41 3871.88 3856.01 5246.2 4390.66 5279.39 3673.74 5205.43 6116.18 7447.37 4924.6 4385.06 4733.32 7184.19 2899.43 2924.37 4290.3 3867.67 5399.73 4660.72 3888.21 5891.05 6038.78 6902.81 6644.76 5629.19 5090.24 4786.6 5740.84 5530.87 4281.49 6342.25 6691.39 5344.0 4840.84 4763.45 4150.99 5445.87 4216.92 4177.94 3929.19 4107.03 3771.48 4271.69 5681.38 5198.77 4138.42 5987.17 6013.14 5138.31 5264.06 4659.59 4048.37 5492.26 5244.78 5762.84 3937.74 4749.8 6084.86 4778.34 5478.92 5551.36 6894.71 4414.54 3091.3 5789.98 7054.71 5489.43 3641.64 5747.75 4277.89 5054.25 4796.33 4195.44 5539.32 5360.19 6496.85 5600.93 4874.39 5541.59 4124.71 5728.85 4827.23 4911.47 5803.39 5863.59 4381.97 6257.19 3255.82 5242.73 2812.98 4065.69 5603.15 4695.45 6052.7 3798.62 3921.18 3666.57 5308.1 4937.02 5655.21 4645.41 4433.59 6445.94 4310.18 4218.06 7134.64 5978.9 4187.56 3629.62 4997.27 5135.69 6045.46 4290.14 4020.32 3815.26 4245.72 4704.72 4571.7 4742.68 4344.58 5634.83 5782.6 5113.21 4502.5 5922.5 3970.25 5147.67 5643.58 4292.06 3979.82 2765.2 5011.31 5006.58 4602.86 3688.8 4548.16 3369.23 5449.18 4220.88 6519.71 6640.13 5082.6 5810.84 4230.54 5094.44 3748.24 4655.49 4467.94 4850.81 6038.14 6138.47 2540.31 6029.66 5527.54 5573.7 5697.4 4727.62 4270.95 4055.8 7325.81 5280.17 6425.26 4794.96 6186.19 4839.34 5083.08 6834.49 6337.56 5525.39 3998.5 5938.34 4024.3 6394.38 5555.28 5169.36 4737.14 4686.65 5834.74 5556.96 5788.23 5581.75 6392.01 6730.19 4907.89 4907.06 4073.93 3735.44 6043.3 5952.75 4320.28 5542.14 4931.53 5480.13 6308.71 4716.19 5514.76 4301.06 3456.98 4877.67 6562.18 5908.1 4541.21 6048.7 5896.46 5495.84 6268.1 7034.11 4862.21 6261.42 5499.11 4011.77 3633.87 5347.48 4850.01 5215.05 5577.04 6318.18 4481.53 5586.81 3948.17 4581.13 4621.75 4551.24 5358.59 4515.71 3092.35 4322.15 5210.03 3629.96 5478.47 5351.39 6142.37 6061.47 4933.21 5375.47 5120.49 5262.61 6302.8 5409.61 6038.2 4005.44 5206.78 5555.88 6732.43 5143.58 3866.16 6362.12 4484.76 4840.01 2980.99 5611.2 7933.0 4455.12 5173.87 4894.16 5380.13 5711.87 5118.27 4941.22 5932.23 5791.61 3369.13 4479.66 5367.2 3043.85 5461.13 3599.45 4726.76 5839.13 5495.68 5489.34 5163.9 5708.14 5537.72 6332.36 3920.42 6122.55 2739.94 4223.33 5911.67 6695.82 6405.76 3066.13 3498.2 5105.16 4302.5 6006.16 4156.38 5316.75 4164.68 5022.8 6133.92 3784.5 3719.84 4178.4 5934.22 3471.03 5253.55 5011.84 5820.48 6946.21 2586.12 5433.8 6125.34 4527.08 5965.78 4374.35 4810.12 2775.04 4138.46 3821.72 4986.77 5137.34 5330.45 3856.59 4219.07 3610.4 5413.79 6387.01 5367.52 5025.39 4714.54 5893.5 3320.11 5030.91 6022.17 5119.37 3982.23 6163.38 4566.18 4723.12 3459.9 4964.09 5201.36 5024.9 4306.53 5659.17 5094.81 5972.06 5713.22 5861.71 5028.96 4359.04 3183.98 3794.63 4524.28 3778.1 5152.36 4511.82 5826.64 4220.65 6820.42 4816.2 6321.41 4896.52 4751.02 3372.79 5184.56 5282.64 4715.72 4669.66 4808.52 5046.33 5607.24 5053.92 6352.26 3847.38 3818.59 4863.72 5002.48 4262.82 6623.85 5102.36 8332.24 6155.31 4342.9 4553.56 5329.64 3323.28 6049.55 5709.62 5835.78 5794.24 4678.38 5448.61 5050.65 6009.88 4827.33 7055.53 5013.67 5669.65 5624.49 3780.23 4861.06 6481.79 3979.26 6608.73 5188.81 4359.62 3745.84 6057.22 5062.71 4497.59 5975.63 5252.34 6396.74 6898.19 6035.6 5423.0 5077.33 4746.52 3689.45 5572.95 6338.89 6202.55 7111.16 4547.19 3817.13 5507.24 4583.31 4503.89 5806.08 4997.27 4853.39 4809.42 4093.08 4449.22 5543.27 4717.05 6135.57 5998.38 4312.67 5423.8 4270.24 4989.15 5017.78 5015.69 6175.81 4727.24 6677.09 4305.57 6959.81 4829.35 5201.67 4089.76 5526.55 3192.41 5215.15 4987.87 3315.57 5804.71 4764.96 5727.3 4242.52 5356.51 4277.88 3057.03 4087.15 4143.08 7500.97 3948.23 5228.18 5787.31 5065.11 5069.84 4051.44 4241.89 5054.74 4127.74 5941.72 2476.04 5991.09 3942.07 7443.72 3937.08 5260.34 5513.57 5729.23 5826.04 5339.78 3095.48 5762.59 4166.08 4123.6 5320.28 5374.51 5224.12 6739.08 4796.58 4298.67 5960.66 3999.48 4962.09 4203.26 4730.41 5696.88 3923.03 5690.26 4156.2 5607.14 4289.17 5564.02 2965.79 4274.61 4410.55 7099.43 5526.14 5198.29 6449.45 3975.31 5125.78 3824.16 4373.47 3868.18 6723.16 5584.06 3686.21 6480.17 5023.15 4377.07 6851.54 3813.22 5570.3 4336.42 5243.29 7589.94 3130.65 5628.24 5856.11 5287.2 3327.49 4109.88 4234.94 4562.29 5013.13 5080.66 3417.33 4926.42 4164.13 4642.34 4520.1 4947.52 5874.89 4293.03 5813.4 4389.21 3791.79 4424.7 4925.44 4754.05 4951.47 6084.93 4307.28 3697.96 4739.42 5538.93 5020.12 4745.45 2631.9 5281.28 6255.18 4758.21 4668.71 7228.46 6362.14 6719.88 5978.82 3927.99 5868.82 4050.9 4978.31 4099.77 4981.9 4537.32 4656.78 5126.91 5133.97 6600.94 5371.02 6155.1 5206.48 4709.35 6586.45 5226.0 4373.3 4750.78 3365.82 4143.78 7092.87 4850.14 4797.52 7042.12 4569.12 4471.58 3637.61 6098.14 5873.69 4472.17 6222.42 5654.31 4938.74 5470.77 4643.85 4004.04 5082.74 6915.83 6072.45 6444.77 4287.63 5315.4 4516.28 3627.82 4044.45 5344.43 6070.58 5045.38 5350.88 5372.61 5130.91 5402.24 4519.22 6445.22 3844.9 5101.59 3695.36 3963.86 3848.93 4306.11 5935.47 3402.32 5903.66 4528.49 5004.67 5365.89 5992.26 3960.8 5070.39 4980.85 5714.58 5110.45 5208.32 5248.77 4083.97 4607.02 5153.74 4528.09 3895.51 4165.81 6291.51 4128.98 5882.89 6246.22 4188.32 5246.61 4100.38 5344.77 4723.48 5097.87 4899.11 4278.07 7267.18 6256.02 5269.18 5320.92 4406.1 5034.59 4942.77 4263.33 5080.18 5266.5 4523.88 4066.38 3279.1 4948.98 5227.52 4560.84 4729.43 4414.48 4092.24 5163.02 4562.74 7144.24 3600.43 4906.82 4788.58 5131.24 5196.67 6496.67 5876.71 6262.72 4163.5 5029.78 3664.11 4538.95 4970.88 4763.66 4666.81 5163.55 6326.39 4819.73 6817.32 2965.01 4319.79 6643.85 6343.14 5501.93 5463.38 5945.21 5750.71 6470.3 3474.39 4831.47 4200.03 6062.05 4735.33 5411.85 4844.57 5092.37 4027.46 4470.98 6314.07 5776.37 3921.08 4190.31 5678.96 5262.19 4244.9 5490.43 6034.41 5452.83 4959.34 4948.5 4527.02 4531.14 4564.34 4871.44 3838.56 5076.35 6020.48 6375.99 5200.05 5234.29 5313.66 5419.37 4466.03 4511.54 5409.33 5196.0 4923.9 4973.78 3329.99 3947.47 3296.27 5091.68 4713.25 4204.84 6243.0 6673.96 3556.85 5441.96 3435.9 5174.89 4288.3 5370.52 4652.29 5774.81 3746.31 5498.32 5027.98 5346.27 6475.1 4969.21 2691.29 2845.98 5289.52 5314.85 4305.43 5450.44 6510.17 5742.65 5592.32 4454.63 5912.61 4403.98 6193.35 6086.96 5233.78 5776.57 5683.26 5598.74 5687.83 5004.23 6442.69 5474.8 4648.04 6607.87 6515.84 2990.77 5724.64 4888.6 5965.15 5078.86 4780.2 4636.5 4940.42 3382.7 3703.1 3954.91 6471.55 5085.71 5499.39 5644.82 6263.44 5960.56 5774.97 4020.95 5862.86 5462.21 6313.06 3493.7 4719.7 6939.12 4406.4 5313.22 3905.51 4413.85 3999.94 4864.22 3901.8 5759.46 5083.41 7055.42 5486.68 6048.86 4285.32 5022.28 5197.52 5178.99 5383.07 4591.87 4790.78 5013.42 4247.15 6552.22 5651.07 6248.81 5273.35 4091.8 4645.58 2651.49 5512.23 5275.32 5985.29 4898.94 4178.15 4613.31 4733.04 6119.09 5788.66 7531.29 5069.25 5048.89 5935.03 3161.47 3991.03 6390.78 7435.25 6826.57 4788.87 4495.87 3702.37 6022.72 4643.31 5527.33 6917.52 5402.21 4989.09 4880.14 4982.31 4307.48 3848.54 5941.4 5331.02 4871.96 4863.23 4402.67 5381.16 4470.61 5565.13 4384.88 6887.27 3701.27 4806.34 5653.9 5046.21 5894.61 5139.5 7493.3 4814.55 6320.71 3527.05 5698.77 3464.83 2477.07 5117.47 4721.32 3163.78 4925.63 3293.56 5882.65 4918.77 4739.14 4434.19 5100.1 6090.91 4946.42 5923.4 3295.83 5081.78 4459.28 4260.92 6116.33 4479.94 6250.23 6413.02 4863.27 4118.84 3492.19 4584.5 5122.63 6766.43 6049.79 2315.64 4703.08 5374.98 4390.41 6345.13 5274.19 5516.95 4097.57 5017.5 5563.79 6171.13 3497.9 2395.5 5511.88 4512.11 6248.6 3836.45 5683.61 5100.25 6894.26 4470.4 4986.51 5339.38 6169.11 5615.35 4027.09 6422.84 4502.18 5379.09 4602.85 4962.77 5872.05 4853.02 6259.23 5181.4 5670.2 4711.62 4247.23 4114.24 4268.65 4694.83 5509.42 4354.08 4256.43 5936.36 4520.62 3903.75 4755.47 4485.99 5127.16 5475.8 5314.69 6050.81 5543.46 4249.46 5965.81 4750.17 5660.85 2330.66 3990.25 4177.19 3587.05 6229.37 6718.19 5282.91 3797.33 4425.84 7256.35 4800.69 6566.1 3555.86 6386.78 4996.99 4631.83 6081.14 6008.49 4287.53 5612.21 4929.14 5945.08 3979.54 5304.13 5944.09 5833.06 4923.41 4497.31 4305.16 6413.11 5092.28 5274.14 4903.82 4371.99 5746.28 3561.29 5187.7 4219.78 4623.61 4188.3 4963.34 5019.93 6261.75 3885.86 5235.29 4338.08 5177.64 4378.3 4255.31 5660.16 4541.8 6134.99 5453.3 4718.54 4407.9 4440.57 5548.29 3623.87 5916.16 6934.37 5226.56 4890.5 6113.95 4050.08 5599.49 5452.42 5328.22 6853.85 4020.4 5941.61 4596.75 5782.48 4933.65 5443.58 4558.46 5805.86 4049.02 5346.68 5311.03 5255.12 4285.66 4896.11 5172.53 4135.62 5801.99 5210.48 5534.94 7644.38 7552.94 6101.92 5323.3 5088.44 4998.21 4662.56 5166.79 5349.31 2976.22 4649.22 5394.55 5094.52 4946.74 2682.24 5928.32 5229.48 5475.7 4016.18 5526.75 5435.74 4244.99 5327.45 5560.26 6185.89 3997.96 4439.35 3460.94 6184.4 3691.0 3758.07 4752.51 4373.45 4236.14 5733.62 4407.87 5282.51 4460.92 5945.89 4042.28 4105.55 4340.76 6065.22 4221.28 4456.39 4896.39 3633.79 5421.53 5480.83 4607.85 4220.46 5128.57 6000.7 5604.21 3169.67 4968.03 3361.92 3306.14 5490.58 4863.79 3967.48 4702.06 3830.46 6213.04 6031.67 5384.76 5529.42 6138.12 5257.12 4428.78 4965.89 5659.95 4152.85 4082.47 5551.9 4453.64 5511.6 4517.73 6415.61 4752.14 4687.64 5469.47 4419.71 4888.12 5037.06 5512.16 4094.73 4989.56 5175.29 3838.47 2588.37 5842.56 6736.03 6235.57 5412.31 3087.09 7480.41 3423.15 4488.85 3731.84 3981.07 3554.48 4901.07 5186.3 3436.15 4216.17 4151.76 6484.17 3493.47 4721.02 4254.37 3374.08 4031.78 6098.1 5708.99 5687.85 4231.83 2435.33 6401.43 5296.29 4611.53 5094.48 3872.61 4238.4 4318.48 6132.95 5266.22 4860.33 3685.13 6004.68 4051.34 3627.55 6239.84 4635.6 4256.67 3457.48 3931.07 3405.98 5417.15 3688.16 4681.72 4945.39 5996.33 3950.63 5415.19 4612.62 3619.07 4275.57 4467.04 6385.23 5817.25 2983.99 2614.4 6363.92 6205.93 4923.24 5830.72 3828.81 5309.98 4082.57 5255.18 5169.9 3004.16 4767.78 5235.17 4779.5 4421.12 5254.49 6649.96 4303.19 5784.3 5514.84 3914.2 5937.08 6070.3 5233.29 4312.56 4612.06 5204.04 4750.58 6710.88 5395.14 5235.11 5211.38 6622.11 4689.15 4655.16 5243.43 4537.14 5409.66 3867.19 4765.72 4345.67 3757.34 2908.7 4642.66 5276.7 5036.58 5329.59 6119.63 4950.97 3197.63 4752.9 4287.16 4863.96 5191.08 5887.15 4062.5 4435.51 5203.08 5374.07 4588.7 5683.95 5163.77 3766.55 6027.62 4579.69 5010.2 6496.52 5005.85 5711.11 4575.94 4938.72 3546.71 5768.57 5564.23 3735.24 5950.04 4074.48 4558.47 5020.71 2681.29 5997.88 5839.71 5576.92 6408.83 3930.79 5226.97 4004.35 3312.06 3361.26 5180.76 6799.4 5278.36 5865.39 4427.28 6079.11 3082.32 6430.39 3658.37 7440.72 3949.6 5703.6 6326.18 5661.62 6631.19 6648.68 4713.74 5626.61 5407.78 4084.49 5061.98 6632.99 4537.6 5147.36 4419.61 7177.44 4563.46 6553.94 5726.66 5460.65 5652.0 5463.41 5225.33 4929.75 4435.36 6045.22 4614.3 5134.39 3532.3 4256.57 5769.98 5442.32 6088.68 2221.99 4643.56 4135.08 4863.01 5620.74 4778.82 6124.08 5467.84 5053.95 5926.11 6667.68 5767.9 6515.8 3685.13 5089.62 6790.73 4590.55 4741.26 5920.32 3701.16 5251.4 4186.6 5097.69 5857.79 3988.3 4039.91 6543.13 5149.72 4216.95 5776.96 5464.25 5411.02 5301.47 4617.55 5199.44 5424.88 5415.85 8659.64 6599.66 4055.54 5469.13 5765.42 6123.03 5966.61 4997.83 4893.49 5325.44 5021.88 5956.65 4200.09 4498.25 4188.87 5151.21 6574.95 6333.29 4477.04 5731.57 5703.74 5662.55 5737.92 4360.23 5365.24 5293.51 4763.96 5754.18 5008.63 3418.99 4480.95 4993.35 4409.63 5521.25 3661.9 5370.85 5949.46 3178.54 4765.02 5376.71 4448.13 5070.29 4807.28 4867.08 2261.36 5075.55 4266.03 5280.69 4220.03 6923.84 5227.59 5449.46 6179.96 5703.07 6113.54 4662.43 6260.79 3963.76 5528.53 6799.88 3062.43 5990.52 5426.78 2967.38 4159.35 6477.91 4237.98 3091.67 6439.37 4081.97 5401.99 5580.92 5973.33 3583.21 5067.46 2511.46 3580.58 4011.37 5356.79 2775.69 4785.25 5657.36 3619.79 5029.47 5876.64 6306.21 5266.01 2978.76 5253.37 2040.66 7016.27 5884.9 3685.65 3876.21 5869.4 4916.22 4255.85 6022.7 4732.09 5895.77 5750.07 6136.49 4809.67 4757.74 4356.25 4209.49 5742.74 3821.94 5486.48 4244.21 4947.24 5367.73 3645.12 3875.05 6200.54 3456.47 5148.58 4199.45 7234.66 4886.12 6419.12 4233.8 4976.12 6098.95 5453.98 3991.42 4388.63 5102.75 4834.87 4597.29 5938.17 5931.77 5097.95 5398.64 6817.57 3573.73 3614.96 4693.52 6853.04 3886.68 4745.43 5831.96 4747.55 3056.7 3755.95 6234.32 4586.19 4446.06 3450.93 4270.74 5132.68 6595.03 4558.15 6218.95 5222.16 5107.23 5136.08 3776.94 5558.68 4802.32 4010.57 5629.39 2684.03 5246.47 6157.04 4768.61 4522.21 5506.19 6719.94 4950.67 5832.37 6166.29 5453.6 5409.63 5294.77 4709.05 4630.82 4043.66 4813.08 5860.67 4540.86 3764.1 4835.83 5604.35 6316.56 4332.87 6420.81 4715.58 5151.52 4450.7 5369.08 4347.74 5291.9 4009.62 2081.58 6505.78 5461.55 6519.43 5424.46 4857.84 4908.49 4962.21 4858.44 3468.42 4673.35 5689.26 4992.42 5297.19 4940.84 4351.38 4833.46 5933.7 6045.67 7248.4 5280.12 3946.28 4444.97 5984.81 5439.9 4409.27 3540.11 4640.06 4588.99 5471.74 4652.01 4344.34 5421.64 3548.39 3583.49 3673.28 4207.54 4858.51 3375.28 5625.65 4301.61 6107.89 4446.84 4817.16 5660.55 5148.08 3718.69 4514.79 3672.21 2216.82 5760.22 4509.89 6752.75 4795.43 5269.38 5607.3 5108.06 2928.82 4222.4 4000.43 4568.41 3420.08 4912.04 4539.07 5464.68 2685.81 5591.76 4585.31 6625.18 5010.04 5323.91 5097.45 6293.89 2761.07 5737.75 4983.39 5366.52 4690.55 5533.72 5533.42 3678.08 4599.38 5518.57 4187.31 6191.29 3240.51 7422.36 5161.01 4298.15 4628.4 6051.83 4642.93 3973.12 4263.16 3077.84 6024.75 6109.49 5567.93 5987.42 5332.65 4442.22 6451.33 5413.31 3012.99 6400.08 4743.59 5208.14 3317.83 3763.05 4396.25 5092.24 3101.75 5423.42 4518.04 4766.06 4874.18 5435.19 3298.2 4270.15 6865.76 4953.1 6449.64 6464.8 4684.44 4749.59 4680.94 5799.69 5571.72 3809.69 3208.96 4771.13 7051.9 4184.23 4144.57 5550.75 6834.41 6226.14 5466.33 3000.29 5721.05 3498.16 4209.31 4247.69 4514.39 6242.79 4321.21 5950.45 5713.03 4928.27 5052.84 4366.74 5297.16 3184.64 4936.96 5206.33 5530.49 5065.26 5653.03 6192.0 4940.28 5885.28 3004.34 3022.6 4811.76 4914.45 4698.87 4661.03 5160.59 3624.7 5262.35 4691.91 4475.83 4255.34 4510.8 5889.35 4394.56 4570.98 4275.07 5825.38 4185.61 4047.87 5742.47 3778.02 4917.99 6552.21 5417.8 5146.37 7132.12 4836.16 5300.96 5151.11 5463.48 5730.33 5545.46 4527.99 4376.7 4543.1 5190.61 8325.01 3764.06 4440.81 5941.9 5434.47 6642.76 5829.22 4497.78 4243.79 5811.18 5433.65 4008.15 4887.76 4669.06 4811.32 4286.49 6184.88 5829.32 5551.95 6405.0 3918.87 5549.49 2275.45 6605.86 4901.2 4383.56 5012.5 3562.79 7093.13 4516.53 5818.95 4093.99 3940.49 3604.14 4452.54 4406.05 5089.1 5828.35 4028.32 5876.72 5236.43 4884.59 4099.92 5285.07 3858.06 4680.14 4608.41 4083.79 4187.94 5980.59 5021.77 3796.15 4801.8 7216.98 5271.02 7013.17 5718.28 4601.74 6506.86 5088.57 5580.34 5849.65 3852.6 5134.67 4165.21 4215.0 4603.5 4481.76 5452.78 4356.36 4304.41 4892.44 5578.94 7610.49 4286.17 6579.31 5323.55 5375.1 4172.6 5313.12 5351.56 3984.88 4732.09 4320.42 5064.79 5480.3 7509.24 4146.81 5896.26 5388.78 6101.13 4573.72 5099.21 4367.78 5636.4 4350.12 5227.02 5670.0 4232.16 4344.51 5680.94 3781.77 5581.55 5193.01 3474.5 6550.44 3860.83 6348.03 5732.27 4523.39 5278.56 5146.37 6917.62 4013.38 5631.14 4343.78 5263.3 3352.35 4909.65 6523.86 7693.4 4326.48 4437.07 5491.9 3449.37 4659.16 5789.55 4909.31 4633.05 6522.59 5711.62 4798.17 4990.79 5166.79 6479.39 2895.63 4122.92 4997.91 5079.22 5381.54 5810.77 2711.19 4714.83 5474.15 7519.2 6355.68 4478.6 4511.7 4304.63 5263.27 6300.92 4173.54 3928.53 5599.29 6038.68 5046.12 4807.4 3805.67 4590.01 6101.86 4227.41 5993.0 4803.57 5966.42 5775.31 3332.49 4110.59 4706.5 5354.66 4647.67 5375.12 4787.97 3746.36 6789.23 3989.7 4777.03 3684.56 4246.61 6028.09 5452.36 3804.5 6486.37 5498.42 5318.53 3344.57 5220.76 4281.98 7165.9 5344.83 7046.11 4449.98 3427.63 4863.97 6342.48 5756.75 4587.67 5599.7 4163.74 6969.28 3665.95 5698.96 4095.75 3319.67 3603.51 4298.45 5222.51 4076.59 6609.84 5135.96 3834.43 5658.37 4707.06 6074.94 5491.37 4250.88 3783.54 3475.67 5268.38 4792.39 7038.89 3863.67 4814.12 5067.56 6137.8 2735.53 5116.6 3747.03 2783.85 4356.49 4526.81 3994.07 4219.94 5907.46 6740.71 4264.91 5399.29 5971.22 5533.19 6602.43 5425.98 3568.28 5996.66 4405.42 3598.08 4599.81 5698.23 7300.58 3608.06 6633.61 5217.95 4867.7 5484.36 3953.55 4277.24 4063.9 4469.54 4314.56 5291.05 5161.1 4619.2 5606.51 5740.65 3834.47 5067.56 2596.96 6349.67 6329.53 4139.3 6541.45 4750.49 5078.31 5391.48 4923.43 5131.15 4847.14 3950.27 4214.44 5116.66 3566.79 5378.23 5374.67 4981.43 4215.2 4741.28 5069.89 4157.29 6813.72 5327.75 4609.02 4896.65 4638.18 4196.37 5211.6 6448.66 4453.97 6945.98 5138.2 5783.48 4701.5 4504.35 4771.65 4840.44 5093.82 5951.81 3924.14 6918.35 4296.69 4834.3 6238.32 6804.79 6471.42 5283.8 5369.5 4428.14 5164.1 6464.15 4479.11 4972.17 6685.4 5699.53 4222.77 4850.06 6332.01 5527.23 4234.18 4805.33 7085.01 5980.95 6193.08 6069.3 3862.77 5887.01 5168.35 5388.39 3185.39 5335.47 3728.18 5633.61 5048.19 4243.26 6799.23 4888.27 4592.15 6487.56 4854.11 4998.22 5417.21 6104.26 5583.61 6063.64 4986.71 7382.3 2995.67 4022.56 5522.21 3772.3 4855.01 6208.9 4923.57 3340.09 6061.63 2279.05 4829.35 4075.28 8137.11 5484.32 6650.77 4067.96 5166.41 7104.73 6162.3 5701.75 4350.15 4264.54 3516.27 4643.9 4263.78 5228.75 6047.14 5009.83 5210.38 5717.8 3629.44 5003.78 3299.24 6246.56 4061.6 2603.64 5473.72 5107.0 6212.15 6502.97 4783.07 4946.23 4852.58 6083.28 5806.31 3556.79 5456.71 3503.41 7317.04 6412.67 7001.83 5012.97 4036.91 5589.37 5439.49 6639.64 5212.43 5454.12 6348.54 4066.57 5642.35 6372.13 5404.01 6016.19 4124.49 3230.13 5714.25 6176.67 5325.96 5412.24 5016.02 7044.29 4920.21 4049.16 5851.61 3936.95 6153.94 6836.82 3858.17 4631.99 4740.98 5128.77 5934.82 7122.87 5797.36 5001.58 4153.84 5119.86 5089.26 5084.17 4901.44 3776.8 5096.43 6156.21 4653.83 2460.79 6171.71 3628.89 6589.82 4668.88 5027.43 5522.75 5867.64 4438.58 6059.93 5602.53 5073.02 6545.43 6760.92 4989.2 4711.04 7144.05 4506.18 2970.9 4824.12 4383.47 3272.75 5971.21 5261.19 7043.44 3831.52 4263.65 6106.43 4807.35 5467.63 5666.95 4642.2 4811.22 3683.86 4918.76 5293.75 4208.41 5826.78 2856.55 4553.68 5361.87 3758.22 4757.2 3205.68 5561.74 6100.73 4788.08 4745.79 5470.04 4908.75 3971.08 6204.65 4482.9 4593.7 4349.13 5110.11 6379.14 5216.26 3687.65 4887.52 5478.95 3851.85 6318.23 4206.98 5156.76 6357.47 6101.57 4891.38 5535.91 4793.65 2949.12 5955.86 4532.89 4533.37 4848.46 2779.99 5887.38 4581.37 6942.34 3658.05 5478.11 5526.31 5030.15 3644.78 3477.1 4078.93 6015.02 4501.78 4922.49 3572.94 7039.98 4820.17 4729.42 5244.98 3886.72 5415.45 5792.98 6592.93 4385.81 6350.71 6436.74 4456.11 5096.24 3908.98 5039.12 5769.14 6328.42 7307.21 3381.82 3619.72 4646.51 4565.93 7107.63 4831.93 5788.97 3472.91 4023.93 5868.89 3274.85 5007.21 5494.28 4099.26 5206.47 6542.5 4834.39 5493.89 5262.47 3104.96 3512.94 4991.35 4587.7 4258.98 3787.08 6761.81 3903.91 4568.64 3919.62 4127.53 5210.75 4474.83 6555.44 5658.14 4508.18 6214.73 2205.51 6358.93 5175.89 3894.64 3703.49 4268.19 4374.74 4062.56 4532.7 4504.86 5975.23 4198.94 4473.29 6163.54 4211.82 6556.26 5684.25 5438.92 6550.4 4891.67 3766.69 6818.91 3503.65 3634.5 4027.63 6631.28 6571.31 4392.65 4058.87 5174.75 5932.07 4984.46 5948.71 3856.53 5460.89 6040.74 5260.85 5742.09 2884.65 5807.46 4648.21 4393.16 3311.29 4549.69 6423.81 6192.77 4312.15 4583.52 6418.11 5244.22 5585.14 5832.29 6456.58 4159.81 4960.64 4034.05 5690.96 5798.38 3862.91 4125.9 5366.11 3419.87 4824.81 5113.6 5944.3 3563.14 5135.5 5347.9 5851.63 4504.52 5212.92 5615.84 4464.73 4928.85 6440.38 5556.0 5545.59 4954.81 5610.53 5755.15 4580.06 4835.97 3926.11 4057.17 7066.96 4467.0 4994.65 5196.92 5644.81 5334.36 4728.55 4929.6 5750.35 4489.99 4548.45 4658.11 4551.26 5730.61 7124.45 5064.67 6618.21 5232.85 2617.39 3717.47 6200.63 6816.66 3217.67 5079.64 996.652 5212.37 6003.78 2628.22 5058.51 4244.49 5036.98 5513.8 5188.53 4521.75 5569.2 5350.88 5420.67 6413.15 6103.11 5048.55 6459.51 4024.31 4955.16 5844.72 3992.97 4147.31 5989.05 4054.22 7228.94 5393.65 4961.99 6551.93 4595.12 3110.13 6484.43 4625.67 3485.54 4458.64 3657.69 4883.63 3492.83 6280.13 3684.15 4730.14 2606.51 4438.76 6006.89 3814.65 3965.3 5372.82 4983.3 7778.01 4402.17 5127.82 5124.17 5805.1 4064.58 4234.88 4834.44 5782.43 4384.28 4456.26 4810.98 5091.22 6282.38 5640.72 5657.55 5727.79 5188.82 5043.14 4717.73 5072.5 3904.07 5748.9 3663.0 3742.31 6304.49 5134.72 4608.34 6419.64 5464.83 2781.96 4431.23 5917.34 5601.55 4462.87 4013.86 6545.99 5630.9 4554.68 4368.28 4692.32 4945.0 3127.83 4212.15 5114.07 4385.49 4263.18 7142.95 4559.74 4383.68 5836.26 6666.67 5144.44 4051.18 4583.94 5969.37 4928.35 3844.54 5034.69 4509.46 3538.53 4680.69 6500.49 5965.58 4972.18 3352.34 4050.03 4901.29 4124.76 4775.04 4120.07 4882.66 3429.57 6746.66 5410.33 4642.74 6735.97 5305.59 5416.45 4330.58 5754.6 3288.01 4904.51 4355.83 6870.97 2202.77 5751.15 5950.88 4149.55 4441.22 5853.89 3380.69 4140.4 3639.44 4386.8 5446.4 4725.01 5966.75 5510.9 3743.76 4505.28 4971.29 6711.21 5510.45 4941.02 3994.39 6119.99 3864.92 4128.1 4618.73 4446.58 7541.76 5401.4 5053.15 5910.86 6239.68 7320.78 5667.51 4708.31 4027.33 3873.92 5026.76 5023.41 4092.07 4546.44 4224.3 4184.21 4700.07 5273.37 4732.37 4985.3 5713.36 4749.18 5553.94 4546.96 5424.55 4921.1 3814.16 5695.79 3622.8 5414.58 5577.41 5740.98 4346.07 5759.79 4177.47 4218.16 2918.64 4140.92 4512.07 5984.8 5236.24 4585.04 5678.58 5260.52 3185.09 6570.35 4242.63 3269.54 6015.22 4454.74 6063.44 4826.52 5046.31 1937.5 4337.32 5241.75 5849.53 4651.99 4420.11 4788.7 5863.0 6127.39 4607.18 5329.76 3899.7 7200.89 4813.33 4952.52 3840.21 4081.34 4954.76 3908.56 4844.83 5244.78 3636.15 6114.89 5135.63 6384.7 5952.38 3896.27 5351.86 6056.87 5474.01 5307.35 6201.86 7554.58 5166.89 4731.21 5491.63 5725.37 3868.62 5138.33 3425.69 5153.18 4763.4 4236.86 5454.11 5393.76 4983.1 6010.59 2955.36 3668.93 7123.04 4009.24 5906.57 4932.29 4775.49 4681.29 3220.29 5499.59 3845.9 5749.6 4439.71 4141.21 4564.41 4198.9 5431.29 4252.18 4833.67 5325.91 4213.05 5853.12 5157.38 6203.03 5235.87 6089.45 5810.17 4966.07 4657.24 3669.32 4400.14 4704.92 4316.0 4287.25 4392.75 4271.07 4420.6 4475.38 5287.25 4770.51 4184.47 6511.37 4012.92 3999.5 5034.05 4598.54 5218.42 5345.73 4933.49 6139.64 4896.43 5463.06 4639.8 3986.41 4462.35 6102.49 5114.23 5495.0 7407.91 5064.23 6061.85 2904.46 5512.44 6449.06 5120.92 4685.4 4731.53 6240.42 3763.9 5721.14 4577.73 5084.5 5640.12 6638.25 2403.72 5078.59 5134.33 4147.49 4802.98 4833.55 3646.95 7224.99 6334.53 4749.96 5377.37 5652.87 5483.7 5018.69 3152.86 5973.89 5807.52 5963.36 5230.02 5087.14 4342.18 5169.48 6016.08 6776.22 3124.7 6064.71 6102.98 6060.17 5136.87 5902.67 4708.17 5806.61 3779.45 5784.37 3142.09 3682.35 3756.96 6245.52 3954.77 4990.23 3784.94 3125.13 6016.87 4174.44 6715.73 6331.74 5426.4 5951.86 4659.88 5357.39 3791.41 5247.01 4208.37 5702.4 5069.9 952.938 5473.89 3306.84 3673.6 3450.07 5265.21 5191.26 5866.42 4762.1 3987.69 3484.81 6502.99 6219.34 4191.01 5674.63 4589.06 5340.05 4920.88 5890.25 4216.44 6710.14 4426.02 4816.51 5188.22 4770.63 4841.23 3990.94 4756.8 4357.11 5477.8 6069.78 4241.68 5532.75 3469.18 2945.34 3372.95 4489.29 4301.93 5846.95 5268.15 5819.0 4924.07 3200.6 4629.02 5146.0 4288.45 4987.28 4918.64 4759.99 4815.47 2646.13 5419.57 4365.58 5214.4 5162.67 5760.98 4705.68 5469.35 5384.86 4019.34 4658.24 5869.67 4311.48 4899.73 5457.66 6394.19 4848.14 5366.22 6193.73 5518.11 3742.11 5712.35 5701.52 4743.9 5321.17 3719.11 4869.25 4467.13 3877.8 6273.6 3667.93 5024.32 2741.2 5790.42 4644.88 7350.26 5591.77 5182.13 6110.48 5003.3 5106.46 6793.1 4506.66 5515.73 5209.55 5866.91 5763.05 5129.68 4825.73 5076.84 4841.7 5685.74 6740.35 4678.7 4550.92 6215.87 6060.06 5544.27 5393.43 5308.33 4666.12 4685.65 6023.07 5995.4 5322.11 5700.79 5735.08 4726.2 4711.15 3825.48 3810.68 2804.54 4196.62 5005.6 4176.32 4549.51 6949.65 4095.83 5695.25 5676.61 5716.42 5701.63 4620.95 6347.72 3460.93 4488.39 5124.86 5914.5 4927.73 6006.16 5407.96 6206.98 4071.75 6562.03 4410.82 4368.12 3889.98 4636.53 3629.49 5766.05 5117.64 3835.81 3916.42 4869.48 3623.19 4906.11 4387.39 4745.16 4564.1 5825.55 5509.51 4316.5 3199.4 5254.24 4192.21 4914.03 3597.43 5086.29 5144.56 4158.91 5139.18 5311.55 3360.86 3034.16 5049.99 5545.21 4201.03 4333.87 5001.87 5684.05 5638.7 5813.79 4028.22 5293.13 3852.82 3768.46 5167.53 4168.52 5800.81 5403.97 4068.31 6562.92 5166.05 5077.29 3671.06 4850.5 5233.76 4683.28 2820.07 6405.69 5679.74 4165.36 5288.33 4871.77 6296.54 5797.21 6019.35 6028.63 5146.1 6485.77 3869.39 5960.5 6896.55 5377.01 6470.23 6506.63 4140.04 3495.3 5125.17 4697.49 7133.44 4750.81 3953.26 4474.39 4658.59 2809.19 4916.7 5486.89 4104.04 7208.19 5025.42 3587.93 4975.85 5196.08 5323.95 4495.75 6171.01 4603.04 5368.93 6121.56 4602.57 3565.32 4608.62 3419.07 4626.72 5344.44 5131.77 5549.71 4967.51 6443.99 7212.97 5193.58 5399.43 5695.44 3422.21 5429.3 5510.96 6653.07 5532.72 4697.91 3220.8 4584.81 5071.98 5719.79 4371.08 7261.51 4968.14 5949.73 4312.48 5527.13 5551.43 4278.57 6318.25 6008.81 4493.79 4279.44 4899.19 5058.34 5575.11 3918.94 5487.63 4507.36 7145.73 4795.08 5501.73 3612.44 4697.24 7035.54 4983.43 4217.36 6549.8 4851.18 5368.52 5811.26 5155.28 5062.77 4884.93 6075.99 5262.79 5927.2 4419.79 5035.71 5407.69 5152.78 4117.9 4753.76 4781.9 4638.09 5330.26 4441.91 5939.22 4668.8 4215.05 4271.93 4859.01 4604.1 5524.45 5076.11 5990.75 5600.21 5459.92 6478.35 5453.77 5353.66 5589.53 5593.79 4965.24 4517.29 6257.79 4849.5 5796.26 6229.83 4870.94 5578.18 5271.88 5559.79 7168.2 3763.85 4571.74 4096.86 3622.48 5710.33 5001.51 6432.8 3186.07 5115.42 4369.86 5482.76 5173.82 3720.7 5490.64 5698.53 5034.34 3604.31 3769.2 4507.46 5036.14 3468.45 5603.68 4944.51 4526.34 5610.95 5042.75 5179.17 5579.39 5270.51 5148.1 5490.75 5224.64 5214.63 5783.94 6370.33 5081.08 4202.77 5836.14 6864.06 5537.34 4932.56 5192.49 3487.31 5726.42 6643.4 4674.9 5461.72 2549.95 3392.26 6599.28 5138.93 6224.85 5368.66 4556.19 5648.78 6875.73 5226.42 6081.3 5117.52 6311.89 6734.39 5942.45 4150.76 5005.72 6142.88 5111.26 5388.73 5205.38 4600.71 4764.83 3957.38 4494.15 4710.88 4416.87 5300.17 4057.4 4896.67 5534.23 3934.11 6025.77 6815.96 5339.6 5828.25 4725.11 3626.86 6371.96 5322.07 5770.07 4282.11 5467.51 4625.53 4096.47 4542.16 5114.67 3543.37 5030.33 2638.82 5234.2 6379.38 5327.05 5438.55 5353.23 4468.26 4523.81 5106.33 5293.37 5198.94 5933.54 5464.05 5879.24 5740.78 3148.79 4796.12 5997.91 5385.86 6791.86 4082.4 4209.0 4930.72 3745.02 4211.36 4887.73 5378.24 4450.49 3856.73 5887.71 5635.32 4827.61 4316.45 5409.08 5481.64 4598.92 5241.22 6647.08 4979.52 3422.29 4407.79 6548.29 3495.68 5352.24 3990.96 7362.42 5793.12 5473.05 4373.2 5884.99 7025.09 4433.12 7336.37 4361.24 5099.9 6406.8 7086.69 6170.9 5833.78 4436.48 5758.98 5615.35 3967.76 6213.24 5987.88 4228.53 3579.59 6123.46 5057.59 4461.14 5285.6 4574.54 4949.55 1969.87 3132.34 4841.28 4047.95 5507.38 6889.5 6581.56 4052.43 3980.46 5383.9 5158.44 4466.22 6153.71 5917.08 5483.37 5418.12 4714.66 5101.6 4656.01 6589.13 2347.41 5602.62 2030.03 5714.51 5628.97 4484.78 5527.27 5104.39 4612.13 5846.6 4109.44 4903.84 4434.65 5977.66 5209.5 5065.74 5791.25 4028.35 4873.23 5410.6 2980.31 5453.2 6824.53 4742.82 4332.64 4820.68 6031.22 5728.58 6424.77 6297.99 4538.89 5817.74 5661.6 5285.75 5385.03 4169.15 5673.75 5360.67 5968.54 6263.3 4501.05 5592.54 4537.03 4114.2 4904.37 4326.06 5034.46 4651.64 5757.29 5016.46 5469.17 5061.75 3769.24 6022.78 4087.32 6647.85 2569.12 4161.32 5161.74 5932.28 6945.69 4298.7 5118.86 4304.64 4183.4 4733.79 4823.06 5254.49 5288.64 3757.23 6828.8 6883.86 3350.99 6161.94 4065.28 5939.29 5418.98 5615.06 5490.54 5203.54 6189.67 6142.94 5001.69 4061.87 5165.31 3798.09 3886.56 5715.51 4496.51 4511.05 6561.94 5259.21 5092.93 5934.05 2803.01 6771.18 4984.17 5327.39 5781.62 4037.86 4981.81 4138.59 4938.33 5157.73 4621.33 5847.91 4541.22 4934.66 4984.01 6217.33 4290.49 6688.53 4557.1 6175.27 5876.51 6731.89 4733.41 5264.83 6348.93 5136.51 6815.51 4422.23 5232.16 4457.05 3989.26 5485.84 3618.64 4335.79 5453.69 5918.95 5432.04 5689.56 6556.86 3242.31 6099.28 3234.26 5372.25 4778.37 3494.16 5134.17 4074.16 4904.35 3247.97 5390.33 5124.34 5278.54 4358.81 5729.0 5729.92 4179.87 6224.13 4761.84 3661.67 5370.1 5517.65 4009.68 5114.51 4622.73 3303.49 5585.25 5256.75 6351.89 2960.5 4975.32 3902.48 5237.55 3909.94 6030.39 4905.53 3799.01 7392.65 5319.1 3038.91 4181.93 6570.43 3820.19 4979.5 4745.37 6200.05 5575.11 4052.49 4034.41 5061.74 5326.03 4420.35 4948.96 5117.83 5256.82 4013.86 4288.5 4585.37 3721.69 5395.12 3456.3 6074.39 5317.83 4256.08 5881.93 4444.0 4399.52 4554.24 6182.19 5910.66 7415.84 5141.03 4970.55 4840.44 8123.59 5765.14 4767.54 4946.08 5121.08 3539.68 4696.03 4605.39 6270.59 5927.1 6500.45 4907.55 4103.76 4286.61 2932.52 4603.66 3901.53 4969.68 6636.43 5431.14 5313.86 5178.07 5189.91 5777.26 5703.84 3530.82 5797.32 4886.99 3921.27 3702.45 3161.1 5265.63 4898.29 4431.06 5730.2 4830.13 5620.88 5370.9 4529.77 4325.13 4262.74 6172.27 3783.79 5078.73 4248.14 5279.19 5192.92 5275.57 4786.66 5891.25 5095.52 5129.4 3720.38 4655.37 4731.37 5023.61 4672.86 6530.78 5059.37 5560.23 3043.77 4139.39 5783.38 6264.03 5088.64 3562.8 6589.8 6920.92 3729.16 3783.36 3573.84 4067.89 3922.28 4571.57 3445.92 5236.69 4586.82 6026.04 3133.28 5859.17 4150.44 5522.34 5771.98 2649.69 5899.78 5717.45 5772.57 5268.27 4645.93 5244.95 5448.64 6417.61 3830.7 5783.69 5350.9 3483.61 6738.9 4460.89 4157.1 3939.96 4867.12 4637.3 1458.87 5734.07 3997.68 4819.83 4801.16 2927.84 6177.68 5688.77 4698.7 2848.44 6045.26 5743.8 4094.63 5084.76 6605.11 4757.87 3557.46 5971.95 6298.8 3689.24 3979.46 5151.19 4171.02 7012.36 5028.06 4002.99 5587.3 5159.67 3572.73 4864.38 5764.52 5684.88 6523.78 4645.86 4045.67 6005.95 4941.52 4308.49 5900.0 4581.1 6241.77 5317.19 7360.12 6223.98 4016.6 5821.49 7050.08 5580.44 5998.13 4746.15 6275.25 6892.33 4758.84 4452.36 4068.41 3976.0 4832.21 6463.71 4742.35 5394.79 5645.54 5264.08 4151.74 4526.87 5192.82 5245.95 4174.22 5821.42 4515.02 6294.09 5131.07 2970.24 4121.07 4197.87 5524.28 5105.54 5731.43 6353.81 3414.67 3518.14 5444.36 5044.68 6908.32 5000.74 6153.26 4813.81 3882.37 4634.25 5901.8 6351.48 5357.33 6210.0 5432.4 4262.52 7430.48 5992.06 8052.53 4970.12 6044.01 6520.19 5973.57 6241.48 6033.28 6286.27 5071.38 5616.66 4802.36 5368.28 5466.13 6229.64 4220.43 6263.87 6666.34 4645.91 6834.92 6379.33 5652.73 5402.45 6321.97 6509.54 6412.84 2589.19 6119.0 3792.06 4293.3 5128.59 4993.49 5310.33 6583.37 3770.22 3688.83 4390.64 4848.98 5150.84 4608.01 5184.98 5087.97 5339.82 4519.03 4930.17 5110.27 4745.44 4085.96 5762.82 4612.68 4232.33 5462.6 5617.29 3035.06 5770.92 4262.19 3093.38 4597.88 4845.91 4878.93 4505.3 4491.26 4511.34 5704.61 5009.21 4379.91 4574.03 5290.37 4227.66 4691.01 4594.89 3677.85 5214.71 4677.84 3463.53 4924.52 6126.03 6044.69 5658.05 5462.1 6032.45 5011.37 2827.92 4026.03 3467.11 5336.61 4817.75 4848.15 5637.53 5523.81 4095.4 4718.61 5188.57 3873.79 5717.67 5252.37 4499.54 5037.58 4046.22 5640.67 5545.68 6080.69 4967.93 6369.66 5678.08 5922.62 5125.45 5957.82 4188.16 6327.54 5507.07 2943.17 5327.71 4880.78 5257.38 5075.23 4975.56 7282.36 3826.01 5581.01 3928.99 4125.75 5749.53 5130.57 5090.48 3985.93 6071.59 6079.55 3856.4 5485.61 4937.36 5308.4 4569.32 3402.44 5537.61 6084.88 4491.96 4397.06 4199.44 4467.51 4053.12 4479.5 6261.67 5460.57 5065.78 5703.34 4521.42 6668.98 6649.52 6043.34 4939.56 4747.68 4712.17 3808.04 4723.71 2002.78 5631.32 4461.67 6322.0 5793.14 4609.65 6345.2 5128.03 5410.73 5087.3 4942.63 6139.74 5850.38 7066.26 4730.97 6150.31 5873.62 4996.91 4811.11 5379.52 4866.8 5314.67 5563.47 6593.1 4066.36 4000.51 3162.27 6033.93 5092.44 5516.37 4441.44 5432.2 4232.44 4612.4 3312.3 5563.09 4746.19 6381.58 4439.09 3282.57 4798.13 5648.59 6697.45 5515.59 4432.32 3224.81 3775.38 5782.25 6457.89 4844.2 6572.17 3751.73 5555.89 3374.62 4766.47 4871.1 5872.45 4414.09 5191.29 3784.68 3717.22 6649.21 4654.92 4859.95 5286.55 4322.56 5522.18 5509.09 5625.02 3873.72 5212.05 4829.77 6474.5 4444.92 6959.88 5971.9 5247.73 3746.62 4876.37 5034.02 4769.62 5582.28 5945.25 5181.31 4696.06 4137.16 5475.83 6189.29 5984.55 6581.13 5803.3 4721.98 5252.82 3543.98 5056.26 5878.55 4014.44 3435.13 6604.72 6002.77 4431.46 3794.47 4610.55 3207.84 3977.98 5400.69 4128.93 4462.5 4959.72 5573.31 5004.68 4023.88 5348.11 6126.5 4405.61 4034.88 6007.1 3511.5 5067.92 5488.96 3188.21 3720.92 4793.06 6637.38 4975.57 6916.18 3057.3 3868.69 3920.44 4450.51 3768.62 6033.72 3851.47 4966.74 4959.94 5651.46 1635.31 5639.4 6185.73 4083.24 6520.96 3771.91 5217.62 6178.19 4616.81 5212.2 5108.42 4630.5 6296.36 4451.76 5237.27 7885.41 4907.03 4104.97 4575.72 5114.61 6118.13 4420.3 4926.62 6332.64 3917.09 6009.93 4083.1 5270.1 5130.56 4947.64 4957.99 6305.9 4997.89 4542.62 3470.69 5093.28 4132.08 5223.1 4850.49 4592.49 3625.98 5479.86 4702.32 4763.04 5944.52 4413.56 4532.67 5316.05 4908.32 5260.13 3995.08 4649.5 4810.74 5985.75 4149.17 4329.8 5672.46 5202.33 3228.27 3956.24 7558.99 4142.1 5043.14 5445.91 4812.59 6842.54 4967.02 5675.45 4614.49 6038.56 2807.46 5599.16 4179.8 3488.34 5658.35 5428.24 5108.84 4582.12 4520.14 5357.14 5919.27 4850.95 6271.22 3421.81 6188.33 3920.64 6111.23 5786.06 5822.7 4137.41 3780.07 5466.49 5447.74 4038.17 5007.41 3692.99 6213.74 2329.93 6938.87 5412.07 5512.57 4806.99 4813.55 5856.43 3839.0 5349.85 5799.86 5715.25 4362.94 4611.21 6545.78 3354.94 4870.14 4404.87 5105.72 5767.65 4750.76 4216.33 5497.27 4081.77 4948.21 2181.29 4987.01 4202.12 2694.25 6492.44 4613.32 3482.73 3996.93 5145.39 6351.95 5195.09 4063.26 5345.05 7679.2 6131.52 4311.92 6009.88 4699.77 4981.55 5093.41 5144.23 6188.62 6153.07 4414.06 5908.57 5050.2 2513.38 4821.41 5616.11 5019.84 4499.52 3900.93 4028.13 3874.12 5784.38 6476.35 6260.58 5728.27 3074.49 4067.24 3053.19 6571.26 5580.95 3393.59 3549.92 4032.06 5246.81 5333.04 5089.1 5888.95 4521.99 5394.78 3463.34 7115.67 2853.68 3361.11 4998.37 5329.84 6559.82 3879.83 6565.95 4577.98 4487.51 5886.81 6805.02 4295.25 7394.47 5354.48 4729.45 5374.09 6261.13 4167.55 4720.34 5378.75 5244.47 5510.89 6186.24 5282.67 4159.89 5178.55 5146.69 4907.48 6818.23 4369.87 5652.19 5806.74 6578.62 3465.03 4796.04 5229.56 6011.4 5172.1 6052.22 4469.82 5376.41 5003.63 4695.7 2932.2 4944.08 4082.01 5003.49 5269.39 3964.03 4305.35 5210.22 5832.72 5617.91 4721.2 4444.95 5161.02 4706.31 3124.49 6265.48 4735.99 4203.68 5003.81 4739.56 3818.37 3352.46 4701.03 5434.04 5200.1 3997.52 4881.51 2626.41 4909.74 6729.99 5310.33 6664.54 6842.35 5464.34 5259.48 3621.63 4777.96 5801.89 7296.47 5742.39 4780.16 4924.53 5738.37 4433.23 4813.24 5759.19 4457.73 3113.64 4304.75 5480.86 6139.9 4313.38 6598.99 5250.56 3633.58 2468.16 4339.97 5203.75 5169.09 5122.38 2459.88 5262.85 5470.67 5901.71 5342.9 5733.12 5043.34 4246.24 6436.29 5402.81 4600.81 4919.13 5640.63 4900.26 5002.38 4865.11 4731.16 6470.87 4495.33 4131.08 4465.56 5747.9 3864.19 4287.93 6203.24 5081.65 4488.41 6679.12 4621.32 3878.8 4698.94 6284.12 3948.21 5669.15 5296.05 5263.86 4672.34 3330.85 5056.32 5533.52 5410.33 4747.24 4380.86 5576.16 3308.75 4439.17 2451.27 5677.42 3903.9 5606.22 3943.77 6081.35 6262.18 5566.5 5663.36 6225.05 5579.04 5125.53 5994.21 4444.54 5779.9 6964.78 5299.03 4565.36 5161.73 3922.98 4025.08 4008.67 5254.93 4803.4 6833.5 6608.94 2613.78 5417.07 3834.01 5656.84 6789.66 4739.41 5312.2 5847.27 4490.2 4706.59 5734.84 3982.31 4950.07 4720.22 4582.24 2832.83 5827.3 6036.99 3010.1 3825.98 6294.14 5087.03 4667.84 3906.41 4691.15 4123.08 4512.6 4210.24 4260.38 4636.45 4932.27 5225.11 6793.49 5252.22 6060.19 4962.35 4333.23 4328.76 5168.97 4124.33 5783.88 4358.06 5647.93 6705.93 6201.49 5449.09 5502.14 4605.61 6898.8 5386.95 5332.11 5315.71 6158.93 4823.14 5373.78 5438.5 5345.65 5863.36 5699.4 5237.76 4286.84 6423.96 6058.13 6988.4 6635.51 4060.17 6051.35 5302.53 4909.13 4287.61 5648.02 4604.34 4863.27 2701.42 4929.35 5442.79 5051.39 6673.92 5242.38 4884.94 5459.52 4609.98 4738.72 4752.31 4276.59 5405.6 3929.35 5403.81 5082.25 4374.05 4287.15 5036.84 5813.68 5732.11 3618.53 4770.21 5596.68 8013.28 3846.55 3796.73 5283.65 3082.16 4644.68 5416.41 4694.27 6760.64 2515.5 5177.88 5551.79 6981.47 3916.15 4474.96 4084.87 4790.63 5259.29 3584.05 4589.22 4818.53 5097.85 5584.64 6189.04 6224.64 4221.03 3799.55 5082.66 5638.51 4550.77 4337.93 3563.33 3550.88 4345.51 5536.0 6786.37 3860.8 5145.13 3747.96 5561.63 5940.5 5093.51 5004.22 4280.92 5154.74 4696.92 6437.99 6632.04 6540.57 4893.72 4977.64 6004.72 4072.4 4983.56 5699.51 4489.18 2489.44 4883.13 4632.75 4752.94 4994.98 3950.53 5581.47 5894.69 4713.56 6779.82 3999.81 5543.67 4867.13 6377.45 4502.12 6853.07 5151.68 5733.59 5362.15 4455.61 6874.6 5240.97 5569.85 5523.96 4884.93 4223.53 4759.38 4733.37 4535.94 6960.97 4523.9 5282.51 5504.65 5669.41 4951.02 5040.9 3919.47 4602.7 4868.66 4004.39 5159.9 4987.48 2892.36 5943.61 5981.54 4248.58 5911.29 4542.25 4414.23 5233.88 4849.21 4785.55 3793.83 6189.81 5367.05 4758.76 4449.73 5647.11 4088.72 3945.62 4916.75 3743.85 6236.46 5342.17 6379.3 5015.67 3795.63 5189.4 6538.04 4894.15 5201.3 5848.41 4048.73 6223.33 5438.6 7370.52 5611.29 4521.88 6568.45 4601.54 4963.88 7263.57 5705.96 3832.09 5267.65 5739.69 3509.34 5360.88 7360.62 3166.37 5369.42 4985.45 5207.08 5205.53 4714.52 5499.37 5543.05 4836.76 5333.16 5551.09 5755.98 4501.1 5392.85 4384.91 6550.61 4987.01 5529.09 6094.34 5448.68 4739.5 6210.48 4491.62 4182.05 3865.5 3255.93 6327.61 4633.59 5575.8 5268.93 3695.72 5106.9 5306.31 3037.72 5126.08 5604.0 3760.4 3783.35 4037.16 6395.63 5479.17 5020.37 5245.4 4576.71 6157.59 4090.28 4246.83 4726.5 5467.05 3724.23 5103.3 5888.94 4727.98 5175.88 4122.2 4516.26 4790.16 3731.58 3647.26 4587.19 6028.89 4888.17 5077.2 4274.05 5275.27 4277.54 4531.46 5925.82 4072.95 
SCALARS Velocity float 1
LOOKUP_TABLE default
1.40829 1.61282 1.77092 1.70016 1.57646 1.69478 1.626 1.3271 1.31321 1.32504 1.20621 1.56805 1.89432 1.47211 1.61733 1.4842 1.52433 1.32044 1.31127 1.35239 1.32792 1.30605 1.2557 1.2072 1.22639 1.21608 1.19178 1.19178 1.20122 1.19169 1.20416 1.19178 1.19172 1.19527 1.1982 1.19181 1.19445 1.19324 1.19271 1.1943 1.19112 1.19807 1.21371 1.19543 1.19468 1.21103 1.19673 1.20355 1.21113 1.2048 1.21734 1.26327 1.13669 1.43656 1.16936 1.35735 1.35294 1.44234 1.34549 1.6626 1.57934 1.96845 1.05111 1.6729 1.63948 1.31932 1.47376 1.38613 1.29114 1.33461 1.39313 1.35543 1.4225 1.51117 2.07306 1.49192 1.33875 1.49463 1.49327 1.32494 1.34107 1.30983 1.29978 1.3198 1.26048 1.21492 1.23726 1.23366 1.18504 1.19784 1.21449 1.20769 1.19259 1.18456 1.20198 1.19632 1.19359 1.1912 1.19731 1.19716 1.19197 1.19185 1.1918 1.19909 1.19642 1.20645 1.18471 1.1878 1.19178 1.20537 1.19178 1.20006 1.21058 1.24906 1.21829 1.25803 1.19178 1.26355 1.30154 1.34179 1.50581 1.41873 1.29484 1.6425 1.60524 1.60182 1.21859 0.865124 0.715766 1.37942 0.909766 1.97468 0.396356 1.54914 0.841394 0.942144 1.19082 1.26435 1.25243 1.10901 0.993141 1.13345 1.22601 1.23246 1.54507 1.53172 1.41086 1.24779 1.17633 1.36798 1.31924 1.29839 1.29216 1.28661 1.21992 1.17126 1.23646 1.23285 1.17783 1.20468 1.18607 1.22278 1.20835 1.18791 1.20211 1.19651 1.19361 1.1912 1.19725 1.19976 1.19331 1.19142 1.19213 1.19962 1.19644 1.19541 1.21247 1.21 1.16498 1.19883 1.21752 1.21653 1.25328 1.21607 1.27827 1.20681 1.2971 1.28245 1.24732 1.4112 1.07011 1.21879 1.32013 1.16746 1.67728 1.49492 1.35598 1.11076 1.21228 1.15308 0.728865 0.890332 0.974711 0.931394 0.971369 1.04068 1.14653 1.15738 1.19626 1.26045 1.0491 1.11974 1.17289 1.11397 1.34268 1.37062 1.07537 0.855157 1.29674 1.21542 1.22353 1.08826 1.36258 1.30007 1.2113 1.30486 1.28539 1.20555 1.20202 1.23313 1.16696 1.23692 1.23079 1.22366 1.19432 1.22 1.19243 1.20797 1.18003 1.20196 1.19713 1.20047 1.19407 1.19743 1.1995 1.19126 1.19265 1.19332 1.20149 1.19631 1.18942 1.19356 1.18673 1.17968 1.19189 1.19178 1.19178 1.23617 1.17968 1.17781 1.22033 1.25283 1.11405 1.26171 1.4058 1.09019 1.21784 1.49026 1.64798 1.124 1.59924 1.46739 1.25011 1.1017 1.07936 1.10023 1.07396 1.07032 1.09669 1.10034 1.11482 0.873457 0.907682 0.99224 0.935281 1.0389 0.996735 1.05809 0.762712 0.870808 1.08534 1.13237 1.43308 0.627332 0.839314 1.18552 1.32153 1.27212 1.26298 1.30674 1.46118 1.49366 1.18131 1.2919 1.22753 1.19566 1.07871 1.23055 1.22991 1.22607 1.18401 1.22044 1.18506 1.17691 1.19724 1.169 1.20212 1.20216 1.19398 1.17923 1.19826 1.18952 1.19323 1.19412 1.20784 1.19469 1.19034 1.19923 1.18794 1.21941 1.20128 1.20439 1.19171 1.1398 1.27174 1.20687 1.22456 1.22607 1.14534 1.30235 1.17916 1.16249 1.03295 1.71299 1.08281 1.03262 1.11861 1.36385 1.34993 1.26925 1.30173 1.25887 1.13539 1.1464 1.09956 1.19064 1.19085 1.14574 1.0955 1.14341 1.15144 1.19846 1.21335 0.819706 0.840003 0.860499 0.923822 1.07447 0.842513 1.02223 0.966378 0.976222 1.04909 1.04788 1.05153 1.04999 1.18786 0.828732 0.947781 0.947354 1.13413 1.137 1.22825 1.34641 1.3968 1.10906 1.25683 1.17098 1.30504 1.25748 1.08978 1.1586 1.1708 1.1814 1.24234 1.23081 1.22639 1.18525 1.20026 1.18354 1.20438 1.19615 1.19194 1.19011 1.19563 1.19424 1.18323 1.19349 1.19464 1.19412 1.19736 1.19558 1.18648 1.19723 1.18809 1.20543 1.20048 1.19852 1.20872 1.14691 1.27732 1.21131 1.22761 1.25191 1.20353 1.15461 1.15038 1.24008 1.12009 1.134 1.07362 1.59108 1.17496 1.13031 1.20124 1.2709 1.18223 1.0383 1.42011 1.36076 0.916901 1.2875 0.995842 1.13907 1.12873 1.1835 1.20214 1.1184 0.82455 0.845726 0.831511 0.915528 0.911089 1.04936 1.15182 1.12323 1.05547 1.04323 1.01195 1.31564 1.1776 1.11114 1.04769 1.0021 1.00966 1.04486 1.11375 1.19717 1.14841 1.35514 0.982376 1.34411 1.08065 1.21683 1.3037 1.25511 1.1257 1.19255 1.2317 1.22571 1.18593 1.18324 1.17937 1.20282 1.19547 1.19214 1.18828 1.18874 1.18688 1.1975 1.19657 1.20801 1.19386 1.19446 1.19724 1.19544 1.18692 1.17852 1.19775 1.20619 1.18674 1.20957 1.15605 1.13492 1.29518 1.22421 1.21637 1.23283 1.21483 1.16956 1.21924 1.13902 1.11986 1.28336 1.22058 1.12233 1.06678 1.16372 0.983791 1.04439 1.13017 1.13174 1.05839 1.04312 0.712053 0.666662 0.779331 0.851057 0.463158 0.960103 0.949296 0.999397 1.19801 0.975144 0.912914 0.988797 0.866093 0.78626 0.879183 0.941091 0.995072 0.880016 0.788268 0.762541 0.916735 1.03027 0.967453 1.10532 1.22338 0.953791 1.0388 1.23982 1.04896 1.00067 0.954173 1.1364 1.03056 1.02003 1.00787 1.0337 1.06274 1.14394 1.37051 1.36488 1.00717 1.3183 1.09104 1.10295 1.27473 1.24808 1.27946 1.11945 1.20602 1.20823 1.19293 1.16865 1.23626 1.22608 1.18464 1.16556 1.18222 1.20258 1.19078 1.18866 1.18981 1.18939 1.19036 1.19178 1.18752 1.1972 1.18779 1.19518 1.19538 1.19654 1.19668 1.1904 1.2029 1.19982 1.22498 1.19497 1.21851 1.16921 1.13164 1.29222 1.22994 1.23696 1.1906 1.22251 1.13716 1.15605 1.16458 1.21295 1.18508 1.18288 1.17668 1.08781 1.05413 1.09561 1.08788 1.13804 1.20749 1.17598 1.08992 1.08576 0.966138 0.970405 0.828166 0.670441 0.699221 0.772558 0.815184 0.902206 0.92264 0.755939 0.740171 0.831101 0.871969 0.813753 0.835736 0.701494 0.98291 0.822896 0.751226 0.650912 0.879464 1.08382 0.930073 0.957177 1.01999 0.926551 1.08974 1.07487 1.04288 1.05994 1.06042 1.08585 1.19585 1.08781 0.923898 1.1127 1.20464 1.30505 1.22158 1.27138 1.22954 1.18773 1.17421 1.20079 1.17908 1.1317 1.22522 1.16608 1.18424 1.20322 1.18759 1.18681 1.19064 1.19015 1.1864 1.18977 1.19746 1.18806 1.1913 1.19448 1.19467 1.19513 1.20223 1.2047 1.21188 1.20254 1.23427 1.18565 1.13583 1.1323 1.2187 1.22164 1.19706 1.15925 1.20224 1.19847 1.16181 1.19543 1.13934 1.15226 1.17817 1.11485 1.10775 1.12325 1.24288 1.14712 1.01335 1.10765 0.929362 0.995187 0.898796 0.808416 0.760879 0.834644 0.873408 0.953516 0.9508 0.810264 0.757087 0.773751 0.793075 0.820755 0.855529 0.824515 0.7742 0.803145 0.81327 0.835358 0.811112 0.783893 0.714402 0.595077 0.239449 0.49218 1.64326 1.16593 1.05727 1.33293 0.986048 0.569791 0.58383 0.630506 1.18987 1.12017 1.124 1.10199 0.997126 1.00915 1.07001 1.08302 1.04234 1.0404 0.967104 0.961239 1.0088 1.13237 1.25599 1.13749 1.16296 1.04623 1.20835 1.2617 1.22033 1.18131 1.19703 1.17434 1.16327 1.19649 1.1645 1.18435 1.19217 1.18333 1.19528 1.18734 1.19128 1.18746 1.20316 1.18118 1.19282 1.19813 1.18996 1.19221 1.19383 1.19469 1.19459 1.19064 1.19448 1.20365 1.19257 1.20733 1.19973 1.16989 1.20991 1.15281 1.1874 1.16246 1.22212 1.2336 1.19232 1.20142 1.17303 1.17163 1.21493 1.12138 1.16238 1.19298 1.09549 1.13192 1.08737 1.26127 1.15201 1.11127 1.04709 1.06 0.912966 0.846827 0.844745 0.874291 0.911313 0.916211 0.953453 0.953717 0.919074 0.8377 0.755463 0.721246 0.860922 0.808646 0.815245 0.837872 0.81214 0.779598 0.789735 0.78938 0.757797 0.728237 0.670562 0.525096 0.751336 0.590002 1.01345 1.67861 1.00823 0.921852 1.04713 0.949389 1.06389 0.981578 1.00538 1.05347 1.08121 1.10517 0.994285 0.99809 0.996309 0.991818 1.03167 1.05781 1.0721 1.25297 1.17827 1.18519 1.19024 1.01973 1.17522 1.26566 1.21792 1.17989 1.17222 1.17006 1.19397 1.19412 1.1787 1.18987 1.1839 1.18896 1.18555 1.19212 1.17873 1.20329 1.18048 1.19152 1.19763 1.19318 1.18908 1.19307 1.19459 1.19557 1.19576 1.2033 1.19356 1.20293 1.19257 1.18571 1.21095 1.15861 1.17683 1.15114 1.19425 1.15611 1.1511 1.14968 1.15884 1.16529 1.2343 1.11357 1.09427 1.18644 1.02018 1.15052 1.11434 1.12494 1.09704 1.167 1.0795 1.04084 1.03368 1.13035 1.1076 1.00997 1.09782 1.06877 0.871991 0.87659 0.862502 0.899813 0.929931 0.9083 0.703693 0.817783 0.816395 0.639883 0.935687 0.879234 0.823527 0.821274 0.832674 0.81762 0.822591 0.503057 0.682059 0.750548 0.773331 0.781863 0.623396 0.472829 0.367775 0.241036 1.12936 1.3607 0.919813 1.61619 0.823697 0.93398 0.657519 0.94393 1.11774 0.770718 1.09061 0.972563 0.911937 1.01984 1.09263 1.12516 0.961583 1.02123 1.01602 1.01922 1.05551 1.07816 1.06829 1.26489 1.22343 0.990263 1.20064 1.11657 1.24654 1.22297 1.1475 1.18551 1.16711 1.19287 1.19833 1.19314 1.17231 1.18228 1.20075 1.18397 1.19178 1.17909 1.20852 1.20942 1.18917 1.19187 1.19632 1.19158 1.19178 1.19387 1.19456 1.19577 1.19604 1.20584 1.20035 1.20181 1.19118 1.22585 1.21106 1.16187 1.1459 1.17282 1.25551 1.17739 1.14408 1.15796 1.17331 1.16274 1.19506 1.0677 1.16124 1.07418 0.914342 1.02464 0.883216 1.07016 1.00204 1.00081 1.02674 1.02752 1.01626 0.869607 0.881127 0.942651 0.956672 0.903166 0.712281 0.6656 0.653464 0.713106 0.798745 0.7747 0.80171 0.814664 0.818244 0.803906 0.800549 0.846638 0.785563 0.795906 0.412599 0.421921 0.856129 0.753694 0.674953 0.587116 0.592808 0.449447 0.27875 0.199964 0.807553 1.14401 0.588018 0.842424 0.718905 0.738863 0.8197 0.940394 0.889586 1.00564 0.994938 0.955358 1.10546 1.05418 1.01555 1.03586 1.05036 1.08152 1.11309 1.08623 1.15762 1.21667 1.01826 0.985269 1.07453 1.19808 1.16198 1.19172 1.15349 1.16783 1.18551 1.19156 1.17027 1.19995 1.18364 1.19569 1.17213 1.20009 1.18518 1.19502 1.19609 1.19435 1.19088 1.19178 1.19178 1.19427 1.19572 1.19633 1.1942 1.19349 1.18002 1.21474 1.21243 1.21532 1.1666 1.15137 1.18628 1.24216 1.19331 1.22124 1.17505 1.15353 1.17026 1.13946 1.03963 1.23186 1.0297 1.00153 0.98737 0.970518 1.09352 1.04176 1.00929 1.00496 1.02519 0.998423 0.992833 0.871702 0.843215 0.940894 0.942728 1.02111 0.934523 1.12236 0.731351 0.812862 0.762853 0.626677 0.718132 0.781518 0.794654 0.800283 0.791901 0.824436 0.84137 0.845725 0.77426 0.860443 0.780691 0.599917 0.0249511 0.0699217 0.438801 0.345787 1.34538 0.96376 0.78571 0.797281 0.694338 0.66347 0.56139 0.534324 0.592456 0.396282 0.56786 0.433973 0.66245 0.950786 0.964251 0.890368 0.809736 0.842078 0.956093 1.0164 1.00575 0.985106 0.933218 0.915636 1.14107 1.12913 1.05505 1.02606 1.08857 1.05596 1.06861 1.11771 1.13199 0.906873 0.943406 1.09626 1.07008 1.1468 1.10722 1.22114 1.23625 1.16661 1.16403 1.177 1.17392 1.20433 1.17229 1.19527 1.21735 1.18197 1.19375 1.18313 1.19312 1.19534 1.19678 1.19506 1.19083 1.19213 1.19366 1.19437 1.1953 1.19701 1.18576 1.18838 1.18011 1.19044 1.20331 1.19937 1.17656 1.15194 1.15284 1.17405 1.20374 1.16253 1.18474 1.16626 1.17843 1.10387 0.943617 1.18125 0.936412 0.989052 1.02887 1.04611 1.01436 1.02394 1.02898 1.00059 0.979943 0.926947 0.890601 0.939836 0.898234 0.959841 0.729274 0.665386 0.682238 0.740567 0.794394 0.82501 0.764316 0.874414 0.818281 0.88812 0.803594 0.880457 0.773135 0.932513 0.680732 0.992352 0.432152 0.774386 0.309062 0.112894 2.27301 0.0218421 0.363447 0.274549 0.450247 1.44799 0.865756 0.554069 0.622257 0.565487 0.504117 0.214955 1.08124 1.16172 1.03499 0.979764 0.966219 0.935615 0.892062 0.924607 1.10195 0.962515 0.925135 0.869672 0.981014 1.00634 1.08061 1.0462 1.39923 1.09492 1.05056 1.08255 1.16636 1.12541 1.09088 1.04524 1.09505 1.17102 1.18144 1.09782 1.23114 1.17068 1.17105 1.13446 1.17993 1.17453 1.19708 1.20136 1.16765 1.21105 1.2004 1.19616 1.18382 1.19238 1.19507 1.19679 1.19498 1.19082 1.1928 1.19373 1.1928 1.19115 1.19403 1.18866 1.18653 1.18117 1.19686 1.19615 1.18774 1.15392 1.17415 1.17391 1.15405 1.15135 1.17408 1.21997 1.14058 1.15134 1.17094 1.17056 1.10594 1.16423 1.19272 0.926189 0.956228 1.11024 1.14489 1.095 1.07406 1.0447 1.02855 1.0388 0.986035 1.00561 1.00351 1.02957 0.954134 0.912013 0.943466 0.996339 0.964482 0.880283 1.05769 0.710222 0.630802 0.598198 0.493332 0.602616 0.584209 0.677762 0.603528 0.69684 0.800603 0.634226 0.727002 0.754889 0.920344 0.610254 0.904988 0.806633 0.304058 2.16615 0.0997108 0.1499 0.491748 0.3731 0.412759 0.351014 1.14182 1.21009 0.940263 0.887073 0.211454 0.544081 0.52368 0.469979 1.22314 1.15338 1.07076 0.958642 0.842711 0.867328 0.86109 0.826207 0.588898 0.736235 0.994424 0.897782 0.929731 0.977537 0.842571 1.04139 1.06017 1.07342 0.979901 1.12852 1.01017 1.11999 0.959314 1.04828 1.14537 1.04741 1.18243 1.29255 1.11692 1.20685 1.07771 1.09627 1.20441 1.22175 1.22637 1.20364 1.17644 1.14612 1.20242 1.17671 1.19374 1.2094 1.20227 1.19536 1.19124 1.19151 1.19178 1.1967 1.19496 1.19127 1.19468 1.19271 1.1929 1.19516 1.1933 1.19289 1.19154 1.18542 1.18227 1.19843 1.15646 1.17908 1.16555 1.15988 1.18605 1.21524 1.14154 1.15324 1.17936 1.14719 1.18629 1.17411 1.1874 0.999384 0.91536 1.13245 1.13287 1.05998 1.0114 1.0406 0.963388 0.997304 1.02292 0.880251 0.942739 0.961094 0.997655 0.764766 0.598709 0.5993 0.742763 0.514716 0.696061 0.56447 0.633592 0.609891 0.639949 0.479582 0.541489 0.718589 0.806047 0.487455 0.567489 0.330261 0.475886 0.481518 0.572952 0.710549 0.843298 0.783153 0.843347 0.87053 0.699923 0.634021 0.616484 0.778355 1.00414 0.728016 0.935946 0.990012 0.740417 0.81905 0.748118 0.73061 0.962539 0.974113 0.987908 1.04753 1.04214 1.07904 1.06641 1.04901 1.022 1.02739 1.07675 1.08565 1.11099 1.25348 1.07167 1.16338 1.09422 1.05461 1.21752 1.12348 1.17497 1.20153 1.19176 1.17671 1.17347 1.18662 1.18668 1.17721 1.17649 1.20211 1.19458 1.1926 1.19332 1.19393 1.19521 1.19458 1.19246 1.19456 1.19725 1.18651 1.18595 1.19441 1.18801 1.18358 1.19728 1.20032 1.18363 1.173 1.15764 1.19375 1.16102 1.13467 1.16746 1.12466 1.20955 1.22346 1.09609 1.02922 1.19082 0.9702 1.10236 0.872476 1.10315 1.05598 1.12398 1.19226 1.30506 0.995431 1.0302 0.991168 0.948843 0.981028 0.854238 0.93193 0.959507 0.995282 0.438104 1.03241 0.723316 1.09168 0.823762 0.697582 0.824738 0.935149 0.887499 0.604285 0.622037 0.6791 0.514041 0.575787 0.70954 0.790864 0.729361 0.743804 0.403821 0.594656 0.717953 0.786159 0.825253 0.827631 0.692346 0.773522 0.777039 0.778232 0.812245 0.835326 0.740928 0.780953 0.855592 0.9322 1.01352 0.982182 1.0178 1.02132 1.03945 1.14169 1.01845 1.1134 1.0502 1.04555 1.05798 1.0965 1.27662 1.09896 1.15146 1.09714 1.14591 1.22217 1.18014 1.19714 1.16686 1.18581 1.1877 1.17723 1.17055 1.18685 1.18835 1.17271 1.20142 1.19043 1.19173 1.19467 1.19908 1.1897 1.18981 1.19368 1.19597 1.19418 1.19158 1.19439 1.18847 1.18825 1.19176 1.19111 1.18889 1.18404 1.19836 1.20374 1.18807 1.16025 1.17689 1.1575 1.19175 1.16419 1.1086 1.15585 1.20086 1.24718 1.14377 1.19551 1.08414 1.19255 1.15115 1.09765 0.961032 1.07159 1.09304 1.28638 0.912182 0.630958 1.20441 0.958011 0.971011 0.954224 0.980954 0.939056 0.882349 0.90867 0.928262 0.925632 0.884547 1.32597 1.61133 2.64736 0.685573 0.90845 0.920845 0.906885 0.619669 0.822156 0.704918 0.622936 0.635936 0.605513 0.663315 0.788022 0.846483 0.813278 0.716874 0.95642 0.779933 0.825455 0.789615 0.855808 0.809275 0.820326 0.800271 0.751013 0.773268 0.818739 0.75685 0.690608 0.899721 0.86253 0.825623 0.971665 0.892123 1.0584 1.12135 1.02283 1.00967 1.04506 1.16186 1.04287 1.10705 1.13659 1.16121 1.05624 1.06353 1.06647 1.04544 1.04171 1.07288 1.27959 1.05642 1.17724 1.13963 1.12709 1.17751 1.17799 1.19614 1.16848 1.18792 1.18719 1.17773 1.18868 1.18999 1.19805 1.18826 1.19411 1.20026 1.19072 1.19388 1.19157 1.19358 1.19851 1.19778 1.19418 1.19469 1.19317 1.19024 1.18898 1.19146 1.19104 1.18727 1.18448 1.19799 1.20629 1.19462 1.16769 1.15307 1.17579 1.15987 1.15826 1.14306 1.19774 1.15438 1.1783 1.17192 1.11534 1.15393 1.01913 1.15866 1.19166 1.21389 1.11316 0.968449 0.979148 0.988786 0.874427 0.897001 0.909616 0.836476 1.19877 1.71033 0.490254 0.876671 0.931406 0.839618 0.837241 0.855219 0.723571 0.594368 0.614168 0.849834 0.949291 1.00218 0.873573 0.962724 0.934291 0.860394 0.899102 0.883984 0.826299 0.78822 0.832202 0.738271 0.749992 0.747329 0.800157 0.799573 0.805102 0.896713 0.912852 0.798366 0.978628 0.958022 0.895378 0.822622 0.984435 0.930253 0.987452 1.0373 0.978986 1.05842 1.0507 0.958482 1.04709 1.02044 1.14794 1.00625 1.03019 1.13792 0.983642 1.04811 1.03116 1.05689 1.08571 1.27117 1.15918 1.18045 1.16517 1.14249 1.17224 1.19895 1.17312 1.19342 1.19178 1.16877 1.1824 1.18502 1.19434 1.19453 1.19431 1.19358 1.19093 1.19145 1.19333 1.19583 1.18953 1.19282 1.19059 1.19387 1.19341 1.18936 1.19207 1.18663 1.18684 1.18479 1.18691 1.18637 1.16872 1.18439 1.17709 1.17147 1.16802 1.14084 1.1902 1.19784 1.10836 1.151 1.18876 1.13657 1.17902 1.14349 1.02897 1.05992 1.09381 1.15413 1.19359 1.00144 1.00005 0.988505 0.974576 0.984096 1.00802 0.837658 0.904573 1.1509 1.07937 1.0942 1.11161 0.656278 0.824421 0.728264 0.928365 0.871738 0.867967 0.86299 0.771404 0.617743 1.01136 1.09208 0.847965 0.963986 0.96529 1.0371 0.949769 0.933438 0.809021 0.888104 0.759553 0.855081 0.809934 0.936427 0.850172 0.977931 0.905367 0.925584 0.913768 0.857616 1.03075 1.00664 0.999602 1.0348 1.07328 1.03565 1.09292 1.19275 1.06964 1.11762 1.15096 1.0198 1.04043 1.14375 1.21508 1.1771 1.18769 1.17613 1.19878 1.20606 1.18316 1.17902 1.16421 1.17567 1.18562 1.19182 1.19081 1.18461 1.19452 1.19557 1.19333 1.19222 1.19189 1.1939 1.1944 1.18659 1.19204 1.19522 1.19293 1.18864 1.19509 1.19073 1.18546 1.18686 1.19002 1.18674 1.18594 1.18761 1.18621 1.16136 1.18651 1.18262 1.17691 1.17053 1.15988 1.19704 1.212 1.14014 1.14354 1.16468 1.16764 1.13811 1.14507 1.13275 1.13856 1.12089 0.884054 1.11837 1.27322 1.04439 0.981564 0.989861 1.03683 0.977785 0.965981 1.11411 0.914341 1.03474 1.02098 0.871713 1.02977 0.846892 0.93077 0.858618 0.906746 0.946072 0.944974 0.92273 0.935324 0.918066 0.899046 0.811643 0.878008 0.923109 1.09117 0.850604 0.94896 0.995599 0.962614 1.0289 0.841291 1.03969 0.854291 0.771123 0.656895 0.977918 0.885627 0.940023 0.949332 0.919079 0.890508 1.06868 1.08365 1.04608 1.0096 1.06549 0.958063 1.1049 1.11134 1.10416 1.15959 1.08487 1.11465 1.07343 1.12509 1.17119 1.18067 1.18118 1.16063 1.20119 1.18764 1.17197 1.18071 1.18803 1.19037 1.18414 1.18682 1.19642 1.19391 1.19205 1.19761 1.19443 1.19178 1.18976 1.18604 1.18989 1.19214 1.20299 1.19138 1.18558 1.19066 1.19023 1.18734 1.1879 1.18752 1.18788 1.18668 1.18899 1.18932 1.18176 1.17105 1.17132 1.16326 1.21658 1.14308 1.14874 1.1771 1.1455 1.14396 1.13611 1.15203 1.14642 1.09901 1.07293 1.08733 1.09397 0.997099 0.993796 0.947198 1.05609 0.996249 1.12038 0.986476 1.09296 0.817777 0.991607 0.912738 0.967975 0.946272 0.935373 0.928027 0.908071 0.893823 1.04649 0.992933 0.979469 1.05378 0.891822 1.01028 0.987327 0.995709 1.05496 0.945254 1.16745 1.03785 0.98577 0.861264 0.949207 0.89412 0.979528 0.938951 0.901762 0.933953 1.04198 1.05805 1.0043 1.08613 0.970775 0.988246 1.04901 1.11792 1.16667 1.14581 1.10633 1.1655 1.10745 1.16065 1.20963 1.17637 1.17838 1.17711 1.18954 1.18673 1.16028 1.20497 1.18626 1.17289 1.18142 1.1928 1.19205 1.19097 1.19049 1.18805 1.18854 1.19719 1.1936 1.19227 1.1931 1.19421 1.19577 1.19302 1.19281 1.18995 1.18962 1.18761 1.20616 1.18568 1.18855 1.19352 1.18713 1.19048 1.1878 1.18838 1.18739 1.18794 1.19112 1.18971 1.1858 1.19178 1.17353 1.1749 1.17638 1.16939 1.14456 1.15041 1.16376 1.17473 1.14419 1.14807 1.14413 1.04181 0.948778 1.1138 1.07428 0.935384 1.06767 0.991186 1.11073 1.38194 0.912524 1.06099 0.921357 0.964726 0.947542 0.933943 0.959838 0.920066 0.949585 0.968205 0.958429 1.06098 1.00195 1.02562 1.01889 1.02842 0.917853 0.923463 0.932414 0.97727 1.01262 1.02422 1.00866 1.15908 1.05791 0.981205 0.843724 1.14231 0.885356 1.01964 0.944462 0.859573 1.01697 1.08509 1.02185 1.12396 1.01813 1.06583 1.04844 1.13294 1.15149 1.1494 1.11489 1.11235 1.12066 1.16328 1.17469 1.16059 1.19165 1.19178 1.17513 1.16079 1.19082 1.18743 1.18213 1.19963 1.18123 1.19274 1.19225 1.19166 1.19248 1.18909 1.19655 1.19146 1.19126 1.19199 1.19629 1.19322 1.19364 1.19264 1.19147 1.18932 1.18483 1.18916 1.18457 1.19408 1.19067 1.18786 1.1907 1.18814 1.18716 1.18653 1.18832 1.18973 1.19042 1.18899 1.19219 1.17532 1.18821 1.17554 1.17686 1.17496 1.16655 1.17149 1.15251 1.16905 1.18421 1.15097 1.15921 1.13973 1.1812 1.06259 1.08223 1.11951 1.06502 1.12601 1.07467 0.958157 1.08737 1.13429 1.27047 1.0856 1.05303 0.948187 0.940049 0.923216 0.979963 1.01682 1.02612 1.08055 1.03516 1.04941 1.02009 0.923968 0.931246 0.927721 1.0051 1.01187 1.04592 1.13573 1.07291 1.05374 0.919675 1.16266 1.23355 1.14189 1.02099 1.09506 1.12187 1.05013 1.10522 1.03959 1.12141 1.06268 1.1489 1.15072 1.14076 1.12089 1.13834 1.1779 1.15847 1.13389 1.1651 1.17894 1.17534 1.17304 1.17284 1.18702 1.18305 1.20069 1.19265 1.19216 1.19269 1.18965 1.18921 1.19582 1.19197 1.19648 1.19333 1.19178 1.1923 1.19142 1.18921 1.18881 1.18441 1.19248 1.1911 1.19161 1.19044 1.18895 1.18692 1.1883 1.18838 1.18878 1.19162 1.18933 1.19306 1.17564 1.17396 1.17694 1.16982 1.17385 1.17155 1.17813 1.20134 1.17412 1.13927 1.16977 1.17953 1.152 1.06196 1.07977 1.12269 1.18163 1.10386 0.976015 1.10355 1.11083 1.04866 1.14966 1.07816 0.962949 0.943743 0.991219 1.04298 1.04246 1.0723 1.09305 1.11924 1.04434 0.923538 0.992154 1.02802 1.0259 1.05278 1.04439 1.17163 1.0175 1.09185 1.11122 0.993276 1.17847 1.30001 1.12362 1.06207 1.12425 1.13535 1.0297 1.13299 1.07937 1.1438 1.1468 1.14211 1.12512 1.13166 1.14281 1.17906 1.16195 1.17982 1.17052 1.17873 1.17385 1.17295 1.18135 1.18587 1.18559 1.20202 1.2116 1.18818 1.19369 1.19178 1.19041 1.18907 1.19622 1.19499 1.19182 1.1963 1.19333 1.19457 1.19069 1.19339 1.19418 1.19026 1.18866 1.18912 1.18144 1.19206 1.19174 1.19985 1.18849 1.18798 1.18806 1.18777 1.18863 1.19193 1.19389 1.18941 1.17627 1.19245 1.17761 1.18623 1.17424 1.17277 1.1713 1.1886 1.17797 1.18135 1.17941 1.16677 1.18329 1.18752 1.1868 1.09477 1.17649 1.12705 1.17509 1.08729 1.14544 1.13418 1.16046 1.0418 1.12037 1.0762 0.970632 0.964739 1.04169 1.00219 0.999176 1.07308 1.07099 1.08801 1.04372 1.06675 1.06385 1.01984 1.11743 1.02769 1.08563 1.07319 1.07101 1.13061 1.09307 1.02817 1.08085 1.1131 0.997558 1.18746 1.12078 1.13195 1.06361 1.12617 1.15023 1.13853 1.19178 1.15255 1.14881 1.09151 1.11831 1.14734 1.15461 1.20466 1.19178 1.1264 1.17457 1.17385 1.15229 1.16651 1.1803 1.1827 1.18288 1.17624 1.19264 1.18289 1.16637 1.18455 1.19409 1.18744 1.18826 1.18774 1.19415 1.18636 1.19002 1.19677 1.19534 1.19214 1.19383 1.1908 1.19334 1.19474 1.18907 1.18885 1.18112 1.19379 1.18765 1.19529 1.18219 1.18797 1.18952 1.18867 1.18697 1.18581 1.19265 1.17779 1.18871 1.18956 1.18065 1.17533 1.1741 1.18436 1.17279 1.17814 1.18294 1.19178 1.18692 1.1715 1.18424 1.13674 1.17508 1.1083 1.12889 1.13874 1.16181 1.06897 1.13369 1.09011 1.07068 1.05007 1.03611 0.996694 1.08865 1.0884 1.11339 1.0392 1.08461 1.10903 1.17188 1.03413 1.13234 1.13078 1.0772 1.0847 1.03897 1.10219 1.10787 1.13387 1.15857 1.1035 1.12544 1.19209 1.10141 1.14865 1.15307 1.14828 1.11357 1.17375 1.17281 1.14828 1.16621 1.18174 1.16218 1.19325 1.19178 1.18019 1.18301 1.18485 1.17674 1.19513 1.18556 1.18331 1.18508 1.19401 1.19105 1.19155 1.18985 1.18666 1.19131 1.19909 1.19126 1.1927 1.19223 1.19451 1.19152 1.19117 1.19303 1.18866 1.18912 1.18142 1.19505 1.18896 1.19631 1.19178 1.18429 1.18785 1.18898 1.1872 1.19095 1.19453 1.19445 1.19477 1.19364 1.18992 1.18976 1.19178 1.17955 1.18203 1.21429 1.17487 1.18195 1.1781 1.18015 1.17056 1.182 1.18208 1.18737 1.17598 1.17916 1.17593 1.18794 1.15785 1.16668 1.12545 1.1326 1.14167 1.15639 1.16687 1.11824 1.09385 1.05877 1.07515 1.10066 1.11138 1.08627 1.0894 1.10325 1.06865 1.12202 1.14577 1.0493 1.12963 1.13554 1.1142 1.14784 1.14988 1.13765 1.06651 1.12257 1.10286 1.20078 1.15388 1.1081 1.19178 1.17935 1.18767 1.15201 1.14482 1.15996 1.15114 1.15489 1.1602 1.18828 1.17144 1.18696 1.17001 1.17818 1.18235 1.19296 1.19275 1.19379 1.18971 1.18651 1.18799 1.18256 1.19169 1.19767 1.18322 1.19326 1.21129 1.18319 1.18986 1.19402 1.18887 1.18861 1.18676 1.19178 1.18581 1.1902 1.19255 1.19139 1.19003 1.18813 1.19126 1.19081 1.19109 1.19178 1.18706 1.18868 1.1915 1.19036 1.19513 1.18885 1.18692 1.19191 1.19498 1.18681 1.19294 1.1926 1.18674 1.18728 1.19338 1.19557 1.1947 1.19405 1.19164 1.19362 1.18193 1.19315 1.19178 1.19496 1.17729 1.17976 1.17962 1.1732 1.18065 1.18111 1.19261 1.18012 1.17575 1.1542 1.17196 1.16115 1.1438 1.12969 1.14555 1.15262 1.1603 1.11835 1.1174 1.07565 1.0799 1.12835 1.12477 1.10132 1.18152 1.12279 1.05518 1.0992 1.13465 1.05888 1.12936 1.15192 1.12846 1.17394 1.17274 1.08664 1.1176 1.19178 1.19178 1.19178 1.14534 1.1963 1.16271 1.18022 1.18557 1.17927 1.15666 1.19178 1.19178 1.17949 1.1783 1.19741 1.17435 1.17756 1.19178 1.18498 1.19286 1.19425 1.18968 1.19305 1.19271 1.18801 1.18464 1.19094 1.19138 1.19364 1.19311 1.18914 1.19313 1.18944 1.18918 1.18707 1.1906 1.18585 1.18606 1.18969 1.1927 1.19075 1.19138 1.19031 1.19082 1.18453 1.18671 1.18979 1.18782 1.18988 1.19445 1.18568 1.18499 1.18624 1.1917 1.19065 1.18679 1.19254 1.18733 1.19169 1.19464 1.19474 1.19537 1.18914 1.18228 1.19073 1.1937 1.18915 1.18394 1.18695 1.18819 1.17762 1.18273 1.18259 1.18503 1.18896 1.19072 1.19191 1.18714 1.17982 1.15495 1.16879 1.16557 1.1587 1.149 1.14351 1.14575 1.1543 1.15516 1.12156 1.12535 1.09212 1.133 1.14405 1.15544 1.13578 1.11535 1.1887 1.1194 1.12411 1.09229 1.11615 1.10328 1.12748 1.13387 1.15696 1.13709 1.20074 1.19907 1.18646 1.09902 1.15612 1.17338 1.19525 1.19107 1.16086 1.19178 1.19394 1.19195 1.19625 1.17252 1.15725 1.15034 1.15678 1.18352 1.18097 1.19776 1.18861 1.17826 1.17604 1.18576 1.18801 1.19471 1.18876 1.19186 1.18652 1.19076 1.18747 1.19136 1.19178 1.19423 1.19279 1.19104 1.19298 1.19334 1.19061 1.18582 1.18986 1.18729 1.18667 1.1899 1.1913 1.18976 1.19046 1.19099 1.18467 1.18693 1.19001 1.18768 1.19392 1.1932 1.19426 1.18507 1.18551 1.18393 1.19082 1.18853 1.19176 1.18921 1.19561 1.19267 1.19131 1.18954 1.18882 1.18439 1.17917 1.19063 1.18446 1.17881 1.19188 1.19047 1.18641 1.18064 1.19121 1.17578 1.17225 1.16909 1.16185 1.16915 1.1561 1.15246 1.15802 1.15556 1.14105 1.19178 1.1363 1.10094 1.15601 1.15058 1.14045 1.15886 1.15722 1.12618 1.18971 1.18922 1.12283 1.11963 1.09179 1.1071 1.15719 1.15538 1.13711 1.15209 1.16539 1.17249 1.19748 1.12256 1.17768 1.20608 1.18937 1.18769 1.15835 1.20112 1.17452 1.19211 1.18572 1.1877 1.19178 1.19178 1.18146 1.17033 1.16615 1.18434 1.18313 1.19621 1.19116 1.19197 1.19379 1.19033 1.18743 1.18884 1.18809 1.1938 1.20089 1.19149 1.19121 1.19147 1.19148 1.19246 1.1906 1.18643 1.18562 1.1897 1.18709 1.18604 1.19042 1.18976 1.19132 1.19 1.19103 1.19111 1.19201 1.18706 1.19002 1.18931 1.19359 1.19172 1.19413 1.18359 1.18975 1.18986 1.19245 1.18697 1.18577 1.19139 1.18918 1.19175 1.19267 1.19259 1.1894 1.17849 1.18624 1.18619 1.19209 1.18441 1.17737 1.18669 1.18916 1.18136 1.17047 1.17941 1.16913 1.18023 1.19732 1.15125 1.14814 1.14253 1.14172 1.15155 1.15055 1.16258 1.13387 1.13742 1.12402 1.12301 1.12996 1.12793 1.13908 1.18366 1.16316 1.17372 1.18941 1.14065 1.156 1.17523 1.18732 1.18762 1.18678 1.19198 1.18886 1.19101 1.18835 1.18145 1.17837 1.174 1.19094 1.20165 1.18275 1.18934 1.18889 1.19209 1.19259 1.19163 1.18797 1.18853 1.18823 1.1916 1.19103 1.19227 1.19378 1.19078 1.19275 1.19077 1.18617 1.1859 1.19178 1.1921 1.18795 1.19178 1.18988 1.18943 1.18926 1.1858 1.1904 1.19106 1.1873 1.18928 1.19225 1.19293 1.19187 1.19082 1.1896 1.19167 1.19338 1.1935 1.18532 1.19178 1.19583 1.19051 1.19174 1.19288 1.1857 1.18903 1.18386 1.18846 1.19043 1.19222 1.19252 1.18037 1.18336 1.19545 1.18396 1.19038 1.18455 1.18114 1.18557 1.19178 1.18729 1.18472 1.17992 1.18435 1.17273 1.16037 1.17795 1.17823 1.18494 1.18581 1.1909 1.16182 1.15297 1.15385 1.16159 1.15359 1.1714 1.16877 1.15839 1.15718 1.16747 1.12208 1.1544 1.18768 1.19256 1.18432 1.18 1.18714 1.15736 1.16081 1.15856 1.17819 1.19196 1.18726 1.19194 1.1916 1.18815 1.18955 1.18471 1.18803 1.18566 1.18018 1.1815 1.18606 1.18398 1.18426 1.19103 1.1928 1.1867 1.18976 1.18888 1.18784 1.19148 1.19032 1.18985 1.19189 1.19138 1.19023 1.19234 1.18293 1.18602 1.19583 1.18626 1.18966 1.18947 1.18917 1.19145 1.1914 1.19007 1.19003 1.19326 1.18997 1.18862 1.19073 1.19176 1.1895 1.19122 1.18627 1.1928 1.19332 1.18844 1.18756 1.18612 1.1884 1.19074 1.19238 1.1919 1.18922 1.19119 1.19208 1.1911 1.18213 1.19178 1.18492 1.18972 1.18923 1.1778 1.18025 1.17954 1.18689 1.17141 1.18946 1.16402 1.17225 1.19346 1.16616 1.16364 1.15414 1.17003 1.18218 1.18339 1.16392 1.16933 1.15727 1.16649 1.1312 1.16655 1.15368 1.18782 1.18563 1.17885 1.18391 1.18501 1.1798 1.18068 1.18476 1.17045 1.17268 1.19046 1.18249 1.19182 1.19069 1.18892 1.18797 1.18295 1.19178 1.18065 1.19536 1.18864 1.19044 1.18627 1.1872 1.18967 1.19208 1.19155 1.19125 1.19185 1.19269 1.19209 1.19152 1.18867 1.19431 1.19436 1.1883 1.19161 1.19115 1.1887 1.19191 1.18701 1.18274 1.19231 1.18598 1.19563 1.18578 1.1859 1.18626 1.18939 1.18916 1.18922 1.19086 1.18991 1.18969 1.19322 1.19011 1.18855 1.19035 1.19132 1.19041 1.19127 1.19125 1.19243 1.19223 1.19369 1.18737 1.18644 1.18767 1.18818 1.18802 1.18922 1.19554 1.19082 1.1911 1.18977 1.18791 1.18871 1.18965 1.18376 1.19228 1.19053 1.19027 1.18445 1.18876 1.18477 1.18481 1.17405 1.17862 1.19089 1.18114 1.19219 1.18886 1.17297 1.16626 1.19329 1.17234 1.17207 1.1642 1.19003 1.19862 1.18855 1.18528 1.1882 1.16766 1.16798 1.17886 1.16653 1.16932 1.14461 1.15318 1.18574 1.18062 1.17805 1.18431 1.19855 1.19081 1.16837 1.19021 1.18865 1.18684 1.1931 1.19232 1.18402 1.18746 1.18461 1.18819 1.18801 1.18338 1.18762 1.18746 1.18868 1.19253 1.19102 1.1856 1.18939 1.19199 1.19129 1.19204 1.19248 1.19126 1.18818 1.19489 1.18805 1.18822 1.19179 1.19178 1.19123 1.19087 1.19374 1.19494 1.19886 1.18968 1.18629 1.18872 1.18861 1.19244 1.19071 1.18948 1.18886 1.19122 1.1902 1.18824 1.19026 1.19277 1.19178 1.19085 1.18995 1.19026 1.19237 1.19405 1.18775 1.18787 1.18911 1.19542 1.19064 1.18737 1.18811 1.19081 1.184 1.19017 1.1904 1.18565 1.19064 1.18489 1.18782 1.18754 1.1766 1.17853 1.17545 1.18318 1.18828 1.18549 1.19026 1.17652 1.16983 1.17377 1.1661 1.1801 1.16042 1.16803 1.17427 1.19956 1.192 1.19182 1.18708 1.1815 1.17717 1.17157 1.15167 1.15486 1.18538 1.17857 1.19237 1.19889 1.19188 1.19178 1.18559 1.19178 1.18958 1.19307 1.19204 1.19039 1.18611 1.18986 1.19037 1.19768 1.18819 1.18988 1.18891 1.19201 1.19086 1.18742 1.1964 1.19363 1.18946 1.19178 1.19195 1.19234 1.18806 1.19085 1.19138 1.19266 1.18847 1.18977 1.18797 1.19367 1.1943 1.19218 1.18816 1.18587 1.19188 1.18928 1.18753 1.18779 1.18962 1.18824 1.1891 1.19182 1.18892 1.19093 1.19063 1.19078 1.189 1.19014 1.19006 1.18853 1.18682 1.18574 1.18706 1.19142 1.18766 1.18855 1.18958 1.19075 1.18731 1.18982 1.18921 1.19033 1.19023 1.19145 1.19019 1.18956 1.18433 1.18825 1.1879 1.1879 1.1777 1.18178 1.17964 1.18412 1.18931 1.18686 1.18009 1.16802 1.18151 1.18435 1.17971 1.17401 1.19453 1.18945 1.18351 1.17143 1.17619 1.18365 1.17321 1.15835 1.15606 1.18678 1.18779 1.19178 1.18586 1.19273 1.18789 1.1924 1.19175 1.1929 1.19415 1.19339 1.18722 1.19373 1.19074 1.1915 1.19084 1.19728 1.18839 1.1919 1.18953 1.18923 1.18983 1.18713 1.19105 1.19023 1.19232 1.18929 1.19187 1.19157 1.18934 1.1875 1.19065 1.19162 1.1889 1.19111 1.18984 1.1901 1.19514 1.19285 1.1942 1.19465 1.19239 1.1911 1.18543 1.18682 1.19225 1.19737 1.18678 1.18765 1.18983 1.19344 1.19371 1.18902 1.19087 1.18712 1.18701 1.18948 1.18999 1.18859 1.18708 1.18866 1.18831 1.18918 1.18495 1.18497 1.18809 1.18461 1.18884 1.19058 1.18934 1.18792 1.18978 1.18988 1.18942 1.19004 1.19032 1.19001 1.18656 1.18968 1.18295 1.19178 1.19092 1.18357 1.18016 1.18376 1.18436 1.19074 1.18531 1.18352 1.18499 1.16843 1.18298 1.18481 1.18053 1.1869 1.18099 1.1844 1.19084 1.1963 1.16563 1.17205 1.18648 1.16379 1.15681 1.18774 1.18837 1.18874 1.1895 1.1899 1.18769 1.18585 1.19291 1.19291 1.1893 1.18845 1.19421 1.19372 1.19433 1.19315 1.19142 1.18796 1.19764 1.18927 1.18971 1.19157 1.18968 1.19197 1.18981 1.19127 1.19186 1.1866 1.18929 1.19194 1.18783 1.18833 1.18791 1.19057 1.19107 1.18975 1.18966 1.18872 1.19038 1.19284 1.19178 1.19188 1.19182 1.19325 1.19134 1.18883 1.18588 1.19605 1.19014 1.18793 1.18946 1.18706 1.18788 1.18933 1.19393 1.18894 1.19171 1.18828 1.1888 1.18988 1.18842 1.18935 1.18798 1.18923 1.18505 1.18485 1.18828 1.19056 1.19195 1.18846 1.18989 1.18844 1.1898 1.18952 1.18902 1.19001 1.18965 1.18916 1.18968 1.18765 1.19198 1.18234 1.18165 1.20481 1.18972 1.18325 1.18894 1.18811 1.18862 1.18917 1.1945 1.18547 1.17822 1.16968 1.18466 1.18491 1.18793 1.18228 1.18862 1.18938 1.1853 1.18688 1.1823 1.18913 1.17919 1.18693 1.16561 1.15714 1.18864 1.18868 1.18976 1.18788 1.187 1.19276 1.19195 1.18852 1.19064 1.19473 1.194 1.19664 1.18844 1.19017 1.1891 1.19011 1.19152 1.19193 1.1893 1.19041 1.18612 1.19109 1.18801 1.18722 1.18894 1.19305 1.19206 1.19078 1.18957 1.18838 1.1885 1.19076 1.19296 1.19143 1.19086 1.18689 1.19203 1.1906 1.18887 1.18562 1.18106 1.19048 1.18834 1.18756 1.19013 1.18841 1.19028 1.18922 1.1918 1.18962 1.19126 1.18773 1.18858 1.18639 1.18829 1.18948 1.18827 1.18485 1.18489 1.1878 1.1882 1.19112 1.18819 1.18883 1.18963 1.18944 1.18836 1.18897 1.18503 1.19038 1.18879 1.19287 1.19102 1.19451 1.19873 1.18864 1.18878 1.18909 1.18712 1.19154 1.19091 1.19023 1.1882 1.18977 1.18059 1.18109 1.17473 1.17076 1.18516 1.18292 1.18867 1.18998 1.18727 1.18418 1.18551 1.19423 1.19178 1.18938 1.16608 1.1714 1.18911 1.19178 1.18951 1.18733 1.19088 1.19285 1.18871 1.19087 1.19052 1.19466 1.19097 1.18551 1.19007 1.19079 1.19144 1.19035 1.19149 1.18944 1.18743 1.19856 1.18726 1.18913 1.18822 1.19192 1.19068 1.18878 1.1892 1.18926 1.18918 1.1882 1.19118 1.18865 1.19111 1.19256 1.18921 1.19166 1.19186 1.18997 1.18965 1.18856 1.18558 1.18641 1.181 1.19012 1.18726 1.19003 1.19203 1.19092 1.18975 1.1881 1.18916 1.18948 1.18762 1.18806 1.18868 1.18864 1.18912 1.1892 1.18726 1.18765 1.18876 1.18505 1.18919 1.18487 1.18968 1.18898 1.19178 1.18923 1.18781 1.1893 1.18565 1.1887 1.18895 1.19342 1.19361 1.18861 1.18906 1.19288 1.19191 1.19059 1.18756 1.18504 1.19177 1.19239 1.19036 1.1919 1.19184 1.18356 1.18923 1.19087 1.18704 1.18543 1.18844 1.18684 1.19003 1.18866 1.18951 1.16963 1.17174 1.17171 1.18856 1.19 1.18925 1.19081 1.19228 1.1901 1.19089 1.18877 1.18873 1.19457 1.1909 1.18556 1.19178 1.19068 1.19114 1.19014 1.19112 1.18908 1.18991 1.18805 1.19185 1.18498 1.18851 1.18988 1.19071 1.19173 1.19067 1.18865 1.18839 1.19197 1.18852 1.19027 1.19154 1.19028 1.19108 1.18983 1.18421 1.18872 1.19023 1.18846 1.18116 1.18743 1.19 1.18847 1.18949 1.19187 1.19059 1.18907 1.18774 1.19161 1.18922 1.18752 1.18807 1.18877 1.18662 1.18906 1.19183 1.18941 1.18835 1.18671 1.18748 1.18479 1.18886 1.19064 1.18955 1.1899 1.18873 1.18777 1.1885 1.18925 1.1899 1.18979 1.19336 1.19263 1.18554 1.18914 1.18857 1.19025 1.18995 1.18762 1.18999 1.18821 1.18845 1.18496 1.19343 1.1942 1.18939 1.18989 1.18534 1.18864 1.19216 1.18518 1.18324 1.18799 1.19097 1.19203 1.18998 1.19187 1.18666 1.17863 1.18642 1.19178 1.1816 1.17536 1.18935 1.18831 1.18981 1.19178 1.19231 1.19274 1.19038 1.19205 1.19131 1.18852 1.19486 1.18942 1.19195 1.19166 1.18634 1.18815 1.19058 1.18757 1.19037 1.19102 1.18876 1.19023 1.18959 1.19063 1.19067 1.19113 1.18696 1.18871 1.19116 1.19162 1.18919 1.19051 1.19038 1.19065 1.18899 1.19149 1.18838 1.18813 1.18631 1.19007 1.1909 1.18862 1.18961 1.18739 1.19194 1.1945 1.19367 1.19041 1.18914 1.18893 1.18964 1.19154 1.1907 1.19001 1.18924 1.18786 1.19079 1.18884 1.18666 1.18941 1.18749 1.18689 1.18861 1.1918 1.18881 1.1895 1.19125 1.18664 1.1876 1.18761 1.1884 1.18553 1.19178 1.18957 1.18983 1.18838 1.18834 1.18897 1.18898 1.1931 1.18554 1.1854 1.18991 1.1897 1.19327 1.19025 1.18736 1.18679 1.18742 1.18986 1.19057 1.19205 1.19129 1.18985 1.19066 1.18717 1.19075 1.18952 1.19211 1.19071 1.18335 1.17918 1.18499 1.18808 1.17555 1.18944 1.18803 1.18897 1.19165 1.19132 1.19163 1.19193 1.19278 1.18975 1.19066 1.1885 1.1899 1.19047 1.19048 1.1911 1.19131 1.19255 1.19357 1.18834 1.1898 1.19145 1.18984 1.18908 1.18868 1.19034 1.19103 1.18693 1.18896 1.18791 1.19116 1.18971 1.19093 1.19243 1.19163 1.18905 1.18776 1.18978 1.18701 1.18983 1.1882 1.19002 1.18973 1.19077 1.18763 1.19405 1.19174 1.18887 1.19266 1.18929 1.18949 1.19031 1.19077 1.19149 1.19181 1.18892 1.18973 1.19717 1.18871 1.19156 1.18973 1.18892 1.18462 1.18758 1.19022 1.19093 1.19014 1.18764 1.18773 1.19046 1.18814 1.18967 1.18913 1.19109 1.19029 1.19113 1.18721 1.18808 1.18593 1.19243 1.19007 1.18721 1.18985 1.18971 1.19043 1.19182 1.19119 1.18968 1.1905 1.18937 1.19014 1.18783 1.18948 1.18821 1.19202 1.18838 1.18855 1.18308 1.18864 1.18788 1.18712 1.17563 1.19117 1.18774 1.1888 1.19136 1.19131 1.19101 1.1925 1.18997 1.19012 1.18971 1.19002 1.18959 1.19057 1.19121 1.19111 1.19124 1.19239 1.18824 1.19027 1.19023 1.18943 1.18898 1.1899 1.18863 1.19005 1.19114 1.1868 1.18841 1.18974 1.1919 1.19102 1.18994 1.1911 1.18978 1.18863 1.18874 1.19063 1.19036 1.19003 1.18911 1.19095 1.19199 1.19151 1.19188 1.18982 1.19076 1.19084 1.19078 1.19325 1.19211 1.19089 1.19152 1.18825 1.18921 1.19182 1.19178 1.18844 1.18799 1.193 1.19073 1.19306 1.19006 1.1897 1.18658 1.18701 1.18964 1.19043 1.18997 1.1903 1.18817 1.18843 1.18916 1.1899 1.19026 1.18976 1.18998 1.18824 1.18754 1.19097 1.18822 1.19072 1.19224 1.19033 1.19359 1.18967 1.19119 1.18924 1.1897 1.19045 1.19177 1.19318 1.19178 1.18939 1.19017 1.18834 1.18744 1.18801 1.18818 1.19075 1.19064 1.18351 1.19089 1.19289 1.18648 1.18571 1.18525 1.18433 1.19089 1.1911 1.18766 1.18962 1.18924 1.18867 1.19038 1.187 1.19247 1.19142 1.19025 1.19076 1.18963 1.18948 1.19017 1.18947 1.19091 1.19079 1.19159 1.18842 1.18811 1.18921 1.18912 1.19059 1.19089 1.18917 1.18871 1.18872 1.19052 1.19003 1.19153 1.18889 1.18958 1.19072 1.19003 1.18937 1.18907 1.19297 1.18893 1.19048 1.1909 1.18912 1.18892 1.1907 1.19121 1.18749 1.19122 1.19162 1.19178 1.18883 1.19185 1.19204 1.18965 1.19178 1.18926 1.19069 1.19218 1.18966 1.1878 1.18841 1.19124 1.19055 1.19158 1.19048 1.1884 1.18797 1.18916 1.18947 1.1879 1.18853 1.18781 1.18925 1.19028 1.1891 1.19185 1.1903 1.19182 1.19081 1.19177 1.19178 1.18887 1.18951 1.19192 1.19188 1.19133 1.19106 1.19081 1.18969 1.19045 1.18961 1.18987 1.18763 1.18849 1.19101 1.19068 1.19077 1.19188 1.19188 1.19178 1.19107 1.19104 1.18897 1.18838 1.1885 1.19249 1.18948 1.19073 1.18972 1.19034 1.19074 1.19064 1.19095 1.19136 1.1879 1.18988 1.18974 1.19154 1.18943 1.1894 1.18946 1.18866 1.19027 1.19165 1.18841 1.18881 1.18961 1.19072 1.1894 1.1892 1.18909 1.19294 1.19013 1.19114 1.19 1.1899 1.18909 1.19174 1.19067 1.1898 1.18976 1.19178 1.18856 1.19147 1.19178 1.19178 1.19145 1.18971 1.19201 1.19178 1.18988 1.19051 1.19232 1.18918 1.18914 1.19058 1.19192 1.19005 1.18968 1.18924 1.19171 1.18838 1.19199 1.19081 1.1889 1.18786 1.19002 1.18903 1.18929 1.18995 1.18979 1.18845 1.18809 1.18749 1.1889 1.18945 1.19094 1.19071 1.19144 1.18911 1.19186 1.18961 1.18925 1.1894 1.19041 1.19185 1.19159 1.19124 1.19002 1.18994 1.18889 1.18823 1.19115 1.19098 1.19169 1.19185 1.18619 1.19168 1.19178 1.19189 1.19072 1.19164 1.18944 1.18865 1.18891 1.19264 1.18861 1.19018 1.1907 1.18968 1.19005 1.19057 1.19095 1.19178 1.18837 1.18896 1.18905 1.19086 1.19023 1.18945 1.19003 1.19068 1.19006 1.18829 1.18881 1.18986 1.18998 1.19 1.1907 1.19178 1.19012 1.19105 1.19022 1.18964 1.19178 1.19043 1.18955 1.19178 1.19007 1.1916 1.19178 1.19178 1.19151 1.19041 1.19178 1.19138 1.19057 1.19178 1.19228 1.19204 1.19095 1.18974 1.19082 1.19002 1.18936 1.18999 1.1917 1.18862 1.19106 1.1897 1.19098 1.18926 1.18849 1.18828 1.18974 1.18978 1.1889 1.1885 1.18913 1.1872 1.18961 1.19016 1.19041 1.19038 1.19116 1.19126 1.19158 1.19206 1.19035 1.19275 1.18943 1.19036 1.19201 1.19045 1.19093 1.19008 1.1904 1.18979 1.19147 1.19184 1.19114 1.18605 1.19154 1.19194 1.18931 1.18896 1.19178 1.18853 1.19013 1.18965 1.19003 1.1907 1.19062 1.19098 1.19081 1.18911 1.19106 1.19027 1.1902 1.18902 1.18988 1.19064 1.19014 1.18959 1.19061 1.19109 1.19111 1.18825 1.18826 1.18834 1.19002 1.19068 1.19075 1.18906 1.19089 1.18902 1.19191 1.19009 1.19095 1.19178 1.18975 1.19194 1.19068 1.19107 1.19029 1.19011 1.19158 1.19185 1.19192 1.19153 1.19155 1.19031 1.19169 1.19128 1.1905 1.19163 1.19156 1.19081 1.19113 1.19082 1.18944 1.18938 1.19178 1.19166 1.19103 1.18928 1.18785 1.1903 1.1895 1.18983 1.18984 1.18849 1.1891 1.18715 1.18871 1.19199 1.1898 1.19044 1.19178 1.19178 1.19146 1.19081 1.1918 1.19146 1.19047 1.19 1.1903 1.19134 1.1904 1.19103 1.19149 1.19155 1.19035 1.18988 1.19178 1.18979 1.19092 1.19197 1.19131 1.19159 1.19178 1.1915 1.19151 1.1914 1.18857 1.18922 1.18848 1.19017 1.18981 1.19011 1.19077 1.1903 1.18961 1.1906 1.19013 1.19025 1.19067 1.18829 1.18926 1.18914 1.19057 1.19169 1.18994 1.1917 1.1915 1.18919 1.18779 1.19034 1.19112 1.18948 1.1898 1.18846 1.18909 1.18925 1.1893 1.19095 1.18995 1.19044 1.19044 1.19046 1.19046 1.19066 1.18997 1.19188 1.19119 1.19169 1.19159 
SCALARS Stress float 1
LOOKUP_TABLE default
-1.69845e+12 -456723000000.0 -298230000000.0 -689958000000.0 -588644000000.0 -244307000000.0 -2.58792e+12 -1.11804e+12 -1.13082e+12 -2.20926e+12 -3.12198e+12 -2.62767e+12 -796004000000.0 -816090000000.0 -722100000000.0 -509156000000.0 -164167000000.0 -121608000000.0 -51899600000.0 -43742700000.0 -59908800000.0 -52870800000.0 -52131200000.0 -18850500000.0 -24597500000.0 -17093000000.0 -12549700000.0 -12549700000.0 -18177200000.0 -12775500000.0 -16698600000.0 -12570800000.0 -12595400000.0 -13001500000.0 -17740800000.0 -16989800000.0 -16582000000.0 -18362700000.0 -17040400000.0 -18031100000.0 -19375700000.0 -22354600000.0 -26308400000.0 -14999000000.0 -19232100000.0 -31881900000.0 -28172100000.0 -32056700000.0 -42310300000.0 -35514100000.0 -48104300000.0 -52256100000.0 -40525100000.0 -98186700000.0 -56651200000.0 -209646000000.0 -167640000000.0 -296065000000.0 -287162000000.0 -255265000000.0 -1.15585e+12 -1.82981e+12 -2.43508e+12 -3.41854e+12 -2.1572e+12 -2.13116e+12 -2.55553e+12 -2.48544e+12 -3.90563e+12 -2.54164e+12 -2.8609e+12 -2.55273e+12 -1.07735e+12 -390833000000.0 -1.57677e+12 -1.95972e+12 -874855000000.0 -660923000000.0 -483923000000.0 -513785000000.0 -185896000000.0 -616763000000.0 -322400000000.0 -239013000000.0 -132613000000.0 -77657900000.0 -62907800000.0 -55476700000.0 -20979100000.0 -16637100000.0 -47355800000.0 -27148400000.0 -27994200000.0 -17983100000.0 -20032000000.0 -22100600000.0 -13461100000.0 -15476700000.0 -16306200000.0 -17618700000.0 -14907700000.0 -13846700000.0 -14748100000.0 -17258500000.0 -13694400000.0 -34086000000.0 -15949400000.0 -13014600000.0 -12549700000.0 -34707400000.0 -12549700000.0 -15990100000.0 -34793600000.0 -30744500000.0 -39918700000.0 -49372700000.0 -12549700000.0 -91011700000.0 -29186300000.0 -267492000000.0 -137582000000.0 -428957000000.0 -392229000000.0 -953128000000.0 -2.8444e+12 -1.53844e+12 -487312000000.0 -2.28227e+12 -2.76575e+12 -3.57362e+12 -3.6584e+12 -2.25332e+12 -1.7822e+12 -1.26084e+12 -1.87574e+12 -3.33898e+12 -3.26386e+12 -2.579e+12 -4.33457e+12 -3.33445e+12 -2.39315e+12 -4.25361e+12 -3.22158e+12 -1.6078e+12 -1.01094e+12 -2.02661e+12 -1.88078e+12 -971500000000.0 -647871000000.0 -733723000000.0 -831151000000.0 -634896000000.0 -680975000000.0 -324624000000.0 -369436000000.0 -79542600000.0 -136141000000.0 -199853000000.0 -115466000000.0 -107672000000.0 -29233800000.0 -37982300000.0 -41767300000.0 -15378900000.0 -19995600000.0 -21894400000.0 -14388300000.0 -13366500000.0 -14303600000.0 -25060400000.0 -16656300000.0 -12744800000.0 -16432500000.0 -24947600000.0 -24769500000.0 -44018700000.0 -64563800000.0 -69360900000.0 -60899800000.0 -114648000000.0 -189573000000.0 -197191000000.0 -236286000000.0 -132494000000.0 -108760000000.0 -247552000000.0 -283144000000.0 -377968000000.0 -408762000000.0 -569303000000.0 -822953000000.0 -900219000000.0 -2.14329e+12 -820732000000.0 -2.1427e+12 -4.74378e+12 -4.20325e+12 -2.24705e+12 -2.89901e+12 -3.25674e+12 -3.80692e+12 -3.0116e+12 -4.79349e+12 -3.65265e+12 -3.32017e+12 -2.82383e+12 -2.48515e+12 -2.60548e+12 -5.35019e+12 -2.95161e+12 -5.28502e+12 -2.06864e+12 -3.62592e+12 -3.89063e+12 -4.36735e+12 -3.96486e+12 -1.55067e+12 -1.66122e+12 -784987000000.0 -558632000000.0 -250527000000.0 -293909000000.0 -1.01001e+12 -769248000000.0 -134032000000.0 -288855000000.0 -299400000000.0 -361231000000.0 -447535000000.0 -416415000000.0 -423870000000.0 -329926000000.0 -246861000000.0 -175226000000.0 -152128000000.0 -169213000000.0 -143936000000.0 -70571100000.0 -49199200000.0 -35083400000.0 -42155100000.0 -18299400000.0 -14317400000.0 -23950000000.0 -31694900000.0 -12790600000.0 -18460200000.0 -17270200000.0 -33191700000.0 -37476200000.0 -75654200000.0 -13137200000.0 -34673500000.0 -26676000000.0 -96001900000.0 -12549700000.0 -12549700000.0 -254639000000.0 -17297900000.0 -265618000000.0 -175149000000.0 -206426000000.0 -401796000000.0 -534644000000.0 -788558000000.0 -1.6401e+12 -721429000000.0 -1.65958e+12 -1.3375e+12 -1.32711e+12 -2.9548e+12 -1.983e+12 -5.05347e+12 -5.92689e+12 -4.35749e+12 -3.30352e+12 -4.04264e+12 -2.63192e+12 -4.70781e+12 -2.14636e+12 -1.91208e+12 -2.4062e+12 -1.79105e+12 -2.19976e+12 -4.17055e+12 -4.14347e+12 -4.70494e+12 -2.72274e+12 -6.05738e+12 -4.32945e+12 -3.48023e+12 -3.74345e+12 -3.03289e+12 -2.00499e+12 -3.26089e+12 -2.00499e+12 -2.01831e+12 -688040000000.0 -1.06511e+12 -1.09285e+12 -746061000000.0 -753630000000.0 -800422000000.0 -630786000000.0 -125178000000.0 -364086000000.0 -291592000000.0 -390766000000.0 -120178000000.0 -65363100000.0 -60048600000.0 -45603000000.0 -41244300000.0 -105330000000.0 -22162000000.0 -39597900000.0 -70239800000.0 -92207400000.0 -42561700000.0 -26449000000.0 -42337500000.0 -20002100000.0 -28199400000.0 -34855100000.0 -24413200000.0 -48875300000.0 -64636400000.0 -21988000000.0 -38272000000.0 -34268000000.0 -131419000000.0 -17375700000.0 -36015900000.0 -79054900000.0 -262088000000.0 -216019000000.0 -324027000000.0 -233604000000.0 -283237000000.0 -361206000000.0 -626379000000.0 -1.79845e+12 -1.01332e+12 -2.1459e+12 -3.82488e+12 -1.07008e+12 -2.43252e+12 -3.87088e+12 -5.45134e+12 -2.91033e+12 -1.50845e+12 -3.62872e+12 -4.37853e+12 -5.66427e+12 -2.98523e+12 -2.5283e+12 -2.89923e+12 -3.80538e+12 -3.04694e+12 -3.87229e+12 -2.9007e+12 -4.3837e+12 -4.3201e+12 -4.739e+12 -3.80774e+12 -3.91431e+12 -5.43373e+12 -2.20148e+12 -4.29628e+12 -4.97939e+12 -3.01338e+12 -3.2064e+12 -1.10904e+12 -4.02632e+12 -2.38998e+12 -2.57711e+12 -2.13641e+12 -2.54495e+12 -1.55451e+12 -2.71815e+12 -1.83309e+12 -2.23161e+12 -2.13275e+12 -1.14613e+12 -1.62394e+12 -677390000000.0 -492000000000.0 -430645000000.0 -282818000000.0 -489777000000.0 -256834000000.0 -388793000000.0 -614358000000.0 -185295000000.0 -97916200000.0 -153870000000.0 -133969000000.0 -105810000000.0 -17921500000.0 -32131200000.0 -16861400000.0 -131182000000.0 -96490300000.0 -39747600000.0 -54797500000.0 -56271600000.0 -51916300000.0 -61937500000.0 -83097300000.0 -53371900000.0 -40761800000.0 -56852700000.0 -47023400000.0 -79067100000.0 -129855000000.0 -138482000000.0 -89262400000.0 -97099400000.0 -144953000000.0 -243400000000.0 -342174000000.0 -396182000000.0 -504259000000.0 -570527000000.0 -420934000000.0 -530254000000.0 -440618000000.0 -1.01683e+12 -341743000000.0 -887422000000.0 -1.92016e+12 -1.17821e+12 -2.30485e+12 -3.17774e+12 -3.08218e+12 -5.04799e+12 -3.23051e+12 -3.56582e+12 -3.3968e+12 -2.02049e+12 -2.74286e+12 -6.68478e+12 -6.52478e+12 -4.04993e+12 -6.27293e+12 -6.87092e+12 -4.18156e+12 -4.83153e+12 -6.68235e+12 -4.59668e+12 -7.5442e+12 -4.96498e+12 -3.48294e+12 -2.62471e+12 -5.01026e+12 -3.22828e+12 -3.59069e+12 -4.94084e+12 -5.24171e+12 -2.85478e+12 -2.92323e+12 -2.71233e+12 -2.77005e+12 -2.81407e+12 -2.55667e+12 -2.17721e+12 -2.26448e+12 -958298000000.0 -1.38293e+12 -1.02301e+12 -729427000000.0 -1.03913e+12 -1.26325e+12 -820773000000.0 -714580000000.0 -537272000000.0 -453327000000.0 -424771000000.0 -268431000000.0 -196218000000.0 -156578000000.0 -127654000000.0 -94008500000.0 -99066300000.0 -97549200000.0 -79098200000.0 -37110700000.0 -41995600000.0 -47303800000.0 -16707900000.0 -29730600000.0 -15201800000.0 -28284200000.0 -62875200000.0 -52393000000.0 -69988200000.0 -82953000000.0 -62011600000.0 -29105800000.0 -28959500000.0 -45599600000.0 -167489000000.0 -139871000000.0 -22322500000.0 -58560200000.0 -196511000000.0 -180984000000.0 -550079000000.0 -241248000000.0 -710574000000.0 -954797000000.0 -1.34683e+12 -1.21605e+12 -1.63566e+12 -1.9724e+12 -2.25345e+12 -2.42214e+12 -1.11823e+12 -3.30942e+12 -1.5272e+12 -1.28379e+12 -2.26533e+12 -4.13928e+12 -4.99656e+12 -1.88542e+12 -1.82122e+12 -4.23253e+12 -3.192e+12 -6.22799e+12 -4.09983e+12 -5.86211e+12 -4.36925e+12 -5.89646e+12 -7.12832e+12 -1.42756e+12 -3.40301e+12 -4.11698e+12 -4.22077e+12 -2.00673e+12 -3.98348e+12 -5.42841e+12 -4.9704e+12 -9.0907e+12 -2.46165e+12 -6.09208e+12 -6.36635e+12 -3.76057e+12 -6.29016e+12 -4.06154e+12 -3.69507e+12 -1.9378e+12 -2.83042e+12 -2.32452e+12 -3.10022e+12 -3.21526e+12 -3.10563e+12 -1.57822e+12 -1.83376e+12 -1.62339e+12 -2.93619e+12 -3.00255e+12 -2.54328e+12 -1.51705e+12 -1.32229e+12 -1.84111e+12 -492155000000.0 -1.01185e+12 -560969000000.0 -554998000000.0 -170909000000.0 -214822000000.0 -129099000000.0 -358865000000.0 -249787000000.0 -84995600000.0 -338426000000.0 -139044000000.0 -138112000000.0 -109439000000.0 -68253800000.0 -71402400000.0 -74130400000.0 -35666300000.0 -45942400000.0 -32466100000.0 -24996400000.0 -19373400000.0 -12549700000.0 -28820600000.0 -31057200000.0 -26347800000.0 -55932100000.0 -69086900000.0 -55469000000.0 -67991200000.0 -108978000000.0 -22089900000.0 -22641000000.0 -18697900000.0 -41165300000.0 -85191200000.0 -25560600000.0 -113482000000.0 -123660000000.0 -440503000000.0 -550255000000.0 -647493000000.0 -580162000000.0 -481268000000.0 -912639000000.0 -1.09042e+12 -1.0853e+12 -2.05719e+12 -1.92099e+12 -1.22939e+12 -3.58455e+12 -2.7196e+12 -1.7101e+12 -1.1264e+12 -2.41216e+12 -487434000000.0 -3.14837e+12 -3.56835e+12 -4.33759e+12 -4.28862e+12 -3.29332e+12 -4.43469e+12 -4.24473e+12 -6.79859e+12 -3.77593e+12 -8.36506e+12 -4.78566e+12 -6.30339e+12 -5.70851e+12 -2.63854e+12 -3.49321e+12 -5.04697e+12 -2.70497e+12 -5.69261e+12 -5.50324e+12 -4.26743e+12 -3.30313e+12 -6.44815e+12 -5.16145e+12 -4.19886e+12 -5.63923e+12 -5.12097e+12 -4.31445e+12 -5.35484e+12 -3.0775e+12 -3.39587e+12 -1.90856e+12 -1.6106e+12 -1.7063e+12 -2.1228e+12 -3.75441e+12 -2.59073e+12 -2.30784e+12 -1.38671e+12 -1.01892e+12 -1.26463e+12 -539923000000.0 -425207000000.0 -332406000000.0 -326461000000.0 -438858000000.0 -381954000000.0 -298224000000.0 -188890000000.0 -190096000000.0 -108054000000.0 -162691000000.0 -157564000000.0 -109420000000.0 -88916500000.0 -63276800000.0 -60665400000.0 -64648900000.0 -62632500000.0 -52063900000.0 -56578500000.0 -69050600000.0 -13405100000.0 -43774300000.0 -40041300000.0 -54065400000.0 -97314000000.0 -94262000000.0 -15046300000.0 -138360000000.0 -177009000000.0 -100384000000.0 -136827000000.0 -299334000000.0 -94251200000.0 -168146000000.0 -590969000000.0 -265732000000.0 -223393000000.0 -510828000000.0 -535101000000.0 -2.0553e+12 -332066000000.0 -1.16223e+12 -2.59899e+12 -1.33813e+12 -1.39165e+12 -1.33965e+12 -2.74582e+12 -2.74001e+12 -2.23e+12 -3.23568e+12 -709831000000.0 -3.06915e+12 -2.60617e+12 -6.58652e+12 -2.87149e+12 -4.21959e+12 -5.1874e+12 -5.91815e+12 -6.32975e+12 -5.68874e+12 -2.31661e+12 -5.75437e+12 -3.37412e+12 -3.92339e+12 -3.25589e+12 -6.36298e+12 -6.51999e+12 -5.10919e+12 -2.94775e+12 -3.06637e+12 -5.07203e+12 -3.91253e+12 -4.77688e+12 -3.56959e+12 -4.90547e+12 -5.04648e+12 -3.13336e+12 -5.7079e+12 -2.9423e+12 -5.45858e+12 -3.70788e+12 -5.22009e+12 -1.43347e+12 -2.73733e+12 -3.68752e+12 -5.05779e+12 -3.29205e+12 -2.86273e+12 -4.41413e+12 -2.08196e+12 -1.86705e+12 -1.85769e+12 -969758000000.0 -1.23528e+12 -3.12527e+12 -2.40286e+12 -711459000000.0 -2.03028e+12 -644408000000.0 -436479000000.0 -1.31096e+12 -857801000000.0 -756001000000.0 -423874000000.0 -415237000000.0 -522152000000.0 -21679900000.0 -181044000000.0 -97135000000.0 -128433000000.0 -72630000000.0 -42922800000.0 -32644500000.0 -83773000000.0 -14771600000.0 -51775500000.0 -16744400000.0 -13704900000.0 -14924200000.0 -30315700000.0 -26002300000.0 -36667900000.0 -50706000000.0 -13452100000.0 -42445200000.0 -31599900000.0 -15735400000.0 -28747500000.0 -49442000000.0 -57158200000.0 -47003600000.0 -173954000000.0 -93757100000.0 -63644300000.0 -153915000000.0 -192939000000.0 -290282000000.0 -222687000000.0 -178565000000.0 -626571000000.0 -533065000000.0 -521529000000.0 -708524000000.0 -1.41779e+12 -1.33806e+12 -1.34543e+12 -2.75396e+12 -1.1253e+12 -2.01209e+12 -1.19873e+12 -2.07626e+12 -1.64419e+12 -2.26031e+12 -2.82841e+12 -2.57288e+12 -3.53008e+12 -4.67123e+12 -3.73713e+12 -3.79208e+12 -4.38061e+12 -4.7291e+12 -4.59614e+12 -7.82215e+12 -5.07153e+12 -3.09061e+12 -4.25259e+12 -2.53409e+12 -3.18923e+12 -9.07474e+12 -5.30287e+12 -2.92282e+12 -8.99532e+12 -2.50349e+12 -2.26627e+12 -3.20947e+12 -6.5857e+12 -5.88559e+12 -4.61907e+12 -6.42585e+12 -5.85669e+12 -3.91681e+12 -4.24442e+12 -3.52693e+12 -2.4567e+12 -4.0995e+12 -6.74071e+12 -4.84875e+12 -5.23672e+12 -2.42333e+12 -3.01198e+12 -1.84804e+12 -1.92589e+12 -2.41806e+12 -2.54966e+12 -2.57033e+12 -1.1606e+12 -1.49545e+12 -2.10344e+12 -1.49199e+12 -1.79102e+12 -911821000000.0 -1.86904e+12 -621637000000.0 -896876000000.0 -597301000000.0 -535479000000.0 -312598000000.0 -69301800000.0 -57408700000.0 -17787700000.0 -435041000000.0 -231442000000.0 -228917000000.0 -122863000000.0 -37898900000.0 -16798400000.0 -60765300000.0 -64280300000.0 -83022600000.0 -43435900000.0 -35471200000.0 -33471200000.0 -35464300000.0 -37083200000.0 -32080400000.0 -60385700000.0 -29543700000.0 -51684200000.0 -56024300000.0 -14882100000.0 -79445700000.0 -74525900000.0 -62324000000.0 -131890000000.0 -82371100000.0 -22153200000.0 -44129800000.0 -133637000000.0 -100768000000.0 -316638000000.0 -407182000000.0 -503621000000.0 -399318000000.0 -361953000000.0 -690051000000.0 -1.06556e+12 -306804000000.0 -826040000000.0 -913599000000.0 -1.18211e+12 -1.86981e+12 -1.30476e+12 -670895000000.0 -2.18352e+12 -2.8037e+12 -2.46447e+12 -2.01182e+12 -2.00725e+12 -1.67053e+12 -2.52848e+12 -2.16199e+12 -5.67698e+12 -2.86116e+12 -2.20778e+12 -3.46045e+12 -2.50916e+12 -2.71379e+12 -5.88485e+12 -5.93122e+12 -5.06613e+12 -2.99496e+12 -4.35221e+12 -2.80023e+12 -3.6211e+12 -4.80755e+12 -5.39092e+12 -5.30331e+12 -5.48269e+12 -4.09297e+12 -5.02633e+12 -4.78148e+12 -1.34697e+12 -2.5281e+12 -5.58892e+12 -7.90549e+12 -5.81576e+12 -6.11659e+12 -6.88325e+12 -5.9707e+12 -5.8977e+12 -2.38361e+12 -3.62052e+12 -3.23334e+12 -5.92356e+12 -3.97792e+12 -3.52072e+12 -4.07376e+12 -4.10621e+12 -2.43462e+12 -3.12596e+12 -4.52804e+12 -2.20997e+12 -1.90138e+12 -2.18376e+12 -4.07603e+12 -1.98335e+12 -1.50833e+12 -2.66177e+12 -2.54345e+12 -2.07809e+12 -1.70265e+12 -1.24749e+12 -1.14692e+12 -603696000000.0 -1.03095e+12 -709998000000.0 -580838000000.0 -938275000000.0 -672178000000.0 -574918000000.0 -235150000000.0 -216812000000.0 -108076000000.0 -192147000000.0 -143296000000.0 -74206400000.0 -119484000000.0 -32830400000.0 -20494900000.0 -59325300000.0 -12549700000.0 -14358200000.0 -17639700000.0 -37446600000.0 -19461800000.0 -31861800000.0 -22977800000.0 -49323700000.0 -12549700000.0 -53946900000.0 -32396000000.0 -66084500000.0 -65823900000.0 -41788700000.0 -61012300000.0 -178614000000.0 -141185000000.0 -156249000000.0 -67741400000.0 -166453000000.0 -252398000000.0 -30903900000.0 -69340600000.0 -217261000000.0 -619925000000.0 -958493000000.0 -708918000000.0 -851807000000.0 -1.37163e+12 -1.17921e+12 -1.25389e+12 -783260000000.0 -2.23618e+12 -1.34417e+12 -2.17526e+12 -2.97016e+12 -2.58887e+12 -3.02144e+12 -3.38026e+12 -2.9114e+12 -2.83799e+12 -2.16307e+12 -4.05604e+12 -4.08543e+12 -2.38145e+12 -6.26717e+12 -7.01546e+12 -2.56173e+12 -5.08295e+12 -4.70866e+12 -6.01554e+12 -4.66833e+12 -4.30534e+12 -4.2963e+12 -4.9655e+12 -3.20332e+12 -3.4102e+12 -3.7977e+12 -4.36458e+12 -3.34871e+12 -3.99121e+12 -4.05478e+12 -5.76829e+12 -6.11361e+12 -5.00596e+12 -3.50274e+12 -6.08168e+12 -5.49783e+12 -6.86126e+12 -2.4754e+12 -2.31591e+12 -5.286e+12 -2.50997e+12 -3.97745e+12 -2.60138e+12 -2.49484e+12 -2.77216e+12 -2.61092e+12 -1.94899e+12 -2.48489e+12 -2.39597e+12 -3.68054e+12 -2.40059e+12 -2.69684e+12 -2.174e+12 -1.31192e+12 -1.35835e+12 -1.36334e+12 -1.01443e+12 -1.01943e+12 -987831000000.0 -777940000000.0 -407773000000.0 -618592000000.0 -345691000000.0 -128289000000.0 -320491000000.0 -301747000000.0 -382070000000.0 -188120000000.0 -261807000000.0 -88010800000.0 -50435500000.0 -69552200000.0 -57706900000.0 -35792500000.0 -33338000000.0 -60229400000.0 -42484100000.0 -57992600000.0 -24907300000.0 -31749300000.0 -52687600000.0 -12549700000.0 -12549700000.0 -89880000000.0 -83460400000.0 -107725000000.0 -80822000000.0 -112531000000.0 -32849600000.0 -70805400000.0 -165505000000.0 -357058000000.0 -375539000000.0 -361136000000.0 -250953000000.0 -243399000000.0 -654171000000.0 -416817000000.0 -464430000000.0 -1.02163e+12 -688980000000.0 -393251000000.0 -734600000000.0 -905726000000.0 -1.79277e+12 -537626000000.0 -2.02454e+12 -1.51596e+12 -2.81183e+12 -1.01539e+12 -1.53081e+12 -3.10436e+12 -1.69442e+12 -3.80836e+12 -3.04004e+12 -5.96202e+12 -3.79984e+12 -5.26198e+12 -1.78928e+12 -4.25696e+12 -2.51625e+12 -1.12549e+12 -4.02499e+12 -3.56481e+12 -1.91418e+12 -3.70699e+12 -2.03241e+12 -5.25872e+12 -4.54567e+12 -3.625e+12 -3.5265e+12 -5.14124e+12 -6.6262e+12 -4.31252e+12 -6.5704e+12 -2.59148e+12 -3.38286e+12 -2.50413e+12 -1.92525e+12 -4.04734e+12 -4.06974e+12 -6.3146e+12 -6.77036e+12 -4.32883e+12 -3.46815e+12 -2.64934e+12 -3.31729e+12 -4.21498e+12 -6.57168e+12 -5.33162e+12 -1.38077e+12 -3.32258e+12 -4.36925e+12 -3.11763e+12 -4.61371e+12 -3.45329e+12 -4.23421e+12 -2.20459e+12 -1.88723e+12 -3.72322e+12 -2.62943e+12 -1.63585e+12 -1.18269e+12 -2.20131e+12 -2.35616e+12 -2.19665e+12 -1.02126e+12 -991999000000.0 -1.3511e+12 -2.4301e+12 -1.78438e+12 -912556000000.0 -1.40747e+12 -1.93297e+12 -1.10865e+12 -546345000000.0 -1.09392e+12 -276550000000.0 -529749000000.0 -366776000000.0 -156861000000.0 -230150000000.0 -155038000000.0 -145659000000.0 -154435000000.0 -129247000000.0 -44907900000.0 -16357600000.0 -23656200000.0 -71293000000.0 -42534600000.0 -63226200000.0 -13026700000.0 -20919600000.0 -16446400000.0 -49889800000.0 -15561100000.0 -20872200000.0 -13859500000.0 -56397800000.0 -70324000000.0 -22800900000.0 -48232500000.0 -54648800000.0 -130272000000.0 -126692000000.0 -53396900000.0 -107674000000.0 -36118300000.0 -44249200000.0 -42491400000.0 -103969000000.0 -380362000000.0 -597438000000.0 -497630000000.0 -94543400000.0 -119392000000.0 -954535000000.0 -715693000000.0 -1.35339e+12 -927319000000.0 -1.45802e+12 -743062000000.0 -934732000000.0 -1.82942e+12 -1.60835e+12 -698619000000.0 -2.61183e+12 -1.74734e+12 -2.73909e+12 -1.9006e+12 -3.53104e+12 -4.58655e+12 -3.4283e+12 -3.27954e+12 -2.34519e+12 -2.89857e+12 -5.4488e+12 -4.35724e+12 -4.39582e+12 -3.78755e+12 -4.18294e+12 -5.07363e+12 -2.53752e+12 -4.03332e+12 -3.12501e+12 -3.55896e+12 -2.67315e+12 -4.2992e+12 -4.57816e+12 -5.98655e+12 -2.24273e+12 -3.25557e+12 -2.68468e+12 -3.05482e+12 -3.02926e+12 -2.05335e+12 -3.95335e+12 -3.63965e+12 -5.85536e+12 -4.85659e+12 -2.99181e+12 -3.92902e+12 -2.59119e+12 -2.8466e+12 -2.05413e+12 -4.38096e+12 -5.46288e+12 -3.40126e+12 -2.8883e+12 -4.58321e+12 -2.67706e+12 -4.58678e+12 -2.72616e+12 -2.57356e+12 -3.51392e+12 -947386000000.0 -2.64651e+12 -2.35069e+12 -1.77323e+12 -1.54065e+12 -1.98988e+12 -1.90553e+12 -1.16793e+12 -271233000000.0 -1.61951e+12 -1.09897e+12 -1.48519e+12 -699622000000.0 -316475000000.0 -285966000000.0 -89012300000.0 -1.01315e+12 -706851000000.0 -705174000000.0 -893518000000.0 -653080000000.0 -391337000000.0 -121495000000.0 -154896000000.0 -187735000000.0 -114651000000.0 -135005000000.0 -83321300000.0 -22267900000.0 -22468700000.0 -51238200000.0 -15451800000.0 -17183400000.0 -12700700000.0 -45997500000.0 -46432200000.0 -42868300000.0 -33431900000.0 -48344600000.0 -75522700000.0 -22532900000.0 -41378900000.0 -21036300000.0 -192978000000.0 -80444600000.0 -42995400000.0 -68303300000.0 -91882100000.0 -18203400000.0 -62268000000.0 -133520000000.0 -170000000000.0 -113433000000.0 -107973000000.0 -196754000000.0 -536865000000.0 -334159000000.0 -565553000000.0 -272389000000.0 -249459000000.0 -716945000000.0 -693420000000.0 -286180000000.0 -253257000000.0 -1.3097e+12 -747980000000.0 -1.55709e+12 -2.27073e+12 -1.17855e+12 -1.43522e+12 -2.14058e+12 -3.3339e+12 -2.44133e+12 -1.95347e+12 -2.32784e+12 -1.43068e+12 -1.12604e+12 -3.57427e+12 -2.58303e+12 -2.40673e+12 -2.59642e+12 -1.99371e+12 -4.81147e+12 -4.34804e+12 -3.45722e+12 -4.31709e+12 -4.19141e+12 -4.18098e+12 -3.53657e+12 -3.14688e+12 -3.63676e+12 -2.16127e+12 -3.23026e+12 -3.79558e+12 -2.92718e+12 -4.70612e+12 -3.46767e+12 -6.24111e+12 -3.69968e+12 -2.85773e+12 -4.37736e+12 -1.45014e+12 -2.34267e+12 -3.40768e+12 -4.43774e+12 -2.91163e+12 -3.99628e+12 -2.57068e+12 -2.09369e+12 -1.65665e+12 -3.06481e+12 -6.33639e+12 -4.13245e+12 -3.96542e+12 -947171000000.0 -5.19294e+12 -2.28185e+12 -1.71493e+12 -2.09599e+12 -1.63197e+12 -1.18704e+12 -2.84428e+12 -2.91689e+12 -959187000000.0 -1.97852e+12 -1.26027e+12 -2.49193e+12 -1.17235e+12 -1.77255e+12 -1.18074e+12 -775291000000.0 -1.33406e+12 -1.55681e+12 -2.04216e+12 -1.17995e+12 -919619000000.0 -293154000000.0 -1.01274e+12 -1.00201e+12 -1.147e+12 -848308000000.0 -239376000000.0 -243328000000.0 -47128000000.0 -363655000000.0 -103831000000.0 -618470000000.0 -130150000000.0 -438450000000.0 -35797900000.0 -288858000000.0 -284883000000.0 -127229000000.0 -45266000000.0 -43105000000.0 -81246200000.0 -20169400000.0 -30847900000.0 -68863600000.0 -33545800000.0 -38578500000.0 -43176500000.0 -12549700000.0 -49536700000.0 -26560100000.0 -18550500000.0 -73322200000.0 -30391300000.0 -70606000000.0 -47440500000.0 -24107200000.0 -25121400000.0 -88300400000.0 -166541000000.0 -62007400000.0 -81174000000.0 -52571300000.0 -247232000000.0 -45242000000.0 -403811000000.0 -567160000000.0 -21027700000.0 -173074000000.0 -271836000000.0 -416045000000.0 -590316000000.0 -180399000000.0 -759070000000.0 -101803000000.0 -1.33115e+12 -1.64847e+12 -1.37836e+12 -2.03696e+12 -1.50761e+12 -1.648e+12 -1.00441e+12 -2.11537e+12 -2.26791e+12 -3.12514e+12 -3.06197e+12 -3.15249e+12 -3.08744e+12 -3.1563e+12 -3.01855e+12 -3.45934e+12 -2.95228e+12 -3.92118e+12 -2.83947e+12 -3.13091e+12 -2.05816e+12 -2.37158e+12 -3.33824e+12 -2.52878e+12 -1.35689e+12 -3.25197e+12 -3.86723e+12 -3.11801e+12 -4.02664e+12 -3.93061e+12 -2.32104e+12 -1.36602e+12 -2.47025e+12 -1.39257e+12 -1.91438e+12 -2.78726e+12 -3.7776e+12 -2.55171e+12 -1.96271e+12 -4.2179e+12 -3.23724e+12 -2.10905e+12 -1.5342e+12 -2.93035e+12 -2.32778e+12 -2.3519e+12 -2.28167e+12 -2.54969e+12 -4.25606e+12 -2.18274e+12 -1.52814e+12 -1.73763e+12 -1.96859e+12 -954529000000.0 -1.22025e+12 -1.69766e+12 -520285000000.0 -2.20395e+12 -674046000000.0 -1.0776e+12 -1.22972e+12 -493566000000.0 -1.21364e+12 -694173000000.0 -810179000000.0 -796486000000.0 -174330000000.0 -264491000000.0 -93966800000.0 -196317000000.0 -258316000000.0 -214492000000.0 -278904000000.0 -63471300000.0 -202582000000.0 -79226500000.0 -89350500000.0 -38273300000.0 -60665000000.0 -74155600000.0 -99319400000.0 -14604100000.0 -40534800000.0 -42221800000.0 -42035100000.0 -43739600000.0 -35251500000.0 -29138200000.0 -103560000000.0 -59961600000.0 -68082000000.0 -72366700000.0 -83590100000.0 -127038000000.0 -57670600000.0 -120625000000.0 -145342000000.0 -156794000000.0 -478688000000.0 -266406000000.0 -343833000000.0 -387952000000.0 -579591000000.0 -501034000000.0 -356233000000.0 -254990000000.0 -827317000000.0 -910659000000.0 -1.27759e+12 -507773000000.0 -475676000000.0 -1.25594e+12 -1.19694e+12 -1.62793e+12 -107972000000.0 -1.04611e+12 -947342000000.0 -1.10668e+12 -1.81359e+12 -727751000000.0 -2.51922e+12 -2.76932e+12 -2.06801e+12 -3.33373e+12 -4.21295e+12 -2.9187e+12 -4.03675e+12 -1.74972e+12 -3.01223e+12 -4.24155e+12 -2.57025e+12 -2.48745e+12 -3.76286e+12 -1.79928e+12 -3.31632e+12 -1.4796e+12 -3.14754e+12 -4.38565e+12 -2.27121e+12 -2.86302e+12 -3.59e+12 -3.16085e+12 -2.66288e+12 -2.79954e+12 -2.76001e+12 -1.68135e+12 -2.73152e+12 -1.57496e+12 -1.98166e+12 -3.46495e+12 -3.02752e+12 -6.52698e+12 -3.26021e+12 -1.45204e+12 -2.3153e+12 -2.10058e+12 -3.30669e+12 -2.67869e+12 -2.2917e+12 -1.93244e+12 -1.24583e+12 -854384000000.0 -1.72946e+12 -1.25712e+12 -813443000000.0 -804477000000.0 -1.08156e+12 -1.15441e+12 -1.61448e+12 -308612000000.0 -1.29015e+12 -783237000000.0 -405264000000.0 -319064000000.0 -155211000000.0 -409203000000.0 -427145000000.0 -468113000000.0 -389390000000.0 -343533000000.0 -21891900000.0 -121228000000.0 -67396300000.0 -26822400000.0 -134011000000.0 -45333800000.0 -62074500000.0 -86049000000.0 -13870200000.0 -57317100000.0 -54890600000.0 -12683400000.0 -21841600000.0 -16294800000.0 -33553900000.0 -12600700000.0 -53180100000.0 -42228200000.0 -42449700000.0 -27803300000.0 -141033000000.0 -14408800000.0 -71748500000.0 -35641900000.0 -94028500000.0 -220298000000.0 -144045000000.0 -117727000000.0 -138972000000.0 -195635000000.0 -341636000000.0 -24993100000.0 -226492000000.0 -129584000000.0 -38886100000.0 -39777800000.0 -551306000000.0 -423155000000.0 -50904600000.0 -886441000000.0 -324315000000.0 -840213000000.0 -425017000000.0 -662556000000.0 -294243000000.0 -698860000000.0 -387899000000.0 -733614000000.0 -370806000000.0 -1.94892e+12 -156482000000.0 -831977000000.0 -1.36986e+12 -917457000000.0 -1.69779e+12 -2.08094e+12 -2.02678e+12 -1.14812e+12 -750967000000.0 -1.57993e+12 -583554000000.0 -2.85359e+12 -1.49042e+12 -1.98417e+12 -1.51602e+12 -1.62043e+12 -2.32873e+12 -1.9861e+12 -2.83427e+12 -2.30963e+12 -2.89851e+12 -3.04998e+12 -3.70456e+12 -3.37785e+12 -2.50466e+12 -2.298e+12 -1.4335e+12 -2.71494e+12 -1.52485e+12 -2.70569e+12 -1.15933e+12 -1.8417e+12 -1.30945e+12 -761850000000.0 -1.10163e+12 -3.54665e+12 -1.13222e+12 -2.34693e+12 -1.32699e+12 -4.06392e+12 -1.87211e+12 -2.47555e+12 -1.01932e+12 -1.15384e+12 -2.88566e+12 -1.672e+12 -1.14514e+12 -1.42165e+12 -1.13331e+12 -1.15814e+12 -801467000000.0 -1.16901e+12 -1.18705e+12 -739030000000.0 -1.63202e+12 -1.75412e+12 -312274000000.0 -326743000000.0 -684713000000.0 -910967000000.0 -694697000000.0 -384137000000.0 -548780000000.0 -219517000000.0 -264269000000.0 -149055000000.0 -309965000000.0 -268011000000.0 -147931000000.0 -80302200000.0 -173014000000.0 -200859000000.0 -273777000000.0 -196093000000.0 -67750200000.0 -90688200000.0 -60254400000.0 -57991800000.0 -49989300000.0 -74712300000.0 -13341000000.0 -25699000000.0 -67805600000.0 -14452600000.0 -73186500000.0 -36859800000.0 -26961800000.0 -30780300000.0 -57321400000.0 -68852700000.0 -84903800000.0 -72886400000.0 -95771100000.0 -108738000000.0 -16409400000.0 -81341100000.0 -139325000000.0 -85857500000.0 -103913000000.0 -205889000000.0 -317247000000.0 -153486000000.0 -159418000000.0 -118656000000.0 -22028700000.0 -441081000000.0 -14140100000.0 -327827000000.0 -376246000000.0 -383741000000.0 -402761000000.0 -556697000000.0 -236822000000.0 -363046000000.0 -372329000000.0 -106305000000.0 -714916000000.0 -1.69693e+12 -1.54417e+12 -1.96108e+12 -587131000000.0 -1.64133e+12 -1.20785e+12 -1.76925e+12 -1.07761e+12 -1.81804e+12 -2.46123e+12 -2.71085e+12 -3.42992e+12 -1.61117e+12 -1.18222e+12 -2.47075e+12 -3.82212e+12 -3.7208e+12 -4.0375e+12 -2.28626e+12 -1.77447e+12 -1.60725e+12 -1.78809e+12 -1.54743e+12 -1.32936e+12 -1.36238e+12 -1.46228e+12 -1.40366e+12 -2.04173e+12 -1.23517e+12 -1.1223e+12 -2.04522e+12 -747408000000.0 -1.32137e+12 -1.20587e+12 -1.136e+12 -2.1927e+12 -892624000000.0 -2.13221e+12 -1.61359e+12 -2.09237e+12 -1.7372e+12 -1.82855e+12 -2.39357e+12 -1.40544e+12 -1.12258e+12 -1.64145e+12 -400697000000.0 -680766000000.0 -1.53829e+12 -1.23266e+12 -1.05946e+12 -1.22282e+12 -1.22926e+12 -559901000000.0 -686630000000.0 -568632000000.0 -441387000000.0 -126488000000.0 -562971000000.0 -223628000000.0 -328571000000.0 -301299000000.0 -238183000000.0 -112007000000.0 -38667000000.0 -302532000000.0 -192010000000.0 -163083000000.0 -69912800000.0 -200205000000.0 -16822500000.0 -12549700000.0 -91046000000.0 -171129000000.0 -156511000000.0 -73828200000.0 -77817200000.0 -87932300000.0 -18298000000.0 -34383800000.0 -70301300000.0 -48869100000.0 -21316000000.0 -13033500000.0 -96871800000.0 -15007300000.0 -48126300000.0 -63312300000.0 -81579800000.0 -84545700000.0 -80852700000.0 -97615200000.0 -118879000000.0 -77815900000.0 -108993000000.0 -41536400000.0 -258231000000.0 -136681000000.0 -59450600000.0 -262217000000.0 -313959000000.0 -12516400000.0 -155620000000.0 -159981000000.0 -339051000000.0 -101256000000.0 -317931000000.0 -87967600000.0 -86770100000.0 -381111000000.0 -605130000000.0 -630100000000.0 -630120000000.0 -455885000000.0 -432820000000.0 -804560000000.0 -1.08273e+12 -1.71968e+12 -1.24545e+12 -1.83648e+12 -1.65654e+12 -1.68809e+12 -710333000000.0 -1.38798e+12 -1.60514e+12 -2.10671e+12 -1.29349e+12 -1.11039e+12 -1.11565e+12 -3.25622e+12 -1.39322e+12 -1.04351e+12 -2.35004e+12 -3.36386e+12 -2.14782e+12 -1.46527e+12 -931107000000.0 -1.85328e+12 -691954000000.0 -1.08704e+12 -666649000000.0 -847912000000.0 -1.77527e+12 -1.67899e+12 -1.93895e+12 -650512000000.0 -2.06316e+12 -1.10672e+12 -1.04954e+12 -1.01544e+12 -637282000000.0 -1.00286e+12 -188635000000.0 -1.82822e+12 -776558000000.0 -1.99677e+12 -1.61205e+12 -1.76101e+12 -1.97086e+12 -726092000000.0 -31112900000.0 -351145000000.0 -429449000000.0 -228742000000.0 -505262000000.0 -245704000000.0 -50960300000.0 -344350000000.0 -252345000000.0 -31735800000.0 -187541000000.0 -180120000000.0 -311168000000.0 -26248300000.0 -25390400000.0 -102026000000.0 -135701000000.0 -76065700000.0 -98897400000.0 -126601000000.0 -12610200000.0 -73958800000.0 -80405700000.0 -40207700000.0 -38362800000.0 -88824400000.0 -62857000000.0 -34988400000.0 -47609400000.0 -68284900000.0 -45495400000.0 -94346300000.0 -20240000000.0 -26214200000.0 -36323800000.0 -106476000000.0 -165349000000.0 -40553800000.0 -41372200000.0 -120156000000.0 -52271900000.0 -163242000000.0 -47227800000.0 -51558200000.0 -23238600000.0 -151821000000.0 -108058000000.0 -55460400000.0 -146880000000.0 -279919000000.0 -18107300000.0 -42376300000.0 -224775000000.0 -314609000000.0 -524705000000.0 -426084000000.0 -372168000000.0 -530833000000.0 -190816000000.0 -415419000000.0 -615083000000.0 -158830000000.0 -519353000000.0 -294640000000.0 -1.78651e+12 -103024000000.0 -1.62087e+12 -458776000000.0 -1.35318e+12 -649800000000.0 -540262000000.0 -422139000000.0 -1.21724e+12 -1.85705e+12 -1.34783e+12 -1.56943e+12 -1.56994e+12 -935165000000.0 -1.2836e+12 -1.92763e+12 -1.20958e+12 -1.68902e+12 -1.45659e+12 -769452000000.0 -1.34276e+12 -1.74869e+12 -2.54685e+12 -1.07261e+12 -2.37979e+12 -2.94037e+12 -1.79315e+12 -1.57402e+12 -1.22163e+12 -983581000000.0 -1.25547e+12 -1.48458e+12 -1.4112e+12 -1.87169e+12 -630091000000.0 -1.15199e+12 -729679000000.0 -781096000000.0 -740796000000.0 -821764000000.0 -1.35239e+12 -965699000000.0 -534308000000.0 -586947000000.0 -802577000000.0 -963217000000.0 -737653000000.0 -1.86363e+12 -791602000000.0 -1.00163e+12 -525443000000.0 -580578000000.0 -858143000000.0 -283435000000.0 -83997000000.0 -31349000000.0 -220948000000.0 -205852000000.0 -287241000000.0 -109013000000.0 -118135000000.0 -18864400000.0 -114978000000.0 -74518600000.0 -46699200000.0 -66866400000.0 -83725700000.0 -39379600000.0 -45021900000.0 -61501900000.0 -39504300000.0 -32453700000.0 -68292700000.0 -12549700000.0 -54893600000.0 -52706700000.0 -13758300000.0 -92730800000.0 -18292800000.0 -104296000000.0 -21022200000.0 -14386000000.0 -104865000000.0 -15629900000.0 -140115000000.0 -55446600000.0 -92495600000.0 -129757000000.0 -88048000000.0 -36003400000.0 -152904000000.0 -200791000000.0 -326879000000.0 -143926000000.0 -135882000000.0 -423732000000.0 -318241000000.0 -343472000000.0 -422693000000.0 -230237000000.0 -141430000000.0 -422778000000.0 -427191000000.0 -372027000000.0 -348328000000.0 -652809000000.0 -830820000000.0 -52639800000.0 -709315000000.0 -1.08367e+12 -669130000000.0 -935446000000.0 -1.26399e+12 -195198000000.0 -632460000000.0 -699227000000.0 -2.64295e+12 -683258000000.0 -761537000000.0 -1.33572e+12 -1.06971e+12 -884058000000.0 -2.78109e+12 -780129000000.0 -670968000000.0 -1.43497e+12 -1.55448e+12 -1.49527e+12 -933757000000.0 -498394000000.0 -428806000000.0 -1.28093e+12 -373485000000.0 -1.02708e+12 -550673000000.0 -752664000000.0 -1.54319e+12 -128296000000.0 -723386000000.0 -938759000000.0 -739044000000.0 -952884000000.0 -1.27102e+12 -79574300000.0 -560614000000.0 -950059000000.0 -632246000000.0 -494499000000.0 -578782000000.0 -539154000000.0 -788124000000.0 -584197000000.0 -384492000000.0 -547055000000.0 -567883000000.0 -221059000000.0 -40914700000.0 -266562000000.0 -101454000000.0 -390396000000.0 -133778000000.0 -288207000000.0 -96560300000.0 -126420000000.0 -107638000000.0 -78792200000.0 -14764900000.0 -107546000000.0 -70540100000.0 -34817200000.0 -82660000000.0 -13072000000.0 -69532500000.0 -30126600000.0 -65666500000.0 -35650900000.0 -38720900000.0 -43406000000.0 -43720000000.0 -15725600000.0 -35806700000.0 -77702000000.0 -66002200000.0 -28665400000.0 -62022300000.0 -98502400000.0 -21316000000.0 -23732800000.0 -14228600000.0 -118039000000.0 -18374000000.0 -143403000000.0 -71481100000.0 -122553000000.0 -58030000000.0 -100522000000.0 -13013600000.0 -51926300000.0 -72569800000.0 -12549700000.0 -102664000000.0 -149096000000.0 -68539200000.0 -58207500000.0 -270803000000.0 -412830000000.0 -205984000000.0 -362310000000.0 -266668000000.0 -295124000000.0 -252440000000.0 -766002000000.0 -82884500000.0 -479307000000.0 -939265000000.0 -407744000000.0 -312337000000.0 -757997000000.0 -1.17365e+12 -134187000000.0 -946261000000.0 -1.67059e+12 -983341000000.0 -975106000000.0 -646955000000.0 -1.2758e+12 -966557000000.0 -845704000000.0 -1.74375e+12 -1.50861e+12 -974139000000.0 -642565000000.0 -782943000000.0 -668721000000.0 -801984000000.0 -1.23391e+12 -489732000000.0 -1.65772e+12 -1.19552e+12 -446925000000.0 -1.16041e+12 -446563000000.0 -865110000000.0 -616255000000.0 -743896000000.0 -571483000000.0 -771438000000.0 -649284000000.0 -445652000000.0 -589776000000.0 -371949000000.0 -938076000000.0 -720536000000.0 -468418000000.0 -264071000000.0 -718081000000.0 -517749000000.0 -616677000000.0 -727677000000.0 -493901000000.0 -104673000000.0 -200266000000.0 -295072000000.0 -436846000000.0 -283286000000.0 -267950000000.0 -202975000000.0 -430967000000.0 -17757300000.0 -12619200000.0 -251779000000.0 -122245000000.0 -70494100000.0 -107119000000.0 -136747000000.0 -48047700000.0 -52373900000.0 -76604600000.0 -59836700000.0 -40940000000.0 -41981700000.0 -130414000000.0 -83642000000.0 -72614200000.0 -73353300000.0 -57124200000.0 -58142700000.0 -66321600000.0 -70465200000.0 -82703000000.0 -109840000000.0 -104570000000.0 -16321000000.0 -61014400000.0 -49889100000.0 -49541200000.0 -62508600000.0 -88065800000.0 -40859700000.0 -34994200000.0 -146013000000.0 -118209000000.0 -98017400000.0 -81206200000.0 -119925000000.0 -115487000000.0 -12580300000.0 -104648000000.0 -102475000000.0 -137419000000.0 -191114000000.0 -131455000000.0 -316882000000.0 -222400000000.0 -22798300000.0 -205920000000.0 -257498000000.0 -342422000000.0 -399023000000.0 -472797000000.0 -369345000000.0 -742099000000.0 -387215000000.0 -865776000000.0 -394740000000.0 -347245000000.0 -502530000000.0 -639087000000.0 -1.11717e+12 -1.56835e+12 -559873000000.0 -336322000000.0 -1.26262e+12 -217170000000.0 -925120000000.0 -1.07893e+12 -1.80163e+12 -1.59698e+12 -1.62484e+12 -645027000000.0 -1.23941e+12 -1.62394e+12 -961177000000.0 -1.17484e+12 -564996000000.0 -485307000000.0 -120685000000.0 -135656000000.0 -423481000000.0 -639641000000.0 -1.19872e+12 -675807000000.0 -584512000000.0 -384364000000.0 -129350000000.0 -179071000000.0 -184532000000.0 -499517000000.0 -253707000000.0 -194406000000.0 -262486000000.0 -88207500000.0 -448438000000.0 -638901000000.0 -379618000000.0 -346721000000.0 -272991000000.0 -275010000000.0 -181106000000.0 -172964000000.0 -137010000000.0 -269561000000.0 -312097000000.0 -333911000000.0 -217772000000.0 -211763000000.0 -151017000000.0 -14539800000.0 -78642900000.0 -48114400000.0 -15075300000.0 -76123100000.0 -57908800000.0 -114705000000.0 -43128600000.0 -58674800000.0 -87201700000.0 -62034100000.0 -75881300000.0 -12549700000.0 -82239100000.0 -59479100000.0 -44284600000.0 -43462200000.0 -14819300000.0 -72845600000.0 -85451300000.0 -16829300000.0 -66658100000.0 -26480800000.0 -89110000000.0 -112489000000.0 -57863200000.0 -96447300000.0 -129282000000.0 -144377000000.0 -165222000000.0 -198914000000.0 -112548000000.0 -152642000000.0 -116407000000.0 -172748000000.0 -108187000000.0 -182980000000.0 -205044000000.0 -149228000000.0 -247710000000.0 -122000000000.0 -461479000000.0 -171500000000.0 -373080000000.0 -313761000000.0 -556855000000.0 -273565000000.0 -232348000000.0 -380926000000.0 -618378000000.0 -500795000000.0 -764376000000.0 -656404000000.0 -476044000000.0 -1.30473e+12 -695058000000.0 -1.11702e+12 -626385000000.0 -1.61629e+12 -471257000000.0 -551918000000.0 -603809000000.0 -458861000000.0 -721940000000.0 -1.25452e+12 -940931000000.0 -864744000000.0 -438602000000.0 -349260000000.0 -540682000000.0 -890852000000.0 -356984000000.0 -235507000000.0 -278264000000.0 -387593000000.0 -143719000000.0 -222443000000.0 -414703000000.0 -401392000000.0 -186574000000.0 -20070300000.0 -240942000000.0 -332190000000.0 -121704000000.0 -171924000000.0 -18091500000.0 -208408000000.0 -39990000000.0 -105051000000.0 -85983400000.0 -155189000000.0 -154204000000.0 -42725000000.0 -114820000000.0 -61477200000.0 -39630100000.0 -27349500000.0 -176461000000.0 -220592000000.0 -142366000000.0 -41034700000.0 -58802900000.0 -57803200000.0 -12549700000.0 -117646000000.0 -14483700000.0 -20268200000.0 -26232400000.0 -87415000000.0 -52138200000.0 -58396800000.0 -53987300000.0 -54659600000.0 -66437500000.0 -65511300000.0 -77720400000.0 -54803400000.0 -27968700000.0 -50704600000.0 -103969000000.0 -88605500000.0 -20437300000.0 -79946500000.0 -85314000000.0 -58924800000.0 -27770700000.0 -28206500000.0 -49184000000.0 -163551000000.0 -15306400000.0 -93722700000.0 -28049100000.0 -209249000000.0 -36529500000.0 -86531400000.0 -122038000000.0 -110283000000.0 -127438000000.0 -55129500000.0 -102898000000.0 -92105800000.0 -298867000000.0 -267154000000.0 -187875000000.0 -307589000000.0 -256461000000.0 -241119000000.0 -491239000000.0 -610474000000.0 -696135000000.0 -179897000000.0 -443563000000.0 -273967000000.0 -249219000000.0 -897857000000.0 -599608000000.0 -422242000000.0 -444727000000.0 -586622000000.0 -1.34643e+12 -97519400000.0 -277978000000.0 -1.21147e+12 -358754000000.0 -585114000000.0 -1.08474e+12 -501650000000.0 -986704000000.0 -438652000000.0 -296791000000.0 -53593400000.0 -288612000000.0 -590094000000.0 -393165000000.0 -408009000000.0 -574189000000.0 -287374000000.0 -434289000000.0 -265381000000.0 -276182000000.0 -188420000000.0 -138130000000.0 -289708000000.0 -426120000000.0 -70625700000.0 -228666000000.0 -12549700000.0 -261742000000.0 -214798000000.0 -283576000000.0 -121859000000.0 -114654000000.0 -127233000000.0 -104941000000.0 -12549700000.0 -201415000000.0 -159960000000.0 -72265400000.0 -75090900000.0 -52289400000.0 -45732900000.0 -110000000000.0 -117549000000.0 -100586000000.0 -55233300000.0 -58531400000.0 -27883400000.0 -105559000000.0 -58609200000.0 -147984000000.0 -27682900000.0 -199409000000.0 -140620000000.0 -136826000000.0 -69144600000.0 -50333600000.0 -41341500000.0 -100016000000.0 -40804700000.0 -58840600000.0 -37174700000.0 -46376200000.0 -56470400000.0 -67066500000.0 -41062900000.0 -76156600000.0 -72991900000.0 -62679900000.0 -50969600000.0 -40500100000.0 -150298000000.0 -80695000000.0 -34159000000.0 -77991200000.0 -96062600000.0 -106822000000.0 -143839000000.0 -138430000000.0 -128217000000.0 -118029000000.0 -90132300000.0 -160978000000.0 -250541000000.0 -108245000000.0 -124603000000.0 -20975400000.0 -107134000000.0 -53811600000.0 -181689000000.0 -355999000000.0 -208167000000.0 -205040000000.0 -479450000000.0 -609563000000.0 -327343000000.0 -294070000000.0 -808734000000.0 -689288000000.0 -576698000000.0 -619316000000.0 -1.04368e+12 -403239000000.0 -632418000000.0 -649658000000.0 -529218000000.0 -952295000000.0 -492201000000.0 -455782000000.0 -695575000000.0 -461442000000.0 -346934000000.0 -28745600000.0 -246458000000.0 -368748000000.0 -594137000000.0 -188720000000.0 -273962000000.0 -84514800000.0 -224974000000.0 -144478000000.0 -113933000000.0 -40248100000.0 -45425000000.0 -357389000000.0 -324606000000.0 -262575000000.0 -182646000000.0 -46226500000.0 -51773400000.0 -105452000000.0 -123075000000.0 -83033500000.0 -51068500000.0 -45588500000.0 -12549700000.0 -28731500000.0 -91532500000.0 -46776600000.0 -50276800000.0 -33502600000.0 -39029700000.0 -48216100000.0 -60755400000.0 -42162900000.0 -21429400000.0 -98207400000.0 -47937300000.0 -85560800000.0 -81818500000.0 -57687400000.0 -111311000000.0 -56270900000.0 -64106200000.0 -37470400000.0 -89639900000.0 -89625700000.0 -73557000000.0 -40451700000.0 -160434000000.0 -88386700000.0 -111164000000.0 -96898000000.0 -35711700000.0 -12549700000.0 -109990000000.0 -27523200000.0 -13006200000.0 -94513000000.0 -28721400000.0 -16054800000.0 -16298700000.0 -80568900000.0 -32352600000.0 -87000500000.0 -45553700000.0 -12549700000.0 -90858500000.0 -59454200000.0 -23642400000.0 -70529700000.0 -98297800000.0 -184766000000.0 -71949000000.0 -97074500000.0 -109158000000.0 -200216000000.0 -72781400000.0 -22904200000.0 -111800000000.0 -152239000000.0 -166529000000.0 -101218000000.0 -318866000000.0 -191386000000.0 -500964000000.0 -539170000000.0 -490686000000.0 -366716000000.0 -297595000000.0 -566919000000.0 -384868000000.0 -530373000000.0 -324934000000.0 -324135000000.0 -437047000000.0 -167944000000.0 -608292000000.0 -388945000000.0 -358432000000.0 -718624000000.0 -500543000000.0 -61910300000.0 -376574000000.0 -299383000000.0 -266433000000.0 -55184200000.0 -31896800000.0 -472354000000.0 -321373000000.0 -57033900000.0 -42261500000.0 -155676000000.0 -32115100000.0 -12549700000.0 -44088400000.0 -101814000000.0 -174661000000.0 -48441100000.0 -197413000000.0 -300172000000.0 -176242000000.0 -157742000000.0 -29313500000.0 -34219100000.0 -91444200000.0 -159122000000.0 -147276000000.0 -45981200000.0 -43709900000.0 -12823600000.0 -29682400000.0 -25042700000.0 -23281300000.0 -79224100000.0 -73155400000.0 -36121000000.0 -13734500000.0 -22623800000.0 -24922400000.0 -28856700000.0 -29483700000.0 -61583000000.0 -37847200000.0 -13429200000.0 -32865200000.0 -125725000000.0 -68783900000.0 -115833000000.0 -69953800000.0 -38211000000.0 -71046800000.0 -34285200000.0 -13833600000.0 -58500200000.0 -60923100000.0 -89547000000.0 -12549700000.0 -67078800000.0 -109835000000.0 -16515900000.0 -58502100000.0 -58013200000.0 -33746400000.0 -63688000000.0 -12592000000.0 -59073000000.0 -120850000000.0 -13659600000.0 -39380600000.0 -75578800000.0 -63437300000.0 -30869300000.0 -82915600000.0 -84789900000.0 -80351300000.0 -76776400000.0 -47959100000.0 -120847000000.0 -33240200000.0 -12549700000.0 -76806900000.0 -58183600000.0 -183467000000.0 -167003000000.0 -128716000000.0 -107697000000.0 -121689000000.0 -149113000000.0 -128299000000.0 -235428000000.0 -160159000000.0 -164808000000.0 -99537900000.0 -289885000000.0 -79628500000.0 -221031000000.0 -289417000000.0 -408243000000.0 -212025000000.0 -420811000000.0 -134313000000.0 -535634000000.0 -232420000000.0 -187179000000.0 -402761000000.0 -99711200000.0 -513619000000.0 -188734000000.0 -386704000000.0 -596380000000.0 -294244000000.0 -185041000000.0 -123278000000.0 -174024000000.0 -124411000000.0 -145322000000.0 -295607000000.0 -153510000000.0 -12549700000.0 -12549700000.0 -12549700000.0 -162023000000.0 -102010000000.0 -87523200000.0 -139234000000.0 -58214200000.0 -20617000000.0 -166468000000.0 -12549700000.0 -12549700000.0 -99709100000.0 -57301000000.0 -70003100000.0 -122844000000.0 -35472800000.0 -12549700000.0 -41063900000.0 -44344200000.0 -59627700000.0 -63725000000.0 -42812100000.0 -68721900000.0 -74470300000.0 -57990600000.0 -39886500000.0 -41635900000.0 -18856000000.0 -46775000000.0 -44640600000.0 -42047300000.0 -22976800000.0 -25607600000.0 -92578300000.0 -15502300000.0 -28357500000.0 -103930000000.0 -81837100000.0 -114981000000.0 -95843500000.0 -74807500000.0 -36670500000.0 -73580900000.0 -47173900000.0 -42995900000.0 -60341100000.0 -71942100000.0 -52654400000.0 -107082000000.0 -84522000000.0 -64231800000.0 -41589100000.0 -75709200000.0 -37335400000.0 -21220600000.0 -34630000000.0 -97187800000.0 -133755000000.0 -13415500000.0 -66571900000.0 -72109200000.0 -119231000000.0 -113232000000.0 -12611400000.0 -73891000000.0 -124067000000.0 -68316900000.0 -179612000000.0 -13981300000.0 -87754300000.0 -30722400000.0 -66827300000.0 -69772300000.0 -85707500000.0 -13448700000.0 -110610000000.0 -133978000000.0 -37191200000.0 -113735000000.0 -180709000000.0 -191779000000.0 -179819000000.0 -67896000000.0 -176683000000.0 -345231000000.0 -253986000000.0 -255322000000.0 -85529900000.0 -354061000000.0 -436796000000.0 -386513000000.0 -306932000000.0 -110591000000.0 -217397000000.0 -344544000000.0 -93808700000.0 -244754000000.0 -269285000000.0 -330203000000.0 -174515000000.0 -375045000000.0 -576510000000.0 -125853000000.0 -42576200000.0 -136364000000.0 -14065800000.0 -17762600000.0 -227176000000.0 -293386000000.0 -149377000000.0 -132043000000.0 -24627200000.0 -33863500000.0 -91016500000.0 -12549700000.0 -34716400000.0 -88037900000.0 -95105500000.0 -88257500000.0 -164391000000.0 -143271000000.0 -301120000000.0 -142911000000.0 -174778000000.0 -35841100000.0 -98412800000.0 -138380000000.0 -73076500000.0 -63112600000.0 -32681600000.0 -59045100000.0 -35894600000.0 -95705400000.0 -27363800000.0 -45092900000.0 -31066800000.0 -56179100000.0 -12549700000.0 -31533300000.0 -35259500000.0 -20748700000.0 -68779400000.0 -24895700000.0 -25000200000.0 -89251400000.0 -61530700000.0 -45740000000.0 -80069700000.0 -25471100000.0 -60617500000.0 -48007500000.0 -38770400000.0 -65976700000.0 -41373200000.0 -56324600000.0 -57043900000.0 -41014800000.0 -39475600000.0 -81150900000.0 -13711300000.0 -98906600000.0 -76835000000.0 -70044800000.0 -128543000000.0 -123369000000.0 -83147100000.0 -61824700000.0 -22017000000.0 -54853200000.0 -40716300000.0 -83076000000.0 -58384600000.0 -68013600000.0 -104845000000.0 -74336400000.0 -74120200000.0 -74982900000.0 -12806800000.0 -12702100000.0 -155048000000.0 -17765100000.0 -202094000000.0 -282454000000.0 -252353000000.0 -86297400000.0 -105614000000.0 -205599000000.0 -93788300000.0 -277043000000.0 -41226300000.0 -242295000000.0 -147939000000.0 -12549700000.0 -250545000000.0 -92397700000.0 -17576000000.0 -97562200000.0 -306340000000.0 -183137000000.0 -231673000000.0 -344894000000.0 -154182000000.0 -12702100000.0 -351921000000.0 -457588000000.0 -89003100000.0 -339942000000.0 -353032000000.0 -305120000000.0 -89605500000.0 -32517400000.0 -71071700000.0 -216529000000.0 -35502300000.0 -190644000000.0 -52207600000.0 -70878100000.0 -36157300000.0 -84460400000.0 -105647000000.0 -16516400000.0 -111339000000.0 -14390400000.0 -92523400000.0 -62143400000.0 -12549700000.0 -12549700000.0 -24214600000.0 -38509100000.0 -174929000000.0 -65748600000.0 -86398000000.0 -14561600000.0 -51355300000.0 -12607100000.0 -13660200000.0 -70749200000.0 -63538100000.0 -16797800000.0 -58208700000.0 -37018400000.0 -24723600000.0 -12641300000.0 -33489900000.0 -45199700000.0 -81120500000.0 -83701000000.0 -48700200000.0 -56991900000.0 -48801400000.0 -30251700000.0 -32196300000.0 -47889300000.0 -57653800000.0 -48775900000.0 -37041600000.0 -72844100000.0 -63401800000.0 -64326400000.0 -34876800000.0 -66663100000.0 -66943300000.0 -17190800000.0 -39631400000.0 -113611000000.0 -64743200000.0 -58834600000.0 -16246300000.0 -58392900000.0 -35183000000.0 -51545400000.0 -39640400000.0 -96823200000.0 -47545900000.0 -29552200000.0 -70197800000.0 -77982600000.0 -129525000000.0 -21184000000.0 -28724200000.0 -193431000000.0 -125134000000.0 -81062300000.0 -150030000000.0 -170160000000.0 -136844000000.0 -137659000000.0 -151647000000.0 -120724000000.0 -159129000000.0 -130274000000.0 -121370000000.0 -142750000000.0 -137169000000.0 -239966000000.0 -70339300000.0 -99219000000.0 -282439000000.0 -296919000000.0 -253435000000.0 -247543000000.0 -73403500000.0 -193285000000.0 -256661000000.0 -338171000000.0 -90332900000.0 -118985000000.0 -200685000000.0 -105814000000.0 -37580700000.0 -134009000000.0 -46521200000.0 -42686200000.0 -14413600000.0 -13109700000.0 -53852700000.0 -13098500000.0 -49519800000.0 -19275600000.0 -19385500000.0 -61744200000.0 -120615000000.0 -77109500000.0 -98322000000.0 -31518100000.0 -74696200000.0 -34994400000.0 -29095700000.0 -42247800000.0 -32919100000.0 -47025900000.0 -16195900000.0 -66242300000.0 -43204200000.0 -61171500000.0 -44927800000.0 -48341100000.0 -54016800000.0 -62934200000.0 -25180600000.0 -26925000000.0 -51239500000.0 -58345700000.0 -12549700000.0 -51896300000.0 -62209500000.0 -12549700000.0 -43211700000.0 -55731500000.0 -67174300000.0 -27396400000.0 -75839600000.0 -87182000000.0 -42908900000.0 -46133300000.0 -14890100000.0 -39594100000.0 -83093100000.0 -12739800000.0 -82962500000.0 -90381700000.0 -38184900000.0 -67134900000.0 -35231700000.0 -12549700000.0 -28641600000.0 -53013900000.0 -76126700000.0 -47093300000.0 -36309000000.0 -84776300000.0 -64321300000.0 -76636600000.0 -64001600000.0 -38297800000.0 -88456100000.0 -36170300000.0 -64428500000.0 -77423100000.0 -119090000000.0 -69759800000.0 -122273000000.0 -20782900000.0 -103925000000.0 -12549700000.0 -123403000000.0 -115447000000.0 -125795000000.0 -68385200000.0 -154015000000.0 -80336600000.0 -104576000000.0 -154377000000.0 -27768700000.0 -103525000000.0 -12781800000.0 -303467000000.0 -294721000000.0 -207525000000.0 -152127000000.0 -299643000000.0 -183931000000.0 -77552900000.0 -127376000000.0 -285006000000.0 -121096000000.0 -471861000000.0 -385806000000.0 -23075500000.0 -43158000000.0 -61856800000.0 -77415100000.0 -95160800000.0 -117706000000.0 -42994400000.0 -71911600000.0 -45707900000.0 -12671400000.0 -55820100000.0 -24853400000.0 -47774300000.0 -35236000000.0 -52954300000.0 -30985600000.0 -52549000000.0 -59111400000.0 -91404300000.0 -42196100000.0 -76138600000.0 -81130300000.0 -88155100000.0 -24317300000.0 -29506600000.0 -25991700000.0 -27692000000.0 -20632100000.0 -79070400000.0 -29081200000.0 -68338300000.0 -35254400000.0 -43608800000.0 -23987600000.0 -88802700000.0 -23169500000.0 -21222300000.0 -34525000000.0 -22526600000.0 -81216900000.0 -48359200000.0 -81229600000.0 -25652700000.0 -46365200000.0 -21323700000.0 -72594800000.0 -66626900000.0 -55881400000.0 -75895800000.0 -84204400000.0 -81427600000.0 -26521900000.0 -26570400000.0 -79167900000.0 -35689800000.0 -68750400000.0 -62232300000.0 -82839400000.0 -71965700000.0 -13988000000.0 -61337700000.0 -39527700000.0 -136118000000.0 -112639000000.0 -103303000000.0 -42074300000.0 -97413200000.0 -109064000000.0 -105557000000.0 -12549700000.0 -84088600000.0 -49086800000.0 -70121100000.0 -15929100000.0 -75792200000.0 -67019600000.0 -30742400000.0 -123374000000.0 -38715500000.0 -160515000000.0 -25432800000.0 -115994000000.0 -150065000000.0 -288722000000.0 -25373200000.0 -89949800000.0 -53987800000.0 -94255300000.0 -107558000000.0 -64935700000.0 -24914100000.0 -110544000000.0 -395368000000.0 -171747000000.0 -309627000000.0 -13340600000.0 -21840900000.0 -57203700000.0 -44699000000.0 -39730000000.0 -115656000000.0 -70932500000.0 -90433300000.0 -52677500000.0 -65134100000.0 -63127400000.0 -73720800000.0 -16726200000.0 -45159600000.0 -62097700000.0 -31995100000.0 -40131200000.0 -12549700000.0 -35500800000.0 -17986300000.0 -83591500000.0 -51142000000.0 -80766600000.0 -58901900000.0 -18709600000.0 -38140000000.0 -18907600000.0 -17105300000.0 -13083000000.0 -14775400000.0 -27731700000.0 -29345800000.0 -73659200000.0 -31607600000.0 -45502500000.0 -29417700000.0 -45461800000.0 -45950500000.0 -51951800000.0 -32550300000.0 -17606800000.0 -33167700000.0 -16349300000.0 -20729800000.0 -27111800000.0 -23811200000.0 -13110600000.0 -58595200000.0 -48355000000.0 -39616000000.0 -31745600000.0 -27681100000.0 -48705500000.0 -61790600000.0 -35424500000.0 -56214700000.0 -65433400000.0 -46308900000.0 -34030500000.0 -45255700000.0 -53943100000.0 -68403000000.0 -41236700000.0 -47164900000.0 -73494200000.0 -83199800000.0 -104147000000.0 -81213300000.0 -85879600000.0 -72716100000.0 -130113000000.0 -14556700000.0 -87769500000.0 -31308200000.0 -63089100000.0 -124908000000.0 -41138300000.0 -174811000000.0 -115724000000.0 -101518000000.0 -125810000000.0 -112579000000.0 -122645000000.0 -53765700000.0 -98557800000.0 -123325000000.0 -174191000000.0 -88971700000.0 -13623800000.0 -53154800000.0 -21771100000.0 -61986600000.0 -94840200000.0 -155705000000.0 -44018700000.0 -49134800000.0 -92913900000.0 -113782000000.0 -65026600000.0 -41036000000.0 -62755800000.0 -50208700000.0 -24105400000.0 -109656000000.0 -22414800000.0 -131514000000.0 -146942000000.0 -137703000000.0 -500892000000.0 -170655000000.0 -24693800000.0 -105297000000.0 -84004000000.0 -87749500000.0 -13988600000.0 -48062500000.0 -19066800000.0 -17848500000.0 -26711800000.0 -36578500000.0 -23082600000.0 -20158000000.0 -14216000000.0 -43220000000.0 -38708500000.0 -42821800000.0 -43111100000.0 -46345600000.0 -43113100000.0 -22361500000.0 -52713300000.0 -65382500000.0 -64629700000.0 -47301200000.0 -50311500000.0 -40870700000.0 -28185400000.0 -31799200000.0 -29233800000.0 -44397700000.0 -52782900000.0 -43041700000.0 -41200000000.0 -35666800000.0 -40371900000.0 -12549700000.0 -13308700000.0 -58769900000.0 -22305600000.0 -22333400000.0 -21257700000.0 -57066200000.0 -67839200000.0 -58836700000.0 -40812800000.0 -23121500000.0 -69346900000.0 -63556700000.0 -70587100000.0 -18188300000.0 -27695500000.0 -45741300000.0 -13218700000.0 -45338300000.0 -12549700000.0 -25109100000.0 -40546900000.0 -54057900000.0 -81224800000.0 -22664300000.0 -42856600000.0 -14241300000.0 -115911000000.0 -55580100000.0 -64406700000.0 -41846800000.0 -78595700000.0 -105022000000.0 -17917800000.0 -95553500000.0 -23102900000.0 -24675500000.0 -17850000000.0 -80825900000.0 -36570500000.0 -48983600000.0 -137191000000.0 -51063600000.0 -54158400000.0 -59005600000.0 -70941100000.0 -84244400000.0 -44156700000.0 -35653100000.0 -120477000000.0 -35127800000.0 -30564600000.0 -73974000000.0 -50655400000.0 -151863000000.0 -52777500000.0 -68821600000.0 -46049800000.0 -63200600000.0 -64883900000.0 -99778100000.0 -26588200000.0 -101944000000.0 -294963000000.0 -109589000000.0 -61927500000.0 -67255700000.0 -12767200000.0 -20877500000.0 -38854400000.0 -12549700000.0 -31674200000.0 -12549700000.0 -27106800000.0 -32873000000.0 -24936700000.0 -21878600000.0 -29064700000.0 -27966600000.0 -24849700000.0 -14134200000.0 -38514900000.0 -20085000000.0 -53698200000.0 -34263500000.0 -30802000000.0 -74771900000.0 -14911100000.0 -92130900000.0 -50740100000.0 -12549700000.0 -40959900000.0 -24234500000.0 -56450000000.0 -54655000000.0 -71794200000.0 -64278400000.0 -21769400000.0 -84298200000.0 -20929600000.0 -57510700000.0 -60893400000.0 -37629000000.0 -72178800000.0 -63685500000.0 -12611200000.0 -28167300000.0 -69657500000.0 -37746100000.0 -50882300000.0 -36234200000.0 -62813100000.0 -35156700000.0 -49496600000.0 -52585400000.0 -34673400000.0 -12900900000.0 -54190500000.0 -99085700000.0 -19978600000.0 -43443400000.0 -44752600000.0 -23372400000.0 -73085900000.0 -24692600000.0 -89735400000.0 -57405100000.0 -26565000000.0 -17442200000.0 -36095500000.0 -95872400000.0 -27688400000.0 -45946200000.0 -62435000000.0 -44337200000.0 -41430300000.0 -16213000000.0 -80662700000.0 -66195100000.0 -21083600000.0 -63017600000.0 -107729000000.0 -59230000000.0 -82048200000.0 -75935400000.0 -67722300000.0 -55971600000.0 -45517100000.0 -116305000000.0 -83796800000.0 -44535600000.0 -154069000000.0 -84160400000.0 -73041300000.0 -66756000000.0 -40031200000.0 -62247700000.0 -64243800000.0 -80282900000.0 -56872500000.0 -248777000000.0 -82081200000.0 -43643400000.0 -61496600000.0 -12549700000.0 -104395000000.0 -21922300000.0 -15000400000.0 -34668300000.0 -40121600000.0 -37912000000.0 -13176000000.0 -14144300000.0 -26304000000.0 -19616900000.0 -20445800000.0 -23390100000.0 -14009100000.0 -19399200000.0 -39101900000.0 -12737900000.0 -32950300000.0 -19687500000.0 -57702500000.0 -17306600000.0 -107413000000.0 -15847500000.0 -24275900000.0 -26297700000.0 -13009600000.0 -84798500000.0 -44520800000.0 -63908700000.0 -16579400000.0 -41730600000.0 -59201000000.0 -23707800000.0 -13200900000.0 -94528000000.0 -61237600000.0 -30613900000.0 -41183100000.0 -46827400000.0 -12626900000.0 -18875000000.0 -13137500000.0 -73719400000.0 -14785800000.0 -18970900000.0 -58672300000.0 -50807800000.0 -39590300000.0 -44780200000.0 -17179300000.0 -55260200000.0 -26552800000.0 -55833800000.0 -44131900000.0 -109512000000.0 -13720600000.0 -23214100000.0 -24147900000.0 -20997000000.0 -25006100000.0 -78759600000.0 -61015800000.0 -42675300000.0 -73241200000.0 -50939800000.0 -76550300000.0 -50101300000.0 -63164000000.0 -19572900000.0 -74647300000.0 -31783200000.0 -31742200000.0 -26308200000.0 -53421300000.0 -44042400000.0 -38099700000.0 -79378200000.0 -21413200000.0 -12549700000.0 -23299200000.0 -54379500000.0 -14467100000.0 -41916100000.0 -28778700000.0 -34889600000.0 -44928000000.0 -43282700000.0 -19283900000.0 -104500000000.0 -65010600000.0 -17683500000.0 -74580700000.0 -56948500000.0 -48226300000.0 -52297600000.0 -38291400000.0 -74736500000.0 -30023200000.0 -120838000000.0 -13076400000.0 -242670000000.0 -73848500000.0 -40675400000.0 -28684500000.0 -19339100000.0 -19827400000.0 -12972200000.0 -75885200000.0 -68571300000.0 -77020700000.0 -31895600000.0 -19519100000.0 -45237700000.0 -48046200000.0 -44467200000.0 -29681900000.0 -25251100000.0 -33772300000.0 -14805200000.0 -21370300000.0 -29820800000.0 -38082100000.0 -47780800000.0 -52811800000.0 -33857900000.0 -34913900000.0 -38371000000.0 -61850800000.0 -69563400000.0 -15156600000.0 -59965500000.0 -68949200000.0 -103902000000.0 -24115800000.0 -42004800000.0 -60493000000.0 -42012900000.0 -15866100000.0 -53779300000.0 -42462900000.0 -14985800000.0 -12549700000.0 -12562300000.0 -12615400000.0 -41529100000.0 -33623500000.0 -50918100000.0 -40185700000.0 -23177500000.0 -40600200000.0 -50388400000.0 -22327400000.0 -26415900000.0 -33970100000.0 -29169100000.0 -21731400000.0 -32469600000.0 -23079600000.0 -23729900000.0 -81986800000.0 -49650200000.0 -13597400000.0 -14297100000.0 -83458100000.0 -75958800000.0 -25144500000.0 -33464100000.0 -59340300000.0 -25448100000.0 -12739500000.0 -70962000000.0 -15587400000.0 -43235300000.0 -63055200000.0 -49827700000.0 -53326700000.0 -34853600000.0 -57303600000.0 -48771500000.0 -28505600000.0 -69196100000.0 -12981700000.0 -15439200000.0 -20999800000.0 -21982300000.0 -26202900000.0 -35867200000.0 -13934500000.0 -16764800000.0 -37201500000.0 -61008100000.0 -13256500000.0 -39112700000.0 -31036500000.0 -85887800000.0 -45825100000.0 -14312600000.0 -39981600000.0 -37909000000.0 -51226600000.0 -30187100000.0 -52105600000.0 -45160900000.0 -43104100000.0 -104059000000.0 -30813700000.0 -119659000000.0 -160553000000.0 -43825900000.0 -44699100000.0 -22119100000.0 -24272800000.0 -40424400000.0 -48970800000.0 -38930200000.0 -12582300000.0 -42990300000.0 -16310700000.0 -30830200000.0 -38189300000.0 -33118900000.0 -52572100000.0 -61558400000.0 -35991100000.0 -22817000000.0 -35716500000.0 -36460900000.0 -13410900000.0 -55760600000.0 -76819900000.0 -16702200000.0 -22223800000.0 -61264600000.0 -35158100000.0 -35436800000.0 -39032900000.0 -46156200000.0 -41322000000.0 -56477200000.0 -38293700000.0 -38284100000.0 -37437000000.0 -12858300000.0 -27021500000.0 -39851500000.0 -42735800000.0 -30049200000.0 -53650900000.0 -40361500000.0 -31903800000.0 -25509500000.0 -19421400000.0 -26286400000.0 -18667900000.0 -34234800000.0 -27779800000.0 -40442400000.0 -35125100000.0 -52033800000.0 -41103100000.0 -51526100000.0 -65038500000.0 -51022100000.0 -63940300000.0 -25104100000.0 -64491100000.0 -38525900000.0 -51920300000.0 -53487900000.0 -24446800000.0 -12730800000.0 -44218300000.0 -59516500000.0 -46300700000.0 -66487100000.0 -46164800000.0 -38166900000.0 -40781300000.0 -44392800000.0 -62296900000.0 -34525300000.0 -25525500000.0 -21949000000.0 -20147700000.0 -39630800000.0 -23701800000.0 -23418800000.0 -13805500000.0 -30088300000.0 -28352600000.0 -13142100000.0 -44522500000.0 -13672000000.0 -46025800000.0 -36274300000.0 -34640500000.0 -58176100000.0 -50774000000.0 -56771400000.0 -17687800000.0 -47005400000.0 -27585000000.0 -47118800000.0 -56686400000.0 -22979300000.0 -12549700000.0 -77147700000.0 -98691200000.0 -39319200000.0 -45635800000.0 -12549700000.0 -54556600000.0 -24970300000.0 -33718200000.0 -38137200000.0 -31769000000.0 -41522700000.0 -32101500000.0 -23746200000.0 -41197700000.0 -39070400000.0 -22498300000.0 -40754500000.0 -42963000000.0 -53241000000.0 -54221900000.0 -59522700000.0 -56708000000.0 -19401800000.0 -90013400000.0 -101129000000.0 -44379100000.0 -23505300000.0 -44061600000.0 -37768700000.0 -24328200000.0 -28035000000.0 -55129100000.0 -23203100000.0 -16562200000.0 -28287400000.0 -21138900000.0 -34430200000.0 -38919500000.0 -12567100000.0 -13118300000.0 -14945700000.0 -13313400000.0 -40838600000.0 -27250500000.0 -17720500000.0 -24672900000.0 -14417000000.0 -13403100000.0 -34397100000.0 -22343900000.0 -33218100000.0 -35117500000.0 -53438900000.0 -29249600000.0 -40634100000.0 -20971700000.0 -44814200000.0 -24817700000.0 -22979300000.0 -24876800000.0 -12712900000.0 -31135100000.0 -23224100000.0 -21369800000.0 -27171000000.0 -33212600000.0 -44714200000.0 -26018200000.0 -44737200000.0 -12549700000.0 -59023300000.0 -55721700000.0 -36877900000.0 -15727200000.0 -32853100000.0 -28882100000.0 -39894800000.0 -27675800000.0 -33399800000.0 -42369600000.0 -13873200000.0 -28031200000.0 -41019100000.0 -61518100000.0 -50597300000.0 -12556300000.0 -12615300000.0 -16935600000.0 -27839800000.0 -12989700000.0 -44201300000.0 -37158600000.0 -41222000000.0 -15051400000.0 -33560400000.0 -44248600000.0 -40406600000.0 -25729000000.0 -24480100000.0 -74239800000.0 -85325300000.0 -25567400000.0 -15559500000.0 -48067300000.0 -45278600000.0 -21808200000.0 -20601000000.0 -26729600000.0 -15114000000.0 -41984300000.0 -19337200000.0 -24829000000.0 -19607800000.0 -22362800000.0 -21570900000.0 -12549700000.0 -26301000000.0 -46881000000.0 -13487500000.0 -30877500000.0 -44311700000.0 -39412200000.0 -16413500000.0 -27937800000.0 -14510200000.0 -40791200000.0 -38349600000.0 -55149200000.0 -42166300000.0 -13807100000.0 -31729400000.0 -52780000000.0 -12606800000.0 -36617400000.0 -33632000000.0 -33539800000.0 -24183900000.0 -12970400000.0 -20130300000.0 -25307600000.0 -36285100000.0 -29442200000.0 -23546200000.0 -14630600000.0 -21952200000.0 -23761000000.0 -29408900000.0 -35102800000.0 -20438700000.0 -20785200000.0 -24667600000.0 -25521300000.0 -20773600000.0 -33550500000.0 -25322300000.0 -32692800000.0 -35648400000.0 -30107600000.0 -42411400000.0 -12620700000.0 -53279700000.0 -36526100000.0 -31071100000.0 -30314200000.0 -40342200000.0 -55236800000.0 -18644200000.0 -25743600000.0 -28152600000.0 -62561000000.0 -43512500000.0 -49536500000.0 -57268000000.0 -30797700000.0 -37171900000.0 -28303400000.0 -16492900000.0 -31341600000.0 -18004500000.0 -38097900000.0 -38855700000.0 -44641900000.0 -45924700000.0 -25452600000.0 -23104800000.0 -17632700000.0 -30286000000.0 -14082700000.0 -25177700000.0 -14366100000.0 -13374700000.0 -23312400000.0 -21340700000.0 -14573400000.0 -42772600000.0 -23097800000.0 -31187500000.0 -30892500000.0 -12784900000.0 -45709200000.0 -51262100000.0 -26014700000.0 -58896000000.0 -32492700000.0 -12549700000.0 -76608500000.0 -54487200000.0 -19812100000.0 -34963700000.0 -23467700000.0 -12549700000.0 -13318400000.0 -14494200000.0 -21268700000.0 -26873500000.0 -32604600000.0 -21737000000.0 -16187400000.0 -20745900000.0 -24626800000.0 -19334300000.0 -13834100000.0 -25886800000.0 -31803100000.0 -36849300000.0 -33162800000.0 -45193800000.0 -53827600000.0 -26783600000.0 -40399600000.0 -13899300000.0 -35433600000.0 -33914500000.0 -53801900000.0 -44567100000.0 -28746500000.0 -12702200000.0 -24927300000.0 -33253900000.0 -32871400000.0 -24100100000.0 -31683400000.0 -12812400000.0 -40019900000.0 -16947400000.0 -28374600000.0 -35370500000.0 -38152300000.0 -27087500000.0 -15202800000.0 -15815200000.0 -31193600000.0 -17894100000.0 -19036700000.0 -20736300000.0 -26051000000.0 -21399400000.0 -31892600000.0 -27234400000.0 -13297700000.0 -29898500000.0 -32576900000.0 -16192300000.0 -14493800000.0 -41354400000.0 -25604200000.0 -27182700000.0 -41571300000.0 -43134800000.0 -14385600000.0 -12768700000.0 -25026300000.0 -38819400000.0 -13143400000.0 -24165700000.0 -22467100000.0 -18643800000.0 -44037700000.0 -19339200000.0 -12549700000.0 -29518200000.0 -13059300000.0 -54446800000.0 -46756100000.0 -45366700000.0 -20023000000.0 -25650200000.0 -22921500000.0 -28297300000.0 -20987000000.0 -25235900000.0 -16178300000.0 -25984100000.0 -18742400000.0 -49149500000.0 -12585200000.0 -44599900000.0 -29210000000.0 -28248500000.0 -41902400000.0 -37510200000.0 -40294400000.0 -36227700000.0 -29747400000.0 -43122600000.0 -30947000000.0 -41814000000.0 -48500300000.0 -37116200000.0 -45543800000.0 -49384400000.0 -34411100000.0 -20288300000.0 -32753900000.0 -27620600000.0 -15422000000.0 -17143300000.0 -19386000000.0 -18764200000.0 -17749500000.0 -24198100000.0 -29407300000.0 -21500900000.0 -24788100000.0 -28518800000.0 -18358600000.0 -25140300000.0 -27892500000.0 -27387300000.0 -22843700000.0 -21944600000.0 -19756900000.0 -13203500000.0 -33273000000.0 -25341200000.0 -17617100000.0 -45873400000.0 -22046000000.0 -40639200000.0 -52130100000.0 -17359200000.0 -18787900000.0 -16560100000.0 -20275100000.0 -27431400000.0 -17336400000.0 -30534700000.0 -36432500000.0 -39440200000.0 -17528500000.0 -23384000000.0 -29731900000.0 -27540400000.0 -15376200000.0 -27846700000.0 -34405000000.0 -14527000000.0 -14272200000.0 -17205000000.0 -20187800000.0 -27128300000.0 -37005300000.0 -15194900000.0 -35392100000.0 -20935700000.0 -12607000000.0 -36515300000.0 -15488100000.0 -15110300000.0 -28286100000.0 -12841500000.0 -31186500000.0 -21229100000.0 -15753300000.0 -14059600000.0 -27313600000.0 -31897200000.0 -42369900000.0 -21025900000.0 -35282100000.0 -13876200000.0 -43983100000.0 -37211200000.0 -19618300000.0 -26520900000.0 -21937100000.0 -19452000000.0 -22114300000.0 -16364900000.0 -18075200000.0 -21619600000.0 -27505400000.0 -12666500000.0 -20601700000.0 -35667100000.0 -27600500000.0 -29972400000.0 -24095000000.0 -24110900000.0 -21037500000.0 -21239800000.0 -28881600000.0 -52135700000.0 -15348800000.0 -24296800000.0 -29200300000.0 -13135300000.0 -24980100000.0 -26690900000.0 -16811800000.0 -36968200000.0 -24323600000.0 -21888100000.0 -14300400000.0 -26818700000.0 -25558700000.0 -15542000000.0 -16312400000.0 -15492300000.0 -19016700000.0 -14056500000.0 -31473100000.0 -14566700000.0 -20810000000.0 -27155000000.0 -20649900000.0 -19115200000.0 -17472100000.0 -24724700000.0 -29079700000.0 -30036200000.0 -24880300000.0 -39854100000.0 -28961100000.0 -37817900000.0 -13062700000.0 -22805400000.0 -44481700000.0 -35215100000.0 -32341500000.0 -42314700000.0 -20482000000.0 -12578300000.0 -16634500000.0 -24596000000.0 -21329700000.0 -20905500000.0 -17409500000.0 -16152700000.0 -14692000000.0 -25216100000.0 -17228800000.0 -26992700000.0 -21107900000.0 -12568300000.0 -20468100000.0 -12632100000.0 -16693000000.0 -17379300000.0 -14952100000.0 -16303100000.0 -15022600000.0 -15622200000.0 -15324100000.0 -16873400000.0 -21342300000.0 -26002700000.0 -12611100000.0 -12549700000.0 -24493300000.0 -14765100000.0 -12724300000.0 -17163600000.0 -16553500000.0 -25575000000.0 -23349600000.0 -31120800000.0 -19172600000.0 -31946600000.0 -34270700000.0 -34316300000.0 -23936400000.0 -55661800000.0 -31637000000.0 -33000800000.0 -30061800000.0 -19417200000.0 -16160500000.0 -29940500000.0 -22623800000.0 -17617300000.0 -12877500000.0 -59484800000.0 -23614300000.0 -15388500000.0 -18166600000.0 -16359300000.0 -17603400000.0 -16761500000.0 -24340500000.0 -28068900000.0 -15352300000.0 -14562400000.0 -16461600000.0 -12549700000.0 -17535600000.0 -23854900000.0 -27787200000.0 -20023000000.0 -19811500000.0 -30887800000.0 -17490300000.0 -19168400000.0 -13234000000.0 -18559300000.0 -19306000000.0 -33668400000.0 -26733100000.0 -22946900000.0 -14283500000.0 -12881400000.0 -16539800000.0 -26192600000.0 -23739000000.0 -25005000000.0 -19638900000.0 -14822300000.0 -14516100000.0 -18926600000.0 -14689800000.0 -15529700000.0 -12922900000.0 -26366400000.0 -13548900000.0 -18501400000.0 -18146700000.0 -23284100000.0 -23743800000.0 -19636900000.0 -31888700000.0 -16628600000.0 -21392100000.0 -14913700000.0 -29341600000.0 -29319200000.0 -41822600000.0 -29372300000.0 -21839300000.0 -16770900000.0 -23084700000.0 -23652700000.0 -49860900000.0 -36493500000.0 -28197200000.0 -14227000000.0 -25850000000.0 -19863400000.0 -15192800000.0 -14827900000.0 -18148300000.0 -15927800000.0 -21327700000.0 -15156100000.0 -22856300000.0 -17278200000.0 -22001800000.0 -14094200000.0 -12707500000.0 -12549700000.0 -16266400000.0 -12646200000.0 -12812300000.0 -17755400000.0 -12549700000.0 -17581600000.0 -14309400000.0 -13919200000.0 -18234900000.0 -29620400000.0 -23321600000.0 -20878900000.0 -21392300000.0 -17190900000.0 -17292900000.0 -20951700000.0 -30774900000.0 -20964300000.0 -13237700000.0 -15772700000.0 -19015600000.0 -55097300000.0 -18430900000.0 -21388500000.0 -21985000000.0 -12789000000.0 -15007200000.0 -12572400000.0 -19012500000.0 -17090900000.0 -12549700000.0 -24329900000.0 -21334600000.0 -16080900000.0 -15385100000.0 -16991500000.0 -16417600000.0 -15943000000.0 -22932700000.0 -14691200000.0 -22569400000.0 -21431900000.0 -16519900000.0 -24874600000.0 -12816200000.0 -12831700000.0 -13956400000.0 -12690900000.0 -12562200000.0 -12549700000.0 -13682500000.0 -15204600000.0 -12994700000.0 -27655100000.0 -19720400000.0 -24885200000.0 -25324200000.0 -19048300000.0 -24569800000.0 -21850400000.0 -17874500000.0 -18342300000.0 -15840400000.0 -18932900000.0 -22260100000.0 -18790800000.0 -31224400000.0 -12855900000.0 -19534000000.0 -15668200000.0 -17843500000.0 -17601100000.0 -15798500000.0 -12579800000.0 -28768300000.0 -23047900000.0 -12709600000.0 -16048500000.0 -26344800000.0 -20338600000.0 -23536600000.0 -17372100000.0 -17493100000.0 -18187100000.0 -18922500000.0 -12946700000.0 -16931300000.0 -13871300000.0 -17373700000.0 -17181400000.0 -13930200000.0 -12549700000.0 -17516100000.0 -13734400000.0 -12549700000.0 -12549700000.0 -13193400000.0 -15305800000.0 -13156400000.0 -12549700000.0 -15643900000.0 -15169300000.0 -13060100000.0 -14209500000.0 -13355000000.0 -13155700000.0 -12915500000.0 -21416200000.0 -17805300000.0 -20595000000.0 -12671000000.0 -22247000000.0 -15151900000.0 -12837700000.0 -19956200000.0 -22354400000.0 -13576900000.0 -21713900000.0 -26348200000.0 -32614700000.0 -31257200000.0 -27012300000.0 -26971500000.0 -32443000000.0 -23914900000.0 -19920900000.0 -15569000000.0 -12960500000.0 -17019200000.0 -17930000000.0 -14559800000.0 -13456100000.0 -15939800000.0 -19427600000.0 -17356700000.0 -14975500000.0 -17136700000.0 -17633600000.0 -20433700000.0 -23176400000.0 -21467700000.0 -14649700000.0 -14557300000.0 -13918900000.0 -12685700000.0 -12656600000.0 -19758100000.0 -13636500000.0 -12549700000.0 -12619100000.0 -16865000000.0 -13059900000.0 -16980700000.0 -19701200000.0 -23160000000.0 -13357400000.0 -26005000000.0 -15303300000.0 -14707000000.0 -17620500000.0 -16311700000.0 -16851300000.0 -15694400000.0 -12549700000.0 -16646600000.0 -19463500000.0 -16226800000.0 -15813200000.0 -15148900000.0 -15390700000.0 -17449800000.0 -13811000000.0 -16165200000.0 -23413800000.0 -17054000000.0 -15266100000.0 -14662900000.0 -12847800000.0 -14447400000.0 -12549700000.0 -13701500000.0 -14108900000.0 -13071100000.0 -14671500000.0 -12549700000.0 -15553800000.0 -12921600000.0 -12617700000.0 -15230500000.0 -12728600000.0 -12549700000.0 -12553700000.0 -12959300000.0 -14324600000.0 -12549700000.0 -12760100000.0 -14616600000.0 -12549700000.0 -12850100000.0 -13037100000.0 -14380000000.0 -16230100000.0 -13228400000.0 -14649300000.0 -13862200000.0 -13359100000.0 -12579300000.0 -17059000000.0 -15423400000.0 -13127900000.0 -15210100000.0 -14276000000.0 -15295900000.0 -24054000000.0 -21959500000.0 -17280200000.0 -16219500000.0 -15313300000.0 -17180100000.0 -27277100000.0 -17168000000.0 -19556200000.0 -14558200000.0 -17035800000.0 -17057700000.0 -14397900000.0 -13807200000.0 -13250300000.0 -16013700000.0 -12728400000.0 -14463300000.0 -15832200000.0 -12711200000.0 -15364200000.0 -14084300000.0 -13569700000.0 -17524600000.0 -16354000000.0 -14883200000.0 -13998200000.0 -14210300000.0 -14967300000.0 -13600400000.0 -12606700000.0 -14221800000.0 -14927300000.0 -12549700000.0 -17367300000.0 -15131300000.0 -14697800000.0 -16573000000.0 -16101900000.0 -13872900000.0 -15726500000.0 -13606800000.0 -16370800000.0 -13294600000.0 -13524000000.0 -17336400000.0 -13054400000.0 -14549600000.0 -15080300000.0 -14893900000.0 -13222500000.0 -13367300000.0 -12649500000.0 -12711600000.0 -16057400000.0 -15832100000.0 -15795000000.0 -13374200000.0 -13057500000.0 -12964900000.0 -16804100000.0 -12777200000.0 -15875900000.0 -12653400000.0 -12929500000.0 -12878900000.0 -12549700000.0 -13079500000.0 -12657800000.0 -13686200000.0 -13410900000.0 -14257300000.0 -12944800000.0 -12830600000.0 -12814000000.0 -12823100000.0 -12628200000.0 -12897100000.0 -13686100000.0 -13073700000.0 -13319800000.0 -12991200000.0 -12678700000.0 -12781600000.0 -13158900000.0 -12734800000.0 -13325100000.0 -13772300000.0 -14873000000.0 -13125200000.0 -13328800000.0 -14478200000.0 -15527400000.0 -17501200000.0 -16815800000.0 -14187700000.0 -14412800000.0 -19997700000.0 -19710800000.0 -15076700000.0 -16489100000.0 -16043500000.0 -12665600000.0 -15190900000.0 -18601500000.0 -12549700000.0 -12549700000.0 -14607600000.0 -12970000000.0 -12677800000.0 -12716000000.0 -13690200000.0 -13200500000.0 -14074900000.0 -12821200000.0 -14528600000.0 -12972800000.0 -12864900000.0 -12980700000.0 -14526300000.0 -15377500000.0 -12549700000.0 -13980600000.0 -14370400000.0 -13038000000.0 -12985600000.0 -13311400000.0 -12549700000.0 -12879200000.0 -12581000000.0 -12675000000.0 -14554300000.0 -13234200000.0 -13861700000.0 -13451900000.0 -13113200000.0 -13254100000.0 -13407000000.0 -12674800000.0 -13182000000.0 -13013800000.0 -12777600000.0 -12775100000.0 -12741000000.0 -14801000000.0 -13617300000.0 -13449500000.0 -13049200000.0 -12649800000.0 -13403600000.0 -12592200000.0 -12638800000.0 -14495300000.0 -14715800000.0 -13427300000.0 -13179400000.0 -14582500000.0 -13297100000.0 -14249700000.0 -13352000000.0 -13305900000.0 -13506800000.0 -12682800000.0 -12759400000.0 -12860600000.0 -13128000000.0 -12895200000.0 -13151200000.0 -12903900000.0 -13438100000.0 -13044700000.0 -13178800000.0 -13124300000.0 -12581600000.0 