# vtk DataFile Version 2.0
Time step 84
ASCII
DATASET UNSTRUCTURED_GRID
POINTS 4650 float
247586.0 307523.0 0
294564.0 306969.0 0
205474.0 309794.0 0
208953.0 307836.0 0
212391.0 309866.0 0
215767.0 307774.0 0
219535.0 309043.0 0
237165.0 309743.0 0
244145.0 309558.0 0
251103.0 309463.0 0
258076.0 309454.0 0
264258.0 308555.0 0
277233.0 309040.0 0
284220.0 308962.0 0
291113.0 308956.0 0
298002.0 308979.0 0
202000.0 311761.0 0
208925.0 311817.0 0
215862.0 311851.0 0
223242.0 310488.0 0
226850.0 312167.0 0
233769.0 311851.0 0
240719.0 311617.0 0
247662.0 311500.0 0
254599.0 311427.0 0
261533.0 311463.0 0
266773.0 311650.0 0
273782.0 311081.0 0
280776.0 310974.0 0
287678.0 310949.0 0
294561.0 310960.0 0
205458.0 313767.0 0
212401.0 313832.0 0
219675.0 313019.0 0
223391.0 314463.0 0
230393.0 313985.0 0
237319.0 313718.0 0
244234.0 313535.0 0
251146.0 313440.0 0
258063.0 313433.0 0
265498.0 315429.0 0
270218.0 313651.0 0
273939.0 315053.0 0
277353.0 313012.0 0
280844.0 314951.0 0
284251.0 312946.0 0
287708.0 314926.0 0
291129.0 312942.0 0
294571.0 314933.0 0
298003.0 312958.0 0
201998.0 315730.0 0
205450.0 317712.0 0
208920.0 315769.0 0
212371.0 317775.0 0
215859.0 315832.0 0
219680.0 316977.0 0
227006.0 316140.0 0
233935.0 315826.0 0
237498.0 317676.0 0
240845.0 315593.0 0
244325.0 317509.0 0
247715.0 315467.0 0
251160.0 317407.0 0
254604.0 315405.0 0
258047.0 317396.0 0
261517.0 315433.0 0
268942.0 317425.0 0
277458.0 316967.0 0
284303.0 316917.0 0
291151.0 316908.0 0
298004.0 316921.0 0
201997.0 319670.0 0
208890.0 319702.0 0
215800.0 319790.0 0
223396.0 318421.0 0
227012.0 320093.0 0
230556.0 317950.0 0
234199.0 319768.0 0
240981.0 319569.0 0
247766.0 319439.0 0
254568.0 319359.0 0
261500.0 319383.0 0
265481.0 319418.0 0
270769.0 320940.0 0
274106.0 318981.0 0
280918.0 318917.0 0
287747.0 318888.0 0
294584.0 318888.0 0
205430.0 321637.0 0
212305.0 321704.0 0
219601.0 320914.0 0
223289.0 322357.0 0
230954.0 321863.0 0
237683.0 321647.0 0
244418.0 321489.0 0
251166.0 321379.0 0
257922.0 321327.0 0
267436.0 322877.0 0
274199.0 322928.0 0
277553.0 320925.0 0
280988.0 322869.0 0
284358.0 320874.0 0
287787.0 322833.0 0
291178.0 320858.0 0
294598.0 322828.0 0
298005.0 320867.0 0
201995.0 323589.0 0
205402.0 325549.0 0
208837.0 323621.0 0
212202.0 325629.0 0
215683.0 323726.0 0
219434.0 324832.0 0
227760.0 323944.0 0
234429.0 323733.0 0
237850.0 325631.0 0
241114.0 323554.0 0
244505.0 325477.0 0
247814.0 323420.0 0
251175.0 325361.0 0
254523.0 323330.0 0
257839.0 325292.0 0
261216.0 323290.0 0
264427.0 325257.0 0
270863.0 324912.0 0
277632.0 324870.0 0
284412.0 324815.0 0
291204.0 324793.0 0
298006.0 324798.0 0
201993.0 327492.0 0
208775.0 327538.0 0
215513.0 327641.0 0
221549.0 328049.0 0
224629.0 326014.0 0
228045.0 327899.0 0
231217.0 325819.0 0
234621.0 327714.0 0
241232.0 327545.0 0
247864.0 327408.0 0
254503.0 327310.0 0
261121.0 327260.0 0
267719.0 327122.0 0
274297.0 326876.0 0
281053.0 326805.0 0
287825.0 326763.0 0
294611.0 326752.0 0
205371.0 329449.0 0
212098.0 329571.0 0
218470.0 330000.0 0
224899.0 329965.0 0
231421.0 329796.0 0
237990.0 329621.0 0
244585.0 329468.0 0
251197.0 329346.0 0
257811.0 329264.0 0
264436.0 329187.0 0
271059.0 328966.0 0
274423.0 330840.0 0
277715.0 328804.0 0
281115.0 330727.0 0
284462.0 328740.0 0
287861.0 330675.0 0
291229.0 328710.0 0
294624.0 330659.0 0
298008.0 328712.0 0
201990.0 331378.0 0
205343.0 333336.0 0
208709.0 331451.0 0
215245.0 331776.0 0
221741.0 331987.0 0
228237.0 331869.0 0
234771.0 331700.0 0
238103.0 333610.0 0
241333.0 331537.0 0
244658.0 333456.0 0
247916.0 331395.0 0
251231.0 333322.0 0
254513.0 331284.0 0
257830.0 333213.0 0
261130.0 331199.0 0
264469.0 333096.0 0
267777.0 331052.0 0
271128.0 332902.0 0
277795.0 332735.0 0
284507.0 332648.0 0
291251.0 332611.0 0
298009.0 332608.0 0
201988.0 335242.0 0
208657.0 335360.0 0
211966.0 333546.0 0
215246.0 335698.0 0
218508.0 333896.0 0
221812.0 335895.0 0
225045.0 333915.0 0
228355.0 335827.0 0
231566.0 333773.0 0
234884.0 335680.0 0
241419.0 335522.0 0
247968.0 335373.0 0
254544.0 335240.0 0
261160.0 335117.0 0
267817.0 334956.0 0
274483.0 334765.0 0
281169.0 334636.0 0
287891.0 334570.0 0
294634.0 334547.0 0
205325.0 337199.0 0
211970.0 337450.0 0
218551.0 337789.0 0
225121.0 337841.0 0
231665.0 337736.0 0
238193.0 337588.0 0
244723.0 337434.0 0
251273.0 337283.0 0
257862.0 337140.0 0
264499.0 336990.0 0
271165.0 336804.0 0
274515.0 338655.0 0
277841.0 336639.0 0
281203.0 338520.0 0
284543.0 336539.0 0
287914.0 338445.0 0
291270.0 336493.0 0
294643.0 338417.0 0
298010.0 336486.0 0
201986.0 339077.0 0
205317.0 341014.0 0
208657.0 339211.0 0
215287.0 339606.0 0
221861.0 339797.0 0
228431.0 339765.0 0
234970.0 339645.0 0
241492.0 339497.0 0
244783.0 341400.0 0
248020.0 339339.0 0
251314.0 341228.0 0
254579.0 339177.0 0
257892.0 341048.0 0
261189.0 339016.0 0
264523.0 340867.0 0
267843.0 338839.0 0
271186.0 340677.0 0
277866.0 340513.0 0
284565.0 340406.0 0
291283.0 340353.0 0
298011.0 340343.0 0
201985.0 342877.0 0
208647.0 342996.0 0
211999.0 341294.0 0
215321.0 343529.0 0
218591.0 341693.0 0
221908.0 343698.0 0
225177.0 341753.0 0
228495.0 343683.0 0
231740.0 341679.0 0
235046.0 343592.0 0
238269.0 341553.0 0
241559.0 343459.0 0
248068.0 343290.0 0
254611.0 343095.0 0
261212.0 342896.0 0
267858.0 342701.0 0
274530.0 342516.0 0
281219.0 342377.0 0
287927.0 342296.0 0
294648.0 342264.0 0
205301.0 344787.0 0
211974.0 345052.0 0
218637.0 345603.0 0
225235.0 345653.0 0
231814.0 345603.0 0
238343.0 345504.0 0
244840.0 345355.0 0
251351.0 345159.0 0
257915.0 344937.0 0
264537.0 344725.0 0
267862.0 346541.0 0
271194.0 344526.0 0
274528.0 346349.0 0
277874.0 344358.0 0
281220.0 346204.0 0
284574.0 344246.0 0
287929.0 346119.0 0
291289.0 344189.0 0
294650.0 346086.0 0
298012.0 344176.0 0
201982.0 346650.0 0
205274.0 348533.0 0
208610.0 346730.0 0
211935.0 348717.0 0
215395.0 347490.0 0
221965.0 347593.0 0
228568.0 347583.0 0
235126.0 347523.0 0
241628.0 347410.0 0
248113.0 347231.0 0
251383.0 349078.0 0
254637.0 346996.0 0
257932.0 348805.0 0
261227.0 346757.0 0
264541.0 348564.0 0
271186.0 348350.0 0
277864.0 348173.0 0
284567.0 348056.0 0
291287.0 347997.0 0
298012.0 347984.0 0
201980.0 350410.0 0
208566.0 350418.0 0
215480.0 351476.0 0
218706.0 349525.0 0
222050.0 351478.0 0
225311.0 349535.0 0
228667.0 351461.0 0
231902.0 349509.0 0
235225.0 351441.0 0
238425.0 349444.0 0
241706.0 351357.0 0
244899.0 349301.0 0
248160.0 351166.0 0
254657.0 350878.0 0
261234.0 350597.0 0
267853.0 350362.0 0
274508.0 350155.0 0
281201.0 350001.0 0
287919.0 349912.0 0
291277.0 351772.0 0
294648.0 349879.0 0
298013.0 351761.0 0
201979.0 354168.0 0
205249.0 352263.0 0
208534.0 354073.0 0
211899.0 352293.0 0
218802.0 353443.0 0
225424.0 353395.0 0
232020.0 353397.0 0
238526.0 353380.0 0
244967.0 353247.0 0
251413.0 352990.0 0
257944.0 352649.0 0
264535.0 352384.0 0
267824.0 354166.0 0
271158.0 352152.0 0
274458.0 353934.0 0
277831.0 351958.0 0
281159.0 353765.0 0
284544.0 351834.0 0
287895.0 353669.0 0
294642.0 353636.0 0
205225.0 355988.0 0
211897.0 355792.0 0
215583.0 355468.0 0
218960.0 357328.0 0
222184.0 355336.0 0
228807.0 355317.0 0
235351.0 355352.0 0
241800.0 355307.0 0
248212.0 355104.0 0
251445.0 356908.0 0
254674.0 354738.0 0
257962.0 356466.0 0
261239.0 354417.0 0
264523.0 356192.0 0
271096.0 355936.0 0
277762.0 355708.0 0
284499.0 355575.0 0
291260.0 355507.0 0
298013.0 355505.0 0
201978.0 357938.0 0
208502.0 357699.0 0
215764.0 359427.0 0
222421.0 359151.0 0
225598.0 357225.0 0
228977.0 359157.0 0
232168.0 357270.0 0
235502.0 359256.0 0
238653.0 357321.0 0
241922.0 359271.0 0
245051.0 357199.0 0
248280.0 359054.0 0
254697.0 358561.0 0
261255.0 358220.0 0
267778.0 357966.0 0
274352.0 357686.0 0
277594.0 359409.0 0
281081.0 357490.0 0
284445.0 359266.0 0
287863.0 357382.0 0
291250.0 359195.0 0
294637.0 357353.0 0
298014.0 359215.0 0
201980.0 361721.0 0
205235.0 359726.0 0
208558.0 361346.0 0
211845.0 359215.0 0
219323.0 361132.0 0
225818.0 361049.0 0
232312.0 361130.0 0
238822.0 361272.0 0
245155.0 361164.0 0
251487.0 360851.0 0
258007.0 360245.0 0
261282.0 362022.0 0
264509.0 360003.0 0
267717.0 361780.0 0
271003.0 359720.0 0
274208.0 361435.0 0
280799.0 361126.0 0
287851.0 361042.0 0
294644.0 361027.0 0
205262.0 363464.0 0
210306.0 364309.0 0
213171.0 362221.0 0
216524.0 363352.0 0
219809.0 365030.0 0
222731.0 362977.0 0
226042.0 364897.0 0
229146.0 363000.0 0
232413.0 364992.0 0
235606.0 363134.0 0
242139.0 363333.0 0
248351.0 363030.0 0
254762.0 362296.0 0
258074.0 363995.0 0
264485.0 363836.0 0
270897.0 363514.0 0
277392.0 363120.0 0
283964.0 362829.0 0
287104.0 364508.0 0
291274.0 362836.0 0
294678.0 364666.0 0
298016.0 362902.0 0
201982.0 365535.0 0
207440.0 366238.0 0
213696.0 365780.0 0
216966.0 367214.0 0
223045.0 366865.0 0
229276.0 366868.0 0
235621.0 367015.0 0
238861.0 365168.0 0
242052.0 367253.0 0
245426.0 365488.0 0
251273.0 365284.0 0
254813.0 365878.0 0
261287.0 365844.0 0
267645.0 365614.0 0
270810.0 367317.0 0
274070.0 365194.0 0
277243.0 366834.0 0
280558.0 364788.0 0
283712.0 366440.0 0
290233.0 366179.0 0
298016.0 366593.0 0
204562.0 368106.0 0
207871.0 369899.0 0
210779.0 367903.0 0
214106.0 369447.0 0
220140.0 368930.0 0
226221.0 368789.0 0
232441.0 368878.0 0
238757.0 369075.0 0
245106.0 369458.0 0
248507.0 367861.0 0
254770.0 369373.0 0
258077.0 367732.0 0
261203.0 369691.0 0
264429.0 367697.0 0
267586.0 369454.0 0
273998.0 368950.0 0
280418.0 368453.0 0
286853.0 368079.0 0
289964.0 369718.0 0
293366.0 367880.0 0
296434.0 369764.0 0
201956.0 370251.0 0
205065.0 371943.0 0
211245.0 371533.0 0
217285.0 371068.0 0
220350.0 372840.0 0
223252.0 370778.0 0
226307.0 372713.0 0
229335.0 370772.0 0
232381.0 372800.0 0
235533.0 370924.0 0
241791.0 371204.0 0
248030.0 371819.0 0
251376.0 370369.0 0
257881.0 371477.0 0
264355.0 371557.0 0
270796.0 371107.0 0
277205.0 370539.0 0
280409.0 372113.0 0
283585.0 370060.0 0
286730.0 371672.0 0
292978.0 371413.0 0
298066.0 372698.0 0
197689.0 378729.0 0
200439.0 377013.0 0
201997.0 373952.0 0
208468.0 373543.0 0
211702.0 375274.0 0
214463.0 373210.0 0
217516.0 374970.0 0
223347.0 374709.0 0
229300.0 374710.0 0
235353.0 374871.0 0
238540.0 373016.0 0
241465.0 375169.0 0
244724.0 373433.0 0
250970.0 374233.0 0
254386.0 372950.0 0
257511.0 375146.0 0
261037.0 373510.0 0
264320.0 375374.0 0
267597.0 373263.0 0
270970.0 374851.0 0
274058.0 372680.0 0
277312.0 374230.0 0
283602.0 373684.0 0
289807.0 373330.0 0
295422.0 373620.0 0
295851.0 377142.0 0
299201.0 376118.0 0
194827.0 380512.0 0
200945.0 380046.0 0
205687.0 375450.0 0
208966.0 377239.0 0
214767.0 377088.0 0
220458.0 376776.0 0
226280.0 376659.0 0
232230.0 376758.0 0
238257.0 376981.0 0
244349.0 377378.0 0
247630.0 375736.0 0
253980.0 376621.0 0
260648.0 377220.0 0
267936.0 376968.0 0
274284.0 376396.0 0
280571.0 375761.0 0
283755.0 377323.0 0
286740.0 375299.0 0
289763.0 377042.0 0
292650.0 375240.0 0
292856.0 378832.0 0
298834.0 379536.0 0
301962.0 378509.0 0
305119.0 380475.0 0
191830.0 382377.0 0
194906.0 383542.0 0
197983.0 381805.0 0
201062.0 383220.0 0
203506.0 377620.0 0
206489.0 379275.0 0
212004.0 379111.0 0
214885.0 381024.0 0
217723.0 378966.0 0
220600.0 380944.0 0
223312.0 378658.0 0
226114.0 380614.0 0
229158.0 378671.0 0
231994.0 380736.0 0
235103.0 378847.0 0
241122.0 379126.0 0
247228.0 379619.0 0
250555.0 378055.0 0
253486.0 380346.0 0
257013.0 378815.0 0
261942.0 380511.0 0
265019.0 378949.0 0
271310.0 378625.0 0
277656.0 377884.0 0
274891.0 380012.0 0
280867.0 379435.0 0
286872.0 378960.0 0
289980.0 380667.0 0
295871.0 380737.0 0
298973.0 382848.0 0
302033.0 381603.0 0
305301.0 383483.0 0
308358.0 382491.0 0
185490.0 386348.0 0
188679.0 384347.0 0
191699.0 385316.0 0
197974.0 384908.0 0
203940.0 381303.0 0
206732.0 383106.0 0
209362.0 381130.0 0
212103.0 383069.0 0
217682.0 382966.0 0
223420.0 382979.0 0
228895.0 382628.0 0
234799.0 382837.0 0
237941.0 380950.0 0
240792.0 383061.0 0
243981.0 381296.0 0
250106.0 381872.0 0
255485.0 383232.0 0
258734.0 381856.0 0
264988.0 382673.0 0
268308.0 380833.0 0
270058.0 384052.0 0
272392.0 382138.0 0
278123.0 381615.0 0
284014.0 380971.0 0
287140.0 382591.0 0
293015.0 382460.0 0
296035.0 384297.0 0
299152.0 386185.0 0
302167.0 384730.0 0
308715.0 385296.0 0
311790.0 384666.0 0
182373.0 388312.0 0
188496.0 387369.0 0
191779.0 388217.0 0
194852.0 386560.0 0
197953.0 388059.0 0
200973.0 386419.0 0
203958.0 384900.0 0
209343.0 385071.0 0
214783.0 385012.0 0
220438.0 384962.0 0
226198.0 385031.0 0
231670.0 384708.0 0
237633.0 384895.0 0
243682.0 385182.0 0
246853.0 383485.0 0
248951.0 386318.0 0
252210.0 384705.0 0
258278.0 385586.0 0
261588.0 384162.0 0
267255.0 385344.0 0
273250.0 386025.0 0
275590.0 383832.0 0
278622.0 385437.0 0
281236.0 383141.0 0
281561.0 386863.0 0
284323.0 384594.0 0
287338.0 386255.0 0
290177.0 384319.0 0
293155.0 386089.0 0
296218.0 387819.0 0
302343.0 387938.0 0
305396.0 386451.0 0
308559.0 388049.0 0
311821.0 388183.0 0
314868.0 386587.0 0
318038.0 388557.0 0
179369.0 390191.0 0
185436.0 389560.0 0
188899.0 390322.0 0
192207.0 391132.0 0
195115.0 389645.0 0
198567.0 391277.0 0
201015.0 389651.0 0
203741.0 388491.0 0
206544.0 386930.0 0
208840.0 389006.0 0
211865.0 387046.0 0
214497.0 388959.0 0
217475.0 386958.0 0
220154.0 388952.0 0
223167.0 386987.0 0
225872.0 389041.0 0
228927.0 387100.0 0
231671.0 389097.0 0
234493.0 386817.0 0
240561.0 386943.0 0
245724.0 388039.0 0
251792.0 388551.0 0
255014.0 387025.0 0
260991.0 387947.0 0
264166.0 386536.0 0
266990.0 388937.0 0
270258.0 387644.0 0
276555.0 387997.0 0
280012.0 389833.0 0
284419.0 388199.0 0
290237.0 387996.0 0
296417.0 391294.0 0
299366.0 389549.0 0
302602.0 391184.0 0
305573.0 389586.0 0
309066.0 390875.0 0
315033.0 389896.0 0
321256.0 390565.0 0
172796.0 394275.0 0
176120.0 392203.0 0
179094.0 393369.0 0
182579.0 391770.0 0
186470.0 392521.0 0
189656.0 393513.0 0
193024.0 393884.0 0
195812.0 392569.0 0
202243.0 392490.0 0
205634.0 390827.0 0
211440.0 390898.0 0
217128.0 390916.0 0
222829.0 390980.0 0
228609.0 391065.0 0
234593.0 390910.0 0
237476.0 388763.0 0
239404.0 391722.0 0
242532.0 389834.0 0
248609.0 390188.0 0
254575.0 390855.0 0
257780.0 389373.0 0
263793.0 390277.0 0
269969.0 391081.0 0
273479.0 389673.0 0
276885.0 391640.0 0
283600.0 391456.0 0
287178.0 389927.0 0
290261.0 391530.0 0
293288.0 389653.0 0
296658.0 394712.0 0
299632.0 392898.0 0
306003.0 392637.0 0
312223.0 391692.0 0
315384.0 393250.0 0
318276.0 391765.0 0
321547.0 393717.0 0
324506.0 392593.0 0
169448.0 396365.0 0
175690.0 395295.0 0
178387.0 396710.0 0
181625.0 395197.0 0
184708.0 394512.0 0
187999.0 396144.0 0
191726.0 396369.0 0
195652.0 395754.0 0
198988.0 394328.0 0
204961.0 394380.0 0
208261.0 392717.0 0
210859.0 394671.0 0
214040.0 392839.0 0
219768.0 392912.0 0
225527.0 393018.0 0
231492.0 392973.0 0
236501.0 393768.0 0
242378.0 393703.0 0
245467.0 391910.0 0
248267.0 394106.0 0
251400.0 392430.0 0
257387.0 393153.0 0
260597.0 391698.0 0
266704.0 392550.0 0
272868.0 393010.0 0
275567.0 394764.0 0
280590.0 393411.0 0
284072.0 395053.0 0
287029.0 393278.0 0
290375.0 394958.0 0
293432.0 393137.0 0
299950.0 396209.0 0
302960.0 394378.0 0
306299.0 395780.0 0
309329.0 393990.0 0
312510.0 395101.0 0
315715.0 396548.0 0
318628.0 395012.0 0
324841.0 395709.0 0
327780.0 394638.0 0
331071.0 396693.0 0
166112.0 398449.0 0
168970.0 399408.0 0
172304.0 397322.0 0
175064.0 398511.0 0
181141.0 398437.0 0
184553.0 397453.0 0
190788.0 398993.0 0
194500.0 398547.0 0
198266.0 397625.0 0
201694.0 396031.0 0
207581.0 396375.0 0
213467.0 396648.0 0
216655.0 394813.0 0
219289.0 396818.0 0
222430.0 394937.0 0
225153.0 396943.0 0
228328.0 394968.0 0
233570.0 395649.0 0
239427.0 395668.0 0
245176.0 395854.0 0
251047.0 396325.0 0
254191.0 394687.0 0
257024.0 396913.0 0
260264.0 395414.0 0
263494.0 393975.0 0
266456.0 396210.0 0
269635.0 394693.0 0
272549.0 396683.0 0
275651.0 398354.0 0
278469.0 396031.0 0
281569.0 397286.0 0
287448.0 396807.0 0
293679.0 396575.0 0
296983.0 398109.0 0
303266.0 397606.0 0
306612.0 398949.0 0
309605.0 397238.0 0
312802.0 398448.0 0
319004.0 398243.0 0
321922.0 396904.0 0
325265.0 398852.0 0
328160.0 397731.0 0
334364.0 398750.0 0
162785.0 400529.0 0
165647.0 401485.0 0
171783.0 400500.0 0
174549.0 401819.0 0
177772.0 399989.0 0
180427.0 401644.0 0
183821.0 400491.0 0
187406.0 399286.0 0
193579.0 401532.0 0
197203.0 400767.0 0
200867.0 399503.0 0
204283.0 398000.0 0
206879.0 400029.0 0
210199.0 398385.0 0
216095.0 398650.0 0
221955.0 398836.0 0
227609.0 399216.0 0
230609.0 397446.0 0
233372.0 399511.0 0
236419.0 397632.0 0
239179.0 399656.0 0
242195.0 397775.0 0
247951.0 398052.0 0
253856.0 398528.0 0
259901.0 399087.0 0
263219.0 397635.0 0
269476.0 398393.0 0
278886.0 399689.0 0
284766.0 398834.0 0
290783.0 398475.0 0
294096.0 400062.0 0
300284.0 399549.0 0
303596.0 400852.0 0
309934.0 400601.0 0
313100.0 401769.0 0
316049.0 399770.0 0
319490.0 401404.0 0
322381.0 400086.0 0
325772.0 402013.0 0
328619.0 400857.0 0
331484.0 399776.0 0
334776.0 401835.0 0
337643.0 400799.0 0
156152.0 404676.0 0
159472.0 402600.0 0
162359.0 403570.0 0
165250.0 404618.0 0
168490.0 402544.0 0
171292.0 403754.0 0
177272.0 403376.0 0
182976.0 403660.0 0
186519.0 402262.0 0
190018.0 401931.0 0
196167.0 404036.0 0
199874.0 402836.0 0
203460.0 401542.0 0
209523.0 402072.0 0
212836.0 400404.0 0
215488.0 402442.0 0
218745.0 400674.0 0
224526.0 400962.0 0
230299.0 401332.0 0
236127.0 401555.0 0
241915.0 401763.0 0
244941.0 399904.0 0
247715.0 402027.0 0
250753.0 400232.0 0
253578.0 402392.0 0
256696.0 400693.0 0
262810.0 401189.0 0
265711.0 403179.0 0
266279.0 399824.0 0
269487.0 402040.0 0
272637.0 400333.0 0
275993.0 401906.0 0
282114.0 401062.0 0
285346.0 402587.0 0
288031.0 400470.0 0
291330.0 402077.0 0
297384.0 401559.0 0
300631.0 402944.0 0
303831.0 404094.0 0
306970.0 402078.0 0
310261.0 404146.0 0
316559.0 402823.0 0
322947.0 403258.0 0
329079.0 404051.0 0
331916.0 402920.0 0
337992.0 403913.0 0
340882.0 402824.0 0
344097.0 404836.0 0
152834.0 406749.0 0
159043.0 405632.0 0
161948.0 406662.0 0
168131.0 405798.0 0
171000.0 407138.0 0
174036.0 405157.0 0
176732.0 406711.0 0
180050.0 405019.0 0
185449.0 405209.0 0
188784.0 404877.0 0
192379.0 404564.0 0
196436.0 407262.0 0
199432.0 406154.0 0
202740.0 405009.0 0
206149.0 403623.0 0
212170.0 404131.0 0
218155.0 404506.0 0
221378.0 402746.0 0
224043.0 404864.0 0
227187.0 403109.0 0
233036.0 403409.0 0
238867.0 403628.0 0
244680.0 403875.0 0
250518.0 404163.0 0
256433.0 404513.0 0
259562.0 402804.0 0
262436.0 404848.0 0
268292.0 405157.0 0
273020.0 403923.0 0
276540.0 405476.0 0
279355.0 403321.0 0
282635.0 404788.0 0
288617.0 404158.0 0
294642.0 403628.0 0
297958.0 405107.0 0
301282.0 406475.0 0
307009.0 405025.0 0
313767.0 404894.0 0
317292.0 405745.0 0
320128.0 404498.0 0
323522.0 406496.0 0
326274.0 405244.0 0
332185.0 406191.0 0
335088.0 405014.0 0
338221.0 407099.0 0
341179.0 405944.0 0
347287.0 406832.0 0
149496.0 408834.0 0
152398.0 409763.0 0
155735.0 407714.0 0
158662.0 408723.0 0
161614.0 409830.0 0
164850.0 407792.0 0
167726.0 409057.0 0
173903.0 408658.0 0
179494.0 408039.0 0
182809.0 407362.0 0
186501.0 407890.0 0
189993.0 407630.0 0
193324.0 407486.0 0
198642.0 409835.0 0
201929.0 408661.0 0
205342.0 407237.0 0
208782.0 405730.0 0
214855.0 406198.0 0
220846.0 406606.0 0
226758.0 406993.0 0
229911.0 405219.0 0
232663.0 407317.0 0
235783.0 405488.0 0
238549.0 407579.0 0
241627.0 405729.0 0
244424.0 407828.0 0
247477.0 405984.0 0
253364.0 406279.0 0
259315.0 406588.0 0
265227.0 406878.0 0
271063.0 406600.0 0
274101.0 407799.0 0
279884.0 407001.0 0
285901.0 406310.0 0
289196.0 407834.0 0
291932.0 405710.0 0
295293.0 407220.0 0
298738.0 408656.0 0
304625.0 407465.0 0
302310.0 410004.0 0
308353.0 407623.0 0
311592.0 407487.0 0
314891.0 408075.0 0
318128.0 408678.0 0
320815.0 407612.0 0
326396.0 408692.0 0
329292.0 407407.0 0
332276.0 409556.0 0
335252.0 408273.0 0
341373.0 409099.0 0
344359.0 407989.0 0
347505.0 410034.0 0
350442.0 408807.0 0
145936.0 411065.0 0
148951.0 411778.0 0
155359.0 410793.0 0
158373.0 411861.0 0
164570.0 411059.0 0
170565.0 410421.0 0
173375.0 411837.0 0
176976.0 410279.0 0
180833.0 410589.0 0
184244.0 410457.0 0
187904.0 410638.0 0
191455.0 410534.0 0
195046.0 410440.0 0
200885.0 412425.0 0
204472.0 410863.0 0
208007.0 409349.0 0
211473.0 407810.0 0
214233.0 409905.0 0
217578.0 408295.0 0
223568.0 408733.0 0
229511.0 409111.0 0
235438.0 409416.0 0
241348.0 409675.0 0
247265.0 409918.0 0
250317.0 408086.0 0
253210.0 410166.0 0
256253.0 408363.0 0
259186.0 410410.0 0
262203.0 408630.0 0
265219.0 410568.0 0
268201.0 408737.0 0
271360.0 410198.0 0
277249.0 409273.0 0
280449.0 410773.0 0
283161.0 408514.0 0
286436.0 410018.0 0
292545.0 409327.0 0
295990.0 410750.0 0
299583.0 412064.0 0
306172.0 410368.0 0
309889.0 410567.0 0
313326.0 410785.0 0
316793.0 411272.0 0
320465.0 411098.0 0
323474.0 410035.0 0
329281.0 410833.0 0
335361.0 411561.0 0
338361.0 410337.0 0
341465.0 412281.0 0
344512.0 411174.0 0
350612.0 412052.0 0
353562.0 410758.0 0
139255.0 415250.0 0
142575.0 413168.0 0
145559.0 414102.0 0
148683.0 414846.0 0
151998.0 412777.0 0
155112.0 413907.0 0
158246.0 415040.0 0
161419.0 413064.0 0
164471.0 414392.0 0
167513.0 412436.0 0
170451.0 413870.0 0
175903.0 413340.0 0
178955.0 413337.0 0
182317.0 413540.0 0
185744.0 413446.0 0
189390.0 413464.0 0
193127.0 413326.0 0
197053.0 413089.0 0
207295.0 412895.0 0
210806.0 411430.0 0
217021.0 412047.0 0
220326.0 410428.0 0
223092.0 412581.0 0
226322.0 410868.0 0
229108.0 412999.0 0
232292.0 411225.0 0
238243.0 411513.0 0
244193.0 411760.0 0
250160.0 411991.0 0
256160.0 412212.0 0
262218.0 412379.0 0
268397.0 412299.0 0
274514.0 411569.0 0
277686.0 413048.0 0
283685.0 412264.0 0
289742.0 411491.0 0
293110.0 412896.0 0
296524.0 414194.0 0
299898.0 415326.0 0
304138.0 413026.0 0
308043.0 413282.0 0
311760.0 413597.0 0
315353.0 413894.0 0
319118.0 413897.0 0
322924.0 413569.0 0
326194.0 412174.0 0
329430.0 414155.0 0
332379.0 412938.0 0
335366.0 414903.0 0
338399.0 413651.0 0
344583.0 414381.0 0
347623.0 413273.0 0
350706.0 415335.0 0
353708.0 414004.0 0
356670.0 412703.0 0
359756.0 414634.0 0
136007.0 417295.0 0
142285.0 416306.0 0
145479.0 417161.0 0
151879.0 415850.0 0
155109.0 417109.0 0
161395.0 416349.0 0
167529.0 415875.0 0
170608.0 417375.0 0
173339.0 415479.0 0
176658.0 416419.0 0
179958.0 416488.0 0
183475.0 416488.0 0
187104.0 416339.0 0
190905.0 416198.0 0
194818.0 415932.0 0
199078.0 415732.0 0
203704.0 414375.0 0
210193.0 415001.0 0
213646.0 413572.0 0
219814.0 414229.0 0
225883.0 414731.0 0
231928.0 415125.0 0
235104.0 413333.0 0
237958.0 415430.0 0
241092.0 413601.0 0
243993.0 415669.0 0
247091.0 413828.0 0
250051.0 415869.0 0
253118.0 414034.0 0
259198.0 414199.0 0
262335.0 416092.0 0
265375.0 414218.0 0
268604.0 415908.0 0
271614.0 413821.0 0
274821.0 415294.0 0
280894.0 414537.0 0
284139.0 416003.0 0
286961.0 413729.0 0
290304.0 415137.0 0
293738.0 416477.0 0
303129.0 416014.0 0
306622.0 416042.0 0
310240.0 416337.0 0
313846.0 416651.0 0
317429.0 416766.0 0
320862.0 416719.0 0
323826.0 416710.0 0
326474.0 415383.0 0
329335.0 417590.0 0
332337.0 416459.0 0
338367.0 417054.0 0
341476.0 415462.0 0
344635.0 417587.0 0
347689.0 416542.0 0
353769.0 417273.0 0
356791.0 415984.0 0
365805.0 418422.0 0
132874.0 419260.0 0
136086.0 420800.0 0
139103.0 418526.0 0
142390.0 419460.0 0
145685.0 420295.0 0
148716.0 417958.0 0
152012.0 418955.0 0
155310.0 420431.0 0
158299.0 418259.0 0
161494.0 419682.0 0
164539.0 417744.0 0
167724.0 419320.0 0
173959.0 418860.0 0
177371.0 419525.0 0
180978.0 419462.0 0
184714.0 419325.0 0
188514.0 419103.0 0
192376.0 418868.0 0
196196.0 418633.0 0
199778.0 418952.0 0
203052.0 417774.0 0
206665.0 416371.0 0
213086.0 417213.0 0
216483.0 415780.0 0
219313.0 418026.0 0
222615.0 416419.0 0
228711.0 416875.0 0
234789.0 417237.0 0
240862.0 417506.0 0
246955.0 417710.0 0
253086.0 417869.0 0
256155.0 416029.0 0
259277.0 417955.0 0
265550.0 417876.0 0
271850.0 417476.0 0
278039.0 416795.0 0
281283.0 418287.0 0
287430.0 417413.0 0
297271.0 417731.0 0
301055.0 418707.0 0
305025.0 418949.0 0
308768.0 419128.0 0
312450.0 419428.0 0
316117.0 419655.0 0
319705.0 419778.0 0
326234.0 419025.0 0
332075.0 420121.0 0
335299.0 418222.0 0
341512.0 418569.0 0
347767.0 419852.0 0
350738.0 418682.0 0
356777.0 419301.0 0
359819.0 417977.0 0
362801.0 416542.0 0
368811.0 420303.0 0
129136.0 421560.0 0
131941.0 422404.0 0
139499.0 421785.0 0
142817.0 422700.0 0
148987.0 421097.0 0
152344.0 422042.0 0
158469.0 421502.0 0
164689.0 421069.0 0
171044.0 420670.0 0
174543.0 422297.0 0
178424.0 422439.0 0
182278.0 422288.0 0
186130.0 422078.0 0
189971.0 421834.0 0
193788.0 421632.0 0
197538.0 421624.0 0
202094.0 421452.0 0
206015.0 419786.0 0
209609.0 418535.0 0
215971.0 419505.0 0
222138.0 420260.0 0
225446.0 418578.0 0
228324.0 420734.0 0
231579.0 419011.0 0
237696.0 419328.0 0
243825.0 419553.0 0
249987.0 419715.0 0
256197.0 419815.0 0
262474.0 419797.0 0
268806.0 419555.0 0
272077.0 421155.0 0
275098.0 419006.0 0
278361.0 420529.0 0
284567.0 419733.0 0
290771.0 418740.0 0
294120.0 419997.0 0
297349.0 421077.0 0
300594.0 421789.0 0
303948.0 421803.0 0
307493.0 421974.0 0
311103.0 422236.0 0
314770.0 422491.0 0
323112.0 419944.0 0
328746.0 420920.0 0
335308.0 421194.0 0
338508.0 420552.0 0
341742.0 421513.0 0
344799.0 420763.0 0
350531.0 422198.0 0
353664.0 420581.0 0
359762.0 421362.0 0
362798.0 419950.0 0
365773.0 421809.0 0
368745.0 423711.0 0
371808.0 422179.0 0
122691.0 425606.0 0
125911.0 423587.0 0
128906.0 424738.0 0
134467.0 423794.0 0
137351.0 424433.0 0
140424.0 425290.0 0
146084.0 423505.0 0
149297.0 424244.0 0
152474.0 424983.0 0
155627.0 423959.0 0
158920.0 424589.0 0
161795.0 423092.0 0
164834.0 424459.0 0
167827.0 422705.0 0
171029.0 423731.0 0
183791.0 425073.0 0
187612.0 424848.0 0
191396.0 424634.0 0
195137.0 424512.0 0
198900.0 424406.0 0
202340.0 424898.0 0
205500.0 423077.0 0
209062.0 422000.0 0
212562.0 420827.0 0
215469.0 423236.0 0
218817.0 421844.0 0
225008.0 422399.0 0
231251.0 422882.0 0
234493.0 421125.0 0
237458.0 423209.0 0
240660.0 421389.0 0
243687.0 423411.0 0
246855.0 421564.0 0
249954.0 423535.0 0
253091.0 421675.0 0
256261.0 423583.0 0
259378.0 421696.0 0
262612.0 423507.0 0
265721.0 421553.0 0
268998.0 423230.0 0
275361.0 422718.0 0
281651.0 422027.0 0
284990.0 423444.0 0
287912.0 421092.0 0
291324.0 422377.0 0
294807.0 423685.0 0
298530.0 424433.0 0
302367.0 424760.0 0
306029.0 424880.0 0
309668.0 425101.0 0
318457.0 422698.0 0
322125.0 422876.0 0
325854.0 422717.0 0
330247.0 423464.0 0
333548.0 423703.0 0
337228.0 423901.0 0
340498.0 424107.0 0
344162.0 424019.0 0
347496.0 423321.0 0
353423.0 423825.0 0
356656.0 422625.0 0
362725.0 423409.0 0
365628.0 425215.0 0
371722.0 425627.0 0
374804.0 424047.0 0
377888.0 425971.0 0
119459.0 427632.0 0
125753.0 426817.0 0
128887.0 428052.0 0
131813.0 426066.0 0
134856.0 427255.0 0
137953.0 427983.0 0
143641.0 426096.0 0
146948.0 426830.0 0
150362.0 427490.0 0
154125.0 427471.0 0
157492.0 427274.0 0
161380.0 426792.0 0
164801.0 427366.0 0
168257.0 426206.0 0
172540.0 426138.0 0
176104.0 425391.0 0
179951.0 425272.0 0
192809.0 427515.0 0
196532.0 427395.0 0
200217.0 427554.0 0
205205.0 426546.0 0
208546.0 425411.0 0
212043.0 424406.0 0
218296.0 425711.0 0
221642.0 424125.0 0
227958.0 424569.0 0
234219.0 425001.0 0
240481.0 425250.0 0
246784.0 425392.0 0
253119.0 425461.0 0
259485.0 425435.0 0
265882.0 425248.0 0
272292.0 424850.0 0
275607.0 426431.0 0
278665.0 424256.0 0
282002.0 425762.0 0
288406.0 424733.0 0
291970.0 425927.0 0
296418.0 426964.0 0
300493.0 427385.0 0
304361.0 427727.0 0
308099.0 427967.0 0
313326.0 425346.0 0
317006.0 425578.0 0
320694.0 425776.0 0
324419.0 425816.0 0
328053.0 425922.0 0
331811.0 426592.0 0
335490.0 426741.0 0
339137.0 426998.0 0
342821.0 426888.0 0
346578.0 426554.0 0
350172.0 425878.0 0
353491.0 426759.0 0
356666.0 425874.0 0
359715.0 424773.0 0
362494.0 427008.0 0
365427.0 428545.0 0
368632.0 427130.0 0
374786.0 427355.0 0
381020.0 427931.0 0
116229.0 429657.0 0
119313.0 430992.0 0
122549.0 428890.0 0
125751.0 430054.0 0
129090.0 431249.0 0
132103.0 429614.0 0
135293.0 430718.0 0
141209.0 428733.0 0
144605.0 429431.0 0
148142.0 430035.0 0
151913.0 430287.0 0
155613.0 430349.0 0
159302.0 429983.0 0
162829.0 430037.0 0
166731.0 429741.0 0
170296.0 429052.0 0
174119.0 428822.0 0
177761.0 428347.0 0
181535.0 428127.0 0
185318.0 427905.0 0
189080.0 427690.0 0
197667.0 430433.0 0
201081.0 430512.0 0
204246.0 429631.0 0
207871.0 428926.0 0
211354.0 427940.0 0
214897.0 426963.0 0
221127.0 428045.0 0
224581.0 426154.0 0
227654.0 428378.0 0
230949.0 426747.0 0
233943.0 428873.0 0
237234.0 427075.0 0
243578.0 427244.0 0
249948.0 427332.0 0
256338.0 427343.0 0
262748.0 427228.0 0
266037.0 428964.0 0
269171.0 426926.0 0
272468.0 428555.0 0
278960.0 427978.0 0
285378.0 427132.0 0
288813.0 428290.0 0
292197.0 429270.0 0
295486.0 429956.0 0
298948.0 430089.0 0
302674.0 430461.0 0
311799.0 428224.0 0
315485.0 428477.0 0
319167.0 428705.0 0
322858.0 428846.0 0
326498.0 428990.0 0
330076.0 429284.0 0
333834.0 429618.0 0
337545.0 429794.0 0
341327.0 429807.0 0
345084.0 429582.0 0
348775.0 429225.0 0
352179.0 429349.0 0
355976.0 429149.0 0
359404.0 428299.0 0
365528.0 431531.0 0
368715.0 430495.0 0
371700.0 429113.0 0
374713.0 430620.0 0
377920.0 429265.0 0
381131.0 431282.0 0
384170.0 429905.0 0
113057.0 431650.0 0
116175.0 433147.0 0
122502.0 432155.0 0
125757.0 433208.0 0
132451.0 433226.0 0
138675.0 431387.0 0
142186.0 432041.0 0
145824.0 432615.0 0
149612.0 432981.0 0
153412.0 433193.0 0
157209.0 433137.0 0
160857.0 433053.0 0
164615.0 432827.0 0
168359.0 432495.0 0
171974.0 432004.0 0
175692.0 431669.0 0
179365.0 431280.0 0
183098.0 431024.0 0
186829.0 430798.0 0
190522.0 430606.0 0
194151.0 430463.0 0
206652.0 432292.0 0
210315.0 431492.0 0
213950.0 430571.0 0
217660.0 429635.0 0
224296.0 429732.0 0
230604.0 430641.0 0
237039.0 430916.0 0
240331.0 429087.0 0
243506.0 431052.0 0
246744.0 429196.0 0
249964.0 431115.0 0
253165.0 429236.0 0
256427.0 431103.0 0
259598.0 429179.0 0
262887.0 430966.0 0
269342.0 430649.0 0
275756.0 430133.0 0
282386.0 429512.0 0
286006.0 430812.0 0
289711.0 431904.0 0
293462.0 432644.0 0
297250.0 433046.0 0
306453.0 430800.0 0
310191.0 431095.0 0
313901.0 431386.0 0
317591.0 431655.0 0
321272.0 431865.0 0
324924.0 432048.0 0
328546.0 432266.0 0
332211.0 432471.0 0
335964.0 432662.0 0
339755.0 432693.0 0
343565.0 432588.0 0
347317.0 432366.0 0
350952.0 432304.0 0
354685.0 432052.0 0
358515.0 431581.0 0
362162.0 430741.0 0
368117.0 433855.0 0
371563.0 432807.0 0
374852.0 433635.0 0
378023.0 432497.0 0
384159.0 433405.0 0
387241.0 431837.0 0
104026.0 437314.0 0
109952.0 433606.0 0
113097.0 435291.0 0
119446.0 434388.0 0
122816.0 435478.0 0
129066.0 434188.0 0
136046.0 434044.0 0
139695.0 434653.0 0
143423.0 435205.0 0
147250.0 435633.0 0
162495.0 435985.0 0
166219.0 435737.0 0
169921.0 435385.0 0
173582.0 434944.0 0
177279.0 434570.0 0
180971.0 434214.0 0
184692.0 433950.0 0
188403.0 433738.0 0
192080.0 433582.0 0
195715.0 433503.0 0
199348.0 433475.0 0
203099.0 433109.0 0
212550.0 434178.0 0
216213.0 433359.0 0
219866.0 432753.0 0
223487.0 432999.0 0
227198.0 432237.0 0
233682.0 432714.0 0
240237.0 432897.0 0
246730.0 432985.0 0
253233.0 433004.0 0
259719.0 432933.0 0
266197.0 432703.0 0
272650.0 432305.0 0
275942.0 433920.0 0
279004.0 431643.0 0
282079.0 433132.0 0
285144.0 434292.0 0
288325.0 435031.0 0
300949.0 433266.0 0
304715.0 433588.0 0
308508.0 433947.0 0
312251.0 434286.0 0
315961.0 434609.0 0
319654.0 434879.0 0
323325.0 435104.0 0
326982.0 435303.0 0
330663.0 435464.0 0
334392.0 435579.0 0
338191.0 435624.0 0
342010.0 435562.0 0
345815.0 435424.0 0
349557.0 435301.0 0
353328.0 435072.0 0
357108.0 434687.0 0
360841.0 434190.0 0
364305.0 434229.0 0
370586.0 436352.0 0
374008.0 436457.0 0
377640.0 435820.0 0
380961.0 434706.0 0
387091.0 435500.0 0
390229.0 433724.0 0
393118.0 435517.0 0
100857.0 439280.0 0
106956.0 435515.0 0
110092.0 437474.0 0
116464.0 436638.0 0
119960.0 437783.0 0
123572.0 438760.0 0
126293.0 436435.0 0
130045.0 436923.0 0
133537.0 436708.0 0
137228.0 437303.0 0
140990.0 437822.0 0
144834.0 438268.0 0
151114.0 435941.0 0
154982.0 436096.0 0
158750.0 436123.0 0
171527.0 438301.0 0
175220.0 437873.0 0
178926.0 437484.0 0
182644.0 437144.0 0
186377.0 436887.0 0
190102.0 436698.0 0
193814.0 436571.0 0
197543.0 436466.0 0
201354.0 436203.0 0
205165.0 435701.0 0
208855.0 434957.0 0
218221.0 436395.0 0
221864.0 436151.0 0
225822.0 435824.0 0
230228.0 434535.0 0
233693.0 436457.0 0
236953.0 434718.0 0
240152.0 436714.0 0
243460.0 434850.0 0
246759.0 436757.0 0
250010.0 434886.0 0
253324.0 436773.0 0
256533.0 434868.0 0
259854.0 436704.0 0
263030.0 434721.0 0
266354.0 436458.0 0
269525.0 434395.0 0
272866.0 436097.0 0
279191.0 435509.0 0
291729.0 435399.0 0
295401.0 435828.0 0
299153.0 436149.0 0
302903.0 436406.0 0
306703.0 436727.0 0
310540.0 437161.0 0
314279.0 437552.0 0
317999.0 437886.0 0
321694.0 438161.0 0
325378.0 438372.0 0
355710.0 437807.0 0
359466.0 437436.0 0
363110.0 437256.0 0
366842.0 436908.0 0
376682.0 438944.0 0
380352.0 438109.0 0
383806.0 436947.0 0
389888.0 437634.0 0
392994.0 438917.0 0
396230.0 437449.0 0
399385.0 439427.0 0
94748.2 443105.0 0
97757.8 441239.0 0
104049.0 440820.0 0
107358.0 439914.0 0
113539.0 438904.0 0
117125.0 440101.0 0
120826.0 441115.0 0
127363.0 439454.0 0
131164.0 439841.0 0
134793.0 440028.0 0
138548.0 440504.0 0
142385.0 440933.0 0
148731.0 438631.0 0
152648.0 438907.0 0
156523.0 439112.0 0
160324.0 439132.0 0
164067.0 438980.0 0
167803.0 438695.0 0
180660.0 440388.0 0
184411.0 440060.0 0
188169.0 439823.0 0
191924.0 439654.0 0
195695.0 439504.0 0
199515.0 439275.0 0
203361.0 438906.0 0
207171.0 438378.0 0
210897.0 437707.0 0
214583.0 437021.0 0
223764.0 439253.0 0
227345.0 439060.0 0
230721.0 438286.0 0
236790.0 438594.0 0
243489.0 438621.0 0
250085.0 438653.0 0
256663.0 438642.0 0
263184.0 438503.0 0
269697.0 438138.0 0
276215.0 437765.0 0
279694.0 439333.0 0
282530.0 436917.0 0
286093.0 437894.0 0
289798.0 438370.0 0
293498.0 438679.0 0
297246.0 439000.0 0
301013.0 439277.0 0
304792.0 439536.0 0
308625.0 439865.0 0
312547.0 440477.0 0
316303.0 440875.0 0
329089.0 438509.0 0
332838.0 438585.0 0
336632.0 438600.0 0
340461.0 438554.0 0
344290.0 438449.0 0
348097.0 438321.0 0
351907.0 438113.0 0
358084.0 440610.0 0
361825.0 440359.0 0
365581.0 440036.0 0
369319.0 439612.0 0
372942.0 439427.0 0
383083.0 440433.0 0
386605.0 439211.0 0
392785.0 442074.0 0
396167.0 440882.0 0
402499.0 441391.0 0
91489.2 445134.0 0
101007.0 442956.0 0
110767.0 441315.0 0
114375.0 442497.0 0
124644.0 441911.0 0
128499.0 442507.0 0
132309.0 442930.0 0
136071.0 443251.0 0
139906.0 443652.0 0
146284.0 441309.0 0
150220.0 441639.0 0
154158.0 441935.0 0
158080.0 442192.0 0
161896.0 442216.0 0
165686.0 441989.0 0
169495.0 441636.0 0
173225.0 441227.0 0
176931.0 440789.0 0
186261.0 442971.0 0
190037.0 442763.0 0
193823.0 442587.0 0
197639.0 442375.0 0
201477.0 442078.0 0
205306.0 441675.0 0
209090.0 441165.0 0
212801.0 440585.0 0
216453.0 440038.0 0
220078.0 439600.0 0
225778.0 442452.0 0
229695.0 441941.0 0
233515.0 440820.0 0
240227.0 440477.0 0
246815.0 440529.0 0
253447.0 440542.0 0
260011.0 440499.0 0
266521.0 440238.0 0
269899.0 441867.0 0
273038.0 439900.0 0
276311.0 441531.0 0
283554.0 440478.0 0
287682.0 441187.0 0
291547.0 441575.0 0
295325.0 441889.0 0
299087.0 442173.0 0
302841.0 442426.0 0
306594.0 442672.0 0
310379.0 442979.0 0
320031.0 441220.0 0
323744.0 441472.0 0
327488.0 441595.0 0
331266.0 441642.0 0
335078.0 441633.0 0
338914.0 441578.0 0
342761.0 441483.0 0
346604.0 441355.0 0
350448.0 441168.0 0
354282.0 440912.0 0
360485.0 443481.0 0
364292.0 443174.0 0
368081.0 442812.0 0
371818.0 442508.0 0
375601.0 442056.0 0
379385.0 441373.0 0
385797.0 442829.0 0
389348.0 441586.0 0
395648.0 444308.0 0
399165.0 443007.0 0
402120.0 445139.0 0
405582.0 443332.0 0
88248.4 447177.0 0
94802.8 446523.0 0
98106.5 445180.0 0
101631.0 446625.0 0
104491.0 444161.0 0
108088.0 443949.0 0
111693.0 445043.0 0
118106.0 443525.0 0
121933.0 444379.0 0
125805.0 445074.0 0
129682.0 445630.0 0
133542.0 446061.0 0
143797.0 444021.0 0
147727.0 444359.0 0
151681.0 444686.0 0
155649.0 445008.0 0
159646.0 445376.0 0
163582.0 445286.0 0
167518.0 444906.0 0
171331.0 444611.0 0
175012.0 444160.0 0
178720.0 443675.0 0
182485.0 443265.0 0
195738.0 445509.0 0
199560.0 445257.0 0
203385.0 444933.0 0
207188.0 444531.0 0
210945.0 444065.0 0
214648.0 443576.0 0
218324.0 443125.0 0
222019.0 442730.0 0
234394.0 444612.0 0
237068.0 442332.0 0
240207.0 444355.0 0
243523.0 442421.0 0
246932.0 444284.0 0
250197.0 442408.0 0
253584.0 444314.0 0
256825.0 442428.0 0
260223.0 444328.0 0
263352.0 442322.0 0
266668.0 444043.0 0
279485.0 442946.0 0
282781.0 443817.0 0
286196.0 444192.0 0
289788.0 444488.0 0
293490.0 444828.0 0
297214.0 445119.0 0
300938.0 445380.0 0
314602.0 443870.0 0
318319.0 444273.0 0
322069.0 444593.0 0
325868.0 444720.0 0
329682.0 444746.0 0
333520.0 444707.0 0
337371.0 444640.0 0
341231.0 444541.0 0
345096.0 444412.0 0
348963.0 444238.0 0
352828.0 444012.0 0
356672.0 443747.0 0
366798.0 445980.0 0
370619.0 445643.0 0
374448.0 445208.0 0
378281.0 444610.0 0
382081.0 443822.0 0
388397.0 445414.0 0
391946.0 445165.0 0
398473.0 446547.0 0
407842.0 446119.0 0
411137.0 446770.0 0
414310.0 448758.0 0
85026.2 449206.0 0
88627.8 450944.0 0
91664.8 448712.0 0
95332.6 449717.0 0
98988.4 449303.0 0
105392.0 447464.0 0
109073.0 447784.0 0
115430.0 446030.0 0
119254.0 446901.0 0
123131.0 447645.0 0
127030.0 448271.0 0
130935.0 448787.0 0
137392.0 446418.0 0
141278.0 446778.0 0
145194.0 447113.0 0
149128.0 447438.0 0
153073.0 447781.0 0
157008.0 448149.0 0
161458.0 448512.0 0
165697.0 448110.0 0
169532.0 447907.0 0
173287.0 447664.0 0
176866.0 447063.0 0
180594.0 446505.0 0
184369.0 446143.0 0
188149.0 445900.0 0
191934.0 445710.0 0
205241.0 447853.0 0
209024.0 447472.0 0
212766.0 447055.0 0
216470.0 446635.0 0
220148.0 446241.0 0
223800.0 445907.0 0
227412.0 445637.0 0
230943.0 445296.0 0
236879.0 447410.0 0
243704.0 446180.0 0
250306.0 446164.0 0
256999.0 446204.0 0
263635.0 446220.0 0
269989.0 445448.0 0
273301.0 443825.0 0
276726.0 445484.0 0
280450.0 446559.0 0
284229.0 447173.0 0
287948.0 447513.0 0
291649.0 447811.0 0
295370.0 448110.0 0
304648.0 445615.0 0
308337.0 445836.0 0
312039.0 445998.0 0
316844.0 447483.0 0
320475.0 447797.0 0
324260.0 447872.0 0
328119.0 447896.0 0
331982.0 447823.0 0
335842.0 447741.0 0
339708.0 447633.0 0
343583.0 447498.0 0
347465.0 447329.0 0
351349.0 447118.0 0
355228.0 446873.0 0
359091.0 446609.0 0
362949.0 446312.0 0
369335.0 448796.0 0
373224.0 448393.0 0
377094.0 447865.0 0
380933.0 447188.0 0
384715.0 446361.0 0
390937.0 448442.0 0
394716.0 447659.0 0
401152.0 448911.0 0
404635.0 447679.0 0
410969.0 450126.0 0
417483.0 450757.0 0
77192.0 454085.0 0
80424.4 452043.0 0
83730.6 452755.0 0
92576.0 452197.0 0
96463.9 452888.0 0
102744.0 450199.0 0
106568.0 450869.0 0
112815.0 448666.0 0
116627.0 449508.0 0
120494.0 450264.0 0
124395.0 450924.0 0
134835.0 449209.0 0
138731.0 449571.0 0
142637.0 449911.0 0
146550.0 450234.0 0
150467.0 450563.0 0
154403.0 450945.0 0
158760.0 451127.0 0
163899.0 451196.0 0
167761.0 451151.0 0
171555.0 451013.0 0
175313.0 450825.0 0
178776.0 449827.0 0
182496.0 449344.0 0
186255.0 449065.0 0
190026.0 448866.0 0
193813.0 448675.0 0
197618.0 448453.0 0
201433.0 448181.0 0
214589.0 450108.0 0
218304.0 449742.0 0
221994.0 449409.0 0
225668.0 449118.0 0
229346.0 448775.0 0
233105.0 448260.0 0
240584.0 448030.0 0
247013.0 448082.0 0
253719.0 448083.0 0
260434.0 448155.0 0
267123.0 447970.0 0
271224.0 448598.0 0
274893.0 448745.0 0
278511.0 449439.0 0
282232.0 450010.0 0
286014.0 450482.0 0
299093.0 448379.0 0
302806.0 448623.0 0
306497.0 448840.0 0
310165.0 448992.0 0
313809.0 448879.0 0
319667.0 451338.0 0
323253.0 451282.0 0
326877.0 451168.0 0
330582.0 451012.0 0
334374.0 450897.0 0
338213.0 450771.0 0
342079.0 450623.0 0
345962.0 450449.0 0
349857.0 450243.0 0
353755.0 450005.0 0
357652.0 449743.0 0
361549.0 449453.0 0
365444.0 449133.0 0
375845.0 451133.0 0
379725.0 450553.0 0
383549.0 449848.0 0
387292.0 449049.0 0
393680.0 451082.0 0
397466.0 450083.0 0
403914.0 451439.0 0
407429.0 450110.0 0
410443.0 453461.0 0
414070.0 452318.0 0
420672.0 452764.0 0
73960.1 456120.0 0
80578.2 455609.0 0
86852.5 454138.0 0
90262.3 454972.0 0
100187.0 453053.0 0
103979.0 453753.0 0
110284.0 451460.0 0
114063.0 452226.0 0
117906.0 452959.0 0
121794.0 453624.0 0
128314.0 451490.0 0
132238.0 451971.0 0
136156.0 452380.0 0
140060.0 452742.0 0
143947.0 453082.0 0
147795.0 453415.0 0
151569.0 453770.0 0
173540.0 454208.0 0
180567.0 452584.0 0
184313.0 452249.0 0
188076.0 452046.0 0
191853.0 451867.0 0
195648.0 451668.0 0
199456.0 451432.0 0
203267.0 451154.0 0
207068.0 450833.0 0
210844.0 450479.0 0
220172.0 452889.0 0
223891.0 452598.0 0
227601.0 452307.0 0
231257.0 451816.0 0
234915.0 451326.0 0
238533.0 450908.0 0
243710.0 450086.0 0
247244.0 451826.0 0
250458.0 449888.0 0
253802.0 451920.0 0
257098.0 449950.0 0
260460.0 451954.0 0
263904.0 450113.0 0
268886.0 451410.0 0
272814.0 451939.0 0
276528.0 452389.0 0
280275.0 452937.0 0
289772.0 450824.0 0
293517.0 451122.0 0
297264.0 451400.0 0
301010.0 451652.0 0
304754.0 451875.0 0
308508.0 452038.0 0
312300.0 452030.0 0
316117.0 451552.0 0
321769.0 454619.0 0
344458.0 453609.0 0
348354.0 453396.0 0
352262.0 453158.0 0
356177.0 452895.0 0
360098.0 452607.0 0
364022.0 452291.0 0
367953.0 451947.0 0
371903.0 451576.0 0
382356.0 453304.0 0
386170.0 452600.0 0
389913.0 451899.0 0
396470.0 453616.0 0
400244.0 452561.0 0
406768.0 453976.0 0
413481.0 455843.0 0
417192.0 454478.0 0
420366.0 456641.0 0
423878.0 454775.0 0
70702.1 458162.0 0
77430.0 457858.0 0
81037.8 459284.0 0
84029.6 456687.0 0
87608.8 457813.0 0
93940.3 455700.0 0
97734.5 456258.0 0
107767.0 454414.0 0
111539.0 455059.0 0
115360.0 455743.0 0
125711.0 454215.0 0
129642.0 454733.0 0
133574.0 455186.0 0
137494.0 455589.0 0
141389.0 455960.0 0
145249.0 456320.0 0
155180.0 454220.0 0
158665.0 454501.0 0
162185.0 454275.0 0
165959.0 454348.0 0
169752.0 454307.0 0
177296.0 454139.0 0
182241.0 455412.0 0
186039.0 455222.0 0
189832.0 455069.0 0
193635.0 454895.0 0
197449.0 454688.0 0
201269.0 454445.0 0
205087.0 454167.0 0
208892.0 453861.0 0
212676.0 453536.0 0
216436.0 453205.0 0
229586.0 455520.0 0
233193.0 454856.0 0
236900.0 454372.0 0
240653.0 453864.0 0
244291.0 453773.0 0
250512.0 453620.0 0
257146.0 453671.0 0
263583.0 453985.0 0
267196.0 454589.0 0
270885.0 454984.0 0
284053.0 453411.0 0
287848.0 453814.0 0
291633.0 454142.0 0
295411.0 454431.0 0
299190.0 454691.0 0
302972.0 454917.0 0
306767.0 455091.0 0
310589.0 455144.0 0
314429.0 454964.0 0
318118.0 454764.0 0
325456.0 454491.0 0
329176.0 454316.0 0
332928.0 454133.0 0
336736.0 453969.0 0
340584.0 453798.0 0
354677.0 456073.0 0
358611.0 455783.0 0
362552.0 455469.0 0
366498.0 455126.0 0
370452.0 454748.0 0
374458.0 454350.0 0
378481.0 453910.0 0
385013.0 456110.0 0
388843.0 455416.0 0
392650.0 454594.0 0
399300.0 456161.0 0
403073.0 455113.0 0
409669.0 456871.0 0
416559.0 458141.0 0
423639.0 458694.0 0
427137.0 456812.0 0
67381.9 460239.0 0
74219.0 460027.0 0
77867.3 461661.0 0
84731.8 460467.0 0
91309.3 458578.0 0
95106.7 459205.0 0
101459.0 456701.0 0
105232.0 457344.0 0
119230.0 456392.0 0
123136.0 456985.0 0
127066.0 457519.0 0
131007.0 458000.0 0
134943.0 458435.0 0
138863.0 458841.0 0
149058.0 456696.0 0
152804.0 457125.0 0
156559.0 457516.0 0
160354.0 457616.0 0
164067.0 457553.0 0
167850.0 457566.0 0
171651.0 457533.0 0
175446.0 457488.0 0
187724.0 458246.0 0
191563.0 458115.0 0
195401.0 457940.0 0
199242.0 457727.0 0
203082.0 457484.0 0
206914.0 457215.0 0
210733.0 456927.0 0
214534.0 456631.0 0
218317.0 456338.0 0
222086.0 456060.0 0
225844.0 455793.0 0
238924.0 457343.0 0
242686.0 457075.0 0
246578.0 456741.0 0
250341.0 457099.0 0
253952.0 455880.0 0
257624.0 457214.0 0
261377.0 457073.0 0
265142.0 457641.0 0
274618.0 455452.0 0
278348.0 455919.0 0
282118.0 456386.0 0
285912.0 456800.0 0
289719.0 457159.0 0
293526.0 457467.0 0
297334.0 457737.0 0
301150.0 457971.0 0
304979.0 458157.0 0
308827.0 458259.0 0
323925.0 457825.0 0
327676.0 457647.0 0
331447.0 457441.0 0
335246.0 457232.0 0
339083.0 457028.0 0
342950.0 456816.0 0
346842.0 456587.0 0
350753.0 456340.0 0
361051.0 458674.0 0
365007.0 458335.0 0
368968.0 457967.0 0
372929.0 457552.0 0
376970.0 457136.0 0
381135.0 456744.0 0
391587.0 458178.0 0
395466.0 457161.0 0
402166.0 458753.0 0
405937.0 457713.0 0
408840.0 460425.0 0
412650.0 459372.0 0
419616.0 460467.0 0
429491.0 459861.0 0
433260.0 460638.0 0
436608.0 462734.0 0
64023.3 462340.0 0
67544.3 464201.0 0
70893.0 462084.0 0
74620.9 463953.0 0
81647.4 462982.0 0
85456.8 464225.0 0
88537.8 461438.0 0
92422.8 462124.0 0
98912.7 459768.0 0
102694.0 460318.0 0
109025.0 457986.0 0
112838.0 458614.0 0
116692.0 459232.0 0
120587.0 459811.0 0
124513.0 460345.0 0
128457.0 460836.0 0
132408.0 461291.0 0
142757.0 459228.0 0
146618.0 459618.0 0
150453.0 460027.0 0
154302.0 460419.0 0
158193.0 460687.0 0
162044.0 460801.0 0
165848.0 460814.0 0
169669.0 460820.0 0
179240.0 457504.0 0
183867.0 458334.0 0
201052.0 460785.0 0
204913.0 460547.0 0
208762.0 460291.0 0
212599.0 460024.0 0
216422.0 459755.0 0
220234.0 459495.0 0
224037.0 459248.0 0
227831.0 459015.0 0
231601.0 458818.0 0
235156.0 457826.0 0
244634.0 460171.0 0
248343.0 460198.0 0
252176.0 460236.0 0
255818.0 460380.0 0
268930.0 458093.0 0
272679.0 458517.0 0
276430.0 458969.0 0
280192.0 459407.0 0
283981.0 459819.0 0
287791.0 460186.0 0
291614.0 460510.0 0
295445.0 460792.0 0
312678.0 458225.0 0
316465.0 458121.0 0
320198.0 457979.0 0
326098.0 460995.0 0
329897.0 460780.0 0
333714.0 460546.0 0
337556.0 460309.0 0
341424.0 460068.0 0
345316.0 459819.0 0
349229.0 459558.0 0
353159.0 459282.0 0
357100.0 458988.0 0
367464.0 461211.0 0
371437.0 460822.0 0
375392.0 460382.0 0
379428.0 459952.0 0
383811.0 459603.0 0
387710.0 458947.0 0
390396.0 461808.0 0
394497.0 460711.0 0
398346.0 459747.0 0
405057.0 461390.0 0
411838.0 462989.0 0
415663.0 461806.0 0
422449.0 463103.0 0
426065.0 461702.0 0
433094.0 464584.0 0
71208.9 466018.0 0
78545.8 465479.0 0
82355.7 466716.0 0
89744.7 465003.0 0
96276.8 462740.0 0
100122.0 463328.0 0
106495.0 460940.0 0
110317.0 461554.0 0
114167.0 462142.0 0
118056.0 462698.0 0
121979.0 463219.0 0
125925.0 463705.0 0
136352.0 461717.0 0
140286.0 462131.0 0
144194.0 462535.0 0
148090.0 462937.0 0
151998.0 463323.0 0
155932.0 463651.0 0
159863.0 463902.0 0
163752.0 464036.0 0
173493.0 460803.0 0
177316.0 460804.0 0
181164.0 460856.0 0
185514.0 461345.0 0
189424.0 461299.0 0
193308.0 461175.0 0
197183.0 460998.0 0
210635.0 463394.0 0
214490.0 463148.0 0
218336.0 462905.0 0
222174.0 462675.0 0
226006.0 462465.0 0
229827.0 462291.0 0
233632.0 462184.0 0
237063.0 460747.0 0
240837.0 460418.0 0
259599.0 460511.0 0
263283.0 460821.0 0
267004.0 461193.0 0
270754.0 461616.0 0
274505.0 462045.0 0
278267.0 462473.0 0
282049.0 462875.0 0
285856.0 463241.0 0
299285.0 461035.0 0
303138.0 461234.0 0
307007.0 461371.0 0
310884.0 461423.0 0
314730.0 461403.0 0
318535.0 461317.0 0
322314.0 461177.0 0
332126.0 463892.0 0
335988.0 463628.0 0
339869.0 463362.0 0
343767.0 463091.0 0
347686.0 462812.0 0
351620.0 462524.0 0
355568.0 462223.0 0
359526.0 461906.0 0
363493.0 461571.0 0
373888.0 463699.0 0
377851.0 463247.0 0
381898.0 462781.0 0
386464.0 462480.0 0
389004.0 465407.0 0
393475.0 464256.0 0
397375.0 463347.0 0
401231.0 462384.0 0
404144.0 465048.0 0
408004.0 464062.0 0
418672.0 464300.0 0
425508.0 465645.0 0
429180.0 464061.0 0
78906.1 469390.0 0
86999.7 467794.0 0
90976.9 468635.0 0
93636.7 465716.0 0
97500.7 466303.0 0
103952.0 463925.0 0
107787.0 464533.0 0
111644.0 465109.0 0
115537.0 465642.0 0
119461.0 466144.0 0
129885.0 464164.0 0
133850.0 464604.0 0
137815.0 465019.0 0
141771.0 465453.0 0
145711.0 465856.0 0
149661.0 466238.0 0
153625.0 466591.0 0
167606.0 464084.0 0
171456.0 464099.0 0
175306.0 464097.0 0
179175.0 464115.0 0
183075.0 464170.0 0
187228.0 464417.0 0
191173.0 464376.0 0
195094.0 464247.0 0
198998.0 464070.0 0
202889.0 463863.0 0
206768.0 463635.0 0
220266.0 466082.0 0
224125.0 465886.0 0
227976.0 465724.0 0
231817.0 465621.0 0
235645.0 465610.0 0
238855.0 463724.0 0
242662.0 463521.0 0
246405.0 463483.0 0
250160.0 463516.0 0
253892.0 463659.0 0
257631.0 463790.0 0
261351.0 464033.0 0
265080.0 464354.0 0
268822.0 464733.0 0
272576.0 465152.0 0
276333.0 465573.0 0
280107.0 465971.0 0
289684.0 463569.0 0
293527.0 463859.0 0
297385.0 464111.0 0
301258.0 464322.0 0
305146.0 464484.0 0
309044.0 464586.0 0
312933.0 464636.0 0
316792.0 464616.0 0
320624.0 464525.0 0
324448.0 464358.0 0
328279.0 464139.0 0
342196.0 466396.0 0
346123.0 466100.0 0
350063.0 465798.0 0
354016.0 465489.0 0
357979.0 465168.0 0
361951.0 464834.0 0
365926.0 464482.0 0
369904.0 464107.0 0
380288.0 466142.0 0
384369.0 465645.0 0
396325.0 466940.0 0
400268.0 466021.0 0
411051.0 466667.0 0
414860.0 465528.0 0
421636.0 466949.0 0
82708.4 470544.0 0
86512.8 471651.0 0
94874.6 469378.0 0
101380.0 466914.0 0
105243.0 467540.0 0
123410.0 466617.0 0
127375.0 467067.0 0
131346.0 467504.0 0
135350.0 467924.0 0
139319.0 468342.0 0
143326.0 468795.0 0
147305.0 469170.0 0
157595.0 466902.0 0
161557.0 467166.0 0
165468.0 467316.0 0
169355.0 467376.0 0
173239.0 467389.0 0
177132.0 467387.0 0
181043.0 467401.0 0
184982.0 467437.0 0
189015.0 467532.0 0
192983.0 467469.0 0
196927.0 467336.0 0
200850.0 467163.0 0
204756.0 466964.0 0
208648.0 466748.0 0
212529.0 466523.0 0
216401.0 466298.0 0
233798.0 469003.0 0
237650.0 469068.0 0
240570.0 466756.0 0
244376.0 466751.0 0
248141.0 466804.0 0
251884.0 466917.0 0
255638.0 467063.0 0
259378.0 467263.0 0
263123.0 467538.0 0
266874.0 467880.0 0
270629.0 468275.0 0
283909.0 466330.0 0
287736.0 466655.0 0
291584.0 466945.0 0
295451.0 467202.0 0
299337.0 467421.0 0
303240.0 467598.0 0
307158.0 467730.0 0
311084.0 467820.0 0
315007.0 467882.0 0
318884.0 467857.0 0
322749.0 467727.0 0
326617.0 467517.0 0
330493.0 467257.0 0
334383.0 466977.0 0
338284.0 466687.0 0
348488.0 469105.0 0
352446.0 468785.0 0
356413.0 468460.0 0
360389.0 468126.0 0
364370.0 467780.0 0
368355.0 467415.0 0
372348.0 467022.0 0
376324.0 466612.0 0
386778.0 468595.0 0
392077.0 467734.0 0
399874.0 469772.0 0
403559.0 468782.0 0
407288.0 467755.0 0
414009.0 469307.0 0
417823.0 468128.0 0
420748.0 470807.0 0
83570.2 474353.0 0
90413.1 472454.0 0
94323.8 473256.0 0
98763.1 469866.0 0
102664.0 470530.0 0
109111.0 468119.0 0
113023.0 468635.0 0
116959.0 469119.0 0
120915.0 469576.0 0
124885.0 470011.0 0
128859.0 470438.0 0
132881.0 470838.0 0
136874.0 471271.0 0
140849.0 471676.0 0
151288.0 469534.0 0
155276.0 469875.0 0
159265.0 470186.0 0
163265.0 470493.0 0
167202.0 470632.0 0
171127.0 470672.0 0
175057.0 470668.0 0
178989.0 470659.0 0
182930.0 470660.0 0
186888.0 470669.0 0
190880.0 470668.0 0
194853.0 470583.0 0
198803.0 470448.0 0
202733.0 470281.0 0
206647.0 470090.0 0
210548.0 469886.0 0
214440.0 469678.0 0
218324.0 469475.0 0
222203.0 469289.0 0
226075.0 469135.0 0
229940.0 469031.0 0
242195.0 469910.0 0
246032.0 470047.0 0
249818.0 470176.0 0
253592.0 470318.0 0
257359.0 470499.0 0
261124.0 470735.0 0
274387.0 468700.0 0
278147.0 469106.0 0
281944.0 469455.0 0
285769.0 469772.0 0
289618.0 470059.0 0
293489.0 470314.0 0
297381.0 470536.0 0
301291.0 470722.0 0
305220.0 470870.0 0
309163.0 470980.0 0
324921.0 470911.0 0
328832.0 470647.0 0
332750.0 470349.0 0
336675.0 470040.0 0
340605.0 469730.0 0
344542.0 469419.0 0
354829.0 471781.0 0
358807.0 471443.0 0
362790.0 471102.0 0
366784.0 470743.0 0
370780.0 470369.0 0
374761.0 469984.0 0
378740.0 469563.0 0
382705.0 469074.0 0
388890.0 471759.0 0
392596.0 471410.0 0
396227.0 470682.0 0
406434.0 471503.0 0
410215.0 470431.0 0
416923.0 471974.0 0
87733.9 475384.0 0
91638.8 476182.0 0
106565.0 471169.0 0
110512.0 471666.0 0
114471.0 472138.0 0
118442.0 472578.0 0
122423.0 472999.0 0
126401.0 473411.0 0
130434.0 473795.0 0
134411.0 474203.0 0
144957.0 472132.0 0
148941.0 472495.0 0
152931.0 472853.0 0
156920.0 473193.0 0
160905.0 473511.0 0
165022.0 473871.0 0
200708.0 473589.0 0
204640.0 473427.0 0
208556.0 473244.0 0
212462.0 473052.0 0
216359.0 472861.0 0
220252.0 472682.0 0
224138.0 472532.0 0
228019.0 472425.0 0
231895.0 472382.0 0
235775.0 472425.0 0
239672.0 472659.0 0
264891.0 471040.0 0
268657.0 471409.0 0
272415.0 471831.0 0
276158.0 472279.0 0
279955.0 472617.0 0
283779.0 472923.0 0
287629.0 473202.0 0
291502.0 473453.0 0
295396.0 473674.0 0
313121.0 471063.0 0
317102.0 471170.0 0
321017.0 471100.0 0
331102.0 473745.0 0
335054.0 473415.0 0
339002.0 473091.0 0
342949.0 472768.0 0
346901.0 472442.0 0
350861.0 472113.0 0
365192.0 474094.0 0
369185.0 473736.0 0
373168.0 473372.0 0
377147.0 472986.0 0
381114.0 472564.0 0
385042.0 472096.0 0
391230.0 474947.0 0
395098.0 474369.0 0
398899.0 473514.0 0
402664.0 472542.0 0
409310.0 474234.0 0
413109.0 473143.0 0
419825.0 474681.0 0
84832.8 478102.0 0
88988.4 479155.0 0
97064.1 476121.0 0
99981.9 473439.0 0
103897.0 474193.0 0
108035.0 474741.0 0
112006.0 475195.0 0
116002.0 475622.0 0
119995.0 476028.0 0
123980.0 476426.0 0
138439.0 474631.0 0
142465.0 475005.0 0
146595.0 475484.0 0
150577.0 475850.0 0
154558.0 476209.0 0
158543.0 476554.0 0
168990.0 473952.0 0
172963.0 473947.0 0
176928.0 473930.0 0
180887.0 473913.0 0
184846.0 473899.0 0
188816.0 473875.0 0
192795.0 473824.0 0
196760.0 473725.0 0
214382.0 476246.0 0
218282.0 476073.0 0
222176.0 475924.0 0
226063.0 475814.0 0
229939.0 475760.0 0
233803.0 475778.0 0
237659.0 475905.0 0
241538.0 476152.0 0
243805.0 473180.0 0
247674.0 473395.0 0
251498.0 473558.0 0
255298.0 473731.0 0
259087.0 473940.0 0
262874.0 474206.0 0
266656.0 474546.0 0
270422.0 474959.0 0
274147.0 475505.0 0
277941.0 475815.0 0
281766.0 476108.0 0
299309.0 473864.0 0
303239.0 474021.0 0
307184.0 474144.0 0
311141.0 474238.0 0
315106.0 474313.0 0
319267.0 474474.0 0
323205.0 474328.0 0
327152.0 474059.0 0
337399.0 476476.0 0
341353.0 476145.0 0
345306.0 475810.0 0
349266.0 475473.0 0
353234.0 475132.0 0
357209.0 474789.0 0
361191.0 474445.0 0
375537.0 476414.0 0
379506.0 476039.0 0
383452.0 475643.0 0
387345.0 475287.0 0
393757.0 477985.0 0
397763.0 477221.0 0
401643.0 476314.0 0
405492.0 475276.0 0
416002.0 475850.0 0
94353.7 479045.0 0
98224.7 479924.0 0
101015.0 477105.0 0
105464.0 477746.0 0
128012.0 476795.0 0
131991.0 477189.0 0
135989.0 477576.0 0
140077.0 477985.0 0
144088.0 478371.0 0
148214.0 478864.0 0
152183.0 479246.0 0
162539.0 476869.0 0
166861.0 477249.0 0
170887.0 477230.0 0
174877.0 477201.0 0
178859.0 477181.0 0
182830.0 477159.0 0
186796.0 477128.0 0
190765.0 477080.0 0
194733.0 477005.0 0
198690.0 476896.0 0
202633.0 476759.0 0
206562.0 476601.0 0
210477.0 476426.0 0
227971.0 479143.0 0
231835.0 479145.0 0
235681.0 479229.0 0
239520.0 479401.0 0
243374.0 479659.0 0
245485.0 476542.0 0
249371.0 476767.0 0
253213.0 476955.0 0
257028.0 477151.0 0
260831.0 477379.0 0
264632.0 477680.0 0
268415.0 478074.0 0
272111.0 478778.0 0
285618.0 476377.0 0
289492.0 476621.0 0
293387.0 476839.0 0
297301.0 477029.0 0
301231.0 477190.0 0
305175.0 477322.0 0
309131.0 477426.0 0
313096.0 477507.0 0
317071.0 477550.0 0
321486.0 477780.0 0
325468.0 477497.0 0
329454.0 477168.0 0
333436.0 476809.0 0
343715.0 479211.0 0
347668.0 478865.0 0
351630.0 478515.0 0
355601.0 478164.0 0
359581.0 477816.0 0
363572.0 477465.0 0
367570.0 477120.0 0
371555.0 476773.0 0
400491.0 480067.0 0
404502.0 479031.0 0
408363.0 478044.0 0
102684.0 480578.0 0
109587.0 478303.0 0
113593.0 478702.0 0
117600.0 479099.0 0
121592.0 479482.0 0
125619.0 479840.0 0
129599.0 480217.0 0
133599.0 480587.0 0
137634.0 480951.0 0
141696.0 481373.0 0
145709.0 481779.0 0
156153.0 479604.0 0
160149.0 479952.0 0
164280.0 480215.0 0
168873.0 480539.0 0
172872.0 480484.0 0
176856.0 480455.0 0
180832.0 480435.0 0
184800.0 480406.0 0
188764.0 480363.0 0
192726.0 480298.0 0
196684.0 480208.0 0
200633.0 480093.0 0
204571.0 479957.0 0
208496.0 479805.0 0
212404.0 479637.0 0
216305.0 479467.0 0
220202.0 479317.0 0
224092.0 479204.0 0
247268.0 479949.0 0
251135.0 480167.0 0
254974.0 480367.0 0
258793.0 480574.0 0
262597.0 480814.0 0
266401.0 481170.0 0
275905.0 479056.0 0
279730.0 479329.0 0
283583.0 479584.0 0
287459.0 479818.0 0
291356.0 480030.0 0
295271.0 480219.0 0
299200.0 480382.0 0
303143.0 480520.0 0
307097.0 480631.0 0
311063.0 480719.0 0
315043.0 480780.0 0
319034.0 480787.0 0
323829.0 480986.0 0
327813.0 480616.0 0
331855.0 480221.0 0
335816.0 479885.0 0
339767.0 479552.0 0
350024.0 481934.0 0
353986.0 481572.0 0
357961.0 481213.0 0
361945.0 480862.0 0
365932.0 480520.0 0
369922.0 480185.0 0
373906.0 479847.0 0
377884.0 479501.0 0
381849.0 479149.0 0
385795.0 478806.0 0
389739.0 478450.0 0
396460.0 480879.0 0
403406.0 482766.0 0
407297.0 481866.0 0
91767.2 482081.0 0
95669.7 482992.0 0
99962.7 483485.0 0
107035.0 481317.0 0
111239.0 481837.0 0
115232.0 482207.0 0
119237.0 482579.0 0
123255.0 482927.0 0
127238.0 483288.0 0
131236.0 483641.0 0
135255.0 483991.0 0
139258.0 484366.0 0
143297.0 484796.0 0
149787.0 482295.0 0
153746.0 482688.0 0
157724.0 483020.0 0
161890.0 483322.0 0
166311.0 483447.0 0
170926.0 483797.0 0
174903.0 483745.0 0
178866.0 483726.0 0
182828.0 483704.0 0
186785.0 483667.0 0
190741.0 483612.0 0
194694.0 483534.0 0
198644.0 483434.0 0
202586.0 483315.0 0
206520.0 483182.0 0
210439.0 483042.0 0
214332.0 482875.0 0
218225.0 482717.0 0
222118.0 482596.0 0
225995.0 482531.0 0
229857.0 482523.0 0
233704.0 482581.0 0
237538.0 482714.0 0
241373.0 482909.0 0
245221.0 483142.0 0
249090.0 483381.0 0
252946.0 483588.0 0
270045.0 482088.0 0
273841.0 482338.0 0
277669.0 482586.0 0
281525.0 482823.0 0
285406.0 483045.0 0
289307.0 483249.0 0
293224.0 483434.0 0
297153.0 483598.0 0
301094.0 483739.0 0
305043.0 483857.0 0
321241.0 483892.0 0
326234.0 484114.0 0
330301.0 483644.0 0
334260.0 483320.0 0
338201.0 482990.0 0
342137.0 482648.0 0
346075.0 482295.0 0
356330.0 484642.0 0
360306.0 484283.0 0
364288.0 483940.0 0
368272.0 483610.0 0
372257.0 483285.0 0
376239.0 482960.0 0
380216.0 482632.0 0
384189.0 482305.0 0
388163.0 481967.0 0
392190.0 481539.0 0
399179.0 483778.0 0
95473.4 486983.0 0
104245.0 484130.0 0
108713.0 484855.0 0
112919.0 485371.0 0
116909.0 485713.0 0
120923.0 486055.0 0
124907.0 486400.0 0
128901.0 486737.0 0
147271.0 485251.0 0
151305.0 485787.0 0
155328.0 486132.0 0
159461.0 486379.0 0
163988.0 486529.0 0
204548.0 486559.0 0
208480.0 486435.0 0
212396.0 486317.0 0
216259.0 486136.0 0
220147.0 485990.0 0
224021.0 485924.0 0
227882.0 485910.0 0
231729.0 485952.0 0
235562.0 486056.0 0
239394.0 486213.0 0
243236.0 486407.0 0
256784.0 483785.0 0
260607.0 483999.0 0
264397.0 484243.0 0
267935.0 485420.0 0
271736.0 485654.0 0
275575.0 485877.0 0
279442.0 486094.0 0
283331.0 486300.0 0
287240.0 486494.0 0
309002.0 483951.0 0
312972.0 484021.0 0
316957.0 484067.0 0
336664.0 486460.0 0
340582.0 486121.0 0
344497.0 485767.0 0
348422.0 485394.0 0
352366.0 485015.0 0
370591.0 486734.0 0
374572.0 486422.0 0
378552.0 486110.0 0
382533.0 485796.0 0
386517.0 485478.0 0
390579.0 485092.0 0
394876.0 484448.0 0
402124.0 486464.0 0
101612.0 487103.0 0
105928.0 487657.0 0
110406.0 488401.0 0
132902.0 487076.0 0
136885.0 487434.0 0
140860.0 487823.0 0
144811.0 488283.0 0
148704.0 488812.0 0
168410.0 486695.0 0
172986.0 487051.0 0
176936.0 487038.0 0
180881.0 487023.0 0
184826.0 486994.0 0
188773.0 486946.0 0
192721.0 486878.0 0
196667.0 486789.0 0
200609.0 486681.0 0
222042.0 489318.0 0
225902.0 489301.0 0
229753.0 489335.0 0
233592.0 489421.0 0
237427.0 489553.0 0
247089.0 486618.0 0
250950.0 486824.0 0
254811.0 487009.0 0
258678.0 487190.0 0
262566.0 487400.0 0
269540.0 488980.0 0
273434.0 489193.0 0
291162.0 486673.0 0
295095.0 486837.0 0
299034.0 486981.0 0
302978.0 487106.0 0
306926.0 487207.0 0
310879.0 487285.0 0
314846.0 487341.0 0
319141.0 487183.0 0
323578.0 486935.0 0
328786.0 487078.0 0
332731.0 486772.0 0
346836.0 488906.0 0
350749.0 488504.0 0
354693.0 488106.0 0
358657.0 487730.0 0
362632.0 487381.0 0
366610.0 487052.0 0
388890.0 488630.0 0
393244.0 488021.0 0
397551.0 487381.0 0
98692.4 489813.0 0
103365.0 490679.0 0
107627.0 491208.0 0
114630.0 488900.0 0
118618.0 489220.0 0
122605.0 489551.0 0
126593.0 489875.0 0
130576.0 490202.0 0
134547.0 490545.0 0
138501.0 490915.0 0
142427.0 491341.0 0
146305.0 491862.0 0
152455.0 489422.0 0
156198.0 489811.0 0
159921.0 490108.0 0
163632.0 490278.0 0
167371.0 490339.0 0
171163.0 490361.0 0
175047.0 490380.0 0
178956.0 490368.0 0
182882.0 490343.0 0
186818.0 490302.0 0
190759.0 490241.0 0
194701.0 490161.0 0
198642.0 490061.0 0
202581.0 489945.0 0
206519.0 489823.0 0
210457.0 489715.0 0
214383.0 489648.0 0
218186.0 489392.0 0
241271.0 489714.0 0
245121.0 489899.0 0
248981.0 490086.0 0
252853.0 490255.0 0
256737.0 490406.0 0
260640.0 490547.0 0
265686.0 489635.0 0
277329.0 489393.0 0
281237.0 489582.0 0
285158.0 489762.0 0
289089.0 489934.0 0
293028.0 490096.0 0
296970.0 490244.0 0
300913.0 490376.0 0
304852.0 490489.0 0
308781.0 490582.0 0
312689.0 490654.0 0
316548.0 490722.0 0
320319.0 490771.0 0
324026.0 490711.0 0
327701.0 490634.0 0
331435.0 490319.0 0
335230.0 489980.0 0
339072.0 489634.0 0
342946.0 489285.0 0
349141.0 492052.0 0
353055.0 491615.0 0
357003.0 491207.0 0
360966.0 490843.0 0
364936.0 490511.0 0
368910.0 490197.0 0
372886.0 489892.0 0
376865.0 489592.0 0
380847.0 489291.0 0
384831.0 488985.0 0
395889.0 490982.0 0
400508.0 490059.0 0
100462.0 493397.0 0
112134.0 491941.0 0
116352.0 492429.0 0
120332.0 492740.0 0
124315.0 493051.0 0
128293.0 493367.0 0
132257.0 493696.0 0
136205.0 494048.0 0
140128.0 494442.0 0
144018.0 494919.0 0
150067.0 492566.0 0
153907.0 493009.0 0
157740.0 493343.0 0
161575.0 493579.0 0
165414.0 493703.0 0
169259.0 493747.0 0
173125.0 493750.0 0
177022.0 493743.0 0
180937.0 493718.0 0
184866.0 493678.0 0
188803.0 493622.0 0
192743.0 493549.0 0
196683.0 493458.0 0
200620.0 493348.0 0
204555.0 493224.0 0
208496.0 493099.0 0
212458.0 493015.0 0
219981.0 492693.0 0
223888.0 492686.0 0
227762.0 492719.0 0
231613.0 492799.0 0
235460.0 492914.0 0
239312.0 493053.0 0
243168.0 493214.0 0
247033.0 493382.0 0
250915.0 493533.0 0
254816.0 493659.0 0
258743.0 493753.0 0
263505.0 493087.0 0
267420.0 493124.0 0
271286.0 492525.0 0
275203.0 492716.0 0
279130.0 492889.0 0
283066.0 493054.0 0
287010.0 493217.0 0
290958.0 493374.0 0
294907.0 493523.0 0
298854.0 493662.0 0
302797.0 493787.0 0
306729.0 493897.0 0
310644.0 493992.0 0
314531.0 494078.0 0
318387.0 494150.0 0
322220.0 494153.0 0
326031.0 494072.0 0
329867.0 493854.0 0
333694.0 493534.0 0
337536.0 493192.0 0
341393.0 492843.0 0
345266.0 492475.0 0
351425.0 495184.0 0
355346.0 494719.0 0
359291.0 494330.0 0
363249.0 493989.0 0
367214.0 493675.0 0
371184.0 493375.0 0
375158.0 493082.0 0
379139.0 492791.0 0
383124.0 492499.0 0
387160.0 492163.0 0
391536.0 491574.0 0
398832.0 493657.0 0
105110.0 494267.0 0
109376.0 494767.0 0
113872.0 495489.0 0
118082.0 495967.0 0
122067.0 496260.0 0
126043.0 496563.0 0
130010.0 496880.0 0
133961.0 497216.0 0
147780.0 495835.0 0
151645.0 496209.0 0
155535.0 496562.0 0
159434.0 496832.0 0
163339.0 497012.0 0
194731.0 496869.0 0
198669.0 496769.0 0
202599.0 496652.0 0
206520.0 496518.0 0
210434.0 496391.0 0
214339.0 496354.0 0
218069.0 496058.0 0
221889.0 496062.0 0
225761.0 496096.0 0
229621.0 496183.0 0
233481.0 496289.0 0
237346.0 496412.0 0
241214.0 496556.0 0
245090.0 496708.0 0
273078.0 496069.0 0
277023.0 496224.0 0
280974.0 496371.0 0
284929.0 496520.0 0
288887.0 496669.0 0
292845.0 496818.0 0
335921.0 496757.0 0
339799.0 496420.0 0
343681.0 496066.0 0
347567.0 495681.0 0
365503.0 497169.0 0
369465.0 496872.0 0
373433.0 496584.0 0
377409.0 496298.0 0
381393.0 496015.0 0
385418.0 495705.0 0
389782.0 495121.0 0
394150.0 494561.0 0
99423.0 497249.0 0
103373.0 497840.0 0
107349.0 498162.0 0
111322.0 498507.0 0
115617.0 499048.0 0
137893.0 497582.0 0
141800.0 498004.0 0
167243.0 497107.0 0
171145.0 497138.0 0
175053.0 497134.0 0
178973.0 497111.0 0
182905.0 497072.0 0
186844.0 497019.0 0
190787.0 496951.0 0
212425.0 499684.0 0
223695.0 499443.0 0
227589.0 499566.0 0
231469.0 499671.0 0
248984.0 496844.0 0
252898.0 496950.0 0
256842.0 497012.0 0
261284.0 496653.0 0
265234.0 496578.0 0
269175.0 496603.0 0
274938.0 499597.0 0
296800.0 496961.0 0
300750.0 497095.0 0
304694.0 497218.0 0
308627.0 497328.0 0
312547.0 497426.0 0
316454.0 497509.0 0
320354.0 497546.0 0
324245.0 497500.0 0
328144.0 497335.0 0
332039.0 497075.0 0
353696.0 498277.0 0
357609.0 497845.0 0
361549.0 497486.0 0
383650.0 499248.0 0
388026.0 498681.0 0
392346.0 498144.0 0
396335.0 497882.0 0
400299.0 497357.0 0
101125.0 501132.0 0
105111.0 501442.0 0
119845.0 499498.0 0
123821.0 499788.0 0
127791.0 500088.0 0
131754.0 500411.0 0
135703.0 500755.0 0
139638.0 501133.0 0
145531.0 499139.0 0
149421.0 499474.0 0
153331.0 499797.0 0
157266.0 500080.0 0
161212.0 500295.0 0
165159.0 500436.0 0
169103.0 500509.0 0
173042.0 500530.0 0
176981.0 500515.0 0
180926.0 500480.0 0
184875.0 500429.0 0
188828.0 500366.0 0
192780.0 500290.0 0
196728.0 500201.0 0
200667.0 500097.0 0
204591.0 499971.0 0
208504.0 499823.0 0
218895.0 499899.0 0
235357.0 499784.0 0
239245.0 499918.0 0
243138.0 500057.0 0
247045.0 500184.0 0
250973.0 500278.0 0
254929.0 500321.0 0
259133.0 500141.0 0
263103.0 500099.0 0
267065.0 500039.0 0
271020.0 500042.0 0
278895.0 499718.0 0
282857.0 499847.0 0
286821.0 499984.0 0
290786.0 500128.0 0
294748.0 500272.0 0
298707.0 500412.0 0
302662.0 500543.0 0
306612.0 500663.0 0
310556.0 500770.0 0
314500.0 500860.0 0
318447.0 500920.0 0
322396.0 500919.0 0
326345.0 500798.0 0
330291.0 500582.0 0
334225.0 500305.0 0
338143.0 499994.0 0
342055.0 499662.0 0
345962.0 499303.0 0
349859.0 498920.0 0
355889.0 501390.0 0
359819.0 501003.0 0
363768.0 500675.0 0
367728.0 500380.0 0
371692.0 500100.0 0
375661.0 499819.0 0
379638.0 499535.0 0
394549.0 501459.0 0
398537.0 501210.0 0
109094.0 501799.0 0
113082.0 502089.0 0
117418.0 502594.0 0
121615.0 503039.0 0
125588.0 503325.0 0
129556.0 503620.0 0
133532.0 503952.0 0
137495.0 504299.0 0
143240.0 502720.0 0
147189.0 502772.0 0
151131.0 503074.0 0
155089.0 503344.0 0
159060.0 503574.0 0
163040.0 503750.0 0
167019.0 503860.0 0
170991.0 503917.0 0
174960.0 503922.0 0
178926.0 503895.0 0
182892.0 503848.0 0
186858.0 503789.0 0
190823.0 503718.0 0
194785.0 503638.0 0
198741.0 503545.0 0
202686.0 503441.0 0
206607.0 503301.0 0
210513.0 503117.0 0
214429.0 502901.0 0
218078.0 503780.0 0
221690.0 502724.0 0
225540.0 502943.0 0
229431.0 503059.0 0
233343.0 503161.0 0
237251.0 503288.0 0
241164.0 503422.0 0
245089.0 503545.0 0
249028.0 503635.0 0
252994.0 503672.0 0
257089.0 503573.0 0
261067.0 503540.0 0
265031.0 503508.0 0
268981.0 503475.0 0
272929.0 503462.0 0
276849.0 503109.0 0
280803.0 503206.0 0
284766.0 503322.0 0
288733.0 503455.0 0
292699.0 503597.0 0
296662.0 503739.0 0
300626.0 503876.0 0
304588.0 504003.0 0
308550.0 504117.0 0
312513.0 504211.0 0
316487.0 504281.0 0
320476.0 504317.0 0
324504.0 504257.0 0
328494.0 504074.0 0
332470.0 503830.0 0
336429.0 503551.0 0
340375.0 503245.0 0
344312.0 502914.0 0
348239.0 502561.0 0
352172.0 502629.0 0
358041.0 504532.0 0
361994.0 504189.0 0
365961.0 503892.0 0
369929.0 503623.0 0
373899.0 503353.0 0
377872.0 503075.0 0
381855.0 502784.0 0
386241.0 502237.0 0
390565.0 501734.0 0
99638.5 505030.0 0
103623.0 505141.0 0
107585.0 505491.0 0
111548.0 505752.0 0
115497.0 506039.0 0
119445.0 506315.0 0
123405.0 506595.0 0
127364.0 506869.0 0
131333.0 507146.0 0
135354.0 507493.0 0
141000.0 506163.0 0
144971.0 506302.0 0
148940.0 506387.0 0
152915.0 506638.0 0
156898.0 506868.0 0
160893.0 507056.0 0
164910.0 507202.0 0
168909.0 507292.0 0
188856.0 507153.0 0
192834.0 507077.0 0
196809.0 506995.0 0
200779.0 506899.0 0
204746.0 506797.0 0
208683.0 506622.0 0
212619.0 506353.0 0
223373.0 506295.0 0
227336.0 506449.0 0
231299.0 506535.0 0
235232.0 506662.0 0
239162.0 506795.0 0
243105.0 506917.0 0
247058.0 507017.0 0
251035.0 507055.0 0
255063.0 507011.0 0
259046.0 506984.0 0
263017.0 506958.0 0
266974.0 506933.0 0
270919.0 506912.0 0
274859.0 506889.0 0
278780.0 506612.0 0
282730.0 506693.0 0
286691.0 506803.0 0
290655.0 506938.0 0
294618.0 507081.0 0
298584.0 507219.0 0
334676.0 507091.0 0
338649.0 506814.0 0
342612.0 506512.0 0
346568.0 506188.0 0
350525.0 506247.0 0
354484.0 506235.0 0
360168.0 507704.0 0
364151.0 507396.0 0
368133.0 507142.0 0
372116.0 506894.0 0
376092.0 506628.0 0
380072.0 506345.0 0
384051.0 506059.0 0
388021.0 505777.0 0
391993.0 505456.0 0
395971.0 505186.0 0
399958.0 505003.0 0
101403.0 508951.0 0
105387.0 508911.0 0
109354.0 509073.0 0
172913.0 507325.0 0
176907.0 507313.0 0
180894.0 507274.0 0
184876.0 507220.0 0
214791.0 509495.0 0
218292.0 507632.0 0
302554.0 507351.0 0
306526.0 507471.0 0
310501.0 507573.0 0
314482.0 507647.0 0
318476.0 507695.0 0
322565.0 507675.0 0
326686.0 507567.0 0
330691.0 507343.0 0
386247.0 509363.0 0
390218.0 509092.0 0
394191.0 508889.0 0
398180.0 508920.0 0
113306.0 509343.0 0
117261.0 509620.0 0
121219.0 509886.0 0
125181.0 510159.0 0
129149.0 510402.0 0
133122.0 510647.0 0
138801.0 509503.0 0
142785.0 509736.0 0
146769.0 509859.0 0
150750.0 509958.0 0
154738.0 510190.0 0
158743.0 510377.0 0
162762.0 510534.0 0
166797.0 510662.0 0
170839.0 510718.0 0
174878.0 510730.0 0
178890.0 510705.0 0
182886.0 510659.0 0
186879.0 510596.0 0
190870.0 510523.0 0
194858.0 510443.0 0
198850.0 510360.0 0
202836.0 510254.0 0
206869.0 510155.0 0
210839.0 509897.0 0
218046.0 511546.0 0
221563.0 509828.0 0
225412.0 510334.0 0
229271.0 509904.0 0
233196.0 510041.0 0
237129.0 510175.0 0
241091.0 510292.0 0
245059.0 510417.0 0
249053.0 510461.0 0
253053.0 510454.0 0
257042.0 510434.0 0
261017.0 510413.0 0
264981.0 510394.0 0
268932.0 510376.0 0
272873.0 510356.0 0
276802.0 510324.0 0
280721.0 510108.0 0
284666.0 510181.0 0
288617.0 510298.0 0
292572.0 510441.0 0
296537.0 510577.0 0
300508.0 510711.0 0
304487.0 510834.0 0
308470.0 510943.0 0
312459.0 511029.0 0
316454.0 511078.0 0
320546.0 511065.0 0
324725.0 510995.0 0
328903.0 510859.0 0
332905.0 510627.0 0
336890.0 510372.0 0
340873.0 510097.0 0
344850.0 509799.0 0
348826.0 509846.0 0
352805.0 509844.0 0
356787.0 509793.0 0
362300.0 510884.0 0
366288.0 510644.0 0
370292.0 510419.0 0
374302.0 510190.0 0
378290.0 509914.0 0
382271.0 509636.0 0
100996.0 512960.0 0
104983.0 512926.0 0
108957.0 513040.0 0
112918.0 513302.0 0
116878.0 513574.0 0
120842.0 513831.0 0
124810.0 514100.0 0
128796.0 514302.0 0
132782.0 514480.0 0
136724.0 513167.0 0
140717.0 513191.0 0
144701.0 513282.0 0
148678.0 513367.0 0
152647.0 513578.0 0
156624.0 513732.0 0
160619.0 513880.0 0
164646.0 514017.0 0
168739.0 514109.0 0
172808.0 514138.0 0
176867.0 514137.0 0
180889.0 514105.0 0
184898.0 514050.0 0
188895.0 513978.0 0
192892.0 513903.0 0
196888.0 513815.0 0
200908.0 513732.0 0
204902.0 513600.0 0
209164.0 513503.0 0
213153.0 513080.0 0
223038.0 513545.0 0
227091.0 513943.0 0
231093.0 513402.0 0
235062.0 513575.0 0
239046.0 513667.0 0
243030.0 513835.0 0
247050.0 513871.0 0
251058.0 513906.0 0
255055.0 513886.0 0
259035.0 513878.0 0
263004.0 513856.0 0
266960.0 513849.0 0
270907.0 513830.0 0
274842.0 513815.0 0
278765.0 513758.0 0
282668.0 513600.0 0
286592.0 513687.0 0
290529.0 513829.0 0
294483.0 513952.0 0
298450.0 514088.0 0
302432.0 514210.0 0
306425.0 514321.0 0
310423.0 514417.0 0
314434.0 514480.0 0
318510.0 514465.0 0
322687.0 514398.0 0
326926.0 514295.0 0
331108.0 514159.0 0
335116.0 513935.0 0
339099.0 513674.0 0
343067.0 513417.0 0
347034.0 513408.0 0
351010.0 513405.0 0
354996.0 513358.0 0
358989.0 513262.0 0
363618.0 514479.0 0
367595.0 514302.0 0
371555.0 514137.0 0
375511.0 513967.0 0
379458.0 513708.0 0
383403.0 513448.0 0
387349.0 513193.0 0
391300.0 512932.0 0
395270.0 512967.0 0
399255.0 512990.0 0
214140.0 516866.0 0
219054.0 515224.0 0
229587.0 517047.0 0
102000.0 516913.0 0
106000.0 516890.0 0
110019.0 516892.0 0
114246.0 517063.0 0
118429.0 517245.0 0
122539.0 517431.0 0
126645.0 517625.0 0
130674.0 517795.0 0
134780.0 517860.0 0
138612.0 516884.0 0
142574.0 517090.0 0
146548.0 517129.0 0
150530.0 517040.0 0
154520.0 517111.0 0
158514.0 517249.0 0
162521.0 517380.0 0
166601.0 517479.0 0
170729.0 517545.0 0
174727.0 517602.0 0
178715.0 517636.0 0
182694.0 517625.0 0
186661.0 517590.0 0
190618.0 517530.0 0
194562.0 517481.0 0
198497.0 517410.0 0
202419.0 517388.0 0
206337.0 517264.0 0
210245.0 517347.0 0
217520.0 518823.0 0
221823.0 517942.0 0
225745.0 517798.0 0
233485.0 517520.0 0
237395.0 517260.0 0
241329.0 517449.0 0
245262.0 517408.0 0
249213.0 517446.0 0
253161.0 517384.0 0
257116.0 517376.0 0
261071.0 517338.0 0
265030.0 517344.0 0
268985.0 517324.0 0
272941.0 517329.0 0
276892.0 517280.0 0
280842.0 517152.0 0
284778.0 517224.0 0
288718.0 517375.0 0
292662.0 517486.0 0
296612.0 517617.0 0
300572.0 517720.0 0
304546.0 517808.0 0
308521.0 517886.0 0
312504.0 517936.0 0
316493.0 517895.0 0
320642.0 517814.0 0
324878.0 517707.0 0
329119.0 517606.0 0
333294.0 517478.0 0
337436.0 517298.0 0
341432.0 517182.0 0
345422.0 517135.0 0
349407.0 517112.0 0
353386.0 517136.0 0
357358.0 517034.0 0
361275.0 517660.0 0
365689.0 517768.0 0
369678.0 517640.0 0
373662.0 517494.0 0
377697.0 517288.0 0
381764.0 517087.0 0
385955.0 516939.0 0
389999.0 516883.0 0
394000.0 516890.0 0
398000.0 516913.0 0
101840.0 520915.0 0
105835.0 520892.0 0
109825.0 520885.0 0
113807.0 521031.0 0
117784.0 521184.0 0
121754.0 521342.0 0
125721.0 521473.0 0
129692.0 521596.0 0
133679.0 521639.0 0
137959.0 521044.0 0
141958.0 521048.0 0
145955.0 521093.0 0
149950.0 521027.0 0
153944.0 521068.0 0
157935.0 521195.0 0
161924.0 521319.0 0
165915.0 521402.0 0
169907.0 521439.0 0
173899.0 521486.0 0
177893.0 521518.0 0
181889.0 521508.0 0
185957.0 521491.0 0
190074.0 521449.0 0
194120.0 521414.0 0
198118.0 521342.0 0
202117.0 521339.0 0
206112.0 521208.0 0
210106.0 521328.0 0
214072.0 520843.0 0
219016.0 522411.0 0
222945.0 521715.0 0
226906.0 521626.0 0
230794.0 520833.0 0
234729.0 521320.0 0
238689.0 521020.0 0
242643.0 521326.0 0
246611.0 521150.0 0
250570.0 521388.0 0
254533.0 521131.0 0
258505.0 521127.0 0
262482.0 521073.0 0
266461.0 521090.0 0
270444.0 521045.0 0
274430.0 521086.0 0
278419.0 520971.0 0
282411.0 520963.0 0
286407.0 520868.0 0
290402.0 520999.0 0
294488.0 521035.0 0
298486.0 521144.0 0
302494.0 521213.0 0
306489.0 521301.0 0
310487.0 521364.0 0
314489.0 521398.0 0
318481.0 521348.0 0
322467.0 521346.0 0
326447.0 521355.0 0
330420.0 521359.0 0
334389.0 521301.0 0
338355.0 521194.0 0
342330.0 521156.0 0
346310.0 521112.0 0
350296.0 521089.0 0
354287.0 521110.0 0
358283.0 521119.0 0
362381.0 521465.0 0
366375.0 521590.0 0
370345.0 521517.0 0
374305.0 521404.0 0
378264.0 521239.0 0
382229.0 521055.0 0
386202.0 520929.0 0
390184.0 520883.0 0
394172.0 520892.0 0
398167.0 520916.0 0
102000.0 524913.0 0
106000.0 524890.0 0
110001.0 524880.0 0
114018.0 525018.0 0
118027.0 525168.0 0
122025.0 525322.0 0
126024.0 525432.0 0
130021.0 525522.0 0
134015.0 525566.0 0
137969.0 525043.0 0
141957.0 525048.0 0
145944.0 525093.0 0
149930.0 525027.0 0
153914.0 525068.0 0
157895.0 525187.0 0
161874.0 525305.0 0
165852.0 525385.0 0
169828.0 525419.0 0
173802.0 525457.0 0
177775.0 525486.0 0
181747.0 525473.0 0
185719.0 525450.0 0
189692.0 525392.0 0
193667.0 525350.0 0
197645.0 525271.0 0
201628.0 525278.0 0
205611.0 525136.0 0
209597.0 525280.0 0
213553.0 524792.0 0
217346.0 526006.0 0
221553.0 525417.0 0
225539.0 525384.0 0
229871.0 524716.0 0
233839.0 525216.0 0
237826.0 524909.0 0
241815.0 525239.0 0
245809.0 525052.0 0
249916.0 525333.0 0
253907.0 525075.0 0
257907.0 525082.0 0
261904.0 525025.0 0
265903.0 525053.0 0
269900.0 525003.0 0
273896.0 525052.0 0
277890.0 524929.0 0
281886.0 524954.0 0
285879.0 524828.0 0
289872.0 524962.0 0
293866.0 524980.0 0
297859.0 525091.0 0
301852.0 525137.0 0
305846.0 525227.0 0
309843.0 525290.0 0
313842.0 525335.0 0
317841.0 525289.0 0
321891.0 525288.0 0
325898.0 525298.0 0
329919.0 525307.0 0
333943.0 525264.0 0
337954.0 525185.0 0
341952.0 525145.0 0
345949.0 525105.0 0
349943.0 525080.0 0
353935.0 525103.0 0
357924.0 525103.0 0
361900.0 525401.0 0
365888.0 525462.0 0
369885.0 525438.0 0
373958.0 525365.0 0
377976.0 525222.0 0
381985.0 525042.0 0
385998.0 524923.0 0
390000.0 524882.0 0
394000.0 524890.0 0
398000.0 524913.0 0
101998.0 528913.0 0
105998.0 528890.0 0
109997.0 528879.0 0
113995.0 529010.0 0
117991.0 529159.0 0
121987.0 529311.0 0
125985.0 529410.0 0
129984.0 529473.0 0
133983.0 529510.0 0
138000.0 529044.0 0
142001.0 529047.0 0
146001.0 529092.0 0
150000.0 529028.0 0
154003.0 529066.0 0
158013.0 529177.0 0
162026.0 529290.0 0
166045.0 529365.0 0
170054.0 529394.0 0
174078.0 529422.0 0
178101.0 529444.0 0
182129.0 529424.0 0
186141.0 529397.0 0
190158.0 529331.0 0
194156.0 529287.0 0
198153.0 529201.0 0
202149.0 529218.0 0
206142.0 529068.0 0
210133.0 529229.0 0
214101.0 528748.0 0
218452.0 529821.0 0
222403.0 529248.0 0
226372.0 529300.0 0
230297.0 528685.0 0
234241.0 529194.0 0
238207.0 528876.0 0
242172.0 529231.0 0
246150.0 529021.0 0
250122.0 529328.0 0
254100.0 529064.0 0
258087.0 529078.0 0
262077.0 529015.0 0
266068.0 529049.0 0
270060.0 528994.0 0
274053.0 529048.0 0
278046.0 528916.0 0
282042.0 528951.0 0
286037.0 528820.0 0
290033.0 528956.0 0
294031.0 528969.0 0
298029.0 529082.0 0
302034.0 529116.0 0
306033.0 529207.0 0
310032.0 529270.0 0
314030.0 529319.0 0
318028.0 529279.0 0
322027.0 529274.0 0
326025.0 529280.0 0
330023.0 529290.0 0
334021.0 529254.0 0
338018.0 529184.0 0
342017.0 529145.0 0
346015.0 529104.0 0
350014.0 529080.0 0
354014.0 529102.0 0
358014.0 529104.0 0
362029.0 529362.0 0
366028.0 529379.0 0
370026.0 529394.0 0
374022.0 529347.0 0
378017.0 529215.0 0
382011.0 529036.0 0
386007.0 528921.0 0
390006.0 528882.0 0
394005.0 528890.0 0
398005.0 528913.0 0
102000.0 532913.0 0
106000.0 532890.0 0
110000.0 532878.0 0
114000.0 533003.0 0
118002.0 533150.0 0
122003.0 533300.0 0
126005.0 533394.0 0
130010.0 533433.0 0
134010.0 533457.0 0
137988.0 533044.0 0
141987.0 533047.0 0
145985.0 533092.0 0
149982.0 533028.0 0
153979.0 533065.0 0
157974.0 533169.0 0
161969.0 533278.0 0
165964.0 533350.0 0
169958.0 533376.0 0
173952.0 533397.0 0
177946.0 533415.0 0
181940.0 533392.0 0
185934.0 533363.0 0
189928.0 533293.0 0
193922.0 533251.0 0
197917.0 533161.0 0
201912.0 533188.0 0
205903.0 533033.0 0
209889.0 533208.0 0
213850.0 532735.0 0
217711.0 533729.0 0
221651.0 533118.0 0
225895.0 533268.0 0
229996.0 532762.0 0
233974.0 533178.0 0
237962.0 532856.0 0
241983.0 533225.0 0
245976.0 533003.0 0
249998.0 533324.0 0
253994.0 533057.0 0
257996.0 533075.0 0
261995.0 533008.0 0
265995.0 533047.0 0
269994.0 532987.0 0
273998.0 533046.0 0
277995.0 532905.0 0
282000.0 532951.0 0
285997.0 532816.0 0
289995.0 532953.0 0
293995.0 532962.0 0
297993.0 533076.0 0
301993.0 533104.0 0
305991.0 533195.0 0
309991.0 533255.0 0
313990.0 533307.0 0
317993.0 533272.0 0
321996.0 533264.0 0
325996.0 533267.0 0
329997.0 533278.0 0
333998.0 533247.0 0
338000.0 533184.0 0
341999.0 533145.0 0
345999.0 533104.0 0
349999.0 533079.0 0
353998.0 533102.0 0
357998.0 533104.0 0
361991.0 533326.0 0
365990.0 533312.0 0
369994.0 533359.0 0
373998.0 533335.0 0
377999.0 533208.0 0
382000.0 533030.0 0
386000.0 532920.0 0
390000.0 532882.0 0
394000.0 532890.0 0
398000.0 532913.0 0
102000.0 536913.0 0
106000.0 536890.0 0
110000.0 536878.0 0
114000.0 536996.0 0
118000.0 537140.0 0
121998.0 537289.0 0
125997.0 537381.0 0
129997.0 537400.0 0
133997.0 537408.0 0
138000.0 537043.0 0
142000.0 537046.0 0
146000.0 537091.0 0
150000.0 537028.0 0
154000.0 537064.0 0
158001.0 537161.0 0
162003.0 537268.0 0
166005.0 537336.0 0
170006.0 537360.0 0
174008.0 537375.0 0
178010.0 537390.0 0
182013.0 537365.0 0
186014.0 537336.0 0
190018.0 537264.0 0
194018.0 537224.0 0
198019.0 537131.0 0
202019.0 537167.0 0
206020.0 537009.0 0
210022.0 537190.0 0
214000.0 536772.0 0
218189.0 537675.0 0
222136.0 537045.0 0
226122.0 537257.0 0
230084.0 536761.0 0
234058.0 537172.0 0
238040.0 536844.0 0
242019.0 537223.0 0
246011.0 536989.0 0
250000.0 537322.0 0
254000.0 537052.0 0
258000.0 537074.0 0
262001.0 537001.0 0
266000.0 537045.0 0
270001.0 536979.0 0
274000.0 537045.0 0
278000.0 536893.0 0
282000.0 536951.0 0
286000.0 536812.0 0
290000.0 536950.0 0
294000.0 536955.0 0
298001.0 537070.0 0
302001.0 537093.0 0
306002.0 537184.0 0
310002.0 537242.0 0
314001.0 537295.0 0
318001.0 537265.0 0
322001.0 537256.0 0
326001.0 537257.0 0
330001.0 537269.0 0
334001.0 537240.0 0
338000.0 537183.0 0
342000.0 537144.0 0
346000.0 537104.0 0
350000.0 537079.0 0
354000.0 537102.0 0
358000.0 537103.0 0
362002.0 537291.0 0
366002.0 537257.0 0
370001.0 537333.0 0
374001.0 537326.0 0
378000.0 537202.0 0
382000.0 537024.0 0
386000.0 536919.0 0
390000.0 536882.0 0
394000.0 536890.0 0
398000.0 536913.0 0
102000.0 540913.0 0
106000.0 540890.0 0
110000.0 540877.0 0
114000.0 540989.0 0
118000.0 541132.0 0
122000.0 541279.0 0
126000.0 541370.0 0
130001.0 541374.0 0
134001.0 541364.0 0
138000.0 541042.0 0
142000.0 541045.0 0
146000.0 541090.0 0
150000.0 541028.0 0
154000.0 541063.0 0
158000.0 541154.0 0
162000.0 541259.0 0
165999.0 541324.0 0
169999.0 541346.0 0
173999.0 541357.0 0
177999.0 541369.0 0
181998.0 541342.0 0
185998.0 541313.0 0
189997.0 541239.0 0
193996.0 541200.0 0
197993.0 541106.0 0
201992.0 541149.0 0
205988.0 540989.0 0
209982.0 541176.0 0
213959.0 540771.0 0
217862.0 541639.0 0
221952.0 541007.0 0
225985.0 541250.0 0
230000.0 540770.0 0
233998.0 541165.0 0
237998.0 540833.0 0
242000.0 541221.0 0
245999.0 540976.0 0
250000.0 541320.0 0
254000.0 541047.0 0
258000.0 541073.0 0
262000.0 540994.0 0
266000.0 541043.0 0
270000.0 540971.0 0
274000.0 541043.0 0
278000.0 540881.0 0
282000.0 540951.0 0
286000.0 540809.0 0
290000.0 540948.0 0
294000.0 540948.0 0
298000.0 541063.0 0
302000.0 541083.0 0
306000.0 541174.0 0
309999.0 541228.0 0
314000.0 541282.0 0
318000.0 541258.0 0
322000.0 541250.0 0
326000.0 541249.0 0
330000.0 541261.0 0
334000.0 541234.0 0
338000.0 541183.0 0
342000.0 541144.0 0
346000.0 541104.0 0
350000.0 541079.0 0
354000.0 541102.0 0
358000.0 541102.0 0
362000.0 541258.0 0
366000.0 541212.0 0
370000.0 541312.0 0
374000.0 541318.0 0
378000.0 541196.0 0
382000.0 541019.0 0
386000.0 540918.0 0
390000.0 540882.0 0
394000.0 540890.0 0
398000.0 540913.0 0
102000.0 544913.0 0
106000.0 544890.0 0
110000.0 544877.0 0
114000.0 544983.0 0
118000.0 545123.0 0
122000.0 545270.0 0
126000.0 545359.0 0
130000.0 545352.0 0
134000.0 545325.0 0
138000.0 545041.0 0
142000.0 545044.0 0
146000.0 545090.0 0
150000.0 545028.0 0
154000.0 545061.0 0
158000.0 545147.0 0
162000.0 545250.0 0
166000.0 545313.0 0
170000.0 545334.0 0
174000.0 545340.0 0
178000.0 545350.0 0
182000.0 545322.0 0
186000.0 545293.0 0
190000.0 545218.0 0
194000.0 545180.0 0
198000.0 545084.0 0
202000.0 545135.0 0
206001.0 544973.0 0
210001.0 545163.0 0
214000.0 544777.0 0
222017.0 544980.0 0
226007.0 545245.0 0
230000.0 544770.0 0
234000.0 545159.0 0
238000.0 544823.0 0
242000.0 545220.0 0
246000.0 544964.0 0
250000.0 545319.0 0
254000.0 545042.0 0
258000.0 545071.0 0
262000.0 544987.0 0
266000.0 545041.0 0
270000.0 544963.0 0
274000.0 545040.0 0
278000.0 544869.0 0
282000.0 544950.0 0
286000.0 544806.0 0
290000.0 544945.0 0
294000.0 544941.0 0
298000.0 545057.0 0
302000.0 545073.0 0
306000.0 545164.0 0
310000.0 545216.0 0
314000.0 545271.0 0
318000.0 545251.0 0
322000.0 545244.0 0
326000.0 545242.0 0
330000.0 545255.0 0
334000.0 545229.0 0
338000.0 545182.0 0
342000.0 545144.0 0
346000.0 545103.0 0
350000.0 545078.0 0
354000.0 545101.0 0
358000.0 545101.0 0
362000.0 545228.0 0
366000.0 545176.0 0
370000.0 545297.0 0
374000.0 545312.0 0
378000.0 545191.0 0
382000.0 545014.0 0
386000.0 544917.0 0
390000.0 544882.0 0
394000.0 544890.0 0
398000.0 544913.0 0
218068.0 545613.0 0
102000.0 548913.0 0
106000.0 548890.0 0
110000.0 548877.0 0
114000.0 548978.0 0
118000.0 549116.0 0
122000.0 549261.0 0
126000.0 549349.0 0
130000.0 549335.0 0
134000.0 549292.0 0
138000.0 549040.0 0
142000.0 549044.0 0
146000.0 549089.0 0
150000.0 549028.0 0
154000.0 549060.0 0
158000.0 549141.0 0
162000.0 549242.0 0
166000.0 549303.0 0
170000.0 549323.0 0
174000.0 549327.0 0
178000.0 549335.0 0
182000.0 549305.0 0
186000.0 549276.0 0
190000.0 549200.0 0
194000.0 549164.0 0
198000.0 549067.0 0
202000.0 549123.0 0
206000.0 548960.0 0
210000.0 549153.0 0
214000.0 548777.0 0
217981.0 549593.0 0
221999.0 548960.0 0
226000.0 549239.0 0
230000.0 548770.0 0
234000.0 549154.0 0
238000.0 548814.0 0
242000.0 549219.0 0
246000.0 548953.0 0
250000.0 549318.0 0
254000.0 549038.0 0
258000.0 549070.0 0
262000.0 548981.0 0
266000.0 549038.0 0
270000.0 548956.0 0
274000.0 549038.0 0
278000.0 548859.0 0
282000.0 548950.0 0
286000.0 548803.0 0
290000.0 548942.0 0
294000.0 548935.0 0
298000.0 549051.0 0
302000.0 549064.0 0
306000.0 549155.0 0
310000.0 549204.0 0
314000.0 549261.0 0
318000.0 549244.0 0
322000.0 549239.0 0
326000.0 549236.0 0
330000.0 549250.0 0
334000.0 549224.0 0
338000.0 549182.0 0
342000.0 549143.0 0
346000.0 549103.0 0
350000.0 549078.0 0
354000.0 549101.0 0
358000.0 549100.0 0
362000.0 549203.0 0
366000.0 549147.0 0
370000.0 549285.0 0
374000.0 549307.0 0
378000.0 549187.0 0
382000.0 549010.0 0
386000.0 548917.0 0
390000.0 548882.0 0
394000.0 548890.0 0
398000.0 548913.0 0
102000.0 552913.0 0
106000.0 552890.0 0
110000.0 552877.0 0
114000.0 552974.0 0
118000.0 553110.0 0
122000.0 553254.0 0
134000.0 553265.0 0
138000.0 553039.0 0
142000.0 553043.0 0
146000.0 553088.0 0
150000.0 553028.0 0
154000.0 553059.0 0
158000.0 553136.0 0
162000.0 553235.0 0
166000.0 553295.0 0
182000.0 553291.0 0
186000.0 553262.0 0
190000.0 553185.0 0
194000.0 553150.0 0
198000.0 553052.0 0
202000.0 553113.0 0
206000.0 552950.0 0
210000.0 553144.0 0
214000.0 552777.0 0
222000.0 552943.0 0
226000.0 553235.0 0
230000.0 552770.0 0
234000.0 553150.0 0
238000.0 552806.0 0
242000.0 553218.0 0
246000.0 552944.0 0
254000.0 553035.0 0
258000.0 553068.0 0
262000.0 552976.0 0
266000.0 553036.0 0
270000.0 552949.0 0
274000.0 553036.0 0
278000.0 552849.0 0
282000.0 552950.0 0
286000.0 552801.0 0
290000.0 552940.0 0
294000.0 552929.0 0
298000.0 553046.0 0
302000.0 553056.0 0
306000.0 553147.0 0
310000.0 553194.0 0
314000.0 553252.0 0
318000.0 553238.0 0
322000.0 553235.0 0
326000.0 553232.0 0
330000.0 553246.0 0
334000.0 553221.0 0
338000.0 553181.0 0
342000.0 553143.0 0
346000.0 553103.0 0
350000.0 553077.0 0
354000.0 553101.0 0
358000.0 553098.0 0
362000.0 553181.0 0
366000.0 553124.0 0
378000.0 553183.0 0
382000.0 553007.0 0
386000.0 552916.0 0
390000.0 552882.0 0
394000.0 552890.0 0
398000.0 552913.0 0
126000.0 553341.0 0
130000.0 553320.0 0
170000.0 553314.0 0
174000.0 553315.0 0
178000.0 553322.0 0
218003.0 553577.0 0
250000.0 553317.0 0
370000.0 553277.0 0
374000.0 553302.0 0
102000.0 556913.0 0
106000.0 556890.0 0
110000.0 556876.0 0
114000.0 556970.0 0
118000.0 557105.0 0
122000.0 557249.0 0
126000.0 557334.0 0
130000.0 557308.0 0
134000.0 557243.0 0
138000.0 557039.0 0
142000.0 557042.0 0
146000.0 557088.0 0
150000.0 557028.0 0
154000.0 557057.0 0
158000.0 557132.0 0
162000.0 557229.0 0
166000.0 557288.0 0
170000.0 557306.0 0
174000.0 557306.0 0
178000.0 557312.0 0
182000.0 557280.0 0
186000.0 557251.0 0
190000.0 557173.0 0
194000.0 557140.0 0
198000.0 557041.0 0
202000.0 557105.0 0
206000.0 556942.0 0
210000.0 557138.0 0
214000.0 556777.0 0
218000.0 557564.0 0
222000.0 556931.0 0
226000.0 557230.0 0
230000.0 556770.0 0
234000.0 557147.0 0
238000.0 556800.0 0
242000.0 557217.0 0
246000.0 556936.0 0
250000.0 557316.0 0
254000.0 557033.0 0
258000.0 557067.0 0
262000.0 556971.0 0
266000.0 557034.0 0
270000.0 556943.0 0
274000.0 557034.0 0
278000.0 556842.0 0
282000.0 556950.0 0
286000.0 556799.0 0
290000.0 556938.0 0
294000.0 556925.0 0
298000.0 557042.0 0
302000.0 557050.0 0
306000.0 557140.0 0
310000.0 557186.0 0
314000.0 557244.0 0
318000.0 557232.0 0
322000.0 557231.0 0
326000.0 557228.0 0
330000.0 557243.0 0
334000.0 557217.0 0
338000.0 557181.0 0
342000.0 557143.0 0
346000.0 557103.0 0
350000.0 557077.0 0
354000.0 557101.0 0
358000.0 557097.0 0
362000.0 557163.0 0
366000.0 557107.0 0
370000.0 557270.0 0
374000.0 557299.0 0
378000.0 557180.0 0
382000.0 557004.0 0
386000.0 556915.0 0
390000.0 556882.0 0
394000.0 556890.0 0
398000.0 556913.0 0
102000.0 560913.0 0
106000.0 560890.0 0
110000.0 560876.0 0
114000.0 560968.0 0
138000.0 561038.0 0
142000.0 561042.0 0
150000.0 561028.0 0
198000.0 561033.0 0
206000.0 560937.0 0
214000.0 560777.0 0
222000.0 560922.0 0
230000.0 560770.0 0
238000.0 560795.0 0
246000.0 560931.0 0
254000.0 561031.0 0
262000.0 560968.0 0
266000.0 561032.0 0
270000.0 560939.0 0
274000.0 561032.0 0
278000.0 560836.0 0
282000.0 560950.0 0
286000.0 560798.0 0
290000.0 560937.0 0
294000.0 560921.0 0
298000.0 561038.0 0
302000.0 561045.0 0
362000.0 561149.0 0
366000.0 561094.0 0
382000.0 561002.0 0
386000.0 560915.0 0
390000.0 560882.0 0
394000.0 560890.0 0
398000.0 560913.0 0
118000.0 561101.0 0
122000.0 561244.0 0
126000.0 561329.0 0
130000.0 561299.0 0
134000.0 561226.0 0
146000.0 561088.0 0
154000.0 561056.0 0
158000.0 561129.0 0
162000.0 561225.0 0
166000.0 561282.0 0
170000.0 561301.0 0
174000.0 561300.0 0
178000.0 561305.0 0
182000.0 561272.0 0
186000.0 561243.0 0
190000.0 561165.0 0
194000.0 561132.0 0
202000.0 561100.0 0
210000.0 561133.0 0
218000.0 561555.0 0
226000.0 561227.0 0
234000.0 561144.0 0
242000.0 561216.0 0
250000.0 561315.0 0
258000.0 561066.0 0
306000.0 561135.0 0
310000.0 561179.0 0
314000.0 561239.0 0
318000.0 561228.0 0
322000.0 561228.0 0
326000.0 561225.0 0
330000.0 561240.0 0
334000.0 561215.0 0
338000.0 561180.0 0
342000.0 561142.0 0
346000.0 561103.0 0
350000.0 561077.0 0
354000.0 561101.0 0
358000.0 561096.0 0
370000.0 561266.0 0
374000.0 561296.0 0
378000.0 561178.0 0
102000.0 564913.0 0
106000.0 564890.0 0
110000.0 564876.0 0
114000.0 564966.0 0
118000.0 565098.0 0
122000.0 565241.0 0
126000.0 565326.0 0
130000.0 565293.0 0
134000.0 565215.0 0
138000.0 565037.0 0
142000.0 565041.0 0
146000.0 565087.0 0
150000.0 565027.0 0
154000.0 565056.0 0
158000.0 565127.0 0
162000.0 565222.0 0
166000.0 565279.0 0
170000.0 565297.0 0
174000.0 565295.0 0
178000.0 565300.0 0
182000.0 565266.0 0
186000.0 565238.0 0
190000.0 565159.0 0
194000.0 565127.0 0
198000.0 565027.0 0
202000.0 565096.0 0
206000.0 564933.0 0
210000.0 565130.0 0
214000.0 564777.0 0
218000.0 565548.0 0
222000.0 564916.0 0
226000.0 565225.0 0
230000.0 564770.0 0
234000.0 565142.0 0
238000.0 564792.0 0
242000.0 565216.0 0
246000.0 564927.0 0
250000.0 565315.0 0
254000.0 565029.0 0
258000.0 565066.0 0
262000.0 564965.0 0
266000.0 565031.0 0
270000.0 564936.0 0
274000.0 565031.0 0
278000.0 564832.0 0
282000.0 564950.0 0
286000.0 564797.0 0
290000.0 564936.0 0
294000.0 564919.0 0
298000.0 565036.0 0
302000.0 565041.0 0
306000.0 565131.0 0
310000.0 565175.0 0
314000.0 565235.0 0
318000.0 565226.0 0
322000.0 565226.0 0
326000.0 565223.0 0
330000.0 565238.0 0
334000.0 565213.0 0
338000.0 565180.0 0
342000.0 565142.0 0
346000.0 565102.0 0
350000.0 565076.0 0
354000.0 565101.0 0
358000.0 565096.0 0
362000.0 565140.0 0
366000.0 565086.0 0
370000.0 565263.0 0
374000.0 565295.0 0
378000.0 565177.0 0
382000.0 565001.0 0
386000.0 564915.0 0
390000.0 564882.0 0
394000.0 564890.0 0
398000.0 564913.0 0
214000.0 568777.0 0
222000.0 568913.0 0
230000.0 568770.0 0
238000.0 568791.0 0
246000.0 568925.0 0
278000.0 568830.0 0
286000.0 568796.0 0
102000.0 568913.0 0
106000.0 568890.0 0
110000.0 568876.0 0
114000.0 568965.0 0
118000.0 569097.0 0
122000.0 569240.0 0
126000.0 569324.0 0
130000.0 569290.0 0
134000.0 569210.0 0
138000.0 569037.0 0
142000.0 569041.0 0
146000.0 569087.0 0
150000.0 569027.0 0
154000.0 569055.0 0
158000.0 569126.0 0
162000.0 569221.0 0
166000.0 569277.0 0
170000.0 569295.0 0
174000.0 569293.0 0
178000.0 569297.0 0
182000.0 569264.0 0
186000.0 569235.0 0
190000.0 569156.0 0
194000.0 569124.0 0
198000.0 569025.0 0
202000.0 569094.0 0
206000.0 568931.0 0
210000.0 569128.0 0
218000.0 569545.0 0
226000.0 569224.0 0
234000.0 569141.0 0
242000.0 569216.0 0
250000.0 569315.0 0
254000.0 569029.0 0
258000.0 569065.0 0
262000.0 568964.0 0
266000.0 569030.0 0
270000.0 568934.0 0
274000.0 569031.0 0
282000.0 568950.0 0
290000.0 568935.0 0
294000.0 568917.0 0
298000.0 569035.0 0
302000.0 569039.0 0
306000.0 569129.0 0
310000.0 569172.0 0
314000.0 569233.0 0
318000.0 569224.0 0
322000.0 569225.0 0
326000.0 569222.0 0
330000.0 569237.0 0
334000.0 569212.0 0
338000.0 569180.0 0
342000.0 569142.0 0
346000.0 569102.0 0
350000.0 569076.0 0
354000.0 569101.0 0
358000.0 569095.0 0
362000.0 569135.0 0
366000.0 569082.0 0
370000.0 569261.0 0
374000.0 569294.0 0
378000.0 569176.0 0
382000.0 569000.0 0
386000.0 568915.0 0
390000.0 568882.0 0
394000.0 568890.0 0
398000.0 568913.0 0
POINT_DATA 4650
SCALARS Radius float 1
LOOKUP_TABLE default
4000.0 4000.0 4000.0 4000.0 4000.0 4000.0 4000.0 4000.0 4000.0 4000.0 4000.0 4000.0 4000.0 4000.0 4000.0 4000.0 4000.0 4000.0 4000.0 4000.0 4000.0 4000.0 4000.0 4000.0 4000.0 4000.0 4000.0 4000.0 4000.0 4000.0 4000.0 4000.0 4000.0 4000.0 4000.0 4000.0 4000.0 4000.0 4000.0 4000.0 4000.0 4000.0 4000.0 4000.0 4000.0 4000.0 4000.0 4000.0 4000.0 4000.0 4000.0 4000.0 4000.0 4000.0 4000.0 4000.0 4000.0 4000.0 4000.0 4000.0 4000.0 4000.0 4000.0 4000.0 4000.0 4000.0 4000.0 4000.0 4000.0 4000.0 4000.0 4000.0 4000.0 4000.0 4000.0 4000.0 4000.0 4000.0 4000.0 4000.0 4000.0 4000.0 4000.0 4000.0 4000.0 4000.0 4000.0 4000.0 4000.0 4000.0 4000.0 4000.0 4000.0 4000.0 4000.0 4000.0 4000.0 4000.0 4000.0 4000.0 4000.0 4000.0 4000.0 4000.0 4000.0 4000.0 4000.0 4000.0 4000.0 4000.0 4000.0 4000.0 4000.0 4000.0 4000.0 4000.0 4000.0 4000.0 4000.0 4000.0 4000.0 4000.0 4000.0 4000.0 4000.0 4000.0 4000.0 4000.0 4000.0 4000.0 4000.0 4000.0 4000.0 4000.0 4000.0 4000.0 4000.0 4000.0 4000.0 4000.0 4000.0 4000.0 4000.0 4000.0 4000.0 4000.0 4000.0 4000.0 4000.0 4000.0 4000.0 4000.0 4000.0 4000.0 4000.0 4000.0 4000.0 4000.0 4000.0 4000.0 4000.0 4000.0 4000.0 4000.0 4000.0 4000.0 4000.0 4000.0 4000.0 4000.0 4000.0 4000.0 4000.0 4000.0 4000.0 4000.0 4000.0 4000.0 4000.0 4000.0 4000.0 4000.0 4000.0 4000.0 4000.0 4000.0 4000.0 4000.0 4000.0 4000.0 4000.0 4000.0 4000.0 4000.0 4000.0 4000.0 4000.0 4000.0 4000.0 4000.0 4000.0 4000.0 4000.0 4000.0 4000.0 4000.0 4000.0 4000.0 4000.0 4000.0 4000.0 4000.0 4000.0 4000.0 4000.0 4000.0 4000.0 4000.0 4000.0 4000.0 4000.0 4000.0 4000.0 4000.0 4000.0 4000.0 4000.0 4000.0 4000.0 4000.0 4000.0 4000.0 4000.0 4000.0 4000.0 4000.0 4000.0 4000.0 4000.0 4000.0 4000.0 4000.0 4000.0 4000.0 4000.0 4000.0 4000.0 4000.0 4000.0 4000.0 4000.0 4000.0 4000.0 4000.0 4000.0 4000.0 4000.0 4000.0 4000.0 4000.0 4000.0 4000.0 4000.0 4000.0 4000.0 4000.0 4000.0 4000.0 4000.0 4000.0 4000.0 4000.0 4000.0 4000.0 4000.0 4000.0 4000.0 4000.0 4000.0 4000.0 4000.0 4000.0 4000.0 4000.0 4000.0 4000.0 4000.0 4000.0 4000.0 4000.0 4000.0 4000.0 4000.0 4000.0 4000.0 4000.0 4000.0 4000.0 4000.0 4000.0 4000.0 4000.0 4000.0 4000.0 4000.0 4000.0 4000.0 4000.0 4000.0 4000.0 4000.0 4000.0 4000.0 4000.0 4000.0 4000.0 4000.0 4000.0 4000.0 4000.0 4000.0 4000.0 4000.0 4000.0 4000.0 4000.0 4000.0 4000.0 4000.0 4000.0 4000.0 4000.0 4000.0 4000.0 4000.0 4000.0 4000.0 4000.0 4000.0 4000.0 4000.0 4000.0 4000.0 4000.0 4000.0 4000.0 4000.0 4000.0 4000.0 4000.0 4000.0 4000.0 4000.0 4000.0 4000.0 4000.0 4000.0 4000.0 4000.0 4000.0 4000.0 4000.0 4000.0 4000.0 4000.0 4000.0 4000.0 4000.0 4000.0 4000.0 4000.0 4000.0 4000.0 4000.0 4000.0 4000.0 4000.0 4000.0 4000.0 4000.0 4000.0 4000.0 4000.0 4000.0 4000.0 4000.0 4000.0 4000.0 4000.0 4000.0 4000.0 4000.0 4000.0 4000.0 4000.0 4000.0 4000.0 4000.0 4000.0 4000.0 4000.0 4000.0 4000.0 4000.0 4000.0 4000.0 4000.0 4000.0 4000.0 4000.0 4000.0 4000.0 4000.0 4000.0 4000.0 4000.0 4000.0 4000.0 4000.0 4000.0 4000.0 4000.0 4000.0 4000.0 4000.0 4000.0 4000.0 4000.0 4000.0 4000.0 4000.0 4000.0 4000.0 4000.0 4000.0 4000.0 4000.0 4000.0 4000.0 4000.0 4000.0 4000.0 4000.0 4000.0 4000.0 4000.0 4000.0 4000.0 4000.0 4000.0 4000.0 4000.0 4000.0 4000.0 4000.0 4000.0 4000.0 4000.0 4000.0 4000.0 4000.0 4000.0 4000.0 4000.0 4000.0 4000.0 4000.0 4000.0 4000.0 4000.0 4000.0 4000.0 4000.0 4000.0 4000.0 4000.0 4000.0 4000.0 4000.0 4000.0 4000.0 4000.0 4000.0 4000.0 4000.0 4000.0 4000.0 4000.0 4000.0 4000.0 4000.0 4000.0 4000.0 4000.0 4000.0 4000.0 4000.0 4000.0 4000.0 4000.0 4000.0 4000.0 4000.0 4000.0 4000.0 4000.0 4000.0 4000.0 4000.0 4000.0 4000.0 4000.0 4000.0 4000.0 4000.0 4000.0 4000.0 4000.0 4000.0 4000.0 4000.0 4000.0 4000.0 4000.0 4000.0 4000.0 4000.0 4000.0 4000.0 4000.0 4000.0 4000.0 4000.0 4000.0 4000.0 4000.0 4000.0 4000.0 4000.0 4000.0 4000.0 4000.0 4000.0 4000.0 4000.0 4000.0 4000.0 4000.0 4000.0 4000.0 4000.0 4000.0 4000.0 4000.0 4000.0 4000.0 4000.0 4000.0 4000.0 4000.0 4000.0 4000.0 4000.0 4000.0 4000.0 4000.0 4000.0 4000.0 4000.0 4000.0 4000.0 4000.0 4000.0 4000.0 4000.0 4000.0 4000.0 4000.0 4000.0 4000.0 4000.0 4000.0 4000.0 4000.0 4000.0 4000.0 4000.0 4000.0 4000.0 4000.0 4000.0 4000.0 4000.0 4000.0 4000.0 4000.0 4000.0 4000.0 4000.0 4000.0 4000.0 4000.0 4000.0 4000.0 4000.0 4000.0 4000.0 4000.0 4000.0 4000.0 4000.0 4000.0 4000.0 4000.0 4000.0 4000.0 4000.0 4000.0 4000.0 4000.0 4000.0 4000.0 4000.0 4000.0 4000.0 4000.0 4000.0 4000.0 4000.0 4000.0 4000.0 4000.0 4000.0 4000.0 4000.0 4000.0 4000.0 4000.0 4000.0 4000.0 4000.0 4000.0 4000.0 4000.0 4000.0 4000.0 4000.0 4000.0 4000.0 4000.0 4000.0 4000.0 4000.0 4000.0 4000.0 4000.0 4000.0 4000.0 4000.0 4000.0 4000.0 4000.0 4000.0 4000.0 4000.0 4000.0 4000.0 4000.0 4000.0 4000.0 4000.0 4000.0 4000.0 4000.0 4000.0 4000.0 4000.0 4000.0 4000.0 4000.0 4000.0 4000.0 4000.0 4000.0 4000.0 4000.0 4000.0 4000.0 4000.0 4000.0 4000.0 4000.0 4000.0 4000.0 4000.0 4000.0 4000.0 4000.0 4000.0 4000.0 4000.0 4000.0 4000.0 4000.0 4000.0 4000.0 4000.0 4000.0 4000.0 4000.0 4000.0 4000.0 4000.0 4000.0 4000.0 4000.0 4000.0 4000.0 4000.0 4000.0 4000.0 4000.0 4000.0 4000.0 4000.0 4000.0 4000.0 4000.0 4000.0 4000.0 4000.0 4000.0 4000.0 4000.0 4000.0 4000.0 4000.0 4000.0 4000.0 4000.0 4000.0 4000.0 4000.0 4000.0 4000.0 4000.0 4000.0 4000.0 4000.0 4000.0 4000.0 4000.0 4000.0 4000.0 4000.0 4000.0 4000.0 4000.0 4000.0 4000.0 4000.0 4000.0 4000.0 4000.0 4000.0 4000.0 4000.0 4000.0 4000.0 4000.0 4000.0 4000.0 4000.0 4000.0 4000.0 4000.0 4000.0 4000.0 4000.0 4000.0 4000.0 4000.0 4000.0 4000.0 4000.0 4000.0 4000.0 4000.0 4000.0 4000.0 4000.0 4000.0 4000.0 4000.0 4000.0 4000.0 4000.0 4000.0 4000.0 4000.0 4000.0 4000.0 4000.0 4000.0 4000.0 4000.0 4000.0 4000.0 4000.0 4000.0 4000.0 4000.0 4000.0 4000.0 4000.0 4000.0 4000.0 4000.0 4000.0 4000.0 4000.0 4000.0 4000.0 4000.0 4000.0 4000.0 4000.0 4000.0 4000.0 4000.0 4000.0 4000.0 4000.0 4000.0 4000.0 4000.0 4000.0 4000.0 4000.0 4000.0 4000.0 4000.0 4000.0 4000.0 4000.0 4000.0 4000.0 4000.0 4000.0 4000.0 4000.0 4000.0 4000.0 4000.0 4000.0 4000.0 4000.0 4000.0 4000.0 4000.0 4000.0 4000.0 4000.0 4000.0 4000.0 4000.0 4000.0 4000.0 4000.0 4000.0 4000.0 4000.0 4000.0 4000.0 4000.0 4000.0 4000.0 4000.0 4000.0 4000.0 4000.0 4000.0 4000.0 4000.0 4000.0 4000.0 4000.0 4000.0 4000.0 4000.0 4000.0 4000.0 4000.0 4000.0 4000.0 4000.0 4000.0 4000.0 4000.0 4000.0 4000.0 4000.0 4000.0 4000.0 4000.0 4000.0 4000.0 4000.0 4000.0 4000.0 4000.0 4000.0 4000.0 4000.0 4000.0 4000.0 4000.0 4000.0 4000.0 4000.0 4000.0 4000.0 4000.0 4000.0 4000.0 4000.0 4000.0 4000.0 4000.0 4000.0 4000.0 4000.0 4000.0 4000.0 4000.0 4000.0 4000.0 4000.0 4000.0 4000.0 4000.0 4000.0 4000.0 4000.0 4000.0 4000.0 4000.0 4000.0 4000.0 4000.0 4000.0 4000.0 4000.0 4000.0 4000.0 4000.0 4000.0 4000.0 4000.0 4000.0 4000.0 4000.0 4000.0 4000.0 4000.0 4000.0 4000.0 4000.0 4000.0 4000.0 4000.0 4000.0 4000.0 4000.0 4000.0 4000.0 4000.0 4000.0 4000.0 4000.0 4000.0 4000.0 4000.0 4000.0 4000.0 4000.0 4000.0 4000.0 4000.0 4000.0 4000.0 4000.0 4000.0 4000.0 4000.0 4000.0 4000.0 4000.0 4000.0 4000.0 4000.0 4000.0 4000.0 4000.0 4000.0 4000.0 4000.0 4000.0 4000.0 4000.0 4000.0 4000.0 4000.0 4000.0 4000.0 4000.0 4000.0 4000.0 4000.0 4000.0 4000.0 4000.0 4000.0 4000.0 4000.0 4000.0 4000.0 4000.0 4000.0 4000.0 4000.0 4000.0 4000.0 4000.0 4000.0 4000.0 4000.0 4000.0 4000.0 4000.0 4000.0 4000.0 4000.0 4000.0 4000.0 4000.0 4000.0 4000.0 4000.0 4000.0 4000.0 4000.0 4000.0 4000.0 4000.0 4000.0 4000.0 4000.0 4000.0 4000.0 4000.0 4000.0 4000.0 4000.0 4000.0 4000.0 4000.0 4000.0 4000.0 4000.0 4000.0 4000.0 4000.0 4000.0 4000.0 4000.0 4000.0 4000.0 4000.0 4000.0 4000.0 4000.0 4000.0 4000.0 4000.0 4000.0 4000.0 4000.0 4000.0 4000.0 4000.0 4000.0 4000.0 4000.0 4000.0 4000.0 4000.0 4000.0 4000.0 4000.0 4000.0 4000.0 4000.0 4000.0 4000.0 4000.0 4000.0 4000.0 4000.0 4000.0 4000.0 4000.0 4000.0 4000.0 4000.0 4000.0 4000.0 4000.0 4000.0 4000.0 4000.0 4000.0 4000.0 4000.0 4000.0 4000.0 4000.0 4000.0 4000.0 4000.0 4000.0 4000.0 4000.0 4000.0 4000.0 4000.0 4000.0 4000.0 4000.0 4000.0 4000.0 4000.0 4000.0 4000.0 4000.0 4000.0 4000.0 4000.0 4000.0 4000.0 4000.0 4000.0 4000.0 4000.0 4000.0 4000.0 4000.0 4000.0 4000.0 4000.0 4000.0 4000.0 4000.0 4000.0 4000.0 4000.0 4000.0 4000.0 4000.0 4000.0 4000.0 4000.0 4000.0 4000.0 4000.0 4000.0 4000.0 4000.0 4000.0 4000.0 4000.0 4000.0 4000.0 4000.0 4000.0 4000.0 4000.0 4000.0 4000.0 4000.0 4000.0 4000.0 4000.0 4000.0 4000.0 4000.0 4000.0 4000.0 4000.0 4000.0 4000.0 4000.0 4000.0 4000.0 4000.0 4000.0 4000.0 4000.0 4000.0 4000.0 4000.0 4000.0 4000.0 4000.0 4000.0 4000.0 4000.0 4000.0 4000.0 4000.0 4000.0 4000.0 4000.0 4000.0 4000.0 4000.0 4000.0 4000.0 4000.0 4000.0 4000.0 4000.0 4000.0 4000.0 4000.0 4000.0 4000.0 4000.0 4000.0 4000.0 4000.0 4000.0 4000.0 4000.0 4000.0 4000.0 4000.0 4000.0 4000.0 4000.0 4000.0 4000.0 4000.0 4000.0 4000.0 4000.0 4000.0 4000.0 4000.0 4000.0 4000.0 4000.0 4000.0 4000.0 4000.0 4000.0 4000.0 4000.0 4000.0 4000.0 4000.0 4000.0 4000.0 4000.0 4000.0 4000.0 4000.0 4000.0 4000.0 4000.0 4000.0 4000.0 4000.0 4000.0 4000.0 4000.0 4000.0 4000.0 4000.0 4000.0 4000.0 4000.0 4000.0 4000.0 4000.0 4000.0 4000.0 4000.0 4000.0 4000.0 4000.0 4000.0 4000.0 4000.0 4000.0 4000.0 4000.0 4000.0 4000.0 4000.0 4000.0 4000.0 4000.0 4000.0 4000.0 4000.0 4000.0 4000.0 4000.0 4000.0 4000.0 4000.0 4000.0 4000.0 4000.0 4000.0 4000.0 4000.0 4000.0 4000.0 4000.0 4000.0 4000.0 4000.0 4000.0 4000.0 4000.0 4000.0 4000.0 4000.0 4000.0 4000.0 4000.0 4000.0 4000.0 4000.0 4000.0 4000.0 4000.0 4000.0 4000.0 4000.0 4000.0 4000.0 4000.0 4000.0 4000.0 4000.0 4000.0 4000.0 4000.0 4000.0 4000.0 4000.0 4000.0 4000.0 4000.0 4000.0 4000.0 4000.0 4000.0 4000.0 4000.0 4000.0 4000.0 4000.0 4000.0 4000.0 4000.0 4000.0 4000.0 4000.0 4000.0 4000.0 4000.0 4000.0 4000.0 4000.0 4000.0 4000.0 4000.0 4000.0 4000.0 4000.0 4000.0 4000.0 4000.0 4000.0 4000.0 4000.0 4000.0 4000.0 4000.0 4000.0 4000.0 4000.0 4000.0 4000.0 4000.0 4000.0 4000.0 4000.0 4000.0 4000.0 4000.0 4000.0 4000.0 4000.0 4000.0 4000.0 4000.0 4000.0 4000.0 4000.0 4000.0 4000.0 4000.0 4000.0 4000.0 4000.0 4000.0 4000.0 4000.0 4000.0 4000.0 4000.0 4000.0 4000.0 4000.0 4000.0 4000.0 4000.0 4000.0 4000.0 4000.0 4000.0 4000.0 4000.0 4000.0 4000.0 4000.0 4000.0 4000.0 4000.0 4000.0 4000.0 4000.0 4000.0 4000.0 4000.0 4000.0 4000.0 4000.0 4000.0 4000.0 4000.0 4000.0 4000.0 4000.0 4000.0 4000.0 4000.0 4000.0 4000.0 4000.0 4000.0 4000.0 4000.0 4000.0 4000.0 4000.0 4000.0 4000.0 4000.0 4000.0 4000.0 4000.0 4000.0 4000.0 4000.0 4000.0 4000.0 4000.0 4000.0 4000.0 4000.0 4000.0 4000.0 4000.0 4000.0 4000.0 4000.0 4000.0 4000.0 4000.0 4000.0 4000.0 4000.0 4000.0 4000.0 4000.0 4000.0 4000.0 4000.0 4000.0 4000.0 4000.0 4000.0 4000.0 4000.0 4000.0 4000.0 4000.0 4000.0 4000.0 4000.0 4000.0 4000.0 4000.0 4000.0 4000.0 4000.0 4000.0 4000.0 4000.0 4000.0 4000.0 4000.0 4000.0 4000.0 4000.0 4000.0 4000.0 4000.0 4000.0 4000.0 4000.0 4000.0 4000.0 4000.0 4000.0 4000.0 4000.0 4000.0 4000.0 4000.0 4000.0 4000.0 4000.0 4000.0 4000.0 4000.0 4000.0 4000.0 4000.0 4000.0 4000.0 4000.0 4000.0 4000.0 4000.0 4000.0 4000.0 4000.0 4000.0 4000.0 4000.0 4000.0 4000.0 4000.0 4000.0 4000.0 4000.0 4000.0 4000.0 4000.0 4000.0 4000.0 4000.0 4000.0 4000.0 4000.0 4000.0 4000.0 4000.0 4000.0 4000.0 4000.0 4000.0 4000.0 4000.0 4000.0 4000.0 4000.0 4000.0 4000.0 4000.0 4000.0 4000.0 4000.0 4000.0 4000.0 4000.0 4000.0 4000.0 4000.0 4000.0 4000.0 4000.0 4000.0 4000.0 4000.0 4000.0 4000.0 4000.0 4000.0 4000.0 4000.0 4000.0 4000.0 4000.0 4000.0 4000.0 4000.0 4000.0 4000.0 4000.0 4000.0 4000.0 4000.0 4000.0 4000.0 4000.0 4000.0 4000.0 4000.0 4000.0 4000.0 4000.0 4000.0 4000.0 4000.0 4000.0 4000.0 4000.0 4000.0 4000.0 4000.0 4000.0 4000.0 4000.0 4000.0 4000.0 4000.0 4000.0 4000.0 4000.0 4000.0 4000.0 4000.0 4000.0 4000.0 4000.0 4000.0 4000.0 4000.0 4000.0 4000.0 4000.0 4000.0 4000.0 4000.0 4000.0 4000.0 4000.0 4000.0 4000.0 4000.0 4000.0 4000.0 4000.0 4000.0 4000.0 4000.0 4000.0 4000.0 4000.0 4000.0 4000.0 4000.0 4000.0 4000.0 4000.0 4000.0 4000.0 4000.0 4000.0 4000.0 4000.0 4000.0 4000.0 4000.0 4000.0 4000.0 4000.0 4000.0 4000.0 4000.0 4000.0 4000.0 4000.0 4000.0 4000.0 4000.0 4000.0 4000.0 4000.0 4000.0 4000.0 4000.0 4000.0 4000.0 4000.0 4000.0 4000.0 4000.0 4000.0 4000.0 4000.0 4000.0 4000.0 4000.0 4000.0 4000.0 4000.0 4000.0 4000.0 4000.0 4000.0 4000.0 4000.0 4000.0 4000.0 4000.0 4000.0 4000.0 4000.0 4000.0 4000.0 4000.0 4000.0 4000.0 4000.0 4000.0 4000.0 4000.0 4000.0 4000.0 4000.0 4000.0 4000.0 4000.0 4000.0 4000.0 4000.0 4000.0 4000.0 4000.0 4000.0 4000.0 4000.0 4000.0 4000.0 4000.0 4000.0 4000.0 4000.0 4000.0 4000.0 4000.0 4000.0 4000.0 4000.0 4000.0 4000.0 4000.0 4000.0 4000.0 4000.0 4000.0 4000.0 4000.0 4000.0 4000.0 4000.0 4000.0 4000.0 4000.0 4000.0 4000.0 4000.0 4000.0 4000.0 4000.0 4000.0 4000.0 4000.0 4000.0 4000.0 4000.0 4000.0 4000.0 4000.0 4000.0 4000.0 4000.0 4000.0 4000.0 4000.0 4000.0 4000.0 4000.0 4000.0 4000.0 4000.0 4000.0 4000.0 4000.0 4000.0 4000.0 4000.0 4000.0 4000.0 4000.0 4000.0 4000.0 4000.0 4000.0 4000.0 4000.0 4000.0 4000.0 4000.0 4000.0 4000.0 4000.0 4000.0 4000.0 4000.0 4000.0 4000.0 4000.0 4000.0 4000.0 4000.0 4000.0 4000.0 4000.0 4000.0 4000.0 4000.0 4000.0 4000.0 4000.0 4000.0 4000.0 4000.0 4000.0 4000.0 4000.0 4000.0 4000.0 4000.0 4000.0 4000.0 4000.0 4000.0 4000.0 4000.0 4000.0 4000.0 4000.0 4000.0 4000.0 4000.0 4000.0 4000.0 4000.0 4000.0 4000.0 4000.0 4000.0 4000.0 4000.0 4000.0 4000.0 4000.0 4000.0 4000.0 4000.0 4000.0 4000.0 4000.0 4000.0 4000.0 4000.0 4000.0 4000.0 4000.0 4000.0 4000.0 4000.0 4000.0 4000.0 4000.0 4000.0 4000.0 4000.0 4000.0 4000.0 4000.0 4000.0 4000.0 4000.0 4000.0 4000.0 4000.0 4000.0 4000.0 4000.0 4000.0 4000.0 4000.0 4000.0 4000.0 4000.0 4000.0 4000.0 4000.0 4000.0 4000.0 4000.0 4000.0 4000.0 4000.0 4000.0 4000.0 4000.0 4000.0 4000.0 4000.0 4000.0 4000.0 4000.0 4000.0 4000.0 4000.0 4000.0 4000.0 4000.0 4000.0 4000.0 4000.0 4000.0 4000.0 4000.0 4000.0 4000.0 4000.0 4000.0 4000.0 4000.0 4000.0 4000.0 4000.0 4000.0 4000.0 4000.0 4000.0 4000.0 4000.0 4000.0 4000.0 4000.0 4000.0 4000.0 4000.0 4000.0 4000.0 4000.0 4000.0 4000.0 4000.0 4000.0 4000.0 4000.0 4000.0 4000.0 4000.0 4000.0 4000.0 4000.0 4000.0 4000.0 4000.0 4000.0 4000.0 4000.0 4000.0 4000.0 4000.0 4000.0 4000.0 4000.0 4000.0 4000.0 4000.0 4000.0 4000.0 4000.0 4000.0 4000.0 4000.0 4000.0 4000.0 4000.0 4000.0 4000.0 4000.0 4000.0 4000.0 4000.0 4000.0 4000.0 4000.0 4000.0 4000.0 4000.0 4000.0 4000.0 4000.0 4000.0 4000.0 4000.0 4000.0 4000.0 4000.0 4000.0 4000.0 4000.0 4000.0 4000.0 4000.0 4000.0 4000.0 4000.0 4000.0 4000.0 4000.0 4000.0 4000.0 4000.0 4000.0 4000.0 4000.0 4000.0 4000.0 4000.0 4000.0 4000.0 4000.0 4000.0 4000.0 4000.0 4000.0 4000.0 4000.0 4000.0 4000.0 4000.0 4000.0 4000.0 4000.0 4000.0 4000.0 4000.0 4000.0 4000.0 4000.0 4000.0 4000.0 4000.0 4000.0 4000.0 4000.0 4000.0 4000.0 4000.0 4000.0 4000.0 4000.0 4000.0 4000.0 4000.0 4000.0 4000.0 4000.0 4000.0 4000.0 4000.0 4000.0 4000.0 4000.0 4000.0 4000.0 4000.0 4000.0 4000.0 4000.0 4000.0 4000.0 4000.0 4000.0 4000.0 4000.0 4000.0 4000.0 4000.0 4000.0 4000.0 4000.0 4000.0 4000.0 4000.0 4000.0 4000.0 4000.0 4000.0 4000.0 4000.0 4000.0 4000.0 4000.0 4000.0 4000.0 4000.0 4000.0 4000.0 4000.0 4000.0 4000.0 4000.0 4000.0 4000.0 4000.0 4000.0 4000.0 4000.0 4000.0 4000.0 4000.0 4000.0 4000.0 4000.0 4000.0 4000.0 4000.0 4000.0 4000.0 4000.0 4000.0 4000.0 4000.0 4000.0 4000.0 4000.0 4000.0 4000.0 4000.0 4000.0 4000.0 4000.0 4000.0 4000.0 4000.0 4000.0 4000.0 4000.0 4000.0 4000.0 4000.0 4000.0 4000.0 4000.0 4000.0 4000.0 4000.0 4000.0 4000.0 4000.0 4000.0 4000.0 4000.0 4000.0 4000.0 4000.0 4000.0 4000.0 4000.0 4000.0 4000.0 4000.0 4000.0 4000.0 4000.0 4000.0 4000.0 4000.0 4000.0 4000.0 4000.0 4000.0 4000.0 4000.0 4000.0 4000.0 4000.0 4000.0 4000.0 4000.0 4000.0 4000.0 4000.0 4000.0 4000.0 4000.0 4000.0 4000.0 4000.0 4000.0 4000.0 4000.0 4000.0 4000.0 4000.0 4000.0 4000.0 4000.0 4000.0 4000.0 4000.0 4000.0 4000.0 4000.0 4000.0 4000.0 4000.0 4000.0 4000.0 4000.0 4000.0 4000.0 4000.0 4000.0 4000.0 4000.0 4000.0 4000.0 4000.0 4000.0 4000.0 4000.0 4000.0 4000.0 4000.0 4000.0 4000.0 4000.0 4000.0 4000.0 4000.0 4000.0 4000.0 4000.0 4000.0 4000.0 4000.0 4000.0 4000.0 4000.0 4000.0 4000.0 4000.0 4000.0 4000.0 4000.0 4000.0 4000.0 4000.0 4000.0 4000.0 4000.0 4000.0 4000.0 4000.0 4000.0 4000.0 4000.0 4000.0 4000.0 4000.0 4000.0 4000.0 4000.0 4000.0 4000.0 4000.0 4000.0 4000.0 4000.0 4000.0 4000.0 4000.0 4000.0 4000.0 4000.0 4000.0 4000.0 4000.0 4000.0 4000.0 4000.0 4000.0 4000.0 4000.0 4000.0 4000.0 4000.0 4000.0 4000.0 4000.0 4000.0 4000.0 4000.0 4000.0 4000.0 4000.0 4000.0 4000.0 4000.0 4000.0 4000.0 4000.0 4000.0 4000.0 4000.0 4000.0 4000.0 4000.0 4000.0 4000.0 4000.0 4000.0 4000.0 4000.0 4000.0 4000.0 4000.0 4000.0 4000.0 4000.0 4000.0 4000.0 4000.0 4000.0 4000.0 4000.0 4000.0 4000.0 4000.0 4000.0 4000.0 4000.0 4000.0 4000.0 4000.0 4000.0 4000.0 4000.0 4000.0 4000.0 4000.0 4000.0 4000.0 4000.0 4000.0 4000.0 4000.0 4000.0 4000.0 4000.0 4000.0 4000.0 4000.0 4000.0 4000.0 4000.0 4000.0 4000.0 4000.0 4000.0 4000.0 4000.0 4000.0 4000.0 4000.0 4000.0 4000.0 4000.0 4000.0 4000.0 4000.0 4000.0 4000.0 4000.0 4000.0 4000.0 4000.0 4000.0 4000.0 4000.0 4000.0 4000.0 4000.0 4000.0 4000.0 4000.0 4000.0 4000.0 4000.0 4000.0 4000.0 4000.0 4000.0 4000.0 4000.0 4000.0 4000.0 4000.0 4000.0 4000.0 4000.0 4000.0 4000.0 4000.0 4000.0 4000.0 4000.0 4000.0 4000.0 4000.0 4000.0 4000.0 4000.0 4000.0 4000.0 4000.0 4000.0 4000.0 4000.0 4000.0 4000.0 4000.0 4000.0 4000.0 4000.0 4000.0 4000.0 4000.0 4000.0 4000.0 4000.0 4000.0 4000.0 4000.0 4000.0 4000.0 4000.0 4000.0 4000.0 4000.0 4000.0 4000.0 4000.0 4000.0 4000.0 4000.0 4000.0 4000.0 4000.0 4000.0 4000.0 4000.0 4000.0 4000.0 4000.0 4000.0 4000.0 4000.0 4000.0 4000.0 4000.0 4000.0 4000.0 4000.0 4000.0 4000.0 4000.0 4000.0 4000.0 4000.0 4000.0 4000.0 4000.0 4000.0 4000.0 4000.0 4000.0 4000.0 4000.0 4000.0 4000.0 4000.0 4000.0 4000.0 4000.0 4000.0 4000.0 4000.0 4000.0 4000.0 4000.0 4000.0 4000.0 4000.0 4000.0 4000.0 4000.0 4000.0 4000.0 4000.0 4000.0 4000.0 4000.0 4000.0 4000.0 4000.0 4000.0 4000.0 4000.0 4000.0 4000.0 4000.0 4000.0 4000.0 4000.0 4000.0 4000.0 4000.0 4000.0 4000.0 4000.0 4000.0 4000.0 4000.0 4000.0 4000.0 4000.0 4000.0 4000.0 4000.0 4000.0 4000.0 4000.0 4000.0 4000.0 4000.0 4000.0 4000.0 4000.0 4000.0 4000.0 4000.0 4000.0 4000.0 4000.0 4000.0 4000.0 4000.0 4000.0 4000.0 4000.0 4000.0 4000.0 4000.0 4000.0 4000.0 4000.0 4000.0 4000.0 4000.0 4000.0 4000.0 4000.0 4000.0 4000.0 4000.0 4000.0 4000.0 4000.0 4000.0 4000.0 4000.0 4000.0 4000.0 4000.0 4000.0 4000.0 4000.0 4000.0 4000.0 4000.0 4000.0 4000.0 4000.0 4000.0 4000.0 4000.0 4000.0 4000.0 4000.0 4000.0 4000.0 4000.0 4000.0 4000.0 4000.0 4000.0 4000.0 4000.0 4000.0 4000.0 4000.0 4000.0 4000.0 4000.0 4000.0 4000.0 4000.0 4000.0 4000.0 4000.0 4000.0 4000.0 4000.0 4000.0 4000.0 4000.0 4000.0 4000.0 4000.0 4000.0 4000.0 4000.0 4000.0 4000.0 4000.0 4000.0 4000.0 4000.0 4000.0 4000.0 4000.0 4000.0 4000.0 4000.0 4000.0 4000.0 4000.0 4000.0 4000.0 4000.0 4000.0 4000.0 4000.0 4000.0 4000.0 4000.0 4000.0 4000.0 4000.0 4000.0 4000.0 4000.0 4000.0 4000.0 4000.0 4000.0 4000.0 4000.0 4000.0 4000.0 4000.0 4000.0 4000.0 4000.0 4000.0 4000.0 4000.0 4000.0 4000.0 4000.0 4000.0 4000.0 4000.0 4000.0 4000.0 4000.0 4000.0 4000.0 4000.0 4000.0 4000.0 4000.0 4000.0 4000.0 4000.0 4000.0 4000.0 4000.0 4000.0 4000.0 4000.0 4000.0 4000.0 4000.0 4000.0 4000.0 4000.0 4000.0 4000.0 4000.0 4000.0 4000.0 4000.0 4000.0 4000.0 4000.0 4000.0 4000.0 4000.0 4000.0 4000.0 4000.0 4000.0 4000.0 4000.0 4000.0 4000.0 4000.0 4000.0 4000.0 4000.0 4000.0 4000.0 4000.0 4000.0 4000.0 4000.0 4000.0 4000.0 4000.0 4000.0 4000.0 4000.0 4000.0 4000.0 4000.0 4000.0 4000.0 4000.0 4000.0 4000.0 4000.0 4000.0 4000.0 4000.0 4000.0 4000.0 4000.0 4000.0 4000.0 4000.0 4000.0 4000.0 4000.0 4000.0 4000.0 4000.0 4000.0 4000.0 4000.0 4000.0 4000.0 4000.0 4000.0 4000.0 4000.0 4000.0 4000.0 4000.0 4000.0 4000.0 4000.0 4000.0 4000.0 4000.0 4000.0 4000.0 4000.0 4000.0 4000.0 4000.0 4000.0 4000.0 4000.0 4000.0 4000.0 4000.0 4000.0 4000.0 4000.0 4000.0 4000.0 4000.0 4000.0 4000.0 4000.0 4000.0 4000.0 4000.0 4000.0 4000.0 4000.0 4000.0 4000.0 4000.0 4000.0 4000.0 4000.0 4000.0 4000.0 4000.0 4000.0 4000.0 4000.0 4000.0 4000.0 4000.0 4000.0 4000.0 4000.0 4000.0 4000.0 4000.0 4000.0 4000.0 4000.0 4000.0 4000.0 4000.0 4000.0 4000.0 4000.0 4000.0 4000.0 4000.0 4000.0 4000.0 4000.0 4000.0 4000.0 4000.0 4000.0 4000.0 4000.0 4000.0 4000.0 4000.0 4000.0 4000.0 4000.0 4000.0 4000.0 4000.0 4000.0 4000.0 4000.0 4000.0 4000.0 4000.0 4000.0 4000.0 4000.0 4000.0 4000.0 4000.0 4000.0 4000.0 4000.0 4000.0 4000.0 4000.0 4000.0 4000.0 4000.0 4000.0 4000.0 4000.0 4000.0 4000.0 4000.0 4000.0 4000.0 4000.0 4000.0 4000.0 4000.0 4000.0 4000.0 4000.0 4000.0 4000.0 4000.0 4000.0 4000.0 4000.0 4000.0 4000.0 4000.0 4000.0 4000.0 4000.0 4000.0 4000.0 4000.0 4000.0 4000.0 4000.0 4000.0 4000.0 4000.0 4000.0 4000.0 4000.0 4000.0 4000.0 4000.0 4000.0 4000.0 4000.0 4000.0 4000.0 4000.0 4000.0 4000.0 4000.0 4000.0 4000.0 4000.0 4000.0 4000.0 4000.0 4000.0 4000.0 4000.0 4000.0 4000.0 4000.0 4000.0 4000.0 4000.0 4000.0 4000.0 4000.0 4000.0 4000.0 4000.0 4000.0 4000.0 4000.0 4000.0 4000.0 4000.0 4000.0 4000.0 4000.0 4000.0 4000.0 4000.0 4000.0 4000.0 4000.0 4000.0 4000.0 4000.0 4000.0 4000.0 4000.0 4000.0 4000.0 4000.0 4000.0 4000.0 4000.0 4000.0 4000.0 4000.0 4000.0 4000.0 4000.0 4000.0 4000.0 4000.0 4000.0 4000.0 4000.0 4000.0 4000.0 4000.0 4000.0 4000.0 4000.0 4000.0 4000.0 4000.0 4000.0 4000.0 4000.0 4000.0 4000.0 4000.0 4000.0 4000.0 4000.0 4000.0 4000.0 4000.0 4000.0 4000.0 4000.0 4000.0 4000.0 4000.0 4000.0 4000.0 4000.0 4000.0 4000.0 4000.0 4000.0 4000.0 4000.0 4000.0 4000.0 4000.0 4000.0 4000.0 4000.0 4000.0 4000.0 4000.0 4000.0 4000.0 4000.0 4000.0 4000.0 4000.0 4000.0 4000.0 4000.0 4000.0 4000.0 4000.0 4000.0 4000.0 4000.0 4000.0 4000.0 4000.0 4000.0 4000.0 4000.0 4000.0 4000.0 4000.0 4000.0 4000.0 4000.0 4000.0 4000.0 4000.0 4000.0 4000.0 4000.0 4000.0 4000.0 4000.0 4000.0 4000.0 4000.0 4000.0 4000.0 4000.0 4000.0 4000.0 4000.0 4000.0 4000.0 4000.0 4000.0 4000.0 4000.0 4000.0 4000.0 4000.0 4000.0 4000.0 4000.0 4000.0 4000.0 4000.0 4000.0 4000.0 4000.0 4000.0 4000.0 4000.0 4000.0 4000.0 4000.0 4000.0 4000.0 4000.0 4000.0 4000.0 4000.0 4000.0 4000.0 4000.0 4000.0 4000.0 4000.0 4000.0 4000.0 4000.0 4000.0 4000.0 4000.0 4000.0 4000.0 4000.0 4000.0 4000.0 4000.0 4000.0 4000.0 4000.0 4000.0 4000.0 4000.0 4000.0 4000.0 4000.0 4000.0 4000.0 4000.0 4000.0 4000.0 4000.0 4000.0 4000.0 4000.0 4000.0 4000.0 4000.0 4000.0 4000.0 4000.0 4000.0 4000.0 4000.0 4000.0 4000.0 4000.0 4000.0 4000.0 4000.0 4000.0 4000.0 4000.0 4000.0 4000.0 4000.0 4000.0 4000.0 4000.0 4000.0 4000.0 4000.0 4000.0 4000.0 4000.0 4000.0 4000.0 4000.0 4000.0 4000.0 4000.0 4000.0 4000.0 4000.0 4000.0 4000.0 4000.0 4000.0 4000.0 4000.0 4000.0 4000.0 4000.0 4000.0 4000.0 4000.0 4000.0 4000.0 4000.0 4000.0 4000.0 4000.0 4000.0 4000.0 4000.0 4000.0 4000.0 4000.0 4000.0 4000.0 4000.0 4000.0 4000.0 4000.0 4000.0 4000.0 4000.0 4000.0 4000.0 4000.0 4000.0 4000.0 4000.0 4000.0 4000.0 4000.0 4000.0 4000.0 4000.0 4000.0 4000.0 4000.0 4000.0 4000.0 4000.0 4000.0 4000.0 4000.0 4000.0 4000.0 4000.0 4000.0 4000.0 4000.0 4000.0 4000.0 4000.0 4000.0 4000.0 4000.0 4000.0 4000.0 4000.0 4000.0 4000.0 4000.0 4000.0 4000.0 4000.0 4000.0 4000.0 4000.0 4000.0 4000.0 4000.0 4000.0 4000.0 4000.0 4000.0 4000.0 4000.0 4000.0 4000.0 4000.0 4000.0 4000.0 4000.0 4000.0 4000.0 4000.0 4000.0 4000.0 4000.0 4000.0 4000.0 4000.0 4000.0 4000.0 4000.0 4000.0 4000.0 4000.0 4000.0 4000.0 4000.0 4000.0 4000.0 4000.0 4000.0 4000.0 4000.0 4000.0 4000.0 4000.0 4000.0 4000.0 4000.0 4000.0 4000.0 4000.0 4000.0 4000.0 4000.0 4000.0 4000.0 4000.0 4000.0 4000.0 4000.0 4000.0 4000.0 4000.0 4000.0 4000.0 4000.0 4000.0 4000.0 4000.0 4000.0 4000.0 4000.0 4000.0 4000.0 4000.0 4000.0 4000.0 4000.0 4000.0 4000.0 4000.0 4000.0 4000.0 4000.0 4000.0 4000.0 4000.0 4000.0 4000.0 4000.0 4000.0 4000.0 4000.0 4000.0 4000.0 4000.0 4000.0 4000.0 4000.0 4000.0 4000.0 4000.0 4000.0 4000.0 4000.0 4000.0 4000.0 4000.0 4000.0 4000.0 4000.0 4000.0 4000.0 4000.0 4000.0 4000.0 4000.0 4000.0 4000.0 4000.0 4000.0 4000.0 4000.0 4000.0 4000.0 4000.0 4000.0 4000.0 4000.0 4000.0 4000.0 4000.0 4000.0 4000.0 4000.0 4000.0 4000.0 4000.0 4000.0 4000.0 4000.0 4000.0 4000.0 4000.0 4000.0 4000.0 4000.0 4000.0 4000.0 4000.0 4000.0 4000.0 4000.0 4000.0 4000.0 4000.0 4000.0 4000.0 4000.0 4000.0 4000.0 4000.0 4000.0 4000.0 4000.0 4000.0 4000.0 4000.0 4000.0 4000.0 4000.0 4000.0 4000.0 4000.0 4000.0 4000.0 4000.0 4000.0 4000.0 4000.0 4000.0 4000.0 4000.0 4000.0 4000.0 4000.0 4000.0 4000.0 4000.0 4000.0 4000.0 4000.0 4000.0 4000.0 4000.0 4000.0 4000.0 4000.0 4000.0 4000.0 4000.0 4000.0 4000.0 4000.0 4000.0 4000.0 4000.0 4000.0 4000.0 4000.0 4000.0 4000.0 4000.0 4000.0 4000.0 4000.0 4000.0 4000.0 4000.0 4000.0 4000.0 4000.0 4000.0 4000.0 4000.0 4000.0 4000.0 4000.0 4000.0 4000.0 4000.0 4000.0 4000.0 4000.0 4000.0 4000.0 4000.0 4000.0 4000.0 4000.0 4000.0 4000.0 4000.0 4000.0 4000.0 4000.0 4000.0 4000.0 4000.0 4000.0 4000.0 4000.0 4000.0 4000.0 4000.0 4000.0 4000.0 4000.0 4000.0 4000.0 4000.0 4000.0 4000.0 4000.0 4000.0 4000.0 4000.0 4000.0 4000.0 4000.0 4000.0 4000.0 4000.0 4000.0 4000.0 4000.0 4000.0 4000.0 4000.0 4000.0 4000.0 4000.0 4000.0 4000.0 4000.0 4000.0 4000.0 4000.0 4000.0 4000.0 4000.0 4000.0 4000.0 4000.0 4000.0 4000.0 4000.0 4000.0 4000.0 4000.0 4000.0 4000.0 4000.0 4000.0 4000.0 4000.0 4000.0 4000.0 4000.0 4000.0 4000.0 4000.0 4000.0 4000.0 4000.0 4000.0 4000.0 4000.0 4000.0 4000.0 4000.0 4000.0 4000.0 4000.0 4000.0 4000.0 4000.0 4000.0 4000.0 4000.0 4000.0 4000.0 4000.0 4000.0 4000.0 4000.0 4000.0 4000.0 4000.0 4000.0 4000.0 4000.0 4000.0 4000.0 4000.0 4000.0 4000.0 4000.0 4000.0 4000.0 4000.0 4000.0 4000.0 4000.0 4000.0 4000.0 4000.0 4000.0 4000.0 4000.0 4000.0 4000.0 4000.0 4000.0 4000.0 4000.0 4000.0 4000.0 4000.0 4000.0 4000.0 4000.0 4000.0 4000.0 4000.0 4000.0 4000.0 4000.0 4000.0 4000.0 4000.0 4000.0 4000.0 4000.0 4000.0 4000.0 4000.0 4000.0 4000.0 4000.0 4000.0 4000.0 4000.0 4000.0 4000.0 4000.0 4000.0 4000.0 4000.0 4000.0 4000.0 4000.0 4000.0 4000.0 4000.0 4000.0 4000.0 4000.0 4000.0 4000.0 4000.0 4000.0 4000.0 4000.0 4000.0 4000.0 4000.0 4000.0 4000.0 4000.0 4000.0 4000.0 4000.0 4000.0 4000.0 4000.0 4000.0 4000.0 4000.0 4000.0 4000.0 4000.0 4000.0 4000.0 4000.0 4000.0 4000.0 4000.0 4000.0 4000.0 4000.0 4000.0 4000.0 4000.0 4000.0 4000.0 4000.0 4000.0 4000.0 4000.0 4000.0 4000.0 4000.0 4000.0 4000.0 4000.0 4000.0 4000.0 4000.0 4000.0 4000.0 4000.0 4000.0 4000.0 4000.0 4000.0 4000.0 4000.0 4000.0 4000.0 4000.0 4000.0 4000.0 4000.0 4000.0 4000.0 4000.0 4000.0 4000.0 4000.0 4000.0 4000.0 4000.0 4000.0 4000.0 4000.0 4000.0 4000.0 4000.0 4000.0 4000.0 4000.0 4000.0 4000.0 4000.0 4000.0 4000.0 4000.0 4000.0 4000.0 4000.0 4000.0 4000.0 4000.0 4000.0 4000.0 4000.0 4000.0 4000.0 4000.0 4000.0 4000.0 4000.0 4000.0 4000.0 4000.0 4000.0 4000.0 4000.0 4000.0 4000.0 4000.0 4000.0 4000.0 4000.0 4000.0 4000.0 4000.0 4000.0 4000.0 4000.0 4000.0 4000.0 4000.0 4000.0 4000.0 4000.0 4000.0 4000.0 4000.0 4000.0 4000.0 4000.0 4000.0 4000.0 4000.0 4000.0 4000.0 4000.0 4000.0 4000.0 4000.0 4000.0 4000.0 4000.0 4000.0 4000.0 4000.0 4000.0 4000.0 4000.0 4000.0 4000.0 4000.0 4000.0 4000.0 4000.0 4000.0 4000.0 4000.0 4000.0 4000.0 4000.0 4000.0 4000.0 4000.0 4000.0 4000.0 4000.0 4000.0 4000.0 4000.0 4000.0 4000.0 4000.0 4000.0 4000.0 4000.0 4000.0 4000.0 4000.0 4000.0 4000.0 4000.0 4000.0 4000.0 4000.0 4000.0 4000.0 4000.0 4000.0 4000.0 4000.0 4000.0 4000.0 4000.0 4000.0 4000.0 4000.0 4000.0 4000.0 4000.0 4000.0 4000.0 4000.0 4000.0 4000.0 4000.0 4000.0 4000.0 4000.0 4000.0 4000.0 4000.0 4000.0 4000.0 4000.0 4000.0 4000.0 4000.0 4000.0 4000.0 4000.0 4000.0 4000.0 4000.0 4000.0 4000.0 4000.0 4000.0 4000.0 4000.0 4000.0 4000.0 4000.0 4000.0 4000.0 4000.0 4000.0 4000.0 4000.0 4000.0 4000.0 4000.0 4000.0 4000.0 4000.0 4000.0 4000.0 4000.0 4000.0 4000.0 4000.0 4000.0 4000.0 4000.0 4000.0 4000.0 4000.0 4000.0 4000.0 4000.0 4000.0 4000.0 4000.0 4000.0 4000.0 4000.0 4000.0 4000.0 4000.0 4000.0 4000.0 4000.0 4000.0 4000.0 4000.0 4000.0 4000.0 4000.0 4000.0 4000.0 4000.0 4000.0 4000.0 4000.0 4000.0 4000.0 4000.0 4000.0 4000.0 4000.0 4000.0 4000.0 4000.0 4000.0 4000.0 4000.0 4000.0 4000.0 4000.0 4000.0 4000.0 4000.0 4000.0 4000.0 4000.0 4000.0 4000.0 4000.0 4000.0 4000.0 4000.0 4000.0 4000.0 4000.0 4000.0 4000.0 4000.0 4000.0 4000.0 4000.0 4000.0 4000.0 4000.0 4000.0 4000.0 4000.0 4000.0 4000.0 4000.0 4000.0 4000.0 4000.0 4000.0 4000.0 4000.0 4000.0 4000.0 4000.0 4000.0 4000.0 4000.0 4000.0 4000.0 4000.0 4000.0 4000.0 4000.0 4000.0 4000.0 4000.0 4000.0 4000.0 4000.0 4000.0 4000.0 4000.0 4000.0 4000.0 4000.0 4000.0 4000.0 4000.0 4000.0 4000.0 4000.0 4000.0 4000.0 4000.0 4000.0 4000.0 4000.0 4000.0 4000.0 4000.0 4000.0 4000.0 4000.0 4000.0 4000.0 4000.0 4000.0 4000.0 4000.0 4000.0 4000.0 4000.0 4000.0 4000.0 4000.0 4000.0 4000.0 4000.0 4000.0 4000.0 4000.0 4000.0 4000.0 4000.0 4000.0 4000.0 4000.0 4000.0 4000.0 4000.0 4000.0 4000.0 4000.0 4000.0 4000.0 4000.0 4000.0 4000.0 4000.0 4000.0 4000.0 4000.0 4000.0 4000.0 4000.0 4000.0 4000.0 4000.0 4000.0 4000.0 4000.0 4000.0 4000.0 4000.0 4000.0 4000.0 4000.0 4000.0 4000.0 4000.0 4000.0 4000.0 4000.0 4000.0 4000.0 4000.0 4000.0 4000.0 4000.0 4000.0 4000.0 4000.0 4000.0 4000.0 4000.0 4000.0 4000.0 4000.0 4000.0 4000.0 4000.0 4000.0 4000.0 4000.0 4000.0 4000.0 4000.0 4000.0 4000.0 4000.0 4000.0 4000.0 4000.0 4000.0 4000.0 4000.0 4000.0 4000.0 4000.0 4000.0 4000.0 4000.0 4000.0 4000.0 4000.0 4000.0 4000.0 4000.0 4000.0 4000.0 4000.0 4000.0 4000.0 4000.0 4000.0 4000.0 4000.0 4000.0 4000.0 4000.0 4000.0 4000.0 4000.0 4000.0 4000.0 4000.0 4000.0 4000.0 4000.0 4000.0 4000.0 4000.0 4000.0 4000.0 4000.0 4000.0 4000.0 4000.0 4000.0 4000.0 4000.0 4000.0 4000.0 4000.0 4000.0 4000.0 4000.0 4000.0 4000.0 4000.0 4000.0 4000.0 4000.0 4000.0 4000.0 4000.0 4000.0 4000.0 4000.0 4000.0 4000.0 4000.0 4000.0 4000.0 4000.0 4000.0 4000.0 4000.0 4000.0 4000.0 4000.0 4000.0 4000.0 4000.0 4000.0 4000.0 4000.0 4000.0 4000.0 4000.0 4000.0 4000.0 4000.0 4000.0 4000.0 4000.0 4000.0 4000.0 4000.0 4000.0 4000.0 4000.0 4000.0 4000.0 4000.0 4000.0 4000.0 4000.0 4000.0 4000.0 4000.0 4000.0 4000.0 4000.0 4000.0 4000.0 4000.0 4000.0 4000.0 4000.0 4000.0 4000.0 4000.0 4000.0 4000.0 4000.0 4000.0 4000.0 4000.0 4000.0 4000.0 4000.0 4000.0 4000.0 4000.0 4000.0 4000.0 4000.0 4000.0 4000.0 4000.0 4000.0 4000.0 4000.0 4000.0 4000.0 4000.0 4000.0 4000.0 4000.0 4000.0 4000.0 4000.0 4000.0 4000.0 4000.0 4000.0 4000.0 4000.0 4000.0 4000.0 4000.0 4000.0 4000.0 4000.0 4000.0 4000.0 4000.0 4000.0 4000.0 4000.0 4000.0 4000.0 4000.0 4000.0 4000.0 4000.0 4000.0 4000.0 4000.0 4000.0 4000.0 4000.0 4000.0 4000.0 4000.0 4000.0 4000.0 4000.0 4000.0 4000.0 4000.0 4000.0 4000.0 4000.0 4000.0 4000.0 4000.0 4000.0 4000.0 4000.0 4000.0 4000.0 4000.0 4000.0 4000.0 4000.0 4000.0 4000.0 4000.0 4000.0 4000.0 4000.0 4000.0 4000.0 4000.0 4000.0 4000.0 4000.0 4000.0 4000.0 4000.0 4000.0 4000.0 4000.0 4000.0 4000.0 4000.0 4000.0 4000.0 4000.0 4000.0 4000.0 4000.0 4000.0 4000.0 4000.0 4000.0 4000.0 4000.0 4000.0 4000.0 4000.0 4000.0 4000.0 4000.0 4000.0 4000.0 4000.0 4000.0 4000.0 4000.0 4000.0 4000.0 4000.0 4000.0 4000.0 4000.0 4000.0 4000.0 4000.0 4000.0 4000.0 4000.0 4000.0 4000.0 4000.0 4000.0 4000.0 4000.0 4000.0 4000.0 4000.0 4000.0 4000.0 4000.0 4000.0 4000.0 4000.0 4000.0 4000.0 4000.0 4000.0 4000.0 4000.0 4000.0 4000.0 4000.0 4000.0 4000.0 4000.0 4000.0 4000.0 4000.0 4000.0 4000.0 4000.0 4000.0 4000.0 4000.0 4000.0 4000.0 4000.0 4000.0 4000.0 4000.0 4000.0 4000.0 4000.0 4000.0 4000.0 4000.0 4000.0 4000.0 4000.0 4000.0 4000.0 4000.0 4000.0 4000.0 4000.0 4000.0 4000.0 4000.0 4000.0 4000.0 4000.0 4000.0 4000.0 4000.0 4000.0 4000.0 4000.0 4000.0 4000.0 4000.0 4000.0 4000.0 4000.0 4000.0 4000.0 4000.0 4000.0 4000.0 4000.0 4000.0 4000.0 4000.0 4000.0 4000.0 4000.0 4000.0 4000.0 4000.0 4000.0 4000.0 4000.0 4000.0 4000.0 4000.0 4000.0 4000.0 4000.0 4000.0 4000.0 4000.0 4000.0 4000.0 4000.0 4000.0 4000.0 4000.0 4000.0 4000.0 4000.0 4000.0 4000.0 4000.0 4000.0 4000.0 4000.0 4000.0 4000.0 4000.0 4000.0 4000.0 4000.0 4000.0 4000.0 4000.0 4000.0 4000.0 4000.0 4000.0 4000.0 4000.0 4000.0 4000.0 4000.0 4000.0 4000.0 4000.0 4000.0 4000.0 4000.0 4000.0 4000.0 4000.0 4000.0 4000.0 4000.0 4000.0 4000.0 4000.0 4000.0 4000.0 4000.0 4000.0 4000.0 4000.0 4000.0 4000.0 4000.0 4000.0 4000.0 4000.0 4000.0 4000.0 4000.0 4000.0 4000.0 4000.0 4000.0 4000.0 4000.0 4000.0 4000.0 4000.0 4000.0 4000.0 4000.0 4000.0 4000.0 4000.0 4000.0 4000.0 4000.0 4000.0 4000.0 4000.0 4000.0 4000.0 4000.0 4000.0 4000.0 4000.0 4000.0 SCALARS Mass float 1
LOOKUP_TABLE default
11309700000.0 11309700000.0 11309700000.0 11309700000.0 11309700000.0 11309700000.0 11309700000.0 11309700000.0 11309700000.0 11309700000.0 11309700000.0 11309700000.0 11309700000.0 11309700000.0 11309700000.0 11309700000.0 11309700000.0 11309700000.0 11309700000.0 11309700000.0 11309700000.0 11309700000.0 11309700000.0 11309700000.0 11309700000.0 11309700000.0 11309700000.0 11309700000.0 11309700000.0 11309700000.0 11309700000.0 11309700000.0 11309700000.0 11309700000.0 11309700000.0 11309700000.0 11309700000.0 11309700000.0 11309700000.0 11309700000.0 11309700000.0 11309700000.0 11309700000.0 11309700000.0 11309700000.0 11309700000.0 11309700000.0 11309700000.0 11309700000.0 11309700000.0 11309700000.0 11309700000.0 11309700000.0 11309700000.0 11309700000.0 11309700000.0 11309700000.0 11309700000.0 11309700000.0 11309700000.0 11309700000.0 11309700000.0 11309700000.0 11309700000.0 11309700000.0 11309700000.0 11309700000.0 11309700000.0 11309700000.0 11309700000.0 11309700000.0 11309700000.0 11309700000.0 11309700000.0 11309700000.0 11309700000.0 11309700000.0 11309700000.0 11309700000.0 11309700000.0 11309700000.0 11309700000.0 11309700000.0 11309700000.0 11309700000.0 11309700000.0 11309700000.0 11309700000.0 11309700000.0 11309700000.0 11309700000.0 11309700000.0 11309700000.0 11309700000.0 11309700000.0 11309700000.0 11309700000.0 11309700000.0 11309700000.0 11309700000.0 11309700000.0 11309700000.0 11309700000.0 11309700000.0 11309700000.0 11309700000.0 11309700000.0 11309700000.0 11309700000.0 11309700000.0 11309700000.0 11309700000.0 11309700000.0 11309700000.0 11309700000.0 11309700000.0 11309700000.0 11309700000.0 11309700000.0 11309700000.0 11309700000.0 11309700000.0 11309700000.0 11309700000.0 11309700000.0 11309700000.0 11309700000.0 11309700000.0 11309700000.0 11309700000.0 11309700000.0 11309700000.0 11309700000.0 11309700000.0 11309700000.0 11309700000.0 11309700000.0 11309700000.0 11309700000.0 11309700000.0 11309700000.0 11309700000.0 11309700000.0 11309700000.0 11309700000.0 11309700000.0 11309700000.0 11309700000.0 11309700000.0 11309700000.0 11309700000.0 11309700000.0 11309700000.0 11309700000.0 11309700000.0 11309700000.0 11309700000.0 11309700000.0 11309700000.0 11309700000.0 11309700000.0 11309700000.0 11309700000.0 11309700000.0 11309700000.0 11309700000.0 11309700000.0 11309700000.0 11309700000.0 11309700000.0 11309700000.0 11309700000.0 11309700000.0 11309700000.0 11309700000.0 11309700000.0 11309700000.0 11309700000.0 11309700000.0 11309700000.0 11309700000.0 11309700000.0 11309700000.0 11309700000.0 11309700000.0 11309700000.0 11309700000.0 11309700000.0 11309700000.0 11309700000.0 11309700000.0 11309700000.0 11309700000.0 11309700000.0 11309700000.0 11309700000.0 11309700000.0 11309700000.0 11309700000.0 11309700000.0 11309700000.0 11309700000.0 11309700000.0 11309700000.0 11309700000.0 11309700000.0 11309700000.0 11309700000.0 11309700000.0 11309700000.0 11309700000.0 11309700000.0 11309700000.0 11309700000.0 11309700000.0 11309700000.0 11309700000.0 11309700000.0 11309700000.0 11309700000.0 11309700000.0 11309700000.0 11309700000.0 11309700000.0 11309700000.0 11309700000.0 11309700000.0 11309700000.0 11309700000.0 11309700000.0 11309700000.0 11309700000.0 11309700000.0 11309700000.0 11309700000.0 11309700000.0 11309700000.0 11309700000.0 11309700000.0 11309700000.0 11309700000.0 11309700000.0 11309700000.0 11309700000.0 11309700000.0 11309700000.0 11309700000.0 11309700000.0 11309700000.0 11309700000.0 11309700000.0 11309700000.0 11309700000.0 11309700000.0 11309700000.0 11309700000.0 11309700000.0 11309700000.0 11309700000.0 11309700000.0 11309700000.0 11309700000.0 11309700000.0 11309700000.0 11309700000.0 11309700000.0 11309700000.0 11309700000.0 11309700000.0 11309700000.0 11309700000.0 11309700000.0 11309700000.0 11309700000.0 11309700000.0 11309700000.0 11309700000.0 11309700000.0 11309700000.0 11309700000.0 11309700000.0 11309700000.0 11309700000.0 11309700000.0 11309700000.0 11309700000.0 11309700000.0 11309700000.0 11309700000.0 11309700000.0 11309700000.0 11309700000.0 11309700000.0 11309700000.0 11309700000.0 11309700000.0 11309700000.0 11309700000.0 11309700000.0 11309700000.0 11309700000.0 11309700000.0 11309700000.0 11309700000.0 11309700000.0 11309700000.0 11309700000.0 11309700000.0 11309700000.0 11309700000.0 11309700000.0 11309700000.0 11309700000.0 11309700000.0 11309700000.0 11309700000.0 11309700000.0 11309700000.0 11309700000.0 11309700000.0 11309700000.0 11309700000.0 11309700000.0 11309700000.0 11309700000.0 11309700000.0 11309700000.0 11309700000.0 11309700000.0 11309700000.0 11309700000.0 11309700000.0 11309700000.0 11309700000.0 11309700000.0 11309700000.0 11309700000.0 11309700000.0 11309700000.0 11309700000.0 11309700000.0 11309700000.0 11309700000.0 11309700000.0 11309700000.0 11309700000.0 11309700000.0 11309700000.0 11309700000.0 11309700000.0 11309700000.0 11309700000.0 11309700000.0 11309700000.0 11309700000.0 11309700000.0 11309700000.0 11309700000.0 11309700000.0 11309700000.0 11309700000.0 11309700000.0 11309700000.0 11309700000.0 11309700000.0 11309700000.0 11309700000.0 11309700000.0 11309700000.0 11309700000.0 11309700000.0 11309700000.0 11309700000.0 11309700000.0 11309700000.0 11309700000.0 11309700000.0 11309700000.0 11309700000.0 11309700000.0 11309700000.0 11309700000.0 11309700000.0 11309700000.0 11309700000.0 11309700000.0 11309700000.0 11309700000.0 11309700000.0 11309700000.0 11309700000.0 11309700000.0 11309700000.0 11309700000.0 11309700000.0 11309700000.0 11309700000.0 11309700000.0 11309700000.0 11309700000.0 11309700000.0 11309700000.0 11309700000.0 11309700000.0 11309700000.0 11309700000.0 11309700000.0 11309700000.0 11309700000.0 11309700000.0 11309700000.0 11309700000.0 11309700000.0 11309700000.0 11309700000.0 11309700000.0 11309700000.0 11309700000.0 11309700000.0 11309700000.0 11309700000.0 11309700000.0 11309700000.0 11309700000.0 11309700000.0 11309700000.0 11309700000.0 11309700000.0 11309700000.0 11309700000.0 11309700000.0 11309700000.0 11309700000.0 11309700000.0 11309700000.0 11309700000.0 11309700000.0 11309700000.0 11309700000.0 11309700000.0 11309700000.0 11309700000.0 11309700000.0 11309700000.0 11309700000.0 11309700000.0 11309700000.0 11309700000.0 11309700000.0 11309700000.0 11309700000.0 11309700000.0 11309700000.0 11309700000.0 11309700000.0 11309700000.0 11309700000.0 11309700000.0 11309700000.0 11309700000.0 11309700000.0 11309700000.0 11309700000.0 11309700000.0 11309700000.0 11309700000.0 11309700000.0 11309700000.0 11309700000.0 11309700000.0 11309700000.0 11309700000.0 11309700000.0 11309700000.0 11309700000.0 11309700000.0 11309700000.0 11309700000.0 11309700000.0 11309700000.0 11309700000.0 11309700000.0 11309700000.0 11309700000.0 11309700000.0 11309700000.0 11309700000.0 11309700000.0 11309700000.0 11309700000.0 11309700000.0 11309700000.0 11309700000.0 11309700000.0 11309700000.0 11309700000.0 11309700000.0 11309700000.0 11309700000.0 11309700000.0 11309700000.0 11309700000.0 11309700000.0 11309700000.0 11309700000.0 11309700000.0 11309700000.0 11309700000.0 11309700000.0 11309700000.0 11309700000.0 11309700000.0 11309700000.0 11309700000.0 11309700000.0 11309700000.0 11309700000.0 11309700000.0 11309700000.0 11309700000.0 11309700000.0 11309700000.0 11309700000.0 11309700000.0 11309700000.0 11309700000.0 11309700000.0 11309700000.0 11309700000.0 11309700000.0 11309700000.0 11309700000.0 11309700000.0 11309700000.0 11309700000.0 11309700000.0 11309700000.0 11309700000.0 11309700000.0 11309700000.0 11309700000.0 11309700000.0 11309700000.0 11309700000.0 11309700000.0 11309700000.0 11309700000.0 11309700000.0 11309700000.0 11309700000.0 11309700000.0 11309700000.0 11309700000.0 11309700000.0 11309700000.0 11309700000.0 11309700000.0 11309700000.0 11309700000.0 11309700000.0 11309700000.0 11309700000.0 11309700000.0 11309700000.0 11309700000.0 11309700000.0 11309700000.0 11309700000.0 11309700000.0 11309700000.0 11309700000.0 11309700000.0 11309700000.0 11309700000.0 11309700000.0 11309700000.0 11309700000.0 11309700000.0 11309700000.0 11309700000.0 11309700000.0 11309700000.0 11309700000.0 11309700000.0 11309700000.0 11309700000.0 11309700000.0 11309700000.0 11309700000.0 11309700000.0 11309700000.0 11309700000.0 11309700000.0 11309700000.0 11309700000.0 11309700000.0 11309700000.0 11309700000.0 11309700000.0 11309700000.0 11309700000.0 11309700000.0 11309700000.0 11309700000.0 11309700000.0 11309700000.0 11309700000.0 11309700000.0 11309700000.0 11309700000.0 11309700000.0 11309700000.0 11309700000.0 11309700000.0 11309700000.0 11309700000.0 11309700000.0 11309700000.0 11309700000.0 11309700000.0 11309700000.0 11309700000.0 11309700000.0 11309700000.0 11309700000.0 11309700000.0 11309700000.0 11309700000.0 11309700000.0 11309700000.0 11309700000.0 11309700000.0 11309700000.0 11309700000.0 11309700000.0 11309700000.0 11309700000.0 11309700000.0 11309700000.0 11309700000.0 11309700000.0 11309700000.0 11309700000.0 11309700000.0 11309700000.0 11309700000.0 11309700000.0 11309700000.0 11309700000.0 11309700000.0 11309700000.0 11309700000.0 11309700000.0 11309700000.0 11309700000.0 11309700000.0 11309700000.0 11309700000.0 11309700000.0 11309700000.0 11309700000.0 11309700000.0 11309700000.0 11309700000.0 11309700000.0 11309700000.0 11309700000.0 11309700000.0 11309700000.0 11309700000.0 11309700000.0 11309700000.0 11309700000.0 11309700000.0 11309700000.0 11309700000.0 11309700000.0 11309700000.0 11309700000.0 11309700000.0 11309700000.0 11309700000.0 11309700000.0 11309700000.0 11309700000.0 11309700000.0 11309700000.0 11309700000.0 11309700000.0 11309700000.0 11309700000.0 11309700000.0 11309700000.0 11309700000.0 11309700000.0 11309700000.0 11309700000.0 11309700000.0 11309700000.0 11309700000.0 11309700000.0 11309700000.0 11309700000.0 11309700000.0 11309700000.0 11309700000.0 11309700000.0 11309700000.0 11309700000.0 11309700000.0 11309700000.0 11309700000.0 11309700000.0 11309700000.0 11309700000.0 11309700000.0 11309700000.0 11309700000.0 11309700000.0 11309700000.0 11309700000.0 11309700000.0 11309700000.0 11309700000.0 11309700000.0 11309700000.0 11309700000.0 11309700000.0 11309700000.0 11309700000.0 11309700000.0 11309700000.0 11309700000.0 11309700000.0 11309700000.0 11309700000.0 11309700000.0 11309700000.0 11309700000.0 11309700000.0 11309700000.0 11309700000.0 11309700000.0 11309700000.0 11309700000.0 11309700000.0 11309700000.0 11309700000.0 11309700000.0 11309700000.0 11309700000.0 11309700000.0 11309700000.0 11309700000.0 11309700000.0 11309700000.0 11309700000.0 11309700000.0 11309700000.0 11309700000.0 11309700000.0 11309700000.0 11309700000.0 11309700000.0 11309700000.0 11309700000.0 11309700000.0 11309700000.0 11309700000.0 11309700000.0 11309700000.0 11309700000.0 11309700000.0 11309700000.0 11309700000.0 11309700000.0 11309700000.0 11309700000.0 11309700000.0 11309700000.0 11309700000.0 11309700000.0 11309700000.0 11309700000.0 11309700000.0 11309700000.0 11309700000.0 11309700000.0 11309700000.0 11309700000.0 11309700000.0 11309700000.0 11309700000.0 11309700000.0 11309700000.0 11309700000.0 11309700000.0 11309700000.0 11309700000.0 11309700000.0 11309700000.0 11309700000.0 11309700000.0 11309700000.0 11309700000.0 11309700000.0 11309700000.0 11309700000.0 11309700000.0 11309700000.0 11309700000.0 11309700000.0 11309700000.0 11309700000.0 11309700000.0 11309700000.0 11309700000.0 11309700000.0 11309700000.0 11309700000.0 11309700000.0 11309700000.0 11309700000.0 11309700000.0 11309700000.0 11309700000.0 11309700000.0 11309700000.0 11309700000.0 11309700000.0 11309700000.0 11309700000.0 11309700000.0 11309700000.0 11309700000.0 11309700000.0 11309700000.0 11309700000.0 11309700000.0 11309700000.0 11309700000.0 11309700000.0 11309700000.0 11309700000.0 11309700000.0 11309700000.0 11309700000.0 11309700000.0 11309700000.0 11309700000.0 11309700000.0 11309700000.0 11309700000.0 11309700000.0 11309700000.0 11309700000.0 11309700000.0 11309700000.0 11309700000.0 11309700000.0 11309700000.0 11309700000.0 11309700000.0 11309700000.0 11309700000.0 11309700000.0 11309700000.0 11309700000.0 11309700000.0 11309700000.0 11309700000.0 11309700000.0 11309700000.0 11309700000.0 11309700000.0 11309700000.0 11309700000.0 11309700000.0 11309700000.0 11309700000.0 11309700000.0 11309700000.0 11309700000.0 11309700000.0 11309700000.0 11309700000.0 11309700000.0 11309700000.0 11309700000.0 11309700000.0 11309700000.0 11309700000.0 11309700000.0 11309700000.0 11309700000.0 11309700000.0 11309700000.0 11309700000.0 11309700000.0 11309700000.0 11309700000.0 11309700000.0 11309700000.0 11309700000.0 11309700000.0 11309700000.0 11309700000.0 11309700000.0 11309700000.0 11309700000.0 11309700000.0 11309700000.0 11309700000.0 11309700000.0 11309700000.0 11309700000.0 11309700000.0 11309700000.0 11309700000.0 11309700000.0 11309700000.0 11309700000.0 11309700000.0 11309700000.0 11309700000.0 11309700000.0 11309700000.0 11309700000.0 11309700000.0 11309700000.0 11309700000.0 11309700000.0 11309700000.0 11309700000.0 11309700000.0 11309700000.0 11309700000.0 11309700000.0 11309700000.0 11309700000.0 11309700000.0 11309700000.0 11309700000.0 11309700000.0 11309700000.0 11309700000.0 11309700000.0 11309700000.0 11309700000.0 11309700000.0 11309700000.0 11309700000.0 11309700000.0 11309700000.0 11309700000.0 11309700000.0 11309700000.0 11309700000.0 11309700000.0 11309700000.0 11309700000.0 11309700000.0 11309700000.0 11309700000.0 11309700000.0 11309700000.0 11309700000.0 11309700000.0 11309700000.0 11309700000.0 11309700000.0 11309700000.0 11309700000.0 11309700000.0 11309700000.0 11309700000.0 11309700000.0 11309700000.0 11309700000.0 11309700000.0 11309700000.0 11309700000.0 11309700000.0 11309700000.0 11309700000.0 11309700000.0 11309700000.0 11309700000.0 11309700000.0 11309700000.0 11309700000.0 11309700000.0 11309700000.0 11309700000.0 11309700000.0 11309700000.0 11309700000.0 11309700000.0 11309700000.0 11309700000.0 11309700000.0 11309700000.0 11309700000.0 11309700000.0 11309700000.0 11309700000.0 11309700000.0 11309700000.0 11309700000.0 11309700000.0 11309700000.0 11309700000.0 11309700000.0 11309700000.0 11309700000.0 11309700000.0 11309700000.0 11309700000.0 11309700000.0 11309700000.0 11309700000.0 11309700000.0 11309700000.0 11309700000.0 11309700000.0 11309700000.0 11309700000.0 11309700000.0 11309700000.0 11309700000.0 11309700000.0 11309700000.0 11309700000.0 11309700000.0 11309700000.0 11309700000.0 11309700000.0 11309700000.0 11309700000.0 11309700000.0 11309700000.0 11309700000.0 11309700000.0 11309700000.0 11309700000.0 11309700000.0 11309700000.0 11309700000.0 11309700000.0 11309700000.0 11309700000.0 11309700000.0 11309700000.0 11309700000.0 11309700000.0 11309700000.0 11309700000.0 11309700000.0 11309700000.0 11309700000.0 11309700000.0 11309700000.0 11309700000.0 11309700000.0 11309700000.0 11309700000.0 11309700000.0 11309700000.0 11309700000.0 11309700000.0 11309700000.0 11309700000.0 11309700000.0 11309700000.0 11309700000.0 11309700000.0 11309700000.0 11309700000.0 11309700000.0 11309700000.0 11309700000.0 11309700000.0 11309700000.0 11309700000.0 11309700000.0 11309700000.0 11309700000.0 11309700000.0 11309700000.0 11309700000.0 11309700000.0 11309700000.0 11309700000.0 11309700000.0 11309700000.0 11309700000.0 11309700000.0 11309700000.0 11309700000.0 11309700000.0 11309700000.0 11309700000.0 11309700000.0 11309700000.0 11309700000.0 11309700000.0 11309700000.0 11309700000.0 11309700000.0 11309700000.0 11309700000.0 11309700000.0 11309700000.0 11309700000.0 11309700000.0 11309700000.0 11309700000.0 11309700000.0 11309700000.0 11309700000.0 11309700000.0 11309700000.0 11309700000.0 11309700000.0 11309700000.0 11309700000.0 11309700000.0 11309700000.0 11309700000.0 11309700000.0 11309700000.0 11309700000.0 11309700000.0 11309700000.0 11309700000.0 11309700000.0 11309700000.0 11309700000.0 11309700000.0 11309700000.0 11309700000.0 11309700000.0 11309700000.0 11309700000.0 11309700000.0 11309700000.0 11309700000.0 11309700000.0 11309700000.0 11309700000.0 11309700000.0 11309700000.0 11309700000.0 11309700000.0 11309700000.0 11309700000.0 11309700000.0 11309700000.0 11309700000.0 11309700000.0 11309700000.0 11309700000.0 11309700000.0 11309700000.0 11309700000.0 11309700000.0 11309700000.0 11309700000.0 11309700000.0 11309700000.0 11309700000.0 11309700000.0 11309700000.0 11309700000.0 11309700000.0 11309700000.0 11309700000.0 11309700000.0 11309700000.0 11309700000.0 11309700000.0 11309700000.0 11309700000.0 11309700000.0 11309700000.0 11309700000.0 11309700000.0 11309700000.0 11309700000.0 11309700000.0 11309700000.0 11309700000.0 11309700000.0 11309700000.0 11309700000.0 11309700000.0 11309700000.0 11309700000.0 11309700000.0 11309700000.0 11309700000.0 11309700000.0 11309700000.0 11309700000.0 11309700000.0 11309700000.0 11309700000.0 11309700000.0 11309700000.0 11309700000.0 11309700000.0 11309700000.0 11309700000.0 11309700000.0 11309700000.0 11309700000.0 11309700000.0 11309700000.0 11309700000.0 11309700000.0 11309700000.0 11309700000.0 11309700000.0 11309700000.0 11309700000.0 11309700000.0 11309700000.0 11309700000.0 11309700000.0 11309700000.0 11309700000.0 11309700000.0 11309700000.0 11309700000.0 11309700000.0 11309700000.0 11309700000.0 11309700000.0 11309700000.0 11309700000.0 11309700000.0 11309700000.0 11309700000.0 11309700000.0 11309700000.0 11309700000.0 11309700000.0 11309700000.0 11309700000.0 11309700000.0 11309700000.0 11309700000.0 11309700000.0 11309700000.0 11309700000.0 11309700000.0 11309700000.0 11309700000.0 11309700000.0 11309700000.0 11309700000.0 11309700000.0 11309700000.0 11309700000.0 11309700000.0 11309700000.0 11309700000.0 11309700000.0 11309700000.0 11309700000.0 11309700000.0 11309700000.0 11309700000.0 11309700000.0 11309700000.0 11309700000.0 11309700000.0 11309700000.0 11309700000.0 11309700000.0 11309700000.0 11309700000.0 11309700000.0 11309700000.0 11309700000.0 11309700000.0 11309700000.0 11309700000.0 11309700000.0 11309700000.0 11309700000.0 11309700000.0 11309700000.0 11309700000.0 11309700000.0 11309700000.0 11309700000.0 11309700000.0 11309700000.0 11309700000.0 11309700000.0 11309700000.0 11309700000.0 11309700000.0 11309700000.0 11309700000.0 11309700000.0 11309700000.0 11309700000.0 11309700000.0 11309700000.0 11309700000.0 11309700000.0 11309700000.0 11309700000.0 11309700000.0 11309700000.0 11309700000.0 11309700000.0 11309700000.0 11309700000.0 11309700000.0 11309700000.0 11309700000.0 11309700000.0 11309700000.0 11309700000.0 11309700000.0 11309700000.0 11309700000.0 11309700000.0 11309700000.0 11309700000.0 11309700000.0 11309700000.0 11309700000.0 11309700000.0 11309700000.0 11309700000.0 11309700000.0 11309700000.0 11309700000.0 11309700000.0 11309700000.0 11309700000.0 11309700000.0 11309700000.0 11309700000.0 11309700000.0 11309700000.0 11309700000.0 11309700000.0 11309700000.0 11309700000.0 11309700000.0 11309700000.0 11309700000.0 11309700000.0 11309700000.0 11309700000.0 11309700000.0 11309700000.0 11309700000.0 11309700000.0 11309700000.0 11309700000.0 11309700000.0 11309700000.0 11309700000.0 11309700000.0 11309700000.0 11309700000.0 11309700000.0 11309700000.0 11309700000.0 11309700000.0 11309700000.0 11309700000.0 11309700000.0 11309700000.0 11309700000.0 11309700000.0 11309700000.0 11309700000.0 11309700000.0 11309700000.0 11309700000.0 11309700000.0 11309700000.0 11309700000.0 11309700000.0 11309700000.0 11309700000.0 11309700000.0 11309700000.0 11309700000.0 11309700000.0 11309700000.0 11309700000.0 11309700000.0 11309700000.0 11309700000.0 11309700000.0 11309700000.0 11309700000.0 11309700000.0 11309700000.0 11309700000.0 11309700000.0 11309700000.0 11309700000.0 11309700000.0 11309700000.0 11309700000.0 11309700000.0 11309700000.0 11309700000.0 11309700000.0 11309700000.0 11309700000.0 11309700000.0 11309700000.0 11309700000.0 11309700000.0 11309700000.0 11309700000.0 11309700000.0 11309700000.0 11309700000.0 11309700000.0 11309700000.0 11309700000.0 11309700000.0 11309700000.0 11309700000.0 11309700000.0 11309700000.0 11309700000.0 11309700000.0 11309700000.0 11309700000.0 11309700000.0 11309700000.0 11309700000.0 11309700000.0 11309700000.0 11309700000.0 11309700000.0 11309700000.0 11309700000.0 11309700000.0 11309700000.0 11309700000.0 11309700000.0 11309700000.0 11309700000.0 11309700000.0 11309700000.0 11309700000.0 11309700000.0 11309700000.0 11309700000.0 11309700000.0 11309700000.0 11309700000.0 11309700000.0 11309700000.0 11309700000.0 11309700000.0 11309700000.0 11309700000.0 11309700000.0 11309700000.0 11309700000.0 11309700000.0 11309700000.0 11309700000.0 11309700000.0 11309700000.0 11309700000.0 11309700000.0 11309700000.0 11309700000.0 11309700000.0 11309700000.0 11309700000.0 11309700000.0 11309700000.0 11309700000.0 11309700000.0 11309700000.0 11309700000.0 11309700000.0 11309700000.0 11309700000.0 11309700000.0 11309700000.0 11309700000.0 11309700000.0 11309700000.0 11309700000.0 11309700000.0 11309700000.0 11309700000.0 11309700000.0 11309700000.0 11309700000.0 11309700000.0 11309700000.0 11309700000.0 11309700000.0 11309700000.0 11309700000.0 11309700000.0 11309700000.0 11309700000.0 11309700000.0 11309700000.0 11309700000.0 11309700000.0 11309700000.0 11309700000.0 11309700000.0 11309700000.0 11309700000.0 11309700000.0 11309700000.0 11309700000.0 11309700000.0 11309700000.0 11309700000.0 11309700000.0 11309700000.0 11309700000.0 11309700000.0 11309700000.0 11309700000.0 11309700000.0 11309700000.0 11309700000.0 11309700000.0 11309700000.0 11309700000.0 11309700000.0 11309700000.0 11309700000.0 11309700000.0 11309700000.0 11309700000.0 11309700000.0 11309700000.0 11309700000.0 11309700000.0 11309700000.0 11309700000.0 11309700000.0 11309700000.0 11309700000.0 11309700000.0 11309700000.0 11309700000.0 11309700000.0 11309700000.0 11309700000.0 11309700000.0 11309700000.0 11309700000.0 11309700000.0 11309700000.0 11309700000.0 11309700000.0 11309700000.0 11309700000.0 11309700000.0 11309700000.0 11309700000.0 11309700000.0 11309700000.0 11309700000.0 11309700000.0 11309700000.0 11309700000.0 11309700000.0 11309700000.0 11309700000.0 11309700000.0 11309700000.0 11309700000.0 11309700000.0 11309700000.0 11309700000.0 11309700000.0 11309700000.0 11309700000.0 11309700000.0 11309700000.0 11309700000.0 11309700000.0 11309700000.0 11309700000.0 11309700000.0 11309700000.0 11309700000.0 11309700000.0 11309700000.0 11309700000.0 11309700000.0 11309700000.0 11309700000.0 11309700000.0 11309700000.0 11309700000.0 11309700000.0 11309700000.0 11309700000.0 11309700000.0 11309700000.0 11309700000.0 11309700000.0 11309700000.0 11309700000.0 11309700000.0 11309700000.0 11309700000.0 11309700000.0 11309700000.0 11309700000.0 11309700000.0 11309700000.0 11309700000.0 11309700000.0 11309700000.0 11309700000.0 11309700000.0 11309700000.0 11309700000.0 11309700000.0 11309700000.0 11309700000.0 11309700000.0 11309700000.0 11309700000.0 11309700000.0 11309700000.0 11309700000.0 11309700000.0 11309700000.0 11309700000.0 11309700000.0 11309700000.0 11309700000.0 11309700000.0 11309700000.0 11309700000.0 11309700000.0 11309700000.0 11309700000.0 11309700000.0 11309700000.0 11309700000.0 11309700000.0 11309700000.0 11309700000.0 11309700000.0 11309700000.0 11309700000.0 11309700000.0 11309700000.0 11309700000.0 11309700000.0 11309700000.0 11309700000.0 11309700000.0 11309700000.0 11309700000.0 11309700000.0 11309700000.0 11309700000.0 11309700000.0 11309700000.0 11309700000.0 11309700000.0 11309700000.0 11309700000.0 11309700000.0 11309700000.0 11309700000.0 11309700000.0 11309700000.0 11309700000.0 11309700000.0 11309700000.0 11309700000.0 11309700000.0 11309700000.0 11309700000.0 11309700000.0 11309700000.0 11309700000.0 11309700000.0 11309700000.0 11309700000.0 11309700000.0 11309700000.0 11309700000.0 11309700000.0 11309700000.0 11309700000.0 11309700000.0 11309700000.0 11309700000.0 11309700000.0 11309700000.0 11309700000.0 11309700000.0 11309700000.0 11309700000.0 11309700000.0 11309700000.0 11309700000.0 11309700000.0 11309700000.0 11309700000.0 11309700000.0 11309700000.0 11309700000.0 11309700000.0 11309700000.0 11309700000.0 11309700000.0 11309700000.0 11309700000.0 11309700000.0 11309700000.0 11309700000.0 11309700000.0 11309700000.0 11309700000.0 11309700000.0 11309700000.0 11309700000.0 11309700000.0 11309700000.0 11309700000.0 11309700000.0 11309700000.0 11309700000.0 11309700000.0 11309700000.0 11309700000.0 11309700000.0 11309700000.0 11309700000.0 11309700000.0 11309700000.0 11309700000.0 11309700000.0 11309700000.0 11309700000.0 11309700000.0 11309700000.0 11309700000.0 11309700000.0 11309700000.0 11309700000.0 11309700000.0 11309700000.0 11309700000.0 11309700000.0 11309700000.0 11309700000.0 11309700000.0 11309700000.0 11309700000.0 11309700000.0 11309700000.0 11309700000.0 11309700000.0 11309700000.0 11309700000.0 11309700000.0 11309700000.0 11309700000.0 11309700000.0 11309700000.0 11309700000.0 11309700000.0 11309700000.0 11309700000.0 11309700000.0 11309700000.0 11309700000.0 11309700000.0 11309700000.0 11309700000.0 11309700000.0 11309700000.0 11309700000.0 11309700000.0 11309700000.0 11309700000.0 11309700000.0 11309700000.0 11309700000.0 11309700000.0 11309700000.0 11309700000.0 11309700000.0 11309700000.0 11309700000.0 11309700000.0 11309700000.0 11309700000.0 11309700000.0 11309700000.0 11309700000.0 11309700000.0 11309700000.0 11309700000.0 11309700000.0 11309700000.0 11309700000.0 11309700000.0 11309700000.0 11309700000.0 11309700000.0 11309700000.0 11309700000.0 11309700000.0 11309700000.0 11309700000.0 11309700000.0 11309700000.0 11309700000.0 11309700000.0 11309700000.0 11309700000.0 11309700000.0 11309700000.0 11309700000.0 11309700000.0 11309700000.0 11309700000.0 11309700000.0 11309700000.0 11309700000.0 11309700000.0 11309700000.0 11309700000.0 11309700000.0 11309700000.0 11309700000.0 11309700000.0 11309700000.0 11309700000.0 11309700000.0 11309700000.0 11309700000.0 11309700000.0 11309700000.0 11309700000.0 11309700000.0 11309700000.0 11309700000.0 11309700000.0 11309700000.0 11309700000.0 11309700000.0 11309700000.0 11309700000.0 11309700000.0 11309700000.0 11309700000.0 11309700000.0 11309700000.0 11309700000.0 11309700000.0 11309700000.0 11309700000.0 11309700000.0 11309700000.0 11309700000.0 11309700000.0 11309700000.0 11309700000.0 11309700000.0 11309700000.0 11309700000.0 11309700000.0 11309700000.0 11309700000.0 11309700000.0 11309700000.0 11309700000.0 11309700000.0 11309700000.0 11309700000.0 11309700000.0 11309700000.0 11309700000.0 11309700000.0 11309700000.0 11309700000.0 11309700000.0 11309700000.0 11309700000.0 11309700000.0 11309700000.0 11309700000.0 11309700000.0 11309700000.0 11309700000.0 11309700000.0 11309700000.0 11309700000.0 11309700000.0 11309700000.0 11309700000.0 11309700000.0 11309700000.0 11309700000.0 11309700000.0 11309700000.0 11309700000.0 11309700000.0 11309700000.0 11309700000.0 11309700000.0 11309700000.0 11309700000.0 11309700000.0 11309700000.0 11309700000.0 11309700000.0 11309700000.0 11309700000.0 11309700000.0 11309700000.0 11309700000.0 11309700000.0 11309700000.0 11309700000.0 11309700000.0 11309700000.0 11309700000.0 11309700000.0 11309700000.0 11309700000.0 11309700000.0 11309700000.0 11309700000.0 11309700000.0 11309700000.0 11309700000.0 11309700000.0 11309700000.0 11309700000.0 11309700000.0 11309700000.0 11309700000.0 11309700000.0 11309700000.0 11309700000.0 11309700000.0 11309700000.0 11309700000.0 11309700000.0 11309700000.0 11309700000.0 11309700000.0 11309700000.0 11309700000.0 11309700000.0 11309700000.0 11309700000.0 11309700000.0 11309700000.0 11309700000.0 11309700000.0 11309700000.0 11309700000.0 11309700000.0 11309700000.0 11309700000.0 11309700000.0 11309700000.0 11309700000.0 11309700000.0 11309700000.0 11309700000.0 11309700000.0 11309700000.0 11309700000.0 11309700000.0 11309700000.0 11309700000.0 11309700000.0 11309700000.0 11309700000.0 11309700000.0 11309700000.0 11309700000.0 11309700000.0 11309700000.0 11309700000.0 11309700000.0 11309700000.0 11309700000.0 11309700000.0 11309700000.0 11309700000.0 11309700000.0 11309700000.0 11309700000.0 11309700000.0 11309700000.0 11309700000.0 11309700000.0 11309700000.0 11309700000.0 11309700000.0 11309700000.0 11309700000.0 11309700000.0 11309700000.0 11309700000.0 11309700000.0 11309700000.0 11309700000.0 11309700000.0 11309700000.0 11309700000.0 11309700000.0 11309700000.0 11309700000.0 11309700000.0 11309700000.0 11309700000.0 11309700000.0 11309700000.0 11309700000.0 11309700000.0 11309700000.0 11309700000.0 11309700000.0 11309700000.0 11309700000.0 11309700000.0 11309700000.0 11309700000.0 11309700000.0 11309700000.0 11309700000.0 11309700000.0 11309700000.0 11309700000.0 11309700000.0 11309700000.0 11309700000.0 11309700000.0 11309700000.0 11309700000.0 11309700000.0 11309700000.0 11309700000.0 11309700000.0 11309700000.0 11309700000.0 11309700000.0 11309700000.0 11309700000.0 11309700000.0 11309700000.0 11309700000.0 11309700000.0 11309700000.0 11309700000.0 11309700000.0 11309700000.0 11309700000.0 11309700000.0 11309700000.0 11309700000.0 11309700000.0 11309700000.0 11309700000.0 11309700000.0 11309700000.0 11309700000.0 11309700000.0 11309700000.0 11309700000.0 11309700000.0 11309700000.0 11309700000.0 11309700000.0 11309700000.0 11309700000.0 11309700000.0 11309700000.0 11309700000.0 11309700000.0 11309700000.0 11309700000.0 11309700000.0 11309700000.0 11309700000.0 11309700000.0 11309700000.0 11309700000.0 11309700000.0 11309700000.0 11309700000.0 11309700000.0 11309700000.0 11309700000.0 11309700000.0 11309700000.0 11309700000.0 11309700000.0 11309700000.0 11309700000.0 11309700000.0 11309700000.0 11309700000.0 11309700000.0 11309700000.0 11309700000.0 11309700000.0 11309700000.0 11309700000.0 11309700000.0 11309700000.0 11309700000.0 11309700000.0 11309700000.0 11309700000.0 11309700000.0 11309700000.0 11309700000.0 11309700000.0 11309700000.0 11309700000.0 11309700000.0 11309700000.0 11309700000.0 11309700000.0 11309700000.0 11309700000.0 11309700000.0 11309700000.0 11309700000.0 11309700000.0 11309700000.0 11309700000.0 11309700000.0 11309700000.0 11309700000.0 11309700000.0 11309700000.0 11309700000.0 11309700000.0 11309700000.0 11309700000.0 11309700000.0 11309700000.0 11309700000.0 11309700000.0 11309700000.0 11309700000.0 11309700000.0 11309700000.0 11309700000.0 11309700000.0 11309700000.0 11309700000.0 11309700000.0 11309700000.0 11309700000.0 11309700000.0 11309700000.0 11309700000.0 11309700000.0 11309700000.0 11309700000.0 11309700000.0 11309700000.0 11309700000.0 11309700000.0 11309700000.0 11309700000.0 11309700000.0 11309700000.0 11309700000.0 11309700000.0 11309700000.0 11309700000.0 11309700000.0 11309700000.0 11309700000.0 11309700000.0 11309700000.0 11309700000.0 11309700000.0 11309700000.0 11309700000.0 11309700000.0 11309700000.0 11309700000.0 11309700000.0 11309700000.0 11309700000.0 11309700000.0 11309700000.0 11309700000.0 11309700000.0 11309700000.0 11309700000.0 11309700000.0 11309700000.0 11309700000.0 11309700000.0 11309700000.0 11309700000.0 11309700000.0 11309700000.0 11309700000.0 11309700000.0 11309700000.0 11309700000.0 11309700000.0 11309700000.0 11309700000.0 11309700000.0 11309700000.0 11309700000.0 11309700000.0 11309700000.0 11309700000.0 11309700000.0 11309700000.0 11309700000.0 11309700000.0 11309700000.0 11309700000.0 11309700000.0 11309700000.0 11309700000.0 11309700000.0 11309700000.0 11309700000.0 11309700000.0 11309700000.0 11309700000.0 11309700000.0 11309700000.0 11309700000.0 11309700000.0 11309700000.0 11309700000.0 11309700000.0 11309700000.0 11309700000.0 11309700000.0 11309700000.0 11309700000.0 11309700000.0 11309700000.0 11309700000.0 11309700000.0 11309700000.0 11309700000.0 11309700000.0 11309700000.0 11309700000.0 11309700000.0 11309700000.0 11309700000.0 11309700000.0 11309700000.0 11309700000.0 11309700000.0 11309700000.0 11309700000.0 11309700000.0 11309700000.0 11309700000.0 11309700000.0 11309700000.0 11309700000.0 11309700000.0 11309700000.0 11309700000.0 11309700000.0 11309700000.0 11309700000.0 11309700000.0 11309700000.0 11309700000.0 11309700000.0 11309700000.0 11309700000.0 11309700000.0 11309700000.0 11309700000.0 11309700000.0 11309700000.0 11309700000.0 11309700000.0 11309700000.0 11309700000.0 11309700000.0 11309700000.0 11309700000.0 11309700000.0 11309700000.0 11309700000.0 11309700000.0 11309700000.0 11309700000.0 11309700000.0 11309700000.0 11309700000.0 11309700000.0 11309700000.0 11309700000.0 11309700000.0 11309700000.0 11309700000.0 11309700000.0 11309700000.0 11309700000.0 11309700000.0 11309700000.0 11309700000.0 11309700000.0 11309700000.0 11309700000.0 11309700000.0 11309700000.0 11309700000.0 11309700000.0 11309700000.0 11309700000.0 11309700000.0 11309700000.0 11309700000.0 11309700000.0 11309700000.0 11309700000.0 11309700000.0 11309700000.0 11309700000.0 11309700000.0 11309700000.0 11309700000.0 11309700000.0 11309700000.0 11309700000.0 11309700000.0 11309700000.0 11309700000.0 11309700000.0 11309700000.0 11309700000.0 11309700000.0 11309700000.0 11309700000.0 11309700000.0 11309700000.0 11309700000.0 11309700000.0 11309700000.0 11309700000.0 11309700000.0 11309700000.0 11309700000.0 11309700000.0 11309700000.0 11309700000.0 11309700000.0 11309700000.0 11309700000.0 11309700000.0 11309700000.0 11309700000.0 11309700000.0 11309700000.0 11309700000.0 11309700000.0 11309700000.0 11309700000.0 11309700000.0 11309700000.0 11309700000.0 11309700000.0 11309700000.0 11309700000.0 11309700000.0 11309700000.0 11309700000.0 11309700000.0 11309700000.0 11309700000.0 11309700000.0 11309700000.0 11309700000.0 11309700000.0 11309700000.0 11309700000.0 11309700000.0 11309700000.0 11309700000.0 11309700000.0 11309700000.0 11309700000.0 11309700000.0 11309700000.0 11309700000.0 11309700000.0 11309700000.0 11309700000.0 11309700000.0 11309700000.0 11309700000.0 11309700000.0 11309700000.0 11309700000.0 11309700000.0 11309700000.0 11309700000.0 11309700000.0 11309700000.0 11309700000.0 11309700000.0 11309700000.0 11309700000.0 11309700000.0 11309700000.0 11309700000.0 11309700000.0 11309700000.0 11309700000.0 11309700000.0 11309700000.0 11309700000.0 11309700000.0 11309700000.0 11309700000.0 11309700000.0 11309700000.0 11309700000.0 11309700000.0 11309700000.0 11309700000.0 11309700000.0 11309700000.0 11309700000.0 11309700000.0 11309700000.0 11309700000.0 11309700000.0 11309700000.0 11309700000.0 11309700000.0 11309700000.0 11309700000.0 11309700000.0 11309700000.0 11309700000.0 11309700000.0 11309700000.0 11309700000.0 11309700000.0 11309700000.0 11309700000.0 11309700000.0 11309700000.0 11309700000.0 11309700000.0 11309700000.0 11309700000.0 11309700000.0 11309700000.0 11309700000.0 11309700000.0 11309700000.0 11309700000.0 11309700000.0 11309700000.0 11309700000.0 11309700000.0 11309700000.0 11309700000.0 11309700000.0 11309700000.0 11309700000.0 11309700000.0 11309700000.0 11309700000.0 11309700000.0 11309700000.0 11309700000.0 11309700000.0 11309700000.0 11309700000.0 11309700000.0 11309700000.0 11309700000.0 11309700000.0 11309700000.0 11309700000.0 11309700000.0 11309700000.0 11309700000.0 11309700000.0 11309700000.0 11309700000.0 11309700000.0 11309700000.0 11309700000.0 11309700000.0 11309700000.0 11309700000.0 11309700000.0 11309700000.0 11309700000.0 11309700000.0 11309700000.0 11309700000.0 11309700000.0 11309700000.0 11309700000.0 11309700000.0 11309700000.0 11309700000.0 11309700000.0 11309700000.0 11309700000.0 11309700000.0 11309700000.0 11309700000.0 11309700000.0 11309700000.0 11309700000.0 11309700000.0 11309700000.0 11309700000.0 11309700000.0 11309700000.0 11309700000.0 11309700000.0 11309700000.0 11309700000.0 11309700000.0 11309700000.0 11309700000.0 11309700000.0 11309700000.0 11309700000.0 11309700000.0 11309700000.0 11309700000.0 11309700000.0 11309700000.0 11309700000.0 11309700000.0 11309700000.0 11309700000.0 11309700000.0 11309700000.0 11309700000.0 11309700000.0 11309700000.0 11309700000.0 11309700000.0 11309700000.0 11309700000.0 11309700000.0 11309700000.0 11309700000.0 11309700000.0 11309700000.0 11309700000.0 11309700000.0 11309700000.0 11309700000.0 11309700000.0 11309700000.0 11309700000.0 11309700000.0 11309700000.0 11309700000.0 11309700000.0 11309700000.0 11309700000.0 11309700000.0 11309700000.0 11309700000.0 11309700000.0 11309700000.0 11309700000.0 11309700000.0 11309700000.0 11309700000.0 11309700000.0 11309700000.0 11309700000.0 11309700000.0 11309700000.0 11309700000.0 11309700000.0 11309700000.0 11309700000.0 11309700000.0 11309700000.0 11309700000.0 11309700000.0 11309700000.0 11309700000.0 11309700000.0 11309700000.0 11309700000.0 11309700000.0 11309700000.0 11309700000.0 11309700000.0 11309700000.0 11309700000.0 11309700000.0 11309700000.0 11309700000.0 11309700000.0 11309700000.0 11309700000.0 11309700000.0 11309700000.0 11309700000.0 11309700000.0 11309700000.0 11309700000.0 11309700000.0 11309700000.0 11309700000.0 11309700000.0 11309700000.0 11309700000.0 11309700000.0 11309700000.0 11309700000.0 11309700000.0 11309700000.0 11309700000.0 11309700000.0 11309700000.0 11309700000.0 11309700000.0 11309700000.0 11309700000.0 11309700000.0 11309700000.0 11309700000.0 11309700000.0 11309700000.0 11309700000.0 11309700000.0 11309700000.0 11309700000.0 11309700000.0 11309700000.0 11309700000.0 11309700000.0 11309700000.0 11309700000.0 11309700000.0 11309700000.0 11309700000.0 11309700000.0 11309700000.0 11309700000.0 11309700000.0 11309700000.0 11309700000.0 11309700000.0 11309700000.0 11309700000.0 11309700000.0 11309700000.0 11309700000.0 11309700000.0 11309700000.0 11309700000.0 11309700000.0 11309700000.0 11309700000.0 11309700000.0 11309700000.0 11309700000.0 11309700000.0 11309700000.0 11309700000.0 11309700000.0 11309700000.0 11309700000.0 11309700000.0 11309700000.0 11309700000.0 11309700000.0 11309700000.0 11309700000.0 11309700000.0 11309700000.0 11309700000.0 11309700000.0 11309700000.0 11309700000.0 11309700000.0 11309700000.0 11309700000.0 11309700000.0 11309700000.0 11309700000.0 11309700000.0 11309700000.0 11309700000.0 11309700000.0 11309700000.0 11309700000.0 11309700000.0 11309700000.0 11309700000.0 11309700000.0 11309700000.0 11309700000.0 11309700000.0 11309700000.0 11309700000.0 11309700000.0 11309700000.0 11309700000.0 11309700000.0 11309700000.0 11309700000.0 11309700000.0 11309700000.0 11309700000.0 11309700000.0 11309700000.0 11309700000.0 11309700000.0 11309700000.0 11309700000.0 11309700000.0 11309700000.0 11309700000.0 11309700000.0 11309700000.0 11309700000.0 11309700000.0 11309700000.0 11309700000.0 11309700000.0 11309700000.0 11309700000.0 11309700000.0 11309700000.0 11309700000.0 11309700000.0 11309700000.0 11309700000.0 11309700000.0 11309700000.0 11309700000.0 11309700000.0 11309700000.0 11309700000.0 11309700000.0 11309700000.0 11309700000.0 11309700000.0 11309700000.0 11309700000.0 11309700000.0 11309700000.0 11309700000.0 11309700000.0 11309700000.0 11309700000.0 11309700000.0 11309700000.0 11309700000.0 11309700000.0 11309700000.0 11309700000.0 11309700000.0 11309700000.0 11309700000.0 11309700000.0 11309700000.0 11309700000.0 11309700000.0 11309700000.0 11309700000.0 11309700000.0 11309700000.0 11309700000.0 11309700000.0 11309700000.0 11309700000.0 11309700000.0 11309700000.0 11309700000.0 11309700000.0 11309700000.0 11309700000.0 11309700000.0 11309700000.0 11309700000.0 11309700000.0 11309700000.0 11309700000.0 11309700000.0 11309700000.0 11309700000.0 11309700000.0 11309700000.0 11309700000.0 11309700000.0 11309700000.0 11309700000.0 11309700000.0 11309700000.0 11309700000.0 11309700000.0 11309700000.0 11309700000.0 11309700000.0 11309700000.0 11309700000.0 11309700000.0 11309700000.0 11309700000.0 11309700000.0 11309700000.0 11309700000.0 11309700000.0 11309700000.0 11309700000.0 11309700000.0 11309700000.0 11309700000.0 11309700000.0 11309700000.0 11309700000.0 11309700000.0 11309700000.0 11309700000.0 11309700000.0 11309700000.0 11309700000.0 11309700000.0 11309700000.0 11309700000.0 11309700000.0 11309700000.0 11309700000.0 11309700000.0 11309700000.0 11309700000.0 11309700000.0 11309700000.0 11309700000.0 11309700000.0 11309700000.0 11309700000.0 11309700000.0 11309700000.0 11309700000.0 11309700000.0 11309700000.0 11309700000.0 11309700000.0 11309700000.0 11309700000.0 11309700000.0 11309700000.0 11309700000.0 11309700000.0 11309700000.0 11309700000.0 11309700000.0 11309700000.0 11309700000.0 11309700000.0 11309700000.0 11309700000.0 11309700000.0 11309700000.0 11309700000.0 11309700000.0 11309700000.0 11309700000.0 11309700000.0 11309700000.0 11309700000.0 11309700000.0 11309700000.0 11309700000.0 11309700000.0 11309700000.0 11309700000.0 11309700000.0 11309700000.0 11309700000.0 11309700000.0 11309700000.0 11309700000.0 11309700000.0 11309700000.0 11309700000.0 11309700000.0 11309700000.0 11309700000.0 11309700000.0 11309700000.0 11309700000.0 11309700000.0 11309700000.0 11309700000.0 11309700000.0 11309700000.0 11309700000.0 11309700000.0 11309700000.0 11309700000.0 11309700000.0 11309700000.0 11309700000.0 11309700000.0 11309700000.0 11309700000.0 11309700000.0 11309700000.0 11309700000.0 11309700000.0 11309700000.0 11309700000.0 11309700000.0 11309700000.0 11309700000.0 11309700000.0 11309700000.0 11309700000.0 11309700000.0 11309700000.0 11309700000.0 11309700000.0 11309700000.0 11309700000.0 11309700000.0 11309700000.0 11309700000.0 11309700000.0 11309700000.0 11309700000.0 11309700000.0 11309700000.0 11309700000.0 11309700000.0 11309700000.0 11309700000.0 11309700000.0 11309700000.0 11309700000.0 11309700000.0 11309700000.0 11309700000.0 11309700000.0 11309700000.0 11309700000.0 11309700000.0 11309700000.0 11309700000.0 11309700000.0 11309700000.0 11309700000.0 11309700000.0 11309700000.0 11309700000.0 11309700000.0 11309700000.0 11309700000.0 11309700000.0 11309700000.0 11309700000.0 11309700000.0 11309700000.0 11309700000.0 11309700000.0 11309700000.0 11309700000.0 11309700000.0 11309700000.0 11309700000.0 11309700000.0 11309700000.0 11309700000.0 11309700000.0 11309700000.0 11309700000.0 11309700000.0 11309700000.0 11309700000.0 11309700000.0 11309700000.0 11309700000.0 11309700000.0 11309700000.0 11309700000.0 11309700000.0 11309700000.0 11309700000.0 11309700000.0 11309700000.0 11309700000.0 11309700000.0 11309700000.0 11309700000.0 11309700000.0 11309700000.0 11309700000.0 11309700000.0 11309700000.0 11309700000.0 11309700000.0 11309700000.0 11309700000.0 11309700000.0 11309700000.0 11309700000.0 11309700000.0 11309700000.0 11309700000.0 11309700000.0 11309700000.0 11309700000.0 11309700000.0 11309700000.0 11309700000.0 11309700000.0 11309700000.0 11309700000.0 11309700000.0 11309700000.0 11309700000.0 11309700000.0 11309700000.0 11309700000.0 11309700000.0 11309700000.0 11309700000.0 11309700000.0 11309700000.0 11309700000.0 11309700000.0 11309700000.0 11309700000.0 11309700000.0 11309700000.0 11309700000.0 11309700000.0 11309700000.0 11309700000.0 11309700000.0 11309700000.0 11309700000.0 11309700000.0 11309700000.0 11309700000.0 11309700000.0 11309700000.0 11309700000.0 11309700000.0 11309700000.0 11309700000.0 11309700000.0 11309700000.0 11309700000.0 11309700000.0 11309700000.0 11309700000.0 11309700000.0 11309700000.0 11309700000.0 11309700000.0 11309700000.0 11309700000.0 11309700000.0 11309700000.0 11309700000.0 11309700000.0 11309700000.0 11309700000.0 11309700000.0 11309700000.0 11309700000.0 11309700000.0 11309700000.0 11309700000.0 11309700000.0 11309700000.0 11309700000.0 11309700000.0 11309700000.0 11309700000.0 11309700000.0 11309700000.0 11309700000.0 11309700000.0 11309700000.0 11309700000.0 11309700000.0 11309700000.0 11309700000.0 11309700000.0 11309700000.0 11309700000.0 11309700000.0 11309700000.0 11309700000.0 11309700000.0 11309700000.0 11309700000.0 11309700000.0 11309700000.0 11309700000.0 11309700000.0 11309700000.0 11309700000.0 11309700000.0 11309700000.0 11309700000.0 11309700000.0 11309700000.0 11309700000.0 11309700000.0 11309700000.0 11309700000.0 11309700000.0 11309700000.0 11309700000.0 11309700000.0 11309700000.0 11309700000.0 11309700000.0 11309700000.0 11309700000.0 11309700000.0 11309700000.0 11309700000.0 11309700000.0 11309700000.0 11309700000.0 11309700000.0 11309700000.0 11309700000.0 11309700000.0 11309700000.0 11309700000.0 11309700000.0 11309700000.0 11309700000.0 11309700000.0 11309700000.0 11309700000.0 11309700000.0 11309700000.0 11309700000.0 11309700000.0 11309700000.0 11309700000.0 11309700000.0 11309700000.0 11309700000.0 11309700000.0 11309700000.0 11309700000.0 11309700000.0 11309700000.0 11309700000.0 11309700000.0 11309700000.0 11309700000.0 11309700000.0 11309700000.0 11309700000.0 11309700000.0 11309700000.0 11309700000.0 11309700000.0 11309700000.0 11309700000.0 11309700000.0 11309700000.0 11309700000.0 11309700000.0 11309700000.0 11309700000.0 11309700000.0 11309700000.0 11309700000.0 11309700000.0 11309700000.0 11309700000.0 11309700000.0 11309700000.0 11309700000.0 11309700000.0 11309700000.0 11309700000.0 11309700000.0 11309700000.0 11309700000.0 11309700000.0 11309700000.0 11309700000.0 11309700000.0 11309700000.0 11309700000.0 11309700000.0 11309700000.0 11309700000.0 11309700000.0 11309700000.0 11309700000.0 11309700000.0 11309700000.0 11309700000.0 11309700000.0 11309700000.0 11309700000.0 11309700000.0 11309700000.0 11309700000.0 11309700000.0 11309700000.0 11309700000.0 11309700000.0 11309700000.0 11309700000.0 11309700000.0 11309700000.0 11309700000.0 11309700000.0 11309700000.0 11309700000.0 11309700000.0 11309700000.0 11309700000.0 11309700000.0 11309700000.0 11309700000.0 11309700000.0 11309700000.0 11309700000.0 11309700000.0 11309700000.0 11309700000.0 11309700000.0 11309700000.0 11309700000.0 11309700000.0 11309700000.0 11309700000.0 11309700000.0 11309700000.0 11309700000.0 11309700000.0 11309700000.0 11309700000.0 11309700000.0 11309700000.0 11309700000.0 11309700000.0 11309700000.0 11309700000.0 11309700000.0 11309700000.0 11309700000.0 11309700000.0 11309700000.0 11309700000.0 11309700000.0 11309700000.0 11309700000.0 11309700000.0 11309700000.0 11309700000.0 11309700000.0 11309700000.0 11309700000.0 11309700000.0 11309700000.0 11309700000.0 11309700000.0 11309700000.0 11309700000.0 11309700000.0 11309700000.0 11309700000.0 11309700000.0 11309700000.0 11309700000.0 11309700000.0 11309700000.0 11309700000.0 11309700000.0 11309700000.0 11309700000.0 11309700000.0 11309700000.0 11309700000.0 11309700000.0 11309700000.0 11309700000.0 11309700000.0 11309700000.0 11309700000.0 11309700000.0 11309700000.0 11309700000.0 11309700000.0 11309700000.0 11309700000.0 11309700000.0 11309700000.0 11309700000.0 11309700000.0 11309700000.0 11309700000.0 11309700000.0 11309700000.0 11309700000.0 11309700000.0 11309700000.0 11309700000.0 11309700000.0 11309700000.0 11309700000.0 11309700000.0 11309700000.0 11309700000.0 11309700000.0 11309700000.0 11309700000.0 11309700000.0 11309700000.0 11309700000.0 11309700000.0 11309700000.0 11309700000.0 11309700000.0 11309700000.0 11309700000.0 11309700000.0 11309700000.0 11309700000.0 11309700000.0 11309700000.0 11309700000.0 11309700000.0 11309700000.0 11309700000.0 11309700000.0 11309700000.0 11309700000.0 11309700000.0 11309700000.0 11309700000.0 11309700000.0 11309700000.0 11309700000.0 11309700000.0 11309700000.0 11309700000.0 11309700000.0 11309700000.0 11309700000.0 11309700000.0 11309700000.0 11309700000.0 11309700000.0 11309700000.0 11309700000.0 11309700000.0 11309700000.0 11309700000.0 11309700000.0 11309700000.0 11309700000.0 11309700000.0 11309700000.0 11309700000.0 11309700000.0 11309700000.0 11309700000.0 11309700000.0 11309700000.0 11309700000.0 11309700000.0 11309700000.0 11309700000.0 11309700000.0 11309700000.0 11309700000.0 11309700000.0 11309700000.0 11309700000.0 11309700000.0 11309700000.0 11309700000.0 11309700000.0 11309700000.0 11309700000.0 11309700000.0 11309700000.0 11309700000.0 11309700000.0 11309700000.0 11309700000.0 11309700000.0 11309700000.0 11309700000.0 11309700000.0 11309700000.0 11309700000.0 11309700000.0 11309700000.0 11309700000.0 11309700000.0 11309700000.0 11309700000.0 11309700000.0 11309700000.0 11309700000.0 11309700000.0 11309700000.0 11309700000.0 11309700000.0 11309700000.0 11309700000.0 11309700000.0 11309700000.0 11309700000.0 11309700000.0 11309700000.0 11309700000.0 11309700000.0 11309700000.0 11309700000.0 11309700000.0 11309700000.0 11309700000.0 11309700000.0 11309700000.0 11309700000.0 11309700000.0 11309700000.0 11309700000.0 11309700000.0 11309700000.0 11309700000.0 11309700000.0 11309700000.0 11309700000.0 11309700000.0 11309700000.0 11309700000.0 11309700000.0 11309700000.0 11309700000.0 11309700000.0 11309700000.0 11309700000.0 11309700000.0 11309700000.0 11309700000.0 11309700000.0 11309700000.0 11309700000.0 11309700000.0 11309700000.0 11309700000.0 11309700000.0 11309700000.0 11309700000.0 11309700000.0 11309700000.0 11309700000.0 11309700000.0 11309700000.0 11309700000.0 11309700000.0 11309700000.0 11309700000.0 11309700000.0 11309700000.0 11309700000.0 11309700000.0 11309700000.0 11309700000.0 11309700000.0 11309700000.0 11309700000.0 11309700000.0 11309700000.0 11309700000.0 11309700000.0 11309700000.0 11309700000.0 11309700000.0 11309700000.0 11309700000.0 11309700000.0 11309700000.0 11309700000.0 11309700000.0 11309700000.0 11309700000.0 11309700000.0 11309700000.0 11309700000.0 11309700000.0 11309700000.0 11309700000.0 11309700000.0 11309700000.0 11309700000.0 11309700000.0 11309700000.0 11309700000.0 11309700000.0 11309700000.0 11309700000.0 11309700000.0 11309700000.0 11309700000.0 11309700000.0 11309700000.0 11309700000.0 11309700000.0 11309700000.0 11309700000.0 11309700000.0 11309700000.0 11309700000.0 11309700000.0 11309700000.0 11309700000.0 11309700000.0 11309700000.0 11309700000.0 11309700000.0 11309700000.0 11309700000.0 11309700000.0 11309700000.0 11309700000.0 11309700000.0 11309700000.0 11309700000.0 11309700000.0 11309700000.0 11309700000.0 11309700000.0 11309700000.0 11309700000.0 11309700000.0 11309700000.0 11309700000.0 11309700000.0 11309700000.0 11309700000.0 11309700000.0 11309700000.0 11309700000.0 11309700000.0 11309700000.0 11309700000.0 11309700000.0 11309700000.0 11309700000.0 11309700000.0 11309700000.0 11309700000.0 11309700000.0 11309700000.0 11309700000.0 11309700000.0 11309700000.0 11309700000.0 11309700000.0 11309700000.0 11309700000.0 11309700000.0 11309700000.0 11309700000.0 11309700000.0 11309700000.0 11309700000.0 11309700000.0 11309700000.0 11309700000.0 11309700000.0 11309700000.0 11309700000.0 11309700000.0 11309700000.0 11309700000.0 11309700000.0 11309700000.0 11309700000.0 11309700000.0 11309700000.0 11309700000.0 11309700000.0 11309700000.0 11309700000.0 11309700000.0 11309700000.0 11309700000.0 11309700000.0 11309700000.0 11309700000.0 11309700000.0 11309700000.0 11309700000.0 11309700000.0 11309700000.0 11309700000.0 11309700000.0 11309700000.0 11309700000.0 11309700000.0 11309700000.0 11309700000.0 11309700000.0 11309700000.0 11309700000.0 11309700000.0 11309700000.0 11309700000.0 11309700000.0 11309700000.0 11309700000.0 11309700000.0 11309700000.0 11309700000.0 11309700000.0 11309700000.0 11309700000.0 11309700000.0 11309700000.0 11309700000.0 11309700000.0 11309700000.0 11309700000.0 11309700000.0 11309700000.0 11309700000.0 11309700000.0 11309700000.0 11309700000.0 11309700000.0 11309700000.0 11309700000.0 11309700000.0 11309700000.0 11309700000.0 11309700000.0 11309700000.0 11309700000.0 11309700000.0 11309700000.0 11309700000.0 11309700000.0 11309700000.0 11309700000.0 11309700000.0 11309700000.0 11309700000.0 11309700000.0 11309700000.0 11309700000.0 11309700000.0 11309700000.0 11309700000.0 11309700000.0 11309700000.0 11309700000.0 11309700000.0 11309700000.0 11309700000.0 11309700000.0 11309700000.0 11309700000.0 11309700000.0 11309700000.0 11309700000.0 11309700000.0 11309700000.0 11309700000.0 11309700000.0 11309700000.0 11309700000.0 11309700000.0 11309700000.0 11309700000.0 11309700000.0 11309700000.0 11309700000.0 11309700000.0 11309700000.0 11309700000.0 11309700000.0 11309700000.0 11309700000.0 11309700000.0 11309700000.0 11309700000.0 11309700000.0 11309700000.0 11309700000.0 11309700000.0 11309700000.0 11309700000.0 11309700000.0 11309700000.0 11309700000.0 11309700000.0 11309700000.0 11309700000.0 11309700000.0 11309700000.0 11309700000.0 11309700000.0 11309700000.0 11309700000.0 11309700000.0 11309700000.0 11309700000.0 11309700000.0 11309700000.0 11309700000.0 11309700000.0 11309700000.0 11309700000.0 11309700000.0 11309700000.0 11309700000.0 11309700000.0 11309700000.0 11309700000.0 11309700000.0 11309700000.0 11309700000.0 11309700000.0 11309700000.0 11309700000.0 11309700000.0 11309700000.0 11309700000.0 11309700000.0 11309700000.0 11309700000.0 11309700000.0 11309700000.0 11309700000.0 11309700000.0 11309700000.0 11309700000.0 11309700000.0 11309700000.0 11309700000.0 11309700000.0 11309700000.0 11309700000.0 11309700000.0 11309700000.0 11309700000.0 11309700000.0 11309700000.0 11309700000.0 11309700000.0 11309700000.0 11309700000.0 11309700000.0 11309700000.0 11309700000.0 11309700000.0 11309700000.0 11309700000.0 11309700000.0 11309700000.0 11309700000.0 11309700000.0 11309700000.0 11309700000.0 11309700000.0 11309700000.0 11309700000.0 11309700000.0 11309700000.0 11309700000.0 11309700000.0 11309700000.0 11309700000.0 11309700000.0 11309700000.0 11309700000.0 11309700000.0 11309700000.0 11309700000.0 11309700000.0 11309700000.0 11309700000.0 11309700000.0 11309700000.0 11309700000.0 11309700000.0 11309700000.0 11309700000.0 11309700000.0 11309700000.0 11309700000.0 11309700000.0 11309700000.0 11309700000.0 11309700000.0 11309700000.0 11309700000.0 11309700000.0 11309700000.0 11309700000.0 11309700000.0 11309700000.0 11309700000.0 11309700000.0 11309700000.0 11309700000.0 11309700000.0 11309700000.0 11309700000.0 11309700000.0 11309700000.0 11309700000.0 11309700000.0 11309700000.0 11309700000.0 11309700000.0 11309700000.0 11309700000.0 11309700000.0 11309700000.0 11309700000.0 11309700000.0 11309700000.0 11309700000.0 11309700000.0 11309700000.0 11309700000.0 11309700000.0 11309700000.0 11309700000.0 11309700000.0 11309700000.0 11309700000.0 11309700000.0 11309700000.0 11309700000.0 11309700000.0 11309700000.0 11309700000.0 11309700000.0 11309700000.0 11309700000.0 11309700000.0 11309700000.0 11309700000.0 11309700000.0 11309700000.0 11309700000.0 11309700000.0 11309700000.0 11309700000.0 11309700000.0 11309700000.0 11309700000.0 11309700000.0 11309700000.0 11309700000.0 11309700000.0 11309700000.0 11309700000.0 11309700000.0 11309700000.0 11309700000.0 11309700000.0 11309700000.0 11309700000.0 11309700000.0 11309700000.0 11309700000.0 11309700000.0 11309700000.0 11309700000.0 11309700000.0 11309700000.0 11309700000.0 11309700000.0 11309700000.0 11309700000.0 11309700000.0 11309700000.0 11309700000.0 11309700000.0 11309700000.0 11309700000.0 11309700000.0 11309700000.0 11309700000.0 11309700000.0 11309700000.0 11309700000.0 11309700000.0 11309700000.0 11309700000.0 11309700000.0 11309700000.0 11309700000.0 11309700000.0 11309700000.0 11309700000.0 11309700000.0 11309700000.0 11309700000.0 11309700000.0 11309700000.0 11309700000.0 11309700000.0 11309700000.0 11309700000.0 11309700000.0 11309700000.0 11309700000.0 11309700000.0 11309700000.0 11309700000.0 11309700000.0 11309700000.0 11309700000.0 11309700000.0 11309700000.0 11309700000.0 11309700000.0 11309700000.0 11309700000.0 11309700000.0 11309700000.0 11309700000.0 11309700000.0 11309700000.0 11309700000.0 11309700000.0 11309700000.0 11309700000.0 11309700000.0 11309700000.0 11309700000.0 11309700000.0 11309700000.0 11309700000.0 11309700000.0 11309700000.0 11309700000.0 11309700000.0 11309700000.0 11309700000.0 11309700000.0 11309700000.0 11309700000.0 11309700000.0 11309700000.0 11309700000.0 11309700000.0 11309700000.0 11309700000.0 11309700000.0 11309700000.0 11309700000.0 11309700000.0 11309700000.0 11309700000.0 11309700000.0 11309700000.0 11309700000.0 11309700000.0 11309700000.0 11309700000.0 11309700000.0 11309700000.0 11309700000.0 11309700000.0 11309700000.0 11309700000.0 11309700000.0 11309700000.0 11309700000.0 11309700000.0 11309700000.0 11309700000.0 11309700000.0 11309700000.0 11309700000.0 11309700000.0 11309700000.0 11309700000.0 11309700000.0 11309700000.0 11309700000.0 11309700000.0 11309700000.0 11309700000.0 11309700000.0 11309700000.0 11309700000.0 11309700000.0 11309700000.0 11309700000.0 11309700000.0 11309700000.0 11309700000.0 11309700000.0 11309700000.0 11309700000.0 11309700000.0 11309700000.0 11309700000.0 11309700000.0 11309700000.0 11309700000.0 11309700000.0 11309700000.0 11309700000.0 11309700000.0 11309700000.0 11309700000.0 11309700000.0 11309700000.0 11309700000.0 11309700000.0 11309700000.0 11309700000.0 11309700000.0 11309700000.0 11309700000.0 11309700000.0 11309700000.0 11309700000.0 11309700000.0 11309700000.0 11309700000.0 11309700000.0 11309700000.0 11309700000.0 11309700000.0 11309700000.0 11309700000.0 11309700000.0 11309700000.0 11309700000.0 11309700000.0 11309700000.0 11309700000.0 11309700000.0 11309700000.0 11309700000.0 11309700000.0 11309700000.0 11309700000.0 11309700000.0 11309700000.0 11309700000.0 11309700000.0 11309700000.0 11309700000.0 11309700000.0 11309700000.0 11309700000.0 11309700000.0 11309700000.0 11309700000.0 11309700000.0 11309700000.0 11309700000.0 11309700000.0 11309700000.0 11309700000.0 11309700000.0 11309700000.0 11309700000.0 11309700000.0 11309700000.0 11309700000.0 11309700000.0 11309700000.0 11309700000.0 11309700000.0 11309700000.0 11309700000.0 11309700000.0 11309700000.0 11309700000.0 11309700000.0 11309700000.0 11309700000.0 11309700000.0 11309700000.0 11309700000.0 11309700000.0 11309700000.0 11309700000.0 11309700000.0 11309700000.0 11309700000.0 11309700000.0 11309700000.0 11309700000.0 11309700000.0 11309700000.0 11309700000.0 11309700000.0 11309700000.0 11309700000.0 11309700000.0 11309700000.0 11309700000.0 11309700000.0 11309700000.0 11309700000.0 11309700000.0 11309700000.0 11309700000.0 11309700000.0 11309700000.0 11309700000.0 11309700000.0 11309700000.0 11309700000.0 11309700000.0 11309700000.0 11309700000.0 11309700000.0 11309700000.0 11309700000.0 11309700000.0 11309700000.0 11309700000.0 11309700000.0 11309700000.0 11309700000.0 11309700000.0 11309700000.0 11309700000.0 11309700000.0 11309700000.0 11309700000.0 11309700000.0 11309700000.0 11309700000.0 11309700000.0 11309700000.0 11309700000.0 11309700000.0 11309700000.0 11309700000.0 11309700000.0 11309700000.0 11309700000.0 11309700000.0 11309700000.0 11309700000.0 11309700000.0 11309700000.0 11309700000.0 11309700000.0 11309700000.0 11309700000.0 11309700000.0 11309700000.0 11309700000.0 11309700000.0 11309700000.0 11309700000.0 11309700000.0 11309700000.0 11309700000.0 11309700000.0 11309700000.0 11309700000.0 11309700000.0 11309700000.0 11309700000.0 11309700000.0 11309700000.0 11309700000.0 11309700000.0 11309700000.0 11309700000.0 11309700000.0 11309700000.0 11309700000.0 11309700000.0 11309700000.0 11309700000.0 11309700000.0 11309700000.0 11309700000.0 11309700000.0 11309700000.0 11309700000.0 11309700000.0 11309700000.0 11309700000.0 11309700000.0 11309700000.0 11309700000.0 11309700000.0 11309700000.0 11309700000.0 11309700000.0 11309700000.0 11309700000.0 11309700000.0 11309700000.0 11309700000.0 11309700000.0 11309700000.0 11309700000.0 11309700000.0 11309700000.0 11309700000.0 11309700000.0 11309700000.0 11309700000.0 11309700000.0 11309700000.0 11309700000.0 11309700000.0 11309700000.0 11309700000.0 11309700000.0 11309700000.0 11309700000.0 11309700000.0 11309700000.0 11309700000.0 11309700000.0 11309700000.0 11309700000.0 11309700000.0 11309700000.0 11309700000.0 11309700000.0 11309700000.0 11309700000.0 11309700000.0 11309700000.0 11309700000.0 11309700000.0 11309700000.0 11309700000.0 11309700000.0 11309700000.0 11309700000.0 11309700000.0 11309700000.0 11309700000.0 11309700000.0 11309700000.0 11309700000.0 11309700000.0 11309700000.0 11309700000.0 11309700000.0 11309700000.0 11309700000.0 11309700000.0 11309700000.0 11309700000.0 11309700000.0 11309700000.0 11309700000.0 11309700000.0 11309700000.0 11309700000.0 11309700000.0 11309700000.0 11309700000.0 11309700000.0 11309700000.0 11309700000.0 11309700000.0 11309700000.0 11309700000.0 11309700000.0 11309700000.0 11309700000.0 11309700000.0 11309700000.0 11309700000.0 11309700000.0 11309700000.0 11309700000.0 11309700000.0 11309700000.0 11309700000.0 11309700000.0 11309700000.0 11309700000.0 11309700000.0 11309700000.0 11309700000.0 11309700000.0 11309700000.0 11309700000.0 11309700000.0 11309700000.0 11309700000.0 11309700000.0 11309700000.0 11309700000.0 11309700000.0 11309700000.0 11309700000.0 11309700000.0 11309700000.0 11309700000.0 11309700000.0 11309700000.0 11309700000.0 11309700000.0 11309700000.0 11309700000.0 11309700000.0 11309700000.0 11309700000.0 11309700000.0 11309700000.0 11309700000.0 11309700000.0 11309700000.0 11309700000.0 11309700000.0 11309700000.0 11309700000.0 11309700000.0 11309700000.0 11309700000.0 11309700000.0 11309700000.0 11309700000.0 11309700000.0 11309700000.0 11309700000.0 11309700000.0 11309700000.0 11309700000.0 11309700000.0 11309700000.0 11309700000.0 11309700000.0 11309700000.0 11309700000.0 11309700000.0 11309700000.0 11309700000.0 11309700000.0 11309700000.0 11309700000.0 11309700000.0 11309700000.0 11309700000.0 11309700000.0 11309700000.0 11309700000.0 11309700000.0 11309700000.0 11309700000.0 11309700000.0 11309700000.0 11309700000.0 11309700000.0 11309700000.0 11309700000.0 11309700000.0 11309700000.0 11309700000.0 11309700000.0 11309700000.0 11309700000.0 11309700000.0 11309700000.0 11309700000.0 11309700000.0 11309700000.0 11309700000.0 11309700000.0 11309700000.0 11309700000.0 11309700000.0 11309700000.0 11309700000.0 11309700000.0 11309700000.0 11309700000.0 11309700000.0 11309700000.0 11309700000.0 11309700000.0 11309700000.0 11309700000.0 11309700000.0 11309700000.0 11309700000.0 11309700000.0 11309700000.0 11309700000.0 11309700000.0 11309700000.0 11309700000.0 11309700000.0 11309700000.0 11309700000.0 11309700000.0 11309700000.0 11309700000.0 11309700000.0 11309700000.0 11309700000.0 11309700000.0 11309700000.0 11309700000.0 11309700000.0 11309700000.0 11309700000.0 11309700000.0 11309700000.0 11309700000.0 11309700000.0 11309700000.0 11309700000.0 11309700000.0 11309700000.0 11309700000.0 11309700000.0 11309700000.0 11309700000.0 11309700000.0 11309700000.0 11309700000.0 11309700000.0 11309700000.0 11309700000.0 11309700000.0 11309700000.0 11309700000.0 11309700000.0 11309700000.0 11309700000.0 11309700000.0 11309700000.0 11309700000.0 11309700000.0 11309700000.0 11309700000.0 11309700000.0 11309700000.0 11309700000.0 11309700000.0 11309700000.0 11309700000.0 11309700000.0 11309700000.0 11309700000.0 11309700000.0 11309700000.0 11309700000.0 11309700000.0 11309700000.0 11309700000.0 11309700000.0 11309700000.0 11309700000.0 11309700000.0 11309700000.0 11309700000.0 11309700000.0 11309700000.0 11309700000.0 11309700000.0 11309700000.0 11309700000.0 11309700000.0 11309700000.0 11309700000.0 11309700000.0 11309700000.0 11309700000.0 11309700000.0 11309700000.0 11309700000.0 11309700000.0 11309700000.0 11309700000.0 11309700000.0 11309700000.0 11309700000.0 11309700000.0 11309700000.0 11309700000.0 11309700000.0 11309700000.0 11309700000.0 11309700000.0 11309700000.0 11309700000.0 11309700000.0 11309700000.0 11309700000.0 11309700000.0 11309700000.0 11309700000.0 11309700000.0 11309700000.0 11309700000.0 11309700000.0 11309700000.0 11309700000.0 11309700000.0 11309700000.0 11309700000.0 11309700000.0 11309700000.0 11309700000.0 11309700000.0 11309700000.0 11309700000.0 11309700000.0 11309700000.0 11309700000.0 11309700000.0 11309700000.0 11309700000.0 11309700000.0 11309700000.0 11309700000.0 11309700000.0 11309700000.0 11309700000.0 11309700000.0 11309700000.0 11309700000.0 11309700000.0 11309700000.0 11309700000.0 11309700000.0 11309700000.0 11309700000.0 11309700000.0 11309700000.0 11309700000.0 11309700000.0 11309700000.0 11309700000.0 11309700000.0 11309700000.0 11309700000.0 11309700000.0 11309700000.0 11309700000.0 11309700000.0 11309700000.0 11309700000.0 11309700000.0 11309700000.0 11309700000.0 11309700000.0 11309700000.0 11309700000.0 11309700000.0 11309700000.0 11309700000.0 11309700000.0 11309700000.0 11309700000.0 11309700000.0 11309700000.0 11309700000.0 11309700000.0 11309700000.0 11309700000.0 11309700000.0 11309700000.0 11309700000.0 11309700000.0 11309700000.0 11309700000.0 11309700000.0 11309700000.0 11309700000.0 11309700000.0 11309700000.0 11309700000.0 11309700000.0 11309700000.0 11309700000.0 11309700000.0 11309700000.0 11309700000.0 11309700000.0 11309700000.0 11309700000.0 11309700000.0 11309700000.0 11309700000.0 11309700000.0 11309700000.0 11309700000.0 11309700000.0 11309700000.0 11309700000.0 11309700000.0 11309700000.0 11309700000.0 11309700000.0 11309700000.0 11309700000.0 11309700000.0 11309700000.0 
SCALARS Velocity float 1
LOOKUP_TABLE default
1.0858 1.1132 1.11924 1.11789 1.11647 1.08258 1.07741 1.08961 1.07955 1.08269 1.08782 1.0617 1.10816 1.11163 1.11311 1.11308 1.12031 1.11851 1.11685 1.07874 1.08868 1.08404 1.0834 1.0836 1.08207 1.08656 0.98272 1.09938 1.10981 1.11369 1.11316 1.11913 1.11692 1.0755 1.07731 1.09056 1.08877 1.08327 1.08335 1.08812 0.969101 1.01718 1.09729 1.10653 1.1093 1.11193 1.11364 1.11351 1.11298 1.11281 1.11976 1.11856 1.1183 1.11691 1.11679 1.07457 1.08685 1.08296 1.08659 1.08424 1.08398 1.08374 1.08354 1.08252 1.084 1.08727 1.00732 1.10429 1.11251 1.11325 1.11214 1.11906 1.11687 1.11723 1.07695 1.08544 1.08947 1.08369 1.08465 1.08401 1.08395 1.0883 0.972564 1.03531 1.08896 1.11035 1.11306 1.11215 1.1173 1.1151 1.07334 1.07655 1.0858 1.08496 1.0844 1.08416 1.08536 1.00052 1.08241 1.10312 1.10896 1.11232 1.1114 1.11201 1.11057 1.11088 1.11831 1.11609 1.11448 1.11114 1.11688 1.07192 1.08367 1.08399 1.08437 1.08464 1.08488 1.08461 1.08507 1.08452 1.08585 1.08855 1.08681 1.03809 1.09901 1.10919 1.10989 1.10903 1.11775 1.11203 1.11418 1.07771 1.07961 1.08066 1.08348 1.08308 1.08479 1.08556 1.08586 1.08695 1.10255 1.08371 1.10365 1.10836 1.10835 1.11541 1.10595 1.08131 1.07721 1.08096 1.08386 1.08569 1.08662 1.08721 1.09287 1.11067 1.09651 1.09459 1.09979 1.10486 1.10497 1.10733 1.10611 1.10689 1.11669 1.11357 1.11033 1.08192 1.07615 1.0776 1.08182 1.08364 1.08517 1.08701 1.08706 1.08897 1.08816 1.09101 1.09124 1.0983 1.10465 1.1068 1.09803 1.10219 1.10479 1.1053 1.11382 1.10476 1.09716 1.07901 1.076 1.07148 1.07427 1.07495 1.07877 1.08099 1.08613 1.08933 1.09149 1.0959 1.10453 1.10064 1.10011 1.10331 1.10466 1.10868 1.09042 1.07028 1.07084 1.07738 1.08411 1.08908 1.09207 1.09526 1.10111 1.1049 1.1022 1.10028 1.10121 1.10172 1.10332 1.10396 1.10544 1.10548 1.10761 1.09938 1.09806 1.07074 1.06715 1.07321 1.08097 1.08787 1.09195 1.09235 1.09566 1.09533 1.09849 1.09919 1.1023 1.10404 1.10408 1.10159 1.10263 1.10573 1.10895 1.0967 1.08365 1.08328 1.05951 1.0647 1.06418 1.06889 1.07333 1.07718 1.08202 1.08539 1.09043 1.09586 1.09856 1.10124 1.10387 1.1025 1.10179 1.10552 1.11013 1.08306 1.067 1.0584 1.06887 1.07865 1.08743 1.09539 1.09906 1.10082 1.10299 1.10313 1.10334 1.10169 1.10149 1.1021 1.10415 1.11004 1.11091 1.12014 1.11764 1.0804 1.05989 1.0605 1.03647 1.05157 1.06264 1.07519 1.08381 1.09356 1.0995 1.10185 1.10097 1.10157 1.10215 1.1023 1.10181 1.10066 1.10682 1.12066 1.13314 1.05957 1.027 1.05357 1.05775 1.06481 1.06978 1.07578 1.08025 1.08456 1.08938 1.09708 1.09926 1.10298 1.10171 1.10127 1.10127 1.10003 1.10235 1.11751 1.13572 1.13698 1.15568 1.03896 1.0327 0.984811 0.985498 1.06511 1.07134 1.08049 1.08992 1.1035 1.10355 1.10034 1.10013 1.09827 1.09943 1.09772 1.09929 1.1029 1.11063 1.12798 1.16016 1.00972 0.90121 1.06618 1.07851 1.07346 1.07668 1.08237 1.10109 1.106 1.10396 1.10048 1.09815 1.09902 1.09734 1.09607 1.09771 1.11595 1.15471 1.18046 1.01087 0.940058 1.10233 1.07986 1.07488 1.07506 1.07755 1.07678 1.08686 1.10622 1.10797 1.10761 1.09761 1.098 1.09536 1.09419 1.09353 1.10544 1.12271 1.14031 1.17271 1.18393 1.19385 0.969889 0.971002 0.871314 0.812615 1.08869 1.07458 1.07462 1.07652 1.11001 1.10384 1.0972 1.1024 1.09769 1.09688 1.09427 1.09615 1.1034 1.15352 1.19455 0.888314 1.31911 1.14596 1.06143 1.04451 1.07412 1.0674 1.07105 1.07037 1.0741 1.06136 1.10931 1.09265 1.10271 1.10256 1.09892 1.10544 1.11915 1.13372 1.18442 1.18253 1.1765 0.911849 1.41984 1.04061 1.00276 1.04824 1.06613 1.0672 1.06963 1.06355 1.06073 1.12233 1.09262 1.11636 1.09933 1.1042 1.10697 1.12316 1.12361 1.14419 1.136 1.12733 1.47619 1.14581 1.09655 0.986141 1.01786 1.05603 1.06266 1.06424 1.06875 1.0724 1.1031 1.11797 1.14152 1.11069 1.102 1.12338 1.14489 1.15243 1.12577 1.07553 1.02793 1.72729 1.32487 1.03745 0.981881 1.02489 1.04222 1.05445 1.05799 1.05044 1.05821 1.06761 1.0833 1.08654 1.13527 1.10977 1.11926 1.15472 1.18097 1.16571 1.17067 0.977116 1.86209 0.434255 0.438035 1.46163 1.20445 1.10634 0.995176 0.972771 1.0552 1.04802 1.04724 1.06118 1.08071 1.08415 1.11309 1.11064 1.14597 1.18796 1.07198 1.08742 1.14859 1.15703 1.19902 1.18024 1.13158 0.623492 1.11393 3.657 0.404135 0.628647 1.46141 1.31598 1.01658 1.05496 1.05528 1.03234 1.06538 1.12281 1.11898 1.16142 1.2499 1.06079 1.22489 1.21324 1.17329 1.14716 1.07341 0.936044 0.982309 1.87875 0.840222 1.04873 0.389368 0.461759 0.472864 0.752151 1.27072 1.33984 1.1685 1.06975 0.930085 0.7906 1.07106 1.07841 1.03999 1.00932 1.03702 1.11842 1.19262 1.17906 1.28058 1.25176 0.968793 1.00821 1.21869 1.27478 1.3187 1.2741 1.05525 0.975751 0.891996 1.08337 1.09173 1.0432 1.11646 0.525606 0.47035 0.480831 0.540372 1.17352 1.21249 1.24508 1.12995 1.03319 0.760586 1.0531 1.025 1.08922 1.20668 1.20418 1.30894 0.809099 0.87027 1.01809 1.00456 0.885832 1.25998 1.44094 1.13259 0.960811 0.989328 0.960795 0.94334 0.961446 1.05532 0.789806 0.472268 0.554646 0.640317 0.555586 0.668747 0.801105 1.13678 1.15623 1.03725 1.0028 0.763632 0.983878 1.15939 1.38601 1.34188 0.761681 0.774926 0.886311 0.960586 1.00283 1.05047 1.55406 1.73215 1.35779 1.67855 1.11452 1.09 0.994213 1.0077 0.9558 0.880616 0.899071 0.863406 0.699126 0.766808 0.737655 0.432843 0.537103 0.583009 0.532614 0.597503 0.877076 1.12952 1.37559 1.15549 0.956904 1.04643 1.02455 1.0079 0.972576 0.986833 0.927843 0.79405 1.09053 1.07279 1.43097 0.770761 0.793971 0.830485 0.950537 0.977233 0.963995 1.00613 0.816633 0.565986 1.43427 1.0504 0.895321 0.877728 0.820363 0.830215 0.824886 0.719484 0.704235 0.498495 0.474418 0.502786 0.485557 0.538374 0.422233 0.509533 0.626888 0.51506 0.837278 1.02897 0.979575 0.916635 1.03915 1.51984 1.39929 0.637386 0.761499 0.770533 0.859967 0.903968 0.974703 0.942667 1.12737 0.926475 0.486297 1.08941 0.949929 0.98923 0.809182 0.819028 0.798076 0.730051 0.720288 0.7133 0.676341 0.669237 0.515699 0.498052 0.561865 0.623365 0.616894 0.547192 0.460311 0.499066 0.519646 0.834682 0.987314 0.989721 1.00194 0.943463 0.999338 1.34215 0.78607 0.559792 0.736155 0.80517 0.826999 0.906883 0.952311 0.984386 1.03215 0.728604 0.557728 0.538707 0.644451 0.692761 0.88755 0.761865 0.789709 0.752634 0.769215 0.712129 0.694035 0.697207 0.649625 0.637929 0.620654 0.517059 0.52323 0.510574 0.543112 0.569912 0.53049 0.545301 0.58211 0.662995 0.672684 0.952154 0.955839 0.964205 0.946382 0.947862 1.13182 1.25795 0.518893 0.697927 0.720755 0.839632 0.860307 0.873355 0.936841 0.990407 1.05256 1.00331 0.919677 0.708365 0.439269 0.534229 0.613925 0.733742 0.723115 0.737256 0.707379 0.725404 0.688686 0.684539 0.66801 0.641353 0.624377 0.618917 0.506778 0.515102 0.537209 0.547298 0.549934 0.615361 0.585321 0.611427 0.614097 0.762 0.746452 0.86897 0.903732 0.938887 0.941068 0.987762 0.526881 0.453846 0.512345 0.589154 0.761288 0.859655 0.804158 0.853005 0.863995 0.983609 1.01155 0.609326 0.610244 0.680368 0.715696 0.708364 0.698538 0.6758 0.670886 0.688865 0.68003 0.660486 0.638854 0.620224 0.615995 0.619963 0.629047 0.526109 0.501853 0.496117 0.513406 0.532227 0.545216 0.590569 0.647576 0.68168 0.646764 0.907474 0.792477 0.846577 0.90487 0.92678 0.922255 0.948109 0.678911 0.547182 0.666583 0.807487 0.838864 0.822168 0.83247 0.844401 0.848554 0.856755 0.890028 1.10869 1.06512 0.847319 0.763553 0.647448 0.688535 0.662068 0.704275 0.707629 0.668243 0.632794 0.649061 0.647331 0.684595 0.658415 0.621357 0.622077 0.631387 0.63964 0.648301 0.567957 0.493096 0.489527 0.542772 0.574436 0.578068 0.627582 0.639469 0.712864 0.713009 0.769395 0.661062 0.598763 0.75551 0.863178 0.902946 0.88035 0.854816 0.735588 0.636019 0.632051 0.7572 0.807666 0.832246 0.844172 0.841952 0.900592 0.721374 0.910395 0.797484 0.707736 0.713351 0.708942 0.71564 0.719848 0.650655 0.599225 0.667427 0.688712 0.681249 0.655591 0.633591 0.623503 0.622842 0.628814 0.643259 0.654687 0.640649 0.535669 0.523316 0.494714 0.512068 0.523996 0.566117 0.621832 0.658622 0.648298 0.5543 0.43286 0.200383 0.588882 0.729457 0.83445 0.881114 0.88292 0.814152 0.705043 0.653803 0.696447 0.710568 0.751984 0.77965 0.788471 0.810965 0.836658 0.868441 0.878488 0.275583 0.540138 0.743266 0.730622 0.728341 0.726788 0.73992 0.795236 0.596723 0.643967 0.616265 0.661175 0.675128 0.687637 0.6783 0.616179 0.611985 0.612785 0.625993 0.638257 0.6492 0.655689 0.659508 0.422414 0.54811 0.520355 0.52586 0.546688 0.616537 0.658804 0.670584 0.645521 0.573553 0.462153 0.353836 0.574739 0.812721 0.869637 0.885765 0.886806 0.852334 0.837729 0.754963 0.708484 0.731326 0.767768 0.795621 0.818339 0.824213 0.84756 0.837591 0.857802 0.753979 0.603826 0.455371 0.675527 0.699796 0.735302 0.71393 0.72986 0.774094 0.926291 0.62468 0.649735 0.680303 0.680419 0.671124 0.642258 0.590394 0.618442 0.619948 0.61225 0.636327 0.657474 0.653388 0.566584 0.48243 0.556047 0.580112 0.497403 0.549034 0.573029 0.545407 0.585878 0.622394 0.685228 0.716487 0.66474 0.609818 0.523062 0.441603 0.562645 0.591456 0.883689 0.875202 0.805394 0.789447 0.755318 0.731494 0.731413 0.725369 0.751085 0.775776 0.80026 0.817157 0.78052 0.611439 0.589549 0.651396 0.692982 0.677753 0.649275 0.647598 0.841393 0.705852 0.65654 0.649822 0.673156 0.677547 0.622934 0.590838 0.565347 0.60063 0.612513 0.603807 0.607098 0.633678 0.63351 0.648205 0.634405 0.604069 0.526396 0.607574 0.584278 0.581284 0.612341 0.581259 0.716269 0.719445 0.710654 0.68778 0.632002 0.55515 0.47809 0.483896 0.427775 1.44395 0.947441 0.841378 0.820172 0.771786 0.743054 0.73921 0.740867 0.750415 0.760723 0.764716 0.779818 0.776777 0.796259 0.784975 0.736617 0.706062 0.628977 0.552446 0.616152 0.675999 0.668613 0.674814 0.667785 0.662974 0.19302 0.454026 0.49826 0.570196 0.632962 0.641511 0.57183 0.530336 0.473433 0.564923 0.587993 0.585249 0.558353 0.594567 0.624696 0.624525 0.562899 0.551421 0.75572 0.656115 0.570865 0.605548 0.605699 0.622705 0.69359 0.664321 0.690903 0.602783 0.811356 0.731348 0.657153 0.569926 0.51779 0.50093 0.51428 0.592862 0.625267 1.08287 0.832092 0.799047 0.775963 0.765839 0.759733 0.743684 0.745535 0.754243 0.762144 0.764703 0.777264 0.747047 0.68447 0.604443 0.653668 0.665258 0.695617 0.81959 0.745957 0.490857 0.501648 0.489263 0.541083 0.594397 0.509996 0.47541 0.590848 0.525644 0.550107 0.590572 0.597286 0.590596 0.570572 0.535303 0.28434 0.429413 0.560992 0.579652 0.623498 0.620157 0.813207 0.656063 0.759885 0.65026 0.513641 0.491054 0.479232 0.459042 0.409165 0.316495 1.44896 0.863278 0.841273 0.762293 0.755353 0.751988 0.745563 0.74457 0.748556 0.752883 0.753653 0.745495 0.712141 0.644169 0.636994 0.633325 0.654506 0.694919 0.666964 0.603352 0.562294 0.29682 0.0614797 0.286003 0.354117 0.407708 0.613741 0.458478 0.513547 0.597665 0.531867 0.539799 0.542257 0.575545 0.550761 0.565613 0.547753 0.500708 0.484206 0.00700174 0.177346 0.0844427 0.90802 0.427625 0.610636 0.537204 0.525655 0.559026 0.597912 0.616476 0.915479 1.23659 1.1554 0.469253 0.475342 0.459846 0.397381 0.227775 0.357141 0.33105 0.864266 0.942789 0.805374 0.760882 0.743221 0.748204 0.747861 0.747694 0.746193 0.747334 0.741625 0.746282 0.734995 0.74001 0.723071 0.722156 0.700289 0.681328 0.662456 0.647737 0.674949 0.726233 0.73334 0.737155 0.653215 0.451629 0.278424 0.188482 0.303883 0.483783 0.550695 0.606065 0.341009 0.330727 0.443859 0.273899 0.454535 0.503999 0.540436 0.548486 0.513971 0.486802 0.45469 0.421805 0.419076 0.186452 0.06767 0.38532 0.593486 0.706891 0.52234 0.619328 0.524551 0.546911 0.556787 0.437245 0.0928649 0.435318 0.437706 0.341977 0.459089 0.456261 0.309501 0.319036 0.329504 1.1157 0.933156 0.857256 0.731345 0.752623 0.744381 0.748404 0.740576 0.73204 0.721425 0.706674 0.686451 0.660041 0.666759 0.651168 0.66411 0.749273 0.789567 0.69736 0.414191 0.313771 0.275939 0.330367 0.375637 0.425958 0.465204 0.556323 0.421632 0.404712 0.390923 0.355613 0.43893 0.498842 0.508967 0.531158 0.505223 0.503434 0.497911 0.458729 0.396425 0.411428 0.346958 0.273077 0.170062 0.315877 0.387717 0.573612 0.640355 0.59217 0.486699 0.484695 0.49659 0.377998 0.135751 0.0915565 0.376945 0.581323 0.338142 0.408979 0.479078 0.495865 0.435214 0.259412 0.330413 1.13977 0.74265 0.774356 0.750622 0.735596 0.732533 0.743379 0.750464 0.751265 0.744341 0.731546 0.720616 0.707775 0.696027 0.693045 0.683204 0.689576 0.674981 0.705547 0.675127 0.792249 0.236034 0.433754 0.366049 0.317144 0.333359 0.368873 0.401708 0.470324 0.480591 0.429696 0.389128 0.402698 0.389534 0.441812 0.448332 0.475867 0.527008 0.548863 0.524 0.471935 0.384547 0.398048 0.417686 0.41852 0.415888 0.36181 0.351801 0.39156 0.632214 0.542007 0.511466 0.44683 0.440274 0.347199 0.142022 0.0629178 0.235772 0.392568 0.485027 0.401233 0.477481 0.529782 0.485803 0.382397 0.31444 0.903893 0.737876 0.741331 0.714374 0.715932 0.755918 0.742284 0.734653 0.723652 0.721186 0.710562 0.708856 0.699472 0.698267 0.696284 0.697809 0.706506 0.682915 0.700477 0.734682 0.491695 0.328029 0.323698 0.305254 0.316524 0.334031 0.374158 0.436754 0.453513 0.450844 0.422631 0.404911 0.409606 0.417291 0.42958 0.414752 0.439406 0.570023 0.449848 0.559615 0.465711 0.437442 0.398386 0.385594 0.3614 0.335318 0.523498 0.292159 0.240035 0.524855 0.536504 0.479456 0.440562 0.412393 0.190861 0.355988 0.459651 0.496021 0.484039 0.535127 0.521853 0.443961 0.36725 0.325678 0.362688 0.74803 0.707538 0.710948 0.696111 0.689728 0.752338 0.749311 0.730715 0.71338 0.70138 0.696303 0.699007 0.712666 0.733714 0.727597 0.766082 0.759952 0.703988 0.40632 0.365093 0.300422 0.275259 0.295835 0.346491 0.4024 0.447864 0.452302 0.432979 0.422374 0.419516 0.419061 0.420849 0.4255 0.405558 0.426228 0.254012 0.412551 0.0737126 0.318335 0.38613 0.382046 0.354768 0.311123 0.294738 0.430867 0.591457 0.310989 0.238385 0.2245 0.293193 0.0414234 0.469052 0.465891 0.442858 0.406178 0.315057 0.266681 0.132538 0.518747 0.540467 0.539038 0.534589 0.486617 0.425741 0.401178 0.429668 0.608234 0.721259 0.796607 0.712298 0.694681 0.714022 0.745447 0.743721 0.743284 0.732616 0.719613 0.710303 0.704828 0.70011 0.695671 0.695937 0.697853 0.703924 0.7085 0.723596 0.750254 0.528394 0.469202 0.394655 0.425569 0.38156 0.209461 0.186173 0.275772 0.349405 0.435886 0.409365 0.435891 0.356816 0.304609 0.165315 0.288834 0.374735 0.36377 0.312977 0.361613 0.375946 0.116966 0.190423 0.111416 1.1247 0.377977 0.313061 0.282736 0.156439 0.317651 0.47165 0.471361 0.442092 0.310013 0.248276 0.232909 0.21519 0.334185 0.483886 0.521075 0.495659 0.45593 0.442726 0.472805 0.565611 0.633518 0.699153 0.723862 0.69948 0.683405 0.662676 0.743423 0.743957 0.717211 0.70545 0.6982 0.698191 0.718881 0.731262 0.723794 0.879674 0.6642 0.645991 0.550776 0.498987 0.459501 0.479894 0.447128 0.0565574 0.147466 0.453023 0.434091 0.42938 0.43128 0.438203 0.437057 0.428058 0.419407 0.398331 0.36385 0.342482 0.256528 0.274145 0.37953 0.226516 0.314464 0.363668 0.112863 0.128072 0.407464 0.424869 0.238082 0.303784 0.397603 0.471149 0.458815 0.366151 0.273316 0.194499 0.270417 0.340469 0.48219 0.539181 0.571934 0.567668 0.452279 0.460483 0.489819 0.545851 0.600705 0.635565 0.663504 0.694778 0.680666 0.687541 0.645814 0.723266 0.789141 0.723351 0.713985 0.708564 0.699013 0.710136 0.73795 0.735389 0.736811 1.08853 0.632402 0.617887 0.558258 0.525053 0.515631 0.575035 0.709115 0.250433 0.442883 0.460926 0.434353 0.434746 0.439934 0.447494 0.458557 0.453419 0.431681 0.426523 0.401074 0.371188 0.262662 0.236058 0.211968 0.282506 0.457988 0.159847 0.301106 0.305132 0.368137 0.033546 0.0580167 0.13378 0.186768 0.164377 0.60108 0.53962 0.413706 0.351545 0.346013 0.367701 0.414323 0.421447 0.337722 0.21824 0.162091 0.300816 0.577601 0.554087 0.609224 0.592881 0.505814 0.482713 0.540538 0.582887 0.609991 0.63761 0.659295 0.668863 0.670205 0.662581 0.78198 0.716706 0.727317 0.72239 0.723553 0.714692 0.725558 0.707173 0.710743 0.701347 0.715866 0.687055 0.602558 0.479063 0.564359 0.562038 0.537579 0.515746 0.173963 0.0477117 0.45168 0.49499 0.440704 0.429663 0.443209 0.459798 0.474138 0.471797 0.459835 0.440631 0.401283 0.327126 0.274987 0.241065 0.237271 0.318541 0.0305525 0.167354 0.791 0.257703 0.232703 0.00966598 0.0609557 0.146326 0.198143 0.344615 0.266707 0.568293 0.535913 0.469934 0.425619 0.40692 0.403798 0.45292 0.440871 0.393603 0.302382 0.202504 0.097696 0.915084 0.61192 0.602845 0.599054 0.498025 0.497627 0.450291 0.468245 0.500628 0.621883 0.64014 0.646851 0.647387 0.639686 0.613364 0.597819 0.679741 0.830956 0.733811 0.726394 0.723515 0.711263 0.755188 0.776909 0.695086 0.654605 0.5437 0.507146 0.535811 0.535031 0.51346 0.582805 0.893235 0.969654 0.656174 0.568032 0.47639 0.415973 0.433756 0.453726 0.478582 0.485533 0.477233 0.461154 0.454552 0.433094 0.397706 0.336968 0.283147 0.249134 0.27129 0.15737 0.0934912 0.297153 0.562354 0.251462 0.275356 0.594216 0.637394 0.455926 0.267157 0.232778 0.29822 0.3921 0.590254 0.555724 0.50476 0.469725 0.418268 0.434144 0.419993 0.366597 0.282784 0.248757 1.36962 0.583516 0.578529 0.513763 0.643799 0.501047 0.455824 0.472876 0.517595 0.55079 0.583303 0.601132 0.630966 0.622763 0.604746 0.571415 0.64196 0.757633 0.755529 0.726159 0.741947 0.726769 0.736375 0.652288 0.749884 0.704949 0.615797 0.553413 0.518177 0.493145 0.505513 0.627984 1.01217 0.561157 0.585419 0.493912 0.412521 0.431308 0.446387 0.475009 0.490582 0.484422 0.474357 0.464094 0.447336 0.433785 0.300449 0.281904 0.269151 0.274021 0.153173 0.176666 0.474965 0.619525 0.215835 0.249976 0.285105 0.557416 0.553711 0.446698 0.394424 0.35013 0.379904 0.560619 0.579707 0.557326 0.525757 0.444236 0.426336 0.418219 0.415039 0.387852 0.326139 0.284788 0.582921 0.424073 0.44885 0.522418 0.560553 0.591806 0.607296 0.615571 0.623182 0.629946 0.604543 0.58432 0.567193 0.757603 0.811033 0.819524 0.730236 0.734712 0.736142 0.769832 0.738947 0.738427 0.705124 0.610674 0.676497 0.703039 0.655522 0.527224 0.52936 0.521668 0.504319 0.501706 0.568572 0.71163 0.814888 0.552314 0.494756 0.49145 0.479414 0.466226 0.453258 0.445812 0.43936 0.43167 0.306102 0.278828 0.197865 0.22509 0.316526 0.527773 0.205056 0.240657 0.252351 0.292977 0.533485 0.528071 0.358805 0.38123 0.349058 0.301714 0.291281 0.465553 0.564211 0.579566 0.492326 0.461649 0.434414 0.412619 0.389916 0.347694 0.358 0.644996 0.70682 0.577931 0.528074 0.639107 0.430315 0.527768 0.583005 0.604218 0.614061 0.61565 0.6158 0.61826 0.620726 0.6169 0.497943 0.827568 0.846578 0.862279 0.762998 0.723723 0.713318 0.694698 0.575575 0.625756 0.599658 0.558855 0.539239 0.534741 0.532438 0.529967 0.563458 0.640946 0.695089 0.659624 0.55055 0.467925 0.421295 0.456052 0.480973 0.469685 0.457617 0.453139 0.454119 0.434834 0.513654 0.276353 0.332955 0.251274 0.165909 0.318414 0.409355 0.23903 0.163678 0.230136 0.263586 0.539351 0.515079 0.395656 0.23557 0.32432 0.308045 0.377114 0.443945 0.565795 0.535538 0.500571 0.464614 0.429512 0.398517 0.2842 0.264834 0.382445 0.591042 0.66656 0.590793 0.549649 0.603107 0.5961 0.621333 0.622277 0.618122 0.614561 0.613719 0.615432 0.613786 0.605417 0.590156 0.566269 0.876955 0.811056 0.74472 0.695734 0.797802 0.676599 0.765736 0.655184 0.660515 0.655591 0.622485 0.58753 0.564106 0.553605 0.551498 0.551421 0.566639 0.609919 0.549803 0.500634 0.44349 0.482519 0.493897 0.49474 0.497125 0.486456 0.451108 0.455256 0.447891 0.48878 0.57561 0.33263 0.102382 0.267973 0.3853 0.414286 0.208658 0.205202 0.381078 0.853149 0.7953 0.782327 0.539789 0.536962 0.52957 0.397775 0.190219 0.0366164 0.247417 0.307821 0.345703 0.432526 0.512206 0.574713 0.580145 0.566493 0.534398 0.494318 0.456775 0.364348 0.318046 0.283206 0.333518 0.468673 0.626946 0.635626 0.608766 0.678799 0.497201 0.61351 0.611737 0.612852 0.613661 0.608444 0.595464 0.574769 0.531578 0.470178 0.900996 0.774885 0.707056 0.651732 0.649686 0.615605 0.6357 0.639391 0.624723 0.602025 0.583329 0.573192 0.573815 0.639933 0.646226 0.609134 0.513041 0.504867 0.487644 0.500557 0.496586 0.499126 0.49294 0.477066 0.462804 0.436245 0.516087 0.409726 0.664131 0.352574 0.314498 0.182824 0.287785 0.316387 0.32982 0.257514 0.296203 0.624372 0.750764 0.736353 0.379229 0.262068 0.153779 0.200493 0.340707 0.419813 0.499908 0.562404 0.585275 0.581353 0.562146 0.522575 0.418467 0.384037 0.347695 0.316919 0.331625 0.39328 0.497669 0.576722 0.572119 0.657459 0.731255 0.587454 0.638372 0.632045 0.618941 0.613704 0.611196 0.601936 0.583805 0.553314 0.508401 0.453938 0.943005 0.851038 0.691275 0.641669 0.63123 0.631483 0.629757 0.619168 0.604909 0.593222 0.582299 0.593744 0.617356 0.621624 0.617353 0.604989 0.583063 0.504783 0.498212 0.496546 0.497782 0.493643 0.4796 0.470302 0.459561 0.461085 0.424607 0.504393 0.678495 0.429154 0.62483 0.270197 0.26641 0.328734 0.317642 0.254763 0.466653 0.56774 0.613132 0.592282 0.170612 0.259822 0.321905 0.388573 0.496699 0.549196 0.591354 0.585512 0.57496 0.479107 0.448839 0.405207 0.374167 0.349162 0.345425 0.371418 0.596221 0.628327 0.641001 0.699684 0.772163 0.634906 0.641155 0.615878 0.608073 0.60971 0.612377 0.593768 0.56826 0.535245 0.491147 0.448121 0.944295 0.819609 0.730635 0.677739 0.65386 0.669548 0.670408 0.651125 0.644628 0.632876 0.616929 0.602797 0.585353 0.585116 0.594832 0.610604 0.633865 0.6537 0.646332 0.608931 0.574369 0.550659 0.502472 0.495616 0.489885 0.479667 0.477437 0.475138 0.472298 0.46521 0.442361 0.507771 0.7003 0.276064 0.32365 0.395259 0.36348 0.598648 0.522516 0.374447 0.392052 0.489424 0.558917 0.547776 0.50636 0.465557 0.441577 0.39766 0.375956 0.37266 0.411444 0.491299 0.551326 0.608917 0.653243 0.703021 0.735217 0.756594 0.652826 0.616678 0.605338 0.607218 0.611869 0.614539 0.61419 0.608145 0.488252 0.449133 0.916178 0.759729 0.711142 0.683359 0.677786 0.677293 0.67422 0.665615 0.654612 0.597366 0.593248 0.592301 0.598415 0.612626 0.630626 0.651925 0.661537 0.656647 0.621543 0.556132 0.525907 0.508671 0.496329 0.496566 0.485651 0.482117 0.481957 0.48323 0.475411 0.459295 0.410387 0.507518 0.781762 0.579202 0.561657 0.517854 0.444593 0.489472 0.477754 0.598585 0.184442 0.438268 0.515669 0.458796 0.562888 0.586042 0.59497 0.581937 0.569541 0.532085 0.492688 0.462238 0.435915 0.393156 0.377397 0.39454 0.428432 0.503655 0.570479 0.657891 0.711657 0.739813 0.747188 0.729103 0.627202 0.609943 0.610983 0.615418 0.618085 0.618058 0.613911 0.602846 0.581081 0.553334 0.52239 0.820165 0.750004 0.725014 0.707872 0.698085 0.691621 0.624831 0.598973 0.597973 0.59804 0.59888 0.602349 0.611121 0.625192 0.642137 0.651257 0.559774 0.52908 0.519053 0.503721 0.497242 0.49056 0.487158 0.494655 0.489323 0.459674 0.472596 0.485028 0.517387 0.588951 0.810311 0.692509 0.597983 0.5081 0.498006 0.55579 0.208781 0.368297 0.592615 0.593686 0.593689 0.581451 0.563153 0.521719 0.498155 0.463737 0.401084 0.405315 0.408898 0.416948 0.420701 0.516257 0.626448 0.62533 0.623521 0.619653 0.610761 0.594294 0.568069 0.539319 0.502875 0.467059 0.331943 0.687558 0.679463 0.662747 0.594819 0.598015 0.601111 0.603815 0.607386 0.612829 0.65859 0.633527 0.604196 0.530004 0.522779 0.510136 0.501208 0.493196 0.492207 0.477705 0.506118 0.514078 0.542805 0.612564 0.42775 0.644869 0.500194 0.521945 0.525574 0.523234 0.532474 0.616799 0.211568 0.28561 0.659495 0.525291 0.679317 0.599932 0.608651 0.603061 0.580163 0.556734 0.42653 0.405209 0.433227 0.438026 0.432862 0.402007 0.623155 0.752756 0.737119 0.737066 0.727465 0.683449 0.6385 0.627641 0.6186 0.605208 0.579668 0.539751 0.49541 0.466635 0.389991 0.493623 0.757497 0.737565 0.722351 0.724207 0.711278 0.705483 0.702777 0.692518 0.565095 0.592761 0.60157 0.621408 0.633313 0.643099 0.651448 0.647288 0.612388 0.582055 0.550375 0.529798 0.518728 0.509446 0.503777 0.500128 0.500744 0.496619 0.570325 0.625892 0.672115 0.732066 0.480854 0.54085 0.565526 0.531873 0.60855 0.579407 0.727883 0.628764 0.597803 0.535465 0.495928 0.458013 0.440244 0.410985 0.474047 0.460748 0.40748 0.596925 0.74625 0.76324 0.72585 0.709467 0.694205 0.674044 0.652717 0.643588 0.637036 0.631248 0.626082 0.518208 0.456932 0.433766 0.514593 0.638258 0.714825 0.703506 0.730938 0.72738 0.71988 0.71857 0.720935 0.543521 0.607538 0.612414 0.616876 0.62202 0.628913 0.636824 0.642859 0.647821 0.658802 0.602739 0.553309 0.533107 0.543005 0.526883 0.516742 0.513258 0.511474 0.501881 0.501412 0.525908 0.538997 0.608133 0.542551 0.52305 0.540953 0.622547 0.62344 0.610689 0.584015 0.573766 0.532707 0.486657 0.475555 0.437264 0.415669 0.440068 0.382615 0.538548 0.79046 0.713063 0.739567 0.700297 0.687308 0.684786 0.673631 0.660927 0.651664 0.642267 0.633499 0.625186 0.613296 0.593026 0.561106 0.69085 0.709074 0.731248 0.728091 0.728076 0.73956 0.577006 0.597314 0.607932 0.615511 0.621431 0.62618 0.630416 0.635419 0.639868 0.64592 0.661505 0.676511 0.564099 0.540977 0.562916 0.555544 0.541268 0.521193 0.520311 0.514728 0.518516 0.540356 0.553871 0.58154 0.622983 0.66859 0.714667 0.655677 0.502991 0.518719 0.478721 0.812774 0.873472 0.680562 0.6093 0.644728 0.638934 0.617183 0.606484 0.572301 0.522576 0.502683 0.473752 0.437141 0.506274 0.475377 0.453655 0.557944 0.77708 0.757925 0.687463 0.692343 0.682509 0.684806 0.683096 0.674708 0.664957 0.654419 0.64295 0.631416 0.62089 0.605719 0.580863 0.546702 0.499882 0.449922 0.484764 0.606874 0.645675 0.691643 0.719581 0.519549 0.561033 0.587319 0.604421 0.615571 0.623654 0.629647 0.634378 0.638637 0.642612 0.641179 0.55577 0.593872 0.578676 0.568091 0.551641 0.533382 0.519167 0.529113 0.546311 0.564935 0.587456 0.620836 0.657412 0.691044 0.689725 0.534291 0.585157 0.854777 0.541174 0.627058 0.663687 0.653548 0.636961 0.605769 0.568462 0.395813 0.537494 0.508888 0.623707 0.809598 0.65385 0.639508 0.625243 0.615015 0.597068 0.567918 0.534002 0.508845 0.511935 0.594344 0.597397 0.724284 0.734677 0.745471 0.495017 0.543249 0.57466 0.596627 0.612441 0.623575 0.647426 0.657025 0.682125 0.592511 0.585492 0.565396 0.542595 0.526519 0.594507 0.621662 0.654317 0.683795 0.691422 0.606525 0.59826 0.480674 0.695513 0.563523 0.641989 0.535375 0.498282 0.470352 0.41983 0.372771 0.747071 0.679359 0.648922 0.678799 0.682277 0.685386 0.682161 0.675133 0.665822 0.584661 0.551669 0.528083 0.52887 0.592718 0.684717 0.693502 0.710493 0.728758 0.755289 0.518555 0.557296 0.631337 0.636995 0.641796 0.646827 0.652179 0.659151 0.671022 0.627989 0.659111 0.622124 0.602792 0.579787 0.541931 0.518591 0.527849 0.547419 0.569755 0.615683 0.672262 0.627298 0.83463 0.739331 0.575956 0.681397 0.669656 0.639503 0.60304 0.575726 0.533301 0.495 0.453766 0.400184 0.616965 0.570991 0.589754 0.651371 0.692677 0.680226 0.659827 0.667852 0.679522 0.684401 0.683875 0.680523 0.674665 0.664666 0.650684 0.632633 0.616316 0.611896 0.559133 0.64195 0.679089 0.694414 0.718334 0.744068 0.728024 0.584736 0.605643 0.620889 0.631252 0.638362 0.643893 0.649292 0.655579 0.663094 0.67216 0.681008 0.667503 0.651455 0.625455 0.616844 0.613802 0.613014 0.604409 0.570766 0.516856 0.52592 0.54558 0.570496 0.598722 0.625253 0.648367 0.677192 0.697909 0.703847 0.537115 0.83904 0.660193 0.695661 0.673198 0.64046 0.606871 0.572495 0.53264 0.482452 0.434382 0.653561 0.608519 0.592235 0.620761 0.666038 0.68473 0.676473 0.66984 0.676842 0.682665 0.683114 0.683837 0.680309 0.67255 0.661878 0.64644 0.622715 0.608236 0.558071 0.536342 0.533745 0.566784 0.567296 0.632853 0.66808 0.691617 0.713981 0.734574 0.696411 0.742429 0.537867 0.570201 0.595899 0.61521 0.628975 0.637929 0.644524 0.650372 0.656626 0.664504 0.674212 0.682509 0.677127 0.658678 0.639204 0.628048 0.625275 0.625532 0.634482 0.617931 0.520803 0.522523 0.54498 0.572059 0.59939 0.626584 0.650178 0.670984 0.69674 0.626894 0.682759 0.611667 0.783957 0.594444 0.664321 0.705075 0.677168 0.642836 0.607644 0.573037 0.675129 0.644989 0.619582 0.619249 0.643368 0.681886 0.676624 0.671972 0.660191 0.639479 0.600852 0.669481 0.57314 0.547571 0.532973 0.561064 0.594373 0.639795 0.692228 0.555715 0.585132 0.607179 0.624777 0.635272 0.643463 0.63098 0.632509 0.652853 0.634946 0.603571 0.630057 0.654158 0.673374 0.690456 0.646247 0.711716 0.712591 0.812907 0.783942 0.761258 0.798855 0.663143 0.531354 0.460536 0.667402 0.678357 0.67831 0.677864 0.681459 0.682507 0.683798 0.627178 0.569046 0.549086 0.560085 0.704953 0.715503 0.727999 0.702544 0.712293 0.751929 0.569993 0.649737 0.655391 0.662547 0.672918 0.683312 0.685132 0.668277 0.647838 0.637245 0.634416 0.516315 0.543652 0.573067 0.671716 0.727005 0.808269 0.815164 0.732771 0.801542 0.780293 0.714017 0.682764 0.651648 0.615538 0.578021 0.530941 0.746993 0.670213 0.647923 0.636361 0.637613 0.650393 0.667393 0.678006 0.680024 0.680887 0.68086 0.681971 0.681738 0.679414 0.6761 0.67137 0.654818 0.707263 0.594631 0.651745 0.705911 0.7205 0.723073 0.726347 0.726246 0.728495 0.736002 0.759737 0.597282 0.620371 0.630698 0.641666 0.648264 0.652917 0.65782 0.667639 0.681166 0.687906 0.684963 0.65952 0.640633 0.641369 0.637578 0.636371 0.665829 0.669874 0.669549 0.536339 0.568827 0.608344 0.637506 0.660413 0.677673 0.685425 0.818801 0.833495 0.815756 0.793545 0.660034 0.718346 0.694827 0.668493 0.618881 0.567742 0.844477 0.711674 0.661612 0.661643 0.65161 0.645519 0.653008 0.670238 0.678131 0.678862 0.678065 0.680366 0.679854 0.677637 0.678259 0.676208 0.66767 0.646569 0.622954 0.741165 0.59737 0.570847 0.597666 0.590136 0.653015 0.699678 0.725138 0.726971 0.727199 0.726125 0.728586 0.733834 0.747016 0.764114 0.579459 0.612261 0.62574 0.640232 0.647702 0.650988 0.653081 0.659737 0.675922 0.684639 0.689601 0.694826 0.642029 0.644522 0.644034 0.651788 0.674583 0.695794 0.690584 0.854523 0.557138 0.60471 0.649056 0.672275 0.677708 0.6849 0.686364 0.734666 0.796235 0.91553 0.821027 0.856826 0.832216 0.7989 0.765193 0.724417 0.708103 0.688045 0.603231 0.835917 0.834201 0.661394 0.670776 0.674386 0.657762 0.646778 0.659065 0.674553 0.673174 0.675247 0.674569 0.676867 0.666009 0.640846 0.695233 0.586356 0.609167 0.637746 0.703688 0.712308 0.726198 0.725991 0.723807 0.725923 0.730233 0.740876 0.754374 0.766452 0.612001 0.616707 0.633051 0.649469 0.652135 0.650511 0.66175 0.679327 0.705122 0.695039 0.83713 0.838228 0.592369 0.643444 0.696689 0.678357 0.687952 0.697977 0.739936 0.774834 0.785284 0.814373 0.904921 0.91418 0.927322 0.855831 0.671108 0.676728 0.674615 0.675005 0.627916 0.749973 0.653467 0.665942 0.693283 0.688725 0.708086 0.684035 0.658073 0.650185 0.77761 0.810752 0.91448 0.903465 0.828401 0.800125 0.761576 0.734561 0.73433 0.710261 0.839091 0.833923 0.82298 0.677058 0.672413 0.690289 0.670108 0.658798 0.661769 0.667528 0.667687 0.66949 0.667297 0.665047 0.668438 0.671256 0.672024 0.667451 0.678475 0.735104 0.828243 0.841356 0.593448 0.615855 0.700917 0.706199 0.729398 0.723439 0.721821 0.721202 0.724872 0.735224 0.747546 0.757135 0.777285 0.615313 0.61799 0.647553 0.654074 0.651239 0.648663 0.660733 0.685227 0.736092 0.711135 0.683361 0.705815 0.692914 0.669185 0.668681 0.704376 0.701542 0.82328 0.827551 0.85657 0.625387 0.699271 0.701454 0.701957 0.702669 0.735813 0.911146 0.916617 0.837467 0.796302 0.757225 0.703445 0.677285 0.709019 0.637635 0.900055 0.901851 0.89605 0.7608 0.73735 0.765148 0.766207 0.729529 0.665803 0.665495 0.65411 0.659217 0.65823 0.656982 0.659841 0.660512 0.670165 0.652664 0.767697 0.688012 0.83863 0.846008 0.634424 0.704873 0.713628 0.724928 0.721934 0.725883 0.71864 0.719748 0.727128 0.741306 0.748587 0.760513 0.76824 0.611708 0.666269 0.662275 0.652564 0.651324 0.652217 0.701158 0.718349 0.764676 0.681832 0.706037 0.72555 0.714636 0.659603 0.702186 0.73545 0.783884 0.784217 0.808784 0.897488 0.627102 0.735784 0.794449 0.793167 0.731633 0.769817 0.815197 0.858761 0.913036 0.915959 0.863455 0.747769 0.755634 0.893832 0.893832 0.880414 0.874692 0.862599 0.848005 0.711996 0.711202 0.783095 1.00774 0.887767 0.894497 0.904107 0.829887 0.790904 0.808192 0.868979 0.866542 0.869024 0.866298 0.868902 0.871078 0.874396 0.873607 0.867437 0.868479 0.853058 0.913851 0.674603 0.635275 0.772124 0.778855 0.800702 0.818591 0.799854 0.826561 0.808226 0.812445 0.81761 0.834042 0.832182 0.853272 0.843775 0.699538 0.775092 0.777087 0.771453 0.768398 0.754087 0.80864 0.817023 0.843013 0.710254 0.70706 0.726858 0.752699 0.735582 0.814927 0.897932 0.897705 0.898956 0.889782 0.948403 0.817574 0.726311 0.777343 0.787623 0.797312 0.87792 0.881119 0.893832 0.893832 0.893832 0.895642 0.896186 0.892213 0.897283 0.90078 0.89811 0.797359 0.778542 0.874104 0.900271 0.896215 0.894314 0.8962 0.897535 0.888332 0.879919 0.884108 0.888027 0.879989 0.880341 0.878496 0.8727 0.85269 0.844306 0.832383 0.831265 0.809944 0.8653 0.829579 0.678435 0.72499 0.851885 0.842511 0.856524 0.873149 0.864241 0.875223 0.871819 0.884537 0.890139 0.892443 0.893699 0.90418 0.892255 0.915886 0.895402 0.877912 0.884662 0.885869 0.889478 0.818044 0.850539 0.845498 0.905941 0.853583 0.84067 0.836602 0.833387 0.825067 0.902901 0.897038 0.897521 0.897186 0.895403 0.895455 0.901101 0.701952 0.772313 0.80055 0.896294 0.903635 0.89612 0.899242 0.896943 0.896496 0.893832 0.893832 0.891752 0.895202 0.899583 0.896192 0.823485 0.792742 0.866687 0.900503 0.895938 0.894172 0.896362 0.898649 0.897206 0.882595 0.883164 0.883722 0.873435 0.870259 0.86947 0.863605 0.853825 0.85034 0.841499 0.845256 0.829168 0.877534 0.85925 0.792323 0.723193 0.887494 0.885643 0.883708 0.89172 0.891301 0.89378 0.886979 0.893707 0.897566 0.900793 0.898654 0.908421 0.897704 0.915645 0.892357 0.889023 0.894753 0.89703 0.901187 0.836413 0.8463 0.864614 0.905711 0.89399 0.864659 0.860102 0.853011 0.873697 0.895245 0.894789 0.894597 0.895336 0.894319 0.903108 0.901132 0.738607 0.805168 0.831074 0.896013 0.898267 0.893871 0.893882 0.893832 0.893832 0.893834 0.893836 0.891786 0.892457 0.896616 0.894233 0.855405 0.808727 0.859599 0.896805 0.895691 0.894236 0.894181 0.897957 0.894451 0.884792 0.884353 0.882601 0.874381 0.873208 0.874593 0.872882 0.866745 0.864883 0.857512 0.864133 0.85054 0.887383 0.88907 0.842616 0.731723 0.888799 0.896367 0.890132 0.894843 0.88891 0.895555 0.890808 0.89357 0.898519 0.899742 0.900246 0.905561 0.898991 0.908186 0.893714 0.89064 0.895352 0.896953 0.900316 0.877047 0.876663 0.891432 0.90005 0.902212 0.873292 0.866471 0.863171 0.887323 0.895226 0.89478 0.894567 0.895192 0.894254 0.897533 0.889078 0.762686 0.809835 0.855034 0.892263 0.894383 0.893306 0.893919 0.893853 0.893842 0.89383 0.893832 0.891956 0.890003 0.893022 0.891327 0.879032 0.826014 0.85298 0.896601 0.895377 0.894221 0.894251 0.897113 0.891224 0.887766 0.884488 0.88086 0.872339 0.870307 0.87037 0.869239 0.865119 0.864138 0.857955 0.866968 0.859026 0.885472 0.899196 0.867616 0.789151 0.895573 0.899033 0.889756 0.892073 0.890577 0.891369 0.891429 0.891482 0.8966 0.896285 0.899205 0.901233 0.898255 0.900119 0.893701 0.890742 0.894894 0.895375 0.897443 0.890555 0.890683 0.893607 0.894597 0.900512 0.87884 0.872788 0.871329 0.888463 0.895023 0.894644 0.894459 0.894989 0.894205 0.897192 0.878091 0.784149 0.822766 0.874743 0.889187 0.891403 0.893074 0.893882 0.893832 0.893828 0.893831 0.893832 0.89226 0.888195 0.889781 0.888237 0.885999 0.841215 0.846872 0.896084 0.89492 0.894061 0.894165 0.895993 0.888426 0.888325 0.883965 0.879281 0.870677 0.867928 0.866904 0.866087 0.862926 0.862725 0.857431 0.86751 0.860414 0.877991 0.89666 0.8727 0.81539 0.896655 0.900816 0.888721 0.888632 0.891614 0.887577 0.891613 0.889981 0.894975 0.893139 0.897699 0.896824 0.8971 0.893567 0.893719 0.891029 0.894167 0.893187 0.894584 0.890531 0.891152 0.890032 0.890263 0.896561 0.883335 0.87782 0.877566 0.887941 0.894742 0.894453 0.894311 0.894709 0.894113 0.896605 0.869565 0.801009 0.837864 0.882837 0.887359 0.889491 0.893035 0.893872 0.893832 0.893829 0.893831 0.893832 0.892599 0.886989 0.887191 0.885619 0.88501 0.854636 0.842334 0.895351 0.894431 0.893849 0.894075 0.894887 0.886595 0.887171 0.883084 0.878351 0.870052 0.866894 0.86512 0.864527 0.861902 0.862423 0.858121 0.868763 0.863336 0.875327 0.896866 0.871244 0.834053 0.894756 0.893832 0.887999 0.885224 0.891386 0.884086 0.891729 0.88899 0.893747 0.890506 0.895886 0.892672 0.895733 0.888427 0.893738 0.891094 0.89311 0.890807 0.891929 0.888049 0.888525 0.886288 0.886831 0.892587 0.887274 0.881383 0.882982 0.887675 0.894407 0.894223 0.894139 0.894398 0.894011 0.895751 0.863534 0.815038 0.851271 0.884319 0.886608 0.88828 0.892902 0.893858 0.893832 0.89383 0.893831 0.893832 0.892941 0.886265 0.885243 0.883651 0.882629 0.863 0.840096 0.89451 0.893924 0.893605 0.893977 0.893831 0.885638 0.885456 0.881949 0.877878 0.87024 0.866941 0.864721 0.864326 0.862096 0.863155 0.859817 0.870459 0.866507 0.874723 0.893832 0.845513 0.892137 0.893832 0.887281 0.88272 0.891703 0.881495 0.891815 0.888369 0.892838 0.888339 0.893987 0.88907 0.894243 0.884373 0.893754 0.890773 0.89201 0.888608 0.889593 0.885523 0.885766 0.882957 0.883955 0.889319 0.889114 0.884183 0.886246 0.887586 0.894038 0.893972 0.893952 0.894064 0.893898 0.894717 0.859476 0.826921 0.861723 0.884446 0.886474 0.887556 0.89268 0.893845 0.893832 0.893831 0.869703 0.893831 0.893832 0.893228 0.885899 0.883846 0.882266 0.880724 0.866125 0.839671 0.893686 0.893426 0.893349 0.893875 0.892862 0.885198 0.883803 0.880874 0.877607 0.870901 0.867638 0.865233 0.865005 0.863036 0.864621 0.861983 0.872257 0.869525 0.875222 0.893832 0.86765 0.853203 0.889319 0.893832 0.886729 0.881139 0.891966 0.879412 0.891898 0.888018 0.892185 0.886589 0.892264 0.886096 0.892748 0.881201 0.893758 0.890305 0.891073 0.886731 0.887613 0.88326 0.883308 0.880075 0.88148 0.886727 0.888861 0.885856 0.887206 0.887391 0.893659 0.893713 0.893763 0.893727 0.893783 0.893659 0.856662 0.836484 0.869391 0.884682 0.886621 0.887229 0.892524 0.893833 0.893832 0.893831 0.893832 0.893832 0.893435 0.88578 0.88289 0.88134 0.840271 0.892938 0.892963 0.893104 0.893777 0.892039 0.884976 0.882447 0.879857 0.866214 0.866148 0.864335 0.866374 0.864244 0.873947 0.872169 0.876302 0.893832 0.858556 0.887056 0.893832 0.886332 0.880218 0.892083 0.877896 0.887849 0.891735 0.885213 0.890848 0.883715 0.891372 0.878784 0.893755 0.889901 0.890344 0.885192 0.885989 0.881317 0.881219 0.877659 0.879382 0.88463 0.887663 0.886214 0.886968 0.887067 0.893296 0.893465 0.893581 0.893406 0.893672 0.892686 0.854548 0.843954 0.886907 0.887195 0.8925 0.893821 0.893832 0.893831 0.879469 0.866633 0.877384 0.871755 0.868645 0.866067 0.891982 0.87474 0.88508 0.893832 0.893832 0.893573 0.885806 0.88227 0.880759 0.878722 0.866505 0.841306 0.892299 0.892559 0.892886 0.893689 0.891407 0.884847 0.881434 0.878816 0.877184 0.872602 0.869703 0.86734 0.867413 0.865707 0.86807 0.866357 0.875381 0.874333 0.877562 0.893832 0.864817 0.862573 0.885424 0.893832 0.886085 0.879783 0.892104 0.876818 0.892059 0.887798 0.891445 0.884174 0.88976 0.881873 0.890194 0.876998 0.893751 0.889616 0.889804 0.883977 0.884711 0.879729 0.879527 0.875723 0.877676 0.882947 0.886369 0.885775 0.886417 0.886726 0.892972 0.893243 0.893419 0.893121 0.893573 0.891854 0.852947 0.849765 0.878008 0.885534 0.887242 0.887325 0.892571 0.893811 0.893832 0.893831 0.893832 0.893832 0.893656 0.885895 0.891796 0.892236 0.893616 0.86812 0.875962 0.893832 0.865521 0.893832 0.879637 0.876071 0.887813 0.883436 0.888977 0.880526 0.889267 0.875735 0.893748 0.88943 0.889423 0.883073 0.883768 0.87852 0.851833 0.854086 0.887508 0.892677 0.893803 0.893832 0.893831 0.881894 0.880421 0.87832 0.866426 0.842388 0.89271 0.890965 0.884771 0.880735 0.877845 0.877015 0.873312 0.87063 0.868376 0.86856 0.866917 0.8695 0.876485 0.878704 0.863937 0.884248 0.885959 0.892091 0.89212 0.891273 0.878248 0.874272 0.876382 0.88167 0.885318 0.885137 0.885913 0.886446 0.892709 0.893062 0.893288 0.89289 0.893492 0.891199 0.879588 0.885957 0.88755 0.893832 0.893832 0.893694 0.885985 0.881687 0.880243 0.878129 0.866453 0.843255 0.891448 0.892011 0.892586 0.893564 0.890691 0.884732 0.880305 0.87711 0.876891 0.873812 0.871308 0.869155 0.869421 0.867804 0.870525 0.869379 0.877226 0.877047 0.87955 0.893832 0.863358 0.867507 0.883457 0.893832 0.885895 0.879613 0.892086 0.875596 0.892162 0.887852 0.891181 0.882964 0.888472 0.879644 0.888629 0.874925 0.893746 0.889318 0.88918 0.882474 0.883147 0.877706 0.877392 0.873305 0.875512 0.880809 0.884604 0.884627 0.885561 0.886252 0.892523 0.892934 0.893195 0.892728 0.893435 0.890747 0.851158 0.856925 0.88014 0.886274 0.887779 0.887667 0.892775 0.893797 0.893832 0.893831 0.893832 0.868536 0.893832 0.87962 0.875366 0.874529 0.889264 0.893832 0.893832 0.893706 0.886039 0.881597 0.880168 0.878057 0.866498 0.843732 0.89127 0.891895 0.892521 0.893537 0.890559 0.884715 0.880102 0.87672 0.876826 0.874068 0.871664 0.86957 0.86988 0.868271 0.871059 0.870033 0.877596 0.87759 0.879998 0.863042 0.883058 0.885866 0.892087 0.892182 0.88788 0.891142 0.882735 0.888225 0.879208 0.888304 0.893745 0.889061 0.882176 0.882839 0.877297 0.876962 0.872823 0.875076 0.880377 0.884245 0.884358 0.885383 0.886153 0.892427 0.892868 0.893147 0.892644 0.893406 0.890516 0.850845 0.858323 0.88026 0.886441 0.8879 0.887758 0.892833 0.893794 0.893832 0.893831 
SCALARS Axial_Stress float 1
LOOKUP_TABLE default
-61914300000.0 -102029000000.0 -100165000000.0 -83878900000.0 -202019000000.0 -117386000000.0 -147074000000.0 -63219700000.0 -66420300000.0 -59639700000.0 -64018600000.0 -65103000000.0 -65347900000.0 -89490000000.0 -160312000000.0 -148756000000.0 -94505400000.0 -237030000000.0 -102566000000.0 -139450000000.0 -135212000000.0 -73932300000.0 -70236700000.0 -177905000000.0 -67720500000.0 -123971000000.0 -91347100000.0 -62692000000.0 -119118000000.0 -238013000000.0 -282412000000.0 -270231000000.0 -259969000000.0 -189813000000.0 -195542000000.0 -139125000000.0 -178714000000.0 -241042000000.0 -229279000000.0 -200634000000.0 -131955000000.0 -121222000000.0 -288507000000.0 -243591000000.0 -390450000000.0 -300064000000.0 -421512000000.0 -350320000000.0 -450007000000.0 -251135000000.0 -275598000000.0 -466977000000.0 -337944000000.0 -383083000000.0 -179568000000.0 -267628000000.0 -211506000000.0 -211649000000.0 -503733000000.0 -349065000000.0 -490363000000.0 -377219000000.0 -489401000000.0 -307543000000.0 -330718000000.0 -254406000000.0 -171176000000.0 -532603000000.0 -506611000000.0 -527684000000.0 -366917000000.0 -435878000000.0 -549572000000.0 -367331000000.0 -278943000000.0 -289038000000.0 -254398000000.0 -699055000000.0 -617729000000.0 -613824000000.0 -616450000000.0 -344186000000.0 -135779000000.0 -742023000000.0 -760559000000.0 -607460000000.0 -611235000000.0 -624222000000.0 -699526000000.0 -609163000000.0 -440983000000.0 -420501000000.0 -945100000000.0 -776667000000.0 -727682000000.0 -734586000000.0 -852787000000.0 -687614000000.0 -807389000000.0 -733497000000.0 -802716000000.0 -702728000000.0 -798028000000.0 -709221000000.0 -801821000000.0 -485513000000.0 -595723000000.0 -951114000000.0 -799716000000.0 -889650000000.0 -661891000000.0 -630473000000.0 -1.18701e+12 -963574000000.0 -1.00273e+12 -855019000000.0 -942474000000.0 -837238000000.0 -960934000000.0 -892347000000.0 -1.09342e+12 -1.13638e+12 -1.5788e+12 -713441000000.0 -888161000000.0 -891337000000.0 -889683000000.0 -605438000000.0 -761539000000.0 -1.05213e+12 -978498000000.0 -1.90311e+12 -1.51816e+12 -1.40713e+12 -1.17296e+12 -1.16712e+12 -1.05979e+12 -1.04191e+12 -1.10819e+12 -1.35484e+12 -1.44853e+12 -909722000000.0 -983111000000.0 -979868000000.0 -978656000000.0 -1.2228e+12 -1.06929e+12 -2.19175e+12 -1.67215e+12 -1.34868e+12 -1.19049e+12 -1.13415e+12 -1.15689e+12 -1.28525e+12 -1.46567e+12 -1.27537e+12 -1.24117e+12 -1.06737e+12 -1.16532e+12 -1.07145e+12 -1.15626e+12 -1.06661e+12 -1.15231e+12 -725645000000.0 -935353000000.0 -1.5001e+12 -1.33348e+12 -1.77579e+12 -1.90067e+12 -1.5394e+12 -1.33274e+12 -1.35051e+12 -1.2376e+12 -1.30431e+12 -1.22423e+12 -1.32843e+12 -1.28906e+12 -1.41121e+12 -1.41707e+12 -1.4856e+12 -1.43042e+12 -1.39392e+12 -1.29189e+12 -1.2495e+12 -1.23919e+12 -845803000000.0 -1.12079e+12 -1.66229e+12 -1.58026e+12 -1.70763e+12 -1.87267e+12 -1.78343e+12 -1.71311e+12 -1.61675e+12 -1.48081e+12 -1.46805e+12 -1.39353e+12 -1.38658e+12 -1.43564e+12 -1.50598e+12 -1.50437e+12 -1.41326e+12 -1.35632e+12 -1.32914e+12 -1.32171e+12 -1.78832e+12 -1.74415e+12 -1.75403e+12 -1.70293e+12 -1.57924e+12 -1.48768e+12 -1.45576e+12 -1.47801e+12 -1.53456e+12 -1.57152e+12 -1.52554e+12 -1.56797e+12 -1.46484e+12 -1.52607e+12 -1.42611e+12 -1.49807e+12 -1.40763e+12 -1.48654e+12 -966238000000.0 -1.31853e+12 -2.05474e+12 -1.89079e+12 -1.66693e+12 -1.72527e+12 -1.66376e+12 -1.57972e+12 -1.53074e+12 -1.59088e+12 -1.53133e+12 -1.61563e+12 -1.57262e+12 -1.66443e+12 -1.6191e+12 -1.68917e+12 -1.61765e+12 -1.66426e+12 -1.62463e+12 -1.59171e+12 -1.5715e+12 -1.08779e+12 -1.50047e+12 -2.17334e+12 -1.90524e+12 -1.47578e+12 -1.67966e+12 -1.70242e+12 -1.70826e+12 -1.71292e+12 -1.65829e+12 -1.67683e+12 -1.60643e+12 -1.65212e+12 -1.66303e+12 -1.70807e+12 -1.74889e+12 -1.74977e+12 -1.71919e+12 -1.68617e+12 -1.65983e+12 -1.64649e+12 -2.31938e+12 -2.30132e+12 -1.6216e+12 -1.73372e+12 -1.73566e+12 -1.71188e+12 -1.71246e+12 -1.74522e+12 -1.80238e+12 -1.82481e+12 -1.89407e+12 -1.8092e+12 -1.87069e+12 -1.77971e+12 -1.84059e+12 -1.74986e+12 -1.81559e+12 -1.72989e+12 -1.80177e+12 -1.21151e+12 -1.65679e+12 -2.56721e+12 -2.48763e+12 -2.65933e+12 -1.40429e+12 -1.70536e+12 -1.77563e+12 -1.76905e+12 -1.76005e+12 -1.78347e+12 -1.8659e+12 -1.84567e+12 -1.95106e+12 -1.89218e+12 -1.97442e+12 -1.95989e+12 -1.93253e+12 -1.90168e+12 -1.88378e+12 -1.33861e+12 -1.77095e+12 -2.7572e+12 -1.35624e+12 -1.622e+12 -1.75581e+12 -1.78582e+12 -1.86286e+12 -1.82124e+12 -1.86077e+12 -1.80711e+12 -1.85293e+12 -1.8213e+12 -1.89115e+12 -1.99025e+12 -2.05012e+12 -2.04919e+12 -2.0235e+12 -1.98916e+12 -1.96567e+12 -2.03472e+12 -1.95427e+12 -1.47018e+12 -1.82731e+12 -2.74493e+12 -2.91453e+12 -2.95006e+12 -1.66154e+12 -1.88634e+12 -1.92372e+12 -1.88716e+12 -1.91552e+12 -1.96989e+12 -2.11575e+12 -2.13949e+12 -2.22057e+12 -2.1174e+12 -2.17754e+12 -2.08254e+12 -2.12493e+12 -2.04458e+12 -2.10728e+12 -2.10924e+12 -2.83355e+12 -3.05653e+12 -1.3094e+12 -1.75869e+12 -1.87348e+12 -1.9971e+12 -1.94726e+12 -1.92229e+12 -1.9806e+12 -2.02971e+12 -2.15327e+12 -2.30807e+12 -2.22561e+12 -2.31935e+12 -2.29655e+12 -2.21969e+12 -2.16346e+12 -2.18733e+12 -1.60571e+12 -1.78691e+12 -3.00185e+12 -1.03899e+12 -2.17041e+12 -2.08508e+12 -2.18893e+12 -2.03976e+12 -1.99982e+12 -1.93471e+12 -1.96192e+12 -1.99436e+12 -2.03519e+12 -2.36437e+12 -2.4294e+12 -2.3941e+12 -2.3822e+12 -2.49781e+12 -2.18031e+12 -2.17665e+12 -2.24008e+12 -2.35685e+12 -2.27902e+12 -1.74043e+12 -1.64857e+12 -2.72343e+12 -2.49661e+12 -3.08136e+12 -2.19927e+12 -2.34725e+12 -2.21342e+12 -1.81471e+12 -2.07093e+12 -1.93147e+12 -2.58116e+12 -2.63791e+12 -2.49414e+12 -2.53823e+12 -2.47213e+12 -2.59065e+12 -2.75763e+12 -2.26445e+12 -2.48658e+12 -2.25494e+12 -3.97359e+12 -3.89355e+12 -2.8986e+12 -2.92632e+12 -2.51199e+12 -2.63094e+12 -2.41892e+12 -2.41911e+12 -2.15956e+12 -1.47467e+12 -1.8747e+12 -2.83251e+12 -2.91217e+12 -2.6133e+12 -2.62057e+12 -2.8035e+12 -3.08123e+12 -3.34662e+12 -2.40037e+12 -2.55346e+12 -1.85936e+12 -1.25182e+12 -3.85454e+12 -3.85458e+12 -3.37813e+12 -2.93745e+12 -2.65992e+12 -2.36201e+12 -2.02603e+12 -1.85504e+12 -1.10637e+12 -1.73862e+12 -3.28132e+12 -2.76791e+12 -2.61649e+12 -2.73596e+12 -2.79933e+12 -3.07519e+12 -3.10744e+12 -3.43525e+12 -3.50452e+12 -1.673e+12 -3.40313e+12 -3.82622e+12 -3.96856e+12 -3.86601e+12 -3.28952e+12 -2.93034e+12 -2.63431e+12 -2.2744e+12 -1.88429e+12 -1.48419e+12 -3.46711e+12 -3.0896e+12 -2.66169e+12 -2.60725e+12 -2.62034e+12 -2.99149e+12 -3.41116e+12 -3.73262e+12 -3.97248e+12 -3.47611e+12 -2.97201e+12 -2.45496e+12 -3.84322e+12 -4.00773e+12 -3.61141e+12 -3.5307e+12 -3.23352e+12 -3.17658e+12 -2.8968e+12 -2.83685e+12 -2.57692e+12 -2.25553e+12 -2.22402e+12 -2.13129e+12 -2.80317e+12 -2.43314e+12 -2.81555e+12 -3.34509e+12 -3.70669e+12 -3.75071e+12 -4.06496e+12 -4.08262e+12 -3.51342e+12 -4.55327e+12 -4.98907e+12 -2.25986e+12 -4.18587e+12 -4.1447e+12 -3.91527e+12 -3.69934e+12 -3.47721e+12 -3.09742e+12 -2.77834e+12 -2.54457e+12 -2.59676e+12 -2.38457e+12 -2.46938e+12 -2.75382e+12 -2.48729e+12 -2.2526e+12 -1.73265e+12 -2.49278e+12 -3.0023e+12 -3.22544e+12 -3.60546e+12 -4.08734e+12 -4.30268e+12 -4.94544e+12 -4.22828e+12 -3.33566e+12 -4.3639e+12 -6.60132e+12 -3.99296e+12 -4.29904e+12 -3.90637e+12 -3.7403e+12 -3.38222e+12 -3.00559e+12 -2.78405e+12 -2.73625e+12 -2.59005e+12 -2.68294e+12 -1.8514e+12 -2.70141e+12 -3.39494e+12 -4.06362e+12 -4.4081e+12 -4.38743e+12 -4.80464e+12 -4.82237e+12 -4.90912e+12 -5.28795e+12 -3.7308e+12 -3.54641e+12 -4.08477e+12 -6.63788e+12 -6.62272e+12 -6.50472e+12 -5.24764e+12 -4.98703e+12 -4.2017e+12 -3.91782e+12 -3.50573e+12 -3.4052e+12 -3.66033e+12 -3.50961e+12 -3.26372e+12 -3.13101e+12 -2.93781e+12 -2.87851e+12 -2.92807e+12 -2.76265e+12 -2.69183e+12 -2.29195e+12 -3.78716e+12 -3.35733e+12 -2.80803e+12 -4.02707e+12 -3.94356e+12 -4.3779e+12 -4.73357e+12 -4.92953e+12 -5.14451e+12 -5.59416e+12 -5.89671e+12 -6.04115e+12 -3.28652e+12 -3.60255e+12 -3.75922e+12 -6.48693e+12 -6.56058e+12 -5.77163e+12 -5.29374e+12 -4.66978e+12 -4.29905e+12 -3.64524e+12 -3.35186e+12 -3.346e+12 -3.0263e+12 -2.99039e+12 -3.16263e+12 -3.06139e+12 -2.99369e+12 -3.40768e+12 -3.6935e+12 -2.91084e+12 -2.14868e+12 -4.7022e+12 -4.00091e+12 -4.32126e+12 -4.73887e+12 -4.91397e+12 -5.14706e+12 -5.30954e+12 -5.64381e+12 -5.95388e+12 -5.84896e+12 -2.88141e+12 -3.46629e+12 -6.15609e+12 -6.51496e+12 -6.58977e+12 -6.61781e+12 -6.6014e+12 -5.96613e+12 -4.75224e+12 -3.97433e+12 -3.56296e+12 -3.34389e+12 -3.10361e+12 -3.20592e+12 -3.29539e+12 -3.18147e+12 -3.05296e+12 -3.14236e+12 -3.65555e+12 -3.66617e+12 -4.55852e+12 -3.72594e+12 -4.26009e+12 -4.56345e+12 -4.698e+12 -4.90511e+12 -5.05047e+12 -5.05492e+12 -5.03967e+12 -5.15552e+12 -5.34637e+12 -5.88254e+12 -6.20063e+12 -6.42816e+12 -4.78467e+12 -3.28187e+12 -3.3268e+12 -3.19998e+12 -5.71908e+12 -6.47821e+12 -6.50612e+12 -6.33175e+12 -6.2248e+12 -6.7021e+12 -5.98422e+12 -5.26007e+12 -4.48543e+12 -4.27526e+12 -4.10223e+12 -3.80279e+12 -3.66741e+12 -3.48971e+12 -3.46069e+12 -3.41e+12 -3.5708e+12 -2.91033e+12 -3.37391e+12 -3.06752e+12 -3.38368e+12 -3.50446e+12 -3.90485e+12 -4.02767e+12 -4.33447e+12 -4.33485e+12 -3.13057e+12 -2.7646e+12 -5.21874e+12 -4.97843e+12 -5.29713e+12 -5.5785e+12 -5.75117e+12 -6.10119e+12 -5.82628e+12 -5.61502e+12 -3.30567e+12 -3.10884e+12 -3.16509e+12 -5.44323e+12 -4.48313e+12 -5.64012e+12 -6.4351e+12 -6.99939e+12 -6.56246e+12 -4.45599e+12 -4.42976e+12 -4.39505e+12 -3.90242e+12 -3.57597e+12 -3.47667e+12 -3.20031e+12 -3.35634e+12 -3.12918e+12 -3.10936e+12 -3.33869e+12 -3.57817e+12 -3.72492e+12 -4.01741e+12 -4.30847e+12 -3.45723e+12 -2.49986e+12 -3.05245e+12 -4.72056e+12 -4.89402e+12 -5.14051e+12 -5.17797e+12 -5.46399e+12 -5.73876e+12 -5.53774e+12 -5.81876e+12 -5.79095e+12 -5.85726e+12 -3.27697e+12 -3.14345e+12 -5.72059e+12 -5.96017e+12 -6.00069e+12 -6.18778e+12 -4.5066e+12 -5.58633e+12 -6.01021e+12 -5.5929e+12 -4.77461e+12 -4.62425e+12 -4.36757e+12 -4.15406e+12 -3.74881e+12 -3.48046e+12 -3.22654e+12 -3.82459e+12 -3.4147e+12 -3.3538e+12 -3.38544e+12 -3.46956e+12 -3.74616e+12 -3.87235e+12 -4.14732e+12 -4.42561e+12 -5.10817e+12 -2.77881e+12 -3.67374e+12 -4.13494e+12 -4.58364e+12 -5.03161e+12 -5.30439e+12 -5.54065e+12 -5.68116e+12 -5.78706e+12 -5.68613e+12 -5.848e+12 -5.82331e+12 -5.88414e+12 -3.24898e+12 -3.25327e+12 -3.1964e+12 -5.99195e+12 -5.88763e+12 -5.91579e+12 -5.97156e+12 -5.89226e+12 -5.12474e+12 -5.28912e+12 -5.37758e+12 -5.05558e+12 -4.52543e+12 -4.14447e+12 -3.9551e+12 -3.78778e+12 -3.60875e+12 -3.28056e+12 -3.22797e+12 -4.0437e+12 -3.45697e+12 -3.34243e+12 -3.51109e+12 -3.63876e+12 -3.80406e+12 -3.85356e+12 -3.94855e+12 -4.02053e+12 -4.22867e+12 -4.5009e+12 -4.5705e+12 -4.69892e+12 -4.05527e+12 -4.21816e+12 -4.84246e+12 -5.03018e+12 -5.46971e+12 -5.61878e+12 -5.61587e+12 -5.6985e+12 -5.73976e+12 -5.77455e+12 -5.77349e+12 -5.91491e+12 -3.31089e+12 -3.24259e+12 -6.07393e+12 -5.89492e+12 -5.87984e+12 -5.95497e+12 -6.25087e+12 -6.00893e+12 -5.67231e+12 -5.02014e+12 -4.83646e+12 -4.85218e+12 -4.72385e+12 -4.43561e+12 -4.29226e+12 -3.95231e+12 -3.53509e+12 -3.96074e+12 -4.04262e+12 -3.87538e+12 -3.78555e+12 -3.49794e+12 -3.42817e+12 -3.36617e+12 -3.66779e+12 -3.95654e+12 -3.88435e+12 -3.97385e+12 -4.31068e+12 -4.12152e+12 -4.5238e+12 -4.75671e+12 -5.20581e+12 -5.39481e+12 -5.312e+12 -5.47987e+12 -5.76533e+12 -5.64786e+12 -5.67004e+12 -5.72923e+12 -5.83402e+12 -5.99279e+12 -6.11756e+12 -3.41586e+12 -3.22514e+12 -3.23884e+12 -6.07126e+12 -5.93496e+12 -5.95057e+12 -5.89902e+12 -5.92684e+12 -6.14146e+12 -6.14841e+12 -5.69706e+12 -3.6896e+12 -4.34105e+12 -4.50445e+12 -4.23561e+12 -4.09369e+12 -3.89388e+12 -3.75294e+12 -3.73981e+12 -3.85301e+12 -3.62552e+12 -3.46751e+12 -3.46564e+12 -3.46283e+12 -3.52254e+12 -3.65573e+12 -3.81806e+12 -4.12472e+12 -4.299e+12 -3.74392e+12 -2.81462e+12 -3.88822e+12 -4.0433e+12 -4.13143e+12 -4.14811e+12 -4.29716e+12 -4.45539e+12 -4.98299e+12 -5.23001e+12 -5.70741e+12 -5.49435e+12 -4.15916e+12 -5.82247e+12 -5.64847e+12 -5.87394e+12 -5.97216e+12 -6.19039e+12 -3.50639e+12 -3.53597e+12 -3.1973e+12 -6.05058e+12 -5.9277e+12 -5.81749e+12 -5.73934e+12 -5.96702e+12 -6.11153e+12 -6.15281e+12 -6.6497e+12 -5.92739e+12 -4.72369e+12 -5.85596e+12 -4.72625e+12 -4.47703e+12 -4.36929e+12 -4.00242e+12 -3.76842e+12 -3.69674e+12 -3.67369e+12 -3.76337e+12 -3.66157e+12 -3.48021e+12 -3.4605e+12 -3.54214e+12 -3.78828e+12 -3.97082e+12 -4.1404e+12 -5.29769e+12 -2.87314e+12 -3.73597e+12 -4.10288e+12 -4.05997e+12 -4.23583e+12 -4.61495e+12 -4.78335e+12 -4.93857e+12 -6.33435e+12 -5.72222e+12 -6.1376e+12 -5.67464e+12 -5.84915e+12 -5.85214e+12 -5.93349e+12 -6.06469e+12 -6.06228e+12 -6.19948e+12 -3.57821e+12 -3.08981e+12 -5.90252e+12 -6.01142e+12 -5.88936e+12 -5.81824e+12 -5.8384e+12 -5.787e+12 -5.62103e+12 -6.58251e+12 -5.21141e+12 -5.81219e+12 -5.53617e+12 -5.66243e+12 -4.68396e+12 -4.00613e+12 -4.08471e+12 -4.07272e+12 -3.84355e+12 -3.67356e+12 -3.60184e+12 -3.63891e+12 -3.50554e+12 -3.51135e+12 -3.42152e+12 -3.44185e+12 -3.43014e+12 -3.47244e+12 -3.63792e+12 -3.93089e+12 -4.6307e+12 -5.1698e+12 -4.22059e+12 -3.9214e+12 -4.08555e+12 -4.14034e+12 -4.3244e+12 -4.39542e+12 -4.40513e+12 -5.47039e+12 -3.97147e+12 -5.3666e+12 -5.44448e+12 -6.29117e+12 -6.87051e+12 -6.08796e+12 -5.84808e+12 -5.85573e+12 -5.73803e+12 -5.93703e+12 -6.08179e+12 -6.13857e+12 -6.09304e+12 -3.63211e+12 -2.90563e+12 -5.61101e+12 -5.79159e+12 -5.73827e+12 -5.78187e+12 -5.82614e+12 -5.74096e+12 -5.01775e+12 -5.5486e+12 -5.37635e+12 -5.539e+12 -5.46181e+12 -5.34597e+12 -2.97624e+12 -3.68673e+12 -3.85951e+12 -3.88802e+12 -3.77098e+12 -3.72082e+12 -3.57376e+12 -3.48494e+12 -3.40228e+12 -3.38353e+12 -3.44217e+12 -3.52632e+12 -3.601e+12 -3.74881e+12 -3.90882e+12 -4.19333e+12 -4.38835e+12 -4.93339e+12 -4.55898e+12 -4.05625e+12 -3.94387e+12 -3.95583e+12 -3.99611e+12 -4.17646e+12 -4.14409e+12 -3.88784e+12 -4.81215e+12 -5.41021e+12 -5.50029e+12 -5.94887e+12 -6.11425e+12 -5.78592e+12 -5.59411e+12 -5.84298e+12 -5.92989e+12 -5.98206e+12 -5.98489e+12 -6.06746e+12 -3.67879e+12 -2.9249e+12 -2.93199e+12 -5.61659e+12 -5.43208e+12 -5.66309e+12 -5.61977e+12 -5.62489e+12 -5.69993e+12 -5.67813e+12 -5.74406e+12 -5.74677e+12 -6.65458e+12 -5.72973e+12 -5.60308e+12 -5.20806e+12 -5.13442e+12 -4.81607e+12 -3.97137e+12 -3.78042e+12 -3.79962e+12 -3.62696e+12 -3.58712e+12 -3.44509e+12 -3.46532e+12 -3.34751e+12 -3.37414e+12 -3.33517e+12 -3.37071e+12 -3.4812e+12 -3.70094e+12 -4.03665e+12 -4.36515e+12 -4.09643e+12 -3.93238e+12 -3.88404e+12 -4.0481e+12 -4.11058e+12 -4.24289e+12 -4.67077e+12 -3.61138e+12 -4.62191e+12 -5.17474e+12 -5.35877e+12 -5.29344e+12 -4.45848e+12 -5.33448e+12 -5.59539e+12 -5.59198e+12 -5.75124e+12 -5.75423e+12 -5.81451e+12 -5.9143e+12 -5.88712e+12 -6.06876e+12 -3.68294e+12 -3.69595e+12 -2.85144e+12 -5.42737e+12 -5.4296e+12 -5.63261e+12 -5.52189e+12 -5.56156e+12 -5.56895e+12 -5.62031e+12 -5.94724e+12 -5.67557e+12 -4.94379e+12 -4.85683e+12 -4.65751e+12 -4.46234e+12 -4.04897e+12 -2.73717e+12 -3.64472e+12 -3.73822e+12 -3.67786e+12 -3.45185e+12 -3.32688e+12 -3.24109e+12 -3.28764e+12 -3.22679e+12 -3.29876e+12 -3.28285e+12 -3.37844e+12 -3.40209e+12 -3.53803e+12 -3.78329e+12 -3.80363e+12 -4.05541e+12 -3.97794e+12 -4.12578e+12 -3.87259e+12 -3.81397e+12 -3.74742e+12 -3.86947e+12 -3.84492e+12 -3.74919e+12 -5.27621e+12 -4.71809e+12 -4.88056e+12 -5.16702e+12 -5.38201e+12 -5.41303e+12 -6.51244e+12 -5.43824e+12 -5.48607e+12 -5.22415e+12 -5.41225e+12 -5.88103e+12 -5.64154e+12 -5.72506e+12 -5.96959e+12 -5.99148e+12 -3.71166e+12 -2.52308e+12 -4.17553e+12 -5.125e+12 -5.37345e+12 -5.44641e+12 -5.50033e+12 -5.69253e+12 -5.35787e+12 -5.61594e+12 -5.41542e+12 -5.50452e+12 -5.30998e+12 -5.0261e+12 -4.41565e+12 -4.30897e+12 -4.30978e+12 -4.21957e+12 -4.12208e+12 -4.01013e+12 -4.70086e+12 -3.22107e+12 -3.78937e+12 -3.5549e+12 -3.48872e+12 -3.26962e+12 -3.28097e+12 -3.20478e+12 -3.15665e+12 -3.18819e+12 -3.28066e+12 -3.4238e+12 -3.58662e+12 -3.5984e+12 -3.76507e+12 -3.80369e+12 -3.73001e+12 -3.60668e+12 -3.74615e+12 -3.45782e+12 -3.39254e+12 -4.17343e+12 -4.42111e+12 -4.61312e+12 -4.75077e+12 -4.80741e+12 -5.82916e+12 -4.19725e+12 -5.34194e+12 -5.82967e+12 -5.66676e+12 -5.73009e+12 -5.80826e+12 -5.85923e+12 -3.69538e+12 -3.66793e+12 -3.22773e+12 -5.30392e+12 -5.15976e+12 -5.42728e+12 -5.55714e+12 -5.72565e+12 -5.57319e+12 -5.56723e+12 -4.92852e+12 -2.79339e+12 -3.77213e+12 -3.9774e+12 -4.05205e+12 -4.05587e+12 -4.11243e+12 -4.40508e+12 -2.78046e+12 -3.59287e+12 -3.63283e+12 -3.32243e+12 -3.05436e+12 -3.18099e+12 -3.04398e+12 -3.09043e+12 -3.09416e+12 -3.16483e+12 -3.28054e+12 -3.42463e+12 -3.56983e+12 -3.67074e+12 -3.52602e+12 -3.62753e+12 -3.49244e+12 -3.52248e+12 -3.7993e+12 -3.88727e+12 -4.67498e+12 -5.60433e+12 -4.94655e+12 -4.62962e+12 -4.49755e+12 -4.45847e+12 -5.0903e+12 -5.93622e+12 -6.30663e+12 -4.66956e+12 -6.46375e+12 -5.79179e+12 -5.28769e+12 -5.83992e+12 -5.61728e+12 -5.72004e+12 -5.73291e+12 -5.56354e+12 -3.58639e+12 -3.06784e+12 -3.24972e+12 -5.73557e+12 -5.96444e+12 -5.2969e+12 -5.40248e+12 -5.65006e+12 -6.02318e+12 -6.5949e+12 -4.58613e+12 -6.30097e+12 -5.26144e+12 -4.96945e+12 -5.06241e+12 -5.07276e+12 -3.97161e+12 -4.02966e+12 -4.1275e+12 -4.34315e+12 -4.11113e+12 -4.66832e+12 -3.92619e+12 -3.67486e+12 -3.44931e+12 -3.12783e+12 -3.00605e+12 -3.03727e+12 -2.91403e+12 -3.00269e+12 -2.93313e+12 -3.04919e+12 -3.01459e+12 -3.14709e+12 -3.12624e+12 -3.2698e+12 -3.24125e+12 -3.39782e+12 -3.34667e+12 -3.50583e+12 -3.4062e+12 -3.37626e+12 -3.34518e+12 -3.23483e+12 -3.50822e+12 -3.53919e+12 -3.3551e+12 -4.50808e+12 -4.93042e+12 -4.68733e+12 -4.50803e+12 -4.4138e+12 -4.38643e+12 -3.4665e+12 -5.09071e+12 -5.17178e+12 -5.41489e+12 -5.38372e+12 -5.85e+12 -5.30821e+12 -5.47619e+12 -5.55088e+12 -5.46581e+12 -5.5254e+12 -5.40835e+12 -3.56782e+12 -3.41778e+12 -2.88888e+12 -5.47486e+12 -5.57834e+12 -5.59018e+12 -5.41332e+12 -5.01274e+12 -5.4984e+12 -5.66937e+12 -5.87145e+12 -5.34806e+12 -4.97605e+12 -3.9079e+12 -5.72343e+12 -3.47075e+12 -4.2714e+12 -3.43843e+12 -3.88237e+12 -4.19151e+12 -4.1709e+12 -4.30858e+12 -4.90039e+12 -3.92831e+12 -3.41317e+12 -2.54262e+12 -2.6936e+12 -2.86448e+12 -2.82317e+12 -2.87532e+12 -2.98639e+12 -3.09449e+12 -3.19371e+12 -3.2765e+12 -3.2678e+12 -3.10093e+12 -3.23238e+12 -3.03391e+12 -3.1775e+12 -3.06149e+12 -3.15519e+12 -4.09555e+12 -4.40806e+12 -4.37089e+12 -4.39059e+12 -4.32047e+12 -4.29959e+12 -4.08074e+12 -3.51024e+12 -4.80651e+12 -4.76045e+12 -5.19263e+12 -5.0401e+12 -4.99405e+12 -3.68932e+12 -6.2434e+12 -5.64672e+12 -5.4631e+12 -4.89288e+12 -5.10047e+12 -5.31249e+12 -5.62033e+12 -3.23223e+12 -2.79687e+12 -4.83579e+12 -5.11376e+12 -5.15907e+12 -5.0756e+12 -4.93422e+12 -4.6556e+12 -5.15405e+12 -5.25162e+12 -5.2881e+12 -5.00938e+12 -5.03729e+12 -4.31933e+12 -4.77704e+12 -4.33001e+12 -3.59034e+12 -3.90696e+12 -3.74282e+12 -3.89795e+12 -3.96749e+12 -4.06484e+12 -4.94227e+12 -5.73202e+12 -4.35617e+12 -4.33392e+12 -3.54265e+12 -2.84614e+12 -1.91864e+12 -2.94063e+12 -2.76456e+12 -2.71789e+12 -2.55441e+12 -2.72251e+12 -2.84044e+12 -2.95384e+12 -3.04858e+12 -3.1312e+12 -3.05849e+12 -3.19021e+12 -3.08637e+12 -2.85697e+12 -2.97582e+12 -3.3302e+12 -4.41104e+12 -5.21591e+12 -4.2542e+12 -4.22653e+12 -4.27997e+12 -4.19814e+12 -4.15088e+12 -4.04996e+12 -3.97013e+12 -3.99326e+12 -4.45288e+12 -4.62451e+12 -4.75927e+12 -4.72081e+12 -4.53282e+12 -4.83976e+12 -5.40807e+12 -4.96346e+12 -5.98415e+12 -5.27634e+12 -5.12081e+12 -5.33616e+12 -5.3614e+12 -5.23202e+12 -3.18181e+12 -2.67281e+12 -4.40778e+12 -4.98426e+12 -5.25279e+12 -3.33759e+12 -4.71109e+12 -4.81852e+12 -4.81681e+12 -4.64139e+12 -4.57806e+12 -4.32116e+12 -4.35027e+12 -4.01715e+12 -3.87398e+12 -3.65668e+12 -3.80005e+12 -3.77778e+12 -3.9018e+12 -4.03976e+12 -4.23016e+12 -4.44983e+12 -4.07616e+12 -3.64271e+12 -2.86286e+12 -1.39865e+12 -3.55123e+12 -2.28151e+12 -2.46983e+12 -2.67631e+12 -2.66701e+12 -2.81321e+12 -2.76942e+12 -2.90838e+12 -2.85549e+12 -2.98992e+12 -2.91998e+12 -2.98137e+12 -3.00388e+12 -2.20651e+12 -2.23734e+12 -2.79883e+12 -4.20716e+12 -4.46019e+12 -4.1984e+12 -4.12724e+12 -4.04283e+12 -3.97455e+12 -3.90534e+12 -3.86651e+12 -3.94251e+12 -4.00122e+12 -4.25298e+12 -4.34025e+12 -4.41447e+12 -4.39748e+12 -4.65171e+12 -4.53513e+12 -4.51369e+12 -3.17282e+12 -4.95267e+12 -3.83031e+12 -5.94356e+12 -5.47168e+12 -4.81509e+12 -3.0474e+12 -2.337e+12 -2.42503e+12 -3.75813e+12 -4.58392e+12 -4.82584e+12 -5.7152e+12 -4.177e+12 -4.36055e+12 -4.39587e+12 -4.28671e+12 -3.80357e+12 -3.66629e+12 -3.61835e+12 -3.60335e+12 -3.72067e+12 -3.79133e+12 -3.94031e+12 -4.11857e+12 -4.31814e+12 -4.59175e+12 -4.91468e+12 -4.80727e+12 -3.11166e+12 -2.42079e+12 -1.69587e+12 -3.56665e+12 -2.0747e+12 -2.17799e+12 -2.51855e+12 -2.62103e+12 -2.72291e+12 -2.78991e+12 -2.84584e+12 -2.86753e+12 -2.77461e+12 -2.97293e+12 -3.70054e+12 -4.19332e+12 -4.49464e+12 -4.17014e+12 -4.06451e+12 -3.92321e+12 -3.85365e+12 -3.76515e+12 -3.70252e+12 -3.67807e+12 -3.72942e+12 -3.81397e+12 -3.90136e+12 -4.01977e+12 -4.08637e+12 -4.15839e+12 -4.3153e+12 -4.34136e+12 -4.25793e+12 -4.00971e+12 -4.57603e+12 -3.96907e+12 -5.08446e+12 -5.35186e+12 -5.01631e+12 -4.10647e+12 -2.70425e+12 -2.92345e+12 -2.517e+12 -2.32192e+12 -2.6578e+12 -4.02388e+12 -4.23065e+12 -4.39207e+12 -5.11186e+12 -4.82013e+12 -3.57032e+12 -4.04627e+12 -4.07133e+12 -3.99118e+12 -4.20131e+12 -4.06237e+12 -4.03412e+12 -3.47568e+12 -3.56289e+12 -3.69228e+12 -3.81307e+12 -3.96807e+12 -4.12104e+12 -4.27442e+12 -4.40211e+12 -4.30147e+12 -4.09458e+12 -3.60211e+12 -2.42444e+12 -2.5061e+12 -1.74059e+12 -1.22191e+12 -2.46244e+12 -2.38487e+12 -2.20088e+12 -2.44551e+12 -2.46522e+12 -2.59515e+12 -2.53704e+12 -2.66259e+12 -2.58925e+12 -2.71879e+12 -2.66137e+12 -2.7766e+12 -2.5805e+12 -2.89142e+12 -4.07995e+12 -4.20069e+12 -4.21147e+12 -4.05289e+12 -3.90279e+12 -3.56803e+12 -3.51392e+12 -3.44264e+12 -3.41564e+12 -3.46167e+12 -4.04563e+12 -3.98051e+12 -4.28254e+12 -4.264e+12 -4.53767e+12 -4.5906e+12 -4.35997e+12 -3.01327e+12 -4.70837e+12 -2.89909e+12 -2.67067e+12 -2.21883e+12 -2.10638e+12 -4.23802e+12 -2.18473e+12 -3.30048e+12 -3.60657e+12 -3.77684e+12 -4.2993e+12 -4.10972e+12 -3.77433e+12 -3.82355e+12 -3.74508e+12 -3.8959e+12 -3.78519e+12 -3.6898e+12 -3.53874e+12 -3.40335e+12 -3.36973e+12 -3.69343e+12 -3.83011e+12 -3.94503e+12 -4.0349e+12 -4.08009e+12 -3.99635e+12 -3.83704e+12 -3.59942e+12 -3.20431e+12 -2.75788e+12 -2.58974e+12 -3.44887e+12 -3.05287e+12 -1.68221e+12 -2.34165e+12 -2.41803e+12 -2.47619e+12 -2.50904e+12 -2.68164e+12 -2.3864e+12 -1.83331e+12 -3.21712e+12 -3.55973e+12 -3.95721e+12 -3.9266e+12 -3.98409e+12 -4.00833e+12 -3.93881e+12 -3.77356e+12 -2.95004e+12 -3.13502e+12 -3.55971e+12 -3.65255e+12 -3.72296e+12 -3.79978e+12 -3.87071e+12 -3.98884e+12 -4.04408e+12 -3.80389e+12 -3.94347e+12 -3.98639e+12 -3.92523e+12 -4.35421e+12 -3.89503e+12 -3.57835e+12 -4.92763e+12 -4.56494e+12 -2.2244e+12 -2.1131e+12 -3.43994e+12 -2.52505e+12 -2.99157e+12 -3.79528e+12 -3.7798e+12 -3.75726e+12 -3.57527e+12 -3.52019e+12 -3.64516e+12 -3.53182e+12 -3.41476e+12 -3.14855e+12 -2.97696e+12 -3.01362e+12 -3.23912e+12 -3.4103e+12 -3.54802e+12 -3.81859e+12 -3.86017e+12 -3.85953e+12 -3.7839e+12 -3.65225e+12 -3.48495e+12 -3.26172e+12 -2.97158e+12 -2.76874e+12 -2.67399e+12 -2.23618e+12 -1.80434e+12 -1.02913e+12 -2.25927e+12 -2.28197e+12 -2.36052e+12 -2.38505e+12 -2.46041e+12 -2.61848e+12 -2.42822e+12 -2.44223e+12 -2.22373e+12 -2.94856e+12 -3.56321e+12 -3.72456e+12 -3.83203e+12 -3.91391e+12 -3.99057e+12 -4.10565e+12 -3.0758e+12 -3.11352e+12 -3.24799e+12 -3.36824e+12 -3.46126e+12 -3.52745e+12 -3.59991e+12 -3.68571e+12 -3.74964e+12 -3.7867e+12 -3.63969e+12 -3.67376e+12 -3.67982e+12 -3.86488e+12 -3.94106e+12 -3.973e+12 -3.15022e+12 -2.17327e+12 -4.06387e+12 -3.7137e+12 -2.41804e+12 -1.57533e+12 -1.57058e+12 -4.06626e+12 -1.95571e+12 -2.51548e+12 -3.76538e+12 -1.69372e+12 -2.35548e+12 -3.23975e+12 -3.34668e+12 -3.40199e+12 -3.43865e+12 -3.41363e+12 -3.43152e+12 -3.32927e+12 -3.19419e+12 -2.95321e+12 -2.17639e+12 -2.36195e+12 -3.00552e+12 -3.13788e+12 -3.37944e+12 -3.56545e+12 -3.7362e+12 -3.6221e+12 -3.50395e+12 -3.3662e+12 -3.20864e+12 -3.02126e+12 -2.82624e+12 -2.67027e+12 -2.45808e+12 -2.65212e+12 -2.71059e+12 -1.72375e+12 -2.0816e+12 -2.25524e+12 -2.30649e+12 -2.18528e+12 -2.2645e+12 -2.071e+12 -2.30379e+12 -2.36949e+12 -3.571e+12 -4.31343e+12 -3.99597e+12 -3.60066e+12 -3.62758e+12 -3.6674e+12 -3.75502e+12 -2.62547e+12 -2.73035e+12 -2.61583e+12 -2.83747e+12 -3.02904e+12 -3.17856e+12 -3.26895e+12 -3.34027e+12 -3.4154e+12 -3.47423e+12 -3.51972e+12 -3.56119e+12 -3.39617e+12 -3.47024e+12 -3.50433e+12 -3.49254e+12 -3.4144e+12 -2.36272e+12 -3.93051e+12 -3.11595e+12 -2.59505e+12 -2.6311e+12 -2.42154e+12 -787364000000.0 -1.47316e+12 -3.08477e+12 -3.80701e+12 -1.43255e+12 -2.91637e+12 -1.64263e+12 -2.73167e+12 -2.92165e+12 -3.03291e+12 -3.10358e+12 -3.13276e+12 -3.30694e+12 -3.24144e+12 -3.16837e+12 -3.08276e+12 -2.94383e+12 -2.69668e+12 -2.0915e+12 -3.08552e+12 -3.02019e+12 -2.87743e+12 -3.41105e+12 -3.72463e+12 -3.77423e+12 -3.75408e+12 -3.70645e+12 -3.12203e+12 -2.98895e+12 -2.84944e+12 -2.7184e+12 -2.6139e+12 -2.63777e+12 -3.03067e+12 -3.34491e+12 -1.45405e+12 -2.25174e+12 -2.20397e+12 -2.10301e+12 -1.73906e+12 -3.43148e+12 -1.63727e+12 -1.621e+12 -2.9251e+12 -3.59345e+12 -3.53035e+12 -3.44222e+12 -3.47247e+12 -3.89489e+12 -4.15481e+12 -4.49625e+12 -2.5847e+12 -2.48024e+12 -2.39902e+12 -2.52838e+12 -2.85438e+12 -3.00415e+12 -3.09677e+12 -3.16903e+12 -3.22674e+12 -3.27076e+12 -3.31294e+12 -3.36495e+12 -3.39075e+12 -3.14343e+12 -3.11637e+12 -3.10544e+12 -3.05615e+12 -2.92626e+12 -2.98681e+12 -3.2189e+12 -2.71662e+12 -2.97921e+12 -4.03085e+12 -1.86808e+12 -1.63406e+12 -2.15553e+12 -2.57773e+12 -2.51106e+12 -2.81311e+12 -2.11689e+12 -2.16675e+12 -2.28151e+12 -2.53595e+12 -2.68728e+12 -2.78571e+12 -3.11299e+12 -3.05182e+12 -3.00272e+12 -2.94241e+12 -2.81749e+12 -2.47407e+12 -2.47206e+12 -2.99052e+12 -2.92167e+12 -2.72037e+12 -2.23745e+12 -3.83346e+12 -3.85302e+12 -3.73212e+12 -3.61341e+12 -3.49676e+12 -3.37503e+12 -3.24939e+12 -2.69337e+12 -2.59308e+12 -2.53915e+12 -2.57359e+12 -2.72206e+12 -2.29341e+12 -3.01246e+12 -2.04343e+12 -2.10486e+12 -1.72351e+12 -1.15334e+12 -2.83176e+12 -2.04608e+12 -2.90261e+12 -3.07099e+12 -3.2603e+12 -3.52898e+12 -3.63474e+12 -3.82885e+12 -4.18005e+12 -4.51716e+12 -2.8554e+12 -3.05762e+12 -2.99331e+12 -2.81101e+12 -2.85484e+12 -2.90474e+12 -2.95733e+12 -3.00641e+12 -3.04736e+12 -3.08328e+12 -3.11974e+12 -3.14035e+12 -3.14468e+12 -2.68684e+12 -2.69609e+12 -2.65361e+12 -2.55085e+12 -2.62809e+12 -2.74787e+12 -2.35777e+12 -1.97544e+12 -3.11323e+12 -3.14339e+12 -1.2953e+12 -1.04445e+12 -2.80088e+12 -3.33193e+12 -2.70865e+12 -1.49967e+12 -1.87489e+12 -2.00177e+12 -2.23722e+12 -2.38524e+12 -2.49261e+12 -2.84492e+12 -2.87268e+12 -2.87422e+12 -2.86537e+12 -2.88651e+12 -2.95806e+12 -3.1252e+12 -2.38274e+12 -3.91332e+12 -3.75504e+12 -3.54982e+12 -3.38744e+12 -3.25248e+12 -3.12954e+12 -3.01533e+12 -2.90778e+12 -2.80079e+12 -2.45389e+12 -2.40689e+12 -2.33002e+12 -2.5976e+12 -2.8189e+12 -2.72167e+12 -1.55626e+12 -2.38099e+12 -2.36932e+12 -1.84161e+12 -2.14513e+12 -1.75346e+12 -890577000000.0 -1.68467e+12 -2.29134e+12 -2.45831e+12 -2.75343e+12 -3.26489e+12 -3.25467e+12 -3.28625e+12 -3.33894e+12 -3.42448e+12 -3.53889e+12 -3.58626e+12 -2.6966e+12 -2.84762e+12 -2.81435e+12 -2.84548e+12 -2.87379e+12 -2.9002e+12 -2.9166e+12 -2.92243e+12 -2.91197e+12 -2.81831e+12 -2.28792e+12 -2.28444e+12 -2.50453e+12 -2.26369e+12 -2.3174e+12 -1.6285e+12 -2.20783e+12 -2.04447e+12 -1.02755e+12 -900481000000.0 -648569000000.0 -1.70903e+12 -1.64306e+12 -2.02149e+12 -2.21938e+12 -2.42003e+12 -2.15543e+12 -1.9911e+12 -1.9927e+12 -2.11895e+12 -2.57004e+12 -2.62323e+12 -2.66217e+12 -2.69263e+12 -2.73388e+12 -2.81797e+12 -3.83383e+12 -4.1766e+12 -2.88185e+12 -2.8846e+12 -2.66273e+12 -1.96672e+12 -3.68485e+12 -3.47956e+12 -3.27114e+12 -3.11922e+12 -2.99747e+12 -2.89192e+12 -2.79762e+12 -2.70923e+12 -2.62078e+12 -2.53103e+12 -1.93359e+12 -2.74576e+12 -2.87055e+12 -2.33027e+12 -3.05747e+12 -2.46158e+12 -2.43454e+12 -1.79571e+12 -2.64297e+12 -2.37793e+12 -2.89044e+12 -3.00315e+12 -3.0358e+12 -3.05418e+12 -3.08778e+12 -3.1337e+12 -3.18541e+12 -3.19344e+12 -2.92694e+12 -2.86969e+12 -2.87591e+12 -2.80546e+12 -2.7435e+12 -2.7476e+12 -2.77749e+12 -2.69924e+12 -2.71094e+12 -2.72106e+12 -2.72155e+12 -2.70161e+12 -2.57088e+12 -2.24044e+12 -1.90638e+12 -1.98633e+12 -2.09659e+12 -1.92656e+12 -1.94503e+12 -2.1666e+12 -1.56304e+12 -726103000000.0 -643464000000.0 -376766000000.0 -733958000000.0 -698664000000.0 -1.21558e+12 -1.92722e+12 -1.83539e+12 -1.66675e+12 -1.78004e+12 -2.22313e+12 -2.3085e+12 -2.37564e+12 -2.43059e+12 -2.48427e+12 -2.53408e+12 -2.96367e+12 -3.26469e+12 -3.53496e+12 -3.26537e+12 -2.74213e+12 -2.57747e+12 -2.35837e+12 -2.1672e+12 -3.12199e+12 -2.96407e+12 -2.84659e+12 -2.75194e+12 -2.66904e+12 -2.59249e+12 -2.51709e+12 -2.43802e+12 -2.35592e+12 -2.27445e+12 -2.17338e+12 -2.69115e+12 -2.57362e+12 -1.42288e+12 -2.92488e+12 -847098000000.0 -2.35323e+12 -1.47016e+12 -1.94764e+12 -2.4748e+12 -2.5171e+12 -2.64412e+12 -2.72936e+12 -2.79759e+12 -2.83014e+12 -2.8518e+12 -2.87538e+12 -2.8951e+12 -2.88762e+12 -2.66032e+12 -2.65144e+12 -2.62803e+12 -2.59969e+12 -2.61339e+12 -2.64155e+12 -2.66177e+12 -2.68043e+12 -2.5219e+12 -2.52501e+12 -2.51483e+12 -2.51567e+12 -2.44419e+12 -1.83674e+12 -1.40926e+12 -1.85822e+12 -1.64341e+12 -1.55992e+12 -1.58513e+12 -1.77315e+12 -860360000000.0 -801322000000.0 -497492000000.0 -163533000000.0 -113395000000.0 -180866000000.0 -568656000000.0 -181065000000.0 -927189000000.0 -591839000000.0 -1.21166e+12 -1.42259e+12 -1.72108e+12 -1.57003e+12 -1.84029e+12 -1.882e+12 -1.97181e+12 -2.05735e+12 -2.13283e+12 -2.19749e+12 -2.25418e+12 -2.60668e+12 -2.70727e+12 -2.85458e+12 -2.96438e+12 -2.90296e+12 -2.72387e+12 -2.43372e+12 -2.26518e+12 -1.84778e+12 -3.29768e+12 -2.52614e+12 -2.46177e+12 -2.39747e+12 -2.32893e+12 -2.25144e+12 -2.16293e+12 -2.0531e+12 -1.89186e+12 -1.58988e+12 -2.88861e+12 -2.33375e+12 -2.43739e+12 -2.25163e+12 -2.35185e+12 -2.269e+12 -2.29936e+12 -2.38555e+12 -2.43875e+12 -2.50988e+12 -2.567e+12 -2.61068e+12 -2.63453e+12 -2.78333e+12 -2.73853e+12 -2.68798e+12 -2.43731e+12 -2.44185e+12 -2.43801e+12 -2.44654e+12 -2.47274e+12 -2.48808e+12 -2.49782e+12 -2.51019e+12 -2.51725e+12 -2.31302e+12 -2.31126e+12 -2.28977e+12 -2.25368e+12 -1.53154e+12 -1.51768e+12 -914930000000.0 -1.69014e+12 -1.63865e+12 -1.34252e+12 -1.24296e+12 -1.22093e+12 -749719000000.0 -934101000000.0 -265486000000.0 -130704000000.0 -416437000000.0 -722822000000.0 -1.14684e+12 -1.45563e+12 -1.43575e+12 -1.6148e+12 -1.66372e+12 -1.72415e+12 -1.81002e+12 -1.89305e+12 -1.96837e+12 -2.31243e+12 -2.36727e+12 -2.43681e+12 -2.52057e+12 -2.57695e+12 -2.54796e+12 -2.45614e+12 -2.3093e+12 -2.12687e+12 -2.00567e+12 -1.80199e+12 -2.86849e+12 -2.76865e+12 -2.67047e+12 -2.59346e+12 -2.21266e+12 -2.14505e+12 -2.06245e+12 -1.95998e+12 -1.82406e+12 -1.64449e+12 -1.29801e+12 -2.97075e+12 -2.80875e+12 -1.99508e+12 -2.17789e+12 -2.15204e+12 -2.2167e+12 -2.24017e+12 -2.28271e+12 -2.31858e+12 -2.36547e+12 -2.64822e+12 -2.65199e+12 -2.62914e+12 -2.56061e+12 -2.52081e+12 -2.48664e+12 -2.45192e+12 -2.23331e+12 -2.26179e+12 -2.29352e+12 -2.31322e+12 -2.32119e+12 -2.32943e+12 -2.33232e+12 -2.32803e+12 -2.32331e+12 -2.09331e+12 -2.05399e+12 -1.92452e+12 -1.29765e+12 -1.01341e+12 -1.34148e+12 -1.34588e+12 -1.34344e+12 -994438000000.0 -1.0623e+12 -565883000000.0 -85097200000.0 -288830000000.0 -198957000000.0 -604516000000.0 -750243000000.0 -1.06501e+12 -1.24816e+12 -1.38897e+12 -1.41352e+12 -1.46692e+12 -1.5588e+12 -1.65131e+12 -2.03111e+12 -2.06563e+12 -2.15374e+12 -2.14691e+12 -2.21959e+12 -2.26967e+12 -2.25614e+12 -2.1277e+12 -2.01333e+12 -1.93623e+12 -1.877e+12 -1.79608e+12 -2.49633e+12 -2.45678e+12 -2.41248e+12 -2.36826e+12 -2.3208e+12 -2.26938e+12 -1.87947e+12 -1.76875e+12 -1.62881e+12 -1.45449e+12 -1.16894e+12 -2.975e+12 -2.69316e+12 -2.52697e+12 -2.29014e+12 -2.35032e+12 -2.13907e+12 -2.14691e+12 -2.13837e+12 -2.12642e+12 -2.13378e+12 -2.13563e+12 -2.1475e+12 -2.40405e+12 -2.43066e+12 -2.44145e+12 -2.43882e+12 -2.41506e+12 -2.35758e+12 -2.27961e+12 -2.23665e+12 -2.20671e+12 -2.19737e+12 -2.21016e+12 -2.1307e+12 -2.14598e+12 -2.15425e+12 -2.15697e+12 -2.1491e+12 -2.14049e+12 -2.12599e+12 -2.10024e+12 -1.77944e+12 -1.52929e+12 -1.12824e+12 -1.00436e+12 -1.00829e+12 -879881000000.0 -286723000000.0 -616380000000.0 -483172000000.0 -645241000000.0 -1.22866e+12 -1.14549e+12 -1.74325e+12 -1.82517e+12 -1.88211e+12 -1.97131e+12 -2.02307e+12 -1.9061e+12 -2.01191e+12 -2.19649e+12 -2.04191e+12 -1.92725e+12 -1.83742e+12 -1.79805e+12 -1.78555e+12 -1.79215e+12 -1.78918e+12 -2.17642e+12 -2.20089e+12 -2.19371e+12 -2.16927e+12 -2.13419e+12 -2.09158e+12 -2.03758e+12 -1.96748e+12 -1.31392e+12 -1.10376e+12 -2.87653e+12 -2.62245e+12 -2.36839e+12 -2.27023e+12 -2.19284e+12 -2.14239e+12 -2.12181e+12 -2.10074e+12 -2.06652e+12 -2.18125e+12 -2.21394e+12 -2.23916e+12 -2.25198e+12 -2.24832e+12 -2.22652e+12 -2.17909e+12 -2.1047e+12 -1.95286e+12 -1.90407e+12 -1.91064e+12 -1.94326e+12 -1.99655e+12 -2.0506e+12 -2.09887e+12 -1.98182e+12 -1.98759e+12 -1.98165e+12 -1.96732e+12 -1.94629e+12 -1.93041e+12 -1.90312e+12 -1.85464e+12 -1.14188e+12 -1.28837e+12 -1.63269e+12 -1.36948e+12 -1.23343e+12 -635832000000.0 -469213000000.0 -188511000000.0 -282430000000.0 -532446000000.0 -309102000000.0 -1.19592e+12 -943226000000.0 -1.16252e+12 -1.28614e+12 -1.39976e+12 -1.5115e+12 -1.62194e+12 -1.705e+12 -1.82354e+12 -1.82555e+12 -1.90927e+12 -2.02015e+12 -1.97877e+12 -1.878e+12 -1.55644e+12 -1.55944e+12 -1.5869e+12 -1.6399e+12 -1.68743e+12 -1.73744e+12 -1.79279e+12 -1.96399e+12 -2.00548e+12 -2.00977e+12 -1.99352e+12 -1.96617e+12 -1.9278e+12 -1.87373e+12 -1.80277e+12 -1.7144e+12 -1.60469e+12 -1.47096e+12 -2.57568e+12 -2.35228e+12 -2.21934e+12 -2.1516e+12 -2.13049e+12 -2.1101e+12 -2.01319e+12 -1.97104e+12 -2.00533e+12 -2.03318e+12 -2.0567e+12 -2.07184e+12 -2.07342e+12 -2.05741e+12 -2.02151e+12 -1.96082e+12 -1.61963e+12 -1.72182e+12 -1.81129e+12 -1.89013e+12 -1.94016e+12 -1.96881e+12 -1.82405e+12 -1.81494e+12 -1.79232e+12 -1.78305e+12 -1.72962e+12 -1.67091e+12 -1.5842e+12 -1.40905e+12 -1.53798e+12 -2.24344e+12 -1.97212e+12 -981530000000.0 -816978000000.0 -318417000000.0 -331136000000.0 -379162000000.0 -724811000000.0 -979463000000.0 -1.12336e+12 -1.27544e+12 -1.41372e+12 -1.52569e+12 -1.63101e+12 -1.70818e+12 -1.82504e+12 -1.84648e+12 -1.81435e+12 -1.73595e+12 -1.65351e+12 -1.12279e+12 -1.84931e+12 -1.83623e+12 -1.81368e+12 -1.77799e+12 -1.72614e+12 -1.65879e+12 -1.57401e+12 -1.46918e+12 -1.337e+12 -1.11247e+12 -1.11347e+12 -2.09238e+12 -2.05681e+12 -1.98574e+12 -1.74512e+12 -1.81929e+12 -1.8534e+12 -1.87801e+12 -1.89559e+12 -1.90359e+12 -1.85519e+12 -1.46499e+12 -1.54635e+12 -1.54418e+12 -1.6713e+12 -1.74416e+12 -1.78895e+12 -1.8135e+12 -1.82317e+12 -1.63107e+12 -1.58109e+12 -1.52458e+12 -1.4466e+12 -1.34702e+12 -1.22613e+12 -1.32226e+12 -1.36505e+12 -1.28151e+12 -1.10389e+12 -569516000000.0 -378848000000.0 -106701000000.0 -135524000000.0 -86132300000.0 -222621000000.0 -976989000000.0 -518166000000.0 -689121000000.0 -888632000000.0 -1.07351e+12 -1.21831e+12 -1.3435e+12 -1.72355e+12 -1.7665e+12 -1.6979e+12 -1.65369e+12 -1.5837e+12 -1.48241e+12 -1.27045e+12 -1.45202e+12 -1.54843e+12 -1.61871e+12 -1.68343e+12 -1.74009e+12 -1.81576e+12 -1.84561e+12 -1.64667e+12 -1.60182e+12 -1.54247e+12 -1.46841e+12 -1.38495e+12 -1.28897e+12 -1.25824e+12 -1.27338e+12 -2.14033e+12 -2.08455e+12 -2.06317e+12 -2.07033e+12 -2.08906e+12 -2.09204e+12 -2.07236e+12 -2.00457e+12 -1.54479e+12 -1.62534e+12 -1.67085e+12 -1.898e+12 -1.87705e+12 -1.84288e+12 -1.79852e+12 -1.78333e+12 -1.05025e+12 -1.22192e+12 -1.3952e+12 -1.55166e+12 -1.61162e+12 -1.64789e+12 -1.66456e+12 -1.67198e+12 -1.67142e+12 -1.66406e+12 -1.33095e+12 -1.24286e+12 -1.13711e+12 -1.15719e+12 -678279000000.0 -800492000000.0 -655326000000.0 -714098000000.0 -114147000000.0 -221087000000.0 -266831000000.0 -717340000000.0 -575192000000.0 -1.43085e+12 -1.52574e+12 -1.59982e+12 -1.61063e+12 -1.56693e+12 -1.55305e+12 -1.44529e+12 -1.32876e+12 -858327000000.0 -1.25674e+12 -1.4153e+12 -1.4927e+12 -1.55585e+12 -1.60654e+12 -1.64474e+12 -1.68487e+12 -1.70434e+12 -1.7053e+12 -1.69296e+12 -1.67637e+12 -1.38433e+12 -1.32828e+12 -1.30571e+12 -1.31828e+12 -1.44444e+12 -1.7961e+12 -1.90152e+12 -1.9662e+12 -2.02624e+12 -2.09114e+12 -2.10801e+12 -2.05188e+12 -1.37577e+12 -1.70014e+12 -1.72102e+12 -1.73405e+12 -1.73726e+12 -1.72829e+12 -1.70748e+12 -1.678e+12 -1.65427e+12 -1.63448e+12 -622386000000.0 -1.02525e+12 -1.2165e+12 -1.45483e+12 -1.49091e+12 -1.5164e+12 -1.52751e+12 -1.53102e+12 -1.52605e+12 -1.49438e+12 -1.45472e+12 -1.39914e+12 -442777000000.0 -618577000000.0 -266949000000.0 -617312000000.0 -640487000000.0 -877448000000.0 -1.01801e+12 -1.1571e+12 -1.23805e+12 -1.34265e+12 -1.42823e+12 -1.44819e+12 -1.46063e+12 -1.36117e+12 -1.36407e+12 -1.2165e+12 -1.07372e+12 -1.05845e+12 -1.29983e+12 -1.40324e+12 -1.44381e+12 -1.48209e+12 -1.51309e+12 -1.53983e+12 -1.56423e+12 -1.57588e+12 -1.57329e+12 -1.55996e+12 -1.55815e+12 -1.54065e+12 -1.50563e+12 -1.45289e+12 -1.70389e+12 -1.82161e+12 -1.92424e+12 -2.02638e+12 -2.16899e+12 -2.15029e+12 -1.44239e+12 -1.48542e+12 -1.52061e+12 -1.54651e+12 -1.56494e+12 -1.57529e+12 -1.57613e+12 -1.56594e+12 -1.54439e+12 -1.50994e+12 -1.44915e+12 -1.25147e+12 -657793000000.0 -1.00905e+12 -1.33259e+12 -1.38876e+12 -1.44656e+12 -1.39497e+12 -1.40065e+12 -1.39513e+12 -1.36837e+12 -1.32865e+12 -1.28836e+12 -1.22294e+12 -1.14338e+12 -1.04196e+12 -973246000000.0 -907262000000.0 -545675000000.0 -446503000000.0 -118874000000.0 -30531600000.0 -31087900000.0 -162043000000.0 -536190000000.0 -648891000000.0 -816332000000.0 -965049000000.0 -1.04645e+12 -1.15929e+12 -1.24545e+12 -1.27593e+12 -1.28398e+12 -1.28461e+12 -1.30573e+12 -1.15709e+12 -1.2005e+12 -1.06121e+12 -1.12498e+12 -1.23927e+12 -1.35166e+12 -1.36454e+12 -1.37632e+12 -1.39533e+12 -1.41461e+12 -1.43294e+12 -1.44924e+12 -1.4564e+12 -1.4506e+12 -1.43104e+12 -1.46717e+12 -1.46689e+12 -1.44535e+12 -1.37932e+12 -1.3205e+12 -1.29355e+12 -1.30147e+12 -1.36556e+12 -1.47923e+12 -1.63899e+12 -1.77254e+12 -1.23717e+12 -1.26828e+12 -1.29872e+12 -1.33617e+12 -1.36917e+12 -1.39492e+12 -1.41313e+12 -1.42323e+12 -1.42423e+12 -1.41475e+12 -1.0798e+12 -837678000000.0 -1.21074e+12 -1.24604e+12 -1.2937e+12 -1.34411e+12 -1.3774e+12 -1.28677e+12 -1.26924e+12 -1.23215e+12 -1.18262e+12 -1.12678e+12 -1.05433e+12 -964337000000.0 -873574000000.0 -742841000000.0 -612238000000.0 -298659000000.0 -16751100000.0 -547321000000.0 -532494000000.0 -612687000000.0 -764984000000.0 -861589000000.0 -977092000000.0 -1.06204e+12 -1.09391e+12 -857898000000.0 -958346000000.0 -1.05862e+12 -1.03984e+12 -1.34433e+12 -1.33335e+12 -1.28242e+12 -1.42986e+12 -1.46564e+12 -1.38046e+12 -1.30588e+12 -1.26374e+12 -1.2525e+12 -1.27417e+12 -1.34235e+12 -1.9094e+12 -2.07068e+12 -2.39046e+12 -1.17033e+12 -1.08712e+12 -1.10011e+12 -1.14047e+12 -1.18417e+12 -1.22102e+12 -1.39147e+12 -1.34008e+12 -1.21045e+12 -1.13272e+12 -1.20819e+12 -1.24697e+12 -1.27313e+12 -1.28624e+12 -1.0449e+12 -977305000000.0 -895969000000.0 -808931000000.0 -695785000000.0 -532294000000.0 -471167000000.0 -314487000000.0 -177422000000.0 -479425000000.0 -486484000000.0 -1.09686e+12 -1.13882e+12 -1.14639e+12 -1.22228e+12 -1.09761e+12 -973151000000.0 -1.31338e+12 -1.2961e+12 -1.28708e+12 -1.29009e+12 -1.29942e+12 -1.31207e+12 -1.32611e+12 -1.33892e+12 -1.41301e+12 -1.29405e+12 -1.22445e+12 -1.18572e+12 -1.17642e+12 -1.44467e+12 -1.58291e+12 -1.71406e+12 -1.84645e+12 -1.8864e+12 -685505000000.0 -829652000000.0 -1.24935e+12 -1.2695e+12 -1.28188e+12 -1.28624e+12 -1.27963e+12 -1.24792e+12 -1.13282e+12 -984949000000.0 -936324000000.0 -1.25045e+12 -1.12131e+12 -1.15436e+12 -1.17817e+12 -1.19341e+12 -1.18767e+12 -1.15589e+12 -1.10621e+12 -481521000000.0 -399404000000.0 -245957000000.0 -45886300000.0 -180835000000.0 -373088000000.0 -593217000000.0 -669379000000.0 -796600000000.0 -885816000000.0 -959651000000.0 -1.05308e+12 -1.13626e+12 -1.23209e+12 -1.31842e+12 -1.53993e+12 -1.77148e+12 -1.97669e+12 -1.94531e+12 -1.70065e+12 -1.43267e+12 -1.31112e+12 -1.22957e+12 -1.19826e+12 -1.19044e+12 -1.19488e+12 -1.20452e+12 -1.21873e+12 -1.23338e+12 -1.2398e+12 -1.21171e+12 -1.01684e+12 -1.64866e+12 -1.21291e+12 -1.29037e+12 -1.38878e+12 -1.51492e+12 -1.66312e+12 -1.82231e+12 -696505000000.0 -911891000000.0 -983240000000.0 -1.0396e+12 -1.08213e+12 -1.1138e+12 -1.13739e+12 -1.15652e+12 -1.17636e+12 -1.20626e+12 -1.26903e+12 -1.49564e+12 -1.846e+12 -1.90619e+12 -2.16973e+12 -1.65917e+12 -1.35875e+12 -1.18172e+12 -1.13666e+12 -1.0473e+12 -1.10592e+12 -1.12598e+12 -1.09571e+12 -1.0436e+12 -978673000000.0 -909052000000.0 -833076000000.0 -748651000000.0 -663984000000.0 -219669000000.0 -202017000000.0 -81726000000.0 -451607000000.0 -547185000000.0 -639849000000.0 -746928000000.0 -838471000000.0 -936407000000.0 -1.04562e+12 -1.17533e+12 -1.30168e+12 -789354000000.0 -1.27672e+12 -1.50328e+12 -1.60381e+12 -1.5354e+12 -1.38287e+12 -1.21873e+12 -1.14498e+12 -1.09772e+12 -1.07861e+12 -1.07663e+12 -1.08265e+12 -1.0953e+12 -1.11486e+12 -1.1362e+12 -1.14043e+12 -1.03218e+12 -1.23203e+12 -1.21716e+12 -1.16755e+12 -1.10591e+12 -1.07867e+12 -1.08992e+12 -1.13522e+12 -1.20051e+12 -1.29337e+12 -1.41933e+12 -1.55646e+12 -703685000000.0 -748425000000.0 -552620000000.0 -669800000000.0 -771748000000.0 -852670000000.0 -912473000000.0 -956141000000.0 -988167000000.0 -1.01347e+12 -1.03777e+12 -1.06886e+12 -1.11889e+12 -1.2258e+12 -1.41542e+12 -1.55773e+12 -1.65638e+12 -1.55111e+12 -1.3147e+12 -1.13905e+12 -1.02856e+12 -976178000000.0 -1.0208e+12 -1.10011e+12 -1.0633e+12 -999044000000.0 -925534000000.0 -849329000000.0 -772890000000.0 -689718000000.0 -599625000000.0 -449370000000.0 -347493000000.0 -150532000000.0 -159327000000.0 -265459000000.0 -394017000000.0 -480724000000.0 -608686000000.0 -708712000000.0 -803357000000.0 -911943000000.0 -523131000000.0 -800792000000.0 -1.06257e+12 -1.1977e+12 -1.23169e+12 -967994000000.0 -989856000000.0 -1.03097e+12 -1.10532e+12 -1.23719e+12 -1.29953e+12 -1.22464e+12 -1.31183e+12 -1.1629e+12 -1.02767e+12 -974775000000.0 -963480000000.0 -978694000000.0 -1.01271e+12 -365284000000.0 -542169000000.0 -661430000000.0 -743806000000.0 -800679000000.0 -840003000000.0 -1.02429e+12 -909065000000.0 -816480000000.0 -738786000000.0 -888348000000.0 -798788000000.0 -714763000000.0 -638514000000.0 -549055000000.0 -385972000000.0 -316131000000.0 -156829000000.0 -41475900000.0 -123046000000.0 -200862000000.0 -193839000000.0 -310056000000.0 -1.04977e+12 -1.21914e+12 -1.18304e+12 -1.09431e+12 -1.01557e+12 -976389000000.0 -955742000000.0 -951541000000.0 -955858000000.0 -1.28718e+12 -1.04058e+12 -894014000000.0 -847298000000.0 -1.07459e+12 -1.16772e+12 -1.28153e+12 -583332000000.0 -586068000000.0 -633451000000.0 -292458000000.0 -867930000000.0 -890848000000.0 -915141000000.0 -948965000000.0 -1.00402e+12 -1.08405e+12 -1.15884e+12 -1.23716e+12 -1.22726e+12 -1.15257e+12 -1.17032e+12 -1.08379e+12 -984848000000.0 -353073000000.0 -253049000000.0 -123699000000.0 -87625700000.0 -48524100000.0 -38886700000.0 -97303500000.0 -490627000000.0 -580730000000.0 -676618000000.0 -759074000000.0 -873942000000.0 -1.02028e+12 -408579000000.0 -518910000000.0 -688192000000.0 -841099000000.0 -911314000000.0 -924708000000.0 -896818000000.0 -854820000000.0 -826276000000.0 -815842000000.0 -815238000000.0 -821394000000.0 -832163000000.0 -851360000000.0 -879099000000.0 -945140000000.0 -1.07104e+12 -264947000000.0 -833647000000.0 -825795000000.0 -835799000000.0 -868641000000.0 -925319000000.0 -999021000000.0 -484586000000.0 -509072000000.0 -464576000000.0 -575507000000.0 -473682000000.0 -583318000000.0 -654428000000.0 -700192000000.0 -728124000000.0 -746979000000.0 -763668000000.0 -782984000000.0 -811557000000.0 -840671000000.0 -845945000000.0 -825403000000.0 -883180000000.0 -895656000000.0 -852437000000.0 -765916000000.0 -673311000000.0 -585967000000.0 -476664000000.0 -1.11152e+12 -987889000000.0 -864568000000.0 -756022000000.0 -657923000000.0 -577648000000.0 -516481000000.0 -93478900000.0 -35288900000.0 -83005300000.0 -164156000000.0 -290702000000.0 -437609000000.0 -543575000000.0 -644890000000.0 -678410000000.0 -799061000000.0 -276808000000.0 -246658000000.0 -380107000000.0 -529971000000.0 -620127000000.0 -642636000000.0 -660469000000.0 -644046000000.0 -646236000000.0 -654552000000.0 -666379000000.0 -678383000000.0 -691702000000.0 -704377000000.0 -725974000000.0 -749235000000.0 -858275000000.0 -1.10581e+12 -1.2174e+12 -1.25689e+12 -1.1777e+12 -809756000000.0 -712807000000.0 -714362000000.0 -690613000000.0 -677152000000.0 -679763000000.0 -699242000000.0 -741025000000.0 -396809000000.0 -440335000000.0 -470230000000.0 -462761000000.0 -545914000000.0 -301446000000.0 -441773000000.0 -527639000000.0 -577570000000.0 -602009000000.0 -612849000000.0 -621480000000.0 -629479000000.0 -641576000000.0 -651888000000.0 -634462000000.0 -537374000000.0 -488312000000.0 -605331000000.0 -642465000000.0 -605354000000.0 -532644000000.0 -443951000000.0 -340982000000.0 -349530000000.0 -984778000000.0 -850167000000.0 -726753000000.0 -596499000000.0 -502733000000.0 -433896000000.0 -365264000000.0 -207714000000.0 -105509000000.0 -37338700000.0 -104971000000.0 -143515000000.0 -244150000000.0 -368068000000.0 -392179000000.0 -433764000000.0 -523063000000.0 -678267000000.0 -619245000000.0 -137094000000.0 -192572000000.0 -153047000000.0 -280690000000.0 -366074000000.0 -435989000000.0 -432436000000.0 -413240000000.0 -545976000000.0 -560054000000.0 -562221000000.0 -576882000000.0 -538058000000.0 -697698000000.0 -992885000000.0 -254020000000.0 -372921000000.0 -579457000000.0 -564089000000.0 -534784000000.0 -518532000000.0 -476514000000.0 -507143000000.0 -317271000000.0 -354410000000.0 -384717000000.0 -413785000000.0 -447256000000.0 -507834000000.0 -315268000000.0 -424604000000.0 -484226000000.0 -498612000000.0 -493189000000.0 -492246000000.0 -447277000000.0 -395972000000.0 -318540000000.0 -216206000000.0 -262876000000.0 -238096000000.0 -814405000000.0 -724077000000.0 -549883000000.0 -403577000000.0 -341067000000.0 -303412000000.0 -253433000000.0 -199373000000.0 -90425500000.0 -70181700000.0 -26236200000.0 -39542500000.0 -100262000000.0 -218589000000.0 -425759000000.0 -467859000000.0 -503061000000.0 -526701000000.0 -880438000000.0 -618200000000.0 -488771000000.0 -491858000000.0 -495137000000.0 -493032000000.0 -464527000000.0 -417338000000.0 -369543000000.0 -450987000000.0 -170460000000.0 -157368000000.0 -73565400000.0 -31033100000.0 -270273000000.0 -291803000000.0 -326861000000.0 -330174000000.0 -495503000000.0 -733547000000.0 -49052200000.0 -66440500000.0 -113515000000.0 -145367000000.0 -143422000000.0 -279544000000.0 -310310000000.0 -281749000000.0 -314149000000.0 -324762000000.0 -344396000000.0 -365994000000.0 -399567000000.0 -416390000000.0 -425936000000.0 -398163000000.0 -434944000000.0 -224344000000.0 -502799000000.0 -974733000000.0 -584544000000.0 -516684000000.0 -695919000000.0 -486559000000.0 -406265000000.0 -392401000000.0 -262640000000.0 -290937000000.0 -227421000000.0 -264505000000.0 -297663000000.0 -333457000000.0 -365440000000.0 -404695000000.0 -485498000000.0 -338352000000.0 -427602000000.0 -442831000000.0 -389280000000.0 -379212000000.0 -358069000000.0 -352441000000.0 -354179000000.0 -347655000000.0 -374443000000.0 -349984000000.0 -314579000000.0 -309115000000.0 -302707000000.0 -269333000000.0 -198625000000.0 -128347000000.0 -161592000000.0 -147741000000.0 -115948000000.0 -771050000000.0 -539292000000.0 -359228000000.0 -194893000000.0 -202897000000.0 -193679000000.0 -35009800000.0 -83267200000.0 -150235000000.0 -194086000000.0 -207445000000.0 -219266000000.0 -202305000000.0 -357676000000.0 -602424000000.0 -23908600000.0 -53209700000.0 -83120100000.0 -135502000000.0 -136085000000.0 -167502000000.0 -204140000000.0 -204876000000.0 -188416000000.0 -231927000000.0 -229976000000.0 -236021000000.0 -246382000000.0 -280796000000.0 -279488000000.0 -313014000000.0 -244099000000.0 -335999000000.0 -69421500000.0 -421212000000.0 -23075300000.0 -80912300000.0 -350379000000.0 -139690000000.0 -290302000000.0 -90525500000.0 -194303000000.0 -84722600000.0 -182226000000.0 -185696000000.0 -263260000000.0 -263958000000.0 -322803000000.0 -335066000000.0 -491038000000.0 -429269000000.0 -424056000000.0 -333395000000.0 -304029000000.0 -234604000000.0 -211763000000.0 -215602000000.0 -215297000000.0 -246369000000.0 -254859000000.0 -247947000000.0 -240697000000.0 -232832000000.0 -133945000000.0 -161000000000.0 -157977000000.0 -145015000000.0 -108287000000.0 -66525300000.0 -19481000000.0 -686304000000.0 -557793000000.0 -428865000000.0 -326210000000.0 -267071000000.0 -253751000000.0 -215242000000.0 -166998000000.0 -99070700000.0 -40153900000.0 -557252000000.0 -767080000000.0 -516158000000.0 -9035750000.0 -9035750000.0 -22188700000.0 -47092600000.0 -54233900000.0 -68501500000.0 -223230000000.0 -361234000000.0 -367954000000.0 -167008000000.0 -125940000000.0 -92664300000.0 -61257100000.0 -76818900000.0 -106691000000.0 -116410000000.0 -106730000000.0 -126619000000.0 -171455000000.0 -222493000000.0 -273097000000.0 -320520000000.0 -391629000000.0 -431298000000.0 -506441000000.0 -478302000000.0 -567926000000.0 -383184000000.0 -586432000000.0 -510521000000.0 -321603000000.0 -312734000000.0 -425393000000.0 -270659000000.0 -352716000000.0 -222618000000.0 -262603000000.0 -206070000000.0 -227384000000.0 -192077000000.0 -214893000000.0 -201270000000.0 -234389000000.0 -278694000000.0 -309386000000.0 -270294000000.0 -273463000000.0 -231187000000.0 -215048000000.0 -235757000000.0 -238032000000.0 -207585000000.0 -124532000000.0 -151016000000.0 -164921000000.0 -159212000000.0 -135819000000.0 -36515400000.0 -32210800000.0 -58202100000.0 -81582000000.0 -103904000000.0 -129468000000.0 -244129000000.0 -559590000000.0 -360884000000.0 -215007000000.0 -92837400000.0 -36416300000.0 -20340300000.0 -9035750000.0 -9035750000.0 -9035750000.0 -18570300000.0 -38231300000.0 -66530100000.0 -111398000000.0 -136539000000.0 -167013000000.0 -265958000000.0 -348701000000.0 -273498000000.0 -13442700000.0 -17792200000.0 -23079400000.0 -29193000000.0 -38819500000.0 -80800100000.0 -101634000000.0 -109653000000.0 -117854000000.0 -148371000000.0 -153450000000.0 -149765000000.0 -147031000000.0 -169104000000.0 -166932000000.0 -195509000000.0 -150728000000.0 -198346000000.0 -89031200000.0 -102440000000.0 -445819000000.0 -315238000000.0 -148231000000.0 -209137000000.0 -143368000000.0 -212696000000.0 -132662000000.0 -209388000000.0 -134606000000.0 -153948000000.0 -110310000000.0 -121746000000.0 -84202500000.0 -85368900000.0 -55027300000.0 -69314700000.0 -31277200000.0 -48507900000.0 -26511800000.0 -41455900000.0 -31563800000.0 -136916000000.0 -120021000000.0 -111305000000.0 -63273000000.0 -96075700000.0 -154079000000.0 -196801000000.0 -218981000000.0 -205495000000.0 -122543000000.0 -96850400000.0 -75071300000.0 -54947000000.0 -35785900000.0 -17794100000.0 -160767000000.0 -489117000000.0 -370873000000.0 -278589000000.0 -176696000000.0 -141508000000.0 -99923000000.0 -67754000000.0 -43434200000.0 -20391200000.0 -9035750000.0 -9035750000.0 -13609600000.0 -39253300000.0 -43953100000.0 -52631800000.0 -113279000000.0 -236798000000.0 -269662000000.0 -56785600000.0 -58652000000.0 -62968100000.0 -67450700000.0 -75668300000.0 -113951000000.0 -140876000000.0 -161848000000.0 -180839000000.0 -217823000000.0 -233835000000.0 -243383000000.0 -245670000000.0 -254637000000.0 -237305000000.0 -241960000000.0 -184301000000.0 -206173000000.0 -117327000000.0 -116534000000.0 -167913000000.0 -402113000000.0 -38591100000.0 -41687600000.0 -23163600000.0 -74172800000.0 -14066100000.0 -77673200000.0 -13692800000.0 -37665500000.0 -14428100000.0 -39880100000.0 -19080000000.0 -40744800000.0 -24272400000.0 -58774400000.0 -26428600000.0 -49094300000.0 -40450000000.0 -59465100000.0 -53685900000.0 -111150000000.0 -96492000000.0 -89192400000.0 -53891300000.0 -36205800000.0 -63430700000.0 -78491500000.0 -79171400000.0 -51011800000.0 -12899900000.0 -20109800000.0 -27786200000.0 -36297100000.0 -45775000000.0 -56829800000.0 -201206000000.0 -382065000000.0 -199632000000.0 -91291800000.0 -35743100000.0 -31136300000.0 -13883400000.0 -9047020000.0 -9035750000.0 -9035750000.0 -9412260000.0 -10164000000.0 -14615300000.0 -41841800000.0 -48497300000.0 -56134300000.0 -86415600000.0 -186413000000.0 -225058000000.0 -9686490000.0 -10599000000.0 -11139500000.0 -9137400000.0 -11546300000.0 -40999700000.0 -55439000000.0 -68434200000.0 -78853900000.0 -105509000000.0 -116987000000.0 -124239000000.0 -125705000000.0 -139472000000.0 -137792000000.0 -158910000000.0 -121403000000.0 -146453000000.0 -84537300000.0 -38317100000.0 -124456000000.0 -345455000000.0 -131409000000.0 -125406000000.0 -113895000000.0 -142411000000.0 -84396900000.0 -133672000000.0 -73522200000.0 -84521700000.0 -56335100000.0 -73110300000.0 -44902500000.0 -61420000000.0 -34835200000.0 -68211000000.0 -23062200000.0 -36801300000.0 -27333300000.0 -41345700000.0 -32477900000.0 -64924400000.0 -66135700000.0 -72040100000.0 -61817400000.0 -40135800000.0 -58394000000.0 -72069400000.0 -71106400000.0 -47710800000.0 -16359400000.0 -14787500000.0 -13297300000.0 -12215900000.0 -10891200000.0 -10392300000.0 -154108000000.0 -301449000000.0 -171490000000.0 -79422200000.0 -46369500000.0 -40448800000.0 -19735900000.0 -13093700000.0 -11400100000.0 -9820790000.0 -9038890000.0 -9035940000.0 -11899800000.0 -38369000000.0 -45973300000.0 -52269900000.0 -65738500000.0 -151880000000.0 -210591000000.0 -14469300000.0 -16884900000.0 -18936100000.0 -18963400000.0 -25322900000.0 -55763500000.0 -69048100000.0 -84482200000.0 -96441700000.0 -121194000000.0 -132604000000.0 -139575000000.0 -139190000000.0 -146414000000.0 -138237000000.0 -148991000000.0 -115341000000.0 -139672000000.0 -109011000000.0 -68027400000.0 -154551000000.0 -230484000000.0 -23918600000.0 -10853100000.0 -34111000000.0 -56673600000.0 -16653800000.0 -64962400000.0 -16979100000.0 -30558600000.0 -13981100000.0 -36587200000.0 -15406800000.0 -38202600000.0 -15067600000.0 -55051600000.0 -9768210000.0 -25116800000.0 -20517800000.0 -38160000000.0 -34134400000.0 -55311900000.0 -55209000000.0 -64879100000.0 -58157600000.0 -35928600000.0 -43744200000.0 -54186700000.0 -51394400000.0 -36633000000.0 -10450600000.0 -10279200000.0 -10237200000.0 -11202200000.0 -11499100000.0 -13788200000.0 -152540000000.0 -247202000000.0 -128042000000.0 -50454000000.0 -35261000000.0 -32333100000.0 -13496500000.0 -9046270000.0 -9035760000.0 -9042280000.0 -9038100000.0 -9035990000.0 -11177000000.0 -36544700000.0 -45129300000.0 -50798100000.0 -58105800000.0 -125608000000.0 -191646000000.0 -11498700000.0 -11770700000.0 -11549000000.0 -9173400000.0 -13978200000.0 -39371700000.0 -48290100000.0 -60122300000.0 -68307800000.0 -88050700000.0 -98201700000.0 -105486000000.0 -105900000000.0 -113178000000.0 -106878000000.0 -116142000000.0 -82969300000.0 -92109200000.0 -67472200000.0 -9783900000.0 -109448000000.0 -182882000000.0 -56958100000.0 -34027600000.0 -52119700000.0 -68467800000.0 -23533600000.0 -64789600000.0 -15946300000.0 -29417000000.0 -14863300000.0 -37001900000.0 -17171700000.0 -40411900000.0 -16619400000.0 -56864000000.0 -9398420000.0 -23083200000.0 -20126000000.0 -37507100000.0 -34272200000.0 -51677800000.0 -51739600000.0 -63391800000.0 -57909500000.0 -38108100000.0 -37898800000.0 -45908500000.0 -42561600000.0 -34301600000.0 -10805600000.0 -10231500000.0 -9822250000.0 -10344200000.0 -9545420000.0 -12288000000.0 -142941000000.0 -205106000000.0 -101907000000.0 -41861100000.0 -33261400000.0 -31138500000.0 -13118900000.0 -9063980000.0 -9035770000.0 -9040790000.0 -9037470000.0 -9035980000.0 -10568000000.0 -34030100000.0 -43040000000.0 -47884800000.0 -53350600000.0 -103661000000.0 -171881000000.0 -12258500000.0 -12116800000.0 -11580700000.0 -9292420000.0 -14670100000.0 -36957700000.0 -45372500000.0 -55631900000.0 -62263300000.0 -78974800000.0 -88647100000.0 -96056300000.0 -96572000000.0 -103215000000.0 -97665300000.0 -105163000000.0 -76942200000.0 -84011100000.0 -67794600000.0 -17557000000.0 -100050000000.0 -126872000000.0 -30075600000.0 -9035750000.0 -32777300000.0 -50336100000.0 -15199100000.0 -59122300000.0 -14995000000.0 -27663400000.0 -15201800000.0 -36261100000.0 -18385400000.0 -40941700000.0 -17641400000.0 -55962400000.0 -9308520000.0 -21731400000.0 -20006800000.0 -36728200000.0 -34097600000.0 -49554600000.0 -49756300000.0 -60873000000.0 -55570200000.0 -38395500000.0 -33105200000.0 -39143200000.0 -35645800000.0 -31612700000.0 -11041800000.0 -10413700000.0 -9981840000.0 -10640000000.0 -9638180000.0 -13215200000.0 -131703000000.0 -168519000000.0 -79348200000.0 -36382900000.0 -30545900000.0 -29197600000.0 -12721200000.0 -9077880000.0 -9035780000.0 -9039620000.0 -9036960000.0 -9035960000.0 -10085700000.0 -31052800000.0 -39944800000.0 -44122800000.0 -49151100000.0 -86901600000.0 -150790000000.0 -12719000000.0 -12255600000.0 -11521900000.0 -9372510000.0 -14917900000.0 -33808500000.0 -42098900000.0 -50622300000.0 -55302100000.0 -68451000000.0 -76227000000.0 -82342200000.0 -82260500000.0 -87161000000.0 -81266300000.0 -86428100000.0 -61926300000.0 -65887900000.0 -54343200000.0 -9035750000.0 -104995000000.0 -31436900000.0 -9035750000.0 -30141100000.0 -46425500000.0 -14186200000.0 -54542700000.0 -14097300000.0 -25531900000.0 -15062600000.0 -34479300000.0 -18902800000.0 -39842400000.0 -18102200000.0 -53050400000.0 -9266690000.0 -20407700000.0 -19495600000.0 -35018300000.0 -32858500000.0 -46540300000.0 -46908100000.0 -57005600000.0 -52023100000.0 -37345000000.0 -29831200000.0 -33818900000.0 -30764800000.0 -28866400000.0 -11195700000.0 -10518100000.0 -10067300000.0 -10801600000.0 -9686530000.0 -13787100000.0 -118460000000.0 -137662000000.0 -62391200000.0 -32297600000.0 -27515600000.0 -26798900000.0 -12299600000.0 -9086320000.0 -9035790000.0 -9038730000.0 -88617500000.0 -9036590000.0 -9035910000.0 -9729500000.0 -27794800000.0 -36090300000.0 -39597100000.0 -44138500000.0 -73336000000.0 -128687000000.0 -12842300000.0 -12186300000.0 -11362500000.0 -9411360000.0 -14752800000.0 -30247100000.0 -38205300000.0 -45210400000.0 -48375700000.0 -58580500000.0 -65042300000.0 -70267800000.0 -70056300000.0 -74044100000.0 -68669000000.0 -72526700000.0 -52267300000.0 -54730700000.0 -46511000000.0 -9035750000.0 -76808000000.0 -82110200000.0 -28893700000.0 -9035750000.0 -27239000000.0 -41563300000.0 -13259100000.0 -48959000000.0 -13237200000.0 -23158600000.0 -14565900000.0 -31839300000.0 -18687500000.0 -37317800000.0 -17963200000.0 -48536200000.0 -9230740000.0 -18988700000.0 -18565100000.0 -32441400000.0 -30693100000.0 -42531900000.0 -42979900000.0 -51819200000.0 -47318800000.0 -34970500000.0 -27306600000.0 -29457600000.0 -27182900000.0 -26052800000.0 -11196500000.0 -10518000000.0 -10075500000.0 -10825000000.0 -9688220000.0 -13945800000.0 -103589000000.0 -111051000000.0 -49292900000.0 -28359500000.0 -24424000000.0 -24129300000.0 -11819100000.0 -9089330000.0 -9035790000.0 -9038040000.0 -9036320000.0 -9035860000.0 -9482090000.0 -24390000000.0 -31688000000.0 -34528200000.0 -106366000000.0 -12639200000.0 -11918400000.0 -11101800000.0 -9409480000.0 -14215800000.0 -26489300000.0 -33689000000.0 -39342600000.0 -58349800000.0 -58074800000.0 -61249700000.0 -56585100000.0 -59417100000.0 -43272100000.0 -44701400000.0 -38834800000.0 -9035750000.0 -65487100000.0 -26628100000.0 -9035750000.0 -24124200000.0 -36081400000.0 -12432600000.0 -42564800000.0 -20646700000.0 -13812700000.0 -28512300000.0 -17803800000.0 -33624300000.0 -17237900000.0 -42777800000.0 -9197090000.0 -17403600000.0 -17268200000.0 -29126400000.0 -27749900000.0 -37638000000.0 -38091300000.0 -45508400000.0 -41642900000.0 -31558100000.0 -24796900000.0 -25738300000.0 -24089800000.0 -23164900000.0 -11046200000.0 -10414600000.0 -10007700000.0 -10713600000.0 -9643790000.0 -13688300000.0 -87601800000.0 -87918900000.0 -21385800000.0 -21329800000.0 -11287500000.0 -9087260000.0 -9035790000.0 -9037490000.0 -38409500000.0 -61327800000.0 -41324300000.0 -48931600000.0 -54091200000.0 -65408400000.0 -12410000000.0 -39046900000.0 -24517000000.0 -9036110000.0 -9035830000.0 -9314460000.0 -20929000000.0 -26907600000.0 -29091700000.0 -32182500000.0 -49666900000.0 -84139100000.0 -12147500000.0 -11472200000.0 -10746800000.0 -9369820000.0 -13363800000.0 -22635500000.0 -28653400000.0 -33077000000.0 -34182500000.0 -39574800000.0 -43480800000.0 -46752900000.0 -46474500000.0 -48893400000.0 -45112500000.0 -47111800000.0 -34895300000.0 -35651500000.0 -31524100000.0 -9035750000.0 -53380800000.0 -50910900000.0 -23486900000.0 -9035750000.0 -20853100000.0 -30225800000.0 -11659500000.0 -35572400000.0 -11614400000.0 -18064300000.0 -12882200000.0 -24651400000.0 -16372000000.0 -29009400000.0 -15984700000.0 -36079500000.0 -9162850000.0 -15663800000.0 -15686200000.0 -25216000000.0 -24179000000.0 -31999900000.0 -32401900000.0 -38272800000.0 -35163000000.0 -27332000000.0 -21895300000.0 -22228200000.0 -20979000000.0 -20163000000.0 -10756200000.0 -10215600000.0 -9870070000.0 -10478700000.0 -9556720000.0 -13056500000.0 -70791600000.0 -67497600000.0 -30823600000.0 -20815900000.0 -18449000000.0 -18503900000.0 -10743600000.0 -9080710000.0 -9035790000.0 -9037040000.0 -9035960000.0 -9035810000.0 -9201350000.0 -17464300000.0 -11419000000.0 -10877100000.0 -9297680000.0 -35528200000.0 -27388300000.0 -9035750000.0 -37796500000.0 -9035750000.0 -24171200000.0 -28162200000.0 -15453400000.0 -20394500000.0 -14526000000.0 -23700000000.0 -14294800000.0 -28699700000.0 -9127180000.0 -13812500000.0 -13896700000.0 -20848500000.0 -20126700000.0 -25771600000.0 -53353600000.0 -49137100000.0 -15709800000.0 -10218500000.0 -9070440000.0 -9035780000.0 -9036650000.0 -21878700000.0 -23419000000.0 -25646600000.0 -37973600000.0 -62153400000.0 -10311600000.0 -12270100000.0 -18727500000.0 -23228900000.0 -26444200000.0 -26965500000.0 -30504800000.0 -33220200000.0 -35517900000.0 -35285500000.0 -36984600000.0 -34215100000.0 -27034700000.0 -24639000000.0 -40874000000.0 -19716600000.0 -17480400000.0 -10901600000.0 -10846800000.0 -11835300000.0 -26082300000.0 -30315500000.0 -28049000000.0 -22477900000.0 -18534500000.0 -18617700000.0 -17690400000.0 -17038800000.0 -10347500000.0 -9935290000.0 -9673120000.0 -10139300000.0 -9433300000.0 -12116900000.0 -23900500000.0 -17269100000.0 -15625700000.0 -9035860000.0 -9035790000.0 -9122610000.0 -14017800000.0 -16697300000.0 -17605200000.0 -18934500000.0 -26208900000.0 -40411400000.0 -10515500000.0 -10170300000.0 -9815700000.0 -9200700000.0 -11011600000.0 -14788100000.0 -17541300000.0 -19490800000.0 -19687200000.0 -21664900000.0 -23248500000.0 -24596600000.0 -24445500000.0 -25446400000.0 -23773300000.0 -24508800000.0 -19554400000.0 -19693200000.0 -18124900000.0 -9035750000.0 -28028900000.0 -25695100000.0 -15524800000.0 -9035750000.0 -14054000000.0 -18027400000.0 -10142000000.0 -20472400000.0 -10100500000.0 -12836600000.0 -10718000000.0 -15866200000.0 -12394400000.0 -17906200000.0 -12279200000.0 -20858000000.0 -9090350000.0 -11890500000.0 -11967200000.0 -16157400000.0 -15735100000.0 -19116000000.0 -19309500000.0 -21841800000.0 -20477100000.0 -17172900000.0 -14807100000.0 -14810900000.0 -14232600000.0 -13816300000.0 -9848510000.0 -9593100000.0 -9431110000.0 -9720720000.0 -9282210000.0 -10949500000.0 -35468400000.0 -32245100000.0 -17666000000.0 -13856900000.0 -12900200000.0 -12965200000.0 -9721930000.0 -9057390000.0 -9035770000.0 -9036280000.0 -9035750000.0 -14190600000.0 -9035750000.0 -11846600000.0 -12619000000.0 -12747300000.0 -9929820000.0 -9035780000.0 -9035760000.0 -9061360000.0 -10589700000.0 -11434200000.0 -11717000000.0 -12133500000.0 -14402200000.0 -18824100000.0 -9505690000.0 -9395090000.0 -9282080000.0 -9088380000.0 -9659880000.0 -10832600000.0 -11703000000.0 -12317000000.0 -12364700000.0 -12967300000.0 -13459300000.0 -13878800000.0 -13830300000.0 -14142200000.0 -13615600000.0 -13840300000.0 -12301600000.0 -12336200000.0 -11854200000.0 -14981600000.0 -11081200000.0 -10603800000.0 -9380930000.0 -9367110000.0 -10222300000.0 -9563920000.0 -11180300000.0 -10097100000.0 -11826900000.0 -10063800000.0 -9052850000.0 -9957060000.0 -11273800000.0 -11142600000.0 -12202400000.0 -12263900000.0 -13057500000.0 -12628800000.0 -11596700000.0 -10854700000.0 -10851100000.0 -10666300000.0 -10532700000.0 -9293670000.0 -9212600000.0 -9161250000.0 -9253230000.0 -9113970000.0 -9643610000.0 -17311400000.0 -16215300000.0 -11709200000.0 -10533900000.0 -10237500000.0 -10259600000.0 -9248380000.0 -9042640000.0 -9035760000.0 -9035910000.0 
SCALARS Shear_Stress float 1
LOOKUP_TABLE default
55727000000.0 2507460000.0 51542700000.0 38047500000.0 24128800000.0 49768000000.0 13763600000.0 54306900000.0 52509200000.0 55931400000.0 52136400000.0 19439800000.0 65251400000.0 21308400000.0 15099500000.0 9789190000.0 65763900000.0 100060000000.0 17372400000.0 1424310000.0 15035500000.0 46738200000.0 50205600000.0 95324100000.0 52065800000.0 62560300000.0 18013600000.0 62533300000.0 27614500000.0 29933500000.0 10557900000.0 128288000000.0 160098000000.0 99672900000.0 101704000000.0 40646000000.0 110053000000.0 41461100000.0 69107000000.0 92490700000.0 7612940000.0 14142900000.0 141766000000.0 109391000000.0 4799330000.0 2951810000.0 6765930000.0 10153200000.0 9904810000.0 69662800000.0 151540000000.0 169981000000.0 189925000000.0 203260000000.0 101664000000.0 179480000000.0 115805000000.0 124203000000.0 29011100000.0 18580000000.0 89392000000.0 11540000000.0 41405200000.0 67116400000.0 160027000000.0 111739000000.0 54790200000.0 13556400000.0 17427500000.0 4717900000.0 107013000000.0 215909000000.0 179698000000.0 119705000000.0 178947000000.0 224891000000.0 178853000000.0 66394100000.0 169321000000.0 144498000000.0 63813900000.0 218466000000.0 14233100000.0 185263000000.0 1432190000.0 38492000000.0 8160350000.0 18346800000.0 149128000000.0 142262000000.0 171044000000.0 233970000000.0 101808000000.0 230898000000.0 240403000000.0 202425000000.0 96006900000.0 186412000000.0 72779800000.0 59285700000.0 48594200000.0 27179600000.0 8000970000.0 7894910000.0 22255000000.0 141224000000.0 244253000000.0 94003900000.0 98282700000.0 32646400000.0 55281200000.0 136063000000.0 176684000000.0 292771000000.0 384671000000.0 320262000000.0 368312000000.0 292377000000.0 341148000000.0 266689000000.0 316206000000.0 190597000000.0 453609000000.0 204754000000.0 64840400000.0 27254700000.0 11623800000.0 175560000000.0 257294000000.0 4458060000.0 107845000000.0 396031000000.0 258990000000.0 432552000000.0 349829000000.0 437266000000.0 431003000000.0 399147000000.0 370860000000.0 361092000000.0 454243000000.0 154033000000.0 50537800000.0 3250440000.0 28390300000.0 30498600000.0 231899000000.0 617155000000.0 478744000000.0 478738000000.0 477079000000.0 451766000000.0 410945000000.0 358646000000.0 220064000000.0 409319000000.0 262699000000.0 108386000000.0 62162300000.0 23655500000.0 6768300000.0 19989800000.0 40271100000.0 212973000000.0 278709000000.0 986773000.0 110553000000.0 617328000000.0 430955000000.0 491820000000.0 503226000000.0 513568000000.0 492813000000.0 490154000000.0 452408000000.0 423974000000.0 385699000000.0 296757000000.0 246760000000.0 137954000000.0 201831000000.0 198047000000.0 134993000000.0 15628300000.0 35370300000.0 255554000000.0 328225000000.0 122785000000.0 426189000000.0 354740000000.0 279258000000.0 286938000000.0 427636000000.0 437048000000.0 496509000000.0 502831000000.0 512985000000.0 464938000000.0 351133000000.0 182294000000.0 107547000000.0 142397000000.0 50817600000.0 26026800000.0 60390000000.0 44305700000.0 159091000000.0 254831000000.0 323699000000.0 448205000000.0 508228000000.0 497112000000.0 407215000000.0 245830000000.0 95356200000.0 89831800000.0 45246100000.0 63299400000.0 6671520000.0 11978700000.0 61939000000.0 61506600000.0 91946600000.0 305334000000.0 402240000000.0 144535000000.0 82316400000.0 357477000000.0 243460000000.0 351249000000.0 464239000000.0 507552000000.0 491676000000.0 457785000000.0 388211000000.0 315032000000.0 205643000000.0 140443000000.0 60269800000.0 51410000000.0 15625700000.0 16303900000.0 66403500000.0 103171000000.0 364831000000.0 472635000000.0 242327000000.0 120236000000.0 470470000000.0 264883000000.0 214132000000.0 254241000000.0 274181000000.0 379030000000.0 416277000000.0 483285000000.0 497179000000.0 452003000000.0 284610000000.0 104500000000.0 6235900000.0 33074100000.0 78000300000.0 118054000000.0 139015000000.0 191791000000.0 340911000000.0 279744000000.0 189198000000.0 313615000000.0 462097000000.0 493185000000.0 380185000000.0 168966000000.0 27385100000.0 29541300000.0 41903800000.0 99675000000.0 93378200000.0 155713000000.0 136325000000.0 192440000000.0 163863000000.0 205607000000.0 436976000000.0 498906000000.0 176188000000.0 327885000000.0 544267000000.0 685953000000.0 173103000000.0 199756000000.0 379409000000.0 502018000000.0 462722000000.0 394271000000.0 258304000000.0 130825000000.0 70861600000.0 3394920000.0 85004900000.0 169904000000.0 219670000000.0 246431000000.0 524016000000.0 482978000000.0 386210000000.0 820354000000.0 292006000000.0 100461000000.0 112579000000.0 129734000000.0 259119000000.0 365394000000.0 463749000000.0 536392000000.0 516056000000.0 501977000000.0 227738000000.0 44480800000.0 45227600000.0 157770000000.0 242362000000.0 288093000000.0 356159000000.0 295496000000.0 624774000000.0 430879000000.0 138072000000.0 446789000000.0 722814000000.0 209081000000.0 30077200000.0 226769000000.0 498441000000.0 566326000000.0 448812000000.0 83349900000.0 8039170000.0 8297800000.0 104654000000.0 209034000000.0 254802000000.0 353249000000.0 323117000000.0 416195000000.0 408402000000.0 65070500000.0 971328000000.0 758459000000.0 5920350000.0 14440400000.0 97742700000.0 370660000000.0 605962000000.0 581126000000.0 586228000000.0 163881000000.0 12323700000.0 36019900000.0 70692600000.0 54840100000.0 380178000000.0 475646000000.0 493828000000.0 727564000000.0 382595000000.0 371266000000.0 230521000000.0 45714300000.0 37279700000.0 155934000000.0 208942000000.0 310855000000.0 560747000000.0 741705000000.0 640338000000.0 697869000000.0 20564800000.0 80476600000.0 100366000000.0 160351000000.0 308335000000.0 602489000000.0 800581000000.0 584879000000.0 634327000000.0 527490000000.0 798805000000.0 322266000000.0 70405400000.0 638570000000.0 1.17406e+12 136112000000.0 194404000000.0 259622000000.0 380627000000.0 752803000000.0 850965000000.0 29637400000.0 210300000000.0 206091000000.0 249575000000.0 65822400000.0 25270200000.0 430296000000.0 909040000000.0 606814000000.0 232273000000.0 149304000000.0 625033000000.0 1.0096e+12 740063000000.0 334343000000.0 454030000000.0 315445000000.0 402087000000.0 326861000000.0 376475000000.0 535302000000.0 312312000000.0 20408500000.0 373349000000.0 192169000000.0 109596000000.0 490985000000.0 516665000000.0 910428000000.0 804819000000.0 779879000000.0 260909000000.0 276397000000.0 62638800000.0 783926000000.0 703230000000.0 538041000000.0 475124000000.0 383016000000.0 479657000000.0 331432000000.0 856332000000.0 490780000000.0 371181000000.0 350622000000.0 241797000000.0 95073000000.0 4998060000.0 191246000000.0 250171000000.0 532210000000.0 930550000000.0 582015000000.0 1917220000.0 58957900000.0 282253000000.0 849252000000.0 721771000000.0 611956000000.0 575273000000.0 732847000000.0 385398000000.0 400262000000.0 109600000000.0 314387000000.0 438137000000.0 306025000000.0 119914000000.0 62830100000.0 259718000000.0 193183000000.0 552349000000.0 560420000000.0 58070100000.0 261076000000.0 195789000000.0 852631000000.0 953255000000.0 869630000000.0 898697000000.0 765689000000.0 828795000000.0 698636000000.0 746580000000.0 813900000000.0 955415000000.0 172372000000.0 267936000000.0 156353000000.0 63809500000.0 15443600000.0 101635000000.0 41423600000.0 21146200000.0 134605000000.0 243339000000.0 113500000000.0 917690000000.0 271882000000.0 599975000000.0 662302000000.0 1.12078e+12 987974000000.0 935724000000.0 907697000000.0 804963000000.0 878886000000.0 860803000000.0 509492000000.0 387902000000.0 443147000000.0 155373000000.0 601296000000.0 31348700000.0 184485000000.0 127055000000.0 66134100000.0 48229100000.0 140585000000.0 1.25084e+12 32281700000.0 772793000000.0 84340700000.0 676868000000.0 237285000000.0 523188000000.0 934093000000.0 1.13002e+12 1.00331e+12 989578000000.0 937383000000.0 814786000000.0 691333000000.0 179007000000.0 887923000000.0 93596900000.0 4082810000.0 162910000000.0 176204000000.0 155726000000.0 418375000000.0 656987000000.0 243176000000.0 22284100000.0 136818000000.0 187153000000.0 76523000000.0 596781000000.0 498368000000.0 550800000000.0 1.25558e+12 965953000000.0 917467000000.0 1.11204e+12 1.13944e+12 1.01562e+12 1.04192e+12 943547000000.0 1.00682e+12 1.0501e+12 1.04071e+12 882101000000.0 634853000000.0 394018000000.0 70314100000.0 605069000000.0 152326000000.0 59629400000.0 99369000000.0 269151000000.0 264898000000.0 351430000000.0 294638000000.0 330339000000.0 441966000000.0 245056000000.0 661924000000.0 842872000000.0 421401000000.0 219538000000.0 32326400000.0 833159000000.0 446476000000.0 687649000000.0 941846000000.0 1.0833e+12 1.18157e+12 1.20364e+12 946363000000.0 868034000000.0 1.08069e+12 938585000000.0 786189000000.0 755274000000.0 365095000000.0 538952000000.0 439818000000.0 26143700000.0 10106900000.0 350156000000.0 326008000000.0 601942000000.0 237953000000.0 353767000000.0 379335000000.0 256158000000.0 244112000000.0 551066000000.0 1.24828e+12 693712000000.0 504307000000.0 681570000000.0 983584000000.0 555477000000.0 134873000000.0 447786000000.0 477866000000.0 1.17257e+12 1.13155e+12 1.17895e+12 912598000000.0 851654000000.0 766166000000.0 520062000000.0 513858000000.0 450308000000.0 520811000000.0 438146000000.0 137384000000.0 1.00688e+12 312243000000.0 925243000000.0 867007000000.0 518229000000.0 627466000000.0 244201000000.0 497599000000.0 448081000000.0 263042000000.0 82958100000.0 499480000000.0 737304000000.0 920967000000.0 463768000000.0 63820800000.0 67442700000.0 305481000000.0 454079000000.0 538767000000.0 1.01695e+12 685511000000.0 507960000000.0 17197100000.0 957751000000.0 1.16706e+12 604854000000.0 965998000000.0 1.01464e+12 1.16752e+12 1.13743e+12 1.14485e+12 1.13785e+12 915928000000.0 918014000000.0 935552000000.0 458639000000.0 368940000000.0 777564000000.0 634719000000.0 664981000000.0 1.07228e+12 158559000000.0 222553000000.0 162804000000.0 748346000000.0 70210800000.0 233984000000.0 101730000000.0 274685000000.0 566533000000.0 704442000000.0 998079000000.0 311988000000.0 69830800000.0 105332000000.0 150214000000.0 513042000000.0 909190000000.0 273507000000.0 70170400000.0 1453730000.0 265205000000.0 561699000000.0 17418900000.0 764236000000.0 1.0255e+12 1.11801e+12 988982000000.0 448800000000.0 293811000000.0 418485000000.0 294477000000.0 855933000000.0 726928000000.0 627906000000.0 507107000000.0 273718000000.0 610369000000.0 928365000000.0 946395000000.0 176528000000.0 131662000000.0 66089900000.0 263717000000.0 385305000000.0 901955000000.0 377592000000.0 205620000000.0 380564000000.0 371759000000.0 75141300000.0 56775100000.0 338087000000.0 128730000000.0 460545000000.0 417715000000.0 598022000000.0 1.78576e+12 1.00662e+12 692467000000.0 215508000000.0 448532000000.0 542281000000.0 807161000000.0 1.01973e+12 1.06199e+12 275330000000.0 377404000000.0 947894000000.0 885506000000.0 995322000000.0 872489000000.0 544509000000.0 473289000000.0 129306000000.0 313574000000.0 268153000000.0 389284000000.0 32377200000.0 664454000000.0 346244000000.0 155701000000.0 461254000000.0 698307000000.0 839761000000.0 640641000000.0 18044200000.0 410300000000.0 326884000000.0 361100000000.0 69254600000.0 41589900000.0 50207800000.0 193296000000.0 205542000000.0 26809000000.0 367704000000.0 1.0798e+12 1.05357e+12 1.12467e+12 575242000000.0 116557000000.0 321389000000.0 610226000000.0 841195000000.0 859531000000.0 993500000000.0 742884000000.0 505362000000.0 611022000000.0 1.09044e+12 1.04949e+12 905236000000.0 727324000000.0 517656000000.0 285920000000.0 266099000000.0 88459800000.0 182252000000.0 320819000000.0 7398030000.0 1.01325e+12 1.13727e+12 73935100000.0 250625000000.0 283489000000.0 669450000000.0 922006000000.0 305824000000.0 212548000000.0 448904000000.0 348441000000.0 307929000000.0 301842000000.0 2967030000.0 41484300000.0 195714000000.0 56923100000.0 17537100000.0 18927400000.0 202500000000.0 551268000000.0 592406000000.0 714077000000.0 575257000000.0 248268000000.0 163243000000.0 170276000000.0 381484000000.0 670975000000.0 807410000000.0 1.00448e+12 847092000000.0 830440000000.0 854082000000.0 1.16197e+12 1.13762e+12 1.05447e+12 762760000000.0 275568000000.0 27200300000.0 231618000000.0 296802000000.0 677285000000.0 49417900000.0 39458000000.0 369863000000.0 686626000000.0 220682000000.0 499307000000.0 741978000000.0 521870000000.0 332455000000.0 177377000000.0 187186000000.0 216262000000.0 166592000000.0 57488400000.0 61587300000.0 67834300000.0 275163000000.0 228927000000.0 80705100000.0 70963100000.0 37990600000.0 474989000000.0 732268000000.0 704061000000.0 1.421e+12 919069000000.0 208826000000.0 306296000000.0 470076000000.0 506198000000.0 693671000000.0 1.05493e+12 860771000000.0 969153000000.0 1.12845e+12 1.14255e+12 1.10467e+12 952005000000.0 820204000000.0 596231000000.0 7143390000.0 389647000000.0 494601000000.0 905007000000.0 46514300000.0 190295000000.0 626573000000.0 525764000000.0 316416000000.0 160412000000.0 8443460000.0 119188000000.0 21311400000.0 1.29999e+12 456929000000.0 970908000000.0 165028000000.0 50069600000.0 55547600000.0 188155000000.0 50295000000.0 88882000000.0 108040000000.0 291537000000.0 276277000000.0 144357000000.0 123536000000.0 226472000000.0 490230000000.0 513208000000.0 262988000000.0 394250000000.0 1.15432e+12 329037000000.0 287236000000.0 269254000000.0 191092000000.0 304887000000.0 609389000000.0 872311000000.0 859053000000.0 863121000000.0 890311000000.0 1.08256e+12 1.07382e+12 974950000000.0 695464000000.0 441996000000.0 332228000000.0 31905000000.0 565114000000.0 67978600000.0 196693000000.0 446556000000.0 321180000000.0 97765300000.0 100105000000.0 304245000000.0 604254000000.0 628048000000.0 946737000000.0 358376000000.0 411886000000.0 181804000000.0 49387600000.0 120724000000.0 209962000000.0 310016000000.0 145111000000.0 165830000000.0 473085000000.0 319822000000.0 353497000000.0 291299000000.0 190662000000.0 24899300000.0 275565000000.0 269200000000.0 382405000000.0 901982000000.0 36371300000.0 475338000000.0 171120000000.0 630201000000.0 135688000000.0 132268000000.0 348328000000.0 700574000000.0 806759000000.0 843752000000.0 886396000000.0 967661000000.0 998637000000.0 1.04818e+12 999168000000.0 1.02374e+12 847555000000.0 596572000000.0 486364000000.0 839022000000.0 1.21046e+12 312829000000.0 405367000000.0 238385000000.0 142015000000.0 56328900000.0 335825000000.0 345166000000.0 212345000000.0 59361700000.0 801428000000.0 389959000000.0 67761700000.0 337944000000.0 267971000000.0 145645000000.0 7254420000.0 180674000000.0 382066000000.0 268246000000.0 204541000000.0 187449000000.0 113812000000.0 520417000000.0 465277000000.0 475030000000.0 169549000000.0 75050500000.0 81627700000.0 986118000000.0 945825000000.0 111320000000.0 576083000000.0 365910000000.0 433539000000.0 130392000000.0 353714000000.0 192027000000.0 71065800000.0 173315000000.0 459700000000.0 738673000000.0 819645000000.0 920646000000.0 965111000000.0 929347000000.0 918616000000.0 798813000000.0 730550000000.0 622141000000.0 568271000000.0 274315000000.0 58137000000.0 192191000000.0 755012000000.0 597911000000.0 433173000000.0 368788000000.0 23527800000.0 452811000000.0 1.2222e+12 772600000000.0 411743000000.0 57295200000.0 645919000000.0 161867000000.0 576178000000.0 143489000000.0 176778000000.0 155092000000.0 497440000000.0 310828000000.0 155002000000.0 163389000000.0 23004000000.0 93652900000.0 537381000000.0 642533000000.0 755094000000.0 571128000000.0 590485000000.0 340257000000.0 235372000000.0 53910500000.0 95539800000.0 262897000000.0 809959000000.0 1390950000.0 167120000000.0 708986000000.0 1.04719e+12 843314000000.0 477860000000.0 151465000000.0 342883000000.0 578227000000.0 656490000000.0 741598000000.0 759663000000.0 845547000000.0 916186000000.0 904570000000.0 821875000000.0 663418000000.0 383590000000.0 49711400000.0 631831000000.0 582295000000.0 484478000000.0 195599000000.0 6875240000.0 75416900000.0 28885500000.0 1.59159e+12 1.10109e+12 732926000000.0 859994000000.0 1.23865e+12 1.01491e+12 446821000000.0 37444300000.0 271067000000.0 316983000000.0 16460900000.0 365385000000.0 203915000000.0 94150500000.0 254555000000.0 217961000000.0 303571000000.0 322930000000.0 533029000000.0 683524000000.0 877142000000.0 391056000000.0 353226000000.0 10314800000.0 191727000000.0 446923000000.0 391667000000.0 91867100000.0 551817000000.0 806240000000.0 1.22931e+12 1.50381e+12 1.55949e+12 743068000000.0 309263000000.0 40255000000.0 510320000000.0 655774000000.0 773439000000.0 851198000000.0 822618000000.0 869033000000.0 788682000000.0 814178000000.0 688582000000.0 685979000000.0 457420000000.0 213562000000.0 95440600000.0 23426000000.0 128458000000.0 385722000000.0 528161000000.0 438509000000.0 301291000000.0 4736970000.0 356361000000.0 250416000000.0 59193100000.0 393809000000.0 456305000000.0 60239100000.0 886007000000.0 451752000000.0 148890000000.0 132496000000.0 682505000000.0 247887000000.0 743697000000.0 387768000000.0 145871000000.0 268474000000.0 172509000000.0 292915000000.0 257145000000.0 373035000000.0 467103000000.0 539425000000.0 560091000000.0 686715000000.0 954019000000.0 189527000000.0 614760000000.0 184088000000.0 402712000000.0 188297000000.0 4249920000.0 691475000000.0 829293000000.0 1.04746e+12 1.14493e+12 1.14434e+12 669508000000.0 119164000000.0 59427100000.0 671996000000.0 77410400000.0 271367000000.0 519284000000.0 613002000000.0 667866000000.0 761403000000.0 755476000000.0 675099000000.0 528525000000.0 504853000000.0 297542000000.0 38812400000.0 103635000000.0 420218000000.0 413109000000.0 268396000000.0 1.06789e+12 1.97551e+12 1.57669e+12 856078000000.0 744265000000.0 587447000000.0 214072000000.0 921581000000.0 997526000000.0 1.06712e+12 1.06608e+12 250078000000.0 261128000000.0 226482000000.0 85075000000.0 377853000000.0 330253000000.0 183797000000.0 649312000000.0 328120000000.0 152027000000.0 683239000000.0 1.23983e+12 828715000000.0 331463000000.0 1.22135e+12 714633000000.0 1.39825e+12 1.23011e+12 1.17089e+12 1.09988e+12 978404000000.0 1.41267e+12 1.05771e+12 1.2127e+12 547429000000.0 265625000000.0 625341000000.0 526830000000.0 536260000000.0 679441000000.0 714648000000.0 651422000000.0 530816000000.0 350100000000.0 120524000000.0 6244920000.0 66859000000.0 243912000000.0 281679000000.0 313901000000.0 125797000000.0 315316000000.0 105307000000.0 82342400000.0 8024650000.0 325153000000.0 526303000000.0 652810000000.0 178724000000.0 30586900000.0 470882000000.0 871856000000.0 494544000000.0 60425300000.0 737025000000.0 487609000000.0 69273500000.0 60586600000.0 143053000000.0 138295000000.0 366278000000.0 1127330000.0 32611200000.0 384766000000.0 954640000000.0 1.33509e+12 647693000000.0 24302700000.0 78273000000.0 335730000000.0 950580000000.0 290753000000.0 625462000000.0 1.23432e+12 102941000000.0 941819000000.0 991032000000.0 943510000000.0 851061000000.0 883542000000.0 325596000000.0 619507000000.0 842572000000.0 646173000000.0 162840000000.0 315452000000.0 633194000000.0 259261000000.0 587410000000.0 660660000000.0 595906000000.0 623490000000.0 492155000000.0 516965000000.0 372906000000.0 373775000000.0 228444000000.0 187991000000.0 70442800000.0 13868100000.0 13096800000.0 134151000000.0 289152000000.0 134318000000.0 93482200000.0 159263000000.0 63911500000.0 760308000000.0 841914000000.0 428063000000.0 439511000000.0 680877000000.0 928325000000.0 304863000000.0 471930000000.0 247360000000.0 18439800000.0 162235000000.0 430445000000.0 107946000000.0 1.19228e+12 427308000000.0 357652000000.0 397775000000.0 71115600000.0 54964100000.0 60821300000.0 34820600000.0 530972000000.0 633513000000.0 771826000000.0 351681000000.0 583543000000.0 273334000000.0 12217300000.0 536644000000.0 220303000000.0 589523000000.0 26592400000.0 826372000000.0 538548000000.0 940289000000.0 350343000000.0 978761000000.0 761642000000.0 773748000000.0 1.58504e+12 595456000000.0 269180000000.0 134226000000.0 808541000000.0 711347000000.0 377821000000.0 573811000000.0 460868000000.0 353169000000.0 240964000000.0 115156000000.0 10681500000.0 10097900000.0 15410800000.0 148108000000.0 227979000000.0 315097000000.0 1.19158e+12 1.71038e+12 1.33962e+12 917092000000.0 594707000000.0 500481000000.0 528857000000.0 607363000000.0 338249000000.0 134986000000.0 893137000000.0 389754000000.0 747151000000.0 804101000000.0 769017000000.0 555570000000.0 629589000000.0 71493000000.0 228787000000.0 767587000000.0 1.16354e+12 281190000000.0 533775000000.0 119163000000.0 209101000000.0 320273000000.0 544781000000.0 848392000000.0 1.44692e+12 499917000000.0 24404400000.0 205686000000.0 130922000000.0 582444000000.0 707352000000.0 773813000000.0 28834300000.0 624187000000.0 496471000000.0 66823000000.0 566186000000.0 354630000000.0 701078000000.0 753074000000.0 733932000000.0 120656000000.0 43860800000.0 77721400000.0 125039000000.0 3721610000.0 222379000000.0 729654000000.0 359772000000.0 552812000000.0 614915000000.0 379460000000.0 426377000000.0 318637000000.0 229127000000.0 135221000000.0 44513900000.0 15593400000.0 8701060000.0 78842200000.0 197220000000.0 138742000000.0 136597000000.0 34104000000.0 98593200000.0 14416700000.0 583650000000.0 494225000000.0 438883000000.0 415707000000.0 246235000000.0 30767000000.0 204632000000.0 653440000000.0 731331000000.0 829343000000.0 613206000000.0 137238000000.0 506721000000.0 697986000000.0 40095900000.0 704828000000.0 83297600000.0 603985000000.0 1.10384e+12 595339000000.0 153535000000.0 377773000000.0 400558000000.0 210971000000.0 466155000000.0 604800000000.0 193107000000.0 81981100000.0 373483000000.0 693641000000.0 858177000000.0 887938000000.0 548046000000.0 525434000000.0 506531000000.0 337025000000.0 164139000000.0 381608000000.0 357930000000.0 511310000000.0 494068000000.0 370880000000.0 113513000000.0 184777000000.0 148877000000.0 86270400000.0 359151000000.0 725992000000.0 511221000000.0 172490000000.0 266347000000.0 174668000000.0 202410000000.0 95069600000.0 128587000000.0 67394700000.0 67385700000.0 32106600000.0 26995700000.0 180633000000.0 473471000000.0 636305000000.0 630056000000.0 927125000000.0 733569000000.0 633373000000.0 514193000000.0 410927000000.0 328969000000.0 206380000000.0 79929400000.0 183303000000.0 415136000000.0 743947000000.0 832410000000.0 762384000000.0 422267000000.0 742648000000.0 998864000000.0 911092000000.0 503347000000.0 743915000000.0 670729000000.0 848223000000.0 312848000000.0 7408370000.0 587464000000.0 203576000000.0 775754000000.0 46312400000.0 374183000000.0 511949000000.0 1.11199e+12 614099000000.0 659224000000.0 862824000000.0 1.00946e+12 453076000000.0 362242000000.0 265369000000.0 218731000000.0 315992000000.0 345710000000.0 407595000000.0 366774000000.0 263395000000.0 248315000000.0 592519000000.0 449162000000.0 38889500000.0 519534000000.0 1.0054e+12 498141000000.0 356305000000.0 120300000000.0 171431000000.0 46222700000.0 39054200000.0 45746200000.0 10497300000.0 170319000000.0 368762000000.0 335688000000.0 586174000000.0 850942000000.0 773930000000.0 472644000000.0 629495000000.0 555395000000.0 424555000000.0 298519000000.0 191212000000.0 109977000000.0 167296000000.0 355553000000.0 609420000000.0 803588000000.0 809303000000.0 681618000000.0 778021000000.0 852900000000.0 695631000000.0 143283000000.0 683365000000.0 141875000000.0 752635000000.0 492846000000.0 157661000000.0 242662000000.0 1.02636e+12 180157000000.0 401170000000.0 1.01791e+12 401109000000.0 395639000000.0 622150000000.0 941123000000.0 836693000000.0 946140000000.0 128788000000.0 658430000000.0 878752000000.0 1.07063e+12 1.04072e+12 823460000000.0 629495000000.0 280935000000.0 252579000000.0 318162000000.0 370819000000.0 408386000000.0 397254000000.0 440659000000.0 669433000000.0 756277000000.0 531067000000.0 206743000000.0 629150000000.0 270897000000.0 773970000000.0 328320000000.0 427232000000.0 276837000000.0 104868000000.0 12515900000.0 57331500000.0 14992600000.0 37280900000.0 19881900000.0 55240000000.0 51106500000.0 34305400000.0 34423300000.0 139278000000.0 605360000000.0 372498000000.0 358194000000.0 552809000000.0 575678000000.0 721123000000.0 469027000000.0 317557000000.0 196321000000.0 107874000000.0 157202000000.0 737042000000.0 362585000000.0 712817000000.0 798706000000.0 967331000000.0 560631000000.0 162994000000.0 1.33231e+12 818805000000.0 48966200000.0 288624000000.0 449430000000.0 875349000000.0 368722000000.0 1.30753e+12 242998000000.0 630088000000.0 963200000000.0 1.2136e+12 939104000000.0 341250000000.0 799083000000.0 1.03446e+12 1.16286e+12 1.08169e+12 810179000000.0 518039000000.0 358206000000.0 308237000000.0 376419000000.0 446393000000.0 473297000000.0 518745000000.0 655822000000.0 755582000000.0 702959000000.0 444076000000.0 80750000000.0 310429000000.0 666728000000.0 661888000000.0 546864000000.0 282821000000.0 41425700000.0 131716000000.0 8929180000.0 113095000000.0 120394000000.0 60309700000.0 641689000000.0 221046000000.0 53137200000.0 338449000000.0 313292000000.0 474895000000.0 558479000000.0 665924000000.0 984389000000.0 323878000000.0 247564000000.0 341732000000.0 560008000000.0 737165000000.0 819419000000.0 798501000000.0 843624000000.0 857530000000.0 643488000000.0 736671000000.0 745502000000.0 366075000000.0 900599000000.0 498846000000.0 94613400000.0 789979000000.0 311252000000.0 444239000000.0 43503900000.0 55169400000.0 360558000000.0 352982000000.0 1.21364e+12 1.22053e+12 1.00055e+12 774210000000.0 1.00473e+12 1.19444e+12 1.24064e+12 1.17074e+12 757726000000.0 434106000000.0 396527000000.0 378401000000.0 238447000000.0 270824000000.0 510854000000.0 531940000000.0 605768000000.0 676404000000.0 669195000000.0 538266000000.0 250308000000.0 142657000000.0 441156000000.0 417687000000.0 434997000000.0 882256000000.0 92914600000.0 97014000000.0 182592000000.0 107417000000.0 113905000000.0 70423700000.0 566679000000.0 477048000000.0 602392000000.0 1.35839e+12 1.1376e+12 732686000000.0 476368000000.0 438903000000.0 440573000000.0 515645000000.0 967358000000.0 102735000000.0 137247000000.0 340897000000.0 549470000000.0 715967000000.0 807672000000.0 845178000000.0 884483000000.0 894567000000.0 819362000000.0 837618000000.0 836759000000.0 702591000000.0 953266000000.0 1.07614e+12 914043000000.0 265325000000.0 1.20774e+12 639323000000.0 295484000000.0 176129000000.0 235669000000.0 218181000000.0 980379000000.0 937661000000.0 311946000000.0 648455000000.0 1.00922e+12 5623060000.0 801061000000.0 1.0966e+12 1.22103e+12 1.20682e+12 1.09578e+12 1.16617e+12 1.27651e+12 1.33079e+12 1.36336e+12 800818000000.0 669963000000.0 715117000000.0 198538000000.0 89222800000.0 307347000000.0 485494000000.0 578678000000.0 589238000000.0 522878000000.0 352679000000.0 87231700000.0 171043000000.0 264986000000.0 190361000000.0 470662000000.0 353611000000.0 376028000000.0 202900000000.0 125848000000.0 207549000000.0 183865000000.0 105064000000.0 40220100000.0 339259000000.0 554542000000.0 413329000000.0 387421000000.0 428278000000.0 111295000000.0 190958000000.0 242832000000.0 238559000000.0 162254000000.0 125400000000.0 186692000000.0 397883000000.0 570491000000.0 723874000000.0 806513000000.0 857335000000.0 902530000000.0 924341000000.0 894344000000.0 817269000000.0 909461000000.0 1.00907e+12 1.08635e+12 1.01804e+12 762250000000.0 681333000000.0 738633000000.0 639114000000.0 1.31645e+12 136181000000.0 149430000000.0 161925000000.0 598840000000.0 485847000000.0 1.03875e+12 707043000000.0 615072000000.0 519361000000.0 550362000000.0 908421000000.0 1.10947e+12 1.198e+12 1.20239e+12 1.01384e+12 1.1222e+12 1.2149e+12 1.27587e+12 1.24566e+12 1.07987e+12 499225000000.0 826097000000.0 292299000000.0 236295000000.0 122157000000.0 426573000000.0 509021000000.0 507601000000.0 534314000000.0 376950000000.0 201081000000.0 21971800000.0 231659000000.0 422632000000.0 584470000000.0 637662000000.0 595437000000.0 436234000000.0 164063000000.0 336022000000.0 282409000000.0 229390000000.0 628750000000.0 627086000000.0 165076000000.0 504938000000.0 495044000000.0 172310000000.0 111893000000.0 173816000000.0 205648000000.0 252870000000.0 602256000000.0 816056000000.0 11029700000.0 507891000000.0 717058000000.0 771681000000.0 793918000000.0 836990000000.0 889251000000.0 927929000000.0 935125000000.0 916486000000.0 930886000000.0 945215000000.0 1.09819e+12 1.10838e+12 1.01262e+12 790429000000.0 386064000000.0 626698000000.0 893500000000.0 208201000000.0 676130000000.0 627421000000.0 200606000000.0 237091000000.0 333485000000.0 1.19536e+12 930928000000.0 806983000000.0 339885000000.0 345881000000.0 272696000000.0 662005000000.0 923956000000.0 1.0825e+12 1.1505e+12 1.11107e+12 1.14767e+12 1.20453e+12 1.33245e+12 1.57131e+12 1.47912e+12 796730000000.0 404043000000.0 90183200000.0 530191000000.0 19626600000.0 400280000000.0 432207000000.0 444742000000.0 476346000000.0 498239000000.0 474268000000.0 78486500000.0 264550000000.0 399854000000.0 397889000000.0 61499900000.0 160430000000.0 120114000000.0 252127000000.0 38077800000.0 193160000000.0 9823220000.0 632798000000.0 728928000000.0 219104000000.0 147946000000.0 328669000000.0 172855000000.0 143180000000.0 114456000000.0 120834000000.0 201369000000.0 535888000000.0 249614000000.0 15858800000.0 257011000000.0 539094000000.0 703420000000.0 813369000000.0 887172000000.0 931161000000.0 954432000000.0 984264000000.0 1.01419e+12 1.03636e+12 1.07854e+12 836108000000.0 491638000000.0 54488300000.0 698609000000.0 531133000000.0 17990900000.0 1.08184e+12 908273000000.0 609095000000.0 295679000000.0 253981000000.0 289646000000.0 713294000000.0 668970000000.0 422108000000.0 168266000000.0 113421000000.0 353951000000.0 682427000000.0 906272000000.0 1.16044e+12 1.16732e+12 1.11739e+12 1.04042e+12 943157000000.0 760365000000.0 408527000000.0 91745600000.0 372638000000.0 430493000000.0 405763000000.0 411041000000.0 429540000000.0 427130000000.0 379077000000.0 272111000000.0 110439000000.0 230606000000.0 318151000000.0 457294000000.0 478822000000.0 444905000000.0 219966000000.0 277530000000.0 415756000000.0 324923000000.0 391172000000.0 405620000000.0 292338000000.0 197604000000.0 602394000000.0 324115000000.0 203086000000.0 104664000000.0 226491000000.0 190027000000.0 208991000000.0 231130000000.0 293038000000.0 459629000000.0 696571000000.0 539157000000.0 243753000000.0 801051000000.0 886130000000.0 943408000000.0 989851000000.0 1.03197e+12 1.07626e+12 1.16099e+12 1.20008e+12 656782000000.0 344732000000.0 512795000000.0 696505000000.0 358341000000.0 325133000000.0 1.01901e+12 526642000000.0 144261000000.0 190965000000.0 81553200000.0 249378000000.0 585362000000.0 612826000000.0 85379100000.0 110582000000.0 233179000000.0 178840000000.0 154079000000.0 456721000000.0 1.0423e+12 1.10091e+12 1.08889e+12 1.01114e+12 884423000000.0 710273000000.0 75356600000.0 2980920000.0 400045000000.0 171386000000.0 118259000000.0 470597000000.0 720100000000.0 526612000000.0 444651000000.0 428605000000.0 421089000000.0 392544000000.0 325339000000.0 215023000000.0 70264600000.0 89413700000.0 616699000000.0 338059000000.0 37665300000.0 528819000000.0 4608160000.0 810816000000.0 647493000000.0 404556000000.0 372402000000.0 346571000000.0 240707000000.0 300434000000.0 264987000000.0 256094000000.0 281907000000.0 339314000000.0 452554000000.0 557125000000.0 74063700000.0 280828000000.0 36199500000.0 105582000000.0 302941000000.0 524619000000.0 684432000000.0 960567000000.0 1.01285e+12 1.05311e+12 1.09487e+12 1.16713e+12 1.18615e+12 956300000000.0 595052000000.0 564069000000.0 609126000000.0 646674000000.0 388351000000.0 940669000000.0 706313000000.0 54037500000.0 90479200000.0 76850800000.0 73295500000.0 502438000000.0 247839000000.0 179216000000.0 326321000000.0 246749000000.0 48987700000.0 709645000000.0 892232000000.0 1.00127e+12 1.03394e+12 1.00055e+12 901900000000.0 486932000000.0 389400000000.0 535506000000.0 277153000000.0 46962900000.0 92814900000.0 28724500000.0 71623900000.0 638271000000.0 525237000000.0 475949000000.0 438719000000.0 384369000000.0 302980000000.0 195822000000.0 71636500000.0 51292600000.0 153521000000.0 266949000000.0 43075000000.0 388717000000.0 269816000000.0 769711000000.0 424908000000.0 611984000000.0 529631000000.0 146323000000.0 159431000000.0 73749100000.0 129093000000.0 235165000000.0 286437000000.0 298235000000.0 325591000000.0 382979000000.0 464660000000.0 508229000000.0 25369100000.0 93480600000.0 219015000000.0 383647000000.0 556697000000.0 698966000000.0 812144000000.0 896154000000.0 1.01492e+12 1.04596e+12 1.06349e+12 1.07601e+12 1.05008e+12 762338000000.0 565098000000.0 878138000000.0 543223000000.0 189029000000.0 759396000000.0 928920000000.0 174873000000.0 320695000000.0 214362000000.0 78880000000.0 53959900000.0 13737100000.0 98433300000.0 74242000000.0 783846000000.0 445886000000.0 550897000000.0 480519000000.0 200614000000.0 17863200000.0 164836000000.0 293335000000.0 532271000000.0 741081000000.0 889121000000.0 969572000000.0 978790000000.0 768688000000.0 633247000000.0 592707000000.0 692535000000.0 655556000000.0 380249000000.0 149780000000.0 118527000000.0 189945000000.0 925896000000.0 459023000000.0 385398000000.0 298283000000.0 200108000000.0 99675200000.0 5910850000.0 92891900000.0 257238000000.0 611866000000.0 32083000000.0 210328000000.0 86925700000.0 309308000000.0 389615000000.0 69450700000.0 170561000000.0 91883400000.0 9513100000.0 142902000000.0 235605000000.0 297313000000.0 343063000000.0 302966000000.0 44380800000.0 83205500000.0 103000000000.0 203029000000.0 328686000000.0 474186000000.0 613946000000.0 736122000000.0 836506000000.0 914908000000.0 974189000000.0 1.02966e+12 988920000000.0 955216000000.0 900310000000.0 636363000000.0 654919000000.0 437134000000.0 881886000000.0 713620000000.0 487419000000.0 833934000000.0 628121000000.0 138659000000.0 258497000000.0 33193200000.0 93147700000.0 356013000000.0 637957000000.0 535589000000.0 387664000000.0 245500000000.0 100309000000.0 231334000000.0 407117000000.0 610649000000.0 778038000000.0 893128000000.0 945830000000.0 843836000000.0 751522000000.0 732950000000.0 792850000000.0 811433000000.0 663637000000.0 416559000000.0 61798900000.0 61728500000.0 133266000000.0 991286000000.0 728492000000.0 597860000000.0 524240000000.0 297805000000.0 213090000000.0 130883000000.0 45228300000.0 67929200000.0 222189000000.0 521050000000.0 161203000000.0 214060000000.0 432506000000.0 476002000000.0 327442000000.0 205467000000.0 168054000000.0 77073500000.0 34917000000.0 155723000000.0 397345000000.0 464180000000.0 508778000000.0 421558000000.0 249016000000.0 93195400000.0 45789200000.0 335689000000.0 449709000000.0 568072000000.0 681304000000.0 781623000000.0 862858000000.0 926403000000.0 977839000000.0 1.0141e+12 943493000000.0 884291000000.0 696424000000.0 552077000000.0 229192000000.0 786247000000.0 772563000000.0 648321000000.0 735882000000.0 801114000000.0 129891000000.0 21992600000.0 152719000000.0 94690800000.0 362961000000.0 459417000000.0 285655000000.0 372330000000.0 106000000000.0 172898000000.0 330890000000.0 515206000000.0 677931000000.0 954313000000.0 957292000000.0 950308000000.0 833129000000.0 822369000000.0 862273000000.0 886191000000.0 222002000000.0 154449000000.0 160427000000.0 250340000000.0 406381000000.0 957523000000.0 760547000000.0 642665000000.0 549923000000.0 465459000000.0 382400000000.0 144186000000.0 52923400000.0 64515100000.0 206598000000.0 407626000000.0 425521000000.0 96795600000.0 107212000000.0 264349000000.0 249240000000.0 394982000000.0 401224000000.0 339099000000.0 278229000000.0 227811000000.0 180793000000.0 75702500000.0 251038000000.0 329056000000.0 399544000000.0 467616000000.0 516279000000.0 495031000000.0 372873000000.0 231763000000.0 143175000000.0 147910000000.0 227542000000.0 650608000000.0 736516000000.0 811716000000.0 876043000000.0 924983000000.0 955275000000.0 967429000000.0 969180000000.0 750901000000.0 512335000000.0 874388000000.0 795583000000.0 475607000000.0 482783000000.0 176003000000.0 354322000000.0 228008000000.0 149102000000.0 273917000000.0 155740000000.0 805404000000.0 885217000000.0 920277000000.0 918700000000.0 932220000000.0 835217000000.0 889675000000.0 851194000000.0 624028000000.0 392387000000.0 271902000000.0 259409000000.0 307684000000.0 418645000000.0 586422000000.0 888691000000.0 758806000000.0 643178000000.0 541802000000.0 452121000000.0 369869000000.0 292940000000.0 219685000000.0 166522000000.0 241872000000.0 567925000000.0 129577000000.0 150587000000.0 231076000000.0 274094000000.0 321195000000.0 297780000000.0 269564000000.0 260358000000.0 59485800000.0 179525000000.0 281764000000.0 372470000000.0 455042000000.0 523592000000.0 557581000000.0 543447000000.0 368088000000.0 219525000000.0 208690000000.0 264715000000.0 360320000000.0 461840000000.0 558586000000.0 763878000000.0 822273000000.0 870658000000.0 904106000000.0 915722000000.0 916403000000.0 890248000000.0 829208000000.0 395484000000.0 776639000000.0 61663500000.0 97479300000.0 320276000000.0 224507000000.0 179633000000.0 96129900000.0 235188000000.0 337041000000.0 150395000000.0 440682000000.0 307433000000.0 282796000000.0 466918000000.0 608431000000.0 722603000000.0 801053000000.0 836296000000.0 879256000000.0 852813000000.0 862202000000.0 895152000000.0 889413000000.0 868239000000.0 545605000000.0 396603000000.0 372301000000.0 396505000000.0 436622000000.0 517747000000.0 654622000000.0 782769000000.0 695776000000.0 595021000000.0 501024000000.0 417312000000.0 343467000000.0 276580000000.0 210164000000.0 134862000000.0 44065100000.0 60971800000.0 710386000000.0 152187000000.0 79644800000.0 169899000000.0 206461000000.0 217596000000.0 277823000000.0 205299000000.0 40354500000.0 96030100000.0 214840000000.0 319807000000.0 414107000000.0 496316000000.0 560939000000.0 612491000000.0 299258000000.0 397299000000.0 489092000000.0 571670000000.0 635288000000.0 699454000000.0 807027000000.0 843348000000.0 853158000000.0 853182000000.0 820684000000.0 788232000000.0 718046000000.0 582484000000.0 401353000000.0 166767000000.0 187117000000.0 184004000000.0 211428000000.0 81466700000.0 132315000000.0 109720000000.0 276742000000.0 466459000000.0 564674000000.0 655641000000.0 718454000000.0 750399000000.0 784699000000.0 815229000000.0 783868000000.0 828486000000.0 826467000000.0 806426000000.0 783160000000.0 421620000000.0 522439000000.0 440550000000.0 366590000000.0 303407000000.0 245311000000.0 183006000000.0 110972000000.0 31366700000.0 31859000000.0 64197600000.0 51755600000.0 217526000000.0 245997000000.0 327100000000.0 342208000000.0 131391000000.0 14455200000.0 141716000000.0 254468000000.0 354125000000.0 676093000000.0 393605000000.0 273556000000.0 531742000000.0 604282000000.0 629395000000.0 664894000000.0 710425000000.0 758828000000.0 782810000000.0 758706000000.0 724801000000.0 647583000000.0 463078000000.0 36642100000.0 237482000000.0 144276000000.0 62991100000.0 41598600000.0 130867000000.0 2525390000.0 23101600000.0 65443200000.0 45735300000.0 43573200000.0 626299000000.0 340668000000.0 372774000000.0 473597000000.0 554233000000.0 615449000000.0 660280000000.0 788536000000.0 778642000000.0 741359000000.0 753195000000.0 751574000000.0 728729000000.0 454081000000.0 516148000000.0 511313000000.0 517716000000.0 567821000000.0 637669000000.0 665791000000.0 603336000000.0 249055000000.0 198452000000.0 133408000000.0 46254900000.0 54749300000.0 151800000000.0 125482000000.0 87291900000.0 658032000000.0 206429000000.0 5350710000.0 90128100000.0 116483000000.0 129976000000.0 182288000000.0 313974000000.0 448947000000.0 231900000000.0 67861900000.0 440579000000.0 510352000000.0 559635000000.0 591670000000.0 694515000000.0 294392000000.0 310807000000.0 437987000000.0 620049000000.0 618843000000.0 646482000000.0 689321000000.0 733809000000.0 769116000000.0 790032000000.0 602351000000.0 466133000000.0 197924000000.0 92055600000.0 386440000000.0 363181000000.0 223103000000.0 286512000000.0 17152000000.0 39569400000.0 39362200000.0 491374000000.0 302080000000.0 692186000000.0 735484000000.0 742233000000.0 731888000000.0 693725000000.0 675125000000.0 635075000000.0 641442000000.0 369796000000.0 560347000000.0 575712000000.0 553591000000.0 538926000000.0 551814000000.0 570479000000.0 561735000000.0 510650000000.0 442563000000.0 366770000000.0 300671000000.0 45659700000.0 160419000000.0 237180000000.0 203238000000.0 10493300000.0 452008000000.0 194936000000.0 31465800000.0 45100200000.0 43940800000.0 81410200000.0 253200000000.0 521516000000.0 67665900000.0 185484000000.0 288102000000.0 376049000000.0 448655000000.0 504324000000.0 542664000000.0 580209000000.0 619320000000.0 232804000000.0 486696000000.0 582400000000.0 658304000000.0 556183000000.0 593897000000.0 643849000000.0 690781000000.0 723437000000.0 719276000000.0 701745000000.0 671443000000.0 218603000000.0 340053000000.0 153301000000.0 340843000000.0 325788000000.0 443404000000.0 506810000000.0 565423000000.0 599754000000.0 647451000000.0 675219000000.0 669497000000.0 683745000000.0 617784000000.0 665271000000.0 605351000000.0 458520000000.0 396503000000.0 551354000000.0 534051000000.0 509739000000.0 494188000000.0 489695000000.0 484485000000.0 464572000000.0 421862000000.0 359950000000.0 278155000000.0 217815000000.0 181180000000.0 134816000000.0 58475500000.0 174448000000.0 83070500000.0 1511220000.0 39092900000.0 8203800000.0 156791000000.0 322355000000.0 152483000000.0 4684930000.0 118900000000.0 222600000000.0 309119000000.0 380616000000.0 439470000000.0 490397000000.0 541412000000.0 584229000000.0 439422000000.0 250962000000.0 510587000000.0 634709000000.0 560504000000.0 541279000000.0 526109000000.0 593499000000.0 645287000000.0 658539000000.0 645170000000.0 625637000000.0 575577000000.0 490406000000.0 360350000000.0 305718000000.0 411769000000.0 311434000000.0 291834000000.0 43804600000.0 10621400000.0 19352900000.0 84365500000.0 255798000000.0 300941000000.0 400807000000.0 467865000000.0 508430000000.0 561587000000.0 595357000000.0 610824000000.0 611540000000.0 633208000000.0 582209000000.0 543594000000.0 593628000000.0 439959000000.0 362416000000.0 398941000000.0 462794000000.0 424884000000.0 414255000000.0 406609000000.0 404314000000.0 397085000000.0 377100000000.0 340477000000.0 277588000000.0 165260000000.0 116893000000.0 112385000000.0 58755000000.0 57121000000.0 169607000000.0 254180000000.0 276943000000.0 209247000000.0 65738200000.0 37858100000.0 18549600000.0 568069000000.0 392026000000.0 224000000000.0 68677800000.0 60748600000.0 164569000000.0 246750000000.0 311057000000.0 362008000000.0 406561000000.0 307341000000.0 276427000000.0 608452000000.0 491556000000.0 433411000000.0 431460000000.0 463647000000.0 541070000000.0 580272000000.0 583958000000.0 570304000000.0 537577000000.0 484663000000.0 421993000000.0 387232000000.0 372792000000.0 313686000000.0 160142000000.0 16709600000.0 280608000000.0 218966000000.0 278569000000.0 367031000000.0 417434000000.0 473374000000.0 513860000000.0 544034000000.0 573889000000.0 669243000000.0 726726000000.0 635598000000.0 275918000000.0 207927000000.0 5763420000.0 3062850000.0 49329000000.0 67655200000.0 176008000000.0 270843000000.0 317727000000.0 278242000000.0 185194000000.0 2580310000.0 55024100000.0 77596200000.0 595227000000.0 425327000000.0 256491000000.0 106837000000.0 20631800000.0 121015000000.0 454992000000.0 503531000000.0 466123000000.0 331660000000.0 281408000000.0 288102000000.0 358614000000.0 458144000000.0 477785000000.0 446486000000.0 409843000000.0 384197000000.0 350273000000.0 261853000000.0 232545000000.0 207994000000.0 62413700000.0 207333000000.0 189447000000.0 531628000000.0 538225000000.0 477225000000.0 343225000000.0 201597000000.0 488374000000.0 495108000000.0 320173000000.0 298804000000.0 305631000000.0 314909000000.0 318348000000.0 314237000000.0 301852000000.0 103000000000.0 172687000000.0 265301000000.0 326921000000.0 314851000000.0 90119400000.0 190523000.0 79580900000.0 213645000000.0 352005000000.0 165956000000.0 152431000000.0 196187000000.0 249863000000.0 285993000000.0 310250000000.0 333820000000.0 380484000000.0 488284000000.0 549107000000.0 463725000000.0 692076000000.0 439798000000.0 127030000000.0 267775000000.0 405760000000.0 486114000000.0 506946000000.0 499385000000.0 221284000000.0 182546000000.0 111671000000.0 7831310000.0 48274300000.0 140502000000.0 266228000000.0 323463000000.0 386980000000.0 419273000000.0 416470000000.0 389865000000.0 319408000000.0 176556000000.0 152797000000.0 290389000000.0 317279000000.0 311334000000.0 326603000000.0 322210000000.0 192757000000.0 48413000000.0 122849000000.0 181299000000.0 218988000000.0 239430000000.0 245648000000.0 243175000000.0 242160000000.0 243807000000.0 192362000000.0 243300000000.0 111006000000.0 254989000000.0 172880000000.0 67135300000.0 56791100000.0 203983000000.0 396964000000.0 139090000000.0 85958800000.0 11689000000.0 98088100000.0 162473000000.0 204322000000.0 224705000000.0 223491000000.0 196411000000.0 127889000000.0 26337400000.0 259509000000.0 399556000000.0 561214000000.0 324303000000.0 277797000000.0 150923000000.0 44569200000.0 35396800000.0 17072600000.0 234667000000.0 376756000000.0 418214000000.0 420813000000.0 407974000000.0 389423000000.0 367286000000.0 344464000000.0 321507000000.0 77403700000.0 117071000000.0 26423100000.0 165255000000.0 225853000000.0 274046000000.0 316041000000.0 309391000000.0 276436000000.0 220705000000.0 136039000000.0 43111900000.0 471994000000.0 143896000000.0 106846000000.0 80557900000.0 114636000000.0 128994000000.0 74688300000.0 22006700000.0 87059100000.0 139069000000.0 170035000000.0 181661000000.0 179152000000.0 175866000000.0 197366000000.0 276432000000.0 402646000000.0 367986000000.0 14486400000.0 194691000000.0 302252000000.0 312576000000.0 279804000000.0 221139000000.0 115944000000.0 23249600000.0 202005000000.0 449168000000.0 76865300000.0 82990300000.0 191326000000.0 89846100000.0 5016020000.0 84767200000.0 141619000000.0 175587000000.0 188013000000.0 179931000000.0 148987000000.0 88636100000.0 10854800000.0 120751000000.0 170955000000.0 215389000000.0 126359000000.0 117503000000.0 179993000000.0 164972000000.0 126106000000.0 100127000000.0 37451300000.0 242956000000.0 315852000000.0 333599000000.0 330019000000.0 320219000000.0 313019000000.0 305581000000.0 287249000000.0 193936000000.0 144732000000.0 67807600000.0 67370300000.0 91757200000.0 150575000000.0 202539000000.0 239433000000.0 238839000000.0 212479000000.0 167388000000.0 418260000000.0 226676000000.0 12419700000.0 70904500000.0 83038500000.0 132905000000.0 106828000000.0 77912900000.0 69591600000.0 80226200000.0 338896000000.0 559001000000.0 209145000000.0 182596000000.0 281410000000.0 292060000000.0 277544000000.0 237923000000.0 147861000000.0 141735000000.0 17372700000.0 65249200000.0 121255000000.0 152985000000.0 163340000000.0 99674800000.0 134310000000.0 146972000000.0 217882000000.0 251324000000.0 247768000000.0 243483000000.0 253519000000.0 254240000000.0 163713000000.0 117365000000.0 58317800000.0 14089000000.0 18463800000.0 24806500000.0 26156000000.0 113865000000.0 115539000000.0 40413300000.0 39587700000.0 404743000.0 7623120000.0 53516200000.0 95424900000.0 126448000000.0 139614000000.0 393660000000.0 220121000000.0 189436000000.0 235595000000.0 12420000000.0 166975000000.0 421855000000.0 57794700000.0 8949120000.0 1245300000.0 140225000000.0 156390000000.0 134186000000.0 96214700000.0 45208800000.0 798838000.0 14924900000.0 17775400000.0 27621300000.0 45522200000.0 17857900000.0 3561610000.0 175591000000.0 235821000000.0 144836000000.0 89727800000.0 29186700000.0 27729700000.0 30249800000.0 11913400000.0 40911100000.0 173895000000.0 176703000000.0 187195000000.0 163330000000.0 137524000000.0 137846000000.0 330356000000.0 248517000000.0 54415300000.0 108053000000.0 164730000000.0 156203000000.0 110023000000.0 72622200000.0 73665700000.0 95637200000.0 116134000000.0 126138000000.0 118589000000.0 91515600000.0 40170200000.0 441580000.0 53015500000.0 196301000000.0 225509000000.0 213187000000.0 152429000000.0 39885300000.0 122015000000.0 347595000000.0 110810000000.0 71306200000.0 2576090000.0 7639920000.0 4313340000.0 79918700000.0 120993000000.0 135556000000.0 132841000000.0 121353000000.0 103703000000.0 83238700000.0 77444400000.0 98040200000.0 118897000000.0 121342000000.0 151440000000.0 127830000000.0 45052800000.0 41567000000.0 99743400000.0 169819000000.0 316535000000.0 103845000000.0 182696000000.0 205877000000.0 198317000000.0 179453000000.0 179000000000.0 207487000000.0 20592600000.0 6750910000.0 37917800000.0 68844200000.0 120732000000.0 147892000000.0 140297000000.0 201271000000.0 187426000000.0 200059000000.0 150364000000.0 162676000000.0 53272000000.0 89147900000.0 191210000000.0 215025000000.0 195874000000.0 151952000000.0 131422000000.0 127605000000.0 131167000000.0 133221000000.0 129354000000.0 108721000000.0 71248400000.0 11173700000.0 66158500000.0 36702900000.0 271481000000.0 447842000000.0 444088000000.0 307344000000.0 203324000000.0 160615000000.0 166046000000.0 128765000000.0 53370300000.0 74957100000.0 263294000000.0 115971000000.0 53889600000.0 12103700000.0 62088100000.0 59428900000.0 168752000000.0 17318100000.0 61622600000.0 92775700000.0 95712200000.0 94141400000.0 93440300000.0 92799100000.0 101823000000.0 140640000000.0 204718000000.0 231627000000.0 223844000000.0 227996000000.0 170056000000.0 77720000000.0 6555820000.0 90433800000.0 191396000000.0 218931000000.0 191757000000.0 214036000000.0 206440000000.0 154454000000.0 125541000000.0 132663000000.0 143067000000.0 87064500000.0 24995800000.0 19732600000.0 46925200000.0 70239100000.0 72404700000.0 61260700000.0 37768600000.0 17124500000.0 91895600000.0 245996000000.0 214660000000.0 69083100000.0 60735300000.0 66615300000.0 47851300000.0 143184000000.0 213140000000.0 217243000000.0 210705000000.0 145916000000.0 140866000000.0 118898000000.0 103221000000.0 2585710000.0 116031000.0 279915000000.0 47452900000.0 10145500000.0 9185120000.0 110401000000.0 98391300000.0 41445800000.0 35488400000.0 184475000000.0 103653000000.0 43178500000.0 15822300000.0 75267000000.0 112272000000.0 120556000000.0 188487000000.0 44278000000.0 23889300000.0 37839700000.0 44666900000.0 61059900000.0 145988000000.0 68184700000.0 13137000000.0 112800000000.0 100140000000.0 117202000000.0 271208000000.0 281447000000.0 195915000000.0 117731000000.0 80913500000.0 73163300000.0 20146400000.0 579594000.0 30364300000.0 19796100000.0 8224010000.0 22248500000.0 82229900000.0 81582500000.0 196430000000.0 177598000000.0 158972000000.0 148657000000.0 15027400000.0 347162000000.0 75092200000.0 93077400000.0 118299000000.0 170955000000.0 207534000000.0 197868000000.0 182884000000.0 201457000000.0 12999800000.0 39052800000.0 55222200000.0 13316000000.0 65507300000.0 35610800000.0 8484780000.0 42191100000.0 186377000000.0 417432000000.0 18871300000.0 29625200000.0 30786500000.0 3469680000.0 49720600000.0 137592000000.0 156187000000.0 144385000000.0 158877000000.0 161960000000.0 161714000000.0 150982000000.0 149838000000.0 146825000000.0 154035000000.0 135463000000.0 175078000000.0 49373900000.0 80419800000.0 234083000000.0 324119000000.0 406201000000.0 192260000000.0 164726000000.0 97078500000.0 5023300000.0 27121000000.0 128543000000.0 81015500000.0 27227500000.0 28953100000.0 81676700000.0 133996000000.0 174232000000.0 179399000000.0 209565000000.0 89079800000.0 50782700000.0 31824300000.0 7657930000.0 34966700000.0 69356400000.0 98105000000.0 127489000000.0 169860000000.0 162091000000.0 143716000000.0 152309000000.0 135554000000.0 89981200000.0 36835800000.0 46498400000.0 41154800000.0 28525700000.0 38425100000.0 424907000000.0 301012000000.0 213761000000.0 104666000000.0 79767900000.0 36032300000.0 17666200000.0 65456200000.0 67583100000.0 52494300000.0 36739500000.0 576369000.0 54782800000.0 203649000000.0 402768000000.0 6038210000.0 35210700000.0 63543600000.0 72087900000.0 66218200000.0 15017400000.0 94185000000.0 104492000000.0 95665500000.0 119331000000.0 121398000000.0 126194000000.0 126310000000.0 139733000000.0 136686000000.0 164752000000.0 128825000000.0 183267000000.0 48484900000.0 269510000000.0 13011500000.0 40355900000.0 123273000000.0 54020400000.0 77881000000.0 11989000000.0 105753000000.0 34930700000.0 25741900000.0 52555900000.0 86175100000.0 152812000000.0 182960000000.0 246211000000.0 248909000000.0 278107000000.0 183164000000.0 138269000000.0 68183200000.0 20518400000.0 43303000000.0 94029900000.0 110305000000.0 126055000000.0 119660000000.0 110417000000.0 108065000000.0 113329000000.0 47147300000.0 11002800000.0 89059700000.0 91047800000.0 54923500000.0 19849700000.0 1450370000.0 340279000000.0 173092000000.0 28796100000.0 66922700000.0 112111000000.0 125423000000.0 131924000000.0 113806000000.0 81859800000.0 22913000000.0 37071000000.0 427038000000.0 160379000000.0 9035750000.0 9035750000.0 20936700000.0 41557400000.0 44449900000.0 52183300000.0 143461000000.0 230873000000.0 104033000000.0 133344000000.0 108217000000.0 74988900000.0 43160400000.0 866608000.0 53608200000.0 74596400000.0 71009600000.0 74985900000.0 74604700000.0 47436300000.0 13366900000.0 21444800000.0 40997700000.0 82295900000.0 97492000000.0 168787000000.0 136145000000.0 268446000000.0 180810000000.0 43005700000.0 296058000000.0 289394000000.0 175392000000.0 237759000000.0 141654000000.0 182364000000.0 143683000000.0 159120000000.0 134849000000.0 153657000000.0 148429000000.0 169413000000.0 163368000000.0 190464000000.0 190058000000.0 187311000000.0 156912000000.0 133674000000.0 76407800000.0 23878600000.0 2698010000.0 29596800000.0 32998200000.0 76257400000.0 87770200000.0 92105500000.0 84423100000.0 18497700000.0 14282100000.0 40246100000.0 63549600000.0 86157500000.0 105998000000.0 35052100000.0 341280000000.0 167273000000.0 100454000000.0 55444300000.0 30298000000.0 18442400000.0 9035750000.0 9035750000.0 9035750000.0 575059000.0 20225400000.0 34069100000.0 32108400000.0 50261100000.0 62718800000.0 23999900000.0 170771000000.0 202107000000.0 7808190000.0 1176870000.0 4513170000.0 10548200000.0 14691800000.0 16070700000.0 32611500000.0 41394200000.0 53546900000.0 89092700000.0 107366000000.0 128814000000.0 141896000000.0 164468000000.0 160225000000.0 181640000000.0 131135000000.0 168027000000.0 54073400000.0 72591900000.0 206488000000.0 82614500000.0 122780000000.0 58001700000.0 107722000000.0 49893000000.0 114111000000.0 49120500000.0 112247000000.0 75580400000.0 91717000000.0 57935600000.0 66305000000.0 37729500000.0 37139300000.0 3089980000.0 13300000000.0 18347800000.0 12458200000.0 30027800000.0 22333100000.0 83076400000.0 65588100000.0 71969900000.0 23120400000.0 3673310000.0 783888000.0 9849600000.0 26780600000.0 54069700000.0 104275000000.0 78842700000.0 57021100000.0 36894800000.0 17786600000.0 217787000.0 129999000000.0 336784000000.0 94906700000.0 25665200000.0 97433800000.0 80949700000.0 69376900000.0 49690800000.0 25450600000.0 2419750000.0 9035750000.0 9035750000.0 13599800000.0 39167500000.0 43821200000.0 52425100000.0 106288000000.0 203721000000.0 198194000000.0 34733000000.0 38545500000.0 42384500000.0 48787800000.0 54566700000.0 32209100000.0 21609800000.0 17165700000.0 14716900000.0 8592080000.0 15969100000.0 20919300000.0 24165200000.0 45862400000.0 52124500000.0 86264500000.0 53268400000.0 94320100000.0 15191800000.0 1051000000.0 71796600000.0 202688000000.0 16502900000.0 39376400000.0 15066500000.0 63316200000.0 4797460000.0 65357300000.0 10104700000.0 30991100000.0 5005560000.0 25582400000.0 1105690000.0 17262600000.0 3981610000.0 26784400000.0 8406750000.0 8637230000.0 3542550000.0 12071200000.0 2423070000.0 62679000000.0 65267600000.0 73035600000.0 48894100000.0 34776100000.0 62042200000.0 76887100000.0 77813900000.0 50349700000.0 5721380000.0 1693960000.0 9565460000.0 18089300000.0 27615700000.0 38134300000.0 99803800000.0 318550000000.0 185134000000.0 90503600000.0 35601600000.0 31057000000.0 13870900000.0 9047020000.0 9035750000.0 9035750000.0 8662720000.0 7907580000.0 10853000000.0 36745300000.0 42476200000.0 49510700000.0 79328600000.0 180722000000.0 223003000000.0 9686470000.0 10598800000.0 11089900000.0 9088230000.0 11545400000.0 40968100000.0 55356700000.0 68258500000.0 78565700000.0 104885000000.0 115988000000.0 122751000000.0 123866000000.0 132855000000.0 122743000000.0 131344000000.0 86286500000.0 104675000000.0 46578700000.0 23311400000.0 81844500000.0 169998000000.0 96485600000.0 73373100000.0 60292900000.0 15708900000.0 58040800000.0 3575900000.0 44915800000.0 18760100000.0 32807200000.0 3009480000.0 19574000000.0 7342790000.0 9440400000.0 32763500000.0 4610100000.0 15691100000.0 11436500000.0 32118100000.0 29755300000.0 63338700000.0 61389300000.0 63711600000.0 50279900000.0 27350000000.0 45254100000.0 57666700000.0 55560700000.0 32571500000.0 3291250000.0 4346820000.0 5360190000.0 6650250000.0 7587360000.0 9295170000.0 152682000000.0 288730000000.0 146336000000.0 54040300000.0 25879900000.0 24533900000.0 7921430000.0 5001220000.0 6671360000.0 8257740000.0 9038890000.0 9035940000.0 11899800000.0 38369000000.0 45973000000.0 52269100000.0 65736700000.0 151305000000.0 207113000000.0 6889920000.0 5646720000.0 3758750000.0 672698000.0 608198000.0 25820400000.0 33860000000.0 44154700000.0 51447600000.0 72961500000.0 83286700000.0 91102400000.0 92931000000.0 103811000000.0 99560700000.0 112200000000.0 70924500000.0 75584000000.0 27162300000.0 26783300000.0 50785900000.0 171074000000.0 23655300000.0 9779980000.0 32914500000.0 56466600000.0 15386600000.0 63602700000.0 16970900000.0 30543000000.0 13734700000.0 36331600000.0 15212900000.0 38002900000.0 15066500000.0 55044100000.0 9026980000.0 23893300000.0 19385000000.0 36731800000.0 32443500000.0 53648300000.0 53881200000.0 64042900000.0 57900900000.0 35926500000.0 43741900000.0 54184000000.0 51392300000.0 36632000000.0 10181700000.0 9559900000.0 8953650000.0 8659820000.0 7318260000.0 8541420000.0 147583000000.0 245008000000.0 128033000000.0 50452200000.0 35260400000.0 32332900000.0 13496500000.0 9046270000.0 9035760000.0 9042280000.0 9038100000.0 9035990000.0 11177000000.0 36544700000.0 45129300000.0 50502000000.0 57268300000.0 124636000000.0 191215000000.0 11498600000.0 11770700000.0 11549000000.0 9173400000.0 13978100000.0 39370200000.0 48287100000.0 60116200000.0 68298300000.0 88032900000.0 98174800000.0 105448000000.0 105853000000.0 113094000000.0 106792000000.0 115550000000.0 82398200000.0 92020700000.0 67277400000.0 9665780000.0 94402600000.0 133914000000.0 2699930000.0 12721100000.0 14989200000.0 40255600000.0 7641960000.0 60221300000.0 15946300000.0 29399900000.0 14846300000.0 36979700000.0 17149500000.0 40387400000.0 16595000000.0 56778200000.0 9312610000.0 23083200000.0 20126000000.0 37507100000.0 34272100000.0 51677600000.0 51660300000.0 63123300000.0 57490100000.0 37659600000.0 37496000000.0 45565100000.0 42283100000.0 34100700000.0 10681900000.0 10189200000.0 9822250000.0 10344200000.0 9545420000.0 12288000000.0 142176000000.0 203556000000.0 100357000000.0 41096200000.0 33261400000.0 31138500000.0 13118900000.0 9063980000.0 9035770000.0 9040790000.0 9037470000.0 9035980000.0 10568000000.0 34030100000.0 43040000000.0 47884800000.0 53350600000.0 103661000000.0 171881000000.0 12258500000.0 12116800000.0 11580700000.0 9292420000.0 14670100000.0 36957700000.0 45372500000.0 55486800000.0 61749600000.0 77765500000.0 86162900000.0 92433300000.0 92157500000.0 97464300000.0 90552400000.0 96880600000.0 67242500000.0 72931300000.0 55134500000.0 2382210000.0 90829800000.0 126533000000.0 30050200000.0 9035750000.0 32771600000.0 50331300000.0 15198900000.0 59121800000.0 14995000000.0 27663400000.0 15201800000.0 36261100000.0 18385400000.0 40941700000.0 17641400000.0 55962400000.0 9308520000.0 21731400000.0 20005700000.0 36727100000.0 34094100000.0 49551100000.0 49756300000.0 60873000000.0 55570200000.0 38395500000.0 33105200000.0 39143200000.0 35645800000.0 31612700000.0 11041800000.0 10413700000.0 9981840000.0 10640000000.0 9638180000.0 13215200000.0 131703000000.0 168519000000.0 79348200000.0 36382900000.0 30545900000.0 29197600000.0 12721200000.0 9077880000.0 9035780000.0 9039620000.0 9036960000.0 9035960000.0 10085700000.0 31052800000.0 39944800000.0 44122800000.0 49133700000.0 86771900000.0 150677000000.0 12719000000.0 12255600000.0 11521900000.0 9372510000.0 14917900000.0 33808500000.0 42098900000.0 50622300000.0 55302100000.0 68451000000.0 76227000000.0 82342200000.0 82260500000.0 87160900000.0 81266200000.0 86427900000.0 61926000000.0 65887200000.0 54342000000.0 9035750000.0 99297000000.0 28635000000.0 9035750000.0 30141100000.0 46425500000.0 14186200000.0 54542700000.0 14097300000.0 25531900000.0 15062600000.0 34479300000.0 18902800000.0 39842400000.0 18102200000.0 53050400000.0 9266690000.0 20407700000.0 19495600000.0 35018300000.0 32858500000.0 46540300000.0 46908100000.0 57005600000.0 52023100000.0 37343700000.0 29829100000.0 33818200000.0 30764800000.0 28866400000.0 11195700000.0 10518100000.0 10067300000.0 10801600000.0 9686530000.0 13787100000.0 118460000000.0 137662000000.0 62391200000.0 32297600000.0 27515600000.0 26798900000.0 12299600000.0 9086320000.0 9035790000.0 9038730000.0 85489700000.0 9036590000.0 9035910000.0 9729500000.0 27794800000.0 36090300000.0 39597100000.0 44138500000.0 73336000000.0 128687000000.0 12842300000.0 12186300000.0 11362500000.0 9411360000.0 14752800000.0 30247100000.0 38205300000.0 45210400000.0 48375700000.0 58580500000.0 65042300000.0 70267800000.0 70056300000.0 74044100000.0 68669000000.0 72526700000.0 52267300000.0 54730700000.0 46511000000.0 9035750000.0 76769000000.0 82108600000.0 28893600000.0 9035750000.0 27239000000.0 41563300000.0 13259100000.0 48959000000.0 13237200000.0 23158600000.0 14565900000.0 31839300000.0 18687500000.0 37317800000.0 17963200000.0 48536200000.0 9230740000.0 18988700000.0 18565100000.0 32441400000.0 30693100000.0 42531900000.0 42979900000.0 51819200000.0 47318800000.0 34970500000.0 27306600000.0 29457600000.0 27182900000.0 26052800000.0 11196500000.0 10518000000.0 10075500000.0 10825000000.0 9688220000.0 13945800000.0 103589000000.0 111051000000.0 49292900000.0 28359500000.0 24424000000.0 24129300000.0 11819100000.0 9089330000.0 9035790000.0 9038040000.0 9036320000.0 9035860000.0 9482090000.0 24390000000.0 31688000000.0 34528200000.0 106366000000.0 12639200000.0 11918400000.0 11101800000.0 9409480000.0 14215800000.0 26489300000.0 33689000000.0 39342600000.0 58349800000.0 58074800000.0 61249700000.0 56585100000.0 59417100000.0 43272100000.0 44701400000.0 38834800000.0 9035750000.0 65487100000.0 26628100000.0 9035750000.0 24124200000.0 36081400000.0 12432600000.0 42564800000.0 20646700000.0 13812700000.0 28512300000.0 17803800000.0 33624300000.0 17237900000.0 42777800000.0 9197090000.0 17403600000.0 17268200000.0 29126400000.0 27749900000.0 37638000000.0 38091300000.0 45508400000.0 41642900000.0 31558100000.0 24796900000.0 25738300000.0 24089800000.0 23164900000.0 11046200000.0 10414600000.0 10007700000.0 10713600000.0 9643790000.0 13688300000.0 87601800000.0 87918900000.0 21385800000.0 21329800000.0 11287500000.0 9087260000.0 9035790000.0 9037490000.0 38409500000.0 61327800000.0 41324300000.0 48931600000.0 54091200000.0 65406400000.0 12410000000.0 39046900000.0 24517000000.0 9036110000.0 9035830000.0 9314460000.0 20929000000.0 26907600000.0 29091700000.0 32182500000.0 49666900000.0 84139100000.0 12147500000.0 11472200000.0 10746800000.0 9369820000.0 13363800000.0 22635500000.0 28653400000.0 33077000000.0 34182500000.0 39574800000.0 43480800000.0 46752900000.0 46474500000.0 48893400000.0 45112500000.0 47111800000.0 34895300000.0 35651500000.0 31524100000.0 9035750000.0 53380800000.0 50910900000.0 23486900000.0 9035750000.0 20853100000.0 30225800000.0 11659500000.0 35572400000.0 11614400000.0 18064300000.0 12882200000.0 24651400000.0 16372000000.0 29009400000.0 15984700000.0 36079500000.0 9162850000.0 15663800000.0 15686200000.0 25216000000.0 24179000000.0 31999900000.0 32401900000.0 38272800000.0 35163000000.0 27332000000.0 21895300000.0 22228200000.0 20979000000.0 20163000000.0 10756200000.0 10215600000.0 9870070000.0 10478700000.0 9556720000.0 13056500000.0 70791600000.0 67497600000.0 30823600000.0 20815900000.0 18449000000.0 18503900000.0 10743600000.0 9080710000.0 9035790000.0 9037040000.0 9035960000.0 9035810000.0 9201350000.0 17464300000.0 11419000000.0 10877100000.0 9297680000.0 35528200000.0 27388300000.0 9035750000.0 37796500000.0 9035750000.0 24171200000.0 28162200000.0 15453400000.0 20394500000.0 14526000000.0 23700000000.0 14294800000.0 28699700000.0 9127180000.0 13812500000.0 13896700000.0 20848500000.0 20126700000.0 25771600000.0 53353600000.0 49137100000.0 15709800000.0 10218500000.0 9070440000.0 9035780000.0 9036650000.0 21878700000.0 23419000000.0 25646600000.0 37973600000.0 62153400000.0 10311600000.0 12270100000.0 18727500000.0 23228900000.0 26444200000.0 26965500000.0 30504800000.0 33220200000.0 35517900000.0 35285500000.0 36984600000.0 34215100000.0 27034700000.0 24639000000.0 40874000000.0 19716600000.0 17480400000.0 10901600000.0 10846800000.0 11835300000.0 26082300000.0 30315500000.0 28049000000.0 22477900000.0 18534500000.0 18617700000.0 17690400000.0 17038800000.0 10347500000.0 9935290000.0 9673120000.0 10139300000.0 9433300000.0 12116900000.0 23900500000.0 17269100000.0 15625700000.0 9035860000.0 9035790000.0 9122610000.0 14017800000.0 16697300000.0 17605200000.0 18934500000.0 26208900000.0 40411400000.0 10515500000.0 10170300000.0 9815700000.0 9200700000.0 11011600000.0 14788100000.0 17541300000.0 19490800000.0 19687200000.0 21664900000.0 23248500000.0 24596600000.0 24445500000.0 25446400000.0 23773300000.0 24508800000.0 19554400000.0 19693200000.0 18124900000.0 9035750000.0 28028900000.0 25695100000.0 15524800000.0 9035750000.0 14054000000.0 18027400000.0 10142000000.0 20472400000.0 10100500000.0 12836600000.0 10718000000.0 15866200000.0 12394400000.0 17906200000.0 12279200000.0 20858000000.0 9090350000.0 11890500000.0 11967200000.0 16157400000.0 15735100000.0 19116000000.0 19309500000.0 21841800000.0 20477100000.0 17172900000.0 14807100000.0 14810900000.0 14232600000.0 13816300000.0 9848510000.0 9593100000.0 9431110000.0 9720720000.0 9282210000.0 10949500000.0 35468400000.0 32245100000.0 17666000000.0 13856900000.0 12900200000.0 12965200000.0 9721930000.0 9057390000.0 9035770000.0 9036280000.0 9035750000.0 14190600000.0 9035750000.0 11846600000.0 12619000000.0 12747300000.0 9929820000.0 9035780000.0 9035760000.0 9061360000.0 10589700000.0 11434200000.0 11717000000.0 12133500000.0 14402200000.0 18824100000.0 9505690000.0 9395090000.0 9282080000.0 9088380000.0 9659880000.0 10832600000.0 11703000000.0 12317000000.0 12364700000.0 12967300000.0 13459300000.0 13878800000.0 13830300000.0 14142200000.0 13615600000.0 13840300000.0 12301600000.0 12336200000.0 11854200000.0 14981600000.0 11081200000.0 10603800000.0 9380930000.0 9367110000.0 10222300000.0 9563920000.0 11180300000.0 10097100000.0 11826900000.0 10063800000.0 9052850000.0 9957060000.0 11273800000.0 11142600000.0 12202400000.0 12263900000.0 13057500000.0 12628800000.0 11596700000.0 10854700000.0 10851100000.0 10666300000.0 10532700000.0 9293670000.0 9212600000.0 9161250000.0 9253230000.0 9113970000.0 9643610000.0 17311400000.0 16215300000.0 11709200000.0 10533900000.0 10237500000.0 10259600000.0 9248380000.0 9042640000.0 9035760000.0 9035910000.0 