# vtk DataFile Version 2.0
Time step 38
ASCII
DATASET UNSTRUCTURED_GRID
POINTS 5000 float
205010.0 351660.0 0
288189.0 352536.0 0
297464.0 352366.0 0
202699.0 356211.0 0
207403.0 354654.0 0
206950.0 357711.0 0
212088.0 353359.0 0
216484.0 358845.0 0
221694.0 357388.0 0
226681.0 358644.0 0
282953.0 356053.0 0
297173.0 357635.0 0
202411.0 361008.0 0
207471.0 362058.0 0
211156.0 358657.0 0
221811.0 361902.0 0
229402.0 362195.0 0
230710.0 359161.0 0
235087.0 358786.0 0
240461.0 360703.0 0
245377.0 363099.0 0
251586.0 362710.0 0
257867.0 362813.0 0
262545.0 362145.0 0
266382.0 358893.0 0
271748.0 357313.0 0
270689.0 363592.0 0
273833.0 361165.0 0
278142.0 359910.0 0
280788.0 363976.0 0
284935.0 361682.0 0
289553.0 358209.0 0
289227.0 362941.0 0
293899.0 361855.0 0
203574.0 365839.0 0
209192.0 366907.0 0
212530.0 363244.0 0
213996.0 367876.0 0
217680.0 364260.0 0
225715.0 363244.0 0
222460.0 366294.0 0
228999.0 366169.0 0
233402.0 364056.0 0
238438.0 365673.0 0
243679.0 367942.0 0
247832.0 366880.0 0
255418.0 367068.0 0
259439.0 367309.0 0
263338.0 366486.0 0
266466.0 363747.0 0
267692.0 368565.0 0
272119.0 367313.0 0
275790.0 364827.0 0
279199.0 367586.0 0
283531.0 367752.0 0
288130.0 368487.0 0
286835.0 365160.0 0
291517.0 365644.0 0
296671.0 367017.0 0
201901.0 369936.0 0
200185.0 377255.0 0
202736.0 374036.0 0
206250.0 370538.0 0
211463.0 371884.0 0
215829.0 373980.0 0
218618.0 369850.0 0
225945.0 369966.0 0
222440.0 371464.0 0
230618.0 370127.0 0
228889.0 373295.0 0
234645.0 368873.0 0
234964.0 373389.0 0
239361.0 371007.0 0
243607.0 374126.0 0
247498.0 371275.0 0
251462.0 368896.0 0
252900.0 373409.0 0
257243.0 371471.0 0
261893.0 370721.0 0
270293.0 374752.0 0
271392.0 371332.0 0
275363.0 369893.0 0
279972.0 372265.0 0
285306.0 372875.0 0
291898.0 368838.0 0
290106.0 372755.0 0
293986.0 371079.0 0
296317.0 374832.0 0
193544.0 381252.0 0
190361.0 383708.0 0
193091.0 383965.0 0
197038.0 379484.0 0
196488.0 382858.0 0
200053.0 380587.0 0
203780.0 379703.0 0
207594.0 375784.0 0
212743.0 378245.0 0
220682.0 375034.0 0
218074.0 379069.0 0
225512.0 375113.0 0
228604.0 379071.0 0
231658.0 375495.0 0
238605.0 376689.0 0
242267.0 377568.0 0
249179.0 375974.0 0
245541.0 378793.0 0
253273.0 378866.0 0
256181.0 375801.0 0
260246.0 375321.0 0
265705.0 374308.0 0
273566.0 376294.0 0
269414.0 380237.0 0
275808.0 373575.0 0
277373.0 376476.0 0
281983.0 378106.0 0
286798.0 377578.0 0
292288.0 375758.0 0
289919.0 377066.0 0
292819.0 379045.0 0
295973.0 380455.0 0
298881.0 379815.0 0
301316.0 378628.0 0
302149.0 383176.0 0
304807.0 380455.0 0
307972.0 381701.0 0
182963.0 388594.0 0
186940.0 386271.0 0
190799.0 386553.0 0
191471.0 389137.0 0
194987.0 386820.0 0
200301.0 384609.0 0
205257.0 385279.0 0
208170.0 381281.0 0
210839.0 384164.0 0
215072.0 383197.0 0
219847.0 383655.0 0
223484.0 380029.0 0
227224.0 383505.0 0
230616.0 383078.0 0
234034.0 380135.0 0
238360.0 381490.0 0
241587.0 380506.0 0
244515.0 382770.0 0
249308.0 380737.0 0
247903.0 385180.0 0
252267.0 383404.0 0
257885.0 379666.0 0
263125.0 379744.0 0
260054.0 383727.0 0
273511.0 384014.0 0
275546.0 380393.0 0
276726.0 384964.0 0
279314.0 382800.0 0
282026.0 384838.0 0
285840.0 381401.0 0
282864.0 382471.0 0
284595.0 384220.0 0
289491.0 381034.0 0
292819.0 382601.0 0
292500.0 386503.0 0
296126.0 384730.0 0
298749.0 382970.0 0
296154.0 388996.0 0
299693.0 387199.0 0
303305.0 386951.0 0
306197.0 382911.0 0
310116.0 384447.0 0
306183.0 385365.0 0
309768.0 387554.0 0
314318.0 388009.0 0
175069.0 393584.0 0
179025.0 391568.0 0
182923.0 392478.0 0
185910.0 389656.0 0
188727.0 389493.0 0
186636.0 392275.0 0
189832.0 392678.0 0
193728.0 391708.0 0
197975.0 389309.0 0
197307.0 393991.0 0
201790.0 388441.0 0
200345.0 391762.0 0
204313.0 391622.0 0
208916.0 389029.0 0
213617.0 387841.0 0
217275.0 386875.0 0
221020.0 388564.0 0
223978.0 385005.0 0
226059.0 388502.0 0
223583.0 391898.0 0
230128.0 387093.0 0
235479.0 386164.0 0
239589.0 389466.0 0
240863.0 384898.0 0
244204.0 388250.0 0
251545.0 388034.0 0
255967.0 386057.0 0
264897.0 385010.0 0
260854.0 388980.0 0
266298.0 389578.0 0
269751.0 386549.0 0
270957.0 390751.0 0
274893.0 388883.0 0
279729.0 387643.0 0
283896.0 387230.0 0
286656.0 390119.0 0
288025.0 385298.0 0
290248.0 389619.0 0
296141.0 392752.0 0
293148.0 391547.0 0
299978.0 392239.0 0
303547.0 390802.0 0
306856.0 388747.0 0
307675.0 392487.0 0
310527.0 390545.0 0
310923.0 393581.0 0
314274.0 392521.0 0
318948.0 389799.0 0
317636.0 392504.0 0
322626.0 392547.0 0
165290.0 399173.0 0
168677.0 397737.0 0
171546.0 395061.0 0
171817.0 398065.0 0
178589.0 395854.0 0
174604.0 397079.0 0
182561.0 396144.0 0
186586.0 395593.0 0
190308.0 395658.0 0
193241.0 395485.0 0
195650.0 397362.0 0
199207.0 397620.0 0
201023.0 394563.0 0
203583.0 397057.0 0
208162.0 395083.0 0
212612.0 393050.0 0
216835.0 391169.0 0
220004.0 393927.0 0
223112.0 395750.0 0
228147.0 394077.0 0
232929.0 391116.0 0
237059.0 393983.0 0
242985.0 393161.0 0
247748.0 391148.0 0
246840.0 395856.0 0
251226.0 391497.0 0
250725.0 394821.0 0
255643.0 392148.0 0
263809.0 393185.0 0
268553.0 393937.0 0
273979.0 394823.0 0
278596.0 392781.0 0
282507.0 391211.0 0
285623.0 394139.0 0
289810.0 394452.0 0
294100.0 396528.0 0
297860.0 395649.0 0
301187.0 397507.0 0
297587.0 399015.0 0
305167.0 395958.0 0
310116.0 397263.0 0
314723.0 396877.0 0
319658.0 396087.0 0
323550.0 397895.0 0
326519.0 395376.0 0
330865.0 397846.0 0
334536.0 399262.0 0
160115.0 402281.0 0
157515.0 404189.0 0
162766.0 400929.0 0
167033.0 401544.0 0
170403.0 401098.0 0
169650.0 404040.0 0
173263.0 400074.0 0
176892.0 400098.0 0
173653.0 402977.0 0
176976.0 403445.0 0
180395.0 398803.0 0
180914.0 402223.0 0
184121.0 399509.0 0
186188.0 403116.0 0
188370.0 399233.0 0
192344.0 398974.0 0
190797.0 403299.0 0
196009.0 401566.0 0
200828.0 400888.0 0
203756.0 400469.0 0
207523.0 400518.0 0
212185.0 398493.0 0
216397.0 396392.0 0
220097.0 398311.0 0
224204.0 399095.0 0
228484.0 400082.0 0
232685.0 397172.0 0
240640.0 397537.0 0
236553.0 399528.0 0
244636.0 400309.0 0
249731.0 399509.0 0
254070.0 397998.0 0
259968.0 397437.0 0
265865.0 398009.0 0
263948.0 401710.0 0
270432.0 398894.0 0
275013.0 400322.0 0
278585.0 397919.0 0
282236.0 395970.0 0
286639.0 398513.0 0
290907.0 399892.0 0
295454.0 401919.0 0
300781.0 402380.0 0
304430.0 400584.0 0
307929.0 401050.0 0
312188.0 401420.0 0
316245.0 400890.0 0
320095.0 400773.0 0
319454.0 404344.0 0
325736.0 399506.0 0
323758.0 402133.0 0
328143.0 399930.0 0
327944.0 402844.0 0
331940.0 402307.0 0
335631.0 402436.0 0
337443.0 400265.0 0
339519.0 403175.0 0
343106.0 404106.0 0
151947.0 407816.0 0
148907.0 409587.0 0
154466.0 405894.0 0
157410.0 408013.0 0
154316.0 410315.0 0
161432.0 405706.0 0
165144.0 404544.0 0
172122.0 405898.0 0
168859.0 407650.0 0
175247.0 406213.0 0
172818.0 409684.0 0
178595.0 405986.0 0
182862.0 406000.0 0
187205.0 407119.0 0
190873.0 407094.0 0
194602.0 405972.0 0
199608.0 405359.0 0
203804.0 403640.0 0
207796.0 405365.0 0
211019.0 407448.0 0
211990.0 403438.0 0
215091.0 407148.0 0
216677.0 401942.0 0
220933.0 401955.0 0
224614.0 403770.0 0
232632.0 402982.0 0
237368.0 403547.0 0
239886.0 401508.0 0
239188.0 406474.0 0
244938.0 404993.0 0
241689.0 404423.0 0
248363.0 403651.0 0
252769.0 403999.0 0
256328.0 401683.0 0
260126.0 404417.0 0
264751.0 406191.0 0
267752.0 402648.0 0
272036.0 403586.0 0
275723.0 404487.0 0
278923.0 403012.0 0
282695.0 401082.0 0
287186.0 403878.0 0
291356.0 404078.0 0
290393.0 407360.0 0
294471.0 406276.0 0
297814.0 405305.0 0
301279.0 406833.0 0
306278.0 405169.0 0
310865.0 404925.0 0
310762.0 408904.0 0
315344.0 404782.0 0
313633.0 407725.0 0
317233.0 407941.0 0
320240.0 407602.0 0
323866.0 405807.0 0
323402.0 409467.0 0
331605.0 405741.0 0
327990.0 405926.0 0
331325.0 409189.0 0
334967.0 404957.0 0
334393.0 408070.0 0
338356.0 406776.0 0
345981.0 406313.0 0
342880.0 407999.0 0
346919.0 409863.0 0
348864.0 407904.0 0
351365.0 410030.0 0
142136.0 413669.0 0
145565.0 411707.0 0
144748.0 415213.0 0
151537.0 411220.0 0
148656.0 412607.0 0
151560.0 413389.0 0
154937.0 413965.0 0
157529.0 411501.0 0
161357.0 410403.0 0
162245.0 414402.0 0
158916.0 413919.0 0
165058.0 409326.0 0
164929.0 413402.0 0
168385.0 411795.0 0
176490.0 409277.0 0
172225.0 414151.0 0
176814.0 413015.0 0
179854.0 409514.0 0
181739.0 413280.0 0
183784.0 409493.0 0
185887.0 411124.0 0
188992.0 410570.0 0
193080.0 409998.0 0
197120.0 409343.0 0
195683.0 413206.0 0
201213.0 409674.0 0
199838.0 413049.0 0
204243.0 407921.0 0
204150.0 412760.0 0
207655.0 410134.0 0
211935.0 411271.0 0
216578.0 412218.0 0
219776.0 406567.0 0
223976.0 408235.0 0
228204.0 406922.0 0
230030.0 411300.0 0
232119.0 408123.0 0
235716.0 407097.0 0
238399.0 410514.0 0
242917.0 409358.0 0
247298.0 407588.0 0
251213.0 409802.0 0
256574.0 408718.0 0
261593.0 409894.0 0
265616.0 410786.0 0
269407.0 407622.0 0
272552.0 411028.0 0
274281.0 407613.0 0
278556.0 407516.0 0
280103.0 410892.0 0
282771.0 406218.0 0
283411.0 410969.0 0
286752.0 408389.0 0
289662.0 410919.0 0
293463.0 409942.0 0
297964.0 409493.0 0
304484.0 408710.0 0
302548.0 411098.0 0
307498.0 410765.0 0
312518.0 413251.0 0
315308.0 410741.0 0
319910.0 411774.0 0
324472.0 413478.0 0
327582.0 409990.0 0
330048.0 412988.0 0
333493.0 412094.0 0
336635.0 410421.0 0
340503.0 412070.0 0
345155.0 412249.0 0
349267.0 412437.0 0
352493.0 414516.0 0
354361.0 411985.0 0
357511.0 413943.0 0
360992.0 415695.0 0
135013.0 417883.0 0
132432.0 419745.0 0
139312.0 415933.0 0
137786.0 418733.0 0
142152.0 420233.0 0
142225.0 417176.0 0
146046.0 418731.0 0
148325.0 415542.0 0
149274.0 419584.0 0
151419.0 416497.0 0
156830.0 416915.0 0
154169.0 417589.0 0
159653.0 417082.0 0
163267.0 417761.0 0
167649.0 416541.0 0
171168.0 418411.0 0
174473.0 417626.0 0
178288.0 416994.0 0
186465.0 414946.0 0
182377.0 417601.0 0
191242.0 414146.0 0
194399.0 417225.0 0
197758.0 415818.0 0
201030.0 416400.0 0
204815.0 417238.0 0
208249.0 414388.0 0
212413.0 415815.0 0
216218.0 417080.0 0
221387.0 411911.0 0
219649.0 416387.0 0
226206.0 412061.0 0
223826.0 416361.0 0
228384.0 416284.0 0
231395.0 414317.0 0
234108.0 411722.0 0
233904.0 416842.0 0
237078.0 414219.0 0
241118.0 414142.0 0
245009.0 415425.0 0
246938.0 412174.0 0
254233.0 413418.0 0
250229.0 416023.0 0
258793.0 414212.0 0
263114.0 414387.0 0
266544.0 414717.0 0
269443.0 412736.0 0
272953.0 414991.0 0
269526.0 417145.0 0
276512.0 411949.0 0
276520.0 416848.0 0
280541.0 415267.0 0
286765.0 412318.0 0
284964.0 415554.0 0
289360.0 415864.0 0
292612.0 413626.0 0
296281.0 413786.0 0
294015.0 417629.0 0
298283.0 418413.0 0
300058.0 413736.0 0
301629.0 417044.0 0
305104.0 415164.0 0
308603.0 416690.0 0
309331.0 414150.0 0
311164.0 417163.0 0
314473.0 417462.0 0
317280.0 414947.0 0
318601.0 419139.0 0
321979.0 416711.0 0
327790.0 415684.0 0
336678.0 414392.0 0
332621.0 416703.0 0
337308.0 418425.0 0
340959.0 416450.0 0
344926.0 415797.0 0
344518.0 420362.0 0
348271.0 415137.0 0
347654.0 418465.0 0
350661.0 417167.0 0
355503.0 416661.0 0
353468.0 418672.0 0
356097.0 420489.0 0
358886.0 418421.0 0
362233.0 419428.0 0
364023.0 417684.0 0
367001.0 419204.0 0
123820.0 424927.0 0
125966.0 423376.0 0
129728.0 422125.0 0
127990.0 425219.0 0
134206.0 421481.0 0
132561.0 424444.0 0
137098.0 422740.0 0
140323.0 422854.0 0
145659.0 422184.0 0
143320.0 423522.0 0
141695.0 425677.0 0
148604.0 422701.0 0
151299.0 423435.0 0
152418.0 420389.0 0
156079.0 420234.0 0
154011.0 423390.0 0
159579.0 420238.0 0
157455.0 424466.0 0
162220.0 422325.0 0
165692.0 420624.0 0
165882.0 424215.0 0
169074.0 420931.0 0
172394.0 420916.0 0
175515.0 420443.0 0
174412.0 423591.0 0
178981.0 421478.0 0
186082.0 419011.0 0
183344.0 421059.0 0
186857.0 422564.0 0
189987.0 418968.0 0
190239.0 423176.0 0
194028.0 421483.0 0
197950.0 419176.0 0
201579.0 420109.0 0
204812.0 422544.0 0
208928.0 419355.0 0
211353.0 421955.0 0
213673.0 419767.0 0
217215.0 420665.0 0
221245.0 420418.0 0
225964.0 420676.0 0
231033.0 419980.0 0
238251.0 417929.0 0
235357.0 421817.0 0
239266.0 421340.0 0
242194.0 418173.0 0
242532.0 422174.0 0
246142.0 419411.0 0
249684.0 420703.0 0
253292.0 420041.0 0
255147.0 416897.0 0
257300.0 420028.0 0
261595.0 419200.0 0
265683.0 418042.0 0
268184.0 421860.0 0
273373.0 420319.0 0
278753.0 420799.0 0
282890.0 419373.0 0
285194.0 422491.0 0
286936.0 419670.0 0
291187.0 420758.0 0
295539.0 422078.0 0
299559.0 422724.0 0
303417.0 420220.0 0
307929.0 419840.0 0
310570.0 423411.0 0
311997.0 420463.0 0
315288.0 421028.0 0
318940.0 424355.0 0
325981.0 418595.0 0
323356.0 421612.0 0
329482.0 419108.0 0
328335.0 422190.0 0
333671.0 422628.0 0
341082.0 419514.0 0
339683.0 422653.0 0
343406.0 424138.0 0
349653.0 420666.0 0
347687.0 423718.0 0
352952.0 421770.0 0
357070.0 424292.0 0
359356.0 421640.0 0
362140.0 422226.0 0
361281.0 425086.0 0
365214.0 421887.0 0
364701.0 425262.0 0
369805.0 420980.0 0
372639.0 422734.0 0
368266.0 423038.0 0
371286.0 424742.0 0
375457.0 424809.0 0
121691.0 426174.0 0
117035.0 429378.0 0
124856.0 427286.0 0
120088.0 428342.0 0
127357.0 428574.0 0
123699.0 429538.0 0
130784.0 427733.0 0
135187.0 426182.0 0
134303.0 429465.0 0
138515.0 426604.0 0
138274.0 430331.0 0
145882.0 426007.0 0
142477.0 428705.0 0
145568.0 429443.0 0
149403.0 426095.0 0
148909.0 429290.0 0
152852.0 426963.0 0
156740.0 429399.0 0
161400.0 426738.0 0
165566.0 428979.0 0
170040.0 424805.0 0
169830.0 428791.0 0
173276.0 427445.0 0
177647.0 426113.0 0
182859.0 425438.0 0
188104.0 426906.0 0
192690.0 425436.0 0
194996.0 427380.0 0
198469.0 424484.0 0
202482.0 425791.0 0
205137.0 427273.0 0
209162.0 424930.0 0
214233.0 424372.0 0
219034.0 424427.0 0
223125.0 424873.0 0
229334.0 422964.0 0
227185.0 425414.0 0
232042.0 424294.0 0
235142.0 426946.0 0
238910.0 424846.0 0
242518.0 426301.0 0
246750.0 424663.0 0
252101.0 424860.0 0
255910.0 423001.0 0
256279.0 426345.0 0
259545.0 424300.0 0
264155.0 423972.0 0
262409.0 427322.0 0
267626.0 426746.0 0
271820.0 425380.0 0
275954.0 424128.0 0
282183.0 422999.0 0
279728.0 426165.0 0
284890.0 426519.0 0
288511.0 424047.0 0
289575.0 428304.0 0
292795.0 425310.0 0
296905.0 426144.0 0
302887.0 423188.0 0
301987.0 427174.0 0
306748.0 424434.0 0
310906.0 427472.0 0
313777.0 424401.0 0
315742.0 429246.0 0
323370.0 426472.0 0
326572.0 425445.0 0
330603.0 426991.0 0
334753.0 428474.0 0
337556.0 426106.0 0
341140.0 426846.0 0
345080.0 427290.0 0
352021.0 425667.0 0
348580.0 427467.0 0
351558.0 430122.0 0
355974.0 428678.0 0
362485.0 428956.0 0
359103.0 427857.0 0
366132.0 429188.0 0
368082.0 426610.0 0
371057.0 429300.0 0
373562.0 426850.0 0
376092.0 429678.0 0
378352.0 427139.0 0
381501.0 429031.0 0
108364.0 435539.0 0
114203.0 431500.0 0
111319.0 433141.0 0
113364.0 435166.0 0
115938.0 435804.0 0
117228.0 432876.0 0
120631.0 432297.0 0
123286.0 431608.0 0
125065.0 433311.0 0
126781.0 431059.0 0
130388.0 431721.0 0
128179.0 434232.0 0
133749.0 433274.0 0
137385.0 434120.0 0
142161.0 432106.0 0
145792.0 432591.0 0
141117.0 435357.0 0
149205.0 432630.0 0
148240.0 435191.0 0
152380.0 431290.0 0
155740.0 434700.0 0
160562.0 431650.0 0
163568.0 433444.0 0
167863.0 433441.0 0
171936.0 431349.0 0
174600.0 433078.0 0
175856.0 429716.0 0
177672.0 432171.0 0
180262.0 429683.0 0
180124.0 433840.0 0
184495.0 429248.0 0
182964.0 432043.0 0
187189.0 432199.0 0
191869.0 429846.0 0
196908.0 430701.0 0
201154.0 429211.0 0
204506.0 431787.0 0
208369.0 429222.0 0
212434.0 429366.0 0
216748.0 427969.0 0
216708.0 431773.0 0
220876.0 429089.0 0
225271.0 429076.0 0
227787.0 432624.0 0
230470.0 428715.0 0
233900.0 432700.0 0
239573.0 430720.0 0
245183.0 429708.0 0
249704.0 429343.0 0
254157.0 429006.0 0
258787.0 430029.0 0
265064.0 431492.0 0
271353.0 430791.0 0
275511.0 428171.0 0
278489.0 430709.0 0
282183.0 429590.0 0
281739.0 433898.0 0
286140.0 431092.0 0
290851.0 433134.0 0
294079.0 429761.0 0
298741.0 430966.0 0
303042.0 431659.0 0
306964.0 429777.0 0
311531.0 432241.0 0
321244.0 429965.0 0
319559.0 434004.0 0
323782.0 434059.0 0
326715.0 430293.0 0
331855.0 431884.0 0
335896.0 432159.0 0
338723.0 429698.0 0
340133.0 433488.0 0
347238.0 430912.0 0
344052.0 432883.0 0
342636.0 430061.0 0
347173.0 434799.0 0
350885.0 434099.0 0
355256.0 432937.0 0
359401.0 432101.0 0
362856.0 432894.0 0
360861.0 435498.0 0
363249.0 434660.0 0
365539.0 432366.0 0
368580.0 431561.0 0
373534.0 432620.0 0
370049.0 434865.0 0
377297.0 434757.0 0
378504.0 431753.0 0
381328.0 432797.0 0
384943.0 431594.0 0
388652.0 432529.0 0
391019.0 434225.0 0
389244.0 435835.0 0
101145.0 440069.0 0
105161.0 438241.0 0
111298.0 437891.0 0
108494.0 439780.0 0
112301.0 441551.0 0
115977.0 439164.0 0
119254.0 436117.0 0
120776.0 439442.0 0
122564.0 435246.0 0
125990.0 437732.0 0
130994.0 436635.0 0
134913.0 437307.0 0
137032.0 440374.0 0
138393.0 437796.0 0
141484.0 439546.0 0
144820.0 436439.0 0
145518.0 440009.0 0
151348.0 435198.0 0
148854.0 438280.0 0
152717.0 438854.0 0
160115.0 436027.0 0
156963.0 439511.0 0
164067.0 437073.0 0
167719.0 438084.0 0
171971.0 436723.0 0
176703.0 435465.0 0
175780.0 438707.0 0
179619.0 437715.0 0
183343.0 435686.0 0
187341.0 437642.0 0
191459.0 434303.0 0
191751.0 438656.0 0
195607.0 435260.0 0
200431.0 433967.0 0
201602.0 437257.0 0
198653.0 438211.0 0
204985.0 436651.0 0
208755.0 433283.0 0
209442.0 437743.0 0
213144.0 434587.0 0
217539.0 436104.0 0
220061.0 433326.0 0
221503.0 436793.0 0
223684.0 433034.0 0
230272.0 435567.0 0
226004.0 437186.0 0
237711.0 435825.0 0
243987.0 433796.0 0
247821.0 433422.0 0
252991.0 433110.0 0
250276.0 436600.0 0
257412.0 435179.0 0
261773.0 436114.0 0
266822.0 437580.0 0
271497.0 435963.0 0
276092.0 434077.0 0
274888.0 438152.0 0
279433.0 438407.0 0
283900.0 437780.0 0
286536.0 435308.0 0
289244.0 436413.0 0
291746.0 437428.0 0
296251.0 435706.0 0
301595.0 435048.0 0
305297.0 434171.0 0
308424.0 433312.0 0
309005.0 436405.0 0
312975.0 436994.0 0
315871.0 434128.0 0
317615.0 438275.0 0
321283.0 437183.0 0
325116.0 438109.0 0
328227.0 434985.0 0
332543.0 436003.0 0
336429.0 435739.0 0
338021.0 439308.0 0
340743.0 437486.0 0
343784.0 435892.0 0
343698.0 438994.0 0
346661.0 438191.0 0
350043.0 437221.0 0
352552.0 439341.0 0
354184.0 436702.0 0
357811.0 436420.0 0
363582.0 438267.0 0
359831.0 439309.0 0
366178.0 435235.0 0
367853.0 438667.0 0
371484.0 439025.0 0
374369.0 436767.0 0
378182.0 438500.0 0
381784.0 436645.0 0
380384.0 441134.0 0
383666.0 440255.0 0
386097.0 435436.0 0
387171.0 439150.0 0
390821.0 438887.0 0
393502.0 436648.0 0
396286.0 438529.0 0
399624.0 439371.0 0
92177.3 444324.0 0
94889.1 443167.0 0
97714.9 441875.0 0
99861.2 444090.0 0
97319.5 445693.0 0
105083.0 442898.0 0
108924.0 442885.0 0
114226.0 444735.0 0
117656.0 442595.0 0
120162.0 443708.0 0
124072.0 442726.0 0
129055.0 441006.0 0
128564.0 444909.0 0
133100.0 441624.0 0
135978.0 443867.0 0
138992.0 442864.0 0
143571.0 443537.0 0
148989.0 442610.0 0
153797.0 443019.0 0
158029.0 443566.0 0
161023.0 440269.0 0
165197.0 441124.0 0
166842.0 444690.0 0
169164.0 441219.0 0
170466.0 444601.0 0
173123.0 441472.0 0
177803.0 441889.0 0
182933.0 440862.0 0
188317.0 442944.0 0
192724.0 442676.0 0
195312.0 439431.0 0
197382.0 443282.0 0
201920.0 440764.0 0
206282.0 441676.0 0
210532.0 441191.0 0
214304.0 439241.0 0
218704.0 439959.0 0
222756.0 441060.0 0
229833.0 439547.0 0
227012.0 442269.0 0
233943.0 438292.0 0
231385.0 443679.0 0
234613.0 442140.0 0
238568.0 440897.0 0
241762.0 437176.0 0
246257.0 438112.0 0
254003.0 438492.0 0
250054.0 440276.0 0
258444.0 440211.0 0
263000.0 440146.0 0
266522.0 443004.0 0
271079.0 441119.0 0
275980.0 442597.0 0
280205.0 443203.0 0
283440.0 441407.0 0
287811.0 439858.0 0
291807.0 440958.0 0
294495.0 439836.0 0
297605.0 441184.0 0
294660.0 443337.0 0
300608.0 443402.0 0
301099.0 439304.0 0
304793.0 443419.0 0
305306.0 438437.0 0
309869.0 441440.0 0
314471.0 440777.0 0
317329.0 442564.0 0
321239.0 441705.0 0
325849.0 442359.0 0
329963.0 439727.0 0
333351.0 443648.0 0
334585.0 439585.0 0
337528.0 443205.0 0
341834.0 441934.0 0
345866.0 441961.0 0
349315.0 441022.0 0
349137.0 444676.0 0
352984.0 442887.0 0
356447.0 440446.0 0
356709.0 444533.0 0
359726.0 442952.0 0
362631.0 442109.0 0
366509.0 441850.0 0
370095.0 441868.0 0
372557.0 444473.0 0
375570.0 441700.0 0
380290.0 444131.0 0
384009.0 443936.0 0
387494.0 442655.0 0
391879.0 442445.0 0
395776.0 441949.0 0
400155.0 442034.0 0
402639.0 440882.0 0
404622.0 443130.0 0
399646.0 445337.0 0
402726.0 445222.0 0
407396.0 445776.0 0
83515.1 451172.0 0
85943.4 448519.0 0
88133.5 450289.0 0
90077.1 447416.0 0
94331.2 446607.0 0
92011.9 450319.0 0
98266.3 448898.0 0
102164.0 446312.0 0
102369.0 450100.0 0
105598.0 449813.0 0
106620.0 447047.0 0
110076.0 445984.0 0
109583.0 449171.0 0
113411.0 448300.0 0
117801.0 446228.0 0
120930.0 446221.0 0
117541.0 449943.0 0
124871.0 446669.0 0
122550.0 449680.0 0
127915.0 449002.0 0
131848.0 445758.0 0
131631.0 449158.0 0
135435.0 447051.0 0
139571.0 446032.0 0
142599.0 447611.0 0
146521.0 446738.0 0
148320.0 450003.0 0
151089.0 446585.0 0
155324.0 447284.0 0
159543.0 447547.0 0
162407.0 444149.0 0
164310.0 447724.0 0
169436.0 449092.0 0
174652.0 446203.0 0
177927.0 449797.0 0
179749.0 445393.0 0
182054.0 448728.0 0
183991.0 444968.0 0
192997.0 447190.0 0
197938.0 448396.0 0
201691.0 445361.0 0
205498.0 446575.0 0
209573.0 445000.0 0
208730.0 448279.0 0
213621.0 443705.0 0
216117.0 446296.0 0
212790.0 447529.0 0
216871.0 442661.0 0
219811.0 445085.0 0
224072.0 445095.0 0
227705.0 446621.0 0
231789.0 448443.0 0
236031.0 445864.0 0
240622.0 444868.0 0
243817.0 442386.0 0
248248.0 443570.0 0
250554.0 446725.0 0
253054.0 443302.0 0
254403.0 447822.0 0
257038.0 444656.0 0
261698.0 444589.0 0
269588.0 444917.0 0
273117.0 447141.0 0
278619.0 447793.0 0
283057.0 445656.0 0
286284.0 443733.0 0
287010.0 447865.0 0
290653.0 444877.0 0
294669.0 446914.0 0
297770.0 445357.0 0
301197.0 446966.0 0
309398.0 446195.0 0
305307.0 448364.0 0
312809.0 448994.0 0
314103.0 444923.0 0
316485.0 448431.0 0
318764.0 445890.0 0
323831.0 447034.0 0
329193.0 444747.0 0
329024.0 448340.0 0
332897.0 447773.0 0
336770.0 447191.0 0
341015.0 446479.0 0
345285.0 445855.0 0
344353.0 449842.0 0
349028.0 449256.0 0
353133.0 447045.0 0
356933.0 448315.0 0
359978.0 446726.0 0
363209.0 449507.0 0
363886.0 445615.0 0
368658.0 446160.0 0
367152.0 450256.0 0
373494.0 447599.0 0
371930.0 450291.0 0
377160.0 447018.0 0
381665.0 447703.0 0
388961.0 445699.0 0
385681.0 447613.0 0
389731.0 450083.0 0
392934.0 446885.0 0
396344.0 445795.0 0
397273.0 449146.0 0
404021.0 448348.0 0
400268.0 448631.0 0
407547.0 450103.0 0
410866.0 447280.0 0
414050.0 449220.0 0
416936.0 450823.0 0
74282.1 456123.0 0
79881.4 452498.0 0
77385.4 454325.0 0
82279.6 455255.0 0
86762.0 452841.0 0
86083.0 456489.0 0
90655.7 453186.0 0
94842.2 450102.0 0
94110.0 453764.0 0
99575.9 452438.0 0
96713.6 452731.0 0
98496.8 455509.0 0
103098.0 453910.0 0
107807.0 452826.0 0
112764.0 452326.0 0
113435.0 455834.0 0
116699.0 454092.0 0
120788.0 453761.0 0
125223.0 452237.0 0
129346.0 453753.0 0
134380.0 451583.0 0
138893.0 449968.0 0
138581.0 453981.0 0
143770.0 451922.0 0
148541.0 454037.0 0
152235.0 450762.0 0
156626.0 452099.0 0
161393.0 451219.0 0
164009.0 454661.0 0
165506.0 451022.0 0
167782.0 453512.0 0
173655.0 451017.0 0
171421.0 454916.0 0
176610.0 454262.0 0
187431.0 449002.0 0
191550.0 451771.0 0
194789.0 451245.0 0
198436.0 453475.0 0
202189.0 449882.0 0
206065.0 450708.0 0
210970.0 451445.0 0
216690.0 450584.0 0
223017.0 450158.0 0
228177.0 450562.0 0
231416.0 453446.0 0
236193.0 451721.0 0
240431.0 448921.0 0
245752.0 448060.0 0
250939.0 451464.0 0
258977.0 448953.0 0
256045.0 452342.0 0
262187.0 452602.0 0
265472.0 448453.0 0
266488.0 453053.0 0
269058.0 447455.0 0
269967.0 451064.0 0
275082.0 453040.0 0
279954.0 452547.0 0
283122.0 450124.0 0
286966.0 452209.0 0
292073.0 451093.0 0
297768.0 449854.0 0
301741.0 450866.0 0
305354.0 453292.0 0
309148.0 450718.0 0
312415.0 452756.0 0
315620.0 452284.0 0
319812.0 450908.0 0
323669.0 452304.0 0
326865.0 450970.0 0
326842.0 454219.0 0
331549.0 452535.0 0
335542.0 450299.0 0
336447.0 454343.0 0
340001.0 450864.0 0
344034.0 454074.0 0
347117.0 452854.0 0
350360.0 453945.0 0
354335.0 452023.0 0
359619.0 451536.0 0
364603.0 453581.0 0
369623.0 453737.0 0
376109.0 450879.0 0
374108.0 454453.0 0
378681.0 454615.0 0
380271.0 451017.0 0
382918.0 454722.0 0
384261.0 451187.0 0
387540.0 453992.0 0
392623.0 454340.0 0
394677.0 450791.0 0
399244.0 452969.0 0
396312.0 455034.0 0
402804.0 451685.0 0
403917.0 454355.0 0
405833.0 452440.0 0
407778.0 454250.0 0
405944.0 456030.0 0
411191.0 452064.0 0
411328.0 455905.0 0
415070.0 453818.0 0
419728.0 453636.0 0
423399.0 456082.0 0
68651.2 459578.0 0
71279.3 457488.0 0
72263.4 460553.0 0
75540.2 458960.0 0
78544.4 456843.0 0
81082.5 459177.0 0
84414.3 460179.0 0
90226.0 456629.0 0
87771.9 459724.0 0
94618.0 457246.0 0
90749.9 460101.0 0
98491.2 459308.0 0
101867.0 457637.0 0
104676.0 460236.0 0
109952.0 456467.0 0
105923.0 457050.0 0
108518.0 460680.0 0
112575.0 459241.0 0
111941.0 462076.0 0
115896.0 457214.0 0
119411.0 457659.0 0
124216.0 455553.0 0
122584.0 459144.0 0
126891.0 458962.0 0
131242.0 457695.0 0
134360.0 455755.0 0
138147.0 458290.0 0
141759.0 455995.0 0
142067.0 459936.0 0
145222.0 456609.0 0
149087.0 457997.0 0
152690.0 455206.0 0
156103.0 457112.0 0
159664.0 455553.0 0
159009.0 459526.0 0
162504.0 458242.0 0
167171.0 458207.0 0
174645.0 457969.0 0
178533.0 458150.0 0
182262.0 454060.0 0
181595.0 458559.0 0
188032.0 454943.0 0
189382.0 458883.0 0
193420.0 456171.0 0
199737.0 458113.0 0
203311.0 454734.0 0
207602.0 454169.0 0
206822.0 457518.0 0
213749.0 453922.0 0
210951.0 456924.0 0
215925.0 456856.0 0
219522.0 454180.0 0
219652.0 457480.0 0
222869.0 455942.0 0
226948.0 454880.0 0
230383.0 458083.0 0
234807.0 457040.0 0
239388.0 455781.0 0
242597.0 452899.0 0
241148.0 458568.0 0
246470.0 453353.0 0
249234.0 456828.0 0
244324.0 457309.0 0
253609.0 455766.0 0
258680.0 457079.0 0
264732.0 457035.0 0
270116.0 456339.0 0
279604.0 457279.0 0
283825.0 454870.0 0
288732.0 456586.0 0
293270.0 456145.0 0
296429.0 454117.0 0
296556.0 458959.0 0
300919.0 455620.0 0
306012.0 458336.0 0
309695.0 455268.0 0
313955.0 456119.0 0
318439.0 455727.0 0
322960.0 456015.0 0
326868.0 457589.0 0
330076.0 456653.0 0
333632.0 457957.0 0
340813.0 455393.0 0
343784.0 458020.0 0
347800.0 457002.0 0
350221.0 460144.0 0
352882.0 457510.0 0
357457.0 456084.0 0
361154.0 455379.0 0
360778.0 459134.0 0
363842.0 457572.0 0
367723.0 457038.0 0
371989.0 457683.0 0
376768.0 458727.0 0
381437.0 458192.0 0
386502.0 458930.0 0
390961.0 457686.0 0
395027.0 459193.0 0
397952.0 457482.0 0
401474.0 457178.0 0
409044.0 457234.0 0
405609.0 459807.0 0
414018.0 457778.0 0
410224.0 460598.0 0
414225.0 461583.0 0
417713.0 456789.0 0
417695.0 460325.0 0
420745.0 458831.0 0
422489.0 461586.0 0
427741.0 457529.0 0
425286.0 459774.0 0
430648.0 460223.0 0
61861.7 465079.0 0
65397.1 462708.0 0
69139.5 462916.0 0
66634.3 466364.0 0
70092.6 466342.0 0
73895.0 464433.0 0
77647.3 461948.0 0
79005.0 466126.0 0
81186.7 462527.0 0
83940.0 464467.0 0
87486.2 462373.0 0
87676.1 466193.0 0
94732.7 462056.0 0
90643.4 464167.0 0
99115.4 462702.0 0
101921.0 461499.0 0
101322.0 465054.0 0
105280.0 464776.0 0
110048.0 464230.0 0
113162.0 463799.0 0
115870.0 461103.0 0
119772.0 462170.0 0
123871.0 463230.0 0
128018.0 464594.0 0
130504.0 461079.0 0
134303.0 460076.0 0
132984.0 464444.0 0
137767.0 463260.0 0
142592.0 464117.0 0
146095.0 460517.0 0
147191.0 464504.0 0
149671.0 461448.0 0
152511.0 459583.0 0
152471.0 464375.0 0
155627.0 460822.0 0
157975.0 463687.0 0
162935.0 462551.0 0
167339.0 462477.0 0
169681.0 464512.0 0
171369.0 460735.0 0
176154.0 461728.0 0
180785.0 462118.0 0
185309.0 459296.0 0
188364.0 461750.0 0
191975.0 461325.0 0
196241.0 460397.0 0
200042.0 463607.0 0
203697.0 460021.0 0
208391.0 461111.0 0
213026.0 461363.0 0
217924.0 461621.0 0
221708.0 459536.0 0
222220.0 462752.0 0
225936.0 460059.0 0
229492.0 461236.0 0
233376.0 462255.0 0
238170.0 460014.0 0
242384.0 461501.0 0
247320.0 461489.0 0
253172.0 460851.0 0
258150.0 462665.0 0
262565.0 461218.0 0
268049.0 461661.0 0
273072.0 463724.0 0
274802.0 459103.0 0
280861.0 462076.0 0
284516.0 459491.0 0
288457.0 461604.0 0
292213.0 459690.0 0
292636.0 463418.0 0
296799.0 463566.0 0
301770.0 461611.0 0
306517.0 462368.0 0
310791.0 459962.0 0
313167.0 462954.0 0
315830.0 460257.0 0
318471.0 463776.0 0
320604.0 459960.0 0
325073.0 460410.0 0
327437.0 463758.0 0
329969.0 460778.0 0
334733.0 462635.0 0
339065.0 464119.0 0
338806.0 459221.0 0
343404.0 465106.0 0
342448.0 461579.0 0
346646.0 461349.0 0
353458.0 461959.0 0
350783.0 463338.0 0
356956.0 460565.0 0
361030.0 463486.0 0
365209.0 461441.0 0
373476.0 461917.0 0
369391.0 460984.0 0
377625.0 463832.0 0
380147.0 461264.0 0
381096.0 464246.0 0
383606.0 462244.0 0
388102.0 464058.0 0
391561.0 461762.0 0
392957.0 465614.0 0
396168.0 463431.0 0
399272.0 461249.0 0
402492.0 461718.0 0
400503.0 464942.0 0
403228.0 463536.0 0
406289.0 463611.0 0
409359.0 463843.0 0
411851.0 463714.0 0
410693.0 466627.0 0
414059.0 465512.0 0
416044.0 463755.0 0
419269.0 463486.0 0
424579.0 464187.0 0
421673.0 466003.0 0
427508.0 462271.0 0
427761.0 466139.0 0
434413.0 462851.0 0
430724.0 464759.0 0
434167.0 466703.0 0
438437.0 465150.0 0
442525.0 466926.0 0
47998.6 471650.0 0
51871.0 471119.0 0
54636.7 468276.0 0
58099.9 467070.0 0
56058.6 471171.0 0
63649.0 468388.0 0
60159.0 470325.0 0
67644.3 470167.0 0
71815.5 470154.0 0
74934.8 468149.0 0
77354.4 470692.0 0
81802.8 468871.0 0
85529.8 469241.0 0
89982.5 468369.0 0
93484.8 467160.0 0
92595.9 471048.0 0
97509.5 466170.0 0
96914.2 470144.0 0
100867.0 467983.0 0
104777.0 469686.0 0
108772.0 466976.0 0
109087.0 469959.0 0
112243.0 466863.0 0
112343.0 470062.0 0
116544.0 465679.0 0
120358.0 465936.0 0
115211.0 468972.0 0
118913.0 469931.0 0
123677.0 468140.0 0
128007.0 468239.0 0
130808.0 467205.0 0
134771.0 468590.0 0
139351.0 467175.0 0
143299.0 468601.0 0
148413.0 468470.0 0
152862.0 469665.0 0
156167.0 466995.0 0
161066.0 468086.0 0
165944.0 466677.0 0
170258.0 468420.0 0
173372.0 465078.0 0
174250.0 469318.0 0
177565.0 466099.0 0
177315.0 469669.0 0
181554.0 466447.0 0
185169.0 464012.0 0
190039.0 466042.0 0
194885.0 464805.0 0
197688.0 468142.0 0
205246.0 464813.0 0
202265.0 468522.0 0
210006.0 465599.0 0
214923.0 465964.0 0
219725.0 466038.0 0
224196.0 465739.0 0
228481.0 464752.0 0
232086.0 467165.0 0
238336.0 464926.0 0
244375.0 466742.0 0
250456.0 465712.0 0
255046.0 465888.0 0
259601.0 466678.0 0
264218.0 465791.0 0
269203.0 467570.0 0
274068.0 468272.0 0
277828.0 465679.0 0
282610.0 465972.0 0
285309.0 463663.0 0
288986.0 466456.0 0
294666.0 468150.0 0
300267.0 466941.0 0
305070.0 465719.0 0
309752.0 465073.0 0
312440.0 468407.0 0
315107.0 465759.0 0
319464.0 468240.0 0
323079.0 464917.0 0
326888.0 467098.0 0
331200.0 465998.0 0
336048.0 467141.0 0
340171.0 468033.0 0
344805.0 469724.0 0
347733.0 465978.0 0
349060.0 469772.0 0
352351.0 467387.0 0
356443.0 465443.0 0
355781.0 469819.0 0
359531.0 469914.0 0
359915.0 466758.0 0
362922.0 467599.0 0
365391.0 465356.0 0
369418.0 465244.0 0
367122.0 468812.0 0
373658.0 466327.0 0
371110.0 470051.0 0
375236.0 469978.0 0
377676.0 467603.0 0
384478.0 465907.0 0
381067.0 467295.0 0
384506.0 470291.0 0
387327.0 467648.0 0
388865.0 470358.0 0
389998.0 467228.0 0
393698.0 470028.0 0
397692.0 467086.0 0
403607.0 466497.0 0
401356.0 468987.0 0
407643.0 466743.0 0
405689.0 470161.0 0
409438.0 470015.0 0
413690.0 469622.0 0
417476.0 467059.0 0
417941.0 471129.0 0
421227.0 469191.0 0
424845.0 467722.0 0
429127.0 469257.0 0
426103.0 470509.0 0
432001.0 467874.0 0
433537.0 470513.0 0
436375.0 467643.0 0
435876.0 469711.0 0
440046.0 469095.0 0
444321.0 470630.0 0
445913.0 468027.0 0
448394.0 470537.0 0
42241.9 476687.0 0
45717.0 474614.0 0
49587.9 474813.0 0
53744.1 474044.0 0
58749.9 472964.0 0
56188.2 474922.0 0
63970.8 473055.0 0
60521.9 475606.0 0
68022.6 473233.0 0
67348.9 476472.0 0
70653.5 473932.0 0
74352.3 472915.0 0
76986.7 474994.0 0
80790.8 472701.0 0
80005.9 476558.0 0
83060.0 475959.0 0
84428.7 472621.0 0
88564.0 471762.0 0
86483.5 475242.0 0
90877.7 475101.0 0
94619.7 473136.0 0
98340.8 474328.0 0
100629.0 471178.0 0
102957.0 473914.0 0
107391.0 473605.0 0
110930.0 472995.0 0
114934.0 472848.0 0
118908.0 474271.0 0
121928.0 472124.0 0
126454.0 472414.0 0
130721.0 470064.0 0
131868.0 474413.0 0
135809.0 472299.0 0
139014.0 470858.0 0
141386.0 472986.0 0
145164.0 472730.0 0
149169.0 472634.0 0
155316.0 472647.0 0
157052.0 470137.0 0
159202.0 473276.0 0
163423.0 472385.0 0
166886.0 471063.0 0
171357.0 473625.0 0
176580.0 473507.0 0
180540.0 470580.0 0
185202.0 469275.0 0
189860.0 471635.0 0
193899.0 469628.0 0
196049.0 472355.0 0
199028.0 471663.0 0
203235.0 473697.0 0
206920.0 469378.0 0
208485.0 473872.0 0
211723.0 470151.0 0
217424.0 471190.0 0
222190.0 469007.0 0
222550.0 472806.0 0
226558.0 469658.0 0
230996.0 471642.0 0
235712.0 469761.0 0
239863.0 468993.0 0
239842.0 473046.0 0
248752.0 469864.0 0
245196.0 472860.0 0
250107.0 473802.0 0
252662.0 470189.0 0
256897.0 470000.0 0
262808.0 472190.0 0
268281.0 472068.0 0
271903.0 471928.0 0
276800.0 472195.0 0
280277.0 469243.0 0
284981.0 470334.0 0
290574.0 471907.0 0
295001.0 473221.0 0
299040.0 471741.0 0
304362.0 470474.0 0
309116.0 470390.0 0
311951.0 473704.0 0
315787.0 471168.0 0
320438.0 474081.0 0
324286.0 470671.0 0
328616.0 469986.0 0
333070.0 471063.0 0
337496.0 471213.0 0
339630.0 474788.0 0
341263.0 471534.0 0
343723.0 473942.0 0
347987.0 473207.0 0
352577.0 472427.0 0
357164.0 473284.0 0
361452.0 474151.0 0
364253.0 471387.0 0
367867.0 472525.0 0
368606.0 474911.0 0
371136.0 473746.0 0
375550.0 473679.0 0
379972.0 471515.0 0
383517.0 474132.0 0
387043.0 473916.0 0
391396.0 473514.0 0
398379.0 471917.0 0
402654.0 473126.0 0
407022.0 474078.0 0
411128.0 473522.0 0
415315.0 474421.0 0
423119.0 472030.0 0
420153.0 474713.0 0
424497.0 475384.0 0
427443.0 473815.0 0
430740.0 472784.0 0
435079.0 473834.0 0
431820.0 476555.0 0
438489.0 471934.0 0
439402.0 475116.0 0
441955.0 472586.0 0
442417.0 475078.0 0
445572.0 474266.0 0
448135.0 473496.0 0
449706.0 475649.0 0
448114.0 477684.0 0
451798.0 472726.0 0
455198.0 474502.0 0
452718.0 476631.0 0
458261.0 476848.0 0
38491.4 478347.0 0
35783.0 481102.0 0
38823.2 482584.0 0
41794.3 480399.0 0
45798.2 478201.0 0
48745.5 478828.0 0
45920.5 481430.0 0
52827.5 477886.0 0
57396.4 478290.0 0
54796.4 481576.0 0
63547.9 477297.0 0
60783.0 478842.0 0
63981.9 481304.0 0
68658.5 480277.0 0
72874.6 477574.0 0
77304.6 478666.0 0
75391.4 481352.0 0
84100.6 478475.0 0
81081.1 479391.0 0
87858.9 479217.0 0
94530.2 476207.0 0
92245.2 479830.0 0
96958.1 479056.0 0
100762.0 477551.0 0
103106.0 480251.0 0
105455.0 476749.0 0
107654.0 479517.0 0
110901.0 476800.0 0
114217.0 479706.0 0
115481.0 476468.0 0
118765.0 478892.0 0
122504.0 475759.0 0
123458.0 479978.0 0
126925.0 477165.0 0
130146.0 478730.0 0
133627.0 479262.0 0
137696.0 476071.0 0
140415.0 479462.0 0
142764.0 476673.0 0
147400.0 477193.0 0
152187.0 474827.0 0
151264.0 479432.0 0
154577.0 477741.0 0
156032.0 475036.0 0
158041.0 477786.0 0
162300.0 477161.0 0
166579.0 475569.0 0
169566.0 478480.0 0
173642.0 478150.0 0
177599.0 477615.0 0
181560.0 475220.0 0
185732.0 473929.0 0
188813.0 475795.0 0
185636.0 478121.0 0
193339.0 475384.0 0
198077.0 475557.0 0
206045.0 477990.0 0
209995.0 478174.0 0
213143.0 474983.0 0
217608.0 477242.0 0
222309.0 476977.0 0
226512.0 474806.0 0
230441.0 476254.0 0
234816.0 475078.0 0
238375.0 477485.0 0
242583.0 477449.0 0
247416.0 477456.0 0
255159.0 475042.0 0
251438.0 477946.0 0
259568.0 476882.0 0
268832.0 476471.0 0
273446.0 475795.0 0
277517.0 477595.0 0
281389.0 474513.0 0
286766.0 476368.0 0
292729.0 477147.0 0
297842.0 476278.0 0
302637.0 475341.0 0
300800.0 479313.0 0
307822.0 475449.0 0
311962.0 477349.0 0
315855.0 476098.0 0
319485.0 478409.0 0
323977.0 478262.0 0
324410.0 474862.0 0
328161.0 479318.0 0
328860.0 474897.0 0
335162.0 475277.0 0
338297.0 479105.0 0
342781.0 477821.0 0
346259.0 476338.0 0
350419.0 477159.0 0
354744.0 476674.0 0
357437.0 479351.0 0
359047.0 476998.0 0
362858.0 478418.0 0
365468.0 475190.0 0
366563.0 479154.0 0
367651.0 476378.0 0
370847.0 478498.0 0
373190.0 475771.0 0
375671.0 478126.0 0
380148.0 476670.0 0
382268.0 480944.0 0
385272.0 478161.0 0
390325.0 477478.0 0
394206.0 480343.0 0
395423.0 475868.0 0
398270.0 480383.0 0
400051.0 476643.0 0
404463.0 477481.0 0
401651.0 479911.0 0
403657.0 480696.0 0
414240.0 478803.0 0
409724.0 478137.0 0
418193.0 477862.0 0
419073.0 480651.0 0
423054.0 479256.0 0
427886.0 477542.0 0
426474.0 481379.0 0
430195.0 480641.0 0
434140.0 480195.0 0
436689.0 477194.0 0
440678.0 478009.0 0
438364.0 480618.0 0
444816.0 477855.0 0
442114.0 481126.0 0
448315.0 481005.0 0
451552.0 479892.0 0
455538.0 478056.0 0
455366.0 481588.0 0
458924.0 480238.0 0
461953.0 479142.0 0
465421.0 480817.0 0
468215.0 482848.0 0
26421.2 486695.0 0
31999.7 482395.0 0
29368.0 484237.0 0
34069.6 485435.0 0
38231.1 486088.0 0
41500.9 484690.0 0
43365.3 483312.0 0
42123.0 487374.0 0
45782.1 485314.0 0
50299.6 482752.0 0
49782.7 486926.0 0
58993.9 482045.0 0
55413.1 486791.0 0
60713.1 485448.0 0
68051.5 484015.0 0
64826.2 485945.0 0
71948.8 482747.0 0
70202.9 486990.0 0
78560.9 482193.0 0
75269.1 485545.0 0
83710.9 482707.0 0
80302.1 485904.0 0
87970.2 483749.0 0
91473.9 483576.0 0
95166.9 482639.0 0
99088.6 482181.0 0
99761.1 485507.0 0
101794.0 483792.0 0
105779.0 483168.0 0
110947.0 482365.0 0
115913.0 482962.0 0
120371.0 483207.0 0
124773.0 483980.0 0
127487.0 481306.0 0
129195.0 485206.0 0
130774.0 481807.0 0
133615.0 483725.0 0
136953.0 481167.0 0
140096.0 482258.0 0
143892.0 480841.0 0
141991.0 485129.0 0
148072.0 481804.0 0
151531.0 483396.0 0
155210.0 481490.0 0
159624.0 481922.0 0
165334.0 482010.0 0
171524.0 482778.0 0
176403.0 481820.0 0
181389.0 480574.0 0
190096.0 479476.0 0
186260.0 482941.0 0
190965.0 483370.0 0
195724.0 480884.0 0
201421.0 479030.0 0
200917.0 483186.0 0
205311.0 482708.0 0
210011.0 481969.0 0
213515.0 479268.0 0
216111.0 481834.0 0
220636.0 481256.0 0
226042.0 480468.0 0
231545.0 480420.0 0
235599.0 479730.0 0
239593.0 481885.0 0
244609.0 481739.0 0
249520.0 482180.0 0
254697.0 480834.0 0
259065.0 480559.0 0
263887.0 479099.0 0
261474.0 483339.0 0
268323.0 480887.0 0
272856.0 480154.0 0
277787.0 483249.0 0
282209.0 479563.0 0
282995.0 483777.0 0
287152.0 483449.0 0
289454.0 480208.0 0
292115.0 483012.0 0
296579.0 480979.0 0
300516.0 482845.0 0
303340.0 482962.0 0
305136.0 479778.0 0
309532.0 480367.0 0
310817.0 484101.0 0
314931.0 481297.0 0
321138.0 483590.0 0
325976.0 482156.0 0
329712.0 483080.0 0
332941.0 479573.0 0
333063.0 484178.0 0
337044.0 483709.0 0
342502.0 482777.0 0
346743.0 479952.0 0
347817.0 483985.0 0
350687.0 481309.0 0
354681.0 481297.0 0
357052.0 485201.0 0
359991.0 481734.0 0
365194.0 483492.0 0
370065.0 483338.0 0
374206.0 482329.0 0
378442.0 481556.0 0
376846.0 485322.0 0
384814.0 482526.0 0
389087.0 482396.0 0
393944.0 484986.0 0
398515.0 484366.0 0
402184.0 483202.0 0
407347.0 482262.0 0
412433.0 483550.0 0
416880.0 482647.0 0
415996.0 485837.0 0
419095.0 485370.0 0
421389.0 483188.0 0
422506.0 486708.0 0
424770.0 484248.0 0
428925.0 484553.0 0
432877.0 484024.0 0
436490.0 483045.0 0
435783.0 486520.0 0
439994.0 484622.0 0
444300.0 484099.0 0
445661.0 481280.0 0
451074.0 483808.0 0
447730.0 484632.0 0
450961.0 487343.0 0
454581.0 485688.0 0
457923.0 484578.0 0
459656.0 482852.0 0
460207.0 486037.0 0
463273.0 483520.0 0
471228.0 484495.0 0
466409.0 486524.0 0
469623.0 486955.0 0
473990.0 486239.0 0
15560.9 493334.0 0
18862.5 491007.0 0
21832.9 492138.0 0
22706.4 488665.0 0
26503.7 490582.0 0
30650.0 488311.0 0
34984.9 489066.0 0
33608.2 491910.0 0
38288.8 489734.0 0
41976.7 490648.0 0
46134.7 489032.0 0
50803.5 491340.0 0
57598.3 491700.0 0
61170.9 488580.0 0
65978.7 489637.0 0
73449.3 489371.0 0
77146.6 489486.0 0
81358.4 489685.0 0
85286.5 487552.0 0
89862.5 487274.0 0
93485.4 485774.0 0
93777.6 489858.0 0
96845.3 485729.0 0
98682.9 488770.0 0
102549.0 486742.0 0
107537.0 487225.0 0
112989.0 486459.0 0
110902.0 489418.0 0
114804.0 489326.0 0
117885.0 487008.0 0
121903.0 486330.0 0
121454.0 489756.0 0
125334.0 487933.0 0
129246.0 489789.0 0
132726.0 487285.0 0
136200.0 489700.0 0
137494.0 485539.0 0
140694.0 489253.0 0
144593.0 488286.0 0
145931.0 484651.0 0
149648.0 488068.0 0
155081.0 485859.0 0
160300.0 487419.0 0
164894.0 487115.0 0
168205.0 486194.0 0
172081.0 488454.0 0
177197.0 486605.0 0
181635.0 485234.0 0
185003.0 488288.0 0
189023.0 486506.0 0
193906.0 487472.0 0
198298.0 485488.0 0
202404.0 487754.0 0
208509.0 485200.0 0
213008.0 485934.0 0
218604.0 485699.0 0
223182.0 484964.0 0
229293.0 484832.0 0
226083.0 487855.0 0
234722.0 484879.0 0
238863.0 487984.0 0
242678.0 485833.0 0
247727.0 487907.0 0
253363.0 486113.0 0
257804.0 484499.0 0
261515.0 488109.0 0
265615.0 484292.0 0
270580.0 484532.0 0
274262.0 487289.0 0
284901.0 488055.0 0
290533.0 487693.0 0
296221.0 486604.0 0
301921.0 486766.0 0
306784.0 484438.0 0
306485.0 489210.0 0
311388.0 488420.0 0
313413.0 485316.0 0
316296.0 486419.0 0
324193.0 488332.0 0
319815.0 489322.0 0
326968.0 485877.0 0
330631.0 486873.0 0
334856.0 488241.0 0
340634.0 488325.0 0
345114.0 486858.0 0
349046.0 488152.0 0
352539.0 485511.0 0
358567.0 487952.0 0
355600.0 489981.0 0
361073.0 486152.0 0
365013.0 489250.0 0
369587.0 487711.0 0
373619.0 486399.0 0
377139.0 489133.0 0
381423.0 485955.0 0
386065.0 486080.0 0
385122.0 490026.0 0
389851.0 488099.0 0
393809.0 489703.0 0
397058.0 487761.0 0
405503.0 486109.0 0
401717.0 488234.0 0
409830.0 487001.0 0
406953.0 489500.0 0
411192.0 490972.0 0
413824.0 488150.0 0
418493.0 489007.0 0
423312.0 490478.0 0
427019.0 488129.0 0
427597.0 491816.0 0
430782.0 491495.0 0
431788.0 488061.0 0
436093.0 491239.0 0
439668.0 488701.0 0
443889.0 487786.0 0
441972.0 491482.0 0
445932.0 491288.0 0
447873.0 488154.0 0
449742.0 491142.0 0
453677.0 490206.0 0
457885.0 488718.0 0
461053.0 491904.0 0
462851.0 488035.0 0
465615.0 490832.0 0
468888.0 490707.0 0
472585.0 489220.0 0
475271.0 492036.0 0
476941.0 488363.0 0
480066.0 491016.0 0
484306.0 493271.0 0
5509.56 498553.0 0
9267.16 497331.0 0
12044.9 494868.0 0
14007.1 497271.0 0
18331.7 495610.0 0
21580.9 495090.0 0
24651.3 493264.0 0
27099.2 494669.0 0
24010.6 496561.0 0
29774.9 492552.0 0
29260.7 496015.0 0
32638.3 496012.0 0
37476.9 493829.0 0
42050.6 494383.0 0
45655.4 492342.0 0
46603.2 495424.0 0
50685.5 496030.0 0
54216.8 494282.0 0
62246.9 491902.0 0
57082.4 495711.0 0
61081.8 495762.0 0
65574.2 493880.0 0
70146.3 491946.0 0
68266.9 495369.0 0
72149.3 495785.0 0
74858.0 492933.0 0
84025.7 492470.0 0
79023.9 493297.0 0
81777.5 496478.0 0
88446.8 491438.0 0
86339.1 495669.0 0
91484.9 494636.0 0
97407.4 494252.0 0
102567.0 490862.0 0
102850.0 495103.0 0
107348.0 492460.0 0
112637.0 492145.0 0
117392.0 491888.0 0
118576.0 495879.0 0
121194.0 493589.0 0
125214.0 492776.0 0
129537.0 494022.0 0
132596.0 490694.0 0
134202.0 494618.0 0
139326.0 493320.0 0
145025.0 493079.0 0
150640.0 493446.0 0
154893.0 490747.0 0
158827.0 492721.0 0
162996.0 491899.0 0
166049.0 494607.0 0
166930.0 490199.0 0
170141.0 493104.0 0
176099.0 491474.0 0
180518.0 490417.0 0
184704.0 494163.0 0
189305.0 490894.0 0
193600.0 493197.0 0
198175.0 491069.0 0
202766.0 493873.0 0
207919.0 489881.0 0
216420.0 490901.0 0
221805.0 489486.0 0
225847.0 492587.0 0
230694.0 489996.0 0
235387.0 489912.0 0
238347.0 491806.0 0
242632.0 490994.0 0
252321.0 491437.0 0
256733.0 489619.0 0
261978.0 493634.0 0
267466.0 489927.0 0
272611.0 490879.0 0
279152.0 489938.0 0
275351.0 493458.0 0
283696.0 492660.0 0
288374.0 492914.0 0
294421.0 492609.0 0
298880.0 490395.0 0
302448.0 491620.0 0
309187.0 492019.0 0
305971.0 493904.0 0
312778.0 493165.0 0
315528.0 490084.0 0
323842.0 492926.0 0
328201.0 490197.0 0
327953.0 494572.0 0
332779.0 493456.0 0
337903.0 492335.0 0
341617.0 494730.0 0
345677.0 491917.0 0
351171.0 491668.0 0
354312.0 494768.0 0
358928.0 494566.0 0
360493.0 490599.0 0
363912.0 494333.0 0
369101.0 493454.0 0
373351.0 490454.0 0
373344.0 493882.0 0
376957.0 493961.0 0
381128.0 491160.0 0
388049.0 491131.0 0
386687.0 494801.0 0
390884.0 492331.0 0
394431.0 493610.0 0
397635.0 491104.0 0
398277.0 495130.0 0
400954.0 492436.0 0
402475.0 495719.0 0
404540.0 492263.0 0
408410.0 492803.0 0
415300.0 492654.0 0
411622.0 495681.0 0
417598.0 496900.0 0
420122.0 493646.0 0
425306.0 494198.0 0
429194.0 494630.0 0
433036.0 494918.0 0
437219.0 495453.0 0
440271.0 494204.0 0
444477.0 493996.0 0
448096.0 494234.0 0
452504.0 494463.0 0
456826.0 494000.0 0
460357.0 496655.0 0
464091.0 494619.0 0
467673.0 494635.0 0
471464.0 493948.0 0
470324.0 498584.0 0
474279.0 496406.0 0
477320.0 494429.0 0
481188.0 495343.0 0
485739.0 496495.0 0
487898.0 494599.0 0
490372.0 497381.0 0
2513.93 499980.0 0
7796.94 501264.0 0
16569.9 499856.0 0
12283.7 500330.0 0
15152.6 503729.0 0
20728.5 498607.0 0
19753.8 502133.0 0
23875.1 500358.0 0
26771.7 497899.0 0
27351.6 501148.0 0
29583.0 498693.0 0
32279.4 500970.0 0
35742.6 497808.0 0
36805.7 501501.0 0
39474.4 497756.0 0
41929.2 501057.0 0
43072.8 497322.0 0
45207.6 498983.0 0
48043.4 498747.0 0
51021.6 499954.0 0
54201.3 497680.0 0
57829.9 499013.0 0
54670.6 501380.0 0
61527.8 500236.0 0
64907.0 497292.0 0
65106.9 500959.0 0
68601.8 498370.0 0
72568.3 499709.0 0
76761.6 497200.0 0
79923.7 500190.0 0
84178.6 499495.0 0
89106.4 499249.0 0
93891.5 498105.0 0
96916.6 499990.0 0
100182.0 498388.0 0
103737.0 498699.0 0
106093.0 496699.0 0
110240.0 496690.0 0
112983.0 500696.0 0
114895.0 496133.0 0
117390.0 499703.0 0
122248.0 498138.0 0
126729.0 496848.0 0
130435.0 498448.0 0
138163.0 497175.0 0
135088.0 499901.0 0
141672.0 496877.0 0
143838.0 499316.0 0
148625.0 498655.0 0
154942.0 496563.0 0
161326.0 497147.0 0
169191.0 497561.0 0
173967.0 495666.0 0
179117.0 495271.0 0
189667.0 495093.0 0
187737.0 498782.0 0
192634.0 498054.0 0
197502.0 496081.0 0
200801.0 498794.0 0
207544.0 495130.0 0
211835.0 493950.0 0
210399.0 498428.0 0
215576.0 497049.0 0
220699.0 495133.0 0
230049.0 495250.0 0
225719.0 498066.0 0
234873.0 494452.0 0
236500.0 498313.0 0
240133.0 495933.0 0
244488.0 498351.0 0
247396.0 494054.0 0
248717.0 498926.0 0
252336.0 496310.0 0
256960.0 494401.0 0
259691.0 497330.0 0
266229.0 495436.0 0
270753.0 494742.0 0
275028.0 498467.0 0
280674.0 496075.0 0
285973.0 497610.0 0
291503.0 497763.0 0
299196.0 494205.0 0
296807.0 497867.0 0
302345.0 495402.0 0
300986.0 498449.0 0
304661.0 497994.0 0
309407.0 497218.0 0
314137.0 497474.0 0
318362.0 494575.0 0
321079.0 498696.0 0
325145.0 498291.0 0
330095.0 498333.0 0
334255.0 498231.0 0
337771.0 496663.0 0
341541.0 499542.0 0
345416.0 497114.0 0
349718.0 495543.0 0
352866.0 498246.0 0
356959.0 498752.0 0
362301.0 498938.0 0
367770.0 498979.0 0
373110.0 497670.0 0
378001.0 499504.0 0
381499.0 495565.0 0
383638.0 499416.0 0
388804.0 500422.0 0
391595.0 496181.0 0
393157.0 499219.0 0
395812.0 500427.0 0
395353.0 497236.0 0
399421.0 499260.0 0
404275.0 499969.0 0
407175.0 496407.0 0
414942.0 496153.0 0
414390.0 499178.0 0
418098.0 501170.0 0
422656.0 498502.0 0
430903.0 498033.0 0
427521.0 497323.0 0
432421.0 501888.0 0
435953.0 499034.0 0
440106.0 498083.0 0
442978.0 496545.0 0
443941.0 499806.0 0
446351.0 497144.0 0
450458.0 497950.0 0
447466.0 500683.0 0
455752.0 499141.0 0
460718.0 500541.0 0
465166.0 498937.0 0
471662.0 503948.0 0
474432.0 500617.0 0
477670.0 497964.0 0
478275.0 501883.0 0
482658.0 499690.0 0
487298.0 499342.0 0
493743.0 502851.0 0
490534.0 501801.0 0
494080.0 499554.0 0
497443.0 501231.0 0
3445.18 503298.0 0
10716.9 503168.0 0
7556.39 505456.0 0
11591.1 506487.0 0
18839.6 505455.0 0
23547.7 504447.0 0
29111.8 504849.0 0
34042.3 505538.0 0
39121.8 504887.0 0
46689.8 502097.0 0
43302.8 504538.0 0
46425.9 506076.0 0
50953.9 503884.0 0
55248.0 504275.0 0
57962.0 506565.0 0
58251.9 502791.0 0
61963.6 504492.0 0
65743.3 504032.0 0
68596.0 501843.0 0
68304.5 505282.0 0
71865.5 503866.0 0
76178.1 501761.0 0
74975.9 506262.0 0
82268.1 502839.0 0
79163.2 504505.0 0
85627.0 503456.0 0
89399.6 503844.0 0
93301.0 502127.0 0
92230.2 505397.0 0
97039.1 504122.0 0
101872.0 502826.0 0
107509.0 501500.0 0
111187.0 504935.0 0
115863.0 503954.0 0
120090.0 502836.0 0
126261.0 501871.0 0
131331.0 503582.0 0
136272.0 504385.0 0
139968.0 501147.0 0
144371.0 502992.0 0
152832.0 501752.0 0
157291.0 501937.0 0
161944.0 502433.0 0
165671.0 500223.0 0
169442.0 502093.0 0
172587.0 499798.0 0
173646.0 503629.0 0
176828.0 499832.0 0
182256.0 499900.0 0
186052.0 502667.0 0
190761.0 503380.0 0
196713.0 501809.0 0
201668.0 502718.0 0
205455.0 499485.0 0
209282.0 502377.0 0
213606.0 501601.0 0
219020.0 500982.0 0
223757.0 502847.0 0
229001.0 502714.0 0
232778.0 499099.0 0
236180.0 501617.0 0
240773.0 501389.0 0
246051.0 503311.0 0
251512.0 502463.0 0
256170.0 499674.0 0
259657.0 501905.0 0
263282.0 499557.0 0
269012.0 499661.0 0
272533.0 503468.0 0
277039.0 503364.0 0
279725.0 500523.0 0
283504.0 501584.0 0
280670.0 503745.0 0
288555.0 502702.0 0
294422.0 502774.0 0
299319.0 501777.0 0
306715.0 502440.0 0
312645.0 501963.0 0
317621.0 500279.0 0
322182.0 502942.0 0
328187.0 503684.0 0
333142.0 501853.0 0
337395.0 501239.0 0
342920.0 504317.0 0
345395.0 501297.0 0
349202.0 500068.0 0
353662.0 502958.0 0
359460.0 503368.0 0
365258.0 504246.0 0
371210.0 500724.0 0
370154.0 503609.0 0
373976.0 502361.0 0
381638.0 503532.0 0
385808.0 504052.0 0
393478.0 503009.0 0
398036.0 503748.0 0
401551.0 503015.0 0
405210.0 503987.0 0
410034.0 501449.0 0
414702.0 503122.0 0
418229.0 506149.0 0
422291.0 503554.0 0
425309.0 505205.0 0
427683.0 502055.0 0
432970.0 506157.0 0
436771.0 503369.0 0
436716.0 506211.0 0
440807.0 502082.0 0
440009.0 506228.0 0
445047.0 503204.0 0
443417.0 505679.0 0
448296.0 503972.0 0
450782.0 506521.0 0
451564.0 502174.0 0
454161.0 504445.0 0
458241.0 503954.0 0
467805.0 502276.0 0
463704.0 503930.0 0
467350.0 505146.0 0
469878.0 507623.0 0
476544.0 505443.0 0
473931.0 508837.0 0
481540.0 504660.0 0
486511.0 503405.0 0
494692.0 504770.0 0
490823.0 505440.0 0
494040.0 507034.0 0
497669.0 505379.0 0
3134.68 507752.0 0
2114.62 511402.0 0
7764.42 509033.0 0
5436.01 512024.0 0
12551.2 510739.0 0
16216.6 508172.0 0
20785.2 509260.0 0
16968.4 512367.0 0
25451.6 507946.0 0
20789.1 513667.0 0
25060.9 511490.0 0
29645.9 509565.0 0
37334.7 508265.0 0
33900.2 510141.0 0
42129.5 508652.0 0
46533.6 510350.0 0
49697.4 507689.0 0
51114.9 510972.0 0
53636.4 507223.0 0
56079.3 510572.0 0
61071.0 508526.0 0
65343.7 507676.0 0
63388.2 510873.0 0
67030.2 511536.0 0
70291.4 508213.0 0
73948.6 509675.0 0
78591.1 509437.0 0
82604.7 506529.0 0
86659.6 507676.0 0
89960.7 506366.0 0
91684.9 509532.0 0
94202.1 506160.0 0
96405.3 508249.0 0
100645.0 507330.0 0
102615.0 510569.0 0
106191.0 507259.0 0
110711.0 508782.0 0
114219.0 507792.0 0
118703.0 507520.0 0
116222.0 510333.0 0
122281.0 510239.0 0
123043.0 505877.0 0
127569.0 507611.0 0
132469.0 508250.0 0
136429.0 508250.0 0
140611.0 506241.0 0
144899.0 507267.0 0
149178.0 504911.0 0
154496.0 506703.0 0
159981.0 506902.0 0
164655.0 510515.0 0
165589.0 505560.0 0
169042.0 509623.0 0
170461.0 505848.0 0
173976.0 508740.0 0
178677.0 505154.0 0
183374.0 504595.0 0
182825.0 508504.0 0
186396.0 506355.0 0
189944.0 509041.0 0
194964.0 507313.0 0
200056.0 507109.0 0
205582.0 505991.0 0
211346.0 506723.0 0
216319.0 505600.0 0
221106.0 507568.0 0
225960.0 506517.0 0
229362.0 508845.0 0
233608.0 505650.0 0
238151.0 504921.0 0
237379.0 508770.0 0
242113.0 507582.0 0
249649.0 506669.0 0
256216.0 505927.0 0
262241.0 504948.0 0
267214.0 504483.0 0
270950.0 508650.0 0
275915.0 507313.0 0
279464.0 506388.0 0
284145.0 507036.0 0
294472.0 507615.0 0
290476.0 507593.0 0
298118.0 506240.0 0
302208.0 504822.0 0
301245.0 508623.0 0
308531.0 506641.0 0
305099.0 508407.0 0
312896.0 507467.0 0
317409.0 504876.0 0
316857.0 509587.0 0
321143.0 508415.0 0
325632.0 507989.0 0
334108.0 506721.0 0
338649.0 505019.0 0
344895.0 508771.0 0
340847.0 507981.0 0
348246.0 505113.0 0
352609.0 507713.0 0
356556.0 506985.0 0
361075.0 508406.0 0
366030.0 509822.0 0
369390.0 507226.0 0
372992.0 506776.0 0
376953.0 505192.0 0
380542.0 508163.0 0
384742.0 507181.0 0
383507.0 510259.0 0
389818.0 506525.0 0
387245.0 510392.0 0
395436.0 507541.0 0
401942.0 508114.0 0
407945.0 506995.0 0
406455.0 510606.0 0
409757.0 510376.0 0
412843.0 506907.0 0
416313.0 510153.0 0
423270.0 508404.0 0
428469.0 507463.0 0
432248.0 510696.0 0
437451.0 509817.0 0
446750.0 506848.0 0
443456.0 510389.0 0
448966.0 510152.0 0
455239.0 509690.0 0
460863.0 507344.0 0
465499.0 509031.0 0
470028.0 511185.0 0
473993.0 512766.0 0
477688.0 511514.0 0
480004.0 508549.0 0
485625.0 508143.0 0
491298.0 509432.0 0
496863.0 509643.0 0
2121.56 514476.0 0
8720.92 512576.0 0
6706.7 515740.0 0
12525.7 515794.0 0
17765.4 516226.0 0
24583.1 515022.0 0
29107.1 514025.0 0
34376.7 514558.0 0
38552.9 511936.0 0
39334.0 516116.0 0
43007.4 513202.0 0
47766.1 514584.0 0
52830.9 514313.0 0
56716.8 514497.0 0
60120.3 512316.0 0
59907.8 516823.0 0
63680.8 514444.0 0
68111.8 516474.0 0
71317.9 512363.0 0
75478.1 512591.0 0
78994.1 515149.0 0
83047.9 511240.0 0
87565.1 512054.0 0
91079.5 515354.0 0
95539.3 512316.0 0
99195.6 511143.0 0
101523.0 515245.0 0
105478.0 512175.0 0
107100.0 516060.0 0
109076.0 511743.0 0
111021.0 514630.0 0
113169.0 511779.0 0
118685.0 513335.0 0
125790.0 512095.0 0
128003.0 514863.0 0
129996.0 511806.0 0
134520.0 512270.0 0
136948.0 513979.0 0
139489.0 511595.0 0
144530.0 511403.0 0
149638.0 510425.0 0
153599.0 510596.0 0
153216.0 514750.0 0
157093.0 511000.0 0
161223.0 512858.0 0
167418.0 513411.0 0
171809.0 513258.0 0
178707.0 510860.0 0
175882.0 514119.0 0
182905.0 513100.0 0
185956.0 510477.0 0
193776.0 512300.0 0
198325.0 511556.0 0
203712.0 512203.0 0
209554.0 511835.0 0
215226.0 510707.0 0
219672.0 512441.0 0
225004.0 511907.0 0
229314.0 512873.0 0
233563.0 510846.0 0
242125.0 511670.0 0
246518.0 511032.0 0
252121.0 510857.0 0
256925.0 511419.0 0
260488.0 509475.0 0
265237.0 509477.0 0
272177.0 513230.0 0
275445.0 511507.0 0
279326.0 509916.0 0
278704.0 513748.0 0
283034.0 512674.0 0
287702.0 511275.0 0
292745.0 512143.0 0
297938.0 511122.0 0
302795.0 512390.0 0
309083.0 510732.0 0
313795.0 512995.0 0
318772.0 512979.0 0
322078.0 512328.0 0
325039.0 511829.0 0
329704.0 510596.0 0
334578.0 511721.0 0
338010.0 509941.0 0
338722.0 513494.0 0
341769.0 511610.0 0
345942.0 513619.0 0
349293.0 510093.0 0
350759.0 514016.0 0
356151.0 512264.0 0
362152.0 513376.0 0
367023.0 514430.0 0
371376.0 511464.0 0
376276.0 510033.0 0
380561.0 512212.0 0
384526.0 513394.0 0
388431.0 514113.0 0
392170.0 512006.0 0
397427.0 512207.0 0
400996.0 512962.0 0
404196.0 513587.0 0
408540.0 514227.0 0
412938.0 511698.0 0
412881.0 515839.0 0
420086.0 511024.0 0
417369.0 514637.0 0
421988.0 514546.0 0
426974.0 512699.0 0
431893.0 514700.0 0
436205.0 514198.0 0
440244.0 513636.0 0
443409.0 515654.0 0
446903.0 513656.0 0
451255.0 514190.0 0
456109.0 514993.0 0
460923.0 511664.0 0
460114.0 515443.0 0
465859.0 514803.0 0
471094.0 514501.0 0
476789.0 514368.0 0
474749.0 516351.0 0
479215.0 516748.0 0
482610.0 512999.0 0
487743.0 512131.0 0
487260.0 515398.0 0
492238.0 513765.0 0
497196.0 513981.0 0
498410.0 517125.0 0
2591.36 518009.0 0
9133.78 518896.0 0
6439.07 519412.0 0
12081.4 521008.0 0
15617.8 519248.0 0
18935.9 520173.0 0
26655.3 518591.0 0
21662.3 517510.0 0
31244.2 517719.0 0
35751.3 520147.0 0
40545.9 519928.0 0
43659.9 517209.0 0
50862.2 517381.0 0
47396.2 519102.0 0
51157.7 520996.0 0
55016.1 518318.0 0
58645.8 520899.0 0
63573.7 518577.0 0
66748.8 521184.0 0
71108.9 520466.0 0
73615.8 516449.0 0
76261.5 519767.0 0
80573.6 519462.0 0
84815.5 516625.0 0
93807.0 519632.0 0
96286.7 516179.0 0
98292.8 520219.0 0
107987.0 519585.0 0
111345.0 518538.0 0
114430.0 515463.0 0
117654.0 518808.0 0
123529.0 516839.0 0
128229.0 518096.0 0
131833.0 515813.0 0
136462.0 516583.0 0
139818.0 518660.0 0
142108.0 515546.0 0
143698.0 519323.0 0
147427.0 515915.0 0
157695.0 514952.0 0
156197.0 518779.0 0
160603.0 517282.0 0
164450.0 515795.0 0
169344.0 518369.0 0
175024.0 518247.0 0
179532.0 516642.0 0
183775.0 517115.0 0
188377.0 514775.0 0
193623.0 516979.0 0
199555.0 515493.0 0
202921.0 518163.0 0
207590.0 516629.0 0
211763.0 515502.0 0
216367.0 516258.0 0
221916.0 516361.0 0
227438.0 517302.0 0
232303.0 515034.0 0
238272.0 514058.0 0
243929.0 515826.0 0
249475.0 516095.0 0
255075.0 515640.0 0
260763.0 514678.0 0
267429.0 515574.0 0
275124.0 516028.0 0
281115.0 517541.0 0
286720.0 516544.0 0
291375.0 516547.0 0
295757.0 516811.0 0
299775.0 515109.0 0
303029.0 516319.0 0
307890.0 515792.0 0
312960.0 517532.0 0
318432.0 517620.0 0
323176.0 515752.0 0
327340.0 514721.0 0
327544.0 518898.0 0
331962.0 516073.0 0
335962.0 514690.0 0
337969.0 518729.0 0
341962.0 515416.0 0
348624.0 517312.0 0
353662.0 517721.0 0
358673.0 517814.0 0
363793.0 518163.0 0
371133.0 517313.0 0
376716.0 515878.0 0
381922.0 516099.0 0
381880.0 520066.0 0
386408.0 517814.0 0
391266.0 516936.0 0
395516.0 516235.0 0
394068.0 519950.0 0
397739.0 519730.0 0
400368.0 516628.0 0
405011.0 517979.0 0
401675.0 521088.0 0
409858.0 519610.0 0
415534.0 519300.0 0
420062.0 519047.0 0
425063.0 517801.0 0
429739.0 517939.0 0
434909.0 518569.0 0
438505.0 521391.0 0
439555.0 517284.0 0
442842.0 520004.0 0
447713.0 518336.0 0
453427.0 518492.0 0
457638.0 518243.0 0
461919.0 519089.0 0
466635.0 520155.0 0
470968.0 518280.0 0
471057.0 522536.0 0
475954.0 520767.0 0
483743.0 517723.0 0
481220.0 521262.0 0
487623.0 519320.0 0
490597.0 517480.0 0
494610.0 518118.0 0
498019.0 519847.0 0
3490.89 522840.0 0
1340.34 525981.0 0
8395.79 522519.0 0
6946.54 526597.0 0
15730.6 523261.0 0
11559.4 525962.0 0
20078.6 524672.0 0
23084.1 521486.0 0
24490.3 525858.0 0
26671.5 523150.0 0
30498.4 522080.0 0
28719.0 526102.0 0
33917.0 525846.0 0
39405.5 524046.0 0
43786.8 521265.0 0
44011.1 525370.0 0
47822.8 523161.0 0
51443.9 525105.0 0
54691.3 522781.0 0
58017.2 525590.0 0
62343.0 522529.0 0
65491.1 524345.0 0
69155.4 524221.0 0
73648.8 524137.0 0
78960.5 524098.0 0
83720.8 522009.0 0
85944.8 524827.0 0
89084.1 521188.0 0
94603.6 523785.0 0
99550.8 525019.0 0
103885.0 520806.0 0
108934.0 523536.0 0
113749.0 521859.0 0
117546.0 523890.0 0
121776.0 521926.0 0
123887.0 524455.0 0
126560.0 522098.0 0
131819.0 520586.0 0
130187.0 525219.0 0
136754.0 521071.0 0
134072.0 524224.0 0
141067.0 522550.0 0
146086.0 523473.0 0
151019.0 520394.0 0
155217.0 523802.0 0
159947.0 521801.0 0
163976.0 519665.0 0
164032.0 524079.0 0
166316.0 521590.0 0
168788.0 524289.0 0
173325.0 522346.0 0
177893.0 521750.0 0
182485.0 521036.0 0
186632.0 519628.0 0
186235.0 523236.0 0
191467.0 522295.0 0
197857.0 520209.0 0
201904.0 523706.0 0
206498.0 521720.0 0
211739.0 520053.0 0
216939.0 521796.0 0
222084.0 521281.0 0
227464.0 522019.0 0
232812.0 519860.0 0
237559.0 519235.0 0
236746.0 524021.0 0
241953.0 520946.0 0
247686.0 521684.0 0
253064.0 520458.0 0
258246.0 519807.0 0
262899.0 519367.0 0
266753.0 521794.0 0
271905.0 520434.0 0
276992.0 520383.0 0
280389.0 521688.0 0
284630.0 521968.0 0
290298.0 521136.0 0
295855.0 522409.0 0
300163.0 519369.0 0
304769.0 520246.0 0
309921.0 521491.0 0
315229.0 521568.0 0
319115.0 523407.0 0
322772.0 520863.0 0
327339.0 523994.0 0
332574.0 521817.0 0
336914.0 523783.0 0
344267.0 519600.0 0
340761.0 522914.0 0
350296.0 522477.0 0
356232.0 521975.0 0
360791.0 522024.0 0
367768.0 519784.0 0
365647.0 523092.0 0
370830.0 522963.0 0
374642.0 520815.0 0
378257.0 521201.0 0
381083.0 524114.0 0
385604.0 522574.0 0
390185.0 521081.0 0
393611.0 523518.0 0
398089.0 524017.0 0
402490.0 525910.0 0
405838.0 522846.0 0
410194.0 524735.0 0
413688.0 522552.0 0
417380.0 523008.0 0
420938.0 523530.0 0
423813.0 521611.0 0
425211.0 525932.0 0
427792.0 521884.0 0
430393.0 525861.0 0
432106.0 521829.0 0
435435.0 524751.0 0
441548.0 524153.0 0
445905.0 523333.0 0
454172.0 522033.0 0
450373.0 522518.0 0
454095.0 525902.0 0
458087.0 522118.0 0
463046.0 523738.0 0
467458.0 523768.0 0
469984.0 526094.0 0
474266.0 525156.0 0
478805.0 525679.0 0
483565.0 525545.0 0
485736.0 522160.0 0
488628.0 525594.0 0
491909.0 522034.0 0
497267.0 523232.0 0
498214.0 526654.0 0
2699.45 528778.0 0
7059.3 531092.0 0
16641.2 528127.0 0
21522.2 528769.0 0
26369.7 529889.0 0
30813.8 529305.0 0
37775.1 528061.0 0
40953.1 527760.0 0
44633.3 530063.0 0
48256.2 527101.0 0
53937.8 528341.0 0
62464.2 527076.0 0
58598.8 530745.0 0
63331.1 531141.0 0
66736.8 527350.0 0
67338.0 530777.0 0
71121.2 528315.0 0
75949.2 527656.0 0
79677.5 529355.0 0
82970.3 526062.0 0
84762.2 529767.0 0
90168.6 527404.0 0
95825.5 528608.0 0
101037.0 530040.0 0
104448.0 526070.0 0
106642.0 530174.0 0
109745.0 527599.0 0
113257.0 526075.0 0
117232.0 528422.0 0
121272.0 526177.0 0
121363.0 530357.0 0
125961.0 527823.0 0
133488.0 528461.0 0
137862.0 526054.0 0
142530.0 527006.0 0
146589.0 528932.0 0
150493.0 525950.0 0
154305.0 528643.0 0
159728.0 527562.0 0
165303.0 528446.0 0
168972.0 528414.0 0
172731.0 527035.0 0
177732.0 526507.0 0
182859.0 526148.0 0
187883.0 526982.0 0
192691.0 528264.0 0
197354.0 525869.0 0
201389.0 528032.0 0
205449.0 526571.0 0
210459.0 525573.0 0
215351.0 526266.0 0
219925.0 525892.0 0
224960.0 525483.0 0
230745.0 525454.0 0
237520.0 529219.0 0
241701.0 526455.0 0
247147.0 527595.0 0
252392.0 525694.0 0
257377.0 524777.0 0
259793.0 528816.0 0
255844.0 529065.0 0
262537.0 524989.0 0
267744.0 526964.0 0
272619.0 525623.0 0
278174.0 525905.0 0
283913.0 527458.0 0
287986.0 525377.0 0
291991.0 526043.0 0
295932.0 527200.0 0
300670.0 526030.0 0
304769.0 528662.0 0
305960.0 524775.0 0
310361.0 526955.0 0
314998.0 526403.0 0
318483.0 526346.0 0
322554.0 526599.0 0
331078.0 525815.0 0
334649.0 527669.0 0
339625.0 527078.0 0
344652.0 525375.0 0
349377.0 528752.0 0
354270.0 526880.0 0
358716.0 526024.0 0
357226.0 529945.0 0
362662.0 525700.0 0
367890.0 528019.0 0
371872.0 526757.0 0
376271.0 525933.0 0
384340.0 526641.0 0
381003.0 529289.0 0
389566.0 526339.0 0
395016.0 527976.0 0
399537.0 528978.0 0
406700.0 527496.0 0
410643.0 528695.0 0
414903.0 527045.0 0
419827.0 527364.0 0
417658.0 531143.0 0
423552.0 530471.0 0
428603.0 530220.0 0
433589.0 529331.0 0
438955.0 528321.0 0
444201.0 528046.0 0
449136.0 526790.0 0
452224.0 530170.0 0
456332.0 529531.0 0
459090.0 526556.0 0
462684.0 527785.0 0
466351.0 526934.0 0
465251.0 530684.0 0
469098.0 529748.0 0
472349.0 528372.0 0
475918.0 528857.0 0
478444.0 531283.0 0
482044.0 529507.0 0
486007.0 528756.0 0
493883.0 526904.0 0
489955.0 529460.0 0
493670.0 531211.0 0
497718.0 529810.0 0
2370.48 533036.0 0
2423.14 537201.0 0
6054.13 535264.0 0
12365.2 531327.0 0
16050.5 534329.0 0
18914.2 531790.0 0
22656.2 532175.0 0
26010.3 534716.0 0
30211.0 533127.0 0
34744.1 531381.0 0
33467.7 535933.0 0
37885.2 535352.0 0
39729.2 531299.0 0
42835.9 534554.0 0
46939.2 533636.0 0
49849.5 530727.0 0
50211.6 535232.0 0
53924.6 532852.0 0
61211.9 534804.0 0
66024.3 535107.0 0
70352.0 532672.0 0
74961.7 531876.0 0
79048.8 533440.0 0
81863.8 532458.0 0
81643.0 535775.0 0
84551.0 533749.0 0
88272.8 532888.0 0
92530.2 531878.0 0
96696.4 533781.0 0
103505.0 534399.0 0
108490.0 535299.0 0
112365.0 531141.0 0
117494.0 532957.0 0
121139.0 534016.0 0
124859.0 532946.0 0
129985.0 532128.0 0
135772.0 533281.0 0
139688.0 530323.0 0
143359.0 532926.0 0
150682.0 532401.0 0
156939.0 533333.0 0
162406.0 532209.0 0
166922.0 532349.0 0
171080.0 531532.0 0
175752.0 531075.0 0
180492.0 530631.0 0
184500.0 530393.0 0
188700.0 532062.0 0
193874.0 533169.0 0
198234.0 530362.0 0
198005.0 534206.0 0
204471.0 531069.0 0
208547.0 529908.0 0
212998.0 530208.0 0
217592.0 529801.0 0
218580.0 534052.0 0
222029.0 530110.0 0
227174.0 530543.0 0
232757.0 530863.0 0
237055.0 534414.0 0
244116.0 531589.0 0
240510.0 531738.0 0
251604.0 531018.0 0
257853.0 533064.0 0
263788.0 529463.0 0
262654.0 534046.0 0
267290.0 532143.0 0
271666.0 529900.0 0
276104.0 531513.0 0
280280.0 530355.0 0
283208.0 531453.0 0
288452.0 529513.0 0
286303.0 533849.0 0
293306.0 530818.0 0
298104.0 530627.0 0
302580.0 532481.0 0
308065.0 531684.0 0
313611.0 531302.0 0
318508.0 529811.0 0
318924.0 533944.0 0
322923.0 531914.0 0
328771.0 530212.0 0
333923.0 532021.0 0
338325.0 531953.0 0
343106.0 530450.0 0
346915.0 532592.0 0
353395.0 532672.0 0
358228.0 534100.0 0
362442.0 530507.0 0
367572.0 533447.0 0
372520.0 530071.0 0
372521.0 534476.0 0
376882.0 531864.0 0
382429.0 533923.0 0
386085.0 530678.0 0
387600.0 535515.0 0
391437.0 531761.0 0
396932.0 532732.0 0
403563.0 530814.0 0
408375.0 531935.0 0
413313.0 531922.0 0
420920.0 533845.0 0
426302.0 534696.0 0
431242.0 531285.0 0
431983.0 534891.0 0
436725.0 532589.0 0
442551.0 535290.0 0
440650.0 532580.0 0
447687.0 531194.0 0
443889.0 532406.0 0
446142.0 535550.0 0
450908.0 534871.0 0
455698.0 533579.0 0
460471.0 531371.0 0
464541.0 534943.0 0
468268.0 533058.0 0
472851.0 533042.0 0
477321.0 534939.0 0
482289.0 534552.0 0
486203.0 532052.0 0
489788.0 532899.0 0
492707.0 535676.0 0
497366.0 533951.0 0
6417.77 540045.0 0
10554.2 536436.0 0
15278.0 538841.0 0
20708.9 536441.0 0
25428.2 539052.0 0
29521.4 537409.0 0
33218.7 540292.0 0
41296.4 538525.0 0
37083.9 539637.0 0
46456.1 537467.0 0
50072.8 538599.0 0
53807.9 537763.0 0
57351.8 535201.0 0
59262.9 539080.0 0
65114.5 540920.0 0
70930.8 536957.0 0
76533.4 537811.0 0
81596.8 539888.0 0
86153.7 537509.0 0
91568.9 536283.0 0
99886.4 537921.0 0
104871.0 539481.0 0
109665.0 540080.0 0
114045.0 536949.0 0
118889.0 536625.0 0
118047.0 540303.0 0
122942.0 537328.0 0
127561.0 536501.0 0
132133.0 536911.0 0
136165.0 537910.0 0
139932.0 536474.0 0
146886.0 535574.0 0
150590.0 537575.0 0
155081.0 538544.0 0
160302.0 538119.0 0
164560.0 535894.0 0
169699.0 536694.0 0
174330.0 535091.0 0
178756.0 535142.0 0
183978.0 534824.0 0
190658.0 537341.0 0
195616.0 536989.0 0
202215.0 535555.0 0
207522.0 535082.0 0
213365.0 535882.0 0
218825.0 539080.0 0
223074.0 534610.0 0
223176.0 538623.0 0
227402.0 535667.0 0
232037.0 535943.0 0
241945.0 535218.0 0
247692.0 536014.0 0
253694.0 535593.0 0
257724.0 539124.0 0
262699.0 538690.0 0
267335.0 537349.0 0
271777.0 534480.0 0
276000.0 536273.0 0
280541.0 534715.0 0
284447.0 539047.0 0
290729.0 534679.0 0
296135.0 535167.0 0
300523.0 536843.0 0
305897.0 536138.0 0
310457.0 536190.0 0
315285.0 536349.0 0
319771.0 537663.0 0
324290.0 536965.0 0
329564.0 536278.0 0
333920.0 535547.0 0
337666.0 536641.0 0
343281.0 536276.0 0
349457.0 536243.0 0
354271.0 537850.0 0
359742.0 539096.0 0
363508.0 535516.0 0
365567.0 539572.0 0
369435.0 537321.0 0
372881.0 538463.0 0
378022.0 537621.0 0
383636.0 538622.0 0
388849.0 540196.0 0
393331.0 537088.0 0
397589.0 536391.0 0
401439.0 535409.0 0
406298.0 535903.0 0
404127.0 539881.0 0
408386.0 539734.0 0
411089.0 536236.0 0
416640.0 536228.0 0
413597.0 540462.0 0
422586.0 538251.0 0
428141.0 539895.0 0
438518.0 536876.0 0
443639.0 539662.0 0
448918.0 539520.0 0
454545.0 539080.0 0
459724.0 536625.0 0
459383.0 540902.0 0
464216.0 540095.0 0
468910.0 537105.0 0
474187.0 539169.0 0
479407.0 538403.0 0
483382.0 540233.0 0
487288.0 536834.0 0
491177.0 540818.0 0
496796.0 539147.0 0
2038.4 541231.0 0
2749.66 544995.0 0
6757.31 544357.0 0
10272.8 546604.0 0
11096.7 541817.0 0
15147.2 543944.0 0
19562.8 541756.0 0
24712.1 544361.0 0
29227.8 541611.0 0
31706.8 544854.0 0
35638.7 543900.0 0
39825.5 542565.0 0
44513.5 540653.0 0
44609.0 544981.0 0
48268.5 541377.0 0
51608.4 540873.0 0
51155.1 544927.0 0
55182.7 542042.0 0
59693.8 544110.0 0
70731.7 541388.0 0
69034.9 545573.0 0
73837.9 544520.0 0
77563.2 542695.0 0
81021.9 544169.0 0
85135.4 542447.0 0
89794.7 541167.0 0
88254.6 545473.0 0
95131.5 540438.0 0
100070.0 543392.0 0
104926.0 544218.0 0
113713.0 542362.0 0
109249.0 544629.0 0
117947.0 545046.0 0
122647.0 542474.0 0
128859.0 541880.0 0
133845.0 540597.0 0
133773.0 544716.0 0
137106.0 541214.0 0
137967.0 544788.0 0
141416.0 541353.0 0
146513.0 540018.0 0
151563.0 542899.0 0
157689.0 541454.0 0
160985.0 542984.0 0
164941.0 540299.0 0
169504.0 542205.0 0
175342.0 540366.0 0
181444.0 539533.0 0
186446.0 540392.0 0
187354.0 544525.0 0
194361.0 540716.0 0
190475.0 542115.0 0
198924.0 539561.0 0
197353.0 543488.0 0
204091.0 540572.0 0
209238.0 539928.0 0
214053.0 541833.0 0
222289.0 542972.0 0
227018.0 540441.0 0
232413.0 541069.0 0
237639.0 539815.0 0
242793.0 539777.0 0
247385.0 542337.0 0
252348.0 540479.0 0
255862.0 544327.0 0
261218.0 543981.0 0
265663.0 542675.0 0
272466.0 540178.0 0
278873.0 539876.0 0
281835.0 543487.0 0
290864.0 540002.0 0
297075.0 540564.0 0
302941.0 540754.0 0
307883.0 540420.0 0
312187.0 539952.0 0
316861.0 541801.0 0
322480.0 541660.0 0
327675.0 541199.0 0
333594.0 540609.0 0
339731.0 541409.0 0
345599.0 541480.0 0
350413.0 541117.0 0
355294.0 543062.0 0
361048.0 545148.0 0
370153.0 541292.0 0
366747.0 544655.0 0
374791.0 542089.0 0
379309.0 543568.0 0
384764.0 543723.0 0
390640.0 545219.0 0
394153.0 541859.0 0
398889.0 540610.0 0
405505.0 544376.0 0
410237.0 543757.0 0
415093.0 545190.0 0
418629.0 541669.0 0
423768.0 543042.0 0
430977.0 544286.0 0
433981.0 540301.0 0
438981.0 542033.0 0
442874.0 544542.0 0
447104.0 543755.0 0
451577.0 543413.0 0
456352.0 543927.0 0
461258.0 544530.0 0
465710.0 544388.0 0
469382.0 542010.0 0
473754.0 544491.0 0
478069.0 546454.0 0
478653.0 542359.0 0
482226.0 544729.0 0
486765.0 543841.0 0
497055.0 544525.0 0
2096.52 548982.0 0
5965.08 547841.0 0
14671.1 548456.0 0
11331.9 551131.0 0
19134.3 546830.0 0
23321.3 550087.0 0
28871.3 548530.0 0
34282.7 548638.0 0
39241.1 547038.0 0
43732.1 549666.0 0
48103.1 548886.0 0
55631.8 546315.0 0
53009.6 549953.0 0
56606.0 549465.0 0
60036.4 549108.0 0
64176.0 546678.0 0
72218.1 549270.0 0
67315.6 550310.0 0
77679.9 548241.0 0
83833.8 548216.0 0
89575.2 549914.0 0
93541.9 546037.0 0
98252.9 547850.0 0
103196.0 548576.0 0
113231.0 547270.0 0
108373.0 549476.0 0
117739.0 550266.0 0
122906.0 547942.0 0
128568.0 548036.0 0
133977.0 549752.0 0
141528.0 545967.0 0
138933.0 549074.0 0
145474.0 544816.0 0
149269.0 548067.0 0
156764.0 545272.0 0
160873.0 547189.0 0
165189.0 545275.0 0
169495.0 546384.0 0
172849.0 545047.0 0
177873.0 545401.0 0
174790.0 548721.0 0
182759.0 544791.0 0
186048.0 549133.0 0
193739.0 545064.0 0
190076.0 546941.0 0
198927.0 547881.0 0
204314.0 546032.0 0
209147.0 544617.0 0
208407.0 549226.0 0
213059.0 546577.0 0
217825.0 545708.0 0
222550.0 548208.0 0
226489.0 545228.0 0
231199.0 546165.0 0
237076.0 545717.0 0
242762.0 544746.0 0
247567.0 546728.0 0
251226.0 545432.0 0
259664.0 548751.0 0
264969.0 547427.0 0
270271.0 545683.0 0
276551.0 545596.0 0
282452.0 548407.0 0
286699.0 544599.0 0
292156.0 545959.0 0
300295.0 545156.0 0
296472.0 548223.0 0
305881.0 545967.0 0
311422.0 544469.0 0
317453.0 548346.0 0
322528.0 546162.0 0
329004.0 544947.0 0
326073.0 545067.0 0
332310.0 545753.0 0
337533.0 546339.0 0
343272.0 546286.0 0
349859.0 547034.0 0
355989.0 548835.0 0
367951.0 549215.0 0
371955.0 546159.0 0
377087.0 548626.0 0
381589.0 547399.0 0
386451.0 549517.0 0
396531.0 546179.0 0
400450.0 548956.0 0
401314.0 545091.0 0
405352.0 549765.0 0
411276.0 548978.0 0
416643.0 549862.0 0
420472.0 546736.0 0
426977.0 546457.0 0
424044.0 549922.0 0
432709.0 548497.0 0
435473.0 545176.0 0
437390.0 549740.0 0
439307.0 546216.0 0
442510.0 549206.0 0
448555.0 549111.0 0
453505.0 547396.0 0
458151.0 548493.0 0
461961.0 550650.0 0
464001.0 547556.0 0
469363.0 547030.0 0
474224.0 549465.0 0
482236.0 549996.0 0
487669.0 548596.0 0
491950.0 546001.0 0
497643.0 549255.0 0
1800.4 552472.0 0
6637.24 552740.0 0
14118.5 554844.0 0
18119.2 551812.0 0
22021.2 555273.0 0
27104.4 553485.0 0
31361.9 552381.0 0
35920.2 554380.0 0
39997.7 551429.0 0
43021.9 552447.0 0
46072.7 553186.0 0
49648.4 552381.0 0
48779.4 554867.0 0
52456.3 555278.0 0
57504.1 553352.0 0
62982.0 552890.0 0
70222.9 553561.0 0
75185.4 553705.0 0
80602.8 552932.0 0
85780.8 553274.0 0
90315.4 554457.0 0
94678.4 551973.0 0
99608.2 551710.0 0
103569.0 553749.0 0
112739.0 552042.0 0
117745.0 555102.0 0
122176.0 553204.0 0
125651.0 551094.0 0
127305.0 554835.0 0
130352.0 552051.0 0
144078.0 550055.0 0
149356.0 552920.0 0
154616.0 550613.0 0
158032.0 555123.0 0
160210.0 551225.0 0
164651.0 550227.0 0
169912.0 550744.0 0
174693.0 554293.0 0
180120.0 550105.0 0
184263.0 554449.0 0
189227.0 552879.0 0
193602.0 550138.0 0
203724.0 551544.0 0
212992.0 551249.0 0
218261.0 551347.0 0
223103.0 553834.0 0
227629.0 550234.0 0
233046.0 550971.0 0
238498.0 552206.0 0
244176.0 550094.0 0
249879.0 549911.0 0
247969.0 554566.0 0
254364.0 550264.0 0
252211.0 553481.0 0
264256.0 551340.0 0
260937.0 554332.0 0
268216.0 550016.0 0
269746.0 554208.0 0
272848.0 550517.0 0
278044.0 551924.0 0
283041.0 553878.0 0
287758.0 550056.0 0
292823.0 551139.0 0
296764.0 553021.0 0
300967.0 550740.0 0
305898.0 550938.0 0
311116.0 550544.0 0
315270.0 552379.0 0
318253.0 553872.0 0
322381.0 551769.0 0
328183.0 549813.0 0
334219.0 549928.0 0
339818.0 551868.0 0
345699.0 551261.0 0
350078.0 552630.0 0
354143.0 553593.0 0
358965.0 553201.0 0
363320.0 550639.0 0
367456.0 553777.0 0
372260.0 551616.0 0
376918.0 554048.0 0
381456.0 551788.0 0
392366.0 550901.0 0
396982.0 550729.0 0
400403.0 553831.0 0
405033.0 554766.0 0
409152.0 553708.0 0
413885.0 553453.0 0
420466.0 553013.0 0
425482.0 554549.0 0
428764.0 550913.0 0
432407.0 552202.0 0
434530.0 551148.0 0
435821.0 554344.0 0
440117.0 553158.0 0
445029.0 553993.0 0
450229.0 554758.0 0
453568.0 551701.0 0
458359.0 554033.0 0
463488.0 554219.0 0
466142.0 550822.0 0
467886.0 555130.0 0
470160.0 551446.0 0
472989.0 554703.0 0
477762.0 552573.0 0
481114.0 555374.0 0
487153.0 553768.0 0
492552.0 551170.0 0
497270.0 553854.0 0
2683.38 556509.0 0
7555.67 558653.0 0
12463.9 559404.0 0
17922.5 559327.0 0
26114.1 558123.0 0
30585.1 556662.0 0
34281.8 559978.0 0
38707.8 558726.0 0
42016.8 555912.0 0
42767.3 560527.0 0
47057.3 558109.0 0
56181.6 558002.0 0
52035.2 560211.0 0
60888.2 557429.0 0
66348.5 556965.0 0
71588.5 557726.0 0
75431.9 560244.0 0
78609.3 557079.0 0
83074.7 557208.0 0
87529.8 557609.0 0
93458.7 558593.0 0
98753.5 556111.0 0
104349.0 559127.0 0
108543.0 555033.0 0
113576.0 556646.0 0
123107.0 558149.0 0
129115.0 559709.0 0
133281.0 555696.0 0
139761.0 554733.0 0
145321.0 554944.0 0
149154.0 557712.0 0
153569.0 556041.0 0
155547.0 559972.0 0
163391.0 555361.0 0
160046.0 558890.0 0
166028.0 559352.0 0
169026.0 556013.0 0
175030.0 559642.0 0
179527.0 557479.0 0
188485.0 558074.0 0
193388.0 555786.0 0
199346.0 555651.0 0
204188.0 556127.0 0
208607.0 554734.0 0
215476.0 555867.0 0
219747.0 555389.0 0
222821.0 558970.0 0
229525.0 555045.0 0
226891.0 558212.0 0
234380.0 555922.0 0
238742.0 557216.0 0
242823.0 555462.0 0
251923.0 558320.0 0
256038.0 555097.0 0
262592.0 559136.0 0
265438.0 555317.0 0
268096.0 559536.0 0
274465.0 556221.0 0
282718.0 558462.0 0
288299.0 555798.0 0
293736.0 555904.0 0
299627.0 555376.0 0
297421.0 559300.0 0
304205.0 555403.0 0
308876.0 555282.0 0
307501.0 559635.0 0
314230.0 555608.0 0
311239.0 557961.0 0
317245.0 559603.0 0
321846.0 556884.0 0
327564.0 556503.0 0
334240.0 555196.0 0
338422.0 556469.0 0
346535.0 555618.0 0
342263.0 557294.0 0
351283.0 556475.0 0
356845.0 557878.0 0
352639.0 560262.0 0
363031.0 555775.0 0
366375.0 558489.0 0
371851.0 557823.0 0
380919.0 556047.0 0
377832.0 559092.0 0
386084.0 555642.0 0
382480.0 559589.0 0
392612.0 556991.0 0
396387.0 560543.0 0
397489.0 557258.0 0
401035.0 559200.0 0
406795.0 558551.0 0
411921.0 557996.0 0
417255.0 556981.0 0
422279.0 558692.0 0
427052.0 558875.0 0
430719.0 555839.0 0
435667.0 559274.0 0
441141.0 558068.0 0
446628.0 558989.0 0
454177.0 557611.0 0
458404.0 559047.0 0
462008.0 557786.0 0
466017.0 559558.0 0
470572.0 558388.0 0
474307.0 559082.0 0
476978.0 556174.0 0
479074.0 559923.0 0
484664.0 557936.0 0
488133.0 559777.0 0
492163.0 556924.0 0
497388.0 558729.0 0
2541.52 561287.0 0
6932.71 564322.0 0
10945.7 562747.0 0
14540.6 563390.0 0
23208.4 562589.0 0
29208.6 561739.0 0
38882.8 562912.0 0
43502.8 564948.0 0
48145.4 563037.0 0
58282.7 561504.0 0
63674.0 561301.0 0
65931.5 565295.0 0
68865.3 561651.0 0
72448.6 563798.0 0
76374.7 564830.0 0
80618.9 561655.0 0
88720.7 561575.0 0
92854.1 564877.0 0
98933.3 561375.0 0
110113.0 560505.0 0
117625.0 560368.0 0
114284.0 564464.0 0
121359.0 563168.0 0
125049.0 562443.0 0
128999.0 564783.0 0
133453.0 560780.0 0
137850.0 560310.0 0
143796.0 560206.0 0
149995.0 562718.0 0
159128.0 563171.0 0
164467.0 563707.0 0
170282.0 561254.0 0
178480.0 561802.0 0
183803.0 560986.0 0
188922.0 563154.0 0
192476.0 560464.0 0
196428.0 559868.0 0
197466.0 563136.0 0
203012.0 560204.0 0
208045.0 560151.0 0
212647.0 559784.0 0
217887.0 560785.0 0
226364.0 562811.0 0
230986.0 559881.0 0
235900.0 560432.0 0
240699.0 560901.0 0
243101.0 564433.0 0
245875.0 560029.0 0
252230.0 562857.0 0
257285.0 560039.0 0
260537.0 563374.0 0
265208.0 564193.0 0
269822.0 564455.0 0
273181.0 561391.0 0
278311.0 560169.0 0
286462.0 560920.0 0
291754.0 560764.0 0
299309.0 564150.0 0
302529.0 560354.0 0
308473.0 563928.0 0
312582.0 561589.0 0
316541.0 564648.0 0
321921.0 561992.0 0
326727.0 561921.0 0
332190.0 560859.0 0
338152.0 560578.0 0
343034.0 561213.0 0
345705.0 563597.0 0
348206.0 559811.0 0
350651.0 564892.0 0
355973.0 563234.0 0
362031.0 561256.0 0
368163.0 563726.0 0
373412.0 563010.0 0
377052.0 563395.0 0
380203.0 562343.0 0
383351.0 563374.0 0
388201.0 561801.0 0
393167.0 562122.0 0
399134.0 563865.0 0
404391.0 562325.0 0
409532.0 563137.0 0
415585.0 562431.0 0
421281.0 563989.0 0
425923.0 562625.0 0
430959.0 560865.0 0
429511.0 565644.0 0
434780.0 564597.0 0
439135.0 562504.0 0
443992.0 563422.0 0
450934.0 561128.0 0
455833.0 562573.0 0
461047.0 562224.0 0
465411.0 564417.0 0
469952.0 562261.0 0
475073.0 564156.0 0
483093.0 561242.0 0
480899.0 564964.0 0
486324.0 563985.0 0
491827.0 562773.0 0
497345.0 563480.0 0
2118.43 565599.0 0
3361.9 570600.0 0
8493.05 569034.0 0
11606.0 566232.0 0
12540.2 570268.0 0
18581.3 565211.0 0
22463.7 567428.0 0
27262.1 566812.0 0
33599.7 566089.0 0
39320.0 567447.0 0
39863.7 570410.0 0
43375.9 570276.0 0
47706.8 567604.0 0
54028.5 566177.0 0
60830.9 565495.0 0
59032.9 570290.0 0
63784.5 569470.0 0
69961.6 567903.0 0
73813.0 567510.0 0
77380.1 569755.0 0
82502.5 567037.0 0
86627.2 570250.0 0
87620.0 565841.0 0
94695.7 568932.0 0
98496.2 566937.0 0
104418.0 565337.0 0
110017.0 565629.0 0
113398.0 568414.0 0
118673.0 565670.0 0
117546.0 570143.0 0
123020.0 566405.0 0
128610.0 569530.0 0
134471.0 565901.0 0
140210.0 564958.0 0
145706.0 566473.0 0
150593.0 567123.0 0
154513.0 565162.0 0
158905.0 568212.0 0
168840.0 565859.0 0
174831.0 565561.0 0
180776.0 565395.0 0
185239.0 565616.0 0
184298.0 569634.0 0
193662.0 564801.0 0
189108.0 568344.0 0
193575.0 569129.0 0
197762.0 569266.0 0
201310.0 565392.0 0
203138.0 569791.0 0
207009.0 565294.0 0
213109.0 565194.0 0
218651.0 565860.0 0
222965.0 566215.0 0
227815.0 568454.0 0
231966.0 564910.0 0
232871.0 569432.0 0
237354.0 565366.0 0
241482.0 568526.0 0
248173.0 565744.0 0
256133.0 565125.0 0
261264.0 569103.0 0
268026.0 569206.0 0
275941.0 566023.0 0
282224.0 564938.0 0
288456.0 565910.0 0
294226.0 566094.0 0
304366.0 564935.0 0
301170.0 569434.0 0
312067.0 566156.0 0
320578.0 566259.0 0
317506.0 569086.0 0
324529.0 565685.0 0
329669.0 566630.0 0
335805.0 565329.0 0
334151.0 569916.0 0
341188.0 565221.0 0
345886.0 568438.0 0
355047.0 567929.0 0
359516.0 565464.0 0
359149.0 569114.0 0
363421.0 567305.0 0
369004.0 569744.0 0
372640.0 566775.0 0
376490.0 566846.0 0
380107.0 565832.0 0
384696.0 568044.0 0
389940.0 566858.0 0
394419.0 568261.0 0
398891.0 568409.0 0
407447.0 567041.0 0
403331.0 567011.0 0
411450.0 568525.0 0
417215.0 568199.0 0
421946.0 568547.0 0
425173.0 566878.0 0
433026.0 568267.0 0
430159.0 570653.0 0
439780.0 567297.0 0
444817.0 568693.0 0
449069.0 565838.0 0
454038.0 567054.0 0
459027.0 566693.0 0
463462.0 568733.0 0
470026.0 567238.0 0
477910.0 569647.0 0
483811.0 568406.0 0
488710.0 569051.0 0
494138.0 567644.0 0
498278.0 567348.0 0
497683.0 570809.0 0
9221.47 573966.0 0
18332.0 571512.0 0
24673.4 571195.0 0
30047.2 572058.0 0
36306.7 572023.0 0
41174.5 575560.0 0
50369.7 570837.0 0
47197.1 574589.0 0
54580.6 573139.0 0
62343.3 574644.0 0
67519.2 572291.0 0
72694.2 572598.0 0
77545.4 574932.0 0
81973.6 572536.0 0
86499.5 575153.0 0
91634.8 572043.0 0
96929.7 571620.0 0
102217.0 571509.0 0
107929.0 570294.0 0
112953.0 573712.0 0
118452.0 574919.0 0
123048.0 571720.0 0
128575.0 575249.0 0
132610.0 570607.0 0
134995.0 574933.0 0
139023.0 570415.0 0
144479.0 572251.0 0
148850.0 570494.0 0
149908.0 575056.0 0
153895.0 570805.0 0
159375.0 573932.0 0
164414.0 569883.0 0
170637.0 570521.0 0
168954.0 574486.0 0
175428.0 571707.0 0
179639.0 570289.0 0
183693.0 574220.0 0
188782.0 573720.0 0
194674.0 574043.0 0
199799.0 574075.0 0
203246.0 574863.0 0
208494.0 570073.0 0
207347.0 574524.0 0
213160.0 570994.0 0
217981.0 570395.0 0
222796.0 570766.0 0
227046.0 574131.0 0
231960.0 573745.0 0
237287.0 570745.0 0
241568.0 573354.0 0
245625.0 570587.0 0
250007.0 570534.0 0
254895.0 570497.0 0
251659.0 574526.0 0
268895.0 574333.0 0
273547.0 571070.0 0
279268.0 570609.0 0
283480.0 569797.0 0
283429.0 574478.0 0
286910.0 570897.0 0
288095.0 574378.0 0
291244.0 570363.0 0
292309.0 574901.0 0
295899.0 571250.0 0
295707.0 574682.0 0
307685.0 569902.0 0
313344.0 570528.0 0
321015.0 571762.0 0
316734.0 573485.0 0
325291.0 570059.0 0
329940.0 572263.0 0
339124.0 570277.0 0
337135.0 574714.0 0
341849.0 574338.0 0
346697.0 573797.0 0
350915.0 570522.0 0
355365.0 572327.0 0
359711.0 573290.0 0
364183.0 572070.0 0
371131.0 574882.0 0
374876.0 571057.0 0
379891.0 570322.0 0
383112.0 572617.0 0
389133.0 572017.0 0
394689.0 573800.0 0
398604.0 571773.0 0
402149.0 571541.0 0
406702.0 571024.0 0
411001.0 573955.0 0
416615.0 573998.0 0
420641.0 571633.0 0
425088.0 571596.0 0
428577.0 574669.0 0
435855.0 572056.0 0
441377.0 571518.0 0
444962.0 573398.0 0
450066.0 571517.0 0
455819.0 571725.0 0
460251.0 571088.0 0
462731.0 574944.0 0
466947.0 571026.0 0
467702.0 575206.0 0
471365.0 572212.0 0
475296.0 573628.0 0
482679.0 572814.0 0
487609.0 574426.0 0
493036.0 572689.0 0
497485.0 575111.0 0
3698.12 577343.0 0
9564.03 579715.0 0
14094.9 576672.0 0
19404.8 578455.0 0
23974.5 575801.0 0
28520.6 577334.0 0
34030.9 577701.0 0
44855.0 579966.0 0
51709.9 577840.0 0
57441.1 578179.0 0
62267.9 579778.0 0
67715.0 577800.0 0
73528.5 578030.0 0
77630.5 579037.0 0
81748.1 577710.0 0
86575.2 580179.0 0
91045.8 577636.0 0
95727.3 575905.0 0
100554.0 576698.0 0
106618.0 576574.0 0
115099.0 578390.0 0
118672.0 579580.0 0
122897.0 577631.0 0
132206.0 579321.0 0
140564.0 575819.0 0
145305.0 577507.0 0
154540.0 575829.0 0
165095.0 576311.0 0
172973.0 576001.0 0
169156.0 579150.0 0
178646.0 575461.0 0
182402.0 579007.0 0
187467.0 578808.0 0
198278.0 578241.0 0
203142.0 579476.0 0
208916.0 579745.0 0
212251.0 575690.0 0
214156.0 579699.0 0
217047.0 575175.0 0
218450.0 579642.0 0
221861.0 575434.0 0
222569.0 579623.0 0
226781.0 579032.0 0
232136.0 579211.0 0
236944.0 575895.0 0
242019.0 578404.0 0
246651.0 575688.0 0
252096.0 579045.0 0
256987.0 576339.0 0
263595.0 575679.0 0
268662.0 579441.0 0
273076.0 576206.0 0
277865.0 575560.0 0
282840.0 579668.0 0
287040.0 580146.0 0
291220.0 579513.0 0
295579.0 578193.0 0
299483.0 575077.0 0
305323.0 576058.0 0
311249.0 575125.0 0
315963.0 578856.0 0
320653.0 576248.0 0
325629.0 575291.0 0
328471.0 579844.0 0
332644.0 576634.0 0
341617.0 579010.0 0
336773.0 579801.0 0
351795.0 575886.0 0
347028.0 579486.0 0
357534.0 578626.0 0
362947.0 576548.0 0
366824.0 575185.0 0
376017.0 575997.0 0
372826.0 580092.0 0
380696.0 575960.0 0
378198.0 580214.0 0
385491.0 576012.0 0
390590.0 577229.0 0
395841.0 579368.0 0
399931.0 575744.0 0
405821.0 576752.0 0
410155.0 579811.0 0
413542.0 577834.0 0
418168.0 579548.0 0
421859.0 575566.0 0
425652.0 576380.0 0
423695.0 580393.0 0
432414.0 576387.0 0
428584.0 579024.0 0
436457.0 577832.0 0
440611.0 575751.0 0
443743.0 578585.0 0
448390.0 576967.0 0
453422.0 576191.0 0
458001.0 576176.0 0
456460.0 579673.0 0
465613.0 579686.0 0
472580.0 577926.0 0
478645.0 576568.0 0
483816.0 578131.0 0
487987.0 578549.0 0
491458.0 577197.0 0
494386.0 579773.0 0
497995.0 579262.0 0
3270.46 583975.0 0
9097.21 584810.0 0
14789.2 582663.0 0
19884.8 583214.0 0
24599.6 580963.0 0
29620.7 582020.0 0
34244.1 583082.0 0
39079.1 580952.0 0
43642.1 585473.0 0
49163.8 582624.0 0
53873.0 582394.0 0
59425.1 582465.0 0
65391.7 582106.0 0
70271.4 583677.0 0
75777.1 582482.0 0
82300.4 582836.0 0
90684.5 582170.0 0
87080.2 585278.0 0
95443.1 581088.0 0
100948.0 581809.0 0
97715.3 585145.0 0
106211.0 582748.0 0
111296.0 580293.0 0
116605.0 584305.0 0
121701.0 582418.0 0
127352.0 581936.0 0
137643.0 580340.0 0
133352.0 584197.0 0
142829.0 581997.0 0
138396.0 585025.0 0
146806.0 585065.0 0
149442.0 580273.0 0
151585.0 584637.0 0
154694.0 580529.0 0
160389.0 579995.0 0
165597.0 581914.0 0
173780.0 581210.0 0
178059.0 580233.0 0
182196.0 584535.0 0
188269.0 584361.0 0
193155.0 580420.0 0
198557.0 583403.0 0
205591.0 583984.0 0
212390.0 584187.0 0
216742.0 583820.0 0
221011.0 583893.0 0
226435.0 584320.0 0
231355.0 584281.0 0
238160.0 580152.0 0
236603.0 584899.0 0
242800.0 583867.0 0
247124.0 580724.0 0
247584.0 584805.0 0
251565.0 583557.0 0
257680.0 581224.0 0
256104.0 584992.0 0
261177.0 580407.0 0
260852.0 584690.0 0
265816.0 584373.0 0
273570.0 580689.0 0
270738.0 584243.0 0
278089.0 580382.0 0
275671.0 585033.0 0
281497.0 584333.0 0
285987.0 583911.0 0
295127.0 582584.0 0
290635.0 584469.0 0
300114.0 580900.0 0
305166.0 581211.0 0
310168.0 580876.0 0
307079.0 584434.0 0
315302.0 584460.0 0
323228.0 580570.0 0
325525.0 584248.0 0
332653.0 581175.0 0
335302.0 584494.0 0
341186.0 584732.0 0
352197.0 581216.0 0
360212.0 584969.0 0
366922.0 580081.0 0
362329.0 580388.0 0
374268.0 584668.0 0
382519.0 580772.0 0
387071.0 580794.0 0
383653.0 584782.0 0
391605.0 581375.0 0
393301.0 584746.0 0
397566.0 584310.0 0
401339.0 580858.0 0
406420.0 582770.0 0
411509.0 584883.0 0
413989.0 581335.0 0
417287.0 585315.0 0
422327.0 584869.0 0
427846.0 584675.0 0
433179.0 581236.0 0
437186.0 584578.0 0
440120.0 580655.0 0
442761.0 585396.0 0
446393.0 581492.0 0
452018.0 581508.0 0
457319.0 583813.0 0
460479.0 580006.0 0
465429.0 584862.0 0
469745.0 582721.0 0
475127.0 583677.0 0
480012.0 581289.0 0
484076.0 583036.0 0
490119.0 583503.0 0
496895.0 583756.0 0
2044.41 588931.0 0
6290.93 588483.0 0
12790.1 588076.0 0
18393.5 587842.0 0
22510.5 585484.0 0
23477.2 589205.0 0
26597.7 585742.0 0
33059.5 587209.0 0
37962.9 586829.0 0
41832.3 589936.0 0
48756.7 587413.0 0
53483.1 589347.0 0
57158.3 586060.0 0
62702.2 586172.0 0
71542.3 589074.0 0
66924.6 589812.0 0
74499.4 586378.0 0
76087.1 590340.0 0
78629.5 586188.0 0
82886.7 587447.0 0
93281.4 585968.0 0
96916.0 589337.0 0
102614.0 586559.0 0
106647.0 587126.0 0
110796.0 585355.0 0
121518.0 586908.0 0
126180.0 587570.0 0
131063.0 589607.0 0
136131.0 588552.0 0
142431.0 586849.0 0
147933.0 590014.0 0
143913.0 590042.0 0
152971.0 589227.0 0
156495.0 585581.0 0
157346.0 590091.0 0
161399.0 585165.0 0
165619.0 587209.0 0
170656.0 585451.0 0
176454.0 585466.0 0
178278.0 589881.0 0
182505.0 589761.0 0
187525.0 590141.0 0
193669.0 586511.0 0
198536.0 588896.0 0
202201.0 586034.0 0
203057.0 589505.0 0
208796.0 589458.0 0
215948.0 587617.0 0
220347.0 588935.0 0
225455.0 589838.0 0
230774.0 588972.0 0
240160.0 589574.0 0
245972.0 589855.0 0
252941.0 590125.0 0
259358.0 589612.0 0
264175.0 589707.0 0
268919.0 589153.0 0
273415.0 588708.0 0
278658.0 589701.0 0
283398.0 588516.0 0
287092.0 587499.0 0
290967.0 589922.0 0
296470.0 587299.0 0
301635.0 586291.0 0
310801.0 586090.0 0
306038.0 588285.0 0
320781.0 585400.0 0
326311.0 589000.0 0
329990.0 585129.0 0
337102.0 589699.0 0
341932.0 589679.0 0
347527.0 585628.0 0
350557.0 590369.0 0
353613.0 586440.0 0
366423.0 585931.0 0
371157.0 587085.0 0
368672.0 590134.0 0
375252.0 589470.0 0
378806.0 585352.0 0
379943.0 589919.0 0
384419.0 589570.0 0
388657.0 586083.0 0
392599.0 588867.0 0
397426.0 589822.0 0
402245.0 585930.0 0
401642.0 589385.0 0
408086.0 585932.0 0
406860.0 589959.0 0
413829.0 589846.0 0
419231.0 590637.0 0
424052.0 588858.0 0
428611.0 590209.0 0
432851.0 585742.0 0
433899.0 590354.0 0
439011.0 588672.0 0
448310.0 585589.0 0
453138.0 587243.0 0
457534.0 589496.0 0
461108.0 586882.0 0
466749.0 590370.0 0
471162.0 586413.0 0
472324.0 590331.0 0
476529.0 588716.0 0
480345.0 585961.0 0
485268.0 588204.0 0
492860.0 589030.0 0
497554.0 588787.0 0
3705.96 593264.0 0
8295.45 592158.0 0
12590.2 593022.0 0
17469.5 593240.0 0
20839.6 591191.0 0
23908.8 593439.0 0
29320.4 590558.0 0
27164.9 594435.0 0
35808.7 592644.0 0
41866.5 594100.0 0
45588.4 590427.0 0
50254.2 592436.0 0
46545.0 594938.0 0
54671.1 595110.0 0
58249.9 590771.0 0
60428.2 595252.0 0
62669.5 591258.0 0
65652.2 594797.0 0
72065.0 595174.0 0
81267.8 592195.0 0
85170.4 595590.0 0
87156.6 590921.0 0
92433.8 590755.0 0
101376.0 591125.0 0
97406.6 594220.0 0
106361.0 591468.0 0
111963.0 590986.0 0
118071.0 591055.0 0
123318.0 591042.0 0
127357.0 594201.0 0
140138.0 591038.0 0
144984.0 594117.0 0
154790.0 594121.0 0
161826.0 590275.0 0
159814.0 594568.0 0
168466.0 590492.0 0
167932.0 594415.0 0
163991.0 594535.0 0
173301.0 590674.0 0
177501.0 595111.0 0
183847.0 594859.0 0
192079.0 590582.0 0
192365.0 593631.0 0
189001.0 594795.0 0
197549.0 594689.0 0
203606.0 594225.0 0
214081.0 590888.0 0
213828.0 594350.0 0
217555.0 593685.0 0
222176.0 594034.0 0
227292.0 594714.0 0
232774.0 594714.0 0
235565.0 590344.0 0
238565.0 594457.0 0
242973.0 594042.0 0
251665.0 594941.0 0
260696.0 594777.0 0
265776.0 593882.0 0
271647.0 594805.0 0
276804.0 594058.0 0
281972.0 594759.0 0
287391.0 593543.0 0
295868.0 592913.0 0
300684.0 590987.0 0
305564.0 593906.0 0
309936.0 590405.0 0
315775.0 590620.0 0
311449.0 595260.0 0
321807.0 590532.0 0
331365.0 590579.0 0
327077.0 594485.0 0
332220.0 595262.0 0
341477.0 593972.0 0
336646.0 595143.0 0
346021.0 591239.0 0
352335.0 594717.0 0
357656.0 590935.0 0
363617.0 590923.0 0
372342.0 593293.0 0
367803.0 594550.0 0
376840.0 594518.0 0
381958.0 594008.0 0
389023.0 591379.0 0
393544.0 594982.0 0
401882.0 592598.0 0
411235.0 594621.0 0
423753.0 594484.0 0
438137.0 592172.0 0
435521.0 595383.0 0
442900.0 591099.0 0
448612.0 590687.0 0
453867.0 592492.0 0
461437.0 591403.0 0
469265.0 595502.0 0
473989.0 594768.0 0
476824.0 592284.0 0
480620.0 591008.0 0
483000.0 594766.0 0
489066.0 591936.0 0
493847.0 593212.0 0
497897.0 593120.0 0
2915.56 598745.0 0
8320.94 596931.0 0
14723.6 597254.0 0
18187.7 600671.0 0
20833.7 596593.0 0
25836.3 598643.0 0
30553.6 595891.0 0
34501.0 597805.0 0
38855.3 597433.0 0
45776.1 599757.0 0
50219.4 596961.0 0
58057.0 599933.0 0
63346.9 599483.0 0
67899.6 599228.0 0
78124.1 596657.0 0
81850.9 596479.0 0
81744.3 600187.0 0
91557.2 596297.0 0
86843.4 599999.0 0
97102.0 600043.0 0
102972.0 596735.0 0
109051.0 596000.0 0
113555.0 595590.0 0
116943.0 598007.0 0
112416.0 600135.0 0
121704.0 595801.0 0
128747.0 600389.0 0
133834.0 595529.0 0
140248.0 596418.0 0
144803.0 598981.0 0
149681.0 595394.0 0
153351.0 599556.0 0
158375.0 598783.0 0
163011.0 598766.0 0
168298.0 599292.0 0
171992.0 595618.0 0
174268.0 598633.0 0
181900.0 599757.0 0
186837.0 599894.0 0
192476.0 598508.0 0
197577.0 600340.0 0
201823.0 598829.0 0
209244.0 596513.0 0
214756.0 598677.0 0
219161.0 599243.0 0
222397.0 599260.0 0
231913.0 599745.0 0
237167.0 599571.0 0
242272.0 598663.0 0
247730.0 595564.0 0
252500.0 599277.0 0
255651.0 595684.0 0
256665.0 600307.0 0
261491.0 599950.0 0
267147.0 599395.0 0
277457.0 598622.0 0
286709.0 598641.0 0
291481.0 596156.0 0
300277.0 595331.0 0
296537.0 599104.0 0
302523.0 599586.0 0
307510.0 599248.0 0
312137.0 600334.0 0
316622.0 597066.0 0
320925.0 600323.0 0
321581.0 595334.0 0
331743.0 599813.0 0
342942.0 598794.0 0
347349.0 596112.0 0
357804.0 597150.0 0
362201.0 600349.0 0
363149.0 596009.0 0
366264.0 598975.0 0
371864.0 598256.0 0
376598.0 599006.0 0
380741.0 598587.0 0
387039.0 596450.0 0
396654.0 600003.0 0
399095.0 595945.0 0
405501.0 596614.0 0
412612.0 599549.0 0
416825.0 595656.0 0
421762.0 599273.0 0
426024.0 599585.0 0
430036.0 595496.0 0
432688.0 599810.0 0
437420.0 600238.0 0
440460.0 595771.0 0
442840.0 600448.0 0
445980.0 595834.0 0
451194.0 596488.0 0
452234.0 600262.0 0
458414.0 595645.0 0
464099.0 595635.0 0
461607.0 600431.0 0
467041.0 600154.0 0
472435.0 599202.0 0
478660.0 595698.0 0
477302.0 600109.0 0
482243.0 599504.0 0
487120.0 596595.0 0
491838.0 596768.0 0
493398.0 600216.0 0
496519.0 597428.0 0
1222.15 602424.0 0
2885.62 606041.0 0
6932.2 601465.0 0
8160.15 605687.0 0
11658.5 600630.0 0
13390.7 605292.0 0
18103.8 605130.0 0
22211.6 601607.0 0
27099.8 604610.0 0
31039.9 600758.0 0
36857.1 602450.0 0
41629.9 600655.0 0
42007.4 605315.0 0
47549.1 604588.0 0
52392.7 601184.0 0
56673.7 605224.0 0
61923.2 604370.0 0
67470.7 604339.0 0
71608.8 601193.0 0
76658.5 601741.0 0
84292.5 605508.0 0
91583.6 602259.0 0
102004.0 601993.0 0
99256.1 605216.0 0
107204.0 600964.0 0
109115.0 605122.0 0
113089.0 604699.0 0
118322.0 602804.0 0
122448.0 605640.0 0
122970.0 600907.0 0
135436.0 602260.0 0
139722.0 600560.0 0
143715.0 603958.0 0
148723.0 600690.0 0
151115.0 604772.0 0
157407.0 604303.0 0
163110.0 603538.0 0
167871.0 605114.0 0
172983.0 602909.0 0
177587.0 600577.0 0
178117.0 605137.0 0
183437.0 604528.0 0
188292.0 604388.0 0
192741.0 604037.0 0
197410.0 604984.0 0
202361.0 604200.0 0
205945.0 601770.0 0
212796.0 603969.0 0
217500.0 604106.0 0
222500.0 603974.0 0
226635.0 600366.0 0
233002.0 604323.0 0
237876.0 604454.0 0
242755.0 603257.0 0
246888.0 600392.0 0
248013.0 604649.0 0
252168.0 603477.0 0
256425.0 604532.0 0
260850.0 604963.0 0
265618.0 604594.0 0
272572.0 600608.0 0
276951.0 604715.0 0
281967.0 601393.0 0
286835.0 604528.0 0
291311.0 601319.0 0
298621.0 605370.0 0
304049.0 604198.0 0
308337.0 603627.0 0
312902.0 605508.0 0
316360.0 601925.0 0
326396.0 600449.0 0
323301.0 604448.0 0
333174.0 605121.0 0
337513.0 600757.0 0
342727.0 604522.0 0
347485.0 601198.0 0
351089.0 605475.0 0
352878.0 600470.0 0
358154.0 602623.0 0
368337.0 603235.0 0
378517.0 603154.0 0
384519.0 601547.0 0
391172.0 600983.0 0
401517.0 600693.0 0
398022.0 604996.0 0
408059.0 602033.0 0
403626.0 605289.0 0
412938.0 604823.0 0
417459.0 601296.0 0
422309.0 603780.0 0
429499.0 602352.0 0
434006.0 605176.0 0
440214.0 605416.0 0
448038.0 601034.0 0
452310.0 605358.0 0
456345.0 600759.0 0
464184.0 604451.0 0
469105.0 605467.0 0
474590.0 604078.0 0
479697.0 604080.0 0
484637.0 603772.0 0
489165.0 601514.0 0
493548.0 604127.0 0
497782.0 601985.0 0
1350.55 609929.0 0
5871.49 610686.0 0
11054.0 610033.0 0
16980.8 610271.0 0
22126.8 607184.0 0
28362.7 609918.0 0
32555.0 606342.0 0
37572.0 607800.0 0
42236.3 610449.0 0
46919.0 609734.0 0
52009.6 606716.0 0
62310.2 609577.0 0
66960.4 609269.0 0
72959.9 605915.0 0
78436.1 606850.0 0
89816.0 606723.0 0
87309.3 610239.0 0
94612.9 606387.0 0
97961.9 610419.0 0
104336.0 606230.0 0
108715.0 609975.0 0
116289.0 606726.0 0
114074.0 610434.0 0
119567.0 609931.0 0
128461.0 607775.0 0
134935.0 607447.0 0
139416.0 605601.0 0
138665.0 610075.0 0
147109.0 606512.0 0
143508.0 608984.0 0
147075.0 610200.0 0
151510.0 610555.0 0
162834.0 608761.0 0
167714.0 610110.0 0
173367.0 609192.0 0
177896.0 610184.0 0
181711.0 609701.0 0
187084.0 608995.0 0
193318.0 609968.0 0
198808.0 608994.0 0
202997.0 608777.0 0
208236.0 606159.0 0
207371.0 610492.0 0
212269.0 609367.0 0
217524.0 608874.0 0
222450.0 608998.0 0
227983.0 605638.0 0
226537.0 610165.0 0
231302.0 608970.0 0
236422.0 609204.0 0
241663.0 607905.0 0
247252.0 609745.0 0
253382.0 608797.0 0
258590.0 609137.0 0
262593.0 608958.0 0
266996.0 609506.0 0
270780.0 605720.0 0
273413.0 610075.0 0
277854.0 610205.0 0
282193.0 605792.0 0
281693.0 609309.0 0
286873.0 609727.0 0
292553.0 606406.0 0
301775.0 609653.0 0
306112.0 608454.0 0
310438.0 609454.0 0
318569.0 606427.0 0
327850.0 605684.0 0
331137.0 610030.0 0
337914.0 606585.0 0
346884.0 608029.0 0
356436.0 607832.0 0
362828.0 605945.0 0
368125.0 610096.0 0
373465.0 606250.0 0
382587.0 606207.0 0
384838.0 610581.0 0
388007.0 606110.0 0
393340.0 605605.0 0
394780.0 609892.0 0
400203.0 610046.0 0
404187.0 609150.0 0
408241.0 606966.0 0
413264.0 610166.0 0
418116.0 606378.0 0
422630.0 608757.0 0
426837.0 606112.0 0
431502.0 609677.0 0
436252.0 610267.0 0
446105.0 607075.0 0
459058.0 605900.0 0
462014.0 610692.0 0
473576.0 610021.0 0
484029.0 607858.0 0
479679.0 609672.0 0
488219.0 606587.0 0
492904.0 609566.0 0
497572.0 606570.0 0
2250.33 614073.0 0
23766.3 612070.0 0
28187.6 615213.0 0
33165.4 611684.0 0
38029.1 612282.0 0
47147.7 615528.0 0
51608.3 611441.0 0
56961.6 610764.0 0
63541.9 614878.0 0
71119.7 610704.0 0
68368.7 614320.0 0
75919.5 611064.0 0
72724.4 615317.0 0
77337.5 615628.0 0
81712.7 611924.0 0
87384.8 614632.0 0
92169.3 610920.0 0
103342.0 611870.0 0
107496.0 615170.0 0
112134.0 614470.0 0
117164.0 614420.0 0
124104.0 612509.0 0
128350.0 613776.0 0
133689.0 611760.0 0
137503.0 615093.0 0
142896.0 614242.0 0
147987.0 614254.0 0
157454.0 610640.0 0
162939.0 613841.0 0
167343.0 614647.0 0
172149.0 615060.0 0
177548.0 613895.0 0
182519.0 614616.0 0
186762.0 613988.0 0
190979.0 615614.0 0
197801.0 614788.0 0
203480.0 613729.0 0
208216.0 615017.0 0
213238.0 614495.0 0
218071.0 613923.0 0
222087.0 613893.0 0
225891.0 614450.0 0
230880.0 614479.0 0
236668.0 614428.0 0
242498.0 613851.0 0
248065.0 615287.0 0
252456.0 614931.0 0
256695.0 613443.0 0
261161.0 615415.0 0
266716.0 615306.0 0
272397.0 614685.0 0
277868.0 615451.0 0
283172.0 613424.0 0
288412.0 615166.0 0
290904.0 610897.0 0
296021.0 611329.0 0
301068.0 614246.0 0
307463.0 614560.0 0
314892.0 610872.0 0
319922.0 611469.0 0
325438.0 610985.0 0
322984.0 615505.0 0
335909.0 610547.0 0
332044.0 614925.0 0
341804.0 611179.0 0
351214.0 610900.0 0
346998.0 613112.0 0
356006.0 613655.0 0
361260.0 612044.0 0
368174.0 615164.0 0
372964.0 613594.0 0
378671.0 610844.0 0
382681.0 614252.0 0
386844.0 615338.0 0
389975.0 611217.0 0
392501.0 615629.0 0
397642.0 614846.0 0
402752.0 614572.0 0
407141.0 611815.0 0
411571.0 615089.0 0
418374.0 611074.0 0
422423.0 614133.0 0
427079.0 611352.0 0
432385.0 614431.0 0
437861.0 615435.0 0
441221.0 611113.0 0
446045.0 612308.0 0
451491.0 612022.0 0
457216.0 611387.0 0
461926.0 615793.0 0
467334.0 611473.0 0
477495.0 614704.0 0
482561.0 614951.0 0
487121.0 611977.0 0
492374.0 614951.0 0
497910.0 611142.0 0
497186.0 615096.0 0
5546.37 616107.0 0
10593.2 615944.0 0
17131.3 616748.0 0
22608.3 616809.0 0
33497.2 617127.0 0
38911.5 617044.0 0
43019.6 618815.0 0
53072.4 616397.0 0
58260.7 616032.0 0
82759.3 616808.0 0
92659.9 616090.0 0
98321.0 615952.0 0
102962.0 616566.0 0
121332.0 615829.0 0
125574.0 616708.0 0
132146.0 617321.0 0
153407.0 615953.0 0
158656.0 615966.0 0
293348.0 615738.0 0
297245.0 617216.0 0
313376.0 615810.0 0
318450.0 616235.0 0
327276.0 616523.0 0
337353.0 616013.0 0
342537.0 617128.0 0
351534.0 616329.0 0
346955.0 617087.0 0
359399.0 617175.0 0
364213.0 616396.0 0
372306.0 618041.0 0
376831.0 616069.0 0
406810.0 616837.0 0
417207.0 616364.0 0
427502.0 616544.0 0
443171.0 616065.0 0
448016.0 616162.0 0
452621.0 617807.0 0
457037.0 616005.0 0
466845.0 616768.0 0
472021.0 616170.0 0
488064.0 617024.0 0
POINT_DATA 5000
SCALARS Radius float 1
LOOKUP_TABLE default
5120.0 5840.26 5073.35 5415.48 2356.98 3863.18 6182.6 5492.18 5258.36 5061.3 6810.52 5670.04 4834.9 5085.53 4998.37 3951.75 3642.12 3163.97 5812.43 5906.14 5484.19 7513.1 5254.28 4436.4 5733.48 5580.89 4672.91 3588.44 5645.7 4366.19 5553.16 6110.27 3672.51 5561.06 6044.04 5484.83 5351.6 4715.55 5867.73 4499.64 5013.56 4375.68 5542.27 5122.66 5170.02 3557.27 4688.68 4402.52 4517.56 4182.53 5903.42 3761.32 5176.86 4118.05 5065.13 4940.78 2938.66 4008.92 6716.79 3850.77 4133.88 5546.39 5325.36 5538.89 4730.36 6059.59 5701.86 2720.68 4238.81 3563.63 5054.98 4468.59 6030.06 5325.02 5200.76 4927.31 4862.64 5185.34 4432.58 3968.64 3955.56 5292.64 6166.5 5936.02 3615.22 5305.17 4380.59 7613.27 3936.02 4780.03 3383.4 4665.12 4927.02 4094.62 5945.65 6759.9 7021.47 5926.61 5416.38 4955.55 5836.15 4345.55 5885.03 2837.58 5017.13 5246.2 5279.39 3673.74 5205.43 6684.56 4688.67 7447.37 2635.86 4385.06 7184.19 4290.3 3379.84 4231.61 3942.53 4827.82 3607.45 4951.03 5759.91 4333.2 3038.33 5252.48 5495.39 3856.1 4044.71 5980.74 6483.19 6230.49 5418.62 4601.27 5493.32 5740.68 6051.14 4195.44 3261.21 6704.06 3653.41 3871.88 3856.01 4390.66 5541.59 4124.71 4827.23 6116.18 4911.47 4381.97 4924.6 3255.82 4733.32 2812.98 3867.67 2899.43 2924.37 4861.08 4003.05 5390.22 4805.87 3589.27 4712.33 5227.21 3997.1 3260.67 5529.52 4295.38 4392.68 7199.21 5337.48 6124.89 5708.81 3554.9 3996.0 4015.92 4487.31 5816.2 5109.54 5693.81 4174.52 3829.13 6458.82 7054.71 5489.43 3641.64 5747.75 4277.89 4796.33 5054.25 5539.32 6496.85 4794.96 5600.93 4874.39 5083.08 5728.85 5803.39 6337.56 3998.5 5863.59 4024.3 6257.19 5242.73 4065.69 5603.15 5399.73 4695.45 3888.21 4660.72 6038.78 5697.78 5123.52 4667.36 4091.31 4254.17 5615.42 5255.32 4523.7 6037.08 4382.74 5601.05 4049.23 3586.91 5481.78 4929.8 5542.21 5043.05 4002.16 4138.16 3486.22 4684.5 3091.3 5789.98 6138.47 5527.54 5573.7 4727.62 4055.8 7325.81 5360.19 6425.26 6186.19 4839.34 4484.76 2980.99 4840.01 6834.49 5525.39 5938.34 6394.38 5555.28 4737.14 4686.65 5556.96 6052.7 3921.18 5891.05 3798.62 6902.81 6644.76 6372.62 7565.34 5091.39 6756.95 6324.23 4727.24 4151.94 4685.34 4651.28 4384.42 4516.43 4362.19 3103.0 5637.59 4948.92 3115.91 3307.12 6084.86 4937.14 5478.92 5924.89 4778.34 5551.36 6894.71 4414.54 2540.31 6029.66 6302.8 5697.4 4270.95 5206.78 5555.88 5280.17 5143.58 5028.96 6362.12 5152.36 5611.2 7933.0 5173.87 4455.12 5380.13 5711.87 5118.27 5169.36 5834.74 5788.23 5581.75 6392.01 3666.57 5308.1 4937.02 5629.19 5090.24 4786.6 2240.39 5923.5 5096.78 4612.68 5293.9 4129.43 3320.52 6142.94 3843.58 4931.38 4736.58 4329.05 6082.81 5110.37 5927.43 6355.42 3693.63 5690.56 4493.48 5762.84 4749.8 5810.84 5094.44 4467.94 4850.81 6038.14 5120.49 5262.61 4306.53 5409.61 5094.81 6038.2 4005.44 5713.22 6732.43 3183.98 3866.16 3794.63 3778.1 4524.28 4511.82 5826.64 4220.65 6820.42 4816.2 4894.16 4896.52 3372.79 4941.22 5932.23 5791.61 4479.66 3369.13 5367.2 3043.85 5461.13 6730.19 4907.89 4907.06 5655.21 3735.44 4073.93 4645.41 5740.84 4433.59 4973.83 5530.87 4310.18 3912.37 4281.49 6342.25 4602.25 6691.39 4270.53 4194.5 5191.63 4501.51 4792.73 5513.6 3485.26 4556.36 3240.09 5664.98 3191.99 6327.9 4048.37 4659.59 5492.26 4220.88 5244.78 3937.74 6640.13 5478.47 5082.6 6142.37 4230.54 3748.24 4655.49 4933.21 5375.47 4566.18 4723.12 4964.09 5201.36 4809.42 5024.9 5659.17 6135.57 5972.06 4312.67 5861.71 4270.24 4359.04 5017.78 5015.69 6175.81 4727.24 6677.09 6959.81 4829.35 5201.67 6321.41 4089.76 4751.02 5184.56 3192.41 5282.64 4987.87 4715.72 4669.66 4808.52 5607.24 3599.45 4726.76 5839.13 5495.68 5163.9 6043.3 5952.75 6445.94 4320.28 5542.14 4218.06 7134.64 4790.08 5082.47 4840.84 5344.25 5344.0 4593.7 4043.57 4478.15 5379.87 5925.6 6013.14 3708.04 5138.31 4901.41 4621.75 5264.06 3688.8 3369.23 4548.16 5449.18 6519.71 3092.35 5210.03 5351.39 6061.47 5119.37 6163.38 4997.27 3459.9 4093.08 5543.27 4717.05 5287.2 4234.94 5998.38 4562.29 5423.8 5013.13 5080.66 3417.33 4989.15 4926.42 4164.13 4642.34 4520.1 4947.52 4305.57 5874.89 5813.4 4389.21 3791.79 4424.7 4754.05 4925.44 5526.55 4951.47 6084.93 3315.57 5215.15 5804.71 4764.96 5046.33 5020.12 5727.3 5053.92 4242.52 6352.26 3057.03 3847.38 3818.59 4863.72 5489.34 5002.48 5708.14 5537.72 4931.53 6332.36 6122.55 5480.13 5978.9 6308.71 4187.56 3629.62 4997.27 5135.69 4301.06 3456.98 6045.46 3815.26 4763.45 4150.99 4107.03 3771.48 5681.38 5198.77 4138.42 5147.67 5987.17 3979.82 4602.86 2765.2 5006.58 4581.13 4219.07 4551.24 5358.59 3610.4 4515.71 6387.01 5367.52 4322.15 5025.39 4714.54 3629.96 3320.11 5030.91 6022.17 3982.23 4583.31 4503.89 5806.08 4336.42 5243.29 4853.39 4449.22 5628.24 5856.11 3327.49 4109.88 3960.8 4980.85 5714.58 5110.45 5248.77 5208.32 3296.27 4083.97 4607.02 5153.74 3895.51 4528.09 4293.03 4165.81 6291.51 4128.98 5882.89 6246.22 5246.61 4307.28 3697.96 4739.42 5538.93 4899.11 4745.45 5281.28 5356.51 4277.88 4087.15 4143.08 7500.97 4262.82 6623.85 3920.42 5102.36 8332.24 2739.94 6155.31 4223.33 4716.19 5911.67 5514.76 6405.76 4290.14 4020.32 4877.67 5445.87 4245.72 4216.92 4177.94 4704.72 4571.7 4742.68 3929.19 4502.5 4271.69 5922.5 3970.25 3633.87 5643.58 4292.06 5577.04 5011.31 6318.18 5586.81 4481.53 3948.17 3856.59 4746.52 5413.79 6338.89 6202.55 7111.16 5893.5 3817.13 4547.19 5507.24 6851.54 5570.3 4306.11 3402.32 7589.94 3130.65 5004.67 5365.89 5992.26 5070.39 4923.9 3329.99 4973.78 3947.47 5091.68 4713.25 4204.84 6243.0 6673.96 3556.85 3161.47 5441.96 5174.89 3435.9 4288.3 5370.52 4188.32 4100.38 5774.81 5344.77 4723.48 5027.98 5097.87 4278.07 2631.9 7267.18 6255.18 4668.71 4758.21 7228.46 3948.23 5228.18 5787.31 5065.11 4342.9 4553.56 5329.64 6695.82 3323.28 5709.62 5835.78 6562.18 3498.2 4541.21 5908.1 6048.7 4344.58 5896.46 5634.83 5495.84 5782.6 5113.21 4862.21 4011.77 4527.08 5499.11 5347.48 2775.04 4138.46 4850.01 5215.05 3821.72 4986.77 5137.34 5330.45 5077.33 5423.0 3689.45 3824.16 5572.95 6723.16 5584.06 3686.21 6480.17 5023.15 3844.9 4377.07 3695.36 5101.59 3963.86 3813.22 3848.93 6020.48 5935.47 5903.66 4528.49 5419.37 4466.03 5409.33 4511.54 4898.94 5196.0 4613.31 4733.04 6119.09 5788.66 7531.29 5069.25 5048.89 3991.03 6390.78 7435.25 6826.57 4652.29 4495.87 3746.31 6022.72 5498.32 5527.33 5346.27 6475.1 2691.29 6256.02 5320.92 6362.14 4406.1 5034.59 6719.88 5978.82 3927.99 5069.84 5868.82 6049.55 4050.9 4051.44 4241.89 5054.74 5941.72 5794.24 3066.13 4127.74 2476.04 4302.5 4156.38 6009.88 6006.16 5316.75 4164.68 5022.8 6268.1 3784.5 4178.4 3719.84 5820.48 7034.11 6261.42 2586.12 6125.34 5965.78 4374.35 6396.74 4810.12 6898.19 6035.6 5198.29 4044.45 3975.31 5344.43 5125.78 4373.47 3868.18 5045.38 5350.88 5372.61 5130.91 5402.24 4519.22 6445.22 4564.34 3838.56 4871.44 5076.35 6375.99 5200.05 5273.35 5234.29 5313.66 2651.49 4645.58 5512.23 5275.32 4711.62 5985.29 4247.23 4178.15 4268.65 4694.83 4354.08 5509.42 4520.62 3903.75 4755.47 5935.03 4485.99 5475.8 5314.69 6050.81 5543.46 4788.87 4249.46 5965.81 3702.37 4643.31 2330.66 4177.19 6917.52 4969.21 4880.14 2845.98 4982.31 5289.52 5269.18 5314.85 4305.43 5450.44 4942.77 5080.18 5266.5 4454.63 4523.88 4066.38 3279.1 4978.31 4099.77 4414.48 4981.9 4537.32 5991.09 4656.78 5105.16 4678.38 5448.61 5050.65 4827.33 7055.53 3937.08 5513.57 6133.92 5013.67 5729.23 5669.65 5934.22 3780.23 3471.03 4359.62 5253.55 5011.84 3745.84 6946.21 5433.8 5975.63 5252.34 2965.79 7099.43 5526.14 5315.4 6449.45 3627.82 5262.19 6070.58 6034.41 5452.83 4959.34 4948.5 4527.02 4591.87 4531.14 4247.15 5013.42 5651.07 6248.81 5872.05 4853.02 4091.8 6259.23 5181.4 5670.2 4114.24 5349.31 4649.22 5394.55 4256.43 5094.52 5936.36 4946.74 2682.24 5928.32 5229.48 5475.7 5127.16 4016.18 5435.74 4244.99 5327.45 5560.26 6185.89 3997.96 4750.17 5660.85 3990.25 3691.0 4752.51 3758.07 3587.05 5402.21 6229.37 4989.09 6718.19 4307.48 3848.54 5941.4 5331.02 6510.17 5742.65 4263.33 5592.32 5912.61 4403.98 4948.98 4560.84 5227.52 5163.02 4729.43 4092.24 4562.74 5126.91 3942.07 5133.97 7443.72 5371.02 5260.34 5206.48 6586.45 5826.04 5624.49 3095.48 4861.06 5339.78 4166.08 6481.79 5960.66 3979.26 3999.48 6608.73 5188.81 4203.26 5696.88 6057.22 5690.26 4156.2 5062.71 4497.59 4289.17 5564.02 4274.61 4410.55 6444.77 4287.63 6314.07 5776.37 4516.28 4190.31 5678.96 4244.9 4285.32 5490.43 4986.51 5022.28 5197.52 5178.99 5383.07 4790.78 6422.84 6552.22 5379.09 4602.85 5210.48 4962.77 6101.92 5323.3 5088.44 4998.21 4662.56 3457.48 5166.79 3405.98 3931.07 2976.22 5417.15 3688.16 4681.72 4945.39 5996.33 3950.63 5415.19 4612.62 3619.07 5526.75 4467.04 4275.57 6385.23 2983.99 6363.92 6205.93 4439.35 3460.94 5830.72 6184.4 3828.81 4373.45 4236.14 4407.87 5733.62 5282.51 5282.91 3797.33 4425.84 7256.35 4871.96 4800.69 4863.23 4402.67 5381.16 5565.13 4470.61 6193.35 6086.96 3701.27 5233.78 4806.34 5776.57 7144.24 5683.26 3600.43 5598.74 6600.94 4788.58 4709.35 6155.1 6496.67 5876.71 5226.0 4373.3 5762.59 4750.78 5374.51 5320.28 5224.12 4850.14 4569.12 4298.67 4796.58 5873.69 4962.09 6222.42 5654.31 4730.41 4643.85 4004.04 3923.03 5082.74 5607.14 6915.83 6072.45 4027.46 4470.98 5759.46 3921.08 7055.42 5486.68 6048.86 5100.25 6894.26 5311.03 5339.38 6169.11 5615.35 5172.53 4027.09 4135.62 4502.18 5801.99 5534.94 7552.94 4051.34 3627.55 6239.84 4635.6 4256.67 6079.11 6430.39 7440.72 3949.6 5703.6 6326.18 5661.62 6631.19 6648.68 5626.61 4713.74 5407.78 5817.25 4084.49 2614.4 5061.98 6632.99 4537.6 4923.24 4419.61 7177.44 5309.98 4082.57 5255.18 5169.9 3004.16 4460.92 5945.89 4042.28 4105.55 4340.76 6566.1 3555.86 6065.22 6386.78 4996.99 4631.83 4384.88 6887.27 6008.49 5653.9 5046.21 4906.82 5894.61 5687.83 5131.24 5004.23 5196.67 6442.69 6320.71 5474.8 6262.72 4648.04 5029.78 3664.11 3365.82 4123.6 4163.5 7092.87 4538.95 4970.88 6739.08 7042.12 4471.58 3637.61 5463.38 6098.14 4472.17 5750.71 4938.74 5470.77 3474.39 6062.05 4831.47 4735.33 5411.85 3999.94 5092.37 4844.57 6171.13 4864.22 2395.5 3901.8 5511.88 5083.41 4512.11 6248.6 3836.45 5683.61 5805.86 4049.02 5346.68 4470.4 4611.53 5255.12 4285.66 4896.11 4238.4 4318.48 6132.95 4860.33 3685.13 7644.38 3312.06 6004.68 3361.26 6799.4 4409.63 5865.39 4427.28 3661.9 3082.32 5370.85 5949.46 3658.37 3178.54 4765.02 5376.71 4448.13 5070.29 4807.28 4867.08 2261.36 4266.03 5280.69 5075.55 4220.03 6923.84 5449.46 6179.96 6113.54 5147.36 6260.79 3963.76 4563.46 5528.53 6553.94 5726.66 5460.65 4767.78 5235.17 4779.5 4421.12 4435.36 5254.49 4221.28 4456.39 4896.39 3633.79 6081.14 5480.83 4220.46 4607.85 4287.53 5612.21 4929.14 5945.08 5139.5 7493.3 4814.55 5833.06 3527.05 6607.87 4143.78 6515.84 5965.15 5724.64 4925.63 4763.66 4888.6 4666.81 5078.86 4797.52 4780.2 6326.39 6643.85 6343.14 5501.93 4020.95 5462.21 6313.06 5945.21 6345.13 3493.7 6470.3 4200.03 4719.7 6939.12 5516.95 4406.4 4413.85 3905.51 6853.85 4020.4 3497.9 5941.61 4933.65 6098.1 5708.99 5443.58 4558.46 5687.85 6401.43 5020.71 5296.29 5997.88 2681.29 5094.48 5839.71 3872.61 5576.92 6408.83 3930.79 4004.35 5266.22 5226.97 5754.18 5180.76 3418.99 4480.95 5278.36 6218.95 5521.25 5107.23 5136.08 5558.68 3776.94 4010.57 5629.39 2684.03 6157.04 4768.61 4522.21 5506.19 6719.94 4950.67 5227.59 6166.29 5453.6 5703.07 5294.77 4662.43 4709.05 4043.66 4630.82 4813.08 6799.88 3062.43 5426.78 2967.38 5652.0 4159.35 5463.41 5225.33 4237.98 4929.75 6045.22 4614.3 6649.96 5134.39 4303.19 5514.84 3914.2 4256.57 5421.53 5937.08 6070.3 6000.7 5128.57 5604.21 3979.54 3169.67 4968.03 5304.13 5944.09 5490.58 4863.79 5698.77 3464.83 4702.06 2477.07 5117.47 2990.77 3163.78 4721.32 4305.16 3293.56 5882.65 4918.77 4739.14 5163.55 4636.5 6817.32 4819.73 3382.7 6471.55 5085.71 2965.01 6263.44 4319.79 5960.56 4863.27 5774.97 5122.63 5862.86 6049.79 5374.98 5226.56 5274.19 5599.49 4097.57 5313.22 5017.5 5563.79 5328.22 4151.76 6484.17 3493.47 4721.02 4596.75 4254.37 5782.48 4031.78 3374.08 5564.23 5950.04 4231.83 2435.33 6333.29 4558.47 5731.57 5662.55 5737.92 4360.23 6234.32 5365.24 5293.51 4763.96 4446.06 5008.63 3450.93 4270.74 5132.68 6595.03 4993.35 4983.39 5222.16 5366.52 5533.72 5533.42 4802.32 4599.38 5246.47 4187.31 6191.29 7422.36 5161.01 4298.15 4628.4 5832.37 6051.83 4642.93 5409.63 4263.16 3077.84 6024.75 6109.49 5860.67 4540.86 5990.52 3764.1 4835.83 5604.35 6477.91 3091.67 6439.37 4081.97 5401.99 5580.92 5784.3 3532.3 5769.98 6088.68 3583.21 5442.32 2221.99 4643.56 4135.08 5620.74 4863.01 5233.29 5356.79 4778.82 4312.56 5204.04 4612.06 5467.84 3361.92 4750.58 3306.14 6710.88 5395.14 4923.41 3967.48 4497.31 6213.04 3830.46 6413.11 5092.28 5529.42 5274.14 4434.19 5100.1 4903.82 4940.42 4371.99 3954.91 3703.1 4946.42 5923.4 3295.83 4963.34 5499.39 5644.82 6413.02 3492.19 4118.84 4584.5 6766.43 5548.29 2315.64 5916.16 4703.08 4390.41 4890.5 6113.95 3731.84 3981.07 4050.08 5452.42 4901.07 5186.3 3436.15 5711.11 4216.17 4575.94 4938.72 3546.71 5768.57 4188.87 3735.24 6574.95 4074.48 6817.57 3614.96 4477.04 3886.68 5703.74 4747.55 3056.7 3755.95 5591.76 4585.31 4586.19 6625.18 5323.91 5097.45 6293.89 5737.75 4558.15 2761.07 3778.02 6552.21 4690.55 5417.8 5146.37 7132.12 3678.08 4836.16 5518.57 5151.11 5463.48 3240.51 5730.33 4527.99 5545.46 4543.1 4376.7 5190.61 8325.01 3764.06 4440.81 5941.9 3973.12 6642.76 5829.22 4497.78 5567.93 5987.42 5332.65 4442.22 6451.33 5413.31 6316.56 4332.87 6420.81 4715.58 5208.14 3317.83 4450.7 5151.52 5973.33 4347.74 5291.9 5067.46 3580.58 2511.46 4011.37 5657.36 6124.08 3619.79 5029.47 5053.95 6667.68 5235.11 5211.38 6031.67 5384.76 5257.12 6138.12 4428.78 4965.89 5746.28 5187.7 5659.95 6090.91 4152.85 3561.29 4082.47 4623.61 4219.78 4188.3 4453.64 5081.78 4459.28 5019.93 5235.29 4260.92 6116.33 4479.94 6250.23 4407.9 4440.57 4718.54 6235.57 5412.31 5203.08 3623.87 3087.09 7480.41 5163.77 6934.37 4488.85 3423.15 3554.48 4579.69 6496.52 5005.85 5966.61 4893.49 5325.44 5102.75 5021.88 4597.29 5956.65 4200.09 4498.25 5931.77 5151.21 5108.06 5398.64 3573.73 4693.52 6853.04 3420.08 4745.43 5831.96 5464.68 4539.07 4475.83 2685.81 4510.8 5889.35 5010.04 4394.56 4570.98 4275.07 5825.38 4185.61 4047.87 4573.72 5742.47 4917.99 4367.78 4350.12 5227.02 5670.0 4232.16 5300.96 4344.51 5680.94 3781.77 5581.55 5193.01 6550.44 3474.5 3860.83 5732.27 4523.39 5278.56 5434.47 6917.62 5631.14 4243.79 5811.18 4343.78 5433.65 4008.15 4887.76 4669.06 4811.32 3012.99 4286.49 6400.08 4743.59 5829.32 4396.25 3763.05 5092.24 5369.08 3101.75 4518.04 4766.06 4009.62 4874.18 2081.58 6505.78 2775.69 4785.25 6519.43 4270.15 5876.64 6306.21 5424.46 5926.11 5266.01 5253.37 5767.9 2978.76 2040.66 6622.11 6515.8 4689.15 3685.13 6790.73 5243.43 4655.16 4741.26 5920.32 5409.66 4537.14 4186.6 5551.9 5251.4 4345.67 5511.6 3885.86 6261.75 4517.73 5177.64 4338.08 4752.14 5660.16 4255.31 4541.8 6134.99 5453.3 3838.47 2588.37 4062.5 5887.15 6736.03 4435.51 5374.07 8659.64 4588.7 3766.55 5683.95 6027.62 5469.13 5010.2 5765.42 6123.03 6098.95 4997.83 3991.42 4388.63 4834.87 2216.82 3672.21 5760.22 5938.17 4795.43 5097.95 4914.45 4222.4 4698.87 4000.43 4661.03 4568.41 3624.7 4912.04 5262.35 4691.91 4255.34 5064.79 5480.3 7509.24 5896.26 5388.78 6101.13 5099.21 5599.7 4163.74 6969.28 5636.4 3665.95 5698.96 4095.75 3603.51 4298.45 5222.51 6609.84 5135.96 3834.43 5658.37 4707.06 6074.94 5491.37 4250.88 6348.03 3783.54 3475.67 4792.39 7038.89 5146.37 3863.67 4814.12 4013.38 5067.56 6137.8 3352.35 2735.53 5263.3 4909.65 3747.03 6523.86 7693.4 4326.48 4437.07 6184.88 3449.37 5491.9 6405.0 5551.95 4659.16 3918.87 5549.49 4633.05 5423.42 6605.86 5012.5 5435.19 5461.55 3562.79 3298.2 6865.76 6449.64 4857.84 4908.49 7016.27 5884.9 5089.62 3468.42 3685.65 4590.55 4673.35 3876.21 5869.4 4916.22 3701.16 5297.19 6022.7 4255.85 3867.19 4765.72 5097.69 3988.3 5857.79 2908.7 3757.34 4039.91 6415.61 4378.3 5276.7 4687.64 4419.71 5411.02 4950.97 4989.56 5037.06 5175.29 5842.56 4094.73 5199.44 5191.08 5424.88 5415.85 7234.66 6599.66 4055.54 6419.12 4233.8 4976.12 4817.16 5453.98 5148.08 3718.69 6192.0 4514.79 4940.28 4509.89 6752.75 5269.38 3004.34 3022.6 5607.3 2928.82 4811.76 5313.12 5351.56 3984.88 5318.53 5160.59 4732.09 4281.98 4320.42 7165.9 5344.83 7046.11 3427.63 4146.81 6342.48 5756.75 4587.67 5951.81 3924.14 6918.35 4296.69 6238.32 3319.67 6471.42 5283.8 4076.59 5164.1 4428.14 6464.15 4479.11 4972.17 6685.4 5699.53 4222.77 6332.01 5268.38 5527.23 4805.33 5980.95 6193.08 6069.3 5887.01 5116.6 5168.35 5388.39 2783.85 4356.49 4526.81 5335.47 3994.07 4219.94 5907.46 6740.71 4264.91 5399.29 5789.55 2275.45 5971.22 4901.2 6522.59 5711.62 4383.56 4990.79 7093.13 4953.1 4516.53 5818.95 4093.99 3940.49 4962.21 6464.8 4749.59 4684.44 4680.94 4858.44 5799.69 5571.72 5689.26 3809.69 4771.13 4992.42 7051.9 4940.84 5895.77 4608.41 4184.23 4732.09 4833.46 5750.07 6136.49 6543.13 4642.66 5149.72 5036.58 5469.47 5329.59 4888.12 6119.63 5464.25 3498.16 5439.9 4244.21 4752.9 5512.16 3197.63 4287.16 3645.12 4617.55 4863.96 3456.47 5471.74 6200.54 5148.58 4199.45 5421.64 4858.51 4207.54 4886.12 3375.28 5625.65 4301.61 6107.89 3184.64 5206.33 4446.84 5660.55 5530.49 5065.26 5653.03 4304.41 5578.94 7610.49 5885.28 4286.17 6579.31 5323.55 5375.1 3804.5 4172.6 5498.42 4196.37 3344.57 6448.66 5220.76 6945.98 5138.2 5783.48 4701.5 4449.98 4504.35 4863.97 4771.65 4840.44 5093.82 6639.64 5212.43 5454.12 4834.3 6348.54 6804.79 6372.13 5369.5 5404.01 6016.19 4124.49 3230.13 5714.25 5325.96 4850.06 5016.02 7044.29 4234.18 7085.01 4049.16 3936.95 6153.94 6836.82 3862.77 4631.99 3185.39 4740.98 5128.77 3728.18 5633.61 5048.19 4243.26 6799.23 4888.27 4592.15 6487.56 4854.11 4998.22 5533.19 4909.31 5417.21 6602.43 4798.17 3568.28 5425.98 5166.79 2895.63 6479.39 4122.92 4997.91 5079.22 4599.81 3604.14 5381.54 4452.54 4406.05 5828.35 5089.1 4028.32 5876.72 5236.43 3208.96 5285.07 3858.06 4680.14 4144.57 4351.38 5550.75 5933.7 4809.67 4757.74 4356.25 5776.96 6045.67 4216.95 4209.49 5742.74 3946.28 3821.94 5984.81 4209.31 5486.48 5301.47 4409.27 5367.73 4947.24 4640.06 4588.99 3875.05 4321.21 3540.11 5950.45 4344.34 5713.03 4652.01 5849.65 3548.39 3583.49 3673.28 5052.84 4366.74 5297.16 4165.21 4603.5 4936.96 4647.67 4481.76 5375.12 5452.78 4356.36 4892.44 6789.23 3989.7 4157.29 4777.03 4246.61 3684.56 6028.09 5327.75 5452.36 4609.02 6486.37 4638.18 5211.6 3556.79 5806.31 4453.97 3503.41 7317.04 6412.67 7001.83 5012.97 5589.37 5439.49 3687.65 5216.26 4887.52 5478.95 3851.85 4066.57 5642.35 4206.98 5156.76 6357.47 4891.38 6101.57 5535.91 2949.12 5955.86 4532.89 6176.67 4533.37 4848.46 5412.24 2779.99 4581.37 4920.21 6942.34 5851.61 5478.11 5526.31 3858.17 5030.15 3477.1 3644.78 4078.93 5934.82 4501.78 7122.87 3572.94 5797.36 5001.58 4153.84 5119.86 5089.26 5084.17 4901.44 3776.8 5096.43 6156.21 6104.26 5583.61 6063.64 5996.66 4986.71 7382.3 4405.42 2995.67 4022.56 3598.08 5522.21 5698.23 5810.77 2711.19 4714.83 5474.15 7519.2 4884.59 4099.92 5217.95 6355.68 4478.6 4083.79 4511.7 4187.94 5980.59 4304.63 6834.41 5021.77 7248.4 6226.14 5466.33 5280.12 4801.8 7216.98 4444.97 3000.29 5046.12 5721.05 5271.02 7013.17 4247.69 3805.67 5718.28 4514.39 6242.79 6506.86 5088.57 5580.34 4928.27 3852.6 5134.67 5775.31 3332.49 4706.5 4215.0 5354.66 3566.79 4214.44 3629.44 5378.23 4787.97 5374.67 3746.36 4981.43 4741.28 4215.2 5069.89 2856.55 5107.0 6212.15 6813.72 4783.07 4946.23 4896.65 6083.28 6100.73 4745.79 5456.71 4908.75 3971.08 6204.65 4482.9 4593.7 4349.13 4036.91 4891.67 5110.11 6379.14 3634.5 6631.28 6571.31 4392.65 6318.23 4058.87 5174.75 5932.07 4984.46 5948.71 4793.65 3856.53 5460.89 6040.74 5260.85 5742.09 2884.65 5887.38 5807.46 4648.21 4393.16 3658.05 4549.69 3311.29 6423.81 6192.77 4312.15 6418.11 6015.02 4922.49 5585.14 7039.98 4820.17 4729.42 5244.98 3886.72 5415.45 6592.93 6350.71 6436.74 2460.79 4456.11 4653.83 6171.71 3628.89 4668.88 5027.43 3772.3 4855.01 7300.58 3608.06 6208.9 4923.57 3340.09 6633.61 6061.63 4867.7 2279.05 5484.36 4829.35 3953.55 4075.28 4063.9 4469.54 5263.27 4314.56 6300.92 3796.15 5161.1 3928.53 4173.54 5599.29 5606.51 5740.65 6038.68 3834.47 5067.56 2596.96 4807.4 6329.53 4350.15 4590.01 4139.3 6541.45 4601.74 6101.86 4263.78 4227.41 4750.49 5078.31 5993.0 4803.57 5391.48 5966.42 5131.15 4110.59 5210.38 4847.14 5717.8 3950.27 5116.66 3683.86 4918.76 5003.78 3299.24 6246.56 4061.6 5473.72 2603.64 6214.73 2205.51 4553.68 5361.87 3703.49 6502.97 3758.22 4757.2 4852.58 3205.68 4532.7 5561.74 5975.23 4788.08 4198.94 5470.04 4211.82 6556.26 5684.25 5438.92 4244.49 6550.4 5036.98 3766.69 5513.8 6818.91 3503.65 4521.75 4027.63 5569.2 5350.88 5420.67 6413.15 6103.11 5048.55 6459.51 4024.31 4955.16 5844.72 3992.97 4147.31 5989.05 4054.22 7228.94 5393.65 4961.99 6551.93 4595.12 3110.13 6484.43 3485.54 4625.67 4458.64 4583.52 3657.69 3492.83 4883.63 6280.13 5244.22 3684.15 5832.29 4438.76 6456.58 4159.81 4960.64 3965.3 5792.98 4385.81 4034.05 5690.96 5798.38 3862.91 4125.9 5096.24 5039.12 3908.98 3419.87 6589.82 4824.81 6328.42 7307.21 5522.75 3381.82 3619.72 5867.64 4438.58 6059.93 5602.53 5073.02 6545.43 4277.24 6760.92 4989.2 8137.11 5291.05 6650.77 4619.2 4067.96 4824.12 5166.41 7104.73 6162.3 6349.67 4264.54 3516.27 5261.19 7043.44 4263.65 4643.9 5228.75 6047.14 4923.43 5467.63 5009.83 5666.95 4642.2 4127.53 4811.22 5210.75 4474.83 6555.44 5293.75 4208.41 5730.61 5826.78 4508.18 6358.93 5175.89 3894.64 6618.21 4268.19 5232.85 4374.74 3717.47 4062.56 6200.63 4504.86 3217.67 4473.29 5079.64 996.652 6163.54 5212.37 6003.78 2628.22 5965.58 5058.51 4901.29 4050.03 4775.04 5188.53 4120.07 4882.66 3429.57 5410.33 4642.74 6735.97 5305.59 5416.45 4330.58 5754.6 3288.01 4904.51 2202.77 5751.15 5950.88 4149.55 4441.22 5853.89 3380.69 4140.4 4386.8 3639.44 5446.4 4725.01 5966.75 5510.9 4505.28 4971.29 5510.45 4730.14 2606.51 3994.39 6006.89 4618.73 3814.65 3668.93 4128.1 5372.82 4983.3 4402.17 7778.01 5127.82 5124.17 5805.1 5366.11 4064.58 4234.88 4384.28 5769.14 5944.3 3563.14 5135.5 5347.9 4646.51 5640.72 4565.93 5851.63 4504.52 7107.63 4831.93 5788.97 3472.91 4928.85 4023.93 5868.89 4711.04 5484.32 5007.21 7144.05 4506.18 2970.9 4099.26 5206.47 6542.5 4383.47 4834.39 5971.21 5701.75 3272.75 5262.47 3104.96 3512.94 4991.35 3831.52 4587.7 6106.43 4258.98 4807.35 6761.81 3903.91 4568.64 3919.62 4929.6 4368.28 5750.35 4489.99 4548.45 4658.11 4551.26 5658.14 5114.07 4385.49 7124.45 4383.68 5064.67 5836.26 2617.39 5144.44 4051.18 5969.37 6816.66 3844.54 5034.69 4509.46 3538.53 4680.69 4420.11 6500.49 3352.34 4972.18 4607.18 4124.76 7200.89 4813.33 4952.52 3840.21 6746.66 4954.76 3908.56 4844.83 5244.78 3636.15 6114.89 5135.63 6384.7 4355.83 6870.97 5351.86 6056.87 5474.01 6201.86 7554.58 5166.89 5491.63 5725.37 3868.62 5138.33 3743.76 3425.69 6711.21 4236.86 5393.76 4941.02 3864.92 4983.1 6119.99 2955.36 7123.04 4009.24 4446.58 5401.4 5053.15 5910.86 6239.68 7320.78 4834.44 4439.71 5782.43 4456.26 5113.6 4027.33 3873.92 4810.98 5091.22 5026.76 6282.38 4546.44 5657.55 5727.79 5212.92 5615.84 5043.14 4464.73 4717.73 6440.38 5556.0 3274.85 5545.59 5494.28 5610.53 4954.81 6304.49 4580.06 5755.15 4835.97 3926.11 5493.89 4057.17 7066.96 2781.96 4467.0 4431.23 4994.65 5917.34 5601.55 5196.92 4462.87 3787.08 5644.81 4013.86 6545.99 5334.36 4728.55 5630.9 4554.68 4512.07 4692.32 5984.8 4945.0 3127.83 4212.15 5678.58 6570.35 4263.18 3269.54 7142.95 4559.74 6015.22 6666.67 6063.44 4583.94 5046.31 4928.35 1937.5 5241.75 5849.53 4731.53 4651.99 3763.9 4788.7 5863.0 6127.39 5640.12 5329.76 3899.7 5078.59 2403.72 5134.33 4147.49 4802.98 4833.55 4081.34 3646.95 7224.99 6334.53 4749.96 5377.37 5652.87 5483.7 5018.69 3152.86 5952.38 3896.27 5973.89 5807.52 5963.36 5230.02 5307.35 4342.18 5169.48 6016.08 4731.21 3124.7 6064.71 6102.98 6060.17 5153.18 4763.4 5902.67 5454.11 3779.45 5806.61 5784.37 6010.59 3682.35 5906.57 3756.96 7541.76 4775.49 4681.29 3220.29 5499.59 5749.6 3845.9 4141.21 4174.44 5667.51 4708.31 4198.9 5431.29 4833.67 5023.41 5325.91 4092.07 4213.05 4224.3 4184.21 6203.03 4700.07 5235.87 5188.82 5273.37 4732.37 4985.3 3904.07 5072.5 5713.36 5748.9 5553.94 3663.0 3742.31 4546.96 5424.55 5134.72 4608.34 5695.79 6419.64 5464.83 3622.8 5414.58 5577.41 5740.98 4346.07 5759.79 4177.47 4218.16 2918.64 6139.64 4140.92 4896.43 5236.24 5463.06 4639.8 4585.04 3986.41 5260.52 3185.09 5114.23 4242.63 5495.0 7407.91 5064.23 6061.85 4454.74 5512.44 2904.46 4826.52 5120.92 4337.32 4685.4 6240.42 5146.0 5721.14 4577.73 4987.28 5084.5 4918.64 6638.25 4759.99 2646.13 5419.57 5162.67 5760.98 4705.68 5469.35 5384.86 4019.34 4658.24 5869.67 4311.48 4899.73 5457.66 6394.19 4848.14 5366.22 6193.73 5518.11 5087.14 3742.11 4192.21 5712.35 5701.52 4743.9 6776.22 5321.17 3719.11 4467.13 3877.8 6273.6 3667.93 5136.87 5024.32 4708.17 2741.2 5790.42 3142.09 5591.77 5182.13 6110.48 6245.52 4932.29 4990.23 3954.77 3784.94 6016.87 3125.13 6715.73 4564.41 5209.55 6331.74 5951.86 4252.18 4659.88 3791.41 5853.12 5157.38 4208.37 5702.4 5069.9 5473.89 6089.45 5810.17 4966.07 4657.24 4400.14 4749.18 3669.32 4704.92 4762.1 3987.69 4316.0 4287.25 4392.75 4921.1 3814.16 5287.25 4420.6 4475.38 4589.06 4770.51 4920.88 4184.47 6511.37 4216.44 3999.5 4012.92 5034.05 4598.54 5218.42 4816.51 5345.73 4933.49 4770.63 3990.94 4756.8 4357.11 5477.8 4462.35 6069.78 4241.68 6102.49 3469.18 2945.34 4095.83 3372.95 4489.29 4301.93 5846.95 5268.15 5819.0 6449.06 4924.07 3200.6 4629.02 5914.5 6006.16 4288.45 5407.96 6206.98 6562.03 4815.47 4368.12 4365.58 5214.4 4636.53 3629.49 5766.05 5117.64 3835.81 3916.42 4869.48 3623.19 4906.11 4387.39 4745.16 4564.1 5825.55 5509.51 5719.79 4316.5 3199.4 5254.24 4914.03 3597.43 5086.29 5144.56 4158.91 5311.55 3360.86 3034.16 4869.25 5049.99 5545.21 4333.87 5684.05 5638.7 5813.79 4644.88 4028.22 5293.13 7350.26 3768.46 5167.53 5003.3 4168.52 5800.81 5106.46 6793.1 5166.05 4506.66 5077.29 5515.73 4850.5 5426.4 5866.91 5763.05 5129.68 5357.39 5076.84 5247.01 4841.7 5685.74 952.938 6740.35 4678.7 3450.07 3673.6 5265.21 3306.84 4550.92 6215.87 5191.26 5866.42 5544.27 3484.81 6502.99 4666.12 6219.34 4271.07 4191.01 5674.63 5340.05 5995.4 5890.25 5700.79 6710.14 4726.2 4426.02 4711.15 5188.22 3825.48 4841.23 2804.54 5005.6 4176.32 5486.89 7208.19 5532.75 6949.65 4975.85 5695.25 5676.61 5716.42 5701.63 4620.95 6347.72 3460.93 4488.39 5124.86 4927.73 4602.57 3565.32 4608.62 4071.75 4626.72 5131.77 5549.71 4410.82 6443.99 3889.98 5193.58 5399.43 5695.44 3422.21 5429.3 5510.96 6653.07 5532.72 4697.91 3220.8 4584.81 5071.98 4371.08 7261.51 4968.14 5949.73 4312.48 5527.13 5139.18 4278.57 5551.43 6318.25 4201.03 5001.87 4493.79 4279.44 4899.19 5058.34 3918.94 5575.11 5487.63 3852.82 4507.36 7145.73 5403.97 4795.08 6562.92 4068.31 5501.73 3671.06 3612.44 7035.54 5233.76 4683.28 6405.69 2820.07 5679.74 4825.73 4851.18 4165.36 5288.33 6296.54 4871.77 5797.21 6019.35 6028.63 5927.2 5146.1 6485.77 6060.06 3869.39 5960.5 5308.33 6896.55 4685.65 5377.01 6023.07 6470.23 6506.63 4140.04 4668.8 3495.3 5125.17 5322.11 4697.49 5735.08 7133.44 4750.81 3953.26 4474.39 4658.59 3810.68 6478.35 4196.62 2809.19 5453.77 4916.7 5589.53 4549.51 5025.42 5196.08 3587.93 4517.29 4495.75 5323.95 4849.5 6171.01 5796.26 4603.04 5368.93 4870.94 5271.88 6121.56 7168.2 3763.85 4571.74 3419.07 4096.86 5710.33 5344.44 6432.8 3186.07 4369.86 4967.51 5173.82 7212.97 5490.64 5034.34 3604.31 4507.46 3769.2 5036.14 3468.45 5603.68 4944.51 5610.95 5042.75 5179.17 5579.39 5270.51 5148.1 5490.75 5224.64 5214.63 3495.68 5783.94 6370.33 5081.08 4202.77 6864.06 6008.81 4932.56 5192.49 3487.31 6643.4 4674.9 5461.72 6599.28 6224.85 4556.19 5368.66 5648.78 6875.73 4697.24 5226.42 4983.43 5117.52 6311.89 6734.39 4217.36 6549.8 5005.72 5368.52 5155.28 5811.26 5062.77 4884.93 6075.99 5262.79 4494.15 5035.71 4419.79 5407.69 5152.78 4117.9 5393.43 4753.76 4781.9 4638.09 4441.91 5330.26 5939.22 4215.05 4271.93 4859.01 4604.1 5524.45 5990.75 5600.21 5467.51 5459.92 4096.47 5114.67 4104.04 5353.66 2638.82 5030.33 5593.79 4965.24 5234.2 6379.38 6257.79 5353.23 6229.83 4468.26 5578.18 5293.37 5106.33 5933.54 5559.79 5879.24 5740.78 3622.48 4796.12 5001.51 5385.86 5115.42 4082.4 5482.76 3745.02 3720.7 4211.36 4887.73 5698.53 5378.24 4450.49 3856.73 5887.71 5635.32 4526.34 4827.61 4316.45 5409.08 5481.64 4598.92 5241.22 6647.08 4979.52 3422.29 4407.79 6548.29 3990.96 5352.24 7362.42 5793.12 5836.14 5473.05 5537.34 4373.2 5884.99 5726.42 7025.09 4433.12 2549.95 3392.26 4361.24 5138.93 6406.8 7086.69 6170.9 4436.48 6081.3 5615.35 3967.76 6213.24 5942.45 4228.53 4150.76 6123.46 6142.88 5111.26 5388.73 5205.38 4574.54 4764.83 4600.71 4841.28 3957.38 5507.38 6889.5 4710.88 5300.17 4052.43 4057.4 5534.23 6025.77 6815.96 5339.6 5828.25 4725.11 3626.86 6371.96 5322.07 5076.11 5770.07 5101.6 4282.11 6589.13 4625.53 2347.41 4542.16 3543.37 2030.03 5628.97 5527.27 5104.39 4612.13 5846.6 5327.05 5438.55 4434.65 5977.66 4523.81 5065.74 5198.94 4028.35 5464.05 2980.31 5453.2 3148.79 5997.91 4742.82 6791.86 4820.68 4209.0 4930.72 5728.58 6424.77 6297.99 5918.95 4538.89 5817.74 5661.6 5285.75 5385.03 4169.15 5673.75 5360.67 5968.54 6263.3 4501.05 5592.54 4537.03 3247.97 4114.2 4904.37 4326.06 4651.64 5034.46 5757.29 5016.46 5469.17 5061.75 3769.24 6022.78 4087.32 6647.85 2569.12 4161.32 5161.74 7336.37 5099.9 6945.69 5118.86 4183.4 4304.64 4733.79 5833.78 4823.06 5758.98 5254.49 5288.64 5987.88 3579.59 6161.94 4065.28 5057.59 4461.14 5285.6 5615.06 4949.55 3132.34 1969.87 5203.54 4047.95 6142.94 5001.69 4416.87 6581.56 3980.46 4896.67 5383.9 3934.11 5158.44 4466.22 4496.51 6153.71 5917.08 5483.37 5418.12 5934.05 4714.66 6771.18 4984.17 4656.01 5781.62 4037.86 5602.62 4138.59 5714.51 4484.78 4938.33 5157.73 5847.91 4934.66 4984.01 4109.44 4903.84 4290.49 6688.53 5209.5 6175.27 5791.25 4873.23 5410.6 5264.83 6348.93 6824.53 4332.64 5232.16 4422.23 4457.05 6031.22 3989.26 3618.64 5485.84 4335.79 5453.69 5432.04 5689.56 6556.86 3242.31 6099.28 5372.25 3234.26 4830.13 4778.37 3494.16 5134.17 4074.16 4904.35 5390.33 5124.34 5278.54 4358.81 5729.0 5729.92 4179.87 6224.13 4761.84 3661.67 5370.1 5517.65 4009.68 5114.51 4622.73 3303.49 5585.25 5256.75 6351.89 5932.28 2960.5 4298.7 4975.32 3902.48 6030.39 3909.94 4905.53 3799.01 7392.65 3757.23 5319.1 6828.8 4181.93 6883.86 3820.19 3350.99 4979.5 4745.37 5939.29 5418.98 5575.11 4052.49 5490.54 5326.03 6189.67 4948.96 5256.82 4013.86 4061.87 5165.31 3798.09 4288.5 3886.56 5715.51 4511.05 3456.3 6561.94 5259.21 5092.93 5881.93 2803.01 4444.0 6182.19 5327.39 4981.81 5141.03 4970.55 4621.33 4541.22 4767.54 4946.08 3539.68 4696.03 6217.33 4557.1 6270.59 5927.1 5876.51 6731.89 4103.76 2932.52 4733.41 4969.68 3901.53 5136.51 6815.51 5313.86 5189.91 5777.26 5703.84 3530.82 5797.32 4886.99 3921.27 3702.45 3161.1 5265.63 4898.29 4431.06 5730.2 5620.88 5370.9 4529.77 4325.13 4262.74 6172.27 3783.79 5078.73 4248.14 5279.19 4016.6 5192.92 5275.57 4786.66 5891.25 5095.52 5129.4 3720.38 4655.37 4731.37 5023.61 4672.86 6530.78 5560.23 3043.77 4139.39 5237.55 6264.03 5088.64 6589.8 6920.92 3729.16 3783.36 3038.91 3922.28 6570.43 3445.92 5236.69 4586.82 6026.04 6200.05 5859.17 4034.41 5061.74 5522.34 5771.98 4420.35 5717.45 5117.83 5268.27 4645.93 5448.64 4585.37 6417.61 3721.69 5395.12 5783.69 6074.39 5317.83 4256.08 6738.9 4460.89 4399.52 4157.1 4554.24 3939.96 5910.66 7415.84 4637.3 1458.87 5734.07 4840.44 8123.59 5765.14 4819.83 4801.16 5121.08 2927.84 5688.77 6177.68 4698.7 4605.39 2848.44 6045.26 6500.45 4907.55 4094.63 4286.61 5084.76 4603.66 4757.87 6636.43 5431.14 6298.8 3689.24 5178.07 5151.19 4171.02 7012.36 5028.06 4002.99 4293.3 5159.67 5587.3 3572.73 4864.38 5764.52 3770.22 5684.88 6523.78 4645.86 4045.67 6005.95 4941.52 4308.49 5900.0 4581.1 6241.77 5317.19 7360.12 6223.98 5821.49 7050.08 5580.44 5998.13 4746.15 6275.25 4758.84 3976.0 4452.36 4068.41 6463.71 5059.37 4742.35 5783.38 5645.54 4526.87 3562.8 4151.74 5192.82 5245.95 4174.22 3573.84 4067.89 6294.09 4571.57 5131.07 4121.07 3133.28 5524.28 5731.43 6353.81 3518.14 4150.44 2649.69 5044.68 5899.78 5000.74 5772.57 4813.81 5244.95 4634.25 5901.8 6351.48 3830.7 6210.0 5350.9 3483.61 4262.52 5992.06 8052.53 4867.12 6044.01 6520.19 5973.57 3997.68 6241.48 6033.28 6286.27 5071.38 5616.66 4802.36 5368.28 5466.13 6229.64 4220.43 6263.87 5743.8 6666.34 4645.91 6605.11 6834.92 3557.46 6379.33 5971.95 5652.73 3979.46 5402.45 6321.97 6412.84 6509.54 6119.0 2589.19 3792.06 5128.59 4993.49 5310.33 6583.37 3688.83 3402.44 4390.64 4848.98 5150.84 4608.01 5087.97 5339.82 4519.03 4930.17 5110.27 4745.44 4085.96 5762.82 4612.68 4232.33 5462.6 5617.29 3035.06 5770.92 4262.19 3093.38 4597.88 4845.91 4878.93 2002.78 6892.33 4505.3 4511.34 4491.26 4832.21 5009.21 5394.79 4379.91 4574.03 5290.37 5264.08 4227.66 4691.01 4594.89 5214.71 5821.42 4515.02 3463.53 6126.03 6044.69 2970.24 4197.87 5105.54 5462.1 6032.45 3414.67 5444.36 4026.03 6908.32 3467.11 4817.75 6153.26 5637.53 3882.37 5523.81 4095.4 4718.61 5188.57 3873.79 5357.33 5252.37 5432.4 5037.58 7430.48 5640.67 5545.68 6080.69 4970.12 4967.93 6369.66 5922.62 5125.45 5957.82 4188.16 6327.54 5507.07 2943.17 5327.71 4880.78 5257.38 5075.23 4975.56 7282.36 3826.01 3928.99 5581.01 4125.75 5130.57 5090.48 3985.93 6071.59 6079.55 3856.4 5485.61 4937.36 5308.4 4569.32 5537.61 6084.88 4491.96 4397.06 5184.98 4199.44 4467.51 4053.12 4479.5 6261.67 5460.57 5065.78 5703.34 4521.42 6668.98 6649.52 6043.34 4939.56 4747.68 4712.17 3808.04 4723.71 4461.67 5631.32 6322.0 5793.14 6345.2 4609.65 5704.61 5128.03 5410.73 4942.63 5087.3 5850.38 6139.74 7066.26 4730.97 3677.85 4677.84 5873.62 4811.11 4996.91 4924.52 4866.8 5314.67 5658.05 6593.1 4066.36 4000.51 6033.93 5011.37 2827.92 5516.37 4441.44 5092.44 4232.44 5336.61 3312.3 5563.09 4848.15 4439.09 3282.57 5648.59 6697.45 5717.67 5515.59 3224.81 4499.54 3775.38 4046.22 6457.89 4844.2 6572.17 3751.73 5555.89 4766.47 4871.1 5678.08 5872.45 4414.09 5191.29 3784.68 3717.22 6649.21 4654.92 5286.55 4322.56 5522.18 5509.09 5625.02 3873.72 5212.05 4829.77 6474.5 4444.92 6959.88 5749.53 5971.9 5247.73 3746.62 4876.37 5034.02 4769.62 5582.28 5945.25 5181.31 4696.06 4137.16 6189.29 5984.55 6581.13 5803.3 4721.98 5252.82 3543.98 5056.26 5878.55 4014.44 3435.13 6604.72 6002.77 4431.46 3794.47 4610.55 3207.84 4967.02 3977.98 4614.49 5400.69 4128.93 4462.5 4959.72 5573.31 5004.68 4023.88 4405.61 5348.11 6126.5 4034.88 6007.1 3511.5 5067.92 5488.96 3188.21 3720.92 4793.06 6637.38 4975.57 6916.18 6150.31 3057.3 3868.69 3920.44 5379.52 4450.51 3768.62 3851.47 4966.74 5563.47 5651.46 5639.4 3162.27 6185.73 4083.24 6520.96 5432.2 5217.62 4612.4 6178.19 4746.19 6381.58 5212.2 4798.13 5108.42 4630.5 6296.36 4432.32 4451.76 7885.41 5782.25 4104.97 4575.72 5114.61 6118.13 3374.62 4420.3 4926.62 3917.09 6009.93 4083.1 5270.1 5130.56 4947.64 6305.9 4542.62 4997.89 3470.69 5093.28 4859.95 4132.08 5223.1 4850.49 4592.49 3625.98 5479.86 4702.32 4763.04 5944.52 4413.56 4532.67 5316.05 2513.38 4908.32 5260.13 3995.08 4649.5 4810.74 5985.75 5475.83 4149.17 4329.8 5728.27 5672.46 5202.33 3228.27 3956.24 7558.99 4142.1 5043.14 5333.04 5445.91 4812.59 6842.54 7115.67 5675.45 3361.11 6038.56 2807.46 5599.16 4179.8 3488.34 5658.35 5428.24 5108.84 4520.14 4582.12 5357.14 4850.95 5919.27 6271.22 3421.81 6188.33 3920.64 6111.23 5786.06 4137.41 3780.07 5466.49 5447.74 4038.17 5007.41 6033.72 3692.99 6213.74 4959.94 2329.93 1635.31 6938.87 5412.07 5512.57 4806.99 4813.55 3771.91 5856.43 3839.0 4616.81 5715.25 4362.94 4611.21 6545.78 3354.94 4870.14 4404.87 5237.27 5767.65 4750.76 4907.03 5497.27 4081.77 4948.21 4987.01 2181.29 4202.12 6332.64 2694.25 6492.44 4613.32 3482.73 3996.93 5145.39 6351.95 4957.99 5195.09 4063.26 5345.05 7679.2 6131.52 4311.92 6009.88 4699.77 4981.55 5093.41 5144.23 6188.62 6153.07 4414.06 5908.57 5050.2 4821.41 5616.11 5019.84 4499.52 3900.93 4028.13 3874.12 5784.38 6476.35 6260.58 3074.49 3053.19 4067.24 6571.26 5580.95 3393.59 3549.92 4032.06 5246.81 5089.1 5888.95 4521.99 5394.78 3463.34 2853.68 4998.37 5329.84 6559.82 3879.83 6565.95 4577.98 5886.81 4487.51 6805.02 4295.25 7394.47 5354.48 4729.45 5374.09 6261.13 4167.55 5244.47 4720.34 5378.75 5510.89 6186.24 5822.7 4159.89 5282.67 5178.55 5146.69 4907.48 6818.23 4369.87 5652.19 6578.62 3465.03 4796.04 5349.85 5799.86 5172.1 4469.82 5003.63 4695.7 2932.2 5105.72 4082.01 5003.49 3964.03 4216.33 5832.72 5617.91 4721.2 5161.02 4706.31 6265.48 4735.99 4203.68 4739.56 4701.03 3352.46 5434.04 5200.1 3997.52 4881.51 2626.41 4909.74 6729.99 5310.33 6664.54 6842.35 5464.34 3621.63 4777.96 5259.48 5801.89 6833.5 7296.47 5742.39 4780.16 4924.53 5738.37 4433.23 4813.24 5759.19 4457.73 3113.64 4304.75 5480.86 6139.9 4720.22 4313.38 6598.99 5250.56 3633.58 2468.16 4339.97 5203.75 5169.09 5122.38 2459.88 5262.85 4210.24 5470.67 5901.71 5342.9 5733.12 5043.34 4246.24 6436.29 5402.81 4600.81 4919.13 5640.63 5168.97 4900.26 5002.38 4865.11 4731.16 6470.87 4465.56 4495.33 4131.08 5747.9 3864.19 4287.93 6203.24 5081.65 4488.41 6679.12 4621.32 5806.74 3878.8 4698.94 6284.12 3948.21 5669.15 5229.56 5296.05 6011.4 4672.34 3330.85 6052.22 5376.41 5533.52 5410.33 4747.24 4944.08 4380.86 5576.16 5269.39 4305.35 3308.75 5210.22 2451.27 5677.42 3903.9 4929.35 4444.95 5606.22 3943.77 3124.49 6081.35 5003.81 6262.18 3818.37 5566.5 5663.36 6225.05 5579.04 5125.53 5994.21 4444.54 5779.9 6964.78 5299.03 3922.98 4565.36 5161.73 4025.08 4008.67 5254.93 4770.21 4803.4 6608.94 2613.78 5417.07 3834.01 5656.84 6789.66 4739.41 5312.2 5847.27 4490.2 4706.59 5734.84 3982.31 4950.07 4582.24 2832.83 5827.3 6036.99 3010.1 3825.98 6294.14 5087.03 4667.84 3906.41 4691.15 4123.08 4512.6 4260.38 4636.45 4932.27 5225.11 6793.49 5252.22 6060.19 4962.35 6786.37 4333.23 4328.76 5561.63 4124.33 5783.88 4358.06 5647.93 6705.93 6201.49 5449.09 5154.74 5502.14 4605.61 5386.95 5332.11 5315.71 6158.93 4823.14 5373.78 5438.5 5345.65 5863.36 5699.4 5237.76 4286.84 6423.96 6058.13 5263.86 6988.4 5056.32 4060.17 6051.35 5302.53 4909.13 4287.61 5648.02 4604.34 4439.17 2701.42 5442.79 5051.39 6673.92 5242.38 4884.94 5459.52 4609.98 4738.72 4752.31 4276.59 5405.6 3929.35 5403.81 5082.25 4374.05 4287.15 5036.84 5504.65 5813.68 5732.11 3618.53 5040.9 5596.68 8013.28 3846.55 3796.73 5283.65 3082.16 4644.68 2892.36 5981.54 5416.41 4694.27 6760.64 2515.5 5177.88 5551.79 6981.47 3916.15 4474.96 4084.87 4758.76 4790.63 5259.29 3584.05 4589.22 4916.75 4818.53 5097.85 5584.64 6189.04 6224.64 4221.03 3799.55 5082.66 5638.51 4550.77 4337.93 3563.33 3550.88 4345.51 5536.0 3860.8 5145.13 3747.96 5940.5 5093.51 5004.22 4280.92 4696.92 6437.99 6898.8 6632.04 6540.57 4893.72 4977.64 6004.72 4072.4 4983.56 5699.51 2489.44 4489.18 4883.13 4632.75 4752.94 4994.98 3950.53 4501.1 5894.69 6635.51 4713.56 6779.82 3999.81 5543.67 4867.13 6377.45 4863.27 4502.12 5151.68 5733.59 5362.15 4455.61 6874.6 5240.97 5569.85 5523.96 4884.93 4223.53 4759.38 4733.37 4535.94 6960.97 4523.9 5282.51 5669.41 4951.02 3919.47 4602.7 4868.66 4004.39 5159.9 4987.48 5943.61 4248.58 5911.29 4542.25 4414.23 5233.88 4849.21 4785.55 3793.83 5245.4 6189.81 5367.05 4449.73 5647.11 4088.72 3945.62 3743.85 6236.46 5342.17 6379.3 5015.67 3795.63 5189.4 4576.71 6538.04 4894.15 6157.59 5201.3 5848.41 4048.73 6223.33 5438.6 7370.52 5611.29 4521.88 6568.45 3724.23 4601.54 4963.88 7263.57 5705.96 3832.09 5267.65 5739.69 3509.34 5360.88 7360.62 3166.37 5369.42 4985.45 5207.08 5205.53 4714.52 5499.37 5543.05 4836.76 5333.16 5551.09 5755.98 5392.85 5581.47 4384.91 6550.61 4987.01 5529.09 6094.34 5448.68 4739.5 6210.48 4491.62 4182.05 3865.5 3255.93 6853.07 6327.61 4633.59 5575.8 5268.93 3695.72 5106.9 5306.31 3037.72 5126.08 5604.0 3760.4 3783.35 4037.16 6395.63 5479.17 5020.37 4090.28 4246.83 4726.5 5467.05 5103.3 5888.94 4727.98 5175.88 4122.2 4516.26 4790.16 3647.26 3731.58 4587.19 6028.89 4888.17 5077.2 4274.05 5275.27 4277.54 4531.46 5925.82 4072.95 
SCALARS Velocity float 1
LOOKUP_TABLE default
1.73711 1.60003 1.54377 1.84328 1.55373 1.5743 1.69483 1.60531 1.52601 1.49936 1.65641 1.55219 1.73015 1.61589 1.74586 1.58995 1.68599 1.86352 1.72362 1.68103 1.44833 1.64863 1.52331 1.54832 1.55167 1.76751 1.71172 1.78427 1.57066 1.55872 1.6673 1.57401 1.62571 1.72132 1.65397 1.69527 1.82311 1.86477 1.73912 1.46428 1.50543 1.63588 1.64956 1.55272 1.38663 1.56277 1.61777 1.48983 1.55047 1.5148 1.46531 1.63584 1.66333 1.67398 1.53133 1.90997 1.75365 1.96715 1.83326 1.56716 0.97081 1.40601 1.60153 1.82979 1.62564 1.64703 1.58153 1.89633 1.68637 1.68157 1.63867 1.5984 1.45815 1.45777 1.44831 1.63045 1.59355 1.57101 1.4963 1.40065 1.3879 1.64449 1.67582 1.57174 2.39858 1.91719 2.66796 0.864748 1.06446 1.06288 1.08813 1.08986 1.09663 1.16687 1.56279 1.7895 1.67958 1.72785 1.52916 1.58722 1.49782 1.46735 1.50013 1.46326 1.40435 1.42239 1.37272 1.5163 1.57628 1.46106 1.58779 1.41806 1.63641 1.66732 1.63884 1.94266 2.42344 2.37185 1.63411 1.6436 2.1421 2.21733 1.52247 1.80169 1.54766 1.14174 1.12519 1.13114 1.0092 1.17784 1.35407 1.78557 1.8959 0.952634 1.46556 1.5127 1.57335 1.57069 1.46438 1.4771 1.34737 1.43591 1.43582 1.29169 1.28852 1.35999 1.55103 1.53624 1.53704 1.39851 1.57761 1.30256 1.49993 1.53182 1.57689 1.5605 1.51235 1.62637 1.59192 1.10657 0.998757 1.10162 1.21299 1.28258 1.4147 1.37635 1.20053 1.32024 1.21478 1.11515 1.23576 1.20058 1.2143 1.08211 1.06823 1.34694 1.41261 1.5551 1.53407 1.29811 1.65472 1.41042 1.31918 1.16241 1.45888 1.5481 1.58078 1.51926 1.24142 1.24828 1.46356 1.52911 1.34954 1.38949 1.35204 1.34817 1.38179 1.52335 1.52371 1.38674 1.36798 1.33119 1.31744 1.44902 1.52095 1.50522 1.38559 1.37744 1.27974 1.2451 1.36742 1.32278 1.28405 1.2863 1.17257 1.24298 1.10606 1.11172 1.1064 1.12749 1.12241 1.21461 1.21468 1.21234 1.19452 1.21802 1.15177 1.12118 0.828993 1.25076 1.21413 1.20329 1.30415 1.31185 1.31414 1.45349 1.53747 1.18184 1.26738 1.30903 1.55023 1.25218 1.4221 1.41054 1.23134 1.34501 1.37533 1.39668 1.299 1.27598 1.29964 1.40069 1.52038 1.58047 1.41409 1.25073 1.27992 1.29721 1.2509 1.27441 1.28236 1.17621 1.12382 1.15836 1.15611 1.17596 1.14329 1.12244 1.01095 1.11899 1.31301 1.23106 1.0124 1.19441 1.08738 1.0268 1.02506 1.0961 1.03274 1.0428 0.979821 0.950868 1.19169 1.10225 1.15561 1.20497 1.29842 1.28394 1.34486 1.36494 1.22102 1.22151 1.20724 1.13697 1.43458 1.25824 1.24794 1.24649 1.50956 1.18849 1.18122 1.1064 1.2042 1.23455 1.38202 1.46321 1.50467 1.28749 1.17827 1.18529 1.20819 1.17557 1.19328 0.989506 0.886156 0.981712 1.20184 0.933212 1.15033 0.913864 1.07339 1.07991 1.14835 1.12285 1.10032 0.87944 0.925915 0.954034 0.838495 0.823202 0.839776 1.17159 1.00426 1.01461 0.974762 0.931206 1.00066 0.979988 1.01118 1.03398 1.06039 1.08408 1.25073 1.11473 1.12365 1.17349 1.13789 1.22828 1.22881 1.21319 1.18199 1.20812 1.43884 1.05035 1.27906 1.32579 1.26675 1.04127 1.44027 1.30192 1.12357 1.1468 1.20189 1.22286 1.22609 1.40918 1.42598 1.15457 1.01231 1.07437 1.09844 1.1007 1.15188 1.12576 1.01568 1.24665 1.01741 1.09587 0.739651 0.96334 0.665326 0.976884 0.958615 0.981525 0.981437 0.913299 0.944043 1.02502 0.962792 0.989993 1.02726 1.00492 0.932906 0.956226 0.91016 0.817229 0.938996 0.930647 0.98262 0.874784 0.875658 1.06024 0.991461 1.13871 1.12351 1.04197 0.924736 0.956489 0.95923 0.980175 1.00592 0.997112 0.999528 1.00834 1.01482 0.980267 0.920322 0.946591 0.88422 1.09913 1.04966 1.06309 1.09574 1.08504 1.24051 1.21522 1.2338 1.21045 1.13821 1.1135 1.01093 1.28946 1.32616 1.07961 1.04303 1.29117 1.07566 1.18514 1.21614 1.21657 1.22277 1.22517 1.28776 1.2821 1.26361 1.10468 1.00743 1.02168 1.04468 1.04557 1.07047 1.04903 1.02068 0.994816 0.838904 0.9082 0.907825 0.894737 0.919168 0.92656 0.933185 0.980757 0.963897 0.978084 0.960994 0.944289 0.867346 0.935781 1.00935 1.01491 0.913219 0.943124 1.01139 0.945892 0.842151 0.826758 1.02934 1.059 1.05914 1.0127 0.997894 0.996106 0.981236 1.03311 0.97024 0.993061 0.956912 0.884324 0.870783 0.76577 1.00984 1.03462 1.08121 1.11029 1.23821 1.21217 1.21087 1.23606 1.16412 1.17642 1.05689 1.20797 1.06757 1.14616 0.998053 1.30822 1.11027 1.21168 1.13844 1.05023 1.10009 1.15441 1.20985 1.14116 1.22892 1.23415 1.22678 1.23826 1.23408 1.13501 1.07014 1.00715 1.07017 1.04362 1.00213 1.01559 1.03241 1.05472 1.06591 1.07364 1.01555 1.06918 1.01572 1.16263 0.905729 0.961249 0.910606 0.965907 0.956599 0.841276 0.928602 0.925563 0.874795 0.955506 0.942154 0.953481 0.939412 0.940199 0.912963 0.94603 0.958077 1.51927 1.34901 0.988312 1.02061 0.884939 0.889162 1.0237 0.950316 0.874295 0.775216 0.728285 0.89206 0.945237 0.895994 0.85236 0.918837 0.947421 0.989467 0.980248 0.968111 0.933249 0.999013 0.955192 0.864201 0.925904 0.990061 0.956513 0.966704 0.948509 0.928464 0.938598 0.907419 0.865826 0.916916 1.07516 1.04647 1.03657 1.1082 1.15685 1.201 1.20291 1.16667 0.994975 0.943125 0.915554 1.09565 0.998002 0.854993 1.16811 1.2437 1.20164 1.23357 1.07406 1.11906 1.13464 1.22337 1.26083 1.20045 1.11138 1.14938 1.09514 1.07156 1.07965 1.04834 1.06138 1.04789 1.06773 1.00406 0.947826 1.32142 0.990884 1.09191 1.14303 1.04967 0.977455 1.02758 0.987293 0.906461 0.984636 0.923429 0.917777 0.951097 0.955494 0.923528 0.956084 0.948693 0.973199 0.971264 0.964843 0.981738 0.972117 1.88364 0.694657 0.85337 1.22809 0.533842 1.78701 0.766451 0.887131 0.916144 0.922912 1.08978 0.919307 0.949092 0.942937 0.935505 0.958694 0.940104 0.969671 0.979172 0.949627 0.962968 0.980456 0.964053 1.00033 0.989215 0.963265 0.939312 0.986033 0.963593 1.08131 1.03035 1.01237 1.2139 1.18881 1.1968 1.29351 1.21321 0.994456 0.949154 0.904326 0.989177 1.03842 1.2628 1.21282 1.15177 1.07367 1.03719 1.03452 1.05391 1.22867 1.33019 1.19956 1.20032 1.09036 1.08761 1.06548 1.07132 1.08422 1.08556 1.10209 1.08606 1.0808 1.04928 1.13325 0.992694 1.04995 1.12647 1.02447 1.03736 1.04214 1.00448 0.948589 1.0207 1.01963 0.959802 0.918369 0.914256 0.939106 0.967612 0.973615 0.958655 0.952867 0.974782 0.957526 0.660073 0.0379833 0.335002 0.828719 0.742221 1.09065 1.53465 1.38618 0.996467 0.683817 0.655071 0.750776 0.868293 0.939548 0.873737 0.999949 0.762164 0.954037 0.928976 0.960331 0.958751 0.961603 0.951169 0.957531 0.96479 0.972945 0.984926 0.9786 0.987765 0.98867 0.989973 0.994987 0.98434 0.971062 1.06413 1.05113 0.981219 0.936542 1.26767 1.18705 1.22555 1.17198 1.14451 1.02713 1.00136 1.01841 0.908984 1.07741 1.19161 1.22516 1.08014 1.06207 1.13552 1.43938 1.27073 1.129 1.16359 1.09552 1.07084 1.07011 1.09498 1.09601 1.10147 1.03652 0.991237 0.685747 0.865853 1.0735 1.22937 1.02448 1.05724 0.984853 1.00187 0.995615 1.04922 0.931505 0.952464 1.02261 0.896771 0.854484 0.803298 0.814449 0.830105 0.872353 0.930722 0.800988 0.932518 0.945745 0.93009 0.997402 0.992333 0.984142 0.984238 0.826714 0.817988 0.810365 0.860681 0.923772 0.952232 1.18862 0.982592 1.30424 0.967748 0.82256 0.806653 0.956085 0.885069 1.01567 0.953235 0.959916 0.944058 0.943482 0.957748 0.967106 0.967342 0.959925 0.951557 0.964108 0.978895 0.971689 0.992566 1.00545 0.954303 0.941073 1.02189 1.07711 1.02034 1.05136 1.07464 1.03803 0.970974 1.11355 1.30999 1.16254 1.14081 1.10778 1.11288 0.975345 1.01309 1.01552 1.06256 1.28994 1.16302 1.15024 1.02881 1.05908 1.02584 1.33401 0.544556 0.906074 1.03257 1.0989 1.09963 1.08152 1.05097 1.0513 1.11511 1.08071 1.12711 1.0806 1.04321 1.02279 0.944515 0.78184 0.875456 0.919657 1.04674 0.729093 0.827058 0.846623 0.925801 0.864698 0.869551 0.876795 0.876831 0.926128 0.932682 0.774531 0.895329 0.842653 0.797512 0.659941 0.863942 0.875417 0.885332 0.791806 0.859184 0.967491 0.902548 0.966107 0.99409 0.998131 0.978543 0.886945 0.921333 0.907976 0.620403 0.728097 0.880738 0.873593 0.837189 0.870763 1.02378 1.01552 1.00016 0.868986 0.849164 1.31672 1.23968 0.985162 0.961263 0.962161 0.963724 0.966736 0.944319 0.912355 0.929985 0.883974 0.952026 0.987071 1.01534 0.977181 1.11646 1.12546 1.06309 1.02362 1.05058 0.855607 1.17002 1.21621 1.01384 0.971596 0.993972 0.945148 1.0092 1.01798 1.08756 1.34793 1.46133 1.11399 1.19324 1.08733 1.0349 0.958667 1.24483 0.771825 0.936292 1.02439 1.04923 1.03361 1.01536 1.03272 1.00876 1.05074 1.06855 1.07602 1.06735 1.10217 1.00176 0.967327 0.911215 0.925037 0.972526 0.961824 0.951011 0.927472 0.868164 0.850674 0.862557 0.85237 0.875326 0.902913 0.889275 0.933842 0.874072 0.862958 0.887544 0.988715 0.734769 0.693133 0.75455 0.828364 0.87676 0.864373 0.942585 0.766913 0.739085 0.891813 0.803822 0.733649 0.821856 0.826649 0.833987 0.844866 0.853465 0.852005 0.84207 1.02926 0.943987 0.875368 0.89696 0.869604 0.850405 0.831396 0.877226 0.940228 0.840652 0.820362 0.809446 0.768021 0.711497 0.766789 0.916844 0.91258 0.950377 0.925023 0.950597 0.954374 0.95701 0.953329 0.953602 0.928407 0.843705 0.96555 0.963934 0.94502 0.982585 0.999851 1.0562 1.04033 0.999153 1.04968 0.96085 0.963389 1.12497 0.906114 1.02789 1.18812 0.975216 1.01409 1.0072 1.00789 1.06297 1.19612 1.25094 1.04084 1.09262 1.19936 1.15125 1.13526 1.1298 1.27266 0.863427 0.889193 0.957137 0.999767 0.979756 1.01391 1.0045 1.01064 1.0334 0.950507 1.07216 0.846739 1.02129 0.959521 0.985657 0.971221 0.987876 1.02328 1.0039 0.968098 0.921666 0.840802 0.882166 0.848655 0.8651 0.886372 0.90722 0.880209 0.858329 0.839435 0.81884 0.948424 0.847881 0.865229 0.812617 0.865673 0.795627 0.818725 0.842423 0.857062 0.912208 0.801008 0.870473 0.759534 0.73939 0.748749 0.754136 0.80918 0.80671 0.813771 0.850244 0.827448 0.844252 0.835691 0.900331 0.884734 0.872839 0.8829 0.768445 0.942804 0.866588 0.801436 0.763273 0.822059 0.848456 0.902387 0.877554 1.11505 0.989783 1.06405 0.971395 0.926248 0.94795 0.927642 0.906582 0.821703 0.882671 0.764666 1.04534 1.09985 0.901352 0.9494 1.02781 1.05379 1.06578 1.0308 1.00368 1.03418 0.923605 1.01535 1.01816 1.02796 1.01872 1.23925 1.14069 1.06009 1.15485 0.961411 1.03893 1.05641 1.09677 1.33904 1.1817 1.01603 0.923091 0.942472 0.983028 1.02222 0.999581 1.07468 1.07791 1.00404 0.914613 0.896184 0.960738 0.970027 1.00447 0.993878 1.05865 1.04409 1.13058 0.981032 0.938379 0.879737 0.845538 0.891125 0.931314 0.910122 0.873676 0.854763 0.84456 0.840266 0.836206 0.824363 0.803268 0.875092 0.889441 0.848378 0.875328 0.94438 0.767543 0.768984 0.79417 0.786538 0.794568 0.757344 0.815698 0.770043 0.763712 0.775073 0.825291 0.813527 0.812017 0.813686 0.825033 0.842519 0.792252 0.871534 0.78939 0.845709 0.796354 0.791147 0.881576 0.80883 0.784658 0.825599 0.779699 0.777152 0.806109 0.840156 0.85511 0.930765 0.965673 0.975415 0.850039 1.17407 0.868829 0.875973 0.900985 0.923733 0.897273 0.921883 0.894748 0.870183 0.885292 0.867528 0.89292 0.896818 0.922018 0.948375 0.960026 1.00204 1.02355 1.03632 1.04663 1.0178 1.02426 1.01751 0.98337 1.01197 1.04504 0.999679 1.0008 1.02171 1.03024 1.02436 1.0171 0.945947 1.21437 0.897149 1.14077 1.11393 1.14076 1.04222 0.912755 1.0078 1.18959 0.951391 0.975248 1.02604 1.03257 1.0463 1.05355 1.12363 1.12028 1.00507 0.905805 0.917909 0.937646 0.964324 1.02957 1.06768 1.08043 1.01419 0.921182 0.961763 0.847361 0.943515 0.960051 0.968545 0.93544 0.945804 0.880107 0.83765 0.817519 0.853897 0.908238 0.932304 1.03193 0.921324 0.771067 1.05216 0.804704 0.81092 0.823132 0.783182 0.775127 0.769195 0.77757 0.777815 0.776416 0.783166 0.792032 0.785883 0.803602 0.794156 0.832162 0.803096 0.826702 0.772582 0.813082 0.731063 0.718546 0.751974 0.808271 0.790052 0.761284 0.823764 0.818533 0.82454 0.82876 0.863478 0.858621 0.902616 0.995817 0.556062 0.539718 0.785056 0.903526 0.927655 0.906309 0.893813 0.877944 0.882364 0.899482 0.890421 0.892198 0.887564 0.871777 0.835554 0.841797 0.827309 0.94793 0.992933 1.00107 1.03122 1.02762 0.996624 1.01111 1.02161 1.02301 1.03411 1.0347 1.02265 1.02823 1.03188 1.02295 0.983728 0.953995 0.958141 1.10217 1.06524 0.985816 0.902355 1.07207 1.02719 1.16662 0.961538 1.02892 1.04297 1.03117 1.03989 1.06265 1.10501 1.10129 1.01229 1.03389 0.888463 0.88248 0.931486 0.928104 0.932962 0.985923 0.998001 1.00575 1.12321 0.932207 1.07309 1.01186 0.792205 1.11985 0.933649 0.936241 0.938091 0.864627 0.912368 0.828444 0.813134 0.811992 0.810161 0.846753 0.881521 0.87323 0.87176 0.997142 0.758723 0.896819 0.632928 0.710265 0.402625 0.632781 0.646483 0.756648 0.844292 0.794711 0.781792 0.768158 0.77578 0.76702 0.791526 0.77376 0.787829 0.783405 0.746809 0.733467 0.764342 0.781685 0.783073 0.75279 0.776919 0.760058 0.797114 0.772712 0.766905 0.741402 0.703187 0.722714 0.774388 0.792808 0.779708 0.778995 0.794899 0.797629 0.818687 0.832017 0.813177 0.851181 0.818016 0.875091 0.934495 0.833041 0.834067 0.7748 0.716593 0.878868 0.884502 0.908951 0.891257 0.881663 0.895561 0.893003 0.889415 0.826516 0.886135 0.911371 0.939246 0.96653 0.960289 1.05916 1.03735 1.02971 1.00927 1.02352 1.02674 1.01125 1.03327 1.03061 1.02876 1.02119 1.02103 0.986521 0.942043 0.953318 1.08141 1.04605 1.08618 0.965088 1.06714 1.01511 1.05204 0.989465 1.25201 1.07439 1.05747 1.07263 1.16085 0.985132 1.15473 1.07097 0.894583 0.904078 0.935382 0.947726 0.953041 0.917003 0.847786 0.861217 0.835059 1.02347 0.794654 0.907681 0.873609 0.840629 0.911075 0.928797 0.905173 0.913898 0.855759 0.914808 0.8542 0.83002 0.808575 0.822047 0.801879 0.817105 0.799034 0.841862 0.842111 0.888949 0.932682 0.956353 0.705255 1.17563 0.87567 0.800412 0.786215 0.801352 0.781966 0.761425 0.764394 0.769344 0.760465 0.751208 0.793685 0.771261 0.774677 0.708778 0.733265 0.70013 0.656855 0.698572 0.74326 0.708807 0.779668 0.793605 0.791636 0.787517 0.813756 0.787901 0.789145 0.754856 0.727528 0.731005 0.737584 0.740293 0.732918 0.756348 0.739244 0.782927 0.823322 0.844055 0.820087 0.830579 0.81666 0.821446 0.833191 0.820131 0.800769 0.798244 0.88072 0.843809 0.872807 0.910764 0.88713 0.89715 0.890372 0.910794 0.89893 0.93208 0.950067 0.877656 0.912435 1.01347 1.07827 1.03752 1.0384 1.02575 1.00548 1.0125 1.00676 1.03119 1.02123 1.02733 1.02306 1.0297 1.04063 1.03726 0.977178 0.954408 0.956085 0.974585 0.988972 0.970406 0.965501 0.957638 1.15284 1.01139 1.13689 1.04962 1.01568 1.06392 0.995607 1.1041 1.05984 1.06642 1.08352 0.835324 0.799139 1.09532 1.13015 0.941958 0.942244 0.92941 0.935214 0.948768 0.885846 0.883705 0.851416 0.915514 0.902971 0.906447 0.922534 0.907089 0.906621 0.886648 0.835042 0.830188 0.810931 0.805866 0.783601 0.835843 0.793117 0.986692 0.489118 0.623146 0.813803 0.74107 0.795341 0.769053 0.75788 0.738514 0.721966 0.774121 0.754048 0.78503 0.813573 0.768887 0.635841 0.743999 0.717458 0.712972 0.71689 0.799642 0.66851 0.602427 0.584458 0.62582 0.629404 0.65777 0.755549 0.729042 0.732086 0.784162 0.798262 0.777664 0.73308 0.744457 0.736984 0.727272 0.733227 0.692431 0.794233 0.758191 0.755584 0.917028 1.01653 0.855308 0.827983 0.794004 0.809682 0.814994 0.816464 0.817816 0.821687 0.818161 0.812768 0.821046 0.821824 0.838719 0.863044 0.890558 0.909509 0.91005 0.907782 0.917269 0.941305 0.930306 0.926196 0.935269 0.95976 0.881702 0.931452 0.893277 1.01853 1.07503 1.05277 1.04456 1.06672 1.01366 1.01155 0.997573 1.0314 1.0286 1.02179 1.04705 1.04686 0.997921 0.965653 0.972207 0.98482 0.974093 1.0885 1.07042 0.939032 1.15371 1.09468 0.979376 0.948823 1.02841 1.21687 1.04366 1.02053 0.774447 0.982621 0.875747 0.932659 0.992451 0.939106 1.00511 0.93729 0.962768 0.962155 0.96857 0.931178 0.890167 0.869374 0.910289 0.893537 0.920085 0.940418 0.944271 1.01868 0.948252 0.906121 0.895472 0.899194 0.839958 0.849077 0.814343 0.838653 0.896012 0.801614 0.746938 0.776733 0.846027 0.7995 0.841733 0.727293 0.857004 0.677366 0.596166 0.736888 0.742613 0.744714 0.753045 0.735873 0.7129 0.706837 0.709643 0.847288 0.675163 0.568181 0.632525 0.770658 0.704942 0.667969 0.596031 0.562909 0.572744 0.46859 0.541163 0.541639 0.63253 0.672428 0.698852 0.711187 0.678718 0.79942 0.801436 0.699634 0.7408 0.659476 0.681783 0.694075 0.680062 0.672543 0.669894 0.709858 0.695791 0.697919 0.713787 0.473499 0.871201 0.75725 0.774543 0.789806 0.802747 0.822007 0.812961 0.811214 0.817425 0.82473 0.82626 0.838782 0.841384 0.884801 0.906496 0.924787 0.934215 0.929127 0.920151 0.986978 0.952732 0.960758 1.03281 0.896888 1.02243 1.10535 1.0297 1.04634 1.02135 1.01062 1.0206 1.01371 0.984142 1.03049 1.02326 1.02226 1.03575 1.05797 1.03839 0.965718 0.983841 1.0299 1.04532 1.07025 0.967722 1.03726 1.0129 1.12319 1.15431 0.996799 0.940257 0.935211 0.987287 1.05018 0.974101 1.34251 1.12155 1.47968 1.0883 0.889656 0.904802 0.937703 0.988957 0.945508 0.962785 0.975928 0.969543 0.966219 0.954724 0.924921 0.938106 0.899682 0.922786 0.929588 0.907466 0.918936 0.841823 0.893742 0.88676 0.883645 0.815028 0.79362 0.809554 0.641195 0.769827 0.772256 0.739926 0.733357 0.751433 0.742568 0.682497 0.725089 0.709889 0.728461 0.729231 0.719685 0.726702 0.686893 0.790184 0.902225 0.474103 0.717895 0.594699 0.486299 0.711585 0.628388 0.720101 0.591127 0.653557 0.576515 0.559661 0.673865 0.22411 0.270212 0.366568 0.372185 0.547919 0.631409 0.596212 0.537742 0.605849 0.571613 0.659292 0.627881 0.604434 0.635233 0.643411 0.697206 0.710511 0.694084 0.653768 0.77762 0.838927 0.838789 0.768111 0.81803 0.813715 0.818421 0.798662 0.799862 0.83495 0.824513 0.817603 0.80785 0.844687 0.853375 0.907844 0.925057 0.917608 0.935608 0.969924 0.9448 0.993403 0.919106 0.88239 1.01482 0.922098 0.779567 0.883746 0.999585 1.05627 1.01326 1.01161 0.97744 1.00805 1.03576 1.02181 1.04089 1.04959 1.05691 1.05378 1.03966 1.09127 1.0432 1.0429 1.06043 0.999274 1.03961 1.08134 1.1365 0.866341 0.961076 0.977675 1.14554 0.943856 1.22055 0.980747 0.8438 1.0596 0.950693 0.986917 0.966384 0.957178 0.970215 0.959141 0.956257 0.959889 0.964211 0.902293 0.936046 0.925818 0.927731 0.930911 0.876221 0.87224 0.888412 0.887608 0.811661 0.861453 0.837414 0.83498 0.762135 0.73776 0.726404 0.721748 0.723839 0.698452 0.707098 0.73448 0.73799 0.731757 0.742189 0.758483 0.744632 0.784099 0.682156 0.854157 0.699371 0.792362 0.775429 0.708557 0.608671 0.613823 0.723119 0.675685 0.665329 0.509622 0.588502 0.622637 0.688227 0.777512 0.968959 0.539039 0.330915 0.252328 0.281632 0.319086 0.417896 0.645834 0.474645 0.614701 0.532319 0.547006 0.568808 0.582962 0.584265 0.61749 0.64485 0.640008 0.627588 0.61358 0.617031 0.625514 0.665501 0.694184 0.709006 0.728747 0.719742 0.725805 0.725337 0.748529 0.752394 0.751205 0.861456 0.825613 0.813753 0.773876 0.804726 0.844368 0.825352 0.821049 0.794805 0.872017 0.818842 0.951939 0.915833 0.914772 1.02995 0.984422 0.906145 0.855552 0.839777 0.871943 0.893793 0.855074 0.922292 0.987767 1.02929 1.02762 1.03661 1.00451 1.01462 1.0477 1.0426 1.0651 1.07113 1.0801 1.06748 1.08051 1.06903 1.03601 1.15715 1.0332 1.1155 0.714315 1.07387 0.872697 0.937428 0.99938 1.09065 1.02675 0.981876 0.87543 0.959276 0.87832 0.855121 0.980492 0.966102 0.975213 0.958078 0.936719 0.926727 0.951591 0.976061 0.955476 0.939088 0.938994 0.948981 0.896785 0.874748 0.879168 0.860947 0.953099 0.887146 0.872479 0.852705 0.830253 0.782942 0.804351 0.765923 0.779811 0.737886 0.719022 0.678017 0.679766 0.639428 0.71578 0.749697 0.746815 0.742172 0.747411 0.841341 0.759419 0.769243 0.615302 0.616979 0.764606 0.775503 0.606445 0.469311 0.501208 0.516688 0.633214 0.72987 0.861084 1.27036 1.31792 1.98146 0.167307 0.360269 0.283288 0.363459 0.477685 0.468064 0.586742 0.484552 0.502236 0.549817 0.63224 0.628731 0.70874 0.615094 0.667595 0.624328 0.666516 0.657222 0.657464 0.639196 0.624624 0.633606 0.65501 0.684579 0.703301 0.725995 0.74522 0.74474 0.779232 0.788557 0.83333 0.780767 0.842222 0.6918 0.828861 0.807736 0.830034 0.796604 0.823502 0.818837 0.684544 0.809985 0.893262 0.949617 0.978479 0.976644 0.77951 1.03926 0.847258 0.866405 0.894944 0.950749 0.9769 1.02996 1.04231 1.04524 0.996695 1.08265 1.06255 1.09668 1.1074 1.11794 1.07532 1.08842 1.06809 1.07481 1.05701 1.08774 1.07192 1.06456 1.0359 1.01554 1.17894 1.27745 1.1402 0.948942 0.948529 1.05751 1.12223 1.03757 1.02084 1.07728 1.02086 1.11488 0.996484 0.956285 0.921008 0.90655 0.925104 0.981111 0.987337 0.976287 0.932837 0.923176 0.945814 0.968903 0.956979 0.94995 0.941936 0.940249 0.848984 0.787622 0.981939 1.06923 0.868775 0.847457 0.864028 0.871271 0.842484 0.828764 0.790657 0.736475 0.661194 0.603117 0.581179 0.708774 0.737511 0.79235 0.733532 0.771402 0.805772 0.839714 0.853339 0.798364 0.760493 0.880278 0.585261 0.732669 0.761393 0.387563 0.382125 0.507313 0.450812 0.575161 0.525976 0.810561 0.535649 1.361 1.81743 0.163911 0.337917 0.261462 0.383729 0.524187 0.575291 0.531126 0.849007 0.757714 0.675163 0.678191 0.664428 0.64884 0.634542 0.611647 0.626373 0.675078 0.720257 0.741453 0.755904 0.762046 0.772881 0.791366 0.796145 0.792948 0.812025 0.824563 0.744918 0.748495 1.0286 0.897639 0.816731 0.725544 0.891273 0.693717 0.881088 0.990722 1.01867 0.897646 0.896062 1.56668 0.888438 0.871462 0.895767 0.926091 0.954046 0.975738 0.993348 1.03091 1.05058 1.04283 1.00585 1.10686 1.07195 1.10155 1.12071 1.10666 1.07483 1.05757 1.08209 1.04963 1.09454 1.06117 1.05082 1.10909 0.954587 1.17684 1.0538 0.985921 0.994287 1.0558 1.12511 1.10641 1.12971 0.988472 1.11554 1.01488 0.957443 0.943978 0.956659 0.971572 1.01747 0.946062 0.92884 0.952134 0.960426 0.950529 0.947172 0.934426 0.923822 0.972043 0.863831 0.891631 0.612701 0.872504 0.875799 0.835872 0.812764 0.724872 0.625412 0.736555 0.541982 0.6138 0.856219 0.590395 0.77939 0.694356 0.765309 0.728459 0.803446 0.646814 0.793336 0.755102 1.03659 1.37817 0.43906 0.588095 0.624731 0.392785 0.372919 0.0886415 0.227002 0.109737 0.390664 1.10413 0.691688 0.970136 1.45236 0.218967 0.312574 0.345509 0.368482 0.47143 0.47892 0.575913 0.531758 0.57624 0.562455 0.548871 0.318265 0.777778 0.949993 0.672969 0.651343 0.644051 0.622629 0.6363 0.589859 0.703065 0.73532 0.7168 0.75489 0.777561 0.803966 0.807958 0.810868 0.808531 0.774748 0.885313 1.04789 0.948095 0.905952 0.819141 0.789842 0.889046 1.15593 0.583536 0.548997 0.841905 0.807981 0.978275 0.936253 0.976169 0.892779 1.12988 1.29965 1.006 0.848826 0.90644 0.905629 0.966827 0.957185 0.993291 1.03404 1.05234 1.06332 1.05767 1.04301 0.993068 1.13988 1.08477 1.11546 1.12462 1.08215 1.06924 1.04415 1.0381 1.06431 1.06396 1.02719 1.06005 1.11507 1.09971 0.942396 0.849329 0.974925 1.15927 1.10987 0.95189 1.14747 0.978728 1.14108 1.0533 1.08346 1.254 0.956459 0.975969 0.955704 0.981253 1.01054 1.03385 0.943282 0.941753 0.942438 0.951552 0.937669 0.946677 0.940864 0.942706 0.930639 1.06904 1.10254 0.961598 0.768079 0.852954 0.755051 0.814749 0.843152 0.865265 0.83411 0.850101 0.970667 0.831869 1.1088 0.341818 0.786443 0.678374 0.678325 0.604668 0.690996 0.758611 0.861825 0.461856 0.600536 0.488865 0.550968 0.0251146 0.0741426 0.43061 0.518793 1.18425 0.38526 0.429539 0.443759 0.516929 0.556288 0.556045 0.45892 0.809223 0.681114 0.707655 0.666852 0.664205 0.618771 0.611634 0.677673 0.656005 0.741244 0.802536 0.802618 0.819835 0.814457 0.822417 0.865438 0.842789 0.852684 0.943791 0.73036 0.553175 0.730044 0.848204 1.0086 1.31334 1.03259 0.973205 0.882758 0.911165 0.890929 0.843662 0.755822 0.874942 0.999208 1.01542 1.01603 0.928763 1.09787 0.997302 0.972822 1.06907 1.12884 1.06315 1.06925 0.981074 1.2003 1.11291 1.15061 1.12414 1.08067 1.06115 1.05318 1.03915 1.03821 1.00999 1.10246 1.1131 1.11791 1.03756 0.914274 0.971493 1.14003 1.16322 1.04785 1.16883 1.11955 0.947615 1.09227 1.11392 1.02675 0.98666 1.00297 1.01723 1.05045 1.04799 1.03635 1.03657 0.963288 0.935432 0.95897 0.978806 0.945871 0.963831 0.968686 0.977493 1.09819 0.940212 0.859791 0.839335 0.817635 0.854963 0.847398 0.790861 0.760584 1.06583 0.685758 1.27998 0.746197 1.28031 0.669519 0.626475 0.684303 0.687494 0.722604 0.755343 0.797746 0.805179 0.661583 0.780551 0.680702 0.576057 0.599655 0.504385 0.699188 0.329396 0.192297 0.170251 0.594865 0.928771 0.782072 0.449916 0.520937 0.494371 0.554543 0.562079 0.593163 0.593465 0.578688 0.666203 0.760089 0.712884 0.707436 0.649637 0.712392 0.645021 0.591585 0.655321 0.822776 0.813643 0.824391 0.823804 0.804967 0.821005 0.841529 0.693561 0.666023 0.720456 0.863699 1.02921 1.31084 1.05406 0.998823 0.877058 0.868347 0.886078 0.874342 0.833721 0.887805 0.941872 1.01524 1.0637 1.11275 1.12262 0.983751 1.12859 1.08168 1.05244 1.04359 0.992603 1.1605 1.21101 1.14872 1.15625 1.10553 1.06153 1.06749 1.05033 1.09689 0.973702 1.06632 1.11494 1.12027 1.09582 0.980662 1.09865 1.10813 1.04659 1.14779 1.0437 1.06043 0.971051 0.898974 0.962293 1.02509 1.03531 1.03858 1.04243 1.04983 1.04377 1.00555 0.960099 0.967874 0.958241 0.999009 0.981782 1.09513 0.911549 0.876424 0.888836 0.838866 0.823267 0.829347 0.804816 0.847979 0.802619 0.801478 0.753933 0.777059 0.953688 0.972434 0.736166 0.656305 0.700923 0.703266 0.741442 0.763253 0.80403 0.747243 0.748476 0.674545 0.574729 0.53736 0.610803 0.254565 0.859854 0.694779 0.623875 0.772054 0.627292 0.529701 0.566806 0.541857 0.573724 0.593483 0.606301 0.643822 0.633427 0.687346 0.658485 0.69348 0.704581 0.724522 0.718546 0.760097 0.755067 0.732029 0.617678 0.499701 0.829187 0.844885 0.832146 0.831849 0.803382 0.814003 0.829486 0.83021 0.82503 0.726102 0.801832 0.81307 0.91547 0.931191 1.01746 1.03983 0.964045 0.875497 0.879849 0.900562 0.925284 0.934784 0.906597 0.865057 0.993355 1.09012 1.11662 1.11721 1.08865 1.04784 0.983175 1.11134 1.09005 1.07207 1.04512 1.04575 0.999337 1.12829 1.11232 1.15757 1.14639 1.10345 1.07438 1.07377 1.05384 1.11431 1.10397 1.02068 1.11207 1.13525 1.11204 1.11798 1.10863 1.08699 0.971756 1.06151 1.13901 1.065 1.14737 1.06582 1.04224 0.964955 0.862656 1.0533 1.03941 1.06121 1.02859 1.03502 1.02528 1.03848 0.978587 0.958165 0.962415 1.02179 1.01666 1.02687 0.997293 1.05634 0.943427 0.896828 0.876017 0.865188 0.835873 0.832603 0.771315 0.760672 0.763439 0.857605 0.868196 0.863805 0.812094 0.865735 0.818114 0.795098 0.843706 0.760415 0.752258 0.80693 0.758886 0.779129 0.697315 0.717485 0.697583 0.658336 0.571964 0.263937 0.638847 1.41704 1.24669 0.790761 0.585797 0.542897 0.588723 0.61508 0.635034 0.710935 0.7311 0.723242 0.703119 0.727148 0.731575 0.749942 0.923257 0.83268 0.87324 0.763164 0.853225 0.797523 0.823514 0.794859 0.813281 0.816487 0.816179 0.822808 0.854551 0.830664 0.856131 0.922788 0.92879 0.946094 0.996417 1.0141 0.99303 0.995503 0.949639 0.981313 0.912155 1.2039 1.07091 1.08391 1.08034 1.08561 1.05566 1.07779 1.09226 1.0709 1.02476 1.01176 1.13434 1.12415 1.14296 1.15543 1.10568 1.12523 1.09255 1.06139 1.09687 1.02166 1.11896 1.12977 1.12035 1.0785 1.12445 1.09186 1.12451 1.09631 1.03692 1.12169 1.09099 1.05525 1.13506 1.16007 1.07099 1.02456 1.04532 0.877003 1.10469 1.02419 1.0489 1.08408 1.01125 1.05206 1.04936 0.958845 0.96108 0.986403 0.93957 1.03624 1.02831 1.09219 0.942485 1.08341 0.8992 0.892935 0.851465 0.820561 0.804606 0.797328 0.78572 0.817072 0.746191 0.804241 0.826889 0.863204 0.760514 0.774397 0.783225 0.762237 0.723486 0.735921 0.725769 0.744442 0.704313 0.731637 0.491836 1.0444 0.68878 0.960506 0.624422 1.01743 0.700782 0.602148 0.662161 0.71007 0.680279 0.671186 0.822602 0.745385 0.727153 0.769997 0.731897 0.724969 0.700727 0.825501 0.738788 0.705508 0.883191 0.908182 0.898057 0.901802 0.805346 0.769933 0.860831 0.789553 0.821324 0.826696 0.863827 0.840596 0.842856 0.854848 0.86356 0.944102 0.953671 0.956815 0.99148 0.978348 0.989751 1.00474 0.932523 0.968412 1.21517 1.13406 1.05963 1.07493 1.07244 1.06838 1.09635 1.03174 1.11349 1.02301 1.03592 1.13014 1.12536 1.15183 1.14233 1.12466 1.10024 1.13632 1.17381 1.08644 1.05528 1.1007 1.13225 1.13199 1.12448 1.13976 1.11604 1.17128 1.1287 1.10371 1.06511 1.02725 1.15103 1.09126 1.15207 1.06791 1.14822 1.03862 1.09133 0.946527 1.14328 1.17554 1.05584 1.07856 1.1064 1.01085 1.02649 1.00069 1.10042 1.0147 0.927328 1.01615 1.03283 0.977404 1.12543 1.06812 0.946872 0.935892 0.941016 0.944087 0.874282 0.852268 0.825049 0.817919 0.776538 0.820779 0.822189 0.837666 0.847353 0.879425 0.794314 0.783394 0.807703 0.791748 0.766039 0.751004 0.757305 0.742191 0.704345 0.961941 0.407794 0.84311 0.956784 0.801824 0.677067 0.721888 0.758984 0.831575 0.724747 0.836381 0.763889 0.654032 0.658228 0.888178 0.958236 0.847785 0.846873 1.02506 0.969235 0.80572 1.00122 0.811592 0.923413 0.914357 0.861344 1.01444 0.927361 1.0006 0.987921 1.00307 0.999655 0.975067 0.994726 0.987612 1.04351 1.12619 1.1582 1.12958 1.04816 1.0575 1.06142 1.06713 1.12746 1.04297 1.12102 1.0309 1.09258 1.13775 1.20106 1.13848 1.13322 1.24881 1.19388 1.09936 1.06449 1.13342 1.14199 1.14143 1.14188 1.17351 1.13275 1.10401 1.06929 1.05158 1.1011 1.14356 1.07385 1.02451 1.04384 1.11999 0.971975 1.18799 1.07766 1.08642 1.10108 0.986922 1.03884 1.0048 1.09306 1.04394 0.940745 0.921181 0.999377 0.996978 1.17327 1.06253 0.94751 0.980506 0.972815 0.989417 0.938134 0.99339 0.916927 0.845142 0.860271 0.871107 0.8361 0.775671 0.876923 0.868566 0.796873 0.779188 0.766717 0.789258 0.770943 0.743905 0.827433 0.719366 0.914953 0.798149 0.785315 0.726089 0.7712 0.891831 0.819131 0.798777 0.802741 0.753877 0.773318 0.884573 0.772257 0.910338 0.778656 0.813579 1.13397 1.0595 0.777595 0.775584 0.78864 0.64158 1.06114 0.930494 0.847809 1.06047 0.711083 0.981856 1.01645 0.884386 0.9228 1.01004 1.036 0.948575 1.0256 1.04346 0.975137 0.992568 1.02758 1.07239 1.05954 1.02251 1.07931 1.05333 1.17222 1.08581 1.05087 1.07669 1.04837 1.08725 1.14923 1.10195 1.03465 0.997658 1.08979 1.11383 1.13367 1.17344 1.13453 1.17997 1.12323 1.13143 1.11535 1.08595 1.1043 1.13908 1.13968 1.14547 1.14565 1.22608 1.14769 1.09406 1.10032 1.10992 1.13668 1.05951 1.09496 1.07748 1.13658 1.06356 1.01206 1.09467 1.09843 1.02036 1.06761 1.02516 1.01893 1.05572 0.956655 0.923051 1.01554 1.14397 1.01297 0.956373 0.999048 1.01074 1.00845 0.932495 0.892336 0.887017 0.855441 0.860143 0.881718 0.914483 0.923031 0.841848 0.758819 0.803394 0.816683 0.800191 0.773113 0.808577 0.667892 0.723941 0.904217 0.861581 0.738148 0.924031 0.862571 0.71172 0.79144 0.765216 0.86233 0.998764 0.88856 0.80163 1.01802 1.03458 0.849596 1.20464 0.215051 1.15344 0.617103 0.990679 0.805443 1.05075 0.87947 0.969659 1.03598 1.09179 1.04263 1.05331 1.04828 0.909481 0.928523 0.971832 1.00561 1.007 1.08766 1.16059 1.07479 1.06129 1.07824 1.05169 1.10549 1.15199 1.06198 1.05045 1.06523 1.13481 1.09617 1.11783 1.17254 1.13534 1.17167 1.16306 1.13357 1.10031 1.13482 1.12495 1.11377 1.10595 1.14213 1.14252 1.1359 1.18411 1.1481 1.19987 1.11573 1.11255 1.11666 1.14387 1.1168 1.16168 1.15645 1.11561 1.07571 1.00633 1.1023 1.1129 1.09951 1.05852 1.05937 1.02771 1.03 0.957677 0.983388 1.01193 1.08296 1.02322 1.02038 1.02555 1.03355 1.003 0.947226 0.895502 0.873967 1.02786 1.03605 0.89715 0.899683 0.987947 0.931538 0.96187 0.871186 0.756699 0.844047 0.845877 0.839275 0.832881 0.812291 0.87311 0.867545 0.841474 0.756493 0.927697 0.934951 0.812973 0.724807 0.852054 0.983869 1.05626 0.884919 0.794418 0.959554 0.983065 1.01968 1.00175 1.11987 0.866495 1.12584 0.959639 0.988838 0.971064 0.927318 0.989644 1.04595 1.0663 1.03826 1.06967 0.968128 0.91415 0.954072 0.972789 0.974166 1.18543 1.09601 1.07555 1.04055 1.09033 1.06759 1.06236 1.06934 1.07352 1.14279 1.11358 1.09976 1.14012 1.13685 1.15114 1.20106 1.12581 1.13031 1.14726 1.14581 1.15079 1.15322 1.23139 1.24644 1.14185 1.17307 1.18949 1.17025 1.12672 1.12126 1.20074 1.12885 1.14803 1.10545 1.11774 1.1574 1.1184 1.07565 1.07111 1.12915 1.115 1.09088 1.08174 1.06579 1.02759 1.04239 1.05081 1.05891 0.988082 0.987206 1.01676 1.03921 0.951017 1.06805 1.05351 1.02047 0.950831 0.996554 1.04731 1.03059 1.03103 0.916592 0.887345 0.940562 1.0148 0.981513 0.841154 0.748323 0.892187 0.843767 0.862577 0.879495 0.85371 0.86779 0.950069 0.887998 0.871459 0.86925 0.781701 0.93184 1.02583 0.802436 0.948469 1.03867 1.08428 0.881692 0.973767 0.911464 0.944754 0.975359 1.05538 1.07453 1.04734 1.1047 0.954051 1.05736 0.992456 0.953286 0.979282 0.982736 1.05237 1.05436 1.06642 1.08769 0.924952 1.02648 0.998119 1.14656 1.17319 1.11716 1.08657 1.07432 1.06404 1.06661 1.06007 1.06616 1.07599 1.14119 1.15528 1.10883 1.15549 1.15247 1.13468 1.14569 1.16103 1.20881 1.1397 1.14618 1.14374 1.14919 1.14835 1.16681 1.20053 1.16372 1.13732 1.15232 1.15994 1.20066 1.13697 1.14252 1.10875 1.1308 1.1404 1.09917 1.11814 1.08067 1.07721 1.15805 1.13873 1.10744 1.09457 1.06136 1.11147 1.1281 1.04409 1.04857 1.09967 1.04848 1.06974 1.01555 1.02762 1.02837 1.03314 1.02726 0.939089 0.857518 0.787237 1.08754 1.04371 0.995411 1.10409 1.11636 1.00021 0.914024 0.982216 1.0237 1.0239 1.01925 0.915605 0.85365 0.914017 0.901782 0.899352 0.946874 0.93346 0.917687 0.931467 0.861991 0.795754 0.968954 1.04077 0.967339 0.802658 1.11396 0.966281 0.966425 0.971165 0.972358 1.07186 1.0751 1.0296 1.03725 1.01006 1.05408 0.980007 0.993421 0.96945 1.05627 1.08293 1.00822 0.972167 1.13416 0.977565 1.05712 0.958578 1.16284 1.15971 1.12868 1.09868 1.07254 1.08943 1.13719 1.15553 1.16312 1.12181 1.20483 1.23032 1.15395 1.14082 1.16543 1.12701 1.20411 1.14995 1.1518 1.15194 1.15444 1.15249 1.17255 1.19107 1.17014 1.17091 1.17667 1.15516 1.18831 1.14526 1.14544 1.14085 1.16025 1.12932 1.12327 1.1671 1.14404 1.12295 1.09964 1.08204 1.11433 1.15034 1.10303 1.10454 1.07194 1.03854 0.999533 1.04702 1.00615 1.05978 1.01226 1.02474 0.941538 1.09387 1.00608 1.01414 1.06553 1.10144 0.948096 0.927938 0.887639 0.975266 1.02071 1.05301 1.11365 1.00693 0.960944 0.942192 0.941265 0.903585 0.968263 0.955165 0.98101 0.880322 0.821877 1.00017 1.01193 1.03683 0.954972 0.967837 0.901886 1.10203 1.04799 0.911116 0.971999 0.972982 0.987713 0.973785 1.05676 1.10228 1.1005 1.05934 1.06468 1.0599 1.06177 1.002 1.02861 1.01921 0.991786 1.07617 1.06008 1.09248 1.00274 1.02538 1.04814 1.06117 1.10861 0.945389 1.17178 1.14895 1.12226 1.11383 1.11862 1.10695 1.11221 1.14932 1.16737 1.17423 1.15412 1.1657 1.16335 1.11848 1.16555 1.167 1.15076 1.16625 1.12752 1.16126 1.19241 1.16166 1.16073 1.16123 1.15962 1.15179 1.16133 1.17323 1.17204 1.14604 1.1511 1.18937 1.16124 1.17492 1.15297 1.13724 1.15932 1.16764 1.13342 1.12352 1.09016 1.10639 1.08687 1.14277 1.07126 1.10027 1.10266 1.13336 1.14558 1.05106 0.990057 1.05875 1.06295 1.0496 1.19106 1.09387 1.00646 1.0127 1.01227 1.07639 1.0958 1.10819 0.964512 0.902348 1.026 1.06026 1.12134 1.03662 1.01325 1.0094 0.982801 0.935824 0.962835 0.995083 0.886592 0.818521 0.847236 1.06039 1.12577 1.07949 1.12691 0.954754 0.993172 1.0117 1.02647 1.06967 1.06351 1.08846 1.06793 1.06455 1.029 1.04257 1.08232 1.04935 1.12127 1.08593 1.01467 1.0677 1.08724 1.09625 1.08679 1.17495 1.17638 1.15799 1.1235 1.12117 1.12246 1.14024 1.15233 1.13006 1.14168 1.11329 1.15964 1.17704 1.17165 1.15708 1.20925 1.16234 1.15243 1.1578 1.16842 1.1289 1.1613 1.19641 1.16223 1.16339 1.16437 1.1621 1.14833 1.16148 1.15454 1.17646 1.143 1.16614 1.15811 1.16645 1.16632 1.17979 1.1579 1.16171 1.17168 1.17368 1.16005 1.1384 1.15169 1.16199 1.13103 1.13481 1.10457 1.08311 1.17561 1.1859 1.11369 1.20451 1.10622 1.14915 0.991021 1.03141 1.1798 1.13186 1.04373 1.18456 1.10083 1.03517 1.01717 1.00665 1.07548 1.08519 1.10569 1.00343 1.00396 1.02307 1.06977 1.12296 1.08713 1.00981 1.05029 1.04226 1.04775 1.02404 1.06265 0.94995 1.01007 0.890078 0.864916 1.02302 1.07932 1.1165 1.12692 1.1011 1.17 0.990245 1.03252 1.07861 1.04533 1.07114 1.09183 1.05973 1.18736 1.0471 1.06658 1.08839 1.07564 1.13376 1.10306 1.02305 1.10741 1.09393 1.13222 1.15876 1.15808 1.13221 1.13664 1.12053 1.1201 1.16706 1.17521 1.17422 1.16733 1.1664 1.16421 1.17287 1.17141 1.13175 1.1299 1.16395 1.16287 1.19675 1.18134 1.1638 1.16898 1.16712 1.1594 1.16957 1.18941 1.17507 1.14227 1.15789 1.16758 1.16572 1.16433 1.16431 1.16249 1.17058 1.15122 1.15537 1.1515 1.13152 1.15468 1.16238 1.18166 1.17338 1.12999 1.18452 1.07796 1.14147 1.19057 1.04939 0.994595 1.15748 1.1003 1.10968 1.07897 1.14123 1.08485 1.03931 1.10629 1.04189 1.07486 1.08995 0.904759 1.08849 1.10633 1.00771 1.19118 1.00642 1.21585 1.09758 1.07292 1.12313 1.1271 1.05643 1.04054 1.10162 1.15282 1.01331 0.887822 0.970595 0.875414 1.04854 1.07985 1.11063 1.13444 1.11311 1.1863 0.99019 1.01549 1.0475 1.04955 1.05708 1.07994 1.06441 1.1406 1.11594 1.0696 1.09058 1.07698 1.08722 1.1317 1.09784 1.11881 1.11562 1.12746 1.09815 1.10244 1.16821 1.13537 1.16199 1.16427 1.16026 1.15415 1.14781 1.1374 1.15 1.13489 1.1281 1.16686 1.17731 1.17483 1.16231 1.17119 1.16486 1.16502 1.21757 1.16033 1.18854 1.17997 1.16543 1.1671 1.17194 1.16991 1.17063 1.16392 1.17076 1.17658 1.1885 1.19046 1.1707 1.14117 1.17861 1.15792 1.15026 1.172 1.17364 1.16638 1.16833 1.16325 1.17289 1.15282 1.16797 1.15837 1.16316 1.16892 1.16412 1.17014 1.17701 1.12219 1.11481 1.1877 1.13487 1.03456 1.22077 1.13198 1.23753 1.06321 1.08465 1.15008 1.11278 1.04874 1.03513 1.04291 1.08137 1.08367 1.06179 1.10653 1.0741 1.00916 1.11564 1.0709 1.08472 1.14144 1.14795 1.08198 1.0265 1.07473 1.11113 1.15093 1.04212 0.923678 1.00284 1.12452 1.10221 1.1329 1.15039 1.15425 1.15695 0.965422 1.08277 1.05907 1.05507 1.09934 1.09632 1.07655 1.12941 1.06245 1.11163 1.10531 1.08025 1.0818 1.09854 1.10145 1.1337 1.13014 1.12593 1.10635 1.11377 1.15996 1.11623 1.16107 1.15919 1.15381 1.14661 1.13805 1.14001 1.15261 1.15693 1.15574 1.11727 1.14599 1.18527 1.17906 1.16292 1.17362 1.17154 1.1722 1.17059 1.19922 1.1917 1.18997 1.18096 1.20001 1.17666 1.18236 1.19018 1.19178 1.17595 1.19178 1.17562 1.19312 1.19211 1.17072 1.17938 1.17575 1.15373 1.15609 1.16387 1.17376 1.16179 1.17431 1.17707 1.18574 1.13118 1.13299 1.17996 1.13833 1.16348 1.17155 1.12248 1.11751 1.13809 1.12911 1.06572 1.14422 1.0973 1.1003 1.05668 1.07138 1.05087 1.10492 1.08366 1.07256 1.10416 1.11694 1.09474 1.07555 1.10092 1.02463 1.09416 1.11959 1.03861 1.04299 1.09425 1.10688 1.04239 1.08155 0.954388 1.03935 1.15043 1.10199 1.14237 1.14191 1.14582 1.1145 1.11284 1.12899 1.06134 1.17042 1.15113 1.15964 1.14542 1.10792 1.09995 1.08356 1.06987 1.14022 1.10787 1.09922 1.08263 1.10728 1.1378 1.11049 1.14146 1.13121 1.11063 1.11508 1.15543 1.16042 1.16975 1.14754 1.15569 1.16026 1.18078 1.18471 1.19771 1.17257 1.15386 1.16825 1.17543 1.17925 1.1855 1.17514 1.17467 1.19177 1.19303 1.20063 1.19345 1.18817 1.17243 1.16906 1.19123 1.17568 1.18037 1.19052 1.17613 1.1771 1.18423 1.164 1.1712 1.18034 1.17739 1.15812 1.14811 1.1626 1.15983 1.1796 1.16622 1.17631 1.16568 1.17772 1.17415 1.17207 1.13948 1.13132 1.16795 1.17979 1.16161 1.1663 1.13188 1.12881 1.13444 1.10481 1.09563 1.1186 1.09552 1.10921 1.11292 1.08137 1.09254 1.10212 1.12085 1.04566 1.09745 1.09077 1.13309 1.09769 1.07847 0.979128 1.05152 1.14262 1.11739 1.1115 1.13119 1.11286 1.12333 1.11809 1.11657 1.16603 1.15852 1.12316 1.08845 1.15976 1.12714 1.10988 1.11532 1.11797 1.10814 1.11793 1.13409 1.14004 1.12941 1.15159 1.1524 1.11882 1.15771 1.16166 1.15968 1.19046 1.17983 1.15424 1.1664 1.20062 1.18424 1.18031 1.17341 1.17483 1.16817 1.18245 1.1786 1.17838 1.17088 1.19049 1.19084 1.19345 1.17365 1.19477 1.19387 1.17946 1.19178 1.18683 1.18585 1.18985 1.19581 1.18198 1.17076 1.18244 1.17808 1.18089 1.18448 1.16177 1.16248 1.16399 1.17773 1.17993 1.16453 1.18246 1.17999 1.13986 1.15161 1.15899 1.15989 1.161 1.16632 1.19955 1.13484 1.11654 1.09483 1.09265 1.10269 1.13926 1.15497 1.09626 1.08102 1.08624 1.10486 1.10419 1.10814 1.11206 1.07849 1.09584 1.13508 1.1355 1.13933 1.13161 1.07364 1.13573 1.13846 1.13124 1.09047 1.06005 1.04668 1.0009 1.05467 1.05986 1.11796 1.1029 1.16278 1.16148 1.11567 1.06489 1.1169 1.10578 1.11756 1.13594 1.13573 1.16396 1.14402 1.13213 1.10383 1.17142 1.1485 1.13661 1.11721 1.12361 1.1369 1.12626 1.14139 1.15541 1.15724 1.15778 1.13242 1.12688 1.16316 1.15849 1.19172 1.15748 1.15689 1.16488 1.20104 1.17833 1.17645 1.15435 1.15533 1.18014 1.16996 1.18402 1.17876 1.18904 1.17553 1.19262 1.19178 1.19178 1.18886 1.17826 1.19657 1.19178 1.18099 1.18521 1.19461 1.18545 1.18868 1.19438 1.17597 1.18224 1.19059 1.1714 1.16654 1.18562 1.18603 1.16267 1.16389 1.16388 1.17601 1.17716 1.17697 1.176 1.17662 1.18019 1.16242 1.16248 1.14602 1.15023 1.17543 1.14946 1.13963 1.11897 1.13278 1.12234 1.16132 1.12913 1.13738 1.1592 1.13859 1.13557 1.13854 1.11281 1.10426 1.12808 1.14753 1.14158 1.1429 1.13539 1.14555 1.08874 1.05036 1.00753 1.06256 1.09579 1.13498 1.12898 1.10296 1.12836 1.11418 1.12062 1.13668 1.16009 1.16029 1.11058 1.1694 1.15252 1.13488 1.12947 1.12522 1.1438 1.15913 1.15343 1.15615 1.15806 1.15764 1.13611 1.16344 1.16479 1.17023 1.17248 1.16249 1.19239 1.19138 1.15993 1.19178 1.17861 1.17794 1.1836 1.1848 1.17619 1.18356 1.17663 1.19189 1.18291 1.18534 1.19187 1.19178 1.19179 1.19178 1.19131 1.18419 1.19178 1.18795 1.18652 1.18904 1.19177 1.19663 1.1822 1.17402 1.18095 1.18446 1.19078 1.18798 1.17168 1.16967 1.18327 1.18485 1.17115 1.16662 1.17662 1.18004 1.18093 1.1703 1.15361 1.14645 1.17223 1.17614 1.13026 1.13085 1.13298 1.16285 1.16833 1.14128 1.16343 1.12476 1.13345 1.13922 1.15783 1.13713 1.13769 1.19208 1.18948 1.13383 1.12702 1.14903 1.15214 1.1571 1.1023 1.05685 1.01611 1.15587 1.1163 1.13011 1.11788 1.12282 1.15866 1.15995 1.13559 1.11363 1.16 1.16972 1.13603 1.18429 1.13015 1.12507 1.12645 1.14456 1.15469 1.15634 1.17726 1.15735 1.16459 1.16431 1.16229 1.16134 1.19243 1.1631 1.16604 1.19353 1.17896 1.17868 1.19178 1.18491 1.19261 1.1849 1.1861 1.18874 1.18471 1.1916 1.19216 1.19265 1.19089 1.18383 1.19121 1.18719 1.18674 1.19077 1.19047 1.18959 1.18257 1.1832 1.18426 1.18497 1.1743 1.17331 1.18745 1.18389 1.18478 1.17554 1.16378 1.18101 1.18211 1.18559 1.17954 1.17834 1.16225 1.1686 1.15606 1.14645 1.1724 1.12159 1.13162 1.18385 1.15038 1.15251 1.14329 1.15335 1.14692 1.1318 1.14697 1.13595 1.14287 1.13799 1.14076 1.14668 1.14521 1.17696 1.10954 1.13985 1.1292 1.16142 1.1604 1.10246 1.12528 1.05841 1.15905 1.16129 1.15706 1.13812 1.1298 1.12152 1.12004 1.1283 1.12238 1.16187 1.1375 1.13403 1.14445 1.15788 1.15699 1.18559 1.16616 1.16229 1.16319 1.16807 1.18789 1.18421 1.17605 1.16425 1.1804 1.17968 1.17812 1.16222 1.16864 1.18264 1.16581 1.12186 1.13695 1.13046 1.13206 1.13871 1.15852 1.15374 1.10668 1.14224 1.16509 1.1505 1.14008 
SCALARS Stress float 1
LOOKUP_TABLE default
-235033000000.0 -254411000000.0 -145509000000.0 -769764000000.0 -36608000000.0 -419954000000.0 -310114000000.0 -208759000000.0 -143761000000.0 -186693000000.0 -466925000000.0 -511919000000.0 -995048000000.0 -556288000000.0 -937970000000.0 -453871000000.0 -549427000000.0 -268504000000.0 -549930000000.0 -751910000000.0 -1.02381e+12 -1.09938e+12 -475729000000.0 -381912000000.0 -304941000000.0 -339671000000.0 -627079000000.0 -794610000000.0 -449776000000.0 -820201000000.0 -1.12013e+12 -711729000000.0 -654524000000.0 -1.37838e+12 -1.81047e+12 -1.99913e+12 -1.78015e+12 -1.56755e+12 -1.77436e+12 -814245000000.0 -1.48558e+12 -409852000000.0 -975678000000.0 -653831000000.0 -901634000000.0 -212436000000.0 -1.74538e+12 -1.42117e+12 -1.23013e+12 -725133000000.0 -1.52654e+12 -955690000000.0 -782355000000.0 -1.6143e+12 -863588000000.0 -2.07157e+12 -671817000000.0 -1.22026e+12 -1.37692e+12 -1.35402e+12 -2.684e+12 -3.17864e+12 -2.97565e+12 -1.86249e+12 -2.14346e+12 -2.63183e+12 -1.74248e+12 -1.00478e+12 -1.11783e+12 -1.27406e+12 -1.77526e+12 -1.39956e+12 -2.2905e+12 -1.74013e+12 -1.35479e+12 -1.35607e+12 -1.21538e+12 -1.14621e+12 -787780000000.0 -2.03052e+12 -1.12964e+12 -2.23587e+12 -3.33625e+12 -3.09834e+12 -1.95071e+12 -3.40004e+12 -4.00102e+12 -4.41546e+12 -2.25513e+12 -3.22583e+12 -3.28981e+12 -3.02659e+12 -5.78382e+12 -4.30724e+12 -5.06737e+12 -6.73203e+12 -5.70773e+12 -3.54559e+12 -3.7631e+12 -2.09253e+12 -3.42539e+12 -1.72917e+12 -2.08474e+12 -1.67001e+12 -1.41902e+12 -2.73812e+12 -1.445e+12 -879217000000.0 -1.89891e+12 -2.84699e+12 -2.25692e+12 -2.76664e+12 -598367000000.0 -2.75139e+12 -5.51404e+12 -2.55238e+12 -3.06479e+12 -3.21093e+12 -2.9011e+12 -4.15933e+12 -2.38389e+12 -2.65188e+12 -5.92803e+12 -2.83183e+12 -1.49787e+12 -4.37206e+12 -4.44894e+12 -3.87575e+12 -4.22154e+12 -7.34755e+12 -7.5244e+12 -5.70726e+12 -5.14539e+12 -3.11943e+12 -4.35153e+12 -4.98223e+12 -3.13176e+12 -1.62105e+12 -1.24708e+12 -4.14573e+12 -1.49779e+12 -1.38069e+12 -1.71613e+12 -1.7526e+12 -2.35199e+12 -921421000000.0 -1.18142e+12 -3.32293e+12 -2.50793e+12 -2.39723e+12 -1.66877e+12 -1.62112e+12 -2.3985e+12 -1.3805e+12 -1.97156e+12 -1.56972e+12 -1.51208e+12 -3.32946e+12 -2.88714e+12 -4.57468e+12 -4.20246e+12 -2.7738e+12 -3.92451e+12 -4.62537e+12 -4.07191e+12 -2.70996e+12 -4.39941e+12 -4.15697e+12 -5.15555e+12 -7.91392e+12 -4.97673e+12 -5.97431e+12 -7.68959e+12 -3.8147e+12 -4.01444e+12 -4.09707e+12 -4.44186e+12 -6.95588e+12 -5.47907e+12 -6.47649e+12 -4.20875e+12 -3.78157e+12 -7.1318e+12 -8.19032e+12 -5.06159e+12 -2.56609e+12 -4.40101e+12 -2.45874e+12 -2.62876e+12 -4.91477e+12 -3.06547e+12 -3.14809e+12 -2.27513e+12 -3.13935e+12 -2.08357e+12 -2.25458e+12 -2.60624e+12 -2.76762e+12 -3.24898e+12 -1.04093e+12 -3.75156e+12 -2.6585e+12 -4.3772e+12 -2.90969e+12 -2.36003e+12 -5.12401e+12 -3.33455e+12 -4.15021e+12 -3.60724e+12 -3.75135e+12 -6.07333e+12 -6.65141e+12 -5.97504e+12 -5.53141e+12 -4.9762e+12 -4.93621e+12 -7.50343e+12 -4.37129e+12 -5.8469e+12 -6.19589e+12 -3.38743e+12 -5.32662e+12 -3.09352e+12 -3.84298e+12 -7.58289e+12 -6.24957e+12 -6.91786e+12 -6.00004e+12 -3.90418e+12 -3.94009e+12 -3.27979e+12 -4.52471e+12 -2.4952e+12 -5.76153e+12 -6.67726e+12 -4.97603e+12 -4.86709e+12 -3.56514e+12 -3.07339e+12 -4.88361e+12 -3.28992e+12 -3.89323e+12 -3.74307e+12 -1.33615e+12 -2.15326e+12 -1.81619e+12 -2.54072e+12 -3.27901e+12 -4.13302e+12 -4.41291e+12 -4.33986e+12 -3.95004e+12 -3.35776e+12 -4.39058e+12 -4.47817e+12 -5.96222e+12 -3.9727e+12 -6.87817e+12 -3.53593e+12 -8.51621e+12 -9.3719e+12 -9.45432e+12 -1.2909e+13 -7.10117e+12 -7.90535e+12 -6.86053e+12 -4.21461e+12 -3.29133e+12 -4.50881e+12 -4.08417e+12 -5.36965e+12 -5.27604e+12 -5.17812e+12 -3.21636e+12 -7.31056e+12 -5.71903e+12 -3.06418e+12 -3.74452e+12 -7.92301e+12 -5.87857e+12 -6.67255e+12 -7.55791e+12 -5.21802e+12 -5.79527e+12 -8.47337e+12 -4.04125e+12 -2.04914e+12 -5.93389e+12 -6.62502e+12 -4.97011e+12 -2.3572e+12 -3.84381e+12 -3.89087e+12 -3.10526e+12 -3.98258e+12 -2.97174e+12 -4.16227e+12 -2.72832e+12 -3.77669e+12 -6.45555e+12 -3.34138e+12 -3.15644e+12 -3.59897e+12 -4.74794e+12 -3.23286e+12 -4.01765e+12 -5.55353e+12 -5.47082e+12 -4.86441e+12 -6.70995e+12 -3.19871e+12 -6.02303e+12 -5.94712e+12 -7.77819e+12 -6.785e+12 -5.59999e+12 -2.3684e+12 -8.05706e+12 -7.07695e+12 -5.28229e+12 -7.20005e+12 -4.71418e+12 -2.40953e+12 -6.69035e+12 -3.07991e+12 -4.40358e+12 -3.97255e+12 -3.81065e+12 -9.08448e+12 -6.60461e+12 -9.04016e+12 -8.81987e+12 -4.08493e+12 -7.84734e+12 -4.95958e+12 -7.46772e+12 -5.4693e+12 -7.56704e+12 -5.10873e+12 -4.48983e+12 -4.92782e+12 -6.51281e+12 -5.15689e+12 -5.00828e+12 -3.72685e+12 -4.72469e+12 -2.95162e+12 -3.9522e+12 -2.53753e+12 -4.19988e+12 -4.72683e+12 -692634000000.0 -2.19149e+12 -2.18644e+12 -2.44272e+12 -2.94614e+12 -2.87513e+12 -2.62441e+12 -3.14614e+12 -5.92741e+12 -2.66318e+12 -2.67586e+12 -3.29501e+12 -1.89652e+12 -3.27365e+12 -5.01e+12 -4.29612e+12 -3.93933e+12 -1.27001e+12 -5.08046e+12 -1.98869e+12 -5.99986e+12 -7.17344e+12 -5.0169e+12 -4.15804e+12 -6.65676e+12 -3.56259e+12 -4.07855e+12 -5.32822e+12 -7.58057e+12 -5.56634e+12 -5.86507e+12 -6.95417e+12 -5.14088e+12 -4.50777e+12 -5.30707e+12 -9.76816e+12 -4.03156e+12 -1.09932e+13 -5.38604e+12 -3.19186e+12 -4.99552e+12 -3.91149e+12 -4.20891e+12 -7.51663e+12 -3.99425e+12 -5.60433e+12 -3.31915e+12 -7.61526e+12 -3.95905e+12 -9.40508e+12 -4.48769e+12 -5.68965e+12 -7.66307e+12 -4.76476e+12 -7.15258e+12 -4.10912e+12 -9.31238e+12 -6.32005e+12 -5.94797e+12 -7.43759e+12 -4.34612e+12 -3.25495e+12 -4.72261e+12 -5.16153e+12 -5.73444e+12 -4.24633e+12 -4.78057e+12 -4.51291e+12 -4.84012e+12 -3.07168e+12 -4.12325e+12 -5.13523e+12 -4.21174e+12 -3.48158e+12 -3.24187e+12 -4.09932e+12 -2.79157e+12 -3.49121e+12 -3.65514e+12 -3.7095e+12 -3.9999e+12 -3.70663e+12 -5.62163e+12 -6.32238e+12 -2.33422e+12 -3.80648e+12 -5.11025e+12 -3.06197e+12 -3.22521e+12 -3.43012e+12 -1.94325e+12 -3.26804e+12 -3.01213e+12 -3.16179e+12 -3.65507e+12 -4.02431e+12 -5.07569e+12 -3.76737e+12 -4.3684e+12 -6.11184e+12 -5.02086e+12 -5.38739e+12 -7.58546e+12 -7.78212e+12 -9.08267e+12 -5.14637e+12 -7.14211e+12 -5.40114e+12 -1.20883e+13 -6.52199e+12 -6.20354e+12 -6.26863e+12 -5.20896e+12 -5.37594e+12 -3.88807e+12 -2.74726e+12 -3.46085e+12 -4.95874e+12 -7.82301e+12 -9.35772e+12 -4.56865e+12 -6.99607e+12 -6.29807e+12 -5.50604e+12 -6.78644e+12 -3.91798e+12 -3.74533e+12 -5.07917e+12 -6.65445e+12 -9.0143e+12 -2.90327e+12 -5.54944e+12 -5.92018e+12 -6.91764e+12 -5.64805e+12 -7.41853e+12 -4.99594e+12 -2.79729e+12 -2.98511e+12 -4.73886e+12 -3.19985e+12 -4.06445e+12 -2.71488e+12 -5.01576e+12 -2.70583e+12 -3.64226e+12 -3.01302e+12 -2.85295e+12 -2.00642e+12 -2.96431e+12 -2.49069e+12 -2.93165e+12 -2.02191e+12 -2.48556e+12 -3.55875e+12 -2.93448e+12 -1.60227e+12 -3.32656e+12 -2.22497e+12 -2.49699e+12 -2.78059e+12 -3.26718e+12 -3.53339e+12 -3.96096e+12 -4.26379e+12 -4.7142e+12 -1.90912e+12 -4.33729e+12 -5.06082e+12 -4.81645e+12 -4.43333e+12 -4.42258e+12 -5.04839e+12 -5.05487e+12 -4.49816e+12 -7.03587e+12 -2.72834e+12 -3.71616e+12 -3.08035e+12 -4.67886e+12 -6.03688e+12 -5.38937e+12 -6.45461e+12 -6.78299e+12 -6.77609e+12 -9.41247e+12 -9.11302e+12 -7.67699e+12 -8.68156e+12 -9.34929e+12 -4.80273e+12 -4.32984e+12 -6.16243e+12 -6.96039e+12 -4.97745e+12 -4.34574e+12 -8.85596e+12 -4.55353e+12 -4.09525e+12 -3.32049e+12 -3.36481e+12 -2.82224e+12 -5.81331e+12 -7.48198e+12 -5.10126e+12 -7.15058e+12 -8.89649e+12 -4.64126e+12 -5.7718e+12 -3.02967e+12 -5.80858e+12 -5.23099e+12 -4.50282e+12 -5.33757e+12 -6.77494e+12 -4.03831e+12 -5.12822e+12 -9.11922e+12 -6.54678e+12 -4.9507e+12 -5.88885e+12 -4.97974e+12 -2.94534e+12 -2.85877e+12 -5.16938e+12 -6.80428e+12 -3.80246e+12 -5.01988e+12 -4.0709e+12 -6.06152e+12 -3.94495e+12 -5.09484e+12 -4.495e+12 -3.94522e+12 -3.81019e+12 -4.26829e+12 -2.80115e+12 -2.52926e+12 -1.75991e+12 -2.53698e+12 -3.59503e+12 -3.15356e+12 -3.51946e+12 -2.13694e+12 -1.86431e+12 -2.10817e+12 -2.32234e+12 -3.12972e+12 -2.17134e+12 -2.61288e+12 -2.45173e+12 -2.17178e+12 -3.74847e+12 -2.5606e+12 -4.05087e+12 -4.7744e+12 -2.6427e+12 -2.51964e+12 -2.51423e+12 -3.47905e+12 -4.83908e+12 -3.80518e+12 -3.74346e+12 -4.37432e+12 -4.94365e+12 -3.84685e+12 -3.17084e+12 -3.94041e+12 -1.06429e+13 -4.2465e+12 -8.58768e+12 -4.42851e+12 -5.85574e+12 -1.37642e+13 -3.04319e+12 -8.88128e+12 -5.15852e+12 -5.8888e+12 -8.12872e+12 -7.49874e+12 -9.95506e+12 -5.48652e+12 -4.27555e+12 -6.54423e+12 -7.29412e+12 -5.36244e+12 -3.19412e+12 -2.86108e+12 -6.00851e+12 -6.39079e+12 -4.45177e+12 -3.11621e+12 -4.38076e+12 -5.01594e+12 -6.41622e+12 -4.49646e+12 -3.51699e+12 -7.7282e+12 -5.34142e+12 -7.57101e+12 -6.62278e+12 -8.83137e+12 -7.49434e+12 -5.41666e+12 -4.21735e+12 -4.15551e+12 -5.3693e+12 -6.76582e+12 -9.07143e+12 -8.67563e+12 -9.50012e+12 -6.47289e+12 -3.63503e+12 -4.4012e+12 -5.97483e+12 -8.34808e+12 -4.64109e+12 -3.08315e+12 -3.21183e+12 -7.3075e+12 -2.52433e+12 -4.11419e+12 -3.271e+12 -4.67831e+12 -3.41719e+12 -2.64773e+12 -2.34352e+12 -3.88403e+12 -1.88918e+12 -2.58859e+12 -2.45083e+12 -2.70471e+12 -4.27642e+12 -6.1242e+12 -2.12433e+12 -1.48315e+12 -2.84729e+12 -3.16681e+12 -1.84514e+12 -1.7096e+12 -3.71891e+12 -2.7232e+12 -2.98507e+12 -3.9775e+12 -3.50726e+12 -3.2909e+12 -3.31139e+12 -3.836e+12 -2.34249e+12 -2.27e+12 -8.96399e+12 -6.84877e+12 -3.62508e+12 -4.57418e+12 -9.0862e+12 -3.97107e+12 -6.19576e+12 -7.42102e+12 -5.93509e+12 -5.23209e+12 -5.14612e+12 -6.57221e+12 -1.05506e+13 -3.99877e+12 -8.13636e+12 -8.76492e+12 -9.95371e+12 -4.3477e+12 -5.7912e+12 -8.39716e+12 -9.88167e+12 -5.30015e+12 -9.26202e+12 -5.68046e+12 -5.98366e+12 -5.89655e+12 -5.11685e+12 -4.91439e+12 -4.97154e+12 -5.64349e+12 -7.95191e+12 -7.38336e+12 -2.43046e+12 -4.78218e+12 -5.70641e+12 -7.0255e+12 -4.74111e+12 -6.4694e+12 -6.27902e+12 -6.61119e+12 -5.64805e+12 -6.70337e+12 -3.64289e+12 -3.83547e+12 -7.17095e+12 -8.81474e+12 -6.61051e+12 -3.50839e+12 -8.0313e+12 -4.9101e+12 -3.47499e+12 -3.88115e+12 -3.17554e+12 -4.71724e+12 -3.19597e+12 -3.30452e+12 -3.25659e+12 -5.71475e+12 -5.7942e+12 -5.12286e+12 -3.10507e+12 -4.41247e+12 -3.56266e+12 -2.77195e+12 -3.52238e+12 -3.26959e+12 -2.31498e+12 -2.28087e+12 -2.72073e+12 -4.13313e+12 -3.07782e+12 -4.86555e+12 -2.93599e+12 -2.88598e+12 -2.31197e+12 -3.09738e+12 -4.91225e+12 -4.64546e+12 -3.11616e+12 -2.74346e+12 -2.31274e+12 -4.18038e+12 -4.23469e+12 -3.17592e+12 -3.7002e+12 -6.92008e+12 -1.3003e+12 -6.48124e+12 -4.52144e+12 -7.75823e+12 -3.55416e+12 -5.13151e+12 -8.35328e+12 -6.68862e+12 -3.63556e+12 -5.60394e+12 -6.85705e+12 -7.84619e+12 -4.14779e+12 -4.11957e+12 -4.42505e+12 -6.09509e+12 -8.41627e+12 -7.88725e+12 -3.00639e+12 -4.41547e+12 -2.20319e+12 -4.864e+12 -4.8071e+12 -8.78992e+12 -8.86452e+12 -8.17711e+12 -5.05827e+12 -7.39201e+12 -7.85596e+12 -3.31982e+12 -3.42527e+12 -4.60519e+12 -6.95934e+12 -9.46609e+12 -1.08517e+13 -2.95149e+12 -9.14142e+12 -9.53013e+12 -6.1821e+12 -1.03981e+13 -6.40305e+12 -1.15815e+13 -8.90853e+12 -6.83064e+12 -4.33012e+12 -4.39357e+12 -6.5552e+12 -5.94451e+12 -4.86575e+12 -3.77463e+12 -5.69365e+12 -5.83924e+12 -5.98668e+12 -5.36931e+12 -5.79312e+12 -4.73858e+12 -6.87682e+12 -4.26847e+12 -3.48962e+12 -4.56195e+12 -4.76284e+12 -6.7201e+12 -4.86156e+12 -4.59331e+12 -3.75515e+12 -3.34795e+12 -1.76473e+12 -3.42235e+12 -3.26523e+12 -3.93805e+12 -2.64673e+12 -4.98206e+12 -2.15491e+12 -2.79338e+12 -1.92766e+12 -2.44834e+12 -2.56713e+12 -2.62092e+12 -2.65747e+12 -1.69156e+12 -2.37484e+12 -3.53662e+12 -3.40648e+12 -3.92095e+12 -3.32825e+12 -3.61146e+12 -3.97956e+12 -1.11966e+12 -2.6196e+12 -3.65322e+12 -2.14839e+12 -3.03919e+12 -1.29521e+12 -2.85185e+12 -5.16417e+12 -3.85005e+12 -4.30905e+12 -2.46669e+12 -4.48933e+12 -4.90067e+12 -5.51947e+12 -4.52194e+12 -3.88529e+12 -5.65348e+12 -4.81307e+12 -5.30482e+12 -5.214e+12 -4.43405e+12 -4.40123e+12 -3.92469e+12 -2.86922e+12 -5.35999e+12 -4.19625e+12 -4.85011e+12 -5.78261e+12 -5.16436e+12 -8.15212e+12 -5.28777e+12 -6.38879e+12 -6.12977e+12 -7.32503e+12 -7.50742e+12 -6.77041e+12 -1.23638e+13 -5.16393e+12 -8.32218e+12 -9.64666e+12 -6.74507e+12 -8.37431e+12 -5.80175e+12 -7.12335e+12 -2.82794e+12 -2.87057e+12 -3.64297e+12 -5.15068e+12 -6.94284e+12 -4.37287e+12 -1.18449e+13 -7.80375e+12 -8.25497e+12 -7.12294e+12 -3.19597e+12 -1.14666e+13 -7.9135e+12 -6.84934e+12 -8.70855e+12 -3.61149e+12 -5.82942e+12 -7.64401e+12 -6.96343e+12 -5.71882e+12 -4.70749e+12 -4.82162e+12 -3.92022e+12 -3.57002e+12 -3.63454e+12 -3.82531e+12 -4.69434e+12 -5.55326e+12 -5.718e+12 -4.23616e+12 -4.43755e+12 -3.39429e+12 -5.22542e+12 -3.81137e+12 -3.48774e+12 -3.00764e+12 -3.34212e+12 -2.59593e+12 -3.54675e+12 -2.54827e+12 -3.15101e+12 -3.93977e+12 -1.66934e+12 -1.13481e+12 -3.28919e+12 -2.88876e+12 -2.89804e+12 -2.78677e+12 -2.27211e+12 -2.336e+12 -2.6328e+12 -2.78421e+12 -2.76147e+12 -5.20931e+12 -2.38868e+12 -3.00027e+12 -3.37945e+12 -3.04984e+12 -2.75459e+12 -3.45134e+12 -2.15644e+12 -2.28335e+12 -4.00219e+12 -4.79726e+12 -3.78472e+12 -6.32791e+12 -3.80708e+12 -2.83723e+12 -5.44429e+12 -6.12574e+12 -7.55495e+12 -6.03592e+12 -3.88237e+12 -6.14203e+12 -6.76332e+12 -4.3648e+12 -5.62268e+12 -4.68801e+12 -6.30761e+12 -5.75487e+12 -5.22267e+12 -3.86296e+12 -5.21787e+12 -6.69603e+12 -4.76014e+12 -6.8169e+12 -1.25296e+13 -7.61092e+12 -6.81513e+12 -7.83933e+12 -1.06954e+13 -8.38774e+12 -8.11113e+12 -1.90552e+12 -4.51195e+12 -7.42438e+12 -5.64068e+12 -8.22209e+12 -6.47684e+12 -3.23169e+12 -5.06037e+12 -8.02681e+12 -7.433e+12 -5.18579e+12 -8.60469e+12 -8.95791e+12 -8.1943e+12 -4.81066e+12 -7.05302e+12 -5.77426e+12 -5.40505e+12 -7.49099e+12 -4.93777e+12 -5.24194e+12 -9.41365e+12 -5.36502e+12 -8.55578e+12 -7.18102e+12 -4.64508e+12 -4.32853e+12 -6.59421e+12 -4.38884e+12 -4.74821e+12 -6.24782e+12 -5.61074e+12 -5.26602e+12 -4.93844e+12 -4.75587e+12 -5.34318e+12 -3.97507e+12 -5.07828e+12 -6.47084e+12 -4.86039e+12 -3.35149e+12 -5.67632e+12 -4.95012e+12 -4.56875e+12 -3.74138e+12 -3.54527e+12 -3.18387e+12 -3.02318e+12 -2.1929e+12 -4.01302e+12 -1.88313e+12 -1.96933e+12 -1.38926e+12 -2.35908e+12 -1.70286e+12 -1.90332e+12 -2.0741e+12 -3.35764e+12 -2.26276e+12 -2.1294e+12 -2.15657e+12 -1.23496e+12 -2.79791e+12 -1.70584e+12 -2.28655e+12 -5.25006e+12 -1.35853e+12 -4.49642e+12 -3.66747e+12 -2.38335e+12 -1.81686e+12 -5.28189e+12 -4.90682e+12 -2.35154e+12 -2.62975e+12 -2.24187e+12 -2.22561e+12 -4.83877e+12 -4.4495e+12 -3.45737e+12 -2.61346e+12 -2.48992e+12 -7.42057e+12 -4.44544e+12 -4.78044e+12 -4.35859e+12 -3.6257e+12 -5.6952e+12 -5.9857e+12 -3.96916e+12 -7.10856e+12 -7.84632e+12 -3.74801e+12 -5.98761e+12 -5.69121e+12 -7.20012e+12 -1.08439e+13 -7.30454e+12 -3.82846e+12 -7.18504e+12 -1.00389e+13 -6.54327e+12 -6.75821e+12 -8.86892e+12 -1.05016e+13 -8.74242e+12 -6.9733e+12 -5.5281e+12 -8.47985e+12 -6.51799e+12 -8.5239e+12 -6.21767e+12 -5.47639e+12 -4.60958e+12 -3.77703e+12 -3.65876e+12 -4.41655e+12 -8.91855e+12 -6.52025e+12 -9.34228e+12 -8.13561e+12 -5.91038e+12 -5.82931e+12 -4.89229e+12 -4.42117e+12 -6.50688e+12 -7.6831e+12 -1.06581e+13 -8.75197e+12 -4.36131e+12 -5.23142e+12 -7.41065e+12 -4.26974e+12 -9.35407e+12 -6.44279e+12 -7.85136e+12 -5.60971e+12 -8.31119e+12 -5.49788e+12 -5.5599e+12 -6.02176e+12 -5.90548e+12 -5.0888e+12 -3.69921e+12 -3.47714e+12 -3.70148e+12 -4.14994e+12 -4.87253e+12 -7.85492e+12 -2.94959e+12 -2.02164e+12 -4.96179e+12 -2.19329e+12 -2.19489e+12 -4.68389e+12 -3.42526e+12 -4.20941e+12 -2.02273e+12 -4.04706e+12 -3.79677e+12 -4.41662e+12 -2.69062e+12 -4.12882e+12 -3.36571e+12 -2.24569e+12 -2.77392e+12 -2.46655e+12 -2.05666e+12 -1.14391e+12 -2.81187e+12 -3.01729e+12 -3.18441e+12 -3.21291e+12 -3.34709e+12 -5.02304e+12 -2.77948e+12 -2.38207e+12 -4.1098e+12 -4.34821e+12 -1.63869e+12 -2.94278e+12 -4.77049e+12 -2.99597e+12 -3.59612e+12 -3.31579e+12 -6.34239e+12 -2.82833e+12 -6.92854e+12 -6.84435e+12 -4.41825e+12 -4.60512e+12 -4.38518e+12 -8.82338e+12 -7.00056e+12 -6.63878e+12 -5.75355e+12 -6.00047e+12 -7.62941e+12 -7.35155e+12 -6.3408e+12 -6.45517e+12 -6.87865e+12 -9.89015e+12 -9.34246e+12 -7.72036e+12 -9.06599e+12 -5.7528e+12 -6.69774e+12 -3.8947e+12 -3.43476e+12 -5.09606e+12 -5.06391e+12 -1.17811e+13 -5.9261e+12 -7.75317e+12 -8.36469e+12 -8.96829e+12 -4.10505e+12 -2.73173e+12 -7.84966e+12 -9.52757e+12 -5.58716e+12 -8.57482e+12 -6.3978e+12 -7.40337e+12 -3.95383e+12 -8.69118e+12 -6.34518e+12 -6.2541e+12 -6.95999e+12 -4.74153e+12 -6.844e+12 -6.50661e+12 -8.38562e+12 -5.77315e+12 -1.88114e+12 -4.10219e+12 -6.31071e+12 -5.62019e+12 -5.02873e+12 -7.78003e+12 -4.08347e+12 -6.94246e+12 -7.07067e+12 -3.908e+12 -5.4138e+12 -4.03334e+12 -4.00904e+12 -4.99675e+12 -2.90231e+12 -4.33931e+12 -3.0381e+12 -3.81014e+12 -5.09627e+12 -4.25424e+12 -1.5213e+12 -7.31939e+12 -2.62426e+12 -5.33661e+12 -1.57707e+12 -5.15758e+12 -2.21497e+12 -3.84198e+12 -3.54827e+12 -2.24968e+12 -2.06183e+12 -3.13296e+12 -3.75606e+12 -1.69965e+12 -1.62351e+12 -2.68721e+12 -3.05869e+12 -1.55525e+12 -2.0645e+12 -1.93103e+12 -2.33967e+12 -753811000000.0 -2.10051e+12 -2.40288e+12 -1.39695e+12 -1.94032e+12 -3.13463e+12 -2.49537e+12 -3.28508e+12 -3.82089e+12 -3.2149e+12 -4.07913e+12 -2.34518e+12 -2.98426e+12 -2.98253e+12 -4.93323e+12 -4.23007e+12 -4.5858e+12 -2.93818e+12 -3.26884e+12 -2.61428e+12 -3.66479e+12 -4.06815e+12 -4.78435e+12 -4.10547e+12 -3.45122e+12 -3.58996e+12 -2.72986e+12 -6.22414e+12 -6.13378e+12 -4.34543e+12 -4.46052e+12 -4.59268e+12 -6.77579e+12 -5.61254e+12 -7.37425e+12 -6.31645e+12 -1.14528e+13 -6.59766e+12 -8.02119e+12 -4.15294e+12 -1.00881e+13 -4.96501e+12 -9.49514e+12 -8.75469e+12 -8.07663e+12 -6.20132e+12 -6.59962e+12 -6.44794e+12 -6.52236e+12 -6.90821e+12 -4.6186e+12 -6.50015e+12 -7.14014e+12 -7.85488e+12 -6.87859e+12 -8.32478e+12 -5.56016e+12 -7.80558e+12 -1.05176e+13 -8.75468e+12 -9.98906e+12 -4.41766e+12 -9.8073e+12 -5.04585e+12 -5.82054e+12 -1.10092e+13 -7.40376e+12 -5.24549e+12 -5.06519e+12 -4.2025e+12 -9.21479e+12 -3.9945e+12 -3.21398e+12 -7.33229e+12 -5.51571e+12 -7.43639e+12 -6.05557e+12 -6.62647e+12 -4.78139e+12 -6.54511e+12 -6.99324e+12 -4.54461e+12 -5.18344e+12 -5.88564e+12 -1.4332e+12 -4.42723e+12 -3.50375e+12 -2.73252e+12 -4.83226e+12 -5.57902e+12 -2.80467e+12 -2.88429e+12 -3.27717e+12 -3.90362e+12 -3.96296e+12 -2.82221e+12 -1.74657e+12 -2.34807e+12 -4.04906e+12 -4.0146e+12 -3.72345e+12 -3.05437e+12 -2.40553e+12 -2.90681e+12 -2.25597e+12 -2.11002e+12 -1.85235e+12 -1.31811e+12 -2.30305e+12 -2.19835e+12 -1.26047e+12 -1.8414e+12 -2.98587e+12 -2.41596e+12 -2.9066e+12 -2.26831e+12 -2.55407e+12 -2.62906e+12 -2.79271e+12 -1.521e+12 -1.84256e+12 -1.99993e+12 -2.24013e+12 -2.96821e+12 -5.02355e+12 -960930000000.0 -3.1982e+12 -1.74189e+12 -3.64102e+12 -2.65392e+12 -4.27859e+12 -4.34685e+12 -3.55889e+12 -3.15072e+12 -5.83157e+12 -3.51397e+12 -7.37179e+12 -4.68489e+12 -3.74962e+12 -4.80815e+12 -2.76976e+12 -3.45266e+12 -5.58735e+12 -6.4366e+12 -6.95879e+12 -7.60887e+12 -6.13189e+12 -6.29353e+12 -4.01731e+12 -2.8583e+12 -5.61594e+12 -6.02148e+12 -8.14294e+12 -6.58844e+12 -5.72225e+12 -7.3934e+12 -3.57798e+12 -4.88854e+12 -2.07597e+12 -6.08578e+12 -2.86261e+12 -3.12884e+12 -5.28343e+12 -5.08694e+12 -3.56868e+12 -8.00193e+12 -6.40443e+12 -6.22437e+12 -6.86617e+12 -5.76961e+12 -8.23142e+12 -6.68541e+12 -3.67875e+12 -7.38711e+12 -4.88356e+12 -2.23962e+12 -6.83534e+12 -3.77143e+12 -6.34728e+12 -6.72052e+12 -8.77614e+12 -7.18445e+12 -8.95903e+12 -8.3995e+12 -7.26443e+12 -6.82429e+12 -6.98146e+12 -7.22614e+12 -4.62663e+12 -6.80066e+12 -5.67726e+12 -7.2402e+12 -6.09864e+12 -4.02542e+12 -8.13267e+12 -3.15987e+12 -4.81781e+12 -4.30587e+12 -4.23292e+12 -6.62693e+12 -3.96923e+12 -3.08482e+12 -5.38199e+12 -6.37862e+12 -4.07304e+12 -1.46322e+12 -5.92897e+12 -4.23882e+12 -4.68712e+12 -5.21925e+12 -4.94729e+12 -3.62941e+12 -4.40516e+12 -3.8968e+12 -4.35832e+12 -3.02934e+12 -2.45088e+12 -2.90296e+12 -2.49849e+12 -2.92121e+12 -3.41906e+12 -4.91165e+12 -2.93128e+12 -3.28306e+12 -2.73016e+12 -3.18567e+12 -3.1112e+12 -2.8627e+12 -2.2996e+12 -2.32627e+12 -1.84349e+12 -1.01979e+12 -3.17631e+12 -3.81695e+12 -1.37346e+12 -778986000000.0 -2.0182e+12 -3.67832e+12 -2.45557e+12 -2.44424e+12 -2.11339e+12 -1.41722e+12 -243222000000.0 -2.90936e+12 -2.49035e+12 -4.01607e+12 -2.1678e+12 -3.14448e+12 -2.64797e+12 -2.05681e+12 -4.32393e+12 -5.95904e+12 -1.63556e+12 -5.99854e+12 -1.91064e+12 -4.76651e+12 -4.71456e+12 -6.10874e+12 -2.61534e+12 -5.60272e+12 -5.70128e+12 -2.55851e+12 -4.66525e+12 -1.71661e+12 -4.21403e+12 -3.85969e+12 -5.74339e+12 -4.55355e+12 -5.83465e+12 -4.64813e+12 -4.95501e+12 -4.35764e+12 -5.80989e+12 -4.59747e+12 -5.71874e+12 -3.08995e+12 -4.96991e+12 -2.87219e+12 -8.87979e+12 -6.43276e+12 -5.78388e+12 -3.85091e+12 -5.17129e+12 -7.90067e+12 -4.11944e+12 -9.46162e+12 -7.08169e+12 -7.61053e+12 -6.56365e+12 -5.54458e+12 -6.48026e+12 -5.68861e+12 -6.13163e+12 -4.94993e+12 -4.52756e+12 -3.61698e+12 -6.7121e+12 -8.28963e+12 -2.28215e+12 -4.25571e+12 -5.39401e+12 -5.45241e+12 -9.89112e+12 -4.2797e+12 -4.7514e+12 -5.8161e+12 -1.08798e+13 -7.36263e+12 -2.47375e+12 -8.39447e+12 -6.03288e+12 -5.18893e+12 -6.04352e+12 -7.93263e+12 -3.76757e+12 -3.8725e+12 -4.42006e+12 -6.71148e+12 -5.41388e+12 -5.81985e+12 -3.16448e+12 -6.64361e+12 -4.47595e+12 -4.44169e+12 -4.95073e+12 -3.18569e+12 -5.82859e+12 -3.16461e+12 -3.04234e+12 -7.4738e+12 -3.59306e+12 -6.57186e+12 -3.45809e+12 -3.44216e+12 -2.83128e+12 -5.63505e+12 -4.62696e+12 -1.83764e+12 -2.86077e+12 -4.48334e+12 -3.03781e+12 -2.97454e+12 -4.82726e+12 -2.92399e+12 -3.46957e+12 -5.00256e+12 -4.29253e+12 -2.01014e+12 -569778000000.0 -1.73373e+12 -3.87844e+12 -1.174e+12 -2.8874e+12 -1.86389e+12 -3.96234e+12 -1.50434e+12 -2.42307e+12 -1.92745e+12 -1.42334e+12 -1.95998e+12 -1.35118e+12 -2.33333e+12 -2.56906e+12 -2.07942e+12 -1.31024e+12 -1.1504e+12 -2.95649e+12 -3.68308e+12 -1.93271e+12 -1.59204e+12 -2.73464e+12 -1.53781e+12 -4.36452e+12 -3.02545e+12 -2.51286e+12 -3.4252e+12 -3.70152e+12 -2.93241e+12 -2.69144e+12 -5.1636e+12 -2.57199e+12 -4.49917e+12 -3.5465e+12 -6.02544e+12 -3.39523e+12 -4.22443e+12 -2.28037e+12 -3.26846e+12 -4.35427e+12 -5.23879e+12 -3.09116e+12 -4.77089e+12 -4.57844e+12 -2.12075e+12 -1.30187e+12 -2.94166e+12 -5.58147e+12 -6.96122e+12 -3.07662e+12 -5.22027e+12 -5.9625e+12 -9.21665e+12 -6.25628e+12 -6.52496e+12 -7.93498e+12 -7.30317e+12 -6.76386e+12 -8.63557e+12 -5.56741e+12 -6.18079e+12 -7.8777e+12 -6.99621e+12 -7.8486e+12 -8.21806e+12 -4.8531e+12 -3.86389e+12 -4.63443e+12 -5.32892e+12 -4.76408e+12 -4.53295e+12 -4.80709e+12 -4.71477e+12 -3.59377e+12 -6.01447e+12 -4.56809e+12 -3.53799e+12 -6.31498e+12 -5.19296e+12 -8.96889e+12 -5.76986e+12 -5.78154e+12 -6.17461e+12 -9.6255e+12 -7.30743e+12 -7.64917e+12 -4.507e+12 -3.4992e+12 -1.16648e+13 -6.83528e+12 -9.95572e+12 -4.97189e+12 -3.39844e+12 -3.41894e+12 -4.70612e+12 -8.23553e+12 -5.70669e+12 -7.12171e+12 -5.08072e+12 -5.44117e+12 -5.2492e+12 -4.72504e+12 -4.61336e+12 -5.20481e+12 -3.67686e+12 -4.27612e+12 -5.37491e+12 -4.76865e+12 -4.60135e+12 -5.1788e+12 -2.68175e+12 -3.59879e+12 -6.56138e+12 -2.29041e+12 -3.64714e+12 -4.50289e+12 -4.34972e+12 -3.34963e+12 -4.07485e+12 -1.47956e+12 -3.25996e+12 -5.05027e+12 -3.09137e+12 -2.50429e+12 -2.13624e+12 -2.48542e+12 -3.50113e+12 -2.29856e+12 -2.54454e+12 -1.8294e+12 -2.89757e+12 -2.16378e+12 -1.57895e+12 -1.79448e+12 -2.51598e+12 -2.16687e+12 -1.25895e+12 -2.14162e+12 -1.80416e+12 -2.05651e+12 -1.45739e+12 -2.99352e+12 -2.27301e+12 -2.34786e+12 -928338000000.0 -1.69852e+12 -1.69149e+12 -2.0543e+12 -2.09886e+12 -2.86e+12 -4.16894e+12 -2.09131e+12 -1.09123e+12 -3.79586e+12 -2.38161e+12 -1.8062e+12 -2.06005e+12 -2.63634e+12 -2.75512e+12 -1.48718e+12 -1.37035e+12 -2.7147e+12 -3.17388e+12 -2.80975e+12 -4.73519e+12 -2.78944e+12 -2.73613e+12 -3.32685e+12 -4.82261e+12 -2.58144e+12 -3.50167e+12 -3.34374e+12 -2.28109e+12 -4.52689e+12 -1.40474e+12 -6.88401e+12 -2.45917e+12 -4.78265e+12 -7.29107e+12 -4.06377e+12 -5.96692e+12 -8.0907e+12 -6.13247e+12 -6.62626e+12 -4.80063e+12 -5.93278e+12 -6.72992e+12 -2.35504e+12 -1.62016e+12 -8.7756e+12 -8.96861e+12 -5.60667e+12 -3.65858e+12 -9.35515e+12 -6.62051e+12 -5.48156e+12 -5.96454e+12 -7.93292e+12 -7.22511e+12 -5.57833e+12 -4.9659e+12 -7.25439e+12 -6.83161e+12 -5.00092e+12 -7.33098e+12 -4.61728e+12 -8.98991e+12 -5.21478e+12 -4.63315e+12 -3.47944e+12 -4.01106e+12 -5.28926e+12 -3.53756e+12 -3.74199e+12 -8.34392e+12 -6.82261e+12 -4.33525e+12 -2.68473e+12 -4.09151e+12 -7.79545e+12 -1.05051e+13 -5.88791e+12 -7.43597e+12 -1.4504e+13 -5.64201e+12 -4.13806e+12 -6.79818e+12 -7.91349e+12 -5.85672e+12 -5.48832e+12 -6.40387e+12 -7.37688e+12 -7.40051e+12 -5.26851e+12 -3.5301e+12 -4.06125e+12 -3.9298e+12 -991559000000.0 -3.12691e+12 -6.47604e+12 -5.48081e+12 -3.57697e+12 -4.28781e+12 -3.73471e+12 -2.88872e+12 -2.14355e+12 -3.0066e+12 -2.74468e+12 -3.20033e+12 -2.44262e+12 -2.90335e+12 -4.36218e+12 -3.36844e+12 -2.9658e+12 -3.84075e+12 -3.99081e+12 -5.25783e+12 -3.14795e+12 -3.44442e+12 -3.96899e+12 -2.34356e+12 -1.96544e+12 -2.05159e+12 -2.45283e+12 -2.89326e+12 -1.39415e+12 -1.86763e+12 -1.10111e+12 -754587000000.0 -1.22976e+12 -2.15344e+12 -2.54861e+12 -2.05261e+12 -887371000000.0 -1.86236e+12 -1.61161e+12 -3.00673e+12 -1.84513e+12 -1.61237e+12 -2.7e+12 -1.33484e+12 -595748000000.0 -711906000000.0 -2.76973e+12 -1.75443e+12 -980877000000.0 -1.07281e+12 -2.38991e+12 -2.52115e+12 -3.75743e+12 -1.33121e+12 -909820000000.0 -2.72508e+12 -2.1206e+12 -1.48251e+12 -3.15163e+12 -5.54795e+12 -2.8942e+12 -2.54063e+12 -3.19509e+12 -1.53042e+12 -3.35256e+12 -4.74662e+12 -4.96309e+12 -3.02663e+12 -2.35357e+12 -4.43896e+12 -3.21785e+12 -3.80559e+12 -5.66104e+12 -4.28938e+12 -5.43737e+12 -5.74938e+12 -2.68192e+12 -2.46306e+12 -8.41155e+12 -7.28497e+12 -4.72197e+12 -4.55378e+12 -9.10886e+12 -6.59854e+12 -5.43691e+12 -3.01152e+12 -3.33647e+12 -4.70935e+12 -4.5835e+12 -3.31104e+12 -7.39547e+12 -5.91476e+12 -4.06161e+12 -6.64498e+12 -8.08343e+12 -4.89853e+12 -4.16871e+12 -5.96476e+12 -6.05174e+12 -4.28893e+12 -8.06744e+12 -2.8607e+12 -4.05929e+12 -4.52906e+12 -9.13694e+12 -3.08197e+12 -6.31298e+12 -5.38876e+12 -3.35597e+12 -4.68487e+12 -3.82473e+12 -5.3515e+12 -3.94695e+12 -6.15013e+12 -7.73175e+12 -4.56457e+12 -6.00946e+12 -5.80647e+12 -6.34269e+12 -6.72464e+12 -9.7738e+12 -8.38234e+12 -3.75805e+12 -8.0582e+12 -3.99871e+12 -5.2293e+12 -5.24039e+12 -5.10076e+12 -5.19242e+12 -3.11861e+12 -5.97883e+12 -3.59946e+12 -4.25928e+12 -3.70236e+12 -7.0936e+12 -4.15412e+12 -2.22427e+12 -2.14392e+12 -4.49805e+12 -1.5401e+12 -3.59554e+12 -4.36791e+12 -3.84174e+12 -1.92542e+12 -3.88806e+12 -3.20037e+12 -2.67986e+12 -3.41534e+12 -3.27338e+12 -5.34681e+12 -3.85117e+12 -4.05144e+12 -1.89609e+12 -2.7414e+12 -3.86706e+12 -3.17482e+12 -2.23412e+12 -3.81013e+12 -1.95651e+12 -3.85664e+12 -2.53847e+12 -2.44874e+12 -1.39026e+12 -2.39814e+12 -1.83687e+12 -412077000000.0 -2.128e+12 -1.35174e+12 -2.12585e+12 -1.42649e+12 -1.86458e+12 -2.5865e+12 -2.0576e+12 -731494000000.0 -2.38718e+12 -1.92931e+12 -1.78895e+12 -2.5051e+12 -2.37113e+12 -3.20982e+12 -2.38573e+12 -2.35896e+12 -1.5806e+12 -2.06329e+12 -1.54386e+12 -1.40573e+12 -1.75344e+12 -2.63084e+12 -3.12078e+12 -1.43799e+12 -2.1268e+12 -4.00574e+12 -4.99337e+12 -3.12069e+12 -4.96976e+12 -4.48132e+12 -1.37739e+12 -3.69243e+12 -4.1382e+12 -6.80095e+12 -4.84594e+12 -2.96959e+12 -3.65804e+12 -7.47397e+12 -5.1694e+12 -2.95237e+12 -5.51329e+12 -2.8896e+12 -3.49978e+12 -5.4399e+12 -6.41194e+12 -4.35547e+12 -4.05734e+12 -3.74552e+12 -4.42721e+12 -6.09912e+12 -6.26029e+12 -5.84314e+12 -3.28066e+12 -4.43201e+12 -5.50445e+12 -8.96896e+12 -6.16881e+12 -7.74085e+12 -4.50109e+12 -4.2047e+12 -5.2955e+12 -5.35404e+12 -7.69037e+12 -8.53312e+12 -9.30062e+12 -5.87401e+12 -6.06542e+12 -6.01711e+12 -7.10883e+12 -6.54131e+12 -4.27274e+12 -6.13116e+12 -4.7535e+12 -1.90053e+12 -4.02323e+12 -3.08287e+12 -5.18544e+12 -6.49093e+12 -3.03452e+12 -4.29628e+12 -3.33384e+12 -4.6927e+12 -5.42424e+12 -3.10135e+12 -6.11392e+12 -7.56323e+12 -5.60774e+12 -4.4466e+12 -5.69972e+12 -5.38264e+12 -4.40534e+12 -5.46416e+12 -3.06706e+12 -5.75326e+12 -3.79089e+12 -6.86611e+12 -2.32171e+12 -5.03736e+12 -3.69011e+12 -5.78359e+12 -5.77321e+12 -4.00125e+12 -5.18754e+12 -2.76469e+12 -4.97354e+12 -7.55315e+12 -5.74202e+12 -2.95366e+12 -6.95398e+12 -4.48548e+12 -4.19152e+12 -2.86195e+12 -3.23059e+12 -3.52964e+12 -2.33316e+12 -2.23495e+12 -4.90689e+12 -3.57008e+12 -4.21397e+12 -3.57194e+12 -3.66508e+12 -2.89373e+12 -2.13431e+12 -1.92976e+12 -2.10407e+12 -2.53625e+12 -2.53417e+12 -2.26926e+12 -2.97746e+12 -2.57364e+12 -2.58243e+12 -1.17192e+12 -1.43334e+12 -2.77228e+12 -2.50139e+12 -1.78465e+12 -1.67374e+12 -1.45539e+12 -1.49529e+12 -401909000000.0 -1.87188e+12 -1.31601e+12 -2.0226e+12 -573481000000.0 -2.14613e+12 -1.76547e+12 -2.68989e+12 -1.46204e+12 -1.33167e+12 -2.79501e+12 -2.82352e+12 -1.50843e+12 -2.01336e+12 -936009000000.0 -1.99416e+12 -2.27447e+12 -1.04646e+12 -2.68665e+12 -1.94778e+12 -2.30445e+12 -4.0623e+12 -3.42053e+12 -2.12774e+12 -4.24705e+12 -3.41941e+12 -3.21112e+12 -3.74394e+12 -3.69049e+12 -3.83073e+12 -5.45815e+12 -3.52128e+12 -3.06814e+12 -3.14475e+12 -4.21974e+12 -2.2783e+12 -5.29027e+12 -2.79164e+12 -4.36376e+12 -4.89909e+12 -3.83085e+12 -2.97802e+12 -5.46788e+12 -3.56433e+12 -4.07375e+12 -5.55226e+12 -3.81863e+12 -2.9419e+12 -6.64015e+12 -5.48567e+12 -1.93909e+12 -5.58212e+12 -3.87084e+12 -4.51533e+12 -3.66814e+12 -4.25878e+12 -6.86824e+12 -7.84783e+12 -5.37057e+12 -5.66561e+12 -4.66465e+12 -7.3215e+12 -7.18034e+12 -4.3441e+12 -4.72352e+12 -7.95196e+12 -4.27924e+12 -2.61747e+12 -5.71705e+12 -2.34412e+12 -5.99349e+12 -5.91134e+12 -4.02751e+12 -4.80785e+12 -5.57146e+12 -4.4629e+12 -4.51226e+12 -3.39106e+12 -3.87421e+12 -3.14673e+12 -6.52826e+12 -4.5903e+12 -6.29332e+12 -4.80963e+12 -6.39324e+12 -3.23055e+12 -3.30081e+12 -3.39508e+12 -5.03703e+12 -4.01559e+12 -5.44197e+12 -3.41751e+12 -3.95267e+12 -4.55601e+12 -3.98627e+12 -3.71596e+12 -5.26159e+12 -4.13168e+12 -2.81465e+12 -3.85208e+12 -6.67037e+12 -2.86393e+12 -2.344e+12 -4.31325e+12 -3.81401e+12 -2.84309e+12 -6.40489e+12 -4.18253e+12 -4.91143e+12 -2.95269e+12 -5.06475e+12 -3.56681e+12 -3.41893e+12 -1.88302e+12 -4.80355e+12 -2.84652e+12 -1.95763e+12 -4.41119e+12 -2.6359e+12 -4.00702e+12 -2.13624e+12 -2.80374e+12 -2.2313e+12 -1.02629e+12 -2.05678e+12 -923528000000.0 -1.9453e+12 -1.14953e+12 -1.45427e+12 -2.88116e+12 -764823000000.0 -1.73104e+12 -1.97349e+12 -1.40776e+12 -2.37477e+12 -1.24833e+12 -316565000000.0 -1.65965e+12 -1.18434e+12 -1.7921e+12 -1.56853e+12 -1.04127e+12 -1.17514e+12 -253018000000.0 -1.04051e+12 -1.30055e+12 -2.75596e+12 -1.46565e+12 -1.66663e+12 -899551000000.0 -861838000000.0 -682441000000.0 -1.14931e+12 -707281000000.0 -1.21003e+12 -2.60579e+12 -2.68715e+12 -4.46646e+12 -1.76068e+12 -2.46137e+12 -2.56122e+12 -2.55866e+12 -2.93766e+12 -2.0498e+12 -3.07586e+12 -2.83038e+12 -2.1122e+12 -3.10918e+12 -4.4816e+12 -3.47609e+12 -3.41989e+12 -3.40061e+12 -5.87262e+12 -3.84509e+12 -7.49291e+12 -2.99812e+12 -1.7183e+12 -3.12134e+12 -1.81084e+12 -4.59148e+12 -5.94285e+12 -6.01567e+12 -2.03609e+12 -3.89546e+12 -5.161e+12 -9.45893e+12 -4.69383e+12 -3.84031e+12 -5.71516e+12 -7.07317e+12 -4.24489e+12 -3.7846e+12 -4.13953e+12 -3.93679e+12 -7.33264e+12 -4.00092e+12 -8.03367e+12 -5.81888e+12 -9.91945e+12 -6.88151e+12 -6.33743e+12 -6.83218e+12 -5.81139e+12 -1.092e+13 -5.40749e+12 -2.32703e+12 -6.28859e+12 -5.43144e+12 -2.75799e+12 -7.05931e+12 -3.91389e+12 -2.76051e+12 -5.98613e+12 -4.38476e+12 -6.66875e+12 -7.47954e+12 -4.13241e+12 -6.01517e+12 -4.24784e+12 -3.36943e+12 -4.9421e+12 -5.68423e+12 -2.23612e+12 -3.55615e+12 -3.21356e+12 -4.2294e+12 -2.80441e+12 -3.42052e+12 -2.8134e+12 -5.2079e+12 -3.76308e+12 -4.68107e+12 -2.54301e+12 -3.95969e+12 -3.34006e+12 -3.03331e+12 -3.73893e+12 -1.46488e+12 -3.56512e+12 -5.11769e+12 -6.37794e+12 -2.78671e+12 -2.95783e+12 -2.96617e+12 -3.92256e+12 -4.50584e+12 -2.54623e+12 -2.67889e+12 -2.2742e+12 -1.79031e+12 -3.4914e+12 -2.52072e+12 -1.87975e+12 -1.40683e+12 -2.10218e+12 -2.03952e+12 -1.9058e+12 -2.47618e+12 -1.35515e+12 -2.81911e+12 -2.2975e+12 -1.79382e+12 -2.26498e+12 -1.16234e+12 -1.25015e+12 -1.3124e+12 -1.90802e+12 -1.6989e+12 -590769000000.0 -400727000000.0 -1.16138e+12 -1.13371e+12 -1.37249e+12 -1.26105e+12 -406206000000.0 -784821000000.0 -1.26894e+12 -611885000000.0 -1.21337e+12 -861250000000.0 -1.34959e+12 -983878000000.0 -2.50331e+12 -1.60059e+12 -858721000000.0 -2.22654e+12 -2.58705e+12 -1.92497e+12 -1.39144e+12 -3.16764e+12 -3.17313e+12 -1.94593e+12 -2.17875e+12 -1.97927e+12 -3.92037e+12 -4.75997e+12 -5.27646e+12 -3.38239e+12 -1.3716e+12 -2.03184e+12 -2.5445e+12 -4.95457e+12 -2.52789e+12 -3.36344e+12 -3.90072e+12 -2.79595e+12 -4.76384e+12 -6.46263e+12 -2.28334e+12 -5.14296e+12 -4.34057e+12 -3.05607e+12 -6.53072e+12 -5.92768e+12 -4.81346e+12 -1.80933e+12 -5.01898e+12 -4.58148e+12 -2.94651e+12 -3.42061e+12 -3.47467e+12 -3.70464e+12 -5.49769e+12 -4.04158e+12 -7.50166e+12 -3.46051e+12 -4.60398e+12 -3.5576e+12 -3.96457e+12 -5.649e+12 -5.04114e+12 -7.31707e+12 -8.18517e+12 -2.76796e+12 -5.01911e+12 -2.00815e+12 -3.25602e+12 -5.28981e+12 -3.14859e+12 -3.49154e+12 -2.99481e+12 -7.61651e+12 -3.68577e+12 -5.49583e+12 -2.17765e+12 -3.97909e+12 -3.51353e+12 -4.34816e+12 -5.93271e+12 -4.84457e+12 -5.03045e+12 -5.88107e+12 -4.73099e+12 -3.81103e+12 -4.51516e+12 -4.42042e+12 -4.82223e+12 -2.22557e+12 -3.60694e+12 -2.64626e+12 -3.72143e+12 -3.09671e+12 -1.93079e+12 -5.137e+12 -1.89554e+12 -3.97312e+12 -1.85805e+12 -4.76353e+12 -635391000000.0 -3.16654e+12 -4.27527e+12 -2.28456e+12 -3.46665e+12 -1.98977e+12 -3.15593e+12 -1.88389e+12 -1.88007e+12 -2.19708e+12 -4.39363e+12 -3.56139e+12 -2.64658e+12 -2.29182e+12 -2.33871e+12 -1.94968e+12 -4.64357e+12 -2.00328e+12 -1.07323e+12 -1.21692e+12 -3.25495e+12 -2.33029e+12 -1.41858e+12 -1.30247e+12 -3.4064e+12 -1.18e+12 -1.14542e+12 -923851000000.0 -2.31408e+12 -1.51001e+12 -1.35069e+12 -1.66115e+12 -2.31678e+12 -1.90767e+12 -2.31653e+12 -1.11308e+12 -957314000000.0 -1.51837e+12 -1.21214e+12 -896774000000.0 -1.18992e+12 -399290000000.0 -2.17037e+12 -1.24554e+12 -818700000000.0 -1.94587e+12 -1.50237e+12 -680426000000.0 -1.10059e+12 -141027000000.0 -771044000000.0 -863807000000.0 -1.33821e+12 -1.18881e+12 -1.36237e+12 -1.34362e+12 -3.82926e+12 -2.19909e+12 -1.22921e+12 -2.1387e+12 -2.42296e+12 -2.83908e+12 -1.773e+12 -2.18566e+12 -1.78208e+12 -2.32278e+12 -2.04157e+12 -2.2428e+12 -3.28687e+12 -3.51771e+12 -1.63625e+12 -898807000000.0 -2.88704e+12 -3.35083e+12 -1.61599e+12 -1.81626e+12 -5.20676e+12 -3.21389e+12 -5.54336e+12 -5.12878e+12 -4.55148e+12 -1.62041e+12 -2.03145e+12 -4.18074e+12 -3.47062e+12 -5.62116e+12 -5.22556e+12 -4.03854e+12 -6.64018e+12 -3.21314e+12 -5.78066e+12 -3.62481e+12 -8.99037e+12 -5.86943e+12 -7.38057e+12 -3.67406e+12 -2.89603e+12 -3.75878e+12 -4.94623e+12 -8.72136e+12 -7.13249e+12 -4.7404e+12 -2.10759e+12 -2.56478e+12 -3.36213e+12 -6.13747e+12 -2.17719e+12 -4.06074e+12 -3.94323e+12 -5.3083e+12 -3.96983e+12 -4.66011e+12 -3.84877e+12 -4.11776e+12 -3.26938e+12 -3.35853e+12 -3.5275e+12 -3.62185e+12 -2.84949e+12 -5.65666e+12 -4.70893e+12 -3.24655e+12 -2.72955e+12 -4.47956e+12 -3.27339e+12 -4.29777e+12 -4.19409e+12 -2.36455e+12 -4.0693e+12 -2.84643e+12 -2.27346e+12 -2.04618e+12 -1.92933e+12 -1.13439e+12 -3.49194e+12 -2.15749e+12 -1.03515e+12 -1.89769e+12 -2.51792e+12 -209453000000.0 -3.67741e+12 -2.76835e+12 -2.93557e+12 -936450000000.0 -2.07482e+12 -1.90811e+12 -1.4639e+12 -1.2832e+12 -1.32177e+12 -1.47989e+12 -1.04927e+12 -1.01787e+12 -864605000000.0 -2.18696e+12 -1.31688e+12 -937240000000.0 -971431000000.0 -561171000000.0 -995154000000.0 -820065000000.0 -373385000000.0 -1.30889e+12 -21399500000.0 -937194000000.0 -1.39979e+12 -1.13081e+12 -1.33518e+12 -1.78269e+12 -776098000000.0 -460583000000.0 -959587000000.0 -477834000000.0 -1.64779e+12 -738160000000.0 -1.51511e+12 -1.43545e+12 -216734000000.0 -2.09526e+12 -936872000000.0 -1.39515e+12 -841402000000.0 -1.11838e+12 -2.03681e+12 -2.17294e+12 -932363000000.0 -837329000000.0 -1.29747e+12 -1.59686e+12 -2.34996e+12 -1.91634e+12 -4.52286e+12 -1.97924e+12 -2.8727e+12 -1.60742e+12 -2.52546e+12 -1.55951e+12 -2.25768e+12 -3.20038e+12 -3.00805e+12 -5.23946e+12 -2.94851e+12 -3.58376e+12 -3.05131e+12 -2.96946e+12 -5.48073e+12 -3.38401e+12 -4.3205e+12 -2.78424e+12 -6.36425e+12 -4.36012e+12 -5.6045e+12 -2.18245e+12 -3.4326e+12 -2.85974e+12 -5.51594e+12 -3.86681e+12 -5.40438e+12 -4.20669e+12 -6.2789e+12 -3.89082e+12 -1.99698e+12 -2.64029e+12 -3.53522e+12 -5.99922e+12 -4.17516e+12 -3.73078e+12 -5.44651e+12 -4.73151e+12 -2.02264e+12 -3.56636e+12 -1.6037e+12 -2.49827e+12 -3.95411e+12 -2.76107e+12 -3.05598e+12 -5.47478e+12 -2.52122e+12 -4.54773e+12 -6.19067e+12 -2.51628e+12 -2.95557e+12 -2.85026e+12 -3.78428e+12 -2.73745e+12 -4.60122e+12 -2.88024e+12 -3.0496e+12 -2.76727e+12 -2.2346e+12 -4.32693e+12 -3.08573e+12 -2.80983e+12 -5.47484e+12 -2.78699e+12 -4.00669e+12 -4.33278e+12 -1.25871e+12 -2.28686e+12 -1.628e+12 -2.75686e+12 -3.02134e+12 -1.73958e+12 -2.32119e+12 -414473000000.0 -632047000000.0 -2.03506e+12 -1.91159e+12 -3.3306e+12 -729415000000.0 -1.60942e+12 -1.56204e+12 -984675000000.0 -2.36368e+12 -1.22028e+12 -405356000000.0 -937483000000.0 -1.58325e+12 -1.75666e+12 -418935000000.0 -517723000000.0 -806925000000.0 -692936000000.0 -1.04207e+12 -806053000000.0 -874788000000.0 -783177000000.0 -957610000000.0 -759051000000.0 -895699000000.0 -1.05299e+12 -901980000000.0 -1.37679e+12 -961473000000.0 -811782000000.0 -754038000000.0 -972658000000.0 -285771000000.0 -696971000000.0 -465674000000.0 -2.00772e+12 -806159000000.0 -1.24922e+12 -830320000000.0 -1.02829e+12 -1.32987e+12 -2.03125e+12 -1.57646e+12 -2.94224e+12 -1.38131e+12 -1.97209e+12 -2.48123e+12 -1.50477e+12 -3.12298e+12 -3.70984e+12 -4.38199e+12 -3.48165e+12 -2.02807e+12 -3.46343e+12 -1.74132e+12 -2.83954e+12 -1.75881e+12 -1.57858e+12 -1.48456e+12 -2.40649e+12 -2.50234e+12 -4.40421e+12 -2.47098e+12 -3.36668e+12 -4.98519e+12 -4.00068e+12 -4.28334e+12 -3.27922e+12 -2.58693e+12 -2.53746e+12 -4.78859e+12 -3.82617e+12 -1.59615e+12 -4.7196e+12 -4.68179e+12 -4.7725e+12 -3.59707e+12 -4.64896e+12 -3.10471e+12 -4.59725e+12 -4.01891e+12 -3.28792e+12 -5.28422e+12 -2.66399e+12 -5.71421e+12 -1.835e+12 -2.90058e+12 -2.30735e+12 -3.48883e+12 -3.89557e+12 -4.6621e+12 -4.25752e+12 -2.3672e+12 -2.55332e+12 -5.12269e+12 -1.59218e+12 -4.8887e+12 -2.96186e+12 -3.2703e+12 -4.7768e+12 -2.9377e+12 -2.54031e+12 -3.31442e+12 -4.31138e+12 -2.7446e+12 -1.39014e+12 -1.87605e+12 -3.66131e+12 -5.0253e+12 -1.51279e+12 -1.56031e+12 -5.65459e+12 -960282000000.0 -3.69802e+12 -4.19397e+12 -2.58024e+12 -2.51305e+12 -2.58575e+12 -2.25843e+12 -282588000000.0 -951829000000.0 -2.8188e+12 -1.96028e+12 -1.0116e+12 -1.63302e+12 -1.61428e+12 -1.76631e+12 -1.94206e+12 -2.39387e+12 -2.31472e+12 -524248000000.0 -2.29391e+12 -930320000000.0 -1.41815e+12 -193009000000.0 -791231000000.0 -728490000000.0 -968922000000.0 -741357000000.0 -1.43786e+12 -1.35604e+12 -577360000000.0 -528948000000.0 -482540000000.0 -891554000000.0 -489630000000.0 -131521000000.0 -1.51376e+12 -638789000000.0 -881054000000.0 -547408000000.0 -694596000000.0 -479705000000.0 -699207000000.0 -629510000000.0 -1.18212e+12 -1.38961e+12 -1.16644e+12 -965433000000.0 -1.53063e+12 -1.7387e+12 -1.42145e+12 -1.1222e+12 -1.08805e+12 -1.51057e+12 -1.81155e+12 -1.02798e+12 -1.692e+12 -2.12841e+12 -1.72012e+12 -749289000000.0 -1.1897e+12 -1.0781e+12 -4.1809e+12 -915094000000.0 -1.50912e+12 -1.38309e+12 -2.86608e+12 -2.19427e+12 -1.20711e+12 -1.54799e+12 -1.11142e+12 -3.98492e+12 -1.97382e+12 -1.96129e+12 -2.68584e+12 -1.58298e+12 -2.44275e+12 -3.60011e+12 -2.3575e+12 -1.7461e+12 -2.71827e+12 -3.2229e+12 -4.34136e+12 -3.16152e+12 -3.25691e+12 -4.4066e+12 -3.0768e+12 -2.96409e+12 -2.70102e+12 -3.44122e+12 -3.60103e+12 -3.77029e+12 -4.10066e+12 -3.80475e+12 -2.43695e+12 -1.99391e+12 -2.97248e+12 -2.85809e+12 -3.88203e+12 -3.39955e+12 -4.43514e+12 -5.52964e+12 -3.10487e+12 -1.7394e+12 -2.89181e+12 -2.99641e+12 -3.71262e+12 -1.90099e+12 -3.30616e+12 -2.41956e+12 -2.82273e+12 -1.16327e+12 -4.57625e+12 -2.28475e+12 -2.15254e+12 -3.32341e+12 -1.91402e+12 -2.47783e+12 -2.7968e+12 -2.18525e+12 -2.49581e+12 -886310000000.0 -1.79029e+12 -2.42313e+12 -2.90689e+12 -5.0686e+12 -1.67029e+12 -2.69734e+12 -1.19551e+12 -1.54229e+12 -871610000000.0 -2.26893e+12 -2.38708e+12 -1.60572e+12 -1.77779e+12 -1.99068e+12 -2.01527e+12 -2.7041e+12 -1.12331e+12 -878187000000.0 -1.33868e+12 -2.11217e+12 -2.37659e+12 -943718000000.0 -70046000000.0 -1.47007e+12 -1.28051e+12 -1.4249e+12 -625532000000.0 -1.23968e+12 -720456000000.0 -341413000000.0 -655323000000.0 -810348000000.0 -588708000000.0 -471610000000.0 -756697000000.0 -836768000000.0 -709952000000.0 -733929000000.0 -1.35783e+12 -861823000000.0 -900171000000.0 -40837100000.0 -306158000000.0 -738328000000.0 -967461000000.0 -758631000000.0 -1.0882e+12 -643787000000.0 -407810000000.0 -297618000000.0 -847246000000.0 -1.00142e+12 -978708000000.0 -1.71928e+12 -545300000000.0 -952811000000.0 -797843000000.0 -1.20589e+12 -1.34822e+12 -1.3853e+12 -1.73367e+12 -2.79367e+12 -3.19137e+12 -1.60771e+12 -1.83456e+12 -1.14531e+12 -1.7887e+12 -2.02016e+12 -1.78358e+12 -1.82677e+12 -2.77948e+12 -1.80862e+12 -3.25699e+12 -3.8892e+12 -1.41415e+12 -1.77861e+12 -1.79557e+12 -2.82658e+12 -2.61562e+12 -1.21504e+12 -4.36122e+12 -2.1856e+12 -3.20541e+12 -3.83963e+12 -3.63264e+12 -2.50977e+12 -2.37917e+12 -3.16142e+12 -2.69021e+12 -2.26584e+12 -3.38532e+12 -3.31637e+12 -2.06101e+12 -3.27546e+12 -2.60569e+12 -2.389e+12 -2.67242e+12 -2.17294e+12 -2.46017e+12 -2.39731e+12 -2.27224e+12 -1.98986e+12 -1.901e+12 -2.33113e+12 -2.07733e+12 -4.8797e+12 -1.88179e+12 -1.7483e+12 -2.45678e+12 -2.68015e+12 -1.75789e+12 -1.72927e+12 -2.34705e+12 -2.75501e+12 -2.80498e+12 -2.34035e+12 -2.34334e+12 -1.75777e+12 -1.83355e+12 -3.47071e+12 -1.79093e+12 -3.86027e+12 -2.28502e+12 -2.89109e+12 -1.2513e+12 -954539000000.0 -1.13449e+12 -1.31482e+12 -1.1184e+12 -2.18958e+12 -1.97457e+12 -2.45444e+12 -2.64997e+12 -2.99623e+12 -2.04614e+12 -927649000000.0 -1.20645e+12 -1.60124e+12 -1.16945e+12 -1.18465e+12 -939596000000.0 -1.41311e+12 -1.78217e+12 -1.14532e+12 -1.04732e+12 -463515000000.0 -1.42182e+12 -586191000000.0 -553922000000.0 -971283000000.0 -1.0534e+12 -76296300000.0 -589987000000.0 -679781000000.0 -30777700000.0 -340704000000.0 -578419000000.0 -820924000000.0 -118593000000.0 -418821000000.0 -813996000000.0 -645081000000.0 -711260000000.0 -373621000000.0 -330005000000.0 -309654000000.0 -21608700000.0 -327782000000.0 -706975000000.0 -218920000000.0 -165614000000.0 -341522000000.0 -398030000000.0 -661280000000.0 -649131000000.0 -1.11633e+12 -475984000000.0 -1.05008e+12 -929716000000.0 -756287000000.0 -702729000000.0 -750360000000.0 -1.20417e+12 -1.70951e+12 -763053000000.0 -458314000000.0 -1.32873e+12 -1.98078e+12 -1.75433e+12 -2.17772e+12 -2.52791e+12 -595154000000.0 -1.43967e+12 -1.31691e+12 -2.06571e+12 -1.03867e+12 -2.38979e+12 -2.79418e+12 -2.69088e+12 -1.29172e+12 -1.94531e+12 -1.89617e+12 -2.46524e+12 -2.91352e+12 -3.24969e+12 -397031000000.0 -3.18717e+12 -2.96231e+12 -1.37899e+12 -1.0697e+12 -3.57907e+12 -925572000000.0 -1.95566e+12 -5.21326e+12 -3.1001e+12 -3.84879e+12 -3.97956e+12 -1.68449e+12 -3.79772e+12 -3.45837e+12 -3.90468e+12 -2.11724e+12 -2.78928e+12 -4.51476e+12 -2.77635e+12 -3.53555e+12 -3.05764e+12 -2.79667e+12 -4.01619e+12 -2.12587e+12 -1.54111e+12 -1.60391e+12 -2.93263e+12 -989644000000.0 -1.78995e+12 -488935000000.0 -1.65368e+12 -2.1426e+12 -2.0272e+12 -2.83209e+12 -2.83344e+12 -2.67017e+12 -2.22723e+12 -1.50375e+12 -2.24129e+12 -3.07256e+12 -2.14253e+12 -1.51665e+12 -2.47596e+12 -706044000000.0 -1.05098e+12 -1.67093e+12 -2.18895e+12 -561662000000.0 -379126000000.0 -320350000000.0 -1.03728e+12 -1.23426e+12 -1.40938e+12 -1.02464e+12 -1.31719e+12 -1.60216e+12 -1.01824e+12 -756460000000.0 -438253000000.0 -661009000000.0 -158931000000.0 -916795000000.0 -772926000000.0 -893869000000.0 -331389000000.0 -452546000000.0 -14556800000.0 -640644000000.0 -866854000000.0 -426346000000.0 -437417000000.0 -523400000000.0 -454279000000.0 -461784000000.0 -584717000000.0 -412748000000.0 -485219000000.0 -474686000000.0 -912562000000.0 -694466000000.0 -217893000000.0 -747243000000.0 -124261000000.0 -608296000000.0 -791324000000.0 -646194000000.0 -1.00587e+12 -1.49072e+12 -1.00675e+12 -903066000000.0 -2.33803e+12 -1.4694e+12 -231107000000.0 -2.37409e+12 -893959000000.0 -1.11178e+12 -607675000000.0 -936370000000.0 -2.33209e+12 -2.22e+12 -1.29028e+12 -2.08068e+12 -1.14172e+12 -2.05377e+12 -1.78423e+12 -1.49185e+12 -1.1283e+12 -1.81318e+12 -2.55845e+12 -1.46388e+12 -3.02371e+12 -1.53589e+12 -2.67914e+12 -2.25553e+12 -2.01571e+12 -3.69906e+12 -4.47103e+12 -1.57521e+12 -2.44874e+12 -2.56672e+12 -4.47381e+12 -3.45187e+12 -2.23358e+12 -3.72974e+12 -4.74697e+12 -3.93521e+12 -1.64379e+12 -1.17597e+12 -905696000000.0 -1.35008e+12 -2.52157e+12 -1.48533e+12 -3.76442e+12 -4.6369e+12 -2.27752e+12 -760608000000.0 -913281000000.0 -1.99629e+12 -2.23969e+12 -3.0989e+12 -1.20841e+12 -396730000000.0 -1.15706e+12 -1.70096e+12 -2.34563e+12 -1.83568e+12 -1.26393e+12 -1.67428e+12 -879041000000.0 -1.60119e+12 -981457000000.0 -2.01927e+12 -2.24419e+12 -2.75289e+12 -1.44649e+12 -1.73612e+12 -2.17975e+12 -1.22323e+12 -1.59195e+12 -2.47907e+12 -2.5953e+12 -916678000000.0 -630226000000.0 -631813000000.0 -435559000000.0 -830613000000.0 -1.33751e+12 -977367000000.0 -744097000000.0 -385213000000.0 -932979000000.0 -1.08379e+12 -1.14765e+12 -1.16091e+12 -574697000000.0 -239681000000.0 -336557000000.0 -41595100000.0 -287455000000.0 -66710200000.0 -622494000000.0 -447106000000.0 -717353000000.0 -201053000000.0 -209582000000.0 -541598000000.0 -278646000000.0 -466986000000.0 -361012000000.0 -196006000000.0 -224015000000.0 -28582700000.0 -415308000000.0 -376027000000.0 -257650000000.0 -369626000000.0 -1.10863e+12 -816645000000.0 -404713000000.0 -403103000000.0 -155645000000.0 -1.26552e+12 -239319000000.0 -815772000000.0 -1.09794e+12 -2.086e+12 -581450000000.0 -1.4826e+12 -917780000000.0 -2.54124e+12 -1.2526e+12 -1.33156e+12 -2.11755e+12 -808759000000.0 -2.59726e+12 -3.84259e+12 -2.10436e+12 -2.53885e+12 -1.35204e+12 -2.19145e+12 -1.56652e+12 -2.4046e+12 -1.84589e+12 -1.96678e+12 -3.15496e+12 -2.5764e+12 -1.78606e+12 -2.06551e+12 -908485000000.0 -3.12864e+12 -2.13328e+12 -1.98209e+12 -2.57545e+12 -1.32701e+12 -1.84023e+12 -1.89064e+12 -1.49055e+12 -2.15016e+12 -2.56425e+12 -992118000000.0 -1.39428e+12 -1.7367e+12 -1.76393e+12 -2.67127e+12 -3.01085e+12 -1.60351e+12 -941615000000.0 -2.15206e+12 -1.40239e+12 -2.1181e+12 -939677000000.0 -1.4474e+12 -820065000000.0 -2.07842e+12 -3.13797e+12 -657485000000.0 -1.73731e+12 -1.85648e+12 -1.97151e+12 -1.86445e+12 -1.66909e+12 -1.22252e+12 -1.14748e+12 -1.76399e+12 -314011000000.0 -1.90972e+12 -1.06248e+12 -1.18378e+12 -933824000000.0 -540626000000.0 -902788000000.0 -922653000000.0 -1.3039e+12 -666381000000.0 -232942000000.0 -1.06127e+12 -992344000000.0 -557143000000.0 -231558000000.0 -457247000000.0 -561401000000.0 -286327000000.0 -234915000000.0 -262344000000.0 -220404000000.0 -570963000000.0 -182134000000.0 -156135000000.0 -376290000000.0 -305200000000.0 -601058000000.0 -432547000000.0 -708299000000.0 -192801000000.0 -346032000000.0 -217031000000.0 -118982000000.0 -213589000000.0 -194693000000.0 -274864000000.0 -701066000000.0 -580952000000.0 -735035000000.0 -284460000000.0 -746477000000.0 -251802000000.0 -219230000000.0 -595725000000.0 -1.33411e+12 -537261000000.0 -122251000000.0 -698941000000.0 -540038000000.0 -816880000000.0 -1.37616e+12 -1.31392e+12 -1.33638e+12 -1.02446e+12 -2.41234e+12 -481028000000.0 -853403000000.0 -2.0542e+12 -1.77221e+12 -1.23158e+12 -1.08139e+12 -996861000000.0 -2.1343e+12 -1.49596e+12 -1.24106e+12 -1.82527e+12 -1.18125e+12 -1.31075e+12 -1.45194e+12 -875801000000.0 -1.80059e+12 -1.77797e+12 -2.38662e+12 -2.09336e+12 -1.94804e+12 -1.55291e+12 -1.8584e+12 -2.05419e+12 -3.03219e+12 -2.87539e+12 -2.84702e+12 -3.54845e+12 -1.24384e+12 -965269000000.0 -2.15734e+12 -1.05195e+12 -1.03348e+12 -2.26854e+12 -1.65146e+12 -1.58907e+12 -2.09249e+12 -2.09857e+12 -1.06745e+12 -1.22143e+12 -1.81082e+12 -494624000000.0 -2.03075e+12 -1.01871e+12 -914493000000.0 -1.53631e+12 -951487000000.0 -1.32716e+12 -2.24272e+12 -1.50993e+12 -944617000000.0 -1.96153e+12 -1.1907e+12 -1.86461e+12 -337762000000.0 -1.54667e+12 -606125000000.0 -739622000000.0 -567713000000.0 -736756000000.0 -554567000000.0 -892806000000.0 -574225000000.0 -144124000000.0 -626066000000.0 -1.02917e+12 -602977000000.0 -439315000000.0 -501319000000.0 -165824000000.0 -441262000000.0 -412758000000.0 -544997000000.0 -350373000000.0 -15868200000.0 -364251000000.0 -533763000000.0 -246703000000.0 -460721000000.0 -80195700000.0 -303692000000.0 -99411500000.0 -113465000000.0 -348162000000.0 -170358000000.0 -171193000000.0 -208156000000.0 -140505000000.0 -555712000000.0 -76170600000.0 -470228000000.0 -360947000000.0 -296845000000.0 -728097000000.0 -389151000000.0 -753590000000.0 -525033000000.0 -115749000000.0 -462401000000.0 -1.00578e+12 -1.2037e+12 -793019000000.0 -1.1314e+12 -213257000000.0 -422889000000.0 -850157000000.0 -1.7332e+12 -474623000000.0 -1.76026e+12 -861469000000.0 -1.26905e+12 -1.3852e+12 -716167000000.0 -1.6655e+12 -1.14186e+12 -1.55711e+12 -866962000000.0 -1.13388e+12 -2.00026e+12 -1.25017e+12 -940869000000.0 -529402000000.0 -1.09866e+12 -727888000000.0 -3.0173e+12 -1.02435e+12 -731361000000.0 -2.4822e+12 -833232000000.0 -2.23107e+12 -2.29404e+12 -1.76383e+12 -1.27124e+12 -1.83272e+12 -641932000000.0 -2.45742e+12 -2.14255e+12 -1.64012e+12 -2.03894e+12 -1.4705e+12 -1.21686e+12 -2.20629e+12 -1.79953e+12 -785349000000.0 -2.13033e+12 -1.41192e+12 -1.77241e+12 -416980000000.0 -924247000000.0 -1.31719e+12 -992133000000.0 -518919000000.0 -747127000000.0 -1.17753e+12 -986154000000.0 -669099000000.0 -1.49104e+12 -825447000000.0 -1.18599e+12 -983594000000.0 -1.06258e+12 -1.26819e+12 -1.15759e+12 -1.28497e+12 -552942000000.0 -323268000000.0 -452805000000.0 -405940000000.0 -847399000000.0 -362010000000.0 -78547300000.0 -700794000000.0 -562389000000.0 -215981000000.0 -882557000000.0 -44510400000.0 -498942000000.0 -614427000000.0 -697719000000.0 -553679000000.0 -108550000000.0 -322805000000.0 -405930000000.0 -22907100000.0 -65475300000.0 -157850000000.0 -64916500000.0 -396084000000.0 -171589000000.0 -257336000000.0 -151910000000.0 -160432000000.0 -155668000000.0 -331125000000.0 -181941000000.0 -479641000000.0 -22704000000.0 -332147000000.0 -418337000000.0 -68321600000.0 -176462000000.0 -422817000000.0 -307632000000.0 -267192000000.0 -467756000000.0 -459130000000.0 -456884000000.0 -368807000000.0 -506392000000.0 -732720000000.0 -451232000000.0 -654582000000.0 -141345000000.0 -103826000000.0 -987574000000.0 -403841000000.0 -613657000000.0 -223920000000.0 -1.78433e+12 -754630000000.0 -1.2439e+12 -1.63709e+12 -605549000000.0 -1.68016e+12 -605857000000.0 -807806000000.0 -670178000000.0 -764574000000.0 -2.30188e+12 -1.14879e+12 -1.21739e+12 -646337000000.0 -886691000000.0 -1.27457e+12 -1.64312e+12 -908149000000.0 -1.61025e+12 -1.27028e+12 -737916000000.0 -1.44503e+12 -971452000000.0 -1.02811e+12 -1.42919e+12 -2.02538e+12 -1.1982e+12 -206943000000.0 -2.71866e+12 -1.77611e+12 -1.14616e+12 -1.01904e+12 -170451000000.0 -943398000000.0 -1.31281e+12 -1.2739e+12 -703602000000.0 -431838000000.0 -965152000000.0 -1.17903e+12 -418145000000.0 -778979000000.0 -585978000000.0 -136515000000.0 -766407000000.0 -2.04267e+12 -692849000000.0 -935245000000.0 -1.50587e+12 -946781000000.0 -1.31433e+12 -325853000000.0 -390361000000.0 -1.16299e+12 -787098000000.0 -354777000000.0 -380829000000.0 -652164000000.0 -615134000000.0 -781660000000.0 -372919000000.0 -577099000000.0 -119087000000.0 -432139000000.0 -168756000000.0 -136659000000.0 -15960500000.0 -29869500000.0 -256529000000.0 -260651000000.0 -216473000000.0 -213706000000.0 -72339600000.0 -182493000000.0 -206684000000.0 -64736100000.0 -91185900000.0 -208766000000.0 -138957000000.0 -24453900000.0 -200589000000.0 -135236000000.0 -161156000000.0 -477560000000.0 -15312100000.0 -277397000000.0 -286725000000.0 -475494000000.0 -475687000000.0 -44312800000.0 -311375000000.0 -187238000000.0 -230834000000.0 -186688000000.0 -1.00953e+12 -467672000000.0 -38546200000.0 -557829000000.0 -794704000000.0 -757097000000.0 -541996000000.0 -950935000000.0 -985357000000.0 -433845000000.0 -541808000000.0 -467555000000.0 -801284000000.0 -1.16656e+12 -93552900000.0 -657407000000.0 -883165000000.0 -1.07356e+12 -1.25967e+12 -1.42442e+12 -368205000000.0 -1.25623e+12 -1.51528e+12 -1.368e+12 -1.56412e+12 -716179000000.0 -1.35354e+12 -776686000000.0 -459750000000.0 -1.43177e+12 -778520000000.0 -1.4147e+12 -1.74376e+12 -1.2258e+12 -1.67507e+12 -1.72313e+12 -1.35215e+12 -932115000000.0 -1.32995e+12 -1.2185e+12 -909941000000.0 -630492000000.0 -148243000000.0 -628325000000.0 -1.53831e+12 -2.44283e+12 -994603000000.0 -188904000000.0 -1.28501e+12 -890563000000.0 -1.02541e+12 -1.68278e+12 -530516000000.0 -1.05645e+12 -424415000000.0 -353301000000.0 -1.04559e+12 -1.70516e+12 -843655000000.0 -685949000000.0 -517107000000.0 -1.80796e+12 -628851000000.0 -985778000000.0 -385334000000.0 -274756000000.0 -466238000000.0 -793946000000.0 -257860000000.0 -736607000000.0 -1.07158e+12 -630622000000.0 -320031000000.0 -509967000000.0 -468831000000.0 -454605000000.0 -421969000000.0 -342848000000.0 -238142000000.0 -61868200000.0 -117268000000.0 -276796000000.0 -187278000000.0 -172300000000.0 -213245000000.0 -16163900000.0 -154269000000.0 -141448000000.0 -155080000000.0 -72450600000.0 -73699500000.0 -108550000000.0 -58060000000.0 -223688000000.0 -162216000000.0 -217574000000.0 -141176000000.0 -254234000000.0 -174329000000.0 -417234000000.0 -266729000000.0 -48564600000.0 -420684000000.0 -20160300000.0 -308466000000.0 -354728000000.0 -120659000000.0 -273854000000.0 -145269000000.0 -718981000000.0 -172261000000.0 -272875000000.0 -631936000000.0 -200780000000.0 -202906000000.0 -610022000000.0 -515132000000.0 -370340000000.0 -40896100000.0 -534949000000.0 -462974000000.0 -252994000000.0 -1.03873e+12 -735618000000.0 -425571000000.0 -664378000000.0 -638978000000.0 -1.20949e+12 -1.07174e+12 -1.99042e+12 -725345000000.0 -845198000000.0 -323487000000.0 -921438000000.0 -1.58847e+12 -910719000000.0 -1.51434e+12 -812677000000.0 -220508000000.0 -918082000000.0 -1.71451e+12 -1.36595e+12 -271802000000.0 -1.47969e+12 -1.42213e+12 -1.01906e+12 -758116000000.0 -1.17883e+12 -1.00372e+12 -925770000000.0 -138738000000.0 -1.83616e+12 -907036000000.0 -965094000000.0 -1.08547e+12 -1.00887e+12 -725604000000.0 -867721000000.0 -543215000000.0 -297946000000.0 -1.09586e+12 -895938000000.0 -597920000000.0 -504083000000.0 -971965000000.0 -947542000000.0 -580194000000.0 -88197000000.0 -1.13747e+12 -955009000000.0 -107883000000.0 -819167000000.0 -442385000000.0 -511465000000.0 -347829000000.0 -111625000000.0 -700125000000.0 -292909000000.0 -209527000000.0 -689404000000.0 -168875000000.0 -53575700000.0 -158109000000.0 -145726000000.0 -285019000000.0 -303034000000.0 -35987700000.0 -31483100000.0 -98579200000.0 -69289100000.0 -155033000000.0 -140069000000.0 -98172700000.0 -15292700000.0 -19413900000.0 -137731000000.0 -98000300000.0 -168227000000.0 -167830000000.0 -204570000000.0 -138724000000.0 -84042500000.0 -168756000000.0 -192882000000.0 -124455000000.0 -82085100000.0 -152113000000.0 -13328300000.0 -269273000000.0 -169981000000.0 -56991000000.0 -51466700000.0 -244763000000.0 -311517000000.0 -235265000000.0 -18259800000.0 -256668000000.0 -420997000000.0 -433335000000.0 -54131300000.0 -287326000000.0 -250512000000.0 -392770000000.0 -21726100000.0 -550287000000.0 -176481000000.0 -457545000000.0 -996984000000.0 -288023000000.0 -156437000000.0 -1.1963e+12 -1.05806e+12 -424055000000.0 -535410000000.0 -506302000000.0 -818493000000.0 -1.37023e+12 -309841000000.0 -568190000000.0 -631010000000.0 -941724000000.0 -404492000000.0 -866500000000.0 -779673000000.0 -1.12993e+12 -737996000000.0 -490263000000.0 -601159000000.0 -1.0896e+12 -1.37486e+12 -1.42922e+12 -432135000000.0 -867154000000.0 -980141000000.0 -966699000000.0 -1.78204e+12 -927308000000.0 -1.00895e+12 -1.05533e+12 -919804000000.0 -503319000000.0 -1.05724e+12 -1.1228e+12 -424691000000.0 -665539000000.0 -270392000000.0 -817308000000.0 -465510000000.0 -14009900000.0 -460451000000.0 -398875000000.0 -906662000000.0 -779412000000.0 -727352000000.0 -622264000000.0 -322047000000.0 -330656000000.0 -687258000000.0 -203110000000.0 -476807000000.0 -379056000000.0 -227169000000.0 -212003000000.0 -562679000000.0 -60466200000.0 -304001000000.0 -221480000000.0 -251175000000.0 -149761000000.0 -100797000000.0 -193317000000.0 -132190000000.0 -27185500000.0 -80011900000.0 -34651800000.0 -50894000000.0 -55758800000.0 -45504200000.0 -69760100000.0 -120858000000.0 -91360200000.0 -92902200000.0 -76035400000.0 -89767900000.0 -151978000000.0 -220684000000.0 -139007000000.0 -103695000000.0 -113514000000.0 -94332300000.0 -205238000000.0 -173090000000.0 -316950000000.0 -234127000000.0 -410625000000.0 -395787000000.0 -365349000000.0 -341749000000.0 -177350000000.0 -209586000000.0 -460692000000.0 -295620000000.0 -541627000000.0 -364942000000.0 -795400000000.0 -579081000000.0 -324193000000.0 -529165000000.0 -538730000000.0 -186831000000.0 -374494000000.0 -455109000000.0 -469702000000.0 -40580600000.0 -1.37472e+12 -666127000000.0 -265171000000.0 -501573000000.0 -1.34871e+12 -610321000000.0 -89795800000.0 -904646000000.0 -457133000000.0 -1.02747e+12 -345939000000.0 -751390000000.0 -213845000000.0 -1.16764e+12 -608314000000.0 -402904000000.0 -108495000000.0 -735437000000.0 -1.04222e+12 -911606000000.0 -722437000000.0 -645142000000.0 -751111000000.0 -797593000000.0 -958548000000.0 -852861000000.0 -334612000000.0 -546810000000.0 -385499000000.0 -283337000000.0 -267190000000.0 -734207000000.0 -96517600000.0 -857325000000.0 -290048000000.0 -513643000000.0 -502841000000.0 -462941000000.0 -362724000000.0 -247782000000.0 -516601000000.0 -762314000000.0 -651543000000.0 -293613000000.0 -567281000000.0 -324371000000.0 -316034000000.0 -297815000000.0 -253220000000.0 -314264000000.0 -620889000000.0 -364759000000.0 -437580000000.0 -215797000000.0 -15893200000.0 -116770000000.0 -232866000000.0 -191175000000.0 -343153000000.0 -228952000000.0 -46470000000.0 -366915000000.0 -73516200000.0 -127896000000.0 -153922000000.0 -179289000000.0 -102311000000.0 -46813700000.0 -132801000000.0 -79391700000.0 -91490300000.0 -82741200000.0 -91666600000.0 -80322400000.0 -136514000000.0 -94911000000.0 -29871500000.0 -101905000000.0 -104515000000.0 -22742200000.0 -106258000000.0 -19113600000.0 -95930400000.0 -134611000000.0 -115005000000.0 -97494400000.0 -130979000000.0 -165211000000.0 -22572800000.0 -32618500000.0 -60327600000.0 -135370000000.0 -111306000000.0 -100307000000.0 -223756000000.0 -149039000000.0 -192212000000.0 -68812900000.0 -17608600000.0 -220043000000.0 -93080400000.0 -171390000000.0 -555626000000.0 -394413000000.0 -499423000000.0 -16597700000.0 -238348000000.0 -254240000000.0 -668711000000.0 -209417000000.0 -100664000000.0 -308135000000.0 -455327000000.0 -995691000000.0 -817276000000.0 -561532000000.0 -193285000000.0 -1.07953e+12 -353407000000.0 -419989000000.0 -614403000000.0 -317649000000.0 -85927000000.0 -394562000000.0 -713893000000.0 -756371000000.0 -245745000000.0 -258258000000.0 -668211000000.0 -255453000000.0 -604166000000.0 -441707000000.0 -406375000000.0 -1.06304e+12 -857845000000.0 -494229000000.0 -458821000000.0 -290697000000.0 -284686000000.0 -201805000000.0 -143092000000.0 -357795000000.0 -303774000000.0 -610696000000.0 -500915000000.0 -314040000000.0 -455863000000.0 -702506000000.0 -643680000000.0 -315303000000.0 -301881000000.0 -116223000000.0 -579915000000.0 -458904000000.0 -413770000000.0 -512146000000.0 -510081000000.0 -209599000000.0 -153841000000.0 -468228000000.0 -271629000000.0 -375697000000.0 -390521000000.0 -68589500000.0 -59354400000.0 -73969000000.0 -13885500000.0 -150555000000.0 -207066000000.0 -121621000000.0 -140307000000.0 -201317000000.0 -237323000000.0 -150001000000.0 -99545900000.0 -86743300000.0 -90835600000.0 -82619300000.0 -83436200000.0 -64214600000.0 -93511200000.0 -100306000000.0 -14509200000.0 -14456500000.0 -17869900000.0 -17363200000.0 -35093400000.0 -73385700000.0 -48910700000.0 -15389700000.0 -12549700000.0 -105941000000.0 -12549700000.0 -136489000000.0 -19286200000.0 -21209600000.0 -151984000000.0 -53046100000.0 -65206000000.0 -42099400000.0 -159920000000.0 -23028300000.0 -136580000000.0 -216518000000.0 -176191000000.0 -108262000000.0 -44705800000.0 -116055000000.0 -406744000000.0 -496464000000.0 -282399000000.0 -91039900000.0 -206897000000.0 -303325000000.0 -176684000000.0 -111330000000.0 -797361000000.0 -95254300000.0 -344065000000.0 -380329000000.0 -268998000000.0 -205488000000.0 -146337000000.0 -352560000000.0 -593424000000.0 -318309000000.0 -347914000000.0 -249533000000.0 -281860000000.0 -150519000000.0 -398087000000.0 -877711000000.0 -314338000000.0 -235972000000.0 -740670000000.0 -83136800000.0 -422942000000.0 -608169000000.0 -818552000000.0 -346170000000.0 -572263000000.0 -736618000000.0 -453961000000.0 -480375000000.0 -473257000000.0 -332608000000.0 -14339200000.0 -160990000000.0 -445311000000.0 -232565000000.0 -121205000000.0 -559031000000.0 -15981100000.0 -241209000000.0 -380541000000.0 -127622000000.0 -469105000000.0 -402559000000.0 -391506000000.0 -373666000000.0 -448467000000.0 -565301000000.0 -324845000000.0 -460737000000.0 -463542000000.0 -415051000000.0 -165532000000.0 -238111000000.0 -370898000000.0 -204193000000.0 -362772000000.0 -136137000000.0 -70997800000.0 -60883000000.0 -207228000000.0 -106724000000.0 -75269400000.0 -34409500000.0 -37570700000.0 -32157300000.0 -102762000000.0 -144520000000.0 -138206000000.0 -16401500000.0 -13756200000.0 -66832500000.0 -38806400000.0 -54880400000.0 -16421200000.0 -25733700000.0 -24092500000.0 -27211100000.0 -34268900000.0 -62573000000.0 -75506500000.0 -14047000000.0 -17241900000.0 -22579500000.0 -27618900000.0 -30879800000.0 -87818900000.0 -40103900000.0 -157588000000.0 -89972200000.0 -133725000000.0 -24320800000.0 -240735000000.0 -23468500000.0 -215944000000.0 -170205000000.0 -103883000000.0 -114612000000.0 -135554000000.0 -70090400000.0 -74290000000.0 -135790000000.0 -91164500000.0 -41254200000.0 -503992000000.0 -273312000000.0 -43756900000.0 -141713000000.0 -114646000000.0 -131809000000.0 -507980000000.0 -374775000000.0 -436174000000.0 -377600000000.0 -494033000000.0 -176245000000.0 -238216000000.0 -176824000000.0 -419117000000.0 -486277000000.0 -296382000000.0 -276329000000.0 -280996000000.0 -205932000000.0 -422135000000.0 -482590000000.0 -318372000000.0 -165789000000.0 -496864000000.0 -333934000000.0 -221613000000.0 -241537000000.0 -306093000000.0 -376077000000.0 -399075000000.0 -263851000000.0 -337870000000.0 -493451000000.0 -129570000000.0 -153371000000.0 -204303000000.0 -298979000000.0 -118147000000.0 -216706000000.0 -174721000000.0 -165434000000.0 -283839000000.0 -343716000000.0 -208983000000.0 -275952000000.0 -229136000000.0 -114761000000.0 -160730000000.0 -97379000000.0 -228542000000.0 -194392000000.0 -327306000000.0 -173892000000.0 -95024100000.0 -25525800000.0 -182173000000.0 -40051900000.0 -17370700000.0 -15187600000.0 -36271100000.0 -54649400000.0 -43598900000.0 -48566700000.0 -78401000000.0 -42588200000.0 -44763200000.0 -60123500000.0 -18687400000.0 -13582800000.0 -12987500000.0 -38467500000.0 -14335200000.0 -14737800000.0 -36258900000.0 -12549700000.0 -34291500000.0 -23329500000.0 -20000300000.0 -23187500000.0 -50222200000.0 -134832000000.0 -35671700000.0 -186745000000.0 -96911000000.0 -44787200000.0 -59267200000.0 -65428900000.0 -118185000000.0 -33556500000.0 -73268800000.0 -44967300000.0 -71154000000.0 -21280900000.0 -401907000000.0 -177740000000.0 -169985000000.0 -85710700000.0 -50387100000.0 -89156700000.0 -15263500000.0 -389863000000.0 -322260000000.0 -178589000000.0 -512166000000.0 -46694900000.0 -315579000000.0 -145207000000.0 -160191000000.0 -358258000000.0 -183515000000.0 -309696000000.0 -397198000000.0 -357359000000.0 -655391000000.0 -347036000000.0 -263796000000.0 -338738000000.0 -250461000000.0 -310404000000.0 -164867000000.0 -40155400000.0 -319821000000.0 -117530000000.0 -148018000000.0 -563733000000.0 -197460000000.0 -206274000000.0 -451525000000.0 -185506000000.0 -177102000000.0 -75929100000.0 -83543000000.0 -164358000000.0 -235906000000.0 -330611000000.0 -37180300000.0 -360399000000.0 -141203000000.0 -347951000000.0 -78643100000.0 -120198000000.0 -195754000000.0 -158403000000.0 -206587000000.0 -223134000000.0 -63791200000.0 -159083000000.0 -191244000000.0 -313230000000.0 -315502000000.0 -131273000000.0 -62881800000.0 -80864600000.0 -81662300000.0 -80380800000.0 -83295700000.0 -85392300000.0 -134327000000.0 -103460000000.0 -15547300000.0 -26918400000.0 -88043500000.0 -97828300000.0 -91212900000.0 -45217800000.0 -49331900000.0 -72580000000.0 -60547600000.0 -20212000000.0 -27354800000.0 -32061500000.0 -42572700000.0 -21960300000.0 -12878200000.0 -36870800000.0 -15958500000.0 -12549700000.0 -12549700000.0 -18414900000.0 -29713400000.0 -20370300000.0 -12549700000.0 -25688100000.0 -22714400000.0 -14806400000.0 -23231300000.0 -17712800000.0 -17624800000.0 -85480400000.0 -32227600000.0 -44461400000.0 -36752400000.0 -97438300000.0 -53404700000.0 -51578900000.0 -37446100000.0 -51486200000.0 -63587800000.0 -83221300000.0 -73317900000.0 -90758900000.0 -160042000000.0 -118749000000.0 -114093000000.0 -42580400000.0 -145740000000.0 -163210000000.0 -65633100000.0 -92662000000.0 -194490000000.0 -310257000000.0 -166433000000.0 -128933000000.0 -188049000000.0 -70930400000.0 -165293000000.0 -319623000000.0 -100787000000.0 -197268000000.0 -215587000000.0 -185871000000.0 -244308000000.0 -333135000000.0 -195377000000.0 -104104000000.0 -176483000000.0 -99491800000.0 -28540500000.0 -95822200000.0 -396438000000.0 -130838000000.0 -192648000000.0 -19278000000.0 -111216000000.0 -133961000000.0 -110449000000.0 -240261000000.0 -72479800000.0 -210647000000.0 -99561200000.0 -47348000000.0 -81400000000.0 -103789000000.0 -119396000000.0 -35950000000.0 -67250300000.0 -79799900000.0 -106954000000.0 -59070700000.0 -138769000000.0 -83122600000.0 -115717000000.0 -60791400000.0 -95425200000.0 -36471800000.0 -86377300000.0 -129786000000.0 -51764200000.0 -31144100000.0 -19123900000.0 -17296000000.0 -14865900000.0 -12637000000.0 -68358500000.0 -12549700000.0 -21057900000.0 -33711900000.0 -15389100000.0 -20247800000.0 -17611900000.0 -29526800000.0 -15005300000.0 -12955000000.0 -24761800000.0 -20081700000.0 -12577800000.0 -12549700000.0 -12556500000.0 -13719100000.0 -12671300000.0 -22184700000.0 -12549700000.0 -19673500000.0 -33438000000.0 -28044400000.0 -20679400000.0 -20806100000.0 -31884400000.0 -51523700000.0 -23882700000.0 -23307600000.0 -22214600000.0 -21791600000.0 -17312700000.0 -46546000000.0 -24182900000.0 -40915300000.0 -29523400000.0 -98579100000.0 -66832400000.0 -49172100000.0 -25056600000.0 -44311800000.0 -113055000000.0 -215510000000.0 -120938000000.0 -72975400000.0 -264409000000.0 -59057100000.0 -180233000000.0 -34484000000.0 -18783800000.0 -103810000000.0 -54270200000.0 -98325600000.0 -47224300000.0 -104686000000.0 -22746700000.0 -116111000000.0 -105625000000.0 -12964100000.0 -17010300000.0 -329965000000.0 -138165000000.0 -231140000000.0 -154600000000.0 -170516000000.0 -370818000000.0 -346071000000.0 -212535000000.0 -35049600000.0 -108779000000.0 -65798800000.0 -97326600000.0 -85179100000.0 -59216900000.0 -72040300000.0 -90751300000.0 -72009800000.0 -60240400000.0 -52883600000.0 -42833300000.0 -36658800000.0 -47622200000.0 -127344000000.0 -24388400000.0 -58745500000.0 -68748700000.0 -25259300000.0 -14796800000.0 -21474900000.0 -53542800000.0 -35205300000.0 -68876500000.0 -31244300000.0 -27507000000.0 -26371000000.0 -43563800000.0 -13763100000.0 -15850100000.0 -17751200000.0 -12549700000.0 -14375600000.0 -13027100000.0 -15404600000.0 -18369900000.0 -16710000000.0 -14323800000.0 -13679300000.0 -13937600000.0 -14074000000.0 -14577500000.0 -19297500000.0 -16737200000.0 -19353900000.0 -14410400000.0 -13445800000.0 -15610000000.0 -15198800000.0 -20784300000.0 -18263700000.0 -18391800000.0 -21999100000.0 -23900600000.0 -29697500000.0 -20667100000.0 -22448900000.0 -30075100000.0 -35429700000.0 -47889800000.0 -48932700000.0 -23716500000.0 -23790000000.0 -35044000000.0 -60201100000.0 -60821100000.0 -31177000000.0 -61040100000.0 -64743300000.0 -16548300000.0 -99962300000.0 -163475000000.0 -13810100000.0 -26983500000.0 -60441000000.0 -35131900000.0 -35148200000.0 -31062100000.0 -85656400000.0 -49950200000.0 -81292100000.0 -58871900000.0 -112608000000.0 -45186300000.0 -39597900000.0 -107548000000.0 -50302300000.0 -172839000000.0 -73820900000.0 -68067800000.0 -92835900000.0 -95972400000.0 -81280300000.0 -159983000000.0 -41757200000.0 -56629800000.0 -16123000000.0 -23968000000.0 -56890700000.0 -55937200000.0 -32413000000.0 -58094400000.0 -54428400000.0 -31454800000.0 -31514800000.0 -48242500000.0 -17568500000.0 -26189100000.0 -25823800000.0 -17563900000.0 -13610400000.0 -16516900000.0 -29831400000.0 -24944600000.0 -21162500000.0 -15626900000.0 -15130300000.0 -28609200000.0 -30464300000.0 -22467800000.0 -37222600000.0 -29636600000.0 -39406000000.0 -31288500000.0 -15323200000.0 -21210100000.0 -20522800000.0 -21447300000.0 -27628100000.0 -53786400000.0 -27997700000.0 -23041400000.0 -22612200000.0 -46897400000.0 -44126600000.0 -54125700000.0 -79340800000.0 -21747300000.0 