# vtk DataFile Version 2.0
Time step 115
ASCII
DATASET UNSTRUCTURED_GRID
POINTS 4650 float
208407.0 228732.0 0
215394.0 228768.0 0
219367.0 229209.0 0
247412.0 228041.0 0
295662.0 228262.0 0
204952.0 230751.0 0
211891.0 230694.0 0
222977.0 230923.0 0
237026.0 230216.0 0
240543.0 232119.0 0
243977.0 230080.0 0
247476.0 232024.0 0
250901.0 229987.0 0
254362.0 231957.0 0
257794.0 229935.0 0
261249.0 231920.0 0
274804.0 231875.0 0
281712.0 231947.0 0
285206.0 230013.0 0
288637.0 232066.0 0
292142.0 230154.0 0
299158.0 230446.0 0
201410.0 232890.0 0
204954.0 234732.0 0
208439.0 232713.0 0
211998.0 234669.0 0
215501.0 232747.0 0
219474.0 233193.0 0
226626.0 232549.0 0
230188.0 234359.0 0
233599.0 232275.0 0
237132.0 234195.0 0
244072.0 234059.0 0
250946.0 233979.0 0
257808.0 233931.0 0
264977.0 233292.0 0
271344.0 233846.0 0
278235.0 233901.0 0
285144.0 233997.0 0
292075.0 234137.0 0
295591.0 232245.0 0
299097.0 234433.0 0
201342.0 236875.0 0
208436.0 236674.0 0
215758.0 236701.0 0
219724.0 237156.0 0
223087.0 234904.0 0
226740.0 236527.0 0
233712.0 236253.0 0
240688.0 236095.0 0
247548.0 236006.0 0
254393.0 235947.0 0
261232.0 235907.0 0
267958.0 235904.0 0
274775.0 235872.0 0
281658.0 235931.0 0
288573.0 236046.0 0
295519.0 236212.0 0
204895.0 238695.0 0
211908.0 238621.0 0
223323.0 238863.0 0
230309.0 238332.0 0
237336.0 238150.0 0
244171.0 238033.0 0
250998.0 237965.0 0
254423.0 239935.0 0
257816.0 237923.0 0
261200.0 239923.0 0
264588.0 237934.0 0
267975.0 239904.0 0
271366.0 237887.0 0
274761.0 239870.0 0
278190.0 237885.0 0
281587.0 239898.0 0
285076.0 237965.0 0
292002.0 238102.0 0
299013.0 238408.0 0
201199.0 240844.0 0
208384.0 240619.0 0
215344.0 240622.0 0
219285.0 241092.0 0
226954.0 240479.0 0
230713.0 242265.0 0
234007.0 240201.0 0
237497.0 242109.0 0
240821.0 240067.0 0
244276.0 242007.0 0
247625.0 239984.0 0
251053.0 241946.0 0
257820.0 241918.0 0
264585.0 241913.0 0
271356.0 241878.0 0
278140.0 241865.0 0
284963.0 241912.0 0
288493.0 240005.0 0
291918.0 242048.0 0
295429.0 240162.0 0
299580.0 242334.0 0
201109.0 244803.0 0
204755.0 242642.0 0
208244.0 244544.0 0
211856.0 242555.0 0
215304.0 244540.0 0
219241.0 245048.0 0
222868.0 242788.0 0
227475.0 244361.0 0
234204.0 244157.0 0
240952.0 244035.0 0
247704.0 243960.0 0
254456.0 243920.0 0
261205.0 243906.0 0
267962.0 243886.0 0
274724.0 243856.0 0
281503.0 243863.0 0
288305.0 243932.0 0
295530.0 244097.0 0
204806.0 246577.0 0
211720.0 246456.0 0
224282.0 246435.0 0
230953.0 246222.0 0
237654.0 246072.0 0
244377.0 245978.0 0
251108.0 245924.0 0
257841.0 245900.0 0
264581.0 245887.0 0
271327.0 245858.0 0
278078.0 245839.0 0
284841.0 245866.0 0
291611.0 245951.0 0
298912.0 246226.0 0
201437.0 248733.0 0
208338.0 248454.0 0
215076.0 248422.0 0
221128.0 248491.0 0
227737.0 248302.0 0
231153.0 250182.0 0
234389.0 248120.0 0
237794.0 250036.0 0
241073.0 248002.0 0
244466.0 249945.0 0
247778.0 247932.0 0
251159.0 249895.0 0
254492.0 247896.0 0
257862.0 249872.0 0
261214.0 247881.0 0
264575.0 249856.0 0
267944.0 247859.0 0
271293.0 249828.0 0
274677.0 247830.0 0
278015.0 249806.0 0
281416.0 247827.0 0
284736.0 249820.0 0
288155.0 247874.0 0
291443.0 249887.0 0
294874.0 247961.0 0
298017.0 250052.0 0
201981.0 252623.0 0
205069.0 250483.0 0
208459.0 252425.0 0
211729.0 250410.0 0
214924.0 252562.0 0
218117.0 250649.0 0
221431.0 252489.0 0
224552.0 250379.0 0
227945.0 252254.0 0
234540.0 252082.0 0
241174.0 251966.0 0
247841.0 251897.0 0
254525.0 251864.0 0
261220.0 251847.0 0
267923.0 251824.0 0
274631.0 251795.0 0
281340.0 251784.0 0
288042.0 251820.0 0
294690.0 251925.0 0
205264.0 254490.0 0
211724.0 254494.0 0
218244.0 254553.0 0
224768.0 254341.0 0
231310.0 254140.0 0
237902.0 253998.0 0
244537.0 253905.0 0
251201.0 253856.0 0
257879.0 253835.0 0
264567.0 253817.0 0
271261.0 253788.0 0
277958.0 253761.0 0
284656.0 253767.0 0
291334.0 253830.0 0
298011.0 253927.0 0
201986.0 256506.0 0
208530.0 256461.0 0
215041.0 256509.0 0
221580.0 256425.0 0
228105.0 256208.0 0
231419.0 258095.0 0
234650.0 256041.0 0
237970.0 257951.0 0
241247.0 255922.0 0
244582.0 257852.0 0
247887.0 255851.0 0
251228.0 257805.0 0
254549.0 255821.0 0
257888.0 257787.0 0
261222.0 255805.0 0
264556.0 257770.0 0
267903.0 255781.0 0
271231.0 257738.0 0
274589.0 255747.0 0
277913.0 257702.0 0
281280.0 255728.0 0
284602.0 257695.0 0
287968.0 255754.0 0
291296.0 257736.0 0
294656.0 255827.0 0
298011.0 257791.0 0
201986.0 260385.0 0
205282.0 258431.0 0
208596.0 260390.0 0
211838.0 258453.0 0
215189.0 260432.0 0
218386.0 258465.0 0
221726.0 260352.0 0
224907.0 258274.0 0
228209.0 260151.0 0
234706.0 259993.0 0
241284.0 259864.0 0
247911.0 259789.0 0
254561.0 259764.0 0
261218.0 259753.0 0
267882.0 259727.0 0
274554.0 259686.0 0
281239.0 259653.0 0
287934.0 259659.0 0
294646.0 259700.0 0
205310.0 262320.0 0
211946.0 262355.0 0
218576.0 262381.0 0
225034.0 262192.0 0
231450.0 262048.0 0
237994.0 261889.0 0
244596.0 261779.0 0
251236.0 261736.0 0
257886.0 261727.0 0
264541.0 261712.0 0
271203.0 261674.0 0
277880.0 261624.0 0
284572.0 261598.0 0
291281.0 261612.0 0
298011.0 261642.0 0
201987.0 264237.0 0
208660.0 264262.0 0
215336.0 264309.0 0
222002.0 264298.0 0
228196.0 264117.0 0
234708.0 263926.0 0
237969.0 265804.0 0
241282.0 263785.0 0
244575.0 265680.0 0
247909.0 263706.0 0
251222.0 265647.0 0
254556.0 263691.0 0
257872.0 265651.0 0
261206.0 263688.0 0
264522.0 265642.0 0
267860.0 263662.0 0
271179.0 265595.0 0
274526.0 263607.0 0
277857.0 265524.0 0
281213.0 263553.0 0
284558.0 265473.0 0
287919.0 263535.0 0
291278.0 265465.0 0
294643.0 263553.0 0
298011.0 265480.0 0
201988.0 268057.0 0
205337.0 266163.0 0
208714.0 268084.0 0
212043.0 266202.0 0
215463.0 268131.0 0
218771.0 266242.0 0
222276.0 268123.0 0
226026.0 267255.0 0
231422.0 265973.0 0
234655.0 267833.0 0
241234.0 267681.0 0
247877.0 267594.0 0
254533.0 267599.0 0
261185.0 267609.0 0
267837.0 267582.0 0
274505.0 267508.0 0
281200.0 267428.0 0
287917.0 267387.0 0
294645.0 267386.0 0
205358.0 269964.0 0
212117.0 270000.0 0
218919.0 270038.0 0
226092.0 271140.0 0
229456.0 269226.0 0
232878.0 271191.0 0
237893.0 269691.0 0
244513.0 269540.0 0
251182.0 269531.0 0
257843.0 269556.0 0
264498.0 269558.0 0
271158.0 269499.0 0
277845.0 269400.0 0
284558.0 269322.0 0
287928.0 271213.0 0
291284.0 269296.0 0
294652.0 271204.0 0
298012.0 269304.0 0
201988.0 271844.0 0
205367.0 273731.0 0
208747.0 271864.0 0
212151.0 273759.0 0
215543.0 271907.0 0
222357.0 271955.0 0
229496.0 273106.0 0
236305.0 273138.0 0
241134.0 271549.0 0
244402.0 273339.0 0
247811.0 271447.0 0
251109.0 273386.0 0
254487.0 271483.0 0
257797.0 273440.0 0
261154.0 271512.0 0
264468.0 273458.0 0
267814.0 271488.0 0
271141.0 273385.0 0
274492.0 271388.0 0
277847.0 273248.0 0
281202.0 271275.0 0
284576.0 273144.0 0
291301.0 273107.0 0
298013.0 273115.0 0
201988.0 275607.0 0
208752.0 275612.0 0
215555.0 275657.0 0
218966.0 273819.0 0
222377.0 275758.0 0
226119.0 275013.0 0
232903.0 275051.0 0
239738.0 275082.0 0
247695.0 275258.0 0
254418.0 275337.0 0
261110.0 275396.0 0
267790.0 275377.0 0
274492.0 275242.0 0
281226.0 275092.0 0
287958.0 275018.0 0
294666.0 275008.0 0
205358.0 277475.0 0
212134.0 277492.0 0
218954.0 277574.0 0
226114.0 278886.0 0
229506.0 276972.0 0
232909.0 278892.0 0
236319.0 276978.0 0
240761.0 278746.0 0
244185.0 277027.0 0
247559.0 279013.0 0
251009.0 277202.0 0
257731.0 277297.0 0
264429.0 277340.0 0
271133.0 277247.0 0
277875.0 277063.0 0
281293.0 278874.0 0
284624.0 276939.0 0
288020.0 278803.0 0
291335.0 276903.0 0
294689.0 278804.0 0
298014.0 276919.0 0
201986.0 279354.0 0
205333.0 281211.0 0
208716.0 279340.0 0
212051.0 281203.0 0
215509.0 279380.0 0
218878.0 281293.0 0
222345.0 279521.0 0
229502.0 280825.0 0
237402.0 280591.0 0
244135.0 280789.0 0
250900.0 280986.0 0
254326.0 279160.0 0
257637.0 281128.0 0
261047.0 279257.0 0
264370.0 281203.0 0
267764.0 279250.0 0
271141.0 281076.0 0
274517.0 279065.0 0
277958.0 280833.0 0
284726.0 280707.0 0
291386.0 280694.0 0
298016.0 280719.0 0
201984.0 283096.0 0
208653.0 283068.0 0
215347.0 283065.0 0
222266.0 283235.0 0
226096.0 282766.0 0
234086.0 282465.0 0
240768.0 282569.0 0
247484.0 282785.0 0
254214.0 282961.0 0
260939.0 283095.0 0
267721.0 283100.0 0
274604.0 282841.0 0
281461.0 282614.0 0
288111.0 282586.0 0
294718.0 282601.0 0
205300.0 284948.0 0
208584.0 286807.0 0
211936.0 284927.0 0
215165.0 286796.0 0
218563.0 284934.0 0
221646.0 286803.0 0
227613.0 286275.0 0
230818.0 284355.0 0
234177.0 286290.0 0
237450.0 284414.0 0
240773.0 286389.0 0
244104.0 284578.0 0
247410.0 286572.0 0
250799.0 284771.0 0
254078.0 286760.0 0
257502.0 284943.0 0
264232.0 285038.0 0
271171.0 284837.0 0
275182.0 286464.0 0
278252.0 284523.0 0
281680.0 286380.0 0
284870.0 284481.0 0
288213.0 286380.0 0
291449.0 284488.0 0
294749.0 286403.0 0
298018.0 284520.0 0
201982.0 286838.0 0
205269.0 288692.0 0
211830.0 288674.0 0
218332.0 288684.0 0
224707.0 288483.0 0
230961.0 288200.0 0
237489.0 288243.0 0
244064.0 288381.0 0
250679.0 288565.0 0
257314.0 288762.0 0
260756.0 286926.0 0
263964.0 288879.0 0
267526.0 286903.0 0
272201.0 288338.0 0
278568.0 288302.0 0
285017.0 288279.0 0
291511.0 288293.0 0
298020.0 288325.0 0
201980.0 290580.0 0
208527.0 290555.0 0
215039.0 290556.0 0
221507.0 290540.0 0
227881.0 290227.0 0
234253.0 290134.0 0
240764.0 290213.0 0
247320.0 290374.0 0
253900.0 290568.0 0
260485.0 290784.0 0
266245.0 291714.0 0
269255.0 290099.0 0
275505.0 290231.0 0
281871.0 290193.0 0
288305.0 290191.0 0
294778.0 290211.0 0
201979.0 294318.0 0
205245.0 292436.0 0
208488.0 294302.0 0
211758.0 292429.0 0
214981.0 294305.0 0
218245.0 292434.0 0
221470.0 294270.0 0
224713.0 292293.0 0
227909.0 294080.0 0
231086.0 292088.0 0
234298.0 293990.0 0
237508.0 292080.0 0
240734.0 294042.0 0
244006.0 292196.0 0
247212.0 294190.0 0
250533.0 292374.0 0
253685.0 294401.0 0
257049.0 292601.0 0
263147.0 293270.0 0
269330.0 293868.0 0
272443.0 292106.0 0
275645.0 294027.0 0
278759.0 292118.0 0
281987.0 294018.0 0
285134.0 292100.0 0
288373.0 294012.0 0
291562.0 292107.0 0
294799.0 294022.0 0
298021.0 292131.0 0
205228.0 296175.0 0
211721.0 296171.0 0
218209.0 296165.0 0
224687.0 296066.0 0
231099.0 295933.0 0
237499.0 295920.0 0
243931.0 296020.0 0
250372.0 296205.0 0
256716.0 296520.0 0
259953.0 294833.0 0
262962.0 297102.0 0
266165.0 295514.0 0
272494.0 295869.0 0
278843.0 295931.0 0
285202.0 295924.0 0
291597.0 295922.0 0
298023.0 295935.0 0
201978.0 298048.0 0
208467.0 298036.0 0
214952.0 298035.0 0
221436.0 298000.0 0
224647.0 299822.0 0
227884.0 297885.0 0
231065.0 299743.0 0
234282.0 297824.0 0
237454.0 299745.0 0
240682.0 297872.0 0
243843.0 299847.0 0
247094.0 298019.0 0
253465.0 298272.0 0
259752.0 298710.0 0
266077.0 299270.0 0
269299.0 297613.0 0
272471.0 299616.0 0
275674.0 297807.0 0
278855.0 299724.0 0
282035.0 297834.0 0
285225.0 299735.0 0
288409.0 297828.0 0
291612.0 299729.0 0
294812.0 297829.0 0
298023.0 299731.0 0
201977.0 301765.0 0
205219.0 299901.0 0
208453.0 301755.0 0
211699.0 299897.0 0
214928.0 301753.0 0
218180.0 299887.0 0
221398.0 301726.0 0
227837.0 301661.0 0
234233.0 301634.0 0
240610.0 301692.0 0
246976.0 301849.0 0
250216.0 300051.0 0
253314.0 302120.0 0
256537.0 300391.0 0
262853.0 300893.0 0
269242.0 301345.0 0
275650.0 301570.0 0
282034.0 301631.0 0
288416.0 301632.0 0
294816.0 301624.0 0
205212.0 303612.0 0
211682.0 303608.0 0
218149.0 303601.0 0
224599.0 303564.0 0
231010.0 303528.0 0
237386.0 303553.0 0
243746.0 303665.0 0
250089.0 303880.0 0
256419.0 304216.0 0
259635.0 302533.0 0
262773.0 304660.0 0
266005.0 303014.0 0
269182.0 305074.0 0
272422.0 303353.0 0
278828.0 303498.0 0
285216.0 303528.0 0
291611.0 303521.0 0
298024.0 303512.0 0
201976.0 305467.0 0
205205.0 307307.0 0
208441.0 305459.0 0
211663.0 307306.0 0
214903.0 305458.0 0
218114.0 307306.0 0
221356.0 305446.0 0
224547.0 307295.0 0
227781.0 305418.0 0
230943.0 307293.0 0
234166.0 305423.0 0
237306.0 307342.0 0
240524.0 305498.0 0
243647.0 307467.0 0
246866.0 305664.0 0
253200.0 305936.0 0
259546.0 306318.0 0
265939.0 306749.0 0
272365.0 307087.0 0
275603.0 305320.0 0
278780.0 307257.0 0
282004.0 305408.0 0
285184.0 307301.0 0
288402.0 305415.0 0
291597.0 307291.0 0
294813.0 305402.0 0
298024.0 307275.0 0
201975.0 309154.0 0
208428.0 309148.0 0
214876.0 309153.0 0
221311.0 309156.0 0
227718.0 309158.0 0
234089.0 309192.0 0
240432.0 309285.0 0
246762.0 309456.0 0
249980.0 307684.0 0
253096.0 309719.0 0
256321.0 308004.0 0
259461.0 310073.0 0
262699.0 308407.0 0
269120.0 308799.0 0
275545.0 309063.0 0
281957.0 309169.0 0
288373.0 309178.0 0
294804.0 309157.0 0
201974.0 312826.0 0
205199.0 310988.0 0
208414.0 312823.0 0
211643.0 310991.0 0
214847.0 312836.0 0
218078.0 311001.0 0
221264.0 312856.0 0
224491.0 311013.0 0
230871.0 311041.0 0
237219.0 311112.0 0
243547.0 311247.0 0
249873.0 311461.0 0
256223.0 311760.0 0
262618.0 312133.0 0
265871.0 310473.0 0
269051.0 312517.0 0
272302.0 310817.0 0
275481.0 312803.0 0
278722.0 311008.0 0
281900.0 312917.0 0
285140.0 311055.0 0
288336.0 312917.0 0
291575.0 311038.0 0
294791.0 312886.0 0
298024.0 311014.0 0
205191.0 314654.0 0
211621.0 314663.0 0
218039.0 314686.0 0
224433.0 314720.0 0
227652.0 312885.0 0
230796.0 314773.0 0
234007.0 312944.0 0
237129.0 314865.0 0
240336.0 313052.0 0
243442.0 315008.0 0
246654.0 313225.0 0
249759.0 315213.0 0
252988.0 313474.0 0
256108.0 315489.0 0
259363.0 313800.0 0
265789.0 314182.0 0
272232.0 314542.0 0
278656.0 314752.0 0
285089.0 314791.0 0
291549.0 314759.0 0
298023.0 314728.0 0
201974.0 316484.0 0
208400.0 316485.0 0
214817.0 316507.0 0
221215.0 316544.0 0
227586.0 316598.0 0
233924.0 316679.0 0
240236.0 316802.0 0
246540.0 316975.0 0
252861.0 317205.0 0
259236.0 317501.0 0
262516.0 315835.0 0
265681.0 317866.0 0
268968.0 316222.0 0
275408.0 316540.0 0
281838.0 316654.0 0
288296.0 316633.0 0
294779.0 316589.0 0
201973.0 320128.0 0
205183.0 318306.0 0
208385.0 320133.0 0
211599.0 318321.0 0
214786.0 320166.0 0
217999.0 318359.0 0
221166.0 320221.0 0
224375.0 318414.0 0
227518.0 320297.0 0
230720.0 318491.0 0
233839.0 320400.0 0
237036.0 318601.0 0
240134.0 320536.0 0
243332.0 318751.0 0
249631.0 318948.0 0
255962.0 319195.0 0
262372.0 319508.0 0
268856.0 319903.0 0
272147.0 318261.0 0
275325.0 320276.0 0
278584.0 318492.0 0
281777.0 320378.0 0
285038.0 318507.0 0
288264.0 320323.0 0
291525.0 318453.0 0
294770.0 320264.0 0
298023.0 318415.0 0
205176.0 321943.0 0
211576.0 321967.0 0
217959.0 322019.0 0
224317.0 322095.0 0
230644.0 322195.0 0
236941.0 322323.0 0
243218.0 322481.0 0
246417.0 320709.0 0
249490.0 322671.0 0
252713.0 320921.0 0
255783.0 322891.0 0
259058.0 321177.0 0
262141.0 323148.0 0
265518.0 321515.0 0
272038.0 321964.0 0
278513.0 322229.0 0
285001.0 322202.0 0
291511.0 322120.0 0
298023.0 322079.0 0
201972.0 323756.0 0
205168.0 325567.0 0
208369.0 323766.0 0
211552.0 325600.0 0
214754.0 323812.0 0
217919.0 325668.0 0
221117.0 323885.0 0
224259.0 325764.0 0
227451.0 323983.0 0
230568.0 325886.0 0
233753.0 324107.0 0
240028.0 324257.0 0
246288.0 324434.0 0
252548.0 324634.0 0
258834.0 324852.0 0
265197.0 325101.0 0
268683.0 323537.0 0
271877.0 325632.0 0
275232.0 324005.0 0
278481.0 325956.0 0
281740.0 324087.0 0
285005.0 325876.0 0
288253.0 323990.0 0
291518.0 325766.0 0
294768.0 323916.0 0
298024.0 325722.0 0
302245.0 324599.0 0
201971.0 327371.0 0
208354.0 327387.0 0
214723.0 327445.0 0
221069.0 327537.0 0
227384.0 327657.0 0
233667.0 327802.0 0
236846.0 326032.0 0
239922.0 327968.0 0
243100.0 326201.0 0
246155.0 328152.0 0
249341.0 326391.0 0
252376.0 328349.0 0
255585.0 326593.0 0
261851.0 326802.0 0
268185.0 327034.0 0
275194.0 327704.0 0
281778.0 327779.0 0
288285.0 327638.0 0
294778.0 327550.0 0
201970.0 330970.0 0
205160.0 329176.0 0
208339.0 330993.0 0
211529.0 329219.0 0
214692.0 331065.0 0
217879.0 329303.0 0
224202.0 329420.0 0
230491.0 329564.0 0
236749.0 329729.0 0
242980.0 329912.0 0
249191.0 330108.0 0
255386.0 330308.0 0
258594.0 328549.0 0
261561.0 330502.0 0
264812.0 328742.0 0
267667.0 330704.0 0
270963.0 328991.0 0
273618.0 330811.0 0
278589.0 329678.0 0
285088.0 329538.0 0
291550.0 329402.0 0
294797.0 331176.0 0
298025.0 329351.0 0
205152.0 332770.0 0
211507.0 332824.0 0
217841.0 332926.0 0
221021.0 331176.0 0
224145.0 333065.0 0
227318.0 331319.0 0
230415.0 333231.0 0
233581.0 331484.0 0
236652.0 333416.0 0
239814.0 331668.0 0
242860.0 333615.0 0
246021.0 331864.0 0
252207.0 332068.0 0
258367.0 332270.0 0
264470.0 332469.0 0
270475.0 332666.0 0
276370.0 332366.0 0
279309.0 333768.0 0
281968.0 331475.0 0
285244.0 333230.0 0
288361.0 331290.0 0
291599.0 333041.0 0
298027.0 332968.0 0
302175.0 332683.0 0
201969.0 334553.0 0
205145.0 336349.0 0
208325.0 334584.0 0
214663.0 334672.0 0
220974.0 334803.0 0
227252.0 334968.0 0
233495.0 335156.0 0
239705.0 335358.0 0
245889.0 335570.0 0
249043.0 333823.0 0
252046.0 335787.0 0
255200.0 334033.0 0
258169.0 336005.0 0
261311.0 334241.0 0
264236.0 336217.0 0
267350.0 334443.0 0
270280.0 336357.0 0
273370.0 334477.0 0
276375.0 336057.0 0
282345.0 335345.0 0
288457.0 334966.0 0
294820.0 334797.0 0
201969.0 338120.0 0
208312.0 338161.0 0
211487.0 336416.0 0
214636.0 338265.0 0
217804.0 336536.0 0
220929.0 338418.0 0
224090.0 336697.0 0
227188.0 338606.0 0
230340.0 336886.0 0
233409.0 338817.0 0
236555.0 337092.0 0
242740.0 337309.0 0
248899.0 337531.0 0
255031.0 337758.0 0
261124.0 337983.0 0
267185.0 338167.0 0
273293.0 338118.0 0
279394.0 337558.0 0
285428.0 337006.0 0
288543.0 338670.0 0
291650.0 336687.0 0
294839.0 338410.0 0
298028.0 336573.0 0
205140.0 339911.0 0
211469.0 339993.0 0
217770.0 340134.0 0
224037.0 340318.0 0
230266.0 340531.0 0
236457.0 340759.0 0
239596.0 339038.0 0
242617.0 340992.0 0
245756.0 339266.0 0
248756.0 341228.0 0
251894.0 339498.0 0
254879.0 341469.0 0
258006.0 339734.0 0
264090.0 339949.0 0
270187.0 340032.0 0
276333.0 339729.0 0
279363.0 341288.0 0
282419.0 339134.0 0
285469.0 340747.0 0
291684.0 340329.0 0
298030.0 340160.0 0
197757.0 344226.0 0
201968.0 341669.0 0
205136.0 343456.0 0
208302.0 341722.0 0
211455.0 343557.0 0
214612.0 341846.0 0
217740.0 343719.0 0
220888.0 342021.0 0
223988.0 343928.0 0
227126.0 342234.0 0
233323.0 342468.0 0
239484.0 342710.0 0
245620.0 342951.0 0
251744.0 343194.0 0
257865.0 343440.0 0
260985.0 341705.0 0
263984.0 343656.0 0
267086.0 341870.0 0
270109.0 343712.0 0
273223.0 341773.0 0
276263.0 343408.0 0
282394.0 342867.0 0
288554.0 342344.0 0
291681.0 343933.0 0
294850.0 342003.0 0
298031.0 343717.0 0
201967.0 345198.0 0
208296.0 345267.0 0
214594.0 345414.0 0
220852.0 345613.0 0
227069.0 345852.0 0
230194.0 344166.0 0
233240.0 346113.0 0
236359.0 344417.0 0
239370.0 346374.0 0
242490.0 344667.0 0
245475.0 346626.0 0
248607.0 344912.0 0
254729.0 345158.0 0
260865.0 345400.0 0
267001.0 345568.0 0
273145.0 345450.0 0
279298.0 344995.0 0
282338.0 346572.0 0
285440.0 344450.0 0
288520.0 345970.0 0
294846.0 345552.0 0
201967.0 348701.0 0
205135.0 346981.0 0
208297.0 348793.0 0
211447.0 347106.0 0
214583.0 348969.0 0
217718.0 347293.0 0
220825.0 349196.0 0
223946.0 347528.0 0
230127.0 347794.0 0
236261.0 348070.0 0
242357.0 348335.0 0
248440.0 348581.0 0
251583.0 346869.0 0
254556.0 348819.0 0
257721.0 347116.0 0
260727.0 349063.0 0
263881.0 347344.0 0
266906.0 349266.0 0
270027.0 347407.0 0
273063.0 349143.0 0
276186.0 347096.0 0
279237.0 348691.0 0
285386.0 348134.0 0
291657.0 347478.0 0
294840.0 349045.0 0
298032.0 347233.0 0
205138.0 350482.0 0
211448.0 350641.0 0
217704.0 350857.0 0
223912.0 351121.0 0
227018.0 349463.0 0
230066.0 351417.0 0
233161.0 349751.0 0
236166.0 351721.0 0
239255.0 350035.0 0
245318.0 350296.0 0
251388.0 350526.0 0
257535.0 350756.0 0
263750.0 351005.0 0
269932.0 351118.0 0
276124.0 350784.0 0
282299.0 350269.0 0
285354.0 351834.0 0
288473.0 349537.0 0
291645.0 350951.0 0
298034.0 350704.0 0
201967.0 352176.0 0
205148.0 353956.0 0
208306.0 352298.0 0
211462.0 354166.0 0
214584.0 352513.0 0
217704.0 354412.0 0
220808.0 352769.0 0
226977.0 353068.0 0
233086.0 353388.0 0
239139.0 353698.0 0
242219.0 352004.0 0
245152.0 353970.0 0
248253.0 352248.0 0
251159.0 354185.0 0
254319.0 352452.0 0
257227.0 354349.0 0
260527.0 352681.0 0
266779.0 352963.0 0
272983.0 352837.0 0
276098.0 354449.0 0
279219.0 352378.0 0
282331.0 353978.0 0
288455.0 353015.0 0
291728.0 354338.0 0
294865.0 352482.0 0
298037.0 354145.0 0
201967.0 355615.0 0
208330.0 355778.0 0
214599.0 356051.0 0
220803.0 356338.0 0
223890.0 354707.0 0
226945.0 356671.0 0
230014.0 355038.0 0
233018.0 357026.0 0
236074.0 355373.0 0
242078.0 355679.0 0
248051.0 355926.0 0
254032.0 356097.0 0
260096.0 356207.0 0
263546.0 354616.0 0
266590.0 356645.0 0
269818.0 354840.0 0
272942.0 356505.0 0
279253.0 356040.0 0
285424.0 355609.0 0
288627.0 356298.0 0
294932.0 355901.0 0
201967.0 359013.0 0
205166.0 357393.0 0
208369.0 359223.0 0
211495.0 357687.0 0
214619.0 359590.0 0
217713.0 357962.0 0
223876.0 358292.0 0
229970.0 358658.0 0
235986.0 359030.0 0
239024.0 357367.0 0
241934.0 359365.0 0
244979.0 357656.0 0
247840.0 359624.0 0
250912.0 357865.0 0
256859.0 357978.0 0
262875.0 358020.0 0
269789.0 358550.0 0
276135.0 358076.0 0
279280.0 359686.0 0
282395.0 357686.0 0
285452.0 359487.0 0
288748.0 359400.0 0
291878.0 357705.0 0
294958.0 359346.0 0
298040.0 357581.0 0
201968.0 362357.0 0
205186.0 360783.0 0
211534.0 361216.0 0
217716.0 361511.0 0
220801.0 359903.0 0
223876.0 361871.0 0
226925.0 360272.0 0
229946.0 362281.0 0
232961.0 360668.0 0
238909.0 361047.0 0
244800.0 361360.0 0
250660.0 361574.0 0
253731.0 359781.0 0
256499.0 361673.0 0
259619.0 359828.0 0
262245.0 361704.0 0
265365.0 359872.0 0
267844.0 361448.0 0
273071.0 360140.0 0
276211.0 361732.0 0
282342.0 361389.0 0
291829.0 361087.0 0
298039.0 360995.0 0
205213.0 364126.0 0
208413.0 362610.0 0
211563.0 364783.0 0
214628.0 363137.0 0
217736.0 365043.0 0
220815.0 363457.0 0
226940.0 363869.0 0
232914.0 364322.0 0
235903.0 362699.0 0
238789.0 364744.0 0
241784.0 363067.0 0
247624.0 363343.0 0
253438.0 363504.0 0
259195.0 363565.0 0
264884.0 363535.0 0
270592.0 362601.0 0
273424.0 363998.0 0
279239.0 363367.0 0
282169.0 365105.0 0
285276.0 363309.0 0
288490.0 362486.0 0
291594.0 364389.0 0
294886.0 362748.0 0
298035.0 364339.0 0
201961.0 365623.0 0
208439.0 365899.0 0
214646.0 366681.0 0
220943.0 366970.0 0
223939.0 365433.0 0
226993.0 367476.0 0
229943.0 365915.0 0
235815.0 366388.0 0
241624.0 366789.0 0
244613.0 365082.0 0
247403.0 367081.0 0
250409.0 365308.0 0
253161.0 367254.0 0
256170.0 365420.0 0
258889.0 367312.0 0
261884.0 365433.0 0
264682.0 367154.0 0
267708.0 365046.0 0
270540.0 366348.0 0
273336.0 367767.0 0
276281.0 365514.0 0
279113.0 367112.0 0
285058.0 367000.0 0
288246.0 365743.0 0
294759.0 366036.0 0
201965.0 368927.0 0
204989.0 367447.0 0
207899.0 368838.0 0
211511.0 368429.0 0
215080.0 370063.0 0
217976.0 368496.0 0
224068.0 369005.0 0
229940.0 369579.0 0
232864.0 368000.0 0
235710.0 370104.0 0
238655.0 368463.0 0
244417.0 368823.0 0
250164.0 369060.0 0
255899.0 369173.0 0
261664.0 369119.0 0
267532.0 368652.0 0
270346.0 370047.0 0
276105.0 369270.0 0
281923.0 368796.0 0
288046.0 369115.0 0
291369.0 367669.0 0
294557.0 369211.0 0
298025.0 367591.0 0
201937.0 372035.0 0
205174.0 371046.0 0
209173.0 371384.0 0
212586.0 371959.0 0
218361.0 371991.0 0
221180.0 370498.0 0
224203.0 372635.0 0
227050.0 371125.0 0
232791.0 371712.0 0
238499.0 372207.0 0
241448.0 370532.0 0
244211.0 372580.0 0
247180.0 370836.0 0
252912.0 371009.0 0
258664.0 371033.0 0
264494.0 370781.0 0
267328.0 372295.0 0
273110.0 371500.0 0
275827.0 373010.0 0
278847.0 370834.0 0
281596.0 372429.0 0
284763.0 370561.0 0
287611.0 372472.0 0
291113.0 370984.0 0
294933.0 372201.0 0
298036.0 370733.0 0
200727.0 376143.0 0
203507.0 374662.0 0
206756.0 373853.0 0
210343.0 374421.0 0
213346.0 375670.0 0
215746.0 373668.0 0
221418.0 374117.0 0
227059.0 374836.0 0
229904.0 373289.0 0
232675.0 375463.0 0
235573.0 373850.0 0
241254.0 374292.0 0
246961.0 374598.0 0
249932.0 372818.0 0
252691.0 374757.0 0
255674.0 372910.0 0
258465.0 374738.0 0
261473.0 372793.0 0
264306.0 374434.0 0
270123.0 373753.0 0
272868.0 375243.0 0
278518.0 374530.0 0
284365.0 374070.0 0
289470.0 374897.0 0
292205.0 373805.0 0
298020.0 374037.0 0
299491.0 376965.0 0
198798.0 378033.0 0
202095.0 378175.0 0
205184.0 377351.0 0
208036.0 376724.0 0
210840.0 377909.0 0
216307.0 377401.0 0
218772.0 375664.0 0
221563.0 377888.0 0
224265.0 376353.0 0
229814.0 377049.0 0
235395.0 377624.0 0
238314.0 375972.0 0
241041.0 378062.0 0
243997.0 376346.0 0
249717.0 376575.0 0
255471.0 376637.0 0
261284.0 376471.0 0
267134.0 375974.0 0
269938.0 377484.0 0
275566.0 376771.0 0
281213.0 376020.0 0
283807.0 377668.0 0
286703.0 376256.0 0
291826.0 377278.0 0
294824.0 375594.0 0
302072.0 378571.0 0
193308.0 381452.0 0
196131.0 379691.0 0
199373.0 380597.0 0
204599.0 380548.0 0
207777.0 379928.0 0
211205.0 381085.0 0
213866.0 379268.0 0
218989.0 379519.0 0
224247.0 380163.0 0
226997.0 378608.0 0
232507.0 379251.0 0
238096.0 379752.0 0
243778.0 380110.0 0
246748.0 378359.0 0
249521.0 380326.0 0
252494.0 378501.0 0
255293.0 380368.0 0
258273.0 378441.0 0
261086.0 380158.0 0
264115.0 378106.0 0
266946.0 379665.0 0
272722.0 379019.0 0
275496.0 380602.0 0
278234.0 378239.0 0
280876.0 379668.0 0
286314.0 379960.0 0
289067.0 378605.0 0
293787.0 379378.0 0
296602.0 377722.0 0
298984.0 380000.0 0
301846.0 381596.0 0
304755.0 380246.0 0
307459.0 381936.0 0
190641.0 383122.0 0
196196.0 382600.0 0
198957.0 383422.0 0
202006.0 381878.0 0
205813.0 383384.0 0
208674.0 382796.0 0
213877.0 382954.0 0
216497.0 381259.0 0
219019.0 383432.0 0
221590.0 381760.0 0
226864.0 382444.0 0
229658.0 380854.0 0
232283.0 383070.0 0
235173.0 381421.0 0
240810.0 381833.0 0
246543.0 382111.0 0
252323.0 382243.0 0
258108.0 382164.0 0
263895.0 381783.0 0
266687.0 383327.0 0
269781.0 381203.0 0
272654.0 382758.0 0
278298.0 382045.0 0
283615.0 381109.0 0
288210.0 382378.0 0
291024.0 381167.0 0
293321.0 383100.0 0
296091.0 381293.0 0
298908.0 383063.0 0
301925.0 384590.0 0
304770.0 383387.0 0
310130.0 383606.0 0
185134.0 386561.0 0
187830.0 384875.0 0
190665.0 386106.0 0
193651.0 384604.0 0
196646.0 385843.0 0
200303.0 385555.0 0
203126.0 384600.0 0
208131.0 386005.0 0
211209.0 384671.0 0
216374.0 385068.0 0
221506.0 385685.0 0
224145.0 384046.0 0
229438.0 384705.0 0
234913.0 385232.0 0
237850.0 383536.0 0
240567.0 385593.0 0
243557.0 383862.0 0
246344.0 385845.0 0
249342.0 384065.0 0
255149.0 384106.0 0
257990.0 385912.0 0
260927.0 383885.0 0
263741.0 385517.0 0
269447.0 384821.0 0
272150.0 386237.0 0
275610.0 384416.0 0
281328.0 383324.0 0
284885.0 383937.0 0
282372.0 386464.0 0
287659.0 385421.0 0
290708.0 385131.0 0
296104.0 384664.0 0
299096.0 386126.0 0
305004.0 386441.0 0
307709.0 385210.0 0
310592.0 387085.0 0
312693.0 385204.0 0
315235.0 386786.0 0
182325.0 388311.0 0
185146.0 389593.0 0
188020.0 388039.0 0
190874.0 389306.0 0
193392.0 387616.0 0
195741.0 388884.0 0
198804.0 388294.0 0
202168.0 388010.0 0
205179.0 387014.0 0
210623.0 388063.0 0
213660.0 386672.0 0
216145.0 388834.0 0
218849.0 387292.0 0
223941.0 387986.0 0
226654.0 386339.0 0
229163.0 388590.0 0
232014.0 386913.0 0
237586.0 387314.0 0
243332.0 387592.0 0
249170.0 387783.0 0
252174.0 385975.0 0
255032.0 387843.0 0
260837.0 387652.0 0
266548.0 387072.0 0
269338.0 388592.0 0
274648.0 387695.0 0
277409.0 388446.0 0
278880.0 385617.0 0
280456.0 389084.0 0
285376.0 387606.0 0
288721.0 388374.0 0
293527.0 386639.0 0
296452.0 387998.0 0
299496.0 389182.0 0
302236.0 387539.0 0
305422.0 389443.0 0
308081.0 388334.0 0
313312.0 388728.0 0
317833.0 388413.0 0
320225.0 389919.0 0
176719.0 391816.0 0
179532.0 390059.0 0
182392.0 391380.0 0
187884.0 391173.0 0
193608.0 391259.0 0
197175.0 391379.0 0
200544.0 390855.0 0
204076.0 390402.0 0
207399.0 389298.0 0
210195.0 391325.0 0
213237.0 390173.0 0
218518.0 391149.0 0
221244.0 389606.0 0
226371.0 390275.0 0
231724.0 390767.0 0
234632.0 389051.0 0
237320.0 391075.0 0
240319.0 389335.0 0
243106.0 391298.0 0
246142.0 389555.0 0
252030.0 389687.0 0
257911.0 389668.0 0
260810.0 391439.0 0
263699.0 389298.0 0
266602.0 390869.0 0
272074.0 390044.0 0
275114.0 391179.0 0
278347.0 391828.0 0
283447.0 390137.0 0
286629.0 390984.0 0
291549.0 389010.0 0
294318.0 390287.0 0
297140.0 391426.0 0
299958.0 392307.0 0
302636.0 390455.0 0
308425.0 391426.0 0
310978.0 390457.0 0
313843.0 391984.0 0
316114.0 390235.0 0
320438.0 392698.0 0
323210.0 391764.0 0
173905.0 393576.0 0
176796.0 394874.0 0
179580.0 393120.0 0
182508.0 394445.0 0
185286.0 392752.0 0
188274.0 394534.0 0
190591.0 392251.0 0
191848.0 394630.0 0
194932.0 394017.0 0
198282.0 393944.0 0
201354.0 393504.0 0
204230.0 393313.0 0
207143.0 392360.0 0
212600.0 393648.0 0
215635.0 392499.0 0
220855.0 393521.0 0
223616.0 391934.0 0
228855.0 392489.0 0
234352.0 392877.0 0
240084.0 393060.0 0
245923.0 393247.0 0
248986.0 391475.0 0
251861.0 393368.0 0
254918.0 391561.0 0
257832.0 393404.0 0
263764.0 393073.0 0
269527.0 392472.0 0
272626.0 393626.0 0
276119.0 394435.0 0
281403.0 392717.0 0
284541.0 393610.0 0
289756.0 391847.0 0
292725.0 392802.0 0
295766.0 393945.0 0
302592.0 393556.0 0
305484.0 392508.0 0
308224.0 394327.0 0
311392.0 393765.0 0
314853.0 394607.0 0
317544.0 392365.0 0
320834.0 395433.0 0
323612.0 394644.0 0
326228.0 393649.0 0
168185.0 397151.0 0
171072.0 395346.0 0
173991.0 396619.0 0
179769.0 396193.0 0
182879.0 397461.0 0
185612.0 395751.0 0
189601.0 397137.0 0
193157.0 397192.0 0
196424.0 396786.0 0
199786.0 396619.0 0
203015.0 396351.0 0
206348.0 395690.0 0
209492.0 394690.0 0
211757.0 397083.0 0
214918.0 396068.0 0
217976.0 394917.0 0
223216.0 395872.0 0
226024.0 394217.0 0
228540.0 396363.0 0
231444.0 394612.0 0
237069.0 394803.0 0
242896.0 394991.0 0
248747.0 395138.0 0
254767.0 395243.0 0
260768.0 395207.0 0
263780.0 396735.0 0
266855.0 394626.0 0
270159.0 396272.0 0
273875.0 396783.0 0
279291.0 395366.0 0
282429.0 396244.0 0
287679.0 394459.0 0
290775.0 395375.0 0
293857.0 396343.0 0
298929.0 394942.0 0
301910.0 396245.0 0
305132.0 395702.0 0
307475.0 397445.0 0
310411.0 396703.0 0
313188.0 397032.0 0
317872.0 395300.0 0
323089.0 397713.0 0
326158.0 396807.0 0
328995.0 395401.0 0
331702.0 397078.0 0
165284.0 398966.0 0
168190.0 400177.0 0
171100.0 398339.0 0
174107.0 399615.0 0
176999.0 397909.0 0
180128.0 399204.0 0
186257.0 398433.0 0
188734.0 400109.0 0
191663.0 400005.0 0
194977.0 399829.0 0
198254.0 399510.0 0
201637.0 399296.0 0
205082.0 398761.0 0
208497.0 398014.0 0
214004.0 399541.0 0
217228.0 398545.0 0
220339.0 397368.0 0
225656.0 398147.0 0
231205.0 398424.0 0
234085.0 396730.0 0
236825.0 398455.0 0
239874.0 396776.0 0
242722.0 398668.0 0
245714.0 396967.0 0
248498.0 398836.0 0
251571.0 396997.0 0
254377.0 398822.0 0
257721.0 397099.0 0
260717.0 398991.0 0
267016.0 398081.0 0
272314.0 399286.0 0
275111.0 400596.0 0
277105.0 397962.0 0
280303.0 398908.0 0
285602.0 397086.0 0
283533.0 399725.0 0
288758.0 397946.0 0
291909.0 398848.0 0
295095.0 399737.0 0
297046.0 397320.0 0
300233.0 398388.0 0
303977.0 398773.0 0
310493.0 399690.0 0
313714.0 400053.0 0
316326.0 397785.0 0
319707.0 398181.0 0
322850.0 400421.0 0
325952.0 399840.0 0
328833.0 398697.0 0
331575.0 400009.0 0
334568.0 398870.0 0
159388.0 402644.0 0
162366.0 400787.0 0
165267.0 402020.0 0
171178.0 401305.0 0
174245.0 402597.0 0
177185.0 400862.0 0
180305.0 402119.0 0
183393.0 400350.0 0
186250.0 401879.0 0
189613.0 403053.0 0
193155.0 402702.0 0
196665.0 402480.0 0
200110.0 402171.0 0
203643.0 401745.0 0
207162.0 401129.0 0
210645.0 400397.0 0
216279.0 402037.0 0
219615.0 400999.0 0
222848.0 399769.0 0
228209.0 400162.0 0
230724.0 402106.0 0
233831.0 400694.0 0
236840.0 401873.0 0
239740.0 400490.0 0
245471.0 400764.0 0
251338.0 400689.0 0
257083.0 400560.0 0
259474.0 402297.0 0
264013.0 400254.0 0
266987.0 401662.0 0
269779.0 400189.0 0
272655.0 403033.0 0
278204.0 401588.0 0
281462.0 402382.0 0
286753.0 400551.0 0
289965.0 401396.0 0
293195.0 402243.0 0
298316.0 400658.0 0
301827.0 401194.0 0
305038.0 402048.0 0
307135.0 400025.0 0
316960.0 400581.0 0
319974.0 400953.0 0
325176.0 402802.0 0
328486.0 401990.0 0
331626.0 402648.0 0
334733.0 401769.0 0
337569.0 400747.0 0
340400.0 402526.0 0
156313.0 404566.0 0
159198.0 405551.0 0
162280.0 403790.0 0
165153.0 405071.0 0
168195.0 403191.0 0
171188.0 404230.0 0
177328.0 403826.0 0
180345.0 405244.0 0
183204.0 403432.0 0
186195.0 404872.0 0
198638.0 405091.0 0
202132.0 404680.0 0
205682.0 404161.0 0
209239.0 403516.0 0
212818.0 402837.0 0
218686.0 404451.0 0
222224.0 403291.0 0
225619.0 402177.0 0
231892.0 405079.0 0
239023.0 404402.0 0
242401.0 402333.0 0
248322.0 402516.0 0
251222.0 404429.0 0
254105.0 402608.0 0
256693.0 404473.0 0
262372.0 403172.0 0
265434.0 404227.0 0
269489.0 403774.0 0
275956.0 404258.0 0
279376.0 405045.0 0
284744.0 403172.0 0
288023.0 403978.0 0
291307.0 404786.0 0
296454.0 403077.0 0
299867.0 403697.0 0
303168.0 404429.0 0
308696.0 402547.0 0
306656.0 404906.0 0
311946.0 402700.0 0
315215.0 403094.0 0
318527.0 403610.0 0
321944.0 403474.0 0
323926.0 405844.0 0
327241.0 405100.0 0
330348.0 405057.0 0
334013.0 404667.0 0
337377.0 403891.0 0
340882.0 405427.0 0
343520.0 404460.0 0
153196.0 406516.0 0
156064.0 407487.0 0
162093.0 406801.0 0
168043.0 406166.0 0
170981.0 407104.0 0
174201.0 405566.0 0
177164.0 406780.0 0
183441.0 406573.0 0
186423.0 408469.0 0
188712.0 406075.0 0
191868.0 405605.0 0
195200.0 405355.0 0
200553.0 407653.0 0
204095.0 407171.0 0
207673.0 406587.0 0
211290.0 405912.0 0
215015.0 405336.0 0
218682.0 407691.0 0
221738.0 406652.0 0
225003.0 405720.0 0
228335.0 404878.0 0
235163.0 404582.0 0
242194.0 405483.0 0
245400.0 404616.0 0
248456.0 406136.0 0
253668.0 406586.0 0
259901.0 405818.0 0
263325.0 406771.0 0
267662.0 406621.0 0
271378.0 406567.0 0
274514.0 407230.0 0
277705.0 407824.0 0
282746.0 405809.0 0
286091.0 406582.0 0
289431.0 407358.0 0
294612.0 405576.0 0
297998.0 406236.0 0
301348.0 406906.0 0
304793.0 407425.0 0
310125.0 405410.0 0
313470.0 405681.0 0
316862.0 406044.0 0
320472.0 406209.0 0
325963.0 408164.0 0
329153.0 407927.0 0
332429.0 407447.0 0
335648.0 407081.0 0
338460.0 406666.0 0
343710.0 407601.0 0
346433.0 406293.0 0
349221.0 408037.0 0
146840.0 410487.0 0
150057.0 408479.0 0
152919.0 409467.0 0
155799.0 410417.0 0
158971.0 408465.0 0
161860.0 409847.0 0
164952.0 408145.0 0
167832.0 409149.0 0
170791.0 410017.0 0
173899.0 408551.0 0
176783.0 409686.0 0
180117.0 408235.0 0
183018.0 409449.0 0
190131.0 408658.0 0
193570.0 408318.0 0
197036.0 408020.0 0
202402.0 410222.0 0
205896.0 409716.0 0
209338.0 409142.0 0
212649.0 408569.0 0
215731.0 408316.0 0
220838.0 410284.0 0
223998.0 409340.0 0
227207.0 408568.0 0
230399.0 408240.0 0
233794.0 408054.0 0
237114.0 407623.0 0
240336.0 408069.0 0
244003.0 408274.0 0
247154.0 409025.0 0
250805.0 408933.0 0
254214.0 410281.0 0
256823.0 408025.0 0
259832.0 409181.0 0
262858.0 409948.0 0
266027.0 409512.0 0
269495.0 409678.0 0
272754.0 410159.0 0
280987.0 408536.0 0
284310.0 409253.0 0
287654.0 409984.0 0
292783.0 408119.0 0
296179.0 408798.0 0
299568.0 409445.0 0
303000.0 409989.0 0
308223.0 407893.0 0
311684.0 408308.0 0
315134.0 408554.0 0
318743.0 408647.0 0
322491.0 408728.0 0
328780.0 410815.0 0
331859.0 410398.0 0
334956.0 410020.0 0
338057.0 409730.0 0
341035.0 408784.0 0
346393.0 409594.0 0
352048.0 409805.0 0
143670.0 412470.0 0
146417.0 413477.0 0
149598.0 411397.0 0
152361.0 412320.0 0
155138.0 413189.0 0
158683.0 411386.0 0
161482.0 412927.0 0
164682.0 411256.0 0
167563.0 412092.0 0
170658.0 412832.0 0
173803.0 411696.0 0
176777.0 412801.0 0
179585.0 411251.0 0
182203.0 412375.0 0
185373.0 411685.0 0
188498.0 411330.0 0
191985.0 411288.0 0
195418.0 410986.0 0
198896.0 410640.0 0
204131.0 412863.0 0
207562.0 412383.0 0
210920.0 411890.0 0
214204.0 411523.0 0
217557.0 411108.0 0
225985.0 412229.0 0
229206.0 411744.0 0
232456.0 411470.0 0
235653.0 411113.0 0
238646.0 411151.0 0
241803.0 411285.0 0
244929.0 411886.0 0
248453.0 412067.0 0
251857.0 412534.0 0
257315.0 411850.0 0
260758.0 412642.0 0
264365.0 412884.0 0
267706.0 412795.0 0
276040.0 410758.0 0
279319.0 411360.0 0
282631.0 412011.0 0
285970.0 412685.0 0
291020.0 410712.0 0
294425.0 411390.0 0
297841.0 412027.0 0
301281.0 412589.0 0
306425.0 410473.0 0
309848.0 410878.0 0
313286.0 411187.0 0
316701.0 411303.0 0
320011.0 411352.0 0
323018.0 411604.0 0
325787.0 411002.0 0
331211.0 413446.0 0
334349.0 413021.0 0
337493.0 412656.0 0
340686.0 411973.0 0
343622.0 410935.0 0
346200.0 412996.0 0
349116.0 411210.0 0
351973.0 412948.0 0
354916.0 411599.0 0
357837.0 413422.0 0
137500.0 416333.0 0
140540.0 414428.0 0
143256.0 415517.0 0
149187.0 414400.0 0
151990.0 415320.0 0
157927.0 414108.0 0
160558.0 415798.0 0
164257.0 414350.0 0
167380.0 414906.0 0
170432.0 415553.0 0
173622.0 414891.0 0
176753.0 415561.0 0
179919.0 414742.0 0
183578.0 414892.0 0
186890.0 414481.0 0
190223.0 414165.0 0
193703.0 413988.0 0
197172.0 413665.0 0
200656.0 413291.0 0
209201.0 415146.0 0
212583.0 414735.0 0
215999.0 414318.0 0
219448.0 413748.0 0
222769.0 413001.0 0
227936.0 415265.0 0
231331.0 414882.0 0
234851.0 414578.0 0
238477.0 414610.0 0
242129.0 414737.0 0
245704.0 415104.0 0
249096.0 415358.0 0
255451.0 414890.0 0
258861.0 415406.0 0
271020.0 413163.0 0
274326.0 413677.0 0
277651.0 414248.0 0
280984.0 414836.0 0
284335.0 415454.0 0
289336.0 413369.0 0
292740.0 414026.0 0
296168.0 414650.0 0
299620.0 415218.0 0
304723.0 413089.0 0
308164.0 413518.0 0
311606.0 413850.0 0
315043.0 414068.0 0
318406.0 414202.0 0
321653.0 414425.0 0
324981.0 414257.0 0
328055.0 413833.0 0
336786.0 415623.0 0
340085.0 415000.0 0
343324.0 414226.0 0
348960.0 414301.0 0
352120.0 416008.0 0
354973.0 414747.0 0
360730.0 415233.0 0
134532.0 418195.0 0
140252.0 417575.0 0
143056.0 418679.0 0
146004.0 416507.0 0
148771.0 417421.0 0
151556.0 418300.0 0
154832.0 416198.0 0
157693.0 417211.0 0
162703.0 417278.0 0
165575.0 417585.0 0
168593.0 418122.0 0
171940.0 418130.0 0
174977.0 418103.0 0
178471.0 418030.0 0
181666.0 417599.0 0
185141.0 417573.0 0
188507.0 417250.0 0
191900.0 416959.0 0
195377.0 416707.0 0
198856.0 416372.0 0
202332.0 415996.0 0
205786.0 415584.0 0
210859.0 417954.0 0
214315.0 417533.0 0
217796.0 417050.0 0
221247.0 416489.0 0
224614.0 415840.0 0
252348.0 415728.0 0
262427.0 415813.0 0
265946.0 416025.0 0
269298.0 416220.0 0
272635.0 416649.0 0
275979.0 417160.0 0
279341.0 417706.0 0
287708.0 416090.0 0
291113.0 416716.0 0
294547.0 417319.0 0
298007.0 417881.0 0
303082.0 415730.0 0
306548.0 416178.0 0
310016.0 416541.0 0
313476.0 416810.0 0
316900.0 417010.0 0
320259.0 417202.0 0
323671.0 417165.0 0
327031.0 416938.0 0
330280.0 416504.0 0
333536.0 416068.0 0
339252.0 417999.0 0
342651.0 417278.0 0
346002.0 416457.0 0
349192.0 417124.0 0
354814.0 418029.0 0
357788.0 416616.0 0
360648.0 418408.0 0
363655.0 417063.0 0
366704.0 418964.0 0
131609.0 420027.0 0
134471.0 421484.0 0
137337.0 419563.0 0
140202.0 420807.0 0
145895.0 419690.0 0
148768.0 420630.0 0
154344.0 419144.0 0
157129.0 420088.0 0
160168.0 419546.0 0
163293.0 420367.0 0
166439.0 420733.0 0
169790.0 420949.0 0
173084.0 421059.0 0
176438.0 420881.0 0
179847.0 420766.0 0
183169.0 420462.0 0
186627.0 420323.0 0
190049.0 420035.0 0
193495.0 419743.0 0
196985.0 419455.0 0
200473.0 419119.0 0
203951.0 418752.0 0
207413.0 418359.0 0
212525.0 420761.0 0
216022.0 420322.0 0
219510.0 419846.0 0
222965.0 419324.0 0
226363.0 418790.0 0
229749.0 418333.0 0
233181.0 417996.0 0
236625.0 417848.0 0
240118.0 417906.0 0
243587.0 418117.0 0
247056.0 418423.0 0
250479.0 418704.0 0
254011.0 418588.0 0
257236.0 418449.0 0
260651.0 418776.0 0
264134.0 419073.0 0
267574.0 419343.0 0
270946.0 419670.0 0
274316.0 420116.0 0
277699.0 420613.0 0
282715.0 418277.0 0
286104.0 418867.0 0
289518.0 419458.0 0
292959.0 420034.0 0
296427.0 420581.0 0
301485.0 418396.0 0
304975.0 418856.0 0
308472.0 419243.0 0
311964.0 419551.0 0
315432.0 419791.0 0
318866.0 419988.0 0
322319.0 420019.0 0
325759.0 419884.0 0
329166.0 419568.0 0
332508.0 419116.0 0
335855.0 418625.0 0
338212.0 421022.0 0
341625.0 420354.0 0
344968.0 419664.0 0
348123.0 419643.0 0
351757.0 419226.0 0
357563.0 419823.0 0
360926.0 421429.0 0
363814.0 420168.0 0
369753.0 420872.0 0
125783.0 423671.0 0
128707.0 421843.0 0
131630.0 423351.0 0
137382.0 422851.0 0
143111.0 421926.0 0
146063.0 422949.0 0
151683.0 421528.0 0
154653.0 422409.0 0
157963.0 422819.0 0
160959.0 422835.0 0
164209.0 423426.0 0
167544.0 423667.0 0
177747.0 423700.0 0
181183.0 423548.0 0
184595.0 423297.0 0
188074.0 423103.0 0
191546.0 422825.0 0
195035.0 422531.0 0
198543.0 422232.0 0
202048.0 421902.0 0
205546.0 421544.0 0
209035.0 421164.0 0
217666.0 423160.0 0
221155.0 422712.0 0
224609.0 422252.0 0
228028.0 421812.0 0
231436.0 421446.0 0
234846.0 421225.0 0
238266.0 421170.0 0
241701.0 421282.0 0
245149.0 421492.0 0
248626.0 421738.0 0
252159.0 421807.0 0
255601.0 421813.0 0
258958.0 421877.0 0
262387.0 422134.0 0
265830.0 422419.0 0
269251.0 422737.0 0
272650.0 423115.0 0
281094.0 421142.0 0
284504.0 421691.0 0
287932.0 422246.0 0
291384.0 422794.0 0
294863.0 423320.0 0
299919.0 421090.0 0
303429.0 421553.0 0
306953.0 421956.0 0
310480.0 422292.0 0
313994.0 422565.0 0
317487.0 422778.0 0
320980.0 422867.0 0
324458.0 422800.0 0
327922.0 422563.0 0
331359.0 422169.0 0
334773.0 421656.0 0
340582.0 423425.0 0
343954.0 422829.0 0
347215.0 422533.0 0
350665.0 421977.0 0
354372.0 421303.0 0
358082.0 422699.0 0
363963.0 423345.0 0
366870.0 422120.0 0
369877.0 424090.0 0
372780.0 422768.0 0
122813.0 425527.0 0
128762.0 425146.0 0
134577.0 424821.0 0
137568.0 426177.0 0
140342.0 424090.0 0
143354.0 425209.0 0
146421.0 426220.0 0
149065.0 423892.0 0
152140.0 424771.0 0
155409.0 425400.0 0
158657.0 425803.0 0
161855.0 425998.0 0
170917.0 423849.0 0
174348.0 423840.0 0
182514.0 426346.0 0
185993.0 426119.0 0
189507.0 425897.0 0
193023.0 425624.0 0
196545.0 425336.0 0
200074.0 425037.0 0
203601.0 424712.0 0
207123.0 424362.0 0
210641.0 423987.0 0
214158.0 423586.0 0
222744.0 425650.0 0
226201.0 425254.0 0
229632.0 424899.0 0
233045.0 424637.0 0
236457.0 424508.0 0
239878.0 424522.0 0
243320.0 424648.0 0
246791.0 424826.0 0
250308.0 424954.0 0
253803.0 425033.0 0
257250.0 425113.0 0
260666.0 425260.0 0
264104.0 425510.0 0
267543.0 425808.0 0
276054.0 423561.0 0
279470.0 424046.0 0
282898.0 424556.0 0
286343.0 425077.0 0
289809.0 425595.0 0
298366.0 423815.0 0
301893.0 424273.0 0
305439.0 424682.0 0
308997.0 425035.0 0
312555.0 425331.0 0
316106.0 425567.0 0
319653.0 425706.0 0
323181.0 425716.0 0
326673.0 425548.0 0
330152.0 425208.0 0
333629.0 424708.0 0
337133.0 424048.0 0
342930.0 425966.0 0
346186.0 425606.0 0
349429.0 425113.0 0
352598.0 424457.0 0
355573.0 424102.0 0
358197.0 426112.0 0
361043.0 424631.0 0
363943.0 426594.0 0
366928.0 425341.0 0
372855.0 426039.0 0
375785.0 424650.0 0
378771.0 426520.0 0
116747.0 429321.0 0
119797.0 427413.0 0
122821.0 428785.0 0
125825.0 426939.0 0
128884.0 428442.0 0
131763.0 426711.0 0
134781.0 428189.0 0
140619.0 427397.0 0
143734.0 428496.0 0
149564.0 427130.0 0
152833.0 427872.0 0
156148.0 428440.0 0
159486.0 428815.0 0
165227.0 426390.0 0
168633.0 426591.0 0
172098.0 426682.0 0
175569.0 426651.0 0
179031.0 426517.0 0
190937.0 428704.0 0
194484.0 428442.0 0
198032.0 428162.0 0
201585.0 427867.0 0
205135.0 427547.0 0
208680.0 427204.0 0
212219.0 426838.0 0
215746.0 426453.0 0
219258.0 426055.0 0
227765.0 428323.0 0
231205.0 428052.0 0
234633.0 427876.0 0
238063.0 427818.0 0
241507.0 427866.0 0
244976.0 427982.0 0
248477.0 428104.0 0
251983.0 428212.0 0
255471.0 428315.0 0
258932.0 428446.0 0
270974.0 426153.0 0
274401.0 426549.0 0
277836.0 426990.0 0
281283.0 427460.0 0
284746.0 427946.0 0
288227.0 428434.0 0
293300.0 426098.0 0
296815.0 426576.0 0
300355.0 427021.0 0
303917.0 427427.0 0
307498.0 427785.0 0
311091.0 428094.0 0
314690.0 428348.0 0
318295.0 428525.0 0
321893.0 428602.0 0
325458.0 428548.0 0
328947.0 428267.0 0
332455.0 427782.0 0
336049.0 427053.0 0
339548.0 426480.0 0
345375.0 428691.0 0
348660.0 428270.0 0
351869.0 427705.0 0
355004.0 427187.0 0
360925.0 427943.0 0
366839.0 428607.0 0
369870.0 427352.0 0
372799.0 429351.0 0
375809.0 427971.0 0
381755.0 428388.0 0
113669.0 431246.0 0
119774.0 430685.0 0
122857.0 432035.0 0
125905.0 430189.0 0
129062.0 431696.0 0
131971.0 430104.0 0
135043.0 431584.0 0
137848.0 429521.0 0
140985.0 430701.0 0
144239.0 431754.0 0
146932.0 429468.0 0
150225.0 430293.0 0
153577.0 430967.0 0
156977.0 431473.0 0
162832.0 429051.0 0
166274.0 429334.0 0
169760.0 429472.0 0
173275.0 429519.0 0
176800.0 429469.0 0
180321.0 429334.0 0
183851.0 429156.0 0
187386.0 428938.0 0
199509.0 431008.0 0
203086.0 430718.0 0
206657.0 430407.0 0
210219.0 430076.0 0
213768.0 429729.0 0
217301.0 429370.0 0
220814.0 429008.0 0
224302.0 428653.0 0
262379.0 428638.0 0
265831.0 428901.0 0
269283.0 429214.0 0
272735.0 429572.0 0
276191.0 429970.0 0
279657.0 430402.0 0
283137.0 430853.0 0
291731.0 428913.0 0
295258.0 429371.0 0
298810.0 429802.0 0
302384.0 430199.0 0
305981.0 430555.0 0
309595.0 430867.0 0
313225.0 431128.0 0
327803.0 431383.0 0
331281.0 430913.0 0
334987.0 430001.0 0
338572.0 429482.0 0
342033.0 429044.0 0
347955.0 431379.0 0
351263.0 430913.0 0
354463.0 430339.0 0
357690.0 429341.0 0
360501.0 431105.0 0
363751.0 429861.0 0
366641.0 431879.0 0
369746.0 430650.0 0
375732.0 431321.0 0
378762.0 429872.0 0
381718.0 431757.0 0
384748.0 430260.0 0
110592.0 433172.0 0
113631.0 434587.0 0
116684.0 432618.0 0
119739.0 433954.0 0
126001.0 433398.0 0
129224.0 434867.0 0
132212.0 433564.0 0
138166.0 432868.0 0
141464.0 433952.0 0
147574.0 432669.0 0
150965.0 433439.0 0
154402.0 434050.0 0
160402.0 431816.0 0
163849.0 432050.0 0
167363.0 432251.0 0
170906.0 432344.0 0
174474.0 432358.0 0
178050.0 432292.0 0
181623.0 432156.0 0
185200.0 431975.0 0
188776.0 431764.0 0
192354.0 431535.0 0
195931.0 431281.0 0
204582.0 433596.0 0
208168.0 433298.0 0
211741.0 432986.0 0
215298.0 432663.0 0
218836.0 432337.0 0
222353.0 432016.0 0
225847.0 431713.0 0
229319.0 431450.0 0
232776.0 431252.0 0
236227.0 431145.0 0
239684.0 431130.0 0
243158.0 431190.0 0
246654.0 431285.0 0
250163.0 431391.0 0
253669.0 431502.0 0
257162.0 431632.0 0
260639.0 431800.0 0
264109.0 432022.0 0
267581.0 432300.0 0
271054.0 432623.0 0
274532.0 432985.0 0
278017.0 433379.0 0
286634.0 431311.0 0
290152.0 431764.0 0
293691.0 432202.0 0
297254.0 432617.0 0
300839.0 433003.0 0
304446.0 433352.0 0
308072.0 433661.0 0
316871.0 431327.0 0
320530.0 431449.0 0
324185.0 431478.0 0
333965.0 432861.0 0
337607.0 432421.0 0
341139.0 432064.0 0
344578.0 431743.0 0
350620.0 434052.0 0
353967.0 433565.0 0
357186.0 432627.0 0
360103.0 434183.0 0
363425.0 433040.0 0
369572.0 433964.0 0
372667.0 432693.0 0
375543.0 434718.0 0
378649.0 433251.0 0
384695.0 433634.0 0
387762.0 432146.0 0
390813.0 434053.0 0
104428.0 437032.0 0
107514.0 435100.0 0
110588.0 436548.0 0
116712.0 435958.0 0
119826.0 437292.0 0
122820.0 435258.0 0
125909.0 436539.0 0
129023.0 437810.0 0
135271.0 435014.0 0
138606.0 436124.0 0
144868.0 434976.0 0
148312.0 435857.0 0
151785.0 436578.0 0
157873.0 434501.0 0
161374.0 434807.0 0
164907.0 435011.0 0
168484.0 435156.0 0
172085.0 435213.0 0
175702.0 435199.0 0
179325.0 435122.0 0
182944.0 434986.0 0
186557.0 434810.0 0
190167.0 434609.0 0
193778.0 434384.0 0
197384.0 434138.0 0
200987.0 433875.0 0
209673.0 436224.0 0
213255.0 435935.0 0
216819.0 435641.0 0
220365.0 435351.0 0
223890.0 435073.0 0
227395.0 434824.0 0
230883.0 434621.0 0
234361.0 434485.0 0
237839.0 434425.0 0
241325.0 434437.0 0
244827.0 434498.0 0
248341.0 434587.0 0
251858.0 434693.0 0
255371.0 434819.0 0
258875.0 434973.0 0
262371.0 435169.0 0
265863.0 435412.0 0
269357.0 435701.0 0
272855.0 436029.0 0
281514.0 433795.0 0
285028.0 434223.0 0
288560.0 434650.0 0
292112.0 435067.0 0
295686.0 435465.0 0
299281.0 435838.0 0
302897.0 436180.0 0
311718.0 433924.0 0
315382.0 434133.0 0
319067.0 434277.0 0
322770.0 434350.0 0
326491.0 434345.0 0
330223.0 434221.0 0
333377.0 435618.0 0
336817.0 435338.0 0
340279.0 435053.0 0
343745.0 434767.0 0
347198.0 434445.0 0
356751.0 436043.0 0
359952.0 437098.0 0
363229.0 436165.0 0
366425.0 435120.0 0
372421.0 436093.0 0
378425.0 436657.0 0
381585.0 435143.0 0
384577.0 437009.0 0
387718.0 435512.0 0
393913.0 435989.0 0
101325.0 438973.0 0
107537.0 438504.0 0
113715.0 437965.0 0
116885.0 439346.0 0
122965.0 438589.0 0
126161.0 439827.0 0
132316.0 437159.0 0
135713.0 438320.0 0
139219.0 439314.0 0
142074.0 437143.0 0
145615.0 438193.0 0
149133.0 439056.0 0
155286.0 437130.0 0
158828.0 437520.0 0
162405.0 437781.0 0
166013.0 437950.0 0
169652.0 438052.0 0
173306.0 438081.0 0
176968.0 438049.0 0
180631.0 437963.0 0
184287.0 437832.0 0
187935.0 437663.0 0
191578.0 437469.0 0
195215.0 437254.0 0
198844.0 437019.0 0
202465.0 436768.0 0
206075.0 436503.0 0
214770.0 438923.0 0
218343.0 438661.0 0
221898.0 438408.0 0
225435.0 438175.0 0
228955.0 437976.0 0
232463.0 437826.0 0
235966.0 437737.0 0
239471.0 437711.0 0
242985.0 437739.0 0
246508.0 437804.0 0
250037.0 437897.0 0
253566.0 438013.0 0
257092.0 438155.0 0
260611.0 438331.0 0
264126.0 438547.0 0
267641.0 438805.0 0
276360.0 436388.0 0
279876.0 436772.0 0
283405.0 437169.0 0
286952.0 437571.0 0
290518.0 437966.0 0
294104.0 438346.0 0
297709.0 438706.0 0
306532.0 436485.0 0
310185.0 436748.0 0
313854.0 436963.0 0
317537.0 437124.0 0
321227.0 437227.0 0
324911.0 437277.0 0
328556.0 437298.0 0
331879.0 438016.0 0
335631.0 438281.0 0
339207.0 438066.0 0
342738.0 437801.0 0
346259.0 437502.0 0
349777.0 437148.0 0
353292.0 436727.0 0
359183.0 439828.0 0
362739.0 439333.0 0
366060.0 438421.0 0
369269.0 437330.0 0
372033.0 439552.0 0
375236.0 438169.0 0
381378.0 438527.0 0
387630.0 438875.0 0
390795.0 437401.0 0
393936.0 439320.0 0
397068.0 437962.0 0
98196.3 440931.0 0
101362.0 442411.0 0
104466.0 440456.0 0
107669.0 441919.0 0
110706.0 439950.0 0
113927.0 441369.0 0
120096.0 440686.0 0
123371.0 441960.0 0
129679.0 440630.0 0
132967.0 440680.0 0
136419.0 441604.0 0
142812.0 440288.0 0
146460.0 441454.0 0
152656.0 439727.0 0
156232.0 440200.0 0
159855.0 440524.0 0
163511.0 440739.0 0
167187.0 440873.0 0
170880.0 440944.0 0
174580.0 440953.0 0
178280.0 440910.0 0
181976.0 440822.0 0
185663.0 440695.0 0
189340.0 440535.0 0
193007.0 440350.0 0
196664.0 440147.0 0
200311.0 439926.0 0
203947.0 439691.0 0
207570.0 439443.0 0
211178.0 439186.0 0
223444.0 441505.0 0
226995.0 441314.0 0
230534.0 441161.0 0
234064.0 441055.0 0
237592.0 441003.0 0
241123.0 441001.0 0
244660.0 441042.0 0
248202.0 441117.0 0
251747.0 441219.0 0
255290.0 441348.0 0
258831.0 441507.0 0
271160.0 439100.0 0
274684.0 439428.0 0
278219.0 439780.0 0
281765.0 440149.0 0
285327.0 440524.0 0
288907.0 440897.0 0
292505.0 441260.0 0
296121.0 441605.0 0
301335.0 439039.0 0
304978.0 439339.0 0
308638.0 439602.0 0
312313.0 439823.0 0
315996.0 439999.0 0
319681.0 440129.0 0
323354.0 440224.0 0
326987.0 440316.0 0
330471.0 440718.0 0
334131.0 440970.0 0
337881.0 441013.0 0
341529.0 440823.0 0
345129.0 440557.0 0
348708.0 440237.0 0
352279.0 439862.0 0
355844.0 439395.0 0
361799.0 442354.0 0
365391.0 441705.0 0
368777.0 440741.0 0
374828.0 441660.0 0
378124.0 440069.0 0
381129.0 441896.0 0
384412.0 440378.0 0
387522.0 442230.0 0
390753.0 440739.0 0
397138.0 441286.0 0
400276.0 439967.0 0
403530.0 442002.0 0
91845.5 444903.0 0
95037.1 442907.0 0
98224.2 444381.0 0
104592.0 443883.0 0
110930.0 443365.0 0
114249.0 444785.0 0
117197.0 442758.0 0
120528.0 444084.0 0
123967.0 445250.0 0
126833.0 442965.0 0
130322.0 443655.0 0
133676.0 444079.0 0
139971.0 442480.0 0
143618.0 443388.0 0
147324.0 444842.0 0
149997.0 442301.0 0
153604.0 442863.0 0
157275.0 443244.0 0
160983.0 443508.0 0
164707.0 443684.0 0
168439.0 443791.0 0
172174.0 443840.0 0
175908.0 443837.0 0
179637.0 443789.0 0
183359.0 443701.0 0
187069.0 443581.0 0
190767.0 443431.0 0
194453.0 443258.0 0
198127.0 443068.0 0
201788.0 442863.0 0
205437.0 442645.0 0
209072.0 442417.0 0
212690.0 442184.0 0
216292.0 441949.0 0
219877.0 441720.0 0
262368.0 441701.0 0
265905.0 441931.0 0
269444.0 442197.0 0
272989.0 442495.0 0
276541.0 442818.0 0
280105.0 443158.0 0
283683.0 443508.0 0
287277.0 443859.0 0
290887.0 444204.0 0
299757.0 441928.0 0
303409.0 442223.0 0
307078.0 442485.0 0
310759.0 442711.0 0
314449.0 442899.0 0
318139.0 443050.0 0
321819.0 443175.0 0
325472.0 443300.0 0
329056.0 443561.0 0
332709.0 443769.0 0
336430.0 443843.0 0
340173.0 443790.0 0
343856.0 443595.0 0
347494.0 443323.0 0
351100.0 442997.0 0
354670.0 442632.0 0
358124.0 442628.0 0
364448.0 444844.0 0
368084.0 444104.0 0
371516.0 443040.0 0
374341.0 445194.0 0
377768.0 443454.0 0
384242.0 443731.0 0
390707.0 444063.0 0
393947.0 442641.0 0
397193.0 444606.0 0
400388.0 443299.0 0
406816.0 444058.0 0
88622.8 446920.0 0
95049.5 446373.0 0
101474.0 445848.0 0
104787.0 447309.0 0
107884.0 445339.0 0
111238.0 446784.0 0
117630.0 446176.0 0
121083.0 447467.0 0
127449.0 446162.0 0
130932.0 446848.0 0
134381.0 447415.0 0
137132.0 444859.0 0
140658.0 445614.0 0
144228.0 446382.0 0
150976.0 445532.0 0
154699.0 445959.0 0
158456.0 446262.0 0
162224.0 446480.0 0
165994.0 446627.0 0
169762.0 446714.0 0
173526.0 446750.0 0
177283.0 446740.0 0
181033.0 446690.0 0
184773.0 446606.0 0
188500.0 446493.0 0
192215.0 446354.0 0
195916.0 446194.0 0
199604.0 446019.0 0
203278.0 445830.0 0
206939.0 445632.0 0
210584.0 445426.0 0
214214.0 445218.0 0
217828.0 445012.0 0
221425.0 444816.0 0
225007.0 444637.0 0
228575.0 444486.0 0
232133.0 444373.0 0
235686.0 444303.0 0
239238.0 444279.0 0
242792.0 444298.0 0
246350.0 444352.0 0
249910.0 444438.0 0
253471.0 444553.0 0
257031.0 444696.0 0
260590.0 444871.0 0
264148.0 445078.0 0
267708.0 445318.0 0
271272.0 445588.0 0
274843.0 445883.0 0
278424.0 446197.0 0
282018.0 446523.0 0
294515.0 444535.0 0
298161.0 444847.0 0
301823.0 445135.0 0
305501.0 445395.0 0
309191.0 445624.0 0
312889.0 445820.0 0
316590.0 445987.0 0
320284.0 446130.0 0
323961.0 446270.0 0
327609.0 446464.0 0
331286.0 446636.0 0
335007.0 446721.0 0
338751.0 446707.0 0
342495.0 446597.0 0
346200.0 446390.0 0
349867.0 446116.0 0
353495.0 445806.0 0
357067.0 445628.0 0
360730.0 445331.0 0
367117.0 447330.0 0
370837.0 446508.0 0
377453.0 446752.0 0
380896.0 445224.0 0
384146.0 447072.0 0
387433.0 445580.0 0
390663.0 447378.0 0
393949.0 445950.0 0
400467.0 446638.0 0
403668.0 445357.0 0
406962.0 447449.0 0
410121.0 446127.0 0
85373.0 448953.0 0
91842.2 448388.0 0
95117.9 449841.0 0
98313.1 447831.0 0
101635.0 449284.0 0
108161.0 448758.0 0
111600.0 450200.0 0
114660.0 448203.0 0
118150.0 449601.0 0
124583.0 448591.0 0
128120.0 449439.0 0
131687.0 450105.0 0
137885.0 448101.0 0
141422.0 448758.0 0
145061.0 449217.0 0
148453.0 448274.0 0
152193.0 448710.0 0
155976.0 449029.0 0
159768.0 449276.0 0
163562.0 449459.0 0
167356.0 449583.0 0
171143.0 449655.0 0
182461.0 449619.0 0
186214.0 449539.0 0
189955.0 449434.0 0
193683.0 449307.0 0
197397.0 449161.0 0
201097.0 449001.0 0
204783.0 448830.0 0
208455.0 448652.0 0
212112.0 448469.0 0
215754.0 448286.0 0
219380.0 448109.0 0
222991.0 447945.0 0
226589.0 447801.0 0
230175.0 447686.0 0
233754.0 447607.0 0
237329.0 447567.0 0
240903.0 447567.0 0
244479.0 447603.0 0
248056.0 447672.0 0
251634.0 447771.0 0
255213.0 447899.0 0
258791.0 448055.0 0
262369.0 448242.0 0
265949.0 448459.0 0
269533.0 448704.0 0
273123.0 448974.0 0
276721.0 449263.0 0
285626.0 446852.0 0
289250.0 447178.0 0
292890.0 447494.0 0
296546.0 447795.0 0
300219.0 448076.0 0
303906.0 448332.0 0
307605.0 448562.0 0
311314.0 448764.0 0
315026.0 448939.0 0
318737.0 449094.0 0
322439.0 449239.0 0
326129.0 449402.0 0
329834.0 449548.0 0
341085.0 449577.0 0
344837.0 449431.0 0
348558.0 449213.0 0
352246.0 448945.0 0
355900.0 448701.0 0
359594.0 448384.0 0
363340.0 447932.0 0
369742.0 449832.0 0
373727.0 448744.0 0
377493.0 449881.0 0
380835.0 448497.0 0
387382.0 448969.0 0
393923.0 449258.0 0
397218.0 447928.0 0
400493.0 449994.0 0
403749.0 448729.0 0
410252.0 449567.0 0
413431.0 448200.0 0
416736.0 450271.0 0
82101.0 451001.0 0
85351.0 452492.0 0
88607.1 450429.0 0
91896.3 451880.0 0
98450.8 451284.0 0
101836.0 452725.0 0
105009.0 450731.0 0
108423.0 452173.0 0
115108.0 451618.0 0
118715.0 453056.0 0
121700.0 450897.0 0
125338.0 451967.0 0
129016.0 452730.0 0
135264.0 450710.0 0
138865.0 451335.0 0
142546.0 451831.0 0
149850.0 451590.0 0
153587.0 451855.0 0
157367.0 452101.0 0
161162.0 452304.0 0
174924.0 449682.0 0
178697.0 449668.0 0
202608.0 452016.0 0
206306.0 451863.0 0
209989.0 451704.0 0
213658.0 451544.0 0
217311.0 451387.0 0
220951.0 451238.0 0
224577.0 451105.0 0
228191.0 450993.0 0
231796.0 450910.0 0
235395.0 450860.0 0
238991.0 450846.0 0
242586.0 450866.0 0
246182.0 450919.0 0
249778.0 451003.0 0
253375.0 451115.0 0
256972.0 451255.0 0
260570.0 451423.0 0
264169.0 451620.0 0
267772.0 451843.0 0
280331.0 449565.0 0
283954.0 449874.0 0
287591.0 450181.0 0
291243.0 450482.0 0
294911.0 450771.0 0
298594.0 451044.0 0
302291.0 451295.0 0
306001.0 451524.0 0
309719.0 451728.0 0
313444.0 451909.0 0
317171.0 452070.0 0
333568.0 449636.0 0
337323.0 449646.0 0
350922.0 452069.0 0
354633.0 451815.0 0
358354.0 451496.0 0
362104.0 451070.0 0
365892.0 450514.0 0
371602.0 452737.0 0
374727.0 452053.0 0
380971.0 451792.0 0
384161.0 450453.0 0
387312.0 452484.0 0
390594.0 450701.0 0
393850.0 452563.0 0
397193.0 451259.0 0
403747.0 452133.0 0
407018.0 450869.0 0
413525.0 451700.0 0
420026.0 452334.0 0
75507.0 455129.0 0
78810.8 453060.0 0
82077.0 454574.0 0
88653.4 453950.0 0
92004.8 455382.0 0
95239.7 453315.0 0
98634.4 454743.0 0
105256.0 454174.0 0
108684.0 455646.0 0
111837.0 453609.0 0
115194.0 454990.0 0
122528.0 454332.0 0
126408.0 455302.0 0
130234.0 455993.0 0
132710.0 453360.0 0
136380.0 453968.0 0
140106.0 454485.0 0
146321.0 451964.0 0
151300.0 454804.0 0
155028.0 454995.0 0
164965.0 452457.0 0
168768.0 452561.0 0
172565.0 452621.0 0
176357.0 452641.0 0
180141.0 452625.0 0
183917.0 452577.0 0
187681.0 452503.0 0
191433.0 452407.0 0
195171.0 452291.0 0
198897.0 452159.0 0
218888.0 454519.0 0
222542.0 454398.0 0
226183.0 454293.0 0
229814.0 454211.0 0
233438.0 454156.0 0
237057.0 454132.0 0
240673.0 454139.0 0
244288.0 454178.0 0
247902.0 454247.0 0
251517.0 454344.0 0
255133.0 454469.0 0
271380.0 452089.0 0
274996.0 452355.0 0
278622.0 452635.0 0
282260.0 452923.0 0
285911.0 453213.0 0
289575.0 453498.0 0
293255.0 453775.0 0
296948.0 454038.0 0
300656.0 454284.0 0
304375.0 454510.0 0
320896.0 452218.0 0
324617.0 452364.0 0
328349.0 452493.0 0
332102.0 452580.0 0
335873.0 452607.0 0
339652.0 452568.0 0
343427.0 452462.0 0
347187.0 452294.0 0
353297.0 454953.0 0
357034.0 454658.0 0
360768.0 454277.0 0
364484.0 453800.0 0
368133.0 453246.0 0
374095.0 455629.0 0
377871.0 453181.0 0
380955.0 455232.0 0
384166.0 453968.0 0
390459.0 454009.0 0
397135.0 454603.0 0
400448.0 453373.0 0
406946.0 454333.0 0
410256.0 453044.0 0
413464.0 455240.0 0
416777.0 453840.0 0
423300.0 454388.0 0
72193.2 457203.0 0
78792.7 456671.0 0
85392.3 456047.0 0
88754.1 457487.0 0
95406.0 456799.0 0
98851.4 458215.0 0
102070.0 456182.0 0
105530.0 457656.0 0
112082.0 457150.0 0
118309.0 456384.0 0
121350.0 457513.0 0
124541.0 458215.0 0
133956.0 456643.0 0
137691.0 457177.0 0
143905.0 454803.0 0
147677.0 454869.0 0
158800.0 455189.0 0
162596.0 455352.0 0
166404.0 455479.0 0
170212.0 455566.0 0
174018.0 455615.0 0
177818.0 455629.0 0
181612.0 455612.0 0
185397.0 455567.0 0
189170.0 455499.0 0
192932.0 455411.0 0
196681.0 455307.0 0
200417.0 455189.0 0
204139.0 455062.0 0
207847.0 454927.0 0
211542.0 454789.0 0
215222.0 454651.0 0
258750.0 454620.0 0
262368.0 454798.0 0
265989.0 455001.0 0
269615.0 455226.0 0
273248.0 455471.0 0
276890.0 455730.0 0
280543.0 455998.0 0
284208.0 456271.0 0
287885.0 456541.0 0
291576.0 456806.0 0
295281.0 457059.0 0
308105.0 454715.0 0
311842.0 454898.0 0
315584.0 455062.0 0
319328.0 455210.0 0
323074.0 455347.0 0
326829.0 455466.0 0
330601.0 455551.0 0
334389.0 455588.0 0
338187.0 455571.0 0
341988.0 455498.0 0
345778.0 455368.0 0
349548.0 455186.0 0
359435.0 457515.0 0
363167.0 457104.0 0
366862.0 456635.0 0
370501.0 456170.0 0
377517.0 456220.0 0
383786.0 457560.0 0
387169.0 456226.0 0
390519.0 457127.0 0
393824.0 455842.0 0
396888.0 458024.0 0
400254.0 456812.0 0
403608.0 455584.0 0
406705.0 457841.0 0
410102.0 456564.0 0
416650.0 457446.0 0
420010.0 455980.0 0
423219.0 458123.0 0
426551.0 456429.0 0
68874.2 459282.0 0
75500.5 458780.0 0
78846.6 460311.0 0
82122.8 458171.0 0
85495.8 459625.0 0
92160.7 458899.0 0
95609.5 460297.0 0
102331.0 459661.0 0
105841.0 461161.0 0
109001.0 459182.0 0
115370.0 458644.0 0
118664.0 460008.0 0
122103.0 461025.0 0
128016.0 458734.0 0
131623.0 459369.0 0
141479.0 457579.0 0
145278.0 457822.0 0
149026.0 457926.0 0
152723.0 457980.0 0
156471.0 458137.0 0
160252.0 458290.0 0
164056.0 458422.0 0
167869.0 458527.0 0
171683.0 458599.0 0
175496.0 458639.0 0
179306.0 458648.0 0
183108.0 458630.0 0
186901.0 458588.0 0
190683.0 458526.0 0
194454.0 458447.0 0
198212.0 458354.0 0
201958.0 458251.0 0
205690.0 458139.0 0
209409.0 458022.0 0
213114.0 457904.0 0
216806.0 457789.0 0
220486.0 457681.0 0
224153.0 457585.0 0
227810.0 457507.0 0
231459.0 457451.0 0
235100.0 457421.0 0
238738.0 457420.0 0
242373.0 457447.0 0
246007.0 457503.0 0
249640.0 457586.0 0
253274.0 457697.0 0
256909.0 457833.0 0
260546.0 457993.0 0
264185.0 458178.0 0
267829.0 458384.0 0
271479.0 458609.0 0
275136.0 458849.0 0
278804.0 459099.0 0
282482.0 459354.0 0
286172.0 459611.0 0
298999.0 457298.0 0
302728.0 457521.0 0
306469.0 457724.0 0
310218.0 457907.0 0
313973.0 458072.0 0
317734.0 458220.0 0
321499.0 458352.0 0
325274.0 458464.0 0
329062.0 458547.0 0
332867.0 458590.0 0
336684.0 458587.0 0
340508.0 458538.0 0
344329.0 458442.0 0
348134.0 458299.0 0
351919.0 458104.0 0
355685.0 457846.0 0
365548.0 459997.0 0
369236.0 459560.0 0
372894.0 459109.0 0
376448.0 459150.0 0
380214.0 458590.0 0
386454.0 460059.0 0
389931.0 460128.0 0
393501.0 459216.0 0
399825.0 460304.0 0
403279.0 459085.0 0
409770.0 460118.0 0
413230.0 458814.0 0
419814.0 459662.0 0
426406.0 460264.0 0
429776.0 458453.0 0
432987.0 460460.0 0
62217.5 463450.0 0
65549.7 461363.0 0
68906.1 463020.0 0
72204.6 460897.0 0
75571.8 462468.0 0
82234.7 461793.0 0
85656.8 463230.0 0
88906.6 461043.0 0
92357.6 462435.0 0
99090.3 461703.0 0
102607.0 463146.0 0
109370.0 462744.0 0
112441.0 460838.0 0
115855.0 462371.0 0
119393.0 463574.0 0
125686.0 461640.0 0
129278.0 462174.0 0
135318.0 459927.0 0
139079.0 460370.0 0
142867.0 460704.0 0
146649.0 460919.0 0
150405.0 461044.0 0
154150.0 461146.0 0
157923.0 461277.0 0
161722.0 461402.0 0
165536.0 461512.0 0
169356.0 461599.0 0
173178.0 461659.0 0
177000.0 461691.0 0
180818.0 461696.0 0
184628.0 461678.0 0
188428.0 461639.0 0
192219.0 461584.0 0
195998.0 461514.0 0
199765.0 461433.0 0
203520.0 461343.0 0
207262.0 461247.0 0
210991.0 461148.0 0
214708.0 461050.0 0
218412.0 460956.0 0
222104.0 460871.0 0
225786.0 460799.0 0
229458.0 460746.0 0
233123.0 460713.0 0
236782.0 460706.0 0
240438.0 460724.0 0
244091.0 460769.0 0
247744.0 460840.0 0
251396.0 460937.0 0
255049.0 461059.0 0
258703.0 461205.0 0
262360.0 461373.0 0
266021.0 461562.0 0
269687.0 461769.0 0
273360.0 461991.0 0
277042.0 462224.0 0
289875.0 459863.0 0
293591.0 460106.0 0
297319.0 460338.0 0
301059.0 460555.0 0
304810.0 460756.0 0
308571.0 460938.0 0
312339.0 461103.0 0
316114.0 461250.0 0
319895.0 461379.0 0
323686.0 461487.0 0
327489.0 461568.0 0
331306.0 461614.0 0
335138.0 461620.0 0
338981.0 461586.0 0
342829.0 461514.0 0
346675.0 461407.0 0
350498.0 461255.0 0
354297.0 461045.0 0
358072.0 460765.0 0
361824.0 460410.0 0
367933.0 462946.0 0
371633.0 462525.0 0
375283.0 462272.0 0
379063.0 461815.0 0
382830.0 461052.0 0
388919.0 463203.0 0
392680.0 462518.0 0
396318.0 461484.0 0
402746.0 462610.0 0
406276.0 461381.0 0
412820.0 462413.0 0
416340.0 461078.0 0
422952.0 461901.0 0
429596.0 462371.0 0
438466.0 463868.0 0
58878.6 465541.0 0
65602.9 465144.0 0
72297.3 464631.0 0
78975.3 463985.0 0
82411.9 465448.0 0
89113.2 464627.0 0
95842.7 463815.0 0
99356.6 465205.0 0
106133.0 464674.0 0
109661.0 466240.0 0
112937.0 464596.0 0
116594.0 466089.0 0
123126.0 464397.0 0
126836.0 465034.0 0
130536.0 465576.0 0
132949.0 462734.0 0
136683.0 463204.0 0
140454.0 463584.0 0
144245.0 463868.0 0
148035.0 464061.0 0
151816.0 464196.0 0
155598.0 464309.0 0
159397.0 464422.0 0
163213.0 464529.0 0
167037.0 464623.0 0
170866.0 464696.0 0
174698.0 464745.0 0
178528.0 464770.0 0
182353.0 464773.0 0
186171.0 464756.0 0
189979.0 464721.0 0
193777.0 464673.0 0
197564.0 464612.0 0
201340.0 464543.0 0
205103.0 464466.0 0
208855.0 464385.0 0
212594.0 464304.0 0
216322.0 464224.0 0
220038.0 464151.0 0
223743.0 464087.0 0
227439.0 464038.0 0
231126.0 464006.0 0
234807.0 463996.0 0
238484.0 464008.0 0
242157.0 464044.0 0
245828.0 464105.0 0
249498.0 464191.0 0
253169.0 464300.0 0
256841.0 464431.0 0
260515.0 464584.0 0
264192.0 464758.0 0
267874.0 464948.0 0
280734.0 462463.0 0
284437.0 462705.0 0
288152.0 462945.0 0
291879.0 463178.0 0
295617.0 463402.0 0
299368.0 463614.0 0
303129.0 463811.0 0
306900.0 463992.0 0
310680.0 464155.0 0
314467.0 464301.0 0
318263.0 464429.0 0
322067.0 464535.0 0
325882.0 464615.0 0
329710.0 464663.0 0
333552.0 464675.0 0
337407.0 464650.0 0
341273.0 464590.0 0
345148.0 464502.0 0
349024.0 464397.0 0
352864.0 464242.0 0
356672.0 464022.0 0
360454.0 463721.0 0
364207.0 463354.0 0
374103.0 465551.0 0
377879.0 465092.0 0
381658.0 464461.0 0
385361.0 463680.0 0
391713.0 465782.0 0
395482.0 464874.0 0
399160.0 463790.0 0
405676.0 464935.0 0
409266.0 463695.0 0
415849.0 464735.0 0
419423.0 463369.0 0
422465.0 465709.0 0
426075.0 464141.0 0
431775.0 465502.0 0
434904.0 463660.0 0
441732.0 465911.0 0
55531.8 467636.0 0
62292.3 467269.0 0
69020.9 466797.0 0
72469.8 468406.0 0
75720.5 466193.0 0
79175.7 467696.0 0
85879.6 466864.0 0
89376.1 468239.0 0
92602.9 465997.0 0
96122.1 467354.0 0
99666.6 468727.0 0
102889.0 466647.0 0
106394.0 468238.0 0
109812.0 469713.0 0
113558.0 468360.0 0
120475.0 466999.0 0
124302.0 467788.0 0
128083.0 468430.0 0
134275.0 466074.0 0
138045.0 466487.0 0
141839.0 466812.0 0
145646.0 467056.0 0
149453.0 467234.0 0
153261.0 467367.0 0
157075.0 467477.0 0
160897.0 467579.0 0
164726.0 467674.0 0
168562.0 467754.0 0
172402.0 467816.0 0
176243.0 467856.0 0
199153.0 467740.0 0
202936.0 467682.0 0
206709.0 467619.0 0
210469.0 467553.0 0
214218.0 467488.0 0
217956.0 467427.0 0
221684.0 467372.0 0
225402.0 467329.0 0
229112.0 467300.0 0
232814.0 467289.0 0
236511.0 467297.0 0
240204.0 467327.0 0
243894.0 467380.0 0
247582.0 467455.0 0
251270.0 467553.0 0
271562.0 465154.0 0
275259.0 465371.0 0
278964.0 465596.0 0
282680.0 465824.0 0
286406.0 466052.0 0
290144.0 466275.0 0
293893.0 466491.0 0
297653.0 466697.0 0
301425.0 466890.0 0
305206.0 467068.0 0
308997.0 467230.0 0
312796.0 467375.0 0
316603.0 467501.0 0
320420.0 467606.0 0
324246.0 467687.0 0
328083.0 467738.0 0
335793.0 467737.0 0
339666.0 467683.0 0
343552.0 467600.0 0
347456.0 467502.0 0
351375.0 467423.0 0
355227.0 467276.0 0
359049.0 467034.0 0
362837.0 466716.0 0
366601.0 466334.0 0
370354.0 465915.0 0
380509.0 467868.0 0
384278.0 467173.0 0
387977.0 466532.0 0
394557.0 468247.0 0
398328.0 467239.0 0
402036.0 466123.0 0
404939.0 468483.0 0
408615.0 467286.0 0
412247.0 466036.0 0
415209.0 468417.0 0
418841.0 467099.0 0
428548.0 467026.0 0
434825.0 467761.0 0
438415.0 467523.0 0
444995.0 467959.0 0
52172.6 469739.0 0
58971.8 469396.0 0
62446.6 471125.0 0
65737.6 468963.0 0
69214.0 470613.0 0
75947.4 469958.0 0
82660.6 469140.0 0
86173.2 470532.0 0
92899.8 469584.0 0
96439.4 470915.0 0
103236.0 470176.0 0
106796.0 471976.0 0
117960.0 469626.0 0
121801.0 470481.0 0
125610.0 471235.0 0
131844.0 468960.0 0
135625.0 469409.0 0
139429.0 469767.0 0
143249.0 470050.0 0
147077.0 470265.0 0
180080.0 467877.0 0
183913.0 467878.0 0
187737.0 467862.0 0
191552.0 467833.0 0
195358.0 467791.0 0
254959.0 467672.0 0
258649.0 467812.0 0
262343.0 467971.0 0
266040.0 468147.0 0
269743.0 468338.0 0
273453.0 468540.0 0
277172.0 468751.0 0
280900.0 468966.0 0
284638.0 469183.0 0
288386.0 469396.0 0
292146.0 469604.0 0
295916.0 469804.0 0
299697.0 469992.0 0
303488.0 470167.0 0
331932.0 467756.0 0
353724.0 470513.0 0
357602.0 470341.0 0
361437.0 470084.0 0
365233.0 469741.0 0
369022.0 469316.0 0
372833.0 468868.0 0
376700.0 468429.0 0
383201.0 470634.0 0
386984.0 469932.0 0
390769.0 469146.0 0
397433.0 470684.0 0
401211.0 469619.0 0
407856.0 470881.0 0
411552.0 469677.0 0
418106.0 470883.0 0
421683.0 469594.0 0
425172.0 468334.0 0
431534.0 469489.0 0
438152.0 471209.0 0
441615.0 469675.0 0
444836.0 471805.0 0
448272.0 470015.0 0
45419.8 473967.0 0
48801.7 471849.0 0
52292.1 473663.0 0
55638.9 471527.0 0
59137.5 473285.0 0
65949.5 472821.0 0
72721.5 472223.0 0
79454.8 471446.0 0
82992.9 472867.0 0
89711.2 471882.0 0
93265.7 473205.0 0
99982.3 472254.0 0
103529.0 473642.0 0
112391.0 471909.0 0
115859.0 472511.0 0
119491.0 473278.0 0
123199.0 474059.0 0
129398.0 471853.0 0
133194.0 472341.0 0
137011.0 472736.0 0
150912.0 470427.0 0
154746.0 470552.0 0
158581.0 470658.0 0
162420.0 470753.0 0
166263.0 470837.0 0
170111.0 470907.0 0
173962.0 470959.0 0
177811.0 470993.0 0
181657.0 471010.0 0
185496.0 471011.0 0
189327.0 470998.0 0
193149.0 470973.0 0
196961.0 470939.0 0
200763.0 470898.0 0
204555.0 470851.0 0
208335.0 470800.0 0
212105.0 470749.0 0
215863.0 470700.0 0
219612.0 470656.0 0
223351.0 470620.0 0
227081.0 470595.0 0
230804.0 470585.0 0
234521.0 470592.0 0
238233.0 470617.0 0
241942.0 470663.0 0
245648.0 470731.0 0
249353.0 470819.0 0
253058.0 470927.0 0
256765.0 471055.0 0
260474.0 471202.0 0
264186.0 471365.0 0
267904.0 471542.0 0
271627.0 471731.0 0
275358.0 471929.0 0
279098.0 472132.0 0
282847.0 472337.0 0
286607.0 472541.0 0
290376.0 472741.0 0
307289.0 470327.0 0
311099.0 470471.0 0
314918.0 470597.0 0
318745.0 470702.0 0
322582.0 470784.0 0
326428.0 470839.0 0
330283.0 470863.0 0
334148.0 470852.0 0
338021.0 470805.0 0
341904.0 470725.0 0
345803.0 470618.0 0
349734.0 470511.0 0
363847.0 473177.0 0
367656.0 472762.0 0
371490.0 472245.0 0
375373.0 471715.0 0
379367.0 471290.0 0
386003.0 473390.0 0
389816.0 472570.0 0
393630.0 471669.0 0
400336.0 473123.0 0
404116.0 472028.0 0
410774.0 473330.0 0
414467.0 472130.0 0
420996.0 473446.0 0
424560.0 472205.0 0
428076.0 470913.0 0
431047.0 473436.0 0
434526.0 471983.0 0
441332.0 473484.0 0
448094.0 473930.0 0
451569.0 472081.0 0
454895.0 474162.0 0
48930.9 475807.0 0
55810.2 475450.0 0
62666.4 475012.0 0
69484.7 474472.0 0
73050.5 476084.0 0
76255.9 473766.0 0
79820.5 475232.0 0
86561.1 474235.0 0
90156.1 475562.0 0
96813.7 474518.0 0
100330.0 475817.0 0
109651.0 474451.0 0
113413.0 475422.0 0
117126.0 476148.0 0
120827.0 476957.0 0
126952.0 474740.0 0
130755.0 475283.0 0
140846.0 473050.0 0
144695.0 473298.0 0
148552.0 473488.0 0
152408.0 473636.0 0
156261.0 473756.0 0
160114.0 473857.0 0
163969.0 473944.0 0
167827.0 474019.0 0
171688.0 474080.0 0
175548.0 474125.0 0
179405.0 474154.0 0
183257.0 474169.0 0
187102.0 474171.0 0
190940.0 474162.0 0
194768.0 474143.0 0
198587.0 474116.0 0
202396.0 474084.0 0
206195.0 474048.0 0
209983.0 474010.0 0
213761.0 473973.0 0
217529.0 473939.0 0
221288.0 473911.0 0
225038.0 473891.0 0
228780.0 473884.0 0
232516.0 473891.0 0
236246.0 473914.0 0
239973.0 473955.0 0
243697.0 474016.0 0
247419.0 474096.0 0
251140.0 474195.0 0
254862.0 474313.0 0
258586.0 474448.0 0
262313.0 474599.0 0
266044.0 474764.0 0
269780.0 474941.0 0
273524.0 475127.0 0
277275.0 475319.0 0
294156.0 472934.0 0
297947.0 473117.0 0
301747.0 473289.0 0
305558.0 473447.0 0
309378.0 473590.0 0
313207.0 473715.0 0
317044.0 473822.0 0
320891.0 473906.0 0
324746.0 473965.0 0
328609.0 473996.0 0
332478.0 473994.0 0
336353.0 473959.0 0
340230.0 473888.0 0
344111.0 473783.0 0
347998.0 473653.0 0
351906.0 473532.0 0
356138.0 473638.0 0
360013.0 473445.0 0
370142.0 475705.0 0
373988.0 475107.0 0
377852.0 474512.0 0
382186.0 474104.0 0
388902.0 476062.0 0
392712.0 475141.0 0
396530.0 474162.0 0
403253.0 475588.0 0
407032.0 474482.0 0
413689.0 475843.0 0
417373.0 474663.0 0
427500.0 474800.0 0
434079.0 475949.0 0
437772.0 474986.0 0
444562.0 475683.0 0
451396.0 476041.0 0
458259.0 476266.0 0
52469.7 477621.0 0
59357.8 477202.0 0
62935.7 478927.0 0
66226.5 476715.0 0
69817.3 478363.0 0
76646.7 477614.0 0
83424.6 476624.0 0
87063.0 477962.0 0
93766.9 476877.0 0
97385.5 478191.0 0
101033.0 479465.0 0
103819.0 477020.0 0
107341.0 477401.0 0
110962.0 478188.0 0
114698.0 479017.0 0
118403.0 479828.0 0
124535.0 477671.0 0
134587.0 475716.0 0
138441.0 476062.0 0
142309.0 476337.0 0
146184.0 476555.0 0
150061.0 476728.0 0
153935.0 476866.0 0
157807.0 476979.0 0
161677.0 477073.0 0
165548.0 477154.0 0
169419.0 477221.0 0
173290.0 477275.0 0
177158.0 477314.0 0
181022.0 477341.0 0
184881.0 477355.0 0
188732.0 477359.0 0
192575.0 477353.0 0
196410.0 477341.0 0
200235.0 477322.0 0
204050.0 477299.0 0
207856.0 477274.0 0
211651.0 477248.0 0
215437.0 477224.0 0
219214.0 477204.0 0
222983.0 477190.0 0
226743.0 477187.0 0
230497.0 477195.0 0
234246.0 477217.0 0
237989.0 477255.0 0
241730.0 477311.0 0
245468.0 477384.0 0
249205.0 477475.0 0
252942.0 477584.0 0
256680.0 477710.0 0
260420.0 477851.0 0
264165.0 478005.0 0
281035.0 475514.0 0
284805.0 475709.0 0
288584.0 475901.0 0
292374.0 476088.0 0
296173.0 476266.0 0
299983.0 476434.0 0
303802.0 476590.0 0
307631.0 476731.0 0
311470.0 476856.0 0
315317.0 476964.0 0
319174.0 477051.0 0
323038.0 477114.0 0
326910.0 477152.0 0
330787.0 477161.0 0
334667.0 477138.0 0
338547.0 477083.0 0
342424.0 476992.0 0
346293.0 476867.0 0
350156.0 476712.0 0
354034.0 476518.0 0
358565.0 476796.0 0
362418.0 476620.0 0
366290.0 476273.0 0
372731.0 478592.0 0
376552.0 477929.0 0
380386.0 477209.0 0
385127.0 476927.0 0
391833.0 478683.0 0
395636.0 477688.0 0
399450.0 476657.0 0
406175.0 478095.0 0
409951.0 476986.0 0
416605.0 478432.0 0
420285.0 477278.0 0
423913.0 476072.0 0
430494.0 477363.0 0
437272.0 478835.0 0
440949.0 477353.0 0
444243.0 479574.0 0
447863.0 477883.0 0
454751.0 478134.0 0
56033.0 479403.0 0
59621.7 481150.0 0
66543.3 480647.0 0
73456.7 479985.0 0
80287.9 479043.0 0
83967.9 480398.0 0
90730.9 479269.0 0
94424.9 480574.0 0
98158.1 481869.0 0
104814.0 480456.0 0
108496.0 481117.0 0
112261.0 481860.0 0
128323.0 478247.0 0
132164.0 478710.0 0
136032.0 479085.0 0
139919.0 479386.0 0
143814.0 479630.0 0
147712.0 479826.0 0
151608.0 479984.0 0
155499.0 480113.0 0
159387.0 480219.0 0
163273.0 480307.0 0
167157.0 480382.0 0
171040.0 480443.0 0
174919.0 480491.0 0
178794.0 480528.0 0
182664.0 480553.0 0
186528.0 480568.0 0
190385.0 480574.0 0
194234.0 480573.0 0
198073.0 480566.0 0
201904.0 480555.0 0
205726.0 480542.0 0
209538.0 480527.0 0
213340.0 480512.0 0
217134.0 480501.0 0
220919.0 480494.0 0
224696.0 480494.0 0
228467.0 480504.0 0
232232.0 480527.0 0
235992.0 480563.0 0
239749.0 480615.0 0
267914.0 478171.0 0
271669.0 478346.0 0
275431.0 478528.0 0
279202.0 478713.0 0
282981.0 478900.0 0
286770.0 479085.0 0
290568.0 479265.0 0
294377.0 479438.0 0
298195.0 479602.0 0
302023.0 479755.0 0
305861.0 479895.0 0
309708.0 480020.0 0
313565.0 480129.0 0
317430.0 480218.0 0
321304.0 480286.0 0
325186.0 480330.0 0
329073.0 480348.0 0
332963.0 480339.0 0
336853.0 480299.0 0
340739.0 480228.0 0
344613.0 480121.0 0
348473.0 479976.0 0
352317.0 479772.0 0
356154.0 479469.0 0
361379.0 480252.0 0
365149.0 479892.0 0
368918.0 479238.0 0
379189.0 480685.0 0
382987.0 479840.0 0
388071.0 479650.0 0
394773.0 481279.0 0
398569.0 480234.0 0
402377.0 479175.0 0
409097.0 480651.0 0
412870.0 479552.0 0
419525.0 481100.0 0
423216.0 479943.0 0
426872.0 478697.0 0
429875.0 481299.0 0
433530.0 479902.0 0
440380.0 481266.0 0
63229.1 482872.0 0
70187.5 482267.0 0
74001.6 483906.0 0
77148.9 481488.0 0
80873.6 482873.0 0
84623.8 484183.0 0
87680.3 481701.0 0
91421.5 482983.0 0
95188.8 484265.0 0
102017.0 483053.0 0
105868.0 484067.0 0
116008.0 482700.0 0
122080.0 480651.0 0
125884.0 481248.0 0
129742.0 481729.0 0
133628.0 482125.0 0
137534.0 482449.0 0
141450.0 482714.0 0
145368.0 482933.0 0
149284.0 483112.0 0
153195.0 483258.0 0
157101.0 483379.0 0
161003.0 483478.0 0
243503.0 480683.0 0
247254.0 480768.0 0
251006.0 480870.0 0
254757.0 480987.0 0
258511.0 481119.0 0
262267.0 481263.0 0
266028.0 481420.0 0
269794.0 481585.0 0
273567.0 481757.0 0
277348.0 481934.0 0
281136.0 482113.0 0
284934.0 482290.0 0
288741.0 482464.0 0
292558.0 482633.0 0
296384.0 482793.0 0
300220.0 482944.0 0
304066.0 483083.0 0
307921.0 483207.0 0
311786.0 483316.0 0
346820.0 483272.0 0
350686.0 483093.0 0
354532.0 482817.0 0
358355.0 482344.0 0
363992.0 483567.0 0
367772.0 482872.0 0
371568.0 482155.0 0
375376.0 481439.0 0
381914.0 483382.0 0
385686.0 482424.0 0
391017.0 482318.0 0
397704.0 483872.0 0
401498.0 482801.0 0
405302.0 481732.0 0
412012.0 483262.0 0
415788.0 482188.0 0
422444.0 483825.0 0
426176.0 482608.0 0
443679.0 483484.0 0
70737.3 486188.0 0
77803.2 485401.0 0
81574.1 486723.0 0
88402.7 485447.0 0
92195.7 486700.0 0
99078.3 485512.0 0
102921.0 486715.0 0
109798.0 484727.0 0
113594.0 485567.0 0
119665.0 483740.0 0
123470.0 484297.0 0
127339.0 484785.0 0
131240.0 485189.0 0
135163.0 485530.0 0
139096.0 485814.0 0
164902.0 483561.0 0
168796.0 483630.0 0
172687.0 483687.0 0
176573.0 483731.0 0
180455.0 483766.0 0
184330.0 483790.0 0
188199.0 483806.0 0
192061.0 483816.0 0
195914.0 483820.0 0
199759.0 483819.0 0
203595.0 483816.0 0
207422.0 483811.0 0
211240.0 483806.0 0
215048.0 483803.0 0
218849.0 483803.0 0
222642.0 483808.0 0
226428.0 483821.0 0
230208.0 483844.0 0
233984.0 483879.0 0
237756.0 483928.0 0
241524.0 483993.0 0
245290.0 484073.0 0
249054.0 484168.0 0
252819.0 484278.0 0
256584.0 484402.0 0
260352.0 484539.0 0
264124.0 484686.0 0
267901.0 484843.0 0
271684.0 485007.0 0
275473.0 485176.0 0
279271.0 485347.0 0
283077.0 485518.0 0
286892.0 485687.0 0
290716.0 485850.0 0
315661.0 483407.0 0
319544.0 483479.0 0
323435.0 483529.0 0
327332.0 483555.0 0
331235.0 483556.0 0
335140.0 483532.0 0
339042.0 483479.0 0
342938.0 483394.0 0
356819.0 485827.0 0
360626.0 485224.0 0
370448.0 485780.0 0
374283.0 485015.0 0
378106.0 484223.0 0
384706.0 486039.0 0
388463.0 485004.0 0
393948.0 484957.0 0
400620.0 486478.0 0
404417.0 485401.0 0
408221.0 484334.0 0
414919.0 485936.0 0
418688.0 484921.0 0
85388.4 487972.0 0
89214.7 489203.0 0
96080.1 487954.0 0
99882.6 489225.0 0
107384.0 487553.0 0
111159.0 488474.0 0
117246.0 486854.0 0
121075.0 487424.0 0
124956.0 487885.0 0
128871.0 488291.0 0
143033.0 486053.0 0
146967.0 486251.0 0
150897.0 486416.0 0
154821.0 486552.0 0
158740.0 486665.0 0
162653.0 486758.0 0
166560.0 486836.0 0
170463.0 486901.0 0
174360.0 486954.0 0
178253.0 486996.0 0
182140.0 487029.0 0
186020.0 487054.0 0
189893.0 487072.0 0
193759.0 487085.0 0
197617.0 487093.0 0
201466.0 487100.0 0
205307.0 487104.0 0
209138.0 487108.0 0
212961.0 487113.0 0
216775.0 487119.0 0
220582.0 487130.0 0
224382.0 487146.0 0
228177.0 487170.0 0
231966.0 487205.0 0
235752.0 487252.0 0
239534.0 487313.0 0
243313.0 487389.0 0
247090.0 487479.0 0
250866.0 487584.0 0
254643.0 487701.0 0
258421.0 487831.0 0
262203.0 487971.0 0
265989.0 488120.0 0
269781.0 488276.0 0
273579.0 488438.0 0
294550.0 486007.0 0
298393.0 486155.0 0
302247.0 486292.0 0
306110.0 486417.0 0
309982.0 486526.0 0
313865.0 486619.0 0
317756.0 486694.0 0
321656.0 486748.0 0
325564.0 486781.0 0
329478.0 486792.0 0
333397.0 486778.0 0
337318.0 486740.0 0
341239.0 486674.0 0
345155.0 486576.0 0
349061.0 486430.0 0
352953.0 486204.0 0
363003.0 488093.0 0
366602.0 486555.0 0
373335.0 488651.0 0
377108.0 487814.0 0
380909.0 486961.0 0
387531.0 488685.0 0
391287.0 487608.0 0
396856.0 487584.0 0
403520.0 489109.0 0
407328.0 488043.0 0
411134.0 486991.0 0
417938.0 488798.0 0
82399.2 490576.0 0
86243.5 491775.0 0
93068.4 490434.0 0
96854.7 491711.0 0
104719.0 490105.0 0
108507.0 491297.0 0
114789.0 489913.0 0
132809.0 488636.0 0
136758.0 488935.0 0
140712.0 489189.0 0
144663.0 489405.0 0
148610.0 489587.0 0
152551.0 489739.0 0
156485.0 489866.0 0
160412.0 489972.0 0
164333.0 490060.0 0
168248.0 490134.0 0
172157.0 490194.0 0
176060.0 490244.0 0
179958.0 490285.0 0
183849.0 490317.0 0
187733.0 490343.0 0
191610.0 490363.0 0
195479.0 490380.0 0
199341.0 490394.0 0
203194.0 490407.0 0
207038.0 490419.0 0
210874.0 490431.0 0
214701.0 490445.0 0
218520.0 490461.0 0
222332.0 490480.0 0
226139.0 490506.0 0
229941.0 490540.0 0
233739.0 490586.0 0
237534.0 490645.0 0
241325.0 490717.0 0
245114.0 490803.0 0
248901.0 490903.0 0
252687.0 491016.0 0
277385.0 488602.0 0
281199.0 488767.0 0
285021.0 488931.0 0
288852.0 489090.0 0
292693.0 489244.0 0
296544.0 489390.0 0
300404.0 489525.0 0
304274.0 489649.0 0
308153.0 489759.0 0
312043.0 489853.0 0
315941.0 489931.0 0
319849.0 489989.0 0
323766.0 490028.0 0
327690.0 490045.0 0
331621.0 490040.0 0
335559.0 490012.0 0
339501.0 489960.0 0
343447.0 489881.0 0
347394.0 489765.0 0
351340.0 489585.0 0
355285.0 489296.0 0
359185.0 488820.0 0
365920.0 490399.0 0
369601.0 489487.0 0
376120.0 491477.0 0
379920.0 490591.0 0
383731.0 489673.0 0
390376.0 491340.0 0
394145.0 490245.0 0
399741.0 490215.0 0
406411.0 491777.0 0
410238.0 490732.0 0
414064.0 489693.0 0
83297.3 494438.0 0
90076.6 492983.0 0
93865.5 494231.0 0
101863.0 492540.0 0
105618.0 493879.0 0
112125.0 492802.0 0
118656.0 490576.0 0
122583.0 491034.0 0
126518.0 491433.0 0
130474.0 491776.0 0
134439.0 492080.0 0
138407.0 492346.0 0
142373.0 492577.0 0
146336.0 492774.0 0
150292.0 492942.0 0
154241.0 493084.0 0
158182.0 493203.0 0
162116.0 493302.0 0
166043.0 493385.0 0
169963.0 493454.0 0
173878.0 493511.0 0
177786.0 493559.0 0
181687.0 493598.0 0
185582.0 493630.0 0
189469.0 493657.0 0
193349.0 493680.0 0
197221.0 493701.0 0
201086.0 493721.0 0
204942.0 493741.0 0
256475.0 491139.0 0
260266.0 491273.0 0
264061.0 491415.0 0
267861.0 491565.0 0
271666.0 491720.0 0
275479.0 491878.0 0
279300.0 492038.0 0
283129.0 492196.0 0
286967.0 492352.0 0
290814.0 492503.0 0
294671.0 492646.0 0
298537.0 492780.0 0
302414.0 492904.0 0
306299.0 493014.0 0
310195.0 493110.0 0
314100.0 493190.0 0
318015.0 493252.0 0
321939.0 493295.0 0
325872.0 493319.0 0
329812.0 493321.0 0
333761.0 493301.0 0
337718.0 493259.0 0
341682.0 493192.0 0
345656.0 493096.0 0
349641.0 492959.0 0
353650.0 492720.0 0
357690.0 492367.0 0
361615.0 491817.0 0
368582.0 493237.0 0
372339.0 492352.0 0
382743.0 493340.0 0
386570.0 492369.0 0
393236.0 494013.0 0
397023.0 492921.0 0
402609.0 492865.0 0
409290.0 494491.0 0
413135.0 493475.0 0
87110.5 495599.0 0
90909.6 496814.0 0
98935.2 494997.0 0
102677.0 496361.0 0
109194.0 495473.0 0
115993.0 493682.0 0
120223.0 494199.0 0
124181.0 494616.0 0
128158.0 494950.0 0
132138.0 495253.0 0
136122.0 495527.0 0
140101.0 495769.0 0
144077.0 495980.0 0
148047.0 496162.0 0
152010.0 496318.0 0
155964.0 496451.0 0
208789.0 493761.0 0
212627.0 493781.0 0
216458.0 493803.0 0
220281.0 493826.0 0
224099.0 493854.0 0
227912.0 493888.0 0
231721.0 493932.0 0
235527.0 493988.0 0
239329.0 494057.0 0
243128.0 494141.0 0
246925.0 494237.0 0
250720.0 494346.0 0
254516.0 494464.0 0
258315.0 494593.0 0
262116.0 494729.0 0
265923.0 494873.0 0
269736.0 495022.0 0
273555.0 495174.0 0
277382.0 495329.0 0
281217.0 495483.0 0
285060.0 495635.0 0
288913.0 495783.0 0
292775.0 495925.0 0
296647.0 496058.0 0
300529.0 496181.0 0
304421.0 496292.0 0
347842.0 496328.0 0
351920.0 496126.0 0
356015.0 495824.0 0
360083.0 495495.0 0
364776.0 494011.0 0
375090.0 495184.0 0
378915.0 494272.0 0
385581.0 496074.0 0
389419.0 495068.0 0
399906.0 495636.0 0
405458.0 495547.0 0
87955.3 499450.0 0
95991.0 497522.0 0
99741.0 498853.0 0
106205.0 498121.0 0
112973.0 496654.0 0
117703.0 497220.0 0
121843.0 497822.0 0
125869.0 498157.0 0
129862.0 498457.0 0
133853.0 498729.0 0
159910.0 496563.0 0
163849.0 496655.0 0
167781.0 496733.0 0
171707.0 496798.0 0
175626.0 496853.0 0
179537.0 496899.0 0
183441.0 496937.0 0
187338.0 496969.0 0
191228.0 496997.0 0
195110.0 497023.0 0
198985.0 497049.0 0
202851.0 497075.0 0
206709.0 497101.0 0
210558.0 497129.0 0
214399.0 497157.0 0
218232.0 497185.0 0
222059.0 497215.0 0
225881.0 497249.0 0
229700.0 497291.0 0
233515.0 497344.0 0
237327.0 497411.0 0
241135.0 497491.0 0
244940.0 497585.0 0
248743.0 497691.0 0
252545.0 497806.0 0
256350.0 497930.0 0
260157.0 498061.0 0
263970.0 498200.0 0
267788.0 498343.0 0
271612.0 498491.0 0
275444.0 498641.0 0
279284.0 498791.0 0
308322.0 496390.0 0
312234.0 496472.0 0
316154.0 496537.0 0
320085.0 496585.0 0
324024.0 496613.0 0
327972.0 496621.0 0
331928.0 496609.0 0
335893.0 496575.0 0
339867.0 496518.0 0
343850.0 496437.0 0
363478.0 497530.0 0
367404.0 496952.0 0
371263.0 496089.0 0
377881.0 497985.0 0
381734.0 497043.0 0
388427.0 498810.0 0
392274.0 497780.0 0
396100.0 496713.0 0
402785.0 498387.0 0
408287.0 498270.0 0
412136.0 497286.0 0
93054.0 500125.0 0
96817.5 501403.0 0
103203.0 500793.0 0
109976.0 499355.0 0
114950.0 500046.0 0
119247.0 500835.0 0
137848.0 498986.0 0
141836.0 499207.0 0
145818.0 499401.0 0
149793.0 499571.0 0
153760.0 499717.0 0
157718.0 499842.0 0
161668.0 499946.0 0
165611.0 500032.0 0
169548.0 500104.0 0
173478.0 500166.0 0
177400.0 500218.0 0
181314.0 500263.0 0
185219.0 500300.0 0
189117.0 500332.0 0
193009.0 500362.0 0
196892.0 500392.0 0
200768.0 500423.0 0
204635.0 500455.0 0
208494.0 500489.0 0
212345.0 500524.0 0
216187.0 500558.0 0
220022.0 500592.0 0
223852.0 500627.0 0
227678.0 500666.0 0
231501.0 500715.0 0
235321.0 500777.0 0
239137.0 500855.0 0
242949.0 500948.0 0
246758.0 501052.0 0
250565.0 501165.0 0
254374.0 501286.0 0
258185.0 501413.0 0
283132.0 498940.0 0
286990.0 499086.0 0
290857.0 499225.0 0
294734.0 499358.0 0
298621.0 499481.0 0
302518.0 499593.0 0
306425.0 499692.0 0
310341.0 499776.0 0
314268.0 499845.0 0
318203.0 499896.0 0
322148.0 499930.0 0
326102.0 499944.0 0
330064.0 499938.0 0
334034.0 499912.0 0
338013.0 499864.0 0
341999.0 499794.0 0
345992.0 499704.0 0
350104.0 499517.0 0
354254.0 499269.0 0
358246.0 499036.0 0
361723.0 500873.0 0
365990.0 500599.0 0
370141.0 499817.0 0
374019.0 498911.0 0
380698.0 500771.0 0
384569.0 499809.0 0
391274.0 501555.0 0
395138.0 500504.0 0
398972.0 499452.0 0
405651.0 501171.0 0
411030.0 501115.0 0
90113.7 502777.0 0
93893.1 504030.0 0
100198.0 503509.0 0
106989.0 502023.0 0
112028.0 502726.0 0
116462.0 503682.0 0
123594.0 501388.0 0
127605.0 501690.0 0
131609.0 501965.0 0
135600.0 502214.0 0
139617.0 502458.0 0
143608.0 502661.0 0
147593.0 502842.0 0
151572.0 503002.0 0
155542.0 503141.0 0
159502.0 503258.0 0
163454.0 503353.0 0
167401.0 503431.0 0
171342.0 503498.0 0
175276.0 503557.0 0
179201.0 503609.0 0
183115.0 503653.0 0
187021.0 503688.0 0
190920.0 503720.0 0
194812.0 503752.0 0
198695.0 503787.0 0
202570.0 503824.0 0
206437.0 503863.0 0
210296.0 503904.0 0
214148.0 503945.0 0
217991.0 503985.0 0
221827.0 504022.0 0
225660.0 504059.0 0
229489.0 504102.0 0
262002.0 501546.0 0
265824.0 501685.0 0
269652.0 501828.0 0
273488.0 501973.0 0
277331.0 502120.0 0
281184.0 502266.0 0
285045.0 502409.0 0
288917.0 502548.0 0
292798.0 502679.0 0
296689.0 502802.0 0
300590.0 502915.0 0
304502.0 503016.0 0
308424.0 503103.0 0
312355.0 503175.0 0
316296.0 503230.0 0
320246.0 503268.0 0
324205.0 503288.0 0
328172.0 503289.0 0
332147.0 503270.0 0
336129.0 503231.0 0
340117.0 503172.0 0
344110.0 503095.0 0
348242.0 502912.0 0
352403.0 502698.0 0
356401.0 502555.0 0
368739.0 503464.0 0
372931.0 502653.0 0
376818.0 501720.0 0
383521.0 503564.0 0
387412.0 502579.0 0
394144.0 504296.0 0
398003.0 503269.0 0
401836.0 502223.0 0
104007.0 504702.0 0
109081.0 505401.0 0
113535.0 506389.0 0
120986.0 504375.0 0
125365.0 504951.0 0
129376.0 505224.0 0
133382.0 505482.0 0
137375.0 505709.0 0
141415.0 505946.0 0
145409.0 506135.0 0
149400.0 506304.0 0
153380.0 506459.0 0
157351.0 506590.0 0
161314.0 506697.0 0
165269.0 506781.0 0
169220.0 506850.0 0
233316.0 504159.0 0
237138.0 504233.0 0
240955.0 504325.0 0
244768.0 504429.0 0
248577.0 504542.0 0
252388.0 504660.0 0
256202.0 504783.0 0
260020.0 504912.0 0
263844.0 505047.0 0
267675.0 505185.0 0
271513.0 505327.0 0
275359.0 505470.0 0
279214.0 505613.0 0
283079.0 505754.0 0
286953.0 505891.0 0
290838.0 506022.0 0
294733.0 506146.0 0
298638.0 506259.0 0
302554.0 506362.0 0
306481.0 506452.0 0
310417.0 506527.0 0
314363.0 506586.0 0
318318.0 506629.0 0
322282.0 506654.0 0
326254.0 506661.0 0
330234.0 506650.0 0
334219.0 506621.0 0
338209.0 506571.0 0
342205.0 506503.0 0
346354.0 506322.0 0
350505.0 506131.0 0
354500.0 506032.0 0
359954.0 504277.0 0
364072.0 504037.0 0
371510.0 506313.0 0
375735.0 505480.0 0
379632.0 504526.0 0
386339.0 506363.0 0
390257.0 505358.0 0
400864.0 506070.0 0
404718.0 505031.0 0
100876.0 507446.0 0
106124.0 508084.0 0
110593.0 509088.0 0
118216.0 507230.0 0
122737.0 507928.0 0
127154.0 508510.0 0
131164.0 508767.0 0
135177.0 509010.0 0
139171.0 509216.0 0
173166.0 506914.0 0
177103.0 506974.0 0
181028.0 507026.0 0
184943.0 507067.0 0
188848.0 507099.0 0
192746.0 507131.0 0
196635.0 507169.0 0
200515.0 507210.0 0
204388.0 507252.0 0
208254.0 507297.0 0
212115.0 507345.0 0
215967.0 507393.0 0
219812.0 507435.0 0
223650.0 507472.0 0
227485.0 507510.0 0
231315.0 507560.0 0
235140.0 507627.0 0
238961.0 507716.0 0
242775.0 507822.0 0
246584.0 507937.0 0
250395.0 508054.0 0
254209.0 508174.0 0
258027.0 508300.0 0
261852.0 508430.0 0
265683.0 508564.0 0
269522.0 508702.0 0
273369.0 508841.0 0
277225.0 508981.0 0
281091.0 509120.0 0
284967.0 509256.0 0
358093.0 507690.0 0
362211.0 507524.0 0
366810.0 506894.0 0
378544.0 508309.0 0
382442.0 507347.0 0
389158.0 509173.0 0
393140.0 508105.0 0
397002.0 507086.0 0
115302.0 509955.0 0
119972.0 510800.0 0
124511.0 511491.0 0
143236.0 509450.0 0
147244.0 509625.0 0
151231.0 509795.0 0
155213.0 509941.0 0
159189.0 510063.0 0
163155.0 510160.0 0
167112.0 510226.0 0
171070.0 510288.0 0
175018.0 510356.0 0
178957.0 510417.0 0
182886.0 510468.0 0
186799.0 510504.0 0
190701.0 510532.0 0
194591.0 510572.0 0
198473.0 510615.0 0
202349.0 510660.0 0
206219.0 510707.0 0
210086.0 510757.0 0
213949.0 510813.0 0
217805.0 510867.0 0
221653.0 510906.0 0
225495.0 510939.0 0
229328.0 510982.0 0
233152.0 511041.0 0
236970.0 511120.0 0
240784.0 511229.0 0
244588.0 511352.0 0
248396.0 511468.0 0
252208.0 511586.0 0
256025.0 511708.0 0
259847.0 511834.0 0
288854.0 509386.0 0
292752.0 509510.0 0
296661.0 509625.0 0
300581.0 509730.0 0
304511.0 509822.0 0
308453.0 509900.0 0
312404.0 509964.0 0
316364.0 510011.0 0
320334.0 510042.0 0
324311.0 510055.0 0
328295.0 510051.0 0
332285.0 510030.0 0
336281.0 509993.0 0
340282.0 509930.0 0
344446.0 509751.0 0
348587.0 509576.0 0
352582.0 509496.0 0
356197.0 511138.0 0
360290.0 510995.0 0
364959.0 510392.0 0
369565.0 509756.0 0
374297.0 509154.0 0
381341.0 511157.0 0
385253.0 510179.0 0
392056.0 511920.0 0
395963.0 510926.0 0
128948.0 512075.0 0
132966.0 512321.0 0
136993.0 512551.0 0
140988.0 512735.0 0
145096.0 512961.0 0
149088.0 513149.0 0
153083.0 513309.0 0
157074.0 513445.0 0
161059.0 513558.0 0
165032.0 513643.0 0
168988.0 513681.0 0
172943.0 513754.0 0
176897.0 513821.0 0
180845.0 513883.0 0
184780.0 513934.0 0
188692.0 513961.0 0
192572.0 513999.0 0
196449.0 514043.0 0
200323.0 514089.0 0
204193.0 514137.0 0
208061.0 514187.0 0
211928.0 514241.0 0
215798.0 514308.0 0
219669.0 514359.0 0
223528.0 514391.0 0
227367.0 514427.0 0
231188.0 514481.0 0
263677.0 511964.0 0
267514.0 512098.0 0
271360.0 512234.0 0
275215.0 512372.0 0
279081.0 512508.0 0
282957.0 512642.0 0
286845.0 512772.0 0
290745.0 512896.0 0
294657.0 513012.0 0
298580.0 513118.0 0
302515.0 513213.0 0
306462.0 513295.0 0
310418.0 513363.0 0
314385.0 513415.0 0
318360.0 513451.0 0
322343.0 513470.0 0
326333.0 513472.0 0
330328.0 513459.0 0
334326.0 513431.0 0
338348.0 513377.0 0
342524.0 513200.0 0
346660.0 513037.0 0
350655.0 512963.0 0
363041.0 513878.0 0
367712.0 513275.0 0
372344.0 512615.0 0
377090.0 512002.0 0
142854.0 516251.0 0
170854.0 517171.0 0
174835.0 517239.0 0
234995.0 514551.0 0
238793.0 514645.0 0
242588.0 514787.0 0
246392.0 514905.0 0
250200.0 515021.0 0
254014.0 515139.0 0
257833.0 515262.0 0
261658.0 515388.0 0
265491.0 515518.0 0
269333.0 515650.0 0
273186.0 515784.0 0
277049.0 515918.0 0
280924.0 516050.0 0
284812.0 516179.0 0
288712.0 516303.0 0
292625.0 516419.0 0
296552.0 516527.0 0
300491.0 516624.0 0
304442.0 516710.0 0
308405.0 516782.0 0
312378.0 516839.0 0
316361.0 516880.0 0
320351.0 516905.0 0
324348.0 516914.0 0
328348.0 516907.0 0
332355.0 516886.0 0
336391.0 516838.0 0
340588.0 516672.0 0
344726.0 516517.0 0
348725.0 516443.0 0
354280.0 514617.0 0
358364.0 514481.0 0
178807.0 517305.0 0
182776.0 517366.0 0
186754.0 517413.0 0
193949.0 517713.0 0
197937.0 517714.0 0
201914.0 517717.0 0
205877.0 517723.0 0
209826.0 517733.0 0
213760.0 517752.0 0
217678.0 517812.0 0
221594.0 517857.0 0
225523.0 517934.0 0
229472.0 518053.0 0
233438.0 518197.0 0
237420.0 518365.0 0
POINT_DATA 4650
SCALARS Radius float 1
LOOKUP_TABLE default
4000.0 4000.0 4000.0 4000.0 4000.0 4000.0 4000.0 4000.0 4000.0 4000.0 4000.0 4000.0 4000.0 4000.0 4000.0 4000.0 4000.0 4000.0 4000.0 4000.0 4000.0 4000.0 4000.0 4000.0 4000.0 4000.0 4000.0 4000.0 4000.0 4000.0 4000.0 4000.0 4000.0 4000.0 4000.0 4000.0 4000.0 4000.0 4000.0 4000.0 4000.0 4000.0 4000.0 4000.0 4000.0 4000.0 4000.0 4000.0 4000.0 4000.0 4000.0 4000.0 4000.0 4000.0 4000.0 4000.0 4000.0 4000.0 4000.0 4000.0 4000.0 4000.0 4000.0 4000.0 4000.0 4000.0 4000.0 4000.0 4000.0 4000.0 4000.0 4000.0 4000.0 4000.0 4000.0 4000.0 4000.0 4000.0 4000.0 4000.0 4000.0 4000.0 4000.0 4000.0 4000.0 4000.0 4000.0 4000.0 4000.0 4000.0 4000.0 4000.0 4000.0 4000.0 4000.0 4000.0 4000.0 4000.0 4000.0 4000.0 4000.0 4000.0 4000.0 4000.0 4000.0 4000.0 4000.0 4000.0 4000.0 4000.0 4000.0 4000.0 4000.0 4000.0 4000.0 4000.0 4000.0 4000.0 4000.0 4000.0 4000.0 4000.0 4000.0 4000.0 4000.0 4000.0 4000.0 4000.0 4000.0 4000.0 4000.0 4000.0 4000.0 4000.0 4000.0 4000.0 4000.0 4000.0 4000.0 4000.0 4000.0 4000.0 4000.0 4000.0 4000.0 4000.0 4000.0 4000.0 4000.0 4000.0 4000.0 4000.0 4000.0 4000.0 4000.0 4000.0 4000.0 4000.0 4000.0 4000.0 4000.0 4000.0 4000.0 4000.0 4000.0 4000.0 4000.0 4000.0 4000.0 4000.0 4000.0 4000.0 4000.0 4000.0 4000.0 4000.0 4000.0 4000.0 4000.0 4000.0 4000.0 4000.0 4000.0 4000.0 4000.0 4000.0 4000.0 4000.0 4000.0 4000.0 4000.0 4000.0 4000.0 4000.0 4000.0 4000.0 4000.0 4000.0 4000.0 4000.0 4000.0 4000.0 4000.0 4000.0 4000.0 4000.0 4000.0 4000.0 4000.0 4000.0 4000.0 4000.0 4000.0 4000.0 4000.0 4000.0 4000.0 4000.0 4000.0 4000.0 4000.0 4000.0 4000.0 4000.0 4000.0 4000.0 4000.0 4000.0 4000.0 4000.0 4000.0 4000.0 4000.0 4000.0 4000.0 4000.0 4000.0 4000.0 4000.0 4000.0 4000.0 4000.0 4000.0 4000.0 4000.0 4000.0 4000.0 4000.0 4000.0 4000.0 4000.0 4000.0 4000.0 4000.0 4000.0 4000.0 4000.0 4000.0 4000.0 4000.0 4000.0 4000.0 4000.0 4000.0 4000.0 4000.0 4000.0 4000.0 4000.0 4000.0 4000.0 4000.0 4000.0 4000.0 4000.0 4000.0 4000.0 4000.0 4000.0 4000.0 4000.0 4000.0 4000.0 4000.0 4000.0 4000.0 4000.0 4000.0 4000.0 4000.0 4000.0 4000.0 4000.0 4000.0 4000.0 4000.0 4000.0 4000.0 4000.0 4000.0 4000.0 4000.0 4000.0 4000.0 4000.0 4000.0 4000.0 4000.0 4000.0 4000.0 4000.0 4000.0 4000.0 4000.0 4000.0 4000.0 4000.0 4000.0 4000.0 4000.0 4000.0 4000.0 4000.0 4000.0 4000.0 4000.0 4000.0 4000.0 4000.0 4000.0 4000.0 4000.0 4000.0 4000.0 4000.0 4000.0 4000.0 4000.0 4000.0 4000.0 4000.0 4000.0 4000.0 4000.0 4000.0 4000.0 4000.0 4000.0 4000.0 4000.0 4000.0 4000.0 4000.0 4000.0 4000.0 4000.0 4000.0 4000.0 4000.0 4000.0 4000.0 4000.0 4000.0 4000.0 4000.0 4000.0 4000.0 4000.0 4000.0 4000.0 4000.0 4000.0 4000.0 4000.0 4000.0 4000.0 4000.0 4000.0 4000.0 4000.0 4000.0 4000.0 4000.0 4000.0 4000.0 4000.0 4000.0 4000.0 4000.0 4000.0 4000.0 4000.0 4000.0 4000.0 4000.0 4000.0 4000.0 4000.0 4000.0 4000.0 4000.0 4000.0 4000.0 4000.0 4000.0 4000.0 4000.0 4000.0 4000.0 4000.0 4000.0 4000.0 4000.0 4000.0 4000.0 4000.0 4000.0 4000.0 4000.0 4000.0 4000.0 4000.0 4000.0 4000.0 4000.0 4000.0 4000.0 4000.0 4000.0 4000.0 4000.0 4000.0 4000.0 4000.0 4000.0 4000.0 4000.0 4000.0 4000.0 4000.0 4000.0 4000.0 4000.0 4000.0 4000.0 4000.0 4000.0 4000.0 4000.0 4000.0 4000.0 4000.0 4000.0 4000.0 4000.0 4000.0 4000.0 4000.0 4000.0 4000.0 4000.0 4000.0 4000.0 4000.0 4000.0 4000.0 4000.0 4000.0 4000.0 4000.0 4000.0 4000.0 4000.0 4000.0 4000.0 4000.0 4000.0 4000.0 4000.0 4000.0 4000.0 4000.0 4000.0 4000.0 4000.0 4000.0 4000.0 4000.0 4000.0 4000.0 4000.0 4000.0 4000.0 4000.0 4000.0 4000.0 4000.0 4000.0 4000.0 4000.0 4000.0 4000.0 4000.0 4000.0 4000.0 4000.0 4000.0 4000.0 4000.0 4000.0 4000.0 4000.0 4000.0 4000.0 4000.0 4000.0 4000.0 4000.0 4000.0 4000.0 4000.0 4000.0 4000.0 4000.0 4000.0 4000.0 4000.0 4000.0 4000.0 4000.0 4000.0 4000.0 4000.0 4000.0 4000.0 4000.0 4000.0 4000.0 4000.0 4000.0 4000.0 4000.0 4000.0 4000.0 4000.0 4000.0 4000.0 4000.0 4000.0 4000.0 4000.0 4000.0 4000.0 4000.0 4000.0 4000.0 4000.0 4000.0 4000.0 4000.0 4000.0 4000.0 4000.0 4000.0 4000.0 4000.0 4000.0 4000.0 4000.0 4000.0 4000.0 4000.0 4000.0 4000.0 4000.0 4000.0 4000.0 4000.0 4000.0 4000.0 4000.0 4000.0 4000.0 4000.0 4000.0 4000.0 4000.0 4000.0 4000.0 4000.0 4000.0 4000.0 4000.0 4000.0 4000.0 4000.0 4000.0 4000.0 4000.0 4000.0 4000.0 4000.0 4000.0 4000.0 4000.0 4000.0 4000.0 4000.0 4000.0 4000.0 4000.0 4000.0 4000.0 4000.0 4000.0 4000.0 4000.0 4000.0 4000.0 4000.0 4000.0 4000.0 4000.0 4000.0 4000.0 4000.0 4000.0 4000.0 4000.0 4000.0 4000.0 4000.0 4000.0 4000.0 4000.0 4000.0 4000.0 4000.0 4000.0 4000.0 4000.0 4000.0 4000.0 4000.0 4000.0 4000.0 4000.0 4000.0 4000.0 4000.0 4000.0 4000.0 4000.0 4000.0 4000.0 4000.0 4000.0 4000.0 4000.0 4000.0 4000.0 4000.0 4000.0 4000.0 4000.0 4000.0 4000.0 4000.0 4000.0 4000.0 4000.0 4000.0 4000.0 4000.0 4000.0 4000.0 4000.0 4000.0 4000.0 4000.0 4000.0 4000.0 4000.0 4000.0 4000.0 4000.0 4000.0 4000.0 4000.0 4000.0 4000.0 4000.0 4000.0 4000.0 4000.0 4000.0 4000.0 4000.0 4000.0 4000.0 4000.0 4000.0 4000.0 4000.0 4000.0 4000.0 4000.0 4000.0 4000.0 4000.0 4000.0 4000.0 4000.0 4000.0 4000.0 4000.0 4000.0 4000.0 4000.0 4000.0 4000.0 4000.0 4000.0 4000.0 4000.0 4000.0 4000.0 4000.0 4000.0 4000.0 4000.0 4000.0 4000.0 4000.0 4000.0 4000.0 4000.0 4000.0 4000.0 4000.0 4000.0 4000.0 4000.0 4000.0 4000.0 4000.0 4000.0 4000.0 4000.0 4000.0 4000.0 4000.0 4000.0 4000.0 4000.0 4000.0 4000.0 4000.0 4000.0 4000.0 4000.0 4000.0 4000.0 4000.0 4000.0 4000.0 4000.0 4000.0 4000.0 4000.0 4000.0 4000.0 4000.0 4000.0 4000.0 4000.0 4000.0 4000.0 4000.0 4000.0 4000.0 4000.0 4000.0 4000.0 4000.0 4000.0 4000.0 4000.0 4000.0 4000.0 4000.0 4000.0 4000.0 4000.0 4000.0 4000.0 4000.0 4000.0 4000.0 4000.0 4000.0 4000.0 4000.0 4000.0 4000.0 4000.0 4000.0 4000.0 4000.0 4000.0 4000.0 4000.0 4000.0 4000.0 4000.0 4000.0 4000.0 4000.0 4000.0 4000.0 4000.0 4000.0 4000.0 4000.0 4000.0 4000.0 4000.0 4000.0 4000.0 4000.0 4000.0 4000.0 4000.0 4000.0 4000.0 4000.0 4000.0 4000.0 4000.0 4000.0 4000.0 4000.0 4000.0 4000.0 4000.0 4000.0 4000.0 4000.0 4000.0 4000.0 4000.0 4000.0 4000.0 4000.0 4000.0 4000.0 4000.0 4000.0 4000.0 4000.0 4000.0 4000.0 4000.0 4000.0 4000.0 4000.0 4000.0 4000.0 4000.0 4000.0 4000.0 4000.0 4000.0 4000.0 4000.0 4000.0 4000.0 4000.0 4000.0 4000.0 4000.0 4000.0 4000.0 4000.0 4000.0 4000.0 4000.0 4000.0 4000.0 4000.0 4000.0 4000.0 4000.0 4000.0 4000.0 4000.0 4000.0 4000.0 4000.0 4000.0 4000.0 4000.0 4000.0 4000.0 4000.0 4000.0 4000.0 4000.0 4000.0 4000.0 4000.0 4000.0 4000.0 4000.0 4000.0 4000.0 4000.0 4000.0 4000.0 4000.0 4000.0 4000.0 4000.0 4000.0 4000.0 4000.0 4000.0 4000.0 4000.0 4000.0 4000.0 4000.0 4000.0 4000.0 4000.0 4000.0 4000.0 4000.0 4000.0 4000.0 4000.0 4000.0 4000.0 4000.0 4000.0 4000.0 4000.0 4000.0 4000.0 4000.0 4000.0 4000.0 4000.0 4000.0 4000.0 4000.0 4000.0 4000.0 4000.0 4000.0 4000.0 4000.0 4000.0 4000.0 4000.0 4000.0 4000.0 4000.0 4000.0 4000.0 4000.0 4000.0 4000.0 4000.0 4000.0 4000.0 4000.0 4000.0 4000.0 4000.0 4000.0 4000.0 4000.0 4000.0 4000.0 4000.0 4000.0 4000.0 4000.0 4000.0 4000.0 4000.0 4000.0 4000.0 4000.0 4000.0 4000.0 4000.0 4000.0 4000.0 4000.0 4000.0 4000.0 4000.0 4000.0 4000.0 4000.0 4000.0 4000.0 4000.0 4000.0 4000.0 4000.0 4000.0 4000.0 4000.0 4000.0 4000.0 4000.0 4000.0 4000.0 4000.0 4000.0 4000.0 4000.0 4000.0 4000.0 4000.0 4000.0 4000.0 4000.0 4000.0 4000.0 4000.0 4000.0 4000.0 4000.0 4000.0 4000.0 4000.0 4000.0 4000.0 4000.0 4000.0 4000.0 4000.0 4000.0 4000.0 4000.0 4000.0 4000.0 4000.0 4000.0 4000.0 4000.0 4000.0 4000.0 4000.0 4000.0 4000.0 4000.0 4000.0 4000.0 4000.0 4000.0 4000.0 4000.0 4000.0 4000.0 4000.0 4000.0 4000.0 4000.0 4000.0 4000.0 4000.0 4000.0 4000.0 4000.0 4000.0 4000.0 4000.0 4000.0 4000.0 4000.0 4000.0 4000.0 4000.0 4000.0 4000.0 4000.0 4000.0 4000.0 4000.0 4000.0 4000.0 4000.0 4000.0 4000.0 4000.0 4000.0 4000.0 4000.0 4000.0 4000.0 4000.0 4000.0 4000.0 4000.0 4000.0 4000.0 4000.0 4000.0 4000.0 4000.0 4000.0 4000.0 4000.0 4000.0 4000.0 4000.0 4000.0 4000.0 4000.0 4000.0 4000.0 4000.0 4000.0 4000.0 4000.0 4000.0 4000.0 4000.0 4000.0 4000.0 4000.0 4000.0 4000.0 4000.0 4000.0 4000.0 4000.0 4000.0 4000.0 4000.0 4000.0 4000.0 4000.0 4000.0 4000.0 4000.0 4000.0 4000.0 4000.0 4000.0 4000.0 4000.0 4000.0 4000.0 4000.0 4000.0 4000.0 4000.0 4000.0 4000.0 4000.0 4000.0 4000.0 4000.0 4000.0 4000.0 4000.0 4000.0 4000.0 4000.0 4000.0 4000.0 4000.0 4000.0 4000.0 4000.0 4000.0 4000.0 4000.0 4000.0 4000.0 4000.0 4000.0 4000.0 4000.0 4000.0 4000.0 4000.0 4000.0 4000.0 4000.0 4000.0 4000.0 4000.0 4000.0 4000.0 4000.0 4000.0 4000.0 4000.0 4000.0 4000.0 4000.0 4000.0 4000.0 4000.0 4000.0 4000.0 4000.0 4000.0 4000.0 4000.0 4000.0 4000.0 4000.0 4000.0 4000.0 4000.0 4000.0 4000.0 4000.0 4000.0 4000.0 4000.0 4000.0 4000.0 4000.0 4000.0 4000.0 4000.0 4000.0 4000.0 4000.0 4000.0 4000.0 4000.0 4000.0 4000.0 4000.0 4000.0 4000.0 4000.0 4000.0 4000.0 4000.0 4000.0 4000.0 4000.0 4000.0 4000.0 4000.0 4000.0 4000.0 4000.0 4000.0 4000.0 4000.0 4000.0 4000.0 4000.0 4000.0 4000.0 4000.0 4000.0 4000.0 4000.0 4000.0 4000.0 4000.0 4000.0 4000.0 4000.0 4000.0 4000.0 4000.0 4000.0 4000.0 4000.0 4000.0 4000.0 4000.0 4000.0 4000.0 4000.0 4000.0 4000.0 4000.0 4000.0 4000.0 4000.0 4000.0 4000.0 4000.0 4000.0 4000.0 4000.0 4000.0 4000.0 4000.0 4000.0 4000.0 4000.0 4000.0 4000.0 4000.0 4000.0 4000.0 4000.0 4000.0 4000.0 4000.0 4000.0 4000.0 4000.0 4000.0 4000.0 4000.0 4000.0 4000.0 4000.0 4000.0 4000.0 4000.0 4000.0 4000.0 4000.0 4000.0 4000.0 4000.0 4000.0 4000.0 4000.0 4000.0 4000.0 4000.0 4000.0 4000.0 4000.0 4000.0 4000.0 4000.0 4000.0 4000.0 4000.0 4000.0 4000.0 4000.0 4000.0 4000.0 4000.0 4000.0 4000.0 4000.0 4000.0 4000.0 4000.0 4000.0 4000.0 4000.0 4000.0 4000.0 4000.0 4000.0 4000.0 4000.0 4000.0 4000.0 4000.0 4000.0 4000.0 4000.0 4000.0 4000.0 4000.0 4000.0 4000.0 4000.0 4000.0 4000.0 4000.0 4000.0 4000.0 4000.0 4000.0 4000.0 4000.0 4000.0 4000.0 4000.0 4000.0 4000.0 4000.0 4000.0 4000.0 4000.0 4000.0 4000.0 4000.0 4000.0 4000.0 4000.0 4000.0 4000.0 4000.0 4000.0 4000.0 4000.0 4000.0 4000.0 4000.0 4000.0 4000.0 4000.0 4000.0 4000.0 4000.0 4000.0 4000.0 4000.0 4000.0 4000.0 4000.0 4000.0 4000.0 4000.0 4000.0 4000.0 4000.0 4000.0 4000.0 4000.0 4000.0 4000.0 4000.0 4000.0 4000.0 4000.0 4000.0 4000.0 4000.0 4000.0 4000.0 4000.0 4000.0 4000.0 4000.0 4000.0 4000.0 4000.0 4000.0 4000.0 4000.0 4000.0 4000.0 4000.0 4000.0 4000.0 4000.0 4000.0 4000.0 4000.0 4000.0 4000.0 4000.0 4000.0 4000.0 4000.0 4000.0 4000.0 4000.0 4000.0 4000.0 4000.0 4000.0 4000.0 4000.0 4000.0 4000.0 4000.0 4000.0 4000.0 4000.0 4000.0 4000.0 4000.0 4000.0 4000.0 4000.0 4000.0 4000.0 4000.0 4000.0 4000.0 4000.0 4000.0 4000.0 4000.0 4000.0 4000.0 4000.0 4000.0 4000.0 4000.0 4000.0 4000.0 4000.0 4000.0 4000.0 4000.0 4000.0 4000.0 4000.0 4000.0 4000.0 4000.0 4000.0 4000.0 4000.0 4000.0 4000.0 4000.0 4000.0 4000.0 4000.0 4000.0 4000.0 4000.0 4000.0 4000.0 4000.0 4000.0 4000.0 4000.0 4000.0 4000.0 4000.0 4000.0 4000.0 4000.0 4000.0 4000.0 4000.0 4000.0 4000.0 4000.0 4000.0 4000.0 4000.0 4000.0 4000.0 4000.0 4000.0 4000.0 4000.0 4000.0 4000.0 4000.0 4000.0 4000.0 4000.0 4000.0 4000.0 4000.0 4000.0 4000.0 4000.0 4000.0 4000.0 4000.0 4000.0 4000.0 4000.0 4000.0 4000.0 4000.0 4000.0 4000.0 4000.0 4000.0 4000.0 4000.0 4000.0 4000.0 4000.0 4000.0 4000.0 4000.0 4000.0 4000.0 4000.0 4000.0 4000.0 4000.0 4000.0 4000.0 4000.0 4000.0 4000.0 4000.0 4000.0 4000.0 4000.0 4000.0 4000.0 4000.0 4000.0 4000.0 4000.0 4000.0 4000.0 4000.0 4000.0 4000.0 4000.0 4000.0 4000.0 4000.0 4000.0 4000.0 4000.0 4000.0 4000.0 4000.0 4000.0 4000.0 4000.0 4000.0 4000.0 4000.0 4000.0 4000.0 4000.0 4000.0 4000.0 4000.0 4000.0 4000.0 4000.0 4000.0 4000.0 4000.0 4000.0 4000.0 4000.0 4000.0 4000.0 4000.0 4000.0 4000.0 4000.0 4000.0 4000.0 4000.0 4000.0 4000.0 4000.0 4000.0 4000.0 4000.0 4000.0 4000.0 4000.0 4000.0 4000.0 4000.0 4000.0 4000.0 4000.0 4000.0 4000.0 4000.0 4000.0 4000.0 4000.0 4000.0 4000.0 4000.0 4000.0 4000.0 4000.0 4000.0 4000.0 4000.0 4000.0 4000.0 4000.0 4000.0 4000.0 4000.0 4000.0 4000.0 4000.0 4000.0 4000.0 4000.0 4000.0 4000.0 4000.0 4000.0 4000.0 4000.0 4000.0 4000.0 4000.0 4000.0 4000.0 4000.0 4000.0 4000.0 4000.0 4000.0 4000.0 4000.0 4000.0 4000.0 4000.0 4000.0 4000.0 4000.0 4000.0 4000.0 4000.0 4000.0 4000.0 4000.0 4000.0 4000.0 4000.0 4000.0 4000.0 4000.0 4000.0 4000.0 4000.0 4000.0 4000.0 4000.0 4000.0 4000.0 4000.0 4000.0 4000.0 4000.0 4000.0 4000.0 4000.0 4000.0 4000.0 4000.0 4000.0 4000.0 4000.0 4000.0 4000.0 4000.0 4000.0 4000.0 4000.0 4000.0 4000.0 4000.0 4000.0 4000.0 4000.0 4000.0 4000.0 4000.0 4000.0 4000.0 4000.0 4000.0 4000.0 4000.0 4000.0 4000.0 4000.0 4000.0 4000.0 4000.0 4000.0 4000.0 4000.0 4000.0 4000.0 4000.0 4000.0 4000.0 4000.0 4000.0 4000.0 4000.0 4000.0 4000.0 4000.0 4000.0 4000.0 4000.0 4000.0 4000.0 4000.0 4000.0 4000.0 4000.0 4000.0 4000.0 4000.0 4000.0 4000.0 4000.0 4000.0 4000.0 4000.0 4000.0 4000.0 4000.0 4000.0 4000.0 4000.0 4000.0 4000.0 4000.0 4000.0 4000.0 4000.0 4000.0 4000.0 4000.0 4000.0 4000.0 4000.0 4000.0 4000.0 4000.0 4000.0 4000.0 4000.0 4000.0 4000.0 4000.0 4000.0 4000.0 4000.0 4000.0 4000.0 4000.0 4000.0 4000.0 4000.0 4000.0 4000.0 4000.0 4000.0 4000.0 4000.0 4000.0 4000.0 4000.0 4000.0 4000.0 4000.0 4000.0 4000.0 4000.0 4000.0 4000.0 4000.0 4000.0 4000.0 4000.0 4000.0 4000.0 4000.0 4000.0 4000.0 4000.0 4000.0 4000.0 4000.0 4000.0 4000.0 4000.0 4000.0 4000.0 4000.0 4000.0 4000.0 4000.0 4000.0 4000.0 4000.0 4000.0 4000.0 4000.0 4000.0 4000.0 4000.0 4000.0 4000.0 4000.0 4000.0 4000.0 4000.0 4000.0 4000.0 4000.0 4000.0 4000.0 4000.0 4000.0 4000.0 4000.0 4000.0 4000.0 4000.0 4000.0 4000.0 4000.0 4000.0 4000.0 4000.0 4000.0 4000.0 4000.0 4000.0 4000.0 4000.0 4000.0 4000.0 4000.0 4000.0 4000.0 4000.0 4000.0 4000.0 4000.0 4000.0 4000.0 4000.0 4000.0 4000.0 4000.0 4000.0 4000.0 4000.0 4000.0 4000.0 4000.0 4000.0 4000.0 4000.0 4000.0 4000.0 4000.0 4000.0 4000.0 4000.0 4000.0 4000.0 4000.0 4000.0 4000.0 4000.0 4000.0 4000.0 4000.0 4000.0 4000.0 4000.0 4000.0 4000.0 4000.0 4000.0 4000.0 4000.0 4000.0 4000.0 4000.0 4000.0 4000.0 4000.0 4000.0 4000.0 4000.0 4000.0 4000.0 4000.0 4000.0 4000.0 4000.0 4000.0 4000.0 4000.0 4000.0 4000.0 4000.0 4000.0 4000.0 4000.0 4000.0 4000.0 4000.0 4000.0 4000.0 4000.0 4000.0 4000.0 4000.0 4000.0 4000.0 4000.0 4000.0 4000.0 4000.0 4000.0 4000.0 4000.0 4000.0 4000.0 4000.0 4000.0 4000.0 4000.0 4000.0 4000.0 4000.0 4000.0 4000.0 4000.0 4000.0 4000.0 4000.0 4000.0 4000.0 4000.0 4000.0 4000.0 4000.0 4000.0 4000.0 4000.0 4000.0 4000.0 4000.0 4000.0 4000.0 4000.0 4000.0 4000.0 4000.0 4000.0 4000.0 4000.0 4000.0 4000.0 4000.0 4000.0 4000.0 4000.0 4000.0 4000.0 4000.0 4000.0 4000.0 4000.0 4000.0 4000.0 4000.0 4000.0 4000.0 4000.0 4000.0 4000.0 4000.0 4000.0 4000.0 4000.0 4000.0 4000.0 4000.0 4000.0 4000.0 4000.0 4000.0 4000.0 4000.0 4000.0 4000.0 4000.0 4000.0 4000.0 4000.0 4000.0 4000.0 4000.0 4000.0 4000.0 4000.0 4000.0 4000.0 4000.0 4000.0 4000.0 4000.0 4000.0 4000.0 4000.0 4000.0 4000.0 4000.0 4000.0 4000.0 4000.0 4000.0 4000.0 4000.0 4000.0 4000.0 4000.0 4000.0 4000.0 4000.0 4000.0 4000.0 4000.0 4000.0 4000.0 4000.0 4000.0 4000.0 4000.0 4000.0 4000.0 4000.0 4000.0 4000.0 4000.0 4000.0 4000.0 4000.0 4000.0 4000.0 4000.0 4000.0 4000.0 4000.0 4000.0 4000.0 4000.0 4000.0 4000.0 4000.0 4000.0 4000.0 4000.0 4000.0 4000.0 4000.0 4000.0 4000.0 4000.0 4000.0 4000.0 4000.0 4000.0 4000.0 4000.0 4000.0 4000.0 4000.0 4000.0 4000.0 4000.0 4000.0 4000.0 4000.0 4000.0 4000.0 4000.0 4000.0 4000.0 4000.0 4000.0 4000.0 4000.0 4000.0 4000.0 4000.0 4000.0 4000.0 4000.0 4000.0 4000.0 4000.0 4000.0 4000.0 4000.0 4000.0 4000.0 4000.0 4000.0 4000.0 4000.0 4000.0 4000.0 4000.0 4000.0 4000.0 4000.0 4000.0 4000.0 4000.0 4000.0 4000.0 4000.0 4000.0 4000.0 4000.0 4000.0 4000.0 4000.0 4000.0 4000.0 4000.0 4000.0 4000.0 4000.0 4000.0 4000.0 4000.0 4000.0 4000.0 4000.0 4000.0 4000.0 4000.0 4000.0 4000.0 4000.0 4000.0 4000.0 4000.0 4000.0 4000.0 4000.0 4000.0 4000.0 4000.0 4000.0 4000.0 4000.0 4000.0 4000.0 4000.0 4000.0 4000.0 4000.0 4000.0 4000.0 4000.0 4000.0 4000.0 4000.0 4000.0 4000.0 4000.0 4000.0 4000.0 4000.0 4000.0 4000.0 4000.0 4000.0 4000.0 4000.0 4000.0 4000.0 4000.0 4000.0 4000.0 4000.0 4000.0 4000.0 4000.0 4000.0 4000.0 4000.0 4000.0 4000.0 4000.0 4000.0 4000.0 4000.0 4000.0 4000.0 4000.0 4000.0 4000.0 4000.0 4000.0 4000.0 4000.0 4000.0 4000.0 4000.0 4000.0 4000.0 4000.0 4000.0 4000.0 4000.0 4000.0 4000.0 4000.0 4000.0 4000.0 4000.0 4000.0 4000.0 4000.0 4000.0 4000.0 4000.0 4000.0 4000.0 4000.0 4000.0 4000.0 4000.0 4000.0 4000.0 4000.0 4000.0 4000.0 4000.0 4000.0 4000.0 4000.0 4000.0 4000.0 4000.0 4000.0 4000.0 4000.0 4000.0 4000.0 4000.0 4000.0 4000.0 4000.0 4000.0 4000.0 4000.0 4000.0 4000.0 4000.0 4000.0 4000.0 4000.0 4000.0 4000.0 4000.0 4000.0 4000.0 4000.0 4000.0 4000.0 4000.0 4000.0 4000.0 4000.0 4000.0 4000.0 4000.0 4000.0 4000.0 4000.0 4000.0 4000.0 4000.0 4000.0 4000.0 4000.0 4000.0 4000.0 4000.0 4000.0 4000.0 4000.0 4000.0 4000.0 4000.0 4000.0 4000.0 4000.0 4000.0 4000.0 4000.0 4000.0 4000.0 4000.0 4000.0 4000.0 4000.0 4000.0 4000.0 4000.0 4000.0 4000.0 4000.0 4000.0 4000.0 4000.0 4000.0 4000.0 4000.0 4000.0 4000.0 4000.0 4000.0 4000.0 4000.0 4000.0 4000.0 4000.0 4000.0 4000.0 4000.0 4000.0 4000.0 4000.0 4000.0 4000.0 4000.0 4000.0 4000.0 4000.0 4000.0 4000.0 4000.0 4000.0 4000.0 4000.0 4000.0 4000.0 4000.0 4000.0 4000.0 4000.0 4000.0 4000.0 4000.0 4000.0 4000.0 4000.0 4000.0 4000.0 4000.0 4000.0 4000.0 4000.0 4000.0 4000.0 4000.0 4000.0 4000.0 4000.0 4000.0 4000.0 4000.0 4000.0 4000.0 4000.0 4000.0 4000.0 4000.0 4000.0 4000.0 4000.0 4000.0 4000.0 4000.0 4000.0 4000.0 4000.0 4000.0 4000.0 4000.0 4000.0 4000.0 4000.0 4000.0 4000.0 4000.0 4000.0 4000.0 4000.0 4000.0 4000.0 4000.0 4000.0 4000.0 4000.0 4000.0 4000.0 4000.0 4000.0 4000.0 4000.0 4000.0 4000.0 4000.0 4000.0 4000.0 4000.0 4000.0 4000.0 4000.0 4000.0 4000.0 4000.0 4000.0 4000.0 4000.0 4000.0 4000.0 4000.0 4000.0 4000.0 4000.0 4000.0 4000.0 4000.0 4000.0 4000.0 4000.0 4000.0 4000.0 4000.0 4000.0 4000.0 4000.0 4000.0 4000.0 4000.0 4000.0 4000.0 4000.0 4000.0 4000.0 4000.0 4000.0 4000.0 4000.0 4000.0 4000.0 4000.0 4000.0 4000.0 4000.0 4000.0 4000.0 4000.0 4000.0 4000.0 4000.0 4000.0 4000.0 4000.0 4000.0 4000.0 4000.0 4000.0 4000.0 4000.0 4000.0 4000.0 4000.0 4000.0 4000.0 4000.0 4000.0 4000.0 4000.0 4000.0 4000.0 4000.0 4000.0 4000.0 4000.0 4000.0 4000.0 4000.0 4000.0 4000.0 4000.0 4000.0 4000.0 4000.0 4000.0 4000.0 4000.0 4000.0 4000.0 4000.0 4000.0 4000.0 4000.0 4000.0 4000.0 4000.0 4000.0 4000.0 4000.0 4000.0 4000.0 4000.0 4000.0 4000.0 4000.0 4000.0 4000.0 4000.0 4000.0 4000.0 4000.0 4000.0 4000.0 4000.0 4000.0 4000.0 4000.0 4000.0 4000.0 4000.0 4000.0 4000.0 4000.0 4000.0 4000.0 4000.0 4000.0 4000.0 4000.0 4000.0 4000.0 4000.0 4000.0 4000.0 4000.0 4000.0 4000.0 4000.0 4000.0 4000.0 4000.0 4000.0 4000.0 4000.0 4000.0 4000.0 4000.0 4000.0 4000.0 4000.0 4000.0 4000.0 4000.0 4000.0 4000.0 4000.0 4000.0 4000.0 4000.0 4000.0 4000.0 4000.0 4000.0 4000.0 4000.0 4000.0 4000.0 4000.0 4000.0 4000.0 4000.0 4000.0 4000.0 4000.0 4000.0 4000.0 4000.0 4000.0 4000.0 4000.0 4000.0 4000.0 4000.0 4000.0 4000.0 4000.0 4000.0 4000.0 4000.0 4000.0 4000.0 4000.0 4000.0 4000.0 4000.0 4000.0 4000.0 4000.0 4000.0 4000.0 4000.0 4000.0 4000.0 4000.0 4000.0 4000.0 4000.0 4000.0 4000.0 4000.0 4000.0 4000.0 4000.0 4000.0 4000.0 4000.0 4000.0 4000.0 4000.0 4000.0 4000.0 4000.0 4000.0 4000.0 4000.0 4000.0 4000.0 4000.0 4000.0 4000.0 4000.0 4000.0 4000.0 4000.0 4000.0 4000.0 4000.0 4000.0 4000.0 4000.0 4000.0 4000.0 4000.0 4000.0 4000.0 4000.0 4000.0 4000.0 4000.0 4000.0 4000.0 4000.0 4000.0 4000.0 4000.0 4000.0 4000.0 4000.0 4000.0 4000.0 4000.0 4000.0 4000.0 4000.0 4000.0 4000.0 4000.0 4000.0 4000.0 4000.0 4000.0 4000.0 4000.0 4000.0 4000.0 4000.0 4000.0 4000.0 4000.0 4000.0 4000.0 4000.0 4000.0 4000.0 4000.0 4000.0 4000.0 4000.0 4000.0 4000.0 4000.0 4000.0 4000.0 4000.0 4000.0 4000.0 4000.0 4000.0 4000.0 4000.0 4000.0 4000.0 4000.0 4000.0 4000.0 4000.0 4000.0 4000.0 4000.0 4000.0 4000.0 4000.0 4000.0 4000.0 4000.0 4000.0 4000.0 4000.0 4000.0 4000.0 4000.0 4000.0 4000.0 4000.0 4000.0 4000.0 4000.0 4000.0 4000.0 4000.0 4000.0 4000.0 4000.0 4000.0 4000.0 4000.0 4000.0 4000.0 4000.0 4000.0 4000.0 4000.0 4000.0 4000.0 4000.0 4000.0 4000.0 4000.0 4000.0 4000.0 4000.0 4000.0 4000.0 4000.0 4000.0 4000.0 4000.0 4000.0 4000.0 4000.0 4000.0 4000.0 4000.0 4000.0 4000.0 4000.0 4000.0 4000.0 4000.0 4000.0 4000.0 4000.0 4000.0 4000.0 4000.0 4000.0 4000.0 4000.0 4000.0 4000.0 4000.0 4000.0 4000.0 4000.0 4000.0 4000.0 4000.0 4000.0 4000.0 4000.0 4000.0 4000.0 4000.0 4000.0 4000.0 4000.0 4000.0 4000.0 4000.0 4000.0 4000.0 4000.0 4000.0 4000.0 4000.0 4000.0 4000.0 4000.0 4000.0 4000.0 4000.0 4000.0 4000.0 4000.0 4000.0 4000.0 4000.0 4000.0 4000.0 4000.0 4000.0 4000.0 4000.0 4000.0 4000.0 4000.0 4000.0 4000.0 4000.0 4000.0 4000.0 4000.0 4000.0 4000.0 4000.0 4000.0 4000.0 4000.0 4000.0 4000.0 4000.0 4000.0 4000.0 4000.0 4000.0 4000.0 4000.0 4000.0 4000.0 4000.0 4000.0 4000.0 4000.0 4000.0 4000.0 4000.0 4000.0 4000.0 4000.0 4000.0 4000.0 4000.0 4000.0 4000.0 4000.0 4000.0 4000.0 4000.0 4000.0 4000.0 4000.0 4000.0 4000.0 4000.0 4000.0 4000.0 4000.0 4000.0 4000.0 4000.0 4000.0 4000.0 4000.0 4000.0 4000.0 4000.0 4000.0 4000.0 4000.0 4000.0 4000.0 4000.0 4000.0 4000.0 4000.0 4000.0 4000.0 4000.0 4000.0 4000.0 4000.0 4000.0 4000.0 4000.0 4000.0 4000.0 4000.0 4000.0 4000.0 4000.0 4000.0 4000.0 4000.0 4000.0 4000.0 4000.0 4000.0 4000.0 4000.0 4000.0 4000.0 4000.0 4000.0 4000.0 4000.0 4000.0 4000.0 4000.0 4000.0 4000.0 4000.0 4000.0 4000.0 4000.0 4000.0 4000.0 4000.0 4000.0 4000.0 4000.0 4000.0 4000.0 4000.0 4000.0 4000.0 4000.0 4000.0 4000.0 4000.0 4000.0 4000.0 4000.0 4000.0 4000.0 4000.0 4000.0 4000.0 4000.0 4000.0 4000.0 4000.0 4000.0 4000.0 4000.0 4000.0 4000.0 4000.0 4000.0 4000.0 4000.0 4000.0 4000.0 4000.0 4000.0 4000.0 4000.0 4000.0 4000.0 4000.0 4000.0 4000.0 4000.0 4000.0 4000.0 4000.0 4000.0 4000.0 4000.0 4000.0 4000.0 4000.0 4000.0 4000.0 4000.0 4000.0 4000.0 4000.0 4000.0 4000.0 4000.0 4000.0 4000.0 4000.0 4000.0 4000.0 4000.0 4000.0 4000.0 4000.0 4000.0 4000.0 4000.0 4000.0 4000.0 4000.0 4000.0 4000.0 4000.0 4000.0 4000.0 4000.0 4000.0 4000.0 4000.0 4000.0 4000.0 4000.0 4000.0 4000.0 4000.0 4000.0 4000.0 4000.0 4000.0 4000.0 4000.0 4000.0 4000.0 4000.0 4000.0 4000.0 4000.0 4000.0 4000.0 4000.0 4000.0 4000.0 4000.0 4000.0 4000.0 4000.0 4000.0 4000.0 4000.0 4000.0 4000.0 4000.0 4000.0 4000.0 4000.0 4000.0 4000.0 4000.0 4000.0 4000.0 4000.0 4000.0 4000.0 4000.0 4000.0 4000.0 4000.0 4000.0 4000.0 4000.0 4000.0 4000.0 4000.0 4000.0 4000.0 4000.0 4000.0 4000.0 4000.0 4000.0 4000.0 4000.0 4000.0 4000.0 4000.0 4000.0 4000.0 4000.0 4000.0 4000.0 4000.0 4000.0 4000.0 4000.0 4000.0 4000.0 4000.0 4000.0 4000.0 4000.0 4000.0 4000.0 4000.0 4000.0 4000.0 4000.0 4000.0 4000.0 4000.0 4000.0 4000.0 4000.0 4000.0 4000.0 4000.0 4000.0 4000.0 4000.0 4000.0 4000.0 4000.0 4000.0 4000.0 4000.0 4000.0 4000.0 4000.0 4000.0 4000.0 4000.0 4000.0 4000.0 4000.0 4000.0 4000.0 4000.0 4000.0 4000.0 4000.0 4000.0 4000.0 4000.0 4000.0 4000.0 4000.0 4000.0 4000.0 4000.0 4000.0 4000.0 4000.0 4000.0 4000.0 4000.0 4000.0 4000.0 4000.0 4000.0 4000.0 4000.0 4000.0 4000.0 4000.0 4000.0 4000.0 4000.0 4000.0 4000.0 4000.0 4000.0 4000.0 4000.0 4000.0 4000.0 4000.0 4000.0 4000.0 4000.0 4000.0 4000.0 4000.0 4000.0 4000.0 4000.0 4000.0 4000.0 4000.0 4000.0 4000.0 4000.0 4000.0 4000.0 4000.0 4000.0 4000.0 4000.0 4000.0 4000.0 4000.0 4000.0 4000.0 4000.0 4000.0 4000.0 4000.0 4000.0 4000.0 4000.0 4000.0 4000.0 4000.0 4000.0 4000.0 4000.0 4000.0 4000.0 4000.0 4000.0 4000.0 4000.0 4000.0 4000.0 4000.0 4000.0 4000.0 4000.0 4000.0 4000.0 4000.0 4000.0 4000.0 4000.0 4000.0 4000.0 4000.0 4000.0 4000.0 4000.0 4000.0 4000.0 4000.0 4000.0 4000.0 4000.0 4000.0 4000.0 4000.0 4000.0 4000.0 4000.0 4000.0 4000.0 4000.0 4000.0 4000.0 4000.0 4000.0 4000.0 4000.0 4000.0 4000.0 4000.0 4000.0 4000.0 4000.0 4000.0 4000.0 4000.0 4000.0 4000.0 4000.0 4000.0 4000.0 4000.0 4000.0 4000.0 4000.0 4000.0 4000.0 4000.0 4000.0 4000.0 4000.0 4000.0 4000.0 4000.0 4000.0 4000.0 4000.0 4000.0 4000.0 4000.0 4000.0 4000.0 4000.0 4000.0 4000.0 4000.0 4000.0 4000.0 4000.0 4000.0 4000.0 4000.0 4000.0 4000.0 4000.0 4000.0 4000.0 4000.0 4000.0 4000.0 4000.0 4000.0 4000.0 4000.0 4000.0 4000.0 4000.0 4000.0 4000.0 4000.0 4000.0 4000.0 4000.0 4000.0 4000.0 4000.0 4000.0 4000.0 4000.0 4000.0 4000.0 4000.0 4000.0 4000.0 4000.0 4000.0 4000.0 4000.0 4000.0 4000.0 4000.0 4000.0 4000.0 4000.0 4000.0 4000.0 4000.0 4000.0 4000.0 4000.0 4000.0 4000.0 4000.0 4000.0 4000.0 4000.0 4000.0 4000.0 4000.0 4000.0 4000.0 4000.0 4000.0 4000.0 4000.0 4000.0 4000.0 4000.0 4000.0 4000.0 4000.0 4000.0 4000.0 4000.0 4000.0 4000.0 4000.0 4000.0 4000.0 4000.0 4000.0 4000.0 4000.0 4000.0 4000.0 4000.0 4000.0 4000.0 4000.0 4000.0 4000.0 4000.0 4000.0 4000.0 4000.0 4000.0 4000.0 4000.0 4000.0 4000.0 4000.0 4000.0 4000.0 4000.0 4000.0 4000.0 4000.0 4000.0 4000.0 4000.0 4000.0 4000.0 4000.0 4000.0 4000.0 4000.0 4000.0 4000.0 4000.0 4000.0 4000.0 4000.0 4000.0 4000.0 4000.0 4000.0 4000.0 4000.0 4000.0 4000.0 4000.0 4000.0 4000.0 4000.0 4000.0 4000.0 4000.0 4000.0 4000.0 4000.0 4000.0 4000.0 4000.0 4000.0 4000.0 4000.0 4000.0 4000.0 4000.0 4000.0 4000.0 4000.0 4000.0 4000.0 4000.0 4000.0 4000.0 4000.0 4000.0 4000.0 4000.0 4000.0 4000.0 4000.0 4000.0 4000.0 4000.0 4000.0 4000.0 4000.0 4000.0 4000.0 4000.0 4000.0 4000.0 4000.0 4000.0 4000.0 4000.0 4000.0 4000.0 4000.0 4000.0 4000.0 4000.0 4000.0 4000.0 4000.0 4000.0 4000.0 4000.0 4000.0 4000.0 4000.0 4000.0 4000.0 4000.0 4000.0 4000.0 4000.0 4000.0 4000.0 4000.0 4000.0 4000.0 4000.0 4000.0 4000.0 4000.0 4000.0 4000.0 4000.0 4000.0 4000.0 4000.0 4000.0 4000.0 4000.0 4000.0 4000.0 4000.0 4000.0 4000.0 4000.0 4000.0 4000.0 4000.0 4000.0 4000.0 4000.0 4000.0 4000.0 4000.0 4000.0 4000.0 4000.0 4000.0 4000.0 4000.0 4000.0 4000.0 4000.0 4000.0 4000.0 4000.0 4000.0 4000.0 4000.0 4000.0 4000.0 4000.0 4000.0 4000.0 4000.0 4000.0 4000.0 4000.0 4000.0 4000.0 4000.0 4000.0 4000.0 4000.0 4000.0 4000.0 4000.0 4000.0 4000.0 4000.0 4000.0 4000.0 4000.0 4000.0 4000.0 4000.0 4000.0 4000.0 4000.0 4000.0 4000.0 4000.0 4000.0 4000.0 4000.0 4000.0 4000.0 4000.0 4000.0 4000.0 4000.0 4000.0 4000.0 4000.0 4000.0 4000.0 4000.0 4000.0 4000.0 4000.0 4000.0 4000.0 4000.0 4000.0 4000.0 4000.0 4000.0 4000.0 4000.0 4000.0 4000.0 4000.0 4000.0 4000.0 4000.0 4000.0 4000.0 4000.0 4000.0 4000.0 4000.0 4000.0 4000.0 4000.0 4000.0 4000.0 4000.0 4000.0 4000.0 4000.0 4000.0 4000.0 4000.0 4000.0 4000.0 4000.0 4000.0 4000.0 4000.0 4000.0 4000.0 4000.0 4000.0 4000.0 4000.0 4000.0 4000.0 4000.0 4000.0 4000.0 4000.0 4000.0 4000.0 4000.0 4000.0 4000.0 4000.0 4000.0 4000.0 4000.0 4000.0 4000.0 4000.0 4000.0 4000.0 4000.0 4000.0 4000.0 4000.0 4000.0 4000.0 4000.0 4000.0 4000.0 4000.0 4000.0 4000.0 4000.0 4000.0 4000.0 4000.0 4000.0 4000.0 4000.0 4000.0 4000.0 4000.0 4000.0 4000.0 4000.0 4000.0 4000.0 4000.0 4000.0 4000.0 4000.0 4000.0 4000.0 4000.0 4000.0 4000.0 4000.0 4000.0 4000.0 4000.0 4000.0 4000.0 4000.0 4000.0 4000.0 4000.0 4000.0 4000.0 4000.0 4000.0 4000.0 4000.0 4000.0 4000.0 4000.0 4000.0 4000.0 4000.0 4000.0 4000.0 4000.0 4000.0 4000.0 4000.0 4000.0 4000.0 4000.0 4000.0 4000.0 4000.0 4000.0 4000.0 4000.0 4000.0 4000.0 4000.0 4000.0 4000.0 4000.0 4000.0 4000.0 4000.0 4000.0 4000.0 4000.0 4000.0 4000.0 4000.0 4000.0 4000.0 4000.0 4000.0 4000.0 4000.0 4000.0 4000.0 4000.0 4000.0 4000.0 4000.0 4000.0 4000.0 4000.0 4000.0 4000.0 4000.0 4000.0 4000.0 4000.0 4000.0 4000.0 4000.0 4000.0 4000.0 4000.0 4000.0 4000.0 4000.0 4000.0 4000.0 4000.0 4000.0 4000.0 4000.0 4000.0 4000.0 4000.0 4000.0 4000.0 4000.0 4000.0 4000.0 4000.0 4000.0 4000.0 4000.0 4000.0 4000.0 4000.0 4000.0 4000.0 4000.0 4000.0 4000.0 4000.0 4000.0 4000.0 4000.0 4000.0 4000.0 4000.0 4000.0 4000.0 4000.0 4000.0 4000.0 4000.0 4000.0 4000.0 4000.0 4000.0 4000.0 4000.0 4000.0 4000.0 4000.0 4000.0 4000.0 4000.0 4000.0 4000.0 4000.0 4000.0 4000.0 4000.0 4000.0 4000.0 4000.0 4000.0 4000.0 4000.0 4000.0 4000.0 4000.0 4000.0 4000.0 4000.0 4000.0 4000.0 4000.0 4000.0 4000.0 4000.0 4000.0 4000.0 4000.0 4000.0 4000.0 4000.0 4000.0 4000.0 4000.0 4000.0 4000.0 4000.0 4000.0 4000.0 4000.0 4000.0 4000.0 4000.0 4000.0 4000.0 4000.0 4000.0 4000.0 4000.0 4000.0 4000.0 4000.0 4000.0 4000.0 4000.0 4000.0 4000.0 4000.0 4000.0 4000.0 4000.0 4000.0 4000.0 4000.0 4000.0 4000.0 4000.0 4000.0 4000.0 4000.0 4000.0 4000.0 4000.0 4000.0 4000.0 4000.0 4000.0 4000.0 4000.0 4000.0 4000.0 4000.0 4000.0 4000.0 4000.0 4000.0 4000.0 4000.0 4000.0 4000.0 4000.0 4000.0 4000.0 4000.0 4000.0 4000.0 4000.0 4000.0 4000.0 4000.0 4000.0 4000.0 4000.0 4000.0 4000.0 4000.0 4000.0 4000.0 4000.0 4000.0 4000.0 4000.0 4000.0 4000.0 4000.0 4000.0 4000.0 4000.0 4000.0 4000.0 4000.0 4000.0 4000.0 4000.0 4000.0 4000.0 4000.0 4000.0 4000.0 4000.0 4000.0 4000.0 4000.0 4000.0 4000.0 4000.0 4000.0 4000.0 4000.0 4000.0 4000.0 4000.0 4000.0 4000.0 4000.0 4000.0 4000.0 4000.0 4000.0 4000.0 4000.0 4000.0 4000.0 4000.0 4000.0 4000.0 4000.0 4000.0 4000.0 4000.0 4000.0 4000.0 4000.0 4000.0 4000.0 4000.0 4000.0 4000.0 4000.0 4000.0 4000.0 4000.0 4000.0 4000.0 4000.0 4000.0 4000.0 4000.0 4000.0 4000.0 4000.0 4000.0 4000.0 4000.0 4000.0 4000.0 4000.0 4000.0 4000.0 4000.0 4000.0 4000.0 4000.0 4000.0 4000.0 4000.0 4000.0 4000.0 4000.0 4000.0 4000.0 4000.0 4000.0 4000.0 4000.0 4000.0 4000.0 4000.0 4000.0 4000.0 4000.0 4000.0 4000.0 4000.0 4000.0 4000.0 4000.0 4000.0 4000.0 4000.0 4000.0 4000.0 4000.0 4000.0 4000.0 4000.0 4000.0 4000.0 4000.0 4000.0 4000.0 4000.0 4000.0 4000.0 4000.0 4000.0 4000.0 4000.0 4000.0 4000.0 4000.0 4000.0 4000.0 4000.0 4000.0 4000.0 4000.0 4000.0 4000.0 4000.0 4000.0 4000.0 4000.0 4000.0 4000.0 4000.0 4000.0 4000.0 4000.0 4000.0 4000.0 4000.0 4000.0 4000.0 4000.0 4000.0 4000.0 4000.0 4000.0 4000.0 4000.0 4000.0 4000.0 4000.0 4000.0 4000.0 4000.0 4000.0 4000.0 4000.0 4000.0 4000.0 4000.0 4000.0 4000.0 4000.0 4000.0 4000.0 4000.0 4000.0 4000.0 4000.0 4000.0 4000.0 4000.0 4000.0 4000.0 4000.0 4000.0 4000.0 4000.0 4000.0 4000.0 4000.0 4000.0 4000.0 4000.0 4000.0 4000.0 4000.0 4000.0 4000.0 4000.0 4000.0 4000.0 4000.0 4000.0 4000.0 4000.0 4000.0 4000.0 4000.0 4000.0 4000.0 4000.0 4000.0 4000.0 4000.0 4000.0 4000.0 4000.0 4000.0 4000.0 4000.0 4000.0 4000.0 4000.0 4000.0 4000.0 4000.0 4000.0 4000.0 4000.0 4000.0 4000.0 4000.0 4000.0 4000.0 4000.0 4000.0 4000.0 4000.0 4000.0 4000.0 4000.0 4000.0 4000.0 4000.0 4000.0 4000.0 4000.0 4000.0 4000.0 4000.0 4000.0 4000.0 4000.0 4000.0 4000.0 4000.0 4000.0 4000.0 4000.0 4000.0 4000.0 4000.0 4000.0 4000.0 4000.0 4000.0 4000.0 4000.0 4000.0 4000.0 4000.0 4000.0 4000.0 4000.0 4000.0 4000.0 4000.0 4000.0 4000.0 4000.0 4000.0 4000.0 4000.0 4000.0 4000.0 4000.0 4000.0 4000.0 4000.0 4000.0 4000.0 4000.0 4000.0 4000.0 4000.0 4000.0 4000.0 4000.0 4000.0 4000.0 4000.0 4000.0 4000.0 4000.0 4000.0 4000.0 4000.0 4000.0 4000.0 4000.0 4000.0 4000.0 4000.0 4000.0 4000.0 4000.0 4000.0 4000.0 4000.0 4000.0 4000.0 4000.0 4000.0 4000.0 4000.0 4000.0 4000.0 4000.0 4000.0 4000.0 4000.0 4000.0 4000.0 4000.0 4000.0 4000.0 4000.0 4000.0 4000.0 4000.0 4000.0 4000.0 4000.0 4000.0 4000.0 4000.0 4000.0 4000.0 4000.0 4000.0 4000.0 4000.0 4000.0 4000.0 4000.0 4000.0 4000.0 4000.0 4000.0 4000.0 4000.0 4000.0 4000.0 4000.0 4000.0 4000.0 4000.0 4000.0 4000.0 4000.0 4000.0 4000.0 4000.0 4000.0 4000.0 4000.0 4000.0 4000.0 4000.0 4000.0 4000.0 4000.0 4000.0 4000.0 4000.0 4000.0 4000.0 4000.0 4000.0 4000.0 4000.0 4000.0 4000.0 4000.0 4000.0 4000.0 4000.0 4000.0 4000.0 4000.0 4000.0 4000.0 4000.0 4000.0 4000.0 4000.0 4000.0 4000.0 4000.0 4000.0 4000.0 4000.0 4000.0 4000.0 4000.0 4000.0 4000.0 4000.0 4000.0 4000.0 4000.0 4000.0 4000.0 4000.0 4000.0 4000.0 4000.0 4000.0 4000.0 4000.0 4000.0 4000.0 4000.0 4000.0 4000.0 4000.0 4000.0 4000.0 4000.0 4000.0 4000.0 4000.0 4000.0 4000.0 4000.0 4000.0 4000.0 4000.0 4000.0 4000.0 4000.0 4000.0 4000.0 4000.0 4000.0 4000.0 4000.0 4000.0 4000.0 4000.0 4000.0 4000.0 4000.0 4000.0 4000.0 4000.0 4000.0 4000.0 4000.0 4000.0 4000.0 4000.0 4000.0 4000.0 4000.0 4000.0 4000.0 4000.0 4000.0 4000.0 4000.0 4000.0 4000.0 4000.0 4000.0 4000.0 4000.0 4000.0 4000.0 4000.0 4000.0 4000.0 4000.0 4000.0 4000.0 4000.0 4000.0 4000.0 4000.0 4000.0 4000.0 4000.0 4000.0 4000.0 4000.0 4000.0 4000.0 4000.0 4000.0 4000.0 4000.0 4000.0 4000.0 4000.0 4000.0 4000.0 4000.0 4000.0 4000.0 4000.0 4000.0 4000.0 4000.0 4000.0 4000.0 4000.0 4000.0 4000.0 4000.0 4000.0 4000.0 4000.0 4000.0 4000.0 4000.0 4000.0 4000.0 4000.0 4000.0 4000.0 4000.0 4000.0 4000.0 4000.0 4000.0 4000.0 4000.0 4000.0 4000.0 4000.0 4000.0 4000.0 4000.0 4000.0 4000.0 4000.0 4000.0 4000.0 4000.0 4000.0 4000.0 4000.0 4000.0 4000.0 4000.0 4000.0 4000.0 4000.0 4000.0 4000.0 4000.0 4000.0 4000.0 4000.0 4000.0 4000.0 4000.0 4000.0 SCALARS Mass float 1
LOOKUP_TABLE default
11309700000.0 11309700000.0 11309700000.0 11309700000.0 11309700000.0 11309700000.0 11309700000.0 11309700000.0 11309700000.0 11309700000.0 11309700000.0 11309700000.0 11309700000.0 11309700000.0 11309700000.0 11309700000.0 11309700000.0 11309700000.0 11309700000.0 11309700000.0 11309700000.0 11309700000.0 11309700000.0 11309700000.0 11309700000.0 11309700000.0 11309700000.0 11309700000.0 11309700000.0 11309700000.0 11309700000.0 11309700000.0 11309700000.0 11309700000.0 11309700000.0 11309700000.0 11309700000.0 11309700000.0 11309700000.0 11309700000.0 11309700000.0 11309700000.0 11309700000.0 11309700000.0 11309700000.0 11309700000.0 11309700000.0 11309700000.0 11309700000.0 11309700000.0 11309700000.0 11309700000.0 11309700000.0 11309700000.0 11309700000.0 11309700000.0 11309700000.0 11309700000.0 11309700000.0 11309700000.0 11309700000.0 11309700000.0 11309700000.0 11309700000.0 11309700000.0 11309700000.0 11309700000.0 11309700000.0 11309700000.0 11309700000.0 11309700000.0 11309700000.0 11309700000.0 11309700000.0 11309700000.0 11309700000.0 11309700000.0 11309700000.0 11309700000.0 11309700000.0 11309700000.0 11309700000.0 11309700000.0 11309700000.0 11309700000.0 11309700000.0 11309700000.0 11309700000.0 11309700000.0 11309700000.0 11309700000.0 11309700000.0 11309700000.0 11309700000.0 11309700000.0 11309700000.0 11309700000.0 11309700000.0 11309700000.0 11309700000.0 11309700000.0 11309700000.0 11309700000.0 11309700000.0 11309700000.0 11309700000.0 11309700000.0 11309700000.0 11309700000.0 11309700000.0 11309700000.0 11309700000.0 11309700000.0 11309700000.0 11309700000.0 11309700000.0 11309700000.0 11309700000.0 11309700000.0 11309700000.0 11309700000.0 11309700000.0 11309700000.0 11309700000.0 11309700000.0 11309700000.0 11309700000.0 11309700000.0 11309700000.0 11309700000.0 11309700000.0 11309700000.0 11309700000.0 11309700000.0 11309700000.0 11309700000.0 11309700000.0 11309700000.0 11309700000.0 11309700000.0 11309700000.0 11309700000.0 11309700000.0 11309700000.0 11309700000.0 11309700000.0 11309700000.0 11309700000.0 11309700000.0 11309700000.0 11309700000.0 11309700000.0 11309700000.0 11309700000.0 11309700000.0 11309700000.0 11309700000.0 11309700000.0 11309700000.0 11309700000.0 11309700000.0 11309700000.0 11309700000.0 11309700000.0 11309700000.0 11309700000.0 11309700000.0 11309700000.0 11309700000.0 11309700000.0 11309700000.0 11309700000.0 11309700000.0 11309700000.0 11309700000.0 11309700000.0 11309700000.0 11309700000.0 11309700000.0 11309700000.0 11309700000.0 11309700000.0 11309700000.0 11309700000.0 11309700000.0 11309700000.0 11309700000.0 11309700000.0 11309700000.0 11309700000.0 11309700000.0 11309700000.0 11309700000.0 11309700000.0 11309700000.0 11309700000.0 11309700000.0 11309700000.0 11309700000.0 11309700000.0 11309700000.0 11309700000.0 11309700000.0 11309700000.0 11309700000.0 11309700000.0 11309700000.0 11309700000.0 11309700000.0 11309700000.0 11309700000.0 11309700000.0 11309700000.0 11309700000.0 11309700000.0 11309700000.0 11309700000.0 11309700000.0 11309700000.0 11309700000.0 11309700000.0 11309700000.0 11309700000.0 11309700000.0 11309700000.0 11309700000.0 11309700000.0 11309700000.0 11309700000.0 11309700000.0 11309700000.0 11309700000.0 11309700000.0 11309700000.0 11309700000.0 11309700000.0 11309700000.0 11309700000.0 11309700000.0 11309700000.0 11309700000.0 11309700000.0 11309700000.0 11309700000.0 11309700000.0 11309700000.0 11309700000.0 11309700000.0 11309700000.0 11309700000.0 11309700000.0 11309700000.0 11309700000.0 11309700000.0 11309700000.0 11309700000.0 11309700000.0 11309700000.0 11309700000.0 11309700000.0 11309700000.0 11309700000.0 11309700000.0 11309700000.0 11309700000.0 11309700000.0 11309700000.0 11309700000.0 11309700000.0 11309700000.0 11309700000.0 11309700000.0 11309700000.0 11309700000.0 11309700000.0 11309700000.0 11309700000.0 11309700000.0 11309700000.0 11309700000.0 11309700000.0 11309700000.0 11309700000.0 11309700000.0 11309700000.0 11309700000.0 11309700000.0 11309700000.0 11309700000.0 11309700000.0 11309700000.0 11309700000.0 11309700000.0 11309700000.0 11309700000.0 11309700000.0 11309700000.0 11309700000.0 11309700000.0 11309700000.0 11309700000.0 11309700000.0 11309700000.0 11309700000.0 11309700000.0 11309700000.0 11309700000.0 11309700000.0 11309700000.0 11309700000.0 11309700000.0 11309700000.0 11309700000.0 11309700000.0 11309700000.0 11309700000.0 11309700000.0 11309700000.0 11309700000.0 11309700000.0 11309700000.0 11309700000.0 11309700000.0 11309700000.0 11309700000.0 11309700000.0 11309700000.0 11309700000.0 11309700000.0 11309700000.0 11309700000.0 11309700000.0 11309700000.0 11309700000.0 11309700000.0 11309700000.0 11309700000.0 11309700000.0 11309700000.0 11309700000.0 11309700000.0 11309700000.0 11309700000.0 11309700000.0 11309700000.0 11309700000.0 11309700000.0 11309700000.0 11309700000.0 11309700000.0 11309700000.0 11309700000.0 11309700000.0 11309700000.0 11309700000.0 11309700000.0 11309700000.0 11309700000.0 11309700000.0 11309700000.0 11309700000.0 11309700000.0 11309700000.0 11309700000.0 11309700000.0 11309700000.0 11309700000.0 11309700000.0 11309700000.0 11309700000.0 11309700000.0 11309700000.0 11309700000.0 11309700000.0 11309700000.0 11309700000.0 11309700000.0 11309700000.0 11309700000.0 11309700000.0 11309700000.0 11309700000.0 11309700000.0 11309700000.0 11309700000.0 11309700000.0 11309700000.0 11309700000.0 11309700000.0 11309700000.0 11309700000.0 11309700000.0 11309700000.0 11309700000.0 11309700000.0 11309700000.0 11309700000.0 11309700000.0 11309700000.0 11309700000.0 11309700000.0 11309700000.0 11309700000.0 11309700000.0 11309700000.0 11309700000.0 11309700000.0 11309700000.0 11309700000.0 11309700000.0 11309700000.0 11309700000.0 11309700000.0 11309700000.0 11309700000.0 11309700000.0 11309700000.0 11309700000.0 11309700000.0 11309700000.0 11309700000.0 11309700000.0 11309700000.0 11309700000.0 11309700000.0 11309700000.0 11309700000.0 11309700000.0 11309700000.0 11309700000.0 11309700000.0 11309700000.0 11309700000.0 11309700000.0 11309700000.0 11309700000.0 11309700000.0 11309700000.0 11309700000.0 11309700000.0 11309700000.0 11309700000.0 11309700000.0 11309700000.0 11309700000.0 11309700000.0 11309700000.0 11309700000.0 11309700000.0 11309700000.0 11309700000.0 11309700000.0 11309700000.0 11309700000.0 11309700000.0 11309700000.0 11309700000.0 11309700000.0 11309700000.0 11309700000.0 11309700000.0 11309700000.0 11309700000.0 11309700000.0 11309700000.0 11309700000.0 11309700000.0 11309700000.0 11309700000.0 11309700000.0 11309700000.0 11309700000.0 11309700000.0 11309700000.0 11309700000.0 11309700000.0 11309700000.0 11309700000.0 11309700000.0 11309700000.0 11309700000.0 11309700000.0 11309700000.0 11309700000.0 11309700000.0 11309700000.0 11309700000.0 11309700000.0 11309700000.0 11309700000.0 11309700000.0 11309700000.0 11309700000.0 11309700000.0 11309700000.0 11309700000.0 11309700000.0 11309700000.0 11309700000.0 11309700000.0 11309700000.0 11309700000.0 11309700000.0 11309700000.0 11309700000.0 11309700000.0 11309700000.0 11309700000.0 11309700000.0 11309700000.0 11309700000.0 11309700000.0 11309700000.0 11309700000.0 11309700000.0 11309700000.0 11309700000.0 11309700000.0 11309700000.0 11309700000.0 11309700000.0 11309700000.0 11309700000.0 11309700000.0 11309700000.0 11309700000.0 11309700000.0 11309700000.0 11309700000.0 11309700000.0 11309700000.0 11309700000.0 11309700000.0 11309700000.0 11309700000.0 11309700000.0 11309700000.0 11309700000.0 11309700000.0 11309700000.0 11309700000.0 11309700000.0 11309700000.0 11309700000.0 11309700000.0 11309700000.0 11309700000.0 11309700000.0 11309700000.0 11309700000.0 11309700000.0 11309700000.0 11309700000.0 11309700000.0 11309700000.0 11309700000.0 11309700000.0 11309700000.0 11309700000.0 11309700000.0 11309700000.0 11309700000.0 11309700000.0 11309700000.0 11309700000.0 11309700000.0 11309700000.0 11309700000.0 11309700000.0 11309700000.0 11309700000.0 11309700000.0 11309700000.0 11309700000.0 11309700000.0 11309700000.0 11309700000.0 11309700000.0 11309700000.0 11309700000.0 11309700000.0 11309700000.0 11309700000.0 11309700000.0 11309700000.0 11309700000.0 11309700000.0 11309700000.0 11309700000.0 11309700000.0 11309700000.0 11309700000.0 11309700000.0 11309700000.0 11309700000.0 11309700000.0 11309700000.0 11309700000.0 11309700000.0 11309700000.0 11309700000.0 11309700000.0 11309700000.0 11309700000.0 11309700000.0 11309700000.0 11309700000.0 11309700000.0 11309700000.0 11309700000.0 11309700000.0 11309700000.0 11309700000.0 11309700000.0 11309700000.0 11309700000.0 11309700000.0 11309700000.0 11309700000.0 11309700000.0 11309700000.0 11309700000.0 11309700000.0 11309700000.0 11309700000.0 11309700000.0 11309700000.0 11309700000.0 11309700000.0 11309700000.0 11309700000.0 11309700000.0 11309700000.0 11309700000.0 11309700000.0 11309700000.0 11309700000.0 11309700000.0 11309700000.0 11309700000.0 11309700000.0 11309700000.0 11309700000.0 11309700000.0 11309700000.0 11309700000.0 11309700000.0 11309700000.0 11309700000.0 11309700000.0 11309700000.0 11309700000.0 11309700000.0 11309700000.0 11309700000.0 11309700000.0 11309700000.0 11309700000.0 11309700000.0 11309700000.0 11309700000.0 11309700000.0 11309700000.0 11309700000.0 11309700000.0 11309700000.0 11309700000.0 11309700000.0 11309700000.0 11309700000.0 11309700000.0 11309700000.0 11309700000.0 11309700000.0 11309700000.0 11309700000.0 11309700000.0 11309700000.0 11309700000.0 11309700000.0 11309700000.0 11309700000.0 11309700000.0 11309700000.0 11309700000.0 11309700000.0 11309700000.0 11309700000.0 11309700000.0 11309700000.0 11309700000.0 11309700000.0 11309700000.0 11309700000.0 11309700000.0 11309700000.0 11309700000.0 11309700000.0 11309700000.0 11309700000.0 11309700000.0 11309700000.0 11309700000.0 11309700000.0 11309700000.0 11309700000.0 11309700000.0 11309700000.0 11309700000.0 11309700000.0 11309700000.0 11309700000.0 11309700000.0 11309700000.0 11309700000.0 11309700000.0 11309700000.0 11309700000.0 11309700000.0 11309700000.0 11309700000.0 11309700000.0 11309700000.0 11309700000.0 11309700000.0 11309700000.0 11309700000.0 11309700000.0 11309700000.0 11309700000.0 11309700000.0 11309700000.0 11309700000.0 11309700000.0 11309700000.0 11309700000.0 11309700000.0 11309700000.0 11309700000.0 11309700000.0 11309700000.0 11309700000.0 11309700000.0 11309700000.0 11309700000.0 11309700000.0 11309700000.0 11309700000.0 11309700000.0 11309700000.0 11309700000.0 11309700000.0 11309700000.0 11309700000.0 11309700000.0 11309700000.0 11309700000.0 11309700000.0 11309700000.0 11309700000.0 11309700000.0 11309700000.0 11309700000.0 11309700000.0 11309700000.0 11309700000.0 11309700000.0 11309700000.0 11309700000.0 11309700000.0 11309700000.0 11309700000.0 11309700000.0 11309700000.0 11309700000.0 11309700000.0 11309700000.0 11309700000.0 11309700000.0 11309700000.0 11309700000.0 11309700000.0 11309700000.0 11309700000.0 11309700000.0 11309700000.0 11309700000.0 11309700000.0 11309700000.0 11309700000.0 11309700000.0 11309700000.0 11309700000.0 11309700000.0 11309700000.0 11309700000.0 11309700000.0 11309700000.0 11309700000.0 11309700000.0 11309700000.0 11309700000.0 11309700000.0 11309700000.0 11309700000.0 11309700000.0 11309700000.0 11309700000.0 11309700000.0 11309700000.0 11309700000.0 11309700000.0 11309700000.0 11309700000.0 11309700000.0 11309700000.0 11309700000.0 11309700000.0 11309700000.0 11309700000.0 11309700000.0 11309700000.0 11309700000.0 11309700000.0 11309700000.0 11309700000.0 11309700000.0 11309700000.0 11309700000.0 11309700000.0 11309700000.0 11309700000.0 11309700000.0 11309700000.0 11309700000.0 11309700000.0 11309700000.0 11309700000.0 11309700000.0 11309700000.0 11309700000.0 11309700000.0 11309700000.0 11309700000.0 11309700000.0 11309700000.0 11309700000.0 11309700000.0 11309700000.0 11309700000.0 11309700000.0 11309700000.0 11309700000.0 11309700000.0 11309700000.0 11309700000.0 11309700000.0 11309700000.0 11309700000.0 11309700000.0 11309700000.0 11309700000.0 11309700000.0 11309700000.0 11309700000.0 11309700000.0 11309700000.0 11309700000.0 11309700000.0 11309700000.0 11309700000.0 11309700000.0 11309700000.0 11309700000.0 11309700000.0 11309700000.0 11309700000.0 11309700000.0 11309700000.0 11309700000.0 11309700000.0 11309700000.0 11309700000.0 11309700000.0 11309700000.0 11309700000.0 11309700000.0 11309700000.0 11309700000.0 11309700000.0 11309700000.0 11309700000.0 11309700000.0 11309700000.0 11309700000.0 11309700000.0 11309700000.0 11309700000.0 11309700000.0 11309700000.0 11309700000.0 11309700000.0 11309700000.0 11309700000.0 11309700000.0 11309700000.0 11309700000.0 11309700000.0 11309700000.0 11309700000.0 11309700000.0 11309700000.0 11309700000.0 11309700000.0 11309700000.0 11309700000.0 11309700000.0 11309700000.0 11309700000.0 11309700000.0 11309700000.0 11309700000.0 11309700000.0 11309700000.0 11309700000.0 11309700000.0 11309700000.0 11309700000.0 11309700000.0 11309700000.0 11309700000.0 11309700000.0 11309700000.0 11309700000.0 11309700000.0 11309700000.0 11309700000.0 11309700000.0 11309700000.0 11309700000.0 11309700000.0 11309700000.0 11309700000.0 11309700000.0 11309700000.0 11309700000.0 11309700000.0 11309700000.0 11309700000.0 11309700000.0 11309700000.0 11309700000.0 11309700000.0 11309700000.0 11309700000.0 11309700000.0 11309700000.0 11309700000.0 11309700000.0 11309700000.0 11309700000.0 11309700000.0 11309700000.0 11309700000.0 11309700000.0 11309700000.0 11309700000.0 11309700000.0 11309700000.0 11309700000.0 11309700000.0 11309700000.0 11309700000.0 11309700000.0 11309700000.0 11309700000.0 11309700000.0 11309700000.0 11309700000.0 11309700000.0 11309700000.0 11309700000.0 11309700000.0 11309700000.0 11309700000.0 11309700000.0 11309700000.0 11309700000.0 11309700000.0 11309700000.0 11309700000.0 11309700000.0 11309700000.0 11309700000.0 11309700000.0 11309700000.0 11309700000.0 11309700000.0 11309700000.0 11309700000.0 11309700000.0 11309700000.0 11309700000.0 11309700000.0 11309700000.0 11309700000.0 11309700000.0 11309700000.0 11309700000.0 11309700000.0 11309700000.0 11309700000.0 11309700000.0 11309700000.0 11309700000.0 11309700000.0 11309700000.0 11309700000.0 11309700000.0 11309700000.0 11309700000.0 11309700000.0 11309700000.0 11309700000.0 11309700000.0 11309700000.0 11309700000.0 11309700000.0 11309700000.0 11309700000.0 11309700000.0 11309700000.0 11309700000.0 11309700000.0 11309700000.0 11309700000.0 11309700000.0 11309700000.0 11309700000.0 11309700000.0 11309700000.0 11309700000.0 11309700000.0 11309700000.0 11309700000.0 11309700000.0 11309700000.0 11309700000.0 11309700000.0 11309700000.0 11309700000.0 11309700000.0 11309700000.0 11309700000.0 11309700000.0 11309700000.0 11309700000.0 11309700000.0 11309700000.0 11309700000.0 11309700000.0 11309700000.0 11309700000.0 11309700000.0 11309700000.0 11309700000.0 11309700000.0 11309700000.0 11309700000.0 11309700000.0 11309700000.0 11309700000.0 11309700000.0 11309700000.0 11309700000.0 11309700000.0 11309700000.0 11309700000.0 11309700000.0 11309700000.0 11309700000.0 11309700000.0 11309700000.0 11309700000.0 11309700000.0 11309700000.0 11309700000.0 11309700000.0 11309700000.0 11309700000.0 11309700000.0 11309700000.0 11309700000.0 11309700000.0 11309700000.0 11309700000.0 11309700000.0 11309700000.0 11309700000.0 11309700000.0 11309700000.0 11309700000.0 11309700000.0 11309700000.0 11309700000.0 11309700000.0 11309700000.0 11309700000.0 11309700000.0 11309700000.0 11309700000.0 11309700000.0 11309700000.0 11309700000.0 11309700000.0 11309700000.0 11309700000.0 11309700000.0 11309700000.0 11309700000.0 11309700000.0 11309700000.0 11309700000.0 11309700000.0 11309700000.0 11309700000.0 11309700000.0 11309700000.0 11309700000.0 11309700000.0 11309700000.0 11309700000.0 11309700000.0 11309700000.0 11309700000.0 11309700000.0 11309700000.0 11309700000.0 11309700000.0 11309700000.0 11309700000.0 11309700000.0 11309700000.0 11309700000.0 11309700000.0 11309700000.0 11309700000.0 11309700000.0 11309700000.0 11309700000.0 11309700000.0 11309700000.0 11309700000.0 11309700000.0 11309700000.0 11309700000.0 11309700000.0 11309700000.0 11309700000.0 11309700000.0 11309700000.0 11309700000.0 11309700000.0 11309700000.0 11309700000.0 11309700000.0 11309700000.0 11309700000.0 11309700000.0 11309700000.0 11309700000.0 11309700000.0 11309700000.0 11309700000.0 11309700000.0 11309700000.0 11309700000.0 11309700000.0 11309700000.0 11309700000.0 11309700000.0 11309700000.0 11309700000.0 11309700000.0 11309700000.0 11309700000.0 11309700000.0 11309700000.0 11309700000.0 11309700000.0 11309700000.0 11309700000.0 11309700000.0 11309700000.0 11309700000.0 11309700000.0 11309700000.0 11309700000.0 11309700000.0 11309700000.0 11309700000.0 11309700000.0 11309700000.0 11309700000.0 11309700000.0 11309700000.0 11309700000.0 11309700000.0 11309700000.0 11309700000.0 11309700000.0 11309700000.0 11309700000.0 11309700000.0 11309700000.0 11309700000.0 11309700000.0 11309700000.0 11309700000.0 11309700000.0 11309700000.0 11309700000.0 11309700000.0 11309700000.0 11309700000.0 11309700000.0 11309700000.0 11309700000.0 11309700000.0 11309700000.0 11309700000.0 11309700000.0 11309700000.0 11309700000.0 11309700000.0 11309700000.0 11309700000.0 11309700000.0 11309700000.0 11309700000.0 11309700000.0 11309700000.0 11309700000.0 11309700000.0 11309700000.0 11309700000.0 11309700000.0 11309700000.0 11309700000.0 11309700000.0 11309700000.0 11309700000.0 11309700000.0 11309700000.0 11309700000.0 11309700000.0 11309700000.0 11309700000.0 11309700000.0 11309700000.0 11309700000.0 11309700000.0 11309700000.0 11309700000.0 11309700000.0 11309700000.0 11309700000.0 11309700000.0 11309700000.0 11309700000.0 11309700000.0 11309700000.0 11309700000.0 11309700000.0 11309700000.0 11309700000.0 11309700000.0 11309700000.0 11309700000.0 11309700000.0 11309700000.0 11309700000.0 11309700000.0 11309700000.0 11309700000.0 11309700000.0 11309700000.0 11309700000.0 11309700000.0 11309700000.0 11309700000.0 11309700000.0 11309700000.0 11309700000.0 11309700000.0 11309700000.0 11309700000.0 11309700000.0 11309700000.0 11309700000.0 11309700000.0 11309700000.0 11309700000.0 11309700000.0 11309700000.0 11309700000.0 11309700000.0 11309700000.0 11309700000.0 11309700000.0 11309700000.0 11309700000.0 11309700000.0 11309700000.0 11309700000.0 11309700000.0 11309700000.0 11309700000.0 11309700000.0 11309700000.0 11309700000.0 11309700000.0 11309700000.0 11309700000.0 11309700000.0 11309700000.0 11309700000.0 11309700000.0 11309700000.0 11309700000.0 11309700000.0 11309700000.0 11309700000.0 11309700000.0 11309700000.0 11309700000.0 11309700000.0 11309700000.0 11309700000.0 11309700000.0 11309700000.0 11309700000.0 11309700000.0 11309700000.0 11309700000.0 11309700000.0 11309700000.0 11309700000.0 11309700000.0 11309700000.0 11309700000.0 11309700000.0 11309700000.0 11309700000.0 11309700000.0 11309700000.0 11309700000.0 11309700000.0 11309700000.0 11309700000.0 11309700000.0 11309700000.0 11309700000.0 11309700000.0 11309700000.0 11309700000.0 11309700000.0 11309700000.0 11309700000.0 11309700000.0 11309700000.0 11309700000.0 11309700000.0 11309700000.0 11309700000.0 11309700000.0 11309700000.0 11309700000.0 11309700000.0 11309700000.0 11309700000.0 11309700000.0 11309700000.0 11309700000.0 11309700000.0 11309700000.0 11309700000.0 11309700000.0 11309700000.0 11309700000.0 11309700000.0 11309700000.0 11309700000.0 11309700000.0 11309700000.0 11309700000.0 11309700000.0 11309700000.0 11309700000.0 11309700000.0 11309700000.0 11309700000.0 11309700000.0 11309700000.0 11309700000.0 11309700000.0 11309700000.0 11309700000.0 11309700000.0 11309700000.0 11309700000.0 11309700000.0 11309700000.0 11309700000.0 11309700000.0 11309700000.0 11309700000.0 11309700000.0 11309700000.0 11309700000.0 11309700000.0 11309700000.0 11309700000.0 11309700000.0 11309700000.0 11309700000.0 11309700000.0 11309700000.0 11309700000.0 11309700000.0 11309700000.0 11309700000.0 11309700000.0 11309700000.0 11309700000.0 11309700000.0 11309700000.0 11309700000.0 11309700000.0 11309700000.0 11309700000.0 11309700000.0 11309700000.0 11309700000.0 11309700000.0 11309700000.0 11309700000.0 11309700000.0 11309700000.0 11309700000.0 11309700000.0 11309700000.0 11309700000.0 11309700000.0 11309700000.0 11309700000.0 11309700000.0 11309700000.0 11309700000.0 11309700000.0 11309700000.0 11309700000.0 11309700000.0 11309700000.0 11309700000.0 11309700000.0 11309700000.0 11309700000.0 11309700000.0 11309700000.0 11309700000.0 11309700000.0 11309700000.0 11309700000.0 11309700000.0 11309700000.0 11309700000.0 11309700000.0 11309700000.0 11309700000.0 11309700000.0 11309700000.0 11309700000.0 11309700000.0 11309700000.0 11309700000.0 11309700000.0 11309700000.0 11309700000.0 11309700000.0 11309700000.0 11309700000.0 11309700000.0 11309700000.0 11309700000.0 11309700000.0 11309700000.0 11309700000.0 11309700000.0 11309700000.0 11309700000.0 11309700000.0 11309700000.0 11309700000.0 11309700000.0 11309700000.0 11309700000.0 11309700000.0 11309700000.0 11309700000.0 11309700000.0 11309700000.0 11309700000.0 11309700000.0 11309700000.0 11309700000.0 11309700000.0 11309700000.0 11309700000.0 11309700000.0 11309700000.0 11309700000.0 11309700000.0 11309700000.0 11309700000.0 11309700000.0 11309700000.0 11309700000.0 11309700000.0 11309700000.0 11309700000.0 11309700000.0 11309700000.0 11309700000.0 11309700000.0 11309700000.0 11309700000.0 11309700000.0 11309700000.0 11309700000.0 11309700000.0 11309700000.0 11309700000.0 11309700000.0 11309700000.0 11309700000.0 11309700000.0 11309700000.0 11309700000.0 11309700000.0 11309700000.0 11309700000.0 11309700000.0 11309700000.0 11309700000.0 11309700000.0 11309700000.0 11309700000.0 11309700000.0 11309700000.0 11309700000.0 11309700000.0 11309700000.0 11309700000.0 11309700000.0 11309700000.0 11309700000.0 11309700000.0 11309700000.0 11309700000.0 11309700000.0 11309700000.0 11309700000.0 11309700000.0 11309700000.0 11309700000.0 11309700000.0 11309700000.0 11309700000.0 11309700000.0 11309700000.0 11309700000.0 11309700000.0 11309700000.0 11309700000.0 11309700000.0 11309700000.0 11309700000.0 11309700000.0 11309700000.0 11309700000.0 11309700000.0 11309700000.0 11309700000.0 11309700000.0 11309700000.0 11309700000.0 11309700000.0 11309700000.0 11309700000.0 11309700000.0 11309700000.0 11309700000.0 11309700000.0 11309700000.0 11309700000.0 11309700000.0 11309700000.0 11309700000.0 11309700000.0 11309700000.0 11309700000.0 11309700000.0 11309700000.0 11309700000.0 11309700000.0 11309700000.0 11309700000.0 11309700000.0 11309700000.0 11309700000.0 11309700000.0 11309700000.0 11309700000.0 11309700000.0 11309700000.0 11309700000.0 11309700000.0 11309700000.0 11309700000.0 11309700000.0 11309700000.0 11309700000.0 11309700000.0 11309700000.0 11309700000.0 11309700000.0 11309700000.0 11309700000.0 11309700000.0 11309700000.0 11309700000.0 11309700000.0 11309700000.0 11309700000.0 11309700000.0 11309700000.0 11309700000.0 11309700000.0 11309700000.0 11309700000.0 11309700000.0 11309700000.0 11309700000.0 11309700000.0 11309700000.0 11309700000.0 11309700000.0 11309700000.0 11309700000.0 11309700000.0 11309700000.0 11309700000.0 11309700000.0 11309700000.0 11309700000.0 11309700000.0 11309700000.0 11309700000.0 11309700000.0 11309700000.0 11309700000.0 11309700000.0 11309700000.0 11309700000.0 11309700000.0 11309700000.0 11309700000.0 11309700000.0 11309700000.0 11309700000.0 11309700000.0 11309700000.0 11309700000.0 11309700000.0 11309700000.0 11309700000.0 11309700000.0 11309700000.0 11309700000.0 11309700000.0 11309700000.0 11309700000.0 11309700000.0 11309700000.0 11309700000.0 11309700000.0 11309700000.0 11309700000.0 11309700000.0 11309700000.0 11309700000.0 11309700000.0 11309700000.0 11309700000.0 11309700000.0 11309700000.0 11309700000.0 11309700000.0 11309700000.0 11309700000.0 11309700000.0 11309700000.0 11309700000.0 11309700000.0 11309700000.0 11309700000.0 11309700000.0 11309700000.0 11309700000.0 11309700000.0 11309700000.0 11309700000.0 11309700000.0 11309700000.0 11309700000.0 11309700000.0 11309700000.0 11309700000.0 11309700000.0 11309700000.0 11309700000.0 11309700000.0 11309700000.0 11309700000.0 11309700000.0 11309700000.0 11309700000.0 11309700000.0 11309700000.0 11309700000.0 11309700000.0 11309700000.0 11309700000.0 11309700000.0 11309700000.0 11309700000.0 11309700000.0 11309700000.0 11309700000.0 11309700000.0 11309700000.0 11309700000.0 11309700000.0 11309700000.0 11309700000.0 11309700000.0 11309700000.0 11309700000.0 11309700000.0 11309700000.0 11309700000.0 11309700000.0 11309700000.0 11309700000.0 11309700000.0 11309700000.0 11309700000.0 11309700000.0 11309700000.0 11309700000.0 11309700000.0 11309700000.0 11309700000.0 11309700000.0 11309700000.0 11309700000.0 11309700000.0 11309700000.0 11309700000.0 11309700000.0 11309700000.0 11309700000.0 11309700000.0 11309700000.0 11309700000.0 11309700000.0 11309700000.0 11309700000.0 11309700000.0 11309700000.0 11309700000.0 11309700000.0 11309700000.0 11309700000.0 11309700000.0 11309700000.0 11309700000.0 11309700000.0 11309700000.0 11309700000.0 11309700000.0 11309700000.0 11309700000.0 11309700000.0 11309700000.0 11309700000.0 11309700000.0 11309700000.0 11309700000.0 11309700000.0 11309700000.0 11309700000.0 11309700000.0 11309700000.0 11309700000.0 11309700000.0 11309700000.0 11309700000.0 11309700000.0 11309700000.0 11309700000.0 11309700000.0 11309700000.0 11309700000.0 11309700000.0 11309700000.0 11309700000.0 11309700000.0 11309700000.0 11309700000.0 11309700000.0 11309700000.0 11309700000.0 11309700000.0 11309700000.0 11309700000.0 11309700000.0 11309700000.0 11309700000.0 11309700000.0 11309700000.0 11309700000.0 11309700000.0 11309700000.0 11309700000.0 11309700000.0 11309700000.0 11309700000.0 11309700000.0 11309700000.0 11309700000.0 11309700000.0 11309700000.0 11309700000.0 11309700000.0 11309700000.0 11309700000.0 11309700000.0 11309700000.0 11309700000.0 11309700000.0 11309700000.0 11309700000.0 11309700000.0 11309700000.0 11309700000.0 11309700000.0 11309700000.0 11309700000.0 11309700000.0 11309700000.0 11309700000.0 11309700000.0 11309700000.0 11309700000.0 11309700000.0 11309700000.0 11309700000.0 11309700000.0 11309700000.0 11309700000.0 11309700000.0 11309700000.0 11309700000.0 11309700000.0 11309700000.0 11309700000.0 11309700000.0 11309700000.0 11309700000.0 11309700000.0 11309700000.0 11309700000.0 11309700000.0 11309700000.0 11309700000.0 11309700000.0 11309700000.0 11309700000.0 11309700000.0 11309700000.0 11309700000.0 11309700000.0 11309700000.0 11309700000.0 11309700000.0 11309700000.0 11309700000.0 11309700000.0 11309700000.0 11309700000.0 11309700000.0 11309700000.0 11309700000.0 11309700000.0 11309700000.0 11309700000.0 11309700000.0 11309700000.0 11309700000.0 11309700000.0 11309700000.0 11309700000.0 11309700000.0 11309700000.0 11309700000.0 11309700000.0 11309700000.0 11309700000.0 11309700000.0 11309700000.0 11309700000.0 11309700000.0 11309700000.0 11309700000.0 11309700000.0 11309700000.0 11309700000.0 11309700000.0 11309700000.0 11309700000.0 11309700000.0 11309700000.0 11309700000.0 11309700000.0 11309700000.0 11309700000.0 11309700000.0 11309700000.0 11309700000.0 11309700000.0 11309700000.0 11309700000.0 11309700000.0 11309700000.0 11309700000.0 11309700000.0 11309700000.0 11309700000.0 11309700000.0 11309700000.0 11309700000.0 11309700000.0 11309700000.0 11309700000.0 11309700000.0 11309700000.0 11309700000.0 11309700000.0 11309700000.0 11309700000.0 11309700000.0 11309700000.0 11309700000.0 11309700000.0 11309700000.0 11309700000.0 11309700000.0 11309700000.0 11309700000.0 11309700000.0 11309700000.0 11309700000.0 11309700000.0 11309700000.0 11309700000.0 11309700000.0 11309700000.0 11309700000.0 11309700000.0 11309700000.0 11309700000.0 11309700000.0 11309700000.0 11309700000.0 11309700000.0 11309700000.0 11309700000.0 11309700000.0 11309700000.0 11309700000.0 11309700000.0 11309700000.0 11309700000.0 11309700000.0 11309700000.0 11309700000.0 11309700000.0 11309700000.0 11309700000.0 11309700000.0 11309700000.0 11309700000.0 11309700000.0 11309700000.0 11309700000.0 11309700000.0 11309700000.0 11309700000.0 11309700000.0 11309700000.0 11309700000.0 11309700000.0 11309700000.0 11309700000.0 11309700000.0 11309700000.0 11309700000.0 11309700000.0 11309700000.0 11309700000.0 11309700000.0 11309700000.0 11309700000.0 11309700000.0 11309700000.0 11309700000.0 11309700000.0 11309700000.0 11309700000.0 11309700000.0 11309700000.0 11309700000.0 11309700000.0 11309700000.0 11309700000.0 11309700000.0 11309700000.0 11309700000.0 11309700000.0 11309700000.0 11309700000.0 11309700000.0 11309700000.0 11309700000.0 11309700000.0 11309700000.0 11309700000.0 11309700000.0 11309700000.0 11309700000.0 11309700000.0 11309700000.0 11309700000.0 11309700000.0 11309700000.0 11309700000.0 11309700000.0 11309700000.0 11309700000.0 11309700000.0 11309700000.0 11309700000.0 11309700000.0 11309700000.0 11309700000.0 11309700000.0 11309700000.0 11309700000.0 11309700000.0 11309700000.0 11309700000.0 11309700000.0 11309700000.0 11309700000.0 11309700000.0 11309700000.0 11309700000.0 11309700000.0 11309700000.0 11309700000.0 11309700000.0 11309700000.0 11309700000.0 11309700000.0 11309700000.0 11309700000.0 11309700000.0 11309700000.0 11309700000.0 11309700000.0 11309700000.0 11309700000.0 11309700000.0 11309700000.0 11309700000.0 11309700000.0 11309700000.0 11309700000.0 11309700000.0 11309700000.0 11309700000.0 11309700000.0 11309700000.0 11309700000.0 11309700000.0 11309700000.0 11309700000.0 11309700000.0 11309700000.0 11309700000.0 11309700000.0 11309700000.0 11309700000.0 11309700000.0 11309700000.0 11309700000.0 11309700000.0 11309700000.0 11309700000.0 11309700000.0 11309700000.0 11309700000.0 11309700000.0 11309700000.0 11309700000.0 11309700000.0 11309700000.0 11309700000.0 11309700000.0 11309700000.0 11309700000.0 11309700000.0 11309700000.0 11309700000.0 11309700000.0 11309700000.0 11309700000.0 11309700000.0 11309700000.0 11309700000.0 11309700000.0 11309700000.0 11309700000.0 11309700000.0 11309700000.0 11309700000.0 11309700000.0 11309700000.0 11309700000.0 11309700000.0 11309700000.0 11309700000.0 11309700000.0 11309700000.0 11309700000.0 11309700000.0 11309700000.0 11309700000.0 11309700000.0 11309700000.0 11309700000.0 11309700000.0 11309700000.0 11309700000.0 11309700000.0 11309700000.0 11309700000.0 11309700000.0 11309700000.0 11309700000.0 11309700000.0 11309700000.0 11309700000.0 11309700000.0 11309700000.0 11309700000.0 11309700000.0 11309700000.0 11309700000.0 11309700000.0 11309700000.0 11309700000.0 11309700000.0 11309700000.0 11309700000.0 11309700000.0 11309700000.0 11309700000.0 11309700000.0 11309700000.0 11309700000.0 11309700000.0 11309700000.0 11309700000.0 11309700000.0 11309700000.0 11309700000.0 11309700000.0 11309700000.0 11309700000.0 11309700000.0 11309700000.0 11309700000.0 11309700000.0 11309700000.0 11309700000.0 11309700000.0 11309700000.0 11309700000.0 11309700000.0 11309700000.0 11309700000.0 11309700000.0 11309700000.0 11309700000.0 11309700000.0 11309700000.0 11309700000.0 11309700000.0 11309700000.0 11309700000.0 11309700000.0 11309700000.0 11309700000.0 11309700000.0 11309700000.0 11309700000.0 11309700000.0 11309700000.0 11309700000.0 11309700000.0 11309700000.0 11309700000.0 11309700000.0 11309700000.0 11309700000.0 11309700000.0 11309700000.0 11309700000.0 11309700000.0 11309700000.0 11309700000.0 11309700000.0 11309700000.0 11309700000.0 11309700000.0 11309700000.0 11309700000.0 11309700000.0 11309700000.0 11309700000.0 11309700000.0 11309700000.0 11309700000.0 11309700000.0 11309700000.0 11309700000.0 11309700000.0 11309700000.0 11309700000.0 11309700000.0 11309700000.0 11309700000.0 11309700000.0 11309700000.0 11309700000.0 11309700000.0 11309700000.0 11309700000.0 11309700000.0 11309700000.0 11309700000.0 11309700000.0 11309700000.0 11309700000.0 11309700000.0 11309700000.0 11309700000.0 11309700000.0 11309700000.0 11309700000.0 11309700000.0 11309700000.0 11309700000.0 11309700000.0 11309700000.0 11309700000.0 11309700000.0 11309700000.0 11309700000.0 11309700000.0 11309700000.0 11309700000.0 11309700000.0 11309700000.0 11309700000.0 11309700000.0 11309700000.0 11309700000.0 11309700000.0 11309700000.0 11309700000.0 11309700000.0 11309700000.0 11309700000.0 11309700000.0 11309700000.0 11309700000.0 11309700000.0 11309700000.0 11309700000.0 11309700000.0 11309700000.0 11309700000.0 11309700000.0 11309700000.0 11309700000.0 11309700000.0 11309700000.0 11309700000.0 11309700000.0 11309700000.0 11309700000.0 11309700000.0 11309700000.0 11309700000.0 11309700000.0 11309700000.0 11309700000.0 11309700000.0 11309700000.0 11309700000.0 11309700000.0 11309700000.0 11309700000.0 11309700000.0 11309700000.0 11309700000.0 11309700000.0 11309700000.0 11309700000.0 11309700000.0 11309700000.0 11309700000.0 11309700000.0 11309700000.0 11309700000.0 11309700000.0 11309700000.0 11309700000.0 11309700000.0 11309700000.0 11309700000.0 11309700000.0 11309700000.0 11309700000.0 11309700000.0 11309700000.0 11309700000.0 11309700000.0 11309700000.0 11309700000.0 11309700000.0 11309700000.0 11309700000.0 11309700000.0 11309700000.0 11309700000.0 11309700000.0 11309700000.0 11309700000.0 11309700000.0 11309700000.0 11309700000.0 11309700000.0 11309700000.0 11309700000.0 11309700000.0 11309700000.0 11309700000.0 11309700000.0 11309700000.0 11309700000.0 11309700000.0 11309700000.0 11309700000.0 11309700000.0 11309700000.0 11309700000.0 11309700000.0 11309700000.0 11309700000.0 11309700000.0 11309700000.0 11309700000.0 11309700000.0 11309700000.0 11309700000.0 11309700000.0 11309700000.0 11309700000.0 11309700000.0 11309700000.0 11309700000.0 11309700000.0 11309700000.0 11309700000.0 11309700000.0 11309700000.0 11309700000.0 11309700000.0 11309700000.0 11309700000.0 11309700000.0 11309700000.0 11309700000.0 11309700000.0 11309700000.0 11309700000.0 11309700000.0 11309700000.0 11309700000.0 11309700000.0 11309700000.0 11309700000.0 11309700000.0 11309700000.0 11309700000.0 11309700000.0 11309700000.0 11309700000.0 11309700000.0 11309700000.0 11309700000.0 11309700000.0 11309700000.0 11309700000.0 11309700000.0 11309700000.0 11309700000.0 11309700000.0 11309700000.0 11309700000.0 11309700000.0 11309700000.0 11309700000.0 11309700000.0 11309700000.0 11309700000.0 11309700000.0 11309700000.0 11309700000.0 11309700000.0 11309700000.0 11309700000.0 11309700000.0 11309700000.0 11309700000.0 11309700000.0 11309700000.0 11309700000.0 11309700000.0 11309700000.0 11309700000.0 11309700000.0 11309700000.0 11309700000.0 11309700000.0 11309700000.0 11309700000.0 11309700000.0 11309700000.0 11309700000.0 11309700000.0 11309700000.0 11309700000.0 11309700000.0 11309700000.0 11309700000.0 11309700000.0 11309700000.0 11309700000.0 11309700000.0 11309700000.0 11309700000.0 11309700000.0 11309700000.0 11309700000.0 11309700000.0 11309700000.0 11309700000.0 11309700000.0 11309700000.0 11309700000.0 11309700000.0 11309700000.0 11309700000.0 11309700000.0 11309700000.0 11309700000.0 11309700000.0 11309700000.0 11309700000.0 11309700000.0 11309700000.0 11309700000.0 11309700000.0 11309700000.0 11309700000.0 11309700000.0 11309700000.0 11309700000.0 11309700000.0 11309700000.0 11309700000.0 11309700000.0 11309700000.0 11309700000.0 11309700000.0 11309700000.0 11309700000.0 11309700000.0 11309700000.0 11309700000.0 11309700000.0 11309700000.0 11309700000.0 11309700000.0 11309700000.0 11309700000.0 11309700000.0 11309700000.0 11309700000.0 11309700000.0 11309700000.0 11309700000.0 11309700000.0 11309700000.0 11309700000.0 11309700000.0 11309700000.0 11309700000.0 11309700000.0 11309700000.0 11309700000.0 11309700000.0 11309700000.0 11309700000.0 11309700000.0 11309700000.0 11309700000.0 11309700000.0 11309700000.0 11309700000.0 11309700000.0 11309700000.0 11309700000.0 11309700000.0 11309700000.0 11309700000.0 11309700000.0 11309700000.0 11309700000.0 11309700000.0 11309700000.0 11309700000.0 11309700000.0 11309700000.0 11309700000.0 11309700000.0 11309700000.0 11309700000.0 11309700000.0 11309700000.0 11309700000.0 11309700000.0 11309700000.0 11309700000.0 11309700000.0 11309700000.0 11309700000.0 11309700000.0 11309700000.0 11309700000.0 11309700000.0 11309700000.0 11309700000.0 11309700000.0 11309700000.0 11309700000.0 11309700000.0 11309700000.0 11309700000.0 11309700000.0 11309700000.0 11309700000.0 11309700000.0 11309700000.0 11309700000.0 11309700000.0 11309700000.0 11309700000.0 11309700000.0 11309700000.0 11309700000.0 11309700000.0 11309700000.0 11309700000.0 11309700000.0 11309700000.0 11309700000.0 11309700000.0 11309700000.0 11309700000.0 11309700000.0 11309700000.0 11309700000.0 11309700000.0 11309700000.0 11309700000.0 11309700000.0 11309700000.0 11309700000.0 11309700000.0 11309700000.0 11309700000.0 11309700000.0 11309700000.0 11309700000.0 11309700000.0 11309700000.0 11309700000.0 11309700000.0 11309700000.0 11309700000.0 11309700000.0 11309700000.0 11309700000.0 11309700000.0 11309700000.0 11309700000.0 11309700000.0 11309700000.0 11309700000.0 11309700000.0 11309700000.0 11309700000.0 11309700000.0 11309700000.0 11309700000.0 11309700000.0 11309700000.0 11309700000.0 11309700000.0 11309700000.0 11309700000.0 11309700000.0 11309700000.0 11309700000.0 11309700000.0 11309700000.0 11309700000.0 11309700000.0 11309700000.0 11309700000.0 11309700000.0 11309700000.0 11309700000.0 11309700000.0 11309700000.0 11309700000.0 11309700000.0 11309700000.0 11309700000.0 11309700000.0 11309700000.0 11309700000.0 11309700000.0 11309700000.0 11309700000.0 11309700000.0 11309700000.0 11309700000.0 11309700000.0 11309700000.0 11309700000.0 11309700000.0 11309700000.0 11309700000.0 11309700000.0 11309700000.0 11309700000.0 11309700000.0 11309700000.0 11309700000.0 11309700000.0 11309700000.0 11309700000.0 11309700000.0 11309700000.0 11309700000.0 11309700000.0 11309700000.0 11309700000.0 11309700000.0 11309700000.0 11309700000.0 11309700000.0 11309700000.0 11309700000.0 11309700000.0 11309700000.0 11309700000.0 11309700000.0 11309700000.0 11309700000.0 11309700000.0 11309700000.0 11309700000.0 11309700000.0 11309700000.0 11309700000.0 11309700000.0 11309700000.0 11309700000.0 11309700000.0 11309700000.0 11309700000.0 11309700000.0 11309700000.0 11309700000.0 11309700000.0 11309700000.0 11309700000.0 11309700000.0 11309700000.0 11309700000.0 11309700000.0 11309700000.0 11309700000.0 11309700000.0 11309700000.0 11309700000.0 11309700000.0 11309700000.0 11309700000.0 11309700000.0 11309700000.0 11309700000.0 11309700000.0 11309700000.0 11309700000.0 11309700000.0 11309700000.0 11309700000.0 11309700000.0 11309700000.0 11309700000.0 11309700000.0 11309700000.0 11309700000.0 11309700000.0 11309700000.0 11309700000.0 11309700000.0 11309700000.0 11309700000.0 11309700000.0 11309700000.0 11309700000.0 11309700000.0 11309700000.0 11309700000.0 11309700000.0 11309700000.0 11309700000.0 11309700000.0 11309700000.0 11309700000.0 11309700000.0 11309700000.0 11309700000.0 11309700000.0 11309700000.0 11309700000.0 11309700000.0 11309700000.0 11309700000.0 11309700000.0 11309700000.0 11309700000.0 11309700000.0 11309700000.0 11309700000.0 11309700000.0 11309700000.0 11309700000.0 11309700000.0 11309700000.0 11309700000.0 11309700000.0 11309700000.0 11309700000.0 11309700000.0 11309700000.0 11309700000.0 11309700000.0 11309700000.0 11309700000.0 11309700000.0 11309700000.0 11309700000.0 11309700000.0 11309700000.0 11309700000.0 11309700000.0 11309700000.0 11309700000.0 11309700000.0 11309700000.0 11309700000.0 11309700000.0 11309700000.0 11309700000.0 11309700000.0 11309700000.0 11309700000.0 11309700000.0 11309700000.0 11309700000.0 11309700000.0 11309700000.0 11309700000.0 11309700000.0 11309700000.0 11309700000.0 11309700000.0 11309700000.0 11309700000.0 11309700000.0 11309700000.0 11309700000.0 11309700000.0 11309700000.0 11309700000.0 11309700000.0 11309700000.0 11309700000.0 11309700000.0 11309700000.0 11309700000.0 11309700000.0 11309700000.0 11309700000.0 11309700000.0 11309700000.0 11309700000.0 11309700000.0 11309700000.0 11309700000.0 11309700000.0 11309700000.0 11309700000.0 11309700000.0 11309700000.0 11309700000.0 11309700000.0 11309700000.0 11309700000.0 11309700000.0 11309700000.0 11309700000.0 11309700000.0 11309700000.0 11309700000.0 11309700000.0 11309700000.0 11309700000.0 11309700000.0 11309700000.0 11309700000.0 11309700000.0 11309700000.0 11309700000.0 11309700000.0 11309700000.0 11309700000.0 11309700000.0 11309700000.0 11309700000.0 11309700000.0 11309700000.0 11309700000.0 11309700000.0 11309700000.0 11309700000.0 11309700000.0 11309700000.0 11309700000.0 11309700000.0 11309700000.0 11309700000.0 11309700000.0 11309700000.0 11309700000.0 11309700000.0 11309700000.0 11309700000.0 11309700000.0 11309700000.0 11309700000.0 11309700000.0 11309700000.0 11309700000.0 11309700000.0 11309700000.0 11309700000.0 11309700000.0 11309700000.0 11309700000.0 11309700000.0 11309700000.0 11309700000.0 11309700000.0 11309700000.0 11309700000.0 11309700000.0 11309700000.0 11309700000.0 11309700000.0 11309700000.0 11309700000.0 11309700000.0 11309700000.0 11309700000.0 11309700000.0 11309700000.0 11309700000.0 11309700000.0 11309700000.0 11309700000.0 11309700000.0 11309700000.0 11309700000.0 11309700000.0 11309700000.0 11309700000.0 11309700000.0 11309700000.0 11309700000.0 11309700000.0 11309700000.0 11309700000.0 11309700000.0 11309700000.0 11309700000.0 11309700000.0 11309700000.0 11309700000.0 11309700000.0 11309700000.0 11309700000.0 11309700000.0 11309700000.0 11309700000.0 11309700000.0 11309700000.0 11309700000.0 11309700000.0 11309700000.0 11309700000.0 11309700000.0 11309700000.0 11309700000.0 11309700000.0 11309700000.0 11309700000.0 11309700000.0 11309700000.0 11309700000.0 11309700000.0 11309700000.0 11309700000.0 11309700000.0 11309700000.0 11309700000.0 11309700000.0 11309700000.0 11309700000.0 11309700000.0 11309700000.0 11309700000.0 11309700000.0 11309700000.0 11309700000.0 11309700000.0 11309700000.0 11309700000.0 11309700000.0 11309700000.0 11309700000.0 11309700000.0 11309700000.0 11309700000.0 11309700000.0 11309700000.0 11309700000.0 11309700000.0 11309700000.0 11309700000.0 11309700000.0 11309700000.0 11309700000.0 11309700000.0 11309700000.0 11309700000.0 11309700000.0 11309700000.0 11309700000.0 11309700000.0 11309700000.0 11309700000.0 11309700000.0 11309700000.0 11309700000.0 11309700000.0 11309700000.0 11309700000.0 11309700000.0 11309700000.0 11309700000.0 11309700000.0 11309700000.0 11309700000.0 11309700000.0 11309700000.0 11309700000.0 11309700000.0 11309700000.0 11309700000.0 11309700000.0 11309700000.0 11309700000.0 11309700000.0 11309700000.0 11309700000.0 11309700000.0 11309700000.0 11309700000.0 11309700000.0 11309700000.0 11309700000.0 11309700000.0 11309700000.0 11309700000.0 11309700000.0 11309700000.0 11309700000.0 11309700000.0 11309700000.0 11309700000.0 11309700000.0 11309700000.0 11309700000.0 11309700000.0 11309700000.0 11309700000.0 11309700000.0 11309700000.0 11309700000.0 11309700000.0 11309700000.0 11309700000.0 11309700000.0 11309700000.0 11309700000.0 11309700000.0 11309700000.0 11309700000.0 11309700000.0 11309700000.0 11309700000.0 11309700000.0 11309700000.0 11309700000.0 11309700000.0 11309700000.0 11309700000.0 11309700000.0 11309700000.0 11309700000.0 11309700000.0 11309700000.0 11309700000.0 11309700000.0 11309700000.0 11309700000.0 11309700000.0 11309700000.0 11309700000.0 11309700000.0 11309700000.0 11309700000.0 11309700000.0 11309700000.0 11309700000.0 11309700000.0 11309700000.0 11309700000.0 11309700000.0 11309700000.0 11309700000.0 11309700000.0 11309700000.0 11309700000.0 11309700000.0 11309700000.0 11309700000.0 11309700000.0 11309700000.0 11309700000.0 11309700000.0 11309700000.0 11309700000.0 11309700000.0 11309700000.0 11309700000.0 11309700000.0 11309700000.0 11309700000.0 11309700000.0 11309700000.0 11309700000.0 11309700000.0 11309700000.0 11309700000.0 11309700000.0 11309700000.0 11309700000.0 11309700000.0 11309700000.0 11309700000.0 11309700000.0 11309700000.0 11309700000.0 11309700000.0 11309700000.0 11309700000.0 11309700000.0 11309700000.0 11309700000.0 11309700000.0 11309700000.0 11309700000.0 11309700000.0 11309700000.0 11309700000.0 11309700000.0 11309700000.0 11309700000.0 11309700000.0 11309700000.0 11309700000.0 11309700000.0 11309700000.0 11309700000.0 11309700000.0 11309700000.0 11309700000.0 11309700000.0 11309700000.0 11309700000.0 11309700000.0 11309700000.0 11309700000.0 11309700000.0 11309700000.0 11309700000.0 11309700000.0 11309700000.0 11309700000.0 11309700000.0 11309700000.0 11309700000.0 11309700000.0 11309700000.0 11309700000.0 11309700000.0 11309700000.0 11309700000.0 11309700000.0 11309700000.0 11309700000.0 11309700000.0 11309700000.0 11309700000.0 11309700000.0 11309700000.0 11309700000.0 11309700000.0 11309700000.0 11309700000.0 11309700000.0 11309700000.0 11309700000.0 11309700000.0 11309700000.0 11309700000.0 11309700000.0 11309700000.0 11309700000.0 11309700000.0 11309700000.0 11309700000.0 11309700000.0 11309700000.0 11309700000.0 11309700000.0 11309700000.0 11309700000.0 11309700000.0 11309700000.0 11309700000.0 11309700000.0 11309700000.0 11309700000.0 11309700000.0 11309700000.0 11309700000.0 11309700000.0 11309700000.0 11309700000.0 11309700000.0 11309700000.0 11309700000.0 11309700000.0 11309700000.0 11309700000.0 11309700000.0 11309700000.0 11309700000.0 11309700000.0 11309700000.0 11309700000.0 11309700000.0 11309700000.0 11309700000.0 11309700000.0 11309700000.0 11309700000.0 11309700000.0 11309700000.0 11309700000.0 11309700000.0 11309700000.0 11309700000.0 11309700000.0 11309700000.0 11309700000.0 11309700000.0 11309700000.0 11309700000.0 11309700000.0 11309700000.0 11309700000.0 11309700000.0 11309700000.0 11309700000.0 11309700000.0 11309700000.0 11309700000.0 11309700000.0 11309700000.0 11309700000.0 11309700000.0 11309700000.0 11309700000.0 11309700000.0 11309700000.0 11309700000.0 11309700000.0 11309700000.0 11309700000.0 11309700000.0 11309700000.0 11309700000.0 11309700000.0 11309700000.0 11309700000.0 11309700000.0 11309700000.0 11309700000.0 11309700000.0 11309700000.0 11309700000.0 11309700000.0 11309700000.0 11309700000.0 11309700000.0 11309700000.0 11309700000.0 11309700000.0 11309700000.0 11309700000.0 11309700000.0 11309700000.0 11309700000.0 11309700000.0 11309700000.0 11309700000.0 11309700000.0 11309700000.0 11309700000.0 11309700000.0 11309700000.0 11309700000.0 11309700000.0 11309700000.0 11309700000.0 11309700000.0 11309700000.0 11309700000.0 11309700000.0 11309700000.0 11309700000.0 11309700000.0 11309700000.0 11309700000.0 11309700000.0 11309700000.0 11309700000.0 11309700000.0 11309700000.0 11309700000.0 11309700000.0 11309700000.0 11309700000.0 11309700000.0 11309700000.0 11309700000.0 11309700000.0 11309700000.0 11309700000.0 11309700000.0 11309700000.0 11309700000.0 11309700000.0 11309700000.0 11309700000.0 11309700000.0 11309700000.0 11309700000.0 11309700000.0 11309700000.0 11309700000.0 11309700000.0 11309700000.0 11309700000.0 11309700000.0 11309700000.0 11309700000.0 11309700000.0 11309700000.0 11309700000.0 11309700000.0 11309700000.0 11309700000.0 11309700000.0 11309700000.0 11309700000.0 11309700000.0 11309700000.0 11309700000.0 11309700000.0 11309700000.0 11309700000.0 11309700000.0 11309700000.0 11309700000.0 11309700000.0 11309700000.0 11309700000.0 11309700000.0 11309700000.0 11309700000.0 11309700000.0 11309700000.0 11309700000.0 11309700000.0 11309700000.0 11309700000.0 11309700000.0 11309700000.0 11309700000.0 11309700000.0 11309700000.0 11309700000.0 11309700000.0 11309700000.0 11309700000.0 11309700000.0 11309700000.0 11309700000.0 11309700000.0 11309700000.0 11309700000.0 11309700000.0 11309700000.0 11309700000.0 11309700000.0 11309700000.0 11309700000.0 11309700000.0 11309700000.0 11309700000.0 11309700000.0 11309700000.0 11309700000.0 11309700000.0 11309700000.0 11309700000.0 11309700000.0 11309700000.0 11309700000.0 11309700000.0 11309700000.0 11309700000.0 11309700000.0 11309700000.0 11309700000.0 11309700000.0 11309700000.0 11309700000.0 11309700000.0 11309700000.0 11309700000.0 11309700000.0 11309700000.0 11309700000.0 11309700000.0 11309700000.0 11309700000.0 11309700000.0 11309700000.0 11309700000.0 11309700000.0 11309700000.0 11309700000.0 11309700000.0 11309700000.0 11309700000.0 11309700000.0 11309700000.0 11309700000.0 11309700000.0 11309700000.0 11309700000.0 11309700000.0 11309700000.0 11309700000.0 11309700000.0 11309700000.0 11309700000.0 11309700000.0 11309700000.0 11309700000.0 11309700000.0 11309700000.0 11309700000.0 11309700000.0 11309700000.0 11309700000.0 11309700000.0 11309700000.0 11309700000.0 11309700000.0 11309700000.0 11309700000.0 11309700000.0 11309700000.0 11309700000.0 11309700000.0 11309700000.0 11309700000.0 11309700000.0 11309700000.0 11309700000.0 11309700000.0 11309700000.0 11309700000.0 11309700000.0 11309700000.0 11309700000.0 11309700000.0 11309700000.0 11309700000.0 11309700000.0 11309700000.0 11309700000.0 11309700000.0 11309700000.0 11309700000.0 11309700000.0 11309700000.0 11309700000.0 11309700000.0 11309700000.0 11309700000.0 11309700000.0 11309700000.0 11309700000.0 11309700000.0 11309700000.0 11309700000.0 11309700000.0 11309700000.0 11309700000.0 11309700000.0 11309700000.0 11309700000.0 11309700000.0 11309700000.0 11309700000.0 11309700000.0 11309700000.0 11309700000.0 11309700000.0 11309700000.0 11309700000.0 11309700000.0 11309700000.0 11309700000.0 11309700000.0 11309700000.0 11309700000.0 11309700000.0 11309700000.0 11309700000.0 11309700000.0 11309700000.0 11309700000.0 11309700000.0 11309700000.0 11309700000.0 11309700000.0 11309700000.0 11309700000.0 11309700000.0 11309700000.0 11309700000.0 11309700000.0 11309700000.0 11309700000.0 11309700000.0 11309700000.0 11309700000.0 11309700000.0 11309700000.0 11309700000.0 11309700000.0 11309700000.0 11309700000.0 11309700000.0 11309700000.0 11309700000.0 11309700000.0 11309700000.0 11309700000.0 11309700000.0 11309700000.0 11309700000.0 11309700000.0 11309700000.0 11309700000.0 11309700000.0 11309700000.0 11309700000.0 11309700000.0 11309700000.0 11309700000.0 11309700000.0 11309700000.0 11309700000.0 11309700000.0 11309700000.0 11309700000.0 11309700000.0 11309700000.0 11309700000.0 11309700000.0 11309700000.0 11309700000.0 11309700000.0 11309700000.0 11309700000.0 11309700000.0 11309700000.0 11309700000.0 11309700000.0 11309700000.0 11309700000.0 11309700000.0 11309700000.0 11309700000.0 11309700000.0 11309700000.0 11309700000.0 11309700000.0 11309700000.0 11309700000.0 11309700000.0 11309700000.0 11309700000.0 11309700000.0 11309700000.0 11309700000.0 11309700000.0 11309700000.0 11309700000.0 11309700000.0 11309700000.0 11309700000.0 11309700000.0 11309700000.0 11309700000.0 11309700000.0 11309700000.0 11309700000.0 11309700000.0 11309700000.0 11309700000.0 11309700000.0 11309700000.0 11309700000.0 11309700000.0 11309700000.0 11309700000.0 11309700000.0 11309700000.0 11309700000.0 11309700000.0 11309700000.0 11309700000.0 11309700000.0 11309700000.0 11309700000.0 11309700000.0 11309700000.0 11309700000.0 11309700000.0 11309700000.0 11309700000.0 11309700000.0 11309700000.0 11309700000.0 11309700000.0 11309700000.0 11309700000.0 11309700000.0 11309700000.0 11309700000.0 11309700000.0 11309700000.0 11309700000.0 11309700000.0 11309700000.0 11309700000.0 11309700000.0 11309700000.0 11309700000.0 11309700000.0 11309700000.0 11309700000.0 11309700000.0 11309700000.0 11309700000.0 11309700000.0 11309700000.0 11309700000.0 11309700000.0 11309700000.0 11309700000.0 11309700000.0 11309700000.0 11309700000.0 11309700000.0 11309700000.0 11309700000.0 11309700000.0 11309700000.0 11309700000.0 11309700000.0 11309700000.0 11309700000.0 11309700000.0 11309700000.0 11309700000.0 11309700000.0 11309700000.0 11309700000.0 11309700000.0 11309700000.0 11309700000.0 11309700000.0 11309700000.0 11309700000.0 11309700000.0 11309700000.0 11309700000.0 11309700000.0 11309700000.0 11309700000.0 11309700000.0 11309700000.0 11309700000.0 11309700000.0 11309700000.0 11309700000.0 11309700000.0 11309700000.0 11309700000.0 11309700000.0 11309700000.0 11309700000.0 11309700000.0 11309700000.0 11309700000.0 11309700000.0 11309700000.0 11309700000.0 11309700000.0 11309700000.0 11309700000.0 11309700000.0 11309700000.0 11309700000.0 11309700000.0 11309700000.0 11309700000.0 11309700000.0 11309700000.0 11309700000.0 11309700000.0 11309700000.0 11309700000.0 11309700000.0 11309700000.0 11309700000.0 11309700000.0 11309700000.0 11309700000.0 11309700000.0 11309700000.0 11309700000.0 11309700000.0 11309700000.0 11309700000.0 11309700000.0 11309700000.0 11309700000.0 11309700000.0 11309700000.0 11309700000.0 11309700000.0 11309700000.0 11309700000.0 11309700000.0 11309700000.0 11309700000.0 11309700000.0 11309700000.0 11309700000.0 11309700000.0 11309700000.0 11309700000.0 11309700000.0 11309700000.0 11309700000.0 11309700000.0 11309700000.0 11309700000.0 11309700000.0 11309700000.0 11309700000.0 11309700000.0 11309700000.0 11309700000.0 11309700000.0 11309700000.0 11309700000.0 11309700000.0 11309700000.0 11309700000.0 11309700000.0 11309700000.0 11309700000.0 11309700000.0 11309700000.0 11309700000.0 11309700000.0 11309700000.0 11309700000.0 11309700000.0 11309700000.0 11309700000.0 11309700000.0 11309700000.0 11309700000.0 11309700000.0 11309700000.0 11309700000.0 11309700000.0 11309700000.0 11309700000.0 11309700000.0 11309700000.0 11309700000.0 11309700000.0 11309700000.0 11309700000.0 11309700000.0 11309700000.0 11309700000.0 11309700000.0 11309700000.0 11309700000.0 11309700000.0 11309700000.0 11309700000.0 11309700000.0 11309700000.0 11309700000.0 11309700000.0 11309700000.0 11309700000.0 11309700000.0 11309700000.0 11309700000.0 11309700000.0 11309700000.0 11309700000.0 11309700000.0 11309700000.0 11309700000.0 11309700000.0 11309700000.0 11309700000.0 11309700000.0 11309700000.0 11309700000.0 11309700000.0 11309700000.0 11309700000.0 11309700000.0 11309700000.0 11309700000.0 11309700000.0 11309700000.0 11309700000.0 11309700000.0 11309700000.0 11309700000.0 11309700000.0 11309700000.0 11309700000.0 11309700000.0 11309700000.0 11309700000.0 11309700000.0 11309700000.0 11309700000.0 11309700000.0 11309700000.0 11309700000.0 11309700000.0 11309700000.0 11309700000.0 11309700000.0 11309700000.0 11309700000.0 11309700000.0 11309700000.0 11309700000.0 11309700000.0 11309700000.0 11309700000.0 11309700000.0 11309700000.0 11309700000.0 11309700000.0 11309700000.0 11309700000.0 11309700000.0 11309700000.0 11309700000.0 11309700000.0 11309700000.0 11309700000.0 11309700000.0 11309700000.0 11309700000.0 11309700000.0 11309700000.0 11309700000.0 11309700000.0 11309700000.0 11309700000.0 11309700000.0 11309700000.0 11309700000.0 11309700000.0 11309700000.0 11309700000.0 11309700000.0 11309700000.0 11309700000.0 11309700000.0 11309700000.0 11309700000.0 11309700000.0 11309700000.0 11309700000.0 11309700000.0 11309700000.0 11309700000.0 11309700000.0 11309700000.0 11309700000.0 11309700000.0 11309700000.0 11309700000.0 11309700000.0 11309700000.0 11309700000.0 11309700000.0 11309700000.0 11309700000.0 11309700000.0 11309700000.0 11309700000.0 11309700000.0 11309700000.0 11309700000.0 11309700000.0 11309700000.0 11309700000.0 11309700000.0 11309700000.0 11309700000.0 11309700000.0 11309700000.0 11309700000.0 11309700000.0 11309700000.0 11309700000.0 11309700000.0 11309700000.0 11309700000.0 11309700000.0 11309700000.0 11309700000.0 11309700000.0 11309700000.0 11309700000.0 11309700000.0 11309700000.0 11309700000.0 11309700000.0 11309700000.0 11309700000.0 11309700000.0 11309700000.0 11309700000.0 11309700000.0 11309700000.0 11309700000.0 11309700000.0 11309700000.0 11309700000.0 11309700000.0 11309700000.0 11309700000.0 11309700000.0 11309700000.0 11309700000.0 11309700000.0 11309700000.0 11309700000.0 11309700000.0 11309700000.0 11309700000.0 11309700000.0 11309700000.0 11309700000.0 11309700000.0 11309700000.0 11309700000.0 11309700000.0 11309700000.0 11309700000.0 11309700000.0 11309700000.0 11309700000.0 11309700000.0 11309700000.0 11309700000.0 11309700000.0 11309700000.0 11309700000.0 11309700000.0 11309700000.0 11309700000.0 11309700000.0 11309700000.0 11309700000.0 11309700000.0 11309700000.0 11309700000.0 11309700000.0 11309700000.0 11309700000.0 11309700000.0 11309700000.0 11309700000.0 11309700000.0 11309700000.0 11309700000.0 11309700000.0 11309700000.0 11309700000.0 11309700000.0 11309700000.0 11309700000.0 11309700000.0 11309700000.0 11309700000.0 11309700000.0 11309700000.0 11309700000.0 11309700000.0 11309700000.0 11309700000.0 11309700000.0 11309700000.0 11309700000.0 11309700000.0 11309700000.0 11309700000.0 11309700000.0 11309700000.0 11309700000.0 11309700000.0 11309700000.0 11309700000.0 11309700000.0 11309700000.0 11309700000.0 11309700000.0 11309700000.0 11309700000.0 11309700000.0 11309700000.0 11309700000.0 11309700000.0 11309700000.0 11309700000.0 11309700000.0 11309700000.0 11309700000.0 11309700000.0 11309700000.0 11309700000.0 11309700000.0 11309700000.0 11309700000.0 11309700000.0 11309700000.0 11309700000.0 11309700000.0 11309700000.0 11309700000.0 11309700000.0 11309700000.0 11309700000.0 11309700000.0 11309700000.0 11309700000.0 11309700000.0 11309700000.0 11309700000.0 11309700000.0 11309700000.0 11309700000.0 11309700000.0 11309700000.0 11309700000.0 11309700000.0 11309700000.0 11309700000.0 11309700000.0 11309700000.0 11309700000.0 11309700000.0 11309700000.0 11309700000.0 11309700000.0 11309700000.0 11309700000.0 11309700000.0 11309700000.0 11309700000.0 11309700000.0 11309700000.0 11309700000.0 11309700000.0 11309700000.0 11309700000.0 11309700000.0 11309700000.0 11309700000.0 11309700000.0 11309700000.0 11309700000.0 11309700000.0 11309700000.0 11309700000.0 11309700000.0 11309700000.0 11309700000.0 11309700000.0 11309700000.0 11309700000.0 11309700000.0 11309700000.0 11309700000.0 11309700000.0 11309700000.0 11309700000.0 11309700000.0 11309700000.0 11309700000.0 11309700000.0 11309700000.0 11309700000.0 11309700000.0 11309700000.0 11309700000.0 11309700000.0 11309700000.0 11309700000.0 11309700000.0 11309700000.0 11309700000.0 11309700000.0 11309700000.0 11309700000.0 11309700000.0 11309700000.0 11309700000.0 11309700000.0 11309700000.0 11309700000.0 11309700000.0 11309700000.0 11309700000.0 11309700000.0 11309700000.0 11309700000.0 11309700000.0 11309700000.0 11309700000.0 11309700000.0 11309700000.0 11309700000.0 11309700000.0 11309700000.0 11309700000.0 11309700000.0 11309700000.0 11309700000.0 11309700000.0 11309700000.0 11309700000.0 11309700000.0 11309700000.0 11309700000.0 11309700000.0 11309700000.0 11309700000.0 11309700000.0 11309700000.0 11309700000.0 11309700000.0 11309700000.0 11309700000.0 11309700000.0 11309700000.0 11309700000.0 11309700000.0 11309700000.0 11309700000.0 11309700000.0 11309700000.0 11309700000.0 11309700000.0 11309700000.0 11309700000.0 11309700000.0 11309700000.0 11309700000.0 11309700000.0 11309700000.0 11309700000.0 11309700000.0 11309700000.0 11309700000.0 11309700000.0 11309700000.0 11309700000.0 11309700000.0 11309700000.0 11309700000.0 11309700000.0 11309700000.0 11309700000.0 11309700000.0 11309700000.0 11309700000.0 11309700000.0 11309700000.0 11309700000.0 11309700000.0 11309700000.0 11309700000.0 11309700000.0 11309700000.0 11309700000.0 11309700000.0 11309700000.0 11309700000.0 11309700000.0 11309700000.0 11309700000.0 11309700000.0 11309700000.0 11309700000.0 11309700000.0 11309700000.0 11309700000.0 11309700000.0 11309700000.0 11309700000.0 11309700000.0 11309700000.0 11309700000.0 11309700000.0 11309700000.0 11309700000.0 11309700000.0 11309700000.0 11309700000.0 11309700000.0 11309700000.0 11309700000.0 11309700000.0 11309700000.0 11309700000.0 11309700000.0 11309700000.0 11309700000.0 11309700000.0 11309700000.0 11309700000.0 11309700000.0 11309700000.0 11309700000.0 11309700000.0 11309700000.0 11309700000.0 11309700000.0 11309700000.0 11309700000.0 11309700000.0 11309700000.0 11309700000.0 11309700000.0 11309700000.0 11309700000.0 11309700000.0 11309700000.0 11309700000.0 11309700000.0 11309700000.0 11309700000.0 11309700000.0 11309700000.0 11309700000.0 11309700000.0 11309700000.0 11309700000.0 11309700000.0 11309700000.0 11309700000.0 11309700000.0 11309700000.0 11309700000.0 11309700000.0 11309700000.0 11309700000.0 11309700000.0 11309700000.0 11309700000.0 11309700000.0 11309700000.0 11309700000.0 11309700000.0 11309700000.0 11309700000.0 11309700000.0 11309700000.0 11309700000.0 11309700000.0 11309700000.0 11309700000.0 11309700000.0 11309700000.0 11309700000.0 11309700000.0 11309700000.0 11309700000.0 11309700000.0 11309700000.0 11309700000.0 11309700000.0 11309700000.0 11309700000.0 11309700000.0 11309700000.0 11309700000.0 11309700000.0 11309700000.0 11309700000.0 11309700000.0 11309700000.0 11309700000.0 11309700000.0 11309700000.0 11309700000.0 11309700000.0 11309700000.0 11309700000.0 11309700000.0 11309700000.0 11309700000.0 11309700000.0 11309700000.0 11309700000.0 11309700000.0 11309700000.0 11309700000.0 11309700000.0 11309700000.0 11309700000.0 11309700000.0 11309700000.0 11309700000.0 11309700000.0 11309700000.0 11309700000.0 11309700000.0 11309700000.0 11309700000.0 11309700000.0 11309700000.0 11309700000.0 11309700000.0 11309700000.0 11309700000.0 11309700000.0 11309700000.0 11309700000.0 11309700000.0 11309700000.0 11309700000.0 11309700000.0 11309700000.0 11309700000.0 11309700000.0 11309700000.0 11309700000.0 11309700000.0 11309700000.0 11309700000.0 11309700000.0 11309700000.0 11309700000.0 11309700000.0 11309700000.0 11309700000.0 11309700000.0 11309700000.0 11309700000.0 11309700000.0 11309700000.0 11309700000.0 11309700000.0 11309700000.0 11309700000.0 11309700000.0 11309700000.0 11309700000.0 11309700000.0 11309700000.0 11309700000.0 11309700000.0 11309700000.0 11309700000.0 11309700000.0 11309700000.0 11309700000.0 11309700000.0 11309700000.0 11309700000.0 11309700000.0 11309700000.0 11309700000.0 11309700000.0 11309700000.0 11309700000.0 11309700000.0 11309700000.0 11309700000.0 11309700000.0 11309700000.0 11309700000.0 11309700000.0 11309700000.0 11309700000.0 11309700000.0 11309700000.0 11309700000.0 11309700000.0 11309700000.0 11309700000.0 11309700000.0 11309700000.0 11309700000.0 11309700000.0 11309700000.0 11309700000.0 11309700000.0 11309700000.0 11309700000.0 11309700000.0 11309700000.0 11309700000.0 11309700000.0 11309700000.0 11309700000.0 11309700000.0 11309700000.0 11309700000.0 11309700000.0 11309700000.0 11309700000.0 11309700000.0 11309700000.0 11309700000.0 11309700000.0 11309700000.0 11309700000.0 11309700000.0 11309700000.0 11309700000.0 11309700000.0 11309700000.0 11309700000.0 11309700000.0 11309700000.0 11309700000.0 11309700000.0 11309700000.0 11309700000.0 11309700000.0 11309700000.0 11309700000.0 11309700000.0 11309700000.0 11309700000.0 11309700000.0 11309700000.0 11309700000.0 11309700000.0 11309700000.0 11309700000.0 11309700000.0 11309700000.0 11309700000.0 11309700000.0 11309700000.0 11309700000.0 11309700000.0 11309700000.0 11309700000.0 11309700000.0 11309700000.0 11309700000.0 11309700000.0 11309700000.0 11309700000.0 11309700000.0 11309700000.0 11309700000.0 11309700000.0 11309700000.0 11309700000.0 11309700000.0 11309700000.0 11309700000.0 11309700000.0 11309700000.0 11309700000.0 11309700000.0 11309700000.0 11309700000.0 11309700000.0 11309700000.0 11309700000.0 11309700000.0 11309700000.0 11309700000.0 11309700000.0 11309700000.0 11309700000.0 11309700000.0 11309700000.0 11309700000.0 11309700000.0 11309700000.0 11309700000.0 11309700000.0 11309700000.0 11309700000.0 11309700000.0 11309700000.0 11309700000.0 11309700000.0 11309700000.0 11309700000.0 11309700000.0 11309700000.0 11309700000.0 11309700000.0 11309700000.0 11309700000.0 11309700000.0 11309700000.0 11309700000.0 11309700000.0 11309700000.0 11309700000.0 11309700000.0 11309700000.0 11309700000.0 11309700000.0 11309700000.0 11309700000.0 11309700000.0 11309700000.0 11309700000.0 11309700000.0 11309700000.0 11309700000.0 11309700000.0 11309700000.0 11309700000.0 11309700000.0 11309700000.0 11309700000.0 11309700000.0 11309700000.0 11309700000.0 11309700000.0 11309700000.0 11309700000.0 11309700000.0 11309700000.0 11309700000.0 11309700000.0 11309700000.0 11309700000.0 11309700000.0 11309700000.0 11309700000.0 11309700000.0 11309700000.0 11309700000.0 11309700000.0 11309700000.0 11309700000.0 11309700000.0 11309700000.0 11309700000.0 11309700000.0 11309700000.0 11309700000.0 11309700000.0 11309700000.0 11309700000.0 11309700000.0 11309700000.0 11309700000.0 11309700000.0 11309700000.0 11309700000.0 11309700000.0 11309700000.0 11309700000.0 11309700000.0 11309700000.0 11309700000.0 11309700000.0 11309700000.0 11309700000.0 11309700000.0 11309700000.0 11309700000.0 11309700000.0 11309700000.0 11309700000.0 11309700000.0 11309700000.0 11309700000.0 11309700000.0 11309700000.0 11309700000.0 11309700000.0 11309700000.0 
SCALARS Velocity float 1
LOOKUP_TABLE default
1.05478 1.06895 1.02972 1.06731 1.04849 1.05943 1.07215 1.04063 1.07102 1.0689 1.0685 1.06829 1.07034 1.07098 1.0729 1.0751 1.06048 1.06361 1.05892 1.05569 1.0523 1.01752 1.04458 1.05934 1.05751 1.07314 1.06646 1.02937 1.06734 1.07846 1.07385 1.07048 1.06859 1.06982 1.07249 1.0138 1.05305 1.06893 1.05909 1.05245 1.04768 1.01581 1.04481 1.06416 1.06492 1.02925 1.03969 1.06789 1.07325 1.0689 1.06871 1.07095 1.07442 1.06024 1.06376 1.06453 1.05588 1.04622 1.05646 1.08047 1.03976 1.07762 1.06996 1.06851 1.06985 1.07124 1.07265 1.07475 1.07586 1.08072 1.07573 1.07069 1.06893 1.06586 1.05902 1.05297 1.01235 1.0645 1.0701 1.07577 1.03915 1.07053 1.0762 1.0724 1.06942 1.06857 1.06862 1.06901 1.07016 1.07311 1.07755 1.07728 1.06997 1.0603 1.05773 1.0537 1.0438 1.04936 1.03469 1.07353 1.0911 1.08822 1.08245 1.03624 1.05117 1.07508 1.07182 1.06857 1.06937 1.0717 1.07553 1.07897 1.0735 1.0655 1.05874 1.05578 1.05657 1.10237 1.08404 1.07458 1.06926 1.06894 1.07056 1.07365 1.07727 1.0765 1.0697 1.06127 1.05766 1.04366 1.02844 1.08345 1.09085 1.08418 1.07818 1.07385 1.07095 1.06953 1.06891 1.06934 1.06975 1.07085 1.07209 1.07368 1.07544 1.07632 1.07732 1.07517 1.07304 1.06912 1.06539 1.06157 1.0588 1.05857 1.06429 1.06384 1.03156 1.06666 1.07953 1.09313 1.12282 1.13476 1.1205 1.0882 1.07984 1.07112 1.0695 1.07 1.07214 1.07489 1.07581 1.07205 1.06515 1.05929 1.06038 1.04179 1.09926 1.12627 1.09683 1.07474 1.07052 1.06967 1.07088 1.07336 1.07524 1.07385 1.06845 1.06179 1.05838 1.06012 1.0381 1.06478 1.11469 1.11536 1.08416 1.07793 1.0728 1.07178 1.07017 1.0698 1.07002 1.07065 1.0719 1.07282 1.07415 1.07423 1.07451 1.07274 1.07107 1.06786 1.0649 1.06176 1.05942 1.0579 1.05828 1.05786 1.04487 1.04774 1.06648 1.09034 1.10362 1.11685 1.11144 1.09994 1.08766 1.07498 1.0706 1.06979 1.07145 1.07336 1.07346 1.07023 1.06457 1.05924 1.05702 1.0539 1.08418 1.10731 1.10186 1.08043 1.07275 1.06961 1.07021 1.07216 1.07333 1.07184 1.06727 1.0615 1.05739 1.05647 1.05221 1.06803 1.09381 1.1079 1.08761 1.07659 1.07286 1.07053 1.06902 1.06932 1.06961 1.07084 1.0714 1.07256 1.07255 1.07263 1.07116 1.06952 1.06667 1.06411 1.06102 1.05887 1.05683 1.05618 1.05549 1.05845 1.05992 1.06955 1.07984 1.08769 1.09811 1.10455 1.05794 1.08264 1.07745 1.06985 1.06864 1.07009 1.07175 1.07206 1.06892 1.0635 1.05829 1.05543 1.06416 1.07816 1.09332 1.0593 1.06117 1.06189 1.07253 1.06802 1.06887 1.07049 1.07189 1.07069 1.06605 1.06031 1.05744 1.05612 1.0546 1.05465 1.06368 1.06826 1.0714 1.07741 1.08424 1.09725 1.06138 1.06187 1.06893 1.06658 1.0678 1.06794 1.06913 1.06924 1.07082 1.0713 1.07182 1.07044 1.06838 1.06534 1.06269 1.05925 1.05516 1.05378 1.06797 1.07305 1.08106 1.08782 1.08997 1.06044 1.06163 1.06199 1.0669 1.06764 1.06959 1.07218 1.06777 1.06152 1.05622 1.05363 1.07098 1.07652 1.08316 1.06145 1.06144 1.06121 1.06133 1.06228 1.06414 1.06455 1.06626 1.06741 1.07065 1.07029 1.06439 1.05971 1.0577 1.05463 1.05397 1.05261 1.05286 1.07048 1.07218 1.07362 1.07543 1.07856 1.07984 1.08446 1.06141 1.0625 1.06283 1.0641 1.06551 1.06492 1.06783 1.06958 1.07379 1.06961 1.06663 1.063 1.05546 1.05278 1.05195 1.07169 1.07359 1.07634 1.08047 1.06221 1.06346 1.06195 1.06286 1.06343 1.06512 1.07864 1.06374 1.05639 1.05326 1.05167 1.07258 1.07332 1.07453 1.07503 1.0766 1.07612 1.06691 1.06488 1.06323 1.06226 1.06175 1.06197 1.0617 1.06233 1.06163 1.06325 1.06548 1.06665 1.05778 1.05894 1.05582 1.05405 1.05241 1.05183 1.0508 1.05104 1.07211 1.07251 1.07384 1.07518 1.07182 1.06479 1.06228 1.06151 1.06103 1.06151 1.06573 1.06807 1.08611 1.05528 1.05756 1.05365 1.05103 1.05006 1.07195 1.07287 1.07411 1.07394 1.06767 1.06342 1.06172 1.06112 1.05994 1.06676 1.03805 1.04666 1.05741 1.05522 1.05178 1.04986 1.07136 1.07207 1.07216 1.0731 1.07297 1.0737 1.0722 1.07079 1.06779 1.06542 1.06389 1.06249 1.06175 1.06127 1.0606 1.06042 1.05917 1.05841 1.03664 1.04673 1.05444 1.0552 1.05625 1.05385 1.05288 1.05069 1.05011 1.04863 1.04887 1.07128 1.07208 1.07221 1.06981 1.06571 1.06273 1.06094 1.05933 1.05189 1.0394 1.0388 1.04048 1.05128 1.0538 1.05132 1.04869 1.04731 1.07039 1.07113 1.07165 1.07076 1.06887 1.06751 1.06566 1.06413 1.06275 1.06165 1.06032 1.05967 1.05532 1.0428 1.04163 1.04563 1.0485 1.05191 1.0507 1.05149 1.04892 1.04888 1.04661 1.04689 1.04525 1.06905 1.07012 1.06976 1.0708 1.07019 1.07076 1.06945 1.06701 1.06408 1.06131 1.05822 1.05699 1.05307 1.0497 1.04161 1.04479 1.04888 1.04854 1.04633 1.04454 1.06858 1.06925 1.06928 1.0679 1.06537 1.06254 1.05946 1.05526 1.04901 1.04479 1.04348 1.04286 1.04451 1.04652 1.04767 1.04594 1.04386 1.04266 1.06732 1.06668 1.06805 1.06744 1.06856 1.06772 1.06813 1.06688 1.06637 1.06492 1.06382 1.06221 1.06081 1.05873 1.05704 1.0519 1.04585 1.04379 1.04536 1.04649 1.045 1.04543 1.04259 1.04318 1.04052 1.04159 1.03958 1.06521 1.06602 1.06675 1.06676 1.06563 1.06348 1.06039 1.05628 1.05419 1.05124 1.04874 1.0463 1.04454 1.04456 1.04483 1.04233 1.03955 1.03814 1.06272 1.06441 1.06365 1.06535 1.06471 1.06601 1.06529 1.06579 1.06443 1.06195 1.05831 1.05359 1.0485 1.04499 1.0444 1.04488 1.04494 1.04392 1.04274 1.03921 1.03895 1.0355 1.03671 1.03438 1.03618 1.06178 1.06297 1.06414 1.06464 1.06486 1.06399 1.06321 1.06191 1.06024 1.0583 1.05595 1.05338 1.05083 1.04816 1.04627 1.04471 1.04536 1.04089 1.03496 1.03258 1.03271 1.0599 1.06095 1.06241 1.06369 1.06409 1.06312 1.06047 1.05613 1.05063 1.04576 1.04486 1.04452 1.04543 1.04389 1.03585 1.03106 1.03057 1.05677 1.05882 1.05792 1.06027 1.05983 1.06204 1.06191 1.06341 1.06332 1.06364 1.06326 1.06221 1.0612 1.05884 1.0537 1.04773 1.0439 1.04594 1.04695 1.04498 1.03933 1.03179 1.03039 1.02629 1.02836 1.02715 1.02954 1.05556 1.05727 1.05969 1.06207 1.06342 1.06289 1.06002 1.05698 1.05481 1.05098 1.04792 1.04465 1.04135 1.04314 1.05031 1.03787 1.02499 1.02451 1.02722 1.05343 1.0521 1.0546 1.05396 1.05694 1.05704 1.05992 1.06056 1.06253 1.06326 1.06365 1.06246 1.05861 1.0523 1.0445 1.03768 1.04514 1.0561 1.04739 1.03608 1.02623 1.01918 1.02165 1.02178 1.0248 1.02637 0.893832 1.05004 1.05109 1.05373 1.05763 1.06162 1.06421 1.06395 1.06423 1.06188 1.06106 1.05688 1.05477 1.04942 1.04086 1.03356 1.04987 1.01955 1.01799 1.02426 1.04691 1.04861 1.04754 1.05043 1.05021 1.05402 1.05877 1.06307 1.06529 1.06436 1.05988 1.05232 1.0463 1.0434 1.03763 1.03974 1.03813 1.01113 1.03899 1.01386 1.02114 1.02573 1.02747 1.04538 1.04675 1.05056 1.05493 1.05651 1.06045 1.06263 1.06481 1.06672 1.06636 1.06728 1.06421 1.05829 1.04972 1.0426 1.03527 0.978509 0.964028 1.01148 1.01211 1.01686 1.02179 1.03093 0.893832 1.0445 1.0428 1.04415 1.04634 1.05164 1.05877 1.06519 1.06865 1.06787 1.06366 1.06257 1.05628 1.05393 1.04756 1.04391 1.0394 1.02626 1.0087 0.979804 0.99253 1.01458 1.02926 1.0435 1.04108 1.04298 1.04197 1.04649 1.04744 1.05352 1.0562 1.06164 1.06496 1.06796 1.07039 1.06794 1.06082 1.05023 1.03484 1.00215 0.973346 0.99845 1.00821 1.02301 1.03542 1.0372 1.04129 1.03891 1.04141 1.04931 1.0596 1.06857 1.07075 1.07336 1.07174 1.07243 1.06728 1.06541 1.05777 1.04306 1.01866 0.982043 0.97348 0.982688 0.986869 1.0255 1.04687 0.893832 1.04478 1.04109 1.03822 1.03358 1.03658 1.03448 1.04168 1.04309 1.05212 1.0636 1.07227 1.0755 1.07207 1.06158 1.0522 1.04304 1.03099 1.01441 0.998206 0.97978 0.971804 1.00485 1.03384 1.04544 1.06026 1.04914 1.03477 1.02889 1.03331 1.04571 1.05586 1.06043 1.06804 1.07267 1.0758 1.07881 1.07681 1.07011 1.05506 1.02996 0.994527 0.965864 0.955083 0.972756 1.00624 1.06124 1.05566 1.04206 1.02791 1.02432 1.016 1.02421 1.02074 1.03365 1.0496 1.06571 1.07724 1.08089 1.07683 1.07509 1.06601 1.05948 1.04537 1.03223 1.01296 0.991646 0.973449 0.95178 0.949716 1.0508 1.0822 1.07686 1.04287 1.00529 1.0084 1.02004 1.03597 1.04044 1.0549 1.0613 1.07149 1.0813 1.08157 1.0713 1.05015 1.01518 0.965842 0.929137 0.908383 1.01742 1.07795 1.09374 1.05691 1.04576 1.0114 0.974524 0.991876 0.983967 1.00294 1.02224 1.04664 1.06844 1.07725 1.08245 1.08436 1.08605 1.08052 1.07778 1.06531 1.03744 0.992559 0.964388 0.935063 0.895538 1.05631 1.12032 1.10304 1.09721 1.04455 0.991754 0.947609 0.974074 1.00008 1.00391 1.02746 1.03838 1.05517 1.07548 1.08636 1.08627 1.07333 1.05661 1.04343 1.02038 0.996379 0.931708 0.840341 1.18889 1.09413 1.04858 1.06496 0.990922 0.949236 0.896231 0.943358 0.977553 1.01906 1.04985 1.06416 1.07085 1.08085 1.08438 1.08876 1.08534 1.06712 1.02544 0.966859 0.933848 0.889051 0.780972 1.24898 1.10168 1.08073 1.08855 1.14986 1.07004 0.96371 0.934076 0.955061 0.979212 0.998325 1.01651 1.03348 1.05862 1.0749 1.08638 1.09001 1.0904 1.08282 1.07841 1.05833 1.04838 0.997036 0.961371 0.889922 1.12152 1.09081 0.979361 1.00232 0.97069 0.908778 0.947307 0.97485 1.00089 1.0328 1.04561 1.05108 1.06308 1.07672 1.08782 1.08928 1.07026 1.02501 0.993016 0.916035 0.888603 0.850783 1.22918 1.18685 1.13014 1.09594 1.21157 0.968576 0.883563 0.967645 0.989572 1.01262 1.02128 1.04039 1.05181 1.06423 1.06272 1.07694 1.07523 1.0878 1.08538 1.08604 1.07653 1.05501 1.03059 0.995359 0.950259 0.910039 0.919066 1.09192 1.16725 1.14909 0.879823 0.755902 0.899834 0.811315 0.854199 1.00696 1.02817 1.03179 1.03162 1.04079 1.04987 1.05933 1.06997 1.07845 1.05991 1.03054 0.95717 0.926182 1.07519 1.17672 1.1451 1.05566 0.389971 1.08551 0.793443 0.776202 0.758688 0.946989 1.04159 1.03357 1.02543 1.02831 1.03809 1.03325 1.04559 1.053 1.06387 1.06608 1.04728 0.993216 0.981598 0.955863 0.995957 0.978139 1.08902 1.22299 1.04338 0.919221 2.71465 2.02707 1.47909 1.02164 0.645648 0.626353 0.984529 1.03656 1.02534 1.01414 1.01981 1.02396 1.02629 1.03801 1.02604 1.04498 1.03644 1.05539 1.04105 1.01276 0.987999 1.00913 1.08888 0.871936 1.1375 0.781115 0.664139 1.75564 2.72848 1.33313 1.66972 0.708978 0.716103 0.887742 0.995578 1.03328 1.01579 1.00688 1.01473 1.00918 1.01766 1.01444 1.0146 1.0252 1.01729 0.978171 0.993627 1.05347 1.10628 1.12868 1.04362 1.10663 0.665641 0.860779 0.765586 0.947313 1.67735 0.935763 0.786525 0.674542 0.90669 0.988998 1.01737 1.00335 1.00223 1.00263 1.00818 0.993392 1.00144 0.990211 1.0031 0.98622 1.01235 0.985975 0.980455 1.01561 0.989575 0.982438 1.27937 0.982057 1.01691 0.998188 0.839691 0.794271 0.667179 0.638018 0.819839 0.97514 1.01283 1.54628 1.22409 0.789974 0.857747 0.886427 0.924746 0.943362 0.984553 1.00341 0.995508 0.997737 0.997297 0.993758 0.979779 0.977938 0.962154 0.909653 0.944414 0.987905 0.991134 0.942553 1.12391 1.03595 1.02687 0.964959 0.854193 0.783004 0.779481 0.550125 0.553765 0.610738 0.632954 0.681111 0.931341 0.93544 0.792536 1.02627 0.62187 0.843676 0.924759 0.953852 0.98965 0.992932 0.992851 0.984759 0.990929 0.982347 0.984231 0.970755 0.963306 0.958388 0.916524 0.833894 0.900154 1.0649 0.98911 0.875793 0.923346 1.01553 1.05875 0.948788 0.861118 0.74717 0.835208 0.931081 0.381356 0.150595 0.610931 0.63529 0.684932 0.757829 0.810961 0.847242 0.917194 0.801366 1.11284 0.726741 0.740457 0.770539 0.83598 0.936171 0.966923 0.993196 0.993826 0.984244 0.972805 0.975076 0.97548 0.965756 0.933683 0.843909 0.767193 0.935071 0.550299 0.922166 0.722318 0.9217 1.01634 0.998859 0.946667 0.904588 0.800579 0.780532 0.813506 1.07909 0.130519 0.090282 0.68417 0.648118 0.65147 0.784277 0.781318 0.796124 0.781647 1.03966 0.902862 0.731061 0.758952 0.793549 0.866359 0.970587 0.999113 0.993211 0.969803 0.96802 0.946634 0.960575 0.980335 0.964657 0.91494 0.849641 0.74577 0.997183 0.780858 0.511736 0.846917 0.910755 0.968607 0.946323 0.930316 0.965301 0.832796 0.825361 0.859131 0.847034 1.15565 0.353836 0.353262 0.670372 0.693485 0.734172 0.830759 0.626284 1.10159 0.947154 0.641893 0.642723 0.601594 0.466827 0.753475 0.708013 0.726183 0.745241 0.852937 0.92567 1.0221 0.985357 0.938645 0.924931 0.953957 0.968885 0.990231 1.02829 0.814968 0.594804 0.925559 0.700059 0.726326 0.841714 0.918067 0.84003 0.802861 0.836215 0.794277 0.730715 0.716102 0.874263 0.819434 0.630444 0.52045 0.468541 0.63096 0.654972 0.65874 0.719833 0.740448 1.07552 0.560172 0.567914 0.6259 0.616292 0.777731 0.788314 0.734969 0.745954 0.741728 0.776072 0.956827 1.00102 1.07477 0.99048 0.936871 0.911714 0.911451 1.00429 0.952862 0.884445 0.736989 0.325599 0.893763 0.616854 0.69957 0.894754 0.869399 0.806055 0.764917 0.610521 0.708246 0.692351 0.849026 0.959722 0.629957 0.616448 0.687404 0.580558 0.541941 0.600816 0.617707 0.641691 0.624794 0.666463 0.664053 0.267014 0.706349 0.714201 0.691275 0.686761 0.775807 0.82297 0.795503 0.772766 0.821996 0.924468 1.07891 0.926019 0.948066 0.88344 0.901108 0.885436 0.894997 0.88992 0.915788 0.867674 1.14844 1.17769 0.922834 1.05167 0.476468 1.07444 0.90758 0.817721 0.827197 0.832456 0.800258 0.765105 0.769921 0.743714 0.62099 0.535261 0.577911 1.09599 0.756032 0.264644 0.429005 0.5627 0.544227 0.556925 0.548393 0.589794 0.593945 0.617816 0.584765 0.622013 0.52848 0.439464 0.543531 0.649682 0.689286 0.68973 0.744058 0.796458 0.832314 0.816951 0.798007 1.09562 1.05819 1.14473 0.656807 0.86066 0.837795 0.864503 0.879761 0.948407 0.996109 0.867383 1.46106 2.18064 0.21575 0.974555 0.667414 0.723866 0.777901 0.758924 0.742509 0.715405 0.685314 0.627891 0.573796 0.527655 0.516283 0.243355 0.443746 0.513545 0.58989 0.572872 0.575651 0.509004 0.536086 0.560711 0.55238 0.598787 0.576516 0.554106 0.547376 0.544792 0.522709 0.701281 0.750069 0.822192 0.881497 0.893154 1.29039 1.01967 1.00881 0.587448 0.84687 0.87181 0.878172 1.06901 0.984815 0.887563 0.835234 1.32847 2.02653 0.433425 0.686542 0.740646 0.705802 0.681525 0.714941 0.67633 0.652342 0.615218 0.621071 0.582344 0.643902 0.435194 0.220905 0.11233 0.308697 0.39531 0.50697 0.600022 0.621603 0.550132 0.46674 0.485852 0.536814 0.544707 0.52491 0.520065 0.54575 0.539905 0.55702 0.637839 0.649752 0.674769 0.717582 0.796643 0.891932 0.913431 1.00178 1.29401 0.616065 0.744568 0.541198 0.740224 0.909649 0.871827 0.847956 0.913701 0.508273 0.914776 0.655378 0.778192 0.686788 0.800744 0.573857 0.571307 0.59002 0.678788 0.664506 0.634269 0.638408 0.607078 0.659688 0.581599 0.523727 0.265818 0.360711 0.45438 0.548842 0.617817 0.569147 0.507305 0.515762 0.37828 0.433627 0.450858 0.469541 0.514584 0.500494 0.526659 0.514121 0.500871 0.504278 0.523968 0.531149 0.537504 0.601086 0.637624 0.667322 0.679836 0.705826 0.636338 0.319043 0.70125 0.915065 0.625646 0.583551 0.53715 0.639809 0.736393 0.935085 0.895775 0.780526 0.645269 0.864699 0.782225 0.477482 0.663252 0.369605 0.340573 0.67158 0.535517 0.49043 0.516609 0.616792 0.619362 0.607296 0.597275 0.640601 0.677326 0.579746 0.564548 0.508974 0.306131 0.37055 0.448681 0.509135 0.581056 0.488317 0.480681 0.335453 0.356106 0.403874 0.415837 0.443401 0.49463 0.460067 0.483713 0.481332 0.439513 0.474005 0.500657 0.517748 0.512534 0.519804 0.554096 0.592891 0.614847 0.640384 0.597606 0.555521 0.412368 0.199364 0.408502 0.637631 0.597155 0.622506 0.594883 0.898974 0.994614 0.758423 0.749465 0.551818 0.58047 0.466361 0.372566 0.194986 0.646661 0.640561 0.478388 0.491216 0.563755 0.572711 0.581309 0.579517 0.616917 0.645638 0.594697 0.526442 0.501874 0.449193 0.404696 0.320056 0.349633 0.387208 0.470988 0.452582 0.304259 0.504559 0.375127 0.462272 0.422219 0.264406 0.29818 0.31957 0.380481 0.399762 0.469978 0.442903 0.447477 0.441559 0.415769 0.454492 0.479409 0.494045 0.496331 0.528353 0.550955 0.57444 0.584657 0.602737 0.435837 0.214325 0.275611 0.47847 0.770943 0.647994 0.616085 0.59441 0.824535 0.890434 0.672561 0.687132 0.515843 0.519384 0.467709 0.625388 0.542446 0.52525 0.48366 0.520749 0.53817 0.554852 0.564993 0.578164 0.597209 0.575919 0.5365 0.491704 0.482168 0.417406 0.356793 0.362294 0.398816 0.444795 0.399518 0.286243 0.387087 0.330596 0.226263 0.293843 0.320746 0.344806 0.370143 0.392786 0.433802 0.449582 0.454395 0.438079 0.405217 0.415575 0.45909 0.4845 0.488195 0.496464 0.524954 0.537602 0.52961 0.543482 0.542136 0.51078 0.356196 0.336362 0.415318 0.548157 0.691493 0.474025 0.415304 0.383404 0.394369 0.536455 0.547653 0.494037 0.50295 0.51667 0.532295 0.548302 0.563913 0.566916 0.546864 0.517584 0.480011 0.455892 0.445366 0.364224 0.333813 0.319965 0.411389 0.370237 0.371031 0.561124 0.266743 0.341072 0.245586 0.248952 0.194491 0.179276 0.225023 0.264214 0.300939 0.343667 0.365055 0.424608 0.448563 0.437173 0.434904 0.411879 0.39941 0.422654 0.471407 0.485145 0.489364 0.507787 0.519201 0.499976 0.507266 0.52049 0.500506 0.455974 0.410957 0.432737 0.466675 0.544273 0.6359 0.615732 0.588606 0.673763 0.806612 0.758564 0.668311 0.576112 0.50436 0.500224 0.46328 0.438599 0.456267 0.49563 0.521369 0.509609 0.499833 0.49803 0.508829 0.520156 0.53056 0.554173 0.559606 0.55339 0.530899 0.499468 0.465261 0.448092 0.421463 0.350726 0.368371 0.352791 0.408118 0.403825 0.292599 0.33305 0.439034 0.258947 0.224754 0.190137 0.207386 0.0882393 0.117268 0.173306 0.278171 0.324815 0.340281 0.386906 0.418812 0.427224 0.424557 0.414384 0.400377 0.465829 0.478055 0.481742 0.496626 0.483849 0.473839 0.496754 0.499321 0.481212 0.435047 0.467099 0.492648 0.543035 0.598516 0.603016 0.628073 0.704203 0.730253 0.694252 0.60917 0.557479 0.510979 0.485275 0.476172 0.482392 0.501507 0.508054 0.494711 0.501233 0.508621 0.516103 0.523403 0.53706 0.544378 0.55504 0.54696 0.533035 0.510026 0.472314 0.422093 0.399856 0.361354 0.375278 0.397694 0.360661 0.362922 0.326007 0.36239 0.274261 0.192656 0.17897 0.220944 0.21828 0.112265 0.0774606 0.258534 0.322663 0.316224 0.331478 0.330573 0.354931 0.375399 0.392594 0.41265 0.41217 0.392324 0.434106 0.461552 0.476735 0.463018 0.461477 0.478361 0.508908 0.508113 0.484825 0.467134 0.46222 0.511858 0.550077 0.586789 0.614598 0.647633 0.677324 0.679246 0.63626 0.584121 0.543799 0.510794 0.498893 0.499663 0.506348 0.505249 0.502747 0.504047 0.510141 0.516055 0.527874 0.531365 0.540628 0.544976 0.544308 0.527316 0.509621 0.458586 0.403522 0.399125 0.396251 0.403951 0.365263 0.379913 0.372748 0.375134 0.386591 0.27447 0.251238 0.224685 0.187079 0.238884 0.223429 0.210219 0.209501 0.165008 0.157006 0.0767447 0.130902 0.226721 0.350412 0.349045 0.332734 0.338521 0.35274 0.37946 0.399841 0.404494 0.391801 0.390799 0.426226 0.458106 0.467984 0.494229 0.517219 0.521085 0.508545 0.498098 0.492369 0.487612 0.493872 0.557241 0.588512 0.618021 0.639055 0.647156 0.632997 0.600565 0.56574 0.536939 0.517503 0.508531 0.505602 0.504856 0.50882 0.513093 0.517157 0.520942 0.525333 0.527763 0.531897 0.536725 0.537657 0.529703 0.516421 0.477822 0.429906 0.39554 0.39154 0.418471 0.417977 0.394987 0.39918 0.403537 0.416674 0.313248 0.245295 0.24873 0.238942 0.245985 0.206456 0.233602 0.199172 0.168779 0.170543 0.229289 0.307713 0.387112 0.379184 0.360153 0.316824 0.318252 0.318918 0.339977 0.369431 0.402712 0.401556 0.382042 0.376112 0.415393 0.459422 0.459282 0.456448 0.520487 0.517663 0.513258 0.510272 0.506243 0.504443 0.51035 0.529396 0.511946 0.512514 0.511551 0.509221 0.508986 0.511728 0.515518 0.520956 0.524153 0.526347 0.528674 0.532274 0.530227 0.525499 0.389144 0.380344 0.401014 0.412729 0.382114 0.394773 0.455865 0.363077 0.337691 0.292161 0.281941 0.188642 0.219643 0.249136 0.224531 0.174104 0.170468 0.234736 0.229649 0.231396 0.232254 0.115608 0.0486624 0.20715 0.408186 0.331415 0.301065 0.30706 0.331965 0.3888 0.398305 0.398427 0.386531 0.379157 0.415607 0.466044 0.455869 0.485837 0.512583 0.510901 0.51946 0.517333 0.51586 0.51382 0.514884 0.523259 0.540115 0.564055 0.58985 0.611046 0.621602 0.616282 0.600255 0.577957 0.553671 0.534019 0.523149 0.519094 0.516336 0.513876 0.513182 0.514781 0.518813 0.521668 0.523824 0.525211 0.526292 0.52821 0.525752 0.512446 0.48301 0.445204 0.408026 0.398387 0.382788 0.381663 0.378922 0.519508 0.334801 0.251035 0.129515 0.237643 0.232537 0.206521 0.221349 0.161555 0.103898 0.0721539 0.235127 0.241793 0.234929 0.192144 0.12674 0.244014 0.378246 0.631722 0.469036 0.366422 0.285711 0.28707 0.299388 0.363809 0.390857 0.403109 0.409256 0.403539 0.404285 0.419436 0.469748 0.497574 0.499536 0.510982 0.511345 0.521055 0.518873 0.518159 0.518224 0.52292 0.532068 0.547606 0.567071 0.585803 0.598219 0.599782 0.592288 0.578653 0.561754 0.545509 0.533404 0.526267 0.521827 0.518933 0.51761 0.517646 0.520477 0.522574 0.523754 0.524181 0.524033 0.52434 0.522085 0.509683 0.489054 0.465993 0.431213 0.33782 0.412242 0.396075 0.372467 0.354118 0.367528 0.679812 0.796611 0.404078 0.299755 0.177556 0.191127 0.189315 0.200072 0.128836 0.072582 0.244416 0.255106 0.211352 0.173183 0.115915 0.0616628 0.498823 0.322951 0.332864 0.308346 0.259227 0.267128 0.330978 0.376141 0.405261 0.424678 0.43126 0.428059 0.423576 0.443542 0.479803 0.495757 0.494807 0.509909 0.514008 0.51846 0.519032 0.519782 0.523093 0.529503 0.538368 0.551178 0.565652 0.577376 0.582802 0.581184 0.573644 0.562647 0.550931 0.540648 0.532756 0.527315 0.52388 0.518006 0.519819 0.522213 0.523879 0.524376 0.523682 0.522262 0.522251 0.518012 0.507347 0.493945 0.479367 0.462246 0.441045 0.553339 0.415058 0.380889 0.343803 0.328696 0.321326 0.30672 0.433045 0.302576 0.162468 0.148275 0.151166 0.124842 0.169392 0.167204 0.0838394 0.0668008 0.0813333 0.251786 0.249236 0.258751 0.260971 0.244048 0.210969 0.159729 0.219855 0.581238 0.43222 0.436357 0.336631 0.246675 0.302825 0.357853 0.40434 0.432721 0.450806 0.452382 0.443918 0.442681 0.451344 0.470491 0.490106 0.496299 0.504771 0.510407 0.515442 0.517647 0.518049 0.533366 0.541426 0.551514 0.561165 0.567607 0.569188 0.566065 0.559727 0.551854 0.544028 0.537196 0.52207 0.521508 0.522246 0.523836 0.525081 0.525329 0.524058 0.521836 0.520897 0.518561 0.514362 0.50489 0.493347 0.481641 0.467184 0.444934 0.481022 0.496501 0.424902 0.378649 0.346122 0.332401 0.335694 0.48621 0.300105 0.215397 0.144361 0.0258152 0.130428 0.120583 0.183518 0.156066 0.103066 0.0628429 0.0751815 0.0528794 0.20787 0.233858 0.236045 0.245354 0.228625 0.266026 0.24621 0.323856 0.299093 0.32338 0.0478424 0.357984 0.445747 0.448738 0.19178 0.253315 0.348463 0.413376 0.44319 0.458823 0.465999 0.461318 0.449664 0.442549 0.449371 0.467501 0.482962 0.489825 0.498887 0.507029 0.511761 0.515642 0.518687 0.522602 0.527203 0.531785 0.528205 0.52601 0.524892 0.524842 0.525485 0.526035 0.525938 0.524506 0.51893 0.515657 0.511583 0.504023 0.494416 0.485409 0.474869 0.460187 0.473033 0.477154 0.471404 0.427029 0.39586 0.369577 0.341603 0.36539 0.130851 0.163023 0.163346 0.122254 0.12659 0.109987 0.140329 0.104253 0.0562845 0.0549373 0.0562723 0.0588144 0.189521 0.217856 0.218741 0.20913 0.216876 0.246052 0.384309 0.473605 0.143687 0.225763 0.445352 0.477372 0.508541 0.581042 0.360001 0.440434 0.466862 0.472271 0.467883 0.468525 0.458457 0.443466 0.439419 0.446607 0.459424 0.47392 0.484582 0.49447 0.503654 0.509877 0.515481 0.519779 0.524035 0.529038 0.535179 0.542389 0.549762 0.555706 0.558714 0.558301 0.555165 0.550331 0.544822 0.539399 0.534818 0.531434 0.529102 0.527726 0.527178 0.527087 0.526939 0.522158 0.518683 0.514739 0.510281 0.504336 0.496937 0.489291 0.481748 0.472579 0.473418 0.47468 0.471374 0.458602 0.428972 0.403225 0.384978 0.325931 0.195064 0.0840932 0.112848 0.122757 0.19629 0.150522 0.124454 0.121244 0.095276 0.0610038 0.0624772 0.0283045 0.0444948 0.0665883 0.160777 0.192421 0.164575 0.191324 0.152911 0.203598 0.216196 0.360115 0.560124 0.299992 0.311699 0.458704 0.482288 0.499012 0.779758 0.427971 0.500912 0.491144 0.491545 0.468533 0.460155 0.460045 0.436431 0.442054 0.454564 0.469412 0.481565 0.492367 0.502404 0.509319 0.514908 0.519708 0.524577 0.530105 0.536026 0.541963 0.54705 0.550411 0.551561 0.550511 0.547827 0.544191 0.5402 0.53653 0.533537 0.531301 0.529838 0.52897 0.528378 0.526329 0.524783 0.522412 0.518948 0.514949 0.510314 0.50527 0.499574 0.493443 0.487739 0.48153 0.478727 0.478106 0.451779 0.426872 0.397098 0.360076 0.270287 0.186926 0.127566 0.137254 0.366876 0.217218 0.12645 0.0937679 0.0716675 0.0671448 0.0704273 0.033324 0.0528937 0.0610532 0.0742542 0.127521 0.147536 0.171605 0.151559 0.151067 0.0911848 0.133519 0.061723 0.382686 0.725297 0.632789 0.400168 0.628898 0.567638 0.570961 0.720051 0.54981 0.491003 0.474946 0.458604 0.448552 0.438116 0.492098 0.501319 0.508374 0.514289 0.519833 0.525293 0.530833 0.536075 0.540634 0.544047 0.545964 0.546283 0.545153 0.542942 0.540181 0.537374 0.534823 0.532787 0.531315 0.527723 0.526659 0.52494 0.522489 0.51924 0.515355 0.510821 0.506631 0.502277 0.497192 0.492391 0.474696 0.464899 0.387704 0.315697 0.240306 0.212556 0.146386 0.236807 0.283155 0.219733 0.129637 0.0695188 0.0667893 0.0556818 0.0670362 0.0463351 0.0389385 0.0663806 0.0961954 0.0672169 0.095544 0.12346 0.129733 0.100959 0.119566 0.0798335 0.0232091 0.152657 0.0916501 0.334367 1.0159 0.63841 0.469911 0.62426 0.61879 0.624993 0.801457 0.475103 0.450922 0.442854 0.448205 0.448947 0.44087 0.434997 0.43575 0.44295 0.454699 0.468606 0.481434 0.520423 0.52598 0.531042 0.535433 0.538956 0.54137 0.542529 0.542477 0.541413 0.539679 0.537635 0.530251 0.529287 0.528217 0.526841 0.525027 0.522547 0.519429 0.515745 0.511596 0.507695 0.488263 0.484081 0.481025 0.48001 0.474216 0.461502 0.444744 0.412404 0.360616 0.293437 0.24604 0.209954 0.194358 0.0657568 0.385324 0.135657 0.105949 0.0673906 0.0690236 0.0699357 0.0646242 0.0510505 0.0759355 0.0875739 0.124556 0.0650405 0.105544 0.111973 0.101014 0.0766646 0.0260698 0.0499023 0.158456 0.302407 0.994922 1.06058 1.11044 0.589393 0.545507 0.681576 0.570706 0.438341 0.420718 0.425596 0.438146 0.439373 0.436442 0.435653 0.438533 0.44639 0.45752 0.469947 0.481719 0.491787 0.500587 0.508045 0.514473 0.535598 0.533813 0.532374 0.531166 0.52995 0.528553 0.526871 0.52491 0.522491 0.51956 0.516059 0.50395 0.500221 0.496401 0.493167 0.490078 0.486751 0.484727 0.481526 0.470666 0.454168 0.428783 0.406407 0.293416 0.257039 0.227369 0.200063 0.275092 0.0843404 0.0726981 0.0851119 0.0706771 0.0904358 0.068426 0.0607428 0.0719237 0.0565455 0.0951753 0.110601 0.135027 0.125451 0.0564605 0.0745549 0.104819 0.10177 0.101636 0.0824195 0.0394112 0.121343 0.240434 0.283008 0.659668 0.735192 0.378272 0.251698 0.48159 0.598052 0.542171 0.468106 0.431281 0.422513 0.392943 0.40396 0.426629 0.434563 0.434571 0.435812 0.437454 0.441826 0.45005 0.460403 0.47145 0.482322 0.492268 0.500999 0.508578 0.515196 0.521076 0.526301 0.53084 0.534613 0.537461 0.539238 0.539944 0.539733 0.538843 0.537505 0.535977 0.534482 0.533112 0.531822 0.530462 0.528864 0.526946 0.524744 0.522255 0.512243 0.508577 0.505311 0.50243 0.499294 0.49675 0.49539 0.492912 0.489315 0.48643 0.480607 0.467645 0.442115 0.414505 0.39035 0.331723 0.256218 0.21531 0.125255 0.225318 0.175245 0.0499959 0.0802011 0.0653705 0.0842143 0.0671147 0.0698848 0.0715195 0.119042 0.135727 0.159712 0.230423 0.00411837 0.0332746 0.0438745 0.0588689 0.104802 0.0979031 0.102162 0.10989 0.0637306 0.0926699 0.159549 0.428968 0.395111 0.572805 0.357901 0.730631 0.476956 0.402349 0.495138 0.531811 0.483959 0.456736 0.434496 0.38158 0.380232 0.404642 0.424221 0.431231 0.434558 0.437148 0.439538 0.445268 0.453566 0.463319 0.473775 0.484113 0.493733 0.502237 0.509593 0.516003 0.521619 0.526522 0.530675 0.533954 0.536263 0.537591 0.538053 0.537818 0.537091 0.536056 0.534846 0.533565 0.532246 0.530817 0.529149 0.527134 0.519463 0.516238 0.51276 0.509306 0.506157 0.503538 0.501241 0.499246 0.498445 0.497735 0.495547 0.493309 0.489103 0.478375 0.461472 0.427487 0.403005 0.364684 0.319261 0.281797 0.24848 0.172284 0.176463 0.181934 0.109443 0.0633676 0.0571526 0.0784701 0.0719365 0.0702042 0.064932 0.0865498 0.116643 0.166634 0.620923 0.00140301 0.0288287 0.0973598 0.0973673 0.112032 0.106301 0.0942946 0.125038 0.341209 0.641026 0.423186 0.557911 0.321413 0.595152 0.611599 0.48863 0.498479 0.544862 0.489272 0.455313 0.443884 0.402128 0.367662 0.392028 0.414622 0.427958 0.432803 0.436072 0.438508 0.44213 0.44896 0.4575 0.466953 0.476895 0.486708 0.495791 0.503806 0.510794 0.516958 0.52234 0.526914 0.530636 0.533435 0.535322 0.536362 0.53669 0.536481 0.535875 0.53496 0.533816 0.532505 0.531032 0.524752 0.522074 0.519217 0.516123 0.512854 0.50964 0.506748 0.504283 0.502324 0.500682 0.500025 0.500514 0.499752 0.497901 0.496711 0.491172 0.480456 0.456617 0.415539 0.375825 0.346286 0.302139 0.271343 0.183945 0.168775 0.108788 0.0471547 0.0734244 0.0873477 0.0897695 0.0698652 0.0780295 0.0812716 0.119141 0.147372 0.139606 0.629611 0.77417 0.58011 0.0166986 0.026921 0.0938667 0.12894 0.124969 0.129536 0.123693 0.12205 0.12144 0.182099 0.275955 0.244553 0.496824 0.932777 0.804611 0.167508 0.357916 0.544335 0.58128 0.550722 0.519649 0.480496 0.461261 0.419749 0.379524 0.387639 0.411554 0.42672 0.433934 0.435666 0.470875 0.480365 0.489602 0.498047 0.505612 0.512321 0.518203 0.523237 0.527389 0.530662 0.533051 0.53461 0.535455 0.535708 0.535482 0.529333 0.527322 0.524921 0.522143 0.519111 0.51593 0.512698 0.509585 0.506833 0.50445 0.502571 0.501419 0.500928 0.501077 0.501382 0.501635 0.499725 0.493736 0.481994 0.456601 0.401687 0.35721 0.326726 0.284217 0.25296 0.234447 0.123033 0.0846048 0.0804249 0.136942 0.107231 0.0795894 0.102739 0.083654 0.0833178 0.13668 0.123285 0.487626 0.723766 0.622136 0.559064 0.0226482 0.0341825 0.0460185 0.050168 0.10004 0.160035 0.132619 0.156011 0.176179 0.271709 0.409058 0.72635 0.362233 0.0551251 0.344485 0.600342 0.596982 0.540937 0.528983 0.48564 0.437812 0.439968 0.44509 0.453031 0.461749 0.53486 0.533904 0.532668 0.53118 0.529441 0.527432 0.525098 0.522381 0.519282 0.515941 0.512561 0.509342 0.50654 0.504285 0.501807 0.377389 0.340584 0.30478 0.279726 0.288557 0.26685 0.188617 0.14135 0.131476 0.140506 0.151396 0.1183 0.137915 0.124161 0.195813 0.249047 0.404661 0.560081 0.616491 0.578897 0.552954 0.538923 0.0269457 0.00198274 0.0375002 0.018568 0.0572632 0.0515419 0.164784 0.170329 0.185178 0.194311 0.253806 0.409323 0.548752 0.357703 0.658265 0.401331 0.142976 0.55721 0.610789 0.574397 0.428779 0.416892 0.405635 0.418461 0.429128 0.435187 0.436811 0.436858 0.438731 0.442106 0.448756 0.45713 0.465901 0.474908 0.483962 0.492618 0.500552 0.507718 0.514072 0.519557 0.524174 0.527905 0.530758 0.532801 0.534118 0.5348 0.534936 0.534599 0.533853 0.532746 0.531308 0.529557 0.52752 0.52521 0.522592 0.519602 0.516251 0.512708 0.502518 0.501215 0.500641 0.500917 0.501261 0.501359 0.502585 0.504281 0.503098 0.498292 0.486764 0.467619 0.289159 0.333402 0.316321 0.303819 0.160828 0.1928 0.179868 0.182087 0.173962 0.154951 0.1653 0.168248 0.296913 0.382515 0.473818 0.485397 0.502602 0.577846 0.533972 0.523193 0.514513 0.00742361 0.0392479 0.0656032 0.11822 0.221469 0.195028 0.225888 0.224653 0.272145 0.355431 0.466899 0.153215 0.398902 0.619219 0.114236 0.556746 0.590818 0.550043 0.505979 0.470032 0.446845 0.439864 0.429731 0.434482 0.437644 0.43818 0.436549 0.4371 0.440028 0.445202 0.452828 0.461371 0.47015 0.478984 0.487614 0.495746 0.5032 0.509931 0.515865 0.520924 0.525112 0.528442 0.530945 0.5327 0.533785 0.534271 0.534223 0.533699 0.532751 0.531415 0.52971 0.527671 0.525342 0.522757 0.509272 0.506222 0.50374 0.501938 0.500686 0.499923 0.500015 0.5005 0.499964 0.499873 0.501766 0.503819 0.505244 0.503286 0.50417 0.500359 0.349926 0.285381 0.347139 0.346864 0.351009 0.221003 0.342291 0.254015 0.211986 0.213515 0.190471 0.220396 0.231576 0.436743 0.476673 0.584999 0.549746 0.520891 0.511208 0.0395764 0.0973138 0.089651 0.102717 0.142904 0.259601 0.26133 0.307393 0.349654 0.43324 0.477774 0.442684 0.253199 0.306468 0.497283 0.620379 0.596613 0.608812 0.568003 0.531969 0.499115 0.478053 0.46305 0.446488 0.439526 0.440399 0.438653 0.436682 0.435919 0.438454 0.442644 0.449023 0.45708 0.465696 0.474438 0.483018 0.491206 0.498852 0.505856 0.512143 0.517628 0.522264 0.526056 0.529022 0.531198 0.532663 0.533492 0.53374 0.533458 0.532696 0.531497 0.529892 0.519886 0.516663 0.513113 0.509503 0.506183 0.503352 0.501207 0.49986 0.498865 0.498256 0.498722 0.498988 0.497297 0.496902 0.498795 0.501513 0.502948 0.505253 0.51707 0.549879 0.323317 0.182648 0.38763 0.380367 0.374983 0.460037 0.513315 0.381586 0.294494 0.237599 0.251792 0.235982 0.285738 0.303248 0.365062 0.443529 0.511707 0.56639 0.55921 0.541781 0.514439 0.0507414 0.0793752 0.0876592 0.205038 0.314733 0.364676 0.36818 0.449475 0.517541 0.357056 0.370271 0.527819 0.591937 0.625327 0.588135 0.544912 0.518513 0.493235 0.473469 0.459592 0.446824 0.443047 0.440631 0.436824 0.435568 0.436676 0.440334 0.445793 0.453195 0.461535 0.470141 0.47867 0.486882 0.49466 0.501893 0.508468 0.514306 0.519356 0.523589 0.526992 0.529588 0.53143 0.527902 0.525571 0.522967 0.520138 0.517057 0.513647 0.50998 0.506407 0.503254 0.500635 0.498856 0.49791 0.497005 0.496299 0.49632 0.495726 0.4933 0.492248 0.493402 0.496276 0.498289 0.504527 0.529137 0.598252 0.235545 0.390407 0.377734 0.437485 0.557771 0.54779 0.396606 0.327824 0.279271 0.291091 0.28528 0.333939 0.361913 0.400276 0.428434 0.453956 0.475758 0.057204 0.116671 0.325015 0.394888 0.440202 0.468441 0.404303 0.469681 0.535572 0.416386 0.423626 0.682185 0.617471 0.623201 0.578552 0.572755 0.538052 0.52076 0.500334 0.481377 0.46714 0.455166 0.446969 0.532588 0.533132 0.533112 0.532567 0.53154 0.530071 0.528183 0.525909 0.523309 0.520461 0.51742 0.514158 0.510614 0.506925 0.503469 0.500454 0.49802 0.496565 0.495796 0.492446 0.502391 0.538363 0.654794 0.444258 0.39644 0.369933 0.377561 0.47737 0.613806 0.53032 0.418258 0.355908 0.319228 0.338173 0.331191 0.381303 0.400104 0.44653 0.358922 0.523607 0.525536 0.510309 0.563886 0.461598 0.463395 0.591637 0.720029 0.943818 0.695698 0.57926 0.544879 0.533304 0.515517 0.441901 0.43701 0.434552 0.435217 0.438169 0.443149 0.449792 0.457691 0.466088 0.474522 0.482728 0.490608 0.498037 0.504864 0.511006 0.516412 0.521038 0.524855 0.527857 0.530071 0.53156 0.532394 0.532637 0.532331 0.531512 0.530216 0.528472 0.526309 0.52377 0.520929 0.517872 0.514657 0.511259 0.507633 0.494924 0.494169 0.493534 0.491728 0.488394 0.485612 0.486863 0.488285 0.573795 0.665047 0.33646 0.386767 0.400785 0.509996 0.642323 0.523308 0.432974 0.383542 0.359882 0.392797 0.377414 0.570275 0.604088 0.499953 0.516475 0.648659 0.68784 0.99941 0.841539 0.674839 0.568306 0.502273 0.48579 0.47314 0.460995 0.450115 0.44256 0.436677 0.433821 0.434363 0.436656 0.440919 0.446873 0.454174 0.462291 0.470616 0.478794 0.48671 0.494272 0.501317 0.507729 0.513451 0.518427 0.522617 0.526004 0.528591 0.530412 0.531536 0.532036 0.53197 0.531376 0.530285 0.528723 0.526716 0.524296 0.521524 0.503968 0.500628 0.497756 0.495556 0.494326 0.49361 0.492865 0.491802 0.490199 0.487521 0.484125 0.479416 0.479468 0.483054 0.486588 0.509853 0.638976 0.383471 0.452989 0.416951 0.423335 0.531528 0.62447 0.521776 0.464258 0.41772 0.402206 0.463675 0.613391 0.643841 0.526054 0.577919 0.617633 0.64193 0.995668 0.537904 0.518383 0.504773 0.489401 0.476558 0.463205 0.452423 0.443429 0.437058 0.434098 0.433977 0.435718 0.439084 0.444424 0.45112 0.458852 0.467026 0.475107 0.482974 0.490607 0.497833 0.504478 0.510468 0.515758 0.520294 0.524039 0.526983 0.529142 0.530564 0.531323 0.531489 0.531116 0.518476 0.51524 0.511889 0.508405 0.504748 0.501127 0.497888 0.495187 0.493232 0.492147 0.491568 0.490893 0.489037 0.486896 0.482989 0.480171 0.476556 0.475996 0.482404 0.489571 0.527505 0.595103 0.516181 0.440723 0.435028 0.426902 0.447575 0.519384 0.610414 0.539757 0.496139 0.468115 0.46687 0.659235 0.586117 0.629263 0.568182 0.637932 0.901881 0.902579 0.758353 0.644499 0.569848 0.537489 0.510122 0.492137 0.478088 0.465557 0.454196 0.445669 0.43857 0.434792 0.434073 0.435001 0.437804 0.44251 0.448673 0.455896 0.463744 0.47165 0.479451 0.487099 0.530242 0.528889 0.527074 0.52482 0.522175 0.519206 0.515987 0.512607 0.509156 0.505623 0.501969 0.498405 0.495265 0.492717 0.490937 0.490071 0.489903 0.489089 0.486402 0.484232 0.479216 0.477041 0.476398 0.478153 0.484647 0.506304 0.545272 0.594963 0.513725 0.471055 0.454307 0.456536 0.512711 0.611119 0.564926 0.542023 0.545535 0.657853 0.686003 0.535029 0.619655 0.889162 1.03198 0.808956 0.691537 0.617994 0.562671 0.522911 0.496183 0.480402 0.468227 0.457068 0.448543 0.494422 0.501241 0.507465 0.513032 0.517882 0.521964 0.52525 0.527739 0.529464 0.53049 0.530893 0.530739 0.530076 0.528936 0.527336 0.525283 0.52281 0.519974 0.516844 0.513487 0.51 0.506486 0.502925 0.49928 0.495777 0.492746 0.481771 0.491623 0.546194 0.571643 0.488884 0.454214 0.439519 0.445171 0.482388 0.625117 0.582244 0.758289 0.544062 0.616765 0.901758 0.88478 0.753172 0.748801 0.655375 0.589463 0.546446 0.440741 0.436159 0.434722 0.435026 0.437121 0.441142 0.446719 0.453388 0.460811 0.468492 0.476163 0.483765 0.491128 0.498053 0.504439 0.51023 0.515369 0.519775 0.523394 0.526203 0.528223 0.529515 0.530158 0.530226 0.529776 0.528851 0.52747 0.525638 0.523366 0.5207 0.51771 0.514456 0.490364 0.488798 0.488197 0.488294 0.487387 0.484563 0.481472 0.476589 0.476048 0.477654 0.476063 0.512206 0.509156 0.455244 0.456762 0.487226 0.461259 0.520244 0.64469 0.618545 0.621509 0.575483 0.639741 0.879836 0.853122 0.673644 0.666043 0.504921 0.485572 0.47135 0.460492 0.451762 0.443914 0.438357 0.436291 0.435806 0.436998 0.440259 0.445198 0.451329 0.458297 0.465656 0.473127 0.480635 0.488 0.494966 0.501414 0.507344 0.512721 0.51745 0.521412 0.524534 0.526832 0.528384 0.52926 0.529543 0.529307 0.528602 0.527448 0.510992 0.507423 0.503866 0.500303 0.496704 0.493282 0.49033 0.488075 0.486695 0.486393 0.486827 0.48522 0.48259 0.481251 0.4765 0.473645 0.481811 0.487178 0.529437 0.569048 0.519109 0.525786 0.529964 0.493177 0.439491 0.430399 0.451813 0.481269 0.555124 0.637847 0.656268 0.669163 0.713715 0.876675 0.859602 0.670602 0.622095 0.711256 0.621734 0.566161 0.532746 0.489717 0.475544 0.46403 0.455991 0.447859 0.441574 0.438269 0.436885 0.437188 0.439962 0.444435 0.449812 0.456164 0.463152 0.470423 0.477769 0.485041 0.491999 0.498464 0.504405 0.509926 0.514952 0.519288 0.522737 0.525847 0.523797 0.521327 0.5185 0.515387 0.51204 0.508502 0.504888 0.50132 0.497777 0.49425 0.490908 0.487962 0.485711 0.484537 0.484505 0.48489 0.485647 0.482475 0.475468 0.475887 0.476814 0.485384 0.525973 0.544663 0.54412 0.530702 0.483425 0.429101 0.448007 0.462877 0.556282 0.571382 0.86068 0.70053 0.635046 0.604637 0.674556 0.599887 0.545307 0.523524 0.479691 0.466883 0.460889 0.45239 0.445464 0.440856 0.438184 0.437595 0.52528 0.527071 0.528174 0.528666 0.528638 0.528151 0.527222 0.525855 0.524046 0.521805 0.519171 0.516211 0.513004 0.509603 0.506051 0.502452 0.498891 0.495343 0.491847 0.488538 0.485598 0.483333 0.481861 0.482058 0.485683 0.485917 0.475351 0.480195 0.470212 0.482322 0.524271 0.535527 0.539689 0.568951 0.541133 0.506672 0.457479 0.443566 0.421793 0.541385 0.598867 0.82649 0.731526 0.669565 0.583261 0.554288 0.650056 0.581906 0.533902 0.517912 0.43986 0.444208 0.449327 0.454579 0.460992 0.468021 0.475233 0.482321 0.489207 0.495677 0.501554 0.506928 0.512194 0.517 0.520842 0.523556 0.525574 0.526873 0.527551 0.52773 0.527468 0.526756 0.525612 0.524045 0.522054 0.519657 0.516899 0.513859 0.510618 0.50721 0.548104 0.575695 0.588451 0.479301 0.438509 0.41038 0.449128 0.517845 0.609215 0.554626 0.523681 0.47132 0.465924 0.457383 0.449404 0.443427 0.440068 0.438573 0.439597 0.443718 0.448784 0.45457 0.459364 0.465508 0.473042 0.479921 0.486641 0.49304 0.498929 0.504099 0.508938 0.514425 0.518933 0.521614 0.523823 0.525384 0.526199 0.526521 0.526487 0.526011 0.525093 0.523751 0.503657 0.500059 0.49651 0.493007 0.489566 0.486197 0.483023 0.480583 0.479703 0.480936 0.482492 0.483897 0.477791 0.471959 0.478782 0.523691 0.528822 0.555074 0.579454 0.58697 0.582483 0.522335 0.443636 0.425941 0.395712 0.543167 0.629586 0.571211 0.528062 0.512712 0.473378 0.46233 0.453924 0.446659 0.441787 0.440133 0.44026 0.442611 0.448305 0.452728 0.45854 0.462266 0.471056 0.477793 0.48428 0.490534 0.496397 0.501698 0.506049 0.510734 0.517267 0.519387 0.521726 0.522005 0.519875 0.517384 0.51457 0.511494 0.508224 0.504792 0.501257 0.497733 0.494255 0.490813 0.487415 0.483943 0.480433 0.477383 0.475815 0.477078 0.482715 0.484105 0.471324 0.480158 0.523214 0.525456 0.593643 0.574709 0.563494 0.483467 0.516722 0.45168 0.447894 0.523521 0.524686 0.525036 0.525177 0.524913 0.524236 0.52314 0.521642 0.519776 0.517572 0.515033 0.512165 0.509031 0.505744 0.502378 0.498957 0.495529 0.492104 0.488659 0.485222 0.481727 0.478075 0.474643 0.472911 0.475381 0.473463 0.477175 0.484598 0.52607 0.523015 0.557169 0.58333 0.451745 0.4571 0.460861 0.469536 0.476129 0.482894 0.489721 0.496468 0.503117 0.508364 0.51417 0.51178 0.512436 0.513358 0.514587 
SCALARS Axial_Stress float 1
LOOKUP_TABLE default
-52833400000.0 -62087500000.0 -54268300000.0 -63821600000.0 -52535400000.0 -51517600000.0 -69300500000.0 -62865700000.0 -58228800000.0 -83704700000.0 -77041300000.0 -211607000000.0 -99630600000.0 -216453000000.0 -88648700000.0 -154972000000.0 -87049600000.0 -84466900000.0 -59745300000.0 -88527300000.0 -68800900000.0 -44828000000.0 -53513700000.0 -159673000000.0 -127541000000.0 -158568000000.0 -137788000000.0 -109639000000.0 -71012600000.0 -79042500000.0 -65558700000.0 -162025000000.0 -301270000000.0 -297004000000.0 -282457000000.0 -137176000000.0 -155924000000.0 -174396000000.0 -166436000000.0 -152061000000.0 -134528000000.0 -91947700000.0 -112402000000.0 -261101000000.0 -217660000000.0 -198463000000.0 -123975000000.0 -142648000000.0 -177432000000.0 -369271000000.0 -393797000000.0 -379119000000.0 -351506000000.0 -401223000000.0 -241847000000.0 -259142000000.0 -190354000000.0 -196133000000.0 -230021000000.0 -321147000000.0 -260328000000.0 -212795000000.0 -519343000000.0 -486342000000.0 -474644000000.0 -552237000000.0 -444353000000.0 -613361000000.0 -636917000000.0 -599268000000.0 -465067000000.0 -494999000000.0 -367221000000.0 -464748000000.0 -307175000000.0 -222476000000.0 -145687000000.0 -177698000000.0 -344050000000.0 -421024000000.0 -310353000000.0 -341398000000.0 -727728000000.0 -610606000000.0 -717500000000.0 -594131000000.0 -678314000000.0 -573115000000.0 -649578000000.0 -650941000000.0 -687933000000.0 -626579000000.0 -576653000000.0 -576578000000.0 -307858000000.0 -336469000000.0 -285973000000.0 -179795000000.0 -202252000000.0 -321002000000.0 -457883000000.0 -448517000000.0 -493555000000.0 -304785000000.0 -352623000000.0 -1.02607e+12 -844175000000.0 -791645000000.0 -751680000000.0 -729437000000.0 -736747000000.0 -722914000000.0 -679217000000.0 -675700000000.0 -751504000000.0 -305745000000.0 -318482000000.0 -715542000000.0 -1.2308e+12 -1.02251e+12 -919961000000.0 -860674000000.0 -821020000000.0 -802794000000.0 -802945000000.0 -774655000000.0 -762270000000.0 -806412000000.0 -953849000000.0 -260531000000.0 -267008000000.0 -841855000000.0 -1.08682e+12 -1.32491e+12 -1.23675e+12 -1.24014e+12 -1.06934e+12 -1.11537e+12 -979950000000.0 -1.03492e+12 -923009000000.0 -980087000000.0 -885886000000.0 -946429000000.0 -870756000000.0 -931411000000.0 -856524000000.0 -918355000000.0 -842279000000.0 -930470000000.0 -867939000000.0 -995283000000.0 -966290000000.0 -1.14043e+12 -1.10942e+12 -1.1665e+12 -1.25947e+12 -1.11047e+12 -1.18599e+12 -1.06848e+12 -1.65541e+12 -2.09452e+12 -1.70489e+12 -1.40001e+12 -1.41892e+12 -1.26651e+12 -1.15808e+12 -1.08473e+12 -1.03312e+12 -1.00395e+12 -989577000000.0 -992833000000.0 -1.03621e+12 -1.14153e+12 -1.4397e+12 -1.56691e+12 -1.54003e+12 -1.79505e+12 -1.63482e+12 -1.43196e+12 -1.29445e+12 -1.19938e+12 -1.13033e+12 -1.08317e+12 -1.05935e+12 -1.05487e+12 -1.08252e+12 -1.15797e+12 -1.33102e+12 -1.03086e+12 -1.11328e+12 -1.6224e+12 -1.67188e+12 -1.73486e+12 -1.62196e+12 -1.61921e+12 -1.4454e+12 -1.45312e+12 -1.32189e+12 -1.35533e+12 -1.23819e+12 -1.27257e+12 -1.17233e+12 -1.21191e+12 -1.13171e+12 -1.18075e+12 -1.11665e+12 -1.1816e+12 -1.13129e+12 -1.22047e+12 -1.18613e+12 -1.30189e+12 -1.2989e+12 -1.41494e+12 -1.4466e+12 -1.0356e+12 -1.15003e+12 -1.68818e+12 -1.69685e+12 -1.65503e+12 -1.67901e+12 -1.75093e+12 -1.81277e+12 -1.79779e+12 -1.81762e+12 -1.59193e+12 -1.47491e+12 -1.3843e+12 -1.30296e+12 -1.25078e+12 -1.23407e+12 -1.25759e+12 -1.32072e+12 -1.41114e+12 -1.49851e+12 -1.74924e+12 -1.70317e+12 -1.66094e+12 -2.12533e+12 -1.72811e+12 -1.60194e+12 -1.5054e+12 -1.40661e+12 -1.33072e+12 -1.29157e+12 -1.29651e+12 -1.34549e+12 -1.42284e+12 -1.50359e+12 -1.0818e+12 -1.21791e+12 -1.75293e+12 -1.68562e+12 -1.5641e+12 -1.78059e+12 -1.73338e+12 -1.73852e+12 -1.61693e+12 -1.65447e+12 -1.52399e+12 -1.53122e+12 -1.42346e+12 -1.43681e+12 -1.35792e+12 -1.38784e+12 -1.3385e+12 -1.39731e+12 -1.37126e+12 -1.45858e+12 -1.44091e+12 -1.53736e+12 -1.5184e+12 -1.60336e+12 -1.57756e+12 -1.14699e+12 -1.29856e+12 -1.80184e+12 -1.80852e+12 -1.74488e+12 -1.70259e+12 -1.60975e+12 -1.24635e+12 -965537000000.0 -1.80944e+12 -1.79986e+12 -1.74387e+12 -1.65738e+12 -1.53094e+12 -1.4492e+12 -1.4259e+12 -1.47148e+12 -1.55434e+12 -1.62983e+12 -1.67647e+12 -1.86546e+12 -1.79575e+12 -1.57123e+12 -1.20745e+12 -1.07035e+12 -1.10605e+12 -1.80463e+12 -1.81394e+12 -1.64305e+12 -1.52579e+12 -1.46501e+12 -1.48075e+12 -1.56285e+12 -1.65284e+12 -1.75003e+12 -1.71576e+12 -1.79365e+12 -1.22229e+12 -1.38468e+12 -1.95683e+12 -1.8815e+12 -1.87623e+12 -1.74369e+12 -1.4263e+12 -1.2478e+12 -1.12132e+12 -1.7856e+12 -2.02422e+12 -1.78266e+12 -1.72159e+12 -1.6178e+12 -1.59677e+12 -1.52109e+12 -1.51645e+12 -1.48999e+12 -1.54105e+12 -1.55687e+12 -1.66031e+12 -1.66615e+12 -1.77475e+12 -1.84359e+12 -1.30323e+12 -1.47634e+12 -1.9893e+12 -1.85871e+12 -1.68879e+12 -1.58038e+12 -1.26004e+12 -1.27021e+12 -1.05429e+12 -1.83024e+12 -1.68775e+12 -1.56999e+12 -1.51822e+12 -1.622e+12 -1.78126e+12 -1.88507e+12 -1.93054e+12 -2.0926e+12 -2.00647e+12 -1.81922e+12 -1.22558e+12 -1.30166e+12 -1.28533e+12 -1.2558e+12 -1.47668e+12 -1.65165e+12 -1.7728e+12 -1.77809e+12 -1.65291e+12 -1.53068e+12 -1.56457e+12 -1.75151e+12 -1.90884e+12 -1.91227e+12 -2.05256e+12 -1.99307e+12 -2.08333e+12 -1.38575e+12 -1.57079e+12 -2.26169e+12 -2.15767e+12 -2.22864e+12 -1.99626e+12 -1.89668e+12 -1.71084e+12 -1.24235e+12 -1.65316e+12 -1.80611e+12 -1.82539e+12 -1.75318e+12 -1.71308e+12 -1.59452e+12 -1.48906e+12 -1.4806e+12 -1.5071e+12 -1.64739e+12 -1.82266e+12 -2.11432e+12 -2.1572e+12 -1.46586e+12 -1.66355e+12 -2.34892e+12 -2.32879e+12 -1.68589e+12 -1.01445e+12 -1.79906e+12 -1.8369e+12 -1.90517e+12 -1.83483e+12 -1.62809e+12 -1.28888e+12 -1.49824e+12 -2.19017e+12 -2.2348e+12 -2.24244e+12 -2.44032e+12 -2.53478e+12 -2.4509e+12 -2.60564e+12 -2.57446e+12 -3.14399e+12 -1.82635e+12 -1.89881e+12 -2.0966e+12 -1.96975e+12 -2.07337e+12 -1.98848e+12 -2.07264e+12 -1.95553e+12 -1.96698e+12 -1.79841e+12 -1.46383e+12 -1.42532e+12 -2.8291e+12 -2.32204e+12 -2.455e+12 -2.32665e+12 -2.41026e+12 -2.32217e+12 -2.39724e+12 -1.54121e+12 -1.75224e+12 -2.61141e+12 -2.64956e+12 -2.86777e+12 -2.95981e+12 -2.19688e+12 -2.19462e+12 -2.17914e+12 -2.1258e+12 -1.91987e+12 -1.68539e+12 -1.48433e+12 -1.45015e+12 -3.25967e+12 -2.71624e+12 -2.51969e+12 -2.4768e+12 -1.61228e+12 -1.83808e+12 -2.70401e+12 -2.80084e+12 -3.03197e+12 -2.5887e+12 -2.322e+12 -2.28394e+12 -2.25669e+12 -2.1527e+12 -1.65615e+12 -3.41471e+12 -3.52066e+12 -3.0472e+12 -2.68446e+12 -2.56826e+12 -2.54069e+12 -1.92297e+12 -2.76758e+12 -2.8503e+12 -2.81007e+12 -2.90597e+12 -2.92428e+12 -2.95142e+12 -2.84947e+12 -2.73592e+12 -2.55504e+12 -2.57177e+12 -2.40645e+12 -2.48201e+12 -2.3697e+12 -2.44526e+12 -2.31978e+12 -2.37349e+12 -2.09796e+12 -3.14001e+12 -3.37809e+12 -3.30858e+12 -3.0992e+12 -2.89188e+12 -2.82876e+12 -2.68604e+12 -2.70607e+12 -2.61639e+12 -2.66988e+12 -1.68172e+12 -2.90602e+12 -2.92968e+12 -2.96444e+12 -2.89163e+12 -2.72707e+12 -2.61447e+12 -2.55693e+12 -2.5217e+12 -2.62901e+12 -2.72151e+12 -3.0377e+12 -3.25709e+12 -3.21939e+12 -2.97801e+12 -2.81052e+12 -2.73941e+12 -1.75236e+12 -2.00692e+12 -2.97397e+12 -2.99286e+12 -2.98613e+12 -2.97733e+12 -2.86036e+12 -2.87177e+12 -2.7484e+12 -2.78904e+12 -2.67156e+12 -2.73951e+12 -2.63458e+12 -2.67353e+12 -2.86059e+12 -3.13083e+12 -3.2239e+12 -3.15299e+12 -3.09661e+12 -3.01948e+12 -2.9211e+12 -2.90214e+12 -2.81839e+12 -2.84376e+12 -2.78375e+12 -1.82547e+12 -2.08925e+12 -3.02873e+12 -3.08699e+12 -3.03552e+12 -3.08761e+12 -3.03767e+12 -3.06471e+12 -2.98221e+12 -2.90236e+12 -2.84391e+12 -2.82426e+12 -2.74276e+12 -2.86056e+12 -2.82773e+12 -3.02471e+12 -3.14341e+12 -3.08851e+12 -2.98075e+12 -2.90782e+12 -2.88155e+12 -3.14294e+12 -3.141e+12 -3.12962e+12 -3.08077e+12 -3.00766e+12 -2.94703e+12 -2.91259e+12 -2.91839e+12 -2.96788e+12 -2.96266e+12 -3.06109e+12 -3.09838e+12 -3.12047e+12 -3.11924e+12 -3.04434e+12 -2.96958e+12 -2.93048e+12 -1.90041e+12 -2.17039e+12 -3.25424e+12 -3.19709e+12 -3.24828e+12 -3.18935e+12 -3.23196e+12 -3.16284e+12 -3.19233e+12 -3.10432e+12 -3.13916e+12 -3.04594e+12 -3.09465e+12 -3.00381e+12 -3.06943e+12 -2.99022e+12 -3.00951e+12 -3.05643e+12 -3.11315e+12 -3.11223e+12 -3.08751e+12 -3.06321e+12 -3.02256e+12 -3.02085e+12 -2.9787e+12 -3.00244e+12 -2.96437e+12 -1.97593e+12 -2.2509e+12 -3.30702e+12 -3.29584e+12 -3.27023e+12 -3.2264e+12 -3.18279e+12 -3.1515e+12 -3.13878e+12 -3.06911e+12 -3.14178e+12 -3.08835e+12 -3.15058e+12 -3.11983e+12 -3.12928e+12 -3.09283e+12 -3.05354e+12 -3.03606e+12 -3.03512e+12 -2.33108e+12 -3.36515e+12 -3.41765e+12 -3.35745e+12 -3.40535e+12 -3.34001e+12 -3.38198e+12 -3.30747e+12 -3.26725e+12 -3.23348e+12 -3.21331e+12 -3.20647e+12 -3.20307e+12 -3.1916e+12 -3.15223e+12 -3.15417e+12 -3.11865e+12 -3.09621e+12 -3.07672e+12 -3.07471e+12 -3.06089e+12 -3.08439e+12 -3.06386e+12 -3.09848e+12 -2.05113e+12 -3.4765e+12 -3.46811e+12 -3.45107e+12 -3.42378e+12 -3.34766e+12 -3.39198e+12 -3.31387e+12 -3.36505e+12 -3.28926e+12 -3.34788e+12 -3.27653e+12 -3.33825e+12 -3.26808e+12 -3.31995e+12 -3.24906e+12 -3.20539e+12 -3.12585e+12 -3.07867e+12 -3.09196e+12 -3.12001e+12 -2.12594e+12 -2.41108e+12 -3.52905e+12 -3.5166e+12 -3.49552e+12 -3.46742e+12 -3.43995e+12 -3.4194e+12 -3.40743e+12 -3.39667e+12 -3.35729e+12 -3.27397e+12 -3.26834e+12 -3.18567e+12 -3.08451e+12 -3.08279e+12 -3.12821e+12 -3.16117e+12 -2.49103e+12 -3.58839e+12 -3.64097e+12 -3.57972e+12 -3.62868e+12 -3.5635e+12 -3.60947e+12 -3.53995e+12 -3.58539e+12 -3.51352e+12 -3.56183e+12 -3.49079e+12 -3.54364e+12 -3.47561e+12 -3.46682e+12 -3.45116e+12 -3.3702e+12 -3.21523e+12 -3.11843e+12 -3.03327e+12 -3.05607e+12 -3.07164e+12 -3.11557e+12 -3.17554e+12 -3.17835e+12 -3.23286e+12 -2.20134e+12 -3.7006e+12 -3.69174e+12 -3.67629e+12 -3.65527e+12 -3.6322e+12 -3.61191e+12 -3.59787e+12 -3.53289e+12 -3.59117e+12 -3.52616e+12 -3.58693e+12 -3.50242e+12 -3.55406e+12 -3.33516e+12 -3.06353e+12 -2.9824e+12 -3.14039e+12 -3.25034e+12 -2.27945e+12 -2.57102e+12 -3.81287e+12 -3.75307e+12 -3.80369e+12 -3.74089e+12 -3.78876e+12 -3.72303e+12 -3.76944e+12 -3.70152e+12 -3.74847e+12 -3.68031e+12 -3.66328e+12 -3.65321e+12 -3.65126e+12 -3.65266e+12 -3.6171e+12 -3.18658e+12 -2.64361e+12 -2.87471e+12 -2.84508e+12 -3.04828e+12 -3.19254e+12 -3.24244e+12 -3.35141e+12 -3.32541e+12 -2.36226e+12 -9035750000.0 -2.65119e+12 -3.86498e+12 -3.85271e+12 -3.83576e+12 -3.81592e+12 -3.79614e+12 -3.72947e+12 -3.77944e+12 -3.71563e+12 -3.76884e+12 -3.70987e+12 -3.76866e+12 -3.71508e+12 -3.73033e+12 -3.70486e+12 -2.30054e+12 -3.05285e+12 -3.35487e+12 -3.44534e+12 -2.7318e+12 -3.92491e+12 -3.97639e+12 -3.91516e+12 -3.9637e+12 -3.90046e+12 -3.88228e+12 -3.86273e+12 -3.84443e+12 -3.82998e+12 -3.82307e+12 -3.83127e+12 -3.78621e+12 -3.87176e+12 -3.83259e+12 -4.10004e+12 -4.26716e+12 -4.73148e+12 -2.43176e+12 -3.32284e+12 -3.48508e+12 -3.59023e+12 -2.4515e+12 -4.03652e+12 -4.02575e+12 -4.01097e+12 -3.94732e+12 -3.99366e+12 -3.92871e+12 -3.97532e+12 -3.90997e+12 -3.95762e+12 -3.89319e+12 -3.94219e+12 -3.88096e+12 -3.87897e+12 -3.90162e+12 -4.02018e+12 -4.46571e+12 -4.62146e+12 -3.98486e+12 -3.09965e+12 -3.49288e+12 -3.5086e+12 -3.64147e+12 -2.55023e+12 -9035750000.0 -2.81331e+12 -4.14752e+12 -4.08701e+12 -4.07341e+12 -4.05737e+12 -4.03989e+12 -4.02229e+12 -4.00557e+12 -3.9912e+12 -3.93242e+12 -3.98495e+12 -3.93841e+12 -4.00849e+12 -3.99818e+12 -4.11979e+12 -4.2211e+12 -4.37004e+12 -4.58828e+12 -4.33038e+12 -3.80108e+12 -3.67919e+12 -3.75488e+12 -2.89644e+12 -4.19647e+12 -4.135e+12 -4.18123e+12 -4.11982e+12 -4.16543e+12 -4.10331e+12 -4.14922e+12 -4.08633e+12 -4.13325e+12 -4.06967e+12 -4.05355e+12 -4.04007e+12 -4.04082e+12 -4.08833e+12 -4.22117e+12 -4.3301e+12 -4.0132e+12 -3.82223e+12 -3.89747e+12 -3.81488e+12 -3.93498e+12 -2.66314e+12 -4.25765e+12 -4.24217e+12 -4.22629e+12 -4.2107e+12 -4.19549e+12 -4.18078e+12 -4.11738e+12 -4.1651e+12 -4.10115e+12 -4.14774e+12 -4.08897e+12 -4.13572e+12 -4.09836e+12 -4.15557e+12 -4.24715e+12 -4.15637e+12 -4.00835e+12 -3.9255e+12 -3.9387e+12 -4.00679e+12 -2.79445e+12 -9035750000.0 -2.98227e+12 -4.36634e+12 -4.30416e+12 -4.34581e+12 -4.28619e+12 -4.32922e+12 -4.27069e+12 -4.31493e+12 -4.25609e+12 -4.24243e+12 -4.2289e+12 -4.21217e+12 -4.19106e+12 -4.1719e+12 -4.14477e+12 -4.16019e+12 -4.17847e+12 -4.14919e+12 -4.18179e+12 -4.07221e+12 -3.97523e+12 -4.03392e+12 -4.17299e+12 -4.12597e+12 -2.94386e+12 -3.07207e+12 -4.40886e+12 -4.38655e+12 -4.37184e+12 -4.35948e+12 -4.30202e+12 -4.34876e+12 -4.2902e+12 -4.33872e+12 -4.27736e+12 -4.32549e+12 -4.2568e+12 -4.225e+12 -4.18368e+12 -4.12517e+12 -4.08031e+12 -4.00245e+12 -3.99934e+12 -3.99197e+12 -4.14871e+12 -4.31217e+12 -3.16654e+12 -4.47229e+12 -4.50801e+12 -4.44292e+12 -4.47911e+12 -4.42668e+12 -4.46677e+12 -4.41455e+12 -4.40471e+12 -4.39634e+12 -4.38757e+12 -4.37191e+12 -4.2947e+12 -4.31758e+12 -4.23903e+12 -4.21938e+12 -4.15541e+12 -4.05277e+12 -4.05163e+12 -3.9814e+12 -4.01224e+12 -3.98955e+12 -3.99277e+12 -4.34539e+12 -4.51695e+12 -3.10276e+12 -4.57248e+12 -4.52738e+12 -4.51551e+12 -4.5077e+12 -4.4579e+12 -4.50229e+12 -4.45086e+12 -4.49741e+12 -4.44434e+12 -4.43593e+12 -4.41476e+12 -4.31098e+12 -4.14464e+12 -3.91959e+12 -3.94714e+12 -4.00225e+12 -3.88284e+12 -4.27943e+12 -4.55835e+12 -3.28048e+12 -3.2635e+12 -4.66231e+12 -4.59707e+12 -4.5913e+12 -4.55849e+12 -4.59243e+12 -4.55305e+12 -4.54981e+12 -4.54708e+12 -4.54336e+12 -4.49177e+12 -4.53735e+12 -4.48277e+12 -4.52749e+12 -4.45283e+12 -4.48744e+12 -4.2456e+12 -3.92355e+12 -3.86191e+12 -3.90402e+12 -3.9577e+12 -3.93672e+12 -4.45196e+12 -4.97258e+12 -4.81101e+12 -3.46354e+12 -3.36106e+12 -4.6781e+12 -4.62173e+12 -4.62566e+12 -4.59171e+12 -4.6311e+12 -4.59234e+12 -4.63692e+12 -4.59194e+12 -4.58707e+12 -4.57959e+12 -4.57095e+12 -4.52374e+12 -4.04607e+12 -3.30906e+12 -3.67752e+12 -3.77467e+12 -3.9599e+12 -3.35419e+12 -5.18088e+12 -5.13748e+12 -3.4756e+12 -4.74747e+12 -4.77041e+12 -4.6327e+12 -4.67578e+12 -4.65328e+12 -4.66021e+12 -4.67622e+12 -4.68129e+12 -4.63491e+12 -4.6709e+12 -4.62564e+12 -4.65842e+12 -4.6185e+12 -4.61666e+12 -4.53626e+12 -3.05155e+12 -4.00327e+12 -4.06157e+12 -3.85687e+12 -3.18485e+12 -5.60516e+12 -5.40845e+12 -5.30476e+12 -3.60289e+12 -3.62095e+12 -4.84078e+12 -4.63885e+12 -4.70465e+12 -4.68013e+12 -4.71863e+12 -4.70543e+12 -4.7658e+12 -4.72552e+12 -4.7169e+12 -4.69827e+12 -4.68772e+12 -4.65635e+12 -4.69637e+12 -4.664e+12 -4.94361e+12 -5.16676e+12 -5.38651e+12 -3.85185e+12 -4.16229e+12 -4.0488e+12 -5.40002e+12 -3.69988e+12 -4.93988e+12 -4.89846e+12 -4.48502e+12 -4.71417e+12 -4.70636e+12 -4.72164e+12 -4.79752e+12 -4.812e+12 -4.76392e+12 -4.78458e+12 -4.73996e+12 -4.71965e+12 -4.71874e+12 -4.82974e+12 -5.2832e+12 -4.63442e+12 -4.51123e+12 -4.26172e+12 -4.40554e+12 -3.94449e+12 -5.08648e+12 -5.04495e+12 -5.23607e+12 -3.73311e+12 -3.93867e+12 -4.86408e+12 -4.51907e+12 -4.84438e+12 -4.81738e+12 -4.90388e+12 -4.86024e+12 -4.83294e+12 -4.79066e+12 -4.75356e+12 -4.76468e+12 -4.741e+12 -4.78301e+12 -4.79216e+12 -4.91501e+12 -5.03646e+12 -5.08569e+12 -5.07722e+12 -4.68398e+12 -4.61874e+12 -4.50019e+12 -4.56625e+12 -4.57427e+12 -4.86064e+12 -4.9677e+12 -3.91406e+12 -5.39119e+12 -5.93724e+12 -3.24939e+12 -4.66515e+12 -4.87427e+12 -4.94074e+12 -4.94212e+12 -4.88556e+12 -4.88042e+12 -4.83266e+12 -4.79104e+12 -4.78657e+12 -4.85545e+12 -4.9942e+12 -4.89876e+12 -4.7078e+12 -4.64522e+12 -4.76283e+12 -4.87932e+12 -4.85394e+12 -4.57487e+12 -3.60004e+12 -3.86677e+12 -4.21916e+12 -5.17169e+12 -5.11784e+12 -4.98233e+12 -4.98751e+12 -5.05123e+12 -4.9981e+12 -4.934e+12 -4.8593e+12 -4.8216e+12 -4.81241e+12 -4.79684e+12 -4.82756e+12 -4.91992e+12 -4.96028e+12 -4.83078e+12 -4.70096e+12 -4.76458e+12 -4.77336e+12 -5.02195e+12 -5.01012e+12 -4.74833e+12 -3.96245e+12 -5.55425e+12 -3.8654e+12 -5.07559e+12 -5.67194e+12 -5.64232e+12 -6.27112e+12 -5.70446e+12 -5.2068e+12 -5.08418e+12 -5.04868e+12 -4.99181e+12 -4.95298e+12 -4.90342e+12 -4.83552e+12 -4.81275e+12 -4.8156e+12 -4.8416e+12 -4.87204e+12 -4.89379e+12 -4.93249e+12 -4.87547e+12 -4.74205e+12 -4.77791e+12 -4.94579e+12 -5.2669e+12 -6.01416e+12 -6.56297e+12 -3.96775e+12 -5.58262e+12 -6.09689e+12 -6.97144e+12 -6.36163e+12 -6.87849e+12 -6.3979e+12 -5.57857e+12 -5.20586e+12 -5.14121e+12 -5.08614e+12 -5.00489e+12 -4.90339e+12 -4.86709e+12 -4.83695e+12 -4.82047e+12 -4.82061e+12 -4.86028e+12 -4.87233e+12 -4.78708e+12 -4.74968e+12 -4.84058e+12 -5.24565e+12 -6.12496e+12 -5.79969e+12 -6.06504e+12 -5.96232e+12 -5.27156e+12 -5.17203e+12 -5.12824e+12 -7.19099e+12 -6.42725e+12 -5.97832e+12 -6.6256e+12 -6.21301e+12 -5.32898e+12 -5.08563e+12 -5.04671e+12 -4.94441e+12 -4.8618e+12 -4.82006e+12 -4.81348e+12 -4.807e+12 -4.82736e+12 -4.82162e+12 -4.85747e+12 -4.8273e+12 -4.81165e+12 -4.74902e+12 -4.80386e+12 -4.77488e+12 -5.074e+12 -5.77338e+12 -5.97398e+12 -5.99628e+12 -6.1165e+12 -6.39491e+12 -7.54083e+12 -7.58978e+12 -5.2429e+12 -5.25478e+12 -5.08745e+12 -7.47382e+12 -7.20992e+12 -6.27652e+12 -6.05833e+12 -7.0689e+12 -6.18249e+12 -5.74e+12 -5.45474e+12 -5.18033e+12 -5.01138e+12 -4.98068e+12 -4.91073e+12 -4.8848e+12 -4.83353e+12 -4.80599e+12 -4.79277e+12 -4.7948e+12 -4.79228e+12 -4.79625e+12 -4.71817e+12 -4.70971e+12 -5.18589e+12 -6.62257e+12 -5.65564e+12 -5.46478e+12 -6.36035e+12 -6.86354e+12 -7.45718e+12 -7.48826e+12 -7.55562e+12 -5.27476e+12 -5.14343e+12 -5.1672e+12 -7.85764e+12 -7.43885e+12 -7.18522e+12 -6.78519e+12 -6.75804e+12 -6.85385e+12 -6.75972e+12 -5.82492e+12 -5.23935e+12 -5.06405e+12 -4.9288e+12 -4.85156e+12 -4.85228e+12 -4.83142e+12 -4.82001e+12 -4.79808e+12 -4.78662e+12 -4.76187e+12 -4.70618e+12 -4.74708e+12 -4.71577e+12 -4.86152e+12 -5.06176e+12 -4.21528e+12 -5.99448e+12 -5.3837e+12 -5.47901e+12 -6.87309e+12 -4.88103e+12 -7.02686e+12 -7.41496e+12 -7.39117e+12 -7.54745e+12 -7.51038e+12 -5.40509e+12 -5.45475e+12 -5.13391e+12 -7.89395e+12 -7.6547e+12 -7.56889e+12 -7.28751e+12 -7.37515e+12 -7.29697e+12 -7.22352e+12 -6.67316e+12 -6.49847e+12 -6.27654e+12 -5.94665e+12 -5.52398e+12 -5.04254e+12 -4.94858e+12 -4.87133e+12 -4.86601e+12 -4.84769e+12 -4.82518e+12 -4.76885e+12 -4.75203e+12 -4.69208e+12 -4.61583e+12 -4.74139e+12 -4.75692e+12 -5.98761e+12 -5.93619e+12 -5.07057e+12 -5.68199e+12 -6.14371e+12 -6.08567e+12 -6.47972e+12 -7.01803e+12 -7.48778e+12 -7.39844e+12 -7.31224e+12 -7.45573e+12 -7.85361e+12 -5.03842e+12 -4.88254e+12 -5.0539e+12 -5.07559e+12 -7.80274e+12 -7.6086e+12 -6.90486e+12 -6.90541e+12 -6.41176e+12 -6.12282e+12 -6.55027e+12 -6.65033e+12 -6.33746e+12 -5.53436e+12 -5.2163e+12 -4.89225e+12 -4.83265e+12 -4.80446e+12 -4.85947e+12 -4.83295e+12 -4.84243e+12 -4.79053e+12 -4.71743e+12 -4.59749e+12 -4.42463e+12 -4.57196e+12 -4.60841e+12 -5.42521e+12 -5.91289e+12 -5.85277e+12 -5.93695e+12 -5.96373e+12 -5.66687e+12 -6.43037e+12 -6.83808e+12 -7.33382e+12 -7.59666e+12 -7.20972e+12 -7.42532e+12 -7.6722e+12 -7.4391e+12 -7.70279e+12 -4.80814e+12 -5.0081e+12 -7.75223e+12 -7.78378e+12 -7.66242e+12 -7.66972e+12 -7.08058e+12 -7.41848e+12 -6.9262e+12 -6.81083e+12 -6.95131e+12 -6.76233e+12 -7.12189e+12 -6.90224e+12 -6.24253e+12 -5.90892e+12 -5.1742e+12 -4.98298e+12 -4.84377e+12 -4.72283e+12 -4.82486e+12 -4.78474e+12 -4.75754e+12 -4.68882e+12 -4.63168e+12 -4.5036e+12 -4.36023e+12 -4.58932e+12 -5.18866e+12 -5.72417e+12 -5.77366e+12 -5.88128e+12 -6.07956e+12 -5.95577e+12 -6.25196e+12 -7.3892e+12 -7.50855e+12 -7.58234e+12 -6.94788e+12 -7.1558e+12 -7.11521e+12 -7.65434e+12 -7.87429e+12 -4.98409e+12 -4.82082e+12 -4.92583e+12 -7.67083e+12 -7.6124e+12 -7.42259e+12 -7.09621e+12 -6.39933e+12 -6.80463e+12 -6.84765e+12 -7.02926e+12 -7.13946e+12 -6.91876e+12 -6.53815e+12 -6.14743e+12 -5.84499e+12 -5.48204e+12 -4.91607e+12 -4.81761e+12 -4.86379e+12 -4.83796e+12 -4.91573e+12 -4.86223e+12 -4.78833e+12 -4.54666e+12 -4.19551e+12 -4.25957e+12 -4.36842e+12 -3.36601e+12 -5.23799e+12 -5.6291e+12 -5.68912e+12 -5.97696e+12 -6.17376e+12 -6.32814e+12 -6.33128e+12 -7.05598e+12 -7.38661e+12 -7.07651e+12 -7.3187e+12 -6.84192e+12 -7.68209e+12 -7.45149e+12 -7.68083e+12 -4.96338e+12 -5.07655e+12 -4.74102e+12 -7.49231e+12 -7.61334e+12 -7.47159e+12 -7.51882e+12 -7.282e+12 -6.72414e+12 -7.35412e+12 -6.84116e+12 -7.00205e+12 -6.86246e+12 -6.89931e+12 -6.69444e+12 -6.46899e+12 -5.75806e+12 -5.44525e+12 -5.06822e+12 -4.70105e+12 -4.89628e+12 -4.50246e+12 -5.04282e+12 -4.78873e+12 -4.9601e+12 -4.70726e+12 -4.73827e+12 -4.75474e+12 -4.69018e+12 -4.31145e+12 -3.34495e+12 -4.69501e+12 -5.72239e+12 -5.16814e+12 -5.28501e+12 -5.45591e+12 -5.85219e+12 -5.66114e+12 -6.02091e+12 -6.22624e+12 -6.38434e+12 -6.51339e+12 -6.62197e+12 -6.52716e+12 -6.80936e+12 -7.10269e+12 -7.2766e+12 -7.15341e+12 -7.33325e+12 -7.52435e+12 -7.50243e+12 -7.40157e+12 -4.73555e+12 -4.50826e+12 -4.66074e+12 -7.4221e+12 -7.39226e+12 -7.22516e+12 -7.32499e+12 -7.07733e+12 -6.87692e+12 -6.9166e+12 -6.18882e+12 -6.4702e+12 -6.63899e+12 -6.61228e+12 -6.49433e+12 -6.30618e+12 -6.05869e+12 -5.26067e+12 -5.04515e+12 -4.61898e+12 -5e+12 -4.75287e+12 -3.71398e+12 -5.90525e+12 -4.75347e+12 -4.38623e+12 -4.75283e+12 -4.57375e+12 -5.48304e+12 -4.49096e+12 -5.99355e+12 -4.85812e+12 -3.9072e+12 -5.252e+12 -5.49218e+12 -5.84895e+12 -6.02903e+12 -6.19793e+12 -6.63277e+12 -6.58414e+12 -6.88753e+12 -7.01719e+12 -7.34711e+12 -7.48374e+12 -7.29329e+12 -6.97953e+12 -7.4151e+12 -7.56967e+12 -4.73931e+12 -4.39538e+12 -4.293e+12 -7.32795e+12 -7.4244e+12 -7.22317e+12 -7.25204e+12 -7.15921e+12 -7.04653e+12 -6.9111e+12 -7.2148e+12 -6.5228e+12 -6.57339e+12 -6.38103e+12 -6.19222e+12 -5.95427e+12 -5.61246e+12 -4.40231e+12 -4.55444e+12 -3.60675e+12 -4.92371e+12 -3.26743e+12 -4.63072e+12 -4.83712e+12 -4.83746e+12 -4.45862e+12 -4.53302e+12 -5.0059e+12 -5.09492e+12 -5.28048e+12 -4.25697e+12 -5.01338e+12 -5.65468e+12 -5.82473e+12 -5.98131e+12 -6.39488e+12 -6.43822e+12 -6.67038e+12 -7.03119e+12 -6.68018e+12 -7.07474e+12 -7.14792e+12 -7.33168e+12 -7.51869e+12 -7.17676e+12 -7.03772e+12 -7.14411e+12 -7.26902e+12 -6.98166e+12 -7.15182e+12 -4.58119e+12 -4.15441e+12 -7.13639e+12 -7.26016e+12 -7.02327e+12 -7.04393e+12 -6.9962e+12 -6.91013e+12 -6.58021e+12 -5.89046e+12 -7.00809e+12 -6.84993e+12 -6.67666e+12 -6.25194e+12 -6.04287e+12 -5.7543e+12 -5.28224e+12 -4.24551e+12 -5.76351e+12 -5.08774e+12 -4.47092e+12 -3.08115e+12 -3.9079e+12 -5.97565e+12 -3.74375e+12 -4.86267e+12 -3.75534e+12 -4.66479e+12 -4.02129e+12 -4.67321e+12 -4.27933e+12 -4.94984e+12 -4.86942e+12 -5.32126e+12 -5.54349e+12 -5.71716e+12 -6.15709e+12 -6.24869e+12 -6.41874e+12 -6.50341e+12 -6.96336e+12 -6.99046e+12 -7.02132e+12 -6.98322e+12 -6.56668e+12 -7.00993e+12 -7.17672e+12 -7.36605e+12 -7.42482e+12 -7.37624e+12 -4.76396e+12 -4.83909e+12 -3.95455e+12 -3.96506e+12 -6.89695e+12 -6.77334e+12 -7.17667e+12 -7.10745e+12 -7.00062e+12 -6.77692e+12 -6.88967e+12 -6.94826e+12 -7.00171e+12 -6.63854e+12 -6.66803e+12 -6.50318e+12 -6.46431e+12 -6.38537e+12 -6.03309e+12 -5.87355e+12 -5.72301e+12 -5.57792e+12 -6.23035e+12 -5.36483e+12 -4.76291e+12 -4.15422e+12 -4.16037e+12 -4.80358e+12 -4.19567e+12 -5.0043e+12 -4.13866e+12 -5.01568e+12 -3.06426e+12 -4.18486e+12 -4.603e+12 -5.05043e+12 -6.07631e+12 -4.64861e+12 -4.62035e+12 -4.76453e+12 -5.10457e+12 -5.29459e+12 -5.45818e+12 -5.88223e+12 -6.00898e+12 -6.16243e+12 -6.27432e+12 -6.61999e+12 -6.80265e+12 -6.80653e+12 -6.55606e+12 -6.09713e+12 -6.86849e+12 -6.94202e+12 -7.00473e+12 -7.36428e+12 -7.46648e+12 -7.24814e+12 -4.72083e+12 -4.05087e+12 -6.89651e+12 -6.87405e+12 -6.76516e+12 -6.68726e+12 -6.8428e+12 -6.71797e+12 -6.67764e+12 -6.32483e+12 -6.74139e+12 -6.7129e+12 -6.64924e+12 -6.72029e+12 -7.12092e+12 -6.73811e+12 -6.37414e+12 -6.51254e+12 -6.32913e+12 -6.18029e+12 -5.84065e+12 -5.7534e+12 -5.7186e+12 -5.9492e+12 -5.92174e+12 -4.46633e+12 -4.31226e+12 -4.28363e+12 -4.72014e+12 -4.92009e+12 -4.89001e+12 -4.47484e+12 -4.19449e+12 -3.98464e+12 -3.63838e+12 -5.10039e+12 -5.11127e+12 -4.52859e+12 -4.91585e+12 -4.9606e+12 -5.11135e+12 -5.24121e+12 -5.60946e+12 -5.74258e+12 -5.88536e+12 -6.00516e+12 -6.4135e+12 -6.56023e+12 -6.7652e+12 -6.87265e+12 -6.93298e+12 -7.22294e+12 -6.56004e+12 -6.90425e+12 -6.88077e+12 -6.99959e+12 -7.12356e+12 -7.28233e+12 -6.89208e+12 -7.33978e+12 -7.14183e+12 -4.58034e+12 -4.57988e+12 -4.32862e+12 -4.20754e+12 -6.9885e+12 -6.78245e+12 -6.71828e+12 -6.94243e+12 -6.44686e+12 -6.13511e+12 -6.79824e+12 -7.16042e+12 -6.41625e+12 -7.07104e+12 -6.23782e+12 -6.47492e+12 -6.38883e+12 -6.21753e+12 -6.21687e+12 -6.07231e+12 -5.94933e+12 -5.62294e+12 -5.65891e+12 -5.60455e+12 -5.3707e+12 -4.95507e+12 -4.294e+12 -4.02923e+12 -3.33912e+12 -3.33435e+12 -3.35384e+12 -4.228e+12 -4.6702e+12 -3.09016e+12 -4.31544e+12 -4.66448e+12 -4.75083e+12 -4.8802e+12 -4.95961e+12 -5.06349e+12 -5.36984e+12 -5.49152e+12 -5.61736e+12 -5.73387e+12 -6.13458e+12 -6.27746e+12 -6.42443e+12 -6.56976e+12 -6.67831e+12 -6.98785e+12 -7.09361e+12 -6.8679e+12 -6.81674e+12 -6.84587e+12 -6.81446e+12 -7.00961e+12 -7.19663e+12 -7.14759e+12 -4.47832e+12 -4.35825e+12 -7.0211e+12 -6.91549e+12 -6.86516e+12 -6.79494e+12 -6.76771e+12 -6.68572e+12 -6.97599e+12 -6.92348e+12 -7.09181e+12 -7.29125e+12 -6.86176e+12 -6.84792e+12 -6.66926e+12 -6.26701e+12 -6.3907e+12 -6.17901e+12 -6.03645e+12 -5.95953e+12 -5.83722e+12 -5.7409e+12 -5.66925e+12 -5.43743e+12 -5.35969e+12 -5.19504e+12 -4.96736e+12 -4.60539e+12 -5.69501e+12 -4.71018e+12 -4.72502e+12 -4.54272e+12 -4.62675e+12 -4.72062e+12 -4.81976e+12 -5.16799e+12 -5.27241e+12 -5.37966e+12 -5.48336e+12 -5.85109e+12 -5.97964e+12 -6.11524e+12 -6.2388e+12 -6.36732e+12 -6.56703e+12 -6.6877e+12 -6.80396e+12 -6.73167e+12 -6.76357e+12 -6.60625e+12 -6.55302e+12 -5.99463e+12 -7.08523e+12 -6.90703e+12 -7.03655e+12 -6.70592e+12 -4.22872e+12 -4.14218e+12 -4.32424e+12 -6.76833e+12 -6.93082e+12 -6.84342e+12 -6.8478e+12 -6.82866e+12 -6.85725e+12 -7.19711e+12 -6.27606e+12 -6.9438e+12 -6.87732e+12 -6.6919e+12 -6.71129e+12 -6.37559e+12 -6.30347e+12 -6.07923e+12 -6.06303e+12 -5.90865e+12 -5.78717e+12 -5.70216e+12 -5.60911e+12 -5.53458e+12 -5.47515e+12 -5.16429e+12 -5.03081e+12 -4.87147e+12 -4.64955e+12 -4.39144e+12 -4.16066e+12 -3.89241e+12 -3.75861e+12 -3.82083e+12 -4.09552e+12 -4.51755e+12 -4.96035e+12 -4.53749e+12 -4.011e+12 -4.39484e+12 -4.52891e+12 -4.54869e+12 -4.50124e+12 -4.57747e+12 -4.66072e+12 -4.90068e+12 -4.99115e+12 -5.082e+12 -5.17336e+12 -5.26274e+12 -5.58657e+12 -5.69423e+12 -5.81014e+12 -5.9265e+12 -6.04155e+12 -6.20318e+12 -6.32923e+12 -6.44705e+12 -6.53679e+12 -6.5544e+12 -6.61159e+12 -6.46692e+12 -6.48511e+12 -6.29095e+12 -6.43706e+12 -6.81273e+12 -6.40263e+12 -6.69958e+12 -6.74657e+12 -4.09476e+12 -4.14116e+12 -4.25814e+12 -6.59203e+12 -6.69703e+12 -6.75311e+12 -6.6933e+12 -6.87392e+12 -7.07713e+12 -6.45839e+12 -6.35466e+12 -6.66963e+12 -6.47376e+12 -6.08413e+12 -5.98183e+12 -5.82839e+12 -5.76471e+12 -5.64009e+12 -5.53899e+12 -5.46221e+12 -5.38215e+12 -5.31189e+12 -5.24944e+12 -4.75905e+12 -4.60629e+12 -4.42477e+12 -4.22309e+12 -4.01825e+12 -3.90753e+12 -3.88112e+12 -4.02162e+12 -4.23463e+12 -4.53016e+12 -4.47419e+12 -4.40193e+12 -4.2072e+12 -4.33512e+12 -4.39729e+12 -4.42562e+12 -4.44465e+12 -4.74385e+12 -4.82509e+12 -4.90725e+12 -4.98892e+12 -5.06711e+12 -5.3512e+12 -5.44051e+12 -5.53214e+12 -5.62782e+12 -5.72932e+12 -5.85495e+12 -5.97511e+12 -6.10729e+12 -6.21217e+12 -6.30753e+12 -6.38172e+12 -6.32062e+12 -6.25384e+12 -6.44139e+12 -6.21436e+12 -5.75611e+12 -6.46392e+12 -6.64271e+12 -6.6677e+12 -6.5396e+12 -4.05451e+12 -3.9883e+12 -6.47753e+12 -6.51526e+12 -6.42952e+12 -6.60917e+12 -6.52198e+12 -6.45731e+12 -6.67352e+12 -6.73118e+12 -6.52103e+12 -6.38393e+12 -6.23144e+12 -6.43385e+12 -6.235e+12 -5.68447e+12 -5.56639e+12 -5.48751e+12 -5.38614e+12 -5.3022e+12 -5.22824e+12 -5.15267e+12 -5.08021e+12 -4.99567e+12 -4.88512e+12 -4.39843e+12 -4.24614e+12 -4.08364e+12 -3.96779e+12 -3.92351e+12 -3.9688e+12 -4.09297e+12 -4.25402e+12 -4.30638e+12 -4.30331e+12 -4.25923e+12 -4.19621e+12 -4.25137e+12 -4.2945e+12 -4.51339e+12 -4.58735e+12 -4.66357e+12 -4.74032e+12 -4.81551e+12 -5.1432e+12 -5.21877e+12 -5.29327e+12 -5.36726e+12 -5.44457e+12 -5.53527e+12 -5.62648e+12 -5.72778e+12 -5.87366e+12 -5.98225e+12 -6.08021e+12 -6.25173e+12 -6.16004e+12 -6.33166e+12 -6.50129e+12 -6.54871e+12 -7.07773e+12 -6.84937e+12 -6.66533e+12 -6.50116e+12 -6.50093e+12 -6.37766e+12 -4.00189e+12 -3.92906e+12 -3.6833e+12 -3.83077e+12 -6.16166e+12 -6.33818e+12 -6.25911e+12 -6.31993e+12 -6.2276e+12 -6.33906e+12 -6.23421e+12 -6.43755e+12 -6.31847e+12 -6.22487e+12 -6.09906e+12 -6.26745e+12 -6.1665e+12 -6.03457e+12 -5.91274e+12 -5.785e+12 -5.23034e+12 -5.14818e+12 -5.07276e+12 -5.00044e+12 -4.92691e+12 -4.84716e+12 -4.75293e+12 -4.64824e+12 -4.53103e+12 -4.10268e+12 -3.99515e+12 -3.93162e+12 -3.93244e+12 -3.99101e+12 -4.08586e+12 -4.14073e+12 -4.16818e+12 -4.16337e+12 -4.14229e+12 -4.33303e+12 -4.37545e+12 -4.43857e+12 -4.50698e+12 -4.57769e+12 -4.64814e+12 -4.88723e+12 -4.95493e+12 -5.02058e+12 -5.08436e+12 -5.14553e+12 -5.20455e+12 -5.26461e+12 -5.31855e+12 -5.371e+12 -5.42837e+12 -5.62698e+12 -5.69807e+12 -5.99467e+12 -6.12647e+12 -5.97259e+12 -6.06581e+12 -6.17716e+12 -6.62211e+12 -6.58725e+12 -6.30276e+12 -6.32496e+12 -6.13759e+12 -6.20019e+12 -3.83832e+12 -3.58317e+12 -5.9658e+12 -5.9184e+12 -6.12017e+12 -6.01935e+12 -5.9694e+12 -5.8826e+12 -6.1294e+12 -6.00575e+12 -5.90589e+12 -6.16945e+12 -6.07324e+12 -5.98962e+12 -5.88462e+12 -5.95809e+12 -5.9295e+12 -5.81025e+12 -5.71054e+12 -5.60453e+12 -5.49697e+12 -5.40452e+12 -5.30786e+12 -4.85384e+12 -4.78583e+12 -4.71298e+12 -4.63117e+12 -4.54209e+12 -4.44649e+12 -4.34276e+12 -4.22705e+12 -4.12942e+12 -4.16525e+12 -4.20458e+12 -4.24753e+12 -4.29658e+12 -4.35618e+12 -4.42009e+12 -4.71543e+12 -4.77851e+12 -4.83806e+12 -4.89495e+12 -4.94922e+12 -5.00034e+12 -5.0457e+12 -5.00641e+12 -5.19061e+12 -5.69369e+12 -5.83607e+12 -5.88454e+12 -5.68826e+12 -5.73626e+12 -6.10133e+12 -6.29857e+12 -6.22882e+12 -6.32885e+12 -6.06244e+12 -6.09173e+12 -5.96094e+12 -6.03356e+12 -5.86198e+12 -3.72392e+12 -3.4799e+12 -5.64836e+12 -5.82362e+12 -5.79608e+12 -5.85968e+12 -5.7006e+12 -5.4556e+12 -5.72108e+12 -5.65498e+12 -5.81033e+12 -5.72858e+12 -5.63759e+12 -5.76366e+12 -5.65326e+12 -5.58257e+12 -5.48931e+12 -5.40138e+12 -5.31254e+12 -5.22346e+12 -5.14313e+12 -5.06389e+12 -4.9949e+12 -4.92357e+12 -4.58607e+12 -4.51483e+12 -4.43843e+12 -4.35787e+12 -4.27239e+12 -4.18031e+12 -4.08261e+12 -3.99037e+12 -3.9209e+12 -3.89266e+12 -3.91022e+12 -3.9599e+12 -4.00351e+12 -4.0318e+12 -4.04389e+12 -4.0417e+12 -4.03752e+12 -4.04583e+12 -4.07759e+12 -4.11613e+12 -4.16042e+12 -4.21072e+12 -4.48503e+12 -4.54825e+12 -4.60798e+12 -4.66393e+12 -4.71655e+12 -4.76654e+12 -4.81452e+12 -5.07648e+12 -5.08588e+12 -5.06757e+12 -5.32902e+12 -5.52884e+12 -5.58097e+12 -5.64027e+12 -5.38604e+12 -5.48358e+12 -5.74559e+12 -5.8439e+12 -5.99755e+12 -5.87338e+12 -5.90353e+12 -5.68271e+12 -5.78366e+12 -5.68535e+12 -3.58755e+12 -3.43508e+12 -3.22561e+12 -3.3607e+12 -5.43533e+12 -5.60787e+12 -5.60982e+12 -5.82359e+12 -5.94805e+12 -6.17488e+12 -5.31945e+12 -5.34872e+12 -5.52229e+12 -5.44573e+12 -5.36546e+12 -5.52887e+12 -5.42479e+12 -5.32885e+12 -5.26169e+12 -5.18635e+12 -5.11486e+12 -5.04485e+12 -4.97314e+12 -4.90617e+12 -4.84096e+12 -4.77831e+12 -4.71461e+12 -4.65129e+12 -4.33385e+12 -4.2646e+12 -4.19183e+12 -4.11508e+12 -4.03522e+12 -3.95711e+12 -3.8902e+12 -3.84755e+12 -3.83761e+12 -3.85615e+12 -3.88298e+12 -3.90632e+12 -3.92084e+12 -3.9273e+12 -3.92993e+12 -3.93691e+12 -3.95498e+12 -3.98642e+12 -4.02492e+12 -4.26715e+12 -4.3261e+12 -4.38465e+12 -4.44083e+12 -4.49367e+12 -4.54309e+12 -4.58974e+12 -4.85749e+12 -4.88714e+12 -4.88926e+12 -4.83746e+12 -4.66809e+12 -3.77956e+12 -6.11237e+12 -5.75059e+12 -5.53376e+12 -5.4609e+12 -5.42995e+12 -4.60448e+12 -6.06831e+12 -5.95659e+12 -5.85962e+12 -5.6236e+12 -5.48238e+12 -5.5992e+12 -5.41879e+12 -5.51786e+12 -3.25327e+12 -3.075e+12 -5.21229e+12 -5.38637e+12 -5.34331e+12 -5.67683e+12 -5.84437e+12 -4.22371e+12 -4.925e+12 -5.03369e+12 -5.28825e+12 -5.11041e+12 -5.06261e+12 -5.26147e+12 -5.17076e+12 -5.091e+12 -5.02343e+12 -4.97034e+12 -4.91349e+12 -4.85904e+12 -4.80434e+12 -4.74856e+12 -4.69166e+12 -4.63464e+12 -4.57829e+12 -4.52107e+12 -4.46217e+12 -4.39989e+12 -4.10242e+12 -4.03657e+12 -3.96876e+12 -3.90167e+12 -3.84025e+12 -3.79265e+12 -3.76667e+12 -3.7635e+12 -3.77405e+12 -3.7887e+12 -3.80107e+12 -3.80923e+12 -3.81508e+12 -3.82261e+12 -3.83639e+12 -3.8592e+12 -4.06925e+12 -4.11836e+12 -4.17093e+12 -4.22435e+12 -4.27648e+12 -4.32596e+12 -4.37216e+12 -4.63483e+12 -4.67805e+12 -4.71592e+12 -4.74234e+12 -4.74955e+12 -4.72354e+12 -4.43492e+12 -5.11313e+12 -5.63623e+12 -5.47598e+12 -5.35106e+12 -5.2703e+12 -5.16335e+12 -5.03625e+12 -5.62056e+12 -5.83939e+12 -5.65851e+12 -5.59735e+12 -5.23312e+12 -5.32055e+12 -5.28938e+12 -5.24731e+12 -5.36087e+12 -5.18458e+12 -3.05062e+12 -2.91085e+12 -4.7679e+12 -4.9882e+12 -4.91877e+12 -5.15087e+12 -5.08407e+12 -5.32922e+12 -5.34876e+12 -5.46854e+12 -4.32662e+12 -4.83516e+12 -4.97621e+12 -4.63132e+12 -4.94979e+12 -4.87771e+12 -4.83038e+12 -4.7893e+12 -4.75196e+12 -4.71632e+12 -4.67437e+12 -4.63128e+12 -4.58846e+12 -4.54212e+12 -4.49211e+12 -4.44231e+12 -4.39184e+12 -4.33898e+12 -4.28382e+12 -4.22602e+12 -4.16561e+12 -3.82972e+12 -3.77391e+12 -3.72609e+12 -3.69208e+12 -3.67495e+12 -3.67191e+12 -3.67697e+12 -3.68442e+12 -3.69126e+12 -3.69738e+12 -3.70476e+12 -3.89119e+12 -3.9295e+12 -3.97261e+12 -4.01905e+12 -4.06715e+12 -4.11484e+12 -4.16062e+12 -4.20346e+12 -4.41531e+12 -4.45644e+12 -4.49599e+12 -4.53285e+12 -4.56426e+12 -4.58634e+12 -4.59257e+12 -4.52257e+12 -4.80318e+12 -4.96745e+12 -5.1849e+12 -5.15775e+12 -5.10421e+12 -5.03425e+12 -4.90786e+12 -4.32512e+12 -5.18854e+12 -5.25051e+12 -5.21662e+12 -4.81639e+12 -5.12699e+12 -4.94357e+12 -5.1075e+12 -4.94711e+12 -5.09705e+12 -4.98309e+12 -2.84636e+12 -2.65223e+12 -2.55597e+12 -2.73649e+12 -4.54584e+12 -4.69139e+12 -4.82977e+12 -4.72151e+12 -5.00905e+12 -4.93974e+12 -4.78588e+12 -5.18136e+12 -4.85018e+12 -4.54228e+12 -4.85174e+12 -4.72791e+12 -3.65694e+12 -4.55961e+12 -4.52868e+12 -4.53801e+12 -4.54165e+12 -4.53414e+12 -4.51961e+12 -4.4954e+12 -4.46119e+12 -4.42507e+12 -4.38819e+12 -4.34829e+12 -4.30511e+12 -4.26053e+12 -4.21409e+12 -4.16484e+12 -4.11367e+12 -4.06037e+12 -4.00493e+12 -3.94746e+12 -3.88856e+12 -3.71615e+12 -3.73396e+12 -3.75926e+12 -3.79149e+12 -3.8288e+12 -3.86969e+12 -3.91258e+12 -3.95574e+12 -3.99757e+12 -4.24313e+12 -4.28029e+12 -4.31548e+12 -4.3483e+12 -4.37811e+12 -4.40309e+12 -4.41868e+12 -4.41214e+12 -4.56518e+12 -4.66911e+12 -4.73977e+12 -4.85659e+12 -4.87149e+12 -4.85181e+12 -4.80276e+12 -4.61733e+12 -4.88115e+12 -4.67513e+12 -4.64655e+12 -4.68235e+12 -3.97044e+12 -4.6871e+12 -4.77619e+12 -4.84633e+12 -4.92753e+12 -4.72852e+12 -4.76599e+12 -2.47697e+12 -2.37448e+12 -4.31989e+12 -4.4691e+12 -4.36883e+12 -4.59234e+12 -4.45637e+12 -4.57742e+12 -4.38822e+12 -4.64126e+12 -4.53163e+12 -4.48881e+12 -4.76102e+12 -4.9162e+12 -5.15804e+12 -4.05671e+12 -4.20777e+12 -4.28551e+12 -4.31569e+12 -4.32235e+12 -4.31699e+12 -4.2956e+12 -4.26368e+12 -4.23122e+12 -4.19898e+12 -4.164e+12 -4.12555e+12 -4.08462e+12 -4.04142e+12 -3.99581e+12 -3.9487e+12 -3.89985e+12 -3.84932e+12 -3.79748e+12 -3.74524e+12 -3.69447e+12 -3.64837e+12 -3.6111e+12 -3.58583e+12 -3.57268e+12 -3.56884e+12 -3.5703e+12 -3.57397e+12 -3.57866e+12 -3.58492e+12 -3.59427e+12 -3.60843e+12 -3.62863e+12 -3.65501e+12 -3.68667e+12 -3.72216e+12 -3.76003e+12 -4.03692e+12 -4.07322e+12 -4.1067e+12 -4.13804e+12 -4.16686e+12 -4.19312e+12 -4.21757e+12 -4.23835e+12 -4.2533e+12 -4.33991e+12 -4.41794e+12 -4.47099e+12 -4.5141e+12 -4.57809e+12 -4.59566e+12 -4.57949e+12 -4.51568e+12 -4.631e+12 -4.64103e+12 -4.08701e+12 -3.80757e+12 -4.21488e+12 -4.56864e+12 -4.51846e+12 -4.66871e+12 -4.65667e+12 -4.70135e+12 -4.51072e+12 -4.54029e+12 -4.30327e+12 -2.32436e+12 -2.19684e+12 -4.0841e+12 -4.02878e+12 -4.25404e+12 -4.17242e+12 -4.22176e+12 -3.9984e+12 -4.27527e+12 -3.9869e+12 -4.2415e+12 -4.22574e+12 -4.29725e+12 -4.73081e+12 -5.0295e+12 -5.15719e+12 -3.22088e+12 -3.86201e+12 -4.03448e+12 -4.10851e+12 -4.13035e+12 -4.13498e+12 -4.12757e+12 -4.04436e+12 -4.01567e+12 -3.98416e+12 -3.94932e+12 -3.91162e+12 -3.87185e+12 -3.83032e+12 -3.78744e+12 -3.74296e+12 -3.69707e+12 -3.65045e+12 -3.60431e+12 -3.56085e+12 -3.52297e+12 -3.49346e+12 -3.47354e+12 -3.46241e+12 -3.45785e+12 -3.45741e+12 -3.45955e+12 -3.46392e+12 -3.47112e+12 -3.48223e+12 -3.49827e+12 -3.51963e+12 -3.54594e+12 -3.57622e+12 -3.79871e+12 -3.83662e+12 -3.87248e+12 -3.90554e+12 -3.93563e+12 -3.9634e+12 -3.98897e+12 -4.01206e+12 -4.03407e+12 -4.05628e+12 -4.07894e+12 -4.13276e+12 -4.18726e+12 -4.28626e+12 -4.32381e+12 -4.334e+12 -4.31967e+12 -4.37126e+12 -4.35163e+12 -4.25242e+12 -3.10473e+12 -2.41805e+12 -4.22404e+12 -4.39562e+12 -4.44104e+12 -4.52407e+12 -4.50509e+12 -4.28985e+12 -4.28646e+12 -4.04952e+12 -2.18552e+12 -2.04176e+12 -2.02107e+12 -3.5811e+12 -3.83733e+12 -3.79142e+12 -3.95958e+12 -3.8804e+12 -4.06955e+12 -3.9411e+12 -3.61729e+12 -2.77368e+12 -3.68842e+12 -3.71393e+12 -3.93623e+12 -4.41863e+12 -4.61369e+12 -4.73295e+12 -3.50306e+12 -3.8385e+12 -3.91689e+12 -3.946e+12 -4.10347e+12 -4.07298e+12 -3.70512e+12 -3.66777e+12 -3.62881e+12 -3.58827e+12 -3.54665e+12 -3.50493e+12 -3.46462e+12 -3.42774e+12 -3.39653e+12 -3.37253e+12 -3.35605e+12 -3.34621e+12 -3.34144e+12 -3.34036e+12 -3.34223e+12 -3.34704e+12 -3.35532e+12 -3.36777e+12 -3.38479e+12 -3.60913e+12 -3.64331e+12 -3.67731e+12 -3.70979e+12 -3.7398e+12 -3.76689e+12 -3.79145e+12 -3.81417e+12 -3.83492e+12 -3.85429e+12 -3.87513e+12 -4.23018e+12 -4.2594e+12 -4.08433e+12 -4.11343e+12 -4.10074e+12 -4.0077e+12 -3.76249e+12 -4.15471e+12 -4.84265e+12 -4.40319e+12 -4.38151e+12 -4.07974e+12 -4.53821e+12 -4.37041e+12 -4.32151e+12 -4.09351e+12 -4.05361e+12 -3.75108e+12 -1.88216e+12 -1.68318e+12 -1.85089e+12 -3.3161e+12 -3.54291e+12 -3.49899e+12 -3.73532e+12 -3.66937e+12 -3.78134e+12 -3.67801e+12 -3.80607e+12 -3.76059e+12 -2.46937e+12 -3.0448e+12 -3.70985e+12 -4.1441e+12 -4.24553e+12 -4.29732e+12 -4.48566e+12 -3.68846e+12 -3.75062e+12 -3.95141e+12 -3.9518e+12 -3.93847e+12 -3.91197e+12 -3.88463e+12 -3.85982e+12 -3.83439e+12 -3.80629e+12 -3.77492e+12 -3.74088e+12 -3.39734e+12 -3.36047e+12 -3.32561e+12 -3.29441e+12 -3.26839e+12 -3.2484e+12 -3.23441e+12 -3.22567e+12 -3.22118e+12 -3.22017e+12 -3.22234e+12 -3.40628e+12 -3.43158e+12 -3.45968e+12 -3.48936e+12 -3.51937e+12 -3.54847e+12 -3.57557e+12 -3.60006e+12 -3.62186e+12 -3.64176e+12 -3.89934e+12 -3.93682e+12 -3.97398e+12 -4.00452e+12 -4.02713e+12 -4.04205e+12 -4.05943e+12 -4.07984e+12 -3.86024e+12 -3.86749e+12 -3.85416e+12 -3.83358e+12 -3.81988e+12 -3.18107e+12 -5.24118e+12 -4.79429e+12 -4.12263e+12 -4.35973e+12 -4.31704e+12 -4.17161e+12 -3.8396e+12 -3.77992e+12 -3.44752e+12 -3.39507e+12 -1.69368e+12 -1.52207e+12 -3.04082e+12 -3.28137e+12 -3.25094e+12 -3.44689e+12 -3.38751e+12 -3.58993e+12 -3.48899e+12 -3.54598e+12 -4.52144e+12 -4.81182e+12 -4.22175e+12 -3.94147e+12 -3.98201e+12 -4.20588e+12 -3.99211e+12 -3.76773e+12 -3.7685e+12 -3.7669e+12 -3.76273e+12 -3.7447e+12 -3.72008e+12 -3.69781e+12 -3.67711e+12 -3.65513e+12 -3.6305e+12 -3.60283e+12 -3.57273e+12 -3.54085e+12 -3.50715e+12 -3.47166e+12 -3.43479e+12 -3.22782e+12 -3.23699e+12 -3.25016e+12 -3.26731e+12 -3.288e+12 -3.31147e+12 -3.33675e+12 -3.36275e+12 -3.38837e+12 -3.41254e+12 -3.43451e+12 -3.66043e+12 -3.67785e+12 -3.69605e+12 -3.71845e+12 -3.74775e+12 -3.77491e+12 -3.79546e+12 -3.80912e+12 -3.81482e+12 -3.81751e+12 -3.82781e+12 -3.83898e+12 -3.57831e+12 -3.54935e+12 -3.50632e+12 -3.51723e+12 -5.22097e+12 -3.81802e+12 -2.77789e+12 -5.1959e+12 -4.61406e+12 -4.3056e+12 -4.07407e+12 -3.93326e+12 -3.61479e+12 -3.52549e+12 -3.05381e+12 -2.97339e+12 -2.45796e+12 -1.47553e+12 -1.35853e+12 -2.75343e+12 -2.72132e+12 -3.00885e+12 -2.99008e+12 -3.21136e+12 -3.17903e+12 -3.30901e+12 -3.18681e+12 -3.36777e+12 -3.72535e+12 -4.04973e+12 -4.01877e+12 -3.8362e+12 -3.81235e+12 -3.93458e+12 -3.84069e+12 -3.74394e+12 -3.58137e+12 -3.58593e+12 -3.58334e+12 -3.57836e+12 -3.5794e+12 -3.57008e+12 -3.54963e+12 -3.5301e+12 -3.51369e+12 -3.49717e+12 -3.47867e+12 -3.45738e+12 -3.4332e+12 -3.40667e+12 -3.37815e+12 -3.34767e+12 -3.31549e+12 -3.2823e+12 -3.24904e+12 -3.2168e+12 -3.18678e+12 -3.1603e+12 -3.13838e+12 -3.12149e+12 -3.1095e+12 -3.10184e+12 -3.09788e+12 -3.09726e+12 -3.09991e+12 -3.10597e+12 -3.11561e+12 -3.12882e+12 -3.14527e+12 -3.16435e+12 -3.18534e+12 -3.20735e+12 -3.22945e+12 -3.45397e+12 -3.47135e+12 -3.48781e+12 -3.50363e+12 -3.51937e+12 -3.53836e+12 -3.56257e+12 -3.58435e+12 -3.59849e+12 -3.60588e+12 -3.60576e+12 -3.59638e+12 -3.58586e+12 -3.58781e+12 -3.59234e+12 -3.59409e+12 -3.27328e+12 -3.27412e+12 -3.08232e+12 -4.14181e+12 -4.31074e+12 -2.61092e+12 -4.81612e+12 -4.71395e+12 -3.86217e+12 -3.7238e+12 -3.25277e+12 -3.1539e+12 -2.5857e+12 -1.84414e+12 -1.25793e+12 -1.11746e+12 -1.00384e+12 -1.18174e+12 -2.14443e+12 -2.45538e+12 -2.42228e+12 -2.70411e+12 -2.70146e+12 -2.9684e+12 -2.94607e+12 -3.14568e+12 -3.09998e+12 -3.00619e+12 -3.09199e+12 -3.03926e+12 -3.18686e+12 -3.7465e+12 -3.57434e+12 -3.75331e+12 -3.68906e+12 -3.63159e+12 -3.57907e+12 -3.50022e+12 -3.4099e+12 -3.39592e+12 -3.38519e+12 -3.38741e+12 -3.38707e+12 -3.37341e+12 -3.35739e+12 -3.34483e+12 -3.33318e+12 -3.32022e+12 -3.30487e+12 -3.28651e+12 -3.26542e+12 -3.24204e+12 -3.21658e+12 -3.18919e+12 -3.16033e+12 -3.13083e+12 -3.10159e+12 -3.07355e+12 -3.04775e+12 -3.02521e+12 -3.00663e+12 -2.99225e+12 -2.98192e+12 -2.97525e+12 -2.97191e+12 -2.97176e+12 -2.97482e+12 -2.98116e+12 -2.99074e+12 -3.00327e+12 -3.01826e+12 -3.03509e+12 -3.25062e+12 -3.27004e+12 -3.2873e+12 -3.30247e+12 -3.31648e+12 -3.33044e+12 -3.34438e+12 -3.35971e+12 -3.37914e+12 -3.39827e+12 -3.4103e+12 -3.41464e+12 -3.41226e+12 -3.39886e+12 -3.37141e+12 -3.33968e+12 -3.33116e+12 -3.31813e+12 -3.30686e+12 -3.28983e+12 -3.03208e+12 -3.01762e+12 -3.39216e+12 -3.59206e+12 -3.52993e+12 -3.62965e+12 -4.0521e+12 -4.03363e+12 -3.43741e+12 -3.34625e+12 -2.85446e+12 -2.72702e+12 -1.9744e+12 -1.17123e+12 -1.68929e+12 -830177000000.0 -1.81929e+12 -2.11103e+12 -2.39999e+12 -2.40267e+12 -2.69919e+12 -2.95134e+12 -2.96829e+12 -2.99456e+12 -2.98817e+12 -2.06998e+12 -1.76268e+12 -3.33655e+12 -3.305e+12 -3.22306e+12 -3.50823e+12 -3.4464e+12 -3.40218e+12 -3.3666e+12 -3.32064e+12 -3.26045e+12 -3.21234e+12 -3.19589e+12 -3.19375e+12 -3.1972e+12 -3.19008e+12 -3.1787e+12 -3.17049e+12 -3.16372e+12 -3.15583e+12 -3.14587e+12 -3.13313e+12 -3.11745e+12 -3.09922e+12 -3.07877e+12 -3.05623e+12 -3.03184e+12 -3.00624e+12 -2.98028e+12 -2.95476e+12 -2.93051e+12 -2.9084e+12 -2.8892e+12 -2.87336e+12 -2.86101e+12 -2.85203e+12 -2.84622e+12 -2.84343e+12 -2.84364e+12 -2.84686e+12 -2.85304e+12 -2.86194e+12 -3.05312e+12 -3.07163e+12 -3.08974e+12 -3.10656e+12 -3.12157e+12 -3.13469e+12 -3.14637e+12 -3.15791e+12 -3.16995e+12 -3.18239e+12 -3.19716e+12 -3.21367e+12 -3.22562e+12 -3.22972e+12 -3.22778e+12 -3.21852e+12 -3.1927e+12 -3.14313e+12 -3.06481e+12 -3.04118e+12 -3.01326e+12 -3.00877e+12 -3.01106e+12 -2.9301e+12 -3.06532e+12 -3.14834e+12 -3.07629e+12 -3.3195e+12 -3.49842e+12 -3.51586e+12 -3.0357e+12 -2.95457e+12 -2.42927e+12 -2.22125e+12 -1.48298e+12 -1.13915e+12 -2.19702e+12 -1.9487e+12 -1.58873e+12 -646774000000.0 -1.49846e+12 -1.78857e+12 -1.75107e+12 -2.08566e+12 -2.07718e+12 -2.42279e+12 -2.45547e+12 -2.71222e+12 -2.75321e+12 -2.80928e+12 -3.00516e+12 -2.89482e+12 -2.94246e+12 -1.28192e+12 -2.64192e+12 -2.89351e+12 -2.93929e+12 -3.18279e+12 -3.15803e+12 -3.13817e+12 -3.11025e+12 -3.06959e+12 -3.03392e+12 -3.00677e+12 -2.99946e+12 -3.00346e+12 -3.00177e+12 -2.99514e+12 -2.99115e+12 -2.95022e+12 -2.93467e+12 -2.91697e+12 -2.89717e+12 -2.87564e+12 -2.85318e+12 -2.83057e+12 -2.80848e+12 -2.78764e+12 -2.76875e+12 -2.75233e+12 -2.7387e+12 -2.72797e+12 -2.72006e+12 -2.71491e+12 -2.87313e+12 -2.88604e+12 -2.90015e+12 -2.91494e+12 -2.92982e+12 -2.94396e+12 -2.95666e+12 -2.96773e+12 -2.97729e+12 -2.98613e+12 -2.99562e+12 -3.00577e+12 -3.01645e+12 -3.02907e+12 -3.04104e+12 -3.0469e+12 -3.04244e+12 -3.02981e+12 -2.99432e+12 -2.91734e+12 -2.72694e+12 -2.69458e+12 -2.68713e+12 -2.70308e+12 -2.73504e+12 -2.78166e+12 -2.65178e+12 -2.78449e+12 -3.15431e+12 -2.96138e+12 -3.06701e+12 -3.08594e+12 -2.70167e+12 -2.64923e+12 -2.56033e+12 -2.16632e+12 -1.96638e+12 -2.25466e+12 -1.64357e+12 -2.77145e+12 -1.23004e+12 -459161000000.0 -1.17724e+12 -1.13867e+12 -1.45912e+12 -1.40812e+12 -1.73051e+12 -2.1002e+12 -2.15334e+12 -2.51778e+12 -2.62622e+12 -2.83272e+12 -1.93931e+12 -2.03521e+12 -2.44319e+12 -2.59949e+12 -2.91118e+12 -2.90488e+12 -2.8954e+12 -2.88043e+12 -2.85591e+12 -2.98907e+12 -2.98601e+12 -2.98107e+12 -2.97371e+12 -2.96338e+12 -2.71249e+12 -2.71279e+12 -2.71576e+12 -2.72124e+12 -2.72888e+12 -2.73815e+12 -2.74852e+12 -2.75959e+12 -2.77099e+12 -2.78219e+12 -2.79245e+12 -2.80135e+12 -2.80892e+12 -2.81536e+12 -3.04671e+12 -2.18997e+12 -2.31889e+12 -2.34113e+12 -2.38629e+12 -2.4778e+12 -2.61576e+12 -2.53655e+12 -2.29143e+12 -2.60557e+12 -2.83234e+12 -2.63112e+12 -2.6968e+12 -2.34183e+12 -2.28017e+12 -1.87604e+12 -1.79389e+12 -2.0439e+12 -1.52893e+12 -2.07512e+12 -2.13311e+12 -1.46e+12 -873761000000.0 -90817300000.0 -276113000000.0 -544431000000.0 -859586000000.0 -821133000000.0 -1.07458e+12 -1.35538e+12 -1.73867e+12 -1.78685e+12 -2.23492e+12 -2.36474e+12 -2.80757e+12 -3.17229e+12 -3.49167e+12 -2.81547e+12 -2.3813e+12 -2.35426e+12 -2.63799e+12 -2.64156e+12 -2.64227e+12 -2.83125e+12 -2.81511e+12 -2.80623e+12 -2.80802e+12 -2.80922e+12 -2.80709e+12 -2.80739e+12 -2.81002e+12 -2.8116e+12 -2.81118e+12 -2.80877e+12 -2.80372e+12 -2.79561e+12 -2.78484e+12 -2.77184e+12 -2.75664e+12 -2.73937e+12 -2.72062e+12 -2.7012e+12 -2.68173e+12 -2.66278e+12 -2.64496e+12 -2.62879e+12 -2.61464e+12 -2.60277e+12 -2.59326e+12 -2.58612e+12 -2.58136e+12 -2.57899e+12 -2.57898e+12 -2.58123e+12 -2.5855e+12 -2.59134e+12 -2.59823e+12 -2.60572e+12 -2.61355e+12 -2.62148e+12 -2.629e+12 -2.82176e+12 -2.82918e+12 -2.83686e+12 -2.8449e+12 -2.85452e+12 -2.86219e+12 -2.86452e+12 -2.86417e+12 -2.8629e+12 -2.85432e+12 -2.81967e+12 -2.71663e+12 -1.94385e+12 -2.0903e+12 -2.31986e+12 -2.42874e+12 -1.91136e+12 -2.05122e+12 -2.34873e+12 -2.52787e+12 -2.32685e+12 -2.36036e+12 -2.01682e+12 -1.96115e+12 -1.55225e+12 -1.59378e+12 -1.69254e+12 -1.25227e+12 -1.20158e+12 -1.40826e+12 -851473000000.0 -563943000000.0 -325925000000.0 -223400000000.0 -508718000000.0 -771199000000.0 -1.00418e+12 -920592000000.0 -1.33982e+12 -1.37448e+12 -1.87584e+12 -1.99175e+12 -2.5803e+12 -2.99124e+12 -1.68811e+12 -2.5434e+12 -2.28012e+12 -2.11798e+12 -2.35644e+12 -2.36165e+12 -2.63584e+12 -2.62784e+12 -2.61482e+12 -2.61037e+12 -2.60844e+12 -2.61085e+12 -2.61396e+12 -2.61593e+12 -2.62027e+12 -2.62702e+12 -2.63295e+12 -2.63678e+12 -2.6389e+12 -2.63888e+12 -2.63584e+12 -2.62978e+12 -2.62132e+12 -2.61066e+12 -2.59774e+12 -2.5829e+12 -2.56689e+12 -2.55038e+12 -2.53381e+12 -2.51768e+12 -2.50246e+12 -2.48854e+12 -2.4762e+12 -2.46564e+12 -2.45696e+12 -2.45022e+12 -2.44548e+12 -2.44275e+12 -2.44199e+12 -2.44304e+12 -2.4456e+12 -2.44919e+12 -2.45334e+12 -2.63554e+12 -2.64096e+12 -2.64529e+12 -2.64882e+12 -2.65283e+12 -2.65775e+12 -2.66223e+12 -2.66711e+12 -2.67343e+12 -2.67796e+12 -2.67998e+12 -2.68443e+12 -2.69565e+12 -2.71509e+12 -2.7459e+12 -2.81937e+12 -1.85239e+12 -1.98249e+12 -1.95913e+12 -2.29055e+12 -2.63482e+12 -1.69355e+12 -1.93944e+12 -2.13083e+12 -2.25425e+12 -2.03962e+12 -2.04365e+12 -1.69599e+12 -1.62709e+12 -1.2643e+12 -790496000000.0 -1.31039e+12 -806629000000.0 -412019000000.0 -118616000000.0 -185154000000.0 -466682000000.0 -385417000000.0 -655159000000.0 -570518000000.0 -906660000000.0 -1.46362e+12 -1.58265e+12 -2.14004e+12 -2.324e+12 -2.51104e+12 -3.71821e+12 -2.11307e+12 -2.05043e+12 -2.1858e+12 -1.98196e+12 -2.025e+12 -2.37145e+12 -2.38148e+12 -2.38779e+12 -2.39004e+12 -2.39544e+12 -2.40306e+12 -2.40991e+12 -2.41603e+12 -2.42171e+12 -2.43018e+12 -2.44068e+12 -2.45057e+12 -2.45843e+12 -2.46464e+12 -2.4692e+12 -2.47114e+12 -2.46987e+12 -2.46589e+12 -2.45966e+12 -2.45112e+12 -2.44033e+12 -2.42791e+12 -2.41458e+12 -2.40077e+12 -2.38684e+12 -2.3732e+12 -2.36019e+12 -2.34805e+12 -2.33706e+12 -2.32735e+12 -2.31906e+12 -2.31229e+12 -2.30714e+12 -2.3036e+12 -2.30163e+12 -2.45772e+12 -2.46219e+12 -2.46659e+12 -2.47048e+12 -2.4735e+12 -2.47561e+12 -2.47679e+12 -2.47745e+12 -2.47877e+12 -2.48047e+12 -2.48134e+12 -2.48279e+12 -2.48557e+12 -2.48808e+12 -2.492e+12 -2.50399e+12 -2.53322e+12 -2.59299e+12 -2.71715e+12 -2.86959e+12 -1.66964e+12 -1.45562e+12 -1.44064e+12 -1.97083e+12 -2.32156e+12 -2.6375e+12 -1.5944e+12 -1.79843e+12 -1.92192e+12 -2.00012e+12 -1.76408e+12 -1.74256e+12 -1.35253e+12 -1.26038e+12 -1.23155e+12 -853374000000.0 -620343000000.0 -551236000000.0 -355182000000.0 -189392000000.0 -196614000000.0 -152493000000.0 -126671000000.0 -171065000000.0 -371027000000.0 -999157000000.0 -1.14132e+12 -1.71019e+12 -1.82228e+12 -1.83276e+12 -2.29063e+12 -1.74367e+12 -1.84109e+12 -2.04944e+12 -2.08956e+12 -2.11945e+12 -2.1393e+12 -2.15456e+12 -2.17195e+12 -2.18945e+12 -2.20307e+12 -2.21463e+12 -2.22466e+12 -2.23721e+12 -2.25139e+12 -2.26458e+12 -2.27623e+12 -2.28634e+12 -2.2951e+12 -2.30179e+12 -2.30539e+12 -2.30596e+12 -2.30409e+12 -2.29986e+12 -2.29319e+12 -2.28449e+12 -2.27449e+12 -2.26371e+12 -2.25242e+12 -2.24091e+12 -2.22944e+12 -2.21821e+12 -2.20741e+12 -2.30101e+12 -2.30141e+12 -2.30237e+12 -2.30351e+12 -2.30461e+12 -2.30563e+12 -2.30648e+12 -2.30682e+12 -2.30641e+12 -2.30525e+12 -2.30326e+12 -2.30093e+12 -2.29906e+12 -2.29695e+12 -2.29387e+12 -2.29132e+12 -2.29025e+12 -2.29096e+12 -2.2965e+12 -2.31502e+12 -2.36152e+12 -2.46069e+12 -2.64424e+12 -2.88691e+12 -1.41833e+12 -1.47292e+12 -1.63314e+12 -2.25559e+12 -2.51372e+12 -1.48677e+12 -1.64859e+12 -1.71923e+12 -1.75718e+12 -1.49381e+12 -1.43692e+12 -940957000000.0 -845947000000.0 -838516000000.0 -405099000000.0 -484720000000.0 -249767000000.0 -107827000000.0 -285334000000.0 -178512000000.0 -433829000000.0 -641937000000.0 -836100000000.0 -1.28893e+12 -1.42834e+12 -1.49233e+12 -1.65794e+12 -1.06574e+12 -1.82752e+12 -1.53783e+12 -1.65609e+12 -1.75884e+12 -1.8338e+12 -1.87741e+12 -1.90941e+12 -1.93993e+12 -1.96751e+12 -1.98952e+12 -2.00778e+12 -2.02364e+12 -2.19724e+12 -2.18786e+12 -2.17946e+12 -2.17219e+12 -2.16616e+12 -2.16138e+12 -2.15775e+12 -2.15503e+12 -2.15287e+12 -2.15089e+12 -2.14879e+12 -2.14646e+12 -2.14395e+12 -2.14124e+12 -2.13806e+12 -2.13423e+12 -2.12975e+12 -2.12452e+12 -2.11886e+12 -2.15332e+12 -2.25106e+12 -2.43514e+12 -2.54733e+12 -1.11562e+12 -1.344e+12 -1.60132e+12 -1.92178e+12 -2.08598e+12 -2.20518e+12 -1.42132e+12 -1.49089e+12 -1.51233e+12 -1.51517e+12 -1.22273e+12 -1.11434e+12 -416319000000.0 -387051000000.0 -149906000000.0 -115555000000.0 -121608000000.0 -359123000000.0 -1.03218e+12 -1.1974e+12 -1.41921e+12 -936777000000.0 -1.5347e+12 -1.45939e+12 -1.05726e+12 -1.25276e+12 -1.41425e+12 -1.52613e+12 -1.60042e+12 -1.65216e+12 -2.04056e+12 -2.05854e+12 -2.07494e+12 -2.09008e+12 -2.10413e+12 -2.11688e+12 -2.12804e+12 -2.13652e+12 -2.14178e+12 -2.14429e+12 -2.14434e+12 -2.14179e+12 -2.13687e+12 -2.13029e+12 -2.12269e+12 -2.11437e+12 -2.10548e+12 -2.09619e+12 -2.08655e+12 -2.07664e+12 -2.06662e+12 -2.05667e+12 -2.04705e+12 -2.038e+12 -2.02975e+12 -2.02241e+12 -2.01595e+12 -2.01023e+12 -2.005e+12 -1.99993e+12 -1.99472e+12 -1.98917e+12 -1.98326e+12 -1.97715e+12 -2.11325e+12 -2.10701e+12 -2.09964e+12 -2.09244e+12 -2.08662e+12 -2.08352e+12 -2.08665e+12 -2.10434e+12 -2.03909e+12 -2.11742e+12 -1.18679e+12 -1.46594e+12 -1.80634e+12 -1.83908e+12 -1.83669e+12 -1.34208e+12 -1.31973e+12 -1.29553e+12 -1.26458e+12 -1.00528e+12 -665936000000.0 -666526000000.0 -892791000000.0 -1.15603e+12 -930188000000.0 -1.8814e+12 -1.08054e+12 -807787000000.0 -891371000000.0 -1.06537e+12 -1.20361e+12 -1.69678e+12 -1.73664e+12 -1.7684e+12 -1.79488e+12 -1.81729e+12 -1.83909e+12 -1.86124e+12 -1.88121e+12 -1.89977e+12 -1.91777e+12 -1.93456e+12 -1.95001e+12 -1.96332e+12 -1.97346e+12 -1.98054e+12 -1.98492e+12 -1.98648e+12 -1.98533e+12 -1.98217e+12 -1.97778e+12 -1.9726e+12 -1.96675e+12 -1.96023e+12 -1.95293e+12 -1.9447e+12 -1.93552e+12 -1.92558e+12 -1.91517e+12 -1.90468e+12 -1.89448e+12 -1.88482e+12 -1.87575e+12 -1.8672e+12 -1.85898e+12 -1.85084e+12 -1.97085e+12 -1.96412e+12 -1.95682e+12 -1.94897e+12 -1.94032e+12 -1.93101e+12 -1.92141e+12 -1.91082e+12 -1.89871e+12 -1.88602e+12 -1.87363e+12 -1.86241e+12 -1.85491e+12 -1.85606e+12 -1.8782e+12 -1.93074e+12 -1.48054e+12 -832279000000.0 -1.43501e+12 -1.50692e+12 -1.68627e+12 -1.54232e+12 -1.47095e+12 -1.24715e+12 -1.12292e+12 -1.05646e+12 -1.0024e+12 -149664000000.0 -263859000000.0 -555117000000.0 -891779000000.0 -880155000000.0 -1.64382e+12 -888132000000.0 -723527000000.0 -1.3068e+12 -1.38398e+12 -1.44481e+12 -1.49696e+12 -1.53972e+12 -1.57511e+12 -1.60469e+12 -1.63184e+12 -1.65862e+12 -1.68266e+12 -1.70485e+12 -1.7268e+12 -1.74782e+12 -1.7676e+12 -1.78574e+12 -1.80102e+12 -1.81298e+12 -1.8219e+12 -1.82765e+12 -1.83024e+12 -1.83038e+12 -1.82906e+12 -1.82699e+12 -1.82443e+12 -1.82126e+12 -1.81713e+12 -1.81151e+12 -1.80405e+12 -1.79478e+12 -1.78404e+12 -1.7724e+12 -1.76048e+12 -1.84252e+12 -1.83381e+12 -1.82461e+12 -1.81498e+12 -1.80517e+12 -1.79522e+12 -1.78486e+12 -1.77407e+12 -1.76278e+12 -1.75054e+12 -1.73751e+12 -1.72381e+12 -1.70845e+12 -1.69129e+12 -1.67199e+12 -1.65031e+12 -1.62532e+12 -1.59408e+12 -1.55021e+12 -1.50073e+12 -1.45327e+12 -1.5239e+12 -1.72155e+12 -1.39702e+12 -1.26591e+12 -1.36e+12 -1.46677e+12 -1.23863e+12 -1.12852e+12 -1.12301e+12 -888751000000.0 -765997000000.0 -635509000000.0 -159361000000.0 -647056000000.0 -744069000000.0 -1.28249e+12 -965694000000.0 -550704000000.0 -448129000000.0 -728293000000.0 -871017000000.0 -1.0114e+12 -1.10988e+12 -1.1882e+12 -1.25104e+12 -1.30413e+12 -1.34867e+12 -1.38569e+12 -1.41828e+12 -1.44983e+12 -1.47851e+12 -1.50466e+12 -1.53068e+12 -1.55612e+12 -1.58045e+12 -1.60353e+12 -1.62424e+12 -1.64161e+12 -1.65551e+12 -1.66573e+12 -1.67209e+12 -1.74871e+12 -1.73727e+12 -1.72608e+12 -1.71502e+12 -1.70388e+12 -1.69243e+12 -1.68052e+12 -1.66805e+12 -1.65497e+12 -1.64147e+12 -1.62786e+12 -1.61414e+12 -1.60012e+12 -1.58584e+12 -1.57106e+12 -1.55526e+12 -1.53856e+12 -1.52067e+12 -1.50072e+12 -1.47831e+12 -1.4515e+12 -1.41834e+12 -1.37367e+12 -1.30332e+12 -1.17028e+12 -1.13228e+12 -983990000000.0 -724400000000.0 -1.30168e+12 -1.21603e+12 -1.15155e+12 -1.21316e+12 -948403000000.0 -840122000000.0 -960413000000.0 -622383000000.0 -392236000000.0 -410482000000.0 -518949000000.0 -946536000000.0 -910582000000.0 -416074000000.0 -303025000000.0 -447644000000.0 -533699000000.0 -723004000000.0 -848047000000.0 -930161000000.0 -1.00181e+12 -1.06423e+12 -1.11691e+12 -1.16082e+12 -1.19847e+12 -1.67534e+12 -1.67673e+12 -1.67745e+12 -1.6781e+12 -1.67867e+12 -1.67862e+12 -1.67684e+12 -1.67229e+12 -1.66457e+12 -1.65404e+12 -1.64151e+12 -1.62795e+12 -1.6142e+12 -1.6006e+12 -1.58703e+12 -1.57332e+12 -1.5593e+12 -1.54477e+12 -1.52962e+12 -1.51377e+12 -1.49724e+12 -1.48007e+12 -1.46252e+12 -1.44496e+12 -1.4274e+12 -1.40974e+12 -1.0197e+12 -999228000000.0 -925253000000.0 -260240000000.0 -1.50014e+12 -989859000000.0 -1.0719e+12 -922791000000.0 -958688000000.0 -599238000000.0 -780284000000.0 -267094000000.0 -652704000000.0 -748837000000.0 -241781000000.0 -343269000000.0 -517823000000.0 -230635000000.0 -493533000000.0 -608334000000.0 -712547000000.0 -1.23432e+12 -1.26794e+12 -1.29873e+12 -1.32912e+12 -1.35905e+12 -1.38791e+12 -1.41601e+12 -1.44262e+12 -1.46616e+12 -1.48586e+12 -1.50112e+12 -1.51152e+12 -1.51777e+12 -1.52132e+12 -1.52402e+12 -1.52726e+12 -1.53153e+12 -1.53632e+12 -1.54006e+12 -1.54024e+12 -1.53544e+12 -1.52583e+12 -1.51257e+12 -1.49726e+12 -1.48141e+12 -1.46581e+12 -1.45013e+12 -1.43403e+12 -1.41731e+12 -1.39982e+12 -1.38145e+12 -1.36215e+12 -1.39201e+12 -1.37379e+12 -1.35472e+12 -1.33461e+12 -1.31263e+12 -1.28841e+12 -1.26097e+12 -1.2276e+12 -1.18436e+12 -1.12223e+12 -1.10746e+12 -717418000000.0 -929066000000.0 -794159000000.0 -868954000000.0 -697681000000.0 -712445000000.0 -698572000000.0 -422672000000.0 -631597000000.0 -226911000000.0 -402279000000.0 -521649000000.0 -128657000000.0 -257457000000.0 -450722000000.0 -330371000000.0 -749478000000.0 -822384000000.0 -881843000000.0 -931271000000.0 -973557000000.0 -1.01164e+12 -1.05e+12 -1.08639e+12 -1.12196e+12 -1.15671e+12 -1.18964e+12 -1.22202e+12 -1.25496e+12 -1.28591e+12 -1.31284e+12 -1.33426e+12 -1.34905e+12 -1.35859e+12 -1.36395e+12 -1.36733e+12 -1.37158e+12 -1.37858e+12 -1.38844e+12 -1.39943e+12 -1.40746e+12 -1.408e+12 -1.40049e+12 -1.38666e+12 -1.36902e+12 -1.35044e+12 -1.33291e+12 -1.3154e+12 -1.342e+12 -1.3211e+12 -1.29959e+12 -1.27782e+12 -1.25618e+12 -1.23473e+12 -1.21353e+12 -1.19252e+12 -1.17113e+12 -1.14904e+12 -1.12574e+12 -1.1005e+12 -1.07296e+12 -1.04174e+12 -1.00357e+12 -954120000000.0 -881801000000.0 -869059000000.0 -773154000000.0 -387439000000.0 -990909000000.0 -425821000000.0 -545763000000.0 -708533000000.0 -608928000000.0 -643295000000.0 -473673000000.0 -512382000000.0 -490627000000.0 -309870000000.0 -126386000000.0 -190093000000.0 -188245000000.0 -69680200000.0 -140344000000.0 -298130000000.0 -270825000000.0 -265666000000.0 -421835000000.0 -504467000000.0 -590585000000.0 -586379000000.0 -648178000000.0 -699974000000.0 -746217000000.0 -783321000000.0 -822364000000.0 -865893000000.0 -908644000000.0 -949503000000.0 -986870000000.0 -1.02068e+12 -1.0587e+12 -1.09897e+12 -1.13592e+12 -1.16587e+12 -1.18546e+12 -1.19833e+12 -1.2062e+12 -1.20936e+12 -1.21169e+12 -1.21838e+12 -1.23218e+12 -1.25205e+12 -1.27145e+12 -1.29725e+12 -1.27812e+12 -1.25784e+12 -1.23633e+12 -1.21357e+12 -1.18968e+12 -1.16483e+12 -1.13922e+12 -1.1131e+12 -1.08694e+12 -1.06113e+12 -1.03584e+12 -1.01125e+12 -987201000000.0 -963263000000.0 -938831000000.0 -912909000000.0 -885991000000.0 -854935000000.0 -821207000000.0 -783969000000.0 -733951000000.0 -736808000000.0 -625053000000.0 -378401000000.0 -420583000000.0 -433128000000.0 -533459000000.0 -443197000000.0 -436979000000.0 -367065000000.0 -335483000000.0 -330196000000.0 -64871900000.0 -143031000000.0 -164769000000.0 -302314000000.0 -226234000000.0 -322952000000.0 -377067000000.0 -449301000000.0 -422911000000.0 -466627000000.0 -522109000000.0 -551951000000.0 -587141000000.0 -629621000000.0 -686865000000.0 -737993000000.0 -1.28284e+12 -1.27995e+12 -1.26582e+12 -1.24457e+12 -1.22135e+12 -1.20177e+12 -1.18277e+12 -1.163e+12 -1.14186e+12 -1.11906e+12 -1.09456e+12 -1.06841e+12 -1.04071e+12 -1.01171e+12 -981718000000.0 -951046000000.0 -920086000000.0 -889379000000.0 -859357000000.0 -830389000000.0 -802774000000.0 -776192000000.0 -750020000000.0 -724181000000.0 -698314000000.0 -668878000000.0 -633851000000.0 -603926000000.0 -576140000000.0 -593101000000.0 -493415000000.0 -368412000000.0 -728122000000.0 -423698000000.0 -329310000000.0 -344988000000.0 -404750000000.0 -293786000000.0 -268464000000.0 -97412400000.0 -79774600000.0 -17662900000.0 -42239000000.0 -51237200000.0 -195694000000.0 -205464000000.0 -154536000000.0 -205005000000.0 -231378000000.0 -302820000000.0 -782386000000.0 -814329000000.0 -850959000000.0 -899453000000.0 -952939000000.0 -997488000000.0 -1.02215e+12 -1.03795e+12 -1.04819e+12 -1.05354e+12 -1.05146e+12 -1.05084e+12 -1.06278e+12 -1.09291e+12 -1.12861e+12 -1.15603e+12 -1.16788e+12 -1.15452e+12 -1.12705e+12 -1.09379e+12 -1.07192e+12 -1.0519e+12 -1.03113e+12 -1.00854e+12 -983688000000.0 -956475000000.0 -927012000000.0 -895507000000.0 -862238000000.0 -827583000000.0 -497351000000.0 -308656000000.0 -353246000000.0 -232419000000.0 -254043000000.0 -113772000000.0 -255433000000.0 -189142000000.0 -65279100000.0 -74579600000.0 -75495800000.0 -267760000000.0 -325230000000.0 -324159000000.0 -347487000000.0 -383085000000.0 -432992000000.0 -523059000000.0 -584107000000.0 -606000000000.0 -636706000000.0 -677485000000.0 -750136000000.0 -833069000000.0 -862392000000.0 -879293000000.0 -890934000000.0 -898145000000.0 -899778000000.0 -883684000000.0 -874653000000.0 -910718000000.0 -972823000000.0 -1.02418e+12 -1.05508e+12 -1.06695e+12 -1.02566e+12 -965994000000.0 -942002000000.0 -921925000000.0 -901188000000.0 -878043000000.0 -791992000000.0 -755907000000.0 -719870000000.0 -684497000000.0 -650310000000.0 -617893000000.0 -587681000000.0 -559496000000.0 -533056000000.0 -508230000000.0 -480796000000.0 -448597000000.0 -404279000000.0 -408862000000.0 -433772000000.0 -368984000000.0 -307202000000.0 -277133000000.0 -197597000000.0 -213612000000.0 -220804000000.0 -225949000000.0 -83777200000.0 -85736300000.0 -82363400000.0 -64120600000.0 -60189100000.0 -70982300000.0 -79746600000.0 -161590000000.0 -165549000000.0 -98298800000.0 -103820000000.0 -127448000000.0 -166349000000.0 -225341000000.0 -434507000000.0 -402926000000.0 -418805000000.0 -445953000000.0 -490791000000.0 -656528000000.0 -715911000000.0 -722915000000.0 -732949000000.0 -742457000000.0 -747732000000.0 -745098000000.0 -673860000000.0 -684792000000.0 -783768000000.0 -882902000000.0 -935502000000.0 -851813000000.0 -822348000000.0 -789802000000.0 -754508000000.0 -716871000000.0 -677338000000.0 -636441000000.0 -594771000000.0 -552923000000.0 -511589000000.0 -471497000000.0 -433339000000.0 -397936000000.0 -365945000000.0 -337494000000.0 -312587000000.0 -290873000000.0 -265744000000.0 -239841000000.0 -245917000000.0 -261160000000.0 -233766000000.0 -211905000000.0 -75268900000.0 -78016600000.0 -81149400000.0 -86815900000.0 -79577900000.0 -122942000000.0 -179219000000.0 -972801000000.0 -993092000000.0 -828821000000.0 -807410000000.0 -790495000000.0 -772094000000.0 -749994000000.0 -723475000000.0 -692460000000.0 -657218000000.0 -618234000000.0 -576107000000.0 -531451000000.0 -484897000000.0 -437143000000.0 -388919000000.0 -340982000000.0 -294192000000.0 -249429000000.0 -207627000000.0 -169925000000.0 -137440000000.0 -111250000000.0 -93118900000.0 -85896600000.0 -83355200000.0 -83704900000.0 -86000000000.0 -81156800000.0 -80275400000.0 -88408800000.0 -71721600000.0 -202951000000.0 -191019000000.0 -130499000000.0 -101831000000.0 -148574000000.0 -199082000000.0 -252987000000.0 -309915000000.0 -371334000000.0 -403840000000.0 -381296000000.0 -313666000000.0 -235983000000.0 -165255000000.0 -101549000000.0 
SCALARS Shear_Stress float 1
LOOKUP_TABLE default
47971100000.0 42392500000.0 30251700000.0 34697600000.0 40535700000.0 51517600000.0 53689600000.0 35116600000.0 48669400000.0 41120900000.0 41808100000.0 15946100000.0 9198340000.0 60294100000.0 10382900000.0 33821900000.0 14803100000.0 23627600000.0 35282300000.0 32121900000.0 33753100000.0 30219300000.0 33756500000.0 101919000000.0 125386000000.0 147128000000.0 115787000000.0 90304500000.0 43020200000.0 56271300000.0 49523900000.0 115087000000.0 5689800000.0 62966100000.0 84364300000.0 39511800000.0 56025100000.0 20317900000.0 74085000000.0 92684700000.0 95020600000.0 78405600000.0 87749500000.0 165671000000.0 180794000000.0 107896000000.0 107541000000.0 133022000000.0 114776000000.0 16267200000.0 56903400000.0 101599000000.0 111480000000.0 147740000000.0 83643000000.0 33396700000.0 99943100000.0 160140000000.0 157051000000.0 191692000000.0 119326000000.0 127268000000.0 2367540000.0 68357500000.0 116406000000.0 167608000000.0 158238000000.0 227877000000.0 226382000000.0 219118000000.0 181255000000.0 174573000000.0 57475200000.0 12751700000.0 111312000000.0 163801000000.0 111449000000.0 128706000000.0 220832000000.0 186678000000.0 69510100000.0 205414000000.0 67182900000.0 29264500000.0 106478000000.0 99555300000.0 149732000000.0 126712000000.0 178072000000.0 226794000000.0 178326000000.0 199153000000.0 129758000000.0 22909900000.0 185724000000.0 253608000000.0 205085000000.0 170313000000.0 200432000000.0 193209000000.0 260269000000.0 271590000000.0 308044000000.0 118416000000.0 188558000000.0 53713300000.0 159836000000.0 177856000000.0 193099000000.0 221151000000.0 211444000000.0 198992000000.0 194668000000.0 105737000000.0 21719700000.0 284130000000.0 298680000000.0 82148500000.0 172662000000.0 240441000000.0 215092000000.0 216597000000.0 227139000000.0 233978000000.0 199911000000.0 207660000000.0 177911000000.0 109921000000.0 8226920000.0 227838000000.0 257703000000.0 41486100000.0 107020000000.0 357557000000.0 272574000000.0 338178000000.0 280371000000.0 299287000000.0 251214000000.0 264571000000.0 241027000000.0 252901000000.0 243773000000.0 246099000000.0 226625000000.0 224411000000.0 213491000000.0 221086000000.0 210693000000.0 204359000000.0 173044000000.0 175643000000.0 127622000000.0 180671000000.0 150701000000.0 34905800000.0 394945000.0 204117000000.0 427795000000.0 324738000000.0 580206000000.0 563077000000.0 583276000000.0 366936000000.0 380418000000.0 355112000000.0 300921000000.0 264685000000.0 255344000000.0 242261000000.0 229562000000.0 218967000000.0 194473000000.0 183660000000.0 303854000000.0 536539000000.0 563449000000.0 295501000000.0 454262000000.0 405680000000.0 348166000000.0 283245000000.0 259219000000.0 252844000000.0 239993000000.0 227233000000.0 203417000000.0 178629000000.0 192777000000.0 265359000000.0 170861000000.0 525750000000.0 395563000000.0 411532000000.0 446668000000.0 472323000000.0 404732000000.0 354771000000.0 314476000000.0 266609000000.0 261100000000.0 243313000000.0 252809000000.0 247284000000.0 248693000000.0 242749000000.0 235863000000.0 219391000000.0 210629000000.0 175407000000.0 174373000000.0 127270000000.0 147583000000.0 50429600000.0 48389500000.0 324844000000.0 230790000000.0 298375000000.0 227676000000.0 365525000000.0 217806000000.0 320624000000.0 485091000000.0 399226000000.0 556223000000.0 399986000000.0 291233000000.0 226530000000.0 232120000000.0 241525000000.0 228524000000.0 183243000000.0 120017000000.0 46104900000.0 62253000000.0 70500900000.0 99508700000.0 142696000000.0 675176000000.0 439150000000.0 321308000000.0 210035000000.0 202313000000.0 225280000000.0 230992000000.0 195832000000.0 123732000000.0 42335000000.0 49794100000.0 370935000000.0 352725000000.0 21255100000.0 36768700000.0 62223200000.0 425562000000.0 347564000000.0 257446000000.0 236282000000.0 103677000000.0 157714000000.0 134899000000.0 190444000000.0 183581000000.0 218111000000.0 203712000000.0 206793000000.0 156771000000.0 137702000000.0 53451500000.0 43353100000.0 45162700000.0 45503700000.0 122260000000.0 127344000000.0 412065000000.0 481589000000.0 128462000000.0 230563000000.0 148008000000.0 288008000000.0 180727000000.0 228430000000.0 56377900000.0 287191000000.0 196006000000.0 164720000000.0 52347300000.0 125442000000.0 175361000000.0 171009000000.0 75263300000.0 43504000000.0 123033000000.0 169942000000.0 288230000000.0 349189000000.0 408001000000.0 22799100000.0 194462000000.0 269947000000.0 109037000000.0 79852800000.0 42103100000.0 116606000000.0 160019000000.0 101365000000.0 33178400000.0 130205000000.0 185851000000.0 173939000000.0 190035000000.0 444072000000.0 586891000000.0 387201000000.0 382518000000.0 475461000000.0 454953000000.0 200064000000.0 123713000000.0 360514000000.0 45499200000.0 395182000000.0 82490800000.0 96111500000.0 27933700000.0 23259300000.0 110761000000.0 97716900000.0 120668000000.0 22079000000.0 6686010000.0 143194000000.0 140318000000.0 211219000000.0 200076000000.0 458880000000.0 645721000000.0 458783000000.0 533360000000.0 460079000000.0 296274000000.0 27640800000.0 234590000000.0 460677000000.0 305300000000.0 94525100000.0 23618800000.0 49779000000.0 121134000000.0 251312000000.0 224413000000.0 176724000000.0 399602000000.0 529333000000.0 549559000000.0 31886100000.0 172240000000.0 411081000000.0 416261000000.0 253393000000.0 665246000000.0 429041000000.0 245913000000.0 83922800000.0 8182690000.0 110361000000.0 295905000000.0 376139000000.0 276646000000.0 196835000000.0 181155000000.0 122901000000.0 449941000000.0 652056000000.0 332495000000.0 424802000000.0 437751000000.0 618635000000.0 758099000000.0 457903000000.0 368431000000.0 259604000000.0 352296000000.0 299811000000.0 197167000000.0 159458000000.0 81964300000.0 131290000000.0 67166000000.0 401850000000.0 307033000000.0 550669000000.0 229029000000.0 107724000000.0 418278000000.0 621594000000.0 305617000000.0 431772000000.0 828598000000.0 133257000000.0 197862000000.0 97102200000.0 285911000000.0 217513000000.0 138145000000.0 325785000000.0 769793000000.0 275649000000.0 89884400000.0 37119600000.0 228764000000.0 170139000000.0 245236000000.0 125596000000.0 368887000000.0 151993000000.0 216831000000.0 71834000000.0 70791700000.0 24522800000.0 3907570000.0 163525000000.0 135575000000.0 213293000000.0 137665000000.0 144622000000.0 179544000000.0 814216000000.0 190707000000.0 315924000000.0 14212500000.0 58787700000.0 55121700000.0 1867140000.0 58412800000.0 373878000000.0 580755000000.0 134222000000.0 84119500000.0 22470500000.0 794724000000.0 245486000000.0 107050000000.0 13509400000.0 74525800000.0 24312900000.0 48934000000.0 192753000000.0 531835000000.0 40953100000.0 176406000000.0 135151000000.0 112358000000.0 331358000000.0 551289000000.0 76598900000.0 3129760000.0 545737000.0 659276000000.0 232548000000.0 113939000000.0 18497900000.0 29294700000.0 128156000000.0 726220000000.0 393421000000.0 238000000000.0 249198000000.0 180212000000.0 139455000000.0 543753000000.0 75721100000.0 43716600000.0 24612100000.0 22329600000.0 9594890000.0 51561300000.0 204773000000.0 327644000000.0 421703000000.0 319870000000.0 216862000000.0 208142000000.0 117420000000.0 162840000000.0 99596800000.0 261141000000.0 239406000000.0 886674000000.0 267899000000.0 269676000000.0 272504000000.0 312664000000.0 309938000000.0 259481000000.0 248558000000.0 192869000000.0 189072000000.0 304118000000.0 57338300000.0 37739200000.0 57770300000.0 89185600000.0 304205000000.0 276095000000.0 220195000000.0 265043000000.0 635537000000.0 889492000000.0 437699000000.0 350041000000.0 178425000000.0 289314000000.0 286336000000.0 227620000000.0 300810000000.0 557710000000.0 51973200000.0 56634700000.0 43574700000.0 51344000000.0 191826000000.0 223733000000.0 282121000000.0 273271000000.0 264843000000.0 280795000000.0 271348000000.0 450230000000.0 535013000000.0 168114000000.0 126892000000.0 98573500000.0 195733000000.0 218237000000.0 279728000000.0 254038000000.0 254183000000.0 216338000000.0 200107000000.0 324496000000.0 585394000000.0 65686600000.0 71251900000.0 61752200000.0 71333100000.0 65129600000.0 32925700000.0 130564000000.0 239921000000.0 278621000000.0 319987000000.0 362079000000.0 397380000000.0 480858000000.0 266732000000.0 60630400000.0 128495000000.0 218152000000.0 216503000000.0 174051000000.0 83273000000.0 78718500000.0 62372800000.0 36721500000.0 176080000000.0 253658000000.0 294573000000.0 339650000000.0 339720000000.0 344524000000.0 170429000000.0 100787000000.0 36583000000.0 57821800000.0 155518000000.0 195741000000.0 170054000000.0 373213000000.0 618135000000.0 100873000000.0 89051300000.0 90235700000.0 77396400000.0 58956500000.0 25775500000.0 29899300000.0 100326000000.0 146850000000.0 206984000000.0 229509000000.0 267230000000.0 273092000000.0 302197000000.0 308342000000.0 218761000000.0 58985700000.0 42094900000.0 89444500000.0 112677000000.0 157415000000.0 130810000000.0 154577000000.0 100720000000.0 118428000000.0 441478000000.0 651171000000.0 103382000000.0 80723800000.0 22146400000.0 83395900000.0 181414000000.0 242428000000.0 260237000000.0 280977000000.0 224034000000.0 227886000000.0 121479000000.0 94428900000.0 17902400000.0 71248100000.0 105923000000.0 80605400000.0 42255700000.0 682955000000.0 115941000000.0 114796000000.0 98682400000.0 83672800000.0 57277600000.0 21314200000.0 25432500000.0 127189000000.0 205154000000.0 240833000000.0 221691000000.0 138562000000.0 19138000000.0 12460900000.0 14911400000.0 31968000000.0 62502900000.0 85611600000.0 60638200000.0 65048300000.0 472208000.0 17435700000.0 45766100000.0 522365000000.0 128515000000.0 105607000000.0 57581000000.0 21360300000.0 72244600000.0 112832000000.0 161099000000.0 184573000000.0 216535000000.0 213771000000.0 220568000000.0 180851000000.0 157663000000.0 72347200000.0 37655400000.0 54126900000.0 13625500000.0 65917900000.0 3835860000.0 73204400000.0 608153000000.0 713396000000.0 124296000000.0 87053700000.0 22533300000.0 63812900000.0 145605000000.0 197008000000.0 196836000000.0 124037000000.0 31274800000.0 64755000000.0 155921000000.0 80742500000.0 52391500000.0 12488000000.0 87108500000.0 135926000000.0 742920000000.0 139341000000.0 132750000000.0 111910000000.0 91042300000.0 59510200000.0 25106300000.0 17168900000.0 57045500000.0 102114000000.0 134708000000.0 169942000000.0 186204000000.0 198878000000.0 168109000000.0 53557700000.0 156400000000.0 215639000000.0 31259000000.0 18729300000.0 41194900000.0 53580500000.0 81664300000.0 172727000000.0 162529000000.0 214030000000.0 689640000000.0 149213000000.0 118068000000.0 62562600000.0 12968500000.0 94311400000.0 161315000000.0 196102000000.0 192454000000.0 181959000000.0 132082000000.0 95205600000.0 27867000000.0 118795000000.0 319375000000.0 154040000000.0 17478800000.0 164026000000.0 233171000000.0 755726000000.0 772101000000.0 158826000000.0 140784000000.0 124302000000.0 95538300000.0 66218100000.0 28382100000.0 9094670000.0 51658900000.0 88959600000.0 127767000000.0 182805000000.0 202862000000.0 173647000000.0 67097000000.0 218922000000.0 553659000000.0 789612000000.0 129646000000.0 94422900000.0 133080000000.0 210516000000.0 232893000000.0 255298000000.0 260205000000.0 797946000000.0 9035750000.0 801589000000.0 148862000000.0 100330000000.0 31761900000.0 47668300000.0 123913000000.0 157332000000.0 183835000000.0 201186000000.0 219488000000.0 211200000000.0 227273000000.0 176286000000.0 64253600000.0 343042000000.0 665673000000.0 147101000000.0 213691000000.0 261278000000.0 832182000000.0 168845000000.0 157421000000.0 130714000000.0 105191000000.0 69987700000.0 5967570000.0 85789600000.0 156336000000.0 208812000000.0 241514000000.0 258492000000.0 202143000000.0 267259000000.0 116580000000.0 320937000000.0 211119000000.0 311948000000.0 185924000000.0 112617000000.0 212387000000.0 225862000000.0 817748000000.0 180043000000.0 137412000000.0 73446300000.0 34700800000.0 4061730000.0 45288700000.0 84893200000.0 122537000000.0 157380000000.0 186562000000.0 215110000000.0 234201000000.0 271370000000.0 312270000000.0 394139000000.0 362115000000.0 901821000000.0 1.1772e+12 93904400000.0 148095000000.0 92734100000.0 127458000000.0 827858000000.0 9035750000.0 864989000000.0 193495000000.0 167029000000.0 109945000000.0 36700400000.0 44967900000.0 123760000000.0 189856000000.0 242211000000.0 261848000000.0 292557000000.0 312239000000.0 362813000000.0 391832000000.0 436447000000.0 448395000000.0 305292000000.0 286699000000.0 373256000000.0 811308000000.0 73389000000.0 181288000000.0 901662000000.0 178538000000.0 144571000000.0 114453000000.0 76227700000.0 37266200000.0 3916380000.0 47379000000.0 86861700000.0 128617000000.0 160897000000.0 219125000000.0 267062000000.0 323836000000.0 394614000000.0 372177000000.0 181016000000.0 620789000000.0 463515000000.0 196649000000.0 48764100000.0 160928000000.0 846810000000.0 210801000000.0 152371000000.0 77950300000.0 6165620000.0 92685500000.0 168868000000.0 194948000000.0 223641000000.0 243315000000.0 258522000000.0 286416000000.0 291162000000.0 341209000000.0 369538000000.0 242876000000.0 284111000000.0 431862000000.0 560163000000.0 392710000000.0 30932100000.0 891305000000.0 9035750000.0 944662000000.0 234283000000.0 193230000000.0 160631000000.0 118489000000.0 78074400000.0 35809600000.0 11622600000.0 53374700000.0 138699000000.0 205631000000.0 242965000000.0 257176000000.0 270026000000.0 325716000000.0 286423000000.0 304528000000.0 254287000000.0 204428000000.0 280079000000.0 416522000000.0 131052000000.0 126955000000.0 194210000000.0 968751000000.0 997467000000.0 212973000000.0 121480000000.0 31486000000.0 64016400000.0 103567000000.0 155636000000.0 183894000000.0 226076000000.0 235806000000.0 254690000000.0 246042000000.0 229617000000.0 226466000000.0 277700000000.0 247312000000.0 351049000000.0 358001000000.0 341945000000.0 9644370000.0 293013000000.0 1.06392e+12 267126000000.0 240073000000.0 167663000000.0 121957000000.0 75753700000.0 23438000000.0 21302600000.0 120727000000.0 208053000000.0 262250000000.0 256262000000.0 223127000000.0 163695000000.0 172139000000.0 96753900000.0 194837000000.0 258968000000.0 286900000000.0 250534000000.0 270670000000.0 296976000000.0 400733000000.0 280175000000.0 404766000000.0 1.068e+12 313923000000.0 168350000000.0 70194500000.0 36432300000.0 80412600000.0 145789000000.0 180861000000.0 242657000000.0 258729000000.0 288938000000.0 234947000000.0 57251700000.0 43289700000.0 304660000000.0 194808000000.0 358773000000.0 679320000000.0 165050000000.0 459534000000.0 1.13052e+12 1.14683e+12 384979000000.0 279271000000.0 152368000000.0 116344000000.0 58098300000.0 9887570000.0 104656000000.0 215449000000.0 303889000000.0 305135000000.0 345476000000.0 303660000000.0 307146000000.0 188004000000.0 116360000000.0 111471000000.0 195464000000.0 158777000000.0 52732300000.0 195114000000.0 305186000000.0 485489000000.0 460768000000.0 399302000000.0 1.12058e+12 1.24763e+12 344042000000.0 93393100000.0 9812080000.0 59118500000.0 132400000000.0 178499000000.0 259207000000.0 287983000000.0 362904000000.0 379188000000.0 306492000000.0 21095000000.0 363148000000.0 458917000000.0 229441000000.0 17974100000.0 88920500000.0 1.13039e+12 670773000000.0 245049000000.0 1.37104e+12 487825000000.0 458568000000.0 96589000000.0 49060300000.0 40830100000.0 76655800000.0 216994000000.0 348947000000.0 362650000000.0 432168000000.0 416188000000.0 463128000000.0 410071000000.0 318215000000.0 141045000000.0 56664900000.0 68303200000.0 149804000000.0 195107000000.0 1.26382e+12 737543000000.0 245283000000.0 200775000000.0 1.12809e+12 1.54647e+12 591510000000.0 54742900000.0 55232700000.0 9747390000.0 71301400000.0 157258000000.0 283031000000.0 322896000000.0 435553000000.0 491299000000.0 507676000000.0 447803000000.0 504784000000.0 365690000000.0 592644000000.0 133329000000.0 890734000000.0 208322000000.0 348405000000.0 272451000000.0 354626000000.0 1.24771e+12 591907000000.0 643416000000.0 375988000000.0 32526000000.0 207836000000.0 53116200000.0 224496000000.0 418178000000.0 430310000000.0 518645000000.0 507761000000.0 540034000000.0 556116000000.0 624780000000.0 488764000000.0 1.46161e+12 1.07402e+12 386911000000.0 399462000000.0 873363000000.0 808661000000.0 706701000000.0 477379000000.0 1.50326e+12 1.49284e+12 1.12147e+12 387099000000.0 23385600000.0 138652000000.0 374027000000.0 399841000000.0 527795000000.0 581793000000.0 562357000000.0 601496000000.0 581824000000.0 622444000000.0 623223000000.0 622768000000.0 600309000000.0 378203000000.0 443713000000.0 875223000000.0 863099000000.0 789960000000.0 636971000000.0 337224000000.0 686721000000.0 982665000000.0 1.77942e+12 272379000000.0 793717000000.0 89980700000.0 276946000000.0 83462500000.0 336942000000.0 554457000000.0 538403000000.0 627362000000.0 602136000000.0 621630000000.0 628977000000.0 626365000000.0 493560000000.0 468612000000.0 755332000000.0 802363000000.0 427339000000.0 555413000000.0 767061000000.0 1.62731e+12 1.92839e+12 1.20272e+12 236612000000.0 1.13081e+12 690086000000.0 280727000000.0 302593000000.0 613261000000.0 578395000000.0 660938000000.0 673673000000.0 644467000000.0 660575000000.0 642963000000.0 631761000000.0 553898000000.0 418907000000.0 550074000000.0 827184000000.0 867549000000.0 677458000000.0 396044000000.0 75685100000.0 533952000000.0 1.48041e+12 867460000000.0 1.62752e+12 77565100000.0 90412200000.0 192843000000.0 323867000000.0 693986000000.0 510265000000.0 680903000000.0 763143000000.0 706163000000.0 767215000000.0 714573000000.0 685605000000.0 655451000000.0 643414000000.0 618051000000.0 589371000000.0 525492000000.0 472911000000.0 473439000000.0 758837000000.0 872215000000.0 755557000000.0 89457700000.0 1.10258e+12 277624000000.0 1.10162e+12 84438300000.0 180559000000.0 860054000000.0 601500000000.0 270423000000.0 64080300000.0 906415000000.0 817351000000.0 958480000000.0 840565000000.0 831978000000.0 779533000000.0 722728000000.0 696609000000.0 670292000000.0 632258000000.0 578172000000.0 487646000000.0 582083000000.0 712146000000.0 1.03535e+12 449138000000.0 177107000000.0 1.02602e+12 348083000000.0 942064000.0 437011000000.0 805827000000.0 419334000000.0 1.03566e+12 25826800000.0 570330000000.0 30100500000.0 675663000000.0 1.05295e+12 1.00554e+12 907574000000.0 848463000000.0 740607000000.0 646729000000.0 638774000000.0 601258000000.0 602589000000.0 586196000000.0 552730000000.0 570822000000.0 499787000000.0 531100000000.0 773856000000.0 1.05524e+12 957021000000.0 791838000000.0 1.18758e+12 714680000000.0 633511000000.0 890213000000.0 561945000000.0 354395000000.0 622219000000.0 784464000000.0 235217000000.0 124383000000.0 475894000000.0 824246000000.0 803190000000.0 1508730000.0 631896000000.0 913015000000.0 1.03001e+12 1.08768e+12 1.0299e+12 930595000000.0 898240000000.0 817117000000.0 674571000000.0 595440000000.0 574631000000.0 604890000000.0 622767000000.0 686875000000.0 501734000000.0 237044000000.0 723351000000.0 34744300000.0 567705000000.0 1.28491e+12 410047000000.0 359793000000.0 405430000000.0 373260000000.0 131703000000.0 1.02798e+12 326157000000.0 726892000000.0 70450400000.0 263898000000.0 676829000000.0 109785000000.0 214922000000.0 160302000000.0 291961000000.0 795635000000.0 1.13722e+12 1.12046e+12 999318000000.0 831718000000.0 723722000000.0 627399000000.0 593310000000.0 533003000000.0 547351000000.0 577705000000.0 627405000000.0 674712000000.0 750830000000.0 771111000000.0 626520000000.0 217848000000.0 102956000000.0 328323000000.0 21923700000.0 150910000000.0 2.07448e+12 183864000000.0 369315000000.0 56959300000.0 34314600000.0 364714000000.0 790669000000.0 583932000000.0 504323000000.0 67021100000.0 2437030000.0 580301000000.0 469778000000.0 202675000000.0 407035000000.0 98348300000.0 708366000000.0 149758000000.0 467123000000.0 762085000000.0 995833000000.0 1.17255e+12 1.11129e+12 1.0224e+12 913005000000.0 672748000000.0 522840000000.0 471708000000.0 520144000000.0 525854000000.0 731772000000.0 834609000000.0 1.08354e+12 604627000000.0 1.05434e+12 237048000000.0 1.03288e+12 454977000000.0 292243000000.0 327347000000.0 127253000000.0 343734000000.0 394141000000.0 9033070000.0 30125100000.0 25873900000.0 1.15961e+12 505763000000.0 439163000000.0 438580000000.0 183162000000.0 489907000000.0 286076000000.0 892162000000.0 909701000000.0 789679000000.0 701767000000.0 222364000000.0 420204000000.0 941637000000.0 1.12131e+12 1.14869e+12 882335000000.0 846802000000.0 575581000000.0 578564000000.0 465760000000.0 477698000000.0 431183000000.0 569768000000.0 693537000000.0 746897000000.0 722070000000.0 805423000000.0 211228000000.0 499482000000.0 604097000000.0 473394000000.0 1.55727e+12 692481000000.0 623950000000.0 210929000000.0 268223000000.0 205295000000.0 590324000000.0 275502000000.0 352311000000.0 289429000000.0 454856000000.0 403085000000.0 177797000000.0 107565000000.0 188440000000.0 299464000000.0 291448000000.0 282489000000.0 268775000000.0 196829000000.0 15516900000.0 417356000000.0 165214000000.0 151210000000.0 356158000000.0 609948000000.0 1.08181e+12 1.16182e+12 976297000000.0 930474000000.0 548978000000.0 516550000000.0 387274000000.0 297332000000.0 422479000000.0 437801000000.0 444383000000.0 1.21296e+12 93539300000.0 66636400000.0 711342000000.0 511229000000.0 371917000000.0 567842000000.0 23146400000.0 482702000000.0 188084000000.0 473489000000.0 36026000000.0 259345000000.0 13495300000.0 156466000000.0 206952000000.0 782289000000.0 363851000000.0 306215000000.0 225985000000.0 193239000000.0 325384000000.0 641266000000.0 1.15034e+12 554255000000.0 76622400000.0 94630700000.0 251663000000.0 43920300000.0 178979000000.0 203709000000.0 454213000000.0 762169000000.0 1.1207e+12 1.15015e+12 812909000000.0 788918000000.0 363966000000.0 402028000000.0 417854000000.0 185249000000.0 719679000000.0 70294800000.0 82688000000.0 513485000000.0 288984000000.0 558851000000.0 573752000000.0 504687000000.0 417172000000.0 329036000000.0 178949000000.0 196218000000.0 350577000000.0 650128000000.0 205059000000.0 575564000000.0 153754000000.0 767744000000.0 320925000000.0 737665000000.0 79783600000.0 356624000000.0 230215000000.0 319370000000.0 317856000000.0 355462000000.0 464552000000.0 283436000000.0 225161000000.0 717584000000.0 141349000000.0 41817800000.0 267938000000.0 225060000000.0 38056400000.0 176750000000.0 512191000000.0 813944000000.0 1.32663e+12 533965000000.0 1.29501e+12 191968000000.0 565795000000.0 353744000000.0 724578000000.0 365408000000.0 351220000000.0 483032000000.0 40248000000.0 91305300000.0 329220000000.0 956632000000.0 1.18217e+12 329721000000.0 453375000000.0 473324000000.0 427652000000.0 422625000000.0 308053000000.0 199736000000.0 46028300000.0 455716000000.0 505807000000.0 282537000000.0 35636900000.0 490126000000.0 1.04291e+12 30733700000.0 34753200000.0 665216000000.0 862580000000.0 190604000000.0 114773000000.0 238273000000.0 144285000000.0 473781000000.0 436094000000.0 443517000000.0 411420000000.0 693421000000.0 106935000000.0 1.14057e+12 731243000000.0 455998000000.0 394461000000.0 381559000000.0 281367000000.0 95134300000.0 132718000000.0 347596000000.0 559268000000.0 1.0015e+12 565603000000.0 1.77772e+12 33956300000.0 1.32928e+12 953246000000.0 483126000000.0 382169000000.0 504591000000.0 126726000000.0 214626000000.0 1.51643e+12 937978000000.0 716839000000.0 423113000000.0 373152000000.0 292484000000.0 175112000000.0 102739000000.0 21496600000.0 150236000000.0 604073000000.0 62385700000.0 117186000000.0 308550000000.0 250022000000.0 315324000000.0 124325000000.0 649260000000.0 21863100000.0 162902000000.0 393582000000.0 212098000000.0 115585000000.0 301259000000.0 583335000000.0 636684000000.0 450921000000.0 131021000000.0 243320000000.0 229326000000.0 309458000000.0 350911000000.0 346789000000.0 212418000000.0 964058000000.0 471945000000.0 305172000000.0 12531600000.0 558344000000.0 765125000000.0 203228000000.0 995165000000.0 1.07154e+12 515663000000.0 1.14334e+12 6462950000.0 215172000000.0 110101000000.0 95673300000.0 316766000000.0 238839000000.0 151094000000.0 14984400000.0 23971700000.0 180153000000.0 352037000000.0 158822000000.0 65956300000.0 32793200000.0 264178000000.0 365122000000.0 197715000000.0 206355000000.0 519279000000.0 933635000000.0 766277000000.0 175757000000.0 629273000000.0 163375000000.0 276955000000.0 241146000000.0 295290000000.0 603688000000.0 426151000000.0 622531000000.0 894005000000.0 291364000000.0 295080000000.0 326282000000.0 16287500000.0 374461000000.0 435720000000.0 585822000000.0 912664000000.0 1.23164e+12 325740000000.0 437038000000.0 540307000000.0 1.25918e+12 111976000000.0 363399000000.0 1.50895e+12 519353000000.0 578200000000.0 451391000000.0 1.19183e+12 944216000000.0 423316000000.0 919599000000.0 817836000000.0 163827000000.0 147747000000.0 86085300000.0 8373000000.0 34804700000.0 144200000000.0 179766000000.0 325115000000.0 151777000000.0 350864000000.0 291278000000.0 521830000000.0 462998000000.0 61417800000.0 425056000000.0 333275000000.0 59752000000.0 699169000000.0 357018000000.0 244108000000.0 102925000000.0 263151000000.0 347390000000.0 460264000000.0 216593000000.0 72405900000.0 348999000000.0 787389000000.0 151719000000.0 481992000000.0 409957000000.0 944466000000.0 862191000000.0 325687000000.0 325725000000.0 249486000000.0 154223000000.0 104607000000.0 610786000000.0 516314000000.0 533443000000.0 930164000000.0 1.44182e+12 1.06894e+12 560388000000.0 1.21085e+12 187523000000.0 511318000000.0 104092000000.0 637992000000.0 697906000000.0 735085000000.0 383620000000.0 307200000000.0 945142000000.0 732817000000.0 802353000000.0 450697000000.0 273454000000.0 140504000000.0 11147900000.0 63191600000.0 131825000000.0 153187000000.0 209450000000.0 373865000000.0 551910000000.0 970841000000.0 1.26161e+12 12802900000.0 44094200000.0 4211290000.0 218728000000.0 274214000000.0 341713000000.0 362665000000.0 291259000000.0 12330600000.0 37585500000.0 106947000000.0 182343000000.0 564859000000.0 283344000000.0 44829500000.0 610331000000.0 1.01656e+12 2128970000.0 1.00606e+12 408536000000.0 73426200000.0 621809000000.0 327803000000.0 204848000000.0 183617000000.0 242624000000.0 115081000000.0 47062700000.0 268601000000.0 113759000000.0 40920500000.0 1.15383e+12 1.18304e+12 1.20245e+12 1.3909e+12 1.23616e+12 921734000000.0 401409000000.0 87222100000.0 595292000000.0 464029000000.0 275953000000.0 3099220000.0 882473000000.0 614395000000.0 564325000000.0 370831000000.0 222752000000.0 19390500000.0 65452100000.0 137612000000.0 170554000000.0 158343000000.0 157221000000.0 176279000000.0 71939800000.0 476455000000.0 313403000000.0 254481000000.0 50466900000.0 8809010000.0 260472000000.0 84720800000.0 163652000000.0 643054000000.0 350499000000.0 285462000000.0 346658000000.0 435303000000.0 448539000000.0 402365000000.0 92607500000.0 8434750000.0 91728700000.0 400341000000.0 402559000000.0 514769000000.0 256397000000.0 515651000000.0 413571000000.0 501003000000.0 30693500000.0 567378000000.0 80768500000.0 42127200000.0 245476000000.0 211563000000.0 193174000000.0 74239700000.0 42506800000.0 34534200000.0 183298000000.0 678566000000.0 746789000000.0 464634000000.0 226926000000.0 232804000000.0 170140000000.0 32469400000.0 441228000000.0 1.57654e+12 346997000000.0 765571000000.0 655960000000.0 500972000000.0 405116000000.0 269333000000.0 79493300000.0 34987700000.0 124738000000.0 182251000000.0 187230000000.0 202529000000.0 199295000000.0 124078000000.0 36482400000.0 162553000000.0 16196100000.0 93571700000.0 277484000000.0 284100000000.0 128650000000.0 750486000000.0 8916040000.0 101805000000.0 322594000000.0 469728000000.0 62080300000.0 117822000000.0 121806000000.0 160377000000.0 147889000000.0 209305000000.0 708509000000.0 438023000000.0 639094000000.0 90223400000.0 241383000000.0 113538000000.0 66825600000.0 215879000000.0 226812000000.0 56064000000.0 93588500000.0 206253000000.0 183411000000.0 134165000000.0 42975100000.0 31396700000.0 52658100000.0 23201100000.0 252111000000.0 634252000000.0 127554000000.0 11348900000.0 344776000000.0 762206000000.0 659965000000.0 530808000000.0 401496000000.0 133237000000.0 9127610000.0 96495200000.0 176960000000.0 217478000000.0 243889000000.0 250611000000.0 205852000000.0 135724000000.0 236364000000.0 196646000000.0 123789000000.0 33499200000.0 87492400000.0 437011000000.0 465752000000.0 391526000000.0 490177000000.0 92918900000.0 154565000000.0 481563000000.0 135250000000.0 277482000000.0 467157000000.0 45217800000.0 41126300000.0 51470600000.0 160516000000.0 188953000000.0 172877000000.0 181775000000.0 1.17852e+12 160396000000.0 62431900000.0 156933000000.0 275602000000.0 102390000000.0 194840000000.0 39076400000.0 227028000000.0 150579000000.0 168703000000.0 208897000000.0 170725000000.0 116277000000.0 50629300000.0 76388900000.0 20260600000.0 91796600000.0 323941000000.0 579276000000.0 678210000000.0 781362000000.0 760106000000.0 670090000000.0 570978000000.0 385695000000.0 103781000000.0 738569000000.0 1.16217e+12 498299000000.0 380282000000.0 528690000000.0 654400000000.0 545583000000.0 429609000000.0 295427000000.0 173552000000.0 51704700000.0 61078600000.0 159108000000.0 235951000000.0 279076000000.0 297897000000.0 279083000000.0 241545000000.0 298705000000.0 291197000000.0 257595000000.0 183109000000.0 157216000000.0 313947000000.0 363136000000.0 249661000000.0 287732000000.0 511986000000.0 376790000000.0 711746000000.0 246751000000.0 161496000000.0 322067000000.0 285036000000.0 374952000000.0 47890900000.0 32425200000.0 92433200000.0 109912000000.0 155957000000.0 32018600000.0 111009000000.0 481521000000.0 228208000000.0 207635000000.0 247821000000.0 266258000000.0 191434000000.0 271699000000.0 227912000000.0 223911000000.0 224164000000.0 186395000000.0 137628000000.0 99678200000.0 30352900000.0 178683000000.0 384546000000.0 595343000000.0 776176000000.0 852491000000.0 845207000000.0 713955000000.0 529459000000.0 226619000000.0 346171000000.0 646503000000.0 807929000000.0 565723000000.0 526707000000.0 561394000000.0 551886000000.0 317518000000.0 205504000000.0 90089900000.0 24765400000.0 131301000000.0 239458000000.0 302829000000.0 342764000000.0 351182000000.0 337074000000.0 359589000000.0 351403000000.0 327143000000.0 276157000000.0 245116000000.0 287869000000.0 314745000000.0 16419900000.0 492932000000.0 896693000000.0 1.20784e+12 321854000000.0 112430000000.0 141734000000.0 115337000000.0 344796000000.0 234274000000.0 131353000000.0 48304500000.0 10039300000.0 24352700000.0 31333500000.0 2134480000.0 82488300000.0 62347700000.0 238293000000.0 190913000000.0 50151000000.0 348667000000.0 323001000000.0 347072000000.0 302266000000.0 328390000000.0 291041000000.0 267091000000.0 242906000000.0 201982000000.0 161202000000.0 119495000000.0 59177900000.0 259944000000.0 451824000000.0 655295000000.0 797863000000.0 844233000000.0 780880000000.0 623315000000.0 408355000000.0 347536000000.0 464548000000.0 619444000000.0 676282000000.0 584236000000.0 550311000000.0 451265000000.0 346248000000.0 237525000000.0 124498000000.0 10772700000.0 225691000000.0 306677000000.0 369547000000.0 407417000000.0 425253000000.0 449126000000.0 439040000000.0 382751000000.0 333335000000.0 302579000000.0 316288000000.0 456859000000.0 44179700000.0 40037700000.0 200739000000.0 815032000000.0 340273000000.0 184716000000.0 149030000000.0 157368000000.0 128617000000.0 88073000000.0 367941000000.0 359016000000.0 200366000000.0 213856000000.0 303177000000.0 261044000000.0 296236000000.0 67855000000.0 35417000000.0 43310400000.0 88984200000.0 104841000000.0 261449000000.0 331987000000.0 314445000000.0 336443000000.0 391651000000.0 442968000000.0 416069000000.0 359448000000.0 374731000000.0 326701000000.0 293043000000.0 264977000000.0 222853000000.0 170592000000.0 103149000000.0 15925900000.0 102750000000.0 514719000000.0 675963000000.0 770938000000.0 767775000000.0 673473000000.0 521123000000.0 428854000000.0 436699000000.0 518688000000.0 596739000000.0 523453000000.0 465949000000.0 370881000000.0 267445000000.0 157882000000.0 45468700000.0 99105200000.0 200391000000.0 291872000000.0 370978000000.0 433194000000.0 482063000000.0 528173000000.0 548125000000.0 513646000000.0 382392000000.0 320108000000.0 318974000000.0 643712000000.0 392985000000.0 222717000000.0 70863000000.0 187894000000.0 265273000000.0 226208000000.0 178529000000.0 129836000000.0 96385900000.0 72102300000.0 336405000000.0 235334000000.0 306387000000.0 433561000000.0 427829000000.0 582790000000.0 161401000000.0 7180990000.0 54663300000.0 212507000000.0 265574000000.0 169370000000.0 285821000000.0 384009000000.0 444567000000.0 236449000000.0 461685000000.0 511138000000.0 540067000000.0 507245000000.0 453841000000.0 427431000000.0 391412000000.0 326341000000.0 281564000000.0 223403000000.0 152154000000.0 65116200000.0 42543900000.0 175045000000.0 335032000000.0 612302000000.0 562725000000.0 518595000000.0 464247000000.0 389137000000.0 293188000000.0 188298000000.0 64489000000.0 168508000000.0 264876000000.0 352016000000.0 427747000000.0 495756000000.0 561870000000.0 362858000000.0 185024000000.0 1.01158e+12 658879000000.0 337650000000.0 308784000000.0 90334400000.0 219216000000.0 66017000000.0 669702000000.0 311750000000.0 290676000000.0 151574000000.0 47277200000.0 67293200000.0 109741000000.0 289466000000.0 231397000000.0 182159000000.0 198632000000.0 239513000000.0 664483000000.0 1.08148e+12 460527000000.0 288043000000.0 477109000000.0 342092000000.0 419031000000.0 498007000000.0 446453000000.0 449243000000.0 575442000000.0 612558000000.0 626548000000.0 591360000000.0 535854000000.0 495024000000.0 443932000000.0 405280000000.0 365227000000.0 277172000000.0 205053000000.0 118653000000.0 16414800000.0 102726000000.0 240116000000.0 393810000000.0 545518000000.0 661728000000.0 707824000000.0 672990000000.0 579026000000.0 493778000000.0 461874000000.0 484401000000.0 534650000000.0 569389000000.0 562758000000.0 519527000000.0 465823000000.0 397877000000.0 313418000000.0 79343800000.0 29222300000.0 133444000000.0 231186000000.0 321122000000.0 401974000000.0 475466000000.0 618768000000.0 647308000000.0 599926000000.0 1.62388e+12 963819000000.0 608588000000.0 445314000000.0 336072000000.0 294256000000.0 109827000000.0 1.19772e+12 606552000000.0 88510900000.0 40675700000.0 696989000.0 93004200000.0 187298000000.0 219401000000.0 131787000000.0 183642000000.0 214282000000.0 203487000000.0 169484000000.0 151862000000.0 280761000000.0 376567000000.0 909575000000.0 283452000000.0 620883000000.0 441713000000.0 469168000000.0 522245000000.0 554391000000.0 582441000000.0 613070000000.0 684579000000.0 701964000000.0 697314000000.0 660782000000.0 595869000000.0 536612000000.0 488913000000.0 443219000000.0 391447000000.0 337177000000.0 174127000000.0 76996900000.0 33201900000.0 156479000000.0 290981000000.0 427874000000.0 547042000000.0 621705000000.0 634127000000.0 590838000000.0 529933000000.0 488226000000.0 481270000000.0 501738000000.0 527884000000.0 535177000000.0 512883000000.0 465736000000.0 403867000000.0 215367000000.0 111027000000.0 5334910000.0 97747800000.0 195366000000.0 285721000000.0 367325000000.0 545245000000.0 612703000000.0 675800000000.0 737550000000.0 798042000000.0 141642000000.0 824037000000.0 416321000000.0 426773000000.0 452144000000.0 437083000000.0 134379000000.0 1.09211e+12 449607000000.0 215826000000.0 44017700000.0 170969000000.0 199577000000.0 305303000000.0 268459000000.0 42416100000.0 136961000000.0 243185000000.0 215120000000.0 190828000000.0 155623000000.0 421599000000.0 435880000000.0 635620000000.0 887230000000.0 784534000000.0 526173000000.0 524834000000.0 602414000000.0 673230000000.0 713428000000.0 743202000000.0 776215000000.0 773239000000.0 749396000000.0 701588000000.0 636865000000.0 574505000000.0 517851000000.0 458290000000.0 396137000000.0 331731000000.0 258804000000.0 34369100000.0 78970100000.0 200437000000.0 324337000000.0 439154000000.0 527018000000.0 571063000000.0 568013000000.0 536235000000.0 502105000000.0 484146000000.0 486127000000.0 498501000000.0 505462000000.0 493909000000.0 459798000000.0 327405000000.0 237954000000.0 139725000000.0 38139100000.0 62539300000.0 159180000000.0 249410000000.0 439676000000.0 502538000000.0 551980000000.0 576385000000.0 555464000000.0 432855000000.0 184488000000.0 327834000000.0 808628000000.0 483869000000.0 447157000000.0 474912000000.0 510016000000.0 537097000000.0 776232000000.0 518657000000.0 182591000000.0 14607000000.0 51351100000.0 25888000000.0 355616000000.0 405371000000.0 385828000000.0 484544000000.0 31961000000.0 91622400000.0 337396000000.0 285761000000.0 346794000000.0 269150000000.0 285346000000.0 193689000000.0 342305000000.0 796588000000.0 387418000000.0 584790000000.0 1.08196e+12 412854000000.0 615522000000.0 730095000000.0 802289000000.0 830841000000.0 839440000000.0 839668000000.0 816839000000.0 777420000000.0 724679000000.0 659782000000.0 589740000000.0 523780000000.0 457563000000.0 387504000000.0 312892000000.0 230063000000.0 137560000000.0 231906000000.0 340919000000.0 433367000000.0 496201000000.0 522297000000.0 517841000000.0 499132000000.0 482436000000.0 475958000000.0 478102000000.0 480247000000.0 406058000000.0 337306000000.0 255748000000.0 164698000000.0 68386800000.0 28783100000.0 123389000000.0 212778000000.0 331330000000.0 403326000000.0 463559000000.0 507007000000.0 522489000000.0 492510000000.0 382688000000.0 63105100000.0 386117000000.0 743729000000.0 780321000000.0 579870000000.0 513251000000.0 489494000000.0 477645000000.0 151355000000.0 873224000000.0 504307000000.0 132132000000.0 13064800000.0 358663000000.0 603642000000.0 475794000000.0 562848000000.0 552077000000.0 540344000000.0 81911000000.0 108593000000.0 7991090000.0 46543500000.0 383032000000.0 416942000000.0 381430000000.0 415075000000.0 279714000000.0 344568000000.0 517784000000.0 700671000000.0 628203000000.0 39752500000.0 1.0018e+12 1.51026e+12 222398000000.0 568384000000.0 750950000000.0 870702000000.0 912363000000.0 910430000000.0 893357000000.0 869137000000.0 832358000000.0 785477000000.0 727295000000.0 659174000000.0 587195000000.0 516349000000.0 443684000000.0 366879000000.0 285586000000.0 196537000000.0 99157800000.0 6245190000.0 117904000000.0 472177000000.0 447078000000.0 403350000000.0 343023000000.0 269457000000.0 185713000000.0 95477000000.0 2709540000.0 88991000000.0 294788000000.0 367198000000.0 427575000000.0 471186000000.0 489600000000.0 472516000000.0 405930000000.0 258514000000.0 429464000000.0 677555000000.0 782421000000.0 749939000000.0 606312000000.0 501403000000.0 393629000000.0 21629200000.0 674414000000.0 864778000000.0 517663000000.0 97222600000.0 122258000000.0 765836000000.0 672608000000.0 717283000000.0 644635000000.0 666165000000.0 552977000000.0 115959000000.0 21130500000.0 412854000000.0 477270000000.0 578229000000.0 486532000000.0 549664000000.0 425961000000.0 474411000000.0 641171000000.0 517060000000.0 212010000000.0 507024000000.0 819044000000.0 1.38702e+12 730598000000.0 888996000000.0 949200000000.0 954982000000.0 933988000000.0 902387000000.0 866961000000.0 824298000000.0 772731000000.0 712438000000.0 644508000000.0 571340000000.0 496674000000.0 420048000000.0 339074000000.0 253103000000.0 160586000000.0 61881400000.0 41862800000.0 148039000000.0 251597000000.0 344700000000.0 417762000000.0 463417000000.0 481526000000.0 480303000000.0 471615000000.0 464467000000.0 461511000000.0 459376000000.0 451500000000.0 431558000000.0 395944000000.0 344461000000.0 279116000000.0 202891000000.0 119148000000.0 176723000000.0 258175000000.0 330927000000.0 392406000000.0 438732000000.0 464250000000.0 463026000000.0 430940000000.0 370693000000.0 468217000000.0 639504000000.0 749888000000.0 775348000000.0 727380000000.0 618465000000.0 502550000000.0 329872000000.0 659170000000.0 908029000000.0 909450000000.0 532865000000.0 1.42778e+12 953039000000.0 711785000000.0 618652000000.0 829746000000.0 781899000000.0 637333000000.0 533679000000.0 490731000000.0 99678100000.0 39679900000.0 428938000000.0 532384000000.0 513703000000.0 606211000000.0 676706000000.0 815396000000.0 624357000000.0 613827000000.0 530660000000.0 585247000000.0 533510000000.0 433099000000.0 653109000000.0 981439000000.0 42895100000.0 746868000000.0 882436000000.0 918361000000.0 923542000000.0 908021000000.0 878546000000.0 745698000000.0 685661000000.0 618124000000.0 544848000000.0 468759000000.0 389717000000.0 306158000000.0 218101000000.0 125131000000.0 27885700000.0 71708500000.0 170175000000.0 261994000000.0 340211000000.0 398277000000.0 433414000000.0 448556000000.0 450943000000.0 448214000000.0 444810000000.0 440711000000.0 432495000000.0 415459000000.0 385856000000.0 342145000000.0 284947000000.0 216374000000.0 31543300000.0 56445000000.0 141826000000.0 222118000000.0 294908000000.0 357809000000.0 407694000000.0 440815000000.0 454148000000.0 448190000000.0 433646000000.0 498504000000.0 619775000000.0 762976000000.0 704086000000.0 608452000000.0 502291000000.0 645720000000.0 840571000000.0 955097000000.0 1.17527e+12 1.18798e+12 1.62553e+12 1.01698e+12 384414000000.0 890584000000.0 761010000000.0 674493000000.0 575512000000.0 433554000000.0 64845200000.0 14169700000.0 48651400000.0 418563000000.0 429469000000.0 533625000000.0 635704000000.0 707220000000.0 676346000000.0 680632000000.0 1.12506e+12 1.5378e+12 619575000000.0 656676000000.0 658856000000.0 415441000000.0 572044000000.0 847759000000.0 35884500000.0 608574000000.0 773459000000.0 843873000000.0 842464000000.0 798255000000.0 354782000000.0 270760000000.0 182768000000.0 91241600000.0 2584340000.0 96158300000.0 185620000000.0 265805000000.0 331323000000.0 378531000000.0 407345000000.0 421367000000.0 425972000000.0 425633000000.0 422154000000.0 414439000000.0 399580000000.0 374523000000.0 337304000000.0 139436000000.0 57478400000.0 26142700000.0 108468000000.0 186997000000.0 259465000000.0 323516000000.0 376455000000.0 416232000000.0 441819000000.0 454730000000.0 721680000000.0 769917000000.0 599120000000.0 638736000000.0 727706000000.0 821409000000.0 960268000000.0 967059000000.0 805594000000.0 652562000000.0 392697000000.0 258148000000.0 942340000000.0 1.03265e+12 814127000000.0 521032000000.0 484545000000.0 372753000000.0 52144900000.0 42824800000.0 49212900000.0 385885000000.0 514298000000.0 619522000000.0 642466000000.0 739923000000.0 700224000000.0 578975000000.0 576634000000.0 392738000000.0 1.40815e+12 1.13918e+12 751563000000.0 588747000000.0 601207000000.0 811714000000.0 662645000000.0 182988000000.0 528310000000.0 867125000000.0 859774000000.0 837065000000.0 805120000000.0 762576000000.0 710174000000.0 650213000000.0 583706000000.0 511277000000.0 434718000000.0 29498300000.0 115897000000.0 195987000000.0 265473000000.0 320729000000.0 360136000000.0 384781000000.0 397828000000.0 402862000000.0 402253000000.0 396375000000.0 287565000000.0 226509000000.0 156509000000.0 80571700000.0 1821790000.0 76895300000.0 153066000000.0 224503000000.0 289128000000.0 344826000000.0 465572000000.0 519152000000.0 612566000000.0 702349000000.0 756794000000.0 767943000000.0 738633000000.0 676750000000.0 616119000000.0 596420000000.0 521179000000.0 281866000000.0 329011000000.0 356098000000.0 752965000000.0 172142000000.0 44971600000.0 1.36708e+12 591762000000.0 556807000000.0 428887000000.0 422145000000.0 372992000000.0 308713000000.0 147303000000.0 29161100000.0 347355000000.0 476602000000.0 576570000000.0 733379000000.0 823914000000.0 781295000000.0 739193000000.0 146092000000.0 47992400000.0 621796000000.0 869897000000.0 579112000000.0 682924000000.0 905217000000.0 577920000000.0 693036000000.0 779232000000.0 813750000000.0 812397000000.0 793274000000.0 762937000000.0 720861000000.0 669025000000.0 609772000000.0 544105000000.0 472782000000.0 396959000000.0 317430000000.0 234234000000.0 147855000000.0 59368100000.0 383884000000.0 362679000000.0 330934000000.0 287835000000.0 233884000000.0 170787000000.0 101056000000.0 27519900000.0 47112600000.0 120410000000.0 190300000000.0 390132000000.0 424752000000.0 450949000000.0 477293000000.0 527148000000.0 603380000000.0 683648000000.0 744642000000.0 773649000000.0 763262000000.0 717796000000.0 651230000000.0 495823000000.0 357006000000.0 137702000000.0 51781200000.0 854723000000.0 189010000000.0 770466000000.0 1.09368e+12 662945000000.0 355776000000.0 381602000000.0 414800000000.0 391948000000.0 397097000000.0 328244000000.0 213393000000.0 57626300000.0 272247000000.0 9334900000.0 295464000000.0 355357000000.0 423501000000.0 502044000000.0 684175000000.0 785770000000.0 877203000000.0 850864000000.0 591075000000.0 264633000000.0 76444400000.0 160900000000.0 388133000000.0 136856000000.0 811265000000.0 766461000000.0 550394000000.0 378245000000.0 547390000000.0 665670000000.0 734823000000.0 762142000000.0 764020000000.0 749349000000.0 719268000000.0 676346000000.0 624594000000.0 566028000000.0 501377000000.0 431381000000.0 356847000000.0 278608000000.0 197340000000.0 113905000000.0 29710300000.0 53154800000.0 131808000000.0 202842000000.0 262990000000.0 310032000000.0 343524000000.0 364836000000.0 376347000000.0 380229000000.0 377541000000.0 368033000000.0 350537000000.0 323662000000.0 286520000000.0 239180000000.0 182770000000.0 119284000000.0 51183600000.0 19020800000.0 254906000000.0 312428000000.0 361623000000.0 402797000000.0 438334000000.0 473819000000.0 522124000000.0 588706000000.0 663232000000.0 728343000000.0 771381000000.0 784142000000.0 756746000000.0 701089000000.0 640610000000.0 577980000000.0 217832000000.0 109087000000.0 295568000000.0 759743000000.0 703618000000.0 811791000000.0 818974000000.0 460459000000.0 393433000000.0 374459000000.0 403432000000.0 386106000000.0 231221000000.0 130577000000.0 368443000000.0 49278700000.0 10080500000.0 3941430000.0 200956000000.0 247699000000.0 279183000000.0 428310000000.0 502800000000.0 599094000000.0 704287000000.0 879018000000.0 938043000000.0 899154000000.0 104437000000.0 168666000000.0 426060000000.0 35298500000.0 18006600000.0 458261000000.0 641447000000.0 705799000000.0 656112000000.0 535394000000.0 478592000000.0 578427000000.0 656579000000.0 701472000000.0 719530000000.0 719744000000.0 703757000000.0 672570000000.0 629466000000.0 577976000000.0 520063000000.0 456517000000.0 387957000000.0 315170000000.0 239082000000.0 160683000000.0 81167400000.0 2171350000.0 74108100000.0 144979000000.0 207624000000.0 259709000000.0 299986000000.0 328582000000.0 346716000000.0 355965000000.0 357514000000.0 351716000000.0 338111000000.0 315839000000.0 284178000000.0 243004000000.0 193011000000.0 135698000000.0 89025000000.0 156817000000.0 220663000000.0 279151000000.0 331243000000.0 376970000000.0 418248000000.0 459276000000.0 507485000000.0 567106000000.0 634172000000.0 699443000000.0 753924000000.0 791536000000.0 801012000000.0 757843000000.0 681085000000.0 586514000000.0 481665000000.0 362254000000.0 165580000000.0 1269240000.0 604012000000.0 841429000000.0 464776000000.0 734314000000.0 885364000000.0 537395000000.0 470641000000.0 419715000000.0 404404000000.0 346156000000.0 56303300000.0 36340800000.0 261895000000.0 16180500000.0 157248000000.0 213016000000.0 332691000000.0 396417000000.0 592276000000.0 800168000000.0 886062000000.0 808843000000.0 1.06525e+12 119108000000.0 404645000000.0 573273000000.0 349252000000.0 283743000000.0 285293000000.0 476492000000.0 596403000000.0 645592000000.0 614885000000.0 553946000000.0 541234000000.0 594109000000.0 639031000000.0 667282000000.0 680149000000.0 676957000000.0 657385000000.0 624147000000.0 580591000000.0 529492000000.0 472386000000.0 410040000000.0 343139000000.0 272539000000.0 199269000000.0 124516000000.0 49653700000.0 23600500000.0 93087400000.0 156414000000.0 211383000000.0 256422000000.0 290893000000.0 315096000000.0 329919000000.0 336305000000.0 334808000000.0 325420000000.0 307725000000.0 281259000000.0 245875000000.0 73127200000.0 7578250000.0 58772400000.0 124029000000.0 186591000000.0 245202000000.0 298937000000.0 347596000000.0 392586000000.0 436967000000.0 484749000000.0 538851000000.0 598934000000.0 660562000000.0 717737000000.0 767493000000.0 809432000000.0 829929000000.0 758859000000.0 632049000000.0 495522000000.0 377571000000.0 258327000000.0 550926000000.0 703457000000.0 489562000000.0 178848000000.0 965276000000.0 853702000000.0 609916000000.0 526096000000.0 448558000000.0 342103000000.0 247356000000.0 15943100000.0 13652400000.0 791724000000.0 851769000000.0 165861000000.0 20573300000.0 128848000000.0 173268000000.0 169073000000.0 244763000000.0 287458000000.0 470011000000.0 549668000000.0 689818000000.0 793280000000.0 920739000000.0 885573000000.0 253853000000.0 246170000000.0 585619000000.0 808295000000.0 632629000000.0 444913000000.0 410040000000.0 518242000000.0 592295000000.0 615441000000.0 594893000000.0 573441000000.0 572401000000.0 592735000000.0 616128000000.0 634178000000.0 640790000000.0 632152000000.0 362263000000.0 297343000000.0 229338000000.0 159428000000.0 88871200000.0 19114000000.0 48087900000.0 110738000000.0 166865000000.0 214844000000.0 253637000000.0 282919000000.0 302968000000.0 314333000000.0 317485000000.0 201999000000.0 150721000000.0 93711400000.0 32981600000.0 29447500000.0 91797400000.0 152562000000.0 210551000000.0 265002000000.0 315622000000.0 362916000000.0 408855000000.0 456246000000.0 506620000000.0 559635000000.0 613619000000.0 715646000000.0 766438000000.0 826414000000.0 886651000000.0 746974000000.0 550537000000.0 416679000000.0 297456000000.0 237693000000.0 248328000000.0 592316000000.0 363606000000.0 712385000000.0 969738000000.0 835058000000.0 658231000000.0 657836000000.0 516538000000.0 417553000000.0 291034000000.0 156049000000.0 825280000000.0 1.12462e+12 8873170000.0 180204000000.0 19392300000.0 108314000000.0 120345000000.0 128899000000.0 138838000000.0 192500000000.0 346435000000.0 408832000000.0 623446000000.0 678157000000.0 1.10691e+12 108741000000.0 500099000000.0 451175000000.0 417935000000.0 393865000000.0 472914000000.0 548513000000.0 592772000000.0 609248000000.0 609116000000.0 574354000000.0 530346000000.0 479434000000.0 423156000000.0 312604000000.0 299569000000.0 278146000000.0 248257000000.0 210205000000.0 164798000000.0 113342000000.0 57526700000.0 812388000.0 59960300000.0 118498000000.0 175306000000.0 229622000000.0 281115000000.0 666055000000.0 728725000000.0 521502000000.0 342600000000.0 244328000000.0 329409000000.0 655389000000.0 772182000000.0 674865000000.0 778314000000.0 942934000000.0 935200000000.0 812776000000.0 592655000000.0 434416000000.0 87308700000.0 551592000000.0 810244000000.0 670576000000.0 114479000000.0 66712500000.0 33718600000.0 185664000000.0 49034700000.0 24570400000.0 46481700000.0 80865000000.0 110722000000.0 111185000000.0 125317000000.0 241353000000.0 309385000000.0 460567000000.0 452899000000.0 786674000000.0 1.19131e+12 73360100000.0 755418000000.0 441499000000.0 75437500000.0 396598000000.0 434559000000.0 512827000000.0 603106000000.0 579708000000.0 568332000000.0 576566000000.0 592237000000.0 602395000000.0 600567000000.0 585418000000.0 558876000000.0 522629000000.0 478374000000.0 427973000000.0 372719000000.0 313400000000.0 250725000000.0 185695000000.0 119547000000.0 53590500000.0 10713000000.0 71694700000.0 127635000000.0 176985000000.0 218573000000.0 251731000000.0 276278000000.0 292354000000.0 300203000000.0 299980000000.0 291685000000.0 275230000000.0 250621000000.0 218124000000.0 178367000000.0 132377000000.0 81539900000.0 27466700000.0 28234100000.0 84201900000.0 329885000000.0 376891000000.0 423932000000.0 471766000000.0 519445000000.0 565762000000.0 609089000000.0 647784000000.0 685413000000.0 735632000000.0 827909000000.0 1.01416e+12 203062000000.0 260118000000.0 584814000000.0 967980000000.0 875713000000.0 793118000000.0 926284000000.0 974679000000.0 866037000000.0 746904000000.0 452491000000.0 215483000000.0 305539000000.0 439479000000.0 473340000000.0 529394000000.0 818087000000.0 106791000000.0 53335100000.0 157734000000.0 75422400000.0 690144000.0 69565400000.0 136479000000.0 127168000000.0 95551200000.0 144809000000.0 227332000000.0 371216000000.0 402986000000.0 362103000000.0 240516000000.0 115604000000.0 355908000000.0 179528000000.0 305053000000.0 185687000000.0 373078000000.0 572946000000.0 609040000000.0 609760000000.0 589223000000.0 566101000000.0 556739000000.0 560283000000.0 566644000000.0 566509000000.0 556437000000.0 536168000000.0 506706000000.0 468968000000.0 424536000000.0 374917000000.0 321027000000.0 263536000000.0 203329000000.0 141573000000.0 79524600000.0 18466500000.0 40176100000.0 94895300000.0 144312000000.0 187304000000.0 223065000000.0 251141000000.0 271350000000.0 283656000000.0 288054000000.0 284505000000.0 272960000000.0 253465000000.0 226274000000.0 191926000000.0 151258000000.0 105397000000.0 139374000000.0 192958000000.0 244559000000.0 294141000000.0 341882000000.0 388542000000.0 434883000000.0 479805000000.0 520828000000.0 555930000000.0 583111000000.0 600958000000.0 612262000000.0 629013000000.0 683187000000.0 942287000000.0 513439000000.0 395086000000.0 451624000000.0 579451000000.0 894627000000.0 740703000000.0 752060000000.0 899412000000.0 925282000000.0 763588000000.0 636969000000.0 284064000000.0 5309780000.0 374535000000.0 498386000000.0 91914700000.0 216846000000.0 84209800000.0 58148800000.0 16567400000.0 113817000000.0 161470000000.0 105569000000.0 214660000000.0 145081000000.0 318017000000.0 397584000000.0 370210000000.0 318697000000.0 421741000000.0 345992000000.0 987959000000.0 451393000000.0 100391000000.0 425901000000.0 105051000000.0 481269000000.0 553552000000.0 594134000000.0 605994000000.0 592686000000.0 570651000000.0 552452000000.0 541666000000.0 537976000000.0 534068000000.0 524626000000.0 507920000000.0 483521000000.0 451737000000.0 413177000000.0 369090000000.0 320489000000.0 268049000000.0 212531000000.0 155024000000.0 96785800000.0 39072000000.0 16839900000.0 69635000000.0 118101000000.0 161260000000.0 198366000000.0 228874000000.0 252413000000.0 268704000000.0 277502000000.0 278607000000.0 271889000000.0 257360000000.0 235251000000.0 55701400000.0 3622180000.0 49497800000.0 102607000000.0 154950000000.0 206040000000.0 255740000000.0 304072000000.0 350996000000.0 396530000000.0 440002000000.0 479201000000.0 511116000000.0 532803000000.0 540979000000.0 533385000000.0 512288000000.0 493383000000.0 547327000000.0 756764000000.0 246524000000.0 234232000000.0 263807000000.0 379116000000.0 557811000000.0 697312000000.0 556601000000.0 677245000000.0 815975000000.0 831776000000.0 640438000000.0 499059000000.0 121510000000.0 150834000000.0 313458000000.0 347890000000.0 34123200000.0 181275000000.0 252043000000.0 28585800000.0 18698700000.0 38991200000.0 62991200000.0 74818100000.0 164985000000.0 256162000000.0 365492000000.0 447076000000.0 484575000000.0 581859000000.0 392361000000.0 263607000000.0 179191000000.0 210210000000.0 404871000000.0 515034000000.0 576334000000.0 598249000000.0 593222000000.0 573787000000.0 550563000000.0 530752000000.0 515732000000.0 504312000000.0 492134000000.0 476344000000.0 455164000000.0 427837000000.0 394391000000.0 355453000000.0 311961000000.0 264495000000.0 213574000000.0 160149000000.0 105510000000.0 50979600000.0 2156170000.0 52654000000.0 99441300000.0 141731000000.0 178977000000.0 210759000000.0 236680000000.0 206047000000.0 170478000000.0 129495000000.0 84240700000.0 35966600000.0 14083900000.0 64851300000.0 115570000000.0 165716000000.0 214993000000.0 263311000000.0 310485000000.0 356103000000.0 399540000000.0 439206000000.0 472248000000.0 495197000000.0 504327000000.0 495503000000.0 466243000000.0 421469000000.0 385938000000.0 394485000000.0 502867000000.0 249539000000.0 148525000000.0 144582000000.0 546928000000.0 462390000000.0 412732000000.0 577442000000.0 705944000000.0 711638000000.0 506165000000.0 353785000000.0 52600300000.0 230890000000.0 284204000000.0 220187000000.0 303762000000.0 44035200000.0 76396200000.0 203697000000.0 50191300000.0 152809000000.0 281537000000.0 419199000000.0 464182000000.0 536563000000.0 580277000000.0 713340000000.0 578796000000.0 288254000000.0 283900000000.0 111366000000.0 337854000000.0 471093000000.0 547551000000.0 579341000000.0 582005000000.0 567094000000.0 544227000000.0 519394000000.0 496835000000.0 256302000000.0 269133000000.0 274706000000.0 272689000000.0 262972000000.0 245723000000.0 221393000000.0 190655000000.0 154356000000.0 113479000000.0 69094700000.0 22296800000.0 25891200000.0 74652800000.0 123453000000.0 171938000000.0 219868000000.0 267050000000.0 313043000000.0 385457000000.0 346415000000.0 336831000000.0 87971900000.0 320293000000.0 124381000.0 249968000000.0 436297000000.0 531213000000.0 271173000000.0 296878000000.0 477277000000.0 588418000000.0 589599000000.0 365958000000.0 217682000000.0 188262000000.0 186901000000.0 74766000000.0 64116900000.0 44047300000.0 246116000000.0 503623000000.0 533814000000.0 639114000000.0 524976000000.0 177600000000.0 150470000000.0 448389000000.0 86288600000.0 224869000000.0 396136000000.0 497355000000.0 544693000000.0 477752000000.0 460794000000.0 443372000000.0 423022000000.0 398277000000.0 368769000000.0 334443000000.0 295736000000.0 253077000000.0 206724000000.0 157302000000.0 106012000000.0 54324500000.0 3703460000.0 44514000000.0 89260200000.0 129899000000.0 166190000000.0 198043000000.0 225272000000.0 247433000000.0 263819000000.0 273619000000.0 276160000000.0 271095000000.0 258478000000.0 238725000000.0 212500000000.0 180603000000.0 143917000000.0 103381000000.0 59941700000.0 14510700000.0 32085000000.0 357042000000.0 397943000000.0 433929000000.0 462230000000.0 479268000000.0 481788000000.0 465814000000.0 429767000000.0 221187000000.0 131333000000.0 369799000000.0 474924000000.0 548366000000.0 437651000000.0 143502000000.0 212053000000.0 393675000000.0 484428000000.0 459947000000.0 227895000000.0 57505800000.0 382834000000.0 429811000000.0 543534000000.0 420373000000.0 264792000000.0 228464000000.0 329000000000.0 158299000000.0 104914000000.0 310113000000.0 557401000000.0 548411000000.0 527807000000.0 502451000000.0 476628000000.0 452270000000.0 430136000000.0 409415000000.0 387937000000.0 364113000000.0 337152000000.0 306586000000.0 272201000000.0 234100000000.0 192232000000.0 146790000000.0 98715000000.0 49526800000.0 927658000.0 45444800000.0 88272600000.0 126867000000.0 161277000000.0 191968000000.0 219284000000.0 243041000000.0 262421000000.0 276202000000.0 283200000000.0 282664000000.0 274447000000.0 258942000000.0 236854000000.0 208992000000.0 176194000000.0 79227200000.0 126549000000.0 173775000000.0 220623000000.0 266743000000.0 311487000000.0 353856000000.0 392569000000.0 426035000000.0 452789000000.0 470078000000.0 475154000000.0 466883000000.0 443013000000.0 409296000000.0 357599000000.0 305436000000.0 143573000000.0 140812000000.0 353147000000.0 479877000000.0 350009000000.0 75645100000.0 159567000000.0 336337000000.0 393086000000.0 331859000000.0 49870800000.0 156598000000.0 289656000000.0 430200000000.0 310721000000.0 240025000000.0 23638200000.0 151486000000.0 431832000000.0 495815000000.0 518001000000.0 516682000000.0 501280000000.0 477802000000.0 450859000000.0 423678000000.0 397741000000.0 373784000000.0 350639000000.0 326490000000.0 300611000000.0 272476000000.0 241627000000.0 207718000000.0 170248000000.0 128894000000.0 84116300000.0 37225100000.0 9913530000.0 55214500000.0 96797600000.0 133556000000.0 165549000000.0 193875000000.0 219847000000.0 244022000000.0 265720000000.0 283275000000.0 294761000000.0 298749000000.0 139309000000.0 99180800000.0 56610900000.0 12342900000.0 32967300000.0 78860600000.0 125052000000.0 171236000000.0 217072000000.0 262121000000.0 305560000000.0 346542000000.0 384406000000.0 417922000000.0 446418000000.0 470567000000.0 488535000000.0 500024000000.0 499407000000.0 492416000000.0 404668000000.0 181992000000.0 49635800000.0 116275000000.0 213734000000.0 374113000000.0 440346000000.0 279098000000.0 57509400000.0 136812000000.0 301672000000.0 345548000000.0 332142000000.0 29033200000.0 304126000000.0 209584000000.0 138337000000.0 1151850000.0 60850300000.0 105840000000.0 113332000000.0 241845000000.0 373098000000.0 438042000000.0 467350000000.0 474179000000.0 465338000000.0 444297000000.0 417488000000.0 388801000000.0 360921000000.0 335519000000.0 311394000000.0 286472000000.0 260152000000.0 232737000000.0 204202000000.0 173974000000.0 140848000000.0 103723000000.0 62456400000.0 18003600000.0 294738000000.0 283111000000.0 264706000000.0 240420000000.0 211100000000.0 177540000000.0 140505000000.0 100720000000.0 58842600000.0 15477500000.0 28846000000.0 73778200000.0 119059000000.0 164328000000.0 209174000000.0 253120000000.0 295478000000.0 335495000000.0 372629000000.0 407585000000.0 440589000000.0 473176000000.0 507178000000.0 537627000000.0 540224000000.0 561816000000.0 402591000000.0 51877000000.0 68346500000.0 20675300000.0 398912000000.0 391567000000.0 223552000000.0 58147900000.0 134596000000.0 273296000000.0 244578000000.0 183514000000.0 133970000000.0 78520200000.0 25007600000.0 104220000000.0 107298000000.0 133159000000.0 195703000000.0 322590000000.0 388885000000.0 413834000000.0 422186000000.0 419254000000.0 402270000000.0 376521000000.0 346869000000.0 27896900000.0 72940400000.0 114482000000.0 150430000000.0 180247000000.0 205310000000.0 228281000000.0 251284000000.0 274377000000.0 295542000000.0 311788000000.0 320542000000.0 320644000000.0 312487000000.0 297229000000.0 275955000000.0 249582000000.0 218893000000.0 184590000000.0 147333000000.0 107720000000.0 66282800000.0 23529100000.0 20096200000.0 64284000000.0 108749000000.0 468006000000.0 477417000000.0 451273000000.0 30351700000.0 387584000000.0 219599000000.0 321644000000.0 373192000000.0 336054000000.0 53861500000.0 138681000000.0 114754000000.0 36053700000.0 36692500000.0 75820300000.0 111145000000.0 212836000000.0 106312000000.0 246422000000.0 305055000000.0 359975000000.0 317897000000.0 292462000000.0 269172000000.0 244601000000.0 217322000000.0 188593000000.0 160335000000.0 132781000000.0 103848000000.0 71092900000.0 33504900000.0 8053180000.0 52144200000.0 97123800000.0 139979000000.0 177022000000.0 206054000000.0 227939000000.0 246359000000.0 266002000000.0 288983000000.0 313481000000.0 335121000000.0 349369000000.0 353710000000.0 348547000000.0 335773000000.0 316831000000.0 292767000000.0 264376000000.0 232309000000.0 197148000000.0 153144000000.0 197034000000.0 239660000000.0 280412000000.0 319414000000.0 356080000000.0 390610000000.0 424847000000.0 458173000000.0 483548000000.0 512219000000.0 168152000000.0 170663000000.0 326335000000.0 366548000000.0 319633000000.0 265155000000.0 189730000000.0 29871700000.0 115956000000.0 76080400000.0 15263600000.0 46561200000.0 38255300000.0 76272800000.0 159665000000.0 173361000000.0 358976000000.0 363171000000.0 352273000000.0 329828000000.0 299462000000.0 267337000000.0 241727000000.0 221409000000.0 200548000000.0 174397000000.0 142936000000.0 111296000000.0 83929500000.0 58648500000.0 30581500000.0 3284920000.0 41973900000.0 83001000000.0 126317000000.0 170626000000.0 211160000000.0 242363000000.0 262704000000.0 276339000000.0 290234000000.0 310450000000.0 337310000000.0 365303000000.0 386649000000.0 395830000000.0 393037000000.0 381889000000.0 159449000000.0 119720000000.0 78416600000.0 35982300000.0 7198980000.0 50814800000.0 94488800000.0 137812000000.0 180439000000.0 221830000000.0 260870000000.0 296633000000.0 329947000000.0 361901000000.0 389803000000.0 409170000000.0 398849000000.0 403559000000.0 367638000000.0 31885700000.0 383769000000.0 212265000000.0 283538000000.0 294883000000.0 348662000000.0 340737000000.0 256489000000.0 243674000000.0 119215000000.0 684309000.0 22374400000.0 14199600000.0 39021900000.0 11516200000.0 37951300000.0 98926400000.0 139956000000.0 105603000000.0 206284000000.0 248195000000.0 295692000000.0 280822000000.0 288126000000.0 276221000000.0 248797000000.0 212342000000.0 181908000000.0 163972000000.0 151588000000.0 132242000000.0 100353000000.0 61380900000.0 28331500000.0 4218420000.0 18599600000.0 48712100000.0 85612400000.0 123203000000.0 161377000000.0 203471000000.0 248068000000.0 285894000000.0 308621000000.0 318929000000.0 327435000000.0 364456000000.0 341953000000.0 315174000000.0 284719000000.0 251100000000.0 214804000000.0 176308000000.0 136053000000.0 94474800000.0 52025100000.0 9108340000.0 33922800000.0 76718000000.0 118907000000.0 159764000000.0 198407000000.0 234586000000.0 267394000000.0 293146000000.0 315214000000.0 332902000000.0 329221000000.0 338674000000.0 293140000000.0 68238600000.0 207743000000.0 275073000000.0 323856000000.0 280295000000.0 264966000000.0 229205000000.0 144057000000.0 27067900000.0 19695500000.0 45158400000.0 80938700000.0 128010000000.0 89530000000.0 156593000000.0 185117000000.0 226241000000.0 207795000000.0 216239000000.0 197202000000.0 155658000000.0 122334000000.0 94553600000.0 89957400000.0 87792300000.0 341574000000.0 367547000000.0 402310000000.0 433761000000.0 449411000000.0 447968000000.0 437288000000.0 420379000000.0 398600000000.0 372681000000.0 343124000000.0 310354000000.0 274784000000.0 236847000000.0 196997000000.0 155695000000.0 113423000000.0 70670700000.0 27877900000.0 14507100000.0 56032900000.0 96457500000.0 135593000000.0 172077000000.0 202697000000.0 227077000000.0 242035000000.0 256101000000.0 260470000000.0 272460000000.0 219392000000.0 75412400000.0 270083000000.0 159073000000.0 158331000000.0 226907000000.0 270000000000.0 168239000000.0 157193000000.0 32831000000.0 39233000000.0 17074400000.0 13284600000.0 25215700000.0 80623000000.0 82800000000.0 63666600000.0 99627200000.0 113334000000.0 153567000000.0 63027500000.0 18853800000.0 25928800000.0 59347800000.0 78623200000.0 104150000000.0 141786000000.0 176574000000.0 208378000000.0 240113000000.0 281301000000.0 328089000000.0 360625000000.0 371316000000.0 377239000000.0 389935000000.0 408568000000.0 445611000000.0 491636000000.0 517736000000.0 515425000000.0 503591000000.0 486149000000.0 464291000000.0 438499000000.0 409090000000.0 376377000000.0 340706000000.0 302474000000.0 262149000000.0 160420000000.0 124427000000.0 122741000000.0 154223000000.0 168615000000.0 50346900000.0 152912000000.0 112761000000.0 26966700000.0 30897000000.0 31327800000.0 133325000000.0 132516000000.0 92272800000.0 68451100000.0 37990600000.0 5741210000.0 26277600000.0 28088100000.0 16054900000.0 59744800000.0 115578000000.0 151858000000.0 174504000000.0 216701000000.0 248301000000.0 273159000000.0 294120000000.0 313489000000.0 355000000000.0 402816000000.0 422873000000.0 432412000000.0 454367000000.0 481083000000.0 500425000000.0 559066000000.0 605390000000.0 596655000000.0 581646000000.0 562943000000.0 540592000000.0 220253000000.0 177323000000.0 133900000000.0 90521800000.0 47709700000.0 6025480000.0 33960600000.0 71788000000.0 106850000000.0 137946000000.0 162969000000.0 182979000000.0 188683000000.0 195127000000.0 200104000000.0 159116000000.0 73990600000.0 77356100000.0 83209900000.0 77029900000.0 79459400000.0 110771000000.0 58502700000.0 56527100000.0 58308800000.0 40610200000.0 29338800000.0 35830400000.0 38001900000.0 82008000000.0 65693800000.0 32577900000.0 29711800000.0 8026240000.0 29763600000.0 88783400000.0 35470500000.0 56428300000.0 71766100000.0 114844000000.0 197877000000.0 274105000000.0 323098000000.0 336119000000.0 351897000000.0 366852000000.0 377047000000.0 373685000000.0 402898000000.0 432882000000.0 471250000000.0 522967000000.0 577314000000.0 514450000000.0 484534000000.0 451035000000.0 414286000000.0 374720000000.0 332844000000.0 289217000000.0 244421000000.0 199067000000.0 153842000000.0 109450000000.0 66608600000.0 26081000000.0 11448400000.0 45426500000.0 75233300000.0 100411000000.0 111941000000.0 112631000000.0 119376000000.0 121633000000.0 100487000000.0 62447900000.0 27665500000.0 31077400000.0 31127200000.0 47756800000.0 38766600000.0 13518000000.0 43711800000.0 612671000000.0 627451000000.0 713012000000.0 687128000000.0 669507000000.0 650988000000.0 628992000000.0 602665000000.0 571853000000.0 536767000000.0 497845000000.0 455664000000.0 410842000000.0 364004000000.0 315810000000.0 266985000000.0 218303000000.0 170614000000.0 124834000000.0 81923600000.0 42972400000.0 9227980000.0 17863900000.0 36185500000.0 43210500000.0 42490300000.0 42350600000.0 41021300000.0 36280200000.0 38777700000.0 12967500000.0 35875100000.0 68750100000.0 58933400000.0 1329980000.0 38413000000.0 11335500000.0 64832200000.0 121569000000.0 181019000000.0 242333000000.0 280954000000.0 257690000000.0 189145000000.0 111104000000.0 38760400000.0 26567100000.0 