# vtk DataFile Version 2.0
Time step 42
ASCII
DATASET UNSTRUCTURED_GRID
POINTS 4650 float
140288.0 414658.0 0
145913.0 411144.0 0
354087.0 411144.0 0
359712.0 414658.0 0
136736.0 416863.0 0
144106.0 414583.0 0
148591.0 413812.0 0
151871.0 411574.0 0
155292.0 413635.0 0
159064.0 412464.0 0
162832.0 413689.0 0
166778.0 413290.0 0
170742.0 413464.0 0
174710.0 413446.0 0
178678.0 413446.0 0
182646.0 413444.0 0
186612.0 413443.0 0
190577.0 413442.0 0
194541.0 413441.0 0
198505.0 413440.0 0
202467.0 413439.0 0
206429.0 413438.0 0
210391.0 413438.0 0
214352.0 413437.0 0
218313.0 413437.0 0
222274.0 413436.0 0
226235.0 413436.0 0
230196.0 413436.0 0
234157.0 413435.0 0
238118.0 413435.0 0
242078.0 413435.0 0
246039.0 413435.0 0
250000.0 413435.0 0
253961.0 413435.0 0
257922.0 413435.0 0
261882.0 413435.0 0
265843.0 413435.0 0
269804.0 413436.0 0
273765.0 413436.0 0
277726.0 413436.0 0
281687.0 413437.0 0
285648.0 413437.0 0
289609.0 413438.0 0
293571.0 413438.0 0
297533.0 413439.0 0
301495.0 413440.0 0
305459.0 413441.0 0
309423.0 413442.0 0
313388.0 413443.0 0
317354.0 413444.0 0
321322.0 413446.0 0
325290.0 413446.0 0
329258.0 413464.0 0
333222.0 413290.0 0
337168.0 413689.0 0
340936.0 412464.0 0
344708.0 413635.0 0
348129.0 411574.0 0
351409.0 413812.0 0
355894.0 414583.0 0
363264.0 416863.0 0
133365.0 418973.0 0
140035.0 418396.0 0
146833.0 417315.0 0
151945.0 415683.0 0
155329.0 417667.0 0
159078.0 416452.0 0
162844.0 417688.0 0
166797.0 417277.0 0
170771.0 417467.0 0
174748.0 417449.0 0
178721.0 417448.0 0
182691.0 417446.0 0
186658.0 417444.0 0
190623.0 417443.0 0
194587.0 417442.0 0
198549.0 417441.0 0
202509.0 417440.0 0
206469.0 417439.0 0
210428.0 417438.0 0
214387.0 417438.0 0
218345.0 417437.0 0
222302.0 417437.0 0
226260.0 417436.0 0
230217.0 417436.0 0
234174.0 417436.0 0
238130.0 417435.0 0
242087.0 417435.0 0
246043.0 417435.0 0
250000.0 417435.0 0
253957.0 417435.0 0
257913.0 417435.0 0
261870.0 417435.0 0
265826.0 417436.0 0
269783.0 417436.0 0
273740.0 417436.0 0
277698.0 417437.0 0
281655.0 417437.0 0
285613.0 417438.0 0
289572.0 417438.0 0
293531.0 417439.0 0
297491.0 417440.0 0
301451.0 417441.0 0
305413.0 417442.0 0
309377.0 417443.0 0
313342.0 417444.0 0
317309.0 417446.0 0
321279.0 417448.0 0
325252.0 417449.0 0
329229.0 417467.0 0
333203.0 417277.0 0
337156.0 417688.0 0
340922.0 416452.0 0
344671.0 417667.0 0
348055.0 415683.0 0
353167.0 417315.0 0
359965.0 418396.0 0
366635.0 418973.0 0
126649.0 423176.0 0
130002.0 421077.0 0
133339.0 422697.0 0
136688.0 420561.0 0
143559.0 419433.0 0
150187.0 419206.0 0
349813.0 419206.0 0
356441.0 419433.0 0
363312.0 420561.0 0
366661.0 422697.0 0
369998.0 421077.0 0
373351.0 423176.0 0
123301.0 425270.0 0
130001.0 424827.0 0
136689.0 424305.0 0
140025.0 422130.0 0
146832.0 421287.0 0
153508.0 421169.0 0
156788.0 423199.0 0
159563.0 420401.0 0
163163.0 422064.0 0
167043.0 421242.0 0
170998.0 421500.0 0
174957.0 421446.0 0
178912.0 421452.0 0
182865.0 421449.0 0
186816.0 421447.0 0
190765.0 421445.0 0
194714.0 421443.0 0
198662.0 421442.0 0
202610.0 421441.0 0
206558.0 421440.0 0
210507.0 421439.0 0
214455.0 421438.0 0
218404.0 421438.0 0
222353.0 421437.0 0
226302.0 421436.0 0
230251.0 421436.0 0
234201.0 421436.0 0
238151.0 421435.0 0
242100.0 421435.0 0
246050.0 421435.0 0
250000.0 421435.0 0
253950.0 421435.0 0
257900.0 421435.0 0
261849.0 421435.0 0
265799.0 421436.0 0
269749.0 421436.0 0
273698.0 421436.0 0
277647.0 421437.0 0
281596.0 421438.0 0
285545.0 421438.0 0
289493.0 421439.0 0
293442.0 421440.0 0
297390.0 421441.0 0
301338.0 421442.0 0
305286.0 421443.0 0
309235.0 421445.0 0
313184.0 421447.0 0
317135.0 421449.0 0
321088.0 421452.0 0
325043.0 421446.0 0
329002.0 421500.0 0
332957.0 421242.0 0
336837.0 422064.0 0
340437.0 420401.0 0
343212.0 423199.0 0
346492.0 421169.0 0
353168.0 421287.0 0
359975.0 422130.0 0
363311.0 424305.0 0
369999.0 424827.0 0
376699.0 425270.0 0
119954.0 427363.0 0
126670.0 426948.0 0
133371.0 426464.0 0
140052.0 425883.0 0
143497.0 423413.0 0
146769.0 425250.0 0
150121.0 423184.0 0
153396.0 425157.0 0
160076.0 425219.0 0
167447.0 425182.0 0
171330.0 425561.0 0
175232.0 425436.0 0
179140.0 425460.0 0
183053.0 425452.0 0
186971.0 425449.0 0
190894.0 425447.0 0
194820.0 425445.0 0
198750.0 425444.0 0
202683.0 425442.0 0
206619.0 425441.0 0
210557.0 425440.0 0
214497.0 425439.0 0
218439.0 425438.0 0
222382.0 425437.0 0
226326.0 425437.0 0
230271.0 425436.0 0
234217.0 425436.0 0
238162.0 425435.0 0
242108.0 425435.0 0
246054.0 425435.0 0
250000.0 425435.0 0
253946.0 425435.0 0
257892.0 425435.0 0
261838.0 425435.0 0
265783.0 425436.0 0
269729.0 425436.0 0
273674.0 425437.0 0
277618.0 425437.0 0
281561.0 425438.0 0
285503.0 425439.0 0
289443.0 425440.0 0
293381.0 425441.0 0
297317.0 425442.0 0
301250.0 425444.0 0
305180.0 425445.0 0
309106.0 425447.0 0
313029.0 425449.0 0
316947.0 425452.0 0
320860.0 425460.0 0
324768.0 425436.0 0
328670.0 425561.0 0
332553.0 425182.0 0
339924.0 425219.0 0
346604.0 425157.0 0
349879.0 423184.0 0
353231.0 425250.0 0
356503.0 423413.0 0
359948.0 425883.0 0
366629.0 426464.0 0
373330.0 426948.0 0
380046.0 427363.0 0
116599.0 429462.0 0
123343.0 429056.0 0
126749.0 430762.0 0
130055.0 428616.0 0
136760.0 428100.0 0
143444.0 427397.0 0
150056.0 427160.0 0
156629.0 427219.0 0
163762.0 426446.0 0
336238.0 426446.0 0
343371.0 427219.0 0
349944.0 427160.0 0
356556.0 427397.0 0
363240.0 428100.0 0
369945.0 428616.0 0
373251.0 430762.0 0
376657.0 429056.0 0
383401.0 429462.0 0
109863.0 433674.0 0
113239.0 431562.0 0
120005.0 431151.0 0
123437.0 432872.0 0
130175.0 432447.0 0
133461.0 430264.0 0
136884.0 431936.0 0
140178.0 429680.0 0
146750.0 429189.0 0
153121.0 429422.0 0
156529.0 431194.0 0
159966.0 429198.0 0
163665.0 430422.0 0
167361.0 429158.0 0
171254.0 429558.0 0
175166.0 429435.0 0
179084.0 429459.0 0
183003.0 429452.0 0
186926.0 429449.0 0
190853.0 429447.0 0
194782.0 429445.0 0
198715.0 429444.0 0
202650.0 429442.0 0
206588.0 429441.0 0
210529.0 429440.0 0
214471.0 429439.0 0
218415.0 429438.0 0
222361.0 429437.0 0
226307.0 429437.0 0
230255.0 429436.0 0
234203.0 429436.0 0
238152.0 429435.0 0
242101.0 429435.0 0
246050.0 429435.0 0
250000.0 429435.0 0
253950.0 429435.0 0
257899.0 429435.0 0
261848.0 429435.0 0
265797.0 429436.0 0
269745.0 429436.0 0
273693.0 429437.0 0
277639.0 429437.0 0
281585.0 429438.0 0
285529.0 429439.0 0
289471.0 429440.0 0
293412.0 429441.0 0
297350.0 429442.0 0
301285.0 429444.0 0
305218.0 429445.0 0
309147.0 429447.0 0
313074.0 429449.0 0
316997.0 429452.0 0
320916.0 429459.0 0
324834.0 429435.0 0
328746.0 429558.0 0
332639.0 429158.0 0
336335.0 430422.0 0
340034.0 429198.0 0
343471.0 431194.0 0
346879.0 429422.0 0
353250.0 429189.0 0
359822.0 429680.0 0
363116.0 431936.0 0
366539.0 430264.0 0
369825.0 432447.0 0
376563.0 432872.0 0
379995.0 431151.0 0
386761.0 431562.0 0
390137.0 433674.0 0
106479.0 435789.0 0
113294.0 435357.0 0
116657.0 433269.0 0
120106.0 434952.0 0
126881.0 434618.0 0
133650.0 434088.0 0
140289.0 433491.0 0
143577.0 431375.0 0
145902.0 434422.0 0
149715.0 431484.0 0
153025.0 433394.0 0
346975.0 433394.0 0
350285.0 431484.0 0
354098.0 434422.0 0
356423.0 431375.0 0
359711.0 433491.0 0
366350.0 434088.0 0
373119.0 434618.0 0
379894.0 434952.0 0
383343.0 433269.0 0
386706.0 435357.0 0
393521.0 435789.0 0
103091.0 437905.0 0
109902.0 437491.0 0
116755.0 437110.0 0
123602.0 436717.0 0
130333.0 436300.0 0
137201.0 435874.0 0
142535.0 436388.0 0
149589.0 435411.0 0
156440.0 435150.0 0
159877.0 433176.0 0
163581.0 434383.0 0
167286.0 433143.0 0
171177.0 433555.0 0
175090.0 433438.0 0
179007.0 433460.0 0
182927.0 433452.0 0
186851.0 433450.0 0
190779.0 433448.0 0
194711.0 433446.0 0
198646.0 433444.0 0
202585.0 433442.0 0
206526.0 433441.0 0
210471.0 433440.0 0
214417.0 433439.0 0
218366.0 433438.0 0
222317.0 433437.0 0
226269.0 433437.0 0
230223.0 433436.0 0
234177.0 433436.0 0
238132.0 433435.0 0
242088.0 433435.0 0
246044.0 433435.0 0
250000.0 433435.0 0
253956.0 433435.0 0
257912.0 433435.0 0
261868.0 433435.0 0
265823.0 433436.0 0
269777.0 433436.0 0
273731.0 433437.0 0
277683.0 433437.0 0
281634.0 433438.0 0
285583.0 433439.0 0
289529.0 433440.0 0
293474.0 433441.0 0
297415.0 433442.0 0
301354.0 433444.0 0
305289.0 433446.0 0
309221.0 433448.0 0
313149.0 433450.0 0
317073.0 433452.0 0
320993.0 433460.0 0
324910.0 433438.0 0
328823.0 433555.0 0
332714.0 433143.0 0
336419.0 434383.0 0
340123.0 433176.0 0
343560.0 435150.0 0
350411.0 435411.0 0
357465.0 436388.0 0
362799.0 435874.0 0
369667.0 436300.0 0
376398.0 436717.0 0
383245.0 437110.0 0
390098.0 437491.0 0
396909.0 437905.0 0
99699.2 440019.0 0
103011.0 441728.0 0
106483.0 439620.0 0
109888.0 441335.0 0
113372.0 439148.0 0
120264.0 438727.0 0
127097.0 438543.0 0
133843.0 437835.0 0
138099.0 439729.0 0
145719.0 438550.0 0
152902.0 437361.0 0
156320.0 439080.0 0
159781.0 437161.0 0
163497.0 438328.0 0
167215.0 437133.0 0
171106.0 437550.0 0
175020.0 437440.0 0
178939.0 437460.0 0
182862.0 437452.0 0
186790.0 437450.0 0
190721.0 437447.0 0
194657.0 437445.0 0
198597.0 437444.0 0
202540.0 437442.0 0
206486.0 437441.0 0
210435.0 437440.0 0
214386.0 437439.0 0
218339.0 437438.0 0
222293.0 437437.0 0
226249.0 437437.0 0
230206.0 437436.0 0
234164.0 437436.0 0
238123.0 437435.0 0
242082.0 437435.0 0
246041.0 437435.0 0
250000.0 437435.0 0
253959.0 437435.0 0
257918.0 437435.0 0
261877.0 437435.0 0
265836.0 437436.0 0
269794.0 437436.0 0
273751.0 437437.0 0
277707.0 437437.0 0
281661.0 437438.0 0
285614.0 437439.0 0
289565.0 437440.0 0
293514.0 437441.0 0
297460.0 437442.0 0
301403.0 437444.0 0
305343.0 437445.0 0
309279.0 437447.0 0
313210.0 437450.0 0
317138.0 437452.0 0
321061.0 437460.0 0
324980.0 437440.0 0
328894.0 437550.0 0
332785.0 437133.0 0
336503.0 438328.0 0
340219.0 437161.0 0
343680.0 439080.0 0
347098.0 437361.0 0
354281.0 438550.0 0
361901.0 439729.0 0
366157.0 437835.0 0
372903.0 438543.0 0
379736.0 438727.0 0
386628.0 439148.0 0
390112.0 441335.0 0
393517.0 439620.0 0
396989.0 441728.0 0
400301.0 440019.0 0
95979.1 442361.0 0
106312.0 443476.0 0
113367.0 442935.0 0
116801.0 441015.0 0
120392.0 442437.0 0
123792.0 440584.0 0
130643.0 440204.0 0
134366.0 441469.0 0
142066.0 440165.0 0
149505.0 439364.0 0
350495.0 439364.0 0
357934.0 440165.0 0
365634.0 441469.0 0
369357.0 440204.0 0
376208.0 440584.0 0
379608.0 442437.0 0
383199.0 441015.0 0
386633.0 442935.0 0
393688.0 443476.0 0
404021.0 442361.0 0
94147.7 445849.0 0
99579.6 443786.0 0
102948.0 445591.0 0
109616.0 445194.0 0
116650.0 445002.0 0
124020.0 444478.0 0
127665.0 442964.0 0
131467.0 444020.0 0
136911.0 444208.0 0
140728.0 443788.0 0
144606.0 443199.0 0
148511.0 443195.0 0
152296.0 442109.0 0
156090.0 442977.0 0
159604.0 441155.0 0
163329.0 442254.0 0
167046.0 441122.0 0
170923.0 441539.0 0
174825.0 441444.0 0
178734.0 441455.0 0
182650.0 441450.0 0
186573.0 441447.0 0
190503.0 441444.0 0
194439.0 441442.0 0
198382.0 441440.0 0
202331.0 441439.0 0
206286.0 441438.0 0
210246.0 441437.0 0
214209.0 441437.0 0
218177.0 441436.0 0
222148.0 441436.0 0
226122.0 441436.0 0
230098.0 441435.0 0
234076.0 441435.0 0
238056.0 441435.0 0
242037.0 441435.0 0
246018.0 441435.0 0
250000.0 441435.0 0
253982.0 441435.0 0
257963.0 441435.0 0
261944.0 441435.0 0
265924.0 441435.0 0
269902.0 441435.0 0
273878.0 441436.0 0
277852.0 441436.0 0
281823.0 441436.0 0
285791.0 441437.0 0
289754.0 441437.0 0
293714.0 441438.0 0
297669.0 441439.0 0
301618.0 441440.0 0
305561.0 441442.0 0
309497.0 441444.0 0
313427.0 441447.0 0
317350.0 441450.0 0
321266.0 441455.0 0
325175.0 441444.0 0
329077.0 441539.0 0
332954.0 441122.0 0
336671.0 442254.0 0
340396.0 441155.0 0
343910.0 442977.0 0
347704.0 442109.0 0
351489.0 443195.0 0
355394.0 443199.0 0
359272.0 443788.0 0
363089.0 444208.0 0
368533.0 444020.0 0
372335.0 442964.0 0
375980.0 444478.0 0
383350.0 445002.0 0
390384.0 445194.0 0
397052.0 445591.0 0
400420.0 443786.0 0
405852.0 445849.0 0
98532.6 447483.0 0
106335.0 447397.0 0
113000.0 446709.0 0
120401.0 446069.0 0
135085.0 447631.0 0
143088.0 446935.0 0
151006.0 446276.0 0
154952.0 446743.0 0
158855.0 445742.0 0
162774.0 446119.0 0
166634.0 445351.0 0
170572.0 445513.0 0
174517.0 445443.0 0
178466.0 445446.0 0
182421.0 445443.0 0
186380.0 445442.0 0
190343.0 445441.0 0
194310.0 445440.0 0
198281.0 445439.0 0
202254.0 445438.0 0
206229.0 445437.0 0
210206.0 445437.0 0
214184.0 445437.0 0
218163.0 445436.0 0
222143.0 445436.0 0
226122.0 445436.0 0
230102.0 445435.0 0
234082.0 445435.0 0
238062.0 445435.0 0
242041.0 445435.0 0
246021.0 445435.0 0
250000.0 445435.0 0
253979.0 445435.0 0
257959.0 445435.0 0
261938.0 445435.0 0
265918.0 445435.0 0
269898.0 445435.0 0
273878.0 445436.0 0
277857.0 445436.0 0
281837.0 445436.0 0
285816.0 445437.0 0
289794.0 445437.0 0
293771.0 445437.0 0
297746.0 445438.0 0
301719.0 445439.0 0
305690.0 445440.0 0
309657.0 445441.0 0
313620.0 445442.0 0
317579.0 445443.0 0
321534.0 445446.0 0
325483.0 445443.0 0
329428.0 445513.0 0
333366.0 445351.0 0
337226.0 446119.0 0
341145.0 445742.0 0
345048.0 446743.0 0
348994.0 446276.0 0
356912.0 446935.0 0
364915.0 447631.0 0
379599.0 446069.0 0
387000.0 446709.0 0
393665.0 447397.0 0
401467.0 447483.0 0
95224.9 449681.0 0
102345.0 449430.0 0
109829.0 449114.0 0
115525.0 449314.0 0
119270.0 449600.0 0
123466.0 448369.0 0
127215.0 447016.0 0
131127.0 447847.0 0
139129.0 447411.0 0
147036.0 446877.0 0
352964.0 446877.0 0
360871.0 447411.0 0
368873.0 447847.0 0
372785.0 447016.0 0
376534.0 448369.0 0
380730.0 449600.0 0
384475.0 449314.0 0
390171.0 449114.0 0
397655.0 449430.0 0
404775.0 449681.0 0
98861.8 451363.0 0
102688.0 453354.0 0
106484.0 451292.0 0
112558.0 451868.0 0
117037.0 452828.0 0
121847.0 452291.0 0
125631.0 451525.0 0
129444.0 451343.0 0
133352.0 451145.0 0
137314.0 450928.0 0
141461.0 450566.0 0
145455.0 450554.0 0
149498.0 449980.0 0
153464.0 450412.0 0
157744.0 449557.0 0
161710.0 449898.0 0
165997.0 449435.0 0
169996.0 449465.0 0
174000.0 449435.0 0
178000.0 449435.0 0
182000.0 449435.0 0
186000.0 449435.0 0
190000.0 449435.0 0
194000.0 449435.0 0
198000.0 449435.0 0
202000.0 449435.0 0
206000.0 449435.0 0
210000.0 449435.0 0
214000.0 449435.0 0
218000.0 449435.0 0
222000.0 449435.0 0
226000.0 449435.0 0
230000.0 449435.0 0
234000.0 449435.0 0
238000.0 449435.0 0
242000.0 449435.0 0
246000.0 449435.0 0
250000.0 449435.0 0
254000.0 449435.0 0
258000.0 449435.0 0
262000.0 449435.0 0
266000.0 449435.0 0
270000.0 449435.0 0
274000.0 449435.0 0
278000.0 449435.0 0
282000.0 449435.0 0
286000.0 449435.0 0
290000.0 449435.0 0
294000.0 449435.0 0
298000.0 449435.0 0
302000.0 449435.0 0
306000.0 449435.0 0
310000.0 449435.0 0
314000.0 449435.0 0
318000.0 449435.0 0
322000.0 449435.0 0
326000.0 449435.0 0
330004.0 449465.0 0
334003.0 449435.0 0
338290.0 449898.0 0
342256.0 449557.0 0
346536.0 450412.0 0
350502.0 449980.0 0
354545.0 450554.0 0
358539.0 450566.0 0
362686.0 450928.0 0
366648.0 451145.0 0
370556.0 451343.0 0
374369.0 451525.0 0
378153.0 452291.0 0
382963.0 452828.0 0
387442.0 451868.0 0
393516.0 451292.0 0
397312.0 453354.0 0
401138.0 451363.0 0
127562.0 454914.0 0
135474.0 454478.0 0
143335.0 454034.0 0
147238.0 454188.0 0
151118.0 453622.0 0
155025.0 454088.0 0
158892.0 453355.0 0
162814.0 453696.0 0
166729.0 453408.0 0
170662.0 453452.0 0
174603.0 453445.0 0
178548.0 453444.0 0
182499.0 453442.0 0
186453.0 453441.0 0
190410.0 453440.0 0
194371.0 453439.0 0
198334.0 453439.0 0
202299.0 453438.0 0
206266.0 453437.0 0
210235.0 453437.0 0
214206.0 453437.0 0
218179.0 453436.0 0
222153.0 453436.0 0
226128.0 453436.0 0
230105.0 453435.0 0
234083.0 453435.0 0
238061.0 453435.0 0
242041.0 453435.0 0
246020.0 453435.0 0
250000.0 453435.0 0
253980.0 453435.0 0
257959.0 453435.0 0
261939.0 453435.0 0
265917.0 453435.0 0
269895.0 453435.0 0
273872.0 453436.0 0
277847.0 453436.0 0
281821.0 453436.0 0
285794.0 453437.0 0
289765.0 453437.0 0
293734.0 453437.0 0
297701.0 453438.0 0
301666.0 453439.0 0
305629.0 453439.0 0
309590.0 453440.0 0
313547.0 453441.0 0
317501.0 453442.0 0
321452.0 453444.0 0
325397.0 453445.0 0
329338.0 453452.0 0
333271.0 453408.0 0
337186.0 453696.0 0
341108.0 453355.0 0
344975.0 454088.0 0
348882.0 453622.0 0
352762.0 454188.0 0
356665.0 454034.0 0
364526.0 454478.0 0
372438.0 454914.0 0
99193.9 455267.0 0
106201.0 455209.0 0
110177.0 455032.0 0
114150.0 455429.0 0
119704.0 455606.0 0
123674.0 455666.0 0
131516.0 454678.0 0
139405.0 454292.0 0
360595.0 454292.0 0
368484.0 454678.0 0
376326.0 455666.0 0
380296.0 455606.0 0
385850.0 455429.0 0
389823.0 455032.0 0
393799.0 455209.0 0
400806.0 455267.0 0
99637.7 459181.0 0
104064.0 458551.0 0
108323.0 458555.0 0
112287.0 458824.0 0
116825.0 458354.0 0
121542.0 459033.0 0
125783.0 458916.0 0
129689.0 458224.0 0
133645.0 458004.0 0
137618.0 457895.0 0
141589.0 457608.0 0
145574.0 457822.0 0
149552.0 457420.0 0
153527.0 457782.0 0
157935.0 457421.0 0
161928.0 457559.0 0
166000.0 457435.0 0
170000.0 457435.0 0
174000.0 457435.0 0
178000.0 457435.0 0
182000.0 457435.0 0
186000.0 457435.0 0
190000.0 457435.0 0
194000.0 457435.0 0
198000.0 457435.0 0
202000.0 457435.0 0
206000.0 457435.0 0
210000.0 457435.0 0
214000.0 457435.0 0
218000.0 457435.0 0
222000.0 457435.0 0
226000.0 457435.0 0
230000.0 457435.0 0
234000.0 457435.0 0
238000.0 457435.0 0
242000.0 457435.0 0
246000.0 457435.0 0
250000.0 457435.0 0
254000.0 457435.0 0
258000.0 457435.0 0
262000.0 457435.0 0
266000.0 457435.0 0
270000.0 457435.0 0
274000.0 457435.0 0
278000.0 457435.0 0
282000.0 457435.0 0
286000.0 457435.0 0
290000.0 457435.0 0
294000.0 457435.0 0
298000.0 457435.0 0
302000.0 457435.0 0
306000.0 457435.0 0
310000.0 457435.0 0
314000.0 457435.0 0
318000.0 457435.0 0
322000.0 457435.0 0
326000.0 457435.0 0
330000.0 457435.0 0
334000.0 457435.0 0
338072.0 457559.0 0
342065.0 457421.0 0
346473.0 457782.0 0
350448.0 457420.0 0
354426.0 457822.0 0
358411.0 457608.0 0
362382.0 457895.0 0
366355.0 458004.0 0
370311.0 458224.0 0
374217.0 458916.0 0
378458.0 459033.0 0
383175.0 458354.0 0
387713.0 458824.0 0
391677.0 458555.0 0
395936.0 458551.0 0
400362.0 459181.0 0
102293.0 462119.0 0
106255.0 461944.0 0
110223.0 462146.0 0
114719.0 461980.0 0
118718.0 461860.0 0
127121.0 462605.0 0
130984.0 461968.0 0
134891.0 461755.0 0
138797.0 461810.0 0
142697.0 461424.0 0
146612.0 461685.0 0
150526.0 461292.0 0
154452.0 461664.0 0
158389.0 461394.0 0
162342.0 461514.0 0
166298.0 461435.0 0
170260.0 461438.0 0
174226.0 461437.0 0
178197.0 461437.0 0
182171.0 461436.0 0
186149.0 461436.0 0
190129.0 461436.0 0
194111.0 461436.0 0
198096.0 461436.0 0
202082.0 461435.0 0
206070.0 461435.0 0
210060.0 461435.0 0
214051.0 461435.0 0
218042.0 461435.0 0
222035.0 461435.0 0
226029.0 461435.0 0
230023.0 461435.0 0
234018.0 461435.0 0
238013.0 461435.0 0
242008.0 461435.0 0
246004.0 461435.0 0
250000.0 461435.0 0
253996.0 461435.0 0
257992.0 461435.0 0
261987.0 461435.0 0
265982.0 461435.0 0
269977.0 461435.0 0
273971.0 461435.0 0
277965.0 461435.0 0
281958.0 461435.0 0
285949.0 461435.0 0
289940.0 461435.0 0
293930.0 461435.0 0
297918.0 461435.0 0
301904.0 461436.0 0
305889.0 461436.0 0
309871.0 461436.0 0
313851.0 461436.0 0
317829.0 461436.0 0
321803.0 461437.0 0
325774.0 461437.0 0
329740.0 461438.0 0
333702.0 461435.0 0
337658.0 461514.0 0
341611.0 461394.0 0
345548.0 461664.0 0
349474.0 461292.0 0
353388.0 461685.0 0
357303.0 461424.0 0
361203.0 461810.0 0
365109.0 461755.0 0
369016.0 461968.0 0
372879.0 462605.0 0
381282.0 461860.0 0
385281.0 461980.0 0
389777.0 462146.0 0
393745.0 461944.0 0
397707.0 462119.0 0
123158.0 462599.0 0
376842.0 462599.0 0
101236.0 465942.0 0
105280.0 465811.0 0
109264.0 465970.0 0
113252.0 465714.0 0
117230.0 465613.0 0
121169.0 466025.0 0
125146.0 466018.0 0
129630.0 465718.0 0
133705.0 465552.0 0
137816.0 465683.0 0
141906.0 465431.0 0
145901.0 465611.0 0
149921.0 465430.0 0
153916.0 465609.0 0
157992.0 465433.0 0
161991.0 465479.0 0
166000.0 465435.0 0
170000.0 465435.0 0
174000.0 465435.0 0
178000.0 465435.0 0
182000.0 465435.0 0
186000.0 465435.0 0
190000.0 465435.0 0
194000.0 465435.0 0
198000.0 465435.0 0
202000.0 465435.0 0
206000.0 465435.0 0
210000.0 465435.0 0
214000.0 465435.0 0
218000.0 465435.0 0
222000.0 465435.0 0
226000.0 465435.0 0
230000.0 465435.0 0
234000.0 465435.0 0
238000.0 465435.0 0
242000.0 465435.0 0
246000.0 465435.0 0
250000.0 465435.0 0
254000.0 465435.0 0
258000.0 465435.0 0
262000.0 465435.0 0
266000.0 465435.0 0
270000.0 465435.0 0
274000.0 465435.0 0
278000.0 465435.0 0
282000.0 465435.0 0
286000.0 465435.0 0
290000.0 465435.0 0
294000.0 465435.0 0
298000.0 465435.0 0
302000.0 465435.0 0
306000.0 465435.0 0
310000.0 465435.0 0
314000.0 465435.0 0
318000.0 465435.0 0
322000.0 465435.0 0
326000.0 465435.0 0
330000.0 465435.0 0
334000.0 465435.0 0
338009.0 465479.0 0
342008.0 465433.0 0
346084.0 465609.0 0
350079.0 465430.0 0
354099.0 465611.0 0
358094.0 465431.0 0
362184.0 465683.0 0
366295.0 465552.0 0
370370.0 465718.0 0
374854.0 466018.0 0
378831.0 466025.0 0
382770.0 465613.0 0
386748.0 465714.0 0
390736.0 465970.0 0
394720.0 465811.0 0
398764.0 465942.0 0
110179.0 469818.0 0
114165.0 469625.0 0
118161.0 469564.0 0
126188.0 469827.0 0
130165.0 469677.0 0
134144.0 469510.0 0
138124.0 469665.0 0
142102.0 469426.0 0
146085.0 469597.0 0
150070.0 469427.0 0
154057.0 469587.0 0
158045.0 469433.0 0
162038.0 469465.0 0
166031.0 469435.0 0
170026.0 469435.0 0
174021.0 469435.0 0
178017.0 469435.0 0
182014.0 469435.0 0
186011.0 469435.0 0
190009.0 469435.0 0
194007.0 469435.0 0
198006.0 469435.0 0
202005.0 469435.0 0
206004.0 469435.0 0
210003.0 469435.0 0
214002.0 469435.0 0
218002.0 469435.0 0
222001.0 469435.0 0
226001.0 469435.0 0
230001.0 469435.0 0
234001.0 469435.0 0
238000.0 469435.0 0
242000.0 469435.0 0
246000.0 469435.0 0
250000.0 469435.0 0
254000.0 469435.0 0
258000.0 469435.0 0
262000.0 469435.0 0
265999.0 469435.0 0
269999.0 469435.0 0
273999.0 469435.0 0
277999.0 469435.0 0
281998.0 469435.0 0
285998.0 469435.0 0
289997.0 469435.0 0
293996.0 469435.0 0
297995.0 469435.0 0
301994.0 469435.0 0
305993.0 469435.0 0
309991.0 469435.0 0
313989.0 469435.0 0
317986.0 469435.0 0
321983.0 469435.0 0
325979.0 469435.0 0
329974.0 469435.0 0
333969.0 469435.0 0
337962.0 469465.0 0
341955.0 469433.0 0
345943.0 469587.0 0
349930.0 469427.0 0
353915.0 469597.0 0
357898.0 469426.0 0
361876.0 469665.0 0
365856.0 469510.0 0
369835.0 469677.0 0
373812.0 469827.0 0
381839.0 469564.0 0
385835.0 469625.0 0
389821.0 469818.0 0
102184.0 469802.0 0
106180.0 469704.0 0
122196.0 469857.0 0
377804.0 469857.0 0
393820.0 469704.0 0
397816.0 469802.0 0
101935.0 473771.0 0
105941.0 473691.0 0
109939.0 473773.0 0
113936.0 473617.0 0
117934.0 473557.0 0
121922.0 473818.0 0
125919.0 473774.0 0
129952.0 473666.0 0
133981.0 473493.0 0
137978.0 473653.0 0
141995.0 473438.0 0
145993.0 473584.0 0
149997.0 473435.0 0
153994.0 473567.0 0
158000.0 473435.0 0
162000.0 473455.0 0
166000.0 473435.0 0
170000.0 473435.0 0
174000.0 473435.0 0
178000.0 473435.0 0
182000.0 473435.0 0
186000.0 473435.0 0
190000.0 473435.0 0
194000.0 473435.0 0
198000.0 473435.0 0
202000.0 473435.0 0
206000.0 473435.0 0
210000.0 473435.0 0
214000.0 473435.0 0
218000.0 473435.0 0
222000.0 473435.0 0
226000.0 473435.0 0
230000.0 473435.0 0
234000.0 473435.0 0
238000.0 473435.0 0
242000.0 473435.0 0
246000.0 473435.0 0
250000.0 473435.0 0
254000.0 473435.0 0
258000.0 473435.0 0
262000.0 473435.0 0
266000.0 473435.0 0
270000.0 473435.0 0
274000.0 473435.0 0
278000.0 473435.0 0
282000.0 473435.0 0
286000.0 473435.0 0
290000.0 473435.0 0
294000.0 473435.0 0
298000.0 473435.0 0
302000.0 473435.0 0
306000.0 473435.0 0
310000.0 473435.0 0
314000.0 473435.0 0
318000.0 473435.0 0
322000.0 473435.0 0
326000.0 473435.0 0
330000.0 473435.0 0
334000.0 473435.0 0
338000.0 473455.0 0
342000.0 473435.0 0
346006.0 473567.0 0
350003.0 473435.0 0
354007.0 473584.0 0
358005.0 473438.0 0
362022.0 473653.0 0
366019.0 473493.0 0
370048.0 473666.0 0
374081.0 473774.0 0
378078.0 473818.0 0
382066.0 473557.0 0
386064.0 473617.0 0
390061.0 473773.0 0
394059.0 473691.0 0
398065.0 473771.0 0
126024.0 477731.0 0
134017.0 477481.0 0
142006.0 477438.0 0
146003.0 477572.0 0
150000.0 477435.0 0
154001.0 477547.0 0
158000.0 477435.0 0
162000.0 477448.0 0
166000.0 477435.0 0
170000.0 477435.0 0
174000.0 477435.0 0
178000.0 477435.0 0
182000.0 477435.0 0
186000.0 477435.0 0
190000.0 477435.0 0
194000.0 477435.0 0
198000.0 477435.0 0
202000.0 477435.0 0
206000.0 477435.0 0
210000.0 477435.0 0
214000.0 477435.0 0
218000.0 477435.0 0
222000.0 477435.0 0
226000.0 477435.0 0
230000.0 477435.0 0
234000.0 477435.0 0
238000.0 477435.0 0
242000.0 477435.0 0
246000.0 477435.0 0
250000.0 477435.0 0
254000.0 477435.0 0
258000.0 477435.0 0
262000.0 477435.0 0
266000.0 477435.0 0
270000.0 477435.0 0
274000.0 477435.0 0
278000.0 477435.0 0
282000.0 477435.0 0
286000.0 477435.0 0
290000.0 477435.0 0
294000.0 477435.0 0
298000.0 477435.0 0
302000.0 477435.0 0
306000.0 477435.0 0
310000.0 477435.0 0
314000.0 477435.0 0
318000.0 477435.0 0
322000.0 477435.0 0
326000.0 477435.0 0
330000.0 477435.0 0
334000.0 477435.0 0
338000.0 477448.0 0
342000.0 477435.0 0
345999.0 477547.0 0
350000.0 477435.0 0
353997.0 477572.0 0
357994.0 477438.0 0
365983.0 477481.0 0
373976.0 477731.0 0
102011.0 477748.0 0
106010.0 477683.0 0
110011.0 477740.0 0
114009.0 477614.0 0
118008.0 477554.0 0
122025.0 477787.0 0
130022.0 477658.0 0
138012.0 477643.0 0
361988.0 477643.0 0
369978.0 477658.0 0
377975.0 477787.0 0
381992.0 477554.0 0
385991.0 477614.0 0
389989.0 477740.0 0
393990.0 477683.0 0
397989.0 477748.0 0
101998.0 481726.0 0
105998.0 481675.0 0
109998.0 481711.0 0
113997.0 481609.0 0
117997.0 481551.0 0
121991.0 481760.0 0
125990.0 481692.0 0
129996.0 481649.0 0
133999.0 481472.0 0
137998.0 481632.0 0
142000.0 481438.0 0
146000.0 481560.0 0
150000.0 481435.0 0
154000.0 481529.0 0
158000.0 481435.0 0
162000.0 481443.0 0
166000.0 481435.0 0
170000.0 481435.0 0
174000.0 481435.0 0
178000.0 481435.0 0
182000.0 481435.0 0
186000.0 481435.0 0
190000.0 481435.0 0
194000.0 481435.0 0
198000.0 481435.0 0
202000.0 481435.0 0
206000.0 481435.0 0
210000.0 481435.0 0
214000.0 481435.0 0
218000.0 481435.0 0
222000.0 481435.0 0
226000.0 481435.0 0
230000.0 481435.0 0
234000.0 481435.0 0
238000.0 481435.0 0
242000.0 481435.0 0
246000.0 481435.0 0
250000.0 481435.0 0
254000.0 481435.0 0
258000.0 481435.0 0
262000.0 481435.0 0
266000.0 481435.0 0
270000.0 481435.0 0
274000.0 481435.0 0
278000.0 481435.0 0
282000.0 481435.0 0
286000.0 481435.0 0
290000.0 481435.0 0
294000.0 481435.0 0
298000.0 481435.0 0
302000.0 481435.0 0
306000.0 481435.0 0
310000.0 481435.0 0
314000.0 481435.0 0
318000.0 481435.0 0
322000.0 481435.0 0
326000.0 481435.0 0
330000.0 481435.0 0
334000.0 481435.0 0
338000.0 481443.0 0
342000.0 481435.0 0
346000.0 481529.0 0
350000.0 481435.0 0
354000.0 481560.0 0
358000.0 481438.0 0
362002.0 481632.0 0
366001.0 481472.0 0
370004.0 481649.0 0
374010.0 481692.0 0
378009.0 481760.0 0
382003.0 481551.0 0
386003.0 481609.0 0
390002.0 481711.0 0
394002.0 481675.0 0
398002.0 481726.0 0
102000.0 485705.0 0
106000.0 485666.0 0
110000.0 485686.0 0
114000.0 485604.0 0
118000.0 485547.0 0
122003.0 485735.0 0
126002.0 485656.0 0
130002.0 485639.0 0
134000.0 485464.0 0
138000.0 485620.0 0
142000.0 485438.0 0
146000.0 485548.0 0
150000.0 485435.0 0
154000.0 485512.0 0
158000.0 485435.0 0
162000.0 485440.0 0
166000.0 485435.0 0
170000.0 485435.0 0
174000.0 485435.0 0
178000.0 485435.0 0
182000.0 485435.0 0
186000.0 485435.0 0
190000.0 485435.0 0
194000.0 485435.0 0
198000.0 485435.0 0
202000.0 485435.0 0
206000.0 485435.0 0
210000.0 485435.0 0
214000.0 485435.0 0
218000.0 485435.0 0
222000.0 485435.0 0
226000.0 485435.0 0
230000.0 485435.0 0
234000.0 485435.0 0
238000.0 485435.0 0
242000.0 485435.0 0
246000.0 485435.0 0
250000.0 485435.0 0
254000.0 485435.0 0
258000.0 485435.0 0
262000.0 485435.0 0
266000.0 485435.0 0
270000.0 485435.0 0
274000.0 485435.0 0
278000.0 485435.0 0
282000.0 485435.0 0
286000.0 485435.0 0
290000.0 485435.0 0
294000.0 485435.0 0
298000.0 485435.0 0
302000.0 485435.0 0
306000.0 485435.0 0
310000.0 485435.0 0
314000.0 485435.0 0
318000.0 485435.0 0
322000.0 485435.0 0
326000.0 485435.0 0
330000.0 485435.0 0
334000.0 485435.0 0
338000.0 485440.0 0
342000.0 485435.0 0
346000.0 485512.0 0
350000.0 485435.0 0
354000.0 485548.0 0
358000.0 485438.0 0
362000.0 485620.0 0
366000.0 485464.0 0
369998.0 485639.0 0
373998.0 485656.0 0
377997.0 485735.0 0
382000.0 485547.0 0
386000.0 485604.0 0
390000.0 485686.0 0
394000.0 485666.0 0
398000.0 485705.0 0
102000.0 489687.0 0
106000.0 489656.0 0
110000.0 489663.0 0
114000.0 489597.0 0
118000.0 489542.0 0
121999.0 489711.0 0
126000.0 489624.0 0
130000.0 489627.0 0
134000.0 489458.0 0
138000.0 489607.0 0
142000.0 489438.0 0
146000.0 489536.0 0
150000.0 489435.0 0
154000.0 489498.0 0
158000.0 489435.0 0
162000.0 489438.0 0
166000.0 489435.0 0
170000.0 489435.0 0
174000.0 489435.0 0
178000.0 489435.0 0
182000.0 489435.0 0
186000.0 489435.0 0
190000.0 489435.0 0
194000.0 489435.0 0
198000.0 489435.0 0
202000.0 489435.0 0
206000.0 489435.0 0
210000.0 489435.0 0
214000.0 489435.0 0
218000.0 489435.0 0
222000.0 489435.0 0
226000.0 489435.0 0
230000.0 489435.0 0
234000.0 489435.0 0
238000.0 489435.0 0
242000.0 489435.0 0
246000.0 489435.0 0
250000.0 489435.0 0
254000.0 489435.0 0
258000.0 489435.0 0
262000.0 489435.0 0
266000.0 489435.0 0
270000.0 489435.0 0
274000.0 489435.0 0
278000.0 489435.0 0
282000.0 489435.0 0
286000.0 489435.0 0
290000.0 489435.0 0
294000.0 489435.0 0
298000.0 489435.0 0
302000.0 489435.0 0
306000.0 489435.0 0
310000.0 489435.0 0
314000.0 489435.0 0
318000.0 489435.0 0
322000.0 489435.0 0
326000.0 489435.0 0
330000.0 489435.0 0
334000.0 489435.0 0
338000.0 489438.0 0
342000.0 489435.0 0
346000.0 489498.0 0
350000.0 489435.0 0
354000.0 489536.0 0
358000.0 489438.0 0
362000.0 489607.0 0
366000.0 489458.0 0
370000.0 489627.0 0
374000.0 489624.0 0
378001.0 489711.0 0
382000.0 489542.0 0
386000.0 489597.0 0
390000.0 489663.0 0
394000.0 489656.0 0
398000.0 489687.0 0
102000.0 493669.0 0
106000.0 493645.0 0
110000.0 493643.0 0
114000.0 493590.0 0
118000.0 493537.0 0
122000.0 493689.0 0
126000.0 493596.0 0
130000.0 493614.0 0
134000.0 493453.0 0
138000.0 493594.0 0
142000.0 493438.0 0
146000.0 493524.0 0
150000.0 493435.0 0
154000.0 493485.0 0
158000.0 493435.0 0
162000.0 493437.0 0
166000.0 493435.0 0
170000.0 493435.0 0
174000.0 493435.0 0
178000.0 493435.0 0
182000.0 493435.0 0
186000.0 493435.0 0
190000.0 493435.0 0
194000.0 493435.0 0
198000.0 493435.0 0
202000.0 493435.0 0
206000.0 493435.0 0
210000.0 493435.0 0
214000.0 493435.0 0
218000.0 493435.0 0
222000.0 493435.0 0
226000.0 493435.0 0
230000.0 493435.0 0
234000.0 493435.0 0
238000.0 493435.0 0
242000.0 493435.0 0
246000.0 493435.0 0
250000.0 493435.0 0
254000.0 493435.0 0
258000.0 493435.0 0
262000.0 493435.0 0
266000.0 493435.0 0
270000.0 493435.0 0
274000.0 493435.0 0
278000.0 493435.0 0
282000.0 493435.0 0
286000.0 493435.0 0
290000.0 493435.0 0
294000.0 493435.0 0
298000.0 493435.0 0
302000.0 493435.0 0
306000.0 493435.0 0
310000.0 493435.0 0
314000.0 493435.0 0
318000.0 493435.0 0
322000.0 493435.0 0
326000.0 493435.0 0
330000.0 493435.0 0
334000.0 493435.0 0
338000.0 493437.0 0
342000.0 493435.0 0
346000.0 493485.0 0
350000.0 493435.0 0
354000.0 493524.0 0
358000.0 493438.0 0
362000.0 493594.0 0
366000.0 493453.0 0
370000.0 493614.0 0
374000.0 493596.0 0
378000.0 493689.0 0
382000.0 493537.0 0
386000.0 493590.0 0
390000.0 493643.0 0
394000.0 493645.0 0
398000.0 493669.0 0
102000.0 497653.0 0
106000.0 497635.0 0
110000.0 497625.0 0
114000.0 497582.0 0
118000.0 497531.0 0
122000.0 497668.0 0
126000.0 497570.0 0
130000.0 497601.0 0
134000.0 497449.0 0
138000.0 497581.0 0
142000.0 497437.0 0
146000.0 497514.0 0
150000.0 497435.0 0
154000.0 497475.0 0
158000.0 497435.0 0
162000.0 497436.0 0
166000.0 497435.0 0
170000.0 497435.0 0
174000.0 497435.0 0
178000.0 497435.0 0
182000.0 497435.0 0
186000.0 497435.0 0
190000.0 497435.0 0
194000.0 497435.0 0
198000.0 497435.0 0
202000.0 497435.0 0
206000.0 497435.0 0
210000.0 497435.0 0
214000.0 497435.0 0
218000.0 497435.0 0
222000.0 497435.0 0
226000.0 497435.0 0
230000.0 497435.0 0
234000.0 497435.0 0
238000.0 497435.0 0
242000.0 497435.0 0
246000.0 497435.0 0
250000.0 497435.0 0
254000.0 497435.0 0
258000.0 497435.0 0
262000.0 497435.0 0
266000.0 497435.0 0
270000.0 497435.0 0
274000.0 497435.0 0
278000.0 497435.0 0
282000.0 497435.0 0
286000.0 497435.0 0
290000.0 497435.0 0
294000.0 497435.0 0
298000.0 497435.0 0
302000.0 497435.0 0
306000.0 497435.0 0
310000.0 497435.0 0
314000.0 497435.0 0
318000.0 497435.0 0
322000.0 497435.0 0
326000.0 497435.0 0
330000.0 497435.0 0
334000.0 497435.0 0
338000.0 497436.0 0
342000.0 497435.0 0
346000.0 497475.0 0
350000.0 497435.0 0
354000.0 497514.0 0
358000.0 497437.0 0
362000.0 497581.0 0
366000.0 497449.0 0
370000.0 497601.0 0
374000.0 497570.0 0
378000.0 497668.0 0
382000.0 497531.0 0
386000.0 497582.0 0
390000.0 497625.0 0
394000.0 497635.0 0
398000.0 497653.0 0
102000.0 501638.0 0
106000.0 501624.0 0
110000.0 501609.0 0
114000.0 501573.0 0
118000.0 501524.0 0
122000.0 501649.0 0
126000.0 501549.0 0
130000.0 501588.0 0
134000.0 501446.0 0
138000.0 501568.0 0
142000.0 501437.0 0
146000.0 501503.0 0
150000.0 501435.0 0
154000.0 501466.0 0
158000.0 501435.0 0
162000.0 501435.0 0
166000.0 501435.0 0
170000.0 501435.0 0
174000.0 501435.0 0
178000.0 501435.0 0
182000.0 501435.0 0
186000.0 501435.0 0
190000.0 501435.0 0
194000.0 501435.0 0
198000.0 501435.0 0
202000.0 501435.0 0
206000.0 501435.0 0
210000.0 501435.0 0
214000.0 501435.0 0
218000.0 501435.0 0
222000.0 501435.0 0
226000.0 501435.0 0
230000.0 501435.0 0
234000.0 501435.0 0
238000.0 501435.0 0
242000.0 501435.0 0
246000.0 501435.0 0
250000.0 501435.0 0
254000.0 501435.0 0
258000.0 501435.0 0
262000.0 501435.0 0
266000.0 501435.0 0
270000.0 501435.0 0
274000.0 501435.0 0
278000.0 501435.0 0
282000.0 501435.0 0
286000.0 501435.0 0
290000.0 501435.0 0
294000.0 501435.0 0
298000.0 501435.0 0
302000.0 501435.0 0
306000.0 501435.0 0
310000.0 501435.0 0
314000.0 501435.0 0
318000.0 501435.0 0
322000.0 501435.0 0
326000.0 501435.0 0
330000.0 501435.0 0
334000.0 501435.0 0
338000.0 501435.0 0
342000.0 501435.0 0
346000.0 501466.0 0
350000.0 501435.0 0
354000.0 501503.0 0
358000.0 501437.0 0
362000.0 501568.0 0
366000.0 501446.0 0
370000.0 501588.0 0
374000.0 501549.0 0
378000.0 501649.0 0
382000.0 501524.0 0
386000.0 501573.0 0
390000.0 501609.0 0
394000.0 501624.0 0
398000.0 501638.0 0
102000.0 505625.0 0
106000.0 505612.0 0
110000.0 505594.0 0
114000.0 505565.0 0
118000.0 505518.0 0
122000.0 505631.0 0
126000.0 505530.0 0
130000.0 505575.0 0
134000.0 505444.0 0
138000.0 505555.0 0
142000.0 505437.0 0
146000.0 505494.0 0
150000.0 505435.0 0
154000.0 505459.0 0
158000.0 505435.0 0
162000.0 505435.0 0
166000.0 505435.0 0
170000.0 505435.0 0
174000.0 505435.0 0
178000.0 505435.0 0
182000.0 505435.0 0
186000.0 505435.0 0
190000.0 505435.0 0
194000.0 505435.0 0
198000.0 505435.0 0
202000.0 505435.0 0
206000.0 505435.0 0
210000.0 505435.0 0
214000.0 505435.0 0
218000.0 505435.0 0
222000.0 505435.0 0
226000.0 505435.0 0
230000.0 505435.0 0
234000.0 505435.0 0
238000.0 505435.0 0
242000.0 505435.0 0
246000.0 505435.0 0
250000.0 505435.0 0
254000.0 505435.0 0
258000.0 505435.0 0
262000.0 505435.0 0
266000.0 505435.0 0
270000.0 505435.0 0
274000.0 505435.0 0
278000.0 505435.0 0
282000.0 505435.0 0
286000.0 505435.0 0
290000.0 505435.0 0
294000.0 505435.0 0
298000.0 505435.0 0
302000.0 505435.0 0
306000.0 505435.0 0
310000.0 505435.0 0
314000.0 505435.0 0
318000.0 505435.0 0
322000.0 505435.0 0
326000.0 505435.0 0
330000.0 505435.0 0
334000.0 505435.0 0
338000.0 505435.0 0
342000.0 505435.0 0
346000.0 505459.0 0
350000.0 505435.0 0
354000.0 505494.0 0
358000.0 505437.0 0
362000.0 505555.0 0
366000.0 505444.0 0
370000.0 505575.0 0
374000.0 505530.0 0
378000.0 505631.0 0
382000.0 505518.0 0
386000.0 505565.0 0
390000.0 505594.0 0
394000.0 505612.0 0
398000.0 505625.0 0
102000.0 509612.0 0
106000.0 509602.0 0
110000.0 509581.0 0
114000.0 509556.0 0
118000.0 509511.0 0
122000.0 509614.0 0
126000.0 509514.0 0
130000.0 509563.0 0
134000.0 509442.0 0
138000.0 509543.0 0
142000.0 509437.0 0
146000.0 509486.0 0
150000.0 509435.0 0
154000.0 509453.0 0
158000.0 509435.0 0
162000.0 509435.0 0
166000.0 509435.0 0
170000.0 509435.0 0
174000.0 509435.0 0
178000.0 509435.0 0
182000.0 509435.0 0
186000.0 509435.0 0
190000.0 509435.0 0
194000.0 509435.0 0
198000.0 509435.0 0
202000.0 509435.0 0
206000.0 509435.0 0
210000.0 509435.0 0
214000.0 509435.0 0
218000.0 509435.0 0
222000.0 509435.0 0
226000.0 509435.0 0
230000.0 509435.0 0
234000.0 509435.0 0
238000.0 509435.0 0
242000.0 509435.0 0
246000.0 509435.0 0
250000.0 509435.0 0
254000.0 509435.0 0
258000.0 509435.0 0
262000.0 509435.0 0
266000.0 509435.0 0
270000.0 509435.0 0
274000.0 509435.0 0
278000.0 509435.0 0
282000.0 509435.0 0
286000.0 509435.0 0
290000.0 509435.0 0
294000.0 509435.0 0
298000.0 509435.0 0
302000.0 509435.0 0
306000.0 509435.0 0
310000.0 509435.0 0
314000.0 509435.0 0
318000.0 509435.0 0
322000.0 509435.0 0
326000.0 509435.0 0
330000.0 509435.0 0
334000.0 509435.0 0
338000.0 509435.0 0
342000.0 509435.0 0
346000.0 509453.0 0
350000.0 509435.0 0
354000.0 509486.0 0
358000.0 509437.0 0
362000.0 509543.0 0
366000.0 509442.0 0
370000.0 509563.0 0
374000.0 509514.0 0
378000.0 509614.0 0
382000.0 509511.0 0
386000.0 509556.0 0
390000.0 509581.0 0
394000.0 509602.0 0
398000.0 509612.0 0
102000.0 513600.0 0
106000.0 513591.0 0
110000.0 513569.0 0
114000.0 513548.0 0
118000.0 513505.0 0
122000.0 513598.0 0
126000.0 513500.0 0
130000.0 513551.0 0
134000.0 513441.0 0
138000.0 513531.0 0
142000.0 513437.0 0
146000.0 513478.0 0
150000.0 513435.0 0
154000.0 513448.0 0
158000.0 513435.0 0
162000.0 513435.0 0
166000.0 513435.0 0
170000.0 513435.0 0
174000.0 513435.0 0
178000.0 513435.0 0
182000.0 513435.0 0
186000.0 513435.0 0
190000.0 513435.0 0
194000.0 513435.0 0
198000.0 513435.0 0
202000.0 513435.0 0
206000.0 513435.0 0
210000.0 513435.0 0
214000.0 513435.0 0
218000.0 513435.0 0
222000.0 513435.0 0
226000.0 513435.0 0
230000.0 513435.0 0
234000.0 513435.0 0
238000.0 513435.0 0
242000.0 513435.0 0
246000.0 513435.0 0
250000.0 513435.0 0
254000.0 513435.0 0
258000.0 513435.0 0
262000.0 513435.0 0
266000.0 513435.0 0
270000.0 513435.0 0
274000.0 513435.0 0
278000.0 513435.0 0
282000.0 513435.0 0
286000.0 513435.0 0
290000.0 513435.0 0
294000.0 513435.0 0
298000.0 513435.0 0
302000.0 513435.0 0
306000.0 513435.0 0
310000.0 513435.0 0
314000.0 513435.0 0
318000.0 513435.0 0
322000.0 513435.0 0
326000.0 513435.0 0
330000.0 513435.0 0
334000.0 513435.0 0
338000.0 513435.0 0
342000.0 513435.0 0
346000.0 513448.0 0
350000.0 513435.0 0
354000.0 513478.0 0
358000.0 513437.0 0
362000.0 513531.0 0
366000.0 513441.0 0
370000.0 513551.0 0
374000.0 513500.0 0
378000.0 513598.0 0
382000.0 513505.0 0
386000.0 513548.0 0
390000.0 513569.0 0
394000.0 513591.0 0
398000.0 513600.0 0
102000.0 517588.0 0
106000.0 517580.0 0
110000.0 517558.0 0
114000.0 517539.0 0
118000.0 517499.0 0
122000.0 517582.0 0
126000.0 517488.0 0
130000.0 517540.0 0
134000.0 517440.0 0
138000.0 517520.0 0
142000.0 517437.0 0
146000.0 517471.0 0
150000.0 517435.0 0
154000.0 517445.0 0
158000.0 517435.0 0
162000.0 517435.0 0
166000.0 517435.0 0
170000.0 517435.0 0
174000.0 517435.0 0
178000.0 517435.0 0
182000.0 517435.0 0
186000.0 517435.0 0
190000.0 517435.0 0
194000.0 517435.0 0
198000.0 517435.0 0
202000.0 517435.0 0
206000.0 517435.0 0
210000.0 517435.0 0
214000.0 517435.0 0
218000.0 517435.0 0
222000.0 517435.0 0
226000.0 517435.0 0
230000.0 517435.0 0
234000.0 517435.0 0
238000.0 517435.0 0
242000.0 517435.0 0
246000.0 517435.0 0
250000.0 517435.0 0
254000.0 517435.0 0
258000.0 517435.0 0
262000.0 517435.0 0
266000.0 517435.0 0
270000.0 517435.0 0
274000.0 517435.0 0
278000.0 517435.0 0
282000.0 517435.0 0
286000.0 517435.0 0
290000.0 517435.0 0
294000.0 517435.0 0
298000.0 517435.0 0
302000.0 517435.0 0
306000.0 517435.0 0
310000.0 517435.0 0
314000.0 517435.0 0
318000.0 517435.0 0
322000.0 517435.0 0
326000.0 517435.0 0
330000.0 517435.0 0
334000.0 517435.0 0
338000.0 517435.0 0
342000.0 517435.0 0
346000.0 517445.0 0
350000.0 517435.0 0
354000.0 517471.0 0
358000.0 517437.0 0
362000.0 517520.0 0
366000.0 517440.0 0
370000.0 517540.0 0
374000.0 517488.0 0
378000.0 517582.0 0
382000.0 517499.0 0
386000.0 517539.0 0
390000.0 517558.0 0
394000.0 517580.0 0
398000.0 517588.0 0
102000.0 521578.0 0
106000.0 521570.0 0
110000.0 521548.0 0
114000.0 521531.0 0
118000.0 521493.0 0
122000.0 521568.0 0
126000.0 521479.0 0
130000.0 521529.0 0
134000.0 521439.0 0
138000.0 521510.0 0
142000.0 521436.0 0
146000.0 521465.0 0
150000.0 521435.0 0
154000.0 521442.0 0
158000.0 521435.0 0
162000.0 521435.0 0
166000.0 521435.0 0
170000.0 521435.0 0
174000.0 521435.0 0
178000.0 521435.0 0
182000.0 521435.0 0
186000.0 521435.0 0
190000.0 521435.0 0
194000.0 521435.0 0
198000.0 521435.0 0
202000.0 521435.0 0
206000.0 521435.0 0
210000.0 521435.0 0
214000.0 521435.0 0
218000.0 521435.0 0
222000.0 521435.0 0
226000.0 521435.0 0
230000.0 521435.0 0
234000.0 521435.0 0
238000.0 521435.0 0
242000.0 521435.0 0
246000.0 521435.0 0
250000.0 521435.0 0
254000.0 521435.0 0
258000.0 521435.0 0
262000.0 521435.0 0
266000.0 521435.0 0
270000.0 521435.0 0
274000.0 521435.0 0
278000.0 521435.0 0
282000.0 521435.0 0
286000.0 521435.0 0
290000.0 521435.0 0
294000.0 521435.0 0
298000.0 521435.0 0
302000.0 521435.0 0
306000.0 521435.0 0
310000.0 521435.0 0
314000.0 521435.0 0
318000.0 521435.0 0
322000.0 521435.0 0
326000.0 521435.0 0
330000.0 521435.0 0
334000.0 521435.0 0
338000.0 521435.0 0
342000.0 521435.0 0
346000.0 521442.0 0
350000.0 521435.0 0
354000.0 521465.0 0
358000.0 521436.0 0
362000.0 521510.0 0
366000.0 521439.0 0
370000.0 521529.0 0
374000.0 521479.0 0
378000.0 521568.0 0
382000.0 521493.0 0
386000.0 521531.0 0
390000.0 521548.0 0
394000.0 521570.0 0
398000.0 521578.0 0
102000.0 525567.0 0
106000.0 525560.0 0
110000.0 525538.0 0
114000.0 525524.0 0
118000.0 525487.0 0
122000.0 525555.0 0
126000.0 525471.0 0
130000.0 525519.0 0
134000.0 525439.0 0
138000.0 525500.0 0
142000.0 525436.0 0
146000.0 525460.0 0
150000.0 525435.0 0
154000.0 525440.0 0
158000.0 525435.0 0
162000.0 525435.0 0
166000.0 525435.0 0
170000.0 525435.0 0
174000.0 525435.0 0
178000.0 525435.0 0
182000.0 525435.0 0
186000.0 525435.0 0
190000.0 525435.0 0
194000.0 525435.0 0
198000.0 525435.0 0
202000.0 525435.0 0
206000.0 525435.0 0
210000.0 525435.0 0
214000.0 525435.0 0
218000.0 525435.0 0
222000.0 525435.0 0
226000.0 525435.0 0
230000.0 525435.0 0
234000.0 525435.0 0
238000.0 525435.0 0
242000.0 525435.0 0
246000.0 525435.0 0
250000.0 525435.0 0
254000.0 525435.0 0
258000.0 525435.0 0
262000.0 525435.0 0
266000.0 525435.0 0
270000.0 525435.0 0
274000.0 525435.0 0
278000.0 525435.0 0
282000.0 525435.0 0
286000.0 525435.0 0
290000.0 525435.0 0
294000.0 525435.0 0
298000.0 525435.0 0
302000.0 525435.0 0
306000.0 525435.0 0
310000.0 525435.0 0
314000.0 525435.0 0
318000.0 525435.0 0
322000.0 525435.0 0
326000.0 525435.0 0
330000.0 525435.0 0
334000.0 525435.0 0
338000.0 525435.0 0
342000.0 525435.0 0
346000.0 525440.0 0
350000.0 525435.0 0
354000.0 525460.0 0
358000.0 525436.0 0
362000.0 525500.0 0
366000.0 525439.0 0
370000.0 525519.0 0
374000.0 525471.0 0
378000.0 525555.0 0
382000.0 525487.0 0
386000.0 525524.0 0
390000.0 525538.0 0
394000.0 525560.0 0
398000.0 525567.0 0
102000.0 529558.0 0
106000.0 529551.0 0
110000.0 529529.0 0
114000.0 529516.0 0
118000.0 529482.0 0
122000.0 529542.0 0
126000.0 529464.0 0
130000.0 529510.0 0
134000.0 529438.0 0
138000.0 529492.0 0
142000.0 529436.0 0
146000.0 529455.0 0
150000.0 529435.0 0
154000.0 529439.0 0
158000.0 529435.0 0
162000.0 529435.0 0
166000.0 529435.0 0
170000.0 529435.0 0
174000.0 529435.0 0
178000.0 529435.0 0
182000.0 529435.0 0
186000.0 529435.0 0
190000.0 529435.0 0
194000.0 529435.0 0
198000.0 529435.0 0
202000.0 529435.0 0
206000.0 529435.0 0
210000.0 529435.0 0
214000.0 529435.0 0
218000.0 529435.0 0
222000.0 529435.0 0
226000.0 529435.0 0
230000.0 529435.0 0
234000.0 529435.0 0
238000.0 529435.0 0
242000.0 529435.0 0
246000.0 529435.0 0
250000.0 529435.0 0
254000.0 529435.0 0
258000.0 529435.0 0
262000.0 529435.0 0
266000.0 529435.0 0
270000.0 529435.0 0
274000.0 529435.0 0
278000.0 529435.0 0
282000.0 529435.0 0
286000.0 529435.0 0
290000.0 529435.0 0
294000.0 529435.0 0
298000.0 529435.0 0
302000.0 529435.0 0
306000.0 529435.0 0
310000.0 529435.0 0
314000.0 529435.0 0
318000.0 529435.0 0
322000.0 529435.0 0
326000.0 529435.0 0
330000.0 529435.0 0
334000.0 529435.0 0
338000.0 529435.0 0
342000.0 529435.0 0
346000.0 529439.0 0
350000.0 529435.0 0
354000.0 529455.0 0
358000.0 529436.0 0
362000.0 529492.0 0
366000.0 529438.0 0
370000.0 529510.0 0
374000.0 529464.0 0
378000.0 529542.0 0
382000.0 529482.0 0
386000.0 529516.0 0
390000.0 529529.0 0
394000.0 529551.0 0
398000.0 529558.0 0
102000.0 533549.0 0
106000.0 533542.0 0
110000.0 533521.0 0
114000.0 533509.0 0
118000.0 533477.0 0
122000.0 533530.0 0
126000.0 533458.0 0
130000.0 533502.0 0
134000.0 533438.0 0
138000.0 533484.0 0
142000.0 533436.0 0
146000.0 533451.0 0
150000.0 533435.0 0
154000.0 533438.0 0
158000.0 533435.0 0
162000.0 533435.0 0
166000.0 533435.0 0
170000.0 533435.0 0
174000.0 533435.0 0
178000.0 533435.0 0
182000.0 533435.0 0
186000.0 533435.0 0
190000.0 533435.0 0
194000.0 533435.0 0
198000.0 533435.0 0
202000.0 533435.0 0
206000.0 533435.0 0
210000.0 533435.0 0
214000.0 533435.0 0
218000.0 533435.0 0
222000.0 533435.0 0
226000.0 533435.0 0
230000.0 533435.0 0
234000.0 533435.0 0
238000.0 533435.0 0
242000.0 533435.0 0
246000.0 533435.0 0
250000.0 533435.0 0
254000.0 533435.0 0
258000.0 533435.0 0
262000.0 533435.0 0
266000.0 533435.0 0
270000.0 533435.0 0
274000.0 533435.0 0
278000.0 533435.0 0
282000.0 533435.0 0
286000.0 533435.0 0
290000.0 533435.0 0
294000.0 533435.0 0
298000.0 533435.0 0
302000.0 533435.0 0
306000.0 533435.0 0
310000.0 533435.0 0
314000.0 533435.0 0
318000.0 533435.0 0
322000.0 533435.0 0
326000.0 533435.0 0
330000.0 533435.0 0
334000.0 533435.0 0
338000.0 533435.0 0
342000.0 533435.0 0
346000.0 533438.0 0
350000.0 533435.0 0
354000.0 533451.0 0
358000.0 533436.0 0
362000.0 533484.0 0
366000.0 533438.0 0
370000.0 533502.0 0
374000.0 533458.0 0
378000.0 533530.0 0
382000.0 533477.0 0
386000.0 533509.0 0
390000.0 533521.0 0
394000.0 533542.0 0
398000.0 533549.0 0
126000.0 537454.0 0
134000.0 537437.0 0
138000.0 537477.0 0
142000.0 537436.0 0
146000.0 537448.0 0
150000.0 537435.0 0
154000.0 537437.0 0
158000.0 537435.0 0
162000.0 537435.0 0
166000.0 537435.0 0
170000.0 537435.0 0
174000.0 537435.0 0
178000.0 537435.0 0
182000.0 537435.0 0
186000.0 537435.0 0
190000.0 537435.0 0
194000.0 537435.0 0
198000.0 537435.0 0
202000.0 537435.0 0
206000.0 537435.0 0
210000.0 537435.0 0
214000.0 537435.0 0
218000.0 537435.0 0
222000.0 537435.0 0
226000.0 537435.0 0
230000.0 537435.0 0
234000.0 537435.0 0
238000.0 537435.0 0
242000.0 537435.0 0
246000.0 537435.0 0
250000.0 537435.0 0
254000.0 537435.0 0
258000.0 537435.0 0
262000.0 537435.0 0
266000.0 537435.0 0
270000.0 537435.0 0
274000.0 537435.0 0
278000.0 537435.0 0
282000.0 537435.0 0
286000.0 537435.0 0
290000.0 537435.0 0
294000.0 537435.0 0
298000.0 537435.0 0
302000.0 537435.0 0
306000.0 537435.0 0
310000.0 537435.0 0
314000.0 537435.0 0
318000.0 537435.0 0
322000.0 537435.0 0
326000.0 537435.0 0
330000.0 537435.0 0
334000.0 537435.0 0
338000.0 537435.0 0
342000.0 537435.0 0
346000.0 537437.0 0
350000.0 537435.0 0
354000.0 537448.0 0
358000.0 537436.0 0
362000.0 537477.0 0
366000.0 537437.0 0
374000.0 537454.0 0
102000.0 537540.0 0
106000.0 537534.0 0
110000.0 537513.0 0
114000.0 537502.0 0
118000.0 537473.0 0
122000.0 537520.0 0
130000.0 537494.0 0
370000.0 537494.0 0
378000.0 537520.0 0
382000.0 537473.0 0
386000.0 537502.0 0
390000.0 537513.0 0
394000.0 537534.0 0
398000.0 537540.0 0
102000.0 541532.0 0
106000.0 541526.0 0
110000.0 541506.0 0
114000.0 541496.0 0
118000.0 541469.0 0
122000.0 541510.0 0
126000.0 541450.0 0
130000.0 541487.0 0
134000.0 541437.0 0
138000.0 541471.0 0
142000.0 541436.0 0
146000.0 541445.0 0
150000.0 541435.0 0
154000.0 541436.0 0
158000.0 541435.0 0
162000.0 541435.0 0
166000.0 541435.0 0
170000.0 541435.0 0
174000.0 541435.0 0
178000.0 541435.0 0
182000.0 541435.0 0
186000.0 541435.0 0
190000.0 541435.0 0
194000.0 541435.0 0
198000.0 541435.0 0
202000.0 541435.0 0
206000.0 541435.0 0
210000.0 541435.0 0
214000.0 541435.0 0
218000.0 541435.0 0
222000.0 541435.0 0
226000.0 541435.0 0
230000.0 541435.0 0
234000.0 541435.0 0
238000.0 541435.0 0
242000.0 541435.0 0
246000.0 541435.0 0
250000.0 541435.0 0
254000.0 541435.0 0
258000.0 541435.0 0
262000.0 541435.0 0
266000.0 541435.0 0
270000.0 541435.0 0
274000.0 541435.0 0
278000.0 541435.0 0
282000.0 541435.0 0
286000.0 541435.0 0
290000.0 541435.0 0
294000.0 541435.0 0
298000.0 541435.0 0
302000.0 541435.0 0
306000.0 541435.0 0
310000.0 541435.0 0
314000.0 541435.0 0
318000.0 541435.0 0
322000.0 541435.0 0
326000.0 541435.0 0
330000.0 541435.0 0
334000.0 541435.0 0
338000.0 541435.0 0
342000.0 541435.0 0
346000.0 541436.0 0
350000.0 541435.0 0
354000.0 541445.0 0
358000.0 541436.0 0
362000.0 541471.0 0
366000.0 541437.0 0
370000.0 541487.0 0
374000.0 541450.0 0
378000.0 541510.0 0
382000.0 541469.0 0
386000.0 541496.0 0
390000.0 541506.0 0
394000.0 541526.0 0
398000.0 541532.0 0
102000.0 545524.0 0
106000.0 545518.0 0
110000.0 545499.0 0
114000.0 545490.0 0
118000.0 545465.0 0
122000.0 545501.0 0
126000.0 545447.0 0
130000.0 545480.0 0
134000.0 545437.0 0
138000.0 545465.0 0
142000.0 545436.0 0
146000.0 545443.0 0
150000.0 545435.0 0
154000.0 545436.0 0
158000.0 545435.0 0
162000.0 545435.0 0
166000.0 545435.0 0
170000.0 545435.0 0
174000.0 545435.0 0
178000.0 545435.0 0
182000.0 545435.0 0
186000.0 545435.0 0
190000.0 545435.0 0
194000.0 545435.0 0
198000.0 545435.0 0
202000.0 545435.0 0
206000.0 545435.0 0
210000.0 545435.0 0
214000.0 545435.0 0
218000.0 545435.0 0
222000.0 545435.0 0
226000.0 545435.0 0
230000.0 545435.0 0
234000.0 545435.0 0
238000.0 545435.0 0
242000.0 545435.0 0
246000.0 545435.0 0
250000.0 545435.0 0
254000.0 545435.0 0
258000.0 545435.0 0
262000.0 545435.0 0
266000.0 545435.0 0
270000.0 545435.0 0
274000.0 545435.0 0
278000.0 545435.0 0
282000.0 545435.0 0
286000.0 545435.0 0
290000.0 545435.0 0
294000.0 545435.0 0
298000.0 545435.0 0
302000.0 545435.0 0
306000.0 545435.0 0
310000.0 545435.0 0
314000.0 545435.0 0
318000.0 545435.0 0
322000.0 545435.0 0
326000.0 545435.0 0
330000.0 545435.0 0
334000.0 545435.0 0
338000.0 545435.0 0
342000.0 545435.0 0
346000.0 545436.0 0
350000.0 545435.0 0
354000.0 545443.0 0
358000.0 545436.0 0
362000.0 545465.0 0
366000.0 545437.0 0
370000.0 545480.0 0
374000.0 545447.0 0
378000.0 545501.0 0
382000.0 545465.0 0
386000.0 545490.0 0
390000.0 545499.0 0
394000.0 545518.0 0
398000.0 545524.0 0
102000.0 549517.0 0
106000.0 549511.0 0
110000.0 549493.0 0
114000.0 549485.0 0
118000.0 549461.0 0
122000.0 549493.0 0
126000.0 549445.0 0
130000.0 549475.0 0
134000.0 549437.0 0
138000.0 549460.0 0
142000.0 549436.0 0
146000.0 549441.0 0
150000.0 549435.0 0
154000.0 549436.0 0
158000.0 549435.0 0
162000.0 549435.0 0
166000.0 549435.0 0
170000.0 549435.0 0
174000.0 549435.0 0
178000.0 549435.0 0
182000.0 549435.0 0
186000.0 549435.0 0
190000.0 549435.0 0
194000.0 549435.0 0
198000.0 549435.0 0
202000.0 549435.0 0
206000.0 549435.0 0
210000.0 549435.0 0
214000.0 549435.0 0
218000.0 549435.0 0
222000.0 549435.0 0
226000.0 549435.0 0
230000.0 549435.0 0
234000.0 549435.0 0
238000.0 549435.0 0
242000.0 549435.0 0
246000.0 549435.0 0
250000.0 549435.0 0
254000.0 549435.0 0
258000.0 549435.0 0
262000.0 549435.0 0
266000.0 549435.0 0
270000.0 549435.0 0
274000.0 549435.0 0
278000.0 549435.0 0
282000.0 549435.0 0
286000.0 549435.0 0
290000.0 549435.0 0
294000.0 549435.0 0
298000.0 549435.0 0
302000.0 549435.0 0
306000.0 549435.0 0
310000.0 549435.0 0
314000.0 549435.0 0
318000.0 549435.0 0
322000.0 549435.0 0
326000.0 549435.0 0
330000.0 549435.0 0
334000.0 549435.0 0
338000.0 549435.0 0
342000.0 549435.0 0
346000.0 549436.0 0
350000.0 549435.0 0
354000.0 549441.0 0
358000.0 549436.0 0
362000.0 549460.0 0
366000.0 549437.0 0
370000.0 549475.0 0
374000.0 549445.0 0
378000.0 549493.0 0
382000.0 549461.0 0
386000.0 549485.0 0
390000.0 549493.0 0
394000.0 549511.0 0
398000.0 549517.0 0
102000.0 553510.0 0
106000.0 553504.0 0
110000.0 553487.0 0
114000.0 553480.0 0
118000.0 553458.0 0
122000.0 553485.0 0
126000.0 553443.0 0
130000.0 553469.0 0
134000.0 553436.0 0
138000.0 553456.0 0
142000.0 553435.0 0
146000.0 553440.0 0
150000.0 553435.0 0
154000.0 553435.0 0
158000.0 553435.0 0
162000.0 553435.0 0
166000.0 553435.0 0
170000.0 553435.0 0
174000.0 553435.0 0
178000.0 553435.0 0
182000.0 553435.0 0
186000.0 553435.0 0
190000.0 553435.0 0
194000.0 553435.0 0
198000.0 553435.0 0
202000.0 553435.0 0
206000.0 553435.0 0
210000.0 553435.0 0
214000.0 553435.0 0
218000.0 553435.0 0
222000.0 553435.0 0
226000.0 553435.0 0
230000.0 553435.0 0
234000.0 553435.0 0
238000.0 553435.0 0
242000.0 553435.0 0
246000.0 553435.0 0
250000.0 553435.0 0
254000.0 553435.0 0
258000.0 553435.0 0
262000.0 553435.0 0
266000.0 553435.0 0
270000.0 553435.0 0
274000.0 553435.0 0
278000.0 553435.0 0
282000.0 553435.0 0
286000.0 553435.0 0
290000.0 553435.0 0
294000.0 553435.0 0
298000.0 553435.0 0
302000.0 553435.0 0
306000.0 553435.0 0
310000.0 553435.0 0
314000.0 553435.0 0
318000.0 553435.0 0
322000.0 553435.0 0
326000.0 553435.0 0
330000.0 553435.0 0
334000.0 553435.0 0
338000.0 553435.0 0
342000.0 553435.0 0
346000.0 553435.0 0
350000.0 553435.0 0
354000.0 553440.0 0
358000.0 553435.0 0
362000.0 553456.0 0
366000.0 553436.0 0
370000.0 553469.0 0
374000.0 553443.0 0
378000.0 553485.0 0
382000.0 553458.0 0
386000.0 553480.0 0
390000.0 553487.0 0
394000.0 553504.0 0
398000.0 553510.0 0
102000.0 557504.0 0
106000.0 557498.0 0
110000.0 557482.0 0
114000.0 557475.0 0
118000.0 557455.0 0
122000.0 557478.0 0
126000.0 557441.0 0
130000.0 557465.0 0
134000.0 557436.0 0
138000.0 557453.0 0
142000.0 557435.0 0
146000.0 557439.0 0
150000.0 557435.0 0
154000.0 557435.0 0
158000.0 557435.0 0
162000.0 557435.0 0
166000.0 557435.0 0
170000.0 557435.0 0
174000.0 557435.0 0
178000.0 557435.0 0
182000.0 557435.0 0
186000.0 557435.0 0
190000.0 557435.0 0
194000.0 557435.0 0
198000.0 557435.0 0
202000.0 557435.0 0
206000.0 557435.0 0
210000.0 557435.0 0
214000.0 557435.0 0
218000.0 557435.0 0
222000.0 557435.0 0
226000.0 557435.0 0
230000.0 557435.0 0
234000.0 557435.0 0
238000.0 557435.0 0
242000.0 557435.0 0
246000.0 557435.0 0
250000.0 557435.0 0
254000.0 557435.0 0
258000.0 557435.0 0
262000.0 557435.0 0
266000.0 557435.0 0
270000.0 557435.0 0
274000.0 557435.0 0
278000.0 557435.0 0
282000.0 557435.0 0
286000.0 557435.0 0
290000.0 557435.0 0
294000.0 557435.0 0
298000.0 557435.0 0
302000.0 557435.0 0
306000.0 557435.0 0
310000.0 557435.0 0
314000.0 557435.0 0
318000.0 557435.0 0
322000.0 557435.0 0
326000.0 557435.0 0
330000.0 557435.0 0
334000.0 557435.0 0
338000.0 557435.0 0
342000.0 557435.0 0
346000.0 557435.0 0
350000.0 557435.0 0
354000.0 557439.0 0
358000.0 557435.0 0
362000.0 557453.0 0
366000.0 557436.0 0
370000.0 557465.0 0
374000.0 557441.0 0
378000.0 557478.0 0
382000.0 557455.0 0
386000.0 557475.0 0
390000.0 557482.0 0
394000.0 557498.0 0
398000.0 557504.0 0
102000.0 561498.0 0
106000.0 561493.0 0
110000.0 561477.0 0
114000.0 561471.0 0
118000.0 561453.0 0
122000.0 561473.0 0
126000.0 561440.0 0
130000.0 561461.0 0
134000.0 561436.0 0
138000.0 561449.0 0
142000.0 561435.0 0
146000.0 561438.0 0
150000.0 561435.0 0
154000.0 561435.0 0
158000.0 561435.0 0
162000.0 561435.0 0
166000.0 561435.0 0
170000.0 561435.0 0
174000.0 561435.0 0
178000.0 561435.0 0
182000.0 561435.0 0
186000.0 561435.0 0
190000.0 561435.0 0
194000.0 561435.0 0
198000.0 561435.0 0
202000.0 561435.0 0
206000.0 561435.0 0
210000.0 561435.0 0
214000.0 561435.0 0
218000.0 561435.0 0
222000.0 561435.0 0
226000.0 561435.0 0
230000.0 561435.0 0
234000.0 561435.0 0
238000.0 561435.0 0
242000.0 561435.0 0
246000.0 561435.0 0
250000.0 561435.0 0
254000.0 561435.0 0
258000.0 561435.0 0
262000.0 561435.0 0
266000.0 561435.0 0
270000.0 561435.0 0
274000.0 561435.0 0
278000.0 561435.0 0
282000.0 561435.0 0
286000.0 561435.0 0
290000.0 561435.0 0
294000.0 561435.0 0
298000.0 561435.0 0
302000.0 561435.0 0
306000.0 561435.0 0
310000.0 561435.0 0
314000.0 561435.0 0
318000.0 561435.0 0
322000.0 561435.0 0
326000.0 561435.0 0
330000.0 561435.0 0
334000.0 561435.0 0
338000.0 561435.0 0
342000.0 561435.0 0
346000.0 561435.0 0
350000.0 561435.0 0
354000.0 561438.0 0
358000.0 561435.0 0
362000.0 561449.0 0
366000.0 561436.0 0
370000.0 561461.0 0
374000.0 561440.0 0
378000.0 561473.0 0
382000.0 561453.0 0
386000.0 561471.0 0
390000.0 561477.0 0
394000.0 561493.0 0
398000.0 561498.0 0
102000.0 565493.0 0
106000.0 565487.0 0
110000.0 565473.0 0
114000.0 565467.0 0
118000.0 565451.0 0
122000.0 565467.0 0
126000.0 565439.0 0
130000.0 565457.0 0
134000.0 565436.0 0
138000.0 565447.0 0
142000.0 565435.0 0
146000.0 565437.0 0
150000.0 565435.0 0
154000.0 565435.0 0
158000.0 565435.0 0
162000.0 565435.0 0
166000.0 565435.0 0
170000.0 565435.0 0
174000.0 565435.0 0
178000.0 565435.0 0
182000.0 565435.0 0
186000.0 565435.0 0
190000.0 565435.0 0
194000.0 565435.0 0
198000.0 565435.0 0
202000.0 565435.0 0
206000.0 565435.0 0
210000.0 565435.0 0
214000.0 565435.0 0
218000.0 565435.0 0
222000.0 565435.0 0
226000.0 565435.0 0
230000.0 565435.0 0
234000.0 565435.0 0
238000.0 565435.0 0
242000.0 565435.0 0
246000.0 565435.0 0
250000.0 565435.0 0
254000.0 565435.0 0
258000.0 565435.0 0
262000.0 565435.0 0
266000.0 565435.0 0
270000.0 565435.0 0
274000.0 565435.0 0
278000.0 565435.0 0
282000.0 565435.0 0
286000.0 565435.0 0
290000.0 565435.0 0
294000.0 565435.0 0
298000.0 565435.0 0
302000.0 565435.0 0
306000.0 565435.0 0
310000.0 565435.0 0
314000.0 565435.0 0
318000.0 565435.0 0
322000.0 565435.0 0
326000.0 565435.0 0
330000.0 565435.0 0
334000.0 565435.0 0
338000.0 565435.0 0
342000.0 565435.0 0
346000.0 565435.0 0
350000.0 565435.0 0
354000.0 565437.0 0
358000.0 565435.0 0
362000.0 565447.0 0
366000.0 565436.0 0
370000.0 565457.0 0
374000.0 565439.0 0
378000.0 565467.0 0
382000.0 565451.0 0
386000.0 565467.0 0
390000.0 565473.0 0
394000.0 565487.0 0
398000.0 565493.0 0
102000.0 569487.0 0
106000.0 569483.0 0
110000.0 569469.0 0
114000.0 569464.0 0
118000.0 569449.0 0
122000.0 569463.0 0
126000.0 569438.0 0
130000.0 569454.0 0
134000.0 569436.0 0
138000.0 569445.0 0
142000.0 569435.0 0
146000.0 569437.0 0
150000.0 569435.0 0
154000.0 569435.0 0
158000.0 569435.0 0
162000.0 569435.0 0
166000.0 569435.0 0
170000.0 569435.0 0
174000.0 569435.0 0
178000.0 569435.0 0
182000.0 569435.0 0
186000.0 569435.0 0
190000.0 569435.0 0
194000.0 569435.0 0
198000.0 569435.0 0
202000.0 569435.0 0
206000.0 569435.0 0
210000.0 569435.0 0
214000.0 569435.0 0
218000.0 569435.0 0
222000.0 569435.0 0
226000.0 569435.0 0
230000.0 569435.0 0
234000.0 569435.0 0
238000.0 569435.0 0
242000.0 569435.0 0
246000.0 569435.0 0
250000.0 569435.0 0
254000.0 569435.0 0
258000.0 569435.0 0
262000.0 569435.0 0
266000.0 569435.0 0
270000.0 569435.0 0
274000.0 569435.0 0
278000.0 569435.0 0
282000.0 569435.0 0
286000.0 569435.0 0
290000.0 569435.0 0
294000.0 569435.0 0
298000.0 569435.0 0
302000.0 569435.0 0
306000.0 569435.0 0
310000.0 569435.0 0
314000.0 569435.0 0
318000.0 569435.0 0
322000.0 569435.0 0
326000.0 569435.0 0
330000.0 569435.0 0
334000.0 569435.0 0
338000.0 569435.0 0
342000.0 569435.0 0
346000.0 569435.0 0
350000.0 569435.0 0
354000.0 569437.0 0
358000.0 569435.0 0
362000.0 569445.0 0
366000.0 569436.0 0
370000.0 569454.0 0
374000.0 569438.0 0
378000.0 569463.0 0
382000.0 569449.0 0
386000.0 569464.0 0
390000.0 569469.0 0
394000.0 569483.0 0
398000.0 569487.0 0
102000.0 573483.0 0
106000.0 573478.0 0
110000.0 573465.0 0
114000.0 573461.0 0
118000.0 573447.0 0
122000.0 573459.0 0
126000.0 573437.0 0
130000.0 573451.0 0
134000.0 573436.0 0
138000.0 573443.0 0
142000.0 573435.0 0
146000.0 573436.0 0
150000.0 573435.0 0
154000.0 573435.0 0
158000.0 573435.0 0
162000.0 573435.0 0
166000.0 573435.0 0
170000.0 573435.0 0
174000.0 573435.0 0
178000.0 573435.0 0
182000.0 573435.0 0
186000.0 573435.0 0
190000.0 573435.0 0
194000.0 573435.0 0
198000.0 573435.0 0
202000.0 573435.0 0
206000.0 573435.0 0
210000.0 573435.0 0
214000.0 573435.0 0
218000.0 573435.0 0
222000.0 573435.0 0
226000.0 573435.0 0
230000.0 573435.0 0
234000.0 573435.0 0
238000.0 573435.0 0
242000.0 573435.0 0
246000.0 573435.0 0
250000.0 573435.0 0
254000.0 573435.0 0
258000.0 573435.0 0
262000.0 573435.0 0
266000.0 573435.0 0
270000.0 573435.0 0
274000.0 573435.0 0
278000.0 573435.0 0
282000.0 573435.0 0
286000.0 573435.0 0
290000.0 573435.0 0
294000.0 573435.0 0
298000.0 573435.0 0
302000.0 573435.0 0
306000.0 573435.0 0
310000.0 573435.0 0
314000.0 573435.0 0
318000.0 573435.0 0
322000.0 573435.0 0
326000.0 573435.0 0
330000.0 573435.0 0
334000.0 573435.0 0
338000.0 573435.0 0
342000.0 573435.0 0
346000.0 573435.0 0
350000.0 573435.0 0
354000.0 573436.0 0
358000.0 573435.0 0
362000.0 573443.0 0
366000.0 573436.0 0
370000.0 573451.0 0
374000.0 573437.0 0
378000.0 573459.0 0
382000.0 573447.0 0
386000.0 573461.0 0
390000.0 573465.0 0
394000.0 573478.0 0
398000.0 573483.0 0
102000.0 577478.0 0
106000.0 577474.0 0
110000.0 577462.0 0
114000.0 577458.0 0
118000.0 577445.0 0
122000.0 577455.0 0
126000.0 577437.0 0
130000.0 577448.0 0
134000.0 577435.0 0
138000.0 577441.0 0
142000.0 577435.0 0
146000.0 577436.0 0
150000.0 577435.0 0
154000.0 577435.0 0
158000.0 577435.0 0
162000.0 577435.0 0
166000.0 577435.0 0
170000.0 577435.0 0
174000.0 577435.0 0
178000.0 577435.0 0
182000.0 577435.0 0
186000.0 577435.0 0
190000.0 577435.0 0
194000.0 577435.0 0
198000.0 577435.0 0
202000.0 577435.0 0
206000.0 577435.0 0
210000.0 577435.0 0
214000.0 577435.0 0
218000.0 577435.0 0
222000.0 577435.0 0
226000.0 577435.0 0
230000.0 577435.0 0
234000.0 577435.0 0
238000.0 577435.0 0
242000.0 577435.0 0
246000.0 577435.0 0
250000.0 577435.0 0
254000.0 577435.0 0
258000.0 577435.0 0
262000.0 577435.0 0
266000.0 577435.0 0
270000.0 577435.0 0
274000.0 577435.0 0
278000.0 577435.0 0
282000.0 577435.0 0
286000.0 577435.0 0
290000.0 577435.0 0
294000.0 577435.0 0
298000.0 577435.0 0
302000.0 577435.0 0
306000.0 577435.0 0
310000.0 577435.0 0
314000.0 577435.0 0
318000.0 577435.0 0
322000.0 577435.0 0
326000.0 577435.0 0
330000.0 577435.0 0
334000.0 577435.0 0
338000.0 577435.0 0
342000.0 577435.0 0
346000.0 577435.0 0
350000.0 577435.0 0
354000.0 577436.0 0
358000.0 577435.0 0
362000.0 577441.0 0
366000.0 577435.0 0
370000.0 577448.0 0
374000.0 577437.0 0
378000.0 577455.0 0
382000.0 577445.0 0
386000.0 577458.0 0
390000.0 577462.0 0
394000.0 577474.0 0
398000.0 577478.0 0
102000.0 581474.0 0
106000.0 581470.0 0
110000.0 581459.0 0
114000.0 581455.0 0
118000.0 581444.0 0
122000.0 581452.0 0
126000.0 581436.0 0
130000.0 581446.0 0
134000.0 581435.0 0
138000.0 581440.0 0
142000.0 581435.0 0
146000.0 581436.0 0
150000.0 581435.0 0
154000.0 581435.0 0
158000.0 581435.0 0
162000.0 581435.0 0
166000.0 581435.0 0
170000.0 581435.0 0
174000.0 581435.0 0
178000.0 581435.0 0
182000.0 581435.0 0
186000.0 581435.0 0
190000.0 581435.0 0
194000.0 581435.0 0
198000.0 581435.0 0
202000.0 581435.0 0
206000.0 581435.0 0
210000.0 581435.0 0
214000.0 581435.0 0
218000.0 581435.0 0
222000.0 581435.0 0
226000.0 581435.0 0
230000.0 581435.0 0
234000.0 581435.0 0
238000.0 581435.0 0
242000.0 581435.0 0
246000.0 581435.0 0
250000.0 581435.0 0
254000.0 581435.0 0
258000.0 581435.0 0
262000.0 581435.0 0
266000.0 581435.0 0
270000.0 581435.0 0
274000.0 581435.0 0
278000.0 581435.0 0
282000.0 581435.0 0
286000.0 581435.0 0
290000.0 581435.0 0
294000.0 581435.0 0
298000.0 581435.0 0
302000.0 581435.0 0
306000.0 581435.0 0
310000.0 581435.0 0
314000.0 581435.0 0
318000.0 581435.0 0
322000.0 581435.0 0
326000.0 581435.0 0
330000.0 581435.0 0
334000.0 581435.0 0
338000.0 581435.0 0
342000.0 581435.0 0
346000.0 581435.0 0
350000.0 581435.0 0
354000.0 581436.0 0
358000.0 581435.0 0
362000.0 581440.0 0
366000.0 581435.0 0
370000.0 581446.0 0
374000.0 581436.0 0
378000.0 581452.0 0
382000.0 581444.0 0
386000.0 581455.0 0
390000.0 581459.0 0
394000.0 581470.0 0
398000.0 581474.0 0
102000.0 585471.0 0
106000.0 585467.0 0
110000.0 585456.0 0
114000.0 585453.0 0
118000.0 585442.0 0
122000.0 585449.0 0
126000.0 585436.0 0
130000.0 585444.0 0
134000.0 585435.0 0
138000.0 585439.0 0
142000.0 585435.0 0
146000.0 585436.0 0
150000.0 585435.0 0
154000.0 585435.0 0
158000.0 585435.0 0
162000.0 585435.0 0
166000.0 585435.0 0
170000.0 585435.0 0
174000.0 585435.0 0
178000.0 585435.0 0
182000.0 585435.0 0
186000.0 585435.0 0
190000.0 585435.0 0
194000.0 585435.0 0
198000.0 585435.0 0
202000.0 585435.0 0
206000.0 585435.0 0
210000.0 585435.0 0
214000.0 585435.0 0
218000.0 585435.0 0
222000.0 585435.0 0
226000.0 585435.0 0
230000.0 585435.0 0
234000.0 585435.0 0
238000.0 585435.0 0
242000.0 585435.0 0
246000.0 585435.0 0
250000.0 585435.0 0
254000.0 585435.0 0
258000.0 585435.0 0
262000.0 585435.0 0
266000.0 585435.0 0
270000.0 585435.0 0
274000.0 585435.0 0
278000.0 585435.0 0
282000.0 585435.0 0
286000.0 585435.0 0
290000.0 585435.0 0
294000.0 585435.0 0
298000.0 585435.0 0
302000.0 585435.0 0
306000.0 585435.0 0
310000.0 585435.0 0
314000.0 585435.0 0
318000.0 585435.0 0
322000.0 585435.0 0
326000.0 585435.0 0
330000.0 585435.0 0
334000.0 585435.0 0
338000.0 585435.0 0
342000.0 585435.0 0
346000.0 585435.0 0
350000.0 585435.0 0
354000.0 585436.0 0
358000.0 585435.0 0
362000.0 585439.0 0
366000.0 585435.0 0
370000.0 585444.0 0
374000.0 585436.0 0
378000.0 585449.0 0
382000.0 585442.0 0
386000.0 585453.0 0
390000.0 585456.0 0
394000.0 585467.0 0
398000.0 585471.0 0
102000.0 589467.0 0
106000.0 589464.0 0
110000.0 589453.0 0
114000.0 589451.0 0
118000.0 589441.0 0
122000.0 589447.0 0
126000.0 589436.0 0
130000.0 589443.0 0
134000.0 589435.0 0
138000.0 589438.0 0
142000.0 589435.0 0
146000.0 589435.0 0
150000.0 589435.0 0
154000.0 589435.0 0
158000.0 589435.0 0
162000.0 589435.0 0
166000.0 589435.0 0
170000.0 589435.0 0
174000.0 589435.0 0
178000.0 589435.0 0
182000.0 589435.0 0
186000.0 589435.0 0
190000.0 589435.0 0
194000.0 589435.0 0
198000.0 589435.0 0
202000.0 589435.0 0
206000.0 589435.0 0
210000.0 589435.0 0
214000.0 589435.0 0
218000.0 589435.0 0
222000.0 589435.0 0
226000.0 589435.0 0
230000.0 589435.0 0
234000.0 589435.0 0
238000.0 589435.0 0
242000.0 589435.0 0
246000.0 589435.0 0
250000.0 589435.0 0
254000.0 589435.0 0
258000.0 589435.0 0
262000.0 589435.0 0
266000.0 589435.0 0
270000.0 589435.0 0
274000.0 589435.0 0
278000.0 589435.0 0
282000.0 589435.0 0
286000.0 589435.0 0
290000.0 589435.0 0
294000.0 589435.0 0
298000.0 589435.0 0
302000.0 589435.0 0
306000.0 589435.0 0
310000.0 589435.0 0
314000.0 589435.0 0
318000.0 589435.0 0
322000.0 589435.0 0
326000.0 589435.0 0
330000.0 589435.0 0
334000.0 589435.0 0
338000.0 589435.0 0
342000.0 589435.0 0
346000.0 589435.0 0
350000.0 589435.0 0
354000.0 589435.0 0
358000.0 589435.0 0
362000.0 589438.0 0
366000.0 589435.0 0
370000.0 589443.0 0
374000.0 589436.0 0
378000.0 589447.0 0
382000.0 589441.0 0
386000.0 589451.0 0
390000.0 589453.0 0
394000.0 589464.0 0
398000.0 589467.0 0
102000.0 593464.0 0
106000.0 593461.0 0
110000.0 593451.0 0
114000.0 593449.0 0
118000.0 593440.0 0
122000.0 593445.0 0
126000.0 593436.0 0
130000.0 593441.0 0
134000.0 593435.0 0
138000.0 593437.0 0
142000.0 593435.0 0
146000.0 593435.0 0
150000.0 593435.0 0
154000.0 593435.0 0
158000.0 593435.0 0
162000.0 593435.0 0
166000.0 593435.0 0
170000.0 593435.0 0
174000.0 593435.0 0
178000.0 593435.0 0
182000.0 593435.0 0
186000.0 593435.0 0
190000.0 593435.0 0
194000.0 593435.0 0
198000.0 593435.0 0
202000.0 593435.0 0
206000.0 593435.0 0
210000.0 593435.0 0
214000.0 593435.0 0
218000.0 593435.0 0
222000.0 593435.0 0
226000.0 593435.0 0
230000.0 593435.0 0
234000.0 593435.0 0
238000.0 593435.0 0
242000.0 593435.0 0
246000.0 593435.0 0
250000.0 593435.0 0
254000.0 593435.0 0
258000.0 593435.0 0
262000.0 593435.0 0
266000.0 593435.0 0
270000.0 593435.0 0
274000.0 593435.0 0
278000.0 593435.0 0
282000.0 593435.0 0
286000.0 593435.0 0
290000.0 593435.0 0
294000.0 593435.0 0
298000.0 593435.0 0
302000.0 593435.0 0
306000.0 593435.0 0
310000.0 593435.0 0
314000.0 593435.0 0
318000.0 593435.0 0
322000.0 593435.0 0
326000.0 593435.0 0
330000.0 593435.0 0
334000.0 593435.0 0
338000.0 593435.0 0
342000.0 593435.0 0
346000.0 593435.0 0
350000.0 593435.0 0
354000.0 593435.0 0
358000.0 593435.0 0
362000.0 593437.0 0
366000.0 593435.0 0
370000.0 593441.0 0
374000.0 593436.0 0
378000.0 593445.0 0
382000.0 593440.0 0
386000.0 593449.0 0
390000.0 593451.0 0
394000.0 593461.0 0
398000.0 593464.0 0
102000.0 597461.0 0
106000.0 597458.0 0
110000.0 597449.0 0
114000.0 597447.0 0
118000.0 597440.0 0
122000.0 597443.0 0
126000.0 597436.0 0
130000.0 597440.0 0
134000.0 597435.0 0
138000.0 597437.0 0
142000.0 597435.0 0
146000.0 597435.0 0
150000.0 597435.0 0
154000.0 597435.0 0
158000.0 597435.0 0
162000.0 597435.0 0
166000.0 597435.0 0
170000.0 597435.0 0
174000.0 597435.0 0
178000.0 597435.0 0
182000.0 597435.0 0
186000.0 597435.0 0
190000.0 597435.0 0
194000.0 597435.0 0
198000.0 597435.0 0
202000.0 597435.0 0
206000.0 597435.0 0
210000.0 597435.0 0
214000.0 597435.0 0
218000.0 597435.0 0
222000.0 597435.0 0
226000.0 597435.0 0
230000.0 597435.0 0
234000.0 597435.0 0
238000.0 597435.0 0
242000.0 597435.0 0
246000.0 597435.0 0
250000.0 597435.0 0
254000.0 597435.0 0
258000.0 597435.0 0
262000.0 597435.0 0
266000.0 597435.0 0
270000.0 597435.0 0
274000.0 597435.0 0
278000.0 597435.0 0
282000.0 597435.0 0
286000.0 597435.0 0
290000.0 597435.0 0
294000.0 597435.0 0
298000.0 597435.0 0
302000.0 597435.0 0
306000.0 597435.0 0
310000.0 597435.0 0
314000.0 597435.0 0
318000.0 597435.0 0
322000.0 597435.0 0
326000.0 597435.0 0
330000.0 597435.0 0
334000.0 597435.0 0
338000.0 597435.0 0
342000.0 597435.0 0
346000.0 597435.0 0
350000.0 597435.0 0
354000.0 597435.0 0
358000.0 597435.0 0
362000.0 597437.0 0
366000.0 597435.0 0
370000.0 597440.0 0
374000.0 597436.0 0
378000.0 597443.0 0
382000.0 597440.0 0
386000.0 597447.0 0
390000.0 597449.0 0
394000.0 597458.0 0
398000.0 597461.0 0
102000.0 601459.0 0
106000.0 601456.0 0
110000.0 601448.0 0
114000.0 601446.0 0
118000.0 601439.0 0
122000.0 601442.0 0
126000.0 601435.0 0
130000.0 601439.0 0
134000.0 601435.0 0
138000.0 601436.0 0
142000.0 601435.0 0
146000.0 601435.0 0
150000.0 601435.0 0
154000.0 601435.0 0
158000.0 601435.0 0
162000.0 601435.0 0
166000.0 601435.0 0
170000.0 601435.0 0
174000.0 601435.0 0
178000.0 601435.0 0
182000.0 601435.0 0
186000.0 601435.0 0
190000.0 601435.0 0
194000.0 601435.0 0
198000.0 601435.0 0
202000.0 601435.0 0
206000.0 601435.0 0
210000.0 601435.0 0
214000.0 601435.0 0
218000.0 601435.0 0
222000.0 601435.0 0
226000.0 601435.0 0
230000.0 601435.0 0
234000.0 601435.0 0
238000.0 601435.0 0
242000.0 601435.0 0
246000.0 601435.0 0
250000.0 601435.0 0
254000.0 601435.0 0
258000.0 601435.0 0
262000.0 601435.0 0
266000.0 601435.0 0
270000.0 601435.0 0
274000.0 601435.0 0
278000.0 601435.0 0
282000.0 601435.0 0
286000.0 601435.0 0
290000.0 601435.0 0
294000.0 601435.0 0
298000.0 601435.0 0
302000.0 601435.0 0
306000.0 601435.0 0
310000.0 601435.0 0
314000.0 601435.0 0
318000.0 601435.0 0
322000.0 601435.0 0
326000.0 601435.0 0
330000.0 601435.0 0
334000.0 601435.0 0
338000.0 601435.0 0
342000.0 601435.0 0
346000.0 601435.0 0
350000.0 601435.0 0
354000.0 601435.0 0
358000.0 601435.0 0
362000.0 601436.0 0
366000.0 601435.0 0
370000.0 601439.0 0
374000.0 601435.0 0
378000.0 601442.0 0
382000.0 601439.0 0
386000.0 601446.0 0
390000.0 601448.0 0
394000.0 601456.0 0
398000.0 601459.0 0
102000.0 605456.0 0
106000.0 605454.0 0
110000.0 605446.0 0
114000.0 605444.0 0
118000.0 605438.0 0
122000.0 605441.0 0
126000.0 605435.0 0
130000.0 605439.0 0
134000.0 605435.0 0
138000.0 605436.0 0
142000.0 605435.0 0
146000.0 605435.0 0
150000.0 605435.0 0
154000.0 605435.0 0
158000.0 605435.0 0
162000.0 605435.0 0
166000.0 605435.0 0
170000.0 605435.0 0
174000.0 605435.0 0
178000.0 605435.0 0
182000.0 605435.0 0
186000.0 605435.0 0
190000.0 605435.0 0
194000.0 605435.0 0
198000.0 605435.0 0
202000.0 605435.0 0
206000.0 605435.0 0
210000.0 605435.0 0
214000.0 605435.0 0
218000.0 605435.0 0
222000.0 605435.0 0
226000.0 605435.0 0
230000.0 605435.0 0
234000.0 605435.0 0
238000.0 605435.0 0
242000.0 605435.0 0
246000.0 605435.0 0
250000.0 605435.0 0
254000.0 605435.0 0
258000.0 605435.0 0
262000.0 605435.0 0
266000.0 605435.0 0
270000.0 605435.0 0
274000.0 605435.0 0
278000.0 605435.0 0
282000.0 605435.0 0
286000.0 605435.0 0
290000.0 605435.0 0
294000.0 605435.0 0
298000.0 605435.0 0
302000.0 605435.0 0
306000.0 605435.0 0
310000.0 605435.0 0
314000.0 605435.0 0
318000.0 605435.0 0
322000.0 605435.0 0
326000.0 605435.0 0
330000.0 605435.0 0
334000.0 605435.0 0
338000.0 605435.0 0
342000.0 605435.0 0
346000.0 605435.0 0
350000.0 605435.0 0
354000.0 605435.0 0
358000.0 605435.0 0
362000.0 605436.0 0
366000.0 605435.0 0
370000.0 605439.0 0
374000.0 605435.0 0
378000.0 605441.0 0
382000.0 605438.0 0
386000.0 605444.0 0
390000.0 605446.0 0
394000.0 605454.0 0
398000.0 605456.0 0
102000.0 609454.0 0
106000.0 609452.0 0
110000.0 609445.0 0
114000.0 609443.0 0
118000.0 609438.0 0
122000.0 609440.0 0
126000.0 609435.0 0
130000.0 609438.0 0
134000.0 609435.0 0
138000.0 609436.0 0
142000.0 609435.0 0
146000.0 609435.0 0
150000.0 609435.0 0
154000.0 609435.0 0
158000.0 609435.0 0
162000.0 609435.0 0
166000.0 609435.0 0
170000.0 609435.0 0
174000.0 609435.0 0
178000.0 609435.0 0
182000.0 609435.0 0
186000.0 609435.0 0
190000.0 609435.0 0
194000.0 609435.0 0
198000.0 609435.0 0
202000.0 609435.0 0
206000.0 609435.0 0
210000.0 609435.0 0
214000.0 609435.0 0
218000.0 609435.0 0
222000.0 609435.0 0
226000.0 609435.0 0
230000.0 609435.0 0
234000.0 609435.0 0
238000.0 609435.0 0
242000.0 609435.0 0
246000.0 609435.0 0
250000.0 609435.0 0
254000.0 609435.0 0
258000.0 609435.0 0
262000.0 609435.0 0
266000.0 609435.0 0
270000.0 609435.0 0
274000.0 609435.0 0
278000.0 609435.0 0
282000.0 609435.0 0
286000.0 609435.0 0
290000.0 609435.0 0
294000.0 609435.0 0
298000.0 609435.0 0
302000.0 609435.0 0
306000.0 609435.0 0
310000.0 609435.0 0
314000.0 609435.0 0
318000.0 609435.0 0
322000.0 609435.0 0
326000.0 609435.0 0
330000.0 609435.0 0
334000.0 609435.0 0
338000.0 609435.0 0
342000.0 609435.0 0
346000.0 609435.0 0
350000.0 609435.0 0
354000.0 609435.0 0
358000.0 609435.0 0
362000.0 609436.0 0
366000.0 609435.0 0
370000.0 609438.0 0
374000.0 609435.0 0
378000.0 609440.0 0
382000.0 609438.0 0
386000.0 609443.0 0
390000.0 609445.0 0
394000.0 609452.0 0
398000.0 609454.0 0
102000.0 613452.0 0
106000.0 613450.0 0
110000.0 613444.0 0
114000.0 613442.0 0
118000.0 613437.0 0
122000.0 613439.0 0
126000.0 613435.0 0
130000.0 613437.0 0
134000.0 613435.0 0
138000.0 613436.0 0
142000.0 613435.0 0
146000.0 613435.0 0
150000.0 613435.0 0
154000.0 613435.0 0
158000.0 613435.0 0
162000.0 613435.0 0
166000.0 613435.0 0
170000.0 613435.0 0
174000.0 613435.0 0
178000.0 613435.0 0
182000.0 613435.0 0
186000.0 613435.0 0
190000.0 613435.0 0
194000.0 613435.0 0
198000.0 613435.0 0
202000.0 613435.0 0
206000.0 613435.0 0
210000.0 613435.0 0
214000.0 613435.0 0
218000.0 613435.0 0
222000.0 613435.0 0
226000.0 613435.0 0
230000.0 613435.0 0
234000.0 613435.0 0
238000.0 613435.0 0
242000.0 613435.0 0
246000.0 613435.0 0
250000.0 613435.0 0
254000.0 613435.0 0
258000.0 613435.0 0
262000.0 613435.0 0
266000.0 613435.0 0
270000.0 613435.0 0
274000.0 613435.0 0
278000.0 613435.0 0
282000.0 613435.0 0
286000.0 613435.0 0
290000.0 613435.0 0
294000.0 613435.0 0
298000.0 613435.0 0
302000.0 613435.0 0
306000.0 613435.0 0
310000.0 613435.0 0
314000.0 613435.0 0
318000.0 613435.0 0
322000.0 613435.0 0
326000.0 613435.0 0
330000.0 613435.0 0
334000.0 613435.0 0
338000.0 613435.0 0
342000.0 613435.0 0
346000.0 613435.0 0
350000.0 613435.0 0
354000.0 613435.0 0
358000.0 613435.0 0
362000.0 613436.0 0
366000.0 613435.0 0
370000.0 613437.0 0
374000.0 613435.0 0
378000.0 613439.0 0
382000.0 613437.0 0
386000.0 613442.0 0
390000.0 613444.0 0
394000.0 613450.0 0
398000.0 613452.0 0
102000.0 617450.0 0
106000.0 617448.0 0
110000.0 617443.0 0
114000.0 617441.0 0
118000.0 617437.0 0
122000.0 617438.0 0
126000.0 617435.0 0
130000.0 617437.0 0
134000.0 617435.0 0
138000.0 617436.0 0
142000.0 617435.0 0
146000.0 617435.0 0
150000.0 617435.0 0
154000.0 617435.0 0
158000.0 617435.0 0
162000.0 617435.0 0
166000.0 617435.0 0
170000.0 617435.0 0
174000.0 617435.0 0
178000.0 617435.0 0
182000.0 617435.0 0
186000.0 617435.0 0
190000.0 617435.0 0
194000.0 617435.0 0
198000.0 617435.0 0
202000.0 617435.0 0
206000.0 617435.0 0
210000.0 617435.0 0
214000.0 617435.0 0
218000.0 617435.0 0
222000.0 617435.0 0
226000.0 617435.0 0
230000.0 617435.0 0
234000.0 617435.0 0
238000.0 617435.0 0
242000.0 617435.0 0
246000.0 617435.0 0
250000.0 617435.0 0
254000.0 617435.0 0
258000.0 617435.0 0
262000.0 617435.0 0
266000.0 617435.0 0
270000.0 617435.0 0
274000.0 617435.0 0
278000.0 617435.0 0
282000.0 617435.0 0
286000.0 617435.0 0
290000.0 617435.0 0
294000.0 617435.0 0
298000.0 617435.0 0
302000.0 617435.0 0
306000.0 617435.0 0
310000.0 617435.0 0
314000.0 617435.0 0
318000.0 617435.0 0
322000.0 617435.0 0
326000.0 617435.0 0
330000.0 617435.0 0
334000.0 617435.0 0
338000.0 617435.0 0
342000.0 617435.0 0
346000.0 617435.0 0
350000.0 617435.0 0
354000.0 617435.0 0
358000.0 617435.0 0
362000.0 617436.0 0
366000.0 617435.0 0
370000.0 617437.0 0
374000.0 617435.0 0
378000.0 617438.0 0
382000.0 617437.0 0
386000.0 617441.0 0
390000.0 617443.0 0
394000.0 617448.0 0
398000.0 617450.0 0
102000.0 621449.0 0
106000.0 621447.0 0
110000.0 621442.0 0
114000.0 621440.0 0
118000.0 621437.0 0
122000.0 621438.0 0
126000.0 621435.0 0
130000.0 621437.0 0
134000.0 621435.0 0
138000.0 621435.0 0
142000.0 621435.0 0
146000.0 621435.0 0
150000.0 621435.0 0
154000.0 621435.0 0
158000.0 621435.0 0
162000.0 621435.0 0
166000.0 621435.0 0
170000.0 621435.0 0
174000.0 621435.0 0
178000.0 621435.0 0
182000.0 621435.0 0
186000.0 621435.0 0
190000.0 621435.0 0
194000.0 621435.0 0
198000.0 621435.0 0
202000.0 621435.0 0
206000.0 621435.0 0
210000.0 621435.0 0
214000.0 621435.0 0
218000.0 621435.0 0
222000.0 621435.0 0
226000.0 621435.0 0
230000.0 621435.0 0
234000.0 621435.0 0
238000.0 621435.0 0
242000.0 621435.0 0
246000.0 621435.0 0
250000.0 621435.0 0
254000.0 621435.0 0
258000.0 621435.0 0
262000.0 621435.0 0
266000.0 621435.0 0
270000.0 621435.0 0
274000.0 621435.0 0
278000.0 621435.0 0
282000.0 621435.0 0
286000.0 621435.0 0
290000.0 621435.0 0
294000.0 621435.0 0
298000.0 621435.0 0
302000.0 621435.0 0
306000.0 621435.0 0
310000.0 621435.0 0
314000.0 621435.0 0
318000.0 621435.0 0
322000.0 621435.0 0
326000.0 621435.0 0
330000.0 621435.0 0
334000.0 621435.0 0
338000.0 621435.0 0
342000.0 621435.0 0
346000.0 621435.0 0
350000.0 621435.0 0
354000.0 621435.0 0
358000.0 621435.0 0
362000.0 621435.0 0
366000.0 621435.0 0
370000.0 621437.0 0
374000.0 621435.0 0
378000.0 621438.0 0
382000.0 621437.0 0
386000.0 621440.0 0
390000.0 621442.0 0
394000.0 621447.0 0
398000.0 621449.0 0
102000.0 625448.0 0
106000.0 625446.0 0
110000.0 625441.0 0
114000.0 625440.0 0
118000.0 625436.0 0
122000.0 625437.0 0
126000.0 625435.0 0
130000.0 625436.0 0
134000.0 625435.0 0
138000.0 625435.0 0
142000.0 625435.0 0
146000.0 625435.0 0
150000.0 625435.0 0
154000.0 625435.0 0
158000.0 625435.0 0
162000.0 625435.0 0
166000.0 625435.0 0
170000.0 625435.0 0
174000.0 625435.0 0
178000.0 625435.0 0
182000.0 625435.0 0
186000.0 625435.0 0
190000.0 625435.0 0
194000.0 625435.0 0
198000.0 625435.0 0
202000.0 625435.0 0
206000.0 625435.0 0
210000.0 625435.0 0
214000.0 625435.0 0
218000.0 625435.0 0
222000.0 625435.0 0
226000.0 625435.0 0
230000.0 625435.0 0
234000.0 625435.0 0
238000.0 625435.0 0
242000.0 625435.0 0
246000.0 625435.0 0
250000.0 625435.0 0
254000.0 625435.0 0
258000.0 625435.0 0
262000.0 625435.0 0
266000.0 625435.0 0
270000.0 625435.0 0
274000.0 625435.0 0
278000.0 625435.0 0
282000.0 625435.0 0
286000.0 625435.0 0
290000.0 625435.0 0
294000.0 625435.0 0
298000.0 625435.0 0
302000.0 625435.0 0
306000.0 625435.0 0
310000.0 625435.0 0
314000.0 625435.0 0
318000.0 625435.0 0
322000.0 625435.0 0
326000.0 625435.0 0
330000.0 625435.0 0
334000.0 625435.0 0
338000.0 625435.0 0
342000.0 625435.0 0
346000.0 625435.0 0
350000.0 625435.0 0
354000.0 625435.0 0
358000.0 625435.0 0
362000.0 625435.0 0
366000.0 625435.0 0
370000.0 625436.0 0
374000.0 625435.0 0
378000.0 625437.0 0
382000.0 625436.0 0
386000.0 625440.0 0
390000.0 625441.0 0
394000.0 625446.0 0
398000.0 625448.0 0
102000.0 629446.0 0
106000.0 629445.0 0
110000.0 629440.0 0
114000.0 629439.0 0
118000.0 629436.0 0
122000.0 629437.0 0
126000.0 629435.0 0
130000.0 629436.0 0
134000.0 629435.0 0
138000.0 629435.0 0
142000.0 629435.0 0
146000.0 629435.0 0
150000.0 629435.0 0
154000.0 629435.0 0
158000.0 629435.0 0
162000.0 629435.0 0
166000.0 629435.0 0
170000.0 629435.0 0
174000.0 629435.0 0
178000.0 629435.0 0
182000.0 629435.0 0
186000.0 629435.0 0
190000.0 629435.0 0
194000.0 629435.0 0
198000.0 629435.0 0
202000.0 629435.0 0
206000.0 629435.0 0
210000.0 629435.0 0
214000.0 629435.0 0
218000.0 629435.0 0
222000.0 629435.0 0
226000.0 629435.0 0
230000.0 629435.0 0
234000.0 629435.0 0
238000.0 629435.0 0
242000.0 629435.0 0
246000.0 629435.0 0
250000.0 629435.0 0
254000.0 629435.0 0
258000.0 629435.0 0
262000.0 629435.0 0
266000.0 629435.0 0
270000.0 629435.0 0
274000.0 629435.0 0
278000.0 629435.0 0
282000.0 629435.0 0
286000.0 629435.0 0
290000.0 629435.0 0
294000.0 629435.0 0
298000.0 629435.0 0
302000.0 629435.0 0
306000.0 629435.0 0
310000.0 629435.0 0
314000.0 629435.0 0
318000.0 629435.0 0
322000.0 629435.0 0
326000.0 629435.0 0
330000.0 629435.0 0
334000.0 629435.0 0
338000.0 629435.0 0
342000.0 629435.0 0
346000.0 629435.0 0
350000.0 629435.0 0
354000.0 629435.0 0
358000.0 629435.0 0
362000.0 629435.0 0
366000.0 629435.0 0
370000.0 629436.0 0
374000.0 629435.0 0
378000.0 629437.0 0
382000.0 629436.0 0
386000.0 629439.0 0
390000.0 629440.0 0
394000.0 629445.0 0
398000.0 629446.0 0
102000.0 633445.0 0
106000.0 633444.0 0
110000.0 633440.0 0
114000.0 633439.0 0
118000.0 633436.0 0
122000.0 633436.0 0
126000.0 633435.0 0
130000.0 633436.0 0
134000.0 633435.0 0
138000.0 633435.0 0
142000.0 633435.0 0
146000.0 633435.0 0
150000.0 633435.0 0
154000.0 633435.0 0
158000.0 633435.0 0
162000.0 633435.0 0
166000.0 633435.0 0
170000.0 633435.0 0
174000.0 633435.0 0
178000.0 633435.0 0
182000.0 633435.0 0
186000.0 633435.0 0
190000.0 633435.0 0
194000.0 633435.0 0
198000.0 633435.0 0
202000.0 633435.0 0
206000.0 633435.0 0
210000.0 633435.0 0
214000.0 633435.0 0
218000.0 633435.0 0
222000.0 633435.0 0
226000.0 633435.0 0
230000.0 633435.0 0
234000.0 633435.0 0
238000.0 633435.0 0
242000.0 633435.0 0
246000.0 633435.0 0
250000.0 633435.0 0
254000.0 633435.0 0
258000.0 633435.0 0
262000.0 633435.0 0
266000.0 633435.0 0
270000.0 633435.0 0
274000.0 633435.0 0
278000.0 633435.0 0
282000.0 633435.0 0
286000.0 633435.0 0
290000.0 633435.0 0
294000.0 633435.0 0
298000.0 633435.0 0
302000.0 633435.0 0
306000.0 633435.0 0
310000.0 633435.0 0
314000.0 633435.0 0
318000.0 633435.0 0
322000.0 633435.0 0
326000.0 633435.0 0
330000.0 633435.0 0
334000.0 633435.0 0
338000.0 633435.0 0
342000.0 633435.0 0
346000.0 633435.0 0
350000.0 633435.0 0
354000.0 633435.0 0
358000.0 633435.0 0
362000.0 633435.0 0
366000.0 633435.0 0
370000.0 633436.0 0
374000.0 633435.0 0
378000.0 633436.0 0
382000.0 633436.0 0
386000.0 633439.0 0
390000.0 633440.0 0
394000.0 633444.0 0
398000.0 633445.0 0
102000.0 637445.0 0
106000.0 637443.0 0
110000.0 637439.0 0
114000.0 637438.0 0
118000.0 637436.0 0
122000.0 637436.0 0
126000.0 637435.0 0
130000.0 637436.0 0
134000.0 637435.0 0
138000.0 637435.0 0
142000.0 637435.0 0
146000.0 637435.0 0
150000.0 637435.0 0
154000.0 637435.0 0
158000.0 637435.0 0
162000.0 637435.0 0
166000.0 637435.0 0
170000.0 637435.0 0
174000.0 637435.0 0
178000.0 637435.0 0
182000.0 637435.0 0
186000.0 637435.0 0
190000.0 637435.0 0
194000.0 637435.0 0
198000.0 637435.0 0
202000.0 637435.0 0
206000.0 637435.0 0
210000.0 637435.0 0
214000.0 637435.0 0
218000.0 637435.0 0
222000.0 637435.0 0
226000.0 637435.0 0
230000.0 637435.0 0
234000.0 637435.0 0
238000.0 637435.0 0
242000.0 637435.0 0
246000.0 637435.0 0
250000.0 637435.0 0
254000.0 637435.0 0
258000.0 637435.0 0
262000.0 637435.0 0
266000.0 637435.0 0
270000.0 637435.0 0
274000.0 637435.0 0
278000.0 637435.0 0
282000.0 637435.0 0
286000.0 637435.0 0
290000.0 637435.0 0
294000.0 637435.0 0
298000.0 637435.0 0
302000.0 637435.0 0
306000.0 637435.0 0
310000.0 637435.0 0
314000.0 637435.0 0
318000.0 637435.0 0
322000.0 637435.0 0
326000.0 637435.0 0
330000.0 637435.0 0
334000.0 637435.0 0
338000.0 637435.0 0
342000.0 637435.0 0
346000.0 637435.0 0
350000.0 637435.0 0
354000.0 637435.0 0
358000.0 637435.0 0
362000.0 637435.0 0
366000.0 637435.0 0
370000.0 637436.0 0
374000.0 637435.0 0
378000.0 637436.0 0
382000.0 637436.0 0
386000.0 637438.0 0
390000.0 637439.0 0
394000.0 637443.0 0
398000.0 637445.0 0
102000.0 641444.0 0
106000.0 641443.0 0
110000.0 641439.0 0
114000.0 641438.0 0
118000.0 641436.0 0
122000.0 641436.0 0
126000.0 641435.0 0
130000.0 641436.0 0
134000.0 641435.0 0
138000.0 641435.0 0
142000.0 641435.0 0
146000.0 641435.0 0
150000.0 641435.0 0
154000.0 641435.0 0
158000.0 641435.0 0
162000.0 641435.0 0
166000.0 641435.0 0
170000.0 641435.0 0
174000.0 641435.0 0
178000.0 641435.0 0
182000.0 641435.0 0
186000.0 641435.0 0
190000.0 641435.0 0
194000.0 641435.0 0
198000.0 641435.0 0
202000.0 641435.0 0
206000.0 641435.0 0
210000.0 641435.0 0
214000.0 641435.0 0
218000.0 641435.0 0
222000.0 641435.0 0
226000.0 641435.0 0
230000.0 641435.0 0
234000.0 641435.0 0
238000.0 641435.0 0
242000.0 641435.0 0
246000.0 641435.0 0
250000.0 641435.0 0
254000.0 641435.0 0
258000.0 641435.0 0
262000.0 641435.0 0
266000.0 641435.0 0
270000.0 641435.0 0
274000.0 641435.0 0
278000.0 641435.0 0
282000.0 641435.0 0
286000.0 641435.0 0
290000.0 641435.0 0
294000.0 641435.0 0
298000.0 641435.0 0
302000.0 641435.0 0
306000.0 641435.0 0
310000.0 641435.0 0
314000.0 641435.0 0
318000.0 641435.0 0
322000.0 641435.0 0
326000.0 641435.0 0
330000.0 641435.0 0
334000.0 641435.0 0
338000.0 641435.0 0
342000.0 641435.0 0
346000.0 641435.0 0
350000.0 641435.0 0
354000.0 641435.0 0
358000.0 641435.0 0
362000.0 641435.0 0
366000.0 641435.0 0
370000.0 641436.0 0
374000.0 641435.0 0
378000.0 641436.0 0
382000.0 641436.0 0
386000.0 641438.0 0
390000.0 641439.0 0
394000.0 641443.0 0
398000.0 641444.0 0
102000.0 645443.0 0
106000.0 645442.0 0
110000.0 645438.0 0
114000.0 645437.0 0
118000.0 645436.0 0
122000.0 645436.0 0
126000.0 645435.0 0
130000.0 645435.0 0
134000.0 645435.0 0
138000.0 645435.0 0
142000.0 645435.0 0
146000.0 645435.0 0
150000.0 645435.0 0
154000.0 645435.0 0
158000.0 645435.0 0
162000.0 645435.0 0
166000.0 645435.0 0
170000.0 645435.0 0
174000.0 645435.0 0
178000.0 645435.0 0
182000.0 645435.0 0
186000.0 645435.0 0
190000.0 645435.0 0
194000.0 645435.0 0
198000.0 645435.0 0
202000.0 645435.0 0
206000.0 645435.0 0
210000.0 645435.0 0
214000.0 645435.0 0
218000.0 645435.0 0
222000.0 645435.0 0
226000.0 645435.0 0
230000.0 645435.0 0
234000.0 645435.0 0
238000.0 645435.0 0
242000.0 645435.0 0
246000.0 645435.0 0
250000.0 645435.0 0
254000.0 645435.0 0
258000.0 645435.0 0
262000.0 645435.0 0
266000.0 645435.0 0
270000.0 645435.0 0
274000.0 645435.0 0
278000.0 645435.0 0
282000.0 645435.0 0
286000.0 645435.0 0
290000.0 645435.0 0
294000.0 645435.0 0
298000.0 645435.0 0
302000.0 645435.0 0
306000.0 645435.0 0
310000.0 645435.0 0
314000.0 645435.0 0
318000.0 645435.0 0
322000.0 645435.0 0
326000.0 645435.0 0
330000.0 645435.0 0
334000.0 645435.0 0
338000.0 645435.0 0
342000.0 645435.0 0
346000.0 645435.0 0
350000.0 645435.0 0
354000.0 645435.0 0
358000.0 645435.0 0
362000.0 645435.0 0
366000.0 645435.0 0
370000.0 645435.0 0
374000.0 645435.0 0
378000.0 645436.0 0
382000.0 645436.0 0
386000.0 645437.0 0
390000.0 645438.0 0
394000.0 645442.0 0
398000.0 645443.0 0
102000.0 649443.0 0
106000.0 649442.0 0
110000.0 649438.0 0
114000.0 649437.0 0
118000.0 649436.0 0
122000.0 649436.0 0
126000.0 649435.0 0
130000.0 649435.0 0
134000.0 649435.0 0
138000.0 649435.0 0
142000.0 649435.0 0
146000.0 649435.0 0
150000.0 649435.0 0
154000.0 649435.0 0
158000.0 649435.0 0
162000.0 649435.0 0
166000.0 649435.0 0
170000.0 649435.0 0
174000.0 649435.0 0
178000.0 649435.0 0
182000.0 649435.0 0
186000.0 649435.0 0
190000.0 649435.0 0
194000.0 649435.0 0
198000.0 649435.0 0
202000.0 649435.0 0
206000.0 649435.0 0
210000.0 649435.0 0
214000.0 649435.0 0
218000.0 649435.0 0
222000.0 649435.0 0
226000.0 649435.0 0
230000.0 649435.0 0
234000.0 649435.0 0
238000.0 649435.0 0
242000.0 649435.0 0
246000.0 649435.0 0
250000.0 649435.0 0
254000.0 649435.0 0
258000.0 649435.0 0
262000.0 649435.0 0
266000.0 649435.0 0
270000.0 649435.0 0
274000.0 649435.0 0
278000.0 649435.0 0
282000.0 649435.0 0
286000.0 649435.0 0
290000.0 649435.0 0
294000.0 649435.0 0
298000.0 649435.0 0
302000.0 649435.0 0
306000.0 649435.0 0
310000.0 649435.0 0
314000.0 649435.0 0
318000.0 649435.0 0
322000.0 649435.0 0
326000.0 649435.0 0
330000.0 649435.0 0
334000.0 649435.0 0
338000.0 649435.0 0
342000.0 649435.0 0
346000.0 649435.0 0
350000.0 649435.0 0
354000.0 649435.0 0
358000.0 649435.0 0
362000.0 649435.0 0
366000.0 649435.0 0
370000.0 649435.0 0
374000.0 649435.0 0
378000.0 649436.0 0
382000.0 649436.0 0
386000.0 649437.0 0
390000.0 649438.0 0
394000.0 649442.0 0
398000.0 649443.0 0
102000.0 653443.0 0
106000.0 653441.0 0
110000.0 653438.0 0
114000.0 653437.0 0
118000.0 653435.0 0
122000.0 653436.0 0
126000.0 653435.0 0
130000.0 653435.0 0
134000.0 653435.0 0
138000.0 653435.0 0
142000.0 653435.0 0
146000.0 653435.0 0
150000.0 653435.0 0
154000.0 653435.0 0
158000.0 653435.0 0
162000.0 653435.0 0
166000.0 653435.0 0
170000.0 653435.0 0
174000.0 653435.0 0
178000.0 653435.0 0
182000.0 653435.0 0
186000.0 653435.0 0
190000.0 653435.0 0
194000.0 653435.0 0
198000.0 653435.0 0
202000.0 653435.0 0
206000.0 653435.0 0
210000.0 653435.0 0
214000.0 653435.0 0
218000.0 653435.0 0
222000.0 653435.0 0
226000.0 653435.0 0
230000.0 653435.0 0
234000.0 653435.0 0
238000.0 653435.0 0
242000.0 653435.0 0
246000.0 653435.0 0
250000.0 653435.0 0
254000.0 653435.0 0
258000.0 653435.0 0
262000.0 653435.0 0
266000.0 653435.0 0
270000.0 653435.0 0
274000.0 653435.0 0
278000.0 653435.0 0
282000.0 653435.0 0
286000.0 653435.0 0
290000.0 653435.0 0
294000.0 653435.0 0
298000.0 653435.0 0
302000.0 653435.0 0
306000.0 653435.0 0
310000.0 653435.0 0
314000.0 653435.0 0
318000.0 653435.0 0
322000.0 653435.0 0
326000.0 653435.0 0
330000.0 653435.0 0
334000.0 653435.0 0
338000.0 653435.0 0
342000.0 653435.0 0
346000.0 653435.0 0
350000.0 653435.0 0
354000.0 653435.0 0
358000.0 653435.0 0
362000.0 653435.0 0
366000.0 653435.0 0
370000.0 653435.0 0
374000.0 653435.0 0
378000.0 653436.0 0
382000.0 653435.0 0
386000.0 653437.0 0
390000.0 653438.0 0
394000.0 653441.0 0
398000.0 653443.0 0
102000.0 657443.0 0
106000.0 657441.0 0
110000.0 657438.0 0
114000.0 657437.0 0
118000.0 657435.0 0
122000.0 657436.0 0
126000.0 657435.0 0
130000.0 657435.0 0
134000.0 657435.0 0
138000.0 657435.0 0
142000.0 657435.0 0
146000.0 657435.0 0
150000.0 657435.0 0
154000.0 657435.0 0
158000.0 657435.0 0
162000.0 657435.0 0
166000.0 657435.0 0
170000.0 657435.0 0
174000.0 657435.0 0
178000.0 657435.0 0
182000.0 657435.0 0
186000.0 657435.0 0
190000.0 657435.0 0
194000.0 657435.0 0
198000.0 657435.0 0
202000.0 657435.0 0
206000.0 657435.0 0
210000.0 657435.0 0
214000.0 657435.0 0
218000.0 657435.0 0
222000.0 657435.0 0
226000.0 657435.0 0
230000.0 657435.0 0
234000.0 657435.0 0
238000.0 657435.0 0
242000.0 657435.0 0
246000.0 657435.0 0
250000.0 657435.0 0
254000.0 657435.0 0
258000.0 657435.0 0
262000.0 657435.0 0
266000.0 657435.0 0
270000.0 657435.0 0
274000.0 657435.0 0
278000.0 657435.0 0
282000.0 657435.0 0
286000.0 657435.0 0
290000.0 657435.0 0
294000.0 657435.0 0
298000.0 657435.0 0
302000.0 657435.0 0
306000.0 657435.0 0
310000.0 657435.0 0
314000.0 657435.0 0
318000.0 657435.0 0
322000.0 657435.0 0
326000.0 657435.0 0
330000.0 657435.0 0
334000.0 657435.0 0
338000.0 657435.0 0
342000.0 657435.0 0
346000.0 657435.0 0
350000.0 657435.0 0
354000.0 657435.0 0
358000.0 657435.0 0
362000.0 657435.0 0
366000.0 657435.0 0
370000.0 657435.0 0
374000.0 657435.0 0
378000.0 657436.0 0
382000.0 657435.0 0
386000.0 657437.0 0
390000.0 657438.0 0
394000.0 657441.0 0
398000.0 657443.0 0
POINT_DATA 4650
SCALARS Radius float 1
LOOKUP_TABLE default
4000.0 4000.0 4000.0 4000.0 4000.0 4000.0 4000.0 4000.0 4000.0 4000.0 4000.0 4000.0 4000.0 4000.0 4000.0 4000.0 4000.0 4000.0 4000.0 4000.0 4000.0 4000.0 4000.0 4000.0 4000.0 4000.0 4000.0 4000.0 4000.0 4000.0 4000.0 4000.0 4000.0 4000.0 4000.0 4000.0 4000.0 4000.0 4000.0 4000.0 4000.0 4000.0 4000.0 4000.0 4000.0 4000.0 4000.0 4000.0 4000.0 4000.0 4000.0 4000.0 4000.0 4000.0 4000.0 4000.0 4000.0 4000.0 4000.0 4000.0 4000.0 4000.0 4000.0 4000.0 4000.0 4000.0 4000.0 4000.0 4000.0 4000.0 4000.0 4000.0 4000.0 4000.0 4000.0 4000.0 4000.0 4000.0 4000.0 4000.0 4000.0 4000.0 4000.0 4000.0 4000.0 4000.0 4000.0 4000.0 4000.0 4000.0 4000.0 4000.0 4000.0 4000.0 4000.0 4000.0 4000.0 4000.0 4000.0 4000.0 4000.0 4000.0 4000.0 4000.0 4000.0 4000.0 4000.0 4000.0 4000.0 4000.0 4000.0 4000.0 4000.0 4000.0 4000.0 4000.0 4000.0 4000.0 4000.0 4000.0 4000.0 4000.0 4000.0 4000.0 4000.0 4000.0 4000.0 4000.0 4000.0 4000.0 4000.0 4000.0 4000.0 4000.0 4000.0 4000.0 4000.0 4000.0 4000.0 4000.0 4000.0 4000.0 4000.0 4000.0 4000.0 4000.0 4000.0 4000.0 4000.0 4000.0 4000.0 4000.0 4000.0 4000.0 4000.0 4000.0 4000.0 4000.0 4000.0 4000.0 4000.0 4000.0 4000.0 4000.0 4000.0 4000.0 4000.0 4000.0 4000.0 4000.0 4000.0 4000.0 4000.0 4000.0 4000.0 4000.0 4000.0 4000.0 4000.0 4000.0 4000.0 4000.0 4000.0 4000.0 4000.0 4000.0 4000.0 4000.0 4000.0 4000.0 4000.0 4000.0 4000.0 4000.0 4000.0 4000.0 4000.0 4000.0 4000.0 4000.0 4000.0 4000.0 4000.0 4000.0 4000.0 4000.0 4000.0 4000.0 4000.0 4000.0 4000.0 4000.0 4000.0 4000.0 4000.0 4000.0 4000.0 4000.0 4000.0 4000.0 4000.0 4000.0 4000.0 4000.0 4000.0 4000.0 4000.0 4000.0 4000.0 4000.0 4000.0 4000.0 4000.0 4000.0 4000.0 4000.0 4000.0 4000.0 4000.0 4000.0 4000.0 4000.0 4000.0 4000.0 4000.0 4000.0 4000.0 4000.0 4000.0 4000.0 4000.0 4000.0 4000.0 4000.0 4000.0 4000.0 4000.0 4000.0 4000.0 4000.0 4000.0 4000.0 4000.0 4000.0 4000.0 4000.0 4000.0 4000.0 4000.0 4000.0 4000.0 4000.0 4000.0 4000.0 4000.0 4000.0 4000.0 4000.0 4000.0 4000.0 4000.0 4000.0 4000.0 4000.0 4000.0 4000.0 4000.0 4000.0 4000.0 4000.0 4000.0 4000.0 4000.0 4000.0 4000.0 4000.0 4000.0 4000.0 4000.0 4000.0 4000.0 4000.0 4000.0 4000.0 4000.0 4000.0 4000.0 4000.0 4000.0 4000.0 4000.0 4000.0 4000.0 4000.0 4000.0 4000.0 4000.0 4000.0 4000.0 4000.0 4000.0 4000.0 4000.0 4000.0 4000.0 4000.0 4000.0 4000.0 4000.0 4000.0 4000.0 4000.0 4000.0 4000.0 4000.0 4000.0 4000.0 4000.0 4000.0 4000.0 4000.0 4000.0 4000.0 4000.0 4000.0 4000.0 4000.0 4000.0 4000.0 4000.0 4000.0 4000.0 4000.0 4000.0 4000.0 4000.0 4000.0 4000.0 4000.0 4000.0 4000.0 4000.0 4000.0 4000.0 4000.0 4000.0 4000.0 4000.0 4000.0 4000.0 4000.0 4000.0 4000.0 4000.0 4000.0 4000.0 4000.0 4000.0 4000.0 4000.0 4000.0 4000.0 4000.0 4000.0 4000.0 4000.0 4000.0 4000.0 4000.0 4000.0 4000.0 4000.0 4000.0 4000.0 4000.0 4000.0 4000.0 4000.0 4000.0 4000.0 4000.0 4000.0 4000.0 4000.0 4000.0 4000.0 4000.0 4000.0 4000.0 4000.0 4000.0 4000.0 4000.0 4000.0 4000.0 4000.0 4000.0 4000.0 4000.0 4000.0 4000.0 4000.0 4000.0 4000.0 4000.0 4000.0 4000.0 4000.0 4000.0 4000.0 4000.0 4000.0 4000.0 4000.0 4000.0 4000.0 4000.0 4000.0 4000.0 4000.0 4000.0 4000.0 4000.0 4000.0 4000.0 4000.0 4000.0 4000.0 4000.0 4000.0 4000.0 4000.0 4000.0 4000.0 4000.0 4000.0 4000.0 4000.0 4000.0 4000.0 4000.0 4000.0 4000.0 4000.0 4000.0 4000.0 4000.0 4000.0 4000.0 4000.0 4000.0 4000.0 4000.0 4000.0 4000.0 4000.0 4000.0 4000.0 4000.0 4000.0 4000.0 4000.0 4000.0 4000.0 4000.0 4000.0 4000.0 4000.0 4000.0 4000.0 4000.0 4000.0 4000.0 4000.0 4000.0 4000.0 4000.0 4000.0 4000.0 4000.0 4000.0 4000.0 4000.0 4000.0 4000.0 4000.0 4000.0 4000.0 4000.0 4000.0 4000.0 4000.0 4000.0 4000.0 4000.0 4000.0 4000.0 4000.0 4000.0 4000.0 4000.0 4000.0 4000.0 4000.0 4000.0 4000.0 4000.0 4000.0 4000.0 4000.0 4000.0 4000.0 4000.0 4000.0 4000.0 4000.0 4000.0 4000.0 4000.0 4000.0 4000.0 4000.0 4000.0 4000.0 4000.0 4000.0 4000.0 4000.0 4000.0 4000.0 4000.0 4000.0 4000.0 4000.0 4000.0 4000.0 4000.0 4000.0 4000.0 4000.0 4000.0 4000.0 4000.0 4000.0 4000.0 4000.0 4000.0 4000.0 4000.0 4000.0 4000.0 4000.0 4000.0 4000.0 4000.0 4000.0 4000.0 4000.0 4000.0 4000.0 4000.0 4000.0 4000.0 4000.0 4000.0 4000.0 4000.0 4000.0 4000.0 4000.0 4000.0 4000.0 4000.0 4000.0 4000.0 4000.0 4000.0 4000.0 4000.0 4000.0 4000.0 4000.0 4000.0 4000.0 4000.0 4000.0 4000.0 4000.0 4000.0 4000.0 4000.0 4000.0 4000.0 4000.0 4000.0 4000.0 4000.0 4000.0 4000.0 4000.0 4000.0 4000.0 4000.0 4000.0 4000.0 4000.0 4000.0 4000.0 4000.0 4000.0 4000.0 4000.0 4000.0 4000.0 4000.0 4000.0 4000.0 4000.0 4000.0 4000.0 4000.0 4000.0 4000.0 4000.0 4000.0 4000.0 4000.0 4000.0 4000.0 4000.0 4000.0 4000.0 4000.0 4000.0 4000.0 4000.0 4000.0 4000.0 4000.0 4000.0 4000.0 4000.0 4000.0 4000.0 4000.0 4000.0 4000.0 4000.0 4000.0 4000.0 4000.0 4000.0 4000.0 4000.0 4000.0 4000.0 4000.0 4000.0 4000.0 4000.0 4000.0 4000.0 4000.0 4000.0 4000.0 4000.0 4000.0 4000.0 4000.0 4000.0 4000.0 4000.0 4000.0 4000.0 4000.0 4000.0 4000.0 4000.0 4000.0 4000.0 4000.0 4000.0 4000.0 4000.0 4000.0 4000.0 4000.0 4000.0 4000.0 4000.0 4000.0 4000.0 4000.0 4000.0 4000.0 4000.0 4000.0 4000.0 4000.0 4000.0 4000.0 4000.0 4000.0 4000.0 4000.0 4000.0 4000.0 4000.0 4000.0 4000.0 4000.0 4000.0 4000.0 4000.0 4000.0 4000.0 4000.0 4000.0 4000.0 4000.0 4000.0 4000.0 4000.0 4000.0 4000.0 4000.0 4000.0 4000.0 4000.0 4000.0 4000.0 4000.0 4000.0 4000.0 4000.0 4000.0 4000.0 4000.0 4000.0 4000.0 4000.0 4000.0 4000.0 4000.0 4000.0 4000.0 4000.0 4000.0 4000.0 4000.0 4000.0 4000.0 4000.0 4000.0 4000.0 4000.0 4000.0 4000.0 4000.0 4000.0 4000.0 4000.0 4000.0 4000.0 4000.0 4000.0 4000.0 4000.0 4000.0 4000.0 4000.0 4000.0 4000.0 4000.0 4000.0 4000.0 4000.0 4000.0 4000.0 4000.0 4000.0 4000.0 4000.0 4000.0 4000.0 4000.0 4000.0 4000.0 4000.0 4000.0 4000.0 4000.0 4000.0 4000.0 4000.0 4000.0 4000.0 4000.0 4000.0 4000.0 4000.0 4000.0 4000.0 4000.0 4000.0 4000.0 4000.0 4000.0 4000.0 4000.0 4000.0 4000.0 4000.0 4000.0 4000.0 4000.0 4000.0 4000.0 4000.0 4000.0 4000.0 4000.0 4000.0 4000.0 4000.0 4000.0 4000.0 4000.0 4000.0 4000.0 4000.0 4000.0 4000.0 4000.0 4000.0 4000.0 4000.0 4000.0 4000.0 4000.0 4000.0 4000.0 4000.0 4000.0 4000.0 4000.0 4000.0 4000.0 4000.0 4000.0 4000.0 4000.0 4000.0 4000.0 4000.0 4000.0 4000.0 4000.0 4000.0 4000.0 4000.0 4000.0 4000.0 4000.0 4000.0 4000.0 4000.0 4000.0 4000.0 4000.0 4000.0 4000.0 4000.0 4000.0 4000.0 4000.0 4000.0 4000.0 4000.0 4000.0 4000.0 4000.0 4000.0 4000.0 4000.0 4000.0 4000.0 4000.0 4000.0 4000.0 4000.0 4000.0 4000.0 4000.0 4000.0 4000.0 4000.0 4000.0 4000.0 4000.0 4000.0 4000.0 4000.0 4000.0 4000.0 4000.0 4000.0 4000.0 4000.0 4000.0 4000.0 4000.0 4000.0 4000.0 4000.0 4000.0 4000.0 4000.0 4000.0 4000.0 4000.0 4000.0 4000.0 4000.0 4000.0 4000.0 4000.0 4000.0 4000.0 4000.0 4000.0 4000.0 4000.0 4000.0 4000.0 4000.0 4000.0 4000.0 4000.0 4000.0 4000.0 4000.0 4000.0 4000.0 4000.0 4000.0 4000.0 4000.0 4000.0 4000.0 4000.0 4000.0 4000.0 4000.0 4000.0 4000.0 4000.0 4000.0 4000.0 4000.0 4000.0 4000.0 4000.0 4000.0 4000.0 4000.0 4000.0 4000.0 4000.0 4000.0 4000.0 4000.0 4000.0 4000.0 4000.0 4000.0 4000.0 4000.0 4000.0 4000.0 4000.0 4000.0 4000.0 4000.0 4000.0 4000.0 4000.0 4000.0 4000.0 4000.0 4000.0 4000.0 4000.0 4000.0 4000.0 4000.0 4000.0 4000.0 4000.0 4000.0 4000.0 4000.0 4000.0 4000.0 4000.0 4000.0 4000.0 4000.0 4000.0 4000.0 4000.0 4000.0 4000.0 4000.0 4000.0 4000.0 4000.0 4000.0 4000.0 4000.0 4000.0 4000.0 4000.0 4000.0 4000.0 4000.0 4000.0 4000.0 4000.0 4000.0 4000.0 4000.0 4000.0 4000.0 4000.0 4000.0 4000.0 4000.0 4000.0 4000.0 4000.0 4000.0 4000.0 4000.0 4000.0 4000.0 4000.0 4000.0 4000.0 4000.0 4000.0 4000.0 4000.0 4000.0 4000.0 4000.0 4000.0 4000.0 4000.0 4000.0 4000.0 4000.0 4000.0 4000.0 4000.0 4000.0 4000.0 4000.0 4000.0 4000.0 4000.0 4000.0 4000.0 4000.0 4000.0 4000.0 4000.0 4000.0 4000.0 4000.0 4000.0 4000.0 4000.0 4000.0 4000.0 4000.0 4000.0 4000.0 4000.0 4000.0 4000.0 4000.0 4000.0 4000.0 4000.0 4000.0 4000.0 4000.0 4000.0 4000.0 4000.0 4000.0 4000.0 4000.0 4000.0 4000.0 4000.0 4000.0 4000.0 4000.0 4000.0 4000.0 4000.0 4000.0 4000.0 4000.0 4000.0 4000.0 4000.0 4000.0 4000.0 4000.0 4000.0 4000.0 4000.0 4000.0 4000.0 4000.0 4000.0 4000.0 4000.0 4000.0 4000.0 4000.0 4000.0 4000.0 4000.0 4000.0 4000.0 4000.0 4000.0 4000.0 4000.0 4000.0 4000.0 4000.0 4000.0 4000.0 4000.0 4000.0 4000.0 4000.0 4000.0 4000.0 4000.0 4000.0 4000.0 4000.0 4000.0 4000.0 4000.0 4000.0 4000.0 4000.0 4000.0 4000.0 4000.0 4000.0 4000.0 4000.0 4000.0 4000.0 4000.0 4000.0 4000.0 4000.0 4000.0 4000.0 4000.0 4000.0 4000.0 4000.0 4000.0 4000.0 4000.0 4000.0 4000.0 4000.0 4000.0 4000.0 4000.0 4000.0 4000.0 4000.0 4000.0 4000.0 4000.0 4000.0 4000.0 4000.0 4000.0 4000.0 4000.0 4000.0 4000.0 4000.0 4000.0 4000.0 4000.0 4000.0 4000.0 4000.0 4000.0 4000.0 4000.0 4000.0 4000.0 4000.0 4000.0 4000.0 4000.0 4000.0 4000.0 4000.0 4000.0 4000.0 4000.0 4000.0 4000.0 4000.0 4000.0 4000.0 4000.0 4000.0 4000.0 4000.0 4000.0 4000.0 4000.0 4000.0 4000.0 4000.0 4000.0 4000.0 4000.0 4000.0 4000.0 4000.0 4000.0 4000.0 4000.0 4000.0 4000.0 4000.0 4000.0 4000.0 4000.0 4000.0 4000.0 4000.0 4000.0 4000.0 4000.0 4000.0 4000.0 4000.0 4000.0 4000.0 4000.0 4000.0 4000.0 4000.0 4000.0 4000.0 4000.0 4000.0 4000.0 4000.0 4000.0 4000.0 4000.0 4000.0 4000.0 4000.0 4000.0 4000.0 4000.0 4000.0 4000.0 4000.0 4000.0 4000.0 4000.0 4000.0 4000.0 4000.0 4000.0 4000.0 4000.0 4000.0 4000.0 4000.0 4000.0 4000.0 4000.0 4000.0 4000.0 4000.0 4000.0 4000.0 4000.0 4000.0 4000.0 4000.0 4000.0 4000.0 4000.0 4000.0 4000.0 4000.0 4000.0 4000.0 4000.0 4000.0 4000.0 4000.0 4000.0 4000.0 4000.0 4000.0 4000.0 4000.0 4000.0 4000.0 4000.0 4000.0 4000.0 4000.0 4000.0 4000.0 4000.0 4000.0 4000.0 4000.0 4000.0 4000.0 4000.0 4000.0 4000.0 4000.0 4000.0 4000.0 4000.0 4000.0 4000.0 4000.0 4000.0 4000.0 4000.0 4000.0 4000.0 4000.0 4000.0 4000.0 4000.0 4000.0 4000.0 4000.0 4000.0 4000.0 4000.0 4000.0 4000.0 4000.0 4000.0 4000.0 4000.0 4000.0 4000.0 4000.0 4000.0 4000.0 4000.0 4000.0 4000.0 4000.0 4000.0 4000.0 4000.0 4000.0 4000.0 4000.0 4000.0 4000.0 4000.0 4000.0 4000.0 4000.0 4000.0 4000.0 4000.0 4000.0 4000.0 4000.0 4000.0 4000.0 4000.0 4000.0 4000.0 4000.0 4000.0 4000.0 4000.0 4000.0 4000.0 4000.0 4000.0 4000.0 4000.0 4000.0 4000.0 4000.0 4000.0 4000.0 4000.0 4000.0 4000.0 4000.0 4000.0 4000.0 4000.0 4000.0 4000.0 4000.0 4000.0 4000.0 4000.0 4000.0 4000.0 4000.0 4000.0 4000.0 4000.0 4000.0 4000.0 4000.0 4000.0 4000.0 4000.0 4000.0 4000.0 4000.0 4000.0 4000.0 4000.0 4000.0 4000.0 4000.0 4000.0 4000.0 4000.0 4000.0 4000.0 4000.0 4000.0 4000.0 4000.0 4000.0 4000.0 4000.0 4000.0 4000.0 4000.0 4000.0 4000.0 4000.0 4000.0 4000.0 4000.0 4000.0 4000.0 4000.0 4000.0 4000.0 4000.0 4000.0 4000.0 4000.0 4000.0 4000.0 4000.0 4000.0 4000.0 4000.0 4000.0 4000.0 4000.0 4000.0 4000.0 4000.0 4000.0 4000.0 4000.0 4000.0 4000.0 4000.0 4000.0 4000.0 4000.0 4000.0 4000.0 4000.0 4000.0 4000.0 4000.0 4000.0 4000.0 4000.0 4000.0 4000.0 4000.0 4000.0 4000.0 4000.0 4000.0 4000.0 4000.0 4000.0 4000.0 4000.0 4000.0 4000.0 4000.0 4000.0 4000.0 4000.0 4000.0 4000.0 4000.0 4000.0 4000.0 4000.0 4000.0 4000.0 4000.0 4000.0 4000.0 4000.0 4000.0 4000.0 4000.0 4000.0 4000.0 4000.0 4000.0 4000.0 4000.0 4000.0 4000.0 4000.0 4000.0 4000.0 4000.0 4000.0 4000.0 4000.0 4000.0 4000.0 4000.0 4000.0 4000.0 4000.0 4000.0 4000.0 4000.0 4000.0 4000.0 4000.0 4000.0 4000.0 4000.0 4000.0 4000.0 4000.0 4000.0 4000.0 4000.0 4000.0 4000.0 4000.0 4000.0 4000.0 4000.0 4000.0 4000.0 4000.0 4000.0 4000.0 4000.0 4000.0 4000.0 4000.0 4000.0 4000.0 4000.0 4000.0 4000.0 4000.0 4000.0 4000.0 4000.0 4000.0 4000.0 4000.0 4000.0 4000.0 4000.0 4000.0 4000.0 4000.0 4000.0 4000.0 4000.0 4000.0 4000.0 4000.0 4000.0 4000.0 4000.0 4000.0 4000.0 4000.0 4000.0 4000.0 4000.0 4000.0 4000.0 4000.0 4000.0 4000.0 4000.0 4000.0 4000.0 4000.0 4000.0 4000.0 4000.0 4000.0 4000.0 4000.0 4000.0 4000.0 4000.0 4000.0 4000.0 4000.0 4000.0 4000.0 4000.0 4000.0 4000.0 4000.0 4000.0 4000.0 4000.0 4000.0 4000.0 4000.0 4000.0 4000.0 4000.0 4000.0 4000.0 4000.0 4000.0 4000.0 4000.0 4000.0 4000.0 4000.0 4000.0 4000.0 4000.0 4000.0 4000.0 4000.0 4000.0 4000.0 4000.0 4000.0 4000.0 4000.0 4000.0 4000.0 4000.0 4000.0 4000.0 4000.0 4000.0 4000.0 4000.0 4000.0 4000.0 4000.0 4000.0 4000.0 4000.0 4000.0 4000.0 4000.0 4000.0 4000.0 4000.0 4000.0 4000.0 4000.0 4000.0 4000.0 4000.0 4000.0 4000.0 4000.0 4000.0 4000.0 4000.0 4000.0 4000.0 4000.0 4000.0 4000.0 4000.0 4000.0 4000.0 4000.0 4000.0 4000.0 4000.0 4000.0 4000.0 4000.0 4000.0 4000.0 4000.0 4000.0 4000.0 4000.0 4000.0 4000.0 4000.0 4000.0 4000.0 4000.0 4000.0 4000.0 4000.0 4000.0 4000.0 4000.0 4000.0 4000.0 4000.0 4000.0 4000.0 4000.0 4000.0 4000.0 4000.0 4000.0 4000.0 4000.0 4000.0 4000.0 4000.0 4000.0 4000.0 4000.0 4000.0 4000.0 4000.0 4000.0 4000.0 4000.0 4000.0 4000.0 4000.0 4000.0 4000.0 4000.0 4000.0 4000.0 4000.0 4000.0 4000.0 4000.0 4000.0 4000.0 4000.0 4000.0 4000.0 4000.0 4000.0 4000.0 4000.0 4000.0 4000.0 4000.0 4000.0 4000.0 4000.0 4000.0 4000.0 4000.0 4000.0 4000.0 4000.0 4000.0 4000.0 4000.0 4000.0 4000.0 4000.0 4000.0 4000.0 4000.0 4000.0 4000.0 4000.0 4000.0 4000.0 4000.0 4000.0 4000.0 4000.0 4000.0 4000.0 4000.0 4000.0 4000.0 4000.0 4000.0 4000.0 4000.0 4000.0 4000.0 4000.0 4000.0 4000.0 4000.0 4000.0 4000.0 4000.0 4000.0 4000.0 4000.0 4000.0 4000.0 4000.0 4000.0 4000.0 4000.0 4000.0 4000.0 4000.0 4000.0 4000.0 4000.0 4000.0 4000.0 4000.0 4000.0 4000.0 4000.0 4000.0 4000.0 4000.0 4000.0 4000.0 4000.0 4000.0 4000.0 4000.0 4000.0 4000.0 4000.0 4000.0 4000.0 4000.0 4000.0 4000.0 4000.0 4000.0 4000.0 4000.0 4000.0 4000.0 4000.0 4000.0 4000.0 4000.0 4000.0 4000.0 4000.0 4000.0 4000.0 4000.0 4000.0 4000.0 4000.0 4000.0 4000.0 4000.0 4000.0 4000.0 4000.0 4000.0 4000.0 4000.0 4000.0 4000.0 4000.0 4000.0 4000.0 4000.0 4000.0 4000.0 4000.0 4000.0 4000.0 4000.0 4000.0 4000.0 4000.0 4000.0 4000.0 4000.0 4000.0 4000.0 4000.0 4000.0 4000.0 4000.0 4000.0 4000.0 4000.0 4000.0 4000.0 4000.0 4000.0 4000.0 4000.0 4000.0 4000.0 4000.0 4000.0 4000.0 4000.0 4000.0 4000.0 4000.0 4000.0 4000.0 4000.0 4000.0 4000.0 4000.0 4000.0 4000.0 4000.0 4000.0 4000.0 4000.0 4000.0 4000.0 4000.0 4000.0 4000.0 4000.0 4000.0 4000.0 4000.0 4000.0 4000.0 4000.0 4000.0 4000.0 4000.0 4000.0 4000.0 4000.0 4000.0 4000.0 4000.0 4000.0 4000.0 4000.0 4000.0 4000.0 4000.0 4000.0 4000.0 4000.0 4000.0 4000.0 4000.0 4000.0 4000.0 4000.0 4000.0 4000.0 4000.0 4000.0 4000.0 4000.0 4000.0 4000.0 4000.0 4000.0 4000.0 4000.0 4000.0 4000.0 4000.0 4000.0 4000.0 4000.0 4000.0 4000.0 4000.0 4000.0 4000.0 4000.0 4000.0 4000.0 4000.0 4000.0 4000.0 4000.0 4000.0 4000.0 4000.0 4000.0 4000.0 4000.0 4000.0 4000.0 4000.0 4000.0 4000.0 4000.0 4000.0 4000.0 4000.0 4000.0 4000.0 4000.0 4000.0 4000.0 4000.0 4000.0 4000.0 4000.0 4000.0 4000.0 4000.0 4000.0 4000.0 4000.0 4000.0 4000.0 4000.0 4000.0 4000.0 4000.0 4000.0 4000.0 4000.0 4000.0 4000.0 4000.0 4000.0 4000.0 4000.0 4000.0 4000.0 4000.0 4000.0 4000.0 4000.0 4000.0 4000.0 4000.0 4000.0 4000.0 4000.0 4000.0 4000.0 4000.0 4000.0 4000.0 4000.0 4000.0 4000.0 4000.0 4000.0 4000.0 4000.0 4000.0 4000.0 4000.0 4000.0 4000.0 4000.0 4000.0 4000.0 4000.0 4000.0 4000.0 4000.0 4000.0 4000.0 4000.0 4000.0 4000.0 4000.0 4000.0 4000.0 4000.0 4000.0 4000.0 4000.0 4000.0 4000.0 4000.0 4000.0 4000.0 4000.0 4000.0 4000.0 4000.0 4000.0 4000.0 4000.0 4000.0 4000.0 4000.0 4000.0 4000.0 4000.0 4000.0 4000.0 4000.0 4000.0 4000.0 4000.0 4000.0 4000.0 4000.0 4000.0 4000.0 4000.0 4000.0 4000.0 4000.0 4000.0 4000.0 4000.0 4000.0 4000.0 4000.0 4000.0 4000.0 4000.0 4000.0 4000.0 4000.0 4000.0 4000.0 4000.0 4000.0 4000.0 4000.0 4000.0 4000.0 4000.0 4000.0 4000.0 4000.0 4000.0 4000.0 4000.0 4000.0 4000.0 4000.0 4000.0 4000.0 4000.0 4000.0 4000.0 4000.0 4000.0 4000.0 4000.0 4000.0 4000.0 4000.0 4000.0 4000.0 4000.0 4000.0 4000.0 4000.0 4000.0 4000.0 4000.0 4000.0 4000.0 4000.0 4000.0 4000.0 4000.0 4000.0 4000.0 4000.0 4000.0 4000.0 4000.0 4000.0 4000.0 4000.0 4000.0 4000.0 4000.0 4000.0 4000.0 4000.0 4000.0 4000.0 4000.0 4000.0 4000.0 4000.0 4000.0 4000.0 4000.0 4000.0 4000.0 4000.0 4000.0 4000.0 4000.0 4000.0 4000.0 4000.0 4000.0 4000.0 4000.0 4000.0 4000.0 4000.0 4000.0 4000.0 4000.0 4000.0 4000.0 4000.0 4000.0 4000.0 4000.0 4000.0 4000.0 4000.0 4000.0 4000.0 4000.0 4000.0 4000.0 4000.0 4000.0 4000.0 4000.0 4000.0 4000.0 4000.0 4000.0 4000.0 4000.0 4000.0 4000.0 4000.0 4000.0 4000.0 4000.0 4000.0 4000.0 4000.0 4000.0 4000.0 4000.0 4000.0 4000.0 4000.0 4000.0 4000.0 4000.0 4000.0 4000.0 4000.0 4000.0 4000.0 4000.0 4000.0 4000.0 4000.0 4000.0 4000.0 4000.0 4000.0 4000.0 4000.0 4000.0 4000.0 4000.0 4000.0 4000.0 4000.0 4000.0 4000.0 4000.0 4000.0 4000.0 4000.0 4000.0 4000.0 4000.0 4000.0 4000.0 4000.0 4000.0 4000.0 4000.0 4000.0 4000.0 4000.0 4000.0 4000.0 4000.0 4000.0 4000.0 4000.0 4000.0 4000.0 4000.0 4000.0 4000.0 4000.0 4000.0 4000.0 4000.0 4000.0 4000.0 4000.0 4000.0 4000.0 4000.0 4000.0 4000.0 4000.0 4000.0 4000.0 4000.0 4000.0 4000.0 4000.0 4000.0 4000.0 4000.0 4000.0 4000.0 4000.0 4000.0 4000.0 4000.0 4000.0 4000.0 4000.0 4000.0 4000.0 4000.0 4000.0 4000.0 4000.0 4000.0 4000.0 4000.0 4000.0 4000.0 4000.0 4000.0 4000.0 4000.0 4000.0 4000.0 4000.0 4000.0 4000.0 4000.0 4000.0 4000.0 4000.0 4000.0 4000.0 4000.0 4000.0 4000.0 4000.0 4000.0 4000.0 4000.0 4000.0 4000.0 4000.0 4000.0 4000.0 4000.0 4000.0 4000.0 4000.0 4000.0 4000.0 4000.0 4000.0 4000.0 4000.0 4000.0 4000.0 4000.0 4000.0 4000.0 4000.0 4000.0 4000.0 4000.0 4000.0 4000.0 4000.0 4000.0 4000.0 4000.0 4000.0 4000.0 4000.0 4000.0 4000.0 4000.0 4000.0 4000.0 4000.0 4000.0 4000.0 4000.0 4000.0 4000.0 4000.0 4000.0 4000.0 4000.0 4000.0 4000.0 4000.0 4000.0 4000.0 4000.0 4000.0 4000.0 4000.0 4000.0 4000.0 4000.0 4000.0 4000.0 4000.0 4000.0 4000.0 4000.0 4000.0 4000.0 4000.0 4000.0 4000.0 4000.0 4000.0 4000.0 4000.0 4000.0 4000.0 4000.0 4000.0 4000.0 4000.0 4000.0 4000.0 4000.0 4000.0 4000.0 4000.0 4000.0 4000.0 4000.0 4000.0 4000.0 4000.0 4000.0 4000.0 4000.0 4000.0 4000.0 4000.0 4000.0 4000.0 4000.0 4000.0 4000.0 4000.0 4000.0 4000.0 4000.0 4000.0 4000.0 4000.0 4000.0 4000.0 4000.0 4000.0 4000.0 4000.0 4000.0 4000.0 4000.0 4000.0 4000.0 4000.0 4000.0 4000.0 4000.0 4000.0 4000.0 4000.0 4000.0 4000.0 4000.0 4000.0 4000.0 4000.0 4000.0 4000.0 4000.0 4000.0 4000.0 4000.0 4000.0 4000.0 4000.0 4000.0 4000.0 4000.0 4000.0 4000.0 4000.0 4000.0 4000.0 4000.0 4000.0 4000.0 4000.0 4000.0 4000.0 4000.0 4000.0 4000.0 4000.0 4000.0 4000.0 4000.0 4000.0 4000.0 4000.0 4000.0 4000.0 4000.0 4000.0 4000.0 4000.0 4000.0 4000.0 4000.0 4000.0 4000.0 4000.0 4000.0 4000.0 4000.0 4000.0 4000.0 4000.0 4000.0 4000.0 4000.0 4000.0 4000.0 4000.0 4000.0 4000.0 4000.0 4000.0 4000.0 4000.0 4000.0 4000.0 4000.0 4000.0 4000.0 4000.0 4000.0 4000.0 4000.0 4000.0 4000.0 4000.0 4000.0 4000.0 4000.0 4000.0 4000.0 4000.0 4000.0 4000.0 4000.0 4000.0 4000.0 4000.0 4000.0 4000.0 4000.0 4000.0 4000.0 4000.0 4000.0 4000.0 4000.0 4000.0 4000.0 4000.0 4000.0 4000.0 4000.0 4000.0 4000.0 4000.0 4000.0 4000.0 4000.0 4000.0 4000.0 4000.0 4000.0 4000.0 4000.0 4000.0 4000.0 4000.0 4000.0 4000.0 4000.0 4000.0 4000.0 4000.0 4000.0 4000.0 4000.0 4000.0 4000.0 4000.0 4000.0 4000.0 4000.0 4000.0 4000.0 4000.0 4000.0 4000.0 4000.0 4000.0 4000.0 4000.0 4000.0 4000.0 4000.0 4000.0 4000.0 4000.0 4000.0 4000.0 4000.0 4000.0 4000.0 4000.0 4000.0 4000.0 4000.0 4000.0 4000.0 4000.0 4000.0 4000.0 4000.0 4000.0 4000.0 4000.0 4000.0 4000.0 4000.0 4000.0 4000.0 4000.0 4000.0 4000.0 4000.0 4000.0 4000.0 4000.0 4000.0 4000.0 4000.0 4000.0 4000.0 4000.0 4000.0 4000.0 4000.0 4000.0 4000.0 4000.0 4000.0 4000.0 4000.0 4000.0 4000.0 4000.0 4000.0 4000.0 4000.0 4000.0 4000.0 4000.0 4000.0 4000.0 4000.0 4000.0 4000.0 4000.0 4000.0 4000.0 4000.0 4000.0 4000.0 4000.0 4000.0 4000.0 4000.0 4000.0 4000.0 4000.0 4000.0 4000.0 4000.0 4000.0 4000.0 4000.0 4000.0 4000.0 4000.0 4000.0 4000.0 4000.0 4000.0 4000.0 4000.0 4000.0 4000.0 4000.0 4000.0 4000.0 4000.0 4000.0 4000.0 4000.0 4000.0 4000.0 4000.0 4000.0 4000.0 4000.0 4000.0 4000.0 4000.0 4000.0 4000.0 4000.0 4000.0 4000.0 4000.0 4000.0 4000.0 4000.0 4000.0 4000.0 4000.0 4000.0 4000.0 4000.0 4000.0 4000.0 4000.0 4000.0 4000.0 4000.0 4000.0 4000.0 4000.0 4000.0 4000.0 4000.0 4000.0 4000.0 4000.0 4000.0 4000.0 4000.0 4000.0 4000.0 4000.0 4000.0 4000.0 4000.0 4000.0 4000.0 4000.0 4000.0 4000.0 4000.0 4000.0 4000.0 4000.0 4000.0 4000.0 4000.0 4000.0 4000.0 4000.0 4000.0 4000.0 4000.0 4000.0 4000.0 4000.0 4000.0 4000.0 4000.0 4000.0 4000.0 4000.0 4000.0 4000.0 4000.0 4000.0 4000.0 4000.0 4000.0 4000.0 4000.0 4000.0 4000.0 4000.0 4000.0 4000.0 4000.0 4000.0 4000.0 4000.0 4000.0 4000.0 4000.0 4000.0 4000.0 4000.0 4000.0 4000.0 4000.0 4000.0 4000.0 4000.0 4000.0 4000.0 4000.0 4000.0 4000.0 4000.0 4000.0 4000.0 4000.0 4000.0 4000.0 4000.0 4000.0 4000.0 4000.0 4000.0 4000.0 4000.0 4000.0 4000.0 4000.0 4000.0 4000.0 4000.0 4000.0 4000.0 4000.0 4000.0 4000.0 4000.0 4000.0 4000.0 4000.0 4000.0 4000.0 4000.0 4000.0 4000.0 4000.0 4000.0 4000.0 4000.0 4000.0 4000.0 4000.0 4000.0 4000.0 4000.0 4000.0 4000.0 4000.0 4000.0 4000.0 4000.0 4000.0 4000.0 4000.0 4000.0 4000.0 4000.0 4000.0 4000.0 4000.0 4000.0 4000.0 4000.0 4000.0 4000.0 4000.0 4000.0 4000.0 4000.0 4000.0 4000.0 4000.0 4000.0 4000.0 4000.0 4000.0 4000.0 4000.0 4000.0 4000.0 4000.0 4000.0 4000.0 4000.0 4000.0 4000.0 4000.0 4000.0 4000.0 4000.0 4000.0 4000.0 4000.0 4000.0 4000.0 4000.0 4000.0 4000.0 4000.0 4000.0 4000.0 4000.0 4000.0 4000.0 4000.0 4000.0 4000.0 4000.0 4000.0 4000.0 4000.0 4000.0 4000.0 4000.0 4000.0 4000.0 4000.0 4000.0 4000.0 4000.0 4000.0 4000.0 4000.0 4000.0 4000.0 4000.0 4000.0 4000.0 4000.0 4000.0 4000.0 4000.0 4000.0 4000.0 4000.0 4000.0 4000.0 4000.0 4000.0 4000.0 4000.0 4000.0 4000.0 4000.0 4000.0 4000.0 4000.0 4000.0 4000.0 4000.0 4000.0 4000.0 4000.0 4000.0 4000.0 4000.0 4000.0 4000.0 4000.0 4000.0 4000.0 4000.0 4000.0 4000.0 4000.0 4000.0 4000.0 4000.0 4000.0 4000.0 4000.0 4000.0 4000.0 4000.0 4000.0 4000.0 4000.0 4000.0 4000.0 4000.0 4000.0 4000.0 4000.0 4000.0 4000.0 4000.0 4000.0 4000.0 4000.0 4000.0 4000.0 4000.0 4000.0 4000.0 4000.0 4000.0 4000.0 4000.0 4000.0 4000.0 4000.0 4000.0 4000.0 4000.0 4000.0 4000.0 4000.0 4000.0 4000.0 4000.0 4000.0 4000.0 4000.0 4000.0 4000.0 4000.0 4000.0 4000.0 4000.0 4000.0 4000.0 4000.0 4000.0 4000.0 4000.0 4000.0 4000.0 4000.0 4000.0 4000.0 4000.0 4000.0 4000.0 4000.0 4000.0 4000.0 4000.0 4000.0 4000.0 4000.0 4000.0 4000.0 4000.0 4000.0 4000.0 4000.0 4000.0 4000.0 4000.0 4000.0 4000.0 4000.0 4000.0 4000.0 4000.0 4000.0 4000.0 4000.0 4000.0 4000.0 4000.0 4000.0 4000.0 4000.0 4000.0 4000.0 4000.0 4000.0 4000.0 4000.0 4000.0 4000.0 4000.0 4000.0 4000.0 4000.0 4000.0 4000.0 4000.0 4000.0 4000.0 4000.0 4000.0 4000.0 4000.0 4000.0 4000.0 4000.0 4000.0 4000.0 4000.0 4000.0 4000.0 4000.0 4000.0 4000.0 4000.0 4000.0 4000.0 4000.0 4000.0 4000.0 4000.0 4000.0 4000.0 4000.0 4000.0 4000.0 4000.0 4000.0 4000.0 4000.0 4000.0 4000.0 4000.0 4000.0 4000.0 4000.0 4000.0 4000.0 4000.0 4000.0 4000.0 4000.0 4000.0 4000.0 4000.0 4000.0 4000.0 4000.0 4000.0 4000.0 4000.0 4000.0 4000.0 4000.0 4000.0 4000.0 4000.0 4000.0 4000.0 4000.0 4000.0 4000.0 4000.0 4000.0 4000.0 4000.0 4000.0 4000.0 4000.0 4000.0 4000.0 4000.0 4000.0 4000.0 4000.0 4000.0 4000.0 4000.0 4000.0 4000.0 4000.0 4000.0 4000.0 4000.0 4000.0 4000.0 4000.0 4000.0 4000.0 4000.0 4000.0 4000.0 4000.0 4000.0 4000.0 4000.0 4000.0 4000.0 4000.0 4000.0 4000.0 4000.0 4000.0 4000.0 4000.0 4000.0 4000.0 4000.0 4000.0 4000.0 4000.0 4000.0 4000.0 4000.0 4000.0 4000.0 4000.0 4000.0 4000.0 4000.0 4000.0 4000.0 4000.0 4000.0 4000.0 4000.0 4000.0 4000.0 4000.0 4000.0 4000.0 4000.0 4000.0 4000.0 4000.0 4000.0 4000.0 4000.0 4000.0 4000.0 4000.0 4000.0 4000.0 4000.0 4000.0 4000.0 4000.0 4000.0 4000.0 4000.0 4000.0 4000.0 4000.0 4000.0 4000.0 4000.0 4000.0 4000.0 4000.0 4000.0 4000.0 4000.0 4000.0 4000.0 4000.0 4000.0 4000.0 4000.0 4000.0 4000.0 4000.0 4000.0 4000.0 4000.0 4000.0 4000.0 4000.0 4000.0 4000.0 4000.0 4000.0 4000.0 4000.0 4000.0 4000.0 4000.0 4000.0 4000.0 4000.0 4000.0 4000.0 4000.0 4000.0 4000.0 4000.0 4000.0 4000.0 4000.0 4000.0 4000.0 4000.0 4000.0 4000.0 4000.0 4000.0 4000.0 4000.0 4000.0 4000.0 4000.0 4000.0 4000.0 4000.0 4000.0 4000.0 4000.0 4000.0 4000.0 4000.0 4000.0 4000.0 4000.0 4000.0 4000.0 4000.0 4000.0 4000.0 4000.0 4000.0 4000.0 4000.0 4000.0 4000.0 4000.0 4000.0 4000.0 4000.0 4000.0 4000.0 4000.0 4000.0 4000.0 4000.0 4000.0 4000.0 4000.0 4000.0 4000.0 4000.0 4000.0 4000.0 4000.0 4000.0 4000.0 4000.0 4000.0 4000.0 4000.0 4000.0 4000.0 4000.0 4000.0 4000.0 4000.0 4000.0 4000.0 4000.0 4000.0 4000.0 4000.0 4000.0 4000.0 4000.0 4000.0 4000.0 4000.0 4000.0 4000.0 4000.0 4000.0 4000.0 4000.0 4000.0 4000.0 4000.0 4000.0 4000.0 4000.0 4000.0 4000.0 4000.0 4000.0 4000.0 4000.0 4000.0 4000.0 4000.0 4000.0 4000.0 4000.0 4000.0 4000.0 4000.0 4000.0 4000.0 4000.0 4000.0 4000.0 4000.0 4000.0 4000.0 4000.0 4000.0 4000.0 4000.0 4000.0 4000.0 4000.0 4000.0 4000.0 4000.0 4000.0 4000.0 4000.0 4000.0 4000.0 4000.0 4000.0 4000.0 4000.0 4000.0 4000.0 4000.0 4000.0 4000.0 4000.0 4000.0 4000.0 4000.0 4000.0 4000.0 4000.0 4000.0 4000.0 4000.0 4000.0 4000.0 4000.0 4000.0 4000.0 4000.0 4000.0 4000.0 4000.0 4000.0 4000.0 4000.0 4000.0 4000.0 4000.0 4000.0 4000.0 4000.0 4000.0 4000.0 4000.0 4000.0 4000.0 4000.0 4000.0 4000.0 4000.0 4000.0 4000.0 4000.0 4000.0 4000.0 4000.0 4000.0 4000.0 4000.0 4000.0 4000.0 4000.0 4000.0 4000.0 4000.0 4000.0 4000.0 4000.0 4000.0 4000.0 4000.0 4000.0 4000.0 4000.0 4000.0 4000.0 4000.0 4000.0 4000.0 4000.0 4000.0 4000.0 4000.0 4000.0 4000.0 4000.0 4000.0 4000.0 4000.0 4000.0 4000.0 4000.0 4000.0 4000.0 4000.0 4000.0 4000.0 4000.0 4000.0 4000.0 4000.0 4000.0 4000.0 4000.0 4000.0 4000.0 4000.0 4000.0 4000.0 4000.0 4000.0 4000.0 4000.0 4000.0 4000.0 4000.0 4000.0 4000.0 4000.0 4000.0 4000.0 4000.0 4000.0 4000.0 4000.0 4000.0 4000.0 4000.0 4000.0 4000.0 4000.0 4000.0 4000.0 4000.0 4000.0 4000.0 4000.0 4000.0 4000.0 4000.0 4000.0 4000.0 4000.0 4000.0 4000.0 4000.0 4000.0 4000.0 4000.0 4000.0 4000.0 4000.0 4000.0 4000.0 4000.0 4000.0 4000.0 4000.0 4000.0 4000.0 4000.0 4000.0 4000.0 4000.0 4000.0 4000.0 4000.0 4000.0 4000.0 4000.0 4000.0 4000.0 4000.0 4000.0 4000.0 4000.0 4000.0 4000.0 4000.0 4000.0 4000.0 4000.0 4000.0 4000.0 4000.0 4000.0 4000.0 4000.0 4000.0 4000.0 4000.0 4000.0 4000.0 4000.0 4000.0 4000.0 4000.0 4000.0 4000.0 4000.0 4000.0 4000.0 4000.0 4000.0 4000.0 4000.0 4000.0 4000.0 4000.0 4000.0 4000.0 4000.0 4000.0 4000.0 4000.0 4000.0 4000.0 4000.0 4000.0 4000.0 4000.0 4000.0 4000.0 4000.0 4000.0 4000.0 4000.0 4000.0 4000.0 4000.0 4000.0 4000.0 4000.0 4000.0 4000.0 4000.0 4000.0 4000.0 4000.0 4000.0 4000.0 4000.0 4000.0 4000.0 4000.0 4000.0 4000.0 4000.0 4000.0 4000.0 4000.0 4000.0 4000.0 4000.0 4000.0 4000.0 4000.0 4000.0 4000.0 4000.0 4000.0 4000.0 4000.0 4000.0 4000.0 4000.0 4000.0 4000.0 4000.0 4000.0 4000.0 4000.0 4000.0 4000.0 4000.0 4000.0 4000.0 4000.0 4000.0 4000.0 4000.0 4000.0 4000.0 4000.0 4000.0 4000.0 4000.0 4000.0 4000.0 4000.0 4000.0 4000.0 4000.0 4000.0 4000.0 4000.0 4000.0 4000.0 4000.0 4000.0 4000.0 4000.0 4000.0 4000.0 4000.0 4000.0 4000.0 4000.0 4000.0 4000.0 4000.0 4000.0 4000.0 4000.0 4000.0 4000.0 4000.0 4000.0 4000.0 4000.0 4000.0 4000.0 4000.0 4000.0 4000.0 4000.0 4000.0 4000.0 4000.0 4000.0 4000.0 4000.0 4000.0 4000.0 4000.0 4000.0 4000.0 4000.0 4000.0 4000.0 4000.0 4000.0 4000.0 4000.0 4000.0 4000.0 4000.0 4000.0 4000.0 4000.0 4000.0 4000.0 4000.0 4000.0 4000.0 4000.0 4000.0 4000.0 4000.0 4000.0 4000.0 4000.0 4000.0 4000.0 4000.0 4000.0 4000.0 4000.0 4000.0 4000.0 4000.0 4000.0 4000.0 4000.0 4000.0 4000.0 4000.0 4000.0 4000.0 4000.0 4000.0 4000.0 4000.0 4000.0 4000.0 4000.0 4000.0 4000.0 4000.0 4000.0 4000.0 4000.0 4000.0 4000.0 4000.0 4000.0 4000.0 4000.0 4000.0 4000.0 4000.0 4000.0 4000.0 4000.0 4000.0 4000.0 4000.0 4000.0 4000.0 4000.0 4000.0 4000.0 4000.0 4000.0 4000.0 4000.0 4000.0 4000.0 4000.0 4000.0 4000.0 4000.0 4000.0 4000.0 4000.0 4000.0 4000.0 4000.0 4000.0 4000.0 4000.0 4000.0 4000.0 4000.0 4000.0 4000.0 4000.0 4000.0 4000.0 4000.0 4000.0 4000.0 4000.0 4000.0 4000.0 4000.0 4000.0 4000.0 4000.0 4000.0 4000.0 4000.0 4000.0 4000.0 4000.0 4000.0 4000.0 4000.0 4000.0 4000.0 4000.0 4000.0 4000.0 4000.0 4000.0 4000.0 4000.0 4000.0 4000.0 4000.0 4000.0 4000.0 4000.0 4000.0 4000.0 4000.0 4000.0 4000.0 4000.0 4000.0 4000.0 4000.0 4000.0 4000.0 4000.0 4000.0 4000.0 4000.0 4000.0 4000.0 4000.0 4000.0 4000.0 4000.0 4000.0 4000.0 4000.0 4000.0 4000.0 4000.0 4000.0 4000.0 4000.0 4000.0 4000.0 4000.0 4000.0 4000.0 4000.0 4000.0 4000.0 4000.0 4000.0 4000.0 4000.0 4000.0 4000.0 4000.0 4000.0 4000.0 4000.0 4000.0 4000.0 4000.0 4000.0 4000.0 4000.0 4000.0 4000.0 4000.0 4000.0 4000.0 4000.0 4000.0 4000.0 4000.0 4000.0 4000.0 4000.0 4000.0 4000.0 4000.0 4000.0 4000.0 4000.0 4000.0 4000.0 4000.0 4000.0 4000.0 4000.0 4000.0 4000.0 4000.0 4000.0 4000.0 4000.0 4000.0 4000.0 4000.0 4000.0 4000.0 4000.0 4000.0 4000.0 4000.0 4000.0 4000.0 4000.0 4000.0 4000.0 4000.0 4000.0 4000.0 4000.0 4000.0 4000.0 4000.0 4000.0 4000.0 4000.0 4000.0 4000.0 4000.0 4000.0 4000.0 4000.0 4000.0 4000.0 4000.0 4000.0 4000.0 4000.0 4000.0 4000.0 4000.0 4000.0 4000.0 4000.0 4000.0 4000.0 4000.0 4000.0 4000.0 4000.0 4000.0 4000.0 4000.0 4000.0 4000.0 4000.0 4000.0 4000.0 4000.0 4000.0 4000.0 4000.0 4000.0 4000.0 4000.0 4000.0 4000.0 4000.0 4000.0 4000.0 4000.0 4000.0 4000.0 4000.0 4000.0 4000.0 4000.0 4000.0 4000.0 4000.0 4000.0 4000.0 4000.0 4000.0 4000.0 4000.0 4000.0 4000.0 4000.0 4000.0 4000.0 4000.0 4000.0 4000.0 4000.0 4000.0 4000.0 4000.0 4000.0 4000.0 4000.0 4000.0 4000.0 4000.0 4000.0 4000.0 4000.0 4000.0 4000.0 4000.0 4000.0 4000.0 4000.0 4000.0 4000.0 4000.0 4000.0 4000.0 4000.0 4000.0 4000.0 4000.0 4000.0 4000.0 4000.0 4000.0 4000.0 4000.0 4000.0 4000.0 4000.0 4000.0 4000.0 4000.0 4000.0 4000.0 4000.0 4000.0 4000.0 4000.0 4000.0 4000.0 4000.0 4000.0 4000.0 4000.0 4000.0 4000.0 4000.0 4000.0 4000.0 4000.0 4000.0 4000.0 4000.0 4000.0 4000.0 4000.0 4000.0 4000.0 4000.0 4000.0 4000.0 4000.0 4000.0 4000.0 4000.0 4000.0 4000.0 4000.0 4000.0 4000.0 4000.0 4000.0 4000.0 4000.0 4000.0 4000.0 4000.0 4000.0 4000.0 4000.0 4000.0 4000.0 4000.0 4000.0 4000.0 4000.0 4000.0 4000.0 4000.0 4000.0 4000.0 4000.0 4000.0 4000.0 4000.0 4000.0 4000.0 4000.0 4000.0 4000.0 4000.0 4000.0 4000.0 4000.0 4000.0 4000.0 4000.0 4000.0 4000.0 4000.0 4000.0 4000.0 4000.0 4000.0 4000.0 4000.0 4000.0 4000.0 4000.0 4000.0 4000.0 4000.0 4000.0 4000.0 4000.0 4000.0 4000.0 4000.0 4000.0 4000.0 4000.0 4000.0 4000.0 4000.0 4000.0 4000.0 4000.0 4000.0 4000.0 4000.0 4000.0 4000.0 4000.0 4000.0 4000.0 4000.0 4000.0 4000.0 4000.0 4000.0 4000.0 4000.0 4000.0 4000.0 4000.0 4000.0 4000.0 4000.0 4000.0 4000.0 4000.0 4000.0 4000.0 4000.0 4000.0 4000.0 4000.0 4000.0 4000.0 4000.0 4000.0 4000.0 4000.0 4000.0 4000.0 4000.0 4000.0 4000.0 4000.0 4000.0 4000.0 4000.0 4000.0 4000.0 4000.0 4000.0 4000.0 4000.0 4000.0 4000.0 4000.0 4000.0 4000.0 4000.0 4000.0 4000.0 4000.0 4000.0 4000.0 4000.0 4000.0 4000.0 4000.0 4000.0 4000.0 4000.0 4000.0 4000.0 4000.0 4000.0 4000.0 4000.0 4000.0 4000.0 4000.0 4000.0 4000.0 4000.0 4000.0 4000.0 4000.0 4000.0 4000.0 4000.0 4000.0 4000.0 4000.0 4000.0 4000.0 4000.0 4000.0 4000.0 4000.0 4000.0 4000.0 4000.0 4000.0 4000.0 4000.0 4000.0 4000.0 4000.0 4000.0 4000.0 4000.0 4000.0 4000.0 4000.0 4000.0 4000.0 4000.0 4000.0 4000.0 4000.0 4000.0 4000.0 4000.0 4000.0 4000.0 4000.0 4000.0 4000.0 4000.0 4000.0 4000.0 4000.0 4000.0 4000.0 4000.0 4000.0 4000.0 4000.0 4000.0 4000.0 4000.0 4000.0 4000.0 4000.0 4000.0 4000.0 4000.0 4000.0 4000.0 4000.0 4000.0 4000.0 4000.0 4000.0 4000.0 4000.0 4000.0 4000.0 4000.0 4000.0 4000.0 4000.0 4000.0 4000.0 4000.0 4000.0 4000.0 4000.0 4000.0 4000.0 4000.0 4000.0 4000.0 4000.0 4000.0 4000.0 4000.0 4000.0 4000.0 4000.0 4000.0 4000.0 4000.0 4000.0 4000.0 4000.0 4000.0 4000.0 4000.0 4000.0 4000.0 4000.0 4000.0 4000.0 4000.0 4000.0 4000.0 4000.0 4000.0 4000.0 4000.0 4000.0 4000.0 4000.0 4000.0 4000.0 4000.0 4000.0 4000.0 4000.0 4000.0 4000.0 4000.0 4000.0 4000.0 4000.0 4000.0 4000.0 4000.0 4000.0 4000.0 4000.0 4000.0 4000.0 4000.0 4000.0 4000.0 4000.0 4000.0 4000.0 4000.0 4000.0 4000.0 4000.0 4000.0 4000.0 4000.0 4000.0 4000.0 4000.0 4000.0 4000.0 4000.0 4000.0 4000.0 4000.0 4000.0 4000.0 4000.0 4000.0 4000.0 4000.0 4000.0 4000.0 4000.0 4000.0 4000.0 4000.0 4000.0 4000.0 4000.0 4000.0 4000.0 4000.0 4000.0 4000.0 4000.0 4000.0 4000.0 4000.0 4000.0 4000.0 4000.0 4000.0 4000.0 4000.0 4000.0 4000.0 4000.0 4000.0 4000.0 4000.0 4000.0 4000.0 4000.0 4000.0 4000.0 4000.0 4000.0 4000.0 4000.0 4000.0 4000.0 4000.0 4000.0 4000.0 4000.0 4000.0 4000.0 4000.0 4000.0 4000.0 4000.0 4000.0 4000.0 4000.0 4000.0 4000.0 4000.0 4000.0 4000.0 4000.0 4000.0 4000.0 4000.0 4000.0 4000.0 4000.0 4000.0 4000.0 4000.0 4000.0 4000.0 4000.0 4000.0 4000.0 4000.0 4000.0 4000.0 4000.0 4000.0 SCALARS Mass float 1
LOOKUP_TABLE default
11309700000.0 11309700000.0 11309700000.0 11309700000.0 11309700000.0 11309700000.0 11309700000.0 11309700000.0 11309700000.0 11309700000.0 11309700000.0 11309700000.0 11309700000.0 11309700000.0 11309700000.0 11309700000.0 11309700000.0 11309700000.0 11309700000.0 11309700000.0 11309700000.0 11309700000.0 11309700000.0 11309700000.0 11309700000.0 11309700000.0 11309700000.0 11309700000.0 11309700000.0 11309700000.0 11309700000.0 11309700000.0 11309700000.0 11309700000.0 11309700000.0 11309700000.0 11309700000.0 11309700000.0 11309700000.0 11309700000.0 11309700000.0 11309700000.0 11309700000.0 11309700000.0 11309700000.0 11309700000.0 11309700000.0 11309700000.0 11309700000.0 11309700000.0 11309700000.0 11309700000.0 11309700000.0 11309700000.0 11309700000.0 11309700000.0 11309700000.0 11309700000.0 11309700000.0 11309700000.0 11309700000.0 11309700000.0 11309700000.0 11309700000.0 11309700000.0 11309700000.0 11309700000.0 11309700000.0 11309700000.0 11309700000.0 11309700000.0 11309700000.0 11309700000.0 11309700000.0 11309700000.0 11309700000.0 11309700000.0 11309700000.0 11309700000.0 11309700000.0 11309700000.0 11309700000.0 11309700000.0 11309700000.0 11309700000.0 11309700000.0 11309700000.0 11309700000.0 11309700000.0 11309700000.0 11309700000.0 11309700000.0 11309700000.0 11309700000.0 11309700000.0 11309700000.0 11309700000.0 11309700000.0 11309700000.0 11309700000.0 11309700000.0 11309700000.0 11309700000.0 11309700000.0 11309700000.0 11309700000.0 11309700000.0 11309700000.0 11309700000.0 11309700000.0 11309700000.0 11309700000.0 11309700000.0 11309700000.0 11309700000.0 11309700000.0 11309700000.0 11309700000.0 11309700000.0 11309700000.0 11309700000.0 11309700000.0 11309700000.0 11309700000.0 11309700000.0 11309700000.0 11309700000.0 11309700000.0 11309700000.0 11309700000.0 11309700000.0 11309700000.0 11309700000.0 11309700000.0 11309700000.0 11309700000.0 11309700000.0 11309700000.0 11309700000.0 11309700000.0 11309700000.0 11309700000.0 11309700000.0 11309700000.0 11309700000.0 11309700000.0 11309700000.0 11309700000.0 11309700000.0 11309700000.0 11309700000.0 11309700000.0 11309700000.0 11309700000.0 11309700000.0 11309700000.0 11309700000.0 11309700000.0 11309700000.0 11309700000.0 11309700000.0 11309700000.0 11309700000.0 11309700000.0 11309700000.0 11309700000.0 11309700000.0 11309700000.0 11309700000.0 11309700000.0 11309700000.0 11309700000.0 11309700000.0 11309700000.0 11309700000.0 11309700000.0 11309700000.0 11309700000.0 11309700000.0 11309700000.0 11309700000.0 11309700000.0 11309700000.0 11309700000.0 11309700000.0 11309700000.0 11309700000.0 11309700000.0 11309700000.0 11309700000.0 11309700000.0 11309700000.0 11309700000.0 11309700000.0 11309700000.0 11309700000.0 11309700000.0 11309700000.0 11309700000.0 11309700000.0 11309700000.0 11309700000.0 11309700000.0 11309700000.0 11309700000.0 11309700000.0 11309700000.0 11309700000.0 11309700000.0 11309700000.0 11309700000.0 11309700000.0 11309700000.0 11309700000.0 11309700000.0 11309700000.0 11309700000.0 11309700000.0 11309700000.0 11309700000.0 11309700000.0 11309700000.0 11309700000.0 11309700000.0 11309700000.0 11309700000.0 11309700000.0 11309700000.0 11309700000.0 11309700000.0 11309700000.0 11309700000.0 11309700000.0 11309700000.0 11309700000.0 11309700000.0 11309700000.0 11309700000.0 11309700000.0 11309700000.0 11309700000.0 11309700000.0 11309700000.0 11309700000.0 11309700000.0 11309700000.0 11309700000.0 11309700000.0 11309700000.0 11309700000.0 11309700000.0 11309700000.0 11309700000.0 11309700000.0 11309700000.0 11309700000.0 11309700000.0 11309700000.0 11309700000.0 11309700000.0 11309700000.0 11309700000.0 11309700000.0 11309700000.0 11309700000.0 11309700000.0 11309700000.0 11309700000.0 11309700000.0 11309700000.0 11309700000.0 11309700000.0 11309700000.0 11309700000.0 11309700000.0 11309700000.0 11309700000.0 11309700000.0 11309700000.0 11309700000.0 11309700000.0 11309700000.0 11309700000.0 11309700000.0 11309700000.0 11309700000.0 11309700000.0 11309700000.0 11309700000.0 11309700000.0 11309700000.0 11309700000.0 11309700000.0 11309700000.0 11309700000.0 11309700000.0 11309700000.0 11309700000.0 11309700000.0 11309700000.0 11309700000.0 11309700000.0 11309700000.0 11309700000.0 11309700000.0 11309700000.0 11309700000.0 11309700000.0 11309700000.0 11309700000.0 11309700000.0 11309700000.0 11309700000.0 11309700000.0 11309700000.0 11309700000.0 11309700000.0 11309700000.0 11309700000.0 11309700000.0 11309700000.0 11309700000.0 11309700000.0 11309700000.0 11309700000.0 11309700000.0 11309700000.0 11309700000.0 11309700000.0 11309700000.0 11309700000.0 11309700000.0 11309700000.0 11309700000.0 11309700000.0 11309700000.0 11309700000.0 11309700000.0 11309700000.0 11309700000.0 11309700000.0 11309700000.0 11309700000.0 11309700000.0 11309700000.0 11309700000.0 11309700000.0 11309700000.0 11309700000.0 11309700000.0 11309700000.0 11309700000.0 11309700000.0 11309700000.0 11309700000.0 11309700000.0 11309700000.0 11309700000.0 11309700000.0 11309700000.0 11309700000.0 11309700000.0 11309700000.0 11309700000.0 11309700000.0 11309700000.0 11309700000.0 11309700000.0 11309700000.0 11309700000.0 11309700000.0 11309700000.0 11309700000.0 11309700000.0 11309700000.0 11309700000.0 11309700000.0 11309700000.0 11309700000.0 11309700000.0 11309700000.0 11309700000.0 11309700000.0 11309700000.0 11309700000.0 11309700000.0 11309700000.0 11309700000.0 11309700000.0 11309700000.0 11309700000.0 11309700000.0 11309700000.0 11309700000.0 11309700000.0 11309700000.0 11309700000.0 11309700000.0 11309700000.0 11309700000.0 11309700000.0 11309700000.0 11309700000.0 11309700000.0 11309700000.0 11309700000.0 11309700000.0 11309700000.0 11309700000.0 11309700000.0 11309700000.0 11309700000.0 11309700000.0 11309700000.0 11309700000.0 11309700000.0 11309700000.0 11309700000.0 11309700000.0 11309700000.0 11309700000.0 11309700000.0 11309700000.0 11309700000.0 11309700000.0 11309700000.0 11309700000.0 11309700000.0 11309700000.0 11309700000.0 11309700000.0 11309700000.0 11309700000.0 11309700000.0 11309700000.0 11309700000.0 11309700000.0 11309700000.0 11309700000.0 11309700000.0 11309700000.0 11309700000.0 11309700000.0 11309700000.0 11309700000.0 11309700000.0 11309700000.0 11309700000.0 11309700000.0 11309700000.0 11309700000.0 11309700000.0 11309700000.0 11309700000.0 11309700000.0 11309700000.0 11309700000.0 11309700000.0 11309700000.0 11309700000.0 11309700000.0 11309700000.0 11309700000.0 11309700000.0 11309700000.0 11309700000.0 11309700000.0 11309700000.0 11309700000.0 11309700000.0 11309700000.0 11309700000.0 11309700000.0 11309700000.0 11309700000.0 11309700000.0 11309700000.0 11309700000.0 11309700000.0 11309700000.0 11309700000.0 11309700000.0 11309700000.0 11309700000.0 11309700000.0 11309700000.0 11309700000.0 11309700000.0 11309700000.0 11309700000.0 11309700000.0 11309700000.0 11309700000.0 11309700000.0 11309700000.0 11309700000.0 11309700000.0 11309700000.0 11309700000.0 11309700000.0 11309700000.0 11309700000.0 11309700000.0 11309700000.0 11309700000.0 11309700000.0 11309700000.0 11309700000.0 11309700000.0 11309700000.0 11309700000.0 11309700000.0 11309700000.0 11309700000.0 11309700000.0 11309700000.0 11309700000.0 11309700000.0 11309700000.0 11309700000.0 11309700000.0 11309700000.0 11309700000.0 11309700000.0 11309700000.0 11309700000.0 11309700000.0 11309700000.0 11309700000.0 11309700000.0 11309700000.0 11309700000.0 11309700000.0 11309700000.0 11309700000.0 11309700000.0 11309700000.0 11309700000.0 11309700000.0 11309700000.0 11309700000.0 11309700000.0 11309700000.0 11309700000.0 11309700000.0 11309700000.0 11309700000.0 11309700000.0 11309700000.0 11309700000.0 11309700000.0 11309700000.0 11309700000.0 11309700000.0 11309700000.0 11309700000.0 11309700000.0 11309700000.0 11309700000.0 11309700000.0 11309700000.0 11309700000.0 11309700000.0 11309700000.0 11309700000.0 11309700000.0 11309700000.0 11309700000.0 11309700000.0 11309700000.0 11309700000.0 11309700000.0 11309700000.0 11309700000.0 11309700000.0 11309700000.0 11309700000.0 11309700000.0 11309700000.0 11309700000.0 11309700000.0 11309700000.0 11309700000.0 11309700000.0 11309700000.0 11309700000.0 11309700000.0 11309700000.0 11309700000.0 11309700000.0 11309700000.0 11309700000.0 11309700000.0 11309700000.0 11309700000.0 11309700000.0 11309700000.0 11309700000.0 11309700000.0 11309700000.0 11309700000.0 11309700000.0 11309700000.0 11309700000.0 11309700000.0 11309700000.0 11309700000.0 11309700000.0 11309700000.0 11309700000.0 11309700000.0 11309700000.0 11309700000.0 11309700000.0 11309700000.0 11309700000.0 11309700000.0 11309700000.0 11309700000.0 11309700000.0 11309700000.0 11309700000.0 11309700000.0 11309700000.0 11309700000.0 11309700000.0 11309700000.0 11309700000.0 11309700000.0 11309700000.0 11309700000.0 11309700000.0 11309700000.0 11309700000.0 11309700000.0 11309700000.0 11309700000.0 11309700000.0 11309700000.0 11309700000.0 11309700000.0 11309700000.0 11309700000.0 11309700000.0 11309700000.0 11309700000.0 11309700000.0 11309700000.0 11309700000.0 11309700000.0 11309700000.0 11309700000.0 11309700000.0 11309700000.0 11309700000.0 11309700000.0 11309700000.0 11309700000.0 11309700000.0 11309700000.0 11309700000.0 11309700000.0 11309700000.0 11309700000.0 11309700000.0 11309700000.0 11309700000.0 11309700000.0 11309700000.0 11309700000.0 11309700000.0 11309700000.0 11309700000.0 11309700000.0 11309700000.0 11309700000.0 11309700000.0 11309700000.0 11309700000.0 11309700000.0 11309700000.0 11309700000.0 11309700000.0 11309700000.0 11309700000.0 11309700000.0 11309700000.0 11309700000.0 11309700000.0 11309700000.0 11309700000.0 11309700000.0 11309700000.0 11309700000.0 11309700000.0 11309700000.0 11309700000.0 11309700000.0 11309700000.0 11309700000.0 11309700000.0 11309700000.0 11309700000.0 11309700000.0 11309700000.0 11309700000.0 11309700000.0 11309700000.0 11309700000.0 11309700000.0 11309700000.0 11309700000.0 11309700000.0 11309700000.0 11309700000.0 11309700000.0 11309700000.0 11309700000.0 11309700000.0 11309700000.0 11309700000.0 11309700000.0 11309700000.0 11309700000.0 11309700000.0 11309700000.0 11309700000.0 11309700000.0 11309700000.0 11309700000.0 11309700000.0 11309700000.0 11309700000.0 11309700000.0 11309700000.0 11309700000.0 11309700000.0 11309700000.0 11309700000.0 11309700000.0 11309700000.0 11309700000.0 11309700000.0 11309700000.0 11309700000.0 11309700000.0 11309700000.0 11309700000.0 11309700000.0 11309700000.0 11309700000.0 11309700000.0 11309700000.0 11309700000.0 11309700000.0 11309700000.0 11309700000.0 11309700000.0 11309700000.0 11309700000.0 11309700000.0 11309700000.0 11309700000.0 11309700000.0 11309700000.0 11309700000.0 11309700000.0 11309700000.0 11309700000.0 11309700000.0 11309700000.0 11309700000.0 11309700000.0 11309700000.0 11309700000.0 11309700000.0 11309700000.0 11309700000.0 11309700000.0 11309700000.0 11309700000.0 11309700000.0 11309700000.0 11309700000.0 11309700000.0 11309700000.0 11309700000.0 11309700000.0 11309700000.0 11309700000.0 11309700000.0 11309700000.0 11309700000.0 11309700000.0 11309700000.0 11309700000.0 11309700000.0 11309700000.0 11309700000.0 11309700000.0 11309700000.0 11309700000.0 11309700000.0 11309700000.0 11309700000.0 11309700000.0 11309700000.0 11309700000.0 11309700000.0 11309700000.0 11309700000.0 11309700000.0 11309700000.0 11309700000.0 11309700000.0 11309700000.0 11309700000.0 11309700000.0 11309700000.0 11309700000.0 11309700000.0 11309700000.0 11309700000.0 11309700000.0 11309700000.0 11309700000.0 11309700000.0 11309700000.0 11309700000.0 11309700000.0 11309700000.0 11309700000.0 11309700000.0 11309700000.0 11309700000.0 11309700000.0 11309700000.0 11309700000.0 11309700000.0 11309700000.0 11309700000.0 11309700000.0 11309700000.0 11309700000.0 11309700000.0 11309700000.0 11309700000.0 11309700000.0 11309700000.0 11309700000.0 11309700000.0 11309700000.0 11309700000.0 11309700000.0 11309700000.0 11309700000.0 11309700000.0 11309700000.0 11309700000.0 11309700000.0 11309700000.0 11309700000.0 11309700000.0 11309700000.0 11309700000.0 11309700000.0 11309700000.0 11309700000.0 11309700000.0 11309700000.0 11309700000.0 11309700000.0 11309700000.0 11309700000.0 11309700000.0 11309700000.0 11309700000.0 11309700000.0 11309700000.0 11309700000.0 11309700000.0 11309700000.0 11309700000.0 11309700000.0 11309700000.0 11309700000.0 11309700000.0 11309700000.0 11309700000.0 11309700000.0 11309700000.0 11309700000.0 11309700000.0 11309700000.0 11309700000.0 11309700000.0 11309700000.0 11309700000.0 11309700000.0 11309700000.0 11309700000.0 11309700000.0 11309700000.0 11309700000.0 11309700000.0 11309700000.0 11309700000.0 11309700000.0 11309700000.0 11309700000.0 11309700000.0 11309700000.0 11309700000.0 11309700000.0 11309700000.0 11309700000.0 11309700000.0 11309700000.0 11309700000.0 11309700000.0 11309700000.0 11309700000.0 11309700000.0 11309700000.0 11309700000.0 11309700000.0 11309700000.0 11309700000.0 11309700000.0 11309700000.0 11309700000.0 11309700000.0 11309700000.0 11309700000.0 11309700000.0 11309700000.0 11309700000.0 11309700000.0 11309700000.0 11309700000.0 11309700000.0 11309700000.0 11309700000.0 11309700000.0 11309700000.0 11309700000.0 11309700000.0 11309700000.0 11309700000.0 11309700000.0 11309700000.0 11309700000.0 11309700000.0 11309700000.0 11309700000.0 11309700000.0 11309700000.0 11309700000.0 11309700000.0 11309700000.0 11309700000.0 11309700000.0 11309700000.0 11309700000.0 11309700000.0 11309700000.0 11309700000.0 11309700000.0 11309700000.0 11309700000.0 11309700000.0 11309700000.0 11309700000.0 11309700000.0 11309700000.0 11309700000.0 11309700000.0 11309700000.0 11309700000.0 11309700000.0 11309700000.0 11309700000.0 11309700000.0 11309700000.0 11309700000.0 11309700000.0 11309700000.0 11309700000.0 11309700000.0 11309700000.0 11309700000.0 11309700000.0 11309700000.0 11309700000.0 11309700000.0 11309700000.0 11309700000.0 11309700000.0 11309700000.0 11309700000.0 11309700000.0 11309700000.0 11309700000.0 11309700000.0 11309700000.0 11309700000.0 11309700000.0 11309700000.0 11309700000.0 11309700000.0 11309700000.0 11309700000.0 11309700000.0 11309700000.0 11309700000.0 11309700000.0 11309700000.0 11309700000.0 11309700000.0 11309700000.0 11309700000.0 11309700000.0 11309700000.0 11309700000.0 11309700000.0 11309700000.0 11309700000.0 11309700000.0 11309700000.0 11309700000.0 11309700000.0 11309700000.0 11309700000.0 11309700000.0 11309700000.0 11309700000.0 11309700000.0 11309700000.0 11309700000.0 11309700000.0 11309700000.0 11309700000.0 11309700000.0 11309700000.0 11309700000.0 11309700000.0 11309700000.0 11309700000.0 11309700000.0 11309700000.0 11309700000.0 11309700000.0 11309700000.0 11309700000.0 11309700000.0 11309700000.0 11309700000.0 11309700000.0 11309700000.0 11309700000.0 11309700000.0 11309700000.0 11309700000.0 11309700000.0 11309700000.0 11309700000.0 11309700000.0 11309700000.0 11309700000.0 11309700000.0 11309700000.0 11309700000.0 11309700000.0 11309700000.0 11309700000.0 11309700000.0 11309700000.0 11309700000.0 11309700000.0 11309700000.0 11309700000.0 11309700000.0 11309700000.0 11309700000.0 11309700000.0 11309700000.0 11309700000.0 11309700000.0 11309700000.0 11309700000.0 11309700000.0 11309700000.0 11309700000.0 11309700000.0 11309700000.0 11309700000.0 11309700000.0 11309700000.0 11309700000.0 11309700000.0 11309700000.0 11309700000.0 11309700000.0 11309700000.0 11309700000.0 11309700000.0 11309700000.0 11309700000.0 11309700000.0 11309700000.0 11309700000.0 11309700000.0 11309700000.0 11309700000.0 11309700000.0 11309700000.0 11309700000.0 11309700000.0 11309700000.0 11309700000.0 11309700000.0 11309700000.0 11309700000.0 11309700000.0 11309700000.0 11309700000.0 11309700000.0 11309700000.0 11309700000.0 11309700000.0 11309700000.0 11309700000.0 11309700000.0 11309700000.0 11309700000.0 11309700000.0 11309700000.0 11309700000.0 11309700000.0 11309700000.0 11309700000.0 11309700000.0 11309700000.0 11309700000.0 11309700000.0 11309700000.0 11309700000.0 11309700000.0 11309700000.0 11309700000.0 11309700000.0 11309700000.0 11309700000.0 11309700000.0 11309700000.0 11309700000.0 11309700000.0 11309700000.0 11309700000.0 11309700000.0 11309700000.0 11309700000.0 11309700000.0 11309700000.0 11309700000.0 11309700000.0 11309700000.0 11309700000.0 11309700000.0 11309700000.0 11309700000.0 11309700000.0 11309700000.0 11309700000.0 11309700000.0 11309700000.0 11309700000.0 11309700000.0 11309700000.0 11309700000.0 11309700000.0 11309700000.0 11309700000.0 11309700000.0 11309700000.0 11309700000.0 11309700000.0 11309700000.0 11309700000.0 11309700000.0 11309700000.0 11309700000.0 11309700000.0 11309700000.0 11309700000.0 11309700000.0 11309700000.0 11309700000.0 11309700000.0 11309700000.0 11309700000.0 11309700000.0 11309700000.0 11309700000.0 11309700000.0 11309700000.0 11309700000.0 11309700000.0 11309700000.0 11309700000.0 11309700000.0 11309700000.0 11309700000.0 11309700000.0 11309700000.0 11309700000.0 11309700000.0 11309700000.0 11309700000.0 11309700000.0 11309700000.0 11309700000.0 11309700000.0 11309700000.0 11309700000.0 11309700000.0 11309700000.0 11309700000.0 11309700000.0 11309700000.0 11309700000.0 11309700000.0 11309700000.0 11309700000.0 11309700000.0 11309700000.0 11309700000.0 11309700000.0 11309700000.0 11309700000.0 11309700000.0 11309700000.0 11309700000.0 11309700000.0 11309700000.0 11309700000.0 11309700000.0 11309700000.0 11309700000.0 11309700000.0 11309700000.0 11309700000.0 11309700000.0 11309700000.0 11309700000.0 11309700000.0 11309700000.0 11309700000.0 11309700000.0 11309700000.0 11309700000.0 11309700000.0 11309700000.0 11309700000.0 11309700000.0 11309700000.0 11309700000.0 11309700000.0 11309700000.0 11309700000.0 11309700000.0 11309700000.0 11309700000.0 11309700000.0 11309700000.0 11309700000.0 11309700000.0 11309700000.0 11309700000.0 11309700000.0 11309700000.0 11309700000.0 11309700000.0 11309700000.0 11309700000.0 11309700000.0 11309700000.0 11309700000.0 11309700000.0 11309700000.0 11309700000.0 11309700000.0 11309700000.0 11309700000.0 11309700000.0 11309700000.0 11309700000.0 11309700000.0 11309700000.0 11309700000.0 11309700000.0 11309700000.0 11309700000.0 11309700000.0 11309700000.0 11309700000.0 11309700000.0 11309700000.0 11309700000.0 11309700000.0 11309700000.0 11309700000.0 11309700000.0 11309700000.0 11309700000.0 11309700000.0 11309700000.0 11309700000.0 11309700000.0 11309700000.0 11309700000.0 11309700000.0 11309700000.0 11309700000.0 11309700000.0 11309700000.0 11309700000.0 11309700000.0 11309700000.0 11309700000.0 11309700000.0 11309700000.0 11309700000.0 11309700000.0 11309700000.0 11309700000.0 11309700000.0 11309700000.0 11309700000.0 11309700000.0 11309700000.0 11309700000.0 11309700000.0 11309700000.0 11309700000.0 11309700000.0 11309700000.0 11309700000.0 11309700000.0 11309700000.0 11309700000.0 11309700000.0 11309700000.0 11309700000.0 11309700000.0 11309700000.0 11309700000.0 11309700000.0 11309700000.0 11309700000.0 11309700000.0 11309700000.0 11309700000.0 11309700000.0 11309700000.0 11309700000.0 11309700000.0 11309700000.0 11309700000.0 11309700000.0 11309700000.0 11309700000.0 11309700000.0 11309700000.0 11309700000.0 11309700000.0 11309700000.0 11309700000.0 11309700000.0 11309700000.0 11309700000.0 11309700000.0 11309700000.0 11309700000.0 11309700000.0 11309700000.0 11309700000.0 11309700000.0 11309700000.0 11309700000.0 11309700000.0 11309700000.0 11309700000.0 11309700000.0 11309700000.0 11309700000.0 11309700000.0 11309700000.0 11309700000.0 11309700000.0 11309700000.0 11309700000.0 11309700000.0 11309700000.0 11309700000.0 11309700000.0 11309700000.0 11309700000.0 11309700000.0 11309700000.0 11309700000.0 11309700000.0 11309700000.0 11309700000.0 11309700000.0 11309700000.0 11309700000.0 11309700000.0 11309700000.0 11309700000.0 11309700000.0 11309700000.0 11309700000.0 11309700000.0 11309700000.0 11309700000.0 11309700000.0 11309700000.0 11309700000.0 11309700000.0 11309700000.0 11309700000.0 11309700000.0 11309700000.0 11309700000.0 11309700000.0 11309700000.0 11309700000.0 11309700000.0 11309700000.0 11309700000.0 11309700000.0 11309700000.0 11309700000.0 11309700000.0 11309700000.0 11309700000.0 11309700000.0 11309700000.0 11309700000.0 11309700000.0 11309700000.0 11309700000.0 11309700000.0 11309700000.0 11309700000.0 11309700000.0 11309700000.0 11309700000.0 11309700000.0 11309700000.0 11309700000.0 11309700000.0 11309700000.0 11309700000.0 11309700000.0 11309700000.0 11309700000.0 11309700000.0 11309700000.0 11309700000.0 11309700000.0 11309700000.0 11309700000.0 11309700000.0 11309700000.0 11309700000.0 11309700000.0 11309700000.0 11309700000.0 11309700000.0 11309700000.0 11309700000.0 11309700000.0 11309700000.0 11309700000.0 11309700000.0 11309700000.0 11309700000.0 11309700000.0 11309700000.0 11309700000.0 11309700000.0 11309700000.0 11309700000.0 11309700000.0 11309700000.0 11309700000.0 11309700000.0 11309700000.0 11309700000.0 11309700000.0 11309700000.0 11309700000.0 11309700000.0 11309700000.0 11309700000.0 11309700000.0 11309700000.0 11309700000.0 11309700000.0 11309700000.0 11309700000.0 11309700000.0 11309700000.0 11309700000.0 11309700000.0 11309700000.0 11309700000.0 11309700000.0 11309700000.0 11309700000.0 11309700000.0 11309700000.0 11309700000.0 11309700000.0 11309700000.0 11309700000.0 11309700000.0 11309700000.0 11309700000.0 11309700000.0 11309700000.0 11309700000.0 11309700000.0 11309700000.0 11309700000.0 11309700000.0 11309700000.0 11309700000.0 11309700000.0 11309700000.0 11309700000.0 11309700000.0 11309700000.0 11309700000.0 11309700000.0 11309700000.0 11309700000.0 11309700000.0 11309700000.0 11309700000.0 11309700000.0 11309700000.0 11309700000.0 11309700000.0 11309700000.0 11309700000.0 11309700000.0 11309700000.0 11309700000.0 11309700000.0 11309700000.0 11309700000.0 11309700000.0 11309700000.0 11309700000.0 11309700000.0 11309700000.0 11309700000.0 11309700000.0 11309700000.0 11309700000.0 11309700000.0 11309700000.0 11309700000.0 11309700000.0 11309700000.0 11309700000.0 11309700000.0 11309700000.0 11309700000.0 11309700000.0 11309700000.0 11309700000.0 11309700000.0 11309700000.0 11309700000.0 11309700000.0 11309700000.0 11309700000.0 11309700000.0 11309700000.0 11309700000.0 11309700000.0 11309700000.0 11309700000.0 11309700000.0 11309700000.0 11309700000.0 11309700000.0 11309700000.0 11309700000.0 11309700000.0 11309700000.0 11309700000.0 11309700000.0 11309700000.0 11309700000.0 11309700000.0 11309700000.0 11309700000.0 11309700000.0 11309700000.0 11309700000.0 11309700000.0 11309700000.0 11309700000.0 11309700000.0 11309700000.0 11309700000.0 11309700000.0 11309700000.0 11309700000.0 11309700000.0 11309700000.0 11309700000.0 11309700000.0 11309700000.0 11309700000.0 11309700000.0 11309700000.0 11309700000.0 11309700000.0 11309700000.0 11309700000.0 11309700000.0 11309700000.0 11309700000.0 11309700000.0 11309700000.0 11309700000.0 11309700000.0 11309700000.0 11309700000.0 11309700000.0 11309700000.0 11309700000.0 11309700000.0 11309700000.0 11309700000.0 11309700000.0 11309700000.0 11309700000.0 11309700000.0 11309700000.0 11309700000.0 11309700000.0 11309700000.0 11309700000.0 11309700000.0 11309700000.0 11309700000.0 11309700000.0 11309700000.0 11309700000.0 11309700000.0 11309700000.0 11309700000.0 11309700000.0 11309700000.0 11309700000.0 11309700000.0 11309700000.0 11309700000.0 11309700000.0 11309700000.0 11309700000.0 11309700000.0 11309700000.0 11309700000.0 11309700000.0 11309700000.0 11309700000.0 11309700000.0 11309700000.0 11309700000.0 11309700000.0 11309700000.0 11309700000.0 11309700000.0 11309700000.0 11309700000.0 11309700000.0 11309700000.0 11309700000.0 11309700000.0 11309700000.0 11309700000.0 11309700000.0 11309700000.0 11309700000.0 11309700000.0 11309700000.0 11309700000.0 11309700000.0 11309700000.0 11309700000.0 11309700000.0 11309700000.0 11309700000.0 11309700000.0 11309700000.0 11309700000.0 11309700000.0 11309700000.0 11309700000.0 11309700000.0 11309700000.0 11309700000.0 11309700000.0 11309700000.0 11309700000.0 11309700000.0 11309700000.0 11309700000.0 11309700000.0 11309700000.0 11309700000.0 11309700000.0 11309700000.0 11309700000.0 11309700000.0 11309700000.0 11309700000.0 11309700000.0 11309700000.0 11309700000.0 11309700000.0 11309700000.0 11309700000.0 11309700000.0 11309700000.0 11309700000.0 11309700000.0 11309700000.0 11309700000.0 11309700000.0 11309700000.0 11309700000.0 11309700000.0 11309700000.0 11309700000.0 11309700000.0 11309700000.0 11309700000.0 11309700000.0 11309700000.0 11309700000.0 11309700000.0 11309700000.0 11309700000.0 11309700000.0 11309700000.0 11309700000.0 11309700000.0 11309700000.0 11309700000.0 11309700000.0 11309700000.0 11309700000.0 11309700000.0 11309700000.0 11309700000.0 11309700000.0 11309700000.0 11309700000.0 11309700000.0 11309700000.0 11309700000.0 11309700000.0 11309700000.0 11309700000.0 11309700000.0 11309700000.0 11309700000.0 11309700000.0 11309700000.0 11309700000.0 11309700000.0 11309700000.0 11309700000.0 11309700000.0 11309700000.0 11309700000.0 11309700000.0 11309700000.0 11309700000.0 11309700000.0 11309700000.0 11309700000.0 11309700000.0 11309700000.0 11309700000.0 11309700000.0 11309700000.0 11309700000.0 11309700000.0 11309700000.0 11309700000.0 11309700000.0 11309700000.0 11309700000.0 11309700000.0 11309700000.0 11309700000.0 11309700000.0 11309700000.0 11309700000.0 11309700000.0 11309700000.0 11309700000.0 11309700000.0 11309700000.0 11309700000.0 11309700000.0 11309700000.0 11309700000.0 11309700000.0 11309700000.0 11309700000.0 11309700000.0 11309700000.0 11309700000.0 11309700000.0 11309700000.0 11309700000.0 11309700000.0 11309700000.0 11309700000.0 11309700000.0 11309700000.0 11309700000.0 11309700000.0 11309700000.0 11309700000.0 11309700000.0 11309700000.0 11309700000.0 11309700000.0 11309700000.0 11309700000.0 11309700000.0 11309700000.0 11309700000.0 11309700000.0 11309700000.0 11309700000.0 11309700000.0 11309700000.0 11309700000.0 11309700000.0 11309700000.0 11309700000.0 11309700000.0 11309700000.0 11309700000.0 11309700000.0 11309700000.0 11309700000.0 11309700000.0 11309700000.0 11309700000.0 11309700000.0 11309700000.0 11309700000.0 11309700000.0 11309700000.0 11309700000.0 11309700000.0 11309700000.0 11309700000.0 11309700000.0 11309700000.0 11309700000.0 11309700000.0 11309700000.0 11309700000.0 11309700000.0 11309700000.0 11309700000.0 11309700000.0 11309700000.0 11309700000.0 11309700000.0 11309700000.0 11309700000.0 11309700000.0 11309700000.0 11309700000.0 11309700000.0 11309700000.0 11309700000.0 11309700000.0 11309700000.0 11309700000.0 11309700000.0 11309700000.0 11309700000.0 11309700000.0 11309700000.0 11309700000.0 11309700000.0 11309700000.0 11309700000.0 11309700000.0 11309700000.0 11309700000.0 11309700000.0 11309700000.0 11309700000.0 11309700000.0 11309700000.0 11309700000.0 11309700000.0 11309700000.0 11309700000.0 11309700000.0 11309700000.0 11309700000.0 11309700000.0 11309700000.0 11309700000.0 11309700000.0 11309700000.0 11309700000.0 11309700000.0 11309700000.0 11309700000.0 11309700000.0 11309700000.0 11309700000.0 11309700000.0 11309700000.0 11309700000.0 11309700000.0 11309700000.0 11309700000.0 11309700000.0 11309700000.0 11309700000.0 11309700000.0 11309700000.0 11309700000.0 11309700000.0 11309700000.0 11309700000.0 11309700000.0 11309700000.0 11309700000.0 11309700000.0 11309700000.0 11309700000.0 11309700000.0 11309700000.0 11309700000.0 11309700000.0 11309700000.0 11309700000.0 11309700000.0 11309700000.0 11309700000.0 11309700000.0 11309700000.0 11309700000.0 11309700000.0 11309700000.0 11309700000.0 11309700000.0 11309700000.0 11309700000.0 11309700000.0 11309700000.0 11309700000.0 11309700000.0 11309700000.0 11309700000.0 11309700000.0 11309700000.0 11309700000.0 11309700000.0 11309700000.0 11309700000.0 11309700000.0 11309700000.0 11309700000.0 11309700000.0 11309700000.0 11309700000.0 11309700000.0 11309700000.0 11309700000.0 11309700000.0 11309700000.0 11309700000.0 11309700000.0 11309700000.0 11309700000.0 11309700000.0 11309700000.0 11309700000.0 11309700000.0 11309700000.0 11309700000.0 11309700000.0 11309700000.0 11309700000.0 11309700000.0 11309700000.0 11309700000.0 11309700000.0 11309700000.0 11309700000.0 11309700000.0 11309700000.0 11309700000.0 11309700000.0 11309700000.0 11309700000.0 11309700000.0 11309700000.0 11309700000.0 11309700000.0 11309700000.0 11309700000.0 11309700000.0 11309700000.0 11309700000.0 11309700000.0 11309700000.0 11309700000.0 11309700000.0 11309700000.0 11309700000.0 11309700000.0 11309700000.0 11309700000.0 11309700000.0 11309700000.0 11309700000.0 11309700000.0 11309700000.0 11309700000.0 11309700000.0 11309700000.0 11309700000.0 11309700000.0 11309700000.0 11309700000.0 11309700000.0 11309700000.0 11309700000.0 11309700000.0 11309700000.0 11309700000.0 11309700000.0 11309700000.0 11309700000.0 11309700000.0 11309700000.0 11309700000.0 11309700000.0 11309700000.0 11309700000.0 11309700000.0 11309700000.0 11309700000.0 11309700000.0 11309700000.0 11309700000.0 11309700000.0 11309700000.0 11309700000.0 11309700000.0 11309700000.0 11309700000.0 11309700000.0 11309700000.0 11309700000.0 11309700000.0 11309700000.0 11309700000.0 11309700000.0 11309700000.0 11309700000.0 11309700000.0 11309700000.0 11309700000.0 11309700000.0 11309700000.0 11309700000.0 11309700000.0 11309700000.0 11309700000.0 11309700000.0 11309700000.0 11309700000.0 11309700000.0 11309700000.0 11309700000.0 11309700000.0 11309700000.0 11309700000.0 11309700000.0 11309700000.0 11309700000.0 11309700000.0 11309700000.0 11309700000.0 11309700000.0 11309700000.0 11309700000.0 11309700000.0 11309700000.0 11309700000.0 11309700000.0 11309700000.0 11309700000.0 11309700000.0 11309700000.0 11309700000.0 11309700000.0 11309700000.0 11309700000.0 11309700000.0 11309700000.0 11309700000.0 11309700000.0 11309700000.0 11309700000.0 11309700000.0 11309700000.0 11309700000.0 11309700000.0 11309700000.0 11309700000.0 11309700000.0 11309700000.0 11309700000.0 11309700000.0 11309700000.0 11309700000.0 11309700000.0 11309700000.0 11309700000.0 11309700000.0 11309700000.0 11309700000.0 11309700000.0 11309700000.0 11309700000.0 11309700000.0 11309700000.0 11309700000.0 11309700000.0 11309700000.0 11309700000.0 11309700000.0 11309700000.0 11309700000.0 11309700000.0 11309700000.0 11309700000.0 11309700000.0 11309700000.0 11309700000.0 11309700000.0 11309700000.0 11309700000.0 11309700000.0 11309700000.0 11309700000.0 11309700000.0 11309700000.0 11309700000.0 11309700000.0 11309700000.0 11309700000.0 11309700000.0 11309700000.0 11309700000.0 11309700000.0 11309700000.0 11309700000.0 11309700000.0 11309700000.0 11309700000.0 11309700000.0 11309700000.0 11309700000.0 11309700000.0 11309700000.0 11309700000.0 11309700000.0 11309700000.0 11309700000.0 11309700000.0 11309700000.0 11309700000.0 11309700000.0 11309700000.0 11309700000.0 11309700000.0 11309700000.0 11309700000.0 11309700000.0 11309700000.0 11309700000.0 11309700000.0 11309700000.0 11309700000.0 11309700000.0 11309700000.0 11309700000.0 11309700000.0 11309700000.0 11309700000.0 11309700000.0 11309700000.0 11309700000.0 11309700000.0 11309700000.0 11309700000.0 11309700000.0 11309700000.0 11309700000.0 11309700000.0 11309700000.0 11309700000.0 11309700000.0 11309700000.0 11309700000.0 11309700000.0 11309700000.0 11309700000.0 11309700000.0 11309700000.0 11309700000.0 11309700000.0 11309700000.0 11309700000.0 11309700000.0 11309700000.0 11309700000.0 11309700000.0 11309700000.0 11309700000.0 11309700000.0 11309700000.0 11309700000.0 11309700000.0 11309700000.0 11309700000.0 11309700000.0 11309700000.0 11309700000.0 11309700000.0 11309700000.0 11309700000.0 11309700000.0 11309700000.0 11309700000.0 11309700000.0 11309700000.0 11309700000.0 11309700000.0 11309700000.0 11309700000.0 11309700000.0 11309700000.0 11309700000.0 11309700000.0 11309700000.0 11309700000.0 11309700000.0 11309700000.0 11309700000.0 11309700000.0 11309700000.0 11309700000.0 11309700000.0 11309700000.0 11309700000.0 11309700000.0 11309700000.0 11309700000.0 11309700000.0 11309700000.0 11309700000.0 11309700000.0 11309700000.0 11309700000.0 11309700000.0 11309700000.0 11309700000.0 11309700000.0 11309700000.0 11309700000.0 11309700000.0 11309700000.0 11309700000.0 11309700000.0 11309700000.0 11309700000.0 11309700000.0 11309700000.0 11309700000.0 11309700000.0 11309700000.0 11309700000.0 11309700000.0 11309700000.0 11309700000.0 11309700000.0 11309700000.0 11309700000.0 11309700000.0 11309700000.0 11309700000.0 11309700000.0 11309700000.0 11309700000.0 11309700000.0 11309700000.0 11309700000.0 11309700000.0 11309700000.0 11309700000.0 11309700000.0 11309700000.0 11309700000.0 11309700000.0 11309700000.0 11309700000.0 11309700000.0 11309700000.0 11309700000.0 11309700000.0 11309700000.0 11309700000.0 11309700000.0 11309700000.0 11309700000.0 11309700000.0 11309700000.0 11309700000.0 11309700000.0 11309700000.0 11309700000.0 11309700000.0 11309700000.0 11309700000.0 11309700000.0 11309700000.0 11309700000.0 11309700000.0 11309700000.0 11309700000.0 11309700000.0 11309700000.0 11309700000.0 11309700000.0 11309700000.0 11309700000.0 11309700000.0 11309700000.0 11309700000.0 11309700000.0 11309700000.0 11309700000.0 11309700000.0 11309700000.0 11309700000.0 11309700000.0 11309700000.0 11309700000.0 11309700000.0 11309700000.0 11309700000.0 11309700000.0 11309700000.0 11309700000.0 11309700000.0 11309700000.0 11309700000.0 11309700000.0 11309700000.0 11309700000.0 11309700000.0 11309700000.0 11309700000.0 11309700000.0 11309700000.0 11309700000.0 11309700000.0 11309700000.0 11309700000.0 11309700000.0 11309700000.0 11309700000.0 11309700000.0 11309700000.0 11309700000.0 11309700000.0 11309700000.0 11309700000.0 11309700000.0 11309700000.0 11309700000.0 11309700000.0 11309700000.0 11309700000.0 11309700000.0 11309700000.0 11309700000.0 11309700000.0 11309700000.0 11309700000.0 11309700000.0 11309700000.0 11309700000.0 11309700000.0 11309700000.0 11309700000.0 11309700000.0 11309700000.0 11309700000.0 11309700000.0 11309700000.0 11309700000.0 11309700000.0 11309700000.0 11309700000.0 11309700000.0 11309700000.0 11309700000.0 11309700000.0 11309700000.0 11309700000.0 11309700000.0 11309700000.0 11309700000.0 11309700000.0 11309700000.0 11309700000.0 11309700000.0 11309700000.0 11309700000.0 11309700000.0 11309700000.0 11309700000.0 11309700000.0 11309700000.0 11309700000.0 11309700000.0 11309700000.0 11309700000.0 11309700000.0 11309700000.0 11309700000.0 11309700000.0 11309700000.0 11309700000.0 11309700000.0 11309700000.0 11309700000.0 11309700000.0 11309700000.0 11309700000.0 11309700000.0 11309700000.0 11309700000.0 11309700000.0 11309700000.0 11309700000.0 11309700000.0 11309700000.0 11309700000.0 11309700000.0 11309700000.0 11309700000.0 11309700000.0 11309700000.0 11309700000.0 11309700000.0 11309700000.0 11309700000.0 11309700000.0 11309700000.0 11309700000.0 11309700000.0 11309700000.0 11309700000.0 11309700000.0 11309700000.0 11309700000.0 11309700000.0 11309700000.0 11309700000.0 11309700000.0 11309700000.0 11309700000.0 11309700000.0 11309700000.0 11309700000.0 11309700000.0 11309700000.0 11309700000.0 11309700000.0 11309700000.0 11309700000.0 11309700000.0 11309700000.0 11309700000.0 11309700000.0 11309700000.0 11309700000.0 11309700000.0 11309700000.0 11309700000.0 11309700000.0 11309700000.0 11309700000.0 11309700000.0 11309700000.0 11309700000.0 11309700000.0 11309700000.0 11309700000.0 11309700000.0 11309700000.0 11309700000.0 11309700000.0 11309700000.0 11309700000.0 11309700000.0 11309700000.0 11309700000.0 11309700000.0 11309700000.0 11309700000.0 11309700000.0 11309700000.0 11309700000.0 11309700000.0 11309700000.0 11309700000.0 11309700000.0 11309700000.0 11309700000.0 11309700000.0 11309700000.0 11309700000.0 11309700000.0 11309700000.0 11309700000.0 11309700000.0 11309700000.0 11309700000.0 11309700000.0 11309700000.0 11309700000.0 11309700000.0 11309700000.0 11309700000.0 11309700000.0 11309700000.0 11309700000.0 11309700000.0 11309700000.0 11309700000.0 11309700000.0 11309700000.0 11309700000.0 11309700000.0 11309700000.0 11309700000.0 11309700000.0 11309700000.0 11309700000.0 11309700000.0 11309700000.0 11309700000.0 11309700000.0 11309700000.0 11309700000.0 11309700000.0 11309700000.0 11309700000.0 11309700000.0 11309700000.0 11309700000.0 11309700000.0 11309700000.0 11309700000.0 11309700000.0 11309700000.0 11309700000.0 11309700000.0 11309700000.0 11309700000.0 11309700000.0 11309700000.0 11309700000.0 11309700000.0 11309700000.0 11309700000.0 11309700000.0 11309700000.0 11309700000.0 11309700000.0 11309700000.0 11309700000.0 11309700000.0 11309700000.0 11309700000.0 11309700000.0 11309700000.0 11309700000.0 11309700000.0 11309700000.0 11309700000.0 11309700000.0 11309700000.0 11309700000.0 11309700000.0 11309700000.0 11309700000.0 11309700000.0 11309700000.0 11309700000.0 11309700000.0 11309700000.0 11309700000.0 11309700000.0 11309700000.0 11309700000.0 11309700000.0 11309700000.0 11309700000.0 11309700000.0 11309700000.0 11309700000.0 11309700000.0 11309700000.0 11309700000.0 11309700000.0 11309700000.0 11309700000.0 11309700000.0 11309700000.0 11309700000.0 11309700000.0 11309700000.0 11309700000.0 11309700000.0 11309700000.0 11309700000.0 11309700000.0 11309700000.0 11309700000.0 11309700000.0 11309700000.0 11309700000.0 11309700000.0 11309700000.0 11309700000.0 11309700000.0 11309700000.0 11309700000.0 11309700000.0 11309700000.0 11309700000.0 11309700000.0 11309700000.0 11309700000.0 11309700000.0 11309700000.0 11309700000.0 11309700000.0 11309700000.0 11309700000.0 11309700000.0 11309700000.0 11309700000.0 11309700000.0 11309700000.0 11309700000.0 11309700000.0 11309700000.0 11309700000.0 11309700000.0 11309700000.0 11309700000.0 11309700000.0 11309700000.0 11309700000.0 11309700000.0 11309700000.0 11309700000.0 11309700000.0 11309700000.0 11309700000.0 11309700000.0 11309700000.0 11309700000.0 11309700000.0 11309700000.0 11309700000.0 11309700000.0 11309700000.0 11309700000.0 11309700000.0 11309700000.0 11309700000.0 11309700000.0 11309700000.0 11309700000.0 11309700000.0 11309700000.0 11309700000.0 11309700000.0 11309700000.0 11309700000.0 11309700000.0 11309700000.0 11309700000.0 11309700000.0 11309700000.0 11309700000.0 11309700000.0 11309700000.0 11309700000.0 11309700000.0 11309700000.0 11309700000.0 11309700000.0 11309700000.0 11309700000.0 11309700000.0 11309700000.0 11309700000.0 11309700000.0 11309700000.0 11309700000.0 11309700000.0 11309700000.0 11309700000.0 11309700000.0 11309700000.0 11309700000.0 11309700000.0 11309700000.0 11309700000.0 11309700000.0 11309700000.0 11309700000.0 11309700000.0 11309700000.0 11309700000.0 11309700000.0 11309700000.0 11309700000.0 11309700000.0 11309700000.0 11309700000.0 11309700000.0 11309700000.0 11309700000.0 11309700000.0 11309700000.0 11309700000.0 11309700000.0 11309700000.0 11309700000.0 11309700000.0 11309700000.0 11309700000.0 11309700000.0 11309700000.0 11309700000.0 11309700000.0 11309700000.0 11309700000.0 11309700000.0 11309700000.0 11309700000.0 11309700000.0 11309700000.0 11309700000.0 11309700000.0 11309700000.0 11309700000.0 11309700000.0 11309700000.0 11309700000.0 11309700000.0 11309700000.0 11309700000.0 11309700000.0 11309700000.0 11309700000.0 11309700000.0 11309700000.0 11309700000.0 11309700000.0 11309700000.0 11309700000.0 11309700000.0 11309700000.0 11309700000.0 11309700000.0 11309700000.0 11309700000.0 11309700000.0 11309700000.0 11309700000.0 11309700000.0 11309700000.0 11309700000.0 11309700000.0 11309700000.0 11309700000.0 11309700000.0 11309700000.0 11309700000.0 11309700000.0 11309700000.0 11309700000.0 11309700000.0 11309700000.0 11309700000.0 11309700000.0 11309700000.0 11309700000.0 11309700000.0 11309700000.0 11309700000.0 11309700000.0 11309700000.0 11309700000.0 11309700000.0 11309700000.0 11309700000.0 11309700000.0 11309700000.0 11309700000.0 11309700000.0 11309700000.0 11309700000.0 11309700000.0 11309700000.0 11309700000.0 11309700000.0 11309700000.0 11309700000.0 11309700000.0 11309700000.0 11309700000.0 11309700000.0 11309700000.0 11309700000.0 11309700000.0 11309700000.0 11309700000.0 11309700000.0 11309700000.0 11309700000.0 11309700000.0 11309700000.0 11309700000.0 11309700000.0 11309700000.0 11309700000.0 11309700000.0 11309700000.0 11309700000.0 11309700000.0 11309700000.0 11309700000.0 11309700000.0 11309700000.0 11309700000.0 11309700000.0 11309700000.0 11309700000.0 11309700000.0 11309700000.0 11309700000.0 11309700000.0 11309700000.0 11309700000.0 11309700000.0 11309700000.0 11309700000.0 11309700000.0 11309700000.0 11309700000.0 11309700000.0 11309700000.0 11309700000.0 11309700000.0 11309700000.0 11309700000.0 11309700000.0 11309700000.0 11309700000.0 11309700000.0 11309700000.0 11309700000.0 11309700000.0 11309700000.0 11309700000.0 11309700000.0 11309700000.0 11309700000.0 11309700000.0 11309700000.0 11309700000.0 11309700000.0 11309700000.0 11309700000.0 11309700000.0 11309700000.0 11309700000.0 11309700000.0 11309700000.0 11309700000.0 11309700000.0 11309700000.0 11309700000.0 11309700000.0 11309700000.0 11309700000.0 11309700000.0 11309700000.0 11309700000.0 11309700000.0 11309700000.0 11309700000.0 11309700000.0 11309700000.0 11309700000.0 11309700000.0 11309700000.0 11309700000.0 11309700000.0 11309700000.0 11309700000.0 11309700000.0 11309700000.0 11309700000.0 11309700000.0 11309700000.0 11309700000.0 11309700000.0 11309700000.0 11309700000.0 11309700000.0 11309700000.0 11309700000.0 11309700000.0 11309700000.0 11309700000.0 11309700000.0 11309700000.0 11309700000.0 11309700000.0 11309700000.0 11309700000.0 11309700000.0 11309700000.0 11309700000.0 11309700000.0 11309700000.0 11309700000.0 11309700000.0 11309700000.0 11309700000.0 11309700000.0 11309700000.0 11309700000.0 11309700000.0 11309700000.0 11309700000.0 11309700000.0 11309700000.0 11309700000.0 11309700000.0 11309700000.0 11309700000.0 11309700000.0 11309700000.0 11309700000.0 11309700000.0 11309700000.0 11309700000.0 11309700000.0 11309700000.0 11309700000.0 11309700000.0 11309700000.0 11309700000.0 11309700000.0 11309700000.0 11309700000.0 11309700000.0 11309700000.0 11309700000.0 11309700000.0 11309700000.0 11309700000.0 11309700000.0 11309700000.0 11309700000.0 11309700000.0 11309700000.0 11309700000.0 11309700000.0 11309700000.0 11309700000.0 11309700000.0 11309700000.0 11309700000.0 11309700000.0 11309700000.0 11309700000.0 11309700000.0 11309700000.0 11309700000.0 11309700000.0 11309700000.0 11309700000.0 11309700000.0 11309700000.0 11309700000.0 11309700000.0 11309700000.0 11309700000.0 11309700000.0 11309700000.0 11309700000.0 11309700000.0 11309700000.0 11309700000.0 11309700000.0 11309700000.0 11309700000.0 11309700000.0 11309700000.0 11309700000.0 11309700000.0 11309700000.0 11309700000.0 11309700000.0 11309700000.0 11309700000.0 11309700000.0 11309700000.0 11309700000.0 11309700000.0 11309700000.0 11309700000.0 11309700000.0 11309700000.0 11309700000.0 11309700000.0 11309700000.0 11309700000.0 11309700000.0 11309700000.0 11309700000.0 11309700000.0 11309700000.0 11309700000.0 11309700000.0 11309700000.0 11309700000.0 11309700000.0 11309700000.0 11309700000.0 11309700000.0 11309700000.0 11309700000.0 11309700000.0 11309700000.0 11309700000.0 11309700000.0 11309700000.0 11309700000.0 11309700000.0 11309700000.0 11309700000.0 11309700000.0 11309700000.0 11309700000.0 11309700000.0 11309700000.0 11309700000.0 11309700000.0 11309700000.0 11309700000.0 11309700000.0 11309700000.0 11309700000.0 11309700000.0 11309700000.0 11309700000.0 11309700000.0 11309700000.0 11309700000.0 11309700000.0 11309700000.0 11309700000.0 11309700000.0 11309700000.0 11309700000.0 11309700000.0 11309700000.0 11309700000.0 11309700000.0 11309700000.0 11309700000.0 11309700000.0 11309700000.0 11309700000.0 11309700000.0 11309700000.0 11309700000.0 11309700000.0 11309700000.0 11309700000.0 11309700000.0 11309700000.0 11309700000.0 11309700000.0 11309700000.0 11309700000.0 11309700000.0 11309700000.0 11309700000.0 11309700000.0 11309700000.0 11309700000.0 11309700000.0 11309700000.0 11309700000.0 11309700000.0 11309700000.0 11309700000.0 11309700000.0 11309700000.0 11309700000.0 11309700000.0 11309700000.0 11309700000.0 11309700000.0 11309700000.0 11309700000.0 11309700000.0 11309700000.0 11309700000.0 11309700000.0 11309700000.0 11309700000.0 11309700000.0 11309700000.0 11309700000.0 11309700000.0 11309700000.0 11309700000.0 11309700000.0 11309700000.0 11309700000.0 11309700000.0 11309700000.0 11309700000.0 11309700000.0 11309700000.0 11309700000.0 11309700000.0 11309700000.0 11309700000.0 11309700000.0 11309700000.0 11309700000.0 11309700000.0 11309700000.0 11309700000.0 11309700000.0 11309700000.0 11309700000.0 11309700000.0 11309700000.0 11309700000.0 11309700000.0 11309700000.0 11309700000.0 11309700000.0 11309700000.0 11309700000.0 11309700000.0 11309700000.0 11309700000.0 11309700000.0 11309700000.0 11309700000.0 11309700000.0 11309700000.0 11309700000.0 11309700000.0 11309700000.0 11309700000.0 11309700000.0 11309700000.0 11309700000.0 11309700000.0 11309700000.0 11309700000.0 11309700000.0 11309700000.0 11309700000.0 11309700000.0 11309700000.0 11309700000.0 11309700000.0 11309700000.0 11309700000.0 11309700000.0 11309700000.0 11309700000.0 11309700000.0 11309700000.0 11309700000.0 11309700000.0 11309700000.0 11309700000.0 11309700000.0 11309700000.0 11309700000.0 11309700000.0 11309700000.0 11309700000.0 11309700000.0 11309700000.0 11309700000.0 11309700000.0 11309700000.0 11309700000.0 11309700000.0 11309700000.0 11309700000.0 11309700000.0 11309700000.0 11309700000.0 11309700000.0 11309700000.0 11309700000.0 11309700000.0 11309700000.0 11309700000.0 11309700000.0 11309700000.0 11309700000.0 11309700000.0 11309700000.0 11309700000.0 11309700000.0 11309700000.0 11309700000.0 11309700000.0 11309700000.0 11309700000.0 11309700000.0 11309700000.0 11309700000.0 11309700000.0 11309700000.0 11309700000.0 11309700000.0 11309700000.0 11309700000.0 11309700000.0 11309700000.0 11309700000.0 11309700000.0 11309700000.0 11309700000.0 11309700000.0 11309700000.0 11309700000.0 11309700000.0 11309700000.0 11309700000.0 11309700000.0 11309700000.0 11309700000.0 11309700000.0 11309700000.0 11309700000.0 11309700000.0 11309700000.0 11309700000.0 11309700000.0 11309700000.0 11309700000.0 11309700000.0 11309700000.0 11309700000.0 11309700000.0 11309700000.0 11309700000.0 11309700000.0 11309700000.0 11309700000.0 11309700000.0 11309700000.0 11309700000.0 11309700000.0 11309700000.0 11309700000.0 11309700000.0 11309700000.0 11309700000.0 11309700000.0 11309700000.0 11309700000.0 11309700000.0 11309700000.0 11309700000.0 11309700000.0 11309700000.0 11309700000.0 11309700000.0 11309700000.0 11309700000.0 11309700000.0 11309700000.0 11309700000.0 11309700000.0 11309700000.0 11309700000.0 11309700000.0 11309700000.0 11309700000.0 11309700000.0 11309700000.0 11309700000.0 11309700000.0 11309700000.0 11309700000.0 11309700000.0 11309700000.0 11309700000.0 11309700000.0 11309700000.0 11309700000.0 11309700000.0 11309700000.0 11309700000.0 11309700000.0 11309700000.0 11309700000.0 11309700000.0 11309700000.0 11309700000.0 11309700000.0 11309700000.0 11309700000.0 11309700000.0 11309700000.0 11309700000.0 11309700000.0 11309700000.0 11309700000.0 11309700000.0 11309700000.0 11309700000.0 11309700000.0 11309700000.0 11309700000.0 11309700000.0 11309700000.0 11309700000.0 11309700000.0 11309700000.0 11309700000.0 11309700000.0 11309700000.0 11309700000.0 11309700000.0 11309700000.0 11309700000.0 11309700000.0 11309700000.0 11309700000.0 11309700000.0 11309700000.0 11309700000.0 11309700000.0 11309700000.0 11309700000.0 11309700000.0 11309700000.0 11309700000.0 11309700000.0 11309700000.0 11309700000.0 11309700000.0 11309700000.0 11309700000.0 11309700000.0 11309700000.0 11309700000.0 11309700000.0 11309700000.0 11309700000.0 11309700000.0 11309700000.0 11309700000.0 11309700000.0 11309700000.0 11309700000.0 11309700000.0 11309700000.0 11309700000.0 11309700000.0 11309700000.0 11309700000.0 11309700000.0 11309700000.0 11309700000.0 11309700000.0 11309700000.0 11309700000.0 11309700000.0 11309700000.0 11309700000.0 11309700000.0 11309700000.0 11309700000.0 11309700000.0 11309700000.0 11309700000.0 11309700000.0 11309700000.0 11309700000.0 11309700000.0 11309700000.0 11309700000.0 11309700000.0 11309700000.0 11309700000.0 11309700000.0 11309700000.0 11309700000.0 11309700000.0 11309700000.0 11309700000.0 11309700000.0 11309700000.0 11309700000.0 11309700000.0 11309700000.0 11309700000.0 11309700000.0 11309700000.0 11309700000.0 11309700000.0 11309700000.0 11309700000.0 11309700000.0 11309700000.0 11309700000.0 11309700000.0 11309700000.0 11309700000.0 11309700000.0 11309700000.0 11309700000.0 11309700000.0 11309700000.0 11309700000.0 11309700000.0 11309700000.0 11309700000.0 11309700000.0 11309700000.0 11309700000.0 11309700000.0 11309700000.0 11309700000.0 11309700000.0 11309700000.0 11309700000.0 11309700000.0 11309700000.0 11309700000.0 11309700000.0 11309700000.0 11309700000.0 11309700000.0 11309700000.0 11309700000.0 11309700000.0 11309700000.0 11309700000.0 11309700000.0 11309700000.0 11309700000.0 11309700000.0 11309700000.0 11309700000.0 11309700000.0 11309700000.0 11309700000.0 11309700000.0 11309700000.0 11309700000.0 11309700000.0 11309700000.0 11309700000.0 11309700000.0 11309700000.0 11309700000.0 11309700000.0 11309700000.0 11309700000.0 11309700000.0 11309700000.0 11309700000.0 11309700000.0 11309700000.0 11309700000.0 11309700000.0 11309700000.0 11309700000.0 11309700000.0 11309700000.0 11309700000.0 11309700000.0 11309700000.0 11309700000.0 11309700000.0 11309700000.0 11309700000.0 11309700000.0 11309700000.0 11309700000.0 11309700000.0 11309700000.0 11309700000.0 11309700000.0 11309700000.0 11309700000.0 11309700000.0 11309700000.0 11309700000.0 11309700000.0 11309700000.0 11309700000.0 11309700000.0 11309700000.0 11309700000.0 11309700000.0 11309700000.0 11309700000.0 11309700000.0 11309700000.0 11309700000.0 11309700000.0 11309700000.0 11309700000.0 11309700000.0 11309700000.0 11309700000.0 11309700000.0 11309700000.0 11309700000.0 11309700000.0 11309700000.0 11309700000.0 11309700000.0 11309700000.0 11309700000.0 11309700000.0 11309700000.0 11309700000.0 11309700000.0 11309700000.0 11309700000.0 11309700000.0 11309700000.0 11309700000.0 11309700000.0 11309700000.0 11309700000.0 11309700000.0 11309700000.0 11309700000.0 11309700000.0 11309700000.0 11309700000.0 11309700000.0 11309700000.0 11309700000.0 11309700000.0 11309700000.0 11309700000.0 11309700000.0 11309700000.0 11309700000.0 11309700000.0 11309700000.0 11309700000.0 11309700000.0 11309700000.0 11309700000.0 11309700000.0 11309700000.0 11309700000.0 11309700000.0 11309700000.0 11309700000.0 11309700000.0 11309700000.0 11309700000.0 11309700000.0 11309700000.0 11309700000.0 11309700000.0 11309700000.0 11309700000.0 11309700000.0 11309700000.0 11309700000.0 11309700000.0 11309700000.0 11309700000.0 11309700000.0 11309700000.0 11309700000.0 11309700000.0 11309700000.0 11309700000.0 11309700000.0 11309700000.0 11309700000.0 11309700000.0 11309700000.0 11309700000.0 11309700000.0 11309700000.0 11309700000.0 11309700000.0 11309700000.0 11309700000.0 11309700000.0 11309700000.0 11309700000.0 11309700000.0 11309700000.0 11309700000.0 11309700000.0 11309700000.0 11309700000.0 11309700000.0 11309700000.0 11309700000.0 11309700000.0 11309700000.0 11309700000.0 11309700000.0 11309700000.0 11309700000.0 11309700000.0 11309700000.0 11309700000.0 11309700000.0 11309700000.0 11309700000.0 11309700000.0 11309700000.0 11309700000.0 11309700000.0 11309700000.0 11309700000.0 11309700000.0 11309700000.0 11309700000.0 11309700000.0 11309700000.0 11309700000.0 11309700000.0 11309700000.0 11309700000.0 11309700000.0 11309700000.0 11309700000.0 11309700000.0 11309700000.0 11309700000.0 11309700000.0 11309700000.0 11309700000.0 11309700000.0 11309700000.0 11309700000.0 11309700000.0 11309700000.0 11309700000.0 11309700000.0 11309700000.0 11309700000.0 11309700000.0 11309700000.0 11309700000.0 11309700000.0 11309700000.0 11309700000.0 11309700000.0 11309700000.0 11309700000.0 11309700000.0 11309700000.0 11309700000.0 11309700000.0 11309700000.0 11309700000.0 11309700000.0 11309700000.0 11309700000.0 11309700000.0 11309700000.0 11309700000.0 11309700000.0 11309700000.0 11309700000.0 11309700000.0 11309700000.0 11309700000.0 11309700000.0 11309700000.0 11309700000.0 11309700000.0 11309700000.0 11309700000.0 11309700000.0 11309700000.0 11309700000.0 11309700000.0 11309700000.0 11309700000.0 11309700000.0 11309700000.0 11309700000.0 11309700000.0 11309700000.0 11309700000.0 11309700000.0 11309700000.0 11309700000.0 11309700000.0 11309700000.0 11309700000.0 11309700000.0 11309700000.0 11309700000.0 11309700000.0 11309700000.0 11309700000.0 11309700000.0 11309700000.0 11309700000.0 11309700000.0 11309700000.0 11309700000.0 11309700000.0 11309700000.0 11309700000.0 11309700000.0 11309700000.0 11309700000.0 11309700000.0 11309700000.0 11309700000.0 11309700000.0 11309700000.0 11309700000.0 11309700000.0 11309700000.0 11309700000.0 11309700000.0 11309700000.0 11309700000.0 11309700000.0 11309700000.0 11309700000.0 11309700000.0 11309700000.0 11309700000.0 11309700000.0 11309700000.0 11309700000.0 11309700000.0 11309700000.0 11309700000.0 11309700000.0 11309700000.0 11309700000.0 11309700000.0 11309700000.0 11309700000.0 11309700000.0 11309700000.0 11309700000.0 11309700000.0 11309700000.0 11309700000.0 11309700000.0 11309700000.0 11309700000.0 11309700000.0 11309700000.0 11309700000.0 11309700000.0 11309700000.0 11309700000.0 11309700000.0 11309700000.0 11309700000.0 11309700000.0 11309700000.0 11309700000.0 11309700000.0 11309700000.0 11309700000.0 11309700000.0 11309700000.0 11309700000.0 11309700000.0 11309700000.0 11309700000.0 11309700000.0 11309700000.0 11309700000.0 11309700000.0 11309700000.0 11309700000.0 11309700000.0 11309700000.0 11309700000.0 11309700000.0 11309700000.0 11309700000.0 11309700000.0 11309700000.0 11309700000.0 11309700000.0 11309700000.0 11309700000.0 11309700000.0 11309700000.0 11309700000.0 11309700000.0 11309700000.0 11309700000.0 11309700000.0 11309700000.0 11309700000.0 11309700000.0 11309700000.0 11309700000.0 11309700000.0 11309700000.0 11309700000.0 11309700000.0 11309700000.0 11309700000.0 11309700000.0 11309700000.0 11309700000.0 11309700000.0 11309700000.0 11309700000.0 11309700000.0 11309700000.0 11309700000.0 11309700000.0 11309700000.0 11309700000.0 11309700000.0 11309700000.0 11309700000.0 11309700000.0 11309700000.0 11309700000.0 11309700000.0 11309700000.0 11309700000.0 11309700000.0 11309700000.0 11309700000.0 11309700000.0 11309700000.0 11309700000.0 11309700000.0 11309700000.0 11309700000.0 11309700000.0 11309700000.0 11309700000.0 11309700000.0 11309700000.0 11309700000.0 11309700000.0 11309700000.0 11309700000.0 11309700000.0 11309700000.0 11309700000.0 11309700000.0 11309700000.0 11309700000.0 11309700000.0 11309700000.0 11309700000.0 11309700000.0 11309700000.0 11309700000.0 11309700000.0 11309700000.0 11309700000.0 11309700000.0 11309700000.0 11309700000.0 11309700000.0 11309700000.0 11309700000.0 11309700000.0 11309700000.0 11309700000.0 11309700000.0 11309700000.0 11309700000.0 11309700000.0 11309700000.0 11309700000.0 11309700000.0 11309700000.0 11309700000.0 11309700000.0 11309700000.0 11309700000.0 11309700000.0 11309700000.0 11309700000.0 11309700000.0 11309700000.0 11309700000.0 11309700000.0 11309700000.0 11309700000.0 11309700000.0 11309700000.0 11309700000.0 11309700000.0 11309700000.0 11309700000.0 11309700000.0 11309700000.0 11309700000.0 11309700000.0 11309700000.0 11309700000.0 11309700000.0 11309700000.0 11309700000.0 11309700000.0 11309700000.0 11309700000.0 11309700000.0 11309700000.0 11309700000.0 11309700000.0 11309700000.0 11309700000.0 11309700000.0 11309700000.0 11309700000.0 11309700000.0 11309700000.0 11309700000.0 11309700000.0 11309700000.0 11309700000.0 11309700000.0 11309700000.0 11309700000.0 11309700000.0 11309700000.0 11309700000.0 11309700000.0 11309700000.0 11309700000.0 11309700000.0 11309700000.0 11309700000.0 11309700000.0 11309700000.0 11309700000.0 11309700000.0 11309700000.0 11309700000.0 11309700000.0 11309700000.0 11309700000.0 11309700000.0 11309700000.0 11309700000.0 11309700000.0 11309700000.0 11309700000.0 11309700000.0 11309700000.0 11309700000.0 11309700000.0 11309700000.0 11309700000.0 11309700000.0 11309700000.0 11309700000.0 11309700000.0 11309700000.0 11309700000.0 11309700000.0 11309700000.0 11309700000.0 11309700000.0 11309700000.0 11309700000.0 11309700000.0 11309700000.0 11309700000.0 11309700000.0 11309700000.0 11309700000.0 11309700000.0 11309700000.0 11309700000.0 11309700000.0 11309700000.0 11309700000.0 11309700000.0 11309700000.0 11309700000.0 11309700000.0 11309700000.0 11309700000.0 11309700000.0 11309700000.0 11309700000.0 11309700000.0 11309700000.0 11309700000.0 11309700000.0 11309700000.0 11309700000.0 11309700000.0 11309700000.0 11309700000.0 11309700000.0 11309700000.0 11309700000.0 11309700000.0 11309700000.0 11309700000.0 11309700000.0 11309700000.0 11309700000.0 11309700000.0 11309700000.0 11309700000.0 11309700000.0 11309700000.0 11309700000.0 11309700000.0 11309700000.0 11309700000.0 11309700000.0 11309700000.0 11309700000.0 11309700000.0 11309700000.0 11309700000.0 11309700000.0 11309700000.0 11309700000.0 11309700000.0 11309700000.0 11309700000.0 11309700000.0 11309700000.0 11309700000.0 11309700000.0 11309700000.0 11309700000.0 11309700000.0 11309700000.0 11309700000.0 11309700000.0 11309700000.0 11309700000.0 11309700000.0 11309700000.0 11309700000.0 11309700000.0 11309700000.0 11309700000.0 11309700000.0 11309700000.0 11309700000.0 11309700000.0 11309700000.0 11309700000.0 11309700000.0 11309700000.0 11309700000.0 11309700000.0 11309700000.0 11309700000.0 11309700000.0 11309700000.0 11309700000.0 11309700000.0 11309700000.0 11309700000.0 11309700000.0 11309700000.0 11309700000.0 11309700000.0 11309700000.0 11309700000.0 11309700000.0 11309700000.0 11309700000.0 11309700000.0 11309700000.0 11309700000.0 11309700000.0 11309700000.0 11309700000.0 11309700000.0 11309700000.0 11309700000.0 11309700000.0 11309700000.0 11309700000.0 11309700000.0 11309700000.0 11309700000.0 11309700000.0 11309700000.0 11309700000.0 11309700000.0 11309700000.0 11309700000.0 11309700000.0 11309700000.0 11309700000.0 11309700000.0 11309700000.0 11309700000.0 11309700000.0 11309700000.0 11309700000.0 11309700000.0 11309700000.0 11309700000.0 11309700000.0 11309700000.0 11309700000.0 11309700000.0 11309700000.0 11309700000.0 11309700000.0 11309700000.0 11309700000.0 11309700000.0 11309700000.0 11309700000.0 11309700000.0 11309700000.0 11309700000.0 11309700000.0 11309700000.0 11309700000.0 11309700000.0 11309700000.0 11309700000.0 11309700000.0 11309700000.0 11309700000.0 11309700000.0 11309700000.0 11309700000.0 11309700000.0 11309700000.0 11309700000.0 11309700000.0 11309700000.0 11309700000.0 11309700000.0 11309700000.0 11309700000.0 11309700000.0 11309700000.0 11309700000.0 11309700000.0 11309700000.0 11309700000.0 11309700000.0 11309700000.0 11309700000.0 11309700000.0 11309700000.0 11309700000.0 11309700000.0 11309700000.0 11309700000.0 11309700000.0 11309700000.0 11309700000.0 11309700000.0 11309700000.0 11309700000.0 11309700000.0 11309700000.0 11309700000.0 11309700000.0 11309700000.0 11309700000.0 11309700000.0 11309700000.0 11309700000.0 11309700000.0 11309700000.0 11309700000.0 11309700000.0 11309700000.0 11309700000.0 11309700000.0 11309700000.0 11309700000.0 11309700000.0 11309700000.0 11309700000.0 11309700000.0 11309700000.0 11309700000.0 11309700000.0 11309700000.0 11309700000.0 11309700000.0 11309700000.0 11309700000.0 11309700000.0 11309700000.0 11309700000.0 11309700000.0 11309700000.0 11309700000.0 11309700000.0 11309700000.0 11309700000.0 11309700000.0 11309700000.0 11309700000.0 11309700000.0 11309700000.0 11309700000.0 11309700000.0 11309700000.0 11309700000.0 11309700000.0 11309700000.0 11309700000.0 11309700000.0 11309700000.0 11309700000.0 11309700000.0 11309700000.0 11309700000.0 11309700000.0 11309700000.0 11309700000.0 11309700000.0 11309700000.0 11309700000.0 11309700000.0 11309700000.0 11309700000.0 11309700000.0 11309700000.0 11309700000.0 11309700000.0 11309700000.0 11309700000.0 11309700000.0 11309700000.0 11309700000.0 11309700000.0 11309700000.0 11309700000.0 11309700000.0 11309700000.0 11309700000.0 11309700000.0 11309700000.0 11309700000.0 11309700000.0 11309700000.0 11309700000.0 11309700000.0 11309700000.0 11309700000.0 11309700000.0 11309700000.0 11309700000.0 11309700000.0 11309700000.0 11309700000.0 11309700000.0 11309700000.0 11309700000.0 11309700000.0 11309700000.0 11309700000.0 11309700000.0 11309700000.0 11309700000.0 11309700000.0 11309700000.0 11309700000.0 11309700000.0 11309700000.0 11309700000.0 11309700000.0 11309700000.0 11309700000.0 11309700000.0 11309700000.0 11309700000.0 11309700000.0 11309700000.0 11309700000.0 11309700000.0 11309700000.0 11309700000.0 11309700000.0 11309700000.0 11309700000.0 11309700000.0 11309700000.0 11309700000.0 11309700000.0 11309700000.0 11309700000.0 11309700000.0 11309700000.0 11309700000.0 11309700000.0 11309700000.0 11309700000.0 11309700000.0 11309700000.0 11309700000.0 11309700000.0 11309700000.0 11309700000.0 11309700000.0 11309700000.0 11309700000.0 11309700000.0 11309700000.0 11309700000.0 11309700000.0 11309700000.0 11309700000.0 11309700000.0 11309700000.0 11309700000.0 11309700000.0 11309700000.0 11309700000.0 11309700000.0 11309700000.0 11309700000.0 11309700000.0 11309700000.0 11309700000.0 11309700000.0 11309700000.0 11309700000.0 11309700000.0 11309700000.0 11309700000.0 11309700000.0 11309700000.0 11309700000.0 11309700000.0 11309700000.0 11309700000.0 11309700000.0 11309700000.0 11309700000.0 11309700000.0 11309700000.0 11309700000.0 11309700000.0 11309700000.0 11309700000.0 11309700000.0 11309700000.0 11309700000.0 11309700000.0 11309700000.0 11309700000.0 11309700000.0 11309700000.0 11309700000.0 11309700000.0 11309700000.0 11309700000.0 11309700000.0 11309700000.0 11309700000.0 11309700000.0 11309700000.0 11309700000.0 11309700000.0 11309700000.0 11309700000.0 11309700000.0 11309700000.0 11309700000.0 11309700000.0 11309700000.0 11309700000.0 11309700000.0 11309700000.0 11309700000.0 11309700000.0 11309700000.0 11309700000.0 11309700000.0 11309700000.0 11309700000.0 11309700000.0 11309700000.0 11309700000.0 11309700000.0 11309700000.0 11309700000.0 11309700000.0 11309700000.0 11309700000.0 11309700000.0 11309700000.0 11309700000.0 11309700000.0 11309700000.0 11309700000.0 11309700000.0 11309700000.0 11309700000.0 11309700000.0 11309700000.0 11309700000.0 11309700000.0 11309700000.0 11309700000.0 11309700000.0 11309700000.0 11309700000.0 11309700000.0 11309700000.0 11309700000.0 11309700000.0 11309700000.0 11309700000.0 11309700000.0 11309700000.0 11309700000.0 11309700000.0 11309700000.0 11309700000.0 11309700000.0 11309700000.0 11309700000.0 11309700000.0 11309700000.0 11309700000.0 11309700000.0 11309700000.0 11309700000.0 11309700000.0 11309700000.0 11309700000.0 11309700000.0 11309700000.0 11309700000.0 11309700000.0 11309700000.0 11309700000.0 11309700000.0 11309700000.0 11309700000.0 11309700000.0 11309700000.0 11309700000.0 11309700000.0 11309700000.0 11309700000.0 11309700000.0 11309700000.0 11309700000.0 11309700000.0 11309700000.0 11309700000.0 11309700000.0 11309700000.0 11309700000.0 11309700000.0 11309700000.0 11309700000.0 11309700000.0 11309700000.0 11309700000.0 11309700000.0 11309700000.0 11309700000.0 11309700000.0 11309700000.0 11309700000.0 11309700000.0 11309700000.0 11309700000.0 11309700000.0 11309700000.0 11309700000.0 11309700000.0 11309700000.0 11309700000.0 11309700000.0 11309700000.0 11309700000.0 11309700000.0 11309700000.0 11309700000.0 11309700000.0 11309700000.0 11309700000.0 11309700000.0 11309700000.0 11309700000.0 11309700000.0 11309700000.0 11309700000.0 11309700000.0 11309700000.0 11309700000.0 11309700000.0 11309700000.0 11309700000.0 11309700000.0 11309700000.0 11309700000.0 11309700000.0 11309700000.0 11309700000.0 11309700000.0 11309700000.0 11309700000.0 11309700000.0 11309700000.0 11309700000.0 11309700000.0 11309700000.0 11309700000.0 11309700000.0 11309700000.0 11309700000.0 11309700000.0 11309700000.0 11309700000.0 11309700000.0 11309700000.0 11309700000.0 11309700000.0 11309700000.0 11309700000.0 11309700000.0 11309700000.0 11309700000.0 11309700000.0 11309700000.0 11309700000.0 11309700000.0 11309700000.0 11309700000.0 11309700000.0 11309700000.0 11309700000.0 11309700000.0 11309700000.0 11309700000.0 11309700000.0 11309700000.0 11309700000.0 11309700000.0 11309700000.0 11309700000.0 11309700000.0 11309700000.0 11309700000.0 11309700000.0 11309700000.0 11309700000.0 11309700000.0 11309700000.0 11309700000.0 11309700000.0 11309700000.0 11309700000.0 11309700000.0 11309700000.0 11309700000.0 11309700000.0 11309700000.0 
SCALARS Velocity float 1
LOOKUP_TABLE default
0.573943 1.11627 1.11627 0.573943 0.467481 0.976792 0.777146 1.08163 1.06592 1.1921 0.782665 1.0323 0.881001 0.895013 0.893912 0.89405 0.893976 0.893941 0.893891 0.893878 0.893857 0.89385 0.893844 0.893841 0.893839 0.893838 0.893837 0.893837 0.893837 0.893837 0.893837 0.893837 0.89384 0.893837 0.893837 0.893837 0.893837 0.893837 0.893837 0.893838 0.893839 0.893841 0.893844 0.89385 0.893857 0.893878 0.893891 0.893941 0.893976 0.89405 0.893912 0.895013 0.881001 1.0323 0.782665 1.1921 1.06592 1.08163 0.777146 0.976792 0.467481 0.476755 0.497975 0.806861 0.881854 0.918616 1.21554 0.76609 1.04247 0.885541 0.895896 0.894671 0.894446 0.894256 0.894104 0.894015 0.893951 0.893913 0.893887 0.89387 0.89386 0.893852 0.893847 0.893844 0.893841 0.893843 0.893835 0.893843 0.893837 0.89384 0.893837 0.893843 0.893835 0.893843 0.893841 0.893844 0.893847 0.893852 0.89386 0.89387 0.893887 0.893913 0.893951 0.894015 0.894104 0.894256 0.894446 0.894671 0.895896 0.885541 1.04247 0.76609 1.21554 0.918616 0.881854 0.806861 0.497975 0.476755 0.489311 0.481674 0.499072 0.491025 0.855959 0.898318 0.898318 0.855959 0.491025 0.499072 0.481674 0.489311 0.492296 0.506299 0.544769 0.547768 0.88575 0.947012 0.954863 1.16939 0.663705 1.05954 0.868955 0.905962 0.893466 0.89418 0.893971 0.89388 0.89386 0.893851 0.893847 0.893852 0.893853 0.893852 0.893849 0.893847 0.893845 0.893844 0.893842 0.893845 0.893839 0.893842 0.89384 0.893842 0.893839 0.893845 0.893842 0.893844 0.893845 0.893847 0.893849 0.893852 0.893853 0.893852 0.893847 0.893851 0.89386 0.89388 0.893971 0.89418 0.893466 0.905962 0.868955 1.05954 0.663705 1.16939 0.954863 0.947012 0.88575 0.547768 0.544769 0.506299 0.492296 0.502103 0.512928 0.551754 0.62105 0.886629 0.913682 0.93425 0.963517 0.85341 1.11169 0.800406 0.920378 0.891273 0.897149 0.895869 0.895542 0.895219 0.894866 0.894589 0.89436 0.894176 0.894057 0.893982 0.893925 0.893884 0.893862 0.89385 0.89385 0.893845 0.893844 0.893844 0.893844 0.893845 0.89385 0.89385 0.893862 0.893884 0.893925 0.893982 0.894057 0.894176 0.89436 0.894589 0.894866 0.895219 0.895542 0.895869 0.897149 0.891273 0.920378 0.800406 1.11169 0.85341 0.963517 0.93425 0.913682 0.886629 0.62105 0.551754 0.512928 0.502103 0.508816 0.521574 0.564922 0.558161 0.621107 0.865429 0.96064 0.851311 0.43053 0.43053 0.851311 0.96064 0.865429 0.621107 0.558161 0.564922 0.521574 0.508816 0.56924 0.536237 0.518382 0.559184 0.629515 0.623132 0.733243 0.765447 0.954998 0.935807 0.842275 0.843393 0.412433 1.13418 0.799641 0.920674 0.888699 0.895894 0.895067 0.895027 0.894872 0.894698 0.894523 0.894348 0.894222 0.894122 0.89403 0.893962 0.89392 0.893891 0.893869 0.893856 0.893846 0.893845 0.893841 0.893845 0.893846 0.893856 0.893869 0.893891 0.89392 0.893962 0.89403 0.894122 0.894222 0.894348 0.894523 0.894698 0.894872 0.895027 0.895067 0.895894 0.888699 0.920674 0.799641 1.13418 0.412433 0.843393 0.842275 0.935807 0.954998 0.765447 0.733243 0.623132 0.629515 0.559184 0.518382 0.536237 0.56924 0.556591 0.542383 0.522482 0.558001 0.63321 0.726228 0.877306 0.921738 0.550766 0.938818 0.929861 0.929861 0.938818 0.550766 0.921738 0.877306 0.726228 0.63321 0.558001 0.522482 0.542383 0.556591 0.527679 0.636004 0.537685 0.643512 0.73603 0.854347 0.561255 0.940714 0.841476 0.841721 0.420416 1.15625 0.80335 0.919561 0.890294 0.896343 0.895425 0.895427 0.895239 0.895053 0.894829 0.894615 0.894444 0.894295 0.894161 0.894058 0.893989 0.893931 0.893888 0.893862 0.893849 0.893843 0.893842 0.893843 0.893849 0.893862 0.893888 0.893931 0.893989 0.894058 0.894161 0.894295 0.894444 0.894615 0.894829 0.895053 0.895239 0.895427 0.895425 0.896343 0.890294 0.919561 0.80335 1.15625 0.420416 0.841721 0.841476 0.940714 0.561255 0.854347 0.73603 0.643512 0.537685 0.636004 0.527679 0.466251 0.39596 0.591754 0.597384 0.543687 0.648308 0.703802 0.850523 0.358653 0.268137 0.929393 0.850653 0.849722 0.45083 1.17327 0.809023 0.918284 0.891362 0.896856 0.895803 0.895589 0.895287 0.895005 0.894733 0.894507 0.894315 0.894166 0.894073 0.894008 0.893944 0.893899 0.893871 0.893856 0.893847 0.893842 0.893841 0.893842 0.893847 0.893856 0.893871 0.893899 0.893944 0.894008 0.894073 0.894166 0.894315 0.894507 0.894733 0.895005 0.895287 0.895589 0.895803 0.896856 0.891362 0.918284 0.809023 1.17327 0.45083 0.849722 0.850653 0.929393 0.268137 0.358653 0.850523 0.703802 0.648308 0.543687 0.597384 0.591754 0.39596 0.466251 0.0257168 0.447924 0.463758 0.470717 0.692633 0.70146 0.722755 0.243634 0.506706 0.94475 0.94475 0.506706 0.243634 0.722755 0.70146 0.692633 0.470717 0.463758 0.447924 0.0257168 0.770129 0.355873 0.333081 0.45519 0.320476 0.548251 1.14733 0.387836 0.78779 0.57754 0.68514 0.918931 0.745846 0.842418 0.845565 0.501702 1.18514 0.818561 0.919404 0.897125 0.899628 0.899543 0.899184 0.898654 0.898032 0.897319 0.896671 0.896128 0.895647 0.895227 0.89488 0.894587 0.894333 0.894131 0.893989 0.8939 0.89385 0.893833 0.89385 0.8939 0.893989 0.894131 0.894333 0.894587 0.89488 0.895227 0.895647 0.896128 0.896671 0.897319 0.898032 0.898654 0.899184 0.899543 0.899628 0.897125 0.919404 0.818561 1.18514 0.501702 0.845565 0.842418 0.745846 0.918931 0.68514 0.57754 0.78779 0.387836 1.14733 0.548251 0.320476 0.45519 0.333081 0.355873 0.770129 0.710681 0.512926 0.29882 0.532539 0.762531 0.556247 0.648925 0.860412 0.586513 0.467213 1.01599 0.826832 0.904666 0.894707 0.896182 0.895338 0.894766 0.894391 0.894026 0.893727 0.893575 0.893508 0.893481 0.893505 0.893559 0.893619 0.893681 0.893738 0.893781 0.89381 0.893827 0.893833 0.893827 0.89381 0.893781 0.893738 0.893681 0.893619 0.893559 0.893505 0.893481 0.893508 0.893575 0.893727 0.894026 0.894391 0.894766 0.895338 0.896182 0.894707 0.904666 0.826832 1.01599 0.467213 0.586513 0.860412 0.648925 0.556247 0.762531 0.532539 0.29882 0.512926 0.710681 0.595973 0.434714 0.374098 0.56751 0.500887 0.591957 0.96718 0.378171 0.656573 0.896874 0.896874 0.656573 0.378171 0.96718 0.591957 0.500887 0.56751 0.374098 0.434714 0.595973 0.61485 0.411084 0.545175 0.650293 0.463403 0.457671 0.478585 0.46371 0.677368 0.712591 0.586716 0.89558 0.733247 0.785792 0.685671 0.617323 0.893866 0.843593 0.893832 0.893832 0.893832 0.893832 0.893832 0.893832 0.893832 0.893832 0.893832 0.893832 0.893832 0.893832 0.893832 0.893832 0.893832 0.893832 0.893832 0.893832 0.893832 0.893833 0.893832 0.893832 0.893832 0.893832 0.893832 0.893832 0.893832 0.893832 0.893832 0.893832 0.893832 0.893832 0.893832 0.893832 0.893832 0.893832 0.893832 0.893832 0.893832 0.843593 0.893866 0.617323 0.685671 0.785792 0.733247 0.89558 0.586716 0.712591 0.677368 0.46371 0.478585 0.457671 0.463403 0.650293 0.545175 0.411084 0.61485 0.65354 0.737144 0.672513 0.902736 0.769114 0.786304 0.780555 0.726949 0.948865 0.890916 0.896889 0.895486 0.895112 0.89482 0.894598 0.894459 0.89435 0.894255 0.894195 0.89416 0.894129 0.894088 0.894039 0.893989 0.893942 0.893903 0.893873 0.893851 0.893838 0.893833 0.893838 0.893851 0.893873 0.893903 0.893942 0.893989 0.894039 0.894088 0.894129 0.89416 0.894195 0.894255 0.89435 0.894459 0.894598 0.89482 0.895112 0.895486 0.896889 0.890916 0.948865 0.726949 0.780555 0.786304 0.769114 0.902736 0.672513 0.737144 0.65354 0.642971 0.647424 0.737595 0.615524 0.483519 0.577846 0.673622 0.813264 0.813264 0.673622 0.577846 0.483519 0.615524 0.737595 0.647424 0.642971 0.657337 0.785733 0.713137 0.629119 0.662818 0.607985 0.503094 0.650037 0.68873 0.894462 0.72748 0.852975 0.819652 0.858545 0.905313 0.794043 0.893832 0.893832 0.893832 0.893832 0.893832 0.893832 0.893832 0.893832 0.893832 0.893832 0.893832 0.893832 0.893832 0.893832 0.893832 0.893832 0.893832 0.893832 0.893832 0.893832 0.893832 0.893832 0.893832 0.893832 0.893832 0.893832 0.893832 0.893832 0.893832 0.893832 0.893832 0.893832 0.893832 0.893832 0.893832 0.893832 0.893832 0.893832 0.893832 0.893832 0.893832 0.893832 0.893832 0.794043 0.905313 0.858545 0.819652 0.852975 0.72748 0.894462 0.68873 0.650037 0.503094 0.607985 0.662818 0.629119 0.713137 0.785733 0.657337 0.768635 0.779208 0.684089 0.775856 0.732704 0.560791 0.773253 0.764768 0.874126 0.803546 0.88447 0.971681 0.900227 0.933029 0.833038 0.903697 0.895501 0.895356 0.895017 0.89476 0.894554 0.894387 0.894254 0.894153 0.894079 0.894022 0.893978 0.893942 0.893914 0.893892 0.893874 0.89386 0.893849 0.893842 0.893836 0.893833 0.893832 0.893833 0.893836 0.893842 0.893849 0.89386 0.893874 0.893892 0.893914 0.893942 0.893978 0.894022 0.894079 0.894153 0.894254 0.894387 0.894554 0.89476 0.895017 0.895356 0.895501 0.903697 0.833038 0.933029 0.900227 0.971681 0.88447 0.803546 0.874126 0.764768 0.773253 0.560791 0.732704 0.775856 0.684089 0.779208 0.768635 0.618234 0.618234 0.846389 0.871082 0.797989 0.919453 0.959631 0.846841 0.715039 0.855561 0.861971 0.904053 0.898849 0.899389 0.896994 0.899855 0.895337 0.849905 0.893832 0.893832 0.893832 0.893832 0.893832 0.893832 0.893832 0.893832 0.893832 0.893832 0.893832 0.893832 0.893832 0.893832 0.893832 0.893832 0.893832 0.893832 0.893832 0.893832 0.893832 0.893832 0.893832 0.893832 0.893832 0.893832 0.893832 0.893832 0.893832 0.893832 0.893832 0.893832 0.893832 0.893832 0.893832 0.893832 0.893832 0.893832 0.893832 0.893832 0.893832 0.893832 0.893832 0.849905 0.895337 0.899855 0.896994 0.899389 0.898849 0.904053 0.861971 0.855561 0.715039 0.846841 0.959631 0.919453 0.797989 0.871082 0.846389 0.839397 0.908554 0.903918 0.87119 0.906637 0.872567 0.907439 0.902859 0.899887 0.899567 0.892143 0.896152 0.859899 0.894323 0.893904 0.893885 0.89387 0.893859 0.893851 0.893845 0.893841 0.893839 0.893837 0.893835 0.893834 0.893833 0.893833 0.893833 0.893833 0.893832 0.893832 0.893832 0.893832 0.893832 0.893832 0.893832 0.893832 0.893832 0.893832 0.893832 0.893833 0.893833 0.893833 0.893833 0.893834 0.893835 0.893837 0.893839 0.893841 0.893845 0.893851 0.893859 0.89387 0.893885 0.893904 0.894323 0.859899 0.896152 0.892143 0.899567 0.899887 0.902859 0.907439 0.872567 0.906637 0.87119 0.903918 0.908554 0.839397 0.887496 0.905821 0.878714 0.878714 0.905821 0.887496 0.888445 0.906643 0.850297 0.910517 0.906502 0.878317 0.870536 0.91648 0.873505 0.905888 0.89428 0.897044 0.893885 0.885035 0.893834 0.867708 0.893832 0.893832 0.893832 0.893832 0.893832 0.893832 0.893832 0.893832 0.893832 0.893832 0.893832 0.893832 0.893832 0.893832 0.893832 0.893832 0.893832 0.893832 0.893832 0.893832 0.893832 0.893832 0.893832 0.893832 0.893832 0.893832 0.893832 0.893832 0.893832 0.893832 0.893832 0.893832 0.893832 0.893832 0.893832 0.893832 0.893832 0.893832 0.893832 0.893832 0.893832 0.893832 0.893832 0.867708 0.893834 0.885035 0.893885 0.897044 0.89428 0.905888 0.873505 0.91648 0.870536 0.878317 0.906502 0.910517 0.850297 0.906643 0.888445 0.8641 0.875406 0.894258 0.894369 0.89393 0.879771 0.893833 0.874281 0.893832 0.893832 0.893832 0.893832 0.893832 0.893832 0.893832 0.893832 0.893832 0.893832 0.893832 0.893832 0.893832 0.893832 0.893832 0.893832 0.893832 0.893832 0.893832 0.893832 0.893832 0.893832 0.893832 0.893832 0.893832 0.893832 0.893832 0.893832 0.893832 0.893832 0.893832 0.893832 0.893832 0.893832 0.893832 0.893832 0.893832 0.893832 0.893832 0.893832 0.893832 0.893832 0.893832 0.874281 0.893833 0.879771 0.89393 0.894369 0.894258 0.875406 0.8641 0.883071 0.904107 0.857962 0.908706 0.905216 0.876714 0.913849 0.903617 0.903617 0.913849 0.876714 0.905216 0.908706 0.857962 0.904107 0.883071 0.879249 0.902406 0.86398 0.906176 0.903568 0.876308 0.86084 0.908813 0.877816 0.901269 0.894216 0.892309 0.893833 0.876478 0.893833 0.879681 0.893832 0.893832 0.893832 0.893832 0.893832 0.893832 0.893832 0.893832 0.893832 0.893832 0.893832 0.893832 0.893832 0.893832 0.893832 0.893832 0.893832 0.893832 0.893832 0.893832 0.893832 0.893832 0.893832 0.893832 0.893832 0.893832 0.893832 0.893832 0.893832 0.893832 0.893832 0.893832 0.893832 0.893832 0.893832 0.893832 0.893832 0.893832 0.893832 0.893832 0.893832 0.893832 0.893832 0.879681 0.893833 0.876478 0.893833 0.892309 0.894216 0.901269 0.877816 0.908813 0.86084 0.876308 0.903568 0.906176 0.86398 0.902406 0.879249 0.878245 0.900826 0.868292 0.903127 0.901718 0.876937 0.859631 0.903625 0.880073 0.898983 0.894156 0.890656 0.893833 0.87494 0.893833 0.883984 0.893832 0.893832 0.893832 0.893832 0.893832 0.893832 0.893832 0.893832 0.893832 0.893832 0.893832 0.893832 0.893832 0.893832 0.893832 0.893832 0.893832 0.893832 0.893832 0.893832 0.893832 0.893832 0.893832 0.893832 0.893832 0.893832 0.893832 0.893832 0.893832 0.893832 0.893832 0.893832 0.893832 0.893832 0.893832 0.893832 0.893832 0.893832 0.893832 0.893832 0.893832 0.893832 0.893832 0.883984 0.893833 0.87494 0.893833 0.890656 0.894156 0.898983 0.880073 0.903625 0.859631 0.876937 0.901718 0.903127 0.868292 0.900826 0.878245 0.879157 0.898838 0.871454 0.900347 0.899804 0.878532 0.85982 0.899303 0.882173 0.896709 0.894082 0.889334 0.893833 0.874689 0.893833 0.887269 0.893832 0.893832 0.893832 0.893832 0.893832 0.893832 0.893832 0.893832 0.893832 0.893832 0.893832 0.893832 0.893832 0.893832 0.893832 0.893832 0.893832 0.893832 0.893832 0.893832 0.893832 0.893832 0.893832 0.893832 0.893832 0.893832 0.893832 0.893832 0.893832 0.893832 0.893832 0.893832 0.893832 0.893832 0.893832 0.893832 0.893832 0.893832 0.893832 0.893832 0.893832 0.893832 0.893832 0.887269 0.893833 0.874689 0.893833 0.889334 0.894082 0.896709 0.882173 0.899303 0.85982 0.878532 0.899804 0.900347 0.871454 0.898838 0.879157 0.880932 0.896807 0.874132 0.898176 0.897944 0.880535 0.861168 0.896002 0.884103 0.894533 0.894024 0.888244 0.893833 0.875332 0.893833 0.889668 0.893832 0.893832 0.893832 0.893832 0.893832 0.893832 0.893832 0.893832 0.893832 0.893832 0.893832 0.893832 0.893832 0.893832 0.893832 0.893832 0.893832 0.893832 0.893832 0.893832 0.893832 0.893832 0.893832 0.893832 0.893832 0.893832 0.893832 0.893832 0.893832 0.893832 0.893832 0.893832 0.893832 0.893832 0.893832 0.893832 0.893832 0.893832 0.893832 0.893832 0.893832 0.893832 0.893832 0.889668 0.893833 0.875332 0.893833 0.888244 0.894024 0.894533 0.884103 0.896002 0.861168 0.880535 0.897944 0.898176 0.874132 0.896807 0.880932 0.882891 0.8951 0.876686 0.896498 0.896224 0.882367 0.863303 0.893478 0.885875 0.89255 0.89398 0.887361 0.893833 0.876633 0.893832 0.891335 0.893832 0.893832 0.893832 0.893832 0.893832 0.893832 0.893832 0.893832 0.893832 0.893832 0.893832 0.893832 0.893832 0.893832 0.893832 0.893832 0.893832 0.893832 0.893832 0.893832 0.893832 0.893832 0.893832 0.893832 0.893832 0.893832 0.893832 0.893832 0.893832 0.893832 0.893832 0.893832 0.893832 0.893832 0.893832 0.893832 0.893832 0.893832 0.893832 0.893832 0.893832 0.893832 0.893832 0.891335 0.893832 0.876633 0.893833 0.887361 0.89398 0.89255 0.885875 0.893478 0.863303 0.882367 0.896224 0.896498 0.876686 0.8951 0.882891 0.884657 0.893779 0.879173 0.89516 0.894693 0.883789 0.865845 0.891503 0.887515 0.890818 0.893938 0.886692 0.893833 0.878403 0.893832 0.892421 0.893832 0.893832 0.893832 0.893832 0.893832 0.893832 0.893832 0.893832 0.893832 0.893832 0.893832 0.893832 0.893832 0.893832 0.893832 0.893832 0.893832 0.893832 0.893832 0.893832 0.893832 0.893832 0.893832 0.893832 0.893832 0.893832 0.893832 0.893832 0.893832 0.893832 0.893832 0.893832 0.893832 0.893832 0.893832 0.893832 0.893832 0.893832 0.893832 0.893832 0.893832 0.893832 0.893832 0.892421 0.893832 0.878403 0.893833 0.886692 0.893938 0.890818 0.887515 0.891503 0.865845 0.883789 0.894693 0.89516 0.879173 0.893779 0.884657 0.886067 0.892764 0.881501 0.894061 0.893402 0.884777 0.868582 0.889966 0.88899 0.889364 0.893895 0.886237 0.893833 0.880448 0.893832 0.893088 0.893832 0.893832 0.893832 0.893832 0.893832 0.893832 0.893832 0.893832 0.893832 0.893832 0.893832 0.893832 0.893832 0.893832 0.893832 0.893832 0.893832 0.893832 0.893832 0.893832 0.893832 0.893832 0.893832 0.893832 0.893832 0.893832 0.893832 0.893832 0.893832 0.893832 0.893832 0.893832 0.893832 0.893832 0.893832 0.893832 0.893832 0.893832 0.893832 0.893832 0.893832 0.893832 0.893832 0.893088 0.893832 0.880448 0.893833 0.886237 0.893895 0.889364 0.88899 0.889966 0.868582 0.884777 0.893402 0.894061 0.881501 0.892764 0.886067 0.887102 0.89196 0.883554 0.89313 0.89241 0.885372 0.871383 0.888817 0.890247 0.8882 0.893855 0.885994 0.893833 0.882577 0.893832 0.893474 0.893832 0.893832 0.893832 0.893832 0.893832 0.893832 0.893832 0.893832 0.893832 0.893832 0.893832 0.893832 0.893832 0.893832 0.893832 0.893832 0.893832 0.893832 0.893832 0.893832 0.893832 0.893832 0.893832 0.893832 0.893832 0.893832 0.893832 0.893832 0.893832 0.893832 0.893832 0.893832 0.893832 0.893832 0.893832 0.893832 0.893832 0.893832 0.893832 0.893832 0.893832 0.893832 0.893832 0.893474 0.893832 0.882577 0.893833 0.885994 0.893855 0.8882 0.890247 0.888817 0.871383 0.885372 0.89241 0.89313 0.883554 0.89196 0.887102 0.887822 0.891303 0.885255 0.892325 0.891711 0.885657 0.874132 0.888017 0.891258 0.887323 0.89382 0.885962 0.893833 0.884628 0.893832 0.893679 0.893832 0.893832 0.893832 0.893832 0.893832 0.893832 0.893832 0.893832 0.893832 0.893832 0.893832 0.893832 0.893832 0.893832 0.893832 0.893832 0.893832 0.893832 0.893832 0.893832 0.893832 0.893832 0.893832 0.893832 0.893832 0.893832 0.893832 0.893832 0.893832 0.893832 0.893832 0.893832 0.893832 0.893832 0.893832 0.893832 0.893832 0.893832 0.893832 0.893832 0.893832 0.893832 0.893832 0.893679 0.893832 0.884628 0.893833 0.885962 0.89382 0.887323 0.891258 0.888017 0.874132 0.885657 0.891711 0.892325 0.885255 0.891303 0.887822 0.888309 0.890758 0.886578 0.891633 0.891228 0.885739 0.876737 0.887513 0.892029 0.886717 0.89379 0.886132 0.893832 0.886483 0.893832 0.893775 0.893832 0.893832 0.893832 0.893832 0.893832 0.893832 0.893832 0.893832 0.893832 0.893832 0.893832 0.893832 0.893832 0.893832 0.893832 0.893832 0.893832 0.893832 0.893832 0.893832 0.893832 0.893832 0.893832 0.893832 0.893832 0.893832 0.893832 0.893832 0.893832 0.893832 0.893832 0.893832 0.893832 0.893832 0.893832 0.893832 0.893832 0.893832 0.893832 0.893832 0.893832 0.893832 0.893832 0.893775 0.893832 0.886483 0.893832 0.886132 0.89379 0.886717 0.892029 0.887513 0.876737 0.885739 0.891228 0.891633 0.886578 0.890758 0.888309 0.888641 0.890312 0.887543 0.891055 0.890885 0.885711 0.879146 0.887248 0.892592 0.886353 0.893764 0.886477 0.893832 0.888078 0.893832 0.893814 0.893832 0.893832 0.893832 0.893832 0.893832 0.893832 0.893832 0.893832 0.893832 0.893832 0.893832 0.893832 0.893832 0.893832 0.893832 0.893832 0.893832 0.893832 0.893832 0.893832 0.893832 0.893832 0.893832 0.893832 0.893832 0.893832 0.893832 0.893832 0.893832 0.893832 0.893832 0.893832 0.893832 0.893832 0.893832 0.893832 0.893832 0.893832 0.893832 0.893832 0.893832 0.893832 0.893832 0.893814 0.893832 0.888078 0.893832 0.886477 0.893764 0.886353 0.892592 0.887248 0.879146 0.885711 0.890885 0.891055 0.887543 0.890312 0.888641 0.888876 0.889957 0.888208 0.890596 0.890649 0.885644 0.88133 0.887165 0.892985 0.886201 0.893743 0.886962 0.893832 0.889398 0.893832 0.893827 0.893832 0.893832 0.893832 0.893832 0.893832 0.893832 0.893832 0.893832 0.893832 0.893832 0.893832 0.893832 0.893832 0.893832 0.893832 0.893832 0.893832 0.893832 0.893832 0.893832 0.893832 0.893832 0.893832 0.893832 0.893832 0.893832 0.893832 0.893832 0.893832 0.893832 0.893832 0.893832 0.893832 0.893832 0.893832 0.893832 0.893832 0.893832 0.893832 0.893832 0.893832 0.893832 0.893832 0.893827 0.893832 0.889398 0.893832 0.886962 0.893743 0.886201 0.892985 0.887165 0.88133 0.885644 0.890649 0.890596 0.888208 0.889957 0.888876 0.889056 0.889689 0.888645 0.890257 0.890511 0.885589 0.883277 0.887215 0.893245 0.886225 0.893727 0.887544 0.893832 0.89046 0.893832 0.893831 0.893832 0.893832 0.893832 0.893832 0.893832 0.893832 0.893832 0.893832 0.893832 0.893832 0.893832 0.893832 0.893832 0.893832 0.893832 0.893832 0.893832 0.893832 0.893832 0.893832 0.893832 0.893832 0.893832 0.893832 0.893832 0.893832 0.893832 0.893832 0.893832 0.893832 0.893832 0.893832 0.893832 0.893832 0.893832 0.893832 0.893832 0.893832 0.893832 0.893832 0.893832 0.893832 0.893832 0.893831 0.893832 0.89046 0.893832 0.887544 0.893727 0.886225 0.893245 0.887215 0.883277 0.885589 0.890511 0.890257 0.888645 0.889689 0.889056 0.889205 0.889503 0.888925 0.890029 0.890467 0.885587 0.884985 0.887362 0.893405 0.886396 0.893717 0.888182 0.893832 0.891297 0.893832 0.893832 0.893832 0.893832 0.893832 0.893832 0.893832 0.893832 0.893832 0.893832 0.893832 0.893832 0.893832 0.893832 0.893832 0.893832 0.893832 0.893832 0.893832 0.893832 0.893832 0.893832 0.893832 0.893832 0.893832 0.893832 0.893832 0.893832 0.893832 0.893832 0.893832 0.893832 0.893832 0.893832 0.893832 0.893832 0.893832 0.893832 0.893832 0.893832 0.893832 0.893832 0.893832 0.893832 0.893832 0.893832 0.893832 0.891297 0.893832 0.888182 0.893717 0.886396 0.893405 0.887362 0.884985 0.885587 0.890467 0.890029 0.888925 0.889503 0.889205 0.886461 0.893496 0.886682 0.893711 0.888842 0.893832 0.891947 0.893832 0.893832 0.893832 0.893832 0.893832 0.893832 0.893832 0.893832 0.893832 0.893832 0.893832 0.893832 0.893832 0.893832 0.893832 0.893832 0.893832 0.893832 0.893832 0.893832 0.893832 0.893832 0.893832 0.893832 0.893832 0.893832 0.893832 0.893832 0.893832 0.893832 0.893832 0.893832 0.893832 0.893832 0.893832 0.893832 0.893832 0.893832 0.893832 0.893832 0.893832 0.893832 0.893832 0.893832 0.893832 0.893832 0.893832 0.891947 0.893832 0.888842 0.893711 0.886682 0.893496 0.886461 0.88934 0.889395 0.889108 0.889901 0.890501 0.88566 0.887575 0.887575 0.88566 0.890501 0.889901 0.889108 0.889395 0.88934 0.889469 0.889358 0.88924 0.88986 0.890594 0.88582 0.88772 0.887836 0.893544 0.887058 0.893709 0.889493 0.893832 0.892446 0.893832 0.893832 0.893832 0.893832 0.893832 0.893832 0.893832 0.893832 0.893832 0.893832 0.893832 0.893832 0.893832 0.893832 0.893832 0.893832 0.893832 0.893832 0.893832 0.893832 0.893832 0.893832 0.893832 0.893832 0.893832 0.893832 0.893832 0.893832 0.893832 0.893832 0.893832 0.893832 0.893832 0.893832 0.893832 0.893832 0.893832 0.893832 0.893832 0.893832 0.893832 0.893832 0.893832 0.893832 0.893832 0.893832 0.893832 0.892446 0.893832 0.889493 0.893709 0.887058 0.893544 0.887836 0.88772 0.88582 0.890594 0.88986 0.88924 0.889358 0.889469 0.889598 0.889387 0.889357 0.889891 0.890728 0.886068 0.888785 0.888128 0.893567 0.8875 0.893711 0.890113 0.893832 0.892825 0.893832 0.893832 0.893832 0.893832 0.893832 0.893832 0.893832 0.893832 0.893832 0.893832 0.893832 0.893832 0.893832 0.893832 0.893832 0.893832 0.893832 0.893832 0.893832 0.893832 0.893832 0.893832 0.893832 0.893832 0.893832 0.893832 0.893832 0.893832 0.893832 0.893832 0.893832 0.893832 0.893832 0.893832 0.893832 0.893832 0.893832 0.893832 0.893832 0.893832 0.893832 0.893832 0.893832 0.893832 0.893832 0.893832 0.893832 0.892825 0.893832 0.890113 0.893711 0.8875 0.893567 0.888128 0.888785 0.886068 0.890728 0.889891 0.889357 0.889387 0.889598 0.88973 0.88947 0.88948 0.88998 0.890887 0.886392 0.88968 0.888443 0.893579 0.887988 0.893715 0.890689 0.893832 0.893109 0.893832 0.893832 0.893832 0.893832 0.893832 0.893832 0.893832 0.893832 0.893832 0.893832 0.893832 0.893832 0.893832 0.893832 0.893832 0.893832 0.893832 0.893832 0.893832 0.893832 0.893832 0.893832 0.893832 0.893832 0.893832 0.893832 0.893832 0.893832 0.893832 0.893832 0.893832 0.893832 0.893832 0.893832 0.893832 0.893832 0.893832 0.893832 0.893832 0.893832 0.893832 0.893832 0.893832 0.893832 0.893832 0.893832 0.893832 0.893109 0.893832 0.890689 0.893715 0.887988 0.893579 0.888443 0.88968 0.886392 0.890887 0.88998 0.88948 0.88947 0.88973 0.889866 0.889598 0.889622 0.890115 0.891061 0.88678 0.890429 0.888773 0.893589 0.888502 0.893723 0.891209 0.893832 0.893319 0.893832 0.893832 0.893832 0.893832 0.893832 0.893832 0.893832 0.893832 0.893832 0.893832 0.893832 0.893832 0.893832 0.893832 0.893832 0.893832 0.893832 0.893832 0.893832 0.893832 0.893832 0.893832 0.893832 0.893832 0.893832 0.893832 0.893832 0.893832 0.893832 0.893832 0.893832 0.893832 0.893832 0.893832 0.893832 0.893832 0.893832 0.893832 0.893832 0.893832 0.893832 0.893832 0.893832 0.893832 0.893832 0.893832 0.893832 0.893319 0.893832 0.891209 0.893723 0.888502 0.893589 0.888773 0.890429 0.88678 0.891061 0.890115 0.889622 0.889598 0.889866 0.890007 0.889759 0.889786 0.890284 0.891241 0.887213 0.891054 0.889112 0.8936 0.889026 0.893732 0.89167 0.893832 0.893473 0.893832 0.893832 0.893832 0.893832 0.893832 0.893832 0.893832 0.893832 0.893832 0.893832 0.893832 0.893832 0.893832 0.893832 0.893832 0.893832 0.893832 0.893832 0.893832 0.893832 0.893832 0.893832 0.893832 0.893832 0.893832 0.893832 0.893832 0.893832 0.893832 0.893832 0.893832 0.893832 0.893832 0.893832 0.893832 0.893832 0.893832 0.893832 0.893832 0.893832 0.893832 0.893832 0.893832 0.893832 0.893832 0.893832 0.893832 0.893473 0.893832 0.89167 0.893732 0.889026 0.8936 0.889112 0.891054 0.887213 0.891241 0.890284 0.889786 0.889759 0.890007 0.890151 0.889944 0.889972 0.890474 0.891422 0.887677 0.891574 0.889456 0.893614 0.889546 0.893742 0.892072 0.893832 0.893584 0.893832 0.893832 0.893832 0.893832 0.893832 0.893832 0.893832 0.893832 0.893832 0.893832 0.893832 0.893832 0.893832 0.893832 0.893832 0.893832 0.893832 0.893832 0.893832 0.893832 0.893832 0.893832 0.893832 0.893832 0.893832 0.893832 0.893832 0.893832 0.893832 0.893832 0.893832 0.893832 0.893832 0.893832 0.893832 0.893832 0.893832 0.893832 0.893832 0.893832 0.893832 0.893832 0.893832 0.893832 0.893832 0.893832 0.893832 0.893584 0.893832 0.892072 0.893742 0.889546 0.893614 0.889456 0.891574 0.887677 0.891422 0.890474 0.889972 0.889944 0.890151 0.890298 0.890143 0.890176 0.890678 0.8916 0.888157 0.892004 0.8898 0.89363 0.890049 0.893752 0.892415 0.893832 0.893664 0.893832 0.893832 0.893832 0.893832 0.893832 0.893832 0.893832 0.893832 0.893832 0.893832 0.893832 0.893832 0.893832 0.893832 0.893832 0.893832 0.893832 0.893832 0.893832 0.893832 0.893832 0.893832 0.893832 0.893832 0.893832 0.893832 0.893832 0.893832 0.893832 0.893832 0.893832 0.893832 0.893832 0.893832 0.893832 0.893832 0.893832 0.893832 0.893832 0.893832 0.893832 0.893832 0.893832 0.893832 0.893832 0.893832 0.893832 0.893664 0.893832 0.892415 0.893752 0.890049 0.89363 0.8898 0.892004 0.888157 0.8916 0.890678 0.890176 0.890143 0.890298 0.890447 0.890349 0.890393 0.890887 0.891775 0.888642 0.892359 0.890142 0.893648 0.890527 0.893763 0.892704 0.893832 0.89372 0.893832 0.893832 0.893832 0.893832 0.893832 0.893832 0.893832 0.893832 0.893832 0.893832 0.893832 0.893832 0.893832 0.893832 0.893832 0.893832 0.893832 0.893832 0.893832 0.893832 0.893832 0.893832 0.893832 0.893832 0.893832 0.893832 0.893832 0.893832 0.893832 0.893832 0.893832 0.893832 0.893832 0.893832 0.893832 0.893832 0.893832 0.893832 0.893832 0.893832 0.893832 0.893832 0.893832 0.893832 0.893832 0.893832 0.893832 0.89372 0.893832 0.892704 0.893763 0.890527 0.893648 0.890142 0.892359 0.888642 0.891775 0.890887 0.890393 0.890349 0.890447 0.890596 0.890554 0.890617 0.891095 0.891943 0.88912 0.89265 0.890477 0.893666 0.890972 0.893773 0.892944 0.893832 0.893758 0.893832 0.893832 0.893832 0.893832 0.893832 0.893832 0.893832 0.893832 0.893832 0.893832 0.893832 0.893832 0.893832 0.893832 0.893832 0.893832 0.893832 0.893832 0.893832 0.893832 0.893832 0.893832 0.893832 0.893832 0.893832 0.893832 0.893832 0.893832 0.893832 0.893832 0.893832 0.893832 0.893832 0.893832 0.893832 0.893832 0.893832 0.893832 0.893832 0.893832 0.893832 0.893832 0.893832 0.893832 0.893832 0.893832 0.893832 0.893758 0.893832 0.892944 0.893773 0.890972 0.893666 0.890477 0.89265 0.88912 0.891943 0.891095 0.890617 0.890554 0.890596 0.890745 0.890755 0.890844 0.891298 0.892106 0.889585 0.892888 0.890802 0.893685 0.891382 0.893783 0.893141 0.893832 0.893784 0.893832 0.893832 0.893832 0.893832 0.893832 0.893832 0.893832 0.893832 0.893832 0.893832 0.893832 0.893832 0.893832 0.893832 0.893832 0.893832 0.893832 0.893832 0.893832 0.893832 0.893832 0.893832 0.893832 0.893832 0.893832 0.893832 0.893832 0.893832 0.893832 0.893832 0.893832 0.893832 0.893832 0.893832 0.893832 0.893832 0.893832 0.893832 0.893832 0.893832 0.893832 0.893832 0.893832 0.893832 0.893832 0.893832 0.893832 0.893784 0.893832 0.893141 0.893783 0.891382 0.893685 0.890802 0.892888 0.889585 0.892106 0.891298 0.890844 0.890755 0.890745 0.890893 0.890949 0.891068 0.891493 0.892261 0.890029 0.89308 0.891115 0.893704 0.891752 0.893791 0.8933 0.893832 0.893802 0.893832 0.893832 0.893832 0.893832 0.893832 0.893832 0.893832 0.893832 0.893832 0.893832 0.893832 0.893832 0.893832 0.893832 0.893832 0.893832 0.893832 0.893832 0.893832 0.893832 0.893832 0.893832 0.893832 0.893832 0.893832 0.893832 0.893832 0.893832 0.893832 0.893832 0.893832 0.893832 0.893832 0.893832 0.893832 0.893832 0.893832 0.893832 0.893832 0.893832 0.893832 0.893832 0.893832 0.893832 0.893832 0.893832 0.893832 0.893802 0.893832 0.8933 0.893791 0.891752 0.893704 0.891115 0.89308 0.890029 0.892261 0.891493 0.891068 0.890949 0.890893 0.89104 0.891133 0.891286 0.891678 0.892409 0.890449 0.893235 0.891413 0.893721 0.892083 0.893799 0.893427 0.893832 0.893813 0.893832 0.893832 0.893832 0.893832 0.893832 0.893832 0.893832 0.893832 0.893832 0.893832 0.893832 0.893832 0.893832 0.893832 0.893832 0.893832 0.893832 0.893832 0.893832 0.893832 0.893832 0.893832 0.893832 0.893832 0.893832 0.893832 0.893832 0.893832 0.893832 0.893832 0.893832 0.893832 0.893832 0.893832 0.893832 0.893832 0.893832 0.893832 0.893832 0.893832 0.893832 0.893832 0.893832 0.893832 0.893832 0.893832 0.893832 0.893813 0.893832 0.893427 0.893799 0.892083 0.893721 0.891413 0.893235 0.890449 0.892409 0.891678 0.891286 0.891133 0.89104 0.891183 0.891306 0.891496 0.891852 0.89255 0.890841 0.89336 0.891693 0.893738 0.892374 0.893806 0.893526 0.893832 0.893821 0.893832 0.893832 0.893832 0.893832 0.893832 0.893832 0.893832 0.893832 0.893832 0.893832 0.893832 0.893832 0.893832 0.893832 0.893832 0.893832 0.893832 0.893832 0.893832 0.893832 0.893832 0.893832 0.893832 0.893832 0.893832 0.893832 0.893832 0.893832 0.893832 0.893832 0.893832 0.893832 0.893832 0.893832 0.893832 0.893832 0.893832 0.893832 0.893832 0.893832 0.893832 0.893832 0.893832 0.893832 0.893832 0.893832 0.893832 0.893821 0.893832 0.893526 0.893806 0.892374 0.893738 0.891693 0.89336 0.890841 0.89255 0.891852 0.891496 0.891306 0.891183 0.891324 0.891469 0.891696 0.892014 0.892682 0.891203 0.89346 0.891955 0.893753 0.892627 0.893811 0.893604 0.893832 0.893825 0.893832 0.893832 0.893832 0.893832 0.893832 0.893832 0.893832 0.893832 0.893832 0.893832 0.893832 0.893832 0.893832 0.893832 0.893832 0.893832 0.893832 0.893832 0.893832 0.893832 0.893832 0.893832 0.893832 0.893832 0.893832 0.893832 0.893832 0.893832 0.893832 0.893832 0.893832 0.893832 0.893832 0.893832 0.893832 0.893832 0.893832 0.893832 0.893832 0.893832 0.893832 0.893832 0.893832 0.893832 0.893832 0.893832 0.893832 0.893825 0.893832 0.893604 0.893811 0.892627 0.893753 0.891955 0.89346 0.891203 0.892682 0.892014 0.891696 0.891469 0.891324 0.891461 0.89162 0.891883 0.892166 0.892806 0.891534 0.893539 0.892195 0.893766 0.892845 0.893816 0.893664 0.893832 0.893828 0.893832 0.893832 0.893832 0.893832 0.893832 0.893832 0.893832 0.893832 0.893832 0.893832 0.893832 0.893832 0.893832 0.893832 0.893832 0.893832 0.893832 0.893832 0.893832 0.893832 0.893832 0.893832 0.893832 0.893832 0.893832 0.893832 0.893832 0.893832 0.893832 0.893832 0.893832 0.893832 0.893832 0.893832 0.893832 0.893832 0.893832 0.893832 0.893832 0.893832 0.893832 0.893832 0.893832 0.893832 0.893832 0.893832 0.893832 0.893828 0.893832 0.893664 0.893816 0.892845 0.893766 0.892195 0.893539 0.891534 0.892806 0.892166 0.891883 0.89162 0.891461 0.891593 0.891761 0.892057 0.892306 0.892921 0.891834 0.893602 0.892416 0.893778 0.893031 0.89382 0.893709 0.893832 0.89383 0.893832 0.893832 0.893832 0.893832 0.893832 0.893832 0.893832 0.893832 0.893832 0.893832 0.893832 0.893832 0.893832 0.893832 0.893832 0.893832 0.893832 0.893832 0.893832 0.893832 0.893832 0.893832 0.893832 0.893832 0.893832 0.893832 0.893832 0.893832 0.893832 0.893832 0.893832 0.893832 0.893832 0.893832 0.893832 0.893832 0.893832 0.893832 0.893832 0.893832 0.893832 0.893832 0.893832 0.893832 0.893832 0.893832 0.893832 0.89383 0.893832 0.893709 0.89382 0.893031 0.893778 0.892416 0.893602 0.891834 0.892921 0.892306 0.892057 0.891761 0.891593 0.89172 0.891892 0.892217 0.892435 0.893027 0.892104 0.893652 0.892614 0.893788 0.893187 0.893823 0.893743 0.893832 0.893831 0.893832 0.893832 0.893832 0.893832 0.893832 0.893832 0.893832 0.893832 0.893832 0.893832 0.893832 0.893832 0.893832 0.893832 0.893832 0.893832 0.893832 0.893832 0.893832 0.893832 0.893832 0.893832 0.893832 0.893832 0.893832 0.893832 0.893832 0.893832 0.893832 0.893832 0.893832 0.893832 0.893832 0.893832 0.893832 0.893832 0.893832 0.893832 0.893832 0.893832 0.893832 0.893832 0.893832 0.893832 0.893832 0.893832 0.893832 0.893831 0.893832 0.893743 0.893823 0.893187 0.893788 0.892614 0.893652 0.892104 0.893027 0.892435 0.892217 0.891892 0.89172 0.891841 0.892012 0.892364 0.892555 0.893124 0.892344 0.893691 0.892792 0.893797 0.893317 0.893825 0.893769 0.893832 0.893831 0.893832 0.893832 0.893832 0.893832 0.893832 0.893832 0.893832 0.893832 0.893832 0.893832 0.893832 0.893832 0.893832 0.893832 0.893832 0.893832 0.893832 0.893832 0.893832 0.893832 0.893832 0.893832 0.893832 0.893832 0.893832 0.893832 0.893832 0.893832 0.893832 0.893832 0.893832 0.893832 0.893832 0.893832 0.893832 0.893832 0.893832 0.893832 0.893832 0.893832 0.893832 0.893832 0.893832 0.893832 0.893832 0.893832 0.893832 0.893831 0.893832 0.893769 0.893825 0.893317 0.893797 0.892792 0.893691 0.892344 0.893124 0.892555 0.892364 0.892012 0.891841 0.891956 0.892124 0.892497 0.892664 0.893212 0.892557 0.893722 0.89295 0.893804 0.893424 0.893827 0.893787 0.893832 0.893832 0.893832 0.893832 0.893832 0.893832 0.893832 0.893832 0.893832 0.893832 0.893832 0.893832 0.893832 0.893832 0.893832 0.893832 0.893832 0.893832 0.893832 0.893832 0.893832 0.893832 0.893832 0.893832 0.893832 0.893832 0.893832 0.893832 0.893832 0.893832 0.893832 0.893832 0.893832 0.893832 0.893832 0.893832 0.893832 0.893832 0.893832 0.893832 0.893832 0.893832 0.893832 0.893832 0.893832 0.893832 0.893832 0.893832 0.893832 0.893832 0.893832 0.893787 0.893827 0.893424 0.893804 0.89295 0.893722 0.892557 0.893212 0.892664 0.892497 0.892124 0.891956 0.892063 0.892226 0.892617 0.892764 0.893291 0.892743 0.893746 0.893088 0.89381 0.893512 0.893828 0.893801 0.893832 0.893832 0.893832 0.893832 0.893832 0.893832 0.893832 0.893832 0.893832 0.893832 0.893832 0.893832 0.893832 0.893832 0.893832 0.893832 0.893832 0.893832 0.893832 0.893832 0.893832 0.893832 0.893832 0.893832 0.893832 0.893832 0.893832 0.893832 0.893832 0.893832 0.893832 0.893832 0.893832 0.893832 0.893832 0.893832 0.893832 0.893832 0.893832 0.893832 0.893832 0.893832 0.893832 0.893832 0.893832 0.893832 0.893832 0.893832 0.893832 0.893832 0.893832 0.893801 0.893828 0.893512 0.89381 0.893088 0.893746 0.892743 0.893291 0.892764 0.892617 0.892226 0.892063 0.892162 0.892319 0.892725 0.892854 0.893361 0.892905 0.893765 0.893208 0.893815 0.893582 0.893829 0.89381 0.893832 0.893832 0.893832 0.893832 0.893832 0.893832 0.893832 0.893832 0.893832 0.893832 0.893832 0.893832 0.893832 0.893832 0.893832 0.893832 0.893832 0.893832 0.893832 0.893832 0.893832 0.893832 0.893832 0.893832 0.893832 0.893832 0.893832 0.893832 0.893832 0.893832 0.893832 0.893832 0.893832 0.893832 0.893832 0.893832 0.893832 0.893832 0.893832 0.893832 0.893832 0.893832 0.893832 0.893832 0.893832 0.893832 0.893832 0.893832 0.893832 0.893832 0.893832 0.89381 0.893829 0.893582 0.893815 0.893208 0.893765 0.892905 0.893361 0.892854 0.892725 0.892319 0.892162 0.892254 0.892404 0.892819 0.892936 0.893423 0.893045 0.89378 0.893311 0.893819 0.893639 0.89383 0.893817 0.893832 0.893832 0.893832 0.893832 0.893832 0.893832 0.893832 0.893832 0.893832 0.893832 0.893832 0.893832 0.893832 0.893832 0.893832 0.893832 0.893832 0.893832 0.893832 0.893832 0.893832 0.893832 0.893832 0.893832 0.893832 0.893832 0.893832 0.893832 0.893832 0.893832 0.893832 0.893832 0.893832 0.893832 0.893832 0.893832 0.893832 0.893832 0.893832 0.893832 0.893832 0.893832 0.893832 0.893832 0.893832 0.893832 0.893832 0.893832 0.893832 0.893832 0.893832 0.893817 0.89383 0.893639 0.893819 0.893311 0.89378 0.893045 0.893423 0.892936 0.892819 0.892404 0.892254 0.892336 0.892479 0.892902 0.893008 0.893476 0.893164 0.893792 0.893398 0.893822 0.893683 0.893831 0.893822 0.893832 0.893832 0.893832 0.893832 0.893832 0.893832 0.893832 0.893832 0.893832 0.893832 0.893832 0.893832 0.893832 0.893832 0.893832 0.893832 0.893832 0.893832 0.893832 0.893832 0.893832 0.893832 0.893832 0.893832 0.893832 0.893832 0.893832 0.893832 0.893832 0.893832 0.893832 0.893832 0.893832 0.893832 0.893832 0.893832 0.893832 0.893832 0.893832 0.893832 0.893832 0.893832 0.893832 0.893832 0.893832 0.893832 0.893832 0.893832 0.893832 0.893832 0.893832 0.893822 0.893831 0.893683 0.893822 0.893398 0.893792 0.893164 0.893476 0.893008 0.892902 0.892479 0.892336 0.892409 0.892545 0.892974 0.893072 0.893522 0.893263 0.893801 0.89347 0.893824 0.893718 0.893831 0.893825 0.893832 0.893832 0.893832 0.893832 0.893832 0.893832 0.893832 0.893832 0.893832 0.893832 0.893832 0.893832 0.893832 0.893832 0.893832 0.893832 0.893832 0.893832 0.893832 0.893832 0.893832 0.893832 0.893832 0.893832 0.893832 0.893832 0.893832 0.893832 0.893832 0.893832 0.893832 0.893832 0.893832 0.893832 0.893832 0.893832 0.893832 0.893832 0.893832 0.893832 0.893832 0.893832 0.893832 0.893832 0.893832 0.893832 0.893832 0.893832 0.893832 0.893832 0.893832 0.893825 0.893831 0.893718 0.893824 0.89347 0.893801 0.893263 0.893522 0.893072 0.892974 0.892545 0.892409 0.892472 0.892603 0.893034 0.893127 0.893561 0.893346 0.893808 0.89353 0.893826 0.893745 0.893831 0.893827 0.893832 0.893832 0.893832 0.893832 0.893832 0.893832 0.893832 0.893832 0.893832 0.893832 0.893832 0.893832 0.893832 0.893832 0.893832 0.893832 0.893832 0.893832 0.893832 0.893832 0.893832 0.893832 0.893832 0.893832 0.893832 0.893832 0.893832 0.893832 0.893832 0.893832 0.893832 0.893832 0.893832 0.893832 0.893832 0.893832 0.893832 0.893832 0.893832 0.893832 0.893832 0.893832 0.893832 0.893832 0.893832 0.893832 0.893832 0.893832 0.893832 0.893832 0.893832 0.893827 0.893831 0.893745 0.893826 0.89353 0.893808 0.893346 0.893561 0.893127 0.893034 0.892603 0.892472 0.892525 0.892651 0.893084 0.893172 0.893592 0.893412 0.893813 0.893578 0.893827 0.893765 0.893831 0.893829 0.893832 0.893832 0.893832 0.893832 0.893832 0.893832 0.893832 0.893832 0.893832 0.893832 0.893832 0.893832 0.893832 0.893832 0.893832 0.893832 0.893832 0.893832 0.893832 0.893832 0.893832 0.893832 0.893832 0.893832 0.893832 0.893832 0.893832 0.893832 0.893832 0.893832 0.893832 0.893832 0.893832 0.893832 0.893832 0.893832 0.893832 0.893832 0.893832 0.893832 0.893832 0.893832 0.893832 0.893832 0.893832 0.893832 0.893832 0.893832 0.893832 0.893832 0.893832 0.893829 0.893831 0.893765 0.893827 0.893578 0.893813 0.893412 0.893592 0.893172 0.893084 0.892651 0.892525 0.892568 0.892689 0.893124 0.893209 0.893617 0.893464 0.893817 0.893615 0.893828 0.89378 0.893832 0.89383 0.893832 0.893832 0.893832 0.893832 0.893832 0.893832 0.893832 0.893832 0.893832 0.893832 0.893832 0.893832 0.893832 0.893832 0.893832 0.893832 0.893832 0.893832 0.893832 0.893832 0.893832 0.893832 0.893832 0.893832 0.893832 0.893832 0.893832 0.893832 0.893832 0.893832 0.893832 0.893832 0.893832 0.893832 0.893832 0.893832 0.893832 0.893832 0.893832 0.893832 0.893832 0.893832 0.893832 0.893832 0.893832 0.893832 0.893832 0.893832 0.893832 0.893832 0.893832 0.89383 0.893832 0.89378 0.893828 0.893615 0.893817 0.893464 0.893617 0.893209 0.893124 0.892689 0.892568 0.8926 0.892718 0.893153 0.893237 0.893635 0.893502 0.893819 0.893641 0.893829 0.89379 0.893832 0.893831 0.893832 0.893832 0.893832 0.893832 0.893832 0.893832 0.893832 0.893832 0.893832 0.893832 0.893832 0.893832 0.893832 0.893832 0.893832 0.893832 0.893832 0.893832 0.893832 0.893832 0.893832 0.893832 0.893832 0.893832 0.893832 0.893832 0.893832 0.893832 0.893832 0.893832 0.893832 0.893832 0.893832 0.893832 0.893832 0.893832 0.893832 0.893832 0.893832 0.893832 0.893832 0.893832 0.893832 0.893832 0.893832 0.893832 0.893832 0.893832 0.893832 0.893832 0.893832 0.893831 0.893832 0.89379 0.893829 0.893641 0.893819 0.893502 0.893635 0.893237 0.893153 0.892718 0.8926 0.892622 0.892738 0.893172 0.893255 0.893648 0.893527 0.893821 0.893659 0.89383 0.893797 0.893832 0.893831 0.893832 0.893832 0.893832 0.893832 0.893832 0.893832 0.893832 0.893832 0.893832 0.893832 0.893832 0.893832 0.893832 0.893832 0.893832 0.893832 0.893832 0.893832 0.893832 0.893832 0.893832 0.893832 0.893832 0.893832 0.893832 0.893832 0.893832 0.893832 0.893832 0.893832 0.893832 0.893832 0.893832 0.893832 0.893832 0.893832 0.893832 0.893832 0.893832 0.893832 0.893832 0.893832 0.893832 0.893832 0.893832 0.893832 0.893832 0.893832 0.893832 0.893832 0.893832 0.893831 0.893832 0.893797 0.89383 0.893659 0.893821 0.893527 0.893648 0.893255 0.893172 0.892738 0.892622 0.892633 0.892748 0.893182 0.893264 0.893654 0.893539 0.893822 0.893668 0.89383 0.8938 0.893832 0.893831 0.893832 0.893832 0.893832 0.893832 0.893832 0.893832 0.893832 0.893832 0.893832 0.893832 0.893832 0.893832 0.893832 0.893832 0.893832 0.893832 0.893832 0.893832 0.893832 0.893832 0.893832 0.893832 0.893832 0.893832 0.893832 0.893832 0.893832 0.893832 0.893832 0.893832 0.893832 0.893832 0.893832 0.893832 0.893832 0.893832 0.893832 0.893832 0.893832 0.893832 0.893832 0.893832 0.893832 0.893832 0.893832 0.893832 0.893832 0.893832 0.893832 0.893832 0.893832 0.893831 0.893832 0.8938 0.89383 0.893668 0.893822 0.893539 0.893654 0.893264 0.893182 0.892748 0.892633 
SCALARS Axial_Stress float 1
LOOKUP_TABLE default
-824783000000.0 -655222000000.0 -655222000000.0 -824783000000.0 -1.26449e+12 -851152000000.0 -945798000000.0 -84086500000.0 -273254000000.0 -212562000000.0 -152344000000.0 -169149000000.0 -135873000000.0 -134193000000.0 -135743000000.0 -140127000000.0 -145133000000.0 -149575000000.0 -153235000000.0 -156157000000.0 -158419000000.0 -160149000000.0 -161491000000.0 -162507000000.0 -163231000000.0 -163740000000.0 -164093000000.0 -164312000000.0 -164424000000.0 -164466000000.0 -164462000000.0 -164439000000.0 -164426000000.0 -164439000000.0 -164462000000.0 -164466000000.0 -164424000000.0 -164312000000.0 -164093000000.0 -163740000000.0 -163231000000.0 -162507000000.0 -161491000000.0 -160149000000.0 -158419000000.0 -156157000000.0 -153235000000.0 -149575000000.0 -145133000000.0 -140127000000.0 -135743000000.0 -134193000000.0 -135873000000.0 -169149000000.0 -152344000000.0 -212562000000.0 -273254000000.0 -84086500000.0 -945798000000.0 -851152000000.0 -1.26449e+12 -1.21302e+12 -2.26081e+12 -972674000000.0 -739717000000.0 -381267000000.0 -272184000000.0 -132841000000.0 -186475000000.0 -98177700000.0 -109262000000.0 -122103000000.0 -133439000000.0 -142923000000.0 -150719000000.0 -157016000000.0 -162101000000.0 -166194000000.0 -169481000000.0 -172136000000.0 -174288000000.0 -176044000000.0 -177464000000.0 -178576000000.0 -179432000000.0 -180087000000.0 -180565000000.0 -180871000000.0 -181028000000.0 -181075000000.0 -181028000000.0 -180871000000.0 -180565000000.0 -180087000000.0 -179432000000.0 -178576000000.0 -177464000000.0 -176044000000.0 -174288000000.0 -172136000000.0 -169481000000.0 -166194000000.0 -162101000000.0 -157016000000.0 -150719000000.0 -142923000000.0 -133439000000.0 -122103000000.0 -109262000000.0 -98177700000.0 -186475000000.0 -132841000000.0 -272184000000.0 -381267000000.0 -739717000000.0 -972674000000.0 -2.26081e+12 -1.21302e+12 -1.11245e+12 -1.16623e+12 -2.16026e+12 -2.2817e+12 -1.289e+12 -839743000000.0 -839743000000.0 -1.289e+12 -2.2817e+12 -2.16026e+12 -1.16623e+12 -1.11245e+12 -1.05782e+12 -2.01865e+12 -2.04429e+12 -2.12481e+12 -1.16094e+12 -799803000000.0 -838731000000.0 -242803000000.0 -138723000000.0 -284107000000.0 -162115000000.0 -180532000000.0 -190898000000.0 -199740000000.0 -205919000000.0 -209996000000.0 -212507000000.0 -213725000000.0 -213982000000.0 -213672000000.0 -212968000000.0 -211978000000.0 -210910000000.0 -209955000000.0 -209174000000.0 -208544000000.0 -208037000000.0 -207651000000.0 -207383000000.0 -207228000000.0 -207178000000.0 -207228000000.0 -207383000000.0 -207651000000.0 -208037000000.0 -208544000000.0 -209174000000.0 -209955000000.0 -210910000000.0 -211978000000.0 -212968000000.0 -213672000000.0 -213982000000.0 -213725000000.0 -212507000000.0 -209996000000.0 -205919000000.0 -199740000000.0 -190898000000.0 -180532000000.0 -162115000000.0 -284107000000.0 -138723000000.0 -242803000000.0 -838731000000.0 -799803000000.0 -1.16094e+12 -2.12481e+12 -2.04429e+12 -2.01865e+12 -1.05782e+12 -994964000000.0 -1.87999e+12 -1.91421e+12 -1.97047e+12 -1.18464e+12 -1.2508e+12 -1.06262e+12 -1.05652e+12 -570820000000.0 -533058000000.0 -391314000000.0 -377303000000.0 -358004000000.0 -340009000000.0 -322550000000.0 -306375000000.0 -291591000000.0 -278265000000.0 -266616000000.0 -256581000000.0 -248138000000.0 -241342000000.0 -235908000000.0 -231482000000.0 -228021000000.0 -225582000000.0 -224036000000.0 -223112000000.0 -222567000000.0 -222270000000.0 -222175000000.0 -222270000000.0 -222567000000.0 -223112000000.0 -224036000000.0 -225582000000.0 -228021000000.0 -231482000000.0 -235908000000.0 -241342000000.0 -248138000000.0 -256581000000.0 -266616000000.0 -278265000000.0 -291591000000.0 -306375000000.0 -322550000000.0 -340009000000.0 -358004000000.0 -377303000000.0 -391314000000.0 -533058000000.0 -570820000000.0 -1.05652e+12 -1.06262e+12 -1.2508e+12 -1.18464e+12 -1.97047e+12 -1.91421e+12 -1.87999e+12 -994964000000.0 -906546000000.0 -1.75889e+12 -1.60206e+12 -1.76739e+12 -1.75892e+12 -1.17437e+12 -1.23907e+12 -634557000000.0 -472279000000.0 -472279000000.0 -634557000000.0 -1.23907e+12 -1.17437e+12 -1.75892e+12 -1.76739e+12 -1.60206e+12 -1.75889e+12 -906546000000.0 -745713000000.0 -844059000000.0 -1.65794e+12 -1.50439e+12 -1.46839e+12 -1.69645e+12 -1.49547e+12 -1.61693e+12 -1.56772e+12 -768705000000.0 -706556000000.0 -573955000000.0 -509639000000.0 -441198000000.0 -353386000000.0 -338980000000.0 -328541000000.0 -317120000000.0 -304773000000.0 -292236000000.0 -279965000000.0 -268488000000.0 -257917000000.0 -248419000000.0 -240223000000.0 -233127000000.0 -226981000000.0 -221920000000.0 -217920000000.0 -214743000000.0 -212243000000.0 -210408000000.0 -209212000000.0 -208563000000.0 -208361000000.0 -208563000000.0 -209212000000.0 -210408000000.0 -212243000000.0 -214743000000.0 -217920000000.0 -221920000000.0 -226981000000.0 -233127000000.0 -240223000000.0 -248419000000.0 -257917000000.0 -268488000000.0 -279965000000.0 -292236000000.0 -304773000000.0 -317120000000.0 -328541000000.0 -338980000000.0 -353386000000.0 -441198000000.0 -509639000000.0 -573955000000.0 -706556000000.0 -768705000000.0 -1.56772e+12 -1.61693e+12 -1.49547e+12 -1.69645e+12 -1.46839e+12 -1.50439e+12 -1.65794e+12 -844059000000.0 -745713000000.0 -696489000000.0 -1.44235e+12 -1.48598e+12 -1.444e+12 -1.3037e+12 -1.39974e+12 -1.82899e+12 -1.21303e+12 -869267000000.0 -997507000000.0 -804169000000.0 -804169000000.0 -997507000000.0 -869267000000.0 -1.21303e+12 -1.82899e+12 -1.39974e+12 -1.3037e+12 -1.444e+12 -1.48598e+12 -1.44235e+12 -696489000000.0 -737958000000.0 -1.28991e+12 -1.11522e+12 -1.22653e+12 -1.22798e+12 -648136000000.0 -1.47363e+12 -920335000000.0 -802127000000.0 -565247000000.0 -571715000000.0 -415737000000.0 -359457000000.0 -339371000000.0 -327436000000.0 -314141000000.0 -299737000000.0 -285147000000.0 -270939000000.0 -257512000000.0 -245004000000.0 -233677000000.0 -223656000000.0 -214868000000.0 -207331000000.0 -200997000000.0 -195675000000.0 -191247000000.0 -187772000000.0 -185293000000.0 -183713000000.0 -182859000000.0 -182592000000.0 -182859000000.0 -183713000000.0 -185293000000.0 -187772000000.0 -191247000000.0 -195675000000.0 -200997000000.0 -207331000000.0 -214868000000.0 -223656000000.0 -233677000000.0 -245004000000.0 -257512000000.0 -270939000000.0 -285147000000.0 -299737000000.0 -314141000000.0 -327436000000.0 -339371000000.0 -359457000000.0 -415737000000.0 -571715000000.0 -565247000000.0 -802127000000.0 -920335000000.0 -1.47363e+12 -648136000000.0 -1.22798e+12 -1.22653e+12 -1.11522e+12 -1.28991e+12 -737958000000.0 -953718000000.0 -1.60771e+12 -1.33682e+12 -1.2415e+12 -1.38444e+12 -1.44815e+12 -765636000000.0 -1.6551e+12 -102920000000.0 -550630000000.0 -814411000000.0 -973259000000.0 -527568000000.0 -635334000000.0 -402325000000.0 -363741000000.0 -333852000000.0 -318876000000.0 -302601000000.0 -285724000000.0 -269423000000.0 -254320000000.0 -240453000000.0 -227844000000.0 -216669000000.0 -206941000000.0 -198637000000.0 -191661000000.0 -185817000000.0 -181013000000.0 -177252000000.0 -174490000000.0 -172575000000.0 -171327000000.0 -170618000000.0 -170388000000.0 -170618000000.0 -171327000000.0 -172575000000.0 -174490000000.0 -177252000000.0 -181013000000.0 -185817000000.0 -191661000000.0 -198637000000.0 -206941000000.0 -216669000000.0 -227844000000.0 -240453000000.0 -254320000000.0 -269423000000.0 -285724000000.0 -302601000000.0 -318876000000.0 -333852000000.0 -363741000000.0 -402325000000.0 -635334000000.0 -527568000000.0 -973259000000.0 -814411000000.0 -550630000000.0 -102920000000.0 -1.6551e+12 -765636000000.0 -1.44815e+12 -1.38444e+12 -1.2415e+12 -1.33682e+12 -1.60771e+12 -953718000000.0 -365499000000.0 -1.49034e+12 -1.48906e+12 -788568000000.0 -1.72234e+12 -947099000000.0 -694493000000.0 -1.49234e+12 -755142000000.0 -710374000000.0 -710374000000.0 -755142000000.0 -1.49234e+12 -694493000000.0 -947099000000.0 -1.72234e+12 -788568000000.0 -1.48906e+12 -1.49034e+12 -365499000000.0 -163875000000.0 -1.32675e+12 -1.19083e+12 -1.55124e+12 -450875000000.0 -530636000000.0 -227053000000.0 -867643000000.0 -1.239e+12 -940900000000.0 -429042000000.0 -537437000000.0 -506710000000.0 -792306000000.0 -543293000000.0 -774443000000.0 -449632000000.0 -427863000000.0 -375237000000.0 -350898000000.0 -325118000000.0 -298587000000.0 -272026000000.0 -246439000000.0 -222118000000.0 -199423000000.0 -178984000000.0 -160866000000.0 -144796000000.0 -130713000000.0 -118587000000.0 -108281000000.0 -99711600000.0 -92901400000.0 -87834100000.0 -84387100000.0 -82398400000.0 -81749200000.0 -82398400000.0 -84387100000.0 -87834100000.0 -92901400000.0 -99711600000.0 -108281000000.0 -118587000000.0 -130713000000.0 -144796000000.0 -160866000000.0 -178984000000.0 -199423000000.0 -222118000000.0 -246439000000.0 -272026000000.0 -298587000000.0 -325118000000.0 -350898000000.0 -375237000000.0 -427863000000.0 -449632000000.0 -774443000000.0 -543293000000.0 -792306000000.0 -506710000000.0 -537437000000.0 -429042000000.0 -940900000000.0 -1.239e+12 -867643000000.0 -227053000000.0 -530636000000.0 -450875000000.0 -1.55124e+12 -1.19083e+12 -1.32675e+12 -163875000000.0 -571226000000.0 -971345000000.0 -1.65091e+12 -1.82198e+12 -512550000000.0 -303244000000.0 -129428000000.0 -343573000000.0 -357716000000.0 -585892000000.0 -252212000000.0 -264516000000.0 -217536000000.0 -199299000000.0 -180235000000.0 -162609000000.0 -147045000000.0 -133524000000.0 -121746000000.0 -112072000000.0 -104565000000.0 -98631700000.0 -93998200000.0 -90895600000.0 -89387000000.0 -89084900000.0 -89421900000.0 -89953000000.0 -90441900000.0 -90803300000.0 -91020000000.0 -91091900000.0 -91020000000.0 -90803300000.0 -90441900000.0 -89953000000.0 -89421900000.0 -89084900000.0 -89387000000.0 -90895600000.0 -93998200000.0 -98631700000.0 -104565000000.0 -112072000000.0 -121746000000.0 -133524000000.0 -147045000000.0 -162609000000.0 -180235000000.0 -199299000000.0 -217536000000.0 -264516000000.0 -252212000000.0 -585892000000.0 -357716000000.0 -343573000000.0 -129428000000.0 -303244000000.0 -512550000000.0 -1.82198e+12 -1.65091e+12 -971345000000.0 -571226000000.0 -100152000000.0 -376191000000.0 -652510000000.0 -1.63844e+12 -1.66219e+12 -819703000000.0 -39114500000.0 -653690000000.0 -545615000000.0 -254980000000.0 -254980000000.0 -545615000000.0 -653690000000.0 -39114500000.0 -819703000000.0 -1.66219e+12 -1.63844e+12 -652510000000.0 -376191000000.0 -100152000000.0 -404078000000.0 -208670000000.0 -363328000000.0 -683391000000.0 -992659000000.0 -1.1977e+12 -1.14258e+12 -898156000000.0 -572718000000.0 -272123000000.0 -321095000000.0 -20944200000.0 -133050000000.0 -168701000000.0 -231751000000.0 -276749000000.0 -9870490000.0 -21105900000.0 -9035750000.0 -9035750000.0 -9035750000.0 -9035750000.0 -9035750000.0 -9035750000.0 -9035750000.0 -9035750000.0 -9035750000.0 -9035750000.0 -9035750000.0 -9035750000.0 -9035750000.0 -9035750000.0 -9035750000.0 -9035750000.0 -9035750000.0 -9035750000.0 -9035750000.0 -9035920000.0 -9035750000.0 -9035750000.0 -9035750000.0 -9035750000.0 -9035750000.0 -9035750000.0 -9035750000.0 -9035750000.0 -9035750000.0 -9035750000.0 -9035750000.0 -9035750000.0 -9035750000.0 -9035750000.0 -9035750000.0 -9035750000.0 -9035750000.0 -9035750000.0 -9035750000.0 -21105900000.0 -9870490000.0 -276749000000.0 -231751000000.0 -168701000000.0 -133050000000.0 -20944200000.0 -321095000000.0 -272123000000.0 -572718000000.0 -898156000000.0 -1.14258e+12 -1.1977e+12 -992659000000.0 -683391000000.0 -363328000000.0 -208670000000.0 -404078000000.0 -483590000000.0 -360401000000.0 -470669000000.0 -401727000000.0 -367616000000.0 -300644000000.0 -319927000000.0 -436741000000.0 -287892000000.0 -256927000000.0 -233203000000.0 -213752000000.0 -197809000000.0 -184032000000.0 -171889000000.0 -161211000000.0 -151585000000.0 -142856000000.0 -135042000000.0 -127949000000.0 -121310000000.0 -115044000000.0 -109247000000.0 -104056000000.0 -99578100000.0 -95885200000.0 -93010600000.0 -90960700000.0 -89732200000.0 -89322800000.0 -89732200000.0 -90960700000.0 -93010600000.0 -95885200000.0 -99578100000.0 -104056000000.0 -109247000000.0 -115044000000.0 -121310000000.0 -127949000000.0 -135042000000.0 -142856000000.0 -151585000000.0 -161211000000.0 -171889000000.0 -184032000000.0 -197809000000.0 -213752000000.0 -233203000000.0 -256927000000.0 -287892000000.0 -436741000000.0 -319927000000.0 -300644000000.0 -367616000000.0 -401727000000.0 -470669000000.0 -360401000000.0 -483590000000.0 -317254000000.0 -381997000000.0 -177294000000.0 -752621000000.0 -710394000000.0 -723692000000.0 -461450000000.0 -392853000000.0 -392853000000.0 -461450000000.0 -723692000000.0 -710394000000.0 -752621000000.0 -177294000000.0 -381997000000.0 -317254000000.0 -203813000000.0 -106706000000.0 -231075000000.0 -510352000000.0 -148138000000.0 -423962000000.0 -459538000000.0 -374800000000.0 -382633000000.0 -96299900000.0 -217085000000.0 -36737100000.0 -93490100000.0 -72063500000.0 -21374500000.0 -136815000000.0 -9035750000.0 -9035750000.0 -9035750000.0 -9035750000.0 -9035750000.0 -9035750000.0 -9035750000.0 -9035750000.0 -9035750000.0 -9035750000.0 -9035750000.0 -9035750000.0 -9035750000.0 -9035750000.0 -9035750000.0 -9035750000.0 -9035750000.0 -9035750000.0 -9035750000.0 -9035750000.0 -9035750000.0 -9035760000.0 -9035750000.0 -9035750000.0 -9035750000.0 -9035750000.0 -9035750000.0 -9035750000.0 -9035750000.0 -9035750000.0 -9035750000.0 -9035750000.0 -9035750000.0 -9035750000.0 -9035750000.0 -9035750000.0 -9035750000.0 -9035750000.0 -9035750000.0 -9035750000.0 -9035750000.0 -9035750000.0 -9035750000.0 -136815000000.0 -21374500000.0 -72063500000.0 -93490100000.0 -36737100000.0 -217085000000.0 -96299900000.0 -382633000000.0 -374800000000.0 -459538000000.0 -423962000000.0 -148138000000.0 -510352000000.0 -231075000000.0 -106706000000.0 -203813000000.0 -252829000000.0 -212161000000.0 -346151000000.0 -38571700000.0 -45327100000.0 -509143000000.0 -443653000000.0 -497159000000.0 -360489000000.0 -367558000000.0 -308454000000.0 -269739000000.0 -282067000000.0 -206216000000.0 -269074000000.0 -170698000000.0 -150580000000.0 -133538000000.0 -118660000000.0 -105516000000.0 -93860300000.0 -83536900000.0 -74456100000.0 -66531700000.0 -59632300000.0 -53610200000.0 -48343100000.0 -43745800000.0 -39758900000.0 -36338200000.0 -33447000000.0 -31052700000.0 -29127600000.0 -27650600000.0 -26606700000.0 -25984900000.0 -25778400000.0 -25984900000.0 -26606700000.0 -27650600000.0 -29127600000.0 -31052700000.0 -33447000000.0 -36338200000.0 -39758900000.0 -43745800000.0 -48343100000.0 -53610200000.0 -59632300000.0 -66531700000.0 -74456100000.0 -83536900000.0 -93860300000.0 -105516000000.0 -118660000000.0 -133538000000.0 -150580000000.0 -170698000000.0 -269074000000.0 -206216000000.0 -282067000000.0 -269739000000.0 -308454000000.0 -367558000000.0 -360489000000.0 -497159000000.0 -443653000000.0 -509143000000.0 -45327100000.0 -38571700000.0 -346151000000.0 -212161000000.0 -252829000000.0 -411311000000.0 -411311000000.0 -124231000000.0 -65926300000.0 -241123000000.0 -59397000000.0 -129948000000.0 -273098000000.0 -354330000000.0 -47177200000.0 -88005000000.0 -30343500000.0 -12287000000.0 -50708600000.0 -12866500000.0 -88446200000.0 -11130900000.0 -74794400000.0 -9035750000.0 -9035750000.0 -9035750000.0 -9035750000.0 -9035750000.0 -9035750000.0 -9035750000.0 -9035750000.0 -9035750000.0 -9035750000.0 -9035750000.0 -9035750000.0 -9035750000.0 -9035750000.0 -9035750000.0 -9035750000.0 -9035750000.0 -9035750000.0 -9035750000.0 -9035750000.0 -9035750000.0 -9035750000.0 -9035750000.0 -9035750000.0 -9035750000.0 -9035750000.0 -9035750000.0 -9035750000.0 -9035750000.0 -9035750000.0 -9035750000.0 -9035750000.0 -9035750000.0 -9035750000.0 -9035750000.0 -9035750000.0 -9035750000.0 -9035750000.0 -9035750000.0 -9035750000.0 -9035750000.0 -9035750000.0 -9035750000.0 -74794400000.0 -11130900000.0 -88446200000.0 -12866500000.0 -50708600000.0 -12287000000.0 -30343500000.0 -88005000000.0 -47177200000.0 -354330000000.0 -273098000000.0 -129948000000.0 -59397000000.0 -241123000000.0 -65926300000.0 -124231000000.0 -187554000000.0 -36764400000.0 -19230800000.0 -249288000000.0 -104449000000.0 -139195000000.0 -103231000000.0 -66431100000.0 -101241000000.0 -51703300000.0 -125088000000.0 -42191500000.0 -83948400000.0 -33077800000.0 -29196100000.0 -25885400000.0 -23064900000.0 -20674300000.0 -18656600000.0 -16960300000.0 -15542600000.0 -14363400000.0 -13383600000.0 -12570700000.0 -11900300000.0 -11351900000.0 -10906500000.0 -10547100000.0 -10259000000.0 -10031100000.0 -9854770000.0 -9723700000.0 -9633230000.0 -9580190000.0 -9562710000.0 -9580190000.0 -9633230000.0 -9723700000.0 -9854770000.0 -10031100000.0 -10259000000.0 -10547100000.0 -10906500000.0 -11351900000.0 -11900300000.0 -12570700000.0 -13383600000.0 -14363400000.0 -15542600000.0 -16960300000.0 -18656600000.0 -20674300000.0 -23064900000.0 -25885400000.0 -29196100000.0 -33077800000.0 -83948400000.0 -42191500000.0 -125088000000.0 -51703300000.0 -101241000000.0 -66431100000.0 -103231000000.0 -139195000000.0 -104449000000.0 -249288000000.0 -19230800000.0 -36764400000.0 -187554000000.0 -110527000000.0 -36049600000.0 -147803000000.0 -147803000000.0 -36049600000.0 -110527000000.0 -100001000000.0 -37162800000.0 -150443000000.0 -20028000000.0 -24565700000.0 -137330000000.0 -183345000000.0 -32971300000.0 -58843900000.0 -47107100000.0 -9436350000.0 -56999900000.0 -9380480000.0 -88291500000.0 -9120750000.0 -42953700000.0 -9035810000.0 -9035790000.0 -9035780000.0 -9035780000.0 -9035770000.0 -9035770000.0 -9035770000.0 -9035760000.0 -9035760000.0 -9035760000.0 -9035760000.0 -9035760000.0 -9035760000.0 -9035760000.0 -9035760000.0 -9035750000.0 -9035750000.0 -9035750000.0 -9035750000.0 -9035750000.0 -9035750000.0 -9035750000.0 -9035750000.0 -9035750000.0 -9035750000.0 -9035750000.0 -9035750000.0 -9035750000.0 -9035760000.0 -9035760000.0 -9035760000.0 -9035760000.0 -9035760000.0 -9035760000.0 -9035760000.0 -9035760000.0 -9035770000.0 -9035770000.0 -9035770000.0 -9035780000.0 -9035780000.0 -9035790000.0 -9035810000.0 -42953700000.0 -9120750000.0 -88291500000.0 -9380480000.0 -56999900000.0 -9436350000.0 -47107100000.0 -58843900000.0 -32971300000.0 -183345000000.0 -137330000000.0 -24565700000.0 -20028000000.0 -150443000000.0 -37162800000.0 -100001000000.0 -172509000000.0 -56292300000.0 -12179200000.0 -60076400000.0 -10349500000.0 -83797300000.0 -9035860000.0 -32656900000.0 -9035900000.0 -9035870000.0 -9035840000.0 -9035820000.0 -9035810000.0 -9035800000.0 -9035790000.0 -9035780000.0 -9035780000.0 -9035770000.0 -9035770000.0 -9035770000.0 -9035760000.0 -9035760000.0 -9035760000.0 -9035760000.0 -9035760000.0 -9035760000.0 -9035750000.0 -9035750000.0 -9035750000.0 -9035750000.0 -9035750000.0 -9035750000.0 -9035750000.0 -9035760000.0 -9035760000.0 -9035760000.0 -9035760000.0 -9035760000.0 -9035760000.0 -9035770000.0 -9035770000.0 -9035770000.0 -9035780000.0 -9035780000.0 -9035790000.0 -9035800000.0 -9035810000.0 -9035820000.0 -9035840000.0 -9035870000.0 -9035900000.0 -32656900000.0 -9035860000.0 -83797300000.0 -10349500000.0 -60076400000.0 -12179200000.0 -56292300000.0 -172509000000.0 -97438800000.0 -40253400000.0 -131375000000.0 -24344500000.0 -19409200000.0 -120969000000.0 -47303400000.0 -56776500000.0 -56776500000.0 -47303400000.0 -120969000000.0 -19409200000.0 -24344500000.0 -131375000000.0 -40253400000.0 -97438800000.0 -92790000000.0 -44037400000.0 -116214000000.0 -29569300000.0 -24852500000.0 -114513000000.0 -156562000000.0 -48841900000.0 -42916800000.0 -55943200000.0 -9177460000.0 -57722500000.0 -9036040000.0 -77738700000.0 -9036050000.0 -24992300000.0 -9036000000.0 -9035940000.0 -9035900000.0 -9035870000.0 -9035840000.0 -9035820000.0 -9035810000.0 -9035800000.0 -9035790000.0 -9035780000.0 -9035780000.0 -9035770000.0 -9035770000.0 -9035770000.0 -9035760000.0 -9035760000.0 -9035760000.0 -9035760000.0 -9035760000.0 -9035750000.0 -9035750000.0 -9035750000.0 -9035750000.0 -9035750000.0 -9035760000.0 -9035760000.0 -9035760000.0 -9035760000.0 -9035760000.0 -9035770000.0 -9035770000.0 -9035770000.0 -9035780000.0 -9035780000.0 -9035790000.0 -9035800000.0 -9035810000.0 -9035820000.0 -9035840000.0 -9035870000.0 -9035900000.0 -9035940000.0 -9036000000.0 -24992300000.0 -9036050000.0 -77738700000.0 -9036040000.0 -57722500000.0 -9177460000.0 -55943200000.0 -42916800000.0 -48841900000.0 -156562000000.0 -114513000000.0 -24852500000.0 -29569300000.0 -116214000000.0 -44037400000.0 -92790000000.0 -87147200000.0 -47220100000.0 -104007000000.0 -33882300000.0 -27231100000.0 -106409000000.0 -142756000000.0 -54629200000.0 -36465400000.0 -58636900000.0 -9327080000.0 -56796600000.0 -9036490000.0 -70502100000.0 -9036240000.0 -19420600000.0 -9036090000.0 -9036010000.0 -9035950000.0 -9035910000.0 -9035880000.0 -9035850000.0 -9035830000.0 -9035820000.0 -9035810000.0 -9035800000.0 -9035790000.0 -9035780000.0 -9035780000.0 -9035770000.0 -9035770000.0 -9035760000.0 -9035760000.0 -9035760000.0 -9035760000.0 -9035750000.0 -9035750000.0 -9035750000.0 -9035750000.0 -9035750000.0 -9035760000.0 -9035760000.0 -9035760000.0 -9035760000.0 -9035770000.0 -9035770000.0 -9035780000.0 -9035780000.0 -9035790000.0 -9035800000.0 -9035810000.0 -9035820000.0 -9035830000.0 -9035850000.0 -9035880000.0 -9035910000.0 -9035950000.0 -9036010000.0 -9036090000.0 -19420600000.0 -9036240000.0 -70502100000.0 -9036490000.0 -56796600000.0 -9327080000.0 -58636900000.0 -36465400000.0 -54629200000.0 -142756000000.0 -106409000000.0 -27231100000.0 -33882300000.0 -104007000000.0 -47220100000.0 -87147200000.0 -81059000000.0 -49806700000.0 -93672600000.0 -37535000000.0 -30230500000.0 -99665000000.0 -128708000000.0 -58168400000.0 -30950900000.0 -60369300000.0 -9456550000.0 -55197400000.0 -9036820000.0 -62752700000.0 -9036410000.0 -15519500000.0 -9036180000.0 -9036080000.0 -9036000000.0 -9035950000.0 -9035910000.0 -9035880000.0 -9035850000.0 -9035830000.0 -9035820000.0 -9035810000.0 -9035800000.0 -9035790000.0 -9035780000.0 -9035780000.0 -9035770000.0 -9035770000.0 -9035760000.0 -9035760000.0 -9035760000.0 -9035750000.0 -9035750000.0 -9035750000.0 -9035750000.0 -9035750000.0 -9035760000.0 -9035760000.0 -9035760000.0 -9035770000.0 -9035770000.0 -9035780000.0 -9035780000.0 -9035790000.0 -9035800000.0 -9035810000.0 -9035820000.0 -9035830000.0 -9035850000.0 -9035880000.0 -9035910000.0 -9035950000.0 -9036000000.0 -9036080000.0 -9036180000.0 -15519500000.0 -9036410000.0 -62752700000.0 -9036820000.0 -55197400000.0 -9456550000.0 -60369300000.0 -30950900000.0 -58168400000.0 -128708000000.0 -99665000000.0 -30230500000.0 -37535000000.0 -93672600000.0 -49806700000.0 -81059000000.0 -75244200000.0 -51645000000.0 -84693900000.0 -40076100000.0 -32446200000.0 -93498300000.0 -114970000000.0 -60085700000.0 -26303800000.0 -61174900000.0 -9556530000.0 -53069500000.0 -9037100000.0 -54993100000.0 -9036570000.0 -12899500000.0 -9036260000.0 -9036140000.0 -9036050000.0 -9035980000.0 -9035930000.0 -9035900000.0 -9035870000.0 -9035850000.0 -9035830000.0 -9035820000.0 -9035800000.0 -9035790000.0 -9035790000.0 -9035780000.0 -9035770000.0 -9035770000.0 -9035760000.0 -9035760000.0 -9035760000.0 -9035750000.0 -9035750000.0 -9035750000.0 -9035750000.0 -9035750000.0 -9035760000.0 -9035760000.0 -9035760000.0 -9035770000.0 -9035770000.0 -9035780000.0 -9035790000.0 -9035790000.0 -9035800000.0 -9035820000.0 -9035830000.0 -9035850000.0 -9035870000.0 -9035900000.0 -9035930000.0 -9035980000.0 -9036050000.0 -9036140000.0 -9036260000.0 -12899500000.0 -9036570000.0 -54993100000.0 -9037100000.0 -53069500000.0 -9556530000.0 -61174900000.0 -26303800000.0 -60085700000.0 -114970000000.0 -93498300000.0 -32446200000.0 -40076100000.0 -84693900000.0 -51645000000.0 -75244200000.0 -70056100000.0 -52698000000.0 -76827900000.0 -41718000000.0 -33916600000.0 -88032200000.0 -101797000000.0 -60664400000.0 -22448500000.0 -61108300000.0 -9630670000.0 -50521100000.0 -9037360000.0 -47563800000.0 -9036710000.0 -11220600000.0 -9036330000.0 -9036190000.0 -9036090000.0 -9036020000.0 -9035960000.0 -9035920000.0 -9035890000.0 -9035860000.0 -9035840000.0 -9035820000.0 -9035810000.0 -9035800000.0 -9035790000.0 -9035780000.0 -9035780000.0 -9035770000.0 -9035770000.0 -9035760000.0 -9035760000.0 -9035750000.0 -9035750000.0 -9035750000.0 -9035750000.0 -9035750000.0 -9035760000.0 -9035760000.0 -9035770000.0 -9035770000.0 -9035780000.0 -9035780000.0 -9035790000.0 -9035800000.0 -9035810000.0 -9035820000.0 -9035840000.0 -9035860000.0 -9035890000.0 -9035920000.0 -9035960000.0 -9036020000.0 -9036090000.0 -9036190000.0 -9036330000.0 -11220600000.0 -9036710000.0 -47563800000.0 -9037360000.0 -50521100000.0 -9630670000.0 -61108300000.0 -22448500000.0 -60664400000.0 -101797000000.0 -88032200000.0 -33916600000.0 -41718000000.0 -76827900000.0 -52698000000.0 -70056100000.0 -65588400000.0 -53065000000.0 -69978400000.0 -42659500000.0 -34711100000.0 -83230600000.0 -89492600000.0 -60234000000.0 -19306900000.0 -60256500000.0 -9685270000.0 -47645100000.0 -9037600000.0 -40699600000.0 -9036830000.0 -10200800000.0 -9036400000.0 -9036240000.0 -9036130000.0 -9036050000.0 -9035980000.0 -9035940000.0 -9035900000.0 -9035870000.0 -9035850000.0 -9035830000.0 -9035820000.0 -9035800000.0 -9035790000.0 -9035790000.0 -9035780000.0 -9035770000.0 -9035770000.0 -9035760000.0 -9035760000.0 -9035760000.0 -9035750000.0 -9035750000.0 -9035750000.0 -9035760000.0 -9035760000.0 -9035760000.0 -9035770000.0 -9035770000.0 -9035780000.0 -9035790000.0 -9035790000.0 -9035800000.0 -9035820000.0 -9035830000.0 -9035850000.0 -9035870000.0 -9035900000.0 -9035940000.0 -9035980000.0 -9036050000.0 -9036130000.0 -9036240000.0 -9036400000.0 -10200800000.0 -9036830000.0 -40699600000.0 -9037600000.0 -47645100000.0 -9685270000.0 -60256500000.0 -19306900000.0 -60234000000.0 -89492600000.0 -83230600000.0 -34711100000.0 -42659500000.0 -69978400000.0 -53065000000.0 -65588400000.0 -61787400000.0 -52890000000.0 -64091800000.0 -43042900000.0 -34911100000.0 -78952900000.0 -78217800000.0 -59031200000.0 -16811900000.0 -58727500000.0 -9722350000.0 -44533600000.0 -9037820000.0 -34561100000.0 -9036930000.0 -9616170000.0 -9036460000.0 -9036290000.0 -9036160000.0 -9036070000.0 -9036000000.0 -9035950000.0 -9035910000.0 -9035880000.0 -9035860000.0 -9035840000.0 -9035820000.0 -9035810000.0 -9035800000.0 -9035790000.0 -9035780000.0 -9035770000.0 -9035770000.0 -9035760000.0 -9035760000.0 -9035760000.0 -9035750000.0 -9035750000.0 -9035750000.0 -9035760000.0 -9035760000.0 -9035760000.0 -9035770000.0 -9035770000.0 -9035780000.0 -9035790000.0 -9035800000.0 -9035810000.0 -9035820000.0 -9035840000.0 -9035860000.0 -9035880000.0 -9035910000.0 -9035950000.0 -9036000000.0 -9036070000.0 -9036160000.0 -9036290000.0 -9036460000.0 -9616170000.0 -9036930000.0 -34561100000.0 -9037820000.0 -44533600000.0 -9722350000.0 -58727500000.0 -16811900000.0 -59031200000.0 -78217800000.0 -78952900000.0 -34911100000.0 -43042900000.0 -64091800000.0 -52890000000.0 -61787400000.0 -58530800000.0 -52296100000.0 -59095300000.0 -42971100000.0 -34607300000.0 -75043100000.0 -68045200000.0 -57236800000.0 -14893000000.0 -56638000000.0 -9742090000.0 -41276800000.0 -9038020000.0 -29239200000.0 -9037030000.0 -9301620000.0 -9036510000.0 -9036330000.0 -9036190000.0 -9036090000.0 -9036020000.0 -9035970000.0 -9035920000.0 -9035890000.0 -9035860000.0 -9035840000.0 -9035830000.0 -9035810000.0 -9035800000.0 -9035790000.0 -9035780000.0 -9035770000.0 -9035770000.0 -9035760000.0 -9035760000.0 -9035760000.0 -9035750000.0 -9035750000.0 -9035750000.0 -9035760000.0 -9035760000.0 -9035760000.0 -9035770000.0 -9035770000.0 -9035780000.0 -9035790000.0 -9035800000.0 -9035810000.0 -9035830000.0 -9035840000.0 -9035860000.0 -9035890000.0 -9035920000.0 -9035970000.0 -9036020000.0 -9036090000.0 -9036190000.0 -9036330000.0 -9036510000.0 -9301620000.0 -9037030000.0 -29239200000.0 -9038020000.0 -41276800000.0 -9742090000.0 -56638000000.0 -14893000000.0 -57236800000.0 -68045200000.0 -75043100000.0 -34607300000.0 -42971100000.0 -59095300000.0 -52296100000.0 -58530800000.0 -55682300000.0 -51373300000.0 -54881800000.0 -42519900000.0 -33909300000.0 -71359700000.0 -58995800000.0 -55004800000.0 -13465000000.0 -54106100000.0 -9745690000.0 -37960500000.0 -9038190000.0 -24758700000.0 -9037110000.0 -9145700000.0 -9036550000.0 -9036360000.0 -9036220000.0 -9036110000.0 -9036030000.0 -9035980000.0 -9035930000.0 -9035900000.0 -9035870000.0 -9035850000.0 -9035830000.0 -9035810000.0 -9035800000.0 -9035790000.0 -9035780000.0 -9035770000.0 -9035770000.0 -9035760000.0 -9035760000.0 -9035760000.0 -9035750000.0 -9035750000.0 -9035750000.0 -9035760000.0 -9035760000.0 -9035760000.0 -9035770000.0 -9035770000.0 -9035780000.0 -9035790000.0 -9035800000.0 -9035810000.0 -9035830000.0 -9035850000.0 -9035870000.0 -9035900000.0 -9035930000.0 -9035980000.0 -9036030000.0 -9036110000.0 -9036220000.0 -9036360000.0 -9036550000.0 -9145700000.0 -9037110000.0 -24758700000.0 -9038190000.0 -37960500000.0 -9745690000.0 -54106100000.0 -13465000000.0 -55004800000.0 -58995800000.0 -71359700000.0 -33909300000.0 -42519900000.0 -54881800000.0 -51373300000.0 -55682300000.0 -53123100000.0 -50185600000.0 -51319300000.0 -41747400000.0 -32930900000.0 -67790400000.0 -51048500000.0 -52470400000.0 -12432400000.0 -51247300000.0 -9735150000.0 -34666200000.0 -9038330000.0 -21086900000.0 -9037180000.0 -9076410000.0 -9036580000.0 -9036380000.0 -9036230000.0 -9036130000.0 -9036050000.0 -9035980000.0 -9035940000.0 -9035900000.0 -9035870000.0 -9035850000.0 -9035830000.0 -9035820000.0 -9035800000.0 -9035790000.0 -9035780000.0 -9035780000.0 -9035770000.0 -9035760000.0 -9035760000.0 -9035760000.0 -9035750000.0 -9035750000.0 -9035750000.0 -9035760000.0 -9035760000.0 -9035760000.0 -9035770000.0 -9035780000.0 -9035780000.0 -9035790000.0 -9035800000.0 -9035820000.0 -9035830000.0 -9035850000.0 -9035870000.0 -9035900000.0 -9035940000.0 -9035980000.0 -9036050000.0 -9036130000.0 -9036230000.0 -9036380000.0 -9036580000.0 -9076410000.0 -9037180000.0 -21086900000.0 -9038330000.0 -34666200000.0 -9735150000.0 -51247300000.0 -12432400000.0 -52470400000.0 -51048500000.0 -67790400000.0 -32930900000.0 -41747400000.0 -51319300000.0 -50185600000.0 -53123100000.0 -50763100000.0 -48782100000.0 -48267000000.0 -40703700000.0 -31763500000.0 -64261600000.0 -44146900000.0 -49748800000.0 -11702400000.0 -48169300000.0 -9712540000.0 -31469400000.0 -9038450000.0 -18148300000.0 -9037240000.0 -9049450000.0 -9036610000.0 -9036400000.0 -9036250000.0 -9036140000.0 -9036050000.0 -9035990000.0 -9035940000.0 -9035910000.0 -9035880000.0 -9035850000.0 -9035830000.0 -9035820000.0 -9035800000.0 -9035790000.0 -9035780000.0 -9035780000.0 -9035770000.0 -9035760000.0 -9035760000.0 -9035760000.0 -9035750000.0 -9035750000.0 -9035750000.0 -9035760000.0 -9035760000.0 -9035760000.0 -9035770000.0 -9035780000.0 -9035780000.0 -9035790000.0 -9035800000.0 -9035820000.0 -9035830000.0 -9035850000.0 -9035880000.0 -9035910000.0 -9035940000.0 -9035990000.0 -9036050000.0 -9036140000.0 -9036250000.0 -9036400000.0 -9036610000.0 -9049450000.0 -9037240000.0 -18148300000.0 -9038450000.0 -31469400000.0 -9712540000.0 -48169300000.0 -11702400000.0 -49748800000.0 -44146900000.0 -64261600000.0 -31763500000.0 -40703700000.0 -48267000000.0 -48782100000.0 -50763100000.0 -48541100000.0 -47204700000.0 -45591800000.0 -39437400000.0 -30469200000.0 -60735100000.0 -38212200000.0 -46933200000.0 -11193900000.0 -44968700000.0 -9679940000.0 -28435500000.0 -9038550000.0 -15843100000.0 -9037280000.0 -9040390000.0 -9036630000.0 -9036420000.0 -9036260000.0 -9036150000.0 -9036060000.0 -9036000000.0 -9035950000.0 -9035910000.0 -9035880000.0 -9035850000.0 -9035830000.0 -9035820000.0 -9035800000.0 -9035790000.0 -9035780000.0 -9035780000.0 -9035770000.0 -9035760000.0 -9035760000.0 -9035760000.0 -9035750000.0 -9035750000.0 -9035750000.0 -9035760000.0 -9035760000.0 -9035760000.0 -9035770000.0 -9035780000.0 -9035780000.0 -9035790000.0 -9035800000.0 -9035820000.0 -9035830000.0 -9035850000.0 -9035880000.0 -9035910000.0 -9035950000.0 -9036000000.0 -9036060000.0 -9036150000.0 -9036260000.0 -9036420000.0 -9036630000.0 -9040390000.0 -9037280000.0 -15843100000.0 -9038550000.0 -28435500000.0 -9679940000.0 -44968700000.0 -11193900000.0 -46933200000.0 -38212200000.0 -60735100000.0 -30469200000.0 -39437400000.0 -45591800000.0 -47204700000.0 -48541100000.0 -46418500000.0 -45492600000.0 -43181100000.0 -37997500000.0 -29092200000.0 -57199700000.0 -33154800000.0 -44095400000.0 -10840500000.0 -41729400000.0 -9639430000.0 -25615300000.0 -9038620000.0 -14064300000.0 -9037310000.0 -9037770000.0 -9036640000.0 -9036430000.0 -9036270000.0 -9036150000.0 -9036060000.0 -9036000000.0 -9035950000.0 -9035910000.0 -9035880000.0 -9035850000.0 -9035830000.0 -9035820000.0 -9035810000.0 -9035790000.0 -9035780000.0 -9035780000.0 -9035770000.0 -9035760000.0 -9035760000.0 -9035760000.0 -9035750000.0 -9035750000.0 -9035750000.0 -9035760000.0 -9035760000.0 -9035760000.0 -9035770000.0 -9035780000.0 -9035780000.0 -9035790000.0 -9035810000.0 -9035820000.0 -9035830000.0 -9035850000.0 -9035880000.0 -9035910000.0 -9035950000.0 -9036000000.0 -9036060000.0 -9036150000.0 -9036270000.0 -9036430000.0 -9036640000.0 -9037770000.0 -9037310000.0 -14064300000.0 -9038620000.0 -25615300000.0 -9639430000.0 -41729400000.0 -10840500000.0 -44095400000.0 -33154800000.0 -57199700000.0 -29092200000.0 -37997500000.0 -43181100000.0 -45492600000.0 -46418500000.0 -44373000000.0 -43682000000.0 -40949100000.0 -36431800000.0 -27670700000.0 -53663700000.0 -28880400000.0 -41288400000.0 -10590600000.0 -38521400000.0 -9593100000.0 -23043700000.0 -9038660000.0 -12710400000.0 -9037330000.0 -9037120000.0 -9036650000.0 -9036430000.0 -9036270000.0 -9036150000.0 -9036060000.0 -9036000000.0 -9035950000.0 -9035910000.0 -9035880000.0 -9035850000.0 -9035830000.0 -9035820000.0 -9035810000.0 -9035790000.0 -9035780000.0 -9035780000.0 -9035770000.0 -9035760000.0 -9035760000.0 -9035760000.0 -9035750000.0 -9035750000.0 -9035750000.0 -9035760000.0 -9035760000.0 -9035760000.0 -9035770000.0 -9035780000.0 -9035780000.0 -9035790000.0 -9035810000.0 -9035820000.0 -9035830000.0 -9035850000.0 -9035880000.0 -9035910000.0 -9035950000.0 -9036000000.0 -9036060000.0 -9036150000.0 -9036270000.0 -9036430000.0 -9036650000.0 -9037120000.0 -9037330000.0 -12710400000.0 -9038660000.0 -23043700000.0 -9593100000.0 -38521400000.0 -10590600000.0 -41288400000.0 -28880400000.0 -53663700000.0 -27670700000.0 -36431800000.0 -40949100000.0 -43682000000.0 -44373000000.0 -25294000000.0 -10405900000.0 -35402200000.0 -9542990000.0 -20740100000.0 -9038690000.0 -11692200000.0 -9037340000.0 -9036980000.0 -9036650000.0 -9036430000.0 -9036270000.0 -9036150000.0 -9036060000.0 -9036000000.0 -9035950000.0 -9035910000.0 -9035880000.0 -9035850000.0 -9035830000.0 -9035820000.0 -9035800000.0 -9035790000.0 -9035780000.0 -9035780000.0 -9035770000.0 -9035760000.0 -9035760000.0 -9035760000.0 -9035750000.0 -9035750000.0 -9035750000.0 -9035760000.0 -9035760000.0 -9035760000.0 -9035770000.0 -9035780000.0 -9035780000.0 -9035790000.0 -9035800000.0 -9035820000.0 -9035830000.0 -9035850000.0 -9035880000.0 -9035910000.0 -9035950000.0 -9036000000.0 -9036060000.0 -9036150000.0 -9036270000.0 -9036430000.0 -9036650000.0 -9036980000.0 -9037340000.0 -11692200000.0 -9038690000.0 -20740100000.0 -9542990000.0 -35402200000.0 -10405900000.0 -25294000000.0 -42392500000.0 -41807000000.0 -38836600000.0 -34785100000.0 -26239700000.0 -50148600000.0 -38550800000.0 -38550800000.0 -50148600000.0 -26239700000.0 -34785100000.0 -38836600000.0 -41807000000.0 -42392500000.0 -40471100000.0 -39898900000.0 -36806600000.0 -33097300000.0 -24829000000.0 -46684400000.0 -22303400000.0 -35909400000.0 -10259500000.0 -32416800000.0 -9491010000.0 -18710200000.0 -9038690000.0 -10935100000.0 -9037330000.0 -9036950000.0 -9036640000.0 -9036430000.0 -9036260000.0 -9036150000.0 -9036060000.0 -9036000000.0 -9035950000.0 -9035910000.0 -9035880000.0 -9035850000.0 -9035830000.0 -9035820000.0 -9035800000.0 -9035790000.0 -9035780000.0 -9035780000.0 -9035770000.0 -9035760000.0 -9035760000.0 -9035760000.0 -9035750000.0 -9035750000.0 -9035750000.0 -9035760000.0 -9035760000.0 -9035760000.0 -9035770000.0 -9035780000.0 -9035780000.0 -9035790000.0 -9035800000.0 -9035820000.0 -9035830000.0 -9035850000.0 -9035880000.0 -9035910000.0 -9035950000.0 -9036000000.0 -9036060000.0 -9036150000.0 -9036260000.0 -9036430000.0 -9036640000.0 -9036950000.0 -9037330000.0 -10935100000.0 -9038690000.0 -18710200000.0 -9491010000.0 -32416800000.0 -10259500000.0 -35909400000.0 -22303400000.0 -46684400000.0 -24829000000.0 -33097300000.0 -36806600000.0 -39898900000.0 -40471100000.0 -38606700000.0 -37985900000.0 -34840200000.0 -31402500000.0 -23461400000.0 -43304500000.0 -19822600000.0 -33383200000.0 -10134200000.0 -29599800000.0 -9438840000.0 -16948700000.0 -9038670000.0 -10378200000.0 -9037320000.0 -9036930000.0 -9036630000.0 -9036420000.0 -9036260000.0 -9036140000.0 -9036060000.0 -9035990000.0 -9035940000.0 -9035910000.0 -9035880000.0 -9035850000.0 -9035830000.0 -9035820000.0 -9035800000.0 -9035790000.0 -9035780000.0 -9035780000.0 -9035770000.0 -9035760000.0 -9035760000.0 -9035760000.0 -9035750000.0 -9035750000.0 -9035750000.0 -9035760000.0 -9035760000.0 -9035760000.0 -9035770000.0 -9035780000.0 -9035780000.0 -9035790000.0 -9035800000.0 -9035820000.0 -9035830000.0 -9035850000.0 -9035880000.0 -9035910000.0 -9035940000.0 -9035990000.0 -9036060000.0 -9036140000.0 -9036260000.0 -9036420000.0 -9036630000.0 -9036930000.0 -9037320000.0 -10378200000.0 -9038670000.0 -16948700000.0 -9438840000.0 -29599800000.0 -10134200000.0 -33383200000.0 -19822600000.0 -43304500000.0 -23461400000.0 -31402500000.0 -34840200000.0 -37985900000.0 -38606700000.0 -36799200000.0 -36093300000.0 -32931200000.0 -29729100000.0 -22153000000.0 -40042200000.0 -17773600000.0 -30985100000.0 -10020100000.0 -26976000000.0 -9387940000.0 -15441600000.0 -9038640000.0 -9973330000.0 -9037300000.0 -9036910000.0 -9036620000.0 -9036410000.0 -9036250000.0 -9036140000.0 -9036050000.0 -9035990000.0 -9035940000.0 -9035900000.0 -9035870000.0 -9035850000.0 -9035830000.0 -9035810000.0 -9035800000.0 -9035790000.0 -9035780000.0 -9035770000.0 -9035770000.0 -9035760000.0 -9035760000.0 -9035760000.0 -9035750000.0 -9035750000.0 -9035750000.0 -9035760000.0 -9035760000.0 -9035760000.0 -9035770000.0 -9035770000.0 -9035780000.0 -9035790000.0 -9035800000.0 -9035810000.0 -9035830000.0 -9035850000.0 -9035870000.0 -9035900000.0 -9035940000.0 -9035990000.0 -9036050000.0 -9036140000.0 -9036250000.0 -9036410000.0 -9036620000.0 -9036910000.0 -9037300000.0 -9973330000.0 -9038640000.0 -15441600000.0 -9387940000.0 -26976000000.0 -10020100000.0 -30985100000.0 -17773600000.0 -40042200000.0 -22153000000.0 -29729100000.0 -32931200000.0 -36093300000.0 -36799200000.0 -35049600000.0 -34242100000.0 -31081600000.0 -28099700000.0 -20913500000.0 -36926600000.0 -16088100000.0 -28724100000.0 -9912510000.0 -24561800000.0 -9339470000.0 -14169600000.0 -9038590000.0 -9682380000.0 -9037270000.0 -9036880000.0 -9036600000.0 -9036390000.0 -9036240000.0 -9036130000.0 -9036040000.0 -9035980000.0 -9035940000.0 -9035900000.0 -9035870000.0 -9035850000.0 -9035830000.0 -9035810000.0 -9035800000.0 -9035790000.0 -9035780000.0 -9035770000.0 -9035770000.0 -9035760000.0 -9035760000.0 -9035760000.0 -9035750000.0 -9035750000.0 -9035750000.0 -9035760000.0 -9035760000.0 -9035760000.0 -9035770000.0 -9035770000.0 -9035780000.0 -9035790000.0 -9035800000.0 -9035810000.0 -9035830000.0 -9035850000.0 -9035870000.0 -9035900000.0 -9035940000.0 -9035980000.0 -9036040000.0 -9036130000.0 -9036240000.0 -9036390000.0 -9036600000.0 -9036880000.0 -9037270000.0 -9682380000.0 -9038590000.0 -14169600000.0 -9339470000.0 -24561800000.0 -9912510000.0 -28724100000.0 -16088100000.0 -36926600000.0 -20913500000.0 -28099700000.0 -31081600000.0 -34242100000.0 -35049600000.0 -33359500000.0 -32449500000.0 -29298300000.0 -26531800000.0 -19748500000.0 -33981500000.0 -14706900000.0 -26605800000.0 -9810100000.0 -22366200000.0 -9294320000.0 -13109400000.0 -9038520000.0 -9475910000.0 -9037230000.0 -9036850000.0 -9036570000.0 -9036370000.0 -9036220000.0 -9036120000.0 -9036040000.0 -9035980000.0 -9035930000.0 -9035890000.0 -9035870000.0 -9035840000.0 -9035830000.0 -9035810000.0 -9035800000.0 -9035790000.0 -9035780000.0 -9035770000.0 -9035770000.0 -9035760000.0 -9035760000.0 -9035760000.0 -9035750000.0 -9035750000.0 -9035750000.0 -9035760000.0 -9035760000.0 -9035760000.0 -9035770000.0 -9035770000.0 -9035780000.0 -9035790000.0 -9035800000.0 -9035810000.0 -9035830000.0 -9035840000.0 -9035870000.0 -9035890000.0 -9035930000.0 -9035980000.0 -9036040000.0 -9036120000.0 -9036220000.0 -9036370000.0 -9036570000.0 -9036850000.0 -9037230000.0 -9475910000.0 -9038520000.0 -13109400000.0 -9294320000.0 -22366200000.0 -9810100000.0 -26605800000.0 -14706900000.0 -33981500000.0 -19748500000.0 -26531800000.0 -29298300000.0 -32449500000.0 -33359500000.0 -31730500000.0 -30728100000.0 -27589600000.0 -25037900000.0 -18660600000.0 -31224000000.0 -13579800000.0 -24633700000.0 -9713120000.0 -20391100000.0 -9253100000.0 -12236600000.0 -9038440000.0 -9331330000.0 -9037190000.0 -9036820000.0 -9036550000.0 -9036350000.0 -9036210000.0 -9036100000.0 -9036030000.0 -9035970000.0 -9035920000.0 -9035890000.0 -9035860000.0 -9035840000.0 -9035820000.0 -9035810000.0 -9035800000.0 -9035790000.0 -9035780000.0 -9035770000.0 -9035770000.0 -9035760000.0 -9035760000.0 -9035760000.0 -9035750000.0 -9035750000.0 -9035750000.0 -9035760000.0 -9035760000.0 -9035760000.0 -9035770000.0 -9035770000.0 -9035780000.0 -9035790000.0 -9035800000.0 -9035810000.0 -9035820000.0 -9035840000.0 -9035860000.0 -9035890000.0 -9035920000.0 -9035970000.0 -9036030000.0 -9036100000.0 -9036210000.0 -9036350000.0 -9036550000.0 -9036820000.0 -9037190000.0 -9331330000.0 -9038440000.0 -12236600000.0 -9253100000.0 -20391100000.0 -9713120000.0 -24633700000.0 -13579800000.0 -31224000000.0 -18660600000.0 -25037900000.0 -27589600000.0 -30728100000.0 -31730500000.0 -30163900000.0 -29086500000.0 -25963500000.0 -23626300000.0 -17649900000.0 -28665300000.0 -12663700000.0 -22809100000.0 -9622390000.0 -18633400000.0 -9216190000.0 -11526400000.0 -9038350000.0 -9231470000.0 -9037140000.0 -9036780000.0 -9036520000.0 -9036330000.0 -9036190000.0 -9036090000.0 -9036020000.0 -9035960000.0 -9035920000.0 -9035880000.0 -9035860000.0 -9035840000.0 -9035820000.0 -9035810000.0 -9035800000.0 -9035790000.0 -9035780000.0 -9035770000.0 -9035770000.0 -9035760000.0 -9035760000.0 -9035760000.0 -9035750000.0 -9035750000.0 -9035750000.0 -9035760000.0 -9035760000.0 -9035760000.0 -9035770000.0 -9035770000.0 -9035780000.0 -9035790000.0 -9035800000.0 -9035810000.0 -9035820000.0 -9035840000.0 -9035860000.0 -9035880000.0 -9035920000.0 -9035960000.0 -9036020000.0 -9036090000.0 -9036190000.0 -9036330000.0 -9036520000.0 -9036780000.0 -9037140000.0 -9231470000.0 -9038350000.0 -11526400000.0 -9216190000.0 -18633400000.0 -9622390000.0 -22809100000.0 -12663700000.0 -28665300000.0 -17649900000.0 -23626300000.0 -25963500000.0 -29086500000.0 -30163900000.0 -28661000000.0 -27529800000.0 -24426500000.0 -22301500000.0 -16715400000.0 -26310600000.0 -11922400000.0 -21131700000.0 -9538730000.0 -17085100000.0 -9183710000.0 -10955100000.0 -9038260000.0 -9163510000.0 -9037080000.0 -9036740000.0 -9036490000.0 -9036310000.0 -9036170000.0 -9036080000.0 -9036000000.0 -9035950000.0 -9035910000.0 -9035880000.0 -9035850000.0 -9035830000.0 -9035820000.0 -9035800000.0 -9035790000.0 -9035780000.0 -9035780000.0 -9035770000.0 -9035770000.0 -9035760000.0 -9035760000.0 -9035750000.0 -9035750000.0 -9035750000.0 -9035750000.0 -9035750000.0 -9035760000.0 -9035760000.0 -9035770000.0 -9035770000.0 -9035780000.0 -9035780000.0 -9035790000.0 -9035800000.0 -9035820000.0 -9035830000.0 -9035850000.0 -9035880000.0 -9035910000.0 -9035950000.0 -9036000000.0 -9036080000.0 -9036170000.0 -9036310000.0 -9036490000.0 -9036740000.0 -9037080000.0 -9163510000.0 -9038260000.0 -10955100000.0 -9183710000.0 -17085100000.0 -9538730000.0 -21131700000.0 -11922400000.0 -26310600000.0 -16715400000.0 -22301500000.0 -24426500000.0 -27529800000.0 -28661000000.0 -27222200000.0 -26060000000.0 -22982900000.0 -21065200000.0 -15855100000.0 -24160500000.0 -11325000000.0 -19599600000.0 -9462710000.0 -15734800000.0 -9155610000.0 -10500700000.0 -9038150000.0 -9117970000.0 -9037030000.0 -9036690000.0 -9036460000.0 -9036280000.0 -9036150000.0 -9036060000.0 -9035990000.0 -9035940000.0 -9035900000.0 -9035870000.0 -9035850000.0 -9035830000.0 -9035810000.0 -9035800000.0 -9035790000.0 -9035780000.0 -9035780000.0 -9035770000.0 -9035760000.0 -9035760000.0 -9035760000.0 -9035750000.0 -9035750000.0 -9035750000.0 -9035750000.0 -9035750000.0 -9035760000.0 -9035760000.0 -9035760000.0 -9035770000.0 -9035780000.0 -9035780000.0 -9035790000.0 -9035800000.0 -9035810000.0 -9035830000.0 -9035850000.0 -9035870000.0 -9035900000.0 -9035940000.0 -9035990000.0 -9036060000.0 -9036150000.0 -9036280000.0 -9036460000.0 -9036690000.0 -9037030000.0 -9117970000.0 -9038150000.0 -10500700000.0 -9155610000.0 -15734800000.0 -9462710000.0 -19599600000.0 -11325000000.0 -24160500000.0 -15855100000.0 -21065200000.0 -22982900000.0 -26060000000.0 -27222200000.0 -25847700000.0 -24676800000.0 -21635300000.0 -19916800000.0 -15066600000.0 -22211500000.0 -10845800000.0 -18209500000.0 -9394620000.0 -14568500000.0 -9131700000.0 -10143200000.0 -9038040000.0 -9087940000.0 -9036970000.0 -9036650000.0 -9036420000.0 -9036260000.0 -9036130000.0 -9036050000.0 -9035980000.0 -9035930000.0 -9035890000.0 -9035870000.0 -9035840000.0 -9035820000.0 -9035810000.0 -9035800000.0 -9035790000.0 -9035780000.0 -9035770000.0 -9035770000.0 -9035760000.0 -9035760000.0 -9035760000.0 -9035750000.0 -9035750000.0 -9035750000.0 -9035750000.0 -9035750000.0 -9035760000.0 -9035760000.0 -9035760000.0 -9035770000.0 -9035770000.0 -9035780000.0 -9035790000.0 -9035800000.0 -9035810000.0 -9035820000.0 -9035840000.0 -9035870000.0 -9035890000.0 -9035930000.0 -9035980000.0 -9036050000.0 -9036130000.0 -9036260000.0 -9036420000.0 -9036650000.0 -9036970000.0 -9087940000.0 -9038040000.0 -10143200000.0 -9131700000.0 -14568500000.0 -9394620000.0 -18209500000.0 -10845800000.0 -22211500000.0 -15066600000.0 -19916800000.0 -21635300000.0 -24676800000.0 -25847700000.0 -24537300000.0 -23378100000.0 -20383800000.0 -18853800000.0 -14347100000.0 -20457200000.0 -10462700000.0 -16956800000.0 -9334460000.0 -13570600000.0 -9111680000.0 -9864960000.0 -9037920000.0 -9068470000.0 -9036900000.0 -9036600000.0 -9036390000.0 -9036230000.0 -9036110000.0 -9036030000.0 -9035970000.0 -9035920000.0 -9035890000.0 -9035860000.0 -9035840000.0 -9035820000.0 -9035810000.0 -9035800000.0 -9035790000.0 -9035780000.0 -9035770000.0 -9035770000.0 -9035760000.0 -9035760000.0 -9035760000.0 -9035750000.0 -9035750000.0 -9035750000.0 -9035750000.0 -9035750000.0 -9035760000.0 -9035760000.0 -9035760000.0 -9035770000.0 -9035770000.0 -9035780000.0 -9035790000.0 -9035800000.0 -9035810000.0 -9035820000.0 -9035840000.0 -9035860000.0 -9035890000.0 -9035920000.0 -9035970000.0 -9036030000.0 -9036110000.0 -9036230000.0 -9036390000.0 -9036600000.0 -9036900000.0 -9068470000.0 -9037920000.0 -9864960000.0 -9111680000.0 -13570600000.0 -9334460000.0 -16956800000.0 -10462700000.0 -20457200000.0 -14347100000.0 -18853800000.0 -20383800000.0 -23378100000.0 -24537300000.0 -23290400000.0 -22160700000.0 -19227200000.0 -17872800000.0 -13693400000.0 -18888400000.0 -10157800000.0 -15835500000.0 -9282000000.0 -12724800000.0 -9095170000.0 -9650770000.0 -9037800000.0 -9056060000.0 -9036840000.0 -9036550000.0 -9036350000.0 -9036200000.0 -9036090000.0 -9036010000.0 -9035960000.0 -9035910000.0 -9035880000.0 -9035850000.0 -9035830000.0 -9035820000.0 -9035800000.0 -9035790000.0 -9035780000.0 -9035780000.0 -9035770000.0 -9035770000.0 -9035760000.0 -9035760000.0 -9035760000.0 -9035750000.0 -9035750000.0 -9035750000.0 -9035750000.0 -9035750000.0 -9035760000.0 -9035760000.0 -9035760000.0 -9035770000.0 -9035770000.0 -9035780000.0 -9035780000.0 -9035790000.0 -9035800000.0 -9035820000.0 -9035830000.0 -9035850000.0 -9035880000.0 -9035910000.0 -9035960000.0 -9036010000.0 -9036090000.0 -9036200000.0 -9036350000.0 -9036550000.0 -9036840000.0 -9056060000.0 -9037800000.0 -9650770000.0 -9095170000.0 -12724800000.0 -9282000000.0 -15835500000.0 -10157800000.0 -18888400000.0 -13693400000.0 -17872800000.0 -19227200000.0 -22160700000.0 -23290400000.0 -22106200000.0 -21020600000.0 -18162500000.0 -16969500000.0 -13102300000.0 -17494400000.0 -9915760000.0 -14838900000.0 -9236830000.0 -12014200000.0 -9081760000.0 -9487610000.0 -9037680000.0 -9048290000.0 -9036770000.0 -9036510000.0 -9036310000.0 -9036170000.0 -9036070000.0 -9036000000.0 -9035940000.0 -9035900000.0 -9035870000.0 -9035850000.0 -9035830000.0 -9035810000.0 -9035800000.0 -9035790000.0 -9035780000.0 -9035780000.0 -9035770000.0 -9035770000.0 -9035760000.0 -9035760000.0 -9035760000.0 -9035750000.0 -9035750000.0 -9035750000.0 -9035750000.0 -9035750000.0 -9035760000.0 -9035760000.0 -9035760000.0 -9035770000.0 -9035770000.0 -9035780000.0 -9035780000.0 -9035790000.0 -9035800000.0 -9035810000.0 -9035830000.0 -9035850000.0 -9035870000.0 -9035900000.0 -9035940000.0 -9036000000.0 -9036070000.0 -9036170000.0 -9036310000.0 -9036510000.0 -9036770000.0 -9048290000.0 -9037680000.0 -9487610000.0 -9081760000.0 -12014200000.0 -9236830000.0 -14838900000.0 -9915760000.0 -17494400000.0 -13102300000.0 -16969500000.0 -18162500000.0 -21020600000.0 -22106200000.0 -20983300000.0 -19953100000.0 -17186000000.0 -16139300000.0 -12570300000.0 -16263100000.0 -9724310000.0 -13959300000.0 -9198430000.0 -11422600000.0 -9071030000.0 -9364630000.0 -9037560000.0 -9043510000.0 -9036710000.0 -9036460000.0 -9036280000.0 -9036150000.0 -9036050000.0 -9035980000.0 -9035930000.0 -9035890000.0 -9035860000.0 -9035840000.0 -9035820000.0 -9035810000.0 -9035800000.0 -9035790000.0 -9035780000.0 -9035770000.0 -9035770000.0 -9035760000.0 -9035760000.0 -9035760000.0 -9035760000.0 -9035750000.0 -9035750000.0 -9035750000.0 -9035750000.0 -9035750000.0 -9035760000.0 -9035760000.0 -9035760000.0 -9035760000.0 -9035770000.0 -9035770000.0 -9035780000.0 -9035790000.0 -9035800000.0 -9035810000.0 -9035820000.0 -9035840000.0 -9035860000.0 -9035890000.0 -9035930000.0 -9035980000.0 -9036050000.0 -9036150000.0 -9036280000.0 -9036460000.0 -9036710000.0 -9043510000.0 -9037560000.0 -9364630000.0 -9071030000.0 -11422600000.0 -9198430000.0 -13959300000.0 -9724310000.0 -16263100000.0 -12570300000.0 -16139300000.0 -17186000000.0 -19953100000.0 -20983300000.0 -19920400000.0 -18953900000.0 -16292900000.0 -15377300000.0 -12093800000.0 -15181800000.0 -9573240000.0 -13188400000.0 -9166160000.0 -10934300000.0 -9062560000.0 -9272920000.0 -9037430000.0 -9040620000.0 -9036640000.0 -9036410000.0 -9036240000.0 -9036120000.0 -9036030000.0 -9035960000.0 -9035920000.0 -9035880000.0 -9035850000.0 -9035830000.0 -9035820000.0 -9035800000.0 -9035790000.0 -9035780000.0 -9035780000.0 -9035770000.0 -9035770000.0 -9035760000.0 -9035760000.0 -9035760000.0 -9035760000.0 -9035750000.0 -9035750000.0 -9035750000.0 -9035750000.0 -9035750000.0 -9035760000.0 -9035760000.0 -9035760000.0 -9035760000.0 -9035770000.0 -9035770000.0 -9035780000.0 -9035780000.0 -9035790000.0 -9035800000.0 -9035820000.0 -9035830000.0 -9035850000.0 -9035880000.0 -9035920000.0 -9035960000.0 -9036030000.0 -9036120000.0 -9036240000.0 -9036410000.0 -9036640000.0 -9040620000.0 -9037430000.0 -9272920000.0 -9062560000.0 -10934300000.0 -9166160000.0 -13188400000.0 -9573240000.0 -15181800000.0 -12093800000.0 -15377300000.0 -16292900000.0 -18953900000.0 -19920400000.0 -18915500000.0 -18018200000.0 -15477900000.0 -14678700000.0 -11669100000.0 -14237500000.0 -9454340000.0 -12517400000.0 -9139360000.0 -10534800000.0 -9055980000.0 -9205230000.0 -9037310000.0 -9038890000.0 -9036580000.0 -9036360000.0 -9036200000.0 -9036090000.0 -9036010000.0 -9035950000.0 -9035900000.0 -9035870000.0 -9035850000.0 -9035830000.0 -9035810000.0 -9035800000.0 -9035790000.0 -9035780000.0 -9035780000.0 -9035770000.0 -9035770000.0 -9035760000.0 -9035760000.0 -9035760000.0 -9035760000.0 -9035750000.0 -9035750000.0 -9035750000.0 -9035750000.0 -9035750000.0 -9035760000.0 -9035760000.0 -9035760000.0 -9035760000.0 -9035770000.0 -9035770000.0 -9035780000.0 -9035780000.0 -9035790000.0 -9035800000.0 -9035810000.0 -9035830000.0 -9035850000.0 -9035870000.0 -9035900000.0 -9035950000.0 -9036010000.0 -9036090000.0 -9036200000.0 -9036360000.0 -9036580000.0 -9038890000.0 -9037310000.0 -9205230000.0 -9055980000.0 -10534800000.0 -9139360000.0 -12517400000.0 -9454340000.0 -14237500000.0 -11669100000.0 -14678700000.0 -15477900000.0 -18018200000.0 -18915500000.0 -17966600000.0 -17141500000.0 -14735400000.0 -14038900000.0 -11292400000.0 -13417200000.0 -9360940000.0 -11937300000.0 -9117350000.0 -10210600000.0 -9050920000.0 -9155780000.0 -9037190000.0 -9037870000.0 -9036510000.0 -9036310000.0 -9036170000.0 -9036060000.0 -9035990000.0 -9035930000.0 -9035890000.0 -9035860000.0 -9035840000.0 -9035820000.0 -9035810000.0 -9035800000.0 -9035790000.0 -9035780000.0 -9035770000.0 -9035770000.0 -9035770000.0 -9035760000.0 -9035760000.0 -9035760000.0 -9035760000.0 -9035750000.0 -9035750000.0 -9035750000.0 -9035750000.0 -9035750000.0 -9035760000.0 -9035760000.0 -9035760000.0 -9035760000.0 -9035770000.0 -9035770000.0 -9035770000.0 -9035780000.0 -9035790000.0 -9035800000.0 -9035810000.0 -9035820000.0 -9035840000.0 -9035860000.0 -9035890000.0 -9035930000.0 -9035990000.0 -9036060000.0 -9036170000.0 -9036310000.0 -9036510000.0 -9037870000.0 -9037190000.0 -9155780000.0 -9050920000.0 -10210600000.0 -9117350000.0 -11937300000.0 -9360940000.0 -13417200000.0 -11292400000.0 -14038900000.0 -14735400000.0 -17141500000.0 -17966600000.0 -17071300000.0 -16319600000.0 -14059600000.0 -13453200000.0 -10959800000.0 -12708000000.0 -9287730000.0 -11439200000.0 -9099480000.0 -9949870000.0 -9047080000.0 -9120030000.0 -9037070000.0 -9037270000.0 -9036450000.0 -9036260000.0 -9036130000.0 -9036040000.0 -9035970000.0 -9035920000.0 -9035880000.0 -9035850000.0 -9035830000.0 -9035810000.0 -9035800000.0 -9035790000.0 -9035780000.0 -9035780000.0 -9035770000.0 -9035770000.0 -9035760000.0 -9035760000.0 -9035760000.0 -9035760000.0 -9035750000.0 -9035750000.0 -9035750000.0 -9035750000.0 -9035750000.0 -9035750000.0 -9035750000.0 -9035760000.0 -9035760000.0 -9035760000.0 -9035760000.0 -9035770000.0 -9035770000.0 -9035780000.0 -9035780000.0 -9035790000.0 -9035800000.0 -9035810000.0 -9035830000.0 -9035850000.0 -9035880000.0 -9035920000.0 -9035970000.0 -9036040000.0 -9036130000.0 -9036260000.0 -9036450000.0 -9037270000.0 -9037070000.0 -9120030000.0 -9047080000.0 -9949870000.0 -9099480000.0 -11439200000.0 -9287730000.0 -12708000000.0 -10959800000.0 -13453200000.0 -14059600000.0 -16319600000.0 -17071300000.0 -16226800000.0 -15548100000.0 -13444700000.0 -12917400000.0 -10667500000.0 -12097800000.0 -9230450000.0 -11014300000.0 -9085120000.0 -9741790000.0 -9044200000.0 -9094440000.0 -9036950000.0 -9036900000.0 -9036380000.0 -9036220000.0 -9036100000.0 -9036010000.0 -9035950000.0 -9035900000.0 -9035870000.0 -9035840000.0 -9035820000.0 -9035810000.0 -9035800000.0 -9035790000.0 -9035780000.0 -9035770000.0 -9035770000.0 -9035770000.0 -9035760000.0 -9035760000.0 -9035760000.0 -9035760000.0 -9035750000.0 -9035750000.0 -9035750000.0 -9035750000.0 -9035750000.0 -9035750000.0 -9035750000.0 -9035760000.0 -9035760000.0 -9035760000.0 -9035760000.0 -9035770000.0 -9035770000.0 -9035770000.0 -9035780000.0 -9035790000.0 -9035800000.0 -9035810000.0 -9035820000.0 -9035840000.0 -9035870000.0 -9035900000.0 -9035950000.0 -9036010000.0 -9036100000.0 -9036220000.0 -9036380000.0 -9036900000.0 -9036950000.0 -9094440000.0 -9044200000.0 -9741790000.0 -9085120000.0 -11014300000.0 -9230450000.0 -12097800000.0 -10667500000.0 -12917400000.0 -13444700000.0 -15548100000.0 -16226800000.0 -15430200000.0 -14823000000.0 -12885000000.0 -12427100000.0 -10411500000.0 -11574800000.0 -9185710000.0 -10653900000.0 -9073700000.0 -9577080000.0 -9042060000.0 -9076310000.0 -9036830000.0 -9036670000.0 -9036320000.0 -9036170000.0 -9036060000.0 -9035990000.0 -9035930000.0 -9035890000.0 -9035860000.0 -9035830000.0 -9035820000.0 -9035800000.0 -9035790000.0 -9035780000.0 -9035780000.0 -9035770000.0 -9035770000.0 -9035760000.0 -9035760000.0 -9035760000.0 -9035760000.0 -9035760000.0 -9035750000.0 -9035750000.0 -9035750000.0 -9035750000.0 -9035750000.0 -9035750000.0 -9035750000.0 -9035760000.0 -9035760000.0 -9035760000.0 -9035760000.0 -9035760000.0 -9035770000.0 -9035770000.0 -9035780000.0 -9035780000.0 -9035790000.0 -9035800000.0 -9035820000.0 -9035830000.0 -9035860000.0 -9035890000.0 -9035930000.0 -9035990000.0 -9036060000.0 -9036170000.0 -9036320000.0 -9036670000.0 -9036830000.0 -9076310000.0 -9042060000.0 -9577080000.0 -9073700000.0 -10653900000.0 -9185710000.0 -11574800000.0 -10411500000.0 -12427100000.0 -12885000000.0 -14823000000.0 -15430200000.0 -14678300000.0 -14140400000.0 -12374700000.0 -11978300000.0 -10188100000.0 -11128200000.0 -9150830000.0 -10350100000.0 -9064700000.0 -9447700000.0 -9040480000.0 -9063580000.0 -9036720000.0 -9036520000.0 -9036260000.0 -9036130000.0 -9036030000.0 -9035960000.0 -9035910000.0 -9035870000.0 -9035850000.0 -9035820000.0 -9035810000.0 -9035800000.0 -9035790000.0 -9035780000.0 -9035770000.0 -9035770000.0 -9035770000.0 -9035760000.0 -9035760000.0 -9035760000.0 -9035760000.0 -9035760000.0 -9035750000.0 -9035750000.0 -9035750000.0 -9035750000.0 -9035750000.0 -9035750000.0 -9035750000.0 -9035760000.0 -9035760000.0 -9035760000.0 -9035760000.0 -9035760000.0 -9035770000.0 -9035770000.0 -9035770000.0 -9035780000.0 -9035790000.0 -9035800000.0 -9035810000.0 -9035820000.0 -9035850000.0 -9035870000.0 -9035910000.0 -9035960000.0 -9036030000.0 -9036130000.0 -9036260000.0 -9036520000.0 -9036720000.0 -9063580000.0 -9040480000.0 -9447700000.0 -9064700000.0 -10350100000.0 -9150830000.0 -11128200000.0 -10188100000.0 -11978300000.0 -12374700000.0 -14140400000.0 -14678300000.0 -13967500000.0 -13496200000.0 -11908600000.0 -11566900000.0 -9993510000.0 -10747800000.0 -9123670000.0 -10095100000.0 -9057670000.0 -9346800000.0 -9039310000.0 -9054720000.0 -9036610000.0 -9036400000.0 -9036200000.0 -9036080000.0 -9036000000.0 -9035940000.0 -9035890000.0 -9035860000.0 -9035830000.0 -9035820000.0 -9035800000.0 -9035790000.0 -9035780000.0 -9035780000.0 -9035770000.0 -9035770000.0 -9035760000.0 -9035760000.0 -9035760000.0 -9035760000.0 -9035760000.0 -9035760000.0 -9035750000.0 -9035750000.0 -9035750000.0 -9035750000.0 -9035750000.0 -9035750000.0 -9035750000.0 -9035760000.0 -9035760000.0 -9035760000.0 -9035760000.0 -9035760000.0 -9035760000.0 -9035770000.0 -9035770000.0 -9035780000.0 -9035780000.0 -9035790000.0 -9035800000.0 -9035820000.0 -9035830000.0 -9035860000.0 -9035890000.0 -9035940000.0 -9036000000.0 -9036080000.0 -9036200000.0 -9036400000.0 -9036610000.0 -9054720000.0 -9039310000.0 -9346800000.0 -9057670000.0 -10095100000.0 -9123670000.0 -10747800000.0 -9993510000.0 -11566900000.0 -11908600000.0 -13496200000.0 -13967500000.0 -13294100000.0 -12886600000.0 -11481200000.0 -11188900000.0 -9824130000.0 -10424000000.0 -9102540000.0 -9881740000.0 -9052220000.0 -9268640000.0 -9038440000.0 -9048600000.0 -9036500000.0 -9036300000.0 -9036150000.0 -9036040000.0 -9035970000.0 -9035910000.0 -9035870000.0 -9035840000.0 -9035820000.0 -9035810000.0 -9035800000.0 -9035790000.0 -9035780000.0 -9035770000.0 -9035770000.0 -9035770000.0 -9035760000.0 -9035760000.0 -9035760000.0 -9035760000.0 -9035760000.0 -9035750000.0 -9035750000.0 -9035750000.0 -9035750000.0 -9035750000.0 -9035750000.0 -9035750000.0 -9035750000.0 -9035750000.0 -9035760000.0 -9035760000.0 -9035760000.0 -9035760000.0 -9035760000.0 -9035770000.0 -9035770000.0 -9035770000.0 -9035780000.0 -9035790000.0 -9035800000.0 -9035810000.0 -9035820000.0 -9035840000.0 -9035870000.0 -9035910000.0 -9035970000.0 -9036040000.0 -9036150000.0 -9036300000.0 -9036500000.0 -9048600000.0 -9038440000.0 -9268640000.0 -9052220000.0 -9881740000.0 -9102540000.0 -10424000000.0 -9824130000.0 -11188900000.0 -11481200000.0 -12886600000.0 -13294100000.0 -12654100000.0 -12307700000.0 -11087400000.0 -10840600000.0 -9676520000.0 -10148400000.0 -9086100000.0 -9703600000.0 -9048010000.0 -9208390000.0 -9037800000.0 -9044400000.0 -9036390000.0 -9036220000.0 -9036090000.0 -9036000000.0 -9035940000.0 -9035890000.0 -9035860000.0 -9035830000.0 -9035810000.0 -9035800000.0 -9035790000.0 -9035780000.0 -9035780000.0 -9035770000.0 -9035770000.0 -9035760000.0 -9035760000.0 -9035760000.0 -9035760000.0 -9035760000.0 -9035760000.0 -9035750000.0 -9035750000.0 -9035750000.0 -9035750000.0 -9035750000.0 -9035750000.0 -9035750000.0 -9035750000.0 -9035750000.0 -9035760000.0 -9035760000.0 -9035760000.0 -9035760000.0 -9035760000.0 -9035760000.0 -9035770000.0 -9035770000.0 -9035780000.0 -9035780000.0 -9035790000.0 -9035800000.0 -9035810000.0 -9035830000.0 -9035860000.0 -9035890000.0 -9035940000.0 -9036000000.0 -9036090000.0 -9036220000.0 -9036390000.0 -9044400000.0 -9037800000.0 -9208390000.0 -9048010000.0 -9703600000.0 -9086100000.0 -10148400000.0 -9676520000.0 -10840600000.0 -11087400000.0 -12307700000.0 -12654100000.0 -12043400000.0 -11755500000.0 -10722400000.0 -10517800000.0 -9547360000.0 -9912760000.0 -9073260000.0 -9554630000.0 -9044770000.0 -9162090000.0 -9037300000.0 -9041540000.0 -9036290000.0 -9036140000.0 -9036040000.0 -9035960000.0 -9035910000.0 -9035870000.0 -9035840000.0 -9035820000.0 -9035800000.0 -9035790000.0 -9035780000.0 -9035780000.0 -9035770000.0 -9035770000.0 -9035760000.0 -9035760000.0 -9035760000.0 -9035760000.0 -9035760000.0 -9035760000.0 -9035760000.0 -9035750000.0 -9035750000.0 -9035750000.0 -9035750000.0 -9035750000.0 -9035750000.0 -9035750000.0 -9035750000.0 -9035750000.0 -9035760000.0 -9035760000.0 -9035760000.0 -9035760000.0 -9035760000.0 -9035760000.0 -9035760000.0 -9035770000.0 -9035770000.0 -9035780000.0 -9035780000.0 -9035790000.0 -9035800000.0 -9035820000.0 -9035840000.0 -9035870000.0 -9035910000.0 -9035960000.0 -9036040000.0 -9036140000.0 -9036290000.0 -9041540000.0 -9037300000.0 -9162090000.0 -9044770000.0 -9554630000.0 -9073260000.0 -9912760000.0 -9547360000.0 -10517800000.0 -10722400000.0 -11755500000.0 -12043400000.0 -11457800000.0 -11225900000.0 -10381400000.0 -10216700000.0 -9433510000.0 -9709880000.0 -9063170000.0 -9429340000.0 -9042260000.0 -9126440000.0 -9036910000.0 -9039580000.0 -9036190000.0 -9036070000.0 -9035980000.0 -9035920000.0 -9035880000.0 -9035850000.0 -9035820000.0 -9035810000.0 -9035790000.0 -9035780000.0 -9035780000.0 -9035770000.0 -9035770000.0 -9035770000.0 -9035760000.0 -9035760000.0 -9035760000.0 -9035760000.0 -9035760000.0 -9035760000.0 -9035750000.0 -9035750000.0 -9035750000.0 -9035750000.0 -9035750000.0 -9035750000.0 -9035750000.0 -9035750000.0 -9035750000.0 -9035750000.0 -9035750000.0 -9035760000.0 -9035760000.0 -9035760000.0 -9035760000.0 -9035760000.0 -9035760000.0 -9035770000.0 -9035770000.0 -9035770000.0 -9035780000.0 -9035780000.0 -9035790000.0 -9035810000.0 -9035820000.0 -9035850000.0 -9035880000.0 -9035920000.0 -9035980000.0 -9036070000.0 -9036190000.0 -9039580000.0 -9036910000.0 -9126440000.0 -9042260000.0 -9429340000.0 -9063170000.0 -9709880000.0 -9433510000.0 -10216700000.0 -10381400000.0 -11225900000.0 -11457800000.0 -10892800000.0 -10715100000.0 -10059800000.0 -9933400000.0 -9331930000.0 -9532950000.0 -9055130000.0 -9322710000.0 -9040310000.0 -9098770000.0 -9036600000.0 -9038230000.0 -9036090000.0 -9036000000.0 -9035930000.0 -9035880000.0 -9035850000.0 -9035820000.0 -9035810000.0 -9035790000.0 -9035780000.0 -9035780000.0 -9035770000.0 -9035770000.0 -9035760000.0 -9035760000.0 -9035760000.0 -9035760000.0 -9035760000.0 -9035760000.0 -9035760000.0 -9035750000.0 -9035750000.0 -9035750000.0 -9035750000.0 -9035750000.0 -9035750000.0 -9035750000.0 -9035750000.0 -9035750000.0 -9035750000.0 -9035750000.0 -9035750000.0 -9035750000.0 -9035760000.0 -9035760000.0 -9035760000.0 -9035760000.0 -9035760000.0 -9035760000.0 -9035760000.0 -9035770000.0 -9035770000.0 -9035780000.0 -9035780000.0 -9035790000.0 -9035810000.0 -9035820000.0 -9035850000.0 -9035880000.0 -9035930000.0 -9036000000.0 -9036090000.0 -9038230000.0 -9036600000.0 -9098770000.0 -9040310000.0 -9322710000.0 -9055130000.0 -9532950000.0 -9331930000.0 -9933400000.0 -10059800000.0 -10715100000.0 -10892800000.0 -10343900000.0 -10218700000.0 -9753000000.0 -9663890000.0 -9239730000.0 -9375650000.0 -9048570000.0 -9230120000.0 -9038740000.0 -9076810000.0 -9036320000.0 -9037280000.0 -9035990000.0 -9035920000.0 -9035880000.0 -9035840000.0 -9035820000.0 -9035800000.0 -9035790000.0 -9035780000.0 -9035780000.0 -9035770000.0 -9035770000.0 -9035760000.0 -9035760000.0 -9035760000.0 -9035760000.0 -9035760000.0 -9035760000.0 -9035760000.0 -9035750000.0 -9035750000.0 -9035750000.0 -9035750000.0 -9035750000.0 -9035750000.0 -9035750000.0 -9035750000.0 -9035750000.0 -9035750000.0 -9035750000.0 -9035750000.0 -9035750000.0 -9035750000.0 -9035750000.0 -9035760000.0 -9035760000.0 -9035760000.0 -9035760000.0 -9035760000.0 -9035760000.0 -9035760000.0 -9035770000.0 -9035770000.0 -9035780000.0 -9035780000.0 -9035790000.0 -9035800000.0 -9035820000.0 -9035840000.0 -9035880000.0 -9035920000.0 -9035990000.0 -9037280000.0 -9036320000.0 -9076810000.0 -9038740000.0 -9230120000.0 -9048570000.0 -9375650000.0 -9239730000.0 -9663890000.0 -9753000000.0 -10218700000.0 -10343900000.0 -9806430000.0 -9732700000.0 -9456740000.0 -9404190000.0 -9154130000.0 -9232020000.0 -9042980000.0 -9147280000.0 -9037430000.0 -9058690000.0 -9036080000.0 -9036570000.0 -9035890000.0 -9035850000.0 -9035830000.0 -9035810000.0 -9035790000.0 -9035780000.0 -9035780000.0 -9035770000.0 -9035770000.0 -9035760000.0 -9035760000.0 -9035760000.0 -9035760000.0 -9035760000.0 -9035760000.0 -9035760000.0 -9035750000.0 -9035750000.0 -9035750000.0 -9035750000.0 -9035750000.0 -9035750000.0 -9035750000.0 -9035750000.0 -9035750000.0 -9035750000.0 -9035750000.0 -9035750000.0 -9035750000.0 -9035750000.0 -9035750000.0 -9035750000.0 -9035750000.0 -9035750000.0 -9035750000.0 -9035760000.0 -9035760000.0 -9035760000.0 -9035760000.0 -9035760000.0 -9035760000.0 -9035760000.0 -9035770000.0 -9035770000.0 -9035780000.0 -9035780000.0 -9035790000.0 -9035810000.0 -9035830000.0 -9035850000.0 -9035890000.0 -9036570000.0 -9036080000.0 -9058690000.0 -9037430000.0 -9147280000.0 -9042980000.0 -9232020000.0 -9154130000.0 -9404190000.0 -9456740000.0 -9732700000.0 -9806430000.0 -9275780000.0 -9252820000.0 -9166680000.0 -9150300000.0 -9072400000.0 -9096390000.0 -9037970000.0 -9070120000.0 -9036260000.0 -9042740000.0 -9035850000.0 -9036000000.0 -9035800000.0 -9035780000.0 -9035780000.0 -9035770000.0 -9035770000.0 -9035760000.0 -9035760000.0 -9035760000.0 -9035760000.0 -9035760000.0 -9035760000.0 -9035750000.0 -9035750000.0 -9035750000.0 -9035750000.0 -9035750000.0 -9035750000.0 -9035750000.0 -9035750000.0 -9035750000.0 -9035750000.0 -9035750000.0 -9035750000.0 -9035750000.0 -9035750000.0 -9035750000.0 -9035750000.0 -9035750000.0 -9035750000.0 -9035750000.0 -9035750000.0 -9035750000.0 -9035750000.0 -9035750000.0 -9035750000.0 -9035750000.0 -9035750000.0 -9035750000.0 -9035750000.0 -9035750000.0 -9035760000.0 -9035760000.0 -9035760000.0 -9035760000.0 -9035760000.0 -9035760000.0 -9035770000.0 -9035770000.0 -9035780000.0 -9035780000.0 -9035800000.0 -9036000000.0 -9035850000.0 -9042740000.0 -9036260000.0 -9070120000.0 -9037970000.0 -9096390000.0 -9072400000.0 -9150300000.0 -9166680000.0 -9252820000.0 -9275780000.0 
SCALARS Shear_Stress float 1
LOOKUP_TABLE default
124020000000.0 119319000000.0 119319000000.0 124020000000.0 110757000000.0 212039000000.0 90722800000.0 15427900000.0 143407000000.0 102613000000.0 116799000000.0 93357800000.0 118067000000.0 116080000000.0 117684000000.0 122061000000.0 127065000000.0 131506000000.0 135165000000.0 138085000000.0 140348000000.0 142078000000.0 143420000000.0 144435000000.0 145159000000.0 145668000000.0 146022000000.0 146240000000.0 146352000000.0 146394000000.0 146390000000.0 146366000000.0 146353000000.0 146366000000.0 146390000000.0 146394000000.0 146352000000.0 146240000000.0 146022000000.0 145668000000.0 145159000000.0 144435000000.0 143420000000.0 142078000000.0 140348000000.0 138085000000.0 135165000000.0 131506000000.0 127065000000.0 122061000000.0 117684000000.0 116080000000.0 118067000000.0 93357800000.0 116799000000.0 102613000000.0 143407000000.0 15427900000.0 90722800000.0 212039000000.0 110757000000.0 97899900000.0 26980300000.0 75745500000.0 227280000000.0 102948000000.0 71776000000.0 98480200000.0 22682300.0 80340700000.0 91191100000.0 104059000000.0 115384000000.0 124862000000.0 132654000000.0 138949000000.0 144032000000.0 148124000000.0 151410000000.0 154065000000.0 156217000000.0 157973000000.0 159392000000.0 160505000000.0 161360000000.0 162015000000.0 162493000000.0 162799000000.0 162956000000.0 163002000000.0 162956000000.0 162799000000.0 162493000000.0 162015000000.0 161360000000.0 160505000000.0 159392000000.0 157973000000.0 156217000000.0 154065000000.0 151410000000.0 148124000000.0 144032000000.0 138949000000.0 132654000000.0 124862000000.0 115384000000.0 104059000000.0 91191100000.0 80340700000.0 22682500.0 98480200000.0 71776000000.0 102948000000.0 227280000000.0 75745500000.0 26980300000.0 97899900000.0 46389100000.0 67456200000.0 230484000000.0 266159000000.0 772503000000.0 204173000000.0 204173000000.0 772503000000.0 266159000000.0 230484000000.0 67456200000.0 46389100000.0 46679700000.0 196523000000.0 151844000000.0 159759000000.0 376007000000.0 224331000000.0 322635000000.0 13839300000.0 99197300000.0 12137100000.0 144508000000.0 158987000000.0 172872000000.0 181669000000.0 187847000000.0 191924000000.0 194435000000.0 195653000000.0 195910000000.0 195601000000.0 194896000000.0 193906000000.0 192838000000.0 191883000000.0 191102000000.0 190472000000.0 189965000000.0 189579000000.0 189311000000.0 189156000000.0 189105000000.0 189156000000.0 189311000000.0 189579000000.0 189965000000.0 190472000000.0 191102000000.0 191883000000.0 192838000000.0 193906000000.0 194896000000.0 195601000000.0 195910000000.0 195653000000.0 194435000000.0 191924000000.0 187847000000.0 181669000000.0 172872000000.0 158987000000.0 144508000000.0 12137100000.0 99197300000.0 13839300000.0 322635000000.0 224331000000.0 376007000000.0 159759000000.0 151844000000.0 196523000000.0 46679700000.0 76384100000.0 159556000000.0 172371000000.0 128496000000.0 626806000000.0 320850000000.0 366237000000.0 444705000000.0 275779000000.0 213854000000.0 364963000000.0 354583000000.0 339872000000.0 321984000000.0 304548000000.0 288358000000.0 273559000000.0 260223000000.0 248564000000.0 238522000000.0 230075000000.0 223276000000.0 217839000000.0 213412000000.0 209950000000.0 207510000000.0 205964000000.0 205040000000.0 204495000000.0 204198000000.0 204103000000.0 204198000000.0 204495000000.0 205040000000.0 205964000000.0 207510000000.0 209950000000.0 213412000000.0 217839000000.0 223276000000.0 230075000000.0 238522000000.0 248564000000.0 260223000000.0 273559000000.0 288358000000.0 304548000000.0 321984000000.0 339872000000.0 354583000000.0 364963000000.0 213854000000.0 275779000000.0 444705000000.0 366237000000.0 320850000000.0 626806000000.0 128496000000.0 172371000000.0 159556000000.0 76384100000.0 66093700000.0 191327000000.0 86501900000.0 118609000000.0 69677000000.0 571675000000.0 444741000000.0 208647000000.0 293161000000.0 293161000000.0 208647000000.0 444741000000.0 571675000000.0 69677000000.0 118609000000.0 86501900000.0 191327000000.0 66093700000.0 115046000000.0 133008000000.0 279501000000.0 170762000000.0 105441000000.0 140330000000.0 225433000000.0 205006000000.0 444889000000.0 241134000000.0 167088000000.0 216161000000.0 186291000000.0 221676000000.0 315205000000.0 319183000000.0 310403000000.0 299064000000.0 286749000000.0 274205000000.0 261926000000.0 250443000000.0 239865000000.0 230363000000.0 222163000000.0 215062000000.0 208914000000.0 203851000000.0 199850000000.0 196673000000.0 194171000000.0 192336000000.0 191141000000.0 190491000000.0 190289000000.0 190491000000.0 191141000000.0 192336000000.0 194171000000.0 196673000000.0 199850000000.0 203851000000.0 208914000000.0 215062000000.0 222163000000.0 230363000000.0 239865000000.0 250443000000.0 261926000000.0 274205000000.0 286749000000.0 299064000000.0 310403000000.0 319183000000.0 315205000000.0 221676000000.0 186291000000.0 216161000000.0 167088000000.0 241134000000.0 444889000000.0 205006000000.0 225433000000.0 140330000000.0 105441000000.0 170762000000.0 279501000000.0 133008000000.0 115046000000.0 104784000000.0 398186000000.0 200456000000.0 425954000000.0 73314800000.0 471161000000.0 72131200000.0 279960000000.0 312229000000.0 161898000000.0 244566000000.0 244566000000.0 161898000000.0 312229000000.0 279960000000.0 72131200000.0 471161000000.0 73314800000.0 425954000000.0 200456000000.0 398186000000.0 104784000000.0 102846000000.0 255070000000.0 117302000000.0 193301000000.0 27256200000.0 19612100000.0 307555000000.0 226654000000.0 83541000000.0 227769000000.0 127573000000.0 249703000000.0 311115000000.0 320040000000.0 309586000000.0 296099000000.0 281731000000.0 267130000000.0 252914000000.0 239470000000.0 226950000000.0 215619000000.0 205594000000.0 196797000000.0 189255000000.0 182930000000.0 177607000000.0 173177000000.0 169701000000.0 167222000000.0 165641000000.0 164788000000.0 164520000000.0 164788000000.0 165641000000.0 167222000000.0 169701000000.0 173177000000.0 177607000000.0 182930000000.0 189255000000.0 196797000000.0 205594000000.0 215619000000.0 226950000000.0 239470000000.0 252914000000.0 267130000000.0 281731000000.0 296099000000.0 309586000000.0 320040000000.0 311115000000.0 249703000000.0 127573000000.0 227769000000.0 83541000000.0 226654000000.0 307555000000.0 19612100000.0 27256200000.0 193301000000.0 117302000000.0 255070000000.0 102846000000.0 136044000000.0 27835100000.0 155578000000.0 124255000000.0 460812000000.0 668107000000.0 182698000000.0 700333000000.0 56281900000.0 341306000000.0 330671000000.0 16391500000.0 268748000000.0 73639100000.0 268051000000.0 301542000000.0 314670000000.0 301037000000.0 284577000000.0 267725000000.0 251409000000.0 236296000000.0 222411000000.0 209790000000.0 198609000000.0 188878000000.0 180565000000.0 173584000000.0 167749000000.0 162944000000.0 159182000000.0 156419000000.0 154504000000.0 153255000000.0 152546000000.0 152316000000.0 152546000000.0 153255000000.0 154504000000.0 156419000000.0 159182000000.0 162944000000.0 167749000000.0 173584000000.0 180565000000.0 188878000000.0 198609000000.0 209790000000.0 222411000000.0 236296000000.0 251409000000.0 267725000000.0 284577000000.0 301037000000.0 314670000000.0 301542000000.0 268051000000.0 73639100000.0 268748000000.0 16391500000.0 330671000000.0 341306000000.0 56281900000.0 700333000000.0 182698000000.0 668107000000.0 460812000000.0 124255000000.0 155578000000.0 27835100000.0 136044000000.0 113301000000.0 170270000000.0 407789000000.0 160445000000.0 870991000000.0 188562000000.0 110503000000.0 473075000000.0 552577000000.0 111859000000.0 111859000000.0 552577000000.0 473075000000.0 110503000000.0 188562000000.0 870991000000.0 160445000000.0 407789000000.0 170270000000.0 113301000000.0 96291500000.0 323436000000.0 90079800000.0 294990000000.0 247127000000.0 189036000000.0 151055000000.0 343343000000.0 56512400000.0 151777000000.0 312210000000.0 143062000000.0 292358000000.0 61906600000.0 323744000000.0 57724900000.0 348773000000.0 340703000000.0 356273000000.0 332477000000.0 307231000000.0 280608000000.0 253941000000.0 228303000000.0 203965000000.0 181237000000.0 160771000000.0 142652000000.0 126593000000.0 112524000000.0 100416000000.0 90127900000.0 81577300000.0 74788000000.0 69739600000.0 66305500000.0 64324100000.0 63677600000.0 64324100000.0 66305500000.0 69739600000.0 74788000000.0 81577300000.0 90127900000.0 100416000000.0 112524000000.0 126593000000.0 142652000000.0 160771000000.0 181237000000.0 203965000000.0 228303000000.0 253941000000.0 280608000000.0 307231000000.0 332477000000.0 356273000000.0 340703000000.0 348773000000.0 57724900000.0 323744000000.0 61906600000.0 292358000000.0 143062000000.0 312210000000.0 151777000000.0 56512400000.0 343343000000.0 151055000000.0 189036000000.0 247127000000.0 294990000000.0 90079800000.0 323436000000.0 96291500000.0 437824000000.0 18759700000.0 37473400000.0 791046000000.0 178181000000.0 61064600000.0 32478200000.0 122769000000.0 74469100000.0 65794100000.0 219093000000.0 182817000000.0 199191000000.0 180773000000.0 162234000000.0 144522000000.0 128865000000.0 115304000000.0 103525000000.0 93837900000.0 86318200000.0 80393900000.0 75780400000.0 72699200000.0 71213800000.0 70932900000.0 71289600000.0 71841300000.0 72348300000.0 72722200000.0 72945900000.0 73020300000.0 72945900000.0 72722200000.0 72348300000.0 71841300000.0 71289600000.0 70932900000.0 71213800000.0 72699200000.0 75780400000.0 80393900000.0 86318200000.0 93837900000.0 103525000000.0 115304000000.0 128865000000.0 144522000000.0 162234000000.0 180773000000.0 199191000000.0 182817000000.0 219093000000.0 65794100000.0 74469100000.0 122769000000.0 32478200000.0 61064600000.0 178181000000.0 791046000000.0 37473400000.0 18759700000.0 437824000000.0 10808500000.0 312172000000.0 2883750000.0 225105000000.0 63823900000.0 140285000000.0 12685500000.0 388874000000.0 197818000000.0 29998200000.0 29998200000.0 197818000000.0 388874000000.0 12685500000.0 140285000000.0 63823900000.0 225105000000.0 2883750000.0 312172000000.0 10808500000.0 345976000000.0 70622800000.0 334656000000.0 131561000000.0 272161000000.0 9050070000.0 374925000000.0 306475000000.0 51656600000.0 42621700000.0 125892000000.0 3178600000.0 22041100000.0 65734200000.0 65252500000.0 164304000000.0 8201720000.0 18928400000.0 9035750000.0 9035750000.0 9035750000.0 9035750000.0 9035750000.0 9035750000.0 9035750000.0 9035750000.0 9035750000.0 9035750000.0 9035750000.0 9035750000.0 9035750000.0 9035750000.0 9035750000.0 9035750000.0 9035750000.0 9035750000.0 9035750000.0 9035920000.0 9035750000.0 9035750000.0 9035750000.0 9035750000.0 9035750000.0 9035750000.0 9035750000.0 9035750000.0 9035750000.0 9035750000.0 9035750000.0 9035750000.0 9035750000.0 9035750000.0 9035750000.0 9035750000.0 9035750000.0 9035750000.0 9035750000.0 18928400000.0 8201720000.0 164304000000.0 65252500000.0 65734200000.0 22041100000.0 3178600000.0 125892000000.0 42621700000.0 51656600000.0 306475000000.0 374925000000.0 9050070000.0 272161000000.0 131561000000.0 334656000000.0 70622800000.0 345976000000.0 6902750000.0 121386000000.0 206964000000.0 302770000000.0 232465000000.0 206827000000.0 180731000000.0 123161000000.0 266279000000.0 239184000000.0 215170000000.0 195728000000.0 179773000000.0 165988000000.0 153840000000.0 143159000000.0 133530000000.0 124799000000.0 116984000000.0 109890000000.0 103249000000.0 96982000000.0 91183000000.0 85989400000.0 81510300000.0 77816100000.0 74940400000.0 72889800000.0 71660800000.0 71251000000.0 71660800000.0 72889800000.0 74940400000.0 77816100000.0 81510300000.0 85989400000.0 91183000000.0 96982000000.0 103249000000.0 109890000000.0 116984000000.0 124799000000.0 133530000000.0 143159000000.0 153840000000.0 165988000000.0 179773000000.0 195728000000.0 215170000000.0 239184000000.0 266279000000.0 123161000000.0 180731000000.0 206827000000.0 232465000000.0 302770000000.0 206964000000.0 121386000000.0 6902750000.0 258204000000.0 135063000000.0 5076470000.0 234672000000.0 114305000000.0 151700000000.0 5148930000.0 183899000000.0 183899000000.0 5148930000.0 151700000000.0 114305000000.0 234672000000.0 5076470000.0 135063000000.0 258204000000.0 124111000000.0 54133900000.0 34907700000.0 171145000000.0 26700100000.0 242798000000.0 154350000000.0 5208170000.0 27403500000.0 78127900000.0 47492800000.0 9998300000.0 16767400000.0 28186300000.0 490518000.0 107733000000.0 9035750000.0 9035750000.0 9035750000.0 9035750000.0 9035750000.0 9035750000.0 9035750000.0 9035750000.0 9035750000.0 9035750000.0 9035750000.0 9035750000.0 9035750000.0 9035750000.0 9035750000.0 9035750000.0 9035750000.0 9035750000.0 9035750000.0 9035750000.0 9035750000.0 9035760000.0 9035750000.0 9035750000.0 9035750000.0 9035750000.0 9035750000.0 9035750000.0 9035750000.0 9035750000.0 9035750000.0 9035750000.0 9035750000.0 9035750000.0 9035750000.0 9035750000.0 9035750000.0 9035750000.0 9035750000.0 9035750000.0 9035750000.0 9035750000.0 9035750000.0 107733000000.0 490518000.0 28186300000.0 16767400000.0 9998300000.0 47492800000.0 78127900000.0 27403500000.0 5208170000.0 154350000000.0 242798000000.0 26700100000.0 171145000000.0 34907700000.0 54133900000.0 124111000000.0 23597600000.0 66704700000.0 128435000000.0 14334100000.0 22844100000.0 59201700000.0 240500000000.0 235457000000.0 323652000000.0 252146000000.0 249525000000.0 214028000000.0 151885000000.0 182278000000.0 84811700000.0 152345000000.0 132583000000.0 115514000000.0 100626000000.0 87474000000.0 75811400000.0 65482700000.0 56397900000.0 48470500000.0 41568800000.0 35544900000.0 30276400000.0 25677900000.0 21690100000.0 18268600000.0 15376800000.0 12982100000.0 11056600000.0 9579450000.0 8535310000.0 7913390000.0 7706870000.0 7913390000.0 8535310000.0 9579450000.0 11056600000.0 12982100000.0 15376800000.0 18268600000.0 21690100000.0 25677900000.0 30276400000.0 35544900000.0 41568800000.0 48470500000.0 56397900000.0 65482700000.0 75811400000.0 87474000000.0 100626000000.0 115514000000.0 132583000000.0 152345000000.0 84811700000.0 182278000000.0 151885000000.0 214028000000.0 249525000000.0 252146000000.0 323652000000.0 235457000000.0 240500000000.0 59201700000.0 22844100000.0 14334100000.0 128435000000.0 66704700000.0 23597600000.0 119675000000.0 119675000000.0 107413000000.0 10077200000.0 151100000000.0 42165600000.0 109347000000.0 22942800000.0 143472000000.0 39307400000.0 78641200000.0 29042100000.0 8013230000.0 45125200000.0 6342820000.0 80477200000.0 7626190000.0 70699000000.0 9035750000.0 9035750000.0 9035750000.0 9035750000.0 9035750000.0 9035750000.0 9035750000.0 9035750000.0 9035750000.0 9035750000.0 9035750000.0 9035750000.0 9035750000.0 9035750000.0 9035750000.0 9035750000.0 9035750000.0 9035750000.0 9035750000.0 9035750000.0 9035750000.0 9035750000.0 9035750000.0 9035750000.0 9035750000.0 9035750000.0 9035750000.0 9035750000.0 9035750000.0 9035750000.0 9035750000.0 9035750000.0 9035750000.0 9035750000.0 9035750000.0 9035750000.0 9035750000.0 9035750000.0 9035750000.0 9035750000.0 9035750000.0 9035750000.0 9035750000.0 70699000000.0 7626190000.0 80477200000.0 6342820000.0 45125200000.0 8013230000.0 29042100000.0 78641200000.0 39307400000.0 143472000000.0 22942800000.0 109347000000.0 42165600000.0 151100000000.0 10077200000.0 107413000000.0 143473000000.0 14315300000.0 2182890000.0 126408000000.0 43755900000.0 637772000.0 26035600000.0 45693700000.0 4073490000.0 32261300000.0 51078300000.0 23356200000.0 27927400000.0 14992100000.0 11126900000.0 7815490000.0 4994520000.0 2603590000.0 585671000.0 1110810000.0 2528620000.0 3707930000.0 4687810000.0 5500680000.0 6171120000.0 6719570000.0 7164930000.0 7524430000.0 7812510000.0 8040430000.0 8216730000.0 8347800000.0 8438280000.0 8491320000.0 8508790000.0 8491320000.0 8438280000.0 8347800000.0 8216730000.0 8040430000.0 7812510000.0 7524430000.0 7164930000.0 6719570000.0 6171120000.0 5500680000.0 4687810000.0 3707930000.0 2528620000.0 1110810000.0 585671000.0 2603590000.0 4994520000.0 7815490000.0 11126900000.0 14992100000.0 27927400000.0 23356200000.0 51078300000.0 32261300000.0 4073490000.0 45693700000.0 26035600000.0 637772000.0 43755900000.0 126408000000.0 2182890000.0 14315300000.0 143473000000.0 92662000000.0 23155400000.0 108744000000.0 108744000000.0 23155400000.0 92662000000.0 99581500000.0 32369700000.0 145148000000.0 13344100000.0 4440460000.0 113855000000.0 173040000000.0 32906200000.0 58745400000.0 47055700000.0 8815470000.0 56353500000.0 8693690000.0 87584300000.0 8950820000.0 42780100000.0 9035810000.0 9035790000.0 9035780000.0 9035780000.0 9035770000.0 9035770000.0 9035770000.0 9035760000.0 9035760000.0 9035760000.0 9035760000.0 9035760000.0 9035760000.0 9035760000.0 9035760000.0 9035750000.0 9035750000.0 9035750000.0 9035750000.0 9035750000.0 9035750000.0 9035750000.0 9035750000.0 9035750000.0 9035750000.0 9035750000.0 9035750000.0 9035750000.0 9035760000.0 9035760000.0 9035760000.0 9035760000.0 9035760000.0 9035760000.0 9035760000.0 9035760000.0 9035770000.0 9035770000.0 9035770000.0 9035780000.0 9035780000.0 9035790000.0 9035810000.0 42780100000.0 8950820000.0 87584300000.0 8693690000.0 56353500000.0 8815470000.0 47055700000.0 58745400000.0 32906200000.0 173040000000.0 113855000000.0 4440460000.0 13344100000.0 145148000000.0 32369700000.0 99581500000.0 164230000000.0 44843900000.0 6138190000.0 55408600000.0 7728860000.0 83797100000.0 9035860000.0 32656900000.0 9035900000.0 9035870000.0 9035840000.0 9035820000.0 9035810000.0 9035800000.0 9035790000.0 9035780000.0 9035780000.0 9035770000.0 9035770000.0 9035770000.0 9035760000.0 9035760000.0 9035760000.0 9035760000.0 9035760000.0 9035760000.0 9035750000.0 9035750000.0 9035750000.0 9035750000.0 9035750000.0 9035750000.0 9035750000.0 9035760000.0 9035760000.0 9035760000.0 9035760000.0 9035760000.0 9035760000.0 9035770000.0 9035770000.0 9035770000.0 9035780000.0 9035780000.0 9035790000.0 9035800000.0 9035810000.0 9035820000.0 9035840000.0 9035870000.0 9035900000.0 32656900000.0 9035860000.0 83797100000.0 7728860000.0 55408600000.0 6138190000.0 44843900000.0 164230000000.0 96713500000.0 39552900000.0 129924000000.0 22221400000.0 18692800000.0 118957000000.0 35125100000.0 47279300000.0 47279300000.0 35125100000.0 118957000000.0 18692800000.0 22221400000.0 129924000000.0 39552900000.0 96713500000.0 92789000000.0 43916500000.0 116092000000.0 28558000000.0 22168200000.0 111957000000.0 155675000000.0 48840200000.0 42916100000.0 55942600000.0 9177460000.0 57722500000.0 9036040000.0 77738700000.0 9036050000.0 24992300000.0 9036000000.0 9035940000.0 9035900000.0 9035870000.0 9035840000.0 9035820000.0 9035810000.0 9035800000.0 9035790000.0 9035780000.0 9035780000.0 9035770000.0 9035770000.0 9035770000.0 9035760000.0 9035760000.0 9035760000.0 9035760000.0 9035760000.0 9035750000.0 9035750000.0 9035750000.0 9035750000.0 9035750000.0 9035760000.0 9035760000.0 9035760000.0 9035760000.0 9035760000.0 9035770000.0 9035770000.0 9035770000.0 9035780000.0 9035780000.0 9035790000.0 9035800000.0 9035810000.0 9035820000.0 9035840000.0 9035870000.0 9035900000.0 9035940000.0 9036000000.0 24992300000.0 9036050000.0 77738700000.0 9036040000.0 57722500000.0 9177460000.0 55942600000.0 42916100000.0 48840200000.0 155675000000.0 111957000000.0 22168200000.0 28558000000.0 116092000000.0 43916500000.0 92789000000.0 87147100000.0 47220000000.0 104007000000.0 33882300000.0 27231100000.0 106321000000.0 142439000000.0 54400500000.0 36465400000.0 58636900000.0 9327080000.0 56796600000.0 9036490000.0 70502100000.0 9036240000.0 19420600000.0 9036090000.0 9036010000.0 9035950000.0 9035910000.0 9035880000.0 9035850000.0 9035830000.0 9035820000.0 9035810000.0 9035800000.0 9035790000.0 9035780000.0 9035780000.0 9035770000.0 9035770000.0 9035760000.0 9035760000.0 9035760000.0 9035760000.0 9035750000.0 9035750000.0 9035750000.0 9035750000.0 9035750000.0 9035760000.0 9035760000.0 9035760000.0 9035760000.0 9035770000.0 9035770000.0 9035780000.0 9035780000.0 9035790000.0 9035800000.0 9035810000.0 9035820000.0 9035830000.0 9035850000.0 9035880000.0 9035910000.0 9035950000.0 9036010000.0 9036090000.0 19420600000.0 9036240000.0 70502100000.0 9036490000.0 56796600000.0 9327080000.0 58636900000.0 36465400000.0 54400500000.0 142439000000.0 106321000000.0 27231100000.0 33882300000.0 104007000000.0 47220000000.0 87147100000.0 81059000000.0 49806700000.0 93672600000.0 37535000000.0 30230500000.0 99664900000.0 128708000000.0 58168400000.0 30950900000.0 60369300000.0 9456550000.0 55197400000.0 9036820000.0 62752700000.0 9036410000.0 15519500000.0 9036180000.0 9036080000.0 9036000000.0 9035950000.0 9035910000.0 9035880000.0 9035850000.0 9035830000.0 9035820000.0 9035810000.0 9035800000.0 9035790000.0 9035780000.0 9035780000.0 9035770000.0 9035770000.0 9035760000.0 9035760000.0 9035760000.0 9035750000.0 9035750000.0 9035750000.0 9035750000.0 9035750000.0 9035760000.0 9035760000.0 9035760000.0 9035770000.0 9035770000.0 9035780000.0 9035780000.0 9035790000.0 9035800000.0 9035810000.0 9035820000.0 9035830000.0 9035850000.0 9035880000.0 9035910000.0 9035950000.0 9036000000.0 9036080000.0 9036180000.0 15519500000.0 9036410000.0 62752700000.0 9036820000.0 55197400000.0 9456550000.0 60369300000.0 30950900000.0 58168400000.0 128708000000.0 99664900000.0 30230500000.0 37535000000.0 93672600000.0 49806700000.0 81059000000.0 75244200000.0 51645000000.0 84693900000.0 40076100000.0 32446200000.0 93498300000.0 114970000000.0 60085700000.0 26303800000.0 61174900000.0 9556530000.0 53069500000.0 9037100000.0 54993100000.0 9036570000.0 12899500000.0 9036260000.0 9036140000.0 9036050000.0 9035980000.0 9035930000.0 9035900000.0 9035870000.0 9035850000.0 9035830000.0 9035820000.0 9035800000.0 9035790000.0 9035790000.0 9035780000.0 9035770000.0 9035770000.0 9035760000.0 9035760000.0 9035760000.0 9035750000.0 9035750000.0 9035750000.0 9035750000.0 9035750000.0 9035760000.0 9035760000.0 9035760000.0 9035770000.0 9035770000.0 9035780000.0 9035790000.0 9035790000.0 9035800000.0 9035820000.0 9035830000.0 9035850000.0 9035870000.0 9035900000.0 9035930000.0 9035980000.0 9036050000.0 9036140000.0 9036260000.0 12899500000.0 9036570000.0 54993100000.0 9037100000.0 53069500000.0 9556530000.0 61174900000.0 26303800000.0 60085700000.0 114970000000.0 93498300000.0 32446200000.0 40076100000.0 84693900000.0 51645000000.0 75244200000.0 70056100000.0 52698000000.0 76827900000.0 41718000000.0 33916600000.0 88032200000.0 101797000000.0 60664400000.0 22448500000.0 61108300000.0 9630670000.0 50521100000.0 9037360000.0 47563800000.0 9036710000.0 11220600000.0 9036330000.0 9036190000.0 9036090000.0 9036020000.0 9035960000.0 9035920000.0 9035890000.0 9035860000.0 9035840000.0 9035820000.0 9035810000.0 9035800000.0 9035790000.0 9035780000.0 9035780000.0 9035770000.0 9035770000.0 9035760000.0 9035760000.0 9035750000.0 9035750000.0 9035750000.0 9035750000.0 9035750000.0 9035760000.0 9035760000.0 9035770000.0 9035770000.0 9035780000.0 9035780000.0 9035790000.0 9035800000.0 9035810000.0 9035820000.0 9035840000.0 9035860000.0 9035890000.0 9035920000.0 9035960000.0 9036020000.0 9036090000.0 9036190000.0 9036330000.0 11220600000.0 9036710000.0 47563800000.0 9037360000.0 50521100000.0 9630670000.0 61108300000.0 22448500000.0 60664400000.0 101797000000.0 88032200000.0 33916600000.0 41718000000.0 76827900000.0 52698000000.0 70056100000.0 65588400000.0 53065000000.0 69978400000.0 42659500000.0 34711100000.0 83230600000.0 89492600000.0 60234000000.0 19306900000.0 60256500000.0 9685270000.0 47645100000.0 9037600000.0 40699600000.0 9036830000.0 10200800000.0 9036400000.0 9036240000.0 9036130000.0 9036050000.0 9035980000.0 9035940000.0 9035900000.0 9035870000.0 9035850000.0 9035830000.0 9035820000.0 9035800000.0 9035790000.0 9035790000.0 9035780000.0 9035770000.0 9035770000.0 9035760000.0 9035760000.0 9035760000.0 9035750000.0 9035750000.0 9035750000.0 9035760000.0 9035760000.0 9035760000.0 9035770000.0 9035770000.0 9035780000.0 9035790000.0 9035790000.0 9035800000.0 9035820000.0 9035830000.0 9035850000.0 9035870000.0 9035900000.0 9035940000.0 9035980000.0 9036050000.0 9036130000.0 9036240000.0 9036400000.0 10200800000.0 9036830000.0 40699600000.0 9037600000.0 47645100000.0 9685270000.0 60256500000.0 19306900000.0 60234000000.0 89492600000.0 83230600000.0 34711100000.0 42659500000.0 69978400000.0 53065000000.0 65588400000.0 61787400000.0 52890000000.0 64091800000.0 43042900000.0 34911100000.0 78952900000.0 78217800000.0 59031200000.0 16811900000.0 58727500000.0 9722350000.0 44533600000.0 9037820000.0 34561100000.0 9036930000.0 9616170000.0 9036460000.0 9036290000.0 9036160000.0 9036070000.0 9036000000.0 9035950000.0 9035910000.0 9035880000.0 9035860000.0 9035840000.0 9035820000.0 9035810000.0 9035800000.0 9035790000.0 9035780000.0 9035770000.0 9035770000.0 9035760000.0 9035760000.0 9035760000.0 9035750000.0 9035750000.0 9035750000.0 9035760000.0 9035760000.0 9035760000.0 9035770000.0 9035770000.0 9035780000.0 9035790000.0 9035800000.0 9035810000.0 9035820000.0 9035840000.0 9035860000.0 9035880000.0 9035910000.0 9035950000.0 9036000000.0 9036070000.0 9036160000.0 9036290000.0 9036460000.0 9616170000.0 9036930000.0 34561100000.0 9037820000.0 44533600000.0 9722350000.0 58727500000.0 16811900000.0 59031200000.0 78217800000.0 78952900000.0 34911100000.0 43042900000.0 64091800000.0 52890000000.0 61787400000.0 58530800000.0 52296100000.0 59095300000.0 42971100000.0 34607300000.0 75043100000.0 68045200000.0 57236800000.0 14893000000.0 56638000000.0 9742090000.0 41276800000.0 9038020000.0 29239200000.0 9037030000.0 9301620000.0 9036510000.0 9036330000.0 9036190000.0 9036090000.0 9036020000.0 9035970000.0 9035920000.0 9035890000.0 9035860000.0 9035840000.0 9035830000.0 9035810000.0 9035800000.0 9035790000.0 9035780000.0 9035770000.0 9035770000.0 9035760000.0 9035760000.0 9035760000.0 9035750000.0 9035750000.0 9035750000.0 9035760000.0 9035760000.0 9035760000.0 9035770000.0 9035770000.0 9035780000.0 9035790000.0 9035800000.0 9035810000.0 9035830000.0 9035840000.0 9035860000.0 9035890000.0 9035920000.0 9035970000.0 9036020000.0 9036090000.0 9036190000.0 9036330000.0 9036510000.0 9301620000.0 9037030000.0 29239200000.0 9038020000.0 41276800000.0 9742090000.0 56638000000.0 14893000000.0 57236800000.0 68045200000.0 75043100000.0 34607300000.0 42971100000.0 59095300000.0 52296100000.0 58530800000.0 55682300000.0 51373300000.0 54881800000.0 42519900000.0 33909300000.0 71359700000.0 58995800000.0 55004800000.0 13465000000.0 54106100000.0 9745690000.0 37960500000.0 9038190000.0 24758700000.0 9037110000.0 9145700000.0 9036550000.0 9036360000.0 9036220000.0 9036110000.0 9036030000.0 9035980000.0 9035930000.0 9035900000.0 9035870000.0 9035850000.0 9035830000.0 9035810000.0 9035800000.0 9035790000.0 9035780000.0 9035770000.0 9035770000.0 9035760000.0 9035760000.0 9035760000.0 9035750000.0 9035750000.0 9035750000.0 9035760000.0 9035760000.0 9035760000.0 9035770000.0 9035770000.0 9035780000.0 9035790000.0 9035800000.0 9035810000.0 9035830000.0 9035850000.0 9035870000.0 9035900000.0 9035930000.0 9035980000.0 9036030000.0 9036110000.0 9036220000.0 9036360000.0 9036550000.0 9145700000.0 9037110000.0 24758700000.0 9038190000.0 37960500000.0 9745690000.0 54106100000.0 13465000000.0 55004800000.0 58995800000.0 71359700000.0 33909300000.0 42519900000.0 54881800000.0 51373300000.0 55682300000.0 53123100000.0 50185600000.0 51319300000.0 41747400000.0 32930900000.0 67790400000.0 51048500000.0 52470400000.0 12432400000.0 51247300000.0 9735150000.0 34666200000.0 9038330000.0 21086900000.0 9037180000.0 9076410000.0 9036580000.0 9036380000.0 9036230000.0 9036130000.0 9036050000.0 9035980000.0 9035940000.0 9035900000.0 9035870000.0 9035850000.0 9035830000.0 9035820000.0 9035800000.0 9035790000.0 9035780000.0 9035780000.0 9035770000.0 9035760000.0 9035760000.0 9035760000.0 9035750000.0 9035750000.0 9035750000.0 9035760000.0 9035760000.0 9035760000.0 9035770000.0 9035780000.0 9035780000.0 9035790000.0 9035800000.0 9035820000.0 9035830000.0 9035850000.0 9035870000.0 9035900000.0 9035940000.0 9035980000.0 9036050000.0 9036130000.0 9036230000.0 9036380000.0 9036580000.0 9076410000.0 9037180000.0 21086900000.0 9038330000.0 34666200000.0 9735150000.0 51247300000.0 12432400000.0 52470400000.0 51048500000.0 67790400000.0 32930900000.0 41747400000.0 51319300000.0 50185600000.0 53123100000.0 50763100000.0 48782100000.0 48267000000.0 40703700000.0 31763500000.0 64261600000.0 44146900000.0 49748800000.0 11702400000.0 48169300000.0 9712540000.0 31469400000.0 9038450000.0 18148300000.0 9037240000.0 9049450000.0 9036610000.0 9036400000.0 9036250000.0 9036140000.0 9036050000.0 9035990000.0 9035940000.0 9035910000.0 9035880000.0 9035850000.0 9035830000.0 9035820000.0 9035800000.0 9035790000.0 9035780000.0 9035780000.0 9035770000.0 9035760000.0 9035760000.0 9035760000.0 9035750000.0 9035750000.0 9035750000.0 9035760000.0 9035760000.0 9035760000.0 9035770000.0 9035780000.0 9035780000.0 9035790000.0 9035800000.0 9035820000.0 9035830000.0 9035850000.0 9035880000.0 9035910000.0 9035940000.0 9035990000.0 9036050000.0 9036140000.0 9036250000.0 9036400000.0 9036610000.0 9049450000.0 9037240000.0 18148300000.0 9038450000.0 31469400000.0 9712540000.0 48169300000.0 11702400000.0 49748800000.0 44146900000.0 64261600000.0 31763500000.0 40703700000.0 48267000000.0 48782100000.0 50763100000.0 48541100000.0 47204700000.0 45591800000.0 39437400000.0 30469200000.0 60735100000.0 38212200000.0 46933200000.0 11193900000.0 44968700000.0 9679940000.0 28435500000.0 9038550000.0 15843100000.0 9037280000.0 9040390000.0 9036630000.0 9036420000.0 9036260000.0 9036150000.0 9036060000.0 9036000000.0 9035950000.0 9035910000.0 9035880000.0 9035850000.0 9035830000.0 9035820000.0 9035800000.0 9035790000.0 9035780000.0 9035780000.0 9035770000.0 9035760000.0 9035760000.0 9035760000.0 9035750000.0 9035750000.0 9035750000.0 9035760000.0 9035760000.0 9035760000.0 9035770000.0 9035780000.0 9035780000.0 9035790000.0 9035800000.0 9035820000.0 9035830000.0 9035850000.0 9035880000.0 9035910000.0 9035950000.0 9036000000.0 9036060000.0 9036150000.0 9036260000.0 9036420000.0 9036630000.0 9040390000.0 9037280000.0 15843100000.0 9038550000.0 28435500000.0 9679940000.0 44968700000.0 11193900000.0 46933200000.0 38212200000.0 60735100000.0 30469200000.0 39437400000.0 45591800000.0 47204700000.0 48541100000.0 46418500000.0 45492600000.0 43181100000.0 37997500000.0 29092200000.0 57199700000.0 33154800000.0 44095400000.0 10840500000.0 41729400000.0 9639430000.0 25615300000.0 9038620000.0 14064300000.0 9037310000.0 9037770000.0 9036640000.0 9036430000.0 9036270000.0 9036150000.0 9036060000.0 9036000000.0 9035950000.0 9035910000.0 9035880000.0 9035850000.0 9035830000.0 9035820000.0 9035810000.0 9035790000.0 9035780000.0 9035780000.0 9035770000.0 9035760000.0 9035760000.0 9035760000.0 9035750000.0 9035750000.0 9035750000.0 9035760000.0 9035760000.0 9035760000.0 9035770000.0 9035780000.0 9035780000.0 9035790000.0 9035810000.0 9035820000.0 9035830000.0 9035850000.0 9035880000.0 9035910000.0 9035950000.0 9036000000.0 9036060000.0 9036150000.0 9036270000.0 9036430000.0 9036640000.0 9037770000.0 9037310000.0 14064300000.0 9038620000.0 25615300000.0 9639430000.0 41729400000.0 10840500000.0 44095400000.0 33154800000.0 57199700000.0 29092200000.0 37997500000.0 43181100000.0 45492600000.0 46418500000.0 44373000000.0 43682000000.0 40949100000.0 36431800000.0 27670700000.0 53663700000.0 28880400000.0 41288400000.0 10590600000.0 38521400000.0 9593100000.0 23043700000.0 9038660000.0 12710400000.0 9037330000.0 9037120000.0 9036650000.0 9036430000.0 9036270000.0 9036150000.0 9036060000.0 9036000000.0 9035950000.0 9035910000.0 9035880000.0 9035850000.0 9035830000.0 9035820000.0 9035810000.0 9035790000.0 9035780000.0 9035780000.0 9035770000.0 9035760000.0 9035760000.0 9035760000.0 9035750000.0 9035750000.0 9035750000.0 9035760000.0 9035760000.0 9035760000.0 9035770000.0 9035780000.0 9035780000.0 9035790000.0 9035810000.0 9035820000.0 9035830000.0 9035850000.0 9035880000.0 9035910000.0 9035950000.0 9036000000.0 9036060000.0 9036150000.0 9036270000.0 9036430000.0 9036650000.0 9037120000.0 9037330000.0 12710400000.0 9038660000.0 23043700000.0 9593100000.0 38521400000.0 10590600000.0 41288400000.0 28880400000.0 53663700000.0 27670700000.0 36431800000.0 40949100000.0 43682000000.0 44373000000.0 25294000000.0 10405900000.0 35402200000.0 9542990000.0 20740100000.0 9038690000.0 11692200000.0 9037340000.0 9036980000.0 9036650000.0 9036430000.0 9036270000.0 9036150000.0 9036060000.0 9036000000.0 9035950000.0 9035910000.0 9035880000.0 9035850000.0 9035830000.0 9035820000.0 9035800000.0 9035790000.0 9035780000.0 9035780000.0 9035770000.0 9035760000.0 9035760000.0 9035760000.0 9035750000.0 9035750000.0 9035750000.0 9035760000.0 9035760000.0 9035760000.0 9035770000.0 9035780000.0 9035780000.0 9035790000.0 9035800000.0 9035820000.0 9035830000.0 9035850000.0 9035880000.0 9035910000.0 9035950000.0 9036000000.0 9036060000.0 9036150000.0 9036270000.0 9036430000.0 9036650000.0 9036980000.0 9037340000.0 11692200000.0 9038690000.0 20740100000.0 9542990000.0 35402200000.0 10405900000.0 25294000000.0 42392500000.0 41807000000.0 38836600000.0 34785100000.0 26239700000.0 50148600000.0 38550800000.0 38550800000.0 50148600000.0 26239700000.0 34785100000.0 38836600000.0 41807000000.0 42392500000.0 40471100000.0 39898900000.0 36806600000.0 33097300000.0 24829000000.0 46684400000.0 22303400000.0 35909400000.0 10259500000.0 32416800000.0 9491010000.0 18710200000.0 9038690000.0 10935100000.0 9037330000.0 9036950000.0 9036640000.0 9036430000.0 9036260000.0 9036150000.0 9036060000.0 9036000000.0 9035950000.0 9035910000.0 9035880000.0 9035850000.0 9035830000.0 9035820000.0 9035800000.0 9035790000.0 9035780000.0 9035780000.0 9035770000.0 9035760000.0 9035760000.0 9035760000.0 9035750000.0 9035750000.0 9035750000.0 9035760000.0 9035760000.0 9035760000.0 9035770000.0 9035780000.0 9035780000.0 9035790000.0 9035800000.0 9035820000.0 9035830000.0 9035850000.0 9035880000.0 9035910000.0 9035950000.0 9036000000.0 9036060000.0 9036150000.0 9036260000.0 9036430000.0 9036640000.0 9036950000.0 9037330000.0 10935100000.0 9038690000.0 18710200000.0 9491010000.0 32416800000.0 10259500000.0 35909400000.0 22303400000.0 46684400000.0 24829000000.0 33097300000.0 36806600000.0 39898900000.0 40471100000.0 38606700000.0 37985900000.0 34840200000.0 31402500000.0 23461400000.0 43304500000.0 19822600000.0 33383200000.0 10134200000.0 29599800000.0 9438840000.0 16948700000.0 9038670000.0 10378200000.0 9037320000.0 9036930000.0 9036630000.0 9036420000.0 9036260000.0 9036140000.0 9036060000.0 9035990000.0 9035940000.0 9035910000.0 9035880000.0 9035850000.0 9035830000.0 9035820000.0 9035800000.0 9035790000.0 9035780000.0 9035780000.0 9035770000.0 9035760000.0 9035760000.0 9035760000.0 9035750000.0 9035750000.0 9035750000.0 9035760000.0 9035760000.0 9035760000.0 9035770000.0 9035780000.0 9035780000.0 9035790000.0 9035800000.0 9035820000.0 9035830000.0 9035850000.0 9035880000.0 9035910000.0 9035940000.0 9035990000.0 9036060000.0 9036140000.0 9036260000.0 9036420000.0 9036630000.0 9036930000.0 9037320000.0 10378200000.0 9038670000.0 16948700000.0 9438840000.0 29599800000.0 10134200000.0 33383200000.0 19822600000.0 43304500000.0 23461400000.0 31402500000.0 34840200000.0 37985900000.0 38606700000.0 36799200000.0 36093300000.0 32931200000.0 29729100000.0 22153000000.0 40042200000.0 17773600000.0 30985100000.0 10020100000.0 26976000000.0 9387940000.0 15441600000.0 9038640000.0 9973330000.0 9037300000.0 9036910000.0 9036620000.0 9036410000.0 9036250000.0 9036140000.0 9036050000.0 9035990000.0 9035940000.0 9035900000.0 9035870000.0 9035850000.0 9035830000.0 9035810000.0 9035800000.0 9035790000.0 9035780000.0 9035770000.0 9035770000.0 9035760000.0 9035760000.0 9035760000.0 9035750000.0 9035750000.0 9035750000.0 9035760000.0 9035760000.0 9035760000.0 9035770000.0 9035770000.0 9035780000.0 9035790000.0 9035800000.0 9035810000.0 9035830000.0 9035850000.0 9035870000.0 9035900000.0 9035940000.0 9035990000.0 9036050000.0 9036140000.0 9036250000.0 9036410000.0 9036620000.0 9036910000.0 9037300000.0 9973330000.0 9038640000.0 15441600000.0 9387940000.0 26976000000.0 10020100000.0 30985100000.0 17773600000.0 40042200000.0 22153000000.0 29729100000.0 32931200000.0 36093300000.0 36799200000.0 35049600000.0 34242100000.0 31081600000.0 28099700000.0 20913500000.0 36926600000.0 16088100000.0 28724100000.0 9912510000.0 24561800000.0 9339470000.0 14169600000.0 9038590000.0 9682380000.0 9037270000.0 9036880000.0 9036600000.0 9036390000.0 9036240000.0 9036130000.0 9036040000.0 9035980000.0 9035940000.0 9035900000.0 9035870000.0 9035850000.0 9035830000.0 9035810000.0 9035800000.0 9035790000.0 9035780000.0 9035770000.0 9035770000.0 9035760000.0 9035760000.0 9035760000.0 9035750000.0 9035750000.0 9035750000.0 9035760000.0 9035760000.0 9035760000.0 9035770000.0 9035770000.0 9035780000.0 9035790000.0 9035800000.0 9035810000.0 9035830000.0 9035850000.0 9035870000.0 9035900000.0 9035940000.0 9035980000.0 9036040000.0 9036130000.0 9036240000.0 9036390000.0 9036600000.0 9036880000.0 9037270000.0 9682380000.0 9038590000.0 14169600000.0 9339470000.0 24561800000.0 9912510000.0 28724100000.0 16088100000.0 36926600000.0 20913500000.0 28099700000.0 31081600000.0 34242100000.0 35049600000.0 33359500000.0 32449500000.0 29298300000.0 26531800000.0 19748500000.0 33981500000.0 14706900000.0 26605800000.0 9810100000.0 22366200000.0 9294320000.0 13109400000.0 9038520000.0 9475910000.0 9037230000.0 9036850000.0 9036570000.0 9036370000.0 9036220000.0 9036120000.0 9036040000.0 9035980000.0 9035930000.0 9035890000.0 9035870000.0 9035840000.0 9035830000.0 9035810000.0 9035800000.0 9035790000.0 9035780000.0 9035770000.0 9035770000.0 9035760000.0 9035760000.0 9035760000.0 9035750000.0 9035750000.0 9035750000.0 9035760000.0 9035760000.0 9035760000.0 9035770000.0 9035770000.0 9035780000.0 9035790000.0 9035800000.0 9035810000.0 9035830000.0 9035840000.0 9035870000.0 9035890000.0 9035930000.0 9035980000.0 9036040000.0 9036120000.0 9036220000.0 9036370000.0 9036570000.0 9036850000.0 9037230000.0 9475910000.0 9038520000.0 13109400000.0 9294320000.0 22366200000.0 9810100000.0 26605800000.0 14706900000.0 33981500000.0 19748500000.0 26531800000.0 29298300000.0 32449500000.0 33359500000.0 31730500000.0 30728100000.0 27589600000.0 25037900000.0 18660600000.0 31224000000.0 13579800000.0 24633700000.0 9713120000.0 20391100000.0 9253100000.0 12236600000.0 9038440000.0 9331330000.0 9037190000.0 9036820000.0 9036550000.0 9036350000.0 9036210000.0 9036100000.0 9036030000.0 9035970000.0 9035920000.0 9035890000.0 9035860000.0 9035840000.0 9035820000.0 9035810000.0 9035800000.0 9035790000.0 9035780000.0 9035770000.0 9035770000.0 9035760000.0 9035760000.0 9035760000.0 9035750000.0 9035750000.0 9035750000.0 9035760000.0 9035760000.0 9035760000.0 9035770000.0 9035770000.0 9035780000.0 9035790000.0 9035800000.0 9035810000.0 9035820000.0 9035840000.0 9035860000.0 9035890000.0 9035920000.0 9035970000.0 9036030000.0 9036100000.0 9036210000.0 9036350000.0 9036550000.0 9036820000.0 9037190000.0 9331330000.0 9038440000.0 12236600000.0 9253100000.0 20391100000.0 9713120000.0 24633700000.0 13579800000.0 31224000000.0 18660600000.0 25037900000.0 27589600000.0 30728100000.0 31730500000.0 30163900000.0 29086500000.0 25963500000.0 23626300000.0 17649900000.0 28665300000.0 12663700000.0 22809100000.0 9622390000.0 18633400000.0 9216190000.0 11526400000.0 9038350000.0 9231470000.0 9037140000.0 9036780000.0 9036520000.0 9036330000.0 9036190000.0 9036090000.0 9036020000.0 9035960000.0 9035920000.0 9035880000.0 9035860000.0 9035840000.0 9035820000.0 9035810000.0 9035800000.0 9035790000.0 9035780000.0 9035770000.0 9035770000.0 9035760000.0 9035760000.0 9035760000.0 9035750000.0 9035750000.0 9035750000.0 9035760000.0 9035760000.0 9035760000.0 9035770000.0 9035770000.0 9035780000.0 9035790000.0 9035800000.0 9035810000.0 9035820000.0 9035840000.0 9035860000.0 9035880000.0 9035920000.0 9035960000.0 9036020000.0 9036090000.0 9036190000.0 9036330000.0 9036520000.0 9036780000.0 9037140000.0 9231470000.0 9038350000.0 11526400000.0 9216190000.0 18633400000.0 9622390000.0 22809100000.0 12663700000.0 28665300000.0 17649900000.0 23626300000.0 25963500000.0 29086500000.0 30163900000.0 28661000000.0 27529800000.0 24426500000.0 22301500000.0 16715400000.0 26310600000.0 11922400000.0 21131700000.0 9538730000.0 17085100000.0 9183710000.0 10955100000.0 9038260000.0 9163510000.0 9037080000.0 9036740000.0 9036490000.0 9036310000.0 9036170000.0 9036080000.0 9036000000.0 9035950000.0 9035910000.0 9035880000.0 9035850000.0 9035830000.0 9035820000.0 9035800000.0 9035790000.0 9035780000.0 9035780000.0 9035770000.0 9035770000.0 9035760000.0 9035760000.0 9035750000.0 9035750000.0 9035750000.0 9035750000.0 9035750000.0 9035760000.0 9035760000.0 9035770000.0 9035770000.0 9035780000.0 9035780000.0 9035790000.0 9035800000.0 9035820000.0 9035830000.0 9035850000.0 9035880000.0 9035910000.0 9035950000.0 9036000000.0 9036080000.0 9036170000.0 9036310000.0 9036490000.0 9036740000.0 9037080000.0 9163510000.0 9038260000.0 10955100000.0 9183710000.0 17085100000.0 9538730000.0 21131700000.0 11922400000.0 26310600000.0 16715400000.0 22301500000.0 24426500000.0 27529800000.0 28661000000.0 27222200000.0 26060000000.0 22982900000.0 21065200000.0 15855100000.0 24160500000.0 11325000000.0 19599600000.0 9462710000.0 15734800000.0 9155610000.0 10500700000.0 9038150000.0 9117970000.0 9037030000.0 9036690000.0 9036460000.0 9036280000.0 9036150000.0 9036060000.0 9035990000.0 9035940000.0 9035900000.0 9035870000.0 9035850000.0 9035830000.0 9035810000.0 9035800000.0 9035790000.0 9035780000.0 9035780000.0 9035770000.0 9035760000.0 9035760000.0 9035760000.0 9035750000.0 9035750000.0 9035750000.0 9035750000.0 9035750000.0 9035760000.0 9035760000.0 9035760000.0 9035770000.0 9035780000.0 9035780000.0 9035790000.0 9035800000.0 9035810000.0 9035830000.0 9035850000.0 9035870000.0 9035900000.0 9035940000.0 9035990000.0 9036060000.0 9036150000.0 9036280000.0 9036460000.0 9036690000.0 9037030000.0 9117970000.0 9038150000.0 10500700000.0 9155610000.0 15734800000.0 9462710000.0 19599600000.0 11325000000.0 24160500000.0 15855100000.0 21065200000.0 22982900000.0 26060000000.0 27222200000.0 25847700000.0 24676800000.0 21635300000.0 19916800000.0 15066600000.0 22211500000.0 10845800000.0 18209500000.0 9394620000.0 14568500000.0 9131700000.0 10143200000.0 9038040000.0 9087940000.0 9036970000.0 9036650000.0 9036420000.0 9036260000.0 9036130000.0 9036050000.0 9035980000.0 9035930000.0 9035890000.0 9035870000.0 9035840000.0 9035820000.0 9035810000.0 9035800000.0 9035790000.0 9035780000.0 9035770000.0 9035770000.0 9035760000.0 9035760000.0 9035760000.0 9035750000.0 9035750000.0 9035750000.0 9035750000.0 9035750000.0 9035760000.0 9035760000.0 9035760000.0 9035770000.0 9035770000.0 9035780000.0 9035790000.0 9035800000.0 9035810000.0 9035820000.0 9035840000.0 9035870000.0 9035890000.0 9035930000.0 9035980000.0 9036050000.0 9036130000.0 9036260000.0 9036420000.0 9036650000.0 9036970000.0 9087940000.0 9038040000.0 10143200000.0 9131700000.0 14568500000.0 9394620000.0 18209500000.0 10845800000.0 22211500000.0 15066600000.0 19916800000.0 21635300000.0 24676800000.0 25847700000.0 24537300000.0 23378100000.0 20383800000.0 18853800000.0 14347100000.0 20457200000.0 10462700000.0 16956800000.0 9334460000.0 13570600000.0 9111680000.0 9864960000.0 9037920000.0 9068470000.0 9036900000.0 9036600000.0 9036390000.0 9036230000.0 9036110000.0 9036030000.0 9035970000.0 9035920000.0 9035890000.0 9035860000.0 9035840000.0 9035820000.0 9035810000.0 9035800000.0 9035790000.0 9035780000.0 9035770000.0 9035770000.0 9035760000.0 9035760000.0 9035760000.0 9035750000.0 9035750000.0 9035750000.0 9035750000.0 9035750000.0 9035760000.0 9035760000.0 9035760000.0 9035770000.0 9035770000.0 9035780000.0 9035790000.0 9035800000.0 9035810000.0 9035820000.0 9035840000.0 9035860000.0 9035890000.0 9035920000.0 9035970000.0 9036030000.0 9036110000.0 9036230000.0 9036390000.0 9036600000.0 9036900000.0 9068470000.0 9037920000.0 9864960000.0 9111680000.0 13570600000.0 9334460000.0 16956800000.0 10462700000.0 20457200000.0 14347100000.0 18853800000.0 20383800000.0 23378100000.0 24537300000.0 23290400000.0 22160700000.0 19227200000.0 17872800000.0 13693400000.0 18888400000.0 10157800000.0 15835500000.0 9282000000.0 12724800000.0 9095170000.0 9650770000.0 9037800000.0 9056060000.0 9036840000.0 9036550000.0 9036350000.0 9036200000.0 9036090000.0 9036010000.0 9035960000.0 9035910000.0 9035880000.0 9035850000.0 9035830000.0 9035820000.0 9035800000.0 9035790000.0 9035780000.0 9035780000.0 9035770000.0 9035770000.0 9035760000.0 9035760000.0 9035760000.0 9035750000.0 9035750000.0 9035750000.0 9035750000.0 9035750000.0 9035760000.0 9035760000.0 9035760000.0 9035770000.0 9035770000.0 9035780000.0 9035780000.0 9035790000.0 9035800000.0 9035820000.0 9035830000.0 9035850000.0 9035880000.0 9035910000.0 9035960000.0 9036010000.0 9036090000.0 9036200000.0 9036350000.0 9036550000.0 9036840000.0 9056060000.0 9037800000.0 9650770000.0 9095170000.0 12724800000.0 9282000000.0 15835500000.0 10157800000.0 18888400000.0 13693400000.0 17872800000.0 19227200000.0 22160700000.0 23290400000.0 22106200000.0 21020600000.0 18162500000.0 16969500000.0 13102300000.0 17494400000.0 9915760000.0 14838900000.0 9236830000.0 12014200000.0 9081760000.0 9487610000.0 9037680000.0 9048290000.0 9036770000.0 9036510000.0 9036310000.0 9036170000.0 9036070000.0 9036000000.0 9035940000.0 9035900000.0 9035870000.0 9035850000.0 9035830000.0 9035810000.0 9035800000.0 9035790000.0 9035780000.0 9035780000.0 9035770000.0 9035770000.0 9035760000.0 9035760000.0 9035760000.0 9035750000.0 9035750000.0 9035750000.0 9035750000.0 9035750000.0 9035760000.0 9035760000.0 9035760000.0 9035770000.0 9035770000.0 9035780000.0 9035780000.0 9035790000.0 9035800000.0 9035810000.0 9035830000.0 9035850000.0 9035870000.0 9035900000.0 9035940000.0 9036000000.0 9036070000.0 9036170000.0 9036310000.0 9036510000.0 9036770000.0 9048290000.0 9037680000.0 9487610000.0 9081760000.0 12014200000.0 9236830000.0 14838900000.0 9915760000.0 17494400000.0 13102300000.0 16969500000.0 18162500000.0 21020600000.0 22106200000.0 20983300000.0 19953100000.0 17186000000.0 16139300000.0 12570300000.0 16263100000.0 9724310000.0 13959300000.0 9198430000.0 11422600000.0 9071030000.0 9364630000.0 9037560000.0 9043510000.0 9036710000.0 9036460000.0 9036280000.0 9036150000.0 9036050000.0 9035980000.0 9035930000.0 9035890000.0 9035860000.0 9035840000.0 9035820000.0 9035810000.0 9035800000.0 9035790000.0 9035780000.0 9035770000.0 9035770000.0 9035760000.0 9035760000.0 9035760000.0 9035760000.0 9035750000.0 9035750000.0 9035750000.0 9035750000.0 9035750000.0 9035760000.0 9035760000.0 9035760000.0 9035760000.0 9035770000.0 9035770000.0 9035780000.0 9035790000.0 9035800000.0 9035810000.0 9035820000.0 9035840000.0 9035860000.0 9035890000.0 9035930000.0 9035980000.0 9036050000.0 9036150000.0 9036280000.0 9036460000.0 9036710000.0 9043510000.0 9037560000.0 9364630000.0 9071030000.0 11422600000.0 9198430000.0 13959300000.0 9724310000.0 16263100000.0 12570300000.0 16139300000.0 17186000000.0 19953100000.0 20983300000.0 19920400000.0 18953900000.0 16292900000.0 15377300000.0 12093800000.0 15181800000.0 9573240000.0 13188400000.0 9166160000.0 10934300000.0 9062560000.0 9272920000.0 9037430000.0 9040620000.0 9036640000.0 9036410000.0 9036240000.0 9036120000.0 9036030000.0 9035960000.0 9035920000.0 9035880000.0 9035850000.0 9035830000.0 9035820000.0 9035800000.0 9035790000.0 9035780000.0 9035780000.0 9035770000.0 9035770000.0 9035760000.0 9035760000.0 9035760000.0 9035760000.0 9035750000.0 9035750000.0 9035750000.0 9035750000.0 9035750000.0 9035760000.0 9035760000.0 9035760000.0 9035760000.0 9035770000.0 9035770000.0 9035780000.0 9035780000.0 9035790000.0 9035800000.0 9035820000.0 9035830000.0 9035850000.0 9035880000.0 9035920000.0 9035960000.0 9036030000.0 9036120000.0 9036240000.0 9036410000.0 9036640000.0 9040620000.0 9037430000.0 9272920000.0 9062560000.0 10934300000.0 9166160000.0 13188400000.0 9573240000.0 15181800000.0 12093800000.0 15377300000.0 16292900000.0 18953900000.0 19920400000.0 18915500000.0 18018200000.0 15477900000.0 14678700000.0 11669100000.0 14237500000.0 9454340000.0 12517400000.0 9139360000.0 10534800000.0 9055980000.0 9205230000.0 9037310000.0 9038890000.0 9036580000.0 9036360000.0 9036200000.0 9036090000.0 9036010000.0 9035950000.0 9035900000.0 9035870000.0 9035850000.0 9035830000.0 9035810000.0 9035800000.0 9035790000.0 9035780000.0 9035780000.0 9035770000.0 9035770000.0 9035760000.0 9035760000.0 9035760000.0 9035760000.0 9035750000.0 9035750000.0 9035750000.0 9035750000.0 9035750000.0 9035760000.0 9035760000.0 9035760000.0 9035760000.0 9035770000.0 9035770000.0 9035780000.0 9035780000.0 9035790000.0 9035800000.0 9035810000.0 9035830000.0 9035850000.0 9035870000.0 9035900000.0 9035950000.0 9036010000.0 9036090000.0 9036200000.0 9036360000.0 9036580000.0 9038890000.0 9037310000.0 9205230000.0 9055980000.0 10534800000.0 9139360000.0 12517400000.0 9454340000.0 14237500000.0 11669100000.0 14678700000.0 15477900000.0 18018200000.0 18915500000.0 17966600000.0 17141500000.0 14735400000.0 14038900000.0 11292400000.0 13417200000.0 9360940000.0 11937300000.0 9117350000.0 10210600000.0 9050920000.0 9155780000.0 9037190000.0 9037870000.0 9036510000.0 9036310000.0 9036170000.0 9036060000.0 9035990000.0 9035930000.0 9035890000.0 9035860000.0 9035840000.0 9035820000.0 9035810000.0 9035800000.0 9035790000.0 9035780000.0 9035770000.0 9035770000.0 9035770000.0 9035760000.0 9035760000.0 9035760000.0 9035760000.0 9035750000.0 9035750000.0 9035750000.0 9035750000.0 9035750000.0 9035760000.0 9035760000.0 9035760000.0 9035760000.0 9035770000.0 9035770000.0 9035770000.0 9035780000.0 9035790000.0 9035800000.0 9035810000.0 9035820000.0 9035840000.0 9035860000.0 9035890000.0 9035930000.0 9035990000.0 9036060000.0 9036170000.0 9036310000.0 9036510000.0 9037870000.0 9037190000.0 9155780000.0 9050920000.0 10210600000.0 9117350000.0 11937300000.0 9360940000.0 13417200000.0 11292400000.0 14038900000.0 14735400000.0 17141500000.0 17966600000.0 17071300000.0 16319600000.0 14059600000.0 13453200000.0 10959800000.0 12708000000.0 9287730000.0 11439200000.0 9099480000.0 9949870000.0 9047080000.0 9120030000.0 9037070000.0 9037270000.0 9036450000.0 9036260000.0 9036130000.0 9036040000.0 9035970000.0 9035920000.0 9035880000.0 9035850000.0 9035830000.0 9035810000.0 9035800000.0 9035790000.0 9035780000.0 9035780000.0 9035770000.0 9035770000.0 9035760000.0 9035760000.0 9035760000.0 9035760000.0 9035750000.0 9035750000.0 9035750000.0 9035750000.0 9035750000.0 9035750000.0 9035750000.0 9035760000.0 9035760000.0 9035760000.0 9035760000.0 9035770000.0 9035770000.0 9035780000.0 9035780000.0 9035790000.0 9035800000.0 9035810000.0 9035830000.0 9035850000.0 9035880000.0 9035920000.0 9035970000.0 9036040000.0 9036130000.0 9036260000.0 9036450000.0 9037270000.0 9037070000.0 9120030000.0 9047080000.0 9949870000.0 9099480000.0 11439200000.0 9287730000.0 12708000000.0 10959800000.0 13453200000.0 14059600000.0 16319600000.0 17071300000.0 16226800000.0 15548100000.0 13444700000.0 12917400000.0 10667500000.0 12097800000.0 9230450000.0 11014300000.0 9085120000.0 9741790000.0 9044200000.0 9094440000.0 9036950000.0 9036900000.0 9036380000.0 9036220000.0 9036100000.0 9036010000.0 9035950000.0 9035900000.0 9035870000.0 9035840000.0 9035820000.0 9035810000.0 9035800000.0 9035790000.0 9035780000.0 9035770000.0 9035770000.0 9035770000.0 9035760000.0 9035760000.0 9035760000.0 9035760000.0 9035750000.0 9035750000.0 9035750000.0 9035750000.0 9035750000.0 9035750000.0 9035750000.0 9035760000.0 9035760000.0 9035760000.0 9035760000.0 9035770000.0 9035770000.0 9035770000.0 9035780000.0 9035790000.0 9035800000.0 9035810000.0 9035820000.0 9035840000.0 9035870000.0 9035900000.0 9035950000.0 9036010000.0 9036100000.0 9036220000.0 9036380000.0 9036900000.0 9036950000.0 9094440000.0 9044200000.0 9741790000.0 9085120000.0 11014300000.0 9230450000.0 12097800000.0 10667500000.0 12917400000.0 13444700000.0 15548100000.0 16226800000.0 15430200000.0 14823000000.0 12885000000.0 12427100000.0 10411500000.0 11574800000.0 9185710000.0 10653900000.0 9073700000.0 9577080000.0 9042060000.0 9076310000.0 9036830000.0 9036670000.0 9036320000.0 9036170000.0 9036060000.0 9035990000.0 9035930000.0 9035890000.0 9035860000.0 9035830000.0 9035820000.0 9035800000.0 9035790000.0 9035780000.0 9035780000.0 9035770000.0 9035770000.0 9035760000.0 9035760000.0 9035760000.0 9035760000.0 9035760000.0 9035750000.0 9035750000.0 9035750000.0 9035750000.0 9035750000.0 9035750000.0 9035750000.0 9035760000.0 9035760000.0 9035760000.0 9035760000.0 9035760000.0 9035770000.0 9035770000.0 9035780000.0 9035780000.0 9035790000.0 9035800000.0 9035820000.0 9035830000.0 9035860000.0 9035890000.0 9035930000.0 9035990000.0 9036060000.0 9036170000.0 9036320000.0 9036670000.0 9036830000.0 9076310000.0 9042060000.0 9577080000.0 9073700000.0 10653900000.0 9185710000.0 11574800000.0 10411500000.0 12427100000.0 12885000000.0 14823000000.0 15430200000.0 14678300000.0 14140400000.0 12374700000.0 11978300000.0 10188100000.0 11128200000.0 9150830000.0 10350100000.0 9064700000.0 9447700000.0 9040480000.0 9063580000.0 9036720000.0 9036520000.0 9036260000.0 9036130000.0 9036030000.0 9035960000.0 9035910000.0 9035870000.0 9035850000.0 9035820000.0 9035810000.0 9035800000.0 9035790000.0 9035780000.0 9035770000.0 9035770000.0 9035770000.0 9035760000.0 9035760000.0 9035760000.0 9035760000.0 9035760000.0 9035750000.0 9035750000.0 9035750000.0 9035750000.0 9035750000.0 9035750000.0 9035750000.0 9035760000.0 9035760000.0 9035760000.0 9035760000.0 9035760000.0 9035770000.0 9035770000.0 9035770000.0 9035780000.0 9035790000.0 9035800000.0 9035810000.0 9035820000.0 9035850000.0 9035870000.0 9035910000.0 9035960000.0 9036030000.0 9036130000.0 9036260000.0 9036520000.0 9036720000.0 9063580000.0 9040480000.0 9447700000.0 9064700000.0 10350100000.0 9150830000.0 11128200000.0 10188100000.0 11978300000.0 12374700000.0 14140400000.0 14678300000.0 13967500000.0 13496200000.0 11908600000.0 11566900000.0 9993510000.0 10747800000.0 9123670000.0 10095100000.0 9057670000.0 9346800000.0 9039310000.0 9054720000.0 9036610000.0 9036400000.0 9036200000.0 9036080000.0 9036000000.0 9035940000.0 9035890000.0 9035860000.0 9035830000.0 9035820000.0 9035800000.0 9035790000.0 9035780000.0 9035780000.0 9035770000.0 9035770000.0 9035760000.0 9035760000.0 9035760000.0 9035760000.0 9035760000.0 9035760000.0 9035750000.0 9035750000.0 9035750000.0 9035750000.0 9035750000.0 9035750000.0 9035750000.0 9035760000.0 9035760000.0 9035760000.0 9035760000.0 9035760000.0 9035760000.0 9035770000.0 9035770000.0 9035780000.0 9035780000.0 9035790000.0 9035800000.0 9035820000.0 9035830000.0 9035860000.0 9035890000.0 9035940000.0 9036000000.0 9036080000.0 9036200000.0 9036400000.0 9036610000.0 9054720000.0 9039310000.0 9346800000.0 9057670000.0 10095100000.0 9123670000.0 10747800000.0 9993510000.0 11566900000.0 11908600000.0 13496200000.0 13967500000.0 13294100000.0 12886600000.0 11481200000.0 11188900000.0 9824130000.0 10424000000.0 9102540000.0 9881740000.0 9052220000.0 9268640000.0 9038440000.0 9048600000.0 9036500000.0 9036300000.0 9036150000.0 9036040000.0 9035970000.0 9035910000.0 9035870000.0 9035840000.0 9035820000.0 9035810000.0 9035800000.0 9035790000.0 9035780000.0 9035770000.0 9035770000.0 9035770000.0 9035760000.0 9035760000.0 9035760000.0 9035760000.0 9035760000.0 9035750000.0 9035750000.0 9035750000.0 9035750000.0 9035750000.0 9035750000.0 9035750000.0 9035750000.0 9035750000.0 9035760000.0 9035760000.0 9035760000.0 9035760000.0 9035760000.0 9035770000.0 9035770000.0 9035770000.0 9035780000.0 9035790000.0 9035800000.0 9035810000.0 9035820000.0 9035840000.0 9035870000.0 9035910000.0 9035970000.0 9036040000.0 9036150000.0 9036300000.0 9036500000.0 9048600000.0 9038440000.0 9268640000.0 9052220000.0 9881740000.0 9102540000.0 10424000000.0 9824130000.0 11188900000.0 11481200000.0 12886600000.0 13294100000.0 12654100000.0 12307700000.0 11087400000.0 10840600000.0 9676520000.0 10148400000.0 9086100000.0 9703600000.0 9048010000.0 9208390000.0 9037800000.0 9044400000.0 9036390000.0 9036220000.0 9036090000.0 9036000000.0 9035940000.0 9035890000.0 9035860000.0 9035830000.0 9035810000.0 9035800000.0 9035790000.0 9035780000.0 9035780000.0 9035770000.0 9035770000.0 9035760000.0 9035760000.0 9035760000.0 9035760000.0 9035760000.0 9035760000.0 9035750000.0 9035750000.0 9035750000.0 9035750000.0 9035750000.0 9035750000.0 9035750000.0 9035750000.0 9035750000.0 9035760000.0 9035760000.0 9035760000.0 9035760000.0 9035760000.0 9035760000.0 9035770000.0 9035770000.0 9035780000.0 9035780000.0 9035790000.0 9035800000.0 9035810000.0 9035830000.0 9035860000.0 9035890000.0 9035940000.0 9036000000.0 9036090000.0 9036220000.0 9036390000.0 9044400000.0 9037800000.0 9208390000.0 9048010000.0 9703600000.0 9086100000.0 10148400000.0 9676520000.0 10840600000.0 11087400000.0 12307700000.0 12654100000.0 12043400000.0 11755500000.0 10722400000.0 10517800000.0 9547360000.0 9912760000.0 9073260000.0 9554630000.0 9044770000.0 9162090000.0 9037300000.0 9041540000.0 9036290000.0 9036140000.0 9036040000.0 9035960000.0 9035910000.0 9035870000.0 9035840000.0 9035820000.0 9035800000.0 9035790000.0 9035780000.0 9035780000.0 9035770000.0 9035770000.0 9035760000.0 9035760000.0 9035760000.0 9035760000.0 9035760000.0 9035760000.0 9035760000.0 9035750000.0 9035750000.0 9035750000.0 9035750000.0 9035750000.0 9035750000.0 9035750000.0 9035750000.0 9035750000.0 9035760000.0 9035760000.0 9035760000.0 9035760000.0 9035760000.0 9035760000.0 9035760000.0 9035770000.0 9035770000.0 9035780000.0 9035780000.0 9035790000.0 9035800000.0 9035820000.0 9035840000.0 9035870000.0 9035910000.0 9035960000.0 9036040000.0 9036140000.0 9036290000.0 9041540000.0 9037300000.0 9162090000.0 9044770000.0 9554630000.0 9073260000.0 9912760000.0 9547360000.0 10517800000.0 10722400000.0 11755500000.0 12043400000.0 11457800000.0 11225900000.0 10381400000.0 10216700000.0 9433510000.0 9709880000.0 9063170000.0 9429340000.0 9042260000.0 9126440000.0 9036910000.0 9039580000.0 9036190000.0 9036070000.0 9035980000.0 9035920000.0 9035880000.0 9035850000.0 9035820000.0 9035810000.0 9035790000.0 9035780000.0 9035780000.0 9035770000.0 9035770000.0 9035770000.0 9035760000.0 9035760000.0 9035760000.0 9035760000.0 9035760000.0 9035760000.0 9035750000.0 9035750000.0 9035750000.0 9035750000.0 9035750000.0 9035750000.0 9035750000.0 9035750000.0 9035750000.0 9035750000.0 9035750000.0 9035760000.0 9035760000.0 9035760000.0 9035760000.0 9035760000.0 9035760000.0 9035770000.0 9035770000.0 9035770000.0 9035780000.0 9035780000.0 9035790000.0 9035810000.0 9035820000.0 9035850000.0 9035880000.0 9035920000.0 9035980000.0 9036070000.0 9036190000.0 9039580000.0 9036910000.0 9126440000.0 9042260000.0 9429340000.0 9063170000.0 9709880000.0 9433510000.0 10216700000.0 10381400000.0 11225900000.0 11457800000.0 10892800000.0 10715100000.0 10059800000.0 9933400000.0 9331930000.0 9532950000.0 9055130000.0 9322710000.0 9040310000.0 9098770000.0 9036600000.0 9038230000.0 9036090000.0 9036000000.0 9035930000.0 9035880000.0 9035850000.0 9035820000.0 9035810000.0 9035790000.0 9035780000.0 9035780000.0 9035770000.0 9035770000.0 9035760000.0 9035760000.0 9035760000.0 9035760000.0 9035760000.0 9035760000.0 9035760000.0 9035750000.0 9035750000.0 9035750000.0 9035750000.0 9035750000.0 9035750000.0 9035750000.0 9035750000.0 9035750000.0 9035750000.0 9035750000.0 9035750000.0 9035750000.0 9035760000.0 9035760000.0 9035760000.0 9035760000.0 9035760000.0 9035760000.0 9035760000.0 9035770000.0 9035770000.0 9035780000.0 9035780000.0 9035790000.0 9035810000.0 9035820000.0 9035850000.0 9035880000.0 9035930000.0 9036000000.0 9036090000.0 9038230000.0 9036600000.0 9098770000.0 9040310000.0 9322710000.0 9055130000.0 9532950000.0 9331930000.0 9933400000.0 10059800000.0 10715100000.0 10892800000.0 10343900000.0 10218700000.0 9753000000.0 9663890000.0 9239730000.0 9375650000.0 9048570000.0 9230120000.0 9038740000.0 9076810000.0 9036320000.0 9037280000.0 9035990000.0 9035920000.0 9035880000.0 9035840000.0 9035820000.0 9035800000.0 9035790000.0 9035780000.0 9035780000.0 9035770000.0 9035770000.0 9035760000.0 9035760000.0 9035760000.0 9035760000.0 9035760000.0 9035760000.0 9035760000.0 9035750000.0 9035750000.0 9035750000.0 9035750000.0 9035750000.0 9035750000.0 9035750000.0 9035750000.0 9035750000.0 9035750000.0 9035750000.0 9035750000.0 9035750000.0 9035750000.0 9035750000.0 9035760000.0 9035760000.0 9035760000.0 9035760000.0 9035760000.0 9035760000.0 9035760000.0 9035770000.0 9035770000.0 9035780000.0 9035780000.0 9035790000.0 9035800000.0 9035820000.0 9035840000.0 9035880000.0 9035920000.0 9035990000.0 9037280000.0 9036320000.0 9076810000.0 9038740000.0 9230120000.0 9048570000.0 9375650000.0 9239730000.0 9663890000.0 9753000000.0 10218700000.0 10343900000.0 9806430000.0 9732700000.0 9456740000.0 9404190000.0 9154130000.0 9232020000.0 9042980000.0 9147280000.0 9037430000.0 9058690000.0 9036080000.0 9036570000.0 9035890000.0 9035850000.0 9035830000.0 9035810000.0 9035790000.0 9035780000.0 9035780000.0 9035770000.0 9035770000.0 9035760000.0 9035760000.0 9035760000.0 9035760000.0 9035760000.0 9035760000.0 9035760000.0 9035750000.0 9035750000.0 9035750000.0 9035750000.0 9035750000.0 9035750000.0 9035750000.0 9035750000.0 9035750000.0 9035750000.0 9035750000.0 9035750000.0 9035750000.0 9035750000.0 9035750000.0 9035750000.0 9035750000.0 9035750000.0 9035750000.0 9035760000.0 9035760000.0 9035760000.0 9035760000.0 9035760000.0 9035760000.0 9035760000.0 9035770000.0 9035770000.0 9035780000.0 9035780000.0 9035790000.0 9035810000.0 9035830000.0 9035850000.0 9035890000.0 9036570000.0 9036080000.0 9058690000.0 9037430000.0 9147280000.0 9042980000.0 9232020000.0 9154130000.0 9404190000.0 9456740000.0 9732700000.0 9806430000.0 9275780000.0 9252820000.0 9166680000.0 9150300000.0 9072400000.0 9096390000.0 9037970000.0 9070120000.0 9036260000.0 9042740000.0 9035850000.0 9036000000.0 9035800000.0 9035780000.0 9035780000.0 9035770000.0 9035770000.0 9035760000.0 9035760000.0 9035760000.0 9035760000.0 9035760000.0 9035760000.0 9035750000.0 9035750000.0 9035750000.0 9035750000.0 9035750000.0 9035750000.0 9035750000.0 9035750000.0 9035750000.0 9035750000.0 9035750000.0 9035750000.0 9035750000.0 9035750000.0 9035750000.0 9035750000.0 9035750000.0 9035750000.0 9035750000.0 9035750000.0 9035750000.0 9035750000.0 9035750000.0 9035750000.0 9035750000.0 9035750000.0 9035750000.0 9035750000.0 9035750000.0 9035760000.0 9035760000.0 9035760000.0 9035760000.0 9035760000.0 9035760000.0 9035770000.0 9035770000.0 9035780000.0 9035780000.0 9035800000.0 9036000000.0 9035850000.0 9042740000.0 9036260000.0 9070120000.0 9037970000.0 9096390000.0 9072400000.0 9150300000.0 9166680000.0 9252820000.0 9275780000.0 