# vtk DataFile Version 2.0
Time step 118
ASCII
DATASET UNSTRUCTURED_GRID
POINTS 4650 float
208336.0 221363.0 0
215328.0 221246.0 0
247566.0 220479.0 0
296066.0 220847.0 0
204926.0 223449.0 0
211867.0 223241.0 0
219251.0 222006.0 0
222853.0 223734.0 0
237098.0 222627.0 0
244130.0 222511.0 0
251053.0 222431.0 0
257949.0 222378.0 0
285609.0 222585.0 0
292536.0 222721.0 0
299770.0 223549.0 0
200407.0 225622.0 0
208475.0 225351.0 0
215473.0 225228.0 0
219397.0 225994.0 0
226674.0 224891.0 0
230228.0 226716.0 0
233656.0 224662.0 0
237284.0 226602.0 0
240693.0 224538.0 0
244213.0 226491.0 0
247624.0 224464.0 0
251094.0 226422.0 0
254516.0 224401.0 0
257970.0 226374.0 0
261409.0 224359.0 0
264851.0 226348.0 0
271710.0 226365.0 0
275187.0 224406.0 0
278622.0 226445.0 0
282111.0 224513.0 0
285540.0 226571.0 0
289036.0 224642.0 0
292465.0 226704.0 0
295986.0 224828.0 0
200509.0 229610.0 0
204010.0 227331.0 0
207518.0 229210.0 0
212014.0 227224.0 0
215803.0 229184.0 0
223014.0 227722.0 0
226842.0 228864.0 0
233859.0 228636.0 0
240820.0 228516.0 0
247687.0 228445.0 0
254547.0 228390.0 0
261408.0 228353.0 0
268267.0 228355.0 0
275144.0 228394.0 0
282050.0 228496.0 0
288971.0 228623.0 0
295931.0 228795.0 0
299725.0 227546.0 0
204118.0 231308.0 0
211028.0 231069.0 0
219709.0 229960.0 0
223280.0 231702.0 0
230448.0 230683.0 0
237456.0 230558.0 0
244298.0 230466.0 0
251140.0 230405.0 0
257983.0 230362.0 0
264827.0 230343.0 0
271685.0 230358.0 0
278569.0 230427.0 0
285480.0 230544.0 0
292410.0 230670.0 0
299674.0 231541.0 0
200206.0 233578.0 0
207632.0 233172.0 0
214532.0 232932.0 0
218417.0 233713.0 0
227090.0 232806.0 0
230797.0 234621.0 0
234112.0 232586.0 0
237590.0 234517.0 0
240933.0 232489.0 0
244385.0 234438.0 0
247752.0 232422.0 0
251185.0 234383.0 0
254575.0 232372.0 0
257991.0 234344.0 0
261401.0 232340.0 0
264805.0 234324.0 0
268237.0 232338.0 0
271638.0 234333.0 0
275098.0 232372.0 0
278510.0 234390.0 0
281993.0 232466.0 0
285420.0 234501.0 0
288914.0 232583.0 0
292354.0 234619.0 0
295869.0 232746.0 0
203827.0 235261.0 0
207361.0 237108.0 0
211143.0 235021.0 0
214652.0 236873.0 0
221974.0 235460.0 0
227530.0 236682.0 0
234273.0 236543.0 0
241039.0 236457.0 0
247814.0 236394.0 0
254599.0 236349.0 0
261392.0 236319.0 0
268197.0 236310.0 0
275029.0 236330.0 0
281925.0 236417.0 0
288860.0 236524.0 0
296000.0 236683.0 0
301132.0 235258.0 0
200343.0 237542.0 0
203966.0 239209.0 0
210889.0 238938.0 0
218526.0 237673.0 0
224264.0 238663.0 0
230988.0 238577.0 0
237715.0 238478.0 0
244463.0 238407.0 0
251224.0 238355.0 0
257996.0 238319.0 0
264778.0 238297.0 0
271577.0 238295.0 0
278409.0 238327.0 0
285364.0 238436.0 0
292375.0 238550.0 0
299378.0 238836.0 0
200477.0 241495.0 0
207501.0 241042.0 0
214392.0 240781.0 0
221022.0 240687.0 0
227711.0 240606.0 0
234416.0 240502.0 0
237819.0 242439.0 0
241131.0 240422.0 0
244526.0 242371.0 0
247866.0 240362.0 0
251253.0 242322.0 0
254617.0 240320.0 0
257994.0 242287.0 0
261378.0 240291.0 0
264745.0 242263.0 0
268150.0 240275.0 0
271509.0 242252.0 0
274943.0 240280.0 0
278288.0 242267.0 0
281758.0 240332.0 0
285084.0 242329.0 0
288854.0 240440.0 0
292295.0 242465.0 0
295806.0 240601.0 0
200085.0 245419.0 0
204116.0 243138.0 0
207705.0 244955.0 0
211037.0 242859.0 0
214521.0 244734.0 0
217784.0 242706.0 0
221198.0 244631.0 0
224449.0 242610.0 0
227863.0 244539.0 0
231134.0 242525.0 0
234526.0 244457.0 0
241201.0 244382.0 0
247904.0 244324.0 0
254626.0 244284.0 0
261358.0 244255.0 0
268099.0 244234.0 0
274851.0 244228.0 0
281614.0 244256.0 0
288387.0 244310.0 0
295936.0 244508.0 0
300238.0 242723.0 0
204344.0 247038.0 0
211279.0 246770.0 0
217956.0 246651.0 0
224605.0 246541.0 0
231248.0 246470.0 0
237892.0 246395.0 0
244568.0 246328.0 0
251270.0 246280.0 0
257985.0 246247.0 0
264708.0 246222.0 0
271439.0 246203.0 0
278178.0 246204.0 0
284924.0 246239.0 0
291656.0 246293.0 0
299341.0 246585.0 0
201029.0 249224.0 0
208098.0 248823.0 0
214743.0 248676.0 0
221363.0 248560.0 0
227987.0 248472.0 0
234598.0 248408.0 0
241242.0 248335.0 0
244586.0 250272.0 0
247924.0 248275.0 0
251273.0 250226.0 0
254625.0 248238.0 0
257969.0 250198.0 0
261333.0 248211.0 0
264669.0 250173.0 0
268046.0 248187.0 0
271373.0 250148.0 0
274766.0 248170.0 0
278084.0 250135.0 0
281492.0 248179.0 0
284794.0 250152.0 0
288212.0 248218.0 0
291480.0 250199.0 0
294892.0 248259.0 0
298018.0 250301.0 0
201977.0 252992.0 0
204962.0 250861.0 0
208402.0 252734.0 0
211566.0 250704.0 0
214995.0 252622.0 0
218160.0 250594.0 0
221541.0 252492.0 0
224743.0 250456.0 0
228072.0 252411.0 0
231322.0 250416.0 0
234617.0 252357.0 0
237926.0 250344.0 0
241252.0 252273.0 0
247925.0 252212.0 0
254613.0 252180.0 0
261304.0 252158.0 0
267996.0 252131.0 0
274692.0 252104.0 0
281394.0 252097.0 0
288085.0 252126.0 0
294713.0 252200.0 0
205268.0 254794.0 0
211817.0 254630.0 0
218416.0 254545.0 0
224871.0 254362.0 0
231310.0 254373.0 0
237920.0 254277.0 0
244577.0 254198.0 0
251260.0 254157.0 0
257946.0 254137.0 0
264630.0 254114.0 0
271315.0 254082.0 0
278007.0 254055.0 0
284699.0 254058.0 0
291366.0 254108.0 0
298013.0 254173.0 0
201986.0 256784.0 0
208620.0 256642.0 0
215240.0 256543.0 0
221855.0 256448.0 0
227994.0 256399.0 0
234587.0 256284.0 0
241227.0 256191.0 0
244541.0 258099.0 0
247904.0 256128.0 0
251232.0 258068.0 0
254591.0 256107.0 0
257916.0 258061.0 0
261271.0 256093.0 0
264591.0 258044.0 0
267949.0 256064.0 0
271266.0 258004.0 0
274632.0 256025.0 0
277950.0 257959.0 0
281321.0 256002.0 0
284639.0 257947.0 0
288004.0 256021.0 0
291324.0 257980.0 0
294675.0 256078.0 0
298012.0 258021.0 0
201988.0 260556.0 0
205340.0 258628.0 0
208723.0 260479.0 0
212013.0 258519.0 0
215447.0 260407.0 0
218698.0 258449.0 0
222286.0 260280.0 0
226150.0 259784.0 0
231247.0 258292.0 0
234512.0 260181.0 0
237874.0 258186.0 0
241168.0 260083.0 0
247862.0 260018.0 0
254557.0 260016.0 0
261237.0 260015.0 0
267908.0 259985.0 0
274586.0 259930.0 0
281275.0 259886.0 0
287968.0 259888.0 0
294663.0 259925.0 0
205374.0 262412.0 0
212135.0 262343.0 0
218939.0 262268.0 0
229599.0 261737.0 0
237787.0 262066.0 0
244475.0 261964.0 0
251188.0 261954.0 0
257880.0 261969.0 0
264554.0 261961.0 0
271227.0 261910.0 0
277914.0 261843.0 0
284612.0 261809.0 0
291311.0 261823.0 0
298012.0 261852.0 0
201989.0 264310.0 0
208776.0 264262.0 0
215577.0 264206.0 0
222397.0 264146.0 0
226216.0 263668.0 0
229633.0 265613.0 0
233034.0 263693.0 0
236468.0 265634.0 0
241069.0 263946.0 0
244374.0 265776.0 0
247799.0 263875.0 0
251129.0 265812.0 0
254513.0 263902.0 0
257837.0 265858.0 0
261200.0 263921.0 0
264519.0 265863.0 0
267873.0 263891.0 0
271201.0 265797.0 0
274556.0 263815.0 0
277902.0 265700.0 0
281256.0 263745.0 0
284613.0 265643.0 0
287961.0 263728.0 0
291318.0 265645.0 0
294663.0 263750.0 0
298013.0 265670.0 0
201989.0 268049.0 0
205387.0 266163.0 0
208787.0 268009.0 0
212192.0 266115.0 0
215608.0 267977.0 0
219015.0 266080.0 0
222433.0 267988.0 0
226240.0 267534.0 0
233047.0 267548.0 0
239907.0 267568.0 0
247716.0 267691.0 0
254459.0 267765.0 0
261159.0 267811.0 0
267845.0 267780.0 0
274547.0 267675.0 0
281267.0 267574.0 0
287980.0 267544.0 0
294672.0 267561.0 0
205378.0 269895.0 0
212182.0 269857.0 0
219014.0 269865.0 0
229635.0 269475.0 0
236471.0 269468.0 0
244240.0 269492.0 0
251058.0 269639.0 0
257786.0 269726.0 0
264484.0 269750.0 0
271191.0 269662.0 0
277920.0 269526.0 0
284648.0 269451.0 0
291344.0 269450.0 0
298014.0 269479.0 0
201988.0 271782.0 0
205352.0 273624.0 0
208752.0 271736.0 0
212100.0 273576.0 0
215567.0 271719.0 0
218943.0 273616.0 0
222408.0 271790.0 0
226225.0 271395.0 0
229618.0 273320.0 0
233043.0 271385.0 0
237488.0 273097.0 0
240837.0 271249.0 0
244223.0 273268.0 0
247629.0 271468.0 0
250981.0 273442.0 0
254393.0 271603.0 0
257718.0 273574.0 0
261111.0 271684.0 0
264441.0 273620.0 0
267825.0 271647.0 0
271204.0 273497.0 0
274569.0 271506.0 0
277991.0 273312.0 0
281321.0 271372.0 0
284734.0 273236.0 0
288030.0 271341.0 0
291388.0 273248.0 0
294691.0 271364.0 0
298016.0 273284.0 0
201986.0 275516.0 0
208687.0 275464.0 0
215404.0 275421.0 0
222339.0 275540.0 0
226194.0 275261.0 0
234179.0 274967.0 0
240862.0 275068.0 0
247579.0 275257.0 0
254307.0 275422.0 0
261038.0 275539.0 0
267801.0 275481.0 0
274647.0 275295.0 0
281462.0 275132.0 0
288108.0 275134.0 0
294717.0 275166.0 0
205318.0 277358.0 0
211981.0 277308.0 0
218621.0 277287.0 0
227708.0 278755.0 0
230915.0 276851.0 0
234269.0 278789.0 0
237545.0 276916.0 0
240871.0 278886.0 0
244205.0 277065.0 0
250901.0 277244.0 0
257608.0 277406.0 0
264368.0 277476.0 0
271233.0 277277.0 0
275113.0 278957.0 0
278231.0 277031.0 0
281653.0 278908.0 0
284859.0 277020.0 0
288201.0 278934.0 0
291444.0 277049.0 0
294746.0 278972.0 0
298018.0 277089.0 0
201983.0 279254.0 0
205284.0 281101.0 0
208614.0 279205.0 0
211868.0 281063.0 0
215216.0 279168.0 0
218391.0 281053.0 0
221723.0 279154.0 0
224765.0 280911.0 0
231045.0 280691.0 0
237579.0 280742.0 0
244164.0 280872.0 0
247516.0 279055.0 0
250790.0 281051.0 0
254190.0 279238.0 0
257438.0 281242.0 0
260885.0 279373.0 0
264127.0 281305.0 0
267771.0 279260.0 0
272095.0 280846.0 0
278516.0 280814.0 0
284994.0 280823.0 0
291502.0 280858.0 0
298019.0 280898.0 0
201981.0 282996.0 0
208551.0 282958.0 0
215083.0 282940.0 0
221552.0 282927.0 0
227938.0 282694.0 0
234332.0 282628.0 0
240854.0 282709.0 0
247422.0 282863.0 0
254020.0 283060.0 0
260636.0 283226.0 0
269131.0 282652.0 0
275436.0 282733.0 0
281834.0 282723.0 0
288289.0 282749.0 0
294773.0 282784.0 0
201980.0 286739.0 0
205256.0 284849.0 0
208506.0 286711.0 0
211788.0 284826.0 0
215010.0 286704.0 0
218283.0 284824.0 0
221498.0 286681.0 0
224750.0 284726.0 0
227947.0 286541.0 0
231145.0 284570.0 0
234358.0 286478.0 0
237585.0 284575.0 0
240810.0 286537.0 0
244096.0 284690.0 0
247299.0 286684.0 0
250634.0 284866.0 0
257182.0 285104.0 0
263107.0 285912.0 0
266158.0 284334.0 0
269293.0 286427.0 0
272377.0 284619.0 0
275605.0 286541.0 0
278713.0 284635.0 0
281958.0 286553.0 0
285109.0 284647.0 0
288358.0 286573.0 0
291552.0 284676.0 0
294794.0 286600.0 0
298021.0 284709.0 0
205237.0 288595.0 0
211740.0 288581.0 0
218232.0 288574.0 0
224711.0 288506.0 0
231140.0 288408.0 0
237559.0 288411.0 0
244003.0 288517.0 0
250448.0 288706.0 0
253779.0 286899.0 0
256749.0 289067.0 0
259969.0 287465.0 0
266157.0 288122.0 0
272476.0 288403.0 0
278819.0 288459.0 0
285185.0 288476.0 0
291589.0 288497.0 0
298022.0 288520.0 0
201978.0 290476.0 0
208478.0 290456.0 0
214968.0 290450.0 0
221453.0 290427.0 0
227909.0 290345.0 0
234325.0 290308.0 0
240740.0 290367.0 0
247158.0 290520.0 0
253508.0 290798.0 0
259766.0 291318.0 0
262975.0 289732.0 0
266097.0 291874.0 0
269305.0 290184.0 0
275666.0 290341.0 0
282022.0 290379.0 0
288400.0 290398.0 0
294809.0 290414.0 0
201977.0 294203.0 0
205224.0 292331.0 0
208459.0 294188.0 0
211710.0 292321.0 0
214935.0 294183.0 0
218192.0 292313.0 0
221406.0 294166.0 0
224662.0 292269.0 0
227852.0 294124.0 0
231092.0 292217.0 0
234262.0 294118.0 0
237497.0 292236.0 0
240650.0 294190.0 0
243895.0 292348.0 0
247016.0 294362.0 0
250260.0 292569.0 0
253339.0 294663.0 0
256555.0 292954.0 0
262871.0 293503.0 0
269265.0 293923.0 0
272482.0 292168.0 0
275663.0 294120.0 0
278853.0 292268.0 0
282038.0 294190.0 0
285220.0 292299.0 0
288415.0 294212.0 0
291608.0 292312.0 0
294815.0 294219.0 0
298023.0 292323.0 0
205214.0 296054.0 0
211685.0 296047.0 0
218152.0 296041.0 0
224606.0 296020.0 0
231026.0 296004.0 0
237414.0 296045.0 0
243780.0 296174.0 0
250116.0 296412.0 0
256433.0 296784.0 0
259649.0 295126.0 0
262791.0 297257.0 0
266029.0 295609.0 0
272446.0 295917.0 0
278842.0 296056.0 0
285221.0 296106.0 0
291611.0 296116.0 0
298023.0 296115.0 0
201976.0 297919.0 0
205205.0 299765.0 0
208442.0 297907.0 0
211661.0 299760.0 0
214904.0 297904.0 0
218111.0 299761.0 0
221357.0 297898.0 0
224545.0 299760.0 0
227786.0 297886.0 0
230949.0 299773.0 0
234182.0 297908.0 0
237322.0 299838.0 0
240549.0 298000.0 0
246892.0 298187.0 0
253217.0 298488.0 0
259559.0 298904.0 0
265960.0 299337.0 0
269208.0 297652.0 0
272391.0 299653.0 0
275627.0 297881.0 0
278804.0 299827.0 0
282020.0 297982.0 0
285197.0 299895.0 0
288407.0 298010.0 0
291599.0 299901.0 0
294813.0 298008.0 0
298024.0 299887.0 0
201976.0 301621.0 0
208426.0 301612.0 0
214871.0 301614.0 0
221305.0 301621.0 0
227716.0 301634.0 0
234095.0 301682.0 0
240447.0 301793.0 0
243669.0 299982.0 0
246780.0 301988.0 0
249999.0 300225.0 0
253112.0 302279.0 0
256334.0 300575.0 0
262714.0 300996.0 0
269142.0 301373.0 0
275572.0 301629.0 0
281978.0 301757.0 0
288381.0 301789.0 0
294803.0 301775.0 0
205197.0 303462.0 0
211637.0 303461.0 0
218068.0 303471.0 0
224483.0 303488.0 0
230869.0 303527.0 0
237226.0 303613.0 0
243562.0 303769.0 0
249891.0 304010.0 0
256238.0 304336.0 0
259473.0 302656.0 0
262630.0 304719.0 0
265886.0 303055.0 0
269065.0 305085.0 0
272324.0 303380.0 0
278747.0 303584.0 0
285154.0 303665.0 0
291575.0 303663.0 0
298023.0 303635.0 0
201975.0 305311.0 0
205188.0 307146.0 0
208409.0 305304.0 0
211612.0 307151.0 0
214837.0 305313.0 0
218025.0 307171.0 0
221252.0 305334.0 0
224419.0 307206.0 0
227643.0 305369.0 0
230787.0 307266.0 0
234006.0 305439.0 0
237130.0 307370.0 0
240345.0 305565.0 0
243456.0 307534.0 0
246672.0 305763.0 0
253007.0 306040.0 0
259378.0 306387.0 0
265798.0 306760.0 0
272244.0 307095.0 0
275503.0 305365.0 0
278676.0 307330.0 0
281920.0 305517.0 0
285096.0 307420.0 0
288339.0 305547.0 0
291541.0 307399.0 0
294788.0 305516.0 0
298023.0 307354.0 0
201974.0 308988.0 0
208392.0 308984.0 0
214803.0 309002.0 0
221198.0 309036.0 0
227570.0 309091.0 0
233917.0 309179.0 0
240243.0 309317.0 0
246561.0 309516.0 0
249781.0 307768.0 0
252892.0 309778.0 0
256131.0 308071.0 0
259263.0 310097.0 0
262529.0 308425.0 0
268971.0 308783.0 0
275420.0 309089.0 0
281847.0 309266.0 0
288285.0 309282.0 0
294768.0 309225.0 0
201973.0 312651.0 0
205179.0 310817.0 0
208376.0 312652.0 0
211586.0 310828.0 0
214768.0 312678.0 0
217981.0 310860.0 0
221144.0 312727.0 0
224356.0 310911.0 0
227498.0 312800.0 0
230706.0 310990.0 0
233827.0 312905.0 0
237033.0 311109.0 0
243347.0 311279.0 0
249663.0 311506.0 0
256005.0 311787.0 0
262398.0 312113.0 0
265686.0 310449.0 0
268848.0 312462.0 0
272144.0 310795.0 0
275316.0 312799.0 0
278590.0 311066.0 0
285023.0 311159.0 0
291498.0 311104.0 0
294744.0 312897.0 0
298022.0 311037.0 0
205171.0 314475.0 0
211561.0 314493.0 0
217938.0 314537.0 0
224293.0 314605.0 0
230625.0 314701.0 0
236936.0 314833.0 0
240139.0 313053.0 0
243235.0 315008.0 0
246445.0 313251.0 0
249536.0 315229.0 0
252763.0 313499.0 0
255858.0 315490.0 0
259118.0 313791.0 0
265536.0 314118.0 0
272012.0 314472.0 0
278483.0 314793.0 0
281758.0 313005.0 0
284936.0 314884.0 0
288218.0 312994.0 0
291448.0 314775.0 0
298021.0 314681.0 0
201972.0 316301.0 0
205162.0 318120.0 0
208359.0 316306.0 0
214735.0 316343.0 0
221092.0 316407.0 0
227427.0 316496.0 0
233738.0 316616.0 0
240033.0 316773.0 0
246322.0 316972.0 0
252619.0 317209.0 0
258944.0 317477.0 0
262226.0 315784.0 0
265324.0 317766.0 0
268676.0 316116.0 0
275178.0 316487.0 0
281651.0 316738.0 0
288144.0 316678.0 0
294719.0 316526.0 0
302245.0 318264.0 0
201971.0 319936.0 0
208343.0 319947.0 0
211537.0 318146.0 0
214703.0 319995.0 0
217896.0 318203.0 0
221042.0 320075.0 0
224232.0 318288.0 0
227357.0 320181.0 0
230545.0 318399.0 0
233649.0 320315.0 0
236838.0 318543.0 0
239924.0 320481.0 0
243118.0 318723.0 0
246192.0 320681.0 0
249399.0 318941.0 0
255692.0 319188.0 0
262015.0 319455.0 0
268401.0 319735.0 0
271819.0 318114.0 0
274976.0 320130.0 0
278347.0 318508.0 0
281534.0 320464.0 0
284842.0 318597.0 0
288082.0 320330.0 0
291401.0 318403.0 0
294701.0 320107.0 0
298021.0 318282.0 0
205154.0 321750.0 0
211514.0 321785.0 0
217856.0 321857.0 0
224173.0 321958.0 0
230466.0 322086.0 0
236738.0 322242.0 0
242998.0 322428.0 0
249254.0 322645.0 0
252464.0 320913.0 0
255515.0 322887.0 0
258749.0 321165.0 0
261785.0 323138.0 0
265062.0 321423.0 0
268071.0 323380.0 0
271442.0 321685.0 0
278165.0 322197.0 0
284783.0 322296.0 0
291374.0 321984.0 0
298021.0 321841.0 0
201970.0 323556.0 0
205147.0 325364.0 0
208329.0 323574.0 0
211493.0 325410.0 0
214673.0 323635.0 0
217819.0 325498.0 0
220994.0 323731.0 0
224117.0 325618.0 0
227289.0 323854.0 0
230388.0 325762.0 0
233560.0 324003.0 0
236638.0 325930.0 0
239813.0 324178.0 0
246058.0 324382.0 0
252302.0 324613.0 0
258546.0 324862.0 0
264790.0 325108.0 0
271020.0 325332.0 0
274401.0 323615.0 0
277143.0 325556.0 0
281491.0 324161.0 0
284833.0 326007.0 0
288069.0 323952.0 0
291396.0 325518.0 0
294700.0 323640.0 0
298024.0 325365.0 0
302175.0 326349.0 0
201969.0 327160.0 0
208316.0 327185.0 0
214646.0 327260.0 0
220950.0 327375.0 0
227224.0 327518.0 0
233471.0 327681.0 0
239700.0 327866.0 0
242874.0 326123.0 0
245919.0 328076.0 0
249104.0 326343.0 0
252135.0 328310.0 0
255333.0 326586.0 0
261555.0 326838.0 0
267754.0 327079.0 0
273872.0 327303.0 0
279873.0 327292.0 0
282701.0 328848.0 0
288147.0 327560.0 0
294766.0 327130.0 0
201969.0 330747.0 0
205141.0 328963.0 0
208304.0 330779.0 0
211474.0 329020.0 0
214621.0 330871.0 0
217785.0 329126.0 0
220909.0 331007.0 0
224065.0 329266.0 0
230313.0 329429.0 0
236537.0 329610.0 0
242746.0 329811.0 0
248949.0 330035.0 0
255149.0 330284.0 0
258345.0 328564.0 0
261336.0 330548.0 0
264535.0 328820.0 0
267486.0 330810.0 0
270670.0 329063.0 0
273593.0 331032.0 0
276740.0 329234.0 0
279702.0 331001.0 0
285588.0 330426.0 0
291606.0 328986.0 0
294913.0 330640.0 0
298031.0 328886.0 0
205135.0 332543.0 0
211458.0 332613.0 0
217755.0 332740.0 0
224017.0 332904.0 0
227163.0 331171.0 0
230242.0 333089.0 0
233384.0 331352.0 0
236436.0 333284.0 0
239584.0 331547.0 0
242613.0 333492.0 0
245775.0 331762.0 0
248787.0 333721.0 0
251963.0 332002.0 0
258147.0 332265.0 0
264309.0 332540.0 0
270437.0 332794.0 0
276582.0 332922.0 0
282717.0 332663.0 0
285706.0 334437.0 0
288714.0 331090.0 0
291966.0 332511.0 0
298038.0 332448.0 0
201968.0 334316.0 0
205130.0 336105.0 0
208294.0 334356.0 0
211443.0 336188.0 0
214600.0 334465.0 0
217730.0 336338.0 0
220874.0 334626.0 0
227106.0 334816.0 0
233300.0 335017.0 0
239467.0 335224.0 0
245624.0 335443.0 0
251784.0 335686.0 0
254963.0 333976.0 0
257951.0 335958.0 0
261132.0 334255.0 0
264111.0 336249.0 0
267277.0 334533.0 0
270260.0 336504.0 0
273423.0 334733.0 0
276447.0 336590.0 0
279626.0 334695.0 0
282658.0 336451.0 0
288967.0 334354.0 0
295023.0 334249.0 0
298041.0 336042.0 0
197757.0 337891.0 0
201967.0 337865.0 0
208285.0 337913.0 0
214582.0 338042.0 0
220843.0 338232.0 0
223975.0 336531.0 0
227056.0 338453.0 0
230175.0 336741.0 0
233220.0 338678.0 0
236337.0 336954.0 0
239349.0 338899.0 0
242477.0 337170.0 0
248616.0 337400.0 0
254768.0 337657.0 0
260933.0 337946.0 0
267095.0 338236.0 0
273262.0 338421.0 0
279472.0 338380.0 0
285536.0 338448.0 0
288715.0 337560.0 0
291999.0 336065.0 0
294985.0 337845.0 0
201966.0 341393.0 0
205125.0 339647.0 0
208277.0 341450.0 0
211431.0 339744.0 0
217708.0 339920.0 0
223938.0 340146.0 0
230114.0 340389.0 0
236241.0 340625.0 0
242337.0 340850.0 0
245464.0 339122.0 0
248429.0 341076.0 0
251590.0 339360.0 0
254550.0 341324.0 0
257743.0 339633.0 0
263916.0 339935.0 0
270085.0 340203.0 0
276266.0 340269.0 0
279239.0 342095.0 0
282416.0 340237.0 0
285339.0 342250.0 0
291778.0 339514.0 0
294878.0 341334.0 0
298038.0 339595.0 0
205121.0 343167.0 0
211420.0 343279.0 0
214567.0 341600.0 0
217689.0 343483.0 0
220818.0 341822.0 0
223908.0 343749.0 0
227012.0 342080.0 0
230061.0 344032.0 0
233147.0 342338.0 0
239234.0 342578.0 0
245297.0 342804.0 0
251371.0 343030.0 0
257501.0 343286.0 0
260717.0 341612.0 0
263694.0 343595.0 0
266903.0 341923.0 0
269884.0 343908.0 0
273071.0 342120.0 0
276044.0 343973.0 0
282203.0 343971.0 0
288492.0 340938.0 0
291635.0 342932.0 0
298034.0 343076.0 0
201966.0 344902.0 0
205116.0 346667.0 0
208269.0 344965.0 0
214553.0 345137.0 0
220795.0 345395.0 0
226975.0 345698.0 0
233081.0 345998.0 0
236151.0 344298.0 0
239122.0 346265.0 0
242196.0 344537.0 0
245126.0 346499.0 0
248228.0 344758.0 0
251127.0 346710.0 0
254289.0 344980.0 0
260448.0 345248.0 0
266675.0 345589.0 0
272848.0 345842.0 0
279028.0 345795.0 0
285232.0 345912.0 0
288405.0 344415.0 0
291585.0 346356.0 0
294820.0 344766.0 0
298031.0 346512.0 0
201965.0 348390.0 0
208259.0 348458.0 0
211409.0 346792.0 0
214537.0 348651.0 0
217672.0 347025.0 0
220774.0 348947.0 0
223881.0 347335.0 0
226942.0 349304.0 0
230014.0 347669.0 0
236068.0 347976.0 0
242059.0 348239.0 0
248019.0 348460.0 0
253991.0 348652.0 0
257183.0 346919.0 0
260045.0 348841.0 0
263400.0 347214.0 0
266370.0 349208.0 0
269646.0 347624.0 0
272621.0 349577.0 0
275831.0 347676.0 0
278893.0 349444.0 0
282070.0 347626.0 0
285184.0 349486.0 0
288367.0 347897.0 0
294803.0 348177.0 0
201964.0 351862.0 0
205109.0 350145.0 0
208247.0 351930.0 0
211395.0 350282.0 0
217652.0 350545.0 0
223855.0 350903.0 0
229973.0 351299.0 0
233022.0 349658.0 0
235992.0 351661.0 0
239018.0 349964.0 0
241927.0 351959.0 0
244955.0 350215.0 0
250872.0 350417.0 0
256814.0 350579.0 0
262859.0 350735.0 0
269356.0 351332.0 0
275709.0 351336.0 0
282022.0 351212.0 0
288364.0 351362.0 0
291573.0 349776.0 0
294802.0 351579.0 0
298031.0 349927.0 0
205101.0 353606.0 0
211376.0 353750.0 0
214518.0 352141.0 0
217626.0 354039.0 0
220750.0 352476.0 0
223827.0 354448.0 0
226911.0 352894.0 0
232969.0 353317.0 0
238920.0 353677.0 0
244790.0 353958.0 0
247809.0 352191.0 0
250618.0 354164.0 0
253681.0 352364.0 0
256441.0 354298.0 0
259585.0 352485.0 0
262286.0 354370.0 0
265575.0 352591.0 0
267966.0 354510.0 0
272544.0 353291.0 0
275812.0 354951.0 0
278881.0 353036.0 0
282047.0 354760.0 0
285187.0 353005.0 0
291583.0 353189.0 0
298031.0 353330.0 0
201963.0 355320.0 0
205089.0 357052.0 0
208230.0 355382.0 0
214491.0 355610.0 0
220719.0 355977.0 0
226877.0 356464.0 0
229934.0 354918.0 0
232917.0 356972.0 0
235922.0 355353.0 0
241801.0 355701.0 0
247605.0 355958.0 0
253378.0 356128.0 0
259149.0 356216.0 0
264842.0 356297.0 0
270456.0 356060.0 0
273234.0 357258.0 0
278973.0 356630.0 0
285227.0 356494.0 0
288387.0 354808.0 0
291607.0 356595.0 0
294812.0 354976.0 0
298032.0 356724.0 0
201962.0 358772.0 0
208209.0 358818.0 0
211350.0 357198.0 0
214456.0 359056.0 0
217592.0 357508.0 0
220678.0 359448.0 0
223791.0 357965.0 0
229892.0 358523.0 0
235852.0 359049.0 0
238826.0 357404.0 0
241675.0 359467.0 0
244629.0 357732.0 0
247405.0 359763.0 0
250371.0 357954.0 0
253093.0 359940.0 0
256093.0 358079.0 0
261783.0 358144.0 0
264444.0 360038.0 0
267473.0 358154.0 0
270314.0 359656.0 0
276124.0 358742.0 0
282119.0 358295.0 0
288427.0 358239.0 0
294825.0 358368.0 0
201960.0 362224.0 0
205074.0 360488.0 0
208186.0 362240.0 0
211319.0 360630.0 0
217548.0 360951.0 0
223747.0 361448.0 0
226836.0 360008.0 0
229840.0 362108.0 0
232860.0 360620.0 0
238727.0 361146.0 0
244466.0 361536.0 0
250133.0 361786.0 0
255778.0 361909.0 0
258762.0 360021.0 0
261439.0 361933.0 0
267247.0 361762.0 0
273187.0 360979.0 0
276108.0 362390.0 0
279120.0 360272.0 0
282190.0 361825.0 0
285280.0 359963.0 0
288457.0 361654.0 0
291633.0 359993.0 0
294832.0 361754.0 0
298033.0 360107.0 0
205061.0 363914.0 0
211293.0 364049.0 0
214416.0 362486.0 0
217502.0 364371.0 0
220629.0 362883.0 0
226784.0 363523.0 0
232785.0 364258.0 0
235769.0 362749.0 0
238608.0 364902.0 0
241539.0 363257.0 0
247202.0 363603.0 0
252826.0 363791.0 0
258463.0 363844.0 0
264200.0 363741.0 0
267042.0 365382.0 0
270127.0 363241.0 0
273033.0 364586.0 0
279106.0 363821.0 0
285306.0 363413.0 0
291637.0 363378.0 0
294818.0 365121.0 0
298033.0 363466.0 0
201960.0 365679.0 0
205064.0 367323.0 0
208177.0 365645.0 0
211310.0 367456.0 0
214393.0 365904.0 0
217493.0 367773.0 0
220587.0 366278.0 0
223696.0 364894.0 0
226716.0 367010.0 0
229767.0 365673.0 0
235655.0 366450.0 0
241371.0 367070.0 0
244287.0 365372.0 0
246984.0 367473.0 0
249898.0 365652.0 0
252583.0 367664.0 0
255514.0 365760.0 0
258237.0 367664.0 0
261200.0 365704.0 0
264003.0 367444.0 0
269934.0 366823.0 0
275990.0 365922.0 0
279000.0 367279.0 0
282160.0 365292.0 0
285243.0 366819.0 0
288445.0 365051.0 0
291598.0 366738.0 0
298032.0 366769.0 0
201961.0 369155.0 0
205116.0 370689.0 0
208233.0 369020.0 0
214477.0 369315.0 0
220555.0 369637.0 0
223640.0 368307.0 0
229651.0 369223.0 0
232670.0 367888.0 0
238439.0 368671.0 0
244072.0 369232.0 0
249661.0 369538.0 0
255296.0 369613.0 0
261017.0 369473.0 0
266863.0 369019.0 0
269773.0 370391.0 0
272868.0 368122.0 0
275857.0 369376.0 0
282030.0 368696.0 0
285041.0 370182.0 0
288325.0 368405.0 0
291389.0 370031.0 0
294772.0 368448.0 0
298020.0 369974.0 0
200936.0 376351.0 0
201978.0 372759.0 0
208655.0 372261.0 0
211550.0 370825.0 0
214714.0 372802.0 0
217535.0 371206.0 0
220511.0 372966.0 0
223557.0 371700.0 0
226609.0 370481.0 0
232468.0 371515.0 0
235473.0 370153.0 0
238183.0 372445.0 0
241145.0 370899.0 0
243805.0 373106.0 0
246738.0 371362.0 0
252358.0 371538.0 0
258063.0 371479.0 0
260891.0 373246.0 0
263850.0 371160.0 0
266733.0 372665.0 0
272746.0 371602.0 0
278876.0 370691.0 0
278832.0 374105.0 0
281868.0 372101.0 0
284761.0 373593.0 0
287990.0 371712.0 0
290853.0 373260.0 0
294424.0 371655.0 0
298041.0 372929.0 0
198410.0 378280.0 0
203585.0 375770.0 0
206614.0 377142.0 0
205757.0 373756.0 0
212025.0 374229.0 0
217638.0 374772.0 0
223362.0 375107.0 0
226391.0 373963.0 0
228956.0 376350.0 0
229434.0 372776.0 0
235165.0 373855.0 0
240840.0 374730.0 0
246454.0 375255.0 0
249412.0 373426.0 0
252141.0 375397.0 0
255113.0 373455.0 0
257944.0 375282.0 0
263766.0 374894.0 0
269689.0 373929.0 0
275782.0 372777.0 0
275860.0 376134.0 0
281774.0 375594.0 0
287524.0 375090.0 0
292475.0 375631.0 0
295234.0 374488.0 0
300477.0 377566.0 0
193427.0 381384.0 0
195926.0 379823.0 0
201336.0 379365.0 0
204065.0 379204.0 0
209605.0 378946.0 0
209190.0 375498.0 0
212380.0 377565.0 0
215263.0 376443.0 0
220351.0 376273.0 0
225766.0 377495.0 0
231514.0 378734.0 0
232087.0 375145.0 0
234697.0 377521.0 0
237810.0 376200.0 0
243476.0 376979.0 0
249140.0 377299.0 0
254958.0 377268.0 0
260843.0 377022.0 0
266706.0 376302.0 0
269762.0 377409.0 0
272735.0 375025.0 0
272966.0 378384.0 0
278926.0 377576.0 0
284535.0 377161.0 0
286936.0 378880.0 0
289698.0 377010.0 0
292067.0 379192.0 0
294969.0 377760.0 0
298122.0 376112.0 0
300085.0 380114.0 0
303244.0 379296.0 0
306042.0 381052.0 0
191060.0 382866.0 0
195472.0 383212.0 0
198450.0 381480.0 0
201275.0 382123.0 0
204007.0 382570.0 0
206843.0 380579.0 0
209647.0 382373.0 0
212533.0 380989.0 0
215489.0 379767.0 0
218570.0 378701.0 0
221401.0 381455.0 0
222432.0 378550.0 0
228295.0 379868.0 0
234033.0 381121.0 0
237285.0 379897.0 0
240434.0 378532.0 0
243069.0 380826.0 0
246126.0 379145.0 0
248852.0 381147.0 0
251913.0 379215.0 0
254792.0 381018.0 0
257873.0 379053.0 0
260881.0 380776.0 0
263804.0 378647.0 0
266882.0 379886.0 0
270294.0 380761.0 0
276092.0 379487.0 0
279115.0 381147.0 0
281783.0 379243.0 0
284265.0 381040.0 0
289467.0 380689.0 0
294280.0 381260.0 0
297272.0 379570.0 0
300011.0 382565.0 0
303091.0 382196.0 0
308783.0 382750.0 0
186204.0 385897.0 0
188721.0 384329.0 0
192574.0 385075.0 0
198305.0 384509.0 0
201099.0 385085.0 0
206734.0 383883.0 0
212249.0 384498.0 0
215205.0 383265.0 0
218247.0 382163.0 0
224078.0 384044.0 0
224966.0 380854.0 0
227499.0 383295.0 0
230798.0 382289.0 0
236507.0 383484.0 0
239885.0 382259.0 0
245760.0 383019.0 0
251703.0 382989.0 0
257749.0 382745.0 0
264027.0 382382.0 0
267912.0 383102.0 0
271175.0 384319.0 0
273445.0 381824.0 0
276558.0 382838.0 0
281444.0 383160.0 0
284710.0 384638.0 0
287141.0 382579.0 0
291376.0 383023.0 0
294396.0 384533.0 0
297172.0 382779.0 0
303268.0 385051.0 0
305997.0 384252.0 0
308902.0 385673.0 0
311679.0 384565.0 0
314479.0 386308.0 0
183537.0 387560.0 0
186748.0 388671.0 0
189693.0 386883.0 0
192575.0 388130.0 0
195503.0 386238.0 0
198521.0 387691.0 0
203842.0 385966.0 0
206406.0 387106.0 0
209341.0 385804.0 0
214548.0 386825.0 0
217651.0 385692.0 0
220807.0 384798.0 0
226619.0 386632.0 0
229993.0 385804.0 0
233256.0 384731.0 0
235646.0 387161.0 0
238924.0 385761.0 0
242553.0 384594.0 0
248598.0 384953.0 0
254651.0 384736.0 0
260736.0 384403.0 0
263145.0 386547.0 0
265844.0 385176.0 0
268987.0 386796.0 0
274448.0 385315.0 0
278183.0 385462.0 0
281249.0 386387.0 0
283992.0 387667.0 0
286993.0 387709.0 0
288779.0 385181.0 0
291925.0 386465.0 0
297433.0 385919.0 0
300395.0 385028.0 0
303375.0 387744.0 0
306263.0 387483.0 0
311760.0 387702.0 0
317261.0 388057.0 0
177957.0 391043.0 0
180809.0 389263.0 0
183927.0 390465.0 0
189587.0 389941.0 0
192410.0 391145.0 0
195529.0 389170.0 0
198390.0 390866.0 0
201450.0 388268.0 0
204553.0 389658.0 0
208254.0 389266.0 0
211447.0 388054.0 0
213634.0 390313.0 0
216834.0 389208.0 0
220034.0 388235.0 0
223293.0 387404.0 0
225701.0 390019.0 0
229076.0 389237.0 0
232443.0 388367.0 0
237947.0 389492.0 0
241244.0 387871.0 0
243459.0 389843.0 0
245403.0 386854.0 0
248602.0 388668.0 0
251620.0 386725.0 0
254598.0 388501.0 0
257581.0 386440.0 0
260261.0 388288.0 0
266280.0 388502.0 0
272104.0 387898.0 0
275618.0 388343.0 0
278811.0 388961.0 0
281854.0 390030.0 0
285186.0 390748.0 0
289964.0 388790.0 0
292960.0 390020.0 0
295021.0 387873.0 0
298068.0 389277.0 0
300402.0 387740.0 0
304933.0 390485.0 0
309118.0 388651.0 0
307872.0 390950.0 0
311388.0 391048.0 0
314335.0 389340.0 0
317319.0 391075.0 0
320125.0 389833.0 0
323227.0 391771.0 0
175063.0 392848.0 0
178022.0 394002.0 0
180948.0 392169.0 0
183872.0 393442.0 0
186893.0 391784.0 0
189905.0 393175.0 0
195236.0 392033.0 0
201445.0 391036.0 0
203569.0 393060.0 0
206769.0 392120.0 0
210348.0 391416.0 0
215798.0 392661.0 0
219076.0 391687.0 0
222366.0 390812.0 0
228040.0 392653.0 0
231469.0 391877.0 0
234866.0 390984.0 0
240296.0 391539.0 0
246202.0 391060.0 0
251655.0 390492.0 0
257455.0 390322.0 0
263145.0 390117.0 0
266200.0 391585.0 0
269579.0 390517.0 0
273201.0 391099.0 0
276600.0 391719.0 0
279819.0 392540.0 0
283132.0 393337.0 0
288200.0 391350.0 0
291181.0 392421.0 0
296029.0 391309.0 0
299392.0 392300.0 0
301618.0 390469.0 0
306115.0 393576.0 0
309361.0 393669.0 0
314520.0 392147.0 0
317844.0 393959.0 0
320544.0 392562.0 0
326125.0 393596.0 0
169038.0 396615.0 0
172042.0 394738.0 0
174917.0 395720.0 0
180970.0 395167.0 0
183954.0 396516.0 0
186790.0 394767.0 0
189655.0 396138.0 0
193032.0 394397.0 0
196819.0 394201.0 0
199998.0 393793.0 0
205588.0 395383.0 0
208950.0 394473.0 0
212458.0 393661.0 0
217931.0 395103.0 0
221275.0 394229.0 0
224638.0 393420.0 0
230286.0 395327.0 0
233765.0 394586.0 0
237177.0 393724.0 0
240325.0 394929.0 0
243287.0 393418.0 0
249005.0 392637.0 0
254552.0 392345.0 0
257368.0 394097.0 0
260426.0 392086.0 0
263726.0 393775.0 0
267961.0 393972.0 0
271275.0 393910.0 0
274646.0 394493.0 0
277937.0 395212.0 0
281233.0 395957.0 0
286368.0 394111.0 0
289447.0 394946.0 0
292520.0 395970.0 0
294219.0 393557.0 0
297488.0 394515.0 0
300898.0 395287.0 0
302955.0 393130.0 0
312279.0 394257.0 0
315339.0 394990.0 0
320466.0 395553.0 0
323341.0 394776.0 0
326228.0 396751.0 0
328967.0 395359.0 0
331885.0 397190.0 0
166043.0 398477.0 0
171858.0 397728.0 0
174704.0 398611.0 0
177812.0 396923.0 0
180698.0 398047.0 0
186972.0 397931.0 0
192234.0 397343.0 0
195302.0 396932.0 0
198698.0 396803.0 0
202118.0 396071.0 0
207636.0 397684.0 0
211078.0 396825.0 0
214554.0 396004.0 0
220016.0 397624.0 0
223411.0 396824.0 0
226830.0 396063.0 0
232381.0 398080.0 0
235890.0 397442.0 0
239286.0 397833.0 0
243048.0 397304.0 0
246095.0 394794.0 0
249198.0 396412.0 0
251889.0 394429.0 0
254595.0 396348.0 0
260337.0 395560.0 0
266181.0 396773.0 0
269617.0 397087.0 0
272904.0 397360.0 0
276193.0 397978.0 0
284506.0 396740.0 0
287713.0 397575.0 0
290858.0 398473.0 0
295734.0 396877.0 0
299065.0 397645.0 0
302417.0 398374.0 0
304306.0 396092.0 0
307691.0 396396.0 0
310837.0 396867.0 0
313995.0 397416.0 0
317508.0 397355.0 0
320571.0 398253.0 0
323528.0 397717.0 0
328960.0 398278.0 0
334938.0 399100.0 0
162822.0 400497.0 0
165629.0 401184.0 0
168859.0 399649.0 0
171638.0 400749.0 0
174485.0 401502.0 0
177593.0 399908.0 0
180458.0 401021.0 0
183558.0 399399.0 0
186343.0 400713.0 0
189970.0 399601.0 0
193507.0 400043.0 0
196962.0 399608.0 0
200605.0 399127.0 0
204113.0 398438.0 0
206169.0 400771.0 0
209691.0 400029.0 0
213154.0 399233.0 0
216611.0 398447.0 0
218601.0 400982.0 0
222023.0 400222.0 0
225448.0 399478.0 0
228898.0 398764.0 0
234166.0 400998.0 0
237532.0 400838.0 0
241187.0 400679.0 0
246456.0 398191.0 0
251706.0 398570.0 0
257673.0 397879.0 0
263075.0 397009.0 0
264289.0 400053.0 0
267734.0 400041.0 0
271182.0 400370.0 0
274512.0 400822.0 0
279485.0 398666.0 0
282762.0 399404.0 0
286009.0 400202.0 0
289227.0 401052.0 0
294073.0 399344.0 0
297370.0 400102.0 0
300700.0 400803.0 0
305876.0 398949.0 0
309166.0 399444.0 0
312422.0 399917.0 0
315852.0 400014.0 0
319004.0 400535.0 0
322616.0 400639.0 0
325925.0 400033.0 0
329103.0 400916.0 0
332156.0 400053.0 0
334694.0 402249.0 0
337762.0 400875.0 0
156628.0 404374.0 0
159700.0 402451.0 0
162487.0 403433.0 0
165339.0 403957.0 0
168460.0 402651.0 0
171260.0 403686.0 0
174117.0 404310.0 0
177353.0 402955.0 0
180242.0 403995.0 0
183326.0 402506.0 0
186129.0 403921.0 0
188923.0 402290.0 0
191926.0 402850.0 0
195450.0 402537.0 0
199021.0 401986.0 0
202626.0 401467.0 0
208191.0 403167.0 0
211692.0 402463.0 0
215153.0 401725.0 0
220490.0 403607.0 0
223911.0 402903.0 0
227330.0 402219.0 0
230752.0 401573.0 0
244672.0 400853.0 0
248637.0 400888.0 0
254977.0 400130.0 0
258187.0 401647.0 0
260735.0 399369.0 0
261921.0 402701.0 0
265808.0 403051.0 0
269399.0 403280.0 0
272846.0 403727.0 0
277822.0 401443.0 0
281114.0 402132.0 0
284384.0 402879.0 0
287638.0 403675.0 0
292467.0 401877.0 0
295763.0 402628.0 0
299090.0 403313.0 0
302457.0 403910.0 0
304093.0 401389.0 0
307462.0 401970.0 0
310800.0 402449.0 0
314209.0 402670.0 0
317454.0 403054.0 0
320895.0 403106.0 0
324405.0 403008.0 0
327521.0 403101.0 0
331315.0 402954.0 0
335668.0 405017.0 0
338178.0 403700.0 0
340935.0 402846.0 0
344168.0 404860.0 0
153544.0 406296.0 0
156152.0 407417.0 0
159384.0 405484.0 0
162179.0 406337.0 0
168209.0 405787.0 0
170973.0 406662.0 0
176992.0 405989.0 0
179827.0 406851.0 0
183101.0 405697.0 0
186136.0 406838.0 0
189329.0 405287.0 0
193766.0 405392.0 0
197467.0 404879.0 0
201069.0 404400.0 0
204659.0 403836.0 0
210131.0 405663.0 0
213605.0 404997.0 0
217054.0 404305.0 0
222256.0 406324.0 0
225657.0 405681.0 0
229044.0 405070.0 0
232415.0 404522.0 0
235769.0 404171.0 0
239220.0 403938.0 0
242689.0 403938.0 0
246286.0 403926.0 0
249787.0 404458.0 0
252129.0 402155.0 0
255162.0 403940.0 0
258510.0 405005.0 0
261596.0 405893.0 0
264723.0 406026.0 0
276200.0 404270.0 0
279518.0 404910.0 0
282814.0 405609.0 0
286097.0 406352.0 0
290910.0 404466.0 0
294218.0 405203.0 0
297555.0 405880.0 0
300919.0 406484.0 0
305818.0 404475.0 0
309197.0 404986.0 0
312610.0 405306.0 0
315930.0 405653.0 0
319332.0 405766.0 0
322721.0 405726.0 0
325996.0 405847.0 0
329356.0 405497.0 0
332725.0 405352.0 0
339189.0 406506.0 0
341649.0 405667.0 0
347086.0 406686.0 0
147731.0 409936.0 0
150613.0 408136.0 0
153354.0 409475.0 0
158753.0 408382.0 0
161376.0 409116.0 0
165095.0 406683.0 0
167492.0 408953.0 0
170382.0 409406.0 0
173855.0 407113.0 0
176586.0 409142.0 0
182716.0 408791.0 0
185324.0 409745.0 0
188549.0 408897.0 0
191105.0 407422.0 0
193424.0 408826.0 0
196266.0 407778.0 0
199657.0 407379.0 0
203133.0 406876.0 0
206639.0 406299.0 0
211950.0 408256.0 0
215404.0 407624.0 0
218838.0 406975.0 0
223902.0 409135.0 0
227273.0 408560.0 0
230623.0 408032.0 0
233952.0 407615.0 0
237302.0 407316.0 0
240650.0 407185.0 0
244012.0 407149.0 0
247254.0 407330.0 0
250426.0 407745.0 0
253442.0 407060.0 0
256605.0 407897.0 0
259840.0 408656.0 0
263240.0 409123.0 0
268012.0 406253.0 0
271335.0 406647.0 0
274665.0 407153.0 0
277980.0 407736.0 0
281288.0 408387.0 0
284592.0 409080.0 0
289394.0 407103.0 0
292720.0 407821.0 0
296072.0 408489.0 0
299447.0 409096.0 0
304286.0 407043.0 0
307664.0 407546.0 0
311077.0 407932.0 0
314443.0 408284.0 0
317837.0 408467.0 0
321200.0 408517.0 0
324462.0 408594.0 0
327765.0 408448.0 0
330890.0 408226.0 0
333911.0 408162.0 0
336775.0 407753.0 0
339106.0 409990.0 0
341724.0 408950.0 0
344377.0 408011.0 0
347234.0 409659.0 0
350068.0 408555.0 0
353054.0 410426.0 0
144677.0 411839.0 0
147483.0 412913.0 0
150597.0 411345.0 0
156094.0 410710.0 0
158895.0 411625.0 0
164317.0 409442.0 0
165344.0 412092.0 0
168337.0 412099.0 0
173359.0 409836.0 0
174882.0 412365.0 0
179574.0 409614.0 0
181393.0 412042.0 0
184366.0 412412.0 0
187775.0 411979.0 0
191090.0 411191.0 0
194792.0 411262.0 0
198048.0 410461.0 0
201512.0 409980.0 0
204994.0 409442.0 0
208479.0 408865.0 0
213661.0 410933.0 0
217095.0 410336.0 0
220509.0 409732.0 0
228801.0 411529.0 0
232126.0 411096.0 0
235445.0 410758.0 0
238757.0 410552.0 0
242068.0 410469.0 0
245346.0 410551.0 0
248612.0 410800.0 0
252006.0 410780.0 0
255111.0 411012.0 0
266562.0 409314.0 0
269863.0 409641.0 0
273169.0 410084.0 0
276479.0 410616.0 0
279791.0 411213.0 0
287909.0 409788.0 0
291252.0 410479.0 0
294620.0 411133.0 0
298012.0 411738.0 0
302829.0 409654.0 0
306220.0 410157.0 0
309631.0 410571.0 0
313027.0 410936.0 0
316435.0 411176.0 0
319823.0 411303.0 0
323146.0 411396.0 0
326468.0 411331.0 0
329725.0 411204.0 0
332883.0 411078.0 0
336052.0 410816.0 0
341629.0 412314.0 0
344355.0 411268.0 0
347209.0 412583.0 0
350204.0 411560.0 0
356056.0 412304.0 0
138551.0 415672.0 0
141620.0 413751.0 0
144454.0 414837.0 0
147293.0 416014.0 0
150190.0 414429.0 0
153446.0 412761.0 0
156354.0 414046.0 0
159714.0 414557.0 0
162059.0 412089.0 0
163088.0 414873.0 0
171493.0 412498.0 0
177952.0 412279.0 0
182607.0 415147.0 0
186110.0 414985.0 0
189535.0 414462.0 0
192850.0 413974.0 0
196451.0 413745.0 0
199821.0 413110.0 0
203279.0 412613.0 0
206744.0 412074.0 0
210209.0 411514.0 0
215272.0 413685.0 0
218689.0 413127.0 0
222083.0 412571.0 0
225454.0 412033.0 0
233612.0 414220.0 0
236922.0 413968.0 0
240229.0 413831.0 0
243525.0 413832.0 0
246822.0 413967.0 0
258282.0 411558.0 0
261612.0 412036.0 0
265002.0 412380.0 0
268336.0 412673.0 0
271656.0 413062.0 0
274974.0 413540.0 0
278294.0 414086.0 0
283108.0 411856.0 0
286441.0 412520.0 0
289797.0 413178.0 0
293181.0 413812.0 0
296591.0 414407.0 0
301417.0 412296.0 0
304830.0 412801.0 0
308254.0 413234.0 0
311673.0 413611.0 0
315098.0 413892.0 0
318510.0 414074.0 0
321886.0 414195.0 0
325255.0 414190.0 0
328590.0 414098.0 0
331894.0 413964.0 0
335201.0 413693.0 0
338520.0 413084.0 0
341061.0 415371.0 0
344305.0 414648.0 0
347436.0 415304.0 0
350428.0 414455.0 0
353312.0 413482.0 0
356153.0 415524.0 0
358932.0 414111.0 0
135441.0 417615.0 0
141402.0 416768.0 0
144284.0 417884.0 0
147199.0 419117.0 0
152773.0 415716.0 0
155111.0 416970.0 0
157971.0 417191.0 0
161070.0 417557.0 0
166294.0 415027.0 0
169463.0 415143.0 0
172829.0 415232.0 0
176095.0 415242.0 0
179396.0 414990.0 0
187664.0 417568.0 0
191085.0 417133.0 0
194506.0 416686.0 0
198044.0 416344.0 0
201468.0 415798.0 0
204928.0 415300.0 0
208386.0 414775.0 0
211836.0 414236.0 0
216810.0 416504.0 0
220215.0 415988.0 0
223596.0 415483.0 0
226954.0 415006.0 0
230290.0 414577.0 0
250176.0 414065.0 0
253444.0 414253.0 0
256681.0 414595.0 0
259992.0 415013.0 0
263364.0 415382.0 0
266744.0 415716.0 0
270096.0 416070.0 0
273436.0 416502.0 0
281624.0 414678.0 0
284970.0 415296.0 0
288340.0 415918.0 0
291738.0 416525.0 0
300019.0 414961.0 0
303460.0 415468.0 0
306911.0 415916.0 0
310359.0 416306.0 0
313808.0 416618.0 0
317245.0 416844.0 0
320656.0 416995.0 0
324059.0 417036.0 0
327447.0 416975.0 0
330826.0 416826.0 0
334236.0 416542.0 0
337684.0 416009.0 0
343447.0 417776.0 0
346531.0 417854.0 0
350007.0 417493.0 0
353163.0 416604.0 0
358923.0 417445.0 0
361723.0 415867.0 0
367014.0 419173.0 0
129320.0 421447.0 0
132371.0 419538.0 0
135217.0 420699.0 0
138243.0 418687.0 0
141073.0 419758.0 0
143917.0 420851.0 0
150027.0 417827.0 0
152537.0 419253.0 0
155619.0 420022.0 0
164240.0 417841.0 0
167440.0 417986.0 0
170708.0 418021.0 0
174021.0 418096.0 0
177375.0 418001.0 0
180663.0 417951.0 0
184142.0 417831.0 0
192585.0 419823.0 0
196052.0 419409.0 0
199562.0 419018.0 0
203020.0 418525.0 0
206485.0 418038.0 0
209941.0 417533.0 0
213384.0 417021.0 0
218303.0 419382.0 0
221703.0 418910.0 0
225081.0 418459.0 0
228438.0 418043.0 0
231778.0 417682.0 0
235104.0 417402.0 0
238424.0 417221.0 0
241739.0 417156.0 0
245056.0 417209.0 0
248399.0 417307.0 0
251722.0 417471.0 0
255028.0 417728.0 0
258352.0 418058.0 0
261719.0 418408.0 0
265109.0 418745.0 0
268493.0 419097.0 0
276774.0 416999.0 0
280121.0 417543.0 0
283483.0 418116.0 0
286867.0 418700.0 0
290279.0 419276.0 0
295164.0 417104.0 0
298613.0 417648.0 0
302081.0 418153.0 0
305564.0 418608.0 0
309051.0 419012.0 0
312538.0 419350.0 0
316013.0 419614.0 0
319463.0 419804.0 0
322890.0 419887.0 0
326307.0 419857.0 0
329727.0 419707.0 0
333179.0 419405.0 0
336678.0 418901.0 0
340116.0 418358.0 0
345825.0 420683.0 0
349178.0 420292.0 0
352617.0 419664.0 0
355859.0 418700.0 0
361649.0 419327.0 0
364454.0 417581.0 0
369928.0 420979.0 0
126256.0 423365.0 0
132222.0 422665.0 0
135191.0 423838.0 0
138117.0 421800.0 0
141071.0 422906.0 0
146790.0 421966.0 0
149856.0 421466.0 0
153001.0 422411.0 0
158729.0 420265.0 0
161927.0 420576.0 0
165189.0 420795.0 0
168495.0 420882.0 0
171823.0 420917.0 0
175217.0 420907.0 0
178607.0 420855.0 0
182075.0 420705.0 0
185598.0 420509.0 0
189119.0 420230.0 0
197519.0 422150.0 0
201028.0 421747.0 0
204510.0 421290.0 0
207982.0 420822.0 0
211439.0 420343.0 0
214881.0 419861.0 0
223177.0 421887.0 0
226561.0 421488.0 0
229927.0 421132.0 0
233278.0 420838.0 0
236620.0 420625.0 0
239957.0 420510.0 0
243296.0 420499.0 0
246646.0 420563.0 0
249995.0 420693.0 0
253340.0 420897.0 0
256692.0 421166.0 0
260066.0 421471.0 0
263461.0 421793.0 0
271860.0 419492.0 0
275223.0 419946.0 0
278591.0 420446.0 0
281972.0 420976.0 0
285373.0 421521.0 0
288798.0 422065.0 0
293719.0 419833.0 0
297185.0 420361.0 0
300675.0 420856.0 0
304186.0 421311.0 0
307711.0 421722.0 0
311244.0 422079.0 0
314773.0 422376.0 0
328639.0 422623.0 0
332122.0 422305.0 0
335673.0 421777.0 0
339167.0 421298.0 0
342571.0 420823.0 0
348427.0 423198.0 0
351840.0 422601.0 0
355264.0 421798.0 0
358542.0 420700.0 0
361092.0 422744.0 0
364149.0 421391.0 0
367022.0 422203.0 0
369776.0 424174.0 0
372760.0 422759.0 0
123164.0 425300.0 0
126152.0 426502.0 0
129208.0 424580.0 0
132239.0 425812.0 0
138230.0 424956.0 0
141364.0 426055.0 0
144109.0 424030.0 0
147484.0 424676.0 0
150505.0 424802.0 0
156260.0 423012.0 0
159505.0 423288.0 0
162811.0 423547.0 0
166166.0 423704.0 0
169546.0 423768.0 0
172965.0 423767.0 0
176418.0 423737.0 0
179919.0 423621.0 0
183445.0 423439.0 0
186986.0 423220.0 0
190521.0 422928.0 0
194021.0 422547.0 0
198951.0 424917.0 0
202469.0 424522.0 0
205965.0 424092.0 0
209444.0 423648.0 0
212905.0 423199.0 0
216349.0 422752.0 0
219774.0 422312.0 0
228049.0 424564.0 0
231430.0 424266.0 0
234800.0 424034.0 0
238162.0 423882.0 0
241523.0 423821.0 0
244890.0 423842.0 0
248260.0 423934.0 0
251631.0 424093.0 0
255008.0 424313.0 0
266861.0 422133.0 0
270255.0 422506.0 0
273643.0 422922.0 0
277035.0 423382.0 0
280437.0 423872.0 0
283856.0 424379.0 0
292251.0 422596.0 0
295731.0 423105.0 0
299237.0 423585.0 0
302767.0 424031.0 0
306319.0 424440.0 0
309889.0 424805.0 0
318282.0 422607.0 0
321760.0 422750.0 0
325196.0 422760.0 0
331069.0 425257.0 0
334685.0 424642.0 0
338228.0 424204.0 0
341683.0 423810.0 0
345036.0 423575.0 0
351048.0 425608.0 0
354457.0 424867.0 0
357841.0 423924.0 0
363486.0 424988.0 0
366448.0 424952.0 0
372515.0 426036.0 0
375570.0 424524.0 0
378389.0 426286.0 0
116894.0 429225.0 0
120041.0 427255.0 0
123056.0 428455.0 0
129235.0 427710.0 0
132400.0 428960.0 0
135343.0 426988.0 0
138534.0 428085.0 0
144704.0 426999.0 0
147983.0 427673.0 0
151170.0 428046.0 0
153732.0 425537.0 0
157040.0 426017.0 0
160366.0 426281.0 0
163751.0 426482.0 0
167179.0 426596.0 0
170641.0 426626.0 0
174134.0 426604.0 0
177667.0 426524.0 0
181220.0 426381.0 0
184778.0 426190.0 0
188341.0 425953.0 0
191897.0 425657.0 0
195428.0 425297.0 0
203896.0 427336.0 0
207402.0 426932.0 0
210889.0 426517.0 0
214358.0 426101.0 0
217809.0 425689.0 0
221241.0 425290.0 0
224654.0 424910.0 0
239731.0 427165.0 0
258398.0 424577.0 0
261802.0 424870.0 0
265215.0 425190.0 0
268628.0 425540.0 0
272040.0 425926.0 0
275455.0 426349.0 0
278878.0 426802.0 0
282315.0 427274.0 0
287296.0 424891.0 0
290761.0 425395.0 0
294252.0 425881.0 0
297770.0 426344.0 0
301313.0 426777.0 0
304880.0 427177.0 0
308470.0 427539.0 0
313470.0 425122.0 0
317050.0 425385.0 0
320613.0 425583.0 0
324133.0 425689.0 0
327577.0 425587.0 0
333724.0 427480.0 0
337314.0 427085.0 0
340808.0 426761.0 0
344220.0 426505.0 0
347629.0 426148.0 0
353671.0 427988.0 0
357042.0 427140.0 0
360341.0 426129.0 0
362897.0 428453.0 0
365973.0 427955.0 0
369222.0 427205.0 0
372058.0 429223.0 0
375291.0 427857.0 0
381261.0 428080.0 0
113730.0 431207.0 0
119929.0 430443.0 0
123068.0 431595.0 0
126173.0 429624.0 0
129387.0 430818.0 0
135636.0 430119.0 0
138965.0 431149.0 0
141865.0 429085.0 0
145234.0 430062.0 0
148569.0 430759.0 0
154477.0 428629.0 0
157848.0 429017.0 0
161264.0 429241.0 0
164734.0 429393.0 0
168245.0 429465.0 0
171783.0 429469.0 0
175349.0 429414.0 0
178932.0 429308.0 0
182520.0 429155.0 0
186110.0 428955.0 0
189698.0 428710.0 0
193273.0 428417.0 0
196828.0 428078.0 0
200368.0 427716.0 0
208834.0 429811.0 0
212331.0 429427.0 0
215811.0 429043.0 0
219272.0 428668.0 0
222716.0 428310.0 0
226143.0 427977.0 0
229554.0 427682.0 0
232954.0 427439.0 0
236344.0 427263.0 0
243119.0 427144.0 0
246510.0 427196.0 0
249904.0 427314.0 0
253302.0 427491.0 0
256710.0 427716.0 0
260128.0 427979.0 0
263554.0 428272.0 0
266984.0 428597.0 0
270417.0 428955.0 0
273853.0 429345.0 0
277297.0 429764.0 0
285771.0 427753.0 0
289250.0 428230.0 0
292752.0 428693.0 0
296279.0 429137.0 0
299831.0 429555.0 0
303406.0 429943.0 0
312082.0 427860.0 0
315711.0 428139.0 0
319351.0 428368.0 0
322990.0 428539.0 0
326592.0 428620.0 0
330033.0 428296.0 0
332829.0 430264.0 0
336441.0 429937.0 0
339965.0 429686.0 0
343416.0 429453.0 0
346845.0 429133.0 0
350265.0 428653.0 0
356335.0 430350.0 0
359675.0 429437.0 0
365590.0 431131.0 0
368808.0 430332.0 0
374893.0 431158.0 0
378128.0 429588.0 0
381069.0 431348.0 0
384210.0 429923.0 0
387231.0 431812.0 0
110561.0 433193.0 0
113636.0 434505.0 0
116783.0 432461.0 0
119938.0 433621.0 0
126306.0 432721.0 0
129642.0 433893.0 0
132682.0 432102.0 0
136021.0 433230.0 0
142364.0 432121.0 0
145818.0 433183.0 0
151867.0 431226.0 0
155248.0 431694.0 0
158714.0 431991.0 0
162233.0 432170.0 0
165795.0 432278.0 0
169383.0 432317.0 0
172989.0 432295.0 0
176605.0 432222.0 0
180225.0 432105.0 0
183844.0 431944.0 0
187459.0 431740.0 0
191065.0 431496.0 0
194655.0 431211.0 0
198227.0 430892.0 0
201780.0 430549.0 0
205317.0 430189.0 0
213780.0 432375.0 0
217272.0 432025.0 0
220747.0 431687.0 0
224205.0 431369.0 0
227649.0 431082.0 0
231079.0 430836.0 0
234500.0 430645.0 0
237914.0 430520.0 0
241326.0 430465.0 0
244739.0 430479.0 0
248155.0 430559.0 0
251575.0 430697.0 0
255001.0 430886.0 0
258436.0 431116.0 0
261877.0 431381.0 0
265324.0 431679.0 0
268775.0 432009.0 0
272232.0 432369.0 0
280753.0 430202.0 0
284225.0 430651.0 0
287717.0 431100.0 0
291231.0 431540.0 0
294768.0 431965.0 0
298327.0 432367.0 0
307006.0 430297.0 0
310628.0 430614.0 0
314273.0 430893.0 0
317941.0 431130.0 0
321638.0 431322.0 0
325371.0 431462.0 0
329150.0 431532.0 0
332479.0 432953.0 0
335864.0 432775.0 0
339277.0 432600.0 0
342698.0 432412.0 0
346113.0 432138.0 0
349532.0 431720.0 0
352944.0 431124.0 0
359058.0 432681.0 0
362385.0 431805.0 0
368437.0 433568.0 0
371673.0 432496.0 0
374521.0 434540.0 0
377806.0 432820.0 0
384095.0 433196.0 0
390299.0 433733.0 0
104260.0 437145.0 0
107400.0 435174.0 0
110503.0 436566.0 0
116810.0 435698.0 0
120071.0 436797.0 0
123187.0 434716.0 0
126527.0 435785.0 0
133046.0 435257.0 0
136428.0 436359.0 0
139414.0 434204.0 0
142887.0 435134.0 0
149210.0 433899.0 0
152588.0 434368.0 0
156106.0 434704.0 0
159692.0 434930.0 0
163312.0 435069.0 0
166952.0 435144.0 0
170600.0 435161.0 0
174252.0 435125.0 0
177902.0 435043.0 0
181549.0 434918.0 0
185191.0 434754.0 0
188823.0 434552.0 0
192442.0 434314.0 0
196045.0 434041.0 0
199629.0 433740.0 0
203194.0 433418.0 0
206742.0 433080.0 0
210271.0 432729.0 0
218748.0 435043.0 0
222238.0 434742.0 0
225714.0 434466.0 0
229176.0 434222.0 0
232626.0 434024.0 0
236069.0 433880.0 0
239508.0 433798.0 0
242945.0 433781.0 0
246383.0 433826.0 0
249824.0 433928.0 0
253271.0 434082.0 0
256723.0 434280.0 0
260182.0 434516.0 0
263646.0 434786.0 0
275695.0 432756.0 0
279170.0 433163.0 0
282658.0 433582.0 0
286165.0 434005.0 0
289690.0 434422.0 0
293237.0 434827.0 0
296804.0 435213.0 0
301909.0 432742.0 0
305513.0 433087.0 0
309139.0 433399.0 0
312783.0 433676.0 0
316445.0 433915.0 0
320121.0 434115.0 0
323802.0 434281.0 0
327455.0 434434.0 0
330839.0 435142.0 0
334693.0 435629.0 0
338311.0 435541.0 0
341843.0 435389.0 0
345332.0 435174.0 0
348773.0 434816.0 0
352210.0 434281.0 0
355641.0 433553.0 0
358398.0 435877.0 0
361830.0 435076.0 0
365159.0 434370.0 0
368012.0 436852.0 0
371315.0 435864.0 0
377499.0 435994.0 0
380842.0 434553.0 0
383938.0 436435.0 0
387167.0 435123.0 0
390214.0 437108.0 0
393381.0 435665.0 0
101142.0 439102.0 0
107405.0 438637.0 0
110642.0 439963.0 0
113699.0 437814.0 0
116971.0 438943.0 0
123411.0 437827.0 0
126826.0 438825.0 0
129956.0 436923.0 0
133401.0 438484.0 0
139849.0 437243.0 0
143433.0 438058.0 0
146454.0 436381.0 0
149857.0 437086.0 0
153462.0 437404.0 0
157130.0 437659.0 0
160816.0 437839.0 0
164505.0 437952.0 0
168193.0 438009.0 0
171878.0 438012.0 0
175558.0 437968.0 0
179232.0 437881.0 0
182898.0 437755.0 0
186555.0 437592.0 0
190200.0 437395.0 0
193831.0 437166.0 0
197444.0 436907.0 0
201040.0 436624.0 0
204618.0 436322.0 0
208178.0 436007.0 0
211719.0 435683.0 0
215242.0 435360.0 0
227243.0 437596.0 0
230725.0 437396.0 0
234197.0 437241.0 0
237662.0 437139.0 0
241125.0 437095.0 0
244587.0 437110.0 0
248050.0 437181.0 0
251517.0 437302.0 0
254989.0 437469.0 0
267115.0 435088.0 0
270590.0 435420.0 0
274073.0 435777.0 0
277565.0 436155.0 0
281071.0 436546.0 0
284591.0 436943.0 0
288129.0 437338.0 0
291686.0 437723.0 0
300393.0 435576.0 0
304002.0 435912.0 0
307630.0 436218.0 0
311276.0 436492.0 0
314938.0 436734.0 0
318610.0 436945.0 0
322282.0 437133.0 0
325931.0 437331.0 0
329466.0 437790.0 0
333144.0 438130.0 0
336986.0 438353.0 0
340709.0 438312.0 0
344358.0 438171.0 0
347940.0 437935.0 0
351405.0 437468.0 0
354885.0 436775.0 0
357660.0 439024.0 0
361194.0 438294.0 0
364629.0 437613.0 0
370882.0 439264.0 0
374193.0 438062.0 0
377348.0 439032.0 0
380663.0 437720.0 0
386957.0 438439.0 0
393218.0 439113.0 0
396462.0 437602.0 0
399522.0 439527.0 0
98022.8 441054.0 0
101298.0 442717.0 0
104347.0 440702.0 0
107635.0 442130.0 0
113960.0 441148.0 0
120297.0 439976.0 0
123649.0 440933.0 0
130319.0 439901.0 0
136680.0 439521.0 0
140123.0 440193.0 0
143534.0 440805.0 0
147020.0 439748.0 0
150830.0 440102.0 0
154592.0 440373.0 0
158333.0 440591.0 0
162061.0 440747.0 0
165780.0 440844.0 0
180585.0 440746.0 0
184265.0 440620.0 0
187935.0 440461.0 0
191591.0 440270.0 0
195232.0 440051.0 0
198857.0 439806.0 0
202465.0 439541.0 0
206056.0 439260.0 0
209629.0 438969.0 0
213184.0 438673.0 0
216721.0 438379.0 0
220243.0 438097.0 0
223750.0 437833.0 0
258466.0 437676.0 0
261948.0 437919.0 0
265435.0 438194.0 0
268929.0 438497.0 0
272430.0 438827.0 0
275940.0 439177.0 0
279461.0 439541.0 0
282997.0 439913.0 0
286548.0 440286.0 0
295263.0 438094.0 0
298858.0 438444.0 0
302472.0 438771.0 0
306104.0 439070.0 0
309753.0 439341.0 0
313415.0 439584.0 0
317087.0 439801.0 0
320761.0 440001.0 0
324423.0 440210.0 0
328039.0 440541.0 0
331726.0 440833.0 0
343116.0 441077.0 0
346873.0 440938.0 0
350574.0 440706.0 0
354033.0 440052.0 0
356880.0 442091.0 0
360477.0 441468.0 0
363982.0 440857.0 0
367443.0 440137.0 0
373672.0 441698.0 0
380396.0 440940.0 0
383677.0 439715.0 0
386519.0 441813.0 0
389875.0 440492.0 0
392702.0 442565.0 0
396146.0 441163.0 0
404034.0 442297.0 0
91534.1 445096.0 0
94848.6 443035.0 0
98169.1 444645.0 0
104659.0 444292.0 0
111015.0 443381.0 0
114472.0 444498.0 0
117340.0 442222.0 0
120758.0 443211.0 0
124207.0 444133.0 0
126987.0 441833.0 0
130287.0 442697.0 0
133719.0 441922.0 0
137390.0 442628.0 0
141081.0 443209.0 0
145026.0 443186.0 0
148509.0 442881.0 0
152192.0 443128.0 0
155909.0 443357.0 0
159639.0 443543.0 0
169492.0 440888.0 0
173197.0 440884.0 0
176895.0 440835.0 0
192999.0 443178.0 0
196651.0 442970.0 0
200288.0 442740.0 0
203908.0 442492.0 0
207512.0 442232.0 0
211098.0 441965.0 0
214667.0 441696.0 0
218220.0 441433.0 0
221758.0 441184.0 0
225282.0 440957.0 0
228794.0 440758.0 0
232296.0 440598.0 0
235790.0 440483.0 0
239279.0 440419.0 0
242765.0 440408.0 0
246252.0 440451.0 0
249740.0 440543.0 0
253232.0 440681.0 0
256727.0 440860.0 0
260228.0 441075.0 0
263734.0 441323.0 0
267246.0 441600.0 0
270765.0 441903.0 0
274293.0 442226.0 0
277831.0 442566.0 0
281381.0 442914.0 0
290116.0 440653.0 0
293701.0 441007.0 0
297304.0 441345.0 0
300925.0 441662.0 0
304561.0 441955.0 0
308212.0 442222.0 0
311876.0 442464.0 0
315550.0 442683.0 0
319229.0 442886.0 0
322903.0 443093.0 0
335487.0 441016.0 0
339321.0 441120.0 0
349354.0 443690.0 0
353253.0 443515.0 0
356780.0 445038.0 0
360023.0 444619.0 0
363357.0 444123.0 0
366760.0 443466.0 0
370207.0 442645.0 0
377007.0 441945.0 0
379696.0 444192.0 0
383153.0 443078.0 0
389299.0 443927.0 0
398257.0 443791.0 0
401108.0 442538.0 0
404029.0 445444.0 0
407159.0 444266.0 0
88231.9 447163.0 0
94683.1 446505.0 0
97713.8 448041.0 0
101630.0 446327.0 0
105252.0 447886.0 0
108117.0 445633.0 0
111663.0 446793.0 0
117972.0 445525.0 0
121514.0 446464.0 0
127730.0 444968.0 0
131570.0 445242.0 0
135006.0 445199.0 0
138673.0 445700.0 0
142521.0 445944.0 0
146242.0 446037.0 0
149834.0 445989.0 0
153516.0 446179.0 0
163371.0 443678.0 0
167100.0 443759.0 0
170825.0 443793.0 0
174544.0 443781.0 0
178256.0 443728.0 0
181958.0 443638.0 0
185651.0 443515.0 0
189331.0 443361.0 0
201738.0 445706.0 0
205371.0 445476.0 0
208987.0 445237.0 0
212587.0 444994.0 0
216171.0 444752.0 0
219740.0 444520.0 0
223295.0 444304.0 0
226837.0 444112.0 0
230368.0 443950.0 0
233890.0 443827.0 0
237406.0 443748.0 0
240918.0 443717.0 0
244428.0 443736.0 0
247938.0 443802.0 0
251451.0 443913.0 0
254967.0 444065.0 0
258487.0 444254.0 0
262011.0 444476.0 0
265542.0 444727.0 0
269079.0 445005.0 0
272624.0 445303.0 0
284946.0 443266.0 0
288526.0 443614.0 0
292121.0 443953.0 0
295732.0 444278.0 0
299359.0 444585.0 0
303001.0 444872.0 0
306656.0 445135.0 0
310323.0 445375.0 0
314000.0 445593.0 0
317682.0 445796.0 0
326563.0 443353.0 0
330263.0 443600.0 0
334019.0 443778.0 0
337816.0 443876.0 0
341654.0 443906.0 0
345496.0 443837.0 0
362514.0 447505.0 0
365913.0 446898.0 0
369337.0 446107.0 0
372738.0 445261.0 0
376071.0 444874.0 0
382408.0 446420.0 0
385886.0 445231.0 0
391914.0 446164.0 0
395160.0 444898.0 0
397809.0 447396.0 0
400950.0 446233.0 0
407153.0 447593.0 0
410309.0 446242.0 0
84932.7 449228.0 0
88137.7 450700.0 0
91398.8 448608.0 0
94522.2 450108.0 0
100597.0 449583.0 0
108928.0 449116.0 0
115238.0 447854.0 0
118848.0 448820.0 0
125137.0 447290.0 0
128935.0 447829.0 0
132639.0 448181.0 0
136254.0 448353.0 0
140014.0 448655.0 0
143766.0 448889.0 0
157233.0 446367.0 0
160967.0 446523.0 0
164707.0 446635.0 0
168447.0 446702.0 0
172183.0 446725.0 0
175914.0 446707.0 0
179637.0 446651.0 0
183351.0 446561.0 0
187055.0 446440.0 0
190747.0 446292.0 0
194425.0 446118.0 0
198089.0 445921.0 0
210484.0 448274.0 0
214098.0 448055.0 0
217697.0 447841.0 0
221282.0 447639.0 0
224853.0 447454.0 0
228414.0 447296.0 0
231964.0 447169.0 0
235507.0 447080.0 0
239045.0 447034.0 0
242579.0 447032.0 0
246113.0 447076.0 0
249647.0 447162.0 0
253183.0 447289.0 0
256723.0 447453.0 0
260266.0 447651.0 0
263815.0 447878.0 0
267370.0 448131.0 0
276178.0 445618.0 0
279744.0 445944.0 0
283322.0 446275.0 0
286914.0 446605.0 0
290521.0 446929.0 0
294142.0 447242.0 0
297776.0 447540.0 0
301425.0 447819.0 0
305085.0 448078.0 0
308756.0 448315.0 0
321367.0 445994.0 0
325051.0 446212.0 0
328761.0 446422.0 0
332513.0 446589.0 0
336298.0 446697.0 0
340101.0 446742.0 0
343911.0 446730.0 0
347694.0 446655.0 0
351401.0 446576.0 0
354822.0 447077.0 0
359109.0 447897.0 0
365007.0 450385.0 0
368475.0 449598.0 0
371912.0 448784.0 0
375321.0 448129.0 0
378828.0 447376.0 0
385126.0 448665.0 0
388565.0 447444.0 0
394588.0 448521.0 0
400705.0 449771.0 0
403927.0 448750.0 0
410316.0 449654.0 0
413493.0 448237.0 0
416708.0 450251.0 0
78295.2 453381.0 0
81623.2 451299.0 0
84860.9 452783.0 0
91346.6 452203.0 0
97614.9 451709.0 0
100799.0 453244.0 0
103533.0 450843.0 0
106710.0 451747.0 0
112562.0 450217.0 0
116207.0 451210.0 0
122523.0 449666.0 0
126294.0 450324.0 0
130057.0 450837.0 0
133801.0 451190.0 0
137521.0 451415.0 0
147476.0 449009.0 0
151137.0 449075.0 0
154841.0 449236.0 0
158571.0 449394.0 0
162315.0 449525.0 0
166065.0 449617.0 0
169816.0 449670.0 0
173564.0 449684.0 0
177306.0 449660.0 0
181041.0 449602.0 0
184766.0 449513.0 0
188480.0 449396.0 0
192183.0 449254.0 0
195873.0 449089.0 0
199549.0 448904.0 0
203210.0 448704.0 0
206855.0 448492.0 0
222846.0 450787.0 0
226435.0 450634.0 0
230013.0 450507.0 0
233583.0 450412.0 0
237147.0 450355.0 0
240706.0 450338.0 0
244263.0 450362.0 0
247819.0 450427.0 0
251376.0 450531.0 0
254936.0 450672.0 0
270933.0 448406.0 0
274504.0 448698.0 0
278085.0 449002.0 0
281677.0 449313.0 0
285282.0 449626.0 0
288900.0 449935.0 0
292531.0 450236.0 0
296175.0 450524.0 0
299831.0 450796.0 0
312436.0 448532.0 0
316123.0 448732.0 0
319815.0 448922.0 0
323512.0 449114.0 0
327229.0 449294.0 0
330977.0 449445.0 0
334755.0 449556.0 0
338550.0 449626.0 0
342336.0 449654.0 0
346087.0 449652.0 0
349758.0 449654.0 0
353270.0 449897.0 0
356886.0 450013.0 0
361557.0 450908.0 0
367626.0 453101.0 0
371110.0 452298.0 0
374572.0 451514.0 0
378069.0 450700.0 0
381600.0 449749.0 0
387875.0 450944.0 0
391279.0 449732.0 0
394095.0 452064.0 0
397428.0 450918.0 0
403748.0 452137.0 0
407057.0 450959.0 0
410228.0 453084.0 0
413505.0 451707.0 0
419946.0 452279.0 0
74949.5 455474.0 0
81554.1 454869.0 0
88123.8 454283.0 0
91424.2 455824.0 0
94568.5 453776.0 0
97870.5 455374.0 0
104138.0 454442.0 0
110105.0 452734.0 0
113659.0 453695.0 0
119903.0 452085.0 0
123665.0 452816.0 0
127448.0 453419.0 0
131237.0 453891.0 0
135016.0 454233.0 0
141268.0 451686.0 0
145017.0 451899.0 0
148742.0 452042.0 0
152450.0 452155.0 0
156179.0 452301.0 0
159926.0 452437.0 0
163684.0 452547.0 0
167446.0 452624.0 0
171209.0 452664.0 0
174968.0 452670.0 0
178721.0 452642.0 0
182467.0 452582.0 0
186203.0 452495.0 0
189928.0 452381.0 0
193642.0 452246.0 0
197343.0 452090.0 0
201030.0 451918.0 0
204703.0 451733.0 0
208361.0 451540.0 0
212003.0 451343.0 0
215631.0 451148.0 0
219245.0 450961.0 0
258499.0 450846.0 0
262066.0 451050.0 0
265639.0 451280.0 0
269219.0 451532.0 0
272806.0 451803.0 0
276403.0 452087.0 0
280010.0 452379.0 0
283628.0 452675.0 0
287258.0 452969.0 0
290900.0 453258.0 0
303498.0 451051.0 0
307175.0 451285.0 0
310861.0 451500.0 0
314552.0 451698.0 0
318250.0 451881.0 0
321954.0 452055.0 0
325673.0 452215.0 0
329416.0 452349.0 0
333187.0 452452.0 0
336979.0 452529.0 0
340774.0 452596.0 0
344529.0 452649.0 0
348211.0 452716.0 0
351775.0 452885.0 0
355327.0 452989.0 0
358907.0 452753.0 0
364125.0 453915.0 0
373838.0 454969.0 0
377347.0 454108.0 0
380867.0 453149.0 0
384389.0 452092.0 0
390692.0 453248.0 0
397034.0 454401.0 0
400412.0 453249.0 0
403496.0 455554.0 0
406885.0 454363.0 0
413422.0 455192.0 0
416717.0 453768.0 0
419949.0 455843.0 0
423203.0 454318.0 0
71591.1 457576.0 0
78222.0 456972.0 0
81524.7 458462.0 0
84845.4 456363.0 0
88178.6 457874.0 0
94800.5 457414.0 0
101307.0 456863.0 0
104822.0 458019.0 0
107557.0 455389.0 0
111098.0 456286.0 0
117319.0 454570.0 0
121059.0 455338.0 0
124842.0 455997.0 0
128648.0 456545.0 0
138770.0 454498.0 0
142533.0 454750.0 0
146293.0 454954.0 0
150042.0 455110.0 0
153784.0 455243.0 0
157538.0 455378.0 0
161303.0 455497.0 0
165075.0 455590.0 0
168851.0 455653.0 0
172625.0 455684.0 0
176396.0 455682.0 0
180160.0 455650.0 0
183917.0 455590.0 0
187664.0 455504.0 0
191400.0 455396.0 0
195125.0 455267.0 0
198836.0 455122.0 0
202535.0 454962.0 0
206219.0 454793.0 0
209889.0 454618.0 0
213545.0 454443.0 0
217187.0 454271.0 0
220816.0 454110.0 0
224433.0 453964.0 0
228039.0 453840.0 0
231635.0 453744.0 0
235225.0 453679.0 0
238809.0 453649.0 0
242389.0 453658.0 0
245968.0 453704.0 0
249546.0 453789.0 0
253126.0 453908.0 0
256708.0 454061.0 0
260294.0 454243.0 0
263885.0 454451.0 0
267482.0 454682.0 0
271086.0 454932.0 0
274699.0 455196.0 0
278320.0 455471.0 0
281952.0 455750.0 0
285595.0 456031.0 0
294554.0 453537.0 0
298220.0 453802.0 0
301895.0 454052.0 0
305580.0 454283.0 0
309272.0 454497.0 0
312970.0 454692.0 0
316674.0 454871.0 0
320383.0 455035.0 0
324104.0 455181.0 0
327841.0 455301.0 0
331599.0 455393.0 0
335380.0 455460.0 0
339181.0 455525.0 0
342985.0 455627.0 0
346717.0 455744.0 0
350361.0 455923.0 0
353948.0 456063.0 0
357518.0 455964.0 0
361057.0 455314.0 0
366865.0 456647.0 0
370335.0 455814.0 0
380176.0 456610.0 0
383704.0 455549.0 0
387219.0 454423.0 0
390120.0 456731.0 0
393606.0 455558.0 0
396615.0 457864.0 0
400076.0 456706.0 0
406646.0 457796.0 0
410061.0 456536.0 0
416635.0 457303.0 0
423195.0 457932.0 0
426473.0 456366.0 0
429751.0 458420.0 0
68224.5 459683.0 0
71534.2 461231.0 0
74880.3 459095.0 0
78198.0 460595.0 0
84856.7 459952.0 0
91579.2 459411.0 0
95080.1 460994.0 0
98299.4 458984.0 0
101935.0 460516.0 0
108454.0 458926.0 0
114743.0 457138.0 0
118471.0 457912.0 0
122251.0 458602.0 0
126062.0 459200.0 0
132458.0 456982.0 0
136255.0 457324.0 0
140039.0 457601.0 0
143822.0 457844.0 0
147602.0 458043.0 0
151375.0 458204.0 0
155145.0 458342.0 0
158921.0 458468.0 0
162704.0 458574.0 0
166492.0 458654.0 0
170280.0 458706.0 0
174067.0 458728.0 0
177849.0 458721.0 0
181624.0 458686.0 0
185392.0 458626.0 0
189149.0 458542.0 0
192896.0 458439.0 0
196631.0 458318.0 0
200353.0 458183.0 0
204063.0 458037.0 0
207758.0 457883.0 0
211441.0 457727.0 0
215110.0 457572.0 0
218765.0 457424.0 0
222409.0 457288.0 0
226042.0 457169.0 0
229665.0 457073.0 0
233280.0 457004.0 0
236888.0 456966.0 0
240492.0 456962.0 0
244093.0 456993.0 0
247693.0 457060.0 0
251293.0 457160.0 0
254895.0 457293.0 0
258500.0 457455.0 0
262109.0 457643.0 0
265723.0 457854.0 0
269343.0 458085.0 0
272971.0 458330.0 0
276608.0 458587.0 0
289249.0 456307.0 0
292914.0 456576.0 0
296589.0 456835.0 0
300274.0 457079.0 0
303968.0 457308.0 0
307669.0 457520.0 0
311375.0 457714.0 0
315087.0 457891.0 0
318804.0 458050.0 0
322527.0 458189.0 0
326261.0 458302.0 0
330007.0 458385.0 0
333769.0 458440.0 0
337551.0 458480.0 0
341363.0 458545.0 0
345206.0 458728.0 0
348939.0 458932.0 0
352633.0 459137.0 0
356279.0 459180.0 0
359955.0 458729.0 0
363538.0 457737.0 0
369593.0 459361.0 0
373117.0 458472.0 0
376646.0 457576.0 0
383047.0 459047.0 0
386591.0 457909.0 0
389557.0 460209.0 0
393107.0 459025.0 0
399702.0 460159.0 0
403191.0 458993.0 0
409829.0 460011.0 0
413261.0 458696.0 0
416476.0 460862.0 0
419862.0 459431.0 0
426447.0 460031.0 0
433035.0 460477.0 0
64851.6 461795.0 0
68183.7 463374.0 0
74870.4 462754.0 0
81541.9 462084.0 0
84909.6 463572.0 0
88217.1 461445.0 0
91585.3 462936.0 0
98733.0 462530.0 0
105734.0 461528.0 0
109505.0 462418.0 0
112139.0 459767.0 0
115883.0 460541.0 0
119670.0 461245.0 0
123487.0 461876.0 0
129889.0 459704.0 0
133714.0 460116.0 0
137531.0 460452.0 0
141340.0 460730.0 0
145145.0 460965.0 0
148946.0 461161.0 0
152742.0 461322.0 0
156536.0 461459.0 0
160333.0 461576.0 0
164133.0 461671.0 0
194416.0 461511.0 0
198161.0 461398.0 0
201894.0 461274.0 0
205614.0 461141.0 0
209321.0 461003.0 0
213016.0 460865.0 0
216697.0 460731.0 0
220367.0 460605.0 0
224025.0 460493.0 0
227674.0 460399.0 0
231314.0 460329.0 0
234946.0 460286.0 0
238574.0 460272.0 0
242197.0 460291.0 0
245818.0 460342.0 0
249439.0 460426.0 0
253060.0 460541.0 0
256683.0 460684.0 0
260310.0 460854.0 0
263941.0 461046.0 0
280253.0 458851.0 0
283909.0 459118.0 0
287575.0 459383.0 0
291251.0 459642.0 0
294938.0 459893.0 0
298633.0 460133.0 0
302338.0 460358.0 0
306049.0 460568.0 0
309766.0 460762.0 0
313488.0 460938.0 0
317214.0 461096.0 0
320945.0 461232.0 0
324680.0 461344.0 0
328421.0 461427.0 0
332168.0 461477.0 0
335921.0 461501.0 0
339691.0 461512.0 0
343508.0 461564.0 0
347439.0 461909.0 0
351201.0 462141.0 0
354905.0 462397.0 0
358731.0 462086.0 0
362505.0 461317.0 0
366115.0 460335.0 0
372396.0 462024.0 0
375952.0 461096.0 0
379503.0 460119.0 0
392598.0 462484.0 0
396171.0 461318.0 0
402840.0 462451.0 0
406353.0 461257.0 0
413032.0 462222.0 0
419697.0 463048.0 0
423097.0 461576.0 0
429704.0 462137.0 0
436323.0 462537.0 0
58095.2 466025.0 0
61474.7 463909.0 0
64831.1 465525.0 0
71541.5 464926.0 0
74924.0 466453.0 0
78232.2 464253.0 0
81619.2 465741.0 0
88292.1 465065.0 0
94851.7 464480.0 0
98034.3 465951.0 0
103079.0 464088.0 0
106890.0 465072.0 0
113294.0 463208.0 0
117101.0 463931.0 0
127324.0 462427.0 0
131170.0 462896.0 0
135012.0 463287.0 0
138849.0 463613.0 0
142679.0 463884.0 0
146505.0 464113.0 0
150326.0 464303.0 0
167935.0 461740.0 0
171737.0 461782.0 0
175535.0 461796.0 0
179328.0 461785.0 0
183114.0 461748.0 0
186892.0 461688.0 0
190659.0 461608.0 0
221991.0 463813.0 0
225664.0 463724.0 0
229328.0 463655.0 0
232984.0 463608.0 0
236634.0 463588.0 0
240279.0 463597.0 0
243922.0 463636.0 0
247562.0 463705.0 0
267578.0 461259.0 0
271221.0 461487.0 0
274872.0 461728.0 0
278531.0 461977.0 0
282200.0 462230.0 0
285878.0 462483.0 0
289567.0 462733.0 0
293264.0 462977.0 0
296971.0 463210.0 0
300687.0 463432.0 0
304410.0 463641.0 0
308139.0 463833.0 0
311873.0 464009.0 0
361382.0 464783.0 0
365179.0 463896.0 0
368826.0 462969.0 0
375271.0 464660.0 0
378843.0 463671.0 0
382409.0 462592.0 0
385978.0 461421.0 0
388987.0 463692.0 0
395706.0 464772.0 0
399291.0 463616.0 0
406011.0 464742.0 0
409541.0 463512.0 0
412741.0 465773.0 0
416243.0 464445.0 0
422920.0 465254.0 0
426333.0 463734.0 0
429570.0 465897.0 0
432963.0 464245.0 0
439617.0 464600.0 0
54714.0 468143.0 0
61477.2 467681.0 0
68212.6 467109.0 0
71618.0 468665.0 0
78330.7 467947.0 0
85031.5 467231.0 0
88462.7 468743.0 0
91655.0 466595.0 0
95027.9 468157.0 0
101248.0 467135.0 0
110718.0 465904.0 0
114548.0 466648.0 0
120928.0 464584.0 0
124771.0 465168.0 0
128628.0 465680.0 0
132490.0 466118.0 0
136351.0 466490.0 0
140208.0 466803.0 0
154143.0 464461.0 0
157958.0 464593.0 0
161774.0 464702.0 0
165591.0 464787.0 0
169407.0 464847.0 0
173221.0 464881.0 0
177031.0 464890.0 0
180834.0 464874.0 0
184630.0 464837.0 0
188417.0 464778.0 0
192195.0 464702.0 0
195961.0 464611.0 0
199716.0 464507.0 0
203459.0 464393.0 0
207190.0 464274.0 0
210908.0 464152.0 0
214614.0 464032.0 0
218308.0 463917.0 0
251203.0 463804.0 0
254845.0 463931.0 0
258489.0 464083.0 0
262137.0 464259.0 0
265789.0 464454.0 0
269448.0 464666.0 0
273113.0 464891.0 0
276786.0 465125.0 0
280468.0 465366.0 0
284159.0 465608.0 0
287859.0 465848.0 0
291568.0 466084.0 0
295287.0 466312.0 0
299014.0 466530.0 0
315612.0 464167.0 0
319354.0 464305.0 0
323099.0 464420.0 0
326846.0 464506.0 0
330591.0 464562.0 0
334330.0 464587.0 0
338059.0 464583.0 0
341782.0 464559.0 0
345531.0 464553.0 0
349750.0 465117.0 0
353416.0 465681.0 0
357327.0 465380.0 0
368063.0 466513.0 0
371682.0 465595.0 0
378165.0 467271.0 0
381768.0 466193.0 0
385360.0 464988.0 0
388416.0 467175.0 0
392082.0 465940.0 0
395234.0 468232.0 0
398855.0 467086.0 0
402448.0 465927.0 0
405619.0 468253.0 0
409197.0 467039.0 0
415942.0 468053.0 0
419458.0 466692.0 0
426140.0 467476.0 0
432809.0 468056.0 0
436226.0 466350.0 0
439501.0 468449.0 0
442919.0 466666.0 0
446235.0 468742.0 0
51331.2 470262.0 0
58122.8 469839.0 0
61555.1 471497.0 0
64883.7 469299.0 0
68313.7 470886.0 0
75044.0 470195.0 0
81768.0 469429.0 0
85238.7 470918.0 0
91927.0 470285.0 0
95477.4 471811.0 0
98489.9 469628.0 0
102070.0 470791.0 0
104667.0 467948.0 0
108278.0 468699.0 0
112048.0 469419.0 0
118387.0 467328.0 0
122237.0 467940.0 0
126101.0 468484.0 0
129976.0 468960.0 0
133855.0 469370.0 0
144058.0 467065.0 0
147903.0 467286.0 0
151744.0 467470.0 0
155580.0 467622.0 0
159413.0 467747.0 0
163246.0 467848.0 0
167078.0 467924.0 0
170908.0 467976.0 0
174733.0 468004.0 0
178554.0 468008.0 0
182367.0 467990.0 0
186173.0 467952.0 0
189969.0 467896.0 0
193756.0 467824.0 0
197531.0 467739.0 0
201295.0 467644.0 0
205048.0 467542.0 0
208789.0 467436.0 0
212517.0 467329.0 0
216235.0 467226.0 0
219941.0 467131.0 0
223637.0 467048.0 0
227324.0 466981.0 0
231003.0 466933.0 0
234675.0 466909.0 0
238342.0 466910.0 0
242005.0 466939.0 0
245666.0 466996.0 0
249325.0 467081.0 0
252985.0 467193.0 0
256646.0 467330.0 0
260310.0 467489.0 0
263978.0 467669.0 0
267652.0 467866.0 0
271331.0 468076.0 0
275018.0 468297.0 0
278713.0 468525.0 0
282416.0 468756.0 0
286128.0 468987.0 0
302749.0 466736.0 0
306491.0 466928.0 0
310239.0 467104.0 0
313992.0 467263.0 0
317749.0 467402.0 0
321509.0 467520.0 0
325271.0 467613.0 0
329032.0 467678.0 0
332786.0 467712.0 0
336524.0 467717.0 0
340236.0 467689.0 0
343903.0 467621.0 0
347524.0 467420.0 0
353883.0 469272.0 0
357422.0 468903.0 0
360902.0 468250.0 0
364430.0 467374.0 0
374540.0 468252.0 0
381082.0 469844.0 0
384738.0 468639.0 0
387923.0 470630.0 0
391588.0 469393.0 0
398390.0 470576.0 0
402015.0 469429.0 0
408789.0 470596.0 0
412384.0 469351.0 0
419144.0 470362.0 0
422668.0 468966.0 0
425871.0 471261.0 0
429358.0 469700.0 0
436055.0 470205.0 0
442792.0 470541.0 0
449571.0 470829.0 0
47946.2 472382.0 0
51414.0 474164.0 0
54768.8 472000.0 0
58229.5 473700.0 0
65008.8 473117.0 0
71765.1 472448.0 0
75233.0 473987.0 0
78494.7 471669.0 0
81988.5 473133.0 0
88745.5 472427.0 0
92313.8 473941.0 0
99154.5 473279.0 0
105715.0 471607.0 0
115871.0 470108.0 0
119720.0 470744.0 0
123587.0 471316.0 0
127469.0 471822.0 0
137734.0 469721.0 0
141608.0 470020.0 0
145477.0 470272.0 0
149340.0 470484.0 0
153198.0 470660.0 0
157051.0 470805.0 0
160902.0 470922.0 0
164750.0 471015.0 0
168596.0 471083.0 0
172438.0 471128.0 0
176275.0 471150.0 0
180105.0 471151.0 0
183928.0 471131.0 0
187742.0 471093.0 0
191547.0 471040.0 0
195342.0 470973.0 0
199126.0 470895.0 0
202899.0 470809.0 0
206661.0 470718.0 0
210411.0 470625.0 0
214150.0 470534.0 0
217878.0 470448.0 0
221596.0 470371.0 0
225305.0 470308.0 0
229006.0 470261.0 0
232699.0 470234.0 0
236387.0 470230.0 0
240070.0 470250.0 0
243749.0 470297.0 0
247427.0 470370.0 0
251105.0 470469.0 0
254783.0 470592.0 0
258463.0 470737.0 0
262146.0 470903.0 0
265834.0 471085.0 0
269527.0 471282.0 0
273227.0 471490.0 0
289848.0 469215.0 0
293578.0 469437.0 0
297317.0 469651.0 0
301064.0 469854.0 0
304819.0 470044.0 0
308580.0 470220.0 0
312348.0 470379.0 0
316121.0 470520.0 0
319899.0 470641.0 0
323682.0 470739.0 0
327466.0 470811.0 0
331251.0 470854.0 0
335033.0 470866.0 0
338812.0 470843.0 0
342594.0 470766.0 0
346406.0 470539.0 0
350273.0 469672.0 0
356258.0 472345.0 0
359946.0 471767.0 0
363601.0 470961.0 0
367239.0 470073.0 0
370899.0 469179.0 0
377410.0 470900.0 0
387421.0 474028.0 0
391106.0 472860.0 0
394753.0 471713.0 0
401535.0 472962.0 0
405171.0 471798.0 0
411955.0 472957.0 0
415569.0 471686.0 0
422340.0 472711.0 0
429076.0 473548.0 0
432582.0 471912.0 0
439321.0 472333.0 0
446110.0 472635.0 0
452923.0 472926.0 0
44558.3 474504.0 0
48056.8 476330.0 0
54904.6 475905.0 0
61708.8 475362.0 0
68482.6 474705.0 0
71971.2 476276.0 0
78735.5 475406.0 0
85512.7 474612.0 0
89082.8 476101.0 0
95966.9 475411.0 0
99806.4 476969.0 0
102923.0 474461.0 0
109522.0 472249.0 0
113356.0 472926.0 0
117211.0 473580.0 0
121083.0 474179.0 0
124970.0 474712.0 0
131363.0 472264.0 0
135264.0 472646.0 0
139161.0 472979.0 0
143051.0 473263.0 0
146936.0 473504.0 0
150815.0 473705.0 0
154689.0 473872.0 0
158559.0 474009.0 0
162425.0 474119.0 0
166287.0 474204.0 0
170145.0 474265.0 0
173998.0 474304.0 0
177845.0 474321.0 0
181684.0 474319.0 0
185515.0 474298.0 0
189338.0 474261.0 0
193151.0 474211.0 0
196954.0 474149.0 0
200746.0 474078.0 0
204528.0 474002.0 0
208298.0 473922.0 0
212057.0 473842.0 0
215806.0 473766.0 0
219544.0 473696.0 0
223273.0 473637.0 0
226994.0 473592.0 0
230708.0 473564.0 0
234415.0 473556.0 0
238117.0 473570.0 0
241815.0 473609.0 0
245511.0 473672.0 0
249205.0 473759.0 0
252899.0 473870.0 0
256595.0 474002.0 0
260293.0 474155.0 0
276934.0 471706.0 0
280649.0 471927.0 0
284372.0 472149.0 0
288104.0 472369.0 0
291845.0 472586.0 0
295595.0 472794.0 0
299354.0 472994.0 0
303121.0 473182.0 0
306896.0 473357.0 0
310678.0 473516.0 0
314467.0 473659.0 0
318263.0 473782.0 0
322064.0 473883.0 0
325872.0 473960.0 0
329684.0 474009.0 0
333501.0 474025.0 0
337325.0 474003.0 0
341162.0 473924.0 0
345024.0 473730.0 0
348897.0 473234.0 0
352585.0 472768.0 0
362549.0 474524.0 0
366283.0 473670.0 0
369998.0 472771.0 0
373718.0 471862.0 0
380297.0 473541.0 0
384006.0 472381.0 0
390557.0 476337.0 0
394236.0 475229.0 0
397890.0 474103.0 0
404664.0 475378.0 0
408318.0 474187.0 0
415116.0 475342.0 0
418753.0 474055.0 0
425525.0 475090.0 0
432301.0 475815.0 0
435825.0 474105.0 0
439102.0 476254.0 0
442620.0 474443.0 0
445955.0 476551.0 0
449450.0 474748.0 0
456287.0 475031.0 0
51577.1 478113.0 0
58414.6 477610.0 0
61939.8 479276.0 0
65204.1 476981.0 0
68713.0 478567.0 0
75457.7 477838.0 0
79023.6 479166.0 0
82255.5 476855.0 0
85787.2 478313.0 0
92723.9 477582.0 0
96451.1 478991.0 0
104448.0 477910.0 0
106962.0 475096.0 0
110834.0 475778.0 0
114701.0 476442.0 0
118579.0 477067.0 0
128875.0 475178.0 0
132801.0 475582.0 0
136719.0 475946.0 0
140630.0 476263.0 0
144535.0 476532.0 0
148435.0 476760.0 0
152329.0 476949.0 0
156218.0 477107.0 0
160102.0 477235.0 0
263994.0 474324.0 0
267700.0 474508.0 0
271413.0 474705.0 0
275132.0 474909.0 0
278858.0 475120.0 0
282593.0 475333.0 0
286336.0 475546.0 0
290088.0 475756.0 0
293848.0 475960.0 0
297618.0 476156.0 0
301397.0 476342.0 0
305184.0 476516.0 0
308979.0 476675.0 0
312783.0 476818.0 0
316594.0 476942.0 0
320414.0 477046.0 0
324241.0 477126.0 0
328077.0 477179.0 0
335778.0 477181.0 0
339651.0 477107.0 0
343547.0 476944.0 0
347461.0 476641.0 0
351270.0 476265.0 0
355019.0 475816.0 0
358781.0 475254.0 0
365188.0 477257.0 0
368981.0 476376.0 0
372764.0 475466.0 0
376556.0 474546.0 0
383166.0 476193.0 0
386821.0 477391.0 0
393650.0 478773.0 0
397329.0 477669.0 0
401001.0 476537.0 0
407776.0 477813.0 0
411454.0 476596.0 0
418266.0 477761.0 0
421920.0 476485.0 0
425117.0 478963.0 0
428733.0 477437.0 0
435559.0 478051.0 0
442424.0 478370.0 0
449310.0 478706.0 0
452801.0 476873.0 0
456151.0 479003.0 0
459662.0 477143.0 0
55119.3 479857.0 0
58685.7 481568.0 0
65472.4 480893.0 0
72221.6 480159.0 0
75721.3 481745.0 0
82563.4 480614.0 0
89304.5 479772.0 0
92757.0 481233.0 0
101595.0 480356.0 0
105762.0 481492.0 0
108314.0 478641.0 0
112180.0 479330.0 0
122476.0 477632.0 0
126392.0 478124.0 0
130349.0 478531.0 0
134289.0 478924.0 0
138218.0 479273.0 0
142140.0 479573.0 0
146059.0 479826.0 0
163982.0 477337.0 0
167857.0 477415.0 0
171725.0 477470.0 0
175588.0 477503.0 0
179443.0 477517.0 0
183291.0 477512.0 0
187130.0 477491.0 0
190961.0 477455.0 0
194781.0 477408.0 0
198591.0 477352.0 0
202391.0 477289.0 0
206180.0 477222.0 0
209958.0 477154.0 0
213726.0 477087.0 0
217483.0 477025.0 0
221231.0 476970.0 0
224971.0 476927.0 0
228703.0 476899.0 0
232429.0 476889.0 0
236149.0 476898.0 0
239865.0 476930.0 0
243578.0 476985.0 0
247288.0 477062.0 0
250998.0 477162.0 0
254708.0 477284.0 0
258419.0 477424.0 0
262134.0 477582.0 0
265853.0 477754.0 0
269577.0 477939.0 0
273307.0 478134.0 0
277044.0 478335.0 0
280789.0 478540.0 0
284543.0 478745.0 0
288305.0 478949.0 0
292076.0 479149.0 0
295856.0 479341.0 0
299645.0 479524.0 0
331922.0 477200.0 0
353710.0 479317.0 0
357532.0 478769.0 0
361366.0 478066.0 0
371697.0 479080.0 0
375536.0 478160.0 0
379407.0 477265.0 0
386290.0 480764.0 0
389963.0 479823.0 0
396686.0 481275.0 0
400389.0 480151.0 0
404088.0 478995.0 0
410877.0 480268.0 0
414581.0 479026.0 0
421429.0 480292.0 0
428324.0 481361.0 0
431970.0 479759.0 0
438884.0 480208.0 0
445778.0 480479.0 0
62283.7 483245.0 0
68988.0 482475.0 0
72501.3 484100.0 0
79358.4 482960.0 0
82925.7 484415.0 0
86104.2 482075.0 0
89633.7 483552.0 0
96165.8 482589.0 0
99662.8 483535.0 0
109639.0 482232.0 0
116065.0 479976.0 0
119967.0 480572.0 0
123889.0 481102.0 0
127927.0 481495.0 0
131879.0 481916.0 0
135820.0 482298.0 0
149974.0 480038.0 0
153882.0 480216.0 0
157785.0 480364.0 0
161682.0 480483.0 0
165573.0 480578.0 0
169458.0 480649.0 0
173337.0 480698.0 0
177208.0 480727.0 0
181071.0 480737.0 0
184926.0 480730.0 0
188773.0 480709.0 0
192610.0 480676.0 0
196437.0 480633.0 0
200254.0 480582.0 0
204060.0 480527.0 0
207856.0 480470.0 0
211641.0 480412.0 0
215416.0 480358.0 0
219182.0 480309.0 0
222939.0 480269.0 0
226689.0 480241.0 0
230432.0 480229.0 0
234169.0 480235.0 0
237901.0 480261.0 0
241630.0 480309.0 0
245356.0 480378.0 0
249079.0 480469.0 0
252803.0 480580.0 0
256527.0 480710.0 0
260254.0 480858.0 0
263984.0 481020.0 0
267719.0 481194.0 0
271460.0 481379.0 0
275207.0 481571.0 0
278962.0 481767.0 0
282725.0 481966.0 0
303443.0 479696.0 0
307251.0 479855.0 0
311067.0 479998.0 0
314893.0 480123.0 0
318729.0 480229.0 0
322574.0 480312.0 0
326429.0 480368.0 0
330295.0 480394.0 0
334174.0 480380.0 0
338070.0 480315.0 0
341987.0 480178.0 0
345924.0 479947.0 0
349862.0 479702.0 0
360118.0 481620.0 0
363997.0 480834.0 0
367856.0 479979.0 0
374386.0 481801.0 0
378237.0 480893.0 0
382276.0 480052.0 0
389271.0 483376.0 0
392976.0 482361.0 0
399703.0 483802.0 0
403440.0 482649.0 0
407165.0 481476.0 0
410238.0 483972.0 0
413977.0 482738.0 0
417702.0 481481.0 0
424652.0 482882.0 0
442249.0 482330.0 0
445652.0 484425.0 0
69247.9 486417.0 0
76027.1 485696.0 0
79740.9 486789.0 0
86503.7 485888.0 0
93188.4 485004.0 0
96855.8 486254.0 0
103314.0 484379.0 0
113528.0 482904.0 0
117433.0 483529.0 0
121355.0 484100.0 0
125536.0 484472.0 0
129484.0 484919.0 0
139756.0 482628.0 0
143691.0 482906.0 0
147625.0 483140.0 0
151552.0 483339.0 0
155474.0 483505.0 0
159388.0 483643.0 0
163297.0 483755.0 0
167198.0 483842.0 0
171092.0 483906.0 0
174979.0 483950.0 0
178858.0 483974.0 0
182728.0 483982.0 0
186590.0 483974.0 0
190442.0 483953.0 0
194285.0 483922.0 0
198118.0 483884.0 0
201941.0 483840.0 0
205754.0 483792.0 0
209555.0 483744.0 0
213347.0 483697.0 0
217128.0 483654.0 0
220901.0 483618.0 0
224666.0 483592.0 0
228425.0 483578.0 0
232178.0 483581.0 0
235926.0 483603.0 0
239669.0 483644.0 0
243409.0 483707.0 0
247146.0 483790.0 0
250882.0 483892.0 0
254618.0 484013.0 0
258356.0 484151.0 0
262096.0 484303.0 0
265841.0 484469.0 0
269591.0 484644.0 0
286497.0 482164.0 0
290277.0 482359.0 0
294066.0 482548.0 0
297865.0 482728.0 0
301674.0 482899.0 0
305492.0 483056.0 0
309321.0 483200.0 0
313159.0 483326.0 0
317008.0 483433.0 0
320867.0 483518.0 0
324739.0 483578.0 0
328622.0 483608.0 0
332519.0 483602.0 0
336431.0 483550.0 0
340358.0 483437.0 0
344297.0 483250.0 0
348239.0 483001.0 0
352317.0 482807.0 0
356223.0 482322.0 0
362774.0 484423.0 0
366664.0 483585.0 0
370534.0 482707.0 0
376995.0 484600.0 0
380735.0 483749.0 0
384387.0 483541.0 0
392234.0 486003.0 0
395964.0 484922.0 0
402720.0 486334.0 0
406487.0 485173.0 0
413311.0 486482.0 0
417081.0 485221.0 0
420891.0 484144.0 0
83337.4 488246.0 0
86976.1 489711.0 0
90122.9 487355.0 0
93838.3 488754.0 0
100612.0 487233.0 0
107098.0 485157.0 0
110967.0 485849.0 0
114872.0 486499.0 0
118790.0 487110.0 0
133436.0 485340.0 0
137382.0 485703.0 0
141334.0 486003.0 0
145285.0 486258.0 0
149232.0 486476.0 0
153171.0 486662.0 0
157104.0 486817.0 0
161029.0 486946.0 0
164947.0 487049.0 0
168857.0 487129.0 0
172758.0 487188.0 0
176652.0 487226.0 0
180537.0 487247.0 0
184414.0 487251.0 0
188281.0 487243.0 0
192139.0 487223.0 0
195987.0 487195.0 0
199826.0 487161.0 0
203653.0 487124.0 0
207471.0 487085.0 0
211277.0 487046.0 0
215074.0 487009.0 0
218861.0 486977.0 0
222640.0 486952.0 0
226412.0 486938.0 0
230179.0 486938.0 0
233941.0 486955.0 0
237698.0 486991.0 0
241450.0 487048.0 0
245200.0 487124.0 0
248947.0 487220.0 0
273348.0 484828.0 0
277112.0 485017.0 0
280883.0 485209.0 0
284664.0 485401.0 0
288452.0 485591.0 0
292251.0 485776.0 0
296058.0 485955.0 0
299876.0 486123.0 0
303704.0 486280.0 0
307543.0 486423.0 0
311392.0 486550.0 0
315252.0 486659.0 0
319124.0 486746.0 0
323009.0 486810.0 0
326906.0 486845.0 0
330816.0 486847.0 0
334741.0 486808.0 0
338678.0 486720.0 0
342622.0 486570.0 0
346561.0 486361.0 0
350481.0 486063.0 0
354959.0 485936.0 0
358870.0 485202.0 0
365461.0 487212.0 0
369339.0 486351.0 0
373189.0 485475.0 0
379616.0 487486.0 0
383364.0 487014.0 0
387121.0 486232.0 0
395191.0 488627.0 0
398948.0 487486.0 0
405736.0 488902.0 0
409530.0 487710.0 0
416402.0 488986.0 0
420277.0 488040.0 0
80026.3 490672.0 0
83763.9 492084.0 0
90689.6 491135.0 0
97656.6 489924.0 0
101527.0 490915.0 0
104447.0 488099.0 0
108352.0 488805.0 0
112268.0 489473.0 0
116191.0 490124.0 0
123146.0 487447.0 0
127088.0 487944.0 0
131039.0 488378.0 0
135016.0 488798.0 0
138988.0 489122.0 0
142958.0 489395.0 0
146923.0 489630.0 0
150881.0 489834.0 0
154831.0 490007.0 0
158772.0 490153.0 0
252693.0 487333.0 0
256440.0 487462.0 0
260190.0 487606.0 0
263944.0 487762.0 0
267702.0 487930.0 0
271467.0 488105.0 0
275239.0 488287.0 0
279018.0 488473.0 0
282806.0 488659.0 0
286602.0 488845.0 0
290408.0 489027.0 0
294224.0 489203.0 0
298050.0 489370.0 0
301886.0 489526.0 0
305733.0 489669.0 0
309592.0 489797.0 0
313462.0 489907.0 0
317345.0 489997.0 0
321240.0 490064.0 0
325149.0 490104.0 0
329071.0 490114.0 0
333007.0 490088.0 0
336956.0 490020.0 0
340913.0 489902.0 0
344871.0 489731.0 0
348825.0 489504.0 0
352731.0 489077.0 0
357694.0 488837.0 0
361571.0 488049.0 0
368162.0 490013.0 0
372019.0 489156.0 0
375842.0 488308.0 0
382333.0 490571.0 0
386136.0 489805.0 0
389910.0 488868.0 0
398158.0 491228.0 0
401935.0 490048.0 0
408771.0 491477.0 0
412583.0 490260.0 0
80617.9 494571.0 0
87510.6 493521.0 0
91390.1 494921.0 0
94581.0 492510.0 0
98544.4 493621.0 0
105709.0 491767.0 0
109640.0 492462.0 0
120742.0 490418.0 0
124673.0 490976.0 0
128624.0 491452.0 0
132588.0 491847.0 0
136667.0 492269.0 0
140652.0 492554.0 0
144632.0 492804.0 0
162706.0 490273.0 0
166631.0 490368.0 0
170548.0 490441.0 0
174456.0 490493.0 0
178356.0 490526.0 0
182247.0 490543.0 0
186128.0 490546.0 0
190000.0 490537.0 0
193863.0 490519.0 0
197716.0 490494.0 0
201558.0 490465.0 0
205390.0 490435.0 0
209211.0 490404.0 0
213021.0 490374.0 0
216821.0 490347.0 0
220613.0 490325.0 0
224397.0 490310.0 0
228176.0 490308.0 0
231949.0 490320.0 0
235718.0 490351.0 0
239483.0 490402.0 0
243243.0 490473.0 0
247000.0 490562.0 0
250755.0 490669.0 0
254510.0 490791.0 0
258267.0 490927.0 0
262028.0 491076.0 0
265794.0 491235.0 0
269565.0 491403.0 0
273343.0 491578.0 0
277129.0 491758.0 0
280923.0 491939.0 0
284726.0 492121.0 0
288539.0 492299.0 0
292361.0 492473.0 0
355293.0 491816.0 0
360406.0 491736.0 0
364285.0 490873.0 0
374716.0 492010.0 0
378528.0 491195.0 0
385120.0 493411.0 0
388954.0 492539.0 0
392732.0 491502.0 0
401108.0 493826.0 0
404889.0 492644.0 0
411798.0 494074.0 0
415672.0 492782.0 0
84360.1 495950.0 0
88221.8 497355.0 0
95551.3 496269.0 0
102560.0 494604.0 0
106398.0 495606.0 0
113559.0 493121.0 0
118306.0 493375.0 0
122225.0 494013.0 0
126187.0 494530.0 0
130207.0 494968.0 0
148606.0 493023.0 0
152572.0 493214.0 0
156529.0 493377.0 0
160477.0 493513.0 0
164417.0 493624.0 0
168348.0 493710.0 0
172271.0 493776.0 0
176186.0 493822.0 0
180091.0 493851.0 0
183986.0 493865.0 0
187872.0 493866.0 0
191748.0 493856.0 0
195614.0 493839.0 0
199470.0 493819.0 0
203315.0 493796.0 0
207149.0 493773.0 0
210973.0 493751.0 0
214785.0 493729.0 0
218588.0 493711.0 0
222383.0 493697.0 0
226171.0 493691.0 0
229955.0 493699.0 0
233735.0 493725.0 0
237509.0 493770.0 0
241279.0 493836.0 0
245044.0 493920.0 0
248806.0 494022.0 0
252567.0 494139.0 0
256330.0 494268.0 0
260096.0 494409.0 0
263867.0 494561.0 0
267643.0 494722.0 0
271426.0 494891.0 0
275217.0 495064.0 0
296194.0 492639.0 0
300038.0 492795.0 0
303893.0 492938.0 0
307760.0 493067.0 0
311639.0 493179.0 0
315530.0 493271.0 0
319434.0 493341.0 0
323352.0 493387.0 0
327284.0 493404.0 0
331230.0 493389.0 0
335189.0 493338.0 0
339158.0 493244.0 0
343136.0 493107.0 0
347117.0 492913.0 0
351156.0 492646.0 0
363156.0 494576.0 0
367015.0 493701.0 0
370873.0 492846.0 0
377434.0 494901.0 0
381272.0 494180.0 0
391803.0 495257.0 0
395607.0 494108.0 0
404043.0 496454.0 0
407829.0 495250.0 0
414877.0 496615.0 0
85087.1 499832.0 0
92378.9 498699.0 0
99630.2 497313.0 0
103458.0 498393.0 0
110295.0 496318.0 0
115804.0 496293.0 0
119704.0 497038.0 0
123721.0 497606.0 0
134191.0 495310.0 0
138376.0 495746.0 0
142364.0 496004.0 0
146349.0 496235.0 0
150329.0 496439.0 0
154301.0 496618.0 0
158263.0 496771.0 0
162216.0 496897.0 0
166161.0 496998.0 0
170098.0 497076.0 0
174028.0 497134.0 0
177947.0 497175.0 0
181857.0 497200.0 0
185755.0 497211.0 0
189644.0 497210.0 0
193523.0 497200.0 0
197391.0 497186.0 0
201249.0 497170.0 0
205096.0 497154.0 0
208932.0 497139.0 0
212756.0 497125.0 0
216569.0 497112.0 0
220373.0 497100.0 0
224170.0 497092.0 0
227962.0 497095.0 0
231750.0 497113.0 0
235533.0 497152.0 0
239310.0 497213.0 0
243081.0 497294.0 0
246848.0 497392.0 0
250613.0 497504.0 0
254380.0 497628.0 0
279016.0 495241.0 0
282825.0 495418.0 0
286643.0 495593.0 0
290471.0 495765.0 0
294310.0 495929.0 0
298161.0 496085.0 0
302023.0 496229.0 0
305896.0 496359.0 0
309782.0 496473.0 0
313681.0 496568.0 0
317593.0 496642.0 0
321518.0 496693.0 0
325457.0 496717.0 0
329410.0 496711.0 0
333376.0 496674.0 0
337354.0 496601.0 0
341341.0 496488.0 0
345341.0 496335.0 0
349334.0 496112.0 0
353941.0 495410.0 0
357843.0 494656.0 0
360519.0 497423.0 0
365881.0 497424.0 0
369735.0 496555.0 0
373589.0 495715.0 0
380162.0 497834.0 0
384040.0 497048.0 0
387936.0 496217.0 0
394734.0 497892.0 0
398538.0 496737.0 0
406981.0 499106.0 0
410763.0 497879.0 0
89239.3 501173.0 0
96706.8 500031.0 0
100533.0 501115.0 0
107279.0 499441.0 0
113102.0 499059.0 0
117056.0 500006.0 0
127785.0 498074.0 0
131865.0 498484.0 0
135865.0 498776.0 0
140121.0 499235.0 0
144114.0 499472.0 0
148105.0 499685.0 0
152091.0 499878.0 0
156065.0 500048.0 0
160031.0 500191.0 0
163988.0 500305.0 0
167939.0 500394.0 0
171883.0 500463.0 0
175818.0 500515.0 0
179742.0 500553.0 0
183655.0 500574.0 0
187555.0 500581.0 0
191446.0 500578.0 0
195326.0 500569.0 0
258149.0 497763.0 0
261923.0 497908.0 0
265702.0 498063.0 0
269489.0 498225.0 0
273283.0 498393.0 0
277086.0 498564.0 0
280898.0 498737.0 0
284720.0 498909.0 0
288553.0 499078.0 0
292397.0 499242.0 0
296253.0 499397.0 0
300121.0 499542.0 0
304001.0 499674.0 0
307893.0 499790.0 0
311798.0 499889.0 0
315717.0 499967.0 0
319648.0 500022.0 0
323594.0 500053.0 0
327552.0 500056.0 0
331523.0 500031.0 0
335506.0 499975.0 0
339498.0 499886.0 0
343500.0 499751.0 0
347526.0 499593.0 0
352156.0 498827.0 0
356552.0 498352.0 0
368586.0 500292.0 0
372445.0 499438.0 0
376305.0 498615.0 0
382904.0 500733.0 0
386801.0 499900.0 0
390762.0 499016.0 0
397670.0 500560.0 0
401475.0 499418.0 0
413791.0 500429.0 0
93558.9 502476.0 0
104345.0 502237.0 0
110373.0 501877.0 0
114248.0 502831.0 0
121205.0 500660.0 0
125337.0 501177.0 0
129455.0 501616.0 0
133586.0 502001.0 0
137577.0 502260.0 0
141894.0 502737.0 0
145901.0 502957.0 0
149899.0 503157.0 0
199195.0 500559.0 0
203053.0 500549.0 0
206900.0 500540.0 0
210736.0 500533.0 0
214560.0 500528.0 0
218373.0 500520.0 0
222177.0 500513.0 0
225976.0 500510.0 0
229770.0 500520.0 0
233558.0 500551.0 0
237340.0 500606.0 0
241116.0 500684.0 0
244886.0 500780.0 0
248652.0 500890.0 0
252419.0 501009.0 0
256189.0 501138.0 0
259964.0 501277.0 0
263745.0 501425.0 0
267532.0 501581.0 0
271328.0 501743.0 0
275132.0 501909.0 0
278946.0 502078.0 0
282771.0 502247.0 0
286607.0 502414.0 0
290455.0 502576.0 0
294315.0 502731.0 0
298187.0 502877.0 0
302072.0 503011.0 0
345642.0 503046.0 0
350400.0 502295.0 0
354696.0 501826.0 0
359333.0 501133.0 0
363214.0 500259.0 0
371276.0 503186.0 0
375149.0 502350.0 0
379021.0 501541.0 0
385635.0 503629.0 0
389546.0 502758.0 0
393743.0 501661.0 0
400586.0 503288.0 0
404406.0 502123.0 0
101419.0 504968.0 0
107511.0 504623.0 0
118587.0 503645.0 0
122832.0 504256.0 0
127019.0 504747.0 0
131188.0 505160.0 0
135336.0 505533.0 0
153883.0 503345.0 0
157861.0 503504.0 0
161831.0 503634.0 0
165793.0 503734.0 0
169751.0 503811.0 0
173702.0 503872.0 0
177643.0 503920.0 0
181571.0 503955.0 0
185485.0 503972.0 0
189387.0 503975.0 0
193278.0 503970.0 0
197156.0 503965.0 0
201023.0 503960.0 0
204879.0 503956.0 0
208725.0 503954.0 0
212562.0 503956.0 0
216385.0 503959.0 0
220197.0 503954.0 0
224001.0 503947.0 0
227800.0 503949.0 0
231591.0 503970.0 0
235374.0 504015.0 0
239152.0 504089.0 0
242922.0 504185.0 0
246686.0 504295.0 0
250451.0 504411.0 0
254219.0 504535.0 0
257992.0 504668.0 0
261771.0 504810.0 0
265558.0 504959.0 0
269352.0 505116.0 0
273156.0 505277.0 0
276970.0 505442.0 0
305971.0 503130.0 0
309882.0 503232.0 0
313807.0 503315.0 0
317744.0 503376.0 0
321695.0 503413.0 0
325659.0 503424.0 0
329634.0 503409.0 0
333620.0 503367.0 0
337614.0 503298.0 0
341637.0 503183.0 0
357510.0 504597.0 0
362031.0 504007.0 0
365911.0 503145.0 0
377845.0 505289.0 0
381737.0 504467.0 0
388347.0 506538.0 0
392518.0 505399.0 0
396682.0 504362.0 0
111460.0 505692.0 0
115791.0 506486.0 0
120221.0 507266.0 0
124522.0 507852.0 0
139327.0 505762.0 0
143697.0 506250.0 0
147722.0 506455.0 0
151713.0 506660.0 0
155703.0 506837.0 0
159689.0 506983.0 0
163666.0 507100.0 0
167633.0 507181.0 0
171600.0 507245.0 0
175558.0 507303.0 0
179504.0 507350.0 0
183437.0 507383.0 0
187352.0 507395.0 0
191252.0 507391.0 0
195137.0 507390.0 0
199010.0 507390.0 0
202872.0 507389.0 0
206725.0 507391.0 0
210571.0 507395.0 0
214409.0 507409.0 0
218233.0 507418.0 0
222046.0 507408.0 0
225851.0 507400.0 0
229642.0 507413.0 0
233421.0 507448.0 0
237193.0 507509.0 0
240961.0 507607.0 0
244717.0 507723.0 0
248477.0 507837.0 0
252241.0 507956.0 0
256010.0 508083.0 0
280795.0 505607.0 0
284633.0 505772.0 0
288482.0 505932.0 0
292345.0 506087.0 0
296221.0 506233.0 0
300111.0 506369.0 0
304015.0 506491.0 0
307932.0 506597.0 0
311863.0 506685.0 0
315807.0 506752.0 0
319763.0 506795.0 0
323732.0 506815.0 0
327712.0 506810.0 0
331700.0 506779.0 0
335697.0 506726.0 0
339739.0 506624.0 0
343761.0 506512.0 0
348533.0 505741.0 0
352911.0 505351.0 0
355752.0 508126.0 0
360210.0 507503.0 0
364716.0 506917.0 0
368602.0 506070.0 0
373959.0 506107.0 0
380532.0 508240.0 0
384441.0 507404.0 0
395432.0 508123.0 0
128761.0 508318.0 0
132948.0 508721.0 0
137121.0 509080.0 0
141113.0 509279.0 0
145544.0 509768.0 0
149535.0 509992.0 0
153548.0 510185.0 0
157557.0 510349.0 0
161552.0 510484.0 0
165540.0 510587.0 0
169513.0 510637.0 0
173483.0 510701.0 0
177448.0 510757.0 0
181404.0 510803.0 0
185346.0 510835.0 0
189263.0 510839.0 0
193145.0 510837.0 0
197018.0 510841.0 0
200883.0 510844.0 0
204739.0 510847.0 0
208588.0 510853.0 0
212432.0 510863.0 0
259785.0 508218.0 0
263567.0 508362.0 0
267358.0 508513.0 0
271158.0 508669.0 0
274970.0 508829.0 0
278793.0 508991.0 0
282629.0 509152.0 0
286479.0 509311.0 0
290343.0 509465.0 0
294222.0 509611.0 0
298115.0 509748.0 0
302023.0 509873.0 0
305946.0 509983.0 0
309883.0 510076.0 0
313834.0 510149.0 0
317798.0 510200.0 0
321773.0 510228.0 0
325759.0 510231.0 0
329753.0 510213.0 0
333754.0 510169.0 0
337814.0 510077.0 0
341851.0 509980.0 0
346664.0 509218.0 0
351015.0 508836.0 0
362896.0 510445.0 0
367391.0 509863.0 0
371285.0 509021.0 0
376624.0 509067.0 0
391332.0 509183.0 0
142957.0 512796.0 0
216277.0 510893.0 0
220117.0 510895.0 0
223935.0 510875.0 0
227725.0 510882.0 0
231496.0 510909.0 0
235253.0 510959.0 0
239001.0 511038.0 0
242745.0 511174.0 0
246499.0 511287.0 0
250256.0 511402.0 0
254019.0 511523.0 0
257787.0 511652.0 0
261562.0 511790.0 0
265346.0 511934.0 0
269140.0 512085.0 0
272946.0 512240.0 0
276765.0 512398.0 0
280598.0 512556.0 0
284445.0 512712.0 0
288308.0 512865.0 0
292187.0 513011.0 0
296082.0 513149.0 0
299994.0 513275.0 0
303922.0 513389.0 0
307866.0 513487.0 0
339921.0 513456.0 0
344757.0 512706.0 0
349132.0 512345.0 0
353864.0 511621.0 0
358447.0 511062.0 0
171410.0 514115.0 0
175396.0 514177.0 0
179375.0 514231.0 0
183352.0 514274.0 0
187334.0 514299.0 0
194481.0 514565.0 0
198469.0 514525.0 0
202444.0 514482.0 0
206406.0 514439.0 0
210353.0 514397.0 0
214283.0 514361.0 0
218197.0 514380.0 0
222113.0 514389.0 0
226050.0 514471.0 0
230006.0 514580.0 0
233977.0 514711.0 0
237963.0 514864.0 0
311826.0 513566.0 0
315799.0 513625.0 0
319784.0 513661.0 0
323778.0 513673.0 0
327777.0 513663.0 0
331796.0 513630.0 0
335866.0 513544.0 0
POINT_DATA 4650
SCALARS Radius float 1
LOOKUP_TABLE default
4000.0 4000.0 4000.0 4000.0 4000.0 4000.0 4000.0 4000.0 4000.0 4000.0 4000.0 4000.0 4000.0 4000.0 4000.0 4000.0 4000.0 4000.0 4000.0 4000.0 4000.0 4000.0 4000.0 4000.0 4000.0 4000.0 4000.0 4000.0 4000.0 4000.0 4000.0 4000.0 4000.0 4000.0 4000.0 4000.0 4000.0 4000.0 4000.0 4000.0 4000.0 4000.0 4000.0 4000.0 4000.0 4000.0 4000.0 4000.0 4000.0 4000.0 4000.0 4000.0 4000.0 4000.0 4000.0 4000.0 4000.0 4000.0 4000.0 4000.0 4000.0 4000.0 4000.0 4000.0 4000.0 4000.0 4000.0 4000.0 4000.0 4000.0 4000.0 4000.0 4000.0 4000.0 4000.0 4000.0 4000.0 4000.0 4000.0 4000.0 4000.0 4000.0 4000.0 4000.0 4000.0 4000.0 4000.0 4000.0 4000.0 4000.0 4000.0 4000.0 4000.0 4000.0 4000.0 4000.0 4000.0 4000.0 4000.0 4000.0 4000.0 4000.0 4000.0 4000.0 4000.0 4000.0 4000.0 4000.0 4000.0 4000.0 4000.0 4000.0 4000.0 4000.0 4000.0 4000.0 4000.0 4000.0 4000.0 4000.0 4000.0 4000.0 4000.0 4000.0 4000.0 4000.0 4000.0 4000.0 4000.0 4000.0 4000.0 4000.0 4000.0 4000.0 4000.0 4000.0 4000.0 4000.0 4000.0 4000.0 4000.0 4000.0 4000.0 4000.0 4000.0 4000.0 4000.0 4000.0 4000.0 4000.0 4000.0 4000.0 4000.0 4000.0 4000.0 4000.0 4000.0 4000.0 4000.0 4000.0 4000.0 4000.0 4000.0 4000.0 4000.0 4000.0 4000.0 4000.0 4000.0 4000.0 4000.0 4000.0 4000.0 4000.0 4000.0 4000.0 4000.0 4000.0 4000.0 4000.0 4000.0 4000.0 4000.0 4000.0 4000.0 4000.0 4000.0 4000.0 4000.0 4000.0 4000.0 4000.0 4000.0 4000.0 4000.0 4000.0 4000.0 4000.0 4000.0 4000.0 4000.0 4000.0 4000.0 4000.0 4000.0 4000.0 4000.0 4000.0 4000.0 4000.0 4000.0 4000.0 4000.0 4000.0 4000.0 4000.0 4000.0 4000.0 4000.0 4000.0 4000.0 4000.0 4000.0 4000.0 4000.0 4000.0 4000.0 4000.0 4000.0 4000.0 4000.0 4000.0 4000.0 4000.0 4000.0 4000.0 4000.0 4000.0 4000.0 4000.0 4000.0 4000.0 4000.0 4000.0 4000.0 4000.0 4000.0 4000.0 4000.0 4000.0 4000.0 4000.0 4000.0 4000.0 4000.0 4000.0 4000.0 4000.0 4000.0 4000.0 4000.0 4000.0 4000.0 4000.0 4000.0 4000.0 4000.0 4000.0 4000.0 4000.0 4000.0 4000.0 4000.0 4000.0 4000.0 4000.0 4000.0 4000.0 4000.0 4000.0 4000.0 4000.0 4000.0 4000.0 4000.0 4000.0 4000.0 4000.0 4000.0 4000.0 4000.0 4000.0 4000.0 4000.0 4000.0 4000.0 4000.0 4000.0 4000.0 4000.0 4000.0 4000.0 4000.0 4000.0 4000.0 4000.0 4000.0 4000.0 4000.0 4000.0 4000.0 4000.0 4000.0 4000.0 4000.0 4000.0 4000.0 4000.0 4000.0 4000.0 4000.0 4000.0 4000.0 4000.0 4000.0 4000.0 4000.0 4000.0 4000.0 4000.0 4000.0 4000.0 4000.0 4000.0 4000.0 4000.0 4000.0 4000.0 4000.0 4000.0 4000.0 4000.0 4000.0 4000.0 4000.0 4000.0 4000.0 4000.0 4000.0 4000.0 4000.0 4000.0 4000.0 4000.0 4000.0 4000.0 4000.0 4000.0 4000.0 4000.0 4000.0 4000.0 4000.0 4000.0 4000.0 4000.0 4000.0 4000.0 4000.0 4000.0 4000.0 4000.0 4000.0 4000.0 4000.0 4000.0 4000.0 4000.0 4000.0 4000.0 4000.0 4000.0 4000.0 4000.0 4000.0 4000.0 4000.0 4000.0 4000.0 4000.0 4000.0 4000.0 4000.0 4000.0 4000.0 4000.0 4000.0 4000.0 4000.0 4000.0 4000.0 4000.0 4000.0 4000.0 4000.0 4000.0 4000.0 4000.0 4000.0 4000.0 4000.0 4000.0 4000.0 4000.0 4000.0 4000.0 4000.0 4000.0 4000.0 4000.0 4000.0 4000.0 4000.0 4000.0 4000.0 4000.0 4000.0 4000.0 4000.0 4000.0 4000.0 4000.0 4000.0 4000.0 4000.0 4000.0 4000.0 4000.0 4000.0 4000.0 4000.0 4000.0 4000.0 4000.0 4000.0 4000.0 4000.0 4000.0 4000.0 4000.0 4000.0 4000.0 4000.0 4000.0 4000.0 4000.0 4000.0 4000.0 4000.0 4000.0 4000.0 4000.0 4000.0 4000.0 4000.0 4000.0 4000.0 4000.0 4000.0 4000.0 4000.0 4000.0 4000.0 4000.0 4000.0 4000.0 4000.0 4000.0 4000.0 4000.0 4000.0 4000.0 4000.0 4000.0 4000.0 4000.0 4000.0 4000.0 4000.0 4000.0 4000.0 4000.0 4000.0 4000.0 4000.0 4000.0 4000.0 4000.0 4000.0 4000.0 4000.0 4000.0 4000.0 4000.0 4000.0 4000.0 4000.0 4000.0 4000.0 4000.0 4000.0 4000.0 4000.0 4000.0 4000.0 4000.0 4000.0 4000.0 4000.0 4000.0 4000.0 4000.0 4000.0 4000.0 4000.0 4000.0 4000.0 4000.0 4000.0 4000.0 4000.0 4000.0 4000.0 4000.0 4000.0 4000.0 4000.0 4000.0 4000.0 4000.0 4000.0 4000.0 4000.0 4000.0 4000.0 4000.0 4000.0 4000.0 4000.0 4000.0 4000.0 4000.0 4000.0 4000.0 4000.0 4000.0 4000.0 4000.0 4000.0 4000.0 4000.0 4000.0 4000.0 4000.0 4000.0 4000.0 4000.0 4000.0 4000.0 4000.0 4000.0 4000.0 4000.0 4000.0 4000.0 4000.0 4000.0 4000.0 4000.0 4000.0 4000.0 4000.0 4000.0 4000.0 4000.0 4000.0 4000.0 4000.0 4000.0 4000.0 4000.0 4000.0 4000.0 4000.0 4000.0 4000.0 4000.0 4000.0 4000.0 4000.0 4000.0 4000.0 4000.0 4000.0 4000.0 4000.0 4000.0 4000.0 4000.0 4000.0 4000.0 4000.0 4000.0 4000.0 4000.0 4000.0 4000.0 4000.0 4000.0 4000.0 4000.0 4000.0 4000.0 4000.0 4000.0 4000.0 4000.0 4000.0 4000.0 4000.0 4000.0 4000.0 4000.0 4000.0 4000.0 4000.0 4000.0 4000.0 4000.0 4000.0 4000.0 4000.0 4000.0 4000.0 4000.0 4000.0 4000.0 4000.0 4000.0 4000.0 4000.0 4000.0 4000.0 4000.0 4000.0 4000.0 4000.0 4000.0 4000.0 4000.0 4000.0 4000.0 4000.0 4000.0 4000.0 4000.0 4000.0 4000.0 4000.0 4000.0 4000.0 4000.0 4000.0 4000.0 4000.0 4000.0 4000.0 4000.0 4000.0 4000.0 4000.0 4000.0 4000.0 4000.0 4000.0 4000.0 4000.0 4000.0 4000.0 4000.0 4000.0 4000.0 4000.0 4000.0 4000.0 4000.0 4000.0 4000.0 4000.0 4000.0 4000.0 4000.0 4000.0 4000.0 4000.0 4000.0 4000.0 4000.0 4000.0 4000.0 4000.0 4000.0 4000.0 4000.0 4000.0 4000.0 4000.0 4000.0 4000.0 4000.0 4000.0 4000.0 4000.0 4000.0 4000.0 4000.0 4000.0 4000.0 4000.0 4000.0 4000.0 4000.0 4000.0 4000.0 4000.0 4000.0 4000.0 4000.0 4000.0 4000.0 4000.0 4000.0 4000.0 4000.0 4000.0 4000.0 4000.0 4000.0 4000.0 4000.0 4000.0 4000.0 4000.0 4000.0 4000.0 4000.0 4000.0 4000.0 4000.0 4000.0 4000.0 4000.0 4000.0 4000.0 4000.0 4000.0 4000.0 4000.0 4000.0 4000.0 4000.0 4000.0 4000.0 4000.0 4000.0 4000.0 4000.0 4000.0 4000.0 4000.0 4000.0 4000.0 4000.0 4000.0 4000.0 4000.0 4000.0 4000.0 4000.0 4000.0 4000.0 4000.0 4000.0 4000.0 4000.0 4000.0 4000.0 4000.0 4000.0 4000.0 4000.0 4000.0 4000.0 4000.0 4000.0 4000.0 4000.0 4000.0 4000.0 4000.0 4000.0 4000.0 4000.0 4000.0 4000.0 4000.0 4000.0 4000.0 4000.0 4000.0 4000.0 4000.0 4000.0 4000.0 4000.0 4000.0 4000.0 4000.0 4000.0 4000.0 4000.0 4000.0 4000.0 4000.0 4000.0 4000.0 4000.0 4000.0 4000.0 4000.0 4000.0 4000.0 4000.0 4000.0 4000.0 4000.0 4000.0 4000.0 4000.0 4000.0 4000.0 4000.0 4000.0 4000.0 4000.0 4000.0 4000.0 4000.0 4000.0 4000.0 4000.0 4000.0 4000.0 4000.0 4000.0 4000.0 4000.0 4000.0 4000.0 4000.0 4000.0 4000.0 4000.0 4000.0 4000.0 4000.0 4000.0 4000.0 4000.0 4000.0 4000.0 4000.0 4000.0 4000.0 4000.0 4000.0 4000.0 4000.0 4000.0 4000.0 4000.0 4000.0 4000.0 4000.0 4000.0 4000.0 4000.0 4000.0 4000.0 4000.0 4000.0 4000.0 4000.0 4000.0 4000.0 4000.0 4000.0 4000.0 4000.0 4000.0 4000.0 4000.0 4000.0 4000.0 4000.0 4000.0 4000.0 4000.0 4000.0 4000.0 4000.0 4000.0 4000.0 4000.0 4000.0 4000.0 4000.0 4000.0 4000.0 4000.0 4000.0 4000.0 4000.0 4000.0 4000.0 4000.0 4000.0 4000.0 4000.0 4000.0 4000.0 4000.0 4000.0 4000.0 4000.0 4000.0 4000.0 4000.0 4000.0 4000.0 4000.0 4000.0 4000.0 4000.0 4000.0 4000.0 4000.0 4000.0 4000.0 4000.0 4000.0 4000.0 4000.0 4000.0 4000.0 4000.0 4000.0 4000.0 4000.0 4000.0 4000.0 4000.0 4000.0 4000.0 4000.0 4000.0 4000.0 4000.0 4000.0 4000.0 4000.0 4000.0 4000.0 4000.0 4000.0 4000.0 4000.0 4000.0 4000.0 4000.0 4000.0 4000.0 4000.0 4000.0 4000.0 4000.0 4000.0 4000.0 4000.0 4000.0 4000.0 4000.0 4000.0 4000.0 4000.0 4000.0 4000.0 4000.0 4000.0 4000.0 4000.0 4000.0 4000.0 4000.0 4000.0 4000.0 4000.0 4000.0 4000.0 4000.0 4000.0 4000.0 4000.0 4000.0 4000.0 4000.0 4000.0 4000.0 4000.0 4000.0 4000.0 4000.0 4000.0 4000.0 4000.0 4000.0 4000.0 4000.0 4000.0 4000.0 4000.0 4000.0 4000.0 4000.0 4000.0 4000.0 4000.0 4000.0 4000.0 4000.0 4000.0 4000.0 4000.0 4000.0 4000.0 4000.0 4000.0 4000.0 4000.0 4000.0 4000.0 4000.0 4000.0 4000.0 4000.0 4000.0 4000.0 4000.0 4000.0 4000.0 4000.0 4000.0 4000.0 4000.0 4000.0 4000.0 4000.0 4000.0 4000.0 4000.0 4000.0 4000.0 4000.0 4000.0 4000.0 4000.0 4000.0 4000.0 4000.0 4000.0 4000.0 4000.0 4000.0 4000.0 4000.0 4000.0 4000.0 4000.0 4000.0 4000.0 4000.0 4000.0 4000.0 4000.0 4000.0 4000.0 4000.0 4000.0 4000.0 4000.0 4000.0 4000.0 4000.0 4000.0 4000.0 4000.0 4000.0 4000.0 4000.0 4000.0 4000.0 4000.0 4000.0 4000.0 4000.0 4000.0 4000.0 4000.0 4000.0 4000.0 4000.0 4000.0 4000.0 4000.0 4000.0 4000.0 4000.0 4000.0 4000.0 4000.0 4000.0 4000.0 4000.0 4000.0 4000.0 4000.0 4000.0 4000.0 4000.0 4000.0 4000.0 4000.0 4000.0 4000.0 4000.0 4000.0 4000.0 4000.0 4000.0 4000.0 4000.0 4000.0 4000.0 4000.0 4000.0 4000.0 4000.0 4000.0 4000.0 4000.0 4000.0 4000.0 4000.0 4000.0 4000.0 4000.0 4000.0 4000.0 4000.0 4000.0 4000.0 4000.0 4000.0 4000.0 4000.0 4000.0 4000.0 4000.0 4000.0 4000.0 4000.0 4000.0 4000.0 4000.0 4000.0 4000.0 4000.0 4000.0 4000.0 4000.0 4000.0 4000.0 4000.0 4000.0 4000.0 4000.0 4000.0 4000.0 4000.0 4000.0 4000.0 4000.0 4000.0 4000.0 4000.0 4000.0 4000.0 4000.0 4000.0 4000.0 4000.0 4000.0 4000.0 4000.0 4000.0 4000.0 4000.0 4000.0 4000.0 4000.0 4000.0 4000.0 4000.0 4000.0 4000.0 4000.0 4000.0 4000.0 4000.0 4000.0 4000.0 4000.0 4000.0 4000.0 4000.0 4000.0 4000.0 4000.0 4000.0 4000.0 4000.0 4000.0 4000.0 4000.0 4000.0 4000.0 4000.0 4000.0 4000.0 4000.0 4000.0 4000.0 4000.0 4000.0 4000.0 4000.0 4000.0 4000.0 4000.0 4000.0 4000.0 4000.0 4000.0 4000.0 4000.0 4000.0 4000.0 4000.0 4000.0 4000.0 4000.0 4000.0 4000.0 4000.0 4000.0 4000.0 4000.0 4000.0 4000.0 4000.0 4000.0 4000.0 4000.0 4000.0 4000.0 4000.0 4000.0 4000.0 4000.0 4000.0 4000.0 4000.0 4000.0 4000.0 4000.0 4000.0 4000.0 4000.0 4000.0 4000.0 4000.0 4000.0 4000.0 4000.0 4000.0 4000.0 4000.0 4000.0 4000.0 4000.0 4000.0 4000.0 4000.0 4000.0 4000.0 4000.0 4000.0 4000.0 4000.0 4000.0 4000.0 4000.0 4000.0 4000.0 4000.0 4000.0 4000.0 4000.0 4000.0 4000.0 4000.0 4000.0 4000.0 4000.0 4000.0 4000.0 4000.0 4000.0 4000.0 4000.0 4000.0 4000.0 4000.0 4000.0 4000.0 4000.0 4000.0 4000.0 4000.0 4000.0 4000.0 4000.0 4000.0 4000.0 4000.0 4000.0 4000.0 4000.0 4000.0 4000.0 4000.0 4000.0 4000.0 4000.0 4000.0 4000.0 4000.0 4000.0 4000.0 4000.0 4000.0 4000.0 4000.0 4000.0 4000.0 4000.0 4000.0 4000.0 4000.0 4000.0 4000.0 4000.0 4000.0 4000.0 4000.0 4000.0 4000.0 4000.0 4000.0 4000.0 4000.0 4000.0 4000.0 4000.0 4000.0 4000.0 4000.0 4000.0 4000.0 4000.0 4000.0 4000.0 4000.0 4000.0 4000.0 4000.0 4000.0 4000.0 4000.0 4000.0 4000.0 4000.0 4000.0 4000.0 4000.0 4000.0 4000.0 4000.0 4000.0 4000.0 4000.0 4000.0 4000.0 4000.0 4000.0 4000.0 4000.0 4000.0 4000.0 4000.0 4000.0 4000.0 4000.0 4000.0 4000.0 4000.0 4000.0 4000.0 4000.0 4000.0 4000.0 4000.0 4000.0 4000.0 4000.0 4000.0 4000.0 4000.0 4000.0 4000.0 4000.0 4000.0 4000.0 4000.0 4000.0 4000.0 4000.0 4000.0 4000.0 4000.0 4000.0 4000.0 4000.0 4000.0 4000.0 4000.0 4000.0 4000.0 4000.0 4000.0 4000.0 4000.0 4000.0 4000.0 4000.0 4000.0 4000.0 4000.0 4000.0 4000.0 4000.0 4000.0 4000.0 4000.0 4000.0 4000.0 4000.0 4000.0 4000.0 4000.0 4000.0 4000.0 4000.0 4000.0 4000.0 4000.0 4000.0 4000.0 4000.0 4000.0 4000.0 4000.0 4000.0 4000.0 4000.0 4000.0 4000.0 4000.0 4000.0 4000.0 4000.0 4000.0 4000.0 4000.0 4000.0 4000.0 4000.0 4000.0 4000.0 4000.0 4000.0 4000.0 4000.0 4000.0 4000.0 4000.0 4000.0 4000.0 4000.0 4000.0 4000.0 4000.0 4000.0 4000.0 4000.0 4000.0 4000.0 4000.0 4000.0 4000.0 4000.0 4000.0 4000.0 4000.0 4000.0 4000.0 4000.0 4000.0 4000.0 4000.0 4000.0 4000.0 4000.0 4000.0 4000.0 4000.0 4000.0 4000.0 4000.0 4000.0 4000.0 4000.0 4000.0 4000.0 4000.0 4000.0 4000.0 4000.0 4000.0 4000.0 4000.0 4000.0 4000.0 4000.0 4000.0 4000.0 4000.0 4000.0 4000.0 4000.0 4000.0 4000.0 4000.0 4000.0 4000.0 4000.0 4000.0 4000.0 4000.0 4000.0 4000.0 4000.0 4000.0 4000.0 4000.0 4000.0 4000.0 4000.0 4000.0 4000.0 4000.0 4000.0 4000.0 4000.0 4000.0 4000.0 4000.0 4000.0 4000.0 4000.0 4000.0 4000.0 4000.0 4000.0 4000.0 4000.0 4000.0 4000.0 4000.0 4000.0 4000.0 4000.0 4000.0 4000.0 4000.0 4000.0 4000.0 4000.0 4000.0 4000.0 4000.0 4000.0 4000.0 4000.0 4000.0 4000.0 4000.0 4000.0 4000.0 4000.0 4000.0 4000.0 4000.0 4000.0 4000.0 4000.0 4000.0 4000.0 4000.0 4000.0 4000.0 4000.0 4000.0 4000.0 4000.0 4000.0 4000.0 4000.0 4000.0 4000.0 4000.0 4000.0 4000.0 4000.0 4000.0 4000.0 4000.0 4000.0 4000.0 4000.0 4000.0 4000.0 4000.0 4000.0 4000.0 4000.0 4000.0 4000.0 4000.0 4000.0 4000.0 4000.0 4000.0 4000.0 4000.0 4000.0 4000.0 4000.0 4000.0 4000.0 4000.0 4000.0 4000.0 4000.0 4000.0 4000.0 4000.0 4000.0 4000.0 4000.0 4000.0 4000.0 4000.0 4000.0 4000.0 4000.0 4000.0 4000.0 4000.0 4000.0 4000.0 4000.0 4000.0 4000.0 4000.0 4000.0 4000.0 4000.0 4000.0 4000.0 4000.0 4000.0 4000.0 4000.0 4000.0 4000.0 4000.0 4000.0 4000.0 4000.0 4000.0 4000.0 4000.0 4000.0 4000.0 4000.0 4000.0 4000.0 4000.0 4000.0 4000.0 4000.0 4000.0 4000.0 4000.0 4000.0 4000.0 4000.0 4000.0 4000.0 4000.0 4000.0 4000.0 4000.0 4000.0 4000.0 4000.0 4000.0 4000.0 4000.0 4000.0 4000.0 4000.0 4000.0 4000.0 4000.0 4000.0 4000.0 4000.0 4000.0 4000.0 4000.0 4000.0 4000.0 4000.0 4000.0 4000.0 4000.0 4000.0 4000.0 4000.0 4000.0 4000.0 4000.0 4000.0 4000.0 4000.0 4000.0 4000.0 4000.0 4000.0 4000.0 4000.0 4000.0 4000.0 4000.0 4000.0 4000.0 4000.0 4000.0 4000.0 4000.0 4000.0 4000.0 4000.0 4000.0 4000.0 4000.0 4000.0 4000.0 4000.0 4000.0 4000.0 4000.0 4000.0 4000.0 4000.0 4000.0 4000.0 4000.0 4000.0 4000.0 4000.0 4000.0 4000.0 4000.0 4000.0 4000.0 4000.0 4000.0 4000.0 4000.0 4000.0 4000.0 4000.0 4000.0 4000.0 4000.0 4000.0 4000.0 4000.0 4000.0 4000.0 4000.0 4000.0 4000.0 4000.0 4000.0 4000.0 4000.0 4000.0 4000.0 4000.0 4000.0 4000.0 4000.0 4000.0 4000.0 4000.0 4000.0 4000.0 4000.0 4000.0 4000.0 4000.0 4000.0 4000.0 4000.0 4000.0 4000.0 4000.0 4000.0 4000.0 4000.0 4000.0 4000.0 4000.0 4000.0 4000.0 4000.0 4000.0 4000.0 4000.0 4000.0 4000.0 4000.0 4000.0 4000.0 4000.0 4000.0 4000.0 4000.0 4000.0 4000.0 4000.0 4000.0 4000.0 4000.0 4000.0 4000.0 4000.0 4000.0 4000.0 4000.0 4000.0 4000.0 4000.0 4000.0 4000.0 4000.0 4000.0 4000.0 4000.0 4000.0 4000.0 4000.0 4000.0 4000.0 4000.0 4000.0 4000.0 4000.0 4000.0 4000.0 4000.0 4000.0 4000.0 4000.0 4000.0 4000.0 4000.0 4000.0 4000.0 4000.0 4000.0 4000.0 4000.0 4000.0 4000.0 4000.0 4000.0 4000.0 4000.0 4000.0 4000.0 4000.0 4000.0 4000.0 4000.0 4000.0 4000.0 4000.0 4000.0 4000.0 4000.0 4000.0 4000.0 4000.0 4000.0 4000.0 4000.0 4000.0 4000.0 4000.0 4000.0 4000.0 4000.0 4000.0 4000.0 4000.0 4000.0 4000.0 4000.0 4000.0 4000.0 4000.0 4000.0 4000.0 4000.0 4000.0 4000.0 4000.0 4000.0 4000.0 4000.0 4000.0 4000.0 4000.0 4000.0 4000.0 4000.0 4000.0 4000.0 4000.0 4000.0 4000.0 4000.0 4000.0 4000.0 4000.0 4000.0 4000.0 4000.0 4000.0 4000.0 4000.0 4000.0 4000.0 4000.0 4000.0 4000.0 4000.0 4000.0 4000.0 4000.0 4000.0 4000.0 4000.0 4000.0 4000.0 4000.0 4000.0 4000.0 4000.0 4000.0 4000.0 4000.0 4000.0 4000.0 4000.0 4000.0 4000.0 4000.0 4000.0 4000.0 4000.0 4000.0 4000.0 4000.0 4000.0 4000.0 4000.0 4000.0 4000.0 4000.0 4000.0 4000.0 4000.0 4000.0 4000.0 4000.0 4000.0 4000.0 4000.0 4000.0 4000.0 4000.0 4000.0 4000.0 4000.0 4000.0 4000.0 4000.0 4000.0 4000.0 4000.0 4000.0 4000.0 4000.0 4000.0 4000.0 4000.0 4000.0 4000.0 4000.0 4000.0 4000.0 4000.0 4000.0 4000.0 4000.0 4000.0 4000.0 4000.0 4000.0 4000.0 4000.0 4000.0 4000.0 4000.0 4000.0 4000.0 4000.0 4000.0 4000.0 4000.0 4000.0 4000.0 4000.0 4000.0 4000.0 4000.0 4000.0 4000.0 4000.0 4000.0 4000.0 4000.0 4000.0 4000.0 4000.0 4000.0 4000.0 4000.0 4000.0 4000.0 4000.0 4000.0 4000.0 4000.0 4000.0 4000.0 4000.0 4000.0 4000.0 4000.0 4000.0 4000.0 4000.0 4000.0 4000.0 4000.0 4000.0 4000.0 4000.0 4000.0 4000.0 4000.0 4000.0 4000.0 4000.0 4000.0 4000.0 4000.0 4000.0 4000.0 4000.0 4000.0 4000.0 4000.0 4000.0 4000.0 4000.0 4000.0 4000.0 4000.0 4000.0 4000.0 4000.0 4000.0 4000.0 4000.0 4000.0 4000.0 4000.0 4000.0 4000.0 4000.0 4000.0 4000.0 4000.0 4000.0 4000.0 4000.0 4000.0 4000.0 4000.0 4000.0 4000.0 4000.0 4000.0 4000.0 4000.0 4000.0 4000.0 4000.0 4000.0 4000.0 4000.0 4000.0 4000.0 4000.0 4000.0 4000.0 4000.0 4000.0 4000.0 4000.0 4000.0 4000.0 4000.0 4000.0 4000.0 4000.0 4000.0 4000.0 4000.0 4000.0 4000.0 4000.0 4000.0 4000.0 4000.0 4000.0 4000.0 4000.0 4000.0 4000.0 4000.0 4000.0 4000.0 4000.0 4000.0 4000.0 4000.0 4000.0 4000.0 4000.0 4000.0 4000.0 4000.0 4000.0 4000.0 4000.0 4000.0 4000.0 4000.0 4000.0 4000.0 4000.0 4000.0 4000.0 4000.0 4000.0 4000.0 4000.0 4000.0 4000.0 4000.0 4000.0 4000.0 4000.0 4000.0 4000.0 4000.0 4000.0 4000.0 4000.0 4000.0 4000.0 4000.0 4000.0 4000.0 4000.0 4000.0 4000.0 4000.0 4000.0 4000.0 4000.0 4000.0 4000.0 4000.0 4000.0 4000.0 4000.0 4000.0 4000.0 4000.0 4000.0 4000.0 4000.0 4000.0 4000.0 4000.0 4000.0 4000.0 4000.0 4000.0 4000.0 4000.0 4000.0 4000.0 4000.0 4000.0 4000.0 4000.0 4000.0 4000.0 4000.0 4000.0 4000.0 4000.0 4000.0 4000.0 4000.0 4000.0 4000.0 4000.0 4000.0 4000.0 4000.0 4000.0 4000.0 4000.0 4000.0 4000.0 4000.0 4000.0 4000.0 4000.0 4000.0 4000.0 4000.0 4000.0 4000.0 4000.0 4000.0 4000.0 4000.0 4000.0 4000.0 4000.0 4000.0 4000.0 4000.0 4000.0 4000.0 4000.0 4000.0 4000.0 4000.0 4000.0 4000.0 4000.0 4000.0 4000.0 4000.0 4000.0 4000.0 4000.0 4000.0 4000.0 4000.0 4000.0 4000.0 4000.0 4000.0 4000.0 4000.0 4000.0 4000.0 4000.0 4000.0 4000.0 4000.0 4000.0 4000.0 4000.0 4000.0 4000.0 4000.0 4000.0 4000.0 4000.0 4000.0 4000.0 4000.0 4000.0 4000.0 4000.0 4000.0 4000.0 4000.0 4000.0 4000.0 4000.0 4000.0 4000.0 4000.0 4000.0 4000.0 4000.0 4000.0 4000.0 4000.0 4000.0 4000.0 4000.0 4000.0 4000.0 4000.0 4000.0 4000.0 4000.0 4000.0 4000.0 4000.0 4000.0 4000.0 4000.0 4000.0 4000.0 4000.0 4000.0 4000.0 4000.0 4000.0 4000.0 4000.0 4000.0 4000.0 4000.0 4000.0 4000.0 4000.0 4000.0 4000.0 4000.0 4000.0 4000.0 4000.0 4000.0 4000.0 4000.0 4000.0 4000.0 4000.0 4000.0 4000.0 4000.0 4000.0 4000.0 4000.0 4000.0 4000.0 4000.0 4000.0 4000.0 4000.0 4000.0 4000.0 4000.0 4000.0 4000.0 4000.0 4000.0 4000.0 4000.0 4000.0 4000.0 4000.0 4000.0 4000.0 4000.0 4000.0 4000.0 4000.0 4000.0 4000.0 4000.0 4000.0 4000.0 4000.0 4000.0 4000.0 4000.0 4000.0 4000.0 4000.0 4000.0 4000.0 4000.0 4000.0 4000.0 4000.0 4000.0 4000.0 4000.0 4000.0 4000.0 4000.0 4000.0 4000.0 4000.0 4000.0 4000.0 4000.0 4000.0 4000.0 4000.0 4000.0 4000.0 4000.0 4000.0 4000.0 4000.0 4000.0 4000.0 4000.0 4000.0 4000.0 4000.0 4000.0 4000.0 4000.0 4000.0 4000.0 4000.0 4000.0 4000.0 4000.0 4000.0 4000.0 4000.0 4000.0 4000.0 4000.0 4000.0 4000.0 4000.0 4000.0 4000.0 4000.0 4000.0 4000.0 4000.0 4000.0 4000.0 4000.0 4000.0 4000.0 4000.0 4000.0 4000.0 4000.0 4000.0 4000.0 4000.0 4000.0 4000.0 4000.0 4000.0 4000.0 4000.0 4000.0 4000.0 4000.0 4000.0 4000.0 4000.0 4000.0 4000.0 4000.0 4000.0 4000.0 4000.0 4000.0 4000.0 4000.0 4000.0 4000.0 4000.0 4000.0 4000.0 4000.0 4000.0 4000.0 4000.0 4000.0 4000.0 4000.0 4000.0 4000.0 4000.0 4000.0 4000.0 4000.0 4000.0 4000.0 4000.0 4000.0 4000.0 4000.0 4000.0 4000.0 4000.0 4000.0 4000.0 4000.0 4000.0 4000.0 4000.0 4000.0 4000.0 4000.0 4000.0 4000.0 4000.0 4000.0 4000.0 4000.0 4000.0 4000.0 4000.0 4000.0 4000.0 4000.0 4000.0 4000.0 4000.0 4000.0 4000.0 4000.0 4000.0 4000.0 4000.0 4000.0 4000.0 4000.0 4000.0 4000.0 4000.0 4000.0 4000.0 4000.0 4000.0 4000.0 4000.0 4000.0 4000.0 4000.0 4000.0 4000.0 4000.0 4000.0 4000.0 4000.0 4000.0 4000.0 4000.0 4000.0 4000.0 4000.0 4000.0 4000.0 4000.0 4000.0 4000.0 4000.0 4000.0 4000.0 4000.0 4000.0 4000.0 4000.0 4000.0 4000.0 4000.0 4000.0 4000.0 4000.0 4000.0 4000.0 4000.0 4000.0 4000.0 4000.0 4000.0 4000.0 4000.0 4000.0 4000.0 4000.0 4000.0 4000.0 4000.0 4000.0 4000.0 4000.0 4000.0 4000.0 4000.0 4000.0 4000.0 4000.0 4000.0 4000.0 4000.0 4000.0 4000.0 4000.0 4000.0 4000.0 4000.0 4000.0 4000.0 4000.0 4000.0 4000.0 4000.0 4000.0 4000.0 4000.0 4000.0 4000.0 4000.0 4000.0 4000.0 4000.0 4000.0 4000.0 4000.0 4000.0 4000.0 4000.0 4000.0 4000.0 4000.0 4000.0 4000.0 4000.0 4000.0 4000.0 4000.0 4000.0 4000.0 4000.0 4000.0 4000.0 4000.0 4000.0 4000.0 4000.0 4000.0 4000.0 4000.0 4000.0 4000.0 4000.0 4000.0 4000.0 4000.0 4000.0 4000.0 4000.0 4000.0 4000.0 4000.0 4000.0 4000.0 4000.0 4000.0 4000.0 4000.0 4000.0 4000.0 4000.0 4000.0 4000.0 4000.0 4000.0 4000.0 4000.0 4000.0 4000.0 4000.0 4000.0 4000.0 4000.0 4000.0 4000.0 4000.0 4000.0 4000.0 4000.0 4000.0 4000.0 4000.0 4000.0 4000.0 4000.0 4000.0 4000.0 4000.0 4000.0 4000.0 4000.0 4000.0 4000.0 4000.0 4000.0 4000.0 4000.0 4000.0 4000.0 4000.0 4000.0 4000.0 4000.0 4000.0 4000.0 4000.0 4000.0 4000.0 4000.0 4000.0 4000.0 4000.0 4000.0 4000.0 4000.0 4000.0 4000.0 4000.0 4000.0 4000.0 4000.0 4000.0 4000.0 4000.0 4000.0 4000.0 4000.0 4000.0 4000.0 4000.0 4000.0 4000.0 4000.0 4000.0 4000.0 4000.0 4000.0 4000.0 4000.0 4000.0 4000.0 4000.0 4000.0 4000.0 4000.0 4000.0 4000.0 4000.0 4000.0 4000.0 4000.0 4000.0 4000.0 4000.0 4000.0 4000.0 4000.0 4000.0 4000.0 4000.0 4000.0 4000.0 4000.0 4000.0 4000.0 4000.0 4000.0 4000.0 4000.0 4000.0 4000.0 4000.0 4000.0 4000.0 4000.0 4000.0 4000.0 4000.0 4000.0 4000.0 4000.0 4000.0 4000.0 4000.0 4000.0 4000.0 4000.0 4000.0 4000.0 4000.0 4000.0 4000.0 4000.0 4000.0 4000.0 4000.0 4000.0 4000.0 4000.0 4000.0 4000.0 4000.0 4000.0 4000.0 4000.0 4000.0 4000.0 4000.0 4000.0 4000.0 4000.0 4000.0 4000.0 4000.0 4000.0 4000.0 4000.0 4000.0 4000.0 4000.0 4000.0 4000.0 4000.0 4000.0 4000.0 4000.0 4000.0 4000.0 4000.0 4000.0 4000.0 4000.0 4000.0 4000.0 4000.0 4000.0 4000.0 4000.0 4000.0 4000.0 4000.0 4000.0 4000.0 4000.0 4000.0 4000.0 4000.0 4000.0 4000.0 4000.0 4000.0 4000.0 4000.0 4000.0 4000.0 4000.0 4000.0 4000.0 4000.0 4000.0 4000.0 4000.0 4000.0 4000.0 4000.0 4000.0 4000.0 4000.0 4000.0 4000.0 4000.0 4000.0 4000.0 4000.0 4000.0 4000.0 4000.0 4000.0 4000.0 4000.0 4000.0 4000.0 4000.0 4000.0 4000.0 4000.0 4000.0 4000.0 4000.0 4000.0 4000.0 4000.0 4000.0 4000.0 4000.0 4000.0 4000.0 4000.0 4000.0 4000.0 4000.0 4000.0 4000.0 4000.0 4000.0 4000.0 4000.0 4000.0 4000.0 4000.0 4000.0 4000.0 4000.0 4000.0 4000.0 4000.0 4000.0 4000.0 4000.0 4000.0 4000.0 4000.0 4000.0 4000.0 4000.0 4000.0 4000.0 4000.0 4000.0 4000.0 4000.0 4000.0 4000.0 4000.0 4000.0 4000.0 4000.0 4000.0 4000.0 4000.0 4000.0 4000.0 4000.0 4000.0 4000.0 4000.0 4000.0 4000.0 4000.0 4000.0 4000.0 4000.0 4000.0 4000.0 4000.0 4000.0 4000.0 4000.0 4000.0 4000.0 4000.0 4000.0 4000.0 4000.0 4000.0 4000.0 4000.0 4000.0 4000.0 4000.0 4000.0 4000.0 4000.0 4000.0 4000.0 4000.0 4000.0 4000.0 4000.0 4000.0 4000.0 4000.0 4000.0 4000.0 4000.0 4000.0 4000.0 4000.0 4000.0 4000.0 4000.0 4000.0 4000.0 4000.0 4000.0 4000.0 4000.0 4000.0 4000.0 4000.0 4000.0 4000.0 4000.0 4000.0 4000.0 4000.0 4000.0 4000.0 4000.0 4000.0 4000.0 4000.0 4000.0 4000.0 4000.0 4000.0 4000.0 4000.0 4000.0 4000.0 4000.0 4000.0 4000.0 4000.0 4000.0 4000.0 4000.0 4000.0 4000.0 4000.0 4000.0 4000.0 4000.0 4000.0 4000.0 4000.0 4000.0 4000.0 4000.0 4000.0 4000.0 4000.0 4000.0 4000.0 4000.0 4000.0 4000.0 4000.0 4000.0 4000.0 4000.0 4000.0 4000.0 4000.0 4000.0 4000.0 4000.0 4000.0 4000.0 4000.0 4000.0 4000.0 4000.0 4000.0 4000.0 4000.0 4000.0 4000.0 4000.0 4000.0 4000.0 4000.0 4000.0 4000.0 4000.0 4000.0 4000.0 4000.0 4000.0 4000.0 4000.0 4000.0 4000.0 4000.0 4000.0 4000.0 4000.0 4000.0 4000.0 4000.0 4000.0 4000.0 4000.0 4000.0 4000.0 4000.0 4000.0 4000.0 4000.0 4000.0 4000.0 4000.0 4000.0 4000.0 4000.0 4000.0 4000.0 4000.0 4000.0 4000.0 4000.0 4000.0 4000.0 4000.0 4000.0 4000.0 4000.0 4000.0 4000.0 4000.0 4000.0 4000.0 4000.0 4000.0 4000.0 4000.0 4000.0 4000.0 4000.0 4000.0 4000.0 4000.0 4000.0 4000.0 4000.0 4000.0 4000.0 4000.0 4000.0 4000.0 4000.0 4000.0 4000.0 4000.0 4000.0 4000.0 4000.0 4000.0 4000.0 4000.0 4000.0 4000.0 4000.0 4000.0 4000.0 4000.0 4000.0 4000.0 4000.0 4000.0 4000.0 4000.0 4000.0 4000.0 4000.0 4000.0 4000.0 4000.0 4000.0 4000.0 4000.0 4000.0 4000.0 4000.0 4000.0 4000.0 4000.0 4000.0 4000.0 4000.0 4000.0 4000.0 4000.0 4000.0 4000.0 4000.0 4000.0 4000.0 4000.0 4000.0 4000.0 4000.0 4000.0 4000.0 4000.0 4000.0 4000.0 4000.0 4000.0 4000.0 4000.0 4000.0 4000.0 4000.0 4000.0 4000.0 4000.0 4000.0 4000.0 4000.0 4000.0 4000.0 4000.0 4000.0 4000.0 4000.0 4000.0 4000.0 4000.0 4000.0 4000.0 4000.0 4000.0 4000.0 4000.0 4000.0 4000.0 4000.0 4000.0 4000.0 4000.0 4000.0 4000.0 4000.0 4000.0 4000.0 4000.0 4000.0 4000.0 4000.0 4000.0 4000.0 4000.0 4000.0 4000.0 4000.0 4000.0 4000.0 4000.0 4000.0 4000.0 4000.0 4000.0 4000.0 4000.0 4000.0 4000.0 4000.0 4000.0 4000.0 4000.0 4000.0 4000.0 4000.0 4000.0 4000.0 4000.0 4000.0 4000.0 4000.0 4000.0 4000.0 4000.0 4000.0 4000.0 4000.0 4000.0 4000.0 4000.0 4000.0 4000.0 4000.0 4000.0 4000.0 4000.0 4000.0 4000.0 4000.0 4000.0 4000.0 4000.0 4000.0 4000.0 4000.0 4000.0 4000.0 4000.0 4000.0 4000.0 4000.0 4000.0 4000.0 4000.0 4000.0 4000.0 4000.0 4000.0 4000.0 4000.0 4000.0 4000.0 4000.0 4000.0 4000.0 4000.0 4000.0 4000.0 4000.0 4000.0 4000.0 4000.0 4000.0 4000.0 4000.0 4000.0 4000.0 4000.0 4000.0 4000.0 4000.0 4000.0 4000.0 4000.0 4000.0 4000.0 4000.0 4000.0 4000.0 4000.0 4000.0 4000.0 4000.0 4000.0 4000.0 4000.0 4000.0 4000.0 4000.0 4000.0 4000.0 4000.0 4000.0 4000.0 4000.0 4000.0 4000.0 4000.0 4000.0 4000.0 4000.0 4000.0 4000.0 4000.0 4000.0 4000.0 4000.0 4000.0 4000.0 4000.0 4000.0 4000.0 4000.0 4000.0 4000.0 4000.0 4000.0 4000.0 4000.0 4000.0 4000.0 4000.0 4000.0 4000.0 4000.0 4000.0 4000.0 4000.0 4000.0 4000.0 4000.0 4000.0 4000.0 4000.0 4000.0 4000.0 4000.0 4000.0 4000.0 4000.0 4000.0 4000.0 4000.0 4000.0 4000.0 4000.0 4000.0 4000.0 4000.0 4000.0 4000.0 4000.0 4000.0 4000.0 4000.0 4000.0 4000.0 4000.0 4000.0 4000.0 4000.0 4000.0 4000.0 4000.0 4000.0 4000.0 4000.0 4000.0 4000.0 4000.0 4000.0 4000.0 4000.0 4000.0 4000.0 4000.0 4000.0 4000.0 4000.0 4000.0 4000.0 4000.0 4000.0 4000.0 4000.0 4000.0 4000.0 4000.0 4000.0 4000.0 4000.0 4000.0 4000.0 4000.0 4000.0 4000.0 4000.0 4000.0 4000.0 4000.0 4000.0 4000.0 4000.0 4000.0 4000.0 4000.0 4000.0 4000.0 4000.0 4000.0 4000.0 4000.0 4000.0 4000.0 4000.0 4000.0 4000.0 4000.0 4000.0 4000.0 4000.0 4000.0 4000.0 4000.0 4000.0 4000.0 4000.0 4000.0 4000.0 4000.0 4000.0 4000.0 4000.0 4000.0 4000.0 4000.0 4000.0 4000.0 4000.0 4000.0 4000.0 4000.0 4000.0 4000.0 4000.0 4000.0 4000.0 4000.0 4000.0 4000.0 4000.0 4000.0 4000.0 4000.0 4000.0 4000.0 4000.0 4000.0 4000.0 4000.0 4000.0 4000.0 4000.0 4000.0 4000.0 4000.0 4000.0 4000.0 4000.0 4000.0 4000.0 4000.0 4000.0 4000.0 4000.0 4000.0 4000.0 4000.0 4000.0 4000.0 4000.0 4000.0 4000.0 4000.0 4000.0 4000.0 4000.0 4000.0 4000.0 4000.0 4000.0 4000.0 4000.0 4000.0 4000.0 4000.0 4000.0 4000.0 4000.0 4000.0 4000.0 4000.0 4000.0 4000.0 4000.0 4000.0 4000.0 4000.0 4000.0 4000.0 4000.0 4000.0 4000.0 4000.0 4000.0 4000.0 4000.0 4000.0 4000.0 4000.0 4000.0 4000.0 4000.0 4000.0 4000.0 4000.0 4000.0 4000.0 4000.0 4000.0 4000.0 4000.0 4000.0 4000.0 4000.0 4000.0 4000.0 4000.0 4000.0 4000.0 4000.0 4000.0 4000.0 4000.0 4000.0 4000.0 4000.0 4000.0 4000.0 4000.0 4000.0 4000.0 4000.0 4000.0 4000.0 4000.0 4000.0 4000.0 4000.0 4000.0 4000.0 4000.0 4000.0 4000.0 4000.0 4000.0 4000.0 4000.0 4000.0 4000.0 4000.0 4000.0 4000.0 4000.0 4000.0 4000.0 4000.0 4000.0 4000.0 4000.0 4000.0 4000.0 4000.0 4000.0 4000.0 4000.0 4000.0 4000.0 4000.0 4000.0 4000.0 4000.0 4000.0 4000.0 4000.0 4000.0 4000.0 4000.0 4000.0 4000.0 4000.0 4000.0 4000.0 4000.0 4000.0 4000.0 4000.0 4000.0 4000.0 4000.0 4000.0 4000.0 4000.0 4000.0 4000.0 4000.0 4000.0 4000.0 4000.0 4000.0 4000.0 4000.0 4000.0 4000.0 4000.0 4000.0 4000.0 4000.0 4000.0 4000.0 4000.0 4000.0 4000.0 4000.0 4000.0 4000.0 4000.0 4000.0 4000.0 4000.0 4000.0 4000.0 4000.0 4000.0 4000.0 4000.0 4000.0 4000.0 4000.0 4000.0 4000.0 4000.0 4000.0 4000.0 4000.0 4000.0 4000.0 4000.0 4000.0 4000.0 4000.0 4000.0 4000.0 4000.0 4000.0 4000.0 4000.0 4000.0 4000.0 4000.0 4000.0 4000.0 4000.0 4000.0 4000.0 4000.0 4000.0 4000.0 4000.0 4000.0 4000.0 4000.0 4000.0 4000.0 4000.0 4000.0 4000.0 4000.0 4000.0 4000.0 4000.0 4000.0 4000.0 4000.0 4000.0 4000.0 4000.0 4000.0 4000.0 4000.0 4000.0 4000.0 4000.0 4000.0 4000.0 4000.0 4000.0 4000.0 4000.0 4000.0 4000.0 4000.0 4000.0 4000.0 4000.0 4000.0 4000.0 4000.0 4000.0 4000.0 4000.0 4000.0 4000.0 4000.0 4000.0 4000.0 4000.0 4000.0 4000.0 4000.0 4000.0 4000.0 4000.0 4000.0 4000.0 4000.0 4000.0 4000.0 4000.0 4000.0 4000.0 4000.0 4000.0 4000.0 4000.0 4000.0 4000.0 4000.0 4000.0 4000.0 4000.0 4000.0 4000.0 4000.0 4000.0 4000.0 4000.0 4000.0 4000.0 4000.0 4000.0 4000.0 4000.0 4000.0 4000.0 4000.0 4000.0 4000.0 4000.0 4000.0 4000.0 4000.0 4000.0 4000.0 4000.0 4000.0 4000.0 4000.0 4000.0 4000.0 4000.0 4000.0 4000.0 4000.0 4000.0 4000.0 4000.0 4000.0 4000.0 4000.0 4000.0 4000.0 4000.0 4000.0 4000.0 4000.0 4000.0 4000.0 4000.0 4000.0 4000.0 4000.0 4000.0 4000.0 4000.0 4000.0 4000.0 4000.0 4000.0 4000.0 4000.0 4000.0 4000.0 4000.0 4000.0 4000.0 4000.0 4000.0 4000.0 4000.0 4000.0 4000.0 4000.0 4000.0 4000.0 4000.0 4000.0 4000.0 4000.0 4000.0 4000.0 4000.0 4000.0 4000.0 4000.0 4000.0 4000.0 4000.0 4000.0 4000.0 4000.0 4000.0 4000.0 4000.0 4000.0 4000.0 4000.0 4000.0 4000.0 4000.0 4000.0 4000.0 4000.0 4000.0 4000.0 4000.0 4000.0 4000.0 4000.0 4000.0 4000.0 4000.0 4000.0 4000.0 4000.0 4000.0 4000.0 4000.0 4000.0 4000.0 4000.0 4000.0 4000.0 4000.0 4000.0 4000.0 4000.0 4000.0 4000.0 4000.0 4000.0 4000.0 4000.0 4000.0 4000.0 4000.0 4000.0 4000.0 4000.0 4000.0 4000.0 4000.0 4000.0 4000.0 4000.0 4000.0 4000.0 4000.0 4000.0 4000.0 4000.0 4000.0 4000.0 4000.0 4000.0 4000.0 4000.0 4000.0 4000.0 4000.0 4000.0 4000.0 4000.0 4000.0 4000.0 4000.0 4000.0 4000.0 4000.0 4000.0 4000.0 4000.0 4000.0 4000.0 4000.0 4000.0 4000.0 4000.0 4000.0 4000.0 4000.0 4000.0 4000.0 4000.0 4000.0 4000.0 4000.0 4000.0 4000.0 4000.0 4000.0 4000.0 4000.0 4000.0 4000.0 4000.0 4000.0 4000.0 4000.0 4000.0 4000.0 4000.0 4000.0 4000.0 4000.0 4000.0 4000.0 4000.0 4000.0 4000.0 4000.0 4000.0 4000.0 4000.0 4000.0 4000.0 4000.0 4000.0 4000.0 4000.0 4000.0 4000.0 4000.0 4000.0 4000.0 4000.0 4000.0 4000.0 4000.0 4000.0 4000.0 4000.0 4000.0 4000.0 4000.0 4000.0 4000.0 4000.0 4000.0 4000.0 4000.0 4000.0 4000.0 4000.0 4000.0 4000.0 4000.0 4000.0 4000.0 4000.0 4000.0 4000.0 4000.0 4000.0 4000.0 4000.0 4000.0 4000.0 4000.0 4000.0 4000.0 4000.0 4000.0 4000.0 4000.0 4000.0 4000.0 4000.0 4000.0 4000.0 4000.0 4000.0 4000.0 4000.0 4000.0 4000.0 4000.0 4000.0 4000.0 4000.0 4000.0 4000.0 4000.0 4000.0 4000.0 4000.0 4000.0 4000.0 4000.0 4000.0 4000.0 4000.0 4000.0 4000.0 4000.0 4000.0 4000.0 4000.0 4000.0 4000.0 4000.0 4000.0 4000.0 4000.0 4000.0 4000.0 4000.0 4000.0 4000.0 4000.0 4000.0 4000.0 4000.0 4000.0 4000.0 4000.0 4000.0 4000.0 4000.0 4000.0 4000.0 4000.0 4000.0 4000.0 4000.0 4000.0 4000.0 4000.0 4000.0 4000.0 4000.0 4000.0 4000.0 4000.0 4000.0 4000.0 4000.0 4000.0 4000.0 4000.0 4000.0 4000.0 4000.0 4000.0 4000.0 4000.0 4000.0 4000.0 4000.0 4000.0 4000.0 4000.0 4000.0 4000.0 4000.0 4000.0 4000.0 4000.0 4000.0 4000.0 4000.0 4000.0 4000.0 4000.0 4000.0 4000.0 4000.0 4000.0 4000.0 4000.0 4000.0 4000.0 4000.0 4000.0 4000.0 4000.0 4000.0 4000.0 4000.0 4000.0 4000.0 4000.0 4000.0 4000.0 4000.0 4000.0 4000.0 4000.0 4000.0 4000.0 4000.0 4000.0 4000.0 4000.0 4000.0 4000.0 4000.0 4000.0 4000.0 4000.0 4000.0 4000.0 4000.0 4000.0 4000.0 4000.0 4000.0 4000.0 4000.0 4000.0 4000.0 4000.0 4000.0 4000.0 4000.0 4000.0 4000.0 4000.0 4000.0 4000.0 4000.0 4000.0 4000.0 4000.0 4000.0 4000.0 4000.0 4000.0 4000.0 4000.0 4000.0 4000.0 4000.0 4000.0 4000.0 4000.0 4000.0 4000.0 4000.0 4000.0 4000.0 4000.0 4000.0 4000.0 4000.0 4000.0 4000.0 4000.0 4000.0 4000.0 4000.0 4000.0 4000.0 4000.0 4000.0 4000.0 4000.0 4000.0 4000.0 4000.0 4000.0 4000.0 4000.0 4000.0 4000.0 4000.0 4000.0 4000.0 4000.0 4000.0 4000.0 4000.0 4000.0 4000.0 4000.0 4000.0 4000.0 4000.0 4000.0 4000.0 4000.0 4000.0 4000.0 4000.0 4000.0 4000.0 4000.0 4000.0 4000.0 4000.0 4000.0 4000.0 4000.0 4000.0 4000.0 4000.0 4000.0 4000.0 4000.0 4000.0 4000.0 4000.0 4000.0 4000.0 4000.0 4000.0 4000.0 4000.0 4000.0 4000.0 4000.0 4000.0 4000.0 4000.0 4000.0 4000.0 4000.0 4000.0 4000.0 4000.0 4000.0 4000.0 4000.0 4000.0 4000.0 4000.0 4000.0 4000.0 4000.0 4000.0 4000.0 4000.0 4000.0 4000.0 4000.0 4000.0 4000.0 4000.0 4000.0 4000.0 4000.0 4000.0 4000.0 4000.0 4000.0 4000.0 4000.0 4000.0 4000.0 4000.0 4000.0 4000.0 4000.0 4000.0 4000.0 4000.0 4000.0 4000.0 4000.0 4000.0 4000.0 4000.0 4000.0 4000.0 4000.0 4000.0 4000.0 4000.0 4000.0 4000.0 4000.0 4000.0 4000.0 4000.0 4000.0 4000.0 4000.0 4000.0 4000.0 4000.0 4000.0 4000.0 4000.0 4000.0 4000.0 4000.0 4000.0 4000.0 4000.0 4000.0 4000.0 4000.0 4000.0 4000.0 4000.0 4000.0 4000.0 4000.0 4000.0 4000.0 4000.0 4000.0 4000.0 4000.0 4000.0 4000.0 4000.0 4000.0 4000.0 4000.0 4000.0 4000.0 4000.0 4000.0 4000.0 4000.0 4000.0 4000.0 4000.0 4000.0 4000.0 4000.0 4000.0 4000.0 4000.0 4000.0 4000.0 4000.0 4000.0 4000.0 4000.0 4000.0 4000.0 4000.0 4000.0 4000.0 4000.0 4000.0 4000.0 4000.0 4000.0 4000.0 4000.0 4000.0 4000.0 4000.0 4000.0 4000.0 4000.0 4000.0 4000.0 4000.0 4000.0 4000.0 4000.0 4000.0 4000.0 4000.0 4000.0 4000.0 4000.0 4000.0 4000.0 4000.0 4000.0 4000.0 4000.0 4000.0 4000.0 4000.0 4000.0 4000.0 4000.0 4000.0 4000.0 4000.0 4000.0 4000.0 4000.0 4000.0 4000.0 4000.0 4000.0 4000.0 4000.0 4000.0 4000.0 4000.0 4000.0 4000.0 4000.0 4000.0 4000.0 4000.0 4000.0 4000.0 4000.0 4000.0 4000.0 4000.0 4000.0 4000.0 4000.0 4000.0 4000.0 4000.0 4000.0 4000.0 4000.0 4000.0 4000.0 4000.0 4000.0 4000.0 4000.0 4000.0 4000.0 4000.0 4000.0 4000.0 4000.0 4000.0 4000.0 4000.0 SCALARS Mass float 1
LOOKUP_TABLE default
11309700000.0 11309700000.0 11309700000.0 11309700000.0 11309700000.0 11309700000.0 11309700000.0 11309700000.0 11309700000.0 11309700000.0 11309700000.0 11309700000.0 11309700000.0 11309700000.0 11309700000.0 11309700000.0 11309700000.0 11309700000.0 11309700000.0 11309700000.0 11309700000.0 11309700000.0 11309700000.0 11309700000.0 11309700000.0 11309700000.0 11309700000.0 11309700000.0 11309700000.0 11309700000.0 11309700000.0 11309700000.0 11309700000.0 11309700000.0 11309700000.0 11309700000.0 11309700000.0 11309700000.0 11309700000.0 11309700000.0 11309700000.0 11309700000.0 11309700000.0 11309700000.0 11309700000.0 11309700000.0 11309700000.0 11309700000.0 11309700000.0 11309700000.0 11309700000.0 11309700000.0 11309700000.0 11309700000.0 11309700000.0 11309700000.0 11309700000.0 11309700000.0 11309700000.0 11309700000.0 11309700000.0 11309700000.0 11309700000.0 11309700000.0 11309700000.0 11309700000.0 11309700000.0 11309700000.0 11309700000.0 11309700000.0 11309700000.0 11309700000.0 11309700000.0 11309700000.0 11309700000.0 11309700000.0 11309700000.0 11309700000.0 11309700000.0 11309700000.0 11309700000.0 11309700000.0 11309700000.0 11309700000.0 11309700000.0 11309700000.0 11309700000.0 11309700000.0 11309700000.0 11309700000.0 11309700000.0 11309700000.0 11309700000.0 11309700000.0 11309700000.0 11309700000.0 11309700000.0 11309700000.0 11309700000.0 11309700000.0 11309700000.0 11309700000.0 11309700000.0 11309700000.0 11309700000.0 11309700000.0 11309700000.0 11309700000.0 11309700000.0 11309700000.0 11309700000.0 11309700000.0 11309700000.0 11309700000.0 11309700000.0 11309700000.0 11309700000.0 11309700000.0 11309700000.0 11309700000.0 11309700000.0 11309700000.0 11309700000.0 11309700000.0 11309700000.0 11309700000.0 11309700000.0 11309700000.0 11309700000.0 11309700000.0 11309700000.0 11309700000.0 11309700000.0 11309700000.0 11309700000.0 11309700000.0 11309700000.0 11309700000.0 11309700000.0 11309700000.0 11309700000.0 11309700000.0 11309700000.0 11309700000.0 11309700000.0 11309700000.0 11309700000.0 11309700000.0 11309700000.0 11309700000.0 11309700000.0 11309700000.0 11309700000.0 11309700000.0 11309700000.0 11309700000.0 11309700000.0 11309700000.0 11309700000.0 11309700000.0 11309700000.0 11309700000.0 11309700000.0 11309700000.0 11309700000.0 11309700000.0 11309700000.0 11309700000.0 11309700000.0 11309700000.0 11309700000.0 11309700000.0 11309700000.0 11309700000.0 11309700000.0 11309700000.0 11309700000.0 11309700000.0 11309700000.0 11309700000.0 11309700000.0 11309700000.0 11309700000.0 11309700000.0 11309700000.0 11309700000.0 11309700000.0 11309700000.0 11309700000.0 11309700000.0 11309700000.0 11309700000.0 11309700000.0 11309700000.0 11309700000.0 11309700000.0 11309700000.0 11309700000.0 11309700000.0 11309700000.0 11309700000.0 11309700000.0 11309700000.0 11309700000.0 11309700000.0 11309700000.0 11309700000.0 11309700000.0 11309700000.0 11309700000.0 11309700000.0 11309700000.0 11309700000.0 11309700000.0 11309700000.0 11309700000.0 11309700000.0 11309700000.0 11309700000.0 11309700000.0 11309700000.0 11309700000.0 11309700000.0 11309700000.0 11309700000.0 11309700000.0 11309700000.0 11309700000.0 11309700000.0 11309700000.0 11309700000.0 11309700000.0 11309700000.0 11309700000.0 11309700000.0 11309700000.0 11309700000.0 11309700000.0 11309700000.0 11309700000.0 11309700000.0 11309700000.0 11309700000.0 11309700000.0 11309700000.0 11309700000.0 11309700000.0 11309700000.0 11309700000.0 11309700000.0 11309700000.0 11309700000.0 11309700000.0 11309700000.0 11309700000.0 11309700000.0 11309700000.0 11309700000.0 11309700000.0 11309700000.0 11309700000.0 11309700000.0 11309700000.0 11309700000.0 11309700000.0 11309700000.0 11309700000.0 11309700000.0 11309700000.0 11309700000.0 11309700000.0 11309700000.0 11309700000.0 11309700000.0 11309700000.0 11309700000.0 11309700000.0 11309700000.0 11309700000.0 11309700000.0 11309700000.0 11309700000.0 11309700000.0 11309700000.0 11309700000.0 11309700000.0 11309700000.0 11309700000.0 11309700000.0 11309700000.0 11309700000.0 11309700000.0 11309700000.0 11309700000.0 11309700000.0 11309700000.0 11309700000.0 11309700000.0 11309700000.0 11309700000.0 11309700000.0 11309700000.0 11309700000.0 11309700000.0 11309700000.0 11309700000.0 11309700000.0 11309700000.0 11309700000.0 11309700000.0 11309700000.0 11309700000.0 11309700000.0 11309700000.0 11309700000.0 11309700000.0 11309700000.0 11309700000.0 11309700000.0 11309700000.0 11309700000.0 11309700000.0 11309700000.0 11309700000.0 11309700000.0 11309700000.0 11309700000.0 11309700000.0 11309700000.0 11309700000.0 11309700000.0 11309700000.0 11309700000.0 11309700000.0 11309700000.0 11309700000.0 11309700000.0 11309700000.0 11309700000.0 11309700000.0 11309700000.0 11309700000.0 11309700000.0 11309700000.0 11309700000.0 11309700000.0 11309700000.0 11309700000.0 11309700000.0 11309700000.0 11309700000.0 11309700000.0 11309700000.0 11309700000.0 11309700000.0 11309700000.0 11309700000.0 11309700000.0 11309700000.0 11309700000.0 11309700000.0 11309700000.0 11309700000.0 11309700000.0 11309700000.0 11309700000.0 11309700000.0 11309700000.0 11309700000.0 11309700000.0 11309700000.0 11309700000.0 11309700000.0 11309700000.0 11309700000.0 11309700000.0 11309700000.0 11309700000.0 11309700000.0 11309700000.0 11309700000.0 11309700000.0 11309700000.0 11309700000.0 11309700000.0 11309700000.0 11309700000.0 11309700000.0 11309700000.0 11309700000.0 11309700000.0 11309700000.0 11309700000.0 11309700000.0 11309700000.0 11309700000.0 11309700000.0 11309700000.0 11309700000.0 11309700000.0 11309700000.0 11309700000.0 11309700000.0 11309700000.0 11309700000.0 11309700000.0 11309700000.0 11309700000.0 11309700000.0 11309700000.0 11309700000.0 11309700000.0 11309700000.0 11309700000.0 11309700000.0 11309700000.0 11309700000.0 11309700000.0 11309700000.0 11309700000.0 11309700000.0 11309700000.0 11309700000.0 11309700000.0 11309700000.0 11309700000.0 11309700000.0 11309700000.0 11309700000.0 11309700000.0 11309700000.0 11309700000.0 11309700000.0 11309700000.0 11309700000.0 11309700000.0 11309700000.0 11309700000.0 11309700000.0 11309700000.0 11309700000.0 11309700000.0 11309700000.0 11309700000.0 11309700000.0 11309700000.0 11309700000.0 11309700000.0 11309700000.0 11309700000.0 11309700000.0 11309700000.0 11309700000.0 11309700000.0 11309700000.0 11309700000.0 11309700000.0 11309700000.0 11309700000.0 11309700000.0 11309700000.0 11309700000.0 11309700000.0 11309700000.0 11309700000.0 11309700000.0 11309700000.0 11309700000.0 11309700000.0 11309700000.0 11309700000.0 11309700000.0 11309700000.0 11309700000.0 11309700000.0 11309700000.0 11309700000.0 11309700000.0 11309700000.0 11309700000.0 11309700000.0 11309700000.0 11309700000.0 11309700000.0 11309700000.0 11309700000.0 11309700000.0 11309700000.0 11309700000.0 11309700000.0 11309700000.0 11309700000.0 11309700000.0 11309700000.0 11309700000.0 11309700000.0 11309700000.0 11309700000.0 11309700000.0 11309700000.0 11309700000.0 11309700000.0 11309700000.0 11309700000.0 11309700000.0 11309700000.0 11309700000.0 11309700000.0 11309700000.0 11309700000.0 11309700000.0 11309700000.0 11309700000.0 11309700000.0 11309700000.0 11309700000.0 11309700000.0 11309700000.0 11309700000.0 11309700000.0 11309700000.0 11309700000.0 11309700000.0 11309700000.0 11309700000.0 11309700000.0 11309700000.0 11309700000.0 11309700000.0 11309700000.0 11309700000.0 11309700000.0 11309700000.0 11309700000.0 11309700000.0 11309700000.0 11309700000.0 11309700000.0 11309700000.0 11309700000.0 11309700000.0 11309700000.0 11309700000.0 11309700000.0 11309700000.0 11309700000.0 11309700000.0 11309700000.0 11309700000.0 11309700000.0 11309700000.0 11309700000.0 11309700000.0 11309700000.0 11309700000.0 11309700000.0 11309700000.0 11309700000.0 11309700000.0 11309700000.0 11309700000.0 11309700000.0 11309700000.0 11309700000.0 11309700000.0 11309700000.0 11309700000.0 11309700000.0 11309700000.0 11309700000.0 11309700000.0 11309700000.0 11309700000.0 11309700000.0 11309700000.0 11309700000.0 11309700000.0 11309700000.0 11309700000.0 11309700000.0 11309700000.0 11309700000.0 11309700000.0 11309700000.0 11309700000.0 11309700000.0 11309700000.0 11309700000.0 11309700000.0 11309700000.0 11309700000.0 11309700000.0 11309700000.0 11309700000.0 11309700000.0 11309700000.0 11309700000.0 11309700000.0 11309700000.0 11309700000.0 11309700000.0 11309700000.0 11309700000.0 11309700000.0 11309700000.0 11309700000.0 11309700000.0 11309700000.0 11309700000.0 11309700000.0 11309700000.0 11309700000.0 11309700000.0 11309700000.0 11309700000.0 11309700000.0 11309700000.0 11309700000.0 11309700000.0 11309700000.0 11309700000.0 11309700000.0 11309700000.0 11309700000.0 11309700000.0 11309700000.0 11309700000.0 11309700000.0 11309700000.0 11309700000.0 11309700000.0 11309700000.0 11309700000.0 11309700000.0 11309700000.0 11309700000.0 11309700000.0 11309700000.0 11309700000.0 11309700000.0 11309700000.0 11309700000.0 11309700000.0 11309700000.0 11309700000.0 11309700000.0 11309700000.0 11309700000.0 11309700000.0 11309700000.0 11309700000.0 11309700000.0 11309700000.0 11309700000.0 11309700000.0 11309700000.0 11309700000.0 11309700000.0 11309700000.0 11309700000.0 11309700000.0 11309700000.0 11309700000.0 11309700000.0 11309700000.0 11309700000.0 11309700000.0 11309700000.0 11309700000.0 11309700000.0 11309700000.0 11309700000.0 11309700000.0 11309700000.0 11309700000.0 11309700000.0 11309700000.0 11309700000.0 11309700000.0 11309700000.0 11309700000.0 11309700000.0 11309700000.0 11309700000.0 11309700000.0 11309700000.0 11309700000.0 11309700000.0 11309700000.0 11309700000.0 11309700000.0 11309700000.0 11309700000.0 11309700000.0 11309700000.0 11309700000.0 11309700000.0 11309700000.0 11309700000.0 11309700000.0 11309700000.0 11309700000.0 11309700000.0 11309700000.0 11309700000.0 11309700000.0 11309700000.0 11309700000.0 11309700000.0 11309700000.0 11309700000.0 11309700000.0 11309700000.0 11309700000.0 11309700000.0 11309700000.0 11309700000.0 11309700000.0 11309700000.0 11309700000.0 11309700000.0 11309700000.0 11309700000.0 11309700000.0 11309700000.0 11309700000.0 11309700000.0 11309700000.0 11309700000.0 11309700000.0 11309700000.0 11309700000.0 11309700000.0 11309700000.0 11309700000.0 11309700000.0 11309700000.0 11309700000.0 11309700000.0 11309700000.0 11309700000.0 11309700000.0 11309700000.0 11309700000.0 11309700000.0 11309700000.0 11309700000.0 11309700000.0 11309700000.0 11309700000.0 11309700000.0 11309700000.0 11309700000.0 11309700000.0 11309700000.0 11309700000.0 11309700000.0 11309700000.0 11309700000.0 11309700000.0 11309700000.0 11309700000.0 11309700000.0 11309700000.0 11309700000.0 11309700000.0 11309700000.0 11309700000.0 11309700000.0 11309700000.0 11309700000.0 11309700000.0 11309700000.0 11309700000.0 11309700000.0 11309700000.0 11309700000.0 11309700000.0 11309700000.0 11309700000.0 11309700000.0 11309700000.0 11309700000.0 11309700000.0 11309700000.0 11309700000.0 11309700000.0 11309700000.0 11309700000.0 11309700000.0 11309700000.0 11309700000.0 11309700000.0 11309700000.0 11309700000.0 11309700000.0 11309700000.0 11309700000.0 11309700000.0 11309700000.0 11309700000.0 11309700000.0 11309700000.0 11309700000.0 11309700000.0 11309700000.0 11309700000.0 11309700000.0 11309700000.0 11309700000.0 11309700000.0 11309700000.0 11309700000.0 11309700000.0 11309700000.0 11309700000.0 11309700000.0 11309700000.0 11309700000.0 11309700000.0 11309700000.0 11309700000.0 11309700000.0 11309700000.0 11309700000.0 11309700000.0 11309700000.0 11309700000.0 11309700000.0 11309700000.0 11309700000.0 11309700000.0 11309700000.0 11309700000.0 11309700000.0 11309700000.0 11309700000.0 11309700000.0 11309700000.0 11309700000.0 11309700000.0 11309700000.0 11309700000.0 11309700000.0 11309700000.0 11309700000.0 11309700000.0 11309700000.0 11309700000.0 11309700000.0 11309700000.0 11309700000.0 11309700000.0 11309700000.0 11309700000.0 11309700000.0 11309700000.0 11309700000.0 11309700000.0 11309700000.0 11309700000.0 11309700000.0 11309700000.0 11309700000.0 11309700000.0 11309700000.0 11309700000.0 11309700000.0 11309700000.0 11309700000.0 11309700000.0 11309700000.0 11309700000.0 11309700000.0 11309700000.0 11309700000.0 11309700000.0 11309700000.0 11309700000.0 11309700000.0 11309700000.0 11309700000.0 11309700000.0 11309700000.0 11309700000.0 11309700000.0 11309700000.0 11309700000.0 11309700000.0 11309700000.0 11309700000.0 11309700000.0 11309700000.0 11309700000.0 11309700000.0 11309700000.0 11309700000.0 11309700000.0 11309700000.0 11309700000.0 11309700000.0 11309700000.0 11309700000.0 11309700000.0 11309700000.0 11309700000.0 11309700000.0 11309700000.0 11309700000.0 11309700000.0 11309700000.0 11309700000.0 11309700000.0 11309700000.0 11309700000.0 11309700000.0 11309700000.0 11309700000.0 11309700000.0 11309700000.0 11309700000.0 11309700000.0 11309700000.0 11309700000.0 11309700000.0 11309700000.0 11309700000.0 11309700000.0 11309700000.0 11309700000.0 11309700000.0 11309700000.0 11309700000.0 11309700000.0 11309700000.0 11309700000.0 11309700000.0 11309700000.0 11309700000.0 11309700000.0 11309700000.0 11309700000.0 11309700000.0 11309700000.0 11309700000.0 11309700000.0 11309700000.0 11309700000.0 11309700000.0 11309700000.0 11309700000.0 11309700000.0 11309700000.0 11309700000.0 11309700000.0 11309700000.0 11309700000.0 11309700000.0 11309700000.0 11309700000.0 11309700000.0 11309700000.0 11309700000.0 11309700000.0 11309700000.0 11309700000.0 11309700000.0 11309700000.0 11309700000.0 11309700000.0 11309700000.0 11309700000.0 11309700000.0 11309700000.0 11309700000.0 11309700000.0 11309700000.0 11309700000.0 11309700000.0 11309700000.0 11309700000.0 11309700000.0 11309700000.0 11309700000.0 11309700000.0 11309700000.0 11309700000.0 11309700000.0 11309700000.0 11309700000.0 11309700000.0 11309700000.0 11309700000.0 11309700000.0 11309700000.0 11309700000.0 11309700000.0 11309700000.0 11309700000.0 11309700000.0 11309700000.0 11309700000.0 11309700000.0 11309700000.0 11309700000.0 11309700000.0 11309700000.0 11309700000.0 11309700000.0 11309700000.0 11309700000.0 11309700000.0 11309700000.0 11309700000.0 11309700000.0 11309700000.0 11309700000.0 11309700000.0 11309700000.0 11309700000.0 11309700000.0 11309700000.0 11309700000.0 11309700000.0 11309700000.0 11309700000.0 11309700000.0 11309700000.0 11309700000.0 11309700000.0 11309700000.0 11309700000.0 11309700000.0 11309700000.0 11309700000.0 11309700000.0 11309700000.0 11309700000.0 11309700000.0 11309700000.0 11309700000.0 11309700000.0 11309700000.0 11309700000.0 11309700000.0 11309700000.0 11309700000.0 11309700000.0 11309700000.0 11309700000.0 11309700000.0 11309700000.0 11309700000.0 11309700000.0 11309700000.0 11309700000.0 11309700000.0 11309700000.0 11309700000.0 11309700000.0 11309700000.0 11309700000.0 11309700000.0 11309700000.0 11309700000.0 11309700000.0 11309700000.0 11309700000.0 11309700000.0 11309700000.0 11309700000.0 11309700000.0 11309700000.0 11309700000.0 11309700000.0 11309700000.0 11309700000.0 11309700000.0 11309700000.0 11309700000.0 11309700000.0 11309700000.0 11309700000.0 11309700000.0 11309700000.0 11309700000.0 11309700000.0 11309700000.0 11309700000.0 11309700000.0 11309700000.0 11309700000.0 11309700000.0 11309700000.0 11309700000.0 11309700000.0 11309700000.0 11309700000.0 11309700000.0 11309700000.0 11309700000.0 11309700000.0 11309700000.0 11309700000.0 11309700000.0 11309700000.0 11309700000.0 11309700000.0 11309700000.0 11309700000.0 11309700000.0 11309700000.0 11309700000.0 11309700000.0 11309700000.0 11309700000.0 11309700000.0 11309700000.0 11309700000.0 11309700000.0 11309700000.0 11309700000.0 11309700000.0 11309700000.0 11309700000.0 11309700000.0 11309700000.0 11309700000.0 11309700000.0 11309700000.0 11309700000.0 11309700000.0 11309700000.0 11309700000.0 11309700000.0 11309700000.0 11309700000.0 11309700000.0 11309700000.0 11309700000.0 11309700000.0 11309700000.0 11309700000.0 11309700000.0 11309700000.0 11309700000.0 11309700000.0 11309700000.0 11309700000.0 11309700000.0 11309700000.0 11309700000.0 11309700000.0 11309700000.0 11309700000.0 11309700000.0 11309700000.0 11309700000.0 11309700000.0 11309700000.0 11309700000.0 11309700000.0 11309700000.0 11309700000.0 11309700000.0 11309700000.0 11309700000.0 11309700000.0 11309700000.0 11309700000.0 11309700000.0 11309700000.0 11309700000.0 11309700000.0 11309700000.0 11309700000.0 11309700000.0 11309700000.0 11309700000.0 11309700000.0 11309700000.0 11309700000.0 11309700000.0 11309700000.0 11309700000.0 11309700000.0 11309700000.0 11309700000.0 11309700000.0 11309700000.0 11309700000.0 11309700000.0 11309700000.0 11309700000.0 11309700000.0 11309700000.0 11309700000.0 11309700000.0 11309700000.0 11309700000.0 11309700000.0 11309700000.0 11309700000.0 11309700000.0 11309700000.0 11309700000.0 11309700000.0 11309700000.0 11309700000.0 11309700000.0 11309700000.0 11309700000.0 11309700000.0 11309700000.0 11309700000.0 11309700000.0 11309700000.0 11309700000.0 11309700000.0 11309700000.0 11309700000.0 11309700000.0 11309700000.0 11309700000.0 11309700000.0 11309700000.0 11309700000.0 11309700000.0 11309700000.0 11309700000.0 11309700000.0 11309700000.0 11309700000.0 11309700000.0 11309700000.0 11309700000.0 11309700000.0 11309700000.0 11309700000.0 11309700000.0 11309700000.0 11309700000.0 11309700000.0 11309700000.0 11309700000.0 11309700000.0 11309700000.0 11309700000.0 11309700000.0 11309700000.0 11309700000.0 11309700000.0 11309700000.0 11309700000.0 11309700000.0 11309700000.0 11309700000.0 11309700000.0 11309700000.0 11309700000.0 11309700000.0 11309700000.0 11309700000.0 11309700000.0 11309700000.0 11309700000.0 11309700000.0 11309700000.0 11309700000.0 11309700000.0 11309700000.0 11309700000.0 11309700000.0 11309700000.0 11309700000.0 11309700000.0 11309700000.0 11309700000.0 11309700000.0 11309700000.0 11309700000.0 11309700000.0 11309700000.0 11309700000.0 11309700000.0 11309700000.0 11309700000.0 11309700000.0 11309700000.0 11309700000.0 11309700000.0 11309700000.0 11309700000.0 11309700000.0 11309700000.0 11309700000.0 11309700000.0 11309700000.0 11309700000.0 11309700000.0 11309700000.0 11309700000.0 11309700000.0 11309700000.0 11309700000.0 11309700000.0 11309700000.0 11309700000.0 11309700000.0 11309700000.0 11309700000.0 11309700000.0 11309700000.0 11309700000.0 11309700000.0 11309700000.0 11309700000.0 11309700000.0 11309700000.0 11309700000.0 11309700000.0 11309700000.0 11309700000.0 11309700000.0 11309700000.0 11309700000.0 11309700000.0 11309700000.0 11309700000.0 11309700000.0 11309700000.0 11309700000.0 11309700000.0 11309700000.0 11309700000.0 11309700000.0 11309700000.0 11309700000.0 11309700000.0 11309700000.0 11309700000.0 11309700000.0 11309700000.0 11309700000.0 11309700000.0 11309700000.0 11309700000.0 11309700000.0 11309700000.0 11309700000.0 11309700000.0 11309700000.0 11309700000.0 11309700000.0 11309700000.0 11309700000.0 11309700000.0 11309700000.0 11309700000.0 11309700000.0 11309700000.0 11309700000.0 11309700000.0 11309700000.0 11309700000.0 11309700000.0 11309700000.0 11309700000.0 11309700000.0 11309700000.0 11309700000.0 11309700000.0 11309700000.0 11309700000.0 11309700000.0 11309700000.0 11309700000.0 11309700000.0 11309700000.0 11309700000.0 11309700000.0 11309700000.0 11309700000.0 11309700000.0 11309700000.0 11309700000.0 11309700000.0 11309700000.0 11309700000.0 11309700000.0 11309700000.0 11309700000.0 11309700000.0 11309700000.0 11309700000.0 11309700000.0 11309700000.0 11309700000.0 11309700000.0 11309700000.0 11309700000.0 11309700000.0 11309700000.0 11309700000.0 11309700000.0 11309700000.0 11309700000.0 11309700000.0 11309700000.0 11309700000.0 11309700000.0 11309700000.0 11309700000.0 11309700000.0 11309700000.0 11309700000.0 11309700000.0 11309700000.0 11309700000.0 11309700000.0 11309700000.0 11309700000.0 11309700000.0 11309700000.0 11309700000.0 11309700000.0 11309700000.0 11309700000.0 11309700000.0 11309700000.0 11309700000.0 11309700000.0 11309700000.0 11309700000.0 11309700000.0 11309700000.0 11309700000.0 11309700000.0 11309700000.0 11309700000.0 11309700000.0 11309700000.0 11309700000.0 11309700000.0 11309700000.0 11309700000.0 11309700000.0 11309700000.0 11309700000.0 11309700000.0 11309700000.0 11309700000.0 11309700000.0 11309700000.0 11309700000.0 11309700000.0 11309700000.0 11309700000.0 11309700000.0 11309700000.0 11309700000.0 11309700000.0 11309700000.0 11309700000.0 11309700000.0 11309700000.0 11309700000.0 11309700000.0 11309700000.0 11309700000.0 11309700000.0 11309700000.0 11309700000.0 11309700000.0 11309700000.0 11309700000.0 11309700000.0 11309700000.0 11309700000.0 11309700000.0 11309700000.0 11309700000.0 11309700000.0 11309700000.0 11309700000.0 11309700000.0 11309700000.0 11309700000.0 11309700000.0 11309700000.0 11309700000.0 11309700000.0 11309700000.0 11309700000.0 11309700000.0 11309700000.0 11309700000.0 11309700000.0 11309700000.0 11309700000.0 11309700000.0 11309700000.0 11309700000.0 11309700000.0 11309700000.0 11309700000.0 11309700000.0 11309700000.0 11309700000.0 11309700000.0 11309700000.0 11309700000.0 11309700000.0 11309700000.0 11309700000.0 11309700000.0 11309700000.0 11309700000.0 11309700000.0 11309700000.0 11309700000.0 11309700000.0 11309700000.0 11309700000.0 11309700000.0 11309700000.0 11309700000.0 11309700000.0 11309700000.0 11309700000.0 11309700000.0 11309700000.0 11309700000.0 11309700000.0 11309700000.0 11309700000.0 11309700000.0 11309700000.0 11309700000.0 11309700000.0 11309700000.0 11309700000.0 11309700000.0 11309700000.0 11309700000.0 11309700000.0 11309700000.0 11309700000.0 11309700000.0 11309700000.0 11309700000.0 11309700000.0 11309700000.0 11309700000.0 11309700000.0 11309700000.0 11309700000.0 11309700000.0 11309700000.0 11309700000.0 11309700000.0 11309700000.0 11309700000.0 11309700000.0 11309700000.0 11309700000.0 11309700000.0 11309700000.0 11309700000.0 11309700000.0 11309700000.0 11309700000.0 11309700000.0 11309700000.0 11309700000.0 11309700000.0 11309700000.0 11309700000.0 11309700000.0 11309700000.0 11309700000.0 11309700000.0 11309700000.0 11309700000.0 11309700000.0 11309700000.0 11309700000.0 11309700000.0 11309700000.0 11309700000.0 11309700000.0 11309700000.0 11309700000.0 11309700000.0 11309700000.0 11309700000.0 11309700000.0 11309700000.0 11309700000.0 11309700000.0 11309700000.0 11309700000.0 11309700000.0 11309700000.0 11309700000.0 11309700000.0 11309700000.0 11309700000.0 11309700000.0 11309700000.0 11309700000.0 11309700000.0 11309700000.0 11309700000.0 11309700000.0 11309700000.0 11309700000.0 11309700000.0 11309700000.0 11309700000.0 11309700000.0 11309700000.0 11309700000.0 11309700000.0 11309700000.0 11309700000.0 11309700000.0 11309700000.0 11309700000.0 11309700000.0 11309700000.0 11309700000.0 11309700000.0 11309700000.0 11309700000.0 11309700000.0 11309700000.0 11309700000.0 11309700000.0 11309700000.0 11309700000.0 11309700000.0 11309700000.0 11309700000.0 11309700000.0 11309700000.0 11309700000.0 11309700000.0 11309700000.0 11309700000.0 11309700000.0 11309700000.0 11309700000.0 11309700000.0 11309700000.0 11309700000.0 11309700000.0 11309700000.0 11309700000.0 11309700000.0 11309700000.0 11309700000.0 11309700000.0 11309700000.0 11309700000.0 11309700000.0 11309700000.0 11309700000.0 11309700000.0 11309700000.0 11309700000.0 11309700000.0 11309700000.0 11309700000.0 11309700000.0 11309700000.0 11309700000.0 11309700000.0 11309700000.0 11309700000.0 11309700000.0 11309700000.0 11309700000.0 11309700000.0 11309700000.0 11309700000.0 11309700000.0 11309700000.0 11309700000.0 11309700000.0 11309700000.0 11309700000.0 11309700000.0 11309700000.0 11309700000.0 11309700000.0 11309700000.0 11309700000.0 11309700000.0 11309700000.0 11309700000.0 11309700000.0 11309700000.0 11309700000.0 11309700000.0 11309700000.0 11309700000.0 11309700000.0 11309700000.0 11309700000.0 11309700000.0 11309700000.0 11309700000.0 11309700000.0 11309700000.0 11309700000.0 11309700000.0 11309700000.0 11309700000.0 11309700000.0 11309700000.0 11309700000.0 11309700000.0 11309700000.0 11309700000.0 11309700000.0 11309700000.0 11309700000.0 11309700000.0 11309700000.0 11309700000.0 11309700000.0 11309700000.0 11309700000.0 11309700000.0 11309700000.0 11309700000.0 11309700000.0 11309700000.0 11309700000.0 11309700000.0 11309700000.0 11309700000.0 11309700000.0 11309700000.0 11309700000.0 11309700000.0 11309700000.0 11309700000.0 11309700000.0 11309700000.0 11309700000.0 11309700000.0 11309700000.0 11309700000.0 11309700000.0 11309700000.0 11309700000.0 11309700000.0 11309700000.0 11309700000.0 11309700000.0 11309700000.0 11309700000.0 11309700000.0 11309700000.0 11309700000.0 11309700000.0 11309700000.0 11309700000.0 11309700000.0 11309700000.0 11309700000.0 11309700000.0 11309700000.0 11309700000.0 11309700000.0 11309700000.0 11309700000.0 11309700000.0 11309700000.0 11309700000.0 11309700000.0 11309700000.0 11309700000.0 11309700000.0 11309700000.0 11309700000.0 11309700000.0 11309700000.0 11309700000.0 11309700000.0 11309700000.0 11309700000.0 11309700000.0 11309700000.0 11309700000.0 11309700000.0 11309700000.0 11309700000.0 11309700000.0 11309700000.0 11309700000.0 11309700000.0 11309700000.0 11309700000.0 11309700000.0 11309700000.0 11309700000.0 11309700000.0 11309700000.0 11309700000.0 11309700000.0 11309700000.0 11309700000.0 11309700000.0 11309700000.0 11309700000.0 11309700000.0 11309700000.0 11309700000.0 11309700000.0 11309700000.0 11309700000.0 11309700000.0 11309700000.0 11309700000.0 11309700000.0 11309700000.0 11309700000.0 11309700000.0 11309700000.0 11309700000.0 11309700000.0 11309700000.0 11309700000.0 11309700000.0 11309700000.0 11309700000.0 11309700000.0 11309700000.0 11309700000.0 11309700000.0 11309700000.0 11309700000.0 11309700000.0 11309700000.0 11309700000.0 11309700000.0 11309700000.0 11309700000.0 11309700000.0 11309700000.0 11309700000.0 11309700000.0 11309700000.0 11309700000.0 11309700000.0 11309700000.0 11309700000.0 11309700000.0 11309700000.0 11309700000.0 11309700000.0 11309700000.0 11309700000.0 11309700000.0 11309700000.0 11309700000.0 11309700000.0 11309700000.0 11309700000.0 11309700000.0 11309700000.0 11309700000.0 11309700000.0 11309700000.0 11309700000.0 11309700000.0 11309700000.0 11309700000.0 11309700000.0 11309700000.0 11309700000.0 11309700000.0 11309700000.0 11309700000.0 11309700000.0 11309700000.0 11309700000.0 11309700000.0 11309700000.0 11309700000.0 11309700000.0 11309700000.0 11309700000.0 11309700000.0 11309700000.0 11309700000.0 11309700000.0 11309700000.0 11309700000.0 11309700000.0 11309700000.0 11309700000.0 11309700000.0 11309700000.0 11309700000.0 11309700000.0 11309700000.0 11309700000.0 11309700000.0 11309700000.0 11309700000.0 11309700000.0 11309700000.0 11309700000.0 11309700000.0 11309700000.0 11309700000.0 11309700000.0 11309700000.0 11309700000.0 11309700000.0 11309700000.0 11309700000.0 11309700000.0 11309700000.0 11309700000.0 11309700000.0 11309700000.0 11309700000.0 11309700000.0 11309700000.0 11309700000.0 11309700000.0 11309700000.0 11309700000.0 11309700000.0 11309700000.0 11309700000.0 11309700000.0 11309700000.0 11309700000.0 11309700000.0 11309700000.0 11309700000.0 11309700000.0 11309700000.0 11309700000.0 11309700000.0 11309700000.0 11309700000.0 11309700000.0 11309700000.0 11309700000.0 11309700000.0 11309700000.0 11309700000.0 11309700000.0 11309700000.0 11309700000.0 11309700000.0 11309700000.0 11309700000.0 11309700000.0 11309700000.0 11309700000.0 11309700000.0 11309700000.0 11309700000.0 11309700000.0 11309700000.0 11309700000.0 11309700000.0 11309700000.0 11309700000.0 11309700000.0 11309700000.0 11309700000.0 11309700000.0 11309700000.0 11309700000.0 11309700000.0 11309700000.0 11309700000.0 11309700000.0 11309700000.0 11309700000.0 11309700000.0 11309700000.0 11309700000.0 11309700000.0 11309700000.0 11309700000.0 11309700000.0 11309700000.0 11309700000.0 11309700000.0 11309700000.0 11309700000.0 11309700000.0 11309700000.0 11309700000.0 11309700000.0 11309700000.0 11309700000.0 11309700000.0 11309700000.0 11309700000.0 11309700000.0 11309700000.0 11309700000.0 11309700000.0 11309700000.0 11309700000.0 11309700000.0 11309700000.0 11309700000.0 11309700000.0 11309700000.0 11309700000.0 11309700000.0 11309700000.0 11309700000.0 11309700000.0 11309700000.0 11309700000.0 11309700000.0 11309700000.0 11309700000.0 11309700000.0 11309700000.0 11309700000.0 11309700000.0 11309700000.0 11309700000.0 11309700000.0 11309700000.0 11309700000.0 11309700000.0 11309700000.0 11309700000.0 11309700000.0 11309700000.0 11309700000.0 11309700000.0 11309700000.0 11309700000.0 11309700000.0 11309700000.0 11309700000.0 11309700000.0 11309700000.0 11309700000.0 11309700000.0 11309700000.0 11309700000.0 11309700000.0 11309700000.0 11309700000.0 11309700000.0 11309700000.0 11309700000.0 11309700000.0 11309700000.0 11309700000.0 11309700000.0 11309700000.0 11309700000.0 11309700000.0 11309700000.0 11309700000.0 11309700000.0 11309700000.0 11309700000.0 11309700000.0 11309700000.0 11309700000.0 11309700000.0 11309700000.0 11309700000.0 11309700000.0 11309700000.0 11309700000.0 11309700000.0 11309700000.0 11309700000.0 11309700000.0 11309700000.0 11309700000.0 11309700000.0 11309700000.0 11309700000.0 11309700000.0 11309700000.0 11309700000.0 11309700000.0 11309700000.0 11309700000.0 11309700000.0 11309700000.0 11309700000.0 11309700000.0 11309700000.0 11309700000.0 11309700000.0 11309700000.0 11309700000.0 11309700000.0 11309700000.0 11309700000.0 11309700000.0 11309700000.0 11309700000.0 11309700000.0 11309700000.0 11309700000.0 11309700000.0 11309700000.0 11309700000.0 11309700000.0 11309700000.0 11309700000.0 11309700000.0 11309700000.0 11309700000.0 11309700000.0 11309700000.0 11309700000.0 11309700000.0 11309700000.0 11309700000.0 11309700000.0 11309700000.0 11309700000.0 11309700000.0 11309700000.0 11309700000.0 11309700000.0 11309700000.0 11309700000.0 11309700000.0 11309700000.0 11309700000.0 11309700000.0 11309700000.0 11309700000.0 11309700000.0 11309700000.0 11309700000.0 11309700000.0 11309700000.0 11309700000.0 11309700000.0 11309700000.0 11309700000.0 11309700000.0 11309700000.0 11309700000.0 11309700000.0 11309700000.0 11309700000.0 11309700000.0 11309700000.0 11309700000.0 11309700000.0 11309700000.0 11309700000.0 11309700000.0 11309700000.0 11309700000.0 11309700000.0 11309700000.0 11309700000.0 11309700000.0 11309700000.0 11309700000.0 11309700000.0 11309700000.0 11309700000.0 11309700000.0 11309700000.0 11309700000.0 11309700000.0 11309700000.0 11309700000.0 11309700000.0 11309700000.0 11309700000.0 11309700000.0 11309700000.0 11309700000.0 11309700000.0 11309700000.0 11309700000.0 11309700000.0 11309700000.0 11309700000.0 11309700000.0 11309700000.0 11309700000.0 11309700000.0 11309700000.0 11309700000.0 11309700000.0 11309700000.0 11309700000.0 11309700000.0 11309700000.0 11309700000.0 11309700000.0 11309700000.0 11309700000.0 11309700000.0 11309700000.0 11309700000.0 11309700000.0 11309700000.0 11309700000.0 11309700000.0 11309700000.0 11309700000.0 11309700000.0 11309700000.0 11309700000.0 11309700000.0 11309700000.0 11309700000.0 11309700000.0 11309700000.0 11309700000.0 11309700000.0 11309700000.0 11309700000.0 11309700000.0 11309700000.0 11309700000.0 11309700000.0 11309700000.0 11309700000.0 11309700000.0 11309700000.0 11309700000.0 11309700000.0 11309700000.0 11309700000.0 11309700000.0 11309700000.0 11309700000.0 11309700000.0 11309700000.0 11309700000.0 11309700000.0 11309700000.0 11309700000.0 11309700000.0 11309700000.0 11309700000.0 11309700000.0 11309700000.0 11309700000.0 11309700000.0 11309700000.0 11309700000.0 11309700000.0 11309700000.0 11309700000.0 11309700000.0 11309700000.0 11309700000.0 11309700000.0 11309700000.0 11309700000.0 11309700000.0 11309700000.0 11309700000.0 11309700000.0 11309700000.0 11309700000.0 11309700000.0 11309700000.0 11309700000.0 11309700000.0 11309700000.0 11309700000.0 11309700000.0 11309700000.0 11309700000.0 11309700000.0 11309700000.0 11309700000.0 11309700000.0 11309700000.0 11309700000.0 11309700000.0 11309700000.0 11309700000.0 11309700000.0 11309700000.0 11309700000.0 11309700000.0 11309700000.0 11309700000.0 11309700000.0 11309700000.0 11309700000.0 11309700000.0 11309700000.0 11309700000.0 11309700000.0 11309700000.0 11309700000.0 11309700000.0 11309700000.0 11309700000.0 11309700000.0 11309700000.0 11309700000.0 11309700000.0 11309700000.0 11309700000.0 11309700000.0 11309700000.0 11309700000.0 11309700000.0 11309700000.0 11309700000.0 11309700000.0 11309700000.0 11309700000.0 11309700000.0 11309700000.0 11309700000.0 11309700000.0 11309700000.0 11309700000.0 11309700000.0 11309700000.0 11309700000.0 11309700000.0 11309700000.0 11309700000.0 11309700000.0 11309700000.0 11309700000.0 11309700000.0 11309700000.0 11309700000.0 11309700000.0 11309700000.0 11309700000.0 11309700000.0 11309700000.0 11309700000.0 11309700000.0 11309700000.0 11309700000.0 11309700000.0 11309700000.0 11309700000.0 11309700000.0 11309700000.0 11309700000.0 11309700000.0 11309700000.0 11309700000.0 11309700000.0 11309700000.0 11309700000.0 11309700000.0 11309700000.0 11309700000.0 11309700000.0 11309700000.0 11309700000.0 11309700000.0 11309700000.0 11309700000.0 11309700000.0 11309700000.0 11309700000.0 11309700000.0 11309700000.0 11309700000.0 11309700000.0 11309700000.0 11309700000.0 11309700000.0 11309700000.0 11309700000.0 11309700000.0 11309700000.0 11309700000.0 11309700000.0 11309700000.0 11309700000.0 11309700000.0 11309700000.0 11309700000.0 11309700000.0 11309700000.0 11309700000.0 11309700000.0 11309700000.0 11309700000.0 11309700000.0 11309700000.0 11309700000.0 11309700000.0 11309700000.0 11309700000.0 11309700000.0 11309700000.0 11309700000.0 11309700000.0 11309700000.0 11309700000.0 11309700000.0 11309700000.0 11309700000.0 11309700000.0 11309700000.0 11309700000.0 11309700000.0 11309700000.0 11309700000.0 11309700000.0 11309700000.0 11309700000.0 11309700000.0 11309700000.0 11309700000.0 11309700000.0 11309700000.0 11309700000.0 11309700000.0 11309700000.0 11309700000.0 11309700000.0 11309700000.0 11309700000.0 11309700000.0 11309700000.0 11309700000.0 11309700000.0 11309700000.0 11309700000.0 11309700000.0 11309700000.0 11309700000.0 11309700000.0 11309700000.0 11309700000.0 11309700000.0 11309700000.0 11309700000.0 11309700000.0 11309700000.0 11309700000.0 11309700000.0 11309700000.0 11309700000.0 11309700000.0 11309700000.0 11309700000.0 11309700000.0 11309700000.0 11309700000.0 11309700000.0 11309700000.0 11309700000.0 11309700000.0 11309700000.0 11309700000.0 11309700000.0 11309700000.0 11309700000.0 11309700000.0 11309700000.0 11309700000.0 11309700000.0 11309700000.0 11309700000.0 11309700000.0 11309700000.0 11309700000.0 11309700000.0 11309700000.0 11309700000.0 11309700000.0 11309700000.0 11309700000.0 11309700000.0 11309700000.0 11309700000.0 11309700000.0 11309700000.0 11309700000.0 11309700000.0 11309700000.0 11309700000.0 11309700000.0 11309700000.0 11309700000.0 11309700000.0 11309700000.0 11309700000.0 11309700000.0 11309700000.0 11309700000.0 11309700000.0 11309700000.0 11309700000.0 11309700000.0 11309700000.0 11309700000.0 11309700000.0 11309700000.0 11309700000.0 11309700000.0 11309700000.0 11309700000.0 11309700000.0 11309700000.0 11309700000.0 11309700000.0 11309700000.0 11309700000.0 11309700000.0 11309700000.0 11309700000.0 11309700000.0 11309700000.0 11309700000.0 11309700000.0 11309700000.0 11309700000.0 11309700000.0 11309700000.0 11309700000.0 11309700000.0 11309700000.0 11309700000.0 11309700000.0 11309700000.0 11309700000.0 11309700000.0 11309700000.0 11309700000.0 11309700000.0 11309700000.0 11309700000.0 11309700000.0 11309700000.0 11309700000.0 11309700000.0 11309700000.0 11309700000.0 11309700000.0 11309700000.0 11309700000.0 11309700000.0 11309700000.0 11309700000.0 11309700000.0 11309700000.0 11309700000.0 11309700000.0 11309700000.0 11309700000.0 11309700000.0 11309700000.0 11309700000.0 11309700000.0 11309700000.0 11309700000.0 11309700000.0 11309700000.0 11309700000.0 11309700000.0 11309700000.0 11309700000.0 11309700000.0 11309700000.0 11309700000.0 11309700000.0 11309700000.0 11309700000.0 11309700000.0 11309700000.0 11309700000.0 11309700000.0 11309700000.0 11309700000.0 11309700000.0 11309700000.0 11309700000.0 11309700000.0 11309700000.0 11309700000.0 11309700000.0 11309700000.0 11309700000.0 11309700000.0 11309700000.0 11309700000.0 11309700000.0 11309700000.0 11309700000.0 11309700000.0 11309700000.0 11309700000.0 11309700000.0 11309700000.0 11309700000.0 11309700000.0 11309700000.0 11309700000.0 11309700000.0 11309700000.0 11309700000.0 11309700000.0 11309700000.0 11309700000.0 11309700000.0 11309700000.0 11309700000.0 11309700000.0 11309700000.0 11309700000.0 11309700000.0 11309700000.0 11309700000.0 11309700000.0 11309700000.0 11309700000.0 11309700000.0 11309700000.0 11309700000.0 11309700000.0 11309700000.0 11309700000.0 11309700000.0 11309700000.0 11309700000.0 11309700000.0 11309700000.0 11309700000.0 11309700000.0 11309700000.0 11309700000.0 11309700000.0 11309700000.0 11309700000.0 11309700000.0 11309700000.0 11309700000.0 11309700000.0 11309700000.0 11309700000.0 11309700000.0 11309700000.0 11309700000.0 11309700000.0 11309700000.0 11309700000.0 11309700000.0 11309700000.0 11309700000.0 11309700000.0 11309700000.0 11309700000.0 11309700000.0 11309700000.0 11309700000.0 11309700000.0 11309700000.0 11309700000.0 11309700000.0 11309700000.0 11309700000.0 11309700000.0 11309700000.0 11309700000.0 11309700000.0 11309700000.0 11309700000.0 11309700000.0 11309700000.0 11309700000.0 11309700000.0 11309700000.0 11309700000.0 11309700000.0 11309700000.0 11309700000.0 11309700000.0 11309700000.0 11309700000.0 11309700000.0 11309700000.0 11309700000.0 11309700000.0 11309700000.0 11309700000.0 11309700000.0 11309700000.0 11309700000.0 11309700000.0 11309700000.0 11309700000.0 11309700000.0 11309700000.0 11309700000.0 11309700000.0 11309700000.0 11309700000.0 11309700000.0 11309700000.0 11309700000.0 11309700000.0 11309700000.0 11309700000.0 11309700000.0 11309700000.0 11309700000.0 11309700000.0 11309700000.0 11309700000.0 11309700000.0 11309700000.0 11309700000.0 11309700000.0 11309700000.0 11309700000.0 11309700000.0 11309700000.0 11309700000.0 11309700000.0 11309700000.0 11309700000.0 11309700000.0 11309700000.0 11309700000.0 11309700000.0 11309700000.0 11309700000.0 11309700000.0 11309700000.0 11309700000.0 11309700000.0 11309700000.0 11309700000.0 11309700000.0 11309700000.0 11309700000.0 11309700000.0 11309700000.0 11309700000.0 11309700000.0 11309700000.0 11309700000.0 11309700000.0 11309700000.0 11309700000.0 11309700000.0 11309700000.0 11309700000.0 11309700000.0 11309700000.0 11309700000.0 11309700000.0 11309700000.0 11309700000.0 11309700000.0 11309700000.0 11309700000.0 11309700000.0 11309700000.0 11309700000.0 11309700000.0 11309700000.0 11309700000.0 11309700000.0 11309700000.0 11309700000.0 11309700000.0 11309700000.0 11309700000.0 11309700000.0 11309700000.0 11309700000.0 11309700000.0 11309700000.0 11309700000.0 11309700000.0 11309700000.0 11309700000.0 11309700000.0 11309700000.0 11309700000.0 11309700000.0 11309700000.0 11309700000.0 11309700000.0 11309700000.0 11309700000.0 11309700000.0 11309700000.0 11309700000.0 11309700000.0 11309700000.0 11309700000.0 11309700000.0 11309700000.0 11309700000.0 11309700000.0 11309700000.0 11309700000.0 11309700000.0 11309700000.0 11309700000.0 11309700000.0 11309700000.0 11309700000.0 11309700000.0 11309700000.0 11309700000.0 11309700000.0 11309700000.0 11309700000.0 11309700000.0 11309700000.0 11309700000.0 11309700000.0 11309700000.0 11309700000.0 11309700000.0 11309700000.0 11309700000.0 11309700000.0 11309700000.0 11309700000.0 11309700000.0 11309700000.0 11309700000.0 11309700000.0 11309700000.0 11309700000.0 11309700000.0 11309700000.0 11309700000.0 11309700000.0 11309700000.0 11309700000.0 11309700000.0 11309700000.0 11309700000.0 11309700000.0 11309700000.0 11309700000.0 11309700000.0 11309700000.0 11309700000.0 11309700000.0 11309700000.0 11309700000.0 11309700000.0 11309700000.0 11309700000.0 11309700000.0 11309700000.0 11309700000.0 11309700000.0 11309700000.0 11309700000.0 11309700000.0 11309700000.0 11309700000.0 11309700000.0 11309700000.0 11309700000.0 11309700000.0 11309700000.0 11309700000.0 11309700000.0 11309700000.0 11309700000.0 11309700000.0 11309700000.0 11309700000.0 11309700000.0 11309700000.0 11309700000.0 11309700000.0 11309700000.0 11309700000.0 11309700000.0 11309700000.0 11309700000.0 11309700000.0 11309700000.0 11309700000.0 11309700000.0 11309700000.0 11309700000.0 11309700000.0 11309700000.0 11309700000.0 11309700000.0 11309700000.0 11309700000.0 11309700000.0 11309700000.0 11309700000.0 11309700000.0 11309700000.0 11309700000.0 11309700000.0 11309700000.0 11309700000.0 11309700000.0 11309700000.0 11309700000.0 11309700000.0 11309700000.0 11309700000.0 11309700000.0 11309700000.0 11309700000.0 11309700000.0 11309700000.0 11309700000.0 11309700000.0 11309700000.0 11309700000.0 11309700000.0 11309700000.0 11309700000.0 11309700000.0 11309700000.0 11309700000.0 11309700000.0 11309700000.0 11309700000.0 11309700000.0 11309700000.0 11309700000.0 11309700000.0 11309700000.0 11309700000.0 11309700000.0 11309700000.0 11309700000.0 11309700000.0 11309700000.0 11309700000.0 11309700000.0 11309700000.0 11309700000.0 11309700000.0 11309700000.0 11309700000.0 11309700000.0 11309700000.0 11309700000.0 11309700000.0 11309700000.0 11309700000.0 11309700000.0 11309700000.0 11309700000.0 11309700000.0 11309700000.0 11309700000.0 11309700000.0 11309700000.0 11309700000.0 11309700000.0 11309700000.0 11309700000.0 11309700000.0 11309700000.0 11309700000.0 11309700000.0 11309700000.0 11309700000.0 11309700000.0 11309700000.0 11309700000.0 11309700000.0 11309700000.0 11309700000.0 11309700000.0 11309700000.0 11309700000.0 11309700000.0 11309700000.0 11309700000.0 11309700000.0 11309700000.0 11309700000.0 11309700000.0 11309700000.0 11309700000.0 11309700000.0 11309700000.0 11309700000.0 11309700000.0 11309700000.0 11309700000.0 11309700000.0 11309700000.0 11309700000.0 11309700000.0 11309700000.0 11309700000.0 11309700000.0 11309700000.0 11309700000.0 11309700000.0 11309700000.0 11309700000.0 11309700000.0 11309700000.0 11309700000.0 11309700000.0 11309700000.0 11309700000.0 11309700000.0 11309700000.0 11309700000.0 11309700000.0 11309700000.0 11309700000.0 11309700000.0 11309700000.0 11309700000.0 11309700000.0 11309700000.0 11309700000.0 11309700000.0 11309700000.0 11309700000.0 11309700000.0 11309700000.0 11309700000.0 11309700000.0 11309700000.0 11309700000.0 11309700000.0 11309700000.0 11309700000.0 11309700000.0 11309700000.0 11309700000.0 11309700000.0 11309700000.0 11309700000.0 11309700000.0 11309700000.0 11309700000.0 11309700000.0 11309700000.0 11309700000.0 11309700000.0 11309700000.0 11309700000.0 11309700000.0 11309700000.0 11309700000.0 11309700000.0 11309700000.0 11309700000.0 11309700000.0 11309700000.0 11309700000.0 11309700000.0 11309700000.0 11309700000.0 11309700000.0 11309700000.0 11309700000.0 11309700000.0 11309700000.0 11309700000.0 11309700000.0 11309700000.0 11309700000.0 11309700000.0 11309700000.0 11309700000.0 11309700000.0 11309700000.0 11309700000.0 11309700000.0 11309700000.0 11309700000.0 11309700000.0 11309700000.0 11309700000.0 11309700000.0 11309700000.0 11309700000.0 11309700000.0 11309700000.0 11309700000.0 11309700000.0 11309700000.0 11309700000.0 11309700000.0 11309700000.0 11309700000.0 11309700000.0 11309700000.0 11309700000.0 11309700000.0 11309700000.0 11309700000.0 11309700000.0 11309700000.0 11309700000.0 11309700000.0 11309700000.0 11309700000.0 11309700000.0 11309700000.0 11309700000.0 11309700000.0 11309700000.0 11309700000.0 11309700000.0 11309700000.0 11309700000.0 11309700000.0 11309700000.0 11309700000.0 11309700000.0 11309700000.0 11309700000.0 11309700000.0 11309700000.0 11309700000.0 11309700000.0 11309700000.0 11309700000.0 11309700000.0 11309700000.0 11309700000.0 11309700000.0 11309700000.0 11309700000.0 11309700000.0 11309700000.0 11309700000.0 11309700000.0 11309700000.0 11309700000.0 11309700000.0 11309700000.0 11309700000.0 11309700000.0 11309700000.0 11309700000.0 11309700000.0 11309700000.0 11309700000.0 11309700000.0 11309700000.0 11309700000.0 11309700000.0 11309700000.0 11309700000.0 11309700000.0 11309700000.0 11309700000.0 11309700000.0 11309700000.0 11309700000.0 11309700000.0 11309700000.0 11309700000.0 11309700000.0 11309700000.0 11309700000.0 11309700000.0 11309700000.0 11309700000.0 11309700000.0 11309700000.0 11309700000.0 11309700000.0 11309700000.0 11309700000.0 11309700000.0 11309700000.0 11309700000.0 11309700000.0 11309700000.0 11309700000.0 11309700000.0 11309700000.0 11309700000.0 11309700000.0 11309700000.0 11309700000.0 11309700000.0 11309700000.0 11309700000.0 11309700000.0 11309700000.0 11309700000.0 11309700000.0 11309700000.0 11309700000.0 11309700000.0 11309700000.0 11309700000.0 11309700000.0 11309700000.0 11309700000.0 11309700000.0 11309700000.0 11309700000.0 11309700000.0 11309700000.0 11309700000.0 11309700000.0 11309700000.0 11309700000.0 11309700000.0 11309700000.0 11309700000.0 11309700000.0 11309700000.0 11309700000.0 11309700000.0 11309700000.0 11309700000.0 11309700000.0 11309700000.0 11309700000.0 11309700000.0 11309700000.0 11309700000.0 11309700000.0 11309700000.0 11309700000.0 11309700000.0 11309700000.0 11309700000.0 11309700000.0 11309700000.0 11309700000.0 11309700000.0 11309700000.0 11309700000.0 11309700000.0 11309700000.0 11309700000.0 11309700000.0 11309700000.0 11309700000.0 11309700000.0 11309700000.0 11309700000.0 11309700000.0 11309700000.0 11309700000.0 11309700000.0 11309700000.0 11309700000.0 11309700000.0 11309700000.0 11309700000.0 11309700000.0 11309700000.0 11309700000.0 11309700000.0 11309700000.0 11309700000.0 11309700000.0 11309700000.0 11309700000.0 11309700000.0 11309700000.0 11309700000.0 11309700000.0 11309700000.0 11309700000.0 11309700000.0 11309700000.0 11309700000.0 11309700000.0 11309700000.0 11309700000.0 11309700000.0 11309700000.0 11309700000.0 11309700000.0 11309700000.0 11309700000.0 11309700000.0 11309700000.0 11309700000.0 11309700000.0 11309700000.0 11309700000.0 11309700000.0 11309700000.0 11309700000.0 11309700000.0 11309700000.0 11309700000.0 11309700000.0 11309700000.0 11309700000.0 11309700000.0 11309700000.0 11309700000.0 11309700000.0 11309700000.0 11309700000.0 11309700000.0 11309700000.0 11309700000.0 11309700000.0 11309700000.0 11309700000.0 11309700000.0 11309700000.0 11309700000.0 11309700000.0 11309700000.0 11309700000.0 11309700000.0 11309700000.0 11309700000.0 11309700000.0 11309700000.0 11309700000.0 11309700000.0 11309700000.0 11309700000.0 11309700000.0 11309700000.0 11309700000.0 11309700000.0 11309700000.0 11309700000.0 11309700000.0 11309700000.0 11309700000.0 11309700000.0 11309700000.0 11309700000.0 11309700000.0 11309700000.0 11309700000.0 11309700000.0 11309700000.0 11309700000.0 11309700000.0 11309700000.0 11309700000.0 11309700000.0 11309700000.0 11309700000.0 11309700000.0 11309700000.0 11309700000.0 11309700000.0 11309700000.0 11309700000.0 11309700000.0 11309700000.0 11309700000.0 11309700000.0 11309700000.0 11309700000.0 11309700000.0 11309700000.0 11309700000.0 11309700000.0 11309700000.0 11309700000.0 11309700000.0 11309700000.0 11309700000.0 11309700000.0 11309700000.0 11309700000.0 11309700000.0 11309700000.0 11309700000.0 11309700000.0 11309700000.0 11309700000.0 11309700000.0 11309700000.0 11309700000.0 11309700000.0 11309700000.0 11309700000.0 11309700000.0 11309700000.0 11309700000.0 11309700000.0 11309700000.0 11309700000.0 11309700000.0 11309700000.0 11309700000.0 11309700000.0 11309700000.0 11309700000.0 11309700000.0 11309700000.0 11309700000.0 11309700000.0 11309700000.0 11309700000.0 11309700000.0 11309700000.0 11309700000.0 11309700000.0 11309700000.0 11309700000.0 11309700000.0 11309700000.0 11309700000.0 11309700000.0 11309700000.0 11309700000.0 11309700000.0 11309700000.0 11309700000.0 11309700000.0 11309700000.0 11309700000.0 11309700000.0 11309700000.0 11309700000.0 11309700000.0 11309700000.0 11309700000.0 11309700000.0 11309700000.0 11309700000.0 11309700000.0 11309700000.0 11309700000.0 11309700000.0 11309700000.0 11309700000.0 11309700000.0 11309700000.0 11309700000.0 11309700000.0 11309700000.0 11309700000.0 11309700000.0 11309700000.0 11309700000.0 11309700000.0 11309700000.0 11309700000.0 11309700000.0 11309700000.0 11309700000.0 11309700000.0 11309700000.0 11309700000.0 11309700000.0 11309700000.0 11309700000.0 11309700000.0 11309700000.0 11309700000.0 11309700000.0 11309700000.0 11309700000.0 11309700000.0 11309700000.0 11309700000.0 11309700000.0 11309700000.0 11309700000.0 11309700000.0 11309700000.0 11309700000.0 11309700000.0 11309700000.0 11309700000.0 11309700000.0 11309700000.0 11309700000.0 11309700000.0 11309700000.0 11309700000.0 11309700000.0 11309700000.0 11309700000.0 11309700000.0 11309700000.0 11309700000.0 11309700000.0 11309700000.0 11309700000.0 11309700000.0 11309700000.0 11309700000.0 11309700000.0 11309700000.0 11309700000.0 11309700000.0 11309700000.0 11309700000.0 11309700000.0 11309700000.0 11309700000.0 11309700000.0 11309700000.0 11309700000.0 11309700000.0 11309700000.0 11309700000.0 11309700000.0 11309700000.0 11309700000.0 11309700000.0 11309700000.0 11309700000.0 11309700000.0 11309700000.0 11309700000.0 11309700000.0 11309700000.0 11309700000.0 11309700000.0 11309700000.0 11309700000.0 11309700000.0 11309700000.0 11309700000.0 11309700000.0 11309700000.0 11309700000.0 11309700000.0 11309700000.0 11309700000.0 11309700000.0 11309700000.0 11309700000.0 11309700000.0 11309700000.0 11309700000.0 11309700000.0 11309700000.0 11309700000.0 11309700000.0 11309700000.0 11309700000.0 11309700000.0 11309700000.0 11309700000.0 11309700000.0 11309700000.0 11309700000.0 11309700000.0 11309700000.0 11309700000.0 11309700000.0 11309700000.0 11309700000.0 11309700000.0 11309700000.0 11309700000.0 11309700000.0 11309700000.0 11309700000.0 11309700000.0 11309700000.0 11309700000.0 11309700000.0 11309700000.0 11309700000.0 11309700000.0 11309700000.0 11309700000.0 11309700000.0 11309700000.0 11309700000.0 11309700000.0 11309700000.0 11309700000.0 11309700000.0 11309700000.0 11309700000.0 11309700000.0 11309700000.0 11309700000.0 11309700000.0 11309700000.0 11309700000.0 11309700000.0 11309700000.0 11309700000.0 11309700000.0 11309700000.0 11309700000.0 11309700000.0 11309700000.0 11309700000.0 11309700000.0 11309700000.0 11309700000.0 11309700000.0 11309700000.0 11309700000.0 11309700000.0 11309700000.0 11309700000.0 11309700000.0 11309700000.0 11309700000.0 11309700000.0 11309700000.0 11309700000.0 11309700000.0 11309700000.0 11309700000.0 11309700000.0 11309700000.0 11309700000.0 11309700000.0 11309700000.0 11309700000.0 11309700000.0 11309700000.0 11309700000.0 11309700000.0 11309700000.0 11309700000.0 11309700000.0 11309700000.0 11309700000.0 11309700000.0 11309700000.0 11309700000.0 11309700000.0 11309700000.0 11309700000.0 11309700000.0 11309700000.0 11309700000.0 11309700000.0 11309700000.0 11309700000.0 11309700000.0 11309700000.0 11309700000.0 11309700000.0 11309700000.0 11309700000.0 11309700000.0 11309700000.0 11309700000.0 11309700000.0 11309700000.0 11309700000.0 11309700000.0 11309700000.0 11309700000.0 11309700000.0 11309700000.0 11309700000.0 11309700000.0 11309700000.0 11309700000.0 11309700000.0 11309700000.0 11309700000.0 11309700000.0 11309700000.0 11309700000.0 11309700000.0 11309700000.0 11309700000.0 11309700000.0 11309700000.0 11309700000.0 11309700000.0 11309700000.0 11309700000.0 11309700000.0 11309700000.0 11309700000.0 11309700000.0 11309700000.0 11309700000.0 11309700000.0 11309700000.0 11309700000.0 11309700000.0 11309700000.0 11309700000.0 11309700000.0 11309700000.0 11309700000.0 11309700000.0 11309700000.0 11309700000.0 11309700000.0 11309700000.0 11309700000.0 11309700000.0 11309700000.0 11309700000.0 11309700000.0 11309700000.0 11309700000.0 11309700000.0 11309700000.0 11309700000.0 11309700000.0 11309700000.0 11309700000.0 11309700000.0 11309700000.0 11309700000.0 11309700000.0 11309700000.0 11309700000.0 11309700000.0 11309700000.0 11309700000.0 11309700000.0 11309700000.0 11309700000.0 11309700000.0 11309700000.0 11309700000.0 11309700000.0 11309700000.0 11309700000.0 11309700000.0 11309700000.0 11309700000.0 11309700000.0 11309700000.0 11309700000.0 11309700000.0 11309700000.0 11309700000.0 11309700000.0 11309700000.0 11309700000.0 11309700000.0 11309700000.0 11309700000.0 11309700000.0 11309700000.0 11309700000.0 11309700000.0 11309700000.0 11309700000.0 11309700000.0 11309700000.0 11309700000.0 11309700000.0 11309700000.0 11309700000.0 11309700000.0 11309700000.0 11309700000.0 11309700000.0 11309700000.0 11309700000.0 11309700000.0 11309700000.0 11309700000.0 11309700000.0 11309700000.0 11309700000.0 11309700000.0 11309700000.0 11309700000.0 11309700000.0 11309700000.0 11309700000.0 11309700000.0 11309700000.0 11309700000.0 11309700000.0 11309700000.0 11309700000.0 11309700000.0 11309700000.0 11309700000.0 11309700000.0 11309700000.0 11309700000.0 11309700000.0 11309700000.0 11309700000.0 11309700000.0 11309700000.0 11309700000.0 11309700000.0 11309700000.0 11309700000.0 11309700000.0 11309700000.0 11309700000.0 11309700000.0 11309700000.0 11309700000.0 11309700000.0 11309700000.0 11309700000.0 11309700000.0 11309700000.0 11309700000.0 11309700000.0 11309700000.0 11309700000.0 11309700000.0 11309700000.0 11309700000.0 11309700000.0 11309700000.0 11309700000.0 11309700000.0 11309700000.0 11309700000.0 11309700000.0 11309700000.0 11309700000.0 11309700000.0 11309700000.0 11309700000.0 11309700000.0 11309700000.0 11309700000.0 11309700000.0 11309700000.0 11309700000.0 11309700000.0 11309700000.0 11309700000.0 11309700000.0 11309700000.0 11309700000.0 11309700000.0 11309700000.0 11309700000.0 11309700000.0 11309700000.0 11309700000.0 11309700000.0 11309700000.0 11309700000.0 11309700000.0 11309700000.0 11309700000.0 11309700000.0 11309700000.0 11309700000.0 11309700000.0 11309700000.0 11309700000.0 11309700000.0 11309700000.0 11309700000.0 11309700000.0 11309700000.0 11309700000.0 11309700000.0 11309700000.0 11309700000.0 11309700000.0 11309700000.0 11309700000.0 11309700000.0 11309700000.0 11309700000.0 11309700000.0 11309700000.0 11309700000.0 11309700000.0 11309700000.0 11309700000.0 11309700000.0 11309700000.0 11309700000.0 11309700000.0 11309700000.0 11309700000.0 11309700000.0 11309700000.0 11309700000.0 11309700000.0 11309700000.0 11309700000.0 11309700000.0 11309700000.0 11309700000.0 11309700000.0 11309700000.0 11309700000.0 11309700000.0 11309700000.0 11309700000.0 11309700000.0 11309700000.0 11309700000.0 11309700000.0 11309700000.0 11309700000.0 11309700000.0 11309700000.0 11309700000.0 11309700000.0 11309700000.0 11309700000.0 11309700000.0 11309700000.0 11309700000.0 11309700000.0 11309700000.0 11309700000.0 11309700000.0 11309700000.0 11309700000.0 11309700000.0 11309700000.0 11309700000.0 11309700000.0 11309700000.0 11309700000.0 11309700000.0 11309700000.0 11309700000.0 11309700000.0 11309700000.0 11309700000.0 11309700000.0 11309700000.0 11309700000.0 11309700000.0 11309700000.0 11309700000.0 11309700000.0 11309700000.0 11309700000.0 11309700000.0 11309700000.0 11309700000.0 11309700000.0 11309700000.0 11309700000.0 11309700000.0 11309700000.0 11309700000.0 11309700000.0 11309700000.0 11309700000.0 11309700000.0 11309700000.0 11309700000.0 11309700000.0 11309700000.0 11309700000.0 11309700000.0 11309700000.0 11309700000.0 11309700000.0 11309700000.0 11309700000.0 11309700000.0 11309700000.0 11309700000.0 11309700000.0 11309700000.0 11309700000.0 11309700000.0 11309700000.0 11309700000.0 11309700000.0 11309700000.0 11309700000.0 11309700000.0 11309700000.0 11309700000.0 11309700000.0 11309700000.0 11309700000.0 11309700000.0 11309700000.0 11309700000.0 11309700000.0 11309700000.0 11309700000.0 11309700000.0 11309700000.0 11309700000.0 11309700000.0 11309700000.0 11309700000.0 11309700000.0 11309700000.0 11309700000.0 11309700000.0 11309700000.0 11309700000.0 11309700000.0 11309700000.0 11309700000.0 11309700000.0 11309700000.0 11309700000.0 11309700000.0 11309700000.0 11309700000.0 11309700000.0 11309700000.0 11309700000.0 11309700000.0 11309700000.0 11309700000.0 11309700000.0 11309700000.0 11309700000.0 11309700000.0 11309700000.0 11309700000.0 11309700000.0 11309700000.0 11309700000.0 11309700000.0 11309700000.0 11309700000.0 11309700000.0 11309700000.0 11309700000.0 11309700000.0 11309700000.0 11309700000.0 11309700000.0 11309700000.0 11309700000.0 11309700000.0 11309700000.0 11309700000.0 11309700000.0 11309700000.0 11309700000.0 11309700000.0 11309700000.0 11309700000.0 11309700000.0 11309700000.0 11309700000.0 11309700000.0 11309700000.0 11309700000.0 11309700000.0 11309700000.0 11309700000.0 11309700000.0 11309700000.0 11309700000.0 11309700000.0 11309700000.0 11309700000.0 11309700000.0 11309700000.0 11309700000.0 11309700000.0 11309700000.0 11309700000.0 11309700000.0 11309700000.0 11309700000.0 11309700000.0 11309700000.0 11309700000.0 11309700000.0 11309700000.0 11309700000.0 11309700000.0 11309700000.0 11309700000.0 11309700000.0 11309700000.0 11309700000.0 11309700000.0 11309700000.0 11309700000.0 11309700000.0 11309700000.0 11309700000.0 11309700000.0 11309700000.0 11309700000.0 11309700000.0 11309700000.0 11309700000.0 11309700000.0 11309700000.0 11309700000.0 11309700000.0 11309700000.0 11309700000.0 11309700000.0 11309700000.0 11309700000.0 11309700000.0 11309700000.0 11309700000.0 11309700000.0 11309700000.0 11309700000.0 11309700000.0 11309700000.0 11309700000.0 11309700000.0 11309700000.0 11309700000.0 11309700000.0 11309700000.0 11309700000.0 11309700000.0 11309700000.0 11309700000.0 11309700000.0 11309700000.0 11309700000.0 11309700000.0 11309700000.0 11309700000.0 11309700000.0 11309700000.0 11309700000.0 11309700000.0 11309700000.0 11309700000.0 11309700000.0 11309700000.0 11309700000.0 11309700000.0 11309700000.0 11309700000.0 11309700000.0 11309700000.0 11309700000.0 11309700000.0 11309700000.0 11309700000.0 11309700000.0 11309700000.0 11309700000.0 11309700000.0 11309700000.0 11309700000.0 11309700000.0 11309700000.0 11309700000.0 11309700000.0 11309700000.0 11309700000.0 11309700000.0 11309700000.0 11309700000.0 11309700000.0 11309700000.0 11309700000.0 11309700000.0 11309700000.0 11309700000.0 11309700000.0 11309700000.0 11309700000.0 11309700000.0 11309700000.0 11309700000.0 11309700000.0 11309700000.0 11309700000.0 11309700000.0 11309700000.0 11309700000.0 11309700000.0 11309700000.0 11309700000.0 11309700000.0 11309700000.0 11309700000.0 11309700000.0 11309700000.0 11309700000.0 11309700000.0 11309700000.0 11309700000.0 11309700000.0 11309700000.0 11309700000.0 11309700000.0 11309700000.0 11309700000.0 11309700000.0 11309700000.0 11309700000.0 11309700000.0 11309700000.0 11309700000.0 11309700000.0 11309700000.0 11309700000.0 11309700000.0 11309700000.0 11309700000.0 11309700000.0 11309700000.0 11309700000.0 11309700000.0 11309700000.0 11309700000.0 11309700000.0 11309700000.0 11309700000.0 11309700000.0 11309700000.0 11309700000.0 11309700000.0 11309700000.0 11309700000.0 11309700000.0 11309700000.0 11309700000.0 11309700000.0 11309700000.0 11309700000.0 11309700000.0 11309700000.0 11309700000.0 11309700000.0 11309700000.0 11309700000.0 11309700000.0 11309700000.0 11309700000.0 11309700000.0 11309700000.0 11309700000.0 11309700000.0 11309700000.0 11309700000.0 11309700000.0 11309700000.0 11309700000.0 11309700000.0 11309700000.0 11309700000.0 11309700000.0 11309700000.0 11309700000.0 11309700000.0 11309700000.0 11309700000.0 11309700000.0 11309700000.0 11309700000.0 11309700000.0 11309700000.0 11309700000.0 11309700000.0 11309700000.0 11309700000.0 11309700000.0 11309700000.0 11309700000.0 11309700000.0 11309700000.0 11309700000.0 11309700000.0 11309700000.0 11309700000.0 11309700000.0 11309700000.0 11309700000.0 11309700000.0 11309700000.0 11309700000.0 11309700000.0 11309700000.0 11309700000.0 11309700000.0 11309700000.0 11309700000.0 11309700000.0 11309700000.0 11309700000.0 11309700000.0 11309700000.0 11309700000.0 11309700000.0 11309700000.0 11309700000.0 11309700000.0 11309700000.0 11309700000.0 11309700000.0 11309700000.0 11309700000.0 11309700000.0 11309700000.0 11309700000.0 11309700000.0 11309700000.0 11309700000.0 11309700000.0 11309700000.0 11309700000.0 11309700000.0 11309700000.0 11309700000.0 11309700000.0 11309700000.0 11309700000.0 11309700000.0 11309700000.0 11309700000.0 11309700000.0 11309700000.0 11309700000.0 11309700000.0 11309700000.0 11309700000.0 11309700000.0 11309700000.0 11309700000.0 11309700000.0 11309700000.0 11309700000.0 11309700000.0 11309700000.0 11309700000.0 11309700000.0 11309700000.0 11309700000.0 11309700000.0 11309700000.0 11309700000.0 11309700000.0 11309700000.0 11309700000.0 11309700000.0 11309700000.0 11309700000.0 11309700000.0 11309700000.0 11309700000.0 11309700000.0 11309700000.0 11309700000.0 11309700000.0 11309700000.0 11309700000.0 11309700000.0 11309700000.0 11309700000.0 11309700000.0 11309700000.0 11309700000.0 11309700000.0 11309700000.0 11309700000.0 11309700000.0 11309700000.0 11309700000.0 11309700000.0 11309700000.0 11309700000.0 11309700000.0 11309700000.0 11309700000.0 11309700000.0 11309700000.0 11309700000.0 11309700000.0 11309700000.0 11309700000.0 11309700000.0 11309700000.0 11309700000.0 11309700000.0 11309700000.0 11309700000.0 11309700000.0 11309700000.0 11309700000.0 11309700000.0 11309700000.0 11309700000.0 11309700000.0 11309700000.0 11309700000.0 11309700000.0 11309700000.0 11309700000.0 11309700000.0 11309700000.0 11309700000.0 11309700000.0 11309700000.0 11309700000.0 11309700000.0 11309700000.0 11309700000.0 11309700000.0 11309700000.0 11309700000.0 11309700000.0 11309700000.0 11309700000.0 11309700000.0 11309700000.0 11309700000.0 11309700000.0 11309700000.0 11309700000.0 11309700000.0 11309700000.0 11309700000.0 11309700000.0 11309700000.0 11309700000.0 11309700000.0 11309700000.0 11309700000.0 11309700000.0 11309700000.0 11309700000.0 11309700000.0 11309700000.0 11309700000.0 11309700000.0 11309700000.0 11309700000.0 11309700000.0 11309700000.0 11309700000.0 11309700000.0 11309700000.0 11309700000.0 11309700000.0 11309700000.0 11309700000.0 11309700000.0 11309700000.0 11309700000.0 11309700000.0 11309700000.0 11309700000.0 11309700000.0 11309700000.0 11309700000.0 11309700000.0 11309700000.0 11309700000.0 11309700000.0 11309700000.0 11309700000.0 11309700000.0 11309700000.0 11309700000.0 11309700000.0 11309700000.0 11309700000.0 11309700000.0 11309700000.0 11309700000.0 11309700000.0 11309700000.0 11309700000.0 11309700000.0 11309700000.0 11309700000.0 11309700000.0 11309700000.0 11309700000.0 11309700000.0 11309700000.0 11309700000.0 11309700000.0 11309700000.0 11309700000.0 11309700000.0 11309700000.0 11309700000.0 11309700000.0 11309700000.0 11309700000.0 11309700000.0 11309700000.0 11309700000.0 11309700000.0 11309700000.0 11309700000.0 11309700000.0 11309700000.0 11309700000.0 11309700000.0 11309700000.0 11309700000.0 11309700000.0 11309700000.0 11309700000.0 11309700000.0 11309700000.0 11309700000.0 11309700000.0 11309700000.0 11309700000.0 11309700000.0 11309700000.0 11309700000.0 11309700000.0 11309700000.0 11309700000.0 11309700000.0 11309700000.0 11309700000.0 11309700000.0 11309700000.0 11309700000.0 11309700000.0 11309700000.0 11309700000.0 11309700000.0 11309700000.0 11309700000.0 11309700000.0 11309700000.0 11309700000.0 11309700000.0 11309700000.0 11309700000.0 11309700000.0 11309700000.0 11309700000.0 11309700000.0 11309700000.0 11309700000.0 11309700000.0 11309700000.0 11309700000.0 11309700000.0 11309700000.0 11309700000.0 11309700000.0 11309700000.0 11309700000.0 11309700000.0 11309700000.0 11309700000.0 11309700000.0 11309700000.0 11309700000.0 11309700000.0 11309700000.0 11309700000.0 11309700000.0 11309700000.0 11309700000.0 11309700000.0 11309700000.0 11309700000.0 11309700000.0 11309700000.0 11309700000.0 11309700000.0 11309700000.0 11309700000.0 11309700000.0 11309700000.0 11309700000.0 11309700000.0 11309700000.0 11309700000.0 11309700000.0 11309700000.0 11309700000.0 11309700000.0 11309700000.0 11309700000.0 11309700000.0 11309700000.0 11309700000.0 11309700000.0 11309700000.0 11309700000.0 11309700000.0 11309700000.0 11309700000.0 11309700000.0 11309700000.0 11309700000.0 11309700000.0 11309700000.0 11309700000.0 11309700000.0 11309700000.0 11309700000.0 11309700000.0 11309700000.0 11309700000.0 11309700000.0 11309700000.0 11309700000.0 11309700000.0 11309700000.0 11309700000.0 11309700000.0 11309700000.0 11309700000.0 11309700000.0 11309700000.0 11309700000.0 11309700000.0 11309700000.0 11309700000.0 11309700000.0 11309700000.0 11309700000.0 11309700000.0 11309700000.0 11309700000.0 11309700000.0 11309700000.0 11309700000.0 11309700000.0 11309700000.0 11309700000.0 11309700000.0 11309700000.0 11309700000.0 
SCALARS Velocity float 1
LOOKUP_TABLE default
0.997587 1.05636 1.06834 1.05556 0.985269 1.01521 0.993361 0.968647 1.07249 1.06885 1.06471 1.05507 1.04721 1.05367 0.937783 1.02746 0.994085 1.04901 0.993498 1.09525 1.08304 1.07717 1.0742 1.0711 1.06873 1.06748 1.0653 1.06263 1.05554 1.05072 1.05449 1.05523 1.05085 1.04848 1.0467 1.04709 1.04846 1.05309 1.05409 1.02896 1.03773 1.05005 1.01087 1.02746 0.967576 1.09786 1.07887 1.07081 1.06751 1.06248 1.05329 1.05962 1.05255 1.04671 1.04896 1.0511 0.937207 1.03303 1.06373 0.991851 0.962322 1.08436 1.0737 1.06864 1.06547 1.05911 1.05694 1.05861 1.04959 1.04743 1.05229 0.936486 1.03189 1.05351 1.05693 1.04976 1.09321 1.07963 1.07731 1.07355 1.07057 1.06807 1.06697 1.06493 1.0625 1.06111 1.05701 1.05907 1.06061 1.06018 1.05525 1.05198 1.04771 1.04956 1.05016 1.05241 1.04627 1.03822 1.06594 1.06063 1.04075 1.02013 1.07968 1.07694 1.07037 1.06647 1.06402 1.0619 1.06247 1.05849 1.05033 1.05303 1.0415 0.968742 1.03634 1.04968 1.05695 1.05367 1.07129 1.0797 1.07381 1.06803 1.06543 1.06394 1.06322 1.06222 1.05473 1.05216 1.05182 0.995157 1.01632 1.08151 1.06583 1.07006 1.08125 1.078 1.07475 1.07078 1.06845 1.06647 1.06589 1.06507 1.06573 1.06522 1.0661 1.06512 1.06358 1.06029 1.05669 1.05201 1.05414 1.05383 1.04978 1.0332 1.10666 1.02771 1.08385 1.05919 1.10348 1.11554 1.09954 1.0827 1.08949 1.08274 1.07991 1.07158 1.0672 1.06619 1.0667 1.06568 1.06049 1.05389 1.05773 1.06896 1.03859 1.14873 1.10615 1.1196 1.1054 1.08697 1.0758 1.06933 1.0669 1.06684 1.06675 1.06337 1.05738 1.05355 1.06178 1.0345 1.12639 1.04648 1.12692 1.12254 1.10003 1.08152 1.07235 1.07004 1.06814 1.06777 1.06717 1.06756 1.06727 1.06691 1.06552 1.06335 1.06052 1.05765 1.05481 1.0544 1.05658 1.06461 1.08706 1.08618 1.07213 1.07781 1.06215 1.10223 1.11848 1.13372 1.13554 1.11721 1.10403 1.0905 1.08246 1.07645 1.07288 1.06876 1.06788 1.06768 1.06563 1.06084 1.0558 1.05729 1.07546 1.05625 1.09358 1.14201 1.11599 1.09216 1.07687 1.07041 1.0683 1.0681 1.0672 1.0637 1.05853 1.05571 1.06328 1.07557 1.04955 1.05752 1.12247 1.1379 1.10702 1.08264 1.07335 1.07041 1.069 1.06851 1.06833 1.06851 1.0681 1.06762 1.06601 1.06429 1.06153 1.0595 1.05699 1.05664 1.05748 1.06053 1.06786 1.06758 1.03891 1.04321 1.06191 1.08927 1.1093 1.13774 1.12862 1.05641 1.09128 1.08308 1.07744 1.07399 1.06882 1.06859 1.06851 1.06654 1.06228 1.05794 1.05717 1.06226 1.04291 1.09082 1.12953 1.05757 1.07851 1.06975 1.06847 1.06881 1.06808 1.06494 1.06022 1.05692 1.05796 1.06169 1.04096 1.06819 1.1054 1.11674 1.05426 1.0589 1.05916 1.05971 1.07524 1.06755 1.06817 1.06835 1.06871 1.06882 1.06881 1.06848 1.06709 1.06552 1.06294 1.06054 1.05825 1.05646 1.05624 1.05567 1.05811 1.05734 1.05224 1.05357 1.07366 1.08815 1.09339 1.10806 1.10433 1.05495 1.05982 1.06129 1.06755 1.06831 1.06884 1.06751 1.06336 1.05796 1.05491 1.05498 1.06467 1.08346 1.09381 1.05902 1.06096 1.06307 1.06733 1.06823 1.06871 1.06584 1.06038 1.05552 1.05364 1.05417 1.06271 1.07073 1.07591 1.08014 1.08559 1.0844 1.09348 1.05689 1.06002 1.06054 1.05355 1.05482 1.06053 1.0648 1.06495 1.06696 1.0668 1.06844 1.06883 1.06762 1.06569 1.06344 1.05955 1.05713 1.05425 1.05347 1.05202 1.05265 1.05193 1.06877 1.0757 1.0809 1.08573 1.0593 1.05348 1.05603 1.0622 1.0646 1.06763 1.06717 1.06309 1.0556 1.05229 1.05103 1.07253 1.07728 1.07867 1.05613 1.05419 1.05431 1.0546 1.05628 1.05901 1.06239 1.06444 1.06942 1.06457 1.05978 1.05719 1.05476 1.05327 1.05159 1.05093 1.05003 1.05046 1.07082 1.07218 1.07435 1.07478 1.07692 1.07612 1.07862 1.06392 1.055 1.05509 1.05797 1.06016 1.0602 1.06196 1.06177 1.0663 1.07038 1.0661 1.05891 1.05705 1.0529 1.05034 1.04957 1.07071 1.07273 1.0745 1.07208 1.05826 1.05497 1.05619 1.05873 1.05957 1.0668 1.0561 1.05895 1.05487 1.05134 1.04952 1.06969 1.07103 1.07105 1.07274 1.07173 1.07246 1.06842 1.06376 1.05947 1.05644 1.05583 1.05542 1.05598 1.05715 1.05751 1.05879 1.0587 1.04515 1.05018 1.05536 1.05848 1.05808 1.05697 1.05491 1.05297 1.05135 1.05013 1.04932 1.04912 1.06954 1.0705 1.06939 1.06317 1.05744 1.05571 1.05631 1.05713 1.0583 1.05296 1.04393 1.04996 1.05695 1.0565 1.05299 1.0501 1.04897 1.06823 1.06912 1.0691 1.06599 1.05982 1.05639 1.05563 1.056 1.05437 1.04631 1.04558 1.04925 1.0536 1.05685 1.05468 1.05134 1.04932 1.0665 1.06776 1.06704 1.0682 1.06669 1.06686 1.06406 1.0623 1.05959 1.05782 1.05647 1.05571 1.05498 1.05522 1.05398 1.05433 1.05156 1.05037 1.04683 1.05242 1.05536 1.05591 1.05584 1.05439 1.05287 1.05125 1.0501 1.04941 1.04903 1.06581 1.06595 1.06466 1.06126 1.05766 1.05533 1.05381 1.05187 1.04877 1.04719 1.04749 1.04935 1.05459 1.05554 1.05272 1.05009 1.0493 1.06462 1.06381 1.06493 1.06381 1.06448 1.0627 1.06236 1.06011 1.05898 1.05713 1.05611 1.05462 1.05402 1.05201 1.04939 1.04703 1.04956 1.05222 1.05494 1.0559 1.05612 1.05442 1.05276 1.05114 1.05011 1.04961 1.04989 1.0627 1.06289 1.06246 1.06079 1.05814 1.05546 1.05292 1.05232 1.05017 1.04973 1.04734 1.04722 1.04739 1.05262 1.05721 1.05512 1.05111 1.05002 1.06186 1.06184 1.06095 1.05893 1.05638 1.05375 1.05088 1.04771 1.04526 1.04599 1.04633 1.04947 1.0532 1.05637 1.05802 1.0532 1.05028 1.05099 1.06085 1.06006 1.06099 1.06008 1.06067 1.05943 1.05937 1.05782 1.05721 1.05557 1.05468 1.05289 1.05183 1.0496 1.04847 1.04511 1.04389 1.04852 1.05876 1.06026 1.06183 1.05686 1.05425 1.05128 1.05083 1.05088 1.053 1.05917 1.05932 1.05915 1.05815 1.05632 1.05392 1.0509 1.04701 1.04572 1.04265 1.04259 1.04036 1.04378 1.0532 1.06583 1.06009 1.05179 1.05264 1.05774 1.05849 1.05794 1.05862 1.05796 1.05819 1.0572 1.05687 1.05558 1.05483 1.05329 1.05216 1.04862 1.04402 1.0392 1.03879 1.04561 1.051 1.06175 1.07533 1.06844 1.05628 1.05217 1.05616 1.05657 1.05723 1.05752 1.05731 1.05618 1.05425 1.05163 1.05022 1.04806 1.04601 1.04301 1.04052 1.03635 1.03522 1.03875 1.06378 1.07885 1.06545 1.06001 1.05286 1.05534 1.06285 1.05663 1.05635 1.05694 1.05719 1.05662 1.05508 1.05282 1.04984 1.04565 1.03954 1.03133 1.03045 1.02452 1.04289 1.09083 1.07334 1.05486 1.06333 0.893832 1.05589 1.05636 1.05685 1.05688 1.05687 1.05648 1.05583 1.05488 1.05387 1.05253 1.05129 1.04966 1.04791 1.04586 1.04299 1.03562 1.02554 1.01717 1.05914 1.11428 1.09248 1.08595 1.06767 1.05946 1.06265 1.07597 1.07306 1.05587 1.05664 1.05695 1.05591 1.05373 1.05106 1.04798 1.04379 1.04014 1.03742 1.03156 1.02857 1.02005 1.01905 1.00977 1.11053 1.09471 1.07563 1.08745 1.05553 1.05577 1.05622 1.05689 1.0571 1.0576 1.05689 1.05654 1.05507 1.05387 1.05237 1.0508 1.0495 1.0463 1.04192 1.03567 1.0297 1.04558 1.05756 0.997947 1.13858 1.17395 1.06163 1.09775 1.09752 1.11229 0.893832 1.05545 1.05642 1.05781 1.05792 1.05574 1.05231 1.04909 1.04791 1.0464 1.0448 1.04379 1.04078 1.03684 1.04343 1.06169 0.904541 0.8126 1.05443 1.14885 1.05545 1.0559 1.05677 1.05746 1.05886 1.05881 1.05959 1.05781 1.05437 1.05041 1.0473 1.04513 1.04383 1.0414 1.04526 1.04439 1.05232 1.05663 1.04575 1.00594 0.915574 0.327775 1.2309 1.13042 1.11158 1.056 1.05812 1.06044 1.05978 1.05701 1.05534 1.05241 1.04985 1.04821 1.04575 1.04551 1.04383 1.0444 1.04561 1.04964 1.04634 1.00094 0.651314 0.1453 1.39872 1.13623 1.0844 1.05514 1.05563 1.05694 1.05843 1.05998 1.06221 1.06182 1.05896 1.05274 1.04676 1.04307 1.04241 1.04451 1.04515 1.04805 1.04706 1.04659 1.02876 1.01861 0.96293 0.915776 0.778575 1.4264 1.05438 1.06477 0.893832 1.05388 1.0564 1.06067 1.06433 1.0624 1.06166 1.0569 1.05354 1.04925 1.04495 1.04315 1.04018 1.04108 1.04467 1.03761 0.990584 0.866369 0.951619 1.29284 1.12392 1.08271 1.05053 1.05404 1.05422 1.05776 1.06363 1.06557 1.05931 1.04898 1.0398 1.03897 1.03392 1.03689 1.03275 1.03921 1.04085 1.01151 0.931676 0.893191 0.842184 0.952987 1.15079 1.10968 1.08342 1.04993 1.05516 1.06025 1.06416 1.06682 1.06917 1.06526 1.06284 1.05524 1.04324 1.0336 1.02745 1.02765 1.03631 1.03304 1.03131 1.00436 0.970932 0.935528 0.908769 1.12627 1.10721 1.09865 1.04355 1.04161 1.04916 1.05796 1.06887 1.06967 1.05819 1.04949 1.04215 1.03627 1.02785 1.02596 1.01649 1.01901 1.0228 1.03012 0.96739 0.93045 0.972665 1.05854 1.08207 1.10263 1.0966 1.03082 1.03967 1.04955 1.05308 1.06327 1.07021 1.07282 1.07469 1.06765 1.05136 1.03306 1.01753 1.00543 1.00875 0.998017 1.0222 1.02453 1.00864 0.974349 0.952808 0.969006 0.955011 0.9966 1.03835 1.0899 1.0103 1.02714 1.02424 1.03987 1.06066 1.07614 1.07358 1.0628 1.05501 1.04228 1.03067 1.02189 1.00547 0.994043 0.99602 1.01506 0.983788 0.998555 1.03359 1.06567 1.08156 1.09794 1.00457 1.02532 1.04507 1.05677 1.07086 1.07889 1.07977 1.06893 1.0441 1.01648 1.00864 0.994706 0.993164 0.983255 0.985733 0.983779 0.982634 0.963568 0.966186 1.02989 1.01727 1.02979 1.01749 1.059 1.11083 0.981095 0.973397 1.00198 1.03441 1.07188 1.08392 1.07989 1.07605 1.06052 1.0298 1.00051 0.982768 0.980534 0.976471 0.901484 1.02477 1.05382 1.02693 1.03753 1.05401 1.08837 1.14514 0.949082 0.973027 1.00599 1.02171 1.05278 1.07513 1.08033 1.08535 1.0676 1.04812 1.03121 1.01234 0.99393 0.985391 0.973404 0.9756 0.975541 0.956746 0.940807 0.958302 1.06678 1.04926 1.029 1.09679 0.942545 0.937917 0.94122 0.982505 1.05094 1.07917 1.08507 1.08598 1.08207 1.05411 1.01155 0.978011 0.961361 0.967841 0.954096 0.958747 1.0518 1.08866 1.07717 1.03657 1.02674 1.00426 1.03815 1.12571 1.20274 0.910416 0.957393 1.0088 1.05554 1.08604 1.07927 1.08281 1.07412 1.06094 1.03593 0.992071 0.96422 0.946472 0.951375 0.993118 1.01356 1.09044 1.06987 0.984493 1.02829 1.1899 1.31885 0.95187 0.861553 0.911551 0.932233 0.997555 1.07174 1.11657 1.07415 1.06146 1.0765 1.07542 1.04342 1.01467 0.993444 0.974385 0.953357 0.948026 0.937508 0.941636 0.966149 1.05827 1.10277 1.05497 1.00931 0.937594 0.945754 1.01509 1.45216 0.458376 0.700863 0.859556 0.980666 1.18576 1.06163 1.04746 1.07005 1.06393 1.02404 0.971599 0.932229 0.948749 1.04146 1.09714 1.10526 1.09758 0.981888 0.880631 0.948981 1.00786 1.22958 1.54012 4.71509 0.179888 0.716628 0.857047 0.947885 1.09653 1.32846 1.03269 1.02306 1.03592 1.06273 1.06017 1.05381 1.04362 0.999868 0.941639 0.93158 0.946066 0.992013 1.098 1.10423 1.0665 1.04343 0.995887 0.973421 0.857427 0.84001 1.30272 1.60754 0.13097 1.31719 1.06506 0.81997 0.880013 1.16722 0.958649 0.941288 0.928297 0.990902 1.04056 1.06883 1.01235 0.96594 0.926792 0.915764 0.913223 1.01231 1.12392 1.06959 0.986698 1.00026 1.01672 0.359488 1.2018 0.130722 0.226584 0.151989 0.855887 1.17529 1.09463 0.909393 0.971883 0.94171 1.51407 0.892871 0.978446 0.994554 1.02552 1.06116 1.071 0.95654 0.906932 0.922699 1.18499 1.10506 1.05265 0.914487 0.983145 1.04459 1.13848 0.99672 0.743365 1.12367 1.7763 0.776854 0.547869 0.605163 0.225072 0.80857 0.460497 0.764032 0.876117 1.15523 1.07009 1.0661 1.04598 0.916028 0.6507 0.913902 0.957673 0.970356 1.04257 1.08789 1.1164 1.01875 0.945215 0.911484 0.897985 0.892232 0.915382 1.05847 1.31849 0.929014 0.88504 0.954096 0.937186 0.868336 1.31129 1.01846 1.43603 0.709526 0.764547 0.659425 0.420134 0.329192 0.672912 0.80235 1.05981 1.08318 1.009 0.973136 0.931206 0.791653 0.921104 0.928916 0.94938 0.958847 1.09963 1.00577 0.918694 0.897796 1.13272 1.1973 1.06994 0.870797 0.783595 0.816314 0.731077 1.15343 1.18965 1.0836 1.3159 0.687531 0.668179 0.672943 0.670802 0.662303 0.468106 0.669884 0.675676 0.70875 0.763622 0.84495 1.08627 1.00688 1.01655 0.934662 0.882098 0.709977 0.830823 0.890458 0.926868 0.948496 1.01293 1.19443 0.913122 0.950468 0.978603 0.506907 0.647946 0.954116 0.928972 0.752549 0.855837 0.87841 0.595021 1.19299 1.05914 1.17934 0.831988 0.75371 0.666427 0.66543 0.649662 0.602379 0.53414 0.67492 0.694995 0.699499 0.794519 0.75984 1.05097 1.00181 0.975348 0.963548 0.893454 0.858262 0.765258 0.773885 0.80141 0.836787 0.873755 1.20517 1.1142 0.522368 0.963341 0.929696 0.966635 1.0233 0.992874 0.83952 0.608563 0.896155 0.812299 0.787858 0.81497 0.697489 0.729843 0.847741 1.01851 1.05732 0.907422 0.711581 0.676566 0.663411 0.664231 0.667524 0.639514 0.620981 0.556793 0.638289 0.685846 0.681837 0.660143 0.66981 0.650459 0.77839 0.893889 0.970781 0.941028 0.913643 0.829034 0.784564 0.77666 0.811878 0.862547 0.944497 0.776345 0.537275 1.04184 0.982704 0.621854 0.639876 0.719833 0.758216 0.739622 0.734499 0.698233 0.579893 0.684104 0.883041 0.921494 0.891639 0.701406 0.659896 0.633624 0.581369 0.595543 0.543684 0.6115 0.636492 0.666455 0.679376 0.668842 0.643389 0.677696 0.721976 0.723165 0.834763 0.926121 0.882962 0.85278 0.772837 0.766575 0.780188 0.776706 0.783673 0.689576 0.624701 0.549453 0.863008 1.02804 0.954026 0.857561 0.653809 0.622925 0.638683 0.687403 0.688851 0.666881 0.636314 0.619023 0.660263 0.749216 0.778229 0.819189 0.824209 0.633512 0.619237 0.573688 0.548396 0.526677 0.524606 0.503414 0.620984 0.619954 0.656977 0.667895 0.671838 0.692017 0.753873 0.657524 0.801334 0.947569 0.853655 0.815466 0.793017 0.737756 0.744771 0.761512 0.732984 0.702298 0.613893 0.608277 0.592849 0.942227 1.08692 0.916238 0.871302 0.565162 0.562252 0.641584 0.658985 0.639109 0.620179 0.619185 0.681688 0.706427 0.734594 0.767563 0.689274 0.64575 0.622488 0.595814 0.576816 0.533054 0.503907 0.475499 0.564333 0.632448 0.626257 0.666214 0.742958 0.66176 0.648299 0.632624 0.702137 0.793811 0.546783 0.785149 0.975423 0.920257 0.819592 0.767967 0.748364 0.737596 0.694423 0.703934 0.718601 0.731712 0.674836 0.631244 0.595378 0.705457 0.619371 0.994892 0.68687 0.674496 0.588755 0.638476 0.659717 0.651942 0.629531 0.613952 0.606851 0.621416 0.635382 0.650966 0.708519 0.658464 0.628775 0.602273 0.591208 0.560087 0.522416 0.483406 0.486968 0.471428 0.455479 0.475496 0.530908 0.600858 0.706257 0.600581 0.650821 0.850362 0.733466 0.719798 0.448177 0.651855 0.872477 0.512783 0.802428 1.00887 0.95082 0.698294 0.688046 0.689672 0.658892 0.674672 0.689198 0.692603 0.625705 0.428671 0.90808 0.976686 0.83697 0.946055 0.710923 0.716402 0.682371 0.650074 0.638134 0.620407 0.605974 0.601627 0.604191 0.606959 0.61865 0.671066 0.658774 0.630699 0.612216 0.596274 0.577762 0.544996 0.51879 0.482765 0.468928 0.440699 0.433936 0.422808 0.416723 0.43035 0.510517 0.565426 0.674816 0.933686 0.83792 0.781012 0.462901 0.434299 0.610025 1.08348 0.937015 0.916137 0.760244 0.599104 0.625648 0.645712 0.632643 0.646978 0.656966 0.652864 0.630859 0.607817 0.608808 0.56521 0.522607 0.605126 0.661531 0.88748 0.664024 0.252552 0.656599 0.638828 0.624504 0.605459 0.595265 0.591717 0.592137 0.592338 0.627701 0.625689 0.608525 0.591902 0.574029 0.553391 0.524463 0.505482 0.474058 0.437412 0.406181 0.439909 0.356882 0.37731 0.387421 0.459106 0.491863 0.699171 0.325973 0.613651 1.03749 0.469018 0.894229 1.43779 1.11358 1.52942 0.192676 0.436865 0.692972 0.65326 0.594911 0.584211 0.606489 0.620635 0.609807 0.62059 0.626398 0.618019 0.599712 0.589206 0.570526 0.547973 0.315994 1.05968 0.863796 0.697755 0.309205 0.478452 0.57543 0.600377 0.617226 0.617587 0.601179 0.59346 0.58513 0.578732 0.574442 0.59477 0.597644 0.592754 0.580801 0.562293 0.544667 0.521967 0.501375 0.477828 0.452454 0.458456 0.445739 0.418426 0.402438 0.411078 0.473679 0.531829 0.330859 0.348483 0.365734 0.409466 0.442965 0.481572 0.419212 0.376795 0.792226 0.587592 0.533194 0.683781 1.30164 0.246695 0.50997 0.508886 0.656872 0.659971 0.558538 0.560719 0.573188 0.589248 0.599133 0.598724 0.60039 0.592974 0.582495 0.570436 0.556895 0.461521 0.687339 0.566065 0.230877 0.472072 0.53548 0.578664 0.596681 0.58509 0.574868 0.566108 0.55677 0.569815 0.567526 0.566331 0.559783 0.548639 0.533393 0.515268 0.49842 0.479047 0.46057 0.456017 0.40908 0.405297 0.392356 0.429254 0.635417 0.293586 0.311522 0.320309 0.342324 0.347799 0.374569 0.411549 0.448209 0.489438 0.451349 0.580855 0.428785 0.383518 0.750134 0.383679 0.459927 0.492071 0.624605 0.610533 0.542318 0.551318 0.565046 0.5738 0.581682 0.589363 0.57965 0.575599 0.568676 0.560422 0.526352 0.554514 0.465703 0.366558 0.361213 0.477573 0.539541 0.566471 0.58741 0.573389 0.563526 0.55499 0.546392 0.549394 0.543815 0.540474 0.537185 0.530399 0.5206 0.505774 0.489645 0.469875 0.448405 0.436659 0.426764 0.369302 0.357948 0.363358 0.391014 0.490907 0.60171 0.717048 0.271681 0.302246 0.318999 0.340265 0.363118 0.412084 0.423975 0.435715 0.444715 0.462349 0.43963 0.422007 0.170713 0.513541 0.39764 0.482022 0.522965 0.639296 0.580201 0.548611 0.553769 0.552079 0.55824 0.564555 0.572453 0.579475 0.595014 0.58155 0.510121 0.476172 0.435856 0.394507 0.436746 0.508386 0.568672 0.560247 0.552869 0.547391 0.53704 0.528933 0.52397 0.519187 0.5139 0.507228 0.496244 0.481928 0.462318 0.437838 0.415396 0.393289 0.277373 0.206902 0.236531 0.331577 0.674353 0.541012 0.241374 0.227934 0.249695 0.262564 0.283076 0.299153 0.318257 0.344562 0.375588 0.395259 0.455037 0.445364 0.403666 0.369383 0.259698 0.336279 0.399321 0.494475 0.525577 0.547753 0.627115 0.569134 0.546519 0.545757 0.542028 0.547371 0.553072 0.559542 0.56532 0.566132 0.563325 0.559401 0.546647 0.567064 0.564328 0.532262 0.490102 0.45138 0.433795 0.448498 0.540288 0.549173 0.546267 0.541741 0.538506 0.539992 0.531404 0.522952 0.515455 0.509046 0.502349 0.49558 0.487245 0.475461 0.457975 0.433714 0.406066 0.372436 0.329096 0.188197 0.119048 0.164073 0.387516 0.438527 0.738791 0.174155 0.209323 0.246203 0.259224 0.27932 0.298554 0.340832 0.351124 0.363693 0.409417 0.42481 0.428147 0.402265 0.375256 0.31154 0.334348 0.371125 0.36041 0.492876 0.529881 0.561451 0.590893 0.548823 0.534326 0.535559 0.539405 0.544702 0.550387 0.555412 0.556803 0.555533 0.549853 0.556463 0.555765 0.540482 0.514252 0.473283 0.45497 0.48977 0.522568 0.533818 0.533347 0.530472 0.528954 0.533661 0.526981 0.519342 0.511729 0.504192 0.496123 0.48783 0.434795 0.408713 0.374348 0.328263 0.276111 0.214957 0.234396 0.233699 0.510803 0.435848 0.505103 0.224911 0.437491 0.0148434 0.192925 0.208386 0.224033 0.24469 0.280243 0.303969 0.322404 0.32987 0.348264 0.38012 0.394515 0.399412 0.398594 0.381413 0.356456 0.347971 0.370751 0.369124 0.448125 0.505481 0.521315 0.531103 0.556202 0.554654 0.532893 0.526752 0.528593 0.533833 0.537936 0.543185 0.547658 0.549843 0.547673 0.54925 0.547092 0.540097 0.520488 0.466411 0.488286 0.511338 0.52359 0.523741 0.522244 0.526183 0.521493 0.515639 0.509174 0.502132 0.494216 0.479307 0.469582 0.455245 0.417866 0.391436 0.355524 0.311662 0.25959 0.327119 0.428163 0.472562 0.698137 0.755477 0.306958 0.0172557 0.0184744 0.163309 0.180293 0.191233 0.226269 0.249022 0.263673 0.284892 0.316195 0.331313 0.349125 0.356871 0.369086 0.382309 0.386976 0.38992 0.386071 0.376178 0.386313 0.396626 0.444155 0.470134 0.490358 0.518938 0.538381 0.532492 0.523421 0.521344 0.523288 0.527309 0.532725 0.542732 0.491557 0.476004 0.476279 0.490417 0.50756 0.516092 0.517959 0.517397 0.521343 0.51978 0.516551 0.512358 0.507551 0.501933 0.495264 0.485145 0.475342 0.464946 0.452773 0.436245 0.403255 0.376611 0.343792 0.315392 0.288005 0.428726 0.551969 0.664478 0.458669 0.123845 0.411811 0.22194 0.129468 0.0650252 0.134972 0.178177 0.202733 0.214139 0.227427 0.26642 0.285984 0.303139 0.318341 0.335406 0.355657 0.366515 0.380874 0.389079 0.397744 0.401074 0.407996 0.416996 0.435753 0.454576 0.468115 0.483239 0.517299 0.526643 0.520287 0.51786 0.517605 0.519375 0.522092 0.526731 0.53216 0.537148 0.541047 0.543642 0.541589 0.535936 0.521776 0.502943 0.489125 0.486162 0.494296 0.505399 0.51249 0.514577 0.516886 0.515602 0.513151 0.510002 0.506527 0.502413 0.48712 0.47738 0.465759 0.452385 0.437377 0.422477 0.404624 0.387498 0.365505 0.351963 0.33849 0.341913 0.437614 0.505654 0.278245 0.276141 0.213961 0.0967804 0.134434 0.132984 0.238616 0.112769 0.12275 0.153047 0.180605 0.218182 0.233126 0.249041 0.268934 0.305498 0.320681 0.350103 0.359109 0.371374 0.385571 0.397342 0.406428 0.418676 0.424791 0.435063 0.440667 0.452428 0.470845 0.483355 0.506683 0.516932 0.522434 0.513746 0.514026 0.515403 0.518093 0.522304 0.527326 0.53179 0.535421 0.537902 0.537565 0.533795 0.524312 0.511575 0.500585 0.49613 0.499571 0.506322 0.510979 0.514948 0.514408 0.513073 0.510938 0.50837 0.505743 0.497402 0.490961 0.482837 0.472446 0.459093 0.442405 0.423573 0.401558 0.385359 0.365718 0.355597 0.36638 0.366368 0.389968 0.361652 0.402619 0.303156 0.284858 0.271722 0.186794 0.200897 0.323991 0.0444875 0.0847456 0.0988331 0.15751 0.199368 0.210511 0.227784 0.253212 0.272097 0.288615 0.308475 0.336912 0.353744 0.365869 0.378648 0.392437 0.403372 0.415018 0.424295 0.430838 0.434802 0.440594 0.452592 0.468783 0.480689 0.496014 0.508277 0.513146 0.513791 0.510371 0.512438 0.515518 0.51935 0.523917 0.528235 0.531827 0.533466 0.532063 0.526837 0.518699 0.510428 0.505833 0.506111 0.513271 0.513813 0.513144 0.511562 0.509419 0.507102 0.50487 0.502821 0.499252 0.494548 0.488299 0.480064 0.469483 0.455898 0.439538 0.424363 0.395824 0.37186 0.353344 0.352108 0.376806 0.38458 0.378411 0.233104 0.286588 0.292805 0.320094 0.275329 0.245636 0.215442 0.214613 0.277193 0.3502 0.381142 0.0242047 0.0718684 0.121661 0.139829 0.178249 0.219866 0.238924 0.245358 0.260651 0.294274 0.309902 0.323147 0.343231 0.361041 0.375405 0.387828 0.399368 0.409475 0.419344 0.425976 0.42966 0.434617 0.442595 0.452968 0.466905 0.479892 0.491993 0.502945 0.507544 0.508642 0.508976 0.514053 0.51796 0.522324 0.526352 0.529171 0.529876 0.527809 0.523272 0.517776 0.508912 0.511658 0.513131 0.513456 0.512527 0.51068 0.508463 0.506204 0.502712 0.500207 0.496943 0.492434 0.486274 0.478424 0.468497 0.456246 0.443226 0.425069 0.394864 0.368496 0.354906 0.342049 0.378589 0.346127 0.22857 0.274527 0.318335 0.297421 0.209752 0.269847 0.217931 0.216537 0.387081 0.394483 0.504697 0.00742026 0.0517291 0.0304365 0.110752 0.181974 0.211997 0.234015 0.256711 0.281223 0.298243 0.316926 0.333722 0.353747 0.372262 0.385652 0.396699 0.406002 0.432129 0.437989 0.445999 0.457174 0.469571 0.480899 0.490995 0.498609 0.50163 0.503682 0.505558 0.508035 0.510668 0.513673 0.512155 0.512435 0.513234 0.513742 0.513482 0.512254 0.510233 0.507844 0.504107 0.502238 0.500251 0.497839 0.494659 0.490288 0.48487 0.478232 0.470367 0.461447 0.449749 0.392287 0.384151 0.371738 0.246904 0.255469 0.329868 0.377525 0.364506 0.350716 0.221452 0.206334 0.174355 0.221856 0.213572 0.479545 1.05132 0.0557021 0.0118795 0.104805 0.0774613 0.188677 0.243611 0.216387 0.227726 0.250796 0.250623 0.259401 0.274551 0.294104 0.31356 0.335062 0.350636 0.368142 0.383513 0.394382 0.414851 0.422279 0.427272 0.461845 0.472364 0.481337 0.488427 0.493872 0.497474 0.500931 0.503632 0.506589 0.509891 0.513669 0.517774 0.521744 0.525049 0.527091 0.527273 0.525429 0.522286 0.519205 0.517051 0.515875 0.515291 0.514741 0.513814 0.512226 0.510004 0.505521 0.503369 0.501468 0.499653 0.497598 0.495075 0.491863 0.487977 0.483659 0.478906 0.433357 0.409965 0.473807 0.341805 0.85826 0.489467 0.276882 0.341426 0.316792 0.471462 0.350703 0.211622 0.153256 0.994972 1.17255 0.663913 0.793357 0.109197 0.105618 0.296039 0.201345 0.223695 0.188316 0.246077 0.241234 0.247214 0.261513 0.286153 0.294823 0.312111 0.333953 0.348473 0.363186 0.377505 0.402978 0.411409 0.419067 0.425629 0.431423 0.436691 0.443036 0.451692 0.479916 0.485891 0.491207 0.495321 0.499184 0.502579 0.506139 0.510102 0.514018 0.517844 0.521339 0.524091 0.525629 0.525687 0.524458 0.522564 0.520615 0.518923 0.517483 0.516123 0.514538 0.507472 0.504992 0.502639 0.500452 0.498431 0.496345 0.494037 0.491393 0.488261 0.485104 0.474194 0.468312 0.462017 0.455762 0.452369 0.457986 0.544842 0.113488 0.223379 0.214582 0.307782 0.271532 0.227504 0.291627 0.436179 0.676284 0.756248 0.497324 0.590839 0.127993 0.125627 0.126628 0.196168 0.408154 0.279059 0.246104 0.26585 0.258761 0.28527 0.299989 0.310757 0.330588 0.343413 0.390593 0.400039 0.408296 0.415808 0.423443 0.430582 0.43624 0.442113 0.448329 0.455622 0.464541 0.473074 0.489638 0.494131 0.498355 0.502479 0.50648 0.510498 0.514341 0.517968 0.521137 0.523471 0.524718 0.524872 0.524134 0.522819 0.521192 0.519449 0.517602 0.512501 0.510009 0.507256 0.504509 0.501877 0.499366 0.496937 0.494527 0.492058 0.489557 0.481897 0.47945 0.477695 0.478947 0.483293 0.494218 0.518804 0.570098 0.728425 1.14488 1.26136 0.43987 0.231227 0.137626 0.286209 0.294234 0.269478 0.300893 0.411678 0.517114 0.127869 0.38971 0.453584 0.356073 0.128826 0.132017 0.118007 0.142782 0.249692 0.126036 0.427471 0.472526 0.243758 0.269978 0.257785 0.274579 0.296936 0.312741 0.327972 0.357401 0.370842 0.385917 0.397567 0.406169 0.413404 0.420274 0.427713 0.434973 0.440863 0.446069 0.451584 0.457953 0.465156 0.472592 0.478943 0.484437 0.502736 0.506888 0.510914 0.514741 0.518194 0.521061 0.523101 0.524197 0.52439 0.523773 0.51552 0.513078 0.510252 0.507217 0.504168 0.501204 0.4983 0.495401 0.492597 0.486857 0.483986 0.481287 0.479135 0.479009 0.481562 0.489882 0.501366 0.521596 0.559104 0.628116 0.8414 1.47843 1.26032 0.446833 0.320885 0.34299 0.303682 0.287746 0.329351 0.355588 0.396419 0.505802 0.181586 0.18908 0.211947 0.328186 0.285953 0.13292 0.116987 0.12445 0.142621 0.175916 0.164999 0.280202 0.273879 0.279017 0.275442 0.277583 0.288886 0.306437 0.320152 0.341774 0.352593 0.364063 0.377178 0.392128 0.403384 0.411429 0.418209 0.42491 0.431784 0.438276 0.443406 0.448106 0.453087 0.45886 0.465408 0.47231 0.478275 0.483607 0.488871 0.493767 0.49834 0.522526 0.520836 0.518807 0.51645 0.513731 0.510653 0.50734 0.503977 0.500702 0.497453 0.489821 0.487178 0.484501 0.481384 0.478444 0.4761 0.474663 0.476121 0.481389 0.489566 0.498929 0.517262 0.546471 0.605039 0.772667 1.48039 0.683358 0.243909 0.339587 0.286932 0.315811 0.366002 0.384627 0.385849 0.166981 0.0988685 0.21631 0.277288 0.229038 0.233006 0.124578 0.125644 0.130149 0.125815 0.124749 0.172896 0.0877834 0.269637 0.381278 0.348383 0.281669 0.297484 0.298293 0.303598 0.33859 0.351667 0.360493 0.371367 0.385546 0.399405 0.408778 0.415732 0.42218 0.428543 0.434083 0.439422 0.444676 0.449248 0.453972 0.459883 0.465985 0.472014 0.47781 0.483399 0.48881 0.493908 0.498692 0.503211 0.507445 0.511452 0.515204 0.51848 0.521089 0.522888 0.523783 0.523791 0.523006 0.521565 0.519586 0.51714 0.514286 0.511069 0.507581 0.503974 0.500419 0.494136 0.490857 0.487639 0.484645 0.48187 0.478582 0.474833 0.471756 0.468835 0.467831 0.469455 0.472704 0.474507 0.475924 0.472011 0.442279 0.412746 0.609099 1.35112 0.587678 0.395513 0.332975 0.341977 0.352198 0.34007 0.338921 0.297962 0.278213 0.0724946 0.125148 0.21507 0.201361 0.213246 0.182226 0.11933 0.126545 0.126523 0.125504 0.130595 0.118828 0.19731 0.214548 0.278742 0.43667 0.313197 0.308026 0.310755 0.310161 0.317319 0.335564 0.348515 0.358971 0.368257 0.379267 0.3932 0.40479 0.41284 0.419791 0.425305 0.430543 0.435668 0.44056 0.445514 0.450381 0.455282 0.460744 0.466265 0.471996 0.477995 0.483752 0.489201 0.494437 0.499338 0.503862 0.508121 0.512117 0.515744 0.518804 0.521119 0.522582 0.523141 0.522827 0.521727 0.519939 0.517571 0.514706 0.511443 0.507879 0.496876 0.493227 0.489535 0.485925 0.482468 0.479261 0.475773 0.47165 0.467659 0.464191 0.460242 0.459321 0.458039 0.45579 0.452074 0.443363 0.409625 0.345729 0.435668 0.743747 0.648067 0.321811 0.276667 0.376517 0.311548 0.328802 0.304318 0.310791 0.22003 0.14788 0.0544282 0.13428 0.146822 0.187677 0.188222 0.155113 0.120041 0.119147 0.119881 0.128152 0.127674 0.0998167 0.121746 0.23964 0.516501 0.387382 0.359967 0.324028 0.305501 0.320634 0.311881 0.331191 0.348266 0.35837 0.367756 0.377005 0.388053 0.399906 0.409229 0.416354 0.456157 0.461249 0.466799 0.472665 0.478619 0.484372 0.48992 0.495201 0.500104 0.504654 0.508924 0.512843 0.516248 0.518978 0.520904 0.521957 0.52211 0.521395 0.519904 0.517738 0.504131 0.500376 0.496632 0.492734 0.488665 0.484669 0.480842 0.477181 0.473447 0.469426 0.465022 0.460827 0.455863 0.452026 0.449271 0.44291 0.437771 0.433232 0.420663 0.393156 0.434751 0.57356 0.71269 0.55388 0.236815 0.327239 0.341693 0.238623 0.235574 0.134946 0.0803533 0.0661931 0.14366 0.171087 0.16522 0.13195 0.139785 0.127883 0.122577 0.121623 0.122822 0.131507 0.135704 0.128193 0.318416 0.443341 0.983154 0.388406 0.346462 0.320754 0.316408 0.322199 0.345957 0.357789 0.366731 0.376676 0.386305 0.422507 0.427672 0.432607 0.437108 0.441731 0.446591 0.451381 0.496088 0.50097 0.505531 0.509722 0.513424 0.516497 0.518829 0.520324 0.514986 0.511769 0.508205 0.5044 0.500512 0.496625 0.492607 0.488322 0.483966 0.479817 0.47589 0.471939 0.467889 0.62825 0.595004 0.406901 0.299813 0.30218 0.27258 0.282946 0.242811 0.192708 0.183409 0.0876525 0.0563849 0.0563156 0.0922271 0.154359 0.15904 0.137427 0.147113 0.114537 0.149954 0.134161 0.125343 0.12494 0.132477 0.134804 0.172906 0.231703 0.292252 0.554319 0.354402 0.35943 0.31248 0.322687 0.323336 0.336153 0.357087 0.366951 0.396349 0.406255 0.413204 0.419203 0.424993 0.429824 0.434349 0.438652 0.442818 0.447168 0.45186 0.456857 0.462094 0.467727 0.473527 0.479392 0.485214 0.490832 0.520922 0.520621 0.519484 0.517606 0.515078 0.512008 0.508518 0.504735 0.500789 0.496787 0.492719 0.488415 0.48386 0.479368 0.463503 0.458439 0.453428 0.448083 0.444845 0.437895 0.429314 0.427514 0.425428 0.440186 0.450884 0.541725 0.385093 0.308137 0.309611 0.314287 0.263449 0.161934 0.1586 0.120312 0.127364 0.112746 0.0842832 0.0503343 0.068661 0.0928528 0.157253 0.143078 0.123083 0.0978497 0.104258 0.102363 0.153739 0.147596 0.149117 0.136495 0.130809 0.133885 0.134891 0.141512 0.230226 0.152003 0.158053 0.379487 0.471692 0.409115 0.402677 0.335508 0.328261 0.322338 0.328583 0.352673 0.376165 0.386202 0.395279 0.403951 0.410937 0.416654 0.422168 0.427304 0.431762 0.435621 0.439395 0.443412 0.447799 0.452616 0.457767 0.463069 0.468663 0.474462 0.480402 0.486275 0.491837 0.497034 0.501883 0.506352 0.510335 0.513727 0.51642 0.518315 0.519336 0.519455 0.518706 0.517165 0.514926 0.512089 0.508764 0.505084 0.501163 0.497097 0.49297 0.475126 0.470981 0.466824 0.462553 0.457642 0.453081 0.44909 0.445145 0.440512 0.431011 0.42436 0.419526 0.414172 0.418342 0.467581 0.530595 0.559371 0.369333 0.289568 0.28176 0.0432657 0.0716061 0.112795 0.102204 0.0711173 0.036986 0.0733354 0.125368 0.135895 0.13861 0.1276 0.108596 0.0934024 0.154287 0.158186 0.156214 0.154032 0.144671 0.133062 0.142984 0.126043 0.123519 0.187023 0.172463 0.1 0.462715 0.377496 0.358672 0.333714 0.334326 0.369684 0.377742 0.386158 0.395029 0.402835 0.410054 0.415149 0.419903 0.424664 0.428937 0.432771 0.436445 0.440253 0.444259 0.448626 0.453458 0.458672 0.464088 0.469758 0.475655 0.481624 0.487422 0.492888 0.498009 0.502748 0.507017 0.510715 0.513747 0.516013 0.517432 0.517961 0.51761 0.516435 0.514527 0.511978 0.508887 0.505375 0.488704 0.484152 0.479459 0.474944 0.470677 0.466495 0.462529 0.458477 0.453871 0.450709 0.44726 0.444074 0.438369 0.430054 0.424712 0.422419 0.441342 0.44077 0.500861 0.488512 0.38235 0.374125 0.3379 0.0925213 0.028561 0.0666676 0.10936 0.103942 0.0491475 0.0266307 0.0957231 0.126956 0.138693 0.116628 0.108328 0.103248 0.151276 0.156504 0.154066 0.154677 0.139096 0.144353 0.110033 0.139851 0.182805 0.112244 0.620702 0.441535 0.425152 0.398336 0.399361 0.346902 0.33723 0.346053 0.368362 0.382066 0.388508 0.395476 0.402184 0.408612 0.4141 0.418514 0.422822 0.426676 0.430213 0.433733 0.437329 0.441066 0.445063 0.449528 0.454461 0.459749 0.465296 0.471093 0.477044 0.482937 0.4886 0.493964 0.498969 0.503521 0.50752 0.510874 0.513492 0.515286 0.516205 0.516248 0.515455 0.513904 0.501555 0.497517 0.493364 0.489125 0.484684 0.479995 0.475296 0.470909 0.466761 0.46273 0.458804 0.454719 0.45219 0.451343 0.450032 0.448108 0.44127 0.435123 0.432509 0.435706 0.438657 0.482183 0.455027 0.41941 0.379283 0.27783 0.304482 0.0727976 0.0476335 0.0843738 0.108455 0.0930351 0.0136931 0.0427485 0.111741 0.132344 0.114897 0.0987252 0.0973602 0.0935027 0.0977815 0.113647 0.156658 0.157126 0.158067 0.152966 0.144715 0.158316 0.129609 0.127338 0.15148 0.177257 0.377987 0.527774 0.513009 0.392247 0.383254 0.370541 0.346957 0.374857 0.390144 0.393452 0.396473 0.401657 0.407829 0.413704 0.418048 0.511677 0.508867 0.505577 0.501914 0.497979 0.493874 0.489661 0.4853 0.480726 0.476048 0.471553 0.467315 0.463331 0.459885 0.456805 0.453845 0.453263 0.452974 0.452527 0.450376 0.447302 0.437124 0.438825 0.450306 0.478439 0.486554 0.485855 0.44435 0.345557 0.329921 0.239447 0.16577 0.0900914 0.0861722 0.109319 0.0729695 0.0223489 0.0855592 0.14304 0.125532 0.124469 0.104161 0.102331 0.0962605 0.104605 0.108543 0.161356 0.16272 0.151183 0.148935 0.164459 0.151837 0.279967 0.312426 0.892048 0.44659 0.433196 0.386308 0.351867 0.326483 0.386828 0.400491 0.402765 0.400662 0.403426 0.421489 0.424963 0.428199 0.431362 0.43465 0.438126 0.44187 0.446002 0.450628 0.455678 0.46107 0.466745 0.472604 0.478492 0.484256 0.48981 0.495067 0.499896 0.504188 0.507857 0.510812 0.512961 0.514251 0.514673 0.514264 0.513086 0.511207 0.50871 0.505682 0.50222 0.498435 0.494423 0.490265 0.486002 0.4816 0.477034 0.472474 0.453424 0.452517 0.480148 0.480911 0.479045 0.418108 0.257418 0.763552 0.318322 0.204886 0.10597 0.111186 0.0949214 0.0257465 0.11535 0.109105 0.127244 0.118916 0.112755 0.146304 0.142363 0.152065 0.160048 0.191218 0.219185 0.248449 0.327488 0.408847 0.445502 0.367478 0.351162 0.343523 0.396508 0.408065 0.413318 0.407781 0.41263 0.417073 0.420789 0.423938 0.426821 0.429512 0.432356 0.435518 0.438979 0.442841 0.44718 0.451962 0.457113 0.462594 0.468312 0.474128 0.47993 0.485619 0.49108 0.49617 0.500757 0.504741 0.508021 0.510508 0.512148 0.512934 0.512899 0.512096 0.510582 0.508424 0.505693 0.502473 0.498873 0.494994 0.490923 0.468246 0.464435 0.460869 0.457587 0.454785 0.454418 0.455809 0.457547 0.459552 0.461439 0.465289 0.46209 0.435368 0.481416 0.482838 0.485064 0.436031 0.413455 0.34886 0.645347 0.360176 0.23134 0.150146 0.140604 0.10545 0.0457541 0.0448176 0.120627 0.130649 0.121589 0.149194 0.172924 0.17582 0.211517 0.205348 0.148478 0.519238 0.375558 0.344929 0.340078 0.440378 0.412867 0.406556 0.406003 0.408155 0.412255 0.416805 0.420484 0.42314 0.425611 0.428085 0.430612 0.433399 0.436533 0.440038 0.444044 0.448534 0.453427 0.45867 0.464181 0.469871 0.475651 0.481421 0.487053 0.492381 0.497249 0.501541 0.505144 0.507959 0.509935 0.51107 0.511393 0.510956 0.50981 0.508005 0.505598 0.502662 0.486729 0.482439 0.47806 0.473659 0.469409 0.465499 0.462132 0.459348 0.45686 0.455047 0.454941 0.45624 0.461412 0.46552 0.473529 0.481167 0.480252 0.446239 0.473807 0.485288 0.467847 0.463645 0.418764 0.496375 0.676207 0.558314 0.36967 0.208266 0.135954 0.050564 0.043572 0.118018 0.196062 0.180883 0.177682 0.081002 0.37971 0.472066 0.412954 0.338722 0.348978 0.413509 0.409794 0.4096 0.410397 0.412826 0.416249 0.419633 0.42247 0.424911 0.427126 0.429289 0.431733 0.434493 0.437618 0.441227 0.445384 0.44999 0.454956 0.46023 0.465752 0.471455 0.477252 0.483007 0.488545 0.493683 0.498271 0.502185 0.505322 0.507629 0.509103 0.509773 0.499287 0.495572 0.491603 0.487476 0.483291 0.47908 0.47483 0.470639 0.466726 0.46335 0.460538 0.458064 0.456551 0.457387 0.457896 0.459639 0.462848 0.469738 0.479996 0.489077 0.508187 0.482178 0.484078 0.466286 0.439331 0.4307 0.430866 0.431006 0.648631 0.537399 0.373154 0.2474 0.0904155 0.0217401 0.0968251 0.132269 0.191506 0.126896 0.188188 0.411339 0.482946 0.440626 0.382215 0.365363 0.456588 0.429935 0.411433 0.409968 0.413029 0.414013 0.413649 0.415844 0.419314 0.422345 0.509688 0.508899 0.507448 0.505379 0.502755 0.499645 0.496135 0.492319 0.488279 0.484115 0.479953 0.475881 0.471944 0.46815 0.464581 0.461744 0.459731 0.457746 0.456807 0.457763 0.460105 0.463716 0.4675 0.474371 0.482478 0.507782 0.528979 0.497081 0.493824 0.442672 0.419542 0.396815 0.352747 0.439578 0.600741 0.542173 0.387483 0.0221261 0.026412 0.128136 0.142733 0.161581 0.136205 0.297927 0.434056 0.407755 0.474271 0.442626 0.419626 0.416112 0.413826 0.416484 0.415565 0.424568 0.42637 0.428192 0.430336 0.432785 0.435549 0.438782 0.442534 0.446782 0.451462 0.45649 0.461806 0.46738 0.473142 0.478966 0.484673 0.490058 0.494936 0.499156 0.502602 0.505225 0.50703 0.508041 0.5083 0.507857 0.506751 0.50502 0.502717 0.499904 0.49664 0.493011 0.489113 0.485031 0.480885 0.476821 0.558318 0.504003 0.471139 0.396273 0.393307 0.349899 0.448124 0.570563 0.550711 0.506677 0.00348452 0.0265321 0.151178 0.171058 0.356116 0.292167 0.395181 0.383541 0.488174 0.464081 0.432206 0.419612 0.416701 0.419571 0.422278 0.424341 0.425902 0.427346 0.429143 0.43129 0.433737 0.436609 0.439996 0.443896 0.448256 0.453002 0.458084 0.463467 0.469117 0.474939 0.480768 0.486379 0.49154 0.496061 0.499807 0.502731 0.504842 0.506179 0.506778 0.506675 0.505909 0.504512 0.502528 0.500017 0.497034 0.493641 0.472929 0.469294 0.465936 0.462941 0.460786 0.459605 0.458724 0.458383 0.458883 0.461389 0.464885 0.472253 0.474844 0.488424 0.521494 0.486909 0.448414 0.417083 0.378406 0.306651 0.459634 0.535713 0.559056 0.535268 0.030891 0.211549 0.331223 0.136138 0.32622 0.38695 0.498864 0.474485 0.451986 0.423059 0.418214 0.417466 0.418015 0.420061 0.422408 0.424301 0.425645 0.426811 0.42824 0.430015 0.432092 0.434655 0.437755 0.441333 0.445376 0.449832 0.454648 0.459797 0.465235 0.470952 0.47683 0.482637 0.48808 0.492898 0.496931 0.500149 0.502547 0.504175 0.505089 0.505324 0.504904 0.489932 0.48599 0.481892 0.477789 0.473874 0.470266 0.466995 0.464037 0.46159 0.460248 0.460058 0.460267 0.46059 0.462329 0.463711 0.467998 0.472923 0.480938 0.485781 0.55848 0.58045 0.533646 0.463668 0.419173 0.388735 0.317579 0.312952 0.344671 0.446756 0.519404 0.60456 0.576619 0.325014 0.182184 0.292239 0.465103 0.475041 0.493591 0.429448 0.42466 0.429268 0.418386 0.4193 0.42127 0.422972 0.424547 0.425578 0.42645 0.42758 0.429029 0.430753 0.43297 0.43576 0.439035 0.442793 0.446993 0.503842 0.502172 0.499959 0.497274 0.494161 0.490678 0.486931 0.482993 0.478892 0.474794 0.471043 0.46786 0.465145 0.46269 0.460665 0.459998 0.460863 0.461803 0.463196 0.465523 0.468035 0.471305 0.480553 0.48117 0.527874 0.601664 0.434645 0.398603 0.368299 0.3242 0.323567 0.356262 0.468704 0.516561 0.593854 0.179216 0.421707 0.432363 0.471359 0.459952 0.448112 0.431266 0.429156 0.428461 0.420577 0.422685 0.423904 0.451558 0.456456 0.461642 0.467064 0.472856 0.478812 0.484553 0.489687 0.493955 0.497458 0.500136 0.502028 0.503215 0.503761 0.503684 0.502971 0.501635 0.499728 0.49733 0.494514 0.491317 0.487791 0.484018 0.480053 0.475982 0.472058 0.468606 0.465744 0.483559 0.529024 0.57602 0.54526 0.5145 0.416662 0.384074 0.35078 0.337847 0.340427 0.300706 0.475512 0.545188 0.410014 0.39437 0.469395 0.454443 0.445538 0.432758 0.429227 0.425091 0.425629 0.426204 0.427051 0.428279 0.429781 0.431665 0.43406 0.437039 0.440513 0.444457 0.448777 0.453446 0.458395 0.463566 0.468868 0.474832 0.480942 0.486495 0.490878 0.494614 0.497583 0.499726 0.501143 0.501961 0.50221 0.501839 0.500858 0.499292 0.497201 0.494676 0.491782 0.488517 0.463453 0.461624 0.460341 0.460396 0.461901 0.4636 0.465761 0.468348 0.471659 0.479754 0.47509 0.537554 0.493382 0.371871 0.345718 0.361129 0.327891 0.299966 0.431021 0.439118 0.464641 0.453194 0.429883 0.423739 0.424604 0.425714 0.425812 0.426122 0.426773 0.427748 0.428998 0.430701 0.4328 0.435405 0.438597 0.442233 0.446259 0.450733 0.455479 0.460438 0.465536 0.470487 0.477053 0.483504 0.487701 0.491586 0.494813 0.497282 0.498865 0.499881 0.500445 0.500415 0.499786 0.484929 0.481166 0.477321 0.473406 0.46965 0.466455 0.463945 0.462025 0.46071 0.460331 0.461406 0.463464 0.465807 0.468002 0.471498 0.478847 0.482988 0.528418 0.585357 0.481501 0.456472 0.523125 0.482094 0.402527 0.362865 0.342146 0.348992 0.444999 0.430165 0.429745 0.433257 0.424817 0.4259 0.426045 0.426209 0.426683 0.427395 0.428442 0.430039 0.431891 0.434145 0.436991 0.440477 0.444101 0.448325 0.452852 0.457632 0.462576 0.467577 0.49858 0.496834 0.494621 0.492014 0.489042 0.485743 0.482245 0.478646 0.474904 0.471079 0.467524 0.464566 0.462334 0.460953 0.460474 0.460979 0.462741 0.465225 0.467587 0.470755 0.478201 0.482281 0.522815 0.591965 0.431853 0.517226 0.475014 0.395318 0.354492 0.434673 0.471552 0.481161 0.484381 0.488361 0.491768 0.494514 0.496517 0.497526 0.498344 0.49864 0.498366 0.497525 0.49615 0.494279 0.491975 0.489342 0.486447 0.483275 0.479859 0.476336 0.472759 0.469096 0.465627 0.462938 0.461356 0.48121 0.519917 0.594098 0.483776 0.46488 0.429568 0.431288 0.433273 0.43576 0.439168 0.440476 0.445497 0.45135 0.458 0.465284 0.47306 0.476997 0.4742 0.476461 0.479204 0.482538 0.48631 0.460803 0.461076 0.462084 0.463959 0.466532 0.470023 0.476304 
SCALARS Axial_Stress float 1
LOOKUP_TABLE default
-37434000000.0 -61682000000.0 -66148000000.0 -54156800000.0 -37606800000.0 -62270000000.0 -50159200000.0 -51877300000.0 -57332300000.0 -87584300000.0 -95383600000.0 -79263200000.0 -58317800000.0 -67447900000.0 -26775400000.0 -55442300000.0 -89820200000.0 -118471000000.0 -78319100000.0 -84678600000.0 -84382400000.0 -65701700000.0 -196374000000.0 -100509000000.0 -288651000000.0 -200478000000.0 -270123000000.0 -192381000000.0 -238181000000.0 -127651000000.0 -176801000000.0 -111255000000.0 -63989700000.0 -115506000000.0 -80024900000.0 -143231000000.0 -86864800000.0 -161583000000.0 -145080000000.0 -97235400000.0 -143274000000.0 -238462000000.0 -113658000000.0 -190575000000.0 -76737600000.0 -171832000000.0 -214066000000.0 -352554000000.0 -363345000000.0 -334915000000.0 -290659000000.0 -297317000000.0 -205947000000.0 -191335000000.0 -191541000000.0 -207260000000.0 -37468000000.0 -203470000000.0 -293946000000.0 -219306000000.0 -193345000000.0 -255840000000.0 -514594000000.0 -454237000000.0 -427498000000.0 -391918000000.0 -363732000000.0 -317956000000.0 -264730000000.0 -241536000000.0 -228786000000.0 -52170000000.0 -134117000000.0 -308619000000.0 -384059000000.0 -297813000000.0 -425647000000.0 -718573000000.0 -605304000000.0 -686935000000.0 -562655000000.0 -628294000000.0 -523956000000.0 -583942000000.0 -488337000000.0 -547356000000.0 -454461000000.0 -516542000000.0 -427964000000.0 -483304000000.0 -370684000000.0 -404987000000.0 -304189000000.0 -328629000000.0 -280873000000.0 -326181000000.0 -278647000000.0 -221411000000.0 -336779000000.0 -412758000000.0 -440940000000.0 -251185000000.0 -1.06723e+12 -808276000000.0 -739925000000.0 -684915000000.0 -640715000000.0 -606450000000.0 -581474000000.0 -549318000000.0 -376071000000.0 -382385000000.0 -284199000000.0 -57114000000.0 -191483000000.0 -319797000000.0 -468648000000.0 -346140000000.0 -1.00294e+12 -979307000000.0 -864556000000.0 -791813000000.0 -737218000000.0 -696491000000.0 -668491000000.0 -648281000000.0 -626266000000.0 -385091000000.0 -325816000000.0 -112144000000.0 -225703000000.0 -443930000000.0 -649328000000.0 -1.11448e+12 -1.12453e+12 -1.00473e+12 -1.03585e+12 -907282000000.0 -946993000000.0 -838934000000.0 -884199000000.0 -788449000000.0 -840594000000.0 -754009000000.0 -815798000000.0 -735143000000.0 -809645000000.0 -727423000000.0 -840565000000.0 -792789000000.0 -954861000000.0 -398582000000.0 -471155000000.0 -427946000000.0 -280820000000.0 -380319000000.0 -605824000000.0 -687950000000.0 -1.05422e+12 -1.12233e+12 -1.2625e+12 -1.19027e+12 -1.26617e+12 -1.1395e+12 -1.16833e+12 -1.06352e+12 -985119000000.0 -930115000000.0 -895883000000.0 -884420000000.0 -902735000000.0 -978981000000.0 -1.07845e+12 -419400000000.0 -119305000000.0 -592367000000.0 -1.10809e+12 -1.25958e+12 -1.37479e+12 -1.30336e+12 -1.18785e+12 -1.09193e+12 -1.02418e+12 -978205000000.0 -956573000000.0 -964314000000.0 -1.01372e+12 -1.11709e+12 -1.27125e+12 -212958000000.0 -450201000000.0 -1.38298e+12 -1.2767e+12 -1.43258e+12 -1.44231e+12 -1.32001e+12 -1.20271e+12 -1.22819e+12 -1.12376e+12 -1.15693e+12 -1.06474e+12 -1.10774e+12 -1.03017e+12 -1.08822e+12 -1.02557e+12 -1.1052e+12 -1.05791e+12 -1.16476e+12 -1.13783e+12 -1.27031e+12 -1.26323e+12 -1.41777e+12 -1.37814e+12 -1.2241e+12 -1.70666e+12 -1.62605e+12 -1.5994e+12 -1.38931e+12 -1.43813e+12 -1.43939e+12 -1.66508e+12 -1.6297e+12 -1.65569e+12 -1.46686e+12 -1.42694e+12 -1.31622e+12 -1.33245e+12 -1.25536e+12 -1.19123e+12 -1.15479e+12 -1.15489e+12 -1.19711e+12 -1.28331e+12 -1.40787e+12 -1.67213e+12 -2.01077e+12 -1.55943e+12 -1.50125e+12 -2.12696e+12 -1.52142e+12 -1.43889e+12 -1.35847e+12 -1.28196e+12 -1.22754e+12 -1.20814e+12 -1.23249e+12 -1.30173e+12 -1.40937e+12 -1.5801e+12 -1.14887e+12 -1.4765e+12 -1.7938e+12 -1.53843e+12 -1.59244e+12 -1.48974e+12 -1.54437e+12 -1.45324e+12 -1.4858e+12 -1.38048e+12 -1.39824e+12 -1.30829e+12 -1.33561e+12 -1.26756e+12 -1.314e+12 -1.27086e+12 -1.34596e+12 -1.32308e+12 -1.42702e+12 -1.4168e+12 -1.5389e+12 -1.54623e+12 -1.65677e+12 -1.68e+12 -1.1787e+12 -1.4307e+12 -1.92039e+12 -1.8124e+12 -1.68422e+12 -1.59263e+12 -1.49642e+12 -960826000000.0 -791092000000.0 -1.59019e+12 -1.5976e+12 -1.55363e+12 -1.56125e+12 -1.4987e+12 -1.41396e+12 -1.36593e+12 -1.37139e+12 -1.43609e+12 -1.54074e+12 -1.65108e+12 -1.73521e+12 -1.89233e+12 -1.72886e+12 -1.35761e+12 -967791000000.0 -1.60527e+12 -1.61676e+12 -1.50314e+12 -1.4297e+12 -1.40234e+12 -1.44368e+12 -1.54205e+12 -1.6539e+12 -1.74578e+12 -1.23516e+12 -1.44361e+12 -1.84136e+12 -1.60741e+12 -1.19418e+12 -1.1252e+12 -1.18279e+12 -1.03978e+12 -1.07553e+12 -1.596e+12 -1.75945e+12 -1.60501e+12 -1.59442e+12 -1.50645e+12 -1.50755e+12 -1.44645e+12 -1.46713e+12 -1.45254e+12 -1.52129e+12 -1.53494e+12 -1.64805e+12 -1.65616e+12 -1.77028e+12 -1.75898e+12 -1.85325e+12 -1.8221e+12 -1.30274e+12 -1.48976e+12 -1.92529e+12 -1.91373e+12 -1.78026e+12 -1.72111e+12 -1.50908e+12 -1.37439e+12 -1.22772e+12 -1.21341e+12 -1.02488e+12 -1.69096e+12 -1.58518e+12 -1.50461e+12 -1.50688e+12 -1.61584e+12 -1.77155e+12 -1.88031e+12 -1.93503e+12 -2.02579e+12 -1.89459e+12 -1.64791e+12 -1.25989e+12 -1.19976e+12 -1.60369e+12 -1.66991e+12 -1.56899e+12 -1.49693e+12 -1.56839e+12 -1.74832e+12 -1.8991e+12 -1.98308e+12 -1.37455e+12 -1.55616e+12 -2.17705e+12 -2.06345e+12 -2.1104e+12 -1.85304e+12 -1.71257e+12 -1.52409e+12 -1.2136e+12 -1.20867e+12 -1.23434e+12 -1.68614e+12 -1.51928e+12 -1.77087e+12 -1.69992e+12 -1.74177e+12 -1.65586e+12 -1.61672e+12 -1.53592e+12 -1.47374e+12 -1.51856e+12 -1.55063e+12 -1.66593e+12 -1.83682e+12 -1.89693e+12 -2.07798e+12 -2.02928e+12 -2.12922e+12 -2.06766e+12 -1.44597e+12 -1.63217e+12 -2.2478e+12 -2.18897e+12 -1.5422e+12 -1.02516e+12 -1.83504e+12 -1.83636e+12 -1.84162e+12 -1.74073e+12 -1.53067e+12 -1.4757e+12 -1.56211e+12 -2.13753e+12 -2.19372e+12 -2.21035e+12 -2.34878e+12 -2.33467e+12 -2.44677e+12 -1.90592e+12 -1.94802e+12 -2.11091e+12 -1.97685e+12 -2.05515e+12 -1.94811e+12 -1.87212e+12 -1.68893e+12 -1.31624e+12 -1.39937e+12 -2.61668e+12 -2.22666e+12 -2.37304e+12 -2.27009e+12 -2.35599e+12 -2.27978e+12 -2.35279e+12 -1.51433e+12 -1.71061e+12 -2.51887e+12 -2.43392e+12 -2.54174e+12 -2.48316e+12 -2.71669e+12 -2.90474e+12 -2.91055e+12 -2.21768e+12 -2.18519e+12 -2.1348e+12 -2.00626e+12 -2.03326e+12 -1.86019e+12 -1.76938e+12 -1.58357e+12 -1.42815e+12 -1.38516e+12 -3.03836e+12 -2.5834e+12 -2.44947e+12 -2.42421e+12 -1.57955e+12 -1.78946e+12 -2.60695e+12 -2.68175e+12 -2.90886e+12 -2.57454e+12 -2.31585e+12 -2.25497e+12 -2.19221e+12 -2.01711e+12 -1.53001e+12 -3.36711e+12 -2.88353e+12 -2.58992e+12 -2.50541e+12 -2.48762e+12 -1.86906e+12 -2.67687e+12 -2.75725e+12 -2.70765e+12 -2.80692e+12 -2.81572e+12 -2.86e+12 -2.7892e+12 -2.69437e+12 -2.53366e+12 -2.54283e+12 -2.383e+12 -2.44523e+12 -2.32326e+12 -2.38518e+12 -2.23556e+12 -1.79532e+12 -3.27496e+12 -3.45826e+12 -3.33278e+12 -3.16416e+12 -2.9874e+12 -2.7786e+12 -2.74179e+12 -2.60988e+12 -2.63906e+12 -2.55708e+12 -2.61133e+12 -1.64377e+12 -2.81826e+12 -2.8377e+12 -2.8739e+12 -2.82819e+12 -2.68691e+12 -2.57807e+12 -2.50956e+12 -2.44888e+12 -2.25176e+12 -2.61314e+12 -2.9618e+12 -3.31243e+12 -3.15087e+12 -2.89082e+12 -2.73728e+12 -2.67661e+12 -1.7098e+12 -1.94881e+12 -2.88687e+12 -2.90518e+12 -2.90712e+12 -2.80798e+12 -2.7066e+12 -2.6287e+12 -2.58071e+12 -2.64139e+12 -2.94384e+12 -3.15273e+12 -3.17892e+12 -3.217e+12 -3.02946e+12 -2.84801e+12 -2.75205e+12 -2.7226e+12 -2.02798e+12 -2.94492e+12 -3.00464e+12 -2.95075e+12 -3.00658e+12 -2.95635e+12 -2.99128e+12 -2.91271e+12 -2.92473e+12 -2.82231e+12 -2.85356e+12 -2.74474e+12 -2.79795e+12 -2.6927e+12 -2.78331e+12 -2.70438e+12 -2.83991e+12 -2.82509e+12 -3.07828e+12 -3.14995e+12 -3.12099e+12 -3.04896e+12 -2.95815e+12 -2.923e+12 -2.83631e+12 -2.84524e+12 -2.78073e+12 -2.82053e+12 -1.77962e+12 -3.06258e+12 -3.06093e+12 -3.05336e+12 -3.01561e+12 -2.95324e+12 -2.89849e+12 -2.86909e+12 -2.88743e+12 -2.96122e+12 -2.99301e+12 -3.08593e+12 -3.12565e+12 -3.10624e+12 -3.00244e+12 -2.91256e+12 -2.86949e+12 -1.85372e+12 -2.10654e+12 -3.17639e+12 -3.11812e+12 -3.17121e+12 -3.11229e+12 -3.15848e+12 -3.09203e+12 -3.12679e+12 -3.04413e+12 -3.08189e+12 -2.99327e+12 -3.04375e+12 -2.95692e+12 -2.95216e+12 -2.98784e+12 -3.06423e+12 -3.12989e+12 -3.12864e+12 -3.11166e+12 -3.0665e+12 -3.03682e+12 -2.97776e+12 -2.97132e+12 -2.92083e+12 -2.9441e+12 -2.90537e+12 -1.93191e+12 -2.18482e+12 -3.23027e+12 -3.22113e+12 -3.20064e+12 -3.16457e+12 -3.1277e+12 -3.1027e+12 -3.02564e+12 -3.09837e+12 -3.03691e+12 -3.11481e+12 -3.07487e+12 -3.13053e+12 -3.14166e+12 -3.08848e+12 -3.01945e+12 -2.98155e+12 -2.97844e+12 -3.28895e+12 -3.28221e+12 -3.26801e+12 -3.24154e+12 -3.20806e+12 -3.18029e+12 -3.16642e+12 -3.16882e+12 -3.18174e+12 -3.14631e+12 -3.19506e+12 -3.16584e+12 -3.17632e+12 -3.13385e+12 -3.066e+12 -3.01615e+12 -3.00662e+12 -2.01403e+12 -2.26308e+12 -3.40138e+12 -3.3423e+12 -3.39397e+12 -3.33195e+12 -3.37978e+12 -3.31284e+12 -3.35739e+12 -3.28464e+12 -3.33121e+12 -3.25673e+12 -3.30929e+12 -3.23743e+12 -3.29626e+12 -3.23054e+12 -3.23276e+12 -3.23577e+12 -3.22112e+12 -3.16721e+12 -3.11448e+12 -3.08889e+12 -3.05023e+12 -3.04752e+12 -3.0296e+12 -3.05959e+12 -3.04212e+12 -2.10045e+12 -2.34158e+12 -3.45461e+12 -3.44394e+12 -3.42645e+12 -3.40336e+12 -3.38081e+12 -3.36394e+12 -3.35417e+12 -3.2916e+12 -3.34759e+12 -3.28798e+12 -3.33256e+12 -3.27282e+12 -3.22539e+12 -3.1411e+12 -3.0674e+12 -3.06591e+12 -3.10001e+12 -2.42059e+12 -3.51406e+12 -3.56729e+12 -3.50629e+12 -3.55652e+12 -3.49253e+12 -3.5403e+12 -3.47303e+12 -3.52036e+12 -3.45129e+12 -3.50078e+12 -3.43238e+12 -3.41879e+12 -3.40937e+12 -3.39747e+12 -3.36304e+12 -3.29049e+12 -3.28574e+12 -3.20766e+12 -3.16369e+12 -3.09957e+12 -3.06205e+12 -3.10625e+12 -3.15828e+12 -2.19227e+12 -3.62711e+12 -3.61902e+12 -3.60556e+12 -3.58784e+12 -3.56863e+12 -3.55105e+12 -3.48463e+12 -3.53637e+12 -3.47234e+12 -3.5237e+12 -3.46102e+12 -3.5089e+12 -3.4405e+12 -3.37482e+12 -3.25214e+12 -3.08414e+12 -3.06215e+12 -3.05059e+12 -3.09021e+12 -3.15259e+12 -2.29183e+12 -2.50045e+12 -3.74057e+12 -3.68034e+12 -3.66936e+12 -3.6538e+12 -3.63561e+12 -3.61754e+12 -3.60124e+12 -3.58673e+12 -3.57252e+12 -3.55333e+12 -3.47622e+12 -3.50595e+12 -3.35841e+12 -3.17308e+12 -3.01303e+12 -3.10276e+12 -3.2304e+12 -9035750000.0 -2.58148e+12 -3.79377e+12 -3.73204e+12 -3.78228e+12 -3.7185e+12 -3.76673e+12 -3.70161e+12 -3.74927e+12 -3.68368e+12 -3.73183e+12 -3.66653e+12 -3.71502e+12 -3.65055e+12 -3.69837e+12 -3.63514e+12 -3.61887e+12 -3.59578e+12 -3.53446e+12 -3.28888e+12 -3.08879e+12 -3.00244e+12 -2.85763e+12 -2.99382e+12 -3.12717e+12 -3.21717e+12 -3.34144e+12 -2.40335e+12 -3.85452e+12 -3.84533e+12 -3.83121e+12 -3.81432e+12 -3.79683e+12 -3.7797e+12 -3.76242e+12 -3.74421e+12 -3.68135e+12 -3.7254e+12 -3.66343e+12 -3.70808e+12 -3.63999e+12 -3.69316e+12 -3.57182e+12 -2.48487e+12 -2.91373e+12 -3.33606e+12 -2.53347e+12 -2.66399e+12 -3.96905e+12 -3.90765e+12 -3.95898e+12 -3.89527e+12 -3.94368e+12 -3.87903e+12 -3.92599e+12 -3.86149e+12 -3.90836e+12 -3.8442e+12 -3.89113e+12 -3.82685e+12 -3.80815e+12 -3.78772e+12 -3.76805e+12 -3.75688e+12 -3.77662e+12 -3.64472e+12 -4.27626e+12 -2.43428e+12 -2.63615e+12 -3.20067e+12 -3.52902e+12 -3.53269e+12 -2.71823e+12 -9035750000.0 -2.74825e+12 -4.02211e+12 -4.00841e+12 -3.99071e+12 -3.97235e+12 -3.95493e+12 -3.93727e+12 -3.87275e+12 -3.91683e+12 -3.85168e+12 -3.89259e+12 -3.82892e+12 -3.81163e+12 -3.82093e+12 -4.04416e+12 -4.44319e+12 -4.13792e+12 -3.20054e+12 -3.95461e+12 -2.83437e+12 -4.08426e+12 -4.13726e+12 -4.0731e+12 -4.12184e+12 -4.05598e+12 -4.10184e+12 -4.03664e+12 -4.01829e+12 -4.00106e+12 -3.98212e+12 -3.95845e+12 -3.9309e+12 -3.86883e+12 -3.91056e+12 -3.86227e+12 -3.93659e+12 -3.94942e+12 -4.08248e+12 -4.28512e+12 -4.2036e+12 -3.41214e+12 -4.15552e+12 -4.48027e+12 -2.93529e+12 -4.20024e+12 -4.18785e+12 -4.16827e+12 -4.14623e+12 -4.08176e+12 -4.12633e+12 -4.06392e+12 -4.10922e+12 -4.04648e+12 -4.0907e+12 -4.02504e+12 -4.06525e+12 -3.99704e+12 -3.9676e+12 -3.95973e+12 -4.01144e+12 -4.11549e+12 -3.84058e+12 -2.74694e+12 -4.81451e+12 -5.00144e+12 -3.0835e+12 -2.92225e+12 -4.31697e+12 -4.25322e+12 -4.30338e+12 -4.23573e+12 -4.28074e+12 -4.2125e+12 -4.18947e+12 -4.17057e+12 -4.15401e+12 -4.13304e+12 -4.10176e+12 -4.03224e+12 -4.06345e+12 -4.00415e+12 -4.03318e+12 -4.00417e+12 -4.01819e+12 -4.04495e+12 -4.00357e+12 -3.96805e+12 -3.68492e+12 -5.42466e+12 -4.84328e+12 -3.19765e+12 -9035750000.0 -3.01143e+12 -4.37001e+12 -4.35029e+12 -4.32288e+12 -4.25471e+12 -4.29519e+12 -4.23189e+12 -4.27377e+12 -4.21453e+12 -4.25807e+12 -4.19789e+12 -4.17257e+12 -4.13296e+12 -4.08566e+12 -4.0376e+12 -3.99349e+12 -3.88885e+12 -3.38842e+12 -4.84561e+12 -5.10016e+12 -4.88105e+12 -3.1009e+12 -4.43427e+12 -4.48744e+12 -4.41975e+12 -4.39368e+12 -4.36221e+12 -4.33431e+12 -4.31517e+12 -4.30077e+12 -4.24034e+12 -4.28062e+12 -4.2076e+12 -4.23459e+12 -4.15466e+12 -4.08722e+12 -3.99664e+12 -3.94093e+12 -3.95681e+12 -3.90317e+12 -4.01214e+12 -4.78288e+12 -4.72132e+12 -3.26524e+12 -4.55163e+12 -4.53683e+12 -4.46567e+12 -4.50745e+12 -4.43341e+12 -4.46921e+12 -4.39888e+12 -4.43324e+12 -4.37234e+12 -4.35576e+12 -4.34197e+12 -4.31754e+12 -4.24653e+12 -4.15835e+12 -4.13105e+12 -4.05259e+12 -3.94553e+12 -3.93533e+12 -3.93115e+12 -4.0849e+12 -4.4877e+12 -4.58994e+12 -3.26988e+12 -3.18894e+12 -4.66815e+12 -4.60502e+12 -4.58191e+12 -4.54476e+12 -4.50097e+12 -4.46548e+12 -4.40918e+12 -4.44411e+12 -4.39477e+12 -4.43082e+12 -4.38068e+12 -4.41583e+12 -4.34987e+12 -4.22996e+12 -4.05413e+12 -3.85344e+12 -4.02907e+12 -4.23673e+12 -4.451e+12 -4.54321e+12 -4.60122e+12 -3.27847e+12 -3.27295e+12 -4.72189e+12 -4.65419e+12 -4.69892e+12 -4.62253e+12 -4.65805e+12 -4.57669e+12 -4.60255e+12 -4.52895e+12 -4.49523e+12 -4.47552e+12 -4.46207e+12 -4.44716e+12 -4.37757e+12 -4.40438e+12 -4.15644e+12 -3.94845e+12 -3.82459e+12 -3.64815e+12 -3.904e+12 -4.10128e+12 -4.1999e+12 -4.36625e+12 -4.4648e+12 -4.57703e+12 -3.34936e+12 -4.78241e+12 -4.83675e+12 -4.77108e+12 -4.73943e+12 -4.68624e+12 -4.62263e+12 -4.55328e+12 -4.57312e+12 -4.52107e+12 -4.54023e+12 -4.50092e+12 -4.487e+12 -4.47664e+12 -4.44215e+12 -3.12616e+12 -3.90724e+12 -4.32811e+12 -4.52456e+12 -4.55732e+12 -4.60993e+12 -3.30777e+12 -4.89256e+12 -4.8863e+12 -4.81625e+12 -4.85881e+12 -4.77486e+12 -4.80025e+12 -4.70555e+12 -4.63692e+12 -4.58602e+12 -4.54917e+12 -4.51769e+12 -4.52505e+12 -4.50603e+12 -4.52362e+12 -4.51117e+12 -4.5519e+12 -4.45833e+12 -5.24225e+12 -3.08176e+12 -4.07086e+12 -4.26679e+12 -4.47934e+12 -4.49003e+12 -4.61939e+12 -3.3518e+12 -3.41394e+12 -4.99647e+12 -4.94799e+12 -4.93335e+12 -4.8978e+12 -4.8128e+12 -4.71645e+12 -4.71891e+12 -4.64392e+12 -4.58786e+12 -4.54558e+12 -4.52671e+12 -4.54555e+12 -4.89419e+12 -5.34031e+12 -4.57844e+12 -4.44988e+12 -4.63632e+12 -4.6252e+12 -4.71717e+12 -4.68415e+12 -3.41389e+12 -3.46366e+12 -5.05374e+12 -4.99823e+12 -5.04934e+12 -4.9818e+12 -5.03116e+12 -4.92213e+12 -4.81384e+12 -4.70998e+12 -4.63964e+12 -4.61833e+12 -4.5745e+12 -4.54621e+12 -4.53197e+12 -4.51826e+12 -4.53171e+12 -4.70039e+12 -4.92532e+12 -5.23713e+12 -4.99346e+12 -4.69146e+12 -4.66833e+12 -4.75493e+12 -4.78419e+12 -3.50013e+12 -5.09298e+12 -5.15247e+12 -5.10455e+12 -5.1104e+12 -5.05687e+12 -4.92817e+12 -4.91973e+12 -4.80293e+12 -4.68306e+12 -4.57715e+12 -4.51229e+12 -4.54026e+12 -4.60256e+12 -4.73849e+12 -4.97142e+12 -4.72329e+12 -4.83623e+12 -4.80931e+12 -4.91351e+12 -4.8096e+12 -4.89946e+12 -4.83438e+12 -4.89154e+12 -3.49718e+12 -5.17995e+12 -5.20095e+12 -5.16316e+12 -5.2483e+12 -5.18357e+12 -5.05896e+12 -4.89263e+12 -4.77367e+12 -4.71643e+12 -4.63166e+12 -4.52244e+12 -4.49791e+12 -4.61353e+12 -4.82978e+12 -4.82635e+12 -4.82941e+12 -4.79135e+12 -4.96236e+12 -4.98579e+12 -4.95501e+12 -4.98724e+12 -3.61354e+12 -3.48715e+12 -5.19969e+12 -5.23493e+12 -5.25475e+12 -5.26835e+12 -5.44192e+12 -5.39055e+12 -5.21896e+12 -5.21348e+12 -5.03936e+12 -4.83553e+12 -4.62608e+12 -4.55721e+12 -4.47757e+12 -4.47513e+12 -4.45722e+12 -4.52286e+12 -4.57383e+12 -4.69393e+12 -4.73617e+12 -4.79295e+12 -4.95389e+12 -5.11203e+12 -5.05771e+12 -5.11559e+12 -5.02609e+12 -5.02791e+12 -3.76042e+12 -3.20196e+12 -4.81266e+12 -5.17503e+12 -5.42621e+12 -5.69411e+12 -5.42438e+12 -5.17605e+12 -4.98917e+12 -4.73604e+12 -4.51504e+12 -4.41945e+12 -4.47187e+12 -4.6244e+12 -4.75256e+12 -4.81967e+12 -4.88558e+12 -5.11764e+12 -5.2231e+12 -5.30079e+12 -5.1554e+12 -5.12698e+12 -4.9408e+12 -3.64372e+12 -5.24935e+12 -2.8323e+12 -5.2645e+12 -5.35448e+12 -5.50138e+12 -5.66864e+12 -6.17509e+12 -5.69858e+12 -5.40176e+12 -5.08317e+12 -4.88894e+12 -4.7343e+12 -4.59931e+12 -4.45251e+12 -4.4117e+12 -4.39313e+12 -4.50546e+12 -4.53666e+12 -4.6503e+12 -4.71488e+12 -5.02325e+12 -5.32332e+12 -5.58653e+12 -5.46208e+12 -5.53708e+12 -5.36147e+12 -4.72894e+12 -4.32334e+12 -4.45561e+12 -5.53098e+12 -6.35106e+12 -6.48897e+12 -5.46196e+12 -5.24345e+12 -5.63878e+12 -6.077e+12 -5.61933e+12 -5.33833e+12 -5.3197e+12 -4.91422e+12 -4.55816e+12 -4.31698e+12 -4.3436e+12 -4.3114e+12 -4.39529e+12 -4.4113e+12 -4.54253e+12 -4.89347e+12 -5.34379e+12 -5.66746e+12 -5.65151e+12 -5.31926e+12 -6.4545e+12 -6.66373e+12 -5.15681e+12 -5.36297e+12 -5.59885e+12 -7.03831e+12 -6.31473e+12 -6.22776e+12 -5.6039e+12 -5.61171e+12 -4.85357e+12 -6.70748e+12 -5.56787e+12 -5.1652e+12 -5.12055e+12 -4.93717e+12 -4.72738e+12 -4.36165e+12 -4.24311e+12 -4.30272e+12 -4.40748e+12 -4.69817e+12 -4.99606e+12 -5.20128e+12 -5.58697e+12 -5.78119e+12 -5.45251e+12 -5.88418e+12 -6.09246e+12 -6.42144e+12 -6.73596e+12 -5.74806e+12 -7.29562e+12 -5.14823e+12 -5.00779e+12 -5.16786e+12 -7.48615e+12 -7.5377e+12 -6.91543e+12 -6.49963e+12 -6.82709e+12 -6.60191e+12 -6.02557e+12 -5.46866e+12 -3.9742e+12 -4.99402e+12 -5.73535e+12 -5.3518e+12 -4.98642e+12 -4.71376e+12 -4.50552e+12 -4.22247e+12 -4.15866e+12 -4.09346e+12 -4.22766e+12 -4.24788e+12 -4.28015e+12 -4.14179e+12 -4.33783e+12 -4.55682e+12 -5.47293e+12 -6.0359e+12 -5.75417e+12 -5.49529e+12 -5.34441e+12 -6.46749e+12 -6.63204e+12 -6.6525e+12 -6.81555e+12 -7.5283e+12 -5.14324e+12 -5.22059e+12 -5.12798e+12 -7.07702e+12 -7.30733e+12 -6.98295e+12 -7.05404e+12 -6.34083e+12 -5.88711e+12 -5.38285e+12 -5.23602e+12 -5.53864e+12 -5.29223e+12 -5.13963e+12 -4.79083e+12 -4.40163e+12 -3.85661e+12 -4.14084e+12 -4.25616e+12 -3.19232e+12 -5.03197e+12 -5.2825e+12 -5.78794e+12 -6.29542e+12 -4.39328e+12 -4.67626e+12 -5.98863e+12 -5.73481e+12 -6.91059e+12 -6.88008e+12 -7.06795e+12 -7.50306e+12 -7.98683e+12 -5.02018e+12 -5.24179e+12 -5.1997e+12 -7.50106e+12 -7.1785e+12 -7.41809e+12 -7.53216e+12 -6.92898e+12 -6.67901e+12 -7.16411e+12 -6.85204e+12 -6.01005e+12 -5.65217e+12 -5.45038e+12 -5.15642e+12 -5.0204e+12 -4.89655e+12 -4.58523e+12 -4.57361e+12 -3.80682e+12 -3.85911e+12 -4.25311e+12 -3.82443e+12 -5.11999e+12 -6.06226e+12 -5.13842e+12 -5.48792e+12 -4.2631e+12 -5.60532e+12 -6.80547e+12 -5.69473e+12 -5.29468e+12 -6.31142e+12 -7.14824e+12 -6.96651e+12 -7.45101e+12 -7.31069e+12 -7.85455e+12 -5.00605e+12 -4.90557e+12 -5.02349e+12 -7.49051e+12 -7.5593e+12 -7.41269e+12 -7.34312e+12 -6.62379e+12 -6.65924e+12 -6.30439e+12 -6.60356e+12 -6.34221e+12 -6.11915e+12 -5.81152e+12 -5.57209e+12 -5.35991e+12 -5.18646e+12 -4.93529e+12 -4.64607e+12 -4.44321e+12 -4.73365e+12 -5.30191e+12 -2.84703e+12 -3.71512e+12 -4.15208e+12 -4.18527e+12 -4.17851e+12 -4.754e+12 -5.43848e+12 -5.11908e+12 -4.99569e+12 -5.41459e+12 -6.17674e+12 -6.33359e+12 -6.11565e+12 -6.40484e+12 -6.79896e+12 -7.02059e+12 -7.5174e+12 -7.47149e+12 -7.56954e+12 -7.25156e+12 -7.46823e+12 -7.82834e+12 -7.72705e+12 -4.83152e+12 -4.78864e+12 -4.71278e+12 -7.48556e+12 -7.59041e+12 -7.52482e+12 -7.40914e+12 -7.08825e+12 -7.23608e+12 -7.11606e+12 -6.65913e+12 -6.34907e+12 -6.38429e+12 -5.89557e+12 -5.65028e+12 -5.4164e+12 -4.93996e+12 -4.58661e+12 -4.0032e+12 -4.74823e+12 -4.76137e+12 -4.11694e+12 -4.37991e+12 -5.26741e+12 -5.94284e+12 -3.52284e+12 -4.79549e+12 -5.26276e+12 -5.66329e+12 -5.9342e+12 -5.95197e+12 -6.21703e+12 -6.8045e+12 -6.93791e+12 -7.49611e+12 -7.62744e+12 -7.40878e+12 -7.66994e+12 -7.61351e+12 -7.93182e+12 -4.89201e+12 -4.5773e+12 -4.55756e+12 -7.45834e+12 -7.36353e+12 -7.14712e+12 -7.40888e+12 -7.01838e+12 -6.7043e+12 -6.65442e+12 -6.97416e+12 -6.5147e+12 -6.20558e+12 -6.13124e+12 -5.6922e+12 -5.4572e+12 -5.21336e+12 -4.62796e+12 -4.11505e+12 -3.15e+12 -5.33166e+12 -4.74686e+12 -4.42398e+12 -4.27226e+12 -4.48454e+12 -4.48235e+12 -3.97107e+12 -4.99118e+12 -4.6307e+12 -5.10242e+12 -5.39942e+12 -5.59928e+12 -6.11117e+12 -6.05398e+12 -6.30609e+12 -6.50062e+12 -6.74012e+12 -6.85224e+12 -7.32832e+12 -7.64915e+12 -7.6057e+12 -7.61515e+12 -7.69539e+12 -7.78253e+12 -5.05898e+12 -4.66504e+12 -4.39229e+12 -7.36961e+12 -7.34349e+12 -7.35378e+12 -7.25404e+12 -6.81877e+12 -7.2931e+12 -6.88344e+12 -7.01037e+12 -6.59232e+12 -6.23338e+12 -6.02725e+12 -5.90574e+12 -5.4736e+12 -5.23214e+12 -4.96226e+12 -4.23969e+12 -3.20989e+12 -4.6876e+12 -2.70966e+12 -4.52093e+12 -4.73976e+12 -4.42839e+12 -3.89788e+12 -4.93704e+12 -4.79789e+12 -5.21882e+12 -4.96039e+12 -5.19775e+12 -5.79407e+12 -5.9545e+12 -6.07818e+12 -6.51679e+12 -6.66071e+12 -6.82242e+12 -7.2505e+12 -7.25276e+12 -7.33431e+12 -7.39453e+12 -7.56063e+12 -7.59454e+12 -7.6932e+12 -7.60361e+12 -4.71449e+12 -4.11312e+12 -7.3395e+12 -7.43498e+12 -7.11712e+12 -7.16188e+12 -7.26996e+12 -7.20857e+12 -7.1126e+12 -7.04989e+12 -6.34404e+12 -6.50681e+12 -6.50561e+12 -6.46784e+12 -6.35509e+12 -6.16426e+12 -6.02891e+12 -5.847e+12 -5.69051e+12 -5.45906e+12 -5.23197e+12 -4.97351e+12 -4.66444e+12 -4.0038e+12 -4.28835e+12 -3.8975e+12 -5.23551e+12 -3.47577e+12 -4.43738e+12 -6.24595e+12 -5.10686e+12 -4.86488e+12 -5.06607e+12 -5.0409e+12 -5.36995e+12 -5.52051e+12 -5.67874e+12 -5.85863e+12 -6.28566e+12 -6.4295e+12 -6.58021e+12 -7.0347e+12 -7.20099e+12 -7.33135e+12 -7.24947e+12 -7.37733e+12 -7.5793e+12 -7.4061e+12 -7.5158e+12 -7.67877e+12 -7.01773e+12 -4.31167e+12 -4.29319e+12 -4.26164e+12 -7.04843e+12 -7.16227e+12 -7.21911e+12 -6.89361e+12 -7.02606e+12 -7.06835e+12 -7.02059e+12 -7.10205e+12 -7.19924e+12 -7.24867e+12 -6.04738e+12 -6.5494e+12 -6.39701e+12 -6.3239e+12 -5.97032e+12 -5.82199e+12 -5.64227e+12 -5.21764e+12 -4.98905e+12 -4.73313e+12 -4.43712e+12 -3.95831e+12 -2.59052e+12 -3.96129e+12 -3.85882e+12 -4.97366e+12 -3.31678e+12 -4.29285e+12 -4.69955e+12 -4.90907e+12 -5.18008e+12 -5.3067e+12 -5.43769e+12 -5.59709e+12 -6.0232e+12 -6.1796e+12 -6.3216e+12 -6.44471e+12 -6.69999e+12 -6.92113e+12 -7.08859e+12 -7.11606e+12 -7.3149e+12 -7.30387e+12 -7.36537e+12 -7.28993e+12 -7.26931e+12 -7.35643e+12 -6.85994e+12 -4.05313e+12 -4.44611e+12 -4.54491e+12 -7.28569e+12 -7.05296e+12 -6.85922e+12 -6.95991e+12 -6.57058e+12 -6.87783e+12 -6.73428e+12 -6.78395e+12 -6.52518e+12 -6.22996e+12 -5.97402e+12 -6.22527e+12 -6.20024e+12 -6.11221e+12 -5.76428e+12 -5.59806e+12 -5.41454e+12 -4.9875e+12 -4.7739e+12 -4.5443e+12 -4.28621e+12 -4.30466e+12 -4.08468e+12 -4.2338e+12 -3.68995e+12 -3.87477e+12 -4.14201e+12 -3.22734e+12 -4.33943e+12 -5.7718e+12 -5.25088e+12 -4.9923e+12 -5.1146e+12 -5.23538e+12 -5.37263e+12 -5.76808e+12 -5.91479e+12 -6.05517e+12 -6.17763e+12 -6.58812e+12 -6.78258e+12 -6.88513e+12 -7.0679e+12 -7.15269e+12 -7.18102e+12 -7.488e+12 -7.3089e+12 -7.34517e+12 -7.16114e+12 -7.11984e+12 -4.81468e+12 -4.5472e+12 -4.67397e+12 -7.44216e+12 -7.04101e+12 -7.16174e+12 -7.30426e+12 -6.79818e+12 -6.96118e+12 -7.09256e+12 -6.64993e+12 -6.2313e+12 -7.09669e+12 -6.8434e+12 -6.54797e+12 -6.97403e+12 -6.42864e+12 -6.34146e+12 -6.11454e+12 -5.93944e+12 -5.52126e+12 -5.35968e+12 -5.18066e+12 -4.79453e+12 -4.61212e+12 -4.42755e+12 -4.34889e+12 -4.24202e+12 -4.30534e+12 -4.24909e+12 -4.63849e+12 -5.55854e+12 -3.41018e+12 -4.19691e+12 -5.02853e+12 -5.40171e+12 -4.96296e+12 -4.86969e+12 -4.91211e+12 -4.97167e+12 -5.07037e+12 -5.18882e+12 -5.52258e+12 -5.66574e+12 -5.79619e+12 -5.91533e+12 -6.30876e+12 -6.45918e+12 -6.5983e+12 -6.77431e+12 -6.90486e+12 -7.00174e+12 -7.20731e+12 -7.30903e+12 -7.39494e+12 -7.65516e+12 -7.47781e+12 -7.44883e+12 -7.28727e+12 -7.57562e+12 -7.70577e+12 -4.63584e+12 -4.51715e+12 -4.42442e+12 -7.42108e+12 -7.25104e+12 -7.21961e+12 -7.20601e+12 -7.41768e+12 -6.86499e+12 -7.05725e+12 -7.17958e+12 -6.86072e+12 -7.23693e+12 -6.67675e+12 -6.78776e+12 -6.84216e+12 -5.96092e+12 -6.35328e+12 -6.06354e+12 -5.98441e+12 -5.82679e+12 -5.67656e+12 -5.28881e+12 -5.13503e+12 -4.96901e+12 -4.5017e+12 -4.39711e+12 -4.30998e+12 -4.30828e+12 -4.30963e+12 -4.46812e+12 -4.86799e+12 -4.33201e+12 -4.40312e+12 -5.07321e+12 -4.91261e+12 -4.86505e+12 -4.89028e+12 -4.95036e+12 -5.31808e+12 -5.44482e+12 -5.56416e+12 -5.67276e+12 -6.03531e+12 -6.16788e+12 -6.29089e+12 -6.44847e+12 -6.58851e+12 -6.70371e+12 -6.86459e+12 -6.97221e+12 -7.10825e+12 -7.27315e+12 -7.56338e+12 -7.08283e+12 -7.20702e+12 -7.26998e+12 -7.30434e+12 -4.6094e+12 -4.21151e+12 -4.33945e+12 -7.27e+12 -7.34505e+12 -7.17689e+12 -6.96462e+12 -6.50745e+12 -7.0217e+12 -7.35901e+12 -6.96421e+12 -7.29462e+12 -7.04555e+12 -6.86392e+12 -6.57312e+12 -6.2457e+12 -6.06665e+12 -6.12394e+12 -5.85589e+12 -5.73178e+12 -5.57568e+12 -5.43279e+12 -5.07643e+12 -4.93811e+12 -4.79378e+12 -4.64724e+12 -4.34471e+12 -4.30676e+12 -4.29872e+12 -4.36693e+12 -4.55396e+12 -4.74873e+12 -4.99476e+12 -5.05302e+12 -4.90602e+12 -4.83668e+12 -4.82561e+12 -4.86301e+12 -5.04456e+12 -5.15318e+12 -5.26192e+12 -5.36501e+12 -5.45998e+12 -5.77973e+12 -5.89345e+12 -6.00509e+12 -6.13444e+12 -6.26817e+12 -6.39214e+12 -6.5347e+12 -6.65343e+12 -6.76985e+12 -6.93148e+12 -7.09031e+12 -7.21256e+12 -6.86691e+12 -6.44508e+12 -7.20343e+12 -7.28499e+12 -7.27764e+12 -7.16651e+12 -4.67499e+12 -4.19706e+12 -7.08081e+12 -7.02003e+12 -7.05185e+12 -6.69773e+12 -7.08304e+12 -7.0537e+12 -7.02167e+12 -6.97371e+12 -6.96218e+12 -6.82072e+12 -6.88234e+12 -6.54317e+12 -6.14027e+12 -6.02392e+12 -5.83687e+12 -5.79378e+12 -5.59545e+12 -5.46454e+12 -5.33044e+12 -5.20652e+12 -4.89265e+12 -4.77393e+12 -4.65342e+12 -4.53415e+12 -4.43035e+12 -4.45696e+12 -4.49069e+12 -4.57456e+12 -4.75461e+12 -4.82881e+12 -4.83289e+12 -4.77067e+12 -4.75453e+12 -4.9308e+12 -5.01799e+12 -5.10942e+12 -5.19729e+12 -5.55075e+12 -5.64415e+12 -5.73746e+12 -5.84307e+12 -5.95684e+12 -6.07525e+12 -6.21565e+12 -6.34435e+12 -6.47175e+12 -6.61386e+12 -6.74904e+12 -6.82733e+12 -6.49508e+12 -6.53857e+12 -7.15407e+12 -7.1458e+12 -6.90258e+12 -4.60921e+12 -4.61787e+12 -4.11686e+12 -4.18947e+12 -6.98357e+12 -7.04717e+12 -7.01649e+12 -7.07134e+12 -6.77149e+12 -6.88613e+12 -6.92112e+12 -6.91674e+12 -6.81166e+12 -6.64255e+12 -6.64631e+12 -6.45969e+12 -6.52019e+12 -6.33516e+12 -5.71028e+12 -5.58444e+12 -5.50694e+12 -5.3435e+12 -5.22542e+12 -5.11548e+12 -5.00719e+12 -4.73475e+12 -4.6341e+12 -4.53334e+12 -4.43866e+12 -4.35485e+12 -4.29811e+12 -4.2712e+12 -4.2925e+12 -4.37895e+12 -4.38337e+12 -4.40983e+12 -4.47726e+12 -4.56275e+12 -4.64283e+12 -4.67149e+12 -4.6709e+12 -4.77691e+12 -4.82871e+12 -4.89819e+12 -4.97488e+12 -5.0507e+12 -5.27859e+12 -5.35469e+12 -5.42892e+12 -5.5013e+12 -5.57937e+12 -5.66513e+12 -5.76056e+12 -5.87903e+12 -6.0264e+12 -6.16714e+12 -6.31773e+12 -6.45425e+12 -6.58273e+12 -6.66862e+12 -6.49425e+12 -6.5725e+12 -6.81988e+12 -6.90415e+12 -6.40858e+12 -4.2312e+12 -4.69249e+12 -3.98016e+12 -6.84753e+12 -6.78048e+12 -6.94055e+12 -6.96265e+12 -7.14253e+12 -5.96729e+12 -6.61871e+12 -6.64969e+12 -6.6195e+12 -6.54498e+12 -6.42164e+12 -6.36421e+12 -6.27137e+12 -6.24899e+12 -6.08276e+12 -5.95449e+12 -5.85316e+12 -5.34405e+12 -5.25077e+12 -5.12245e+12 -5.02432e+12 -4.92951e+12 -4.83355e+12 -4.50632e+12 -4.42151e+12 -4.34252e+12 -4.27823e+12 -4.23639e+12 -4.22848e+12 -4.26276e+12 -4.28372e+12 -4.31067e+12 -4.35778e+12 -4.42064e+12 -4.47784e+12 -4.51734e+12 -4.65911e+12 -4.6786e+12 -4.72138e+12 -4.7801e+12 -4.8462e+12 -4.91336e+12 -5.12186e+12 -5.18757e+12 -5.24871e+12 -5.30471e+12 -5.35894e+12 -5.41344e+12 -5.47255e+12 -5.99607e+12 -6.12967e+12 -6.29359e+12 -6.38506e+12 -6.34174e+12 -6.34353e+12 -6.39348e+12 -6.55492e+12 -6.59577e+12 -6.26784e+12 -5.49421e+12 -7.03132e+12 -7.02505e+12 -4.55215e+12 -3.81014e+12 -6.44364e+12 -6.66974e+12 -6.5903e+12 -6.73651e+12 -6.70327e+12 -7.01978e+12 -6.28843e+12 -6.06223e+12 -6.50759e+12 -6.35294e+12 -6.29437e+12 -6.19936e+12 -6.12096e+12 -6.0322e+12 -5.98544e+12 -5.86103e+12 -5.74888e+12 -5.66216e+12 -5.5624e+12 -5.44609e+12 -5.12179e+12 -5.03368e+12 -4.93525e+12 -4.84895e+12 -4.76381e+12 -4.67904e+12 -4.59318e+12 -4.3104e+12 -4.24516e+12 -4.19487e+12 -4.16836e+12 -4.17195e+12 -4.18578e+12 -4.20872e+12 -4.24332e+12 -4.28986e+12 -4.53463e+12 -4.54693e+12 -4.56594e+12 -4.60458e+12 -4.65652e+12 -4.71554e+12 -4.97774e+12 -5.03752e+12 -5.09201e+12 -5.14007e+12 -5.18171e+12 -5.21609e+12 -5.5484e+12 -5.6492e+12 -5.83467e+12 -5.77368e+12 -6.01417e+12 -6.1075e+12 -6.12263e+12 -6.23477e+12 -6.15014e+12 -6.20907e+12 -6.29983e+12 -5.54224e+12 -6.43224e+12 -6.59009e+12 -4.35621e+12 -4.21632e+12 -3.45728e+12 -3.63109e+12 -6.18994e+12 -6.39631e+12 -6.2788e+12 -6.50615e+12 -6.42597e+12 -6.39343e+12 -6.16598e+12 -5.89579e+12 -6.3188e+12 -6.20115e+12 -6.05601e+12 -5.96863e+12 -5.88656e+12 -5.80077e+12 -5.7347e+12 -5.64436e+12 -5.55643e+12 -5.47814e+12 -5.4013e+12 -5.31409e+12 -5.21424e+12 -4.84862e+12 -4.76611e+12 -4.68767e+12 -4.61133e+12 -4.53594e+12 -4.45978e+12 -4.38373e+12 -4.09224e+12 -4.33687e+12 -4.37213e+12 -4.39811e+12 -4.41921e+12 -4.44459e+12 -4.4801e+12 -4.52707e+12 -4.5807e+12 -4.77669e+12 -4.83646e+12 -4.89278e+12 -4.94446e+12 -4.99035e+12 -5.02942e+12 -5.05932e+12 -5.244e+12 -5.27114e+12 -5.30493e+12 -5.3589e+12 -5.64422e+12 -5.74319e+12 -5.82895e+12 -5.86474e+12 -5.95593e+12 -6.06231e+12 -5.94044e+12 -6.01479e+12 -6.07996e+12 -5.65407e+12 -6.03006e+12 -6.41041e+12 -6.12789e+12 -6.24571e+12 -4.04643e+12 -3.29416e+12 -5.92392e+12 -5.89536e+12 -6.1583e+12 -6.09235e+12 -6.16725e+12 -6.02576e+12 -6.24419e+12 -6.04845e+12 -5.81333e+12 -5.94722e+12 -5.82625e+12 -5.71499e+12 -5.64271e+12 -5.57216e+12 -5.50801e+12 -5.43608e+12 -5.36916e+12 -5.30588e+12 -5.23901e+12 -5.16956e+12 -5.09187e+12 -5.00555e+12 -4.92547e+12 -4.60576e+12 -4.53503e+12 -4.46635e+12 -4.39809e+12 -4.32966e+12 -4.26218e+12 -4.19891e+12 -4.14525e+12 -4.1079e+12 -4.09312e+12 -4.10715e+12 -4.13228e+12 -4.16703e+12 -4.20439e+12 -4.23721e+12 -4.26391e+12 -4.28857e+12 -4.31624e+12 -4.35094e+12 -4.3935e+12 -4.63718e+12 -4.6934e+12 -4.74719e+12 -4.79725e+12 -4.84268e+12 -4.88272e+12 -5.07715e+12 -5.08005e+12 -5.06313e+12 -5.02296e+12 -4.92513e+12 -5.32471e+12 -5.32125e+12 -5.45041e+12 -5.52464e+12 -5.63286e+12 -5.74873e+12 -5.8543e+12 -5.72156e+12 -5.8105e+12 -5.65855e+12 -5.94368e+12 -5.8166e+12 -6.10309e+12 -5.94308e+12 -3.82374e+12 -3.58884e+12 -3.14324e+12 -5.36157e+12 -5.65123e+12 -5.63069e+12 -5.85794e+12 -5.77579e+12 -5.91892e+12 -5.78862e+12 -5.90894e+12 -5.59463e+12 -5.60034e+12 -5.52911e+12 -5.45689e+12 -5.39148e+12 -5.34339e+12 -5.29643e+12 -5.24246e+12 -5.1894e+12 -5.13766e+12 -5.0816e+12 -5.02214e+12 -4.9593e+12 -4.8913e+12 -4.81845e+12 -4.74864e+12 -4.679e+12 -4.38732e+12 -4.32463e+12 -4.26212e+12 -4.20014e+12 -4.14036e+12 -4.08643e+12 -4.0435e+12 -4.01618e+12 -4.00479e+12 -4.00794e+12 -4.0232e+12 -4.04786e+12 -4.07698e+12 -4.10578e+12 -4.13206e+12 -4.15727e+12 -4.18509e+12 -4.21825e+12 -4.44249e+12 -4.49479e+12 -4.54773e+12 -4.59915e+12 -4.64765e+12 -4.69239e+12 -4.91567e+12 -4.93896e+12 -4.94814e+12 -4.93185e+12 -4.86286e+12 -4.66715e+12 -3.74267e+12 -6.11588e+12 -5.72864e+12 -5.49926e+12 -5.44029e+12 -5.49596e+12 -5.56711e+12 -5.64308e+12 -5.51324e+12 -5.45684e+12 -5.47396e+12 -5.70292e+12 -5.30087e+12 -5.77398e+12 -5.71797e+12 -3.38342e+12 -2.81819e+12 -2.99473e+12 -5.05103e+12 -5.35763e+12 -5.35264e+12 -5.61208e+12 -5.59143e+12 -5.51113e+12 -5.40063e+12 -5.67916e+12 -5.51124e+12 -5.39655e+12 -5.12514e+12 -5.14627e+12 -5.13461e+12 -5.11422e+12 -5.09099e+12 -5.05735e+12 -5.0171e+12 -4.97358e+12 -4.92629e+12 -4.87569e+12 -4.82282e+12 -4.76684e+12 -4.70692e+12 -4.64377e+12 -4.58038e+12 -4.51632e+12 -4.45095e+12 -4.18373e+12 -4.12637e+12 -4.07041e+12 -4.01804e+12 -3.97292e+12 -3.93894e+12 -3.91829e+12 -3.91133e+12 -3.91674e+12 -3.93193e+12 -3.95326e+12 -3.97714e+12 -4.0013e+12 -4.02587e+12 -4.25752e+12 -4.30215e+12 -4.35044e+12 -4.40001e+12 -4.44889e+12 -4.4956e+12 -4.53922e+12 -4.73289e+12 -4.76837e+12 -4.79793e+12 -4.82097e+12 -4.83644e+12 -4.84308e+12 -4.83539e+12 -4.67645e+12 -4.86712e+12 -5.57967e+12 -5.47835e+12 -5.32407e+12 -5.24458e+12 -5.30503e+12 -5.34747e+12 -5.40883e+12 -5.23222e+12 -5.20335e+12 -5.27526e+12 -5.01104e+12 -5.16499e+12 -5.45135e+12 -5.63368e+12 -5.50571e+12 -5.48433e+12 -5.18635e+12 -3.16894e+12 -2.61347e+12 -4.66778e+12 -4.74152e+12 -5.08772e+12 -5.14124e+12 -5.34395e+12 -5.32408e+12 -5.5422e+12 -5.13369e+12 -5.13289e+12 -4.97308e+12 -5.01654e+12 -4.63176e+12 -4.77625e+12 -4.85727e+12 -4.88976e+12 -4.89175e+12 -4.87581e+12 -4.8475e+12 -4.81156e+12 -4.77065e+12 -4.72727e+12 -4.68199e+12 -4.63468e+12 -4.58422e+12 -4.53034e+12 -4.47396e+12 -4.41628e+12 -4.35825e+12 -4.29974e+12 -4.24164e+12 -3.94043e+12 -3.89519e+12 -3.85789e+12 -3.83106e+12 -3.81606e+12 -3.81269e+12 -3.81926e+12 -3.83311e+12 -3.85146e+12 -4.05277e+12 -4.08385e+12 -4.11991e+12 -4.16063e+12 -4.20485e+12 -4.25087e+12 -4.29689e+12 -4.34151e+12 -4.57922e+12 -4.61498e+12 -4.64571e+12 -4.67062e+12 -4.68882e+12 -4.69933e+12 -4.69853e+12 -4.64641e+12 -4.82637e+12 -4.81377e+12 -5.10463e+12 -5.09339e+12 -4.99402e+12 -4.8811e+12 -5.02587e+12 -5.05522e+12 -4.97288e+12 -4.93861e+12 -4.95124e+12 -4.59725e+12 -4.29646e+12 -5.67841e+12 -5.58734e+12 -5.28818e+12 -4.74651e+12 -2.86804e+12 -2.18191e+12 -2.40395e+12 -3.73308e+12 -4.19515e+12 -4.28644e+12 -4.83973e+12 -5.23093e+12 -5.38016e+12 -5.21777e+12 -4.98517e+12 -5.39196e+12 -5.9412e+12 -3.23995e+12 -4.33435e+12 -4.57906e+12 -4.67586e+12 -4.70379e+12 -4.69872e+12 -4.57477e+12 -4.53543e+12 -4.49467e+12 -4.45182e+12 -4.40623e+12 -4.35781e+12 -4.30731e+12 -4.25548e+12 -4.20309e+12 -4.14978e+12 -4.09617e+12 -4.04287e+12 -3.99052e+12 -3.87225e+12 -3.89489e+12 -3.92002e+12 -3.94868e+12 -3.98149e+12 -4.01839e+12 -4.05859e+12 -4.10079e+12 -4.14358e+12 -4.38373e+12 -4.42299e+12 -4.45877e+12 -4.49041e+12 -4.51708e+12 -4.53797e+12 -4.55261e+12 -4.5601e+12 -4.5536e+12 -4.65416e+12 -4.70537e+12 -4.72771e+12 -4.59181e+12 -4.30321e+12 -4.57116e+12 -4.58661e+12 -4.60571e+12 -4.63877e+12 -4.67075e+12 -3.6079e+12 -5.67361e+12 -5.42272e+12 -5.07573e+12 -4.95914e+12 -4.5091e+12 -3.83882e+12 -3.48433e+12 -2.19504e+12 -2.15714e+12 -3.26922e+12 -3.6718e+12 -4.4299e+12 -4.60125e+12 -4.96852e+12 -5.12614e+12 -5.32974e+12 -5.67813e+12 -6.16547e+12 -3.65957e+12 -4.88232e+12 -5.22567e+12 -4.61976e+12 -4.33149e+12 -4.51125e+12 -4.53402e+12 -4.53849e+12 -4.67793e+12 -4.64819e+12 -4.61285e+12 -4.2727e+12 -4.2319e+12 -4.18863e+12 -4.14331e+12 -4.09666e+12 -4.0489e+12 -3.99994e+12 -3.95071e+12 -3.90191e+12 -3.85449e+12 -3.8103e+12 -3.77182e+12 -3.74133e+12 -3.72053e+12 -3.71002e+12 -3.70908e+12 -3.71597e+12 -3.72859e+12 -3.74517e+12 -3.7648e+12 -3.78735e+12 -3.81318e+12 -3.84265e+12 -3.87576e+12 -3.91193e+12 -3.95019e+12 -4.18566e+12 -4.22608e+12 -4.26423e+12 -4.29964e+12 -4.33183e+12 -4.36022e+12 -4.38408e+12 -4.40326e+12 -4.41853e+12 -4.43217e+12 -4.66603e+12 -4.76703e+12 -4.09721e+12 -2.6902e+12 -5.28974e+12 -4.93139e+12 -4.59751e+12 -4.51178e+12 -4.41862e+12 -5.77544e+12 -5.24647e+12 -5.19503e+12 -4.72497e+12 -4.9499e+12 -4.53029e+12 -5.28873e+12 -3.31456e+12 -2.1338e+12 -3.88685e+12 -4.18424e+12 -2.72317e+12 -2.6416e+12 -3.87198e+12 -4.15196e+12 -4.75512e+12 -4.89212e+12 -5.51803e+12 -4.91958e+12 -4.63091e+12 -4.83691e+12 -4.56255e+12 -4.54534e+12 -4.31333e+12 -4.35703e+12 -4.52819e+12 -4.50769e+12 -4.48124e+12 -4.45071e+12 -4.41766e+12 -4.38322e+12 -4.34787e+12 -4.31124e+12 -4.02176e+12 -3.98096e+12 -3.93872e+12 -3.89501e+12 -3.85022e+12 -3.80523e+12 -3.76085e+12 -3.71851e+12 -3.68022e+12 -3.64795e+12 -3.62334e+12 -3.60744e+12 -3.60029e+12 -3.60095e+12 -3.60797e+12 -3.61991e+12 -3.63578e+12 -3.65508e+12 -3.67767e+12 -3.70364e+12 -3.73293e+12 -3.98942e+12 -4.02854e+12 -4.06664e+12 -4.10312e+12 -4.13762e+12 -4.16974e+12 -4.19921e+12 -4.22565e+12 -4.249e+12 -4.27061e+12 -4.49687e+12 -4.53857e+12 -4.54372e+12 -4.50909e+12 -4.51238e+12 -4.40694e+12 -4.36955e+12 -4.28265e+12 -4.32015e+12 -4.15067e+12 -4.73429e+12 -4.81082e+12 -4.80778e+12 -4.644e+12 -4.63394e+12 -4.7063e+12 -4.62235e+12 -4.96068e+12 -2.95776e+12 -2.02173e+12 -3.6775e+12 -3.8497e+12 -3.89343e+12 -4.70972e+12 -3.45498e+12 -4.3429e+12 -4.47309e+12 -4.96123e+12 -4.72848e+12 -4.73892e+12 -4.49113e+12 -4.37908e+12 -4.36781e+12 -4.35647e+12 -4.34721e+12 -4.33051e+12 -4.30823e+12 -4.28265e+12 -4.25496e+12 -4.2256e+12 -4.19512e+12 -4.16382e+12 -4.13124e+12 -4.09701e+12 -4.06064e+12 -3.78135e+12 -3.74148e+12 -3.70072e+12 -3.65981e+12 -3.61997e+12 -3.58287e+12 -3.55018e+12 -3.52341e+12 -3.50374e+12 -3.49172e+12 -3.48707e+12 -3.4889e+12 -3.49614e+12 -3.50787e+12 -3.52345e+12 -3.54248e+12 -3.56477e+12 -3.76511e+12 -3.79938e+12 -3.83484e+12 -3.87062e+12 -3.90592e+12 -3.94014e+12 -3.973e+12 -4.00429e+12 -4.03387e+12 -4.06182e+12 -4.29436e+12 -4.3432e+12 -4.38179e+12 -4.39463e+12 -4.39053e+12 -4.3827e+12 -4.40306e+12 -4.41154e+12 -4.30839e+12 -4.8156e+12 -4.251e+12 -3.84615e+12 -4.0024e+12 -4.03673e+12 -4.39953e+12 -4.602e+12 -4.5333e+12 -4.59875e+12 -4.51389e+12 -4.41848e+12 -4.72584e+12 -4.5632e+12 -2.67478e+12 -2.43273e+12 -1.73129e+12 -1.87967e+12 -3.45926e+12 -3.64991e+12 -4.13669e+12 -4.21123e+12 -4.72698e+12 -3.93652e+12 -3.87893e+12 -4.06841e+12 -4.52725e+12 -4.43606e+12 -4.44354e+12 -4.37796e+12 -4.17863e+12 -4.29775e+12 -4.17283e+12 -4.17129e+12 -4.16153e+12 -4.14751e+12 -4.12928e+12 -4.10826e+12 -4.08583e+12 -4.06195e+12 -4.03658e+12 -4.01024e+12 -3.98286e+12 -3.95427e+12 -3.92403e+12 -3.89138e+12 -3.85641e+12 -3.81972e+12 -3.51473e+12 -3.47961e+12 -3.44758e+12 -3.41996e+12 -3.39794e+12 -3.38234e+12 -3.37337e+12 -3.37063e+12 -3.37341e+12 -3.38095e+12 -3.59017e+12 -3.61835e+12 -3.64862e+12 -3.6802e+12 -3.71238e+12 -3.74448e+12 -3.77593e+12 -3.80643e+12 -3.83599e+12 -4.08831e+12 -4.1145e+12 -4.14402e+12 -4.18705e+12 -4.22597e+12 -4.24548e+12 -4.2454e+12 -4.23879e+12 -4.25727e+12 -4.30195e+12 -4.33603e+12 -4.79315e+12 -4.97183e+12 -3.29668e+12 -3.62776e+12 -3.76769e+12 -4.02854e+12 -4.23815e+12 -4.38306e+12 -4.31494e+12 -4.42379e+12 -4.23185e+12 -4.36619e+12 -4.29756e+12 -4.46196e+12 -4.14213e+12 -4.19899e+12 -2.21079e+12 -1.58809e+12 -3.23524e+12 -3.40858e+12 -3.34757e+12 -3.65749e+12 -3.61318e+12 -3.92103e+12 -3.79241e+12 -3.81502e+12 -4.14471e+12 -4.12613e+12 -4.13002e+12 -4.10719e+12 -4.03073e+12 -4.15281e+12 -4.11834e+12 -4.06065e+12 -3.98828e+12 -3.97355e+12 -3.96067e+12 -3.9458e+12 -3.92874e+12 -3.91057e+12 -3.89177e+12 -3.87175e+12 -3.85045e+12 -3.828e+12 -3.80445e+12 -3.77963e+12 -3.75285e+12 -3.72368e+12 -3.69243e+12 -3.65935e+12 -3.62452e+12 -3.58837e+12 -3.55147e+12 -3.39259e+12 -3.40785e+12 -3.42635e+12 -3.44783e+12 -3.47196e+12 -3.4982e+12 -3.52585e+12 -3.55426e+12 -3.58286e+12 -3.61112e+12 -3.86465e+12 -3.89272e+12 -3.92067e+12 -3.94953e+12 -3.98215e+12 -4.02372e+12 -4.06536e+12 -4.09476e+12 -4.10505e+12 -4.09609e+12 -4.07746e+12 -4.1134e+12 -4.16109e+12 -4.40668e+12 -4.77393e+12 -4.9979e+12 -3.05101e+12 -3.66631e+12 -3.86303e+12 -4.02543e+12 -4.16879e+12 -4.11503e+12 -4.03114e+12 -4.11673e+12 -3.91326e+12 -4.04232e+12 -3.81439e+12 -3.85074e+12 -3.50597e+12 -2.00402e+12 -1.44495e+12 -3.01977e+12 -2.97286e+12 -3.17637e+12 -3.0927e+12 -3.17435e+12 -3.3057e+12 -3.10296e+12 -3.54594e+12 -3.49934e+12 -3.8352e+12 -3.82955e+12 -3.83041e+12 -3.82012e+12 -3.94214e+12 -3.90983e+12 -3.87685e+12 -3.83208e+12 -3.78796e+12 -3.77166e+12 -3.75814e+12 -3.74415e+12 -3.72978e+12 -3.71532e+12 -3.70032e+12 -3.68415e+12 -3.66671e+12 -3.64803e+12 -3.62815e+12 -3.60674e+12 -3.5832e+12 -3.55736e+12 -3.52943e+12 -3.49965e+12 -3.46832e+12 -3.4358e+12 -3.40274e+12 -3.37028e+12 -3.33978e+12 -3.31241e+12 -3.28927e+12 -3.27131e+12 -3.25903e+12 -3.25246e+12 -3.25121e+12 -3.25474e+12 -3.26247e+12 -3.27389e+12 -3.28856e+12 -3.30613e+12 -3.32623e+12 -3.34842e+12 -3.37208e+12 -3.39662e+12 -3.42152e+12 -3.63871e+12 -3.66572e+12 -3.69242e+12 -3.71923e+12 -3.74679e+12 -3.7761e+12 -3.80938e+12 -3.84988e+12 -3.89376e+12 -3.93343e+12 -3.96179e+12 -3.97112e+12 -3.95116e+12 -3.87901e+12 -3.90907e+12 -3.98072e+12 -4.16436e+12 -4.4689e+12 -4.55998e+12 -3.31503e+12 -3.49835e+12 -3.66192e+12 -3.81026e+12 -3.96288e+12 -3.76668e+12 -3.90804e+12 -3.68999e+12 -3.78754e+12 -3.6548e+12 -3.74552e+12 -3.48123e+12 -3.16326e+12 -1.80884e+12 -1.61748e+12 -1.29968e+12 -2.53964e+12 -2.78807e+12 -2.74412e+12 -2.93331e+12 -2.91321e+12 -2.38932e+12 -2.82815e+12 -2.014e+12 -3.11732e+12 -3.50709e+12 -3.51568e+12 -3.52902e+12 -3.53194e+12 -3.79262e+12 -3.7497e+12 -3.69663e+12 -3.66933e+12 -3.64115e+12 -3.60916e+12 -3.58222e+12 -3.56825e+12 -3.55598e+12 -3.54419e+12 -3.53319e+12 -3.52248e+12 -3.5112e+12 -3.49883e+12 -3.48508e+12 -3.46997e+12 -3.45355e+12 -3.43534e+12 -3.41485e+12 -3.39209e+12 -3.36731e+12 -3.34084e+12 -3.31294e+12 -3.28396e+12 -3.25476e+12 -3.22652e+12 -3.20031e+12 -3.17713e+12 -3.15793e+12 -3.14338e+12 -3.13379e+12 -3.12909e+12 -3.12896e+12 -3.13295e+12 -3.1406e+12 -3.15148e+12 -3.16518e+12 -3.18132e+12 -3.19949e+12 -3.21915e+12 -3.4463e+12 -3.47063e+12 -3.49451e+12 -3.51834e+12 -3.54268e+12 -3.56819e+12 -3.59578e+12 -3.62723e+12 -3.66517e+12 -3.70885e+12 -3.75484e+12 -3.79991e+12 -3.83876e+12 -3.85943e+12 -3.83031e+12 -3.6045e+12 -3.64369e+12 -3.5971e+12 -3.61371e+12 -3.82715e+12 -3.71505e+12 -3.17303e+12 -3.31393e+12 -3.49107e+12 -3.44078e+12 -3.59199e+12 -3.41891e+12 -3.57093e+12 -3.45126e+12 -3.55335e+12 -3.36854e+12 -3.43141e+12 -3.10792e+12 -3.14205e+12 -2.81509e+12 -1.42845e+12 -1.15131e+12 -2.27586e+12 -2.49208e+12 -2.71746e+12 -2.70333e+12 -2.90205e+12 -2.90005e+12 -2.13792e+12 -2.5826e+12 -2.71174e+12 -3.14057e+12 -3.17923e+12 -3.21184e+12 -3.23536e+12 -3.52439e+12 -3.51222e+12 -3.48424e+12 -3.45268e+12 -3.43251e+12 -3.41148e+12 -3.39132e+12 -3.37532e+12 -3.36419e+12 -3.35438e+12 -3.28057e+12 -3.2653e+12 -3.24766e+12 -3.2279e+12 -3.20632e+12 -3.18312e+12 -3.15849e+12 -3.13301e+12 -3.10765e+12 -3.08337e+12 -3.06107e+12 -3.04164e+12 -3.02583e+12 -3.01411e+12 -3.00663e+12 -3.00331e+12 -3.00387e+12 -3.00795e+12 -3.01515e+12 -3.02508e+12 -3.23977e+12 -3.26087e+12 -3.28202e+12 -3.30283e+12 -3.32324e+12 -3.34362e+12 -3.36455e+12 -3.38674e+12 -3.41097e+12 -3.43865e+12 -3.472e+12 -3.51186e+12 -3.55761e+12 -3.61012e+12 -3.67112e+12 -3.73922e+12 -3.80333e+12 -3.79721e+12 -3.17229e+12 -3.37425e+12 -2.78556e+12 -2.90208e+12 -3.13251e+12 -3.25855e+12 -2.95061e+12 -3.10997e+12 -3.28447e+12 -3.24037e+12 -3.35474e+12 -3.21276e+12 -3.29457e+12 -3.06665e+12 -2.77361e+12 -2.79712e+12 -2.46164e+12 -1.24301e+12 -842934000000.0 -999553000000.0 -1.99641e+12 -2.23078e+12 -2.19178e+12 -2.47027e+12 -2.46338e+12 -2.71741e+12 -3.35643e+12 -3.7917e+12 -1.97015e+12 -2.19632e+12 -2.81789e+12 -2.88944e+12 -3.24104e+12 -3.246e+12 -3.24382e+12 -3.22901e+12 -3.21274e+12 -3.1998e+12 -3.18733e+12 -3.34614e+12 -3.33903e+12 -3.33201e+12 -3.32436e+12 -3.31558e+12 -3.30537e+12 -3.29374e+12 -2.98313e+12 -2.96143e+12 -2.94079e+12 -2.92203e+12 -2.9059e+12 -2.89294e+12 -2.88345e+12 -2.87753e+12 -3.03734e+12 -3.05156e+12 -3.06727e+12 -3.08397e+12 -3.10124e+12 -3.11867e+12 -3.13585e+12 -3.1526e+12 -3.16924e+12 -3.18632e+12 -3.20444e+12 -3.22432e+12 -3.24698e+12 -2.13799e+12 -2.75208e+12 -2.91916e+12 -2.76391e+12 -2.88801e+12 -3.04296e+12 -3.20369e+12 -3.08127e+12 -3.04167e+12 -3.12913e+12 -2.96058e+12 -3.01808e+12 -2.72526e+12 -2.74793e+12 -2.42491e+12 -2.44105e+12 -2.07831e+12 -2.10913e+12 -1.06402e+12 -678529000000.0 -1.70041e+12 -1.95902e+12 -1.9186e+12 -2.19253e+12 -2.46752e+12 -2.52121e+12 -2.88048e+12 -3.10405e+12 -3.63233e+12 -2.42466e+12 -2.56501e+12 -2.93263e+12 -2.95411e+12 -2.96506e+12 -2.97729e+12 -2.98226e+12 -2.98082e+12 -3.17717e+12 -3.16832e+12 -3.16056e+12 -3.15433e+12 -3.15016e+12 -3.14706e+12 -3.14386e+12 -3.1398e+12 -3.13444e+12 -3.1276e+12 -3.11927e+12 -3.10909e+12 -3.09658e+12 -3.08179e+12 -3.06508e+12 -3.04662e+12 -3.02651e+12 -3.00511e+12 -2.87508e+12 -2.87587e+12 -2.87958e+12 -2.88589e+12 -2.89442e+12 -2.90479e+12 -2.9166e+12 -2.92943e+12 -2.94286e+12 -2.95655e+12 -2.9701e+12 -2.98318e+12 -2.99593e+12 -3.00895e+12 -3.27392e+12 -3.30637e+12 -3.34546e+12 -3.39416e+12 -3.45869e+12 -3.54868e+12 -3.68117e+12 -3.89081e+12 -4.18565e+12 -3.05018e+12 -2.09033e+12 -2.04649e+12 -2.72393e+12 -2.72207e+12 -2.48343e+12 -2.56605e+12 -2.75629e+12 -2.76396e+12 -2.93291e+12 -2.78952e+12 -2.84044e+12 -2.89827e+12 -2.6508e+12 -2.68987e+12 -2.40035e+12 -2.40555e+12 -2.05042e+12 -1.71883e+12 -1.76396e+12 -1.44966e+12 -895780000000.0 -728734000000.0 -501973000000.0 -1.38743e+12 -1.36113e+12 -1.66971e+12 -1.63643e+12 -1.87433e+12 -2.20463e+12 -2.23093e+12 -2.57176e+12 -2.47081e+12 -3.02167e+12 -2.46047e+12 -2.75212e+12 -2.34059e+12 -2.36496e+12 -2.63105e+12 -2.66403e+12 -2.68017e+12 -2.69507e+12 -2.71535e+12 -2.97636e+12 -2.9718e+12 -2.96837e+12 -2.96554e+12 -2.96144e+12 -2.95781e+12 -2.95636e+12 -2.95669e+12 -2.95754e+12 -2.95796e+12 -2.9573e+12 -2.95526e+12 -2.95175e+12 -2.94654e+12 -2.93911e+12 -2.9293e+12 -2.91744e+12 -2.90373e+12 -2.88823e+12 -2.87114e+12 -2.85298e+12 -2.8344e+12 -2.8161e+12 -2.79881e+12 -2.78321e+12 -2.76988e+12 -2.75917e+12 -2.75132e+12 -2.74638e+12 -2.74427e+12 -2.74479e+12 -2.74768e+12 -2.75264e+12 -2.7593e+12 -2.76733e+12 -2.77634e+12 -2.78596e+12 -2.79588e+12 -2.80579e+12 -3.02276e+12 -3.03782e+12 -3.05475e+12 -3.07464e+12 -3.09855e+12 -3.12746e+12 -3.16379e+12 -3.21296e+12 -3.28503e+12 -3.39939e+12 -3.6015e+12 -4.02523e+12 -4.77237e+12 -2.87261e+12 -3.45315e+12 -3.33423e+12 -2.741e+12 -2.45454e+12 -2.04233e+12 -2.02813e+12 -2.79444e+12 -2.75495e+12 -2.59694e+12 -2.6138e+12 -2.37982e+12 -2.39383e+12 -2.04017e+12 -2.03679e+12 -1.62139e+12 -1.66642e+12 -1.36953e+12 -1.17471e+12 -560311000000.0 -312176000000.0 -698236000000.0 -1.0539e+12 -1.03242e+12 -1.33931e+12 -1.59041e+12 -1.49772e+12 -1.92006e+12 -1.97217e+12 -2.23033e+12 -2.14755e+12 -1.8263e+12 -1.93624e+12 -2.37439e+12 -2.38636e+12 -2.39521e+12 -2.40519e+12 -2.73344e+12 -2.74077e+12 -2.74388e+12 -2.74793e+12 -2.75284e+12 -2.75549e+12 -2.75582e+12 -2.75717e+12 -2.76073e+12 -2.76552e+12 -2.77028e+12 -2.77418e+12 -2.77685e+12 -2.77812e+12 -2.7778e+12 -2.77545e+12 -2.77068e+12 -2.76368e+12 -2.75473e+12 -2.74388e+12 -2.73127e+12 -2.71722e+12 -2.70223e+12 -2.68686e+12 -2.67174e+12 -2.65747e+12 -2.64459e+12 -2.63347e+12 -2.62442e+12 -2.61759e+12 -2.61306e+12 -2.61073e+12 -2.61048e+12 -2.61207e+12 -2.61522e+12 -2.61958e+12 -2.62487e+12 -2.81527e+12 -2.82419e+12 -2.83305e+12 -2.84248e+12 -2.85277e+12 -2.86424e+12 -2.87764e+12 -2.89362e+12 -2.91232e+12 -2.93472e+12 -2.96364e+12 -3.00326e+12 -3.05864e+12 -3.13766e+12 -3.25323e+12 -3.37201e+12 -2.14566e+12 -2.81641e+12 -2.96596e+12 -2.76981e+12 -2.54269e+12 -2.47318e+12 -2.07201e+12 -2.8288e+12 -2.6845e+12 -2.60363e+12 -2.3591e+12 -2.36615e+12 -2.0799e+12 -2.0621e+12 -1.62687e+12 -1.19962e+12 -1.28391e+12 -1.06406e+12 -930708000000.0 -407027000000.0 -110562000000.0 -320424000000.0 -683264000000.0 -1.01528e+12 -1.31995e+12 -1.27072e+12 -1.75661e+12 -1.96018e+12 -1.83904e+12 -1.99493e+12 -965078000000.0 -985441000000.0 -2.09039e+12 -2.09841e+12 -2.10527e+12 -2.10247e+12 -2.10448e+12 -2.42639e+12 -2.46767e+12 -2.49206e+12 -2.50532e+12 -2.51657e+12 -2.52894e+12 -2.53964e+12 -2.54644e+12 -2.55203e+12 -2.55919e+12 -2.56778e+12 -2.5767e+12 -2.58508e+12 -2.59242e+12 -2.59847e+12 -2.60301e+12 -2.60569e+12 -2.60604e+12 -2.60399e+12 -2.59983e+12 -2.59369e+12 -2.58565e+12 -2.57595e+12 -2.56491e+12 -2.55296e+12 -2.54064e+12 -2.52844e+12 -2.5168e+12 -2.50609e+12 -2.49659e+12 -2.48854e+12 -2.48212e+12 -2.47738e+12 -2.4743e+12 -2.47278e+12 -2.63073e+12 -2.63688e+12 -2.64309e+12 -2.64902e+12 -2.65428e+12 -2.65906e+12 -2.66409e+12 -2.66985e+12 -2.67631e+12 -2.68366e+12 -2.69259e+12 -2.70332e+12 -2.71576e+12 -2.73126e+12 -2.75202e+12 -2.78032e+12 -2.81855e+12 -2.86584e+12 -2.87922e+12 -2.5146e+12 -2.54096e+12 -2.44323e+12 -2.35246e+12 -2.23091e+12 -2.13138e+12 -1.5647e+12 -1.41124e+12 -2.52861e+12 -2.43316e+12 -2.37774e+12 -2.10398e+12 -2.09234e+12 -1.76e+12 -1.69996e+12 -1.11062e+12 -781686000000.0 -918148000000.0 -641082000000.0 -812582000000.0 -614245000000.0 -676580000000.0 -263362000000.0 -316013000000.0 -667430000000.0 -665408000000.0 -1.0183e+12 -1.04317e+12 -1.18811e+12 -1.55667e+12 -1.78521e+12 -1.80758e+12 -1.61019e+12 -1.59997e+12 -1.79631e+12 -1.82728e+12 -1.83314e+12 -1.82482e+12 -1.81378e+12 -2.11987e+12 -2.1907e+12 -2.23124e+12 -2.25541e+12 -2.2735e+12 -2.29337e+12 -2.31311e+12 -2.32844e+12 -2.33992e+12 -2.47261e+12 -2.4735e+12 -2.47517e+12 -2.47735e+12 -2.47977e+12 -2.48222e+12 -2.48451e+12 -2.48623e+12 -2.48717e+12 -2.48787e+12 -2.48906e+12 -2.49082e+12 -2.49295e+12 -2.49591e+12 -2.50013e+12 -2.50484e+12 -2.51013e+12 -2.51767e+12 -2.53965e+12 -2.54667e+12 -2.51516e+12 -2.28414e+12 -2.24938e+12 -2.30007e+12 -2.41612e+12 -2.03533e+12 -1.98446e+12 -1.87559e+12 -1.67647e+12 -925755000000.0 -2.57637e+12 -2.24834e+12 -2.1663e+12 -2.12075e+12 -1.81691e+12 -1.79061e+12 -1.44558e+12 -1.22202e+12 -616498000000.0 -679941000000.0 -360653000000.0 -479570000000.0 -312079000000.0 -451602000000.0 -164918000000.0 -89606100000.0 -297203000000.0 -254189000000.0 -754221000000.0 -976472000000.0 -879707000000.0 -1.57305e+12 -1.93437e+12 -2.31989e+12 -1.31017e+12 -1.39141e+12 -1.68233e+12 -1.588e+12 -1.78535e+12 -1.75586e+12 -1.91865e+12 -1.96548e+12 -1.99628e+12 -2.02e+12 -2.04663e+12 -2.35123e+12 -2.36386e+12 -2.37709e+12 -2.38998e+12 -2.40196e+12 -2.4128e+12 -2.42221e+12 -2.4299e+12 -2.43542e+12 -2.43848e+12 -2.43924e+12 -2.43787e+12 -2.43449e+12 -2.42926e+12 -2.42244e+12 -2.41433e+12 -2.40536e+12 -2.39592e+12 -2.38632e+12 -2.37683e+12 -2.36768e+12 -2.35912e+12 -2.35139e+12 -2.34471e+12 -2.33918e+12 -2.33483e+12 -2.33157e+12 -2.32918e+12 -2.3274e+12 -2.326e+12 -2.32474e+12 -2.32344e+12 -2.32196e+12 -2.32008e+12 -2.3174e+12 -2.31396e+12 -2.31057e+12 -2.52793e+12 -1.81575e+12 -1.90276e+12 -2.01041e+12 -1.67007e+12 -1.527e+12 -1.0411e+12 -2.5404e+12 -2.39504e+12 -1.91008e+12 -1.86728e+12 -1.84195e+12 -1.51139e+12 -1.48785e+12 -853785000000.0 -193520000000.0 -198834000000.0 -217046000000.0 -436676000000.0 -166166000000.0 -832804000000.0 -630514000000.0 -1.31469e+12 -1.32668e+12 -1.61858e+12 -1.74833e+12 -2.81956e+12 -2.20733e+12 -1.34459e+12 -1.53588e+12 -1.48553e+12 -1.38715e+12 -1.7252e+12 -1.71896e+12 -1.73516e+12 -2.07509e+12 -2.09994e+12 -2.11925e+12 -2.13626e+12 -2.15356e+12 -2.17124e+12 -2.18865e+12 -2.2053e+12 -2.22094e+12 -2.23532e+12 -2.24807e+12 -2.25884e+12 -2.26719e+12 -2.27305e+12 -2.2766e+12 -2.27796e+12 -2.27729e+12 -2.27484e+12 -2.27087e+12 -2.26573e+12 -2.25969e+12 -2.25293e+12 -2.24552e+12 -2.23758e+12 -2.22927e+12 -2.22089e+12 -2.21276e+12 -2.20517e+12 -2.19829e+12 -2.19219e+12 -2.18674e+12 -2.1817e+12 -2.17684e+12 -2.17199e+12 -2.16697e+12 -2.16166e+12 -2.30778e+12 -2.30522e+12 -2.30265e+12 -2.30073e+12 -2.29939e+12 -2.29758e+12 -2.29552e+12 -2.29306e+12 -2.28818e+12 -2.27428e+12 -2.22852e+12 -2.10059e+12 -1.7877e+12 -1.55807e+12 -1.67495e+12 -1.71356e+12 -1.44862e+12 -1.31696e+12 -83635100000.0 -1.90715e+12 -1.97436e+12 -1.59157e+12 -1.5577e+12 -1.5326e+12 -1.2128e+12 -1.20481e+12 -1.20492e+12 -221457000000.0 -150363000000.0 -108175000000.0 -108288000000.0 -574114000000.0 -1.03654e+12 -1.32907e+12 -1.89117e+12 -1.77467e+12 -1.50035e+12 -1.28413e+12 -1.21456e+12 -1.09175e+12 -1.59541e+12 -1.5261e+12 -1.75619e+12 -1.78841e+12 -1.8255e+12 -1.86079e+12 -1.88953e+12 -1.91352e+12 -1.93615e+12 -1.95862e+12 -1.98078e+12 -2.0022e+12 -2.0227e+12 -2.04212e+12 -2.06009e+12 -2.07622e+12 -2.09008e+12 -2.10133e+12 -2.11002e+12 -2.11625e+12 -2.1202e+12 -2.12216e+12 -2.12249e+12 -2.12152e+12 -2.11948e+12 -2.11637e+12 -2.112e+12 -2.10622e+12 -2.09904e+12 -2.09069e+12 -2.08162e+12 -2.07235e+12 -2.06327e+12 -2.05459e+12 -2.0463e+12 -2.03821e+12 -2.03008e+12 -2.15599e+12 -2.14967e+12 -2.14238e+12 -2.13455e+12 -2.12703e+12 -2.11993e+12 -2.11261e+12 -2.1052e+12 -2.09816e+12 -2.09023e+12 -2.08054e+12 -2.06941e+12 -2.05456e+12 -2.03156e+12 -1.99075e+12 -1.915e+12 -1.86531e+12 -1.15632e+12 -1.27935e+12 -1.33247e+12 -1.44432e+12 -1.48605e+12 -1.43588e+12 -1.52601e+12 -2.69827e+12 -1.50007e+12 -1.60532e+12 -1.27149e+12 -1.22377e+12 -873888000000.0 -909064000000.0 -471125000000.0 -1.03714e+12 -924872000000.0 -1.30245e+12 -1.03401e+12 -1.24727e+12 -1.19208e+12 -1.0866e+12 -983946000000.0 -829912000000.0 -1.46642e+12 -1.47218e+12 -1.51491e+12 -1.56398e+12 -1.61077e+12 -1.65001e+12 -1.68227e+12 -1.71122e+12 -1.73897e+12 -1.76606e+12 -1.79233e+12 -1.81771e+12 -1.84226e+12 -1.86563e+12 -1.88735e+12 -1.90697e+12 -1.924e+12 -1.9382e+12 -1.94955e+12 -1.95817e+12 -1.9645e+12 -1.96909e+12 -1.97244e+12 -1.97484e+12 -1.97619e+12 -1.97596e+12 -1.97353e+12 -1.96852e+12 -1.96102e+12 -1.95157e+12 -1.94095e+12 -2.02172e+12 -2.01303e+12 -2.00389e+12 -1.99428e+12 -1.98413e+12 -1.97309e+12 -1.96103e+12 -1.9487e+12 -1.93684e+12 -1.92507e+12 -1.91259e+12 -1.89996e+12 -1.88717e+12 -1.87194e+12 -1.85348e+12 -1.83088e+12 -1.8009e+12 -1.76017e+12 -1.71104e+12 -1.67856e+12 -1.81202e+12 -687608000000.0 -1.14175e+12 -1.19531e+12 -1.294e+12 -1.36367e+12 -1.33716e+12 -2.09823e+12 -2.24783e+12 -1.16437e+12 -1.29796e+12 -908223000000.0 -888707000000.0 -658280000000.0 -133505000000.0 -326517000000.0 -461713000000.0 -826092000000.0 -864478000000.0 -725880000000.0 -729199000000.0 -798301000000.0 -774157000000.0 -621725000000.0 -1.43227e+12 -1.31913e+12 -1.26165e+12 -1.11325e+12 -1.21191e+12 -1.28823e+12 -1.35028e+12 -1.40118e+12 -1.44273e+12 -1.47869e+12 -1.92991e+12 -1.91888e+12 -1.90801e+12 -1.89711e+12 -1.8859e+12 -1.87419e+12 -1.86189e+12 -1.84894e+12 -1.8353e+12 -1.82105e+12 -1.80606e+12 -1.79001e+12 -1.77305e+12 -1.75607e+12 -1.73956e+12 -1.72273e+12 -1.70484e+12 -1.6866e+12 -1.66703e+12 -1.64321e+12 -1.61424e+12 -1.57793e+12 -1.53104e+12 -1.47185e+12 -1.41864e+12 -1.34022e+12 -1.5402e+12 -851164000000.0 -1.0448e+12 -1.08119e+12 -1.16937e+12 -1.25399e+12 -1.54854e+12 -1.74523e+12 -1.76975e+12 -960289000000.0 -1.04816e+12 -580946000000.0 -569012000000.0 -133588000000.0 -582574000000.0 -482396000000.0 -556170000000.0 -675424000000.0 -509235000000.0 -518388000000.0 -1.24945e+12 -1.0981e+12 -1.00195e+12 -1.11514e+12 -885381000000.0 -1.00572e+12 -1.0843e+12 -1.51192e+12 -1.54407e+12 -1.57531e+12 -1.60563e+12 -1.63533e+12 -1.66425e+12 -1.69179e+12 -1.71753e+12 -1.74081e+12 -1.76107e+12 -1.77802e+12 -1.79153e+12 -1.80208e+12 -1.81065e+12 -1.81815e+12 -1.82515e+12 -1.83163e+12 -1.8368e+12 -1.83927e+12 -1.83785e+12 -1.83223e+12 -1.82301e+12 -1.81133e+12 -1.79843e+12 -1.78521e+12 -1.77199e+12 -1.75853e+12 -1.7445e+12 -1.72965e+12 -1.71385e+12 -1.69711e+12 -1.67941e+12 -1.66086e+12 -1.64159e+12 -1.62139e+12 -1.46037e+12 -688878000000.0 -959290000000.0 -1.0414e+12 -1.11169e+12 -1.23937e+12 -1.30881e+12 -1.33068e+12 -818157000000.0 -853616000000.0 -357852000000.0 -451450000000.0 -339042000000.0 -310813000000.0 -370386000000.0 -616696000000.0 -465492000000.0 -547790000000.0 -1.07718e+12 -811856000000.0 -750313000000.0 -770288000000.0 -1.14592e+12 -1.19628e+12 -1.23899e+12 -1.27732e+12 -1.31446e+12 -1.35078e+12 -1.38614e+12 -1.42092e+12 -1.45529e+12 -1.48882e+12 -1.52108e+12 -1.55128e+12 -1.57842e+12 -1.60168e+12 -1.62062e+12 -1.63546e+12 -1.64745e+12 -1.6584e+12 -1.66962e+12 -1.68151e+12 -1.69328e+12 -1.70281e+12 -1.70714e+12 -1.70489e+12 -1.69669e+12 -1.68413e+12 -1.66923e+12 -1.65371e+12 -1.63834e+12 -1.62261e+12 -1.60605e+12 -1.58831e+12 -1.5692e+12 -1.54874e+12 -1.60001e+12 -1.57794e+12 -1.5561e+12 -1.53464e+12 -1.51247e+12 -1.48901e+12 -1.46476e+12 -1.43768e+12 -1.40445e+12 -1.36358e+12 -1.31227e+12 -1.24826e+12 -1.16287e+12 -1.08374e+12 -681711000000.0 -778296000000.0 -907707000000.0 -978287000000.0 -878424000000.0 -1.15626e+12 -773186000000.0 -930651000000.0 -603323000000.0 -633939000000.0 -250837000000.0 -109321000000.0 -285456000000.0 -555175000000.0 -447456000000.0 -402600000000.0 -1.0005e+12 -540035000000.0 -566426000000.0 -927647000000.0 -729407000000.0 -820448000000.0 -888192000000.0 -945744000000.0 -994347000000.0 -1.03528e+12 -1.07665e+12 -1.11817e+12 -1.15888e+12 -1.19895e+12 -1.23841e+12 -1.2773e+12 -1.31643e+12 -1.3545e+12 -1.38977e+12 -1.42054e+12 -1.44556e+12 -1.46537e+12 -1.48051e+12 -1.49338e+12 -1.5074e+12 -1.52416e+12 -1.54334e+12 -1.56238e+12 -1.5761e+12 -1.57978e+12 -1.57384e+12 -1.56051e+12 -1.54296e+12 -1.52451e+12 -1.50711e+12 -1.527e+12 -1.50405e+12 -1.48012e+12 -1.45536e+12 -1.42953e+12 -1.40256e+12 -1.37515e+12 -1.34816e+12 -1.32149e+12 -1.29394e+12 -1.26498e+12 -1.23454e+12 -1.19998e+12 -1.15759e+12 -1.10522e+12 -1.0398e+12 -962605000000.0 -844067000000.0 -695022000000.0 -921497000000.0 -1.08334e+12 -900370000000.0 -749614000000.0 -815994000000.0 -851338000000.0 -814348000000.0 -878711000000.0 -790764000000.0 -659304000000.0 -607585000000.0 -303311000000.0 -362826000000.0 -103166000000.0 -220322000000.0 -381304000000.0 -327234000000.0 -676692000000.0 -344215000000.0 -598944000000.0 -610307000000.0 -748597000000.0 -567811000000.0 -629278000000.0 -694082000000.0 -749269000000.0 -787836000000.0 -829191000000.0 -876193000000.0 -923153000000.0 -969428000000.0 -1.0144e+12 -1.05666e+12 -1.10113e+12 -1.14841e+12 -1.19415e+12 -1.23471e+12 -1.48942e+12 -1.47067e+12 -1.45036e+12 -1.42822e+12 -1.4042e+12 -1.37844e+12 -1.35107e+12 -1.32229e+12 -1.29245e+12 -1.26168e+12 -1.22979e+12 -1.19693e+12 -1.16396e+12 -1.13159e+12 -1.09967e+12 -1.06706e+12 -1.03315e+12 -997133000000.0 -956199000000.0 -906219000000.0 -843976000000.0 -763967000000.0 -728069000000.0 -545119000000.0 -803350000000.0 -552187000000.0 -656583000000.0 -689188000000.0 -708942000000.0 -607444000000.0 -630196000000.0 -398851000000.0 -433312000000.0 -336330000000.0 -154943000000.0 -115342000000.0 -233643000000.0 -425900000000.0 -242077000000.0 -407933000000.0 -419997000000.0 -435049000000.0 -450514000000.0 -556179000000.0 -418442000000.0 -459952000000.0 -519020000000.0 -1.26667e+12 -1.29188e+12 -1.31151e+12 -1.32519e+12 -1.33813e+12 -1.35721e+12 -1.38359e+12 -1.4151e+12 -1.44251e+12 -1.45775e+12 -1.45667e+12 -1.44272e+12 -1.421e+12 -1.39761e+12 -1.37816e+12 -1.35894e+12 -1.33845e+12 -1.31597e+12 -1.29113e+12 -1.26381e+12 -1.23412e+12 -1.20233e+12 -1.16864e+12 -1.13338e+12 -1.097e+12 -1.05968e+12 -1.02128e+12 -982243000000.0 -476984000000.0 -579061000000.0 -456710000000.0 -664221000000.0 -662876000000.0 -517514000000.0 -534611000000.0 -563571000000.0 -374142000000.0 -320107000000.0 -379508000000.0 -83043000000.0 -104162000000.0 -92431100000.0 -137581000000.0 -246518000000.0 -252744000000.0 -258090000000.0 -265979000000.0 -277930000000.0 -538952000000.0 -574634000000.0 -619378000000.0 -676656000000.0 -732068000000.0 -785143000000.0 -828918000000.0 -873546000000.0 -927194000000.0 -988809000000.0 -1.0447e+12 -1.0848e+12 -1.11545e+12 -1.13984e+12 -1.15816e+12 -1.16623e+12 -1.1777e+12 -1.2077e+12 -1.25592e+12 -1.30376e+12 -1.33476e+12 -1.34935e+12 -1.33565e+12 -1.30659e+12 -1.27252e+12 -1.25099e+12 -1.23085e+12 -1.20931e+12 -1.18523e+12 -1.15814e+12 -1.12786e+12 -1.09446e+12 -1.05825e+12 -943507000000.0 -905786000000.0 -869025000000.0 -832308000000.0 -794882000000.0 -754819000000.0 -710274000000.0 -655604000000.0 -586386000000.0 -563546000000.0 -449540000000.0 -500790000000.0 -463980000000.0 -343681000000.0 -352663000000.0 -136376000000.0 -269425000000.0 -229828000000.0 -76591500000.0 -94197500000.0 -87169700000.0 -87893200000.0 -377989000000.0 -267903000000.0 -335954000000.0 -294844000000.0 -311570000000.0 -354156000000.0 -400675000000.0 -485683000000.0 -555604000000.0 -597193000000.0 -638444000000.0 -685250000000.0 -758976000000.0 -852188000000.0 -902434000000.0 -937427000000.0 -966158000000.0 -989011000000.0 -1.0044e+12 -994621000000.0 -1.00009e+12 -1.07361e+12 -1.15669e+12 -1.20785e+12 -1.24201e+12 -1.255e+12 -1.20928e+12 -1.14709e+12 -1.12409e+12 -1.10424e+12 -1.08283e+12 -1.01959e+12 -978785000000.0 -936308000000.0 -892737000000.0 -848265000000.0 -802955000000.0 -757476000000.0 -712906000000.0 -670190000000.0 -629648000000.0 -590768000000.0 -552583000000.0 -510693000000.0 -467096000000.0 -414632000000.0 -406920000000.0 -360370000000.0 -424539000000.0 -309851000000.0 -256989000000.0 -272091000000.0 -316442000000.0 -289338000000.0 -364042000000.0 -113182000000.0 -104101000000.0 -94073800000.0 -88747300000.0 -90774700000.0 -96337600000.0 -212340000000.0 -161606000000.0 -95372600000.0 -91222300000.0 -96323600000.0 -117491000000.0 -164760000000.0 -353539000000.0 -368503000000.0 -400130000000.0 -434048000000.0 -482693000000.0 -630283000000.0 -727640000000.0 -756875000000.0 -787878000000.0 -816709000000.0 -838851000000.0 -850437000000.0 -1.0581e+12 -1.02941e+12 -996626000000.0 -959824000000.0 -919305000000.0 -875565000000.0 -829090000000.0 -780312000000.0 -729850000000.0 -678359000000.0 -626128000000.0 -573467000000.0 -521367000000.0 -471227000000.0 -424448000000.0 -382043000000.0 -344361000000.0 -310118000000.0 -264793000000.0 -249913000000.0 -247745000000.0 -231886000000.0 -249689000000.0 -201626000000.0 -94707200000.0 -112275000000.0 -145120000000.0 -104397000000.0 -90820800000.0 -93747500000.0 -763588000000.0 -819199000000.0 -996988000000.0 -1.07144e+12 -1.12756e+12 -1.16599e+12 -1.18472e+12 -1.01029e+12 -992312000000.0 -976634000000.0 -957960000000.0 -934312000000.0 -905126000000.0 -870454000000.0 -830593000000.0 -785946000000.0 -737080000000.0 -684690000000.0 -629383000000.0 -571710000000.0 -512411000000.0 -452218000000.0 -391579000000.0 -331180000000.0 -272427000000.0 -84097800000.0 -83826000000.0 -71535100000.0 -89265700000.0 -89450000000.0 -116220000000.0 -156978000000.0 -176581000000.0 -171380000000.0 -124557000000.0 -104796000000.0 -153327000000.0 -206156000000.0 -263035000000.0 -323628000000.0 -390563000000.0 -416291000000.0 -370984000000.0 -288053000000.0 -215707000000.0 -152151000000.0 -97990900000.0 -217227000000.0 -167938000000.0 -127370000000.0 -99121300000.0 -87284800000.0 -85699500000.0 -85100700000.0 
SCALARS Shear_Stress float 1
LOOKUP_TABLE default
27121000000.0 30482600000.0 30441600000.0 43283400000.0 29147600000.0 27998000000.0 16026400000.0 10159200000.0 51861300000.0 33901300000.0 4679640000.0 6245020000.0 28506100000.0 34831300000.0 5619440000.0 16653900000.0 68752700000.0 90522600000.0 69470200000.0 43847300000.0 57092300000.0 49855800000.0 103809000000.0 28143400000.0 8881840000.0 19128300000.0 40650100000.0 42420300000.0 49755100000.0 27330400000.0 54002800000.0 17790700000.0 20087600000.0 13115000000.0 24272700000.0 64813500000.0 31893600000.0 86598600000.0 92337300000.0 57146900000.0 38292900000.0 69251000000.0 87092900000.0 104318000000.0 33470200000.0 149544000000.0 98687600000.0 16745400000.0 35948300000.0 60557800000.0 70532100000.0 75797400000.0 15736400000.0 58070300000.0 93409100000.0 152461000000.0 15373100000.0 82219500000.0 86265200000.0 32357000000.0 23127200000.0 113577000000.0 6846760000.0 49978800000.0 74823600000.0 85333900000.0 92278900000.0 44236300000.0 46573200000.0 103274000000.0 151020000000.0 16995800000.0 110186000000.0 124915000000.0 73822000000.0 24440300000.0 219299000000.0 60242700000.0 26407400000.0 86471600000.0 85293900000.0 116625000000.0 88974200000.0 119389000000.0 100856000000.0 122541000000.0 105480000000.0 101128000000.0 59188500000.0 34896400000.0 23234200000.0 106141000000.0 97332100000.0 170336000000.0 164420000000.0 204080000000.0 194248000000.0 156699000000.0 192412000000.0 159670000000.0 169102000000.0 39360500000.0 8032400000.0 131774000000.0 144936000000.0 142042000000.0 140392000000.0 131498000000.0 83005000000.0 15013900000.0 211747000000.0 245648000000.0 283002000000.0 40276800000.0 151216000000.0 201315000000.0 220177000000.0 37897000000.0 204167000000.0 184197000000.0 174014000000.0 169627000000.0 160374000000.0 153906000000.0 127958000000.0 63364400000.0 66350500000.0 297425000000.0 304899000000.0 45824100000.0 200168000000.0 220225000000.0 67795100000.0 229338000000.0 116281000000.0 217877000000.0 238070000000.0 201991000000.0 207845000000.0 182202000000.0 188152000000.0 172202000000.0 179394000000.0 159218000000.0 157852000000.0 118075000000.0 109236000000.0 42212600000.0 39707600000.0 89006300000.0 91248700000.0 359276000000.0 361082000000.0 291791000000.0 257397000000.0 301146000000.0 287709000000.0 143521000000.0 191070000000.0 357053000000.0 227801000000.0 206409000000.0 204405000000.0 219776000000.0 267020000000.0 239140000000.0 203113000000.0 191695000000.0 182548000000.0 153327000000.0 105195000000.0 23180600000.0 50141900000.0 354940000000.0 107811000000.0 359841000000.0 78851900000.0 265405000000.0 200750000000.0 286888000000.0 273878000000.0 219616000000.0 197490000000.0 194540000000.0 182114000000.0 148535000000.0 96038100000.0 24684400000.0 9190410000.0 147139000000.0 319221000000.0 47088000000.0 276830000000.0 269778000000.0 298420000000.0 318831000000.0 241404000000.0 198045000000.0 198341000000.0 184143000000.0 194901000000.0 195380000000.0 196212000000.0 194742000000.0 177936000000.0 166811000000.0 138022000000.0 119113000000.0 81662500000.0 83543900000.0 72856000000.0 134029000000.0 164411000000.0 33673800000.0 154817000000.0 129490000000.0 229188000000.0 254720000000.0 289910000000.0 365955000000.0 461472000000.0 239686000000.0 540363000000.0 391290000000.0 300900000000.0 268082000000.0 207787000000.0 163844000000.0 178686000000.0 196261000000.0 185753000000.0 144427000000.0 97134600000.0 102899000000.0 277581000000.0 318821000000.0 206066000000.0 285103000000.0 621612000000.0 338311000000.0 218372000000.0 140155000000.0 145660000000.0 179354000000.0 192353000000.0 163929000000.0 110528000000.0 78745300000.0 126661000000.0 258796000000.0 517127000000.0 141540000000.0 117930000000.0 148816000000.0 336457000000.0 222968000000.0 142645000000.0 38793100000.0 97081200000.0 80980900000.0 141462000000.0 145264000000.0 180676000000.0 174405000000.0 175963000000.0 140157000000.0 125349000000.0 70025400000.0 69057900000.0 23143900000.0 58763700000.0 12078600000.0 21729800000.0 351086000000.0 631183000000.0 134631000000.0 180543000000.0 90007600.0 172099000000.0 63978100000.0 244439000000.0 154988000000.0 138314000000.0 44589700000.0 136630000000.0 56910100000.0 5014870000.0 82672400000.0 149155000000.0 148480000000.0 80861100000.0 5023060000.0 38886400000.0 89078600000.0 360369000000.0 281969000000.0 367339000000.0 282530000000.0 31810200000.0 127588000000.0 10136100000.0 93337800000.0 141260000000.0 94794900000.0 30178300.0 62606300000.0 101465000000.0 404543000000.0 704917000000.0 396896000000.0 409532000000.0 118878000000.0 41315800000.0 179986000000.0 343789000000.0 420019000000.0 87617300000.0 436956000000.0 147008000000.0 120031000000.0 4534040000.0 25917100000.0 102164000000.0 92550900000.0 101437000000.0 23349300000.0 10481100000.0 98699100000.0 84039500000.0 146229000000.0 118641000000.0 147434000000.0 138636000000.0 430526000000.0 734335000000.0 471922000000.0 501794000000.0 467565000000.0 502907000000.0 392252000000.0 191894000000.0 39477400000.0 287753000000.0 523738000000.0 307189000000.0 84011800000.0 40268800000.0 25571100000.0 91260500000.0 186394000000.0 167371000000.0 142115000000.0 478746000000.0 542603000000.0 480882000000.0 223670000000.0 473409000000.0 598463000000.0 222109000000.0 49379200000.0 24519500000.0 92146200000.0 233381000000.0 211113000000.0 143642000000.0 429236000000.0 716641000000.0 398941000000.0 471977000000.0 456064000000.0 602709000000.0 700594000000.0 359895000000.0 47615900000.0 420594000000.0 461641000000.0 268521000000.0 276640000000.0 315899000000.0 369889000000.0 250415000000.0 159523000000.0 119533000000.0 35010400000.0 62245100000.0 111856000000.0 319592000000.0 247865000000.0 445956000000.0 294998000000.0 181966000000.0 154602000000.0 86513000000.0 102031000000.0 403782000000.0 666238000000.0 346619000000.0 419994000000.0 702720000000.0 199080000000.0 202040000000.0 116179000000.0 246067000000.0 174250000000.0 134655000000.0 360482000000.0 655788000000.0 226527000000.0 69743700000.0 28241500000.0 279613000000.0 259979000000.0 314597000000.0 202463000000.0 75501500000.0 57228900000.0 40582900000.0 12515200000.0 153164000000.0 179783000000.0 112525000000.0 222712000000.0 762443000000.0 212110000000.0 275312000000.0 7336480000.0 45722400000.0 55900000000.0 8147690000.0 59412300000.0 363619000000.0 607913000000.0 168128000000.0 199638000000.0 90802900000.0 112946000000.0 36742800000.0 99085100000.0 765541000000.0 224021000000.0 86474500000.0 17823000000.0 122880000000.0 70373400000.0 109128000000.0 10656300000.0 105737000000.0 349790000000.0 703264000000.0 29582200000.0 140037000000.0 124855000000.0 110319000000.0 322187000000.0 562352000000.0 92056900000.0 13234100000.0 85847000000.0 593957000000.0 205004000000.0 96167500000.0 16984200000.0 22116700000.0 44486500000.0 229614000000.0 221330000000.0 227136000000.0 173932000000.0 138704000000.0 539836000000.0 92493300000.0 44467600000.0 21343100000.0 6090190000.0 37127500000.0 1523160000.0 196597000000.0 290606000000.0 374678000000.0 284210000000.0 191592000000.0 191751000000.0 109664000000.0 166615000000.0 99268700000.0 237390000000.0 821797000000.0 583349000000.0 286785000000.0 272475000000.0 301785000000.0 305241000000.0 311183000000.0 250459000000.0 249231000000.0 191667000000.0 192708000000.0 292455000000.0 57763800000.0 19439300000.0 16477600000.0 90680700000.0 269665000000.0 251673000000.0 218672000000.0 292681000000.0 277862000000.0 829410000000.0 909079000000.0 320144000000.0 236142000000.0 316169000000.0 295685000000.0 235317000000.0 283848000000.0 540178000000.0 37918900000.0 24300700000.0 10586700000.0 173810000000.0 255282000000.0 254652000000.0 292189000000.0 553748000000.0 486954000000.0 403464000000.0 148205000000.0 157926000000.0 249344000000.0 305922000000.0 270388000000.0 212465000000.0 556051000000.0 51343200000.0 46417800000.0 35022200000.0 37877400000.0 29854700000.0 6399330000.0 58476500000.0 124931000000.0 203840000000.0 224665000000.0 257458000000.0 277418000000.0 289897000000.0 354728000000.0 422895000000.0 458833000000.0 549339000000.0 213847000000.0 72642900000.0 147394000000.0 173743000000.0 262121000000.0 258900000000.0 282988000000.0 249014000000.0 237162000000.0 196231000000.0 301348000000.0 57337200000.0 46429000000.0 29804700000.0 48251000000.0 167646000000.0 247093000000.0 311220000000.0 384997000000.0 367092000000.0 313865000000.0 131308000000.0 69670500000.0 81182600000.0 196590000000.0 238897000000.0 203426000000.0 345942000000.0 579290000000.0 66082300000.0 56213300000.0 53404900000.0 42460300000.0 26466600000.0 592550000.0 45167000000.0 102980000000.0 146080000000.0 200812000000.0 228402000000.0 271962000000.0 330855000000.0 343957000000.0 204018000000.0 30302900000.0 26746100000.0 38340900000.0 113395000000.0 141340000000.0 201687000000.0 182855000000.0 200138000000.0 142442000000.0 147431000000.0 415868000000.0 604851000000.0 64277100000.0 43559100000.0 4021680000.0 91461400000.0 180180000000.0 246413000000.0 287349000000.0 278803000000.0 310909000000.0 248515000000.0 245044000000.0 73615800000.0 3593680000.0 69672800000.0 149203000000.0 135326000000.0 70673900000.0 74336300000.0 57791000000.0 23321200000.0 43808800000.0 130585000000.0 204245000000.0 247510000000.0 240410000000.0 158614000000.0 123404000000.0 21963100000.0 5229880000.0 37983300000.0 4183510000.0 98946900000.0 125233000000.0 60382700000.0 508523000000.0 630832000000.0 81720900000.0 70658900000.0 61120600000.0 43829700000.0 21433800000.0 6791750000.0 42278100000.0 83599500000.0 117727000000.0 160775000000.0 179983000000.0 214855000000.0 209334000000.0 227207000000.0 177119000000.0 60626600000.0 47722000000.0 36514200000.0 32991700000.0 65012800000.0 105385000000.0 69587600000.0 60487400000.0 40592500000.0 30840900000.0 621450000000.0 656955000000.0 76245800000.0 44499100000.0 7830780000.0 77108400000.0 143611000000.0 186597000000.0 188072000000.0 186806000000.0 131944000000.0 99113000000.0 16201100000.0 26822800000.0 86790800000.0 9499850000.0 69187000000.0 23833100000.0 156028000000.0 683636000000.0 88866300000.0 82037300000.0 64512000000.0 46166200000.0 20994600000.0 7586180000.0 40302300000.0 71828400000.0 107137000000.0 130234000000.0 159752000000.0 180766000000.0 154595000000.0 69459000000.0 65199300000.0 98525200000.0 156148000000.0 98145800000.0 77123800000.0 32215800000.0 15335900000.0 162139000000.0 303822000000.0 751669000000.0 96653300000.0 68790800000.0 21895900000.0 38343000000.0 99456800000.0 145658000000.0 165987000000.0 163793000000.0 164864000000.0 143008000000.0 114230000000.0 72830700000.0 5151300000.0 147966000000.0 200131000000.0 14070300000.0 35595400000.0 42397900000.0 121611000000.0 307066000000.0 892436000000.0 711525000000.0 105940000000.0 88937000000.0 49176600000.0 6594700000.0 68316000000.0 121695000000.0 154020000000.0 156135000000.0 120358000000.0 36315800000.0 57508800000.0 119102000000.0 245305000000.0 213031000000.0 14159000000.0 239609000000.0 465456000000.0 9035750000.0 741298000000.0 97727400000.0 74611600000.0 53827400000.0 23997300000.0 5276060000.0 37024900000.0 67193200000.0 95392100000.0 118507000000.0 138279000000.0 150006000000.0 157167000000.0 157897000000.0 147044000000.0 102767000000.0 11050600000.0 183342000000.0 383320000000.0 595444000000.0 124041000000.0 167713000000.0 118053000000.0 352312000000.0 464851000000.0 615848000000.0 1.02859e+12 117477000000.0 82560600000.0 27295300000.0 36829100000.0 95481600000.0 137513000000.0 158492000000.0 159615000000.0 141260000000.0 144085000000.0 96946400000.0 110943000000.0 5116370000.0 32381800000.0 255819000000.0 773856000000.0 137404000000.0 601293000000.0 1.13351e+12 773542000000.0 131859000000.0 109086000000.0 93210200000.0 60494300000.0 32029800000.0 3784450000.0 37935200000.0 68913200000.0 100131000000.0 120976000000.0 143356000000.0 152972000000.0 165860000000.0 166049000000.0 161295000000.0 154312000000.0 118194000000.0 360678000000.0 80240900000.0 533522000000.0 52807600000.0 397033000000.0 725246000000.0 709828000000.0 1.12419e+12 9035750000.0 808665000000.0 123568000000.0 69684200000.0 1907390000.0 73658800000.0 129507000000.0 162686000000.0 165874000000.0 177321000000.0 174416000000.0 186309000000.0 180955000000.0 198475000000.0 236100000000.0 335564000000.0 427663000000.0 902417000000.0 594878000000.0 549060000000.0 846805000000.0 149461000000.0 141559000000.0 107109000000.0 82016500000.0 38732700000.0 990886000.0 40101800000.0 109615000000.0 156399000000.0 179111000000.0 188149000000.0 203012000000.0 207483000000.0 246219000000.0 258053000000.0 329782000000.0 356948000000.0 339629000000.0 288369000000.0 320168000000.0 1.93185e+12 504130000000.0 113006000000.0 947920000000.0 170376000000.0 124711000000.0 48189900000.0 42579500000.0 81212300000.0 123882000000.0 144675000000.0 177864000000.0 180277000000.0 200396000000.0 192478000000.0 201867000000.0 198468000000.0 224250000000.0 289548000000.0 335490000000.0 190819000000.0 571260000000.0 1.88629e+12 37275900000.0 141613000000.0 766220000000.0 887711000000.0 194290000000.0 163179000000.0 146209000000.0 98101100000.0 61292700000.0 5942200000.0 90778600000.0 166809000000.0 208184000000.0 215346000000.0 204972000000.0 206986000000.0 209999000000.0 245490000000.0 252957000000.0 303654000000.0 275007000000.0 242336000000.0 143835000000.0 185681000000.0 430122000000.0 392859000000.0 202850000000.0 737179000000.0 9035750000.0 930553000000.0 188094000000.0 118309000000.0 14262500000.0 44073600000.0 100828000000.0 142194000000.0 195320000000.0 208759000000.0 248523000000.0 234341000000.0 222435000000.0 197410000000.0 200750000000.0 244346000000.0 220551000000.0 195634000000.0 1.32709e+12 562233000000.0 17484000000.0 21544900000.0 973698000000.0 220243000000.0 215283000000.0 171283000000.0 78814200000.0 42768400000.0 162838000000.0 248737000000.0 284806000000.0 254401000000.0 265346000000.0 216845000000.0 190860000000.0 172749000000.0 180252000000.0 259150000000.0 191030000000.0 262465000000.0 450609000000.0 560380000000.0 386908000000.0 337131000000.0 904274000000.0 246464000000.0 198854000000.0 142501000000.0 101132000000.0 27374000000.0 36537700000.0 109121000000.0 183238000000.0 228355000000.0 301202000000.0 316094000000.0 262818000000.0 134312000000.0 127612000000.0 71839300000.0 175728000000.0 279187000000.0 269905000000.0 240997000000.0 273407000000.0 469143000000.0 525750000000.0 1.12557e+12 1.01449e+12 270289000000.0 242876000000.0 169769000000.0 46566000000.0 112978000000.0 263002000000.0 295691000000.0 363514000000.0 351692000000.0 399491000000.0 340685000000.0 357220000000.0 241735000000.0 34770800000.0 44881200000.0 326597000000.0 164269000000.0 89726900000.0 367537000000.0 550719000000.0 535482000000.0 1.25189e+12 1.04914e+12 268281000000.0 226968000000.0 198270000000.0 127998000000.0 72757800000.0 23237700000.0 109774000000.0 200381000000.0 346293000000.0 430947000000.0 444247000000.0 365806000000.0 197379000000.0 125869000000.0 125694000000.0 369389000000.0 265477000000.0 237995000000.0 143060000000.0 14425300000.0 28864800000.0 161839000000.0 396975000000.0 598459000000.0 1.07271e+12 288354000000.0 288574000000.0 252841000000.0 158377000000.0 982250000.0 211515000000.0 296057000000.0 397226000000.0 431410000000.0 517017000000.0 497446000000.0 486201000000.0 370051000000.0 17487900000.0 408773000000.0 20856400000.0 121988000000.0 441492000000.0 566391000000.0 606856000000.0 1.30368e+12 297321000000.0 273352000000.0 225330000000.0 190553000000.0 106653000000.0 31381200000.0 97554400000.0 325041000000.0 501281000000.0 601614000000.0 562420000000.0 624559000000.0 526658000000.0 569189000000.0 380673000000.0 413136000000.0 190397000000.0 158617000000.0 18544700000.0 117809000000.0 49427100000.0 164192000000.0 281734000000.0 565102000000.0 1.32362e+12 1.07976e+12 295870000000.0 301630000000.0 247485000000.0 148715000000.0 76228500000.0 215228000000.0 349363000000.0 446389000000.0 605517000000.0 682262000000.0 681711000000.0 617397000000.0 656722000000.0 939820000000.0 1.37758e+12 45239300000.0 319499000000.0 461973000000.0 547283000000.0 587194000000.0 1.33477e+12 1.06745e+12 308631000000.0 285649000000.0 260105000000.0 221638000000.0 199217000000.0 73229200000.0 213292000000.0 494180000000.0 571256000000.0 693464000000.0 705509000000.0 794097000000.0 753616000000.0 808344000000.0 730733000000.0 728965000000.0 624510000000.0 421980000000.0 378285000000.0 699569000000.0 137886000000.0 462008000000.0 557276000000.0 1.04204e+12 289791000000.0 318746000000.0 288161000000.0 246015000000.0 119339000000.0 50413700000.0 215549000000.0 372922000000.0 641073000000.0 803855000000.0 860773000000.0 845142000000.0 786053000000.0 732188000000.0 327434000000.0 650946000000.0 327559000000.0 226373000000.0 99895600000.0 318957000000.0 457574000000.0 529686000000.0 548962000000.0 1.36887e+12 301118000000.0 282884000000.0 255980000000.0 251697000000.0 258071000000.0 37721800000.0 405191000000.0 543655000000.0 710207000000.0 778248000000.0 889616000000.0 896871000000.0 814875000000.0 539366000000.0 385067000000.0 335870000000.0 354857000000.0 21552700000.0 325819000000.0 539826000000.0 597876000000.0 1.47189e+12 987363000000.0 402218000000.0 359684000000.0 302013000000.0 227458000000.0 130098000000.0 295687000000.0 144370000000.0 66801000000.0 241096000000.0 598571000000.0 851808000000.0 889401000000.0 957478000000.0 935862000000.0 926595000000.0 879500000000.0 796566000000.0 692390000000.0 565512000000.0 334531000000.0 89065200000.0 100947000000.0 206809000000.0 366018000000.0 487013000000.0 641346000000.0 1.68489e+12 748158000000.0 983585000000.0 571500000000.0 14651300000.0 310429000000.0 115731000000.0 316434000000.0 459687000000.0 768224000000.0 948689000000.0 963047000000.0 858289000000.0 693076000000.0 462181000000.0 319782000000.0 200208000000.0 43143000000.0 193913000000.0 212421000000.0 509312000000.0 678198000000.0 820325000000.0 2.33416e+12 1768650000.0 1.34779e+12 570205000000.0 104394000000.0 539348000000.0 237837000000.0 341790000000.0 14048500000.0 177423000000.0 534611000000.0 650097000000.0 768804000000.0 889137000000.0 969588000000.0 988294000000.0 897607000000.0 763032000000.0 700802000000.0 637638000000.0 512130000000.0 92160900000.0 85978300000.0 43581300000.0 47382100000.0 218952000000.0 283366000000.0 861677000000.0 1.62685e+12 1.95393e+12 802465000000.0 989450000000.0 267796000000.0 890397000000.0 106492000000.0 1.25375e+12 394850000000.0 429769000000.0 330429000000.0 457363000000.0 617916000000.0 858573000000.0 989014000000.0 936302000000.0 798479000000.0 782821000000.0 672414000000.0 724538000000.0 251648000000.0 139973000000.0 195320000000.0 419844000000.0 88154500000.0 784278000000.0 163347000000.0 274636000000.0 1.25063e+12 1.00935e+12 133920000000.0 851335000000.0 249870000000.0 157196000000.0 106115000000.0 43607900000.0 74014300000.0 37492600000.0 380413000000.0 476304000000.0 496493000000.0 676202000000.0 928494000000.0 864882000000.0 617330000000.0 640459000000.0 468856000000.0 82603800000.0 26072800000.0 83637400000.0 238292000000.0 682220000000.0 704845000000.0 846498000000.0 780102000000.0 130231000000.0 216474000000.0 847456000000.0 495700000000.0 755632000000.0 846514000000.0 466018000000.0 7954300000.0 98312800000.0 807047000000.0 142557000000.0 234713000000.0 291034000000.0 105718000000.0 136163000000.0 263715000000.0 828759000000.0 165401000000.0 414330000000.0 467714000000.0 711386000000.0 749926000000.0 955980000000.0 722893000000.0 655121000000.0 470662000000.0 444612000000.0 266024000000.0 742689000000.0 51855500000.0 206907000000.0 206449000000.0 897427000000.0 870375000000.0 669337000000.0 622566000000.0 151965000000.0 586007000000.0 703152000000.0 394946000000.0 152838000000.0 313308000000.0 269464000000.0 489700000000.0 266547000000.0 77936300000.0 146945000000.0 534231000000.0 495446000000.0 531970000000.0 61694400000.0 279767000000.0 12367300000.0 293448000000.0 404517000000.0 328514000000.0 831245000000.0 496748000000.0 367580000000.0 195352000000.0 327723000000.0 224587000000.0 402649000000.0 309881000000.0 434931000000.0 1.14946e+12 16072500000.0 38283400000.0 46823000000.0 273558000000.0 301344000000.0 642916000000.0 460497000000.0 691934000000.0 406797000000.0 441000000000.0 270651000000.0 339671000000.0 151929000000.0 494468000000.0 165452000000.0 1.28246e+12 96247200000.0 480924000000.0 358445000000.0 484071000000.0 199152000000.0 78906700000.0 215298000000.0 452501000000.0 684457000000.0 196690000000.0 35241500000.0 397020000000.0 526131000000.0 140695000000.0 987108000000.0 158815000000.0 1.1052e+12 448175000000.0 153079000000.0 333934000000.0 228413000000.0 1.3092e+12 454107000000.0 162511000000.0 337765000000.0 707967000000.0 154037000000.0 875027000000.0 643379000000.0 372761000000.0 343160000000.0 262492000000.0 434289000000.0 126959000000.0 221788000000.0 632098000000.0 519970000000.0 828587000000.0 229150000000.0 320637000000.0 168425000000.0 157832000000.0 338789000000.0 298138000000.0 172836000000.0 157553000000.0 176215000000.0 415548000000.0 897754000000.0 288539000000.0 525528000000.0 101088000000.0 429903000000.0 498741000000.0 658797000000.0 581196000000.0 1.09261e+12 1.05705e+12 250090000000.0 174271000000.0 687556000000.0 373115000000.0 126075000000.0 583144000000.0 332057000000.0 9862580000.0 42235800000.0 149042000000.0 63920500000.0 250651000000.0 167892000000.0 109392000000.0 655601000000.0 121187000000.0 77201900000.0 626449000000.0 138939000000.0 326025000000.0 326211000000.0 202246000000.0 378121000000.0 397079000000.0 130814000000.0 301035000000.0 29153700000.0 120310000000.0 159470000000.0 128195000000.0 231348000000.0 214644000000.0 144717000000.0 236426000000.0 626579000000.0 309974000000.0 1.26553e+12 721236000000.0 800751000000.0 601310000000.0 418682000000.0 451805000000.0 211332000000.0 261366000000.0 382259000000.0 216745000000.0 854001000000.0 429167000000.0 15720400000.0 74011100000.0 599367000000.0 8120530000.0 458158000000.0 653043000000.0 513698000000.0 186547000000.0 612036000000.0 348488000000.0 360699000000.0 399404000000.0 454138000000.0 489799000000.0 143506000000.0 176134000000.0 1.10082e+12 402761000000.0 456886000000.0 177564000000.0 164092000000.0 116188000000.0 88371600000.0 164363000000.0 158763000000.0 166879000000.0 409161000000.0 1.42795e+12 586849000000.0 992858000000.0 1.07466e+12 1.12892e+12 783657000000.0 56518800000.0 998458000000.0 491480000000.0 815270000000.0 412485000000.0 363027000000.0 313309000000.0 258971000000.0 489116000000.0 182484000000.0 132407000000.0 111328000000.0 110873000000.0 300368000000.0 526690000000.0 122926000000.0 697897000000.0 190328000000.0 659254000000.0 166585000000.0 182141000000.0 92158100000.0 46126400000.0 409745000000.0 240663000000.0 411495000000.0 717269000000.0 197619000000.0 576044000000.0 199415000000.0 74877400000.0 270678000000.0 183585000000.0 84410200000.0 77071800000.0 131583000000.0 137415000000.0 246651000000.0 1.03388e+12 582421000000.0 736690000000.0 84918100000.0 1.05979e+12 1.28253e+12 900938000000.0 541683000000.0 1.12725e+12 396266000000.0 743144000000.0 479789000000.0 279311000000.0 264603000000.0 215237000000.0 21169200000.0 102560000000.0 178667000000.0 387928000000.0 75204300000.0 48191700000.0 330517000000.0 131097000000.0 81056500000.0 129099000000.0 843648000000.0 712877000000.0 340338000000.0 567676000000.0 60021000000.0 60219300000.0 484070000000.0 144641000000.0 454232000000.0 283629000000.0 418019000000.0 665086000000.0 677480000000.0 524374000000.0 459552000000.0 343624000000.0 326712000000.0 244617000000.0 143109000000.0 45032000000.0 4302780000.0 96772400000.0 147667000000.0 174375000000.0 876568000000.0 271198000000.0 325755000000.0 430871000000.0 157444000000.0 720224000000.0 208925000000.0 190619000000.0 365799000000.0 319716000000.0 505909000000.0 374744000000.0 328112000000.0 269443000000.0 158236000000.0 9942050000.0 80083600000.0 161793000000.0 222963000000.0 120308000000.0 234470000000.0 16892400000.0 320802000000.0 624738000000.0 138863000000.0 98622100000.0 574994000.0 748042000000.0 149741000000.0 344143000000.0 338861000000.0 60212700000.0 676517000000.0 144260000000.0 117363000000.0 610737000000.0 96023500000.0 632383000000.0 85551900000.0 378174000000.0 22128200000.0 947460000000.0 280537000000.0 402605000000.0 414644000000.0 276524000000.0 181709000000.0 85053200000.0 81796400000.0 184205000000.0 290247000000.0 446775000000.0 430243000000.0 94284700000.0 646603000000.0 485968000000.0 405485000000.0 1.58378e+12 1.13784e+12 109200000000.0 205114000000.0 403756000000.0 346162000000.0 285416000000.0 174363000000.0 34633600000.0 73344700000.0 146164000000.0 165178000000.0 150736000000.0 215794000000.0 247135000000.0 71931600000.0 251775000000.0 214449000000.0 37638700000.0 426558000000.0 1.02319e+12 32885100000.0 156839000000.0 310639000000.0 721634000000.0 544652000000.0 392283000000.0 9153310000.0 193903000000.0 545314000000.0 167057000000.0 185555000000.0 853675000000.0 8179720000.0 1.16107e+12 1.08055e+12 1.08409e+12 842652000000.0 532793000000.0 398554000000.0 165064000000.0 95199300000.0 8632110000.0 189986000000.0 324508000000.0 486484000000.0 726824000000.0 589595000000.0 566988000000.0 122654000000.0 170367000000.0 637957000000.0 438630000000.0 441491000000.0 189247000000.0 279776000000.0 657292000000.0 357654000000.0 337584000000.0 284250000000.0 184906000000.0 36546600000.0 64523200000.0 144221000000.0 179534000000.0 192145000000.0 273522000000.0 169981000000.0 251535000000.0 208052000000.0 8776420000.0 336272000000.0 70519100000.0 40561700000.0 651755000000.0 451176000000.0 185049000000.0 61798600000.0 475744000000.0 105655000000.0 280050000000.0 319583000000.0 464682000000.0 477840000000.0 213448000000.0 576087000000.0 467930000000.0 785866000000.0 163725000000.0 389646000000.0 1.11348e+12 108703000000.0 403999000000.0 30129500000.0 167859000000.0 204817000000.0 95551900000.0 16918700000.0 79148100000.0 322612000000.0 485121000000.0 680602000000.0 762248000000.0 851940000000.0 816313000000.0 990181000000.0 1.11104e+12 543916000000.0 1.85588e+12 1.07917e+12 424118000000.0 159430000000.0 569358000000.0 497417000000.0 429862000000.0 390011000000.0 310772000000.0 206398000000.0 55907200000.0 58841800000.0 144532000000.0 197072000000.0 212102000000.0 259895000000.0 230996000000.0 260306000000.0 197265000000.0 32316700000.0 62977000000.0 174934000000.0 436653000000.0 322242000000.0 284633000000.0 343362000000.0 408880000000.0 369546000000.0 477830000000.0 322270000000.0 351752000000.0 266867000000.0 181208000000.0 86159300000.0 380306000000.0 48995300000.0 192192000000.0 31142000000.0 245727000000.0 274645000000.0 135631000000.0 249506000000.0 270051000000.0 62904700000.0 203163000000.0 166591000000.0 589499000000.0 89775400000.0 204229000000.0 188432000000.0 155827000000.0 17523700000.0 74132100000.0 187382000000.0 630359000000.0 776592000000.0 908864000000.0 970391000000.0 1.05938e+12 1.05484e+12 672073000000.0 1.24486e+12 1.46504e+12 552821000000.0 593983000000.0 536704000000.0 454222000000.0 366138000000.0 81151200000.0 38954600000.0 137849000000.0 207160000000.0 236746000000.0 281066000000.0 276472000000.0 305602000000.0 272600000000.0 173586000000.0 174888000000.0 58766300000.0 20505500000.0 45731200000.0 150316000000.0 131380000000.0 508072000000.0 850471000000.0 340892000000.0 593499000000.0 202846000000.0 242257000000.0 205436000000.0 318108000000.0 332051000000.0 191588000000.0 506966000000.0 593363000000.0 259409000000.0 297725000000.0 215164000000.0 121126000000.0 268911000000.0 312276000000.0 4631130000.0 71987000000.0 347915000000.0 82470500000.0 138219000000.0 122648000000.0 86047200000.0 62961700000.0 171193000000.0 302427000000.0 455258000000.0 871749000000.0 973524000000.0 1.04864e+12 1.04888e+12 863991000000.0 846463000000.0 433404000000.0 404980000000.0 570626000000.0 568269000000.0 511208000000.0 419930000000.0 251509000000.0 122588000000.0 4201800000.0 115876000000.0 204175000000.0 259676000000.0 306468000000.0 321306000000.0 342522000000.0 331691000000.0 276228000000.0 268077000000.0 213778000000.0 181456000000.0 264646000000.0 375259000000.0 172270000000.0 389034000000.0 387328000000.0 548819000000.0 143982000000.0 7248400000.0 55719400000.0 648537000000.0 294781000000.0 244918000000.0 326925000000.0 708760000000.0 134791000000.0 473616000000.0 664694000000.0 284802000000.0 80939200000.0 63516800000.0 117361000000.0 213355000000.0 175316000000.0 316376000000.0 228945000000.0 197487000000.0 296598000000.0 124945000000.0 122284000000.0 80312400000.0 21601500000.0 142133000000.0 266003000000.0 409334000000.0 569005000000.0 726121000000.0 968945000000.0 1.08411e+12 945989000000.0 613724000000.0 481219000000.0 492479000000.0 555715000000.0 530941000000.0 305743000000.0 175071000000.0 42856800000.0 79293600000.0 273527000000.0 330812000000.0 362192000000.0 385367000000.0 382118000000.0 345274000000.0 331595000000.0 300150000000.0 291338000000.0 374765000000.0 509238000000.0 503800000000.0 125145000000.0 487553000000.0 471663000000.0 186755000000.0 20749700000.0 768946000000.0 205891000000.0 208216000000.0 276461000000.0 125581000000.0 74001000000.0 97231900000.0 58993000000.0 768082000000.0 229771000000.0 163352000000.0 60487900000.0 36062300000.0 36388100000.0 211815000000.0 98932700000.0 228300000000.0 371514000000.0 284352000000.0 255562000000.0 273609000000.0 152174000000.0 107647000000.0 41384100000.0 39534600000.0 217998000000.0 351348000000.0 497983000000.0 649227000000.0 795568000000.0 914534000000.0 998067000000.0 1.02164e+12 940563000000.0 930933000000.0 954552000000.0 889315000000.0 722366000000.0 563546000000.0 515435000000.0 526618000000.0 456392000000.0 349676000000.0 224793000000.0 93019600000.0 34038800000.0 183965000000.0 271355000000.0 344482000000.0 396667000000.0 432945000000.0 442580000000.0 418083000000.0 385323000000.0 356003000000.0 347418000000.0 410244000000.0 512384000000.0 543814000000.0 376521000000.0 526020000000.0 606088000000.0 468329000000.0 263243000000.0 17827300000.0 1.37757e+12 569069000000.0 152560000000.0 191837000000.0 226645000000.0 124439000000.0 157375000000.0 398276000000.0 968656000000.0 214882000000.0 56007800000.0 93994900000.0 197260000000.0 207077000000.0 246463000000.0 282572000000.0 358977000000.0 397827000000.0 441331000000.0 404546000000.0 297777000000.0 265023000000.0 160805000000.0 85359300000.0 1403260000.0 100989000000.0 420708000000.0 562726000000.0 703421000000.0 828521000000.0 923895000000.0 971018000000.0 948559000000.0 923202000000.0 907212000000.0 858103000000.0 754103000000.0 636462000000.0 560015000000.0 528892000000.0 471763000000.0 379388000000.0 264291000000.0 138777000000.0 13326700000.0 148785000000.0 249692000000.0 338484000000.0 411868000000.0 470584000000.0 506175000000.0 508102000000.0 440469000000.0 544541000000.0 695864000000.0 541755000000.0 197821000000.0 617600000000.0 589438000000.0 444720000000.0 192525000000.0 73202600000.0 1.50811e+12 447056000000.0 221961000000.0 534780000000.0 113133000000.0 403054000000.0 315123000000.0 326987000000.0 272923000000.0 404520000000.0 246630000000.0 371403000000.0 500252000000.0 333803000000.0 192872000000.0 292316000000.0 343439000000.0 366711000000.0 383075000000.0 459658000000.0 486951000000.0 490413000000.0 494340000000.0 437193000000.0 340434000000.0 312586000000.0 246867000000.0 144763000000.0 49898900000.0 50749400000.0 161056000000.0 284925000000.0 607685000000.0 732136000000.0 835759000000.0 902840000000.0 918461000000.0 905839000000.0 881992000000.0 839902000000.0 766039000000.0 535838000000.0 518856000000.0 477209000000.0 398058000000.0 294650000000.0 178376000000.0 104834000000.0 212918000000.0 311305000000.0 399194000000.0 477451000000.0 542247000000.0 481078000000.0 414243000000.0 391054000000.0 529513000000.0 892924000000.0 698663000000.0 428298000000.0 557540000000.0 541801000000.0 451797000000.0 259151000000.0 1.02045e+12 331399000000.0 199281000000.0 513796000000.0 362464000000.0 81188000000.0 87965600000.0 448316000000.0 509751000000.0 480554000000.0 382238000000.0 512850000000.0 504300000000.0 352117000000.0 95123900000.0 197695000000.0 340269000000.0 328642000000.0 420958000000.0 475516000000.0 497502000000.0 536260000000.0 567527000000.0 562394000000.0 547287000000.0 529888000000.0 467631000000.0 375429000000.0 217631000000.0 113039000000.0 8455680000.0 100316000000.0 216259000000.0 341656000000.0 474239000000.0 864637000000.0 676744000000.0 604959000000.0 557864000000.0 523826000000.0 479817000000.0 411371000000.0 319017000000.0 212689000000.0 58463100000.0 58368500000.0 168261000000.0 270175000000.0 363835000000.0 450583000000.0 530594000000.0 585785000000.0 601319000000.0 566269000000.0 441493000000.0 438040000000.0 1.18562e+12 870431000000.0 606060000000.0 588030000000.0 589201000000.0 410894000000.0 240169000000.0 39863200000.0 488309000000.0 274329000000.0 477520000000.0 313745000000.0 67178200000.0 240986000000.0 96900800000.0 458982000000.0 651215000000.0 616963000000.0 747932000000.0 574484000000.0 763967000000.0 700108000000.0 516623000000.0 374632000000.0 322908000000.0 456477000000.0 500387000000.0 573274000000.0 609545000000.0 626646000000.0 635248000000.0 631477000000.0 612127000000.0 583391000000.0 543213000000.0 472671000000.0 380291000000.0 301596000000.0 75328300000.0 34345800000.0 147148000000.0 264852000000.0 387873000000.0 513522000000.0 634847000000.0 741879000000.0 822433000000.0 872772000000.0 857682000000.0 823706000000.0 768336000000.0 699699000000.0 634505000000.0 581828000000.0 536898000000.0 487513000000.0 422804000000.0 340025000000.0 99938900000.0 12958200000.0 121473000000.0 223327000000.0 317642000000.0 404873000000.0 603449000000.0 669970000000.0 718732000000.0 707765000000.0 466009000000.0 363297000000.0 1.77847e+12 1.17224e+12 823890000000.0 682230000000.0 608581000000.0 525676000000.0 316505000000.0 148472000000.0 234222000000.0 395577000000.0 95769400000.0 327141000000.0 477513000000.0 180331000000.0 163766000000.0 135496000000.0 385680000000.0 434064000000.0 623412000000.0 855478000000.0 1.0304e+12 614697000000.0 735009000000.0 927494000000.0 508528000000.0 192875000000.0 486009000000.0 623018000000.0 672793000000.0 710054000000.0 718881000000.0 708144000000.0 690038000000.0 667119000000.0 635017000000.0 591481000000.0 533020000000.0 456379000000.0 365168000000.0 276565000000.0 182662000000.0 75610800000.0 189172000000.0 305481000000.0 423804000000.0 540235000000.0 647635000000.0 736262000000.0 796201000000.0 824473000000.0 825143000000.0 803677000000.0 763199000000.0 709839000000.0 653214000000.0 600472000000.0 551250000000.0 498571000000.0 435431000000.0 242907000000.0 137707000000.0 30034500000.0 75352100000.0 175448000000.0 268640000000.0 485596000000.0 561396000000.0 638070000000.0 726088000000.0 847336000000.0 1.03227e+12 452491000000.0 842293000000.0 504404000000.0 527113000000.0 546932000000.0 536442000000.0 493709000000.0 421522000000.0 400580000000.0 1757220000.0 332718000000.0 226856000000.0 143280000000.0 660324000000.0 493146000000.0 195157000000.0 275902000000.0 202306000000.0 295287000000.0 564097000000.0 754729000000.0 828033000000.0 1.06075e+12 653398000000.0 853924000000.0 966307000000.0 1.30232e+12 426750000000.0 477467000000.0 721835000000.0 800219000000.0 808410000000.0 800982000000.0 777931000000.0 746469000000.0 713280000000.0 677001000000.0 632627000000.0 578003000000.0 510007000000.0 429202000000.0 338663000000.0 244527000000.0 144660000000.0 35843800000.0 225550000000.0 338649000000.0 450367000000.0 556040000000.0 648670000000.0 719996000000.0 764579000000.0 782027000000.0 775562000000.0 749530000000.0 709455000000.0 661997000000.0 612817000000.0 563150000000.0 358962000000.0 270085000000.0 172276000000.0 70487700000.0 30760900000.0 128137000000.0 219630000000.0 354271000000.0 431614000000.0 499455000000.0 556026000000.0 595322000000.0 599377000000.0 510547000000.0 28103500000.0 411563000000.0 1.0993e+12 661826000000.0 575187000000.0 519288000000.0 456808000000.0 415041000000.0 391025000000.0 665491000000.0 350510000000.0 311957000000.0 378216000000.0 205899000000.0 1.09985e+12 755016000000.0 531133000000.0 390875000000.0 314761000000.0 223688000000.0 275137000000.0 191135000000.0 346590000000.0 442245000000.0 562028000000.0 980160000000.0 1.28828e+12 1.28907e+12 202718000000.0 1.36718e+12 2.00939e+12 341175000000.0 659347000000.0 854307000000.0 918761000000.0 902469000000.0 865408000000.0 830143000000.0 792726000000.0 753603000000.0 712818000000.0 667243000000.0 614289000000.0 552861000000.0 479927000000.0 396287000000.0 305303000000.0 208555000000.0 105819000000.0 2738370000.0 113349000000.0 468401000000.0 562359000000.0 640555000000.0 697241000000.0 729535000000.0 738172000000.0 726432000000.0 699059000000.0 661388000000.0 509770000000.0 448511000000.0 376862000000.0 294661000000.0 203940000000.0 108340000000.0 11985600000.0 81815900000.0 304059000000.0 380389000000.0 447253000000.0 502516000000.0 540952000000.0 549897000000.0 499373000000.0 293292000000.0 569833000000.0 886913000000.0 1.07628e+12 851400000000.0 729204000000.0 546451000000.0 398904000000.0 395552000000.0 1.02497e+12 617270000000.0 441677000000.0 321789000000.0 487120000000.0 1.13589e+12 685828000000.0 346461000000.0 287551000000.0 324556000000.0 17731100000.0 95767100000.0 143065000000.0 70756200000.0 251914000000.0 461432000000.0 640948000000.0 662995000000.0 1.76318e+12 740178000000.0 801778000000.0 1.01604e+12 627990000000.0 1.19924e+12 1.01488e+12 940227000000.0 892257000000.0 853299000000.0 696141000000.0 645552000000.0 587609000000.0 521135000000.0 445223000000.0 360331000000.0 268577000000.0 171123000000.0 68349900000.0 38880600000.0 147788000000.0 257069000000.0 364972000000.0 617979000000.0 570817000000.0 519021000000.0 460421000000.0 393221000000.0 316926000000.0 232754000000.0 143442000000.0 52380600000.0 170768000000.0 253362000000.0 328369000000.0 394427000000.0 449659000000.0 490283000000.0 508657000000.0 491258000000.0 415493000000.0 587896000000.0 837432000000.0 1.0108e+12 924556000000.0 561934000000.0 184000000000.0 1.67816e+12 916179000000.0 548313000000.0 433442000000.0 695700000000.0 360021000000.0 321632000000.0 285949000000.0 317448000000.0 245408000000.0 281725000000.0 448013000000.0 45931300000.0 258844000000.0 818567000000.0 154051000000.0 411217000000.0 496304000000.0 517286000000.0 546363000000.0 607268000000.0 637859000000.0 901537000000.0 248197000000.0 1.02357e+12 1.31177e+12 795460000000.0 70315300000.0 632226000000.0 768120000000.0 820091000000.0 818394000000.0 781579000000.0 741100000000.0 485990000000.0 408214000000.0 322849000000.0 231327000000.0 134130000000.0 32033400000.0 73148200000.0 178882000000.0 283492000000.0 384622000000.0 478675000000.0 560813000000.0 625853000000.0 670060000000.0 692340000000.0 694286000000.0 679361000000.0 651882000000.0 615764000000.0 573310000000.0 524970000000.0 469990000000.0 407347000000.0 336650000000.0 258702000000.0 175550000000.0 37245000000.0 123000000000.0 203152000000.0 276361000000.0 341312000000.0 396479000000.0 439504000000.0 466610000000.0 473346000000.0 461754000000.0 983435000000.0 1.08271e+12 1.29886e+12 680908000000.0 371084000000.0 1786840000.0 17834600000.0 77225100000.0 173559000000.0 753583000000.0 618267000000.0 337105000000.0 222124000000.0 1.02105e+12 1.33749e+12 371939000000.0 180930000000.0 42914300000.0 243835000000.0 130770000000.0 982680000000.0 686518000000.0 365076000000.0 476386000000.0 551848000000.0 656953000000.0 974118000000.0 791616000000.0 19435300000.0 882031000000.0 991623000000.0 737260000000.0 363509000000.0 620918000000.0 829257000000.0 816623000000.0 792371000000.0 758854000000.0 717865000000.0 670628000000.0 616736000000.0 555346000000.0 285005000000.0 193705000000.0 97252200000.0 2855580000.0 104741000000.0 206133000000.0 304869000000.0 398197000000.0 482295000000.0 552882000000.0 606164000000.0 639964000000.0 654336000000.0 651367000000.0 634300000000.0 606443000000.0 570239000000.0 526869000000.0 476472000000.0 418746000000.0 353597000000.0 90025100000.0 4988140000.0 77144700000.0 154480000000.0 225528000000.0 288995000000.0 343686000000.0 388391000000.0 421809000000.0 444040000000.0 578222000000.0 760884000000.0 903922000000.0 995236000000.0 1.07868e+12 1.13582e+12 242915000000.0 239405000000.0 179319000000.0 642543000000.0 523672000000.0 496841000000.0 293672000000.0 294730000000.0 846865000000.0 301900000000.0 711097000000.0 439596000000.0 97263900000.0 72161900000.0 302628000000.0 222511000000.0 86034900000.0 330323000000.0 513302000000.0 553958000000.0 676330000000.0 937067000000.0 1.06775e+12 873131000000.0 582610000000.0 867001000000.0 875846000000.0 730586000000.0 781656000000.0 795705000000.0 787421000000.0 764596000000.0 730881000000.0 688739000000.0 639470000000.0 583422000000.0 520108000000.0 448989000000.0 370337000000.0 61388600000.0 35779200000.0 133521000000.0 229578000000.0 321424000000.0 406143000000.0 480216000000.0 540096000000.0 583132000000.0 608305000000.0 616414000000.0 609626000000.0 590598000000.0 561659000000.0 524349000000.0 479406000000.0 427074000000.0 281674000000.0 204575000000.0 124614000000.0 44338900000.0 33906700000.0 108153000000.0 176817000000.0 238621000000.0 292555000000.0 337959000000.0 463994000000.0 553111000000.0 691027000000.0 810533000000.0 875617000000.0 881669000000.0 812964000000.0 568090000000.0 139572000000.0 224508000000.0 11943600000.0 290484000000.0 136707000000.0 301391000000.0 300707000000.0 605635000000.0 290286000000.0 27168000000.0 305362000000.0 61339400000.0 412738000000.0 415966000000.0 55434600000.0 29495700000.0 132200000000.0 109562000000.0 381226000000.0 160349000000.0 250085000000.0 213768000000.0 854161000000.0 1.04603e+12 480958000000.0 601277000000.0 880563000000.0 1.02987e+12 1.03549e+12 931500000000.0 756803000000.0 701965000000.0 523808000000.0 643408000000.0 717697000000.0 756937000000.0 768014000000.0 758683000000.0 734519000000.0 699268000000.0 655641000000.0 604890000000.0 547261000000.0 482589000000.0 410636000000.0 331620000000.0 246430000000.0 156010000000.0 249146000000.0 333470000000.0 409397000000.0 473777000000.0 523864000000.0 558020000000.0 576042000000.0 579062000000.0 569009000000.0 547915000000.0 367585000000.0 301602000000.0 230441000000.0 156026000000.0 80598900000.0 6371540000.0 64701300000.0 130972000000.0 191088000000.0 374858000000.0 405510000000.0 439395000000.0 513154000000.0 623004000000.0 730104000000.0 797478000000.0 790142000000.0 690918000000.0 461481000000.0 26364100000.0 192498000000.0 391843000000.0 511710000000.0 71045200000.0 105946000000.0 195380000000.0 428241000000.0 474226000000.0 171867000000.0 58829400000.0 85862400000.0 75919800000.0 487813000000.0 538952000000.0 533144000000.0 394896000000.0 18279800000.0 134496000000.0 422279000000.0 357332000000.0 360177000000.0 10244000000.0 97085700000.0 150342000000.0 362368000000.0 190632000000.0 794605000000.0 953584000000.0 1.02315e+12 1.02054e+12 924373000000.0 836759000000.0 809568000000.0 695914000000.0 611191000000.0 666636000000.0 711396000000.0 736028000000.0 740540000000.0 728024000000.0 701924000000.0 665099000000.0 620065000000.0 567966000000.0 508991000000.0 443265000000.0 370806000000.0 291873000000.0 207482000000.0 118772000000.0 26857600000.0 66555700000.0 159323000000.0 517427000000.0 478627000000.0 432155000000.0 378529000000.0 318484000000.0 253192000000.0 184288000000.0 113736000000.0 43579700000.0 24294500000.0 244070000000.0 289486000000.0 327882000000.0 361960000000.0 399475000000.0 460647000000.0 548539000000.0 644923000000.0 725594000000.0 757728000000.0 675336000000.0 477429000000.0 148295000000.0 63786500000.0 161678000000.0 75049900000.0 515173000000.0 163226000000.0 326713000000.0 390164000000.0 353078000000.0 224153000000.0 355777000000.0 307215000000.0 602911000000.0 620420000000.0 502542000000.0 377363000000.0 343420000000.0 21438900000.0 129283000000.0 406608000000.0 437919000000.0 461044000000.0 555248000000.0 437066000000.0 70192000000.0 264533000000.0 234801000000.0 69295800000.0 555331000000.0 798908000000.0 937680000000.0 1.00013e+12 812758000000.0 815961000000.0 775617000000.0 701031000000.0 655894000000.0 679603000000.0 704021000000.0 716056000000.0 712897000000.0 695836000000.0 667264000000.0 628868000000.0 582175000000.0 528608000000.0 468535000000.0 402044000000.0 329574000000.0 251542000000.0 168736000000.0 82362900000.0 6191360000.0 95103600000.0 182226000000.0 265288000000.0 341742000000.0 408852000000.0 464038000000.0 505346000000.0 531887000000.0 543930000000.0 542638000000.0 529610000000.0 506402000000.0 474246000000.0 434030000000.0 386487000000.0 332442000000.0 272992000000.0 209572000000.0 143896000000.0 77822400000.0 88233000000.0 146815000000.0 198978000000.0 244233000000.0 283077000000.0 317805000000.0 354108000000.0 403801000000.0 471598000000.0 550352000000.0 629885000000.0 701237000000.0 736011000000.0 597754000000.0 365395000000.0 181749000000.0 130213000000.0 111292000000.0 586137000000.0 368523000000.0 60423900000.0 330544000000.0 368507000000.0 331728000000.0 459300000000.0 393928000000.0 588195000000.0 546156000000.0 695674000000.0 624415000000.0 459078000000.0 289263000000.0 36152900000.0 58817500000.0 121363000000.0 342443000000.0 374319000000.0 393670000000.0 483205000000.0 799427000000.0 1.17821e+12 731948000000.0 473433000000.0 282058000000.0 403649000000.0 658667000000.0 827997000000.0 926612000000.0 983454000000.0 905318000000.0 828752000000.0 801073000000.0 757661000000.0 705544000000.0 676290000000.0 682241000000.0 691580000000.0 693180000000.0 683385000000.0 661992000000.0 630292000000.0 589826000000.0 541736000000.0 486932000000.0 426077000000.0 359514000000.0 287629000000.0 210908000000.0 130159000000.0 46728800000.0 37792800000.0 121573000000.0 202520000000.0 278395000000.0 346807000000.0 405375000000.0 452090000000.0 485642000000.0 505640000000.0 512575000000.0 507530000000.0 491804000000.0 466604000000.0 432935000000.0 391672000000.0 343708000000.0 290101000000.0 232145000000.0 13150400000.0 48484100000.0 105666000000.0 157281000000.0 202675000000.0 242021000000.0 276937000000.0 311207000000.0 351298000000.0 400413000000.0 455869000000.0 515073000000.0 583035000000.0 676438000000.0 799887000000.0 602693000000.0 458306000000.0 326026000000.0 261092000000.0 290034000000.0 488020000000.0 49469000000.0 130117000000.0 266010000000.0 364970000000.0 437625000000.0 644236000000.0 634469000000.0 722907000000.0 710106000000.0 697611000000.0 589376000000.0 522879000000.0 394576000000.0 222080000000.0 82642200000.0 106169000000.0 307646000000.0 341249000000.0 416748000000.0 434487000000.0 542433000000.0 556840000000.0 1.32741e+12 629143000000.0 547816000000.0 415820000000.0 590600000000.0 737126000000.0 843501000000.0 960557000000.0 937959000000.0 881095000000.0 823513000000.0 785505000000.0 743517000000.0 702978000000.0 679700000000.0 675838000000.0 674314000000.0 382091000000.0 315879000000.0 244932000000.0 169896000000.0 91748600000.0 11904200000.0 67978700000.0 146091000000.0 220459000000.0 288958000000.0 349435000000.0 399934000000.0 438959000000.0 465691000000.0 480058000000.0 482627000000.0 474330000000.0 456210000000.0 429268000000.0 394431000000.0 171367000000.0 109444000000.0 48037300000.0 11320200000.0 67254700000.0 118599000000.0 164565000000.0 205048000000.0 240969000000.0 274337000000.0 308018000000.0 343474000000.0 379198000000.0 412284000000.0 444890000000.0 497463000000.0 633833000000.0 1.00357e+12 609568000000.0 497170000000.0 323238000000.0 608429000000.0 272905000000.0 101235000000.0 186951000000.0 239995000000.0 305515000000.0 838687000000.0 780847000000.0 804257000000.0 760918000000.0 649439000000.0 429146000000.0 309519000000.0 149141000000.0 100134000000.0 63653600000.0 87099500000.0 265568000000.0 298590000000.0 288704000000.0 363845000000.0 391881000000.0 394043000000.0 331318000000.0 117616000000.0 612021000000.0 498332000000.0 593436000000.0 667819000000.0 905377000000.0 919681000000.0 893708000000.0 850008000000.0 804843000000.0 765924000000.0 727231000000.0 666964000000.0 650716000000.0 625046000000.0 590610000000.0 548229000000.0 498796000000.0 443193000000.0 168960000000.0 236507000000.0 297602000000.0 350428000000.0 393455000000.0 425616000000.0 446432000000.0 455996000000.0 352625000000.0 304883000000.0 252400000000.0 196551000000.0 138841000000.0 80777300000.0 23769100000.0 30879900000.0 82018900000.0 128820000000.0 170969000000.0 208749000000.0 243082000000.0 1.20459e+12 623679000000.0 230319000000.0 215713000000.0 268074000000.0 332773000000.0 465907000000.0 839036000000.0 931785000000.0 851952000000.0 808672000000.0 744239000000.0 681100000000.0 566180000000.0 308732000000.0 207981000000.0 110395000000.0 80172300000.0 102498000000.0 36280400000.0 215772000000.0 254634000000.0 236206000000.0 345703000000.0 401677000000.0 367072000000.0 224903000000.0 186609000000.0 763626000000.0 560325000000.0 602149000000.0 748155000000.0 820934000000.0 866391000000.0 875146000000.0 855828000000.0 819857000000.0 692938000000.0 670821000000.0 660402000000.0 651203000000.0 636697000000.0 614735000000.0 584980000000.0 547802000000.0 503884000000.0 453688000000.0 397681000000.0 336556000000.0 270958000000.0 201396000000.0 128585000000.0 53600300000.0 22102400000.0 96872900000.0 454840000000.0 443742000000.0 423577000000.0 395240000000.0 359645000000.0 317787000000.0 270785000000.0 219890000000.0 166461000000.0 111883000000.0 57444600000.0 4299060000.0 46514800000.0 94130600000.0 275468000000.0 306345000000.0 333057000000.0 350134000000.0 352429000000.0 340797000000.0 333272000000.0 407863000000.0 994850000000.0 262277000000.0 470479000000.0 1.2729e+12 274409000000.0 215429000000.0 255253000000.0 290186000000.0 402023000000.0 1.14475e+12 1.03654e+12 990912000000.0 917536000000.0 859261000000.0 817472000000.0 764946000000.0 591959000000.0 457147000000.0 172215000000.0 33020200000.0 31352600000.0 18205900000.0 85660100000.0 56628800000.0 7647010000.0 158567000000.0 137554000000.0 205332000000.0 196791000000.0 202803000000.0 408684000000.0 446879000000.0 405586000000.0 677630000000.0 146207000000.0 9964630000.0 780833000000.0 192398000000.0 303201000000.0 660978000000.0 723703000000.0 783922000000.0 821753000000.0 830005000000.0 778436000000.0 740228000000.0 704727000000.0 674893000000.0 653544000000.0 637936000000.0 621833000000.0 601288000000.0 574703000000.0 541738000000.0 502446000000.0 457117000000.0 406109000000.0 349944000000.0 289330000000.0 224897000000.0 157164000000.0 86976400000.0 15584100000.0 55531000000.0 124788000000.0 190559000000.0 251181000000.0 305035000000.0 350671000000.0 386939000000.0 413094000000.0 428851000000.0 434348000000.0 430035000000.0 416565000000.0 394710000000.0 365321000000.0 329342000000.0 287821000000.0 241914000000.0 192853000000.0 141896000000.0 90229400000.0 138059000000.0 178385000000.0 215807000000.0 251072000000.0 283788000000.0 311892000000.0 331805000000.0 338073000000.0 323921000000.0 282608000000.0 210750000000.0 171063000000.0 404384000000.0 316514000000.0 114560000000.0 61153200000.0 208065000000.0 234745000000.0 288539000000.0 301579000000.0 1.30447e+12 1.09372e+12 891959000000.0 856670000000.0 753673000000.0 694441000000.0 479682000000.0 302714000000.0 124549000000.0 66109500000.0 13115700000.0 40938500000.0 48585600000.0 23047400000.0 40519400000.0 100594000000.0 70454300000.0 128688000000.0 166461000000.0 84642000000.0 355946000000.0 438822000000.0 523700000000.0 708141000000.0 635377000000.0 68129100000.0 496432000000.0 602885000000.0 683720000000.0 749572000000.0 814401000000.0 782751000000.0 746285000000.0 710673000000.0 677677000000.0 649701000000.0 627669000000.0 608170000000.0 586806000000.0 561305000000.0 530815000000.0 495028000000.0 453865000000.0 407469000000.0 356132000000.0 300318000000.0 240596000000.0 177574000000.0 111972000000.0 44829900000.0 22532000000.0 88668400000.0 152097000000.0 211372000000.0 265121000000.0 312079000000.0 351147000000.0 381465000000.0 402480000000.0 413979000000.0 416059000000.0 409075000000.0 393594000000.0 370347000000.0 340196000000.0 304121000000.0 263198000000.0 38869000000.0 11269800000.0 59353700000.0 104890000000.0 147891000000.0 188650000000.0 227443000000.0 264552000000.0 299949000000.0 332611000000.0 361212000000.0 387268000000.0 421680000000.0 495357000000.0 693735000000.0 1.18572e+12 540875000000.0 57123400000.0 192162000000.0 118816000000.0 190915000000.0 225645000000.0 300439000000.0 1.34648e+12 1.04011e+12 932915000000.0 793880000000.0 782763000000.0 681975000000.0 613227000000.0 295180000000.0 43329900000.0 8918210000.0 9433430000.0 68826000000.0 52814700000.0 62586600000.0 28542900000.0 15979200000.0 34172900000.0 124666000000.0 56613200000.0 317947000000.0 551767000000.0 767553000000.0 1.03466e+12 548752000000.0 604270000000.0 317302000000.0 426840000000.0 514909000000.0 582358000000.0 657586000000.0 792483000000.0 797390000000.0 771826000000.0 739508000000.0 706871000000.0 675348000000.0 645937000000.0 619437000000.0 595187000000.0 571214000000.0 545393000000.0 516163000000.0 482709000000.0 444754000000.0 402226000000.0 355193000000.0 303880000000.0 248689000000.0 190107000000.0 128768000000.0 65608900000.0 1850930000.0 61121800000.0 121916000000.0 179243000000.0 231968000000.0 279084000000.0 319680000000.0 352941000000.0 378188000000.0 394927000000.0 402894000000.0 402088000000.0 392790000000.0 375550000000.0 218551000000.0 171326000000.0 122636000000.0 73426300000.0 24437300000.0 23669600000.0 70316200000.0 115248000000.0 158766000000.0 201525000000.0 243895000000.0 285739000000.0 327045000000.0 368815000000.0 414456000000.0 472435000000.0 560300000000.0 705776000000.0 852415000000.0 76480200000.0 181572000000.0 298046000000.0 249108000000.0 286485000000.0 321692000000.0 250911000000.0 38036500000.0 1.03796e+12 854172000000.0 803755000000.0 716742000000.0 708045000000.0 612525000000.0 512313000000.0 102365000000.0 25387000000.0 51454400000.0 25070400000.0 71912800000.0 125724000000.0 1053370000.0 54662600000.0 37350200000.0 27451500000.0 106646000000.0 19478000000.0 16782200000.0 84450900000.0 249325000000.0 367504000000.0 398493000000.0 1.04533e+12 1.27115e+12 421951000000.0 671671000000.0 445363000000.0 443092000000.0 504757000000.0 746613000000.0 778785000000.0 749542000000.0 719942000000.0 693172000000.0 665683000000.0 636781000000.0 608430000000.0 581703000000.0 351120000000.0 320402000000.0 284403000000.0 244173000000.0 200771000000.0 155222000000.0 108403000000.0 60968000000.0 13461500000.0 33574100000.0 79880400000.0 125719000000.0 171477000000.0 217270000000.0 263532000000.0 311538000000.0 362548000000.0 418369000000.0 573511000000.0 693179000000.0 794557000000.0 460095000000.0 126256000000.0 134321000000.0 292866000000.0 407201000000.0 385761000000.0 436383000000.0 423193000000.0 161532000000.0 1.44139e+12 708519000000.0 692095000000.0 700637000000.0 648483000000.0 643084000000.0 531156000000.0 280306000000.0 80162300000.0 58392500000.0 41085100000.0 75330500000.0 53381100000.0 79530000000.0 3259610000.0 45716300000.0 42683200000.0 42191900000.0 207258000000.0 105521000000.0 223867000000.0 254440000000.0 351764000000.0 182438000000.0 347016000000.0 424923000000.0 371374000000.0 376109000000.0 581465000000.0 695879000000.0 771128000000.0 717835000000.0 683995000000.0 663386000000.0 644800000000.0 555410000000.0 527961000000.0 498391000000.0 466033000000.0 430325000000.0 390884000000.0 347528000000.0 300288000000.0 249330000000.0 194950000000.0 137617000000.0 78126400000.0 17652800000.0 42401100000.0 100606000000.0 155713000000.0 206755000000.0 253018000000.0 293919000000.0 328884000000.0 357273000000.0 378408000000.0 391680000000.0 396683000000.0 393330000000.0 381909000000.0 363026000000.0 337510000000.0 306309000000.0 270424000000.0 230843000000.0 188506000000.0 144265000000.0 98775700000.0 52443100000.0 5596000000.0 41416100000.0 484807000000.0 262538000000.0 322846000000.0 434549000000.0 478663000000.0 535018000000.0 377575000000.0 978099000000.0 760071000000.0 588679000000.0 619675000000.0 648428000000.0 593252000000.0 583363000000.0 242810000000.0 45614500000.0 15791100000.0 16582200000.0 130016000000.0 28843000000.0 105508000000.0 241817000000.0 172781000000.0 187562000000.0 198011000000.0 125455000000.0 66860300000.0 475721000000.0 342774000000.0 435106000000.0 499407000000.0 608421000000.0 747107000000.0 650190000000.0 618091000000.0 621249000000.0 594345000000.0 566379000000.0 537736000000.0 508276000000.0 477786000000.0 445658000000.0 411204000000.0 373939000000.0 333554000000.0 289838000000.0 242734000000.0 192321000000.0 138819000000.0 82750300000.0 25165700000.0 32442600000.0 88460700000.0 141481000000.0 190543000000.0 235182000000.0 275252000000.0 310639000000.0 340992000000.0 365609000000.0 383572000000.0 394009000000.0 396362000000.0 390550000000.0 376990000000.0 356444000000.0 329832000000.0 298121000000.0 262267000000.0 223154000000.0 181577000000.0 88500400000.0 136127000000.0 184946000000.0 235205000000.0 287231000000.0 341966000000.0 401429000000.0 469759000000.0 551748000000.0 648945000000.0 737620000000.0 720604000000.0 454359000000.0 540814000000.0 528119000000.0 491263000000.0 371453000000.0 411905000000.0 72103200000.0 566691000000.0 557030000000.0 560248000000.0 595103000000.0 588151000000.0 545899000000.0 545101000000.0 540854000000.0 17458700000.0 32866700000.0 98884800000.0 91831100000.0 302931000000.0 100348000000.0 193901000000.0 180230000000.0 455968000000.0 412399000000.0 371691000000.0 417889000000.0 475000000000.0 637285000000.0 585483000000.0 612225000000.0 611409000000.0 597960000000.0 574276000000.0 546203000000.0 516668000000.0 486107000000.0 454512000000.0 421848000000.0 387780000000.0 351847000000.0 313628000000.0 272820000000.0 229173000000.0 182485000000.0 132659000000.0 79877300000.0 24900700000.0 30806100000.0 85347400000.0 136904000000.0 184218000000.0 226854000000.0 265115000000.0 299593000000.0 330582000000.0 357654000000.0 379677000000.0 395230000000.0 403117000000.0 402745000000.0 394259000000.0 378372000000.0 356041000000.0 328240000000.0 138180000000.0 93365600000.0 47370300000.0 442405000.0 47283700000.0 96087500000.0 146432000000.0 198523000000.0 252933000000.0 310988000000.0 373150000000.0 439420000000.0 510086000000.0 581828000000.0 636773000000.0 635207000000.0 746587000000.0 482259000000.0 408829000000.0 542484000000.0 509547000000.0 439889000000.0 79261900000.0 690492000000.0 335876000000.0 388530000000.0 470698000000.0 558388000000.0 546450000000.0 522305000000.0 567029000000.0 193627000000.0 231408000000.0 373372000000.0 347387000000.0 538605000000.0 336567000000.0 38762000000.0 273476000000.0 338661000000.0 347932000000.0 541671000000.0 546293000000.0 568127000000.0 566523000000.0 547945000000.0 521387000000.0 491402000000.0 459633000000.0 427094000000.0 394179000000.0 360436000000.0 325260000000.0 288356000000.0 249614000000.0 208820000000.0 165545000000.0 119316000000.0 69869800000.0 17467900000.0 36720200000.0 90617100000.0 141796000000.0 188276000000.0 229195000000.0 265039000000.0 297274000000.0 327350000000.0 355628000000.0 381009000000.0 401455000000.0 414880000000.0 295903000000.0 259879000000.0 220921000000.0 179685000000.0 136624000000.0 91895600000.0 45553200000.0 2222950000.0 51358400000.0 102347000000.0 155833000000.0 211762000000.0 270258000000.0 331940000000.0 396602000000.0 462125000000.0 521173000000.0 555147000000.0 536032000000.0 463396000000.0 583905000000.0 316078000000.0 537340000000.0 448105000000.0 375311000000.0 200090000000.0 249358000000.0 348634000000.0 370302000000.0 290013000000.0 468537000000.0 519338000000.0 525695000000.0 525286000000.0 87194200000.0 303723000000.0 415121000000.0 517185000000.0 733297000000.0 614275000000.0 194684000000.0 312270000000.0 341965000000.0 272803000000.0 515198000000.0 487771000000.0 568507000000.0 504152000000.0 525508000000.0 529746000000.0 515246000000.0 490356000000.0 459967000000.0 427182000000.0 419905000000.0 416268000000.0 404666000000.0 386198000000.0 361915000000.0 332762000000.0 299581000000.0 263094000000.0 223910000000.0 182512000000.0 139161000000.0 93887700000.0 46694700000.0 2348910000.0 53348400000.0 106797000000.0 163154000000.0 222416000000.0 284437000000.0 348113000000.0 410594000000.0 466293000000.0 505339000000.0 507722000000.0 478045000000.0 343977000000.0 251618000000.0 276441000000.0 383763000000.0 336838000000.0 217807000000.0 30809600000.0 364169000000.0 461638000000.0 232714000000.0 239893000000.0 430455000000.0 459408000000.0 450150000000.0 86640700000.0 440338000000.0 426082000000.0 501553000000.0 579753000000.0 360695000000.0 291811000000.0 379885000000.0 389347000000.0 410701000000.0 533816000000.0 412741000000.0 464338000000.0 464584000000.0 394249000000.0 361876000000.0 329101000000.0 294807000000.0 258569000000.0 220793000000.0 181888000000.0 141550000000.0 98838700000.0 52842200000.0 3255040000.0 49313900000.0 103090000000.0 155198000000.0 202489000000.0 242932000000.0 276569000000.0 305490000000.0 332828000000.0 360650000000.0 388469000000.0 413669000000.0 432929000000.0 443593000000.0 444679000000.0 436918000000.0 421767000000.0 400478000000.0 374053000000.0 343323000000.0 308986000000.0 271617000000.0 231709000000.0 189604000000.0 145376000000.0 373727000000.0 200925000000.0 362365000000.0 125863000000.0 2481510000.0 474632000000.0 372688000000.0 108913000000.0 166376000000.0 355583000000.0 279766000000.0 389935000000.0 228332000000.0 261298000000.0 300642000000.0 403751000000.0 170890000000.0 225831000000.0 265684000000.0 302922000000.0 378944000000.0 389483000000.0 447726000000.0 420789000000.0 387794000000.0 354268000000.0 323233000000.0 292979000000.0 260982000000.0 225667000000.0 187619000000.0 148932000000.0 110508000000.0 71052300000.0 28636800000.0 17873700000.0 68226800000.0 121376000000.0 175171000000.0 225439000000.0 267871000000.0 300793000000.0 326280000000.0 349086000000.0 374160000000.0 402911000000.0 432633000000.0 458443000000.0 475514000000.0 481426000000.0 476980000000.0 464450000000.0 445476000000.0 421175000000.0 392367000000.0 359720000000.0 98963900000.0 50439500000.0 95250400.0 52917900000.0 108631000000.0 167317000000.0 228429000000.0 291269000000.0 353740000000.0 410372000000.0 453710000000.0 479365000000.0 477117000000.0 489625000000.0 274664000000.0 157311000000.0 244863000000.0 216851000000.0 119843000000.0 357091000000.0 305042000000.0 162147000000.0 126718000000.0 206591000000.0 208392000000.0 90469500000.0 227151000000.0 364963000000.0 179272000000.0 89960500000.0 200135000000.0 200302000000.0 294303000000.0 474771000000.0 333603000000.0 381833000000.0 387032000000.0 371837000000.0 341163000000.0 305789000000.0 276145000000.0 250308000000.0 223498000000.0 191450000000.0 152905000000.0 111643000000.0 72632000000.0 35585600000.0 3079450000.0 46375100000.0 94340000000.0 145290000000.0 199236000000.0 253832000000.0 302002000000.0 337650000000.0 361050000000.0 378749000000.0 398628000000.0 425665000000.0 458891000000.0 492299000000.0 517487000000.0 528820000000.0 526992000000.0 323776000000.0 284980000000.0 243727000000.0 200281000000.0 154665000000.0 106803000000.0 56723500000.0 4504100000.0 50001100000.0 107184000000.0 166862000000.0 227665000000.0 287845000000.0 344068000000.0 390208000000.0 419312000000.0 439102000000.0 411113000000.0 248399000000.0 361138000000.0 161879000000.0 204365000000.0 113240000000.0 164737000000.0 158721000000.0 287839000000.0 451960000000.0 473870000000.0 320205000000.0 112766000000.0 53776300000.0 27076100000.0 80701800000.0 57409000000.0 159020000000.0 22538200000.0 104583000000.0 207229000000.0 301854000000.0 306213000000.0 378970000000.0 266195000000.0 307804000000.0 313293000000.0 288506000000.0 250266000000.0 219740000000.0 198054000000.0 180161000000.0 156658000000.0 120776000000.0 74920700000.0 29943700000.0 7928770000.0 42973800000.0 82954100000.0 516177000000.0 498663000000.0 475736000000.0 448194000000.0 416632000000.0 381553000000.0 343372000000.0 302467000000.0 259213000000.0 213820000000.0 166275000000.0 116594000000.0 64934000000.0 11390500000.0 44117800000.0 101596000000.0 160200000000.0 217646000000.0 271345000000.0 316501000000.0 346443000000.0 352276000000.0 353640000000.0 211069000000.0 308116000000.0 216531000000.0 88903900000.0 118517000000.0 130172000000.0 285178000000.0 359144000000.0 268257000000.0 212054000000.0 22227400000.0 39815300000.0 63845400000.0 35718800000.0 14009200000.0 125864000000.0 206125000000.0 207527000000.0 213474000000.0 224198000000.0 280389000000.0 196745000000.0 230372000000.0 226706000000.0 129245000000.0 177550000000.0 227382000000.0 282628000000.0 339750000000.0 384583000000.0 409621000000.0 422816000000.0 438131000000.0 460375000000.0 493416000000.0 534783000000.0 571295000000.0 589726000000.0 589375000000.0 579044000000.0 561958000000.0 539539000000.0 512507000000.0 481329000000.0 446414000000.0 408163000000.0 366954000000.0 323157000000.0 277108000000.0 228989000000.0 178929000000.0 127207000000.0 183618000000.0 230036000000.0 148343000000.0 231859000000.0 103782000000.0 75273400000.0 98286200000.0 172275000000.0 197741000000.0 157488000000.0 275875000000.0 41780100000.0 1332590000.0 80365500000.0 21827500000.0 118705000000.0 122530000000.0 125153000000.0 128693000000.0 135416000000.0 186750000000.0 161226000000.0 135603000000.0 125256000000.0 118623000000.0 93195100000.0 46237600000.0 8384900000.0 57597300000.0 92494700000.0 128634000000.0 175223000000.0 221880000000.0 266492000000.0 311774000000.0 370103000000.0 432715000000.0 468758000000.0 478780000000.0 492568000000.0 516591000000.0 541710000000.0 585604000000.0 638113000000.0 667871000000.0 666612000000.0 655076000000.0 637312000000.0 614546000000.0 587253000000.0 555702000000.0 520168000000.0 481013000000.0 74177100000.0 20069500000.0 35039300000.0 90850900000.0 145892000000.0 196225000000.0 239034000000.0 267818000000.0 270723000000.0 275452000000.0 169256000000.0 147137000000.0 48039100000.0 74928300000.0 142313000000.0 56529900000.0 154217000000.0 179448000000.0 57006900000.0 47308800000.0 42664400000.0 43219800000.0 185530000000.0 125171000000.0 150658000000.0 119964000000.0 109218000000.0 86240600000.0 53154700000.0 65747000000.0 67277800000.0 25978300000.0 26811200000.0 94314000000.0 150923000000.0 187327000000.0 236782000000.0 282880000000.0 322822000000.0 358574000000.0 392331000000.0 457609000000.0 524616000000.0 538087000000.0 554344000000.0 595706000000.0 628030000000.0 650742000000.0 716306000000.0 768052000000.0 760165000000.0 745474000000.0 726346000000.0 438617000000.0 393308000000.0 345467000000.0 295578000000.0 244036000000.0 191124000000.0 137291000000.0 83200300000.0 29473200000.0 23478300000.0 75127400000.0 123818000000.0 162011000000.0 190126000000.0 194202000000.0 198675000000.0 146080000000.0 154464000000.0 111553000000.0 101727000000.0 109712000000.0 75266800000.0 5732870000.0 59997800000.0 49900800000.0 62878600000.0 56365700000.0 43447500000.0 44779000000.0 43468400000.0 100343000000.0 60281300000.0 42747200000.0 47205200000.0 42607200000.0 22200500000.0 25410100000.0 18492200000.0 2005470000.0 28091900000.0 80925400000.0 169324000000.0 266623000000.0 320925000000.0 354985000000.0 390701000000.0 424211000000.0 450857000000.0 458661000000.0 702792000000.0 674681000000.0 642036000000.0 605033000000.0 563972000000.0 519223000000.0 471187000000.0 420356000000.0 367322000000.0 312634000000.0 256777000000.0 200408000000.0 144409000000.0 89699900000.0 37317100000.0 11582100000.0 56053600000.0 95553100000.0 115825000000.0 123355000000.0 121246000000.0 98977600000.0 89702900000.0 72355000000.0 39367300000.0 6025740000.0 18335300000.0 41190400000.0 52394200000.0 39995700000.0 517443000000.0 565252000000.0 605298000000.0 687422000000.0 742273000000.0 778347000000.0 790318000000.0 889004000000.0 865079000000.0 848557000000.0 829803000000.0 806368000000.0 777527000000.0 743252000000.0 703814000000.0 659592000000.0 611056000000.0 558820000000.0 503528000000.0 445740000000.0 386075000000.0 325300000000.0 264144000000.0 203355000000.0 144123000000.0 42456600000.0 27712500000.0 30776500000.0 32010200000.0 39410600000.0 22766000000.0 19061500000.0 39598200000.0 35381800000.0 11207800000.0 40584100000.0 10605400000.0 66276500000.0 126054000000.0 189497000000.0 255845000000.0 287063000000.0 235461000000.0 154415000000.0 80405100000.0 15075400000.0 40555000000.0 88260400000.0 38173000000.0 2991490000.0 31318700000.0 42730000000.0 43719700000.0 42388400000.0 