# vtk DataFile Version 2.0
Time step 30
ASCII
DATASET UNSTRUCTURED_GRID
POINTS 4650 float
102000.0 438775.0 0
106000.0 438775.0 0
110000.0 438775.0 0
114000.0 438775.0 0
118000.0 438775.0 0
122000.0 438775.0 0
126000.0 438775.0 0
130000.0 438775.0 0
134000.0 438775.0 0
138000.0 438775.0 0
142000.0 438775.0 0
146000.0 438775.0 0
150000.0 438775.0 0
154000.0 438775.0 0
158000.0 438775.0 0
162000.0 438775.0 0
166000.0 438775.0 0
170000.0 438775.0 0
174000.0 438775.0 0
178000.0 438775.0 0
182000.0 438775.0 0
186000.0 438775.0 0
190000.0 438775.0 0
194000.0 438775.0 0
198000.0 438775.0 0
202000.0 438775.0 0
206000.0 438775.0 0
210000.0 438775.0 0
214000.0 438775.0 0
218000.0 438775.0 0
222000.0 438775.0 0
226000.0 438775.0 0
230000.0 438775.0 0
234000.0 438775.0 0
238000.0 438775.0 0
242000.0 438775.0 0
246000.0 438775.0 0
250000.0 438775.0 0
254000.0 438775.0 0
258000.0 438775.0 0
262000.0 438775.0 0
266000.0 438775.0 0
270000.0 438775.0 0
274000.0 438775.0 0
278000.0 438775.0 0
282000.0 438775.0 0
286000.0 438775.0 0
290000.0 438775.0 0
294000.0 438775.0 0
298000.0 438775.0 0
302000.0 438775.0 0
306000.0 438775.0 0
310000.0 438775.0 0
314000.0 438775.0 0
318000.0 438775.0 0
322000.0 438775.0 0
326000.0 438775.0 0
330000.0 438775.0 0
334000.0 438775.0 0
338000.0 438775.0 0
342000.0 438775.0 0
346000.0 438775.0 0
350000.0 438775.0 0
354000.0 438775.0 0
358000.0 438775.0 0
362000.0 438775.0 0
366000.0 438775.0 0
370000.0 438775.0 0
374000.0 438775.0 0
378000.0 438775.0 0
382000.0 438775.0 0
386000.0 438775.0 0
390000.0 438775.0 0
394000.0 438775.0 0
398000.0 438775.0 0
102000.0 442775.0 0
106000.0 442775.0 0
110000.0 442775.0 0
114000.0 442775.0 0
118000.0 442775.0 0
122000.0 442775.0 0
126000.0 442775.0 0
130000.0 442775.0 0
134000.0 442775.0 0
138000.0 442775.0 0
142000.0 442775.0 0
146000.0 442775.0 0
150000.0 442775.0 0
154000.0 442775.0 0
158000.0 442775.0 0
162000.0 442775.0 0
166000.0 442775.0 0
170000.0 442775.0 0
174000.0 442775.0 0
178000.0 442775.0 0
182000.0 442775.0 0
186000.0 442775.0 0
190000.0 442775.0 0
194000.0 442775.0 0
198000.0 442775.0 0
202000.0 442775.0 0
206000.0 442775.0 0
210000.0 442775.0 0
214000.0 442775.0 0
218000.0 442775.0 0
222000.0 442775.0 0
226000.0 442775.0 0
230000.0 442775.0 0
234000.0 442775.0 0
238000.0 442775.0 0
242000.0 442775.0 0
246000.0 442775.0 0
250000.0 442775.0 0
254000.0 442775.0 0
258000.0 442775.0 0
262000.0 442775.0 0
266000.0 442775.0 0
270000.0 442775.0 0
274000.0 442775.0 0
278000.0 442775.0 0
282000.0 442775.0 0
286000.0 442775.0 0
290000.0 442775.0 0
294000.0 442775.0 0
298000.0 442775.0 0
302000.0 442775.0 0
306000.0 442775.0 0
310000.0 442775.0 0
314000.0 442775.0 0
318000.0 442775.0 0
322000.0 442775.0 0
326000.0 442775.0 0
330000.0 442775.0 0
334000.0 442775.0 0
338000.0 442775.0 0
342000.0 442775.0 0
346000.0 442775.0 0
350000.0 442775.0 0
354000.0 442775.0 0
358000.0 442775.0 0
362000.0 442775.0 0
366000.0 442775.0 0
370000.0 442775.0 0
374000.0 442775.0 0
378000.0 442775.0 0
382000.0 442775.0 0
386000.0 442775.0 0
390000.0 442775.0 0
394000.0 442775.0 0
398000.0 442775.0 0
102000.0 446775.0 0
106000.0 446775.0 0
110000.0 446775.0 0
114000.0 446775.0 0
118000.0 446775.0 0
122000.0 446775.0 0
126000.0 446775.0 0
130000.0 446775.0 0
134000.0 446775.0 0
138000.0 446775.0 0
142000.0 446775.0 0
146000.0 446775.0 0
150000.0 446775.0 0
154000.0 446775.0 0
158000.0 446775.0 0
162000.0 446775.0 0
166000.0 446775.0 0
170000.0 446775.0 0
174000.0 446775.0 0
178000.0 446775.0 0
182000.0 446775.0 0
186000.0 446775.0 0
190000.0 446775.0 0
194000.0 446775.0 0
198000.0 446775.0 0
202000.0 446775.0 0
206000.0 446775.0 0
210000.0 446775.0 0
214000.0 446775.0 0
218000.0 446775.0 0
222000.0 446775.0 0
226000.0 446775.0 0
230000.0 446775.0 0
234000.0 446775.0 0
238000.0 446775.0 0
242000.0 446775.0 0
246000.0 446775.0 0
250000.0 446775.0 0
254000.0 446775.0 0
258000.0 446775.0 0
262000.0 446775.0 0
266000.0 446775.0 0
270000.0 446775.0 0
274000.0 446775.0 0
278000.0 446775.0 0
282000.0 446775.0 0
286000.0 446775.0 0
290000.0 446775.0 0
294000.0 446775.0 0
298000.0 446775.0 0
302000.0 446775.0 0
306000.0 446775.0 0
310000.0 446775.0 0
314000.0 446775.0 0
318000.0 446775.0 0
322000.0 446775.0 0
326000.0 446775.0 0
330000.0 446775.0 0
334000.0 446775.0 0
338000.0 446775.0 0
342000.0 446775.0 0
346000.0 446775.0 0
350000.0 446775.0 0
354000.0 446775.0 0
358000.0 446775.0 0
362000.0 446775.0 0
366000.0 446775.0 0
370000.0 446775.0 0
374000.0 446775.0 0
378000.0 446775.0 0
382000.0 446775.0 0
386000.0 446775.0 0
390000.0 446775.0 0
394000.0 446775.0 0
398000.0 446775.0 0
102000.0 450775.0 0
106000.0 450775.0 0
110000.0 450775.0 0
114000.0 450775.0 0
118000.0 450775.0 0
122000.0 450775.0 0
126000.0 450775.0 0
130000.0 450775.0 0
134000.0 450775.0 0
138000.0 450775.0 0
142000.0 450775.0 0
146000.0 450775.0 0
150000.0 450775.0 0
154000.0 450775.0 0
158000.0 450775.0 0
162000.0 450775.0 0
166000.0 450775.0 0
170000.0 450775.0 0
174000.0 450775.0 0
178000.0 450775.0 0
182000.0 450775.0 0
186000.0 450775.0 0
190000.0 450775.0 0
194000.0 450775.0 0
198000.0 450775.0 0
202000.0 450775.0 0
206000.0 450775.0 0
210000.0 450775.0 0
214000.0 450775.0 0
218000.0 450775.0 0
222000.0 450775.0 0
226000.0 450775.0 0
230000.0 450775.0 0
234000.0 450775.0 0
238000.0 450775.0 0
242000.0 450775.0 0
246000.0 450775.0 0
250000.0 450775.0 0
254000.0 450775.0 0
258000.0 450775.0 0
262000.0 450775.0 0
266000.0 450775.0 0
270000.0 450775.0 0
274000.0 450775.0 0
278000.0 450775.0 0
282000.0 450775.0 0
286000.0 450775.0 0
290000.0 450775.0 0
294000.0 450775.0 0
298000.0 450775.0 0
302000.0 450775.0 0
306000.0 450775.0 0
310000.0 450775.0 0
314000.0 450775.0 0
318000.0 450775.0 0
322000.0 450775.0 0
326000.0 450775.0 0
330000.0 450775.0 0
334000.0 450775.0 0
338000.0 450775.0 0
342000.0 450775.0 0
346000.0 450775.0 0
350000.0 450775.0 0
354000.0 450775.0 0
358000.0 450775.0 0
362000.0 450775.0 0
366000.0 450775.0 0
370000.0 450775.0 0
374000.0 450775.0 0
378000.0 450775.0 0
382000.0 450775.0 0
386000.0 450775.0 0
390000.0 450775.0 0
394000.0 450775.0 0
398000.0 450775.0 0
102000.0 454775.0 0
106000.0 454775.0 0
110000.0 454775.0 0
114000.0 454775.0 0
118000.0 454775.0 0
122000.0 454775.0 0
126000.0 454775.0 0
130000.0 454775.0 0
134000.0 454775.0 0
138000.0 454775.0 0
142000.0 454775.0 0
146000.0 454775.0 0
150000.0 454775.0 0
154000.0 454775.0 0
158000.0 454775.0 0
162000.0 454775.0 0
166000.0 454775.0 0
170000.0 454775.0 0
174000.0 454775.0 0
178000.0 454775.0 0
182000.0 454775.0 0
186000.0 454775.0 0
190000.0 454775.0 0
194000.0 454775.0 0
198000.0 454775.0 0
202000.0 454775.0 0
206000.0 454775.0 0
210000.0 454775.0 0
214000.0 454775.0 0
218000.0 454775.0 0
222000.0 454775.0 0
226000.0 454775.0 0
230000.0 454775.0 0
234000.0 454775.0 0
238000.0 454775.0 0
242000.0 454775.0 0
246000.0 454775.0 0
250000.0 454775.0 0
254000.0 454775.0 0
258000.0 454775.0 0
262000.0 454775.0 0
266000.0 454775.0 0
270000.0 454775.0 0
274000.0 454775.0 0
278000.0 454775.0 0
282000.0 454775.0 0
286000.0 454775.0 0
290000.0 454775.0 0
294000.0 454775.0 0
298000.0 454775.0 0
302000.0 454775.0 0
306000.0 454775.0 0
310000.0 454775.0 0
314000.0 454775.0 0
318000.0 454775.0 0
322000.0 454775.0 0
326000.0 454775.0 0
330000.0 454775.0 0
334000.0 454775.0 0
338000.0 454775.0 0
342000.0 454775.0 0
346000.0 454775.0 0
350000.0 454775.0 0
354000.0 454775.0 0
358000.0 454775.0 0
362000.0 454775.0 0
366000.0 454775.0 0
370000.0 454775.0 0
374000.0 454775.0 0
378000.0 454775.0 0
382000.0 454775.0 0
386000.0 454775.0 0
390000.0 454775.0 0
394000.0 454775.0 0
398000.0 454775.0 0
102000.0 458775.0 0
106000.0 458775.0 0
110000.0 458775.0 0
114000.0 458775.0 0
118000.0 458775.0 0
122000.0 458775.0 0
126000.0 458775.0 0
130000.0 458775.0 0
134000.0 458775.0 0
138000.0 458775.0 0
142000.0 458775.0 0
146000.0 458775.0 0
150000.0 458775.0 0
154000.0 458775.0 0
158000.0 458775.0 0
162000.0 458775.0 0
166000.0 458775.0 0
170000.0 458775.0 0
174000.0 458775.0 0
178000.0 458775.0 0
182000.0 458775.0 0
186000.0 458775.0 0
190000.0 458775.0 0
194000.0 458775.0 0
198000.0 458775.0 0
202000.0 458775.0 0
206000.0 458775.0 0
210000.0 458775.0 0
214000.0 458775.0 0
218000.0 458775.0 0
222000.0 458775.0 0
226000.0 458775.0 0
230000.0 458775.0 0
234000.0 458775.0 0
238000.0 458775.0 0
242000.0 458775.0 0
246000.0 458775.0 0
250000.0 458775.0 0
254000.0 458775.0 0
258000.0 458775.0 0
262000.0 458775.0 0
266000.0 458775.0 0
270000.0 458775.0 0
274000.0 458775.0 0
278000.0 458775.0 0
282000.0 458775.0 0
286000.0 458775.0 0
290000.0 458775.0 0
294000.0 458775.0 0
298000.0 458775.0 0
302000.0 458775.0 0
306000.0 458775.0 0
310000.0 458775.0 0
314000.0 458775.0 0
318000.0 458775.0 0
322000.0 458775.0 0
326000.0 458775.0 0
330000.0 458775.0 0
334000.0 458775.0 0
338000.0 458775.0 0
342000.0 458775.0 0
346000.0 458775.0 0
350000.0 458775.0 0
354000.0 458775.0 0
358000.0 458775.0 0
362000.0 458775.0 0
366000.0 458775.0 0
370000.0 458775.0 0
374000.0 458775.0 0
378000.0 458775.0 0
382000.0 458775.0 0
386000.0 458775.0 0
390000.0 458775.0 0
394000.0 458775.0 0
398000.0 458775.0 0
102000.0 462775.0 0
106000.0 462775.0 0
110000.0 462775.0 0
114000.0 462775.0 0
118000.0 462775.0 0
122000.0 462775.0 0
126000.0 462775.0 0
130000.0 462775.0 0
134000.0 462775.0 0
138000.0 462775.0 0
142000.0 462775.0 0
146000.0 462775.0 0
150000.0 462775.0 0
154000.0 462775.0 0
158000.0 462775.0 0
162000.0 462775.0 0
166000.0 462775.0 0
170000.0 462775.0 0
174000.0 462775.0 0
178000.0 462775.0 0
182000.0 462775.0 0
186000.0 462775.0 0
190000.0 462775.0 0
194000.0 462775.0 0
198000.0 462775.0 0
202000.0 462775.0 0
206000.0 462775.0 0
210000.0 462775.0 0
214000.0 462775.0 0
218000.0 462775.0 0
222000.0 462775.0 0
226000.0 462775.0 0
230000.0 462775.0 0
234000.0 462775.0 0
238000.0 462775.0 0
242000.0 462775.0 0
246000.0 462775.0 0
250000.0 462775.0 0
254000.0 462775.0 0
258000.0 462775.0 0
262000.0 462775.0 0
266000.0 462775.0 0
270000.0 462775.0 0
274000.0 462775.0 0
278000.0 462775.0 0
282000.0 462775.0 0
286000.0 462775.0 0
290000.0 462775.0 0
294000.0 462775.0 0
298000.0 462775.0 0
302000.0 462775.0 0
306000.0 462775.0 0
310000.0 462775.0 0
314000.0 462775.0 0
318000.0 462775.0 0
322000.0 462775.0 0
326000.0 462775.0 0
330000.0 462775.0 0
334000.0 462775.0 0
338000.0 462775.0 0
342000.0 462775.0 0
346000.0 462775.0 0
350000.0 462775.0 0
354000.0 462775.0 0
358000.0 462775.0 0
362000.0 462775.0 0
366000.0 462775.0 0
370000.0 462775.0 0
374000.0 462775.0 0
378000.0 462775.0 0
382000.0 462775.0 0
386000.0 462775.0 0
390000.0 462775.0 0
394000.0 462775.0 0
398000.0 462775.0 0
102000.0 466775.0 0
106000.0 466775.0 0
110000.0 466775.0 0
114000.0 466775.0 0
118000.0 466775.0 0
122000.0 466775.0 0
126000.0 466775.0 0
130000.0 466775.0 0
134000.0 466775.0 0
138000.0 466775.0 0
142000.0 466775.0 0
146000.0 466775.0 0
150000.0 466775.0 0
154000.0 466775.0 0
158000.0 466775.0 0
162000.0 466775.0 0
166000.0 466775.0 0
170000.0 466775.0 0
174000.0 466775.0 0
178000.0 466775.0 0
182000.0 466775.0 0
186000.0 466775.0 0
190000.0 466775.0 0
194000.0 466775.0 0
198000.0 466775.0 0
202000.0 466775.0 0
206000.0 466775.0 0
210000.0 466775.0 0
214000.0 466775.0 0
218000.0 466775.0 0
222000.0 466775.0 0
226000.0 466775.0 0
230000.0 466775.0 0
234000.0 466775.0 0
238000.0 466775.0 0
242000.0 466775.0 0
246000.0 466775.0 0
250000.0 466775.0 0
254000.0 466775.0 0
258000.0 466775.0 0
262000.0 466775.0 0
266000.0 466775.0 0
270000.0 466775.0 0
274000.0 466775.0 0
278000.0 466775.0 0
282000.0 466775.0 0
286000.0 466775.0 0
290000.0 466775.0 0
294000.0 466775.0 0
298000.0 466775.0 0
302000.0 466775.0 0
306000.0 466775.0 0
310000.0 466775.0 0
314000.0 466775.0 0
318000.0 466775.0 0
322000.0 466775.0 0
326000.0 466775.0 0
330000.0 466775.0 0
334000.0 466775.0 0
338000.0 466775.0 0
342000.0 466775.0 0
346000.0 466775.0 0
350000.0 466775.0 0
354000.0 466775.0 0
358000.0 466775.0 0
362000.0 466775.0 0
366000.0 466775.0 0
370000.0 466775.0 0
374000.0 466775.0 0
378000.0 466775.0 0
382000.0 466775.0 0
386000.0 466775.0 0
390000.0 466775.0 0
394000.0 466775.0 0
398000.0 466775.0 0
102000.0 470775.0 0
106000.0 470775.0 0
110000.0 470775.0 0
114000.0 470775.0 0
118000.0 470775.0 0
122000.0 470775.0 0
126000.0 470775.0 0
130000.0 470775.0 0
134000.0 470775.0 0
138000.0 470775.0 0
142000.0 470775.0 0
146000.0 470775.0 0
150000.0 470775.0 0
154000.0 470775.0 0
158000.0 470775.0 0
162000.0 470775.0 0
166000.0 470775.0 0
170000.0 470775.0 0
174000.0 470775.0 0
178000.0 470775.0 0
182000.0 470775.0 0
186000.0 470775.0 0
190000.0 470775.0 0
194000.0 470775.0 0
198000.0 470775.0 0
202000.0 470775.0 0
206000.0 470775.0 0
210000.0 470775.0 0
214000.0 470775.0 0
218000.0 470775.0 0
222000.0 470775.0 0
226000.0 470775.0 0
230000.0 470775.0 0
234000.0 470775.0 0
238000.0 470775.0 0
242000.0 470775.0 0
246000.0 470775.0 0
250000.0 470775.0 0
254000.0 470775.0 0
258000.0 470775.0 0
262000.0 470775.0 0
266000.0 470775.0 0
270000.0 470775.0 0
274000.0 470775.0 0
278000.0 470775.0 0
282000.0 470775.0 0
286000.0 470775.0 0
290000.0 470775.0 0
294000.0 470775.0 0
298000.0 470775.0 0
302000.0 470775.0 0
306000.0 470775.0 0
310000.0 470775.0 0
314000.0 470775.0 0
318000.0 470775.0 0
322000.0 470775.0 0
326000.0 470775.0 0
330000.0 470775.0 0
334000.0 470775.0 0
338000.0 470775.0 0
342000.0 470775.0 0
346000.0 470775.0 0
350000.0 470775.0 0
354000.0 470775.0 0
358000.0 470775.0 0
362000.0 470775.0 0
366000.0 470775.0 0
370000.0 470775.0 0
374000.0 470775.0 0
378000.0 470775.0 0
382000.0 470775.0 0
386000.0 470775.0 0
390000.0 470775.0 0
394000.0 470775.0 0
398000.0 470775.0 0
102000.0 474775.0 0
106000.0 474775.0 0
110000.0 474775.0 0
114000.0 474775.0 0
118000.0 474775.0 0
122000.0 474775.0 0
126000.0 474775.0 0
130000.0 474775.0 0
134000.0 474775.0 0
138000.0 474775.0 0
142000.0 474775.0 0
146000.0 474775.0 0
150000.0 474775.0 0
154000.0 474775.0 0
158000.0 474775.0 0
162000.0 474775.0 0
166000.0 474775.0 0
170000.0 474775.0 0
174000.0 474775.0 0
178000.0 474775.0 0
182000.0 474775.0 0
186000.0 474775.0 0
190000.0 474775.0 0
194000.0 474775.0 0
198000.0 474775.0 0
202000.0 474775.0 0
206000.0 474775.0 0
210000.0 474775.0 0
214000.0 474775.0 0
218000.0 474775.0 0
222000.0 474775.0 0
226000.0 474775.0 0
230000.0 474775.0 0
234000.0 474775.0 0
238000.0 474775.0 0
242000.0 474775.0 0
246000.0 474775.0 0
250000.0 474775.0 0
254000.0 474775.0 0
258000.0 474775.0 0
262000.0 474775.0 0
266000.0 474775.0 0
270000.0 474775.0 0
274000.0 474775.0 0
278000.0 474775.0 0
282000.0 474775.0 0
286000.0 474775.0 0
290000.0 474775.0 0
294000.0 474775.0 0
298000.0 474775.0 0
302000.0 474775.0 0
306000.0 474775.0 0
310000.0 474775.0 0
314000.0 474775.0 0
318000.0 474775.0 0
322000.0 474775.0 0
326000.0 474775.0 0
330000.0 474775.0 0
334000.0 474775.0 0
338000.0 474775.0 0
342000.0 474775.0 0
346000.0 474775.0 0
350000.0 474775.0 0
354000.0 474775.0 0
358000.0 474775.0 0
362000.0 474775.0 0
366000.0 474775.0 0
370000.0 474775.0 0
374000.0 474775.0 0
378000.0 474775.0 0
382000.0 474775.0 0
386000.0 474775.0 0
390000.0 474775.0 0
394000.0 474775.0 0
398000.0 474775.0 0
102000.0 478775.0 0
106000.0 478775.0 0
110000.0 478775.0 0
114000.0 478775.0 0
118000.0 478775.0 0
122000.0 478775.0 0
126000.0 478775.0 0
130000.0 478775.0 0
134000.0 478775.0 0
138000.0 478775.0 0
142000.0 478775.0 0
146000.0 478775.0 0
150000.0 478775.0 0
154000.0 478775.0 0
158000.0 478775.0 0
162000.0 478775.0 0
166000.0 478775.0 0
170000.0 478775.0 0
174000.0 478775.0 0
178000.0 478775.0 0
182000.0 478775.0 0
186000.0 478775.0 0
190000.0 478775.0 0
194000.0 478775.0 0
198000.0 478775.0 0
202000.0 478775.0 0
206000.0 478775.0 0
210000.0 478775.0 0
214000.0 478775.0 0
218000.0 478775.0 0
222000.0 478775.0 0
226000.0 478775.0 0
230000.0 478775.0 0
234000.0 478775.0 0
238000.0 478775.0 0
242000.0 478775.0 0
246000.0 478775.0 0
250000.0 478775.0 0
254000.0 478775.0 0
258000.0 478775.0 0
262000.0 478775.0 0
266000.0 478775.0 0
270000.0 478775.0 0
274000.0 478775.0 0
278000.0 478775.0 0
282000.0 478775.0 0
286000.0 478775.0 0
290000.0 478775.0 0
294000.0 478775.0 0
298000.0 478775.0 0
302000.0 478775.0 0
306000.0 478775.0 0
310000.0 478775.0 0
314000.0 478775.0 0
318000.0 478775.0 0
322000.0 478775.0 0
326000.0 478775.0 0
330000.0 478775.0 0
334000.0 478775.0 0
338000.0 478775.0 0
342000.0 478775.0 0
346000.0 478775.0 0
350000.0 478775.0 0
354000.0 478775.0 0
358000.0 478775.0 0
362000.0 478775.0 0
366000.0 478775.0 0
370000.0 478775.0 0
374000.0 478775.0 0
378000.0 478775.0 0
382000.0 478775.0 0
386000.0 478775.0 0
390000.0 478775.0 0
394000.0 478775.0 0
398000.0 478775.0 0
102000.0 482775.0 0
106000.0 482775.0 0
110000.0 482775.0 0
114000.0 482775.0 0
118000.0 482775.0 0
122000.0 482775.0 0
126000.0 482775.0 0
130000.0 482775.0 0
134000.0 482775.0 0
138000.0 482775.0 0
142000.0 482775.0 0
146000.0 482775.0 0
150000.0 482775.0 0
154000.0 482775.0 0
158000.0 482775.0 0
162000.0 482775.0 0
166000.0 482775.0 0
170000.0 482775.0 0
174000.0 482775.0 0
178000.0 482775.0 0
182000.0 482775.0 0
186000.0 482775.0 0
190000.0 482775.0 0
194000.0 482775.0 0
198000.0 482775.0 0
202000.0 482775.0 0
206000.0 482775.0 0
210000.0 482775.0 0
214000.0 482775.0 0
218000.0 482775.0 0
222000.0 482775.0 0
226000.0 482775.0 0
230000.0 482775.0 0
234000.0 482775.0 0
238000.0 482775.0 0
242000.0 482775.0 0
246000.0 482775.0 0
250000.0 482775.0 0
254000.0 482775.0 0
258000.0 482775.0 0
262000.0 482775.0 0
266000.0 482775.0 0
270000.0 482775.0 0
274000.0 482775.0 0
278000.0 482775.0 0
282000.0 482775.0 0
286000.0 482775.0 0
290000.0 482775.0 0
294000.0 482775.0 0
298000.0 482775.0 0
302000.0 482775.0 0
306000.0 482775.0 0
310000.0 482775.0 0
314000.0 482775.0 0
318000.0 482775.0 0
322000.0 482775.0 0
326000.0 482775.0 0
330000.0 482775.0 0
334000.0 482775.0 0
338000.0 482775.0 0
342000.0 482775.0 0
346000.0 482775.0 0
350000.0 482775.0 0
354000.0 482775.0 0
358000.0 482775.0 0
362000.0 482775.0 0
366000.0 482775.0 0
370000.0 482775.0 0
374000.0 482775.0 0
378000.0 482775.0 0
382000.0 482775.0 0
386000.0 482775.0 0
390000.0 482775.0 0
394000.0 482775.0 0
398000.0 482775.0 0
102000.0 486775.0 0
106000.0 486775.0 0
110000.0 486775.0 0
114000.0 486775.0 0
118000.0 486775.0 0
122000.0 486775.0 0
126000.0 486775.0 0
130000.0 486775.0 0
134000.0 486775.0 0
138000.0 486775.0 0
142000.0 486775.0 0
146000.0 486775.0 0
150000.0 486775.0 0
154000.0 486775.0 0
158000.0 486775.0 0
162000.0 486775.0 0
166000.0 486775.0 0
170000.0 486775.0 0
174000.0 486775.0 0
178000.0 486775.0 0
182000.0 486775.0 0
186000.0 486775.0 0
190000.0 486775.0 0
194000.0 486775.0 0
198000.0 486775.0 0
202000.0 486775.0 0
206000.0 486775.0 0
210000.0 486775.0 0
214000.0 486775.0 0
218000.0 486775.0 0
222000.0 486775.0 0
226000.0 486775.0 0
230000.0 486775.0 0
234000.0 486775.0 0
238000.0 486775.0 0
242000.0 486775.0 0
246000.0 486775.0 0
250000.0 486775.0 0
254000.0 486775.0 0
258000.0 486775.0 0
262000.0 486775.0 0
266000.0 486775.0 0
270000.0 486775.0 0
274000.0 486775.0 0
278000.0 486775.0 0
282000.0 486775.0 0
286000.0 486775.0 0
290000.0 486775.0 0
294000.0 486775.0 0
298000.0 486775.0 0
302000.0 486775.0 0
306000.0 486775.0 0
310000.0 486775.0 0
314000.0 486775.0 0
318000.0 486775.0 0
322000.0 486775.0 0
326000.0 486775.0 0
330000.0 486775.0 0
334000.0 486775.0 0
338000.0 486775.0 0
342000.0 486775.0 0
346000.0 486775.0 0
350000.0 486775.0 0
354000.0 486775.0 0
358000.0 486775.0 0
362000.0 486775.0 0
366000.0 486775.0 0
370000.0 486775.0 0
374000.0 486775.0 0
378000.0 486775.0 0
382000.0 486775.0 0
386000.0 486775.0 0
390000.0 486775.0 0
394000.0 486775.0 0
398000.0 486775.0 0
102000.0 490775.0 0
106000.0 490775.0 0
110000.0 490775.0 0
114000.0 490775.0 0
118000.0 490775.0 0
122000.0 490775.0 0
126000.0 490775.0 0
130000.0 490775.0 0
134000.0 490775.0 0
138000.0 490775.0 0
142000.0 490775.0 0
146000.0 490775.0 0
150000.0 490775.0 0
154000.0 490775.0 0
158000.0 490775.0 0
162000.0 490775.0 0
166000.0 490775.0 0
170000.0 490775.0 0
174000.0 490775.0 0
178000.0 490775.0 0
182000.0 490775.0 0
186000.0 490775.0 0
190000.0 490775.0 0
194000.0 490775.0 0
198000.0 490775.0 0
202000.0 490775.0 0
206000.0 490775.0 0
210000.0 490775.0 0
214000.0 490775.0 0
218000.0 490775.0 0
222000.0 490775.0 0
226000.0 490775.0 0
230000.0 490775.0 0
234000.0 490775.0 0
238000.0 490775.0 0
242000.0 490775.0 0
246000.0 490775.0 0
250000.0 490775.0 0
254000.0 490775.0 0
258000.0 490775.0 0
262000.0 490775.0 0
266000.0 490775.0 0
270000.0 490775.0 0
274000.0 490775.0 0
278000.0 490775.0 0
282000.0 490775.0 0
286000.0 490775.0 0
290000.0 490775.0 0
294000.0 490775.0 0
298000.0 490775.0 0
302000.0 490775.0 0
306000.0 490775.0 0
310000.0 490775.0 0
314000.0 490775.0 0
318000.0 490775.0 0
322000.0 490775.0 0
326000.0 490775.0 0
330000.0 490775.0 0
334000.0 490775.0 0
338000.0 490775.0 0
342000.0 490775.0 0
346000.0 490775.0 0
350000.0 490775.0 0
354000.0 490775.0 0
358000.0 490775.0 0
362000.0 490775.0 0
366000.0 490775.0 0
370000.0 490775.0 0
374000.0 490775.0 0
378000.0 490775.0 0
382000.0 490775.0 0
386000.0 490775.0 0
390000.0 490775.0 0
394000.0 490775.0 0
398000.0 490775.0 0
102000.0 494775.0 0
106000.0 494775.0 0
110000.0 494775.0 0
114000.0 494775.0 0
118000.0 494775.0 0
122000.0 494775.0 0
126000.0 494775.0 0
130000.0 494775.0 0
134000.0 494775.0 0
138000.0 494775.0 0
142000.0 494775.0 0
146000.0 494775.0 0
150000.0 494775.0 0
154000.0 494775.0 0
158000.0 494775.0 0
162000.0 494775.0 0
166000.0 494775.0 0
170000.0 494775.0 0
174000.0 494775.0 0
178000.0 494775.0 0
182000.0 494775.0 0
186000.0 494775.0 0
190000.0 494775.0 0
194000.0 494775.0 0
198000.0 494775.0 0
202000.0 494775.0 0
206000.0 494775.0 0
210000.0 494775.0 0
214000.0 494775.0 0
218000.0 494775.0 0
222000.0 494775.0 0
226000.0 494775.0 0
230000.0 494775.0 0
234000.0 494775.0 0
238000.0 494775.0 0
242000.0 494775.0 0
246000.0 494775.0 0
250000.0 494775.0 0
254000.0 494775.0 0
258000.0 494775.0 0
262000.0 494775.0 0
266000.0 494775.0 0
270000.0 494775.0 0
274000.0 494775.0 0
278000.0 494775.0 0
282000.0 494775.0 0
286000.0 494775.0 0
290000.0 494775.0 0
294000.0 494775.0 0
298000.0 494775.0 0
302000.0 494775.0 0
306000.0 494775.0 0
310000.0 494775.0 0
314000.0 494775.0 0
318000.0 494775.0 0
322000.0 494775.0 0
326000.0 494775.0 0
330000.0 494775.0 0
334000.0 494775.0 0
338000.0 494775.0 0
342000.0 494775.0 0
346000.0 494775.0 0
350000.0 494775.0 0
354000.0 494775.0 0
358000.0 494775.0 0
362000.0 494775.0 0
366000.0 494775.0 0
370000.0 494775.0 0
374000.0 494775.0 0
378000.0 494775.0 0
382000.0 494775.0 0
386000.0 494775.0 0
390000.0 494775.0 0
394000.0 494775.0 0
398000.0 494775.0 0
102000.0 498775.0 0
106000.0 498775.0 0
110000.0 498775.0 0
114000.0 498775.0 0
118000.0 498775.0 0
122000.0 498775.0 0
126000.0 498775.0 0
130000.0 498775.0 0
134000.0 498775.0 0
138000.0 498775.0 0
142000.0 498775.0 0
146000.0 498775.0 0
150000.0 498775.0 0
154000.0 498775.0 0
158000.0 498775.0 0
162000.0 498775.0 0
166000.0 498775.0 0
170000.0 498775.0 0
174000.0 498775.0 0
178000.0 498775.0 0
182000.0 498775.0 0
186000.0 498775.0 0
190000.0 498775.0 0
194000.0 498775.0 0
198000.0 498775.0 0
202000.0 498775.0 0
206000.0 498775.0 0
210000.0 498775.0 0
214000.0 498775.0 0
218000.0 498775.0 0
222000.0 498775.0 0
226000.0 498775.0 0
230000.0 498775.0 0
234000.0 498775.0 0
238000.0 498775.0 0
242000.0 498775.0 0
246000.0 498775.0 0
250000.0 498775.0 0
254000.0 498775.0 0
258000.0 498775.0 0
262000.0 498775.0 0
266000.0 498775.0 0
270000.0 498775.0 0
274000.0 498775.0 0
278000.0 498775.0 0
282000.0 498775.0 0
286000.0 498775.0 0
290000.0 498775.0 0
294000.0 498775.0 0
298000.0 498775.0 0
302000.0 498775.0 0
306000.0 498775.0 0
310000.0 498775.0 0
314000.0 498775.0 0
318000.0 498775.0 0
322000.0 498775.0 0
326000.0 498775.0 0
330000.0 498775.0 0
334000.0 498775.0 0
338000.0 498775.0 0
342000.0 498775.0 0
346000.0 498775.0 0
350000.0 498775.0 0
354000.0 498775.0 0
358000.0 498775.0 0
362000.0 498775.0 0
366000.0 498775.0 0
370000.0 498775.0 0
374000.0 498775.0 0
378000.0 498775.0 0
382000.0 498775.0 0
386000.0 498775.0 0
390000.0 498775.0 0
394000.0 498775.0 0
398000.0 498775.0 0
102000.0 502775.0 0
106000.0 502775.0 0
110000.0 502775.0 0
114000.0 502775.0 0
118000.0 502775.0 0
122000.0 502775.0 0
126000.0 502775.0 0
130000.0 502775.0 0
134000.0 502775.0 0
138000.0 502775.0 0
142000.0 502775.0 0
146000.0 502775.0 0
150000.0 502775.0 0
154000.0 502775.0 0
158000.0 502775.0 0
162000.0 502775.0 0
166000.0 502775.0 0
170000.0 502775.0 0
174000.0 502775.0 0
178000.0 502775.0 0
182000.0 502775.0 0
186000.0 502775.0 0
190000.0 502775.0 0
194000.0 502775.0 0
198000.0 502775.0 0
202000.0 502775.0 0
206000.0 502775.0 0
210000.0 502775.0 0
214000.0 502775.0 0
218000.0 502775.0 0
222000.0 502775.0 0
226000.0 502775.0 0
230000.0 502775.0 0
234000.0 502775.0 0
238000.0 502775.0 0
242000.0 502775.0 0
246000.0 502775.0 0
250000.0 502775.0 0
254000.0 502775.0 0
258000.0 502775.0 0
262000.0 502775.0 0
266000.0 502775.0 0
270000.0 502775.0 0
274000.0 502775.0 0
278000.0 502775.0 0
282000.0 502775.0 0
286000.0 502775.0 0
290000.0 502775.0 0
294000.0 502775.0 0
298000.0 502775.0 0
302000.0 502775.0 0
306000.0 502775.0 0
310000.0 502775.0 0
314000.0 502775.0 0
318000.0 502775.0 0
322000.0 502775.0 0
326000.0 502775.0 0
330000.0 502775.0 0
334000.0 502775.0 0
338000.0 502775.0 0
342000.0 502775.0 0
346000.0 502775.0 0
350000.0 502775.0 0
354000.0 502775.0 0
358000.0 502775.0 0
362000.0 502775.0 0
366000.0 502775.0 0
370000.0 502775.0 0
374000.0 502775.0 0
378000.0 502775.0 0
382000.0 502775.0 0
386000.0 502775.0 0
390000.0 502775.0 0
394000.0 502775.0 0
398000.0 502775.0 0
102000.0 506775.0 0
106000.0 506775.0 0
110000.0 506775.0 0
114000.0 506775.0 0
118000.0 506775.0 0
122000.0 506775.0 0
126000.0 506775.0 0
130000.0 506775.0 0
134000.0 506775.0 0
138000.0 506775.0 0
142000.0 506775.0 0
146000.0 506775.0 0
150000.0 506775.0 0
154000.0 506775.0 0
158000.0 506775.0 0
162000.0 506775.0 0
166000.0 506775.0 0
170000.0 506775.0 0
174000.0 506775.0 0
178000.0 506775.0 0
182000.0 506775.0 0
186000.0 506775.0 0
190000.0 506775.0 0
194000.0 506775.0 0
198000.0 506775.0 0
202000.0 506775.0 0
206000.0 506775.0 0
210000.0 506775.0 0
214000.0 506775.0 0
218000.0 506775.0 0
222000.0 506775.0 0
226000.0 506775.0 0
230000.0 506775.0 0
234000.0 506775.0 0
238000.0 506775.0 0
242000.0 506775.0 0
246000.0 506775.0 0
250000.0 506775.0 0
254000.0 506775.0 0
258000.0 506775.0 0
262000.0 506775.0 0
266000.0 506775.0 0
270000.0 506775.0 0
274000.0 506775.0 0
278000.0 506775.0 0
282000.0 506775.0 0
286000.0 506775.0 0
290000.0 506775.0 0
294000.0 506775.0 0
298000.0 506775.0 0
302000.0 506775.0 0
306000.0 506775.0 0
310000.0 506775.0 0
314000.0 506775.0 0
318000.0 506775.0 0
322000.0 506775.0 0
326000.0 506775.0 0
330000.0 506775.0 0
334000.0 506775.0 0
338000.0 506775.0 0
342000.0 506775.0 0
346000.0 506775.0 0
350000.0 506775.0 0
354000.0 506775.0 0
358000.0 506775.0 0
362000.0 506775.0 0
366000.0 506775.0 0
370000.0 506775.0 0
374000.0 506775.0 0
378000.0 506775.0 0
382000.0 506775.0 0
386000.0 506775.0 0
390000.0 506775.0 0
394000.0 506775.0 0
398000.0 506775.0 0
102000.0 510775.0 0
106000.0 510775.0 0
110000.0 510775.0 0
114000.0 510775.0 0
118000.0 510775.0 0
122000.0 510775.0 0
126000.0 510775.0 0
130000.0 510775.0 0
134000.0 510775.0 0
138000.0 510775.0 0
142000.0 510775.0 0
146000.0 510775.0 0
150000.0 510775.0 0
154000.0 510775.0 0
158000.0 510775.0 0
162000.0 510775.0 0
166000.0 510775.0 0
170000.0 510775.0 0
174000.0 510775.0 0
178000.0 510775.0 0
182000.0 510775.0 0
186000.0 510775.0 0
190000.0 510775.0 0
194000.0 510775.0 0
198000.0 510775.0 0
202000.0 510775.0 0
206000.0 510775.0 0
210000.0 510775.0 0
214000.0 510775.0 0
218000.0 510775.0 0
222000.0 510775.0 0
226000.0 510775.0 0
230000.0 510775.0 0
234000.0 510775.0 0
238000.0 510775.0 0
242000.0 510775.0 0
246000.0 510775.0 0
250000.0 510775.0 0
254000.0 510775.0 0
258000.0 510775.0 0
262000.0 510775.0 0
266000.0 510775.0 0
270000.0 510775.0 0
274000.0 510775.0 0
278000.0 510775.0 0
282000.0 510775.0 0
286000.0 510775.0 0
290000.0 510775.0 0
294000.0 510775.0 0
298000.0 510775.0 0
302000.0 510775.0 0
306000.0 510775.0 0
310000.0 510775.0 0
314000.0 510775.0 0
318000.0 510775.0 0
322000.0 510775.0 0
326000.0 510775.0 0
330000.0 510775.0 0
334000.0 510775.0 0
338000.0 510775.0 0
342000.0 510775.0 0
346000.0 510775.0 0
350000.0 510775.0 0
354000.0 510775.0 0
358000.0 510775.0 0
362000.0 510775.0 0
366000.0 510775.0 0
370000.0 510775.0 0
374000.0 510775.0 0
378000.0 510775.0 0
382000.0 510775.0 0
386000.0 510775.0 0
390000.0 510775.0 0
394000.0 510775.0 0
398000.0 510775.0 0
102000.0 514775.0 0
106000.0 514775.0 0
110000.0 514775.0 0
114000.0 514775.0 0
118000.0 514775.0 0
122000.0 514775.0 0
126000.0 514775.0 0
130000.0 514775.0 0
134000.0 514775.0 0
138000.0 514775.0 0
142000.0 514775.0 0
146000.0 514775.0 0
150000.0 514775.0 0
154000.0 514775.0 0
158000.0 514775.0 0
162000.0 514775.0 0
166000.0 514775.0 0
170000.0 514775.0 0
174000.0 514775.0 0
178000.0 514775.0 0
182000.0 514775.0 0
186000.0 514775.0 0
190000.0 514775.0 0
194000.0 514775.0 0
198000.0 514775.0 0
202000.0 514775.0 0
206000.0 514775.0 0
210000.0 514775.0 0
214000.0 514775.0 0
218000.0 514775.0 0
222000.0 514775.0 0
226000.0 514775.0 0
230000.0 514775.0 0
234000.0 514775.0 0
238000.0 514775.0 0
242000.0 514775.0 0
246000.0 514775.0 0
250000.0 514775.0 0
254000.0 514775.0 0
258000.0 514775.0 0
262000.0 514775.0 0
266000.0 514775.0 0
270000.0 514775.0 0
274000.0 514775.0 0
278000.0 514775.0 0
282000.0 514775.0 0
286000.0 514775.0 0
290000.0 514775.0 0
294000.0 514775.0 0
298000.0 514775.0 0
302000.0 514775.0 0
306000.0 514775.0 0
310000.0 514775.0 0
314000.0 514775.0 0
318000.0 514775.0 0
322000.0 514775.0 0
326000.0 514775.0 0
330000.0 514775.0 0
334000.0 514775.0 0
338000.0 514775.0 0
342000.0 514775.0 0
346000.0 514775.0 0
350000.0 514775.0 0
354000.0 514775.0 0
358000.0 514775.0 0
362000.0 514775.0 0
366000.0 514775.0 0
370000.0 514775.0 0
374000.0 514775.0 0
378000.0 514775.0 0
382000.0 514775.0 0
386000.0 514775.0 0
390000.0 514775.0 0
394000.0 514775.0 0
398000.0 514775.0 0
102000.0 518775.0 0
106000.0 518775.0 0
110000.0 518775.0 0
114000.0 518775.0 0
118000.0 518775.0 0
122000.0 518775.0 0
126000.0 518775.0 0
130000.0 518775.0 0
134000.0 518775.0 0
138000.0 518775.0 0
142000.0 518775.0 0
146000.0 518775.0 0
150000.0 518775.0 0
154000.0 518775.0 0
158000.0 518775.0 0
162000.0 518775.0 0
166000.0 518775.0 0
170000.0 518775.0 0
174000.0 518775.0 0
178000.0 518775.0 0
182000.0 518775.0 0
186000.0 518775.0 0
190000.0 518775.0 0
194000.0 518775.0 0
198000.0 518775.0 0
202000.0 518775.0 0
206000.0 518775.0 0
210000.0 518775.0 0
214000.0 518775.0 0
218000.0 518775.0 0
222000.0 518775.0 0
226000.0 518775.0 0
230000.0 518775.0 0
234000.0 518775.0 0
238000.0 518775.0 0
242000.0 518775.0 0
246000.0 518775.0 0
250000.0 518775.0 0
254000.0 518775.0 0
258000.0 518775.0 0
262000.0 518775.0 0
266000.0 518775.0 0
270000.0 518775.0 0
274000.0 518775.0 0
278000.0 518775.0 0
282000.0 518775.0 0
286000.0 518775.0 0
290000.0 518775.0 0
294000.0 518775.0 0
298000.0 518775.0 0
302000.0 518775.0 0
306000.0 518775.0 0
310000.0 518775.0 0
314000.0 518775.0 0
318000.0 518775.0 0
322000.0 518775.0 0
326000.0 518775.0 0
330000.0 518775.0 0
334000.0 518775.0 0
338000.0 518775.0 0
342000.0 518775.0 0
346000.0 518775.0 0
350000.0 518775.0 0
354000.0 518775.0 0
358000.0 518775.0 0
362000.0 518775.0 0
366000.0 518775.0 0
370000.0 518775.0 0
374000.0 518775.0 0
378000.0 518775.0 0
382000.0 518775.0 0
386000.0 518775.0 0
390000.0 518775.0 0
394000.0 518775.0 0
398000.0 518775.0 0
102000.0 522775.0 0
106000.0 522775.0 0
110000.0 522775.0 0
114000.0 522775.0 0
118000.0 522775.0 0
122000.0 522775.0 0
126000.0 522775.0 0
130000.0 522775.0 0
134000.0 522775.0 0
138000.0 522775.0 0
142000.0 522775.0 0
146000.0 522775.0 0
150000.0 522775.0 0
154000.0 522775.0 0
158000.0 522775.0 0
162000.0 522775.0 0
166000.0 522775.0 0
170000.0 522775.0 0
174000.0 522775.0 0
178000.0 522775.0 0
182000.0 522775.0 0
186000.0 522775.0 0
190000.0 522775.0 0
194000.0 522775.0 0
198000.0 522775.0 0
202000.0 522775.0 0
206000.0 522775.0 0
210000.0 522775.0 0
214000.0 522775.0 0
218000.0 522775.0 0
222000.0 522775.0 0
226000.0 522775.0 0
230000.0 522775.0 0
234000.0 522775.0 0
238000.0 522775.0 0
242000.0 522775.0 0
246000.0 522775.0 0
250000.0 522775.0 0
254000.0 522775.0 0
258000.0 522775.0 0
262000.0 522775.0 0
266000.0 522775.0 0
270000.0 522775.0 0
274000.0 522775.0 0
278000.0 522775.0 0
282000.0 522775.0 0
286000.0 522775.0 0
290000.0 522775.0 0
294000.0 522775.0 0
298000.0 522775.0 0
302000.0 522775.0 0
306000.0 522775.0 0
310000.0 522775.0 0
314000.0 522775.0 0
318000.0 522775.0 0
322000.0 522775.0 0
326000.0 522775.0 0
330000.0 522775.0 0
334000.0 522775.0 0
338000.0 522775.0 0
342000.0 522775.0 0
346000.0 522775.0 0
350000.0 522775.0 0
354000.0 522775.0 0
358000.0 522775.0 0
362000.0 522775.0 0
366000.0 522775.0 0
370000.0 522775.0 0
374000.0 522775.0 0
378000.0 522775.0 0
382000.0 522775.0 0
386000.0 522775.0 0
390000.0 522775.0 0
394000.0 522775.0 0
398000.0 522775.0 0
102000.0 526775.0 0
106000.0 526775.0 0
110000.0 526775.0 0
114000.0 526775.0 0
118000.0 526775.0 0
122000.0 526775.0 0
126000.0 526775.0 0
130000.0 526775.0 0
134000.0 526775.0 0
138000.0 526775.0 0
142000.0 526775.0 0
146000.0 526775.0 0
150000.0 526775.0 0
154000.0 526775.0 0
158000.0 526775.0 0
162000.0 526775.0 0
166000.0 526775.0 0
170000.0 526775.0 0
174000.0 526775.0 0
178000.0 526775.0 0
182000.0 526775.0 0
186000.0 526775.0 0
190000.0 526775.0 0
194000.0 526775.0 0
198000.0 526775.0 0
202000.0 526775.0 0
206000.0 526775.0 0
210000.0 526775.0 0
214000.0 526775.0 0
218000.0 526775.0 0
222000.0 526775.0 0
226000.0 526775.0 0
230000.0 526775.0 0
234000.0 526775.0 0
238000.0 526775.0 0
242000.0 526775.0 0
246000.0 526775.0 0
250000.0 526775.0 0
254000.0 526775.0 0
258000.0 526775.0 0
262000.0 526775.0 0
266000.0 526775.0 0
270000.0 526775.0 0
274000.0 526775.0 0
278000.0 526775.0 0
282000.0 526775.0 0
286000.0 526775.0 0
290000.0 526775.0 0
294000.0 526775.0 0
298000.0 526775.0 0
302000.0 526775.0 0
306000.0 526775.0 0
310000.0 526775.0 0
314000.0 526775.0 0
318000.0 526775.0 0
322000.0 526775.0 0
326000.0 526775.0 0
330000.0 526775.0 0
334000.0 526775.0 0
338000.0 526775.0 0
342000.0 526775.0 0
346000.0 526775.0 0
350000.0 526775.0 0
354000.0 526775.0 0
358000.0 526775.0 0
362000.0 526775.0 0
366000.0 526775.0 0
370000.0 526775.0 0
374000.0 526775.0 0
378000.0 526775.0 0
382000.0 526775.0 0
386000.0 526775.0 0
390000.0 526775.0 0
394000.0 526775.0 0
398000.0 526775.0 0
102000.0 530775.0 0
106000.0 530775.0 0
110000.0 530775.0 0
114000.0 530775.0 0
118000.0 530775.0 0
122000.0 530775.0 0
126000.0 530775.0 0
130000.0 530775.0 0
134000.0 530775.0 0
138000.0 530775.0 0
142000.0 530775.0 0
146000.0 530775.0 0
150000.0 530775.0 0
154000.0 530775.0 0
158000.0 530775.0 0
162000.0 530775.0 0
166000.0 530775.0 0
170000.0 530775.0 0
174000.0 530775.0 0
178000.0 530775.0 0
182000.0 530775.0 0
186000.0 530775.0 0
190000.0 530775.0 0
194000.0 530775.0 0
198000.0 530775.0 0
202000.0 530775.0 0
206000.0 530775.0 0
210000.0 530775.0 0
214000.0 530775.0 0
218000.0 530775.0 0
222000.0 530775.0 0
226000.0 530775.0 0
230000.0 530775.0 0
234000.0 530775.0 0
238000.0 530775.0 0
242000.0 530775.0 0
246000.0 530775.0 0
250000.0 530775.0 0
254000.0 530775.0 0
258000.0 530775.0 0
262000.0 530775.0 0
266000.0 530775.0 0
270000.0 530775.0 0
274000.0 530775.0 0
278000.0 530775.0 0
282000.0 530775.0 0
286000.0 530775.0 0
290000.0 530775.0 0
294000.0 530775.0 0
298000.0 530775.0 0
302000.0 530775.0 0
306000.0 530775.0 0
310000.0 530775.0 0
314000.0 530775.0 0
318000.0 530775.0 0
322000.0 530775.0 0
326000.0 530775.0 0
330000.0 530775.0 0
334000.0 530775.0 0
338000.0 530775.0 0
342000.0 530775.0 0
346000.0 530775.0 0
350000.0 530775.0 0
354000.0 530775.0 0
358000.0 530775.0 0
362000.0 530775.0 0
366000.0 530775.0 0
370000.0 530775.0 0
374000.0 530775.0 0
378000.0 530775.0 0
382000.0 530775.0 0
386000.0 530775.0 0
390000.0 530775.0 0
394000.0 530775.0 0
398000.0 530775.0 0
102000.0 534775.0 0
106000.0 534775.0 0
110000.0 534775.0 0
114000.0 534775.0 0
118000.0 534775.0 0
122000.0 534775.0 0
126000.0 534775.0 0
130000.0 534775.0 0
134000.0 534775.0 0
138000.0 534775.0 0
142000.0 534775.0 0
146000.0 534775.0 0
150000.0 534775.0 0
154000.0 534775.0 0
158000.0 534775.0 0
162000.0 534775.0 0
166000.0 534775.0 0
170000.0 534775.0 0
174000.0 534775.0 0
178000.0 534775.0 0
182000.0 534775.0 0
186000.0 534775.0 0
190000.0 534775.0 0
194000.0 534775.0 0
198000.0 534775.0 0
202000.0 534775.0 0
206000.0 534775.0 0
210000.0 534775.0 0
214000.0 534775.0 0
218000.0 534775.0 0
222000.0 534775.0 0
226000.0 534775.0 0
230000.0 534775.0 0
234000.0 534775.0 0
238000.0 534775.0 0
242000.0 534775.0 0
246000.0 534775.0 0
250000.0 534775.0 0
254000.0 534775.0 0
258000.0 534775.0 0
262000.0 534775.0 0
266000.0 534775.0 0
270000.0 534775.0 0
274000.0 534775.0 0
278000.0 534775.0 0
282000.0 534775.0 0
286000.0 534775.0 0
290000.0 534775.0 0
294000.0 534775.0 0
298000.0 534775.0 0
302000.0 534775.0 0
306000.0 534775.0 0
310000.0 534775.0 0
314000.0 534775.0 0
318000.0 534775.0 0
322000.0 534775.0 0
326000.0 534775.0 0
330000.0 534775.0 0
334000.0 534775.0 0
338000.0 534775.0 0
342000.0 534775.0 0
346000.0 534775.0 0
350000.0 534775.0 0
354000.0 534775.0 0
358000.0 534775.0 0
362000.0 534775.0 0
366000.0 534775.0 0
370000.0 534775.0 0
374000.0 534775.0 0
378000.0 534775.0 0
382000.0 534775.0 0
386000.0 534775.0 0
390000.0 534775.0 0
394000.0 534775.0 0
398000.0 534775.0 0
102000.0 538775.0 0
106000.0 538775.0 0
110000.0 538775.0 0
114000.0 538775.0 0
118000.0 538775.0 0
122000.0 538775.0 0
126000.0 538775.0 0
130000.0 538775.0 0
134000.0 538775.0 0
138000.0 538775.0 0
142000.0 538775.0 0
146000.0 538775.0 0
150000.0 538775.0 0
154000.0 538775.0 0
158000.0 538775.0 0
162000.0 538775.0 0
166000.0 538775.0 0
170000.0 538775.0 0
174000.0 538775.0 0
178000.0 538775.0 0
182000.0 538775.0 0
186000.0 538775.0 0
190000.0 538775.0 0
194000.0 538775.0 0
198000.0 538775.0 0
202000.0 538775.0 0
206000.0 538775.0 0
210000.0 538775.0 0
214000.0 538775.0 0
218000.0 538775.0 0
222000.0 538775.0 0
226000.0 538775.0 0
230000.0 538775.0 0
234000.0 538775.0 0
238000.0 538775.0 0
242000.0 538775.0 0
246000.0 538775.0 0
250000.0 538775.0 0
254000.0 538775.0 0
258000.0 538775.0 0
262000.0 538775.0 0
266000.0 538775.0 0
270000.0 538775.0 0
274000.0 538775.0 0
278000.0 538775.0 0
282000.0 538775.0 0
286000.0 538775.0 0
290000.0 538775.0 0
294000.0 538775.0 0
298000.0 538775.0 0
302000.0 538775.0 0
306000.0 538775.0 0
310000.0 538775.0 0
314000.0 538775.0 0
318000.0 538775.0 0
322000.0 538775.0 0
326000.0 538775.0 0
330000.0 538775.0 0
334000.0 538775.0 0
338000.0 538775.0 0
342000.0 538775.0 0
346000.0 538775.0 0
350000.0 538775.0 0
354000.0 538775.0 0
358000.0 538775.0 0
362000.0 538775.0 0
366000.0 538775.0 0
370000.0 538775.0 0
374000.0 538775.0 0
378000.0 538775.0 0
382000.0 538775.0 0
386000.0 538775.0 0
390000.0 538775.0 0
394000.0 538775.0 0
398000.0 538775.0 0
102000.0 542775.0 0
106000.0 542775.0 0
110000.0 542775.0 0
114000.0 542775.0 0
118000.0 542775.0 0
122000.0 542775.0 0
126000.0 542775.0 0
130000.0 542775.0 0
134000.0 542775.0 0
138000.0 542775.0 0
142000.0 542775.0 0
146000.0 542775.0 0
150000.0 542775.0 0
154000.0 542775.0 0
158000.0 542775.0 0
162000.0 542775.0 0
166000.0 542775.0 0
170000.0 542775.0 0
174000.0 542775.0 0
178000.0 542775.0 0
182000.0 542775.0 0
186000.0 542775.0 0
190000.0 542775.0 0
194000.0 542775.0 0
198000.0 542775.0 0
202000.0 542775.0 0
206000.0 542775.0 0
210000.0 542775.0 0
214000.0 542775.0 0
218000.0 542775.0 0
222000.0 542775.0 0
226000.0 542775.0 0
230000.0 542775.0 0
234000.0 542775.0 0
238000.0 542775.0 0
242000.0 542775.0 0
246000.0 542775.0 0
250000.0 542775.0 0
254000.0 542775.0 0
258000.0 542775.0 0
262000.0 542775.0 0
266000.0 542775.0 0
270000.0 542775.0 0
274000.0 542775.0 0
278000.0 542775.0 0
282000.0 542775.0 0
286000.0 542775.0 0
290000.0 542775.0 0
294000.0 542775.0 0
298000.0 542775.0 0
302000.0 542775.0 0
306000.0 542775.0 0
310000.0 542775.0 0
314000.0 542775.0 0
318000.0 542775.0 0
322000.0 542775.0 0
326000.0 542775.0 0
330000.0 542775.0 0
334000.0 542775.0 0
338000.0 542775.0 0
342000.0 542775.0 0
346000.0 542775.0 0
350000.0 542775.0 0
354000.0 542775.0 0
358000.0 542775.0 0
362000.0 542775.0 0
366000.0 542775.0 0
370000.0 542775.0 0
374000.0 542775.0 0
378000.0 542775.0 0
382000.0 542775.0 0
386000.0 542775.0 0
390000.0 542775.0 0
394000.0 542775.0 0
398000.0 542775.0 0
102000.0 546775.0 0
106000.0 546775.0 0
110000.0 546775.0 0
114000.0 546775.0 0
118000.0 546775.0 0
122000.0 546775.0 0
126000.0 546775.0 0
130000.0 546775.0 0
134000.0 546775.0 0
138000.0 546775.0 0
142000.0 546775.0 0
146000.0 546775.0 0
150000.0 546775.0 0
154000.0 546775.0 0
158000.0 546775.0 0
162000.0 546775.0 0
166000.0 546775.0 0
170000.0 546775.0 0
174000.0 546775.0 0
178000.0 546775.0 0
182000.0 546775.0 0
186000.0 546775.0 0
190000.0 546775.0 0
194000.0 546775.0 0
198000.0 546775.0 0
202000.0 546775.0 0
206000.0 546775.0 0
210000.0 546775.0 0
214000.0 546775.0 0
218000.0 546775.0 0
222000.0 546775.0 0
226000.0 546775.0 0
230000.0 546775.0 0
234000.0 546775.0 0
238000.0 546775.0 0
242000.0 546775.0 0
246000.0 546775.0 0
250000.0 546775.0 0
254000.0 546775.0 0
258000.0 546775.0 0
262000.0 546775.0 0
266000.0 546775.0 0
270000.0 546775.0 0
274000.0 546775.0 0
278000.0 546775.0 0
282000.0 546775.0 0
286000.0 546775.0 0
290000.0 546775.0 0
294000.0 546775.0 0
298000.0 546775.0 0
302000.0 546775.0 0
306000.0 546775.0 0
310000.0 546775.0 0
314000.0 546775.0 0
318000.0 546775.0 0
322000.0 546775.0 0
326000.0 546775.0 0
330000.0 546775.0 0
334000.0 546775.0 0
338000.0 546775.0 0
342000.0 546775.0 0
346000.0 546775.0 0
350000.0 546775.0 0
354000.0 546775.0 0
358000.0 546775.0 0
362000.0 546775.0 0
366000.0 546775.0 0
370000.0 546775.0 0
374000.0 546775.0 0
378000.0 546775.0 0
382000.0 546775.0 0
386000.0 546775.0 0
390000.0 546775.0 0
394000.0 546775.0 0
398000.0 546775.0 0
102000.0 550775.0 0
106000.0 550775.0 0
110000.0 550775.0 0
114000.0 550775.0 0
118000.0 550775.0 0
122000.0 550775.0 0
126000.0 550775.0 0
130000.0 550775.0 0
134000.0 550775.0 0
138000.0 550775.0 0
142000.0 550775.0 0
146000.0 550775.0 0
150000.0 550775.0 0
154000.0 550775.0 0
158000.0 550775.0 0
162000.0 550775.0 0
166000.0 550775.0 0
170000.0 550775.0 0
174000.0 550775.0 0
178000.0 550775.0 0
182000.0 550775.0 0
186000.0 550775.0 0
190000.0 550775.0 0
194000.0 550775.0 0
198000.0 550775.0 0
202000.0 550775.0 0
206000.0 550775.0 0
210000.0 550775.0 0
214000.0 550775.0 0
218000.0 550775.0 0
222000.0 550775.0 0
226000.0 550775.0 0
230000.0 550775.0 0
234000.0 550775.0 0
238000.0 550775.0 0
242000.0 550775.0 0
246000.0 550775.0 0
250000.0 550775.0 0
254000.0 550775.0 0
258000.0 550775.0 0
262000.0 550775.0 0
266000.0 550775.0 0
270000.0 550775.0 0
274000.0 550775.0 0
278000.0 550775.0 0
282000.0 550775.0 0
286000.0 550775.0 0
290000.0 550775.0 0
294000.0 550775.0 0
298000.0 550775.0 0
302000.0 550775.0 0
306000.0 550775.0 0
310000.0 550775.0 0
314000.0 550775.0 0
318000.0 550775.0 0
322000.0 550775.0 0
326000.0 550775.0 0
330000.0 550775.0 0
334000.0 550775.0 0
338000.0 550775.0 0
342000.0 550775.0 0
346000.0 550775.0 0
350000.0 550775.0 0
354000.0 550775.0 0
358000.0 550775.0 0
362000.0 550775.0 0
366000.0 550775.0 0
370000.0 550775.0 0
374000.0 550775.0 0
378000.0 550775.0 0
382000.0 550775.0 0
386000.0 550775.0 0
390000.0 550775.0 0
394000.0 550775.0 0
398000.0 550775.0 0
102000.0 554775.0 0
106000.0 554775.0 0
110000.0 554775.0 0
114000.0 554775.0 0
118000.0 554775.0 0
122000.0 554775.0 0
126000.0 554775.0 0
130000.0 554775.0 0
134000.0 554775.0 0
138000.0 554775.0 0
142000.0 554775.0 0
146000.0 554775.0 0
150000.0 554775.0 0
154000.0 554775.0 0
158000.0 554775.0 0
162000.0 554775.0 0
166000.0 554775.0 0
170000.0 554775.0 0
174000.0 554775.0 0
178000.0 554775.0 0
182000.0 554775.0 0
186000.0 554775.0 0
190000.0 554775.0 0
194000.0 554775.0 0
198000.0 554775.0 0
202000.0 554775.0 0
206000.0 554775.0 0
210000.0 554775.0 0
214000.0 554775.0 0
218000.0 554775.0 0
222000.0 554775.0 0
226000.0 554775.0 0
230000.0 554775.0 0
234000.0 554775.0 0
238000.0 554775.0 0
242000.0 554775.0 0
246000.0 554775.0 0
250000.0 554775.0 0
254000.0 554775.0 0
258000.0 554775.0 0
262000.0 554775.0 0
266000.0 554775.0 0
270000.0 554775.0 0
274000.0 554775.0 0
278000.0 554775.0 0
282000.0 554775.0 0
286000.0 554775.0 0
290000.0 554775.0 0
294000.0 554775.0 0
298000.0 554775.0 0
302000.0 554775.0 0
306000.0 554775.0 0
310000.0 554775.0 0
314000.0 554775.0 0
318000.0 554775.0 0
322000.0 554775.0 0
326000.0 554775.0 0
330000.0 554775.0 0
334000.0 554775.0 0
338000.0 554775.0 0
342000.0 554775.0 0
346000.0 554775.0 0
350000.0 554775.0 0
354000.0 554775.0 0
358000.0 554775.0 0
362000.0 554775.0 0
366000.0 554775.0 0
370000.0 554775.0 0
374000.0 554775.0 0
378000.0 554775.0 0
382000.0 554775.0 0
386000.0 554775.0 0
390000.0 554775.0 0
394000.0 554775.0 0
398000.0 554775.0 0
102000.0 558775.0 0
106000.0 558775.0 0
110000.0 558775.0 0
114000.0 558775.0 0
118000.0 558775.0 0
122000.0 558775.0 0
126000.0 558775.0 0
130000.0 558775.0 0
134000.0 558775.0 0
138000.0 558775.0 0
142000.0 558775.0 0
146000.0 558775.0 0
150000.0 558775.0 0
154000.0 558775.0 0
158000.0 558775.0 0
162000.0 558775.0 0
166000.0 558775.0 0
170000.0 558775.0 0
174000.0 558775.0 0
178000.0 558775.0 0
182000.0 558775.0 0
186000.0 558775.0 0
190000.0 558775.0 0
194000.0 558775.0 0
198000.0 558775.0 0
202000.0 558775.0 0
206000.0 558775.0 0
210000.0 558775.0 0
214000.0 558775.0 0
218000.0 558775.0 0
222000.0 558775.0 0
226000.0 558775.0 0
230000.0 558775.0 0
234000.0 558775.0 0
238000.0 558775.0 0
242000.0 558775.0 0
246000.0 558775.0 0
250000.0 558775.0 0
254000.0 558775.0 0
258000.0 558775.0 0
262000.0 558775.0 0
266000.0 558775.0 0
270000.0 558775.0 0
274000.0 558775.0 0
278000.0 558775.0 0
282000.0 558775.0 0
286000.0 558775.0 0
290000.0 558775.0 0
294000.0 558775.0 0
298000.0 558775.0 0
302000.0 558775.0 0
306000.0 558775.0 0
310000.0 558775.0 0
314000.0 558775.0 0
318000.0 558775.0 0
322000.0 558775.0 0
326000.0 558775.0 0
330000.0 558775.0 0
334000.0 558775.0 0
338000.0 558775.0 0
342000.0 558775.0 0
346000.0 558775.0 0
350000.0 558775.0 0
354000.0 558775.0 0
358000.0 558775.0 0
362000.0 558775.0 0
366000.0 558775.0 0
370000.0 558775.0 0
374000.0 558775.0 0
378000.0 558775.0 0
382000.0 558775.0 0
386000.0 558775.0 0
390000.0 558775.0 0
394000.0 558775.0 0
398000.0 558775.0 0
102000.0 562775.0 0
106000.0 562775.0 0
110000.0 562775.0 0
114000.0 562775.0 0
118000.0 562775.0 0
122000.0 562775.0 0
126000.0 562775.0 0
130000.0 562775.0 0
134000.0 562775.0 0
138000.0 562775.0 0
142000.0 562775.0 0
146000.0 562775.0 0
150000.0 562775.0 0
154000.0 562775.0 0
158000.0 562775.0 0
162000.0 562775.0 0
166000.0 562775.0 0
170000.0 562775.0 0
174000.0 562775.0 0
178000.0 562775.0 0
182000.0 562775.0 0
186000.0 562775.0 0
190000.0 562775.0 0
194000.0 562775.0 0
198000.0 562775.0 0
202000.0 562775.0 0
206000.0 562775.0 0
210000.0 562775.0 0
214000.0 562775.0 0
218000.0 562775.0 0
222000.0 562775.0 0
226000.0 562775.0 0
230000.0 562775.0 0
234000.0 562775.0 0
238000.0 562775.0 0
242000.0 562775.0 0
246000.0 562775.0 0
250000.0 562775.0 0
254000.0 562775.0 0
258000.0 562775.0 0
262000.0 562775.0 0
266000.0 562775.0 0
270000.0 562775.0 0
274000.0 562775.0 0
278000.0 562775.0 0
282000.0 562775.0 0
286000.0 562775.0 0
290000.0 562775.0 0
294000.0 562775.0 0
298000.0 562775.0 0
302000.0 562775.0 0
306000.0 562775.0 0
310000.0 562775.0 0
314000.0 562775.0 0
318000.0 562775.0 0
322000.0 562775.0 0
326000.0 562775.0 0
330000.0 562775.0 0
334000.0 562775.0 0
338000.0 562775.0 0
342000.0 562775.0 0
346000.0 562775.0 0
350000.0 562775.0 0
354000.0 562775.0 0
358000.0 562775.0 0
362000.0 562775.0 0
366000.0 562775.0 0
370000.0 562775.0 0
374000.0 562775.0 0
378000.0 562775.0 0
382000.0 562775.0 0
386000.0 562775.0 0
390000.0 562775.0 0
394000.0 562775.0 0
398000.0 562775.0 0
102000.0 566775.0 0
106000.0 566775.0 0
110000.0 566775.0 0
114000.0 566775.0 0
118000.0 566775.0 0
122000.0 566775.0 0
126000.0 566775.0 0
130000.0 566775.0 0
134000.0 566775.0 0
138000.0 566775.0 0
142000.0 566775.0 0
146000.0 566775.0 0
150000.0 566775.0 0
154000.0 566775.0 0
158000.0 566775.0 0
162000.0 566775.0 0
166000.0 566775.0 0
170000.0 566775.0 0
174000.0 566775.0 0
178000.0 566775.0 0
182000.0 566775.0 0
186000.0 566775.0 0
190000.0 566775.0 0
194000.0 566775.0 0
198000.0 566775.0 0
202000.0 566775.0 0
206000.0 566775.0 0
210000.0 566775.0 0
214000.0 566775.0 0
218000.0 566775.0 0
222000.0 566775.0 0
226000.0 566775.0 0
230000.0 566775.0 0
234000.0 566775.0 0
238000.0 566775.0 0
242000.0 566775.0 0
246000.0 566775.0 0
250000.0 566775.0 0
254000.0 566775.0 0
258000.0 566775.0 0
262000.0 566775.0 0
266000.0 566775.0 0
270000.0 566775.0 0
274000.0 566775.0 0
278000.0 566775.0 0
282000.0 566775.0 0
286000.0 566775.0 0
290000.0 566775.0 0
294000.0 566775.0 0
298000.0 566775.0 0
302000.0 566775.0 0
306000.0 566775.0 0
310000.0 566775.0 0
314000.0 566775.0 0
318000.0 566775.0 0
322000.0 566775.0 0
326000.0 566775.0 0
330000.0 566775.0 0
334000.0 566775.0 0
338000.0 566775.0 0
342000.0 566775.0 0
346000.0 566775.0 0
350000.0 566775.0 0
354000.0 566775.0 0
358000.0 566775.0 0
362000.0 566775.0 0
366000.0 566775.0 0
370000.0 566775.0 0
374000.0 566775.0 0
378000.0 566775.0 0
382000.0 566775.0 0
386000.0 566775.0 0
390000.0 566775.0 0
394000.0 566775.0 0
398000.0 566775.0 0
102000.0 570775.0 0
106000.0 570775.0 0
110000.0 570775.0 0
114000.0 570775.0 0
118000.0 570775.0 0
122000.0 570775.0 0
126000.0 570775.0 0
130000.0 570775.0 0
134000.0 570775.0 0
138000.0 570775.0 0
142000.0 570775.0 0
146000.0 570775.0 0
150000.0 570775.0 0
154000.0 570775.0 0
158000.0 570775.0 0
162000.0 570775.0 0
166000.0 570775.0 0
170000.0 570775.0 0
174000.0 570775.0 0
178000.0 570775.0 0
182000.0 570775.0 0
186000.0 570775.0 0
190000.0 570775.0 0
194000.0 570775.0 0
198000.0 570775.0 0
202000.0 570775.0 0
206000.0 570775.0 0
210000.0 570775.0 0
214000.0 570775.0 0
218000.0 570775.0 0
222000.0 570775.0 0
226000.0 570775.0 0
230000.0 570775.0 0
234000.0 570775.0 0
238000.0 570775.0 0
242000.0 570775.0 0
246000.0 570775.0 0
250000.0 570775.0 0
254000.0 570775.0 0
258000.0 570775.0 0
262000.0 570775.0 0
266000.0 570775.0 0
270000.0 570775.0 0
274000.0 570775.0 0
278000.0 570775.0 0
282000.0 570775.0 0
286000.0 570775.0 0
290000.0 570775.0 0
294000.0 570775.0 0
298000.0 570775.0 0
302000.0 570775.0 0
306000.0 570775.0 0
310000.0 570775.0 0
314000.0 570775.0 0
318000.0 570775.0 0
322000.0 570775.0 0
326000.0 570775.0 0
330000.0 570775.0 0
334000.0 570775.0 0
338000.0 570775.0 0
342000.0 570775.0 0
346000.0 570775.0 0
350000.0 570775.0 0
354000.0 570775.0 0
358000.0 570775.0 0
362000.0 570775.0 0
366000.0 570775.0 0
370000.0 570775.0 0
374000.0 570775.0 0
378000.0 570775.0 0
382000.0 570775.0 0
386000.0 570775.0 0
390000.0 570775.0 0
394000.0 570775.0 0
398000.0 570775.0 0
102000.0 574775.0 0
106000.0 574775.0 0
110000.0 574775.0 0
114000.0 574775.0 0
118000.0 574775.0 0
122000.0 574775.0 0
126000.0 574775.0 0
130000.0 574775.0 0
134000.0 574775.0 0
138000.0 574775.0 0
142000.0 574775.0 0
146000.0 574775.0 0
150000.0 574775.0 0
154000.0 574775.0 0
158000.0 574775.0 0
162000.0 574775.0 0
166000.0 574775.0 0
170000.0 574775.0 0
174000.0 574775.0 0
178000.0 574775.0 0
182000.0 574775.0 0
186000.0 574775.0 0
190000.0 574775.0 0
194000.0 574775.0 0
198000.0 574775.0 0
202000.0 574775.0 0
206000.0 574775.0 0
210000.0 574775.0 0
214000.0 574775.0 0
218000.0 574775.0 0
222000.0 574775.0 0
226000.0 574775.0 0
230000.0 574775.0 0
234000.0 574775.0 0
238000.0 574775.0 0
242000.0 574775.0 0
246000.0 574775.0 0
250000.0 574775.0 0
254000.0 574775.0 0
258000.0 574775.0 0
262000.0 574775.0 0
266000.0 574775.0 0
270000.0 574775.0 0
274000.0 574775.0 0
278000.0 574775.0 0
282000.0 574775.0 0
286000.0 574775.0 0
290000.0 574775.0 0
294000.0 574775.0 0
298000.0 574775.0 0
302000.0 574775.0 0
306000.0 574775.0 0
310000.0 574775.0 0
314000.0 574775.0 0
318000.0 574775.0 0
322000.0 574775.0 0
326000.0 574775.0 0
330000.0 574775.0 0
334000.0 574775.0 0
338000.0 574775.0 0
342000.0 574775.0 0
346000.0 574775.0 0
350000.0 574775.0 0
354000.0 574775.0 0
358000.0 574775.0 0
362000.0 574775.0 0
366000.0 574775.0 0
370000.0 574775.0 0
374000.0 574775.0 0
378000.0 574775.0 0
382000.0 574775.0 0
386000.0 574775.0 0
390000.0 574775.0 0
394000.0 574775.0 0
398000.0 574775.0 0
102000.0 578775.0 0
106000.0 578775.0 0
110000.0 578775.0 0
114000.0 578775.0 0
118000.0 578775.0 0
122000.0 578775.0 0
126000.0 578775.0 0
130000.0 578775.0 0
134000.0 578775.0 0
138000.0 578775.0 0
142000.0 578775.0 0
146000.0 578775.0 0
150000.0 578775.0 0
154000.0 578775.0 0
158000.0 578775.0 0
162000.0 578775.0 0
166000.0 578775.0 0
170000.0 578775.0 0
174000.0 578775.0 0
178000.0 578775.0 0
182000.0 578775.0 0
186000.0 578775.0 0
190000.0 578775.0 0
194000.0 578775.0 0
198000.0 578775.0 0
202000.0 578775.0 0
206000.0 578775.0 0
210000.0 578775.0 0
214000.0 578775.0 0
218000.0 578775.0 0
222000.0 578775.0 0
226000.0 578775.0 0
230000.0 578775.0 0
234000.0 578775.0 0
238000.0 578775.0 0
242000.0 578775.0 0
246000.0 578775.0 0
250000.0 578775.0 0
254000.0 578775.0 0
258000.0 578775.0 0
262000.0 578775.0 0
266000.0 578775.0 0
270000.0 578775.0 0
274000.0 578775.0 0
278000.0 578775.0 0
282000.0 578775.0 0
286000.0 578775.0 0
290000.0 578775.0 0
294000.0 578775.0 0
298000.0 578775.0 0
302000.0 578775.0 0
306000.0 578775.0 0
310000.0 578775.0 0
314000.0 578775.0 0
318000.0 578775.0 0
322000.0 578775.0 0
326000.0 578775.0 0
330000.0 578775.0 0
334000.0 578775.0 0
338000.0 578775.0 0
342000.0 578775.0 0
346000.0 578775.0 0
350000.0 578775.0 0
354000.0 578775.0 0
358000.0 578775.0 0
362000.0 578775.0 0
366000.0 578775.0 0
370000.0 578775.0 0
374000.0 578775.0 0
378000.0 578775.0 0
382000.0 578775.0 0
386000.0 578775.0 0
390000.0 578775.0 0
394000.0 578775.0 0
398000.0 578775.0 0
102000.0 582775.0 0
106000.0 582775.0 0
110000.0 582775.0 0
114000.0 582775.0 0
118000.0 582775.0 0
122000.0 582775.0 0
126000.0 582775.0 0
130000.0 582775.0 0
134000.0 582775.0 0
138000.0 582775.0 0
142000.0 582775.0 0
146000.0 582775.0 0
150000.0 582775.0 0
154000.0 582775.0 0
158000.0 582775.0 0
162000.0 582775.0 0
166000.0 582775.0 0
170000.0 582775.0 0
174000.0 582775.0 0
178000.0 582775.0 0
182000.0 582775.0 0
186000.0 582775.0 0
190000.0 582775.0 0
194000.0 582775.0 0
198000.0 582775.0 0
202000.0 582775.0 0
206000.0 582775.0 0
210000.0 582775.0 0
214000.0 582775.0 0
218000.0 582775.0 0
222000.0 582775.0 0
226000.0 582775.0 0
230000.0 582775.0 0
234000.0 582775.0 0
238000.0 582775.0 0
242000.0 582775.0 0
246000.0 582775.0 0
250000.0 582775.0 0
254000.0 582775.0 0
258000.0 582775.0 0
262000.0 582775.0 0
266000.0 582775.0 0
270000.0 582775.0 0
274000.0 582775.0 0
278000.0 582775.0 0
282000.0 582775.0 0
286000.0 582775.0 0
290000.0 582775.0 0
294000.0 582775.0 0
298000.0 582775.0 0
302000.0 582775.0 0
306000.0 582775.0 0
310000.0 582775.0 0
314000.0 582775.0 0
318000.0 582775.0 0
322000.0 582775.0 0
326000.0 582775.0 0
330000.0 582775.0 0
334000.0 582775.0 0
338000.0 582775.0 0
342000.0 582775.0 0
346000.0 582775.0 0
350000.0 582775.0 0
354000.0 582775.0 0
358000.0 582775.0 0
362000.0 582775.0 0
366000.0 582775.0 0
370000.0 582775.0 0
374000.0 582775.0 0
378000.0 582775.0 0
382000.0 582775.0 0
386000.0 582775.0 0
390000.0 582775.0 0
394000.0 582775.0 0
398000.0 582775.0 0
102000.0 586775.0 0
106000.0 586775.0 0
110000.0 586775.0 0
114000.0 586775.0 0
118000.0 586775.0 0
122000.0 586775.0 0
126000.0 586775.0 0
130000.0 586775.0 0
134000.0 586775.0 0
138000.0 586775.0 0
142000.0 586775.0 0
146000.0 586775.0 0
150000.0 586775.0 0
154000.0 586775.0 0
158000.0 586775.0 0
162000.0 586775.0 0
166000.0 586775.0 0
170000.0 586775.0 0
174000.0 586775.0 0
178000.0 586775.0 0
182000.0 586775.0 0
186000.0 586775.0 0
190000.0 586775.0 0
194000.0 586775.0 0
198000.0 586775.0 0
202000.0 586775.0 0
206000.0 586775.0 0
210000.0 586775.0 0
214000.0 586775.0 0
218000.0 586775.0 0
222000.0 586775.0 0
226000.0 586775.0 0
230000.0 586775.0 0
234000.0 586775.0 0
238000.0 586775.0 0
242000.0 586775.0 0
246000.0 586775.0 0
250000.0 586775.0 0
254000.0 586775.0 0
258000.0 586775.0 0
262000.0 586775.0 0
266000.0 586775.0 0
270000.0 586775.0 0
274000.0 586775.0 0
278000.0 586775.0 0
282000.0 586775.0 0
286000.0 586775.0 0
290000.0 586775.0 0
294000.0 586775.0 0
298000.0 586775.0 0
302000.0 586775.0 0
306000.0 586775.0 0
310000.0 586775.0 0
314000.0 586775.0 0
318000.0 586775.0 0
322000.0 586775.0 0
326000.0 586775.0 0
330000.0 586775.0 0
334000.0 586775.0 0
338000.0 586775.0 0
342000.0 586775.0 0
346000.0 586775.0 0
350000.0 586775.0 0
354000.0 586775.0 0
358000.0 586775.0 0
362000.0 586775.0 0
366000.0 586775.0 0
370000.0 586775.0 0
374000.0 586775.0 0
378000.0 586775.0 0
382000.0 586775.0 0
386000.0 586775.0 0
390000.0 586775.0 0
394000.0 586775.0 0
398000.0 586775.0 0
102000.0 590775.0 0
106000.0 590775.0 0
110000.0 590775.0 0
114000.0 590775.0 0
118000.0 590775.0 0
122000.0 590775.0 0
126000.0 590775.0 0
130000.0 590775.0 0
134000.0 590775.0 0
138000.0 590775.0 0
142000.0 590775.0 0
146000.0 590775.0 0
150000.0 590775.0 0
154000.0 590775.0 0
158000.0 590775.0 0
162000.0 590775.0 0
166000.0 590775.0 0
170000.0 590775.0 0
174000.0 590775.0 0
178000.0 590775.0 0
182000.0 590775.0 0
186000.0 590775.0 0
190000.0 590775.0 0
194000.0 590775.0 0
198000.0 590775.0 0
202000.0 590775.0 0
206000.0 590775.0 0
210000.0 590775.0 0
214000.0 590775.0 0
218000.0 590775.0 0
222000.0 590775.0 0
226000.0 590775.0 0
230000.0 590775.0 0
234000.0 590775.0 0
238000.0 590775.0 0
242000.0 590775.0 0
246000.0 590775.0 0
250000.0 590775.0 0
254000.0 590775.0 0
258000.0 590775.0 0
262000.0 590775.0 0
266000.0 590775.0 0
270000.0 590775.0 0
274000.0 590775.0 0
278000.0 590775.0 0
282000.0 590775.0 0
286000.0 590775.0 0
290000.0 590775.0 0
294000.0 590775.0 0
298000.0 590775.0 0
302000.0 590775.0 0
306000.0 590775.0 0
310000.0 590775.0 0
314000.0 590775.0 0
318000.0 590775.0 0
322000.0 590775.0 0
326000.0 590775.0 0
330000.0 590775.0 0
334000.0 590775.0 0
338000.0 590775.0 0
342000.0 590775.0 0
346000.0 590775.0 0
350000.0 590775.0 0
354000.0 590775.0 0
358000.0 590775.0 0
362000.0 590775.0 0
366000.0 590775.0 0
370000.0 590775.0 0
374000.0 590775.0 0
378000.0 590775.0 0
382000.0 590775.0 0
386000.0 590775.0 0
390000.0 590775.0 0
394000.0 590775.0 0
398000.0 590775.0 0
102000.0 594775.0 0
106000.0 594775.0 0
110000.0 594775.0 0
114000.0 594775.0 0
118000.0 594775.0 0
122000.0 594775.0 0
126000.0 594775.0 0
130000.0 594775.0 0
134000.0 594775.0 0
138000.0 594775.0 0
142000.0 594775.0 0
146000.0 594775.0 0
150000.0 594775.0 0
154000.0 594775.0 0
158000.0 594775.0 0
162000.0 594775.0 0
166000.0 594775.0 0
170000.0 594775.0 0
174000.0 594775.0 0
178000.0 594775.0 0
182000.0 594775.0 0
186000.0 594775.0 0
190000.0 594775.0 0
194000.0 594775.0 0
198000.0 594775.0 0
202000.0 594775.0 0
206000.0 594775.0 0
210000.0 594775.0 0
214000.0 594775.0 0
218000.0 594775.0 0
222000.0 594775.0 0
226000.0 594775.0 0
230000.0 594775.0 0
234000.0 594775.0 0
238000.0 594775.0 0
242000.0 594775.0 0
246000.0 594775.0 0
250000.0 594775.0 0
254000.0 594775.0 0
258000.0 594775.0 0
262000.0 594775.0 0
266000.0 594775.0 0
270000.0 594775.0 0
274000.0 594775.0 0
278000.0 594775.0 0
282000.0 594775.0 0
286000.0 594775.0 0
290000.0 594775.0 0
294000.0 594775.0 0
298000.0 594775.0 0
302000.0 594775.0 0
306000.0 594775.0 0
310000.0 594775.0 0
314000.0 594775.0 0
318000.0 594775.0 0
322000.0 594775.0 0
326000.0 594775.0 0
330000.0 594775.0 0
334000.0 594775.0 0
338000.0 594775.0 0
342000.0 594775.0 0
346000.0 594775.0 0
350000.0 594775.0 0
354000.0 594775.0 0
358000.0 594775.0 0
362000.0 594775.0 0
366000.0 594775.0 0
370000.0 594775.0 0
374000.0 594775.0 0
378000.0 594775.0 0
382000.0 594775.0 0
386000.0 594775.0 0
390000.0 594775.0 0
394000.0 594775.0 0
398000.0 594775.0 0
102000.0 598775.0 0
106000.0 598775.0 0
110000.0 598775.0 0
114000.0 598775.0 0
118000.0 598775.0 0
122000.0 598775.0 0
126000.0 598775.0 0
130000.0 598775.0 0
134000.0 598775.0 0
138000.0 598775.0 0
142000.0 598775.0 0
146000.0 598775.0 0
150000.0 598775.0 0
154000.0 598775.0 0
158000.0 598775.0 0
162000.0 598775.0 0
166000.0 598775.0 0
170000.0 598775.0 0
174000.0 598775.0 0
178000.0 598775.0 0
182000.0 598775.0 0
186000.0 598775.0 0
190000.0 598775.0 0
194000.0 598775.0 0
198000.0 598775.0 0
202000.0 598775.0 0
206000.0 598775.0 0
210000.0 598775.0 0
214000.0 598775.0 0
218000.0 598775.0 0
222000.0 598775.0 0
226000.0 598775.0 0
230000.0 598775.0 0
234000.0 598775.0 0
238000.0 598775.0 0
242000.0 598775.0 0
246000.0 598775.0 0
250000.0 598775.0 0
254000.0 598775.0 0
258000.0 598775.0 0
262000.0 598775.0 0
266000.0 598775.0 0
270000.0 598775.0 0
274000.0 598775.0 0
278000.0 598775.0 0
282000.0 598775.0 0
286000.0 598775.0 0
290000.0 598775.0 0
294000.0 598775.0 0
298000.0 598775.0 0
302000.0 598775.0 0
306000.0 598775.0 0
310000.0 598775.0 0
314000.0 598775.0 0
318000.0 598775.0 0
322000.0 598775.0 0
326000.0 598775.0 0
330000.0 598775.0 0
334000.0 598775.0 0
338000.0 598775.0 0
342000.0 598775.0 0
346000.0 598775.0 0
350000.0 598775.0 0
354000.0 598775.0 0
358000.0 598775.0 0
362000.0 598775.0 0
366000.0 598775.0 0
370000.0 598775.0 0
374000.0 598775.0 0
378000.0 598775.0 0
382000.0 598775.0 0
386000.0 598775.0 0
390000.0 598775.0 0
394000.0 598775.0 0
398000.0 598775.0 0
102000.0 602775.0 0
106000.0 602775.0 0
110000.0 602775.0 0
114000.0 602775.0 0
118000.0 602775.0 0
122000.0 602775.0 0
126000.0 602775.0 0
130000.0 602775.0 0
134000.0 602775.0 0
138000.0 602775.0 0
142000.0 602775.0 0
146000.0 602775.0 0
150000.0 602775.0 0
154000.0 602775.0 0
158000.0 602775.0 0
162000.0 602775.0 0
166000.0 602775.0 0
170000.0 602775.0 0
174000.0 602775.0 0
178000.0 602775.0 0
182000.0 602775.0 0
186000.0 602775.0 0
190000.0 602775.0 0
194000.0 602775.0 0
198000.0 602775.0 0
202000.0 602775.0 0
206000.0 602775.0 0
210000.0 602775.0 0
214000.0 602775.0 0
218000.0 602775.0 0
222000.0 602775.0 0
226000.0 602775.0 0
230000.0 602775.0 0
234000.0 602775.0 0
238000.0 602775.0 0
242000.0 602775.0 0
246000.0 602775.0 0
250000.0 602775.0 0
254000.0 602775.0 0
258000.0 602775.0 0
262000.0 602775.0 0
266000.0 602775.0 0
270000.0 602775.0 0
274000.0 602775.0 0
278000.0 602775.0 0
282000.0 602775.0 0
286000.0 602775.0 0
290000.0 602775.0 0
294000.0 602775.0 0
298000.0 602775.0 0
302000.0 602775.0 0
306000.0 602775.0 0
310000.0 602775.0 0
314000.0 602775.0 0
318000.0 602775.0 0
322000.0 602775.0 0
326000.0 602775.0 0
330000.0 602775.0 0
334000.0 602775.0 0
338000.0 602775.0 0
342000.0 602775.0 0
346000.0 602775.0 0
350000.0 602775.0 0
354000.0 602775.0 0
358000.0 602775.0 0
362000.0 602775.0 0
366000.0 602775.0 0
370000.0 602775.0 0
374000.0 602775.0 0
378000.0 602775.0 0
382000.0 602775.0 0
386000.0 602775.0 0
390000.0 602775.0 0
394000.0 602775.0 0
398000.0 602775.0 0
102000.0 606775.0 0
106000.0 606775.0 0
110000.0 606775.0 0
114000.0 606775.0 0
118000.0 606775.0 0
122000.0 606775.0 0
126000.0 606775.0 0
130000.0 606775.0 0
134000.0 606775.0 0
138000.0 606775.0 0
142000.0 606775.0 0
146000.0 606775.0 0
150000.0 606775.0 0
154000.0 606775.0 0
158000.0 606775.0 0
162000.0 606775.0 0
166000.0 606775.0 0
170000.0 606775.0 0
174000.0 606775.0 0
178000.0 606775.0 0
182000.0 606775.0 0
186000.0 606775.0 0
190000.0 606775.0 0
194000.0 606775.0 0
198000.0 606775.0 0
202000.0 606775.0 0
206000.0 606775.0 0
210000.0 606775.0 0
214000.0 606775.0 0
218000.0 606775.0 0
222000.0 606775.0 0
226000.0 606775.0 0
230000.0 606775.0 0
234000.0 606775.0 0
238000.0 606775.0 0
242000.0 606775.0 0
246000.0 606775.0 0
250000.0 606775.0 0
254000.0 606775.0 0
258000.0 606775.0 0
262000.0 606775.0 0
266000.0 606775.0 0
270000.0 606775.0 0
274000.0 606775.0 0
278000.0 606775.0 0
282000.0 606775.0 0
286000.0 606775.0 0
290000.0 606775.0 0
294000.0 606775.0 0
298000.0 606775.0 0
302000.0 606775.0 0
306000.0 606775.0 0
310000.0 606775.0 0
314000.0 606775.0 0
318000.0 606775.0 0
322000.0 606775.0 0
326000.0 606775.0 0
330000.0 606775.0 0
334000.0 606775.0 0
338000.0 606775.0 0
342000.0 606775.0 0
346000.0 606775.0 0
350000.0 606775.0 0
354000.0 606775.0 0
358000.0 606775.0 0
362000.0 606775.0 0
366000.0 606775.0 0
370000.0 606775.0 0
374000.0 606775.0 0
378000.0 606775.0 0
382000.0 606775.0 0
386000.0 606775.0 0
390000.0 606775.0 0
394000.0 606775.0 0
398000.0 606775.0 0
102000.0 610775.0 0
106000.0 610775.0 0
110000.0 610775.0 0
114000.0 610775.0 0
118000.0 610775.0 0
122000.0 610775.0 0
126000.0 610775.0 0
130000.0 610775.0 0
134000.0 610775.0 0
138000.0 610775.0 0
142000.0 610775.0 0
146000.0 610775.0 0
150000.0 610775.0 0
154000.0 610775.0 0
158000.0 610775.0 0
162000.0 610775.0 0
166000.0 610775.0 0
170000.0 610775.0 0
174000.0 610775.0 0
178000.0 610775.0 0
182000.0 610775.0 0
186000.0 610775.0 0
190000.0 610775.0 0
194000.0 610775.0 0
198000.0 610775.0 0
202000.0 610775.0 0
206000.0 610775.0 0
210000.0 610775.0 0
214000.0 610775.0 0
218000.0 610775.0 0
222000.0 610775.0 0
226000.0 610775.0 0
230000.0 610775.0 0
234000.0 610775.0 0
238000.0 610775.0 0
242000.0 610775.0 0
246000.0 610775.0 0
250000.0 610775.0 0
254000.0 610775.0 0
258000.0 610775.0 0
262000.0 610775.0 0
266000.0 610775.0 0
270000.0 610775.0 0
274000.0 610775.0 0
278000.0 610775.0 0
282000.0 610775.0 0
286000.0 610775.0 0
290000.0 610775.0 0
294000.0 610775.0 0
298000.0 610775.0 0
302000.0 610775.0 0
306000.0 610775.0 0
310000.0 610775.0 0
314000.0 610775.0 0
318000.0 610775.0 0
322000.0 610775.0 0
326000.0 610775.0 0
330000.0 610775.0 0
334000.0 610775.0 0
338000.0 610775.0 0
342000.0 610775.0 0
346000.0 610775.0 0
350000.0 610775.0 0
354000.0 610775.0 0
358000.0 610775.0 0
362000.0 610775.0 0
366000.0 610775.0 0
370000.0 610775.0 0
374000.0 610775.0 0
378000.0 610775.0 0
382000.0 610775.0 0
386000.0 610775.0 0
390000.0 610775.0 0
394000.0 610775.0 0
398000.0 610775.0 0
102000.0 614775.0 0
106000.0 614775.0 0
110000.0 614775.0 0
114000.0 614775.0 0
118000.0 614775.0 0
122000.0 614775.0 0
126000.0 614775.0 0
130000.0 614775.0 0
134000.0 614775.0 0
138000.0 614775.0 0
142000.0 614775.0 0
146000.0 614775.0 0
150000.0 614775.0 0
154000.0 614775.0 0
158000.0 614775.0 0
162000.0 614775.0 0
166000.0 614775.0 0
170000.0 614775.0 0
174000.0 614775.0 0
178000.0 614775.0 0
182000.0 614775.0 0
186000.0 614775.0 0
190000.0 614775.0 0
194000.0 614775.0 0
198000.0 614775.0 0
202000.0 614775.0 0
206000.0 614775.0 0
210000.0 614775.0 0
214000.0 614775.0 0
218000.0 614775.0 0
222000.0 614775.0 0
226000.0 614775.0 0
230000.0 614775.0 0
234000.0 614775.0 0
238000.0 614775.0 0
242000.0 614775.0 0
246000.0 614775.0 0
250000.0 614775.0 0
254000.0 614775.0 0
258000.0 614775.0 0
262000.0 614775.0 0
266000.0 614775.0 0
270000.0 614775.0 0
274000.0 614775.0 0
278000.0 614775.0 0
282000.0 614775.0 0
286000.0 614775.0 0
290000.0 614775.0 0
294000.0 614775.0 0
298000.0 614775.0 0
302000.0 614775.0 0
306000.0 614775.0 0
310000.0 614775.0 0
314000.0 614775.0 0
318000.0 614775.0 0
322000.0 614775.0 0
326000.0 614775.0 0
330000.0 614775.0 0
334000.0 614775.0 0
338000.0 614775.0 0
342000.0 614775.0 0
346000.0 614775.0 0
350000.0 614775.0 0
354000.0 614775.0 0
358000.0 614775.0 0
362000.0 614775.0 0
366000.0 614775.0 0
370000.0 614775.0 0
374000.0 614775.0 0
378000.0 614775.0 0
382000.0 614775.0 0
386000.0 614775.0 0
390000.0 614775.0 0
394000.0 614775.0 0
398000.0 614775.0 0
102000.0 618775.0 0
106000.0 618775.0 0
110000.0 618775.0 0
114000.0 618775.0 0
118000.0 618775.0 0
122000.0 618775.0 0
126000.0 618775.0 0
130000.0 618775.0 0
134000.0 618775.0 0
138000.0 618775.0 0
142000.0 618775.0 0
146000.0 618775.0 0
150000.0 618775.0 0
154000.0 618775.0 0
158000.0 618775.0 0
162000.0 618775.0 0
166000.0 618775.0 0
170000.0 618775.0 0
174000.0 618775.0 0
178000.0 618775.0 0
182000.0 618775.0 0
186000.0 618775.0 0
190000.0 618775.0 0
194000.0 618775.0 0
198000.0 618775.0 0
202000.0 618775.0 0
206000.0 618775.0 0
210000.0 618775.0 0
214000.0 618775.0 0
218000.0 618775.0 0
222000.0 618775.0 0
226000.0 618775.0 0
230000.0 618775.0 0
234000.0 618775.0 0
238000.0 618775.0 0
242000.0 618775.0 0
246000.0 618775.0 0
250000.0 618775.0 0
254000.0 618775.0 0
258000.0 618775.0 0
262000.0 618775.0 0
266000.0 618775.0 0
270000.0 618775.0 0
274000.0 618775.0 0
278000.0 618775.0 0
282000.0 618775.0 0
286000.0 618775.0 0
290000.0 618775.0 0
294000.0 618775.0 0
298000.0 618775.0 0
302000.0 618775.0 0
306000.0 618775.0 0
310000.0 618775.0 0
314000.0 618775.0 0
318000.0 618775.0 0
322000.0 618775.0 0
326000.0 618775.0 0
330000.0 618775.0 0
334000.0 618775.0 0
338000.0 618775.0 0
342000.0 618775.0 0
346000.0 618775.0 0
350000.0 618775.0 0
354000.0 618775.0 0
358000.0 618775.0 0
362000.0 618775.0 0
366000.0 618775.0 0
370000.0 618775.0 0
374000.0 618775.0 0
378000.0 618775.0 0
382000.0 618775.0 0
386000.0 618775.0 0
390000.0 618775.0 0
394000.0 618775.0 0
398000.0 618775.0 0
102000.0 622775.0 0
106000.0 622775.0 0
110000.0 622775.0 0
114000.0 622775.0 0
118000.0 622775.0 0
122000.0 622775.0 0
126000.0 622775.0 0
130000.0 622775.0 0
134000.0 622775.0 0
138000.0 622775.0 0
142000.0 622775.0 0
146000.0 622775.0 0
150000.0 622775.0 0
154000.0 622775.0 0
158000.0 622775.0 0
162000.0 622775.0 0
166000.0 622775.0 0
170000.0 622775.0 0
174000.0 622775.0 0
178000.0 622775.0 0
182000.0 622775.0 0
186000.0 622775.0 0
190000.0 622775.0 0
194000.0 622775.0 0
198000.0 622775.0 0
202000.0 622775.0 0
206000.0 622775.0 0
210000.0 622775.0 0
214000.0 622775.0 0
218000.0 622775.0 0
222000.0 622775.0 0
226000.0 622775.0 0
230000.0 622775.0 0
234000.0 622775.0 0
238000.0 622775.0 0
242000.0 622775.0 0
246000.0 622775.0 0
250000.0 622775.0 0
254000.0 622775.0 0
258000.0 622775.0 0
262000.0 622775.0 0
266000.0 622775.0 0
270000.0 622775.0 0
274000.0 622775.0 0
278000.0 622775.0 0
282000.0 622775.0 0
286000.0 622775.0 0
290000.0 622775.0 0
294000.0 622775.0 0
298000.0 622775.0 0
302000.0 622775.0 0
306000.0 622775.0 0
310000.0 622775.0 0
314000.0 622775.0 0
318000.0 622775.0 0
322000.0 622775.0 0
326000.0 622775.0 0
330000.0 622775.0 0
334000.0 622775.0 0
338000.0 622775.0 0
342000.0 622775.0 0
346000.0 622775.0 0
350000.0 622775.0 0
354000.0 622775.0 0
358000.0 622775.0 0
362000.0 622775.0 0
366000.0 622775.0 0
370000.0 622775.0 0
374000.0 622775.0 0
378000.0 622775.0 0
382000.0 622775.0 0
386000.0 622775.0 0
390000.0 622775.0 0
394000.0 622775.0 0
398000.0 622775.0 0
102000.0 626775.0 0
106000.0 626775.0 0
110000.0 626775.0 0
114000.0 626775.0 0
118000.0 626775.0 0
122000.0 626775.0 0
126000.0 626775.0 0
130000.0 626775.0 0
134000.0 626775.0 0
138000.0 626775.0 0
142000.0 626775.0 0
146000.0 626775.0 0
150000.0 626775.0 0
154000.0 626775.0 0
158000.0 626775.0 0
162000.0 626775.0 0
166000.0 626775.0 0
170000.0 626775.0 0
174000.0 626775.0 0
178000.0 626775.0 0
182000.0 626775.0 0
186000.0 626775.0 0
190000.0 626775.0 0
194000.0 626775.0 0
198000.0 626775.0 0
202000.0 626775.0 0
206000.0 626775.0 0
210000.0 626775.0 0
214000.0 626775.0 0
218000.0 626775.0 0
222000.0 626775.0 0
226000.0 626775.0 0
230000.0 626775.0 0
234000.0 626775.0 0
238000.0 626775.0 0
242000.0 626775.0 0
246000.0 626775.0 0
250000.0 626775.0 0
254000.0 626775.0 0
258000.0 626775.0 0
262000.0 626775.0 0
266000.0 626775.0 0
270000.0 626775.0 0
274000.0 626775.0 0
278000.0 626775.0 0
282000.0 626775.0 0
286000.0 626775.0 0
290000.0 626775.0 0
294000.0 626775.0 0
298000.0 626775.0 0
302000.0 626775.0 0
306000.0 626775.0 0
310000.0 626775.0 0
314000.0 626775.0 0
318000.0 626775.0 0
322000.0 626775.0 0
326000.0 626775.0 0
330000.0 626775.0 0
334000.0 626775.0 0
338000.0 626775.0 0
342000.0 626775.0 0
346000.0 626775.0 0
350000.0 626775.0 0
354000.0 626775.0 0
358000.0 626775.0 0
362000.0 626775.0 0
366000.0 626775.0 0
370000.0 626775.0 0
374000.0 626775.0 0
378000.0 626775.0 0
382000.0 626775.0 0
386000.0 626775.0 0
390000.0 626775.0 0
394000.0 626775.0 0
398000.0 626775.0 0
102000.0 630775.0 0
106000.0 630775.0 0
110000.0 630775.0 0
114000.0 630775.0 0
118000.0 630775.0 0
122000.0 630775.0 0
126000.0 630775.0 0
130000.0 630775.0 0
134000.0 630775.0 0
138000.0 630775.0 0
142000.0 630775.0 0
146000.0 630775.0 0
150000.0 630775.0 0
154000.0 630775.0 0
158000.0 630775.0 0
162000.0 630775.0 0
166000.0 630775.0 0
170000.0 630775.0 0
174000.0 630775.0 0
178000.0 630775.0 0
182000.0 630775.0 0
186000.0 630775.0 0
190000.0 630775.0 0
194000.0 630775.0 0
198000.0 630775.0 0
202000.0 630775.0 0
206000.0 630775.0 0
210000.0 630775.0 0
214000.0 630775.0 0
218000.0 630775.0 0
222000.0 630775.0 0
226000.0 630775.0 0
230000.0 630775.0 0
234000.0 630775.0 0
238000.0 630775.0 0
242000.0 630775.0 0
246000.0 630775.0 0
250000.0 630775.0 0
254000.0 630775.0 0
258000.0 630775.0 0
262000.0 630775.0 0
266000.0 630775.0 0
270000.0 630775.0 0
274000.0 630775.0 0
278000.0 630775.0 0
282000.0 630775.0 0
286000.0 630775.0 0
290000.0 630775.0 0
294000.0 630775.0 0
298000.0 630775.0 0
302000.0 630775.0 0
306000.0 630775.0 0
310000.0 630775.0 0
314000.0 630775.0 0
318000.0 630775.0 0
322000.0 630775.0 0
326000.0 630775.0 0
330000.0 630775.0 0
334000.0 630775.0 0
338000.0 630775.0 0
342000.0 630775.0 0
346000.0 630775.0 0
350000.0 630775.0 0
354000.0 630775.0 0
358000.0 630775.0 0
362000.0 630775.0 0
366000.0 630775.0 0
370000.0 630775.0 0
374000.0 630775.0 0
378000.0 630775.0 0
382000.0 630775.0 0
386000.0 630775.0 0
390000.0 630775.0 0
394000.0 630775.0 0
398000.0 630775.0 0
102000.0 634775.0 0
106000.0 634775.0 0
110000.0 634775.0 0
114000.0 634775.0 0
118000.0 634775.0 0
122000.0 634775.0 0
126000.0 634775.0 0
130000.0 634775.0 0
134000.0 634775.0 0
138000.0 634775.0 0
142000.0 634775.0 0
146000.0 634775.0 0
150000.0 634775.0 0
154000.0 634775.0 0
158000.0 634775.0 0
162000.0 634775.0 0
166000.0 634775.0 0
170000.0 634775.0 0
174000.0 634775.0 0
178000.0 634775.0 0
182000.0 634775.0 0
186000.0 634775.0 0
190000.0 634775.0 0
194000.0 634775.0 0
198000.0 634775.0 0
202000.0 634775.0 0
206000.0 634775.0 0
210000.0 634775.0 0
214000.0 634775.0 0
218000.0 634775.0 0
222000.0 634775.0 0
226000.0 634775.0 0
230000.0 634775.0 0
234000.0 634775.0 0
238000.0 634775.0 0
242000.0 634775.0 0
246000.0 634775.0 0
250000.0 634775.0 0
254000.0 634775.0 0
258000.0 634775.0 0
262000.0 634775.0 0
266000.0 634775.0 0
270000.0 634775.0 0
274000.0 634775.0 0
278000.0 634775.0 0
282000.0 634775.0 0
286000.0 634775.0 0
290000.0 634775.0 0
294000.0 634775.0 0
298000.0 634775.0 0
302000.0 634775.0 0
306000.0 634775.0 0
310000.0 634775.0 0
314000.0 634775.0 0
318000.0 634775.0 0
322000.0 634775.0 0
326000.0 634775.0 0
330000.0 634775.0 0
334000.0 634775.0 0
338000.0 634775.0 0
342000.0 634775.0 0
346000.0 634775.0 0
350000.0 634775.0 0
354000.0 634775.0 0
358000.0 634775.0 0
362000.0 634775.0 0
366000.0 634775.0 0
370000.0 634775.0 0
374000.0 634775.0 0
378000.0 634775.0 0
382000.0 634775.0 0
386000.0 634775.0 0
390000.0 634775.0 0
394000.0 634775.0 0
398000.0 634775.0 0
102000.0 638775.0 0
106000.0 638775.0 0
110000.0 638775.0 0
114000.0 638775.0 0
118000.0 638775.0 0
122000.0 638775.0 0
126000.0 638775.0 0
130000.0 638775.0 0
134000.0 638775.0 0
138000.0 638775.0 0
142000.0 638775.0 0
146000.0 638775.0 0
150000.0 638775.0 0
154000.0 638775.0 0
158000.0 638775.0 0
162000.0 638775.0 0
166000.0 638775.0 0
170000.0 638775.0 0
174000.0 638775.0 0
178000.0 638775.0 0
182000.0 638775.0 0
186000.0 638775.0 0
190000.0 638775.0 0
194000.0 638775.0 0
198000.0 638775.0 0
202000.0 638775.0 0
206000.0 638775.0 0
210000.0 638775.0 0
214000.0 638775.0 0
218000.0 638775.0 0
222000.0 638775.0 0
226000.0 638775.0 0
230000.0 638775.0 0
234000.0 638775.0 0
238000.0 638775.0 0
242000.0 638775.0 0
246000.0 638775.0 0
250000.0 638775.0 0
254000.0 638775.0 0
258000.0 638775.0 0
262000.0 638775.0 0
266000.0 638775.0 0
270000.0 638775.0 0
274000.0 638775.0 0
278000.0 638775.0 0
282000.0 638775.0 0
286000.0 638775.0 0
290000.0 638775.0 0
294000.0 638775.0 0
298000.0 638775.0 0
302000.0 638775.0 0
306000.0 638775.0 0
310000.0 638775.0 0
314000.0 638775.0 0
318000.0 638775.0 0
322000.0 638775.0 0
326000.0 638775.0 0
330000.0 638775.0 0
334000.0 638775.0 0
338000.0 638775.0 0
342000.0 638775.0 0
346000.0 638775.0 0
350000.0 638775.0 0
354000.0 638775.0 0
358000.0 638775.0 0
362000.0 638775.0 0
366000.0 638775.0 0
370000.0 638775.0 0
374000.0 638775.0 0
378000.0 638775.0 0
382000.0 638775.0 0
386000.0 638775.0 0
390000.0 638775.0 0
394000.0 638775.0 0
398000.0 638775.0 0
102000.0 642775.0 0
106000.0 642775.0 0
110000.0 642775.0 0
114000.0 642775.0 0
118000.0 642775.0 0
122000.0 642775.0 0
126000.0 642775.0 0
130000.0 642775.0 0
134000.0 642775.0 0
138000.0 642775.0 0
142000.0 642775.0 0
146000.0 642775.0 0
150000.0 642775.0 0
154000.0 642775.0 0
158000.0 642775.0 0
162000.0 642775.0 0
166000.0 642775.0 0
170000.0 642775.0 0
174000.0 642775.0 0
178000.0 642775.0 0
182000.0 642775.0 0
186000.0 642775.0 0
190000.0 642775.0 0
194000.0 642775.0 0
198000.0 642775.0 0
202000.0 642775.0 0
206000.0 642775.0 0
210000.0 642775.0 0
214000.0 642775.0 0
218000.0 642775.0 0
222000.0 642775.0 0
226000.0 642775.0 0
230000.0 642775.0 0
234000.0 642775.0 0
238000.0 642775.0 0
242000.0 642775.0 0
246000.0 642775.0 0
250000.0 642775.0 0
254000.0 642775.0 0
258000.0 642775.0 0
262000.0 642775.0 0
266000.0 642775.0 0
270000.0 642775.0 0
274000.0 642775.0 0
278000.0 642775.0 0
282000.0 642775.0 0
286000.0 642775.0 0
290000.0 642775.0 0
294000.0 642775.0 0
298000.0 642775.0 0
302000.0 642775.0 0
306000.0 642775.0 0
310000.0 642775.0 0
314000.0 642775.0 0
318000.0 642775.0 0
322000.0 642775.0 0
326000.0 642775.0 0
330000.0 642775.0 0
334000.0 642775.0 0
338000.0 642775.0 0
342000.0 642775.0 0
346000.0 642775.0 0
350000.0 642775.0 0
354000.0 642775.0 0
358000.0 642775.0 0
362000.0 642775.0 0
366000.0 642775.0 0
370000.0 642775.0 0
374000.0 642775.0 0
378000.0 642775.0 0
382000.0 642775.0 0
386000.0 642775.0 0
390000.0 642775.0 0
394000.0 642775.0 0
398000.0 642775.0 0
102000.0 646775.0 0
106000.0 646775.0 0
110000.0 646775.0 0
114000.0 646775.0 0
118000.0 646775.0 0
122000.0 646775.0 0
126000.0 646775.0 0
130000.0 646775.0 0
134000.0 646775.0 0
138000.0 646775.0 0
142000.0 646775.0 0
146000.0 646775.0 0
150000.0 646775.0 0
154000.0 646775.0 0
158000.0 646775.0 0
162000.0 646775.0 0
166000.0 646775.0 0
170000.0 646775.0 0
174000.0 646775.0 0
178000.0 646775.0 0
182000.0 646775.0 0
186000.0 646775.0 0
190000.0 646775.0 0
194000.0 646775.0 0
198000.0 646775.0 0
202000.0 646775.0 0
206000.0 646775.0 0
210000.0 646775.0 0
214000.0 646775.0 0
218000.0 646775.0 0
222000.0 646775.0 0
226000.0 646775.0 0
230000.0 646775.0 0
234000.0 646775.0 0
238000.0 646775.0 0
242000.0 646775.0 0
246000.0 646775.0 0
250000.0 646775.0 0
254000.0 646775.0 0
258000.0 646775.0 0
262000.0 646775.0 0
266000.0 646775.0 0
270000.0 646775.0 0
274000.0 646775.0 0
278000.0 646775.0 0
282000.0 646775.0 0
286000.0 646775.0 0
290000.0 646775.0 0
294000.0 646775.0 0
298000.0 646775.0 0
302000.0 646775.0 0
306000.0 646775.0 0
310000.0 646775.0 0
314000.0 646775.0 0
318000.0 646775.0 0
322000.0 646775.0 0
326000.0 646775.0 0
330000.0 646775.0 0
334000.0 646775.0 0
338000.0 646775.0 0
342000.0 646775.0 0
346000.0 646775.0 0
350000.0 646775.0 0
354000.0 646775.0 0
358000.0 646775.0 0
362000.0 646775.0 0
366000.0 646775.0 0
370000.0 646775.0 0
374000.0 646775.0 0
378000.0 646775.0 0
382000.0 646775.0 0
386000.0 646775.0 0
390000.0 646775.0 0
394000.0 646775.0 0
398000.0 646775.0 0
102000.0 650775.0 0
106000.0 650775.0 0
110000.0 650775.0 0
114000.0 650775.0 0
118000.0 650775.0 0
122000.0 650775.0 0
126000.0 650775.0 0
130000.0 650775.0 0
134000.0 650775.0 0
138000.0 650775.0 0
142000.0 650775.0 0
146000.0 650775.0 0
150000.0 650775.0 0
154000.0 650775.0 0
158000.0 650775.0 0
162000.0 650775.0 0
166000.0 650775.0 0
170000.0 650775.0 0
174000.0 650775.0 0
178000.0 650775.0 0
182000.0 650775.0 0
186000.0 650775.0 0
190000.0 650775.0 0
194000.0 650775.0 0
198000.0 650775.0 0
202000.0 650775.0 0
206000.0 650775.0 0
210000.0 650775.0 0
214000.0 650775.0 0
218000.0 650775.0 0
222000.0 650775.0 0
226000.0 650775.0 0
230000.0 650775.0 0
234000.0 650775.0 0
238000.0 650775.0 0
242000.0 650775.0 0
246000.0 650775.0 0
250000.0 650775.0 0
254000.0 650775.0 0
258000.0 650775.0 0
262000.0 650775.0 0
266000.0 650775.0 0
270000.0 650775.0 0
274000.0 650775.0 0
278000.0 650775.0 0
282000.0 650775.0 0
286000.0 650775.0 0
290000.0 650775.0 0
294000.0 650775.0 0
298000.0 650775.0 0
302000.0 650775.0 0
306000.0 650775.0 0
310000.0 650775.0 0
314000.0 650775.0 0
318000.0 650775.0 0
322000.0 650775.0 0
326000.0 650775.0 0
330000.0 650775.0 0
334000.0 650775.0 0
338000.0 650775.0 0
342000.0 650775.0 0
346000.0 650775.0 0
350000.0 650775.0 0
354000.0 650775.0 0
358000.0 650775.0 0
362000.0 650775.0 0
366000.0 650775.0 0
370000.0 650775.0 0
374000.0 650775.0 0
378000.0 650775.0 0
382000.0 650775.0 0
386000.0 650775.0 0
390000.0 650775.0 0
394000.0 650775.0 0
398000.0 650775.0 0
102000.0 654775.0 0
106000.0 654775.0 0
110000.0 654775.0 0
114000.0 654775.0 0
118000.0 654775.0 0
122000.0 654775.0 0
126000.0 654775.0 0
130000.0 654775.0 0
134000.0 654775.0 0
138000.0 654775.0 0
142000.0 654775.0 0
146000.0 654775.0 0
150000.0 654775.0 0
154000.0 654775.0 0
158000.0 654775.0 0
162000.0 654775.0 0
166000.0 654775.0 0
170000.0 654775.0 0
174000.0 654775.0 0
178000.0 654775.0 0
182000.0 654775.0 0
186000.0 654775.0 0
190000.0 654775.0 0
194000.0 654775.0 0
198000.0 654775.0 0
202000.0 654775.0 0
206000.0 654775.0 0
210000.0 654775.0 0
214000.0 654775.0 0
218000.0 654775.0 0
222000.0 654775.0 0
226000.0 654775.0 0
230000.0 654775.0 0
234000.0 654775.0 0
238000.0 654775.0 0
242000.0 654775.0 0
246000.0 654775.0 0
250000.0 654775.0 0
254000.0 654775.0 0
258000.0 654775.0 0
262000.0 654775.0 0
266000.0 654775.0 0
270000.0 654775.0 0
274000.0 654775.0 0
278000.0 654775.0 0
282000.0 654775.0 0
286000.0 654775.0 0
290000.0 654775.0 0
294000.0 654775.0 0
298000.0 654775.0 0
302000.0 654775.0 0
306000.0 654775.0 0
310000.0 654775.0 0
314000.0 654775.0 0
318000.0 654775.0 0
322000.0 654775.0 0
326000.0 654775.0 0
330000.0 654775.0 0
334000.0 654775.0 0
338000.0 654775.0 0
342000.0 654775.0 0
346000.0 654775.0 0
350000.0 654775.0 0
354000.0 654775.0 0
358000.0 654775.0 0
362000.0 654775.0 0
366000.0 654775.0 0
370000.0 654775.0 0
374000.0 654775.0 0
378000.0 654775.0 0
382000.0 654775.0 0
386000.0 654775.0 0
390000.0 654775.0 0
394000.0 654775.0 0
398000.0 654775.0 0
102000.0 658775.0 0
106000.0 658775.0 0
110000.0 658775.0 0
114000.0 658775.0 0
118000.0 658775.0 0
122000.0 658775.0 0
126000.0 658775.0 0
130000.0 658775.0 0
134000.0 658775.0 0
138000.0 658775.0 0
142000.0 658775.0 0
146000.0 658775.0 0
150000.0 658775.0 0
154000.0 658775.0 0
158000.0 658775.0 0
162000.0 658775.0 0
166000.0 658775.0 0
170000.0 658775.0 0
174000.0 658775.0 0
178000.0 658775.0 0
182000.0 658775.0 0
186000.0 658775.0 0
190000.0 658775.0 0
194000.0 658775.0 0
198000.0 658775.0 0
202000.0 658775.0 0
206000.0 658775.0 0
210000.0 658775.0 0
214000.0 658775.0 0
218000.0 658775.0 0
222000.0 658775.0 0
226000.0 658775.0 0
230000.0 658775.0 0
234000.0 658775.0 0
238000.0 658775.0 0
242000.0 658775.0 0
246000.0 658775.0 0
250000.0 658775.0 0
254000.0 658775.0 0
258000.0 658775.0 0
262000.0 658775.0 0
266000.0 658775.0 0
270000.0 658775.0 0
274000.0 658775.0 0
278000.0 658775.0 0
282000.0 658775.0 0
286000.0 658775.0 0
290000.0 658775.0 0
294000.0 658775.0 0
298000.0 658775.0 0
302000.0 658775.0 0
306000.0 658775.0 0
310000.0 658775.0 0
314000.0 658775.0 0
318000.0 658775.0 0
322000.0 658775.0 0
326000.0 658775.0 0
330000.0 658775.0 0
334000.0 658775.0 0
338000.0 658775.0 0
342000.0 658775.0 0
346000.0 658775.0 0
350000.0 658775.0 0
354000.0 658775.0 0
358000.0 658775.0 0
362000.0 658775.0 0
366000.0 658775.0 0
370000.0 658775.0 0
374000.0 658775.0 0
378000.0 658775.0 0
382000.0 658775.0 0
386000.0 658775.0 0
390000.0 658775.0 0
394000.0 658775.0 0
398000.0 658775.0 0
102000.0 662775.0 0
106000.0 662775.0 0
110000.0 662775.0 0
114000.0 662775.0 0
118000.0 662775.0 0
122000.0 662775.0 0
126000.0 662775.0 0
130000.0 662775.0 0
134000.0 662775.0 0
138000.0 662775.0 0
142000.0 662775.0 0
146000.0 662775.0 0
150000.0 662775.0 0
154000.0 662775.0 0
158000.0 662775.0 0
162000.0 662775.0 0
166000.0 662775.0 0
170000.0 662775.0 0
174000.0 662775.0 0
178000.0 662775.0 0
182000.0 662775.0 0
186000.0 662775.0 0
190000.0 662775.0 0
194000.0 662775.0 0
198000.0 662775.0 0
202000.0 662775.0 0
206000.0 662775.0 0
210000.0 662775.0 0
214000.0 662775.0 0
218000.0 662775.0 0
222000.0 662775.0 0
226000.0 662775.0 0
230000.0 662775.0 0
234000.0 662775.0 0
238000.0 662775.0 0
242000.0 662775.0 0
246000.0 662775.0 0
250000.0 662775.0 0
254000.0 662775.0 0
258000.0 662775.0 0
262000.0 662775.0 0
266000.0 662775.0 0
270000.0 662775.0 0
274000.0 662775.0 0
278000.0 662775.0 0
282000.0 662775.0 0
286000.0 662775.0 0
290000.0 662775.0 0
294000.0 662775.0 0
298000.0 662775.0 0
302000.0 662775.0 0
306000.0 662775.0 0
310000.0 662775.0 0
314000.0 662775.0 0
318000.0 662775.0 0
322000.0 662775.0 0
326000.0 662775.0 0
330000.0 662775.0 0
334000.0 662775.0 0
338000.0 662775.0 0
342000.0 662775.0 0
346000.0 662775.0 0
350000.0 662775.0 0
354000.0 662775.0 0
358000.0 662775.0 0
362000.0 662775.0 0
366000.0 662775.0 0
370000.0 662775.0 0
374000.0 662775.0 0
378000.0 662775.0 0
382000.0 662775.0 0
386000.0 662775.0 0
390000.0 662775.0 0
394000.0 662775.0 0
398000.0 662775.0 0
102000.0 666775.0 0
106000.0 666775.0 0
110000.0 666775.0 0
114000.0 666775.0 0
118000.0 666775.0 0
122000.0 666775.0 0
126000.0 666775.0 0
130000.0 666775.0 0
134000.0 666775.0 0
138000.0 666775.0 0
142000.0 666775.0 0
146000.0 666775.0 0
150000.0 666775.0 0
154000.0 666775.0 0
158000.0 666775.0 0
162000.0 666775.0 0
166000.0 666775.0 0
170000.0 666775.0 0
174000.0 666775.0 0
178000.0 666775.0 0
182000.0 666775.0 0
186000.0 666775.0 0
190000.0 666775.0 0
194000.0 666775.0 0
198000.0 666775.0 0
202000.0 666775.0 0
206000.0 666775.0 0
210000.0 666775.0 0
214000.0 666775.0 0
218000.0 666775.0 0
222000.0 666775.0 0
226000.0 666775.0 0
230000.0 666775.0 0
234000.0 666775.0 0
238000.0 666775.0 0
242000.0 666775.0 0
246000.0 666775.0 0
250000.0 666775.0 0
254000.0 666775.0 0
258000.0 666775.0 0
262000.0 666775.0 0
266000.0 666775.0 0
270000.0 666775.0 0
274000.0 666775.0 0
278000.0 666775.0 0
282000.0 666775.0 0
286000.0 666775.0 0
290000.0 666775.0 0
294000.0 666775.0 0
298000.0 666775.0 0
302000.0 666775.0 0
306000.0 666775.0 0
310000.0 666775.0 0
314000.0 666775.0 0
318000.0 666775.0 0
322000.0 666775.0 0
326000.0 666775.0 0
330000.0 666775.0 0
334000.0 666775.0 0
338000.0 666775.0 0
342000.0 666775.0 0
346000.0 666775.0 0
350000.0 666775.0 0
354000.0 666775.0 0
358000.0 666775.0 0
362000.0 666775.0 0
366000.0 666775.0 0
370000.0 666775.0 0
374000.0 666775.0 0
378000.0 666775.0 0
382000.0 666775.0 0
386000.0 666775.0 0
390000.0 666775.0 0
394000.0 666775.0 0
398000.0 666775.0 0
102000.0 670775.0 0
106000.0 670775.0 0
110000.0 670775.0 0
114000.0 670775.0 0
118000.0 670775.0 0
122000.0 670775.0 0
126000.0 670775.0 0
130000.0 670775.0 0
134000.0 670775.0 0
138000.0 670775.0 0
142000.0 670775.0 0
146000.0 670775.0 0
150000.0 670775.0 0
154000.0 670775.0 0
158000.0 670775.0 0
162000.0 670775.0 0
166000.0 670775.0 0
170000.0 670775.0 0
174000.0 670775.0 0
178000.0 670775.0 0
182000.0 670775.0 0
186000.0 670775.0 0
190000.0 670775.0 0
194000.0 670775.0 0
198000.0 670775.0 0
202000.0 670775.0 0
206000.0 670775.0 0
210000.0 670775.0 0
214000.0 670775.0 0
218000.0 670775.0 0
222000.0 670775.0 0
226000.0 670775.0 0
230000.0 670775.0 0
234000.0 670775.0 0
238000.0 670775.0 0
242000.0 670775.0 0
246000.0 670775.0 0
250000.0 670775.0 0
254000.0 670775.0 0
258000.0 670775.0 0
262000.0 670775.0 0
266000.0 670775.0 0
270000.0 670775.0 0
274000.0 670775.0 0
278000.0 670775.0 0
282000.0 670775.0 0
286000.0 670775.0 0
290000.0 670775.0 0
294000.0 670775.0 0
298000.0 670775.0 0
302000.0 670775.0 0
306000.0 670775.0 0
310000.0 670775.0 0
314000.0 670775.0 0
318000.0 670775.0 0
322000.0 670775.0 0
326000.0 670775.0 0
330000.0 670775.0 0
334000.0 670775.0 0
338000.0 670775.0 0
342000.0 670775.0 0
346000.0 670775.0 0
350000.0 670775.0 0
354000.0 670775.0 0
358000.0 670775.0 0
362000.0 670775.0 0
366000.0 670775.0 0
370000.0 670775.0 0
374000.0 670775.0 0
378000.0 670775.0 0
382000.0 670775.0 0
386000.0 670775.0 0
390000.0 670775.0 0
394000.0 670775.0 0
398000.0 670775.0 0
102000.0 674775.0 0
106000.0 674775.0 0
110000.0 674775.0 0
114000.0 674775.0 0
118000.0 674775.0 0
122000.0 674775.0 0
126000.0 674775.0 0
130000.0 674775.0 0
134000.0 674775.0 0
138000.0 674775.0 0
142000.0 674775.0 0
146000.0 674775.0 0
150000.0 674775.0 0
154000.0 674775.0 0
158000.0 674775.0 0
162000.0 674775.0 0
166000.0 674775.0 0
170000.0 674775.0 0
174000.0 674775.0 0
178000.0 674775.0 0
182000.0 674775.0 0
186000.0 674775.0 0
190000.0 674775.0 0
194000.0 674775.0 0
198000.0 674775.0 0
202000.0 674775.0 0
206000.0 674775.0 0
210000.0 674775.0 0
214000.0 674775.0 0
218000.0 674775.0 0
222000.0 674775.0 0
226000.0 674775.0 0
230000.0 674775.0 0
234000.0 674775.0 0
238000.0 674775.0 0
242000.0 674775.0 0
246000.0 674775.0 0
250000.0 674775.0 0
254000.0 674775.0 0
258000.0 674775.0 0
262000.0 674775.0 0
266000.0 674775.0 0
270000.0 674775.0 0
274000.0 674775.0 0
278000.0 674775.0 0
282000.0 674775.0 0
286000.0 674775.0 0
290000.0 674775.0 0
294000.0 674775.0 0
298000.0 674775.0 0
302000.0 674775.0 0
306000.0 674775.0 0
310000.0 674775.0 0
314000.0 674775.0 0
318000.0 674775.0 0
322000.0 674775.0 0
326000.0 674775.0 0
330000.0 674775.0 0
334000.0 674775.0 0
338000.0 674775.0 0
342000.0 674775.0 0
346000.0 674775.0 0
350000.0 674775.0 0
354000.0 674775.0 0
358000.0 674775.0 0
362000.0 674775.0 0
366000.0 674775.0 0
370000.0 674775.0 0
374000.0 674775.0 0
378000.0 674775.0 0
382000.0 674775.0 0
386000.0 674775.0 0
390000.0 674775.0 0
394000.0 674775.0 0
398000.0 674775.0 0
102000.0 678775.0 0
106000.0 678775.0 0
110000.0 678775.0 0
114000.0 678775.0 0
118000.0 678775.0 0
122000.0 678775.0 0
126000.0 678775.0 0
130000.0 678775.0 0
134000.0 678775.0 0
138000.0 678775.0 0
142000.0 678775.0 0
146000.0 678775.0 0
150000.0 678775.0 0
154000.0 678775.0 0
158000.0 678775.0 0
162000.0 678775.0 0
166000.0 678775.0 0
170000.0 678775.0 0
174000.0 678775.0 0
178000.0 678775.0 0
182000.0 678775.0 0
186000.0 678775.0 0
190000.0 678775.0 0
194000.0 678775.0 0
198000.0 678775.0 0
202000.0 678775.0 0
206000.0 678775.0 0
210000.0 678775.0 0
214000.0 678775.0 0
218000.0 678775.0 0
222000.0 678775.0 0
226000.0 678775.0 0
230000.0 678775.0 0
234000.0 678775.0 0
238000.0 678775.0 0
242000.0 678775.0 0
246000.0 678775.0 0
250000.0 678775.0 0
254000.0 678775.0 0
258000.0 678775.0 0
262000.0 678775.0 0
266000.0 678775.0 0
270000.0 678775.0 0
274000.0 678775.0 0
278000.0 678775.0 0
282000.0 678775.0 0
286000.0 678775.0 0
290000.0 678775.0 0
294000.0 678775.0 0
298000.0 678775.0 0
302000.0 678775.0 0
306000.0 678775.0 0
310000.0 678775.0 0
314000.0 678775.0 0
318000.0 678775.0 0
322000.0 678775.0 0
326000.0 678775.0 0
330000.0 678775.0 0
334000.0 678775.0 0
338000.0 678775.0 0
342000.0 678775.0 0
346000.0 678775.0 0
350000.0 678775.0 0
354000.0 678775.0 0
358000.0 678775.0 0
362000.0 678775.0 0
366000.0 678775.0 0
370000.0 678775.0 0
374000.0 678775.0 0
378000.0 678775.0 0
382000.0 678775.0 0
386000.0 678775.0 0
390000.0 678775.0 0
394000.0 678775.0 0
398000.0 678775.0 0
102000.0 682775.0 0
106000.0 682775.0 0
110000.0 682775.0 0
114000.0 682775.0 0
118000.0 682775.0 0
122000.0 682775.0 0
126000.0 682775.0 0
130000.0 682775.0 0
134000.0 682775.0 0
138000.0 682775.0 0
142000.0 682775.0 0
146000.0 682775.0 0
150000.0 682775.0 0
154000.0 682775.0 0
158000.0 682775.0 0
162000.0 682775.0 0
166000.0 682775.0 0
170000.0 682775.0 0
174000.0 682775.0 0
178000.0 682775.0 0
182000.0 682775.0 0
186000.0 682775.0 0
190000.0 682775.0 0
194000.0 682775.0 0
198000.0 682775.0 0
202000.0 682775.0 0
206000.0 682775.0 0
210000.0 682775.0 0
214000.0 682775.0 0
218000.0 682775.0 0
222000.0 682775.0 0
226000.0 682775.0 0
230000.0 682775.0 0
234000.0 682775.0 0
238000.0 682775.0 0
242000.0 682775.0 0
246000.0 682775.0 0
250000.0 682775.0 0
254000.0 682775.0 0
258000.0 682775.0 0
262000.0 682775.0 0
266000.0 682775.0 0
270000.0 682775.0 0
274000.0 682775.0 0
278000.0 682775.0 0
282000.0 682775.0 0
286000.0 682775.0 0
290000.0 682775.0 0
294000.0 682775.0 0
298000.0 682775.0 0
302000.0 682775.0 0
306000.0 682775.0 0
310000.0 682775.0 0
314000.0 682775.0 0
318000.0 682775.0 0
322000.0 682775.0 0
326000.0 682775.0 0
330000.0 682775.0 0
334000.0 682775.0 0
338000.0 682775.0 0
342000.0 682775.0 0
346000.0 682775.0 0
350000.0 682775.0 0
354000.0 682775.0 0
358000.0 682775.0 0
362000.0 682775.0 0
366000.0 682775.0 0
370000.0 682775.0 0
374000.0 682775.0 0
378000.0 682775.0 0
382000.0 682775.0 0
386000.0 682775.0 0
390000.0 682775.0 0
394000.0 682775.0 0
398000.0 682775.0 0
POINT_DATA 4650
SCALARS Radius float 1
LOOKUP_TABLE default
4000.0 4000.0 4000.0 4000.0 4000.0 4000.0 4000.0 4000.0 4000.0 4000.0 4000.0 4000.0 4000.0 4000.0 4000.0 4000.0 4000.0 4000.0 4000.0 4000.0 4000.0 4000.0 4000.0 4000.0 4000.0 4000.0 4000.0 4000.0 4000.0 4000.0 4000.0 4000.0 4000.0 4000.0 4000.0 4000.0 4000.0 4000.0 4000.0 4000.0 4000.0 4000.0 4000.0 4000.0 4000.0 4000.0 4000.0 4000.0 4000.0 4000.0 4000.0 4000.0 4000.0 4000.0 4000.0 4000.0 4000.0 4000.0 4000.0 4000.0 4000.0 4000.0 4000.0 4000.0 4000.0 4000.0 4000.0 4000.0 4000.0 4000.0 4000.0 4000.0 4000.0 4000.0 4000.0 4000.0 4000.0 4000.0 4000.0 4000.0 4000.0 4000.0 4000.0 4000.0 4000.0 4000.0 4000.0 4000.0 4000.0 4000.0 4000.0 4000.0 4000.0 4000.0 4000.0 4000.0 4000.0 4000.0 4000.0 4000.0 4000.0 4000.0 4000.0 4000.0 4000.0 4000.0 4000.0 4000.0 4000.0 4000.0 4000.0 4000.0 4000.0 4000.0 4000.0 4000.0 4000.0 4000.0 4000.0 4000.0 4000.0 4000.0 4000.0 4000.0 4000.0 4000.0 4000.0 4000.0 4000.0 4000.0 4000.0 4000.0 4000.0 4000.0 4000.0 4000.0 4000.0 4000.0 4000.0 4000.0 4000.0 4000.0 4000.0 4000.0 4000.0 4000.0 4000.0 4000.0 4000.0 4000.0 4000.0 4000.0 4000.0 4000.0 4000.0 4000.0 4000.0 4000.0 4000.0 4000.0 4000.0 4000.0 4000.0 4000.0 4000.0 4000.0 4000.0 4000.0 4000.0 4000.0 4000.0 4000.0 4000.0 4000.0 4000.0 4000.0 4000.0 4000.0 4000.0 4000.0 4000.0 4000.0 4000.0 4000.0 4000.0 4000.0 4000.0 4000.0 4000.0 4000.0 4000.0 4000.0 4000.0 4000.0 4000.0 4000.0 4000.0 4000.0 4000.0 4000.0 4000.0 4000.0 4000.0 4000.0 4000.0 4000.0 4000.0 4000.0 4000.0 4000.0 4000.0 4000.0 4000.0 4000.0 4000.0 4000.0 4000.0 4000.0 4000.0 4000.0 4000.0 4000.0 4000.0 4000.0 4000.0 4000.0 4000.0 4000.0 4000.0 4000.0 4000.0 4000.0 4000.0 4000.0 4000.0 4000.0 4000.0 4000.0 4000.0 4000.0 4000.0 4000.0 4000.0 4000.0 4000.0 4000.0 4000.0 4000.0 4000.0 4000.0 4000.0 4000.0 4000.0 4000.0 4000.0 4000.0 4000.0 4000.0 4000.0 4000.0 4000.0 4000.0 4000.0 4000.0 4000.0 4000.0 4000.0 4000.0 4000.0 4000.0 4000.0 4000.0 4000.0 4000.0 4000.0 4000.0 4000.0 4000.0 4000.0 4000.0 4000.0 4000.0 4000.0 4000.0 4000.0 4000.0 4000.0 4000.0 4000.0 4000.0 4000.0 4000.0 4000.0 4000.0 4000.0 4000.0 4000.0 4000.0 4000.0 4000.0 4000.0 4000.0 4000.0 4000.0 4000.0 4000.0 4000.0 4000.0 4000.0 4000.0 4000.0 4000.0 4000.0 4000.0 4000.0 4000.0 4000.0 4000.0 4000.0 4000.0 4000.0 4000.0 4000.0 4000.0 4000.0 4000.0 4000.0 4000.0 4000.0 4000.0 4000.0 4000.0 4000.0 4000.0 4000.0 4000.0 4000.0 4000.0 4000.0 4000.0 4000.0 4000.0 4000.0 4000.0 4000.0 4000.0 4000.0 4000.0 4000.0 4000.0 4000.0 4000.0 4000.0 4000.0 4000.0 4000.0 4000.0 4000.0 4000.0 4000.0 4000.0 4000.0 4000.0 4000.0 4000.0 4000.0 4000.0 4000.0 4000.0 4000.0 4000.0 4000.0 4000.0 4000.0 4000.0 4000.0 4000.0 4000.0 4000.0 4000.0 4000.0 4000.0 4000.0 4000.0 4000.0 4000.0 4000.0 4000.0 4000.0 4000.0 4000.0 4000.0 4000.0 4000.0 4000.0 4000.0 4000.0 4000.0 4000.0 4000.0 4000.0 4000.0 4000.0 4000.0 4000.0 4000.0 4000.0 4000.0 4000.0 4000.0 4000.0 4000.0 4000.0 4000.0 4000.0 4000.0 4000.0 4000.0 4000.0 4000.0 4000.0 4000.0 4000.0 4000.0 4000.0 4000.0 4000.0 4000.0 4000.0 4000.0 4000.0 4000.0 4000.0 4000.0 4000.0 4000.0 4000.0 4000.0 4000.0 4000.0 4000.0 4000.0 4000.0 4000.0 4000.0 4000.0 4000.0 4000.0 4000.0 4000.0 4000.0 4000.0 4000.0 4000.0 4000.0 4000.0 4000.0 4000.0 4000.0 4000.0 4000.0 4000.0 4000.0 4000.0 4000.0 4000.0 4000.0 4000.0 4000.0 4000.0 4000.0 4000.0 4000.0 4000.0 4000.0 4000.0 4000.0 4000.0 4000.0 4000.0 4000.0 4000.0 4000.0 4000.0 4000.0 4000.0 4000.0 4000.0 4000.0 4000.0 4000.0 4000.0 4000.0 4000.0 4000.0 4000.0 4000.0 4000.0 4000.0 4000.0 4000.0 4000.0 4000.0 4000.0 4000.0 4000.0 4000.0 4000.0 4000.0 4000.0 4000.0 4000.0 4000.0 4000.0 4000.0 4000.0 4000.0 4000.0 4000.0 4000.0 4000.0 4000.0 4000.0 4000.0 4000.0 4000.0 4000.0 4000.0 4000.0 4000.0 4000.0 4000.0 4000.0 4000.0 4000.0 4000.0 4000.0 4000.0 4000.0 4000.0 4000.0 4000.0 4000.0 4000.0 4000.0 4000.0 4000.0 4000.0 4000.0 4000.0 4000.0 4000.0 4000.0 4000.0 4000.0 4000.0 4000.0 4000.0 4000.0 4000.0 4000.0 4000.0 4000.0 4000.0 4000.0 4000.0 4000.0 4000.0 4000.0 4000.0 4000.0 4000.0 4000.0 4000.0 4000.0 4000.0 4000.0 4000.0 4000.0 4000.0 4000.0 4000.0 4000.0 4000.0 4000.0 4000.0 4000.0 4000.0 4000.0 4000.0 4000.0 4000.0 4000.0 4000.0 4000.0 4000.0 4000.0 4000.0 4000.0 4000.0 4000.0 4000.0 4000.0 4000.0 4000.0 4000.0 4000.0 4000.0 4000.0 4000.0 4000.0 4000.0 4000.0 4000.0 4000.0 4000.0 4000.0 4000.0 4000.0 4000.0 4000.0 4000.0 4000.0 4000.0 4000.0 4000.0 4000.0 4000.0 4000.0 4000.0 4000.0 4000.0 4000.0 4000.0 4000.0 4000.0 4000.0 4000.0 4000.0 4000.0 4000.0 4000.0 4000.0 4000.0 4000.0 4000.0 4000.0 4000.0 4000.0 4000.0 4000.0 4000.0 4000.0 4000.0 4000.0 4000.0 4000.0 4000.0 4000.0 4000.0 4000.0 4000.0 4000.0 4000.0 4000.0 4000.0 4000.0 4000.0 4000.0 4000.0 4000.0 4000.0 4000.0 4000.0 4000.0 4000.0 4000.0 4000.0 4000.0 4000.0 4000.0 4000.0 4000.0 4000.0 4000.0 4000.0 4000.0 4000.0 4000.0 4000.0 4000.0 4000.0 4000.0 4000.0 4000.0 4000.0 4000.0 4000.0 4000.0 4000.0 4000.0 4000.0 4000.0 4000.0 4000.0 4000.0 4000.0 4000.0 4000.0 4000.0 4000.0 4000.0 4000.0 4000.0 4000.0 4000.0 4000.0 4000.0 4000.0 4000.0 4000.0 4000.0 4000.0 4000.0 4000.0 4000.0 4000.0 4000.0 4000.0 4000.0 4000.0 4000.0 4000.0 4000.0 4000.0 4000.0 4000.0 4000.0 4000.0 4000.0 4000.0 4000.0 4000.0 4000.0 4000.0 4000.0 4000.0 4000.0 4000.0 4000.0 4000.0 4000.0 4000.0 4000.0 4000.0 4000.0 4000.0 4000.0 4000.0 4000.0 4000.0 4000.0 4000.0 4000.0 4000.0 4000.0 4000.0 4000.0 4000.0 4000.0 4000.0 4000.0 4000.0 4000.0 4000.0 4000.0 4000.0 4000.0 4000.0 4000.0 4000.0 4000.0 4000.0 4000.0 4000.0 4000.0 4000.0 4000.0 4000.0 4000.0 4000.0 4000.0 4000.0 4000.0 4000.0 4000.0 4000.0 4000.0 4000.0 4000.0 4000.0 4000.0 4000.0 4000.0 4000.0 4000.0 4000.0 4000.0 4000.0 4000.0 4000.0 4000.0 4000.0 4000.0 4000.0 4000.0 4000.0 4000.0 4000.0 4000.0 4000.0 4000.0 4000.0 4000.0 4000.0 4000.0 4000.0 4000.0 4000.0 4000.0 4000.0 4000.0 4000.0 4000.0 4000.0 4000.0 4000.0 4000.0 4000.0 4000.0 4000.0 4000.0 4000.0 4000.0 4000.0 4000.0 4000.0 4000.0 4000.0 4000.0 4000.0 4000.0 4000.0 4000.0 4000.0 4000.0 4000.0 4000.0 4000.0 4000.0 4000.0 4000.0 4000.0 4000.0 4000.0 4000.0 4000.0 4000.0 4000.0 4000.0 4000.0 4000.0 4000.0 4000.0 4000.0 4000.0 4000.0 4000.0 4000.0 4000.0 4000.0 4000.0 4000.0 4000.0 4000.0 4000.0 4000.0 4000.0 4000.0 4000.0 4000.0 4000.0 4000.0 4000.0 4000.0 4000.0 4000.0 4000.0 4000.0 4000.0 4000.0 4000.0 4000.0 4000.0 4000.0 4000.0 4000.0 4000.0 4000.0 4000.0 4000.0 4000.0 4000.0 4000.0 4000.0 4000.0 4000.0 4000.0 4000.0 4000.0 4000.0 4000.0 4000.0 4000.0 4000.0 4000.0 4000.0 4000.0 4000.0 4000.0 4000.0 4000.0 4000.0 4000.0 4000.0 4000.0 4000.0 4000.0 4000.0 4000.0 4000.0 4000.0 4000.0 4000.0 4000.0 4000.0 4000.0 4000.0 4000.0 4000.0 4000.0 4000.0 4000.0 4000.0 4000.0 4000.0 4000.0 4000.0 4000.0 4000.0 4000.0 4000.0 4000.0 4000.0 4000.0 4000.0 4000.0 4000.0 4000.0 4000.0 4000.0 4000.0 4000.0 4000.0 4000.0 4000.0 4000.0 4000.0 4000.0 4000.0 4000.0 4000.0 4000.0 4000.0 4000.0 4000.0 4000.0 4000.0 4000.0 4000.0 4000.0 4000.0 4000.0 4000.0 4000.0 4000.0 4000.0 4000.0 4000.0 4000.0 4000.0 4000.0 4000.0 4000.0 4000.0 4000.0 4000.0 4000.0 4000.0 4000.0 4000.0 4000.0 4000.0 4000.0 4000.0 4000.0 4000.0 4000.0 4000.0 4000.0 4000.0 4000.0 4000.0 4000.0 4000.0 4000.0 4000.0 4000.0 4000.0 4000.0 4000.0 4000.0 4000.0 4000.0 4000.0 4000.0 4000.0 4000.0 4000.0 4000.0 4000.0 4000.0 4000.0 4000.0 4000.0 4000.0 4000.0 4000.0 4000.0 4000.0 4000.0 4000.0 4000.0 4000.0 4000.0 4000.0 4000.0 4000.0 4000.0 4000.0 4000.0 4000.0 4000.0 4000.0 4000.0 4000.0 4000.0 4000.0 4000.0 4000.0 4000.0 4000.0 4000.0 4000.0 4000.0 4000.0 4000.0 4000.0 4000.0 4000.0 4000.0 4000.0 4000.0 4000.0 4000.0 4000.0 4000.0 4000.0 4000.0 4000.0 4000.0 4000.0 4000.0 4000.0 4000.0 4000.0 4000.0 4000.0 4000.0 4000.0 4000.0 4000.0 4000.0 4000.0 4000.0 4000.0 4000.0 4000.0 4000.0 4000.0 4000.0 4000.0 4000.0 4000.0 4000.0 4000.0 4000.0 4000.0 4000.0 4000.0 4000.0 4000.0 4000.0 4000.0 4000.0 4000.0 4000.0 4000.0 4000.0 4000.0 4000.0 4000.0 4000.0 4000.0 4000.0 4000.0 4000.0 4000.0 4000.0 4000.0 4000.0 4000.0 4000.0 4000.0 4000.0 4000.0 4000.0 4000.0 4000.0 4000.0 4000.0 4000.0 4000.0 4000.0 4000.0 4000.0 4000.0 4000.0 4000.0 4000.0 4000.0 4000.0 4000.0 4000.0 4000.0 4000.0 4000.0 4000.0 4000.0 4000.0 4000.0 4000.0 4000.0 4000.0 4000.0 4000.0 4000.0 4000.0 4000.0 4000.0 4000.0 4000.0 4000.0 4000.0 4000.0 4000.0 4000.0 4000.0 4000.0 4000.0 4000.0 4000.0 4000.0 4000.0 4000.0 4000.0 4000.0 4000.0 4000.0 4000.0 4000.0 4000.0 4000.0 4000.0 4000.0 4000.0 4000.0 4000.0 4000.0 4000.0 4000.0 4000.0 4000.0 4000.0 4000.0 4000.0 4000.0 4000.0 4000.0 4000.0 4000.0 4000.0 4000.0 4000.0 4000.0 4000.0 4000.0 4000.0 4000.0 4000.0 4000.0 4000.0 4000.0 4000.0 4000.0 4000.0 4000.0 4000.0 4000.0 4000.0 4000.0 4000.0 4000.0 4000.0 4000.0 4000.0 4000.0 4000.0 4000.0 4000.0 4000.0 4000.0 4000.0 4000.0 4000.0 4000.0 4000.0 4000.0 4000.0 4000.0 4000.0 4000.0 4000.0 4000.0 4000.0 4000.0 4000.0 4000.0 4000.0 4000.0 4000.0 4000.0 4000.0 4000.0 4000.0 4000.0 4000.0 4000.0 4000.0 4000.0 4000.0 4000.0 4000.0 4000.0 4000.0 4000.0 4000.0 4000.0 4000.0 4000.0 4000.0 4000.0 4000.0 4000.0 4000.0 4000.0 4000.0 4000.0 4000.0 4000.0 4000.0 4000.0 4000.0 4000.0 4000.0 4000.0 4000.0 4000.0 4000.0 4000.0 4000.0 4000.0 4000.0 4000.0 4000.0 4000.0 4000.0 4000.0 4000.0 4000.0 4000.0 4000.0 4000.0 4000.0 4000.0 4000.0 4000.0 4000.0 4000.0 4000.0 4000.0 4000.0 4000.0 4000.0 4000.0 4000.0 4000.0 4000.0 4000.0 4000.0 4000.0 4000.0 4000.0 4000.0 4000.0 4000.0 4000.0 4000.0 4000.0 4000.0 4000.0 4000.0 4000.0 4000.0 4000.0 4000.0 4000.0 4000.0 4000.0 4000.0 4000.0 4000.0 4000.0 4000.0 4000.0 4000.0 4000.0 4000.0 4000.0 4000.0 4000.0 4000.0 4000.0 4000.0 4000.0 4000.0 4000.0 4000.0 4000.0 4000.0 4000.0 4000.0 4000.0 4000.0 4000.0 4000.0 4000.0 4000.0 4000.0 4000.0 4000.0 4000.0 4000.0 4000.0 4000.0 4000.0 4000.0 4000.0 4000.0 4000.0 4000.0 4000.0 4000.0 4000.0 4000.0 4000.0 4000.0 4000.0 4000.0 4000.0 4000.0 4000.0 4000.0 4000.0 4000.0 4000.0 4000.0 4000.0 4000.0 4000.0 4000.0 4000.0 4000.0 4000.0 4000.0 4000.0 4000.0 4000.0 4000.0 4000.0 4000.0 4000.0 4000.0 4000.0 4000.0 4000.0 4000.0 4000.0 4000.0 4000.0 4000.0 4000.0 4000.0 4000.0 4000.0 4000.0 4000.0 4000.0 4000.0 4000.0 4000.0 4000.0 4000.0 4000.0 4000.0 4000.0 4000.0 4000.0 4000.0 4000.0 4000.0 4000.0 4000.0 4000.0 4000.0 4000.0 4000.0 4000.0 4000.0 4000.0 4000.0 4000.0 4000.0 4000.0 4000.0 4000.0 4000.0 4000.0 4000.0 4000.0 4000.0 4000.0 4000.0 4000.0 4000.0 4000.0 4000.0 4000.0 4000.0 4000.0 4000.0 4000.0 4000.0 4000.0 4000.0 4000.0 4000.0 4000.0 4000.0 4000.0 4000.0 4000.0 4000.0 4000.0 4000.0 4000.0 4000.0 4000.0 4000.0 4000.0 4000.0 4000.0 4000.0 4000.0 4000.0 4000.0 4000.0 4000.0 4000.0 4000.0 4000.0 4000.0 4000.0 4000.0 4000.0 4000.0 4000.0 4000.0 4000.0 4000.0 4000.0 4000.0 4000.0 4000.0 4000.0 4000.0 4000.0 4000.0 4000.0 4000.0 4000.0 4000.0 4000.0 4000.0 4000.0 4000.0 4000.0 4000.0 4000.0 4000.0 4000.0 4000.0 4000.0 4000.0 4000.0 4000.0 4000.0 4000.0 4000.0 4000.0 4000.0 4000.0 4000.0 4000.0 4000.0 4000.0 4000.0 4000.0 4000.0 4000.0 4000.0 4000.0 4000.0 4000.0 4000.0 4000.0 4000.0 4000.0 4000.0 4000.0 4000.0 4000.0 4000.0 4000.0 4000.0 4000.0 4000.0 4000.0 4000.0 4000.0 4000.0 4000.0 4000.0 4000.0 4000.0 4000.0 4000.0 4000.0 4000.0 4000.0 4000.0 4000.0 4000.0 4000.0 4000.0 4000.0 4000.0 4000.0 4000.0 4000.0 4000.0 4000.0 4000.0 4000.0 4000.0 4000.0 4000.0 4000.0 4000.0 4000.0 4000.0 4000.0 4000.0 4000.0 4000.0 4000.0 4000.0 4000.0 4000.0 4000.0 4000.0 4000.0 4000.0 4000.0 4000.0 4000.0 4000.0 4000.0 4000.0 4000.0 4000.0 4000.0 4000.0 4000.0 4000.0 4000.0 4000.0 4000.0 4000.0 4000.0 4000.0 4000.0 4000.0 4000.0 4000.0 4000.0 4000.0 4000.0 4000.0 4000.0 4000.0 4000.0 4000.0 4000.0 4000.0 4000.0 4000.0 4000.0 4000.0 4000.0 4000.0 4000.0 4000.0 4000.0 4000.0 4000.0 4000.0 4000.0 4000.0 4000.0 4000.0 4000.0 4000.0 4000.0 4000.0 4000.0 4000.0 4000.0 4000.0 4000.0 4000.0 4000.0 4000.0 4000.0 4000.0 4000.0 4000.0 4000.0 4000.0 4000.0 4000.0 4000.0 4000.0 4000.0 4000.0 4000.0 4000.0 4000.0 4000.0 4000.0 4000.0 4000.0 4000.0 4000.0 4000.0 4000.0 4000.0 4000.0 4000.0 4000.0 4000.0 4000.0 4000.0 4000.0 4000.0 4000.0 4000.0 4000.0 4000.0 4000.0 4000.0 4000.0 4000.0 4000.0 4000.0 4000.0 4000.0 4000.0 4000.0 4000.0 4000.0 4000.0 4000.0 4000.0 4000.0 4000.0 4000.0 4000.0 4000.0 4000.0 4000.0 4000.0 4000.0 4000.0 4000.0 4000.0 4000.0 4000.0 4000.0 4000.0 4000.0 4000.0 4000.0 4000.0 4000.0 4000.0 4000.0 4000.0 4000.0 4000.0 4000.0 4000.0 4000.0 4000.0 4000.0 4000.0 4000.0 4000.0 4000.0 4000.0 4000.0 4000.0 4000.0 4000.0 4000.0 4000.0 4000.0 4000.0 4000.0 4000.0 4000.0 4000.0 4000.0 4000.0 4000.0 4000.0 4000.0 4000.0 4000.0 4000.0 4000.0 4000.0 4000.0 4000.0 4000.0 4000.0 4000.0 4000.0 4000.0 4000.0 4000.0 4000.0 4000.0 4000.0 4000.0 4000.0 4000.0 4000.0 4000.0 4000.0 4000.0 4000.0 4000.0 4000.0 4000.0 4000.0 4000.0 4000.0 4000.0 4000.0 4000.0 4000.0 4000.0 4000.0 4000.0 4000.0 4000.0 4000.0 4000.0 4000.0 4000.0 4000.0 4000.0 4000.0 4000.0 4000.0 4000.0 4000.0 4000.0 4000.0 4000.0 4000.0 4000.0 4000.0 4000.0 4000.0 4000.0 4000.0 4000.0 4000.0 4000.0 4000.0 4000.0 4000.0 4000.0 4000.0 4000.0 4000.0 4000.0 4000.0 4000.0 4000.0 4000.0 4000.0 4000.0 4000.0 4000.0 4000.0 4000.0 4000.0 4000.0 4000.0 4000.0 4000.0 4000.0 4000.0 4000.0 4000.0 4000.0 4000.0 4000.0 4000.0 4000.0 4000.0 4000.0 4000.0 4000.0 4000.0 4000.0 4000.0 4000.0 4000.0 4000.0 4000.0 4000.0 4000.0 4000.0 4000.0 4000.0 4000.0 4000.0 4000.0 4000.0 4000.0 4000.0 4000.0 4000.0 4000.0 4000.0 4000.0 4000.0 4000.0 4000.0 4000.0 4000.0 4000.0 4000.0 4000.0 4000.0 4000.0 4000.0 4000.0 4000.0 4000.0 4000.0 4000.0 4000.0 4000.0 4000.0 4000.0 4000.0 4000.0 4000.0 4000.0 4000.0 4000.0 4000.0 4000.0 4000.0 4000.0 4000.0 4000.0 4000.0 4000.0 4000.0 4000.0 4000.0 4000.0 4000.0 4000.0 4000.0 4000.0 4000.0 4000.0 4000.0 4000.0 4000.0 4000.0 4000.0 4000.0 4000.0 4000.0 4000.0 4000.0 4000.0 4000.0 4000.0 4000.0 4000.0 4000.0 4000.0 4000.0 4000.0 4000.0 4000.0 4000.0 4000.0 4000.0 4000.0 4000.0 4000.0 4000.0 4000.0 4000.0 4000.0 4000.0 4000.0 4000.0 4000.0 4000.0 4000.0 4000.0 4000.0 4000.0 4000.0 4000.0 4000.0 4000.0 4000.0 4000.0 4000.0 4000.0 4000.0 4000.0 4000.0 4000.0 4000.0 4000.0 4000.0 4000.0 4000.0 4000.0 4000.0 4000.0 4000.0 4000.0 4000.0 4000.0 4000.0 4000.0 4000.0 4000.0 4000.0 4000.0 4000.0 4000.0 4000.0 4000.0 4000.0 4000.0 4000.0 4000.0 4000.0 4000.0 4000.0 4000.0 4000.0 4000.0 4000.0 4000.0 4000.0 4000.0 4000.0 4000.0 4000.0 4000.0 4000.0 4000.0 4000.0 4000.0 4000.0 4000.0 4000.0 4000.0 4000.0 4000.0 4000.0 4000.0 4000.0 4000.0 4000.0 4000.0 4000.0 4000.0 4000.0 4000.0 4000.0 4000.0 4000.0 4000.0 4000.0 4000.0 4000.0 4000.0 4000.0 4000.0 4000.0 4000.0 4000.0 4000.0 4000.0 4000.0 4000.0 4000.0 4000.0 4000.0 4000.0 4000.0 4000.0 4000.0 4000.0 4000.0 4000.0 4000.0 4000.0 4000.0 4000.0 4000.0 4000.0 4000.0 4000.0 4000.0 4000.0 4000.0 4000.0 4000.0 4000.0 4000.0 4000.0 4000.0 4000.0 4000.0 4000.0 4000.0 4000.0 4000.0 4000.0 4000.0 4000.0 4000.0 4000.0 4000.0 4000.0 4000.0 4000.0 4000.0 4000.0 4000.0 4000.0 4000.0 4000.0 4000.0 4000.0 4000.0 4000.0 4000.0 4000.0 4000.0 4000.0 4000.0 4000.0 4000.0 4000.0 4000.0 4000.0 4000.0 4000.0 4000.0 4000.0 4000.0 4000.0 4000.0 4000.0 4000.0 4000.0 4000.0 4000.0 4000.0 4000.0 4000.0 4000.0 4000.0 4000.0 4000.0 4000.0 4000.0 4000.0 4000.0 4000.0 4000.0 4000.0 4000.0 4000.0 4000.0 4000.0 4000.0 4000.0 4000.0 4000.0 4000.0 4000.0 4000.0 4000.0 4000.0 4000.0 4000.0 4000.0 4000.0 4000.0 4000.0 4000.0 4000.0 4000.0 4000.0 4000.0 4000.0 4000.0 4000.0 4000.0 4000.0 4000.0 4000.0 4000.0 4000.0 4000.0 4000.0 4000.0 4000.0 4000.0 4000.0 4000.0 4000.0 4000.0 4000.0 4000.0 4000.0 4000.0 4000.0 4000.0 4000.0 4000.0 4000.0 4000.0 4000.0 4000.0 4000.0 4000.0 4000.0 4000.0 4000.0 4000.0 4000.0 4000.0 4000.0 4000.0 4000.0 4000.0 4000.0 4000.0 4000.0 4000.0 4000.0 4000.0 4000.0 4000.0 4000.0 4000.0 4000.0 4000.0 4000.0 4000.0 4000.0 4000.0 4000.0 4000.0 4000.0 4000.0 4000.0 4000.0 4000.0 4000.0 4000.0 4000.0 4000.0 4000.0 4000.0 4000.0 4000.0 4000.0 4000.0 4000.0 4000.0 4000.0 4000.0 4000.0 4000.0 4000.0 4000.0 4000.0 4000.0 4000.0 4000.0 4000.0 4000.0 4000.0 4000.0 4000.0 4000.0 4000.0 4000.0 4000.0 4000.0 4000.0 4000.0 4000.0 4000.0 4000.0 4000.0 4000.0 4000.0 4000.0 4000.0 4000.0 4000.0 4000.0 4000.0 4000.0 4000.0 4000.0 4000.0 4000.0 4000.0 4000.0 4000.0 4000.0 4000.0 4000.0 4000.0 4000.0 4000.0 4000.0 4000.0 4000.0 4000.0 4000.0 4000.0 4000.0 4000.0 4000.0 4000.0 4000.0 4000.0 4000.0 4000.0 4000.0 4000.0 4000.0 4000.0 4000.0 4000.0 4000.0 4000.0 4000.0 4000.0 4000.0 4000.0 4000.0 4000.0 4000.0 4000.0 4000.0 4000.0 4000.0 4000.0 4000.0 4000.0 4000.0 4000.0 4000.0 4000.0 4000.0 4000.0 4000.0 4000.0 4000.0 4000.0 4000.0 4000.0 4000.0 4000.0 4000.0 4000.0 4000.0 4000.0 4000.0 4000.0 4000.0 4000.0 4000.0 4000.0 4000.0 4000.0 4000.0 4000.0 4000.0 4000.0 4000.0 4000.0 4000.0 4000.0 4000.0 4000.0 4000.0 4000.0 4000.0 4000.0 4000.0 4000.0 4000.0 4000.0 4000.0 4000.0 4000.0 4000.0 4000.0 4000.0 4000.0 4000.0 4000.0 4000.0 4000.0 4000.0 4000.0 4000.0 4000.0 4000.0 4000.0 4000.0 4000.0 4000.0 4000.0 4000.0 4000.0 4000.0 4000.0 4000.0 4000.0 4000.0 4000.0 4000.0 4000.0 4000.0 4000.0 4000.0 4000.0 4000.0 4000.0 4000.0 4000.0 4000.0 4000.0 4000.0 4000.0 4000.0 4000.0 4000.0 4000.0 4000.0 4000.0 4000.0 4000.0 4000.0 4000.0 4000.0 4000.0 4000.0 4000.0 4000.0 4000.0 4000.0 4000.0 4000.0 4000.0 4000.0 4000.0 4000.0 4000.0 4000.0 4000.0 4000.0 4000.0 4000.0 4000.0 4000.0 4000.0 4000.0 4000.0 4000.0 4000.0 4000.0 4000.0 4000.0 4000.0 4000.0 4000.0 4000.0 4000.0 4000.0 4000.0 4000.0 4000.0 4000.0 4000.0 4000.0 4000.0 4000.0 4000.0 4000.0 4000.0 4000.0 4000.0 4000.0 4000.0 4000.0 4000.0 4000.0 4000.0 4000.0 4000.0 4000.0 4000.0 4000.0 4000.0 4000.0 4000.0 4000.0 4000.0 4000.0 4000.0 4000.0 4000.0 4000.0 4000.0 4000.0 4000.0 4000.0 4000.0 4000.0 4000.0 4000.0 4000.0 4000.0 4000.0 4000.0 4000.0 4000.0 4000.0 4000.0 4000.0 4000.0 4000.0 4000.0 4000.0 4000.0 4000.0 4000.0 4000.0 4000.0 4000.0 4000.0 4000.0 4000.0 4000.0 4000.0 4000.0 4000.0 4000.0 4000.0 4000.0 4000.0 4000.0 4000.0 4000.0 4000.0 4000.0 4000.0 4000.0 4000.0 4000.0 4000.0 4000.0 4000.0 4000.0 4000.0 4000.0 4000.0 4000.0 4000.0 4000.0 4000.0 4000.0 4000.0 4000.0 4000.0 4000.0 4000.0 4000.0 4000.0 4000.0 4000.0 4000.0 4000.0 4000.0 4000.0 4000.0 4000.0 4000.0 4000.0 4000.0 4000.0 4000.0 4000.0 4000.0 4000.0 4000.0 4000.0 4000.0 4000.0 4000.0 4000.0 4000.0 4000.0 4000.0 4000.0 4000.0 4000.0 4000.0 4000.0 4000.0 4000.0 4000.0 4000.0 4000.0 4000.0 4000.0 4000.0 4000.0 4000.0 4000.0 4000.0 4000.0 4000.0 4000.0 4000.0 4000.0 4000.0 4000.0 4000.0 4000.0 4000.0 4000.0 4000.0 4000.0 4000.0 4000.0 4000.0 4000.0 4000.0 4000.0 4000.0 4000.0 4000.0 4000.0 4000.0 4000.0 4000.0 4000.0 4000.0 4000.0 4000.0 4000.0 4000.0 4000.0 4000.0 4000.0 4000.0 4000.0 4000.0 4000.0 4000.0 4000.0 4000.0 4000.0 4000.0 4000.0 4000.0 4000.0 4000.0 4000.0 4000.0 4000.0 4000.0 4000.0 4000.0 4000.0 4000.0 4000.0 4000.0 4000.0 4000.0 4000.0 4000.0 4000.0 4000.0 4000.0 4000.0 4000.0 4000.0 4000.0 4000.0 4000.0 4000.0 4000.0 4000.0 4000.0 4000.0 4000.0 4000.0 4000.0 4000.0 4000.0 4000.0 4000.0 4000.0 4000.0 4000.0 4000.0 4000.0 4000.0 4000.0 4000.0 4000.0 4000.0 4000.0 4000.0 4000.0 4000.0 4000.0 4000.0 4000.0 4000.0 4000.0 4000.0 4000.0 4000.0 4000.0 4000.0 4000.0 4000.0 4000.0 4000.0 4000.0 4000.0 4000.0 4000.0 4000.0 4000.0 4000.0 4000.0 4000.0 4000.0 4000.0 4000.0 4000.0 4000.0 4000.0 4000.0 4000.0 4000.0 4000.0 4000.0 4000.0 4000.0 4000.0 4000.0 4000.0 4000.0 4000.0 4000.0 4000.0 4000.0 4000.0 4000.0 4000.0 4000.0 4000.0 4000.0 4000.0 4000.0 4000.0 4000.0 4000.0 4000.0 4000.0 4000.0 4000.0 4000.0 4000.0 4000.0 4000.0 4000.0 4000.0 4000.0 4000.0 4000.0 4000.0 4000.0 4000.0 4000.0 4000.0 4000.0 4000.0 4000.0 4000.0 4000.0 4000.0 4000.0 4000.0 4000.0 4000.0 4000.0 4000.0 4000.0 4000.0 4000.0 4000.0 4000.0 4000.0 4000.0 4000.0 4000.0 4000.0 4000.0 4000.0 4000.0 4000.0 4000.0 4000.0 4000.0 4000.0 4000.0 4000.0 4000.0 4000.0 4000.0 4000.0 4000.0 4000.0 4000.0 4000.0 4000.0 4000.0 4000.0 4000.0 4000.0 4000.0 4000.0 4000.0 4000.0 4000.0 4000.0 4000.0 4000.0 4000.0 4000.0 4000.0 4000.0 4000.0 4000.0 4000.0 4000.0 4000.0 4000.0 4000.0 4000.0 4000.0 4000.0 4000.0 4000.0 4000.0 4000.0 4000.0 4000.0 4000.0 4000.0 4000.0 4000.0 4000.0 4000.0 4000.0 4000.0 4000.0 4000.0 4000.0 4000.0 4000.0 4000.0 4000.0 4000.0 4000.0 4000.0 4000.0 4000.0 4000.0 4000.0 4000.0 4000.0 4000.0 4000.0 4000.0 4000.0 4000.0 4000.0 4000.0 4000.0 4000.0 4000.0 4000.0 4000.0 4000.0 4000.0 4000.0 4000.0 4000.0 4000.0 4000.0 4000.0 4000.0 4000.0 4000.0 4000.0 4000.0 4000.0 4000.0 4000.0 4000.0 4000.0 4000.0 4000.0 4000.0 4000.0 4000.0 4000.0 4000.0 4000.0 4000.0 4000.0 4000.0 4000.0 4000.0 4000.0 4000.0 4000.0 4000.0 4000.0 4000.0 4000.0 4000.0 4000.0 4000.0 4000.0 4000.0 4000.0 4000.0 4000.0 4000.0 4000.0 4000.0 4000.0 4000.0 4000.0 4000.0 4000.0 4000.0 4000.0 4000.0 4000.0 4000.0 4000.0 4000.0 4000.0 4000.0 4000.0 4000.0 4000.0 4000.0 4000.0 4000.0 4000.0 4000.0 4000.0 4000.0 4000.0 4000.0 4000.0 4000.0 4000.0 4000.0 4000.0 4000.0 4000.0 4000.0 4000.0 4000.0 4000.0 4000.0 4000.0 4000.0 4000.0 4000.0 4000.0 4000.0 4000.0 4000.0 4000.0 4000.0 4000.0 4000.0 4000.0 4000.0 4000.0 4000.0 4000.0 4000.0 4000.0 4000.0 4000.0 4000.0 4000.0 4000.0 4000.0 4000.0 4000.0 4000.0 4000.0 4000.0 4000.0 4000.0 4000.0 4000.0 4000.0 4000.0 4000.0 4000.0 4000.0 4000.0 4000.0 4000.0 4000.0 4000.0 4000.0 4000.0 4000.0 4000.0 4000.0 4000.0 4000.0 4000.0 4000.0 4000.0 4000.0 4000.0 4000.0 4000.0 4000.0 4000.0 4000.0 4000.0 4000.0 4000.0 4000.0 4000.0 4000.0 4000.0 4000.0 4000.0 4000.0 4000.0 4000.0 4000.0 4000.0 4000.0 4000.0 4000.0 4000.0 4000.0 4000.0 4000.0 4000.0 4000.0 4000.0 4000.0 4000.0 4000.0 4000.0 4000.0 4000.0 4000.0 4000.0 4000.0 4000.0 4000.0 4000.0 4000.0 4000.0 4000.0 4000.0 4000.0 4000.0 4000.0 4000.0 4000.0 4000.0 4000.0 4000.0 4000.0 4000.0 4000.0 4000.0 4000.0 4000.0 4000.0 4000.0 4000.0 4000.0 4000.0 4000.0 4000.0 4000.0 4000.0 4000.0 4000.0 4000.0 4000.0 4000.0 4000.0 4000.0 4000.0 4000.0 4000.0 4000.0 4000.0 4000.0 4000.0 4000.0 4000.0 4000.0 4000.0 4000.0 4000.0 4000.0 4000.0 4000.0 4000.0 4000.0 4000.0 4000.0 4000.0 4000.0 4000.0 4000.0 4000.0 4000.0 4000.0 4000.0 4000.0 4000.0 4000.0 4000.0 4000.0 4000.0 4000.0 4000.0 4000.0 4000.0 4000.0 4000.0 4000.0 4000.0 4000.0 4000.0 4000.0 4000.0 4000.0 4000.0 4000.0 4000.0 4000.0 4000.0 4000.0 4000.0 4000.0 4000.0 4000.0 4000.0 4000.0 4000.0 4000.0 4000.0 4000.0 4000.0 4000.0 4000.0 4000.0 4000.0 4000.0 4000.0 4000.0 4000.0 4000.0 4000.0 4000.0 4000.0 4000.0 4000.0 4000.0 4000.0 4000.0 4000.0 4000.0 4000.0 4000.0 4000.0 4000.0 4000.0 4000.0 4000.0 4000.0 4000.0 4000.0 4000.0 4000.0 4000.0 4000.0 4000.0 4000.0 4000.0 4000.0 4000.0 4000.0 4000.0 4000.0 4000.0 4000.0 4000.0 4000.0 4000.0 4000.0 4000.0 4000.0 4000.0 4000.0 4000.0 4000.0 4000.0 4000.0 4000.0 4000.0 4000.0 4000.0 4000.0 4000.0 4000.0 4000.0 4000.0 4000.0 4000.0 4000.0 4000.0 4000.0 4000.0 4000.0 4000.0 4000.0 4000.0 4000.0 4000.0 4000.0 4000.0 4000.0 4000.0 4000.0 4000.0 4000.0 4000.0 4000.0 4000.0 4000.0 4000.0 4000.0 4000.0 4000.0 4000.0 4000.0 4000.0 4000.0 4000.0 4000.0 4000.0 4000.0 4000.0 4000.0 4000.0 4000.0 4000.0 4000.0 4000.0 4000.0 4000.0 4000.0 4000.0 4000.0 4000.0 4000.0 4000.0 4000.0 4000.0 4000.0 4000.0 4000.0 4000.0 4000.0 4000.0 4000.0 4000.0 4000.0 4000.0 4000.0 4000.0 4000.0 4000.0 4000.0 4000.0 4000.0 4000.0 4000.0 4000.0 4000.0 4000.0 4000.0 4000.0 4000.0 4000.0 4000.0 4000.0 4000.0 4000.0 4000.0 4000.0 4000.0 4000.0 4000.0 4000.0 4000.0 4000.0 4000.0 4000.0 4000.0 4000.0 4000.0 4000.0 4000.0 4000.0 4000.0 4000.0 4000.0 4000.0 4000.0 4000.0 4000.0 4000.0 4000.0 4000.0 4000.0 4000.0 4000.0 4000.0 4000.0 4000.0 4000.0 4000.0 4000.0 4000.0 4000.0 4000.0 4000.0 4000.0 4000.0 4000.0 4000.0 4000.0 4000.0 4000.0 4000.0 4000.0 4000.0 4000.0 4000.0 4000.0 4000.0 4000.0 4000.0 4000.0 4000.0 4000.0 4000.0 4000.0 4000.0 4000.0 4000.0 4000.0 4000.0 4000.0 4000.0 4000.0 4000.0 4000.0 4000.0 4000.0 4000.0 4000.0 4000.0 4000.0 4000.0 4000.0 4000.0 4000.0 4000.0 4000.0 4000.0 4000.0 4000.0 4000.0 4000.0 4000.0 4000.0 4000.0 4000.0 4000.0 4000.0 4000.0 4000.0 4000.0 4000.0 4000.0 4000.0 4000.0 4000.0 4000.0 4000.0 4000.0 4000.0 4000.0 4000.0 4000.0 4000.0 4000.0 4000.0 4000.0 4000.0 4000.0 4000.0 4000.0 4000.0 4000.0 4000.0 4000.0 4000.0 4000.0 4000.0 4000.0 4000.0 4000.0 4000.0 4000.0 4000.0 4000.0 4000.0 4000.0 4000.0 4000.0 4000.0 4000.0 4000.0 4000.0 4000.0 4000.0 4000.0 4000.0 4000.0 4000.0 4000.0 4000.0 4000.0 4000.0 4000.0 4000.0 4000.0 4000.0 4000.0 4000.0 4000.0 4000.0 4000.0 4000.0 4000.0 4000.0 4000.0 4000.0 4000.0 4000.0 4000.0 4000.0 4000.0 4000.0 4000.0 4000.0 4000.0 4000.0 4000.0 4000.0 4000.0 4000.0 4000.0 4000.0 4000.0 4000.0 4000.0 4000.0 4000.0 4000.0 4000.0 4000.0 4000.0 4000.0 4000.0 4000.0 4000.0 4000.0 4000.0 4000.0 4000.0 4000.0 4000.0 4000.0 4000.0 4000.0 4000.0 4000.0 4000.0 4000.0 4000.0 4000.0 4000.0 4000.0 4000.0 4000.0 4000.0 4000.0 4000.0 4000.0 4000.0 4000.0 4000.0 4000.0 4000.0 4000.0 4000.0 4000.0 4000.0 4000.0 4000.0 4000.0 4000.0 4000.0 4000.0 4000.0 4000.0 4000.0 4000.0 4000.0 4000.0 4000.0 4000.0 4000.0 4000.0 4000.0 4000.0 4000.0 4000.0 4000.0 4000.0 4000.0 4000.0 4000.0 4000.0 4000.0 4000.0 4000.0 4000.0 4000.0 4000.0 4000.0 4000.0 4000.0 4000.0 4000.0 4000.0 4000.0 4000.0 4000.0 4000.0 4000.0 4000.0 4000.0 4000.0 4000.0 4000.0 4000.0 4000.0 4000.0 4000.0 4000.0 4000.0 4000.0 4000.0 4000.0 4000.0 4000.0 4000.0 4000.0 4000.0 4000.0 4000.0 4000.0 4000.0 4000.0 4000.0 4000.0 4000.0 4000.0 4000.0 4000.0 4000.0 4000.0 4000.0 4000.0 4000.0 4000.0 4000.0 4000.0 4000.0 4000.0 4000.0 4000.0 4000.0 4000.0 4000.0 4000.0 4000.0 4000.0 4000.0 4000.0 4000.0 4000.0 4000.0 4000.0 4000.0 4000.0 4000.0 4000.0 4000.0 4000.0 4000.0 4000.0 4000.0 4000.0 4000.0 4000.0 4000.0 4000.0 4000.0 4000.0 4000.0 4000.0 4000.0 4000.0 4000.0 4000.0 4000.0 4000.0 4000.0 4000.0 4000.0 4000.0 4000.0 4000.0 4000.0 4000.0 4000.0 4000.0 4000.0 4000.0 4000.0 4000.0 4000.0 4000.0 4000.0 4000.0 4000.0 4000.0 4000.0 4000.0 4000.0 4000.0 4000.0 4000.0 4000.0 4000.0 4000.0 4000.0 4000.0 4000.0 4000.0 4000.0 4000.0 4000.0 4000.0 4000.0 4000.0 4000.0 4000.0 4000.0 4000.0 4000.0 4000.0 4000.0 4000.0 4000.0 4000.0 4000.0 4000.0 4000.0 4000.0 4000.0 4000.0 4000.0 4000.0 4000.0 4000.0 4000.0 4000.0 4000.0 4000.0 4000.0 4000.0 4000.0 4000.0 4000.0 4000.0 4000.0 4000.0 4000.0 4000.0 4000.0 4000.0 4000.0 4000.0 4000.0 4000.0 4000.0 4000.0 4000.0 4000.0 4000.0 4000.0 4000.0 4000.0 4000.0 4000.0 4000.0 4000.0 4000.0 4000.0 4000.0 4000.0 4000.0 4000.0 4000.0 4000.0 4000.0 4000.0 4000.0 4000.0 4000.0 4000.0 4000.0 4000.0 4000.0 4000.0 4000.0 4000.0 4000.0 4000.0 4000.0 4000.0 4000.0 4000.0 4000.0 4000.0 4000.0 4000.0 4000.0 4000.0 4000.0 4000.0 4000.0 4000.0 4000.0 4000.0 4000.0 4000.0 4000.0 4000.0 4000.0 4000.0 4000.0 4000.0 4000.0 4000.0 4000.0 4000.0 4000.0 4000.0 4000.0 4000.0 4000.0 4000.0 4000.0 4000.0 4000.0 4000.0 4000.0 4000.0 4000.0 4000.0 4000.0 4000.0 4000.0 4000.0 4000.0 4000.0 4000.0 4000.0 4000.0 4000.0 4000.0 4000.0 4000.0 4000.0 4000.0 4000.0 4000.0 4000.0 4000.0 4000.0 4000.0 4000.0 4000.0 4000.0 4000.0 4000.0 4000.0 4000.0 4000.0 4000.0 4000.0 4000.0 4000.0 4000.0 4000.0 4000.0 4000.0 4000.0 4000.0 4000.0 4000.0 4000.0 4000.0 4000.0 4000.0 4000.0 4000.0 4000.0 4000.0 4000.0 4000.0 4000.0 4000.0 4000.0 4000.0 4000.0 4000.0 4000.0 4000.0 4000.0 4000.0 4000.0 4000.0 4000.0 4000.0 4000.0 4000.0 4000.0 4000.0 4000.0 4000.0 4000.0 4000.0 4000.0 4000.0 4000.0 4000.0 4000.0 4000.0 4000.0 4000.0 4000.0 4000.0 4000.0 4000.0 4000.0 4000.0 4000.0 4000.0 4000.0 4000.0 4000.0 4000.0 4000.0 4000.0 4000.0 4000.0 4000.0 4000.0 4000.0 4000.0 4000.0 4000.0 4000.0 4000.0 4000.0 4000.0 4000.0 4000.0 4000.0 4000.0 4000.0 4000.0 4000.0 4000.0 4000.0 4000.0 4000.0 4000.0 4000.0 4000.0 4000.0 4000.0 4000.0 4000.0 4000.0 4000.0 4000.0 4000.0 4000.0 4000.0 4000.0 4000.0 4000.0 4000.0 4000.0 4000.0 4000.0 4000.0 4000.0 4000.0 4000.0 4000.0 4000.0 4000.0 4000.0 4000.0 4000.0 4000.0 4000.0 4000.0 4000.0 4000.0 4000.0 4000.0 4000.0 4000.0 4000.0 4000.0 4000.0 4000.0 4000.0 4000.0 4000.0 4000.0 4000.0 4000.0 4000.0 4000.0 4000.0 4000.0 4000.0 4000.0 4000.0 4000.0 4000.0 4000.0 4000.0 4000.0 4000.0 4000.0 4000.0 4000.0 4000.0 4000.0 4000.0 4000.0 4000.0 4000.0 4000.0 4000.0 4000.0 4000.0 4000.0 4000.0 4000.0 4000.0 4000.0 4000.0 4000.0 4000.0 4000.0 4000.0 4000.0 4000.0 4000.0 4000.0 4000.0 4000.0 4000.0 4000.0 4000.0 4000.0 4000.0 4000.0 4000.0 4000.0 4000.0 4000.0 4000.0 4000.0 4000.0 4000.0 4000.0 4000.0 4000.0 4000.0 4000.0 4000.0 4000.0 4000.0 4000.0 4000.0 4000.0 4000.0 4000.0 4000.0 4000.0 4000.0 4000.0 4000.0 4000.0 4000.0 4000.0 4000.0 4000.0 4000.0 4000.0 4000.0 4000.0 4000.0 4000.0 4000.0 4000.0 4000.0 4000.0 4000.0 4000.0 4000.0 4000.0 4000.0 4000.0 4000.0 4000.0 4000.0 4000.0 4000.0 4000.0 4000.0 4000.0 4000.0 4000.0 4000.0 4000.0 4000.0 4000.0 4000.0 4000.0 4000.0 4000.0 4000.0 4000.0 4000.0 4000.0 4000.0 4000.0 4000.0 4000.0 4000.0 4000.0 4000.0 4000.0 4000.0 4000.0 4000.0 4000.0 4000.0 4000.0 4000.0 4000.0 4000.0 4000.0 4000.0 4000.0 4000.0 4000.0 4000.0 4000.0 4000.0 4000.0 4000.0 4000.0 4000.0 4000.0 4000.0 4000.0 4000.0 4000.0 4000.0 4000.0 4000.0 4000.0 4000.0 4000.0 4000.0 4000.0 4000.0 4000.0 4000.0 4000.0 4000.0 4000.0 4000.0 4000.0 4000.0 4000.0 4000.0 4000.0 4000.0 4000.0 4000.0 4000.0 4000.0 4000.0 4000.0 4000.0 4000.0 4000.0 4000.0 4000.0 4000.0 4000.0 4000.0 4000.0 4000.0 4000.0 4000.0 4000.0 4000.0 4000.0 4000.0 4000.0 4000.0 4000.0 4000.0 4000.0 4000.0 4000.0 4000.0 4000.0 4000.0 4000.0 4000.0 4000.0 4000.0 4000.0 4000.0 4000.0 4000.0 4000.0 4000.0 4000.0 4000.0 4000.0 4000.0 4000.0 4000.0 4000.0 4000.0 4000.0 4000.0 4000.0 4000.0 4000.0 4000.0 4000.0 4000.0 4000.0 4000.0 4000.0 4000.0 4000.0 4000.0 4000.0 4000.0 4000.0 4000.0 4000.0 4000.0 4000.0 4000.0 4000.0 4000.0 4000.0 4000.0 4000.0 4000.0 4000.0 4000.0 4000.0 4000.0 4000.0 4000.0 4000.0 4000.0 4000.0 4000.0 4000.0 4000.0 4000.0 4000.0 4000.0 4000.0 4000.0 4000.0 4000.0 4000.0 4000.0 4000.0 4000.0 4000.0 4000.0 4000.0 4000.0 4000.0 4000.0 4000.0 4000.0 4000.0 4000.0 4000.0 4000.0 4000.0 4000.0 4000.0 4000.0 4000.0 4000.0 4000.0 4000.0 4000.0 4000.0 4000.0 4000.0 4000.0 4000.0 4000.0 4000.0 4000.0 4000.0 4000.0 4000.0 4000.0 4000.0 4000.0 4000.0 4000.0 4000.0 4000.0 4000.0 4000.0 4000.0 4000.0 4000.0 4000.0 4000.0 4000.0 4000.0 4000.0 4000.0 4000.0 4000.0 4000.0 4000.0 4000.0 4000.0 4000.0 4000.0 4000.0 4000.0 4000.0 4000.0 4000.0 4000.0 4000.0 4000.0 4000.0 4000.0 4000.0 4000.0 4000.0 4000.0 4000.0 4000.0 4000.0 4000.0 4000.0 4000.0 4000.0 4000.0 4000.0 4000.0 4000.0 4000.0 4000.0 4000.0 4000.0 4000.0 4000.0 4000.0 4000.0 4000.0 4000.0 4000.0 4000.0 4000.0 4000.0 4000.0 4000.0 4000.0 4000.0 4000.0 4000.0 4000.0 4000.0 4000.0 4000.0 4000.0 4000.0 4000.0 4000.0 4000.0 4000.0 4000.0 4000.0 4000.0 4000.0 4000.0 4000.0 4000.0 4000.0 4000.0 4000.0 4000.0 4000.0 4000.0 4000.0 4000.0 4000.0 4000.0 4000.0 4000.0 4000.0 4000.0 4000.0 4000.0 4000.0 4000.0 4000.0 4000.0 4000.0 4000.0 4000.0 4000.0 4000.0 4000.0 4000.0 4000.0 4000.0 4000.0 4000.0 4000.0 4000.0 4000.0 4000.0 4000.0 4000.0 4000.0 4000.0 4000.0 4000.0 4000.0 4000.0 4000.0 4000.0 4000.0 4000.0 4000.0 4000.0 4000.0 4000.0 4000.0 4000.0 4000.0 4000.0 4000.0 4000.0 4000.0 4000.0 4000.0 4000.0 4000.0 4000.0 4000.0 4000.0 4000.0 4000.0 4000.0 4000.0 4000.0 4000.0 4000.0 4000.0 4000.0 4000.0 4000.0 4000.0 4000.0 4000.0 4000.0 4000.0 4000.0 4000.0 4000.0 4000.0 4000.0 4000.0 4000.0 4000.0 4000.0 4000.0 4000.0 4000.0 4000.0 4000.0 4000.0 4000.0 4000.0 4000.0 4000.0 4000.0 4000.0 4000.0 4000.0 4000.0 4000.0 4000.0 4000.0 4000.0 4000.0 4000.0 4000.0 4000.0 4000.0 4000.0 4000.0 4000.0 4000.0 4000.0 4000.0 4000.0 4000.0 4000.0 4000.0 4000.0 4000.0 4000.0 4000.0 4000.0 4000.0 4000.0 4000.0 4000.0 4000.0 4000.0 4000.0 4000.0 4000.0 4000.0 4000.0 4000.0 4000.0 4000.0 4000.0 4000.0 4000.0 4000.0 4000.0 4000.0 4000.0 4000.0 4000.0 4000.0 4000.0 4000.0 4000.0 4000.0 4000.0 4000.0 4000.0 4000.0 4000.0 4000.0 4000.0 4000.0 4000.0 4000.0 4000.0 4000.0 4000.0 4000.0 4000.0 4000.0 4000.0 4000.0 4000.0 4000.0 4000.0 4000.0 4000.0 4000.0 4000.0 4000.0 4000.0 4000.0 4000.0 4000.0 4000.0 4000.0 4000.0 4000.0 4000.0 4000.0 4000.0 4000.0 4000.0 4000.0 4000.0 4000.0 4000.0 4000.0 4000.0 4000.0 4000.0 4000.0 4000.0 4000.0 4000.0 4000.0 4000.0 4000.0 4000.0 4000.0 4000.0 4000.0 4000.0 4000.0 4000.0 4000.0 4000.0 4000.0 4000.0 4000.0 4000.0 4000.0 4000.0 4000.0 4000.0 4000.0 4000.0 4000.0 4000.0 4000.0 4000.0 4000.0 4000.0 4000.0 4000.0 4000.0 4000.0 4000.0 4000.0 4000.0 4000.0 SCALARS Mass float 1
LOOKUP_TABLE default
11309700000.0 11309700000.0 11309700000.0 11309700000.0 11309700000.0 11309700000.0 11309700000.0 11309700000.0 11309700000.0 11309700000.0 11309700000.0 11309700000.0 11309700000.0 11309700000.0 11309700000.0 11309700000.0 11309700000.0 11309700000.0 11309700000.0 11309700000.0 11309700000.0 11309700000.0 11309700000.0 11309700000.0 11309700000.0 11309700000.0 11309700000.0 11309700000.0 11309700000.0 11309700000.0 11309700000.0 11309700000.0 11309700000.0 11309700000.0 11309700000.0 11309700000.0 11309700000.0 11309700000.0 11309700000.0 11309700000.0 11309700000.0 11309700000.0 11309700000.0 11309700000.0 11309700000.0 11309700000.0 11309700000.0 11309700000.0 11309700000.0 11309700000.0 11309700000.0 11309700000.0 11309700000.0 11309700000.0 11309700000.0 11309700000.0 11309700000.0 11309700000.0 11309700000.0 11309700000.0 11309700000.0 11309700000.0 11309700000.0 11309700000.0 11309700000.0 11309700000.0 11309700000.0 11309700000.0 11309700000.0 11309700000.0 11309700000.0 11309700000.0 11309700000.0 11309700000.0 11309700000.0 11309700000.0 11309700000.0 11309700000.0 11309700000.0 11309700000.0 11309700000.0 11309700000.0 11309700000.0 11309700000.0 11309700000.0 11309700000.0 11309700000.0 11309700000.0 11309700000.0 11309700000.0 11309700000.0 11309700000.0 11309700000.0 11309700000.0 11309700000.0 11309700000.0 11309700000.0 11309700000.0 11309700000.0 11309700000.0 11309700000.0 11309700000.0 11309700000.0 11309700000.0 11309700000.0 11309700000.0 11309700000.0 11309700000.0 11309700000.0 11309700000.0 11309700000.0 11309700000.0 11309700000.0 11309700000.0 11309700000.0 11309700000.0 11309700000.0 11309700000.0 11309700000.0 11309700000.0 11309700000.0 11309700000.0 11309700000.0 11309700000.0 11309700000.0 11309700000.0 11309700000.0 11309700000.0 11309700000.0 11309700000.0 11309700000.0 11309700000.0 11309700000.0 11309700000.0 11309700000.0 11309700000.0 11309700000.0 11309700000.0 11309700000.0 11309700000.0 11309700000.0 11309700000.0 11309700000.0 11309700000.0 11309700000.0 11309700000.0 11309700000.0 11309700000.0 11309700000.0 11309700000.0 11309700000.0 11309700000.0 11309700000.0 11309700000.0 11309700000.0 11309700000.0 11309700000.0 11309700000.0 11309700000.0 11309700000.0 11309700000.0 11309700000.0 11309700000.0 11309700000.0 11309700000.0 11309700000.0 11309700000.0 11309700000.0 11309700000.0 11309700000.0 11309700000.0 11309700000.0 11309700000.0 11309700000.0 11309700000.0 11309700000.0 11309700000.0 11309700000.0 11309700000.0 11309700000.0 11309700000.0 11309700000.0 11309700000.0 11309700000.0 11309700000.0 11309700000.0 11309700000.0 11309700000.0 11309700000.0 11309700000.0 11309700000.0 11309700000.0 11309700000.0 11309700000.0 11309700000.0 11309700000.0 11309700000.0 11309700000.0 11309700000.0 11309700000.0 11309700000.0 11309700000.0 11309700000.0 11309700000.0 11309700000.0 11309700000.0 11309700000.0 11309700000.0 11309700000.0 11309700000.0 11309700000.0 11309700000.0 11309700000.0 11309700000.0 11309700000.0 11309700000.0 11309700000.0 11309700000.0 11309700000.0 11309700000.0 11309700000.0 11309700000.0 11309700000.0 11309700000.0 11309700000.0 11309700000.0 11309700000.0 11309700000.0 11309700000.0 11309700000.0 11309700000.0 11309700000.0 11309700000.0 11309700000.0 11309700000.0 11309700000.0 11309700000.0 11309700000.0 11309700000.0 11309700000.0 11309700000.0 11309700000.0 11309700000.0 11309700000.0 11309700000.0 11309700000.0 11309700000.0 11309700000.0 11309700000.0 11309700000.0 11309700000.0 11309700000.0 11309700000.0 11309700000.0 11309700000.0 11309700000.0 11309700000.0 11309700000.0 11309700000.0 11309700000.0 11309700000.0 11309700000.0 11309700000.0 11309700000.0 11309700000.0 11309700000.0 11309700000.0 11309700000.0 11309700000.0 11309700000.0 11309700000.0 11309700000.0 11309700000.0 11309700000.0 11309700000.0 11309700000.0 11309700000.0 11309700000.0 11309700000.0 11309700000.0 11309700000.0 11309700000.0 11309700000.0 11309700000.0 11309700000.0 11309700000.0 11309700000.0 11309700000.0 11309700000.0 11309700000.0 11309700000.0 11309700000.0 11309700000.0 11309700000.0 11309700000.0 11309700000.0 11309700000.0 11309700000.0 11309700000.0 11309700000.0 11309700000.0 11309700000.0 11309700000.0 11309700000.0 11309700000.0 11309700000.0 11309700000.0 11309700000.0 11309700000.0 11309700000.0 11309700000.0 11309700000.0 11309700000.0 11309700000.0 11309700000.0 11309700000.0 11309700000.0 11309700000.0 11309700000.0 11309700000.0 11309700000.0 11309700000.0 11309700000.0 11309700000.0 11309700000.0 11309700000.0 11309700000.0 11309700000.0 11309700000.0 11309700000.0 11309700000.0 11309700000.0 11309700000.0 11309700000.0 11309700000.0 11309700000.0 11309700000.0 11309700000.0 11309700000.0 11309700000.0 11309700000.0 11309700000.0 11309700000.0 11309700000.0 11309700000.0 11309700000.0 11309700000.0 11309700000.0 11309700000.0 11309700000.0 11309700000.0 11309700000.0 11309700000.0 11309700000.0 11309700000.0 11309700000.0 11309700000.0 11309700000.0 11309700000.0 11309700000.0 11309700000.0 11309700000.0 11309700000.0 11309700000.0 11309700000.0 11309700000.0 11309700000.0 11309700000.0 11309700000.0 11309700000.0 11309700000.0 11309700000.0 11309700000.0 11309700000.0 11309700000.0 11309700000.0 11309700000.0 11309700000.0 11309700000.0 11309700000.0 11309700000.0 11309700000.0 11309700000.0 11309700000.0 11309700000.0 11309700000.0 11309700000.0 11309700000.0 11309700000.0 11309700000.0 11309700000.0 11309700000.0 11309700000.0 11309700000.0 11309700000.0 11309700000.0 11309700000.0 11309700000.0 11309700000.0 11309700000.0 11309700000.0 11309700000.0 11309700000.0 11309700000.0 11309700000.0 11309700000.0 11309700000.0 11309700000.0 11309700000.0 11309700000.0 11309700000.0 11309700000.0 11309700000.0 11309700000.0 11309700000.0 11309700000.0 11309700000.0 11309700000.0 11309700000.0 11309700000.0 11309700000.0 11309700000.0 11309700000.0 11309700000.0 11309700000.0 11309700000.0 11309700000.0 11309700000.0 11309700000.0 11309700000.0 11309700000.0 11309700000.0 11309700000.0 11309700000.0 11309700000.0 11309700000.0 11309700000.0 11309700000.0 11309700000.0 11309700000.0 11309700000.0 11309700000.0 11309700000.0 11309700000.0 11309700000.0 11309700000.0 11309700000.0 11309700000.0 11309700000.0 11309700000.0 11309700000.0 11309700000.0 11309700000.0 11309700000.0 11309700000.0 11309700000.0 11309700000.0 11309700000.0 11309700000.0 11309700000.0 11309700000.0 11309700000.0 11309700000.0 11309700000.0 11309700000.0 11309700000.0 11309700000.0 11309700000.0 11309700000.0 11309700000.0 11309700000.0 11309700000.0 11309700000.0 11309700000.0 11309700000.0 11309700000.0 11309700000.0 11309700000.0 11309700000.0 11309700000.0 11309700000.0 11309700000.0 11309700000.0 11309700000.0 11309700000.0 11309700000.0 11309700000.0 11309700000.0 11309700000.0 11309700000.0 11309700000.0 11309700000.0 11309700000.0 11309700000.0 11309700000.0 11309700000.0 11309700000.0 11309700000.0 11309700000.0 11309700000.0 11309700000.0 11309700000.0 11309700000.0 11309700000.0 11309700000.0 11309700000.0 11309700000.0 11309700000.0 11309700000.0 11309700000.0 11309700000.0 11309700000.0 11309700000.0 11309700000.0 11309700000.0 11309700000.0 11309700000.0 11309700000.0 11309700000.0 11309700000.0 11309700000.0 11309700000.0 11309700000.0 11309700000.0 11309700000.0 11309700000.0 11309700000.0 11309700000.0 11309700000.0 11309700000.0 11309700000.0 11309700000.0 11309700000.0 11309700000.0 11309700000.0 11309700000.0 11309700000.0 11309700000.0 11309700000.0 11309700000.0 11309700000.0 11309700000.0 11309700000.0 11309700000.0 11309700000.0 11309700000.0 11309700000.0 11309700000.0 11309700000.0 11309700000.0 11309700000.0 11309700000.0 11309700000.0 11309700000.0 11309700000.0 11309700000.0 11309700000.0 11309700000.0 11309700000.0 11309700000.0 11309700000.0 11309700000.0 11309700000.0 11309700000.0 11309700000.0 11309700000.0 11309700000.0 11309700000.0 11309700000.0 11309700000.0 11309700000.0 11309700000.0 11309700000.0 11309700000.0 11309700000.0 11309700000.0 11309700000.0 11309700000.0 11309700000.0 11309700000.0 11309700000.0 11309700000.0 11309700000.0 11309700000.0 11309700000.0 11309700000.0 11309700000.0 11309700000.0 11309700000.0 11309700000.0 11309700000.0 11309700000.0 11309700000.0 11309700000.0 11309700000.0 11309700000.0 11309700000.0 11309700000.0 11309700000.0 11309700000.0 11309700000.0 11309700000.0 11309700000.0 11309700000.0 11309700000.0 11309700000.0 11309700000.0 11309700000.0 11309700000.0 11309700000.0 11309700000.0 11309700000.0 11309700000.0 11309700000.0 11309700000.0 11309700000.0 11309700000.0 11309700000.0 11309700000.0 11309700000.0 11309700000.0 11309700000.0 11309700000.0 11309700000.0 11309700000.0 11309700000.0 11309700000.0 11309700000.0 11309700000.0 11309700000.0 11309700000.0 11309700000.0 11309700000.0 11309700000.0 11309700000.0 11309700000.0 11309700000.0 11309700000.0 11309700000.0 11309700000.0 11309700000.0 11309700000.0 11309700000.0 11309700000.0 11309700000.0 11309700000.0 11309700000.0 11309700000.0 11309700000.0 11309700000.0 11309700000.0 11309700000.0 11309700000.0 11309700000.0 11309700000.0 11309700000.0 11309700000.0 11309700000.0 11309700000.0 11309700000.0 11309700000.0 11309700000.0 11309700000.0 11309700000.0 11309700000.0 11309700000.0 11309700000.0 11309700000.0 11309700000.0 11309700000.0 11309700000.0 11309700000.0 11309700000.0 11309700000.0 11309700000.0 11309700000.0 11309700000.0 11309700000.0 11309700000.0 11309700000.0 11309700000.0 11309700000.0 11309700000.0 11309700000.0 11309700000.0 11309700000.0 11309700000.0 11309700000.0 11309700000.0 11309700000.0 11309700000.0 11309700000.0 11309700000.0 11309700000.0 11309700000.0 11309700000.0 11309700000.0 11309700000.0 11309700000.0 11309700000.0 11309700000.0 11309700000.0 11309700000.0 11309700000.0 11309700000.0 11309700000.0 11309700000.0 11309700000.0 11309700000.0 11309700000.0 11309700000.0 11309700000.0 11309700000.0 11309700000.0 11309700000.0 11309700000.0 11309700000.0 11309700000.0 11309700000.0 11309700000.0 11309700000.0 11309700000.0 11309700000.0 11309700000.0 11309700000.0 11309700000.0 11309700000.0 11309700000.0 11309700000.0 11309700000.0 11309700000.0 11309700000.0 11309700000.0 11309700000.0 11309700000.0 11309700000.0 11309700000.0 11309700000.0 11309700000.0 11309700000.0 11309700000.0 11309700000.0 11309700000.0 11309700000.0 11309700000.0 11309700000.0 11309700000.0 11309700000.0 11309700000.0 11309700000.0 11309700000.0 11309700000.0 11309700000.0 11309700000.0 11309700000.0 11309700000.0 11309700000.0 11309700000.0 11309700000.0 11309700000.0 11309700000.0 11309700000.0 11309700000.0 11309700000.0 11309700000.0 11309700000.0 11309700000.0 11309700000.0 11309700000.0 11309700000.0 11309700000.0 11309700000.0 11309700000.0 11309700000.0 11309700000.0 11309700000.0 11309700000.0 11309700000.0 11309700000.0 11309700000.0 11309700000.0 11309700000.0 11309700000.0 11309700000.0 11309700000.0 11309700000.0 11309700000.0 11309700000.0 11309700000.0 11309700000.0 11309700000.0 11309700000.0 11309700000.0 11309700000.0 11309700000.0 11309700000.0 11309700000.0 11309700000.0 11309700000.0 11309700000.0 11309700000.0 11309700000.0 11309700000.0 11309700000.0 11309700000.0 11309700000.0 11309700000.0 11309700000.0 11309700000.0 11309700000.0 11309700000.0 11309700000.0 11309700000.0 11309700000.0 11309700000.0 11309700000.0 11309700000.0 11309700000.0 11309700000.0 11309700000.0 11309700000.0 11309700000.0 11309700000.0 11309700000.0 11309700000.0 11309700000.0 11309700000.0 11309700000.0 11309700000.0 11309700000.0 11309700000.0 11309700000.0 11309700000.0 11309700000.0 11309700000.0 11309700000.0 11309700000.0 11309700000.0 11309700000.0 11309700000.0 11309700000.0 11309700000.0 11309700000.0 11309700000.0 11309700000.0 11309700000.0 11309700000.0 11309700000.0 11309700000.0 11309700000.0 11309700000.0 11309700000.0 11309700000.0 11309700000.0 11309700000.0 11309700000.0 11309700000.0 11309700000.0 11309700000.0 11309700000.0 11309700000.0 11309700000.0 11309700000.0 11309700000.0 11309700000.0 11309700000.0 11309700000.0 11309700000.0 11309700000.0 11309700000.0 11309700000.0 11309700000.0 11309700000.0 11309700000.0 11309700000.0 11309700000.0 11309700000.0 11309700000.0 11309700000.0 11309700000.0 11309700000.0 11309700000.0 11309700000.0 11309700000.0 11309700000.0 11309700000.0 11309700000.0 11309700000.0 11309700000.0 11309700000.0 11309700000.0 11309700000.0 11309700000.0 11309700000.0 11309700000.0 11309700000.0 11309700000.0 11309700000.0 11309700000.0 11309700000.0 11309700000.0 11309700000.0 11309700000.0 11309700000.0 11309700000.0 11309700000.0 11309700000.0 11309700000.0 11309700000.0 11309700000.0 11309700000.0 11309700000.0 11309700000.0 11309700000.0 11309700000.0 11309700000.0 11309700000.0 11309700000.0 11309700000.0 11309700000.0 11309700000.0 11309700000.0 11309700000.0 11309700000.0 11309700000.0 11309700000.0 11309700000.0 11309700000.0 11309700000.0 11309700000.0 11309700000.0 11309700000.0 11309700000.0 11309700000.0 11309700000.0 11309700000.0 11309700000.0 11309700000.0 11309700000.0 11309700000.0 11309700000.0 11309700000.0 11309700000.0 11309700000.0 11309700000.0 11309700000.0 11309700000.0 11309700000.0 11309700000.0 11309700000.0 11309700000.0 11309700000.0 11309700000.0 11309700000.0 11309700000.0 11309700000.0 11309700000.0 11309700000.0 11309700000.0 11309700000.0 11309700000.0 11309700000.0 11309700000.0 11309700000.0 11309700000.0 11309700000.0 11309700000.0 11309700000.0 11309700000.0 11309700000.0 11309700000.0 11309700000.0 11309700000.0 11309700000.0 11309700000.0 11309700000.0 11309700000.0 11309700000.0 11309700000.0 11309700000.0 11309700000.0 11309700000.0 11309700000.0 11309700000.0 11309700000.0 11309700000.0 11309700000.0 11309700000.0 11309700000.0 11309700000.0 11309700000.0 11309700000.0 11309700000.0 11309700000.0 11309700000.0 11309700000.0 11309700000.0 11309700000.0 11309700000.0 11309700000.0 11309700000.0 11309700000.0 11309700000.0 11309700000.0 11309700000.0 11309700000.0 11309700000.0 11309700000.0 11309700000.0 11309700000.0 11309700000.0 11309700000.0 11309700000.0 11309700000.0 11309700000.0 11309700000.0 11309700000.0 11309700000.0 11309700000.0 11309700000.0 11309700000.0 11309700000.0 11309700000.0 11309700000.0 11309700000.0 11309700000.0 11309700000.0 11309700000.0 11309700000.0 11309700000.0 11309700000.0 11309700000.0 11309700000.0 11309700000.0 11309700000.0 11309700000.0 11309700000.0 11309700000.0 11309700000.0 11309700000.0 11309700000.0 11309700000.0 11309700000.0 11309700000.0 11309700000.0 11309700000.0 11309700000.0 11309700000.0 11309700000.0 11309700000.0 11309700000.0 11309700000.0 11309700000.0 11309700000.0 11309700000.0 11309700000.0 11309700000.0 11309700000.0 11309700000.0 11309700000.0 11309700000.0 11309700000.0 11309700000.0 11309700000.0 11309700000.0 11309700000.0 11309700000.0 11309700000.0 11309700000.0 11309700000.0 11309700000.0 11309700000.0 11309700000.0 11309700000.0 11309700000.0 11309700000.0 11309700000.0 11309700000.0 11309700000.0 11309700000.0 11309700000.0 11309700000.0 11309700000.0 11309700000.0 11309700000.0 11309700000.0 11309700000.0 11309700000.0 11309700000.0 11309700000.0 11309700000.0 11309700000.0 11309700000.0 11309700000.0 11309700000.0 11309700000.0 11309700000.0 11309700000.0 11309700000.0 11309700000.0 11309700000.0 11309700000.0 11309700000.0 11309700000.0 11309700000.0 11309700000.0 11309700000.0 11309700000.0 11309700000.0 11309700000.0 11309700000.0 11309700000.0 11309700000.0 11309700000.0 11309700000.0 11309700000.0 11309700000.0 11309700000.0 11309700000.0 11309700000.0 11309700000.0 11309700000.0 11309700000.0 11309700000.0 11309700000.0 11309700000.0 11309700000.0 11309700000.0 11309700000.0 11309700000.0 11309700000.0 11309700000.0 11309700000.0 11309700000.0 11309700000.0 11309700000.0 11309700000.0 11309700000.0 11309700000.0 11309700000.0 11309700000.0 11309700000.0 11309700000.0 11309700000.0 11309700000.0 11309700000.0 11309700000.0 11309700000.0 11309700000.0 11309700000.0 11309700000.0 11309700000.0 11309700000.0 11309700000.0 11309700000.0 11309700000.0 11309700000.0 11309700000.0 11309700000.0 11309700000.0 11309700000.0 11309700000.0 11309700000.0 11309700000.0 11309700000.0 11309700000.0 11309700000.0 11309700000.0 11309700000.0 11309700000.0 11309700000.0 11309700000.0 11309700000.0 11309700000.0 11309700000.0 11309700000.0 11309700000.0 11309700000.0 11309700000.0 11309700000.0 11309700000.0 11309700000.0 11309700000.0 11309700000.0 11309700000.0 11309700000.0 11309700000.0 11309700000.0 11309700000.0 11309700000.0 11309700000.0 11309700000.0 11309700000.0 11309700000.0 11309700000.0 11309700000.0 11309700000.0 11309700000.0 11309700000.0 11309700000.0 11309700000.0 11309700000.0 11309700000.0 11309700000.0 11309700000.0 11309700000.0 11309700000.0 11309700000.0 11309700000.0 11309700000.0 11309700000.0 11309700000.0 11309700000.0 11309700000.0 11309700000.0 11309700000.0 11309700000.0 11309700000.0 11309700000.0 11309700000.0 11309700000.0 11309700000.0 11309700000.0 11309700000.0 11309700000.0 11309700000.0 11309700000.0 11309700000.0 11309700000.0 11309700000.0 11309700000.0 11309700000.0 11309700000.0 11309700000.0 11309700000.0 11309700000.0 11309700000.0 11309700000.0 11309700000.0 11309700000.0 11309700000.0 11309700000.0 11309700000.0 11309700000.0 11309700000.0 11309700000.0 11309700000.0 11309700000.0 11309700000.0 11309700000.0 11309700000.0 11309700000.0 11309700000.0 11309700000.0 11309700000.0 11309700000.0 11309700000.0 11309700000.0 11309700000.0 11309700000.0 11309700000.0 11309700000.0 11309700000.0 11309700000.0 11309700000.0 11309700000.0 11309700000.0 11309700000.0 11309700000.0 11309700000.0 11309700000.0 11309700000.0 11309700000.0 11309700000.0 11309700000.0 11309700000.0 11309700000.0 11309700000.0 11309700000.0 11309700000.0 11309700000.0 11309700000.0 11309700000.0 11309700000.0 11309700000.0 11309700000.0 11309700000.0 11309700000.0 11309700000.0 11309700000.0 11309700000.0 11309700000.0 11309700000.0 11309700000.0 11309700000.0 11309700000.0 11309700000.0 11309700000.0 11309700000.0 11309700000.0 11309700000.0 11309700000.0 11309700000.0 11309700000.0 11309700000.0 11309700000.0 11309700000.0 11309700000.0 11309700000.0 11309700000.0 11309700000.0 11309700000.0 11309700000.0 11309700000.0 11309700000.0 11309700000.0 11309700000.0 11309700000.0 11309700000.0 11309700000.0 11309700000.0 11309700000.0 11309700000.0 11309700000.0 11309700000.0 11309700000.0 11309700000.0 11309700000.0 11309700000.0 11309700000.0 11309700000.0 11309700000.0 11309700000.0 11309700000.0 11309700000.0 11309700000.0 11309700000.0 11309700000.0 11309700000.0 11309700000.0 11309700000.0 11309700000.0 11309700000.0 11309700000.0 11309700000.0 11309700000.0 11309700000.0 11309700000.0 11309700000.0 11309700000.0 11309700000.0 11309700000.0 11309700000.0 11309700000.0 11309700000.0 11309700000.0 11309700000.0 11309700000.0 11309700000.0 11309700000.0 11309700000.0 11309700000.0 11309700000.0 11309700000.0 11309700000.0 11309700000.0 11309700000.0 11309700000.0 11309700000.0 11309700000.0 11309700000.0 11309700000.0 11309700000.0 11309700000.0 11309700000.0 11309700000.0 11309700000.0 11309700000.0 11309700000.0 11309700000.0 11309700000.0 11309700000.0 11309700000.0 11309700000.0 11309700000.0 11309700000.0 11309700000.0 11309700000.0 11309700000.0 11309700000.0 11309700000.0 11309700000.0 11309700000.0 11309700000.0 11309700000.0 11309700000.0 11309700000.0 11309700000.0 11309700000.0 11309700000.0 11309700000.0 11309700000.0 11309700000.0 11309700000.0 11309700000.0 11309700000.0 11309700000.0 11309700000.0 11309700000.0 11309700000.0 11309700000.0 11309700000.0 11309700000.0 11309700000.0 11309700000.0 11309700000.0 11309700000.0 11309700000.0 11309700000.0 11309700000.0 11309700000.0 11309700000.0 11309700000.0 11309700000.0 11309700000.0 11309700000.0 11309700000.0 11309700000.0 11309700000.0 11309700000.0 11309700000.0 11309700000.0 11309700000.0 11309700000.0 11309700000.0 11309700000.0 11309700000.0 11309700000.0 11309700000.0 11309700000.0 11309700000.0 11309700000.0 11309700000.0 11309700000.0 11309700000.0 11309700000.0 11309700000.0 11309700000.0 11309700000.0 11309700000.0 11309700000.0 11309700000.0 11309700000.0 11309700000.0 11309700000.0 11309700000.0 11309700000.0 11309700000.0 11309700000.0 11309700000.0 11309700000.0 11309700000.0 11309700000.0 11309700000.0 11309700000.0 11309700000.0 11309700000.0 11309700000.0 11309700000.0 11309700000.0 11309700000.0 11309700000.0 11309700000.0 11309700000.0 11309700000.0 11309700000.0 11309700000.0 11309700000.0 11309700000.0 11309700000.0 11309700000.0 11309700000.0 11309700000.0 11309700000.0 11309700000.0 11309700000.0 11309700000.0 11309700000.0 11309700000.0 11309700000.0 11309700000.0 11309700000.0 11309700000.0 11309700000.0 11309700000.0 11309700000.0 11309700000.0 11309700000.0 11309700000.0 11309700000.0 11309700000.0 11309700000.0 11309700000.0 11309700000.0 11309700000.0 11309700000.0 11309700000.0 11309700000.0 11309700000.0 11309700000.0 11309700000.0 11309700000.0 11309700000.0 11309700000.0 11309700000.0 11309700000.0 11309700000.0 11309700000.0 11309700000.0 11309700000.0 11309700000.0 11309700000.0 11309700000.0 11309700000.0 11309700000.0 11309700000.0 11309700000.0 11309700000.0 11309700000.0 11309700000.0 11309700000.0 11309700000.0 11309700000.0 11309700000.0 11309700000.0 11309700000.0 11309700000.0 11309700000.0 11309700000.0 11309700000.0 11309700000.0 11309700000.0 11309700000.0 11309700000.0 11309700000.0 11309700000.0 11309700000.0 11309700000.0 11309700000.0 11309700000.0 11309700000.0 11309700000.0 11309700000.0 11309700000.0 11309700000.0 11309700000.0 11309700000.0 11309700000.0 11309700000.0 11309700000.0 11309700000.0 11309700000.0 11309700000.0 11309700000.0 11309700000.0 11309700000.0 11309700000.0 11309700000.0 11309700000.0 11309700000.0 11309700000.0 11309700000.0 11309700000.0 11309700000.0 11309700000.0 11309700000.0 11309700000.0 11309700000.0 11309700000.0 11309700000.0 11309700000.0 11309700000.0 11309700000.0 11309700000.0 11309700000.0 11309700000.0 11309700000.0 11309700000.0 11309700000.0 11309700000.0 11309700000.0 11309700000.0 11309700000.0 11309700000.0 11309700000.0 11309700000.0 11309700000.0 11309700000.0 11309700000.0 11309700000.0 11309700000.0 11309700000.0 11309700000.0 11309700000.0 11309700000.0 11309700000.0 11309700000.0 11309700000.0 11309700000.0 11309700000.0 11309700000.0 11309700000.0 11309700000.0 11309700000.0 11309700000.0 11309700000.0 11309700000.0 11309700000.0 11309700000.0 11309700000.0 11309700000.0 11309700000.0 11309700000.0 11309700000.0 11309700000.0 11309700000.0 11309700000.0 11309700000.0 11309700000.0 11309700000.0 11309700000.0 11309700000.0 11309700000.0 11309700000.0 11309700000.0 11309700000.0 11309700000.0 11309700000.0 11309700000.0 11309700000.0 11309700000.0 11309700000.0 11309700000.0 11309700000.0 11309700000.0 11309700000.0 11309700000.0 11309700000.0 11309700000.0 11309700000.0 11309700000.0 11309700000.0 11309700000.0 11309700000.0 11309700000.0 11309700000.0 11309700000.0 11309700000.0 11309700000.0 11309700000.0 11309700000.0 11309700000.0 11309700000.0 11309700000.0 11309700000.0 11309700000.0 11309700000.0 11309700000.0 11309700000.0 11309700000.0 11309700000.0 11309700000.0 11309700000.0 11309700000.0 11309700000.0 11309700000.0 11309700000.0 11309700000.0 11309700000.0 11309700000.0 11309700000.0 11309700000.0 11309700000.0 11309700000.0 11309700000.0 11309700000.0 11309700000.0 11309700000.0 11309700000.0 11309700000.0 11309700000.0 11309700000.0 11309700000.0 11309700000.0 11309700000.0 11309700000.0 11309700000.0 11309700000.0 11309700000.0 11309700000.0 11309700000.0 11309700000.0 11309700000.0 11309700000.0 11309700000.0 11309700000.0 11309700000.0 11309700000.0 11309700000.0 11309700000.0 11309700000.0 11309700000.0 11309700000.0 11309700000.0 11309700000.0 11309700000.0 11309700000.0 11309700000.0 11309700000.0 11309700000.0 11309700000.0 11309700000.0 11309700000.0 11309700000.0 11309700000.0 11309700000.0 11309700000.0 11309700000.0 11309700000.0 11309700000.0 11309700000.0 11309700000.0 11309700000.0 11309700000.0 11309700000.0 11309700000.0 11309700000.0 11309700000.0 11309700000.0 11309700000.0 11309700000.0 11309700000.0 11309700000.0 11309700000.0 11309700000.0 11309700000.0 11309700000.0 11309700000.0 11309700000.0 11309700000.0 11309700000.0 11309700000.0 11309700000.0 11309700000.0 11309700000.0 11309700000.0 11309700000.0 11309700000.0 11309700000.0 11309700000.0 11309700000.0 11309700000.0 11309700000.0 11309700000.0 11309700000.0 11309700000.0 11309700000.0 11309700000.0 11309700000.0 11309700000.0 11309700000.0 11309700000.0 11309700000.0 11309700000.0 11309700000.0 11309700000.0 11309700000.0 11309700000.0 11309700000.0 11309700000.0 11309700000.0 11309700000.0 11309700000.0 11309700000.0 11309700000.0 11309700000.0 11309700000.0 11309700000.0 11309700000.0 11309700000.0 11309700000.0 11309700000.0 11309700000.0 11309700000.0 11309700000.0 11309700000.0 11309700000.0 11309700000.0 11309700000.0 11309700000.0 11309700000.0 11309700000.0 11309700000.0 11309700000.0 11309700000.0 11309700000.0 11309700000.0 11309700000.0 11309700000.0 11309700000.0 11309700000.0 11309700000.0 11309700000.0 11309700000.0 11309700000.0 11309700000.0 11309700000.0 11309700000.0 11309700000.0 11309700000.0 11309700000.0 11309700000.0 11309700000.0 11309700000.0 11309700000.0 11309700000.0 11309700000.0 11309700000.0 11309700000.0 11309700000.0 11309700000.0 11309700000.0 11309700000.0 11309700000.0 11309700000.0 11309700000.0 11309700000.0 11309700000.0 11309700000.0 11309700000.0 11309700000.0 11309700000.0 11309700000.0 11309700000.0 11309700000.0 11309700000.0 11309700000.0 11309700000.0 11309700000.0 11309700000.0 11309700000.0 11309700000.0 11309700000.0 11309700000.0 11309700000.0 11309700000.0 11309700000.0 11309700000.0 11309700000.0 11309700000.0 11309700000.0 11309700000.0 11309700000.0 11309700000.0 11309700000.0 11309700000.0 11309700000.0 11309700000.0 11309700000.0 11309700000.0 11309700000.0 11309700000.0 11309700000.0 11309700000.0 11309700000.0 11309700000.0 11309700000.0 11309700000.0 11309700000.0 11309700000.0 11309700000.0 11309700000.0 11309700000.0 11309700000.0 11309700000.0 11309700000.0 11309700000.0 11309700000.0 11309700000.0 11309700000.0 11309700000.0 11309700000.0 11309700000.0 11309700000.0 11309700000.0 11309700000.0 11309700000.0 11309700000.0 11309700000.0 11309700000.0 11309700000.0 11309700000.0 11309700000.0 11309700000.0 11309700000.0 11309700000.0 11309700000.0 11309700000.0 11309700000.0 11309700000.0 11309700000.0 11309700000.0 11309700000.0 11309700000.0 11309700000.0 11309700000.0 11309700000.0 11309700000.0 11309700000.0 11309700000.0 11309700000.0 11309700000.0 11309700000.0 11309700000.0 11309700000.0 11309700000.0 11309700000.0 11309700000.0 11309700000.0 11309700000.0 11309700000.0 11309700000.0 11309700000.0 11309700000.0 11309700000.0 11309700000.0 11309700000.0 11309700000.0 11309700000.0 11309700000.0 11309700000.0 11309700000.0 11309700000.0 11309700000.0 11309700000.0 11309700000.0 11309700000.0 11309700000.0 11309700000.0 11309700000.0 11309700000.0 11309700000.0 11309700000.0 11309700000.0 11309700000.0 11309700000.0 11309700000.0 11309700000.0 11309700000.0 11309700000.0 11309700000.0 11309700000.0 11309700000.0 11309700000.0 11309700000.0 11309700000.0 11309700000.0 11309700000.0 11309700000.0 11309700000.0 11309700000.0 11309700000.0 11309700000.0 11309700000.0 11309700000.0 11309700000.0 11309700000.0 11309700000.0 11309700000.0 11309700000.0 11309700000.0 11309700000.0 11309700000.0 11309700000.0 11309700000.0 11309700000.0 11309700000.0 11309700000.0 11309700000.0 11309700000.0 11309700000.0 11309700000.0 11309700000.0 11309700000.0 11309700000.0 11309700000.0 11309700000.0 11309700000.0 11309700000.0 11309700000.0 11309700000.0 11309700000.0 11309700000.0 11309700000.0 11309700000.0 11309700000.0 11309700000.0 11309700000.0 11309700000.0 11309700000.0 11309700000.0 11309700000.0 11309700000.0 11309700000.0 11309700000.0 11309700000.0 11309700000.0 11309700000.0 11309700000.0 11309700000.0 11309700000.0 11309700000.0 11309700000.0 11309700000.0 11309700000.0 11309700000.0 11309700000.0 11309700000.0 11309700000.0 11309700000.0 11309700000.0 11309700000.0 11309700000.0 11309700000.0 11309700000.0 11309700000.0 11309700000.0 11309700000.0 11309700000.0 11309700000.0 11309700000.0 11309700000.0 11309700000.0 11309700000.0 11309700000.0 11309700000.0 11309700000.0 11309700000.0 11309700000.0 11309700000.0 11309700000.0 11309700000.0 11309700000.0 11309700000.0 11309700000.0 11309700000.0 11309700000.0 11309700000.0 11309700000.0 11309700000.0 11309700000.0 11309700000.0 11309700000.0 11309700000.0 11309700000.0 11309700000.0 11309700000.0 11309700000.0 11309700000.0 11309700000.0 11309700000.0 11309700000.0 11309700000.0 11309700000.0 11309700000.0 11309700000.0 11309700000.0 11309700000.0 11309700000.0 11309700000.0 11309700000.0 11309700000.0 11309700000.0 11309700000.0 11309700000.0 11309700000.0 11309700000.0 11309700000.0 11309700000.0 11309700000.0 11309700000.0 11309700000.0 11309700000.0 11309700000.0 11309700000.0 11309700000.0 11309700000.0 11309700000.0 11309700000.0 11309700000.0 11309700000.0 11309700000.0 11309700000.0 11309700000.0 11309700000.0 11309700000.0 11309700000.0 11309700000.0 11309700000.0 11309700000.0 11309700000.0 11309700000.0 11309700000.0 11309700000.0 11309700000.0 11309700000.0 11309700000.0 11309700000.0 11309700000.0 11309700000.0 11309700000.0 11309700000.0 11309700000.0 11309700000.0 11309700000.0 11309700000.0 11309700000.0 11309700000.0 11309700000.0 11309700000.0 11309700000.0 11309700000.0 11309700000.0 11309700000.0 11309700000.0 11309700000.0 11309700000.0 11309700000.0 11309700000.0 11309700000.0 11309700000.0 11309700000.0 11309700000.0 11309700000.0 11309700000.0 11309700000.0 11309700000.0 11309700000.0 11309700000.0 11309700000.0 11309700000.0 11309700000.0 11309700000.0 11309700000.0 11309700000.0 11309700000.0 11309700000.0 11309700000.0 11309700000.0 11309700000.0 11309700000.0 11309700000.0 11309700000.0 11309700000.0 11309700000.0 11309700000.0 11309700000.0 11309700000.0 11309700000.0 11309700000.0 11309700000.0 11309700000.0 11309700000.0 11309700000.0 11309700000.0 11309700000.0 11309700000.0 11309700000.0 11309700000.0 11309700000.0 11309700000.0 11309700000.0 11309700000.0 11309700000.0 11309700000.0 11309700000.0 11309700000.0 11309700000.0 11309700000.0 11309700000.0 11309700000.0 11309700000.0 11309700000.0 11309700000.0 11309700000.0 11309700000.0 11309700000.0 11309700000.0 11309700000.0 11309700000.0 11309700000.0 11309700000.0 11309700000.0 11309700000.0 11309700000.0 11309700000.0 11309700000.0 11309700000.0 11309700000.0 11309700000.0 11309700000.0 11309700000.0 11309700000.0 11309700000.0 11309700000.0 11309700000.0 11309700000.0 11309700000.0 11309700000.0 11309700000.0 11309700000.0 11309700000.0 11309700000.0 11309700000.0 11309700000.0 11309700000.0 11309700000.0 11309700000.0 11309700000.0 11309700000.0 11309700000.0 11309700000.0 11309700000.0 11309700000.0 11309700000.0 11309700000.0 11309700000.0 11309700000.0 11309700000.0 11309700000.0 11309700000.0 11309700000.0 11309700000.0 11309700000.0 11309700000.0 11309700000.0 11309700000.0 11309700000.0 11309700000.0 11309700000.0 11309700000.0 11309700000.0 11309700000.0 11309700000.0 11309700000.0 11309700000.0 11309700000.0 11309700000.0 11309700000.0 11309700000.0 11309700000.0 11309700000.0 11309700000.0 11309700000.0 11309700000.0 11309700000.0 11309700000.0 11309700000.0 11309700000.0 11309700000.0 11309700000.0 11309700000.0 11309700000.0 11309700000.0 11309700000.0 11309700000.0 11309700000.0 11309700000.0 11309700000.0 11309700000.0 11309700000.0 11309700000.0 11309700000.0 11309700000.0 11309700000.0 11309700000.0 11309700000.0 11309700000.0 11309700000.0 11309700000.0 11309700000.0 11309700000.0 11309700000.0 11309700000.0 11309700000.0 11309700000.0 11309700000.0 11309700000.0 11309700000.0 11309700000.0 11309700000.0 11309700000.0 11309700000.0 11309700000.0 11309700000.0 11309700000.0 11309700000.0 11309700000.0 11309700000.0 11309700000.0 11309700000.0 11309700000.0 11309700000.0 11309700000.0 11309700000.0 11309700000.0 11309700000.0 11309700000.0 11309700000.0 11309700000.0 11309700000.0 11309700000.0 11309700000.0 11309700000.0 11309700000.0 11309700000.0 11309700000.0 11309700000.0 11309700000.0 11309700000.0 11309700000.0 11309700000.0 11309700000.0 11309700000.0 11309700000.0 11309700000.0 11309700000.0 11309700000.0 11309700000.0 11309700000.0 11309700000.0 11309700000.0 11309700000.0 11309700000.0 11309700000.0 11309700000.0 11309700000.0 11309700000.0 11309700000.0 11309700000.0 11309700000.0 11309700000.0 11309700000.0 11309700000.0 11309700000.0 11309700000.0 11309700000.0 11309700000.0 11309700000.0 11309700000.0 11309700000.0 11309700000.0 11309700000.0 11309700000.0 11309700000.0 11309700000.0 11309700000.0 11309700000.0 11309700000.0 11309700000.0 11309700000.0 11309700000.0 11309700000.0 11309700000.0 11309700000.0 11309700000.0 11309700000.0 11309700000.0 11309700000.0 11309700000.0 11309700000.0 11309700000.0 11309700000.0 11309700000.0 11309700000.0 11309700000.0 11309700000.0 11309700000.0 11309700000.0 11309700000.0 11309700000.0 11309700000.0 11309700000.0 11309700000.0 11309700000.0 11309700000.0 11309700000.0 11309700000.0 11309700000.0 11309700000.0 11309700000.0 11309700000.0 11309700000.0 11309700000.0 11309700000.0 11309700000.0 11309700000.0 11309700000.0 11309700000.0 11309700000.0 11309700000.0 11309700000.0 11309700000.0 11309700000.0 11309700000.0 11309700000.0 11309700000.0 11309700000.0 11309700000.0 11309700000.0 11309700000.0 11309700000.0 11309700000.0 11309700000.0 11309700000.0 11309700000.0 11309700000.0 11309700000.0 11309700000.0 11309700000.0 11309700000.0 11309700000.0 11309700000.0 11309700000.0 11309700000.0 11309700000.0 11309700000.0 11309700000.0 11309700000.0 11309700000.0 11309700000.0 11309700000.0 11309700000.0 11309700000.0 11309700000.0 11309700000.0 11309700000.0 11309700000.0 11309700000.0 11309700000.0 11309700000.0 11309700000.0 11309700000.0 11309700000.0 11309700000.0 11309700000.0 11309700000.0 11309700000.0 11309700000.0 11309700000.0 11309700000.0 11309700000.0 11309700000.0 11309700000.0 11309700000.0 11309700000.0 11309700000.0 11309700000.0 11309700000.0 11309700000.0 11309700000.0 11309700000.0 11309700000.0 11309700000.0 11309700000.0 11309700000.0 11309700000.0 11309700000.0 11309700000.0 11309700000.0 11309700000.0 11309700000.0 11309700000.0 11309700000.0 11309700000.0 11309700000.0 11309700000.0 11309700000.0 11309700000.0 11309700000.0 11309700000.0 11309700000.0 11309700000.0 11309700000.0 11309700000.0 11309700000.0 11309700000.0 11309700000.0 11309700000.0 11309700000.0 11309700000.0 11309700000.0 11309700000.0 11309700000.0 11309700000.0 11309700000.0 11309700000.0 11309700000.0 11309700000.0 11309700000.0 11309700000.0 11309700000.0 11309700000.0 11309700000.0 11309700000.0 11309700000.0 11309700000.0 11309700000.0 11309700000.0 11309700000.0 11309700000.0 11309700000.0 11309700000.0 11309700000.0 11309700000.0 11309700000.0 11309700000.0 11309700000.0 11309700000.0 11309700000.0 11309700000.0 11309700000.0 11309700000.0 11309700000.0 11309700000.0 11309700000.0 11309700000.0 11309700000.0 11309700000.0 11309700000.0 11309700000.0 11309700000.0 11309700000.0 11309700000.0 11309700000.0 11309700000.0 11309700000.0 11309700000.0 11309700000.0 11309700000.0 11309700000.0 11309700000.0 11309700000.0 11309700000.0 11309700000.0 11309700000.0 11309700000.0 11309700000.0 11309700000.0 11309700000.0 11309700000.0 11309700000.0 11309700000.0 11309700000.0 11309700000.0 11309700000.0 11309700000.0 11309700000.0 11309700000.0 11309700000.0 11309700000.0 11309700000.0 11309700000.0 11309700000.0 11309700000.0 11309700000.0 11309700000.0 11309700000.0 11309700000.0 11309700000.0 11309700000.0 11309700000.0 11309700000.0 11309700000.0 11309700000.0 11309700000.0 11309700000.0 11309700000.0 11309700000.0 11309700000.0 11309700000.0 11309700000.0 11309700000.0 11309700000.0 11309700000.0 11309700000.0 11309700000.0 11309700000.0 11309700000.0 11309700000.0 11309700000.0 11309700000.0 11309700000.0 11309700000.0 11309700000.0 11309700000.0 11309700000.0 11309700000.0 11309700000.0 11309700000.0 11309700000.0 11309700000.0 11309700000.0 11309700000.0 11309700000.0 11309700000.0 11309700000.0 11309700000.0 11309700000.0 11309700000.0 11309700000.0 11309700000.0 11309700000.0 11309700000.0 11309700000.0 11309700000.0 11309700000.0 11309700000.0 11309700000.0 11309700000.0 11309700000.0 11309700000.0 11309700000.0 11309700000.0 11309700000.0 11309700000.0 11309700000.0 11309700000.0 11309700000.0 11309700000.0 11309700000.0 11309700000.0 11309700000.0 11309700000.0 11309700000.0 11309700000.0 11309700000.0 11309700000.0 11309700000.0 11309700000.0 11309700000.0 11309700000.0 11309700000.0 11309700000.0 11309700000.0 11309700000.0 11309700000.0 11309700000.0 11309700000.0 11309700000.0 11309700000.0 11309700000.0 11309700000.0 11309700000.0 11309700000.0 11309700000.0 11309700000.0 11309700000.0 11309700000.0 11309700000.0 11309700000.0 11309700000.0 11309700000.0 11309700000.0 11309700000.0 11309700000.0 11309700000.0 11309700000.0 11309700000.0 11309700000.0 11309700000.0 11309700000.0 11309700000.0 11309700000.0 11309700000.0 11309700000.0 11309700000.0 11309700000.0 11309700000.0 11309700000.0 11309700000.0 11309700000.0 11309700000.0 11309700000.0 11309700000.0 11309700000.0 11309700000.0 11309700000.0 11309700000.0 11309700000.0 11309700000.0 11309700000.0 11309700000.0 11309700000.0 11309700000.0 11309700000.0 11309700000.0 11309700000.0 11309700000.0 11309700000.0 11309700000.0 11309700000.0 11309700000.0 11309700000.0 11309700000.0 11309700000.0 11309700000.0 11309700000.0 11309700000.0 11309700000.0 11309700000.0 11309700000.0 11309700000.0 11309700000.0 11309700000.0 11309700000.0 11309700000.0 11309700000.0 11309700000.0 11309700000.0 11309700000.0 11309700000.0 11309700000.0 11309700000.0 11309700000.0 11309700000.0 11309700000.0 11309700000.0 11309700000.0 11309700000.0 11309700000.0 11309700000.0 11309700000.0 11309700000.0 11309700000.0 11309700000.0 11309700000.0 11309700000.0 11309700000.0 11309700000.0 11309700000.0 11309700000.0 11309700000.0 11309700000.0 11309700000.0 11309700000.0 11309700000.0 11309700000.0 11309700000.0 11309700000.0 11309700000.0 11309700000.0 11309700000.0 11309700000.0 11309700000.0 11309700000.0 11309700000.0 11309700000.0 11309700000.0 11309700000.0 11309700000.0 11309700000.0 11309700000.0 11309700000.0 11309700000.0 11309700000.0 11309700000.0 11309700000.0 11309700000.0 11309700000.0 11309700000.0 11309700000.0 11309700000.0 11309700000.0 11309700000.0 11309700000.0 11309700000.0 11309700000.0 11309700000.0 11309700000.0 11309700000.0 11309700000.0 11309700000.0 11309700000.0 11309700000.0 11309700000.0 11309700000.0 11309700000.0 11309700000.0 11309700000.0 11309700000.0 11309700000.0 11309700000.0 11309700000.0 11309700000.0 11309700000.0 11309700000.0 11309700000.0 11309700000.0 11309700000.0 11309700000.0 11309700000.0 11309700000.0 11309700000.0 11309700000.0 11309700000.0 11309700000.0 11309700000.0 11309700000.0 11309700000.0 11309700000.0 11309700000.0 11309700000.0 11309700000.0 11309700000.0 11309700000.0 11309700000.0 11309700000.0 11309700000.0 11309700000.0 11309700000.0 11309700000.0 11309700000.0 11309700000.0 11309700000.0 11309700000.0 11309700000.0 11309700000.0 11309700000.0 11309700000.0 11309700000.0 11309700000.0 11309700000.0 11309700000.0 11309700000.0 11309700000.0 11309700000.0 11309700000.0 11309700000.0 11309700000.0 11309700000.0 11309700000.0 11309700000.0 11309700000.0 11309700000.0 11309700000.0 11309700000.0 11309700000.0 11309700000.0 11309700000.0 11309700000.0 11309700000.0 11309700000.0 11309700000.0 11309700000.0 11309700000.0 11309700000.0 11309700000.0 11309700000.0 11309700000.0 11309700000.0 11309700000.0 11309700000.0 11309700000.0 11309700000.0 11309700000.0 11309700000.0 11309700000.0 11309700000.0 11309700000.0 11309700000.0 11309700000.0 11309700000.0 11309700000.0 11309700000.0 11309700000.0 11309700000.0 11309700000.0 11309700000.0 11309700000.0 11309700000.0 11309700000.0 11309700000.0 11309700000.0 11309700000.0 11309700000.0 11309700000.0 11309700000.0 11309700000.0 11309700000.0 11309700000.0 11309700000.0 11309700000.0 11309700000.0 11309700000.0 11309700000.0 11309700000.0 11309700000.0 11309700000.0 11309700000.0 11309700000.0 11309700000.0 11309700000.0 11309700000.0 11309700000.0 11309700000.0 11309700000.0 11309700000.0 11309700000.0 11309700000.0 11309700000.0 11309700000.0 11309700000.0 11309700000.0 11309700000.0 11309700000.0 11309700000.0 11309700000.0 11309700000.0 11309700000.0 11309700000.0 11309700000.0 11309700000.0 11309700000.0 11309700000.0 11309700000.0 11309700000.0 11309700000.0 11309700000.0 11309700000.0 11309700000.0 11309700000.0 11309700000.0 11309700000.0 11309700000.0 11309700000.0 11309700000.0 11309700000.0 11309700000.0 11309700000.0 11309700000.0 11309700000.0 11309700000.0 11309700000.0 11309700000.0 11309700000.0 11309700000.0 11309700000.0 11309700000.0 11309700000.0 11309700000.0 11309700000.0 11309700000.0 11309700000.0 11309700000.0 11309700000.0 11309700000.0 11309700000.0 11309700000.0 11309700000.0 11309700000.0 11309700000.0 11309700000.0 11309700000.0 11309700000.0 11309700000.0 11309700000.0 11309700000.0 11309700000.0 11309700000.0 11309700000.0 11309700000.0 11309700000.0 11309700000.0 11309700000.0 11309700000.0 11309700000.0 11309700000.0 11309700000.0 11309700000.0 11309700000.0 11309700000.0 11309700000.0 11309700000.0 11309700000.0 11309700000.0 11309700000.0 11309700000.0 11309700000.0 11309700000.0 11309700000.0 11309700000.0 11309700000.0 11309700000.0 11309700000.0 11309700000.0 11309700000.0 11309700000.0 11309700000.0 11309700000.0 11309700000.0 11309700000.0 11309700000.0 11309700000.0 11309700000.0 11309700000.0 11309700000.0 11309700000.0 11309700000.0 11309700000.0 11309700000.0 11309700000.0 11309700000.0 11309700000.0 11309700000.0 11309700000.0 11309700000.0 11309700000.0 11309700000.0 11309700000.0 11309700000.0 11309700000.0 11309700000.0 11309700000.0 11309700000.0 11309700000.0 11309700000.0 11309700000.0 11309700000.0 11309700000.0 11309700000.0 11309700000.0 11309700000.0 11309700000.0 11309700000.0 11309700000.0 11309700000.0 11309700000.0 11309700000.0 11309700000.0 11309700000.0 11309700000.0 11309700000.0 11309700000.0 11309700000.0 11309700000.0 11309700000.0 11309700000.0 11309700000.0 11309700000.0 11309700000.0 11309700000.0 11309700000.0 11309700000.0 11309700000.0 11309700000.0 11309700000.0 11309700000.0 11309700000.0 11309700000.0 11309700000.0 11309700000.0 11309700000.0 11309700000.0 11309700000.0 11309700000.0 11309700000.0 11309700000.0 11309700000.0 11309700000.0 11309700000.0 11309700000.0 11309700000.0 11309700000.0 11309700000.0 11309700000.0 11309700000.0 11309700000.0 11309700000.0 11309700000.0 11309700000.0 11309700000.0 11309700000.0 11309700000.0 11309700000.0 11309700000.0 11309700000.0 11309700000.0 11309700000.0 11309700000.0 11309700000.0 11309700000.0 11309700000.0 11309700000.0 11309700000.0 11309700000.0 11309700000.0 11309700000.0 11309700000.0 11309700000.0 11309700000.0 11309700000.0 11309700000.0 11309700000.0 11309700000.0 11309700000.0 11309700000.0 11309700000.0 11309700000.0 11309700000.0 11309700000.0 11309700000.0 11309700000.0 11309700000.0 11309700000.0 11309700000.0 11309700000.0 11309700000.0 11309700000.0 11309700000.0 11309700000.0 11309700000.0 11309700000.0 11309700000.0 11309700000.0 11309700000.0 11309700000.0 11309700000.0 11309700000.0 11309700000.0 11309700000.0 11309700000.0 11309700000.0 11309700000.0 11309700000.0 11309700000.0 11309700000.0 11309700000.0 11309700000.0 11309700000.0 11309700000.0 11309700000.0 11309700000.0 11309700000.0 11309700000.0 11309700000.0 11309700000.0 11309700000.0 11309700000.0 11309700000.0 11309700000.0 11309700000.0 11309700000.0 11309700000.0 11309700000.0 11309700000.0 11309700000.0 11309700000.0 11309700000.0 11309700000.0 11309700000.0 11309700000.0 11309700000.0 11309700000.0 11309700000.0 11309700000.0 11309700000.0 11309700000.0 11309700000.0 11309700000.0 11309700000.0 11309700000.0 11309700000.0 11309700000.0 11309700000.0 11309700000.0 11309700000.0 11309700000.0 11309700000.0 11309700000.0 11309700000.0 11309700000.0 11309700000.0 11309700000.0 11309700000.0 11309700000.0 11309700000.0 11309700000.0 11309700000.0 11309700000.0 11309700000.0 11309700000.0 11309700000.0 11309700000.0 11309700000.0 11309700000.0 11309700000.0 11309700000.0 11309700000.0 11309700000.0 11309700000.0 11309700000.0 11309700000.0 11309700000.0 11309700000.0 11309700000.0 11309700000.0 11309700000.0 11309700000.0 11309700000.0 11309700000.0 11309700000.0 11309700000.0 11309700000.0 11309700000.0 11309700000.0 11309700000.0 11309700000.0 11309700000.0 11309700000.0 11309700000.0 11309700000.0 11309700000.0 11309700000.0 11309700000.0 11309700000.0 11309700000.0 11309700000.0 11309700000.0 11309700000.0 11309700000.0 11309700000.0 11309700000.0 11309700000.0 11309700000.0 11309700000.0 11309700000.0 11309700000.0 11309700000.0 11309700000.0 11309700000.0 11309700000.0 11309700000.0 11309700000.0 11309700000.0 11309700000.0 11309700000.0 11309700000.0 11309700000.0 11309700000.0 11309700000.0 11309700000.0 11309700000.0 11309700000.0 11309700000.0 11309700000.0 11309700000.0 11309700000.0 11309700000.0 11309700000.0 11309700000.0 11309700000.0 11309700000.0 11309700000.0 11309700000.0 11309700000.0 11309700000.0 11309700000.0 11309700000.0 11309700000.0 11309700000.0 11309700000.0 11309700000.0 11309700000.0 11309700000.0 11309700000.0 11309700000.0 11309700000.0 11309700000.0 11309700000.0 11309700000.0 11309700000.0 11309700000.0 11309700000.0 11309700000.0 11309700000.0 11309700000.0 11309700000.0 11309700000.0 11309700000.0 11309700000.0 11309700000.0 11309700000.0 11309700000.0 11309700000.0 11309700000.0 11309700000.0 11309700000.0 11309700000.0 11309700000.0 11309700000.0 11309700000.0 11309700000.0 11309700000.0 11309700000.0 11309700000.0 11309700000.0 11309700000.0 11309700000.0 11309700000.0 11309700000.0 11309700000.0 11309700000.0 11309700000.0 11309700000.0 11309700000.0 11309700000.0 11309700000.0 11309700000.0 11309700000.0 11309700000.0 11309700000.0 11309700000.0 11309700000.0 11309700000.0 11309700000.0 11309700000.0 11309700000.0 11309700000.0 11309700000.0 11309700000.0 11309700000.0 11309700000.0 11309700000.0 11309700000.0 11309700000.0 11309700000.0 11309700000.0 11309700000.0 11309700000.0 11309700000.0 11309700000.0 11309700000.0 11309700000.0 11309700000.0 11309700000.0 11309700000.0 11309700000.0 11309700000.0 11309700000.0 11309700000.0 11309700000.0 11309700000.0 11309700000.0 11309700000.0 11309700000.0 11309700000.0 11309700000.0 11309700000.0 11309700000.0 11309700000.0 11309700000.0 11309700000.0 11309700000.0 11309700000.0 11309700000.0 11309700000.0 11309700000.0 11309700000.0 11309700000.0 11309700000.0 11309700000.0 11309700000.0 11309700000.0 11309700000.0 11309700000.0 11309700000.0 11309700000.0 11309700000.0 11309700000.0 11309700000.0 11309700000.0 11309700000.0 11309700000.0 11309700000.0 11309700000.0 11309700000.0 11309700000.0 11309700000.0 11309700000.0 11309700000.0 11309700000.0 11309700000.0 11309700000.0 11309700000.0 11309700000.0 11309700000.0 11309700000.0 11309700000.0 11309700000.0 11309700000.0 11309700000.0 11309700000.0 11309700000.0 11309700000.0 11309700000.0 11309700000.0 11309700000.0 11309700000.0 11309700000.0 11309700000.0 11309700000.0 11309700000.0 11309700000.0 11309700000.0 11309700000.0 11309700000.0 11309700000.0 11309700000.0 11309700000.0 11309700000.0 11309700000.0 11309700000.0 11309700000.0 11309700000.0 11309700000.0 11309700000.0 11309700000.0 11309700000.0 11309700000.0 11309700000.0 11309700000.0 11309700000.0 11309700000.0 11309700000.0 11309700000.0 11309700000.0 11309700000.0 11309700000.0 11309700000.0 11309700000.0 11309700000.0 11309700000.0 11309700000.0 11309700000.0 11309700000.0 11309700000.0 11309700000.0 11309700000.0 11309700000.0 11309700000.0 11309700000.0 11309700000.0 11309700000.0 11309700000.0 11309700000.0 11309700000.0 11309700000.0 11309700000.0 11309700000.0 11309700000.0 11309700000.0 11309700000.0 11309700000.0 11309700000.0 11309700000.0 11309700000.0 11309700000.0 11309700000.0 11309700000.0 11309700000.0 11309700000.0 11309700000.0 11309700000.0 11309700000.0 11309700000.0 11309700000.0 11309700000.0 11309700000.0 11309700000.0 11309700000.0 11309700000.0 11309700000.0 11309700000.0 11309700000.0 11309700000.0 11309700000.0 11309700000.0 11309700000.0 11309700000.0 11309700000.0 11309700000.0 11309700000.0 11309700000.0 11309700000.0 11309700000.0 11309700000.0 11309700000.0 11309700000.0 11309700000.0 11309700000.0 11309700000.0 11309700000.0 11309700000.0 11309700000.0 11309700000.0 11309700000.0 11309700000.0 11309700000.0 11309700000.0 11309700000.0 11309700000.0 11309700000.0 11309700000.0 11309700000.0 11309700000.0 11309700000.0 11309700000.0 11309700000.0 11309700000.0 11309700000.0 11309700000.0 11309700000.0 11309700000.0 11309700000.0 11309700000.0 11309700000.0 11309700000.0 11309700000.0 11309700000.0 11309700000.0 11309700000.0 11309700000.0 11309700000.0 11309700000.0 11309700000.0 11309700000.0 11309700000.0 11309700000.0 11309700000.0 11309700000.0 11309700000.0 11309700000.0 11309700000.0 11309700000.0 11309700000.0 11309700000.0 11309700000.0 11309700000.0 11309700000.0 11309700000.0 11309700000.0 11309700000.0 11309700000.0 11309700000.0 11309700000.0 11309700000.0 11309700000.0 11309700000.0 11309700000.0 11309700000.0 11309700000.0 11309700000.0 11309700000.0 11309700000.0 11309700000.0 11309700000.0 11309700000.0 11309700000.0 11309700000.0 11309700000.0 11309700000.0 11309700000.0 11309700000.0 11309700000.0 11309700000.0 11309700000.0 11309700000.0 11309700000.0 11309700000.0 11309700000.0 11309700000.0 11309700000.0 11309700000.0 11309700000.0 11309700000.0 11309700000.0 11309700000.0 11309700000.0 11309700000.0 11309700000.0 11309700000.0 11309700000.0 11309700000.0 11309700000.0 11309700000.0 11309700000.0 11309700000.0 11309700000.0 11309700000.0 11309700000.0 11309700000.0 11309700000.0 11309700000.0 11309700000.0 11309700000.0 11309700000.0 11309700000.0 11309700000.0 11309700000.0 11309700000.0 11309700000.0 11309700000.0 11309700000.0 11309700000.0 11309700000.0 11309700000.0 11309700000.0 11309700000.0 11309700000.0 11309700000.0 11309700000.0 11309700000.0 11309700000.0 11309700000.0 11309700000.0 11309700000.0 11309700000.0 11309700000.0 11309700000.0 11309700000.0 11309700000.0 11309700000.0 11309700000.0 11309700000.0 11309700000.0 11309700000.0 11309700000.0 11309700000.0 11309700000.0 11309700000.0 11309700000.0 11309700000.0 11309700000.0 11309700000.0 11309700000.0 11309700000.0 11309700000.0 11309700000.0 11309700000.0 11309700000.0 11309700000.0 11309700000.0 11309700000.0 11309700000.0 11309700000.0 11309700000.0 11309700000.0 11309700000.0 11309700000.0 11309700000.0 11309700000.0 11309700000.0 11309700000.0 11309700000.0 11309700000.0 11309700000.0 11309700000.0 11309700000.0 11309700000.0 11309700000.0 11309700000.0 11309700000.0 11309700000.0 11309700000.0 11309700000.0 11309700000.0 11309700000.0 11309700000.0 11309700000.0 11309700000.0 11309700000.0 11309700000.0 11309700000.0 11309700000.0 11309700000.0 11309700000.0 11309700000.0 11309700000.0 11309700000.0 11309700000.0 11309700000.0 11309700000.0 11309700000.0 11309700000.0 11309700000.0 11309700000.0 11309700000.0 11309700000.0 11309700000.0 11309700000.0 11309700000.0 11309700000.0 11309700000.0 11309700000.0 11309700000.0 11309700000.0 11309700000.0 11309700000.0 11309700000.0 11309700000.0 11309700000.0 11309700000.0 11309700000.0 11309700000.0 11309700000.0 11309700000.0 11309700000.0 11309700000.0 11309700000.0 11309700000.0 11309700000.0 11309700000.0 11309700000.0 11309700000.0 11309700000.0 11309700000.0 11309700000.0 11309700000.0 11309700000.0 11309700000.0 11309700000.0 11309700000.0 11309700000.0 11309700000.0 11309700000.0 11309700000.0 11309700000.0 11309700000.0 11309700000.0 11309700000.0 11309700000.0 11309700000.0 11309700000.0 11309700000.0 11309700000.0 11309700000.0 11309700000.0 11309700000.0 11309700000.0 11309700000.0 11309700000.0 11309700000.0 11309700000.0 11309700000.0 11309700000.0 11309700000.0 11309700000.0 11309700000.0 11309700000.0 11309700000.0 11309700000.0 11309700000.0 11309700000.0 11309700000.0 11309700000.0 11309700000.0 11309700000.0 11309700000.0 11309700000.0 11309700000.0 11309700000.0 11309700000.0 11309700000.0 11309700000.0 11309700000.0 11309700000.0 11309700000.0 11309700000.0 11309700000.0 11309700000.0 11309700000.0 11309700000.0 11309700000.0 11309700000.0 11309700000.0 11309700000.0 11309700000.0 11309700000.0 11309700000.0 11309700000.0 11309700000.0 11309700000.0 11309700000.0 11309700000.0 11309700000.0 11309700000.0 11309700000.0 11309700000.0 11309700000.0 11309700000.0 11309700000.0 11309700000.0 11309700000.0 11309700000.0 11309700000.0 11309700000.0 11309700000.0 11309700000.0 11309700000.0 11309700000.0 11309700000.0 11309700000.0 11309700000.0 11309700000.0 11309700000.0 11309700000.0 11309700000.0 11309700000.0 11309700000.0 11309700000.0 11309700000.0 11309700000.0 11309700000.0 11309700000.0 11309700000.0 11309700000.0 11309700000.0 11309700000.0 11309700000.0 11309700000.0 11309700000.0 11309700000.0 11309700000.0 11309700000.0 11309700000.0 11309700000.0 11309700000.0 11309700000.0 11309700000.0 11309700000.0 11309700000.0 11309700000.0 11309700000.0 11309700000.0 11309700000.0 11309700000.0 11309700000.0 11309700000.0 11309700000.0 11309700000.0 11309700000.0 11309700000.0 11309700000.0 11309700000.0 11309700000.0 11309700000.0 11309700000.0 11309700000.0 11309700000.0 11309700000.0 11309700000.0 11309700000.0 11309700000.0 11309700000.0 11309700000.0 11309700000.0 11309700000.0 11309700000.0 11309700000.0 11309700000.0 11309700000.0 11309700000.0 11309700000.0 11309700000.0 11309700000.0 11309700000.0 11309700000.0 11309700000.0 11309700000.0 11309700000.0 11309700000.0 11309700000.0 11309700000.0 11309700000.0 11309700000.0 11309700000.0 11309700000.0 11309700000.0 11309700000.0 11309700000.0 11309700000.0 11309700000.0 11309700000.0 11309700000.0 11309700000.0 11309700000.0 11309700000.0 11309700000.0 11309700000.0 11309700000.0 11309700000.0 11309700000.0 11309700000.0 11309700000.0 11309700000.0 11309700000.0 11309700000.0 11309700000.0 11309700000.0 11309700000.0 11309700000.0 11309700000.0 11309700000.0 11309700000.0 11309700000.0 11309700000.0 11309700000.0 11309700000.0 11309700000.0 11309700000.0 11309700000.0 11309700000.0 11309700000.0 11309700000.0 11309700000.0 11309700000.0 11309700000.0 11309700000.0 11309700000.0 11309700000.0 11309700000.0 11309700000.0 11309700000.0 11309700000.0 11309700000.0 11309700000.0 11309700000.0 11309700000.0 11309700000.0 11309700000.0 11309700000.0 11309700000.0 11309700000.0 11309700000.0 11309700000.0 11309700000.0 11309700000.0 11309700000.0 11309700000.0 11309700000.0 11309700000.0 11309700000.0 11309700000.0 11309700000.0 11309700000.0 11309700000.0 11309700000.0 11309700000.0 11309700000.0 11309700000.0 11309700000.0 11309700000.0 11309700000.0 11309700000.0 11309700000.0 11309700000.0 11309700000.0 11309700000.0 11309700000.0 11309700000.0 11309700000.0 11309700000.0 11309700000.0 11309700000.0 11309700000.0 11309700000.0 11309700000.0 11309700000.0 11309700000.0 11309700000.0 11309700000.0 11309700000.0 11309700000.0 11309700000.0 11309700000.0 11309700000.0 11309700000.0 11309700000.0 11309700000.0 11309700000.0 11309700000.0 11309700000.0 11309700000.0 11309700000.0 11309700000.0 11309700000.0 11309700000.0 11309700000.0 11309700000.0 11309700000.0 11309700000.0 11309700000.0 11309700000.0 11309700000.0 11309700000.0 11309700000.0 11309700000.0 11309700000.0 11309700000.0 11309700000.0 11309700000.0 11309700000.0 11309700000.0 11309700000.0 11309700000.0 11309700000.0 11309700000.0 11309700000.0 11309700000.0 11309700000.0 11309700000.0 11309700000.0 11309700000.0 11309700000.0 11309700000.0 11309700000.0 11309700000.0 11309700000.0 11309700000.0 11309700000.0 11309700000.0 11309700000.0 11309700000.0 11309700000.0 11309700000.0 11309700000.0 11309700000.0 11309700000.0 11309700000.0 11309700000.0 11309700000.0 11309700000.0 11309700000.0 11309700000.0 11309700000.0 11309700000.0 11309700000.0 11309700000.0 11309700000.0 11309700000.0 11309700000.0 11309700000.0 11309700000.0 11309700000.0 11309700000.0 11309700000.0 11309700000.0 11309700000.0 11309700000.0 11309700000.0 11309700000.0 11309700000.0 11309700000.0 11309700000.0 11309700000.0 11309700000.0 11309700000.0 11309700000.0 11309700000.0 11309700000.0 11309700000.0 11309700000.0 11309700000.0 11309700000.0 11309700000.0 11309700000.0 11309700000.0 11309700000.0 11309700000.0 11309700000.0 11309700000.0 11309700000.0 11309700000.0 11309700000.0 11309700000.0 11309700000.0 11309700000.0 11309700000.0 11309700000.0 11309700000.0 11309700000.0 11309700000.0 11309700000.0 11309700000.0 11309700000.0 11309700000.0 11309700000.0 11309700000.0 11309700000.0 11309700000.0 11309700000.0 11309700000.0 11309700000.0 11309700000.0 11309700000.0 11309700000.0 11309700000.0 11309700000.0 11309700000.0 11309700000.0 11309700000.0 11309700000.0 11309700000.0 11309700000.0 11309700000.0 11309700000.0 11309700000.0 11309700000.0 11309700000.0 11309700000.0 11309700000.0 11309700000.0 11309700000.0 11309700000.0 11309700000.0 11309700000.0 11309700000.0 11309700000.0 11309700000.0 11309700000.0 11309700000.0 11309700000.0 11309700000.0 11309700000.0 11309700000.0 11309700000.0 11309700000.0 11309700000.0 11309700000.0 11309700000.0 11309700000.0 11309700000.0 11309700000.0 11309700000.0 11309700000.0 11309700000.0 11309700000.0 11309700000.0 11309700000.0 11309700000.0 11309700000.0 11309700000.0 11309700000.0 11309700000.0 11309700000.0 11309700000.0 11309700000.0 11309700000.0 11309700000.0 11309700000.0 11309700000.0 11309700000.0 11309700000.0 11309700000.0 11309700000.0 11309700000.0 11309700000.0 11309700000.0 11309700000.0 11309700000.0 11309700000.0 11309700000.0 11309700000.0 11309700000.0 11309700000.0 11309700000.0 11309700000.0 11309700000.0 11309700000.0 11309700000.0 11309700000.0 11309700000.0 11309700000.0 11309700000.0 11309700000.0 11309700000.0 11309700000.0 11309700000.0 11309700000.0 11309700000.0 11309700000.0 11309700000.0 11309700000.0 11309700000.0 11309700000.0 11309700000.0 11309700000.0 11309700000.0 11309700000.0 11309700000.0 11309700000.0 11309700000.0 11309700000.0 11309700000.0 11309700000.0 11309700000.0 11309700000.0 11309700000.0 11309700000.0 11309700000.0 11309700000.0 11309700000.0 11309700000.0 11309700000.0 11309700000.0 11309700000.0 11309700000.0 11309700000.0 11309700000.0 11309700000.0 11309700000.0 11309700000.0 11309700000.0 11309700000.0 11309700000.0 11309700000.0 11309700000.0 11309700000.0 11309700000.0 11309700000.0 11309700000.0 11309700000.0 11309700000.0 11309700000.0 11309700000.0 11309700000.0 11309700000.0 11309700000.0 11309700000.0 11309700000.0 11309700000.0 11309700000.0 11309700000.0 11309700000.0 11309700000.0 11309700000.0 11309700000.0 11309700000.0 11309700000.0 11309700000.0 11309700000.0 11309700000.0 11309700000.0 11309700000.0 11309700000.0 11309700000.0 11309700000.0 11309700000.0 11309700000.0 11309700000.0 11309700000.0 11309700000.0 11309700000.0 11309700000.0 11309700000.0 11309700000.0 11309700000.0 11309700000.0 11309700000.0 11309700000.0 11309700000.0 11309700000.0 11309700000.0 11309700000.0 11309700000.0 11309700000.0 11309700000.0 11309700000.0 11309700000.0 11309700000.0 11309700000.0 11309700000.0 11309700000.0 11309700000.0 11309700000.0 11309700000.0 11309700000.0 11309700000.0 11309700000.0 11309700000.0 11309700000.0 11309700000.0 11309700000.0 11309700000.0 11309700000.0 11309700000.0 11309700000.0 11309700000.0 11309700000.0 11309700000.0 11309700000.0 11309700000.0 11309700000.0 11309700000.0 11309700000.0 11309700000.0 11309700000.0 11309700000.0 11309700000.0 11309700000.0 11309700000.0 11309700000.0 11309700000.0 11309700000.0 11309700000.0 11309700000.0 11309700000.0 11309700000.0 11309700000.0 11309700000.0 11309700000.0 11309700000.0 11309700000.0 11309700000.0 11309700000.0 11309700000.0 11309700000.0 11309700000.0 11309700000.0 11309700000.0 11309700000.0 11309700000.0 11309700000.0 11309700000.0 11309700000.0 11309700000.0 11309700000.0 11309700000.0 11309700000.0 11309700000.0 11309700000.0 11309700000.0 11309700000.0 11309700000.0 11309700000.0 11309700000.0 11309700000.0 11309700000.0 11309700000.0 11309700000.0 11309700000.0 11309700000.0 11309700000.0 11309700000.0 11309700000.0 11309700000.0 11309700000.0 11309700000.0 11309700000.0 11309700000.0 11309700000.0 11309700000.0 11309700000.0 11309700000.0 11309700000.0 11309700000.0 11309700000.0 11309700000.0 11309700000.0 11309700000.0 11309700000.0 11309700000.0 11309700000.0 11309700000.0 11309700000.0 11309700000.0 11309700000.0 11309700000.0 11309700000.0 11309700000.0 11309700000.0 11309700000.0 11309700000.0 11309700000.0 11309700000.0 11309700000.0 11309700000.0 11309700000.0 11309700000.0 11309700000.0 11309700000.0 11309700000.0 11309700000.0 11309700000.0 11309700000.0 11309700000.0 11309700000.0 11309700000.0 11309700000.0 11309700000.0 11309700000.0 11309700000.0 11309700000.0 11309700000.0 11309700000.0 11309700000.0 11309700000.0 11309700000.0 11309700000.0 11309700000.0 11309700000.0 11309700000.0 11309700000.0 11309700000.0 11309700000.0 11309700000.0 11309700000.0 11309700000.0 11309700000.0 11309700000.0 11309700000.0 11309700000.0 11309700000.0 11309700000.0 11309700000.0 11309700000.0 11309700000.0 11309700000.0 11309700000.0 11309700000.0 11309700000.0 11309700000.0 11309700000.0 11309700000.0 11309700000.0 11309700000.0 11309700000.0 11309700000.0 11309700000.0 11309700000.0 11309700000.0 11309700000.0 11309700000.0 11309700000.0 11309700000.0 11309700000.0 11309700000.0 11309700000.0 11309700000.0 11309700000.0 11309700000.0 11309700000.0 11309700000.0 11309700000.0 11309700000.0 11309700000.0 11309700000.0 11309700000.0 11309700000.0 11309700000.0 11309700000.0 11309700000.0 11309700000.0 11309700000.0 11309700000.0 11309700000.0 11309700000.0 11309700000.0 11309700000.0 11309700000.0 11309700000.0 11309700000.0 11309700000.0 11309700000.0 11309700000.0 11309700000.0 11309700000.0 11309700000.0 11309700000.0 11309700000.0 11309700000.0 11309700000.0 11309700000.0 11309700000.0 11309700000.0 11309700000.0 11309700000.0 11309700000.0 11309700000.0 11309700000.0 11309700000.0 11309700000.0 11309700000.0 11309700000.0 11309700000.0 11309700000.0 11309700000.0 11309700000.0 11309700000.0 11309700000.0 11309700000.0 11309700000.0 11309700000.0 11309700000.0 11309700000.0 11309700000.0 11309700000.0 11309700000.0 11309700000.0 11309700000.0 11309700000.0 11309700000.0 11309700000.0 11309700000.0 11309700000.0 11309700000.0 11309700000.0 11309700000.0 11309700000.0 11309700000.0 11309700000.0 11309700000.0 11309700000.0 11309700000.0 11309700000.0 11309700000.0 11309700000.0 11309700000.0 11309700000.0 11309700000.0 11309700000.0 11309700000.0 11309700000.0 11309700000.0 11309700000.0 11309700000.0 11309700000.0 11309700000.0 11309700000.0 11309700000.0 11309700000.0 11309700000.0 11309700000.0 11309700000.0 11309700000.0 11309700000.0 11309700000.0 11309700000.0 11309700000.0 11309700000.0 11309700000.0 11309700000.0 11309700000.0 11309700000.0 11309700000.0 11309700000.0 11309700000.0 11309700000.0 11309700000.0 11309700000.0 11309700000.0 11309700000.0 11309700000.0 11309700000.0 11309700000.0 11309700000.0 11309700000.0 11309700000.0 11309700000.0 11309700000.0 11309700000.0 11309700000.0 11309700000.0 11309700000.0 11309700000.0 11309700000.0 11309700000.0 11309700000.0 11309700000.0 11309700000.0 11309700000.0 11309700000.0 11309700000.0 11309700000.0 11309700000.0 11309700000.0 11309700000.0 11309700000.0 11309700000.0 11309700000.0 11309700000.0 11309700000.0 11309700000.0 11309700000.0 11309700000.0 11309700000.0 11309700000.0 11309700000.0 11309700000.0 11309700000.0 11309700000.0 11309700000.0 11309700000.0 11309700000.0 11309700000.0 11309700000.0 11309700000.0 11309700000.0 11309700000.0 11309700000.0 11309700000.0 11309700000.0 11309700000.0 11309700000.0 11309700000.0 11309700000.0 11309700000.0 11309700000.0 11309700000.0 11309700000.0 11309700000.0 11309700000.0 11309700000.0 11309700000.0 11309700000.0 11309700000.0 11309700000.0 11309700000.0 11309700000.0 11309700000.0 11309700000.0 11309700000.0 11309700000.0 11309700000.0 11309700000.0 11309700000.0 11309700000.0 11309700000.0 11309700000.0 
SCALARS Velocity float 1
LOOKUP_TABLE default
0.893832 0.893832 0.893832 0.893832 0.893832 0.893832 0.893832 0.893832 0.893832 0.893832 0.893832 0.893832 0.893832 0.893832 0.893832 0.893832 0.893832 0.893832 0.893832 0.893832 0.893832 0.893832 0.893832 0.893832 0.893832 0.893832 0.893832 0.893832 0.893832 0.893832 0.893832 0.893832 0.893832 0.893832 0.893832 0.893832 0.893832 0.893832 0.893832 0.893832 0.893832 0.893832 0.893832 0.893832 0.893832 0.893832 0.893832 0.893832 0.893832 0.893832 0.893832 0.893832 0.893832 0.893832 0.893832 0.893832 0.893832 0.893832 0.893832 0.893832 0.893832 0.893832 0.893832 0.893832 0.893832 0.893832 0.893832 0.893832 0.893832 0.893832 0.893832 0.893832 0.893832 0.893832 0.893832 0.893832 0.893832 0.893832 0.893832 0.893832 0.893832 0.893832 0.893832 0.893832 0.893832 0.893832 0.893832 0.893832 0.893832 0.893832 0.893832 0.893832 0.893832 0.893832 0.893832 0.893832 0.893832 0.893832 0.893832 0.893832 0.893832 0.893832 0.893832 0.893832 0.893832 0.893832 0.893832 0.893832 0.893832 0.893832 0.893832 0.893832 0.893832 0.893832 0.893832 0.893832 0.893832 0.893832 0.893832 0.893832 0.893832 0.893832 0.893832 0.893832 0.893832 0.893832 0.893832 0.893832 0.893832 0.893832 0.893832 0.893832 0.893832 0.893832 0.893832 0.893832 0.893832 0.893832 0.893832 0.893832 0.893832 0.893832 0.893832 0.893832 0.893832 0.893832 0.893832 0.893832 0.893832 0.893832 0.893832 0.893832 0.893832 0.893832 0.893832 0.893832 0.893832 0.893832 0.893832 0.893832 0.893832 0.893832 0.893832 0.893832 0.893832 0.893832 0.893832 0.893832 0.893832 0.893832 0.893832 0.893832 0.893832 0.893832 0.893832 0.893832 0.893832 0.893832 0.893832 0.893832 0.893832 0.893832 0.893832 0.893832 0.893832 0.893832 0.893832 0.893832 0.893832 0.893832 0.893832 0.893832 0.893832 0.893832 0.893832 0.893832 0.893832 0.893832 0.893832 0.893832 0.893832 0.893832 0.893832 0.893832 0.893832 0.893832 0.893832 0.893832 0.893832 0.893832 0.893832 0.893832 0.893832 0.893832 0.893832 0.893832 0.893832 0.893832 0.893832 0.893832 0.893832 0.893832 0.893832 0.893832 0.893832 0.893832 0.893832 0.893832 0.893832 0.893832 0.893832 0.893832 0.893832 0.893832 0.893832 0.893832 0.893832 0.893832 0.893832 0.893832 0.893832 0.893832 0.893832 0.893832 0.893832 0.893832 0.893832 0.893832 0.893832 0.893832 0.893832 0.893832 0.893832 0.893832 0.893832 0.893832 0.893832 0.893832 0.893832 0.893832 0.893832 0.893832 0.893832 0.893832 0.893832 0.893832 0.893832 0.893832 0.893832 0.893832 0.893832 0.893832 0.893832 0.893832 0.893832 0.893832 0.893832 0.893832 0.893832 0.893832 0.893832 0.893832 0.893832 0.893832 0.893832 0.893832 0.893832 0.893832 0.893832 0.893832 0.893832 0.893832 0.893832 0.893832 0.893832 0.893832 0.893832 0.893832 0.893832 0.893832 0.893832 0.893832 0.893832 0.893832 0.893832 0.893832 0.893832 0.893832 0.893832 0.893832 0.893832 0.893832 0.893832 0.893832 0.893832 0.893832 0.893832 0.893832 0.893832 0.893832 0.893832 0.893832 0.893832 0.893832 0.893832 0.893832 0.893832 0.893832 0.893832 0.893832 0.893832 0.893832 0.893832 0.893832 0.893832 0.893832 0.893832 0.893832 0.893832 0.893832 0.893832 0.893832 0.893832 0.893832 0.893832 0.893832 0.893832 0.893832 0.893832 0.893832 0.893832 0.893832 0.893832 0.893832 0.893832 0.893832 0.893832 0.893832 0.893832 0.893832 0.893832 0.893832 0.893832 0.893832 0.893832 0.893832 0.893832 0.893832 0.893832 0.893832 0.893832 0.893832 0.893832 0.893832 0.893832 0.893832 0.893832 0.893832 0.893832 0.893832 0.893832 0.893832 0.893832 0.893832 0.893832 0.893832 0.893832 0.893832 0.893832 0.893832 0.893832 0.893832 0.893832 0.893832 0.893832 0.893832 0.893832 0.893832 0.893832 0.893832 0.893832 0.893832 0.893832 0.893832 0.893832 0.893832 0.893832 0.893832 0.893832 0.893832 0.893832 0.893832 0.893832 0.893832 0.893832 0.893832 0.893832 0.893832 0.893832 0.893832 0.893832 0.893832 0.893832 0.893832 0.893832 0.893832 0.893832 0.893832 0.893832 0.893832 0.893832 0.893832 0.893832 0.893832 0.893832 0.893832 0.893832 0.893832 0.893832 0.893832 0.893832 0.893832 0.893832 0.893832 0.893832 0.893832 0.893832 0.893832 0.893832 0.893832 0.893832 0.893832 0.893832 0.893832 0.893832 0.893832 0.893832 0.893832 0.893832 0.893832 0.893832 0.893832 0.893832 0.893832 0.893832 0.893832 0.893832 0.893832 0.893832 0.893832 0.893832 0.893832 0.893832 0.893832 0.893832 0.893832 0.893832 0.893832 0.893832 0.893832 0.893832 0.893832 0.893832 0.893832 0.893832 0.893832 0.893832 0.893832 0.893832 0.893832 0.893832 0.893832 0.893832 0.893832 0.893832 0.893832 0.893832 0.893832 0.893832 0.893832 0.893832 0.893832 0.893832 0.893832 0.893832 0.893832 0.893832 0.893832 0.893832 0.893832 0.893832 0.893832 0.893832 0.893832 0.893832 0.893832 0.893832 0.893832 0.893832 0.893832 0.893832 0.893832 0.893832 0.893832 0.893832 0.893832 0.893832 0.893832 0.893832 0.893832 0.893832 0.893832 0.893832 0.893832 0.893832 0.893832 0.893832 0.893832 0.893832 0.893832 0.893832 0.893832 0.893832 0.893832 0.893832 0.893832 0.893832 0.893832 0.893832 0.893832 0.893832 0.893832 0.893832 0.893832 0.893832 0.893832 0.893832 0.893832 0.893832 0.893832 0.893832 0.893832 0.893832 0.893832 0.893832 0.893832 0.893832 0.893832 0.893832 0.893832 0.893832 0.893832 0.893832 0.893832 0.893832 0.893832 0.893832 0.893832 0.893832 0.893832 0.893832 0.893832 0.893832 0.893832 0.893832 0.893832 0.893832 0.893832 0.893832 0.893832 0.893832 0.893832 0.893832 0.893832 0.893832 0.893832 0.893832 0.893832 0.893832 0.893832 0.893832 0.893832 0.893832 0.893832 0.893832 0.893832 0.893832 0.893832 0.893832 0.893832 0.893832 0.893832 0.893832 0.893832 0.893832 0.893832 0.893832 0.893832 0.893832 0.893832 0.893832 0.893832 0.893832 0.893832 0.893832 0.893832 0.893832 0.893832 0.893832 0.893832 0.893832 0.893832 0.893832 0.893832 0.893832 0.893832 0.893832 0.893832 0.893832 0.893832 0.893832 0.893832 0.893832 0.893832 0.893832 0.893832 0.893832 0.893832 0.893832 0.893832 0.893832 0.893832 0.893832 0.893832 0.893832 0.893832 0.893832 0.893832 0.893832 0.893832 0.893832 0.893832 0.893832 0.893832 0.893832 0.893832 0.893832 0.893832 0.893832 0.893832 0.893832 0.893832 0.893832 0.893832 0.893832 0.893832 0.893832 0.893832 0.893832 0.893832 0.893832 0.893832 0.893832 0.893832 0.893832 0.893832 0.893832 0.893832 0.893832 0.893832 0.893832 0.893832 0.893832 0.893832 0.893832 0.893832 0.893832 0.893832 0.893832 0.893832 0.893832 0.893832 0.893832 0.893832 0.893832 0.893832 0.893832 0.893832 0.893832 0.893832 0.893832 0.893832 0.893832 0.893832 0.893832 0.893832 0.893832 0.893832 0.893832 0.893832 0.893832 0.893832 0.893832 0.893832 0.893832 0.893832 0.893832 0.893832 0.893832 0.893832 0.893832 0.893832 0.893832 0.893832 0.893832 0.893832 0.893832 0.893832 0.893832 0.893832 0.893832 0.893832 0.893832 0.893832 0.893832 0.893832 0.893832 0.893832 0.893832 0.893832 0.893832 0.893832 0.893832 0.893832 0.893832 0.893832 0.893832 0.893832 0.893832 0.893832 0.893832 0.893832 0.893832 0.893832 0.893832 0.893832 0.893832 0.893832 0.893832 0.893832 0.893832 0.893832 0.893832 0.893832 0.893832 0.893832 0.893832 0.893832 0.893832 0.893832 0.893832 0.893832 0.893832 0.893832 0.893832 0.893832 0.893832 0.893832 0.893832 0.893832 0.893832 0.893832 0.893832 0.893832 0.893832 0.893832 0.893832 0.893832 0.893832 0.893832 0.893832 0.893832 0.893832 0.893832 0.893832 0.893832 0.893832 0.893832 0.893832 0.893832 0.893832 0.893832 0.893832 0.893832 0.893832 0.893832 0.893832 0.893832 0.893832 0.893832 0.893832 0.893832 0.893832 0.893832 0.893832 0.893832 0.893832 0.893832 0.893832 0.893832 0.893832 0.893832 0.893832 0.893832 0.893832 0.893832 0.893832 0.893832 0.893832 0.893832 0.893832 0.893832 0.893832 0.893832 0.893832 0.893832 0.893832 0.893832 0.893832 0.893832 0.893832 0.893832 0.893832 0.893832 0.893832 0.893832 0.893832 0.893832 0.893832 0.893832 0.893832 0.893832 0.893832 0.893832 0.893832 0.893832 0.893832 0.893832 0.893832 0.893832 0.893832 0.893832 0.893832 0.893832 0.893832 0.893832 0.893832 0.893832 0.893832 0.893832 0.893832 0.893832 0.893832 0.893832 0.893832 0.893832 0.893832 0.893832 0.893832 0.893832 0.893832 0.893832 0.893832 0.893832 0.893832 0.893832 0.893832 0.893832 0.893832 0.893832 0.893832 0.893832 0.893832 0.893832 0.893832 0.893832 0.893832 0.893832 0.893832 0.893832 0.893832 0.893832 0.893832 0.893832 0.893832 0.893832 0.893832 0.893832 0.893832 0.893832 0.893832 0.893832 0.893832 0.893832 0.893832 0.893832 0.893832 0.893832 0.893832 0.893832 0.893832 0.893832 0.893832 0.893832 0.893832 0.893832 0.893832 0.893832 0.893832 0.893832 0.893832 0.893832 0.893832 0.893832 0.893832 0.893832 0.893832 0.893832 0.893832 0.893832 0.893832 0.893832 0.893832 0.893832 0.893832 0.893832 0.893832 0.893832 0.893832 0.893832 0.893832 0.893832 0.893832 0.893832 0.893832 0.893832 0.893832 0.893832 0.893832 0.893832 0.893832 0.893832 0.893832 0.893832 0.893832 0.893832 0.893832 0.893832 0.893832 0.893832 0.893832 0.893832 0.893832 0.893832 0.893832 0.893832 0.893832 0.893832 0.893832 0.893832 0.893832 0.893832 0.893832 0.893832 0.893832 0.893832 0.893832 0.893832 0.893832 0.893832 0.893832 0.893832 0.893832 0.893832 0.893832 0.893832 0.893832 0.893832 0.893832 0.893832 0.893832 0.893832 0.893832 0.893832 0.893832 0.893832 0.893832 0.893832 0.893832 0.893832 0.893832 0.893832 0.893832 0.893832 0.893832 0.893832 0.893832 0.893832 0.893832 0.893832 0.893832 0.893832 0.893832 0.893832 0.893832 0.893832 0.893832 0.893832 0.893832 0.893832 0.893832 0.893832 0.893832 0.893832 0.893832 0.893832 0.893832 0.893832 0.893832 0.893832 0.893832 0.893832 0.893832 0.893832 0.893832 0.893832 0.893832 0.893832 0.893832 0.893832 0.893832 0.893832 0.893832 0.893832 0.893832 0.893832 0.893832 0.893832 0.893832 0.893832 0.893832 0.893832 0.893832 0.893832 0.893832 0.893832 0.893832 0.893832 0.893832 0.893832 0.893832 0.893832 0.893832 0.893832 0.893832 0.893832 0.893832 0.893832 0.893832 0.893832 0.893832 0.893832 0.893832 0.893832 0.893832 0.893832 0.893832 0.893832 0.893832 0.893832 0.893832 0.893832 0.893832 0.893832 0.893832 0.893832 0.893832 0.893832 0.893832 0.893832 0.893832 0.893832 0.893832 0.893832 0.893832 0.893832 0.893832 0.893832 0.893832 0.893832 0.893832 0.893832 0.893832 0.893832 0.893832 0.893832 0.893832 0.893832 0.893832 0.893832 0.893832 0.893832 0.893832 0.893832 0.893832 0.893832 0.893832 0.893832 0.893832 0.893832 0.893832 0.893832 0.893832 0.893832 0.893832 0.893832 0.893832 0.893832 0.893832 0.893832 0.893832 0.893832 0.893832 0.893832 0.893832 0.893832 0.893832 0.893832 0.893832 0.893832 0.893832 0.893832 0.893832 0.893832 0.893832 0.893832 0.893832 0.893832 0.893832 0.893832 0.893832 0.893832 0.893832 0.893832 0.893832 0.893832 0.893832 0.893832 0.893832 0.893832 0.893832 0.893832 0.893832 0.893832 0.893832 0.893832 0.893832 0.893832 0.893832 0.893832 0.893832 0.893832 0.893832 0.893832 0.893832 0.893832 0.893832 0.893832 0.893832 0.893832 0.893832 0.893832 0.893832 0.893832 0.893832 0.893832 0.893832 0.893832 0.893832 0.893832 0.893832 0.893832 0.893832 0.893832 0.893832 0.893832 0.893832 0.893832 0.893832 0.893832 0.893832 0.893832 0.893832 0.893832 0.893832 0.893832 0.893832 0.893832 0.893832 0.893832 0.893832 0.893832 0.893832 0.893832 0.893832 0.893832 0.893832 0.893832 0.893832 0.893832 0.893832 0.893832 0.893832 0.893832 0.893832 0.893832 0.893832 0.893832 0.893832 0.893832 0.893832 0.893832 0.893832 0.893832 0.893832 0.893832 0.893832 0.893832 0.893832 0.893832 0.893832 0.893832 0.893832 0.893832 0.893832 0.893832 0.893832 0.893832 0.893832 0.893832 0.893832 0.893832 0.893832 0.893832 0.893832 0.893832 0.893832 0.893832 0.893832 0.893832 0.893832 0.893832 0.893832 0.893832 0.893832 0.893832 0.893832 0.893832 0.893832 0.893832 0.893832 0.893832 0.893832 0.893832 0.893832 0.893832 0.893832 0.893832 0.893832 0.893832 0.893832 0.893832 0.893832 0.893832 0.893832 0.893832 0.893832 0.893832 0.893832 0.893832 0.893832 0.893832 0.893832 0.893832 0.893832 0.893832 0.893832 0.893832 0.893832 0.893832 0.893832 0.893832 0.893832 0.893832 0.893832 0.893832 0.893832 0.893832 0.893832 0.893832 0.893832 0.893832 0.893832 0.893832 0.893832 0.893832 0.893832 0.893832 0.893832 0.893832 0.893832 0.893832 0.893832 0.893832 0.893832 0.893832 0.893832 0.893832 0.893832 0.893832 0.893832 0.893832 0.893832 0.893832 0.893832 0.893832 0.893832 0.893832 0.893832 0.893832 0.893832 0.893832 0.893832 0.893832 0.893832 0.893832 0.893832 0.893832 0.893832 0.893832 0.893832 0.893832 0.893832 0.893832 0.893832 0.893832 0.893832 0.893832 0.893832 0.893832 0.893832 0.893832 0.893832 0.893832 0.893832 0.893832 0.893832 0.893832 0.893832 0.893832 0.893832 0.893832 0.893832 0.893832 0.893832 0.893832 0.893832 0.893832 0.893832 0.893832 0.893832 0.893832 0.893832 0.893832 0.893832 0.893832 0.893832 0.893832 0.893832 0.893832 0.893832 0.893832 0.893832 0.893832 0.893832 0.893832 0.893832 0.893832 0.893832 0.893832 0.893832 0.893832 0.893832 0.893832 0.893832 0.893832 0.893832 0.893832 0.893832 0.893832 0.893832 0.893832 0.893832 0.893832 0.893832 0.893832 0.893832 0.893832 0.893832 0.893832 0.893832 0.893832 0.893832 0.893832 0.893832 0.893832 0.893832 0.893832 0.893832 0.893832 0.893832 0.893832 0.893832 0.893832 0.893832 0.893832 0.893832 0.893832 0.893832 0.893832 0.893832 0.893832 0.893832 0.893832 0.893832 0.893832 0.893832 0.893832 0.893832 0.893832 0.893832 0.893832 0.893832 0.893832 0.893832 0.893832 0.893832 0.893832 0.893832 0.893832 0.893832 0.893832 0.893832 0.893832 0.893832 0.893832 0.893832 0.893832 0.893832 0.893832 0.893832 0.893832 0.893832 0.893832 0.893832 0.893832 0.893832 0.893832 0.893832 0.893832 0.893832 0.893832 0.893832 0.893832 0.893832 0.893832 0.893832 0.893832 0.893832 0.893832 0.893832 0.893832 0.893832 0.893832 0.893832 0.893832 0.893832 0.893832 0.893832 0.893832 0.893832 0.893832 0.893832 0.893832 0.893832 0.893832 0.893832 0.893832 0.893832 0.893832 0.893832 0.893832 0.893832 0.893832 0.893832 0.893832 0.893832 0.893832 0.893832 0.893832 0.893832 0.893832 0.893832 0.893832 0.893832 0.893832 0.893832 0.893832 0.893832 0.893832 0.893832 0.893832 0.893832 0.893832 0.893832 0.893832 0.893832 0.893832 0.893832 0.893832 0.893832 0.893832 0.893832 0.893832 0.893832 0.893832 0.893832 0.893832 0.893832 0.893832 0.893832 0.893832 0.893832 0.893832 0.893832 0.893832 0.893832 0.893832 0.893832 0.893832 0.893832 0.893832 0.893832 0.893832 0.893832 0.893832 0.893832 0.893832 0.893832 0.893832 0.893832 0.893832 0.893832 0.893832 0.893832 0.893832 0.893832 0.893832 0.893832 0.893832 0.893832 0.893832 0.893832 0.893832 0.893832 0.893832 0.893832 0.893832 0.893832 0.893832 0.893832 0.893832 0.893832 0.893832 0.893832 0.893832 0.893832 0.893832 0.893832 0.893832 0.893832 0.893832 0.893832 0.893832 0.893832 0.893832 0.893832 0.893832 0.893832 0.893832 0.893832 0.893832 0.893832 0.893832 0.893832 0.893832 0.893832 0.893832 0.893832 0.893832 0.893832 0.893832 0.893832 0.893832 0.893832 0.893832 0.893832 0.893832 0.893832 0.893832 0.893832 0.893832 0.893832 0.893832 0.893832 0.893832 0.893832 0.893832 0.893832 0.893832 0.893832 0.893832 0.893832 0.893832 0.893832 0.893832 0.893832 0.893832 0.893832 0.893832 0.893832 0.893832 0.893832 0.893832 0.893832 0.893832 0.893832 0.893832 0.893832 0.893832 0.893832 0.893832 0.893832 0.893832 0.893832 0.893832 0.893832 0.893832 0.893832 0.893832 0.893832 0.893832 0.893832 0.893832 0.893832 0.893832 0.893832 0.893832 0.893832 0.893832 0.893832 0.893832 0.893832 0.893832 0.893832 0.893832 0.893832 0.893832 0.893832 0.893832 0.893832 0.893832 0.893832 0.893832 0.893832 0.893832 0.893832 0.893832 0.893832 0.893832 0.893832 0.893832 0.893832 0.893832 0.893832 0.893832 0.893832 0.893832 0.893832 0.893832 0.893832 0.893832 0.893832 0.893832 0.893832 0.893832 0.893832 0.893832 0.893832 0.893832 0.893832 0.893832 0.893832 0.893832 0.893832 0.893832 0.893832 0.893832 0.893832 0.893832 0.893832 0.893832 0.893832 0.893832 0.893832 0.893832 0.893832 0.893832 0.893832 0.893832 0.893832 0.893832 0.893832 0.893832 0.893832 0.893832 0.893832 0.893832 0.893832 0.893832 0.893832 0.893832 0.893832 0.893832 0.893832 0.893832 0.893832 0.893832 0.893832 0.893832 0.893832 0.893832 0.893832 0.893832 0.893832 0.893832 0.893832 0.893832 0.893832 0.893832 0.893832 0.893832 0.893832 0.893832 0.893832 0.893832 0.893832 0.893832 0.893832 0.893832 0.893832 0.893832 0.893832 0.893832 0.893832 0.893832 0.893832 0.893832 0.893832 0.893832 0.893832 0.893832 0.893832 0.893832 0.893832 0.893832 0.893832 0.893832 0.893832 0.893832 0.893832 0.893832 0.893832 0.893832 0.893832 0.893832 0.893832 0.893832 0.893832 0.893832 0.893832 0.893832 0.893832 0.893832 0.893832 0.893832 0.893832 0.893832 0.893832 0.893832 0.893832 0.893832 0.893832 0.893832 0.893832 0.893832 0.893832 0.893832 0.893832 0.893832 0.893832 0.893832 0.893832 0.893832 0.893832 0.893832 0.893832 0.893832 0.893832 0.893832 0.893832 0.893832 0.893832 0.893832 0.893832 0.893832 0.893832 0.893832 0.893832 0.893832 0.893832 0.893832 0.893832 0.893832 0.893832 0.893832 0.893832 0.893832 0.893832 0.893832 0.893832 0.893832 0.893832 0.893832 0.893832 0.893832 0.893832 0.893832 0.893832 0.893832 0.893832 0.893832 0.893832 0.893832 0.893832 0.893832 0.893832 0.893832 0.893832 0.893832 0.893832 0.893832 0.893832 0.893832 0.893832 0.893832 0.893832 0.893832 0.893832 0.893832 0.893832 0.893832 0.893832 0.893832 0.893832 0.893832 0.893832 0.893832 0.893832 0.893832 0.893832 0.893832 0.893832 0.893832 0.893832 0.893832 0.893832 0.893832 0.893832 0.893832 0.893832 0.893832 0.893832 0.893832 0.893832 0.893832 0.893832 0.893832 0.893832 0.893832 0.893832 0.893832 0.893832 0.893832 0.893832 0.893832 0.893832 0.893832 0.893832 0.893832 0.893832 0.893832 0.893832 0.893832 0.893832 0.893832 0.893832 0.893832 0.893832 0.893832 0.893832 0.893832 0.893832 0.893832 0.893832 0.893832 0.893832 0.893832 0.893832 0.893832 0.893832 0.893832 0.893832 0.893832 0.893832 0.893832 0.893832 0.893832 0.893832 0.893832 0.893832 0.893832 0.893832 0.893832 0.893832 0.893832 0.893832 0.893832 0.893832 0.893832 0.893832 0.893832 0.893832 0.893832 0.893832 0.893832 0.893832 0.893832 0.893832 0.893832 0.893832 0.893832 0.893832 0.893832 0.893832 0.893832 0.893832 0.893832 0.893832 0.893832 0.893832 0.893832 0.893832 0.893832 0.893832 0.893832 0.893832 0.893832 0.893832 0.893832 0.893832 0.893832 0.893832 0.893832 0.893832 0.893832 0.893832 0.893832 0.893832 0.893832 0.893832 0.893832 0.893832 0.893832 0.893832 0.893832 0.893832 0.893832 0.893832 0.893832 0.893832 0.893832 0.893832 0.893832 0.893832 0.893832 0.893832 0.893832 0.893832 0.893832 0.893832 0.893832 0.893832 0.893832 0.893832 0.893832 0.893832 0.893832 0.893832 0.893832 0.893832 0.893832 0.893832 0.893832 0.893832 0.893832 0.893832 0.893832 0.893832 0.893832 0.893832 0.893832 0.893832 0.893832 0.893832 0.893832 0.893832 0.893832 0.893832 0.893832 0.893832 0.893832 0.893832 0.893832 0.893832 0.893832 0.893832 0.893832 0.893832 0.893832 0.893832 0.893832 0.893832 0.893832 0.893832 0.893832 0.893832 0.893832 0.893832 0.893832 0.893832 0.893832 0.893832 0.893832 0.893832 0.893832 0.893832 0.893832 0.893832 0.893832 0.893832 0.893832 0.893832 0.893832 0.893832 0.893832 0.893832 0.893832 0.893832 0.893832 0.893832 0.893832 0.893832 0.893832 0.893832 0.893832 0.893832 0.893832 0.893832 0.893832 0.893832 0.893832 0.893832 0.893832 0.893832 0.893832 0.893832 0.893832 0.893832 0.893832 0.893832 0.893832 0.893832 0.893832 0.893832 0.893832 0.893832 0.893832 0.893832 0.893832 0.893832 0.893832 0.893832 0.893832 0.893832 0.893832 0.893832 0.893832 0.893832 0.893832 0.893832 0.893832 0.893832 0.893832 0.893832 0.893832 0.893832 0.893832 0.893832 0.893832 0.893832 0.893832 0.893832 0.893832 0.893832 0.893832 0.893832 0.893832 0.893832 0.893832 0.893832 0.893832 0.893832 0.893832 0.893832 0.893832 0.893832 0.893832 0.893832 0.893832 0.893832 0.893832 0.893832 0.893832 0.893832 0.893832 0.893832 0.893832 0.893832 0.893832 0.893832 0.893832 0.893832 0.893832 0.893832 0.893832 0.893832 0.893832 0.893832 0.893832 0.893832 0.893832 0.893832 0.893832 0.893832 0.893832 0.893832 0.893832 0.893832 0.893832 0.893832 0.893832 0.893832 0.893832 0.893832 0.893832 0.893832 0.893832 0.893832 0.893832 0.893832 0.893832 0.893832 0.893832 0.893832 0.893832 0.893832 0.893832 0.893832 0.893832 0.893832 0.893832 0.893832 0.893832 0.893832 0.893832 0.893832 0.893832 0.893832 0.893832 0.893832 0.893832 0.893832 0.893832 0.893832 0.893832 0.893832 0.893832 0.893832 0.893832 0.893832 0.893832 0.893832 0.893832 0.893832 0.893832 0.893832 0.893832 0.893832 0.893832 0.893832 0.893832 0.893832 0.893832 0.893832 0.893832 0.893832 0.893832 0.893832 0.893832 0.893832 0.893832 0.893832 0.893832 0.893832 0.893832 0.893832 0.893832 0.893832 0.893832 0.893832 0.893832 0.893832 0.893832 0.893832 0.893832 0.893832 0.893832 0.893832 0.893832 0.893832 0.893832 0.893832 0.893832 0.893832 0.893832 0.893832 0.893832 0.893832 0.893832 0.893832 0.893832 0.893832 0.893832 0.893832 0.893832 0.893832 0.893832 0.893832 0.893832 0.893832 0.893832 0.893832 0.893832 0.893832 0.893832 0.893832 0.893832 0.893832 0.893832 0.893832 0.893832 0.893832 0.893832 0.893832 0.893832 0.893832 0.893832 0.893832 0.893832 0.893832 0.893832 0.893832 0.893832 0.893832 0.893832 0.893832 0.893832 0.893832 0.893832 0.893832 0.893832 0.893832 0.893832 0.893832 0.893832 0.893832 0.893832 0.893832 0.893832 0.893832 0.893832 0.893832 0.893832 0.893832 0.893832 0.893832 0.893832 0.893832 0.893832 0.893832 0.893832 0.893832 0.893832 0.893832 0.893832 0.893832 0.893832 0.893832 0.893832 0.893832 0.893832 0.893832 0.893832 0.893832 0.893832 0.893832 0.893832 0.893832 0.893832 0.893832 0.893832 0.893832 0.893832 0.893832 0.893832 0.893832 0.893832 0.893832 0.893832 0.893832 0.893832 0.893832 0.893832 0.893832 0.893832 0.893832 0.893832 0.893832 0.893832 0.893832 0.893832 0.893832 0.893832 0.893832 0.893832 0.893832 0.893832 0.893832 0.893832 0.893832 0.893832 0.893832 0.893832 0.893832 0.893832 0.893832 0.893832 0.893832 0.893832 0.893832 0.893832 0.893832 0.893832 0.893832 0.893832 0.893832 0.893832 0.893832 0.893832 0.893832 0.893832 0.893832 0.893832 0.893832 0.893832 0.893832 0.893832 0.893832 0.893832 0.893832 0.893832 0.893832 0.893832 0.893832 0.893832 0.893832 0.893832 0.893832 0.893832 0.893832 0.893832 0.893832 0.893832 0.893832 0.893832 0.893832 0.893832 0.893832 0.893832 0.893832 0.893832 0.893832 0.893832 0.893832 0.893832 0.893832 0.893832 0.893832 0.893832 0.893832 0.893832 0.893832 0.893832 0.893832 0.893832 0.893832 0.893832 0.893832 0.893832 0.893832 0.893832 0.893832 0.893832 0.893832 0.893832 0.893832 0.893832 0.893832 0.893832 0.893832 0.893832 0.893832 0.893832 0.893832 0.893832 0.893832 0.893832 0.893832 0.893832 0.893832 0.893832 0.893832 0.893832 0.893832 0.893832 0.893832 0.893832 0.893832 0.893832 0.893832 0.893832 0.893832 0.893832 0.893832 0.893832 0.893832 0.893832 0.893832 0.893832 0.893832 0.893832 0.893832 0.893832 0.893832 0.893832 0.893832 0.893832 0.893832 0.893832 0.893832 0.893832 0.893832 0.893832 0.893832 0.893832 0.893832 0.893832 0.893832 0.893832 0.893832 0.893832 0.893832 0.893832 0.893832 0.893832 0.893832 0.893832 0.893832 0.893832 0.893832 0.893832 0.893832 0.893832 0.893832 0.893832 0.893832 0.893832 0.893832 0.893832 0.893832 0.893832 0.893832 0.893832 0.893832 0.893832 0.893832 0.893832 0.893832 0.893832 0.893832 0.893832 0.893832 0.893832 0.893832 0.893832 0.893832 0.893832 0.893832 0.893832 0.893832 0.893832 0.893832 0.893832 0.893832 0.893832 0.893832 0.893832 0.893832 0.893832 0.893832 0.893832 0.893832 0.893832 0.893832 0.893832 0.893832 0.893832 0.893832 0.893832 0.893832 0.893832 0.893832 0.893832 0.893832 0.893832 0.893832 0.893832 0.893832 0.893832 0.893832 0.893832 0.893832 0.893832 0.893832 0.893832 0.893832 0.893832 0.893832 0.893832 0.893832 0.893832 0.893832 0.893832 0.893832 0.893832 0.893832 0.893832 0.893832 0.893832 0.893832 0.893832 0.893832 0.893832 0.893832 0.893832 0.893832 0.893832 0.893832 0.893832 0.893832 0.893832 0.893832 0.893832 0.893832 0.893832 0.893832 0.893832 0.893832 0.893832 0.893832 0.893832 0.893832 0.893832 0.893832 0.893832 0.893832 0.893832 0.893832 0.893832 0.893832 0.893832 0.893832 0.893832 0.893832 0.893832 0.893832 0.893832 0.893832 0.893832 0.893832 0.893832 0.893832 0.893832 0.893832 0.893832 0.893832 0.893832 0.893832 0.893832 0.893832 0.893832 0.893832 0.893832 0.893832 0.893832 0.893832 0.893832 0.893832 0.893832 0.893832 0.893832 0.893832 0.893832 0.893832 0.893832 0.893832 0.893832 0.893832 0.893832 0.893832 0.893832 0.893832 0.893832 0.893832 0.893832 0.893832 0.893832 0.893832 0.893832 0.893832 0.893832 0.893832 0.893832 0.893832 0.893832 0.893832 0.893832 0.893832 0.893832 0.893832 0.893832 0.893832 0.893832 0.893832 0.893832 0.893832 0.893832 0.893832 0.893832 0.893832 0.893832 0.893832 0.893832 0.893832 0.893832 0.893832 0.893832 0.893832 0.893832 0.893832 0.893832 0.893832 0.893832 0.893832 0.893832 0.893832 0.893832 0.893832 0.893832 0.893832 0.893832 0.893832 0.893832 0.893832 0.893832 0.893832 0.893832 0.893832 0.893832 0.893832 0.893832 0.893832 0.893832 0.893832 0.893832 0.893832 0.893832 0.893832 0.893832 0.893832 0.893832 0.893832 0.893832 0.893832 0.893832 0.893832 0.893832 0.893832 0.893832 0.893832 0.893832 0.893832 0.893832 0.893832 0.893832 0.893832 0.893832 0.893832 0.893832 0.893832 0.893832 0.893832 0.893832 0.893832 0.893832 0.893832 0.893832 0.893832 0.893832 0.893832 0.893832 0.893832 0.893832 0.893832 0.893832 0.893832 0.893832 0.893832 0.893832 0.893832 0.893832 0.893832 0.893832 0.893832 0.893832 0.893832 0.893832 0.893832 0.893832 0.893832 0.893832 0.893832 0.893832 0.893832 0.893832 0.893832 0.893832 0.893832 0.893832 0.893832 0.893832 0.893832 0.893832 0.893832 0.893832 0.893832 0.893832 0.893832 0.893832 0.893832 0.893832 0.893832 0.893832 0.893832 0.893832 0.893832 0.893832 0.893832 0.893832 0.893832 0.893832 0.893832 0.893832 0.893832 0.893832 0.893832 0.893832 0.893832 0.893832 0.893832 0.893832 0.893832 0.893832 0.893832 0.893832 0.893832 0.893832 0.893832 0.893832 0.893832 0.893832 0.893832 0.893832 0.893832 0.893832 0.893832 0.893832 0.893832 0.893832 0.893832 0.893832 0.893832 0.893832 0.893832 0.893832 0.893832 0.893832 0.893832 0.893832 0.893832 0.893832 0.893832 0.893832 0.893832 0.893832 0.893832 0.893832 0.893832 0.893832 0.893832 0.893832 0.893832 0.893832 0.893832 0.893832 0.893832 0.893832 0.893832 0.893832 0.893832 0.893832 0.893832 0.893832 0.893832 0.893832 0.893832 0.893832 0.893832 0.893832 0.893832 0.893832 0.893832 0.893832 0.893832 0.893832 0.893832 0.893832 0.893832 0.893832 0.893832 0.893832 0.893832 0.893832 0.893832 0.893832 0.893832 0.893832 0.893832 0.893832 0.893832 0.893832 0.893832 0.893832 0.893832 0.893832 0.893832 0.893832 0.893832 0.893832 0.893832 0.893832 0.893832 0.893832 0.893832 0.893832 0.893832 0.893832 0.893832 0.893832 0.893832 0.893832 0.893832 0.893832 0.893832 0.893832 0.893832 0.893832 0.893832 0.893832 0.893832 0.893832 0.893832 0.893832 0.893832 0.893832 0.893832 0.893832 0.893832 0.893832 0.893832 0.893832 0.893832 0.893832 0.893832 0.893832 0.893832 0.893832 0.893832 0.893832 0.893832 0.893832 0.893832 0.893832 0.893832 0.893832 0.893832 0.893832 0.893832 0.893832 0.893832 0.893832 0.893832 0.893832 0.893832 0.893832 0.893832 0.893832 0.893832 0.893832 0.893832 0.893832 0.893832 0.893832 0.893832 0.893832 0.893832 0.893832 0.893832 0.893832 0.893832 0.893832 0.893832 0.893832 0.893832 0.893832 0.893832 0.893832 0.893832 0.893832 0.893832 0.893832 0.893832 0.893832 0.893832 0.893832 0.893832 0.893832 0.893832 0.893832 0.893832 0.893832 0.893832 0.893832 0.893832 0.893832 0.893832 0.893832 0.893832 0.893832 0.893832 0.893832 0.893832 0.893832 0.893832 0.893832 0.893832 0.893832 0.893832 0.893832 0.893832 0.893832 0.893832 0.893832 0.893832 0.893832 0.893832 0.893832 0.893832 0.893832 0.893832 0.893832 0.893832 0.893832 0.893832 0.893832 0.893832 0.893832 0.893832 0.893832 0.893832 0.893832 0.893832 0.893832 0.893832 0.893832 0.893832 0.893832 0.893832 0.893832 0.893832 0.893832 0.893832 0.893832 0.893832 0.893832 0.893832 0.893832 0.893832 0.893832 0.893832 0.893832 0.893832 0.893832 0.893832 0.893832 0.893832 0.893832 0.893832 0.893832 0.893832 0.893832 0.893832 0.893832 0.893832 0.893832 0.893832 0.893832 0.893832 0.893832 0.893832 0.893832 0.893832 0.893832 0.893832 0.893832 0.893832 0.893832 0.893832 0.893832 0.893832 0.893832 0.893832 0.893832 0.893832 0.893832 0.893832 0.893832 0.893832 0.893832 0.893832 0.893832 0.893832 0.893832 0.893832 0.893832 0.893832 0.893832 0.893832 0.893832 0.893832 0.893832 0.893832 0.893832 0.893832 0.893832 0.893832 0.893832 0.893832 0.893832 0.893832 0.893832 0.893832 0.893832 0.893832 0.893832 0.893832 0.893832 0.893832 0.893832 0.893832 0.893832 0.893832 0.893832 0.893832 0.893832 0.893832 0.893832 0.893832 0.893832 0.893832 0.893832 0.893832 0.893832 0.893832 0.893832 0.893832 0.893832 0.893832 0.893832 0.893832 0.893832 0.893832 0.893832 0.893832 0.893832 0.893832 0.893832 0.893832 0.893832 0.893832 0.893832 0.893832 0.893832 0.893832 0.893832 0.893832 0.893832 0.893832 0.893832 0.893832 0.893832 0.893832 0.893832 0.893832 0.893832 0.893832 0.893832 0.893832 0.893832 0.893832 0.893832 0.893832 0.893832 0.893832 0.893832 0.893832 0.893832 0.893832 0.893832 0.893832 0.893832 0.893832 0.893832 0.893832 0.893832 0.893832 0.893832 0.893832 0.893832 0.893832 0.893832 0.893832 0.893832 0.893832 0.893832 0.893832 0.893832 0.893832 0.893832 0.893832 0.893832 0.893832 0.893832 0.893832 0.893832 0.893832 0.893832 0.893832 0.893832 0.893832 0.893832 0.893832 0.893832 0.893832 0.893832 0.893832 0.893832 0.893832 0.893832 0.893832 0.893832 0.893832 0.893832 0.893832 0.893832 0.893832 0.893832 0.893832 0.893832 0.893832 0.893832 0.893832 0.893832 0.893832 0.893832 0.893832 0.893832 0.893832 0.893832 0.893832 0.893832 0.893832 0.893832 0.893832 0.893832 0.893832 0.893832 0.893832 0.893832 0.893832 0.893832 0.893832 0.893832 0.893832 0.893832 0.893832 0.893832 0.893832 0.893832 0.893832 0.893832 0.893832 0.893832 0.893832 0.893832 0.893832 0.893832 0.893832 0.893832 0.893832 0.893832 0.893832 0.893832 0.893832 0.893832 0.893832 0.893832 0.893832 0.893832 0.893832 0.893832 0.893832 0.893832 0.893832 0.893832 0.893832 0.893832 0.893832 0.893832 0.893832 0.893832 0.893832 0.893832 0.893832 0.893832 0.893832 0.893832 0.893832 0.893832 0.893832 0.893832 0.893832 0.893832 0.893832 0.893832 0.893832 0.893832 0.893832 0.893832 0.893832 0.893832 0.893832 0.893832 0.893832 0.893832 0.893832 0.893832 0.893832 0.893832 0.893832 0.893832 0.893832 0.893832 0.893832 0.893832 0.893832 0.893832 0.893832 0.893832 0.893832 0.893832 0.893832 0.893832 0.893832 0.893832 0.893832 0.893832 0.893832 0.893832 0.893832 0.893832 0.893832 0.893832 0.893832 0.893832 0.893832 0.893832 0.893832 0.893832 0.893832 0.893832 0.893832 0.893832 0.893832 0.893832 0.893832 0.893832 0.893832 0.893832 0.893832 0.893832 0.893832 0.893832 0.893832 0.893832 0.893832 0.893832 0.893832 0.893832 0.893832 0.893832 0.893832 0.893832 0.893832 0.893832 0.893832 0.893832 0.893832 0.893832 0.893832 0.893832 0.893832 0.893832 0.893832 0.893832 0.893832 0.893832 0.893832 0.893832 0.893832 0.893832 0.893832 0.893832 0.893832 0.893832 0.893832 0.893832 0.893832 0.893832 0.893832 0.893832 0.893832 0.893832 0.893832 0.893832 0.893832 0.893832 0.893832 0.893832 0.893832 0.893832 0.893832 0.893832 0.893832 0.893832 0.893832 0.893832 0.893832 0.893832 0.893832 0.893832 0.893832 0.893832 0.893832 0.893832 0.893832 0.893832 0.893832 0.893832 0.893832 0.893832 0.893832 0.893832 0.893832 0.893832 0.893832 0.893832 0.893832 0.893832 0.893832 0.893832 0.893832 0.893832 0.893832 0.893832 0.893832 0.893832 0.893832 0.893832 0.893832 0.893832 0.893832 0.893832 0.893832 0.893832 0.893832 0.893832 0.893832 0.893832 0.893832 0.893832 0.893832 0.893832 0.893832 0.893832 0.893832 0.893832 0.893832 0.893832 0.893832 0.893832 0.893832 0.893832 0.893832 0.893832 0.893832 0.893832 0.893832 0.893832 0.893832 0.893832 0.893832 0.893832 0.893832 0.893832 0.893832 0.893832 0.893832 0.893832 0.893832 0.893832 0.893832 0.893832 0.893832 0.893832 0.893832 0.893832 0.893832 0.893832 0.893832 0.893832 0.893832 0.893832 0.893832 0.893832 0.893832 0.893832 0.893832 0.893832 0.893832 0.893832 0.893832 0.893832 0.893832 0.893832 0.893832 0.893832 0.893832 0.893832 0.893832 0.893832 0.893832 0.893832 0.893832 0.893832 0.893832 0.893832 0.893832 0.893832 0.893832 0.893832 0.893832 0.893832 0.893832 0.893832 0.893832 0.893832 0.893832 0.893832 0.893832 0.893832 0.893832 0.893832 0.893832 0.893832 0.893832 0.893832 0.893832 0.893832 0.893832 0.893832 0.893832 0.893832 0.893832 0.893832 0.893832 0.893832 0.893832 0.893832 0.893832 0.893832 0.893832 0.893832 0.893832 0.893832 0.893832 0.893832 0.893832 0.893832 0.893832 0.893832 0.893832 0.893832 0.893832 0.893832 0.893832 0.893832 0.893832 0.893832 0.893832 0.893832 0.893832 0.893832 0.893832 0.893832 0.893832 0.893832 0.893832 0.893832 0.893832 0.893832 0.893832 0.893832 0.893832 0.893832 0.893832 0.893832 0.893832 0.893832 0.893832 0.893832 0.893832 0.893832 0.893832 0.893832 0.893832 0.893832 0.893832 0.893832 0.893832 0.893832 0.893832 0.893832 0.893832 0.893832 0.893832 0.893832 0.893832 0.893832 0.893832 0.893832 0.893832 0.893832 0.893832 0.893832 0.893832 0.893832 0.893832 0.893832 0.893832 0.893832 0.893832 0.893832 0.893832 0.893832 0.893832 0.893832 0.893832 0.893832 0.893832 0.893832 0.893832 0.893832 0.893832 0.893832 0.893832 0.893832 0.893832 0.893832 0.893832 0.893832 0.893832 0.893832 0.893832 0.893832 0.893832 0.893832 0.893832 0.893832 0.893832 0.893832 0.893832 0.893832 0.893832 0.893832 0.893832 0.893832 0.893832 0.893832 0.893832 0.893832 0.893832 0.893832 0.893832 0.893832 0.893832 0.893832 0.893832 0.893832 0.893832 0.893832 0.893832 0.893832 0.893832 0.893832 0.893832 0.893832 0.893832 0.893832 0.893832 0.893832 0.893832 0.893832 0.893832 0.893832 0.893832 0.893832 0.893832 0.893832 0.893832 0.893832 0.893832 0.893832 0.893832 0.893832 0.893832 0.893832 0.893832 0.893832 0.893832 0.893832 0.893832 0.893832 0.893832 0.893832 0.893832 0.893832 0.893832 0.893832 0.893832 0.893832 0.893832 0.893832 0.893832 0.893832 0.893832 0.893832 0.893832 0.893832 0.893832 0.893832 0.893832 0.893832 0.893832 0.893832 0.893832 0.893832 0.893832 0.893832 0.893832 0.893832 0.893832 0.893832 0.893832 0.893832 0.893832 0.893832 0.893832 0.893832 0.893832 0.893832 0.893832 0.893832 0.893832 0.893832 0.893832 0.893832 0.893832 0.893832 0.893832 0.893832 0.893832 0.893832 0.893832 0.893832 0.893832 0.893832 0.893832 0.893832 0.893832 0.893832 0.893832 0.893832 0.893832 0.893832 0.893832 0.893832 0.893832 0.893832 0.893832 0.893832 0.893832 0.893832 0.893832 0.893832 0.893832 0.893832 0.893832 0.893832 0.893832 0.893832 0.893832 0.893832 0.893832 0.893832 0.893832 0.893832 0.893832 0.893832 0.893832 0.893832 0.893832 0.893832 0.893832 0.893832 0.893832 0.893832 0.893832 0.893832 0.893832 0.893832 0.893832 0.893832 0.893832 0.893832 0.893832 0.893832 0.893832 0.893832 0.893832 0.893832 0.893832 0.893832 0.893832 0.893832 0.893832 0.893832 0.893832 0.893832 0.893832 0.893832 0.893832 0.893832 0.893832 0.893832 0.893832 0.893832 0.893832 0.893832 0.893832 0.893832 0.893832 0.893832 0.893832 0.893832 0.893832 0.893832 0.893832 0.893832 0.893832 0.893832 0.893832 0.893832 0.893832 0.893832 0.893832 0.893832 0.893832 0.893832 0.893832 0.893832 0.893832 0.893832 0.893832 0.893832 0.893832 0.893832 0.893832 0.893832 0.893832 0.893832 0.893832 0.893832 0.893832 0.893832 0.893832 0.893832 0.893832 0.893832 0.893832 0.893832 0.893832 0.893832 0.893832 0.893832 0.893832 0.893832 0.893832 0.893832 0.893832 0.893832 0.893832 0.893832 0.893832 0.893832 0.893832 0.893832 0.893832 0.893832 0.893832 0.893832 0.893832 0.893832 0.893832 0.893832 0.893832 0.893832 0.893832 0.893832 0.893832 0.893832 0.893832 0.893832 0.893832 0.893832 0.893832 0.893832 0.893832 0.893832 0.893832 0.893832 0.893832 0.893832 0.893832 0.893832 0.893832 0.893832 0.893832 0.893832 0.893832 0.893832 0.893832 0.893832 0.893832 0.893832 0.893832 0.893832 0.893832 0.893832 0.893832 0.893832 0.893832 0.893832 0.893832 0.893832 0.893832 0.893832 0.893832 0.893832 0.893832 0.893832 0.893832 0.893832 0.893832 0.893832 0.893832 0.893832 0.893832 0.893832 0.893832 0.893832 0.893832 0.893832 0.893832 0.893832 0.893832 0.893832 0.893832 0.893832 0.893832 0.893832 0.893832 0.893832 0.893832 0.893832 0.893832 0.893832 0.893832 0.893832 0.893832 0.893832 0.893832 0.893832 0.893832 0.893832 0.893832 0.893832 0.893832 0.893832 0.893832 0.893832 0.893832 0.893832 0.893832 0.893832 0.893832 0.893832 0.893832 0.893832 0.893832 0.893832 0.893832 0.893832 0.893832 0.893832 0.893832 0.893832 0.893832 0.893832 0.893832 0.893832 0.893832 0.893832 0.893832 0.893832 0.893832 0.893832 0.893832 0.893832 0.893832 0.893832 0.893832 0.893832 0.893832 0.893832 0.893832 0.893832 0.893832 0.893832 0.893832 0.893832 0.893832 0.893832 0.893832 0.893832 0.893832 0.893832 0.893832 0.893832 0.893832 0.893832 0.893832 0.893832 0.893832 0.893832 0.893832 0.893832 0.893832 0.893832 0.893832 0.893832 0.893832 0.893832 0.893832 0.893832 0.893832 0.893832 0.893832 0.893832 0.893832 0.893832 0.893832 0.893832 0.893832 0.893832 0.893832 0.893832 0.893832 0.893832 0.893832 0.893832 0.893832 0.893832 0.893832 0.893832 0.893832 0.893832 0.893832 0.893832 0.893832 0.893832 0.893832 0.893832 0.893832 0.893832 0.893832 0.893832 0.893832 0.893832 0.893832 0.893832 0.893832 0.893832 0.893832 0.893832 0.893832 0.893832 0.893832 0.893832 0.893832 0.893832 0.893832 0.893832 0.893832 0.893832 0.893832 0.893832 0.893832 0.893832 0.893832 0.893832 0.893832 0.893832 0.893832 0.893832 0.893832 0.893832 0.893832 0.893832 0.893832 0.893832 0.893832 0.893832 0.893832 0.893832 0.893832 0.893832 0.893832 0.893832 0.893832 0.893832 0.893832 0.893832 0.893832 0.893832 0.893832 0.893832 0.893832 0.893832 0.893832 0.893832 0.893832 0.893832 0.893832 0.893832 0.893832 0.893832 0.893832 0.893832 0.893832 0.893832 0.893832 0.893832 0.893832 0.893832 0.893832 0.893832 0.893832 0.893832 0.893832 0.893832 0.893832 0.893832 0.893832 0.893832 0.893832 0.893832 0.893832 0.893832 0.893832 0.893832 0.893832 0.893832 0.893832 0.893832 0.893832 0.893832 0.893832 0.893832 0.893832 0.893832 0.893832 0.893832 0.893832 0.893832 0.893832 0.893832 0.893832 0.893832 0.893832 0.893832 0.893832 0.893832 0.893832 0.893832 0.893832 0.893832 0.893832 0.893832 0.893832 0.893832 0.893832 0.893832 0.893832 0.893832 0.893832 0.893832 0.893832 0.893832 0.893832 0.893832 0.893832 0.893832 0.893832 0.893832 0.893832 0.893832 0.893832 0.893832 0.893832 0.893832 0.893832 0.893832 0.893832 0.893832 0.893832 0.893832 0.893832 0.893832 0.893832 0.893832 0.893832 0.893832 0.893832 0.893832 0.893832 0.893832 0.893832 0.893832 0.893832 0.893832 0.893832 0.893832 0.893832 0.893832 0.893832 0.893832 0.893832 0.893832 0.893832 0.893832 0.893832 0.893832 0.893832 0.893832 0.893832 0.893832 0.893832 0.893832 0.893832 0.893832 0.893832 0.893832 0.893832 0.893832 0.893832 0.893832 0.893832 0.893832 0.893832 0.893832 0.893832 0.893832 0.893832 0.893832 0.893832 0.893832 0.893832 0.893832 0.893832 0.893832 0.893832 0.893832 0.893832 0.893832 0.893832 0.893832 0.893832 0.893832 0.893832 0.893832 0.893832 0.893832 0.893832 0.893832 0.893832 0.893832 0.893832 0.893832 0.893832 0.893832 0.893832 0.893832 0.893832 0.893832 0.893832 0.893832 0.893832 0.893832 0.893832 0.893832 0.893832 0.893832 0.893832 0.893832 0.893832 0.893832 0.893832 0.893832 0.893832 0.893832 0.893832 0.893832 0.893832 0.893832 0.893832 0.893832 0.893832 0.893832 0.893832 0.893832 0.893832 0.893832 0.893832 0.893832 0.893832 0.893832 0.893832 0.893832 0.893832 0.893832 0.893832 0.893832 0.893832 0.893832 0.893832 0.893832 0.893832 0.893832 0.893832 0.893832 0.893832 0.893832 0.893832 0.893832 0.893832 0.893832 0.893832 0.893832 0.893832 0.893832 0.893832 0.893832 0.893832 0.893832 0.893832 0.893832 0.893832 0.893832 0.893832 0.893832 0.893832 0.893832 0.893832 0.893832 0.893832 0.893832 0.893832 0.893832 0.893832 0.893832 0.893832 0.893832 0.893832 0.893832 0.893832 0.893832 0.893832 0.893832 0.893832 0.893832 0.893832 0.893832 0.893832 0.893832 0.893832 0.893832 0.893832 0.893832 0.893832 0.893832 0.893832 0.893832 0.893832 0.893832 0.893832 0.893832 0.893832 0.893832 0.893832 0.893832 0.893832 0.893832 0.893832 0.893832 0.893832 0.893832 0.893832 0.893832 0.893832 0.893832 0.893832 0.893832 0.893832 0.893832 0.893832 0.893832 0.893832 0.893832 0.893832 0.893832 0.893832 0.893832 0.893832 0.893832 0.893832 0.893832 0.893832 0.893832 0.893832 0.893832 0.893832 0.893832 0.893832 0.893832 0.893832 0.893832 0.893832 0.893832 0.893832 0.893832 0.893832 0.893832 0.893832 0.893832 0.893832 0.893832 0.893832 0.893832 0.893832 0.893832 0.893832 0.893832 0.893832 0.893832 0.893832 0.893832 0.893832 0.893832 0.893832 0.893832 0.893832 0.893832 0.893832 0.893832 0.893832 0.893832 0.893832 0.893832 0.893832 0.893832 0.893832 0.893832 0.893832 0.893832 0.893832 0.893832 0.893832 0.893832 0.893832 0.893832 0.893832 0.893832 0.893832 0.893832 0.893832 0.893832 0.893832 0.893832 0.893832 0.893832 0.893832 0.893832 0.893832 0.893832 0.893832 0.893832 0.893832 0.893832 0.893832 0.893832 0.893832 0.893832 0.893832 0.893832 0.893832 0.893832 0.893832 0.893832 0.893832 0.893832 0.893832 0.893832 0.893832 0.893832 0.893832 0.893832 0.893832 0.893832 0.893832 0.893832 0.893832 0.893832 0.893832 0.893832 0.893832 0.893832 0.893832 0.893832 0.893832 0.893832 0.893832 0.893832 0.893832 0.893832 0.893832 0.893832 0.893832 0.893832 0.893832 0.893832 0.893832 0.893832 0.893832 0.893832 0.893832 0.893832 0.893832 0.893832 0.893832 0.893832 0.893832 0.893832 0.893832 0.893832 0.893832 0.893832 0.893832 0.893832 0.893832 0.893832 0.893832 0.893832 0.893832 0.893832 0.893832 0.893832 0.893832 0.893832 0.893832 0.893832 0.893832 0.893832 0.893832 0.893832 0.893832 0.893832 0.893832 0.893832 
SCALARS Axial_Stress float 1
LOOKUP_TABLE default
-9035750000.0 -9035750000.0 -9035750000.0 -9035750000.0 -9035750000.0 -9035750000.0 -9035750000.0 -9035750000.0 -9035750000.0 -9035750000.0 -9035750000.0 -9035750000.0 -9035750000.0 -9035750000.0 -9035750000.0 -9035750000.0 -9035750000.0 -9035750000.0 -9035750000.0 -9035750000.0 -9035750000.0 -9035750000.0 -9035750000.0 -9035750000.0 -9035750000.0 -9035750000.0 -9035750000.0 -9035750000.0 -9035750000.0 -9035750000.0 -9035750000.0 -9035750000.0 -9035750000.0 -9035750000.0 -9035750000.0 -9035750000.0 -9035750000.0 -9035750000.0 -9035750000.0 -9035750000.0 -9035750000.0 -9035750000.0 -9035750000.0 -9035750000.0 -9035750000.0 -9035750000.0 -9035750000.0 -9035750000.0 -9035750000.0 -9035750000.0 -9035750000.0 -9035750000.0 -9035750000.0 -9035750000.0 -9035750000.0 -9035750000.0 -9035750000.0 -9035750000.0 -9035750000.0 -9035750000.0 -9035750000.0 -9035750000.0 -9035750000.0 -9035750000.0 -9035750000.0 -9035750000.0 -9035750000.0 -9035750000.0 -9035750000.0 -9035750000.0 -9035750000.0 -9035750000.0 -9035750000.0 -9035750000.0 -9035750000.0 -9035750000.0 -9035750000.0 -9035750000.0 -9035750000.0 -9035750000.0 -9035750000.0 -9035750000.0 -9035750000.0 -9035750000.0 -9035750000.0 -9035750000.0 -9035750000.0 -9035750000.0 -9035750000.0 -9035750000.0 -9035750000.0 -9035750000.0 -9035750000.0 -9035750000.0 -9035750000.0 -9035750000.0 -9035750000.0 -9035750000.0 -9035750000.0 -9035750000.0 -9035750000.0 -9035750000.0 -9035750000.0 -9035750000.0 -9035750000.0 -9035750000.0 -9035750000.0 -9035750000.0 -9035750000.0 -9035750000.0 -9035750000.0 -9035750000.0 -9035750000.0 -9035750000.0 -9035750000.0 -9035750000.0 -9035750000.0 -9035750000.0 -9035750000.0 -9035750000.0 -9035750000.0 -9035750000.0 -9035750000.0 -9035750000.0 -9035750000.0 -9035750000.0 -9035750000.0 -9035750000.0 -9035750000.0 -9035750000.0 -9035750000.0 -9035750000.0 -9035750000.0 -9035750000.0 -9035750000.0 -9035750000.0 -9035750000.0 -9035750000.0 -9035750000.0 -9035750000.0 -9035750000.0 -9035750000.0 -9035750000.0 -9035750000.0 -9035750000.0 -9035750000.0 -9035750000.0 -9035750000.0 -9035750000.0 -9035750000.0 -9035750000.0 -9035750000.0 -9035750000.0 -9035750000.0 -9035750000.0 -9035750000.0 -9035750000.0 -9035750000.0 -9035750000.0 -9035750000.0 -9035750000.0 -9035750000.0 -9035750000.0 -9035750000.0 -9035750000.0 -9035750000.0 -9035750000.0 -9035750000.0 -9035750000.0 -9035750000.0 -9035750000.0 -9035750000.0 -9035750000.0 -9035750000.0 -9035750000.0 -9035750000.0 -9035750000.0 -9035750000.0 -9035750000.0 -9035750000.0 -9035750000.0 -9035750000.0 -9035750000.0 -9035750000.0 -9035750000.0 -9035750000.0 -9035750000.0 -9035750000.0 -9035750000.0 -9035750000.0 -9035750000.0 -9035750000.0 -9035750000.0 -9035750000.0 -9035750000.0 -9035750000.0 -9035750000.0 -9035750000.0 -9035750000.0 -9035750000.0 -9035750000.0 -9035750000.0 -9035750000.0 -9035750000.0 -9035750000.0 -9035750000.0 -9035750000.0 -9035750000.0 -9035750000.0 -9035750000.0 -9035750000.0 -9035750000.0 -9035750000.0 -9035750000.0 -9035750000.0 -9035750000.0 -9035750000.0 -9035750000.0 -9035750000.0 -9035750000.0 -9035750000.0 -9035750000.0 -9035750000.0 -9035750000.0 -9035750000.0 -9035750000.0 -9035750000.0 -9035750000.0 -9035750000.0 -9035750000.0 -9035750000.0 -9035750000.0 -9035750000.0 -9035750000.0 -9035750000.0 -9035750000.0 -9035750000.0 -9035750000.0 -9035750000.0 -9035750000.0 -9035750000.0 -9035750000.0 -9035750000.0 -9035750000.0 -9035750000.0 -9035750000.0 -9035750000.0 -9035750000.0 -9035750000.0 -9035750000.0 -9035750000.0 -9035750000.0 -9035750000.0 -9035750000.0 -9035750000.0 -9035750000.0 -9035750000.0 -9035750000.0 -9035750000.0 -9035750000.0 -9035750000.0 -9035750000.0 -9035750000.0 -9035750000.0 -9035750000.0 -9035750000.0 -9035750000.0 -9035750000.0 -9035750000.0 -9035750000.0 -9035750000.0 -9035750000.0 -9035750000.0 -9035750000.0 -9035750000.0 -9035750000.0 -9035750000.0 -9035750000.0 -9035750000.0 -9035750000.0 -9035750000.0 -9035750000.0 -9035750000.0 -9035750000.0 -9035750000.0 -9035750000.0 -9035750000.0 -9035750000.0 -9035750000.0 -9035750000.0 -9035750000.0 -9035750000.0 -9035750000.0 -9035750000.0 -9035750000.0 -9035750000.0 -9035750000.0 -9035750000.0 -9035750000.0 -9035750000.0 -9035750000.0 -9035750000.0 -9035750000.0 -9035750000.0 -9035750000.0 -9035750000.0 -9035750000.0 -9035750000.0 -9035750000.0 -9035750000.0 -9035750000.0 -9035750000.0 -9035750000.0 -9035750000.0 -9035750000.0 -9035750000.0 -9035750000.0 -9035750000.0 -9035750000.0 -9035750000.0 -9035750000.0 -9035750000.0 -9035750000.0 -9035750000.0 -9035750000.0 -9035750000.0 -9035750000.0 -9035750000.0 -9035750000.0 -9035750000.0 -9035750000.0 -9035750000.0 -9035750000.0 -9035750000.0 -9035750000.0 -9035750000.0 -9035750000.0 -9035750000.0 -9035750000.0 -9035750000.0 -9035750000.0 -9035750000.0 -9035750000.0 -9035750000.0 -9035750000.0 -9035750000.0 -9035750000.0 -9035750000.0 -9035750000.0 -9035750000.0 -9035750000.0 -9035750000.0 -9035750000.0 -9035750000.0 -9035750000.0 -9035750000.0 -9035750000.0 -9035750000.0 -9035750000.0 -9035750000.0 -9035750000.0 -9035750000.0 -9035750000.0 -9035750000.0 -9035750000.0 -9035750000.0 -9035750000.0 -9035750000.0 -9035750000.0 -9035750000.0 -9035750000.0 -9035750000.0 -9035750000.0 -9035750000.0 -9035750000.0 -9035750000.0 -9035750000.0 -9035750000.0 -9035750000.0 -9035750000.0 -9035750000.0 -9035750000.0 -9035750000.0 -9035750000.0 -9035750000.0 -9035750000.0 -9035750000.0 -9035750000.0 -9035750000.0 -9035750000.0 -9035750000.0 -9035750000.0 -9035750000.0 -9035750000.0 -9035750000.0 -9035750000.0 -9035750000.0 -9035750000.0 -9035750000.0 -9035750000.0 -9035750000.0 -9035750000.0 -9035750000.0 -9035750000.0 -9035750000.0 -9035750000.0 -9035750000.0 -9035750000.0 -9035750000.0 -9035750000.0 -9035750000.0 -9035750000.0 -9035750000.0 -9035750000.0 -9035750000.0 -9035750000.0 -9035750000.0 -9035750000.0 -9035750000.0 -9035750000.0 -9035750000.0 -9035750000.0 -9035750000.0 -9035750000.0 -9035750000.0 -9035750000.0 -9035750000.0 -9035750000.0 -9035750000.0 -9035750000.0 -9035750000.0 -9035750000.0 -9035750000.0 -9035750000.0 -9035750000.0 -9035750000.0 -9035750000.0 -9035750000.0 -9035750000.0 -9035750000.0 -9035750000.0 -9035750000.0 -9035750000.0 -9035750000.0 -9035750000.0 -9035750000.0 -9035750000.0 -9035750000.0 -9035750000.0 -9035750000.0 -9035750000.0 -9035750000.0 -9035750000.0 -9035750000.0 -9035750000.0 -9035750000.0 -9035750000.0 -9035750000.0 -9035750000.0 -9035750000.0 -9035750000.0 -9035750000.0 -9035750000.0 -9035750000.0 -9035750000.0 -9035750000.0 -9035750000.0 -9035750000.0 -9035750000.0 -9035750000.0 -9035750000.0 -9035750000.0 -9035750000.0 -9035750000.0 -9035750000.0 -9035750000.0 -9035750000.0 -9035750000.0 -9035750000.0 -9035750000.0 -9035750000.0 -9035750000.0 -9035750000.0 -9035750000.0 -9035750000.0 -9035750000.0 -9035750000.0 -9035750000.0 -9035750000.0 -9035750000.0 -9035750000.0 -9035750000.0 -9035750000.0 -9035750000.0 -9035750000.0 -9035750000.0 -9035750000.0 -9035750000.0 -9035750000.0 -9035750000.0 -9035750000.0 -9035750000.0 -9035750000.0 -9035750000.0 -9035750000.0 -9035750000.0 -9035750000.0 -9035750000.0 -9035750000.0 -9035750000.0 -9035750000.0 -9035750000.0 -9035750000.0 -9035750000.0 -9035750000.0 -9035750000.0 -9035750000.0 -9035750000.0 -9035750000.0 -9035750000.0 -9035750000.0 -9035750000.0 -9035750000.0 -9035750000.0 -9035750000.0 -9035750000.0 -9035750000.0 -9035750000.0 -9035750000.0 -9035750000.0 -9035750000.0 -9035750000.0 -9035750000.0 -9035750000.0 -9035750000.0 -9035750000.0 -9035750000.0 -9035750000.0 -9035750000.0 -9035750000.0 -9035750000.0 -9035750000.0 -9035750000.0 -9035750000.0 -9035750000.0 -9035750000.0 -9035750000.0 -9035750000.0 -9035750000.0 -9035750000.0 -9035750000.0 -9035750000.0 -9035750000.0 -9035750000.0 -9035750000.0 -9035750000.0 -9035750000.0 -9035750000.0 -9035750000.0 -9035750000.0 -9035750000.0 -9035750000.0 -9035750000.0 -9035750000.0 -9035750000.0 -9035750000.0 -9035750000.0 -9035750000.0 -9035750000.0 -9035750000.0 -9035750000.0 -9035750000.0 -9035750000.0 -9035750000.0 -9035750000.0 -9035750000.0 -9035750000.0 -9035750000.0 -9035750000.0 -9035750000.0 -9035750000.0 -9035750000.0 -9035750000.0 -9035750000.0 -9035750000.0 -9035750000.0 -9035750000.0 -9035750000.0 -9035750000.0 -9035750000.0 -9035750000.0 -9035750000.0 -9035750000.0 -9035750000.0 -9035750000.0 -9035750000.0 -9035750000.0 -9035750000.0 -9035750000.0 -9035750000.0 -9035750000.0 -9035750000.0 -9035750000.0 -9035750000.0 -9035750000.0 -9035750000.0 -9035750000.0 -9035750000.0 -9035750000.0 -9035750000.0 -9035750000.0 -9035750000.0 -9035750000.0 -9035750000.0 -9035750000.0 -9035750000.0 -9035750000.0 -9035750000.0 -9035750000.0 -9035750000.0 -9035750000.0 -9035750000.0 -9035750000.0 -9035750000.0 -9035750000.0 -9035750000.0 -9035750000.0 -9035750000.0 -9035750000.0 -9035750000.0 -9035750000.0 -9035750000.0 -9035750000.0 -9035750000.0 -9035750000.0 -9035750000.0 -9035750000.0 -9035750000.0 -9035750000.0 -9035750000.0 -9035750000.0 -9035750000.0 -9035750000.0 -9035750000.0 -9035750000.0 -9035750000.0 -9035750000.0 -9035750000.0 -9035750000.0 -9035750000.0 -9035750000.0 -9035750000.0 -9035750000.0 -9035750000.0 -9035750000.0 -9035750000.0 -9035750000.0 -9035750000.0 -9035750000.0 -9035750000.0 -9035750000.0 -9035750000.0 -9035750000.0 -9035750000.0 -9035750000.0 -9035750000.0 -9035750000.0 -9035750000.0 -9035750000.0 -9035750000.0 -9035750000.0 -9035750000.0 -9035750000.0 -9035750000.0 -9035750000.0 -9035750000.0 -9035750000.0 -9035750000.0 -9035750000.0 -9035750000.0 -9035750000.0 -9035750000.0 -9035750000.0 -9035750000.0 -9035750000.0 -9035750000.0 -9035750000.0 -9035750000.0 -9035750000.0 -9035750000.0 -9035750000.0 -9035750000.0 -9035750000.0 -9035750000.0 -9035750000.0 -9035750000.0 -9035750000.0 -9035750000.0 -9035750000.0 -9035750000.0 -9035750000.0 -9035750000.0 -9035750000.0 -9035750000.0 -9035750000.0 -9035750000.0 -9035750000.0 -9035750000.0 -9035750000.0 -9035750000.0 -9035750000.0 -9035750000.0 -9035750000.0 -9035750000.0 -9035750000.0 -9035750000.0 -9035750000.0 -9035750000.0 -9035750000.0 -9035750000.0 -9035750000.0 -9035750000.0 -9035750000.0 -9035750000.0 -9035750000.0 -9035750000.0 -9035750000.0 -9035750000.0 -9035750000.0 -9035750000.0 -9035750000.0 -9035750000.0 -9035750000.0 -9035750000.0 -9035750000.0 -9035750000.0 -9035750000.0 -9035750000.0 -9035750000.0 -9035750000.0 -9035750000.0 -9035750000.0 -9035750000.0 -9035750000.0 -9035750000.0 -9035750000.0 -9035750000.0 -9035750000.0 -9035750000.0 -9035750000.0 -9035750000.0 -9035750000.0 -9035750000.0 -9035750000.0 -9035750000.0 -9035750000.0 -9035750000.0 -9035750000.0 -9035750000.0 -9035750000.0 -9035750000.0 -9035750000.0 -9035750000.0 -9035750000.0 -9035750000.0 -9035750000.0 -9035750000.0 -9035750000.0 -9035750000.0 -9035750000.0 -9035750000.0 -9035750000.0 -9035750000.0 -9035750000.0 -9035750000.0 -9035750000.0 -9035750000.0 -9035750000.0 -9035750000.0 -9035750000.0 -9035750000.0 -9035750000.0 -9035750000.0 -9035750000.0 -9035750000.0 -9035750000.0 -9035750000.0 -9035750000.0 -9035750000.0 -9035750000.0 -9035750000.0 -9035750000.0 -9035750000.0 -9035750000.0 -9035750000.0 -9035750000.0 -9035750000.0 -9035750000.0 -9035750000.0 -9035750000.0 -9035750000.0 -9035750000.0 -9035750000.0 -9035750000.0 -9035750000.0 -9035750000.0 -9035750000.0 -9035750000.0 -9035750000.0 -9035750000.0 -9035750000.0 -9035750000.0 -9035750000.0 -9035750000.0 -9035750000.0 -9035750000.0 -9035750000.0 -9035750000.0 -9035750000.0 -9035750000.0 -9035750000.0 -9035750000.0 -9035750000.0 -9035750000.0 -9035750000.0 -9035750000.0 -9035750000.0 -9035750000.0 -9035750000.0 -9035750000.0 -9035750000.0 -9035750000.0 -9035750000.0 -9035750000.0 -9035750000.0 -9035750000.0 -9035750000.0 -9035750000.0 -9035750000.0 -9035750000.0 -9035750000.0 -9035750000.0 -9035750000.0 -9035750000.0 -9035750000.0 -9035750000.0 -9035750000.0 -9035750000.0 -9035750000.0 -9035750000.0 -9035750000.0 -9035750000.0 -9035750000.0 -9035750000.0 -9035750000.0 -9035750000.0 -9035750000.0 -9035750000.0 -9035750000.0 -9035750000.0 -9035750000.0 -9035750000.0 -9035750000.0 -9035750000.0 -9035750000.0 -9035750000.0 -9035750000.0 -9035750000.0 -9035750000.0 -9035750000.0 -9035750000.0 -9035750000.0 -9035750000.0 -9035750000.0 -9035750000.0 -9035750000.0 -9035750000.0 -9035750000.0 -9035750000.0 -9035750000.0 -9035750000.0 -9035750000.0 -9035750000.0 -9035750000.0 -9035750000.0 -9035750000.0 -9035750000.0 -9035750000.0 -9035750000.0 -9035750000.0 -9035750000.0 -9035750000.0 -9035750000.0 -9035750000.0 -9035750000.0 -9035750000.0 -9035750000.0 -9035750000.0 -9035750000.0 -9035750000.0 -9035750000.0 -9035750000.0 -9035750000.0 -9035750000.0 -9035750000.0 -9035750000.0 -9035750000.0 -9035750000.0 -9035750000.0 -9035750000.0 -9035750000.0 -9035750000.0 -9035750000.0 -9035750000.0 -9035750000.0 -9035750000.0 -9035750000.0 -9035750000.0 -9035750000.0 -9035750000.0 -9035750000.0 -9035750000.0 -9035750000.0 -9035750000.0 -9035750000.0 -9035750000.0 -9035750000.0 -9035750000.0 -9035750000.0 -9035750000.0 -9035750000.0 -9035750000.0 -9035750000.0 -9035750000.0 -9035750000.0 -9035750000.0 -9035750000.0 -9035750000.0 -9035750000.0 -9035750000.0 -9035750000.0 -9035750000.0 -9035750000.0 -9035750000.0 -9035750000.0 -9035750000.0 -9035750000.0 -9035750000.0 -9035750000.0 -9035750000.0 -9035750000.0 -9035750000.0 -9035750000.0 -9035750000.0 -9035750000.0 -9035750000.0 -9035750000.0 -9035750000.0 -9035750000.0 -9035750000.0 -9035750000.0 -9035750000.0 -9035750000.0 -9035750000.0 -9035750000.0 -9035750000.0 -9035750000.0 -9035750000.0 -9035750000.0 -9035750000.0 -9035750000.0 -9035750000.0 -9035750000.0 -9035750000.0 -9035750000.0 -9035750000.0 -9035750000.0 -9035750000.0 -9035750000.0 -9035750000.0 -9035750000.0 -9035750000.0 -9035750000.0 -9035750000.0 -9035750000.0 -9035750000.0 -9035750000.0 -9035750000.0 -9035750000.0 -9035750000.0 -9035750000.0 -9035750000.0 -9035750000.0 -9035750000.0 -9035750000.0 -9035750000.0 -9035750000.0 -9035750000.0 -9035750000.0 -9035750000.0 -9035750000.0 -9035750000.0 -9035750000.0 -9035750000.0 -9035750000.0 -9035750000.0 -9035750000.0 -9035750000.0 -9035750000.0 -9035750000.0 -9035750000.0 -9035750000.0 -9035750000.0 -9035750000.0 -9035750000.0 -9035750000.0 -9035750000.0 -9035750000.0 -9035750000.0 -9035750000.0 -9035750000.0 -9035750000.0 -9035750000.0 -9035750000.0 -9035750000.0 -9035750000.0 -9035750000.0 -9035750000.0 -9035750000.0 -9035750000.0 -9035750000.0 -9035750000.0 -9035750000.0 -9035750000.0 -9035750000.0 -9035750000.0 -9035750000.0 -9035750000.0 -9035750000.0 -9035750000.0 -9035750000.0 -9035750000.0 -9035750000.0 -9035750000.0 -9035750000.0 -9035750000.0 -9035750000.0 -9035750000.0 -9035750000.0 -9035750000.0 -9035750000.0 -9035750000.0 -9035750000.0 -9035750000.0 -9035750000.0 -9035750000.0 -9035750000.0 -9035750000.0 -9035750000.0 -9035750000.0 -9035750000.0 -9035750000.0 -9035750000.0 -9035750000.0 -9035750000.0 -9035750000.0 -9035750000.0 -9035750000.0 -9035750000.0 -9035750000.0 -9035750000.0 -9035750000.0 -9035750000.0 -9035750000.0 -9035750000.0 -9035750000.0 -9035750000.0 -9035750000.0 -9035750000.0 -9035750000.0 -9035750000.0 -9035750000.0 -9035750000.0 -9035750000.0 -9035750000.0 -9035750000.0 -9035750000.0 -9035750000.0 -9035750000.0 -9035750000.0 -9035750000.0 -9035750000.0 -9035750000.0 -9035750000.0 -9035750000.0 -9035750000.0 -9035750000.0 -9035750000.0 -9035750000.0 -9035750000.0 -9035750000.0 -9035750000.0 -9035750000.0 -9035750000.0 -9035750000.0 -9035750000.0 -9035750000.0 -9035750000.0 -9035750000.0 -9035750000.0 -9035750000.0 -9035750000.0 -9035750000.0 -9035750000.0 -9035750000.0 -9035750000.0 -9035750000.0 -9035750000.0 -9035750000.0 -9035750000.0 -9035750000.0 -9035750000.0 -9035750000.0 -9035750000.0 -9035750000.0 -9035750000.0 -9035750000.0 -9035750000.0 -9035750000.0 -9035750000.0 -9035750000.0 -9035750000.0 -9035750000.0 -9035750000.0 -9035750000.0 -9035750000.0 -9035750000.0 -9035750000.0 -9035750000.0 -9035750000.0 -9035750000.0 -9035750000.0 -9035750000.0 -9035750000.0 -9035750000.0 -9035750000.0 -9035750000.0 -9035750000.0 -9035750000.0 -9035750000.0 -9035750000.0 -9035750000.0 -9035750000.0 -9035750000.0 -9035750000.0 -9035750000.0 -9035750000.0 -9035750000.0 -9035750000.0 -9035750000.0 -9035750000.0 -9035750000.0 -9035750000.0 -9035750000.0 -9035750000.0 -9035750000.0 -9035750000.0 -9035750000.0 -9035750000.0 -9035750000.0 -9035750000.0 -9035750000.0 -9035750000.0 -9035750000.0 -9035750000.0 -9035750000.0 -9035750000.0 -9035750000.0 -9035750000.0 -9035750000.0 -9035750000.0 -9035750000.0 -9035750000.0 -9035750000.0 -9035750000.0 -9035750000.0 -9035750000.0 -9035750000.0 -9035750000.0 -9035750000.0 -9035750000.0 -9035750000.0 -9035750000.0 -9035750000.0 -9035750000.0 -9035750000.0 -9035750000.0 -9035750000.0 -9035750000.0 -9035750000.0 -9035750000.0 -9035750000.0 -9035750000.0 -9035750000.0 -9035750000.0 -9035750000.0 -9035750000.0 -9035750000.0 -9035750000.0 -9035750000.0 -9035750000.0 -9035750000.0 -9035750000.0 -9035750000.0 -9035750000.0 -9035750000.0 -9035750000.0 -9035750000.0 -9035750000.0 -9035750000.0 -9035750000.0 -9035750000.0 -9035750000.0 -9035750000.0 -9035750000.0 -9035750000.0 -9035750000.0 -9035750000.0 -9035750000.0 -9035750000.0 -9035750000.0 -9035750000.0 -9035750000.0 -9035750000.0 -9035750000.0 -9035750000.0 -9035750000.0 -9035750000.0 -9035750000.0 -9035750000.0 -9035750000.0 -9035750000.0 -9035750000.0 -9035750000.0 -9035750000.0 -9035750000.0 -9035750000.0 -9035750000.0 -9035750000.0 -9035750000.0 -9035750000.0 -9035750000.0 -9035750000.0 -9035750000.0 -9035750000.0 -9035750000.0 -9035750000.0 -9035750000.0 -9035750000.0 -9035750000.0 -9035750000.0 -9035750000.0 -9035750000.0 -9035750000.0 -9035750000.0 -9035750000.0 -9035750000.0 -9035750000.0 -9035750000.0 -9035750000.0 -9035750000.0 -9035750000.0 -9035750000.0 -9035750000.0 -9035750000.0 -9035750000.0 -9035750000.0 -9035750000.0 -9035750000.0 -9035750000.0 -9035750000.0 -9035750000.0 -9035750000.0 -9035750000.0 -9035750000.0 -9035750000.0 -9035750000.0 -9035750000.0 -9035750000.0 -9035750000.0 -9035750000.0 -9035750000.0 -9035750000.0 -9035750000.0 -9035750000.0 -9035750000.0 -9035750000.0 -9035750000.0 -9035750000.0 -9035750000.0 -9035750000.0 -9035750000.0 -9035750000.0 -9035750000.0 -9035750000.0 -9035750000.0 -9035750000.0 -9035750000.0 -9035750000.0 -9035750000.0 -9035750000.0 -9035750000.0 -9035750000.0 -9035750000.0 -9035750000.0 -9035750000.0 -9035750000.0 -9035750000.0 -9035750000.0 -9035750000.0 -9035750000.0 -9035750000.0 -9035750000.0 -9035750000.0 -9035750000.0 -9035750000.0 -9035750000.0 -9035750000.0 -9035750000.0 -9035750000.0 -9035750000.0 -9035750000.0 -9035750000.0 -9035750000.0 -9035750000.0 -9035750000.0 -9035750000.0 -9035750000.0 -9035750000.0 -9035750000.0 -9035750000.0 -9035750000.0 -9035750000.0 -9035750000.0 -9035750000.0 -9035750000.0 -9035750000.0 -9035750000.0 -9035750000.0 -9035750000.0 -9035750000.0 -9035750000.0 -9035750000.0 -9035750000.0 -9035750000.0 -9035750000.0 -9035750000.0 -9035750000.0 -9035750000.0 -9035750000.0 -9035750000.0 -9035750000.0 -9035750000.0 -9035750000.0 -9035750000.0 -9035750000.0 -9035750000.0 -9035750000.0 -9035750000.0 -9035750000.0 -9035750000.0 -9035750000.0 -9035750000.0 -9035750000.0 -9035750000.0 -9035750000.0 -9035750000.0 -9035750000.0 -9035750000.0 -9035750000.0 -9035750000.0 -9035750000.0 -9035750000.0 -9035750000.0 -9035750000.0 -9035750000.0 -9035750000.0 -9035750000.0 -9035750000.0 -9035750000.0 -9035750000.0 -9035750000.0 -9035750000.0 -9035750000.0 -9035750000.0 -9035750000.0 -9035750000.0 -9035750000.0 -9035750000.0 -9035750000.0 -9035750000.0 -9035750000.0 -9035750000.0 -9035750000.0 -9035750000.0 -9035750000.0 -9035750000.0 -9035750000.0 -9035750000.0 -9035750000.0 -9035750000.0 -9035750000.0 -9035750000.0 -9035750000.0 -9035750000.0 -9035750000.0 -9035750000.0 -9035750000.0 -9035750000.0 -9035750000.0 -9035750000.0 -9035750000.0 -9035750000.0 -9035750000.0 -9035750000.0 -9035750000.0 -9035750000.0 -9035750000.0 -9035750000.0 -9035750000.0 -9035750000.0 -9035750000.0 -9035750000.0 -9035750000.0 -9035750000.0 -9035750000.0 -9035750000.0 -9035750000.0 -9035750000.0 -9035750000.0 -9035750000.0 -9035750000.0 -9035750000.0 -9035750000.0 -9035750000.0 -9035750000.0 -9035750000.0 -9035750000.0 -9035750000.0 -9035750000.0 -9035750000.0 -9035750000.0 -9035750000.0 -9035750000.0 -9035750000.0 -9035750000.0 -9035750000.0 -9035750000.0 -9035750000.0 -9035750000.0 -9035750000.0 -9035750000.0 -9035750000.0 -9035750000.0 -9035750000.0 -9035750000.0 -9035750000.0 -9035750000.0 -9035750000.0 -9035750000.0 -9035750000.0 -9035750000.0 -9035750000.0 -9035750000.0 -9035750000.0 -9035750000.0 -9035750000.0 -9035750000.0 -9035750000.0 -9035750000.0 -9035750000.0 -9035750000.0 -9035750000.0 -9035750000.0 -9035750000.0 -9035750000.0 -9035750000.0 -9035750000.0 -9035750000.0 -9035750000.0 -9035750000.0 -9035750000.0 -9035750000.0 -9035750000.0 -9035750000.0 -9035750000.0 -9035750000.0 -9035750000.0 -9035750000.0 -9035750000.0 -9035750000.0 -9035750000.0 -9035750000.0 -9035750000.0 -9035750000.0 -9035750000.0 -9035750000.0 -9035750000.0 -9035750000.0 -9035750000.0 -9035750000.0 -9035750000.0 -9035750000.0 -9035750000.0 -9035750000.0 -9035750000.0 -9035750000.0 -9035750000.0 -9035750000.0 -9035750000.0 -9035750000.0 -9035750000.0 -9035750000.0 -9035750000.0 -9035750000.0 -9035750000.0 -9035750000.0 -9035750000.0 -9035750000.0 -9035750000.0 -9035750000.0 -9035750000.0 -9035750000.0 -9035750000.0 -9035750000.0 -9035750000.0 -9035750000.0 -9035750000.0 -9035750000.0 -9035750000.0 -9035750000.0 -9035750000.0 -9035750000.0 -9035750000.0 -9035750000.0 -9035750000.0 -9035750000.0 -9035750000.0 -9035750000.0 -9035750000.0 -9035750000.0 -9035750000.0 -9035750000.0 -9035750000.0 -9035750000.0 -9035750000.0 -9035750000.0 -9035750000.0 -9035750000.0 -9035750000.0 -9035750000.0 -9035750000.0 -9035750000.0 -9035750000.0 -9035750000.0 -9035750000.0 -9035750000.0 -9035750000.0 -9035750000.0 -9035750000.0 -9035750000.0 -9035750000.0 -9035750000.0 -9035750000.0 -9035750000.0 -9035750000.0 -9035750000.0 -9035750000.0 -9035750000.0 -9035750000.0 -9035750000.0 -9035750000.0 -9035750000.0 -9035750000.0 -9035750000.0 -9035750000.0 -9035750000.0 -9035750000.0 -9035750000.0 -9035750000.0 -9035750000.0 -9035750000.0 -9035750000.0 -9035750000.0 -9035750000.0 -9035750000.0 -9035750000.0 -9035750000.0 -9035750000.0 -9035750000.0 -9035750000.0 -9035750000.0 -9035750000.0 -9035750000.0 -9035750000.0 -9035750000.0 -9035750000.0 -9035750000.0 -9035750000.0 -9035750000.0 -9035750000.0 -9035750000.0 -9035750000.0 -9035750000.0 -9035750000.0 -9035750000.0 -9035750000.0 -9035750000.0 -9035750000.0 -9035750000.0 -9035750000.0 -9035750000.0 -9035750000.0 -9035750000.0 -9035750000.0 -9035750000.0 -9035750000.0 -9035750000.0 -9035750000.0 -9035750000.0 -9035750000.0 -9035750000.0 -9035750000.0 -9035750000.0 -9035750000.0 -9035750000.0 -9035750000.0 -9035750000.0 -9035750000.0 -9035750000.0 -9035750000.0 -9035750000.0 -9035750000.0 -9035750000.0 -9035750000.0 -9035750000.0 -9035750000.0 -9035750000.0 -9035750000.0 -9035750000.0 -9035750000.0 -9035750000.0 -9035750000.0 -9035750000.0 -9035750000.0 -9035750000.0 -9035750000.0 -9035750000.0 -9035750000.0 -9035750000.0 -9035750000.0 -9035750000.0 -9035750000.0 -9035750000.0 -9035750000.0 -9035750000.0 -9035750000.0 -9035750000.0 -9035750000.0 -9035750000.0 -9035750000.0 -9035750000.0 -9035750000.0 -9035750000.0 -9035750000.0 -9035750000.0 -9035750000.0 -9035750000.0 -9035750000.0 -9035750000.0 -9035750000.0 -9035750000.0 -9035750000.0 -9035750000.0 -9035750000.0 -9035750000.0 -9035750000.0 -9035750000.0 -9035750000.0 -9035750000.0 -9035750000.0 -9035750000.0 -9035750000.0 -9035750000.0 -9035750000.0 -9035750000.0 -9035750000.0 -9035750000.0 -9035750000.0 -9035750000.0 -9035750000.0 -9035750000.0 -9035750000.0 -9035750000.0 -9035750000.0 -9035750000.0 -9035750000.0 -9035750000.0 -9035750000.0 -9035750000.0 -9035750000.0 -9035750000.0 -9035750000.0 -9035750000.0 -9035750000.0 -9035750000.0 -9035750000.0 -9035750000.0 -9035750000.0 -9035750000.0 -9035750000.0 -9035750000.0 -9035750000.0 -9035750000.0 -9035750000.0 -9035750000.0 -9035750000.0 -9035750000.0 -9035750000.0 -9035750000.0 -9035750000.0 -9035750000.0 -9035750000.0 -9035750000.0 -9035750000.0 -9035750000.0 -9035750000.0 -9035750000.0 -9035750000.0 -9035750000.0 -9035750000.0 -9035750000.0 -9035750000.0 -9035750000.0 -9035750000.0 -9035750000.0 -9035750000.0 -9035750000.0 -9035750000.0 -9035750000.0 -9035750000.0 -9035750000.0 -9035750000.0 -9035750000.0 -9035750000.0 -9035750000.0 -9035750000.0 -9035750000.0 -9035750000.0 -9035750000.0 -9035750000.0 -9035750000.0 -9035750000.0 -9035750000.0 -9035750000.0 -9035750000.0 -9035750000.0 -9035750000.0 -9035750000.0 -9035750000.0 -9035750000.0 -9035750000.0 -9035750000.0 -9035750000.0 -9035750000.0 -9035750000.0 -9035750000.0 -9035750000.0 -9035750000.0 -9035750000.0 -9035750000.0 -9035750000.0 -9035750000.0 -9035750000.0 -9035750000.0 -9035750000.0 -9035750000.0 -9035750000.0 -9035750000.0 -9035750000.0 -9035750000.0 -9035750000.0 -9035750000.0 -9035750000.0 -9035750000.0 -9035750000.0 -9035750000.0 -9035750000.0 -9035750000.0 -9035750000.0 -9035750000.0 -9035750000.0 -9035750000.0 -9035750000.0 -9035750000.0 -9035750000.0 -9035750000.0 -9035750000.0 -9035750000.0 -9035750000.0 -9035750000.0 -9035750000.0 -9035750000.0 -9035750000.0 -9035750000.0 -9035750000.0 -9035750000.0 -9035750000.0 -9035750000.0 -9035750000.0 -9035750000.0 -9035750000.0 -9035750000.0 -9035750000.0 -9035750000.0 -9035750000.0 -9035750000.0 -9035750000.0 -9035750000.0 -9035750000.0 -9035750000.0 -9035750000.0 -9035750000.0 -9035750000.0 -9035750000.0 -9035750000.0 -9035750000.0 -9035750000.0 -9035750000.0 -9035750000.0 -9035750000.0 -9035750000.0 -9035750000.0 -9035750000.0 -9035750000.0 -9035750000.0 -9035750000.0 -9035750000.0 -9035750000.0 -9035750000.0 -9035750000.0 -9035750000.0 -9035750000.0 -9035750000.0 -9035750000.0 -9035750000.0 -9035750000.0 -9035750000.0 -9035750000.0 -9035750000.0 -9035750000.0 -9035750000.0 -9035750000.0 -9035750000.0 -9035750000.0 -9035750000.0 -9035750000.0 -9035750000.0 -9035750000.0 -9035750000.0 -9035750000.0 -9035750000.0 -9035750000.0 -9035750000.0 -9035750000.0 -9035750000.0 -9035750000.0 -9035750000.0 -9035750000.0 -9035750000.0 -9035750000.0 -9035750000.0 -9035750000.0 -9035750000.0 -9035750000.0 -9035750000.0 -9035750000.0 -9035750000.0 -9035750000.0 -9035750000.0 -9035750000.0 -9035750000.0 -9035750000.0 -9035750000.0 -9035750000.0 -9035750000.0 -9035750000.0 -9035750000.0 -9035750000.0 -9035750000.0 -9035750000.0 -9035750000.0 -9035750000.0 -9035750000.0 -9035750000.0 -9035750000.0 -9035750000.0 -9035750000.0 -9035750000.0 -9035750000.0 -9035750000.0 -9035750000.0 -9035750000.0 -9035750000.0 -9035750000.0 -9035750000.0 -9035750000.0 -9035750000.0 -9035750000.0 -9035750000.0 -9035750000.0 -9035750000.0 -9035750000.0 -9035750000.0 -9035750000.0 -9035750000.0 -9035750000.0 -9035750000.0 -9035750000.0 -9035750000.0 -9035750000.0 -9035750000.0 -9035750000.0 -9035750000.0 -9035750000.0 -9035750000.0 -9035750000.0 -9035750000.0 -9035750000.0 -9035750000.0 -9035750000.0 -9035750000.0 -9035750000.0 -9035750000.0 -9035750000.0 -9035750000.0 -9035750000.0 -9035750000.0 -9035750000.0 -9035750000.0 -9035750000.0 -9035750000.0 -9035750000.0 -9035750000.0 -9035750000.0 -9035750000.0 -9035750000.0 -9035750000.0 -9035750000.0 -9035750000.0 -9035750000.0 -9035750000.0 -9035750000.0 -9035750000.0 -9035750000.0 -9035750000.0 -9035750000.0 -9035750000.0 -9035750000.0 -9035750000.0 -9035750000.0 -9035750000.0 -9035750000.0 -9035750000.0 -9035750000.0 -9035750000.0 -9035750000.0 -9035750000.0 -9035750000.0 -9035750000.0 -9035750000.0 -9035750000.0 -9035750000.0 -9035750000.0 -9035750000.0 -9035750000.0 -9035750000.0 -9035750000.0 -9035750000.0 -9035750000.0 -9035750000.0 -9035750000.0 -9035750000.0 -9035750000.0 -9035750000.0 -9035750000.0 -9035750000.0 -9035750000.0 -9035750000.0 -9035750000.0 -9035750000.0 -9035750000.0 -9035750000.0 -9035750000.0 -9035750000.0 -9035750000.0 -9035750000.0 -9035750000.0 -9035750000.0 -9035750000.0 -9035750000.0 -9035750000.0 -9035750000.0 -9035750000.0 -9035750000.0 -9035750000.0 -9035750000.0 -9035750000.0 -9035750000.0 -9035750000.0 -9035750000.0 -9035750000.0 -9035750000.0 -9035750000.0 -9035750000.0 -9035750000.0 -9035750000.0 -9035750000.0 -9035750000.0 -9035750000.0 -9035750000.0 -9035750000.0 -9035750000.0 -9035750000.0 -9035750000.0 -9035750000.0 -9035750000.0 -9035750000.0 -9035750000.0 -9035750000.0 -9035750000.0 -9035750000.0 -9035750000.0 -9035750000.0 -9035750000.0 -9035750000.0 -9035750000.0 -9035750000.0 -9035750000.0 -9035750000.0 -9035750000.0 -9035750000.0 -9035750000.0 -9035750000.0 -9035750000.0 -9035750000.0 -9035750000.0 -9035750000.0 -9035750000.0 -9035750000.0 -9035750000.0 -9035750000.0 -9035750000.0 -9035750000.0 -9035750000.0 -9035750000.0 -9035750000.0 -9035750000.0 -9035750000.0 -9035750000.0 -9035750000.0 -9035750000.0 -9035750000.0 -9035750000.0 -9035750000.0 -9035750000.0 -9035750000.0 -9035750000.0 -9035750000.0 -9035750000.0 -9035750000.0 -9035750000.0 -9035750000.0 -9035750000.0 -9035750000.0 -9035750000.0 -9035750000.0 -9035750000.0 -9035750000.0 -9035750000.0 -9035750000.0 -9035750000.0 -9035750000.0 -9035750000.0 -9035750000.0 -9035750000.0 -9035750000.0 -9035750000.0 -9035750000.0 -9035750000.0 -9035750000.0 -9035750000.0 -9035750000.0 -9035750000.0 -9035750000.0 -9035750000.0 -9035750000.0 -9035750000.0 -9035750000.0 -9035750000.0 -9035750000.0 -9035750000.0 -9035750000.0 -9035750000.0 -9035750000.0 -9035750000.0 -9035750000.0 -9035750000.0 -9035750000.0 -9035750000.0 -9035750000.0 -9035750000.0 -9035750000.0 -9035750000.0 -9035750000.0 -9035750000.0 -9035750000.0 -9035750000.0 -9035750000.0 -9035750000.0 -9035750000.0 -9035750000.0 -9035750000.0 -9035750000.0 -9035750000.0 -9035750000.0 -9035750000.0 -9035750000.0 -9035750000.0 -9035750000.0 -9035750000.0 -9035750000.0 -9035750000.0 -9035750000.0 -9035750000.0 -9035750000.0 -9035750000.0 -9035750000.0 -9035750000.0 -9035750000.0 -9035750000.0 -9035750000.0 -9035750000.0 -9035750000.0 -9035750000.0 -9035750000.0 -9035750000.0 -9035750000.0 -9035750000.0 -9035750000.0 -9035750000.0 -9035750000.0 -9035750000.0 -9035750000.0 -9035750000.0 -9035750000.0 -9035750000.0 -9035750000.0 -9035750000.0 -9035750000.0 -9035750000.0 -9035750000.0 -9035750000.0 -9035750000.0 -9035750000.0 -9035750000.0 -9035750000.0 -9035750000.0 -9035750000.0 -9035750000.0 -9035750000.0 -9035750000.0 -9035750000.0 -9035750000.0 -9035750000.0 -9035750000.0 -9035750000.0 -9035750000.0 -9035750000.0 -9035750000.0 -9035750000.0 -9035750000.0 -9035750000.0 -9035750000.0 -9035750000.0 -9035750000.0 -9035750000.0 -9035750000.0 -9035750000.0 -9035750000.0 -9035750000.0 -9035750000.0 -9035750000.0 -9035750000.0 -9035750000.0 -9035750000.0 -9035750000.0 -9035750000.0 -9035750000.0 -9035750000.0 -9035750000.0 -9035750000.0 -9035750000.0 -9035750000.0 -9035750000.0 -9035750000.0 -9035750000.0 -9035750000.0 -9035750000.0 -9035750000.0 -9035750000.0 -9035750000.0 -9035750000.0 -9035750000.0 -9035750000.0 -9035750000.0 -9035750000.0 -9035750000.0 -9035750000.0 -9035750000.0 -9035750000.0 -9035750000.0 -9035750000.0 -9035750000.0 -9035750000.0 -9035750000.0 -9035750000.0 -9035750000.0 -9035750000.0 -9035750000.0 -9035750000.0 -9035750000.0 -9035750000.0 -9035750000.0 -9035750000.0 -9035750000.0 -9035750000.0 -9035750000.0 -9035750000.0 -9035750000.0 -9035750000.0 -9035750000.0 -9035750000.0 -9035750000.0 -9035750000.0 -9035750000.0 -9035750000.0 -9035750000.0 -9035750000.0 -9035750000.0 -9035750000.0 -9035750000.0 -9035750000.0 -9035750000.0 -9035750000.0 -9035750000.0 -9035750000.0 -9035750000.0 -9035750000.0 -9035750000.0 -9035750000.0 -9035750000.0 -9035750000.0 -9035750000.0 -9035750000.0 -9035750000.0 -9035750000.0 -9035750000.0 -9035750000.0 -9035750000.0 -9035750000.0 -9035750000.0 -9035750000.0 -9035750000.0 -9035750000.0 -9035750000.0 -9035750000.0 -9035750000.0 -9035750000.0 -9035750000.0 -9035750000.0 -9035750000.0 -9035750000.0 -9035750000.0 -9035750000.0 -9035750000.0 -9035750000.0 -9035750000.0 -9035750000.0 -9035750000.0 -9035750000.0 -9035750000.0 -9035750000.0 -9035750000.0 -9035750000.0 -9035750000.0 -9035750000.0 -9035750000.0 -9035750000.0 -9035750000.0 -9035750000.0 -9035750000.0 -9035750000.0 -9035750000.0 -9035750000.0 -9035750000.0 -9035750000.0 -9035750000.0 -9035750000.0 -9035750000.0 -9035750000.0 -9035750000.0 -9035750000.0 -9035750000.0 -9035750000.0 -9035750000.0 -9035750000.0 -9035750000.0 -9035750000.0 -9035750000.0 -9035750000.0 -9035750000.0 -9035750000.0 -9035750000.0 -9035750000.0 -9035750000.0 -9035750000.0 -9035750000.0 -9035750000.0 -9035750000.0 -9035750000.0 -9035750000.0 -9035750000.0 -9035750000.0 -9035750000.0 -9035750000.0 -9035750000.0 -9035750000.0 -9035750000.0 -9035750000.0 -9035750000.0 -9035750000.0 -9035750000.0 -9035750000.0 -9035750000.0 -9035750000.0 -9035750000.0 -9035750000.0 -9035750000.0 -9035750000.0 -9035750000.0 -9035750000.0 -9035750000.0 -9035750000.0 -9035750000.0 -9035750000.0 -9035750000.0 -9035750000.0 -9035750000.0 -9035750000.0 -9035750000.0 -9035750000.0 -9035750000.0 -9035750000.0 -9035750000.0 -9035750000.0 -9035750000.0 -9035750000.0 -9035750000.0 -9035750000.0 -9035750000.0 -9035750000.0 -9035750000.0 -9035750000.0 -9035750000.0 -9035750000.0 -9035750000.0 -9035750000.0 -9035750000.0 -9035750000.0 -9035750000.0 -9035750000.0 -9035750000.0 -9035750000.0 -9035750000.0 -9035750000.0 -9035750000.0 -9035750000.0 -9035750000.0 -9035750000.0 -9035750000.0 -9035750000.0 -9035750000.0 -9035750000.0 -9035750000.0 -9035750000.0 -9035750000.0 -9035750000.0 -9035750000.0 -9035750000.0 -9035750000.0 -9035750000.0 -9035750000.0 -9035750000.0 -9035750000.0 -9035750000.0 -9035750000.0 -9035750000.0 -9035750000.0 -9035750000.0 -9035750000.0 -9035750000.0 -9035750000.0 -9035750000.0 -9035750000.0 -9035750000.0 -9035750000.0 -9035750000.0 -9035750000.0 -9035750000.0 -9035750000.0 -9035750000.0 -9035750000.0 -9035750000.0 -9035750000.0 -9035750000.0 -9035750000.0 -9035750000.0 -9035750000.0 -9035750000.0 -9035750000.0 -9035750000.0 -9035750000.0 -9035750000.0 -9035750000.0 -9035750000.0 -9035750000.0 -9035750000.0 -9035750000.0 -9035750000.0 -9035750000.0 -9035750000.0 -9035750000.0 -9035750000.0 -9035750000.0 -9035750000.0 -9035750000.0 -9035750000.0 -9035750000.0 -9035750000.0 -9035750000.0 -9035750000.0 -9035750000.0 -9035750000.0 -9035750000.0 -9035750000.0 -9035750000.0 -9035750000.0 -9035750000.0 -9035750000.0 -9035750000.0 -9035750000.0 -9035750000.0 -9035750000.0 -9035750000.0 -9035750000.0 -9035750000.0 -9035750000.0 -9035750000.0 -9035750000.0 -9035750000.0 -9035750000.0 -9035750000.0 -9035750000.0 -9035750000.0 -9035750000.0 -9035750000.0 -9035750000.0 -9035750000.0 -9035750000.0 -9035750000.0 -9035750000.0 -9035750000.0 -9035750000.0 -9035750000.0 -9035750000.0 -9035750000.0 -9035750000.0 -9035750000.0 -9035750000.0 -9035750000.0 -9035750000.0 -9035750000.0 -9035750000.0 -9035750000.0 -9035750000.0 -9035750000.0 -9035750000.0 -9035750000.0 -9035750000.0 -9035750000.0 -9035750000.0 -9035750000.0 -9035750000.0 -9035750000.0 -9035750000.0 -9035750000.0 -9035750000.0 -9035750000.0 -9035750000.0 -9035750000.0 -9035750000.0 -9035750000.0 -9035750000.0 -9035750000.0 -9035750000.0 -9035750000.0 -9035750000.0 -9035750000.0 -9035750000.0 -9035750000.0 -9035750000.0 -9035750000.0 -9035750000.0 -9035750000.0 -9035750000.0 -9035750000.0 -9035750000.0 -9035750000.0 -9035750000.0 -9035750000.0 -9035750000.0 -9035750000.0 -9035750000.0 -9035750000.0 -9035750000.0 -9035750000.0 -9035750000.0 -9035750000.0 -9035750000.0 -9035750000.0 -9035750000.0 -9035750000.0 -9035750000.0 -9035750000.0 -9035750000.0 -9035750000.0 -9035750000.0 -9035750000.0 -9035750000.0 -9035750000.0 -9035750000.0 -9035750000.0 -9035750000.0 -9035750000.0 -9035750000.0 -9035750000.0 -9035750000.0 -9035750000.0 -9035750000.0 -9035750000.0 -9035750000.0 -9035750000.0 -9035750000.0 -9035750000.0 -9035750000.0 -9035750000.0 -9035750000.0 -9035750000.0 -9035750000.0 -9035750000.0 -9035750000.0 -9035750000.0 -9035750000.0 -9035750000.0 -9035750000.0 -9035750000.0 -9035750000.0 -9035750000.0 -9035750000.0 -9035750000.0 -9035750000.0 -9035750000.0 -9035750000.0 -9035750000.0 -9035750000.0 -9035750000.0 -9035750000.0 -9035750000.0 -9035750000.0 -9035750000.0 -9035750000.0 -9035750000.0 -9035750000.0 -9035750000.0 -9035750000.0 -9035750000.0 -9035750000.0 -9035750000.0 -9035750000.0 -9035750000.0 -9035750000.0 -9035750000.0 -9035750000.0 -9035750000.0 -9035750000.0 -9035750000.0 -9035750000.0 -9035750000.0 -9035750000.0 -9035750000.0 -9035750000.0 -9035750000.0 -9035750000.0 -9035750000.0 -9035750000.0 -9035750000.0 -9035750000.0 -9035750000.0 -9035750000.0 -9035750000.0 -9035750000.0 -9035750000.0 -9035750000.0 -9035750000.0 -9035750000.0 -9035750000.0 -9035750000.0 -9035750000.0 -9035750000.0 -9035750000.0 -9035750000.0 -9035750000.0 -9035750000.0 -9035750000.0 -9035750000.0 -9035750000.0 -9035750000.0 -9035750000.0 -9035750000.0 -9035750000.0 -9035750000.0 -9035750000.0 -9035750000.0 -9035750000.0 -9035750000.0 -9035750000.0 -9035750000.0 -9035750000.0 -9035750000.0 -9035750000.0 -9035750000.0 -9035750000.0 -9035750000.0 -9035750000.0 -9035750000.0 -9035750000.0 -9035750000.0 -9035750000.0 -9035750000.0 -9035750000.0 -9035750000.0 -9035750000.0 -9035750000.0 -9035750000.0 -9035750000.0 -9035750000.0 -9035750000.0 -9035750000.0 -9035750000.0 -9035750000.0 -9035750000.0 -9035750000.0 -9035750000.0 -9035750000.0 -9035750000.0 -9035750000.0 -9035750000.0 -9035750000.0 -9035750000.0 -9035750000.0 -9035750000.0 -9035750000.0 -9035750000.0 -9035750000.0 -9035750000.0 -9035750000.0 -9035750000.0 -9035750000.0 -9035750000.0 -9035750000.0 -9035750000.0 -9035750000.0 -9035750000.0 -9035750000.0 -9035750000.0 -9035750000.0 -9035750000.0 -9035750000.0 -9035750000.0 -9035750000.0 -9035750000.0 -9035750000.0 -9035750000.0 -9035750000.0 -9035750000.0 -9035750000.0 -9035750000.0 -9035750000.0 -9035750000.0 -9035750000.0 -9035750000.0 -9035750000.0 -9035750000.0 -9035750000.0 -9035750000.0 -9035750000.0 -9035750000.0 -9035750000.0 -9035750000.0 -9035750000.0 -9035750000.0 -9035750000.0 -9035750000.0 -9035750000.0 -9035750000.0 -9035750000.0 -9035750000.0 -9035750000.0 -9035750000.0 -9035750000.0 -9035750000.0 -9035750000.0 -9035750000.0 -9035750000.0 -9035750000.0 -9035750000.0 -9035750000.0 -9035750000.0 -9035750000.0 -9035750000.0 -9035750000.0 -9035750000.0 -9035750000.0 -9035750000.0 -9035750000.0 -9035750000.0 -9035750000.0 -9035750000.0 -9035750000.0 -9035750000.0 -9035750000.0 -9035750000.0 -9035750000.0 -9035750000.0 -9035750000.0 -9035750000.0 -9035750000.0 -9035750000.0 -9035750000.0 -9035750000.0 -9035750000.0 -9035750000.0 -9035750000.0 -9035750000.0 -9035750000.0 -9035750000.0 -9035750000.0 -9035750000.0 -9035750000.0 -9035750000.0 -9035750000.0 -9035750000.0 -9035750000.0 -9035750000.0 -9035750000.0 -9035750000.0 -9035750000.0 -9035750000.0 -9035750000.0 -9035750000.0 -9035750000.0 -9035750000.0 -9035750000.0 -9035750000.0 -9035750000.0 -9035750000.0 -9035750000.0 -9035750000.0 -9035750000.0 -9035750000.0 -9035750000.0 -9035750000.0 -9035750000.0 -9035750000.0 -9035750000.0 -9035750000.0 -9035750000.0 -9035750000.0 -9035750000.0 -9035750000.0 -9035750000.0 -9035750000.0 -9035750000.0 -9035750000.0 -9035750000.0 -9035750000.0 -9035750000.0 -9035750000.0 -9035750000.0 -9035750000.0 -9035750000.0 -9035750000.0 -9035750000.0 -9035750000.0 -9035750000.0 -9035750000.0 -9035750000.0 -9035750000.0 -9035750000.0 -9035750000.0 -9035750000.0 -9035750000.0 -9035750000.0 -9035750000.0 -9035750000.0 -9035750000.0 -9035750000.0 -9035750000.0 -9035750000.0 -9035750000.0 -9035750000.0 -9035750000.0 -9035750000.0 -9035750000.0 -9035750000.0 -9035750000.0 -9035750000.0 -9035750000.0 -9035750000.0 -9035750000.0 -9035750000.0 -9035750000.0 -9035750000.0 -9035750000.0 -9035750000.0 -9035750000.0 -9035750000.0 -9035750000.0 -9035750000.0 -9035750000.0 -9035750000.0 -9035750000.0 -9035750000.0 -9035750000.0 -9035750000.0 -9035750000.0 -9035750000.0 -9035750000.0 -9035750000.0 -9035750000.0 -9035750000.0 -9035750000.0 -9035750000.0 -9035750000.0 -9035750000.0 -9035750000.0 -9035750000.0 -9035750000.0 -9035750000.0 -9035750000.0 -9035750000.0 -9035750000.0 -9035750000.0 -9035750000.0 -9035750000.0 -9035750000.0 -9035750000.0 -9035750000.0 -9035750000.0 -9035750000.0 -9035750000.0 -9035750000.0 -9035750000.0 -9035750000.0 -9035750000.0 -9035750000.0 -9035750000.0 -9035750000.0 -9035750000.0 -9035750000.0 -9035750000.0 -9035750000.0 -9035750000.0 -9035750000.0 -9035750000.0 -9035750000.0 -9035750000.0 -9035750000.0 -9035750000.0 -9035750000.0 -9035750000.0 -9035750000.0 -9035750000.0 -9035750000.0 -9035750000.0 -9035750000.0 -9035750000.0 -9035750000.0 -9035750000.0 -9035750000.0 -9035750000.0 -9035750000.0 -9035750000.0 -9035750000.0 -9035750000.0 -9035750000.0 -9035750000.0 -9035750000.0 -9035750000.0 -9035750000.0 -9035750000.0 -9035750000.0 -9035750000.0 -9035750000.0 -9035750000.0 -9035750000.0 -9035750000.0 -9035750000.0 -9035750000.0 -9035750000.0 -9035750000.0 -9035750000.0 -9035750000.0 -9035750000.0 -9035750000.0 -9035750000.0 -9035750000.0 -9035750000.0 -9035750000.0 -9035750000.0 -9035750000.0 -9035750000.0 -9035750000.0 -9035750000.0 -9035750000.0 -9035750000.0 -9035750000.0 -9035750000.0 -9035750000.0 -9035750000.0 -9035750000.0 -9035750000.0 -9035750000.0 -9035750000.0 -9035750000.0 -9035750000.0 -9035750000.0 -9035750000.0 -9035750000.0 -9035750000.0 -9035750000.0 -9035750000.0 -9035750000.0 -9035750000.0 -9035750000.0 -9035750000.0 -9035750000.0 -9035750000.0 -9035750000.0 -9035750000.0 -9035750000.0 -9035750000.0 -9035750000.0 -9035750000.0 -9035750000.0 -9035750000.0 -9035750000.0 -9035750000.0 -9035750000.0 -9035750000.0 -9035750000.0 -9035750000.0 -9035750000.0 -9035750000.0 -9035750000.0 -9035750000.0 -9035750000.0 -9035750000.0 -9035750000.0 -9035750000.0 -9035750000.0 -9035750000.0 -9035750000.0 -9035750000.0 -9035750000.0 -9035750000.0 -9035750000.0 -9035750000.0 -9035750000.0 -9035750000.0 -9035750000.0 -9035750000.0 -9035750000.0 -9035750000.0 -9035750000.0 -9035750000.0 -9035750000.0 -9035750000.0 -9035750000.0 -9035750000.0 -9035750000.0 -9035750000.0 -9035750000.0 -9035750000.0 -9035750000.0 -9035750000.0 -9035750000.0 -9035750000.0 -9035750000.0 -9035750000.0 -9035750000.0 -9035750000.0 -9035750000.0 -9035750000.0 -9035750000.0 -9035750000.0 -9035750000.0 -9035750000.0 -9035750000.0 -9035750000.0 -9035750000.0 -9035750000.0 -9035750000.0 -9035750000.0 -9035750000.0 -9035750000.0 -9035750000.0 -9035750000.0 -9035750000.0 -9035750000.0 -9035750000.0 -9035750000.0 -9035750000.0 -9035750000.0 -9035750000.0 -9035750000.0 -9035750000.0 -9035750000.0 -9035750000.0 -9035750000.0 -9035750000.0 -9035750000.0 -9035750000.0 -9035750000.0 -9035750000.0 -9035750000.0 -9035750000.0 -9035750000.0 -9035750000.0 -9035750000.0 -9035750000.0 -9035750000.0 -9035750000.0 -9035750000.0 -9035750000.0 -9035750000.0 -9035750000.0 -9035750000.0 -9035750000.0 -9035750000.0 -9035750000.0 -9035750000.0 -9035750000.0 -9035750000.0 -9035750000.0 -9035750000.0 -9035750000.0 -9035750000.0 -9035750000.0 -9035750000.0 -9035750000.0 -9035750000.0 -9035750000.0 -9035750000.0 -9035750000.0 -9035750000.0 -9035750000.0 -9035750000.0 -9035750000.0 -9035750000.0 -9035750000.0 -9035750000.0 -9035750000.0 -9035750000.0 -9035750000.0 -9035750000.0 -9035750000.0 -9035750000.0 -9035750000.0 -9035750000.0 -9035750000.0 -9035750000.0 -9035750000.0 -9035750000.0 -9035750000.0 -9035750000.0 -9035750000.0 -9035750000.0 -9035750000.0 -9035750000.0 -9035750000.0 -9035750000.0 -9035750000.0 -9035750000.0 -9035750000.0 -9035750000.0 -9035750000.0 -9035750000.0 -9035750000.0 -9035750000.0 -9035750000.0 -9035750000.0 -9035750000.0 -9035750000.0 -9035750000.0 -9035750000.0 -9035750000.0 -9035750000.0 -9035750000.0 -9035750000.0 -9035750000.0 -9035750000.0 -9035750000.0 -9035750000.0 -9035750000.0 -9035750000.0 -9035750000.0 -9035750000.0 -9035750000.0 -9035750000.0 -9035750000.0 -9035750000.0 -9035750000.0 -9035750000.0 -9035750000.0 -9035750000.0 -9035750000.0 -9035750000.0 -9035750000.0 -9035750000.0 -9035750000.0 -9035750000.0 -9035750000.0 -9035750000.0 -9035750000.0 -9035750000.0 -9035750000.0 -9035750000.0 -9035750000.0 -9035750000.0 -9035750000.0 -9035750000.0 -9035750000.0 -9035750000.0 -9035750000.0 -9035750000.0 -9035750000.0 -9035750000.0 -9035750000.0 -9035750000.0 -9035750000.0 -9035750000.0 -9035750000.0 -9035750000.0 -9035750000.0 -9035750000.0 -9035750000.0 -9035750000.0 -9035750000.0 -9035750000.0 -9035750000.0 -9035750000.0 -9035750000.0 -9035750000.0 -9035750000.0 -9035750000.0 -9035750000.0 -9035750000.0 -9035750000.0 -9035750000.0 -9035750000.0 -9035750000.0 -9035750000.0 -9035750000.0 -9035750000.0 -9035750000.0 -9035750000.0 -9035750000.0 -9035750000.0 -9035750000.0 -9035750000.0 -9035750000.0 -9035750000.0 -9035750000.0 -9035750000.0 -9035750000.0 -9035750000.0 -9035750000.0 -9035750000.0 -9035750000.0 -9035750000.0 -9035750000.0 -9035750000.0 -9035750000.0 -9035750000.0 -9035750000.0 -9035750000.0 -9035750000.0 -9035750000.0 -9035750000.0 -9035750000.0 -9035750000.0 -9035750000.0 -9035750000.0 -9035750000.0 -9035750000.0 -9035750000.0 -9035750000.0 -9035750000.0 -9035750000.0 -9035750000.0 -9035750000.0 -9035750000.0 -9035750000.0 -9035750000.0 -9035750000.0 -9035750000.0 -9035750000.0 -9035750000.0 -9035750000.0 -9035750000.0 -9035750000.0 -9035750000.0 -9035750000.0 -9035750000.0 -9035750000.0 -9035750000.0 -9035750000.0 -9035750000.0 -9035750000.0 -9035750000.0 -9035750000.0 -9035750000.0 -9035750000.0 -9035750000.0 -9035750000.0 -9035750000.0 -9035750000.0 -9035750000.0 -9035750000.0 -9035750000.0 -9035750000.0 -9035750000.0 -9035750000.0 -9035750000.0 -9035750000.0 -9035750000.0 -9035750000.0 -9035750000.0 -9035750000.0 -9035750000.0 -9035750000.0 -9035750000.0 -9035750000.0 -9035750000.0 -9035750000.0 -9035750000.0 -9035750000.0 -9035750000.0 -9035750000.0 -9035750000.0 -9035750000.0 -9035750000.0 -9035750000.0 -9035750000.0 -9035750000.0 -9035750000.0 -9035750000.0 -9035750000.0 -9035750000.0 -9035750000.0 -9035750000.0 -9035750000.0 -9035750000.0 -9035750000.0 -9035750000.0 -9035750000.0 -9035750000.0 -9035750000.0 -9035750000.0 -9035750000.0 -9035750000.0 -9035750000.0 -9035750000.0 -9035750000.0 -9035750000.0 -9035750000.0 -9035750000.0 -9035750000.0 -9035750000.0 -9035750000.0 -9035750000.0 -9035750000.0 -9035750000.0 -9035750000.0 -9035750000.0 -9035750000.0 -9035750000.0 -9035750000.0 -9035750000.0 -9035750000.0 -9035750000.0 -9035750000.0 -9035750000.0 -9035750000.0 -9035750000.0 -9035750000.0 -9035750000.0 -9035750000.0 -9035750000.0 -9035750000.0 -9035750000.0 -9035750000.0 -9035750000.0 -9035750000.0 -9035750000.0 -9035750000.0 -9035750000.0 -9035750000.0 -9035750000.0 -9035750000.0 -9035750000.0 -9035750000.0 -9035750000.0 -9035750000.0 -9035750000.0 -9035750000.0 -9035750000.0 -9035750000.0 -9035750000.0 -9035750000.0 -9035750000.0 -9035750000.0 -9035750000.0 -9035750000.0 -9035750000.0 -9035750000.0 -9035750000.0 -9035750000.0 -9035750000.0 -9035750000.0 -9035750000.0 -9035750000.0 -9035750000.0 -9035750000.0 -9035750000.0 -9035750000.0 -9035750000.0 -9035750000.0 -9035750000.0 -9035750000.0 -9035750000.0 -9035750000.0 -9035750000.0 -9035750000.0 -9035750000.0 -9035750000.0 -9035750000.0 -9035750000.0 -9035750000.0 -9035750000.0 -9035750000.0 -9035750000.0 -9035750000.0 -9035750000.0 -9035750000.0 -9035750000.0 -9035750000.0 -9035750000.0 -9035750000.0 -9035750000.0 -9035750000.0 -9035750000.0 -9035750000.0 -9035750000.0 -9035750000.0 -9035750000.0 -9035750000.0 -9035750000.0 -9035750000.0 -9035750000.0 -9035750000.0 -9035750000.0 -9035750000.0 -9035750000.0 -9035750000.0 -9035750000.0 -9035750000.0 -9035750000.0 -9035750000.0 -9035750000.0 -9035750000.0 -9035750000.0 -9035750000.0 -9035750000.0 -9035750000.0 -9035750000.0 -9035750000.0 -9035750000.0 -9035750000.0 -9035750000.0 -9035750000.0 -9035750000.0 -9035750000.0 -9035750000.0 -9035750000.0 -9035750000.0 -9035750000.0 -9035750000.0 -9035750000.0 -9035750000.0 -9035750000.0 -9035750000.0 -9035750000.0 -9035750000.0 -9035750000.0 -9035750000.0 -9035750000.0 -9035750000.0 -9035750000.0 -9035750000.0 -9035750000.0 -9035750000.0 -9035750000.0 -9035750000.0 -9035750000.0 -9035750000.0 -9035750000.0 -9035750000.0 -9035750000.0 -9035750000.0 -9035750000.0 -9035750000.0 -9035750000.0 -9035750000.0 -9035750000.0 -9035750000.0 -9035750000.0 -9035750000.0 -9035750000.0 -9035750000.0 -9035750000.0 -9035750000.0 -9035750000.0 -9035750000.0 -9035750000.0 -9035750000.0 -9035750000.0 -9035750000.0 -9035750000.0 -9035750000.0 -9035750000.0 -9035750000.0 -9035750000.0 -9035750000.0 -9035750000.0 -9035750000.0 -9035750000.0 -9035750000.0 -9035750000.0 -9035750000.0 -9035750000.0 -9035750000.0 -9035750000.0 -9035750000.0 -9035750000.0 -9035750000.0 -9035750000.0 -9035750000.0 -9035750000.0 -9035750000.0 -9035750000.0 -9035750000.0 -9035750000.0 -9035750000.0 -9035750000.0 -9035750000.0 -9035750000.0 -9035750000.0 -9035750000.0 -9035750000.0 -9035750000.0 -9035750000.0 -9035750000.0 -9035750000.0 -9035750000.0 -9035750000.0 -9035750000.0 -9035750000.0 -9035750000.0 -9035750000.0 -9035750000.0 -9035750000.0 -9035750000.0 -9035750000.0 -9035750000.0 -9035750000.0 -9035750000.0 -9035750000.0 -9035750000.0 -9035750000.0 -9035750000.0 -9035750000.0 -9035750000.0 -9035750000.0 -9035750000.0 -9035750000.0 -9035750000.0 -9035750000.0 -9035750000.0 -9035750000.0 -9035750000.0 -9035750000.0 -9035750000.0 -9035750000.0 -9035750000.0 -9035750000.0 -9035750000.0 -9035750000.0 -9035750000.0 -9035750000.0 -9035750000.0 -9035750000.0 -9035750000.0 -9035750000.0 -9035750000.0 -9035750000.0 -9035750000.0 -9035750000.0 -9035750000.0 -9035750000.0 -9035750000.0 -9035750000.0 -9035750000.0 -9035750000.0 -9035750000.0 -9035750000.0 -9035750000.0 -9035750000.0 -9035750000.0 -9035750000.0 -9035750000.0 -9035750000.0 -9035750000.0 -9035750000.0 -9035750000.0 -9035750000.0 -9035750000.0 -9035750000.0 -9035750000.0 -9035750000.0 -9035750000.0 -9035750000.0 -9035750000.0 -9035750000.0 -9035750000.0 -9035750000.0 -9035750000.0 -9035750000.0 -9035750000.0 -9035750000.0 -9035750000.0 -9035750000.0 -9035750000.0 -9035750000.0 -9035750000.0 -9035750000.0 -9035750000.0 -9035750000.0 -9035750000.0 -9035750000.0 -9035750000.0 -9035750000.0 -9035750000.0 -9035750000.0 -9035750000.0 -9035750000.0 -9035750000.0 -9035750000.0 -9035750000.0 -9035750000.0 -9035750000.0 -9035750000.0 -9035750000.0 -9035750000.0 -9035750000.0 -9035750000.0 -9035750000.0 -9035750000.0 -9035750000.0 -9035750000.0 -9035750000.0 -9035750000.0 -9035750000.0 -9035750000.0 -9035750000.0 -9035750000.0 -9035750000.0 -9035750000.0 -9035750000.0 -9035750000.0 -9035750000.0 -9035750000.0 -9035750000.0 -9035750000.0 -9035750000.0 -9035750000.0 -9035750000.0 -9035750000.0 -9035750000.0 -9035750000.0 -9035750000.0 -9035750000.0 -9035750000.0 -9035750000.0 -9035750000.0 -9035750000.0 -9035750000.0 -9035750000.0 -9035750000.0 -9035750000.0 -9035750000.0 -9035750000.0 -9035750000.0 -9035750000.0 -9035750000.0 -9035750000.0 -9035750000.0 -9035750000.0 -9035750000.0 -9035750000.0 -9035750000.0 -9035750000.0 -9035750000.0 -9035750000.0 -9035750000.0 -9035750000.0 -9035750000.0 -9035750000.0 -9035750000.0 -9035750000.0 -9035750000.0 -9035750000.0 -9035750000.0 -9035750000.0 -9035750000.0 -9035750000.0 -9035750000.0 -9035750000.0 -9035750000.0 -9035750000.0 -9035750000.0 -9035750000.0 -9035750000.0 -9035750000.0 -9035750000.0 -9035750000.0 -9035750000.0 -9035750000.0 -9035750000.0 -9035750000.0 -9035750000.0 -9035750000.0 -9035750000.0 -9035750000.0 -9035750000.0 -9035750000.0 -9035750000.0 -9035750000.0 -9035750000.0 -9035750000.0 -9035750000.0 -9035750000.0 -9035750000.0 -9035750000.0 -9035750000.0 -9035750000.0 -9035750000.0 -9035750000.0 -9035750000.0 -9035750000.0 -9035750000.0 -9035750000.0 -9035750000.0 -9035750000.0 -9035750000.0 -9035750000.0 -9035750000.0 -9035750000.0 -9035750000.0 -9035750000.0 -9035750000.0 -9035750000.0 -9035750000.0 -9035750000.0 -9035750000.0 -9035750000.0 -9035750000.0 -9035750000.0 -9035750000.0 -9035750000.0 -9035750000.0 -9035750000.0 -9035750000.0 -9035750000.0 -9035750000.0 -9035750000.0 -9035750000.0 -9035750000.0 -9035750000.0 -9035750000.0 -9035750000.0 -9035750000.0 -9035750000.0 -9035750000.0 -9035750000.0 -9035750000.0 -9035750000.0 -9035750000.0 -9035750000.0 -9035750000.0 -9035750000.0 -9035750000.0 -9035750000.0 -9035750000.0 -9035750000.0 -9035750000.0 -9035750000.0 -9035750000.0 -9035750000.0 -9035750000.0 -9035750000.0 -9035750000.0 -9035750000.0 -9035750000.0 -9035750000.0 -9035750000.0 -9035750000.0 -9035750000.0 -9035750000.0 -9035750000.0 -9035750000.0 -9035750000.0 -9035750000.0 -9035750000.0 -9035750000.0 -9035750000.0 -9035750000.0 -9035750000.0 -9035750000.0 -9035750000.0 -9035750000.0 -9035750000.0 -9035750000.0 -9035750000.0 -9035750000.0 -9035750000.0 -9035750000.0 -9035750000.0 -9035750000.0 -9035750000.0 -9035750000.0 -9035750000.0 -9035750000.0 -9035750000.0 -9035750000.0 -9035750000.0 -9035750000.0 -9035750000.0 -9035750000.0 -9035750000.0 -9035750000.0 -9035750000.0 -9035750000.0 -9035750000.0 -9035750000.0 -9035750000.0 -9035750000.0 -9035750000.0 -9035750000.0 -9035750000.0 -9035750000.0 -9035750000.0 -9035750000.0 -9035750000.0 -9035750000.0 -9035750000.0 -9035750000.0 -9035750000.0 -9035750000.0 -9035750000.0 -9035750000.0 -9035750000.0 -9035750000.0 -9035750000.0 -9035750000.0 -9035750000.0 -9035750000.0 -9035750000.0 -9035750000.0 -9035750000.0 -9035750000.0 -9035750000.0 -9035750000.0 -9035750000.0 -9035750000.0 -9035750000.0 -9035750000.0 -9035750000.0 -9035750000.0 -9035750000.0 -9035750000.0 -9035750000.0 -9035750000.0 -9035750000.0 -9035750000.0 -9035750000.0 -9035750000.0 -9035750000.0 -9035750000.0 -9035750000.0 -9035750000.0 -9035750000.0 -9035750000.0 -9035750000.0 -9035750000.0 -9035750000.0 -9035750000.0 -9035750000.0 -9035750000.0 -9035750000.0 -9035750000.0 -9035750000.0 -9035750000.0 -9035750000.0 -9035750000.0 -9035750000.0 -9035750000.0 -9035750000.0 -9035750000.0 -9035750000.0 -9035750000.0 -9035750000.0 -9035750000.0 -9035750000.0 -9035750000.0 -9035750000.0 -9035750000.0 -9035750000.0 -9035750000.0 -9035750000.0 -9035750000.0 -9035750000.0 -9035750000.0 -9035750000.0 -9035750000.0 -9035750000.0 -9035750000.0 -9035750000.0 -9035750000.0 -9035750000.0 -9035750000.0 -9035750000.0 -9035750000.0 -9035750000.0 -9035750000.0 -9035750000.0 -9035750000.0 -9035750000.0 -9035750000.0 -9035750000.0 -9035750000.0 -9035750000.0 -9035750000.0 -9035750000.0 -9035750000.0 -9035750000.0 -9035750000.0 -9035750000.0 -9035750000.0 -9035750000.0 -9035750000.0 -9035750000.0 -9035750000.0 -9035750000.0 -9035750000.0 -9035750000.0 -9035750000.0 -9035750000.0 -9035750000.0 -9035750000.0 -9035750000.0 -9035750000.0 -9035750000.0 -9035750000.0 -9035750000.0 -9035750000.0 -9035750000.0 -9035750000.0 -9035750000.0 -9035750000.0 -9035750000.0 -9035750000.0 -9035750000.0 -9035750000.0 -9035750000.0 -9035750000.0 -9035750000.0 -9035750000.0 -9035750000.0 -9035750000.0 -9035750000.0 -9035750000.0 -9035750000.0 -9035750000.0 -9035750000.0 -9035750000.0 -9035750000.0 -9035750000.0 -9035750000.0 -9035750000.0 -9035750000.0 -9035750000.0 -9035750000.0 -9035750000.0 -9035750000.0 -9035750000.0 -9035750000.0 -9035750000.0 -9035750000.0 -9035750000.0 -9035750000.0 -9035750000.0 -9035750000.0 -9035750000.0 -9035750000.0 -9035750000.0 -9035750000.0 -9035750000.0 -9035750000.0 -9035750000.0 -9035750000.0 -9035750000.0 -9035750000.0 -9035750000.0 -9035750000.0 -9035750000.0 -9035750000.0 -9035750000.0 -9035750000.0 -9035750000.0 -9035750000.0 -9035750000.0 -9035750000.0 -9035750000.0 -9035750000.0 -9035750000.0 -9035750000.0 -9035750000.0 -9035750000.0 -9035750000.0 -9035750000.0 -9035750000.0 -9035750000.0 -9035750000.0 -9035750000.0 -9035750000.0 -9035750000.0 -9035750000.0 -9035750000.0 -9035750000.0 -9035750000.0 -9035750000.0 -9035750000.0 -9035750000.0 -9035750000.0 -9035750000.0 -9035750000.0 -9035750000.0 -9035750000.0 -9035750000.0 -9035750000.0 -9035750000.0 -9035750000.0 -9035750000.0 -9035750000.0 -9035750000.0 -9035750000.0 -9035750000.0 -9035750000.0 -9035750000.0 -9035750000.0 -9035750000.0 -9035750000.0 -9035750000.0 -9035750000.0 -9035750000.0 -9035750000.0 -9035750000.0 -9035750000.0 -9035750000.0 -9035750000.0 -9035750000.0 -9035750000.0 -9035750000.0 -9035750000.0 -9035750000.0 -9035750000.0 -9035750000.0 -9035750000.0 -9035750000.0 -9035750000.0 -9035750000.0 -9035750000.0 -9035750000.0 -9035750000.0 -9035750000.0 -9035750000.0 -9035750000.0 -9035750000.0 -9035750000.0 -9035750000.0 -9035750000.0 -9035750000.0 -9035750000.0 -9035750000.0 -9035750000.0 -9035750000.0 -9035750000.0 -9035750000.0 -9035750000.0 -9035750000.0 -9035750000.0 -9035750000.0 -9035750000.0 -9035750000.0 -9035750000.0 -9035750000.0 -9035750000.0 -9035750000.0 -9035750000.0 -9035750000.0 -9035750000.0 -9035750000.0 -9035750000.0 -9035750000.0 -9035750000.0 -9035750000.0 -9035750000.0 -9035750000.0 -9035750000.0 -9035750000.0 -9035750000.0 -9035750000.0 -9035750000.0 -9035750000.0 -9035750000.0 -9035750000.0 -9035750000.0 -9035750000.0 -9035750000.0 -9035750000.0 -9035750000.0 -9035750000.0 -9035750000.0 -9035750000.0 -9035750000.0 -9035750000.0 -9035750000.0 -9035750000.0 -9035750000.0 -9035750000.0 -9035750000.0 -9035750000.0 -9035750000.0 -9035750000.0 -9035750000.0 -9035750000.0 -9035750000.0 -9035750000.0 -9035750000.0 -9035750000.0 -9035750000.0 -9035750000.0 -9035750000.0 -9035750000.0 -9035750000.0 -9035750000.0 -9035750000.0 -9035750000.0 -9035750000.0 -9035750000.0 -9035750000.0 -9035750000.0 -9035750000.0 -9035750000.0 -9035750000.0 -9035750000.0 -9035750000.0 -9035750000.0 -9035750000.0 -9035750000.0 -9035750000.0 -9035750000.0 -9035750000.0 -9035750000.0 -9035750000.0 -9035750000.0 -9035750000.0 -9035750000.0 -9035750000.0 -9035750000.0 -9035750000.0 -9035750000.0 -9035750000.0 -9035750000.0 -9035750000.0 -9035750000.0 -9035750000.0 -9035750000.0 -9035750000.0 -9035750000.0 -9035750000.0 -9035750000.0 -9035750000.0 -9035750000.0 -9035750000.0 -9035750000.0 -9035750000.0 -9035750000.0 -9035750000.0 -9035750000.0 -9035750000.0 -9035750000.0 -9035750000.0 -9035750000.0 -9035750000.0 -9035750000.0 -9035750000.0 -9035750000.0 -9035750000.0 -9035750000.0 -9035750000.0 -9035750000.0 -9035750000.0 -9035750000.0 -9035750000.0 -9035750000.0 -9035750000.0 -9035750000.0 -9035750000.0 -9035750000.0 -9035750000.0 -9035750000.0 -9035750000.0 -9035750000.0 -9035750000.0 -9035750000.0 -9035750000.0 -9035750000.0 -9035750000.0 -9035750000.0 -9035750000.0 -9035750000.0 -9035750000.0 -9035750000.0 -9035750000.0 -9035750000.0 -9035750000.0 -9035750000.0 -9035750000.0 -9035750000.0 -9035750000.0 -9035750000.0 -9035750000.0 -9035750000.0 -9035750000.0 -9035750000.0 -9035750000.0 -9035750000.0 -9035750000.0 -9035750000.0 -9035750000.0 -9035750000.0 -9035750000.0 -9035750000.0 -9035750000.0 -9035750000.0 -9035750000.0 -9035750000.0 -9035750000.0 -9035750000.0 -9035750000.0 -9035750000.0 -9035750000.0 -9035750000.0 -9035750000.0 -9035750000.0 -9035750000.0 -9035750000.0 -9035750000.0 -9035750000.0 -9035750000.0 -9035750000.0 -9035750000.0 -9035750000.0 -9035750000.0 -9035750000.0 -9035750000.0 -9035750000.0 -9035750000.0 -9035750000.0 -9035750000.0 -9035750000.0 -9035750000.0 -9035750000.0 -9035750000.0 -9035750000.0 -9035750000.0 -9035750000.0 -9035750000.0 -9035750000.0 -9035750000.0 -9035750000.0 -9035750000.0 -9035750000.0 -9035750000.0 -9035750000.0 -9035750000.0 -9035750000.0 -9035750000.0 -9035750000.0 -9035750000.0 -9035750000.0 -9035750000.0 -9035750000.0 -9035750000.0 -9035750000.0 -9035750000.0 -9035750000.0 -9035750000.0 -9035750000.0 -9035750000.0 -9035750000.0 -9035750000.0 -9035750000.0 -9035750000.0 -9035750000.0 -9035750000.0 -9035750000.0 -9035750000.0 -9035750000.0 -9035750000.0 -9035750000.0 -9035750000.0 -9035750000.0 -9035750000.0 -9035750000.0 -9035750000.0 -9035750000.0 -9035750000.0 -9035750000.0 -9035750000.0 -9035750000.0 -9035750000.0 -9035750000.0 -9035750000.0 -9035750000.0 -9035750000.0 -9035750000.0 -9035750000.0 -9035750000.0 -9035750000.0 -9035750000.0 -9035750000.0 -9035750000.0 -9035750000.0 -9035750000.0 -9035750000.0 -9035750000.0 -9035750000.0 -9035750000.0 -9035750000.0 -9035750000.0 -9035750000.0 -9035750000.0 -9035750000.0 -9035750000.0 -9035750000.0 -9035750000.0 -9035750000.0 -9035750000.0 -9035750000.0 -9035750000.0 -9035750000.0 -9035750000.0 -9035750000.0 -9035750000.0 -9035750000.0 -9035750000.0 -9035750000.0 -9035750000.0 -9035750000.0 -9035750000.0 -9035750000.0 -9035750000.0 -9035750000.0 -9035750000.0 -9035750000.0 -9035750000.0 -9035750000.0 -9035750000.0 -9035750000.0 -9035750000.0 -9035750000.0 -9035750000.0 -9035750000.0 -9035750000.0 -9035750000.0 -9035750000.0 -9035750000.0 -9035750000.0 -9035750000.0 -9035750000.0 -9035750000.0 -9035750000.0 -9035750000.0 -9035750000.0 -9035750000.0 -9035750000.0 -9035750000.0 -9035750000.0 -9035750000.0 -9035750000.0 -9035750000.0 -9035750000.0 -9035750000.0 -9035750000.0 -9035750000.0 -9035750000.0 -9035750000.0 -9035750000.0 -9035750000.0 -9035750000.0 -9035750000.0 -9035750000.0 -9035750000.0 -9035750000.0 -9035750000.0 -9035750000.0 -9035750000.0 -9035750000.0 -9035750000.0 -9035750000.0 -9035750000.0 -9035750000.0 -9035750000.0 -9035750000.0 -9035750000.0 -9035750000.0 -9035750000.0 -9035750000.0 -9035750000.0 -9035750000.0 -9035750000.0 -9035750000.0 -9035750000.0 -9035750000.0 -9035750000.0 -9035750000.0 -9035750000.0 -9035750000.0 -9035750000.0 -9035750000.0 -9035750000.0 -9035750000.0 -9035750000.0 -9035750000.0 -9035750000.0 -9035750000.0 -9035750000.0 -9035750000.0 -9035750000.0 -9035750000.0 -9035750000.0 -9035750000.0 -9035750000.0 -9035750000.0 -9035750000.0 -9035750000.0 -9035750000.0 -9035750000.0 -9035750000.0 -9035750000.0 -9035750000.0 -9035750000.0 -9035750000.0 -9035750000.0 -9035750000.0 -9035750000.0 -9035750000.0 -9035750000.0 -9035750000.0 -9035750000.0 -9035750000.0 -9035750000.0 -9035750000.0 -9035750000.0 -9035750000.0 -9035750000.0 -9035750000.0 -9035750000.0 -9035750000.0 -9035750000.0 -9035750000.0 -9035750000.0 -9035750000.0 -9035750000.0 -9035750000.0 -9035750000.0 -9035750000.0 -9035750000.0 -9035750000.0 -9035750000.0 -9035750000.0 -9035750000.0 -9035750000.0 -9035750000.0 -9035750000.0 -9035750000.0 -9035750000.0 -9035750000.0 -9035750000.0 -9035750000.0 -9035750000.0 -9035750000.0 -9035750000.0 -9035750000.0 -9035750000.0 -9035750000.0 -9035750000.0 -9035750000.0 -9035750000.0 -9035750000.0 -9035750000.0 -9035750000.0 -9035750000.0 -9035750000.0 -9035750000.0 -9035750000.0 -9035750000.0 -9035750000.0 -9035750000.0 -9035750000.0 -9035750000.0 -9035750000.0 -9035750000.0 -9035750000.0 -9035750000.0 -9035750000.0 -9035750000.0 -9035750000.0 -9035750000.0 -9035750000.0 -9035750000.0 -9035750000.0 -9035750000.0 -9035750000.0 -9035750000.0 -9035750000.0 -9035750000.0 -9035750000.0 -9035750000.0 -9035750000.0 -9035750000.0 -9035750000.0 -9035750000.0 -9035750000.0 -9035750000.0 -9035750000.0 -9035750000.0 -9035750000.0 -9035750000.0 -9035750000.0 -9035750000.0 -9035750000.0 -9035750000.0 -9035750000.0 -9035750000.0 -9035750000.0 -9035750000.0 -9035750000.0 -9035750000.0 -9035750000.0 -9035750000.0 -9035750000.0 -9035750000.0 -9035750000.0 -9035750000.0 -9035750000.0 -9035750000.0 -9035750000.0 -9035750000.0 -9035750000.0 -9035750000.0 -9035750000.0 -9035750000.0 -9035750000.0 -9035750000.0 -9035750000.0 -9035750000.0 -9035750000.0 -9035750000.0 -9035750000.0 -9035750000.0 -9035750000.0 -9035750000.0 -9035750000.0 -9035750000.0 -9035750000.0 -9035750000.0 -9035750000.0 -9035750000.0 -9035750000.0 -9035750000.0 -9035750000.0 -9035750000.0 -9035750000.0 -9035750000.0 -9035750000.0 -9035750000.0 -9035750000.0 -9035750000.0 -9035750000.0 -9035750000.0 -9035750000.0 -9035750000.0 -9035750000.0 -9035750000.0 -9035750000.0 -9035750000.0 -9035750000.0 -9035750000.0 -9035750000.0 -9035750000.0 -9035750000.0 -9035750000.0 -9035750000.0 -9035750000.0 -9035750000.0 -9035750000.0 -9035750000.0 -9035750000.0 -9035750000.0 -9035750000.0 -9035750000.0 -9035750000.0 -9035750000.0 -9035750000.0 -9035750000.0 -9035750000.0 -9035750000.0 -9035750000.0 -9035750000.0 -9035750000.0 -9035750000.0 -9035750000.0 -9035750000.0 -9035750000.0 -9035750000.0 -9035750000.0 -9035750000.0 -9035750000.0 -9035750000.0 -9035750000.0 -9035750000.0 -9035750000.0 -9035750000.0 -9035750000.0 -9035750000.0 -9035750000.0 -9035750000.0 -9035750000.0 -9035750000.0 -9035750000.0 -9035750000.0 -9035750000.0 -9035750000.0 -9035750000.0 -9035750000.0 -9035750000.0 -9035750000.0 -9035750000.0 -9035750000.0 -9035750000.0 -9035750000.0 -9035750000.0 -9035750000.0 -9035750000.0 -9035750000.0 -9035750000.0 -9035750000.0 -9035750000.0 -9035750000.0 -9035750000.0 -9035750000.0 -9035750000.0 -9035750000.0 -9035750000.0 -9035750000.0 -9035750000.0 -9035750000.0 -9035750000.0 -9035750000.0 -9035750000.0 -9035750000.0 -9035750000.0 -9035750000.0 -9035750000.0 
SCALARS Shear_Stress float 1
LOOKUP_TABLE default
9035750000.0 9035750000.0 9035750000.0 9035750000.0 9035750000.0 9035750000.0 9035750000.0 9035750000.0 9035750000.0 9035750000.0 9035750000.0 9035750000.0 9035750000.0 9035750000.0 9035750000.0 9035750000.0 9035750000.0 9035750000.0 9035750000.0 9035750000.0 9035750000.0 9035750000.0 9035750000.0 9035750000.0 9035750000.0 9035750000.0 9035750000.0 9035750000.0 9035750000.0 9035750000.0 9035750000.0 9035750000.0 9035750000.0 9035750000.0 9035750000.0 9035750000.0 9035750000.0 9035750000.0 9035750000.0 9035750000.0 9035750000.0 9035750000.0 9035750000.0 9035750000.0 9035750000.0 9035750000.0 9035750000.0 9035750000.0 9035750000.0 9035750000.0 9035750000.0 9035750000.0 9035750000.0 9035750000.0 9035750000.0 9035750000.0 9035750000.0 9035750000.0 9035750000.0 9035750000.0 9035750000.0 9035750000.0 9035750000.0 9035750000.0 9035750000.0 9035750000.0 9035750000.0 9035750000.0 9035750000.0 9035750000.0 9035750000.0 9035750000.0 9035750000.0 9035750000.0 9035750000.0 9035750000.0 9035750000.0 9035750000.0 9035750000.0 9035750000.0 9035750000.0 9035750000.0 9035750000.0 9035750000.0 9035750000.0 9035750000.0 9035750000.0 9035750000.0 9035750000.0 9035750000.0 9035750000.0 9035750000.0 9035750000.0 9035750000.0 9035750000.0 9035750000.0 9035750000.0 9035750000.0 9035750000.0 9035750000.0 9035750000.0 9035750000.0 9035750000.0 9035750000.0 9035750000.0 9035750000.0 9035750000.0 9035750000.0 9035750000.0 9035750000.0 9035750000.0 9035750000.0 9035750000.0 9035750000.0 9035750000.0 9035750000.0 9035750000.0 9035750000.0 9035750000.0 9035750000.0 9035750000.0 9035750000.0 9035750000.0 9035750000.0 9035750000.0 9035750000.0 9035750000.0 9035750000.0 9035750000.0 9035750000.0 9035750000.0 9035750000.0 9035750000.0 9035750000.0 9035750000.0 9035750000.0 9035750000.0 9035750000.0 9035750000.0 9035750000.0 9035750000.0 9035750000.0 9035750000.0 9035750000.0 9035750000.0 9035750000.0 9035750000.0 9035750000.0 9035750000.0 9035750000.0 9035750000.0 9035750000.0 9035750000.0 9035750000.0 9035750000.0 9035750000.0 9035750000.0 9035750000.0 9035750000.0 9035750000.0 9035750000.0 9035750000.0 9035750000.0 9035750000.0 9035750000.0 9035750000.0 9035750000.0 9035750000.0 9035750000.0 9035750000.0 9035750000.0 9035750000.0 9035750000.0 9035750000.0 9035750000.0 9035750000.0 9035750000.0 9035750000.0 9035750000.0 9035750000.0 9035750000.0 9035750000.0 9035750000.0 9035750000.0 9035750000.0 9035750000.0 9035750000.0 9035750000.0 9035750000.0 9035750000.0 9035750000.0 9035750000.0 9035750000.0 9035750000.0 9035750000.0 9035750000.0 9035750000.0 9035750000.0 9035750000.0 9035750000.0 9035750000.0 9035750000.0 9035750000.0 9035750000.0 9035750000.0 9035750000.0 9035750000.0 9035750000.0 9035750000.0 9035750000.0 9035750000.0 9035750000.0 9035750000.0 9035750000.0 9035750000.0 9035750000.0 9035750000.0 9035750000.0 9035750000.0 9035750000.0 9035750000.0 9035750000.0 9035750000.0 9035750000.0 9035750000.0 9035750000.0 9035750000.0 9035750000.0 9035750000.0 9035750000.0 9035750000.0 9035750000.0 9035750000.0 9035750000.0 9035750000.0 9035750000.0 9035750000.0 9035750000.0 9035750000.0 9035750000.0 9035750000.0 9035750000.0 9035750000.0 9035750000.0 9035750000.0 9035750000.0 9035750000.0 9035750000.0 9035750000.0 9035750000.0 9035750000.0 9035750000.0 9035750000.0 9035750000.0 9035750000.0 9035750000.0 9035750000.0 9035750000.0 9035750000.0 9035750000.0 9035750000.0 9035750000.0 9035750000.0 9035750000.0 9035750000.0 9035750000.0 9035750000.0 9035750000.0 9035750000.0 9035750000.0 9035750000.0 9035750000.0 9035750000.0 9035750000.0 9035750000.0 9035750000.0 9035750000.0 9035750000.0 9035750000.0 9035750000.0 9035750000.0 9035750000.0 9035750000.0 9035750000.0 9035750000.0 9035750000.0 9035750000.0 9035750000.0 9035750000.0 9035750000.0 9035750000.0 9035750000.0 9035750000.0 9035750000.0 9035750000.0 9035750000.0 9035750000.0 9035750000.0 9035750000.0 9035750000.0 9035750000.0 9035750000.0 9035750000.0 9035750000.0 9035750000.0 9035750000.0 9035750000.0 9035750000.0 9035750000.0 9035750000.0 9035750000.0 9035750000.0 9035750000.0 9035750000.0 9035750000.0 9035750000.0 9035750000.0 9035750000.0 9035750000.0 9035750000.0 9035750000.0 9035750000.0 9035750000.0 9035750000.0 9035750000.0 9035750000.0 9035750000.0 9035750000.0 9035750000.0 9035750000.0 9035750000.0 9035750000.0 9035750000.0 9035750000.0 9035750000.0 9035750000.0 9035750000.0 9035750000.0 9035750000.0 9035750000.0 9035750000.0 9035750000.0 9035750000.0 9035750000.0 9035750000.0 9035750000.0 9035750000.0 9035750000.0 9035750000.0 9035750000.0 9035750000.0 9035750000.0 9035750000.0 9035750000.0 9035750000.0 9035750000.0 9035750000.0 9035750000.0 9035750000.0 9035750000.0 9035750000.0 9035750000.0 9035750000.0 9035750000.0 9035750000.0 9035750000.0 9035750000.0 9035750000.0 9035750000.0 9035750000.0 9035750000.0 9035750000.0 9035750000.0 9035750000.0 9035750000.0 9035750000.0 9035750000.0 9035750000.0 9035750000.0 9035750000.0 9035750000.0 9035750000.0 9035750000.0 9035750000.0 9035750000.0 9035750000.0 9035750000.0 9035750000.0 9035750000.0 9035750000.0 9035750000.0 9035750000.0 9035750000.0 9035750000.0 9035750000.0 9035750000.0 9035750000.0 9035750000.0 9035750000.0 9035750000.0 9035750000.0 9035750000.0 9035750000.0 9035750000.0 9035750000.0 9035750000.0 9035750000.0 9035750000.0 9035750000.0 9035750000.0 9035750000.0 9035750000.0 9035750000.0 9035750000.0 9035750000.0 9035750000.0 9035750000.0 9035750000.0 9035750000.0 9035750000.0 9035750000.0 9035750000.0 9035750000.0 9035750000.0 9035750000.0 9035750000.0 9035750000.0 9035750000.0 9035750000.0 9035750000.0 9035750000.0 9035750000.0 9035750000.0 9035750000.0 9035750000.0 9035750000.0 9035750000.0 9035750000.0 9035750000.0 9035750000.0 9035750000.0 9035750000.0 9035750000.0 9035750000.0 9035750000.0 9035750000.0 9035750000.0 9035750000.0 9035750000.0 9035750000.0 9035750000.0 9035750000.0 9035750000.0 9035750000.0 9035750000.0 9035750000.0 9035750000.0 9035750000.0 9035750000.0 9035750000.0 9035750000.0 9035750000.0 9035750000.0 9035750000.0 9035750000.0 9035750000.0 9035750000.0 9035750000.0 9035750000.0 9035750000.0 9035750000.0 9035750000.0 9035750000.0 9035750000.0 9035750000.0 9035750000.0 9035750000.0 9035750000.0 9035750000.0 9035750000.0 9035750000.0 9035750000.0 9035750000.0 9035750000.0 9035750000.0 9035750000.0 9035750000.0 9035750000.0 9035750000.0 9035750000.0 9035750000.0 9035750000.0 9035750000.0 9035750000.0 9035750000.0 9035750000.0 9035750000.0 9035750000.0 9035750000.0 9035750000.0 9035750000.0 9035750000.0 9035750000.0 9035750000.0 9035750000.0 9035750000.0 9035750000.0 9035750000.0 9035750000.0 9035750000.0 9035750000.0 9035750000.0 9035750000.0 9035750000.0 9035750000.0 9035750000.0 9035750000.0 9035750000.0 9035750000.0 9035750000.0 9035750000.0 9035750000.0 9035750000.0 9035750000.0 9035750000.0 9035750000.0 9035750000.0 9035750000.0 9035750000.0 9035750000.0 9035750000.0 9035750000.0 9035750000.0 9035750000.0 9035750000.0 9035750000.0 9035750000.0 9035750000.0 9035750000.0 9035750000.0 9035750000.0 9035750000.0 9035750000.0 9035750000.0 9035750000.0 9035750000.0 9035750000.0 9035750000.0 9035750000.0 9035750000.0 9035750000.0 9035750000.0 9035750000.0 9035750000.0 9035750000.0 9035750000.0 9035750000.0 9035750000.0 9035750000.0 9035750000.0 9035750000.0 9035750000.0 9035750000.0 9035750000.0 9035750000.0 9035750000.0 9035750000.0 9035750000.0 9035750000.0 9035750000.0 9035750000.0 9035750000.0 9035750000.0 9035750000.0 9035750000.0 9035750000.0 9035750000.0 9035750000.0 9035750000.0 9035750000.0 9035750000.0 9035750000.0 9035750000.0 9035750000.0 9035750000.0 9035750000.0 9035750000.0 9035750000.0 9035750000.0 9035750000.0 9035750000.0 9035750000.0 9035750000.0 9035750000.0 9035750000.0 9035750000.0 9035750000.0 9035750000.0 9035750000.0 9035750000.0 9035750000.0 9035750000.0 9035750000.0 9035750000.0 9035750000.0 9035750000.0 9035750000.0 9035750000.0 9035750000.0 9035750000.0 9035750000.0 9035750000.0 9035750000.0 9035750000.0 9035750000.0 9035750000.0 9035750000.0 9035750000.0 9035750000.0 9035750000.0 9035750000.0 9035750000.0 9035750000.0 9035750000.0 9035750000.0 9035750000.0 9035750000.0 9035750000.0 9035750000.0 9035750000.0 9035750000.0 9035750000.0 9035750000.0 9035750000.0 9035750000.0 9035750000.0 9035750000.0 9035750000.0 9035750000.0 9035750000.0 9035750000.0 9035750000.0 9035750000.0 9035750000.0 9035750000.0 9035750000.0 9035750000.0 9035750000.0 9035750000.0 9035750000.0 9035750000.0 9035750000.0 9035750000.0 9035750000.0 9035750000.0 9035750000.0 9035750000.0 9035750000.0 9035750000.0 9035750000.0 9035750000.0 9035750000.0 9035750000.0 9035750000.0 9035750000.0 9035750000.0 9035750000.0 9035750000.0 9035750000.0 9035750000.0 9035750000.0 9035750000.0 9035750000.0 9035750000.0 9035750000.0 9035750000.0 9035750000.0 9035750000.0 9035750000.0 9035750000.0 9035750000.0 9035750000.0 9035750000.0 9035750000.0 9035750000.0 9035750000.0 9035750000.0 9035750000.0 9035750000.0 9035750000.0 9035750000.0 9035750000.0 9035750000.0 9035750000.0 9035750000.0 9035750000.0 9035750000.0 9035750000.0 9035750000.0 9035750000.0 9035750000.0 9035750000.0 9035750000.0 9035750000.0 9035750000.0 9035750000.0 9035750000.0 9035750000.0 9035750000.0 9035750000.0 9035750000.0 9035750000.0 9035750000.0 9035750000.0 9035750000.0 9035750000.0 9035750000.0 9035750000.0 9035750000.0 9035750000.0 9035750000.0 9035750000.0 9035750000.0 9035750000.0 9035750000.0 9035750000.0 9035750000.0 9035750000.0 9035750000.0 9035750000.0 9035750000.0 9035750000.0 9035750000.0 9035750000.0 9035750000.0 9035750000.0 9035750000.0 9035750000.0 9035750000.0 9035750000.0 9035750000.0 9035750000.0 9035750000.0 9035750000.0 9035750000.0 9035750000.0 9035750000.0 9035750000.0 9035750000.0 9035750000.0 9035750000.0 9035750000.0 9035750000.0 9035750000.0 9035750000.0 9035750000.0 9035750000.0 9035750000.0 9035750000.0 9035750000.0 9035750000.0 9035750000.0 9035750000.0 9035750000.0 9035750000.0 9035750000.0 9035750000.0 9035750000.0 9035750000.0 9035750000.0 9035750000.0 9035750000.0 9035750000.0 9035750000.0 9035750000.0 9035750000.0 9035750000.0 9035750000.0 9035750000.0 9035750000.0 9035750000.0 9035750000.0 9035750000.0 9035750000.0 9035750000.0 9035750000.0 9035750000.0 9035750000.0 9035750000.0 9035750000.0 9035750000.0 9035750000.0 9035750000.0 9035750000.0 9035750000.0 9035750000.0 9035750000.0 9035750000.0 9035750000.0 9035750000.0 9035750000.0 9035750000.0 9035750000.0 9035750000.0 9035750000.0 9035750000.0 9035750000.0 9035750000.0 9035750000.0 9035750000.0 9035750000.0 9035750000.0 9035750000.0 9035750000.0 9035750000.0 9035750000.0 9035750000.0 9035750000.0 9035750000.0 9035750000.0 9035750000.0 9035750000.0 9035750000.0 9035750000.0 9035750000.0 9035750000.0 9035750000.0 9035750000.0 9035750000.0 9035750000.0 9035750000.0 9035750000.0 9035750000.0 9035750000.0 9035750000.0 9035750000.0 9035750000.0 9035750000.0 9035750000.0 9035750000.0 9035750000.0 9035750000.0 9035750000.0 9035750000.0 9035750000.0 9035750000.0 9035750000.0 9035750000.0 9035750000.0 9035750000.0 9035750000.0 9035750000.0 9035750000.0 9035750000.0 9035750000.0 9035750000.0 9035750000.0 9035750000.0 9035750000.0 9035750000.0 9035750000.0 9035750000.0 9035750000.0 9035750000.0 9035750000.0 9035750000.0 9035750000.0 9035750000.0 9035750000.0 9035750000.0 9035750000.0 9035750000.0 9035750000.0 9035750000.0 9035750000.0 9035750000.0 9035750000.0 9035750000.0 9035750000.0 9035750000.0 9035750000.0 9035750000.0 9035750000.0 9035750000.0 9035750000.0 9035750000.0 9035750000.0 9035750000.0 9035750000.0 9035750000.0 9035750000.0 9035750000.0 9035750000.0 9035750000.0 9035750000.0 9035750000.0 9035750000.0 9035750000.0 9035750000.0 9035750000.0 9035750000.0 9035750000.0 9035750000.0 9035750000.0 9035750000.0 9035750000.0 9035750000.0 9035750000.0 9035750000.0 9035750000.0 9035750000.0 9035750000.0 9035750000.0 9035750000.0 9035750000.0 9035750000.0 9035750000.0 9035750000.0 9035750000.0 9035750000.0 9035750000.0 9035750000.0 9035750000.0 9035750000.0 9035750000.0 9035750000.0 9035750000.0 9035750000.0 9035750000.0 9035750000.0 9035750000.0 9035750000.0 9035750000.0 9035750000.0 9035750000.0 9035750000.0 9035750000.0 9035750000.0 9035750000.0 9035750000.0 9035750000.0 9035750000.0 9035750000.0 9035750000.0 9035750000.0 9035750000.0 9035750000.0 9035750000.0 9035750000.0 9035750000.0 9035750000.0 9035750000.0 9035750000.0 9035750000.0 9035750000.0 9035750000.0 9035750000.0 9035750000.0 9035750000.0 9035750000.0 9035750000.0 9035750000.0 9035750000.0 9035750000.0 9035750000.0 9035750000.0 9035750000.0 9035750000.0 9035750000.0 9035750000.0 9035750000.0 9035750000.0 9035750000.0 9035750000.0 9035750000.0 9035750000.0 9035750000.0 9035750000.0 9035750000.0 9035750000.0 9035750000.0 9035750000.0 9035750000.0 9035750000.0 9035750000.0 9035750000.0 9035750000.0 9035750000.0 9035750000.0 9035750000.0 9035750000.0 9035750000.0 9035750000.0 9035750000.0 9035750000.0 9035750000.0 9035750000.0 9035750000.0 9035750000.0 9035750000.0 9035750000.0 9035750000.0 9035750000.0 9035750000.0 9035750000.0 9035750000.0 9035750000.0 9035750000.0 9035750000.0 9035750000.0 9035750000.0 9035750000.0 9035750000.0 9035750000.0 9035750000.0 9035750000.0 9035750000.0 9035750000.0 9035750000.0 9035750000.0 9035750000.0 9035750000.0 9035750000.0 9035750000.0 9035750000.0 9035750000.0 9035750000.0 9035750000.0 9035750000.0 9035750000.0 9035750000.0 9035750000.0 9035750000.0 9035750000.0 9035750000.0 9035750000.0 9035750000.0 9035750000.0 9035750000.0 9035750000.0 9035750000.0 9035750000.0 9035750000.0 9035750000.0 9035750000.0 9035750000.0 9035750000.0 9035750000.0 9035750000.0 9035750000.0 9035750000.0 9035750000.0 9035750000.0 9035750000.0 9035750000.0 9035750000.0 9035750000.0 9035750000.0 9035750000.0 9035750000.0 9035750000.0 9035750000.0 9035750000.0 9035750000.0 9035750000.0 9035750000.0 9035750000.0 9035750000.0 9035750000.0 9035750000.0 9035750000.0 9035750000.0 9035750000.0 9035750000.0 9035750000.0 9035750000.0 9035750000.0 9035750000.0 9035750000.0 9035750000.0 9035750000.0 9035750000.0 9035750000.0 9035750000.0 9035750000.0 9035750000.0 9035750000.0 9035750000.0 9035750000.0 9035750000.0 9035750000.0 9035750000.0 9035750000.0 9035750000.0 9035750000.0 9035750000.0 9035750000.0 9035750000.0 9035750000.0 9035750000.0 9035750000.0 9035750000.0 9035750000.0 9035750000.0 9035750000.0 9035750000.0 9035750000.0 9035750000.0 9035750000.0 9035750000.0 9035750000.0 9035750000.0 9035750000.0 9035750000.0 9035750000.0 9035750000.0 9035750000.0 9035750000.0 9035750000.0 9035750000.0 9035750000.0 9035750000.0 9035750000.0 9035750000.0 9035750000.0 9035750000.0 9035750000.0 9035750000.0 9035750000.0 9035750000.0 9035750000.0 9035750000.0 9035750000.0 9035750000.0 9035750000.0 9035750000.0 9035750000.0 9035750000.0 9035750000.0 9035750000.0 9035750000.0 9035750000.0 9035750000.0 9035750000.0 9035750000.0 9035750000.0 9035750000.0 9035750000.0 9035750000.0 9035750000.0 9035750000.0 9035750000.0 9035750000.0 9035750000.0 9035750000.0 9035750000.0 9035750000.0 9035750000.0 9035750000.0 9035750000.0 9035750000.0 9035750000.0 9035750000.0 9035750000.0 9035750000.0 9035750000.0 9035750000.0 9035750000.0 9035750000.0 9035750000.0 9035750000.0 9035750000.0 9035750000.0 9035750000.0 9035750000.0 9035750000.0 9035750000.0 9035750000.0 9035750000.0 9035750000.0 9035750000.0 9035750000.0 9035750000.0 9035750000.0 9035750000.0 9035750000.0 9035750000.0 9035750000.0 9035750000.0 9035750000.0 9035750000.0 9035750000.0 9035750000.0 9035750000.0 9035750000.0 9035750000.0 9035750000.0 9035750000.0 9035750000.0 9035750000.0 9035750000.0 9035750000.0 9035750000.0 9035750000.0 9035750000.0 9035750000.0 9035750000.0 9035750000.0 9035750000.0 9035750000.0 9035750000.0 9035750000.0 9035750000.0 9035750000.0 9035750000.0 9035750000.0 9035750000.0 9035750000.0 9035750000.0 9035750000.0 9035750000.0 9035750000.0 9035750000.0 9035750000.0 9035750000.0 9035750000.0 9035750000.0 9035750000.0 9035750000.0 9035750000.0 9035750000.0 9035750000.0 9035750000.0 9035750000.0 9035750000.0 9035750000.0 9035750000.0 9035750000.0 9035750000.0 9035750000.0 9035750000.0 9035750000.0 9035750000.0 9035750000.0 9035750000.0 9035750000.0 9035750000.0 9035750000.0 9035750000.0 9035750000.0 9035750000.0 9035750000.0 9035750000.0 9035750000.0 9035750000.0 9035750000.0 9035750000.0 9035750000.0 9035750000.0 9035750000.0 9035750000.0 9035750000.0 9035750000.0 9035750000.0 9035750000.0 9035750000.0 9035750000.0 9035750000.0 9035750000.0 9035750000.0 9035750000.0 9035750000.0 9035750000.0 9035750000.0 9035750000.0 9035750000.0 9035750000.0 9035750000.0 9035750000.0 9035750000.0 9035750000.0 9035750000.0 9035750000.0 9035750000.0 9035750000.0 9035750000.0 9035750000.0 9035750000.0 9035750000.0 9035750000.0 9035750000.0 9035750000.0 9035750000.0 9035750000.0 9035750000.0 9035750000.0 9035750000.0 9035750000.0 9035750000.0 9035750000.0 9035750000.0 9035750000.0 9035750000.0 9035750000.0 9035750000.0 9035750000.0 9035750000.0 9035750000.0 9035750000.0 9035750000.0 9035750000.0 9035750000.0 9035750000.0 9035750000.0 9035750000.0 9035750000.0 9035750000.0 9035750000.0 9035750000.0 9035750000.0 9035750000.0 9035750000.0 9035750000.0 9035750000.0 9035750000.0 9035750000.0 9035750000.0 9035750000.0 9035750000.0 9035750000.0 9035750000.0 9035750000.0 9035750000.0 9035750000.0 9035750000.0 9035750000.0 9035750000.0 9035750000.0 9035750000.0 9035750000.0 9035750000.0 9035750000.0 9035750000.0 9035750000.0 9035750000.0 9035750000.0 9035750000.0 9035750000.0 9035750000.0 9035750000.0 9035750000.0 9035750000.0 9035750000.0 9035750000.0 9035750000.0 9035750000.0 9035750000.0 9035750000.0 9035750000.0 9035750000.0 9035750000.0 9035750000.0 9035750000.0 9035750000.0 9035750000.0 9035750000.0 9035750000.0 9035750000.0 9035750000.0 9035750000.0 9035750000.0 9035750000.0 9035750000.0 9035750000.0 9035750000.0 9035750000.0 9035750000.0 9035750000.0 9035750000.0 9035750000.0 9035750000.0 9035750000.0 9035750000.0 9035750000.0 9035750000.0 9035750000.0 9035750000.0 9035750000.0 9035750000.0 9035750000.0 9035750000.0 9035750000.0 9035750000.0 9035750000.0 9035750000.0 9035750000.0 9035750000.0 9035750000.0 9035750000.0 9035750000.0 9035750000.0 9035750000.0 9035750000.0 9035750000.0 9035750000.0 9035750000.0 9035750000.0 9035750000.0 9035750000.0 9035750000.0 9035750000.0 9035750000.0 9035750000.0 9035750000.0 9035750000.0 9035750000.0 9035750000.0 9035750000.0 9035750000.0 9035750000.0 9035750000.0 9035750000.0 9035750000.0 9035750000.0 9035750000.0 9035750000.0 9035750000.0 9035750000.0 9035750000.0 9035750000.0 9035750000.0 9035750000.0 9035750000.0 9035750000.0 9035750000.0 9035750000.0 9035750000.0 9035750000.0 9035750000.0 9035750000.0 9035750000.0 9035750000.0 9035750000.0 9035750000.0 9035750000.0 9035750000.0 9035750000.0 9035750000.0 9035750000.0 9035750000.0 9035750000.0 9035750000.0 9035750000.0 9035750000.0 9035750000.0 9035750000.0 9035750000.0 9035750000.0 9035750000.0 9035750000.0 9035750000.0 9035750000.0 9035750000.0 9035750000.0 9035750000.0 9035750000.0 9035750000.0 9035750000.0 9035750000.0 9035750000.0 9035750000.0 9035750000.0 9035750000.0 9035750000.0 9035750000.0 9035750000.0 9035750000.0 9035750000.0 9035750000.0 9035750000.0 9035750000.0 9035750000.0 9035750000.0 9035750000.0 9035750000.0 9035750000.0 9035750000.0 9035750000.0 9035750000.0 9035750000.0 9035750000.0 9035750000.0 9035750000.0 9035750000.0 9035750000.0 9035750000.0 9035750000.0 9035750000.0 9035750000.0 9035750000.0 9035750000.0 9035750000.0 9035750000.0 9035750000.0 9035750000.0 9035750000.0 9035750000.0 9035750000.0 9035750000.0 9035750000.0 9035750000.0 9035750000.0 9035750000.0 9035750000.0 9035750000.0 9035750000.0 9035750000.0 9035750000.0 9035750000.0 9035750000.0 9035750000.0 9035750000.0 9035750000.0 9035750000.0 9035750000.0 9035750000.0 9035750000.0 9035750000.0 9035750000.0 9035750000.0 9035750000.0 9035750000.0 9035750000.0 9035750000.0 9035750000.0 9035750000.0 9035750000.0 9035750000.0 9035750000.0 9035750000.0 9035750000.0 9035750000.0 9035750000.0 9035750000.0 9035750000.0 9035750000.0 9035750000.0 9035750000.0 9035750000.0 9035750000.0 9035750000.0 9035750000.0 9035750000.0 9035750000.0 9035750000.0 9035750000.0 9035750000.0 9035750000.0 9035750000.0 9035750000.0 9035750000.0 9035750000.0 9035750000.0 9035750000.0 9035750000.0 9035750000.0 9035750000.0 9035750000.0 9035750000.0 9035750000.0 9035750000.0 9035750000.0 9035750000.0 9035750000.0 9035750000.0 9035750000.0 9035750000.0 9035750000.0 9035750000.0 9035750000.0 9035750000.0 9035750000.0 9035750000.0 9035750000.0 9035750000.0 9035750000.0 9035750000.0 9035750000.0 9035750000.0 9035750000.0 9035750000.0 9035750000.0 9035750000.0 9035750000.0 9035750000.0 9035750000.0 9035750000.0 9035750000.0 9035750000.0 9035750000.0 9035750000.0 9035750000.0 9035750000.0 9035750000.0 9035750000.0 9035750000.0 9035750000.0 9035750000.0 9035750000.0 9035750000.0 9035750000.0 9035750000.0 9035750000.0 9035750000.0 9035750000.0 9035750000.0 9035750000.0 9035750000.0 9035750000.0 9035750000.0 9035750000.0 9035750000.0 9035750000.0 9035750000.0 9035750000.0 9035750000.0 9035750000.0 9035750000.0 9035750000.0 9035750000.0 9035750000.0 9035750000.0 9035750000.0 9035750000.0 9035750000.0 9035750000.0 9035750000.0 9035750000.0 9035750000.0 9035750000.0 9035750000.0 9035750000.0 9035750000.0 9035750000.0 9035750000.0 9035750000.0 9035750000.0 9035750000.0 9035750000.0 9035750000.0 9035750000.0 9035750000.0 9035750000.0 9035750000.0 9035750000.0 9035750000.0 9035750000.0 9035750000.0 9035750000.0 9035750000.0 9035750000.0 9035750000.0 9035750000.0 9035750000.0 9035750000.0 9035750000.0 9035750000.0 9035750000.0 9035750000.0 9035750000.0 9035750000.0 9035750000.0 9035750000.0 9035750000.0 9035750000.0 9035750000.0 9035750000.0 9035750000.0 9035750000.0 9035750000.0 9035750000.0 9035750000.0 9035750000.0 9035750000.0 9035750000.0 9035750000.0 9035750000.0 9035750000.0 9035750000.0 9035750000.0 9035750000.0 9035750000.0 9035750000.0 9035750000.0 9035750000.0 9035750000.0 9035750000.0 9035750000.0 9035750000.0 9035750000.0 9035750000.0 9035750000.0 9035750000.0 9035750000.0 9035750000.0 9035750000.0 9035750000.0 9035750000.0 9035750000.0 9035750000.0 9035750000.0 9035750000.0 9035750000.0 9035750000.0 9035750000.0 9035750000.0 9035750000.0 9035750000.0 9035750000.0 9035750000.0 9035750000.0 9035750000.0 9035750000.0 9035750000.0 9035750000.0 9035750000.0 9035750000.0 9035750000.0 9035750000.0 9035750000.0 9035750000.0 9035750000.0 9035750000.0 9035750000.0 9035750000.0 9035750000.0 9035750000.0 9035750000.0 9035750000.0 9035750000.0 9035750000.0 9035750000.0 9035750000.0 9035750000.0 9035750000.0 9035750000.0 9035750000.0 9035750000.0 9035750000.0 9035750000.0 9035750000.0 9035750000.0 9035750000.0 9035750000.0 9035750000.0 9035750000.0 9035750000.0 9035750000.0 9035750000.0 9035750000.0 9035750000.0 9035750000.0 9035750000.0 9035750000.0 9035750000.0 9035750000.0 9035750000.0 9035750000.0 9035750000.0 9035750000.0 9035750000.0 9035750000.0 9035750000.0 9035750000.0 9035750000.0 9035750000.0 9035750000.0 9035750000.0 9035750000.0 9035750000.0 9035750000.0 9035750000.0 9035750000.0 9035750000.0 9035750000.0 9035750000.0 9035750000.0 9035750000.0 9035750000.0 9035750000.0 9035750000.0 9035750000.0 9035750000.0 9035750000.0 9035750000.0 9035750000.0 9035750000.0 9035750000.0 9035750000.0 9035750000.0 9035750000.0 9035750000.0 9035750000.0 9035750000.0 9035750000.0 9035750000.0 9035750000.0 9035750000.0 9035750000.0 9035750000.0 9035750000.0 9035750000.0 9035750000.0 9035750000.0 9035750000.0 9035750000.0 9035750000.0 9035750000.0 9035750000.0 9035750000.0 9035750000.0 9035750000.0 9035750000.0 9035750000.0 9035750000.0 9035750000.0 9035750000.0 9035750000.0 9035750000.0 9035750000.0 9035750000.0 9035750000.0 9035750000.0 9035750000.0 9035750000.0 9035750000.0 9035750000.0 9035750000.0 9035750000.0 9035750000.0 9035750000.0 9035750000.0 9035750000.0 9035750000.0 9035750000.0 9035750000.0 9035750000.0 9035750000.0 9035750000.0 9035750000.0 9035750000.0 9035750000.0 9035750000.0 9035750000.0 9035750000.0 9035750000.0 9035750000.0 9035750000.0 9035750000.0 9035750000.0 9035750000.0 9035750000.0 9035750000.0 9035750000.0 9035750000.0 9035750000.0 9035750000.0 9035750000.0 9035750000.0 9035750000.0 9035750000.0 9035750000.0 9035750000.0 9035750000.0 9035750000.0 9035750000.0 9035750000.0 9035750000.0 9035750000.0 9035750000.0 9035750000.0 9035750000.0 9035750000.0 9035750000.0 9035750000.0 9035750000.0 9035750000.0 9035750000.0 9035750000.0 9035750000.0 9035750000.0 9035750000.0 9035750000.0 9035750000.0 9035750000.0 9035750000.0 9035750000.0 9035750000.0 9035750000.0 9035750000.0 9035750000.0 9035750000.0 9035750000.0 9035750000.0 9035750000.0 9035750000.0 9035750000.0 9035750000.0 9035750000.0 9035750000.0 9035750000.0 9035750000.0 9035750000.0 9035750000.0 9035750000.0 9035750000.0 9035750000.0 9035750000.0 9035750000.0 9035750000.0 9035750000.0 9035750000.0 9035750000.0 9035750000.0 9035750000.0 9035750000.0 9035750000.0 9035750000.0 9035750000.0 9035750000.0 9035750000.0 9035750000.0 9035750000.0 9035750000.0 9035750000.0 9035750000.0 9035750000.0 9035750000.0 9035750000.0 9035750000.0 9035750000.0 9035750000.0 9035750000.0 9035750000.0 9035750000.0 9035750000.0 9035750000.0 9035750000.0 9035750000.0 9035750000.0 9035750000.0 9035750000.0 9035750000.0 9035750000.0 9035750000.0 9035750000.0 9035750000.0 9035750000.0 9035750000.0 9035750000.0 9035750000.0 9035750000.0 9035750000.0 9035750000.0 9035750000.0 9035750000.0 9035750000.0 9035750000.0 9035750000.0 9035750000.0 9035750000.0 9035750000.0 9035750000.0 9035750000.0 9035750000.0 9035750000.0 9035750000.0 9035750000.0 9035750000.0 9035750000.0 9035750000.0 9035750000.0 9035750000.0 9035750000.0 9035750000.0 9035750000.0 9035750000.0 9035750000.0 9035750000.0 9035750000.0 9035750000.0 9035750000.0 9035750000.0 9035750000.0 9035750000.0 9035750000.0 9035750000.0 9035750000.0 9035750000.0 9035750000.0 9035750000.0 9035750000.0 9035750000.0 9035750000.0 9035750000.0 9035750000.0 9035750000.0 9035750000.0 9035750000.0 9035750000.0 9035750000.0 9035750000.0 9035750000.0 9035750000.0 9035750000.0 9035750000.0 9035750000.0 9035750000.0 9035750000.0 9035750000.0 9035750000.0 9035750000.0 9035750000.0 9035750000.0 9035750000.0 9035750000.0 9035750000.0 9035750000.0 9035750000.0 9035750000.0 9035750000.0 9035750000.0 9035750000.0 9035750000.0 9035750000.0 9035750000.0 9035750000.0 9035750000.0 9035750000.0 9035750000.0 9035750000.0 9035750000.0 9035750000.0 9035750000.0 9035750000.0 9035750000.0 9035750000.0 9035750000.0 9035750000.0 9035750000.0 9035750000.0 9035750000.0 9035750000.0 9035750000.0 9035750000.0 9035750000.0 9035750000.0 9035750000.0 9035750000.0 9035750000.0 9035750000.0 9035750000.0 9035750000.0 9035750000.0 9035750000.0 9035750000.0 9035750000.0 9035750000.0 9035750000.0 9035750000.0 9035750000.0 9035750000.0 9035750000.0 9035750000.0 9035750000.0 9035750000.0 9035750000.0 9035750000.0 9035750000.0 9035750000.0 9035750000.0 9035750000.0 9035750000.0 9035750000.0 9035750000.0 9035750000.0 9035750000.0 9035750000.0 9035750000.0 9035750000.0 9035750000.0 9035750000.0 9035750000.0 9035750000.0 9035750000.0 9035750000.0 9035750000.0 9035750000.0 9035750000.0 9035750000.0 9035750000.0 9035750000.0 9035750000.0 9035750000.0 9035750000.0 9035750000.0 9035750000.0 9035750000.0 9035750000.0 9035750000.0 9035750000.0 9035750000.0 9035750000.0 9035750000.0 9035750000.0 9035750000.0 9035750000.0 9035750000.0 9035750000.0 9035750000.0 9035750000.0 9035750000.0 9035750000.0 9035750000.0 9035750000.0 9035750000.0 9035750000.0 9035750000.0 9035750000.0 9035750000.0 9035750000.0 9035750000.0 9035750000.0 9035750000.0 9035750000.0 9035750000.0 9035750000.0 9035750000.0 9035750000.0 9035750000.0 9035750000.0 9035750000.0 9035750000.0 9035750000.0 9035750000.0 9035750000.0 9035750000.0 9035750000.0 9035750000.0 9035750000.0 9035750000.0 9035750000.0 9035750000.0 9035750000.0 9035750000.0 9035750000.0 9035750000.0 9035750000.0 9035750000.0 9035750000.0 9035750000.0 9035750000.0 9035750000.0 9035750000.0 9035750000.0 9035750000.0 9035750000.0 9035750000.0 9035750000.0 9035750000.0 9035750000.0 9035750000.0 9035750000.0 9035750000.0 9035750000.0 9035750000.0 9035750000.0 9035750000.0 9035750000.0 9035750000.0 9035750000.0 9035750000.0 9035750000.0 9035750000.0 9035750000.0 9035750000.0 9035750000.0 9035750000.0 9035750000.0 9035750000.0 9035750000.0 9035750000.0 9035750000.0 9035750000.0 9035750000.0 9035750000.0 9035750000.0 9035750000.0 9035750000.0 9035750000.0 9035750000.0 9035750000.0 9035750000.0 9035750000.0 9035750000.0 9035750000.0 9035750000.0 9035750000.0 9035750000.0 9035750000.0 9035750000.0 9035750000.0 9035750000.0 9035750000.0 9035750000.0 9035750000.0 9035750000.0 9035750000.0 9035750000.0 9035750000.0 9035750000.0 9035750000.0 9035750000.0 9035750000.0 9035750000.0 9035750000.0 9035750000.0 9035750000.0 9035750000.0 9035750000.0 9035750000.0 9035750000.0 9035750000.0 9035750000.0 9035750000.0 9035750000.0 9035750000.0 9035750000.0 9035750000.0 9035750000.0 9035750000.0 9035750000.0 9035750000.0 9035750000.0 9035750000.0 9035750000.0 9035750000.0 9035750000.0 9035750000.0 9035750000.0 9035750000.0 9035750000.0 9035750000.0 9035750000.0 9035750000.0 9035750000.0 9035750000.0 9035750000.0 9035750000.0 9035750000.0 9035750000.0 9035750000.0 9035750000.0 9035750000.0 9035750000.0 9035750000.0 9035750000.0 9035750000.0 9035750000.0 9035750000.0 9035750000.0 9035750000.0 9035750000.0 9035750000.0 9035750000.0 9035750000.0 9035750000.0 9035750000.0 9035750000.0 9035750000.0 9035750000.0 9035750000.0 9035750000.0 9035750000.0 9035750000.0 9035750000.0 9035750000.0 9035750000.0 9035750000.0 9035750000.0 9035750000.0 9035750000.0 9035750000.0 9035750000.0 9035750000.0 9035750000.0 9035750000.0 9035750000.0 9035750000.0 9035750000.0 9035750000.0 9035750000.0 9035750000.0 9035750000.0 9035750000.0 9035750000.0 9035750000.0 9035750000.0 9035750000.0 9035750000.0 9035750000.0 9035750000.0 9035750000.0 9035750000.0 9035750000.0 9035750000.0 9035750000.0 9035750000.0 9035750000.0 9035750000.0 9035750000.0 9035750000.0 9035750000.0 9035750000.0 9035750000.0 9035750000.0 9035750000.0 9035750000.0 9035750000.0 9035750000.0 9035750000.0 9035750000.0 9035750000.0 9035750000.0 9035750000.0 9035750000.0 9035750000.0 9035750000.0 9035750000.0 9035750000.0 9035750000.0 9035750000.0 9035750000.0 9035750000.0 9035750000.0 9035750000.0 9035750000.0 9035750000.0 9035750000.0 9035750000.0 9035750000.0 9035750000.0 9035750000.0 9035750000.0 9035750000.0 9035750000.0 9035750000.0 9035750000.0 9035750000.0 9035750000.0 9035750000.0 9035750000.0 9035750000.0 9035750000.0 9035750000.0 9035750000.0 9035750000.0 9035750000.0 9035750000.0 9035750000.0 9035750000.0 9035750000.0 9035750000.0 9035750000.0 9035750000.0 9035750000.0 9035750000.0 9035750000.0 9035750000.0 9035750000.0 9035750000.0 9035750000.0 9035750000.0 9035750000.0 9035750000.0 9035750000.0 9035750000.0 9035750000.0 9035750000.0 9035750000.0 9035750000.0 9035750000.0 9035750000.0 9035750000.0 9035750000.0 9035750000.0 9035750000.0 9035750000.0 9035750000.0 9035750000.0 9035750000.0 9035750000.0 9035750000.0 9035750000.0 9035750000.0 9035750000.0 9035750000.0 9035750000.0 9035750000.0 9035750000.0 9035750000.0 9035750000.0 9035750000.0 9035750000.0 9035750000.0 9035750000.0 9035750000.0 9035750000.0 9035750000.0 9035750000.0 9035750000.0 9035750000.0 9035750000.0 9035750000.0 9035750000.0 9035750000.0 9035750000.0 9035750000.0 9035750000.0 9035750000.0 9035750000.0 9035750000.0 9035750000.0 9035750000.0 9035750000.0 9035750000.0 9035750000.0 9035750000.0 9035750000.0 9035750000.0 9035750000.0 9035750000.0 9035750000.0 9035750000.0 9035750000.0 9035750000.0 9035750000.0 9035750000.0 9035750000.0 9035750000.0 9035750000.0 9035750000.0 9035750000.0 9035750000.0 9035750000.0 9035750000.0 9035750000.0 9035750000.0 9035750000.0 9035750000.0 9035750000.0 9035750000.0 9035750000.0 9035750000.0 9035750000.0 9035750000.0 9035750000.0 9035750000.0 9035750000.0 9035750000.0 9035750000.0 9035750000.0 9035750000.0 9035750000.0 9035750000.0 9035750000.0 9035750000.0 9035750000.0 9035750000.0 9035750000.0 9035750000.0 9035750000.0 9035750000.0 9035750000.0 9035750000.0 9035750000.0 9035750000.0 9035750000.0 9035750000.0 9035750000.0 9035750000.0 9035750000.0 9035750000.0 9035750000.0 9035750000.0 9035750000.0 9035750000.0 9035750000.0 9035750000.0 9035750000.0 9035750000.0 9035750000.0 9035750000.0 9035750000.0 9035750000.0 9035750000.0 9035750000.0 9035750000.0 9035750000.0 9035750000.0 9035750000.0 9035750000.0 9035750000.0 9035750000.0 9035750000.0 9035750000.0 9035750000.0 9035750000.0 9035750000.0 9035750000.0 9035750000.0 9035750000.0 9035750000.0 9035750000.0 9035750000.0 9035750000.0 9035750000.0 9035750000.0 9035750000.0 9035750000.0 9035750000.0 9035750000.0 9035750000.0 9035750000.0 9035750000.0 9035750000.0 9035750000.0 9035750000.0 9035750000.0 9035750000.0 9035750000.0 9035750000.0 9035750000.0 9035750000.0 9035750000.0 9035750000.0 9035750000.0 9035750000.0 9035750000.0 9035750000.0 9035750000.0 9035750000.0 9035750000.0 9035750000.0 9035750000.0 9035750000.0 9035750000.0 9035750000.0 9035750000.0 9035750000.0 9035750000.0 9035750000.0 9035750000.0 9035750000.0 9035750000.0 9035750000.0 9035750000.0 9035750000.0 9035750000.0 9035750000.0 9035750000.0 9035750000.0 9035750000.0 9035750000.0 9035750000.0 9035750000.0 9035750000.0 9035750000.0 9035750000.0 9035750000.0 9035750000.0 9035750000.0 9035750000.0 9035750000.0 9035750000.0 9035750000.0 9035750000.0 9035750000.0 9035750000.0 9035750000.0 9035750000.0 9035750000.0 9035750000.0 9035750000.0 9035750000.0 9035750000.0 9035750000.0 9035750000.0 9035750000.0 9035750000.0 9035750000.0 9035750000.0 9035750000.0 9035750000.0 9035750000.0 9035750000.0 9035750000.0 9035750000.0 9035750000.0 9035750000.0 9035750000.0 9035750000.0 9035750000.0 9035750000.0 9035750000.0 9035750000.0 9035750000.0 9035750000.0 9035750000.0 9035750000.0 9035750000.0 9035750000.0 9035750000.0 9035750000.0 9035750000.0 9035750000.0 9035750000.0 9035750000.0 9035750000.0 9035750000.0 9035750000.0 9035750000.0 9035750000.0 9035750000.0 9035750000.0 9035750000.0 9035750000.0 9035750000.0 9035750000.0 9035750000.0 9035750000.0 9035750000.0 9035750000.0 9035750000.0 9035750000.0 9035750000.0 9035750000.0 9035750000.0 9035750000.0 9035750000.0 9035750000.0 9035750000.0 9035750000.0 9035750000.0 9035750000.0 9035750000.0 9035750000.0 9035750000.0 9035750000.0 9035750000.0 9035750000.0 9035750000.0 9035750000.0 9035750000.0 9035750000.0 9035750000.0 9035750000.0 9035750000.0 9035750000.0 9035750000.0 9035750000.0 9035750000.0 9035750000.0 9035750000.0 9035750000.0 9035750000.0 9035750000.0 9035750000.0 9035750000.0 9035750000.0 9035750000.0 9035750000.0 9035750000.0 9035750000.0 9035750000.0 9035750000.0 9035750000.0 9035750000.0 9035750000.0 9035750000.0 9035750000.0 9035750000.0 9035750000.0 9035750000.0 9035750000.0 9035750000.0 9035750000.0 9035750000.0 9035750000.0 9035750000.0 9035750000.0 9035750000.0 9035750000.0 9035750000.0 9035750000.0 9035750000.0 9035750000.0 9035750000.0 9035750000.0 9035750000.0 9035750000.0 9035750000.0 9035750000.0 9035750000.0 9035750000.0 9035750000.0 9035750000.0 9035750000.0 9035750000.0 9035750000.0 9035750000.0 9035750000.0 9035750000.0 9035750000.0 9035750000.0 9035750000.0 9035750000.0 9035750000.0 9035750000.0 9035750000.0 9035750000.0 9035750000.0 9035750000.0 9035750000.0 9035750000.0 9035750000.0 9035750000.0 9035750000.0 9035750000.0 9035750000.0 9035750000.0 9035750000.0 9035750000.0 9035750000.0 9035750000.0 9035750000.0 9035750000.0 9035750000.0 9035750000.0 9035750000.0 9035750000.0 9035750000.0 9035750000.0 9035750000.0 9035750000.0 9035750000.0 9035750000.0 9035750000.0 9035750000.0 9035750000.0 9035750000.0 9035750000.0 9035750000.0 9035750000.0 9035750000.0 9035750000.0 9035750000.0 9035750000.0 9035750000.0 9035750000.0 9035750000.0 9035750000.0 9035750000.0 9035750000.0 9035750000.0 9035750000.0 9035750000.0 9035750000.0 9035750000.0 9035750000.0 9035750000.0 9035750000.0 9035750000.0 9035750000.0 9035750000.0 9035750000.0 9035750000.0 9035750000.0 9035750000.0 9035750000.0 9035750000.0 9035750000.0 9035750000.0 9035750000.0 9035750000.0 9035750000.0 9035750000.0 9035750000.0 9035750000.0 9035750000.0 9035750000.0 9035750000.0 9035750000.0 9035750000.0 9035750000.0 9035750000.0 9035750000.0 9035750000.0 9035750000.0 9035750000.0 9035750000.0 9035750000.0 9035750000.0 9035750000.0 9035750000.0 9035750000.0 9035750000.0 9035750000.0 9035750000.0 9035750000.0 9035750000.0 9035750000.0 9035750000.0 9035750000.0 9035750000.0 9035750000.0 9035750000.0 9035750000.0 9035750000.0 9035750000.0 9035750000.0 9035750000.0 9035750000.0 9035750000.0 9035750000.0 9035750000.0 9035750000.0 9035750000.0 9035750000.0 9035750000.0 9035750000.0 9035750000.0 9035750000.0 9035750000.0 9035750000.0 9035750000.0 9035750000.0 9035750000.0 9035750000.0 9035750000.0 9035750000.0 9035750000.0 9035750000.0 9035750000.0 9035750000.0 9035750000.0 9035750000.0 9035750000.0 9035750000.0 9035750000.0 9035750000.0 9035750000.0 9035750000.0 9035750000.0 9035750000.0 9035750000.0 9035750000.0 9035750000.0 9035750000.0 9035750000.0 9035750000.0 9035750000.0 9035750000.0 9035750000.0 9035750000.0 9035750000.0 9035750000.0 9035750000.0 9035750000.0 9035750000.0 9035750000.0 9035750000.0 9035750000.0 9035750000.0 9035750000.0 9035750000.0 9035750000.0 9035750000.0 9035750000.0 9035750000.0 9035750000.0 9035750000.0 9035750000.0 9035750000.0 9035750000.0 9035750000.0 9035750000.0 9035750000.0 9035750000.0 9035750000.0 9035750000.0 9035750000.0 9035750000.0 9035750000.0 9035750000.0 9035750000.0 9035750000.0 9035750000.0 9035750000.0 9035750000.0 9035750000.0 9035750000.0 9035750000.0 9035750000.0 9035750000.0 9035750000.0 9035750000.0 9035750000.0 9035750000.0 9035750000.0 9035750000.0 9035750000.0 9035750000.0 9035750000.0 9035750000.0 9035750000.0 9035750000.0 9035750000.0 9035750000.0 9035750000.0 9035750000.0 9035750000.0 9035750000.0 9035750000.0 9035750000.0 9035750000.0 9035750000.0 9035750000.0 9035750000.0 9035750000.0 9035750000.0 9035750000.0 9035750000.0 9035750000.0 9035750000.0 9035750000.0 9035750000.0 9035750000.0 9035750000.0 9035750000.0 9035750000.0 9035750000.0 9035750000.0 9035750000.0 9035750000.0 9035750000.0 9035750000.0 9035750000.0 9035750000.0 9035750000.0 9035750000.0 9035750000.0 9035750000.0 9035750000.0 9035750000.0 9035750000.0 9035750000.0 9035750000.0 9035750000.0 9035750000.0 9035750000.0 9035750000.0 9035750000.0 9035750000.0 9035750000.0 9035750000.0 9035750000.0 9035750000.0 9035750000.0 9035750000.0 9035750000.0 9035750000.0 9035750000.0 9035750000.0 9035750000.0 9035750000.0 9035750000.0 9035750000.0 9035750000.0 9035750000.0 9035750000.0 9035750000.0 9035750000.0 9035750000.0 9035750000.0 9035750000.0 9035750000.0 9035750000.0 9035750000.0 9035750000.0 9035750000.0 9035750000.0 9035750000.0 9035750000.0 9035750000.0 9035750000.0 9035750000.0 9035750000.0 9035750000.0 9035750000.0 9035750000.0 9035750000.0 9035750000.0 9035750000.0 9035750000.0 9035750000.0 9035750000.0 9035750000.0 9035750000.0 9035750000.0 9035750000.0 9035750000.0 9035750000.0 9035750000.0 9035750000.0 9035750000.0 9035750000.0 9035750000.0 9035750000.0 9035750000.0 9035750000.0 9035750000.0 9035750000.0 9035750000.0 9035750000.0 9035750000.0 9035750000.0 9035750000.0 9035750000.0 9035750000.0 9035750000.0 9035750000.0 9035750000.0 9035750000.0 9035750000.0 9035750000.0 9035750000.0 9035750000.0 9035750000.0 9035750000.0 9035750000.0 9035750000.0 9035750000.0 9035750000.0 9035750000.0 9035750000.0 9035750000.0 9035750000.0 9035750000.0 9035750000.0 9035750000.0 9035750000.0 9035750000.0 9035750000.0 9035750000.0 9035750000.0 9035750000.0 9035750000.0 9035750000.0 9035750000.0 9035750000.0 9035750000.0 9035750000.0 9035750000.0 9035750000.0 9035750000.0 9035750000.0 9035750000.0 9035750000.0 9035750000.0 9035750000.0 9035750000.0 9035750000.0 9035750000.0 9035750000.0 9035750000.0 9035750000.0 9035750000.0 9035750000.0 9035750000.0 9035750000.0 9035750000.0 9035750000.0 9035750000.0 9035750000.0 9035750000.0 9035750000.0 9035750000.0 9035750000.0 9035750000.0 9035750000.0 9035750000.0 9035750000.0 9035750000.0 9035750000.0 9035750000.0 9035750000.0 9035750000.0 9035750000.0 9035750000.0 9035750000.0 9035750000.0 9035750000.0 9035750000.0 9035750000.0 9035750000.0 9035750000.0 9035750000.0 9035750000.0 9035750000.0 9035750000.0 9035750000.0 9035750000.0 9035750000.0 9035750000.0 9035750000.0 9035750000.0 9035750000.0 9035750000.0 9035750000.0 9035750000.0 9035750000.0 9035750000.0 9035750000.0 9035750000.0 9035750000.0 9035750000.0 9035750000.0 9035750000.0 9035750000.0 9035750000.0 9035750000.0 9035750000.0 9035750000.0 9035750000.0 9035750000.0 9035750000.0 9035750000.0 9035750000.0 9035750000.0 9035750000.0 9035750000.0 9035750000.0 9035750000.0 9035750000.0 9035750000.0 9035750000.0 9035750000.0 9035750000.0 9035750000.0 9035750000.0 9035750000.0 9035750000.0 9035750000.0 9035750000.0 9035750000.0 9035750000.0 9035750000.0 9035750000.0 9035750000.0 9035750000.0 9035750000.0 9035750000.0 9035750000.0 9035750000.0 9035750000.0 9035750000.0 9035750000.0 9035750000.0 9035750000.0 9035750000.0 9035750000.0 9035750000.0 9035750000.0 9035750000.0 9035750000.0 9035750000.0 9035750000.0 9035750000.0 9035750000.0 9035750000.0 9035750000.0 9035750000.0 9035750000.0 9035750000.0 9035750000.0 9035750000.0 9035750000.0 9035750000.0 9035750000.0 9035750000.0 9035750000.0 9035750000.0 9035750000.0 9035750000.0 9035750000.0 9035750000.0 9035750000.0 9035750000.0 9035750000.0 9035750000.0 9035750000.0 9035750000.0 9035750000.0 9035750000.0 9035750000.0 9035750000.0 9035750000.0 9035750000.0 9035750000.0 9035750000.0 9035750000.0 9035750000.0 9035750000.0 9035750000.0 9035750000.0 9035750000.0 9035750000.0 9035750000.0 9035750000.0 9035750000.0 9035750000.0 9035750000.0 9035750000.0 9035750000.0 9035750000.0 9035750000.0 9035750000.0 9035750000.0 9035750000.0 9035750000.0 9035750000.0 9035750000.0 9035750000.0 9035750000.0 9035750000.0 9035750000.0 9035750000.0 9035750000.0 9035750000.0 9035750000.0 9035750000.0 9035750000.0 9035750000.0 9035750000.0 9035750000.0 9035750000.0 9035750000.0 9035750000.0 9035750000.0 9035750000.0 9035750000.0 9035750000.0 9035750000.0 9035750000.0 9035750000.0 9035750000.0 9035750000.0 9035750000.0 9035750000.0 9035750000.0 9035750000.0 9035750000.0 9035750000.0 9035750000.0 9035750000.0 9035750000.0 9035750000.0 9035750000.0 9035750000.0 9035750000.0 9035750000.0 9035750000.0 9035750000.0 9035750000.0 9035750000.0 9035750000.0 9035750000.0 9035750000.0 9035750000.0 9035750000.0 9035750000.0 9035750000.0 9035750000.0 9035750000.0 9035750000.0 9035750000.0 9035750000.0 9035750000.0 9035750000.0 9035750000.0 9035750000.0 9035750000.0 9035750000.0 9035750000.0 9035750000.0 9035750000.0 9035750000.0 9035750000.0 9035750000.0 9035750000.0 9035750000.0 9035750000.0 9035750000.0 9035750000.0 9035750000.0 9035750000.0 9035750000.0 9035750000.0 9035750000.0 9035750000.0 9035750000.0 9035750000.0 9035750000.0 9035750000.0 9035750000.0 9035750000.0 9035750000.0 9035750000.0 9035750000.0 9035750000.0 9035750000.0 9035750000.0 9035750000.0 9035750000.0 9035750000.0 9035750000.0 9035750000.0 9035750000.0 9035750000.0 9035750000.0 9035750000.0 9035750000.0 9035750000.0 9035750000.0 9035750000.0 9035750000.0 9035750000.0 9035750000.0 9035750000.0 9035750000.0 9035750000.0 9035750000.0 9035750000.0 9035750000.0 9035750000.0 9035750000.0 9035750000.0 9035750000.0 9035750000.0 9035750000.0 9035750000.0 9035750000.0 9035750000.0 9035750000.0 9035750000.0 9035750000.0 9035750000.0 9035750000.0 9035750000.0 9035750000.0 9035750000.0 9035750000.0 9035750000.0 9035750000.0 9035750000.0 9035750000.0 9035750000.0 9035750000.0 9035750000.0 9035750000.0 9035750000.0 9035750000.0 9035750000.0 9035750000.0 9035750000.0 9035750000.0 9035750000.0 9035750000.0 9035750000.0 9035750000.0 9035750000.0 9035750000.0 9035750000.0 9035750000.0 9035750000.0 9035750000.0 9035750000.0 9035750000.0 9035750000.0 9035750000.0 9035750000.0 9035750000.0 9035750000.0 9035750000.0 9035750000.0 9035750000.0 9035750000.0 9035750000.0 9035750000.0 9035750000.0 9035750000.0 9035750000.0 9035750000.0 9035750000.0 9035750000.0 9035750000.0 9035750000.0 9035750000.0 9035750000.0 9035750000.0 9035750000.0 9035750000.0 9035750000.0 9035750000.0 9035750000.0 9035750000.0 9035750000.0 9035750000.0 9035750000.0 9035750000.0 9035750000.0 9035750000.0 9035750000.0 9035750000.0 9035750000.0 9035750000.0 9035750000.0 9035750000.0 9035750000.0 9035750000.0 9035750000.0 9035750000.0 9035750000.0 9035750000.0 9035750000.0 9035750000.0 9035750000.0 9035750000.0 9035750000.0 9035750000.0 9035750000.0 9035750000.0 9035750000.0 9035750000.0 9035750000.0 9035750000.0 9035750000.0 9035750000.0 9035750000.0 9035750000.0 9035750000.0 9035750000.0 9035750000.0 9035750000.0 9035750000.0 9035750000.0 9035750000.0 9035750000.0 9035750000.0 9035750000.0 9035750000.0 9035750000.0 9035750000.0 9035750000.0 9035750000.0 9035750000.0 9035750000.0 9035750000.0 9035750000.0 9035750000.0 9035750000.0 9035750000.0 9035750000.0 9035750000.0 9035750000.0 9035750000.0 9035750000.0 9035750000.0 9035750000.0 9035750000.0 9035750000.0 9035750000.0 9035750000.0 9035750000.0 9035750000.0 9035750000.0 9035750000.0 9035750000.0 9035750000.0 9035750000.0 9035750000.0 9035750000.0 9035750000.0 9035750000.0 9035750000.0 9035750000.0 9035750000.0 9035750000.0 9035750000.0 9035750000.0 9035750000.0 9035750000.0 9035750000.0 9035750000.0 9035750000.0 9035750000.0 9035750000.0 9035750000.0 9035750000.0 9035750000.0 9035750000.0 9035750000.0 9035750000.0 9035750000.0 9035750000.0 9035750000.0 9035750000.0 9035750000.0 9035750000.0 9035750000.0 9035750000.0 9035750000.0 9035750000.0 9035750000.0 9035750000.0 9035750000.0 9035750000.0 9035750000.0 9035750000.0 9035750000.0 9035750000.0 9035750000.0 9035750000.0 9035750000.0 9035750000.0 9035750000.0 9035750000.0 9035750000.0 9035750000.0 9035750000.0 9035750000.0 9035750000.0 9035750000.0 9035750000.0 9035750000.0 9035750000.0 9035750000.0 9035750000.0 9035750000.0 9035750000.0 9035750000.0 9035750000.0 9035750000.0 9035750000.0 9035750000.0 9035750000.0 9035750000.0 9035750000.0 9035750000.0 9035750000.0 9035750000.0 9035750000.0 9035750000.0 9035750000.0 9035750000.0 9035750000.0 9035750000.0 9035750000.0 9035750000.0 9035750000.0 9035750000.0 9035750000.0 9035750000.0 9035750000.0 9035750000.0 9035750000.0 9035750000.0 9035750000.0 9035750000.0 9035750000.0 9035750000.0 9035750000.0 9035750000.0 9035750000.0 9035750000.0 9035750000.0 9035750000.0 9035750000.0 9035750000.0 9035750000.0 9035750000.0 9035750000.0 9035750000.0 9035750000.0 9035750000.0 9035750000.0 9035750000.0 9035750000.0 9035750000.0 9035750000.0 9035750000.0 9035750000.0 9035750000.0 9035750000.0 9035750000.0 9035750000.0 9035750000.0 9035750000.0 9035750000.0 9035750000.0 9035750000.0 9035750000.0 9035750000.0 9035750000.0 9035750000.0 9035750000.0 9035750000.0 9035750000.0 9035750000.0 9035750000.0 9035750000.0 9035750000.0 9035750000.0 9035750000.0 9035750000.0 9035750000.0 9035750000.0 9035750000.0 9035750000.0 9035750000.0 9035750000.0 9035750000.0 9035750000.0 9035750000.0 9035750000.0 9035750000.0 9035750000.0 9035750000.0 9035750000.0 9035750000.0 9035750000.0 9035750000.0 9035750000.0 9035750000.0 9035750000.0 9035750000.0 9035750000.0 9035750000.0 9035750000.0 9035750000.0 9035750000.0 9035750000.0 9035750000.0 9035750000.0 9035750000.0 9035750000.0 9035750000.0 9035750000.0 9035750000.0 9035750000.0 9035750000.0 9035750000.0 9035750000.0 9035750000.0 9035750000.0 9035750000.0 9035750000.0 9035750000.0 9035750000.0 9035750000.0 9035750000.0 9035750000.0 9035750000.0 9035750000.0 9035750000.0 9035750000.0 9035750000.0 9035750000.0 9035750000.0 9035750000.0 9035750000.0 9035750000.0 9035750000.0 9035750000.0 9035750000.0 9035750000.0 9035750000.0 9035750000.0 9035750000.0 9035750000.0 9035750000.0 9035750000.0 9035750000.0 9035750000.0 9035750000.0 9035750000.0 9035750000.0 9035750000.0 9035750000.0 9035750000.0 9035750000.0 9035750000.0 9035750000.0 9035750000.0 9035750000.0 9035750000.0 9035750000.0 9035750000.0 9035750000.0 9035750000.0 9035750000.0 9035750000.0 9035750000.0 9035750000.0 9035750000.0 9035750000.0 9035750000.0 9035750000.0 9035750000.0 9035750000.0 9035750000.0 9035750000.0 9035750000.0 9035750000.0 9035750000.0 9035750000.0 9035750000.0 9035750000.0 9035750000.0 9035750000.0 9035750000.0 9035750000.0 9035750000.0 9035750000.0 9035750000.0 9035750000.0 9035750000.0 9035750000.0 9035750000.0 9035750000.0 9035750000.0 9035750000.0 9035750000.0 9035750000.0 9035750000.0 9035750000.0 9035750000.0 9035750000.0 9035750000.0 9035750000.0 9035750000.0 9035750000.0 9035750000.0 9035750000.0 9035750000.0 9035750000.0 9035750000.0 9035750000.0 9035750000.0 9035750000.0 9035750000.0 9035750000.0 9035750000.0 9035750000.0 9035750000.0 9035750000.0 9035750000.0 9035750000.0 9035750000.0 9035750000.0 9035750000.0 9035750000.0 9035750000.0 9035750000.0 9035750000.0 9035750000.0 9035750000.0 9035750000.0 9035750000.0 9035750000.0 9035750000.0 9035750000.0 9035750000.0 9035750000.0 9035750000.0 9035750000.0 9035750000.0 9035750000.0 9035750000.0 9035750000.0 9035750000.0 9035750000.0 9035750000.0 9035750000.0 9035750000.0 9035750000.0 9035750000.0 9035750000.0 9035750000.0 9035750000.0 9035750000.0 9035750000.0 9035750000.0 9035750000.0 9035750000.0 9035750000.0 9035750000.0 9035750000.0 9035750000.0 9035750000.0 9035750000.0 9035750000.0 9035750000.0 9035750000.0 9035750000.0 9035750000.0 9035750000.0 9035750000.0 9035750000.0 9035750000.0 9035750000.0 9035750000.0 9035750000.0 9035750000.0 9035750000.0 9035750000.0 9035750000.0 9035750000.0 9035750000.0 9035750000.0 9035750000.0 9035750000.0 9035750000.0 9035750000.0 9035750000.0 9035750000.0 9035750000.0 9035750000.0 9035750000.0 9035750000.0 9035750000.0 9035750000.0 9035750000.0 9035750000.0 9035750000.0 9035750000.0 9035750000.0 9035750000.0 9035750000.0 9035750000.0 9035750000.0 9035750000.0 9035750000.0 9035750000.0 9035750000.0 9035750000.0 9035750000.0 9035750000.0 9035750000.0 9035750000.0 9035750000.0 9035750000.0 9035750000.0 9035750000.0 9035750000.0 9035750000.0 9035750000.0 9035750000.0 9035750000.0 9035750000.0 9035750000.0 9035750000.0 9035750000.0 9035750000.0 9035750000.0 9035750000.0 9035750000.0 9035750000.0 9035750000.0 9035750000.0 9035750000.0 9035750000.0 9035750000.0 9035750000.0 9035750000.0 9035750000.0 9035750000.0 9035750000.0 9035750000.0 9035750000.0 9035750000.0 9035750000.0 9035750000.0 9035750000.0 9035750000.0 9035750000.0 9035750000.0 9035750000.0 9035750000.0 9035750000.0 9035750000.0 9035750000.0 9035750000.0 9035750000.0 9035750000.0 9035750000.0 9035750000.0 9035750000.0 9035750000.0 9035750000.0 9035750000.0 9035750000.0 9035750000.0 9035750000.0 9035750000.0 9035750000.0 9035750000.0 9035750000.0 9035750000.0 9035750000.0 9035750000.0 9035750000.0 9035750000.0 9035750000.0 9035750000.0 9035750000.0 9035750000.0 9035750000.0 9035750000.0 9035750000.0 9035750000.0 9035750000.0 9035750000.0 9035750000.0 9035750000.0 9035750000.0 9035750000.0 9035750000.0 9035750000.0 9035750000.0 9035750000.0 9035750000.0 9035750000.0 9035750000.0 9035750000.0 9035750000.0 9035750000.0 9035750000.0 9035750000.0 9035750000.0 9035750000.0 9035750000.0 9035750000.0 9035750000.0 9035750000.0 9035750000.0 9035750000.0 9035750000.0 9035750000.0 9035750000.0 9035750000.0 9035750000.0 9035750000.0 9035750000.0 9035750000.0 9035750000.0 9035750000.0 9035750000.0 9035750000.0 9035750000.0 9035750000.0 9035750000.0 9035750000.0 9035750000.0 9035750000.0 9035750000.0 9035750000.0 9035750000.0 9035750000.0 9035750000.0 9035750000.0 9035750000.0 9035750000.0 9035750000.0 9035750000.0 9035750000.0 9035750000.0 9035750000.0 9035750000.0 9035750000.0 9035750000.0 9035750000.0 9035750000.0 9035750000.0 9035750000.0 9035750000.0 9035750000.0 9035750000.0 9035750000.0 9035750000.0 9035750000.0 9035750000.0 9035750000.0 9035750000.0 9035750000.0 9035750000.0 9035750000.0 9035750000.0 9035750000.0 9035750000.0 9035750000.0 9035750000.0 9035750000.0 9035750000.0 9035750000.0 9035750000.0 9035750000.0 9035750000.0 9035750000.0 9035750000.0 9035750000.0 9035750000.0 9035750000.0 9035750000.0 9035750000.0 9035750000.0 9035750000.0 9035750000.0 9035750000.0 9035750000.0 9035750000.0 9035750000.0 9035750000.0 9035750000.0 9035750000.0 9035750000.0 9035750000.0 9035750000.0 9035750000.0 9035750000.0 9035750000.0 9035750000.0 9035750000.0 9035750000.0 9035750000.0 9035750000.0 9035750000.0 9035750000.0 9035750000.0 9035750000.0 9035750000.0 9035750000.0 9035750000.0 9035750000.0 9035750000.0 9035750000.0 9035750000.0 9035750000.0 9035750000.0 9035750000.0 9035750000.0 9035750000.0 9035750000.0 9035750000.0 9035750000.0 9035750000.0 9035750000.0 9035750000.0 9035750000.0 9035750000.0 9035750000.0 9035750000.0 9035750000.0 9035750000.0 9035750000.0 9035750000.0 9035750000.0 9035750000.0 9035750000.0 9035750000.0 9035750000.0 9035750000.0 9035750000.0 9035750000.0 9035750000.0 9035750000.0 9035750000.0 9035750000.0 9035750000.0 9035750000.0 9035750000.0 9035750000.0 9035750000.0 9035750000.0 9035750000.0 9035750000.0 9035750000.0 9035750000.0 9035750000.0 9035750000.0 9035750000.0 9035750000.0 9035750000.0 9035750000.0 9035750000.0 9035750000.0 9035750000.0 9035750000.0 9035750000.0 9035750000.0 9035750000.0 9035750000.0 9035750000.0 9035750000.0 9035750000.0 9035750000.0 9035750000.0 9035750000.0 9035750000.0 9035750000.0 9035750000.0 9035750000.0 9035750000.0 9035750000.0 9035750000.0 9035750000.0 9035750000.0 9035750000.0 9035750000.0 9035750000.0 9035750000.0 9035750000.0 9035750000.0 9035750000.0 9035750000.0 9035750000.0 9035750000.0 9035750000.0 9035750000.0 9035750000.0 9035750000.0 9035750000.0 9035750000.0 9035750000.0 9035750000.0 9035750000.0 9035750000.0 9035750000.0 9035750000.0 9035750000.0 9035750000.0 9035750000.0 9035750000.0 9035750000.0 9035750000.0 9035750000.0 9035750000.0 9035750000.0 9035750000.0 9035750000.0 9035750000.0 9035750000.0 9035750000.0 9035750000.0 9035750000.0 9035750000.0 9035750000.0 9035750000.0 9035750000.0 9035750000.0 9035750000.0 9035750000.0 9035750000.0 9035750000.0 9035750000.0 9035750000.0 9035750000.0 9035750000.0 9035750000.0 9035750000.0 9035750000.0 9035750000.0 9035750000.0 9035750000.0 9035750000.0 9035750000.0 9035750000.0 9035750000.0 9035750000.0 9035750000.0 9035750000.0 9035750000.0 9035750000.0 9035750000.0 9035750000.0 9035750000.0 9035750000.0 9035750000.0 9035750000.0 9035750000.0 9035750000.0 9035750000.0 9035750000.0 9035750000.0 9035750000.0 9035750000.0 9035750000.0 9035750000.0 9035750000.0 9035750000.0 9035750000.0 9035750000.0 9035750000.0 9035750000.0 9035750000.0 9035750000.0 9035750000.0 9035750000.0 9035750000.0 9035750000.0 9035750000.0 9035750000.0 9035750000.0 9035750000.0 9035750000.0 9035750000.0 9035750000.0 9035750000.0 9035750000.0 9035750000.0 9035750000.0 9035750000.0 9035750000.0 9035750000.0 9035750000.0 9035750000.0 9035750000.0 9035750000.0 9035750000.0 9035750000.0 9035750000.0 9035750000.0 9035750000.0 9035750000.0 9035750000.0 9035750000.0 9035750000.0 9035750000.0 9035750000.0 9035750000.0 9035750000.0 9035750000.0 9035750000.0 9035750000.0 9035750000.0 9035750000.0 9035750000.0 9035750000.0 9035750000.0 9035750000.0 9035750000.0 9035750000.0 9035750000.0 9035750000.0 9035750000.0 9035750000.0 9035750000.0 9035750000.0 9035750000.0 9035750000.0 9035750000.0 9035750000.0 9035750000.0 9035750000.0 9035750000.0 9035750000.0 9035750000.0 9035750000.0 9035750000.0 9035750000.0 9035750000.0 9035750000.0 9035750000.0 9035750000.0 9035750000.0 9035750000.0 9035750000.0 9035750000.0 9035750000.0 9035750000.0 9035750000.0 9035750000.0 9035750000.0 9035750000.0 9035750000.0 9035750000.0 9035750000.0 9035750000.0 9035750000.0 9035750000.0 9035750000.0 9035750000.0 9035750000.0 9035750000.0 9035750000.0 9035750000.0 9035750000.0 9035750000.0 9035750000.0 9035750000.0 9035750000.0 9035750000.0 9035750000.0 9035750000.0 9035750000.0 9035750000.0 9035750000.0 9035750000.0 9035750000.0 9035750000.0 9035750000.0 9035750000.0 9035750000.0 9035750000.0 9035750000.0 9035750000.0 9035750000.0 9035750000.0 9035750000.0 9035750000.0 9035750000.0 9035750000.0 9035750000.0 9035750000.0 9035750000.0 9035750000.0 9035750000.0 9035750000.0 9035750000.0 9035750000.0 9035750000.0 9035750000.0 9035750000.0 9035750000.0 9035750000.0 9035750000.0 9035750000.0 9035750000.0 9035750000.0 9035750000.0 9035750000.0 9035750000.0 9035750000.0 9035750000.0 9035750000.0 9035750000.0 9035750000.0 9035750000.0 9035750000.0 9035750000.0 9035750000.0 9035750000.0 9035750000.0 9035750000.0 9035750000.0 9035750000.0 9035750000.0 9035750000.0 9035750000.0 9035750000.0 9035750000.0 9035750000.0 9035750000.0 9035750000.0 9035750000.0 9035750000.0 9035750000.0 9035750000.0 9035750000.0 9035750000.0 9035750000.0 9035750000.0 9035750000.0 9035750000.0 9035750000.0 9035750000.0 9035750000.0 9035750000.0 9035750000.0 9035750000.0 9035750000.0 9035750000.0 9035750000.0 9035750000.0 9035750000.0 9035750000.0 9035750000.0 9035750000.0 9035750000.0 9035750000.0 9035750000.0 9035750000.0 9035750000.0 9035750000.0 9035750000.0 9035750000.0 9035750000.0 9035750000.0 9035750000.0 9035750000.0 9035750000.0 9035750000.0 9035750000.0 9035750000.0 9035750000.0 9035750000.0 9035750000.0 9035750000.0 9035750000.0 9035750000.0 9035750000.0 9035750000.0 9035750000.0 9035750000.0 9035750000.0 9035750000.0 9035750000.0 9035750000.0 9035750000.0 9035750000.0 9035750000.0 9035750000.0 9035750000.0 9035750000.0 9035750000.0 9035750000.0 9035750000.0 9035750000.0 9035750000.0 9035750000.0 9035750000.0 9035750000.0 9035750000.0 9035750000.0 9035750000.0 9035750000.0 9035750000.0 9035750000.0 9035750000.0 9035750000.0 9035750000.0 9035750000.0 9035750000.0 9035750000.0 9035750000.0 9035750000.0 9035750000.0 9035750000.0 9035750000.0 9035750000.0 9035750000.0 9035750000.0 9035750000.0 9035750000.0 9035750000.0 9035750000.0 9035750000.0 9035750000.0 9035750000.0 9035750000.0 9035750000.0 9035750000.0 9035750000.0 9035750000.0 9035750000.0 9035750000.0 9035750000.0 9035750000.0 9035750000.0 9035750000.0 9035750000.0 9035750000.0 9035750000.0 9035750000.0 9035750000.0 9035750000.0 9035750000.0 9035750000.0 9035750000.0 9035750000.0 9035750000.0 9035750000.0 9035750000.0 9035750000.0 9035750000.0 9035750000.0 9035750000.0 9035750000.0 9035750000.0 9035750000.0 9035750000.0 9035750000.0 9035750000.0 9035750000.0 9035750000.0 9035750000.0 9035750000.0 9035750000.0 9035750000.0 9035750000.0 9035750000.0 9035750000.0 9035750000.0 9035750000.0 9035750000.0 9035750000.0 9035750000.0 9035750000.0 9035750000.0 9035750000.0 9035750000.0 9035750000.0 9035750000.0 9035750000.0 9035750000.0 9035750000.0 9035750000.0 9035750000.0 9035750000.0 9035750000.0 9035750000.0 9035750000.0 9035750000.0 9035750000.0 9035750000.0 9035750000.0 9035750000.0 9035750000.0 9035750000.0 9035750000.0 9035750000.0 9035750000.0 9035750000.0 9035750000.0 9035750000.0 9035750000.0 9035750000.0 9035750000.0 9035750000.0 9035750000.0 9035750000.0 9035750000.0 9035750000.0 9035750000.0 9035750000.0 9035750000.0 9035750000.0 9035750000.0 9035750000.0 9035750000.0 9035750000.0 9035750000.0 9035750000.0 9035750000.0 9035750000.0 9035750000.0 9035750000.0 9035750000.0 9035750000.0 9035750000.0 9035750000.0 9035750000.0 9035750000.0 9035750000.0 9035750000.0 9035750000.0 9035750000.0 9035750000.0 9035750000.0 9035750000.0 9035750000.0 9035750000.0 9035750000.0 9035750000.0 9035750000.0 9035750000.0 9035750000.0 9035750000.0 9035750000.0 9035750000.0 9035750000.0 9035750000.0 9035750000.0 9035750000.0 9035750000.0 9035750000.0 9035750000.0 9035750000.0 9035750000.0 9035750000.0 9035750000.0 9035750000.0 9035750000.0 9035750000.0 9035750000.0 9035750000.0 9035750000.0 9035750000.0 9035750000.0 9035750000.0 9035750000.0 9035750000.0 9035750000.0 9035750000.0 9035750000.0 9035750000.0 9035750000.0 9035750000.0 9035750000.0 9035750000.0 9035750000.0 9035750000.0 9035750000.0 9035750000.0 9035750000.0 9035750000.0 9035750000.0 9035750000.0 9035750000.0 9035750000.0 9035750000.0 9035750000.0 9035750000.0 9035750000.0 9035750000.0 9035750000.0 9035750000.0 9035750000.0 9035750000.0 