# vtk DataFile Version 2.0
Time step 19
ASCII
DATASET UNSTRUCTURED_GRID
POINTS 5000 float
116426.0 430349.0 0
368529.0 428658.0 0
381293.0 429696.0 0
108239.0 434871.0 0
111634.0 432639.0 0
114846.0 434352.0 0
121889.0 430636.0 0
128055.0 434547.0 0
132338.0 432155.0 0
158030.0 434455.0 0
162721.0 434992.0 0
167058.0 435014.0 0
171827.0 433720.0 0
177688.0 433830.0 0
182885.0 432974.0 0
187339.0 434936.0 0
196087.0 435363.0 0
201721.0 434680.0 0
212976.0 434776.0 0
225794.0 435139.0 0
230432.0 434999.0 0
241161.0 434707.0 0
252665.0 434696.0 0
259030.0 435172.0 0
268706.0 435148.0 0
273903.0 435318.0 0
278886.0 434113.0 0
297284.0 434076.0 0
303564.0 434779.0 0
312076.0 435215.0 0
323136.0 435185.0 0
336735.0 434453.0 0
343647.0 433561.0 0
357970.0 431561.0 0
364462.0 431958.0 0
371168.0 433213.0 0
376100.0 431877.0 0
381283.0 434684.0 0
386761.0 432894.0 0
392504.0 435037.0 0
104540.0 437475.0 0
100623.0 439826.0 0
103696.0 440975.0 0
108195.0 439723.0 0
112072.0 436868.0 0
118615.0 434939.0 0
116396.0 439457.0 0
123149.0 436334.0 0
126612.0 438867.0 0
131855.0 437069.0 0
136248.0 435431.0 0
140883.0 436188.0 0
139910.0 440300.0 0
144647.0 435176.0 0
143727.0 438929.0 0
147534.0 439625.0 0
148872.0 435510.0 0
152878.0 435759.0 0
156893.0 438381.0 0
161216.0 439607.0 0
166421.0 439661.0 0
173131.0 439236.0 0
178517.0 439211.0 0
183693.0 438005.0 0
188740.0 439322.0 0
192500.0 436191.0 0
193672.0 440354.0 0
198343.0 439666.0 0
203981.0 440263.0 0
207647.0 435478.0 0
213729.0 439317.0 0
218128.0 435899.0 0
222479.0 435912.0 0
226813.0 439371.0 0
232202.0 440430.0 0
235804.0 436012.0 0
246489.0 436716.0 0
257281.0 439825.0 0
263748.0 436266.0 0
262299.0 440440.0 0
267043.0 439994.0 0
271612.0 439322.0 0
276944.0 439638.0 0
282013.0 437464.0 0
286301.0 435755.0 0
291689.0 436214.0 0
298253.0 439589.0 0
307630.0 437232.0 0
317869.0 435833.0 0
322262.0 439631.0 0
327310.0 436333.0 0
331897.0 435724.0 0
339793.0 436943.0 0
336422.0 439425.0 0
342490.0 439528.0 0
345996.0 439110.0 0
347927.0 436300.0 0
349970.0 440083.0 0
352395.0 435139.0 0
355558.0 439000.0 0
359084.0 438188.0 0
361821.0 435773.0 0
367114.0 437368.0 0
372717.0 438337.0 0
375366.0 440339.0 0
377161.0 437191.0 0
382598.0 438914.0 0
385957.0 437220.0 0
389711.0 437380.0 0
392934.0 438515.0 0
395687.0 437216.0 0
395513.0 441074.0 0
399070.0 439878.0 0
89561.4 446319.0 0
93149.1 444891.0 0
97062.6 442090.0 0
96787.3 445786.0 0
100959.0 443851.0 0
109195.0 443849.0 0
105403.0 443819.0 0
112362.0 441176.0 0
112824.0 445604.0 0
117775.0 444253.0 0
120671.0 440103.0 0
123924.0 440601.0 0
122088.0 443629.0 0
129937.0 441331.0 0
135147.0 440824.0 0
142651.0 444131.0 0
147985.0 444483.0 0
152380.0 440518.0 0
157517.0 442913.0 0
162845.0 445061.0 0
170168.0 443985.0 0
176422.0 445010.0 0
182365.0 443132.0 0
188193.0 445474.0 0
194392.0 445379.0 0
200081.0 444765.0 0
208216.0 445460.0 0
209412.0 440520.0 0
213371.0 444128.0 0
217609.0 440987.0 0
222036.0 440699.0 0
222572.0 444971.0 0
226884.0 444374.0 0
237681.0 441263.0 0
243277.0 441076.0 0
248480.0 440773.0 0
246847.0 444835.0 0
252693.0 441263.0 0
257735.0 444579.0 0
262728.0 445214.0 0
267475.0 444446.0 0
273030.0 444567.0 0
279616.0 443777.0 0
282824.0 441147.0 0
287500.0 440850.0 0
290628.0 444846.0 0
292860.0 440706.0 0
296324.0 444496.0 0
303135.0 440462.0 0
307380.0 440517.0 0
307205.0 444939.0 0
312491.0 440947.0 0
317406.0 440697.0 0
317634.0 445223.0 0
321720.0 443580.0 0
327500.0 440830.0 0
332335.0 440795.0 0
334899.0 443977.0 0
339791.0 443184.0 0
345186.0 443548.0 0
350040.0 445093.0 0
353540.0 442655.0 0
358455.0 443470.0 0
362195.0 439894.0 0
364146.0 444125.0 0
370162.0 443734.0 0
376068.0 444279.0 0
379281.0 441311.0 0
383032.0 442975.0 0
387347.0 441815.0 0
391964.0 441883.0 0
399104.0 443985.0 0
395345.0 445064.0 0
403070.0 442490.0 0
403984.0 446741.0 0
406930.0 444469.0 0
410106.0 446171.0 0
82126.0 450809.0 0
86698.0 448361.0 0
85746.7 451677.0 0
91121.3 449708.0 0
95320.9 449249.0 0
99608.2 448014.0 0
103324.0 446740.0 0
103134.0 450413.0 0
107481.0 447788.0 0
111451.0 451147.0 0
116715.0 449516.0 0
121003.0 447611.0 0
124533.0 446631.0 0
128062.0 445656.0 0
132915.0 445921.0 0
129486.0 449987.0 0
133440.0 450139.0 0
138014.0 445690.0 0
137106.0 450561.0 0
140496.0 448880.0 0
144935.0 449424.0 0
153409.0 446221.0 0
149698.0 449050.0 0
157683.0 448519.0 0
161228.0 449740.0 0
167171.0 447768.0 0
171692.0 449861.0 0
182826.0 448553.0 0
192013.0 450589.0 0
197563.0 450097.0 0
203352.0 449784.0 0
204386.0 445589.0 0
217709.0 445904.0 0
214518.0 449776.0 0
222081.0 449232.0 0
227558.0 449916.0 0
232432.0 445895.0 0
234382.0 450246.0 0
237416.0 445688.0 0
237933.0 449003.0 0
241799.0 446323.0 0
246246.0 450019.0 0
251783.0 446151.0 0
255861.0 449291.0 0
260321.0 448931.0 0
266259.0 449106.0 0
278256.0 449317.0 0
283320.0 445998.0 0
286951.0 446273.0 0
288714.0 449299.0 0
301795.0 445596.0 0
312654.0 446062.0 0
315967.0 449476.0 0
320775.0 449248.0 0
325504.0 446305.0 0
330470.0 445543.0 0
328848.0 449487.0 0
337932.0 448451.0 0
344183.0 449757.0 0
354326.0 446654.0 0
361254.0 448314.0 0
366453.0 449111.0 0
373853.0 448856.0 0
378340.0 449233.0 0
380575.0 445904.0 0
385314.0 447271.0 0
390965.0 446886.0 0
392554.0 451754.0 0
399982.0 448030.0 0
395805.0 449436.0 0
404238.0 451316.0 0
408279.0 448998.0 0
412939.0 448006.0 0
412233.0 451309.0 0
416078.0 449949.0 0
419467.0 452350.0 0
73359.4 457064.0 0
77252.4 457774.0 0
76376.6 454523.0 0
79128.5 452919.0 0
82152.4 454060.0 0
85636.4 456247.0 0
93332.9 453906.0 0
89046.7 453584.0 0
98331.2 452567.0 0
96371.0 456468.0 0
99322.1 456808.0 0
102328.0 455010.0 0
106491.0 452894.0 0
114817.0 454566.0 0
109622.0 455676.0 0
119525.0 453850.0 0
124270.0 451166.0 0
128122.0 454956.0 0
132524.0 453421.0 0
136409.0 455061.0 0
141489.0 454107.0 0
150772.0 453156.0 0
154846.0 451504.0 0
160456.0 454833.0 0
164933.0 451300.0 0
168337.0 453011.0 0
177748.0 451480.0 0
183311.0 455574.0 0
187052.0 451163.0 0
189557.0 455532.0 0
194028.0 454684.0 0
203382.0 454887.0 0
208951.0 451817.0 0
218829.0 451192.0 0
216380.0 454432.0 0
221225.0 454873.0 0
232044.0 454748.0 0
238000.0 453738.0 0
241786.0 450912.0 0
242875.0 455641.0 0
248051.0 455097.0 0
251516.0 451412.0 0
252869.0 455451.0 0
257696.0 454479.0 0
262594.0 452522.0 0
267439.0 454983.0 0
271649.0 450820.0 0
284306.0 450795.0 0
283366.0 455352.0 0
288630.0 454615.0 0
292893.0 451109.0 0
293320.0 455357.0 0
298845.0 450937.0 0
303979.0 451170.0 0
302639.0 455476.0 0
307500.0 450994.0 0
310886.0 455778.0 0
312119.0 450824.0 0
315665.0 453915.0 0
320906.0 454978.0 0
325175.0 451564.0 0
325733.0 455697.0 0
329500.0 455075.0 0
333090.0 451794.0 0
336117.0 455424.0 0
340405.0 454474.0 0
350741.0 450624.0 0
354160.0 455519.0 0
356820.0 450793.0 0
359031.0 455352.0 0
362803.0 452807.0 0
366410.0 455309.0 0
370679.0 452941.0 0
376574.0 452794.0 0
382370.0 452752.0 0
388369.0 452063.0 0
391703.0 455554.0 0
395553.0 454082.0 0
399498.0 452422.0 0
399091.0 456630.0 0
402548.0 455479.0 0
408696.0 452873.0 0
405971.0 455360.0 0
409302.0 456071.0 0
412808.0 455459.0 0
416130.0 453500.0 0
419458.0 455821.0 0
423211.0 455196.0 0
69628.9 459773.0 0
74282.6 460835.0 0
78513.3 462038.0 0
81306.6 457964.0 0
82713.1 461844.0 0
85495.4 460108.0 0
89598.3 457370.0 0
89369.0 461673.0 0
93256.1 458776.0 0
97220.7 459849.0 0
101630.0 459718.0 0
105576.0 457576.0 0
108604.0 459224.0 0
112559.0 458170.0 0
117154.0 458373.0 0
114166.0 461380.0 0
121112.0 460397.0 0
123429.0 456695.0 0
132356.0 458703.0 0
137743.0 459906.0 0
142828.0 459757.0 0
146860.0 456161.0 0
150782.0 459953.0 0
154607.0 456418.0 0
163517.0 459519.0 0
166000.0 455896.0 0
168064.0 460127.0 0
171468.0 456069.0 0
177156.0 457684.0 0
187184.0 460499.0 0
192703.0 460058.0 0
198510.0 456031.0 0
202805.0 459580.0 0
207419.0 457214.0 0
212217.0 456122.0 0
210822.0 460537.0 0
216527.0 460356.0 0
222815.0 460454.0 0
226406.0 456542.0 0
236033.0 458728.0 0
250864.0 459595.0 0
256710.0 460680.0 0
262759.0 458098.0 0
268188.0 460468.0 0
272505.0 456713.0 0
278282.0 455963.0 0
281918.0 459296.0 0
286914.0 460702.0 0
292809.0 459941.0 0
297260.0 456923.0 0
301588.0 459351.0 0
306059.0 455871.0 0
316076.0 458984.0 0
326926.0 460153.0 0
332744.0 459044.0 0
339478.0 460520.0 0
344407.0 457505.0 0
349132.0 456694.0 0
352414.0 459716.0 0
357400.0 460437.0 0
362938.0 458534.0 0
369702.0 458080.0 0
374311.0 456928.0 0
378666.0 456226.0 0
377860.0 460381.0 0
382301.0 458884.0 0
387160.0 457173.0 0
391048.0 459673.0 0
395150.0 458556.0 0
399172.0 459999.0 0
402602.0 459374.0 0
407610.0 459825.0 0
412326.0 459767.0 0
415373.0 462211.0 0
416923.0 458472.0 0
422458.0 459409.0 0
427231.0 457650.0 0
426947.0 461567.0 0
431460.0 460740.0 0
435587.0 461907.0 0
56190.3 467874.0 0
60105.0 465752.0 0
65141.3 463282.0 0
67209.4 466355.0 0
70624.8 464158.0 0
75050.6 464412.0 0
77644.8 466650.0 0
81470.1 465510.0 0
85724.8 464239.0 0
86935.0 467259.0 0
90111.3 466489.0 0
93747.9 463229.0 0
98712.3 464292.0 0
102407.0 466330.0 0
105478.0 462518.0 0
105743.0 467030.0 0
110408.0 461988.0 0
113103.0 464934.0 0
108996.0 465850.0 0
117589.0 463555.0 0
122138.0 464212.0 0
126544.0 461438.0 0
130918.0 463030.0 0
134768.0 463958.0 0
142534.0 465161.0 0
146932.0 462302.0 0
152677.0 465242.0 0
155044.0 460994.0 0
159156.0 460611.0 0
163589.0 464126.0 0
168449.0 465285.0 0
173086.0 462098.0 0
177413.0 461967.0 0
177240.0 465746.0 0
181676.0 462392.0 0
186195.0 465770.0 0
191935.0 465933.0 0
198061.0 461733.0 0
202864.0 465076.0 0
206869.0 461840.0 0
207791.0 465936.0 0
212267.0 464938.0 0
228421.0 462115.0 0
234081.0 463294.0 0
240944.0 461161.0 0
246413.0 461764.0 0
249046.0 465819.0 0
252410.0 463828.0 0
262481.0 465272.0 0
268663.0 465433.0 0
272806.0 461597.0 0
277750.0 462006.0 0
282684.0 464776.0 0
293103.0 465268.0 0
297607.0 462293.0 0
305846.0 461297.0 0
302296.0 465223.0 0
311059.0 461537.0 0
312917.0 465857.0 0
316710.0 464865.0 0
321341.0 460874.0 0
324599.0 463783.0 0
328483.0 465358.0 0
335161.0 463305.0 0
344938.0 462347.0 0
349055.0 461412.0 0
348642.0 465967.0 0
353217.0 463999.0 0
361969.0 463895.0 0
367332.0 462588.0 0
372963.0 462164.0 0
376820.0 463586.0 0
381059.0 463359.0 0
385961.0 462816.0 0
391346.0 464686.0 0
397028.0 463530.0 0
404326.0 462475.0 0
401475.0 463238.0 0
404552.0 465938.0 0
407587.0 464086.0 0
411833.0 464364.0 0
419474.0 462746.0 0
416651.0 466457.0 0
423568.0 463322.0 0
430962.0 464292.0 0
427283.0 465818.0 0
434266.0 464912.0 0
438491.0 464974.0 0
442449.0 466814.0 0
52805.6 468989.0 0
50304.9 472337.0 0
54926.7 471843.0 0
58607.3 470770.0 0
63467.6 469020.0 0
68397.4 469034.0 0
72908.8 468381.0 0
70247.5 472460.0 0
76316.6 470845.0 0
80371.3 469891.0 0
84135.7 468626.0 0
87627.5 470252.0 0
91279.2 470373.0 0
94578.4 467938.0 0
98810.6 469462.0 0
103518.0 470607.0 0
107801.0 469886.0 0
111505.0 468799.0 0
115464.0 467443.0 0
114754.0 471538.0 0
119803.0 468793.0 0
125298.0 467503.0 0
129380.0 466018.0 0
132851.0 468342.0 0
138326.0 466169.0 0
137167.0 470607.0 0
141304.0 469220.0 0
147425.0 466908.0 0
144782.0 471170.0 0
158579.0 465902.0 0
155351.0 470281.0 0
163323.0 469660.0 0
168603.0 470227.0 0
172797.0 467693.0 0
176909.0 470762.0 0
181652.0 468243.0 0
187275.0 470785.0 0
197600.0 467278.0 0
201696.0 470541.0 0
207208.0 470884.0 0
213018.0 470355.0 0
217327.0 466740.0 0
223448.0 466420.0 0
229062.0 468137.0 0
233484.0 467756.0 0
238526.0 466945.0 0
243897.0 466202.0 0
242161.0 470474.0 0
246614.0 470180.0 0
251471.0 469812.0 0
255525.0 466785.0 0
268239.0 471053.0 0
273416.0 466133.0 0
274048.0 471078.0 0
278278.0 467391.0 0
284493.0 470771.0 0
287885.0 466696.0 0
293087.0 469584.0 0
297483.0 467727.0 0
301957.0 470801.0 0
308005.0 466454.0 0
311495.0 470321.0 0
316131.0 469467.0 0
321361.0 466434.0 0
325544.0 469952.0 0
330696.0 471053.0 0
333171.0 466924.0 0
338268.0 466742.0 0
343614.0 467329.0 0
348915.0 471034.0 0
353495.0 469765.0 0
357527.0 466644.0 0
365435.0 467101.0 0
361858.0 468576.0 0
371125.0 468873.0 0
377948.0 467295.0 0
380848.0 471543.0 0
383286.0 467317.0 0
387454.0 467437.0 0
385933.0 471743.0 0
390934.0 470267.0 0
395714.0 468763.0 0
400718.0 467786.0 0
399216.0 471930.0 0
402173.0 471589.0 0
405176.0 470153.0 0
408981.0 468227.0 0
413497.0 469558.0 0
418015.0 471058.0 0
422055.0 467671.0 0
426969.0 470246.0 0
431550.0 472324.0 0
431516.0 468064.0 0
435983.0 469207.0 0
440093.0 469211.0 0
438697.0 471688.0 0
445749.0 469786.0 0
442068.0 471956.0 0
450503.0 472078.0 0
39238.1 477919.0 0
43161.7 476433.0 0
46101.9 473434.0 0
47274.0 476037.0 0
49961.3 477038.0 0
53437.7 475646.0 0
57082.1 474781.0 0
61193.4 474040.0 0
66228.5 473120.0 0
64443.0 477133.0 0
68820.6 476171.0 0
73416.1 474758.0 0
78607.6 474429.0 0
83552.1 473521.0 0
83861.3 477701.0 0
89044.3 474830.0 0
94807.3 473160.0 0
97184.7 477764.0 0
100080.0 474001.0 0
105824.0 474531.0 0
110228.0 472932.0 0
118749.0 474806.0 0
124185.0 472881.0 0
129117.0 471040.0 0
133198.0 475376.0 0
140910.0 473793.0 0
144996.0 476293.0 0
150143.0 471744.0 0
155439.0 475054.0 0
159221.0 472582.0 0
164428.0 475507.0 0
172285.0 471692.0 0
169721.0 475038.0 0
174578.0 475067.0 0
182935.0 473008.0 0
178937.0 474803.0 0
186949.0 476197.0 0
191889.0 471223.0 0
192029.0 475720.0 0
196613.0 472719.0 0
201386.0 476143.0 0
212268.0 475300.0 0
219899.0 471831.0 0
225005.0 471739.0 0
228742.0 472228.0 0
232807.0 471523.0 0
231096.0 475581.0 0
237002.0 472172.0 0
241336.0 475380.0 0
246772.0 475114.0 0
252461.0 475315.0 0
257773.0 472040.0 0
262736.0 471336.0 0
274498.0 476061.0 0
279301.0 472891.0 0
283930.0 475225.0 0
289587.0 471641.0 0
292572.0 475059.0 0
296121.0 472596.0 0
303390.0 475707.0 0
306987.0 471605.0 0
307506.0 475868.0 0
312018.0 475522.0 0
320559.0 471548.0 0
317242.0 475051.0 0
327219.0 474530.0 0
336201.0 472434.0 0
331729.0 476102.0 0
341091.0 471302.0 0
339393.0 475858.0 0
344810.0 471696.0 0
342809.0 474956.0 0
346904.0 475019.0 0
352619.0 475866.0 0
358564.0 472565.0 0
365098.0 471525.0 0
362996.0 476151.0 0
368399.0 475445.0 0
373535.0 475001.0 0
376579.0 471908.0 0
378496.0 475955.0 0
382670.0 475205.0 0
386430.0 476395.0 0
390301.0 475038.0 0
395253.0 474073.0 0
401052.0 476129.0 0
404544.0 473483.0 0
406031.0 477074.0 0
410014.0 473820.0 0
415077.0 473440.0 0
418753.0 475502.0 0
422637.0 472654.0 0
423057.0 477157.0 0
427270.0 474482.0 0
432127.0 476965.0 0
435648.0 474138.0 0
439573.0 475258.0 0
446206.0 473996.0 0
443279.0 475679.0 0
450030.0 475862.0 0
454930.0 475653.0 0
460204.0 477812.0 0
36388.9 480004.0 0
32718.3 482150.0 0
41567.8 481019.0 0
46408.8 479527.0 0
51011.1 480494.0 0
55203.0 478576.0 0
55427.4 482691.0 0
59191.7 478600.0 0
62717.5 480577.0 0
67320.4 480542.0 0
71428.8 478575.0 0
76071.4 478772.0 0
78081.1 483181.0 0
80516.8 477723.0 0
82067.4 480783.0 0
87084.7 480887.0 0
92578.2 478780.0 0
95595.4 482602.0 0
100783.0 481451.0 0
102624.0 477160.0 0
106087.0 479526.0 0
109126.0 476680.0 0
110336.0 479831.0 0
113457.0 476682.0 0
116996.0 479416.0 0
113698.0 481578.0 0
122057.0 479698.0 0
127498.0 477253.0 0
130927.0 480252.0 0
138351.0 476921.0 0
141440.0 480017.0 0
145982.0 481039.0 0
150684.0 478015.0 0
159548.0 476765.0 0
162976.0 480487.0 0
167651.0 479958.0 0
173865.0 481170.0 0
182145.0 477542.0 0
179220.0 481109.0 0
189629.0 481201.0 0
196185.0 478454.0 0
199991.0 481188.0 0
207379.0 476862.0 0
212826.0 479950.0 0
216931.0 476624.0 0
221694.0 477457.0 0
223377.0 480918.0 0
226154.0 476267.0 0
227657.0 480990.0 0
232479.0 480230.0 0
235941.0 476827.0 0
237762.0 481294.0 0
246681.0 479946.0 0
257589.0 477279.0 0
263644.0 476846.0 0
269534.0 476729.0 0
267604.0 480908.0 0
271678.0 480469.0 0
279866.0 478231.0 0
276017.0 480880.0 0
284233.0 479628.0 0
288499.0 476660.0 0
293476.0 479608.0 0
298546.0 477183.0 0
302158.0 480899.0 0
306177.0 479666.0 0
311016.0 481297.0 0
316013.0 479734.0 0
322643.0 476494.0 0
323781.0 480483.0 0
327474.0 479241.0 0
336275.0 477748.0 0
341562.0 479093.0 0
347255.0 480627.0 0
357988.0 477720.0 0
365903.0 480657.0 0
370536.0 479562.0 0
375091.0 479944.0 0
379694.0 480277.0 0
383732.0 479311.0 0
389064.0 479208.0 0
393108.0 478794.0 0
397159.0 478427.0 0
400186.0 481145.0 0
404436.0 480739.0 0
410129.0 480584.0 0
414665.0 477703.0 0
414805.0 482435.0 0
419239.0 480767.0 0
424018.0 481217.0 0
428123.0 479094.0 0
432424.0 481580.0 0
435720.0 478871.0 0
438766.0 478720.0 0
441932.0 478971.0 0
439561.0 481606.0 0
446609.0 479450.0 0
443345.0 482578.0 0
451981.0 479252.0 0
449724.0 482926.0 0
453590.0 482311.0 0
457658.0 480396.0 0
463979.0 481109.0 0
25321.1 487963.0 0
29106.2 484365.0 0
32539.7 485217.0 0
36863.7 483966.0 0
34431.0 488458.0 0
41401.7 484741.0 0
38836.3 488180.0 0
46353.3 483775.0 0
43659.4 488050.0 0
51070.1 484718.0 0
53752.2 486547.0 0
57196.8 486724.0 0
59756.1 483043.0 0
61875.6 487059.0 0
63875.8 483332.0 0
67129.9 485305.0 0
72073.1 483161.0 0
75108.1 486949.0 0
82852.1 485610.0 0
88076.1 487172.0 0
91405.0 483394.0 0
93513.1 487541.0 0
98283.6 486167.0 0
102102.0 485913.0 0
104841.0 483660.0 0
108957.0 483754.0 0
113176.0 486554.0 0
117790.0 483620.0 0
122527.0 485454.0 0
126941.0 482473.0 0
131436.0 484706.0 0
135955.0 481353.0 0
140559.0 485594.0 0
145510.0 485043.0 0
149739.0 483859.0 0
153760.0 482128.0 0
158230.0 481507.0 0
153752.0 485883.0 0
163261.0 484872.0 0
159344.0 485975.0 0
168363.0 485491.0 0
183934.0 482182.0 0
187412.0 486147.0 0
192574.0 486258.0 0
194103.0 482206.0 0
198235.0 485920.0 0
204126.0 481676.0 0
203203.0 485668.0 0
208505.0 482006.0 0
212272.0 484916.0 0
219153.0 481375.0 0
222612.0 485112.0 0
232502.0 484934.0 0
237114.0 485605.0 0
242316.0 481765.0 0
241409.0 486235.0 0
246115.0 484962.0 0
251843.0 481552.0 0
254480.0 486022.0 0
257331.0 481571.0 0
262162.0 483051.0 0
267303.0 486234.0 0
272363.0 484369.0 0
277031.0 486174.0 0
282959.0 484970.0 0
288485.0 481952.0 0
292444.0 485155.0 0
298301.0 481926.0 0
297039.0 485915.0 0
301755.0 485948.0 0
306528.0 484378.0 0
315479.0 484649.0 0
320394.0 481787.0 0
319771.0 486217.0 0
325388.0 485132.0 0
332581.0 481773.0 0
337927.0 481891.0 0
342244.0 484236.0 0
346770.0 486291.0 0
353688.0 482574.0 0
360022.0 482518.0 0
364702.0 485866.0 0
370148.0 484016.0 0
374682.0 484784.0 0
378483.0 484052.0 0
382506.0 483644.0 0
387104.0 482824.0 0
389735.0 486773.0 0
391541.0 482798.0 0
393649.0 486297.0 0
396044.0 482755.0 0
397565.0 487027.0 0
402702.0 485942.0 0
407057.0 483701.0 0
408337.0 487111.0 0
412786.0 486359.0 0
417743.0 485995.0 0
422986.0 485561.0 0
428291.0 483908.0 0
436209.0 483082.0 0
432654.0 486729.0 0
436829.0 486542.0 0
440960.0 486148.0 0
446758.0 485798.0 0
456582.0 484862.0 0
452561.0 486484.0 0
457563.0 488035.0 0
460645.0 484541.0 0
461459.0 488547.0 0
464543.0 485833.0 0
467703.0 488023.0 0
469033.0 484503.0 0
474420.0 487713.0 0
16516.9 492901.0 0
18557.5 490114.0 0
21244.2 489221.0 0
21224.5 493797.0 0
26407.3 492873.0 0
30012.9 488802.0 0
31890.9 493336.0 0
36067.8 491691.0 0
40122.8 492201.0 0
45077.9 492447.0 0
48825.9 488602.0 0
49355.3 492890.0 0
53499.8 490806.0 0
58062.5 490445.0 0
62110.5 492546.0 0
66036.4 489199.0 0
67581.0 492682.0 0
70509.9 488805.0 0
74721.2 490805.0 0
78812.2 488282.0 0
82220.3 490334.0 0
90564.2 491218.0 0
96994.4 490113.0 0
101190.0 490039.0 0
105866.0 487848.0 0
109538.0 490090.0 0
118227.0 488978.0 0
113669.0 492006.0 0
123156.0 490686.0 0
127172.0 487513.0 0
131590.0 489698.0 0
135515.0 487162.0 0
135703.0 491579.0 0
140046.0 490995.0 0
147936.0 487805.0 0
144264.0 489415.0 0
151623.0 489672.0 0
156499.0 489354.0 0
161911.0 490101.0 0
172902.0 486568.0 0
173529.0 490811.0 0
177592.0 486693.0 0
182758.0 487096.0 0
189650.0 490812.0 0
194567.0 490735.0 0
204012.0 489892.0 0
207591.0 486727.0 0
213280.0 490206.0 0
217377.0 486461.0 0
222500.0 490911.0 0
227548.0 486591.0 0
227501.0 491167.0 0
231463.0 489077.0 0
235425.0 489664.0 0
241065.0 490623.0 0
246282.0 490835.0 0
250316.0 486627.0 0
252719.0 491331.0 0
258762.0 486695.0 0
257760.0 490446.0 0
262538.0 489647.0 0
268464.0 490954.0 0
272303.0 489020.0 0
276485.0 491219.0 0
282634.0 490766.0 0
287935.0 486486.0 0
287766.0 490892.0 0
292962.0 490620.0 0
297613.0 489773.0 0
310894.0 486600.0 0
306562.0 489255.0 0
316856.0 490662.0 0
322582.0 490566.0 0
326375.0 489989.0 0
331503.0 487855.0 0
337154.0 486755.0 0
339540.0 491427.0 0
343372.0 488818.0 0
351230.0 487525.0 0
347576.0 491124.0 0
356138.0 487737.0 0
360647.0 487887.0 0
364304.0 491119.0 0
368451.0 488346.0 0
373386.0 489401.0 0
377450.0 487507.0 0
381174.0 487761.0 0
385449.0 487034.0 0
384470.0 491723.0 0
389644.0 491368.0 0
394603.0 490841.0 0
400078.0 491225.0 0
405399.0 491059.0 0
410844.0 491253.0 0
415721.0 490171.0 0
421247.0 490557.0 0
427682.0 488540.0 0
431749.0 491572.0 0
437048.0 490775.0 0
444406.0 488525.0 0
442158.0 491147.0 0
446753.0 491002.0 0
450018.0 489413.0 0
454570.0 490731.0 0
458827.0 491829.0 0
465302.0 489881.0 0
462840.0 492631.0 0
468907.0 490702.0 0
470854.0 488840.0 0
472144.0 492743.0 0
476245.0 492754.0 0
479118.0 489844.0 0
482808.0 492147.0 0
12467.0 495344.0 0
8930.17 496857.0 0
16335.9 497457.0 0
20391.0 499662.0 0
24742.7 497227.0 0
28699.0 496332.0 0
32113.8 498330.0 0
36311.8 495696.0 0
41378.4 496800.0 0
46762.5 496465.0 0
51911.9 496431.0 0
56820.6 494612.0 0
60325.5 497515.0 0
65264.8 496594.0 0
71466.0 493318.0 0
69092.9 496165.0 0
75096.0 494585.0 0
78553.5 492433.0 0
81912.9 494228.0 0
86194.3 492505.0 0
89234.8 496347.0 0
94441.3 494411.0 0
100221.0 495206.0 0
105292.0 493306.0 0
109705.0 494225.0 0
117893.0 494437.0 0
122530.0 495736.0 0
127674.0 492368.0 0
131981.0 494829.0 0
136628.0 495859.0 0
143607.0 494026.0 0
147636.0 491801.0 0
151419.0 495271.0 0
157456.0 494554.0 0
163191.0 496054.0 0
167823.0 491607.0 0
171819.0 495753.0 0
178558.0 492126.0 0
183748.0 495638.0 0
184348.0 491722.0 0
187770.0 495907.0 0
193117.0 495376.0 0
199389.0 491639.0 0
203326.0 494943.0 0
208475.0 491783.0 0
211272.0 495809.0 0
217978.0 491757.0 0
215926.0 496149.0 0
221394.0 496115.0 0
227326.0 496498.0 0
231689.0 493262.0 0
237630.0 495373.0 0
243893.0 496026.0 0
248944.0 495812.0 0
257365.0 493785.0 0
260307.0 495817.0 0
265420.0 494801.0 0
272303.0 495321.0 0
279399.0 495933.0 0
285449.0 494987.0 0
290082.0 494836.0 0
297035.0 494880.0 0
301797.0 491632.0 0
306428.0 494525.0 0
311091.0 491799.0 0
317475.0 496537.0 0
322510.0 495542.0 0
330560.0 492280.0 0
327015.0 493694.0 0
331146.0 496311.0 0
334570.0 492660.0 0
338977.0 495927.0 0
343678.0 495076.0 0
353171.0 492867.0 0
358984.0 492461.0 0
365885.0 496070.0 0
369237.0 492912.0 0
369923.0 497695.0 0
373926.0 494916.0 0
378680.0 492075.0 0
388003.0 495276.0 0
392155.0 495489.0 0
397047.0 495508.0 0
402203.0 495791.0 0
407232.0 495708.0 0
412111.0 495986.0 0
417615.0 495628.0 0
426931.0 493007.0 0
423149.0 495404.0 0
430679.0 495351.0 0
434785.0 495414.0 0
438715.0 494799.0 0
438361.0 497271.0 0
441829.0 495255.0 0
444845.0 493826.0 0
445399.0 497164.0 0
451427.0 493785.0 0
447549.0 494558.0 0
449430.0 497886.0 0
454039.0 498257.0 0
456282.0 494882.0 0
460346.0 495733.0 0
464335.0 496146.0 0
467802.0 494225.0 0
471176.0 496672.0 0
467937.0 499024.0 0
474397.0 496534.0 0
480124.0 493669.0 0
478717.0 496618.0 0
483195.0 496270.0 0
486400.0 494069.0 0
489408.0 496422.0 0
493005.0 498622.0 0
2115.96 500057.0 0
6225.17 499761.0 0
11507.1 499467.0 0
15086.5 501972.0 0
24752.3 500821.0 0
22498.7 503303.0 0
28067.9 499998.0 0
31148.2 503154.0 0
36634.9 500949.0 0
40860.5 500297.0 0
44252.8 500334.0 0
48242.9 500093.0 0
51535.0 501957.0 0
55779.1 499479.0 0
59741.3 502147.0 0
63860.9 500378.0 0
68202.9 500301.0 0
72685.8 497989.0 0
78393.4 497658.0 0
79384.4 502003.0 0
81417.0 500039.0 0
84213.1 497605.0 0
87759.8 500467.0 0
92850.4 500561.0 0
97464.1 498692.0 0
102404.0 499983.0 0
107338.0 498237.0 0
113141.0 497984.0 0
118768.0 499240.0 0
123577.0 500659.0 0
127350.0 497148.0 0
134393.0 500338.0 0
140597.0 497751.0 0
146514.0 497439.0 0
143814.0 502022.0 0
149107.0 500825.0 0
153937.0 500558.0 0
158755.0 499465.0 0
162950.0 501641.0 0
167972.0 499728.0 0
173201.0 500861.0 0
176095.0 497496.0 0
180315.0 496691.0 0
184092.0 499773.0 0
190995.0 500427.0 0
198409.0 497260.0 0
203676.0 500203.0 0
207160.0 497344.0 0
208597.0 501304.0 0
212942.0 500255.0 0
218005.0 500825.0 0
223446.0 500946.0 0
227786.0 501496.0 0
232816.0 500685.0 0
237997.0 501378.0 0
242279.0 500212.0 0
246607.0 500119.0 0
254179.0 497455.0 0
262625.0 500015.0 0
268025.0 500042.0 0
283848.0 499193.0 0
288898.0 499905.0 0
293360.0 498054.0 0
298680.0 500801.0 0
301966.0 496875.0 0
303116.0 500166.0 0
306480.0 500197.0 0
311542.0 497945.0 0
315536.0 501311.0 0
320401.0 501536.0 0
326553.0 499748.0 0
335498.0 497797.0 0
332336.0 501268.0 0
339227.0 500050.0 0
344869.0 501447.0 0
348953.0 496763.0 0
350795.0 501389.0 0
356768.0 497429.0 0
360233.0 500696.0 0
361553.0 496874.0 0
365014.0 501263.0 0
370380.0 502240.0 0
374455.0 499754.0 0
378076.0 497205.0 0
383456.0 497547.0 0
389313.0 499853.0 0
394415.0 499514.0 0
399333.0 500010.0 0
404448.0 500110.0 0
409595.0 500593.0 0
414106.0 499752.0 0
417999.0 501566.0 0
422566.0 499855.0 0
427572.0 498475.0 0
432303.0 499037.0 0
430513.0 502745.0 0
434302.0 502599.0 0
436592.0 499798.0 0
441542.0 499977.0 0
446639.0 501538.0 0
451538.0 501913.0 0
456253.0 502525.0 0
458452.0 499019.0 0
460841.0 503571.0 0
463108.0 499617.0 0
465542.0 503113.0 0
472582.0 500112.0 0
469263.0 502394.0 0
476513.0 499516.0 0
476629.0 503362.0 0
481449.0 500538.0 0
486117.0 498843.0 0
485880.0 502603.0 0
489459.0 500850.0 0
493591.0 503261.0 0
496692.0 500000.0 0
497850.0 502940.0 0
2798.6 503999.0 0
10037.5 503624.0 0
6525.32 506325.0 0
14140.1 505904.0 0
10753.6 508508.0 0
15789.9 508597.0 0
18371.0 504659.0 0
18531.9 507850.0 0
22841.9 507546.0 0
26579.0 503870.0 0
28878.0 508080.0 0
34573.6 504878.0 0
41122.2 503827.0 0
37475.8 505770.0 0
46603.9 505064.0 0
55039.3 505017.0 0
59579.6 506046.0 0
64246.4 504537.0 0
69385.8 504695.0 0
74686.3 502942.0 0
79217.0 505511.0 0
83571.7 503122.0 0
84893.3 507580.0 0
88959.4 504970.0 0
93875.3 505986.0 0
97827.6 503028.0 0
102059.0 504811.0 0
106910.0 503515.0 0
111649.0 504202.0 0
115461.0 502601.0 0
119715.0 504222.0 0
124567.0 505617.0 0
129014.0 502285.0 0
133156.0 505804.0 0
138004.0 506838.0 0
138681.0 502324.0 0
148287.0 505844.0 0
157474.0 504328.0 0
169951.0 506103.0 0
178783.0 501904.0 0
182118.0 506644.0 0
186677.0 504175.0 0
191447.0 505718.0 0
195929.0 501996.0 0
196148.0 506676.0 0
200288.0 502646.0 0
205292.0 504774.0 0
211668.0 504880.0 0
216544.0 506066.0 0
221787.0 505370.0 0
226770.0 505982.0 0
232084.0 504954.0 0
236183.0 506270.0 0
241539.0 504717.0 0
246859.0 505225.0 0
251456.0 501896.0 0
251507.0 506147.0 0
257627.0 501766.0 0
261506.0 505340.0 0
266270.0 504484.0 0
273512.0 501948.0 0
270483.0 506753.0 0
279300.0 502113.0 0
284729.0 504307.0 0
290098.0 504723.0 0
293703.0 502265.0 0
297265.0 505120.0 0
302799.0 503308.0 0
307285.0 504046.0 0
312153.0 503723.0 0
316559.0 505080.0 0
325399.0 505132.0 0
330839.0 506212.0 0
336480.0 503098.0 0
340334.0 506053.0 0
348905.0 505398.0 0
356041.0 503087.0 0
361408.0 506210.0 0
366500.0 506304.0 0
370722.0 506900.0 0
374584.0 504327.0 0
379317.0 502134.0 0
378747.0 506784.0 0
384842.0 503232.0 0
389132.0 505287.0 0
392735.0 503294.0 0
396839.0 504363.0 0
401989.0 504703.0 0
407034.0 505480.0 0
410764.0 504464.0 0
414223.0 503976.0 0
415744.0 507542.0 0
417942.0 505656.0 0
421859.0 504875.0 0
426323.0 503342.0 0
425674.0 508142.0 0
429413.0 506339.0 0
434062.0 507105.0 0
438534.0 504399.0 0
443532.0 505242.0 0
449050.0 506263.0 0
453749.0 505482.0 0
457904.0 507211.0 0
463766.0 506909.0 0
468344.0 506404.0 0
472434.0 504100.0 0
473236.0 507839.0 0
477138.0 507289.0 0
481596.0 505695.0 0
486303.0 506655.0 0
489658.0 504940.0 0
493091.0 508038.0 0
497575.0 506534.0 0
2477.61 508589.0 0
2446.14 513195.0 0
6534.6 510582.0 0
13614.3 511980.0 0
18861.7 511711.0 0
24677.7 512263.0 0
34501.4 508525.0 0
31408.6 512344.0 0
36387.9 512871.0 0
41030.2 509441.0 0
46896.9 509841.0 0
50602.0 508108.0 0
49709.3 512439.0 0
53956.3 509340.0 0
55261.2 512495.0 0
61861.8 508844.0 0
57527.9 509072.0 0
59217.6 512000.0 0
66640.8 508683.0 0
70833.8 508456.0 0
69351.1 512351.0 0
73369.2 510855.0 0
75851.7 507737.0 0
81139.6 508317.0 0
78151.5 512052.0 0
83440.0 511508.0 0
87702.6 510541.0 0
90860.6 508813.0 0
93894.0 510315.0 0
98538.7 508655.0 0
104615.0 508730.0 0
110049.0 508740.0 0
115219.0 507225.0 0
119937.0 509375.0 0
124775.0 510229.0 0
128893.0 507378.0 0
129232.0 511889.0 0
133348.0 510165.0 0
137182.0 511443.0 0
142584.0 507478.0 0
141563.0 511607.0 0
147367.0 511615.0 0
153429.0 507795.0 0
157363.0 510998.0 0
162675.0 507896.0 0
172745.0 511186.0 0
176517.0 507628.0 0
179933.0 511007.0 0
184721.0 511888.0 0
189874.0 510244.0 0
194159.0 511371.0 0
197960.0 510784.0 0
200932.0 507671.0 0
203286.0 511544.0 0
208658.0 507218.0 0
206317.0 509386.0 0
212394.0 510621.0 0
216942.0 510576.0 0
221104.0 510209.0 0
225856.0 510932.0 0
231084.0 509345.0 0
235800.0 511217.0 0
240508.0 509932.0 0
248557.0 509970.0 0
252667.0 509783.0 0
256211.0 506894.0 0
260030.0 509951.0 0
256116.0 511888.0 0
265450.0 509732.0 0
272734.0 510242.0 0
275459.0 510863.0 0
276534.0 506923.0 0
281815.0 509842.0 0
288171.0 509424.0 0
293728.0 506861.0 0
293318.0 511519.0 0
298652.0 509541.0 0
304473.0 508104.0 0
309501.0 507037.0 0
308706.0 510741.0 0
313465.0 508068.0 0
320926.0 507468.0 0
316992.0 510376.0 0
327033.0 509586.0 0
335441.0 507523.0 0
332166.0 510934.0 0
335877.0 512078.0 0
340980.0 511542.0 0
345207.0 507039.0 0
345934.0 511331.0 0
350428.0 510773.0 0
352673.0 507171.0 0
356394.0 510123.0 0
366914.0 510510.0 0
375075.0 509175.0 0
379358.0 510733.0 0
382936.0 508015.0 0
387921.0 510224.0 0
393363.0 508388.0 0
398877.0 508954.0 0
403425.0 509456.0 0
407465.0 510215.0 0
411635.0 508123.0 0
415266.0 511057.0 0
420307.0 510181.0 0
430216.0 510567.0 0
435023.0 512082.0 0
440165.0 510088.0 0
445346.0 509227.0 0
444975.0 512677.0 0
450016.0 512036.0 0
453931.0 509111.0 0
461094.0 510617.0 0
465703.0 510249.0 0
469576.0 510068.0 0
473138.0 512646.0 0
476168.0 510003.0 0
477424.0 512942.0 0
479770.0 510122.0 0
484277.0 510420.0 0
489145.0 509938.0 0
496980.0 511144.0 0
2689.27 517978.0 0
9813.01 512497.0 0
6646.92 514955.0 0
15212.5 516003.0 0
10897.8 515717.0 0
19856.5 516176.0 0
24147.6 516470.0 0
28126.2 515242.0 0
40250.2 515274.0 0
45066.9 513346.0 0
48048.2 516096.0 0
52607.6 516553.0 0
57991.6 515790.0 0
63747.2 513378.0 0
67813.7 517205.0 0
73286.3 515708.0 0
77924.4 517203.0 0
82145.9 515779.0 0
86341.8 514081.0 0
90864.6 514079.0 0
96338.3 514077.0 0
101774.0 513493.0 0
99318.3 517531.0 0
106709.0 513051.0 0
109961.0 512794.0 0
109299.0 516069.0 0
114315.0 512856.0 0
118099.0 516625.0 0
121934.0 513943.0 0
125725.0 513590.0 0
127869.0 517177.0 0
133331.0 515302.0 0
138768.0 516058.0 0
144463.0 517061.0 0
152833.0 513154.0 0
149505.0 516258.0 0
157257.0 515972.0 0
160917.0 513279.0 0
167648.0 512449.0 0
163860.0 515096.0 0
171628.0 514804.0 0
176642.0 514998.0 0
189552.0 515476.0 0
194660.0 515971.0 0
199838.0 515161.0 0
207702.0 514227.0 0
216374.0 516096.0 0
221836.0 514487.0 0
226673.0 516190.0 0
232617.0 515309.0 0
238602.0 515126.0 0
244799.0 514149.0 0
251402.0 514826.0 0
256853.0 516416.0 0
261858.0 514532.0 0
270052.0 513727.0 0
274104.0 516557.0 0
277804.0 513894.0 0
283174.0 516188.0 0
288699.0 514730.0 0
292989.0 516958.0 0
297001.0 514376.0 0
302784.0 514564.0 0
308574.0 515437.0 0
312743.0 512835.0 0
317945.0 515595.0 0
322902.0 512571.0 0
328081.0 514731.0 0
333235.0 516643.0 0
338697.0 516310.0 0
343967.0 515885.0 0
348922.0 515124.0 0
353440.0 513952.0 0
361814.0 512421.0 0
357589.0 517042.0 0
366695.0 515443.0 0
371283.0 512925.0 0
376667.0 513661.0 0
379429.0 517572.0 0
383265.0 513659.0 0
385296.0 517367.0 0
388127.0 515446.0 0
391725.0 513239.0 0
396294.0 513260.0 0
401274.0 513306.0 0
406179.0 515139.0 0
411141.0 513148.0 0
415601.0 515408.0 0
420579.0 516218.0 0
425713.0 513666.0 0
431307.0 515612.0 0
437214.0 516871.0 0
442176.0 515337.0 0
446823.0 515961.0 0
452504.0 516556.0 0
456279.0 513027.0 0
456508.0 517410.0 0
463932.0 514206.0 0
459967.0 515948.0 0
468251.0 513848.0 0
471288.0 516677.0 0
476060.0 517293.0 0
481674.0 515054.0 0
485570.0 517995.0 0
487201.0 514062.0 0
489479.0 517715.0 0
492333.0 513993.0 0
497295.0 516013.0 0
4412.63 522784.0 0
7752.16 519105.0 0
12341.4 519629.0 0
16864.0 520207.0 0
21931.3 520225.0 0
26974.2 519602.0 0
29238.1 523229.0 0
33456.2 518381.0 0
39547.7 521930.0 0
43953.3 518158.0 0
44670.2 522559.0 0
48748.1 520407.0 0
52396.6 523191.0 0
56338.0 520591.0 0
62015.5 518882.0 0
66127.9 521960.0 0
71252.4 520798.0 0
76121.1 521351.0 0
81169.7 520538.0 0
86300.2 518582.0 0
91338.3 518964.0 0
88966.4 522512.0 0
95548.1 518714.0 0
98886.4 521811.0 0
104717.0 518706.0 0
113377.0 519032.0 0
122439.0 519113.0 0
118046.0 521576.0 0
132137.0 521094.0 0
137811.0 521600.0 0
142906.0 522193.0 0
153087.0 517907.0 0
148826.0 520849.0 0
158445.0 520775.0 0
163492.0 519569.0 0
168724.0 517905.0 0
172673.0 519833.0 0
178359.0 520338.0 0
182289.0 517105.0 0
186675.0 519725.0 0
192379.0 520391.0 0
196932.0 520904.0 0
203958.0 517160.0 0
201433.0 520651.0 0
207077.0 520433.0 0
211145.0 517906.0 0
212749.0 520951.0 0
217737.0 522035.0 0
221999.0 519150.0 0
226879.0 521279.0 0
231624.0 520917.0 0
236516.0 520241.0 0
241313.0 519631.0 0
245877.0 519482.0 0
250482.0 520715.0 0
255226.0 520575.0 0
260791.0 520692.0 0
266255.0 517853.0 0
271112.0 520253.0 0
277973.0 519921.0 0
288258.0 520002.0 0
293291.0 521845.0 0
298224.0 519559.0 0
303279.0 520103.0 0
307981.0 520434.0 0
314088.0 520946.0 0
318972.0 520284.0 0
323588.0 517988.0 0
328933.0 520091.0 0
333040.0 520942.0 0
336583.0 520620.0 0
341851.0 521301.0 0
346847.0 519640.0 0
352084.0 519733.0 0
356706.0 522005.0 0
362707.0 517964.0 0
366483.0 521309.0 0
369733.0 518356.0 0
374128.0 517831.0 0
377985.0 521810.0 0
383459.0 520619.0 0
386737.0 522257.0 0
387520.0 519405.0 0
391555.0 518556.0 0
396405.0 518304.0 0
393222.0 522022.0 0
401651.0 518465.0 0
406086.0 519725.0 0
411583.0 518015.0 0
416593.0 520595.0 0
422339.0 521144.0 0
426089.0 522763.0 0
427095.0 519005.0 0
428401.0 522265.0 0
432642.0 521332.0 0
438874.0 522393.0 0
444349.0 518779.0 0
443733.0 521992.0 0
448895.0 520185.0 0
454174.0 520590.0 0
463323.0 518260.0 0
459542.0 520837.0 0
467466.0 518271.0 0
465005.0 522618.0 0
471606.0 520993.0 0
476554.0 521982.0 0
480528.0 520121.0 0
484932.0 522384.0 0
489490.0 521603.0 0
493657.0 519569.0 0
498115.0 520014.0 0
2105.32 526461.0 0
9555.21 523372.0 0
6772.32 527529.0 0
13799.1 523264.0 0
11588.1 526807.0 0
19256.9 524751.0 0
15076.1 526320.0 0
24719.7 524041.0 0
22874.6 528340.0 0
27816.5 527633.0 0
33948.5 525565.0 0
38743.4 528240.0 0
42699.9 526257.0 0
48148.5 526057.0 0
55469.1 526368.0 0
60344.3 524277.0 0
65099.1 526712.0 0
69236.1 524710.0 0
73096.7 524803.0 0
79341.5 525203.0 0
84775.6 523469.0 0
89312.5 527303.0 0
93761.5 523378.0 0
99055.3 527357.0 0
103203.0 524391.0 0
109010.0 523676.0 0
114149.0 523884.0 0
122064.0 523766.0 0
118098.0 527186.0 0
126702.0 522738.0 0
124356.0 527349.0 0
129643.0 527494.0 0
134561.0 525692.0 0
138420.0 525915.0 0
141774.0 526079.0 0
146724.0 526208.0 0
152070.0 527065.0 0
153808.0 522493.0 0
160071.0 525055.0 0
167676.0 522848.0 0
164006.0 525104.0 0
172537.0 524106.0 0
178088.0 525846.0 0
182696.0 522217.0 0
183523.0 526905.0 0
188441.0 524736.0 0
194108.0 525464.0 0
199260.0 525411.0 0
204368.0 525262.0 0
214216.0 524434.0 0
209698.0 525552.0 0
217560.0 526418.0 0
222221.0 524641.0 0
226355.0 525070.0 0
230563.0 526426.0 0
235825.0 524977.0 0
240129.0 522992.0 0
244051.0 523773.0 0
240174.0 526597.0 0
250338.0 526099.0 0
256439.0 525926.0 0
262618.0 526317.0 0
266749.0 523332.0 0
272560.0 525863.0 0
278352.0 525720.0 0
283193.0 522996.0 0
289412.0 525564.0 0
294338.0 526385.0 0
298762.0 524977.0 0
302976.0 524082.0 0
307132.0 525518.0 0
312225.0 526945.0 0
317237.0 525646.0 0
322053.0 523588.0 0
327288.0 524921.0 0
332678.0 525206.0 0
338626.0 526695.0 0
346122.0 523430.0 0
343940.0 526431.0 0
350222.0 525809.0 0
361305.0 522685.0 0
357797.0 526211.0 0
371925.0 523088.0 0
367440.0 526500.0 0
376438.0 525592.0 0
381237.0 525224.0 0
386199.0 525348.0 0
389879.0 522565.0 0
388627.0 527138.0 0
396881.0 522961.0 0
392878.0 526763.0 0
398872.0 527340.0 0
403737.0 524005.0 0
409643.0 522611.0 0
414157.0 525638.0 0
419209.0 525244.0 0
423890.0 525695.0 0
428819.0 525616.0 0
435189.0 526162.0 0
439015.0 527059.0 0
442453.0 525628.0 0
447070.0 525305.0 0
451799.0 524472.0 0
456428.0 524749.0 0
461190.0 525973.0 0
465520.0 527579.0 0
469093.0 525194.0 0
473998.0 525944.0 0
480352.0 526052.0 0
488405.0 526064.0 0
492370.0 524040.0 0
492557.0 527971.0 0
497019.0 524228.0 0
2704.58 530849.0 0
6832.68 532780.0 0
14054.1 529319.0 0
10475.6 530693.0 0
14311.1 533083.0 0
18262.7 530004.0 0
25237.6 531215.0 0
31205.9 529975.0 0
28259.4 531935.0 0
35111.1 530860.0 0
38631.3 532162.0 0
42598.3 531043.0 0
47153.8 531108.0 0
52034.9 530496.0 0
60571.7 529350.0 0
56733.4 531368.0 0
64827.4 531852.0 0
69585.2 529098.0 0
75336.8 528326.0 0
72837.2 531750.0 0
76574.0 532541.0 0
79276.8 529520.0 0
79742.6 532347.0 0
83695.9 528284.0 0
94404.7 528442.0 0
103672.0 529490.0 0
107889.0 528692.0 0
112492.0 528086.0 0
110174.0 531794.0 0
114651.0 531825.0 0
122299.0 530834.0 0
126361.0 531685.0 0
132907.0 531398.0 0
137661.0 530062.0 0
143476.0 531151.0 0
149497.0 530803.0 0
157030.0 529656.0 0
162990.0 529832.0 0
167105.0 527389.0 0
167739.0 531972.0 0
173007.0 529809.0 0
183194.0 531320.0 0
178670.0 531962.0 0
186972.0 530145.0 0
192108.0 530355.0 0
197083.0 529794.0 0
202167.0 530114.0 0
207653.0 530698.0 0
213800.0 528829.0 0
217072.0 531684.0 0
220576.0 529483.0 0
225471.0 528980.0 0
229460.0 531476.0 0
236481.0 530475.0 0
245135.0 529915.0 0
252343.0 531041.0 0
257058.0 531388.0 0
262042.0 531055.0 0
267369.0 528843.0 0
272424.0 531964.0 0
277603.0 530695.0 0
283016.0 528548.0 0
289242.0 530318.0 0
292879.0 529958.0 0
297338.0 530830.0 0
303185.0 529260.0 0
308680.0 531412.0 0
314726.0 532255.0 0
319817.0 529841.0 0
323963.0 528035.0 0
328429.0 530421.0 0
334317.0 530540.0 0
338241.0 532048.0 0
342924.0 531696.0 0
348453.0 531053.0 0
354440.0 529769.0 0
358703.0 530064.0 0
361992.0 531299.0 0
362750.0 527331.0 0
366409.0 531476.0 0
372172.0 528616.0 0
376231.0 529356.0 0
379889.0 529893.0 0
384310.0 529207.0 0
388780.0 530596.0 0
395928.0 531802.0 0
400299.0 531295.0 0
403295.0 529142.0 0
408764.0 528579.0 0
414833.0 531213.0 0
421051.0 530450.0 0
426284.0 529423.0 0
431865.0 529325.0 0
428867.0 532698.0 0
436861.0 530947.0 0
442263.0 530190.0 0
446733.0 529685.0 0
451367.0 528953.0 0
449083.0 531915.0 0
457060.0 530117.0 0
462459.0 530148.0 0
466133.0 531686.0 0
470316.0 529882.0 0
476174.0 531293.0 0
482468.0 531924.0 0
488035.0 530955.0 0
493420.0 531307.0 0
497159.0 529548.0 0
1744.3 534892.0 0
5754.64 536744.0 0
10462.2 535147.0 0
18296.3 534453.0 0
22273.1 533308.0 0
26690.5 536245.0 0
31478.5 533937.0 0
36012.8 535294.0 0
40560.1 535395.0 0
45349.1 535476.0 0
49259.2 533994.0 0
49871.7 537766.0 0
54407.0 535569.0 0
60239.6 534471.0 0
69206.3 534415.0 0
74019.1 537123.0 0
79254.8 536052.0 0
82808.9 533098.0 0
88254.3 533388.0 0
94150.8 533172.0 0
93089.0 536886.0 0
99410.1 532664.0 0
97556.1 536561.0 0
103510.0 533416.0 0
106987.0 534959.0 0
102246.0 537018.0 0
112451.0 535570.0 0
118826.0 532714.0 0
117751.0 537064.0 0
122579.0 534341.0 0
127000.0 536668.0 0
131833.0 535810.0 0
136817.0 535046.0 0
139972.0 533356.0 0
142181.0 536134.0 0
147296.0 535488.0 0
153113.0 533920.0 0
157052.0 536728.0 0
160782.0 534251.0 0
165004.0 535735.0 0
171649.0 535729.0 0
176586.0 536456.0 0
180689.0 536406.0 0
185424.0 535253.0 0
190202.0 534616.0 0
195319.0 535359.0 0
201300.0 535514.0 0
206561.0 535924.0 0
212567.0 534667.0 0
218414.0 535871.0 0
223156.0 533828.0 0
227717.0 536572.0 0
232773.0 534966.0 0
238111.0 536612.0 0
240616.0 532743.0 0
243727.0 536222.0 0
248560.0 534809.0 0
254891.0 535141.0 0
259668.0 535337.0 0
266392.0 535843.0 0
272326.0 536951.0 0
276193.0 535610.0 0
281253.0 534500.0 0
285711.0 532386.0 0
286768.0 536966.0 0
292380.0 534764.0 0
298308.0 536672.0 0
303014.0 534551.0 0
307115.0 536056.0 0
311952.0 537419.0 0
318344.0 536630.0 0
323596.0 532923.0 0
322982.0 537422.0 0
327154.0 535926.0 0
331777.0 534829.0 0
337077.0 535780.0 0
341497.0 536843.0 0
347165.0 536327.0 0
353019.0 535039.0 0
357960.0 533800.0 0
367122.0 535896.0 0
362467.0 535856.0 0
371311.0 533886.0 0
370641.0 537690.0 0
376713.0 533589.0 0
382691.0 534686.0 0
387581.0 537141.0 0
391542.0 534527.0 0
395011.0 536942.0 0
400180.0 536287.0 0
405083.0 533159.0 0
410001.0 534577.0 0
414499.0 536437.0 0
418387.0 534741.0 0
421560.0 537277.0 0
424754.0 534345.0 0
428490.0 537256.0 0
433222.0 534953.0 0
436704.0 537962.0 0
440586.0 535298.0 0
445803.0 533989.0 0
452495.0 533733.0 0
449323.0 537492.0 0
453508.0 537910.0 0
456951.0 535583.0 0
461066.0 534028.0 0
461975.0 538079.0 0
464941.0 535407.0 0
469785.0 535255.0 0
475021.0 536521.0 0
479133.0 535464.0 0
486032.0 535568.0 0
491691.0 535716.0 0
497386.0 534627.0 0
2090.7 538442.0 0
9407.62 539909.0 0
15102.1 538296.0 0
13199.6 543100.0 0
21248.4 538180.0 0
24681.6 542067.0 0
31933.1 538779.0 0
34182.1 542864.0 0
37292.1 539731.0 0
41935.2 539184.0 0
45925.8 539981.0 0
49461.1 542387.0 0
53548.9 540514.0 0
58215.1 539253.0 0
63972.4 538072.0 0
62010.8 542285.0 0
68440.5 539103.0 0
71882.4 542424.0 0
78483.3 542177.0 0
83943.6 537978.0 0
89561.6 539811.0 0
95379.4 540188.0 0
100291.0 541670.0 0
104906.0 541820.0 0
108934.0 539575.0 0
114067.0 540289.0 0
122304.0 538766.0 0
118540.0 541290.0 0
126334.0 541599.0 0
130691.0 540208.0 0
134904.0 538968.0 0
139410.0 539995.0 0
144629.0 540477.0 0
152135.0 540070.0 0
157485.0 542329.0 0
161549.0 539424.0 0
167720.0 539728.0 0
174290.0 541050.0 0
179596.0 540560.0 0
184425.0 540575.0 0
189306.0 538877.0 0
198689.0 539643.0 0
193977.0 541301.0 0
202563.0 541621.0 0
207311.0 541052.0 0
212753.0 541057.0 0
217648.0 540334.0 0
222264.0 539163.0 0
226606.0 541248.0 0
231542.0 540390.0 0
236422.0 541103.0 0
241355.0 541241.0 0
247235.0 540270.0 0
251614.0 538158.0 0
251935.0 542154.0 0
256695.0 540372.0 0
261897.0 540229.0 0
272317.0 541696.0 0
277504.0 540693.0 0
282351.0 539980.0 0
287391.0 542219.0 0
293371.0 541439.0 0
298828.0 541563.0 0
303222.0 539602.0 0
308078.0 540653.0 0
315520.0 541634.0 0
320580.0 541271.0 0
326258.0 541539.0 0
333298.0 540760.0 0
339255.0 541216.0 0
343567.0 540675.0 0
351816.0 540521.0 0
347446.0 541099.0 0
357545.0 539153.0 0
362769.0 540897.0 0
367936.0 540621.0 0
373650.0 539335.0 0
378303.0 538422.0 0
382962.0 540833.0 0
391630.0 539441.0 0
387858.0 542497.0 0
396477.0 541063.0 0
402226.0 542520.0 0
406086.0 537905.0 0
406803.0 541534.0 0
410821.0 539150.0 0
417750.0 538304.0 0
414748.0 541285.0 0
419781.0 542154.0 0
424972.0 540851.0 0
431876.0 538930.0 0
434460.0 541923.0 0
440798.0 541740.0 0
445069.0 538300.0 0
447642.0 542736.0 0
453139.0 541826.0 0
457062.0 539741.0 0
460646.0 541785.0 0
466330.0 539685.0 0
471972.0 540697.0 0
477587.0 540072.0 0
482151.0 538714.0 0
487452.0 540577.0 0
492867.0 541246.0 0
497598.0 539406.0 0
4195.21 543243.0 0
9365.16 544618.0 0
14302.9 548035.0 0
18657.2 543579.0 0
24783.4 547486.0 0
29542.8 543578.0 0
35879.3 547272.0 0
40388.4 543737.0 0
45354.2 544253.0 0
44539.2 548090.0 0
48910.4 547617.0 0
53025.8 544989.0 0
57803.1 544461.0 0
63303.5 546744.0 0
66449.3 543108.0 0
69304.3 546222.0 0
79538.0 547799.0 0
84322.1 542860.0 0
83800.0 547223.0 0
87852.3 544494.0 0
92650.3 545127.0 0
98129.7 546599.0 0
102604.0 545554.0 0
107633.0 546317.0 0
113534.0 545596.0 0
121684.0 544619.0 0
117833.0 546577.0 0
126053.0 547452.0 0
129755.0 544501.0 0
135452.0 544614.0 0
141659.0 544999.0 0
147765.0 545860.0 0
152970.0 545446.0 0
156878.0 546774.0 0
162317.0 545481.0 0
168417.0 545255.0 0
173578.0 546322.0 0
178596.0 545535.0 0
183400.0 546360.0 0
188734.0 544787.0 0
193868.0 546207.0 0
198523.0 544665.0 0
203787.0 545658.0 0
207626.0 545451.0 0
211549.0 545888.0 0
216575.0 544930.0 0
223189.0 545538.0 0
229056.0 545300.0 0
233496.0 544707.0 0
238097.0 545807.0 0
243348.0 545979.0 0
248728.0 545691.0 0
254497.0 545951.0 0
259314.0 545253.0 0
262888.0 547078.0 0
266081.0 543148.0 0
270226.0 545796.0 0
276256.0 545182.0 0
282097.0 546106.0 0
287460.0 546950.0 0
291776.0 547059.0 0
297398.0 545863.0 0
305330.0 545091.0 0
309498.0 546771.0 0
311344.0 542672.0 0
313403.0 546365.0 0
318470.0 545030.0 0
322500.0 546032.0 0
328268.0 546569.0 0
332684.0 546811.0 0
336721.0 545472.0 0
340799.0 545196.0 0
345834.0 545439.0 0
357019.0 544424.0 0
352020.0 546592.0 0
361622.0 545722.0 0
367235.0 546421.0 0
372133.0 543849.0 0
377801.0 544071.0 0
383664.0 546952.0 0
392502.0 544477.0 0
388727.0 546869.0 0
397697.0 546680.0 0
406323.0 545831.0 0
410249.0 543442.0 0
410563.0 547593.0 0
414269.0 546008.0 0
419103.0 547492.0 0
425545.0 547059.0 0
429699.0 542938.0 0
431600.0 546639.0 0
436687.0 547363.0 0
442568.0 547436.0 0
452153.0 546468.0 0
456977.0 543659.0 0
456788.0 547485.0 0
460397.0 545737.0 0
464162.0 544012.0 0
468304.0 543859.0 0
466786.0 548015.0 0
472225.0 546300.0 0
475852.0 543600.0 0
476908.0 547497.0 0
480490.0 543884.0 0
485616.0 545977.0 0
490145.0 544497.0 0
496838.0 544731.0 0
3160.14 549491.0 0
8522.55 548659.0 0
19324.4 548751.0 0
17092.0 552631.0 0
22104.2 552252.0 0
30570.7 548317.0 0
28380.2 552732.0 0
33482.0 551963.0 0
40829.6 548390.0 0
38404.4 552177.0 0
43334.3 551919.0 0
47604.9 551957.0 0
54357.5 549087.0 0
51940.5 552968.0 0
59049.8 549491.0 0
56209.9 552852.0 0
63423.0 552277.0 0
68096.2 550307.0 0
74241.2 547926.0 0
76385.5 552906.0 0
80884.1 552059.0 0
85353.0 551299.0 0
88159.0 548292.0 0
92558.3 551447.0 0
98538.0 551931.0 0
102958.0 549706.0 0
107122.0 551961.0 0
111524.0 550224.0 0
115865.0 549787.0 0
121078.0 550465.0 0
126121.0 552428.0 0
131370.0 550294.0 0
137612.0 550610.0 0
143073.0 550617.0 0
153002.0 549365.0 0
149006.0 551555.0 0
156949.0 551436.0 0
161533.0 552080.0 0
165771.0 549856.0 0
170699.0 550176.0 0
176145.0 551033.0 0
180890.0 549699.0 0
186086.0 551202.0 0
191479.0 549692.0 0
196695.0 550344.0 0
201182.0 548288.0 0
208598.0 550389.0 0
219019.0 548876.0 0
214422.0 549716.0 0
222500.0 551298.0 0
227120.0 550065.0 0
232919.0 549811.0 0
241029.0 550221.0 0
246649.0 551711.0 0
252807.0 551262.0 0
257535.0 549738.0 0
262256.0 552095.0 0
267049.0 548849.0 0
272357.0 549761.0 0
277512.0 549813.0 0
288936.0 551643.0 0
295437.0 551133.0 0
301390.0 549731.0 0
307271.0 550772.0 0
312738.0 551455.0 0
317615.0 549497.0 0
325840.0 550740.0 0
321476.0 551871.0 0
331233.0 551664.0 0
336265.0 549956.0 0
342122.0 550544.0 0
347933.0 550648.0 0
352534.0 552295.0 0
357609.0 550075.0 0
363249.0 550515.0 0
372326.0 549033.0 0
367937.0 551850.0 0
377643.0 549990.0 0
387298.0 551811.0 0
392802.0 550119.0 0
402970.0 550696.0 0
407774.0 549085.0 0
408982.0 552220.0 0
413482.0 550967.0 0
417855.0 551986.0 0
422013.0 551790.0 0
432120.0 550851.0 0
435944.0 552155.0 0
442787.0 552756.0 0
447390.0 548250.0 0
446805.0 551725.0 0
451012.0 551325.0 0
455284.0 551068.0 0
461285.0 551584.0 0
467830.0 552979.0 0
473665.0 551869.0 0
478848.0 552847.0 0
481295.0 549074.0 0
485919.0 552711.0 0
490080.0 548679.0 0
493495.0 549374.0 0
497165.0 550367.0 0
2169.03 554529.0 0
6224.46 553633.0 0
6067.43 557435.0 0
11418.2 553368.0 0
19895.3 556536.0 0
15495.8 556810.0 0
24798.0 556450.0 0
32139.7 557001.0 0
37601.7 557096.0 0
42647.2 556756.0 0
48084.3 556681.0 0
53504.0 557035.0 0
58558.5 556382.0 0
62827.0 556514.0 0
67584.7 556205.0 0
71984.2 553088.0 0
72976.9 557275.0 0
78347.0 555609.0 0
81876.2 557034.0 0
87380.1 555914.0 0
93323.9 557958.0 0
98815.0 556952.0 0
102943.0 554468.0 0
106353.0 557908.0 0
111258.0 555542.0 0
116751.0 554374.0 0
121520.0 557057.0 0
126128.0 556408.0 0
130565.0 557032.0 0
134273.0 554568.0 0
139106.0 556859.0 0
145869.0 556093.0 0
152545.0 556187.0 0
158505.0 555905.0 0
165819.0 555069.0 0
171325.0 555382.0 0
177065.0 557256.0 0
182931.0 556419.0 0
188236.0 556988.0 0
192508.0 554133.0 0
197281.0 557029.0 0
202577.0 553137.0 0
207004.0 557582.0 0
212593.0 555412.0 0
218138.0 553516.0 0
222792.0 556197.0 0
228446.0 555491.0 0
233485.0 555066.0 0
237288.0 553089.0 0
237309.0 557204.0 0
241761.0 555508.0 0
252680.0 556762.0 0
257119.0 554276.0 0
263129.0 557700.0 0
268528.0 554806.0 0
275237.0 553696.0 0
278204.0 556585.0 0
282579.0 553145.0 0
287465.0 556376.0 0
292506.0 556547.0 0
298997.0 556570.0 0
303721.0 554099.0 0
307149.0 556573.0 0
311799.0 556299.0 0
316805.0 554262.0 0
321358.0 556279.0 0
327436.0 556755.0 0
333872.0 556992.0 0
338046.0 554234.0 0
342587.0 555985.0 0
347181.0 555558.0 0
351983.0 557233.0 0
356836.0 555782.0 0
361757.0 555106.0 0
366020.0 555777.0 0
370419.0 556204.0 0
375985.0 555536.0 0
381838.0 553796.0 0
386217.0 556786.0 0
391503.0 556045.0 0
397352.0 553154.0 0
396175.0 557266.0 0
401232.0 557425.0 0
406472.0 555602.0 0
411581.0 555859.0 0
416840.0 556430.0 0
422500.0 556969.0 0
427241.0 553326.0 0
432331.0 556514.0 0
438079.0 555891.0 0
442825.0 558225.0 0
448078.0 555911.0 0
454857.0 556246.0 0
460585.0 557871.0 0
465276.0 557240.0 0
471097.0 558095.0 0
476655.0 556481.0 0
481374.0 556403.0 0
492400.0 553729.0 0
498376.0 554320.0 0
496486.0 558151.0 0
2125.23 558648.0 0
5211.25 561989.0 0
10863.7 559974.0 0
17711.0 560393.0 0
22705.1 561559.0 0
27953.0 560215.0 0
32621.7 562596.0 0
38366.9 562328.0 0
43462.2 561518.0 0
48148.9 561841.0 0
52194.8 560664.0 0
56458.3 560872.0 0
61521.7 560556.0 0
66196.1 561158.0 0
71184.9 561811.0 0
77171.2 559433.0 0
82500.0 561012.0 0
88139.7 561159.0 0
97443.3 560977.0 0
102196.0 560274.0 0
105908.0 561910.0 0
110286.0 561255.0 0
116392.0 560084.0 0
121998.0 562320.0 0
126404.0 560534.0 0
131124.0 562455.0 0
136283.0 562254.0 0
143322.0 560606.0 0
148839.0 561643.0 0
154178.0 561682.0 0
162232.0 558385.0 0
158600.0 560704.0 0
166284.0 560398.0 0
171922.0 561239.0 0
180977.0 560617.0 0
185219.0 561171.0 0
192462.0 560442.0 0
196625.0 562660.0 0
202256.0 558537.0 0
207261.0 562498.0 0
211733.0 561110.0 0
217309.0 559681.0 0
223116.0 561923.0 0
228512.0 560938.0 0
233610.0 559880.0 0
240377.0 561161.0 0
247094.0 558118.0 0
253412.0 561785.0 0
257916.0 559334.0 0
260908.0 562124.0 0
269620.0 560497.0 0
273611.0 557954.0 0
277861.0 562069.0 0
283709.0 559508.0 0
289091.0 561236.0 0
295429.0 561598.0 0
300662.0 562260.0 0
303725.0 559056.0 0
305149.0 562523.0 0
308082.0 560514.0 0
311850.0 560704.0 0
316476.0 558810.0 0
322397.0 560979.0 0
326775.0 562719.0 0
331627.0 561098.0 0
338968.0 558747.0 0
342657.0 561986.0 0
347170.0 560459.0 0
351760.0 562386.0 0
355672.0 560090.0 0
360304.0 560011.0 0
366720.0 560899.0 0
373177.0 561180.0 0
379513.0 560743.0 0
382895.0 557928.0 0
388173.0 561172.0 0
397266.0 560828.0 0
393061.0 562193.0 0
406602.0 561018.0 0
413314.0 561726.0 0
421599.0 561458.0 0
418482.0 562902.0 0
427420.0 558465.0 0
425577.0 562494.0 0
430394.0 561721.0 0
436180.0 561745.0 0
441954.0 562983.0 0
447091.0 561880.0 0
451165.0 559702.0 0
452653.0 563021.0 0
457343.0 561921.0 0
461890.0 561758.0 0
465990.0 561990.0 0
478953.0 559301.0 0
475885.0 560812.0 0
481371.0 562413.0 0
486194.0 559299.0 0
491509.0 558891.0 0
490127.0 563264.0 0
2625.74 566395.0 0
8492.36 564440.0 0
6898.57 567319.0 0
15008.1 563328.0 0
11839.9 566570.0 0
16535.7 567143.0 0
20748.7 566225.0 0
27474.9 565852.0 0
34509.7 566781.0 0
38625.6 567425.0 0
42349.5 565584.0 0
46304.3 565830.0 0
50959.8 565939.0 0
55758.5 565510.0 0
61173.9 566427.0 0
67217.6 565908.0 0
73241.6 566529.0 0
78763.6 564990.0 0
83247.2 564954.0 0
87570.3 565925.0 0
92358.7 563737.0 0
92209.0 568317.0 0
97778.5 564948.0 0
102084.0 564810.0 0
107500.0 565781.0 0
112858.0 565525.0 0
118045.0 565942.0 0
127011.0 564959.0 0
123160.0 566903.0 0
135896.0 566789.0 0
141081.0 565359.0 0
146890.0 567242.0 0
152351.0 566283.0 0
162389.0 563072.0 0
158320.0 566691.0 0
167415.0 565257.0 0
163463.0 567012.0 0
172689.0 567779.0 0
177343.0 563174.0 0
177827.0 567507.0 0
180903.0 565737.0 0
185855.0 566883.0 0
192407.0 566455.0 0
197781.0 567358.0 0
201611.0 563657.0 0
205975.0 566425.0 0
210571.0 566140.0 0
216097.0 565702.0 0
221349.0 567153.0 0
226807.0 567008.0 0
231620.0 564641.0 0
236375.0 563079.0 0
235572.0 566369.0 0
244565.0 564298.0 0
240290.0 566867.0 0
248929.0 563134.0 0
252257.0 566705.0 0
257679.0 564900.0 0
265116.0 563132.0 0
261833.0 566025.0 0
270412.0 565611.0 0
275353.0 567283.0 0
279861.0 567364.0 0
282607.0 564423.0 0
286550.0 565550.0 0
291958.0 566437.0 0
298191.0 567286.0 0
303358.0 566068.0 0
311366.0 565922.0 0
317435.0 564680.0 0
322886.0 565967.0 0
331119.0 565645.0 0
337293.0 564496.0 0
343268.0 567592.0 0
347778.0 564848.0 0
351495.0 567468.0 0
357214.0 564670.0 0
362466.0 564372.0 0
366248.0 566176.0 0
371039.0 566774.0 0
376726.0 566165.0 0
381506.0 566793.0 0
384114.0 563602.0 0
388146.0 566378.0 0
392486.0 566945.0 0
396414.0 565757.0 0
401190.0 563557.0 0
407918.0 566968.0 0
412598.0 567451.0 0
416840.0 566793.0 0
421913.0 565811.0 0
427243.0 567406.0 0
432125.0 565863.0 0
436559.0 567695.0 0
441839.0 568091.0 0
449883.0 566369.0 0
455354.0 567560.0 0
461116.0 566091.0 0
466402.0 567360.0 0
470727.0 564141.0 0
475975.0 565572.0 0
481113.0 567723.0 0
485665.0 564751.0 0
493443.0 565955.0 0
497262.0 563551.0 0
497974.0 568136.0 0
3783.44 572331.0 0
9254.54 570524.0 0
13944.7 571082.0 0
19183.5 571202.0 0
23213.3 569285.0 0
26990.8 571943.0 0
32305.7 570761.0 0
37227.4 571808.0 0
42102.5 571054.0 0
47417.3 570575.0 0
52520.4 570507.0 0
56989.1 570036.0 0
60871.1 572489.0 0
65007.5 570488.0 0
70221.6 570659.0 0
76590.9 571267.0 0
83085.0 569508.0 0
88605.1 570897.0 0
95971.5 568470.0 0
99772.7 570772.0 0
103871.0 568600.0 0
106070.0 571772.0 0
110834.0 570444.0 0
117202.0 572273.0 0
121890.0 570524.0 0
126005.0 570977.0 0
130949.0 568318.0 0
137189.0 571314.0 0
142794.0 571390.0 0
147106.0 571384.0 0
152739.0 571511.0 0
157359.0 572001.0 0
161928.0 571220.0 0
167140.0 570449.0 0
177441.0 571491.0 0
181249.0 569557.0 0
189457.0 571634.0 0
195407.0 571642.0 0
201416.0 571325.0 0
207662.0 571204.0 0
213184.0 570528.0 0
218677.0 572192.0 0
223757.0 570949.0 0
231914.0 569949.0 0
236823.0 570066.0 0
241123.0 572575.0 0
246174.0 569326.0 0
250869.0 571151.0 0
256500.0 571266.0 0
262672.0 570070.0 0
267819.0 570309.0 0
273152.0 572419.0 0
278673.0 571691.0 0
283615.0 568153.0 0
282887.0 572448.0 0
287520.0 571088.0 0
293430.0 571757.0 0
298357.0 572122.0 0
302515.0 570364.0 0
306777.0 568909.0 0
306156.0 572975.0 0
312853.0 570648.0 0
317736.0 570802.0 0
322670.0 571472.0 0
327038.0 569599.0 0
332631.0 570705.0 0
338036.0 570962.0 0
343312.0 572711.0 0
346967.0 571394.0 0
351467.0 572622.0 0
355839.0 569864.0 0
362186.0 570428.0 0
368538.0 571545.0 0
374141.0 571179.0 0
379587.0 571195.0 0
384502.0 569510.0 0
388548.0 571046.0 0
392733.0 570760.0 0
402693.0 568696.0 0
398156.0 569978.0 0
401175.0 573200.0 0
406261.0 572054.0 0
411131.0 571506.0 0
416694.0 572435.0 0
422442.0 571164.0 0
427674.0 573073.0 0
433155.0 571799.0 0
438572.0 572385.0 0
443584.0 573060.0 0
446577.0 569464.0 0
453160.0 572738.0 0
458530.0 571575.0 0
463293.0 572045.0 0
467954.0 571621.0 0
471405.0 569171.0 0
476449.0 571458.0 0
482447.0 572888.0 0
486023.0 569378.0 0
491433.0 570516.0 0
496937.0 572659.0 0
1389.63 576592.0 0
6469.59 577337.0 0
11359.4 575814.0 0
17098.2 576142.0 0
22267.4 575366.0 0
28322.7 577764.0 0
34105.1 575901.0 0
39187.2 576005.0 0
43633.4 575803.0 0
48152.6 575699.0 0
52944.6 575193.0 0
57500.0 575948.0 0
62768.8 576491.0 0
67229.7 575156.0 0
72393.6 575184.0 0
76198.5 577219.0 0
81784.8 576113.0 0
87762.1 575480.0 0
94059.3 573254.0 0
98509.6 574485.0 0
102358.0 575258.0 0
106944.0 575531.0 0
112282.0 576331.0 0
117411.0 578141.0 0
122875.0 575148.0 0
132433.0 573742.0 0
127808.0 575413.0 0
131128.0 577679.0 0
134636.0 575546.0 0
140038.0 576979.0 0
148775.0 575333.0 0
154524.0 575527.0 0
162960.0 575643.0 0
158554.0 576412.0 0
167368.0 575584.0 0
173150.0 573752.0 0
171138.0 577932.0 0
177558.0 576183.0 0
181617.0 577072.0 0
184167.0 573365.0 0
192376.0 576120.0 0
197384.0 576263.0 0
202863.0 577723.0 0
208798.0 576779.0 0
214087.0 575947.0 0
218897.0 577563.0 0
223910.0 577060.0 0
227619.0 573209.0 0
228416.0 577431.0 0
231997.0 575443.0 0
236295.0 574080.0 0
240947.0 576691.0 0
246163.0 575552.0 0
251976.0 576026.0 0
256895.0 577166.0 0
260739.0 575254.0 0
265876.0 575344.0 0
272955.0 577374.0 0
276689.0 576407.0 0
280861.0 575604.0 0
285629.0 576719.0 0
290832.0 575706.0 0
296144.0 576298.0 0
301783.0 575271.0 0
310532.0 574134.0 0
306515.0 577032.0 0
315733.0 576045.0 0
320952.0 575733.0 0
325963.0 574749.0 0
329267.0 573166.0 0
331889.0 575146.0 0
336639.0 576844.0 0
346448.0 575570.0 0
341990.0 576696.0 0
350456.0 577410.0 0
357460.0 574252.0 0
361543.0 576961.0 0
366702.0 576272.0 0
372163.0 576313.0 0
378182.0 577027.0 0
384720.0 575242.0 0
390771.0 574874.0 0
396046.0 574555.0 0
400831.0 577398.0 0
404462.0 575941.0 0
408959.0 576140.0 0
413839.0 577243.0 0
418389.0 577317.0 0
423570.0 576074.0 0
427503.0 577958.0 0
431311.0 576313.0 0
435693.0 576354.0 0
440575.0 577176.0 0
448386.0 573603.0 0
445637.0 577436.0 0
451362.0 577348.0 0
457265.0 576180.0 0
462372.0 577208.0 0
467375.0 576090.0 0
471185.0 573467.0 0
473579.0 576815.0 0
478873.0 576684.0 0
483941.0 577660.0 0
487149.0 573894.0 0
488291.0 577839.0 0
492740.0 576297.0 0
498192.0 576929.0 0
2706.25 580441.0 0
8521.64 581856.0 0
14099.4 580937.0 0
19128.1 580667.0 0
23232.5 579491.0 0
27706.9 583012.0 0
32866.5 580624.0 0
37292.1 581008.0 0
40795.8 580575.0 0
45087.7 581123.0 0
50320.7 580536.0 0
55888.1 581002.0 0
60740.1 580386.0 0
65856.5 580359.0 0
71958.8 580611.0 0
78628.9 581239.0 0
86385.5 579677.0 0
82366.3 581613.0 0
91517.5 578930.0 0
97757.2 579062.0 0
103421.0 581944.0 0
108200.0 579637.0 0
113759.0 581628.0 0
121601.0 579400.0 0
118278.0 581631.0 0
126339.0 580376.0 0
131390.0 581761.0 0
135635.0 580188.0 0
140104.0 583151.0 0
145387.0 580330.0 0
152611.0 579223.0 0
157083.0 580930.0 0
161362.0 580094.0 0
166820.0 581580.0 0
172806.0 582063.0 0
177764.0 581085.0 0
182156.0 581082.0 0
186954.0 578856.0 0
192327.0 581275.0 0
198288.0 580440.0 0
206598.0 582378.0 0
210725.0 580798.0 0
215518.0 581529.0 0
221121.0 581729.0 0
226746.0 582885.0 0
231260.0 580003.0 0
236845.0 579542.0 0
242926.0 580054.0 0
248553.0 580950.0 0
254310.0 581223.0 0
262264.0 580343.0 0
269076.0 581221.0 0
275410.0 580866.0 0
279856.0 579661.0 0
283847.0 581878.0 0
289465.0 580749.0 0
294257.0 580832.0 0
298687.0 581621.0 0
302725.0 579780.0 0
306101.0 580969.0 0
311348.0 579872.0 0
317514.0 580307.0 0
322278.0 581008.0 0
327181.0 579408.0 0
330437.0 583123.0 0
332171.0 579061.0 0
335906.0 582846.0 0
340561.0 580203.0 0
344244.0 580150.0 0
348003.0 580837.0 0
355862.0 579987.0 0
364851.0 580810.0 0
369572.0 580926.0 0
374637.0 580140.0 0
382105.0 580161.0 0
387020.0 580634.0 0
392000.0 579960.0 0
397143.0 579650.0 0
401204.0 581478.0 0
405860.0 580337.0 0
410915.0 581161.0 0
416418.0 581706.0 0
421594.0 579927.0 0
425761.0 582225.0 0
431390.0 581429.0 0
437098.0 581105.0 0
442606.0 582409.0 0
448476.0 581828.0 0
454768.0 580873.0 0
463275.0 581770.0 0
459422.0 580724.0 0
467369.0 581126.0 0
471824.0 581463.0 0
475969.0 580501.0 0
480217.0 581326.0 0
486571.0 581415.0 0
490883.0 580973.0 0
495910.0 580645.0 0
2384.65 585478.0 0
6757.86 586393.0 0
12094.8 586707.0 0
17323.1 585240.0 0
22584.7 584331.0 0
27472.2 587329.0 0
31873.4 585197.0 0
36890.8 585952.0 0
42419.7 585745.0 0
47919.8 585393.0 0
53071.8 586070.0 0
58087.0 585417.0 0
63017.8 585018.0 0
67217.3 584576.0 0
69756.1 588464.0 0
74646.9 585765.0 0
79750.0 587083.0 0
85993.7 585581.0 0
94087.3 584257.0 0
99245.8 585124.0 0
105297.0 586012.0 0
108745.0 584283.0 0
113096.0 586664.0 0
117355.0 584634.0 0
122078.0 583916.0 0
126694.0 585776.0 0
130930.0 585937.0 0
135035.0 584750.0 0
143014.0 587775.0 0
148105.0 585542.0 0
153444.0 584302.0 0
158381.0 585014.0 0
162500.0 586169.0 0
166108.0 587699.0 0
170498.0 585900.0 0
176017.0 585626.0 0
180830.0 585571.0 0
184952.0 583884.0 0
184453.0 587768.0 0
189795.0 586793.0 0
196377.0 585190.0 0
201661.0 583385.0 0
205725.0 587596.0 0
211113.0 585425.0 0
216864.0 587153.0 0
222091.0 586701.0 0
227546.0 587576.0 0
232540.0 584991.0 0
237457.0 584873.0 0
242246.0 585589.0 0
247968.0 586926.0 0
253540.0 586512.0 0
258458.0 584647.0 0
263025.0 586167.0 0
267609.0 587392.0 0
273615.0 586265.0 0
278857.0 584387.0 0
282448.0 585941.0 0
286907.0 586966.0 0
292816.0 585598.0 0
298589.0 587418.0 0
303143.0 584192.0 0
308065.0 584550.0 0
313114.0 586224.0 0
318646.0 585017.0 0
325608.0 585502.0 0
321788.0 588387.0 0
337254.0 587492.0 0
342065.0 585070.0 0
351106.0 584681.0 0
347025.0 587234.0 0
359384.0 585132.0 0
364421.0 585654.0 0
368804.0 585467.0 0
373379.0 584298.0 0
377304.0 587907.0 0
378980.0 583798.0 0
384003.0 583645.0 0
387436.0 585987.0 0
391701.0 585056.0 0
397427.0 585111.0 0
408015.0 584630.0 0
403353.0 586640.0 0
412322.0 585681.0 0
416454.0 586377.0 0
421004.0 584876.0 0
428738.0 586715.0 0
434811.0 585864.0 0
439819.0 587414.0 0
448047.0 586339.0 0
444596.0 586860.0 0
452584.0 585462.0 0
457471.0 584797.0 0
462329.0 586687.0 0
467520.0 585782.0 0
471848.0 585604.0 0
477049.0 585741.0 0
483387.0 585494.0 0
488854.0 584964.0 0
493239.0 584673.0 0
497710.0 585110.0 0
2460.36 590291.0 0
7907.12 591288.0 0
13775.5 591782.0 0
16993.0 589231.0 0
23303.2 589660.0 0
29033.6 591723.0 0
33825.7 590080.0 0
38855.1 590388.0 0
43161.6 591083.0 0
47416.4 590178.0 0
52329.5 591529.0 0
61128.8 589226.0 0
56970.5 589824.0 0
65020.8 590496.0 0
73932.2 591016.0 0
77500.0 590989.0 0
82753.9 591059.0 0
91194.1 588977.0 0
87137.4 591289.0 0
96677.9 589703.0 0
102402.0 589054.0 0
108304.0 589889.0 0
117209.0 589314.0 0
113448.0 592294.0 0
122645.0 589692.0 0
128275.0 590452.0 0
133655.0 589808.0 0
138791.0 590113.0 0
142522.0 593101.0 0
147050.0 590711.0 0
152802.0 590243.0 0
158607.0 589497.0 0
163055.0 591584.0 0
166721.0 592200.0 0
170456.0 590681.0 0
175743.0 590580.0 0
181164.0 591127.0 0
186360.0 591654.0 0
191274.0 592957.0 0
196348.0 591046.0 0
200764.0 588561.0 0
200648.0 592938.0 0
205062.0 592558.0 0
210114.0 591096.0 0
215157.0 591732.0 0
219843.0 591396.0 0
225001.0 591041.0 0
230920.0 590943.0 0
236983.0 589769.0 0
241989.0 592419.0 0
247732.0 592993.0 0
253466.0 591877.0 0
258351.0 589836.0 0
263577.0 591163.0 0
269092.0 592598.0 0
274204.0 591611.0 0
279733.0 590065.0 0
285289.0 592419.0 0
289718.0 590968.0 0
293806.0 590780.0 0
297957.0 592331.0 0
303266.0 591423.0 0
308634.0 589443.0 0
313187.0 591682.0 0
317756.0 590018.0 0
321136.0 591574.0 0
325584.0 591292.0 0
330632.0 588483.0 0
334859.0 589897.0 0
339127.0 591731.0 0
344443.0 590876.0 0
350573.0 590632.0 0
356702.0 590035.0 0
361712.0 589199.0 0
366739.0 591059.0 0
373028.0 590029.0 0
377996.0 591659.0 0
382842.0 588905.0 0
388534.0 590585.0 0
393729.0 589611.0 0
399163.0 590888.0 0
404460.0 592060.0 0
408894.0 589319.0 0
413978.0 590377.0 0
419096.0 590027.0 0
423773.0 589062.0 0
427388.0 591769.0 0
432679.0 590789.0 0
436015.0 589393.0 0
438341.0 593306.0 0
443496.0 590888.0 0
447336.0 589622.0 0
451918.0 591105.0 0
457418.0 589696.0 0
462183.0 592631.0 0
467668.0 590872.0 0
471906.0 589333.0 0
475729.0 591491.0 0
480498.0 590079.0 0
485733.0 591067.0 0
491271.0 589259.0 0
497330.0 589948.0 0
2996.61 595700.0 0
8423.65 597209.0 0
13884.6 596725.0 0
19434.1 594017.0 0
25050.4 594051.0 0
23336.2 598282.0 0
29742.0 596401.0 0
34978.2 595207.0 0
40785.8 594795.0 0
38250.0 598288.0 0
43708.5 597259.0 0
46310.4 594799.0 0
50674.0 596490.0 0
55298.2 596040.0 0
60054.4 594137.0 0
65734.0 595317.0 0
71952.2 595844.0 0
81095.3 594618.0 0
77460.2 595464.0 0
85421.9 595941.0 0
91107.5 594428.0 0
97761.4 595243.0 0
103301.0 594971.0 0
109370.0 596182.0 0
115292.0 596050.0 0
117674.0 593721.0 0
121381.0 594978.0 0
126600.0 595716.0 0
132412.0 597036.0 0
136494.0 593905.0 0
139646.0 597562.0 0
147141.0 596262.0 0
154239.0 596676.0 0
159744.0 595262.0 0
164275.0 595974.0 0
168556.0 595187.0 0
173333.0 595150.0 0
178190.0 595936.0 0
182310.0 595678.0 0
186850.0 596858.0 0
192120.0 598173.0 0
197453.0 596133.0 0
202873.0 596774.0 0
207648.0 595858.0 0
212858.0 595723.0 0
217489.0 595391.0 0
221880.0 596231.0 0
227068.0 596274.0 0
232713.0 596605.0 0
237662.0 595125.0 0
244495.0 597121.0 0
240783.0 597641.0 0
251696.0 597121.0 0
259788.0 594010.0 0
256265.0 595831.0 0
263001.0 595782.0 0
267634.0 597797.0 0
272804.0 595833.0 0
277532.0 595687.0 0
282443.0 596009.0 0
289503.0 595256.0 0
294678.0 595700.0 0
299845.0 595967.0 0
304673.0 597280.0 0
307666.0 593713.0 0
311252.0 596646.0 0
316879.0 595638.0 0
322070.0 595137.0 0
326778.0 596694.0 0
332755.0 594685.0 0
337980.0 596535.0 0
342429.0 596475.0 0
347298.0 595090.0 0
351845.0 595582.0 0
356792.0 596056.0 0
362059.0 594702.0 0
366854.0 596486.0 0
371363.0 595494.0 0
376691.0 596245.0 0
381793.0 594916.0 0
386931.0 595340.0 0
392261.0 595024.0 0
402490.0 595495.0 0
398108.0 596871.0 0
406419.0 597081.0 0
410691.0 594066.0 0
415558.0 595358.0 0
421325.0 595287.0 0
427066.0 597041.0 0
432924.0 596624.0 0
443323.0 597257.0 0
447182.0 593647.0 0
450979.0 596652.0 0
456647.0 595509.0 0
461407.0 597531.0 0
466288.0 596987.0 0
471474.0 594724.0 0
476838.0 597605.0 0
481711.0 594555.0 0
485091.0 598237.0 0
490330.0 595200.0 0
496748.0 595740.0 0
2069.65 601304.0 0
5842.07 600772.0 0
11542.2 601351.0 0
18455.0 600146.0 0
28988.1 601052.0 0
32937.7 599222.0 0
32968.0 603369.0 0
37427.2 602430.0 0
42231.8 600432.0 0
46674.7 600977.0 0
50510.1 601437.0 0
55676.6 600857.0 0
62009.8 600481.0 0
67856.0 599879.0 0
71698.4 601196.0 0
75963.2 601496.0 0
80733.8 599135.0 0
85749.6 601412.0 0
94119.4 599349.0 0
99732.4 600341.0 0
104874.0 599947.0 0
109410.0 602025.0 0
113756.0 599712.0 0
118490.0 598905.0 0
123372.0 600065.0 0
128082.0 600759.0 0
132022.0 601808.0 0
136026.0 601015.0 0
143662.0 600042.0 0
147688.0 601642.0 0
152515.0 602253.0 0
157814.0 601659.0 0
162492.0 599970.0 0
167886.0 600550.0 0
172974.0 599668.0 0
177376.0 600781.0 0
182664.0 600547.0 0
188633.0 602300.0 0
193187.0 602422.0 0
196124.0 600231.0 0
200632.0 601395.0 0
206069.0 600854.0 0
212112.0 601444.0 0
217595.0 599944.0 0
222121.0 601238.0 0
226745.0 601456.0 0
231552.0 601756.0 0
236782.0 600463.0 0
241744.0 601291.0 0
247493.0 602065.0 0
253586.0 601869.0 0
258125.0 599975.0 0
263098.0 600122.0 0
267462.0 603121.0 0
272047.0 600412.0 0
280107.0 600464.0 0
275930.0 603043.0 0
284384.0 600197.0 0
288417.0 600087.0 0
293028.0 600281.0 0
297615.0 600061.0 0
302076.0 601638.0 0
307922.0 601054.0 0
312990.0 601601.0 0
317921.0 600968.0 0
322204.0 599459.0 0
326221.0 602082.0 0
321691.0 603390.0 0
331621.0 600987.0 0
336145.0 599868.0 0
340220.0 600770.0 0
346498.0 601096.0 0
352703.0 600263.0 0
357678.0 601272.0 0
363264.0 600404.0 0
369264.0 600657.0 0
373613.0 599297.0 0
376919.0 601052.0 0
373525.0 603461.0 0
382339.0 601157.0 0
388666.0 600060.0 0
393617.0 600091.0 0
397904.0 602176.0 0
403285.0 602310.0 0
412598.0 599036.0 0
408950.0 601679.0 0
417351.0 600110.0 0
413644.0 603686.0 0
422693.0 601151.0 0
427989.0 602349.0 0
437287.0 600781.0 0
442543.0 602850.0 0
447843.0 601136.0 0
453013.0 600975.0 0
457907.0 601364.0 0
463171.0 601677.0 0
467796.0 601774.0 0
472171.0 601074.0 0
476830.0 603437.0 0
481149.0 601388.0 0
489661.0 600984.0 0
485312.0 603135.0 0
497033.0 601865.0 0
2389.96 605696.0 0
7851.48 604578.0 0
12637.2 605997.0 0
17817.1 605719.0 0
23947.2 604173.0 0
29330.5 605486.0 0
36083.5 607303.0 0
41855.0 605791.0 0
47811.2 605854.0 0
52565.9 605447.0 0
57354.4 606139.0 0
62896.1 606817.0 0
67737.5 604659.0 0
72778.4 605452.0 0
77595.1 606028.0 0
81678.4 604141.0 0
85715.2 606491.0 0
90745.8 604230.0 0
96695.8 605588.0 0
101861.0 605009.0 0
106441.0 606184.0 0
111568.0 606877.0 0
116591.0 604195.0 0
125127.0 605847.0 0
130561.0 606419.0 0
133776.0 604824.0 0
138260.0 605663.0 0
143709.0 604745.0 0
149163.0 606957.0 0
154841.0 605690.0 0
162146.0 604637.0 0
158279.0 607242.0 0
166938.0 606280.0 0
173027.0 605200.0 0
179349.0 605750.0 0
184606.0 605836.0 0
188843.0 607026.0 0
192928.0 606375.0 0
197647.0 605689.0 0
202919.0 606398.0 0
208135.0 605651.0 0
213310.0 607451.0 0
218324.0 605026.0 0
222697.0 605152.0 0
226727.0 606326.0 0
232054.0 607045.0 0
237353.0 605927.0 0
242553.0 605970.0 0
247256.0 608430.0 0
252350.0 606805.0 0
257752.0 605393.0 0
262846.0 604812.0 0
266164.0 608613.0 0
272142.0 606777.0 0
279657.0 605844.0 0
285247.0 604795.0 0
291770.0 605663.0 0
298190.0 605523.0 0
303621.0 606071.0 0
308612.0 606738.0 0
312823.0 605774.0 0
317751.0 606856.0 0
324491.0 607049.0 0
329526.0 606476.0 0
335477.0 605620.0 0
341852.0 605873.0 0
351865.0 605565.0 0
347121.0 606911.0 0
357273.0 606462.0 0
363441.0 607422.0 0
369294.0 606012.0 0
377986.0 605290.0 0
382141.0 608130.0 0
387265.0 605648.0 0
393765.0 605762.0 0
399844.0 607505.0 0
404888.0 607637.0 0
409340.0 606580.0 0
418746.0 604948.0 0
423854.0 606609.0 0
432734.0 603823.0 0
429091.0 607327.0 0
437486.0 606110.0 0
441578.0 607344.0 0
446392.0 606101.0 0
451119.0 605504.0 0
455952.0 606027.0 0
460933.0 606422.0 0
465534.0 605626.0 0
470314.0 605868.0 0
481348.0 607103.0 0
487394.0 607542.0 0
492608.0 605632.0 0
497639.0 607128.0 0
2107.32 610129.0 0
6181.88 608960.0 0
10543.9 610235.0 0
15379.2 610408.0 0
21409.4 610212.0 0
27177.8 609747.0 0
32457.4 611382.0 0
37545.1 612129.0 0
41776.1 611076.0 0
46378.8 610934.0 0
49719.4 613682.0 0
52451.4 610173.0 0
59937.6 611227.0 0
56135.6 611719.0 0
65038.3 611784.0 0
69503.2 609331.0 0
74978.1 610802.0 0
81347.1 610051.0 0
87082.0 611399.0 0
92716.7 610094.0 0
97964.0 611081.0 0
102856.0 609983.0 0
108200.0 610940.0 0
114490.0 611647.0 0
119687.0 609146.0 0
124501.0 612334.0 0
129358.0 610408.0 0
133695.0 610208.0 0
137554.0 610274.0 0
141900.0 609587.0 0
147779.0 612687.0 0
154189.0 609784.0 0
162944.0 609796.0 0
158465.0 611459.0 0
168397.0 610816.0 0
173325.0 610640.0 0
177237.0 611326.0 0
182137.0 610600.0 0
186756.0 610063.0 0
192382.0 610817.0 0
188916.0 613103.0 0
197325.0 609929.0 0
203645.0 611958.0 0
208464.0 610365.0 0
212419.0 612327.0 0
217266.0 612004.0 0
221637.0 609143.0 0
226017.0 611150.0 0
230789.0 612291.0 0
236727.0 612069.0 0
242445.0 611028.0 0
247416.0 612869.0 0
251138.0 611500.0 0
255872.0 610648.0 0
262123.0 610900.0 0
270344.0 612351.0 0
265794.0 613473.0 0
277105.0 611510.0 0
282662.0 609372.0 0
287570.0 610414.0 0
293075.0 611692.0 0
300973.0 610568.0 0
307125.0 612077.0 0
312674.0 610371.0 0
318549.0 613623.0 0
323874.0 611560.0 0
330569.0 610338.0 0
327607.0 610449.0 0
333973.0 610882.0 0
338711.0 610597.0 0
344387.0 611643.0 0
352224.0 611779.0 0
358930.0 612116.0 0
364732.0 613644.0 0
369027.0 610833.0 0
373999.0 609123.0 0
378858.0 612355.0 0
384563.0 611964.0 0
389620.0 611446.0 0
395702.0 611792.0 0
402907.0 611549.0 0
408056.0 611986.0 0
413950.0 609706.0 0
417166.0 613917.0 0
419830.0 609960.0 0
425523.0 611297.0 0
430185.0 612257.0 0
433785.0 608967.0 0
436259.0 611241.0 0
434309.0 612878.0 0
439654.0 611292.0 0
444795.0 610803.0 0
451954.0 611396.0 0
457499.0 610315.0 0
461668.0 611035.0 0
466037.0 610074.0 0
470531.0 610595.0 0
475211.0 608892.0 0
479360.0 612377.0 0
485847.0 613055.0 0
491622.0 611338.0 0
497256.0 612182.0 0
1812.94 614037.0 0
2708.46 618470.0 0
6798.21 614239.0 0
12604.3 614790.0 0
18134.7 615075.0 0
23507.8 615898.0 0
28163.6 615318.0 0
34284.1 617118.0 0
39011.3 615830.0 0
43696.9 614943.0 0
47500.0 616386.0 0
52049.1 617628.0 0
57318.6 615808.0 0
62605.7 616339.0 0
67454.9 616069.0 0
72662.0 616507.0 0
78184.6 615691.0 0
83557.7 615474.0 0
88211.7 617112.0 0
93327.2 616156.0 0
98539.7 615537.0 0
104693.0 614984.0 0
110575.0 615599.0 0
115054.0 616701.0 0
119328.0 614644.0 0
123113.0 616540.0 0
131988.0 614842.0 0
127614.0 615595.0 0
137237.0 614471.0 0
142599.0 615036.0 0
147812.0 617740.0 0
153176.0 615643.0 0
163279.0 614983.0 0
158752.0 615585.0 0
168545.0 615771.0 0
173778.0 614902.0 0
179162.0 616402.0 0
184910.0 615393.0 0
188604.0 618878.0 0
192840.0 615927.0 0
198509.0 614539.0 0
203369.0 617653.0 0
207886.0 615002.0 0
212461.0 617118.0 0
217770.0 617541.0 0
222164.0 614376.0 0
227315.0 616501.0 0
232785.0 617182.0 0
238320.0 618348.0 0
244106.0 616394.0 0
249695.0 616097.0 0
253931.0 617647.0 0
259066.0 615577.0 0
264146.0 617165.0 0
268343.0 616753.0 0
273436.0 616523.0 0
278734.0 617852.0 0
283279.0 614322.0 0
288530.0 616327.0 0
293747.0 616959.0 0
297416.0 614006.0 0
297841.0 618600.0 0
302115.0 616217.0 0
307058.0 617254.0 0
312372.0 616533.0 0
316725.0 618038.0 0
319936.0 619037.0 0
323885.0 616563.0 0
329991.0 615244.0 0
336197.0 615047.0 0
341595.0 617686.0 0
347937.0 616167.0 0
356258.0 616601.0 0
352236.0 617916.0 0
360838.0 617213.0 0
371984.0 614982.0 0
367609.0 618127.0 0
377658.0 617642.0 0
382715.0 616200.0 0
388525.0 617872.0 0
395362.0 618201.0 0
399905.0 614042.0 0
404022.0 616617.0 0
412607.0 615217.0 0
408946.0 617916.0 0
421966.0 614706.0 0
418397.0 618692.0 0
427093.0 616532.0 0
432633.0 616844.0 0
437897.0 615987.0 0
442384.0 614918.0 0
447354.0 616005.0 0
452758.0 617285.0 0
458326.0 615746.0 0
463476.0 614612.0 0
462823.0 618572.0 0
468143.0 614761.0 0
473364.0 614150.0 0
471286.0 618107.0 0
477435.0 616081.0 0
481611.0 616250.0 0
485575.0 618376.0 0
491030.0 617483.0 0
497370.0 617524.0 0
2546.12 623718.0 0
7549.09 621422.0 0
12605.2 619799.0 0
18125.8 621330.0 0
23986.0 620918.0 0
28662.1 619758.0 0
32676.7 623088.0 0
37311.6 621477.0 0
41755.1 619624.0 0
47301.8 620724.0 0
55951.5 620839.0 0
51977.7 623369.0 0
60761.7 621123.0 0
66267.1 621160.0 0
71865.3 621838.0 0
76501.9 620291.0 0
80995.9 619959.0 0
85454.8 621144.0 0
90878.4 621991.0 0
96794.8 620538.0 0
101728.0 619114.0 0
107102.0 619857.0 0
112403.0 620273.0 0
120623.0 619917.0 0
126037.0 619590.0 0
131786.0 620899.0 0
138329.0 620177.0 0
143902.0 620025.0 0
152952.0 621592.0 0
148267.0 622698.0 0
157203.0 619815.0 0
162584.0 620413.0 0
158947.0 623850.0 0
168248.0 621370.0 0
174127.0 620532.0 0
178990.0 623905.0 0
183815.0 620933.0 0
192878.0 621679.0 0
198988.0 621900.0 0
203848.0 622519.0 0
208244.0 620938.0 0
218990.0 621674.0 0
214695.0 621940.0 0
222587.0 620800.0 0
229087.0 621416.0 0
234204.0 622219.0 0
238653.0 623356.0 0
242865.0 621836.0 0
248009.0 620848.0 0
252400.0 621223.0 0
256544.0 621706.0 0
261457.0 620778.0 0
266075.0 620927.0 0
270560.0 620646.0 0
275394.0 622492.0 0
283239.0 620800.0 0
288687.0 622170.0 0
294169.0 621849.0 0
300044.0 621588.0 0
304627.0 621394.0 0
309351.0 620904.0 0
315321.0 621327.0 0
311980.0 623433.0 0
322242.0 623138.0 0
327861.0 621735.0 0
335162.0 620457.0 0
339303.0 622074.0 0
346790.0 620728.0 0
343041.0 623447.0 0
350777.0 621678.0 0
357668.0 621560.0 0
363130.0 621442.0 0
367251.0 622813.0 0
372687.0 621519.0 0
379001.0 622753.0 0
383051.0 620708.0 0
386342.0 622924.0 0
391646.0 623796.0 0
400284.0 619544.0 0
398410.0 622600.0 0
403021.0 622669.0 0
407854.0 622179.0 0
413091.0 620693.0 0
422897.0 621831.0 0
427676.0 621325.0 0
432161.0 622080.0 0
437272.0 621206.0 0
442951.0 620310.0 0
448403.0 621434.0 0
455969.0 621272.0 0
460553.0 621899.0 0
467209.0 619950.0 0
474017.0 621081.0 0
470391.0 623627.0 0
478989.0 620617.0 0
483518.0 621938.0 0
487300.0 621965.0 0
491735.0 623706.0 0
497342.0 622793.0 0
2127.79 628366.0 0
7082.13 627308.0 0
11109.9 624977.0 0
15214.1 626120.0 0
11913.2 629059.0 0
21654.6 626738.0 0
27389.9 624789.0 0
38038.4 625921.0 0
43614.8 624222.0 0
42282.4 628666.0 0
47789.7 626042.0 0
57488.2 625122.0 0
63044.4 625398.0 0
67685.2 626365.0 0
75849.8 624790.0 0
71926.0 626451.0 0
81404.8 625496.0 0
86779.7 625837.0 0
91875.7 628390.0 0
97503.1 626055.0 0
103342.0 624495.0 0
109333.0 625246.0 0
116491.0 624352.0 0
113074.0 628547.0 0
122353.0 624683.0 0
119964.0 627680.0 0
127351.0 624781.0 0
131762.0 626024.0 0
136275.0 625794.0 0
142954.0 625504.0 0
149319.0 627861.0 0
154727.0 625659.0 0
158682.0 628419.0 0
165020.0 624575.0 0
164102.0 629178.0 0
169389.0 626845.0 0
174321.0 625908.0 0
177601.0 628159.0 0
183334.0 627465.0 0
188157.0 624603.0 0
192931.0 626535.0 0
197040.0 626677.0 0
202585.0 626581.0 0
207657.0 626404.0 0
212310.0 626206.0 0
217651.0 626626.0 0
222902.0 626115.0 0
226884.0 624916.0 0
231056.0 626408.0 0
235993.0 626732.0 0
240834.0 626936.0 0
246054.0 626390.0 0
251765.0 625494.0 0
257719.0 626663.0 0
262802.0 625686.0 0
268296.0 625446.0 0
273333.0 627529.0 0
278537.0 626994.0 0
282984.0 625390.0 0
286987.0 627406.0 0
292312.0 627022.0 0
297720.0 625457.0 0
303258.0 626520.0 0
308228.0 625320.0 0
312675.0 627342.0 0
317580.0 625884.0 0
322311.0 628276.0 0
327047.0 627240.0 0
332569.0 626115.0 0
338604.0 626275.0 0
344356.0 627213.0 0
348037.0 625329.0 0
352603.0 625126.0 0
356680.0 627017.0 0
362526.0 627153.0 0
369249.0 627781.0 0
374541.0 627195.0 0
382500.0 625967.0 0
378297.0 627248.0 0
387375.0 626839.0 0
395755.0 626658.0 0
400092.0 626852.0 0
405930.0 626457.0 0
411230.0 626370.0 0
417215.0 625139.0 0
422740.0 627541.0 0
427166.0 625334.0 0
431513.0 627315.0 0
437126.0 626746.0 0
442077.0 625541.0 0
447036.0 626581.0 0
452152.0 624776.0 0
456794.0 627091.0 0
461642.0 626079.0 0
466612.0 626912.0 0
475181.0 626304.0 0
481041.0 625766.0 0
486552.0 626523.0 0
494210.0 628809.0 0
498259.0 627087.0 0
3369.38 633713.0 0
8757.32 632198.0 0
12942.2 633210.0 0
17402.7 630050.0 0
21789.8 631789.0 0
26494.3 630341.0 0
33107.8 629667.0 0
38671.4 631959.0 0
46767.1 630839.0 0
53154.3 629793.0 0
60087.9 629615.0 0
65244.5 630653.0 0
70180.8 630732.0 0
73894.8 632256.0 0
76595.0 629570.0 0
81601.2 631683.0 0
86836.3 630417.0 0
92894.4 632831.0 0
97266.2 632031.0 0
103418.0 630822.0 0
109114.0 630680.0 0
117066.0 629825.0 0
113509.0 632623.0 0
122910.0 629992.0 0
127678.0 629884.0 0
133345.0 631049.0 0
139325.0 630406.0 0
145023.0 631764.0 0
149967.0 632421.0 0
153904.0 630404.0 0
158008.0 633537.0 0
168389.0 631679.0 0
173966.0 631958.0 0
179979.0 631709.0 0
188157.0 629762.0 0
184459.0 632227.0 0
192907.0 631394.0 0
196863.0 630104.0 0
200977.0 631848.0 0
206690.0 631604.0 0
212790.0 631651.0 0
218369.0 631757.0 0
222662.0 632387.0 0
226682.0 629719.0 0
231967.0 631479.0 0
237381.0 631756.0 0
243016.0 630627.0 0
247996.0 632283.0 0
252468.0 630024.0 0
256676.0 631749.0 0
261185.0 630165.0 0
265938.0 630416.0 0
270524.0 631163.0 0
276309.0 632147.0 0
282709.0 631512.0 0
288951.0 632384.0 0
294726.0 632456.0 0
299798.0 630255.0 0
304701.0 631239.0 0
308646.0 629714.0 0
312200.0 632017.0 0
316820.0 630967.0 0
325473.0 631537.0 0
321624.0 632723.0 0
330678.0 632318.0 0
336303.0 631059.0 0
346782.0 629843.0 0
341915.0 630873.0 0
351967.0 630171.0 0
358909.0 630708.0 0
361893.0 633140.0 0
366553.0 633190.0 0
373704.0 631080.0 0
377567.0 630861.0 0
381336.0 630260.0 0
386271.0 631822.0 0
391095.0 629333.0 0
394778.0 632483.0 0
399289.0 631460.0 0
404108.0 631167.0 0
408226.0 629832.0 0
411978.0 632190.0 0
417975.0 631369.0 0
427666.0 630233.0 0
424256.0 631972.0 0
431616.0 632590.0 0
436787.0 630941.0 0
441071.0 631039.0 0
446446.0 631902.0 0
451541.0 630179.0 0
456459.0 632118.0 0
461358.0 631010.0 0
466205.0 631932.0 0
471408.0 631158.0 0
478164.0 631948.0 0
482864.0 629999.0 0
487233.0 632464.0 0
492844.0 633994.0 0
497869.0 631906.0 0
9511.4 637394.0 0
18083.9 636493.0 0
24428.2 635310.0 0
29147.2 638035.0 0
35184.8 636313.0 0
39146.0 635838.0 0
43100.2 634640.0 0
49291.0 634464.0 0
47096.7 639089.0 0
53080.0 637749.0 0
57488.8 634594.0 0
62289.4 634412.0 0
66342.6 637215.0 0
71674.2 637398.0 0
76917.6 635312.0 0
85921.9 634976.0 0
81807.7 637869.0 0
91006.9 636954.0 0
96218.3 637049.0 0
101447.0 636883.0 0
107323.0 635691.0 0
113065.0 638026.0 0
117717.0 634456.0 0
123445.0 635557.0 0
129078.0 634822.0 0
133022.0 636132.0 0
138176.0 635974.0 0
143750.0 637601.0 0
148213.0 635823.0 0
153271.0 636758.0 0
163154.0 636259.0 0
169445.0 636709.0 0
174359.0 637343.0 0
183456.0 636250.0 0
178761.0 636633.0 0
188363.0 634994.0 0
192869.0 635777.0 0
197067.0 635432.0 0
202802.0 636252.0 0
208420.0 636334.0 0
213053.0 637473.0 0
217797.0 636343.0 0
222604.0 636950.0 0
227926.0 635395.0 0
233047.0 635974.0 0
237504.0 637168.0 0
241631.0 634820.0 0
245615.0 637233.0 0
250019.0 637031.0 0
254936.0 636999.0 0
261408.0 635964.0 0
268189.0 635708.0 0
273833.0 637213.0 0
279431.0 636929.0 0
283727.0 636448.0 0
287235.0 637435.0 0
291602.0 636727.0 0
296244.0 637677.0 0
301449.0 635683.0 0
308016.0 636058.0 0
313704.0 636394.0 0
318062.0 635371.0 0
326324.0 635903.0 0
321965.0 637551.0 0
330745.0 638052.0 0
335060.0 635799.0 0
340104.0 636145.0 0
347760.0 634624.0 0
353077.0 635823.0 0
357019.0 638885.0 0
357809.0 634590.0 0
361361.0 637527.0 0
366540.0 638076.0 0
371375.0 635170.0 0
376890.0 635597.0 0
382049.0 635352.0 0
385810.0 636672.0 0
390915.0 636581.0 0
397913.0 635042.0 0
396371.0 639275.0 0
401486.0 635253.0 0
407438.0 635309.0 0
412990.0 637685.0 0
422762.0 635091.0 0
418726.0 637524.0 0
427176.0 635374.0 0
431483.0 637332.0 0
436703.0 635718.0 0
441843.0 636386.0 0
445963.0 636780.0 0
451411.0 636139.0 0
457322.0 637265.0 0
461760.0 635553.0 0
465682.0 636259.0 0
471694.0 636689.0 0
476222.0 636674.0 0
482442.0 636055.0 0
487368.0 638178.0 0
492180.0 638891.0 0
497424.0 636528.0 0
3714.93 640782.0 0
13711.4 641685.0 0
19194.8 643613.0 0
23483.4 640133.0 0
27359.0 643240.0 0
33437.7 642515.0 0
40356.0 639808.0 0
44134.1 644394.0 0
50540.8 643607.0 0
56042.4 642958.0 0
61326.0 639870.0 0
66903.4 642884.0 0
72818.7 642839.0 0
77424.7 640530.0 0
86464.5 640623.0 0
81716.5 643214.0 0
91546.2 642672.0 0
96614.8 641674.0 0
101570.0 642492.0 0
107694.0 642462.0 0
114627.0 643032.0 0
118517.0 639522.0 0
122191.0 643073.0 0
127874.0 640587.0 0
134456.0 640885.0 0
140153.0 641606.0 0
144733.0 643851.0 0
148750.0 640483.0 0
153222.0 641911.0 0
158355.0 640584.0 0
168361.0 640922.0 0
164313.0 642440.0 0
172569.0 641939.0 0
178345.0 641918.0 0
183481.0 640892.0 0
188610.0 640432.0 0
194551.0 640566.0 0
199667.0 641023.0 0
203176.0 641529.0 0
207236.0 640799.0 0
212305.0 642226.0 0
217160.0 641194.0 0
222126.0 641702.0 0
227111.0 641008.0 0
232042.0 640271.0 0
236820.0 642312.0 0
241626.0 640119.0 0
246704.0 642341.0 0
251693.0 641042.0 0
257052.0 642839.0 0
263704.0 642582.0 0
268869.0 640882.0 0
273202.0 642374.0 0
278020.0 641907.0 0
283560.0 640847.0 0
287988.0 641035.0 0
292949.0 641249.0 0
296411.0 641412.0 0
300227.0 641497.0 0
306134.0 642388.0 0
312085.0 641277.0 0
316978.0 639700.0 0
321332.0 642059.0 0
326410.0 641191.0 0
332651.0 642895.0 0
337801.0 640817.0 0
342331.0 640585.0 0
347225.0 640055.0 0
352633.0 641357.0 0
358343.0 644367.0 0
363587.0 641678.0 0
369237.0 641206.0 0
373495.0 639945.0 0
378265.0 641229.0 0
387147.0 640638.0 0
382759.0 642729.0 0
391775.0 642207.0 0
402156.0 640130.0 0
408166.0 641287.0 0
413534.0 642381.0 0
418412.0 643546.0 0
423572.0 640645.0 0
427473.0 640260.0 0
428428.0 644103.0 0
432707.0 641383.0 0
437043.0 641275.0 0
442015.0 640785.0 0
448566.0 641263.0 0
453765.0 641109.0 0
458274.0 642207.0 0
462805.0 640138.0 0
468012.0 639992.0 0
473164.0 642445.0 0
479067.0 640531.0 0
484294.0 642579.0 0
488661.0 642215.0 0
493740.0 642697.0 0
497977.0 641034.0 0
3267.75 647709.0 0
8976.21 644644.0 0
14373.0 647705.0 0
19438.9 648697.0 0
23823.9 647137.0 0
28969.5 647830.0 0
33777.1 648121.0 0
38501.5 645776.0 0
48099.8 647704.0 0
52855.3 648363.0 0
58087.1 647377.0 0
61360.0 645105.0 0
64611.1 647349.0 0
74024.6 647773.0 0
77348.2 645921.0 0
86127.0 645776.0 0
81852.8 648516.0 0
90423.0 647403.0 0
95289.5 646791.0 0
100770.0 647722.0 0
106123.0 648503.0 0
112141.0 646574.0 0
117898.0 645114.0 0
121344.0 648010.0 0
127010.0 647421.0 0
132252.0 645641.0 0
137301.0 646235.0 0
142338.0 648428.0 0
148880.0 646738.0 0
154182.0 646597.0 0
159941.0 646555.0 0
165273.0 648142.0 0
169015.0 645610.0 0
173210.0 647278.0 0
177582.0 646668.0 0
181997.0 645629.0 0
187113.0 645520.0 0
192886.0 646931.0 0
198071.0 644887.0 0
202994.0 646016.0 0
208800.0 646178.0 0
214160.0 646259.0 0
218419.0 645713.0 0
222521.0 646101.0 0
226778.0 645906.0 0
232144.0 645835.0 0
238115.0 646565.0 0
242132.0 645181.0 0
247109.0 647392.0 0
252175.0 645579.0 0
257534.0 647752.0 0
261085.0 647205.0 0
269052.0 646009.0 0
274070.0 646821.0 0
278610.0 646718.0 0
283396.0 646083.0 0
287647.0 646164.0 0
291896.0 645913.0 0
296305.0 644660.0 0
300870.0 647335.0 0
295931.0 649162.0 0
305942.0 647560.0 0
310935.0 647063.0 0
316790.0 645107.0 0
323221.0 646739.0 0
328499.0 646186.0 0
332735.0 647457.0 0
336885.0 645995.0 0
341845.0 645303.0 0
347361.0 645762.0 0
352823.0 646759.0 0
367251.0 645695.0 0
362783.0 646793.0 0
373256.0 645481.0 0
378659.0 646055.0 0
387457.0 645779.0 0
382996.0 647085.0 0
391744.0 647370.0 0
395793.0 645322.0 0
401213.0 645657.0 0
406594.0 647200.0 0
411201.0 645667.0 0
414753.0 646328.0 0
423547.0 646178.0 0
433214.0 646293.0 0
438240.0 645529.0 0
442179.0 645106.0 0
446146.0 645809.0 0
451717.0 646334.0 0
456507.0 645699.0 0
460934.0 645975.0 0
466004.0 644762.0 0
470409.0 647393.0 0
475769.0 648396.0 0
480253.0 645465.0 0
484265.0 647556.0 0
490429.0 647485.0 0
497110.0 646058.0 0
2052.2 652847.0 0
8495.32 649855.0 0
6236.15 653980.0 0
12233.3 653139.0 0
17843.8 653367.0 0
22092.1 651252.0 0
26204.8 651807.0 0
32477.2 652317.0 0
37436.7 652142.0 0
43044.3 650182.0 0
48088.5 652543.0 0
52839.0 654653.0 0
56799.9 651545.0 0
62414.6 651850.0 0
68889.0 650270.0 0
73562.2 652203.0 0
77625.5 651309.0 0
82697.2 653147.0 0
86969.5 650904.0 0
92841.6 651651.0 0
97343.2 651005.0 0
102175.0 652628.0 0
106265.0 652999.0 0
110553.0 651477.0 0
116411.0 650333.0 0
121526.0 652579.0 0
126212.0 653219.0 0
133356.0 650560.0 0
138152.0 651342.0 0
142147.0 653313.0 0
146439.0 651389.0 0
151244.0 651026.0 0
156156.0 652004.0 0
161098.0 651721.0 0
165431.0 653599.0 0
170546.0 651899.0 0
176248.0 651352.0 0
182074.0 651187.0 0
188155.0 651065.0 0
193645.0 653008.0 0
198628.0 650042.0 0
202255.0 652730.0 0
205528.0 650476.0 0
212381.0 650737.0 0
216776.0 650833.0 0
216031.0 654602.0 0
221065.0 650566.0 0
226501.0 651120.0 0
231440.0 650922.0 0
236725.0 651385.0 0
242982.0 650648.0 0
247809.0 651445.0 0
251792.0 650124.0 0
256322.0 651654.0 0
261102.0 651500.0 0
266061.0 650881.0 0
270988.0 650892.0 0
275985.0 651275.0 0
282182.0 650786.0 0
286696.0 650845.0 0
287033.0 654749.0 0
291381.0 650917.0 0
296739.0 654012.0 0
301878.0 652854.0 0
307926.0 650767.0 0
306424.0 654523.0 0
315899.0 650732.0 0
311491.0 652611.0 0
321223.0 651779.0 0
325653.0 650397.0 0
330086.0 651477.0 0
335462.0 650726.0 0
341268.0 651051.0 0
347618.0 651916.0 0
353757.0 652214.0 0
360248.0 651085.0 0
366572.0 651619.0 0
371347.0 652953.0 0
374283.0 650238.0 0
378713.0 651665.0 0
383638.0 651218.0 0
388874.0 651340.0 0
392714.0 654321.0 0
393774.0 650701.0 0
398110.0 649908.0 0
402940.0 651045.0 0
402493.0 654662.0 0
407521.0 650724.0 0
411153.0 650517.0 0
417059.0 650393.0 0
422164.0 650880.0 0
427459.0 650747.0 0
432592.0 650953.0 0
437027.0 650290.0 0
438368.0 654614.0 0
442712.0 650054.0 0
448087.0 650462.0 0
452925.0 652258.0 0
457842.0 649899.0 0
457655.0 654682.0 0
462081.0 652374.0 0
466384.0 650125.0 0
472127.0 651561.0 0
476846.0 653636.0 0
480894.0 651027.0 0
486109.0 652765.0 0
493086.0 653215.0 0
497547.0 651376.0 0
3002.15 657839.0 0
8032.17 657911.0 0
12538.2 658156.0 0
20283.1 656723.0 0
17447.1 658912.0 0
23348.4 655503.0 0
24079.2 659751.0 0
29420.4 656427.0 0
36586.0 658334.0 0
41627.5 654948.0 0
42059.6 659267.0 0
46730.4 656703.0 0
50446.2 658535.0 0
57555.6 656438.0 0
62026.1 657025.0 0
66399.8 655852.0 0
71142.4 655392.0 0
75920.6 655983.0 0
81141.2 658034.0 0
87050.6 656663.0 0
92399.2 656709.0 0
96968.7 655346.0 0
101448.0 657355.0 0
106507.0 657377.0 0
112162.0 657079.0 0
118323.0 656959.0 0
123600.0 656986.0 0
130816.0 655938.0 0
135921.0 655072.0 0
139942.0 657564.0 0
143595.0 656583.0 0
147561.0 656359.0 0
152625.0 655661.0 0
157235.0 656502.0 0
161729.0 656826.0 0
168057.0 657072.0 0
172894.0 657292.0 0
177673.0 655947.0 0
181882.0 656439.0 0
187537.0 656885.0 0
192337.0 657281.0 0
198414.0 655607.0 0
202942.0 656255.0 0
208687.0 655963.0 0
213881.0 657696.0 0
220463.0 655802.0 0
225580.0 656653.0 0
230867.0 655616.0 0
235695.0 656849.0 0
240350.0 656544.0 0
246174.0 656502.0 0
253145.0 656788.0 0
259528.0 656397.0 0
264192.0 656594.0 0
268978.0 655798.0 0
273395.0 655576.0 0
278453.0 656277.0 0
283234.0 655256.0 0
291291.0 656415.0 0
300769.0 657517.0 0
296055.0 659667.0 0
310193.0 656862.0 0
316033.0 656952.0 0
322084.0 657181.0 0
326584.0 655561.0 0
331503.0 656942.0 0
337258.0 656096.0 0
342375.0 655953.0 0
346463.0 657579.0 0
350953.0 656372.0 0
357546.0 657044.0 0
363529.0 656559.0 0
368705.0 655898.0 0
375098.0 655947.0 0
379837.0 656272.0 0
384342.0 655892.0 0
389212.0 656813.0 0
397529.0 655465.0 0
402141.0 658050.0 0
407086.0 655311.0 0
413252.0 655621.0 0
418696.0 656010.0 0
423756.0 655030.0 0
428358.0 656415.0 0
433635.0 655651.0 0
437543.0 658186.0 0
442762.0 655946.0 0
448329.0 655718.0 0
453894.0 657610.0 0
461489.0 656873.0 0
466987.0 655918.0 0
472687.0 655679.0 0
477953.0 657133.0 0
481847.0 656138.0 0
489727.0 656747.0 0
494138.0 657531.0 0
497892.0 655920.0 0
2916.27 663503.0 0
8585.97 662723.0 0
14338.3 662639.0 0
20629.5 662567.0 0
27447.4 660484.0 0
25976.1 664713.0 0
30939.6 661749.0 0
35061.8 663474.0 0
39522.7 663188.0 0
46610.0 661014.0 0
50273.2 663162.0 0
54777.9 661362.0 0
60549.4 661411.0 0
65800.2 660986.0 0
72296.8 661391.0 0
78409.1 662811.0 0
82125.8 662301.0 0
85517.9 661586.0 0
91596.2 662365.0 0
97140.7 660314.0 0
103021.0 663047.0 0
109083.0 662020.0 0
113617.0 661761.0 0
116848.0 664442.0 0
121535.0 661998.0 0
127229.0 660650.0 0
133711.0 661883.0 0
140135.0 662954.0 0
144896.0 660669.0 0
149569.0 662047.0 0
154615.0 660529.0 0
159639.0 661099.0 0
167752.0 661023.0 0
163817.0 661361.0 0
171800.0 662292.0 0
177267.0 661585.0 0
183632.0 661432.0 0
188791.0 661617.0 0
192113.0 660337.0 0
197389.0 661402.0 0
203451.0 660994.0 0
213915.0 661166.0 0
209193.0 663021.0 0
217672.0 660668.0 0
222302.0 660929.0 0
227435.0 661523.0 0
232915.0 661245.0 0
238566.0 661326.0 0
242979.0 660903.0 0
247867.0 662238.0 0
251801.0 661588.0 0
255779.0 662387.0 0
260843.0 661569.0 0
265911.0 660584.0 0
271794.0 661429.0 0
276970.0 660775.0 0
282182.0 661075.0 0
287649.0 660007.0 0
291573.0 662788.0 0
300539.0 662022.0 0
305744.0 660176.0 0
311654.0 661578.0 0
316834.0 663415.0 0
321906.0 661991.0 0
327409.0 661072.0 0
332598.0 661584.0 0
337040.0 661581.0 0
341841.0 660251.0 0
351956.0 660980.0 0
347095.0 662591.0 0
357753.0 663356.0 0
362975.0 661687.0 0
366565.0 664877.0 0
367662.0 660303.0 0
372366.0 659909.0 0
372120.0 664923.0 0
376917.0 660947.0 0
382071.0 660675.0 0
387559.0 662116.0 0
393957.0 660914.0 0
399565.0 661742.0 0
405519.0 662418.0 0
411481.0 660857.0 0
417178.0 661461.0 0
423325.0 660705.0 0
429661.0 661807.0 0
435220.0 661671.0 0
440931.0 660908.0 0
446534.0 661341.0 0
451824.0 662072.0 0
458314.0 661066.0 0
464027.0 661089.0 0
469209.0 661354.0 0
473939.0 660293.0 0
472628.0 664829.0 0
478668.0 661215.0 0
483129.0 660549.0 0
487712.0 661467.0 0
492497.0 661325.0 0
497335.0 660820.0 0
1225.61 667284.0 0
6689.58 667090.0 0
11891.0 666511.0 0
17531.4 666406.0 0
21669.4 666580.0 0
31667.3 666583.0 0
37305.0 668217.0 0
42083.9 666615.0 0
46286.6 665924.0 0
52490.3 667404.0 0
58184.6 666170.0 0
63478.9 665718.0 0
68064.2 665409.0 0
71616.5 667686.0 0
76722.7 667865.0 0
81833.2 666306.0 0
86938.4 666179.0 0
91627.8 668646.0 0
97166.4 666402.0 0
107116.0 667431.0 0
102089.0 668347.0 0
112216.0 666368.0 0
118079.0 669303.0 0
122836.0 667139.0 0
128687.0 666847.0 0
135219.0 668666.0 0
139553.0 667091.0 0
144553.0 665798.0 0
148617.0 667206.0 0
153254.0 666037.0 0
158292.0 665355.0 0
162899.0 665722.0 0
168182.0 665898.0 0
172979.0 669689.0 0
174045.0 665338.0 0
177431.0 667065.0 0
181771.0 666373.0 0
186662.0 666460.0 0
192349.0 665272.0 0
197479.0 667047.0 0
201772.0 665646.0 0
206044.0 668375.0 0
214565.0 665518.0 0
218969.0 666098.0 0
222500.0 666141.0 0
226807.0 667180.0 0
232207.0 666308.0 0
237228.0 666454.0 0
242380.0 665564.0 0
247071.0 667078.0 0
252500.0 666145.0 0
256705.0 667031.0 0
261537.0 666757.0 0
267205.0 666299.0 0
272685.0 667252.0 0
277610.0 665339.0 0
282115.0 668125.0 0
286751.0 665185.0 0
291419.0 667788.0 0
296754.0 665788.0 0
302644.0 666362.0 0
307583.0 665573.0 0
308273.0 669984.0 0
312210.0 666682.0 0
320937.0 666929.0 0
316439.0 668278.0 0
326413.0 667011.0 0
331726.0 666085.0 0
337570.0 667263.0 0
342966.0 665177.0 0
347483.0 667664.0 0
352892.0 666841.0 0
357992.0 668881.0 0
362458.0 666137.0 0
368520.0 669212.0 0
376895.0 665467.0 0
381051.0 665546.0 0
378335.0 669833.0 0
385449.0 667475.0 0
391356.0 666991.0 0
396902.0 666083.0 0
401800.0 666802.0 0
407815.0 668024.0 0
412894.0 665792.0 0
417865.0 667173.0 0
422470.0 665863.0 0
426719.0 666444.0 0
432780.0 665862.0 0
430304.0 669150.0 0
437555.0 666416.0 0
442996.0 665748.0 0
448173.0 666780.0 0
452403.0 666029.0 0
456583.0 666343.0 0
461871.0 666095.0 0
467413.0 666241.0 0
474395.0 669534.0 0
477322.0 665678.0 0
482295.0 665440.0 0
488507.0 666864.0 0
493001.0 665708.0 0
492803.0 669660.0 0
497500.0 665788.0 0
2838.64 671014.0 0
8060.68 671928.0 0
13292.9 671332.0 0
18048.3 670927.0 0
22093.9 673095.0 0
27244.1 670752.0 0
32865.5 672037.0 0
37555.0 673866.0 0
42127.7 671637.0 0
47692.8 670910.0 0
52120.8 673163.0 0
56752.8 671486.0 0
62041.8 670675.0 0
67590.9 671006.0 0
73058.7 672620.0 0
78408.6 673026.0 0
84286.1 671712.0 0
89779.2 673112.0 0
94482.4 672953.0 0
99109.0 671670.0 0
104187.0 672739.0 0
108979.0 671628.0 0
112936.0 670944.0 0
115994.0 673218.0 0
122223.0 672121.0 0
128248.0 674253.0 0
134938.0 673884.0 0
139069.0 672164.0 0
143462.0 670777.0 0
147042.0 673065.0 0
151033.0 671287.0 0
157241.0 670866.0 0
162992.0 670497.0 0
167833.0 671841.0 0
178027.0 671625.0 0
183260.0 671165.0 0
188116.0 671024.0 0
192577.0 670811.0 0
197260.0 671692.0 0
202500.0 671018.0 0
208055.0 672903.0 0
212673.0 670834.0 0
217500.0 670974.0 0
222500.0 670843.0 0
227997.0 672489.0 0
232868.0 670974.0 0
237730.0 671364.0 0
242755.0 670125.0 0
241598.0 674728.0 0
247906.0 671404.0 0
252103.0 670392.0 0
256404.0 671256.0 0
260823.0 671759.0 0
265600.0 671492.0 0
270815.0 672350.0 0
277049.0 671381.0 0
282311.0 672527.0 0
286924.0 671101.0 0
292510.0 672921.0 0
298620.0 672130.0 0
304066.0 671016.0 0
312849.0 671882.0 0
318516.0 672858.0 0
323333.0 671043.0 0
327900.0 672245.0 0
333235.0 671657.0 0
337963.0 673167.0 0
342769.0 671080.0 0
351183.0 671886.0 0
347009.0 674501.0 0
356606.0 674220.0 0
362948.0 671796.0 0
373232.0 672865.0 0
382986.0 671955.0 0
388422.0 672317.0 0
393459.0 672411.0 0
398021.0 671190.0 0
403361.0 671640.0 0
407990.0 673296.0 0
412640.0 671026.0 0
417721.0 672336.0 0
422267.0 670417.0 0
426985.0 672394.0 0
434922.0 671859.0 0
441116.0 671103.0 0
446517.0 673659.0 0
452463.0 671185.0 0
459261.0 671589.0 0
464415.0 670161.0 0
469194.0 671808.0 0
479398.0 670551.0 0
483972.0 670078.0 0
484244.0 674213.0 0
488145.0 672107.0 0
492976.0 675148.0 0
497500.0 670761.0 0
1577.66 676056.0 0
5623.1 676521.0 0
10850.0 676066.0 0
17016.9 676211.0 0
23599.4 678068.0 0
28267.2 676227.0 0
33246.5 677432.0 0
38064.3 678370.0 0
42378.1 676784.0 0
47070.0 676078.0 0
51720.1 677904.0 0
57056.7 677051.0 0
62426.4 675925.0 0
67092.7 675942.0 0
71193.5 677552.0 0
76008.7 677321.0 0
81799.2 678215.0 0
87176.5 676571.0 0
91927.3 677435.0 0
97774.3 677068.0 0
103201.0 678394.0 0
108576.0 676489.0 0
113935.0 677027.0 0
119312.0 676412.0 0
123871.0 678978.0 0
128118.0 680260.0 0
133547.0 678165.0 0
138551.0 676674.0 0
143438.0 675807.0 0
147014.0 676998.0 0
151449.0 677089.0 0
157394.0 677213.0 0
162834.0 675630.0 0
167746.0 676843.0 0
173407.0 675977.0 0
177947.0 676929.0 0
181758.0 676409.0 0
187123.0 675783.0 0
193330.0 676728.0 0
198746.0 675673.0 0
202941.0 675645.0 0
207322.0 677263.0 0
212272.0 676233.0 0
217524.0 675743.0 0
222455.0 675866.0 0
226547.0 677016.0 0
231425.0 675711.0 0
236422.0 676073.0 0
247243.0 676517.0 0
253438.0 675604.0 0
258749.0 676044.0 0
262755.0 675857.0 0
267175.0 676284.0 0
273251.0 676824.0 0
277695.0 676908.0 0
281866.0 676056.0 0
283231.0 680213.0 0
286949.0 676304.0 0
290983.0 677462.0 0
296077.0 678117.0 0
301831.0 676376.0 0
306191.0 675252.0 0
310582.0 675947.0 0
315014.0 677448.0 0
320086.0 677846.0 0
325626.0 677613.0 0
331326.0 676628.0 0
336095.0 677196.0 0
342000.0 677766.0 0
351383.0 677313.0 0
347221.0 679639.0 0
356259.0 680060.0 0
361433.0 677930.0 0
367767.0 676541.0 0
372916.0 679613.0 0
378753.0 677085.0 0
384894.0 676524.0 0
389746.0 677651.0 0
394653.0 676778.0 0
399986.0 676474.0 0
404022.0 675791.0 0
407189.0 678225.0 0
412953.0 676389.0 0
418134.0 677052.0 0
422666.0 675486.0 0
427339.0 677654.0 0
431790.0 675993.0 0
436432.0 677109.0 0
441469.0 676911.0 0
446088.0 678780.0 0
451482.0 677882.0 0
457330.0 677711.0 0
462146.0 676473.0 0
467385.0 677797.0 0
473669.0 676405.0 0
479816.0 675990.0 0
487460.0 678178.0 0
497909.0 677029.0 0
2251.06 680467.0 0
5532.67 682536.0 0
10559.6 682010.0 0
17112.7 682709.0 0
22591.3 682855.0 0
27762.2 681720.0 0
33297.4 682900.0 0
38711.9 683188.0 0
42839.6 684935.0 0
47158.9 681890.0 0
53063.9 682900.0 0
58242.1 682359.0 0
63547.1 681273.0 0
68419.2 681164.0 0
72801.6 682085.0 0
77434.1 681954.0 0
82571.3 683154.0 0
87354.5 680973.0 0
92584.3 682597.0 0
98303.5 682597.0 0
102958.0 683103.0 0
107364.0 681691.0 0
112265.0 681184.0 0
117335.0 681113.0 0
121488.0 682587.0 0
125540.0 683345.0 0
131991.0 683728.0 0
137290.0 681651.0 0
142958.0 681079.0 0
148078.0 680935.0 0
153264.0 682523.0 0
162927.0 680724.0 0
158514.0 682562.0 0
167357.0 681380.0 0
172159.0 681843.0 0
177548.0 680764.0 0
182502.0 681334.0 0
186767.0 680869.0 0
191023.0 682389.0 0
197787.0 681576.0 0
203474.0 680552.0 0
208228.0 681777.0 0
213259.0 681358.0 0
218094.0 680798.0 0
222111.0 680774.0 0
225920.0 681300.0 0
230909.0 681213.0 0
236698.0 681288.0 0
242525.0 680668.0 0
248077.0 682056.0 0
252474.0 681786.0 0
256708.0 680283.0 0
261171.0 682264.0 0
266725.0 682076.0 0
272409.0 681470.0 0
277893.0 682152.0 0
288534.0 681761.0 0
293441.0 682550.0 0
297348.0 684003.0 0
301146.0 680998.0 0
307540.0 681362.0 0
313500.0 682390.0 0
318592.0 682610.0 0
323162.0 682131.0 0
327452.0 683169.0 0
332212.0 681532.0 0
337533.0 682592.0 0
342787.0 683710.0 0
351777.0 682739.0 0
347211.0 683615.0 0
359252.0 683929.0 0
363730.0 682666.0 0
367779.0 681759.0 0
377185.0 682405.0 0
372527.0 684100.0 0
382420.0 680933.0 0
386600.0 681794.0 0
392353.0 682029.0 0
397535.0 681527.0 0
402472.0 681049.0 0
406579.0 683231.0 0
411676.0 681443.0 0
417378.0 682432.0 0
422805.0 680663.0 0
427690.0 682862.0 0
432599.0 680778.0 0
438084.0 681771.0 0
443258.0 682570.0 0
448204.0 682557.0 0
452855.0 683633.0 0
457455.0 682347.0 0
462300.0 681592.0 0
467078.0 683163.0 0
472277.0 682605.0 0
477764.0 681112.0 0
482858.0 681145.0 0
487933.0 683298.0 0
492474.0 681328.0 0
497459.0 681027.0 0
POINT_DATA 5000
SCALARS Radius float 1
LOOKUP_TABLE default
5337.48 5529.52 6756.95 4329.05 4151.94 4049.23 6124.89 5252.48 4780.03 4133.88 4834.9 3850.77 6044.04 5415.48 5120.0 3863.18 4998.37 6182.6 5258.36 3163.97 5812.43 5906.14 7513.1 5254.28 5733.48 4672.91 5580.89 6810.52 5840.26 6110.27 5073.35 4380.59 6716.79 7613.27 4951.03 5255.32 6037.08 5096.78 6324.23 3843.58 4931.38 4736.58 3485.26 6082.81 4685.34 4929.8 5601.05 5708.81 3554.9 4015.92 5495.39 3996.0 4487.31 3856.1 3936.02 4044.71 4665.12 3383.4 4094.62 4927.02 5546.39 5325.36 5484.83 5085.53 5351.6 2356.98 4730.36 4715.55 5867.73 5492.18 3951.75 5061.3 3642.12 5542.27 5054.98 5122.66 5484.19 4688.68 4436.4 4402.52 4517.56 4182.53 5903.42 3588.44 5645.7 5176.86 4366.19 3672.51 5561.06 4008.92 3615.22 5670.04 3589.27 4827.82 3997.1 3260.67 3607.45 5123.52 5759.91 4392.68 3038.33 4333.2 7199.21 4523.7 2240.39 5091.39 5293.9 4129.43 4727.24 3320.52 4194.5 4270.53 5191.63 4043.57 5379.87 4792.73 4501.51 4556.36 3191.99 5110.37 4382.74 5927.43 4651.28 3586.91 3103.0 4384.42 5481.78 5542.21 5043.05 5816.2 5980.74 5109.54 6483.19 5945.65 6759.9 5538.89 7021.47 5416.38 6059.59 4955.55 5013.56 5701.86 4499.64 4375.68 4238.81 4468.59 6030.06 5170.02 3557.27 5200.76 4927.31 4862.64 5185.34 4432.58 6684.56 3968.64 3955.56 3761.32 5292.64 4118.05 6166.5 5553.16 2938.66 5936.02 4940.78 4231.61 4861.08 4003.05 3942.53 3379.84 4805.87 5227.21 5697.78 4667.36 4091.31 6372.62 4295.38 5615.42 7565.34 5923.5 4612.68 3912.37 6142.94 4602.25 5082.47 4790.08 5344.25 4763.45 4593.7 4150.99 3771.48 4478.15 5681.38 5925.6 3708.04 5513.6 3240.09 4901.41 5664.98 6327.9 6355.42 4362.19 3693.63 4516.43 5637.59 4948.92 3115.91 4937.14 4493.48 3307.12 5924.89 5693.81 4002.16 4174.52 3486.22 3829.13 6230.49 5418.62 5493.32 5740.68 5926.61 2720.68 3563.63 5836.15 4345.55 6704.06 5885.03 3653.41 2837.58 3871.88 5325.02 5246.2 5017.13 5279.39 3673.74 5205.43 7447.37 4688.67 2635.86 4385.06 5065.13 5305.17 4290.3 5399.73 5390.22 4712.33 3888.21 6038.78 6902.81 4254.17 5090.24 5740.84 5530.87 4281.49 4973.83 6342.25 6691.39 4187.56 5344.0 4840.84 6045.46 5445.87 4216.92 4704.72 4177.94 4742.68 5113.21 4502.5 3929.19 4107.03 4271.69 5198.77 5987.17 4138.42 6013.14 3979.82 2765.2 5138.31 5264.06 4048.37 4659.59 5492.26 5690.56 5762.84 3937.74 4749.8 6084.86 4778.34 4138.16 6894.71 4684.5 3091.3 6458.82 7054.71 4601.27 5489.43 3641.64 4277.89 6051.14 3261.21 4195.44 5539.32 6496.85 5600.93 3856.01 4874.39 5541.59 4390.66 4124.71 5728.85 4827.23 4911.47 6116.18 4924.6 4381.97 6257.19 4733.32 3255.82 7184.19 2899.43 2812.98 2924.37 5603.15 3867.67 4695.45 6052.7 4660.72 3798.62 3921.18 5891.05 3666.57 5308.1 6644.76 5655.21 5629.19 4645.41 4786.6 4433.59 6445.94 4310.18 7134.64 5978.9 3629.62 4997.27 5135.69 4301.06 4290.14 3815.26 4020.32 4245.72 5908.1 4571.7 4344.58 5634.83 5782.6 4862.21 5499.11 5922.5 3633.87 3970.25 5147.67 5643.58 4292.06 5011.31 5006.58 4602.86 3688.8 4548.16 5449.18 3369.23 4220.88 5244.78 6640.13 5082.6 5810.84 5478.92 5094.44 5551.36 4467.94 4414.54 4850.81 5789.98 6138.47 5527.54 5573.7 5747.75 4727.62 5054.25 4796.33 4055.8 7325.81 5280.17 5360.19 4794.96 5083.08 6834.49 6337.56 5525.39 5803.39 5863.59 4024.3 6394.38 5555.28 5242.73 4737.14 4065.69 5556.96 5581.75 6392.01 6730.19 4907.89 4937.02 4073.93 6043.3 5952.75 4320.28 5542.14 4218.06 4931.53 5480.13 6308.71 4716.19 5514.76 3456.98 4877.67 6562.18 4541.21 4156.38 6048.7 5896.46 5495.84 5022.8 6268.1 3784.5 5253.55 5820.48 7034.11 2586.12 6261.42 4011.77 4527.08 5347.48 4850.01 2775.04 5215.05 5577.04 6318.18 4481.53 5586.81 3948.17 4621.75 4551.24 4581.13 5358.59 4515.71 6519.71 3092.35 5210.03 5478.47 4230.54 6142.37 3748.24 4655.49 4933.21 5375.47 6038.14 2540.31 5120.49 6029.66 5262.61 6302.8 5697.4 6038.2 4270.95 4005.44 5206.78 6425.26 5143.58 6186.19 4839.34 4840.01 2980.99 7933.0 4455.12 3998.5 5938.34 5380.13 5118.27 5169.36 4686.65 5932.23 5834.74 3369.13 4479.66 5788.23 3043.85 5461.13 3599.45 4907.06 3735.44 5489.34 5163.9 5537.72 6332.36 6122.55 2739.94 4223.33 5911.67 6695.82 6405.76 3066.13 3498.2 5105.16 4302.5 6006.16 5316.75 6009.88 4164.68 3719.84 6133.92 4178.4 5934.22 4861.06 3471.03 6608.73 4359.62 5011.84 6946.21 5433.8 6125.34 4497.59 5965.78 4374.35 4810.12 4138.46 3821.72 4986.77 5137.34 5330.45 3856.59 4219.07 3610.4 5413.79 6387.01 5367.52 4322.15 4714.54 3629.96 5893.5 3320.11 5351.39 5030.91 6061.47 5119.37 6163.38 4566.18 4723.12 4964.09 5201.36 5024.9 5409.61 5094.81 5972.06 5713.22 5555.88 6732.43 5028.96 3866.16 6362.12 4484.76 3778.1 5152.36 4511.82 5611.2 6820.42 5173.87 4816.2 4894.16 4896.52 5711.87 3372.79 4941.22 5282.64 5791.61 4669.66 4808.52 5367.2 5607.24 5053.92 4726.76 5839.13 5495.68 4863.72 5002.48 5708.14 3920.42 4262.82 8332.24 6155.31 4553.56 5329.64 3323.28 6049.55 5709.62 5835.78 5794.24 4127.74 2476.04 4678.38 5448.61 5050.65 4827.33 7055.53 5013.67 5826.04 5669.65 5624.49 3780.23 3095.48 6481.79 4166.08 5320.28 4298.67 5960.66 3979.26 3999.48 4203.26 5188.81 3745.84 6057.22 5062.71 5690.26 4156.2 5975.63 5252.34 6396.74 2965.79 6898.19 6035.6 5198.29 5423.0 5077.33 4746.52 6338.89 6202.55 5025.39 7111.16 4547.19 5507.24 6022.17 4583.31 3982.23 5806.08 3459.9 4997.27 4853.39 4809.42 4093.08 5543.27 4306.53 4717.05 5659.17 6135.57 4312.67 5861.71 4359.04 3183.98 3794.63 5017.78 4524.28 6175.81 4727.24 6677.09 5826.64 4220.65 5201.67 6321.41 4089.76 4751.02 3192.41 5184.56 4987.87 4715.72 3315.57 5804.71 5046.33 4764.96 4242.52 6352.26 5356.51 3847.38 3057.03 3818.59 4087.15 4143.08 7500.97 6623.85 5102.36 5228.18 5787.31 5065.11 4342.9 5069.84 4051.44 4241.89 5054.74 5941.72 5991.09 3942.07 5133.97 7443.72 3937.08 5260.34 5513.57 5206.48 5729.23 5226.0 5339.78 5762.59 5374.51 4123.6 5224.12 6739.08 4797.52 4796.58 4569.12 5873.69 4962.09 5654.31 4730.41 5470.77 5696.88 3923.03 5607.14 4289.17 5564.02 6072.45 4274.61 4410.55 7099.43 5526.14 5315.4 6449.45 3975.31 5125.78 3689.45 3824.16 5572.95 3868.18 4373.47 6723.16 5584.06 3686.21 3817.13 5023.15 4377.07 6851.54 4503.89 4336.42 5243.29 7589.94 4449.22 3130.65 5856.11 5287.2 4109.88 5998.38 5013.13 5423.8 4270.24 3417.33 4989.15 4926.42 4164.13 5015.69 4642.34 4947.52 4305.57 6959.81 4829.35 4389.21 3791.79 4424.7 4925.44 4754.05 5526.55 6084.93 5215.15 3697.96 4739.42 5538.93 5020.12 5727.3 2631.9 5281.28 4277.88 4758.21 7228.46 3948.23 5978.82 3927.99 5868.82 4050.9 4978.31 4099.77 4981.9 4537.32 4656.78 5126.91 6600.94 5371.02 4788.58 6155.1 4709.35 6586.45 4373.3 4750.78 3365.82 4143.78 4163.5 7092.87 4538.95 4850.14 4970.88 4763.66 7042.12 6326.39 6643.85 4471.58 3637.61 6098.14 5501.93 4472.17 5463.38 6222.42 5945.21 4938.74 3474.39 4831.47 4643.85 6062.05 4004.04 5082.74 6915.83 5092.37 6444.77 6314.07 4287.63 5776.37 4516.28 3627.82 4044.45 5344.43 6070.58 5045.38 5350.88 5372.61 5402.24 6480.17 6445.22 3844.9 5101.59 3813.22 5570.3 3963.86 4306.11 3848.93 5935.47 5628.24 5004.67 5365.89 3327.49 5992.26 4234.94 3960.8 4562.29 4980.85 5080.66 5110.45 5248.77 4083.97 4520.1 4607.02 5153.74 5874.89 4528.09 4293.03 5813.4 6291.51 4128.98 5882.89 6246.22 4951.47 5246.61 4307.28 4100.38 5344.77 4723.48 4899.11 4745.45 4278.07 7267.18 6255.18 4668.71 5269.18 4406.1 6362.14 6719.88 5080.18 5266.5 4523.88 4066.38 4948.98 5227.52 4729.43 4414.48 4092.24 5163.02 4562.74 7144.24 3600.43 4906.82 5131.24 5196.67 6496.67 5876.71 5029.78 6262.72 3664.11 6515.84 5724.64 4666.81 5965.15 4780.2 5163.55 4636.5 4819.73 3382.7 6817.32 6471.55 5644.82 2965.01 4319.79 6263.44 5960.56 6343.14 5774.97 4020.95 5462.21 6313.06 5750.71 3493.7 6470.3 4200.03 6939.12 4735.33 4406.4 5411.85 4844.57 4027.46 4470.98 3921.08 4190.31 5678.96 5262.19 4244.9 6034.41 5490.43 5452.83 5130.91 4948.5 4519.22 4527.02 4531.14 3695.36 4564.34 4871.44 5076.35 6020.48 3402.32 5200.05 5903.66 4528.49 5419.37 4466.03 4511.54 5070.39 4923.9 5714.58 3329.99 5208.32 3947.47 3296.27 4713.25 4204.84 6243.0 3895.51 6673.96 4165.81 3556.85 5441.96 3435.9 5174.89 4288.3 5370.52 4188.32 4652.29 5774.81 3746.31 5097.87 5027.98 6475.1 4969.21 2691.29 6256.02 5320.92 5314.85 4305.43 5034.59 5450.44 4942.77 4263.33 5592.32 4454.63 5912.61 3279.1 4403.98 4560.84 6086.96 5233.78 5776.57 5683.26 5598.74 5687.83 5004.23 6442.69 5474.8 4648.04 6607.87 2990.77 5117.47 4925.63 4888.6 5078.86 4918.77 4940.42 5100.1 3703.1 3954.91 4946.42 5923.4 5085.71 5081.78 5499.39 4260.92 6250.23 6413.02 4863.27 4118.84 5122.63 5862.86 6049.79 5374.98 6345.13 4719.7 5516.95 5313.22 4413.85 3905.51 3999.94 4864.22 3901.8 5759.46 5083.41 7055.42 5486.68 6048.86 4285.32 5022.28 5197.52 4959.34 5383.07 4591.87 5013.42 3838.56 6552.22 5651.07 6248.81 6375.99 5273.35 5234.29 2651.49 5313.66 5512.23 5275.32 5409.33 4898.94 5196.0 4613.31 4973.78 4733.04 6119.09 5788.66 5091.68 7531.29 5069.25 5048.89 3161.47 3991.03 6390.78 7435.25 6826.57 4788.87 4495.87 6022.72 5498.32 5527.33 5346.27 5402.21 4989.09 2845.98 4880.14 4982.31 5289.52 3848.54 5941.4 6510.17 5742.65 4402.67 5381.16 4470.61 5565.13 6193.35 3701.27 4806.34 5653.9 5046.21 5894.61 5139.5 7493.3 6320.71 4814.55 3527.05 5698.77 3464.83 2477.07 4721.32 3163.78 4305.16 5882.65 3293.56 5092.28 5274.14 4739.14 4434.19 4371.99 6090.91 3561.29 5187.7 4219.78 3295.83 4963.34 5019.93 4459.28 5235.29 5177.64 4255.31 6116.33 4479.94 5453.3 3492.19 4407.9 4584.5 5548.29 6766.43 2315.64 4703.08 4390.41 5226.56 5274.19 5599.49 4097.57 5017.5 5563.79 6171.13 3497.9 2395.5 5511.88 4512.11 6248.6 3836.45 5683.61 5100.25 6894.26 4986.51 5339.38 5178.99 5615.35 4790.78 4247.15 6422.84 4502.18 5379.09 4602.85 4962.77 5872.05 4853.02 4091.8 4645.58 5181.4 5670.2 5985.29 4247.23 4178.15 4268.65 4694.83 5509.42 4354.08 4256.43 5936.36 4520.62 3903.75 4755.47 5935.03 5475.8 5314.69 4249.46 5965.81 3702.37 5660.85 4643.31 2330.66 4177.19 6917.52 3587.05 6229.37 6718.19 4307.48 5282.91 4425.84 7256.35 5331.02 4800.69 4871.96 3555.86 4863.23 6386.78 4996.99 4631.83 4384.88 6887.27 6008.49 4287.53 5612.21 4929.14 5945.08 3979.54 5304.13 5944.09 5833.06 4923.41 4702.06 3830.46 4497.31 6413.11 5529.42 5257.12 4965.89 4903.82 5659.95 5746.28 4152.85 4623.61 4082.47 4188.3 5511.6 6261.75 3885.86 4517.73 4338.08 5469.47 4378.3 4419.71 5660.16 6134.99 4541.8 4094.73 4989.56 3838.47 4718.54 2588.37 6736.03 4440.57 6235.57 3623.87 5916.16 3087.09 6934.37 6113.95 4050.08 5452.42 5328.22 6853.85 4020.4 5941.61 4596.75 5782.48 4933.65 5443.58 4558.46 5805.86 4049.02 4470.4 5311.03 5255.12 6169.11 4896.11 5172.53 4027.09 5801.99 5210.48 7552.94 6259.23 5323.3 5088.44 4998.21 4711.62 4662.56 4114.24 5349.31 4649.22 5394.55 5094.52 4946.74 2682.24 5928.32 5229.48 5475.7 4485.99 4016.18 5127.16 5435.74 4244.99 6050.81 5327.45 5543.46 6185.89 3997.96 4750.17 3460.94 3990.25 3691.0 4752.51 4236.14 4407.87 5282.51 3797.33 5945.89 4105.55 6566.1 6065.22 4221.28 4456.39 4896.39 6081.14 3633.79 5480.83 4607.85 4220.46 5128.57 6000.7 5604.21 3169.67 4968.03 3361.92 3306.14 5490.58 4863.79 5395.14 3967.48 6213.04 6031.67 5384.76 6138.12 4428.78 5243.43 4537.14 5551.9 4453.64 4765.72 3757.34 6415.61 4752.14 4687.64 5329.59 4888.12 5037.06 4950.97 5512.16 5175.29 5842.56 5887.15 5412.31 5203.08 5374.07 7480.41 3423.15 4890.5 4488.85 3731.84 4579.69 4901.07 3981.07 3554.48 5186.3 3436.15 5005.85 4216.17 4151.76 3493.47 6484.17 4721.02 4254.37 3374.08 4031.78 6098.1 5708.99 5687.85 5346.68 5296.29 4611.53 4285.66 5094.48 3872.61 4238.4 4135.62 4318.48 6132.95 5534.94 4860.33 7644.38 4051.34 6101.92 3627.55 6239.84 4635.6 4256.67 3457.48 5166.79 3931.07 2976.22 3405.98 5417.15 3688.16 4681.72 4945.39 5996.33 3950.63 5415.19 4612.62 3619.07 5526.75 4275.57 4467.04 6385.23 2983.99 2614.4 5560.26 6363.92 6205.93 4439.35 4923.24 5830.72 6184.4 3758.07 3828.81 4373.45 5733.62 4082.57 5169.9 4460.92 3004.16 4767.78 5235.17 4042.28 4779.5 4421.12 4340.76 5254.49 4303.19 5514.84 3914.2 5421.53 5937.08 6070.3 5233.29 4312.56 4612.06 5204.04 4750.58 6710.88 5235.11 5211.38 6622.11 4689.15 3685.13 6790.73 4655.16 5409.66 3867.19 4345.67 5857.79 2908.7 4039.91 4642.66 5276.7 5036.58 6119.63 5411.02 3197.63 4752.9 4863.96 4287.16 5191.08 4062.5 4435.51 4588.7 5163.77 3766.55 6027.62 5010.2 6496.52 5966.61 5711.11 4575.94 4938.72 3546.71 5768.57 5564.23 5950.04 3735.24 4231.83 2435.33 4074.48 6401.43 4558.47 5020.71 2681.29 5997.88 5839.71 5576.92 6408.83 5266.22 3930.79 5226.97 3685.13 6004.68 3312.06 3361.26 6799.4 5865.39 4427.28 6079.11 6430.39 7440.72 3949.6 5703.6 6326.18 5661.62 6631.19 6648.68 4713.74 5626.61 5817.25 4084.49 5061.98 6632.99 4537.6 5147.36 4419.61 7177.44 4563.46 5309.98 6553.94 5255.18 5460.65 5652.0 5463.41 5225.33 4929.75 4435.36 6649.96 6045.22 5134.39 5784.3 4256.57 5442.32 6088.68 2221.99 4643.56 4135.08 5620.74 4778.82 6124.08 5467.84 5053.95 5926.11 6667.68 5767.9 6515.8 5089.62 4590.55 4741.26 5920.32 3701.16 5251.4 4186.6 5097.69 3988.3 6136.49 6543.13 4356.25 5149.72 4216.95 5776.96 5464.25 5486.48 5301.47 4617.55 5199.44 5424.88 5415.85 4199.45 8659.64 6599.66 5683.95 4055.54 5469.13 4233.8 5765.42 6123.03 4997.83 4893.49 5325.44 5021.88 5956.65 4498.25 4200.09 4188.87 5151.21 6574.95 6333.29 5731.57 4477.04 5662.55 5737.92 4360.23 4004.35 5365.24 4763.96 5754.18 5180.76 3418.99 4480.95 5278.36 4409.63 5521.25 3661.9 3082.32 5370.85 5949.46 3658.37 3178.54 4765.02 5376.71 4448.13 5070.29 4807.28 4867.08 4266.03 5280.69 4220.03 6923.84 5407.78 5449.46 6179.96 6113.54 4662.43 6260.79 3963.76 5528.53 6799.88 3062.43 5726.66 5426.78 2967.38 4159.35 6477.91 4237.98 6439.37 4081.97 4614.3 5580.92 3532.3 5769.98 3583.21 5067.46 2511.46 3580.58 4863.01 5356.79 2775.69 5657.36 3619.79 5029.47 6306.21 5266.01 2978.76 5253.37 2040.66 7016.27 5884.9 3685.65 3876.21 5869.4 4916.22 4255.85 6022.7 4732.09 5895.77 5750.07 4809.67 4757.74 6045.67 4209.49 5742.74 3821.94 4244.21 4947.24 5367.73 3645.12 3875.05 6200.54 3456.47 5148.58 4652.01 5421.64 7234.66 4207.54 4886.12 6419.12 4976.12 6098.95 5453.98 3991.42 4388.63 5102.75 4597.29 5938.17 5931.77 5097.95 5398.64 6817.57 3614.96 3886.68 6853.04 5703.74 4745.43 5831.96 4747.55 3056.7 3755.95 6234.32 4586.19 5293.51 4446.06 5008.63 3450.93 5132.68 6595.03 4993.35 4558.15 6218.95 5222.16 5107.23 5136.08 3776.94 5558.68 4010.57 5629.39 2684.03 6157.04 4768.61 2261.36 5075.55 4522.21 5506.19 6719.94 4950.67 5227.59 6166.29 5453.6 5703.07 5294.77 4709.05 4630.82 4043.66 4813.08 5860.67 4540.86 5990.52 4835.83 5604.35 6316.56 3091.67 4332.87 6420.81 5401.99 4715.58 5973.33 5151.52 4347.74 5291.9 4009.62 4011.37 2081.58 4785.25 6505.78 5461.55 6519.43 5876.64 5424.46 4857.84 4908.49 4962.21 4858.44 3468.42 4673.35 5689.26 4992.42 5297.19 4940.84 4351.38 4833.46 5933.7 7248.4 5280.12 3946.28 4444.97 5984.81 5439.9 4409.27 3540.11 4640.06 4588.99 5471.74 3548.39 3673.28 3583.49 4858.51 3375.28 5625.65 4301.61 6107.89 4817.16 4446.84 5660.55 5148.08 4834.87 3718.69 4514.79 3672.21 2216.82 5760.22 4795.43 5108.06 3573.73 4693.52 4222.4 4000.43 3420.08 4912.04 4539.07 5464.68 5591.76 4585.31 6625.18 5323.91 4270.74 5097.45 6293.89 2761.07 5737.75 4983.39 5366.52 4690.55 5533.72 5533.42 4802.32 3678.08 4599.38 5246.47 4187.31 6191.29 7422.36 5161.01 4298.15 4628.4 5832.37 6051.83 4642.93 5409.63 4263.16 3077.84 6024.75 6109.49 5567.93 5987.42 5332.65 3764.1 6451.33 5413.31 3012.99 6400.08 4743.59 5208.14 3317.83 3763.05 4450.7 5092.24 5369.08 3101.75 4518.04 4766.06 4874.18 5435.19 3298.2 4270.15 6865.76 6449.64 6464.8 4684.44 4749.59 4680.94 5799.69 5571.72 3809.69 4771.13 3208.96 7051.9 4184.23 4144.57 5550.75 6834.41 6226.14 5466.33 3000.29 5721.05 3498.16 4247.69 4514.39 4321.21 4344.34 5713.03 4928.27 5052.84 4366.74 5297.16 3184.64 4936.96 5206.33 5530.49 5653.03 6192.0 4940.28 4509.89 6752.75 5269.38 3004.34 5607.3 3022.6 2928.82 4914.45 4811.76 4698.87 4568.41 4661.03 3624.7 5262.35 4691.91 4475.83 2685.81 4510.8 5889.35 5010.04 4394.56 4570.98 4275.07 5825.38 4185.61 4047.87 5742.47 3778.02 6552.21 5417.8 5146.37 7132.12 4836.16 5518.57 5151.11 5463.48 5730.33 3240.51 5545.46 4527.99 4376.7 5190.61 8325.01 3764.06 4440.81 5941.9 3973.12 5434.47 6642.76 5829.22 4497.78 4243.79 5811.18 5433.65 4442.22 4008.15 4887.76 4669.06 4811.32 4286.49 6184.88 5829.32 4396.25 3918.87 5551.95 5549.49 2275.45 5423.42 6605.86 4383.56 5012.5 3562.79 7093.13 4953.1 5818.95 4093.99 3940.49 4452.54 4406.05 5089.1 5828.35 4028.32 5876.72 5236.43 5285.07 4884.59 3858.06 4680.14 4608.41 4083.79 4187.94 5980.59 5021.77 3796.15 4801.8 7216.98 5271.02 4209.31 5718.28 6242.79 4601.74 5950.45 5088.57 5849.65 3852.6 5134.67 4165.21 4215.0 4603.5 4481.76 5452.78 5065.26 4356.36 4304.41 5578.94 7610.49 5885.28 6579.31 5323.55 5375.1 4172.6 5313.12 5351.56 5160.59 3984.88 4732.09 4320.42 4255.34 5064.79 5480.3 7509.24 4146.81 5896.26 5388.78 6101.13 4573.72 5099.21 4917.99 4367.78 5636.4 4350.12 5227.02 5670.0 4232.16 5300.96 4344.51 5680.94 3781.77 5581.55 5193.01 4543.1 3474.5 6550.44 3860.83 5732.27 4523.39 5278.56 5146.37 6917.62 4013.38 5631.14 4343.78 5263.3 4909.65 6523.86 7693.4 4326.48 4437.07 5491.9 3449.37 6405.0 4659.16 5789.55 4633.05 4901.2 5711.62 4990.79 4798.17 5166.79 6479.39 4516.53 2895.63 4122.92 3604.14 5079.22 5381.54 5810.77 2711.19 5474.15 7519.2 4099.92 6355.68 4478.6 4511.7 4304.63 5263.27 6300.92 4173.54 5599.29 6038.68 5046.12 4807.4 7013.17 3805.67 6101.86 6506.86 5993.0 5580.34 5966.42 5775.31 4706.5 3332.49 5354.66 4647.67 5375.12 4787.97 4892.44 3746.36 3989.7 4286.17 4777.03 3684.56 6028.09 5452.36 3804.5 6486.37 5498.42 5318.53 3344.57 5220.76 4281.98 7165.9 5344.83 7046.11 3427.63 4863.97 6342.48 5756.75 4587.67 5599.7 4163.74 6969.28 3665.95 5698.96 4095.75 3603.51 4298.45 5222.51 6609.84 5135.96 3834.43 5658.37 4707.06 6074.94 5491.37 4250.88 3783.54 6348.03 3475.67 4792.39 7038.89 3863.67 4814.12 5067.56 6137.8 2735.53 3352.35 5116.6 3747.03 2783.85 4356.49 4526.81 3994.07 4219.94 5907.46 4264.91 6740.71 5399.29 5971.22 4909.31 6522.59 6602.43 5425.98 3568.28 5996.66 4405.42 4997.91 3598.08 4599.81 5698.23 7300.58 4714.83 3608.06 6633.61 5217.95 5484.36 3953.55 4277.24 4063.9 4469.54 4314.56 5291.05 5161.1 3928.53 4619.2 5606.51 5740.65 3834.47 6349.67 6329.53 4590.01 4227.41 4750.49 5078.31 4803.57 5391.48 4923.43 4110.59 5131.15 4847.14 3950.27 4214.44 5116.66 5378.23 3566.79 5374.67 4981.43 6789.23 4215.2 5069.89 4157.29 4246.61 6813.72 5327.75 4609.02 4896.65 4638.18 4196.37 6448.66 4453.97 6945.98 5138.2 5783.48 4449.98 4701.5 4504.35 4771.65 4840.44 5093.82 5951.81 3924.14 6918.35 4296.69 6238.32 3319.67 6471.42 4076.59 5283.8 4428.14 5164.1 6464.15 4972.17 6685.4 5699.53 4222.77 6332.01 5268.38 5527.23 4805.33 5980.95 6193.08 6069.3 5887.01 5168.35 5388.39 5335.47 3728.18 5633.61 5048.19 6799.23 4888.27 4592.15 6487.56 4854.11 5533.19 4998.22 5417.21 5583.61 6063.64 7382.3 2995.67 4022.56 5522.21 3772.3 4855.01 4923.57 3340.09 6061.63 4867.7 2279.05 4829.35 4075.28 8137.11 5484.32 6650.77 4067.96 5166.41 7104.73 5067.56 2596.96 5701.75 4350.15 4139.3 3516.27 6541.45 4643.9 4263.78 5228.75 6047.14 5009.83 5210.38 5717.8 3629.44 5003.78 3299.24 6246.56 4741.28 4061.6 2603.64 5107.0 6212.15 6502.97 4783.07 4946.23 4852.58 6083.28 5211.6 5806.31 3556.79 5456.71 3503.41 7317.04 6412.67 7001.83 5012.97 5589.37 5439.49 6639.64 5212.43 5454.12 4834.3 6348.54 6804.79 5642.35 6372.13 5369.5 5404.01 6016.19 4124.49 4479.11 3230.13 5714.25 5325.96 4850.06 5016.02 7044.29 4234.18 4049.16 7085.01 3936.95 6153.94 6836.82 3862.77 4631.99 4740.98 3185.39 5128.77 7122.87 5797.36 4243.26 4153.84 5119.86 5089.26 5084.17 4901.44 3776.8 5096.43 6156.21 6104.26 4653.83 6171.71 4986.71 3628.89 6589.82 4668.88 5027.43 5522.75 5867.64 6208.9 6059.93 5602.53 5073.02 6545.43 6760.92 4989.2 4711.04 7144.05 4506.18 4824.12 6162.3 3272.75 5971.21 4264.54 5261.19 7043.44 4263.65 6106.43 4807.35 5467.63 5666.95 4642.2 4811.22 3683.86 4918.76 5293.75 4208.41 5826.78 5473.72 2856.55 4553.68 3758.22 4757.2 3205.68 5561.74 6100.73 4788.08 4745.79 5470.04 4908.75 3971.08 6204.65 4482.9 4036.91 4593.7 5110.11 6379.14 3687.65 4887.52 5478.95 3851.85 4066.57 4206.98 5156.76 6357.47 6101.57 4891.38 5535.91 5955.86 6176.67 4848.46 5412.24 2779.99 4581.37 4920.21 6942.34 5851.61 5478.11 5526.31 5030.15 3858.17 3644.78 3477.1 4078.93 5934.82 4501.78 4922.49 3572.94 5001.58 4820.17 4729.42 5244.98 3886.72 5415.45 6592.93 6350.71 6436.74 2460.79 5096.24 3908.98 5039.12 6328.42 7307.21 3619.72 3381.82 4438.58 4646.51 4565.93 7107.63 4831.93 5788.97 3472.91 4023.93 5868.89 3274.85 5007.21 2970.9 4099.26 5206.47 6542.5 4383.47 4834.39 5262.47 3104.96 3512.94 3831.52 4991.35 4587.7 4258.98 6761.81 3903.91 4568.64 3919.62 4127.53 5210.75 4474.83 6555.44 5658.14 4508.18 6214.73 2205.51 5175.89 5361.87 3894.64 4268.19 4374.74 4532.7 4504.86 5975.23 4198.94 4473.29 4211.82 6556.26 5684.25 5438.92 4349.13 6550.4 4891.67 3766.69 6818.91 5216.26 3503.65 3634.5 6631.28 6571.31 4392.65 6318.23 4058.87 5174.75 5932.07 4984.46 5948.71 4793.65 2949.12 3856.53 4532.89 5460.89 4533.37 5260.85 5742.09 5887.38 2884.65 5807.46 4648.21 4393.16 3658.05 4549.69 6423.81 6192.77 4312.15 6418.11 6015.02 5244.22 5585.14 7039.98 6456.58 4159.81 4960.64 5792.98 4385.81 4034.05 5690.96 5798.38 3862.91 4456.11 5366.11 3419.87 4824.81 5769.14 5944.3 3563.14 5135.5 5347.9 5851.63 4504.52 5212.92 5615.84 4928.85 6440.38 5556.0 5545.59 5494.28 5610.53 5755.15 4580.06 3926.11 5493.89 4057.17 7066.96 4467.0 4994.65 5196.92 3787.08 5644.81 5334.36 4728.55 4929.6 5750.35 4489.99 4548.45 4658.11 4551.26 5730.61 7124.45 6358.93 5064.67 3703.49 5232.85 4062.56 3717.47 6200.63 6816.66 3217.67 5079.64 6163.54 5212.37 6003.78 2628.22 5058.51 4244.49 5036.98 5513.8 4521.75 4027.63 5350.88 5420.67 6413.15 6103.11 5048.55 6459.51 4024.31 5844.72 3992.97 5989.05 6040.74 4054.22 7228.94 5393.65 4961.99 6551.93 4595.12 3311.29 3110.13 6484.43 4625.67 3485.54 4458.64 4583.52 3657.69 3492.83 6280.13 3684.15 5832.29 4438.76 6006.89 3814.65 3965.3 5372.82 4983.3 7778.01 5127.82 5124.17 5805.1 4125.9 4064.58 4234.88 5113.6 4384.28 4456.26 4810.98 5091.22 6282.38 5640.72 5657.55 5727.79 5188.82 5043.14 4464.73 5072.5 3904.07 5748.9 3663.0 4954.81 6304.49 5134.72 4835.97 6419.64 5464.83 2781.96 4431.23 5917.34 5601.55 4462.87 6545.99 5630.9 4554.68 4368.28 4692.32 4945.0 3127.83 4212.15 5114.07 4385.49 4263.18 7142.95 4383.68 6618.21 2617.39 5144.44 4051.18 5969.37 4928.35 5034.69 996.652 4509.46 3538.53 4680.69 6500.49 5965.58 3352.34 4050.03 4901.29 4775.04 5188.53 4120.07 4882.66 3429.57 5569.2 5410.33 4642.74 6735.97 5305.59 5416.45 4330.58 5754.6 4955.16 3288.01 4904.51 4147.31 2202.77 5751.15 5950.88 4149.55 4441.22 5853.89 3380.69 4140.4 4386.8 5446.4 4725.01 5966.75 5510.9 4883.63 4505.28 4971.29 5510.45 4730.14 2606.51 3994.39 6119.99 4128.1 4618.73 4446.58 4402.17 5401.4 5053.15 5910.86 6239.68 7320.78 4834.44 5782.43 4027.33 3873.92 5026.76 5023.41 4092.07 4546.44 4224.3 4184.21 4700.07 5273.37 4717.73 4732.37 4985.3 5713.36 4749.18 5553.94 3742.31 4546.96 5424.55 4921.1 4608.34 3814.16 5695.79 3622.8 5414.58 5577.41 5740.98 4346.07 4013.86 4177.47 4218.16 2918.64 4140.92 4512.07 5984.8 5236.24 4585.04 5678.58 6570.35 4242.63 4559.74 3269.54 5836.26 6666.67 6063.44 4583.94 5046.31 3844.54 1937.5 5849.53 4651.99 4420.11 5863.0 6127.39 4972.18 4607.18 4124.76 7200.89 4813.33 4952.52 3840.21 6746.66 4954.76 3908.56 5244.78 3636.15 6114.89 5135.63 6384.7 4355.83 6870.97 5351.86 6056.87 5474.01 6201.86 7554.58 5166.89 3639.44 5491.63 5725.37 3868.62 5138.33 3743.76 3425.69 6711.21 4236.86 5393.76 4941.02 4983.1 3864.92 6010.59 2955.36 3668.93 4009.24 7541.76 4775.49 4681.29 3220.29 3845.9 4439.71 5667.51 4708.31 4198.9 5431.29 4833.67 5325.91 4213.05 5157.38 6203.03 5235.87 6089.45 5810.17 4966.07 3669.32 4400.14 4704.92 4316.0 4287.25 4392.75 4271.07 4420.6 5287.25 4770.51 4184.47 6511.37 4012.92 5759.79 4598.54 5218.42 4933.49 6139.64 4896.43 5463.06 4639.8 5260.52 3185.09 6102.49 5114.23 5495.0 7407.91 6015.22 4454.74 2904.46 4826.52 5120.92 4337.32 5241.75 4731.53 3763.9 4788.7 5084.5 5640.12 5329.76 3899.7 2403.72 5134.33 4147.49 4802.98 4833.55 4081.34 3646.95 7224.99 6334.53 4844.83 5377.37 5652.87 5483.7 5018.69 3152.86 5952.38 3896.27 5807.52 5963.36 5230.02 5307.35 4342.18 5169.48 6016.08 4731.21 3124.7 6064.71 6102.98 6060.17 5153.18 4763.4 5902.67 5454.11 5806.61 3779.45 3682.35 7123.04 5906.57 3756.96 4932.29 4990.23 3784.94 5499.59 3125.13 5749.6 4141.21 4174.44 4564.41 6331.74 4252.18 5951.86 4659.88 3791.41 5853.12 5702.4 5069.9 5473.89 3306.84 3673.6 5265.21 4657.24 5866.42 4762.1 3987.69 6502.99 6219.34 4191.01 4475.38 4589.06 4920.88 5890.25 4216.44 3999.5 5034.05 4816.51 5345.73 4770.63 3990.94 4756.8 5477.8 3986.41 4462.35 4241.68 3469.18 2945.34 4489.29 5064.23 4301.93 6061.85 5512.44 6449.06 4685.4 4924.07 6240.42 5146.0 5721.14 4577.73 4987.28 4918.64 6638.25 5078.59 4759.99 2646.13 5419.57 5162.67 5760.98 4705.68 5469.35 5384.86 4749.96 4019.34 4658.24 5869.67 4311.48 4899.73 5457.66 6394.19 5973.89 5366.22 6193.73 5518.11 5087.14 5712.35 5701.52 4743.9 6776.22 5321.17 3719.11 4467.13 3877.8 6273.6 5136.87 5024.32 4708.17 2741.2 5790.42 5784.37 3142.09 5591.77 5182.13 6110.48 6245.52 3954.77 6793.1 6016.87 4506.66 6715.73 5209.55 5426.4 5763.05 5129.68 5357.39 5076.84 5247.01 4208.37 4841.7 5685.74 952.938 6740.35 4678.7 3450.07 6215.87 5191.26 6060.06 5544.27 3484.81 5308.33 4666.12 6023.07 5674.63 5340.05 5995.4 5322.11 5700.79 6710.14 4426.02 4726.2 4711.15 5188.22 4841.23 3810.68 2804.54 4357.11 5005.6 4176.32 6069.78 5532.75 6949.65 3372.95 4095.83 5676.61 5846.95 5268.15 5819.0 6347.72 3460.93 3200.6 4629.02 5914.5 6006.16 4288.45 5407.96 6206.98 6562.03 4815.47 4368.12 4365.58 5214.4 4636.53 3629.49 5766.05 5117.64 3835.81 4869.48 3623.19 4906.11 4387.39 4564.1 5825.55 5509.51 4848.14 4316.5 3199.4 5254.24 3742.11 4192.21 3597.43 5144.56 4158.91 5311.55 3360.86 4869.25 5545.21 4333.87 5684.05 3667.93 5638.7 5813.79 4644.88 5293.13 7350.26 3768.46 5167.53 5003.3 4168.52 5800.81 5106.46 4068.31 5166.05 5077.29 5515.73 4850.5 5866.91 2820.07 6405.69 5679.74 4825.73 5288.33 6296.54 5797.21 6019.35 6028.63 4550.92 5146.1 6485.77 3869.39 5960.5 5393.43 6896.55 4685.65 5377.01 6470.23 6506.63 4140.04 3495.3 4697.49 5735.08 4750.81 3825.48 4474.39 4658.59 4196.62 2809.19 4916.7 5486.89 7208.19 4549.51 3587.93 4975.85 5695.25 5323.95 5716.42 5701.63 4620.95 5368.93 4488.39 5124.86 4927.73 4602.57 3565.32 4608.62 4071.75 4626.72 5131.77 5549.71 4410.82 6443.99 3889.98 5193.58 5399.43 5695.44 3422.21 3916.42 5429.3 5510.96 6653.07 4745.16 4697.91 4584.81 5071.98 5719.79 4371.08 7261.51 4968.14 4914.03 5086.29 5527.13 5139.18 5551.43 4278.57 3034.16 5049.99 4201.03 5001.87 4493.79 4279.44 4899.19 5058.34 4028.22 5575.11 3918.94 5487.63 3852.82 4507.36 7145.73 5403.97 4795.08 6562.92 5501.73 3671.06 3612.44 4697.24 7035.54 5233.76 4683.28 4217.36 6549.8 4165.36 4851.18 4871.77 5368.52 5811.26 5062.77 6075.99 5262.79 5927.2 4419.79 5407.69 5152.78 4117.9 4753.76 4781.9 4638.09 5330.26 4441.91 5939.22 4668.8 5125.17 4859.01 5524.45 7133.44 3953.26 5459.92 6478.35 5453.77 4104.04 5589.53 5593.79 5025.42 5196.08 4517.29 4495.75 4849.5 6171.01 5796.26 4603.04 4870.94 5271.88 6121.56 7168.2 3763.85 3419.07 5710.33 5344.44 6432.8 3186.07 4967.51 4369.86 5173.82 7212.97 5490.64 5034.34 3769.2 4507.46 5036.14 5603.68 4944.51 5610.95 5532.72 3220.8 5179.17 5579.39 5270.51 5148.1 5490.75 5224.64 5949.73 4312.48 5783.94 6370.33 5081.08 6318.25 6864.06 6008.81 4932.56 5192.49 3487.31 6643.4 4674.9 5461.72 6599.28 6224.85 5368.66 4556.19 5648.78 6875.73 5226.42 4983.43 5117.52 6311.89 6734.39 5942.45 4150.76 5005.72 5155.28 5388.73 4884.93 5205.38 4600.71 3957.38 4494.15 5035.71 4710.88 5300.17 4057.4 5534.23 6815.96 5339.6 5828.25 4725.11 4215.05 4271.93 4604.1 5076.11 5990.75 5600.21 5467.51 4625.53 4096.47 5114.67 3543.37 5353.66 5030.33 2638.82 5234.2 4965.24 6379.38 6257.79 5353.23 6229.83 4468.26 5578.18 5293.37 5933.54 5559.79 5879.24 4571.74 4096.86 3622.48 5001.51 5385.86 5115.42 5482.76 4082.4 3745.02 3720.7 4211.36 5698.53 3604.31 4450.49 3856.73 3468.45 5635.32 4526.34 4316.45 5409.08 5042.75 4598.92 5241.22 6647.08 4979.52 3422.29 4407.79 5214.63 3495.68 5352.24 3990.96 7362.42 4202.77 5836.14 5473.05 5537.34 5884.99 5726.42 7025.09 4433.12 2549.95 3392.26 4361.24 5138.93 6406.8 7086.69 6170.9 5833.78 4436.48 6081.3 5615.35 3967.76 6213.24 5987.88 4228.53 6123.46 6142.88 4461.14 5111.26 4574.54 4949.55 4764.83 1969.87 3132.34 4841.28 5507.38 6889.5 4416.87 4052.43 4896.67 3934.11 6025.77 4466.22 6153.71 5917.08 5483.37 3626.86 5418.12 6371.96 5322.07 5770.07 5101.6 4282.11 6589.13 2347.41 4542.16 2030.03 5628.97 5527.27 5104.39 4612.13 5846.6 5327.05 5438.55 4434.65 5977.66 4523.81 5106.33 5198.94 4028.35 5464.05 2980.31 5740.78 3148.79 4796.12 5997.91 4742.82 6791.86 4930.72 4209.0 5728.58 4887.73 6297.99 5378.24 4538.89 5817.74 5887.71 5661.6 4827.61 5285.75 5385.03 5481.64 5673.75 5360.67 5968.54 6263.3 4501.05 4537.03 6548.29 4114.2 4326.06 5034.46 5757.29 5793.12 5469.17 5061.75 4373.2 3769.24 6022.78 4087.32 6647.85 2569.12 4161.32 5161.74 7336.37 5099.9 6945.69 5118.86 4304.64 4183.4 4733.79 5758.98 4823.06 5254.49 5288.64 6828.8 6883.86 3579.59 6161.94 5057.59 4065.28 5285.6 5418.98 5615.06 5490.54 5203.54 4047.95 6142.94 5001.69 6581.56 3980.46 4061.87 5383.9 5158.44 3798.09 3886.56 4496.51 4511.05 6561.94 5259.21 5092.93 5934.05 4714.66 6771.18 4984.17 4656.01 5781.62 4037.86 5602.62 5714.51 4484.78 4938.33 5157.73 5847.91 4934.66 4109.44 4903.84 4290.49 6688.53 5209.5 5065.74 5791.25 4873.23 5410.6 5453.2 6348.93 6824.53 4332.64 4422.23 5232.16 4820.68 6031.22 3989.26 5485.84 6424.77 5453.69 5918.95 5689.56 6556.86 3242.31 6099.28 3234.26 5372.25 4169.15 4778.37 5134.17 4074.16 4904.35 5592.54 3247.97 5124.34 4904.37 4358.81 4651.64 5729.92 5016.46 6224.13 4761.84 3661.67 5517.65 4009.68 4622.73 3303.49 5256.75 6351.89 5932.28 2960.5 4298.7 4975.32 3902.48 6030.39 4905.53 3799.01 7392.65 5319.1 3757.23 4181.93 6570.43 3350.99 3820.19 4979.5 4745.37 5939.29 5575.11 4052.49 5061.74 5326.03 6189.67 4948.96 5256.82 4013.86 5165.31 4288.5 4585.37 5715.51 3721.69 3456.3 6074.39 5317.83 4256.08 5881.93 2803.01 4444.0 4399.52 6182.19 5327.39 4981.81 4138.59 5141.03 4970.55 4621.33 4541.22 4946.08 4984.01 3539.68 6217.33 4557.1 6270.59 5927.1 6175.27 5876.51 6731.89 4103.76 4733.41 2932.52 5264.83 3901.53 5136.51 6815.51 5313.86 4457.05 5189.91 3618.64 5777.26 5703.84 4335.79 3530.82 5797.32 5432.04 3921.27 3702.45 5265.63 4898.29 4431.06 5730.2 4830.13 3494.16 5370.9 4529.77 4325.13 6172.27 5390.33 5078.73 5278.54 5729.0 5192.92 5275.57 4179.87 4786.66 5891.25 5370.1 5129.4 5114.51 4655.37 5585.25 5023.61 4672.86 6530.78 5560.23 3043.77 5237.55 3909.94 5088.64 6589.8 6920.92 3729.16 3038.91 3783.36 3922.28 3445.92 5236.69 4586.82 6026.04 6200.05 5859.17 4034.41 5522.34 5771.98 4420.35 5717.45 5117.83 5268.27 4645.93 5448.64 6417.61 5395.12 5783.69 5350.9 3483.61 6738.9 4460.89 4157.1 4554.24 3939.96 5910.66 7415.84 4637.3 4840.44 8123.59 5765.14 4767.54 5121.08 2927.84 4696.03 6177.68 4605.39 2848.44 6045.26 6500.45 4907.55 4286.61 4094.63 4603.66 4969.68 6636.43 5431.14 6298.8 3689.24 5178.07 5151.19 4171.02 7012.36 5028.06 4886.99 4002.99 5159.67 3161.1 5764.52 5684.88 6523.78 4645.86 4045.67 5620.88 4941.52 5900.0 4262.74 6241.77 3783.79 5317.19 4248.14 5279.19 4016.6 5821.49 7050.08 5580.44 5998.13 5095.52 4746.15 3720.38 4758.84 4731.37 4068.41 3976.0 6463.71 5059.37 4139.39 5783.38 6264.03 3562.8 4151.74 5192.82 4174.22 3573.84 4067.89 6294.09 4571.57 5131.07 4121.07 5524.28 3133.28 5731.43 6353.81 4150.44 3518.14 5044.68 2649.69 5899.78 5000.74 5772.57 4813.81 5244.95 4634.25 5901.8 6351.48 3830.7 6210.0 5432.4 4262.52 5992.06 8052.53 4867.12 6044.01 6520.19 1458.87 5734.07 3997.68 6241.48 6033.28 4819.83 4801.16 5071.38 5616.66 5688.77 4698.7 5368.28 6229.64 4220.43 6263.87 5743.8 6666.34 5084.76 6605.11 4757.87 3557.46 5971.95 5652.73 3979.46 6321.97 6509.54 6119.0 3792.06 4293.3 5128.59 5587.3 3572.73 4864.38 3770.22 4390.64 5150.84 4608.01 5087.97 6005.95 4308.49 4930.17 4581.1 4745.44 4085.96 5762.82 7360.12 6223.98 5462.6 5617.29 3035.06 4262.19 4597.88 4878.93 6275.25 6892.33 4505.3 4452.36 4832.21 4511.34 5009.21 4742.35 5394.79 5645.54 5264.08 4227.66 4526.87 4691.01 4594.89 5245.95 5821.42 4515.02 3463.53 6126.03 2970.24 6044.69 4197.87 5105.54 5462.1 3414.67 6032.45 5444.36 4026.03 6908.32 3467.11 4817.75 6153.26 5637.53 3882.37 4095.4 5188.57 3873.79 5357.33 5252.37 4499.54 5037.58 7430.48 5545.68 6080.69 4970.12 4967.93 6369.66 5973.57 5922.62 5125.45 5957.82 6286.27 6327.54 5507.07 4802.36 5466.13 5327.71 5257.38 5075.23 4975.56 7282.36 3826.01 4645.91 5581.01 6834.92 6379.33 5130.57 5090.48 5402.45 3985.93 6412.84 2589.19 6071.59 6079.55 5485.61 4993.49 5310.33 6583.37 3688.83 3402.44 4848.98 4491.96 5184.98 4467.51 5339.82 4519.03 5460.57 5110.27 5703.34 4612.68 6668.98 6649.52 4232.33 4939.56 4747.68 5770.92 3093.38 4845.91 2002.78 5631.32 6322.0 5793.14 4491.26 4609.65 5704.61 5410.73 4379.91 4574.03 5290.37 5850.38 7066.26 4730.97 3677.85 5214.71 4677.84 4924.52 4811.11 4866.8 5658.05 6593.1 4000.51 6033.93 5011.37 2827.92 5092.44 4441.44 4232.44 5336.61 5563.09 4848.15 4439.09 5523.81 4718.61 6697.45 5717.67 5515.59 3224.81 3775.38 4046.22 6457.89 5640.67 6572.17 3751.73 5555.89 4766.47 4871.1 5678.08 4414.09 5191.29 3784.68 4188.16 3717.22 4654.92 2943.17 4880.78 5286.55 4322.56 5509.09 5625.02 5212.05 4829.77 3928.99 4444.92 6959.88 4125.75 5749.53 5247.73 5034.02 5582.28 5945.25 5181.31 3856.4 4696.06 4137.16 4937.36 5308.4 6581.13 4569.32 5537.61 6084.88 4397.06 4199.44 4053.12 4479.5 6261.67 3435.13 5065.78 4431.46 4521.42 3207.84 3977.98 6043.34 4128.93 4959.72 4712.17 3808.04 4723.71 4461.67 6126.5 4405.61 4034.88 6007.1 6345.2 5488.96 5128.03 3720.92 5087.3 4942.63 6139.74 4975.57 6150.31 3057.3 5873.62 4996.91 5379.52 3920.44 3768.62 5314.67 5563.47 5651.46 4066.36 3162.27 5516.37 5432.2 4612.4 3312.3 4746.19 6381.58 3282.57 4798.13 5648.59 4630.5 6296.36 4432.32 4451.76 7885.41 5782.25 4104.97 4844.2 4575.72 5114.61 6118.13 3374.62 4926.62 3917.09 6009.93 5872.45 5270.1 5130.56 4947.64 6305.9 6649.21 3470.69 4859.95 4132.08 5522.18 5223.1 3873.72 4592.49 3625.98 5479.86 6474.5 4702.32 4763.04 5971.9 3746.62 4532.67 4876.37 4769.62 5260.13 4649.5 4810.74 5985.75 5475.83 6189.29 5984.55 5672.46 5803.3 3228.27 4721.98 5252.82 3543.98 4142.1 5056.26 5878.55 4014.44 6604.72 6002.77 3794.47 4610.55 4967.02 4614.49 5400.69 4462.5 5573.31 5004.68 4023.88 3488.34 5348.11 5428.24 5108.84 3511.5 4582.12 5067.92 4520.14 5357.14 3188.21 5919.27 4793.06 6637.38 6188.33 6111.23 6916.18 5786.06 4137.41 3868.69 5447.74 4450.51 6033.72 3692.99 3851.47 4966.74 4959.94 2329.93 1635.31 5639.4 6185.73 4083.24 6520.96 3771.91 5217.62 3839.0 6178.19 4616.81 5715.25 5212.2 4362.94 4611.21 5108.42 3354.94 4404.87 5237.27 5767.65 4750.76 4907.03 5497.27 4081.77 4948.21 2181.29 4987.01 4420.3 4202.12 6332.64 6492.44 4083.1 4613.32 3482.73 3996.93 4957.99 4063.26 4997.89 4542.62 5093.28 6131.52 6009.88 4699.77 4850.49 4981.55 5144.23 6188.62 6153.07 4414.06 5944.52 4413.56 5050.2 2513.38 5316.05 4908.32 3995.08 5019.84 3900.93 5784.38 4149.17 4329.8 5728.27 3074.49 5202.33 3956.24 7558.99 3393.59 5043.14 5333.04 5445.91 4521.99 4812.59 6842.54 7115.67 5675.45 3361.11 6038.56 2807.46 5599.16 4179.8 5658.35 4487.51 5886.81 4295.25 7394.47 4729.45 4850.95 5374.09 6271.22 3421.81 5378.75 3920.64 6186.24 5822.7 3780.07 5466.49 4038.17 5007.41 4907.48 6213.74 4369.87 6938.87 5412.07 5512.57 4806.99 4813.55 5856.43 3465.03 5349.85 5799.86 5172.1 4469.82 6545.78 4870.14 2932.2 5105.72 5003.49 3964.03 4216.33 5832.72 5617.91 4721.2 4706.31 2694.25 6265.48 4735.99 4203.68 4739.56 5145.39 3352.46 6351.95 5195.09 5345.05 7679.2 4881.51 2626.41 4311.92 6729.99 5093.41 6842.35 5464.34 3621.63 4777.96 5801.89 5908.57 7296.47 5742.39 4821.41 4924.53 5616.11 4499.52 4028.13 3874.12 4457.73 6476.35 6260.58 4067.24 3053.19 6571.26 5580.95 3549.92 6598.99 4032.06 5246.81 5089.1 5888.95 5394.78 3463.34 5122.38 2853.68 5262.85 4998.37 5329.84 6559.82 3879.83 6565.95 4577.98 5043.34 4246.24 6805.02 5354.48 5640.63 4900.26 6261.13 4167.55 4720.34 5244.47 5510.89 4731.16 6470.87 4495.33 4131.08 5282.67 4159.89 5747.9 5178.55 5146.69 6203.24 6818.23 4488.41 6679.12 5652.19 5806.74 6578.62 6284.12 4796.04 5229.56 6011.4 4672.34 6052.22 5376.41 5003.63 4695.7 4747.24 4944.08 4082.01 5269.39 4305.35 5210.22 2451.27 3903.9 4444.95 5161.02 3124.49 5003.81 6262.18 3818.37 4701.03 6225.05 5434.04 5200.1 3997.52 4444.54 5779.9 4909.74 5310.33 5299.03 6664.54 5161.73 3922.98 5259.48 5254.93 4803.4 6833.5 6608.94 2613.78 4780.16 3834.01 5738.37 4433.23 4813.24 5759.19 5847.27 3113.64 4490.2 4304.75 5480.86 6139.9 4720.22 4313.38 5827.3 5250.56 3633.58 2468.16 6294.14 4339.97 5203.75 5169.09 4691.15 2459.88 4210.24 5470.67 5901.71 5225.11 5342.9 5252.22 5733.12 4962.35 6436.29 5402.81 4600.81 4328.76 4919.13 5168.97 4124.33 5783.88 5002.38 6705.93 4865.11 5449.09 5502.14 4605.61 4465.56 5386.95 3864.19 4287.93 5332.11 5315.71 6158.93 5081.65 4823.14 5438.5 4621.32 5699.4 3878.8 4698.94 3948.21 4286.84 5669.15 5296.05 5263.86 3330.85 5056.32 5533.52 5410.33 5302.53 4380.86 5576.16 5648.02 3308.75 4604.34 4439.17 5677.42 4929.35 5606.22 3943.77 5242.38 6081.35 5459.52 4609.98 5566.5 5663.36 4276.59 5579.04 5125.53 5994.21 5403.81 5082.25 6964.78 4374.05 5036.84 4565.36 5813.68 4025.08 4008.67 3618.53 4770.21 8013.28 3846.55 3796.73 5417.07 3082.16 5656.84 6789.66 4739.41 5312.2 4706.59 5734.84 3982.31 4950.07 4582.24 2832.83 4084.87 6036.99 3010.1 3825.98 4589.22 5087.03 4667.84 3906.41 5584.64 4123.08 4512.6 4260.38 4636.45 4932.27 5638.51 6793.49 3563.33 6060.19 5536.0 6786.37 4333.23 5561.63 5940.5 4358.06 5093.51 5647.93 4280.92 6201.49 5154.74 4696.92 6437.99 6898.8 6540.57 4893.72 6004.72 4072.4 5373.78 5345.65 4489.18 5863.36 4632.75 5237.76 4994.98 6423.96 6058.13 5894.69 6988.4 6635.51 4060.17 6051.35 4909.13 4287.61 3999.81 4867.13 6377.45 4863.27 2701.42 5442.79 5051.39 6673.92 5151.68 4884.94 5362.15 4455.61 4738.72 4752.31 5240.97 5569.85 5405.6 3929.35 4884.93 4759.38 6960.97 4287.15 5282.51 5504.65 5669.41 5732.11 5040.9 5596.68 4868.66 4004.39 5159.9 5283.65 4644.68 2892.36 5981.54 5911.29 5416.41 4694.27 6760.64 2515.5 5177.88 5551.79 6981.47 3916.15 4474.96 4758.76 4790.63 5259.29 3584.05 4916.75 4818.53 5097.85 6189.04 6224.64 4221.03 3799.55 5082.66 4550.77 4337.93 3550.88 5201.3 4345.51 4048.73 6223.33 3860.8 5145.13 3747.96 5611.29 4521.88 6568.45 5004.22 4601.54 7263.57 5705.96 3832.09 5267.65 5739.69 6632.04 5360.88 7360.62 4977.64 4985.45 4983.56 5699.51 2489.44 5499.37 4883.13 4836.76 4752.94 5551.09 3950.53 4501.1 5581.47 4384.91 6550.61 4987.01 4713.56 6094.34 6779.82 5543.67 6210.48 4182.05 4502.12 3255.93 6853.07 6327.61 4633.59 5733.59 5575.8 5268.93 3695.72 6874.6 5106.9 5306.31 5523.96 4223.53 4733.37 4535.94 3037.72 4523.9 5126.08 5604.0 3760.4 4951.02 3919.47 4602.7 3783.35 4037.16 6395.63 4987.48 5943.61 4248.58 5479.17 4542.25 5020.37 4414.23 5233.88 4849.21 4785.55 3793.83 5245.4 6189.81 5367.05 4449.73 5647.11 4088.72 3945.62 3743.85 6236.46 5342.17 6379.3 5015.67 3795.63 5189.4 4576.71 6538.04 4894.15 6157.59 5848.41 4090.28 4246.83 5438.6 7370.52 4726.5 5467.05 3724.23 5103.3 4963.88 5888.94 4727.98 5175.88 4122.2 4516.26 4790.16 3509.34 3731.58 3647.26 3166.37 5369.42 5207.08 5205.53 4714.52 4587.19 5543.05 6028.89 5333.16 4888.17 5755.98 5392.85 5077.2 4274.05 5275.27 4277.54 5529.09 4531.46 5925.82 5448.68 4739.5 4072.95 4491.62 3865.5 
SCALARS Velocity float 1
LOOKUP_TABLE default
1.33071 1.56044 1.51089 1.04854 1.04345 1.03083 1.85064 1.51389 1.56239 1.34895 1.30141 1.2315 1.24373 1.21256 1.22314 1.21067 1.19178 1.19682 1.19999 1.19534 1.19563 1.19367 1.19248 1.19398 1.19741 1.211 1.19488 1.19662 1.20393 1.20611 1.25566 1.36068 1.33869 1.59317 1.38621 1.55381 1.43317 0.876398 1.53168 0.992833 1.151 1.18429 1.19467 1.18174 1.0665 1.88656 1.82617 1.41654 1.95372 1.25335 1.28779 1.23714 1.2257 1.4621 1.44832 1.31604 1.31989 1.19282 1.34291 1.28422 1.22971 1.25456 1.22079 1.22763 1.2208 1.19178 1.18871 1.19422 1.20456 1.19173 1.20224 1.19178 1.19172 1.19567 1.19307 1.19187 1.19307 1.19193 1.19132 1.19181 1.19825 1.19589 1.20466 1.18581 1.19443 1.20712 1.19179 1.20865 1.21744 1.25307 1.14098 1.17961 1.2859 1.2111 1.25719 1.33429 1.33315 1.35745 1.35635 1.32348 1.82061 1.57135 1.29692 1.31779 1.27728 1.27374 1.17226 1.17668 1.38129 1.17958 1.0546 1.13166 1.05531 1.33312 1.21865 1.21668 1.33478 1.16273 1.02375 1.08993 1.54602 0.854539 1.33899 1.57151 1.65899 1.5229 1.28678 1.27073 1.19075 1.35063 1.22504 1.33444 1.26738 1.23899 1.19771 1.222 1.22169 1.18711 1.19915 1.18877 1.19267 1.20188 1.18863 1.19928 1.19959 1.19585 1.19149 1.19635 1.19609 1.19813 1.1921 1.19159 1.19212 1.19874 1.19585 1.19413 1.18841 1.19178 1.20687 1.20339 1.20082 1.20047 1.20808 1.21046 1.21615 1.22085 1.2232 1.26319 1.19178 1.24174 1.21072 1.21146 1.28891 1.15397 1.37041 1.27223 1.54043 1.4189 1.37495 1.48914 1.33844 1.25944 1.20077 1.12067 1.11896 1.15591 1.05405 0.99865 1.04286 1.03664 0.599186 1.3851 1.10035 1.09139 1.25007 1.1496 1.16116 1.11998 1.15715 1.11782 1.43808 1.63955 1.29155 1.39231 1.24935 1.34732 1.21304 1.37936 1.22351 1.27168 1.39111 1.23444 1.30762 1.30469 1.24235 1.24445 1.25875 1.22231 1.21379 1.18762 1.21543 1.21873 1.19178 1.20298 1.19957 1.19624 1.1931 1.19782 1.19152 1.19342 1.19573 1.19799 1.19318 1.19277 1.19325 1.20083 1.18857 1.20861 1.17115 1.18873 1.21192 1.21655 1.22574 1.2273 1.16642 1.28082 1.23713 1.2094 1.28362 1.35169 1.22548 1.32212 1.38043 1.21281 1.40608 1.33262 1.19983 1.15444 1.0519 1.15191 1.0673 1.02729 1.02319 1.02063 1.04864 1.0742 0.77116 0.779283 0.746413 0.698427 0.9743 1.06914 1.04037 1.05083 1.08895 1.10286 1.10119 1.08971 1.12906 1.69313 1.00949 0.94925 1.20336 1.37389 1.22731 1.23729 1.33574 1.38122 1.19842 1.24691 1.19932 1.21167 1.19965 1.2246 1.22122 1.2181 1.21629 1.22124 1.19185 1.18353 1.19541 1.17584 1.19946 1.19337 1.19583 1.18263 1.19707 1.19133 1.19044 1.19287 1.1935 1.20609 1.19613 1.19355 1.1975 1.18935 1.18137 1.21482 1.19195 1.19178 1.19178 1.19178 1.1679 1.18849 1.24311 1.22388 1.21384 1.21016 1.20837 1.17094 1.18635 1.2923 1.15227 1.10421 1.29597 1.33557 1.1839 0.966994 1.15153 1.37637 1.29095 1.29135 1.14883 1.14328 1.19664 1.19052 1.28076 1.16337 1.18778 1.43591 1.06972 1.11211 1.10428 1.02026 0.809985 0.803157 0.88626 0.934502 0.940096 0.927916 1.17241 1.06094 1.06421 1.08091 1.05406 1.08612 1.2273 1.44157 1.17888 1.21884 1.22128 1.20266 1.29513 1.26517 1.35344 1.32621 1.23772 1.21092 1.24001 1.23313 1.1474 1.15426 1.20201 1.22014 1.21078 1.18419 1.19776 1.18929 1.18081 1.19581 1.19355 1.19156 1.1981 1.19401 1.19339 1.19386 1.19358 1.19645 1.19495 1.18936 1.19572 1.18944 1.20133 1.19747 1.19575 1.19265 1.24955 1.21856 1.22571 1.24467 1.1214 1.28847 1.22656 1.38124 1.16062 1.00783 1.10179 1.29735 1.23353 1.2197 1.36423 1.36826 1.15522 1.19397 1.03143 0.870853 0.786473 0.877348 1.01491 1.11336 1.01877 1.19838 0.994348 0.81686 0.859087 0.866944 0.873678 0.859729 0.863848 0.790475 0.965393 1.00369 1.01437 1.03984 1.05879 1.03477 1.02666 1.22735 1.2368 1.20544 1.32012 1.18347 1.23979 1.11676 0.980255 1.23355 1.3377 1.27018 1.36807 1.05808 1.24636 1.22901 1.32106 1.24827 1.12989 1.18841 1.19346 1.19479 1.22082 1.22326 1.21159 1.1851 1.18535 1.18798 1.18143 1.19471 1.19188 1.1886 1.19447 1.1856 1.19568 1.20351 1.19448 1.19646 1.19569 1.18702 1.18264 1.20169 1.19941 1.20149 1.20464 1.15694 1.1835 1.25584 1.22347 1.22486 1.22024 1.17048 1.14182 1.19535 1.16605 1.2364 1.25826 1.09237 0.897953 1.12925 1.17833 1.18296 1.04086 0.923881 0.975787 0.912246 0.954166 0.933776 0.860387 0.99181 0.882302 1.09973 0.725749 1.20632 0.917232 0.724106 0.667201 0.846179 0.833751 0.836479 0.844623 0.854578 0.863585 0.785089 0.644173 1.24141 1.1321 1.0473 1.04113 1.07666 1.05902 1.13071 1.2046 1.20748 1.13529 1.09188 1.05553 0.997379 0.938923 1.36551 1.24559 1.16488 1.17208 1.38202 1.06632 1.10203 1.31916 1.29791 1.23992 1.12182 1.15638 1.20145 1.17073 1.23185 1.19306 1.17414 1.18402 1.2057 1.19393 1.19206 1.18874 1.18857 1.18913 1.19661 1.1897 1.19666 1.18875 1.19292 1.19596 1.19563 1.19656 1.18739 1.19883 1.19614 1.22045 1.18723 1.20905 1.16636 1.15178 1.25345 1.2207 1.21659 1.10864 1.10631 1.23472 1.10783 1.15863 1.16924 1.2247 1.18075 1.29016 1.00578 1.18904 1.18946 1.18211 1.11182 1.17039 1.09856 1.02815 0.933613 1.0116 0.926023 0.979519 0.928634 0.90225 0.914218 0.942453 1.09755 1.04042 1.15838 1.27876 1.14509 0.778449 0.721194 0.990671 0.677461 0.833999 0.835613 0.833491 0.840192 0.830927 0.818055 0.813109 0.804869 0.777432 0.839549 0.852121 1.0823 0.898545 0.991331 0.857112 1.10422 1.12124 1.04303 1.14225 0.982009 1.07252 1.00005 0.869282 1.40763 1.26869 1.05881 1.14472 1.08409 1.29213 1.19616 1.2293 1.17011 1.18204 1.16825 1.18308 1.23552 1.15454 1.21377 1.21506 1.19128 1.17379 1.20549 1.1908 1.19068 1.18937 1.18923 1.1894 1.19178 1.19137 1.19674 1.18927 1.19403 1.19506 1.19584 1.19014 1.19854 1.19742 1.19558 1.19549 1.22052 1.17306 1.18444 1.15464 1.21433 1.16162 1.23359 1.19811 1.13374 1.38241 1.13676 1.14264 1.20525 1.15072 1.17064 1.20351 1.23796 1.14011 1.30873 0.889704 1.17898 1.24598 1.18703 1.24746 1.12978 1.0814 0.996971 0.930054 0.956942 0.909692 0.904577 0.90081 0.931153 0.892731 0.954555 0.954698 1.29659 1.01359 0.904492 0.856798 0.807101 0.69158 0.67734 0.831629 0.822193 0.8208 0.822537 0.781247 0.795385 0.798429 0.821571 0.856567 0.894783 1.02289 0.906536 0.719035 0.940787 0.826469 1.03286 0.950055 0.952382 0.956572 0.903093 1.06103 1.09616 1.13647 1.06981 1.02388 1.03299 1.04229 0.963698 1.19112 1.18069 1.21665 1.12356 1.10087 1.19026 1.25799 1.24295 1.17437 1.18974 1.19455 1.1597 1.18679 1.18029 1.18604 1.19504 1.18975 1.18732 1.19628 1.19092 1.18866 1.20198 1.18849 1.18385 1.19719 1.19162 1.19424 1.19461 1.19464 1.19433 1.19064 1.19537 1.19933 1.19809 1.19428 1.20937 1.18099 1.19734 1.16179 1.18553 1.22748 1.20547 1.23363 1.20909 1.17633 1.15329 1.20044 1.27971 1.23728 0.850116 1.20427 1.07903 1.22562 1.10814 1.08342 1.05341 1.02455 0.945269 0.917778 0.914226 0.922545 0.962488 0.948033 1.04753 1.36872 0.898478 0.324107 0.312435 0.655365 0.184556 0.708117 0.708697 0.784359 0.712064 0.696815 0.84295 0.826821 0.787772 0.798829 0.757126 0.780949 0.747957 0.786852 0.750406 0.754925 0.822832 0.797778 0.829782 0.812887 0.84356 0.860275 0.90744 0.707081 1.09813 1.04268 0.955256 0.922607 0.944548 1.09558 1.10184 1.18366 1.03809 1.05351 1.06125 1.02593 1.06982 1.22043 1.23055 1.12125 1.1183 1.0708 1.18026 1.08217 1.20574 1.15715 1.21229 1.17473 1.17862 1.18814 1.17329 1.18118 1.19179 1.19148 1.18595 1.19202 1.18912 1.19514 1.20207 1.18318 1.19348 1.19229 1.19667 1.1907 1.19349 1.19217 1.19406 1.19477 1.19452 1.19594 1.20108 1.19544 1.19627 1.21452 1.1998 1.18065 1.19897 1.18062 1.18147 1.17599 1.21292 1.14085 1.22191 1.18617 1.15681 1.18061 1.21609 1.26883 1.19117 0.964099 1.33069 1.1756 1.10241 1.13575 1.06024 1.05501 1.09475 1.10829 1.05007 1.0084 1.00075 0.877854 0.902963 1.02759 1.03408 1.30333 1.19181 1.40458 0.775622 0.646651 0.759208 0.701487 0.696699 0.717 0.688297 0.709074 0.713751 0.718994 0.752361 0.790633 0.793684 0.817014 0.661698 0.6511 0.750776 0.655503 0.687486 0.720721 0.715344 0.715556 0.714024 0.742601 0.765961 0.787302 0.811971 0.818336 0.82237 0.779382 1.2535 0.978271 0.90426 0.923958 1.1891 1.15213 1.03143 1.07545 1.05815 1.06221 1.05701 1.0615 1.06124 1.08545 1.22343 1.12923 1.22666 1.07817 1.12956 1.16978 1.18621 1.20155 1.13569 1.17191 1.18361 1.19196 1.19382 1.1869 1.19902 1.18709 1.19178 1.18264 1.18285 1.20608 1.18999 1.1925 1.19595 1.18983 1.192 1.19283 1.19178 1.19328 1.19476 1.19445 1.19576 1.20295 1.1946 1.19555 1.19644 1.1975 1.1605 1.21541 1.1582 1.18839 1.22524 1.12601 1.19765 1.19452 1.19617 1.14449 1.16292 1.19401 1.24866 1.25424 1.03122 0.902562 1.13138 1.14183 1.17587 1.14648 1.14331 1.05248 1.12807 1.04748 1.01357 0.849372 0.904338 1.05645 1.00008 1.44601 1.01301 0.988283 1.04245 0.686918 0.668219 0.648015 0.727625 0.667775 0.726871 0.730244 0.742419 0.749863 0.763666 0.787083 0.877235 0.946083 0.567505 0.687112 0.722138 0.678571 0.680004 0.708326 0.721708 0.704017 0.705681 0.758123 0.831122 0.828761 0.855952 0.864339 0.974439 1.10261 0.996206 0.947487 0.821659 0.862196 1.10513 0.993978 1.03908 1.08917 1.07853 1.05629 1.07101 1.16522 1.23147 1.20604 1.08316 1.11982 1.14442 1.20249 1.19692 1.15523 1.18969 1.18681 1.17707 1.18588 1.17982 1.1984 1.1856 1.19443 1.18614 1.17777 1.19836 1.18585 1.20675 1.19498 1.19577 1.19431 1.19178 1.19178 1.19371 1.19451 1.19638 1.19211 1.19651 1.20871 1.22926 1.21911 1.16129 1.15572 1.19392 1.12214 1.21492 1.19985 1.13779 1.20018 1.16591 1.14774 1.25829 1.25184 0.955692 1.01584 0.860265 1.093 1.04968 1.1149 1.00143 1.12549 0.968355 0.897336 0.804343 0.820917 0.872999 0.825734 0.832325 1.66013 1.24041 0.516472 0.885541 0.704709 0.739772 0.907259 0.851341 0.766803 0.703094 0.661018 0.709626 0.759184 0.77625 0.754291 0.713282 0.756743 0.741385 0.750434 0.785665 0.794795 0.924373 1.16519 1.22512 0.534645 0.584132 0.733142 0.773067 0.707403 0.664898 0.747745 0.719086 0.721001 0.695396 0.668443 0.790805 0.904194 0.881374 0.941056 1.01418 1.01008 0.910019 0.887465 0.915665 0.828938 0.88193 1.00902 1.13069 1.02998 1.07412 1.09735 1.07045 1.07074 1.23856 1.18133 1.02839 0.982369 1.08672 1.14973 1.15639 1.14204 1.20622 1.19514 1.18685 1.16509 1.16647 1.18014 1.1787 1.20247 1.18592 1.19379 1.20986 1.18506 1.19315 1.18387 1.19313 1.19508 1.19634 1.19489 1.19133 1.19358 1.19391 1.18538 1.19167 1.18405 1.1832 1.1963 1.21671 1.18558 1.17795 1.17625 1.15887 1.18721 1.21619 1.20466 1.20025 1.16467 1.15467 1.15529 1.26609 1.02358 1.14319 1.19023 0.889603 0.805441 1.02949 1.04467 1.07169 0.986831 1.06769 1.10364 0.987998 0.878304 0.854322 0.825867 0.746789 0.845985 0.702387 1.00934 1.0097 0.524359 0.721377 0.875719 0.747696 0.667981 0.675155 0.682965 0.738555 0.860406 0.747144 0.726457 0.543176 0.728137 0.681806 0.633151 0.522632 0.497824 2.60242 0.649915 0.537382 0.764273 0.63078 0.720629 0.681654 0.683726 0.747354 0.647631 0.700176 0.679433 0.515301 0.872632 0.675633 0.651395 0.669171 0.931805 0.922462 0.794956 0.794332 0.966685 0.873794 0.885454 0.891168 0.812078 0.970946 1.04123 1.14386 1.03935 1.20899 1.10182 1.0935 1.05475 1.05625 1.17307 1.14825 1.13109 1.086 1.21873 1.20791 1.17376 1.1702 1.16374 1.18141 1.17659 1.17612 1.17499 1.19889 1.20097 1.19863 1.19567 1.18469 1.19241 1.1947 1.1964 1.19479 1.19135 1.1913 1.19225 1.19365 1.19272 1.19434 1.19166 1.19658 1.18876 1.18995 1.18339 1.18796 1.21827 1.20033 1.18149 1.18414 1.17863 1.20873 1.18339 1.15893 1.1569 1.18454 1.18811 1.19788 0.874822 0.850485 1.03723 1.02316 1.08984 1.06445 1.04433 1.08071 1.08894 0.970832 0.993514 0.913309 0.951551 0.876191 0.867177 0.851893 0.894825 0.973329 1.21956 0.786845 0.686163 0.698399 0.938167 0.915472 0.65717 0.571732 0.84486 0.758635 0.423619 0.654021 0.809663 0.382098 0.265789 0.643017 0.623453 0.729433 0.766446 0.683388 0.774956 0.632775 0.666161 0.60872 0.679045 0.594472 0.948652 1.03455 1.01451 0.88998 0.863922 0.803913 0.86729 0.82638 0.794996 0.780809 0.774564 0.777073 0.859341 0.843131 0.859946 0.898562 1.04987 0.897013 1.079 1.11096 1.06388 1.19529 1.09387 1.05247 1.01283 1.10239 1.01141 1.12358 1.15556 1.1977 1.19178 1.10479 1.19533 1.12224 1.13874 1.17765 1.17884 1.19936 1.2015 1.18135 1.15914 1.19823 1.19631 1.18724 1.16396 1.18901 1.20406 1.19989 1.19491 1.19109 1.19185 1.19178 1.19628 1.19488 1.19167 1.19292 1.19455 1.19285 1.19301 1.19344 1.19375 1.19489 1.19223 1.18694 1.18588 1.18572 1.19342 1.21076 1.15479 1.15149 1.19932 1.15658 1.16915 1.1815 1.12249 1.20444 1.12578 1.15873 1.16216 1.16675 1.17844 1.18275 1.20886 1.19883 0.898439 1.16311 1.10307 1.06433 1.06308 1.07337 1.08808 0.975325 0.983689 1.00329 0.869691 0.930978 1.10043 0.712906 0.722388 0.884146 0.694142 1.44053 0.843188 0.757112 0.647567 0.657511 0.545304 0.569017 0.505057 0.577914 0.889539 0.648215 0.784015 1.09096 0.844372 0.672903 0.954462 0.63042 0.676633 0.643675 0.460687 1.01432 0.948888 0.869261 0.834191 0.795892 0.778735 0.770346 0.881173 0.907566 1.04922 1.13723 1.02394 1.04712 1.03896 1.13402 1.20213 1.07987 1.11206 1.06143 1.05421 1.02052 1.05956 1.17333 1.24512 1.08265 1.18967 1.15905 1.13158 1.13611 1.19984 1.22135 1.08969 1.19506 1.18278 1.17431 1.19012 1.17669 1.19913 1.19371 1.19221 1.19342 1.19401 1.19519 1.19446 1.19263 1.19455 1.19509 1.18764 1.18723 1.19471 1.1886 1.18626 1.1943 1.21027 1.19599 1.20107 1.17249 1.16089 1.18498 1.1792 1.13958 1.15462 1.17791 1.19399 1.17862 1.17 1.12483 1.0408 0.946619 0.827555 1.09415 1.13781 1.11373 1.06134 1.07209 1.06292 1.02492 0.950711 0.968446 0.834943 0.843668 0.905691 1.07804 0.700063 0.86608 0.891964 1.20418 1.05015 0.925085 1.05175 0.752353 0.759391 0.687646 0.547811 0.715264 0.746541 0.857461 0.882022 0.726228 0.893283 0.911041 0.891738 0.659044 0.639369 0.680649 0.744188 0.687686 1.07943 1.01091 0.965544 0.891228 0.718286 0.804081 0.8094 0.785307 0.914137 0.888756 0.909127 1.02826 1.10858 1.1013 1.05199 1.04065 1.03931 1.1093 1.09149 1.09121 1.13314 1.25253 1.12735 1.11113 1.14617 1.15734 1.23202 1.16477 1.19656 1.17526 1.19345 1.1929 1.18076 1.17951 1.17741 1.18513 1.19621 1.17623 1.19178 1.19804 1.19156 1.19174 1.19443 1.19851 1.19087 1.19587 1.19404 1.19182 1.19437 1.1969 1.18901 1.19267 1.18938 1.18617 1.19439 1.21049 1.19855 1.16588 1.17554 1.16274 1.18396 1.1795 1.13629 1.14645 1.36903 1.1684 1.16634 1.15368 1.15696 1.19402 1.08924 0.876877 1.06228 1.00995 1.06627 1.24079 1.07601 1.25683 1.04014 1.04627 0.948501 0.927442 0.836319 0.833831 0.811677 0.827955 0.834937 1.0197 0.702084 0.784382 0.938537 0.933274 0.958206 0.97145 0.819739 0.917544 0.806121 0.754332 0.690205 0.744672 0.878081 0.821356 0.758281 0.99556 0.926006 0.936931 0.958201 0.843098 0.587182 1.13024 0.661226 0.582364 0.752365 0.899558 0.90008 0.969515 0.893633 0.71206 0.83643 0.792908 0.92485 0.880948 0.896952 1.03915 1.07958 1.06697 1.17093 1.06293 1.0974 1.14147 1.11698 1.08605 1.05744 1.08307 1.00074 1.21695 1.26003 1.1067 1.17589 1.18071 1.13369 1.14649 1.16276 1.24439 1.19621 1.17661 1.18788 1.1878 1.1903 1.18141 1.18569 1.19571 1.1959 1.1967 1.19787 1.19188 1.19176 1.19362 1.19809 1.1908 1.19402 1.1978 1.19398 1.19457 1.19361 1.19178 1.18973 1.19238 1.19106 1.1878 1.18661 1.19416 1.21167 1.20223 1.17192 1.16282 1.16412 1.16996 1.17038 1.08632 1.23922 1.20318 1.1547 1.16761 1.16815 1.07422 1.15638 1.18914 1.1296 1.06727 1.08997 1.19427 1.09391 1.07521 0.998273 1.05792 1.06625 1.05647 0.904654 0.85577 0.846016 0.949724 0.967022 0.916912 0.884974 0.94406 0.920578 0.928795 0.94533 0.877111 0.839735 0.777424 0.868489 0.890927 0.915729 0.799216 1.00776 0.974263 0.997365 0.897098 0.899358 0.690978 0.590385 0.963168 0.977421 0.845859 0.845076 0.93283 0.914575 0.899872 0.936224 1.1698 0.729974 0.976212 1.1091 1.10738 1.01016 0.919301 0.796461 1.04318 1.03966 1.04862 1.1184 1.06932 1.12739 1.07435 1.1423 1.06573 1.10279 1.24886 1.19178 1.17426 1.19049 1.19375 1.16824 1.17037 1.1916 1.19178 1.17732 1.18858 1.18587 1.18675 1.19548 1.19776 1.19389 1.193 1.19208 1.19233 1.19343 1.19552 1.19319 1.19063 1.19363 1.19383 1.19097 1.18994 1.19296 1.19106 1.18732 1.18644 1.18961 1.18839 1.17391 1.18432 1.17929 1.17582 1.17279 1.1589 1.18064 1.21292 1.13928 1.14612 1.17825 1.19939 1.1961 1.14134 1.07158 1.18619 1.18139 1.11803 1.19418 0.952473 1.0149 1.02108 1.02337 1.07476 0.89335 0.812844 1.01329 0.977124 0.948196 0.945286 0.915791 0.942466 0.926539 0.912997 0.898271 0.976617 0.90244 0.860871 0.820316 0.912779 0.923632 0.829251 1.0037 0.948195 0.918376 0.775487 1.38344 1.06112 0.896521 0.780887 0.900651 0.928972 0.929577 0.971685 1.03732 1.01971 1.03108 1.03539 1.03012 1.05312 1.05862 1.02067 1.04409 1.13923 1.18844 1.07338 1.16388 1.10926 1.12789 1.05792 1.10565 1.1537 1.08549 1.12845 1.19847 1.1454 1.15951 1.18607 1.17492 1.19586 1.19873 1.18185 1.18158 1.17347 1.18184 1.19036 1.19178 1.18723 1.19532 1.19867 1.19353 1.1931 1.19232 1.19499 1.19465 1.18702 1.18954 1.19227 1.19543 1.19217 1.19523 1.19153 1.18606 1.18738 1.19104 1.18763 1.18807 1.18742 1.19005 1.18925 1.16491 1.18414 1.17691 1.17771 1.15885 1.17462 1.167 1.18256 1.21182 1.16372 1.15396 1.18499 1.13028 1.20388 1.06492 1.07342 1.18361 1.21235 1.22068 1.09164 1.1106 1.0184 1.02108 1.00341 1.05064 1.04316 1.25594 1.09149 0.97428 0.852935 0.883269 0.9533 0.956358 0.965161 1.00938 0.987058 0.929197 0.901088 0.941733 0.969648 0.95004 0.916476 0.862637 0.929222 0.943797 0.861371 0.998934 0.930098 0.848921 0.912272 1.14591 0.943888 0.860819 0.80169 0.660016 0.883674 0.946343 0.991268 1.03224 1.03178 1.20941 1.16225 1.02052 1.09489 1.0161 1.05954 1.02577 1.05108 1.14034 1.13633 1.14936 1.11161 1.14767 1.11799 1.10059 1.19178 1.16955 1.14602 1.17701 1.17979 1.16496 1.1957 1.18868 1.17784 1.18466 1.19194 1.19196 1.19154 1.1875 1.18792 1.19864 1.19404 1.19295 1.19264 1.19798 1.19479 1.19178 1.19003 1.18675 1.18943 1.19046 1.19291 1.20285 1.1861 1.19098 1.19143 1.18849 1.1887 1.18974 1.19008 1.18624 1.19031 1.18806 1.17268 1.17539 1.1761 1.20809 1.15103 1.16906 1.18138 1.20292 1.12888 1.1475 1.20773 1.21577 1.10006 1.06414 1.06064 1.06201 1.14636 1.1552 1.03336 1.00832 1.17447 1.03089 1.14814 0.883894 0.896949 0.957393 0.967161 1.00534 1.03568 0.947885 0.997463 1.01175 0.973037 1.02241 0.983889 0.955495 0.951015 0.890087 0.984861 0.963578 1.02065 1.12998 1.00555 0.973784 0.944637 0.89232 0.94634 0.944677 1.04242 1.06972 1.05607 1.11945 1.00579 1.09969 0.9947 1.07415 1.08667 1.02168 1.03943 1.15574 1.1645 1.15005 1.13716 1.16479 1.15823 1.15576 1.17769 1.16661 1.19 1.17199 1.18407 1.16552 1.19948 1.18734 1.17905 1.18539 1.19348 1.1927 1.19178 1.19157 1.18949 1.19874 1.19388 1.19282 1.19454 1.19705 1.19396 1.19278 1.19033 1.18997 1.18829 1.20639 1.18664 1.19209 1.18882 1.18855 1.19154 1.1887 1.18915 1.18906 1.18903 1.19134 1.19181 1.19151 1.18958 1.19178 1.1754 1.17758 1.17886 1.18044 1.16523 1.17612 1.15834 1.19115 1.14031 1.16445 1.2076 1.20724 1.10953 1.07105 1.12334 0.968038 0.964067 0.991643 1.11491 1.01708 1.11307 1.31649 1.36058 0.931753 0.99287 1.00683 0.963407 0.978595 1.0074 1.04519 0.983476 1.0267 1.04165 1.04796 1.0516 1.01526 0.980655 0.980066 0.912187 0.980476 1.00934 1.1345 1.09967 1.07799 1.06054 1.10377 0.966875 0.909016 0.943842 0.94696 1.10173 0.99189 1.01678 0.9912 1.05311 1.08555 1.14269 1.07323 1.02583 0.98205 1.06714 1.01135 1.04283 1.17341 1.16574 1.15572 1.13804 1.16119 1.16514 1.17858 1.16005 1.19178 1.19178 1.18525 1.17482 1.16694 1.1908 1.18693 1.18555 1.19759 1.18496 1.19339 1.19281 1.19277 1.1913 1.19725 1.19319 1.192 1.19282 1.1973 1.19402 1.19278 1.19164 1.18961 1.18577 1.18557 1.19398 1.1941 1.18913 1.18897 1.18882 1.18738 1.19088 1.19196 1.19095 1.17705 1.18898 1.178 1.17922 1.17855 1.17346 1.19033 1.1815 1.19139 1.1673 1.16412 1.20231 1.19435 1.12535 1.15335 1.03888 1.09416 1.09157 1.00571 1.08725 1.32756 0.995396 1.0262 1.01913 0.999655 1.03114 0.988304 1.01953 1.03933 1.07916 1.11181 1.04413 1.07762 1.0081 1.33346 0.915133 0.98501 0.971732 0.972757 1.06782 1.11332 1.15111 1.06434 1.02298 1.01448 0.995633 1.10351 1.06656 1.14971 1.08559 1.08079 1.11398 1.11913 1.16858 1.02515 1.14317 1.05458 1.19091 1.17088 1.15651 1.1384 1.16819 1.16369 1.18099 1.16339 1.13778 1.17294 1.18008 1.18192 1.17715 1.18686 1.18571 1.19823 1.19197 1.19311 1.19247 1.19397 1.1916 1.18962 1.19649 1.19279 1.1926 1.19733 1.19401 1.19375 1.19178 1.19238 1.18933 1.18945 1.18534 1.19315 1.19125 1.19226 1.19168 1.18928 1.18868 1.18924 1.18909 1.18844 1.1929 1.19506 1.18983 1.17759 1.18139 1.18019 1.18025 1.17482 1.17801 1.18541 1.19426 1.1842 1.17538 1.19686 1.16734 1.18563 1.13121 1.15284 1.15165 1.15191 1.18962 1.10441 1.03179 1.09287 1.09466 1.18481 1.09702 1.03529 0.985366 1.0119 1.03665 1.01238 1.07304 1.1044 1.13793 1.03056 0.93099 1.02376 0.992145 1.09238 1.06734 1.14797 1.09205 1.01725 1.029 1.06762 1.03703 1.12174 1.27574 1.18864 1.10092 1.11211 1.14439 1.1829 1.19178 1.14013 1.17774 1.17664 1.16032 1.14296 1.19178 1.16822 1.18344 1.16615 1.18285 1.17588 1.1841 1.18302 1.18202 1.17781 1.18794 1.18705 1.20683 1.19015 1.19468 1.19185 1.1918 1.18948 1.1967 1.19518 1.1923 1.19715 1.19396 1.19349 1.19161 1.18861 1.18905 1.18959 1.19257 1.1915 1.19236 1.19144 1.19022 1.18931 1.18853 1.18825 1.18816 1.18858 1.19317 1.19557 1.18899 1.17884 1.19221 1.18235 1.18541 1.17651 1.17833 1.18448 1.18829 1.19028 1.185 1.19365 1.17256 1.18488 1.15202 1.17765 1.18643 1.08768 1.11607 1.14977 1.10777 1.13431 1.05252 1.12068 1.07364 1.02448 0.924242 0.970813 1.06479 1.04111 1.0145 1.1278 1.08835 1.09923 1.08608 1.06092 1.07591 1.13525 1.07949 1.10844 1.08063 1.10568 1.0725 1.08387 1.04652 1.08359 1.08564 1.05728 1.13836 1.12958 1.18769 1.10724 1.12558 1.16581 1.16197 1.19178 1.15013 1.06481 1.06848 1.16672 1.18212 1.19178 1.14981 1.18037 1.18116 1.16001 1.18302 1.18514 1.18641 1.18592 1.1801 1.19234 1.18519 1.17197 1.18557 1.1984 1.19563 1.18204 1.19008 1.19482 1.1874 1.19212 1.19059 1.19713 1.19546 1.19249 1.19423 1.19525 1.19077 1.19079 1.19474 1.19341 1.19045 1.18903 1.1891 1.18224 1.18168 1.19404 1.1885 1.19551 1.19977 1.18983 1.19073 1.18898 1.188 1.19404 1.19568 1.18076 1.19038 1.18343 1.18431 1.17796 1.17899 1.18552 1.18243 1.19046 1.18497 1.18382 1.18043 1.19115 1.1838 1.16269 1.17526 1.15143 1.18709 1.19703 1.13407 1.12442 1.13539 1.07434 1.12123 1.08512 1.05874 1.10114 1.04486 1.12929 1.08858 1.09553 1.09329 1.09428 1.18488 1.06012 1.08202 1.1383 1.12571 1.09514 1.12578 1.15413 1.05142 1.12773 1.13076 1.1905 1.1311 1.12871 1.14579 1.17152 1.12045 1.16283 1.16028 1.15176 1.15185 1.15703 1.1762 1.20823 1.16339 1.17391 1.18543 1.16695 1.19652 1.18431 1.18218 1.18586 1.18727 1.1882 1.19351 1.18589 1.18553 1.19459 1.19439 1.19282 1.1906 1.18711 1.19183 1.19939 1.1915 1.19302 1.19517 1.19164 1.19319 1.19533 1.18877 1.18941 1.18181 1.19523 1.18966 1.19654 1.18414 1.19178 1.18546 1.1886 1.18918 1.18814 1.18665 1.19092 1.19567 1.19621 1.1952 1.19156 1.19178 1.18443 1.1848 1.2112 1.17957 1.18335 1.18129 1.18059 1.18854 1.18302 1.19178 1.18539 1.16508 1.15627 1.18325 1.16694 1.17591 1.18745 1.14464 1.13178 1.13871 1.13664 1.11096 1.08982 1.07753 1.12433 1.1561 1.11396 1.13361 1.1036 1.103 1.10546 1.10372 1.14412 1.1021 1.14439 1.1347 1.12038 1.16704 1.20197 1.08833 1.14138 1.14184 1.19309 1.1433 1.14071 1.19178 1.18033 1.1883 1.16307 1.15406 1.15158 1.16244 1.18781 1.19579 1.15219 1.17849 1.18154 1.18588 1.19381 1.19179 1.19511 1.19056 1.18661 1.18947 1.18621 1.19908 1.18511 1.19199 1.18551 1.18647 1.19048 1.19437 1.18837 1.19352 1.18796 1.19211 1.18618 1.1906 1.19276 1.19155 1.18992 1.19259 1.18775 1.19142 1.19128 1.19178 1.18625 1.18874 1.19067 1.19036 1.19543 1.18946 1.18744 1.19514 1.18773 1.19314 1.19305 1.18788 1.19537 1.19268 1.19673 1.1955 1.19158 1.19198 1.19311 1.1858 1.19178 1.19363 1.18044 1.18188 1.18176 1.18205 1.1865 1.18213 1.19307 1.1792 1.17412 1.1634 1.17722 1.17057 1.1546 1.14727 1.1365 1.13776 1.14297 1.11841 1.11649 1.08525 1.08505 1.11497 1.17077 1.1224 1.14372 1.1103 1.16722 1.12106 1.10342 1.11904 1.115 1.13825 1.11201 1.14137 1.15486 1.14414 1.18292 1.20638 1.12212 1.12757 1.19178 1.19178 1.19178 1.15211 1.19384 1.17304 1.18524 1.16709 1.19178 1.15757 1.19178 1.18991 1.1939 1.18442 1.17641 1.18057 1.19401 1.19179 1.19491 1.19058 1.19346 1.18952 1.18826 1.19289 1.18789 1.21002 1.1935 1.18914 1.19345 1.19005 1.1922 1.18792 1.19101 1.18633 1.19004 1.19293 1.1908 1.19131 1.19095 1.19114 1.18432 1.18727 1.18931 1.19005 1.19477 1.1863 1.19189 1.18709 1.19176 1.19088 1.18626 1.18819 1.19205 1.19547 1.19515 1.19633 1.19266 1.18979 1.19281 1.18572 1.19024 1.19263 1.18697 1.18078 1.18241 1.18531 1.18646 1.18873 1.19215 1.17821 1.1754 1.16392 1.17413 1.16742 1.15783 1.14568 1.14126 1.14864 1.11684 1.13755 1.11046 1.15673 1.03792 1.18736 1.14546 1.1788 1.13368 1.12976 1.11917 1.12878 1.13779 1.14218 1.16146 1.15116 1.19651 1.20282 1.12675 1.15798 1.19009 1.19102 1.17083 1.19178 1.19126 1.18754 1.18487 1.18264 1.1664 1.1611 1.16476 1.18934 1.19271 1.18511 1.18033 1.17932 1.18838 1.19392 1.18922 1.18998 1.1931 1.19033 1.18879 1.19205 1.20066 1.19178 1.19299 1.19093 1.19291 1.1944 1.19127 1.19068 1.18656 1.19025 1.18616 1.18678 1.1902 1.19135 1.18975 1.19041 1.19042 1.1909 1.18441 1.18716 1.18916 1.18819 1.19144 1.1935 1.19487 1.18552 1.1862 1.18412 1.19092 1.18901 1.18821 1.1925 1.18892 1.19534 1.19344 1.1917 1.18703 1.18886 1.18828 1.17978 1.1886 1.1821 1.1919 1.1866 1.18918 1.18841 1.18696 1.18585 1.17732 1.17669 1.17181 1.1744 1.17167 1.15699 1.15083 1.15139 1.1525 1.1538 1.1096 1.15119 1.15173 1.17788 1.16353 1.14923 1.17769 1.14293 1.13429 1.15716 1.12668 1.1514 1.14375 1.1617 1.16692 1.19543 1.19264 1.1411 1.17583 1.19994 1.19193 1.17093 1.18017 1.19274 1.19411 1.18671 1.19178 1.19178 1.17678 1.18767 1.17288 1.19107 1.18799 1.18343 1.18664 1.19255 1.19384 1.19099 1.19237 1.18543 1.18934 1.18877 1.19201 1.20057 1.19504 1.19109 1.19091 1.19238 1.19055 1.18674 1.18618 1.19007 1.18769 1.1874 1.18605 1.19061 1.18974 1.19124 1.19001 1.19107 1.19107 1.19185 1.18711 1.18895 1.18811 1.19105 1.19187 1.19471 1.18558 1.18375 1.1895 1.19232 1.1873 1.18549 1.19223 1.18889 1.19634 1.19219 1.19337 1.18996 1.18946 1.18189 1.18599 1.18715 1.19229 1.18625 1.17902 1.18801 1.18854 1.18893 1.182 1.17243 1.18099 1.17524 1.17501 1.19176 1.15722 1.16275 1.15384 1.15598 1.19178 1.15545 1.16174 1.12129 1.15836 1.17945 1.16984 1.15131 1.17594 1.16452 1.13808 1.1385 1.13394 1.15378 1.14491 1.18159 1.16988 1.17897 1.19855 1.19081 1.14743 1.177 1.1931 1.18946 1.1876 1.19861 1.18831 1.19191 1.19142 1.1888 1.19138 1.18417 1.18946 1.18203 1.18808 1.19044 1.19503 1.18637 1.1914 1.19282 1.19492 1.19285 1.18804 1.18817 1.18904 1.18863 1.19179 1.20182 1.19491 1.19081 1.19133 1.19353 1.19079 1.18631 1.18625 1.19178 1.18803 1.19178 1.18985 1.18935 1.18633 1.19036 1.19097 1.19116 1.18741 1.18948 1.19259 1.19257 1.19667 1.1897 1.19172 1.19383 1.18582 1.19178 1.18961 1.19169 1.18578 1.18438 1.19154 1.18799 1.19061 1.19315 1.19337 1.1898 1.1844 1.19442 1.19225 1.18484 1.19192 1.18637 1.1791 1.1924 1.18962 1.18836 1.18196 1.17265 1.17062 1.1807 1.18072 1.18152 1.18651 1.16666 1.15641 1.16223 1.17522 1.17735 1.1655 1.17427 1.17512 1.17291 1.16052 1.15736 1.14217 1.17024 1.14376 1.15601 1.18996 1.18785 1.18365 1.17908 1.15269 1.15781 1.15743 1.19089 1.18855 1.19193 1.18869 1.19185 1.18989 1.18949 1.18689 1.18844 1.18404 1.18368 1.181 1.19505 1.19862 1.18722 1.19091 1.19344 1.19194 1.19307 1.18704 1.19004 1.19154 1.18822 1.19094 1.18936 1.19286 1.19308 1.19061 1.19303 1.18249 1.18594 1.19608 1.19264 1.18617 1.18972 1.1893 1.1891 1.19171 1.19002 1.18983 1.19332 1.19014 1.1887 1.19067 1.19193 1.18937 1.19119 1.19388 1.18666 1.19306 1.19485 1.19023 1.19285 1.1888 1.18767 1.18629 1.18775 1.19084 1.19269 1.19319 1.19231 1.18985 1.18237 1.19155 1.19245 1.18482 1.19213 1.1873 1.18643 1.18744 1.19178 1.18752 1.18905 1.18605 1.17557 1.18061 1.18261 1.18609 1.18182 1.19032 1.1875 1.1738 1.16466 1.1932 1.18443 1.1689 1.16592 1.20309 1.1844 1.17034 1.17707 1.15714 1.17378 1.15044 1.1697 1.15784 1.18995 1.18507 1.18701 1.18307 1.18929 1.19304 1.19282 1.18544 1.18658 1.19077 1.19113 1.19007 1.18989 1.18738 1.1863 1.18418 1.18417 1.18875 1.19553 1.18816 1.19225 1.18936 1.19251 1.1923 1.19152 1.18909 1.19227 1.19126 1.18902 1.19473 1.19228 1.18943 1.19253 1.1901 1.19276 1.18174 1.18562 1.19586 1.18582 1.18598 1.18933 1.18894 1.18897 1.19163 1.18989 1.18941 1.19325 1.19021 1.18864 1.19024 1.19173 1.18925 1.19031 1.19124 1.19128 1.19312 1.19368 1.18809 1.18635 1.18488 1.18747 1.18985 1.19532 1.1913 1.18844 1.19016 1.18397 1.19257 1.19146 1.19042 1.18663 1.1886 1.18622 1.18687 1.17711 1.18125 1.18897 1.18306 1.18778 1.17477 1.17333 1.16782 1.19525 1.18427 1.16908 1.17478 1.19898 1.20249 1.19477 1.17562 1.17385 1.16947 1.15539 1.15866 1.18977 1.18532 1.18856 1.18542 1.18697 1.19048 1.19419 1.18983 1.18573 1.18962 1.19314 1.19076 1.19208 1.1842 1.18902 1.18876 1.18701 1.19178 1.1859 1.19008 1.18863 1.18899 1.19365 1.18786 1.19119 1.19212 1.19111 1.19178 1.19272 1.19146 1.18843 1.19463 1.19209 1.1892 1.19178 1.18853 1.19116 1.18672 1.19246 1.19516 1.19927 1.18592 1.18604 1.18911 1.18813 1.19254 1.19094 1.18942 1.18843 1.19124 1.19029 1.1883 1.19061 1.19124 1.19178 1.19091 1.18985 1.19011 1.19236 1.19239 1.19398 1.1871 1.19163 1.18728 1.18947 1.19521 1.19145 1.19024 1.18799 1.1893 1.19114 1.18415 1.19073 1.19037 1.18674 1.18769 1.18572 1.18823 1.18902 1.17942 1.18112 1.18474 1.19315 1.18728 1.18815 1.17836 1.17284 1.1863 1.1563 1.1808 1.19202 1.17449 1.17685 1.20032 1.2035 1.19578 1.17933 1.18271 1.18247 1.1704 1.15988 1.16026 1.18966 1.1894 1.18673 1.18436 1.18819 1.19214 1.19838 1.19308 1.19178 1.18753 1.19178 1.19376 1.19045 1.1877 1.19065 1.19051 1.18917 1.18896 1.19021 1.19017 1.18848 1.19009 1.19205 1.19706 1.19088 1.19227 1.19125 1.19235 1.19245 1.19131 1.1882 1.19516 1.19207 1.18914 1.18834 1.18989 1.18765 1.19383 1.19342 1.19446 1.18986 1.19257 1.18867 1.18755 1.18585 1.19075 1.18915 1.18708 1.18763 1.18974 1.18817 1.19183 1.19281 1.18874 1.1906 1.19083 1.18992 1.19234 1.18765 1.18707 1.18783 1.1856 1.18666 1.19157 1.1873 1.18881 1.18985 1.19109 1.19094 1.18866 1.19007 1.19075 1.19083 1.19167 1.19044 1.19065 1.18934 1.18526 1.18811 1.18918 1.18034 1.1784 1.18204 1.18866 1.18437 1.19422 1.18928 1.18524 1.16665 1.18917 1.16905 1.18279 1.17591 1.19899 1.19844 1.19878 1.18931 1.18456 1.18736 1.17872 1.18672 1.1715 1.16518 1.16139 1.18998 1.19034 1.18476 1.18856 1.19234 1.19851 1.19318 1.19318 1.1868 1.18975 1.19317 1.19389 1.18829 1.19184 1.19098 1.19852 1.18905 1.19188 1.19024 1.19256 1.19114 1.18891 1.19403 1.19107 1.19213 1.18928 1.19227 1.19089 1.18945 1.18756 1.19187 1.1928 1.19188 1.1887 1.18885 1.18987 1.1951 1.19424 1.19466 1.19252 1.19078 1.18553 1.18647 1.19196 1.19233 1.18631 1.18746 1.19 1.18907 1.19356 1.18883 1.19085 1.18686 1.1889 1.1893 1.19023 1.18818 1.18733 1.18905 1.18906 1.18463 1.18818 1.18463 1.1907 1.18948 1.18775 1.18799 1.1896 1.19 1.19008 1.19076 1.18999 1.18655 1.1898 1.18382 1.18763 1.19172 1.18543 1.18374 1.18237 1.18435 1.18466 1.18966 1.18497 1.186 1.16938 1.18892 1.18536 1.18333 1.18305 1.18843 1.18971 1.19133 1.19343 1.18192 1.16475 1.18439 1.16959 1.16212 1.19027 1.19044 1.19178 1.1898 1.19088 1.18888 1.18853 1.19405 1.19495 1.19375 1.18942 1.19425 1.19199 1.19484 1.19804 1.18807 1.1891 1.18987 1.19025 1.19219 1.19027 1.1887 1.19211 1.1909 1.19169 1.19279 1.19239 1.18926 1.19185 1.1915 1.18789 1.19061 1.19119 1.19108 1.18967 1.18945 1.18891 1.18857 1.19023 1.19312 1.19178 1.19187 1.19319 1.1909 1.18869 1.18523 1.19621 1.1978 1.18757 1.18936 1.18685 1.18923 1.19384 1.18874 1.19077 1.18674 1.18861 1.18968 1.19016 1.18996 1.18883 1.18871 1.18904 1.18465 1.18471 1.18867 1.19079 1.19193 1.18875 1.18836 1.18985 1.18976 1.19011 1.18998 1.18956 1.18762 1.19206 1.19178 1.1831 1.19058 1.18842 1.18814 1.18905 1.18957 1.19055 1.18494 1.18594 1.17321 1.1889 1.18527 1.18377 1.1882 1.18998 1.18774 1.1825 1.19052 1.18105 1.18653 1.17048 1.16245 1.19046 1.19048 1.19096 1.19023 1.18878 1.18759 1.19356 1.19323 1.18855 1.19449 1.19423 1.19482 1.19279 1.19688 1.19826 1.18899 1.18985 1.1906 1.19209 1.18991 1.19224 1.19229 1.19032 1.18655 1.19198 1.18782 1.18838 1.18908 1.19323 1.19052 1.19082 1.18938 1.18816 1.18838 1.19306 1.19055 1.19139 1.19186 1.19206 1.19022 1.18872 1.18493 1.18041 1.18987 1.18799 1.19003 1.18773 1.19018 1.19408 1.18903 1.19163 1.18807 1.19115 1.18758 1.18838 1.18651 1.18806 1.18823 1.18914 1.18474 1.18466 1.18807 1.18793 1.19109 1.18916 1.1903 1.18973 1.1889 1.19003 1.18928 1.18497 1.18877 1.19097 1.18809 1.20511 1.18953 1.18518 1.18879 1.18727 1.19113 1.19435 1.18839 1.1895 1.18017 1.17985 1.17756 1.18823 1.18915 1.18436 1.18914 1.19057 1.18839 1.18334 1.18718 1.19457 1.18589 1.18791 1.17131 1.17498 1.19178 1.1897 1.18816 1.19094 1.19336 1.19192 1.18836 1.19089 1.19101 1.19083 1.19524 1.19442 1.19108 1.18504 1.19016 1.18962 1.19073 1.19069 1.19193 1.18936 1.192 1.18734 1.19131 1.18601 1.19109 1.18794 1.18714 1.18828 1.19207 1.19051 1.18849 1.18895 1.188 1.19094 1.1885 1.19324 1.19069 1.18631 1.19165 1.18954 1.18842 1.18487 1.18036 1.19027 1.18722 1.18991 1.18832 1.19088 1.18955 1.18786 1.19171 1.18945 1.18749 1.18788 1.18848 1.18893 1.18723 1.18839 1.18832 1.18457 1.18475 1.18753 1.18816 1.18454 1.18919 1.1898 1.18941 1.18838 1.18886 1.18922 1.19042 1.18562 1.1886 1.19291 1.19455 1.1986 1.18946 1.19248 1.18952 1.19171 1.19144 1.1903 1.18809 1.18009 1.18631 1.18858 1.18769 1.18715 1.19165 1.18473 1.18907 1.19122 1.18883 1.18332 1.18786 1.19078 1.19178 1.18785 1.17346 1.17532 1.19043 1.18964 1.1898 1.18843 1.19097 1.19264 1.18855 1.19098 1.18869 1.18885 1.19504 1.19096 1.18506 1.18998 1.19133 1.19057 1.19047 1.19149 1.18886 1.1901 1.18783 1.19993 1.1918 1.18711 1.18905 1.19078 1.1917 1.19191 1.19051 1.18884 1.18899 1.18837 1.18817 1.18831 1.19082 1.19278 1.18888 1.19187 1.19092 1.18916 1.18862 1.18577 1.18054 1.18992 1.18696 1.18936 1.192 1.19053 1.18892 1.18749 1.19157 1.1893 1.18738 1.18788 1.18845 1.18902 1.18749 1.19183 1.18939 1.18631 1.18707 1.18884 1.18438 1.18963 1.18978 1.19178 1.18918 1.18776 1.18835 1.18909 1.18996 1.18891 1.19343 1.19345 1.18959 1.18551 1.18963 1.19057 1.18871 1.18849 1.18688 1.19178 1.19184 1.19297 1.18767 1.18852 1.1918 1.18699 1.19019 1.19163 1.1894 1.18902 1.18724 1.18869 1.17992 1.1915 1.18216 1.17551 1.19044 1.18866 1.18944 1.19178 1.19204 1.19078 1.19231 1.19027 1.18835 1.19538 1.18943 1.19489 1.19208 1.18589 1.19178 1.19098 1.19042 1.18703 1.19139 1.18846 1.18975 1.19056 1.18443 1.19095 1.18675 1.18823 1.18985 1.19105 1.19056 1.19052 1.18864 1.19142 1.19202 1.18813 1.18793 1.18997 1.19165 1.18829 1.19004 1.18965 1.1837 1.19022 1.18795 1.18715 1.18978 1.18824 1.18876 1.19183 1.19064 1.1888 1.18761 1.1907 1.18904 1.1865 1.18727 1.18858 1.1866 1.18878 1.18888 1.18936 1.19112 1.1862 1.18684 1.1885 1.18518 1.1905 1.1898 1.19019 1.18861 1.18767 1.18814 1.18984 1.18885 1.19337 1.19268 1.1896 1.18543 1.19031 1.19019 1.19017 1.1882 1.19003 1.18979 1.19449 1.18688 1.19067 1.19204 1.18514 1.18908 1.19195 1.19066 1.19225 1.19084 1.18415 1.18664 1.1802 1.18795 1.1767 1.19051 1.18818 1.18774 1.18889 1.19156 1.19224 1.19178 1.19309 1.1897 1.19133 1.18826 1.18972 1.1904 1.19107 1.19162 1.19386 1.18754 1.18953 1.19011 1.1914 1.19033 1.18877 1.18831 1.19021 1.19041 1.19082 1.18669 1.18841 1.19159 1.19106 1.18883 1.19031 1.19231 1.18865 1.18742 1.18951 1.18603 1.18975 1.19091 1.18782 1.18928 1.18957 1.18706 1.19197 1.19485 1.19437 1.19382 1.1903 1.18892 1.18949 1.1915 1.18992 1.18897 1.18925 1.19066 1.18873 1.18919 1.1867 1.18847 1.1918 1.19765 1.18858 1.19155 1.18966 1.18938 1.1904 1.18807 1.18343 1.18721 1.19178 1.19019 1.19011 1.18817 1.18761 1.1879 1.18878 1.18963 1.19112 1.19314 1.18692 1.18527 1.18976 1.19239 1.1932 1.19028 1.18849 1.18839 1.1886 1.18996 1.19096 1.19195 1.19139 1.19001 1.19217 1.19201 1.18812 1.19118 1.18867 1.19016 1.19013 1.18854 1.19239 1.18872 1.18389 1.18245 1.1878 1.18715 1.1769 1.1911 1.18738 1.18863 1.1914 1.1913 1.19142 1.19101 1.19199 1.1899 1.19058 1.18992 1.18948 1.1898 1.19036 1.19096 1.19123 1.19264 1.18775 1.18774 1.18993 1.18921 1.18982 1.18864 1.18825 1.18989 1.19085 1.18653 1.18867 1.18751 1.18946 1.19191 1.18946 1.19086 1.19136 1.19086 1.18832 1.19012 1.18677 1.18951 1.19098 1.19204 1.18985 1.19067 1.18725 1.19076 1.19173 1.1908 1.18865 1.18904 1.1927 1.18919 1.18823 1.1902 1.19309 1.19144 1.19181 1.18872 1.18962 1.18847 1.18962 1.19034 1.19033 1.18783 1.18902 1.19113 1.18977 1.19003 1.18736 1.18813 1.19035 1.18794 1.18899 1.19028 1.19101 1.18778 1.18576 1.1896 1.19009 1.18892 1.19 1.18979 1.19049 1.19178 1.19125 1.18991 1.19313 1.18963 1.19035 1.18899 1.18831 1.19226 1.18902 1.18427 1.19199 1.18658 1.18521 1.17696 1.191 1.18719 1.18945 1.19017 1.19266 1.19263 1.19141 1.18999 1.1893 1.1893 1.18993 1.1904 1.19107 1.19114 1.19243 1.18799 1.18757 1.19003 1.18888 1.18986 1.18884 1.18843 1.19036 1.18955 1.19117 1.18809 1.18853 1.18931 1.19117 1.18992 1.18972 1.18959 1.18842 1.19053 1.19028 1.18983 1.18881 1.19165 1.1919 1.18963 1.19064 1.19067 1.18708 1.19341 1.19214 1.19148 1.18798 1.19182 1.19178 1.18957 1.18777 1.18906 1.19061 1.19313 1.18994 1.18954 1.18625 1.18666 1.1882 1.19118 1.19038 1.18815 1.18763 1.18901 1.19007 1.18964 1.18983 1.18725 1.19088 1.1884 1.18744 1.18909 1.19023 1.19072 1.19216 1.19186 1.19016 1.19359 1.19076 1.19137 1.19178 1.18857 1.18966 1.19045 1.19176 1.1913 1.19178 1.18947 1.19018 1.18994 1.18766 1.18859 1.19076 1.19094 1.19091 1.19095 1.19347 1.18595 1.1844 1.19069 1.19096 1.18865 1.18891 1.18828 1.18635 1.19058 1.18912 1.18911 1.18914 1.19009 1.19074 1.19061 1.19145 1.19116 1.18739 1.1889 1.19042 1.18931 1.19097 1.18902 1.1891 1.18832 1.18975 1.19134 1.18806 1.18845 1.18934 1.19059 1.18908 1.18907 1.1888 1.19309 1.18862 1.19104 1.19078 1.18979 1.18888 1.18851 1.1906 1.1896 1.19115 1.18827 1.19113 1.1916 1.19178 1.19141 1.1886 1.19185 1.19204 1.18981 1.19178 1.18898 1.19057 1.19221 1.18995 1.18951 1.18902 1.18757 1.18817 1.19046 1.1915 1.19054 1.19081 1.18811 1.18871 1.18752 1.1898 1.18932 1.18977 1.18763 1.1883 1.18775 1.18707 1.18889 1.18928 1.19012 1.19182 1.19082 1.1907 1.19138 1.19195 1.18895 1.18932 1.18941 1.19038 1.19192 1.19183 1.19107 1.19161 1.19079 1.18973 1.1904 1.19006 1.18773 1.18878 1.19102 1.191 1.19082 1.19188 1.18639 1.1919 1.19168 1.19178 1.19092 1.19053 1.18785 1.18808 1.18842 1.19264 1.18808 1.18988 1.19054 1.18938 1.18974 1.19054 1.19043 1.19076 1.19178 1.18793 1.18965 1.18847 1.19052 1.19172 1.19008 1.18914 1.18829 1.18951 1.19037 1.1879 1.18844 1.18962 1.19058 1.18977 1.18889 1.18882 1.19305 1.18993 1.18968 1.18884 1.19172 1.19057 1.18955 1.19178 1.1899 1.19142 1.19178 1.19178 1.19149 1.18951 1.19202 1.19178 1.19135 1.19047 1.19232 1.18893 1.19046 1.19192 1.18964 1.18953 1.18913 1.1917 1.18843 1.19101 1.19195 1.18821 1.18801 1.18882 1.18957 1.18903 1.18872 1.18964 1.18818 1.18889 1.18672 1.18864 1.19001 1.19028 1.19109 1.19124 1.19204 1.18908 1.19027 1.18927 1.19032 1.19185 1.19044 1.19124 1.19005 1.19044 1.19004 1.18916 1.1885 1.19115 1.19168 1.19185 1.19184 1.18625 1.19154 1.19178 1.19191 1.19162 1.18905 1.18809 1.18849 1.19279 1.18796 1.18982 1.19051 1.1893 1.18971 1.19048 1.19035 1.19075 1.19085 1.18883 1.19005 1.18863 1.18947 1.19063 1.18989 1.18923 1.1905 1.18985 1.18794 1.18786 1.18789 1.18975 1.19055 1.1905 1.18873 1.18873 1.19178 1.18992 1.19094 1.19007 1.18944 1.19178 1.1903 1.18932 1.19178 1.19013 1.19155 1.19178 1.19179 1.19151 1.19027 1.19178 1.19055 1.19178 1.19231 1.19206 1.19089 1.19078 1.18989 1.18979 1.1907 1.19169 1.18924 1.19177 1.18956 1.19088 1.18902 1.18905 1.18753 1.19017 1.18955 1.18938 1.18969 1.18817 1.18884 1.18667 1.18841 1.18936 1.18957 1.19033 1.19025 1.1914 1.19157 1.19209 1.19287 1.1904 1.18929 1.19025 1.19199 1.19038 1.19096 1.19146 1.19009 1.19039 1.18995 1.19178 1.18993 1.19098 1.19141 1.19116 1.19159 1.1915 1.19197 1.19133 1.18887 1.18799 1.18878 1.19178 1.18791 1.18986 1.18948 1.18926 1.18979 1.19056 1.19041 1.19067 1.19094 1.19013 1.19016 1.18861 1.18916 1.1905 1.18992 1.18906 1.19075 1.19103 1.19014 1.19055 1.18786 1.18981 1.19062 1.1908 1.18894 1.19193 1.18886 1.18989 1.19083 1.19178 1.18955 1.19196 1.19046 1.19057 1.191 1.18993 1.19154 1.19186 1.19193 1.19153 1.19016 1.19169 1.19127 1.19047 1.19163 1.19155 1.19169 1.19075 1.1911 1.1898 1.18927 1.19169 1.19147 1.19164 1.19093 1.18896 1.18747 1.1902 1.19103 1.18961 1.18926 1.18964 1.18813 1.18883 1.18897 1.18902 1.19201 1.19088 1.18974 1.19178 1.19178 1.19068 1.1918 1.19143 1.19036 1.18989 1.19039 1.19134 1.19043 1.19105 1.19153 1.19049 1.19069 1.19002 1.19187 1.18993 1.19122 1.1917 1.19196 1.19132 1.19159 1.19178 1.19151 
SCALARS Stress float 1
LOOKUP_TABLE default
-853102000000.0 -194532000000.0 -2.59481e+12 -939582000000.0 -785749000000.0 -2.07425e+12 -667472000000.0 -578949000000.0 -203772000000.0 -43874000000.0 -53470300000.0 -36501700000.0 -44693900000.0 -20880100000.0 -23109400000.0 -16174800000.0 -12549700000.0 -15561100000.0 -15316100000.0 -13003000000.0 -15747100000.0 -15395600000.0 -16015200000.0 -17019200000.0 -21030200000.0 -24563800000.0 -14627100000.0 -27788100000.0 -32317400000.0 -38297600000.0 -56059400000.0 -85292900000.0 -150812000000.0 -504047000000.0 -99447500000.0 -1.48793e+12 -1.97752e+12 -2.35057e+12 -1.46652e+12 -816126000000.0 -2.28573e+12 -2.18494e+12 -2.23662e+12 -4.67651e+12 -2.01888e+12 -1.87427e+12 -1.57852e+12 -1.75329e+12 -897165000000.0 -263573000000.0 -217643000000.0 -132055000000.0 -518846000000.0 -101205000000.0 -339712000000.0 -328914000000.0 -80206900000.0 -23680100000.0 -148705000000.0 -195355000000.0 -99133500000.0 -116496000000.0 -71577500000.0 -47853600000.0 -39648200000.0 -12549700000.0 -16707000000.0 -14449100000.0 -31741200000.0 -12689800000.0 -21519100000.0 -12571600000.0 -12597000000.0 -18816900000.0 -13251400000.0 -15505100000.0 -16898200000.0 -13721500000.0 -18209300000.0 -14383000000.0 -16812300000.0 -13565400000.0 -31636100000.0 -15562500000.0 -18638800000.0 -29913100000.0 -12553200000.0 -43213900000.0 -53784100000.0 -45196300000.0 -45892900000.0 -59803300000.0 -164894000000.0 -56738300000.0 -239575000000.0 -225849000000.0 -288272000000.0 -419143000000.0 -303533000000.0 -352889000000.0 -254986000000.0 -947697000000.0 -2.15253e+12 -675193000000.0 -183933000000.0 -1.07929e+12 -3.37776e+12 -2.84661e+12 -2.47259e+12 -1.68957e+12 -1.4851e+12 -2.75771e+12 -2.99061e+12 -2.65997e+12 -2.83928e+12 -2.21672e+12 -3.59967e+12 -2.40887e+12 -1.44053e+12 -3.93446e+12 -2.60653e+12 -3.01481e+12 -742733000000.0 -689472000000.0 -426738000000.0 -966600000000.0 -1.31495e+12 -699005000000.0 -307850000000.0 -407007000000.0 -234471000000.0 -358909000000.0 -217179000000.0 -227301000000.0 -45329300000.0 -110974000000.0 -122743000000.0 -65184000000.0 -63510900000.0 -23606800000.0 -20268600000.0 -30532200000.0 -15163700000.0 -16747600000.0 -17917900000.0 -19921400000.0 -14852900000.0 -15646300000.0 -16509200000.0 -22691600000.0 -14468500000.0 -12881400000.0 -15860600000.0 -23630300000.0 -23547000000.0 -39940100000.0 -12955200000.0 -12549700000.0 -66723400000.0 -31442800000.0 -103848000000.0 -16531900000.0 -34923400000.0 -174350000000.0 -20165000000.0 -41835800000.0 -142825000000.0 -103463000000.0 -12549700000.0 -20464100000.0 -210219000000.0 -305911000000.0 -226849000000.0 -359437000000.0 -846037000000.0 -1.3069e+12 -1.16247e+12 -2.17624e+12 -3.31732e+12 -3.88839e+12 -2.31692e+12 -2.24433e+12 -3.54381e+12 -2.76548e+12 -4.27765e+12 -3.25577e+12 -3.08059e+12 -3.80792e+12 -2.62583e+12 -2.58978e+12 -1.81396e+12 -2.74522e+12 -5.21898e+12 -5.27962e+12 -1.5554e+12 -4.83595e+12 -1.67327e+12 -3.25177e+12 -3.02079e+12 -4.70467e+12 -3.96659e+12 -1.63283e+12 -1.0865e+12 -1.2214e+12 -801146000000.0 -551036000000.0 -429978000000.0 -450731000000.0 -306252000000.0 -365699000000.0 -770056000000.0 -639217000000.0 -642222000000.0 -230049000000.0 -247551000000.0 -292958000000.0 -285511000000.0 -281001000000.0 -147643000000.0 -133323000000.0 -121127000000.0 -30234200000.0 -12549700000.0 -55570100000.0 -29628500000.0 -36056900000.0 -13851600000.0 -16603400000.0 -13214300000.0 -13898200000.0 -13814800000.0 -27683600000.0 -16222300000.0 -18046100000.0 -16576900000.0 -31570200000.0 -69412700000.0 -61741500000.0 -58077100000.0 -31823100000.0 -169768000000.0 -190419000000.0 -158499000000.0 -155683000000.0 -112231000000.0 -158773000000.0 -211258000000.0 -356282000000.0 -522321000000.0 -511081000000.0 -1.31939e+12 -1.31654e+12 -2.87401e+12 -1.88353e+12 -2.938e+12 -4.53102e+12 -4.99023e+12 -2.64153e+12 -4.10266e+12 -2.74566e+12 -5.22533e+12 -4.49648e+12 -2.15323e+12 -3.59776e+12 -1.89586e+12 -2.82674e+12 -3.45309e+12 -3.79343e+12 -1.95153e+12 -1.69183e+12 -3.86465e+12 -4.84577e+12 -5.27023e+12 -3.72704e+12 -4.75073e+12 -3.13179e+12 -1.07586e+12 -3.60899e+12 -3.63348e+12 -866445000000.0 -2.91289e+12 -2.30135e+12 -1.04967e+12 -2.33287e+12 -473513000000.0 -880149000000.0 -865738000000.0 -644940000000.0 -120395000000.0 -565436000000.0 -353627000000.0 -263127000000.0 -356534000000.0 -304267000000.0 -223024000000.0 -115226000000.0 -51359100000.0 -30758400000.0 -108241000000.0 -39920900000.0 -19089200000.0 -32138900000.0 -72689200000.0 -34608700000.0 -20927700000.0 -23167600000.0 -36443200000.0 -12758800000.0 -18694900000.0 -26698700000.0 -32438000000.0 -23248700000.0 -36652600000.0 -13571400000.0 -23767800000.0 -37016900000.0 -25312200000.0 -33033300000.0 -87378000000.0 -12549700000.0 -12549700000.0 -12549700000.0 -46338600000.0 -13808200000.0 -173958000000.0 -115523000000.0 -204647000000.0 -259591000000.0 -144442000000.0 -318544000000.0 -279028000000.0 -322912000000.0 -874017000000.0 -1.44533e+12 -973449000000.0 -962738000000.0 -753674000000.0 -1.54881e+12 -3.31349e+12 -993286000000.0 -3.43851e+12 -4.36554e+12 -403274000000.0 -3.28926e+12 -3.8702e+12 -2.58909e+12 -3.08901e+12 -2.19909e+12 -2.79996e+12 -3.94276e+12 -5.95413e+12 -4.01055e+12 -4.39578e+12 -4.3047e+12 -4.3545e+12 -4.51636e+12 -4.76025e+12 -5.2381e+12 -2.46717e+12 -2.35413e+12 -4.43862e+12 -4.65995e+12 -2.58804e+12 -3.97453e+12 -2.51548e+12 -2.28552e+12 -1.90231e+12 -1.82898e+12 -2.12865e+12 -1.24918e+12 -1.32716e+12 -1.98143e+12 -2.40673e+12 -1.09281e+12 -1.55295e+12 -630264000000.0 -372985000000.0 -633898000000.0 -449423000000.0 -117964000000.0 -192902000000.0 -190441000000.0 -516845000000.0 -121101000000.0 -109577000000.0 -43980800000.0 -16456000000.0 -30443900000.0 -76866800000.0 -14620200000.0 -90635700000.0 -66429100000.0 -54049200000.0 -45900300000.0 -53775800000.0 -72812400000.0 -48174600000.0 -36792400000.0 -46163000000.0 -57338200000.0 -66475800000.0 -107254000000.0 -115999000000.0 -117222000000.0 -85193300000.0 -20638900000.0 -269238000000.0 -395587000000.0 -366434000000.0 -194077000000.0 -378024000000.0 -388022000000.0 -868169000000.0 -495289000000.0 -1.73617e+12 -798664000000.0 -2.73121e+12 -2.28838e+12 -2.36646e+12 -2.91284e+12 -4.17327e+12 -2.824e+12 -3.44419e+12 -2.0891e+12 -2.83151e+12 -5.8262e+12 -3.758e+12 -3.81884e+12 -5.94607e+12 -6.23861e+12 -3.94308e+12 -5.27836e+12 -4.36233e+12 -2.04051e+12 -3.87634e+12 -4.58158e+12 -6.22558e+12 -2.38781e+12 -7.47904e+12 -3.43448e+12 -3.56693e+12 -4.65857e+12 -3.05386e+12 -1.88091e+12 -3.16628e+12 -4.50866e+12 -4.73944e+12 -2.70219e+12 -1.86991e+12 -2.46232e+12 -2.39944e+12 -2.28069e+12 -2.39992e+12 -1.68074e+12 -2.04873e+12 -1.18755e+12 -1.02169e+12 -1.01312e+12 -1.03302e+12 -596997000000.0 -682132000000.0 -285982000000.0 -212090000000.0 -570542000000.0 -452459000000.0 -390063000000.0 -110919000000.0 -368941000000.0 -38818100000.0 -214629000000.0 -158293000000.0 -74882800000.0 -94722600000.0 -26225200000.0 -68528000000.0 -64711500000.0 -27258600000.0 -26277300000.0 -48747800000.0 -45514800000.0 -27057200000.0 -14483100000.0 -53992400000.0 -45419300000.0 -52457600000.0 -41071000000.0 -53658500000.0 -30621900000.0 -70633600000.0 -126414000000.0 -138677000000.0 -196214000000.0 -16261500000.0 -42767500000.0 -290349000000.0 -154694000000.0 -494188000000.0 -300059000000.0 -332915000000.0 -295077000000.0 -1.01104e+12 -1.35982e+12 -1.86421e+12 -2.22701e+12 -2.61248e+12 -1.28625e+12 -1.12982e+12 -2.47014e+12 -4.39302e+12 -4.96744e+12 -1.8325e+12 -1.22159e+12 -4.08061e+12 -3.82819e+12 -5.02033e+12 -5.43593e+12 -6.22917e+12 -4.2761e+12 -3.5406e+12 -7.1487e+12 -3.29157e+12 -4.10882e+12 -3.30362e+12 -1.93717e+12 -5.87695e+12 -3.85888e+12 -4.90839e+12 -8.98476e+12 -6.15779e+12 -6.52773e+12 -3.9473e+12 -6.70551e+12 -2.96518e+12 -3.77754e+12 -2.31729e+12 -2.04091e+12 -2.59232e+12 -2.73976e+12 -3.14603e+12 -1.19944e+12 -1.67775e+12 -1.50298e+12 -2.78266e+12 -2.58357e+12 -1.71539e+12 -1.25396e+12 -1.40921e+12 -699770000000.0 -1.8375e+12 -636671000000.0 -1.22265e+12 -914179000000.0 -842511000000.0 -584054000000.0 -283782000000.0 -165796000000.0 -256645000000.0 -56574000000.0 -292161000000.0 -116955000000.0 -113521000000.0 -54368500000.0 -55111200000.0 -53473300000.0 -82881100000.0 -66251900000.0 -40134800000.0 -37996700000.0 -37479200000.0 -15750900000.0 -23018700000.0 -24587400000.0 -23585300000.0 -26461800000.0 -48896400000.0 -63039600000.0 -62222500000.0 -69555200000.0 -21296600000.0 -28542600000.0 -18181200000.0 -44780600000.0 -69971000000.0 -110954000000.0 -88555800000.0 -92888300000.0 -145976000000.0 -414718000000.0 -290801000000.0 -556921000000.0 -795741000000.0 -975666000000.0 -735401000000.0 -721943000000.0 -1.861e+12 -850373000000.0 -1.45184e+12 -1.70704e+12 -2.54138e+12 -1.02292e+12 -2.24873e+12 -634932000000.0 -2.9762e+12 -3.50013e+12 -4.34115e+12 -3.8011e+12 -2.31027e+12 -652875000000.0 -2.75721e+12 -4.60125e+12 -3.52247e+12 -3.3636e+12 -8.01224e+12 -4.38501e+12 -5.90559e+12 -6.11242e+12 -4.90396e+12 -2.71942e+12 -2.2577e+12 -5.10881e+12 -3.10289e+12 -3.45368e+12 -3.05502e+12 -5.05424e+12 -2.65695e+12 -3.99625e+12 -4.05221e+12 -5.1219e+12 -2.29749e+12 -6.78715e+12 -5.00931e+12 -5.71006e+12 -2.66742e+12 -5.534e+12 -4.37306e+12 -4.69658e+12 -1.42644e+12 -5.67727e+12 -2.84088e+12 -3.07672e+12 -3.17977e+12 -1.97587e+12 -1.81412e+12 -3.66645e+12 -2.60762e+12 -950650000000.0 -1.65783e+12 -941697000000.0 -1.09458e+12 -827338000000.0 -371676000000.0 -163154000000.0 -367040000000.0 -215125000000.0 -227085000000.0 -423650000000.0 -318696000000.0 -267704000000.0 -153953000000.0 -117387000000.0 -96417300000.0 -86924300000.0 -126678000000.0 -81545800000.0 -31679200000.0 -27927400000.0 -22359900000.0 -18517600000.0 -53494200000.0 -12549700000.0 -43056500000.0 -47919900000.0 -60877700000.0 -49041200000.0 -60376800000.0 -52976200000.0 -89665600000.0 -76984600000.0 -20326900000.0 -13036300000.0 -40526300000.0 -150374000000.0 -22204400000.0 -88943400000.0 -117832000000.0 -339108000000.0 -224834000000.0 -160948000000.0 -344926000000.0 -352321000000.0 -204523000000.0 -104556000000.0 -609313000000.0 -299099000000.0 -287160000000.0 -1.44731e+12 -1.52133e+12 -1.1619e+12 -842347000000.0 -1.25981e+12 -1.32711e+12 -1.51436e+12 -1.00736e+12 -1.40721e+12 -2.25851e+12 -2.57117e+12 -2.9581e+12 -2.96084e+12 -2.48536e+12 -4.50952e+12 -5.61483e+12 -2.47261e+12 -3.75934e+12 -4.75259e+12 -4.28607e+12 -5.52685e+12 -4.59199e+12 -4.94929e+12 -5.69377e+12 -6.05059e+12 -3.76106e+12 -6.4171e+12 -5.17634e+12 -2.87183e+12 -2.89153e+12 -2.46988e+12 -5.6655e+12 -4.74658e+12 -4.82989e+12 -4.22691e+12 -4.18575e+12 -4.64792e+12 -3.03119e+12 -4.50167e+12 -3.39808e+12 -3.98964e+12 -4.74897e+12 -2.52971e+12 -3.16398e+12 -5.24016e+12 -3.45298e+12 -2.96904e+12 -3.83452e+12 -2.06548e+12 -1.64265e+12 -1.65183e+12 -1.59164e+12 -1.98511e+12 -1.15182e+12 -994693000000.0 -2.61401e+12 -1.7599e+12 -198637000000.0 -457988000000.0 -538673000000.0 -341235000000.0 -1.11837e+12 -452181000000.0 -233871000000.0 -303910000000.0 -429310000000.0 -190770000000.0 -18504300000.0 -65894100000.0 -106035000000.0 -40616600000.0 -116797000000.0 -14721900000.0 -69260100000.0 -50000300000.0 -13524500000.0 -49845300000.0 -13387800000.0 -14677900000.0 -51774800000.0 -27162100000.0 -33276200000.0 -13199600000.0 -39475700000.0 -37395200000.0 -29367300000.0 -13612300000.0 -25101300000.0 -48221800000.0 -46844000000.0 -70431900000.0 -124771000000.0 -132290000000.0 -38825500000.0 -107623000000.0 -130282000000.0 -204404000000.0 -78197300000.0 -196954000000.0 -300233000000.0 -47890200000.0 -423689000000.0 -1.02086e+12 -363930000000.0 -1.5282e+12 -1.01228e+12 -1.85443e+12 -1.09084e+12 -2.11397e+12 -1.61577e+12 -2.54397e+12 -3.09644e+12 -2.68405e+12 -3.34351e+12 -3.77108e+12 -3.30164e+12 -3.1626e+12 -3.79824e+12 -4.34934e+12 -7.44909e+12 -2.46936e+12 -3.09626e+12 -2.70948e+12 -3.65269e+12 -3.10407e+12 -8.29314e+12 -4.19056e+12 -5.27113e+12 -5.47692e+12 -5.60257e+12 -9.06173e+12 -4.06135e+12 -5.39927e+12 -2.19578e+12 -3.09594e+12 -6.36895e+12 -5.70667e+12 -4.45046e+12 -5.8961e+12 -5.87595e+12 -6.50488e+12 -4.28623e+12 -2.42722e+12 -3.46807e+12 -3.37748e+12 -4.97537e+12 -2.89955e+12 -3.60425e+12 -6.11229e+12 -4.3755e+12 -5.12325e+12 -3.94162e+12 -2.40276e+12 -2.60524e+12 -1.68725e+12 -1.62846e+12 -2.24196e+12 -2.24477e+12 -2.37827e+12 -980254000000.0 -1.14872e+12 -1.68409e+12 -1.65357e+12 -1.41226e+12 -1.2515e+12 -470361000000.0 -427699000000.0 -676512000000.0 -597535000000.0 -358406000000.0 -20936800000.0 -282849000000.0 -57262100000.0 -183116000000.0 -178711000000.0 -86555900000.0 -54102600000.0 -31535600000.0 -31087300000.0 -17703500000.0 -64723400000.0 -54094500000.0 -47775600000.0 -33920000000.0 -29481700000.0 -30634100000.0 -24622500000.0 -32907900000.0 -27855700000.0 -47425700000.0 -55973700000.0 -13479000000.0 -39643900000.0 -52883200000.0 -14298100000.0 -83639500000.0 -71371000000.0 -37378300000.0 -120985000000.0 -59756700000.0 -82795700000.0 -32133500000.0 -47805400000.0 -73047200000.0 -162850000000.0 -230960000000.0 -310061000000.0 -483560000000.0 -481743000000.0 -276313000000.0 -470606000000.0 -935859000000.0 -1.10514e+12 -1.0248e+12 -1.02239e+12 -1.69537e+12 -1.04975e+12 -2.29001e+12 -2.47151e+12 -1.79471e+12 -1.5822e+12 -1.69959e+12 -2.19769e+12 -2.21008e+12 -4.92949e+12 -2.34339e+12 -2.48629e+12 -1.92037e+12 -2.40856e+12 -5.44275e+12 -5.65633e+12 -3.80626e+12 -4.98845e+12 -3.49453e+12 -5.84651e+12 -3.6992e+12 -5.30582e+12 -5.90548e+12 -4.23349e+12 -5.38035e+12 -4.16865e+12 -4.87998e+12 -3.145e+12 -4.71605e+12 -4.14845e+12 -4.71045e+12 -1.38936e+12 -2.69486e+12 -5.04702e+12 -5.99064e+12 -7.75494e+12 -4.76501e+12 -3.39738e+12 -5.28754e+12 -6.7231e+12 -5.01162e+12 -1.9992e+12 -4.94838e+12 -2.84849e+12 -6.43003e+12 -3.97538e+12 -2.22873e+12 -2.88787e+12 -3.4508e+12 -1.67061e+12 -2.50811e+12 -1.51216e+12 -2.4811e+12 -3.18677e+12 -1.93891e+12 -1.08945e+12 -2.21289e+12 -2.32728e+12 -1.85858e+12 -1.23822e+12 -966633000000.0 -694809000000.0 -741381000000.0 -422274000000.0 -439589000000.0 -652824000000.0 -502691000000.0 -488348000000.0 -437105000000.0 -47950200000.0 -98539700000.0 -265835000000.0 -144718000000.0 -138565000000.0 -110840000000.0 -59109700000.0 -48885400000.0 -19116900000.0 -71689100000.0 -12549700000.0 -29152700000.0 -13827500000.0 -18310700000.0 -18042400000.0 -30088800000.0 -22213400000.0 -26151400000.0 -46600300000.0 -47356400000.0 -12549700000.0 -49298000000.0 -32785600000.0 -64030100000.0 -63138400000.0 -28300000000.0 -67453100000.0 -57336700000.0 -140148000000.0 -123725000000.0 -91348300000.0 -20434400000.0 -190501000000.0 -18972900000.0 -65885100000.0 -424424000000.0 -238119000000.0 -746866000000.0 -523011000000.0 -719918000000.0 -668496000000.0 -209569000000.0 -616345000000.0 -764584000000.0 -1.10528e+12 -1.55362e+12 -321836000000.0 -1.15999e+12 -1.90487e+12 -2.72489e+12 -2.1924e+12 -2.3745e+12 -2.77264e+12 -2.89057e+12 -2.16351e+12 -2.22344e+12 -3.90375e+12 -4.08518e+12 -2.09084e+12 -5.75e+12 -2.26667e+12 -3.98124e+12 -3.24553e+12 -4.39717e+12 -4.5044e+12 -4.4134e+12 -4.81086e+12 -4.92632e+12 -3.37949e+12 -3.63476e+12 -3.926e+12 -6.45364e+12 -3.28273e+12 -3.30527e+12 -4.4129e+12 -2.85621e+12 -6.95303e+12 -5.62331e+12 -3.8829e+12 -3.23632e+12 -3.86263e+12 -5.63194e+12 -4.95377e+12 -4.42536e+12 -4.40529e+12 -2.08715e+12 -4.27569e+12 -4.04853e+12 -2.31297e+12 -2.4514e+12 -2.60396e+12 -2.78781e+12 -1.86221e+12 -2.64952e+12 -2.13437e+12 -3.46615e+12 -2.23267e+12 -2.58705e+12 -1.94874e+12 -1.10272e+12 -1.17097e+12 -1.52283e+12 -716590000000.0 -927050000000.0 -578661000000.0 -165003000000.0 -487592000000.0 -238532000000.0 -177685000000.0 -319901000000.0 -249253000000.0 -164997000000.0 -136330000000.0 -77958600000.0 -214836000000.0 -68044000000.0 -92371100000.0 -56361300000.0 -28789000000.0 -32016000000.0 -54042300000.0 -31725700000.0 -55689900000.0 -40919500000.0 -37195700000.0 -55052900000.0 -24660900000.0 -31211800000.0 -12549700000.0 -12549700000.0 -82537800000.0 -76120500000.0 -91015100000.0 -66352600000.0 -92249800000.0 -46223700000.0 -134595000000.0 -302187000000.0 -134633000000.0 -268614000000.0 -205034000000.0 -125134000000.0 -210093000000.0 -486722000000.0 -549799000000.0 -338824000000.0 -832670000000.0 -1.00404e+12 -1.11627e+12 -856268000000.0 -1.85807e+12 -579808000000.0 -1.96667e+12 -1.71286e+12 -733985000000.0 -1.06936e+12 -2.75435e+12 -1.65494e+12 -3.28309e+12 -3.21343e+12 -5.22466e+12 -4.99023e+12 -3.62737e+12 -1.74003e+12 -4.23659e+12 -2.40647e+12 -958744000000.0 -3.53332e+12 -1.97895e+12 -2.86491e+12 -4.73153e+12 -2.06722e+12 -4.21662e+12 -4.1189e+12 -3.33079e+12 -3.35983e+12 -3.99301e+12 -6.26437e+12 -2.15971e+12 -3.39057e+12 -2.84557e+12 -2.5493e+12 -4.39337e+12 -4.20081e+12 -2.52374e+12 -2.91287e+12 -3.23432e+12 -2.06705e+12 -3.87713e+12 -3.27708e+12 -4.50772e+12 -2.42418e+12 -3.72252e+12 -3.17471e+12 -3.38269e+12 -5.36892e+12 -1.46955e+12 -3.51468e+12 -3.26561e+12 -3.2787e+12 -3.01972e+12 -4.16574e+12 -2.24343e+12 -2.01917e+12 -3.23585e+12 -2.3679e+12 -1.60912e+12 -1.12149e+12 -2.03964e+12 -2.25286e+12 -1.78795e+12 -913685000000.0 -1.11525e+12 -1.0549e+12 -2.1624e+12 -713021000000.0 -1.13985e+12 -1.18944e+12 -494619000000.0 -818275000000.0 -359933000000.0 -867772000000.0 -385733000000.0 -521231000000.0 -201213000000.0 -223550000000.0 -253758000000.0 -122083000000.0 -220422000000.0 -274264000000.0 -112377000000.0 -114660000000.0 -42226800000.0 -15894900000.0 -48021000000.0 -57330500000.0 -35536000000.0 -58179800000.0 -12880100000.0 -20744800000.0 -16527600000.0 -47065300000.0 -14867400000.0 -21718300000.0 -49236700000.0 -65312500000.0 -22888400000.0 -111433000000.0 -107652000000.0 -25809600000.0 -99298600000.0 -127371000000.0 -15536700000.0 -24556600000.0 -299480000000.0 -118128000000.0 -246147000000.0 -422933000000.0 -321366000000.0 -370434000000.0 -81163100000.0 -854178000000.0 -635550000000.0 -527875000000.0 -94769200000.0 -649784000000.0 -790743000000.0 -967629000000.0 -931047000000.0 -642210000000.0 -1.05759e+12 -2.65911e+12 -1.18396e+12 -395451000000.0 -2.24509e+12 -1.298e+12 -2.71128e+12 -1.82244e+12 -3.3094e+12 -4.33713e+12 -3.24096e+12 -3.345e+12 -2.39971e+12 -2.20748e+12 -2.58119e+12 -4.99566e+12 -4.14527e+12 -4.19796e+12 -3.3086e+12 -3.43963e+12 -4.05915e+12 -5.17071e+12 -1.99993e+12 -2.2312e+12 -2.88548e+12 -2.98013e+12 -3.47736e+12 -5.10774e+12 -1.78502e+12 -2.45767e+12 -2.21721e+12 -3.7022e+12 -2.34536e+12 -2.64758e+12 -3.19506e+12 -4.8558e+12 -2.79098e+12 -2.16372e+12 -2.37703e+12 -1.90444e+12 -2.27869e+12 -1.33205e+12 -5.75258e+12 -2.59198e+12 -3.3299e+12 -2.60412e+12 -5.62132e+12 -1.08863e+12 -4.56937e+12 -3.30798e+12 -2.51308e+12 -2.44081e+12 -2.5997e+12 -3.42867e+12 -892710000000.0 -2.35351e+12 -2.21281e+12 -2.17749e+12 -1.22056e+12 -1.7422e+12 -1.70671e+12 -699672000000.0 -399851000000.0 -1.52766e+12 -1.07126e+12 -1.30675e+12 -1.25451e+12 -314325000000.0 -215169000000.0 -270716000000.0 -845055000000.0 -425836000000.0 -521134000000.0 -91841100000.0 -75620900000.0 -114944000000.0 -150711000000.0 -43014300000.0 -89647000000.0 -22274500000.0 -66622700000.0 -17996200000.0 -47329600000.0 -15174700000.0 -17690100000.0 -12709400000.0 -42858500000.0 -44330800000.0 -42710700000.0 -13834200000.0 -32497600000.0 -52783200000.0 -70507500000.0 -22682600000.0 -45900400000.0 -40094200000.0 -47620000000.0 -157466000000.0 -78756200000.0 -54943500000.0 -53642600000.0 -29856500000.0 -18100400000.0 -102775000000.0 -39262600000.0 -173833000000.0 -445403000000.0 -50480700000.0 -488159000000.0 -172141000000.0 -924674000000.0 -607709000000.0 -257933000000.0 -283630000000.0 -1.32345e+12 -1.43786e+12 -599091000000.0 -1.63416e+12 -1.02025e+12 -1.23003e+12 -2.00489e+12 -3.00839e+12 -2.30824e+12 -1.93437e+12 -2.08543e+12 -1.19365e+12 -1.00435e+12 -3.48687e+12 -2.35666e+12 -2.79267e+12 -1.98574e+12 -3.7283e+12 -4.48018e+12 -3.0302e+12 -4.08521e+12 -3.30451e+12 -2.83199e+12 -2.19297e+12 -3.34309e+12 -3.03727e+12 -2.22082e+12 -2.04918e+12 -5.22188e+12 -3.79906e+12 -2.80594e+12 -3.41873e+12 -2.42079e+12 -2.3384e+12 -1.71859e+12 -4.14228e+12 -2.69428e+12 -3.05157e+12 -3.28262e+12 -2.51358e+12 -3.15135e+12 -3.78052e+12 -4.1157e+12 -1.004e+12 -2.27538e+12 -936016000000.0 -2.06423e+12 -2.00186e+12 -2.60271e+12 -1.54206e+12 -1.16857e+12 -2.63551e+12 -826125000000.0 -1.83819e+12 -1.49439e+12 -1.47956e+12 -934943000000.0 -2.51521e+12 -1.83644e+12 -1.09965e+12 -801661000000.0 -1.04041e+12 -954603000000.0 -1.58112e+12 -796284000000.0 -952072000000.0 -640897000000.0 -838693000000.0 -537036000000.0 -629765000000.0 -70521200000.0 -92244400000.0 -47986700000.0 -12549700000.0 -372428000000.0 -474554000000.0 -520470000000.0 -760746000000.0 -15629500000.0 -304050000000.0 -216005000000.0 -189964000000.0 -110389000000.0 -38770500000.0 -38289600000.0 -105369000000.0 -58699200000.0 -16570400000.0 -12832200000.0 -25939800000.0 -61912600000.0 -29979200000.0 -34528000000.0 -40887300000.0 -12549700000.0 -45888700000.0 -26940300000.0 -17674100000.0 -45736600000.0 -69094100000.0 -29868000000.0 -66852000000.0 -23678300000.0 -24386600000.0 -19877400000.0 -73342500000.0 -146271000000.0 -31939100000.0 -41130500000.0 -63443700000.0 -70797100000.0 -29660900000.0 -65075500000.0 -81565700000.0 -141217000000.0 -63046200000.0 -475683000000.0 -279386000000.0 -16003500000.0 -96130800000.0 -243023000000.0 -197321000000.0 -300467000000.0 -375451000000.0 -485637000000.0 -177120000000.0 -156220000000.0 -1.46385e+12 -642496000000.0 -1.22558e+12 -1.56535e+12 -1.27342e+12 -1.59781e+12 -983259000000.0 -1.82505e+12 -1.92495e+12 -2.75393e+12 -2.86098e+12 -2.58514e+12 -2.86309e+12 -2.17292e+12 -3.06709e+12 -1.68522e+12 -4.11823e+12 -3.28977e+12 -2.49431e+12 -949187000000.0 -3.05484e+12 -4.24863e+12 -1.24562e+12 -2.79363e+12 -2.88718e+12 -3.60235e+12 -2.73939e+12 -3.71965e+12 -1.25905e+12 -1.16875e+12 -2.30454e+12 -2.17971e+12 -1.41045e+12 -2.95539e+12 -2.18837e+12 -2.29161e+12 -1.23365e+12 -2.46297e+12 -1.32885e+12 -2.26259e+12 -1.98356e+12 -3.52708e+12 -2.77855e+12 -962400000000.0 -1.80893e+12 -1.78849e+12 -794397000000.0 -1.10279e+12 -1.32381e+12 -1.81628e+12 -411376000000.0 -615616000000.0 -147168000000.0 -441893000000.0 -871882000000.0 -695577000000.0 -795749000000.0 -354016000000.0 -938411000000.0 -696878000000.0 -698253000000.0 -737251000000.0 -168305000000.0 -181125000000.0 -178697000000.0 -101343000000.0 -350532000000.0 -141285000000.0 -180559000000.0 -205269000000.0 -136312000000.0 -46589400000.0 -58195300000.0 -46720700000.0 -86438700000.0 -13971600000.0 -35606000000.0 -39968500000.0 -39126400000.0 -40951400000.0 -36262400000.0 -29275000000.0 -98437600000.0 -44504500000.0 -59463800000.0 -62612200000.0 -74196100000.0 -120827000000.0 -53254000000.0 -98649500000.0 -71359300000.0 -80042500000.0 -151481000000.0 -394938000000.0 -374436000000.0 -260377000000.0 -253036000000.0 -436912000000.0 -272348000000.0 -357844000000.0 -182338000000.0 -735448000000.0 -607387000000.0 -838098000000.0 -942385000000.0 -498958000000.0 -1.16239e+12 -1.2628e+12 -21352100000.0 -774769000000.0 -761277000000.0 -1.93131e+12 -819337000000.0 -1.95477e+12 -2.69518e+12 -2.31418e+12 -2.56077e+12 -3.64242e+12 -2.40221e+12 -2.96978e+12 -2.13336e+12 -2.31296e+12 -1.87512e+12 -2.31972e+12 -1.46547e+12 -3.11465e+12 -1.4088e+12 -3.15466e+12 -2.068e+12 -3.37728e+12 -3.90195e+12 -2.43552e+12 -2.93122e+12 -1.91698e+12 -2.18387e+12 -2.6991e+12 -1.76434e+12 -2.70227e+12 -1.57239e+12 -2.33944e+12 -3.41878e+12 -3.12825e+12 -1.49015e+12 -5.75983e+12 -2.66677e+12 -2.61338e+12 -1.52456e+12 -1.90114e+12 -1.09699e+12 -1.96281e+12 -2.64274e+12 -1.9008e+12 -1.13248e+12 -1.37247e+12 -654293000000.0 -1.65128e+12 -955138000000.0 -1.15096e+12 -571029000000.0 -847174000000.0 -836690000000.0 -1.10938e+12 -988926000000.0 -289864000000.0 -85757400000.0 -131438000000.0 -50618100000.0 -64507800000.0 -349419000000.0 -297529000000.0 -241815000000.0 -133079000000.0 -13225900000.0 -100296000000.0 -45618900000.0 -30865800000.0 -82142700000.0 -33145300000.0 -15190100000.0 -59043000000.0 -60579300000.0 -59039900000.0 -12549700000.0 -53247800000.0 -47047200000.0 -12663600000.0 -22703200000.0 -16010600000.0 -31944800000.0 -39664800000.0 -41665200000.0 -26031200000.0 -136185000000.0 -57024900000.0 -62499200000.0 -34425000000.0 -201203000000.0 -123729000000.0 -104038000000.0 -113777000000.0 -144702000000.0 -297183000000.0 -34981900000.0 -206241000000.0 -109036000000.0 -33678000000.0 -39247000000.0 -484740000000.0 -270260000000.0 -714306000000.0 -348888000000.0 -558046000000.0 -629096000000.0 -574683000000.0 -1.21031e+12 -45931300000.0 -555690000000.0 -367532000000.0 -375327000000.0 -667995000000.0 -1.67259e+12 -22844300000.0 -1.07213e+12 -789064000000.0 -1.37635e+12 -1.59197e+12 -937626000000.0 -627408000000.0 -1.33602e+12 -517516000000.0 -2.96226e+12 -1.53528e+12 -1.13005e+12 -927202000000.0 -1.81124e+12 -2.03456e+12 -2.30769e+12 -2.59897e+12 -1.82416e+12 -2.42549e+12 -2.42089e+12 -3.04409e+12 -1.90059e+12 -3.89974e+12 -1.76201e+12 -2.29663e+12 -1.51106e+12 -1.05744e+12 -1.43218e+12 -756167000000.0 -571805000000.0 -934570000000.0 -3.16652e+12 -1.00152e+12 -2.27101e+12 -1.28542e+12 -1.62657e+12 -3.85911e+12 -697848000000.0 -1.7917e+12 -2.09627e+12 -748291000000.0 -2.69552e+12 -1.98096e+12 -1.05762e+12 -1.3414e+12 -519692000000.0 -808973000000.0 -998342000000.0 -1.13151e+12 -472391000000.0 -1.20771e+12 -1.27604e+12 -291794000000.0 -470204000000.0 -697035000000.0 -791499000000.0 -242886000000.0 -511519000000.0 -147711000000.0 -180044000000.0 -115682000000.0 -185580000000.0 -137962000000.0 -289859000000.0 -84173800000.0 -284968000000.0 -36275600000.0 -142870000000.0 -202501000000.0 -59582900000.0 -147871000000.0 -51459100000.0 -68059300000.0 -58450400000.0 -57861700000.0 -43772300000.0 -57725000000.0 -24150300000.0 -60454600000.0 -12797900000.0 -36143300000.0 -25970500000.0 -12576600000.0 -50881500000.0 -29787500000.0 -57933600000.0 -68991800000.0 -81107100000.0 -12549700000.0 -86443600000.0 -99240100000.0 -83839300000.0 -82798400000.0 -124238000000.0 -78539200000.0 -91806000000.0 -160662000000.0 -279024000000.0 -112488000000.0 -194632000000.0 -102073000000.0 -18603200000.0 -321869000000.0 -49858100000.0 -24640500000.0 -257463000000.0 -582355000000.0 -320214000000.0 -519387000000.0 -322355000000.0 -20841200000.0 -159803000000.0 -226361000000.0 -326913000000.0 -77099300000.0 -1.01956e+12 -568122000000.0 -949432000000.0 -1.12933e+12 -1.78138e+12 -1.22167e+12 -835512000000.0 -1.42779e+12 -848721000000.0 -1.59827e+12 -790060000000.0 -2.55837e+12 -2.24617e+12 -2.45585e+12 -3.154e+12 -1.26626e+12 -899207000000.0 -2.3981e+12 -3.50343e+12 -3.61006e+12 -2.03311e+12 -1.31816e+12 -1.10243e+12 -1.84432e+12 -1.4117e+12 -1.13464e+12 -1.21499e+12 -1.22025e+12 -1.06076e+12 -1.63605e+12 -1.07891e+12 -1.45509e+12 -1.14824e+12 -2.16342e+12 -973220000000.0 -2.14992e+12 -1.3353e+12 -2.00362e+12 -1.23767e+12 -1.316e+12 -2.05779e+12 -814261000000.0 -957616000000.0 -788454000000.0 -1.27732e+12 -467970000000.0 -377133000000.0 -1.09205e+12 -1.08884e+12 -398678000000.0 -179504000000.0 -462021000000.0 -291388000000.0 -65685100000.0 -114062000000.0 -233760000000.0 -296627000000.0 -191769000000.0 -12549700000.0 -230858000000.0 -111326000000.0 -55922800000.0 -175437000000.0 -174969000000.0 -14946400000.0 -12549700000.0 -72152800000.0 -136324000000.0 -119348000000.0 -70597600000.0 -76797700000.0 -74310600000.0 -13284600000.0 -15281600000.0 -28736100000.0 -71434600000.0 -46796200000.0 -20663700000.0 -95253400000.0 -14843700000.0 -47775600000.0 -61245100000.0 -67842400000.0 -77917800000.0 -80086200000.0 -15553200000.0 -94926000000.0 -101995000000.0 -60428400000.0 -77059300000.0 -34745600000.0 -230125000000.0 -106814000000.0 -143359000000.0 -235366000000.0 -285846000000.0 -37378100000.0 -61562700000.0 -133305000000.0 -220704000000.0 -138934000000.0 -198648000000.0 -200171000000.0 -103114000000.0 -571515000000.0 -233135000000.0 -492606000000.0 -460447000000.0 -467807000000.0 -470629000000.0 -532264000000.0 -844207000000.0 -1.07113e+12 -1.47849e+12 -1.30221e+12 -1.55309e+12 -580467000000.0 -1.68066e+12 -1.5933e+12 -1.92722e+12 -966243000000.0 -959132000000.0 -1.15915e+12 -3.07241e+12 -1.25379e+12 -874602000000.0 -1.98024e+12 -3.0555e+12 -2.08932e+12 -1.49736e+12 -922789000000.0 -1.739e+12 -590653000000.0 -607981000000.0 -776456000000.0 -1.76701e+12 -716115000000.0 -168469000000.0 -1.88402e+12 -1.78061e+12 -807469000000.0 -828668000000.0 -653200000000.0 -683680000000.0 -200525000000.0 -1.36774e+12 -1.87075e+12 -1.50979e+12 -1.36211e+12 -1.06377e+12 -894105000000.0 -991340000000.0 -659722000000.0 -438242000000.0 -12479500000.0 -363696000000.0 -341303000000.0 -138451000000.0 -121422000000.0 -416293000000.0 -381300000000.0 -22294400000.0 -287454000000.0 -256283000000.0 -16571800000.0 -108366000000.0 -167454000000.0 -246957000000.0 -131596000000.0 -28728200000.0 -33249000000.0 -95338200000.0 -118599000000.0 -65446100000.0 -84263600000.0 -106360000000.0 -12549700000.0 -53543400000.0 -40570100000.0 -31917300000.0 -81186100000.0 -63375300000.0 -68377600000.0 -47372200000.0 -65381900000.0 -44243500000.0 -13034100000.0 -93730800000.0 -19308300000.0 -25873400000.0 -103974000000.0 -156777000000.0 -38400300000.0 -38910200000.0 -112417000000.0 -74017000000.0 -45971800000.0 -150987000000.0 -52007000000.0 -41593000000.0 -22085500000.0 -128399000000.0 -104522000000.0 -42269600000.0 -54462900000.0 -129275000000.0 -237788000000.0 -19366200000.0 -25546600000.0 -142742000000.0 -207697000000.0 -149999000000.0 -310229000000.0 -369784000000.0 -424099000000.0 -124677000000.0 -331505000000.0 -66823000000.0 -79876000000.0 -426275000000.0 -304049000000.0 -1.34753e+12 -937028000000.0 -1.57157e+12 -261829000000.0 -710898000000.0 -567841000000.0 -333066000000.0 -1.27997e+12 -1.68814e+12 -1.17884e+12 -1.56757e+12 -1.42645e+12 -1.71095e+12 -836437000000.0 -1.01237e+12 -1.58425e+12 -1.37721e+12 -643642000000.0 -1.24284e+12 -1.35433e+12 -1.97427e+12 -907884000000.0 -1.69833e+12 -3.061e+12 -1.48127e+12 -940766000000.0 -1.16256e+12 -983510000000.0 -1.14832e+12 -1.54704e+12 -914991000000.0 -1.52121e+12 -558170000000.0 -1.20358e+12 -560718000000.0 -736353000000.0 -750455000000.0 -425320000000.0 -904518000000.0 -344360000000.0 -418309000000.0 -725633000000.0 -822183000000.0 -747769000000.0 -1.42385e+12 -1.50617e+12 -659507000000.0 -653945000000.0 -436338000000.0 -487181000000.0 -604423000000.0 -229892000000.0 -262344000000.0 -85190100000.0 -12549700000.0 -188938000000.0 -188833000000.0 -161412000000.0 -242098000000.0 -95780600000.0 -111640000000.0 -19758400000.0 -101338000000.0 -65544300000.0 -41696400000.0 -66279500000.0 -64063900000.0 -72696300000.0 -34413600000.0 -39532700000.0 -53615600000.0 -37986100000.0 -31053700000.0 -29869700000.0 -67033700000.0 -12549700000.0 -55043500000.0 -52483700000.0 -35560900000.0 -13636100000.0 -91819400000.0 -18362100000.0 -20334200000.0 -13833300000.0 -97858300000.0 -14728900000.0 -127011000000.0 -48793400000.0 -79790900000.0 -110224000000.0 -71265900000.0 -121525000000.0 -171001000000.0 -272798000000.0 -108546000000.0 -99000000000.0 -297306000000.0 -222442000000.0 -308364000000.0 -268779000000.0 -317449000000.0 -72956500000.0 -273724000000.0 -246355000000.0 -401214000000.0 -248318000000.0 -215084000000.0 -752011000000.0 -54944600000.0 -31800900000.0 -783911000000.0 -592515000000.0 -604283000000.0 -858514000000.0 -1.72687e+12 -335176000000.0 -1.15102e+12 -2.2225e+12 -1.07994e+12 -551437000000.0 -578374000000.0 -1.30466e+12 -1.01842e+12 -609915000000.0 -2.17934e+12 -630244000000.0 -1.21882e+12 -1.45461e+12 -1.56206e+12 -580418000000.0 -1.38227e+12 -304266000000.0 -1.07319e+12 -799887000000.0 -266042000000.0 -1.23468e+12 -706769000000.0 -1.52401e+12 -903294000000.0 -178189000000.0 -455326000000.0 -833284000000.0 -908624000000.0 -74342500000.0 -412561000000.0 -362794000000.0 -401531000000.0 -587335000000.0 -392141000000.0 -453042000000.0 -567798000000.0 -244856000000.0 -245133000000.0 -349538000000.0 -306882000000.0 -199711000000.0 -42875600000.0 -223726000000.0 -93233700000.0 -314973000000.0 -117854000000.0 -238022000000.0 -107982000000.0 -95006400000.0 -75578500000.0 -16416900000.0 -98127200000.0 -64931800000.0 -34580400000.0 -75148600000.0 -12549700000.0 -61160400000.0 -26847900000.0 -32779100000.0 -33022800000.0 -44841500000.0 -16472000000.0 -35506900000.0 -77617600000.0 -66395100000.0 -28761700000.0 -62288700000.0 -98714200000.0 -21826300000.0 -23735200000.0 -100234000000.0 -14111300000.0 -17968200000.0 -136514000000.0 -68380900000.0 -111643000000.0 -60853900000.0 -85232800000.0 -12854900000.0 -32401300000.0 -44965200000.0 -61729900000.0 -12549700000.0 -89643400000.0 -127447000000.0 -83126200000.0 -66046000000.0 -211976000000.0 -195583000000.0 -326666000000.0 -314759000000.0 -164165000000.0 -199064000000.0 -290693000000.0 -126246000000.0 -552748000000.0 -68384700000.0 -416758000000.0 -481840000000.0 -624657000000.0 -434164000000.0 -391317000000.0 -603536000000.0 -1.49284e+12 -645488000000.0 -40669900000.0 -738132000000.0 -1.28399e+12 -868811000000.0 -604570000000.0 -1.07119e+12 -804604000000.0 -774402000000.0 -1.58174e+12 -1.19501e+12 -633766000000.0 -857879000000.0 -878270000000.0 -899565000000.0 -915561000000.0 -744251000000.0 -1.36016e+12 -958180000000.0 -178025000000.0 -544608000000.0 -130017000000.0 -563652000000.0 -864278000000.0 -453971000000.0 -950057000000.0 -624202000000.0 -487025000000.0 -623928000000.0 -476991000000.0 -349265000000.0 -385493000000.0 -714506000000.0 -213202000000.0 -580589000000.0 -354530000000.0 -876265000000.0 -330971000000.0 -263940000000.0 -489816000000.0 -433046000000.0 -600880000000.0 -303559000000.0 -118591000000.0 -193983000000.0 -254746000000.0 -260991000000.0 -189334000000.0 -140408000000.0 -324892000000.0 -12549700000.0 -12549700000.0 -75242500000.0 -187150000000.0 -100817000000.0 -63388700000.0 -98716500000.0 -128346000000.0 -45402200000.0 -49956700000.0 -72397700000.0 -62915300000.0 -47490700000.0 -56655400000.0 -83636100000.0 -45116300000.0 -71402200000.0 -58479500000.0 -58980700000.0 -67339900000.0 -82553600000.0 -109095000000.0 -104772000000.0 -15682300000.0 -48138200000.0 -115831000000.0 -48447100000.0 -86678600000.0 -30607400000.0 -135946000000.0 -103291000000.0 -72304800000.0 -104327000000.0 -99410600000.0 -89956900000.0 -88922200000.0 -127625000000.0 -157750000000.0 -232261000000.0 -185694000000.0 -13490800000.0 -152869000000.0 -238045000000.0 -262380000000.0 -218963000000.0 -319354000000.0 -229374000000.0 -464777000000.0 -410812000000.0 -518656000000.0 -454143000000.0 -499753000000.0 -526857000000.0 -855169000000.0 -307130000000.0 -449325000000.0 -1.05505e+12 -597494000000.0 -116068000000.0 -850672000000.0 -889144000000.0 -1.42518e+12 -1.32813e+12 -1.18133e+12 -395426000000.0 -1.1446e+12 -1.46269e+12 -1.33861e+12 -648282000000.0 -1.38452e+12 -561263000000.0 -412586000000.0 -29643600000.0 -994394000000.0 -175408000000.0 -304590000000.0 -778926000000.0 -892276000000.0 -340809000000.0 -402407000000.0 -369699000000.0 -27828800000.0 -103252000000.0 -130987000000.0 -387046000000.0 -616940000000.0 -258354000000.0 -155685000000.0 -148474000000.0 -476334000000.0 -513257000000.0 -241124000000.0 -281402000000.0 -193557000000.0 -200962000000.0 -143325000000.0 -112853000000.0 -115596000000.0 -88764600000.0 -200419000000.0 -235466000000.0 -252401000000.0 -182855000000.0 -179170000000.0 -15131600000.0 -77363600000.0 -42013600000.0 -13059100000.0 -71500800000.0 -40480200000.0 -55646300000.0 -126266000000.0 -45314900000.0 -60101500000.0 -71449700000.0 -86284200000.0 -61519900000.0 -74793600000.0 -70405600000.0 -12549700000.0 -85537700000.0 -46436700000.0 -60083000000.0 -14533200000.0 -72284100000.0 -62407600000.0 -16357500000.0 -38464300000.0 -23608400000.0 -79881600000.0 -111177000000.0 -90101500000.0 -87234500000.0 -114755000000.0 -12946900000.0 -124640000000.0 -172811000000.0 -83110000000.0 -98686200000.0 -88862700000.0 -137818000000.0 -76166200000.0 -135169000000.0 -186045000000.0 -96000100000.0 -152260000000.0 -88541100000.0 -356679000000.0 -376804000000.0 -274323000000.0 -227493000000.0 -233645000000.0 -379883000000.0 -377616000000.0 -181129000000.0 -208503000000.0 -522488000000.0 -1.19337e+12 -422016000000.0 -885677000000.0 -447215000000.0 -1.02449e+12 -558182000000.0 -868873000000.0 -440454000000.0 -1.33072e+12 -314466000000.0 -460741000000.0 -470552000000.0 -747018000000.0 -1.01298e+12 -446968000000.0 -767035000000.0 -733513000000.0 -219176000000.0 -521711000000.0 -569074000000.0 -354065000000.0 -95888100000.0 -226438000000.0 -348881000000.0 -85306000000.0 -102086000000.0 -250644000000.0 -254286000000.0 -176240000000.0 -214107000000.0 -12549700000.0 -216582000000.0 -89660300000.0 -106152000000.0 -14576900000.0 -168445000000.0 -12549700000.0 -72206200000.0 -65744900000.0 -99950700000.0 -118463000000.0 -41925800000.0 -78841700000.0 -55803900000.0 -128238000000.0 -37662800000.0 -152862000000.0 -198024000000.0 -39308100000.0 -57639500000.0 -54180200000.0 -12612300000.0 -115274000000.0 -15276900000.0 -19716300000.0 -28957800000.0 -91453100000.0 -55959900000.0 -59031600000.0 -69169800000.0 -60884100000.0 -57216100000.0 -42829300000.0 -28036500000.0 -106139000000.0 -84386800000.0 -85914300000.0 -63710700000.0 -76700000000.0 -77724800000.0 -58622700000.0 -52850400000.0 -26878800000.0 -26720700000.0 -44049600000.0 -147309000000.0 -15177600000.0 -88938800000.0 -22617800000.0 -122871000000.0 -38648900000.0 -79617500000.0 -110744000000.0 -101997000000.0 -147134000000.0 -66459900000.0 -191338000000.0 -216241000000.0 -124474000000.0 -278550000000.0 -211317000000.0 -211698000000.0 -410087000000.0 -418291000000.0 -410787000000.0 -164021000000.0 -484400000000.0 -307617000000.0 -236873000000.0 -968631000000.0 -465514000000.0 -370156000000.0 -345333000000.0 -406842000000.0 -1.07566e+12 -117535000000.0 -174476000000.0 -462203000000.0 -380480000000.0 -570178000000.0 -1.10102e+12 -441200000000.0 -303936000000.0 -400904000000.0 -217235000000.0 -55578200000.0 -311783000000.0 -183626000000.0 -448860000000.0 -379489000000.0 -397492000000.0 -271555000000.0 -251190000000.0 -232432000000.0 -246696000000.0 -135082000000.0 -81347500000.0 -202219000000.0 -347547000000.0 -63554000000.0 -203834000000.0 -12549700000.0 -186535000000.0 -192103000000.0 -146532000000.0 -82371600000.0 -90327000000.0 -12549700000.0 -164103000000.0 -124853000000.0 -72275100000.0 -69167700000.0 -50046900000.0 -94611800000.0 -109391000000.0 -77464900000.0 -28214500000.0 -49356700000.0 -51285600000.0 -25056700000.0 -102550000000.0 -127759000000.0 -61772000000.0 -136466000000.0 -198019000000.0 -139483000000.0 -138001000000.0 -118949000000.0 -71585900000.0 -50783900000.0 -43081300000.0 -103017000000.0 -39988800000.0 -54563200000.0 -56518500000.0 -60513200000.0 -68359400000.0 -38277700000.0 -79991900000.0 -57600900000.0 -68630300000.0 -51473500000.0 -42459300000.0 -78123100000.0 -72842600000.0 -62275600000.0 -20518800000.0 -39666700000.0 -144739000000.0 -79513300000.0 -35512800000.0 -92141300000.0 -155013000000.0 -103137000000.0 -128582000000.0 -181066000000.0 -116287000000.0 -103560000000.0 -74764100000.0 -60389700000.0 -101508000000.0 -130963000000.0 -195038000000.0 -114169000000.0 -102458000000.0 -165052000000.0 -118514000000.0 -52766500000.0 -173477000000.0 -428802000000.0 -208012000000.0 -146703000000.0 -371997000000.0 -512423000000.0 -318073000000.0 -247873000000.0 -846318000000.0 -538592000000.0 -557285000000.0 -723668000000.0 -383193000000.0 -454184000000.0 -985017000000.0 -509385000000.0 -764613000000.0 -212358000000.0 -588326000000.0 -766644000000.0 -307718000000.0 -337775000000.0 -45588800000.0 -213170000000.0 -148534000000.0 -248855000000.0 -510273000000.0 -201452000000.0 -118573000000.0 -17510500000.0 -174789000000.0 -103229000000.0 -89455400000.0 -43065400000.0 -46589100000.0 -242630000000.0 -220724000000.0 -187478000000.0 -220075000000.0 -109266000000.0 -67678700000.0 -83000400000.0 -81548900000.0 -106685000000.0 -68718500000.0 -45827400000.0 -40297100000.0 -41975900000.0 -29171900000.0 -90113500000.0 -36370700000.0 -36102800000.0 -28991200000.0 -34305300000.0 -44295900000.0 -44387100000.0 -21955300000.0 -95862400000.0 -48804700000.0 -85946400000.0 -84364900000.0 -57880600000.0 -112791000000.0 -59335800000.0 -41208700000.0 -94258100000.0 -80281800000.0 -49572800000.0 -43049300000.0 -166265000000.0 -91683300000.0 -115763000000.0 -99250300000.0 -36264400000.0 -50289800000.0 -12549700000.0 -106616000000.0 -27159500000.0 -13123000000.0 -93473800000.0 -77446000000.0 -29195900000.0 -14731700000.0 -74781100000.0 -25936900000.0 -127245000000.0 -12549700000.0 -77618500000.0 -57200800000.0 -22771400000.0 -64516400000.0 -90062200000.0 -156215000000.0 -71319500000.0 -85416700000.0 -176072000000.0 -12549700000.0 -92102800000.0 -16150500000.0 -318294000000.0 -156072000000.0 -87217100000.0 -280199000000.0 -156723000000.0 -389730000000.0 -457057000000.0 -464039000000.0 -398716000000.0 -330994000000.0 -453297000000.0 -504649000000.0 -398560000000.0 -168206000000.0 -130211000000.0 -315840000000.0 -457383000000.0 -445869000000.0 -355000000000.0 -452664000000.0 -708951000000.0 -344265000000.0 -88440800000.0 -281404000000.0 -209316000000.0 -119289000000.0 -14803700000.0 -334852000000.0 -185691000000.0 -47031400000.0 -35684700000.0 -132233000000.0 -25755200000.0 -12549700000.0 -35157300000.0 -70025600000.0 -137141000000.0 -34171500000.0 -155728000000.0 -160169000000.0 -36163200000.0 -20321900000.0 -29690300000.0 -65393100000.0 -128972000000.0 -39339800000.0 -13132000000.0 -12549900000.0 -29585100000.0 -25609800000.0 -23990100000.0 -81478400000.0 -53766900000.0 -14090600000.0 -22317500000.0 -24016500000.0 -28970100000.0 -58956300000.0 -60567100000.0 -40836500000.0 -13470400000.0 -14587600000.0 -125010000000.0 -68908700000.0 -117258000000.0 -73692900000.0 -39727900000.0 -71883600000.0 -37961100000.0 -70362100000.0 -13971200000.0 -62804100000.0 -93754100000.0 -12549700000.0 -72283900000.0 -115152000000.0 -17332500000.0 -61163600000.0 -61506800000.0 -33454200000.0 -66573800000.0 -61034500000.0 -120534000000.0 -13737500000.0 -39671100000.0 -75784600000.0 -15457000000.0 -31043200000.0 -77538600000.0 -78633500000.0 -85127300000.0 -43415200000.0 -45628600000.0 -109993000000.0 -12549700000.0 -73696800000.0 -54204800000.0 -76281800000.0 -158078000000.0 -110082000000.0 -100845000000.0 -115295000000.0 -146049000000.0 -116532000000.0 -142362000000.0 -147537000000.0 -158446000000.0 -82400400000.0 -206341000000.0 -64383500000.0 -185132000000.0 -259390000000.0 -392504000000.0 -188369000000.0 -286845000000.0 -295254000000.0 -139228000000.0 -374479000000.0 -194601000000.0 -77732400000.0 -301533000000.0 -116690000000.0 -67736300000.0 -425496000000.0 -88928600000.0 -350843000000.0 -313070000000.0 -478301000000.0 -217166000000.0 -153988000000.0 -116895000000.0 -108094000000.0 -60414100000.0 -19900800000.0 -184354000000.0 -125812000000.0 -12549700000.0 -12549700000.0 -12549700000.0 -125915000000.0 -76463500000.0 -63243600000.0 -97839600000.0 -126423000000.0 -12549700000.0 -232830000000.0 -12549700000.0 -85794700000.0 -48831900000.0 -68784000000.0 -124423000000.0 -35234400000.0 -38561500000.0 -12549900000.0 -54341600000.0 -59653700000.0 -43705300000.0 -65046600000.0 -46739900000.0 -29939100000.0 -35027100000.0 -28677700000.0 -46755300000.0 -45791800000.0 -46492500000.0 -25241700000.0 -29657500000.0 -92814900000.0 -17622600000.0 -106521000000.0 -86717700000.0 -121108000000.0 -98755700000.0 -75735500000.0 -63692400000.0 -90814800000.0 -47820600000.0 -43128700000.0 -65061500000.0 -54147700000.0 -112772000000.0 -88216100000.0 -12585100000.0 -39130400000.0 -78480200000.0 -37757400000.0 -20928200000.0 -64174000000.0 -35241900000.0 -80379700000.0 -13457100000.0 -72919800000.0 -76314500000.0 -118667000000.0 -31862400000.0 -110377000000.0 -12637000000.0 -71139200000.0 -65655500000.0 -177208000000.0 -77261100000.0 -32756400000.0 -53870100000.0 -84653400000.0 -104287000000.0 -131448000000.0 -221711000000.0 -85873500000.0 -158930000000.0 -114396000000.0 -57252100000.0 -146040000000.0 -244304000000.0 -223541000000.0 -45457500000.0 -269329000000.0 -336253000000.0 -262238000000.0 -96589600000.0 -133418000000.0 -309467000000.0 -120775000000.0 -231483000000.0 -226101000000.0 -213394000000.0 -176669000000.0 -470532000000.0 -117663000000.0 -53024000000.0 -94010400000.0 -13378000000.0 -63533100000.0 -202862000000.0 -112626000000.0 -20449500000.0 -26915900000.0 -69879500000.0 -12549700000.0 -29341000000.0 -47741300000.0 -13278500000.0 -68617100000.0 -129884000000.0 -115624000000.0 -245455000000.0 -50592100000.0 -42296300000.0 -34725900000.0 -90149700000.0 -72462100000.0 -46196700000.0 -50081400000.0 -37417100000.0 -41709700000.0 -57816300000.0 -44571000000.0 -31300800000.0 -43365500000.0 -14122100000.0 -12549700000.0 -35930600000.0 -18542300000.0 -73706300000.0 -24731100000.0 -25303300000.0 -26296000000.0 -94605300000.0 -68946400000.0 -31268200000.0 -80617300000.0 -25862000000.0 -64176400000.0 -49207600000.0 -39676200000.0 -38763100000.0 -75245000000.0 -42140600000.0 -56992500000.0 -58041800000.0 -76168100000.0 -40757700000.0 -86139500000.0 -13991500000.0 -66889700000.0 -76219100000.0 -71474400000.0 -133118000000.0 -126152000000.0 -97745500000.0 -132449000000.0 -64461000000.0 -69356700000.0 -56275900000.0 -42752800000.0 -63458900000.0 -123750000000.0 -175743000000.0 -103885000000.0 -14713700000.0 -64737600000.0 -12948400000.0 -61136200000.0 -13052800000.0 -16155400000.0 -126642000000.0 -21566200000.0 -43100500000.0 -249635000000.0 -180493000000.0 -89566800000.0 -102141000000.0 -100528000000.0 -303987000000.0 -218021000000.0 -115389000000.0 -198481000000.0 -59200900000.0 -19439500000.0 -244564000000.0 -212177000000.0 -160971000000.0 -281451000000.0 -132352000000.0 -242193000000.0 -368721000000.0 -29132700000.0 -286884000000.0 -340712000000.0 -80784900000.0 -23993900000.0 -55241800000.0 -15467500000.0 -157406000000.0 -129174000000.0 -101191000000.0 -57396700000.0 -68960600000.0 -83852500000.0 -87562300000.0 -71428200000.0 -74819200000.0 -74121000000.0 -12549700000.0 -12549700000.0 -34270600000.0 -120266000000.0 -138844000000.0 -144678000000.0 -89273000000.0 -113877000000.0 -52061500000.0 -42402500000.0 -48884300000.0 -62998300000.0 -89877300000.0 -24988400000.0 -15082200000.0 -58670400000.0 -57509300000.0 -29495100000.0 -37467300000.0 -12656400000.0 -31523700000.0 -89834000000.0 -51417600000.0 -60959700000.0 -47998600000.0 -30794000000.0 -46424400000.0 -35668100000.0 -48792800000.0 -58443600000.0 -49918600000.0 -40171800000.0 -76728700000.0 -68762100000.0 -68408300000.0 -37410100000.0 -69818600000.0 -69411800000.0 -44566700000.0 -36833100000.0 -116346000000.0 -66104900000.0 -99828500000.0 -60793200000.0 -16337700000.0 -37368300000.0 -52506400000.0 -40718300000.0 -82151200000.0 -46823800000.0 -22974300000.0 -31479200000.0 -70193300000.0 -80830300000.0 -56387800000.0 -19413700000.0 -26353900000.0 -191246000000.0 -72135200000.0 -68952600000.0 -127838000000.0 -131935000000.0 -147358000000.0 -186554000000.0 -111057000000.0 -218381000000.0 -96647700000.0 -129835000000.0 -156602000000.0 -96029900000.0 -230123000000.0 -36735700000.0 -124365000000.0 -108405000000.0 -12549700000.0 -194964000000.0 -90589800000.0 -68991600000.0 -241187000000.0 -120544000000.0 -234346000000.0 -227821000000.0 -31316400000.0 -53576200000.0 -187005000000.0 -323069000000.0 -242106000000.0 -295559000000.0 -78281000000.0 -98186600000.0 -147689000000.0 -149634000000.0 -39024800000.0 -42850500000.0 -78758800000.0 -38218800000.0 -33832200000.0 -42017100000.0 -14086400000.0 -15460900000.0 -44192400000.0 -12949900000.0 -15169200000.0 -48976900000.0 -16061100000.0 -22218500000.0 -16785100000.0 -95955700000.0 -52200300000.0 -72377900000.0 -14002400000.0 -61252800000.0 -30329800000.0 -12761900000.0 -14459800000.0 -33570900000.0 -16039800000.0 -63955500000.0 -67133100000.0 -42873500000.0 -48201200000.0 -26314800000.0 -57621400000.0 -45677000000.0 -88157000000.0 -27199300000.0 -28995700000.0 -56677900000.0 -59670700000.0 -12549700000.0 -66716700000.0 -12549700000.0 -45874300000.0 -56997500000.0 -26493600000.0 -76424200000.0 -90880600000.0 -65750500000.0 -43523300000.0 -46724100000.0 -15693500000.0 -15153600000.0 -39254300000.0 -14020800000.0 -94145200000.0 -39194700000.0 -34521200000.0 -12549700000.0 -60310100000.0 -80037100000.0 -36618700000.0 -64482700000.0 -97460500000.0 -78052000000.0 -60897500000.0 -78547300000.0 -87205000000.0 -125371000000.0 -61254500000.0 -72840500000.0 -118928000000.0 -114339000000.0 -64713800000.0 -69912500000.0 -17657000000.0 -13070500000.0 -115782000000.0 -129386000000.0 -106536000000.0 -137708000000.0 -63200400000.0 -84493200000.0 -128043000000.0 -102686000000.0 -81088200000.0 -245799000000.0 -235788000000.0 -158895000000.0 -92231800000.0 -51718700000.0 -242153000000.0 -120538000000.0 -35429300000.0 -105832000000.0 -207234000000.0 -229709000000.0 -197992000000.0 -92490000000.0 -387941000000.0 -378254000000.0 -20899500000.0 -35809100000.0 -47481300000.0 -85471500000.0 -62870600000.0 -25584400000.0 -39550900000.0 -53607600000.0 -12985000000.0 -12654000000.0 -45666500000.0 -21376200000.0 -31779500000.0 -42023300000.0 -27778200000.0 -45581700000.0 -54067900000.0 -76526700000.0 -63794400000.0 -85972100000.0 -26350900000.0 -74963500000.0 -28491300000.0 -39369700000.0 -43614300000.0 -30823100000.0 -26177100000.0 -28125300000.0 -63070000000.0 -78225700000.0 -71757400000.0 -35186100000.0 -50546400000.0 -21395700000.0 -66806500000.0 -24659800000.0 -21803400000.0 -36711000000.0 -23654800000.0 -54272900000.0 -84156300000.0 -52934900000.0 -85303000000.0 -69244300000.0 -46993900000.0 -74098000000.0 -69393800000.0 -55759800000.0 -75885400000.0 -84282000000.0 -82564600000.0 -84778800000.0 -85142500000.0 -85622000000.0 -69275400000.0 -35015000000.0 -69736100000.0 -28106500000.0 -53263800000.0 -47643600000.0 -86961700000.0 -72445600000.0 -13940500000.0 -62420700000.0 -38761500000.0 -42122300000.0 -137621000000.0 -112499000000.0 -101647000000.0 -34747100000.0 -40201100000.0 -97089200000.0 -121664000000.0 -109393000000.0 -100817000000.0 -97621600000.0 -109176000000.0 -12549700000.0 -81852800000.0 -51835700000.0 -55671300000.0 -136338000000.0 -16207700000.0 -64451100000.0 -23795000000.0 -59175900000.0 -12945800000.0 -29623300000.0 -107795000000.0 -130632000000.0 -86955100000.0 -90684800000.0 -247434000000.0 -25771000000.0 -31755300000.0 -40564500000.0 -76841300000.0 -36254900000.0 -22205500000.0 -98040800000.0 -300080000000.0 -138350000000.0 -303555000000.0 -13874400000.0 -41878900000.0 -30918400000.0 -85476400000.0 -76291500000.0 -24749800000.0 -30812200000.0 -46784900000.0 -54795000000.0 -37269000000.0 -34861700000.0 -51034600000.0 -42933300000.0 -49473500000.0 -34039000000.0 -35783500000.0 -32136800000.0 -65947600000.0 -18224600000.0 -76499100000.0 -50258500000.0 -48664500000.0 -23510900000.0 -39119800000.0 -19007300000.0 -20825900000.0 -28532500000.0 -31135200000.0 -75270900000.0 -33202700000.0 -46046200000.0 -31098800000.0 -44431600000.0 -92881000000.0 -29162900000.0 -29329900000.0 -19408800000.0 -25478900000.0 -20903600000.0 -58812900000.0 -50288800000.0 -35632700000.0 -27850500000.0 -22458100000.0 -51079200000.0 -67025500000.0 -38541700000.0 -59127600000.0 -70253900000.0 -50378500000.0 -28972300000.0 -28977900000.0 -49361000000.0 -55471900000.0 -71095600000.0 -64538600000.0 -77638300000.0 -87099000000.0 -106430000000.0 -81408800000.0 -86017400000.0 -131548000000.0 -14433400000.0 -90833200000.0 -125807000000.0 -173050000000.0 -116956000000.0 -103997000000.0 -128110000000.0 -111051000000.0 -118213000000.0 -69537400000.0 -94472500000.0 -115807000000.0 -165246000000.0 -82514900000.0 -16418000000.0 -47275800000.0 -37469200000.0 -79354600000.0 -24574000000.0 -124151000000.0 -33689700000.0 -52661700000.0 -103939000000.0 -73969900000.0 -49135400000.0 -40739600000.0 -39944600000.0 -89434900000.0 -128630000000.0 -128383000000.0 -417739000000.0 -139656000000.0 -19088600000.0 -38041600000.0 -27350900000.0 -55332100000.0 -76858500000.0 -38356300000.0 -42584100000.0 -13637200000.0 -18541900000.0 -31563700000.0 -21442800000.0 -16719900000.0 -20205500000.0 -14210900000.0 -39045500000.0 -30460400000.0 -35558800000.0 -12549700000.0 -43767900000.0 -76673800000.0 -40725700000.0 -76651100000.0 -63459600000.0 -38908900000.0 -20737000000.0 -40645100000.0 -16630400000.0 -12584800000.0 -14810900000.0 -31197100000.0 -54384200000.0 -46476000000.0 -46595600000.0 -42148000000.0 -12549700000.0 -57245700000.0 -13393900000.0 -18306000000.0 -17354000000.0 -23521700000.0 -22676400000.0 -13115100000.0 -71865300000.0 -43474500000.0 -46090900000.0 -24854900000.0 -28912200000.0 -66515600000.0 -75011200000.0 -17950900000.0 -26582200000.0 -48669400000.0 -13052700000.0 -34998300000.0 -12549700000.0 -24586600000.0 -44111700000.0 -57381000000.0 -41256700000.0 -49603600000.0 -23434800000.0 -84883000000.0 -12775900000.0 -77402800000.0 -117415000000.0 -56829000000.0 -35035100000.0 -63731900000.0 -44255100000.0 -41888900000.0 -108885000000.0 -17813500000.0 -99968300000.0 -22660900000.0 -23527000000.0 -52810500000.0 -77033300000.0 -37179400000.0 -45353600000.0 -123357000000.0 -49289000000.0 -48420300000.0 -23425900000.0 -79873700000.0 -55666000000.0 -25416100000.0 -83872000000.0 -45506100000.0 -29299400000.0 -24041500000.0 -54603700000.0 -129753000000.0 -45993400000.0 -35361200000.0 -33058900000.0 -16552100000.0 -16455300000.0 -119503000000.0 -23925700000.0 -90668200000.0 -254910000000.0 -98393600000.0 -27120200000.0 -43782000000.0 -78662900000.0 -73412700000.0 -77887800000.0 -13019600000.0 -14024600000.0 -37073100000.0 -12549700000.0 -25776900000.0 -12549700000.0 -31580000000.0 -22059700000.0 -28918900000.0 -26245700000.0 -24290800000.0 -40882900000.0 -41745000000.0 -20167800000.0 -50509200000.0 -22209300000.0 -52376000000.0 -62776200000.0 -18826600000.0 -48973500000.0 -12606400000.0 -28703100000.0 -32271100000.0 -29900700000.0 -46727700000.0 -59163300000.0 -45704100000.0 -43060300000.0 -37652700000.0 -23064500000.0 -64654900000.0 -21732400000.0 -23454900000.0 -60980900000.0 -66196400000.0 -61496600000.0 -40446900000.0 -61337000000.0 -78164500000.0 -65758600000.0 -72237500000.0 -29473200000.0 -74373000000.0 -39805400000.0 -52114800000.0 -38316400000.0 -36907300000.0 -47064800000.0 -52357900000.0 -35261100000.0 -12884500000.0 -103797000000.0 -83344700000.0 -43343400000.0 -44958500000.0 -43298300000.0 -24063900000.0 -75750700000.0 -26369800000.0 -94492900000.0 -58691900000.0 -26938300000.0 -17779100000.0 -67488500000.0 -79358500000.0 -99028300000.0 -47865000000.0 -64930100000.0 -46032400000.0 -42527400000.0 -17099700000.0 -16307000000.0 -81312400000.0 -67671400000.0 -63439200000.0 -97924000000.0 -52994100000.0 -78096700000.0 -64520600000.0 -75873400000.0 -40901000000.0 -53259700000.0 -42928500000.0 -93508400000.0 -67483000000.0 -47407000000.0 -133418000000.0 -75760200000.0 -64867500000.0 -53053400000.0 -62527900000.0 -53408300000.0 -87746400000.0 -37857000000.0 -52668500000.0 -75152200000.0 -41733500000.0 -213614000000.0 -74810200000.0 -39048800000.0 -57334600000.0 -62773900000.0 -96547500000.0 -20967900000.0 -20522300000.0 -33906100000.0 -39480900000.0 -30803400000.0 -26957600000.0 -23697400000.0 -14091200000.0 -25083000000.0 -18499000000.0 -14072200000.0 -14352200000.0 -37806100000.0 -12708500000.0 -31810000000.0 -33505800000.0 -30812800000.0 -77533400000.0 -96809000000.0 -49876000000.0 -41814500000.0 -26847200000.0 -24906300000.0 -58281500000.0 -47555100000.0 -67782200000.0 -77416400000.0 -69329800000.0 -45103600000.0 -63844300000.0 -92024200000.0 -102042000000.0 -65209700000.0 -44729700000.0 -50077100000.0 -12635800000.0 -20739200000.0 -13270400000.0 -78992500000.0 -12665500000.0 -15038700000.0 -62362500000.0 -53895100000.0 -41535800000.0 -65151000000.0 -46214800000.0 -57957400000.0 -55004600000.0 -58852300000.0 -56201400000.0 -114129000000.0 -21101100000.0 -22967100000.0 -23912800000.0 -21728300000.0 -81240200000.0 -62372600000.0 -75826300000.0 -51668000000.0 -53175300000.0 -68075300000.0 -35466600000.0 -18946400000.0 -29273100000.0 -79115400000.0 -33270700000.0 -55249400000.0 -46944500000.0 -40391500000.0 -81990900000.0 -18832300000.0 -19410700000.0 -21301100000.0 -50127200000.0 -55769500000.0 -14143200000.0 -40338700000.0 -28119100000.0 -64064000000.0 -43588300000.0 -40628900000.0 -80796100000.0 -57665000000.0 -43864700000.0 -63974600000.0 -41863600000.0 -44552400000.0 -58800000000.0 -38716100000.0 -67344100000.0 -65668300000.0 -16970900000.0 -15868700000.0 -222162000000.0 -71112800000.0 -36101800000.0 -26397300000.0 -12549700000.0 -18071400000.0 -19041500000.0 -73384400000.0 -14622800000.0 -38709300000.0 -13377000000.0 -33494700000.0 -19777500000.0 -19860200000.0 -24340200000.0 -25600400000.0 -19967100000.0 -14812700000.0 -38738300000.0 -19183300000.0 -40293000000.0 -49726900000.0 -61872100000.0 -15706500000.0 -112004000000.0 -36226500000.0 -14859600000.0 -65132800000.0 -24387300000.0 -14983200000.0 -12930600000.0 -91595400000.0 -24077600000.0 -17094700000.0 -66101300000.0 -24877600000.0 -45294100000.0 -16288100000.0 -13433500000.0 -57050000000.0 -46405800000.0 -33373000000.0 -12549700000.0 -12566300000.0 -43782800000.0 -35869000000.0 -53485900000.0 -43200300000.0 -24300600000.0 -19702100000.0 -53452600000.0 -23201900000.0 -27591500000.0 -29640400000.0 -17477900000.0 -33915700000.0 -27953500000.0 -47208800000.0 -86482200000.0 -52199700000.0 -14526300000.0 -13883400000.0 -15335700000.0 -25921000000.0 -78554600000.0 -43744600000.0 -33619600000.0 -80608400000.0 -24189100000.0 -12728000000.0 -74994300000.0 -45711100000.0 -66292500000.0 -32700900000.0 -28040200000.0 -59991300000.0 -30057100000.0 -72124700000.0 -13157600000.0 -12549700000.0 -13887500000.0 -24511600000.0 -14097800000.0 -16722100000.0 -35587800000.0 -56873000000.0 -33510100000.0 -36029000000.0 -17928900000.0 -62583600000.0 -42588800000.0 -18085700000.0 -31892300000.0 -51392100000.0 -29505600000.0 -46874800000.0 -41411800000.0 -86924800000.0 -104164000000.0 -118615000000.0 -143632000000.0 -41441000000.0 -42197600000.0 -22974400000.0 -25196400000.0 -12894300000.0 -41672600000.0 -70734800000.0 -80061900000.0 -41702400000.0 -48321300000.0 -52387300000.0 -48583600000.0 -32731500000.0 -36895700000.0 -36324000000.0 -22863400000.0 -55419700000.0 -31769000000.0 -23525400000.0 -36530100000.0 -56929900000.0 -36350100000.0 -39124800000.0 -13277400000.0 -73774300000.0 -63764600000.0 -73722800000.0 -112328000000.0 -36792700000.0 -37977000000.0 -44485100000.0 -49889100000.0 -44666400000.0 -60997400000.0 -41619900000.0 -15202900000.0 -41486100000.0 -12904400000.0 -12644300000.0 -45214200000.0 -31936500000.0 -56467300000.0 -42867700000.0 -33261600000.0 -42749800000.0 -19957500000.0 -19241500000.0 -35512600000.0 -28697600000.0 -22330000000.0 -42477700000.0 -24234900000.0 -24773700000.0 -42457200000.0 -54035400000.0 -68027700000.0 -53267800000.0 -66350500000.0 -86796400000.0 -25292300000.0 -25380600000.0 -53294700000.0 -63535400000.0 -22726600000.0 -12648500000.0 -61287200000.0 -14987300000.0 -51551300000.0 -56427800000.0 -36104800000.0 -51774300000.0 -42427500000.0 -65026800000.0 -26396100000.0 -21089200000.0 -22717100000.0 -39173300000.0 -35224700000.0 -23434900000.0 -13765700000.0 -27596900000.0 -13229300000.0 -41794700000.0 -13822100000.0 -27820600000.0 -32120000000.0 -34757400000.0 -16624800000.0 -35687200000.0 -48064900000.0 -46008000000.0 -43341000000.0 -39706400000.0 -42351700000.0 -49808200000.0 -20725400000.0 -24942600000.0 -72778100000.0 -90533500000.0 -34810300000.0 -12549700000.0 -59952400000.0 -49943400000.0 -35734200000.0 -40914200000.0 -12577100000.0 -46024500000.0 -16137200000.0 -44568900000.0 -34232400000.0 -32765000000.0 -41049900000.0 -43703300000.0 -41132500000.0 -67013700000.0 -38404400000.0 -45010400000.0 -57938700000.0 -58588300000.0 -65780500000.0 -39954200000.0 -61153500000.0 -58306700000.0 -81282200000.0 -17028900000.0 -23260800000.0 -66620700000.0 -48217200000.0 -42346000000.0 -48209900000.0 -40403200000.0 -59887900000.0 -24128800000.0 -17244700000.0 -30098300000.0 -40104100000.0 -28532400000.0 -42054000000.0 -12566500000.0 -15507800000.0 -43123400000.0 -28833900000.0 -25550100000.0 -26563700000.0 -27244800000.0 -36080800000.0 -35662800000.0 -34438600000.0 -36712100000.0 -56388000000.0 -36503600000.0 -54440200000.0 -21765700000.0 -46579000000.0 -25464600000.0 -25565900000.0 -32367500000.0 -22462700000.0 -67606100000.0 -41364600000.0 -27002900000.0 -57055900000.0 -46228600000.0 -47190400000.0 -45642200000.0 -48682600000.0 -70637600000.0 -47849500000.0 -39876700000.0 -39592700000.0 -47212600000.0 -15896700000.0 -33850200000.0 -36038500000.0 -22203000000.0 -20230600000.0 -33181900000.0 -13387800000.0 -23171500000.0 -26120000000.0 -29371300000.0 -13116200000.0 -54499800000.0 -39422400000.0 -43061700000.0 -29416800000.0 -23217600000.0 -40579900000.0 -22526600000.0 -34980300000.0 -16617700000.0 -38445800000.0 -25459600000.0 -29693400000.0 -36791700000.0 -24082500000.0 -12549700000.0 -71096600000.0 -81039900000.0 -22902700000.0 -45226100000.0 -49621200000.0 -21429300000.0 -23990300000.0 -21483400000.0 -27546500000.0 -34170600000.0 -45870100000.0 -19664000000.0 -26018300000.0 -25016100000.0 -23771500000.0 -22561700000.0 -23789900000.0 -47265900000.0 -28333700000.0 -13359200000.0 -32040500000.0 -47744300000.0 -41812200000.0 -16715700000.0 -21086400000.0 -31079000000.0 -96877600000.0 -110848000000.0 -60347200000.0 -45688300000.0 -24910200000.0 -13939300000.0 -25888600000.0 -29638500000.0 -33653400000.0 -57172400000.0 -39434200000.0 -22066700000.0 -36840800000.0 -40929500000.0 -13249000000.0 -13066900000.0 -13490100000.0 -38167100000.0 -18304900000.0 -14752100000.0 -14590200000.0 -13459600000.0 -36892500000.0 -22989700000.0 -21223200000.0 -30380900000.0 -26565700000.0 -21541900000.0 -42451000000.0 -26476200000.0 -33827300000.0 -23502800000.0 -12721500000.0 -24113800000.0 -12625300000.0 -54841500000.0 -32028300000.0 -29538400000.0 -35396400000.0 -42608100000.0 -27467400000.0 -25444800000.0 -12549700000.0 -62781300000.0 -58485300000.0 -52644900000.0 -60959100000.0 -31961900000.0 -29529000000.0 -41419500000.0 -28321700000.0 -42582900000.0 -31952300000.0 -38213400000.0 -37778900000.0 -39424900000.0 -24539600000.0 -28799700000.0 -12550300000.0 -12556700000.0 -13551500000.0 -16610900000.0 -20090000000.0 -12858300000.0 -35227100000.0 -33903900000.0 -29925400000.0 -13322800000.0 -40676500000.0 -22823000000.0 -22728100000.0 -56306600000.0 -12560400000.0 -73673200000.0 -14981100000.0 -19056400000.0 -52240800000.0 -24556700000.0 -12549700000.0 -13863000000.0 -22042100000.0 -28424900000.0 -15051700000.0 -22742600000.0 -16810300000.0 -22166900000.0 -20919200000.0 -26682800000.0 -13937900000.0 -12549700000.0 -51790200000.0 -35215100000.0 -40511500000.0 -49494900000.0 -59830500000.0 -44548800000.0 -13993600000.0 -14686300000.0 -37678900000.0 -57489800000.0 -44720000000.0 -41398900000.0 -30536400000.0 -35626100000.0 -25309600000.0 -33685300000.0 -12875500000.0 -12620400000.0 -43222400000.0 -17736100000.0 -36857600000.0 -36675200000.0 -27884400000.0 -25368500000.0 -20845100000.0 -26291800000.0 -30962100000.0 -24517200000.0 -22744100000.0 -24689100000.0 -30754100000.0 -22175500000.0 -21017800000.0 -13208500000.0 -25421500000.0 -16613100000.0 -14751300000.0 -34647200000.0 -26608400000.0 -42980200000.0 -36701900000.0 -30880400000.0 -44065700000.0 -37599300000.0 -41006600000.0 -13511300000.0 -25873900000.0 -21743300000.0 -58956100000.0 -19902900000.0 -19518100000.0 -30445200000.0 -28991100000.0 -66441800000.0 -45142900000.0 -49556400000.0 -38672700000.0 -20341000000.0 -29568800000.0 -16868000000.0 -18295300000.0 -23510500000.0 -22068200000.0 -40222500000.0 -45595000000.0 -47951300000.0 -26142400000.0 -16858400000.0 -24822200000.0 -14086200000.0 -18955800000.0 -13939400000.0 -21632700000.0 -26156100000.0 -12712000000.0 -45714800000.0 -49548200000.0 -43725000000.0 -48237000000.0 -32992800000.0 -34059000000.0 -47451300000.0 -51185700000.0 -21072600000.0 -37816000000.0 -35576200000.0 -29485400000.0 -15895800000.0 -14910200000.0 -20195700000.0 -18514400000.0 -25604400000.0 -35555900000.0 -22530400000.0 -26679000000.0 -31376200000.0 -27241200000.0 -20582900000.0 -24765300000.0 -28251800000.0 -21060100000.0 -35669600000.0 -13293000000.0 -28014700000.0 -27220100000.0 -18325100000.0 -50919900000.0 -38818000000.0 -24032700000.0 -43132400000.0 -49084600000.0 -12725300000.0 -19813800000.0 -26164600000.0 -35331600000.0 -28912200000.0 -32176900000.0 -38747900000.0 -42501500000.0 -29285000000.0 -37362300000.0 -39866300000.0 -31844100000.0 -15473500000.0 -15599300000.0 -16059400000.0 -33003500000.0 -18446300000.0 -14783700000.0 -19627300000.0 -21398800000.0 -27079300000.0 -33384500000.0 -28165000000.0 -30765500000.0 -33706600000.0 -38518700000.0 -36759000000.0 -42908900000.0 -28015900000.0 -45288200000.0 -14503800000.0 -12820300000.0 -15398900000.0 -26109700000.0 -12847000000.0 -32045600000.0 -17701000000.0 -20703200000.0 -46961900000.0 -16378200000.0 -14190900000.0 -12549700000.0 -28212800000.0 -12986900000.0 -58290500000.0 -36981800000.0 -46943200000.0 -48792800000.0 -39362500000.0 -27908000000.0 -26615200000.0 -22747000000.0 -29141000000.0 -26025300000.0 -22994500000.0 -15195600000.0 -24503700000.0 -17170400000.0 -12634300000.0 -12575300000.0 -45948200000.0 -29311300000.0 -28427300000.0 -42193500000.0 -37805700000.0 -39772600000.0 -20258800000.0 -37313500000.0 -31651100000.0 -49839600000.0 -43870100000.0 -15578100000.0 -25279900000.0 -29405100000.0 -13066800000.0 -25171100000.0 -41982400000.0 -37468300000.0 -23535400000.0 -33178100000.0 -14540000000.0 -28919700000.0 -27331700000.0 -15941300000.0 -16851900000.0 -17730700000.0 -15953300000.0 -19685700000.0 -14177700000.0 -32235600000.0 -34724100000.0 -14758100000.0 -22339800000.0 -19399200000.0 -18204500000.0 -30403600000.0 -29900100000.0 -23214700000.0 -32554400000.0 -42822600000.0 -30680300000.0 -35241700000.0 -40738200000.0 -23602800000.0 -48365000000.0 -37663800000.0 -33109300000.0 -57609300000.0 -18105900000.0 -21786400000.0 -12580600000.0 -16498900000.0 -20783600000.0 -18094100000.0 -22365800000.0 -17650600000.0 -26916100000.0 -18100700000.0 -24753500000.0 -21559000000.0 -12572800000.0 -29404400000.0 -29624800000.0 -36684000000.0 -15310600000.0 -14451300000.0 -15571900000.0 -17577700000.0 -27144200000.0 -20799700000.0 -28057700000.0 -25524200000.0 -15512700000.0 -12736600000.0 -21327900000.0 -12608200000.0 -38415600000.0 -15799400000.0 -29595600000.0 -33037200000.0 -35885300000.0 -24653500000.0 -59058700000.0 -34401800000.0 -33196600000.0 -31738900000.0 -45381800000.0 -21553200000.0 -23243800000.0 -14018800000.0 -64084500000.0 -20035000000.0 -22569100000.0 -20304500000.0 -16785800000.0 -18566800000.0 -18226200000.0 -28323500000.0 -25573600000.0 -20749900000.0 -36241000000.0 -27835900000.0 -30169000000.0 -24181600000.0 -24115400000.0 -16690300000.0 -20629500000.0 -27948500000.0 -26237600000.0 -20873300000.0 -26223300000.0 -23422400000.0 -13193000000.0 -14873600000.0 -33309600000.0 -23098900000.0 -21715700000.0 -17219700000.0 -28397500000.0 -25386900000.0 -15196600000.0 -20040000000.0 -19948900000.0 -15043400000.0 -16036200000.0 -28743000000.0 -29629600000.0 -19425900000.0 -22157100000.0 -19798300000.0 -26430600000.0 -31802200000.0 -34808500000.0 -17024700000.0 -26085300000.0 -15207500000.0 -13080600000.0 -45866900000.0 -31999400000.0 -18044500000.0 -25128400000.0 -25957400000.0 -45665400000.0 -53847200000.0 -39090600000.0 -16640700000.0 -14330500000.0 -25889600000.0 -21701900000.0 -16330900000.0 -14853700000.0 -19127400000.0 -17616300000.0 -28446200000.0 -21137200000.0 -12651200000.0 -17367900000.0 -17998800000.0 -16815600000.0 -22977700000.0 -15321900000.0 -15970500000.0 -17319400000.0 -22156200000.0 -12627800000.0 -12549700000.0 -17911500000.0 -14847900000.0 -17943900000.0 -17527900000.0 -16827200000.0 -26285400000.0 -24267200000.0 -32298600000.0 -19609800000.0 -24030000000.0 -21991400000.0 -35681100000.0 -33386000000.0 -32383400000.0 -21709100000.0 -20174900000.0 -16419000000.0 -31716100000.0 -17898300000.0 -12907500000.0 -19451100000.0 -58935800000.0 -18487000000.0 -22166800000.0 -24163900000.0 -15322900000.0 -12813200000.0 -18530600000.0 -16409000000.0 -19235100000.0 -16205100000.0 -12549700000.0 -25319900000.0 -28959500000.0 -15508000000.0 -14554200000.0 -17043300000.0 -12549700000.0 -17732700000.0 -23449700000.0 -22089500000.0 -19133700000.0 -29158500000.0 -17520800000.0 -18897700000.0 -12782300000.0 -18447600000.0 -18832100000.0 -26312500000.0 -14282400000.0 -12953400000.0 -13871000000.0 -13043200000.0 -27091200000.0 -20728900000.0 -14806600000.0 -12986400000.0 -27586900000.0 -13730100000.0 -19140800000.0 -23385300000.0 -25522600000.0 -25984300000.0 -21156200000.0 -20186900000.0 -23879600000.0 -23484600000.0 -31584100000.0 -34091000000.0 -31943600000.0 -19780800000.0 -16878200000.0 -22890400000.0 -16701500000.0 -12662800000.0 -30449800000.0 -24302300000.0 -12728800000.0 -30143700000.0 -28055900000.0 -27508500000.0 -20773300000.0 -15649300000.0 -15215100000.0 -18920600000.0 -16441400000.0 -19724000000.0 -22373000000.0 -15654700000.0 -24044600000.0 -17651400000.0 -17741200000.0 -18017100000.0 -14304100000.0 -12725100000.0 -12549700000.0 -13254800000.0 -16624700000.0 -12660900000.0 -12815900000.0 -15722500000.0 -12549700000.0 -14347700000.0 -14484600000.0 -14034700000.0 -21890500000.0 -18922000000.0 -21196900000.0 -30755600000.0 -22885300000.0 -21964400000.0 -17618600000.0 -17486600000.0 -12838000000.0 -21622400000.0 -20568400000.0 -23141200000.0 -13699400000.0 -13282600000.0 -34687300000.0 -15900600000.0 -28008700000.0 -27834000000.0 -34672700000.0 -22839800000.0 -20596800000.0 -15277600000.0 -12572700000.0 -15880800000.0 -12965000000.0 -17547100000.0 -17247000000.0 -18281400000.0 -13578100000.0 -21784600000.0 -17592700000.0 -16119900000.0 -15438600000.0 -16428900000.0 -17192300000.0 -15882500000.0 -22818300000.0 -14755000000.0 -21164400000.0 -16449200000.0 -24046900000.0 -12813600000.0 -13945900000.0 -13953200000.0 -12690500000.0 -19531500000.0 -12564200000.0 -13613100000.0 -12549700000.0 -15664800000.0 -17621100000.0 -30264800000.0 -20945600000.0 -25051500000.0 -27078300000.0 -28422200000.0 -15840000000.0 -20257500000.0 -26750200000.0 -17119100000.0 -18947100000.0 -19376000000.0 -16444100000.0 -12549700000.0 -17131200000.0 -19437500000.0 -20669000000.0 -16116700000.0 -12983600000.0 -16495200000.0 -18130700000.0 -18225500000.0 -18162900000.0 -14271100000.0 -24730400000.0 -17578200000.0 -15603300000.0 -16504400000.0 -12885700000.0 -21285600000.0 -24774100000.0 -17972600000.0 -18107300000.0 -12993600000.0 -17349300000.0 -13998500000.0 -17839600000.0 -14070800000.0 -12549700000.0 -15515800000.0 -13901700000.0 -12549700000.0 -12549700000.0 -12997800000.0 -15582100000.0 -13212200000.0 -12549700000.0 -12779300000.0 -15222700000.0 -13062600000.0 -13387600000.0 -13180200000.0 -12912500000.0 -16432200000.0 -18147400000.0 -14004700000.0 -12692400000.0 -17351800000.0 -15641300000.0 -15463400000.0 -15549300000.0 -25015200000.0 -22492000000.0 -22774200000.0 -27628000000.0 -16432400000.0 -33024000000.0 -15338500000.0 -17740100000.0 -28958400000.0 -25087600000.0 -20215100000.0 -14752800000.0 -17512300000.0 -14520800000.0 -14606100000.0 -16118500000.0 -16176600000.0 -19763400000.0 -15936500000.0 -15060600000.0 -15445400000.0 -17587400000.0 -20315900000.0 -17382600000.0 -22770100000.0 -20940200000.0 -14757600000.0 -14663000000.0 -12696700000.0 -12655500000.0 -13967600000.0 -14900800000.0 -13584400000.0 -12549700000.0 -12630000000.0 -13142800000.0 -17745200000.0 -20984800000.0 -15334000000.0 -13496700000.0 -18200900000.0 -15587800000.0 -15065400000.0 -18456300000.0 -17320900000.0 -16725300000.0 -17545500000.0 -16184400000.0 -16198400000.0 -16912800000.0 -17896000000.0 -16795900000.0 -14967500000.0 -14981300000.0 -14839400000.0 -14966200000.0 -13408900000.0 -16592300000.0 -16406000000.0 -16219500000.0 -16237700000.0 -14942600000.0 -14711500000.0 -13133900000.0 -17331700000.0 -16228400000.0 -12549700000.0 -13837900000.0 -14317500000.0 -13123300000.0 -14876000000.0 -12549700000.0 -15845900000.0 -12959900000.0 -12624900000.0 -14439400000.0 -12770200000.0 -12549700000.0 -12554300000.0 -12639800000.0 -14507500000.0 -12549700000.0 -14655800000.0 -12549700000.0 -12868700000.0 -13067600000.0 -14497900000.0 -13259100000.0 -14807200000.0 -13450300000.0 -13402400000.0 -12586800000.0 -15043300000.0 -13200800000.0 -13168300000.0 -15520100000.0 -14442100000.0 -15790300000.0 -17900800000.0 -17196900000.0 -17740800000.0 -14285400000.0 -20633800000.0 -20482200000.0 -15313500000.0 -16915300000.0 -16412900000.0 -17696300000.0 -15501100000.0 -19204300000.0 -17486500000.0 -14840800000.0 -13931100000.0 -13322700000.0 -12749300000.0 -13751800000.0 -14574900000.0 -14124700000.0 -12701200000.0 -14533600000.0 -14027900000.0 -12889600000.0 -13563400000.0 -14479200000.0 -15290900000.0 -12549700000.0 -16091900000.0 -14244600000.0 -14837500000.0 -14172000000.0 -13296600000.0 -12874700000.0 -12617000000.0 -12697600000.0 -14513000000.0 -14911700000.0 -13351000000.0 -12549700000.0 -14089400000.0 -13613400000.0 -13208000000.0 -15047800000.0 -13330300000.0 -13509600000.0 -14033100000.0 -13714300000.0 -13370800000.0 -13611300000.0 -12686500000.0 -13130900000.0 -13312000000.0 -13050300000.0 -12807300000.0 -13415200000.0 -12698900000.0 -12732100000.0 -12790600000.0 -12760900000.0 -15074900000.0 -13473000000.0 -13019200000.0 -12802600000.0 -13753900000.0 -12671700000.0 -13552400000.0 -12979500000.0 -12927700000.0 -12549700000.0 -13130800000.0 -12668600000.0 -13097200000.0 -13800500000.0 -13500100000.0 -12984400000.0 -12858800000.0 -12828500000.0 -12836300000.0 -12913900000.0 -13769700000.0 -13080500000.0 -13331400000.0 -13001100000.0 -12684500000.0 -12793800000.0 -12654400000.0 -13196400000.0 -12742600000.0 -13470300000.0 -13863400000.0 -12597300000.0 -12648600000.0 -13420800000.0 -14717000000.0 -14706400000.0 -14933700000.0 -13546500000.0 -13262200000.0 -14625800000.0 -14782100000.0 -13363300000.0 -14424900000.0 -13433600000.0 -13388100000.0 -13611700000.0 -12678200000.0 -12693800000.0 -12784300000.0 -12549700000.0 -12549700000.0 -13024800000.0 -12697500000.0 -12738800000.0 -12879300000.0 -13241300000.0 -13147900000.0 -12817200000.0 -12903200000.0 -12957000000.0 -12979400000.0 -13137800000.0 -12892400000.0 -13409300000.0 -13022800000.0 -13897200000.0 -13149000000.0 -13099900000.0 -13020300000.0 -12972700000.0 -12581400000.0 -12549700000.0 -12580600000.0 