# vtk DataFile Version 2.0
Time step 62
ASCII
DATASET UNSTRUCTURED_GRID
POINTS 5000 float
202441.0 245896.0 0
207403.0 244118.0 0
214264.0 245552.0 0
232884.0 245468.0 0
277688.0 245606.0 0
297596.0 244432.0 0
202416.0 250931.0 0
206293.0 248435.0 0
209199.0 247352.0 0
211384.0 250245.0 0
217528.0 250313.0 0
222197.0 247661.0 0
229139.0 247157.0 0
226373.0 250644.0 0
233140.0 248829.0 0
237783.0 248096.0 0
243378.0 249576.0 0
249995.0 250600.0 0
256169.0 249125.0 0
261197.0 250921.0 0
266150.0 249896.0 0
271023.0 247087.0 0
274895.0 251077.0 0
280349.0 251075.0 0
285610.0 248724.0 0
291132.0 246495.0 0
297179.0 249709.0 0
203018.0 256165.0 0
207140.0 252733.0 0
214166.0 254412.0 0
222318.0 253134.0 0
227384.0 255220.0 0
230356.0 251731.0 0
235027.0 252954.0 0
240040.0 254273.0 0
245165.0 254824.0 0
249706.0 256035.0 0
253732.0 255345.0 0
257754.0 253584.0 0
263923.0 254202.0 0
268232.0 254891.0 0
270437.0 251583.0 0
272980.0 255969.0 0
277645.0 255165.0 0
284028.0 253572.0 0
281251.0 255132.0 0
287637.0 253240.0 0
292068.0 252019.0 0
296672.0 255713.0 0
201899.0 260607.0 0
206122.0 260830.0 0
209713.0 257208.0 0
218502.0 256645.0 0
214467.0 259681.0 0
219017.0 261212.0 0
223345.0 258730.0 0
228587.0 260349.0 0
231931.0 256753.0 0
233298.0 261061.0 0
236465.0 257842.0 0
241582.0 259540.0 0
247122.0 259403.0 0
251910.0 259596.0 0
256633.0 259334.0 0
260594.0 256783.0 0
260831.0 261100.0 0
265162.0 258987.0 0
269760.0 258745.0 0
276234.0 259039.0 0
280442.0 258866.0 0
285084.0 257638.0 0
289085.0 256552.0 0
288810.0 260929.0 0
292375.0 258366.0 0
202761.0 264822.0 0
210723.0 264089.0 0
216901.0 266233.0 0
222998.0 264473.0 0
227194.0 264216.0 0
230894.0 264817.0 0
237250.0 262356.0 0
234936.0 265458.0 0
240700.0 265767.0 0
249660.0 263792.0 0
244996.0 263718.0 0
254364.0 263760.0 0
258868.0 265068.0 0
264448.0 265116.0 0
268549.0 262276.0 0
272895.0 261751.0 0
270561.0 264617.0 0
273411.0 266407.0 0
277987.0 263813.0 0
283710.0 262822.0 0
287738.0 265115.0 0
291292.0 264439.0 0
296212.0 262672.0 0
202049.0 269175.0 0
206745.0 268468.0 0
212015.0 269797.0 0
221762.0 269737.0 0
227068.0 268504.0 0
232711.0 269539.0 0
237201.0 268489.0 0
243777.0 270339.0 0
240743.0 270257.0 0
246979.0 268215.0 0
251751.0 267926.0 0
254360.0 271553.0 0
255745.0 267736.0 0
259623.0 270356.0 0
269252.0 267263.0 0
265885.0 271456.0 0
271853.0 270501.0 0
277565.0 270076.0 0
282092.0 267356.0 0
282748.0 271437.0 0
290232.0 267798.0 0
286099.0 268837.0 0
290569.0 271677.0 0
293657.0 267530.0 0
294441.0 270984.0 0
297551.0 268455.0 0
202031.0 272764.0 0
202299.0 276636.0 0
206829.0 274109.0 0
212524.0 275151.0 0
216869.0 272013.0 0
220894.0 274124.0 0
229516.0 272635.0 0
225431.0 274013.0 0
232519.0 274076.0 0
229745.0 276521.0 0
237136.0 273524.0 0
242664.0 274315.0 0
246366.0 272333.0 0
248030.0 275500.0 0
250145.0 272179.0 0
252500.0 276292.0 0
256932.0 274768.0 0
261509.0 275819.0 0
270276.0 274627.0 0
274492.0 274389.0 0
280422.0 273879.0 0
277928.0 274961.0 0
283632.0 275845.0 0
286424.0 272680.0 0
289024.0 275702.0 0
294040.0 275480.0 0
297853.0 272777.0 0
298375.0 276334.0 0
201938.0 280513.0 0
205538.0 279396.0 0
209369.0 278460.0 0
212975.0 280642.0 0
217666.0 278108.0 0
222559.0 277526.0 0
221839.0 281867.0 0
226260.0 279384.0 0
234026.0 277974.0 0
230540.0 280970.0 0
239538.0 279242.0 0
244937.0 278832.0 0
249144.0 278958.0 0
252357.0 281761.0 0
257176.0 279707.0 0
262909.0 281000.0 0
265960.0 277068.0 0
269300.0 277766.0 0
268189.0 281534.0 0
273041.0 278648.0 0
276566.0 277425.0 0
279693.0 277580.0 0
277381.0 281521.0 0
282423.0 280978.0 0
286589.0 279054.0 0
291101.0 279804.0 0
295340.0 279817.0 0
298498.0 279231.0 0
201647.0 283503.0 0
202341.0 286821.0 0
208617.0 283072.0 0
204584.0 283548.0 0
212663.0 284761.0 0
216969.0 284379.0 0
221593.0 286898.0 0
225909.0 284313.0 0
231018.0 286352.0 0
235105.0 282738.0 0
239128.0 284336.0 0
243238.0 283430.0 0
247549.0 283012.0 0
245664.0 286404.0 0
259549.0 283479.0 0
255922.0 285486.0 0
265130.0 285160.0 0
269704.0 286264.0 0
272934.0 282894.0 0
274545.0 286399.0 0
278836.0 286039.0 0
282824.0 285410.0 0
287339.0 283536.0 0
293433.0 283759.0 0
297869.0 282614.0 0
297838.0 286434.0 0
202723.0 291108.0 0
205783.0 287667.0 0
207172.0 291589.0 0
209792.0 287808.0 0
213818.0 287802.0 0
211916.0 291731.0 0
217070.0 289995.0 0
221832.0 292047.0 0
225996.0 289208.0 0
229901.0 291457.0 0
233601.0 290794.0 0
236390.0 287638.0 0
241600.0 288402.0 0
246109.0 290097.0 0
250605.0 287327.0 0
256120.0 291748.0 0
261028.0 287313.0 0
261782.0 292044.0 0
266128.0 289880.0 0
271853.0 290269.0 0
276659.0 290327.0 0
281845.0 290010.0 0
285596.0 288006.0 0
289798.0 287657.0 0
286821.0 291313.0 0
294274.0 287835.0 0
297297.0 291034.0 0
201743.0 294705.0 0
205226.0 294825.0 0
208963.0 295117.0 0
212872.0 295769.0 0
214887.0 293206.0 0
217463.0 295529.0 0
222313.0 297158.0 0
226810.0 294435.0 0
232162.0 294976.0 0
237489.0 292675.0 0
235677.0 297460.0 0
239820.0 297366.0 0
242486.0 293407.0 0
246443.0 294140.0 0
250320.0 292736.0 0
252948.0 296308.0 0
260266.0 295766.0 0
264709.0 295523.0 0
269009.0 293557.0 0
273686.0 295092.0 0
278758.0 294490.0 0
283616.0 294844.0 0
288285.0 295675.0 0
291985.0 292456.0 0
296476.0 296588.0 0
202591.0 298189.0 0
206656.0 298120.0 0
207938.0 302233.0 0
210567.0 298731.0 0
214716.0 299344.0 0
218716.0 300498.0 0
222962.0 302017.0 0
229274.0 297881.0 0
226182.0 298997.0 0
232160.0 300284.0 0
237057.0 302502.0 0
244513.0 298312.0 0
241121.0 301028.0 0
249194.0 297492.0 0
247891.0 301834.0 0
252035.0 301102.0 0
256758.0 298944.0 0
261812.0 299593.0 0
269206.0 297843.0 0
265485.0 300022.0 0
268612.0 302616.0 0
272827.0 300656.0 0
280613.0 298156.0 0
276846.0 299215.0 0
282948.0 299692.0 0
285752.0 298994.0 0
289456.0 300719.0 0
292086.0 297716.0 0
293557.0 301492.0 0
297448.0 301564.0 0
203005.0 302693.0 0
202582.0 307512.0 0
206306.0 306759.0 0
212624.0 302789.0 0
210640.0 306871.0 0
216293.0 302985.0 0
215745.0 307437.0 0
219660.0 304728.0 0
223796.0 306216.0 0
227782.0 302907.0 0
232058.0 305192.0 0
241232.0 304147.0 0
244155.0 302983.0 0
239985.0 307185.0 0
243535.0 306561.0 0
246665.0 305201.0 0
250184.0 305558.0 0
259616.0 303165.0 0
255221.0 305404.0 0
259903.0 307472.0 0
264021.0 304645.0 0
268146.0 306027.0 0
272022.0 305311.0 0
275747.0 304219.0 0
280027.0 302945.0 0
277934.0 306766.0 0
285344.0 303836.0 0
290669.0 305623.0 0
296287.0 306571.0 0
202770.0 311707.0 0
207676.0 311045.0 0
212239.0 311200.0 0
217015.0 312585.0 0
220476.0 309149.0 0
227946.0 307795.0 0
224669.0 310109.0 0
231687.0 310360.0 0
235936.0 307826.0 0
235449.0 312029.0 0
238847.0 311356.0 0
242407.0 310555.0 0
246850.0 309292.0 0
251898.0 310483.0 0
256882.0 310811.0 0
263036.0 309181.0 0
260710.0 312231.0 0
266519.0 309021.0 0
270480.0 309002.0 0
268585.0 312076.0 0
274889.0 308708.0 0
272261.0 312349.0 0
278827.0 310389.0 0
281848.0 307610.0 0
282445.0 311382.0 0
286529.0 309460.0 0
292036.0 310212.0 0
297036.0 311861.0 0
201521.0 315170.0 0
205834.0 315431.0 0
209825.0 314192.0 0
213178.0 314599.0 0
215617.0 317236.0 0
219212.0 316468.0 0
222238.0 313554.0 0
227927.0 313074.0 0
225474.0 316655.0 0
233042.0 315571.0 0
237235.0 314909.0 0
244678.0 313789.0 0
240722.0 315017.0 0
243506.0 317474.0 0
248422.0 313615.0 0
246873.0 317282.0 0
254715.0 314355.0 0
251329.0 316485.0 0
257846.0 315281.0 0
265014.0 313033.0 0
261176.0 316173.0 0
264748.0 317045.0 0
269252.0 316100.0 0
273568.0 315380.0 0
276077.0 313125.0 0
280167.0 314294.0 0
276998.0 317539.0 0
284381.0 314525.0 0
288692.0 313212.0 0
288461.0 317397.0 0
292583.0 314443.0 0
296727.0 316971.0 0
201973.0 318047.0 0
202709.0 322140.0 0
204842.0 319180.0 0
207683.0 318633.0 0
207289.0 321678.0 0
210848.0 317911.0 0
211069.0 322611.0 0
214661.0 320806.0 0
219055.0 320726.0 0
222479.0 318692.0 0
222896.0 322790.0 0
229541.0 318080.0 0
226089.0 320691.0 0
233662.0 320174.0 0
230200.0 322298.0 0
237393.0 318730.0 0
241004.0 318875.0 0
240339.0 322303.0 0
244354.0 321009.0 0
248741.0 320499.0 0
252770.0 320506.0 0
255388.0 317986.0 0
258660.0 319078.0 0
256293.0 321698.0 0
262055.0 320351.0 0
266352.0 320418.0 0
270367.0 321060.0 0
273087.0 318417.0 0
274517.0 322056.0 0
278378.0 321763.0 0
281152.0 318162.0 0
284427.0 318198.0 0
282691.0 322266.0 0
286405.0 321031.0 0
290178.0 322571.0 0
292518.0 319031.0 0
293485.0 322047.0 0
296930.0 321948.0 0
197272.0 326420.0 0
202121.0 326379.0 0
205380.0 324925.0 0
208665.0 325958.0 0
214201.0 324864.0 0
212142.0 326930.0 0
217122.0 323964.0 0
220322.0 325281.0 0
223704.0 327122.0 0
226980.0 324946.0 0
233275.0 324129.0 0
230842.0 326502.0 0
236566.0 323266.0 0
234676.0 327541.0 0
238911.0 327086.0 0
242906.0 325315.0 0
246858.0 324435.0 0
249507.0 327318.0 0
250706.0 323750.0 0
253803.0 323592.0 0
252473.0 326577.0 0
259463.0 323157.0 0
256585.0 326462.0 0
260673.0 327880.0 0
263610.0 324609.0 0
267772.0 323944.0 0
267176.0 327119.0 0
271317.0 325669.0 0
275818.0 325829.0 0
279962.0 326390.0 0
284050.0 326027.0 0
286695.0 324788.0 0
290096.0 326769.0 0
293825.0 325298.0 0
297697.0 326358.0 0
202263.0 330063.0 0
205413.0 328340.0 0
209121.0 329396.0 0
206298.0 331470.0 0
212926.0 330243.0 0
209902.0 332455.0 0
216827.0 328318.0 0
220825.0 328668.0 0
223819.0 330552.0 0
220349.0 331845.0 0
227836.0 329425.0 0
231519.0 329375.0 0
233813.0 331147.0 0
236974.0 331259.0 0
242357.0 328876.0 0
240481.0 331519.0 0
243976.0 331789.0 0
245760.0 328598.0 0
249064.0 330686.0 0
246728.0 332308.0 0
253297.0 330739.0 0
257655.0 331550.0 0
264675.0 329255.0 0
261785.0 332140.0 0
268885.0 330247.0 0
265626.0 332888.0 0
273407.0 329601.0 0
280360.0 330676.0 0
277287.0 329862.0 0
275592.0 333224.0 0
283494.0 329546.0 0
282790.0 332520.0 0
286888.0 328401.0 0
289874.0 330559.0 0
286496.0 332567.0 0
293721.0 329394.0 0
295006.0 333210.0 0
297753.0 329837.0 0
298395.0 332684.0 0
203088.0 334209.0 0
202004.0 337958.0 0
207765.0 335217.0 0
212841.0 333541.0 0
211634.0 336452.0 0
216710.0 333274.0 0
215613.0 337565.0 0
222772.0 334152.0 0
220208.0 336997.0 0
226422.0 333598.0 0
224545.0 337526.0 0
228609.0 337475.0 0
230846.0 333407.0 0
232409.0 337683.0 0
234964.0 335031.0 0
238463.0 335194.0 0
242237.0 335101.0 0
245950.0 335173.0 0
250185.0 335052.0 0
254877.0 335421.0 0
258902.0 335127.0 0
262690.0 336389.0 0
268489.0 334314.0 0
266388.0 337286.0 0
271589.0 333504.0 0
270186.0 337438.0 0
273635.0 336287.0 0
279277.0 333873.0 0
276775.0 336737.0 0
280063.0 338062.0 0
283168.0 335767.0 0
287165.0 336896.0 0
291134.0 334046.0 0
294848.0 336729.0 0
297910.0 335503.0 0
202878.0 341649.0 0
205865.0 338577.0 0
207311.0 342771.0 0
210180.0 339962.0 0
214173.0 341037.0 0
218389.0 340530.0 0
222604.0 340903.0 0
220091.0 343174.0 0
226272.0 340108.0 0
229786.0 341132.0 0
233642.0 341346.0 0
236467.0 339137.0 0
238721.0 342748.0 0
244375.0 338325.0 0
240446.0 339220.0 0
244017.0 343111.0 0
247741.0 338951.0 0
249446.0 342680.0 0
251967.0 339052.0 0
253666.0 341748.0 0
257599.0 337797.0 0
255372.0 339338.0 0
257902.0 342685.0 0
260095.0 339170.0 0
263088.0 340813.0 0
266658.0 340803.0 0
274047.0 339733.0 0
270403.0 341045.0 0
277315.0 339262.0 0
279591.0 341268.0 0
276704.0 341925.0 0
283720.0 340399.0 0
287782.0 341803.0 0
291461.0 338663.0 0
295181.0 340309.0 0
292576.0 343189.0 0
297992.0 338453.0 0
297920.0 341619.0 0
302750.0 340154.0 0
202251.0 345307.0 0
205476.0 345472.0 0
208249.0 348173.0 0
211687.0 344945.0 0
216509.0 343955.0 0
219383.0 346675.0 0
215669.0 347873.0 0
222182.0 344987.0 0
223063.0 347907.0 0
226422.0 344366.0 0
231887.0 344582.0 0
229993.0 347691.0 0
234167.0 348342.0 0
235979.0 344244.0 0
237686.0 347499.0 0
240264.0 345923.0 0
247519.0 346402.0 0
252776.0 345251.0 0
250017.0 348356.0 0
257319.0 347899.0 0
261816.0 344359.0 0
264805.0 343929.0 0
261795.0 348301.0 0
268244.0 344611.0 0
265316.0 347710.0 0
273255.0 345101.0 0
278007.0 344958.0 0
281692.0 343811.0 0
285093.0 345542.0 0
288996.0 345366.0 0
292163.0 347221.0 0
296901.0 345085.0 0
298163.0 348669.0 0
304194.0 345923.0 0
203068.0 349135.0 0
202955.0 353282.0 0
207011.0 352237.0 0
212386.0 348736.0 0
213975.0 350849.0 0
211018.0 351518.0 0
216991.0 350844.0 0
220220.0 350336.0 0
223763.0 352090.0 0
226295.0 349944.0 0
230493.0 351244.0 0
233353.0 352718.0 0
237052.0 351263.0 0
239936.0 350083.0 0
243735.0 348499.0 0
242371.0 352313.0 0
247189.0 349998.0 0
245561.0 352624.0 0
253167.0 350234.0 0
249798.0 352574.0 0
254563.0 353565.0 0
258249.0 352574.0 0
262276.0 352450.0 0
269752.0 349002.0 0
266066.0 352009.0 0
272538.0 350856.0 0
270173.0 353304.0 0
274220.0 353979.0 0
275678.0 349337.0 0
278177.0 353009.0 0
280562.0 348800.0 0
284919.0 349521.0 0
283014.0 353236.0 0
288335.0 349585.0 0
294945.0 348839.0 0
292258.0 351565.0 0
296752.0 352383.0 0
197681.0 358085.0 0
201533.0 356165.0 0
202487.0 358782.0 0
208270.0 355331.0 0
204981.0 356360.0 0
212054.0 354602.0 0
209822.0 358342.0 0
213091.0 357619.0 0
215615.0 353690.0 0
216119.0 357611.0 0
220012.0 354874.0 0
224926.0 355700.0 0
228212.0 353804.0 0
228129.0 357222.0 0
231314.0 356060.0 0
234692.0 357789.0 0
236060.0 354652.0 0
239531.0 354697.0 0
238310.0 358649.0 0
243465.0 356341.0 0
247673.0 355785.0 0
249749.0 358590.0 0
252029.0 356037.0 0
259318.0 356133.0 0
256084.0 356679.0 0
263105.0 356090.0 0
267064.0 356614.0 0
271369.0 357529.0 0
274115.0 358373.0 0
276284.0 356841.0 0
280223.0 356983.0 0
284137.0 358745.0 0
287716.0 354885.0 0
292990.0 356298.0 0
297790.0 356039.0 0
202375.0 361904.0 0
206611.0 359808.0 0
205498.0 362513.0 0
207935.0 364118.0 0
209422.0 362382.0 0
212300.0 360860.0 0
215920.0 360726.0 0
219303.0 358871.0 0
218529.0 361281.0 0
222714.0 359307.0 0
221825.0 362878.0 0
226512.0 359964.0 0
226011.0 363497.0 0
229668.0 362946.0 0
230072.0 359582.0 0
232886.0 360440.0 0
233046.0 363845.0 0
235536.0 361174.0 0
237853.0 362685.0 0
241582.0 359034.0 0
240389.0 361422.0 0
243736.0 362184.0 0
246215.0 359707.0 0
246519.0 364343.0 0
249368.0 362160.0 0
253261.0 359696.0 0
252670.0 363277.0 0
257143.0 359952.0 0
255902.0 363732.0 0
261331.0 359327.0 0
264261.0 359384.0 0
260393.0 363440.0 0
263993.0 362306.0 0
266323.0 360605.0 0
269400.0 360562.0 0
267167.0 363132.0 0
272753.0 361312.0 0
276317.0 360776.0 0
279707.0 361332.0 0
282789.0 361925.0 0
287906.0 360033.0 0
285967.0 363864.0 0
289652.0 363653.0 0
292209.0 360432.0 0
294662.0 363414.0 0
297961.0 362416.0 0
297323.0 359264.0 0
202282.0 365050.0 0
202320.0 368173.0 0
206282.0 367859.0 0
205370.0 365049.0 0
208838.0 366259.0 0
211003.0 367626.0 0
211230.0 364739.0 0
214519.0 364005.0 0
213985.0 367260.0 0
218200.0 363915.0 0
217323.0 366754.0 0
220289.0 366472.0 0
223684.0 366387.0 0
228760.0 365868.0 0
226974.0 368284.0 0
231591.0 367389.0 0
234484.0 368616.0 0
236241.0 365748.0 0
239283.0 367697.0 0
236686.0 369867.0 0
240884.0 364663.0 0
244150.0 367138.0 0
249207.0 365840.0 0
247861.0 369415.0 0
252018.0 365803.0 0
251637.0 369071.0 0
258403.0 366176.0 0
255229.0 367801.0 0
261622.0 366871.0 0
259040.0 368739.0 0
262414.0 369453.0 0
265074.0 365907.0 0
268244.0 366372.0 0
268848.0 369156.0 0
270026.0 363809.0 0
273452.0 364895.0 0
270920.0 367114.0 0
273261.0 368811.0 0
277113.0 364742.0 0
276190.0 368925.0 0
281257.0 365931.0 0
283477.0 369351.0 0
286796.0 367725.0 0
291910.0 364625.0 0
294309.0 367160.0 0
290536.0 367740.0 0
297985.0 365493.0 0
297556.0 368468.0 0
198266.0 373649.0 0
200508.0 377699.0 0
202992.0 377961.0 0
202651.0 371393.0 0
206102.0 371055.0 0
202817.0 374644.0 0
206353.0 374172.0 0
209705.0 370573.0 0
209989.0 374687.0 0
214181.0 370722.0 0
214072.0 374712.0 0
217509.0 369871.0 0
220512.0 369089.0 0
219183.0 372549.0 0
217938.0 375172.0 0
223588.0 370456.0 0
229904.0 371062.0 0
226782.0 372994.0 0
230815.0 375316.0 0
233509.0 371215.0 0
233107.0 374228.0 0
239607.0 370806.0 0
236937.0 373876.0 0
242471.0 370521.0 0
240986.0 373648.0 0
243290.0 375112.0 0
245407.0 372444.0 0
247499.0 375081.0 0
250736.0 373132.0 0
257576.0 370802.0 0
254490.0 372158.0 0
258383.0 374429.0 0
260478.0 371239.0 0
263346.0 373961.0 0
265538.0 370272.0 0
267945.0 372925.0 0
271211.0 371995.0 0
274399.0 373492.0 0
277227.0 372602.0 0
279353.0 369232.0 0
281011.0 371964.0 0
285503.0 372001.0 0
287993.0 372026.0 0
283254.0 374165.0 0
291304.0 371355.0 0
303051.0 371049.0 0
294675.0 370519.0 0
297662.0 371815.0 0
294365.0 373401.0 0
299546.0 375753.0 0
300321.0 378273.0 0
302826.0 379323.0 0
190848.0 382973.0 0
188828.0 384301.0 0
193452.0 382485.0 0
198346.0 379406.0 0
195750.0 380972.0 0
197953.0 383495.0 0
200400.0 381941.0 0
202866.0 381000.0 0
201096.0 383803.0 0
204171.0 382658.0 0
205156.0 378417.0 0
206466.0 380741.0 0
206540.0 376877.0 0
209819.0 378876.0 0
212721.0 381032.0 0
215436.0 378716.0 0
219996.0 376909.0 0
218561.0 380592.0 0
222639.0 374456.0 0
224533.0 377637.0 0
221962.0 379838.0 0
227751.0 376113.0 0
229076.0 379350.0 0
232129.0 379092.0 0
235497.0 378292.0 0
239888.0 377724.0 0
243694.0 378388.0 0
247363.0 378953.0 0
251735.0 377319.0 0
255227.0 376575.0 0
256907.0 379867.0 0
264334.0 378959.0 0
260715.0 378139.0 0
266674.0 376018.0 0
270268.0 376421.0 0
273877.0 377510.0 0
277180.0 376992.0 0
278682.0 379182.0 0
279111.0 375183.0 0
281611.0 377083.0 0
283815.0 379373.0 0
285481.0 375682.0 0
288220.0 375477.0 0
286865.0 378842.0 0
291311.0 375051.0 0
291392.0 378135.0 0
296427.0 375385.0 0
293636.0 380071.0 0
293790.0 376490.0 0
298027.0 379968.0 0
295813.0 378503.0 0
300597.0 381511.0 0
304817.0 381430.0 0
302248.0 383063.0 0
307265.0 382183.0 0
309570.0 383286.0 0
182533.0 387985.0 0
186948.0 385664.0 0
185197.0 387426.0 0
191039.0 386208.0 0
188682.0 388189.0 0
191188.0 388900.0 0
194298.0 385702.0 0
194425.0 388707.0 0
197680.0 385887.0 0
200341.0 386504.0 0
198636.0 390183.0 0
203168.0 385771.0 0
207931.0 383189.0 0
206040.0 386506.0 0
210779.0 384189.0 0
212485.0 386351.0 0
214612.0 383627.0 0
217018.0 383871.0 0
221075.0 384663.0 0
223940.0 383366.0 0
226601.0 380847.0 0
229006.0 383290.0 0
231572.0 382775.0 0
234234.0 382373.0 0
234899.0 384635.0 0
237032.0 381766.0 0
239795.0 381047.0 0
242887.0 381924.0 0
241231.0 385264.0 0
246003.0 382879.0 0
250144.0 381405.0 0
248927.0 384256.0 0
253505.0 380975.0 0
252017.0 384266.0 0
254826.0 383906.0 0
257884.0 383582.0 0
261152.0 381979.0 0
263999.0 382431.0 0
268191.0 381033.0 0
267985.0 385555.0 0
271825.0 380634.0 0
271499.0 384777.0 0
273458.0 382641.0 0
275900.0 380802.0 0
277659.0 383413.0 0
280703.0 381787.0 0
282771.0 384935.0 0
285254.0 382483.0 0
289312.0 380439.0 0
287599.0 383521.0 0
290035.0 385152.0 0
291233.0 382656.0 0
294443.0 383949.0 0
293652.0 386895.0 0
297527.0 382988.0 0
300215.0 385525.0 0
298504.0 387997.0 0
305423.0 385208.0 0
303541.0 387129.0 0
307841.0 385268.0 0
310107.0 386846.0 0
306781.0 387928.0 0
308539.0 388446.0 0
311659.0 385301.0 0
314067.0 386157.0 0
315971.0 387536.0 0
312718.0 388993.0 0
318328.0 388753.0 0
171767.0 394822.0 0
178143.0 390925.0 0
173964.0 393628.0 0
175768.0 392353.0 0
180658.0 389972.0 0
182325.0 391845.0 0
178163.0 393287.0 0
182911.0 394252.0 0
185433.0 390217.0 0
187651.0 391757.0 0
185922.0 394509.0 0
190687.0 392467.0 0
197066.0 388922.0 0
193934.0 391691.0 0
196348.0 392806.0 0
200501.0 389155.0 0
202355.0 389552.0 0
199273.0 392934.0 0
204663.0 390522.0 0
208586.0 388161.0 0
206910.0 391898.0 0
210884.0 389300.0 0
209319.0 392278.0 0
214715.0 387719.0 0
212632.0 391286.0 0
215009.0 390668.0 0
217320.0 386909.0 0
220406.0 389179.0 0
223856.0 387971.0 0
226586.0 386225.0 0
225846.0 390369.0 0
229983.0 387824.0 0
228646.0 391228.0 0
232654.0 386120.0 0
235965.0 387609.0 0
234051.0 390272.0 0
231484.0 392130.0 0
237231.0 390290.0 0
237893.0 385339.0 0
238461.0 388439.0 0
244580.0 386327.0 0
241487.0 389197.0 0
246908.0 385996.0 0
249330.0 387869.0 0
246096.0 388935.0 0
253358.0 388107.0 0
256962.0 387965.0 0
260910.0 386138.0 0
260024.0 390693.0 0
263858.0 389797.0 0
264336.0 385566.0 0
266958.0 389475.0 0
270184.0 388347.0 0
273112.0 388625.0 0
269301.0 391149.0 0
275147.0 385485.0 0
276671.0 389289.0 0
278878.0 386592.0 0
281498.0 388771.0 0
279111.0 390559.0 0
283954.0 391598.0 0
285508.0 386904.0 0
287664.0 390900.0 0
291252.0 388937.0 0
288281.0 387503.0 0
296343.0 389324.0 0
293985.0 390127.0 0
296346.0 392644.0 0
293653.0 393373.0 0
300587.0 390593.0 0
298726.0 392318.0 0
303968.0 390397.0 0
302509.0 393629.0 0
310370.0 391209.0 0
306820.0 391730.0 0
310347.0 394370.0 0
316012.0 390782.0 0
313379.0 392623.0 0
320332.0 390113.0 0
317779.0 393180.0 0
321925.0 392024.0 0
324486.0 392927.0 0
326382.0 394652.0 0
165609.0 399552.0 0
167484.0 397817.0 0
170307.0 396877.0 0
170728.0 399550.0 0
174650.0 395506.0 0
176476.0 395330.0 0
177488.0 396941.0 0
173929.0 397780.0 0
175745.0 400113.0 0
179399.0 395076.0 0
181417.0 397396.0 0
187097.0 396535.0 0
183953.0 398336.0 0
187665.0 398783.0 0
190622.0 395599.0 0
191686.0 398146.0 0
194624.0 395514.0 0
196882.0 397806.0 0
199485.0 396163.0 0
202336.0 397735.0 0
202165.0 392744.0 0
203657.0 395036.0 0
206274.0 394954.0 0
208633.0 397386.0 0
211563.0 394848.0 0
214968.0 395389.0 0
218199.0 393028.0 0
220334.0 396713.0 0
223484.0 391689.0 0
224176.0 395090.0 0
228012.0 394495.0 0
231635.0 395271.0 0
234989.0 393877.0 0
238007.0 394340.0 0
239468.0 391410.0 0
244225.0 391795.0 0
241590.0 393860.0 0
249234.0 391686.0 0
246946.0 395498.0 0
253350.0 392855.0 0
256989.0 392427.0 0
258395.0 395978.0 0
261438.0 394583.0 0
267409.0 393514.0 0
264654.0 393704.0 0
269849.0 395636.0 0
272577.0 392814.0 0
275940.0 393206.0 0
276882.0 396858.0 0
278436.0 392935.0 0
279990.0 396515.0 0
280709.0 393555.0 0
285191.0 395106.0 0
286882.0 397532.0 0
290794.0 392249.0 0
288619.0 394400.0 0
290134.0 396782.0 0
292940.0 396573.0 0
295811.0 397294.0 0
300350.0 395258.0 0
297995.0 395773.0 0
304492.0 395472.0 0
301397.0 397900.0 0
304273.0 398195.0 0
306825.0 394655.0 0
308775.0 396718.0 0
311497.0 398044.0 0
312311.0 395882.0 0
314017.0 394925.0 0
316158.0 395850.0 0
314156.0 397411.0 0
317109.0 398224.0 0
320568.0 397936.0 0
320712.0 395131.0 0
324046.0 396349.0 0
324308.0 399212.0 0
326784.0 399136.0 0
328640.0 395993.0 0
330888.0 397795.0 0
333850.0 398233.0 0
161240.0 401944.0 0
159157.0 404026.0 0
163284.0 400809.0 0
167302.0 401566.0 0
165069.0 403315.0 0
168445.0 404848.0 0
170075.0 402704.0 0
174027.0 403363.0 0
177792.0 404637.0 0
179185.0 399867.0 0
180709.0 403328.0 0
185108.0 400521.0 0
186436.0 402668.0 0
182724.0 401398.0 0
184287.0 404262.0 0
189660.0 400893.0 0
188137.0 404918.0 0
191387.0 403327.0 0
194174.0 399601.0 0
194303.0 402334.0 0
196776.0 403928.0 0
198359.0 400740.0 0
201446.0 400747.0 0
202285.0 403491.0 0
205162.0 398429.0 0
205015.0 401278.0 0
207847.0 401418.0 0
210842.0 402144.0 0
212106.0 399309.0 0
214901.0 399131.0 0
213405.0 402798.0 0
215697.0 402031.0 0
216343.0 403926.0 0
217943.0 398962.0 0
218521.0 401455.0 0
221972.0 400348.0 0
225438.0 399195.0 0
228939.0 398245.0 0
231118.0 400338.0 0
234072.0 398017.0 0
234970.0 401242.0 0
237259.0 398076.0 0
240508.0 397156.0 0
238215.0 401580.0 0
241550.0 400207.0 0
243078.0 396293.0 0
244751.0 399780.0 0
248248.0 399899.0 0
251039.0 396299.0 0
253724.0 398248.0 0
250840.0 399901.0 0
253041.0 402001.0 0
255604.0 396555.0 0
256451.0 401143.0 0
259702.0 399597.0 0
263127.0 398204.0 0
266142.0 400190.0 0
265751.0 396605.0 0
267893.0 397964.0 0
270527.0 400334.0 0
273445.0 398293.0 0
277606.0 400870.0 0
279856.0 399559.0 0
282296.0 401288.0 0
282853.0 397539.0 0
285675.0 400341.0 0
288530.0 403718.0 0
289758.0 400397.0 0
292357.0 403000.0 0
292963.0 399561.0 0
295385.0 402978.0 0
300009.0 400241.0 0
296851.0 400352.0 0
300829.0 403831.0 0
303002.0 401773.0 0
306044.0 402634.0 0
307390.0 399642.0 0
310567.0 401073.0 0
311404.0 403395.0 0
313270.0 399611.0 0
315813.0 400870.0 0
314327.0 403457.0 0
320828.0 400833.0 0
318556.0 402445.0 0
321793.0 404412.0 0
323624.0 402452.0 0
326712.0 404825.0 0
328220.0 401841.0 0
330877.0 400649.0 0
331038.0 404098.0 0
333973.0 402992.0 0
335755.0 400754.0 0
338047.0 404352.0 0
338640.0 401201.0 0
340457.0 402595.0 0
342345.0 404612.0 0
149195.0 409690.0 0
151533.0 408525.0 0
154363.0 407512.0 0
156414.0 405471.0 0
161425.0 406242.0 0
158050.0 408117.0 0
160719.0 409316.0 0
164712.0 405655.0 0
163181.0 410432.0 0
165864.0 407988.0 0
168615.0 407113.0 0
170494.0 407696.0 0
167338.0 409985.0 0
169742.0 410115.0 0
172878.0 406601.0 0
173350.0 409513.0 0
176857.0 407157.0 0
176447.0 409636.0 0
181116.0 407248.0 0
179842.0 409866.0 0
184402.0 407560.0 0
191856.0 406199.0 0
187942.0 408147.0 0
194726.0 407181.0 0
197461.0 408429.0 0
199258.0 405255.0 0
200680.0 407419.0 0
204228.0 405800.0 0
207153.0 405191.0 0
210174.0 405866.0 0
213460.0 405958.0 0
216128.0 407389.0 0
218926.0 403644.0 0
219528.0 407277.0 0
222078.0 403327.0 0
224553.0 405051.0 0
226385.0 402197.0 0
227447.0 407008.0 0
229056.0 403451.0 0
233022.0 404730.0 0
236868.0 404729.0 0
239408.0 406818.0 0
241699.0 404370.0 0
245401.0 403802.0 0
248459.0 403005.0 0
250899.0 405313.0 0
255249.0 407296.0 0
258507.0 404149.0 0
261276.0 402634.0 0
259305.0 408017.0 0
262024.0 406051.0 0
268731.0 402840.0 0
264045.0 401893.0 0
265901.0 405563.0 0
271957.0 405343.0 0
274560.0 402715.0 0
277442.0 406173.0 0
279915.0 403776.0 0
282831.0 405371.0 0
285372.0 404101.0 0
286203.0 407399.0 0
289214.0 407510.0 0
291078.0 405416.0 0
293138.0 407466.0 0
295700.0 406298.0 0
298852.0 404866.0 0
298345.0 408670.0 0
302665.0 406066.0 0
305185.0 405472.0 0
306820.0 407641.0 0
308552.0 404304.0 0
310201.0 407572.0 0
316373.0 406003.0 0
313639.0 407254.0 0
319065.0 405484.0 0
321239.0 409116.0 0
323873.0 407277.0 0
325888.0 409439.0 0
329230.0 407305.0 0
332363.0 408068.0 0
334727.0 406274.0 0
337038.0 408349.0 0
339827.0 406836.0 0
341543.0 409328.0 0
344802.0 406284.0 0
345171.0 409319.0 0
348028.0 407078.0 0
349539.0 409252.0 0
351728.0 410486.0 0
139442.0 414929.0 0
145044.0 411789.0 0
143157.0 412437.0 0
146977.0 410945.0 0
143979.0 415497.0 0
141501.0 414237.0 0
147034.0 415439.0 0
149280.0 413655.0 0
152032.0 412838.0 0
155164.0 411512.0 0
155157.0 414764.0 0
158493.0 411406.0 0
159970.0 414103.0 0
162871.0 414912.0 0
165437.0 412623.0 0
168211.0 413976.0 0
171850.0 412851.0 0
175716.0 413088.0 0
179276.0 413158.0 0
183335.0 410782.0 0
186300.0 411425.0 0
182639.0 413379.0 0
186584.0 413917.0 0
190433.0 410275.0 0
189718.0 413445.0 0
192730.0 414024.0 0
193400.0 410306.0 0
195890.0 411296.0 0
195955.0 414508.0 0
198559.0 410733.0 0
199768.0 414027.0 0
201117.0 409529.0 0
204149.0 408943.0 0
202939.0 411980.0 0
206960.0 409381.0 0
205959.0 412865.0 0
209629.0 409387.0 0
209036.0 412924.0 0
211352.0 412495.0 0
212431.0 409567.0 0
215137.0 411502.0 0
218833.0 411636.0 0
222633.0 413046.0 0
221798.0 411181.0 0
222898.0 407986.0 0
225633.0 410734.0 0
228945.0 411577.0 0
230540.0 408228.0 0
231219.0 412341.0 0
233558.0 410204.0 0
236096.0 408331.0 0
238588.0 410782.0 0
241784.0 409340.0 0
243053.0 412057.0 0
244469.0 407774.0 0
240588.0 412891.0 0
245674.0 411352.0 0
247993.0 407806.0 0
249185.0 412139.0 0
250963.0 409511.0 0
252831.0 411589.0 0
260289.0 411558.0 0
263075.0 409493.0 0
265719.0 410921.0 0
269112.0 408314.0 0
269176.0 413277.0 0
272173.0 410395.0 0
274624.0 408392.0 0
276704.0 411961.0 0
279486.0 409816.0 0
281507.0 407295.0 0
282219.0 412861.0 0
283699.0 408862.0 0
285604.0 412562.0 0
287561.0 410788.0 0
290571.0 410748.0 0
290821.0 414492.0 0
293614.0 410209.0 0
296464.0 411829.0 0
301795.0 409191.0 0
299313.0 413564.0 0
301706.0 412706.0 0
305078.0 409926.0 0
307116.0 411302.0 0
304428.0 413431.0 0
310193.0 411506.0 0
315326.0 410244.0 0
313404.0 412506.0 0
316022.0 414852.0 0
318212.0 410245.0 0
318017.0 413403.0 0
320164.0 413995.0 0
323246.0 412425.0 0
326531.0 412178.0 0
329237.0 410725.0 0
327926.0 414750.0 0
331161.0 415300.0 0
331818.0 412390.0 0
333804.0 410913.0 0
337157.0 411244.0 0
334615.0 415775.0 0
340669.0 411799.0 0
336967.0 414058.0 0
342657.0 414389.0 0
345867.0 412199.0 0
348285.0 413914.0 0
351102.0 413823.0 0
353143.0 416187.0 0
354259.0 411891.0 0
356997.0 412319.0 0
355277.0 414424.0 0
358457.0 413842.0 0
133064.0 419016.0 0
131050.0 421429.0 0
137755.0 416807.0 0
136051.0 418701.0 0
138109.0 420775.0 0
140626.0 417686.0 0
143638.0 418027.0 0
141131.0 419345.0 0
145457.0 420288.0 0
148110.0 418638.0 0
151887.0 415833.0 0
155476.0 417901.0 0
151534.0 418945.0 0
157870.0 416068.0 0
160409.0 417990.0 0
156425.0 420606.0 0
159726.0 420082.0 0
164705.0 417820.0 0
163654.0 420077.0 0
171839.0 416575.0 0
168168.0 417651.0 0
175646.0 415821.0 0
173616.0 418996.0 0
179178.0 416215.0 0
177262.0 418852.0 0
182402.0 416777.0 0
185775.0 417015.0 0
189638.0 415766.0 0
188854.0 418570.0 0
192199.0 416958.0 0
195483.0 418551.0 0
198973.0 417526.0 0
202663.0 416147.0 0
205936.0 416933.0 0
209648.0 416413.0 0
212985.0 414943.0 0
213086.0 418041.0 0
216167.0 415588.0 0
219436.0 415268.0 0
222969.0 415349.0 0
226048.0 414487.0 0
228835.0 414954.0 0
228403.0 418175.0 0
231921.0 415251.0 0
235780.0 413742.0 0
239010.0 415979.0 0
242742.0 415786.0 0
246320.0 415468.0 0
252293.0 414485.0 0
249993.0 416968.0 0
256487.0 412788.0 0
256992.0 417030.0 0
254567.0 416195.0 0
259732.0 415827.0 0
263298.0 413988.0 0
266493.0 416089.0 0
269050.0 418489.0 0
272304.0 416487.0 0
273759.0 413161.0 0
276510.0 416763.0 0
279783.0 415254.0 0
281728.0 418113.0 0
284373.0 417056.0 0
287382.0 415520.0 0
288166.0 418989.0 0
290137.0 418040.0 0
293637.0 413334.0 0
293753.0 417669.0 0
296088.0 415462.0 0
302662.0 416544.0 0
299409.0 417282.0 0
306972.0 414688.0 0
306287.0 417636.0 0
309839.0 415020.0 0
311590.0 417526.0 0
313293.0 415402.0 0
317136.0 417788.0 0
320254.0 417740.0 0
323170.0 416113.0 0
325813.0 417383.0 0
327873.0 419240.0 0
324145.0 420503.0 0
330676.0 418312.0 0
332745.0 420659.0 0
335740.0 418844.0 0
339587.0 415769.0 0
339076.0 418481.0 0
344260.0 417563.0 0
347837.0 417414.0 0
350942.0 417514.0 0
352063.0 419680.0 0
357539.0 416895.0 0
355367.0 418901.0 0
360281.0 415902.0 0
362857.0 416993.0 0
359206.0 419923.0 0
360743.0 419060.0 0
365070.0 419290.0 0
368178.0 420586.0 0
121839.0 426407.0 0
124193.0 425055.0 0
126251.0 423493.0 0
128845.0 422780.0 0
130592.0 426174.0 0
134024.0 422140.0 0
135799.0 423958.0 0
133139.0 426408.0 0
140152.0 421967.0 0
138470.0 424967.0 0
142899.0 421766.0 0
143289.0 424521.0 0
145865.0 424891.0 0
149616.0 422473.0 0
146947.0 422648.0 0
150746.0 425262.0 0
153343.0 421486.0 0
153945.0 424038.0 0
156569.0 423455.0 0
160086.0 423157.0 0
163377.0 422976.0 0
166285.0 423331.0 0
168554.0 420966.0 0
168961.0 424502.0 0
171995.0 421932.0 0
171040.0 425042.0 0
174842.0 423703.0 0
177022.0 422170.0 0
180990.0 420233.0 0
179718.0 424113.0 0
184114.0 420978.0 0
183337.0 424380.0 0
191486.0 419862.0 0
187496.0 422003.0 0
189754.0 424479.0 0
190312.0 422500.0 0
193141.0 422201.0 0
200935.0 419533.0 0
197731.0 421898.0 0
201024.0 423200.0 0
203748.0 420137.0 0
204484.0 423131.0 0
207383.0 420421.0 0
210749.0 420524.0 0
215781.0 418905.0 0
214030.0 421961.0 0
217050.0 422882.0 0
219535.0 419823.0 0
221780.0 423664.0 0
223599.0 418712.0 0
225839.0 421839.0 0
226300.0 417173.0 0
229993.0 421689.0 0
231266.0 418284.0 0
234976.0 418188.0 0
233438.0 421078.0 0
235713.0 423936.0 0
238508.0 420109.0 0
242557.0 419282.0 0
242079.0 422795.0 0
246463.0 420530.0 0
252990.0 418581.0 0
250770.0 421191.0 0
255529.0 420187.0 0
263221.0 418856.0 0
259140.0 420107.0 0
262637.0 423157.0 0
266638.0 420479.0 0
270567.0 421999.0 0
272985.0 419663.0 0
275845.0 420786.0 0
278330.0 422635.0 0
279281.0 419802.0 0
280275.0 422807.0 0
282722.0 421548.0 0
285929.0 420252.0 0
289535.0 423717.0 0
291089.0 420721.0 0
294480.0 421697.0 0
298104.0 420521.0 0
301538.0 422349.0 0
303283.0 419994.0 0
306274.0 420713.0 0
305442.0 423164.0 0
309188.0 419662.0 0
308785.0 423294.0 0
311898.0 421378.0 0
311974.0 423984.0 0
314777.0 419801.0 0
315308.0 424166.0 0
318560.0 420692.0 0
317701.0 422149.0 0
321493.0 420684.0 0
320648.0 423305.0 0
325398.0 423027.0 0
327472.0 425294.0 0
328047.0 422047.0 0
331141.0 423268.0 0
336452.0 422628.0 0
338911.0 421924.0 0
335100.0 424885.0 0
338801.0 425036.0 0
341158.0 424466.0 0
342623.0 420960.0 0
348155.0 420513.0 0
345559.0 423003.0 0
348066.0 425053.0 0
350527.0 422207.0 0
353195.0 423706.0 0
356146.0 422041.0 0
360657.0 422042.0 0
363193.0 421539.0 0
358451.0 424579.0 0
363117.0 424198.0 0
366078.0 423280.0 0
365940.0 425627.0 0
370462.0 422983.0 0
373553.0 423910.0 0
368961.0 425672.0 0
375975.0 425173.0 0
115186.0 431073.0 0
117049.0 428851.0 0
120027.0 428387.0 0
120557.0 431340.0 0
125303.0 428004.0 0
123671.0 429752.0 0
127749.0 426647.0 0
127380.0 430477.0 0
129833.0 429657.0 0
135674.0 428080.0 0
132254.0 429653.0 0
135843.0 430727.0 0
140860.0 427139.0 0
139567.0 430215.0 0
143917.0 428539.0 0
147513.0 427620.0 0
150444.0 429339.0 0
152621.0 427815.0 0
154649.0 426327.0 0
154302.0 429342.0 0
156128.0 427431.0 0
157289.0 426207.0 0
160375.0 426484.0 0
157075.0 429851.0 0
159841.0 429606.0 0
163238.0 426795.0 0
166138.0 427054.0 0
162826.0 429925.0 0
169559.0 426990.0 0
170739.0 430310.0 0
173326.0 426081.0 0
176716.0 425771.0 0
174206.0 429194.0 0
177995.0 428328.0 0
181626.0 427696.0 0
186658.0 425451.0 0
184792.0 428256.0 0
191553.0 425710.0 0
189094.0 427607.0 0
192303.0 429432.0 0
195836.0 425996.0 0
200281.0 426629.0 0
203573.0 426516.0 0
206549.0 428064.0 0
208229.0 424398.0 0
209910.0 428786.0 0
211842.0 425333.0 0
215304.0 425360.0 0
218719.0 424927.0 0
217753.0 428462.0 0
222383.0 427957.0 0
226872.0 425956.0 0
231505.0 425032.0 0
234476.0 428226.0 0
239393.0 424474.0 0
238489.0 428178.0 0
241553.0 426100.0 0
244904.0 425131.0 0
249027.0 424757.0 0
251694.0 427829.0 0
253796.0 423875.0 0
255422.0 428467.0 0
258588.0 424761.0 0
262256.0 427024.0 0
266465.0 424658.0 0
264877.0 428644.0 0
270587.0 425939.0 0
274320.0 424324.0 0
278162.0 426150.0 0
282041.0 425941.0 0
285773.0 424081.0 0
285595.0 427888.0 0
288618.0 427163.0 0
290631.0 428118.0 0
297827.0 424295.0 0
294048.0 425967.0 0
298431.0 428354.0 0
300884.0 425966.0 0
301829.0 429353.0 0
304856.0 426224.0 0
308434.0 426564.0 0
311172.0 426443.0 0
312534.0 429093.0 0
315278.0 427589.0 0
318771.0 425446.0 0
319154.0 428303.0 0
322230.0 427604.0 0
323388.0 425086.0 0
325026.0 429594.0 0
326127.0 427210.0 0
330428.0 426157.0 0
333498.0 427045.0 0
329135.0 428674.0 0
332313.0 428674.0 0
331346.0 429802.0 0
337495.0 427142.0 0
333212.0 430116.0 0
335509.0 429200.0 0
342183.0 427073.0 0
339471.0 428498.0 0
344422.0 425780.0 0
343554.0 429901.0 0
345918.0 427338.0 0
346686.0 430087.0 0
349729.0 427362.0 0
352910.0 426446.0 0
350100.0 430037.0 0
356769.0 427201.0 0
354528.0 428789.0 0
357612.0 430513.0 0
361340.0 426383.0 0
358442.0 429028.0 0
360733.0 429465.0 0
364545.0 427847.0 0
363735.0 430131.0 0
367163.0 429712.0 0
369890.0 428858.0 0
372671.0 427234.0 0
371567.0 431245.0 0
374799.0 428669.0 0
378091.0 427577.0 0
380482.0 429278.0 0
383764.0 430006.0 0
107857.0 436112.0 0
112586.0 432113.0 0
110326.0 434110.0 0
113317.0 435403.0 0
117350.0 433159.0 0
117693.0 435877.0 0
122853.0 433513.0 0
121992.0 436417.0 0
126373.0 433332.0 0
130330.0 433018.0 0
126827.0 436496.0 0
130507.0 435470.0 0
133106.0 432145.0 0
133712.0 434515.0 0
137657.0 433307.0 0
141517.0 432054.0 0
143871.0 431140.0 0
141910.0 434330.0 0
145468.0 434486.0 0
146959.0 431019.0 0
149175.0 432380.0 0
151017.0 431323.0 0
149000.0 435195.0 0
153576.0 432422.0 0
152288.0 435604.0 0
156691.0 432999.0 0
159887.0 432978.0 0
166225.0 430975.0 0
163168.0 433512.0 0
167656.0 434420.0 0
170842.0 433703.0 0
174263.0 433416.0 0
176315.0 431991.0 0
179162.0 431163.0 0
178281.0 434110.0 0
182069.0 431715.0 0
184713.0 431545.0 0
185887.0 434821.0 0
187511.0 430199.0 0
189875.0 433164.0 0
193549.0 434297.0 0
194475.0 431175.0 0
196847.0 429840.0 0
200548.0 430245.0 0
197345.0 433717.0 0
201139.0 434177.0 0
203842.0 430879.0 0
207900.0 431870.0 0
210955.0 433303.0 0
213491.0 429833.0 0
215609.0 433525.0 0
219247.0 432721.0 0
222815.0 432701.0 0
225741.0 430898.0 0
227725.0 433866.0 0
230024.0 429333.0 0
232460.0 432821.0 0
236316.0 431969.0 0
239466.0 432507.0 0
242675.0 429515.0 0
245162.0 433157.0 0
242321.0 433112.0 0
247223.0 429150.0 0
248500.0 433317.0 0
251235.0 431447.0 0
253476.0 434555.0 0
254139.0 430964.0 0
257370.0 432767.0 0
259002.0 429134.0 0
261789.0 430718.0 0
265589.0 432950.0 0
268866.0 429307.0 0
269777.0 433101.0 0
272736.0 432650.0 0
273448.0 428729.0 0
277865.0 430691.0 0
281695.0 429390.0 0
281541.0 432623.0 0
283670.0 434115.0 0
284415.0 430967.0 0
286731.0 433879.0 0
289716.0 434298.0 0
288624.0 430799.0 0
292250.0 430466.0 0
291603.0 433264.0 0
295534.0 430111.0 0
295130.0 433462.0 0
298610.0 431489.0 0
301124.0 431495.0 0
302013.0 434618.0 0
305161.0 429597.0 0
304232.0 432472.0 0
307288.0 434472.0 0
309004.0 430626.0 0
311815.0 433293.0 0
316676.0 430572.0 0
314448.0 432208.0 0
317703.0 434285.0 0
322552.0 430278.0 0
320179.0 431878.0 0
323829.0 433458.0 0
327936.0 432093.0 0
332219.0 433239.0 0
336496.0 432124.0 0
338429.0 436614.0 0
339936.0 431843.0 0
341670.0 435150.0 0
344246.0 432903.0 0
347554.0 433451.0 0
353388.0 431805.0 0
350637.0 434098.0 0
356674.0 432051.0 0
358831.0 434755.0 0
361050.0 432634.0 0
363848.0 432785.0 0
365664.0 431846.0 0
368103.0 432766.0 0
367388.0 434884.0 0
370548.0 433430.0 0
374004.0 434975.0 0
374658.0 431855.0 0
377419.0 432274.0 0
376744.0 436343.0 0
381043.0 432845.0 0
383515.0 434229.0 0
379035.0 434947.0 0
386096.0 432335.0 0
388671.0 434247.0 0
391346.0 435748.0 0
99380.3 440287.0 0
102314.0 439395.0 0
105288.0 437950.0 0
110322.0 437914.0 0
107536.0 441229.0 0
114216.0 437998.0 0
110993.0 440484.0 0
119564.0 438184.0 0
115774.0 440051.0 0
119205.0 441058.0 0
123524.0 438513.0 0
124391.0 440760.0 0
127735.0 438916.0 0
131357.0 437853.0 0
134226.0 436976.0 0
134967.0 440159.0 0
137329.0 435956.0 0
140683.0 436178.0 0
138153.0 439510.0 0
141660.0 438769.0 0
144806.0 437704.0 0
148285.0 438331.0 0
155960.0 436728.0 0
151597.0 438527.0 0
155133.0 439849.0 0
159152.0 436465.0 0
159332.0 439806.0 0
161968.0 436600.0 0
165251.0 435831.0 0
164193.0 438030.0 0
162114.0 440183.0 0
166093.0 439449.0 0
168169.0 437249.0 0
170599.0 439495.0 0
171961.0 436106.0 0
175893.0 435967.0 0
174281.0 438880.0 0
181822.0 435949.0 0
178401.0 438167.0 0
183382.0 439666.0 0
186983.0 438107.0 0
190026.0 437076.0 0
193649.0 437504.0 0
197381.0 437643.0 0
201321.0 437767.0 0
205235.0 435248.0 0
206077.0 439348.0 0
208827.0 435919.0 0
209810.0 438570.0 0
213066.0 436499.0 0
216486.0 436879.0 0
220253.0 436981.0 0
223000.0 439001.0 0
224029.0 435251.0 0
226367.0 437768.0 0
230681.0 436808.0 0
233022.0 439881.0 0
235774.0 436445.0 0
238969.0 435739.0 0
242147.0 436321.0 0
246207.0 437406.0 0
250102.0 436469.0 0
256538.0 436258.0 0
258446.0 438601.0 0
260823.0 434999.0 0
262505.0 439103.0 0
264961.0 437015.0 0
269093.0 435962.0 0
271844.0 435877.0 0
273578.0 438380.0 0
275692.0 435025.0 0
279679.0 435344.0 0
282456.0 436222.0 0
285458.0 436816.0 0
289468.0 437572.0 0
293221.0 436346.0 0
296569.0 439480.0 0
298386.0 435312.0 0
301034.0 438207.0 0
305047.0 437777.0 0
309642.0 438750.0 0
310502.0 436017.0 0
314679.0 436897.0 0
321069.0 436445.0 0
318086.0 439704.0 0
322158.0 440007.0 0
324996.0 436715.0 0
328004.0 435713.0 0
327910.0 438127.0 0
325657.0 440212.0 0
329691.0 440272.0 0
331796.0 437310.0 0
335994.0 435557.0 0
334772.0 439666.0 0
338484.0 439944.0 0
342334.0 438887.0 0
345498.0 435930.0 0
346438.0 439662.0 0
348648.0 436752.0 0
352293.0 437298.0 0
355463.0 436202.0 0
357378.0 439550.0 0
363332.0 437034.0 0
360523.0 438197.0 0
364956.0 435130.0 0
365798.0 440130.0 0
368410.0 437913.0 0
371525.0 436580.0 0
373499.0 439979.0 0
376413.0 438806.0 0
378413.0 440961.0 0
380656.0 437085.0 0
383627.0 436699.0 0
380611.0 439349.0 0
383079.0 441084.0 0
384899.0 438988.0 0
386861.0 436728.0 0
387561.0 439644.0 0
389831.0 438766.0 0
394059.0 436645.0 0
390778.0 442005.0 0
392092.0 439809.0 0
396478.0 438625.0 0
394716.0 440827.0 0
399335.0 439674.0 0
401873.0 440934.0 0
89674.4 446876.0 0
91349.3 444532.0 0
94589.8 444395.0 0
97284.7 442707.0 0
99958.7 444226.0 0
97204.8 446592.0 0
102565.0 442685.0 0
100531.0 446678.0 0
103207.0 446798.0 0
105442.0 444105.0 0
109510.0 443498.0 0
107730.0 446489.0 0
112496.0 442833.0 0
115521.0 442796.0 0
111584.0 446327.0 0
119079.0 443991.0 0
116080.0 445121.0 0
120607.0 445956.0 0
121850.0 441810.0 0
122379.0 444339.0 0
128756.0 441739.0 0
125708.0 444072.0 0
128880.0 445316.0 0
132014.0 441724.0 0
131723.0 444914.0 0
135603.0 443324.0 0
135124.0 445825.0 0
138647.0 442537.0 0
137904.0 444967.0 0
140663.0 444770.0 0
141448.0 441779.0 0
144546.0 441636.0 0
144160.0 445728.0 0
148066.0 441416.0 0
148463.0 444959.0 0
151648.0 441238.0 0
154745.0 442515.0 0
152412.0 444381.0 0
156077.0 445378.0 0
157889.0 442556.0 0
160950.0 444271.0 0
164295.0 442577.0 0
168002.0 440898.0 0
167557.0 444257.0 0
171520.0 442880.0 0
175772.0 442009.0 0
179832.0 441280.0 0
180857.0 445236.0 0
185042.0 443477.0 0
188174.0 440962.0 0
188857.0 444892.0 0
191236.0 440247.0 0
191377.0 443366.0 0
194516.0 440795.0 0
194431.0 443985.0 0
197867.0 441244.0 0
202292.0 441430.0 0
205513.0 443252.0 0
209248.0 442964.0 0
213899.0 441008.0 0
217524.0 440097.0 0
220174.0 442845.0 0
224789.0 442234.0 0
228866.0 440928.0 0
231928.0 444070.0 0
235903.0 440929.0 0
239305.0 440160.0 0
243045.0 440028.0 0
242613.0 443254.0 0
246306.0 442365.0 0
249414.0 440379.0 0
253645.0 439932.0 0
257048.0 442705.0 0
260685.0 442844.0 0
265655.0 442485.0 0
267541.0 438725.0 0
270850.0 438541.0 0
269958.0 441192.0 0
273569.0 442647.0 0
277878.0 439316.0 0
277387.0 443819.0 0
282546.0 439894.0 0
280152.0 442927.0 0
282761.0 444368.0 0
286647.0 439893.0 0
285823.0 443110.0 0
292464.0 440313.0 0
289856.0 443020.0 0
294674.0 444353.0 0
299121.0 443394.0 0
300900.0 440757.0 0
303739.0 442308.0 0
307777.0 441206.0 0
310840.0 443037.0 0
312563.0 440287.0 0
313387.0 445095.0 0
315243.0 442366.0 0
319115.0 443592.0 0
322381.0 443314.0 0
326360.0 443745.0 0
329728.0 443802.0 0
333082.0 442953.0 0
337034.0 444369.0 0
340311.0 443105.0 0
342261.0 441755.0 0
342598.0 445244.0 0
345194.0 443146.0 0
350522.0 440947.0 0
349658.0 444200.0 0
352809.0 444389.0 0
354467.0 441341.0 0
356219.0 444651.0 0
359246.0 442489.0 0
362590.0 441642.0 0
361410.0 445265.0 0
364358.0 444307.0 0
365649.0 443741.0 0
369097.0 444126.0 0
370760.0 441375.0 0
373264.0 446053.0 0
375348.0 443392.0 0
378356.0 444655.0 0
380920.0 443256.0 0
383079.0 446331.0 0
385135.0 443507.0 0
387945.0 442908.0 0
393966.0 443493.0 0
391903.0 445570.0 0
398708.0 442620.0 0
397228.0 444980.0 0
401399.0 443300.0 0
403967.0 441801.0 0
400205.0 446426.0 0
402222.0 446718.0 0
403362.0 444538.0 0
405785.0 444228.0 0
408203.0 444971.0 0
410283.0 446694.0 0
84323.3 450468.0 0
87338.4 448997.0 0
89021.1 451277.0 0
92910.9 447408.0 0
92745.1 451174.0 0
99560.9 449378.0 0
96266.7 449248.0 0
103904.0 448923.0 0
101688.0 452060.0 0
106747.0 449507.0 0
114418.0 447968.0 0
110570.0 450517.0 0
114169.0 451106.0 0
117373.0 447224.0 0
117976.0 450405.0 0
121864.0 448985.0 0
124923.0 447299.0 0
129047.0 447452.0 0
126983.0 449446.0 0
132453.0 448527.0 0
138406.0 447880.0 0
142177.0 449515.0 0
146416.0 448287.0 0
148403.0 447735.0 0
148812.0 449943.0 0
151773.0 447812.0 0
154960.0 448018.0 0
158752.0 447086.0 0
162980.0 446656.0 0
160886.0 449330.0 0
165912.0 447768.0 0
170140.0 446882.0 0
169236.0 449817.0 0
172410.0 446121.0 0
172544.0 449250.0 0
176316.0 446779.0 0
178843.0 449883.0 0
182386.0 449400.0 0
185452.0 447556.0 0
188685.0 449084.0 0
191867.0 446632.0 0
194812.0 448226.0 0
198602.0 445503.0 0
202616.0 445178.0 0
201918.0 448385.0 0
204933.0 445852.0 0
204570.0 448826.0 0
207933.0 447356.0 0
212532.0 446143.0 0
214479.0 449461.0 0
216276.0 444848.0 0
218575.0 448776.0 0
222867.0 446653.0 0
227344.0 445401.0 0
229951.0 448112.0 0
233925.0 448535.0 0
236158.0 444262.0 0
237512.0 447367.0 0
239681.0 444700.0 0
242566.0 445767.0 0
245675.0 446874.0 0
250349.0 444742.0 0
254252.0 444701.0 0
253451.0 448611.0 0
257769.0 447143.0 0
263097.0 447661.0 0
267253.0 446478.0 0
269552.0 444671.0 0
269263.0 448121.0 0
272515.0 447259.0 0
276176.0 447281.0 0
280070.0 447173.0 0
283709.0 448899.0 0
285525.0 446151.0 0
288371.0 446965.0 0
291635.0 446787.0 0
294442.0 449446.0 0
298289.0 447125.0 0
302356.0 446172.0 0
307480.0 445889.0 0
305274.0 449396.0 0
311576.0 448397.0 0
316744.0 446144.0 0
315418.0 449013.0 0
320453.0 446686.0 0
319330.0 449476.0 0
323646.0 446663.0 0
326763.0 447137.0 0
329989.0 447124.0 0
333791.0 447580.0 0
337875.0 449224.0 0
340339.0 446659.0 0
341652.0 450155.0 0
347164.0 445918.0 0
344397.0 448033.0 0
351632.0 446737.0 0
349589.0 449245.0 0
354815.0 448026.0 0
358059.0 449364.0 0
359071.0 446797.0 0
363773.0 447767.0 0
361079.0 449855.0 0
367036.0 446692.0 0
365583.0 450771.0 0
368575.0 449844.0 0
370921.0 448868.0 0
372950.0 451268.0 0
378970.0 447348.0 0
375936.0 448858.0 0
380353.0 449641.0 0
379698.0 451372.0 0
382811.0 449747.0 0
386220.0 447692.0 0
388889.0 446298.0 0
386423.0 450406.0 0
393294.0 448182.0 0
389584.0 449143.0 0
391978.0 450506.0 0
396471.0 448206.0 0
399554.0 449043.0 0
396471.0 451345.0 0
403935.0 449085.0 0
401702.0 451185.0 0
405950.0 447409.0 0
408262.0 448232.0 0
406111.0 451214.0 0
408408.0 450603.0 0
412749.0 448303.0 0
411583.0 450710.0 0
414226.0 451912.0 0
415714.0 449803.0 0
418102.0 451729.0 0
78517.0 453292.0 0
76002.0 455915.0 0
79126.9 456263.0 0
81384.9 452223.0 0
82667.0 455693.0 0
85510.2 453443.0 0
87937.4 454155.0 0
86200.6 456909.0 0
92243.4 455664.0 0
96889.6 451859.0 0
98731.5 454314.0 0
96322.9 453901.0 0
103387.0 455106.0 0
105943.0 451917.0 0
109181.0 453525.0 0
106965.0 455837.0 0
114196.0 454037.0 0
111645.0 455146.0 0
118621.0 453308.0 0
116088.0 456082.0 0
123000.0 452032.0 0
121311.0 455189.0 0
129828.0 451352.0 0
125889.0 453141.0 0
129001.0 454634.0 0
135719.0 451311.0 0
132336.0 453914.0 0
139451.0 452661.0 0
136216.0 455317.0 0
138884.0 455422.0 0
142886.0 454069.0 0
146078.0 451295.0 0
148392.0 454074.0 0
151937.0 451897.0 0
153368.0 455635.0 0
156500.0 450810.0 0
157021.0 454818.0 0
161125.0 453103.0 0
164469.0 450797.0 0
164188.0 454805.0 0
167230.0 453174.0 0
171481.0 452743.0 0
175331.0 452236.0 0
180066.0 453495.0 0
184971.0 452408.0 0
188747.0 453107.0 0
189472.0 455950.0 0
192335.0 450805.0 0
192408.0 454154.0 0
195791.0 452430.0 0
198383.0 450332.0 0
198992.0 454128.0 0
201695.0 452033.0 0
205761.0 452418.0 0
209491.0 454251.0 0
210504.0 450126.0 0
212727.0 452879.0 0
215630.0 453313.0 0
219201.0 453747.0 0
222051.0 450561.0 0
222972.0 454012.0 0
225988.0 449886.0 0
230406.0 451732.0 0
234165.0 453919.0 0
237117.0 450605.0 0
241296.0 449471.0 0
242464.0 454194.0 0
245379.0 451957.0 0
249257.0 449762.0 0
252565.0 453169.0 0
256514.0 451915.0 0
260095.0 451182.0 0
263588.0 453753.0 0
266953.0 450533.0 0
271186.0 451623.0 0
275483.0 451251.0 0
278965.0 450599.0 0
282110.0 452255.0 0
286802.0 450285.0 0
285397.0 453200.0 0
288389.0 453022.0 0
290502.0 450359.0 0
296406.0 453685.0 0
298300.0 450642.0 0
301779.0 450520.0 0
299950.0 454063.0 0
302597.0 454418.0 0
304711.0 453107.0 0
308269.0 451798.0 0
312212.0 452622.0 0
314602.0 454494.0 0
315004.0 451834.0 0
317251.0 454542.0 0
317604.0 451956.0 0
323380.0 450401.0 0
320730.0 453605.0 0
327645.0 450971.0 0
324069.0 454722.0 0
327364.0 455109.0 0
332381.0 451527.0 0
330452.0 454622.0 0
336829.0 453021.0 0
340207.0 452797.0 0
341190.0 455245.0 0
343426.0 453316.0 0
346604.0 451358.0 0
353479.0 451801.0 0
349961.0 453703.0 0
357298.0 451763.0 0
358508.0 454372.0 0
361057.0 452707.0 0
363949.0 452544.0 0
362251.0 455377.0 0
365113.0 454924.0 0
368210.0 453393.0 0
371182.0 453130.0 0
372991.0 456294.0 0
375331.0 453953.0 0
377017.0 451708.0 0
378134.0 455960.0 0
383642.0 452543.0 0
380568.0 454284.0 0
388734.0 452507.0 0
385879.0 455339.0 0
393985.0 453182.0 0
390910.0 455049.0 0
399041.0 452925.0 0
395855.0 455978.0 0
399609.0 456650.0 0
403275.0 454757.0 0
405605.0 453391.0 0
408044.0 455219.0 0
410281.0 453428.0 0
413659.0 455340.0 0
416565.0 454053.0 0
418628.0 455541.0 0
420882.0 453449.0 0
423252.0 455653.0 0
426261.0 456337.0 0
66978.6 460660.0 0
72696.7 457611.0 0
69630.0 458857.0 0
73354.8 460480.0 0
76475.4 458963.0 0
79338.5 458554.0 0
77951.9 460344.0 0
82419.2 459149.0 0
80096.1 461667.0 0
84817.8 460922.0 0
88867.0 459569.0 0
92154.1 461423.0 0
95378.2 458557.0 0
98687.0 457217.0 0
101667.0 458638.0 0
105209.0 458922.0 0
99904.2 461687.0 0
109019.0 458840.0 0
105780.0 461021.0 0
111581.0 457672.0 0
114125.0 458854.0 0
118369.0 457417.0 0
116289.0 460582.0 0
119164.0 459939.0 0
123116.0 458656.0 0
125655.0 456188.0 0
128672.0 457498.0 0
126287.0 460507.0 0
132716.0 457417.0 0
136814.0 459449.0 0
141010.0 457558.0 0
145581.0 456027.0 0
143696.0 459355.0 0
150055.0 457122.0 0
147133.0 458894.0 0
151397.0 460098.0 0
154232.0 459037.0 0
160501.0 457032.0 0
157212.0 458675.0 0
163863.0 458521.0 0
167664.0 457104.0 0
170727.0 455666.0 0
170436.0 460098.0 0
174156.0 457105.0 0
177299.0 455447.0 0
176287.0 459947.0 0
178834.0 457956.0 0
182597.0 456093.0 0
181206.0 460220.0 0
184126.0 458824.0 0
186176.0 455829.0 0
188080.0 460065.0 0
192519.0 457947.0 0
195858.0 455854.0 0
195649.0 459954.0 0
199073.0 457683.0 0
201888.0 458977.0 0
202202.0 455649.0 0
206282.0 458269.0 0
212154.0 457324.0 0
216546.0 457548.0 0
220708.0 458535.0 0
224660.0 457616.0 0
227147.0 454447.0 0
227674.0 459319.0 0
230286.0 456418.0 0
232762.0 457921.0 0
238824.0 454506.0 0
236072.0 459243.0 0
240856.0 458753.0 0
244825.0 457148.0 0
248712.0 455053.0 0
251943.0 458147.0 0
255477.0 456238.0 0
258494.0 459234.0 0
259651.0 455166.0 0
262733.0 459194.0 0
267960.0 454387.0 0
266079.0 457478.0 0
270602.0 455377.0 0
274081.0 455818.0 0
278857.0 455056.0 0
277178.0 458650.0 0
283426.0 456915.0 0
287705.0 456312.0 0
292257.0 454905.0 0
290566.0 459474.0 0
296999.0 457230.0 0
300684.0 457669.0 0
304531.0 456775.0 0
307372.0 455446.0 0
307801.0 459332.0 0
311095.0 456452.0 0
319971.0 456613.0 0
315911.0 458423.0 0
320198.0 460109.0 0
323049.0 458371.0 0
326485.0 458322.0 0
334392.0 456201.0 0
330866.0 459099.0 0
335852.0 460461.0 0
338779.0 457564.0 0
342324.0 459105.0 0
343758.0 457196.0 0
346501.0 455600.0 0
346816.0 459607.0 0
350610.0 457388.0 0
353374.0 460562.0 0
355028.0 456348.0 0
358829.0 458732.0 0
356306.0 460476.0 0
360032.0 456350.0 0
362279.0 457970.0 0
364810.0 461050.0 0
365744.0 458012.0 0
368846.0 460507.0 0
369346.0 457181.0 0
372157.0 460349.0 0
376669.0 459461.0 0
382591.0 456446.0 0
384410.0 458282.0 0
381223.0 458830.0 0
388746.0 457803.0 0
392831.0 457322.0 0
391852.0 459635.0 0
394473.0 461822.0 0
395067.0 459280.0 0
398125.0 460383.0 0
402293.0 458938.0 0
400747.0 461848.0 0
405741.0 457742.0 0
408731.0 459844.0 0
404841.0 461066.0 0
410550.0 457585.0 0
411442.0 461987.0 0
412585.0 459794.0 0
415262.0 458510.0 0
417615.0 457380.0 0
420038.0 457603.0 0
416933.0 461415.0 0
423702.0 459315.0 0
420489.0 460472.0 0
428508.0 458283.0 0
426476.0 461050.0 0
431431.0 460031.0 0
434005.0 461418.0 0
58219.5 466375.0 0
61222.0 464579.0 0
64222.6 463035.0 0
66805.9 464968.0 0
68782.6 467258.0 0
69937.7 462559.0 0
72482.4 465556.0 0
75194.9 462802.0 0
77646.1 464056.0 0
75932.9 467334.0 0
79439.8 465436.0 0
81627.5 463239.0 0
84838.1 464064.0 0
81770.4 465517.0 0
88556.5 463587.0 0
88353.7 466647.0 0
91042.1 464372.0 0
93668.0 463520.0 0
94538.6 466573.0 0
96756.3 461858.0 0
97586.1 465282.0 0
100722.0 464678.0 0
103354.0 462230.0 0
104583.0 464715.0 0
108176.0 462407.0 0
108431.0 465697.0 0
111861.0 462033.0 0
114820.0 462948.0 0
111738.0 465688.0 0
119255.0 462799.0 0
116962.0 464951.0 0
120877.0 464982.0 0
122355.0 462473.0 0
122560.0 465576.0 0
124614.0 463985.0 0
127019.0 463057.0 0
129931.0 461128.0 0
126559.0 465820.0 0
128648.0 464170.0 0
133411.0 462721.0 0
130567.0 465692.0 0
134439.0 466177.0 0
140098.0 461661.0 0
137261.0 463836.0 0
140202.0 465316.0 0
143841.0 463203.0 0
148411.0 462638.0 0
153315.0 462236.0 0
152056.0 464127.0 0
159891.0 460931.0 0
156142.0 462466.0 0
158738.0 464831.0 0
162696.0 461346.0 0
162090.0 463614.0 0
166192.0 462273.0 0
169660.0 465244.0 0
173666.0 462076.0 0
177800.0 462826.0 0
183960.0 461467.0 0
181711.0 463818.0 0
185727.0 464137.0 0
189915.0 464986.0 0
192264.0 461633.0 0
194621.0 464136.0 0
199004.0 462165.0 0
202982.0 462114.0 0
206160.0 464137.0 0
209768.0 461862.0 0
213889.0 461357.0 0
217561.0 461789.0 0
220888.0 463354.0 0
224142.0 461180.0 0
227307.0 463271.0 0
231301.0 461220.0 0
234761.0 464256.0 0
238899.0 463016.0 0
243508.0 462407.0 0
247817.0 460711.0 0
251878.0 462801.0 0
258176.0 462853.0 0
255080.0 460747.0 0
261020.0 462674.0 0
263866.0 464494.0 0
266024.0 461617.0 0
269928.0 459540.0 0
272214.0 463668.0 0
274274.0 460686.0 0
274800.0 464288.0 0
277703.0 462496.0 0
280162.0 459739.0 0
281130.0 464566.0 0
282963.0 461197.0 0
284758.0 464439.0 0
286973.0 461035.0 0
294292.0 459820.0 0
291101.0 463937.0 0
295105.0 463865.0 0
298715.0 461336.0 0
303819.0 461036.0 0
301305.0 463849.0 0
308175.0 463810.0 0
311950.0 461493.0 0
315459.0 463004.0 0
318335.0 462180.0 0
318460.0 465404.0 0
322516.0 463424.0 0
325661.0 461664.0 0
328838.0 463180.0 0
333229.0 463688.0 0
337237.0 464589.0 0
339990.0 461580.0 0
344372.0 462210.0 0
341880.0 465877.0 0
348029.0 465568.0 0
350242.0 461611.0 0
354283.0 462807.0 0
352451.0 464320.0 0
355641.0 465829.0 0
357335.0 463106.0 0
361094.0 461967.0 0
367153.0 463686.0 0
371879.0 464464.0 0
375905.0 463644.0 0
379325.0 465399.0 0
379794.0 462014.0 0
382990.0 462028.0 0
382919.0 466402.0 0
387215.0 461549.0 0
386494.0 465592.0 0
389700.0 466294.0 0
391368.0 463275.0 0
396903.0 463413.0 0
399561.0 465153.0 0
403212.0 462848.0 0
403071.0 466285.0 0
406345.0 464655.0 0
407436.0 462366.0 0
408343.0 466424.0 0
410097.0 463974.0 0
414196.0 463022.0 0
411689.0 466301.0 0
414041.0 465277.0 0
418268.0 465391.0 0
424937.0 464182.0 0
421534.0 463771.0 0
429809.0 462898.0 0
428161.0 465991.0 0
432216.0 464553.0 0
434867.0 464965.0 0
436792.0 462945.0 0
439269.0 465100.0 0
437822.0 467416.0 0
442165.0 466324.0 0
48853.9 471840.0 0
52377.2 470349.0 0
55410.6 468403.0 0
56305.3 471022.0 0
58600.6 471828.0 0
59532.3 469189.0 0
62351.9 467677.0 0
62144.4 470982.0 0
64803.8 467889.0 0
66900.4 470165.0 0
64327.8 472484.0 0
71318.0 469281.0 0
78889.9 468511.0 0
74519.6 470710.0 0
78178.4 471628.0 0
82115.9 468634.0 0
83082.8 471468.0 0
85428.2 467273.0 0
86306.1 470214.0 0
89044.9 469845.0 0
91381.3 467625.0 0
92806.4 470598.0 0
98551.3 467628.0 0
95822.5 469755.0 0
99449.5 470418.0 0
101073.0 467187.0 0
104039.0 467986.0 0
101959.0 470170.0 0
107577.0 469212.0 0
114433.0 466770.0 0
111591.0 469759.0 0
115468.0 469560.0 0
119206.0 467985.0 0
123381.0 468272.0 0
119628.0 471510.0 0
127633.0 469191.0 0
131907.0 468773.0 0
137407.0 466883.0 0
139390.0 468723.0 0
135450.0 469139.0 0
137578.0 470600.0 0
142849.0 468274.0 0
146508.0 466754.0 0
146855.0 470128.0 0
149163.0 470424.0 0
154622.0 466514.0 0
150196.0 467338.0 0
151724.0 470468.0 0
154900.0 470149.0 0
158320.0 468240.0 0
161440.0 466793.0 0
164546.0 466221.0 0
161880.0 469841.0 0
166399.0 469002.0 0
174159.0 466008.0 0
170653.0 469613.0 0
174409.0 470071.0 0
178790.0 467752.0 0
183482.0 467326.0 0
185498.0 469990.0 0
186875.0 467095.0 0
188587.0 469345.0 0
192042.0 468197.0 0
198153.0 465780.0 0
195644.0 467757.0 0
198657.0 469898.0 0
201854.0 466496.0 0
205542.0 468656.0 0
209002.0 466357.0 0
208699.0 469734.0 0
211782.0 464820.0 0
212240.0 468795.0 0
215186.0 465079.0 0
216421.0 469105.0 0
218521.0 465628.0 0
224027.0 465059.0 0
221402.0 469019.0 0
226420.0 467680.0 0
230389.0 465911.0 0
233394.0 469039.0 0
237574.0 467842.0 0
240724.0 465306.0 0
243529.0 466252.0 0
241168.0 468555.0 0
247862.0 466592.0 0
252547.0 467011.0 0
255743.0 464809.0 0
259767.0 466411.0 0
263049.0 469459.0 0
268908.0 464630.0 0
266500.0 467733.0 0
269671.0 469202.0 0
273006.0 467547.0 0
277267.0 466705.0 0
280687.0 468608.0 0
284666.0 468106.0 0
287696.0 465415.0 0
289623.0 468539.0 0
294327.0 467942.0 0
298355.0 465841.0 0
301193.0 466444.0 0
302019.0 469099.0 0
304865.0 465775.0 0
305608.0 469866.0 0
311357.0 465257.0 0
314451.0 466468.0 0
310145.0 469564.0 0
317771.0 469701.0 0
321738.0 468339.0 0
326856.0 467338.0 0
331438.0 466768.0 0
332063.0 470453.0 0
334891.0 467830.0 0
338793.0 469025.0 0
341595.0 470408.0 0
344904.0 468952.0 0
347743.0 471045.0 0
350194.0 469711.0 0
352739.0 467578.0 0
359328.0 466133.0 0
357070.0 469315.0 0
363383.0 465957.0 0
361161.0 469151.0 0
368144.0 468008.0 0
365041.0 469921.0 0
374215.0 467785.0 0
371681.0 469478.0 0
376380.0 467178.0 0
378831.0 468830.0 0
376075.0 470575.0 0
381583.0 470498.0 0
385151.0 469817.0 0
387794.0 468533.0 0
394277.0 466145.0 0
391465.0 468606.0 0
394159.0 470425.0 0
397641.0 468261.0 0
401533.0 470198.0 0
406040.0 469033.0 0
409963.0 469370.0 0
406457.0 472169.0 0
413031.0 468754.0 0
413909.0 470948.0 0
415593.0 467487.0 0
420044.0 468417.0 0
416738.0 469852.0 0
420332.0 471561.0 0
424050.0 468211.0 0
423109.0 472072.0 0
427363.0 471189.0 0
430762.0 468621.0 0
434827.0 467965.0 0
435767.0 470614.0 0
432847.0 471708.0 0
439276.0 470349.0 0
442325.0 469319.0 0
445271.0 468519.0 0
443894.0 472098.0 0
447774.0 470822.0 0
451067.0 472493.0 0
43016.7 475066.0 0
40738.8 477636.0 0
46289.1 474124.0 0
48436.6 476068.0 0
44478.5 477365.0 0
51061.8 473605.0 0
51793.0 476488.0 0
54459.4 472978.0 0
57324.6 474036.0 0
58658.2 475733.0 0
54844.5 475826.0 0
60476.5 473121.0 0
62021.4 475779.0 0
66676.9 474544.0 0
65455.7 477467.0 0
69555.1 472838.0 0
72519.4 473589.0 0
73096.3 476525.0 0
76129.5 474495.0 0
77965.5 476924.0 0
80346.2 473049.0 0
81175.7 476134.0 0
86869.4 472510.0 0
84390.3 474070.0 0
87801.7 475564.0 0
90069.0 472463.0 0
93285.0 473154.0 0
91396.4 475751.0 0
96424.1 473174.0 0
95277.2 476929.0 0
100149.0 473908.0 0
103618.0 471994.0 0
103470.0 475540.0 0
107036.0 473051.0 0
111442.0 474322.0 0
116098.0 473265.0 0
123126.0 472365.0 0
119867.0 475303.0 0
127449.0 473967.0 0
130670.0 471840.0 0
131277.0 475706.0 0
133741.0 472146.0 0
140597.0 471898.0 0
137138.0 473840.0 0
140309.0 475691.0 0
144043.0 472521.0 0
144012.0 476003.0 0
148423.0 474037.0 0
153196.0 473738.0 0
157796.0 472034.0 0
160800.0 473927.0 0
164004.0 472617.0 0
167672.0 473082.0 0
171912.0 474142.0 0
177457.0 473209.0 0
182042.0 471204.0 0
181936.0 474680.0 0
186560.0 474109.0 0
190461.0 472036.0 0
194275.0 471730.0 0
197562.0 474338.0 0
202355.0 471880.0 0
206783.0 472864.0 0
210237.0 472254.0 0
213826.0 473448.0 0
218161.0 472893.0 0
225203.0 471943.0 0
229270.0 470290.0 0
228443.0 473718.0 0
231972.0 473218.0 0
236334.0 472696.0 0
240487.0 472372.0 0
244380.0 470538.0 0
247687.0 472717.0 0
251365.0 471094.0 0
254165.0 474284.0 0
255993.0 469627.0 0
257846.0 473460.0 0
259681.0 470762.0 0
261858.0 474522.0 0
266879.0 472946.0 0
271993.0 472350.0 0
276780.0 471407.0 0
282229.0 472913.0 0
286713.0 471446.0 0
290018.0 473514.0 0
292810.0 471458.0 0
298732.0 470083.0 0
296164.0 472845.0 0
300205.0 474577.0 0
303028.0 472681.0 0
306616.0 473238.0 0
314593.0 470568.0 0
314049.0 474114.0 0
317361.0 473129.0 0
324332.0 471848.0 0
320714.0 472934.0 0
328771.0 472770.0 0
333435.0 474999.0 0
336020.0 471753.0 0
337535.0 475127.0 0
339740.0 472866.0 0
343920.0 473302.0 0
347379.0 473819.0 0
353777.0 470944.0 0
351186.0 474126.0 0
355834.0 473784.0 0
359233.0 472925.0 0
362836.0 472506.0 0
363061.0 475797.0 0
368625.0 471663.0 0
366109.0 473578.0 0
369362.0 474461.0 0
372649.0 472650.0 0
378974.0 472847.0 0
375961.0 474945.0 0
385983.0 473393.0 0
382375.0 474842.0 0
389763.0 471720.0 0
389493.0 476027.0 0
392985.0 474163.0 0
397760.0 473035.0 0
396549.0 477538.0 0
403395.0 473333.0 0
401031.0 476078.0 0
404836.0 476846.0 0
406462.0 474672.0 0
410360.0 473020.0 0
408831.0 476771.0 0
414731.0 474924.0 0
417567.0 472716.0 0
420035.0 474792.0 0
423265.0 475409.0 0
427824.0 475693.0 0
431885.0 474543.0 0
435812.0 473378.0 0
434973.0 477138.0 0
439118.0 473788.0 0
442371.0 473844.0 0
443639.0 476781.0 0
446876.0 474527.0 0
451196.0 475170.0 0
448804.0 477654.0 0
454150.0 473492.0 0
456434.0 476150.0 0
37482.1 478937.0 0
34868.7 482180.0 0
38769.3 481738.0 0
41639.8 480922.0 0
44782.1 480617.0 0
47667.3 479120.0 0
48635.7 482372.0 0
51967.1 479898.0 0
56681.2 478900.0 0
60748.0 479272.0 0
64445.0 480429.0 0
67985.8 481100.0 0
69602.6 477306.0 0
71446.0 480789.0 0
74855.3 479563.0 0
78567.0 480572.0 0
81624.7 479500.0 0
84728.1 477569.0 0
88656.6 478605.0 0
85404.5 480508.0 0
91841.4 479415.0 0
88838.1 481713.0 0
99114.7 477772.0 0
95420.9 480964.0 0
103103.0 479658.0 0
106976.0 476768.0 0
107307.0 479852.0 0
110191.0 478190.0 0
112082.0 480040.0 0
115607.0 478292.0 0
118981.0 481769.0 0
120298.0 478555.0 0
123867.0 477061.0 0
127550.0 478790.0 0
134624.0 475437.0 0
131527.0 479647.0 0
136368.0 478580.0 0
141703.0 479290.0 0
146307.0 478259.0 0
151028.0 477885.0 0
154546.0 479519.0 0
156365.0 476349.0 0
157752.0 480127.0 0
164143.0 476513.0 0
160174.0 477355.0 0
168046.0 476583.0 0
166097.0 480198.0 0
170397.0 478916.0 0
174399.0 477551.0 0
178861.0 477747.0 0
183278.0 478092.0 0
187391.0 478974.0 0
192149.0 476512.0 0
197112.0 479174.0 0
204372.0 475294.0 0
201031.0 476435.0 0
204221.0 479018.0 0
209725.0 475804.0 0
206704.0 476785.0 0
213002.0 478392.0 0
216975.0 476778.0 0
219454.0 479291.0 0
221496.0 475136.0 0
225876.0 476334.0 0
229949.0 476814.0 0
234392.0 476981.0 0
239524.0 477388.0 0
243978.0 475211.0 0
247281.0 476746.0 0
249304.0 479640.0 0
250486.0 475716.0 0
252882.0 478747.0 0
257444.0 477798.0 0
261438.0 479020.0 0
265151.0 478020.0 0
270379.0 477662.0 0
274718.0 475444.0 0
278736.0 476684.0 0
282960.0 478782.0 0
286523.0 476089.0 0
290581.0 478452.0 0
293659.0 475720.0 0
297266.0 476528.0 0
300486.0 479094.0 0
304983.0 477117.0 0
309365.0 479653.0 0
309937.0 475336.0 0
313837.0 478494.0 0
318857.0 477328.0 0
324539.0 476593.0 0
329443.0 476905.0 0
328076.0 480217.0 0
332633.0 479174.0 0
336927.0 478812.0 0
341547.0 477247.0 0
346848.0 477200.0 0
345234.0 480256.0 0
348708.0 480931.0 0
350531.0 478311.0 0
352886.0 480972.0 0
354983.0 477370.0 0
359267.0 476818.0 0
362747.0 479458.0 0
366966.0 477720.0 0
372302.0 477134.0 0
370667.0 480944.0 0
374507.0 481779.0 0
376059.0 478654.0 0
379367.0 476893.0 0
379231.0 480745.0 0
382766.0 478910.0 0
385903.0 477710.0 0
386368.0 481205.0 0
389030.0 479397.0 0
392761.0 478646.0 0
400070.0 479269.0 0
397164.0 481032.0 0
403470.0 479820.0 0
407420.0 480361.0 0
412276.0 477330.0 0
415407.0 479143.0 0
411739.0 480412.0 0
418390.0 477339.0 0
418174.0 481428.0 0
421819.0 479412.0 0
425772.0 480143.0 0
431132.0 479330.0 0
428761.0 481800.0 0
435240.0 481040.0 0
439629.0 477863.0 0
439212.0 482288.0 0
442981.0 480847.0 0
445920.0 479598.0 0
447331.0 482795.0 0
450423.0 481435.0 0
453376.0 478367.0 0
455492.0 481974.0 0
458594.0 480617.0 0
459717.0 478034.0 0
461749.0 482652.0 0
463204.0 479965.0 0
466423.0 481726.0 0
21847.0 488762.0 0
27353.7 485363.0 0
30934.5 484261.0 0
38633.0 484869.0 0
34931.9 487303.0 0
42193.1 484516.0 0
39005.3 488120.0 0
41934.1 487690.0 0
45708.8 483483.0 0
46453.4 487105.0 0
50032.6 485145.0 0
52788.1 483140.0 0
56554.3 482879.0 0
53690.1 486342.0 0
58266.1 487166.0 0
60995.2 483211.0 0
62630.2 487102.0 0
64941.8 484296.0 0
68714.9 484457.0 0
72026.3 483928.0 0
70750.8 487512.0 0
75011.5 482777.0 0
77961.4 484326.0 0
74494.7 486386.0 0
82325.3 483108.0 0
86382.6 483360.0 0
85207.3 486266.0 0
92260.9 483132.0 0
89053.5 485000.0 0
98757.9 482307.0 0
95395.3 485626.0 0
101977.0 483492.0 0
99875.9 485737.0 0
102551.0 485449.0 0
105554.0 483345.0 0
104941.0 486213.0 0
108685.0 486017.0 0
109715.0 482505.0 0
114244.0 484162.0 0
123660.0 481753.0 0
119661.0 485526.0 0
124084.0 486303.0 0
128025.0 482611.0 0
132894.0 483355.0 0
138093.0 482563.0 0
144483.0 480991.0 0
142006.0 482712.0 0
144671.0 484492.0 0
147967.0 481423.0 0
152013.0 482055.0 0
154410.0 485222.0 0
155492.0 482054.0 0
158079.0 483541.0 0
161513.0 481044.0 0
160672.0 485229.0 0
164139.0 484411.0 0
169078.0 483675.0 0
172718.0 480953.0 0
173224.0 484383.0 0
175938.0 480932.0 0
176924.0 483978.0 0
180318.0 481849.0 0
184342.0 481420.0 0
183205.0 485330.0 0
190181.0 481225.0 0
187250.0 483554.0 0
193303.0 481252.0 0
196087.0 483926.0 0
199587.0 482802.0 0
201043.0 480197.0 0
203662.0 483600.0 0
208150.0 480781.0 0
212190.0 483054.0 0
216443.0 481337.0 0
223027.0 479916.0 0
220278.0 483877.0 0
224679.0 484499.0 0
227329.0 480608.0 0
228947.0 484595.0 0
231628.0 480816.0 0
236077.0 481386.0 0
240618.0 482840.0 0
244754.0 480254.0 0
248317.0 484096.0 0
251629.0 482296.0 0
255059.0 482395.0 0
259205.0 482089.0 0
263124.0 481989.0 0
267203.0 482222.0 0
271934.0 483330.0 0
275417.0 480055.0 0
276413.0 484991.0 0
279688.0 481992.0 0
283908.0 483407.0 0
286992.0 480749.0 0
287299.0 484408.0 0
291142.0 483203.0 0
295456.0 480179.0 0
295082.0 484536.0 0
299668.0 483876.0 0
305268.0 482991.0 0
312289.0 481734.0 0
309939.0 483678.0 0
314778.0 481847.0 0
317523.0 481442.0 0
319536.0 484533.0 0
323080.0 481608.0 0
327996.0 484610.0 0
331997.0 482870.0 0
336101.0 482685.0 0
341148.0 482409.0 0
346267.0 483858.0 0
350739.0 484075.0 0
354369.0 484092.0 0
358174.0 481561.0 0
357625.0 486116.0 0
362782.0 483422.0 0
366465.0 482351.0 0
370521.0 485140.0 0
374911.0 486465.0 0
377098.0 483205.0 0
379882.0 485071.0 0
383339.0 482518.0 0
390372.0 482835.0 0
386954.0 484952.0 0
394264.0 481947.0 0
393607.0 485427.0 0
396899.0 484769.0 0
400937.0 483233.0 0
405512.0 483415.0 0
403523.0 487187.0 0
410150.0 483794.0 0
407964.0 486620.0 0
410680.0 486570.0 0
414773.0 482810.0 0
413583.0 486274.0 0
418284.0 485657.0 0
421753.0 483292.0 0
425179.0 483896.0 0
426859.0 487455.0 0
429241.0 485023.0 0
432144.0 482746.0 0
434447.0 483916.0 0
432324.0 486833.0 0
436837.0 486073.0 0
443791.0 483991.0 0
441361.0 486782.0 0
445834.0 486632.0 0
449279.0 486211.0 0
452481.0 484549.0 0
454739.0 487958.0 0
458716.0 485379.0 0
464406.0 483771.0 0
463037.0 486648.0 0
465979.0 484841.0 0
466027.0 487142.0 0
469456.0 484503.0 0
473427.0 486603.0 0
476933.0 487429.0 0
12546.4 493732.0 0
19295.6 490927.0 0
24823.1 487466.0 0
22615.1 491663.0 0
26648.7 490975.0 0
28926.6 487776.0 0
31269.6 488759.0 0
30310.7 491872.0 0
36741.2 491141.0 0
33206.6 491384.0 0
40103.9 491408.0 0
44053.8 490791.0 0
50546.1 489019.0 0
48073.6 492046.0 0
54726.6 490560.0 0
60442.7 490524.0 0
63424.1 489563.0 0
66613.4 488162.0 0
73424.5 489549.0 0
69485.2 490644.0 0
72197.3 492712.0 0
77398.5 488540.0 0
76453.0 491783.0 0
81135.3 487459.0 0
80615.5 490955.0 0
88150.2 488109.0 0
84456.8 489924.0 0
88450.8 491511.0 0
91473.7 487369.0 0
92867.4 490603.0 0
97667.0 489458.0 0
102209.0 488039.0 0
101915.0 491547.0 0
106253.0 489168.0 0
111652.0 488533.0 0
116370.0 488371.0 0
120383.0 489937.0 0
128390.0 486586.0 0
125361.0 490239.0 0
129580.0 490653.0 0
132165.0 487333.0 0
134035.0 490605.0 0
136298.0 486661.0 0
138735.0 489931.0 0
140718.0 486110.0 0
143821.0 489126.0 0
149282.0 486101.0 0
153353.0 489471.0 0
157645.0 487380.0 0
162039.0 489126.0 0
166442.0 487867.0 0
170964.0 489579.0 0
175175.0 487291.0 0
179022.0 486623.0 0
181558.0 489994.0 0
186636.0 488879.0 0
191280.0 485614.0 0
195502.0 488695.0 0
199597.0 486408.0 0
203086.0 488656.0 0
208048.0 486826.0 0
212181.0 486721.0 0
212538.0 489963.0 0
216157.0 486296.0 0
220273.0 489057.0 0
223599.0 488003.0 0
227088.0 488310.0 0
232886.0 484879.0 0
230477.0 487699.0 0
233951.0 489151.0 0
237003.0 485905.0 0
240731.0 487262.0 0
244297.0 485813.0 0
247702.0 489478.0 0
252372.0 486534.0 0
257143.0 485920.0 0
255686.0 489859.0 0
264434.0 485724.0 0
260909.0 485160.0 0
260509.0 489292.0 0
265212.0 490146.0 0
268718.0 486805.0 0
273181.0 488268.0 0
277061.0 489058.0 0
281102.0 487261.0 0
285686.0 487772.0 0
289232.0 487004.0 0
292970.0 488231.0 0
297123.0 487325.0 0
300810.0 488794.0 0
302887.0 486496.0 0
304944.0 488456.0 0
308667.0 487485.0 0
314418.0 486171.0 0
318902.0 488873.0 0
323786.0 487529.0 0
328602.0 489530.0 0
333646.0 487699.0 0
338527.0 486389.0 0
343540.0 488114.0 0
348930.0 487514.0 0
351448.0 490968.0 0
353919.0 487978.0 0
358887.0 490473.0 0
361355.0 486710.0 0
363165.0 489907.0 0
366336.0 487327.0 0
370831.0 489404.0 0
374945.0 490526.0 0
379373.0 489698.0 0
383621.0 486690.0 0
383848.0 490249.0 0
387179.0 488761.0 0
390780.0 487459.0 0
399359.0 487683.0 0
395498.0 489529.0 0
401279.0 491241.0 0
406467.0 490498.0 0
411343.0 490046.0 0
419594.0 489533.0 0
416330.0 489457.0 0
422641.0 487428.0 0
422299.0 491070.0 0
425567.0 491077.0 0
429662.0 489732.0 0
433986.0 489740.0 0
437509.0 489422.0 0
440819.0 490930.0 0
444721.0 489726.0 0
448112.0 489837.0 0
451061.0 489538.0 0
447740.0 492545.0 0
454246.0 491746.0 0
459258.0 489594.0 0
456963.0 491628.0 0
462900.0 490010.0 0
465892.0 490301.0 0
469438.0 489081.0 0
471423.0 493051.0 0
473728.0 490659.0 0
477185.0 490558.0 0
479750.0 489615.0 0
482225.0 492017.0 0
485298.0 492860.0 0
10759.6 495645.0 0
8310.38 497527.0 0
13142.2 497534.0 0
16314.3 493869.0 0
17268.1 498234.0 0
20936.1 494500.0 0
20386.4 497971.0 0
23961.1 493889.0 0
24221.8 496748.0 0
27464.1 494922.0 0
31237.6 495239.0 0
34914.2 494079.0 0
35195.8 497259.0 0
38592.2 494925.0 0
42201.8 497530.0 0
42322.3 494079.0 0
45552.8 494757.0 0
46135.3 497777.0 0
51536.7 493105.0 0
49480.8 496014.0 0
54108.1 495484.0 0
57551.9 492999.0 0
61359.4 493924.0 0
58247.6 496497.0 0
62768.4 497053.0 0
65324.8 492668.0 0
66561.7 497020.0 0
68847.3 493893.0 0
70571.6 496388.0 0
74689.7 495533.0 0
79456.1 494325.0 0
83735.5 493156.0 0
87009.4 495168.0 0
91360.8 495199.0 0
94813.5 493540.0 0
98186.2 493686.0 0
101497.0 496245.0 0
105105.0 492981.0 0
106394.0 496010.0 0
109284.0 492129.0 0
111307.0 495724.0 0
114827.0 492074.0 0
118568.0 493763.0 0
122843.0 493656.0 0
127383.0 494044.0 0
131665.0 494473.0 0
136282.0 494351.0 0
141304.0 493315.0 0
148164.0 491100.0 0
144913.0 493308.0 0
147077.0 494799.0 0
151626.0 494309.0 0
157613.0 492436.0 0
162437.0 493625.0 0
165478.0 496546.0 0
166122.0 492094.0 0
169222.0 494580.0 0
173268.0 494015.0 0
176655.0 491014.0 0
176803.0 495511.0 0
179657.0 493701.0 0
183663.0 493949.0 0
187858.0 493387.0 0
191249.0 490927.0 0
190703.0 495092.0 0
194890.0 494068.0 0
199239.0 491249.0 0
202799.0 493306.0 0
205704.0 491269.0 0
205697.0 494362.0 0
209127.0 492313.0 0
213479.0 494775.0 0
216300.0 490991.0 0
219200.0 494627.0 0
224383.0 492114.0 0
229990.0 491991.0 0
235031.0 493188.0 0
238321.0 490068.0 0
240087.0 494026.0 0
242819.0 490080.0 0
244831.0 493361.0 0
251819.0 490970.0 0
254405.0 494267.0 0
258452.0 492936.0 0
262561.0 493982.0 0
266680.0 494249.0 0
269925.0 491606.0 0
275084.0 493678.0 0
279902.0 491852.0 0
284435.0 492381.0 0
289055.0 490973.0 0
293256.0 493190.0 0
296847.0 490843.0 0
297460.0 494987.0 0
300000.0 492244.0 0
301119.0 494975.0 0
303380.0 491972.0 0
307598.0 492402.0 0
311808.0 490585.0 0
311920.0 494937.0 0
316310.0 492730.0 0
322106.0 492526.0 0
325863.0 491865.0 0
328656.0 494006.0 0
331773.0 492058.0 0
338958.0 491270.0 0
335118.0 492673.0 0
336953.0 495712.0 0
340522.0 495271.0 0
343614.0 493484.0 0
347467.0 491800.0 0
347475.0 496159.0 0
351445.0 494645.0 0
355424.0 493107.0 0
362627.0 493377.0 0
367106.0 492594.0 0
372437.0 493724.0 0
377864.0 494282.0 0
382384.0 493422.0 0
381295.0 496646.0 0
386725.0 492667.0 0
390512.0 491405.0 0
390197.0 496496.0 0
393684.0 493623.0 0
397880.0 494036.0 0
405254.0 493855.0 0
402134.0 495991.0 0
409912.0 494778.0 0
415072.0 493407.0 0
413580.0 497222.0 0
419563.0 493269.0 0
417650.0 497376.0 0
421627.0 497162.0 0
423575.0 493822.0 0
425920.0 496800.0 0
427932.0 493453.0 0
430455.0 496977.0 0
432057.0 493125.0 0
436444.0 492936.0 0
440151.0 494960.0 0
443522.0 496366.0 0
444459.0 493408.0 0
451136.0 493531.0 0
450688.0 496961.0 0
447308.0 495867.0 0
455729.0 494637.0 0
453807.0 497196.0 0
460402.0 493632.0 0
458351.0 497013.0 0
464816.0 493591.0 0
463112.0 497071.0 0
468280.0 493141.0 0
467584.0 497091.0 0
471479.0 496091.0 0
475171.0 494708.0 0
477515.0 498163.0 0
478971.0 494335.0 0
480288.0 497897.0 0
483787.0 496727.0 0
487529.0 494818.0 0
490215.0 496916.0 0
493131.0 499444.0 0
5410.86 499439.0 0
2059.92 500067.0 0
9992.38 501118.0 0
14761.9 501130.0 0
18827.7 502584.0 0
23562.4 501274.0 0
27971.5 498954.0 0
32119.8 498841.0 0
30570.3 501696.0 0
35350.4 501906.0 0
38238.8 498594.0 0
40666.5 501263.0 0
44704.2 501165.0 0
48667.6 500011.0 0
51925.3 498382.0 0
51739.6 501729.0 0
55290.1 499340.0 0
59666.4 500093.0 0
63622.0 500050.0 0
66597.7 500638.0 0
69160.3 498945.0 0
72685.9 499399.0 0
69719.7 501051.0 0
77553.0 498483.0 0
75548.4 501612.0 0
82903.5 497900.0 0
88120.4 498735.0 0
85255.9 502105.0 0
91867.1 499382.0 0
96007.2 497547.0 0
99195.6 501021.0 0
103656.0 500121.0 0
107906.0 499487.0 0
112888.0 500072.0 0
115971.0 496734.0 0
117044.0 501111.0 0
119967.0 497375.0 0
124859.0 497756.0 0
129563.0 498069.0 0
133724.0 497994.0 0
139154.0 497471.0 0
136601.0 500959.0 0
143819.0 497142.0 0
148151.0 498107.0 0
151972.0 498844.0 0
155390.0 496925.0 0
160146.0 498032.0 0
164179.0 501120.0 0
168376.0 499676.0 0
171989.0 497824.0 0
176405.0 499562.0 0
180340.0 496949.0 0
186684.0 498289.0 0
192167.0 498448.0 0
199429.0 495724.0 0
196065.0 498143.0 0
199362.0 500457.0 0
203457.0 497568.0 0
208514.0 497107.0 0
212247.0 498954.0 0
215937.0 498712.0 0
219909.0 499947.0 0
223623.0 496826.0 0
227380.0 495284.0 0
227539.0 499201.0 0
231863.0 497030.0 0
236379.0 496936.0 0
239570.0 499088.0 0
243443.0 497080.0 0
249259.0 495135.0 0
246463.0 499341.0 0
249621.0 500220.0 0
253503.0 499056.0 0
259010.0 498158.0 0
265335.0 498737.0 0
270325.0 496590.0 0
274441.0 499827.0 0
277246.0 497412.0 0
280695.0 496298.0 0
285394.0 497715.0 0
289560.0 495509.0 0
289547.0 500015.0 0
294207.0 498373.0 0
300139.0 499578.0 0
304463.0 496135.0 0
308340.0 497125.0 0
305471.0 500223.0 0
311948.0 498755.0 0
315352.0 498016.0 0
319929.0 497001.0 0
323267.0 500641.0 0
325372.0 496547.0 0
329258.0 497581.0 0
332819.0 496131.0 0
331555.0 499962.0 0
335955.0 500331.0 0
339546.0 498275.0 0
343960.0 498490.0 0
350883.0 497812.0 0
355462.0 498877.0 0
359535.0 495586.0 0
364394.0 496576.0 0
361426.0 499642.0 0
365287.0 499867.0 0
369111.0 497932.0 0
375039.0 498286.0 0
379138.0 498636.0 0
385499.0 496647.0 0
383287.0 500803.0 0
388019.0 500481.0 0
394738.0 497591.0 0
391912.0 501086.0 0
398879.0 498624.0 0
395888.0 501343.0 0
403266.0 500120.0 0
406767.0 497652.0 0
407388.0 501335.0 0
410897.0 499839.0 0
412876.0 502627.0 0
415530.0 500436.0 0
419826.0 500473.0 0
423742.0 500632.0 0
428308.0 500494.0 0
435546.0 497382.0 0
432478.0 500187.0 0
436292.0 501967.0 0
440329.0 499517.0 0
444978.0 499318.0 0
443775.0 502797.0 0
448775.0 498933.0 0
451706.0 499967.0 0
448059.0 502637.0 0
452677.0 503466.0 0
456404.0 500548.0 0
460772.0 499552.0 0
465013.0 500521.0 0
471731.0 499826.0 0
468564.0 501065.0 0
474781.0 498045.0 0
475840.0 502190.0 0
480581.0 501590.0 0
487536.0 498866.0 0
485040.0 501569.0 0
489855.0 501951.0 0
497141.0 500294.0 0
2075.26 503206.0 0
1770.28 506096.0 0
5727.64 502797.0 0
9374.28 504511.0 0
6104.91 506804.0 0
13654.8 504993.0 0
10367.9 507577.0 0
14230.4 509295.0 0
18086.7 506891.0 0
22803.6 505912.0 0
27255.7 503166.0 0
30997.1 505212.0 0
26794.9 506547.0 0
35542.5 507492.0 0
39405.9 504517.0 0
40984.9 507687.0 0
43193.5 504197.0 0
44634.1 506955.0 0
47666.9 503900.0 0
51941.6 505378.0 0
55520.1 503051.0 0
55252.6 506171.0 0
58923.8 503568.0 0
62880.7 504178.0 0
58308.4 506829.0 0
67882.6 504109.0 0
65578.8 507914.0 0
71986.2 503516.0 0
73010.1 506437.0 0
75969.6 504994.0 0
79921.8 502433.0 0
82636.6 505485.0 0
86777.8 506494.0 0
89595.4 502749.0 0
91452.5 506336.0 0
94539.1 502856.0 0
98324.7 505002.0 0
102071.0 504476.0 0
105707.0 503518.0 0
108250.0 505912.0 0
109474.0 502718.0 0
113273.0 505415.0 0
118377.0 505900.0 0
121622.0 501626.0 0
123720.0 506369.0 0
126844.0 502124.0 0
131867.0 502573.0 0
135767.0 505126.0 0
138807.0 504097.0 0
141011.0 501153.0 0
141980.0 504895.0 0
144990.0 501535.0 0
145688.0 505184.0 0
149793.0 502929.0 0
155176.0 501316.0 0
159339.0 503861.0 0
163744.0 504964.0 0
167780.0 504030.0 0
172089.0 502356.0 0
176738.0 504939.0 0
181486.0 501137.0 0
185753.0 503072.0 0
189984.0 502483.0 0
192901.0 505575.0 0
194775.0 501784.0 0
197719.0 505208.0 0
203066.0 504145.0 0
205844.0 500569.0 0
207553.0 505366.0 0
209325.0 501841.0 0
210793.0 505227.0 0
213752.0 502457.0 0
217782.0 503754.0 0
222146.0 504709.0 0
223834.0 500881.0 0
226793.0 503539.0 0
231082.0 502264.0 0
235317.0 500852.0 0
238890.0 503741.0 0
243137.0 501795.0 0
247341.0 504440.0 0
251669.0 503391.0 0
256405.0 504323.0 0
262045.0 503518.0 0
266657.0 503654.0 0
270128.0 501593.0 0
274044.0 504652.0 0
278608.0 500308.0 0
278748.0 504692.0 0
282778.0 504689.0 0
282195.0 501127.0 0
286080.0 502823.0 0
289262.0 503104.0 0
292850.0 503416.0 0
297709.0 505072.0 0
303166.0 504359.0 0
309605.0 501117.0 0
307334.0 503995.0 0
313654.0 501971.0 0
311085.0 504955.0 0
318403.0 502414.0 0
323146.0 504708.0 0
327768.0 501365.0 0
327666.0 506060.0 0
332591.0 504352.0 0
337779.0 505336.0 0
340787.0 502019.0 0
342389.0 505830.0 0
344645.0 502790.0 0
349085.0 501380.0 0
346342.0 505756.0 0
350288.0 505960.0 0
354980.0 504598.0 0
359120.0 502699.0 0
364560.0 502488.0 0
362228.0 503808.0 0
367824.0 502653.0 0
365721.0 505324.0 0
372499.0 502607.0 0
378333.0 502998.0 0
382898.0 504694.0 0
386944.0 504082.0 0
391023.0 504779.0 0
395961.0 505433.0 0
400024.0 502895.0 0
404829.0 504495.0 0
409772.0 504673.0 0
414931.0 503217.0 0
414392.0 506305.0 0
417940.0 503364.0 0
421823.0 503580.0 0
419289.0 506978.0 0
426308.0 503842.0 0
431906.0 504363.0 0
436768.0 506089.0 0
440366.0 503787.0 0
440945.0 507330.0 0
444896.0 506421.0 0
449568.0 506646.0 0
457126.0 505033.0 0
453562.0 507118.0 0
461962.0 503536.0 0
460682.0 508181.0 0
467101.0 504113.0 0
465204.0 507357.0 0
471506.0 503608.0 0
470196.0 507321.0 0
474739.0 506285.0 0
479172.0 505942.0 0
483618.0 505546.0 0
488396.0 505648.0 0
493835.0 503709.0 0
493129.0 507224.0 0
497678.0 504915.0 0
2630.9 509652.0 0
6803.68 511957.0 0
10586.3 510962.0 0
13450.7 513474.0 0
17791.0 511448.0 0
21408.2 509880.0 0
25390.2 510282.0 0
29904.6 509572.0 0
33563.4 512233.0 0
38877.6 511494.0 0
43539.8 510647.0 0
48579.8 508737.0 0
51291.3 512269.0 0
53966.0 509122.0 0
58185.5 510865.0 0
61646.5 508500.0 0
62251.8 512381.0 0
63787.2 510100.0 0
67022.8 512091.0 0
70053.3 508022.0 0
71329.0 512006.0 0
74687.1 509462.0 0
78991.8 507399.0 0
82598.4 509537.0 0
78652.9 511991.0 0
85957.1 511069.0 0
89181.8 509447.0 0
92166.4 510525.0 0
95528.5 507557.0 0
100493.0 509119.0 0
104839.0 507730.0 0
104750.0 512095.0 0
109292.0 509875.0 0
115131.0 510450.0 0
120315.0 510887.0 0
128746.0 506655.0 0
125759.0 510857.0 0
130151.0 510067.0 0
132960.0 507511.0 0
138403.0 508725.0 0
143695.0 508349.0 0
148588.0 508610.0 0
153884.0 506223.0 0
152982.0 511334.0 0
157546.0 509188.0 0
161529.0 507702.0 0
165812.0 508882.0 0
171566.0 507701.0 0
178777.0 508208.0 0
182429.0 506253.0 0
180417.0 510251.0 0
184122.0 510800.0 0
187639.0 506841.0 0
191210.0 509650.0 0
195492.0 509481.0 0
200622.0 510176.0 0
205206.0 508549.0 0
209345.0 509312.0 0
214401.0 507379.0 0
219076.0 507831.0 0
222943.0 509128.0 0
225764.0 506992.0 0
229626.0 506694.0 0
234546.0 506172.0 0
231695.0 510125.0 0
238966.0 508043.0 0
242704.0 506516.0 0
246162.0 509045.0 0
251751.0 507415.0 0
255281.0 508461.0 0
260351.0 508054.0 0
265233.0 508251.0 0
269476.0 510221.0 0
270001.0 506276.0 0
273592.0 509315.0 0
277958.0 509305.0 0
281626.0 508270.0 0
285247.0 507164.0 0
289130.0 506006.0 0
288377.0 510011.0 0
293112.0 508852.0 0
297390.0 509907.0 0
301777.0 509205.0 0
307242.0 508819.0 0
312086.0 508774.0 0
315221.0 506076.0 0
316037.0 511094.0 0
319543.0 507650.0 0
323998.0 509032.0 0
328017.0 510780.0 0
331164.0 508550.0 0
335308.0 509034.0 0
340417.0 510050.0 0
344726.0 509082.0 0
348703.0 509499.0 0
353057.0 509325.0 0
359851.0 506332.0 0
357463.0 509497.0 0
363134.0 506984.0 0
362151.0 510850.0 0
369971.0 507088.0 0
366157.0 509310.0 0
369246.0 511499.0 0
374821.0 507063.0 0
378008.0 507206.0 0
380978.0 507185.0 0
378332.0 510545.0 0
384873.0 507767.0 0
382349.0 510474.0 0
388686.0 508351.0 0
386439.0 512470.0 0
390179.0 511816.0 0
392891.0 508999.0 0
401228.0 507561.0 0
397597.0 510677.0 0
410648.0 508515.0 0
406629.0 509073.0 0
410275.0 511958.0 0
413134.0 510353.0 0
416830.0 510227.0 0
421454.0 511359.0 0
423869.0 507625.0 0
425967.0 512069.0 0
428807.0 508379.0 0
433863.0 509086.0 0
438375.0 510113.0 0
442902.0 510757.0 0
447722.0 510904.0 0
452001.0 509882.0 0
451813.0 513469.0 0
456410.0 508689.0 0
454672.0 511373.0 0
458520.0 511688.0 0
467385.0 510243.0 0
463674.0 511460.0 0
471046.0 511839.0 0
477683.0 509393.0 0
474187.0 509839.0 0
478964.0 512592.0 0
483074.0 510061.0 0
488316.0 509803.0 0
487350.0 514203.0 0
492609.0 511599.0 0
497316.0 509139.0 0
497413.0 513402.0 0
2498.47 513783.0 0
2079.78 517356.0 0
9941.87 514237.0 0
6541.07 516858.0 0
14439.2 516849.0 0
17567.4 514877.0 0
22695.1 514759.0 0
24387.9 519542.0 0
28162.2 514059.0 0
36879.2 515621.0 0
32390.8 516196.0 0
41849.7 514761.0 0
46827.3 513416.0 0
50806.0 515857.0 0
54668.3 513460.0 0
54839.9 517252.0 0
58771.0 515250.0 0
64485.3 517476.0 0
70277.3 515753.0 0
74648.7 514092.0 0
82566.0 513871.0 0
78880.1 516501.0 0
86681.1 515142.0 0
89178.9 512346.0 0
91543.7 515264.0 0
96132.5 512246.0 0
96350.7 516984.0 0
100691.0 514309.0 0
108911.0 515200.0 0
111941.0 512530.0 0
113610.0 514835.0 0
117359.0 515185.0 0
122773.0 516149.0 0
129112.0 514775.0 0
133755.0 511558.0 0
133674.0 516104.0 0
137579.0 514218.0 0
142863.0 513108.0 0
148401.0 513903.0 0
152593.0 516089.0 0
156936.0 513969.0 0
161484.0 511972.0 0
160893.0 516504.0 0
169014.0 511659.0 0
165686.0 514620.0 0
171657.0 514628.0 0
175959.0 511142.0 0
180599.0 514465.0 0
185554.0 515486.0 0
187650.0 511405.0 0
190967.0 514592.0 0
196218.0 514470.0 0
205590.0 513422.0 0
209665.0 513841.0 0
212627.0 512177.0 0
216749.0 511990.0 0
219129.0 515403.0 0
220270.0 511242.0 0
223077.0 513519.0 0
227397.0 511170.0 0
231360.0 514784.0 0
236152.0 511889.0 0
242028.0 511646.0 0
246392.0 513143.0 0
249518.0 510940.0 0
253606.0 511657.0 0
257854.0 510962.0 0
262123.0 512345.0 0
266744.0 513026.0 0
271487.0 514048.0 0
276269.0 513370.0 0
280258.0 512739.0 0
284358.0 511731.0 0
290806.0 513702.0 0
295537.0 513785.0 0
299268.0 512774.0 0
302803.0 513731.0 0
306704.0 514182.0 0
311072.0 513087.0 0
318096.0 514647.0 0
320909.0 512464.0 0
324955.0 513018.0 0
328329.0 515087.0 0
332070.0 512685.0 0
336818.0 514033.0 0
341426.0 515130.0 0
346370.0 513941.0 0
351526.0 512956.0 0
350512.0 516127.0 0
355155.0 512540.0 0
358870.0 514148.0 0
363094.0 515689.0 0
366439.0 513549.0 0
370511.0 515408.0 0
373424.0 511535.0 0
376930.0 514652.0 0
381709.0 514609.0 0
385458.0 516264.0 0
390037.0 515111.0 0
393753.0 513594.0 0
398222.0 515538.0 0
402754.0 512802.0 0
406162.0 516779.0 0
407533.0 513039.0 0
410895.0 516049.0 0
413967.0 513538.0 0
414993.0 517256.0 0
418078.0 514308.0 0
423220.0 515766.0 0
430818.0 512572.0 0
428102.0 516278.0 0
435665.0 513381.0 0
432839.0 517014.0 0
440421.0 514206.0 0
444807.0 515056.0 0
448745.0 515327.0 0
451688.0 517295.0 0
455678.0 514997.0 0
460846.0 514164.0 0
459465.0 517540.0 0
467390.0 513393.0 0
464774.0 516402.0 0
470859.0 516288.0 0
475154.0 513452.0 0
479025.0 515536.0 0
475931.0 517701.0 0
482686.0 514837.0 0
484867.0 517865.0 0
492785.0 516197.0 0
497394.0 517783.0 0
3326.97 521578.0 0
10825.8 517105.0 0
8910.93 521658.0 0
13087.2 520129.0 0
18727.7 519926.0 0
22879.5 523173.0 0
28906.3 519079.0 0
34319.2 519634.0 0
39503.2 519106.0 0
45683.2 518730.0 0
50799.4 519949.0 0
51551.2 522904.0 0
54616.1 521594.0 0
58936.0 519498.0 0
62034.7 522213.0 0
69819.0 520671.0 0
74484.8 518565.0 0
83019.6 518189.0 0
78925.5 521721.0 0
87931.9 519355.0 0
90649.1 522052.0 0
92689.1 519680.0 0
96512.1 521719.0 0
100362.0 519007.0 0
104454.0 516914.0 0
108273.0 520068.0 0
113148.0 518895.0 0
118054.0 519764.0 0
126988.0 519474.0 0
131022.0 519184.0 0
134947.0 519694.0 0
140142.0 519119.0 0
145269.0 517262.0 0
148885.0 518407.0 0
152176.0 520513.0 0
156391.0 518503.0 0
160111.0 520713.0 0
164511.0 519784.0 0
168530.0 518197.0 0
172391.0 519721.0 0
176128.0 516653.0 0
176094.0 520856.0 0
180375.0 519792.0 0
185000.0 520078.0 0
188741.0 518684.0 0
193477.0 519618.0 0
197497.0 518489.0 0
201019.0 516082.0 0
204980.0 518946.0 0
208660.0 516972.0 0
214011.0 517665.0 0
218861.0 519059.0 0
222363.0 518012.0 0
226782.0 516503.0 0
239227.0 515880.0 0
235157.0 517376.0 0
238847.0 520567.0 0
244120.0 517681.0 0
247925.0 520118.0 0
250641.0 516414.0 0
256579.0 515645.0 0
259788.0 520023.0 0
255078.0 520427.0 0
260487.0 515965.0 0
264452.0 517360.0 0
268326.0 516115.0 0
269516.0 520384.0 0
274818.0 517989.0 0
279241.0 516821.0 0
282480.0 515452.0 0
282795.0 519286.0 0
286609.0 516393.0 0
291446.0 518934.0 0
296156.0 518131.0 0
299842.0 516403.0 0
304027.0 517794.0 0
309488.0 519268.0 0
314570.0 516227.0 0
314939.0 520985.0 0
318696.0 518154.0 0
323458.0 517187.0 0
328081.0 519351.0 0
333064.0 518181.0 0
338869.0 519641.0 0
344556.0 519400.0 0
354858.0 516948.0 0
350438.0 520466.0 0
360126.0 519095.0 0
364106.0 521245.0 0
366751.0 518169.0 0
370663.0 519456.0 0
374536.0 518180.0 0
378932.0 518002.0 0
383018.0 519457.0 0
388250.0 518848.0 0
393973.0 518675.0 0
398936.0 519960.0 0
401782.0 517651.0 0
404320.0 521516.0 0
409355.0 520631.0 0
412883.0 519571.0 0
416412.0 521184.0 0
419192.0 518245.0 0
420734.0 522134.0 0
422331.0 519398.0 0
426066.0 521234.0 0
430661.0 519846.0 0
434461.0 521212.0 0
437663.0 518003.0 0
442417.0 518791.0 0
447457.0 519219.0 0
451356.0 521036.0 0
448118.0 523518.0 0
455092.0 519075.0 0
455339.0 523105.0 0
458644.0 521210.0 0
462650.0 520883.0 0
467804.0 520526.0 0
472880.0 521289.0 0
477652.0 522293.0 0
481125.0 519008.0 0
481612.0 523054.0 0
488765.0 519219.0 0
484812.0 521418.0 0
493935.0 521241.0 0
498276.0 521248.0 0
497895.0 524363.0 0
3690.34 527332.0 0
9623.3 526667.0 0
13873.2 524063.0 0
18876.5 525712.0 0
23803.1 527324.0 0
26754.7 523402.0 0
28721.9 527225.0 0
31415.8 523228.0 0
33590.6 527646.0 0
36726.9 523557.0 0
42288.9 523682.0 0
48312.1 524107.0 0
53491.6 526481.0 0
58538.6 524548.0 0
62430.3 526703.0 0
65646.4 523608.0 0
70183.1 525762.0 0
74120.4 523350.0 0
73780.4 527416.0 0
76738.0 525920.0 0
81259.9 527269.0 0
84164.3 522726.0 0
88325.0 524150.0 0
85838.7 526769.0 0
92929.2 524841.0 0
97622.5 526574.0 0
100339.0 523283.0 0
102908.0 526827.0 0
104108.0 521805.0 0
107435.0 524855.0 0
111023.0 522745.0 0
111580.0 526579.0 0
114861.0 523198.0 0
118640.0 523835.0 0
122564.0 521870.0 0
127558.0 524255.0 0
132149.0 522406.0 0
132382.0 526282.0 0
136157.0 523616.0 0
140945.0 525002.0 0
145506.0 521600.0 0
145486.0 526420.0 0
149428.0 524350.0 0
152704.0 523597.0 0
156162.0 523228.0 0
160684.0 524819.0 0
164638.0 524115.0 0
168661.0 522707.0 0
173668.0 523689.0 0
177833.0 524213.0 0
182957.0 524831.0 0
188820.0 523366.0 0
193354.0 524353.0 0
196115.0 522891.0 0
200324.0 521962.0 0
205112.0 523678.0 0
209200.0 521564.0 0
213912.0 524639.0 0
217512.0 521868.0 0
220985.0 522073.0 0
225261.0 521515.0 0
223077.0 524687.0 0
229826.0 520036.0 0
234018.0 522249.0 0
237439.0 526191.0 0
242332.0 522389.0 0
246111.0 523275.0 0
249160.0 525498.0 0
250918.0 522426.0 0
254620.0 524906.0 0
259213.0 525202.0 0
264243.0 523037.0 0
273853.0 522165.0 0
278678.0 522335.0 0
283630.0 525495.0 0
286843.0 521502.0 0
291241.0 524794.0 0
295255.0 522028.0 0
300389.0 521588.0 0
305582.0 523684.0 0
310523.0 525609.0 0
315459.0 525531.0 0
319765.0 522921.0 0
322874.0 526415.0 0
324987.0 522354.0 0
330829.0 523756.0 0
335298.0 522584.0 0
338760.0 525029.0 0
342416.0 523311.0 0
346943.0 524766.0 0
352325.0 526341.0 0
355985.0 522432.0 0
360388.0 523582.0 0
364229.0 525539.0 0
368387.0 522902.0 0
373199.0 522560.0 0
371591.0 526038.0 0
375573.0 526617.0 0
378110.0 522183.0 0
380178.0 526984.0 0
382312.0 523529.0 0
384086.0 526415.0 0
386277.0 523004.0 0
391278.0 523187.0 0
396558.0 523858.0 0
400406.0 522972.0 0
399480.0 525658.0 0
402861.0 526271.0 0
408351.0 525840.0 0
412989.0 523581.0 0
418173.0 526384.0 0
423177.0 525012.0 0
430978.0 523673.0 0
427418.0 526503.0 0
435206.0 524736.0 0
439147.0 523028.0 0
437647.0 527601.0 0
444193.0 522711.0 0
447282.0 526987.0 0
442727.0 527255.0 0
451698.0 524951.0 0
456126.0 527680.0 0
459970.0 524749.0 0
465202.0 525338.0 0
470187.0 524413.0 0
474587.0 525903.0 0
479593.0 526915.0 0
484242.0 525677.0 0
488925.0 523976.0 0
486888.0 528215.0 0
493897.0 525683.0 0
490379.0 528190.0 0
497512.0 528578.0 0
3223.93 533234.0 0
8382.89 531036.0 0
14580.1 529504.0 0
19673.7 529724.0 0
22439.9 531212.0 0
26524.7 531067.0 0
31127.6 531717.0 0
35362.6 531867.0 0
39090.3 528700.0 0
44605.7 527999.0 0
42639.6 531661.0 0
46194.9 531894.0 0
49429.3 529371.0 0
53792.7 531711.0 0
57980.9 529437.0 0
66304.0 528371.0 0
62309.7 531054.0 0
66493.5 532185.0 0
70791.4 530877.0 0
76468.5 530858.0 0
81531.6 532260.0 0
85748.9 530788.0 0
89554.9 528175.0 0
93636.2 529169.0 0
97683.4 531434.0 0
102742.0 531439.0 0
107114.0 529460.0 0
116268.0 527348.0 0
118245.0 531665.0 0
121779.0 527143.0 0
122530.0 531585.0 0
127042.0 529759.0 0
132192.0 530452.0 0
136768.0 528661.0 0
142557.0 531131.0 0
148846.0 529637.0 0
153088.0 526925.0 0
153838.0 531184.0 0
157455.0 528019.0 0
162526.0 529154.0 0
167094.0 527188.0 0
170917.0 526166.0 0
170476.0 530274.0 0
175013.0 528188.0 0
179294.0 527606.0 0
183442.0 530094.0 0
186964.0 527922.0 0
191544.0 528479.0 0
197126.0 527355.0 0
202296.0 526999.0 0
205068.0 529152.0 0
208574.0 527136.0 0
219523.0 526180.0 0
215861.0 530227.0 0
220845.0 530062.0 0
223443.0 528011.0 0
227877.0 525969.0 0
226109.0 530546.0 0
232774.0 526862.0 0
230264.0 530640.0 0
235002.0 530601.0 0
239712.0 530528.0 0
242315.0 526500.0 0
243929.0 530647.0 0
246847.0 527822.0 0
251556.0 527906.0 0
255799.0 528824.0 0
259960.0 529993.0 0
264097.0 528133.0 0
268721.0 526126.0 0
273864.0 526187.0 0
278648.0 528057.0 0
287721.0 528748.0 0
296930.0 526355.0 0
301825.0 526799.0 0
306234.0 528450.0 0
309923.0 530460.0 0
314138.0 529956.0 0
319277.0 529203.0 0
324458.0 530449.0 0
326790.0 526538.0 0
334803.0 527322.0 0
330175.0 530349.0 0
338986.0 529961.0 0
343064.0 527897.0 0
348309.0 530593.0 0
353561.0 531074.0 0
356797.0 526844.0 0
358202.0 530892.0 0
360439.0 527400.0 0
363691.0 530977.0 0
368113.0 528086.0 0
372446.0 530412.0 0
377732.0 531547.0 0
383837.0 531325.0 0
388444.0 527568.0 0
393592.0 527599.0 0
391400.0 530138.0 0
393652.0 532114.0 0
398593.0 529786.0 0
405523.0 530436.0 0
410738.0 530947.0 0
413369.0 527688.0 0
415716.0 531165.0 0
419773.0 531001.0 0
423422.0 528894.0 0
428007.0 531104.0 0
432042.0 532624.0 0
432492.0 528224.0 0
436337.0 532017.0 0
441161.0 531998.0 0
446390.0 531289.0 0
450852.0 528780.0 0
450818.0 532886.0 0
454524.0 531516.0 0
458440.0 532797.0 0
460981.0 529035.0 0
465644.0 529830.0 0
468196.0 532569.0 0
470344.0 528801.0 0
471959.0 533344.0 0
475155.0 530445.0 0
479505.0 531574.0 0
483658.0 530124.0 0
493599.0 529856.0 0
488599.0 533142.0 0
498031.0 532547.0 0
2017.42 537544.0 0
5913.21 538055.0 0
8013.99 534854.0 0
12290.5 534059.0 0
10448.5 538298.0 0
15181.6 537986.0 0
18551.7 533958.0 0
23692.1 534355.0 0
21685.3 536440.0 0
28485.0 535820.0 0
33761.8 535655.0 0
39114.5 534699.0 0
44640.2 534987.0 0
49419.6 534430.0 0
53446.6 535823.0 0
58313.0 534812.0 0
63724.3 535533.0 0
68747.6 535526.0 0
73335.6 534990.0 0
78858.9 537082.0 0
84747.9 535421.0 0
90625.6 533099.0 0
92181.1 537120.0 0
95012.4 535341.0 0
100288.0 536491.0 0
106671.0 535111.0 0
112327.0 531810.0 0
115814.0 536236.0 0
120677.0 535999.0 0
124967.0 534431.0 0
129834.0 534513.0 0
135840.0 534662.0 0
146820.0 533261.0 0
150420.0 534624.0 0
154735.0 535217.0 0
158596.0 532846.0 0
163662.0 535894.0 0
166469.0 531447.0 0
169218.0 534875.0 0
173944.0 533604.0 0
178955.0 531913.0 0
183168.0 534593.0 0
187800.0 532557.0 0
193711.0 532404.0 0
197972.0 532689.0 0
202497.0 531548.0 0
201247.0 535449.0 0
207016.0 532029.0 0
211101.0 531260.0 0
214918.0 535389.0 0
219664.0 534020.0 0
223787.0 533249.0 0
227685.0 534589.0 0
232425.0 534703.0 0
237229.0 534908.0 0
242291.0 534872.0 0
248918.0 531262.0 0
247835.0 536081.0 0
253365.0 533390.0 0
258332.0 533815.0 0
263346.0 532430.0 0
267915.0 531420.0 0
273839.0 531800.0 0
278696.0 532429.0 0
277054.0 536084.0 0
283113.0 531203.0 0
280733.0 535214.0 0
288013.0 533864.0 0
293116.0 530831.0 0
298547.0 530835.0 0
296723.0 534488.0 0
302713.0 530883.0 0
300957.0 534871.0 0
306586.0 533738.0 0
312151.0 534934.0 0
316986.0 533582.0 0
321529.0 534150.0 0
326737.0 535053.0 0
332405.0 536248.0 0
335296.0 532068.0 0
338498.0 535733.0 0
343010.0 533030.0 0
347197.0 535644.0 0
351586.0 534997.0 0
355790.0 534577.0 0
360432.0 535298.0 0
368326.0 532131.0 0
371162.0 534732.0 0
375451.0 536307.0 0
381030.0 536744.0 0
389261.0 532438.0 0
386771.0 536132.0 0
391628.0 536067.0 0
397015.0 536081.0 0
402415.0 534471.0 0
407789.0 535156.0 0
413587.0 536126.0 0
418647.0 534809.0 0
423595.0 533772.0 0
429668.0 534913.0 0
426957.0 537412.0 0
433559.0 536461.0 0
438839.0 536508.0 0
444124.0 536035.0 0
449054.0 536421.0 0
454550.0 536172.0 0
463539.0 533725.0 0
459744.0 537425.0 0
468495.0 536160.0 0
472150.0 536726.0 0
476214.0 534749.0 0
482742.0 535364.0 0
479125.0 538123.0 0
486863.0 538570.0 0
492525.0 537958.0 0
494476.0 533836.0 0
2723.83 541631.0 0
7871.62 542552.0 0
12802.8 542000.0 0
19863.3 538897.0 0
17270.6 542155.0 0
24092.8 538399.0 0
22776.9 542726.0 0
28183.5 541290.0 0
31808.1 538706.0 0
33694.3 541927.0 0
36637.3 538909.0 0
42592.3 538513.0 0
44930.1 541752.0 0
50970.7 538273.0 0
47154.0 538442.0 0
49828.9 542516.0 0
55235.9 540102.0 0
60997.2 539750.0 0
66210.6 539758.0 0
71479.4 538890.0 0
74744.5 541171.0 0
84276.3 540650.0 0
88648.8 537874.0 0
94944.2 539837.0 0
99615.9 542124.0 0
104331.0 540313.0 0
111453.0 536924.0 0
108869.0 540140.0 0
113777.0 541036.0 0
118386.0 539956.0 0
122238.0 539999.0 0
126430.0 538779.0 0
131176.0 539059.0 0
136162.0 542051.0 0
141556.0 537615.0 0
146402.0 536416.0 0
145990.0 541172.0 0
150250.0 539314.0 0
153360.0 541238.0 0
153828.0 538376.0 0
158078.0 538334.0 0
167765.0 540176.0 0
172350.0 538228.0 0
178021.0 537958.0 0
182618.0 538022.0 0
186444.0 538111.0 0
191458.0 536420.0 0
190044.0 540722.0 0
197062.0 538578.0 0
205496.0 536569.0 0
208741.0 540127.0 0
210281.0 535522.0 0
213723.0 540385.0 0
218123.0 538393.0 0
222047.0 537840.0 0
225744.0 538409.0 0
230465.0 539753.0 0
236224.0 539909.0 0
243520.0 540608.0 0
252194.0 538261.0 0
256569.0 538110.0 0
261194.0 536856.0 0
270471.0 536128.0 0
265773.0 536179.0 0
268462.0 540337.0 0
273940.0 540153.0 0
284160.0 536792.0 0
280265.0 539513.0 0
287844.0 538556.0 0
292667.0 537236.0 0
298052.0 539093.0 0
304098.0 537577.0 0
308293.0 539037.0 0
313099.0 540037.0 0
318310.0 538761.0 0
323950.0 539227.0 0
328542.0 539593.0 0
339026.0 540555.0 0
343203.0 538168.0 0
348474.0 540725.0 0
354928.0 539703.0 0
361426.0 540850.0 0
366162.0 536511.0 0
371322.0 539370.0 0
376106.0 541085.0 0
385011.0 539945.0 0
389615.0 540376.0 0
394851.0 541330.0 0
400258.0 540872.0 0
404587.0 538833.0 0
409413.0 540289.0 0
413868.0 541154.0 0
421813.0 538990.0 0
417806.0 541996.0 0
426064.0 541395.0 0
430677.0 540787.0 0
436052.0 540905.0 0
442004.0 540871.0 0
446750.0 540397.0 0
451595.0 540353.0 0
456586.0 541275.0 0
461632.0 542357.0 0
464602.0 538577.0 0
466628.0 542268.0 0
470468.0 540067.0 0
474972.0 538984.0 0
473589.0 542910.0 0
478256.0 542745.0 0
482828.0 540791.0 0
486983.0 543076.0 0
490087.0 540981.0 0
497563.0 537471.0 0
497928.0 541613.0 0
3868.82 546522.0 0
1207.76 549287.0 0
10619.1 545973.0 0
14980.8 546287.0 0
19512.1 545708.0 0
23352.8 547834.0 0
26343.3 545315.0 0
30740.5 546292.0 0
40013.4 542664.0 0
36118.4 546503.0 0
45526.5 546022.0 0
50368.5 547601.0 0
53927.1 545007.0 0
58702.0 544419.0 0
63880.1 544067.0 0
70055.4 543442.0 0
74928.5 545605.0 0
79269.3 543167.0 0
83507.2 545895.0 0
89997.7 543312.0 0
95483.7 544480.0 0
99416.0 547146.0 0
104420.0 545366.0 0
109911.0 545054.0 0
115734.0 546238.0 0
120482.0 543941.0 0
124623.0 542745.0 0
125657.0 547092.0 0
128742.0 543002.0 0
131657.0 546599.0 0
141899.0 542802.0 0
140338.0 546967.0 0
145275.0 546166.0 0
150436.0 544491.0 0
156772.0 543864.0 0
162393.0 541948.0 0
166125.0 545802.0 0
174431.0 542151.0 0
170565.0 544220.0 0
178505.0 544564.0 0
182483.0 541585.0 0
186840.0 543432.0 0
193528.0 543496.0 0
202829.0 541597.0 0
249171.0 541444.0 0
263036.0 541974.0 0
284908.0 542413.0 0
290249.0 541771.0 0
294371.0 542162.0 0
303079.0 542897.0 0
308931.0 544096.0 0
313867.0 544921.0 0
318216.0 543827.0 0
322522.0 543876.0 0
327773.0 543868.0 0
333548.0 542559.0 0
338639.0 544713.0 0
343198.0 543480.0 0
352253.0 545047.0 0
357625.0 545439.0 0
363760.0 545205.0 0
367010.0 542265.0 0
372188.0 545564.0 0
378009.0 546836.0 0
381115.0 542611.0 0
386276.0 544193.0 0
391395.0 545379.0 0
397752.0 543835.0 0
400657.0 545677.0 0
405097.0 543777.0 0
409967.0 545185.0 0
414611.0 545525.0 0
419390.0 546441.0 0
422978.0 543913.0 0
427711.0 546017.0 0
433563.0 545673.0 0
439205.0 545319.0 0
445366.0 545925.0 0
449229.0 543281.0 0
453217.0 545731.0 0
458434.0 545616.0 0
464660.0 546906.0 0
469958.0 545463.0 0
474685.0 547033.0 0
479015.0 547283.0 0
483585.0 546135.0 0
494022.0 542426.0 0
490517.0 544381.0 0
493458.0 546988.0 0
497781.0 545722.0 0
3703.17 552170.0 0
8069.05 549278.0 0
12629.4 550776.0 0
18450.9 550978.0 0
23683.3 552676.0 0
27719.0 550474.0 0
32651.7 551224.0 0
40907.3 547799.0 0
37705.3 551476.0 0
42548.4 551889.0 0
46902.8 550769.0 0
56256.9 548995.0 0
61624.5 548859.0 0
66956.2 548140.0 0
71465.0 548037.0 0
70261.1 552473.0 0
74877.0 550075.0 0
78908.3 548116.0 0
82400.2 551004.0 0
87879.4 549759.0 0
93108.3 547956.0 0
96452.3 551214.0 0
103357.0 550757.0 0
107687.0 549132.0 0
111949.0 549912.0 0
117166.0 550782.0 0
120843.0 548672.0 0
129187.0 550119.0 0
133037.0 550778.0 0
135824.0 547900.0 0
153965.0 548095.0 0
161155.0 547443.0 0
325317.0 547942.0 0
330678.0 548314.0 0
335979.0 547996.0 0
341062.0 547846.0 0
347423.0 546758.0 0
354428.0 549384.0 0
361703.0 548718.0 0
366893.0 546754.0 0
368788.0 549893.0 0
375241.0 549795.0 0
378982.0 551796.0 0
382833.0 547739.0 0
387660.0 549045.0 0
392332.0 550494.0 0
396330.0 547492.0 0
397504.0 552316.0 0
402134.0 550354.0 0
406970.0 548700.0 0
411720.0 549496.0 0
416393.0 550149.0 0
423220.0 549720.0 0
427649.0 551109.0 0
431747.0 550464.0 0
436722.0 550377.0 0
441509.0 549763.0 0
444761.0 552453.0 0
449808.0 550930.0 0
455559.0 550748.0 0
460156.0 549520.0 0
464555.0 552644.0 0
470774.0 551160.0 0
476925.0 551571.0 0
481471.0 550338.0 0
488594.0 547619.0 0
486009.0 552254.0 0
492255.0 552097.0 0
497540.0 550213.0 0
1349.59 555587.0 0
4658.7 557070.0 0
8737.0 554244.0 0
8248.67 558517.0 0
14397.6 556303.0 0
20821.5 557109.0 0
29086.9 555582.0 0
34702.9 555951.0 0
40195.1 556081.0 0
45479.2 554686.0 0
52057.7 553120.0 0
58871.3 553365.0 0
64916.3 553051.0 0
78233.7 552897.0 0
92227.0 553353.0 0
88683.4 554654.0 0
138345.0 552319.0 0
384124.0 552680.0 0
408606.0 553831.0 0
419763.0 553822.0 0
424805.0 554613.0 0
430047.0 555232.0 0
435528.0 555620.0 0
440512.0 554264.0 0
447573.0 556286.0 0
453515.0 554826.0 0
459104.0 554469.0 0
462987.0 557627.0 0
468577.0 556996.0 0
474176.0 556177.0 0
481053.0 554579.0 0
484614.0 557135.0 0
489168.0 556509.0 0
494457.0 556670.0 0
497910.0 554648.0 0
POINT_DATA 5000
SCALARS Radius float 1
LOOKUP_TABLE default
5415.48 5120.0 6182.6 3163.97 6810.52 5073.35 4834.9 3863.18 2356.98 4998.37 5492.18 5258.36 5061.3 3951.75 3642.12 5812.43 5906.14 7513.1 5254.28 4436.4 5733.48 5580.89 5645.7 5553.16 6110.27 5840.26 5670.04 6044.04 5085.53 5351.6 5867.73 5013.56 4499.64 5542.27 5122.66 5484.19 3557.27 4688.68 4402.52 4182.53 4672.91 3588.44 5176.86 4366.19 3672.51 2938.66 4008.92 5561.06 6716.79 3850.77 5325.36 5484.83 4715.55 5538.89 4730.36 6059.59 5701.86 4375.68 4238.81 5054.98 6030.06 5170.02 4927.31 5185.34 4517.56 4432.58 5903.42 3761.32 4118.05 5065.13 4940.78 3615.22 5305.17 4380.59 5546.39 6759.9 7021.47 5926.61 2720.68 4955.55 4468.59 3563.63 5885.03 5200.76 5325.02 4862.64 5205.43 6684.56 3955.56 5292.64 2635.86 4385.06 6166.5 5936.02 4231.61 3379.84 7613.27 4133.88 5945.65 5418.62 5416.38 6051.14 5836.15 4345.55 2837.58 3653.41 5246.2 5017.13 4827.23 3673.74 6116.18 3968.64 7447.37 4688.67 7184.19 4290.3 3867.67 3942.53 4861.08 4827.82 3607.45 3589.27 4951.03 4094.62 4665.12 6483.19 6230.49 5493.32 4601.27 4195.44 5740.68 3261.21 4277.89 6704.06 5600.93 3871.88 3856.01 4390.66 5279.39 4911.47 5803.39 4924.6 4733.32 2924.37 2899.43 5399.73 4003.05 4805.87 5759.91 4333.2 3260.67 3936.02 4927.02 4174.52 5109.54 7054.71 3641.64 5489.43 5747.75 5539.32 4796.33 6496.85 5541.59 4124.71 5728.85 6337.56 5863.59 4381.97 3255.82 6257.19 5242.73 2812.98 4065.69 5603.15 5390.22 4712.33 5227.21 3997.1 3038.33 3383.4 4780.03 5980.74 3856.1 3829.13 6458.82 5527.54 5054.25 7325.81 5360.19 4874.39 4839.34 5083.08 2980.99 3998.5 5525.39 4024.3 5555.28 4737.14 4686.65 4695.45 4660.72 6038.78 5123.52 4295.38 4392.68 5495.39 4044.71 4487.31 5816.2 3091.3 5693.81 5789.98 6138.47 5573.7 4727.62 4055.8 4794.96 6186.19 4840.01 6834.49 7933.0 5938.34 5173.87 6394.38 5169.36 5834.74 5556.96 3888.21 5697.78 3921.18 4667.36 5529.52 3554.9 3996.0 4002.16 4138.16 2540.31 6029.66 6302.8 5697.4 5206.78 6425.26 5280.17 5028.96 5143.58 4484.76 5611.2 4220.65 4455.12 5380.13 5118.27 5932.23 5788.23 6052.7 5891.05 6902.81 7199.21 5252.48 4015.92 5708.81 4778.34 4684.5 5120.49 5409.61 4005.44 4270.95 5555.88 6732.43 6362.12 3866.16 5152.36 4511.82 5826.64 6820.42 4894.16 5711.87 4896.52 4941.22 5791.61 3798.62 5581.75 3666.57 4254.17 5615.42 4091.31 4523.7 5255.32 6124.89 5337.48 5542.21 5043.05 5924.89 3486.22 6894.71 4414.54 5262.61 6038.2 5713.22 3183.98 4524.28 5017.78 3794.63 3778.1 4727.24 4816.2 6959.81 4829.35 6321.41 3372.79 5282.64 4479.66 6392.01 3369.13 6644.76 6372.62 7565.34 5637.59 5481.78 4937.14 5551.36 5201.36 5094.81 4306.53 5972.06 5861.71 4312.67 4359.04 5015.69 6175.81 6677.09 5813.4 4089.76 5201.67 4751.02 5184.56 3192.41 4715.72 4987.87 5367.2 5308.1 3043.85 6730.19 4937.02 6037.08 3103.0 6084.86 3307.12 4467.94 4933.21 4850.81 6038.14 6135.57 5024.9 5998.38 4270.24 4947.52 4989.15 4164.13 4520.1 4642.34 4305.57 5874.89 3791.79 5526.55 4754.05 4951.47 6084.93 3315.57 4669.66 4808.52 5607.24 5461.13 4907.89 5655.21 5629.19 6756.95 4049.23 5601.05 3586.91 3115.91 4948.92 5478.92 5810.84 5094.44 5375.47 4723.12 4809.42 5659.17 4717.05 4562.29 5287.2 5423.8 3417.33 5080.66 4926.42 5153.74 4165.81 4293.03 4424.7 4389.21 4925.44 5246.61 5215.15 4764.96 5046.33 5053.92 4726.76 3599.45 5839.13 5090.24 5923.5 5091.39 2240.39 6324.23 4929.8 4382.74 4516.43 4749.8 3748.24 4230.54 4655.49 4566.18 4964.09 5856.11 4234.94 4109.88 5013.13 4980.85 5714.58 5110.45 5248.77 4083.97 4528.09 3556.85 3895.51 4128.98 6291.51 5882.89 6246.22 4307.28 4100.38 5804.71 5020.12 6352.26 3735.44 4073.93 4645.41 5096.78 4727.24 4651.28 4384.42 4493.48 4362.19 5082.6 3693.63 6163.38 3459.9 4093.08 4997.27 5543.27 3327.49 3960.8 4923.9 3329.99 4973.78 3947.47 5208.32 4607.02 3296.27 6673.96 5174.89 4188.32 5370.52 5538.93 4739.42 5727.3 3847.38 4242.52 4745.45 4907.06 3057.03 4786.6 4433.59 5163.9 5740.84 4973.83 4612.68 3320.52 6355.42 4151.94 5690.56 3937.74 5478.47 6061.47 6142.37 4449.22 5806.08 5628.24 4853.39 5365.89 5992.26 4511.54 5070.39 4613.31 5091.68 4713.25 6243.0 5441.96 4288.3 5774.81 3697.96 5344.77 4899.11 4723.48 4278.07 5356.51 3818.59 4863.72 5495.68 6043.3 5530.87 3912.37 4310.18 5927.43 5244.78 5492.26 5762.84 5119.37 3982.23 5243.29 4336.42 3130.65 5004.67 5409.33 5196.0 4178.15 4204.84 6119.09 7531.29 5069.25 5935.03 5048.89 3161.47 3435.9 3991.03 6826.57 4652.29 4495.87 5027.98 5281.28 5097.87 2631.9 4087.15 4143.08 5489.34 5952.75 6445.94 4281.49 5537.72 4129.43 4320.28 5293.9 4685.34 4220.88 6519.71 6640.13 5351.39 4583.31 5210.03 3402.32 4306.11 7589.94 4466.03 5419.37 5985.29 4898.94 4247.23 4733.04 4755.47 6390.78 4485.99 7435.25 4788.87 3746.31 5543.46 5346.27 5498.32 7267.18 4758.21 5002.48 5708.14 4262.82 5542.14 6342.25 3843.58 6142.94 6327.9 6082.81 5449.18 3092.35 3629.96 4714.54 3320.11 6022.17 4503.89 5903.66 4528.49 5275.32 4268.65 4694.83 5788.66 4354.08 3903.75 4520.62 5475.8 5475.7 5314.69 6050.81 6022.72 6475.1 5527.33 2691.29 4969.21 6256.02 6255.18 4277.88 7500.97 3920.42 6623.85 6332.36 4218.06 4931.53 6691.39 4329.05 3191.99 5110.37 5367.52 4048.37 5030.91 4659.59 4322.15 5507.24 5101.59 6851.54 5935.47 5313.66 2651.49 5512.23 5349.31 4649.22 5509.42 5394.55 5936.36 5229.48 4016.18 5127.16 4249.46 4244.99 4643.31 6917.52 5402.21 2845.98 4668.71 7228.46 5102.36 8332.24 7134.64 4602.25 4931.38 5664.98 3485.26 3240.09 4548.16 5025.39 4377.07 3813.22 3848.93 5570.3 6020.48 5234.29 5200.05 4645.58 4711.62 4114.24 5670.2 2976.22 5094.52 4256.43 2682.24 5928.32 5415.19 3950.63 5526.75 5435.74 4275.57 5560.26 5327.45 5965.81 2330.66 6185.89 3702.37 4177.19 3691.0 3990.25 4880.14 5320.92 3948.23 5228.18 5787.31 5978.82 4342.9 6122.55 5978.9 4270.53 5480.13 4736.58 4792.73 5264.06 4556.36 3369.23 4515.71 3688.8 5893.5 3817.13 3695.36 4547.19 3963.86 5076.35 4091.8 5273.35 5181.4 4662.56 5166.79 5417.15 3405.98 4946.74 5996.33 4612.62 6631.19 3619.07 4467.04 2983.99 6385.23 4750.17 3997.96 3460.94 5660.85 3758.07 4373.45 4752.51 4989.09 3587.05 4982.31 6362.14 5269.18 6719.88 5065.11 6155.31 2739.94 4790.08 6308.71 4194.5 5082.47 4501.51 5379.87 3708.04 5513.6 4901.41 5138.31 4551.24 5358.59 6387.01 6202.55 7111.16 5023.15 3844.9 4871.44 4564.34 6375.99 6259.23 4853.02 4998.21 3457.48 3931.07 3688.16 7440.72 4681.72 3949.6 4945.39 5661.62 4867.08 5626.61 2614.4 5817.25 6363.92 4439.35 6205.93 6184.4 3828.81 6229.37 5289.52 5314.85 4406.1 5034.59 4553.56 4223.33 4942.77 5911.67 5191.63 4187.56 4840.84 3629.62 5344.25 5344.0 4593.7 4043.57 4138.42 5987.17 6013.14 5925.6 3979.82 4602.86 4581.13 2765.2 3856.59 4621.75 4219.07 3610.4 6338.89 5584.06 6480.17 3838.56 6445.22 6248.81 5872.05 4962.77 5088.44 4256.67 6079.11 6430.39 5376.71 5703.6 6326.18 6648.68 5407.78 5061.98 4923.24 6632.99 5830.72 5309.98 6718.19 4307.48 3848.54 4305.43 5450.44 5080.18 3927.99 5069.84 5266.5 5329.64 4051.44 4997.27 4716.19 3323.28 5135.69 4301.06 3456.98 6045.46 4290.14 4763.45 4150.99 3771.48 4478.15 5681.38 5011.31 4292.06 4481.53 5006.58 5077.33 5586.81 4746.52 3948.17 5572.95 5413.79 6723.16 5372.61 5402.24 3686.21 5013.42 5651.07 6101.92 5323.3 4635.6 4427.28 3082.32 3658.37 4765.02 4448.13 5070.29 6157.04 4807.28 4266.03 5075.55 4713.74 4220.03 4084.49 6179.96 4537.6 4419.61 7177.44 6260.79 4082.57 4563.46 4236.14 4407.87 5282.91 5941.4 6510.17 4263.33 5868.82 4454.63 4066.38 4050.9 6695.82 6049.55 5514.76 6405.76 5709.62 4877.67 5835.78 4020.32 3815.26 3498.2 4245.72 5445.87 4216.92 4571.7 4704.72 4177.94 3929.19 4107.03 4271.69 3970.25 5198.77 5643.58 4850.01 5215.05 5147.67 5577.04 4986.77 6318.18 3824.16 5330.45 5045.38 3689.45 3868.18 5350.88 5130.91 4948.5 5383.07 4527.02 4247.15 4519.22 4531.14 4602.85 5210.48 7552.94 3627.55 6239.84 4409.63 5865.39 5521.25 5370.85 3178.54 5949.46 3661.9 3776.94 5629.39 2684.03 4768.61 5246.47 2261.36 5280.69 4522.21 6923.84 5449.46 5703.07 6166.29 6113.54 5147.36 4662.43 3963.76 5733.62 4043.66 5169.9 5282.51 4425.84 5331.02 3797.33 7256.35 4871.96 4800.69 4523.88 5742.65 4241.89 3279.1 4978.31 5912.61 5054.74 4099.77 5941.72 4981.9 6562.18 5794.24 4127.74 5908.1 4541.21 4344.58 6048.7 5896.46 4742.68 5634.83 5499.11 4502.5 5922.5 5347.48 3633.87 2775.04 3821.72 4810.12 6898.19 4138.46 6035.6 5137.34 5198.29 3975.31 5423.0 5344.43 5125.78 6034.41 5452.83 5178.99 4959.34 4790.78 4591.87 6422.84 6552.22 5379.09 7644.38 6004.68 4051.34 6799.4 5278.36 5107.23 5136.08 5558.68 4010.57 6191.29 4187.31 5506.19 7422.36 6719.94 4950.67 5227.59 5453.6 4709.05 5294.77 5528.53 6553.94 5255.18 5726.66 3004.16 5460.65 4460.92 5945.89 4042.28 5592.32 4105.55 4863.23 4402.67 5381.16 4948.98 4403.98 4414.48 4560.84 5227.52 4537.32 5163.02 4656.78 3066.13 4302.5 4156.38 2476.04 5105.16 6006.16 6009.88 4164.68 5050.65 5316.75 5495.84 6268.1 3784.5 4862.21 6261.42 5113.21 4374.35 4011.77 4527.08 6396.74 7099.43 5315.4 5526.14 6449.45 4044.45 5262.19 3627.82 4244.9 6070.58 4285.32 5490.43 4373.47 5022.28 6169.11 5197.52 5615.35 5172.53 4027.09 4135.62 5801.99 4860.33 4502.18 5534.94 3685.13 3312.06 3418.99 5180.76 3361.26 4993.35 6218.95 5222.16 5533.72 5533.42 3678.08 4802.32 4599.38 5518.57 5463.48 3240.51 5730.33 4527.99 5161.01 4298.15 4376.7 5190.61 4628.4 5832.37 6051.83 5409.63 4263.16 3077.84 4630.82 4813.08 6799.88 4540.86 3062.43 5426.78 4767.78 5235.17 4340.76 6566.1 4435.36 3555.86 6065.22 5565.13 6386.78 4996.99 4470.61 6193.35 6086.96 4729.43 5233.78 4092.24 5991.09 4562.74 4678.38 5126.91 3942.07 5448.61 7443.72 4827.33 5022.8 3937.08 7055.53 6133.92 5013.67 3719.84 4178.4 5669.65 5253.55 5820.48 7034.11 5782.6 6125.34 2586.12 5975.63 5965.78 4274.61 5252.34 2965.79 4287.63 4410.55 3921.08 5776.37 4190.31 4516.28 5486.68 5678.96 5100.25 6048.86 4986.51 6894.26 5339.38 4285.66 4896.11 4318.48 6132.95 5266.22 5226.97 5754.18 5132.68 4480.95 6595.03 4983.39 5366.52 4690.55 5417.8 5146.37 7132.12 4836.16 5151.11 5680.94 5545.46 4543.1 6550.44 8325.01 3764.06 4642.93 4440.81 5941.9 6024.75 3973.12 6642.76 6109.49 5860.67 5987.42 5990.52 2967.38 5652.0 5463.41 4779.5 4421.12 4929.75 5254.49 4221.28 6045.22 4456.39 4631.83 4384.88 3701.27 6887.27 4806.34 6008.49 5776.57 7144.24 5133.97 3600.43 6600.94 5371.02 5513.57 5260.34 5729.23 5206.48 5934.22 6586.45 3780.23 5826.04 5624.49 3745.84 4359.62 3471.03 5011.84 5696.88 4730.41 5690.26 6057.22 5062.71 6946.21 4289.17 5433.8 5564.02 6444.77 6314.07 5083.41 7055.42 5683.61 5805.86 4049.02 4470.4 5346.68 5296.29 5311.03 4611.53 5094.48 5255.12 3872.61 5576.92 4238.4 6408.83 3930.79 4004.35 5365.24 4763.96 5293.51 5008.63 4446.06 3450.93 4270.74 6293.89 5737.75 2761.07 3778.02 4558.15 6552.21 4350.12 5227.02 3603.51 5670.0 4232.16 5300.96 4344.51 3781.77 5581.55 3834.43 4707.06 5193.01 5491.37 3474.5 3860.83 5732.27 4523.39 5434.47 5829.22 6917.62 4497.78 5567.93 5811.18 5332.65 3764.1 6451.33 4835.83 5604.35 4159.35 5225.33 6477.91 4237.98 6439.37 6649.96 4081.97 4614.3 4896.39 3633.79 4303.19 6081.14 5480.83 5421.53 4607.85 5653.9 4220.46 4287.53 5683.26 5598.74 4906.82 5046.21 5894.61 5131.24 4788.58 6155.1 5687.83 4709.35 5196.67 6496.67 5876.71 5474.8 5226.0 4373.3 5339.78 3095.48 4750.78 4166.08 3979.26 5960.66 5188.81 6608.73 3999.48 4203.26 4004.04 3923.03 5411.85 5607.14 4156.2 6072.45 6915.83 4497.59 4470.98 3901.8 5511.88 5759.46 4512.11 5443.58 6248.6 3836.45 5687.85 4558.46 6401.43 5020.71 5997.88 2681.29 5839.71 4360.23 6234.32 4585.31 4586.19 6625.18 5323.91 5097.45 4047.87 4185.61 5742.47 4917.99 4367.78 4095.75 4298.45 5222.51 6609.84 5135.96 5658.37 6074.94 4250.88 5699.53 6348.03 3475.67 3783.54 4792.39 5278.56 5146.37 4814.12 5631.14 4243.79 6137.8 5433.65 4442.22 4887.76 5413.31 4008.15 3012.99 3091.67 6316.56 4332.87 5401.99 6420.81 5514.84 5134.39 4256.57 5784.3 3914.2 6088.68 5937.08 6070.3 5612.21 5128.57 4135.08 4929.14 6000.7 5945.08 5004.23 5139.5 6442.69 6320.71 4648.04 3527.05 5029.78 6262.72 5762.59 4861.06 3664.11 3365.82 6481.79 5320.28 4569.12 4796.58 4298.67 5873.69 6222.42 4962.09 5654.31 5470.77 4643.85 6062.05 5082.74 4735.33 4413.85 4844.57 3999.94 6171.13 4027.46 5092.37 4864.22 5941.61 4933.65 6098.1 5708.99 2435.33 6333.29 4074.48 4477.04 4558.47 5731.57 5703.74 5662.55 4747.55 3755.95 5737.92 2685.81 3056.7 5591.76 5010.04 5889.35 4394.56 4570.98 5388.78 4275.07 5825.38 5099.21 4573.72 4163.74 6969.28 5698.96 5636.4 6471.42 3319.67 5283.8 4076.59 5164.1 4428.14 6016.19 6464.15 4972.17 4479.11 6685.4 4222.77 4850.06 5268.38 7038.89 5527.23 4805.33 3863.67 5980.95 4013.38 5067.56 3352.35 4343.78 2735.53 5263.3 4909.65 6523.86 4669.06 4811.32 6400.08 4743.59 4715.58 3317.83 5208.14 5580.92 4450.7 3532.3 5151.52 5769.98 5973.33 2221.99 3583.21 4643.56 5442.32 5067.46 3580.58 4863.01 5620.74 5604.21 3979.54 5233.29 3169.67 4968.03 7493.3 4814.55 5304.13 5944.09 5833.06 5698.77 6607.87 4163.5 5374.51 6515.84 4143.78 4123.6 4538.95 7092.87 5224.12 4970.88 4850.14 5463.38 3637.61 6098.14 5945.21 5750.71 3493.7 4472.17 4938.74 4200.03 4831.47 3474.39 5516.95 6939.12 5563.79 4406.4 6853.85 3493.47 4020.4 2395.5 4596.75 3374.08 3497.9 5782.48 4188.87 5564.23 4031.78 5950.04 3735.24 4231.83 6817.57 3614.96 3886.68 6853.04 4745.43 5831.96 5464.68 4539.07 4510.8 4475.83 5480.3 7509.24 5896.26 4587.67 5951.81 6101.13 3924.14 5599.7 4296.69 3665.95 6238.32 6804.79 6372.13 5369.5 5404.01 4124.49 5535.91 3230.13 5714.25 5325.96 5412.24 6332.01 5016.02 7044.29 4234.18 7085.01 4049.16 3936.95 6193.08 6069.3 5887.01 5116.6 5168.35 3747.03 2783.85 4286.49 7693.4 4437.07 6184.88 3449.37 5829.32 4396.25 3763.05 5551.95 5092.24 4347.74 5369.08 4518.04 5291.9 4766.06 4009.62 5356.79 4011.37 4874.18 2081.58 2511.46 4312.56 2775.69 4778.82 5204.04 4612.06 3361.92 5467.84 3306.14 5029.47 5490.58 4863.79 4750.58 4702.06 5395.14 2477.07 5117.47 3464.83 4923.41 5724.64 2990.77 4925.63 5965.15 4763.66 4888.6 4666.81 6739.08 7042.12 4797.52 6343.14 4471.58 5501.93 5462.21 6313.06 5374.98 6345.13 5274.19 6470.3 4719.7 5599.49 4097.57 5313.22 3436.15 5328.22 4151.76 3905.51 4216.17 6484.17 4721.02 3546.71 4254.37 4938.72 5768.57 5956.65 4498.25 5151.21 6574.95 5398.64 4693.52 4568.41 3624.7 3420.08 4912.04 4320.42 4691.91 4255.34 5344.83 5064.79 7046.11 4863.97 3427.63 4146.81 5756.75 6342.48 4840.44 5093.82 5212.43 5454.12 6918.35 4834.3 6348.54 4066.57 5642.35 5156.76 6357.47 6101.57 4891.38 4793.65 5955.86 4532.89 2949.12 6176.67 4533.37 4848.46 5742.09 2779.99 5887.38 4581.37 4920.21 6942.34 5851.61 3658.05 5478.11 6153.94 6836.82 3862.77 3858.17 3477.1 4631.99 4740.98 3185.39 5388.39 4356.49 3728.18 4326.48 5335.47 4526.81 3994.07 5048.19 5491.9 4219.94 5907.46 6405.0 4264.91 3918.87 4659.16 5399.29 3101.75 5549.49 5423.42 6605.86 6505.78 5657.36 4785.25 6124.08 6519.43 3619.79 5876.64 6710.88 5053.95 3967.48 6667.68 6213.04 4497.31 3163.78 4305.16 4721.32 3293.56 5092.28 5882.65 5078.86 4739.14 4780.2 5163.55 4918.77 6326.39 6817.32 6471.55 4319.79 5960.56 6643.85 4020.95 5774.97 6049.79 5862.86 5226.56 4390.41 6113.95 4050.08 4901.07 5452.42 5017.5 5005.85 4893.49 5711.11 4575.94 5325.44 5102.75 5021.88 4597.29 5931.77 4200.09 5097.95 5108.06 4914.45 4222.4 3573.73 4000.43 4698.87 3984.88 4661.03 5318.53 5160.59 5262.35 4732.09 7165.9 4281.98 5783.48 4701.5 4449.98 4771.65 5589.37 5439.49 6639.64 5216.26 3687.65 4887.52 5478.95 3851.85 6318.23 4058.87 4206.98 5174.75 5932.07 4984.46 5948.71 3856.53 5460.89 6040.74 5260.85 2884.65 5393.65 5807.46 4961.99 4648.21 4393.16 3311.29 4549.69 5526.31 5030.15 3644.78 4078.93 5934.82 5128.77 7122.87 5633.61 4243.26 6799.23 4153.84 4888.27 6740.71 5789.55 6487.56 4854.11 4633.05 4901.2 2275.45 5971.22 4909.31 6522.59 5012.5 5711.62 5435.19 5461.55 4270.15 7093.13 3298.2 6306.21 5926.11 5253.37 5211.38 5235.11 3830.46 6515.8 6031.67 6413.11 5529.42 5274.14 5257.12 4636.5 4819.73 4434.19 4903.82 5100.1 3382.7 4940.42 3954.91 5085.71 4371.99 3703.1 5923.4 4946.42 4623.61 4082.47 5203.08 2965.01 6235.57 6263.44 4863.27 3492.19 5122.63 4584.5 4118.84 6766.43 2315.64 5916.16 4703.08 4890.5 6934.37 3731.84 4488.85 4579.69 3981.07 3554.48 5186.3 6496.52 3991.42 5966.61 4388.63 4514.79 4940.28 4834.87 2216.82 4509.89 3672.21 5760.22 6752.75 5938.17 5269.38 4795.43 2928.82 5607.3 4811.76 5313.12 5498.42 5351.56 3344.57 6448.66 5220.76 6945.98 5138.2 6412.67 7001.83 4504.35 4593.7 5012.97 4349.13 4036.91 4891.67 5110.11 6379.14 3634.5 6631.28 6571.31 4392.65 6413.15 6103.11 5048.55 6459.51 4024.31 5844.72 3992.97 4147.31 5989.05 4054.22 7228.94 4441.22 5853.89 6551.93 4595.12 3110.13 4386.8 6484.43 6423.81 4625.67 6192.77 3485.54 4458.64 4312.15 4583.52 4501.78 6418.11 6015.02 4922.49 3572.94 5797.36 5001.58 4820.17 5119.86 4729.42 4592.15 5084.17 4901.44 4998.22 5533.19 5417.21 6602.43 4383.56 3562.79 4798.17 4990.79 6865.76 4953.1 2895.63 5424.46 6449.64 5266.01 5767.9 4857.84 2978.76 2040.66 7016.27 5384.76 6622.11 6138.12 4689.15 4428.78 6790.73 4965.89 5746.28 5187.7 5659.95 5409.66 6090.91 3561.29 3295.83 4186.6 4537.14 4152.85 5551.9 4219.78 4963.34 5644.82 6413.02 4440.57 5412.31 6736.03 5548.29 5374.07 3623.87 7480.41 5163.77 3423.15 6027.62 5765.42 5010.2 6098.95 6123.03 4997.83 3718.69 5148.08 6192.0 5885.28 6579.31 3004.34 3022.6 3804.5 5375.1 4172.6 4638.18 4196.37 5211.6 5806.31 3556.79 5456.71 4453.97 3503.41 7317.04 3971.08 6204.65 4482.9 6550.4 3766.69 5513.8 6818.91 3503.65 4521.75 4027.63 3429.57 5569.2 5350.88 4642.74 5420.67 6735.97 5305.59 5416.45 4330.58 5754.6 4955.16 3288.01 4904.51 2202.77 5751.15 5950.88 4149.55 5474.01 6201.86 7554.58 3380.69 4140.4 3639.44 5446.4 4725.01 5966.75 5510.9 3657.69 4883.63 3492.83 6280.13 5244.22 5585.14 7039.98 4438.76 6456.58 5089.26 4159.81 3886.72 5244.98 5415.45 3776.8 5096.43 6156.21 6104.26 3568.28 5583.61 5166.79 5425.98 4516.53 5996.66 5818.95 4093.99 3940.49 6464.8 5079.22 4908.49 4452.54 4684.44 4962.21 4749.59 5089.62 5884.9 3685.65 3468.42 3685.13 4590.55 5243.43 4673.35 4741.26 3876.21 4655.16 5920.32 3701.16 4916.22 5251.4 6022.7 3867.19 4188.3 4345.67 4453.64 5081.78 5019.93 3885.86 4459.28 5235.29 4260.92 6116.33 4479.94 5499.39 6250.23 4407.9 4718.54 4435.51 8659.64 3087.09 4588.7 4055.54 5683.95 3766.55 5469.13 6107.89 4976.12 4233.8 4817.16 5530.49 5453.98 5660.55 5578.94 5653.03 4157.29 7610.49 4777.03 4286.17 4246.61 3684.56 6028.09 5323.55 5452.36 6486.37 5561.74 6083.28 5975.23 6100.73 4745.79 4198.94 5470.04 4908.75 6556.26 5684.25 5438.92 4244.49 4050.03 5036.98 4775.04 4120.07 5188.53 3840.21 4882.66 6746.66 4954.76 5410.33 3908.56 4844.83 5244.78 3636.15 5652.87 6114.89 5135.63 6384.7 4355.83 6870.97 3896.27 5351.86 6056.87 5230.02 5307.35 4342.18 6016.08 5166.89 5491.63 5725.37 3868.62 5138.33 4505.28 3743.76 3425.69 4971.29 5510.45 3684.15 5832.29 4730.14 2606.51 3994.39 6006.89 4618.73 2955.36 3814.65 3668.93 3965.3 5792.98 4960.64 6592.93 4983.3 4385.81 6350.71 4034.05 6436.74 2460.79 4456.11 4653.83 6063.64 6479.39 4986.71 4122.92 4405.42 4997.91 3604.14 3598.08 4599.81 5381.54 4406.05 5810.77 4680.94 4858.44 5089.1 5799.69 5828.35 5571.72 5876.72 5869.4 5689.26 5297.19 4992.42 7051.9 4940.84 4255.85 5097.69 5511.6 6261.75 4517.73 3757.34 5177.64 6415.61 4338.08 4541.8 5453.3 4255.31 5191.08 3838.47 2588.37 4062.5 5887.15 4199.45 5415.85 7234.66 4207.54 6599.66 4886.12 6419.12 4301.61 4936.96 5206.33 3184.64 4446.84 5065.26 4304.41 3746.36 4892.44 6789.23 3989.7 5107.0 5069.89 6212.15 6813.72 5327.75 4609.02 4946.23 4896.65 4852.58 4532.7 4504.86 4788.08 4473.29 6163.54 5212.37 4211.82 5965.58 6003.78 2628.22 3352.34 5058.51 4901.29 4607.18 3899.7 4124.76 7200.89 4813.33 4952.52 4802.98 4833.55 3646.95 4081.34 7224.99 6334.53 5377.37 5869.67 4311.48 5483.7 4899.73 5018.69 3152.86 5952.38 6394.19 5973.89 5807.52 5963.36 5518.11 5087.14 5712.35 5169.48 5701.52 4731.21 4743.9 3124.7 6064.71 6102.98 3719.11 6060.17 5153.18 6711.21 4763.4 4236.86 5393.76 4941.02 3864.92 4983.1 6119.99 4128.1 7123.04 4009.24 5372.82 4402.17 5690.96 7778.01 5127.82 5798.38 3862.91 4125.9 5096.24 5366.11 6171.71 3908.98 7382.3 4668.88 3628.89 2995.67 4022.56 5027.43 5522.21 3772.3 5698.23 4855.01 7300.58 2711.19 4028.32 4714.83 5236.43 3809.69 4099.92 3208.96 4771.13 5285.07 4680.14 3858.06 5895.77 4732.09 4608.41 4765.72 4833.46 3988.3 5857.79 2908.7 4039.91 5750.07 4642.66 6136.49 5276.7 6543.13 5149.72 4752.14 4950.97 5037.06 5660.16 5842.56 4094.73 6134.99 6200.54 5424.88 5148.58 4652.01 3583.49 3548.39 5421.64 3673.28 4858.51 4366.74 3375.28 4603.5 5354.66 5625.65 4647.67 4214.44 4481.76 5378.23 5375.12 4787.97 5452.78 4356.36 4981.43 4741.28 5473.72 2603.64 4215.2 2856.55 4553.68 2205.51 5361.87 3894.64 3703.49 6502.97 4268.19 4374.74 4783.07 3758.22 4757.2 6200.63 6816.66 3217.67 3844.54 5079.64 5034.69 4509.46 996.652 4680.69 6500.49 6127.39 4972.18 5329.76 2403.72 5078.59 5134.33 5419.57 4147.49 5162.67 5760.98 4705.68 5469.35 5384.86 4749.96 4658.24 4906.11 4387.39 4564.1 5457.66 5509.51 4848.14 5366.22 6193.73 5254.24 3742.11 4192.21 3597.43 5144.56 4158.91 6776.22 3360.86 5321.17 3034.16 4869.25 4467.13 5545.21 3877.8 4333.87 6273.6 5902.67 5136.87 5024.32 5454.11 5806.61 3779.45 5784.37 6010.59 3682.35 3756.96 5182.13 5906.57 4446.58 5401.4 5053.15 5910.86 5124.17 5805.1 6239.68 7320.78 5039.12 3419.87 4064.58 4234.88 4824.81 6589.82 6328.42 7307.21 5522.75 5867.64 3608.06 5474.15 6208.9 7519.2 4923.57 3340.09 6633.61 4884.59 5217.95 4478.6 6355.68 4083.79 4184.23 4511.7 4144.57 4351.38 4304.63 4187.94 5980.59 5933.7 5550.75 4809.67 5021.77 4757.74 4687.64 4378.3 5469.47 5036.58 4419.71 4244.21 5512.16 5411.02 3197.63 4287.16 4989.56 5175.29 3645.12 4863.96 5199.44 5471.74 5713.03 4928.27 5849.65 5134.67 5775.31 4847.14 5052.84 4165.21 4215.0 5297.16 3950.27 3566.79 5116.66 5003.78 3629.44 5374.67 3299.24 6246.56 4061.6 5826.78 4508.18 6214.73 5175.89 5064.67 6618.21 5232.85 4062.56 3205.68 3717.47 4051.18 5969.37 4928.35 4337.32 1937.5 5849.53 5241.75 4731.53 3763.9 4651.99 3538.53 4420.11 4788.7 5863.0 5640.12 5084.5 4918.64 6638.25 4759.99 4368.12 2646.13 4365.58 5214.4 3629.49 4636.53 5399.43 5766.05 5117.64 3835.81 3916.42 4019.34 5429.3 4869.48 5510.96 3623.19 4745.16 6653.07 4697.91 5825.55 5071.98 5719.79 3199.4 4316.5 4371.08 7261.51 4968.14 4914.03 5086.29 5527.13 5311.55 5139.18 4278.57 5551.43 5049.99 4201.03 5001.87 3667.93 5684.05 5638.7 4708.17 2741.2 4644.88 5790.42 5293.13 3142.09 5591.77 7350.26 5167.53 6110.48 7541.76 4775.49 4932.29 4681.29 5499.59 3220.29 5749.6 3845.9 4141.21 4834.44 4384.28 5782.43 5769.14 4456.26 5944.3 5113.6 3563.14 4810.98 3381.82 3619.72 5135.5 5347.9 4646.51 4438.58 6059.93 4565.93 4504.52 5602.53 6061.63 5484.36 4829.35 4867.7 3953.55 4075.28 4063.9 5263.27 4277.24 4469.54 6834.41 4314.56 6300.92 7248.4 4356.25 3796.15 5161.1 5776.96 5329.59 4888.12 4209.49 6119.63 5464.25 3498.16 5486.48 5439.9 4752.9 4409.27 4588.99 4947.24 4617.55 3875.05 3540.11 4321.21 3456.47 5950.45 4344.34 5088.57 5580.34 3852.6 5009.83 5131.15 5210.38 4110.59 5717.8 3332.49 4706.5 5210.75 4811.22 3683.86 4474.83 4918.76 6555.44 5293.75 4208.41 5114.07 5730.61 7124.45 6358.93 5836.26 4383.68 6666.67 2617.39 6063.44 5144.44 4583.94 4826.52 5120.92 5046.31 4685.4 6240.42 5146.0 5721.14 4288.45 4577.73 4987.28 6206.98 6562.03 4815.47 4410.82 6443.99 3889.98 5193.58 5490.64 5695.44 4507.46 3422.21 5603.68 4944.51 5532.72 4584.81 3220.8 5179.17 5579.39 5270.51 5148.1 5490.75 5224.64 5214.63 5949.73 3495.68 4312.48 5783.94 6370.33 5081.08 6318.25 6864.06 4493.79 4932.56 4279.44 5813.79 4899.19 5058.34 4028.22 3918.94 3768.46 5487.63 3852.82 5003.3 4507.36 6245.52 5800.81 4990.23 3954.77 3784.94 6016.87 3125.13 4439.71 6715.73 4174.44 5667.51 4708.31 4564.41 3873.92 4027.33 4198.9 5431.29 5091.22 5026.76 6282.38 5023.41 5640.72 4546.44 5851.63 7107.63 5727.79 5073.02 5212.92 4831.93 2279.05 6545.43 5788.97 6760.92 4989.2 4023.93 5868.89 8137.11 5291.05 3928.53 6650.77 6045.67 4216.95 5466.33 5742.74 3946.28 5280.12 3821.94 5984.81 4209.31 7013.17 3805.67 5718.28 4247.69 5301.47 4640.06 6242.79 6506.86 5391.48 4803.57 4923.43 5966.42 4568.64 5666.95 4642.2 4127.53 4489.99 4548.45 4945.0 4658.11 4212.15 5658.14 4551.26 6570.35 4385.49 4242.63 4263.18 3269.54 7142.95 5064.23 4559.74 6015.22 4454.74 2904.46 5512.44 6449.06 4924.07 4629.02 5914.5 3565.32 6006.16 3419.07 5407.96 4608.62 4071.75 5344.44 4626.72 5131.77 5549.71 4967.51 5173.82 7212.97 5698.53 3769.2 5034.34 4450.49 5036.14 3468.45 5635.32 4526.34 4316.45 5610.95 5042.75 4598.92 5241.22 6647.08 4979.52 3422.29 4501.05 4407.79 4537.03 6548.29 3990.96 5352.24 7362.42 4202.77 5836.14 5473.05 6008.81 5537.34 5192.49 3487.31 5726.42 6643.4 4674.9 5575.11 5461.72 6599.28 7145.73 4168.52 4556.19 5403.97 5106.46 6793.1 5166.05 4068.31 3671.06 4506.66 5077.29 5515.73 5209.55 4850.5 6331.74 5951.86 5763.05 5129.68 4252.18 4833.67 5357.39 4659.88 5325.91 3791.41 4092.07 5657.55 4184.21 4224.3 4700.07 5188.82 3472.91 4464.73 5615.84 4928.85 4717.73 6440.38 5556.0 5484.32 4711.04 5007.21 6226.14 7144.05 4173.54 5599.29 5606.51 4801.8 7216.98 6038.68 4444.97 5721.05 5046.12 5271.02 4807.4 4264.54 4350.15 6329.53 4590.01 6541.45 5367.73 4263.78 4601.74 4514.39 6101.86 5078.31 4227.41 5993.0 4807.35 6761.81 6047.14 3903.91 5467.63 4728.55 4929.6 4554.68 3919.62 5750.35 4368.28 5984.8 3127.83 5236.24 5260.52 4585.04 5678.58 6102.49 3185.09 3469.18 2945.34 5114.23 3372.95 4489.29 5495.0 7407.91 6061.85 5846.95 5716.42 5268.15 5819.0 6347.72 3200.6 3460.93 5124.86 4927.73 4602.57 4571.74 3763.85 4096.86 5710.33 3622.48 5001.51 6432.8 3186.07 5115.42 4369.86 4082.4 5482.76 3745.02 5728.58 3720.7 4887.73 4211.36 5378.24 3604.31 3856.73 5817.74 5887.71 5661.6 4827.61 5409.08 5285.75 5385.03 5481.64 4169.15 5673.75 5360.67 5968.54 6263.3 5592.54 3247.97 5124.34 4114.2 4326.06 5034.46 5757.29 5793.12 5016.46 5469.17 5061.75 4373.2 3769.24 6022.78 5884.99 4087.32 6647.85 7025.09 3392.26 4433.12 2549.95 4361.24 5138.93 6224.85 6406.8 5368.66 4795.08 6562.92 5501.73 4697.24 3612.44 7035.54 4983.43 5233.76 5426.4 5866.91 6405.69 2820.07 5679.74 5076.84 5853.12 5247.01 4213.05 4208.37 5157.38 6203.03 5235.87 5702.4 5273.37 5069.9 952.938 5043.14 5473.89 6089.45 4732.37 4985.3 4966.07 5072.5 3904.07 3274.85 5713.36 5748.9 4619.2 5545.59 4506.18 5166.41 5740.65 6542.5 7104.73 3000.29 5067.56 2596.96 3834.47 6349.67 5701.75 3272.75 2781.96 5262.47 5261.19 3512.94 7043.44 3516.27 4139.3 3831.52 4750.49 4263.65 4643.9 6106.43 5228.75 5644.81 6545.99 5334.36 2918.64 5630.9 4512.07 4140.92 4756.8 4692.32 4896.43 5463.06 4176.32 3986.41 4639.8 6069.78 4241.68 5532.75 6949.65 4095.83 4975.85 5695.25 5676.61 4301.93 5796.26 5701.63 4603.04 4870.94 4620.95 5293.37 5368.93 5271.88 4488.39 6121.56 7168.2 5740.78 4796.12 5997.91 5385.86 6791.86 4209.0 4930.72 5485.84 6424.77 6297.99 5918.95 4538.89 5689.56 6556.86 3242.31 4898.29 6099.28 5372.25 3234.26 4830.13 4778.37 3494.16 5370.9 5134.17 4074.16 4904.35 6172.27 5390.33 4904.37 5078.73 4651.64 4358.81 5278.54 5729.0 5729.92 5275.57 4179.87 6224.13 4761.84 3661.67 5517.65 4009.68 4622.73 2569.12 4161.32 5161.74 7336.37 5099.9 6945.69 5118.86 7086.69 5648.78 6875.73 5226.42 4436.48 6081.3 5615.35 5117.52 3967.76 6311.89 4683.28 4217.36 6549.8 4825.73 4851.18 4165.36 5288.33 4841.7 6296.54 5797.21 5685.74 6740.35 3673.6 4678.7 5810.17 3306.84 5265.21 4657.24 4400.14 4749.18 5553.94 5494.28 4067.96 4824.12 3663.0 4099.26 5206.47 2970.9 4834.39 4383.47 6162.3 3926.11 5971.21 5493.89 4057.17 5464.83 3622.8 4184.47 4770.51 5414.58 7066.96 4431.23 4467.0 4991.35 3104.96 4994.65 4587.7 5601.55 4258.98 4462.87 5196.92 5759.79 3787.08 4013.86 4598.54 4177.47 4816.51 5218.42 4218.16 4933.49 5345.73 4770.63 6139.64 4841.23 3990.94 4357.11 5477.8 5486.89 4462.35 4549.51 5196.08 3587.93 4517.29 6257.79 4495.75 4849.5 5323.95 6229.83 6171.01 4468.26 5578.18 5106.33 5198.94 5933.54 5559.79 5879.24 2980.31 3148.79 6348.93 6824.53 4332.64 5232.16 4742.82 4422.23 4820.68 6031.22 3989.26 3618.64 5703.84 4335.79 5453.69 3530.82 5797.32 5432.04 3921.27 3702.45 3161.1 5265.63 5684.88 4431.06 6523.78 5730.2 5620.88 4941.52 4529.77 5900.0 4325.13 4262.74 3783.79 5317.19 4248.14 5279.19 4016.6 5192.92 7050.08 4786.66 5891.25 5370.1 5129.4 5114.51 4746.15 3303.49 3720.38 4655.37 5585.25 5256.75 5023.61 6351.89 5932.28 2960.5 4975.32 4298.7 6170.9 4183.4 3902.48 4304.64 4733.79 5833.78 4905.53 4823.06 5758.98 5288.64 6213.24 6734.39 5942.45 4150.76 4228.53 5005.72 5368.52 6142.88 4871.77 5811.26 5062.77 5388.73 6019.35 6075.99 4884.93 6028.63 4600.71 5262.79 3450.07 5927.2 4550.92 5146.1 6215.87 5191.26 5866.42 3669.32 4704.92 5610.53 3742.31 4762.1 4954.81 4316.0 6304.49 4546.96 4580.06 5424.55 4608.34 5755.15 5134.72 4835.97 3814.16 5695.79 4191.01 6419.64 4589.06 5340.05 6506.63 4920.88 4140.04 5995.4 5577.41 5917.34 6511.37 5740.98 4346.07 3999.5 6710.14 4012.92 5034.05 4426.02 4711.15 3825.48 4474.39 4658.59 5188.22 3810.68 4196.62 2804.54 5005.6 2809.19 5589.53 4104.04 7208.19 5025.42 5234.2 4965.24 6379.38 5327.05 5438.55 5353.23 5977.66 4523.81 5209.5 5065.74 5791.25 4873.23 4028.35 5464.05 5410.6 5453.2 5264.83 3901.53 5136.51 6815.51 5313.86 4457.05 5189.91 5777.26 4171.02 7012.36 5028.06 4886.99 4002.99 5587.3 5159.67 5764.52 3770.22 4390.64 5150.84 4645.86 4045.67 5087.97 6005.95 4308.49 4930.17 4581.1 6241.77 4745.44 4085.96 5762.82 7360.12 6223.98 5821.49 5617.29 3035.06 5580.44 5998.13 5095.52 4878.93 6275.25 6892.33 4758.84 4731.37 4505.3 3976.0 4672.86 6530.78 5059.37 5560.23 3043.77 5237.55 4139.39 6264.03 3909.94 6030.39 3799.01 7392.65 5254.49 3757.23 5319.1 4181.93 6828.8 5987.88 3579.59 6123.46 6161.94 4065.28 5155.28 5057.59 5111.26 4461.14 5285.6 5205.38 4574.54 4949.55 3132.34 4764.83 3957.38 4494.15 5035.71 6485.77 4419.79 4710.88 6060.06 5544.27 3869.39 3484.81 3987.69 5960.5 5308.33 6502.99 4287.25 4666.12 4921.1 4392.75 4271.07 6219.34 6023.07 4420.6 5674.63 5287.25 5939.22 4215.05 3626.86 4668.8 3495.3 6371.96 5890.25 4271.93 5125.17 5322.11 5700.79 4216.44 5735.08 4697.49 7133.44 4726.2 4750.81 3953.26 4282.11 5467.51 4625.53 5459.92 2347.41 4096.47 6478.35 4542.16 5453.77 5114.67 4916.7 2638.82 5030.33 5593.79 5104.39 5847.91 4612.13 4934.66 5846.6 4109.44 4903.84 4290.49 4557.1 4434.65 6688.53 5927.1 6175.27 6500.45 5876.51 6731.89 4286.61 2932.52 4733.41 4603.66 4969.68 3557.46 6636.43 5431.14 6298.8 3689.24 5178.07 5151.19 6509.54 6119.0 3792.06 5128.59 4993.49 4293.3 5310.33 6583.37 3572.73 3688.83 4864.38 3402.44 4848.98 4491.96 5184.98 4608.01 4467.51 5339.82 4519.03 5460.57 5110.27 5703.34 4612.68 6668.98 6649.52 4232.33 5462.6 4747.68 4262.19 5770.92 3093.38 4597.88 4845.91 2002.78 5631.32 6322.0 5793.14 4452.36 4491.26 4068.41 4511.34 6463.71 4742.35 5783.38 5394.79 5645.54 5264.08 5088.64 4526.87 3562.8 6589.8 4151.74 5192.82 6920.92 3729.16 3038.91 3783.36 3922.28 4067.89 6570.43 6883.86 3350.99 4979.5 4745.37 5939.29 5418.98 5575.11 5615.06 1969.87 5490.54 4841.28 4047.95 5203.54 5507.38 6889.5 5001.69 5407.69 4416.87 5300.17 5152.78 5393.43 4117.9 6896.55 5534.23 4638.09 4753.76 4685.65 6025.77 4441.91 5377.01 5330.26 6470.23 4475.38 5828.25 4725.11 5418.12 5934.05 4604.1 4714.66 5322.07 4859.01 5076.11 5524.45 5990.75 5600.21 4656.01 6589.13 4037.86 5602.62 5714.51 3543.37 4938.33 2030.03 5628.97 5353.66 4484.78 5527.27 5157.73 4541.22 5765.14 4946.08 3539.68 4696.03 4984.01 6217.33 4605.39 4698.7 6270.59 6045.26 6263.87 4907.55 5743.8 4094.63 4103.76 6605.11 4757.87 6379.33 5971.95 5130.57 5652.73 3979.46 6321.97 6412.84 2589.19 6079.55 3856.4 4696.06 5485.61 4937.36 5308.4 6581.13 4569.32 5537.61 6084.88 4397.06 4199.44 4053.12 4479.5 6261.67 4014.44 3435.13 5065.78 4431.46 4521.42 3207.84 3977.98 6043.34 4128.93 4939.56 4959.72 4712.17 3808.04 4723.71 4461.67 4405.61 6126.5 4034.88 6007.1 6345.2 4609.65 4832.21 5704.61 5009.21 5410.73 4379.91 4574.03 5290.37 5850.38 4227.66 4691.01 4594.89 4174.22 5245.95 3573.84 5821.42 6294.09 4515.02 3463.53 4571.57 3445.92 3820.19 5131.07 5236.69 4121.07 4586.82 5524.28 3133.28 6026.04 6200.05 5731.43 4052.49 5859.17 3518.14 4034.41 5061.74 5326.03 6189.67 4420.35 6142.94 4948.96 5117.83 5256.82 6581.56 4052.43 4061.87 4057.4 3980.46 4896.67 3934.11 5383.9 5158.44 4781.9 4466.22 4496.51 6815.96 5339.6 6153.71 5917.08 5483.37 5259.21 5092.93 4256.08 2803.01 5881.93 4399.52 4444.0 6771.18 4554.24 5770.07 5101.6 4984.17 5327.39 5781.62 4981.81 4138.59 5141.03 4970.55 8123.59 4819.83 4621.33 4767.54 4801.16 5121.08 2927.84 5688.77 6177.68 5368.28 5466.13 6229.64 2848.44 4220.43 4975.56 7282.36 6666.34 5084.76 4645.91 5581.01 6834.92 5749.53 5247.73 5090.48 5402.45 5034.02 3985.93 5582.28 5945.25 6071.59 5985.75 5475.83 4137.16 6189.29 5984.55 5803.3 3228.27 4721.98 5252.82 4142.1 3543.98 5056.26 5878.55 5445.91 6604.72 6002.77 3794.47 4610.55 4967.02 4614.49 5400.69 4462.5 5573.31 5004.68 4023.88 5348.11 5428.24 5108.84 3511.5 4520.14 5067.92 5488.96 3188.21 5128.03 3720.92 5087.3 4942.63 6139.74 4975.57 7066.26 4730.97 3057.3 3677.85 5214.71 4677.84 4811.11 4924.52 6126.03 4866.8 6044.69 2970.24 4197.87 5105.54 5462.1 6353.81 6032.45 3414.67 5444.36 4150.44 4026.03 5522.34 5771.98 5717.45 5899.78 5772.57 5000.74 4813.81 5268.27 4013.86 4645.93 5165.31 4585.37 5448.64 3798.09 5901.8 6417.61 4288.5 3886.56 5715.51 4511.05 3456.3 6561.94 5317.83 6738.9 4460.89 5992.06 4157.1 8052.53 3939.96 6182.19 4867.12 5910.66 7415.84 4637.3 1458.87 5734.07 4840.44 3997.68 6033.28 6286.27 5071.38 6327.54 5616.66 2943.17 4802.36 5327.71 4880.78 5257.38 5075.23 5625.02 5212.05 4829.77 3826.01 4444.92 6959.88 4125.75 3746.62 4532.67 4876.37 4769.62 5260.13 4649.5 4810.74 5181.31 3900.93 5784.38 4149.17 4329.8 5728.27 3074.49 5672.46 5202.33 3956.24 7558.99 3393.59 5043.14 5333.04 4812.59 4521.99 5394.78 6842.54 2853.68 7115.67 5675.45 5329.84 4998.37 3361.11 6038.56 2807.46 6559.82 5599.16 4179.8 3488.34 4577.98 5658.35 5886.81 4487.51 4582.12 4295.25 7394.47 5357.14 4729.45 4850.95 5919.27 4793.06 6637.38 6188.33 6111.23 6150.31 6916.18 5873.62 3868.69 4996.91 3920.44 5379.52 3768.62 5314.67 5658.05 6593.1 4066.36 4000.51 6033.93 5011.37 2827.92 5092.44 5044.68 4441.44 2649.69 6908.32 3467.11 4817.75 6153.26 5637.53 5244.95 3882.37 4439.09 4634.25 5523.81 4095.4 5188.57 6351.48 5395.12 5357.33 5783.69 3721.69 6074.39 3830.7 5350.9 3483.61 4262.52 7430.48 5640.67 5545.68 6080.69 5555.89 4970.12 4766.47 4967.93 6369.66 6044.01 6520.19 5973.57 5922.62 6241.48 4414.09 5125.45 5957.82 4188.16 3784.68 3717.22 6649.21 5507.07 4654.92 3470.69 5286.55 5522.18 4322.56 5223.1 5509.09 4850.49 3873.72 4981.55 4592.49 3625.98 5479.86 6474.5 3928.99 4702.32 4763.04 5944.52 5971.9 4413.56 5050.2 2513.38 5316.05 4908.32 3995.08 5019.84 4028.13 4457.73 6476.35 6260.58 4067.24 3053.19 6571.26 4313.38 5580.95 6598.99 3549.92 4032.06 5246.81 2468.16 5089.1 5888.95 5203.75 3463.34 5122.38 2459.88 5262.85 4210.24 5470.67 5901.71 3879.83 6565.95 5733.12 5043.34 6436.29 4246.24 6805.02 5354.48 5640.63 4900.26 6261.13 4167.55 5374.09 6271.22 3421.81 5378.75 3920.64 6186.24 5822.7 5786.06 4137.41 5466.49 5447.74 4450.51 4038.17 5007.41 6033.72 4907.48 3851.47 3692.99 4966.74 5563.47 5651.46 3162.27 1635.31 5639.4 6185.73 5516.37 6520.96 4232.44 5336.61 4612.4 3312.3 5563.09 4746.19 4848.15 3282.57 6381.58 4798.13 5648.59 4718.61 6697.45 3873.79 5717.67 5515.59 5252.37 6210.0 3224.81 5432.4 4499.54 5037.58 6457.89 4844.2 6572.17 3751.73 3374.62 4926.62 4871.1 3917.09 6009.93 5678.08 4083.1 3482.73 5872.45 5270.1 5130.56 5191.29 4957.99 4063.26 4947.64 6305.9 4542.62 5093.28 4859.95 4132.08 6009.88 4699.77 5093.41 5144.23 5464.34 6188.62 3621.63 6153.07 4414.06 5908.57 7296.47 5742.39 4821.41 4780.16 4924.53 5616.11 4499.52 3874.12 4813.24 5759.19 3113.64 4490.2 4304.75 5480.86 6139.9 4720.22 2832.83 5827.3 5250.56 6036.99 3010.1 3633.58 6294.14 3825.98 4339.97 4589.22 5087.03 4667.84 5169.09 3906.41 4691.15 4512.6 4260.38 4636.45 4932.27 5225.11 5342.9 5252.22 4962.35 5402.81 4600.81 4919.13 4124.33 5168.97 5783.88 5002.38 4720.34 5244.47 6705.93 4731.16 5510.89 6470.87 4495.33 3780.07 5282.67 4159.89 5747.9 5178.55 5146.69 6203.24 6818.23 6213.74 4959.94 2329.93 4369.87 6938.87 5412.07 5512.57 4083.24 4806.99 3771.91 5432.2 5217.62 3839.0 6178.19 5349.85 4616.81 5715.25 5212.2 4362.94 4611.21 4469.82 5108.42 4630.5 3354.94 6296.36 4404.87 4432.32 5237.27 4451.76 3775.38 7885.41 4046.22 4104.97 4575.72 4081.77 5114.61 4948.21 4987.01 6118.13 4420.3 2181.29 6332.64 4735.99 6492.44 4613.32 5145.39 3996.93 6351.95 5195.09 5345.05 4997.89 7679.2 4881.51 6131.52 2626.41 4311.92 6729.99 6664.54 6842.35 5161.73 5259.48 4777.96 5801.89 6833.5 2613.78 5417.07 3834.01 5738.37 6789.66 4433.23 4739.41 5312.2 5847.27 4706.59 5734.84 3982.31 4950.07 4582.24 3916.15 4474.96 4084.87 4790.63 5259.29 3584.05 4916.75 4818.53 5097.85 5584.64 4123.08 6189.04 6224.64 4221.03 3799.55 5638.51 6793.49 3563.33 4337.93 6060.19 3550.88 5536.0 6786.37 4333.23 3860.8 4328.76 5145.13 5561.63 5940.5 4358.06 5093.51 5647.93 6201.49 4865.11 5449.09 5502.14 4605.61 4465.56 4131.08 5386.95 3864.19 4287.93 5315.71 6158.93 4488.41 5081.65 4823.14 6679.12 5652.19 5806.74 6578.62 4813.55 5856.43 3465.03 4796.04 5229.56 6011.4 5799.86 5172.1 6052.22 6545.78 5376.41 4870.14 2932.2 5105.72 5767.65 4082.01 5003.49 4750.76 5782.25 5497.27 5617.91 4444.95 4706.31 4721.2 4202.12 5161.02 6265.48 2694.25 5003.81 4203.68 4739.56 3818.37 3352.46 4701.03 5663.36 6225.05 5434.04 5200.1 3997.52 4444.54 5779.9 4909.74 5310.33 5299.03 5036.84 3922.98 4565.36 5813.68 4025.08 4008.67 5254.93 4803.4 8013.28 6608.94 3796.73 5283.65 4644.68 2892.36 3082.16 5656.84 5416.41 4694.27 6760.64 2515.5 5177.88 5551.79 3793.83 6981.47 5367.05 4449.73 4758.76 5647.11 4088.72 3945.62 3743.85 6236.46 5342.17 6379.3 3795.63 5189.4 4576.71 4550.77 5082.66 4894.15 6157.59 4345.51 5201.3 4048.73 6223.33 5438.6 3747.96 5611.29 4521.88 6568.45 5004.22 4280.92 4696.92 5154.74 6437.99 6898.8 6632.04 6540.57 5332.11 4893.72 4072.4 5373.78 5345.65 5438.5 4621.32 5699.4 3878.8 6284.12 4698.94 3948.21 5669.15 5296.05 5263.86 4672.34 5056.32 5533.52 5410.33 5003.63 4747.24 4695.7 4944.08 4380.86 5576.16 5269.39 4305.35 3964.03 4907.03 4216.33 5832.72 2451.27 3903.9 5606.22 3943.77 5242.38 3124.49 6081.35 6262.18 5459.52 5566.5 4752.31 4276.59 5579.04 5125.53 5994.21 4884.93 5403.81 5082.25 6964.78 4374.05 5282.51 5504.65 5669.41 5732.11 5040.9 3618.53 5596.68 4770.21 4868.66 3846.55 5159.9 4987.48 5943.61 5981.54 5911.29 5020.37 4414.23 4542.25 5233.88 4849.21 4785.55 5245.4 6189.81 5015.67 6538.04 5848.41 4090.28 4246.83 7370.52 4726.5 5467.05 3724.23 5103.3 4601.54 7263.57 3832.09 5705.96 5267.65 5739.69 3509.34 5360.88 7360.62 4977.64 6004.72 4983.56 5699.51 2489.44 4489.18 5863.36 4632.75 5237.76 4994.98 4286.84 6423.96 6058.13 5894.69 6988.4 3330.85 6635.51 4060.17 6051.35 5302.53 4909.13 4287.61 5648.02 5210.22 3308.75 4604.34 4439.17 5677.42 4929.35 5051.39 6673.92 4633.59 5151.68 4884.94 4609.98 5362.15 4455.61 4738.72 5240.97 5569.85 5405.6 3929.35 5523.96 4223.53 4759.38 4535.94 6960.97 4287.15 5126.08 5604.0 3760.4 4951.02 3919.47 4602.7 3783.35 4037.16 4004.39 4248.58 5479.17 4963.88 5888.94 4727.98 4122.2 5175.88 4516.26 4790.16 3647.26 3731.58 3166.37 5369.42 4985.45 5205.53 4714.52 5499.37 4587.19 5543.05 4883.13 4836.76 4752.94 5551.09 3950.53 4501.1 5581.47 4384.91 4274.05 6550.61 4987.01 4713.56 6094.34 6779.82 5543.67 3999.81 4867.13 6210.48 6377.45 4863.27 2701.42 4502.12 5442.79 3255.93 6853.07 6327.61 5733.59 5575.8 5268.93 3695.72 6874.6 5106.9 5306.31 4733.37 4523.9 3037.72 6395.63 5207.08 6028.89 5333.16 4888.17 5755.98 5392.85 5077.2 5275.27 4277.54 5529.09 4531.46 5925.82 5448.68 4739.5 4072.95 4491.62 3865.5 4182.05 
SCALARS Velocity float 1
LOOKUP_TABLE default
1.53444 1.44914 1.51243 1.52112 1.53555 1.48872 1.52736 1.47506 1.41328 1.52227 1.50687 1.51312 1.54481 1.56478 1.51908 1.49109 1.54414 1.50828 1.53694 1.53327 1.51047 1.52288 1.53265 1.53873 1.50748 1.49285 1.48177 1.52584 1.50092 1.51443 1.51323 1.49044 1.53813 1.50723 1.52383 1.53094 1.51289 1.49937 1.52855 1.51817 1.52654 1.5188 1.53363 1.53654 1.53763 1.54045 1.50385 1.49837 1.4891 1.52254 1.52186 1.49872 1.51848 1.51254 1.5164 1.51373 1.48477 1.50388 1.48403 1.50686 1.53443 1.52753 1.5049 1.48958 1.50977 1.50832 1.51957 1.52846 1.53865 1.54096 1.53712 1.5138 1.52003 1.48522 1.5194 1.52563 1.52152 1.50809 1.48539 1.48714 1.50305 1.5031 1.49058 1.51157 1.53842 1.49677 1.50742 1.51432 1.52316 1.53458 1.52576 1.53454 1.54288 1.53281 1.51307 1.5335 1.4869 1.51692 1.52129 1.52383 1.51324 1.48604 1.49498 1.50495 1.49032 1.49643 1.52837 1.49687 1.50951 1.5054 1.50661 1.52386 1.51286 1.53666 1.54227 1.50481 1.52222 1.52806 1.4891 1.51187 1.48353 1.48512 1.48646 1.51407 1.51027 1.51696 1.51925 1.5162 1.51101 1.49257 1.48334 1.50248 1.51321 1.50972 1.49196 1.51479 1.48967 1.48024 1.47913 1.49948 1.50892 1.53715 1.53785 1.53316 1.53786 1.51667 1.49514 1.4999 1.48906 1.48617 1.48811 1.50457 1.51418 1.51337 1.51108 1.5166 1.50111 1.50689 1.48303 1.52599 1.55839 1.50055 1.47621 1.48157 1.48185 1.49413 1.50869 1.5137 1.54035 1.52446 1.5287 1.53534 1.53322 1.53379 1.52492 1.50859 1.48227 1.49116 1.48965 1.4999 1.49855 1.50668 1.51453 1.50327 1.5043 1.49444 1.49933 1.58074 1.52249 1.50324 1.47679 1.47425 1.47737 1.49603 1.49272 1.50925 1.51305 1.51127 1.47729 1.50793 1.51514 1.49736 1.49097 1.4919 1.49198 1.48492 1.47706 1.4831 1.49726 1.49879 1.49214 1.49217 1.49568 1.51515 1.54585 1.6117 1.52734 1.47473 1.48634 1.48183 1.49236 1.49212 1.48645 1.49144 1.47798 1.48584 1.51912 1.50178 1.50888 1.5096 1.49277 1.4945 1.47867 1.48354 1.48788 1.49056 1.48219 1.49049 1.49652 1.53881 1.57989 1.4795 1.42478 1.48577 1.48816 1.49234 1.48906 1.49497 1.48854 1.4766 1.46244 1.47607 1.49955 1.53266 1.49954 1.49927 1.49454 1.47318 1.49208 1.49684 1.4919 1.49419 1.50766 1.51825 1.66818 1.50166 1.50961 1.46479 1.4892 1.48307 1.49518 1.49263 1.4971 1.49363 1.48419 1.45527 1.47184 1.46584 1.46013 1.50693 1.5096 1.45708 1.51471 1.50148 1.49792 1.49567 1.49203 1.46467 1.44548 1.49952 1.49272 1.48901 1.50355 1.49862 1.50785 1.48969 1.4483 1.48653 1.47901 1.48649 1.47061 1.48191 1.48869 1.49463 1.49023 1.49763 1.49297 1.47945 1.4678 1.4607 1.4468 1.48905 1.46533 1.49119 1.49377 1.48946 1.44595 1.48773 1.49143 1.48953 1.49289 1.47351 1.48926 1.48274 1.46538 1.471 1.46789 1.47282 1.48588 1.49735 1.49982 1.48629 1.4979 1.47466 1.46322 1.46798 1.45795 1.46395 1.46611 1.48652 1.47431 1.48281 1.48319 1.48057 1.44832 1.46194 1.48845 1.48502 1.48487 1.48658 1.48959 1.48292 1.4849 1.48109 1.4737 1.47405 1.46898 1.46964 1.49078 1.48404 1.50146 1.50327 1.50399 1.48216 1.49713 1.47919 1.46872 1.4611 1.45869 1.46063 1.4522 1.46774 1.47587 1.4657 1.4733 1.47153 1.45195 1.44978 1.46047 1.45087 1.45646 1.47707 1.47125 1.47926 1.48069 1.48404 1.47912 1.48406 1.48172 1.48614 1.48288 1.48003 1.47514 1.48669 1.47754 1.49444 1.51821 1.51009 1.5079 1.521 1.48837 1.47124 1.45965 1.45934 1.44941 1.44571 1.45355 1.46008 1.44703 1.46118 1.45477 1.46123 1.45425 1.46035 1.19178 1.4434 1.44822 1.45851 1.47498 1.46246 1.47532 1.47547 1.47522 1.47681 1.4872 1.47983 1.49101 1.49096 1.5037 1.49719 1.48572 1.49595 1.51321 1.54264 1.56062 1.49864 1.52219 1.48207 1.47367 1.46445 1.45845 1.44677 1.44252 1.4392 1.43643 1.44947 1.44688 1.45042 1.45168 1.43754 1.4469 1.45294 1.43906 1.45172 1.44234 1.46953 1.47166 1.4701 1.46505 1.46769 1.47395 1.49702 1.50313 1.50967 1.524 1.51982 1.50664 1.48116 1.48495 1.55768 1.52655 1.44989 1.45344 1.44404 1.43018 1.4419 1.43356 1.4379 1.4375 1.4287 1.42426 1.43919 1.43967 1.42889 1.4438 1.44206 1.44735 1.44412 1.42836 1.42409 1.42868 1.44531 1.43649 1.46216 1.45594 1.4598 1.45843 1.46774 1.45369 1.46173 1.44528 1.40388 1.51388 1.53894 1.54014 1.4692 1.54172 1.57516 1.48986 1.42454 1.44579 1.42209 1.44437 1.45048 1.43919 1.4321 1.43775 1.42896 1.41945 1.42695 1.43668 1.43677 1.44044 1.41861 1.41884 1.41407 1.42646 1.4467 1.44884 1.46216 1.45268 1.45794 1.46466 1.37206 1.62049 1.64725 1.48761 1.55694 1.48066 1.46524 1.51727 1.61207 1.49854 1.51055 1.50757 1.46611 1.46899 1.4497 1.43914 1.43819 1.48849 1.43922 1.42132 1.44988 1.41613 1.4282 1.43481 1.43397 1.4381 1.43689 1.43259 1.19178 1.41251 1.40857 1.43139 1.4347 1.43359 1.44406 1.42155 1.45638 1.45534 1.48035 1.44701 1.43852 1.42035 1.24969 1.2597 1.56972 1.55654 1.32495 1.38998 1.32484 1.44874 1.45296 1.39457 1.47123 1.50887 1.47744 1.4144 1.39944 1.41904 1.43586 1.43791 1.42824 1.41749 1.19178 1.40115 1.37568 1.42438 1.41977 1.42043 1.40709 1.41565 1.43468 1.42444 1.43334 1.42948 1.42264 1.37416 1.431 1.56837 1.49653 1.5936 1.47863 1.40645 1.52911 1.37634 1.3253 1.45014 1.42231 1.5174 1.3117 1.40746 1.34772 1.40355 1.385 1.40558 1.41587 1.43055 1.44019 1.4224 1.44643 1.41046 1.19178 1.3655 1.35469 1.40613 1.40686 1.404 1.38879 1.40669 1.42437 1.41275 1.41459 1.42068 1.43167 1.4267 1.42778 1.43065 1.38668 1.48984 1.46594 1.45235 1.39429 1.34271 1.49461 1.3605 1.35037 1.47416 1.50513 1.38766 1.36406 1.3436 1.38735 1.48645 1.42512 1.43444 1.40919 1.29818 1.39487 1.2812 1.27872 1.39486 1.39292 1.40965 1.40888 1.42081 1.40704 1.3942 1.41859 1.4342 1.42044 1.41585 1.42546 1.43723 1.48151 1.38046 1.46958 1.47168 1.42668 1.37941 1.3465 1.33917 1.44533 1.43471 1.30962 1.36523 1.47211 1.46341 1.4386 1.53815 1.51548 1.40078 1.3662 1.38105 1.35607 1.37493 1.54404 1.37404 1.40032 1.34934 1.38887 1.33911 1.34062 1.40633 1.24936 1.23109 1.20505 1.23783 1.36275 1.35284 1.39911 1.38653 1.41493 1.42738 1.42858 1.45417 1.42524 1.47246 1.30584 1.41558 1.50768 1.34773 1.3423 1.26107 1.44568 1.31911 1.36829 1.34773 1.39839 1.34918 1.44813 1.35584 1.31983 1.35587 1.35343 1.35971 1.39539 1.4116 1.43697 1.37065 1.36647 1.24795 1.38149 1.4578 1.52968 1.32507 1.37882 1.43835 1.45114 1.46436 1.22228 1.50979 2.9552 1.34203 2.44642 1.28429 1.08652 2.66173 1.76948 1.24708 1.4517 1.41824 1.37959 1.45307 1.49892 1.48921 1.33466 1.39972 1.3134 1.35939 1.27743 1.5249 1.43971 1.38583 1.30333 1.21969 1.29818 1.21279 1.33884 1.28325 1.34177 1.31462 1.28379 1.27574 1.32337 1.39346 1.4127 1.39056 1.3694 1.27451 1.58368 1.48202 1.39488 1.187 1.63001 1.49189 1.49216 1.19184 1.39454 1.45981 1.08062 17.8889 1.02793 1.47365 1.17349 1.08334 1.20709 1.52046 1.26432 1.18784 1.17844 1.46825 1.2338 1.33988 1.40243 2.11054 2.97105 1.67897 1.20282 1.27672 1.34265 1.36914 1.37985 1.34172 1.34286 1.33912 1.31137 1.36718 1.39627 1.27976 1.18476 1.18689 1.3064 1.18049 1.21664 1.27366 1.34013 1.3978 1.35523 1.3642 1.34532 1.37357 1.47597 1.37274 1.04751 1.18602 1.73154 1.73276 1.21836 1.49262 1.62885 1.53932 1.18921 1.96596 1.97746 1.49084 1.15986 0.890695 0.634792 0.835519 1.02531 1.03699 1.0287 1.13507 0.931305 0.981251 1.18201 1.21139 1.16991 1.05688 0.800916 1.05242 1.09514 1.49728 1.6164 1.13746 1.26552 1.31491 1.34803 1.32602 1.32438 1.26738 1.43214 1.35885 1.32679 1.32961 1.25468 1.19559 1.20781 1.15324 1.14397 1.13684 1.20802 1.09313 1.19369 1.21082 1.30572 1.26535 1.33687 1.31833 1.36802 1.27072 1.36791 1.39926 1.40206 1.30332 1.17273 1.47241 1.604 1.72839 1.53385 1.335 1.60014 1.32011 1.71652 1.34237 1.46036 1.01496 1.22605 1.06133 0.976587 0.967046 0.876516 0.914811 0.961962 0.921998 0.927162 0.901684 0.849436 1.05891 0.847257 0.875821 1.0175 1.06087 0.919822 0.971507 1.02536 0.996291 0.959071 1.05933 0.915537 1.36114 0.402797 0.863751 0.90783 0.81337 1.34221 1.21431 1.26786 1.12434 1.0636 1.26846 1.14664 1.23748 1.32732 1.27658 1.4257 1.39255 1.42293 1.03993 0.999576 1.39671 1.25536 1.113 0.909624 1.24764 1.2531 1.2503 1.13669 1.16023 1.12204 1.12252 1.10845 1.0991 1.17329 1.17968 1.07338 1.26629 1.31444 1.33883 1.24512 1.1962 1.22825 1.30788 1.24254 1.24903 1.02488 1.2583 1.07305 1.46898 1.40998 1.33677 1.29214 0.92396 1.07596 1.04958 1.40484 1.18008 1.08557 1.08947 1.09837 0.978655 1.01339 0.840481 1.10222 0.976483 0.968149 1.13602 0.863188 0.816209 0.82738 0.870697 0.866812 0.871061 0.907556 0.894332 0.911493 1.00817 0.961574 0.817599 1.123 0.883758 1.0775 0.8919 0.916112 1.19289 0.737266 0.997398 0.674679 0.914224 1.18344 1.13256 1.27644 1.21664 0.967001 1.15703 1.20451 1.40697 1.26991 1.42701 0.996643 1.12055 1.01226 1.16936 1.10857 1.18518 1.14081 1.17101 1.11863 1.14102 1.14479 1.07513 1.03043 1.03185 1.21961 1.30226 1.15704 1.20609 1.19429 1.2771 1.24198 1.14839 1.11499 1.12206 1.12739 1.47106 0.989907 0.915833 1.32896 1.07856 1.08801 1.19596 1.09489 1.10338 1.06499 1.09367 1.13713 1.04891 0.753675 0.970912 0.857555 0.800412 0.696142 0.787726 1.0579 0.798824 0.780076 0.750983 0.80674 0.818182 0.84366 0.866139 0.867365 0.871849 0.864803 0.84257 0.831221 0.839653 0.842685 0.933341 0.905335 0.929088 0.935949 0.898704 0.905258 0.929625 0.78353 0.871856 0.816258 0.763941 0.7671 1.08529 1.05287 1.13045 1.05825 1.16458 1.25673 1.04824 1.11494 1.21423 1.1304 1.42344 1.01426 0.266242 1.21106 0.503026 0.883526 0.944638 1.24026 0.933261 1.13742 1.11181 1.11131 1.10037 1.23847 1.07162 1.14434 1.20924 1.05728 1.1285 1.11662 1.22495 1.1615 1.14405 0.933306 1.02759 1.13256 1.1814 1.25845 1.17706 1.09187 1.16405 1.26789 1.17468 1.12486 1.10523 1.0102 0.910466 0.85773 0.904591 0.99097 0.806346 1.08073 1.09167 1.0206 1.00407 0.854553 1.08994 0.897613 1.08154 1.04195 0.779693 0.919279 0.722293 0.807608 0.779101 0.738428 0.759438 0.752688 0.781169 0.668417 0.727714 0.840048 0.774839 0.819192 0.848567 0.783989 0.874019 0.869341 0.870609 0.859309 0.84516 0.835133 0.806119 0.84516 0.812158 0.808 0.825058 0.829896 0.819672 0.834242 0.847244 0.844212 0.889615 0.868534 0.894934 0.872643 0.892084 0.915267 0.850224 0.989356 0.922583 1.06421 0.92427 1.02978 1.28615 1.18686 1.00768 0.551734 0.555695 0.907962 1.04536 1.38993 1.23692 1.18758 1.03919 0.919995 1.32095 1.09559 1.13073 1.09235 1.10848 1.13993 1.05829 0.791745 1.19691 0.40921 1.25113 1.13722 1.07824 1.15771 1.01815 1.0572 1.0664 1.30748 1.19568 0.945636 1.02608 0.812562 1.04962 1.0387 0.999055 0.988858 1.067 1.0164 0.99968 0.974936 0.847748 0.991806 0.843364 1.09875 0.826711 0.744143 0.819429 0.876229 0.822258 0.418759 0.66646 0.363946 0.665484 0.482209 0.903202 0.498119 0.786391 0.737256 0.673764 0.76994 0.869203 0.889129 0.902045 0.740326 0.825087 0.775098 0.790322 0.801975 0.800498 0.734924 0.797462 0.769954 0.891646 0.82421 0.829195 0.834161 0.851184 0.862139 0.876486 0.891253 0.895802 0.906817 0.925499 0.90523 0.871484 0.876006 0.848421 0.871527 0.87593 0.934979 0.916637 0.840681 0.969221 1.0595 1.00988 1.09074 1.06277 0.980921 0.851574 0.838578 0.873304 1.50916 0.968378 1.2617 1.31475 0.975399 1.00606 0.945385 0.888262 1.02432 0.957737 1.12508 1.08012 1.05657 0.880567 1.05904 1.07941 1.00854 0.944433 0.891512 0.848847 1.22579 0.719064 1.14998 0.888316 1.03771 1.06414 1.15951 1.20407 1.29568 0.975975 0.972516 0.923326 0.934674 0.74273 0.760947 0.989761 1.00196 1.03769 1.00855 1.04236 1.01359 1.03629 0.979784 1.0142 1.00346 1.09649 0.965572 0.933 1.0679 1.00989 0.772133 0.699827 1.20741 0.814859 0.740648 1.31898 0.900172 1.27211 0.931804 1.33563 0.778433 1.07423 1.0848 0.835719 0.970044 0.742607 0.79413 0.811694 0.864804 0.829479 0.736008 0.714051 0.776497 0.744028 0.737854 0.76338 0.760285 0.756889 0.81207 0.789027 0.787947 0.861647 0.708521 0.845377 1.00377 0.518509 0.68527 0.830825 0.806007 0.819987 0.804586 0.84162 0.816443 0.88397 0.864041 0.911643 0.909498 0.891566 0.887486 0.875241 0.847527 0.873627 0.92815 1.0303 1.00181 0.952246 0.911969 0.847395 0.91612 0.803711 1.20241 1.05666 1.03671 0.922231 0.979554 0.862071 0.910212 1.02289 1.0548 0.977746 1.22951 1.04586 1.26753 0.964641 0.91569 0.740486 0.789369 1.00773 0.948683 1.09702 1.08566 1.10859 0.98769 0.903831 0.890188 0.844644 0.85939 0.899054 0.895671 0.973387 0.945054 0.955118 0.926882 0.88914 0.905671 0.984008 0.863753 0.959136 0.928556 0.786073 0.722498 0.895679 0.757619 0.736503 0.767438 0.943758 0.863473 0.906195 0.839725 0.821961 0.855809 0.78891 0.703056 0.800656 0.753409 0.728766 0.713703 0.74627 0.712149 0.688703 0.692485 0.696913 0.700108 0.70335 0.714423 0.717798 0.727182 0.77723 0.796868 0.80463 0.789204 0.769923 0.752668 0.787375 0.724055 0.732285 0.6534 0.715479 0.886503 0.904876 0.808331 0.798713 0.856684 0.837837 0.887169 0.865675 0.859377 0.89843 0.921455 0.918918 0.890238 0.853659 0.865479 0.809214 0.83273 0.819697 0.928374 0.895694 0.875975 0.957457 0.883851 1.01742 0.946616 0.913695 0.904697 0.813463 0.777569 0.933618 0.881615 1.07724 1.15245 0.985453 0.886192 0.968745 0.914354 0.767392 0.846365 0.897887 0.852779 0.917164 1.1813 1.0169 1.03192 1.03928 0.96925 0.990851 0.877578 0.926337 0.991176 1.10177 0.965367 1.00954 0.979934 1.02617 1.07588 0.996399 0.846009 0.852037 0.904098 0.912301 0.912834 0.8663 0.833354 0.926755 0.875269 0.938273 0.913318 0.899459 0.9022 0.90732 0.857673 0.919476 0.917814 0.921034 0.813637 0.797417 0.802422 0.882653 0.927808 0.625308 0.704656 0.940888 1.09159 0.771388 0.991061 0.864572 0.736421 0.77131 0.764277 0.784545 0.607177 0.83144 0.67964 0.626025 0.628862 0.767607 0.808895 0.700379 0.822405 0.679106 0.68275 0.687602 0.685387 0.693266 0.692096 0.6949 0.696522 0.703886 0.762529 0.73547 0.760181 0.781801 0.778944 0.775501 0.752116 0.715709 0.699111 0.722546 0.71601 0.737135 0.777986 0.84017 0.782969 0.814164 0.866424 0.838259 0.849534 0.881434 0.85537 0.925537 0.959658 0.794743 0.717469 0.786311 0.796518 0.770626 0.770289 0.763731 0.810919 0.916503 0.862346 0.924038 1.17336 1.05115 0.969155 0.865461 0.845551 0.849784 0.852974 0.889378 0.947977 0.852425 0.73911 0.834652 0.809445 0.818095 0.855254 0.930891 0.835224 0.919095 1.04505 1.07653 0.903542 0.757661 0.803511 0.85248 1.00858 0.822434 0.955538 0.962117 0.940979 0.959248 0.989889 0.933429 0.909836 0.936422 0.987196 1.02254 0.875861 0.884891 0.912345 0.901945 0.900898 0.857046 0.873605 0.891198 0.895584 0.848596 0.855673 0.732758 0.760663 0.782716 0.742988 0.746691 0.64911 0.757115 0.696699 0.848967 0.65561 1.00246 0.843146 0.982665 0.939118 0.856806 0.873335 0.673956 0.778461 0.82917 0.774286 0.973226 0.800471 0.733117 0.841017 0.283326 0.371562 0.737212 0.836482 0.619384 0.840571 0.830023 0.774967 0.763059 0.660118 0.672748 0.657669 0.677427 0.688042 0.684245 0.688917 0.693119 0.691936 0.724939 0.707752 0.717338 0.753595 0.737356 0.741874 0.756165 0.759868 0.750142 0.768682 0.759959 0.747476 0.754341 0.768956 0.72349 0.765975 0.758568 0.810746 0.885069 0.914359 0.84729 0.797926 0.748992 0.752236 0.788571 0.775392 0.805541 0.818899 0.803884 0.780265 0.81014 0.821244 0.846837 0.857007 0.683217 0.831443 0.91876 1.09951 0.90136 0.871061 0.833848 0.868183 0.934627 0.954762 0.946047 0.758714 0.84127 0.731724 0.680456 0.958946 0.834228 0.790494 0.791584 0.833985 0.905596 0.70219 0.71291 0.922878 1.21027 1.13438 0.727788 0.829275 0.816084 0.872005 0.891911 0.939707 0.777982 0.875125 0.807905 0.775171 0.836004 0.798356 0.847899 0.913428 0.980711 0.821191 1.08121 0.92099 1.28321 0.639822 0.690462 1.00042 0.716313 0.833466 0.940191 0.903257 0.897644 0.899382 0.906507 0.865305 0.889272 0.884359 0.871301 0.815514 0.740385 0.684294 0.810978 0.821618 0.879492 0.860152 0.794612 0.68221 0.889579 0.812257 0.97338 0.58024 0.662426 0.616123 0.998094 0.641968 0.449687 0.76151 0.762576 0.434808 0.700984 0.717564 0.823594 0.720981 0.717577 0.714579 0.670004 0.67298 0.670966 0.679284 0.677331 0.694217 0.69302 0.694784 0.695772 0.702266 0.696621 0.69672 0.698149 0.725555 0.727744 0.730699 0.721522 0.759279 0.749033 0.759684 0.795163 0.77514 0.768361 0.760888 0.656537 0.916992 0.93372 0.915223 0.874802 0.866303 0.899015 0.84454 0.814512 0.769047 0.78091 0.803697 0.801982 0.825588 0.804662 0.725013 0.784077 0.830151 0.861138 0.916589 0.921088 1.03472 0.873454 0.852807 0.817952 0.845786 0.829117 0.853637 0.733026 0.779742 0.769646 0.755686 0.768313 0.712248 1.02182 0.798067 0.853083 0.962127 1.2123 0.335609 0.741395 0.73853 0.919415 0.946637 0.8892 0.702891 0.721317 0.825474 0.795812 0.780813 0.745378 0.822582 0.935795 1.12448 0.781529 0.794232 0.857261 0.850389 0.837866 0.946298 0.833405 0.904455 0.876564 0.886145 0.874572 0.763827 0.838959 0.8785 0.716723 0.864657 0.737009 0.794858 0.908289 0.817901 0.910248 0.752455 0.730245 0.849646 0.880092 0.90362 1.05264 0.918582 0.829623 0.319914 0.456198 0.430315 0.469459 0.668109 0.674228 0.708424 0.728212 0.683605 0.596643 0.532402 0.559927 0.758903 0.599839 0.741832 0.800512 0.900906 0.861128 0.722772 0.640862 0.648919 0.665306 0.666366 0.668211 0.668285 0.670501 0.649858 0.65583 0.667009 0.674672 0.639998 0.682585 0.687674 0.664995 0.694385 0.69503 0.713318 0.689864 0.698758 0.712971 0.678607 0.706459 0.73122 0.736984 0.742619 0.77736 0.750913 0.758489 0.746964 0.722134 0.75271 0.769713 0.774513 0.757166 0.749083 0.6505 0.623284 0.827753 0.923279 0.792567 0.803612 0.761197 0.761292 0.780058 0.777638 0.698276 0.821851 0.813605 0.79094 0.72141 0.885611 0.813869 0.77116 0.749312 0.874655 0.78762 0.845773 0.818603 0.80692 0.851942 0.774352 0.771359 0.798608 0.787849 0.725589 0.876022 0.818918 0.838941 0.863022 0.914147 0.951805 0.585268 0.677529 0.777136 0.824689 1.12498 0.962544 0.681363 0.811137 0.773187 0.7887 0.797815 0.780428 0.780278 0.788961 0.749796 0.760527 0.84372 0.819625 0.649247 0.716391 0.871142 0.903158 0.863851 0.936034 0.85297 0.821852 0.836967 0.725212 0.786934 0.746357 0.742621 0.525238 0.858477 0.630833 0.802864 0.886044 0.746322 0.707966 0.770478 0.664906 0.815779 0.623013 0.743164 0.568113 1.05104 0.741105 0.967279 0.873299 0.797528 0.829426 0.66464 0.74944 0.842049 0.798119 0.468894 0.643579 0.79213 0.636684 0.610159 0.704539 0.709023 0.615365 0.637076 0.647584 0.647069 0.650113 0.654987 0.651589 0.608333 0.67279 0.636432 0.631194 0.648175 0.672854 0.610234 0.637489 0.667315 0.623879 0.701457 0.691828 0.738779 0.663036 0.625658 0.742147 0.759903 0.829562 0.770633 0.788596 0.819236 0.90242 0.762163 0.788883 0.835946 0.789362 0.748488 0.742381 0.782873 0.782325 0.816788 0.792493 0.850127 0.897993 0.791625 0.76437 0.751976 0.708793 0.761008 0.760036 0.864538 0.76461 0.774029 0.834905 0.86649 0.821363 0.767603 0.734206 0.765416 0.754658 0.780026 0.774818 0.784749 0.798863 0.783798 0.822151 0.880414 0.83913 0.859232 0.891053 0.837423 0.832799 0.743025 0.775822 0.788668 0.851851 0.806721 0.767363 0.773856 0.767854 0.803196 0.806659 0.720654 0.817251 0.93161 0.768044 0.685689 0.750431 0.771641 0.771763 0.94004 0.885973 0.840064 0.933247 0.818961 0.746931 0.762921 0.780962 0.834691 0.693356 0.816948 0.806523 0.63546 0.704721 0.760906 0.68246 0.69043 0.738317 0.804257 0.735093 0.83241 0.79071 0.810304 0.71861 0.721574 0.85165 0.7691 0.734063 0.757418 0.565308 0.808148 0.782708 0.621104 0.659691 0.766444 0.74217 0.621945 0.697096 0.70955 0.656443 0.709102 0.644505 0.651611 0.664526 0.656685 0.660944 0.663945 0.674404 0.672665 0.671394 0.639174 0.62966 0.63673 0.646976 0.658553 0.638913 0.673806 0.714859 0.747239 0.656697 0.510927 0.683506 0.278309 0.474437 0.827098 1.03185 0.702406 0.675269 0.627212 0.551972 0.593068 0.642001 0.901604 0.919022 0.792053 0.793647 0.777372 0.73302 0.7271 0.679246 0.729454 0.742205 0.759764 0.773646 0.762382 0.774407 0.780159 0.780036 0.792614 0.734276 0.803277 0.800577 0.822334 0.762164 0.710303 0.68656 0.649728 0.745607 0.674577 0.720833 0.813013 0.711077 0.719338 0.816641 0.771513 0.761463 0.747821 0.752861 0.780472 0.785147 0.794143 0.796395 0.799261 0.804282 0.811401 0.845818 0.843428 0.847963 0.86487 0.838548 0.797437 0.795967 0.804331 0.789462 0.791251 0.800485 0.720497 0.752082 0.744858 0.730011 0.745884 0.715002 1.13943 0.797583 0.615802 0.766732 0.773854 0.654357 0.742251 0.734055 0.773924 0.844902 0.696795 0.911289 0.833052 1.05967 0.782161 0.808149 0.829325 0.782115 0.644101 0.809863 0.837206 0.898468 0.992161 0.7046 0.720664 0.731443 0.700249 0.720094 0.691852 0.706745 0.744874 0.72123 0.698791 0.585768 0.59649 0.612943 0.729559 0.626679 0.638798 0.71812 0.645716 0.648866 0.690418 0.596836 0.668546 0.613928 0.602969 0.685497 0.689007 0.684641 0.669965 0.675304 0.681439 0.671692 0.663261 0.65984 0.645908 0.642346 0.62408 0.628656 0.652805 0.644222 0.66089 0.672082 0.711937 0.688764 0.700885 0.723824 0.690163 0.699463 0.567694 0.695895 1.15497 0.522572 0.616717 0.304829 0.522412 0.585537 0.646204 0.697201 0.675983 0.828964 0.84182 0.779421 0.857277 0.697515 0.62356 0.692841 0.736012 0.740699 0.751268 0.74259 0.750309 0.762592 0.752258 0.762223 0.72079 0.766402 0.771669 0.729129 0.741503 0.771143 0.75843 0.772755 0.723598 0.691019 0.660999 0.668394 0.651101 0.643322 0.663742 0.683038 0.729905 0.740662 0.756386 0.785782 0.778 0.776333 0.795995 0.807274 0.809863 0.80852 0.80798 0.804706 0.827759 0.824374 0.831396 0.837508 0.843653 0.830765 0.821284 0.825857 0.813034 0.818914 0.812742 0.819239 0.796354 0.808706 0.7759 0.795788 0.758224 0.708074 0.732735 0.653407 0.821704 0.563164 0.790913 0.614492 0.631342 0.628428 0.76001 0.727085 0.730679 0.497666 0.771578 0.590131 0.689035 0.724782 0.740088 0.604791 1.03482 0.891611 0.887102 0.809766 0.806847 0.706167 0.766218 0.680068 0.720907 0.771439 0.654237 0.771639 0.657759 0.715951 0.622372 0.545161 0.688381 0.686054 0.614456 0.588787 0.570292 0.718292 0.903826 0.611777 0.558459 0.665959 0.593438 0.671077 0.655904 0.642624 0.670852 0.617199 0.658437 0.676495 0.679114 0.669706 0.662784 0.649395 0.658301 0.632756 0.641519 0.627017 0.612124 0.661747 0.638176 0.640001 0.709015 0.551298 0.636408 0.666851 0.66756 0.671764 0.664294 0.642458 0.701401 0.730554 0.71949 0.698261 0.664771 0.678615 0.659186 0.658237 0.614176 0.599364 0.649784 0.590765 0.619266 0.794696 0.710146 0.716271 0.771637 0.693634 0.825001 0.87299 0.856577 0.823006 0.877494 0.809356 0.773333 0.755232 0.679012 0.701894 0.618491 0.656931 0.647234 0.71478 0.687986 0.718595 0.72646 0.724171 0.733381 0.720628 0.71776 0.717531 0.691589 0.710375 0.702003 0.696118 0.715241 0.749417 0.712918 0.671512 0.687871 0.676528 0.682084 0.668633 0.701684 0.724383 0.765901 0.784159 0.779449 0.786556 0.795016 0.801465 0.805601 0.810812 0.809345 0.82275 0.830007 0.83091 0.832041 0.831389 0.829126 0.826104 0.825616 0.813793 0.815974 0.804647 0.805817 0.806087 0.799671 0.787389 0.773408 0.780879 0.765326 0.764604 0.777418 0.887709 0.807084 0.921282 0.799403 0.621081 0.63927 0.606769 0.698149 0.729932 0.691289 0.703481 0.645992 0.671897 0.685758 0.75729 0.736194 0.66802 0.559099 0.73216 0.718338 0.796395 0.764708 0.77053 0.758531 0.642223 0.780739 0.68738 0.689798 0.645352 0.643395 0.641341 0.768291 0.651469 0.868593 0.689383 0.786339 1.00119 0.776544 0.627755 0.659868 0.603758 0.671148 0.628695 0.645534 0.63878 0.620566 0.614864 0.630463 0.640328 0.657226 0.655153 0.630687 0.60858 0.586759 0.564213 0.581617 0.569207 0.546266 0.561769 0.620927 0.650901 0.648473 0.648446 0.659385 0.648041 0.648149 0.685728 0.693236 0.411574 0.522585 0.634805 0.669567 0.641293 0.556157 0.735396 0.614878 0.6887 0.653812 0.663886 0.692021 0.628964 0.678525 0.605492 0.541409 0.671222 0.61181 0.540731 0.813624 0.793537 0.724039 0.808822 0.737186 0.648575 0.636185 0.710538 0.721196 0.693135 0.681148 0.674605 0.688472 0.673452 0.689087 0.704387 0.673208 0.68548 0.689459 0.674045 0.671692 0.682371 0.693558 0.706071 0.679963 0.701856 0.728178 0.703855 0.720579 0.705087 0.691811 0.69881 0.688412 0.708548 0.716009 0.739794 0.722496 0.759247 0.757781 0.78256 0.781321 0.779889 0.783307 0.791034 0.798618 0.800333 0.799379 0.806234 0.803775 0.810801 0.815449 0.822349 0.826545 0.826968 0.838233 0.829265 0.832635 0.833615 0.833678 0.822202 0.814847 0.813183 0.814403 0.804836 0.804744 0.792519 0.793138 0.786445 0.787096 0.795225 0.818319 1.01029 0.586227 0.350451 0.762506 0.764013 0.713144 0.705297 0.726228 0.70749 0.689786 0.668218 0.718258 0.704788 0.698641 0.68312 0.686426 0.751441 0.734539 0.751895 0.743468 0.711813 0.742959 0.766369 0.674422 0.743942 0.738909 0.709993 0.793009 0.649732 0.641608 0.723425 0.555534 0.551313 0.718764 0.854605 0.815133 0.677203 0.63927 0.608149 0.624405 0.617696 0.602458 0.594648 0.601566 0.601016 0.599124 0.597477 0.604664 0.566463 0.603253 0.581717 0.571999 0.558206 0.545687 0.566341 0.551707 0.556812 0.538985 0.558762 0.539065 0.531058 0.628488 0.620099 0.629405 0.599589 0.613196 0.651598 0.608116 0.647863 0.624531 0.577879 0.598702 0.617887 0.561773 0.597563 0.520435 0.688245 0.585803 0.603903 0.561407 0.600901 0.634995 0.609641 0.627354 0.626976 0.758181 0.672303 0.653787 0.636198 0.564486 0.429579 0.635213 0.616158 0.648215 0.718227 0.501031 0.67386 0.633794 0.615971 0.685563 0.696907 0.681157 0.679817 0.668518 0.668488 0.663183 0.694796 0.675822 0.673563 0.671527 0.67911 0.684271 0.682393 0.705672 0.717852 0.726227 0.707675 0.734822 0.731383 0.734566 0.743407 0.765797 0.772723 0.78095 0.786753 0.792747 0.804683 0.805872 0.813797 0.812871 0.821763 0.831918 0.834465 0.836125 0.830131 0.835334 0.832275 0.830317 0.824347 0.815804 0.812707 0.808209 0.804283 0.803077 0.800061 0.793662 0.802288 0.785656 1.01573 0.822443 0.895753 0.586459 0.706435 0.71023 0.72188 0.722051 0.690311 0.71278 0.683744 0.689378 0.68949 0.68431 0.683507 0.704088 0.702563 0.764489 0.772093 0.770648 0.754073 0.667855 0.789882 0.647966 0.731025 0.51844 0.70574 0.743157 0.461394 0.478122 0.701028 0.731284 0.681142 0.683895 0.493548 0.492305 0.548951 0.551401 0.542923 0.57573 0.599228 0.589184 0.590741 0.609054 0.59263 0.601693 0.614446 0.586702 0.53041 0.595335 0.536448 0.539613 0.533046 0.553013 0.481949 0.549358 0.504179 0.49984 0.60596 0.591182 0.60462 0.596654 0.604701 0.600856 0.600727 0.612756 0.544786 0.549887 0.524745 0.624349 0.629047 0.621869 0.616421 0.621745 0.670744 0.740697 0.619308 0.588214 0.510543 0.563897 0.659031 0.502017 0.547921 0.645307 0.52896 0.469065 0.650556 0.640112 0.595385 0.620129 0.629074 0.667888 0.668584 0.685449 0.673114 0.678786 0.69037 0.683603 0.693976 0.685846 0.68847 0.691306 0.685948 0.711564 0.704634 0.732468 0.745251 0.752526 0.754434 0.757425 0.756746 0.775525 0.777405 0.780834 0.775955 0.784371 0.77506 0.786373 0.794785 0.791316 0.799244 0.807587 0.817974 0.827242 0.841149 0.834997 0.830917 0.826537 0.828176 0.824348 0.824103 0.810644 0.806535 0.804353 0.805968 0.806596 0.807817 0.804842 0.813415 0.808753 0.817107 0.828215 0.710566 0.734286 0.717765 0.708377 0.741849 0.696511 0.690262 0.697479 0.692633 0.69099 0.686793 0.702237 0.689612 0.688774 0.754122 0.716448 0.755854 0.739047 0.692973 0.913948 0.594745 1.36325 0.687668 0.508339 0.737598 0.681272 0.864807 0.628443 0.556188 0.699347 0.785525 0.544403 0.309932 0.500215 0.5182 0.610647 0.609589 0.551084 0.594376 0.625319 0.584103 0.627807 0.618627 0.657544 0.669273 0.55873 0.60166 0.58805 0.487522 0.53443 0.484702 0.493146 0.476367 0.489101 0.492263 0.477635 0.485385 0.493908 0.493503 0.581099 0.575623 0.595109 0.598846 0.606346 0.592216 0.606793 0.60577 0.594194 0.618713 0.636267 0.572323 0.582897 0.503003 0.550932 0.626976 0.640542 0.652255 0.635231 0.572384 0.627298 0.540514 0.562553 0.55118 0.572947 0.591185 0.568844 0.601075 0.624922 0.562486 0.552198 0.565755 0.543014 0.561655 0.563513 0.572868 0.574294 0.580182 0.619425 0.605836 0.631033 0.672418 0.680716 0.68597 0.69844 0.688711 0.71278 0.705577 0.699965 0.69804 0.694148 0.687718 0.687501 0.695805 0.70192 0.75075 0.766472 0.793747 0.774451 0.801911 0.779935 0.7722 0.785166 0.765907 0.769406 0.768014 0.778343 0.778398 0.780068 0.778449 0.778528 0.78307 0.786909 0.803047 0.788565 0.817528 0.814822 0.812963 0.818945 0.828388 0.854808 0.836103 0.826232 0.820364 0.817466 0.823014 0.806887 0.800024 0.808142 0.807294 0.809399 0.810554 0.815118 0.812922 0.816992 0.819454 0.81233 0.816364 0.809257 0.767266 0.721866 0.757007 0.720925 0.693424 0.662667 0.719352 0.71199 0.688623 0.692958 0.692663 0.690469 0.669607 0.655954 0.716047 0.629882 0.793695 0.623042 0.677018 0.197842 0.817045 0.726819 0.764723 0.652496 0.656496 0.739091 0.7061 0.558459 0.481779 0.505237 0.501844 0.533137 0.518999 0.537228 0.550459 0.553517 0.549903 0.59896 0.563257 0.378368 0.747477 0.617405 0.731695 0.751341 0.845295 0.633857 0.633409 0.645438 0.494263 0.487001 0.491323 0.498719 0.451973 0.522227 0.460811 0.524282 0.530464 0.582999 0.630936 0.332838 0.463086 0.559844 0.436335 0.492315 0.525705 0.582093 0.530616 0.517846 0.520601 0.507338 0.497017 0.587833 0.521521 0.540485 0.622318 0.753478 0.614226 0.507592 0.482886 0.488307 0.536309 0.485156 0.577849 0.52903 0.610923 0.567791 0.537085 0.601572 0.537309 0.53475 0.546553 0.556319 0.579505 0.592359 0.597296 0.626291 0.674799 0.65729 0.697791 0.688325 0.707014 0.695416 0.701433 0.694262 0.734712 0.718428 0.709589 0.692772 0.701329 0.742137 0.794276 0.813127 0.793293 0.794845 0.777556 0.77204 0.78113 0.779402 0.776105 0.777361 0.782302 0.779451 0.786943 0.785036 0.827623 0.814866 0.817284 0.813938 0.81798 0.825997 0.874889 0.832262 0.820928 0.812564 0.814251 0.814206 0.792604 0.828923 0.824174 0.798126 0.808569 0.810265 0.810001 0.817823 0.816104 0.827913 0.825956 0.812141 0.800582 0.783016 0.777484 0.764359 0.743511 0.698053 0.693665 0.697386 0.696679 0.694009 0.694432 0.688618 0.793652 0.691062 0.666154 0.520669 0.527715 0.711489 0.653481 0.241802 0.428388 0.669836 0.553358 0.635662 0.64612 0.539253 0.577636 0.541698 0.518873 0.559666 0.639929 0.586382 0.437084 0.715384 0.482284 0.501296 0.524732 0.542397 0.293278 0.672417 0.576097 0.495414 0.499576 0.391265 0.540989 0.407828 0.530882 0.544227 0.54872 0.620593 0.50077 0.619261 0.526215 0.499296 0.695498 0.262187 0.261783 0.42895 0.426837 0.315918 0.424799 0.369886 0.469597 0.337271 0.482814 0.538615 0.515143 0.52015 0.512754 0.503136 0.507408 0.523175 0.503564 0.512521 0.502923 0.484904 0.562316 0.290293 0.354799 0.4009 0.4491 0.456393 0.466668 0.512984 0.493471 0.517652 0.529815 0.534159 0.536823 0.53863 0.540124 0.578739 0.590077 0.599973 0.602816 0.619686 0.611571 0.639061 0.653241 0.685545 0.725448 0.687237 0.770713 0.736526 0.748826 0.747264 0.718369 0.692915 0.700553 0.748527 0.74967 0.834351 0.763332 0.805271 0.817033 0.79952 0.793476 0.776395 0.780056 0.783718 0.784302 0.777519 0.771925 0.773082 0.774099 0.778243 0.778649 0.78406 0.786848 0.822579 0.824311 0.821726 0.825192 0.777947 0.833217 0.847621 0.808091 0.819473 0.820885 0.815048 0.803431 0.805148 0.811933 0.820784 0.803172 0.837339 0.829397 0.814419 0.817138 0.80439 0.798686 0.792337 0.770427 0.75369 0.750536 0.731113 0.714564 0.682703 0.69084 0.690328 0.68949 0.6893 0.684746 0.681498 0.685729 0.706166 0.709573 0.747548 0.858465 0.478898 0.727211 0.64157 0.476468 0.493396 0.518211 0.540112 0.614645 0.613988 0.529964 0.533445 0.544433 0.55158 0.536037 0.598208 0.521113 0.675295 0.542219 0.496764 0.880954 0.8499 0.532846 0.482642 0.452822 0.506713 0.305886 0.451344 0.491298 0.433235 0.349296 0.436559 0.359058 0.50508 0.472685 0.281741 0.502652 0.363459 0.599261 0.439221 0.528934 0.555168 0.642145 0.594895 0.916257 0.449678 0.890124 1.05272 1.20686 0.222245 1.10033 0.428342 0.27195 0.297739 0.373015 0.528432 0.567152 0.645447 0.523384 0.514227 0.502999 0.490802 0.483148 0.469007 0.429337 0.392224 0.420889 0.406916 0.496833 0.521865 0.50722 0.499342 0.515466 0.513567 0.526322 0.544791 0.550566 0.544643 0.551444 0.587579 0.604329 0.619866 0.638054 0.6347 0.655491 0.655024 0.673051 0.701199 0.713741 0.827435 0.850751 0.777487 0.733723 0.690288 0.67713 0.693389 0.716193 0.6842 0.747574 0.810767 0.785675 0.773117 0.808831 0.771854 0.765267 0.771128 0.769241 0.7837 0.793635 0.769383 0.801381 0.83369 0.833549 0.842166 0.824555 0.792972 0.791337 0.811148 0.799289 0.7426 0.794691 0.822729 0.818678 0.817014 0.801551 0.790307 0.824784 0.827332 0.809399 0.847368 0.826586 0.847246 0.805159 0.792873 0.768844 0.803149 0.751101 0.731029 0.740418 0.753045 0.721933 0.693594 0.684831 0.691581 0.684879 0.670646 0.675369 0.75915 0.771535 0.924961 0.634038 0.931877 0.644187 0.630675 0.592694 0.489882 0.580599 0.50953 0.695323 0.506767 0.742477 0.541402 0.587458 0.550049 0.545077 0.542732 0.524678 0.521636 0.511111 0.480598 0.571648 0.661854 0.475882 0.520804 0.50109 0.407348 0.435588 0.385626 0.471294 0.32902 0.395204 0.165575 0.508859 0.314451 0.374468 0.318161 0.401799 0.546757 0.232013 0.440393 0.191137 0.130851 0.321747 2.37407 0.0665834 0.0154517 0.588812 0.222905 0.837375 0.16793 0.420334 0.345017 0.236078 0.0993049 0.751513 0.488886 0.609554 0.489736 0.491751 0.464085 0.477038 0.457063 0.461353 0.445353 0.425298 0.440078 0.420629 0.433351 0.42852 0.475692 0.451684 0.503586 0.493067 0.509253 0.527393 0.54891 0.566316 0.558046 0.577265 0.570803 0.595531 0.612123 0.621177 0.640017 0.635233 0.657738 0.682238 0.675261 0.712197 0.701063 0.729845 0.849575 0.819447 0.782516 0.777189 0.753377 0.738429 0.690637 0.670845 0.681102 0.707022 0.721041 0.766165 0.794456 0.760805 0.782498 0.826207 0.725617 0.753474 0.785926 0.789925 0.780266 0.798025 0.792558 0.794276 0.790271 0.848907 0.889356 0.859148 0.845513 0.820602 0.798356 0.778642 0.777862 0.749927 0.828191 0.79703 0.831109 0.817499 0.80804 0.794206 0.843232 0.858916 0.81822 0.816727 0.815443 0.823501 0.827762 0.785887 0.800756 0.762001 0.819598 0.734213 0.732999 0.734244 0.737996 0.704267 0.693997 0.696005 0.687859 0.673042 0.676498 0.659597 0.703155 0.643294 0.715817 0.758736 0.905562 0.685354 0.873088 0.667996 0.731529 0.649875 0.538576 0.521815 0.528634 0.422552 0.322794 0.550183 0.54315 0.528759 0.52254 0.519861 0.497141 0.535654 0.524111 0.537234 0.574669 0.516127 0.454891 0.481274 0.426395 0.375798 0.423739 0.191705 0.359287 0.188306 0.462266 0.437506 0.291667 0.523753 0.292686 0.187232 0.563829 0.810591 1.36613 0.992087 1.60495 0.150831 0.797012 0.37387 0.357913 0.333276 0.192977 0.46557 0.52826 0.498639 0.456852 0.448751 0.449308 0.430546 0.431582 0.422616 0.434462 0.435521 0.444248 0.463284 0.486252 0.51587 0.52812 0.547885 0.567422 0.568388 0.584995 0.582588 0.591894 0.591936 0.617165 0.629718 0.6429 0.655586 0.682096 0.723435 0.737857 0.730143 0.745552 0.768478 0.793542 0.766521 0.663869 0.653924 0.66788 0.673887 0.698464 0.733896 0.784145 0.792537 0.773338 0.783726 0.744573 0.816906 0.708984 0.804543 0.796734 0.798956 0.80489 0.798653 0.876688 0.890211 0.876758 0.833732 0.785815 0.809754 0.749597 0.781577 0.769363 0.837912 0.837131 0.847986 0.823793 0.807666 0.811291 0.812042 0.880547 0.845961 0.83141 0.826722 0.830343 0.815765 0.81013 0.784012 0.81673 0.724968 0.742975 0.72493 0.743374 0.731445 0.704699 0.691439 0.696465 0.700605 0.683854 0.757394 0.74383 0.882794 0.759348 0.812154 0.735198 0.71021 0.750026 0.722332 0.698829 0.578194 0.585499 0.565159 0.582905 0.595793 0.54667 0.579464 0.540604 0.446697 0.458739 0.416825 0.520916 0.501552 0.524929 0.514352 0.529729 0.532146 0.536018 0.530878 0.526768 0.538434 0.501886 0.488034 0.51401 0.594669 0.448223 0.466899 0.770017 0.210986 0.393205 0.425213 0.372839 0.454827 0.786613 0.718711 0.469335 0.646342 0.217317 0.638615 1.11836 0.670627 0.349521 0.407448 0.392096 0.593684 0.458362 0.459837 0.414287 0.348507 0.532699 0.452786 0.47065 0.445884 0.448784 0.423323 0.426881 0.437418 0.416644 0.442742 0.518364 0.55062 0.59066 0.590683 0.597376 0.592087 0.596826 0.606898 0.61096 0.628442 0.669155 0.666403 0.68048 0.74333 0.732751 0.723611 0.702852 0.74216 0.862921 0.798711 0.67401 0.66442 0.674673 0.696128 0.698503 0.800881 0.775778 0.758186 0.774942 0.765418 0.750571 0.774258 0.723714 0.801589 0.805728 0.722717 0.795722 0.801226 0.753032 0.936342 0.869816 0.872294 0.806736 0.763976 0.775165 0.781926 0.806647 0.829817 0.855024 0.835849 0.831689 0.797795 0.851225 0.903623 0.8497 0.816464 0.818896 0.826353 0.791314 0.8358 0.767995 0.708793 0.738717 0.723395 0.708413 0.697823 0.699378 0.709767 0.701046 0.763102 0.744812 0.755218 0.746494 0.739286 0.729547 0.715769 0.703049 0.662132 0.618563 0.613586 0.558325 0.499567 0.473954 0.477894 0.510509 0.487326 0.546385 0.523368 0.536162 0.532095 0.5283 0.524059 0.521946 0.51253 0.521387 0.473203 0.424326 0.446947 0.429461 0.62193 0.608194 0.682901 0.361289 0.283403 0.477815 0.831834 0.229076 0.570026 0.361568 0.25568 0.425103 0.376653 0.46922 0.423857 0.580089 0.447247 0.353157 0.366273 0.459203 0.447685 0.45659 0.447349 0.415458 0.397721 0.452262 0.422823 0.373118 0.585481 0.578814 0.598463 0.607043 0.597692 0.593918 0.592276 0.62453 0.639211 0.652979 0.65886 0.664925 0.719818 0.672529 0.742562 0.536043 0.766522 0.708545 0.647435 0.682396 0.677048 0.667651 0.776953 0.756058 0.762035 0.768891 0.767514 0.758995 0.749742 0.73871 0.767988 0.824625 0.817793 0.811994 0.766947 0.775854 0.744191 0.797873 0.955441 0.742033 0.664273 0.734443 0.781228 0.826524 0.82159 0.838444 0.828705 0.821469 0.826665 0.835553 0.847202 0.865687 0.814306 0.895321 0.879452 0.874452 0.842705 0.820659 0.834762 0.837953 0.8211 0.819015 0.747119 0.749591 0.715583 0.736468 0.712725 0.704349 0.709698 0.721131 0.753172 0.756314 0.740044 0.735714 0.733687 0.721343 0.682079 0.66323 0.642224 0.620585 0.542946 0.492345 0.508023 0.529554 0.545579 0.545416 0.535057 0.531617 0.527882 0.524806 0.512535 0.518975 0.522877 0.510047 0.469522 0.435651 0.419248 0.439958 0.430463 0.423347 0.522052 0.500217 0.360382 0.400058 0.406098 0.248983 0.396459 0.28981 0.147864 0.286134 0.113155 0.119118 0.478557 0.608513 0.439534 0.306392 0.422266 0.399509 0.345701 0.423607 0.482034 0.47204 0.450925 0.434255 0.441627 0.361879 0.718722 0.62606 0.538827 0.564311 0.801979 0.659295 0.581385 0.5892 0.594573 0.586514 0.627309 0.625738 0.64274 0.663759 0.65446 0.667232 0.682616 0.718898 0.708335 0.705948 0.719919 0.491934 0.564748 0.519161 0.514995 0.706772 0.684072 0.698666 0.700107 0.673578 0.670416 0.627639 0.770882 0.747757 0.758581 0.771283 0.758268 0.753226 0.75889 0.759325 0.814144 0.831219 0.797095 0.776838 0.763602 0.810878 0.970896 1.05119 1.3862 0.59371 0.737911 0.763623 0.808707 0.851556 0.854522 0.808826 0.834872 0.836876 0.846235 0.733994 0.745243 0.847114 0.825139 0.833895 0.845957 0.846062 0.832168 0.742805 0.729497 0.736161 0.743034 0.709193 0.70487 0.708877 0.716418 0.724958 0.73959 0.761668 0.73985 0.739233 0.729222 0.702381 0.716723 0.692028 0.678342 0.671361 0.665075 0.668036 0.653917 0.633616 0.616151 0.489188 0.682857 0.500628 0.557227 0.543822 0.524792 0.51558 0.517718 0.499171 0.535474 0.513353 0.545368 0.480452 0.461003 0.510857 0.43904 0.427545 0.457773 0.452168 0.365106 0.3179 0.368188 0.527143 0.269985 0.449819 0.249461 0.287226 0.360091 0.486209 0.518498 0.463256 0.33512 0.471066 0.374327 0.525724 0.458767 0.451992 0.44316 0.438799 0.444501 0.434088 0.43665 0.402609 0.527471 0.597031 0.468089 0.465861 0.571161 0.558287 0.564207 0.604221 0.629738 0.59226 0.640019 0.655231 0.715226 0.703321 0.71534 0.649225 0.577646 0.56126 0.637083 0.698099 0.694519 0.67402 0.663453 0.652214 0.62528 0.739697 0.74765 0.770291 0.775749 0.774861 0.76917 0.760567 0.759572 0.7951 0.832192 0.784897 0.830988 0.812883 0.794765 0.74319 0.739764 0.840146 0.884822 0.564852 0.871451 0.70026 0.784648 0.760305 0.768848 0.820916 0.76739 0.81792 0.839772 0.846753 0.861326 0.853886 0.721639 0.739731 0.849965 0.855438 0.856402 0.805601 0.758511 0.737497 0.739282 0.743165 0.715697 0.745187 0.707998 0.717268 0.723523 0.73824 0.756282 0.748428 0.729255 0.729023 0.727907 0.716063 0.677684 0.664425 0.666036 0.673442 0.662998 0.670813 0.723929 0.573962 0.553843 0.539598 0.525185 0.520938 0.50964 0.484072 0.520663 0.516409 0.532646 0.47712 0.499159 0.455323 0.4675 0.453612 0.462367 0.445604 0.432829 0.414293 0.406933 0.388878 0.35536 0.390022 0.780828 0.525474 0.680757 0.771931 0.462748 0.452528 0.479069 0.395658 0.42225 0.380342 0.379249 0.434915 0.409391 0.4563 0.516132 0.456825 0.454997 0.43808 0.467988 0.495543 0.528155 0.497686 0.563887 0.548911 0.542642 0.623347 0.58458 0.606643 0.609005 0.685585 0.709481 0.702542 0.693785 0.60412 0.532073 0.689233 0.688087 0.693079 0.643492 0.652615 0.736932 0.749501 0.767175 0.781179 0.778375 0.778738 0.764091 0.660453 0.784036 0.825383 0.826515 0.831871 0.918719 0.784237 0.711994 0.97761 0.895448 0.775678 0.607945 0.762128 0.737509 0.729401 0.790687 0.820769 0.841962 0.868218 0.860962 0.705605 0.823342 0.742455 0.719185 0.728375 0.803045 0.861843 0.837542 0.870311 0.874425 0.811752 0.80139 0.750058 0.737015 0.751234 0.74329 0.723783 0.731401 0.716826 0.71022 0.726473 0.741582 0.742563 0.716393 0.698639 0.66095 0.655926 0.652767 0.656864 0.648643 0.695001 0.752912 0.631054 0.581516 0.502902 0.535607 0.472408 0.572658 0.544874 0.521865 0.461496 0.430023 0.454481 0.43541 0.454827 0.408287 0.396838 0.337608 0.421535 0.349294 0.2867 0.635604 0.907179 0.441419 0.430939 0.399493 0.396925 0.413013 0.44202 0.443212 0.460474 0.486615 0.487598 0.519502 0.493964 0.447876 0.466919 0.436175 0.483295 0.494819 0.513626 0.520925 0.565814 0.55411 0.569186 0.627453 0.663165 0.595492 0.642642 0.722306 0.782569 0.661019 0.76343 0.642197 0.532444 0.364497 0.717846 0.702301 0.690393 0.733936 0.716391 0.669172 0.662514 0.692419 0.748601 0.78059 0.782725 0.784885 0.688463 0.651544 0.645792 0.796433 0.846357 0.764288 0.934111 0.787669 0.728205 0.652259 0.917271 0.767662 0.620544 0.747502 0.774632 0.811079 0.844251 0.787467 0.848503 0.815168 0.746237 0.656395 0.760554 0.718888 0.774857 0.806885 0.807865 0.814642 0.810692 0.754607 0.792144 0.754042 0.73183 0.725607 0.700807 0.744599 0.7496 0.720233 0.692803 0.667268 0.65263 0.657612 0.696975 0.687872 0.742253 0.710592 0.694826 0.474195 0.843745 0.533446 0.605965 0.566696 0.499255 0.449928 0.439442 0.45175 0.449502 0.435948 0.426282 0.401909 0.37867 0.38579 0.336477 0.360089 0.214068 0.337201 0.976798 0.871757 0.416486 0.405557 0.450909 0.418432 0.447065 0.458834 0.443538 0.479232 0.55986 0.514836 0.486131 0.493719 0.495895 0.513117 0.526508 0.56567 0.551283 0.540067 0.550291 0.669341 0.665973 0.481333 0.535068 0.763629 0.526422 0.674363 0.512477 0.472528 0.421326 0.75099 0.702059 0.684409 0.727318 0.691834 0.697591 0.725495 0.737447 0.78884 0.761049 0.785415 0.794972 0.618219 0.791998 0.831811 0.746773 0.816324 0.794433 0.742453 0.783108 0.740435 0.78862 0.792756 0.684486 0.65971 0.716996 0.741331 0.733025 0.730056 0.708375 0.699688 0.748517 0.717218 0.689867 0.669244 0.654425 0.65193 0.651984 0.661828 0.674502 0.694658 0.679991 0.673985 0.806285 0.45472 0.541406 0.617626 0.555057 0.475045 0.444463 0.452238 0.44725 0.451898 0.398617 0.384299 0.386555 0.511161 0.638462 0.452166 0.592853 0.777626 0.419018 0.428825 0.426621 0.441134 0.474741 0.485693 0.488811 0.584752 0.554067 0.602547 0.488671 0.511529 0.531249 0.559829 0.563971 0.569154 0.54584 0.534956 0.693909 0.677109 0.667548 0.447714 0.496981 0.878622 0.710909 0.515079 0.745749 0.783611 0.703729 0.693502 0.703699 0.727752 0.625161 0.663878 0.740036 0.731545 0.765932 0.704428 0.679889 0.734017 0.732124 0.681411 0.672461 0.658302 0.665192 0.655062 0.608309 0.607507 0.671155 0.676579 0.658166 0.688568 0.830122 0.632448 0.744921 0.627549 0.592273 0.67636 0.470216 0.444333 0.444472 0.440682 0.381339 0.338908 0.409135 0.754224 0.54513 0.678573 0.711573 0.44564 0.418238 0.425716 0.424385 0.436225 0.488796 0.540282 0.539048 0.588907 0.505582 0.510363 0.528173 0.558413 0.701158 0.401662 0.568819 0.68182 0.672321 0.681392 0.726885 0.832228 0.635232 0.54566 0.510127 0.661285 0.457592 0.443912 0.446824 0.421152 0.385756 0.427721 0.516812 0.614125 0.704223 0.683774 
SCALARS Stress float 1
LOOKUP_TABLE default
-162038000000.0 -92563200000.0 -230444000000.0 -52430300000.0 -302187000000.0 -122529000000.0 -358715000000.0 -195429000000.0 -108373000000.0 -541312000000.0 -449482000000.0 -149051000000.0 -161583000000.0 -364071000000.0 -209368000000.0 -283906000000.0 -357915000000.0 -448477000000.0 -191196000000.0 -174418000000.0 -295846000000.0 -199760000000.0 -875522000000.0 -817431000000.0 -285309000000.0 -187362000000.0 -385856000000.0 -1.05012e+12 -702163000000.0 -1.0089e+12 -1.01572e+12 -582961000000.0 -658229000000.0 -968858000000.0 -576078000000.0 -985610000000.0 -367288000000.0 -538048000000.0 -572263000000.0 -538628000000.0 -603098000000.0 -441889000000.0 -766865000000.0 -485925000000.0 -610026000000.0 -425473000000.0 -746568000000.0 -732989000000.0 -1.58378e+12 -1.24673e+12 -1.75524e+12 -984454000000.0 -744011000000.0 -1.47501e+12 -1.88952e+12 -2.20229e+12 -1.56249e+12 -309455000000.0 -768895000000.0 -945815000000.0 -912867000000.0 -1.64021e+12 -1.41797e+12 -928883000000.0 -863368000000.0 -1.53597e+12 -1.65559e+12 -905073000000.0 -1.24442e+12 -1.52781e+12 -800393000000.0 -642498000000.0 -1.56215e+12 -1.70244e+12 -1.66984e+12 -2.68747e+12 -2.66952e+12 -1.65949e+12 -436774000000.0 -1.48378e+12 -1.06914e+12 -555833000000.0 -2.48904e+12 -2.22937e+12 -3.08752e+12 -1.03431e+12 -2.13351e+12 -2.3444e+12 -1.22898e+12 -1.67723e+12 -810443000000.0 -851136000000.0 -1.54368e+12 -2.07386e+12 -2.06921e+12 -712566000000.0 -1.71433e+12 -1.31033e+12 -2.62253e+12 -1.72464e+12 -1.78497e+12 -2.0331e+12 -2.46285e+12 -2.14726e+12 -534154000000.0 -1.06651e+12 -1.56453e+12 -2.0499e+12 -1.96573e+12 -1.21377e+12 -2.18121e+12 -988949000000.0 -4.24683e+12 -1.15276e+12 -3.51402e+12 -1.30638e+12 -603688000000.0 -1.45079e+12 -1.66702e+12 -1.66129e+12 -804879000000.0 -887951000000.0 -1.40822e+12 -1.35621e+12 -1.97759e+12 -3.25407e+12 -4.1098e+12 -2.3866e+12 -3.12264e+12 -2.40872e+12 -2.27871e+12 -1.04371e+12 -1.47045e+12 -4.22292e+12 -2.58689e+12 -1.65269e+12 -989422000000.0 -1.19596e+12 -1.16128e+12 -3.33786e+12 -3.27759e+12 -3.04092e+12 -2.48065e+12 -900399000000.0 -903205000000.0 -2.43399e+12 -1.71159e+12 -2.42894e+12 -1.99811e+12 -1.07541e+12 -483356000000.0 -1.53294e+12 -3.10475e+12 -2.62754e+12 -3.16499e+12 -5.31132e+12 -1.78393e+12 -3.70914e+12 -3.64976e+12 -3.4891e+12 -2.61806e+12 -3.52547e+12 -3.14499e+12 -2.42335e+12 -3.61558e+12 -3.43613e+12 -3.21342e+12 -1.92524e+12 -2.23182e+12 -4.72078e+12 -2.7041e+12 -688521000000.0 -1.68387e+12 -2.2559e+12 -2.53381e+12 -3.34165e+12 -2.80713e+12 -1.60852e+12 -640058000000.0 -1.59955e+12 -2.62008e+12 -4.65971e+12 -1.87966e+12 -2.66269e+12 -4.53461e+12 -3.73527e+12 -2.99535e+12 -6.53773e+12 -3.41282e+12 -3.79235e+12 -2.28031e+12 -3.02247e+12 -474673000000.0 -3.12259e+12 -3.21609e+12 -1.72684e+12 -4.23979e+12 -3.48333e+12 -2.73884e+12 -2.28778e+12 -2.80178e+12 -3.69299e+12 -1.90565e+12 -1.21471e+12 -1.57215e+12 -2.72437e+12 -2.00971e+12 -2.47427e+12 -5.35762e+12 -1.30051e+12 -4.17039e+12 -3.68313e+12 -5.56998e+12 -4.43385e+12 -4.19554e+12 -2.77796e+12 -2.46729e+12 -3.79445e+12 -2.8048e+12 -4.71967e+12 -5.9999e+12 -3.82285e+12 -4.94605e+12 -4.82435e+12 -3.46944e+12 -4.66025e+12 -2.98678e+12 -2.11148e+12 -4.27006e+12 -1.23889e+12 -3.81773e+12 -3.20623e+12 -1.74857e+12 -1.99178e+12 -1.68588e+12 -2.59612e+12 -1.7292e+12 -5.17387e+12 -6.96389e+12 -4.17389e+12 -2.82098e+12 -4.68629e+12 -5.05879e+12 -3.78387e+12 -3.54987e+12 -3.85493e+12 -4.827e+12 -3.22014e+12 -3.58073e+12 -3.53016e+12 -4.71623e+12 -4.40109e+12 -5.36684e+12 -4.93634e+12 -6.07023e+12 -6.91923e+12 -5.46541e+12 -3.02466e+12 -2.21108e+12 -5.11317e+12 -3.46694e+12 -3.4698e+12 -4.39454e+12 -5.33303e+12 -2.85949e+12 -3.68227e+12 -4.91062e+12 -6.14918e+12 -6.24382e+12 -3.29831e+12 -4.44599e+12 -3.41539e+12 -5.63903e+12 -6.16561e+12 -3.66209e+12 -5.60873e+12 -4.63985e+12 -4.55843e+12 -5.59779e+12 -2.97421e+12 -5.10315e+12 -2.60734e+12 -3.88105e+12 -5.86791e+12 -3.43929e+12 -3.31998e+12 -4.09026e+12 -4.39018e+12 -4.00999e+12 -5.99229e+12 -4.17902e+12 -6.53516e+12 -2.3408e+12 -7.51993e+12 -3.2249e+12 -4.74517e+12 -5.57254e+12 -5.72934e+12 -2.21839e+12 -3.73922e+12 -4.56677e+12 -2.67424e+12 -3.04829e+12 -3.67322e+12 -4.42851e+12 -7.18051e+12 -4.22699e+12 -5.45688e+12 -2.58302e+12 -5.01059e+12 -3.18827e+12 -6.6214e+12 -2.38335e+12 -7.62159e+12 -7.10399e+12 -6.72926e+12 -4.01113e+12 -5.17118e+12 -4.3315e+12 -4.85369e+12 -4.6715e+12 -4.58504e+12 -3.89674e+12 -6.71532e+12 -6.56375e+12 -4.4362e+12 -3.70795e+12 -4.55329e+12 -6.52489e+12 -7.25027e+12 -6.19283e+12 -3.57721e+12 -4.88572e+12 -4.19121e+12 -5.0558e+12 -2.35745e+12 -2.99636e+12 -4.51081e+12 -5.21147e+12 -5.32585e+12 -1.93644e+12 -7.12258e+12 -4.21377e+12 -4.77837e+12 -1.43098e+12 -5.8238e+12 -2.33023e+12 -4.15093e+12 -4.60048e+12 -5.00039e+12 -6.03181e+12 -6.26009e+12 -5.59106e+12 -6.06554e+12 -4.10412e+12 -4.8818e+12 -4.12303e+12 -3.84489e+12 -4.61283e+12 -4.42278e+12 -4.09195e+12 -5.94608e+12 -2.53437e+12 -5.34544e+12 -4.36302e+12 -5.37119e+12 -6.0063e+12 -2.75308e+12 -3.91631e+12 -4.23803e+12 -5.30779e+12 -4.8597e+12 -5.23103e+12 -5.92824e+12 -6.43202e+12 -6.67105e+12 -2.23113e+12 -4.26523e+12 -3.38111e+12 -2.77654e+12 -4.99986e+12 -4.80051e+12 -6.72902e+12 -5.41346e+12 -5.484e+12 -4.62247e+12 -4.72739e+12 -6.38795e+12 -4.93591e+12 -4.19114e+12 -5.82448e+12 -4.86049e+12 -2.59233e+12 -4.98246e+12 -4.3176e+12 -5.22404e+12 -3.4922e+12 -3.57569e+12 -3.58818e+12 -3.81809e+12 -5.01305e+12 -5.77924e+12 -5.77879e+12 -5.10679e+12 -5.03852e+12 -5.00737e+12 -4.19357e+12 -3.15777e+12 -6.5241e+12 -5.78027e+12 -7.01891e+12 -5.73587e+12 -2.07373e+12 -5.71317e+12 -12549700000.0 -2.86024e+12 -4.7794e+12 -4.96964e+12 -3.57832e+12 -4.12519e+12 -5.07489e+12 -4.52604e+12 -5.2114e+12 -6.93123e+12 -4.04433e+12 -3.80346e+12 -4.8258e+12 -4.7745e+12 -6.01431e+12 -5.40498e+12 -5.65985e+12 -3.8127e+12 -4.42174e+12 -3.20604e+12 -3.95404e+12 -3.42752e+12 -7.6039e+12 -7.03657e+12 -7.38436e+12 -4.80397e+12 -4.13187e+12 -6.52153e+12 -5.30183e+12 -7.8866e+12 -3.68334e+12 -3.81857e+12 -4.95204e+12 -5.85695e+12 -3.41885e+12 -3.21445e+12 -4.27726e+12 -4.4476e+12 -4.472e+12 -5.81285e+12 -3.46317e+12 -7.418e+12 -3.12295e+12 -3.96931e+12 -5.41254e+12 -6.23485e+12 -2.86161e+12 -3.91154e+12 -5.11562e+12 -2.91933e+12 -5.2805e+12 -3.66346e+12 -5.52317e+12 -5.11193e+12 -2.94437e+12 -8.98166e+12 -5.98018e+12 -4.06714e+12 -6.37973e+12 -6.1443e+12 -5.03832e+12 -6.91464e+12 -3.77527e+12 -4.18552e+12 -5.13463e+12 -5.28894e+12 -2.6456e+12 -5.08929e+12 -4.68482e+12 -5.64649e+12 -6.42873e+12 -5.41563e+12 -3.43677e+12 -2.08117e+12 -6.17596e+12 -3.2888e+12 -7.1889e+12 -4.0529e+12 -6.58087e+12 -7.90555e+12 -8.14389e+12 -4.94657e+12 -7.23444e+12 -7.07676e+12 -5.70668e+12 -6.45666e+12 -7.48725e+12 -5.01661e+12 -5.51038e+12 -4.95236e+12 -5.91471e+12 -5.17704e+12 -8.21496e+12 -6.41514e+12 -4.42123e+12 -6.95466e+12 -3.64007e+12 -5.87758e+12 -5.47755e+12 -4.96755e+12 -4.41197e+12 -5.89284e+12 -3.6179e+12 -5.36891e+12 -6.76851e+12 -8.34296e+12 -6.31332e+12 -3.74735e+12 -3.17893e+12 -5.89692e+12 -6.67706e+12 -7.42756e+12 -7.66887e+12 -6.37087e+12 -4.21563e+12 -6.06907e+12 -4.63927e+12 -3.29797e+12 -6.04745e+12 -6.40095e+12 -5.64118e+12 -4.32938e+12 -5.0587e+12 -8.30502e+12 -1.18237e+13 -6.32945e+12 -7.90622e+12 -5.83824e+12 -3.21772e+12 -3.24616e+12 -4.13414e+12 -9.52525e+12 -5.12365e+12 -4.4803e+12 -5.55424e+12 -6.2898e+12 -6.31088e+12 -2.22971e+12 -4.15482e+12 -4.55229e+12 -6.70093e+12 -8.11231e+12 -9.21139e+12 -4.7463e+12 -7.19526e+12 -2.88666e+12 -3.3681e+12 -12549700000.0 -4.0444e+12 -5.25431e+12 -9.79026e+12 -9.90797e+12 -6.83477e+12 -5.37225e+12 -6.36668e+12 -3.50598e+12 -5.21317e+12 -1.16941e+13 -5.32904e+12 -7.43134e+12 -7.95373e+12 -5.1887e+12 -4.61829e+12 -5.46382e+12 -5.91581e+12 -9.31425e+12 -5.25997e+12 -1.19477e+13 -5.55833e+12 -3.82766e+12 -7.22269e+12 -7.43227e+12 -7.14023e+12 -1.14051e+13 -6.28321e+12 -6.2187e+12 -7.65883e+12 -5.30709e+12 -7.54779e+12 -6.61096e+12 -3.18291e+12 -12549700000.0 -7.29836e+12 -6.36364e+12 -7.53776e+12 -3.39081e+12 -3.73242e+12 -5.66939e+12 -3.38601e+12 -8.06191e+12 -5.74607e+12 -8.18451e+12 -5.63622e+12 -6.42554e+12 -4.85254e+12 -5.2528e+12 -7.69862e+12 -5.19742e+12 -4.24959e+12 -5.45059e+12 -7.66023e+12 -7.2787e+12 -6.79358e+12 -8.66914e+12 -7.9465e+12 -9.86524e+12 -7.47061e+12 -3.09259e+12 -6.91984e+12 -8.67166e+12 -9.50685e+12 -5.8036e+12 -1.22898e+13 -4.99594e+12 -1.05451e+13 -9.34005e+12 -5.29772e+12 -7.38664e+12 -7.9591e+12 -12549700000.0 -2.2551e+12 -4.72221e+12 -6.83131e+12 -4.64872e+12 -5.94558e+12 -6.0335e+12 -4.99e+12 -7.13177e+12 -6.38972e+12 -1.10774e+13 -8.31839e+12 -6.64899e+12 -2.83022e+12 -6.91431e+12 -6.44669e+12 -5.60017e+12 -6.80566e+12 -6.80642e+12 -8.11213e+12 -6.97149e+12 -4.94367e+12 -6.56361e+12 -5.07026e+12 -5.12213e+12 -5.46322e+12 -1.04711e+13 -7.22737e+12 -2.99453e+12 -5.77642e+12 -1.1494e+13 -7.35457e+12 -1.49527e+13 -1.2074e+13 -4.49963e+12 -4.7506e+12 -7.66244e+12 -3.40659e+12 -2.88409e+12 -4.94769e+12 -6.45965e+12 -5.11689e+12 -4.53769e+12 -3.92699e+12 -7.63098e+12 -8.60139e+12 -6.80867e+12 -6.82926e+12 -5.74015e+12 -5.295e+12 -4.62578e+12 -7.39269e+12 -3.05297e+12 -6.15356e+12 -4.80313e+12 -2.98466e+12 -8.18779e+12 -7.18444e+12 -4.52315e+12 -7.30934e+12 -7.43868e+12 -4.81085e+12 -7.79012e+12 -7.25692e+12 -8.22915e+12 -2.15799e+12 -9.32606e+12 -4.11463e+12 -4.40947e+12 -4.19675e+12 -4.4161e+12 -6.02897e+12 -7.2282e+12 -5.02349e+12 -7.18288e+12 -8.76414e+12 -8.84148e+12 -5.96144e+12 -8.72208e+12 -8.67673e+12 -3.68483e+12 -5.90482e+12 -3.97816e+12 -4.34065e+12 -6.9243e+12 -5.43763e+12 -3.24743e+12 -5.44308e+12 -3.87843e+12 -7.96716e+12 -4.24688e+12 -4.21212e+12 -5.7094e+12 -4.36943e+12 -7.16003e+12 -4.51369e+12 -7.59987e+12 -6.82799e+12 -5.68834e+12 -6.65498e+12 -7.09425e+12 -3.76203e+12 -6.54594e+12 -9.07206e+12 -5.61453e+12 -9.77791e+12 -3.73546e+12 -6.25201e+12 -3.64241e+12 -9.4244e+12 -5.94933e+12 -4.46131e+12 -3.76578e+12 -7.42153e+12 -4.25537e+12 -5.25043e+12 -5.53242e+12 -6.48383e+12 -3.86164e+12 -6.15317e+12 -9.31078e+12 -6.92322e+12 -1.0939e+13 -7.0242e+12 -9.60026e+12 -3.13339e+12 -6.33753e+12 -9.53741e+12 -3.73257e+12 -4.82466e+12 -720316000000.0 -7.12865e+12 -4.16363e+12 -5.72738e+12 -6.36178e+12 -6.07022e+12 -5.69971e+12 -7.41789e+12 -1.0587e+13 -9.80184e+12 -1.22886e+13 -5.97624e+12 -4.5099e+12 -6.75061e+12 -6.36634e+12 -9.72028e+12 -8.97126e+12 -6.96623e+12 -6.45775e+12 -3.78299e+12 -4.77674e+12 -4.48166e+12 -1.24922e+13 -5.85479e+12 -4.83224e+12 -6.36781e+12 -8.00975e+12 -6.96793e+12 -8.12837e+12 -3.0285e+12 -8.97253e+12 -1.00531e+13 -5.43894e+12 -1.01421e+13 -9.33222e+12 -4.88745e+12 -8.95601e+12 -7.20038e+12 -7.1778e+12 -6.18643e+12 -6.60149e+12 -5.97832e+12 -5.14046e+12 -6.06385e+12 -8.86958e+12 -12551100000.0 -5.37814e+12 -4.79071e+12 -4.44817e+12 -8.21376e+12 -6.97751e+12 -4.80388e+12 -3.772e+12 -3.95835e+12 -8.1173e+12 -7.77419e+12 -7.66549e+12 -6.04265e+12 -7.51614e+12 -7.15633e+12 -3.12507e+12 -5.36979e+12 -6.2806e+12 -5.53736e+12 -4.17109e+12 -1.20757e+13 -8.0846e+12 -1.08046e+13 -4.8832e+12 -9.84974e+12 -1.00385e+13 -8.46924e+12 -7.15171e+12 -7.06702e+12 -5.14602e+12 -8.27407e+12 -1.01613e+13 -8.11134e+12 -8.02352e+12 -9.60764e+12 -1.0972e+13 -7.71715e+12 -6.4003e+12 -7.29018e+12 -1.05155e+13 -8.48311e+12 -7.7239e+12 -1.08668e+13 -5.53586e+12 -4.48731e+12 -5.07958e+12 -7.81235e+12 -6.54311e+12 -4.94385e+12 -7.08844e+12 -6.96967e+12 -6.94198e+12 -4.84243e+12 -6.5282e+12 -7.09552e+12 -3.89216e+12 -8.28342e+12 -5.17331e+12 -5.92763e+12 -8.02813e+12 -6.65933e+12 -5.15486e+12 -3.89926e+12 -4.11649e+12 -4.44182e+12 -7.85931e+12 -8.96087e+12 -7.64358e+12 -7.24903e+12 -7.88818e+12 -8.79822e+12 -9.59718e+12 -6.80189e+12 -5.00637e+12 -8.76512e+12 -8.15507e+12 -1.20595e+13 -8.24811e+12 -7.44119e+12 -4.34931e+12 -6.93714e+12 -9.53823e+12 -9.14366e+12 -7.71127e+12 -6.35167e+12 -4.95598e+12 -3.43257e+12 -4.03896e+12 -5.85161e+12 -6.02038e+12 -6.73394e+12 -8.70674e+12 -6.05956e+12 -5.66924e+12 -6.44021e+12 -6.32922e+12 -5.44152e+12 -4.89383e+12 -9.43064e+12 -5.88709e+12 -5.80442e+12 -1.29279e+13 -9.59393e+12 -4.96532e+12 -6.52291e+12 -5.462e+12 -5.58972e+12 -7.55935e+12 -9.1073e+12 -1.0923e+13 -5.99377e+12 -8.78376e+12 -6.54286e+12 -5.86204e+12 -5.49312e+12 -1.15585e+13 -1.01859e+13 -8.77453e+12 -1.16325e+13 -9.76619e+12 -7.9766e+12 -1.06675e+13 -6.67024e+12 -5.26667e+12 -5.6243e+12 -6.57167e+12 -6.87775e+12 -3.7578e+12 -5.11067e+12 -8.46685e+12 -4.71617e+12 -3.77497e+12 -4.09338e+12 -4.43082e+12 -3.74406e+12 -6.48412e+12 -1.04119e+13 -7.83073e+12 -9.00018e+12 -8.6965e+12 -1.00241e+13 -8.69661e+12 -1.13387e+13 -4.9609e+12 -8.43367e+12 -8.22713e+12 -4.73869e+12 -5.32492e+12 -7.55061e+12 -7.78227e+12 -7.44789e+12 -8.70734e+12 -5.78311e+12 -5.85927e+12 -5.55086e+12 -6.14353e+12 -6.62267e+12 -8.30706e+12 -1.37659e+13 -4.59798e+12 -1.00561e+13 -6.29326e+12 -8.62655e+12 -7.99509e+12 -7.26295e+12 -3.49617e+12 -8.61951e+12 -4.46751e+12 -4.0918e+12 -7.49395e+12 -2.6062e+12 -5.85981e+12 -7.01285e+12 -2.4019e+12 -7.14583e+12 -5.61832e+12 -1.14621e+13 -7.95404e+12 -9.20296e+12 -9.47854e+12 -9.85466e+12 -6.93503e+12 -6.09967e+12 -5.02795e+12 -8.31393e+12 -5.0322e+12 -7.53235e+12 -7.92021e+12 -6.07726e+12 -8.08289e+12 -4.87727e+12 -1.26537e+13 -7.03248e+12 -7.50903e+12 -6.45343e+12 -9.30519e+12 -5.62698e+12 -4.88693e+12 -7.26463e+12 -9.19124e+12 -8.91105e+12 -5.69493e+12 -9.14544e+12 -8.21004e+12 -1.27199e+13 -1.07034e+13 -6.74906e+12 -1.07322e+13 -7.65114e+12 -4.97007e+12 -1.30734e+13 -8.6258e+12 -5.42055e+12 -8.16585e+12 -7.46036e+12 -5.02264e+12 -8.21741e+12 -1.06838e+13 -5.10357e+12 -3.29133e+12 -6.79082e+12 -8.46776e+12 -1.47374e+13 -5.66483e+12 -1.07539e+13 -8.64561e+12 -9.04839e+12 -5.88397e+12 -9.16989e+12 -8.8475e+12 -9.3173e+12 -1.02473e+13 -9.91772e+12 -7.052e+12 -7.55278e+12 -7.25948e+12 -6.34625e+12 -1.04361e+13 -1.16921e+13 -7.95822e+12 -1.46923e+13 -9.32263e+12 -5.19895e+12 -1.20377e+13 -7.56559e+12 -7.03255e+12 -6.91472e+12 -7.56577e+12 -4.59462e+12 -9.11435e+12 -5.14919e+12 -9.14944e+12 -1.26519e+13 -1.01916e+13 -7.04411e+12 -6.51643e+12 -8.01625e+12 -6.18113e+12 -7.0112e+12 -7.95395e+12 -1.11343e+13 -7.38889e+12 -7.93112e+12 -2.98408e+12 -7.11406e+12 -5.70778e+12 -9.45854e+12 -5.73971e+12 -8.32711e+12 -5.39982e+12 -7.10311e+12 -5.84389e+12 -8.42744e+12 -7.1955e+12 -6.1341e+12 -6.57142e+12 -6.55908e+12 -9.28616e+12 -7.20364e+12 -8.05116e+12 -7.56434e+12 -3.42162e+12 -6.82056e+12 -5.41669e+12 -3.33228e+12 -9.05351e+12 -1.1275e+13 -1.11093e+13 -7.46824e+12 -8.09476e+12 -1.11053e+13 -6.07756e+12 -1.04028e+13 -4.28253e+12 -5.81153e+12 -9.75301e+12 -6.33909e+12 -7.71457e+12 -6.1302e+12 -7.57697e+12 -1.26184e+13 -1.43609e+13 -9.81638e+12 -9.47882e+12 -1.22302e+13 -5.50982e+12 -8.95049e+12 -5.72819e+12 -6.62182e+12 -1.15523e+13 -7.09553e+12 -9.05803e+12 -6.72439e+12 -8.21739e+12 -9.96732e+12 -8.863e+12 -9.02974e+12 -7.43348e+12 -6.20408e+12 -5.67916e+12 -9.34088e+12 -7.05926e+12 -6.35786e+12 -7.80796e+12 -4.28751e+12 -3.43433e+12 -4.03664e+12 -7.5565e+12 -3.25943e+12 -6.80116e+12 -9.64658e+12 -7.21461e+12 -7.89037e+12 -7.59135e+12 -4.81389e+12 -6.36778e+12 -5.75661e+12 -7.51862e+12 -7.42196e+12 -3.65101e+12 -8.42334e+12 -5.91687e+12 -7.46918e+12 -5.35481e+12 -5.07088e+12 -7.54784e+12 -5.9712e+12 -8.18506e+12 -8.622e+12 -7.57298e+12 -4.87492e+12 -3.08315e+12 -5.78112e+12 -6.61574e+12 -1.15265e+13 -6.09104e+12 -3.63151e+12 -7.75964e+12 -6.2696e+12 -8.10954e+12 -6.31571e+12 -1.15843e+13 -6.04217e+12 -5.27967e+12 -9.69217e+12 -9.09313e+12 -1.0234e+13 -7.14059e+12 -6.68964e+12 -1.10236e+13 -1.03459e+13 -7.30518e+12 -9.04198e+12 -5.66451e+12 -1.01743e+13 -6.81172e+12 -7.38554e+12 -9.05997e+12 -6.8062e+12 -9.8206e+12 -1.591e+13 -8.06427e+12 -9.33933e+12 -7.29331e+12 -1.51069e+13 -8.95728e+12 -1.06999e+13 -3.8378e+12 -4.50071e+12 -8.33828e+12 -7.1446e+12 -8.52489e+12 -1.20426e+13 -7.28771e+12 -1.21269e+13 -4.42947e+12 -1.17962e+13 -1.04824e+13 -6.51251e+12 -9.30948e+12 -3.5979e+12 -6.51346e+12 -6.62598e+12 -5.24591e+12 -1.06227e+13 -6.56823e+12 -7.35361e+12 -1.03857e+13 -1.00774e+13 -8.45805e+12 -1.12955e+13 -8.13021e+12 -1.2647e+13 -7.85312e+12 -6.13876e+12 -7.12878e+12 -5.68342e+12 -9.92814e+12 -7.20036e+12 -7.41227e+12 -8.44358e+12 -7.29166e+12 -5.52003e+12 -1.12593e+13 -6.64622e+12 -7.52206e+12 -5.65125e+12 -7.60142e+12 -7.29466e+12 -1.25257e+13 -6.54349e+12 -6.678e+12 -8.40595e+12 -8.12256e+12 -5.51395e+12 -1.02964e+13 -1.62274e+13 -4.8435e+12 -5.82602e+12 -5.7596e+12 -8.67622e+12 -9.03067e+12 -4.84525e+12 -1.06716e+13 -9.68205e+12 -8.81984e+12 -8.79924e+12 -8.98485e+12 -3.24801e+12 -8.69686e+12 -7.42954e+12 -6.59001e+12 -5.63591e+12 -7.24366e+12 -7.56144e+12 -6.07292e+12 -8.93447e+12 -5.99805e+12 -6.84927e+12 -5.72909e+12 -5.36015e+12 -1.27892e+13 -7.68244e+12 -1.12039e+13 -9.9553e+12 -1.4555e+13 -8.60551e+12 -6.4893e+12 -1.30835e+13 -1.00403e+13 -1.0396e+13 -9.07933e+12 -1.14449e+13 -1.05706e+13 -8.51107e+12 -1.41771e+13 -4.11639e+12 -9.27692e+12 -6.4567e+12 -3.38749e+12 -5.46211e+12 -3.24156e+12 -6.21017e+12 -1.02214e+13 -5.38752e+12 -1.00688e+13 -1.2837e+13 -8.78999e+12 -1.52187e+13 -6.49373e+12 -8.64022e+12 -9.48084e+12 -1.21356e+13 -1.26427e+13 -8.68348e+12 -1.46056e+13 -9.56853e+12 -9.94548e+12 -5.94193e+12 -7.2991e+12 -9.25321e+12 -7.62975e+12 -7.90897e+12 -6.09762e+12 -7.68083e+12 -8.08553e+12 -5.1957e+12 -9.23609e+12 -5.47152e+12 -1.03641e+13 -4.89996e+12 -5.1572e+12 -7.83954e+12 -6.89932e+12 -7.35573e+12 -6.53506e+12 -6.01665e+12 -4.16545e+12 -5.5682e+12 -1.0326e+13 -8.22985e+12 -2.89753e+12 -4.70342e+12 -5.92246e+12 -1.0311e+13 -5.06209e+12 -7.36827e+12 -4.11322e+12 -8.49343e+12 -5.39888e+12 -7.12589e+12 -5.04853e+12 -3.9824e+12 -7.73028e+12 -4.64292e+12 -5.88214e+12 -6.86146e+12 -7.59719e+12 -4.58708e+12 -4.99151e+12 -8.35384e+12 -6.19265e+12 -7.58544e+12 -9.45091e+12 -1.17985e+13 -6.13708e+12 -7.73859e+12 -8.84424e+12 -7.58834e+12 -4.43629e+12 -1.00046e+13 -6.83761e+12 -8.55022e+12 -5.27606e+12 -7.08175e+12 -1.05664e+13 -5.50788e+12 -1.10063e+13 -1.20678e+13 -5.4304e+12 -6.52671e+12 -6.88646e+12 -4.77072e+12 -5.9043e+12 -1.05501e+13 -9.47128e+12 -8.77676e+12 -6.32873e+12 -9.54013e+12 -6.04499e+12 -7.43814e+12 -9.2002e+12 -9.38974e+12 -8.48433e+12 -8.75588e+12 -9.74452e+12 -8.21415e+12 -7.81951e+12 -1.17863e+13 -1.06363e+13 -7.5453e+12 -7.98017e+12 -1.33799e+13 -1.01916e+13 -1.02344e+13 -1.02987e+13 -6.39885e+12 -6.76788e+12 -2.62918e+12 -7.94397e+12 -4.58805e+12 -4.14273e+12 -8.84605e+12 -6.06983e+12 -1.1035e+13 -6.07468e+12 -6.66971e+12 -6.05722e+12 -5.32899e+12 -8.94782e+12 -1.00586e+13 -6.67359e+12 -1.10298e+13 -1.36092e+13 -7.28762e+12 -7.09752e+12 -5.46734e+12 -9.17734e+12 -9.82564e+12 -7.2474e+12 -9.19402e+12 -1.23522e+13 -6.19555e+12 -8.95056e+12 -7.1324e+12 -1.06081e+13 -8.11098e+12 -9.79066e+12 -3.20795e+12 -9.23505e+12 -6.13019e+12 -1.03126e+13 -7.01909e+12 -6.81827e+12 -1.0628e+13 -7.54328e+12 -7.02357e+12 -4.9793e+12 -5.31891e+12 -8.47504e+12 -6.51057e+12 -4.92868e+12 -4.29106e+12 -4.8843e+12 -6.79269e+12 -1.00771e+13 -6.94511e+12 -7.35948e+12 -8.89057e+12 -4.91984e+12 -8.08761e+12 -9.60595e+12 -3.70874e+12 -4.02667e+12 -6.57074e+12 -7.64284e+12 -6.85291e+12 -6.3793e+12 -7.61917e+12 -5.56492e+12 -9.18402e+12 -7.31191e+12 -5.00812e+12 -6.63395e+12 -7.37034e+12 -4.424e+12 -3.84468e+12 -3.93006e+12 -1.07393e+13 -5.67217e+12 -8.28921e+12 -1.06021e+13 -8.55401e+12 -7.35761e+12 -6.03068e+12 -8.95856e+12 -5.09251e+12 -9.83346e+12 -9.2074e+12 -1.06463e+13 -8.10443e+12 -8.23e+12 -6.01729e+12 -8.02452e+12 -1.13071e+13 -1.06183e+13 -8.87634e+12 -8.9107e+12 -1.25081e+13 -1.27225e+13 -8.13351e+12 -5.01974e+12 -8.23087e+12 -1.2099e+13 -7.55808e+12 -5.23587e+12 -5.95746e+12 -5.0419e+12 -9.16068e+12 -5.99427e+12 -4.8125e+12 -5.35338e+12 -4.34597e+12 -7.59271e+12 -1.19667e+13 -8.46489e+12 -1.07201e+13 -8.91301e+12 -7.7586e+12 -1.07068e+13 -7.86904e+12 -8.00159e+12 -6.33386e+12 -8.13683e+12 -5.98731e+12 -1.07208e+13 -6.41568e+12 -7.79231e+12 -7.35266e+12 -9.5317e+12 -7.79434e+12 -1.02792e+13 -8.7434e+12 -3.30951e+12 -1.1722e+13 -5.03682e+12 -5.76343e+12 -6.9537e+12 -9.60653e+12 -9.27584e+12 -9.47168e+12 -7.44477e+12 -4.91903e+12 -9.09009e+12 -2.95714e+12 -3.51413e+12 -8.95368e+12 -6.80628e+12 -1.01933e+13 -5.84907e+12 -6.07378e+12 -7.48828e+12 -5.9359e+12 -8.6522e+12 -6.93539e+12 -5.65333e+12 -4.95494e+12 -1.10658e+13 -8.44807e+12 -8.19385e+12 -9.48198e+12 -3.54306e+12 -7.07161e+12 -4.57822e+12 -7.09146e+12 -5.41992e+12 -8.22062e+12 -9.37006e+12 -6.52413e+12 -5.60649e+12 -1.04138e+13 -4.4984e+12 -6.46128e+12 -7.03145e+12 -1.127e+13 -7.86328e+12 -6.54446e+12 -4.75409e+12 -8.67991e+12 -4.99694e+12 -6.42472e+12 -3.55174e+12 -5.44354e+12 -2.78052e+12 -7.1441e+12 -6.11404e+12 -9.85657e+12 -6.15518e+12 -7.15886e+12 -1.00453e+13 -6.28404e+12 -6.99594e+12 -3.99924e+12 -7.38246e+12 -8.13273e+12 -5.68788e+12 -4.8015e+12 -7.26919e+12 -8.73833e+12 -9.07905e+12 -2.72007e+12 -4.7069e+12 -6.14548e+12 -8.42836e+12 -7.28718e+12 -4.86677e+12 -7.26554e+12 -8.60057e+12 -9.51055e+12 -6.09184e+12 -8.26503e+12 -4.01986e+12 -7.84815e+12 -1.56194e+13 -8.51069e+12 -8.42306e+12 -1.04646e+13 -1.14875e+13 -1.06031e+13 -1.27931e+13 -6.66295e+12 -8.71255e+12 -1.2359e+13 -6.92609e+12 -7.67858e+12 -6.73022e+12 -1.18847e+13 -5.74877e+12 -8.29235e+12 -5.58991e+12 -6.54127e+12 -3.83407e+12 -9.19607e+12 -1.01158e+13 -1.06823e+13 -5.49512e+12 -7.50079e+12 -7.71254e+12 -6.57499e+12 -8.22527e+12 -5.19082e+12 -8.62349e+12 -1.3431e+13 -9.58827e+12 -6.56232e+12 -1.34026e+13 -4.79473e+12 -5.46701e+12 -2.66958e+12 -6.0466e+12 -3.77149e+12 -4.47301e+12 -9.40257e+12 -5.946e+12 -8.17795e+12 -5.5558e+12 -1.00522e+13 -5.38969e+12 -5.87996e+12 -1.21639e+13 -4.66155e+12 -5.22959e+12 -1.19581e+13 -6.54935e+12 -9.00003e+12 -8.04716e+12 -6.02003e+12 -6.39059e+12 -5.67019e+12 -8.42412e+12 -1.3473e+13 -8.83678e+12 -6.09157e+12 -8.48716e+12 -9.12003e+12 -4.91677e+12 -7.85719e+12 -5.63667e+12 -4.39011e+12 -9.06848e+12 -1.08914e+13 -1.0279e+13 -7.50304e+12 -7.39774e+12 -4.72493e+12 -7.17559e+12 -3.47417e+12 -7.87548e+12 -7.55904e+12 -7.03607e+12 -9.26566e+12 -6.43203e+12 -1.11035e+13 -5.18347e+12 -1.12182e+13 -5.05466e+12 -5.41323e+12 -9.23527e+12 -8.88808e+12 -8.10047e+12 -7.18772e+12 -6.77923e+12 -4.35125e+12 -3.06193e+12 -5.86312e+12 -1.34569e+13 -5.56039e+12 -9.18645e+12 -3.70985e+12 -8.12918e+12 -6.02072e+12 -4.32563e+12 -8.02154e+12 -7.10609e+12 -5.89427e+12 -7.40283e+12 -6.19315e+12 -7.04308e+12 -6.8353e+12 -5.02207e+12 -7.625e+12 -4.88726e+12 -6.77188e+12 -1.98063e+12 -2.89444e+12 -5.18941e+12 -3.1859e+12 -7.23088e+12 -7.48696e+12 -7.09148e+12 -4.75685e+12 -9.04061e+12 -4.57002e+12 -7.68557e+12 -9.31173e+12 -7.99947e+12 -7.53413e+12 -6.94566e+12 -8.86595e+12 -2.70265e+12 -7.69656e+12 -4.70739e+12 -7.85046e+12 -1.01323e+13 -4.18391e+12 -7.63492e+12 -1.06769e+13 -9.04229e+12 -8.03583e+12 -7.82812e+12 -1.00825e+13 -1.04673e+13 -5.65839e+12 -9.15482e+12 -4.98007e+12 -6.77068e+12 -1.01588e+13 -1.26362e+13 -9.18149e+12 -1.17947e+13 -8.77768e+12 -1.21125e+13 -7.00224e+12 -9.43088e+12 -5.99575e+12 -8.14554e+12 -4.17353e+12 -8.46035e+12 -5.89059e+12 -5.86768e+12 -5.35607e+12 -1.18053e+13 -7.18372e+12 -4.71999e+12 -6.24146e+12 -6.8669e+12 -9.39583e+12 -9.65294e+12 -6.52614e+12 -7.3871e+12 -1.08455e+13 -8.20183e+12 -6.80732e+12 -5.6996e+12 -4.72831e+12 -4.0697e+12 -7.4894e+12 -5.25588e+12 -5.98036e+12 -5.52457e+12 -7.53923e+12 -7.30939e+12 -1.12722e+13 -6.29804e+12 -4.05996e+12 -5.68437e+12 -8.66098e+12 -9.92595e+12 -6.87649e+12 -7.07754e+12 -7.27857e+12 -6.89903e+12 -1.08692e+13 -6.06145e+12 -9.05065e+12 -4.67061e+12 -7.94128e+12 -6.66609e+12 -9.59954e+12 -8.67157e+12 -5.81625e+12 -5.31382e+12 -7.99081e+12 -5.19685e+12 -2.89389e+12 -8.81563e+12 -5.14862e+12 -5.56907e+12 -7.3843e+12 -2.67573e+12 -7.49531e+12 -5.62189e+12 -6.14722e+12 -1.03943e+13 -8.55975e+12 -3.99682e+12 -7.14308e+12 -9.36773e+12 -1.05006e+13 -4.47627e+12 -4.19499e+12 -3.36364e+12 -5.36693e+12 -5.54626e+12 -3.13926e+12 -7.11302e+12 -5.48442e+12 -3.95165e+12 -5.59673e+12 -6.99239e+12 -5.49519e+12 -4.18511e+12 -6.76022e+12 -7.90067e+12 -5.00552e+12 -8.76037e+12 -9.67593e+12 -5.94766e+12 -5.21455e+12 -6.05716e+12 -8.01764e+12 -3.69925e+12 -8.37712e+12 -8.52703e+12 -1.07133e+13 -1.19263e+13 -8.63208e+12 -7.07143e+12 -1.00919e+13 -1.08899e+13 -5.3007e+12 -9.46943e+12 -1.32962e+13 -7.59271e+12 -6.30204e+12 -1.24092e+13 -1.02688e+13 -6.533e+12 -3.72912e+12 -6.21855e+12 -7.34803e+12 -4.16329e+12 -8.19637e+12 -1.0586e+13 -9.85377e+12 -7.2707e+12 -8.2734e+12 -9.17133e+12 -7.04697e+12 -9.03161e+12 -9.80158e+12 -8.80898e+12 -4.60771e+12 -7.57113e+12 -9.14543e+12 -6.97112e+12 -1.08547e+13 -1.11026e+13 -1.044e+13 -7.91868e+12 -6.10908e+12 -1.05329e+13 -5.29762e+12 -7.35241e+12 -8.92409e+12 -7.7575e+12 -7.53819e+12 -7.65255e+12 -8.74069e+12 -6.94401e+12 -8.48145e+12 -7.57888e+12 -7.44846e+12 -6.91883e+12 -9.7523e+12 -5.8463e+12 -7.44822e+12 -7.05255e+12 -7.16574e+12 -5.71171e+12 -4.19497e+12 -4.27936e+12 -6.22975e+12 -4.42779e+12 -6.117e+12 -7.65476e+12 -7.52221e+12 -7.11196e+12 -6.34008e+12 -1.2744e+13 -5.68292e+12 -7.97799e+12 -5.91269e+12 -5.50034e+12 -6.08578e+12 -7.36483e+12 -7.72594e+12 -9.79519e+12 -6.87906e+12 -4.12304e+12 -6.27611e+12 -7.09734e+12 -4.23473e+12 -8.30189e+12 -4.51759e+12 -4.41413e+12 -6.48842e+12 -8.20968e+12 -6.10929e+12 -7.52044e+12 -3.82151e+12 -6.72485e+12 -7.95811e+12 -6.71331e+12 -2.72599e+12 -6.62193e+12 -7.55631e+12 -6.05411e+12 -5.30352e+12 -4.60228e+12 -3.06576e+12 -5.01926e+12 -7.45111e+12 -6.32446e+12 -3.52132e+12 -4.65856e+12 -7.93497e+12 -6.72595e+12 -1.10965e+13 -7.72405e+12 -5.56449e+12 -1.04467e+13 -4.68896e+12 -6.19213e+12 -1.06412e+13 -8.99282e+12 -1.04895e+13 -6.82729e+12 -6.23494e+12 -7.55813e+12 -2.68382e+12 -9.0912e+12 -6.7472e+12 -1.04157e+13 -7.6617e+12 -8.85987e+12 -8.26664e+12 -8.5858e+12 -6.27391e+12 -1.31108e+13 -5.11302e+12 -1.14326e+13 -9.91156e+12 -8.72883e+12 -9.48722e+12 -8.35206e+12 -4.78263e+12 -1.13958e+13 -1.01724e+13 -1.27414e+13 -9.3959e+12 -9.19755e+12 -8.90148e+12 -7.36045e+12 -7.3756e+12 -6.2545e+12 -7.70636e+12 -7.69203e+12 -5.05676e+12 -7.59478e+12 -5.51869e+12 -5.48213e+12 -6.8346e+12 -5.08916e+12 -7.52885e+12 -7.60976e+12 -4.31809e+12 -3.98931e+12 -6.24156e+12 -2.71987e+12 -8.22213e+12 -8.05304e+12 -7.04889e+12 -5.31437e+12 -8.63122e+12 -6.43681e+12 -6.17869e+12 -1.30057e+13 -3.71511e+12 -1.02864e+13 -6.399e+12 -7.99238e+12 -1.44888e+13 -4.96352e+12 -5.8765e+12 -5.87011e+12 -5.2931e+12 -4.43474e+12 -8.0728e+12 -1.13565e+13 -5.0394e+12 -9.77224e+12 -6.10622e+12 -6.1087e+12 -7.57807e+12 -6.40992e+12 -2.72003e+12 -6.44384e+12 -5.04575e+12 -9.22737e+12 -1.16205e+13 -9.83135e+12 -7.9224e+12 -6.39541e+12 -3.60852e+12 -8.34033e+12 -6.11886e+12 -7.34239e+12 -7.93496e+12 -7.17038e+12 -3.91087e+12 -9.7535e+12 -7.09071e+12 -1.19875e+13 -7.57216e+12 -1.02859e+13 -1.10953e+13 -5.57475e+12 -5.7326e+12 -5.91342e+12 -4.70212e+12 -4.60463e+12 -6.07266e+12 -6.9277e+12 -8.96871e+12 -3.84388e+12 -9.61763e+12 -9.34466e+12 -5.03239e+12 -8.41048e+12 -8.39235e+12 -6.47613e+12 -8.67642e+12 -4.11115e+12 -6.62407e+12 -4.55601e+12 -4.09396e+12 -7.73177e+12 -4.73483e+12 -1.04226e+13 -5.25839e+12 -8.0413e+12 -9.03291e+12 -5.01647e+12 -2.62579e+12 -4.83283e+12 -8.5282e+12 -9.20501e+12 -5.52479e+12 -8.28649e+12 -3.76413e+12 -5.02627e+12 -5.19465e+12 -5.28105e+12 -6.0155e+12 -8.90611e+12 -8.47652e+12 -6.46817e+12 -3.9308e+12 -8.41035e+12 -7.07485e+12 -6.13991e+12 -6.62621e+12 -5.39499e+12 -6.06132e+12 -6.62198e+12 -6.72272e+12 -6.57173e+12 -7.55693e+12 -7.92493e+12 -1.14494e+13 -5.64283e+12 -4.65379e+12 -6.29208e+12 -6.85284e+12 -1.13558e+13 -7.13201e+12 -3.97285e+12 -9.02724e+12 -1.10287e+13 -8.38916e+12 -9.08929e+12 -7.4374e+12 -4.01444e+12 -2.27109e+12 -1.34238e+13 -1.0032e+13 -1.13854e+13 -1.1538e+13 -7.54552e+12 -6.65343e+12 -1.33171e+13 -7.78074e+12 -9.53734e+12 -7.9338e+12 -9.80631e+12 -9.2306e+12 -1.02451e+13 -4.63214e+12 -2.8496e+12 -6.41069e+12 -6.83139e+12 -5.11101e+12 -6.69287e+12 -4.13948e+12 -5.51139e+12 -6.53719e+12 -8.64427e+12 -7.28895e+12 -8.39448e+12 -1.34002e+13 -8.19416e+12 -8.93137e+12 -4.44296e+12 -1.5325e+13 -8.61214e+12 -4.74445e+12 -1.0537e+13 -9.87229e+12 -7.67028e+12 -9.57895e+12 -9.68329e+12 -6.51516e+12 -4.94618e+12 -7.74098e+12 -9.87494e+12 -8.98726e+12 -1.15781e+13 -3.60847e+12 -3.02976e+12 -4.87082e+12 -7.8617e+12 -5.47315e+12 -6.17147e+12 -4.90057e+12 -7.24989e+12 -7.95726e+12 -3.97399e+12 -7.23123e+12 -5.72577e+12 -4.23059e+12 -1.21613e+13 -5.22319e+12 -8.84922e+12 -5.7255e+12 -9.00359e+12 -4.27388e+12 -7.15111e+12 -1.05763e+13 -3.74988e+12 -5.0773e+12 -3.93677e+12 -3.41502e+12 -7.06222e+12 -6.85833e+12 -4.95436e+12 -6.60467e+12 -8.46852e+12 -6.61367e+12 -6.85382e+12 -5.04869e+12 -6.81346e+12 -5.30896e+12 -3.16802e+12 -5.19591e+12 -1.95638e+12 -6.86423e+12 -7.30007e+12 -4.70034e+12 -6.57546e+12 -8.19246e+12 -1.13305e+13 -3.37537e+12 -4.39583e+12 -3.41826e+12 -6.40123e+12 -5.23268e+12 -7.30198e+12 -6.26553e+12 -3.48423e+12 -5.41854e+12 -3.85677e+12 -8.64187e+12 -6.7983e+12 -7.66642e+12 -1.11894e+13 -5.48657e+12 -9.39598e+12 -6.45699e+12 -4.50132e+12 -4.60054e+12 -6.58631e+12 -7.0927e+12 -4.49156e+12 -6.94753e+12 -9.66707e+12 -9.41734e+12 -4.61158e+12 -8.29589e+12 -7.04611e+12 -7.63791e+12 -6.10194e+12 -1.00727e+13 -9.15383e+12 -4.76961e+12 -5.51778e+12 -1.04722e+13 -6.93052e+12 -6.67912e+12 -5.872e+12 -6.12247e+12 -7.39499e+12 -6.85587e+12 -7.23336e+12 -9.73013e+12 -4.91415e+12 -3.97123e+12 -4.31845e+12 -5.9552e+12 -7.57331e+12 -6.78229e+12 -6.8421e+12 -5.5885e+12 -6.65455e+12 -1.00231e+13 -5.40582e+12 -6.861e+12 -7.33381e+12 -1.07997e+13 -5.02285e+12 -5.90288e+12 -6.0454e+12 -6.20334e+12 -5.06094e+12 -8.20202e+12 -6.09137e+12 -4.3052e+12 -5.72573e+12 -4.37474e+12 -7.3968e+12 -6.69622e+12 -6.36575e+12 -1.03874e+13 -6.81178e+12 -7.21932e+12 -7.4593e+12 -1.86286e+13 -4.33763e+12 -6.40712e+12 -6.3548e+12 -8.95215e+12 -5.27589e+12 -7.68429e+12 -1.01366e+13 -6.92841e+12 -5.88081e+12 -6.85481e+12 -8.11347e+12 -7.85153e+12 -8.59548e+12 -9.40474e+12 -8.69544e+12 -5.65983e+12 -1.48537e+13 -6.65058e+12 -5.77398e+12 -5.84712e+12 -4.89576e+12 -9.35816e+12 -7.42483e+12 -7.75228e+12 -1.0265e+13 -7.54115e+12 -9.19113e+12 -9.0587e+12 -9.12113e+12 -6.22535e+12 -5.211e+12 -7.09217e+12 -6.26194e+12 -9.65621e+12 -7.62167e+12 -6.75283e+12 -4.71997e+12 -4.48992e+12 -5.94084e+12 -5.35556e+12 -4.26309e+12 -6.46066e+12 -3.56544e+12 -5.51348e+12 -9.18111e+12 -6.38713e+12 -6.69539e+12 -3.99546e+12 -4.82535e+12 -5.74477e+12 -3.74663e+12 -6.85275e+12 -7.74933e+12 -5.94083e+12 -8.07123e+12 -5.02914e+12 -8.78614e+12 -3.80347e+12 -6.17514e+12 -7.52987e+12 -5.88786e+12 -5.8985e+12 -4.97683e+12 -7.05654e+12 -6.06769e+12 -6.32238e+12 -6.86686e+12 -3.73262e+12 -5.66013e+12 -4.62883e+12 -3.33359e+12 -3.36329e+12 -5.79779e+12 -6.81578e+12 -4.19817e+12 -7.22873e+12 -5.17539e+12 -2.18019e+12 -4.14433e+12 -8.32497e+12 -5.55014e+12 -2.93531e+12 -3.61236e+12 -3.80165e+12 -4.01233e+12 -7.8003e+12 -5.94382e+12 -9.98564e+12 -6.0614e+12 -5.28878e+12 -1.00839e+13 -5.3149e+12 -1.00448e+13 -2.46581e+12 -4.89157e+12 -5.78674e+12 -9.45074e+12 -1.00409e+13 -7.8104e+12 -5.82625e+12 -5.21145e+12 -6.10928e+12 -4.07223e+12 -3.76914e+12 -5.8134e+12 -7.19658e+12 -5.86447e+12 -8.82215e+12 -6.22591e+12 -7.12891e+12 -7.10857e+12 -8.87405e+12 -8.75427e+12 -8.97986e+12 -9.96584e+12 -9.67872e+12 -9.07692e+12 -8.75532e+12 -7.76302e+12 -1.29598e+13 -7.78153e+12 -5.99799e+12 -7.1649e+12 -8.74395e+12 -1.05905e+13 -6.57576e+12 -5.1713e+12 -5.65442e+12 -8.75827e+12 -4.53942e+12 -4.84112e+12 -5.7715e+12 -4.28231e+12 -7.96253e+12 -5.15803e+12 -2.6999e+12 -5.15097e+12 -9.60399e+12 -4.64488e+12 -8.14399e+12 -1.34568e+13 -6.35858e+12 -1.16238e+13 -6.96622e+12 -1.10085e+13 -6.51088e+12 -7.02339e+12 -7.33201e+12 -3.38886e+12 -5.6614e+12 -6.74344e+12 -5.68701e+12 -4.1169e+12 -6.37131e+12 -1.08752e+13 -4.97061e+12 -7.12719e+12 -6.73641e+12 -1.02536e+13 -1.12143e+13 -7.13118e+12 -5.74021e+12 -6.36888e+12 -5.98981e+12 -6.19149e+12 -5.3615e+12 -5.2128e+12 -6.4646e+12 -5.37359e+12 -8.44725e+12 -6.90217e+12 -4.88905e+12 -8.13942e+12 -7.98324e+12 -2.77638e+12 -3.33935e+12 -5.59966e+12 -5.45471e+12 -4.72785e+12 -3.95917e+12 -4.47411e+12 -1.03215e+13 -5.67564e+12 -5.49122e+12 -5.19441e+12 -5.00603e+12 -3.5653e+12 -3.94268e+12 -9.62796e+12 -7.74504e+12 -5.87729e+12 -6.43362e+12 -4.58973e+12 -6.52708e+12 -4.89864e+12 -5.44456e+12 -3.13291e+12 -7.40355e+12 -7.77624e+12 -7.12955e+12 -6.62426e+12 -7.1292e+12 -6.02114e+12 -5.3444e+12 -6.6071e+12 -5.66844e+12 -5.49468e+12 -5.06156e+12 -5.24437e+12 -2.99641e+12 -7.57655e+12 -7.44743e+12 -3.66357e+12 -7.18603e+12 -5.97604e+12 -8.85591e+12 -5.36574e+12 -4.28113e+12 -6.1787e+12 -5.46376e+12 -4.04438e+12 -5.74415e+12 -8.18885e+12 -4.45663e+12 -1.04728e+13 -4.42077e+12 -6.21382e+12 -5.19502e+12 -8.72366e+12 -1.29584e+13 -7.20591e+12 -7.91293e+12 -4.1039e+12 -4.28071e+12 -7.15574e+12 -7.08905e+12 -9.45951e+12 -4.59219e+12 -1.29791e+13 -6.03858e+12 -4.17248e+12 -3.00607e+12 -5.03523e+12 -6.70011e+12 -7.33971e+12 -4.9761e+12 -8.56823e+12 -7.1333e+12 -1.2769e+13 -3.07412e+12 -5.41996e+12 -6.61114e+12 -7.57488e+12 -5.11481e+12 -5.84451e+12 -3.8701e+12 -7.12693e+12 -7.77826e+12 -7.2117e+12 -4.48474e+12 -9.77956e+12 -6.62359e+12 -6.14432e+12 -7.86066e+12 -6.48263e+12 -5.56575e+12 -9.95536e+12 -3.34731e+12 -5.27662e+12 -8.68747e+12 -6.70242e+12 -1.1051e+13 -5.38247e+12 -1.21485e+13 -5.82679e+12 -4.96721e+12 -5.03752e+12 -4.68483e+12 -6.24217e+12 -9.33229e+12 -5.72759e+12 -1.02848e+13 -1.09023e+13 -8.12061e+12 -7.14442e+12 -6.26691e+12 -3.91799e+12 -4.40933e+12 -8.28927e+12 -4.24256e+12 -6.81903e+12 -5.66478e+12 -3.80275e+12 -5.98072e+12 -7.26963e+12 -8.05662e+12 -5.96496e+12 -4.99717e+12 -6.16064e+12 -7.56106e+12 -7.60513e+12 -6.09416e+12 -7.62612e+12 -5.35858e+12 -6.45198e+12 -5.80386e+12 -6.75043e+12 -2.39395e+12 -5.21772e+12 -2.74182e+12 -5.058e+12 -2.08746e+12 -7.59943e+12 -4.08664e+12 -3.52915e+12 -9.89327e+12 -5.14201e+12 -5.1062e+12 -6.45282e+12 -4.53349e+12 -5.92325e+12 -9.2267e+12 -1.03819e+13 -2.98509e+12 -4.18053e+12 -6.35356e+12 -5.91566e+12 -5.1382e+12 -955956000000.0 -5.41846e+12 -9.26681e+12 -7.7829e+12 -5.76862e+12 -6.05427e+12 -2.04264e+12 -5.91187e+12 -5.92734e+12 -5.88021e+12 -4.48574e+12 -5.18568e+12 -6.32108e+12 -5.149e+12 -5.8372e+12 -5.82096e+12 -4.82828e+12 -4.40058e+12 -4.4775e+12 -4.21952e+12 -4.15682e+12 -5.76076e+12 -5.70219e+12 -4.53181e+12 -5.03402e+12 -7.18281e+12 -5.76571e+12 -3.23711e+12 -3.59859e+12 -2.98378e+12 -4.08883e+12 -3.88368e+12 -8.22513e+12 -2.68551e+12 -5.93444e+12 -2.35385e+12 -4.92167e+12 -4.07312e+12 -5.47263e+12 -3.79625e+12 -4.44298e+12 -7.43194e+12 -7.00447e+12 -4.48465e+12 -5.61675e+12 -6.05195e+12 -7.02816e+12 -3.6602e+12 -6.89215e+12 -7.78668e+12 -3.94305e+12 -3.91074e+12 -6.2878e+12 -7.29799e+12 -4.97695e+12 -7.32456e+12 -6.54991e+12 -8.14079e+12 -6.93494e+12 -7.7315e+12 -9.03809e+12 -1.1287e+13 -6.44954e+12 -3.15832e+12 -4.62593e+12 -4.74415e+12 -5.64378e+12 -9.76911e+12 -9.70133e+12 -1.28821e+13 -7.93024e+12 -8.2207e+12 -4.59084e+12 -8.24494e+12 -9.27443e+12 -1.36649e+13 -6.94892e+12 -3.72098e+12 -1.09095e+13 -6.70113e+12 -7.49759e+12 -5.81613e+12 -9.69255e+12 -5.29648e+12 -4.98301e+12 -5.79718e+12 -4.49606e+12 -5.67667e+12 -5.39184e+12 -5.01123e+12 -9.7417e+12 -9.46778e+12 -9.38383e+12 -7.18171e+12 -8.49978e+12 -6.91252e+12 -7.07549e+12 -3.80475e+12 -5.96786e+12 -7.0701e+12 -4.09091e+12 -3.60717e+12 -5.8376e+12 -5.8772e+12 -3.68743e+12 -4.63625e+12 -6.87116e+12 -7.34483e+12 -4.12899e+12 -6.4923e+12 -7.59292e+12 -7.91681e+12 -8.64797e+12 -6.58343e+12 -9.37178e+12 -6.63333e+12 -8.64331e+12 -5.78297e+12 -6.56915e+12 -4.85737e+12 -4.99482e+12 -7.0577e+12 -4.40318e+12 -3.95174e+12 -6.62254e+12 -6.39168e+12 -3.94323e+12 -6.79458e+12 -3.24333e+12 -9.40377e+12 -4.90076e+12 -8.61897e+12 -5.52244e+12 -9.0741e+12 -6.72725e+12 -6.56913e+12 -9.81131e+12 -6.6104e+12 -4.13231e+12 -3.09858e+12 -3.89036e+12 -4.10311e+12 -8.10565e+12 -6.55424e+12 -4.87545e+12 -1.61264e+12 -7.17198e+12 -6.52789e+12 -5.09845e+12 -3.7807e+12 -5.12643e+12 -3.32426e+12 -4.49829e+12 -4.68198e+12 -7.06708e+12 -6.7489e+12 -5.73914e+12 -5.83731e+12 -8.58515e+12 -5.11402e+12 -4.29954e+12 -1.85889e+12 -3.85921e+12 -5.57844e+12 -3.40698e+12 -4.9701e+12 -5.73801e+12 -6.05651e+12 -4.86437e+12 -2.93592e+12 -3.35238e+12 -3.54477e+12 -5.22915e+12 -4.70244e+12 -5.99373e+12 -3.00482e+12 -4.81596e+12 -6.54584e+12 -4.32496e+12 -6.32497e+12 -4.82922e+12 -5.33337e+12 -2.49838e+12 -4.37992e+12 -4.3929e+12 -8.29608e+12 -5.7221e+12 -4.677e+12 -4.29485e+12 -5.50621e+12 -4.66477e+12 -5.4624e+12 -3.87591e+12 -4.90746e+12 -5.12366e+12 -3.75686e+12 -4.13979e+12 -3.14498e+12 -5.28484e+12 -5.4932e+12 -4.64353e+12 -2.16209e+12 -4.86333e+12 -6.73578e+12 -6.41273e+12 -3.31041e+12 -6.41352e+12 -8.74037e+12 -5.66764e+12 -8.28486e+12 -1.09175e+13 -5.76651e+12 -5.35558e+12 -5.47225e+12 -6.78564e+12 -3.13761e+12 -7.53287e+12 -3.88999e+12 -4.5446e+12 -5.86434e+12 -5.51648e+12 -7.43678e+12 -8.32514e+12 -5.50009e+12 -8.98968e+12 -6.28788e+12 -3.87065e+12 -6.21136e+12 -3.74315e+12 -3.96858e+12 -6.34894e+12 -6.95899e+12 -6.02442e+12 -5.26243e+12 -9.12223e+12 -5.77958e+12 -6.40209e+12 -8.63604e+12 -9.49034e+12 -8.23763e+12 -6.68361e+12 -6.17642e+12 -4.64004e+12 -5.36123e+12 -4.63115e+12 -7.30464e+12 -5.37138e+12 -6.17269e+12 -1.2519e+13 -5.71399e+12 -1.04931e+13 -1.29167e+13 -5.88456e+12 -4.94496e+12 -7.36581e+12 -8.3019e+12 -7.36336e+12 -4.85379e+12 -5.55402e+12 -6.95247e+12 -5.57929e+12 -2.6549e+12 -5.18985e+12 -5.33627e+12 -6.3553e+12 -6.07948e+12 -6.09925e+12 -6.69134e+12 -6.28307e+12 -4.4669e+12 -3.94015e+12 -5.3208e+12 -4.02547e+12 -8.19003e+12 -5.93606e+12 -6.80791e+12 -8.30667e+12 -4.80756e+12 -6.44417e+12 -7.03334e+12 -6.54725e+12 -4.51391e+12 -7.52905e+12 -3.62528e+12 -5.97787e+12 -6.69909e+12 -5.83272e+12 -4.26818e+12 -5.62825e+12 -6.16593e+12 -9.55861e+12 -6.73406e+12 -5.21495e+12 -6.87751e+12 -8.04289e+12 -1.15715e+13 -9.77287e+12 -8.38752e+12 -5.4486e+12 -9.93864e+12 -2.89301e+12 -7.94244e+12 -6.2639e+12 -5.22977e+12 -5.67972e+12 -5.74624e+12 -5.88615e+12 -5.02609e+12 -7.79298e+12 -5.93733e+12 -6.56784e+12 -4.08061e+12 -4.91118e+12 -5.3328e+12 -7.15346e+12 -7.97807e+12 -4.88666e+12 -4.42603e+12 -6.50815e+12 -3.54732e+12 -5.63083e+12 -5.35944e+12 -5.26557e+12 -3.3245e+12 -2.63089e+12 -5.06421e+12 -4.98965e+12 -5.45055e+12 -4.05054e+12 -2.3635e+12 -4.94542e+12 -5.39857e+12 -5.14552e+12 -5.32975e+12 -5.21239e+12 -5.0715e+12 -4.72886e+12 -5.99368e+12 -2.80749e+12 -4.08103e+12 -5.1952e+12 -6.39968e+12 -4.46708e+12 -6.1892e+12 -7.68775e+12 -4.45102e+12 -4.59492e+12 -4.08241e+12 -5.96447e+12 -4.5664e+12 -4.68671e+12 -3.25382e+12 -3.89073e+12 -3.67401e+12 -5.52478e+12 -3.55015e+12 -6.46582e+12 -4.47386e+12 -8.03056e+12 -6.35222e+12 -5.41755e+12 -3.76896e+12 -3.44586e+12 -7.59686e+12 -3.09386e+12 -4.99602e+12 -8.95485e+12 -4.45324e+12 -7.02776e+12 -5.38291e+12 -5.08078e+12 -4.16436e+12 -4.27376e+12 -4.77986e+12 -6.85502e+12 -6.44239e+12 -6.4156e+12 -8.93031e+12 -6.32616e+12 -7.79909e+12 -5.89674e+12 -8.61873e+12 -1.2095e+13 -8.02847e+12 -6.8121e+12 -6.95408e+12 -6.01821e+12 -2.39543e+12 -1.01954e+13 -8.26958e+12 -1.0501e+13 -6.60542e+12 -4.83463e+12 -9.00791e+12 -1.49986e+13 -8.0386e+12 -5.3108e+12 -1.10982e+13 -9.61549e+12 -5.52215e+12 -7.96611e+12 -9.19466e+12 -4.95299e+12 -7.53349e+12 -3.49607e+12 -6.32974e+12 -3.80777e+12 -8.91497e+12 -4.63716e+12 -7.97758e+12 -4.95285e+12 -7.37358e+12 -5.8278e+12 -9.91839e+12 -9.94967e+12 -7.49394e+12 -6.22442e+12 -6.30276e+12 -8.7668e+12 -5.51155e+12 -7.39906e+12 -5.67533e+12 -4.92089e+12 -5.60268e+12 -5.36503e+12 -5.88918e+12 -5.78465e+12 -4.85371e+12 -7.64322e+12 -5.65963e+12 -9.45009e+12 -5.48568e+12 -4.87643e+12 -4.84915e+12 -3.61602e+12 -1.12614e+13 -6.52003e+12 -5.64718e+12 -8.33938e+12 -4.94324e+12 -3.10791e+12 -6.63224e+12 -7.9251e+12 -4.62901e+12 -4.30093e+12 -6.60808e+12 -3.15572e+12 -6.7675e+12 -2.60459e+12 -5.5229e+12 -4.6738e+12 -3.83245e+12 -5.55688e+12 -3.98427e+12 -5.21807e+12 -6.09559e+12 -4.75325e+12 -4.93682e+12 -7.83755e+12 -5.26266e+12 -3.09223e+12 -4.73306e+12 -3.70817e+12 -4.2968e+12 -2.48565e+12 -5.18468e+12 -3.28938e+12 -3.312e+12 -4.32754e+12 -4.58817e+12 -3.81921e+12 -4.76334e+12 -6.52956e+12 -4.23464e+12 -2.33006e+12 -3.28091e+12 -3.2721e+12 -3.3977e+12 -6.76673e+12 -3.23787e+12 -4.88113e+12 -8.25383e+12 -3.7199e+12 -5.78916e+12 -5.06435e+12 -6.6776e+12 -5.51227e+12 -5.22057e+12 -2.71832e+12 -5.842e+12 -7.15018e+12 -3.75714e+12 -5.70864e+12 -4.90778e+12 -6.78953e+12 -9.15364e+12 -4.15461e+12 -3.78659e+12 -5.4063e+12 -4.82206e+12 -8.62618e+12 -5.43916e+12 -3.87593e+12 -2.62916e+12 -4.7532e+12 -5.2837e+12 -6.62851e+12 -5.95329e+12 -5.56472e+12 -8.46804e+12 -8.13543e+12 -7.66362e+12 -5.92359e+12 -4.67645e+12 -5.80293e+12 -6.42883e+12 -5.06619e+12 -6.59401e+12 -3.65903e+12 -4.59327e+12 -7.43354e+12 -4.85014e+12 -4.65563e+12 -5.7225e+12 -6.78303e+12 -4.21209e+12 -5.79196e+12 -7.62859e+12 -6.69391e+12 -6.16708e+12 -9.71753e+12 -7.89854e+12 -8.26683e+12 -6.03496e+12 -6.82924e+12 -9.86889e+12 -1.1842e+13 -5.594e+12 -7.97636e+12 -7.65966e+12 -6.70924e+12 -1.2149e+13 -9.36228e+12 -6.06361e+12 -5.82197e+12 -6.91752e+12 -4.75058e+12 -4.13758e+12 -3.56927e+12 -3.55883e+12 -7.44205e+12 -6.16678e+12 -1.03929e+13 -6.87812e+12 -4.8845e+12 -5.70253e+12 -5.53572e+12 -9.1251e+12 -6.52085e+12 -5.11809e+12 -9.42316e+12 -6.74892e+12 -1.05252e+13 -9.28923e+12 -4.57618e+12 -7.38563e+12 -5.6398e+12 -5.49537e+12 -5.07603e+12 -4.22322e+12 -7.46935e+12 -4.79231e+12 -8.40879e+12 -3.1857e+12 -6.40949e+12 -6.40456e+12 -5.19224e+12 -7.06691e+12 -7.75457e+12 -2.96985e+12 -3.12494e+12 -2.20661e+12 -5.95521e+12 -2.96177e+12 -4.49412e+12 -6.8703e+12 -1.06597e+13 -7.33043e+12 -7.39622e+12 -6.38426e+12 -5.62565e+12 -6.37772e+12 -7.87573e+12 -2.47462e+12 -3.04013e+12 -5.2274e+12 -5.15307e+12 -4.62918e+12 -4.09468e+12 -3.11892e+12 -3.14579e+12 -5.59727e+12 -2.85053e+12 -4.86246e+12 -6.91415e+12 -2.3243e+12 -4.87199e+12 -3.81635e+12 -3.74675e+12 -5.20322e+12 -3.1882e+12 -6.15689e+12 -2.96897e+12 -4.27064e+12 -3.78747e+12 -5.14906e+12 -2.59599e+12 -3.16239e+12 -4.65058e+12 -4.50214e+12 -5.56427e+12 -3.64428e+12 -4.94296e+12 -3.60355e+12 -4.29682e+12 -5.31697e+12 -2.64199e+12 -5.6291e+12 -5.00834e+12 -6.08084e+12 -5.29051e+12 -4.56063e+12 -1.70984e+12 -3.943e+12 -2.63715e+12 -2.95292e+12 -3.85305e+12 -5.31005e+12 -5.82954e+12 -3.74261e+12 -4.807e+12 -4.27014e+12 -3.30841e+12 -2.91161e+12 -5.54843e+12 -5.55384e+12 -3.55115e+12 -7.3907e+12 -6.72137e+12 -2.65556e+12 -4.10668e+12 -1.88727e+12 -3.2027e+12 -5.29214e+12 -5.75619e+12 -7.14478e+12 -5.90647e+12 -4.35604e+12 -7.30988e+12 -5.74285e+12 -4.13107e+12 -3.46942e+12 -8.95939e+12 -5.5833e+12 -6.03087e+12 -6.65047e+12 -7.42367e+12 -8.09204e+12 -2.86325e+12 -7.20486e+12 -5.72238e+12 -7.42276e+12 -5.95021e+12 -4.51852e+12 -4.56071e+12 -6.34458e+12 -8.52467e+12 -6.73116e+12 -7.57852e+12 -6.5704e+12 -6.36021e+12 -893589000000.0 -6.64122e+12 -6.92196e+12 -8.39188e+12 -5.97752e+12 -6.49954e+12 -5.93796e+12 -6.09091e+12 -4.64281e+12 -3.57601e+12 -7.14343e+12 -7.99219e+12 -6.01677e+12 -7.98139e+12 -5.549e+12 -6.46661e+12 -8.12363e+12 -1.0034e+13 -1.19337e+13 -2.80997e+12 -6.61535e+12 -2.57471e+12 -4.33133e+12 -6.83623e+12 -5.96716e+12 -1.94787e+12 -1.89501e+12 -5.01304e+12 -4.93443e+12 -3.75226e+12 -1.04186e+13 -4.07361e+12 -4.97231e+12 -4.09079e+12 -5.85683e+12 -5.02142e+12 -5.5368e+12 -8.51964e+12 -7.04518e+12 -7.40852e+12 -9.49714e+12 -6.59843e+12 -2.81527e+12 -7.13208e+12 -4.6026e+12 -4.2032e+12 -4.99614e+12 -5.13987e+12 -5.22406e+12 -7.06075e+12 -3.89822e+12 -4.02488e+12 -4.8664e+12 -6.79932e+12 -4.13489e+12 -6.15292e+12 -9.16652e+12 -3.91123e+12 -5.45562e+12 -6.16831e+12 -6.3494e+12 -4.47745e+12 -5.68183e+12 -6.15606e+12 -3.82223e+12 -4.60778e+12 -4.98781e+12 -5.5121e+12 -6.09296e+12 -5.16083e+12 -4.20031e+12 -6.34832e+12 -9.05167e+12 -6.08103e+12 -4.13431e+12 -5.56655e+12 -5.93396e+12 -6.06193e+12 -4.00825e+12 -4.62973e+12 -5.4401e+12 -5.99199e+12 -6.1141e+12 -5.77136e+12 -3.21848e+12 -5.11744e+12 -4.81087e+12 -2.84697e+12 -3.64853e+12 -5.43322e+12 -3.3469e+12 -2.08084e+12 -3.46784e+12 -3.84997e+12 -2.22673e+12 -4.58086e+12 -4.4837e+12 -3.08066e+12 -3.20634e+12 -3.69289e+12 -2.8499e+12 -3.50579e+12 -3.51421e+12 -3.42881e+12 -3.38767e+12 -3.15458e+12 -4.92083e+12 -5.37579e+12 -4.15605e+12 -3.35965e+12 -4.8949e+12 -3.42724e+12 -2.73261e+12 -4.32558e+12 -3.43573e+12 -3.11796e+12 -1.83234e+12 -2.25521e+12 -4.0442e+12 -6.93778e+12 -5.35934e+12 -8.00696e+12 -4.75243e+12 -7.1515e+12 -6.65075e+12 -7.60883e+12 -5.38522e+12 -4.55847e+12 -6.1147e+12 -5.42389e+12 -5.31272e+12 -3.7513e+12 -7.25239e+12 -4.53093e+12 -4.27725e+12 -8.37925e+12 -5.36198e+12 -5.24276e+12 -4.07385e+12 -6.01972e+12 -5.87858e+12 -7.14427e+12 -6.53746e+12 -7.04114e+12 -9.46887e+12 -3.85307e+12 -5.43422e+12 -7.7328e+12 -3.2318e+12 -5.88529e+12 -5.24693e+12 -5.21508e+12 -5.61195e+12 -7.40984e+12 -6.99763e+12 -4.2485e+12 -5.84754e+12 -3.60491e+12 -4.73308e+12 -7.38536e+12 -3.07107e+12 -5.82137e+12 -5.09782e+12 -9.46501e+12 -4.33206e+12 -8.09755e+12 -6.95669e+12 -2.72881e+12 -5.31788e+12 -2.83224e+12 -2.97629e+12 -3.98501e+12 -6.99802e+12 -7.92231e+12 -5.2049e+12 -5.12917e+12 -5.691e+12 -3.12582e+12 -6.01703e+12 -5.36875e+12 -6.81328e+12 -4.62919e+12 -4.98602e+12 -6.10742e+12 -7.01503e+12 -4.06354e+12 -4.24078e+12 -4.88944e+12 -4.88009e+12 -4.98308e+12 -5.91937e+12 -4.69355e+12 -5.82729e+12 -6.13419e+12 -4.84016e+12 -7.6003e+12 -4.52918e+12 -3.99227e+12 -4.10741e+12 -6.22744e+12 -6.47983e+12 -4.30834e+12 -4.71205e+12 -4.89123e+12 -3.22208e+12 -5.00803e+12 -6.91439e+12 -4.64027e+12 -4.49184e+12 -5.61007e+12 -7.24142e+12 -6.28547e+12 -4.40646e+12 -5.96819e+12 -4.90871e+12 -5.01218e+12 -6.07743e+12 -5.83576e+12 -6.54323e+12 -1.85576e+12 -2.04797e+12 -6.33905e+12 -7.10339e+12 -3.39092e+12 -3.69425e+12 -3.41182e+12 -2.7827e+12 -4.11703e+12 -5.86639e+12 -2.55963e+12 -2.69548e+12 -4.94162e+12 -3.71614e+12 -4.96612e+12 -1.94474e+12 -4.18037e+12 -4.43591e+12 -1.85514e+12 -2.36738e+12 -1.60177e+12 -3.86971e+12 -3.21205e+12 -3.31121e+12 -4.1594e+12 -3.27345e+12 -3.12587e+12 -3.01687e+12 -2.7959e+12 -3.73615e+12 -1.93362e+12 -2.27576e+12 -1.7303e+12 -3.64884e+12 -2.99257e+12 -3.76872e+12 -2.6868e+12 -3.80686e+12 -5.53052e+12 -4.02912e+12 -3.66006e+12 -4.14883e+12 -3.73949e+12 -4.44438e+12 -3.62003e+12 -2.21173e+12 -2.67349e+12 -3.37949e+12 -3.64766e+12 -5.21366e+12 -3.82001e+12 -5.12306e+12 -5.73424e+12 -1.57193e+12 -3.93267e+12 -3.98046e+12 -5.64737e+12 -3.42919e+12 -2.18706e+12 -3.60734e+12 -3.55143e+12 -6.29898e+12 -4.14412e+12 -4.44192e+12 -5.99073e+12 -5.39037e+12 -6.43664e+12 -8.66334e+12 -6.33336e+12 -3.65605e+12 -4.0368e+12 -5.1079e+12 -5.81733e+12 -6.80317e+12 -5.6854e+12 -6.80073e+12 -5.78908e+12 -6.07246e+12 -7.17097e+12 -7.85196e+12 -5.34933e+12 -7.2071e+12 -4.59388e+12 -5.79168e+12 -3.10934e+12 -6.75494e+12 -4.9684e+12 -6.10945e+12 -8.17812e+12 -6.93463e+12 -7.73077e+12 -3.74703e+12 -5.33368e+12 -6.39543e+12 -3.52314e+12 -5.06957e+12 -5.5124e+12 -4.16592e+12 -8.80892e+12 -5.09429e+12 -5.5162e+12 -6.55842e+12 -5.54416e+12 -7.09715e+12 -6.19246e+12 -5.68613e+12 -3.65872e+12 -7.23618e+12 -4.73161e+12 -8.96936e+12 -4.00854e+12 -4.96098e+12 -7.27048e+12 -4.05245e+12 -1.78127e+12 -7.22994e+12 -7.13484e+12 -6.95063e+12 -8.62498e+12 -7.26113e+12 -4.86821e+12 -4.07829e+12 -8.69911e+12 -4.30073e+12 -5.40567e+12 -4.27321e+12 -4.82637e+12 -3.48274e+12 -4.11348e+12 -4.57746e+12 -5.20691e+12 -3.29695e+12 -3.46362e+12 -1.94397e+12 -4.72972e+12 -1.99092e+12 -6.54829e+12 -3.80757e+12 -9.59341e+12 -4.95851e+12 -5.15055e+12 -5.20481e+12 -7.14854e+12 -5.0237e+12 -5.46006e+12 -5.58495e+12 -6.99743e+12 -3.89199e+12 -4.59674e+12 -4.66843e+12 -6.14851e+12 -3.95431e+12 -2.58977e+12 -5.65042e+12 -4.8399e+12 -4.5176e+12 -4.8016e+12 -3.28744e+12 -5.44488e+12 -6.29661e+12 -4.03312e+12 -2.61474e+12 -3.9478e+12 -4.27474e+12 -2.41569e+12 -5.69644e+12 -3.2395e+12 -3.21444e+12 -2.65542e+12 -3.67582e+12 -2.60255e+12 -3.73187e+12 -2.07901e+12 -2.06196e+12 -2.68359e+12 -2.54878e+12 -2.42391e+12 -3.65404e+12 -3.69438e+12 -2.93135e+12 -2.91683e+12 -2.66242e+12 -2.92875e+12 -3.22181e+12 -2.56572e+12 -4.26535e+12 -6.25738e+12 -3.81821e+12 -4.69948e+12 -3.66862e+12 -2.3473e+12 -3.57821e+12 -4.67355e+12 -3.41947e+12 -3.4739e+12 -4.3857e+12 -4.90441e+12 -3.02273e+12 -3.14673e+12 -2.36636e+12 -2.86429e+12 -2.63129e+12 -6.89948e+12 -4.46121e+12 -4.17808e+12 -1.50625e+12 -3.72226e+12 -3.12911e+12 -5.17252e+12 -3.12848e+12 -5.00184e+12 -3.66912e+12 -7.18631e+12 -4.94675e+12 -2.23646e+12 -3.56743e+12 -3.51406e+12 -7.47506e+12 -6.72546e+12 -2.7626e+12 -7.16817e+12 -6.1596e+12 -2.99382e+12 -5.42974e+12 -3.98168e+12 -5.27359e+12 -4.10555e+12 -5.56403e+12 -5.55541e+12 -4.70843e+12 -4.04263e+12 -2.13248e+12 -3.94959e+12 -2.73451e+12 -3.8192e+12 -5.22522e+12 -8.62395e+12 -4.75075e+12 -4.6695e+12 -7.30878e+12 -6.44667e+12 -3.58162e+12 -3.26323e+12 -3.6651e+12 -6.79866e+12 -5.93166e+12 -7.97254e+12 -4.68375e+12 -5.1771e+12 -5.61462e+12 -4.50562e+12 -4.70313e+12 -7.48937e+12 -7.54606e+12 -5.16959e+12 -7.29555e+12 -6.37816e+12 -3.55721e+12 -2.25694e+12 -2.19457e+12 -4.32234e+12 -3.05715e+12 -7.00224e+12 -6.38854e+12 -3.93118e+12 -5.21287e+12 -5.47707e+12 -5.98947e+12 -4.1053e+12 -6.84813e+12 -4.68628e+12 -9.35645e+12 -5.15046e+12 -4.37787e+12 -3.06106e+12 -3.92984e+12 -5.2334e+12 -4.23626e+12 -5.44427e+12 -1.53342e+12 -4.23364e+12 -6.82267e+12 -3.32537e+12 -5.79663e+12 -5.07976e+12 -4.38856e+12 -2.05458e+12 -4.83772e+12 -5.40684e+12 -5.36674e+12 -5.55302e+12 -3.63939e+12 -4.15974e+12 -5.31135e+12 -3.3365e+12 -4.11456e+12 -3.40717e+12 -4.50209e+12 -4.59276e+12 -7.0161e+12 -5.87116e+12 -7.07893e+12 -7.18481e+12 -6.25657e+12 -6.73493e+12 -3.52216e+12 -1.34098e+12 -3.75001e+12 -3.10497e+12 -3.96586e+12 -2.26254e+12 -6.30117e+12 -4.43318e+12 -4.62514e+12 -2.34529e+12 -3.47162e+12 -3.25931e+12 -4.32873e+12 -4.49507e+12 -1.99975e+12 -3.05248e+12 -2.84471e+12 -1.68981e+12 -2.78685e+12 -3.94381e+12 -1.93726e+12 -1.61715e+12 -2.47747e+12 -1.45048e+12 -2.37912e+12 -1.975e+12 -2.25129e+12 -3.52927e+12 -2.33818e+12 -3.17306e+12 -1.64116e+12 -3.65547e+12 -3.25024e+12 -2.2784e+12 -3.42702e+12 -3.90888e+12 -6.03541e+12 -2.70179e+12 -3.7869e+12 -1.96766e+12 -2.98079e+12 -2.91958e+12 -1.15317e+12 -2.4681e+12 -2.33488e+12 -884051000000.0 -4.02135e+12 -4.0911e+12 -4.35326e+12 -2.67392e+12 -3.37807e+12 -1.55103e+12 -2.35854e+12 -4.78309e+12 -2.70401e+12 -3.77073e+12 -3.59478e+12 -2.88076e+12 -3.03121e+12 -4.0942e+12 -2.61765e+12 -1.97783e+12 -4.64532e+12 -2.19382e+12 -5.13131e+12 -6.54378e+12 -2.51106e+12 -1.64773e+12 -2.06665e+12 -2.43285e+12 -2.52005e+12 -7.22441e+12 -6.92543e+12 -2.13764e+12 -3.4839e+12 -3.56188e+12 -5.17419e+12 -5.47386e+12 -5.63994e+12 -4.95396e+12 -1.35792e+12 -4.51856e+12 -4.38044e+12 -2.88484e+12 -4.8123e+12 -5.73818e+12 -8.10553e+12 -4.75306e+12 -5.529e+12 -4.19412e+12 -4.67209e+12 -5.47765e+12 -6.14175e+12 -3.56425e+12 -8.55121e+12 -5.9526e+12 -4.35671e+12 -4.44061e+12 -4.6455e+12 -6.24042e+12 -3.85088e+12 -5.61608e+12 -6.28043e+12 -7.5464e+12 -4.37678e+12 -6.07776e+12 -2.53092e+12 -4.60879e+12 -6.33575e+12 -4.18926e+12 -3.23052e+12 -4.80816e+12 -4.89162e+12 -4.86596e+12 -5.82925e+12 -6.41289e+12 -5.47796e+12 -3.74188e+12 -7.27207e+12 -3.27772e+12 -5.14404e+12 -5.50141e+12 -2.06242e+12 -4.33298e+12 -1.13885e+12 -4.79487e+12 -4.72598e+12 -3.77414e+12 -5.12443e+12 -4.9985e+12 -3.41017e+12 -5.31569e+12 -4.25472e+12 -2.78069e+12 -3.72256e+12 -4.12711e+12 -5.18493e+12 -3.26156e+12 -2.26494e+12 -5.65811e+12 -5.10641e+12 -5.95314e+12 -3.49886e+12 -4.97924e+12 -2.89585e+12 -1.92423e+12 -4.24625e+12 -3.67337e+12 -4.68411e+12 -4.76283e+12 -2.84011e+12 -4.35412e+12 -2.90896e+12 -4.8252e+12 -4.34639e+12 -1.53676e+12 -4.32685e+12 -2.66464e+12 -2.45485e+12 -2.64332e+12 -3.59705e+12 -3.79355e+12 -3.15402e+12 -3.12737e+12 -2.87002e+12 -3.79674e+12 -1.89188e+12 -1.80142e+12 -2.40225e+12 -1.90844e+12 -3.51934e+12 -1.83643e+12 -737121000000.0 -2.62516e+12 -1.93396e+12 -1.274e+12 -1.59436e+12 -1.22692e+12 -3.41817e+12 -2.32436e+12 -2.76439e+12 -1.61491e+12 -2.35073e+12 -1.30107e+12 -2.56911e+12 -2.49826e+12 -2.30307e+12 -3.42704e+12 -2.38463e+12 -4.37031e+12 -3.17345e+12 -3.32525e+12 -2.65455e+12 -2.82592e+12 -2.40046e+12 -3.97497e+12 -2.24444e+12 -3.44072e+12 -3.19495e+12 -3.1347e+12 -2.64373e+12 -3.16499e+12 -3.29595e+12 -2.34492e+12 -3.98156e+12 -2.25635e+12 -4.16726e+12 -5.6227e+12 -3.17289e+12 -1.96071e+12 -3.30414e+12 -2.92806e+12 -2.49266e+12 -3.50286e+12 -4.54636e+12 -3.12986e+12 -3.26836e+12 -3.30376e+12 -1.67403e+12 -6.30934e+12 -6.2369e+12 -5.20263e+12 -3.26826e+12 -4.53491e+12 -1.47292e+12 -3.14461e+12 -4.48469e+12 -4.79162e+12 -6.82078e+12 -2.87683e+12 -6.91021e+12 -4.53618e+12 -4.60928e+12 -5.00434e+12 -7.1415e+12 -3.44664e+12 -2.81963e+12 -3.54167e+12 -3.13727e+12 -4.29927e+12 -3.44762e+12 -4.8286e+12 -5.04053e+12 -4.09276e+12 -3.97647e+12 -3.5971e+12 -6.75798e+12 -5.60917e+12 -5.58959e+12 -5.98586e+12 -3.83589e+12 -3.44677e+12 -3.62693e+12 -2.82633e+12 -1.45804e+12 -5.03397e+12 -4.21574e+12 -4.16043e+12 -5.94223e+12 -3.15516e+12 -5.07091e+12 -4.14838e+12 -4.91263e+12 -4.50964e+12 -5.74973e+12 -3.71353e+12 -2.49085e+12 -3.95468e+12 -3.64758e+12 -7.76228e+12 -3.06486e+12 -3.0418e+12 -3.46186e+12 -2.9647e+12 -3.99895e+12 -1.70478e+12 -3.86389e+12 -6.18088e+12 -4.21502e+12 -4.24983e+12 -5.17929e+12 -2.36592e+12 -3.30588e+12 -3.07811e+12 -6.0398e+12 -5.51147e+12 -3.17711e+12 -3.16047e+12 -4.4962e+12 -5.27666e+12 -3.79756e+12 -3.08383e+12 -2.74999e+12 -3.76621e+12 -2.39597e+12 -2.90375e+12 -2.32265e+12 -3.4e+12 -2.99819e+12 -3.87377e+12 -2.46223e+12 -2.49971e+12 -4.16315e+12 -3.39862e+12 -2.13808e+12 -1.17472e+12 -3.27554e+12 -3.04562e+12 -1.71309e+12 -2.06368e+12 -2.89613e+12 -2.9136e+12 -2.12776e+12 -3.72578e+12 -2.30355e+12 -1.13757e+12 -2.46615e+12 -2.79954e+12 -2.20076e+12 -2.36262e+12 -1.75848e+12 -2.38422e+12 -2.29441e+12 -1.43893e+12 -2.36224e+12 -2.94276e+12 -1.9796e+12 -1.82902e+12 -2.63789e+12 -2.9933e+12 -3.10064e+12 -1.69059e+12 -2.37754e+12 -1.94953e+12 -2.79782e+12 -2.71957e+12 -4.60642e+12 -3.31285e+12 -5.43444e+12 -3.1328e+12 -1.82061e+12 -2.35936e+12 -3.89927e+12 -2.99132e+12 -2.85971e+12 -2.39833e+12 -4.78639e+12 -3.79255e+12 -4.74128e+12 -1.35534e+12 -2.31707e+12 -3.99723e+12 -4.08283e+12 -5.2161e+12 -5.59901e+12 -1.81914e+12 -3.38174e+12 -2.6409e+12 -2.13036e+12 -4.99883e+12 -4.57598e+12 -5.53936e+12 -5.56493e+12 -5.74682e+12 -4.13034e+12 -3.69508e+12 -4.59193e+12 -3.19247e+12 -3.13879e+12 -3.97102e+12 -4.25886e+12 -4.66857e+12 -3.01489e+12 -4.87523e+12 -5.79363e+12 -2.42201e+12 -3.11421e+12 -5.06073e+12 -3.39846e+12 -2.08722e+12 -7.32199e+12 -3.57341e+12 -5.05449e+12 -3.12838e+12 -4.23458e+12 -3.34197e+12 -9.1177e+12 -2.67066e+12 -5.17837e+12 -2.90801e+12 -5.16053e+12 -7.48389e+12 -3.40894e+12 -446162000000.0 -5.40215e+12 -3.4138e+12 -2.90891e+12 -5.07571e+12 -5.58302e+12 -3.02819e+12 -4.07522e+12 -3.70219e+12 -2.0022e+12 -3.29607e+12 -3.91198e+12 -3.2232e+12 -3.63443e+12 -3.21575e+12 -3.19133e+12 -2.55666e+12 -3.14004e+12 -1.56831e+12 -2.2961e+12 -3.85032e+12 -2.23917e+12 -994339000000.0 -1.28257e+12 -2.1571e+12 -2.92815e+12 -2.15936e+12 -2.93415e+12 -1.99294e+12 -2.53468e+12 -1.89843e+12 -2.56171e+12 -1.24227e+12 -2.34966e+12 -1.4101e+12 -1.07114e+12 -2.95887e+12 -2.12392e+12 -1.55047e+12 -3.11726e+12 -1.45525e+12 -3.09607e+12 -2.76913e+12 -2.90003e+12 -1.15625e+12 -1.89983e+12 -2.47598e+12 -1.40757e+12 -3.11083e+12 -2.49491e+12 -1.84321e+12 -1.74898e+12 -1.75297e+12 -2.99875e+12 -1.17749e+12 -2.50308e+12 -2.73172e+12 -748522000000.0 -1.30316e+12 -1.44056e+12 -2.60265e+12 -2.31556e+12 -2.02972e+12 -2.03863e+12 -1.07298e+12 -3.0175e+12 -3.12675e+12 -1.58334e+12 -2.60096e+12 -2.2215e+12 -3.07757e+12 -3.8807e+12 -2.83348e+12 -4.01601e+12 -4.25919e+12 -5.14877e+12 -3.5301e+12 -1.25563e+12 -2.12968e+12 -2.06489e+12 -2.86058e+12 -2.07642e+12 -2.40536e+12 -3.40567e+12 -4.46486e+12 -1.47335e+12 -2.30696e+12 -3.99642e+12 -2.94204e+12 -782129000000.0 -3.50184e+12 -4.30346e+12 -2.79992e+12 -1.8056e+12 -5.42277e+12 -2.02374e+12 -3.13635e+12 -6.08596e+12 -4.536e+12 -2.90842e+12 -1.52967e+12 -2.25433e+12 -3.36477e+12 -4.69709e+12 -3.35296e+12 -4.27502e+12 -6.60974e+12 -4.55708e+12 -4.32144e+12 -4.8578e+12 -2.3694e+12 -5.8092e+12 -1.64914e+12 -3.01992e+12 -1.39786e+12 -1.69003e+12 -4.50037e+12 -3.92274e+12 -4.12734e+12 -5.41048e+12 -3.14818e+12 -3.12753e+12 -2.2648e+12 -2.80053e+12 -5.60738e+12 -5.06514e+12 -5.85122e+12 -3.85357e+12 -4.10283e+12 -5.72243e+12 -2.30352e+12 -3.29324e+12 -4.66071e+12 -1.60431e+12 -2.01035e+12 -1.59678e+12 -4.42457e+12 -3.93382e+12 -3.01953e+12 -1.51053e+12 -2.73811e+12 -3.0499e+12 -3.07572e+12 -1.56966e+12 -3.96925e+12 -2.09982e+12 -2.1013e+12 -2.30865e+12 -2.04892e+12 -1.3151e+12 -3.02177e+12 -3.48707e+12 -1.58065e+12 -1.81145e+12 -1.59209e+12 -3.0802e+12 -3.52842e+12 -2.18751e+12 -2.23497e+12 -1.31182e+12 -2.25258e+12 -2.61301e+12 -1.33078e+12 -1.21798e+12 -995327000000.0 -1.22147e+12 -2.64292e+12 -2.61197e+12 -1.78715e+12 -1.10477e+12 -2.60693e+12 -1.27739e+12 -2.46928e+12 -2.65887e+12 -1.27175e+12 -1.22745e+12 -2.3411e+12 -20166200000.0 -1.9854e+12 -2.64596e+12 -1.04824e+12 -1.2493e+12 -1.73414e+12 -626900000000.0 -2.0981e+12 -933253000000.0 -1.06223e+12 -2.08036e+12 -2.18478e+12 -2.1194e+12 -1.14074e+12 -1.46544e+12 -2.37501e+12 -1.83236e+12 -3.13518e+12 -2.1518e+12 -999807000000.0 -1.9191e+12 -3.26498e+12 -2.12393e+12 -2.70739e+12 -2.66355e+12 -756069000000.0 -2.6659e+12 -1.69362e+12 -4.3097e+12 -2.56979e+12 -3.29033e+12 -1.89113e+12 -3.19478e+12 -2.17932e+12 -1.53513e+12 -1.92152e+12 -1.95271e+12 -3.04437e+12 -2.13497e+12 -2.11304e+12 -1.87449e+12 -2.9076e+12 -3.43739e+12 -2.50782e+12 -1.41113e+12 -426555000000.0 -3.87306e+12 -2.97831e+12 -3.79529e+12 -2.84775e+12 -2.66104e+12 -3.91891e+12 -1.71876e+12 -1.18181e+12 -2.70448e+12 -2.12378e+12 -3.16147e+12 -937615000000.0 -3.96105e+12 -3.33248e+12 -3.04256e+12 -2.70926e+12 -5.5067e+12 -2.36757e+12 -4.24399e+12 -2.99209e+12 -3.54134e+12 -4.65316e+12 -1.38981e+12 -4.30511e+12 -3.70975e+12 -1.9815e+12 -2.75022e+12 -1.74643e+12 -3.79891e+12 -1.86487e+12 -1.18826e+12 -2.52106e+12 -2.44254e+12 -1.71501e+12 -3.16653e+12 -4.57237e+12 -2.63065e+12 -1.90497e+12 -4.74752e+12 -2.80464e+12 -2.63239e+12 -3.1792e+12 -2.0392e+12 -1.96749e+12 -655929000000.0 -2.93081e+12 -2.41811e+12 -1.89695e+12 -2.46255e+12 -1.4789e+12 -3.45511e+12 -1.44201e+12 -1.42915e+12 -1.99178e+12 -2.0755e+12 -2.28789e+12 -1.17964e+12 -2.74952e+12 -1.37823e+12 -2.4816e+12 -2.32208e+12 -1.53399e+12 -2.34257e+12 -1.37973e+12 -1.65004e+12 -1.76738e+12 -923147000000.0 -1.29437e+12 -1.46068e+12 -1.83354e+12 -616906000000.0 -1.16696e+12 -1.82436e+12 -1.28488e+12 -1.18407e+12 -1.16993e+12 -854221000000.0 -1.28578e+12 -881082000000.0 -1.67336e+12 -49260400000.0 -287248000000.0 -1.75535e+12 -455358000000.0 -1.28824e+12 -594665000000.0 -1.27243e+12 -561717000000.0 -1.28014e+12 -659176000000.0 -1.47591e+12 -262266000000.0 -428411000000.0 -1.00496e+12 -1.05893e+12 -644730000000.0 -1.62546e+12 -782641000000.0 -1.3705e+12 -1.11292e+12 -992292000000.0 -1.3386e+12 -1.0048e+12 -1.71658e+12 -1.16191e+12 -1.53591e+12 -2.93971e+12 -2.41282e+12 -2.86159e+12 -1.48526e+12 -2.77613e+12 -2.06754e+12 -1.15518e+12 -1.20353e+12 -2.00652e+12 -1.94588e+12 -988393000000.0 -2.54284e+12 -1.29991e+12 -2.44464e+12 -3.34342e+12 -4.33127e+12 -2.63481e+12 -1.07119e+12 -1.32305e+12 -2.99356e+12 -2.60485e+12 -2.31931e+12 -2.00313e+12 -1.65944e+12 -1.39252e+12 -3.21605e+12 -2.02904e+12 -1.87472e+12 -3.54113e+12 -2.23012e+12 -1.38302e+12 -2.42085e+12 -2.89397e+12 -2.71991e+12 -3.14161e+12 -1.41989e+12 -2.4941e+12 -3.76691e+12 -1.44116e+12 -4.64861e+12 -1.5255e+12 -1.79457e+12 -3.03814e+12 -1.53634e+12 -1.92184e+12 -5.67951e+12 -1.61541e+12 -1.98539e+12 -1.66339e+12 -1.93535e+12 -1.95517e+12 -2.02801e+12 -1.24808e+12 -2.25103e+12 -1.94731e+12 -810631000000.0 -3.77214e+12 -1.09825e+12 -3.12882e+12 -2.09168e+12 -1.74609e+12 -1.82372e+12 -2.48927e+12 -2.22573e+12 -2.49821e+12 -2.24118e+12 -3.70164e+12 -1.20909e+12 -1.98716e+12 -412073000000.0 -1.49596e+12 -2.47728e+12 -1.93227e+12 -2.70153e+12 -1.69048e+12 -1.86758e+12 -2.39927e+12 -2.86847e+12 -1.51121e+12 -434811000000.0 -1.84379e+12 -1.10862e+12 -2.18901e+12 -1.85966e+12 -1.84981e+12 -696430000000.0 -1.12192e+12 -2.1144e+12 -949262000000.0 -1.23524e+12 -677179000000.0 -695351000000.0 -559340000000.0 -886091000000.0 -470504000000.0 -599757000000.0 -643992000000.0 -880337000000.0 -505339000000.0 -415244000000.0 -733510000000.0 -982720000000.0 -1.16694e+12 -1.02019e+12 -958601000000.0 -782822000000.0 -892973000000.0 -105748000000.0 -1.06854e+12 -1.94367e+12 -739615000000.0 -684601000000.0 -1.62169e+12 -637708000000.0 -1.2351e+12 -1.79353e+12 -536541000000.0 -702642000000.0 -1.41859e+12 -1.25803e+12 -561114000000.0 -809785000000.0 -827692000000.0 -968218000000.0 -1.54225e+12 -1.67939e+12 -2.37057e+12 -918206000000.0 -1.44813e+12 -1.28732e+12 -289902000000.0 -1.06752e+12 -1.45413e+12 -1.16894e+12 -1.06439e+12 -1.6779e+12 -1.15525e+12 -1.63262e+12 -1.48366e+12 -1.54021e+12 -3.05179e+12 -2.43186e+12 -2.95553e+12 -2.27462e+12 -1.84143e+12 -3.11591e+12 -1.06386e+12 -1.64497e+12 -1.64425e+12 -3.16404e+12 -2.88776e+12 -2.51034e+12 -2.83929e+12 -4.67241e+12 -2.49851e+12 -1.94725e+12 -788826000000.0 -2.19396e+12 -2.29419e+12 -1.14504e+12 -2.51689e+12 -1.74843e+12 -4.64116e+12 -2.20741e+12 -1.66963e+12 -872542000000.0 -1.7016e+12 -1.58049e+12 -1.21164e+12 -718828000000.0 -2.80492e+12 -349664000000.0 -1.06779e+12 -1.34741e+12 -2.41333e+12 -1.01716e+12 -771088000000.0 -1.80025e+12 -956675000000.0 -1.82427e+12 -1.48189e+12 -1.60294e+12 -1.06854e+12 -883017000000.0 -985920000000.0 -1.61376e+12 -918689000000.0 -1.19811e+12 -1.37512e+12 -921422000000.0 -964474000000.0 -1.53095e+12 -577462000000.0 -1.20436e+12 -1.53108e+12 -2.03485e+12 -2.20074e+12 -2.35645e+12 -513064000000.0 -1.12748e+12 -1.17055e+12 -358200000000.0 -487338000000.0 -1.19458e+12 -437522000000.0 -579036000000.0 -687629000000.0 -295285000000.0 -325443000000.0 -1.27438e+12 -381824000000.0 -910197000000.0 -875050000000.0 -190774000000.0 -455775000000.0 -231662000000.0 -198703000000.0 -266887000000.0 -253410000000.0 -296760000000.0 -196038000000.0 -223302000000.0 -293893000000.0 -315923000000.0 -740468000000.0 -523770000000.0 -608103000000.0 -249597000000.0 -278519000000.0 -433518000000.0 -240230000000.0 -581817000000.0 -919442000000.0 -630161000000.0 -866638000000.0 -788630000000.0 -556418000000.0 -975817000000.0 -842296000000.0 -415339000000.0 -854956000000.0 -729312000000.0 -930770000000.0 -1.06977e+12 -1.90189e+12 -1.32977e+12 -872179000000.0 -924691000000.0 -1.00428e+12 -1.16287e+12 -875720000000.0 -954726000000.0 -1.52077e+12 -1.91306e+12 -932586000000.0 -2.5562e+12 -1.27228e+12 -1.23952e+12 -1.23729e+12 -1.57488e+12 -1.41491e+12 -1.19548e+12 -2.0908e+12 -2.47447e+12 -1.69129e+12 -2.83684e+12 -2.05815e+12 -1.39264e+12 -2.32811e+12 -2.06675e+12 -1.78332e+12 -1.56103e+12 -1.08454e+12 -1.88008e+12 -1.11476e+12 -1.37028e+12 -1.81882e+12 -532932000000.0 -1.08148e+12 -2.21149e+12 -743909000000.0 -990419000000.0 -677632000000.0 -2.6202e+12 -1.86147e+12 -1.46962e+12 -1.01989e+12 -449068000000.0 -856215000000.0 -1.88586e+12 -925016000000.0 -1.08017e+12 -1.02105e+12 -1.28749e+12 -703238000000.0 -1.14494e+12 -597945000000.0 -882955000000.0 -587177000000.0 -610422000000.0 -609361000000.0 -524811000000.0 -494938000000.0 -322633000000.0 -783547000000.0 -448303000000.0 -490567000000.0 -468725000000.0 -262021000000.0 -408615000000.0 -500674000000.0 -721630000000.0 -240993000000.0 -432735000000.0 -261101000000.0 -199662000000.0 -378388000000.0 -202899000000.0 -165103000000.0 -253573000000.0 -126898000000.0 -235226000000.0 -196102000000.0 -111179000000.0 -124603000000.0 -476027000000.0 -322552000000.0 -307269000000.0 -346049000000.0 -473953000000.0 -157783000000.0 -1.06861e+12 -253596000000.0 -720591000000.0 -657238000000.0 -607500000000.0 -377105000000.0 -1.15192e+12 -1.28659e+12 -901329000000.0 -1.54359e+12 -603083000000.0 -1.28962e+12 -277806000000.0 -1.1283e+12 -1.45843e+12 -1.10265e+12 -1.22016e+12 -1.15579e+12 -925889000000.0 -1.54219e+12 -2.10279e+12 -1.81955e+12 -1.68781e+12 -1.50815e+12 -2.50697e+12 -586248000000.0 -1.78242e+12 -1.7429e+12 -1.27983e+12 -1.35975e+12 -1.03247e+12 -2.06013e+12 -793721000000.0 -722549000000.0 -420095000000.0 -796869000000.0 -1.23843e+12 -876890000000.0 -1.02714e+12 -922782000000.0 -1.29225e+12 -475813000000.0 -831209000000.0 -739122000000.0 -403719000000.0 -684941000000.0 -856397000000.0 -828180000000.0 -704214000000.0 -803291000000.0 -226390000000.0 -310116000000.0 -429026000000.0 -384672000000.0 -1.07803e+12 -354979000000.0 -367674000000.0 -281206000000.0 -179540000000.0 -173213000000.0 -98021200000.0 -162068000000.0 -82967700000.0 -80383000000.0 -457856000000.0 -117922000000.0 -215025000000.0 -226939000000.0 -308908000000.0 -122763000000.0 -86098400000.0 -255906000000.0 -118029000000.0 -127548000000.0 -219007000000.0 -82665900000.0 -110229000000.0 -272641000000.0 -381897000000.0 -726220000000.0 -231409000000.0 -970598000000.0 -148869000000.0 -317581000000.0 -580985000000.0 -522306000000.0 -342259000000.0 -868400000000.0 -431099000000.0 -450273000000.0 -785575000000.0 -949609000000.0 -395016000000.0 -1.13064e+12 -745188000000.0 -556143000000.0 -893812000000.0 -970760000000.0 -677495000000.0 -768682000000.0 -658743000000.0 -755459000000.0 -532529000000.0 -270492000000.0 -44008100000.0 -144609000000.0 -675970000000.0 -61414100000.0 -713903000000.0 -459196000000.0 -244628000000.0 -248612000000.0 -173509000000.0 -77532200000.0 -514892000000.0 -182455000000.0 -251239000000.0 -173636000000.0 -255004000000.0 -56076900000.0 -242117000000.0 -267540000000.0 -227475000000.0 -189681000000.0 -170937000000.0 -354581000000.0 -349655000000.0 -295969000000.0 -187727000000.0 -130564000000.0 -354566000000.0 -149363000000.0 -350070000000.0 -299192000000.0 -184516000000.0 -110130000000.0 -139397000000.0 -85039100000.0 -106043000000.0 