# vtk DataFile Version 2.0
Time step 67
ASCII
DATASET UNSTRUCTURED_GRID
POINTS 5000 float
200154.0 225028.0 0
206895.0 224994.0 0
213479.0 224598.0 0
229557.0 224533.0 0
233485.0 223285.0 0
271568.0 224975.0 0
278142.0 223349.0 0
297574.0 223944.0 0
199143.0 230038.0 0
203257.0 228433.0 0
206328.0 228853.0 0
209990.0 228962.0 0
217570.0 228692.0 0
222054.0 225408.0 0
226326.0 227628.0 0
233336.0 226655.0 0
230195.0 229226.0 0
238054.0 226361.0 0
243874.0 226652.0 0
250394.0 228262.0 0
256537.0 226654.0 0
261653.0 228497.0 0
266687.0 227778.0 0
275537.0 228914.0 0
271026.0 229471.0 0
281092.0 228715.0 0
286429.0 226628.0 0
292317.0 225833.0 0
299103.0 229076.0 0
200426.0 235276.0 0
205204.0 232411.0 0
213738.0 232440.0 0
209250.0 235685.0 0
218462.0 234186.0 0
222719.0 230836.0 0
227645.0 233109.0 0
231967.0 234791.0 0
234815.0 230925.0 0
240004.0 231423.0 0
245176.0 232065.0 0
250155.0 233619.0 0
254162.0 233062.0 0
258146.0 231118.0 0
264177.0 231937.0 0
260795.0 234522.0 0
268543.0 232607.0 0
273480.0 233791.0 0
278550.0 232827.0 0
285473.0 231414.0 0
282467.0 232648.0 0
289225.0 230754.0 0
286521.0 235554.0 0
290532.0 234218.0 0
293961.0 231247.0 0
301488.0 234746.0 0
197148.0 238970.0 0
204799.0 238722.0 0
214231.0 237743.0 0
218941.0 238819.0 0
223407.0 236455.0 0
228686.0 238289.0 0
233545.0 239305.0 0
236430.0 235833.0 0
237785.0 240297.0 0
241687.0 236596.0 0
247306.0 236664.0 0
252084.0 237289.0 0
256837.0 237179.0 0
261043.0 238832.0 0
265445.0 236694.0 0
270105.0 236443.0 0
268940.0 239972.0 0
273474.0 239283.0 0
277064.0 236596.0 0
281543.0 236412.0 0
284811.0 240589.0 0
291869.0 238310.0 0
295872.0 235768.0 0
200595.0 242101.0 0
204958.0 245684.0 0
209811.0 241747.0 0
216282.0 243755.0 0
222846.0 242164.0 0
227054.0 242071.0 0
230742.0 242765.0 0
234851.0 242927.0 0
241259.0 243953.0 0
249677.0 241467.0 0
244922.0 240762.0 0
246538.0 245468.0 0
254391.0 241504.0 0
258932.0 242828.0 0
255594.0 245464.0 0
264627.0 242754.0 0
269410.0 244825.0 0
271014.0 242204.0 0
273806.0 243932.0 0
278840.0 241242.0 0
282596.0 244856.0 0
289422.0 242052.0 0
291331.0 245343.0 0
293200.0 242354.0 0
295010.0 245309.0 0
298465.0 241088.0 0
199301.0 246727.0 0
201974.0 249673.0 0
211271.0 247398.0 0
216697.0 249607.0 0
221385.0 247232.0 0
226869.0 246363.0 0
229529.0 250353.0 0
232725.0 247286.0 0
237165.0 245905.0 0
243990.0 248238.0 0
241063.0 248283.0 0
246787.0 249738.0 0
251382.0 245999.0 0
254470.0 249311.0 0
250432.0 250523.0 0
259627.0 248117.0 0
265964.0 249112.0 0
272113.0 247982.0 0
277915.0 247502.0 0
283142.0 248770.0 0
286950.0 245615.0 0
291011.0 249290.0 0
286824.0 249725.0 0
294932.0 248725.0 0
300009.0 247040.0 0
297860.0 250904.0 0
202300.0 253864.0 0
206851.0 251343.0 0
212474.0 252758.0 0
217601.0 255760.0 0
220869.0 251739.0 0
222522.0 255286.0 0
225449.0 251899.0 0
232637.0 251741.0 0
229818.0 254188.0 0
234231.0 255530.0 0
237362.0 251094.0 0
243125.0 252221.0 0
247667.0 253338.0 0
252787.0 254467.0 0
257031.0 252654.0 0
261634.0 253577.0 0
270460.0 252176.0 0
266130.0 254780.0 0
269451.0 255402.0 0
274660.0 251844.0 0
280691.0 251390.0 0
278094.0 252315.0 0
276754.0 254775.0 0
279985.0 254769.0 0
284080.0 253132.0 0
289079.0 253247.0 0
294050.0 253387.0 0
298373.0 254451.0 0
201937.0 257967.0 0
205498.0 256777.0 0
208501.0 260701.0 0
209279.0 255981.0 0
212875.0 258311.0 0
221706.0 259616.0 0
226302.0 257261.0 0
230768.0 258417.0 0
239678.0 256886.0 0
235284.0 260351.0 0
245022.0 256976.0 0
249251.0 256787.0 0
247815.0 260984.0 0
252553.0 259801.0 0
257472.0 257730.0 0
263183.0 258751.0 0
268472.0 259310.0 0
273202.0 256244.0 0
273318.0 260727.0 0
277640.0 258736.0 0
282576.0 258223.0 0
286759.0 256698.0 0
291071.0 257684.0 0
295352.0 257731.0 0
298501.0 257321.0 0
297872.0 260654.0 0
201644.0 261123.0 0
202350.0 264533.0 0
204468.0 260981.0 0
205698.0 265805.0 0
212526.0 262506.0 0
209686.0 265592.0 0
213758.0 265603.0 0
216840.0 262135.0 0
221430.0 264762.0 0
225650.0 262148.0 0
230912.0 263680.0 0
239380.0 261999.0 0
236513.0 265181.0 0
243521.0 261546.0 0
245978.0 264442.0 0
250781.0 265395.0 0
259983.0 261540.0 0
256169.0 263503.0 0
265157.0 263055.0 0
261160.0 265516.0 0
269607.0 264126.0 0
274035.0 264565.0 0
278041.0 263371.0 0
282398.0 262723.0 0
285309.0 265840.0 0
287064.0 261341.0 0
289856.0 265264.0 0
293531.0 261655.0 0
294253.0 265882.0 0
297837.0 264502.0 0
202718.0 269105.0 0
207224.0 269609.0 0
211965.0 269597.0 0
217064.0 267889.0 0
215014.0 271183.0 0
221941.0 270007.0 0
225917.0 266963.0 0
233701.0 267909.0 0
229857.0 268745.0 0
237462.0 270464.0 0
241642.0 266331.0 0
246141.0 268134.0 0
250350.0 270800.0 0
256249.0 269871.0 0
261976.0 270296.0 0
266225.0 268002.0 0
271666.0 268516.0 0
276335.0 268230.0 0
281071.0 266904.0 0
283998.0 270731.0 0
287583.0 268824.0 0
292027.0 270572.0 0
297297.0 269120.0 0
201745.0 272843.0 0
202600.0 276447.0 0
205201.0 272856.0 0
209062.0 273062.0 0
206725.0 276014.0 0
213033.0 273686.0 0
217740.0 273490.0 0
222890.0 275199.0 0
227086.0 272229.0 0
232375.0 271859.0 0
230320.0 275059.0 0
234888.0 275404.0 0
239315.0 275294.0 0
242375.0 271404.0 0
244212.0 276270.0 0
246372.0 272158.0 0
249053.0 275506.0 0
252952.0 274387.0 0
260512.0 273942.0 0
265069.0 273772.0 0
269214.0 271960.0 0
269903.0 276266.0 0
274092.0 273320.0 0
279214.0 271973.0 0
282360.0 274880.0 0
287751.0 273756.0 0
291817.0 275735.0 0
296467.0 274738.0 0
202991.0 281145.0 0
207903.0 280109.0 0
210680.0 276664.0 0
212625.0 280754.0 0
214857.0 277280.0 0
218942.0 278386.0 0
216361.0 280889.0 0
223172.0 279920.0 0
227159.0 277005.0 0
227469.0 281483.0 0
231534.0 278736.0 0
236689.0 280456.0 0
240801.0 278945.0 0
243931.0 280918.0 0
247732.0 279769.0 0
251998.0 279077.0 0
256904.0 277004.0 0
259841.0 281219.0 0
262111.0 277735.0 0
265953.0 278182.0 0
269229.0 280772.0 0
274027.0 279093.0 0
278214.0 276543.0 0
279266.0 281518.0 0
285061.0 277039.0 0
281987.0 278193.0 0
289047.0 278708.0 0
293375.0 279522.0 0
297440.0 279687.0 0
202600.0 286323.0 0
206284.0 284696.0 0
210508.0 284887.0 0
215650.0 285404.0 0
219655.0 282669.0 0
223505.0 284438.0 0
227724.0 286225.0 0
231867.0 283561.0 0
235826.0 285932.0 0
240966.0 282051.0 0
239820.0 285114.0 0
243377.0 284483.0 0
246534.0 283117.0 0
250129.0 283476.0 0
255292.0 283345.0 0
260102.0 285440.0 0
264371.0 282725.0 0
268321.0 284283.0 0
272071.0 283733.0 0
275571.0 283619.0 0
277992.0 285727.0 0
284933.0 281927.0 0
281826.0 286000.0 0
290492.0 283622.0 0
296275.0 284654.0 0
202759.0 290623.0 0
207335.0 289167.0 0
212018.0 289190.0 0
216807.0 290694.0 0
220245.0 287292.0 0
224410.0 288367.0 0
227723.0 291388.0 0
231572.0 288663.0 0
235387.0 290161.0 0
238787.0 289384.0 0
242319.0 288501.0 0
244643.0 291745.0 0
246777.0 287210.0 0
248409.0 291538.0 0
251893.0 288389.0 0
256960.0 288690.0 0
263252.0 287245.0 0
260834.0 290189.0 0
265131.0 291270.0 0
266710.0 287297.0 0
268665.0 290557.0 0
270602.0 287493.0 0
274877.0 287687.0 0
272241.0 291110.0 0
278987.0 289190.0 0
282576.0 289849.0 0
286530.0 287645.0 0
288723.0 291452.0 0
292028.0 288326.0 0
297032.0 290047.0 0
201525.0 294077.0 0
201981.0 296925.0 0
205928.0 294146.0 0
209646.0 292203.0 0
213016.0 292621.0 0
210808.0 295978.0 0
215463.0 295408.0 0
219009.0 294696.0 0
222010.0 291788.0 0
225219.0 294950.0 0
229362.0 296314.0 0
232946.0 293772.0 0
237179.0 292989.0 0
237347.0 296808.0 0
240683.0 293032.0 0
243524.0 295455.0 0
246909.0 295240.0 0
254764.0 292228.0 0
251369.0 294415.0 0
257939.0 293134.0 0
255437.0 295854.0 0
258724.0 296870.0 0
261327.0 294199.0 0
264876.0 295393.0 0
269239.0 294721.0 0
273624.0 294120.0 0
276174.0 291952.0 0
280330.0 293004.0 0
277088.0 296303.0 0
284505.0 292957.0 0
281298.0 296829.0 0
284522.0 296692.0 0
288572.0 295776.0 0
292604.0 292692.0 0
296727.0 295271.0 0
202703.0 301027.0 0
204951.0 297859.0 0
207891.0 297728.0 0
206860.0 300787.0 0
210760.0 300862.0 0
214422.0 299070.0 0
218791.0 299040.0 0
222219.0 296988.0 0
222659.0 301111.0 0
225865.0 298970.0 0
233519.0 298324.0 0
229980.0 300526.0 0
236481.0 301314.0 0
241017.0 296883.0 0
244427.0 298993.0 0
240352.0 300304.0 0
248849.0 298475.0 0
252891.0 298488.0 0
251033.0 301711.0 0
254252.0 301695.0 0
256343.0 299587.0 0
259404.0 300856.0 0
262109.0 298512.0 0
266194.0 299075.0 0
270236.0 299701.0 0
273070.0 297116.0 0
274490.0 300726.0 0
278497.0 300485.0 0
282850.0 300936.0 0
286512.0 299482.0 0
290227.0 301063.0 0
292580.0 297435.0 0
293498.0 300537.0 0
296930.0 300394.0 0
202117.0 305377.0 0
205279.0 304161.0 0
208729.0 304698.0 0
213871.0 303139.0 0
212080.0 305425.0 0
216815.0 302340.0 0
216624.0 306730.0 0
220063.0 303620.0 0
223459.0 305476.0 0
220612.0 307075.0 0
226756.0 303257.0 0
233111.0 302225.0 0
230659.0 304709.0 0
234539.0 305552.0 0
238944.0 305012.0 0
243053.0 303261.0 0
242514.0 306769.0 0
247092.0 302401.0 0
249870.0 305212.0 0
245984.0 306523.0 0
253010.0 304506.0 0
257318.0 304567.0 0
263097.0 303242.0 0
267444.0 302579.0 0
266829.0 305658.0 0
271151.0 304234.0 0
275878.0 304431.0 0
280112.0 305134.0 0
284175.0 304802.0 0
286786.0 303386.0 0
290115.0 305377.0 0
286929.0 307154.0 0
293843.0 303846.0 0
297694.0 304912.0 0
197272.0 308824.0 0
202266.0 309100.0 0
205478.0 307425.0 0
209117.0 308196.0 0
206321.0 310546.0 0
212798.0 308940.0 0
209854.0 311387.0 0
216659.0 311800.0 0
223632.0 308968.0 0
220216.0 310311.0 0
227614.0 307758.0 0
226234.0 312052.0 0
231264.0 307562.0 0
233541.0 309093.0 0
230625.0 311733.0 0
236872.0 309097.0 0
240522.0 309346.0 0
244029.0 309724.0 0
249287.0 308570.0 0
246805.0 310217.0 0
253604.0 308632.0 0
257710.0 310134.0 0
260977.0 307309.0 0
264741.0 308123.0 0
261933.0 311530.0 0
268902.0 308749.0 0
265674.0 311771.0 0
273539.0 308059.0 0
271948.0 311884.0 0
277459.0 308516.0 0
280415.0 309572.0 0
275916.0 311773.0 0
283533.0 308407.0 0
282876.0 311465.0 0
289887.0 309269.0 0
286522.0 311444.0 0
293708.0 308036.0 0
294999.0 311881.0 0
297751.0 308453.0 0
298393.0 311338.0 0
203091.0 313314.0 0
202006.0 317106.0 0
207782.0 314333.0 0
212785.0 312348.0 0
211685.0 315400.0 0
215753.0 316197.0 0
222626.0 312661.0 0
220256.0 315599.0 0
224586.0 316098.0 0
228595.0 315945.0 0
232390.0 316069.0 0
234725.0 312785.0 0
238429.0 312910.0 0
236245.0 316573.0 0
242186.0 313052.0 0
244158.0 316383.0 0
240207.0 317183.0 0
245897.0 313162.0 0
247499.0 316955.0 0
250171.0 312921.0 0
254732.0 313650.0 0
251555.0 317113.0 0
258829.0 313918.0 0
256849.0 316427.0 0
262820.0 315745.0 0
268788.0 312678.0 0
266943.0 315847.0 0
274191.0 314813.0 0
270777.0 315679.0 0
279399.0 312817.0 0
276947.0 315671.0 0
280030.0 317176.0 0
283161.0 314827.0 0
287082.0 315855.0 0
291113.0 312823.0 0
294830.0 315473.0 0
297908.0 314196.0 0
297990.0 317188.0 0
202882.0 320841.0 0
205874.0 317744.0 0
207410.0 321935.0 0
210269.0 319031.0 0
214419.0 319821.0 0
218568.0 319262.0 0
222840.0 319536.0 0
220329.0 321869.0 0
226564.0 318722.0 0
230269.0 319601.0 0
234338.0 319927.0 0
238182.0 320573.0 0
243643.0 321233.0 0
248912.0 320899.0 0
254676.0 317872.0 0
252767.0 320298.0 0
259354.0 317729.0 0
256831.0 321427.0 0
261819.0 320114.0 0
265420.0 319629.0 0
269631.0 319413.0 0
273792.0 318508.0 0
277131.0 318245.0 0
279360.0 320399.0 0
276521.0 320886.0 0
283529.0 319579.0 0
287646.0 320708.0 0
291415.0 317482.0 0
295165.0 319098.0 0
292519.0 322010.0 0
297919.0 320385.0 0
302750.0 322557.0 0
202250.0 324530.0 0
205440.0 324679.0 0
208435.0 327182.0 0
212006.0 323903.0 0
216764.0 322859.0 0
215949.0 326894.0 0
222553.0 323627.0 0
219757.0 325405.0 0
223339.0 326648.0 0
226801.0 322974.0 0
232167.0 323151.0 0
230644.0 326358.0 0
234606.0 327545.0 0
235890.0 323724.0 0
238521.0 326891.0 0
239621.0 323747.0 0
242928.0 326574.0 0
247028.0 324931.0 0
251925.0 324211.0 0
256943.0 326842.0 0
261020.0 323519.0 0
264075.0 322950.0 0
261601.0 327332.0 0
265140.0 326449.0 0
267750.0 323092.0 0
272696.0 323586.0 0
277435.0 324134.0 0
281186.0 323076.0 0
284767.0 324594.0 0
288873.0 324113.0 0
292133.0 326062.0 0
296898.0 323897.0 0
298162.0 327544.0 0
203077.0 328382.0 0
202950.0 332561.0 0
207079.0 331314.0 0
212591.0 327766.0 0
214082.0 329932.0 0
211099.0 330596.0 0
217045.0 330057.0 0
220312.0 329208.0 0
224025.0 330688.0 0
226819.0 328459.0 0
228308.0 332536.0 0
230887.0 330143.0 0
233463.0 332188.0 0
237014.0 330533.0 0
240067.0 329783.0 0
243198.0 330691.0 0
246128.0 328595.0 0
249086.0 327705.0 0
246310.0 331700.0 0
249655.0 331543.0 0
252851.0 328844.0 0
254021.0 332412.0 0
257844.0 331694.0 0
261944.0 331138.0 0
269540.0 327754.0 0
265827.0 330851.0 0
269593.0 332454.0 0
275068.0 328390.0 0
271947.0 330261.0 0
280138.0 328033.0 0
277637.0 332250.0 0
284534.0 328710.0 0
282486.0 332533.0 0
288157.0 328206.0 0
294968.0 327697.0 0
292224.0 330378.0 0
296748.0 331315.0 0
304194.0 328326.0 0
201533.0 335554.0 0
208248.0 334531.0 0
204898.0 335456.0 0
211977.0 333678.0 0
210212.0 337451.0 0
213633.0 336704.0 0
215655.0 332904.0 0
216760.0 336914.0 0
220234.0 333815.0 0
224987.0 334494.0 0
228047.0 336162.0 0
231040.0 335334.0 0
234532.0 336917.0 0
236613.0 333953.0 0
238362.0 337851.0 0
240141.0 333748.0 0
244026.0 334876.0 0
241787.0 337803.0 0
248392.0 335429.0 0
252062.0 335478.0 0
259147.0 335373.0 0
255854.0 335706.0 0
262300.0 334475.0 0
266335.0 335765.0 0
273761.0 333262.0 0
270689.0 336713.0 0
273440.0 337744.0 0
275628.0 336191.0 0
279661.0 336405.0 0
284320.0 337432.0 0
287724.0 333521.0 0
292960.0 335264.0 0
297788.0 335007.0 0
197681.0 340488.0 0
202484.0 338239.0 0
202375.0 341477.0 0
206488.0 338790.0 0
205359.0 341748.0 0
212760.0 339927.0 0
209253.0 341093.0 0
216340.0 340027.0 0
219118.0 340597.0 0
219804.0 338137.0 0
223062.0 338334.0 0
222380.0 342234.0 0
226760.0 338904.0 0
226377.0 342472.0 0
230069.0 338964.0 0
232950.0 339706.0 0
229909.0 342372.0 0
235827.0 340192.0 0
238094.0 342221.0 0
240321.0 340414.0 0
243463.0 341263.0 0
246127.0 338592.0 0
248593.0 341729.0 0
250137.0 338761.0 0
253514.0 339096.0 0
251964.0 342366.0 0
257551.0 338981.0 0
255437.0 342905.0 0
260064.0 342519.0 0
262068.0 338476.0 0
264818.0 340021.0 0
263871.0 342101.0 0
266972.0 339654.0 0
269456.0 339965.0 0
266596.0 342465.0 0
272508.0 340740.0 0
275957.0 340131.0 0
279496.0 340818.0 0
282873.0 340553.0 0
288100.0 338908.0 0
286034.0 342657.0 0
289593.0 342869.0 0
292362.0 339650.0 0
294622.0 342708.0 0
297316.0 338259.0 0
297951.0 341273.0 0
202285.0 344666.0 0
202332.0 347734.0 0
207657.0 343015.0 0
205336.0 344661.0 0
208749.0 345009.0 0
206519.0 347455.0 0
210978.0 343217.0 0
211222.0 346118.0 0
214118.0 346939.0 0
214628.0 343370.0 0
218374.0 343106.0 0
217319.0 346022.0 0
220453.0 345380.0 0
224174.0 346010.0 0
220738.0 347937.0 0
228073.0 345448.0 0
233623.0 343065.0 0
231365.0 346202.0 0
234637.0 348009.0 0
236467.0 345490.0 0
239484.0 347295.0 0
241128.0 343976.0 0
243869.0 347063.0 0
245530.0 344017.0 0
248737.0 345121.0 0
251579.0 345097.0 0
254507.0 347026.0 0
257738.0 345290.0 0
260485.0 346450.0 0
264083.0 345642.0 0
269506.0 343229.0 0
267309.0 345642.0 0
270228.0 346381.0 0
273006.0 344359.0 0
276804.0 344078.0 0
276274.0 347928.0 0
281375.0 344881.0 0
286267.0 346914.0 0
290293.0 346846.0 0
291942.0 343893.0 0
294229.0 346622.0 0
297983.0 344302.0 0
297543.0 347097.0 0
202663.0 350785.0 0
206109.0 350777.0 0
210089.0 348977.0 0
214244.0 350227.0 0
209944.0 353015.0 0
217878.0 349008.0 0
219407.0 352022.0 0
223172.0 350287.0 0
227214.0 348550.0 0
227678.0 352201.0 0
231209.0 350338.0 0
234711.0 351179.0 0
237121.0 349577.0 0
240383.0 350146.0 0
243202.0 350642.0 0
247948.0 348514.0 0
246426.0 352255.0 0
251332.0 348785.0 0
253920.0 351886.0 0
250459.0 353108.0 0
257970.0 348232.0 0
256646.0 350383.0 0
259430.0 350812.0 0
261359.0 349118.0 0
264577.0 349732.0 0
268114.0 348379.0 0
266852.0 352072.0 0
270454.0 351068.0 0
272787.0 348208.0 0
279476.0 348353.0 0
279918.0 351483.0 0
276027.0 351381.0 0
283101.0 349190.0 0
284565.0 351881.0 0
287302.0 350660.0 0
290979.0 350656.0 0
294377.0 349861.0 0
294567.0 352598.0 0
297657.0 350055.0 0
297575.0 352999.0 0
303051.0 353452.0 0
196515.0 354121.0 0
202489.0 353998.0 0
201774.0 356628.0 0
205976.0 354144.0 0
204923.0 356765.0 0
208122.0 356861.0 0
211967.0 357344.0 0
215406.0 354156.0 0
218168.0 357423.0 0
220842.0 354984.0 0
224390.0 354218.0 0
223059.0 357573.0 0
228937.0 355398.0 0
226682.0 358388.0 0
231847.0 354056.0 0
234619.0 354109.0 0
233739.0 357875.0 0
238314.0 353577.0 0
237570.0 358368.0 0
242065.0 353427.0 0
244003.0 355324.0 0
241542.0 357915.0 0
247272.0 356132.0 0
251035.0 357523.0 0
254531.0 356326.0 0
257723.0 354231.0 0
259927.0 358074.0 0
262412.0 353598.0 0
265526.0 355632.0 0
269058.0 354951.0 0
273361.0 353230.0 0
271532.0 357721.0 0
275183.0 356059.0 0
277704.0 354310.0 0
279868.0 356572.0 0
276752.0 358000.0 0
282070.0 353896.0 0
284165.0 355713.0 0
287068.0 354383.0 0
290463.0 353832.0 0
287531.0 358148.0 0
293682.0 354374.0 0
290911.0 356792.0 0
293805.0 356748.0 0
297394.0 355899.0 0
195692.0 359039.0 0
202927.0 359502.0 0
202208.0 362542.0 0
206980.0 359479.0 0
206984.0 361871.0 0
204997.0 362438.0 0
210299.0 360308.0 0
210307.0 363121.0 0
214750.0 360025.0 0
214036.0 363105.0 0
217913.0 361613.0 0
221291.0 360401.0 0
224866.0 361357.0 0
229722.0 361466.0 0
230597.0 358286.0 0
233160.0 361457.0 0
235860.0 361443.0 0
238575.0 362859.0 0
240915.0 361578.0 0
243431.0 363056.0 0
244951.0 359555.0 0
248355.0 360885.0 0
251153.0 362960.0 0
253391.0 360771.0 0
256431.0 359677.0 0
263209.0 358912.0 0
260302.0 362286.0 0
262915.0 362471.0 0
267094.0 360261.0 0
274125.0 360138.0 0
270614.0 361954.0 0
272838.0 362869.0 0
277196.0 361446.0 0
280373.0 360033.0 0
283645.0 358684.0 0
281603.0 362893.0 0
284314.0 362012.0 0
286775.0 361576.0 0
290883.0 360138.0 0
293929.0 359832.0 0
294993.0 362907.0 0
297426.0 358959.0 0
298350.0 361532.0 0
202860.0 365516.0 0
206157.0 367921.0 0
207106.0 365169.0 0
212912.0 366947.0 0
216706.0 367446.0 0
217692.0 364385.0 0
221343.0 364246.0 0
224584.0 365639.0 0
220280.0 367747.0 0
227701.0 364129.0 0
232691.0 364498.0 0
230302.0 367025.0 0
235672.0 363741.0 0
235725.0 366847.0 0
239204.0 366212.0 0
242311.0 366628.0 0
246977.0 364191.0 0
245653.0 367011.0 0
248043.0 367292.0 0
250204.0 365949.0 0
253073.0 366516.0 0
254039.0 364037.0 0
257236.0 363586.0 0
256796.0 367606.0 0
260430.0 366688.0 0
263453.0 365873.0 0
266692.0 364722.0 0
269872.0 365095.0 0
267179.0 368282.0 0
274545.0 365035.0 0
271627.0 367189.0 0
278622.0 365398.0 0
281783.0 366798.0 0
284208.0 364884.0 0
289484.0 363503.0 0
286907.0 366369.0 0
292901.0 365453.0 0
297785.0 366620.0 0
297937.0 364092.0 0
201926.0 372976.0 0
202853.0 369233.0 0
205386.0 371587.0 0
208218.0 370612.0 0
209771.0 367692.0 0
210949.0 373926.0 0
210932.0 371364.0 0
213556.0 370728.0 0
219379.0 370941.0 0
216813.0 370684.0 0
224073.0 369838.0 0
227759.0 368639.0 0
228153.0 371644.0 0
233614.0 369514.0 0
230819.0 371891.0 0
237825.0 369351.0 0
238878.0 372056.0 0
239803.0 369786.0 0
236085.0 372372.0 0
242686.0 370426.0 0
240948.0 372830.0 0
249820.0 369722.0 0
246476.0 369818.0 0
245517.0 373378.0 0
249079.0 373592.0 0
253962.0 370355.0 0
258006.0 372451.0 0
260975.0 370589.0 0
264486.0 369301.0 0
269564.0 369910.0 0
265298.0 371757.0 0
268013.0 373463.0 0
273073.0 371632.0 0
274461.0 368917.0 0
277371.0 368859.0 0
275486.0 372821.0 0
279133.0 372106.0 0
282394.0 370161.0 0
285127.0 368920.0 0
289540.0 368929.0 0
287103.0 371483.0 0
294156.0 368519.0 0
293892.0 372508.0 0
291546.0 371217.0 0
297084.0 369737.0 0
297728.0 372581.0 0
194679.0 380389.0 0
199303.0 377964.0 0
200485.0 375680.0 0
197480.0 379736.0 0
201206.0 379681.0 0
204495.0 374363.0 0
203261.0 377085.0 0
207314.0 375823.0 0
208637.0 373826.0 0
210216.0 376955.0 0
206989.0 378681.0 0
212670.0 376540.0 0
214270.0 373884.0 0
215043.0 377958.0 0
216950.0 374315.0 0
219759.0 373968.0 0
218081.0 378066.0 0
223597.0 374261.0 0
221538.0 378320.0 0
227377.0 374633.0 0
225220.0 378959.0 0
228666.0 378769.0 0
230654.0 375603.0 0
233567.0 374108.0 0
234005.0 377292.0 0
237226.0 375920.0 0
240286.0 376107.0 0
243163.0 375317.0 0
244075.0 377647.0 0
247729.0 378364.0 0
252784.0 374443.0 0
251761.0 377966.0 0
256123.0 375828.0 0
256647.0 378872.0 0
260078.0 376605.0 0
262575.0 374053.0 0
264909.0 375932.0 0
263383.0 377890.0 0
267466.0 378137.0 0
271187.0 374803.0 0
273657.0 375150.0 0
270965.0 378502.0 0
274152.0 378728.0 0
275765.0 375869.0 0
278844.0 376700.0 0
282408.0 375262.0 0
284811.0 373358.0 0
283832.0 378322.0 0
280815.0 379256.0 0
286805.0 375154.0 0
286769.0 378070.0 0
289573.0 374072.0 0
289350.0 377064.0 0
294070.0 377232.0 0
292006.0 375148.0 0
291374.0 378960.0 0
297795.0 375463.0 0
295279.0 374410.0 0
298945.0 376656.0 0
300968.0 378641.0 0
303377.0 379450.0 0
305226.0 380809.0 0
190394.0 383264.0 0
186688.0 385529.0 0
188744.0 384756.0 0
192904.0 382304.0 0
193846.0 384425.0 0
197300.0 382282.0 0
199192.0 384020.0 0
205166.0 380371.0 0
202601.0 382077.0 0
202317.0 385336.0 0
206356.0 383687.0 0
209753.0 380256.0 0
209471.0 383250.0 0
212600.0 380220.0 0
214329.0 381612.0 0
213860.0 384338.0 0
217831.0 382108.0 0
221421.0 385744.0 0
221227.0 382661.0 0
224289.0 382299.0 0
229429.0 382864.0 0
226626.0 384444.0 0
232434.0 380360.0 0
234985.0 382360.0 0
237054.0 379870.0 0
239818.0 380289.0 0
240047.0 383746.0 0
242331.0 379483.0 0
243110.0 383907.0 0
249830.0 381760.0 0
245259.0 381830.0 0
247886.0 384213.0 0
253770.0 379865.0 0
252350.0 382484.0 0
255162.0 383240.0 0
258219.0 382047.0 0
261287.0 380076.0 0
262901.0 382985.0 0
264998.0 380361.0 0
266819.0 382583.0 0
270205.0 382713.0 0
273590.0 381750.0 0
276930.0 380047.0 0
279139.0 381599.0 0
275937.0 383321.0 0
281341.0 382893.0 0
283779.0 381633.0 0
285974.0 383416.0 0
287574.0 380702.0 0
290472.0 381230.0 0
289034.0 384062.0 0
292222.0 383487.0 0
295758.0 379759.0 0
298337.0 383855.0 0
294365.0 382381.0 0
301589.0 382853.0 0
298850.0 380632.0 0
300189.0 385786.0 0
307402.0 381944.0 0
304153.0 383641.0 0
305846.0 385831.0 0
309108.0 383117.0 0
310955.0 385134.0 0
313431.0 386024.0 0
178178.0 391125.0 0
182489.0 388104.0 0
184825.0 386822.0 0
180898.0 390247.0 0
184857.0 388758.0 0
185770.0 390572.0 0
187452.0 387416.0 0
190632.0 386327.0 0
188045.0 388912.0 0
190765.0 389217.0 0
194895.0 386500.0 0
193432.0 389246.0 0
195887.0 389870.0 0
197921.0 386489.0 0
198553.0 388982.0 0
200282.0 391003.0 0
202380.0 387870.0 0
204681.0 389308.0 0
206594.0 386625.0 0
208610.0 388458.0 0
211471.0 384991.0 0
211890.0 388171.0 0
214810.0 388045.0 0
216752.0 385669.0 0
219130.0 387403.0 0
222080.0 388603.0 0
223886.0 385690.0 0
224269.0 387734.0 0
223829.0 390367.0 0
227007.0 387673.0 0
229881.0 388413.0 0
231101.0 385558.0 0
233938.0 385262.0 0
237569.0 384386.0 0
240030.0 387621.0 0
236151.0 388370.0 0
243772.0 387328.0 0
246888.0 387205.0 0
249516.0 389408.0 0
251314.0 385610.0 0
254637.0 386695.0 0
258132.0 386013.0 0
257231.0 389037.0 0
260790.0 384583.0 0
262256.0 388142.0 0
265247.0 385674.0 0
269105.0 387084.0 0
272957.0 385244.0 0
274731.0 388344.0 0
277509.0 385695.0 0
280923.0 386159.0 0
283966.0 385907.0 0
279469.0 389376.0 0
282494.0 389479.0 0
286809.0 387620.0 0
289935.0 387740.0 0
292310.0 386551.0 0
296206.0 384911.0 0
295201.0 387508.0 0
301918.0 386937.0 0
303766.0 388343.0 0
298700.0 387367.0 0
300806.0 388735.0 0
299079.0 390102.0 0
302993.0 390546.0 0
308524.0 387488.0 0
306406.0 390266.0 0
310496.0 389749.0 0
313230.0 389364.0 0
315569.0 387855.0 0
317929.0 389270.0 0
320274.0 391136.0 0
171811.0 395322.0 0
173886.0 394174.0 0
176144.0 392959.0 0
178389.0 394337.0 0
175943.0 396382.0 0
180644.0 395812.0 0
182199.0 392168.0 0
184423.0 396113.0 0
186371.0 393558.0 0
189607.0 392484.0 0
193620.0 392245.0 0
195975.0 392217.0 0
191872.0 394722.0 0
194896.0 395396.0 0
197591.0 393766.0 0
198793.0 395598.0 0
205363.0 392088.0 0
202404.0 392789.0 0
202006.0 395608.0 0
208210.0 392294.0 0
209096.0 395099.0 0
211706.0 391477.0 0
213955.0 393607.0 0
215914.0 390713.0 0
218572.0 390688.0 0
216723.0 395007.0 0
220992.0 392061.0 0
223066.0 394015.0 0
225942.0 390681.0 0
226359.0 394674.0 0
228855.0 391874.0 0
232793.0 389912.0 0
232125.0 393674.0 0
235704.0 393573.0 0
238188.0 391708.0 0
241029.0 391035.0 0
244194.0 391269.0 0
240471.0 394827.0 0
247006.0 392532.0 0
249345.0 394143.0 0
253257.0 391757.0 0
257202.0 392761.0 0
259971.0 390433.0 0
264227.0 393554.0 0
261018.0 393532.0 0
266050.0 390445.0 0
271643.0 389871.0 0
269235.0 392453.0 0
273200.0 392669.0 0
275221.0 392727.0 0
277105.0 390741.0 0
278866.0 393770.0 0
281519.0 392217.0 0
283543.0 395597.0 0
285503.0 390450.0 0
285184.0 393471.0 0
289075.0 392358.0 0
293062.0 391281.0 0
290774.0 390830.0 0
292927.0 394105.0 0
296170.0 390533.0 0
295976.0 394081.0 0
298346.0 393508.0 0
301179.0 391696.0 0
300828.0 394480.0 0
305850.0 392757.0 0
303978.0 394493.0 0
308548.0 394294.0 0
310531.0 392374.0 0
313982.0 392389.0 0
313679.0 395218.0 0
311487.0 395562.0 0
316412.0 392123.0 0
318046.0 394904.0 0
320700.0 393805.0 0
323356.0 391660.0 0
323855.0 396438.0 0
325243.0 394165.0 0
328215.0 394678.0 0
329961.0 396038.0 0
164784.0 400972.0 0
166875.0 398928.0 0
169634.0 397455.0 0
168589.0 401313.0 0
175330.0 398616.0 0
172090.0 399375.0 0
179061.0 397936.0 0
176647.0 400867.0 0
179433.0 400102.0 0
181389.0 400695.0 0
183618.0 399480.0 0
187825.0 398080.0 0
190199.0 397285.0 0
186757.0 401126.0 0
191910.0 400225.0 0
194915.0 398479.0 0
197814.0 399490.0 0
200856.0 398693.0 0
205106.0 396209.0 0
203465.0 399607.0 0
205515.0 400383.0 0
207512.0 397364.0 0
207895.0 399894.0 0
210387.0 398559.0 0
211593.0 396049.0 0
213561.0 397742.0 0
215934.0 398252.0 0
218138.0 398574.0 0
219103.0 395156.0 0
221334.0 397862.0 0
224907.0 398532.0 0
227773.0 398583.0 0
229240.0 396130.0 0
229875.0 398855.0 0
232583.0 396941.0 0
234849.0 397591.0 0
232396.0 399885.0 0
237489.0 396329.0 0
243368.0 394747.0 0
243679.0 397912.0 0
241358.0 397907.0 0
246001.0 396010.0 0
249124.0 397274.0 0
251756.0 396125.0 0
251862.0 399745.0 0
254967.0 397268.0 0
258510.0 395960.0 0
262683.0 397187.0 0
259908.0 399449.0 0
265582.0 399567.0 0
266849.0 395537.0 0
268822.0 398779.0 0
270557.0 395666.0 0
273926.0 395782.0 0
271533.0 399928.0 0
274890.0 399803.0 0
276911.0 395780.0 0
277905.0 400065.0 0
281085.0 396081.0 0
279937.0 398335.0 0
282705.0 399908.0 0
284978.0 398155.0 0
288262.0 395431.0 0
288072.0 399663.0 0
291635.0 396843.0 0
296970.0 396602.0 0
294758.0 398020.0 0
296047.0 400144.0 0
300207.0 397933.0 0
303645.0 398658.0 0
305819.0 397432.0 0
308762.0 397225.0 0
313302.0 398894.0 0
310150.0 400286.0 0
316638.0 397820.0 0
318630.0 400369.0 0
320853.0 397107.0 0
321628.0 401188.0 0
324195.0 399637.0 0
327729.0 397900.0 0
329152.0 400438.0 0
331782.0 398030.0 0
334048.0 399604.0 0
336214.0 401353.0 0
339278.0 401633.0 0
153563.0 405911.0 0
159676.0 403150.0 0
155647.0 405159.0 0
157592.0 404341.0 0
161959.0 402012.0 0
162295.0 406346.0 0
165431.0 404848.0 0
168878.0 404151.0 0
171370.0 402465.0 0
174114.0 403148.0 0
178222.0 402757.0 0
180602.0 403018.0 0
176318.0 405413.0 0
179039.0 406597.0 0
184244.0 402652.0 0
182784.0 405720.0 0
189431.0 401948.0 0
186226.0 405808.0 0
189258.0 405181.0 0
193353.0 402903.0 0
195743.0 402647.0 0
192577.0 405388.0 0
197464.0 404577.0 0
199975.0 402850.0 0
200241.0 405792.0 0
202423.0 403152.0 0
205265.0 404011.0 0
208641.0 403199.0 0
211888.0 400810.0 0
214744.0 401707.0 0
211262.0 405070.0 0
214383.0 405614.0 0
217707.0 401754.0 0
217450.0 405826.0 0
220418.0 401332.0 0
219746.0 404699.0 0
222772.0 402524.0 0
225742.0 401862.0 0
228932.0 401863.0 0
229518.0 405552.0 0
231763.0 402216.0 0
232463.0 404639.0 0
235010.0 400916.0 0
234857.0 404013.0 0
238505.0 400355.0 0
237920.0 404596.0 0
241541.0 401827.0 0
244482.0 400902.0 0
244830.0 404619.0 0
247609.0 400391.0 0
249485.0 403089.0 0
253531.0 401379.0 0
252208.0 403937.0 0
255120.0 403212.0 0
256699.0 400704.0 0
259579.0 404140.0 0
262827.0 402251.0 0
267465.0 403289.0 0
265127.0 405307.0 0
270719.0 403317.0 0
274613.0 403544.0 0
277310.0 405091.0 0
279241.0 403069.0 0
282849.0 403248.0 0
285700.0 401638.0 0
287706.0 403548.0 0
292638.0 400692.0 0
290663.0 402009.0 0
290481.0 405625.0 0
293686.0 405103.0 0
294577.0 402416.0 0
297712.0 403927.0 0
299093.0 401161.0 0
302278.0 403578.0 0
300546.0 405739.0 0
304499.0 401945.0 0
307471.0 402238.0 0
304091.0 406203.0 0
306341.0 405757.0 0
308929.0 405236.0 0
311119.0 405342.0 0
312799.0 403012.0 0
315126.0 401818.0 0
317939.0 403725.0 0
315556.0 405339.0 0
322661.0 403899.0 0
320502.0 405396.0 0
326282.0 401835.0 0
325821.0 404822.0 0
328800.0 405633.0 0
330605.0 402761.0 0
332713.0 403722.0 0
336465.0 404739.0 0
340848.0 403790.0 0
343136.0 405102.0 0
345507.0 406403.0 0
348669.0 407100.0 0
147662.0 409783.0 0
145993.0 411652.0 0
149873.0 408949.0 0
152157.0 408114.0 0
149999.0 411744.0 0
152224.0 411258.0 0
155458.0 408426.0 0
159563.0 407515.0 0
155955.0 411494.0 0
159246.0 411387.0 0
162701.0 409630.0 0
166317.0 407940.0 0
168851.0 408355.0 0
164942.0 410611.0 0
170997.0 406697.0 0
173735.0 407531.0 0
169708.0 410629.0 0
174695.0 410713.0 0
178491.0 410133.0 0
182202.0 409228.0 0
183707.0 411807.0 0
186458.0 408642.0 0
189931.0 408210.0 0
186898.0 411630.0 0
190128.0 411324.0 0
193788.0 407854.0 0
193331.0 411079.0 0
197068.0 407272.0 0
198811.0 409652.0 0
201772.0 406770.0 0
201799.0 410086.0 0
204605.0 408052.0 0
207726.0 407273.0 0
206002.0 411788.0 0
209953.0 408345.0 0
212631.0 409230.0 0
215307.0 410001.0 0
218387.0 409483.0 0
220970.0 408507.0 0
222366.0 405722.0 0
223233.0 409876.0 0
225883.0 406576.0 0
227661.0 410640.0 0
231200.0 409500.0 0
234098.0 407933.0 0
236681.0 407431.0 0
239187.0 409908.0 0
241401.0 406140.0 0
244173.0 408981.0 0
247563.0 406728.0 0
250523.0 408035.0 0
253273.0 406698.0 0
256402.0 406190.0 0
260452.0 408444.0 0
262915.0 406489.0 0
266689.0 409005.0 0
268632.0 407069.0 0
271484.0 406682.0 0
271192.0 409218.0 0
274163.0 406814.0 0
272933.0 410221.0 0
275342.0 409514.0 0
278094.0 408025.0 0
280757.0 407811.0 0
280960.0 405903.0 0
283257.0 408700.0 0
285446.0 406212.0 0
287140.0 409519.0 0
290811.0 409277.0 0
296439.0 407030.0 0
294536.0 409277.0 0
297528.0 410637.0 0
299379.0 408726.0 0
302719.0 408923.0 0
305526.0 410439.0 0
308171.0 408845.0 0
313920.0 407961.0 0
311174.0 409416.0 0
318445.0 407886.0 0
316583.0 410353.0 0
321735.0 408315.0 0
321581.0 411298.0 0
325081.0 407960.0 0
326584.0 410536.0 0
329485.0 410610.0 0
330275.0 407660.0 0
333591.0 406969.0 0
334619.0 410203.0 0
338736.0 406730.0 0
338078.0 410276.0 0
341905.0 408204.0 0
340813.0 411112.0 0
343768.0 409996.0 0
346703.0 408272.0 0
350155.0 408649.0 0
347929.0 410867.0 0
351438.0 410414.0 0
353779.0 411308.0 0
141344.0 413837.0 0
144267.0 413549.0 0
139453.0 416175.0 0
142485.0 416965.0 0
148639.0 413024.0 0
146186.0 415728.0 0
149075.0 415364.0 0
153643.0 413434.0 0
151661.0 415231.0 0
155581.0 415529.0 0
158066.0 415089.0 0
161388.0 413395.0 0
163814.0 413306.0 0
162110.0 416461.0 0
164659.0 415916.0 0
167355.0 412448.0 0
168260.0 415212.0 0
171697.0 411569.0 0
171601.0 414505.0 0
178710.0 413451.0 0
175105.0 414529.0 0
178371.0 416279.0 0
181757.0 414665.0 0
184691.0 416220.0 0
186974.0 415285.0 0
190093.0 415434.0 0
192857.0 415011.0 0
195588.0 416027.0 0
196163.0 412271.0 0
198750.0 413704.0 0
200046.0 412551.0 0
198884.0 415966.0 0
202738.0 413126.0 0
206930.0 415877.0 0
208728.0 411297.0 0
209812.0 415277.0 0
211447.0 412523.0 0
214829.0 413703.0 0
218375.0 413551.0 0
221377.0 412363.0 0
224876.0 411616.0 0
223826.0 414836.0 0
228231.0 415174.0 0
232424.0 413460.0 0
235944.0 411851.0 0
237584.0 415317.0 0
240411.0 414043.0 0
242434.0 411079.0 0
244252.0 412732.0 0
246980.0 411610.0 0
250123.0 411949.0 0
250480.0 415819.0 0
253591.0 411225.0 0
253785.0 415227.0 0
257216.0 410656.0 0
256927.0 415161.0 0
260142.0 412853.0 0
263564.0 410973.0 0
263098.0 414897.0 0
266376.0 413770.0 0
269539.0 411964.0 0
272557.0 414029.0 0
275981.0 412998.0 0
279066.0 415180.0 0
279471.0 411224.0 0
282732.0 412366.0 0
286392.0 413759.0 0
294250.0 412091.0 0
290258.0 412659.0 0
292705.0 415118.0 0
297291.0 413228.0 0
301152.0 411501.0 0
299698.0 413641.0 0
302508.0 414072.0 0
308985.0 411979.0 0
305568.0 413882.0 0
308468.0 413582.0 0
312004.0 412412.0 0
310989.0 414971.0 0
313987.0 416617.0 0
314666.0 412467.0 0
318866.0 412209.0 0
315858.0 415058.0 0
318855.0 414949.0 0
323940.0 413245.0 0
321885.0 416055.0 0
326457.0 415319.0 0
328637.0 414144.0 0
332425.0 413240.0 0
338164.0 413603.0 0
335666.0 415317.0 0
342118.0 413184.0 0
340510.0 415635.0 0
345320.0 412541.0 0
349088.0 413439.0 0
346191.0 415856.0 0
351119.0 413210.0 0
351198.0 415343.0 0
353862.0 415469.0 0
355915.0 413556.0 0
358892.0 414766.0 0
356686.0 417336.0 0
361126.0 417144.0 0
132575.0 419812.0 0
130259.0 421142.0 0
134601.0 418266.0 0
137222.0 417526.0 0
135924.0 421491.0 0
138706.0 420931.0 0
144139.0 419420.0 0
141381.0 420708.0 0
147339.0 418420.0 0
145364.0 422387.0 0
152127.0 417940.0 0
154735.0 417875.0 0
149876.0 420477.0 0
153207.0 421671.0 0
159443.0 417787.0 0
156475.0 420460.0 0
159297.0 422035.0 0
163160.0 418762.0 0
161311.0 420404.0 0
163076.0 421687.0 0
164709.0 419800.0 0
165627.0 418394.0 0
168826.0 418267.0 0
168600.0 421138.0 0
171863.0 417857.0 0
174986.0 417779.0 0
171892.0 420696.0 0
178192.0 418242.0 0
180918.0 417614.0 0
184201.0 418293.0 0
181863.0 421075.0 0
187192.0 418519.0 0
185633.0 420799.0 0
190143.0 419003.0 0
193147.0 418873.0 0
194982.0 421099.0 0
197086.0 418835.0 0
199822.0 420456.0 0
202385.0 416957.0 0
204395.0 420116.0 0
207635.0 419794.0 0
213074.0 417149.0 0
210577.0 419475.0 0
215124.0 420337.0 0
216772.0 417321.0 0
220299.0 417620.0 0
224857.0 419261.0 0
228043.0 420278.0 0
230652.0 418829.0 0
234126.0 417341.0 0
238470.0 418787.0 0
241217.0 418786.0 0
243213.0 415947.0 0
242214.0 421286.0 0
244728.0 419979.0 0
246935.0 416242.0 0
248311.0 420021.0 0
251359.0 419293.0 0
253709.0 418061.0 0
256699.0 419040.0 0
260061.0 415903.0 0
261327.0 419951.0 0
264858.0 417479.0 0
265836.0 420794.0 0
268838.0 421070.0 0
268637.0 416918.0 0
273031.0 418590.0 0
276096.0 416846.0 0
276478.0 420487.0 0
278574.0 418597.0 0
281825.0 416312.0 0
284080.0 416716.0 0
281645.0 419374.0 0
284488.0 419326.0 0
286940.0 418263.0 0
289711.0 416768.0 0
290695.0 419620.0 0
292994.0 418609.0 0
296198.0 416760.0 0
299391.0 417148.0 0
296138.0 420252.0 0
302025.0 416660.0 0
300307.0 420928.0 0
303630.0 419014.0 0
306314.0 417035.0 0
309395.0 417022.0 0
305729.0 421689.0 0
307637.0 419919.0 0
310421.0 420111.0 0
313010.0 419152.0 0
318280.0 417683.0 0
315339.0 420922.0 0
316921.0 418837.0 0
321600.0 418802.0 0
319929.0 420885.0 0
324180.0 420110.0 0
323003.0 421773.0 0
326084.0 417954.0 0
329235.0 417343.0 0
328087.0 419846.0 0
331278.0 416611.0 0
334575.0 417753.0 0
330092.0 420784.0 0
332566.0 419293.0 0
338306.0 418149.0 0
335998.0 419525.0 0
339664.0 420943.0 0
343327.0 417207.0 0
342740.0 419966.0 0
348950.0 417650.0 0
345043.0 421654.0 0
347213.0 420536.0 0
349210.0 422035.0 0
351542.0 419622.0 0
353587.0 418125.0 0
355014.0 421669.0 0
356358.0 419598.0 0
359442.0 419637.0 0
364100.0 418000.0 0
363159.0 421377.0 0
366523.0 419265.0 0
368569.0 421620.0 0
120802.0 426971.0 0
123499.0 425852.0 0
125441.0 423597.0 0
128439.0 423115.0 0
128842.0 426040.0 0
132099.0 424418.0 0
133698.0 422826.0 0
136018.0 425422.0 0
138412.0 424139.0 0
138949.0 427504.0 0
141927.0 423297.0 0
141124.0 425712.0 0
144674.0 424780.0 0
149073.0 423437.0 0
146113.0 427140.0 0
149055.0 425923.0 0
152289.0 424390.0 0
154147.0 426767.0 0
155942.0 423837.0 0
158190.0 425147.0 0
160003.0 423981.0 0
162561.0 424901.0 0
166013.0 422069.0 0
165511.0 424857.0 0
167782.0 426125.0 0
169876.0 423796.0 0
175007.0 421629.0 0
172679.0 424591.0 0
178766.0 422380.0 0
175309.0 426344.0 0
178066.0 425757.0 0
183745.0 423770.0 0
181450.0 425556.0 0
184134.0 426610.0 0
187237.0 422583.0 0
186683.0 425135.0 0
190185.0 422404.0 0
192678.0 422782.0 0
193771.0 425862.0 0
197600.0 424157.0 0
202071.0 422039.0 0
201134.0 425173.0 0
204872.0 423895.0 0
208558.0 423850.0 0
212311.0 423115.0 0
217959.0 421576.0 0
215833.0 424363.0 0
219205.0 425639.0 0
221234.0 422283.0 0
222439.0 426169.0 0
224634.0 423532.0 0
228350.0 423141.0 0
229465.0 426209.0 0
231724.0 422384.0 0
233445.0 426083.0 0
235597.0 421607.0 0
237768.0 425657.0 0
239469.0 422112.0 0
242180.0 424238.0 0
245991.0 423384.0 0
250286.0 423483.0 0
253831.0 422084.0 0
254522.0 425153.0 0
257945.0 423473.0 0
261424.0 424563.0 0
264530.0 423195.0 0
267271.0 423768.0 0
267033.0 425829.0 0
271352.0 423387.0 0
274801.0 423174.0 0
278568.0 422002.0 0
277602.0 423990.0 0
280827.0 424951.0 0
281208.0 422270.0 0
283728.0 422959.0 0
284116.0 426295.0 0
285367.0 421774.0 0
288518.0 421417.0 0
287218.0 424845.0 0
293011.0 421518.0 0
291318.0 424347.0 0
294408.0 425254.0 0
296082.0 423250.0 0
299327.0 424730.0 0
303372.0 423216.0 0
302753.0 425999.0 0
307388.0 424175.0 0
310486.0 423257.0 0
313454.0 422492.0 0
312194.0 426170.0 0
315157.0 425514.0 0
317961.0 423399.0 0
321876.0 422581.0 0
323912.0 423242.0 0
322444.0 425916.0 0
326135.0 422225.0 0
327512.0 424464.0 0
334371.0 422066.0 0
331149.0 424045.0 0
336844.0 422981.0 0
335120.0 425795.0 0
338268.0 426078.0 0
340903.0 423623.0 0
343978.0 424940.0 0
348460.0 423542.0 0
347232.0 424650.0 0
351722.0 422640.0 0
354856.0 424207.0 0
351523.0 425848.0 0
354393.0 426459.0 0
357878.0 423501.0 0
360441.0 422776.0 0
356885.0 425514.0 0
359617.0 426676.0 0
365288.0 422719.0 0
362209.0 425461.0 0
365162.0 425903.0 0
368023.0 426226.0 0
370915.0 423307.0 0
374055.0 423946.0 0
371431.0 427120.0 0
376354.0 426248.0 0
118257.0 429136.0 0
115823.0 431127.0 0
121301.0 429970.0 0
122479.0 432511.0 0
125634.0 427763.0 0
125774.0 430489.0 0
127941.0 432509.0 0
131150.0 428073.0 0
130249.0 431007.0 0
132477.0 432522.0 0
134653.0 427917.0 0
139245.0 429649.0 0
135464.0 430752.0 0
142548.0 427962.0 0
139622.0 432176.0 0
142623.0 430182.0 0
146466.0 429654.0 0
150700.0 427599.0 0
150049.0 429783.0 0
150444.0 432357.0 0
153809.0 430173.0 0
157981.0 427805.0 0
157392.0 430472.0 0
161434.0 428063.0 0
160395.0 431300.0 0
164890.0 429080.0 0
169322.0 427914.0 0
167333.0 430837.0 0
169577.0 431769.0 0
171957.0 427271.0 0
171319.0 429519.0 0
173268.0 430714.0 0
175076.0 428788.0 0
179559.0 428118.0 0
177787.0 430570.0 0
182562.0 429270.0 0
189944.0 427009.0 0
186295.0 429058.0 0
186491.0 431868.0 0
190723.0 430472.0 0
194721.0 429055.0 0
197802.0 427992.0 0
195564.0 431707.0 0
198861.0 430852.0 0
201526.0 428214.0 0
205161.0 427679.0 0
201912.0 431526.0 0
204934.0 431045.0 0
208814.0 427659.0 0
209248.0 431614.0 0
212324.0 426872.0 0
212467.0 429870.0 0
215675.0 427425.0 0
219832.0 429870.0 0
223843.0 428565.0 0
226278.0 426642.0 0
227477.0 430491.0 0
231152.0 429810.0 0
235300.0 429559.0 0
238313.0 429966.0 0
241361.0 428244.0 0
244831.0 427315.0 0
243761.0 430866.0 0
247206.0 430367.0 0
247843.0 426499.0 0
251875.0 427903.0 0
257238.0 427084.0 0
255267.0 430248.0 0
260985.0 427865.0 0
264315.0 430891.0 0
264495.0 426502.0 0
267416.0 428793.0 0
269782.0 426160.0 0
270788.0 430444.0 0
274203.0 427403.0 0
277731.0 430635.0 0
278331.0 427363.0 0
281960.0 428787.0 0
280710.0 431476.0 0
286056.0 429211.0 0
289937.0 428675.0 0
293929.0 428455.0 0
293464.0 431007.0 0
297709.0 428359.0 0
301464.0 428945.0 0
306293.0 427411.0 0
304270.0 430515.0 0
309898.0 429169.0 0
313831.0 429923.0 0
316677.0 428657.0 0
319291.0 427056.0 0
320002.0 429257.0 0
321480.0 431497.0 0
324060.0 429363.0 0
327132.0 427135.0 0
329418.0 429023.0 0
326451.0 431772.0 0
332509.0 427339.0 0
333773.0 430885.0 0
336611.0 428742.0 0
339312.0 429831.0 0
341054.0 427780.0 0
343458.0 430283.0 0
346244.0 428638.0 0
349477.0 427807.0 0
347750.0 432238.0 0
350955.0 431445.0 0
353851.0 430252.0 0
355941.0 428181.0 0
358294.0 428234.0 0
359240.0 431625.0 0
361723.0 428117.0 0
365127.0 429093.0 0
362581.0 430968.0 0
369928.0 429204.0 0
367727.0 430266.0 0
373987.0 428235.0 0
371813.0 431656.0 0
374116.0 431051.0 0
378997.0 428199.0 0
376881.0 430667.0 0
381413.0 429526.0 0
384322.0 430535.0 0
386384.0 432301.0 0
107484.0 435221.0 0
105390.0 437639.0 0
110413.0 434327.0 0
113367.0 432896.0 0
110649.0 437608.0 0
118510.0 432729.0 0
115655.0 436100.0 0
119181.0 435091.0 0
124011.0 434723.0 0
120589.0 437435.0 0
123382.0 437384.0 0
127257.0 435408.0 0
132627.0 434892.0 0
130098.0 435462.0 0
136494.0 433296.0 0
136930.0 435898.0 0
143330.0 432881.0 0
141229.0 435282.0 0
144264.0 436716.0 0
146791.0 432541.0 0
146555.0 435102.0 0
148760.0 436025.0 0
151751.0 434687.0 0
155434.0 433325.0 0
158950.0 433796.0 0
156085.0 437056.0 0
163232.0 432316.0 0
161765.0 434336.0 0
159735.0 436940.0 0
163306.0 436765.0 0
165656.0 434234.0 0
168259.0 435761.0 0
171369.0 433956.0 0
174368.0 435420.0 0
175063.0 432187.0 0
178174.0 434017.0 0
182298.0 432727.0 0
187594.0 435551.0 0
191780.0 433809.0 0
198622.0 433910.0 0
195547.0 435175.0 0
198027.0 436886.0 0
201649.0 434688.0 0
205621.0 435121.0 0
209430.0 435588.0 0
212286.0 433356.0 0
212593.0 436462.0 0
215717.0 431577.0 0
216075.0 435955.0 0
219761.0 434738.0 0
223590.0 432791.0 0
224479.0 436429.0 0
228566.0 434337.0 0
232968.0 433326.0 0
237188.0 433363.0 0
238745.0 436011.0 0
240747.0 432663.0 0
244075.0 432985.0 0
246833.0 434671.0 0
251150.0 432914.0 0
254931.0 433093.0 0
259011.0 431339.0 0
257585.0 435896.0 0
262436.0 435362.0 0
266554.0 435032.0 0
267964.0 432834.0 0
269802.0 436316.0 0
272110.0 434074.0 0
275095.0 431584.0 0
275316.0 435878.0 0
278209.0 433668.0 0
281257.0 434546.0 0
283868.0 436459.0 0
284730.0 432410.0 0
287053.0 435791.0 0
289401.0 433105.0 0
293081.0 433788.0 0
296777.0 432508.0 0
297586.0 436465.0 0
300577.0 432274.0 0
301810.0 436118.0 0
304733.0 433501.0 0
307916.0 432283.0 0
307396.0 435577.0 0
311430.0 433186.0 0
310436.0 436051.0 0
314486.0 433296.0 0
317936.0 431829.0 0
315503.0 436376.0 0
318796.0 435236.0 0
322337.0 434817.0 0
325842.0 435053.0 0
330080.0 435577.0 0
330472.0 432270.0 0
334310.0 433925.0 0
333328.0 435961.0 0
337834.0 432794.0 0
337578.0 436192.0 0
342247.0 433457.0 0
341982.0 436756.0 0
345053.0 437045.0 0
346353.0 434756.0 0
349220.0 437080.0 0
351433.0 434660.0 0
354596.0 435210.0 0
356337.0 432613.0 0
358065.0 435305.0 0
357595.0 437062.0 0
364588.0 433752.0 0
361111.0 435107.0 0
367753.0 433108.0 0
370548.0 434105.0 0
366445.0 436809.0 0
369663.0 437305.0 0
373143.0 435362.0 0
375293.0 434684.0 0
377176.0 432988.0 0
379487.0 433803.0 0
377140.0 437467.0 0
380055.0 437056.0 0
381599.0 432814.0 0
383234.0 434133.0 0
386024.0 435098.0 0
382927.0 436472.0 0
389234.0 433355.0 0
387127.0 437440.0 0
390990.0 434947.0 0
393247.0 435545.0 0
395229.0 436527.0 0
396886.0 437404.0 0
97775.1 441804.0 0
99464.1 439453.0 0
102727.0 439309.0 0
100999.0 442184.0 0
108053.0 439148.0 0
105298.0 441536.0 0
108606.0 441584.0 0
113514.0 438941.0 0
111296.0 441673.0 0
117596.0 438202.0 0
115750.0 441337.0 0
119615.0 440908.0 0
122581.0 441813.0 0
124491.0 439314.0 0
127312.0 438082.0 0
128694.0 440163.0 0
125488.0 441501.0 0
130369.0 438261.0 0
133624.0 438016.0 0
132889.0 441166.0 0
138076.0 438326.0 0
136770.0 440041.0 0
140599.0 438319.0 0
141501.0 441224.0 0
144644.0 439253.0 0
146908.0 437909.0 0
148954.0 438711.0 0
147324.0 441766.0 0
152521.0 438503.0 0
154925.0 440677.0 0
156992.0 439764.0 0
156957.0 442078.0 0
160095.0 440107.0 0
163251.0 440127.0 0
165871.0 438599.0 0
167781.0 440738.0 0
169935.0 438109.0 0
171318.0 441984.0 0
172822.0 438978.0 0
176927.0 437862.0 0
179298.0 437190.0 0
176063.0 440821.0 0
179320.0 439952.0 0
183164.0 437084.0 0
185345.0 440206.0 0
188925.0 439453.0 0
192147.0 437706.0 0
195051.0 439498.0 0
198524.0 441170.0 0
200622.0 438191.0 0
203516.0 439277.0 0
209571.0 438245.0 0
207117.0 438818.0 0
212499.0 440110.0 0
216300.0 439594.0 0
220477.0 438984.0 0
224192.0 440048.0 0
227902.0 438792.0 0
231560.0 437068.0 0
232115.0 440569.0 0
235574.0 437567.0 0
239111.0 439365.0 0
242521.0 436478.0 0
242333.0 440778.0 0
245794.0 439726.0 0
249450.0 438043.0 0
253211.0 436758.0 0
252559.0 441411.0 0
256032.0 439935.0 0
260013.0 439698.0 0
263784.0 439869.0 0
266483.0 437823.0 0
268650.0 440470.0 0
272953.0 439319.0 0
276733.0 439601.0 0
279623.0 437469.0 0
279869.0 441586.0 0
282897.0 439736.0 0
286584.0 439100.0 0
294144.0 437032.0 0
290408.0 437941.0 0
294807.0 439978.0 0
297886.0 440946.0 0
300858.0 439982.0 0
305648.0 438792.0 0
309689.0 439140.0 0
308185.0 441661.0 0
312844.0 437260.0 0
312721.0 440583.0 0
319278.0 438107.0 0
316501.0 439972.0 0
322174.0 438468.0 0
320698.0 442302.0 0
325627.0 439109.0 0
329558.0 439216.0 0
335118.0 437958.0 0
332901.0 439473.0 0
339736.0 438729.0 0
336890.0 440856.0 0
344324.0 439235.0 0
342275.0 441725.0 0
347528.0 440163.0 0
352049.0 438885.0 0
354977.0 438067.0 0
350777.0 441334.0 0
355755.0 441089.0 0
359170.0 440392.0 0
360944.0 437889.0 0
364753.0 439637.0 0
368025.0 442223.0 0
370153.0 440189.0 0
372810.0 438079.0 0
372372.0 441748.0 0
375497.0 440144.0 0
378697.0 441615.0 0
384422.0 439391.0 0
381334.0 440488.0 0
386083.0 441715.0 0
390003.0 438514.0 0
389428.0 441778.0 0
393613.0 438307.0 0
396028.0 440857.0 0
392501.0 442456.0 0
393803.0 440384.0 0
398245.0 439531.0 0
400625.0 440236.0 0
398595.0 442889.0 0
402761.0 441985.0 0
92564.9 445322.0 0
89589.1 447075.0 0
95463.7 443917.0 0
97262.2 446109.0 0
101047.0 445848.0 0
104443.0 444175.0 0
107735.0 444308.0 0
105177.0 446782.0 0
111965.0 443700.0 0
109861.0 447001.0 0
114968.0 444287.0 0
113744.0 446499.0 0
117689.0 447571.0 0
119188.0 444842.0 0
122554.0 445438.0 0
125938.0 444563.0 0
126881.0 447397.0 0
129855.0 442932.0 0
131087.0 445792.0 0
135251.0 443045.0 0
138437.0 442710.0 0
134317.0 445970.0 0
137563.0 446430.0 0
144088.0 444536.0 0
140368.0 446234.0 0
147176.0 446493.0 0
150934.0 442994.0 0
154329.0 443698.0 0
150230.0 446828.0 0
155964.0 446212.0 0
159890.0 444059.0 0
164139.0 443347.0 0
168259.0 444579.0 0
171146.0 446035.0 0
173929.0 444217.0 0
178005.0 443445.0 0
178017.0 446154.0 0
181810.0 442535.0 0
184049.0 445303.0 0
186658.0 443487.0 0
188097.0 446710.0 0
191118.0 442339.0 0
190866.0 445361.0 0
194479.0 443419.0 0
193590.0 446152.0 0
197275.0 444363.0 0
199936.0 446011.0 0
201145.0 442689.0 0
204395.0 442416.0 0
203228.0 445327.0 0
208333.0 442653.0 0
205871.0 446147.0 0
211913.0 444317.0 0
214804.0 442812.0 0
217672.0 443220.0 0
221242.0 443516.0 0
224822.0 443145.0 0
226438.0 446477.0 0
228776.0 443130.0 0
231878.0 444963.0 0
234285.0 446370.0 0
235834.0 442481.0 0
240126.0 443581.0 0
244869.0 444141.0 0
248949.0 443210.0 0
251397.0 446541.0 0
254581.0 444701.0 0
257954.0 442978.0 0
261848.0 443830.0 0
265940.0 442816.0 0
265398.0 446532.0 0
268109.0 444565.0 0
271466.0 443757.0 0
273680.0 446665.0 0
276067.0 443390.0 0
282899.0 443300.0 0
280365.0 446035.0 0
284923.0 442009.0 0
285138.0 445919.0 0
288566.0 443178.0 0
292525.0 442050.0 0
293568.0 445728.0 0
296108.0 443908.0 0
298588.0 445046.0 0
303481.0 442449.0 0
300414.0 443982.0 0
303512.0 446156.0 0
306623.0 444038.0 0
309091.0 445159.0 0
310396.0 442817.0 0
311205.0 445716.0 0
313765.0 444133.0 0
316970.0 443826.0 0
320846.0 446088.0 0
323651.0 446322.0 0
325135.0 443137.0 0
330026.0 443116.0 0
328138.0 446626.0 0
333810.0 442683.0 0
332803.0 445676.0 0
339087.0 443838.0 0
335789.0 445460.0 0
339545.0 447329.0 0
343079.0 445650.0 0
346547.0 443964.0 0
349930.0 444107.0 0
353166.0 442919.0 0
350948.0 446989.0 0
353483.0 445965.0 0
357577.0 443982.0 0
356126.0 445821.0 0
360456.0 446361.0 0
360716.0 443311.0 0
363292.0 442698.0 0
363620.0 446654.0 0
365580.0 444924.0 0
367836.0 447283.0 0
369781.0 444839.0 0
372386.0 443706.0 0
375221.0 443346.0 0
372837.0 446907.0 0
375911.0 446324.0 0
378685.0 444253.0 0
381146.0 445931.0 0
382310.0 443106.0 0
384811.0 444017.0 0
389139.0 444840.0 0
386541.0 446679.0 0
391553.0 446549.0 0
396456.0 444269.0 0
394162.0 445093.0 0
400806.0 443484.0 0
400924.0 446013.0 0
398672.0 446446.0 0
405162.0 443563.0 0
403867.0 446061.0 0
406356.0 447186.0 0
407948.0 444950.0 0
410228.0 446813.0 0
81336.6 452232.0 0
84122.5 450866.0 0
86521.2 448268.0 0
87091.2 451319.0 0
90298.9 450204.0 0
91404.2 452890.0 0
93659.7 448449.0 0
96340.7 448821.0 0
94791.3 451392.0 0
100678.0 450333.0 0
104658.0 448793.0 0
107103.0 449299.0 0
106965.0 452176.0 0
111680.0 450222.0 0
115493.0 449631.0 0
116921.0 452702.0 0
120047.0 449728.0 0
122392.0 448517.0 0
119819.0 452515.0 0
124677.0 450211.0 0
127105.0 451376.0 0
129787.0 448808.0 0
134254.0 448751.0 0
131945.0 451707.0 0
137321.0 449518.0 0
135489.0 452425.0 0
143731.0 448433.0 0
140616.0 450311.0 0
146192.0 449398.0 0
148719.0 450523.0 0
153005.0 448060.0 0
151306.0 451765.0 0
154397.0 450846.0 0
157377.0 449038.0 0
158522.0 451883.0 0
160835.0 447723.0 0
164675.0 447551.0 0
161312.0 451087.0 0
164307.0 451122.0 0
168046.0 448867.0 0
167362.0 452265.0 0
169894.0 452332.0 0
171594.0 449492.0 0
175127.0 447590.0 0
177342.0 450572.0 0
181059.0 447571.0 0
184799.0 448017.0 0
180940.0 451150.0 0
184106.0 451343.0 0
187442.0 450274.0 0
187013.0 452326.0 0
191531.0 450092.0 0
196141.0 447807.0 0
195634.0 451339.0 0
198896.0 449927.0 0
202511.0 448558.0 0
209470.0 448612.0 0
205194.0 449167.0 0
205789.0 452150.0 0
214693.0 447243.0 0
212517.0 452082.0 0
218779.0 447213.0 0
216173.0 451088.0 0
219709.0 451130.0 0
222807.0 447873.0 0
226101.0 450103.0 0
229310.0 447878.0 0
229031.0 451903.0 0
232667.0 449605.0 0
237421.0 447795.0 0
239743.0 451534.0 0
242324.0 447793.0 0
243961.0 451778.0 0
247339.0 448615.0 0
251402.0 450899.0 0
254635.0 448923.0 0
258118.0 447280.0 0
257649.0 450784.0 0
262093.0 448619.0 0
260050.0 451459.0 0
265454.0 450532.0 0
269287.0 448530.0 0
273377.0 449991.0 0
276515.0 451769.0 0
276736.0 447743.0 0
279254.0 450034.0 0
283115.0 450001.0 0
287120.0 449335.0 0
290186.0 447098.0 0
290494.0 451544.0 0
293964.0 449578.0 0
297324.0 447879.0 0
300028.0 451715.0 0
301076.0 447474.0 0
303786.0 450497.0 0
306677.0 447946.0 0
314438.0 447310.0 0
311120.0 449552.0 0
317670.0 447289.0 0
315622.0 450478.0 0
318586.0 451035.0 0
321088.0 449331.0 0
325318.0 450119.0 0
329623.0 451594.0 0
331597.0 448335.0 0
334941.0 448064.0 0
333602.0 451935.0 0
337379.0 449320.0 0
336363.0 451574.0 0
340491.0 451279.0 0
343713.0 449238.0 0
347814.0 448901.0 0
352555.0 449259.0 0
354685.0 448714.0 0
351593.0 451443.0 0
355058.0 451075.0 0
357551.0 447998.0 0
358655.0 450699.0 0
362093.0 450066.0 0
365907.0 449897.0 0
370890.0 449125.0 0
369999.0 452600.0 0
374394.0 449734.0 0
374105.0 452148.0 0
378133.0 448860.0 0
376794.0 451437.0 0
381129.0 451146.0 0
383243.0 448308.0 0
385172.0 450635.0 0
388202.0 449510.0 0
387256.0 452839.0 0
395278.0 449065.0 0
391739.0 450469.0 0
397666.0 448492.0 0
399929.0 450527.0 0
397556.0 452759.0 0
402421.0 449032.0 0
405585.0 450663.0 0
402344.0 453039.0 0
408512.0 449148.0 0
410517.0 450600.0 0
409540.0 452437.0 0
412858.0 448438.0 0
415126.0 450579.0 0
411940.0 452559.0 0
418091.0 451235.0 0
73447.2 456600.0 0
76199.0 454757.0 0
76492.0 458035.0 0
78725.7 453736.0 0
81684.3 456028.0 0
84677.3 454083.0 0
87455.5 453338.0 0
86370.5 455524.0 0
84298.4 457777.0 0
88967.2 455034.0 0
93374.0 455339.0 0
89664.9 457002.0 0
97405.1 454272.0 0
96551.3 458198.0 0
100351.0 456247.0 0
103662.0 453424.0 0
104842.0 456714.0 0
108047.0 456617.0 0
109904.0 453669.0 0
113631.0 453256.0 0
111878.0 456623.0 0
114138.0 455716.0 0
116716.0 456169.0 0
122879.0 452883.0 0
119654.0 456750.0 0
122151.0 455701.0 0
125518.0 454481.0 0
128259.0 453786.0 0
124832.0 457541.0 0
128884.0 456574.0 0
131891.0 455314.0 0
133303.0 457192.0 0
138315.0 453962.0 0
134652.0 454863.0 0
136184.0 456318.0 0
144001.0 452904.0 0
141002.0 456371.0 0
147547.0 454217.0 0
144492.0 457162.0 0
147136.0 457482.0 0
151396.0 455428.0 0
155788.0 454629.0 0
161717.0 453590.0 0
159785.0 454888.0 0
164171.0 454775.0 0
166249.0 456830.0 0
168988.0 454849.0 0
173143.0 453005.0 0
170902.0 457157.0 0
178075.0 453976.0 0
174882.0 457046.0 0
179046.0 457988.0 0
181670.0 454309.0 0
185564.0 454892.0 0
189418.0 454140.0 0
190886.0 456797.0 0
193626.0 454741.0 0
197832.0 454028.0 0
202011.0 452497.0 0
201117.0 455961.0 0
204719.0 456534.0 0
208831.0 454166.0 0
211562.0 456300.0 0
214368.0 454890.0 0
217524.0 454496.0 0
222979.0 452449.0 0
220735.0 454753.0 0
225992.0 453948.0 0
228116.0 456436.0 0
231761.0 454473.0 0
235652.0 452489.0 0
237868.0 455908.0 0
241014.0 454266.0 0
243363.0 455608.0 0
247982.0 454793.0 0
252521.0 454980.0 0
255395.0 452777.0 0
258991.0 454796.0 0
263051.0 453273.0 0
267955.0 453440.0 0
265557.0 456356.0 0
271125.0 452685.0 0
273544.0 453414.0 0
271661.0 456459.0 0
275842.0 455689.0 0
279877.0 454024.0 0
283529.0 453941.0 0
285678.0 456275.0 0
287133.0 453306.0 0
290567.0 456003.0 0
293744.0 453646.0 0
296720.0 451916.0 0
296496.0 454360.0 0
299075.0 456098.0 0
303505.0 455065.0 0
307551.0 453057.0 0
306511.0 456640.0 0
310185.0 457159.0 0
311507.0 453731.0 0
314364.0 452805.0 0
314033.0 456256.0 0
317856.0 454613.0 0
321903.0 453521.0 0
326328.0 454595.0 0
330513.0 455349.0 0
334905.0 455982.0 0
338505.0 454248.0 0
343740.0 453376.0 0
341522.0 457327.0 0
346948.0 452777.0 0
349711.0 453375.0 0
348034.0 455438.0 0
345827.0 455939.0 0
354553.0 454682.0 0
351209.0 455946.0 0
358342.0 453613.0 0
360857.0 455960.0 0
362478.0 453042.0 0
365454.0 453530.0 0
364995.0 457854.0 0
368836.0 456460.0 0
372717.0 455600.0 0
375584.0 455469.0 0
379474.0 454936.0 0
384131.0 452912.0 0
383368.0 456559.0 0
386548.0 455296.0 0
390172.0 454206.0 0
388986.0 457139.0 0
394315.0 453104.0 0
392734.0 455756.0 0
394897.0 457169.0 0
396854.0 455878.0 0
400661.0 455131.0 0
399185.0 457493.0 0
404452.0 455059.0 0
403411.0 457401.0 0
406157.0 458036.0 0
407112.0 453603.0 0
408911.0 456331.0 0
412434.0 455433.0 0
415557.0 454277.0 0
418268.0 456074.0 0
420246.0 453121.0 0
421635.0 457661.0 0
423047.0 454785.0 0
425593.0 456151.0 0
428235.0 457796.0 0
65124.4 462063.0 0
67997.7 460353.0 0
70821.0 458911.0 0
73637.5 460683.0 0
75842.0 462595.0 0
79358.5 459049.0 0
78654.0 463123.0 0
82577.2 460754.0 0
87377.5 458210.0 0
85816.3 460921.0 0
89407.3 459470.0 0
92543.1 458209.0 0
89083.2 462407.0 0
92815.2 461322.0 0
95907.2 460979.0 0
99019.6 459156.0 0
101684.0 458346.0 0
99081.3 462237.0 0
102513.0 461341.0 0
105592.0 460109.0 0
106722.0 462273.0 0
108829.0 459334.0 0
112279.0 459214.0 0
109141.0 461924.0 0
112123.0 462589.0 0
115537.0 459246.0 0
115898.0 463350.0 0
119013.0 460396.0 0
122175.0 459517.0 0
122859.0 462094.0 0
126986.0 460218.0 0
130442.0 458349.0 0
131695.0 459410.0 0
130008.0 461960.0 0
134779.0 459279.0 0
137625.0 458490.0 0
134020.0 462558.0 0
138326.0 461447.0 0
141515.0 459784.0 0
142341.0 462238.0 0
144714.0 460027.0 0
146893.0 461319.0 0
153541.0 459167.0 0
149691.0 459746.0 0
154128.0 462010.0 0
157186.0 458364.0 0
157548.0 461640.0 0
161175.0 457795.0 0
160351.0 461163.0 0
164097.0 459459.0 0
167946.0 458669.0 0
166414.0 461612.0 0
170734.0 460796.0 0
174605.0 461040.0 0
178184.0 461333.0 0
183302.0 458955.0 0
187945.0 457908.0 0
186248.0 461781.0 0
189702.0 460862.0 0
191971.0 459040.0 0
193431.0 461993.0 0
195124.0 458171.0 0
198494.0 457620.0 0
197142.0 461617.0 0
201434.0 459850.0 0
205124.0 461667.0 0
208240.0 458562.0 0
214734.0 458579.0 0
211313.0 459540.0 0
212730.0 461978.0 0
218615.0 458277.0 0
220272.0 461900.0 0
223361.0 457975.0 0
226791.0 460745.0 0
234385.0 457583.0 0
230612.0 458957.0 0
233403.0 461666.0 0
237614.0 460915.0 0
240888.0 457835.0 0
241781.0 461368.0 0
244944.0 458962.0 0
248086.0 460988.0 0
251298.0 459097.0 0
255617.0 457739.0 0
257299.0 461704.0 0
259019.0 459213.0 0
262118.0 457930.0 0
268456.0 457972.0 0
265671.0 461494.0 0
270528.0 461091.0 0
275100.0 460227.0 0
278866.0 457823.0 0
282645.0 457669.0 0
280401.0 462023.0 0
284802.0 460881.0 0
287765.0 458681.0 0
291568.0 460415.0 0
294766.0 457833.0 0
294999.0 462207.0 0
298358.0 460298.0 0
302329.0 459243.0 0
306774.0 460700.0 0
311018.0 461243.0 0
313867.0 460280.0 0
317737.0 459199.0 0
322700.0 458211.0 0
327050.0 458195.0 0
327985.0 461444.0 0
330635.0 459075.0 0
333746.0 460016.0 0
337761.0 459793.0 0
341148.0 461817.0 0
343883.0 461551.0 0
346077.0 459020.0 0
349112.0 458153.0 0
347522.0 461992.0 0
353356.0 458870.0 0
350892.0 460998.0 0
357309.0 458306.0 0
355923.0 461371.0 0
361060.0 460791.0 0
365549.0 461696.0 0
368377.0 460410.0 0
371421.0 458894.0 0
375177.0 459529.0 0
371327.0 462013.0 0
378734.0 459424.0 0
380803.0 462284.0 0
381842.0 459643.0 0
384027.0 461906.0 0
386299.0 459428.0 0
389436.0 462154.0 0
391512.0 459187.0 0
394914.0 460831.0 0
397906.0 459605.0 0
400227.0 461650.0 0
401476.0 459216.0 0
403855.0 460958.0 0
406528.0 460584.0 0
410150.0 460111.0 0
409358.0 462830.0 0
413495.0 458927.0 0
416776.0 459148.0 0
413505.0 463045.0 0
421087.0 460518.0 0
417876.0 462856.0 0
425125.0 458907.0 0
424595.0 462400.0 0
430481.0 459020.0 0
428293.0 461419.0 0
430935.0 463391.0 0
432667.0 460999.0 0
435393.0 462094.0 0
55943.0 467410.0 0
59420.3 465950.0 0
62382.9 464051.0 0
63343.5 466686.0 0
66480.3 464880.0 0
65702.2 467479.0 0
69280.6 463600.0 0
69334.2 466725.0 0
71800.0 463519.0 0
71715.7 468139.0 0
73988.7 465758.0 0
76999.5 466671.0 0
82039.7 464232.0 0
80282.0 467079.0 0
85587.1 464412.0 0
83797.8 467980.0 0
87374.6 466888.0 0
90231.2 465287.0 0
91536.6 468039.0 0
93372.2 464125.0 0
96338.3 464005.0 0
93880.2 466356.0 0
96901.9 466711.0 0
100077.0 465052.0 0
103457.0 464283.0 0
99550.5 467629.0 0
103019.0 467424.0 0
106781.0 464976.0 0
106764.0 468096.0 0
109207.0 464691.0 0
111367.0 465885.0 0
114699.0 467093.0 0
119998.0 464361.0 0
123154.0 467382.0 0
125381.0 463995.0 0
128829.0 465585.0 0
133008.0 466891.0 0
136881.0 464504.0 0
137172.0 467754.0 0
140058.0 464448.0 0
140458.0 467839.0 0
143122.0 466023.0 0
144674.0 463350.0 0
147445.0 464238.0 0
146156.0 467635.0 0
150734.0 463267.0 0
149601.0 467318.0 0
153658.0 466311.0 0
155800.0 463787.0 0
158285.0 465150.0 0
162437.0 463376.0 0
161106.0 467892.0 0
168268.0 464363.0 0
165185.0 465572.0 0
171850.0 464680.0 0
175969.0 465339.0 0
181346.0 463809.0 0
185557.0 465056.0 0
190141.0 464770.0 0
195471.0 466389.0 0
200508.0 464105.0 0
203899.0 466086.0 0
209415.0 462590.0 0
207145.0 464971.0 0
209388.0 466419.0 0
212284.0 465403.0 0
216233.0 462894.0 0
219213.0 465940.0 0
223343.0 464076.0 0
227539.0 464966.0 0
229978.0 462295.0 0
231466.0 465202.0 0
235699.0 465233.0 0
240415.0 465827.0 0
244941.0 463794.0 0
247934.0 465125.0 0
253917.0 462338.0 0
250716.0 463889.0 0
252842.0 466938.0 0
256971.0 466026.0 0
261077.0 462981.0 0
264063.0 466576.0 0
268880.0 466221.0 0
273064.0 464079.0 0
276895.0 465293.0 0
284931.0 465153.0 0
288551.0 462818.0 0
288816.0 467539.0 0
292015.0 464651.0 0
295181.0 466052.0 0
298264.0 464498.0 0
301067.0 462688.0 0
303733.0 463523.0 0
302434.0 467473.0 0
307066.0 466079.0 0
313960.0 463632.0 0
310970.0 464807.0 0
316923.0 463650.0 0
320241.0 462764.0 0
324476.0 463326.0 0
320692.0 467478.0 0
328586.0 465768.0 0
331571.0 463326.0 0
335018.0 462960.0 0
331951.0 467497.0 0
334084.0 465569.0 0
338123.0 464257.0 0
341778.0 464279.0 0
341157.0 467711.0 0
345289.0 465431.0 0
349674.0 464872.0 0
353514.0 463726.0 0
352595.0 467457.0 0
358672.0 463344.0 0
360863.0 465612.0 0
356599.0 465806.0 0
359201.0 467775.0 0
363429.0 463592.0 0
363180.0 467421.0 0
368284.0 463254.0 0
366318.0 465946.0 0
374781.0 463211.0 0
371440.0 465238.0 0
375091.0 466848.0 0
378138.0 463403.0 0
379045.0 467114.0 0
382682.0 465534.0 0
386269.0 467877.0 0
386503.0 464052.0 0
390407.0 467091.0 0
393485.0 464404.0 0
396292.0 467289.0 0
398125.0 463813.0 0
400185.0 466058.0 0
403192.0 463566.0 0
406513.0 463309.0 0
403691.0 467389.0 0
407129.0 465606.0 0
410239.0 464943.0 0
410952.0 467597.0 0
413874.0 466022.0 0
416785.0 466430.0 0
421241.0 465565.0 0
426281.0 465435.0 0
428928.0 465016.0 0
429588.0 467504.0 0
432938.0 466327.0 0
435606.0 465126.0 0
437501.0 467906.0 0
438455.0 464253.0 0
441000.0 466575.0 0
444399.0 468322.0 0
50097.6 470640.0 0
47801.1 473223.0 0
51549.8 472902.0 0
53391.0 469684.0 0
55550.3 471613.0 0
58189.0 469204.0 0
58901.4 472105.0 0
61574.9 468636.0 0
61947.3 471483.0 0
64459.3 469683.0 0
65702.2 471368.0 0
67661.1 468697.0 0
69045.1 471332.0 0
72304.8 473015.0 0
73854.9 470144.0 0
77054.3 470357.0 0
80630.0 470067.0 0
82232.7 473138.0 0
85178.8 470846.0 0
88599.0 469919.0 0
91234.3 471968.0 0
94634.0 469587.0 0
94212.7 472834.0 0
97880.5 470513.0 0
101779.0 470871.0 0
105851.0 471675.0 0
110078.0 468646.0 0
109571.0 473076.0 0
113201.0 470400.0 0
118361.0 469183.0 0
115846.0 472487.0 0
122182.0 472707.0 0
126624.0 468306.0 0
126382.0 471411.0 0
130211.0 470535.0 0
134318.0 471388.0 0
138299.0 471394.0 0
142672.0 470536.0 0
147520.0 471194.0 0
151399.0 470183.0 0
156192.0 469614.0 0
159593.0 471177.0 0
162578.0 471673.0 0
164820.0 468960.0 0
168583.0 468091.0 0
166187.0 472574.0 0
172393.0 468027.0 0
170587.0 471601.0 0
178426.0 468358.0 0
174726.0 470150.0 0
176956.0 471982.0 0
182628.0 468211.0 0
179895.0 471563.0 0
184094.0 472177.0 0
186855.0 468397.0 0
187944.0 471566.0 0
190957.0 469238.0 0
193663.0 471178.0 0
196575.0 471012.0 0
200211.0 468889.0 0
202579.0 472425.0 0
203961.0 469810.0 0
206974.0 468611.0 0
210746.0 470281.0 0
214548.0 472358.0 0
215457.0 467766.0 0
218677.0 470559.0 0
221389.0 468423.0 0
224751.0 468618.0 0
228970.0 468984.0 0
233038.0 469084.0 0
237169.0 469700.0 0
241474.0 471126.0 0
249649.0 467927.0 0
245373.0 468592.0 0
251767.0 470531.0 0
254904.0 470666.0 0
258665.0 470437.0 0
260674.0 467536.0 0
262342.0 470553.0 0
266037.0 470863.0 0
270430.0 471818.0 0
273631.0 468542.0 0
277792.0 470162.0 0
281217.0 467326.0 0
282054.0 471481.0 0
285157.0 469696.0 0
288538.0 472377.0 0
293063.0 469470.0 0
297958.0 468894.0 0
306594.0 470208.0 0
309430.0 472298.0 0
315486.0 467993.0 0
310866.0 469158.0 0
311932.0 472396.0 0
314605.0 472100.0 0
319633.0 472469.0 0
325078.0 467719.0 0
324306.0 471198.0 0
328380.0 469868.0 0
332496.0 470937.0 0
336650.0 468928.0 0
344404.0 469797.0 0
340944.0 471317.0 0
344061.0 472759.0 0
348614.0 468548.0 0
347642.0 472200.0 0
352621.0 472117.0 0
356146.0 469199.0 0
358058.0 471927.0 0
361496.0 470683.0 0
366553.0 470342.0 0
369727.0 468030.0 0
370320.0 472006.0 0
372878.0 469459.0 0
376457.0 470630.0 0
380003.0 471533.0 0
382924.0 469696.0 0
383020.0 473357.0 0
386512.0 471965.0 0
390386.0 471808.0 0
393993.0 469947.0 0
395081.0 473005.0 0
397992.0 470550.0 0
399455.0 468362.0 0
401862.0 470806.0 0
405129.0 471907.0 0
407860.0 469583.0 0
408879.0 473373.0 0
412065.0 471688.0 0
413809.0 469102.0 0
417130.0 469637.0 0
421782.0 469845.0 0
426052.0 468466.0 0
425033.0 473330.0 0
428868.0 471438.0 0
432805.0 469941.0 0
436155.0 469595.0 0
433943.0 473775.0 0
437611.0 472535.0 0
440718.0 470387.0 0
442698.0 473361.0 0
445242.0 471031.0 0
447687.0 469443.0 0
449912.0 472082.0 0
41816.9 477831.0 0
44492.5 474553.0 0
45737.6 477314.0 0
48630.2 476513.0 0
51835.0 476056.0 0
54793.4 474633.0 0
55821.5 478015.0 0
59003.4 475574.0 0
60144.1 478600.0 0
63663.9 474621.0 0
67669.5 474835.0 0
63879.6 478625.0 0
71247.3 476047.0 0
75419.9 474056.0 0
74644.6 477160.0 0
78663.4 474044.0 0
77980.0 477648.0 0
80960.4 476475.0 0
84912.0 475386.0 0
87326.7 473539.0 0
90087.9 474880.0 0
87858.5 478081.0 0
91406.0 477980.0 0
93258.4 475650.0 0
97154.6 473657.0 0
96463.7 476980.0 0
100256.0 474210.0 0
100309.0 477970.0 0
104277.0 475494.0 0
107590.0 476262.0 0
105996.0 478357.0 0
110979.0 477406.0 0
113232.0 473976.0 0
117971.0 473953.0 0
115165.0 476820.0 0
119645.0 477860.0 0
126755.0 474823.0 0
130787.0 474573.0 0
135032.0 475031.0 0
143771.0 474621.0 0
139098.0 475222.0 0
147327.0 474671.0 0
149916.0 473215.0 0
153150.0 473089.0 0
149734.0 476479.0 0
157061.0 473663.0 0
154251.0 477577.0 0
160439.0 473677.0 0
159305.0 476747.0 0
162928.0 475051.0 0
165427.0 476700.0 0
168761.0 475805.0 0
173537.0 474884.0 0
177566.0 475329.0 0
180983.0 474479.0 0
182871.0 477059.0 0
186852.0 475449.0 0
190767.0 473565.0 0
199220.0 473590.0 0
194680.0 475424.0 0
202559.0 475970.0 0
206476.0 473123.0 0
210593.0 476216.0 0
214582.0 476033.0 0
218342.0 475395.0 0
222367.0 472937.0 0
226563.0 472835.0 0
224938.0 476135.0 0
228440.0 476625.0 0
230475.0 472920.0 0
234110.0 473145.0 0
231743.0 475958.0 0
235125.0 477349.0 0
238006.0 474157.0 0
241523.0 475446.0 0
244918.0 474016.0 0
248699.0 472298.0 0
252492.0 474764.0 0
256884.0 474300.0 0
263580.0 474462.0 0
260294.0 473550.0 0
267639.0 475474.0 0
271893.0 476623.0 0
274735.0 473284.0 0
275816.0 477188.0 0
279407.0 474888.0 0
283066.0 477297.0 0
284471.0 473732.0 0
286525.0 476023.0 0
292469.0 473644.0 0
290352.0 477200.0 0
294363.0 476603.0 0
296995.0 473444.0 0
299972.0 476342.0 0
302447.0 473099.0 0
306981.0 474087.0 0
305544.0 477677.0 0
311261.0 476633.0 0
316247.0 475340.0 0
324491.0 475503.0 0
328443.0 473664.0 0
332325.0 474514.0 0
334523.0 477942.0 0
337120.0 473843.0 0
341731.0 475201.0 0
346306.0 475545.0 0
349836.0 475171.0 0
353321.0 477011.0 0
356591.0 474963.0 0
360731.0 475917.0 0
364410.0 474048.0 0
365225.0 478263.0 0
368450.0 474830.0 0
373817.0 473247.0 0
371387.0 475232.0 0
374353.0 477357.0 0
377751.0 474624.0 0
381035.0 475424.0 0
382220.0 478422.0 0
385620.0 476205.0 0
389367.0 475446.0 0
392766.0 474579.0 0
392538.0 478047.0 0
396633.0 477136.0 0
398417.0 473870.0 0
401052.0 477746.0 0
401919.0 474483.0 0
405592.0 474968.0 0
405214.0 478445.0 0
412105.0 475483.0 0
409306.0 477065.0 0
415779.0 473445.0 0
415626.0 477235.0 0
419727.0 474367.0 0
418719.0 478158.0 0
422679.0 475904.0 0
425488.0 477028.0 0
428999.0 475161.0 0
427653.0 477659.0 0
436744.0 476996.0 0
432533.0 477628.0 0
439590.0 475390.0 0
441315.0 478343.0 0
447000.0 474597.0 0
444269.0 477423.0 0
453119.0 473915.0 0
452030.0 476685.0 0
449396.0 478389.0 0
456444.0 475748.0 0
454809.0 478685.0 0
459492.0 477399.0 0
31443.2 483306.0 0
34215.1 481083.0 0
35093.5 483857.0 0
37801.9 479952.0 0
37573.4 483643.0 0
41828.6 482914.0 0
45493.2 480481.0 0
49200.1 479959.0 0
47965.6 483175.0 0
52861.6 478771.0 0
56867.4 480803.0 0
52717.9 482435.0 0
59986.7 481684.0 0
64164.3 482893.0 0
68143.3 478924.0 0
72225.2 480005.0 0
68387.5 482495.0 0
71569.7 483573.0 0
75875.7 480852.0 0
79686.6 480320.0 0
78389.1 483361.0 0
82196.0 482940.0 0
83110.7 478766.0 0
85986.5 481907.0 0
90487.0 481485.0 0
93804.8 479317.0 0
97098.2 480840.0 0
94064.1 482403.0 0
101238.0 482870.0 0
103759.0 479319.0 0
105817.0 481270.0 0
108093.0 478857.0 0
109618.0 481968.0 0
113203.0 480417.0 0
116705.0 481700.0 0
121499.0 482156.0 0
124172.0 478063.0 0
125459.0 482325.0 0
128629.0 478921.0 0
132900.0 478939.0 0
130193.0 482681.0 0
136902.0 478941.0 0
134402.0 482573.0 0
141268.0 478771.0 0
138689.0 482355.0 0
143412.0 481898.0 0
145655.0 478174.0 0
148693.0 480746.0 0
153026.0 482340.0 0
158223.0 480853.0 0
162440.0 478776.0 0
166720.0 480472.0 0
171068.0 479111.0 0
175532.0 480597.0 0
179483.0 478116.0 0
180825.0 481910.0 0
185334.0 480101.0 0
190309.0 478720.0 0
198697.0 478367.0 0
194682.0 480718.0 0
202200.0 480809.0 0
205840.0 478110.0 0
205619.0 482688.0 0
208366.0 480635.0 0
211641.0 481659.0 0
214821.0 479253.0 0
218269.0 480053.0 0
222063.0 478054.0 0
226005.0 480370.0 0
231384.0 480142.0 0
236249.0 481309.0 0
239328.0 478290.0 0
241148.0 482201.0 0
243489.0 478150.0 0
248125.0 477522.0 0
245396.0 481257.0 0
252035.0 479087.0 0
255693.0 478180.0 0
258356.0 481330.0 0
260243.0 477738.0 0
264624.0 478972.0 0
269058.0 480329.0 0
274018.0 481604.0 0
279014.0 479522.0 0
282763.0 481921.0 0
286773.0 479863.0 0
290483.0 482228.0 0
293968.0 480087.0 0
297872.0 478381.0 0
297014.0 481727.0 0
300273.0 481713.0 0
301907.0 478395.0 0
304352.0 482407.0 0
308531.0 480797.0 0
315486.0 479526.0 0
320343.0 478333.0 0
322164.0 482923.0 0
324731.0 480576.0 0
329580.0 478887.0 0
334696.0 482620.0 0
339220.0 479510.0 0
344366.0 478632.0 0
342952.0 482932.0 0
349479.0 478863.0 0
346825.0 481709.0 0
354096.0 481106.0 0
357597.0 478778.0 0
357616.0 482568.0 0
361641.0 481035.0 0
370057.0 479109.0 0
366569.0 482258.0 0
370603.0 483169.0 0
374931.0 482012.0 0
378393.0 478409.0 0
379506.0 482027.0 0
386642.0 480387.0 0
383193.0 481628.0 0
389407.0 478698.0 0
391146.0 482892.0 0
394852.0 481304.0 0
398955.0 481364.0 0
403222.0 481335.0 0
405902.0 481154.0 0
408745.0 480770.0 0
413102.0 479938.0 0
421951.0 479092.0 0
417333.0 481771.0 0
421008.0 482526.0 0
425305.0 480820.0 0
429415.0 480402.0 0
434855.0 481359.0 0
437723.0 479809.0 0
439686.0 482034.0 0
446259.0 480677.0 0
443018.0 482094.0 0
452304.0 482159.0 0
457720.0 479385.0 0
456661.0 482361.0 0
459113.0 480885.0 0
462293.0 480043.0 0
460007.0 483404.0 0
465915.0 481919.0 0
469453.0 482747.0 0
25169.7 487242.0 0
28043.8 484883.0 0
28394.7 487954.0 0
32358.7 487102.0 0
36418.6 486708.0 0
39161.9 486446.0 0
42673.1 487001.0 0
45395.4 484341.0 0
46337.6 487400.0 0
50183.9 486078.0 0
56042.4 484573.0 0
54084.9 487825.0 0
59798.2 485783.0 0
57303.1 488968.0 0
64502.5 487389.0 0
67285.5 484951.0 0
69551.8 487207.0 0
74848.2 483933.0 0
73407.1 487357.0 0
76666.9 486628.0 0
80748.3 486218.0 0
84713.0 485560.0 0
88320.6 484794.0 0
92189.1 485932.0 0
87605.2 488000.0 0
96782.5 484820.0 0
99043.8 487335.0 0
102348.0 487019.0 0
105719.0 484732.0 0
109179.0 485853.0 0
113231.0 484713.0 0
115413.0 488468.0 0
118781.0 485334.0 0
122974.0 485920.0 0
127344.0 486048.0 0
131981.0 486117.0 0
136234.0 486196.0 0
140861.0 486221.0 0
146146.0 484605.0 0
149830.0 484661.0 0
152021.0 485956.0 0
156461.0 485487.0 0
162395.0 483702.0 0
160101.0 488102.0 0
167143.0 484929.0 0
170638.0 483221.0 0
170243.0 487676.0 0
173793.0 485063.0 0
177888.0 485404.0 0
183983.0 484075.0 0
181691.0 486409.0 0
187751.0 483607.0 0
185131.0 487152.0 0
191612.0 483317.0 0
194096.0 485004.0 0
198037.0 483775.0 0
199171.0 487799.0 0
202356.0 485189.0 0
208424.0 483702.0 0
206234.0 486778.0 0
211132.0 486477.0 0
215752.0 484103.0 0
221076.0 483441.0 0
225469.0 484974.0 0
228970.0 483387.0 0
229237.0 487257.0 0
233261.0 485046.0 0
237589.0 484990.0 0
240780.0 486944.0 0
244872.0 485146.0 0
249470.0 482972.0 0
248229.0 487680.0 0
254427.0 482460.0 0
253060.0 487063.0 0
258559.0 486566.0 0
262203.0 482633.0 0
264784.0 487383.0 0
266279.0 483134.0 0
270035.0 485462.0 0
274918.0 485970.0 0
278473.0 484197.0 0
282542.0 487094.0 0
286813.0 484616.0 0
291256.0 487268.0 0
294523.0 484244.0 0
297992.0 484583.0 0
301165.0 485905.0 0
304965.0 487029.0 0
308512.0 485068.0 0
312837.0 483137.0 0
318535.0 483130.0 0
316302.0 487392.0 0
321632.0 487230.0 0
324911.0 485018.0 0
327853.0 483152.0 0
328791.0 487290.0 0
331010.0 483893.0 0
332779.0 486956.0 0
339206.0 484751.0 0
336242.0 486559.0 0
342958.0 487216.0 0
350626.0 483769.0 0
346771.0 485422.0 0
354823.0 485629.0 0
359097.0 485757.0 0
363451.0 485717.0 0
368282.0 486675.0 0
373523.0 486716.0 0
377903.0 485408.0 0
382130.0 484966.0 0
386255.0 484300.0 0
389267.0 486907.0 0
396585.0 485157.0 0
393170.0 487743.0 0
401665.0 485077.0 0
400351.0 488300.0 0
406576.0 484603.0 0
411470.0 483890.0 0
410331.0 487843.0 0
414566.0 483959.0 0
414733.0 487667.0 0
417430.0 485310.0 0
420429.0 486149.0 0
418357.0 488482.0 0
424313.0 484500.0 0
423489.0 488065.0 0
428029.0 484066.0 0
431537.0 483373.0 0
427559.0 487732.0 0
431525.0 487054.0 0
435147.0 485442.0 0
438482.0 484795.0 0
441621.0 485610.0 0
439542.0 488650.0 0
444645.0 485474.0 0
442674.0 488482.0 0
448333.0 484362.0 0
450404.0 487356.0 0
453688.0 486312.0 0
457145.0 485584.0 0
459846.0 487106.0 0
463098.0 485376.0 0
467611.0 485892.0 0
463660.0 489105.0 0
466427.0 489214.0 0
471782.0 485481.0 0
475019.0 486686.0 0
16516.3 492047.0 0
13834.0 494073.0 0
18158.9 490231.0 0
21847.9 490395.0 0
26565.1 490699.0 0
29561.6 490261.0 0
29280.7 493352.0 0
32644.3 491228.0 0
36507.1 490362.0 0
40073.7 489420.0 0
37116.5 493962.0 0
40297.0 492646.0 0
43872.4 490503.0 0
48098.6 489876.0 0
51081.9 490078.0 0
46896.6 493184.0 0
50566.1 493029.0 0
54454.9 491974.0 0
61116.5 489445.0 0
58558.5 492048.0 0
63397.3 492009.0 0
66944.3 490321.0 0
71262.4 490993.0 0
67998.5 493510.0 0
74757.8 490248.0 0
73497.5 493167.0 0
76549.0 493662.0 0
78676.0 489810.0 0
81349.4 492792.0 0
83546.4 489030.0 0
87012.3 492771.0 0
90897.5 489534.0 0
95570.9 489066.0 0
92732.0 492418.0 0
96572.3 493009.0 0
100553.0 491029.0 0
105877.0 489358.0 0
110675.0 488821.0 0
108326.0 493067.0 0
112492.0 492320.0 0
117604.0 492544.0 0
120533.0 489311.0 0
121815.0 493589.0 0
124443.0 489624.0 0
129366.0 489901.0 0
133979.0 489907.0 0
137906.0 489587.0 0
141206.0 491651.0 0
144350.0 488474.0 0
148817.0 488276.0 0
145672.0 492059.0 0
152987.0 489206.0 0
149660.0 492498.0 0
156663.0 489955.0 0
159689.0 492388.0 0
164765.0 489152.0 0
168359.0 492232.0 0
172299.0 491251.0 0
175157.0 488712.0 0
176026.0 493312.0 0
179763.0 489968.0 0
184866.0 491353.0 0
189286.0 493104.0 0
190091.0 488282.0 0
193341.0 492312.0 0
195406.0 488231.0 0
197917.0 491422.0 0
202513.0 489832.0 0
208417.0 489636.0 0
214567.0 488469.0 0
211624.0 491372.0 0
218041.0 487953.0 0
215940.0 491983.0 0
219752.0 491797.0 0
222030.0 488274.0 0
224111.0 492716.0 0
225773.0 488930.0 0
228491.0 491614.0 0
232529.0 490267.0 0
236526.0 488741.0 0
239824.0 491402.0 0
244152.0 489442.0 0
247476.0 492473.0 0
251157.0 490365.0 0
255761.0 492521.0 0
261202.0 491944.0 0
265526.0 492392.0 0
269088.0 490489.0 0
273509.0 489343.0 0
277609.0 488266.0 0
280279.0 490760.0 0
283928.0 492054.0 0
286895.0 489047.0 0
287083.0 492096.0 0
290580.0 492305.0 0
296807.0 489132.0 0
302110.0 489916.0 0
308513.0 488774.0 0
306193.0 490957.0 0
310182.0 491991.0 0
311849.0 488246.0 0
314835.0 492674.0 0
319502.0 491112.0 0
325284.0 488618.0 0
323759.0 492300.0 0
327501.0 491027.0 0
335351.0 489517.0 0
331844.0 491460.0 0
339663.0 489687.0 0
336661.0 493199.0 0
344712.0 492312.0 0
346294.0 488660.0 0
350838.0 489255.0 0
354374.0 492684.0 0
360710.0 489160.0 0
356688.0 489619.0 0
360151.0 492312.0 0
364846.0 491256.0 0
370783.0 490974.0 0
376777.0 488860.0 0
374761.0 491064.0 0
380742.0 488671.0 0
378808.0 493054.0 0
385478.0 488959.0 0
383043.0 492450.0 0
389860.0 491049.0 0
393819.0 492458.0 0
397141.0 489975.0 0
402015.0 491847.0 0
405184.0 489233.0 0
409010.0 491612.0 0
416887.0 491793.0 0
413022.0 491805.0 0
421219.0 491253.0 0
425889.0 491503.0 0
431107.0 491665.0 0
435665.0 489446.0 0
439246.0 491756.0 0
442688.0 491690.0 0
446271.0 489104.0 0
446265.0 492717.0 0
449720.0 490548.0 0
452675.0 489331.0 0
449302.0 493775.0 0
456469.0 490121.0 0
453009.0 492361.0 0
460788.0 490243.0 0
459647.0 493771.0 0
468335.0 491949.0 0
464297.0 493134.0 0
470288.0 489167.0 0
471669.0 493495.0 0
473549.0 490233.0 0
477689.0 489179.0 0
475742.0 492952.0 0
480874.0 490099.0 0
483217.0 492120.0 0
479316.0 493957.0 0
4763.94 499421.0 0
7699.56 497559.0 0
10769.3 496080.0 0
14953.6 498069.0 0
18302.6 494521.0 0
19656.7 498540.0 0
21943.1 494904.0 0
25409.7 494131.0 0
23974.3 498487.0 0
28634.8 497736.0 0
33245.7 494752.0 0
35908.2 497270.0 0
32490.8 498653.0 0
40034.7 497474.0 0
43010.0 494226.0 0
45199.6 497058.0 0
49059.5 496847.0 0
52655.5 495551.0 0
56469.2 494968.0 0
54600.5 497989.0 0
60528.7 495005.0 0
58329.6 498333.0 0
64780.3 495671.0 0
62125.8 498269.0 0
68389.8 497010.0 0
71166.3 494864.0 0
71544.9 498859.0 0
73781.7 495630.0 0
75630.5 498079.0 0
79010.1 495967.0 0
83279.1 496564.0 0
87146.5 498400.0 0
90689.1 495758.0 0
94688.2 496383.0 0
99466.4 496291.0 0
103980.0 494216.0 0
103277.0 498171.0 0
107031.0 497460.0 0
110623.0 496356.0 0
114418.0 495367.0 0
113288.0 498588.0 0
118311.0 497938.0 0
126348.0 493859.0 0
123430.0 498333.0 0
131569.0 494115.0 0
128800.0 498513.0 0
136557.0 494175.0 0
133761.0 498492.0 0
143399.0 494785.0 0
140513.0 495916.0 0
146550.0 495609.0 0
150304.0 496046.0 0
154359.0 493970.0 0
158212.0 497253.0 0
163576.0 494899.0 0
167850.0 495975.0 0
171866.0 495299.0 0
180591.0 495394.0 0
186305.0 496371.0 0
191403.0 496961.0 0
196099.0 495272.0 0
201039.0 494323.0 0
206338.0 493410.0 0
208306.0 497927.0 0
210583.0 495030.0 0
213569.0 494809.0 0
217224.0 497022.0 0
221219.0 495365.0 0
224521.0 497367.0 0
227290.0 495120.0 0
230966.0 494728.0 0
235695.0 494050.0 0
239762.0 495785.0 0
243086.0 494149.0 0
246153.0 496714.0 0
249697.0 497002.0 0
251486.0 493932.0 0
253378.0 496665.0 0
259138.0 496406.0 0
263597.0 497008.0 0
268259.0 495219.0 0
272342.0 494062.0 0
276794.0 493154.0 0
275393.0 497538.0 0
279242.0 497125.0 0
280613.0 494119.0 0
283063.0 496191.0 0
286933.0 494968.0 0
290463.0 497999.0 0
294936.0 494665.0 0
300026.0 493905.0 0
304036.0 493699.0 0
307701.0 494784.0 0
311712.0 496082.0 0
315921.0 497815.0 0
319528.0 495203.0 0
323761.0 496977.0 0
328542.0 495332.0 0
333678.0 496313.0 0
340477.0 493928.0 0
338338.0 496939.0 0
342136.0 496885.0 0
346029.0 496775.0 0
350556.0 494982.0 0
355476.0 496155.0 0
357296.0 493475.0 0
359180.0 495870.0 0
361807.0 494783.0 0
364404.0 495917.0 0
361895.0 498076.0 0
368796.0 495512.0 0
374297.0 495560.0 0
378912.0 496931.0 0
386632.0 493658.0 0
382879.0 496141.0 0
390707.0 495059.0 0
387342.0 497440.0 0
395228.0 496441.0 0
398479.0 493853.0 0
400163.0 498016.0 0
402856.0 495315.0 0
406361.0 494111.0 0
405274.0 498753.0 0
410985.0 494864.0 0
408410.0 496987.0 0
410384.0 497706.0 0
415234.0 495006.0 0
413353.0 497853.0 0
417371.0 497939.0 0
419250.0 495082.0 0
421982.0 498130.0 0
423853.0 494855.0 0
427633.0 498644.0 0
428082.0 494493.0 0
431884.0 496271.0 0
435764.0 493818.0 0
436074.0 497956.0 0
440331.0 495294.0 0
439641.0 499027.0 0
444244.0 494616.0 0
447250.0 495979.0 0
443897.0 498362.0 0
452344.0 496566.0 0
456067.0 494610.0 0
457993.0 498949.0 0
461938.0 496775.0 0
465303.0 497195.0 0
468418.0 495625.0 0
471777.0 498217.0 0
474295.0 495162.0 0
476960.0 498017.0 0
482970.0 495980.0 0
481138.0 499239.0 0
486115.0 494359.0 0
485568.0 499094.0 0
489367.0 497073.0 0
493189.0 499119.0 0
1797.29 500069.0 0
11102.3 499887.0 0
7504.39 501961.0 0
13588.9 502179.0 0
11225.3 504051.0 0
17305.8 502273.0 0
21929.2 502694.0 0
26466.9 502467.0 0
30690.4 502071.0 0
35307.5 500938.0 0
39446.3 503224.0 0
43556.1 500443.0 0
44830.5 503762.0 0
47154.9 500213.0 0
51128.8 500096.0 0
48419.5 503277.0 0
55170.1 501512.0 0
58156.1 501617.0 0
61034.7 501666.0 0
65847.1 500400.0 0
66481.8 504234.0 0
69993.6 502670.0 0
76837.5 500850.0 0
74331.3 502897.0 0
79710.9 499340.0 0
79041.4 503571.0 0
83435.6 500981.0 0
87323.4 502557.0 0
91471.2 499945.0 0
96292.3 499823.0 0
93938.5 502801.0 0
96988.8 503838.0 0
100438.0 500799.0 0
105486.0 502061.0 0
109928.0 500534.0 0
114539.0 502488.0 0
120363.0 502982.0 0
125742.0 503154.0 0
131119.0 503006.0 0
137986.0 498946.0 0
135294.0 501777.0 0
143064.0 499391.0 0
138808.0 503046.0 0
148170.0 498878.0 0
153002.0 499626.0 0
157355.0 502348.0 0
161724.0 500174.0 0
165636.0 498691.0 0
165458.0 502899.0 0
169827.0 499818.0 0
172805.0 502679.0 0
175632.0 498722.0 0
182910.0 498477.0 0
180319.0 501478.0 0
184624.0 500514.0 0
188191.0 500894.0 0
191641.0 501585.0 0
199052.0 498242.0 0
195102.0 499870.0 0
199299.0 503016.0 0
203882.0 499267.0 0
208457.0 502732.0 0
212342.0 498925.0 0
215559.0 501869.0 0
219603.0 501931.0 0
221531.0 498839.0 0
224396.0 501887.0 0
228686.0 499274.0 0
232917.0 497925.0 0
232752.0 502349.0 0
237297.0 499722.0 0
242650.0 499320.0 0
247459.0 500560.0 0
251968.0 500227.0 0
256148.0 498457.0 0
260106.0 501016.0 0
264660.0 501824.0 0
267463.0 499287.0 0
271287.0 498449.0 0
274023.0 501908.0 0
277927.0 500704.0 0
282116.0 500471.0 0
286013.0 498946.0 0
287927.0 502831.0 0
292483.0 503066.0 0
294501.0 499366.0 0
298819.0 498806.0 0
296152.0 502197.0 0
303991.0 498447.0 0
308694.0 498618.0 0
307602.0 502804.0 0
312539.0 501036.0 0
320010.0 499762.0 0
317151.0 503378.0 0
324070.0 501593.0 0
327193.0 499480.0 0
331271.0 499929.0 0
336297.0 500827.0 0
340644.0 500403.0 0
344655.0 500336.0 0
349029.0 499809.0 0
353270.0 499631.0 0
351322.0 503049.0 0
358012.0 499787.0 0
366217.0 500101.0 0
362145.0 501983.0 0
371017.0 499957.0 0
374142.0 499714.0 0
374629.0 503041.0 0
377065.0 499576.0 0
380803.0 499920.0 0
378560.0 502879.0 0
384531.0 500054.0 0
391728.0 499234.0 0
388055.0 502293.0 0
396814.0 501138.0 0
402044.0 502527.0 0
406177.0 502776.0 0
409821.0 500812.0 0
414935.0 501281.0 0
419642.0 501819.0 0
424620.0 502610.0 0
432684.0 500303.0 0
429734.0 503277.0 0
437083.0 501693.0 0
441280.0 502265.0 0
445690.0 502550.0 0
448643.0 499432.0 0
449690.0 503215.0 0
453146.0 500923.0 0
456819.0 503788.0 0
463148.0 500312.0 0
460994.0 503384.0 0
467560.0 499791.0 0
466071.0 503573.0 0
470616.0 502400.0 0
475018.0 501847.0 0
479378.0 502990.0 0
489287.0 502342.0 0
484346.0 503438.0 0
493936.0 502391.0 0
497676.0 500005.0 0
497333.0 503814.0 0
2660.86 503455.0 0
2498.21 507714.0 0
6896.16 506451.0 0
15040.6 505965.0 0
11219.6 507498.0 0
14176.5 509868.0 0
19532.9 506345.0 0
24180.8 506345.0 0
21661.8 509556.0 0
28712.2 506076.0 0
33480.1 504982.0 0
31679.3 509318.0 0
36990.6 507925.0 0
42401.3 507406.0 0
47220.1 506937.0 0
52348.4 505254.0 0
55370.6 508911.0 0
57583.7 504941.0 0
59319.1 508163.0 0
62637.2 505265.0 0
66594.7 507580.0 0
68597.4 505389.0 0
71528.5 506969.0 0
76092.1 507038.0 0
80022.0 507607.0 0
83619.8 505215.0 0
87323.6 507058.0 0
90629.3 504367.0 0
91441.0 508343.0 0
93910.1 505588.0 0
96309.8 508430.0 0
101005.0 505302.0 0
105555.0 507074.0 0
109799.0 504736.0 0
117308.0 505315.0 0
114002.0 507585.0 0
119161.0 507604.0 0
123088.0 507335.0 0
128489.0 508516.0 0
134848.0 506722.0 0
142779.0 504539.0 0
139671.0 507796.0 0
147954.0 503508.0 0
150020.0 507999.0 0
153148.0 504981.0 0
157040.0 507240.0 0
161120.0 505015.0 0
164931.0 507503.0 0
169454.0 505302.0 0
176071.0 504715.0 0
180272.0 506957.0 0
184728.0 504797.0 0
189444.0 505632.0 0
194687.0 505045.0 0
199963.0 507206.0 0
203730.0 505140.0 0
207638.0 507904.0 0
212486.0 503199.0 0
211493.0 506244.0 0
216749.0 507433.0 0
221749.0 505345.0 0
225074.0 507367.0 0
228553.0 504599.0 0
232805.0 507189.0 0
236590.0 504926.0 0
240646.0 503856.0 0
243597.0 508095.0 0
244785.0 503350.0 0
249680.0 505342.0 0
254543.0 508038.0 0
255458.0 503172.0 0
258104.0 506018.0 0
262349.0 506114.0 0
269465.0 503184.0 0
266101.0 504786.0 0
273292.0 506961.0 0
276938.0 504641.0 0
279948.0 503664.0 0
279685.0 507521.0 0
283719.0 505271.0 0
288058.0 508162.0 0
292682.0 507375.0 0
299476.0 503332.0 0
296398.0 505789.0 0
303260.0 503697.0 0
300536.0 507299.0 0
310798.0 506162.0 0
313990.0 504569.0 0
314975.0 507924.0 0
319787.0 507973.0 0
321113.0 503762.0 0
324502.0 505818.0 0
328179.0 503529.0 0
332985.0 504826.0 0
337801.0 505595.0 0
343078.0 505002.0 0
347880.0 503355.0 0
347785.0 506442.0 0
355095.0 503968.0 0
351915.0 507580.0 0
358972.0 504281.0 0
365176.0 504204.0 0
362175.0 506284.0 0
366336.0 507783.0 0
369659.0 504468.0 0
373600.0 506993.0 0
378338.0 507085.0 0
382809.0 504352.0 0
386200.0 505459.0 0
382223.0 508246.0 0
385587.0 508263.0 0
389516.0 506948.0 0
393045.0 504176.0 0
398146.0 506335.0 0
405246.0 506028.0 0
402520.0 506271.0 0
408433.0 505133.0 0
410355.0 507805.0 0
412440.0 504385.0 0
417302.0 505455.0 0
414255.0 508403.0 0
421862.0 506230.0 0
426760.0 506753.0 0
431567.0 507634.0 0
434232.0 504165.0 0
435995.0 508319.0 0
438617.0 505682.0 0
443258.0 506969.0 0
447558.0 505857.0 0
447680.0 509248.0 0
450567.0 506879.0 0
452775.0 504580.0 0
454621.0 507634.0 0
463030.0 507014.0 0
458875.0 507363.0 0
466846.0 507857.0 0
473512.0 505166.0 0
470085.0 506339.0 0
473796.0 508756.0 0
477142.0 506025.0 0
477331.0 509482.0 0
482136.0 508015.0 0
487925.0 506944.0 0
492682.0 505992.0 0
497404.0 507786.0 0
2070.52 511419.0 0
9292.92 509574.0 0
6285.23 511332.0 0
11165.9 511874.0 0
14724.4 513488.0 0
17588.7 509864.0 0
26236.0 510821.0 0
30685.1 514374.0 0
35144.3 512141.0 0
39945.2 511324.0 0
45138.1 510748.0 0
50573.7 509794.0 0
54056.5 512844.0 0
58570.2 511629.0 0
62917.7 509970.0 0
62533.4 514156.0 0
68438.6 512436.0 0
73977.7 510565.0 0
78628.1 511666.0 0
83609.0 509808.0 0
87731.1 511315.0 0
92599.0 512470.0 0
97385.7 512787.0 0
101085.0 509930.0 0
105095.0 511631.0 0
109321.0 509369.0 0
112845.0 512434.0 0
117543.0 511363.0 0
122267.0 511747.0 0
132994.0 511399.0 0
137165.0 511057.0 0
140891.0 511750.0 0
145055.0 509256.0 0
153326.0 509569.0 0
149600.0 512419.0 0
156563.0 511574.0 0
160767.0 509660.0 0
164587.0 511895.0 0
168777.0 510200.0 0
172741.0 508192.0 0
172820.0 512783.0 0
176432.0 509777.0 0
179865.0 511195.0 0
184151.0 510197.0 0
188586.0 510270.0 0
192264.0 509022.0 0
196845.0 510028.0 0
199161.0 513124.0 0
202793.0 510868.0 0
207561.0 512285.0 0
211777.0 510741.0 0
221666.0 508949.0 0
220104.0 511621.0 0
224108.0 511589.0 0
228829.0 509977.0 0
233787.0 512096.0 0
238060.0 509247.0 0
241138.0 512230.0 0
247784.0 509495.0 0
246375.0 512878.0 0
250995.0 511226.0 0
258676.0 509949.0 0
255073.0 512536.0 0
263239.0 511860.0 0
267885.0 508720.0 0
271939.0 511218.0 0
276883.0 511639.0 0
283319.0 510331.0 0
291671.0 511220.0 0
296829.0 510873.0 0
301950.0 513016.0 0
305843.0 508825.0 0
311260.0 510873.0 0
316184.0 512709.0 0
321463.0 512978.0 0
324420.0 510028.0 0
329251.0 508906.0 0
331462.0 513198.0 0
335022.0 510220.0 0
340572.0 509949.0 0
346701.0 510539.0 0
352248.0 512930.0 0
357553.0 508799.0 0
356672.0 513242.0 0
360037.0 512916.0 0
362614.0 510301.0 0
370512.0 510090.0 0
366569.0 511604.0 0
375003.0 510296.0 0
378774.0 511993.0 0
383795.0 511798.0 0
389520.0 511849.0 0
393874.0 509020.0 0
394556.0 513236.0 0
397570.0 511068.0 0
402119.0 510096.0 0
406981.0 509703.0 0
410998.0 511343.0 0
408696.0 513375.0 0
415122.0 512337.0 0
419250.0 509881.0 0
418201.0 513477.0 0
424154.0 510409.0 0
426507.0 513896.0 0
429061.0 511177.0 0
434310.0 512339.0 0
439723.0 510736.0 0
444634.0 510887.0 0
443352.0 514127.0 0
447874.0 513156.0 0
451447.0 510501.0 0
452996.0 513860.0 0
456566.0 511278.0 0
461395.0 511312.0 0
465441.0 510558.0 0
470061.0 511234.0 0
475184.0 513202.0 0
483015.0 513100.0 0
479501.0 511889.0 0
486865.0 511304.0 0
492414.0 510559.0 0
497390.0 511738.0 0
3334.84 515842.0 0
9313.62 515576.0 0
14406.2 517628.0 0
20147.8 514584.0 0
23705.4 518608.0 0
25875.7 515637.0 0
28545.0 518863.0 0
33617.1 518013.0 0
37292.3 515158.0 0
38838.1 519278.0 0
42347.3 514946.0 0
44308.2 519762.0 0
48517.1 514833.0 0
53460.2 517242.0 0
57790.2 515907.0 0
61782.3 519025.0 0
65702.7 516926.0 0
69803.2 518087.0 0
74243.2 515294.0 0
78789.8 516259.0 0
81308.8 518891.0 0
83445.3 514693.0 0
88668.0 515796.0 0
95268.7 515125.0 0
92868.6 517156.0 0
97594.1 517796.0 0
101237.0 514599.0 0
105037.0 515878.0 0
108751.0 514223.0 0
112037.0 517157.0 0
115537.0 515124.0 0
116105.0 518870.0 0
119337.0 515493.0 0
122926.0 516016.0 0
126423.0 513811.0 0
131050.0 516086.0 0
135511.0 514248.0 0
135729.0 518218.0 0
139166.0 515125.0 0
144482.0 515340.0 0
153479.0 515119.0 0
149240.0 516985.0 0
156905.0 514589.0 0
157057.0 517813.0 0
160466.0 514298.0 0
168724.0 514343.0 0
164983.0 516063.0 0
170483.0 517801.0 0
177155.0 513882.0 0
174346.0 516479.0 0
178574.0 518329.0 0
181490.0 514477.0 0
182838.0 517794.0 0
186622.0 515305.0 0
192211.0 513682.0 0
190864.0 518410.0 0
196501.0 514853.0 0
200662.0 516949.0 0
205438.0 515818.0 0
210493.0 516003.0 0
216138.0 514395.0 0
221608.0 515423.0 0
225200.0 514458.0 0
225137.0 517447.0 0
229274.0 515382.0 0
234087.0 516976.0 0
238158.0 515058.0 0
242965.0 515897.0 0
249461.0 514592.0 0
247607.0 517436.0 0
252443.0 515771.0 0
258818.0 515009.0 0
255688.0 518322.0 0
263304.0 516989.0 0
267672.0 514511.0 0
272469.0 515370.0 0
277024.0 517294.0 0
281709.0 515064.0 0
287598.0 514035.0 0
293331.0 515369.0 0
298208.0 516098.0 0
302656.0 517639.0 0
306982.0 514976.0 0
311898.0 515376.0 0
318972.0 516620.0 0
322920.0 517144.0 0
327060.0 514510.0 0
330936.0 518176.0 0
334752.0 515691.0 0
338338.0 513834.0 0
339076.0 518348.0 0
342878.0 514956.0 0
348039.0 516254.0 0
351985.0 517636.0 0
355200.0 516585.0 0
359384.0 517149.0 0
364035.0 514868.0 0
368935.0 514523.0 0
367217.0 517900.0 0
371101.0 518663.0 0
373743.0 514340.0 0
377792.0 515969.0 0
381735.0 515747.0 0
379413.0 518947.0 0
386717.0 516129.0 0
392018.0 516921.0 0
395972.0 516183.0 0
394955.0 518680.0 0
400004.0 514806.0 0
405096.0 514123.0 0
412194.0 515191.0 0
408586.0 517333.0 0
416536.0 516194.0 0
421867.0 515349.0 0
418908.0 519093.0 0
426573.0 517770.0 0
430192.0 515174.0 0
430459.0 518920.0 0
434203.0 517391.0 0
438729.0 515457.0 0
442607.0 518310.0 0
446605.0 517243.0 0
450040.0 516077.0 0
453842.0 517905.0 0
456875.0 515214.0 0
458123.0 519177.0 0
460698.0 515601.0 0
463405.0 519898.0 0
465951.0 514894.0 0
468217.0 519102.0 0
471241.0 516189.0 0
475951.0 518090.0 0
479861.0 515770.0 0
483277.0 518127.0 0
485460.0 515608.0 0
489943.0 515358.0 0
494641.0 515445.0 0
498308.0 515197.0 0
497884.0 518355.0 0
3689.27 521496.0 0
9503.23 520142.0 0
14035.3 522989.0 0
19301.3 520628.0 0
21065.7 524453.0 0
24877.0 522365.0 0
29826.1 522767.0 0
34913.9 522756.0 0
40863.9 524475.0 0
46557.5 524557.0 0
49780.2 520262.0 0
53268.0 520212.0 0
56630.1 521040.0 0
52389.1 524285.0 0
61142.5 523828.0 0
66081.4 520768.0 0
69855.4 522604.0 0
74396.3 520492.0 0
78252.3 519646.0 0
80287.9 523719.0 0
85568.1 520296.0 0
90187.9 519756.0 0
89942.9 523769.0 0
93845.5 521057.0 0
102465.0 519385.0 0
97798.9 521991.0 0
101614.0 524181.0 0
107652.0 519234.0 0
106656.0 523701.0 0
111734.0 521658.0 0
116783.0 524003.0 0
120726.0 519650.0 0
122776.0 524000.0 0
126079.0 519381.0 0
127085.0 523875.0 0
131497.0 521890.0 0
136412.0 522274.0 0
140606.0 519496.0 0
146424.0 521577.0 0
152659.0 520302.0 0
157569.0 522057.0 0
161370.0 519011.0 0
162173.0 523835.0 0
166259.0 520496.0 0
170381.0 522086.0 0
174131.0 520490.0 0
182644.0 521989.0 0
187282.0 520541.0 0
191498.0 523180.0 0
195500.0 519319.0 0
196174.0 523881.0 0
199985.0 522067.0 0
204431.0 520339.0 0
207481.0 518784.0 0
210129.0 520954.0 0
213882.0 519244.0 0
218538.0 520049.0 0
222700.0 519329.0 0
224818.0 521615.0 0
227638.0 519813.0 0
231444.0 520377.0 0
235977.0 521034.0 0
240230.0 519603.0 0
244346.0 519902.0 0
247011.0 522568.0 0
251526.0 520925.0 0
259587.0 519766.0 0
256301.0 522476.0 0
263128.0 521335.0 0
267254.0 519812.0 0
272660.0 521075.0 0
276848.0 522956.0 0
285101.0 518707.0 0
280749.0 521054.0 0
290199.0 520098.0 0
294080.0 523259.0 0
295455.0 519510.0 0
299360.0 520173.0 0
303052.0 523104.0 0
306204.0 519756.0 0
310343.0 519721.0 0
315427.0 519224.0 0
313079.0 523420.0 0
320441.0 520784.0 0
326232.0 520943.0 0
331295.0 522959.0 0
335071.0 520705.0 0
339278.0 523460.0 0
344358.0 520701.0 0
349701.0 520802.0 0
354678.0 520938.0 0
359536.0 522458.0 0
363625.0 519703.0 0
363912.0 523825.0 0
367866.0 522241.0 0
375546.0 519283.0 0
372954.0 523747.0 0
378991.0 523773.0 0
383718.0 520292.0 0
386560.0 522906.0 0
388884.0 520490.0 0
393840.0 522764.0 0
398288.0 519479.0 0
400709.0 523679.0 0
403777.0 519211.0 0
405952.0 524281.0 0
408975.0 521385.0 0
413804.0 520298.0 0
418967.0 522962.0 0
423002.0 520752.0 0
427921.0 522459.0 0
433039.0 521721.0 0
438131.0 521037.0 0
442370.0 521603.0 0
446072.0 521759.0 0
449988.0 520022.0 0
454365.0 522530.0 0
459005.0 523388.0 0
463334.0 524561.0 0
468121.0 523853.0 0
472360.0 520910.0 0
477318.0 522923.0 0
479987.0 519804.0 0
483024.0 522306.0 0
487627.0 519508.0 0
486918.0 523100.0 0
493174.0 519829.0 0
490586.0 523600.0 0
494356.0 523949.0 0
497519.0 522097.0 0
3220.63 527260.0 0
8666.27 524713.0 0
8036.49 528597.0 0
12348.9 527882.0 0
17791.3 527371.0 0
23391.3 526359.0 0
24342.2 529624.0 0
27321.0 526481.0 0
31845.0 526763.0 0
34574.9 530094.0 0
36679.0 526769.0 0
44420.3 528311.0 0
49529.3 527137.0 0
52823.6 529350.0 0
56975.6 526197.0 0
61775.4 529018.0 0
65644.1 525085.0 0
69771.2 526446.0 0
67177.7 529632.0 0
73935.1 525190.0 0
72392.2 529733.0 0
77209.1 528205.0 0
85475.4 525137.0 0
88662.7 528262.0 0
94861.6 525898.0 0
99207.8 528139.0 0
104611.0 528957.0 0
110869.0 527083.0 0
115746.0 528964.0 0
120110.0 528343.0 0
125242.0 528426.0 0
129742.0 526661.0 0
134741.0 526881.0 0
140613.0 525278.0 0
146064.0 528267.0 0
150465.0 524131.0 0
150846.0 528025.0 0
154121.0 525366.0 0
158383.0 526178.0 0
167425.0 526494.0 0
172955.0 525451.0 0
177540.0 523733.0 0
176120.0 528540.0 0
181551.0 527894.0 0
186734.0 525033.0 0
185834.0 528458.0 0
194179.0 527995.0 0
203638.0 524236.0 0
200113.0 527946.0 0
207862.0 525100.0 0
212731.0 524532.0 0
217182.0 525181.0 0
221881.0 524447.0 0
220302.0 528732.0 0
228297.0 523919.0 0
225397.0 527008.0 0
232946.0 524787.0 0
237717.0 525624.0 0
242603.0 524088.0 0
247363.0 527544.0 0
252023.0 525793.0 0
256304.0 527061.0 0
260253.0 524226.0 0
265523.0 524878.0 0
270151.0 525948.0 0
274777.0 526128.0 0
278918.0 525444.0 0
282148.0 527258.0 0
285539.0 523830.0 0
285988.0 528546.0 0
290528.0 526533.0 0
298048.0 524341.0 0
295610.0 528902.0 0
299899.0 528026.0 0
304190.0 528475.0 0
308356.0 524683.0 0
313791.0 528659.0 0
317471.0 524443.0 0
322580.0 525393.0 0
328039.0 526982.0 0
334856.0 526243.0 0
339667.0 528563.0 0
343542.0 525887.0 0
347714.0 524676.0 0
351805.0 524163.0 0
355904.0 526117.0 0
361471.0 528041.0 0
366555.0 526565.0 0
370643.0 528466.0 0
376108.0 529061.0 0
381700.0 528676.0 0
384343.0 525125.0 0
386559.0 528786.0 0
388735.0 524898.0 0
391902.0 528847.0 0
397402.0 527649.0 0
402690.0 528387.0 0
411052.0 524915.0 0
415073.0 524944.0 0
413773.0 528825.0 0
418715.0 527648.0 0
423520.0 525565.0 0
425755.0 529278.0 0
427775.0 526733.0 0
432171.0 525953.0 0
437091.0 525837.0 0
442173.0 525336.0 0
446859.0 526029.0 0
450260.0 524286.0 0
450796.0 529288.0 0
455334.0 526904.0 0
460436.0 528335.0 0
465166.0 527558.0 0
468514.0 528590.0 0
473089.0 525284.0 0
472701.0 529540.0 0
476911.0 527778.0 0
480895.0 526033.0 0
486470.0 527615.0 0
493132.0 527871.0 0
497982.0 526075.0 0
2017.8 531541.0 0
5952.13 531951.0 0
10455.2 532080.0 0
15213.7 531781.0 0
20420.3 531907.0 0
21468.5 528623.0 0
24635.5 533255.0 0
29303.4 531413.0 0
33187.0 533100.0 0
39906.6 530178.0 0
36400.8 533942.0 0
44717.2 532508.0 0
48205.0 530237.0 0
49289.4 534413.0 0
54610.3 532737.0 0
56994.4 530242.0 0
58937.6 534408.0 0
64541.6 533891.0 0
69692.4 533767.0 0
75814.0 532214.0 0
79024.8 534274.0 0
82819.2 529947.0 0
88325.6 533427.0 0
92646.7 530515.0 0
96251.4 529886.0 0
99051.1 532456.0 0
108611.0 532745.0 0
113044.0 531875.0 0
117813.0 533274.0 0
122273.0 531815.0 0
125704.0 533014.0 0
129520.0 531232.0 0
134068.0 531977.0 0
140135.0 532222.0 0
145787.0 533397.0 0
150049.0 532404.0 0
154269.0 530246.0 0
157779.0 529353.0 0
157404.0 532185.0 0
161943.0 529206.0 0
166390.0 532594.0 0
171654.0 530620.0 0
178413.0 532351.0 0
189305.0 529171.0 0
185331.0 532082.0 0
192472.0 532256.0 0
196858.0 533001.0 0
206031.0 530511.0 0
210970.0 528748.0 0
215710.0 530096.0 0
223884.0 530477.0 0
229766.0 529221.0 0
235415.0 530165.0 0
241535.0 529850.0 0
252293.0 530139.0 0
261571.0 529496.0 0
267184.0 529529.0 0
272496.0 530712.0 0
278004.0 529599.0 0
282783.0 532246.0 0
287706.0 532160.0 0
291751.0 531619.0 0
300036.0 533432.0 0
308740.0 529808.0 0
306021.0 533398.0 0
315653.0 533372.0 0
319314.0 529144.0 0
323858.0 530064.0 0
330309.0 532972.0 0
335676.0 531017.0 0
339797.0 533965.0 0
344791.0 531022.0 0
350776.0 529164.0 0
356474.0 531936.0 0
366362.0 531224.0 0
361885.0 533804.0 0
370988.0 533255.0 0
379883.0 532435.0 0
384410.0 532989.0 0
389578.0 534000.0 0
394922.0 533609.0 0
399402.0 532181.0 0
404121.0 533443.0 0
408443.0 529448.0 0
408414.0 534399.0 0
412313.0 533293.0 0
422450.0 530785.0 0
417453.0 532824.0 0
426390.0 534083.0 0
429752.0 530303.0 0
432297.0 534504.0 0
434996.0 530255.0 0
440178.0 529877.0 0
438170.0 534634.0 0
445227.0 529767.0 0
442897.0 533928.0 0
447690.0 533674.0 0
455952.0 531442.0 0
460595.0 533329.0 0
465077.0 531392.0 0
469540.0 531715.0 0
472587.0 533986.0 0
476436.0 532187.0 0
480943.0 530902.0 0
485566.0 533267.0 0
490485.0 531788.0 0
497559.0 530077.0 0
497910.0 534116.0 0
2728.26 535587.0 0
7948.04 536407.0 0
12884.2 535713.0 0
17448.9 535690.0 0
22040.7 536484.0 0
27515.6 537254.0 0
32891.3 536529.0 0
40894.9 535984.0 0
45766.8 536374.0 0
48997.4 539552.0 0
53613.4 536687.0 0
57645.8 539311.0 0
62419.6 538719.0 0
67533.7 538043.0 0
74094.2 536669.0 0
79053.6 538633.0 0
83460.4 536087.0 0
87789.3 538700.0 0
94088.0 535902.0 0
99550.5 536910.0 0
103739.0 534623.0 0
107924.0 537770.0 0
113219.0 536680.0 0
122529.0 536078.0 0
118239.0 538943.0 0
126738.0 536494.0 0
130789.0 535917.0 0
135454.0 536470.0 0
139505.0 538060.0 0
144030.0 537421.0 0
149068.0 537338.0 0
154586.0 535481.0 0
158153.0 539048.0 0
160861.0 534762.0 0
165403.0 538131.0 0
170285.0 536268.0 0
174638.0 534520.0 0
181835.0 535617.0 0
189160.0 534858.0 0
311170.0 534055.0 0
319924.0 533969.0 0
324664.0 534354.0 0
322111.0 538387.0 0
327465.0 538762.0 0
335317.0 535173.0 0
332722.0 538446.0 0
337688.0 538340.0 0
344399.0 536763.0 0
349167.0 534812.0 0
353918.0 537415.0 0
358413.0 536497.0 0
361468.0 538217.0 0
366814.0 537463.0 0
375917.0 534905.0 0
372596.0 538921.0 0
380994.0 536709.0 0
386090.0 538012.0 0
392413.0 536565.0 0
395380.0 538297.0 0
400246.0 537310.0 0
405423.0 538152.0 0
410152.0 538186.0 0
414781.0 537408.0 0
421904.0 534849.0 0
419085.0 537564.0 0
423714.0 539491.0 0
429529.0 538831.0 0
435271.0 538912.0 0
441516.0 539644.0 0
445230.0 536659.0 0
452407.0 534793.0 0
448897.0 539294.0 0
457230.0 536619.0 0
453923.0 539585.0 0
464029.0 535828.0 0
468171.0 534885.0 0
466864.0 539575.0 0
471182.0 538034.0 0
476514.0 536917.0 0
481524.0 536029.0 0
485988.0 537493.0 0
489206.0 535426.0 0
493674.0 535168.0 0
490755.0 538251.0 0
497793.0 538110.0 0
3973.59 540451.0 0
1209.62 543150.0 0
8040.08 543335.0 0
10487.2 539998.0 0
14868.2 539970.0 0
19249.0 539611.0 0
23294.6 541375.0 0
27245.6 541817.0 0
28232.2 545734.0 0
31664.8 541581.0 0
35955.1 544602.0 0
36922.0 539699.0 0
40830.0 543547.0 0
44006.5 539947.0 0
46056.1 543620.0 0
50352.9 544467.0 0
53911.6 541612.0 0
59962.5 543313.0 0
65755.4 542917.0 0
71155.9 541555.0 0
75665.5 541174.0 0
79134.4 543129.0 0
83045.1 540971.0 0
86781.3 543398.0 0
92296.6 542440.0 0
97387.3 540431.0 0
100316.0 544039.0 0
103112.0 539800.0 0
107226.0 543220.0 0
111225.0 540876.0 0
114923.0 543011.0 0
123055.0 540778.0 0
119752.0 543455.0 0
128142.0 540730.0 0
132685.0 539720.0 0
136512.0 540733.0 0
141723.0 542640.0 0
349325.0 539634.0 0
358060.0 540596.0 0
363073.0 541503.0 0
369737.0 541787.0 0
373426.0 543893.0 0
377400.0 540090.0 0
382224.0 541574.0 0
391015.0 540222.0 0
386898.0 543113.0 0
397856.0 542474.0 0
402886.0 541933.0 0
407684.0 542313.0 0
413280.0 541902.0 0
418407.0 542241.0 0
423465.0 544544.0 0
427442.0 543400.0 0
432413.0 543696.0 0
437299.0 543341.0 0
446313.0 544952.0 0
452388.0 543770.0 0
456958.0 542516.0 0
461434.0 540105.0 0
473931.0 541289.0 0
478328.0 541411.0 0
483044.0 540993.0 0
480720.0 544972.0 0
488248.0 541219.0 0
493954.0 539892.0 0
492346.0 544874.0 0
497575.0 542643.0 0
3654.97 546123.0 0
1349.17 549566.0 0
8733.34 548252.0 0
12633.1 544610.0 0
18399.2 544733.0 0
23631.6 546207.0 0
32667.2 548619.0 0
38746.2 548827.0 0
43981.7 547842.0 0
48427.1 548151.0 0
55404.2 547109.0 0
62989.6 547398.0 0
69538.7 546632.0 0
74804.3 545664.0 0
82764.8 545651.0 0
89158.2 546303.0 0
96231.1 546495.0 0
378518.0 545045.0 0
393333.0 544613.0 0
404953.0 546887.0 0
415032.0 546486.0 0
420040.0 547157.0 0
426531.0 548291.0 0
432152.0 549033.0 0
437272.0 547948.0 0
441034.0 545183.0 0
442759.0 549564.0 0
450722.0 548029.0 0
456134.0 547438.0 0
463081.0 545696.0 0
469406.0 544687.0 0
476114.0 545780.0 0
479901.0 549173.0 0
485789.0 546009.0 0
489718.0 549550.0 0
494666.0 549363.0 0
497911.0 547045.0 0
4633.19 551029.0 0
8207.48 552519.0 0
14468.0 550151.0 0
20938.4 550826.0 0
460328.0 550180.0 0
466767.0 550349.0 0
472508.0 549831.0 0
483989.0 550739.0 0
POINT_DATA 5000
SCALARS Radius float 1
LOOKUP_TABLE default
5415.48 5120.0 6182.6 5061.3 3163.97 5580.89 6810.52 5073.35 4834.9 3863.18 2356.98 4998.37 5492.18 5258.36 3951.75 3642.12 4499.64 5812.43 5906.14 7513.1 5254.28 4436.4 5733.48 5645.7 3588.44 5553.16 6110.27 5840.26 5670.04 6044.04 5085.53 5351.6 5484.83 4715.55 5867.73 5013.56 4375.68 5542.27 5122.66 5484.19 3557.27 4688.68 4402.52 4182.53 4517.56 4672.91 5176.86 4366.19 3672.51 2938.66 4008.92 4940.78 3615.22 5561.06 6716.79 3850.77 5325.36 5538.89 4730.36 6059.59 5701.86 4238.81 5054.98 4468.59 6030.06 5170.02 4927.31 5185.34 4432.58 5903.42 3761.32 3955.56 5292.64 4118.05 5065.13 5936.02 5305.17 4380.59 5546.39 5945.65 6759.9 7021.47 5926.61 2720.68 4955.55 3563.63 5885.03 5200.76 5325.02 5246.2 4862.64 5205.43 3673.74 6684.56 3968.64 2635.86 4385.06 6166.5 4290.3 4231.61 3942.53 3379.84 3607.45 7613.27 4133.88 4094.62 5418.62 5493.32 5416.38 6051.14 4195.44 5836.15 4345.55 2837.58 3653.41 3871.88 5017.13 4827.23 4390.66 6116.18 7447.37 4688.67 7184.19 3867.67 4861.08 4827.82 4003.05 3589.27 4951.03 4333.2 4665.12 6483.19 6230.49 7054.71 4601.27 3641.64 5740.68 3261.21 4277.89 5539.32 6704.06 5600.93 3856.01 5279.39 4911.47 5803.39 4924.6 4381.97 3255.82 4733.32 2924.37 2899.43 2812.98 4065.69 5399.73 4805.87 5759.91 3260.67 3936.02 4927.02 5980.74 4174.52 5109.54 5489.43 5747.75 4796.33 6496.85 5360.19 5541.59 4124.71 5083.08 5728.85 6337.56 5863.59 6257.19 5242.73 4737.14 5603.15 5390.22 4712.33 5227.21 3997.1 3038.33 4295.38 3383.4 4780.03 3856.1 4044.71 3829.13 5816.2 3091.3 6458.82 5527.54 5054.25 7325.81 4874.39 4794.96 4839.34 2980.99 6834.49 3998.5 5525.39 4024.3 5938.34 5555.28 4686.65 4695.45 4660.72 3888.21 6038.78 5697.78 5123.52 4667.36 4392.68 5495.39 4487.31 5693.81 5789.98 2540.31 6138.47 5573.7 4055.8 4727.62 6425.26 6186.19 4840.01 5611.2 7933.0 5173.87 6394.38 5169.36 5834.74 5556.96 6052.7 3921.18 6902.81 5529.52 3554.9 5252.48 3996.0 4002.16 4015.92 4138.16 6029.66 6302.8 5697.4 5206.78 4005.44 5280.17 5028.96 5143.58 6362.12 4484.76 5152.36 4220.65 4455.12 5380.13 5118.27 5711.87 5932.23 5788.23 3798.62 5891.05 4091.31 7199.21 6124.89 5708.81 4778.34 5043.05 4684.5 5120.49 3486.22 5409.61 4270.95 6038.2 5555.88 6732.43 3866.16 4524.28 4511.82 5826.64 6820.42 4816.2 4894.16 4896.52 4941.22 5791.61 5581.75 6392.01 4254.17 3666.57 5615.42 4523.7 5255.32 5337.48 5542.21 5924.89 6894.71 4414.54 5262.61 5094.81 5713.22 5861.71 3183.98 5017.78 3794.63 3778.1 4727.24 6959.81 4829.35 6321.41 3372.79 5282.64 4479.66 3369.13 6644.76 5308.1 6372.62 7565.34 5637.59 5481.78 4937.14 5551.36 5201.36 4306.53 6135.57 5972.06 4312.67 4359.04 5015.69 4947.52 6175.81 4520.1 6677.09 5813.4 4089.76 5201.67 5526.55 4751.02 3192.41 5184.56 4715.72 4987.87 5367.2 3043.85 6730.19 4907.89 4937.02 6037.08 3103.0 4049.23 6084.86 3307.12 4467.94 5478.92 4933.21 4850.81 6038.14 5024.9 5659.17 5998.38 4270.24 5423.8 4989.15 4164.13 4642.34 4305.57 5874.89 3791.79 4293.03 4424.7 4754.05 4951.47 6084.93 3315.57 4669.66 4808.52 5607.24 5461.13 4726.76 3599.45 5655.21 5629.19 6756.95 5601.05 3586.91 3115.91 4948.92 5810.84 5094.44 5375.47 4723.12 4809.42 4717.05 4562.29 5287.2 5013.13 3417.33 4926.42 5080.66 5153.74 4165.81 4528.09 3556.85 4389.21 4128.98 4925.44 5246.61 5215.15 4764.96 5046.33 5053.92 5839.13 5090.24 5923.5 5091.39 2240.39 6324.23 4382.74 4516.43 4749.8 3748.24 4230.54 4655.49 6163.38 4566.18 4964.09 3459.9 5856.11 4234.94 4109.88 4980.85 5714.58 5110.45 3329.99 5248.77 4083.97 5208.32 3895.51 6291.51 6246.22 4307.28 4100.38 5804.71 5020.12 6352.26 3735.44 4073.93 4645.41 4786.6 5096.78 4727.24 4929.8 4651.28 4384.42 4493.48 4362.19 5082.6 3693.63 6061.47 4093.08 4997.27 5543.27 5628.24 3327.49 3960.8 5992.26 4923.9 4973.78 3947.47 4607.02 3296.27 6673.96 5174.89 5882.89 4188.32 5370.52 5538.93 4739.42 5727.3 4899.11 4242.52 3847.38 4745.45 4907.06 3057.03 4433.59 5163.9 5740.84 4973.83 4612.68 3320.52 6355.42 4151.94 5690.56 3937.74 5478.47 6142.37 4449.22 5806.08 4853.39 5365.89 4511.54 5070.39 4613.31 5196.0 5091.68 4204.84 6119.09 4713.25 5069.25 6243.0 5441.96 5048.89 4288.3 3435.9 5774.81 3697.96 5344.77 4278.07 4723.48 5356.51 3818.59 4863.72 5495.68 6043.3 5530.87 3912.37 4310.18 4129.43 5927.43 5244.78 5492.26 5762.84 5119.37 3982.23 5243.29 4336.42 3130.65 5004.67 5409.33 4178.15 7531.29 5935.03 3991.03 3161.47 4652.29 6826.57 4495.87 5027.98 5097.87 5281.28 2631.9 4087.15 4143.08 5489.34 5952.75 6445.94 4281.49 5537.72 4320.28 5293.9 4685.34 4220.88 6519.71 6640.13 5351.39 5210.03 3402.32 4583.31 4306.11 7589.94 4466.03 5419.37 5985.29 4898.94 4247.23 4733.04 5788.66 4755.47 6390.78 7435.25 4788.87 3746.31 5543.46 5498.32 5346.27 7267.18 4758.21 5002.48 5708.14 4262.82 5542.14 6342.25 3843.58 6327.9 6082.81 5449.18 3092.35 3629.96 4714.54 3320.11 6022.17 4503.89 5903.66 5313.66 4528.49 5275.32 4268.65 4694.83 4354.08 3903.75 4485.99 4520.62 5475.7 5475.8 5314.69 6050.81 6022.72 6475.1 5527.33 4969.21 6255.18 2691.29 7500.97 4277.88 3920.42 6623.85 6332.36 4218.06 4931.53 6691.39 6142.94 3191.99 5367.52 4048.37 5030.91 4659.59 4322.15 5507.24 5101.59 6851.54 5935.47 2651.49 5512.23 5349.31 4649.22 5394.55 5509.42 5936.36 4256.43 5229.48 5127.16 4249.46 4244.99 4643.31 6917.52 6256.02 5402.21 2845.98 4668.71 7228.46 5102.36 8332.24 7134.64 4602.25 4329.05 5110.37 4931.38 5664.98 3485.26 5025.39 4548.16 4377.07 3848.93 3813.22 5570.3 6020.48 5234.29 5200.05 4711.62 4114.24 4645.58 2976.22 5094.52 2682.24 5928.32 5415.19 5526.75 4016.18 5435.74 4275.57 5560.26 5327.45 6185.89 5965.81 2330.66 3702.37 4177.19 3691.0 3990.25 4880.14 5320.92 3948.23 5228.18 5787.31 5978.82 4342.9 6122.55 5978.9 5480.13 4270.53 4736.58 4792.73 3240.09 4556.36 3369.23 5264.06 3688.8 4515.71 3817.13 5893.5 3695.36 4547.19 3963.86 5076.35 3844.9 4091.8 5670.2 5181.4 4662.56 5166.79 5417.15 4946.74 5996.33 3950.63 4612.62 3619.07 6385.23 2983.99 4750.17 5660.85 4752.51 3758.07 3587.05 4989.09 6362.14 5269.18 6719.88 6155.31 6308.71 2739.94 4790.08 4194.5 5082.47 5513.6 4901.41 5358.59 6202.55 6387.01 5023.15 4871.44 6375.99 5273.35 4853.02 6259.23 3457.48 3405.98 3688.16 4681.72 6631.19 5661.62 4467.04 5817.25 5626.61 3997.96 2614.4 4439.35 3460.94 6184.4 4373.45 3828.81 6229.37 4982.31 4406.1 5034.59 5314.85 5065.11 4553.56 4223.33 5911.67 4187.56 3629.62 4840.84 4997.27 5191.63 4501.51 5138.31 3708.04 4551.24 3610.4 4621.75 6338.89 7111.16 6480.17 4564.34 6248.81 3838.56 5088.44 5872.05 4998.21 3931.07 6079.11 7440.72 6430.39 3949.6 4945.39 5376.71 4867.08 6648.68 5407.78 6363.92 6632.99 6205.93 5830.72 5309.98 5289.52 6718.19 4307.48 4305.43 5450.44 3848.54 4942.77 3927.99 5069.84 5329.64 5868.82 3323.28 4051.44 4301.06 5344.25 5379.87 6013.14 4602.86 4581.13 3856.59 2765.2 4219.07 5413.79 5584.06 5372.61 3686.21 6445.22 4962.77 5323.3 4256.67 4427.28 3082.32 4765.02 4448.13 5070.29 5703.6 6326.18 4266.03 4713.74 5061.98 4923.24 4537.6 4419.61 7177.44 4407.87 4082.57 4236.14 5941.4 5080.18 5266.5 4263.33 4454.63 4050.9 4716.19 5135.69 5514.76 5344.0 3456.98 5925.6 3979.82 5572.95 6723.16 4948.5 5402.24 5013.42 5651.07 5210.48 6101.92 4635.6 6239.84 3658.37 5370.85 5629.39 6157.04 4807.28 4768.61 2261.36 5075.55 4220.03 4084.49 6179.96 5449.46 5703.07 5147.36 6260.79 4563.46 3963.76 5282.91 5169.9 6510.17 4871.96 4066.38 6695.82 6049.55 6405.76 4593.7 4290.14 4043.57 5987.17 5006.58 5586.81 4746.52 3689.45 3868.18 5130.91 4519.22 4527.02 7552.94 3627.55 4409.63 5865.39 5521.25 3178.54 3776.94 2684.03 5949.46 5246.47 4010.57 5280.69 4522.21 6191.29 5506.19 6923.84 6166.29 6113.54 4662.43 5733.62 4043.66 6553.94 5282.51 4425.84 5331.02 3797.33 7256.35 5742.65 4523.88 5709.62 4241.89 4877.67 4020.32 5835.78 6045.46 4763.45 3771.48 4478.15 4138.42 5681.38 4292.06 5011.31 4481.53 5077.33 3824.16 3948.17 5045.38 4959.34 5383.07 4247.15 4531.14 4602.85 6552.22 7644.38 5379.09 4051.34 6004.68 6799.4 5278.36 3661.9 5107.23 5136.08 5558.68 4187.31 3240.51 7422.36 6719.94 5161.01 4950.67 5227.59 5453.6 5294.77 4709.05 3077.84 5528.53 5255.18 3004.16 5726.66 5460.65 4460.92 5945.89 4800.69 5592.32 5912.61 4105.55 3279.1 4978.31 5054.74 4099.77 5941.72 3498.2 4981.9 3815.26 4245.72 4150.99 5445.87 4216.92 4571.7 4107.03 3970.25 4850.01 5198.77 5643.58 5147.67 5577.04 5330.45 6318.18 5423.0 5125.78 5350.88 5452.83 4790.78 4591.87 4027.09 6422.84 4502.18 5534.94 5180.76 6218.95 4993.35 5222.16 5533.72 5533.42 4802.32 5518.57 4599.38 5463.48 4527.99 5730.33 4543.1 4628.4 4376.7 4298.15 6051.83 5409.63 4263.16 4630.82 4813.08 6799.88 3062.43 4767.78 4042.28 5426.78 4863.23 4402.67 5381.16 4403.98 4948.98 4560.84 4414.48 5794.24 4127.74 4537.32 4704.72 6562.18 4541.21 4177.94 5908.1 6048.7 4344.58 5896.46 4742.68 4502.5 3929.19 4271.69 5922.5 3633.87 4810.12 2775.04 4138.46 3821.72 6035.6 5215.05 5198.29 3975.31 4986.77 5137.34 6070.58 5344.43 4373.47 6034.41 5197.52 5178.99 5615.35 4135.62 5801.99 4860.33 3685.13 3312.06 3361.26 3418.99 4983.39 5366.52 4690.55 5146.37 3678.08 4836.16 7132.12 5680.94 5545.46 6550.44 5190.61 5832.37 4642.93 3764.06 3973.12 6642.76 6024.75 5860.67 4540.86 5990.52 5235.17 6566.1 3555.86 4340.76 4435.36 6386.78 5565.13 5227.52 5163.02 6086.96 4302.5 4156.38 3066.13 2476.04 4656.78 4092.24 6009.88 5105.16 6006.16 4164.68 5634.83 5495.84 6268.1 4862.21 5113.21 5499.11 4374.35 4011.77 6396.74 5347.48 7099.43 6898.19 5526.14 3627.82 4044.45 6449.45 4244.9 5262.19 4285.32 5022.28 5490.43 4986.51 6169.11 4896.11 5172.53 6132.95 5266.22 5226.97 5008.63 5754.18 5132.68 4480.95 6595.03 4558.15 5417.8 6552.21 5227.02 4232.16 5151.11 5581.55 5300.96 5193.01 3474.5 8325.01 4440.81 5941.9 5829.22 4523.39 6109.49 5987.42 5567.93 3764.1 2967.38 5652.0 5463.41 4421.12 4929.75 6065.22 5254.49 4221.28 4470.61 4996.99 4456.39 6193.35 4631.83 3701.27 4729.43 5233.78 5991.09 4562.74 5126.91 4678.38 5050.65 5448.61 3942.07 5316.75 4827.33 5022.8 3784.5 7055.53 6133.92 3719.84 4178.4 7034.11 5782.6 6261.42 2586.12 5965.78 6125.34 4527.08 5252.34 2965.79 4287.63 5776.37 4516.28 5315.4 5486.68 5678.96 6048.86 6894.26 5311.03 5339.38 5255.12 3872.61 4285.66 4238.4 3930.79 4318.48 4004.35 4763.96 3450.93 4270.74 6293.89 5737.75 2761.07 3778.02 4367.78 4350.12 3603.51 4095.75 5670.0 4344.51 3781.77 3834.43 4707.06 5491.37 3860.83 4250.88 6348.03 5732.27 5434.47 5278.56 6917.62 4497.78 4243.79 5811.18 5332.65 5433.65 6451.33 4835.83 5604.35 4779.5 4159.35 5225.33 4237.98 6045.22 6439.37 6649.96 4384.88 4896.39 3633.79 6887.27 6008.49 4806.34 5776.57 5133.97 7144.24 7443.72 6600.94 3937.08 5371.02 5513.57 5013.67 5729.23 5669.65 5934.22 6586.45 3780.23 3471.03 5253.55 4359.62 5011.84 5820.48 5062.71 6946.21 5433.8 5975.63 4274.61 4410.55 3921.08 6314.07 5083.41 4190.31 7055.42 5100.25 5683.61 5805.86 4049.02 4470.4 5346.68 5296.29 4611.53 2681.29 5094.48 5576.92 6408.83 5365.24 5293.51 4586.19 6625.18 4446.06 5323.91 5097.45 4047.87 4185.61 5742.47 4917.99 5636.4 3319.67 4298.45 5222.51 4076.59 6609.84 5164.1 5135.96 5658.37 4972.17 6074.94 5699.53 3783.54 4222.77 3475.67 4792.39 7038.89 5146.37 5631.14 4814.12 6137.8 4442.22 4887.76 5413.31 6477.91 3091.67 4332.87 4614.3 4081.97 6420.81 5401.99 4303.19 5514.84 6081.14 5421.53 4256.57 5480.83 5653.9 3914.2 4607.85 4220.46 4287.53 5683.26 3600.43 4906.82 5598.74 4788.58 5131.24 5260.34 6155.1 5196.67 5206.48 4709.35 5876.71 5826.04 5624.49 5339.78 3095.48 3745.84 5188.81 4730.41 5696.88 4203.26 4004.04 5690.26 6057.22 5607.14 6915.83 4156.2 4289.17 4497.59 6072.45 5564.02 6444.77 4470.98 5759.46 6248.6 5443.58 5687.85 3836.45 4558.46 6401.43 5731.57 5020.71 5662.55 5997.88 5839.71 4360.23 3755.95 6234.32 4585.31 5889.35 5010.04 4570.98 4275.07 5825.38 4573.72 5099.21 4163.74 6969.28 5698.96 6471.42 5283.8 4428.14 6016.19 6464.15 4479.11 6685.4 4850.06 5268.38 5527.23 4805.33 3863.67 5980.95 4013.38 5067.56 3352.35 4343.78 2735.53 5263.3 4909.65 4008.15 3012.99 4669.06 6316.56 4811.32 6400.08 5134.39 4715.58 3317.83 5580.92 5784.3 5769.98 6088.68 6070.3 5937.08 5046.21 5612.21 5894.61 4929.14 5687.83 5945.08 5139.5 5004.23 6496.67 6442.69 5474.8 6320.71 5226.0 4648.04 4373.3 4750.78 4166.08 5029.78 5762.59 4861.06 3979.26 6608.73 5960.66 4962.09 3923.03 3999.48 4643.85 5411.85 5082.74 3999.94 4844.57 4027.46 3901.8 5092.37 4864.22 5511.88 5941.61 4512.11 4933.65 5708.99 6098.1 2435.33 6333.29 4477.04 4558.47 5703.74 4747.55 5464.68 5737.92 2685.81 3056.7 4510.8 5591.76 5896.26 4394.56 4587.67 5388.78 6101.13 5599.7 4296.69 3665.95 6238.32 6804.79 6372.13 5369.5 5404.01 5535.91 4124.49 3230.13 5714.25 5325.96 5412.24 6332.01 5016.02 7044.29 4581.37 4234.18 7085.01 4049.16 3936.95 6193.08 6069.3 5887.01 5168.35 5116.6 6523.86 7693.4 4743.59 4286.49 6184.88 5208.14 3532.3 4450.7 5151.52 2221.99 5973.33 3583.21 4643.56 5442.32 5291.9 4135.08 5128.57 5067.46 4863.01 6000.7 5620.74 5604.21 3979.54 7493.3 4814.55 5304.13 3527.05 5833.06 6262.72 3664.11 6607.87 3365.82 4163.5 5374.51 6481.79 5320.28 4123.6 7092.87 4796.58 4569.12 4298.67 5873.69 4472.17 6222.42 5654.31 5470.77 6062.05 4831.47 4735.33 4413.85 6939.12 4406.4 6171.13 6853.85 3493.47 2395.5 4020.4 4596.75 3374.08 3497.9 5782.48 5564.23 4031.78 5950.04 3735.24 4231.83 4074.48 3614.96 6853.04 3886.68 4745.43 5831.96 4539.07 5064.79 4475.83 5480.3 7509.24 4146.81 5756.75 5951.81 5093.82 5212.43 3924.14 6918.35 6348.54 4066.57 5642.35 6357.47 4891.38 4793.65 5955.86 2949.12 4532.89 6176.67 4533.37 4848.46 2779.99 5887.38 4920.21 6942.34 5851.61 3658.05 5478.11 6153.94 6836.82 3862.77 3858.17 4631.99 3747.03 2783.85 5388.39 4356.49 4326.48 4437.07 4526.81 3449.37 5829.32 4396.25 5491.9 3763.05 6405.0 5551.95 5092.24 4347.74 4659.16 3918.87 5369.08 4518.04 3580.58 4766.06 4009.62 5356.79 4874.18 4011.37 2081.58 5233.29 3169.67 4312.56 4968.03 3361.92 4612.06 5204.04 5944.09 3306.14 5490.58 5698.77 4863.79 6515.84 5395.14 4702.06 3464.83 5117.47 4143.78 5724.64 4538.95 4970.88 5224.12 4763.66 4850.14 6739.08 4471.58 5463.38 3637.61 6098.14 5945.21 3493.7 5750.71 4938.74 4200.03 4719.7 3474.39 5313.22 5516.95 5563.79 5328.22 4151.76 3905.51 6484.17 4721.02 3546.71 4254.37 5768.57 4188.87 4498.25 5108.06 5151.21 6574.95 5398.64 6817.57 4693.52 4568.41 3420.08 3624.7 5262.35 4912.04 4320.42 4691.91 4255.34 5344.83 7046.11 3427.63 4863.97 6342.48 4840.44 6639.64 5454.12 3687.65 5478.95 4834.3 3851.85 6318.23 4206.98 5174.75 5156.76 5932.07 6101.57 5948.71 3856.53 5460.89 6040.74 5260.85 5742.09 2884.65 5807.46 4648.21 4393.16 3311.29 3110.13 5526.31 5030.15 3477.1 3644.78 4078.93 4740.98 3185.39 5934.82 3728.18 5335.47 5128.77 3994.07 5633.61 5048.19 4219.94 5907.46 4264.91 4888.27 5399.29 5549.49 3101.75 5789.55 5423.42 6605.86 2511.46 2775.69 6505.78 4778.82 5657.36 5467.84 6124.08 5029.47 3619.79 5876.64 4750.58 6710.88 2477.07 3967.48 4923.41 2990.77 6213.04 4497.31 4925.63 5965.15 3163.78 4305.16 4666.81 4888.6 5882.65 5078.86 7042.12 4797.52 4780.2 6326.39 5501.93 6343.14 5462.21 6049.79 6313.06 5374.98 5226.56 6345.13 5274.19 4050.08 6470.3 4097.57 5599.49 3436.15 5017.5 5005.85 5711.11 4216.17 4575.94 5102.75 5021.88 4938.72 4597.29 5956.65 4200.09 5931.77 4222.4 4914.45 4698.87 3573.73 4000.43 3984.88 4661.03 5160.59 5318.53 4732.09 7165.9 4281.98 5138.2 5783.48 4701.5 4449.98 4504.35 5012.97 4771.65 5589.37 4036.91 5110.11 5439.49 6379.14 5216.26 3634.5 4887.52 6571.31 4392.65 4058.87 6103.11 5048.55 4984.46 4024.31 5844.72 3992.97 4147.31 5989.05 4054.22 7228.94 5393.65 4441.22 4961.99 6551.93 4595.12 4386.8 4549.69 6484.43 6423.81 3485.54 6192.77 4312.15 4583.52 4501.78 7122.87 4243.26 3572.94 6799.23 4153.84 6740.71 5119.86 6487.56 4854.11 4633.05 4901.2 2275.45 4909.31 6522.59 5012.5 4785.25 5711.62 6519.43 5461.55 4270.15 3298.2 5053.95 6306.21 5926.11 6667.68 5253.37 5235.11 5211.38 3830.46 4721.32 6031.67 3293.56 5092.28 6413.11 4918.77 4739.14 5163.55 4636.5 4819.73 6817.32 3382.7 6471.55 5085.71 5923.4 4319.79 6263.44 5960.56 6643.85 5122.63 4020.95 5774.97 5862.86 4390.41 4703.08 4890.5 6113.95 4901.07 3981.07 5452.42 5186.3 4893.49 5966.61 4514.79 5325.44 4834.87 3672.21 5760.22 5938.17 4795.43 5269.38 5097.95 2928.82 5607.3 4811.76 5313.12 5498.42 5351.56 6448.66 3344.57 5220.76 6945.98 6412.67 7001.83 4349.13 4593.7 3766.69 4891.67 6818.91 3503.65 4027.63 5569.2 6631.28 5350.88 5420.67 6413.15 5305.59 5416.45 6459.51 4955.16 3288.01 4904.51 2202.77 5751.15 5950.88 4149.55 5853.89 6201.86 7554.58 3380.69 4140.4 5446.4 4725.01 4625.67 5966.75 4458.64 3657.69 4883.63 6418.11 3492.83 6015.02 4922.49 5797.36 5585.14 5001.58 7039.98 4820.17 4592.15 4729.42 5084.17 5089.26 4901.44 5971.22 5415.45 4998.22 5533.19 5417.21 6602.43 5435.19 3562.79 4383.56 7093.13 4990.79 6865.76 4953.1 2895.63 5424.46 6449.64 5266.01 5767.9 6515.8 2040.66 2978.76 5529.42 5384.76 5274.14 5257.12 6138.12 4689.15 4434.19 4903.82 5100.1 4940.42 4965.89 5746.28 3954.91 3703.1 4946.42 4371.99 4623.61 5187.7 5409.66 4082.47 3561.29 3295.83 5203.08 2965.01 6235.57 5412.31 4863.27 3492.19 4584.5 6766.43 4118.84 2315.64 5916.16 6934.37 3423.15 4488.85 3731.84 4579.69 5010.2 3554.48 6496.52 4997.83 3991.42 3718.69 4388.63 6192.0 4940.28 2216.82 4509.89 5885.28 6752.75 3004.34 3022.6 3804.5 5375.1 4172.6 4638.18 5211.6 4196.37 4745.79 5806.31 3556.79 4453.97 5456.71 3503.41 7317.04 3971.08 6204.65 4482.9 6550.4 5036.98 5513.8 5188.53 3429.57 4521.75 5410.33 4642.74 6735.97 3636.15 6114.89 4330.58 5135.63 5754.6 4355.83 6870.97 3896.27 5351.86 6056.87 5474.01 5230.02 5307.35 4342.18 5166.89 3639.44 5491.63 5725.37 3868.62 5510.9 5138.33 4505.28 4971.29 5244.22 6280.13 3684.15 5832.29 4438.76 6456.58 4159.81 3814.65 3886.72 5244.98 3776.8 5792.98 5096.43 6592.93 6156.21 6104.26 4798.17 3568.28 5166.79 5425.98 4516.53 5996.66 5818.95 3940.49 4857.84 4093.99 6464.8 4908.49 7016.27 6622.11 5884.9 5089.62 4428.78 3685.65 6790.73 4590.55 5659.95 5243.43 4741.26 6090.91 5920.32 4186.6 4152.85 3701.16 4537.14 5551.9 4219.78 3867.19 4963.34 5644.82 5499.39 6413.02 4440.57 6736.03 5374.07 5548.29 3087.09 3623.87 7480.41 5163.77 3766.55 5469.13 6027.62 5765.42 6098.95 4817.16 6123.03 5453.98 5148.08 5578.94 5653.03 4157.29 7610.49 4777.03 4286.17 6579.31 5323.55 6028.09 5452.36 6486.37 6083.28 6100.73 4198.94 5470.04 4908.75 4211.82 6556.26 2628.22 5684.25 4901.29 5438.92 4124.76 4244.49 4050.03 4775.04 4952.52 4120.07 4882.66 3840.21 6746.66 4081.34 4954.76 3908.56 4844.83 5244.78 5652.87 4311.48 5483.7 5018.69 3152.86 6384.7 5952.38 5807.52 5963.36 5518.11 5087.14 5169.48 6016.08 4731.21 4743.9 3124.7 6064.71 3719.11 6102.98 3743.76 6060.17 3425.69 5153.18 6711.21 5510.45 4236.86 4730.14 2606.51 6006.89 3994.39 3864.92 4618.73 2955.36 3965.3 3668.93 4960.64 4983.3 4385.81 4034.05 6350.71 6436.74 5690.96 5583.61 2460.79 6063.64 4653.83 5096.24 4986.71 6479.39 4122.92 5079.22 4405.42 4997.91 4452.54 3604.14 5381.54 4684.44 4962.21 4406.05 4749.59 4680.94 4858.44 3468.42 3685.13 5828.35 5799.69 4673.35 5571.72 3876.21 4655.16 4916.22 5869.4 5297.19 5251.4 6022.7 4188.3 4453.64 4345.67 5081.78 5019.93 3885.86 4459.28 5235.29 5453.3 6116.33 4260.92 4479.94 6250.23 5887.15 4407.9 4718.54 4435.51 8659.64 4055.54 4588.7 4886.12 5683.95 6107.89 5206.33 4233.8 4976.12 4446.84 5530.49 4304.41 5660.55 3989.7 6789.23 5107.0 5069.89 4246.61 6212.15 3684.56 5327.75 4609.02 4946.23 4852.58 4896.65 4532.7 5561.74 5975.23 4504.86 4473.29 4788.08 5079.64 996.652 6163.54 5212.37 5965.58 6003.78 5058.51 3352.34 4607.18 3899.7 2403.72 7200.89 4813.33 4147.49 4802.98 4833.55 7224.99 3646.95 4705.68 6334.53 5384.86 5377.37 4749.96 4658.24 5869.67 4387.39 4899.73 4564.1 5457.66 6394.19 4848.14 5973.89 5366.22 6193.73 5254.24 4192.21 5712.35 3742.11 5701.52 3597.43 4158.91 6776.22 5321.17 4869.25 4467.13 3877.8 6273.6 4763.4 5902.67 5024.32 5454.11 5393.76 5806.61 4941.02 4983.1 6119.99 4128.1 7123.04 5372.82 4009.24 4446.58 4402.17 7778.01 5127.82 5798.38 4456.11 5124.17 4125.9 3862.91 5366.11 6171.71 7382.3 2995.67 3598.08 4668.88 4022.56 4599.81 5522.21 5698.23 5810.77 5089.1 7300.58 2711.19 4714.83 5876.72 4028.32 5236.43 5689.26 3809.69 4992.42 4771.13 4940.84 7051.9 4255.85 5097.69 5895.77 5511.6 6261.75 4765.72 4517.73 3757.34 2908.7 5177.64 6415.61 4039.91 4338.08 4541.8 4255.31 6134.99 5191.08 5424.88 3838.47 2588.37 4062.5 5148.58 4199.45 5415.85 3548.39 7234.66 4858.51 4207.54 6599.66 5625.65 4936.96 6419.12 4301.61 4481.76 3184.64 5375.12 5065.26 5452.78 4356.36 3746.36 4892.44 5473.72 4741.28 4215.2 4553.68 5361.87 2205.51 3703.49 6813.72 6502.97 4783.07 3758.22 4757.2 6200.63 6816.66 3217.67 3844.54 5034.69 4509.46 4680.69 6500.49 4420.11 4972.18 6127.39 5640.12 5329.76 5078.59 5134.33 2646.13 5419.57 5162.67 5760.98 3629.49 5766.05 5469.35 3835.81 4019.34 4869.48 4906.11 3623.19 4745.16 4697.91 5825.55 5509.51 5719.79 3199.4 4316.5 7261.51 4968.14 4914.03 5086.29 5144.56 5311.55 5139.18 3360.86 3034.16 5551.43 5049.99 5545.21 4333.87 3667.93 5136.87 5638.7 4708.17 3779.45 2741.2 5790.42 5784.37 6010.59 3142.09 5591.77 3682.35 3756.96 5182.13 5906.57 5401.4 5053.15 5910.86 6239.68 5805.1 5039.12 7320.78 3908.98 3628.89 3419.87 4064.58 6589.82 4824.81 5027.43 6328.42 3772.3 4855.01 7307.21 5522.75 3608.06 5474.15 7519.2 4099.92 6633.61 3208.96 5285.07 4884.59 4680.14 3858.06 4478.6 4608.41 4732.09 4184.23 3988.3 4833.46 4351.38 5857.79 5750.07 6136.49 4642.66 6543.13 5276.7 4809.67 5149.72 4752.14 4687.64 4950.97 5037.06 5660.16 5842.56 4094.73 6200.54 5713.03 4652.01 3583.49 4928.27 3673.28 5421.64 5775.31 5052.84 4366.74 3375.28 4603.5 5297.16 5354.66 4647.67 3566.79 4214.44 5378.23 3629.44 5374.67 4787.97 6246.56 4981.43 4061.6 4508.18 6214.73 2603.64 2856.55 5175.89 3894.64 4268.19 6618.21 5232.85 4374.74 3717.47 4062.56 3205.68 4928.35 5969.37 4337.32 5241.75 4731.53 5849.53 3763.9 4651.99 3538.53 4788.7 5863.0 5084.5 4918.64 6638.25 4759.99 4815.47 4368.12 4365.58 3889.98 5214.4 4636.53 5193.58 5399.43 5695.44 5117.64 5429.3 3916.42 3422.21 5510.96 4944.51 6653.07 5532.72 5071.98 4584.81 5179.17 5579.39 4371.08 5270.51 5148.1 5490.75 5224.64 5949.73 3495.68 4312.48 5527.13 4278.57 6370.33 5081.08 6318.25 4201.03 5001.87 6864.06 4493.79 5684.05 4279.44 5813.79 4899.19 4644.88 5293.13 7350.26 3768.46 5167.53 6110.48 7541.76 4775.49 4932.29 4681.29 5499.59 5749.6 3845.9 4141.21 4834.44 4234.88 4439.71 4384.28 5782.43 5769.14 4456.26 5944.3 3563.14 3381.82 5867.64 6208.9 3619.72 4923.57 4438.58 3340.09 4565.93 6059.93 5602.53 5217.95 6355.68 4083.79 4511.7 4144.57 4304.63 4187.94 5980.59 4063.9 5550.75 5933.7 5263.27 5021.77 6834.41 4757.74 7248.4 4378.3 4356.25 5036.58 5469.47 4419.71 4244.21 5512.16 5411.02 3197.63 4989.56 4287.16 5175.29 3645.12 4863.96 5471.74 5199.44 5580.34 5849.65 3852.6 5134.67 5131.15 4110.59 4847.14 4706.5 4165.21 4215.0 3332.49 4811.22 3950.27 5116.66 3683.86 4918.76 5003.78 5293.75 3299.24 4208.41 5730.61 5826.78 6358.93 5064.67 5836.26 6666.67 2617.39 6063.44 5144.44 2904.46 4826.52 4051.18 4583.94 5120.92 5046.31 4685.4 6240.42 1937.5 5146.0 5721.14 6006.16 4577.73 4288.45 4987.28 6206.98 6562.03 4410.82 6443.99 7212.97 5490.64 5034.34 4507.46 3769.2 3468.45 5036.14 5603.68 4526.34 5610.95 5042.75 3220.8 4598.92 5241.22 6647.08 4979.52 3422.29 5214.63 4407.79 4537.03 6548.29 5783.94 5352.24 7362.42 4202.77 5836.14 6008.81 4932.56 5537.34 5192.49 3487.31 5058.34 4028.22 3918.94 6643.4 5575.11 3852.82 5487.63 4507.36 5003.3 6245.52 7145.73 5800.81 4990.23 3220.29 3954.77 3784.94 6016.87 3125.13 5166.05 6715.73 4174.44 5667.51 5209.55 5113.6 3873.92 4708.31 4027.33 4810.98 4198.9 5135.5 5431.29 5347.9 5091.22 5023.41 4646.51 6282.38 5640.72 5851.63 4504.52 7107.63 6061.63 5073.02 5484.36 4867.7 4829.35 3953.55 6545.43 4075.28 4277.24 4989.2 4469.54 4314.56 6300.92 5161.1 3796.15 3928.53 5776.96 5329.59 4209.49 4888.12 6119.63 5464.25 3498.16 5486.48 4409.27 5439.9 4752.9 4588.99 4947.24 4617.55 4321.21 3875.05 3540.11 3456.47 5950.45 5088.57 4344.34 5966.42 5009.83 5666.95 5210.38 5717.8 4489.99 5210.75 4548.45 4474.83 6555.44 5658.14 5114.07 6570.35 4385.49 7124.45 4263.18 7142.95 4383.68 4559.74 6015.22 4454.74 5512.44 6449.06 4924.07 4629.02 5914.5 3565.32 3419.07 4608.62 5407.96 5710.33 4071.75 5344.44 5131.77 4626.72 3186.07 5549.71 4369.86 5482.76 4967.51 3745.02 5173.82 3720.7 4211.36 5698.53 3604.31 3856.73 4450.49 5887.71 5661.6 5635.32 4827.61 4316.45 5409.08 5481.64 5673.75 5360.67 5968.54 4501.05 6263.3 3247.97 5124.34 4114.2 3990.96 4326.06 5034.46 5757.29 5793.12 5469.17 5473.05 5061.75 4373.2 6022.78 5884.99 5726.42 4674.9 3392.26 6599.28 5461.72 2549.95 4361.24 6224.85 4168.52 4556.19 5403.97 5106.46 6793.1 4506.66 4068.31 3671.06 5515.73 5077.29 7035.54 4564.41 4850.5 6331.74 5951.86 5026.76 4252.18 4833.67 4659.88 5325.91 4546.44 4092.07 5657.55 5727.79 5212.92 4184.21 4831.93 2279.05 5788.97 3472.91 6760.92 4464.73 4928.85 4023.93 5868.89 8137.11 5291.05 5484.32 6650.77 6045.67 4216.95 6226.14 5466.33 5742.74 5280.12 3946.28 3821.94 5984.81 7013.17 4209.31 3805.67 5718.28 4247.69 5301.47 4640.06 6242.79 4227.41 6506.86 5391.48 5993.0 4803.57 4923.43 4728.55 4568.64 4929.6 3919.62 4642.2 4127.53 4945.0 5984.8 3127.83 4212.15 4658.11 5260.52 4551.26 6102.49 5678.58 3185.09 2945.34 5114.23 4242.63 3269.54 5495.0 7407.91 5064.23 6061.85 5268.15 6347.72 5819.0 3460.93 3200.6 4927.73 5124.86 4602.57 7168.2 3763.85 4571.74 4096.86 3622.48 5001.51 6432.8 5115.42 4082.4 4930.72 5728.58 4887.73 5378.24 6297.99 4538.89 5817.74 6556.86 3242.31 6099.28 5285.75 5385.03 3234.26 4830.13 4169.15 4778.37 3494.16 5370.9 5134.17 4074.16 4904.35 5592.54 5390.33 4904.37 4651.64 4358.81 5729.92 5275.57 5016.46 4179.87 6224.13 4761.84 3769.24 3661.67 4087.32 5517.65 4009.68 6647.85 2569.12 7025.09 4433.12 5161.74 7336.37 5138.93 6406.8 5368.66 4795.08 5648.78 6562.92 5501.73 4697.24 3612.44 4983.43 5233.76 5426.4 5763.05 5866.91 5129.68 5357.39 2820.07 5679.74 5076.84 3791.41 5247.01 5853.12 4213.05 4224.3 5157.38 6203.03 4700.07 5235.87 5188.82 5615.84 5273.37 4717.73 5043.14 6440.38 4732.37 5556.0 4985.3 4711.04 3904.07 5007.21 3274.85 4173.54 7144.05 5599.29 5606.51 7216.98 4801.8 5721.05 4444.97 6038.68 5271.02 5046.12 4807.4 5261.19 4350.15 3516.27 6329.53 4139.3 6541.45 4590.01 5367.73 4601.74 4514.39 5078.31 6101.86 4807.35 6761.81 6047.14 5467.63 3903.91 5630.9 4554.68 4368.28 4512.07 4692.32 5750.35 5463.06 5236.24 4585.04 4241.68 3986.41 6949.65 3469.18 4095.83 3372.95 5695.25 4489.29 5676.61 4301.93 5846.95 5796.26 5716.42 5701.63 4603.04 4620.95 4870.94 5368.93 5293.37 5271.88 4488.39 6121.56 5879.24 5740.78 4796.12 5997.91 5385.86 6791.86 4209.0 6031.22 5485.84 6424.77 5918.95 5453.69 5432.04 5689.56 3921.27 3702.45 5265.63 4898.29 4431.06 5372.25 5730.2 5620.88 4941.52 4529.77 5900.0 4325.13 6172.27 4262.74 3783.79 5078.73 4248.14 5278.54 5729.0 5192.92 7050.08 4786.66 5891.25 5370.1 5129.4 5114.51 4622.73 3303.49 4655.37 4161.32 5585.25 5256.75 5099.9 6945.69 2960.5 5118.86 7086.69 6170.9 6875.73 5226.42 5833.78 6081.3 4436.48 5615.35 5117.52 3967.76 6311.89 6405.69 4683.28 4217.36 6549.8 4825.73 4851.18 5288.33 4165.36 4208.37 6296.54 4841.7 5702.4 5069.9 952.938 5473.89 6089.45 5072.5 5810.17 4966.07 5713.36 5748.9 5545.59 4619.2 4506.18 5740.65 5166.41 7104.73 3000.29 5067.56 2596.96 6349.67 3834.47 5701.75 3272.75 5262.47 4264.54 3512.94 7043.44 3831.52 4263.65 4750.49 4263.78 4643.9 6106.43 5228.75 5644.81 6545.99 4177.47 5334.36 2918.64 6139.64 4140.92 3990.94 4756.8 4896.43 4176.32 4639.8 6069.78 4462.35 5532.75 3587.93 4517.29 4975.85 4495.75 5323.95 6229.83 6171.01 4468.26 5578.18 5106.33 5198.94 5933.54 5559.79 2980.31 3148.79 6348.93 6824.53 5136.51 4332.64 4742.82 5232.16 4422.23 4820.68 3618.64 3989.26 5703.84 4171.02 4335.79 3530.82 5797.32 4002.99 4886.99 3161.1 5159.67 5764.52 5684.88 6523.78 4645.86 4045.67 5087.97 6005.95 4308.49 4930.17 4581.1 6241.77 4745.44 5317.19 5762.82 7360.12 5279.19 6223.98 4016.6 5821.49 3035.06 5580.44 5998.13 5095.52 6275.25 4746.15 3720.38 4758.84 4731.37 5023.61 6351.89 5932.28 6530.78 5560.23 4975.32 4298.7 5237.55 4183.4 3902.48 4733.79 4304.64 4905.53 5758.98 4823.06 5254.49 5288.64 6213.24 6734.39 5942.45 4150.76 5005.72 5368.52 4871.77 5797.21 5811.26 5685.74 5062.77 6740.35 4678.7 6075.99 3673.6 6028.63 3306.84 5265.21 3450.07 4657.24 4550.92 4400.14 4749.18 6215.87 5191.26 5553.94 5494.28 4067.96 4704.92 4824.12 3663.0 6542.5 4099.26 5206.47 4834.39 4383.47 6162.3 5971.21 4608.34 3926.11 5493.89 4057.17 4184.47 4770.51 2781.96 7066.96 4467.0 3104.96 4994.65 4587.7 5601.55 4258.98 4346.07 4462.87 5196.92 3787.08 4013.86 5759.79 4598.54 4816.51 4218.16 5218.42 5345.73 4933.49 4841.23 4770.63 4357.11 2804.54 5005.6 5477.8 5589.53 5486.89 7208.19 4549.51 5196.08 5025.42 4965.24 6379.38 6257.79 4849.5 5438.55 5353.23 5977.66 4523.81 5209.5 5065.74 5791.25 4873.23 4028.35 5410.6 5464.05 5453.2 4733.41 5264.83 4969.68 3901.53 5431.14 6815.51 5313.86 4457.05 5189.91 5151.19 5777.26 6119.0 3792.06 7012.36 5128.59 5028.06 4293.3 5587.3 3572.73 3770.22 4864.38 4390.64 4848.98 4491.96 5150.84 5184.98 4608.01 4467.51 5339.82 4519.03 5460.57 5110.27 5703.34 4085.96 6668.98 6649.52 4232.33 5462.6 5617.29 4262.19 4597.88 4845.91 4878.93 2002.78 5631.32 6892.33 4505.3 3976.0 4452.36 4068.41 4672.86 6463.71 5059.37 3043.77 5783.38 4139.39 3909.94 6264.03 6030.39 5088.64 6589.8 3799.01 7392.65 3729.16 3757.23 5319.1 4181.93 6828.8 5987.88 4228.53 3579.59 6123.46 6161.94 6142.88 4065.28 5155.28 5111.26 5388.73 5205.38 6019.35 4884.93 5262.79 4600.71 5927.2 5146.1 6485.77 5866.42 3669.32 4762.1 5610.53 3742.31 4954.81 2970.9 4316.0 6304.49 4546.96 4580.06 5424.55 5134.72 5755.15 4835.97 4271.07 5695.79 5464.83 4191.01 3622.8 4589.06 6419.64 4215.05 4140.04 4920.88 5995.4 5414.58 5577.41 4431.23 4991.35 5917.34 6511.37 5740.98 3999.5 4216.44 6710.14 4012.92 5034.05 4426.02 4711.15 3825.48 4474.39 4658.59 5459.92 5188.22 4096.47 3810.68 4196.62 5453.77 2809.19 4916.7 4104.04 5593.79 5104.39 5234.2 4612.13 5846.6 5327.05 4109.44 4903.84 4290.49 4434.65 4557.1 6688.53 6175.27 5927.1 5876.51 6500.45 6731.89 4907.55 2932.52 4286.61 4603.66 3557.46 6636.43 5971.95 6298.8 3689.24 5178.07 6509.54 6079.55 5485.61 4993.49 5310.33 6583.37 4569.32 3688.83 3402.44 6084.88 4397.06 4199.44 4053.12 4479.5 6261.67 3435.13 5065.78 4431.46 4521.42 4612.68 3207.84 3977.98 6043.34 4939.56 4747.68 5770.92 4712.17 3808.04 3093.38 4723.71 4461.67 6126.5 6322.0 5793.14 4491.26 4511.34 4832.21 5009.21 4742.35 5394.79 5645.54 5264.08 3562.8 4526.87 4151.74 5192.82 6920.92 4174.22 3783.36 3573.84 3038.91 3922.28 4067.89 6570.43 6883.86 3350.99 5057.59 4979.5 4461.14 4745.37 5418.98 5285.6 5575.11 4574.54 4949.55 5615.06 4764.83 3132.34 1969.87 3957.38 4841.28 4047.95 4494.15 5507.38 5035.71 6889.5 4419.79 4710.88 6060.06 5407.69 5544.27 3869.39 3484.81 3987.69 5960.5 6502.99 4287.25 6896.55 4666.12 4392.75 4921.1 6219.34 3814.16 6023.07 4420.6 5674.63 5340.05 5287.25 6506.63 5939.22 3626.86 4668.8 6371.96 3495.3 4271.93 5890.25 5322.11 5700.79 4697.49 5735.08 7133.44 4726.2 4750.81 3953.26 5467.51 4282.11 4625.53 2347.41 4542.16 6478.35 3543.37 5114.67 2638.82 5353.66 5030.33 5527.27 5157.73 4541.22 5847.91 4934.66 3539.68 4696.03 4984.01 6217.33 4605.39 6270.59 6045.26 6263.87 5743.8 4103.76 4094.63 6605.11 5084.76 4757.87 6379.33 5130.57 5652.73 3979.46 5402.45 6321.97 3985.93 6412.84 2589.19 6071.59 3856.4 4696.06 4137.16 5308.4 4937.36 5984.55 6581.13 5803.3 5537.61 4721.98 5252.82 3543.98 5056.26 5878.55 4014.44 5445.91 6604.72 6002.77 4610.55 4967.02 4614.49 5400.69 4462.5 4128.93 4959.72 5004.68 4023.88 5348.11 4405.61 5428.24 5108.84 4034.88 6007.1 3511.5 6345.2 4609.65 5488.96 5704.61 5410.73 5128.03 4379.91 4574.03 5290.37 5850.38 4227.66 4691.01 4594.89 5245.95 3677.85 5821.42 6294.09 4515.02 4571.57 3445.92 5131.07 3820.19 5236.69 4121.07 4586.82 5939.29 6026.04 6200.05 5859.17 4052.49 5490.54 5203.54 6189.67 6142.94 5001.69 4948.96 4416.87 5300.17 5152.78 5308.33 4117.9 5393.43 5534.23 4638.09 4753.76 4685.65 6025.77 4441.91 5377.01 5330.26 5828.25 6470.23 4475.38 4725.11 5483.37 5418.12 5092.93 5934.05 5125.17 4604.1 4714.66 5322.07 4859.01 4444.0 5076.11 5524.45 5770.07 5990.75 5600.21 4656.01 6589.13 4037.86 5602.62 4138.59 5714.51 4938.33 2030.03 5628.97 4484.78 4621.33 5765.14 4767.54 4946.08 5121.08 2927.84 5688.77 6177.68 5466.13 4698.7 2848.44 6229.64 4220.43 4975.56 7282.36 6666.34 5581.01 4645.91 6834.92 4125.75 5749.53 5247.73 5090.48 5034.02 5582.28 5945.25 5181.31 5985.75 5475.83 6189.29 3074.49 5672.46 5202.33 3228.27 3956.24 7558.99 4142.1 5043.14 5333.04 5089.1 4521.99 4812.59 6842.54 3794.47 7115.67 4998.37 5675.45 3361.11 6038.56 5573.31 2807.46 5599.16 4179.8 3488.34 4577.98 5658.35 5886.81 4487.51 4520.14 4582.12 5067.92 4295.25 5357.14 3188.21 4850.95 5919.27 3720.92 5087.3 4942.63 6139.74 4975.57 7066.26 4730.97 3057.3 5214.71 6150.31 4677.84 3463.53 4811.11 4924.52 6126.03 4866.8 6044.69 5524.28 3133.28 2970.24 4197.87 5105.54 5731.43 6353.81 3518.14 3414.67 4034.41 4150.44 5061.74 5326.03 5522.34 4420.35 5717.45 5772.57 5117.83 4813.81 5256.82 6581.56 4052.43 4061.87 3980.46 4057.4 4896.67 5383.9 4585.37 3934.11 4466.22 5158.44 4288.5 4781.9 4496.51 6815.96 5339.6 5917.08 5259.21 4256.08 2803.01 5881.93 4460.89 4157.1 4399.52 6771.18 6182.19 4984.17 5101.6 5327.39 5781.62 4981.81 5141.03 4970.55 4840.44 8123.59 4819.83 6286.27 4801.16 5071.38 5616.66 4802.36 5368.28 4880.78 5257.38 5075.23 5625.02 5212.05 4829.77 3826.01 4444.92 6959.88 3746.62 5971.9 4532.67 4876.37 4769.62 5260.13 4649.5 5019.84 4810.74 3900.93 5784.38 4149.17 4329.8 5728.27 3053.19 6571.26 4313.38 5580.95 3393.59 3549.92 4032.06 5246.81 5888.95 5394.78 3463.34 2853.68 5122.38 5262.85 5329.84 4210.24 5901.71 6559.82 3879.83 6565.95 5043.34 4246.24 6805.02 5354.48 7394.47 4729.45 6261.13 5374.09 4793.06 6637.38 3421.81 6188.33 6111.23 6916.18 5786.06 5873.62 4137.41 3868.69 4996.91 5379.52 3920.44 3768.62 5314.67 5658.05 6593.1 5462.1 4066.36 4000.51 6032.45 5444.36 4026.03 2827.92 5044.68 5771.98 2649.69 5899.78 3467.11 5000.74 6153.26 5268.27 4013.86 5244.95 4645.93 5165.31 4634.25 5448.64 5901.8 3798.09 6417.61 5715.51 4511.05 3886.56 6153.71 6561.94 5317.83 6738.9 5992.06 5545.68 8052.53 3939.96 4554.24 4970.12 4967.93 4867.12 6044.01 5910.66 6520.19 7415.84 4637.3 5734.07 6241.48 3997.68 5125.45 6033.28 4188.16 3717.22 6327.54 5507.07 2943.17 4654.92 5286.55 5327.71 4322.56 5509.09 4850.49 3873.72 4981.55 4592.49 3625.98 5479.86 6474.5 3928.99 4702.32 4763.04 5944.52 5050.2 4413.56 2513.38 4821.41 5316.05 3995.08 4908.32 4499.52 4028.13 3874.12 5759.19 4457.73 3113.64 6476.35 6260.58 4304.75 4067.24 6139.9 4720.22 5827.3 6598.99 5250.56 2468.16 3633.58 6294.14 4339.97 5203.75 5169.09 2459.88 4691.15 4512.6 5470.67 4260.38 4932.27 5225.11 5342.9 5252.22 5733.12 6436.29 5402.81 4600.81 4919.13 5640.63 4900.26 4167.55 4720.34 6271.22 5244.47 5378.75 3920.64 5510.89 6186.24 5822.7 3780.07 4159.89 5466.49 5447.74 4450.51 4038.17 5007.41 6033.72 3851.47 4966.74 3692.99 5563.47 5651.46 3162.27 1635.31 6033.93 5011.37 5092.44 5516.37 4441.44 6908.32 4232.44 5336.61 4817.75 3312.3 5563.09 5637.53 4848.15 4439.09 3882.37 5523.81 4095.4 4718.61 5188.57 6697.45 6351.48 3873.79 5395.12 5357.33 5783.69 3830.7 3456.3 6074.39 5350.9 3483.61 4262.52 7430.48 5640.67 6572.17 6080.69 3751.73 5555.89 4766.47 6369.66 6009.93 5678.08 5973.57 1458.87 5922.62 5872.45 5130.56 4414.09 5191.29 5957.82 3784.68 6305.9 6649.21 3470.69 5093.28 4859.95 5522.18 4132.08 6009.88 5223.1 4699.77 5093.41 6842.35 5144.23 5464.34 6188.62 3621.63 6153.07 4414.06 5908.57 7296.47 5742.39 4780.16 4924.53 5738.37 5616.11 4433.23 4813.24 5847.27 4490.2 5734.84 5480.86 3982.31 4950.07 4582.24 2832.83 4474.96 4084.87 6036.99 3010.1 3584.05 3825.98 4589.22 5087.03 4667.84 3906.41 4123.08 6224.64 4636.45 4221.03 3799.55 5638.51 6793.49 3563.33 4962.35 6060.19 6786.37 3860.8 4333.23 4328.76 5561.63 4124.33 5168.97 5783.88 4358.06 5002.38 6705.93 4865.11 4731.16 5502.14 6470.87 4495.33 5282.67 5747.9 5178.55 3864.19 5146.69 4907.48 6203.24 6818.23 6213.74 2329.93 4959.94 6938.87 5639.4 5412.07 6185.73 5512.57 4083.24 6520.96 5432.2 4612.4 6178.19 4746.19 6381.58 3282.57 5212.2 4798.13 5648.59 5108.42 4630.5 6296.36 5717.67 5515.59 3721.69 5252.37 6210.0 3224.81 5432.4 4499.54 3775.38 5037.58 6457.89 4844.2 4081.77 5114.61 6118.13 3374.62 4420.3 4926.62 4871.1 4735.99 3917.09 4083.1 3482.73 5145.39 5270.1 6351.95 4957.99 4063.26 5195.09 4947.64 5345.05 4997.89 4542.62 4881.51 6131.52 4311.92 6729.99 6664.54 3922.98 5161.73 5259.48 4777.96 5801.89 6833.5 6608.94 2613.78 3796.73 5417.07 3834.01 6789.66 4739.41 5312.2 4694.27 6760.64 4706.59 2515.5 5551.79 3916.15 6981.47 5367.05 4758.76 4790.63 5259.29 4088.72 4916.75 3743.85 4818.53 5097.85 5584.64 6189.04 3795.63 5189.4 4576.71 5082.66 4550.77 4337.93 3550.88 4345.51 5536.0 4048.73 6223.33 5145.13 5438.6 3747.96 5611.29 5940.5 6568.45 5093.51 5647.93 6201.49 5449.09 5154.74 4605.61 4465.56 4131.08 5386.95 6540.57 4287.93 5315.71 6158.93 5081.65 4488.41 4823.14 4369.87 6679.12 5652.19 5806.74 4806.99 3771.91 4813.55 5856.43 5217.62 3465.03 3839.0 5349.85 4616.81 5715.25 4362.94 4611.21 6052.22 4469.82 6545.78 3354.94 4404.87 4432.32 5105.72 5237.27 4451.76 7885.41 5782.25 4046.22 4104.97 4575.72 4948.21 4987.01 4706.31 2181.29 4202.12 6332.64 2694.25 6492.44 4203.68 4739.56 4613.32 4701.03 3352.46 3996.93 6225.05 5434.04 5200.1 3997.52 4444.54 7679.2 5779.9 4909.74 2626.41 5310.33 5036.84 4565.36 5813.68 4025.08 4008.67 5254.93 4803.4 8013.28 3846.55 5283.65 4644.68 3082.16 2892.36 5656.84 5911.29 5416.41 4414.23 5177.88 4849.21 3793.83 5245.4 6189.81 4449.73 5647.11 3945.62 6236.46 5342.17 6379.3 5015.67 6538.04 4894.15 6157.59 5201.3 5848.41 4090.28 4246.83 7370.52 4521.88 4726.5 3724.23 5004.22 4280.92 7263.57 4696.92 5705.96 6437.99 6898.8 6632.04 5332.11 5360.88 4893.72 4072.4 5373.78 5345.65 5438.5 4621.32 5699.4 6578.62 3878.8 4698.94 4796.04 6284.12 5669.15 5229.56 5296.05 6011.4 5799.86 5263.86 5172.1 4672.34 5056.32 5376.41 5003.63 4870.14 2932.2 4944.08 4082.01 5767.65 5003.49 4750.76 4907.03 4216.33 5497.27 5617.91 4444.95 4721.2 5161.02 6265.48 5003.81 6262.18 3818.37 5566.5 5663.36 4276.59 5579.04 5125.53 5994.21 4884.93 5403.81 5082.25 6964.78 4374.05 5299.03 5504.65 5669.41 5040.9 5732.11 3618.53 4770.21 4868.66 4004.39 5159.9 4987.48 5943.61 4248.58 5981.54 5479.17 5020.37 4542.25 5233.88 4785.55 5467.05 5103.3 4601.54 4963.88 5888.94 3832.09 4727.98 4122.2 5175.88 5267.65 5739.69 3509.34 3647.26 7360.62 6004.72 4977.64 4983.56 5699.51 2489.44 4489.18 5863.36 4632.75 5237.76 4994.98 3948.21 4286.84 6423.96 6058.13 5894.69 6988.4 3330.85 5533.52 6635.51 5410.33 4060.17 4747.24 4695.7 5302.53 4380.86 5576.16 5269.39 4305.35 3964.03 5210.22 3308.75 4439.17 5832.72 2451.27 4929.35 3903.9 5606.22 3943.77 5242.38 3124.49 5151.68 6081.35 4884.94 5459.52 5362.15 4609.98 4455.61 4738.72 4752.31 5240.97 5569.85 5405.6 3929.35 4223.53 4759.38 4535.94 6960.97 4287.15 5126.08 5282.51 5604.0 3760.4 4951.02 4602.7 3919.47 5596.68 3783.35 4037.16 6395.63 4516.26 4790.16 3731.58 3166.37 5369.42 4985.45 5205.53 5499.37 4714.52 5543.05 4883.13 4836.76 4752.94 5551.09 3950.53 4501.1 5581.47 4384.91 6550.61 4987.01 4713.56 6051.35 4909.13 4287.61 5648.02 3999.81 4867.13 4604.34 6377.45 4863.27 5677.42 2701.42 5442.79 5051.39 6673.92 4633.59 5733.59 5575.8 5268.93 3695.72 6874.6 5106.9 5306.31 5523.96 4733.37 3037.72 4523.9 5207.08 4587.19 6028.89 5333.16 4888.17 5755.98 5392.85 5077.2 4274.05 5275.27 4277.54 5529.09 6094.34 6779.82 5543.67 4739.5 6210.48 4491.62 3865.5 4182.05 4502.12 3255.93 6853.07 6327.61 4531.46 5925.82 5448.68 4072.95 
SCALARS Velocity float 1
LOOKUP_TABLE default
1.3316 1.28488 1.30095 1.48431 1.4839 1.46594 1.46376 1.2612 1.3324 1.32182 1.17951 1.27167 1.36115 1.51983 1.48748 1.48349 1.47856 1.50723 1.53382 1.51705 1.50073 1.49016 1.49053 1.43782 1.47452 1.4955 1.47371 1.33788 1.31173 1.32359 1.25654 1.31395 1.34725 1.48302 1.52884 1.50054 1.49917 1.4868 1.52051 1.52857 1.5161 1.51463 1.50414 1.49401 1.50519 1.48636 1.42366 1.47086 1.47944 1.49901 1.4881 1.45624 1.41898 1.31353 1.4104 1.38507 1.37958 1.29296 1.48009 1.52611 1.51242 1.50482 1.47671 1.46763 1.52381 1.52723 1.51156 1.51861 1.50668 1.49481 1.48876 1.49795 1.50527 1.47551 1.47825 1.42512 1.66672 1.60742 1.3747 1.57377 1.39549 1.51504 1.54296 1.50337 1.50858 1.49593 1.51753 1.50054 1.52122 1.51323 1.51765 1.50284 1.50942 1.51002 1.51185 1.51106 1.50565 1.49643 1.45533 1.69456 1.58545 1.54431 1.48507 1.35609 1.69285 1.83301 1.44937 1.4967 1.59384 1.4999 1.51859 1.52592 1.53985 1.50097 1.51292 1.50594 1.48877 1.50323 1.48212 1.50141 1.50582 1.51344 1.5228 1.46576 1.66678 1.56017 1.59326 1.50515 1.6243 1.69547 1.79175 1.65548 1.48192 1.50506 1.544 1.51123 1.4884 1.52265 1.51055 1.52155 1.53653 1.50606 1.49827 1.49026 1.4983 1.50247 1.51452 1.50246 1.51194 1.51515 1.52561 1.52513 1.523 1.52993 1.51737 1.54645 1.54668 1.62213 1.72583 1.6603 1.56239 1.56781 1.51114 1.50155 1.49517 1.51245 1.52512 1.50958 1.48692 1.51075 1.51134 1.49756 1.493 1.50262 1.50245 1.50656 1.4889 1.52971 1.53281 1.51707 1.52066 1.51669 1.57295 1.52637 1.66263 1.60796 1.65545 1.49429 1.52218 1.53324 1.51571 1.50784 1.50103 1.49629 1.50962 1.51845 1.51184 1.45954 1.49649 1.49101 1.49078 1.49311 1.49737 1.4826 1.49719 1.46624 1.52896 1.53475 1.50542 1.50475 1.50844 1.49825 1.47833 1.49988 1.53247 1.50247 1.51377 1.5043 1.50174 1.49789 1.50032 1.50804 1.50664 1.49664 1.48716 1.49409 1.48985 1.48408 1.47896 1.48428 1.47198 1.48016 1.56118 1.65304 1.52518 1.47163 1.48303 1.51002 1.49116 1.50515 1.49911 1.49798 1.50153 1.49796 1.49143 1.50035 1.50297 1.49824 1.49485 1.49144 1.48916 1.48838 1.48936 1.48799 1.48595 1.47956 1.47829 1.47015 1.4763 1.47955 1.50284 1.55918 1.47933 1.49907 1.47773 1.47385 1.48827 1.49239 1.48519 1.49287 1.49225 1.4868 1.48522 1.49853 1.49396 1.49168 1.48982 1.48941 1.48755 1.48696 1.48539 1.48175 1.47889 1.47812 1.47753 1.47949 1.48868 1.51612 1.48874 1.407 1.5124 1.47395 1.48591 1.47386 1.45832 1.47923 1.47859 1.47976 1.48374 1.48413 1.48718 1.48953 1.48778 1.48828 1.48757 1.48654 1.48651 1.48513 1.48251 1.47872 1.47719 1.47738 1.48145 1.4779 1.47629 1.44924 1.45971 1.46932 1.47321 1.44994 1.46972 1.47293 1.47359 1.47955 1.48171 1.48173 1.48587 1.48564 1.48683 1.48601 1.48517 1.48548 1.48357 1.48285 1.48027 1.47464 1.47544 1.46937 1.47317 1.46989 1.47524 1.47141 1.46702 1.46176 1.45613 1.45394 1.45345 1.46305 1.46632 1.44542 1.44217 1.45134 1.4659 1.46756 1.45811 1.4671 1.47201 1.47668 1.47655 1.47865 1.48268 1.48547 1.48289 1.48487 1.4852 1.48306 1.48014 1.48105 1.47608 1.47653 1.47125 1.47046 1.46328 1.46182 1.45823 1.45948 1.45508 1.452 1.45219 1.45027 1.44949 1.4518 1.45863 1.46089 1.43758 1.44452 1.44486 1.43915 1.44743 1.45952 1.46686 1.47277 1.46877 1.4742 1.47973 1.47591 1.47995 1.48312 1.48299 1.48185 1.48076 1.47624 1.47647 1.4705 1.47073 1.46565 1.46291 1.45811 1.45249 1.45333 1.44822 1.44647 1.44636 1.44941 1.45088 1.45435 1.45147 1.4546 1.431 1.4342 1.43926 1.45195 1.44206 1.4607 1.45451 1.46357 1.46611 1.46109 1.47161 1.47724 1.47356 1.47614 1.4797 1.48155 1.47931 1.48038 1.47509 1.47828 1.47018 1.46228 1.45407 1.45252 1.44751 1.44511 1.4432 1.44213 1.44364 1.44719 1.44753 1.44398 1.45021 1.44992 1.19178 1.4269 1.43183 1.43444 1.42806 1.43569 1.42903 1.44889 1.46143 1.45676 1.46798 1.4616 1.47182 1.47203 1.46777 1.47613 1.47762 1.47671 1.47414 1.47428 1.46489 1.45211 1.44853 1.44485 1.44241 1.44027 1.43761 1.44011 1.4373 1.43925 1.43951 1.43643 1.44041 1.43739 1.44431 1.43946 1.44662 1.44494 1.44727 1.44544 1.42256 1.42109 1.42374 1.43019 1.42394 1.44232 1.45502 1.44885 1.45431 1.46158 1.46431 1.47104 1.47418 1.46864 1.47462 1.46808 1.47095 1.47165 1.46716 1.46878 1.45424 1.46145 1.44343 1.4446 1.43525 1.43599 1.43384 1.43499 1.43349 1.43711 1.43441 1.4343 1.43489 1.43732 1.44244 1.4418 1.44352 1.44159 1.42018 1.41883 1.41583 1.41847 1.43291 1.4394 1.44729 1.44005 1.45319 1.45782 1.46136 1.4625 1.46105 1.46186 1.44551 1.45026 1.43904 1.4379 1.43303 1.43176 1.43029 1.43226 1.43071 1.42971 1.42794 1.43212 1.4367 1.43971 1.43956 1.44017 1.43936 1.19178 1.42317 1.41676 1.42008 1.42091 1.42612 1.41467 1.44045 1.43309 1.43574 1.44804 1.45719 1.46281 1.43857 1.4488 1.44152 1.45588 1.45383 1.45406 1.44343 1.4326 1.42909 1.4321 1.42499 1.42778 1.42717 1.42786 1.42564 1.42857 1.42799 1.4405 1.43518 1.43634 1.43247 1.42395 1.42684 1.42265 1.41408 1.40974 1.41197 1.40593 1.42926 1.43301 1.44067 1.43666 1.45798 1.41672 1.42918 1.42878 1.45499 1.45974 1.4289 1.47468 1.42603 1.44317 1.43296 1.42715 1.42648 1.42393 1.42455 1.4218 1.42303 1.42098 1.42492 1.41609 1.41693 1.40928 1.44248 1.42737 1.43012 1.4267 1.19178 1.42041 1.41581 1.42811 1.40889 1.41556 1.40193 1.40056 1.39678 1.42072 1.43164 1.42749 1.40904 1.4388 1.43405 1.42124 1.42409 1.46147 1.42819 1.44191 1.40737 1.42428 1.42432 1.42363 1.42117 1.42154 1.42515 1.42335 1.41125 1.39648 1.42412 1.43593 1.42621 1.42404 1.19178 1.41537 1.4147 1.4326 1.42668 1.40015 1.43481 1.39089 1.39564 1.40304 1.42429 1.40608 1.42383 1.43064 1.4258 1.42785 1.44255 1.43213 1.4169 1.4218 1.40033 1.43972 1.40927 1.41733 1.40526 1.41068 1.4198 1.41008 1.39955 1.41245 1.41573 1.41135 1.42093 1.42576 1.41527 1.43596 1.38908 1.39865 1.42033 1.42892 1.42268 1.41858 1.42026 1.41953 1.42252 1.41976 1.41696 1.41511 1.43288 1.41404 1.42927 1.40588 1.42693 1.41455 1.37535 1.38424 1.39335 1.38051 1.40088 1.40882 1.39571 1.47982 1.41975 1.43391 1.40843 1.39866 1.38507 1.40671 1.38974 1.38565 1.40201 1.40696 1.41885 1.38482 1.37604 1.40345 1.43267 1.42769 1.47953 1.46927 1.38982 1.40268 1.40932 1.40656 1.41741 1.42248 1.42224 1.41626 1.41197 1.40179 1.39274 1.4302 1.38217 1.42738 1.38121 1.39479 1.39277 1.49928 1.51969 1.42247 1.38071 1.38774 1.38327 1.39003 1.39099 1.38509 1.40246 1.42529 1.36953 1.36331 1.39908 1.36963 1.38243 1.39597 1.45362 1.43355 1.5179 1.48083 1.39622 1.37937 1.41136 1.39315 1.39908 1.41784 1.41644 1.41304 1.40168 1.40313 1.39645 1.19178 1.19178 1.36803 1.34707 1.39959 1.38674 1.44033 1.41398 1.38404 1.39853 1.39607 1.35885 1.38431 1.46969 1.33027 1.42701 1.37182 1.41521 1.36787 1.31797 1.4005 1.37804 1.39555 1.35589 1.34571 1.41663 1.42074 1.44005 1.38319 1.38122 1.5157 1.44089 1.39602 1.42383 1.37044 1.36408 1.39116 1.3974 1.41838 1.44705 1.41591 1.46634 1.38742 1.38875 1.37749 1.38998 1.19178 1.32875 1.25443 1.42316 1.40764 1.32429 1.4581 1.50091 1.41955 1.39081 1.46683 1.41082 1.32874 1.34825 1.43916 1.37895 1.34733 1.39227 1.3633 1.32061 1.3549 1.31532 1.34127 1.39885 1.44574 1.40117 1.45311 1.42778 1.41012 1.4501 1.33046 1.37807 1.35282 1.34339 1.42181 1.39879 1.48879 1.51007 1.38028 1.37723 1.34728 1.3849 1.38593 1.1335 1.32435 1.38477 1.45059 1.44932 1.49511 1.3669 1.38403 1.38494 1.32882 1.35135 1.34137 1.37067 1.32199 1.35969 1.33276 1.32305 1.33141 1.30256 1.30878 1.3189 1.35419 1.4266 1.35133 1.48868 1.43306 1.40346 1.35152 1.3736 1.3117 1.33651 1.31969 1.30602 1.45296 1.41117 1.50878 1.41637 1.33492 1.36915 1.50767 0.802512 1.45831 1.47271 1.6089 1.43313 1.45236 1.63295 1.27698 1.42809 1.35359 1.33551 1.36765 1.33269 1.34208 1.31422 1.26243 1.29349 1.34312 1.35196 1.28319 1.29998 1.30869 1.27047 1.2771 1.26813 1.23691 1.48021 1.46899 1.38754 1.41731 1.48773 1.20234 1.26236 1.29493 1.2758 1.27943 1.31027 1.50937 1.45729 1.43942 1.54587 1.56549 1.45618 1.23471 1.21591 0.86482 1.96712 5.22913 0.819956 2.43663 0.556638 2.08784 1.33313 1.62476 1.8344 1.61036 1.52941 1.59182 1.2836 1.41678 1.3414 1.45196 1.34612 1.31754 1.34632 1.45642 1.31814 1.33889 1.34396 1.34207 1.37124 1.19988 1.26586 1.23988 1.20215 1.26227 1.25619 1.22611 1.20835 1.23491 1.32671 1.38019 1.33752 1.3434 1.34241 1.37993 1.19956 1.43896 1.54998 1.65064 1.16864 1.55592 1.16444 1.43908 1.40557 1.56804 1.44079 1.56302 1.68056 1.5666 1.69221 2.55669 1.11712 2.30205 0.463403 0.625044 0.622625 0.959057 1.0306 0.969711 0.816925 0.958122 1.18081 1.29015 1.58944 1.07891 1.09412 1.94053 1.80026 1.65341 1.41245 1.14322 1.18002 1.3123 1.24643 1.15124 1.5364 1.19861 0.844023 1.25994 1.3767 1.43641 0.811342 1.09828 1.30223 1.1531 1.1976 1.25335 1.25704 1.23292 1.21776 1.18105 1.22433 1.31082 1.32083 1.28368 1.39938 0.989653 1.29811 1.69964 1.44566 1.45 1.25159 1.25038 1.2398 1.42817 1.76279 1.4122 1.52505 1.62636 1.35157 1.53309 0.959499 1.20328 1.41484 0.883305 1.11404 0.918261 0.986944 0.936529 0.954004 0.892127 0.957521 1.04379 0.902179 0.965598 1.02054 1.01247 0.950754 1.00137 0.952431 0.801985 0.934519 1.02158 0.892817 0.962614 0.89779 0.684615 1.00208 1.0557 1.441 1.29584 1.2734 1.23222 1.18304 1.39046 1.13388 1.12519 0.864174 0.8779 1.00151 1.33341 1.32033 1.40534 1.41844 1.1338 1.38916 1.08244 1.31426 1.19427 1.18746 1.17703 1.08668 1.06457 1.39635 1.34072 1.32751 1.19208 1.23573 1.27827 1.17352 1.27515 1.26688 1.16258 1.27096 1.25586 1.29959 1.22889 1.67678 1.31949 1.16642 1.09514 1.24447 1.20258 0.957435 1.10832 1.01847 1.06432 1.03984 0.974198 0.943618 0.936917 0.925268 0.877724 0.883582 0.879406 0.944733 0.905504 0.881161 0.987567 0.917462 0.995481 0.979398 1.00719 1.04373 1.02385 1.2175 1.04469 0.991196 1.05858 1.02296 0.939105 1.33501 1.13102 1.22474 1.32927 1.28997 1.3152 1.13568 1.267 0.497148 1.13805 1.18215 1.24114 1.29629 1.2457 1.11412 1.24639 0.970636 1.28193 1.09646 1.30766 1.24804 1.1609 1.144 1.07125 0.841314 1.17749 1.19852 1.35495 1.26479 1.35615 1.14766 1.17881 1.12518 1.08373 1.01978 1.24262 1.24389 1.25645 1.19097 1.25918 1.15437 1.35955 1.17285 1.06405 0.983536 0.986864 0.915881 1.05701 0.947386 0.993697 0.991656 0.944542 0.967041 0.96371 0.94682 0.930971 0.871913 1.04921 0.787647 0.796659 0.769229 0.855456 0.871459 0.867571 0.900423 0.885085 0.895341 0.872332 0.944128 0.959316 0.989547 0.964512 0.982565 0.896997 0.952876 0.878916 0.922541 0.927744 0.893574 1.0516 0.94987 1.07968 1.17029 1.05357 1.01289 1.23405 1.06566 1.08535 1.08131 1.17977 0.990366 0.890049 1.10239 0.9215 0.805252 1.1798 1.16361 1.22537 1.14081 1.16258 1.10115 1.13269 1.22715 1.26529 1.10292 1.14333 1.2688 1.10396 0.938945 0.945736 0.944164 0.978939 1.00293 1.22445 1.38781 1.05269 1.32505 1.10748 0.752583 1.00499 1.19918 1.04374 1.0734 1.26665 1.09461 1.2707 1.12527 1.18854 1.09386 1.05098 1.00473 0.909033 0.839853 0.936468 0.933118 0.961817 0.943431 0.940041 0.958427 0.887501 0.890939 0.813812 0.743067 0.697522 0.698239 0.710457 0.775412 0.825972 0.799263 0.813839 0.834249 0.849456 0.880325 0.892045 0.914696 0.956873 0.968559 0.986022 0.903836 1.01922 1.01772 0.956277 0.869377 0.877162 0.88403 0.888614 0.930557 0.861364 0.975379 0.93709 0.922154 0.929288 0.973265 0.962254 1.02323 1.10294 1.03399 1.10936 1.03516 0.753695 1.09998 1.04517 0.910709 1.01736 0.975247 0.979249 1.00764 0.80156 1.15018 1.1832 1.13448 1.08681 1.09879 1.17096 1.11365 1.08644 0.893926 1.02316 1.03977 0.997832 1.28169 1.04902 0.943463 0.991418 0.945406 1.03634 1.04053 0.863692 0.964183 0.872746 1.08896 1.10699 1.13766 1.08731 0.989533 1.1106 1.15787 1.08417 1.08304 1.0199 1.13581 1.10403 0.928387 1.03809 1.07123 0.796738 0.867057 0.958308 0.935893 0.957243 0.897904 0.99541 0.933129 0.951595 1.05183 0.970737 0.908617 0.971421 0.586361 0.723767 0.773037 0.79485 0.0315729 0.625966 0.618156 0.649806 0.730946 0.671001 0.73978 0.766924 0.842006 0.78922 0.830877 0.854474 0.877925 0.896952 0.837323 0.914222 0.884556 0.837987 0.787662 0.919652 0.892665 0.843582 0.865643 0.89383 0.827463 0.933865 1.00058 0.962172 0.96007 0.973589 0.998814 0.969687 0.888792 1.01334 0.847353 1.11485 1.14869 0.862655 0.821319 1.07916 1.01439 1.00068 0.988388 0.960608 0.801962 0.836522 1.18183 1.09349 1.08738 1.07591 0.975134 0.949586 1.03891 0.811487 0.947998 0.964488 0.957521 1.03563 1.06606 1.08907 0.903196 1.00287 0.874625 0.92783 0.865203 0.920134 0.887002 0.952715 0.889075 0.957796 1.08827 0.804314 0.635469 1.20787 0.837618 0.92846 0.931136 0.82621 0.814022 0.794945 0.784776 0.768891 0.776382 0.858308 0.830398 0.94925 0.914746 0.908141 0.813619 0.591275 0.702869 0.483928 0.726425 0.578811 1.15017 0.169279 0.849849 0.178486 0.295356 0.66212 0.621564 0.73712 0.696085 0.573813 0.546637 0.754408 0.79278 0.816654 0.801598 0.826032 0.816073 0.781301 0.79154 0.782295 0.815097 0.774904 0.793935 0.775289 0.919408 0.899829 0.896063 0.854777 0.767833 0.821704 0.956851 0.903042 0.903002 0.912583 0.9095 0.900868 0.869071 0.843575 0.825915 1.24293 1.17665 1.08734 0.739125 0.910115 1.025 0.966524 0.954658 0.913899 0.883188 0.999969 0.961053 1.137 1.11851 1.02346 0.951974 0.901343 0.91065 0.948242 1.00256 0.923126 0.891112 0.970466 0.846543 0.877529 0.88232 1.00665 0.879528 0.932421 0.882372 0.91412 0.890447 0.927746 0.854402 0.952479 0.97221 0.893181 1.32365 0.808063 0.948172 0.895683 0.79938 0.86813 0.84221 0.827946 0.828428 0.823648 0.777712 0.805073 0.753617 0.817886 0.770183 0.847019 0.939232 0.918095 0.764405 0.842663 0.822169 0.765152 0.842453 0.949404 0.766816 0.732566 0.652575 0.488133 0.406889 0.523245 0.532336 0.547897 0.645793 0.643556 0.625933 0.679851 0.585628 0.704263 0.701267 0.728717 0.784966 1.37169 0.845118 0.839653 0.978653 0.814269 0.82889 0.860121 0.785751 0.77856 0.788583 0.789914 0.782145 0.771972 0.784668 0.830719 0.852959 0.920397 0.887579 0.87031 0.79443 0.713352 0.6084 0.915931 0.860358 0.838336 0.79208 0.786691 0.767978 0.810905 0.739918 0.807443 0.973081 0.787347 0.722297 0.943235 0.702176 0.947358 0.966574 0.948212 0.921003 0.945997 1.05353 0.955553 1.07295 0.861294 0.924092 0.83612 0.827555 0.946651 1.03968 0.943644 1.08768 0.995489 0.80909 0.883778 0.84773 0.933187 0.949438 0.872724 0.896194 0.832122 0.874209 0.898345 0.862753 0.887634 0.917347 0.949645 0.898975 0.935244 0.865117 0.893999 0.912312 0.866967 0.891876 0.890839 0.856437 0.841634 0.87484 0.870997 0.865769 0.849035 0.786742 0.864844 0.82929 0.771472 0.797417 0.783754 0.82244 0.842051 0.911437 0.853675 0.906767 0.854937 0.880511 0.906616 0.775905 0.84542 0.807653 0.819718 0.821703 0.888882 0.824694 0.872618 0.876643 0.96044 0.656662 0.719432 0.695169 0.615663 0.604826 0.647171 0.587826 0.637568 0.651347 0.637557 0.642989 0.64477 0.630286 0.683358 0.641068 0.840527 0.860769 0.380626 1.12719 0.492367 0.320748 0.760237 0.706029 0.638912 0.671365 0.717806 0.75901 0.776101 0.760038 0.882194 0.80538 0.822867 0.982984 0.929906 0.908513 0.970999 0.645167 0.607536 0.694412 0.803244 0.744873 0.759904 0.770632 0.806977 0.767276 0.767154 0.779258 0.771373 0.763999 0.790683 0.855981 0.849633 0.836049 0.864971 0.93335 0.873997 0.954253 0.995689 1.02373 0.956493 0.849902 0.916723 0.865182 0.970554 0.869025 0.898973 0.90994 0.919381 0.782893 0.992065 1.01211 0.818661 0.918983 0.977985 0.931353 0.981711 0.94584 0.857048 0.873779 0.885649 0.876206 0.848975 0.863903 0.845705 0.861151 0.911984 0.840027 0.886564 0.890869 0.886604 0.89117 0.914029 0.865672 0.871684 0.867891 0.873848 0.880006 0.864443 0.847902 0.920133 0.807789 0.79892 0.797173 0.81952 0.824139 0.839016 0.82117 0.864582 0.693745 0.786732 0.832897 0.812203 0.783322 0.865649 0.7999 0.719109 0.865096 0.794249 0.719159 0.694017 0.748858 0.727785 0.685522 0.724265 0.705792 0.727179 0.688965 0.689598 0.707369 0.688955 0.715121 0.684324 0.658356 0.603728 0.655952 0.548422 0.706334 0.753261 0.68328 0.658292 0.762737 0.774273 0.588354 0.579078 0.524939 0.88551 0.789188 0.771139 0.811979 0.733288 0.748329 0.709097 0.76686 0.780067 0.809242 0.819283 0.791573 0.816456 0.775318 0.756141 0.797281 0.772963 0.719914 0.775045 0.758126 0.767617 0.799899 0.795529 0.802246 0.809825 0.800052 0.78623 0.790538 0.742316 0.806555 0.869091 0.783207 0.841394 0.862566 0.885944 0.885559 0.89031 0.898818 0.900082 0.957381 0.973531 1.00552 0.824746 0.889059 0.752477 0.965719 0.83336 0.843708 0.72581 0.792987 0.818845 0.931144 0.848037 0.870452 0.948279 0.951737 1.00472 1.0034 0.904621 0.841238 0.881643 0.910045 0.910205 0.809298 0.85315 0.80856 0.860174 0.783306 0.897808 0.946727 0.847614 0.871763 0.914392 0.878637 0.820293 0.93191 0.850332 0.762475 0.832277 0.959316 0.857005 0.823638 0.88652 0.822947 0.687173 0.726362 0.743365 0.724114 0.747111 0.839286 0.699004 0.786436 0.777194 0.788978 0.755543 0.75498 0.749352 0.741231 0.74158 0.761506 0.725318 0.69857 0.763471 0.730859 0.7003 0.715336 0.705554 0.709562 0.704051 0.638818 0.63734 0.642618 0.655001 0.635218 0.64882 0.641927 0.649398 0.657807 0.543716 0.38856 0.720526 0.636938 0.675508 0.601906 0.565003 0.797017 0.779275 0.744533 0.723427 0.73245 0.722958 0.74256 0.764011 0.783079 0.749064 0.807184 0.787133 0.737806 0.757212 0.792437 0.75851 0.735933 0.707735 0.717404 0.706223 0.769959 0.832177 0.844869 0.760768 0.839304 0.794658 0.811151 0.884469 0.894777 0.869458 0.840261 0.850639 0.81635 0.933395 0.878534 0.597737 0.831819 0.76649 0.799289 0.767979 0.794751 1.10049 0.736641 0.86407 0.754196 0.871821 0.745985 0.962027 0.80671 0.882609 0.841229 0.942042 0.866848 0.846572 0.900821 0.821219 0.884832 0.839632 0.854909 0.832703 0.785523 0.809016 0.777489 0.782505 0.822425 0.682451 0.731176 0.618401 0.755835 0.707944 0.767358 0.825117 0.78041 0.774228 0.751447 0.799069 0.803773 0.730617 0.76479 0.753006 0.66694 0.723673 0.715989 0.701599 0.726574 0.754088 0.764867 0.74693 0.791114 0.756538 0.763638 0.728567 0.747026 0.737114 0.731383 0.718724 0.722216 0.714222 0.707227 0.756355 0.640601 0.664054 0.737991 0.67166 0.673902 0.671084 0.701674 0.692342 0.714402 0.706318 0.674305 0.537613 0.68102 0.700372 0.64061 0.640466 0.637902 0.636282 0.632216 0.627228 0.622442 0.628946 0.621584 0.609267 0.600386 0.555736 0.852033 0.884851 0.680412 0.687086 0.616311 0.659356 0.646636 0.684294 0.770878 0.698112 0.743436 0.729064 0.738363 0.732176 0.738101 0.72446 0.74306 0.72362 0.736662 0.70434 0.744035 0.749903 0.750667 0.739141 0.718016 0.743386 0.733986 0.740692 0.748666 0.759162 0.769071 0.799937 0.843051 0.841948 0.890428 0.806753 0.640041 0.698789 1.01943 0.908503 0.796198 0.635317 0.562794 0.701105 0.585295 0.773359 0.756898 0.78734 0.761536 0.835399 0.969741 0.873315 0.766906 0.648021 0.921536 0.697212 0.956817 0.828245 0.818888 0.837573 0.942151 0.927982 0.768368 0.805985 0.786594 0.838408 0.920381 0.776375 0.822278 0.785436 0.793132 0.813317 0.704741 0.65522 0.665198 0.748663 0.687249 0.77461 0.735436 0.758581 0.754339 0.788663 0.790538 0.775542 0.773749 0.728649 0.7658 0.713043 0.715365 0.724824 0.719159 0.677834 0.73544 0.737113 0.694659 0.731566 0.714044 0.694929 0.711833 0.709512 0.715684 0.691934 0.676037 0.661149 0.592898 0.614048 0.728898 0.645324 0.734689 0.583399 0.689676 0.578589 0.636975 0.631369 0.61416 0.601724 0.649789 0.653806 0.643078 0.652766 0.644912 0.628989 0.628534 0.637998 0.620923 0.63003 0.620571 0.609883 0.693743 0.739609 0.710183 0.657342 0.686194 0.66757 0.67805 0.671102 0.713001 0.684352 0.695275 0.700318 0.700082 0.707502 0.709285 0.690961 0.691328 0.731648 0.747991 0.757291 0.749519 0.756882 0.761551 0.755725 0.766066 0.787512 0.9787 0.935724 0.787134 0.968087 0.848988 0.724527 0.666982 0.731192 0.861774 0.784687 0.761604 0.724603 0.66923 0.787536 0.613391 0.577643 0.676947 0.775908 0.697541 0.737824 0.796019 0.785476 0.795356 0.799209 0.792966 0.780702 0.701657 0.729283 0.738641 1.01115 0.675727 0.710275 0.670322 0.725833 1.08495 0.932936 0.765514 0.790775 0.8209 0.847352 0.780534 0.90317 0.79074 0.832201 0.789357 0.813629 0.775664 0.766992 0.694042 0.779753 0.981357 0.788229 0.799917 0.807232 0.892701 0.804238 0.755276 0.769338 0.794751 0.70838 0.783606 0.777246 0.764958 0.786516 0.691115 0.682395 0.669635 0.679464 0.670225 0.690672 0.61277 0.695484 0.658681 0.641603 0.705356 0.711495 0.681977 0.686366 0.676312 0.671766 0.693871 0.711041 0.666887 0.692796 0.680716 0.678694 0.599484 0.613781 0.586809 0.655016 0.653763 0.609286 0.646076 0.590974 0.603028 0.597079 0.575889 0.572747 0.594398 0.612424 0.614799 0.718306 0.691698 0.663015 0.649061 0.640054 0.682153 0.653495 0.650926 0.663602 0.649729 0.63876 0.643098 0.646077 0.65318 0.697494 0.691304 0.68452 0.667066 0.686261 0.690681 0.688554 0.684578 0.694441 0.696331 0.707868 0.713662 0.700812 0.714336 0.692139 0.669681 0.703185 0.701134 0.732195 0.750871 0.764213 0.767164 0.773423 0.765689 0.75904 0.772563 0.77708 0.815901 0.79971 0.752123 0.874539 1.00999 0.765869 0.711724 0.558625 0.709289 0.595701 0.771933 0.882211 0.951538 0.83238 0.63685 0.63543 0.795722 0.720071 0.6797 0.600649 0.724768 0.702909 0.733166 0.748775 0.751286 0.778965 0.770822 0.775017 0.7786 0.751451 0.748208 0.738469 0.741381 0.747052 0.733628 0.837495 0.852677 0.625353 0.66153 0.675597 0.717433 0.635595 0.61494 0.840157 0.893517 0.767451 0.679691 0.86862 0.76705 0.867286 0.81632 0.758743 0.771485 0.752913 0.695684 0.813338 0.681961 0.826793 0.793668 0.796233 0.805904 0.780228 0.719523 0.692425 0.730644 0.69537 0.772683 0.710575 0.711402 0.657211 0.66623 0.647657 0.592644 0.664041 0.636469 0.637324 0.618091 0.63075 0.670996 0.675092 0.685603 0.674675 0.679402 0.66523 0.659444 0.679966 0.696692 0.717407 0.65497 0.748594 0.626188 0.716617 0.618066 0.642175 0.651826 0.628779 0.650742 0.650032 0.69884 0.707077 0.684874 0.669257 0.676529 0.707778 0.672703 0.612356 0.689965 0.578886 0.688925 0.613662 0.652541 0.646356 0.621757 0.555126 0.672627 0.68027 0.674393 0.673406 0.673242 0.6672 0.653377 0.665868 0.667598 0.660567 0.685089 0.671693 0.676835 0.687073 0.690151 0.665547 0.68295 0.686304 0.685475 0.675806 0.703284 0.715658 0.709476 0.702888 0.71629 0.695184 0.706405 0.683705 0.679239 0.658681 0.632733 0.762328 0.766219 0.759659 0.759142 0.745796 0.85189 0.825228 0.720691 0.559328 0.528633 0.394701 0.623203 0.673265 0.379017 0.78478 1.21927 0.976536 0.760427 0.652431 0.644136 0.64816 0.659076 0.670188 0.630443 0.736941 0.75432 0.747328 0.754752 0.747466 0.754011 0.752501 0.73833 0.749098 0.756018 0.763846 0.795191 0.77847 0.716035 0.698236 0.70958 0.735599 0.676581 0.625766 0.683267 0.64442 0.772118 0.688895 0.624112 0.690134 0.71486 0.735861 0.88266 0.816158 0.714858 0.777859 0.669352 0.706315 0.740917 0.679546 0.680318 0.698151 0.724502 0.779134 0.723269 0.716469 0.718709 0.688352 0.67471 0.690881 0.656541 0.663797 0.661367 0.661597 0.650016 0.667634 0.635717 0.631911 0.636071 0.647057 0.647449 0.669428 0.722815 0.670593 0.64028 0.72444 0.694525 0.775506 0.742839 0.745776 0.676109 0.779156 0.746623 0.697695 0.679549 0.717599 0.649054 0.651454 0.608577 0.666063 0.644734 0.671261 0.674738 0.650221 0.65949 0.626622 0.629423 0.617012 0.56615 0.550502 0.560432 0.566731 0.540933 0.578595 0.562163 0.5735 0.567555 0.627573 0.637986 0.652938 0.6796 0.666113 0.662311 0.658349 0.66265 0.672513 0.641278 0.668052 0.708706 0.621998 0.61619 0.654255 0.608065 0.66777 0.666088 0.525661 0.597918 0.667844 0.648583 0.69704 0.717021 0.697612 0.706893 0.664532 0.682114 0.675905 0.667578 0.695991 0.58186 0.668817 0.806872 0.751875 0.832904 0.719178 0.749391 0.743916 0.772674 0.794544 0.757332 0.58709 0.552881 0.53019 0.474401 0.598473 0.59628 0.581996 0.77131 0.626467 1.14571 0.733036 0.716115 0.72506 0.689383 0.631499 0.702172 0.675937 0.664345 0.678872 0.669595 0.745813 0.754448 0.749468 0.732871 0.738935 0.73663 0.744902 0.751862 0.754318 0.777521 0.781363 0.734274 0.793909 0.744951 0.766977 0.740515 0.717337 0.706625 0.712367 0.715534 0.723857 0.786575 0.761028 0.812867 0.673447 0.570264 0.654115 0.750128 0.676574 0.708711 0.733343 0.646989 0.697459 0.706655 0.707095 0.75195 0.683729 0.673686 0.721517 0.712083 0.702248 0.698807 0.690536 0.666532 0.662084 0.666461 0.65388 0.664406 0.624749 0.615792 0.609848 0.642543 0.639898 0.686057 0.779011 0.625547 0.627095 0.383776 0.635931 0.438438 0.779558 0.846781 0.740637 0.617728 0.737367 0.653659 0.758911 0.651962 0.570498 0.593949 0.521649 0.631398 0.66356 0.544379 0.600454 0.630061 0.578844 0.583375 0.516591 0.553009 0.488597 0.46736 0.450583 0.534467 0.534033 0.5354 0.532355 0.543464 0.549507 0.550607 0.556026 0.554546 0.572355 0.574116 0.588793 0.604906 0.583285 0.664124 0.642306 0.662577 0.668764 0.640998 0.650039 0.640991 0.634518 0.543133 0.625017 0.719503 0.497894 0.502017 0.657824 0.167095 0.567021 1.40881 0.721898 0.618628 0.659521 0.68109 0.733921 0.54335 0.575311 0.554732 0.546065 0.648524 0.697364 0.735299 0.681444 0.695752 0.733598 0.707919 0.712103 0.725466 0.664223 0.659053 0.610324 0.545764 0.551099 0.524634 0.576245 0.706606 0.708858 0.341626 0.68655 0.706678 0.716486 0.685765 0.702792 0.702726 0.693449 0.706047 0.731339 0.735153 0.735394 0.739078 0.743756 0.753279 0.778372 0.770636 0.722886 0.755602 0.709419 0.736203 0.784393 0.739673 0.726596 0.707606 0.7388 0.779304 0.685558 0.618073 0.632462 0.644411 0.648452 0.670222 0.738632 0.678661 0.676707 0.658847 0.690292 0.667375 0.691562 0.69935 0.757471 0.697995 0.697236 0.673786 0.686506 0.686663 0.66841 0.680609 0.686964 0.67481 0.690294 0.657709 0.668852 0.643492 0.594442 0.580186 0.596015 0.533683 0.597859 0.553654 0.653494 0.59054 0.662113 0.675533 0.744903 0.580185 0.653616 0.531383 0.522879 0.510185 0.573068 0.863889 0.745508 0.595223 0.521422 0.604582 0.621641 0.444 0.598664 0.589945 0.573724 0.54451 0.530998 0.580321 0.532078 0.603978 0.563561 0.492257 0.514755 0.480322 0.518944 0.519892 0.481234 0.544582 0.548756 0.540169 0.537604 0.541113 0.538158 0.528746 0.536423 0.535814 0.55097 0.55519 0.556175 0.586889 0.592087 0.577271 0.578412 0.607892 0.782617 0.703795 0.687391 0.459734 0.459976 0.444752 0.43544 0.377837 0.338753 0.559998 0.680397 0.666795 0.646415 0.839265 0.341747 0.90586 0.553142 0.487031 0.616254 0.674746 0.704797 0.658334 0.652854 0.64313 0.612134 0.595463 0.561734 0.555602 0.583759 0.565564 0.580319 0.636742 0.589679 0.61789 0.65384 0.624378 0.580892 0.500104 0.581612 0.451449 0.681533 0.763322 0.733036 0.718143 0.709995 0.712886 0.70737 0.711563 0.712407 0.719081 0.723982 0.736094 0.739366 0.749304 0.766493 0.771148 0.71475 0.776622 0.760217 0.784946 0.768295 0.74924 0.74782 0.718218 0.707601 0.739233 0.769423 0.939298 1.15417 0.742801 0.6925 0.649587 0.672399 0.66564 0.666445 0.674984 0.668626 0.673854 0.670879 0.679611 0.72989 0.688337 0.685711 0.679344 0.669041 0.682598 0.680378 0.74744 0.68027 0.683665 0.718199 0.488042 0.508452 0.493001 0.593436 0.607267 0.660022 0.631512 0.677483 0.596141 0.580385 0.535896 0.52324 0.51566 0.604159 0.637555 0.730044 0.662087 0.58469 0.567877 0.458165 0.488614 0.518446 0.572831 0.5562 0.510132 0.61289 0.403985 0.724251 0.35408 0.431484 0.368124 0.388412 0.413547 0.39588 0.418913 0.433741 0.402295 0.534886 0.549067 0.55993 0.571727 0.562095 0.539428 0.602123 0.536895 0.585079 0.544264 0.578846 0.587468 0.565291 0.59541 0.420075 0.738417 0.538707 0.551019 0.520106 0.507399 0.455002 0.527072 0.535593 0.456637 0.432167 0.48333 0.471168 0.494119 0.480095 0.651448 0.574713 0.572076 0.649034 0.439754 0.570085 0.497437 0.696916 0.610845 0.639711 0.610228 0.605662 0.623084 0.618884 0.626936 0.602375 0.631978 0.623251 0.609318 0.614226 0.602751 0.60055 0.599081 0.600911 0.612216 0.601196 0.612258 0.62668 0.577682 0.711433 0.694104 0.713279 0.710514 0.710052 0.709929 0.719426 0.727369 0.738126 0.730623 0.737106 0.743492 0.757035 0.748886 0.759757 0.766794 0.762903 0.765836 0.763779 0.780377 0.787294 0.749608 0.763307 0.735523 0.766636 0.726273 0.845937 0.850167 0.403963 0.785536 0.722604 0.717118 0.690528 0.711414 0.687936 0.692548 0.682948 0.670528 0.680895 0.672096 0.669588 0.675947 0.654669 0.654583 0.640622 0.655004 0.665616 0.812742 0.790123 0.994338 0.449616 0.480154 0.549904 0.725493 0.637913 0.665728 0.730386 0.703262 0.655223 0.601579 0.583047 0.505665 0.504648 0.516585 0.527421 0.568964 0.722832 0.56764 0.61958 0.595956 0.580093 0.532838 0.557204 0.548089 0.563561 0.518461 0.578146 0.483364 0.451246 0.659158 0.883253 0.413786 0.466171 0.383077 0.41946 0.414663 0.416604 0.398596 0.399991 0.423472 0.39829 0.406323 0.411715 0.504451 0.515358 0.512832 0.521068 0.511165 0.515079 0.5402 0.527077 0.481001 0.533099 0.471271 0.437181 0.444292 0.469106 0.557924 0.437465 0.437722 0.444479 0.475804 0.503146 0.487643 0.477448 0.476092 0.50484 0.502396 0.490406 0.506173 0.498833 0.531324 0.526281 0.566994 0.603422 0.567548 0.571814 0.531684 0.570844 0.618017 0.56809 0.581754 0.56065 0.574742 0.589462 0.568704 0.590678 0.589479 0.598317 0.610996 0.613477 0.63259 0.625399 0.614852 0.610147 0.605558 0.612011 0.60326 0.619242 0.643031 0.647342 0.699173 0.691498 0.704199 0.708849 0.711852 0.713305 0.713477 0.711547 0.71576 0.720766 0.726568 0.747513 0.762341 0.764905 0.780592 0.775521 0.7905 0.791674 0.806064 0.799873 0.792538 0.774284 0.754198 0.760157 0.830275 0.701929 0.549929 0.594635 0.64048 0.701718 0.697848 0.693179 0.697057 0.693779 0.689241 0.681569 0.668228 0.6753 0.671623 0.670725 0.649908 0.614032 0.627863 0.619544 0.586164 0.918896 0.473191 1.26805 0.642973 0.924621 0.582408 0.733094 0.521629 0.696777 0.647071 0.640537 0.576833 0.502849 0.557153 0.487943 0.495585 0.548267 0.506005 0.505695 0.534859 0.539147 0.540426 0.587681 0.573599 0.575861 0.646717 0.823351 0.616942 0.48284 0.566018 0.439932 0.498767 0.429291 0.417071 0.418879 0.420248 0.430356 0.441394 0.437817 0.477096 0.456164 0.487648 0.508156 0.50913 0.508847 0.501136 0.488153 0.497736 0.475503 0.460965 0.429425 0.415433 0.45135 0.438264 0.440201 0.436254 0.395281 0.470192 0.411263 0.433172 0.455057 0.493258 0.502005 0.492369 0.497642 0.520025 0.522621 0.528127 0.547862 0.553514 0.550789 0.565074 0.572253 0.563107 0.57463 0.580067 0.587866 0.605938 0.620497 0.627319 0.636517 0.636917 0.627732 0.637724 0.622016 0.617001 0.628698 0.626224 0.62913 0.644195 0.627858 0.671301 0.67295 0.673404 0.688998 0.69775 0.704582 0.709371 0.71512 0.718881 0.712669 0.710518 0.712265 0.718898 0.734639 0.731101 0.754108 0.77253 0.789821 0.79883 0.811101 0.807393 0.814201 0.818691 0.797064 0.770824 0.768159 0.750721 0.74982 0.786893 0.69515 0.650769 0.624657 0.652394 0.677104 0.68748 0.688729 0.689696 0.688283 0.675912 0.665824 0.67837 0.654769 0.665108 0.656488 0.65309 0.650485 0.632199 0.563679 0.624586 0.51032 0.594297 0.546541 0.663484 0.558657 0.321446 0.493016 0.550004 0.575743 0.550907 0.504819 0.511952 0.503325 0.511648 0.488844 0.439926 0.500792 0.524439 0.481645 0.511547 0.471146 0.515943 0.532038 0.490261 0.642293 0.553032 0.670536 0.788765 0.589979 0.564338 0.777209 0.45764 0.501238 0.379507 0.472789 0.439282 0.463623 0.446278 0.438266 0.429124 0.429977 0.481671 0.461437 0.468556 0.366499 0.510894 0.473882 0.396473 0.34034 0.398952 0.411548 0.496051 0.495641 0.448522 0.472172 0.465906 0.461641 0.396315 0.400063 0.422586 0.394306 0.38954 0.374944 0.396712 0.392789 0.435308 0.400606 0.394428 0.390049 0.413205 0.401786 0.426029 0.421207 0.444595 0.45166 0.482003 0.483208 0.500643 0.492564 0.515544 0.526523 0.525705 0.528776 0.545225 0.550984 0.552724 0.559836 0.556816 0.561343 0.562263 0.566761 0.579344 0.594383 0.604713 0.624944 0.629576 0.632565 0.63702 0.642206 0.641624 0.642565 0.64247 0.633483 0.637837 0.636335 0.632648 0.638009 0.632499 0.671922 0.685787 0.68068 0.69451 0.695206 0.707333 0.718412 0.713897 0.712054 0.716135 0.705878 0.712257 0.694261 0.70521 0.705662 0.714383 0.716587 0.748052 0.775772 0.796972 0.802941 0.799769 0.803313 0.818578 0.782301 0.750158 0.745911 0.670532 0.729343 0.698062 0.676541 0.664122 0.67448 0.676555 0.683033 0.687363 0.690193 0.687916 0.690375 0.686786 0.691476 0.662893 0.656636 0.652494 0.652912 0.622202 0.641953 0.625703 0.631766 0.634031 0.493539 0.562481 0.690388 0.395171 0.643566 0.425345 0.275616 0.380966 0.487208 0.519561 0.54544 0.5151 0.517966 0.533114 0.521711 0.530277 0.516349 0.443446 0.448714 0.450605 0.475723 0.466145 0.50184 0.547856 0.555332 0.579591 0.486207 0.428076 0.442561 0.438785 0.438011 0.424696 0.420339 0.4124 0.422436 0.391412 0.365648 0.249936 0.371959 0.459827 0.285912 0.560049 0.444341 0.655793 0.397849 0.392344 0.536742 0.141167 0.214327 0.259251 0.260705 0.324395 0.337807 0.376408 0.460939 0.488958 0.427426 0.415754 0.365174 0.378421 0.344042 0.380029 0.341076 0.362709 0.367804 0.376044 0.360874 0.372784 0.36485 0.394314 0.382042 0.406799 0.412857 0.432943 0.427475 0.46211 0.485478 0.500205 0.5245 0.535278 0.533678 0.540116 0.548753 0.553597 0.55678 0.560104 0.555478 0.555367 0.559195 0.572739 0.563162 0.599129 0.599568 0.617331 0.622663 0.64017 0.63721 0.64703 0.648981 0.64789 0.648678 0.642768 0.643491 0.64252 0.657477 0.683848 0.697813 0.710002 0.726072 0.718051 0.726652 0.720394 0.715026 0.721285 0.700096 0.690514 0.693353 0.721111 0.780115 0.806822 0.805161 0.804218 0.772591 0.774427 0.775139 0.809485 0.757286 0.739122 0.705832 0.687594 0.702082 0.692473 0.689351 0.687965 0.682683 0.689364 0.692198 0.688393 0.683047 0.68554 0.69285 0.706029 0.664135 0.657026 0.655771 0.655998 0.647308 0.659708 0.665925 0.648071 0.677904 0.676313 0.666793 0.605834 0.464256 0.413215 0.563495 0.379034 0.484435 0.515097 0.529739 0.526557 0.542149 0.539467 0.555596 0.533314 0.57797 0.44437 0.431886 0.43635 0.434686 0.419304 0.421048 0.468245 0.458673 0.488057 0.491034 0.503922 0.514038 0.523574 0.537473 0.527538 0.560511 0.519566 0.475521 0.466172 0.44219 0.431119 0.439873 0.397148 0.390904 0.357116 0.33965 0.34498 0.317447 0.326465 0.07242 0.196316 0.486499 0.284796 0.300212 0.346117 0.202869 0.136389 0.204804 0.279219 0.257091 0.289453 0.289364 0.275032 0.573844 0.449508 0.377035 0.349656 0.269564 0.303807 0.320638 0.335876 0.354665 0.347267 0.363492 0.37481 0.386896 0.407337 0.417064 0.430918 0.467931 0.460634 0.487463 0.499496 0.515507 0.540242 0.543282 0.546849 0.552443 0.552663 0.551471 0.560297 0.56363 0.565962 0.543919 0.600965 0.628756 0.640911 0.646597 0.652799 0.661034 0.653569 0.654104 0.64941 0.648426 0.648109 0.649263 0.651466 0.627383 0.650221 0.678756 0.68436 0.67619 0.698423 0.707816 0.73819 0.709721 0.752294 0.731805 0.725289 0.71798 0.728701 0.704415 0.692747 0.677644 0.677472 0.735376 0.712062 0.82243 0.81512 0.769279 0.742048 0.695178 0.728602 0.746286 0.74258 0.72123 0.710048 0.705615 0.690637 0.696204 0.705151 0.70054 0.694948 0.697499 0.698798 0.682885 0.681275 0.682543 0.686081 0.661093 0.60008 0.665681 0.662751 0.666571 0.671949 0.671485 0.670405 0.684488 0.671431 0.661897 0.624251 0.512365 0.580591 0.487595 0.545328 0.540336 0.520182 0.531827 0.540464 0.538107 0.556355 0.547753 0.57627 0.650953 0.444954 0.443987 0.465971 0.490476 0.501598 0.521625 0.518318 0.511901 0.470263 0.448819 0.411654 0.411132 0.390186 0.371586 0.345475 0.332703 0.316124 0.330501 0.347784 0.325966 0.232304 0.241123 0.281703 0.120266 3.04006 0.0675852 0.0971539 0.274182 0.301938 0.280997 0.342622 0.255695 0.778049 0.478336 0.386917 0.346912 0.313001 0.245853 0.210667 0.304314 0.347686 0.358636 0.388254 0.382221 0.410898 0.408863 0.430779 0.432925 0.449666 0.4815 0.540172 0.540896 0.556069 0.552278 0.563569 0.557876 0.555992 0.555494 0.555522 0.564208 0.534567 0.565174 0.536449 0.615356 0.645085 0.673094 0.661988 0.66257 0.662358 0.662814 0.656069 0.646299 0.644639 0.643884 0.656126 0.701147 0.685507 0.672111 0.728765 0.700764 0.716355 0.720557 0.730216 0.717373 0.720164 0.713483 0.692062 0.627016 0.636589 0.726632 0.868025 0.846555 0.711004 0.747514 0.727144 0.697656 0.695375 0.680401 0.736249 0.730557 0.751127 0.69617 0.719593 0.70631 0.715319 0.700738 0.711034 0.708454 0.704717 0.704762 0.683725 0.70458 0.683599 0.714712 0.699169 0.629787 0.652564 0.657067 0.665838 0.669601 0.671416 0.662635 0.687002 0.672459 0.640784 0.647127 0.608931 0.561557 0.592398 0.57674 0.546847 0.560846 0.555838 0.537806 0.54375 0.536468 0.543235 0.541632 0.562137 0.581672 0.503668 0.773165 0.429906 0.345143 0.471281 0.47417 0.402437 0.476938 0.494917 0.506637 0.515644 0.511843 0.497527 0.467681 0.426788 0.440171 0.359024 0.438886 0.446147 0.293417 0.353891 0.291209 0.337682 0.334377 0.312992 0.336259 0.326044 0.292471 0.267122 0.238621 0.165915 0.301643 0.361341 0.324342 0.288894 0.293564 0.81059 0.184531 0.141292 0.180007 0.330407 0.373537 0.365881 0.389094 0.417644 0.430235 0.436504 0.458512 0.451795 0.554199 0.558828 0.573458 0.558137 0.549712 0.549446 0.544899 0.555056 0.51402 0.472565 0.530097 0.703585 0.652398 0.678748 0.672767 0.651115 0.65471 0.647176 0.643046 0.652746 0.6915 0.720926 0.713095 0.693765 0.677899 0.645991 0.731001 0.688608 0.638808 0.654212 0.737131 0.736562 0.727441 0.684355 0.682417 0.624327 0.788494 0.561098 0.803246 0.711218 0.757872 0.751184 0.72786 0.696907 0.684246 0.735486 0.75895 0.684944 0.699122 0.717391 0.718947 0.706291 0.682441 0.682472 0.69345 0.676452 0.648578 0.644439 0.662619 0.668365 0.668064 0.666681 0.662283 0.647852 0.618499 0.616763 0.608485 0.600247 0.569448 0.587423 0.564375 0.559417 0.531957 0.535158 0.537355 0.551309 0.527649 0.586451 0.44107 0.401666 0.46292 0.423539 0.434002 0.438628 0.450492 0.445413 0.473795 0.486183 0.501484 0.512354 0.495205 0.526556 0.342481 0.273244 0.484959 0.325896 0.29946 0.284898 0.304482 0.286707 0.328221 0.302967 0.267892 0.23534 0.358011 0.257881 0.1779 0.486475 0.358057 0.070228 0.328436 0.622268 0.575646 0.33487 0.431229 0.308891 0.372597 0.374278 0.420395 0.442034 0.465234 0.484529 0.484951 0.677324 0.560994 0.595274 0.560484 0.549656 0.547972 0.540359 0.54043 0.526021 0.524251 0.520684 0.489821 0.50136 0.504404 0.563729 0.609935 0.68692 0.621237 0.643722 0.670005 0.654069 0.652864 0.654954 0.648511 0.643285 0.649726 0.696867 0.649219 0.635407 0.677087 0.672792 0.665064 0.659836 0.65942 0.611318 0.658613 0.646534 0.624699 0.667873 0.739052 0.736359 0.696882 0.629095 0.614327 0.617143 0.681 0.567032 0.388676 0.740392 0.753621 0.738906 0.699556 0.710528 0.727671 0.729215 0.776586 0.660015 0.706048 0.714511 0.712027 0.728305 0.70409 0.680531 0.684443 0.705241 0.671252 0.653689 0.648989 0.648522 0.668258 0.667841 0.670242 0.667767 0.663154 0.648307 0.644804 0.612938 0.601477 0.585832 0.59778 0.588541 0.574298 0.569577 0.554236 0.568823 0.534371 0.535107 0.567737 0.535637 0.556165 0.530732 0.445118 0.503817 0.447512 0.441298 0.46089 0.447461 0.457019 0.448058 0.467095 0.48527 0.458847 0.445858 0.531585 0.341764 0.370939 0.211716 0.0581187 0.0942314 0.183414 0.172567 0.226641 0.269255 0.337795 0.360689 0.318774 0.314604 0.285965 0.275807 0.305644 0.414335 0.32549 0.363324 0.283658 0.384489 0.355213 0.123516 0.282401 0.195983 0.274726 0.322452 0.362803 0.438321 0.492232 0.389055 0.471813 0.421809 0.414413 0.665655 0.557495 0.546009 0.541247 0.531971 0.53463 0.526982 0.537099 0.521745 0.522525 0.528349 0.561411 0.554929 0.553796 0.59746 0.631937 0.667369 0.685688 0.676726 0.670926 0.655456 0.651751 0.622029 0.644589 0.616133 0.609367 0.64026 0.676232 0.685464 0.641385 0.613488 0.610343 0.592829 0.676982 0.716233 0.769113 0.727861 0.688033 0.620891 0.644476 0.701657 0.65159 0.605048 0.611921 0.771817 0.689675 0.596626 0.683813 0.725526 0.747498 0.712247 0.79589 0.643153 0.437939 0.693114 0.675094 0.719587 0.740379 0.747178 0.686611 0.690388 0.689544 0.702572 0.71324 0.712205 0.675232 0.654317 0.648335 0.663448 0.66982 0.671181 0.664691 0.64208 0.613654 0.607535 0.607913 0.601025 0.579005 0.591268 0.577901 0.558813 0.562339 0.546108 0.538507 0.572116 0.558949 0.540463 0.54095 0.508209 0.482156 0.478981 0.459473 0.459237 0.438274 0.486341 0.474517 0.469791 0.526305 0.357623 0.246564 0.182444 0.120425 0.236333 0.294904 0.309 0.322832 0.338611 0.335719 0.326478 0.346103 0.364783 0.336611 0.434306 0.384984 0.417229 0.447579 0.514549 0.306029 0.21584 0.141128 0.181624 0.155976 0.21471 0.421811 0.576388 0.260547 0.370445 0.415907 0.422935 0.385594 0.418115 0.347831 0.412143 0.533347 0.535019 0.540323 0.537876 0.527224 0.541215 0.558817 0.564073 0.577316 0.583922 0.64662 0.693086 0.673933 0.646482 0.336086 0.632699 0.634383 0.608868 0.628984 0.639612 0.67682 0.649529 0.69585 0.640505 0.645158 0.590429 0.724156 0.70339 0.703296 0.832694 0.577029 0.679003 0.662712 0.614273 0.574517 0.627844 0.599907 0.701927 0.618768 0.69336 0.773248 0.734587 0.791271 0.557154 0.629152 0.579745 0.572447 0.664721 0.60195 0.716779 0.642471 0.621129 0.647704 0.686756 0.679383 0.725407 0.684546 0.669446 0.657131 0.651496 0.673028 0.67087 0.673548 0.667023 0.642323 0.621591 0.607659 0.60181 0.592048 0.581728 0.567878 0.572019 0.563789 0.572949 0.539464 0.548009 0.514205 0.499492 0.515329 0.500395 0.474185 0.470586 0.479179 0.497689 0.565519 0.538702 0.485364 0.588078 0.511509 0.284963 0.194754 0.217796 0.165414 0.256375 0.270054 0.29417 0.293416 0.334294 0.383794 0.357861 0.437762 0.427144 0.464681 0.536705 0.813658 0.87359 0.313916 0.109545 0.26004 0.0700235 0.108766 0.382394 0.557925 0.671217 0.429901 0.387865 0.448089 0.43155 0.420911 0.574772 0.538376 0.545969 0.553766 0.539148 0.532513 0.521611 0.572899 0.577923 0.567603 0.600109 0.559994 0.625033 0.710669 0.664847 0.636456 0.635195 0.632997 0.611416 0.607333 0.624824 0.63725 0.637932 0.685866 0.652679 0.646544 0.581945 0.731204 0.717842 0.806666 0.572446 0.53918 0.599176 0.528043 0.657725 0.687827 0.747128 0.722039 0.46819 0.666242 0.628496 0.595239 0.784217 0.629731 0.675477 0.586597 0.729753 0.685621 0.672638 0.656572 0.656101 0.664422 0.673883 0.681027 0.646563 0.616311 0.633578 0.609328 0.591053 0.586087 0.584219 0.581142 0.545612 0.545405 0.537484 0.545789 0.524059 0.507214 0.51412 0.505488 0.480304 0.478112 0.529225 0.586264 0.553047 0.55255 0.636579 0.608553 0.367383 0.303679 0.288494 0.190525 0.148686 0.350873 0.263867 0.332389 0.406101 0.380007 0.401224 0.435146 0.43546 0.525913 0.568013 0.663324 0.288121 0.496486 0.310597 0.574177 0.557411 0.462998 0.472294 0.441767 0.432718 0.56568 0.551592 0.559595 0.574312 0.526035 0.53412 0.534989 0.557265 0.570092 0.567606 0.524832 0.460625 0.558176 0.677288 0.655191 0.630636 0.627855 0.617242 0.632094 0.628549 0.650901 0.669181 0.671162 0.623557 0.571157 0.682752 0.675465 0.663965 0.674189 0.661688 0.653089 0.655394 0.65378 0.665969 0.67959 0.643946 0.644317 0.640976 0.625245 0.601002 0.610191 0.594149 0.590329 0.579968 0.569351 0.535879 0.534212 0.54913 0.515375 0.508187 0.513282 0.502574 0.504791 0.488927 0.543016 0.709738 0.58535 0.724069 0.591189 0.573359 0.348252 0.285419 0.331494 0.255862 0.455198 0.307091 0.33994 0.43189 0.395938 0.416271 0.407752 0.43718 0.441138 0.439279 0.435098 0.562999 0.586461 0.744572 0.220038 0.426662 0.184156 0.527007 0.625568 0.658994 0.586619 0.519287 0.543198 0.504923 0.437226 0.43741 0.55561 0.563061 0.552389 0.559523 0.565469 0.53913 0.54517 0.544263 0.54441 0.5657 0.572459 0.520772 0.61517 0.592874 0.545875 0.644346 0.666494 0.634962 0.717552 0.643689 0.643582 0.624954 0.617598 0.60517 0.595976 0.590212 0.594744 0.558858 0.526477 0.530467 0.545318 0.541451 0.499084 0.501539 0.498677 0.469979 0.181891 0.670655 0.539875 0.605899 0.508639 0.432244 0.32954 0.33448 0.33355 0.405175 0.432378 0.409096 0.445835 0.45017 0.438188 0.594561 0.616959 0.805365 0.632994 0.371682 0.537158 0.567356 0.435767 0.438318 0.579203 0.592515 0.560189 0.539268 0.531968 0.614045 0.588482 0.503122 0.54441 0.543744 0.500955 0.433101 0.424761 0.499052 0.589073 0.664911 0.646605 0.688078 0.499599 0.433731 0.330289 0.336111 0.433004 0.266086 0.409346 0.452493 0.440858 0.617942 0.781474 0.848457 0.542644 0.423773 0.333216 
SCALARS Stress float 1
LOOKUP_TABLE default
-71825600000.0 -49024200000.0 -90567100000.0 -128932000000.0 -44395200000.0 -153496000000.0 -237008000000.0 -36789000000.0 -97161300000.0 -111978000000.0 -33721700000.0 -145136000000.0 -314509000000.0 -148866000000.0 -195875000000.0 -160575000000.0 -376471000000.0 -239834000000.0 -245190000000.0 -373301000000.0 -172843000000.0 -111553000000.0 -223441000000.0 -553475000000.0 -298029000000.0 -545808000000.0 -321877000000.0 -127053000000.0 -149398000000.0 -251448000000.0 -169173000000.0 -335190000000.0 -361517000000.0 -96221600000.0 -841411000000.0 -517730000000.0 -715916000000.0 -852900000000.0 -540960000000.0 -767277000000.0 -631241000000.0 -372235000000.0 -446563000000.0 -445303000000.0 -648952000000.0 -481978000000.0 -473596000000.0 -500264000000.0 -145745000000.0 -270254000000.0 -273029000000.0 -271720000000.0 -397725000000.0 -285589000000.0 -326264000000.0 -76847600000.0 -535266000000.0 -981521000000.0 -1.51096e+12 -1.84364e+12 -1.41584e+12 -386828000000.0 -909537000000.0 -376124000000.0 -1.09783e+12 -1.42625e+12 -1.2711e+12 -909517000000.0 -1.51835e+12 -1.43955e+12 -745235000000.0 -790336000000.0 -814846000000.0 -901568000000.0 -690890000000.0 -1.174e+12 -733607000000.0 -335073000000.0 -308425000000.0 -741713000000.0 -1.34865e+12 -1.27248e+12 -1.52703e+12 -412748000000.0 -1.761e+12 -468777000000.0 -2.32538e+12 -1.73432e+12 -2.9933e+12 -1.56143e+12 -1.06419e+12 -1.70668e+12 -782993000000.0 -2.29115e+12 -812000000000.0 -710603000000.0 -1.0389e+12 -1.00311e+12 -1.18846e+12 -1.16671e+12 -933445000000.0 -381380000000.0 -500623000000.0 -905571000000.0 -204551000000.0 -571443000000.0 -917920000000.0 -2.14575e+12 -1.66499e+12 -1.58056e+12 -2.37462e+12 -2.27929e+12 -1.79437e+12 -803524000000.0 -1.54338e+12 -1.33204e+12 -1.3034e+12 -2.05171e+12 -1.3555e+12 -1.94425e+12 -3.80954e+12 -960544000000.0 -3.20622e+12 -660511000000.0 -767627000000.0 -1.60588e+12 -1.28274e+12 -703647000000.0 -471405000000.0 -1.31191e+12 -1.3932e+12 -2.168e+12 -4.00279e+12 -4.88104e+12 -2.69574e+12 -1.59815e+12 -2.37463e+12 -987333000000.0 -1.48799e+12 -3.54531e+12 -3.64528e+12 -2.12317e+12 -812405000000.0 -1.71156e+12 -3.09353e+12 -3.01076e+12 -2.83735e+12 -1.74691e+12 -2.11405e+12 -2.35472e+12 -830044000000.0 -1.03868e+12 -709698000000.0 -1.58336e+12 -2.16761e+12 -2.03357e+12 -2.02091e+12 -477688000000.0 -1.23661e+12 -2.68086e+12 -4.22403e+12 -2.29637e+12 -2.85302e+12 -3.50253e+12 -3.23207e+12 -2.99446e+12 -3.60187e+12 -3.38056e+12 -3.33809e+12 -2.03565e+12 -3.01775e+12 -3.50716e+12 -3.18862e+12 -3.21902e+12 -4.10432e+12 -2.36283e+12 -2.57429e+12 -2.58691e+12 -2.83678e+12 -3.42099e+12 -2.38227e+12 -1.56573e+12 -725387000000.0 -1.2917e+12 -1.49407e+12 -2.11052e+12 -1.72566e+12 -2.23109e+12 -2.48565e+12 -4.93335e+12 -1.1119e+12 -4.11412e+12 -3.63474e+12 -3.25546e+12 -6.18469e+12 -3.61248e+12 -2.23786e+12 -2.46408e+12 -453012000000.0 -4.41644e+12 -2.79808e+12 -2.84785e+12 -1.20909e+12 -3.88666e+12 -4.03038e+12 -3.46871e+12 -2.12949e+12 -2.29925e+12 -962556000000.0 -3.5031e+12 -4.1154e+12 -2.1308e+12 -3.65254e+12 -1.52092e+12 -2.44898e+12 -2.36574e+12 -3.94532e+12 -3.36225e+12 -1.63567e+12 -5.22364e+12 -4.29089e+12 -3.03189e+12 -4.27667e+12 -4.56514e+12 -3.71666e+12 -2.57582e+12 -4.6396e+12 -5.62537e+12 -4.78996e+12 -4.59084e+12 -3.60431e+12 -4.83034e+12 -4.26188e+12 -5.26801e+12 -2.48215e+12 -6.69614e+12 -3.10625e+12 -1.58405e+12 -2.53265e+12 -1.7492e+12 -1.55998e+12 -2.22284e+12 -2.36917e+12 -4.71345e+12 -6.2674e+12 -3.77858e+12 -4.11992e+12 -2.72413e+12 -3.94083e+12 -3.21424e+12 -3.341e+12 -5.91533e+12 -3.77588e+12 -4.2956e+12 -3.08301e+12 -3.3839e+12 -3.08013e+12 -4.52842e+12 -5.03167e+12 -3.73647e+12 -5.35456e+12 -2.15849e+12 -5.04887e+12 -3.05443e+12 -5.24331e+12 -4.19093e+12 -4.85293e+12 -3.35038e+12 -3.98967e+12 -3.28929e+12 -4.16916e+12 -2.22111e+12 -4.94067e+12 -2.41104e+12 -6.2495e+12 -4.98281e+12 -5.54123e+12 -3.14818e+12 -3.60646e+12 -3.2269e+12 -5.48786e+12 -5.95493e+12 -4.2824e+12 -3.5146e+12 -4.47221e+12 -4.06518e+12 -3.92227e+12 -4.76115e+12 -6.28011e+12 -3.29003e+12 -2.69037e+12 -5.32888e+12 -2.80709e+12 -4.01618e+12 -3.41449e+12 -6.21214e+12 -6.19322e+12 -7.20767e+12 -2.95933e+12 -4.85737e+12 -4.70414e+12 -5.79053e+12 -6.42253e+12 -2.06526e+12 -4.34747e+12 -2.53082e+12 -2.95045e+12 -3.46681e+12 -6.97373e+12 -4.06032e+12 -5.06763e+12 -2.53276e+12 -4.79158e+12 -3.9679e+12 -2.62168e+12 -6.77125e+12 -5.15528e+12 -6.4547e+12 -6.25695e+12 -4.17731e+12 -4.44119e+12 -4.0725e+12 -4.62904e+12 -4.59994e+12 -3.87378e+12 -6.24099e+12 -6.72336e+12 -4.37532e+12 -3.61717e+12 -4.40024e+12 -4.75691e+12 -6.32151e+12 -4.51191e+12 -7.0367e+12 -6.1367e+12 -3.44515e+12 -4.83444e+12 -5.20592e+12 -4.04392e+12 -2.25629e+12 -4.94084e+12 -3.30236e+12 -4.6189e+12 -5.19993e+12 -1.77888e+12 -6.66474e+12 -5.04892e+12 -3.84549e+12 -4.51463e+12 -1.37069e+12 -2.04273e+12 -5.38693e+12 -2.22741e+12 -4.12917e+12 -5.08381e+12 -4.54345e+12 -4.8789e+12 -5.86982e+12 -5.52332e+12 -6.31852e+12 -6.02381e+12 -4.02994e+12 -4.74906e+12 -3.96844e+12 -3.7927e+12 -4.32129e+12 -4.02983e+12 -5.78772e+12 -2.53891e+12 -3.52014e+12 -3.69911e+12 -4.35351e+12 -5.38349e+12 -5.79461e+12 -2.68949e+12 -3.94595e+12 -4.09706e+12 -5.1972e+12 -4.51783e+12 -3.95523e+12 -2.97489e+12 -5.68672e+12 -6.14019e+12 -6.42771e+12 -4.22757e+12 -3.18753e+12 -2.4832e+12 -5.43694e+12 -6.25153e+12 -5.30298e+12 -5.28453e+12 -4.49697e+12 -4.59881e+12 -4.83145e+12 -4.14816e+12 -5.74243e+12 -4.80037e+12 -2.51462e+12 -4.16873e+12 -4.93114e+12 -5.12068e+12 -3.39786e+12 -4.311e+12 -3.01741e+12 -3.67601e+12 -3.76966e+12 -4.92958e+12 -5.51043e+12 -5.62041e+12 -5.01597e+12 -4.90315e+12 -4.88713e+12 -6.29461e+12 -5.64409e+12 -6.76873e+12 -5.54772e+12 -2.01627e+12 -5.47826e+12 -2.75585e+12 -4.83235e+12 -4.81568e+12 -3.38674e+12 -3.8602e+12 -4.94736e+12 -7.12677e+12 -4.3871e+12 -5.09213e+12 -3.02919e+12 -6.81247e+12 -4.03151e+12 -3.66751e+12 -4.66274e+12 -5.93295e+12 -5.29519e+12 -2.83533e+12 -5.51289e+12 -3.67149e+12 -5.34973e+12 -3.8246e+12 -6.76818e+12 -6.57795e+12 -4.56783e+12 -3.87965e+12 -6.22992e+12 -5.15633e+12 -7.67761e+12 -3.59701e+12 -3.70468e+12 -4.7842e+12 -4.90563e+12 -5.68078e+12 -3.22821e+12 -12549700000.0 -3.08279e+12 -4.16871e+12 -4.31291e+12 -4.38231e+12 -5.6738e+12 -3.3223e+12 -7.66647e+12 -3.85294e+12 -5.16057e+12 -6.048e+12 -6.90369e+12 -2.69823e+12 -3.93458e+12 -7.24791e+12 -5.17059e+12 -5.26357e+12 -3.53671e+12 -5.05654e+12 -2.9512e+12 -8.55097e+12 -5.7347e+12 -7.29779e+12 -3.73286e+12 -6.22451e+12 -6.02318e+12 -4.75414e+12 -6.83075e+12 -5.51397e+12 -4.00005e+12 -3.61766e+12 -5.0045e+12 -5.15676e+12 -2.58426e+12 -4.54641e+12 -5.39493e+12 -6.11194e+12 -5.25872e+12 -3.33089e+12 -2.03938e+12 -5.99249e+12 -3.22562e+12 -7.07346e+12 -3.98957e+12 -6.48993e+12 -8.04265e+12 -4.81188e+12 -6.87591e+12 -5.54695e+12 -6.31652e+12 -4.8236e+12 -5.68255e+12 -4.98631e+12 -6.02811e+12 -5.74141e+12 -4.90604e+12 -8.0322e+12 -5.05214e+12 -6.03011e+12 -7.9682e+12 -6.18337e+12 -5.68848e+12 -4.30294e+12 -3.12276e+12 -6.81084e+12 -3.66526e+12 -6.2288e+12 -4.42401e+12 -5.28963e+12 -5.65728e+12 -3.40719e+12 -5.28475e+12 -6.52868e+12 -8.00598e+12 -6.00009e+12 -3.61233e+12 -3.10911e+12 -2.81896e+12 -5.77037e+12 -6.49214e+12 -7.29786e+12 -7.4974e+12 -6.21348e+12 -4.00402e+12 -5.77232e+12 -4.55996e+12 -3.07151e+12 -5.72192e+12 -6.22326e+12 -4.30453e+12 -1.11968e+13 -7.83503e+12 -3.98903e+12 -3.21347e+12 -5.09169e+12 -9.36853e+12 -4.85729e+12 -5.69412e+12 -6.15353e+12 -6.11826e+12 -2.11083e+12 -3.94411e+12 -4.46005e+12 -6.4424e+12 -7.89494e+12 -9.02729e+12 -4.60344e+12 -7.03201e+12 -3.32816e+12 -12549700000.0 -4.0299e+12 -5.20489e+12 -9.52207e+12 -9.64296e+12 -6.65038e+12 -6.20705e+12 -3.4009e+12 -5.23417e+12 -5.00812e+12 -1.1303e+13 -4.98881e+12 -7.18126e+12 -7.51815e+12 -5.48878e+12 -4.54302e+12 -5.47871e+12 -7.32129e+12 -5.67776e+12 -9.06296e+12 -1.20953e+13 -5.73263e+12 -3.77068e+12 -7.08591e+12 -6.86725e+12 -7.04873e+12 -1.10868e+13 -6.01539e+12 -6.05026e+12 -7.32731e+12 -5.20718e+12 -7.40093e+12 -6.41435e+12 -3.1224e+12 -7.07712e+12 -6.27465e+12 -7.30987e+12 -3.2295e+12 -3.54049e+12 -5.40714e+12 -3.43621e+12 -7.91234e+12 -5.54617e+12 -8.05008e+12 -6.56688e+12 -5.41045e+12 -6.55487e+12 -4.78235e+12 -5.21769e+12 -5.04813e+12 -3.83933e+12 -5.03128e+12 -5.14252e+12 -7.06314e+12 -7.55205e+12 -6.87672e+12 -8.12495e+12 -7.91757e+12 -9.60085e+12 -7.28939e+12 -6.71854e+12 -9.08517e+12 -3.08029e+12 -1.17856e+13 -5.30125e+12 -5.00289e+12 -1.05186e+13 -9.31572e+12 -5.22652e+12 -7.18959e+12 -7.78459e+12 -12549700000.0 -2.25673e+12 -6.78514e+12 -4.65526e+12 -5.88953e+12 -6.03249e+12 -5.01671e+12 -7.05269e+12 -6.38366e+12 -1.07151e+13 -8.16285e+12 -2.68334e+12 -6.51039e+12 -6.70219e+12 -5.52534e+12 -6.75785e+12 -6.96716e+12 -8.04293e+12 -5.09522e+12 -6.84387e+12 -6.55429e+12 -4.89265e+12 -5.19987e+12 -5.72915e+12 -1.03345e+13 -8.38983e+12 -6.92163e+12 -2.77656e+12 -5.56272e+12 -1.14911e+13 -7.44267e+12 -1.49083e+13 -1.20163e+13 -4.44633e+12 -12549700000.0 -4.57235e+12 -4.58278e+12 -7.71027e+12 -3.39966e+12 -6.44269e+12 -5.06599e+12 -5.00952e+12 -3.96224e+12 -4.27791e+12 -7.58712e+12 -8.29021e+12 -6.56149e+12 -6.4806e+12 -5.15974e+12 -4.41387e+12 -5.80848e+12 -3.06384e+12 -6.15611e+12 -2.7636e+12 -7.84893e+12 -7.3545e+12 -7.06707e+12 -4.69e+12 -7.01998e+12 -4.69533e+12 -7.70413e+12 -7.18953e+12 -9.23688e+12 -8.73214e+12 -2.02634e+12 -4.05737e+12 -4.14962e+12 -3.65123e+12 -4.11348e+12 -5.98911e+12 -7.06804e+12 -5.19708e+12 -7.15688e+12 -8.64789e+12 -8.63478e+12 -5.47402e+12 -8.42379e+12 -8.68201e+12 -5.7217e+12 -3.67037e+12 -3.8471e+12 -4.19525e+12 -2.89888e+12 -5.50599e+12 -3.4016e+12 -6.36191e+12 -4.03727e+12 -5.25844e+12 -4.35842e+12 -8.23217e+12 -4.21148e+12 -5.53902e+12 -4.24988e+12 -6.97689e+12 -4.23976e+12 -4.64464e+12 -7.38982e+12 -6.7444e+12 -5.72304e+12 -6.27458e+12 -6.77506e+12 -6.15405e+12 -8.42311e+12 -4.52685e+12 -5.31303e+12 -3.66848e+12 -9.03273e+12 -3.57975e+12 -5.89026e+12 -7.65782e+12 -5.4722e+12 -3.95432e+12 -3.93322e+12 -6.23635e+12 -9.35472e+12 -6.70512e+12 -1.09379e+13 -8.78152e+12 -9.4661e+12 -3.01843e+12 -5.85839e+12 -3.56817e+12 -4.90296e+12 -5.57609e+12 -6.50911e+12 -7.34984e+12 -9.46601e+12 -1.09416e+13 -6.47089e+12 -6.20589e+12 -9.82376e+12 -7.30611e+12 -7.09814e+12 -9.17244e+12 -4.18452e+12 -3.78753e+12 -4.22809e+12 -6.14228e+12 -1.01557e+13 -8.15932e+12 -5.66907e+12 -8.42806e+12 -8.57668e+12 -4.42813e+12 -2.87787e+12 -5.29953e+12 -3.70696e+12 -8.67369e+12 -4.99435e+12 -5.0527e+12 -8.96042e+12 -5.99625e+12 -5.82411e+12 -6.41403e+12 -7.07022e+12 -6.9625e+12 -5.4206e+12 -5.51615e+12 -7.84989e+12 -4.99472e+12 -3.82646e+12 -4.1948e+12 -4.24543e+12 -12549700000.0 -12549700000.0 -4.97193e+12 -2.93754e+12 -5.95979e+12 -4.46492e+12 -6.20312e+12 -9.84485e+12 -1.26301e+13 -1.0377e+13 -6.05873e+12 -9.66143e+12 -5.09573e+12 -7.11376e+12 -9.24226e+12 -6.59744e+12 -4.68491e+12 -9.71514e+12 -1.33123e+13 -9.98406e+12 -4.612e+12 -6.77553e+12 -7.63107e+12 -7.35426e+12 -9.91558e+12 -8.20519e+12 -1.00962e+13 -1.07351e+13 -9.77856e+12 -8.48671e+12 -8.07485e+12 -7.4611e+12 -1.06426e+13 -5.07977e+12 -5.38891e+12 -7.50966e+12 -4.56297e+12 -5.89083e+12 -4.88714e+12 -6.29161e+12 -7.06174e+12 -9.32016e+12 -2.86412e+12 -4.65304e+12 -5.1759e+12 -4.9299e+12 -12549700000.0 -6.62376e+12 -4.03214e+12 -5.26853e+12 -4.50278e+12 -3.27647e+12 -5.19452e+12 -7.96038e+12 -8.27333e+12 -7.53299e+12 -4.88624e+12 -1.02509e+13 -7.25377e+12 -7.65622e+12 -5.58246e+12 -5.43598e+12 -3.53571e+12 -6.01091e+12 -5.53412e+12 -6.76847e+12 -8.47383e+12 -1.02119e+13 -5.13429e+12 -6.94613e+12 -6.62093e+12 -6.94809e+12 -5.69125e+12 -6.15714e+12 -1.30232e+13 -5.39071e+12 -5.53059e+12 -5.1188e+12 -9.26576e+12 -6.91904e+12 -7.23326e+12 -5.76763e+12 -5.48412e+12 -4.85332e+12 -5.81761e+12 -6.49135e+12 -8.41887e+12 -5.91088e+12 -2.76514e+12 -6.8178e+12 -6.08474e+12 -7.87333e+12 -1.18119e+13 -7.07515e+12 -8.75354e+12 -6.78214e+12 -8.44834e+12 -8.44962e+12 -9.04739e+12 -6.21017e+12 -9.8454e+12 -4.34983e+12 -7.55929e+12 -7.33727e+12 -8.58062e+12 -6.33456e+12 -6.34755e+12 -2.49079e+12 -6.99785e+12 -5.35277e+12 -4.88376e+12 -9.68607e+12 -8.7912e+12 -8.54891e+12 -6.71575e+12 -9.94475e+12 -5.9568e+12 -4.12237e+12 -7.86498e+12 -7.05346e+12 -1.00106e+13 -6.88675e+12 -4.49141e+12 -1.17424e+13 -8.92318e+12 -9.94517e+12 -4.65244e+12 -3.59841e+12 -3.84042e+12 -6.73064e+12 -7.38547e+12 -8.13751e+12 -6.71625e+12 -5.07493e+12 -5.21583e+12 -7.13959e+12 -6.87404e+12 -6.30381e+12 -1.35313e+13 -4.6914e+12 -6.37041e+12 -8.45664e+12 -8.24953e+12 -3.81323e+12 -4.33778e+12 -2.64944e+12 -8.75252e+12 -7.39267e+12 -4.79038e+12 -7.63276e+12 -6.04269e+12 -9.66558e+12 -8.817e+12 -1.1731e+13 -1.08646e+13 -9.51631e+12 -6.14966e+12 -8.34957e+12 -5.01909e+12 -1.12405e+13 -8.07139e+12 -5.45784e+12 -7.73736e+12 -4.35363e+12 -1.35608e+13 -8.33006e+12 -6.58474e+12 -9.77769e+12 -5.51431e+12 -7.14041e+12 -5.12815e+12 -8.92738e+12 -7.01946e+12 -4.69726e+12 -4.15574e+12 -4.59017e+12 -3.60217e+12 -7.89316e+12 -6.19886e+12 -6.34751e+12 -6.40255e+12 -7.17216e+12 -4.7277e+12 -5.41624e+12 -6.71336e+12 -6.85063e+12 -8.27409e+12 -6.11443e+12 -5.83988e+12 -6.52451e+12 -1.17897e+13 -1.557e+13 -9.11253e+12 -5.75244e+12 -9.74602e+12 -1.21323e+13 -7.53217e+12 -4.72474e+12 -7.55971e+12 -6.83091e+12 -8.15228e+12 -5.03916e+12 -3.85026e+12 -1.43262e+13 -1.22635e+13 -7.4855e+12 -6.83614e+12 -7.33418e+12 -7.92551e+12 -7.87276e+12 -6.22305e+12 -3.59256e+12 -8.95465e+12 -7.92121e+12 -3.34539e+12 -8.29773e+12 -9.01444e+12 -6.16645e+12 -1.00561e+13 -6.85324e+12 -9.22677e+12 -9.76888e+12 -5.59858e+12 -3.71248e+12 -6.20146e+12 -6.91973e+12 -5.2707e+12 -9.2084e+12 -4.75172e+12 -7.22833e+12 -3.91771e+12 -5.36878e+12 -4.74318e+12 -6.78975e+12 -4.93897e+12 -5.13915e+12 -4.51232e+12 -3.29959e+12 -5.70849e+12 -6.39982e+12 -1.00356e+13 -8.75306e+12 -1.05649e+13 -8.52251e+12 -1.17949e+13 -9.25305e+12 -8.37101e+12 -8.69997e+12 -8.27824e+12 -6.49935e+12 -6.67156e+12 -5.68839e+12 -1.13851e+13 -6.36695e+12 -8.52907e+12 -7.98062e+12 -1.09236e+13 -6.1744e+12 -8.09869e+12 -7.83921e+12 -8.63998e+12 -5.81116e+12 -8.38682e+12 -6.41085e+12 -7.80474e+12 -6.53551e+12 -8.09605e+12 -5.68406e+12 -5.85821e+12 -5.22829e+12 -5.55656e+12 -9.00198e+12 -7.71913e+12 -5.94152e+12 -5.86972e+12 -6.80139e+12 -1.25481e+13 -3.7783e+12 -6.54774e+12 -5.09863e+12 -8.70656e+12 -6.60388e+12 -5.43657e+12 -8.24594e+12 -6.77661e+12 -6.72873e+12 -7.82368e+12 -6.12293e+12 -8.79614e+12 -5.6929e+12 -6.69746e+12 -8.20404e+12 -1.34155e+13 -6.82738e+12 -4.86402e+12 -1.06661e+13 -1.19374e+13 -4.81027e+12 -9.28948e+12 -5.4503e+12 -5.22329e+12 -4.13069e+12 -4.54772e+12 -7.87534e+12 -4.68439e+12 -8.78816e+12 -3.63866e+12 -6.26291e+12 -5.80011e+12 -1.17248e+13 -9.66305e+12 -8.66936e+12 -6.35459e+12 -9.04712e+12 -8.28616e+12 -1.16002e+13 -9.60569e+12 -7.58906e+12 -1.12874e+13 -8.32134e+12 -7.49335e+12 -9.43734e+12 -4.86919e+12 -9.6442e+12 -6.67424e+12 -4.5154e+12 -3.9957e+12 -3.79003e+12 -3.74175e+12 -6.48485e+12 -7.39919e+12 -6.05885e+12 -7.62904e+12 -4.54864e+12 -6.61669e+12 -1.28996e+13 -8.34897e+12 -8.01211e+12 -1.0865e+13 -8.12445e+12 -9.23815e+12 -6.85283e+12 -5.30057e+12 -5.28022e+12 -1.08034e+13 -1.02672e+13 -9.67256e+12 -6.7275e+12 -9.20899e+12 -7.69566e+12 -1.1307e+13 -4.28915e+12 -6.60025e+12 -6.48194e+12 -1.16548e+13 -9.24004e+12 -8.48968e+12 -9.15935e+12 -1.07227e+13 -6.66614e+12 -6.15091e+12 -4.29989e+12 -2.99838e+12 -7.232e+12 -6.17414e+12 -1.04258e+13 -9.48985e+12 -1.26258e+13 -6.56647e+12 -8.36413e+12 -6.3204e+12 -1.00094e+13 -6.12738e+12 -6.34777e+12 -7.44316e+12 -7.05179e+12 -6.41546e+12 -1.41547e+13 -1.08596e+13 -1.45531e+13 -1.51528e+13 -1.00397e+13 -5.80414e+12 -6.21507e+12 -1.35956e+13 -6.76159e+12 -8.65121e+12 -6.68763e+12 -7.18646e+12 -8.98088e+12 -8.53756e+12 -1.07787e+13 -7.52866e+12 -8.38697e+12 -1.01549e+13 -9.01843e+12 -6.82778e+12 -7.17168e+12 -8.62334e+12 -7.76147e+12 -6.14353e+12 -1.17226e+13 -6.5809e+12 -8.63778e+12 -1.11865e+13 -8.07492e+12 -5.55224e+12 -7.78778e+12 -8.33076e+12 -7.51213e+12 -7.43863e+12 -4.63958e+12 -1.73044e+13 -6.57888e+12 -8.95013e+12 -9.46402e+12 -6.23535e+12 -1.01636e+13 -9.11148e+12 -8.86214e+12 -5.31268e+12 -3.29464e+12 -8.67907e+12 -7.79412e+12 -7.08065e+12 -6.92703e+12 -9.87346e+12 -7.37658e+12 -5.68738e+12 -6.45227e+12 -7.55141e+12 -6.59794e+12 -1.0881e+13 -7.02067e+12 -5.8974e+12 -7.27899e+12 -8.47789e+12 -1.12804e+13 -7.38294e+12 -8.95048e+12 -7.77554e+12 -8.94948e+12 -1.07169e+13 -6.64077e+12 -1.14201e+13 -8.64491e+12 -9.82555e+12 -4.50551e+12 -1.49629e+13 -8.88357e+12 -4.11604e+12 -4.33228e+12 -1.24291e+13 -7.3362e+12 -9.93833e+12 -4.46236e+12 -1.1007e+13 -1.21783e+13 -7.88403e+12 -9.32996e+12 -3.85699e+12 -6.73915e+12 -1.08101e+13 -8.22318e+12 -9.52527e+12 -1.06388e+13 -1.0514e+13 -1.12056e+13 -1.41143e+13 -8.41905e+12 -9.77629e+12 -8.86091e+12 -5.46245e+12 -5.30676e+12 -5.89922e+12 -5.41279e+12 -5.34637e+12 -5.63735e+12 -6.54771e+12 -4.23236e+12 -5.41676e+12 -1.06172e+13 -8.81556e+12 -3.29807e+12 -4.61403e+12 -4.8485e+12 -5.5394e+12 -4.81331e+12 -4.98699e+12 -8.39196e+12 -5.78188e+12 -4.19319e+12 -5.26605e+12 -6.04021e+12 -7.24865e+12 -5.27254e+12 -5.64866e+12 -1.07302e+13 -8.87896e+12 -8.6713e+12 -8.65765e+12 -1.17474e+13 -6.84402e+12 -5.729e+12 -8.87546e+12 -7.82314e+12 -8.5372e+12 -1.12377e+13 -7.20471e+12 -8.087e+12 -6.88418e+12 -4.67728e+12 -8.97125e+12 -5.39222e+12 -1.11784e+13 -1.21321e+13 -1.17019e+13 -6.2357e+12 -7.66533e+12 -5.29401e+12 -1.29698e+13 -1.17107e+13 -8.32028e+12 -1.09449e+13 -1.02635e+13 -1.48853e+13 -1.68468e+13 -1.32101e+13 -7.46131e+12 -1.07636e+13 -1.09313e+13 -1.07068e+13 -1.11581e+13 -8.31306e+12 -8.04614e+12 -1.0872e+13 -3.71805e+12 -3.36151e+12 -7.32904e+12 -5.33257e+12 -6.11727e+12 -8.37977e+12 -8.84844e+12 -1.50933e+13 -9.59958e+12 -1.21016e+13 -7.46819e+12 -6.93934e+12 -5.59664e+12 -1.3249e+13 -9.1195e+12 -6.87206e+12 -1.44975e+13 -8.22186e+12 -9.98208e+12 -9.45075e+12 -5.3753e+12 -7.6799e+12 -9.20391e+12 -8.39791e+12 -6.68237e+12 -3.29691e+12 -7.48127e+12 -9.19983e+12 -1.11571e+13 -8.62898e+12 -7.54053e+12 -6.39129e+12 -1.23502e+13 -6.11815e+12 -7.65055e+12 -6.82976e+12 -4.85748e+12 -5.8279e+12 -8.57832e+12 -6.79338e+12 -8.90179e+12 -3.74704e+12 -5.22113e+12 -7.51504e+12 -4.83235e+12 -1.06432e+13 -7.75621e+12 -7.52608e+12 -7.69454e+12 -7.6486e+12 -9.04578e+12 -8.5042e+12 -4.53648e+12 -4.61267e+12 -4.48415e+12 -6.59772e+12 -1.23185e+13 -7.90981e+12 -8.37926e+12 -6.40167e+12 -1.036e+13 -6.24812e+12 -5.97442e+12 -8.15599e+12 -1.05933e+13 -4.03771e+12 -6.75133e+12 -7.47136e+12 -5.77528e+12 -1.06257e+13 -9.42684e+12 -6.02028e+12 -9.67001e+12 -1.08032e+13 -9.26046e+12 -6.53471e+12 -9.12795e+12 -9.64697e+12 -5.17938e+12 -7.52076e+12 -6.68083e+12 -7.20689e+12 -1.0729e+13 -6.57583e+12 -7.97526e+12 -1.00971e+13 -8.64754e+12 -9.16803e+12 -1.02859e+13 -1.21307e+13 -9.59704e+12 -9.48524e+12 -8.73003e+12 -1.16694e+13 -9.54791e+12 -7.24229e+12 -6.82944e+12 -2.85838e+12 -3.55929e+12 -6.14037e+12 -5.19967e+12 -8.34868e+12 -7.58842e+12 -6.75892e+12 -1.18058e+13 -1.19864e+13 -1.05036e+13 -1.47379e+13 -6.15134e+12 -6.15847e+12 -8.2531e+12 -1.24407e+13 -1.01278e+13 -1.30212e+13 -7.12201e+12 -1.07084e+13 -1.40407e+13 -9.76484e+12 -9.64161e+12 -6.09351e+12 -8.29733e+12 -1.23626e+13 -9.06344e+12 -7.57254e+12 -8.99171e+12 -1.04294e+13 -9.17294e+12 -6.35769e+12 -5.09205e+12 -1.03049e+13 -6.88765e+12 -9.4464e+12 -7.96544e+12 -6.15271e+12 -5.76134e+12 -9.19706e+12 -6.25576e+12 -7.42015e+12 -5.66642e+12 -1.29602e+13 -9.44163e+12 -1.12321e+13 -7.29751e+12 -5.79885e+12 -9.09119e+12 -1.05949e+13 -5.98321e+12 -1.07307e+13 -6.72006e+12 -7.98547e+12 -8.12598e+12 -7.25416e+12 -5.27855e+12 -8.74778e+12 -5.36906e+12 -6.74328e+12 -3.48552e+12 -5.51645e+12 -2.90131e+12 -7.81692e+12 -6.45266e+12 -4.88973e+12 -3.66554e+12 -6.52547e+12 -1.00617e+13 -7.66748e+12 -1.16463e+13 -7.24095e+12 -6.62624e+12 -3.87011e+12 -8.81063e+12 -9.83885e+12 -9.08751e+12 -1.0833e+13 -1.14871e+13 -9.4589e+12 -9.64651e+12 -9.4962e+12 -1.19399e+13 -7.88953e+12 -1.0007e+13 -1.14408e+13 -8.45353e+12 -8.45472e+12 -1.5003e+13 -1.29211e+13 -1.07779e+13 -1.29563e+13 -1.06852e+13 -8.28707e+12 -6.97324e+12 -7.75068e+12 -4.33503e+12 -9.06511e+12 -8.12129e+12 -5.45743e+12 -4.15951e+12 -1.14929e+13 -9.22441e+12 -9.10681e+12 -5.73281e+12 -6.32173e+12 -8.20636e+12 -9.06124e+12 -8.90302e+12 -6.32258e+12 -8.66096e+12 -5.96004e+12 -6.20158e+12 -8.04778e+12 -7.89053e+12 -9.75115e+12 -1.00288e+13 -7.41186e+12 -8.97647e+12 -9.68065e+12 -1.12143e+13 -3.38964e+12 -1.20865e+13 -6.0827e+12 -6.45525e+12 -9.85525e+12 -7.6056e+12 -7.90435e+12 -1.01667e+13 -2.92046e+12 -3.90895e+12 -6.80754e+12 -9.46955e+12 -9.48165e+12 -5.45451e+12 -5.94636e+12 -8.35812e+12 -9.52316e+12 -8.5038e+12 -5.99594e+12 -4.53243e+12 -1.06494e+13 -1.19788e+13 -1.07093e+13 -8.32483e+12 -7.38218e+12 -7.99793e+12 -5.18674e+12 -3.64762e+12 -8.25148e+12 -7.60313e+12 -7.39905e+12 -1.02604e+13 -7.07295e+12 -1.25811e+13 -6.14309e+12 -5.74429e+12 -1.25907e+13 -5.19365e+12 -5.5311e+12 -9.94562e+12 -9.60067e+12 -8.40382e+12 -7.96333e+12 -8.12423e+12 -1.04819e+13 -1.51983e+13 -6.93633e+12 -6.0103e+12 -1.05839e+13 -7.79986e+12 -4.56238e+12 -5.64561e+12 -7.98524e+12 -2.73996e+12 -9.44396e+12 -4.55201e+12 -6.58544e+12 -8.29188e+12 -7.88823e+12 -6.2753e+12 -9.0378e+12 -8.03034e+12 -6.81898e+12 -1.07591e+13 -9.68685e+12 -9.39043e+12 -6.22771e+12 -1.67607e+13 -8.72282e+12 -9.83387e+12 -4.80987e+12 -1.13331e+13 -1.2807e+13 -6.70698e+12 -1.27397e+13 -4.64947e+12 -6.39008e+12 -9.70969e+12 -1.0085e+13 -6.33167e+12 -8.07489e+12 -1.25872e+13 -5.51361e+12 -4.85705e+12 -4.55399e+12 -7.91814e+12 -7.47297e+12 -1.29405e+13 -1.00391e+13 -1.01246e+13 -1.20637e+13 -8.69427e+12 -8.42405e+12 -6.95918e+12 -1.41014e+13 -7.50702e+12 -1.09502e+13 -1.39662e+13 -4.89489e+12 -3.15836e+12 -5.93963e+12 -6.56677e+12 -3.9199e+12 -4.70658e+12 -9.499e+12 -8.19055e+12 -6.30369e+12 -1.02946e+13 -6.13305e+12 -7.33987e+12 -5.70968e+12 -5.04481e+12 -1.22572e+13 -5.43708e+12 -6.48059e+12 -9.71867e+12 -6.56597e+12 -7.28042e+12 -6.72565e+12 -8.58933e+12 -1.46682e+13 -5.64823e+12 -9.45652e+12 -9.51627e+12 -7.35456e+12 -7.65925e+12 -5.69622e+12 -1.19648e+13 -1.09834e+13 -5.24299e+12 -8.1786e+12 -1.01983e+13 -6.425e+12 -5.83253e+12 -8.16024e+12 -2.94111e+12 -6.04302e+12 -9.171e+12 -5.84068e+12 -6.08209e+12 -2.86682e+12 -9.12989e+12 -6.5968e+12 -1.15073e+13 -8.60811e+12 -4.30036e+12 -7.80904e+12 -1.01508e+13 -1.17991e+13 -5.14909e+12 -4.3629e+12 -5.86024e+12 -4.79846e+12 -3.36596e+12 -7.1737e+12 -4.91082e+12 -5.76691e+12 -5.97387e+12 -5.80435e+12 -4.53314e+12 -9.25223e+12 -6.46098e+12 -7.86879e+12 -4.81431e+12 -1.06227e+13 -8.97333e+12 -7.14898e+12 -5.80511e+12 -5.73389e+12 -5.52989e+12 -7.72758e+12 -5.8576e+12 -4.6318e+12 -6.72782e+12 -5.46245e+12 -7.61451e+12 -6.43893e+12 -4.9132e+12 -2.04566e+12 -8.46103e+12 -4.38579e+12 -5.66583e+12 -7.95938e+12 -4.90352e+12 -7.05699e+12 -8.70117e+12 -1.13581e+13 -4.73629e+12 -8.99518e+12 -1.08169e+13 -8.63498e+12 -1.28714e+13 -8.80742e+12 -7.29302e+12 -5.0594e+12 -8.62213e+12 -6.94448e+12 -1.10861e+13 -6.50105e+12 -8.8855e+12 -5.87508e+12 -9.0931e+12 -5.74054e+12 -1.03249e+13 -4.94419e+12 -6.75578e+12 -4.03601e+12 -9.44092e+12 -1.03017e+13 -5.41964e+12 -1.13246e+13 -7.56861e+12 -6.32107e+12 -7.56469e+12 -5.16401e+12 -8.84962e+12 -9.38297e+12 -9.98268e+12 -8.02154e+12 -5.61862e+12 -6.08006e+12 -1.1411e+13 -7.52228e+12 -4.88319e+12 -6.59339e+12 -9.68026e+12 -6.08402e+12 -6.34108e+12 -7.00066e+12 -7.87216e+12 -1.21087e+13 -7.76563e+12 -1.19725e+13 -6.93236e+12 -6.3471e+12 -4.47474e+12 -5.36501e+12 -7.40936e+12 -7.32246e+12 -5.55485e+12 -5.82771e+12 -6.33204e+12 -7.86403e+12 -1.24204e+13 -4.59119e+12 -7.02051e+12 -1.01954e+13 -6.58332e+12 -1.12193e+13 -7.87729e+12 -4.61114e+12 -7.72227e+12 -7.1324e+12 -4.63683e+12 -9.6066e+12 -4.74695e+12 -7.18549e+12 -7.21749e+12 -8.81749e+12 -9.36187e+12 -8.88195e+12 -4.75474e+12 -7.33615e+12 -8.41348e+12 -7.33861e+12 -8.02972e+12 -3.29027e+12 -8.58839e+12 -6.06042e+12 -5.09583e+12 -3.26284e+12 -2.81294e+12 -7.8553e+12 -6.92225e+12 -3.72711e+12 -3.99877e+12 -4.66668e+12 -5.62252e+12 -3.11239e+12 -8.43629e+12 -4.03323e+12 -7.25312e+12 -7.49397e+12 -5.18581e+12 -8.29579e+12 -7.58122e+12 -5.40387e+12 -9.61223e+12 -6.63112e+12 -6.68439e+12 -8.36011e+12 -8.15682e+12 -4.14332e+12 -8.89227e+12 -8.58823e+12 -1.17842e+13 -2.95596e+12 -3.19591e+12 -1.17966e+13 -6.95507e+12 -9.05079e+12 -8.76733e+12 -1.05835e+13 -7.76192e+12 -5.46001e+12 -1.02562e+13 -8.00843e+12 -1.44018e+13 -2.46372e+12 -6.80058e+12 -7.03799e+12 -4.27322e+12 -1.06133e+13 -6.96132e+12 -7.87873e+12 -1.10945e+13 -4.17167e+12 -6.45326e+12 -8.0796e+12 -7.85015e+12 -1.08643e+13 -1.02605e+13 -1.07825e+13 -5.48775e+12 -7.82121e+12 -9.47087e+12 -6.94381e+12 -9.36887e+12 -9.96919e+12 -1.13532e+13 -1.29645e+13 -9.38969e+12 -8.09248e+12 -1.26636e+13 -9.10153e+12 -5.61855e+12 -1.20376e+13 -5.48862e+12 -9.49414e+12 -4.32457e+12 -8.7607e+12 -8.51413e+12 -9.86691e+12 -5.86759e+12 -6.94333e+12 -7.65658e+12 -8.16181e+12 -7.15656e+12 -7.42173e+12 -1.0406e+13 -5.43003e+12 -1.05238e+13 -5.87352e+12 -7.02716e+12 -6.50613e+12 -4.39238e+12 -4.90859e+12 -4.90692e+12 -6.49708e+12 -7.96547e+12 -7.51695e+12 -6.29569e+12 -1.36894e+13 -5.95334e+12 -7.42696e+12 -8.19503e+12 -6.79993e+12 -5.86883e+12 -5.85824e+12 -6.47833e+12 -6.58076e+12 -7.95401e+12 -4.6452e+12 -7.0817e+12 -7.92844e+12 -9.91058e+12 -6.84994e+12 -4.46018e+12 -6.95903e+12 -1.0901e+13 -5.88299e+12 -4.68322e+12 -8.91866e+12 -6.76742e+12 -6.68899e+12 -4.64116e+12 -7.97837e+12 -4.94138e+12 -4.52009e+12 -8.49082e+12 -5.29704e+12 -1.16561e+13 -7.38269e+12 -5.47757e+12 -6.36253e+12 -9.7815e+12 -5.72144e+12 -5.50289e+12 -5.6962e+12 -9.42793e+12 -1.00814e+13 -3.76547e+12 -8.87152e+12 -5.3425e+12 -5.7805e+12 -5.88727e+12 -1.24721e+13 -5.49776e+12 -4.48683e+12 -1.14417e+13 -5.61087e+12 -1.12292e+13 -6.80015e+12 -1.04524e+13 -7.98733e+12 -5.98452e+12 -7.79581e+12 -2.70239e+12 -6.6861e+12 -1.06204e+13 -8.14334e+12 -7.41047e+12 -9.96441e+12 -1.19743e+13 -8.59473e+12 -6.66681e+12 -5.01726e+12 -8.16583e+12 -1.19512e+13 -1.02531e+13 -1.28209e+13 -1.02453e+13 -7.98222e+12 -8.99657e+12 -4.96504e+12 -7.34585e+12 -9.45679e+12 -5.10842e+12 -8.78331e+12 -1.21703e+13 -7.89452e+12 -7.35223e+12 -9.73612e+12 -7.11536e+12 -7.66245e+12 -1.00864e+13 -4.83158e+12 -9.70312e+12 -5.8116e+12 -8.31604e+12 -4.63623e+12 -8.12663e+12 -7.70782e+12 -9.24153e+12 -8.704e+12 -6.80745e+12 -1.1257e+13 -1.0899e+13 -5.82673e+12 -6.24513e+12 -8.34025e+12 -1.17867e+13 -7.38385e+12 -5.71184e+12 -8.97123e+12 -8.3461e+12 -8.40878e+12 -1.02949e+13 -5.955e+12 -8.26768e+12 -6.64773e+12 -5.08816e+12 -9.04299e+12 -9.87676e+12 -7.24806e+12 -8.49711e+12 -8.31498e+12 -3.59507e+12 -8.07898e+12 -6.98121e+12 -7.94029e+12 -7.98167e+12 -7.63632e+12 -1.00723e+13 -4.39857e+12 -8.07137e+12 -1.28845e+13 -1.08894e+13 -1.19669e+13 -5.13506e+12 -6.21441e+12 -4.30184e+12 -6.04391e+12 -1.11203e+13 -3.96808e+12 -4.75301e+12 -7.46936e+12 -1.03983e+13 -7.20305e+12 -8.07362e+12 -9.9099e+12 -7.19295e+12 -7.45024e+12 -9.34497e+12 -6.10418e+12 -3.46593e+12 -5.98597e+12 -2.0376e+12 -7.89947e+12 -8.65876e+12 -4.89132e+12 -8.96889e+12 -9.14866e+12 -1.25602e+13 -3.74679e+12 -4.64739e+12 -6.82246e+12 -5.60536e+12 -6.14795e+12 -8.27603e+12 -5.5134e+12 -4.33999e+12 -6.24613e+12 -9.88108e+12 -4.34152e+12 -8.69918e+12 -6.33881e+12 -8.538e+12 -7.546e+12 -7.57256e+12 -1.14104e+13 -6.71691e+12 -6.86377e+12 -6.32549e+12 -7.20732e+12 -6.48777e+12 -6.35034e+12 -1.01446e+13 -7.93366e+12 -7.10526e+12 -8.73046e+12 -7.79758e+12 -1.17633e+13 -8.41023e+12 -4.89419e+12 -5.84456e+12 -1.35589e+13 -7.74675e+12 -1.2504e+13 -7.56017e+12 -3.73538e+12 -8.52828e+12 -1.11755e+13 -8.43732e+12 -9.28674e+12 -1.18417e+13 -2.86825e+12 -4.05145e+12 -1.01714e+13 -9.30974e+12 -9.37806e+12 -8.50062e+12 -1.18909e+13 -7.07131e+12 -6.01521e+12 -7.4943e+12 -8.34702e+12 -8.32169e+12 -7.48104e+12 -1.05435e+13 -5.61081e+12 -5.70814e+12 -8.20019e+12 -6.67984e+12 -4.84414e+12 -8.87202e+12 -6.9844e+12 -3.99709e+12 -2.82505e+12 -2.37317e+12 -6.40042e+12 -2.78033e+12 -8.21651e+12 -8.46657e+12 -7.17255e+12 -5.31993e+12 -6.56847e+12 -1.34881e+13 -6.25275e+12 -3.59202e+12 -1.03702e+13 -1.48897e+13 -4.73723e+12 -6.13218e+12 -4.61149e+12 -6.57613e+12 -8.07003e+12 -4.92719e+12 -1.21744e+13 -7.35124e+12 -5.8801e+12 -5.01243e+12 -5.90037e+12 -1.01653e+13 -8.20398e+12 -2.46437e+12 -6.96973e+12 -9.38181e+12 -1.25178e+13 -3.6919e+12 -3.48145e+12 -4.99883e+12 -8.32713e+12 -5.27692e+12 -6.40026e+12 -7.58332e+12 -5.32169e+12 -6.67279e+12 -8.68101e+12 -4.43321e+12 -5.80707e+12 -7.63625e+12 -4.53112e+12 -1.33278e+13 -5.3239e+12 -1.02731e+13 -6.22009e+12 -1.05906e+13 -5.90918e+12 -7.36847e+12 -6.63276e+12 -3.84729e+12 -5.58747e+12 -7.08543e+12 -5.71691e+12 -9.95587e+12 -4.15451e+12 -8.62734e+12 -5.48715e+12 -6.80594e+12 -7.73392e+12 -5.12304e+12 -9.7538e+12 -4.49833e+12 -7.17062e+12 -8.30727e+12 -7.55175e+12 -6.37589e+12 -6.75349e+12 -5.44047e+12 -6.7493e+12 -4.18429e+12 -7.16353e+12 -7.76516e+12 -4.7057e+12 -7.45301e+12 -6.68533e+12 -5.38049e+12 -6.583e+12 -6.72198e+12 -9.62898e+12 -3.90474e+12 -7.72374e+12 -5.86401e+12 -1.04363e+13 -5.16379e+12 -4.04051e+12 -4.48515e+12 -6.66964e+12 -4.87087e+12 -8.70077e+12 -7.28073e+12 -1.12481e+13 -1.08304e+13 -9.70851e+12 -6.27441e+12 -4.71648e+12 -7.65149e+12 -8.20708e+12 -5.96723e+12 -1.0124e+13 -9.01651e+12 -5.74547e+12 -5.929e+12 -5.86865e+12 -1.15356e+13 -6.89593e+12 -1.41994e+13 -1.18387e+13 -9.58314e+12 -8.21029e+12 -6.75561e+12 -4.81586e+12 -1.34032e+13 -6.284e+12 -1.01649e+13 -7.45537e+12 -7.06416e+12 -1.09603e+13 -1.01402e+13 -5.92636e+12 -5.64364e+12 -4.65858e+12 -6.73341e+12 -7.05466e+12 -4.1188e+12 -5.50194e+12 -5.54868e+12 -6.65028e+12 -6.06471e+12 -8.72124e+12 -7.28764e+12 -1.34396e+13 -9.03892e+12 -8.32637e+12 -4.63189e+12 -4.9159e+12 -1.58955e+13 -9.0041e+12 -5.46416e+12 -8.24138e+12 -1.06046e+13 -1.04033e+13 -9.70509e+12 -7.2844e+12 -1.02353e+13 -8.53001e+12 -7.96024e+12 -9.17777e+12 -9.23714e+12 -5.59437e+12 -1.52843e+13 -7.38489e+12 -6.04955e+12 -1.10041e+13 -8.25939e+12 -9.27258e+12 -7.70812e+12 -1.05758e+13 -1.03191e+13 -9.90446e+12 -5.48126e+12 -7.7657e+12 -6.55816e+12 -5.16265e+12 -1.01094e+13 -2.95537e+12 -8.48786e+12 -6.12192e+12 -7.45304e+12 -4.80747e+12 -4.7482e+12 -4.72517e+12 -5.82474e+12 -5.82347e+12 -4.68437e+12 -5.9541e+12 -4.03002e+12 -1.0129e+13 -4.85493e+12 -6.87145e+12 -4.42207e+12 -5.86034e+12 -6.62033e+12 -7.42308e+12 -4.96012e+12 -7.09079e+12 -6.01053e+12 -3.28686e+12 -8.93746e+12 -8.24559e+12 -7.72109e+12 -7.82669e+12 -6.74834e+12 -5.84846e+12 -6.43224e+12 -8.16622e+12 -5.49429e+12 -5.69121e+12 -3.3007e+12 -8.35038e+12 -4.25146e+12 -8.43604e+12 -4.00905e+12 -8.37873e+12 -3.68268e+12 -6.68155e+12 -9.92393e+12 -7.40253e+12 -4.83858e+12 -5.45257e+12 -2.29118e+12 -7.9852e+12 -4.13217e+12 -4.17401e+12 -5.75805e+12 -2.90194e+12 -4.50489e+12 -3.97059e+12 -6.20835e+12 -6.59309e+12 -5.31111e+12 -5.36443e+12 -1.04725e+13 -1.07893e+13 -8.74675e+12 -8.41071e+12 -2.82937e+12 -9.78273e+12 -6.15495e+12 -7.38481e+12 -8.05223e+12 -1.10392e+13 -6.05179e+12 -6.73155e+12 -5.25299e+12 -6.93235e+12 -6.6408e+12 -4.04549e+12 -8.52064e+12 -6.43519e+12 -8.03755e+12 -6.14772e+12 -6.774e+12 -6.50969e+12 -7.34191e+12 -4.3321e+12 -5.06209e+12 -8.8876e+12 -8.49057e+12 -7.27151e+12 -8.77598e+12 -5.16239e+12 -7.00542e+12 -7.04476e+12 -9.62284e+12 -8.7799e+12 -7.41025e+12 -1.05456e+13 -6.19241e+12 -6.10255e+12 -6.57725e+12 -5.3519e+12 -8.5406e+12 -6.11531e+12 -4.48126e+12 -5.78764e+12 -6.16416e+12 -6.96512e+12 -4.82663e+12 -6.54283e+12 -1.06793e+13 -9.42593e+12 -6.83732e+12 -7.65695e+12 -7.85086e+12 -1.93118e+13 -6.56178e+12 -6.69094e+12 -7.28512e+12 -9.2675e+12 -1.0433e+13 -7.35302e+12 -5.78978e+12 -7.35335e+12 -5.21396e+12 -8.06901e+12 -6.07413e+12 -8.56405e+12 -5.54164e+12 -1.10946e+13 -7.98319e+12 -7.03024e+12 -6.27963e+12 -9.96297e+12 -4.48459e+12 -7.50515e+12 -6.02287e+12 -7.16347e+12 -6.49559e+12 -6.30762e+12 -5.98082e+12 -8.29676e+12 -9.45441e+12 -5.45975e+12 -5.54922e+12 -6.39249e+12 -6.20013e+12 -1.01591e+12 -8.85048e+12 -6.80925e+12 -8.52618e+12 -8.57396e+12 -6.33269e+12 -3.58099e+12 -5.45936e+12 -4.47174e+12 -2.04621e+12 -1.13139e+13 -5.92137e+12 -4.97477e+12 -5.785e+12 -5.5991e+12 -1.14018e+13 -3.81155e+12 -5.45743e+12 -8.99281e+12 -6.59368e+12 -6.81142e+12 -5.40586e+12 -5.11343e+12 -7.55285e+12 -4.82249e+12 -5.41937e+12 -4.6326e+12 -6.64231e+12 -8.93232e+12 -5.67657e+12 -8.34121e+12 -6.70188e+12 -7.88544e+12 -6.31348e+12 -4.22025e+12 -7.10023e+12 -3.35574e+12 -6.97945e+12 -3.29551e+12 -4.49844e+12 -9.37135e+12 -6.41655e+12 -5.52538e+12 -5.07973e+12 -4.27969e+12 -8.53952e+12 -5.77916e+12 -8.0284e+12 -6.39788e+12 -7.00048e+12 -6.6284e+12 -7.45878e+12 -5.53472e+12 -6.06056e+12 -8.46472e+12 -5.02266e+12 -1.09307e+13 -7.11688e+12 -4.59015e+12 -5.19158e+12 -5.75431e+12 -1.33197e+13 -7.4712e+12 -8.66514e+12 -5.19503e+12 -7.08214e+12 -4.47744e+12 -4.66015e+12 -7.93924e+12 -9.89202e+12 -1.33026e+13 -3.43933e+12 -3.71539e+12 -5.94057e+12 -5.22026e+12 -6.11071e+12 -8.18183e+12 -8.73698e+12 -9.20509e+12 -7.33215e+12 -1.29483e+13 -3.16796e+12 -6.32949e+12 -1.00105e+13 -5.29811e+12 -7.8699e+12 -8.95515e+12 -5.25584e+12 -7.4433e+12 -7.30408e+12 -8.10836e+12 -1.31114e+13 -5.67156e+12 -7.23358e+12 -9.60546e+12 -8.85543e+12 -1.088e+13 -7.94922e+12 -6.72074e+12 -5.21095e+12 -3.69039e+12 -5.64454e+12 -8.91371e+12 -5.33664e+12 -4.42126e+12 -5.09305e+12 -3.83179e+12 -1.02945e+13 -6.02116e+12 -8.25253e+12 -5.5145e+12 -2.85548e+12 -4.56984e+12 -7.90778e+12 -5.23679e+12 -8.58193e+12 -4.21655e+12 -1.42227e+13 -7.08104e+12 -6.23252e+12 -1.21894e+13 -8.29303e+12 -7.30863e+12 -1.07317e+13 -7.06602e+12 -5.96702e+12 -3.42464e+12 -7.25009e+12 -7.19905e+12 -7.8952e+12 -5.39707e+12 -4.71213e+12 -6.45842e+12 -7.50015e+12 -6.06474e+12 -4.86579e+12 -5.08005e+12 -7.86636e+12 -2.24703e+12 -4.4638e+12 -1.18938e+13 -1.00326e+13 -6.19284e+12 -4.39802e+12 -6.08016e+12 -9.7316e+12 -1.11775e+13 -3.28032e+12 -4.45606e+12 -6.00147e+12 -4.47231e+12 -5.0846e+12 -9.61729e+12 -5.23954e+12 -6.60983e+12 -8.67546e+12 -7.54659e+12 -7.01205e+12 -6.39559e+12 -6.40186e+12 -2.25259e+12 -6.88011e+12 -6.031e+12 -7.27468e+12 -3.9141e+12 -7.1254e+12 -6.65107e+12 -3.63691e+12 -3.87924e+12 -5.1232e+12 -5.16611e+12 -3.51377e+12 -5.08858e+12 -4.86102e+12 -6.86443e+12 -6.63079e+12 -6.59254e+12 -2.88833e+12 -4.73426e+12 -9.62072e+12 -6.13777e+12 -5.02808e+12 -5.13325e+12 -5.5721e+12 -5.7712e+12 -5.94423e+12 -3.24479e+12 -2.83313e+12 -6.08007e+12 -5.87039e+12 -6.7358e+12 -4.95081e+12 -3.58593e+12 -5.85485e+12 -6.82989e+12 -5.53998e+12 -3.83752e+12 -2.41176e+12 -7.29621e+12 -7.35815e+12 -8.48734e+12 -3.50763e+12 -7.15631e+12 -4.29616e+12 -4.08583e+12 -6.73695e+12 -8.22602e+12 -7.95915e+12 -7.52653e+12 -8.24779e+12 -9.35694e+12 -7.92603e+12 -7.09132e+12 -1.20512e+13 -4.71042e+12 -4.05716e+12 -3.42105e+12 -4.95887e+12 -1.03572e+13 -6.14886e+12 -7.08188e+12 -1.02895e+13 -4.44132e+12 -7.91661e+12 -1.21574e+13 -8.54418e+12 -5.00054e+12 -8.14707e+12 -1.41513e+13 -5.88799e+12 -1.09001e+13 -4.13116e+12 -7.66741e+12 -6.47798e+12 -7.32341e+12 -4.52874e+12 -5.78298e+12 -6.42979e+12 -6.89785e+12 -4.67386e+12 -5.79191e+12 -6.38622e+12 -6.40574e+12 -9.67711e+12 -8.85433e+12 -1.15567e+13 -6.67166e+12 -1.23496e+13 -5.77478e+12 -7.61651e+12 -6.0074e+12 -4.68954e+12 -4.64665e+12 -5.04242e+12 -4.80561e+12 -6.61894e+12 -9.63596e+12 -5.61859e+12 -9.56294e+12 -9.2022e+12 -6.80862e+12 -4.39043e+12 -7.28713e+12 -4.62235e+12 -7.89367e+12 -8.49111e+12 -6.69212e+12 -5.70607e+12 -3.95255e+12 -5.96426e+12 -7.43625e+12 -7.14196e+12 -6.07806e+12 -3.6899e+12 -5.06266e+12 -7.21227e+12 -4.11736e+12 -7.56736e+12 -6.58027e+12 -9.72401e+12 -7.31705e+12 -4.96412e+12 -5.47717e+12 -9.22435e+12 -2.34516e+12 -2.8741e+12 -6.67132e+12 -4.56674e+12 -4.9363e+12 -1.03246e+13 -6.98693e+12 -4.88417e+12 -4.09044e+12 -4.31022e+12 -3.09247e+12 -6.57683e+12 -8.22117e+12 -4.88916e+12 -6.77292e+12 -5.14055e+12 -7.4123e+12 -3.84688e+12 -5.26464e+12 -3.56256e+12 -5.48004e+12 -7.90245e+12 -6.23597e+12 -6.04488e+12 -9.42295e+12 -5.4644e+12 -5.63781e+12 -4.61627e+12 -4.3584e+12 -3.84542e+12 -5.90166e+12 -5.19059e+12 -6.12417e+12 -6.31631e+12 -6.32986e+12 -5.61329e+12 -5.99358e+12 -3.70437e+12 -3.05355e+12 -6.52786e+12 -5.41518e+12 -7.75922e+12 -6.17355e+12 -5.5267e+12 -4.73864e+12 -5.63613e+12 -6.06644e+12 -4.54052e+12 -6.24302e+12 -5.86691e+12 -5.69467e+12 -5.78213e+12 -6.90572e+12 -3.29726e+12 -4.42222e+12 -6.24794e+12 -4.45244e+12 -7.78385e+12 -5.61993e+12 -7.73786e+12 -4.63193e+12 -5.48935e+12 -9.3586e+12 -4.99544e+12 -6.36557e+12 -4.22013e+12 -7.05265e+12 -5.10956e+12 -5.07211e+12 -6.28574e+12 -1.0284e+13 -3.97376e+12 -5.8513e+12 -8.77354e+12 -1.22775e+13 -6.27885e+12 -6.0418e+12 -5.80546e+12 -7.10317e+12 -8.3531e+12 -4.52998e+12 -4.9687e+12 -5.85521e+12 -4.65135e+12 -5.42395e+12 -5.64927e+12 -7.58268e+12 -8.84501e+12 -5.0757e+12 -8.89311e+12 -4.08686e+12 -4.09881e+12 -8.47585e+12 -9.90392e+12 -4.33439e+12 -6.89492e+12 -5.46585e+12 -3.98268e+12 -5.80624e+12 -9.48436e+12 -8.52991e+12 -7.45012e+12 -9.84786e+12 -5.49549e+12 -5.6406e+12 -4.93666e+12 -5.87257e+12 -5.03962e+12 -1.03697e+13 -4.88804e+12 -8.96169e+12 -9.75466e+12 -8.0644e+12 -8.67475e+12 -1.20228e+13 -7.22361e+12 -1.29942e+13 -3.97461e+12 -6.54598e+12 -6.56261e+12 -6.00746e+12 -4.06968e+12 -3.66328e+12 -5.88029e+12 -5.85703e+12 -3.73482e+12 -7.07923e+12 -4.52683e+12 -7.40904e+12 -4.30968e+12 -6.57432e+12 -7.72865e+12 -7.02924e+12 -8.13395e+12 -8.7821e+12 -5.17544e+12 -7.33773e+12 -7.27192e+12 -4.78168e+12 -6.28923e+12 -5.80613e+12 -4.84375e+12 -5.01859e+12 -3.82145e+12 -5.87908e+12 -4.69664e+12 -6.83105e+12 -4.30071e+12 -6.70087e+12 -6.24055e+12 -6.94656e+12 -3.25885e+12 -4.54133e+12 -8.05582e+12 -8.36167e+12 -9.83222e+12 -6.53287e+12 -8.69993e+12 -1.00938e+13 -3.00748e+12 -8.60867e+12 -6.23027e+12 -3.11202e+12 -5.88703e+12 -4.04509e+12 -5.18454e+12 -6.31231e+12 -6.06529e+12 -5.63305e+12 -8.69218e+12 -1.96784e+12 -6.20964e+12 -7.11729e+12 -7.60893e+12 -5.25916e+12 -4.71933e+12 -6.0171e+12 -8.03644e+12 -8.62707e+12 -4.9402e+12 -8.40364e+12 -9.39281e+12 -6.29502e+12 -5.32164e+12 -4.09653e+12 -3.42429e+12 -2.86504e+12 -4.89672e+12 -5.97734e+12 -3.95351e+12 -5.26326e+12 -5.31571e+12 -2.78776e+12 -4.5623e+12 -5.59611e+12 -8.16322e+12 -5.27816e+12 -2.88152e+12 -5.32321e+12 -3.78578e+12 -3.99827e+12 -7.74331e+12 -6.3669e+12 -5.72073e+12 -9.71704e+12 -4.53579e+12 -7.12875e+12 -7.24204e+12 -5.37269e+12 -6.22555e+12 -5.4229e+12 -3.09967e+12 -5.4084e+12 -3.84736e+12 -4.22562e+12 -8.38592e+12 -6.8012e+12 -3.76571e+12 -6.32374e+12 -4.98369e+12 -6.89478e+12 -8.90564e+12 -1.0129e+13 -7.61152e+12 -5.91829e+12 -3.35331e+12 -3.9519e+12 -3.90024e+12 -8.16573e+12 -3.30769e+12 -6.5409e+12 -9.63079e+12 -5.37049e+12 -7.56482e+12 -6.88825e+12 -6.31314e+12 -3.70385e+12 -5.48106e+12 -4.2647e+12 -5.8746e+12 -4.88424e+12 -6.18623e+12 -7.05571e+12 -6.97635e+12 -6.68995e+12 -6.5296e+12 -6.00665e+12 -9.095e+12 -8.06526e+12 -8.4076e+12 -6.50238e+12 -1.20035e+13 -9.2375e+12 -6.96733e+12 -8.11713e+12 -6.66235e+12 -6.00671e+12 -4.65717e+12 -1.02502e+13 -5.26143e+12 -5.45861e+12 -6.52126e+12 -6.16e+12 -5.68539e+12 -1.12521e+13 -7.6084e+12 -4.84841e+12 -5.89732e+12 -8.70492e+12 -7.41945e+12 -5.73175e+12 -4.94052e+12 -7.19733e+12 -5.75588e+12 -2.63952e+12 -5.10375e+12 -5.98412e+12 -5.35609e+12 -6.31409e+12 -6.08977e+12 -6.86329e+12 -6.32792e+12 -5.29125e+12 -4.33049e+12 -3.97583e+12 -3.83974e+12 -8.30831e+12 -6.76244e+12 -5.62663e+12 -8.4096e+12 -6.97765e+12 -7.11158e+12 -7.08812e+12 -8.04034e+12 -5.44959e+12 -6.77679e+12 -5.21266e+12 -5.52892e+12 -1.01163e+13 -7.86164e+12 -6.59206e+12 -9.58082e+12 -5.50168e+12 -1.19389e+13 -4.65225e+12 -1.14782e+13 -5.36706e+12 -5.56143e+12 -8.51894e+12 -5.52108e+12 -6.96334e+12 -9.1687e+12 -5.3977e+12 -5.08556e+12 -7.26954e+12 -3.49805e+12 -3.03329e+12 -5.07695e+12 -6.3329e+12 -6.38328e+12 -4.24542e+12 -6.16675e+12 -5.63542e+12 -4.47671e+12 -2.58403e+12 -6.7458e+12 -4.30923e+12 -5.94308e+12 -5.47498e+12 -3.61452e+12 -5.81564e+12 -3.36472e+12 -4.25532e+12 -6.25648e+12 -3.04038e+12 -3.57469e+12 -4.24798e+12 -5.59824e+12 -6.29275e+12 -5.8868e+12 -4.34737e+12 -3.60128e+12 -5.60531e+12 -6.11758e+12 -6.27331e+12 -5.93066e+12 -7.11484e+12 -4.05037e+12 -6.87012e+12 -2.19971e+12 -4.70197e+12 -3.39091e+12 -3.72206e+12 -3.60951e+12 -4.64524e+12 -6.3668e+12 -6.98572e+12 -6.23016e+12 -6.28426e+12 -5.36969e+12 -3.83214e+12 -5.97174e+12 -6.25144e+12 -6.67962e+12 -4.68635e+12 -3.02853e+12 -8.00949e+12 -5.76894e+12 -2.02105e+12 -3.68118e+12 -6.69984e+12 -4.76931e+12 -4.42496e+12 -6.11518e+12 -5.68899e+12 -9.39195e+12 -4.98686e+12 -4.054e+12 -3.44743e+12 -7.36402e+12 -5.98344e+12 -1.04273e+13 -5.28733e+12 -5.55422e+12 -8.51603e+12 -8.5154e+12 -6.23918e+12 -4.7181e+12 -6.05454e+12 -6.08278e+12 -6.85057e+12 -5.96214e+12 -4.54201e+12 -7.67127e+12 -7.80775e+12 -6.93901e+12 -4.68517e+12 -6.01616e+12 -2.18037e+12 -8.30928e+12 -4.05549e+12 -1.12081e+13 -5.58312e+12 -6.7443e+12 -5.04439e+12 -8.93391e+12 -1.51482e+13 -7.82613e+12 -8.28954e+12 -1.0766e+13 -9.48422e+12 -5.63689e+12 -1.01387e+13 -7.9455e+12 -9.27426e+12 -7.77837e+12 -5.16066e+12 -3.39154e+12 -6.29742e+12 -8.91138e+12 -3.78792e+12 -4.63847e+12 -7.83505e+12 -4.75069e+12 -7.68545e+12 -5.35056e+12 -9.56248e+12 -4.85444e+12 -9.76676e+12 -7.88394e+12 -9.1698e+12 -6.55081e+12 -6.64189e+12 -5.77561e+12 -5.93082e+12 -5.9294e+12 -4.43495e+12 -5.71626e+12 -4.90023e+12 -5.89129e+12 -8.54398e+12 -3.24293e+12 -4.59604e+12 -5.30841e+12 -6.63701e+12 -5.66775e+12 -8.4926e+12 -7.9048e+12 -3.15318e+12 -2.55002e+12 -6.28654e+12 -4.96121e+12 -3.68144e+12 -6.92933e+12 -1.12996e+13 -6.46727e+12 -8.13303e+12 -6.48145e+12 -8.44845e+12 -7.65241e+12 -3.14384e+12 -2.85325e+12 -5.4826e+12 -5.47747e+12 -5.14123e+12 -9.68532e+12 -3.34932e+12 -4.61761e+12 -3.5422e+12 -3.22761e+12 -5.41063e+12 -7.65717e+12 -5.19615e+12 -3.95643e+12 -4.83757e+12 -6.73006e+12 -5.05347e+12 -5.78108e+12 -7.15674e+12 -3.86965e+12 -5.71122e+12 -6.1777e+12 -3.11933e+12 -6.35368e+12 -4.223e+12 -5.49258e+12 -2.04148e+12 -3.96895e+12 -3.34026e+12 -4.54262e+12 -2.62425e+12 -5.27712e+12 -5.2008e+12 -3.6605e+12 -4.33114e+12 -5.66177e+12 -4.2349e+12 -4.27577e+12 -3.90561e+12 -3.87585e+12 -5.98685e+12 -5.09915e+12 -4.79399e+12 -3.84569e+12 -6.5552e+12 -3.724e+12 -2.48369e+12 -2.91483e+12 -3.87696e+12 -5.05373e+12 -3.74553e+12 -8.06089e+12 -2.0808e+12 -8.06682e+12 -4.59891e+12 -4.77244e+12 -8.24429e+12 -5.94612e+12 -7.69225e+12 -6.06549e+12 -5.51817e+12 -7.43438e+12 -8.5298e+12 -6.52046e+12 -4.94514e+12 -3.78194e+12 -5.90461e+12 -6.50425e+12 -6.54227e+12 -7.98354e+12 -7.68909e+12 -6.33614e+12 -6.64555e+12 -2.6918e+12 -7.50724e+12 -6.18475e+12 -3.7653e+12 -5.97782e+12 -7.41305e+12 -4.77388e+12 -4.54289e+12 -6.26868e+12 -8.5872e+12 -5.95442e+12 -6.86554e+12 -6.34811e+12 -7.60146e+12 -6.69552e+12 -6.20875e+12 -6.72119e+12 -1.01518e+13 -6.07123e+12 -8.00551e+12 -6.12594e+12 -5.99304e+12 -4.46512e+12 -7.00308e+12 -3.65469e+12 -5.45064e+12 -1.14839e+13 -7.83448e+12 -7.81464e+12 -1.26372e+13 -6.38365e+12 -6.1497e+12 -5.85365e+12 -9.01215e+12 -5.14761e+12 -6.95802e+12 -4.11075e+12 -4.90338e+12 -3.36807e+12 -3.94223e+12 -7.32518e+12 -4.7545e+12 -1.04552e+13 -6.21819e+12 -7.23314e+12 -5.63567e+12 -5.90827e+12 -6.39371e+12 -8.93692e+12 -6.3723e+12 -1.06885e+13 -8.94465e+12 -7.12326e+12 -4.40568e+12 -6.76017e+12 -5.14185e+12 -4.83674e+12 -5.00794e+12 -5.51404e+12 -7.72813e+12 -7.22538e+12 -6.67376e+12 -5.20035e+12 -5.09388e+12 -4.42014e+12 -9.73365e+12 -3.76412e+12 -4.19893e+12 -3.05465e+12 -6.77568e+12 -4.98576e+12 -6.99077e+12 -4.33858e+12 -8.0129e+12 -6.83578e+12 -7.59176e+12 -7.04595e+12 -4.51861e+12 -4.91489e+12 -4.84422e+12 -6.41943e+12 -5.65258e+12 -5.30396e+12 -4.37953e+12 -6.94804e+12 -7.00424e+12 -6.76588e+12 -4.72683e+12 -6.38445e+12 -6.29934e+12 -7.07191e+12 -4.27599e+12 -6.21764e+12 -6.05416e+12 -7.26402e+12 -6.46079e+12 -5.62654e+12 -5.08307e+12 -5.80182e+12 -2.47782e+12 -2.74258e+12 -4.53328e+12 -4.24598e+12 -3.89304e+12 -4.746e+12 -4.35254e+12 -4.35557e+12 -3.94636e+12 -3.57345e+12 -4.85435e+12 -3.02546e+12 -5.55109e+12 -3.48285e+12 -2.5427e+12 -4.29309e+12 -3.43845e+12 -3.84663e+12 -5.64065e+12 -4.42917e+12 -7.37437e+12 -3.92717e+12 -5.88485e+12 -5.14089e+12 -4.41296e+12 -4.84924e+12 -3.64249e+12 -2.47888e+12 -3.73917e+12 -2.85344e+12 -4.43649e+12 -5.69656e+12 -5.94217e+12 -8.65062e+12 -1.69143e+12 -5.3012e+12 -8.36073e+12 -6.56568e+12 -9.02008e+12 -6.10863e+12 -7.0682e+12 -7.37557e+12 -4.98891e+12 -6.68137e+12 -5.98705e+12 -4.01345e+12 -7.46991e+12 -8.41399e+12 -5.04263e+12 -4.47927e+12 -8.56221e+12 -5.5348e+12 -5.31891e+12 -6.27348e+12 -4.51482e+12 -4.56247e+12 -7.54509e+12 -6.03252e+12 -7.79222e+12 -6.65111e+12 -982112000000.0 -7.21097e+12 -8.36806e+12 -6.21448e+12 -7.41883e+12 -5.9712e+12 -7.69779e+12 -7.97323e+12 -7.48048e+12 -5.66851e+12 -5.37224e+12 -8.46795e+12 -6.56714e+12 -1.13584e+13 -3.00848e+12 -6.68185e+12 -2.58815e+12 -6.89411e+12 -4.49499e+12 -6.04194e+12 -2.37824e+12 -4.74349e+12 -3.51457e+12 -3.79289e+12 -1.09133e+13 -4.24554e+12 -4.74125e+12 -6.00677e+12 -4.96893e+12 -5.21602e+12 -8.21043e+12 -6.72293e+12 -7.14338e+12 -9.46453e+12 -4.60979e+12 -6.96582e+12 -2.97481e+12 -7.98063e+12 -4.26277e+12 -3.98025e+12 -5.19913e+12 -5.56774e+12 -4.41139e+12 -5.25372e+12 -7.59282e+12 -4.69888e+12 -6.90522e+12 -3.46077e+12 -5.22148e+12 -5.76974e+12 -4.69459e+12 -5.61923e+12 -7.44447e+12 -7.23013e+12 -4.15442e+12 -6.1372e+12 -5.20597e+12 -5.35908e+12 -5.91438e+12 -6.18918e+12 -2.26469e+12 -2.39795e+12 -7.02254e+12 -8.01082e+12 -5.75965e+12 -3.77535e+12 -4.01635e+12 -3.60435e+12 -3.70373e+12 -3.80054e+12 -3.08703e+12 -2.73239e+12 -6.17472e+12 -3.20858e+12 -4.03523e+12 -2.25299e+12 -4.95732e+12 -2.94587e+12 -3.95725e+12 -2.01412e+12 -3.70367e+12 -4.55451e+12 -4.15035e+12 -5.52214e+12 -3.53113e+12 -3.13661e+12 -4.47342e+12 -4.98765e+12 -3.57713e+12 -3.64073e+12 -2.82663e+12 -5.10053e+12 -3.14636e+12 -4.5901e+12 -4.80796e+12 -7.25007e+12 -4.25632e+12 -4.41652e+12 -2.89638e+12 -4.1022e+12 -1.70146e+12 -5.24651e+12 -5.02718e+12 -4.17033e+12 -5.80564e+12 -4.0829e+12 -2.90693e+12 -3.51313e+12 -3.64528e+12 -4.35798e+12 -6.23043e+12 -6.48394e+12 -7.66193e+12 -4.63368e+12 -4.45649e+12 -4.29933e+12 -4.32294e+12 -3.72666e+12 -2.71456e+12 -4.29248e+12 -3.91824e+12 -4.74662e+12 -7.0781e+12 -5.13984e+12 -5.8141e+12 -5.71996e+12 -7.708e+12 -9.06907e+12 -6.75158e+12 -3.93441e+12 -5.39045e+12 -6.43945e+12 -5.91619e+12 -6.82756e+12 -6.99204e+12 -7.22429e+12 -5.69777e+12 -9.78626e+12 -5.68549e+12 -8.00669e+12 -3.86727e+12 -7.33933e+12 -3.10613e+12 -5.95259e+12 -3.34743e+12 -5.60158e+12 -5.35028e+12 -5.35024e+12 -5.97158e+12 -8.48996e+12 -6.79338e+12 -7.4168e+12 -6.72311e+12 -4.60145e+12 -5.10983e+12 -6.10012e+12 -3.72769e+12 -9.7771e+12 -4.50266e+12 -6.73487e+12 -5.71211e+12 -5.12485e+12 -8.7449e+12 -8.6217e+12 -5.30271e+12 -4.21305e+12 -5.31533e+12 -3.15043e+12 -2.9676e+12 -3.97604e+12 -1.77182e+12 -7.8502e+12 -5.32455e+12 -3.17685e+12 -6.1486e+12 -5.58933e+12 -7.01446e+12 -4.56783e+12 -4.78769e+12 -4.87228e+12 -6.01937e+12 -3.76787e+12 -4.18472e+12 -6.93411e+12 -4.78674e+12 -5.03002e+12 -4.733e+12 -5.65679e+12 -6.0595e+12 -5.76513e+12 -4.95583e+12 -4.86501e+12 -4.25255e+12 -2.14712e+12 -4.80192e+12 -6.44892e+12 -6.6976e+12 -6.66734e+12 -9.39499e+12 -4.63006e+12 -5.32942e+12 -5.22058e+12 -5.49255e+12 -7.49201e+12 -7.26209e+12 -4.7331e+12 -5.67803e+12 -5.81247e+12 -6.96561e+12 -3.93863e+12 -4.77705e+12 -4.66399e+12 -6.40686e+12 -4.49811e+12 -3.37506e+12 -4.79647e+12 -6.34311e+12 -5.32999e+12 -4.11583e+12 -5.29123e+12 -4.43347e+12 -3.61426e+12 -4.84892e+12 -6.85444e+12 -4.65882e+12 -3.88084e+12 -4.27095e+12 -3.86467e+12 -4.48162e+12 -4.6489e+12 -2.04061e+12 -6.35754e+12 -3.50187e+12 -3.81643e+12 -2.0527e+12 -4.28548e+12 -2.571e+12 -2.22052e+12 -2.45843e+12 -2.25613e+12 -2.70211e+12 -2.71444e+12 -4.05694e+12 -3.40145e+12 -4.11914e+12 -3.12956e+12 -4.04375e+12 -2.55557e+12 -4.46869e+12 -3.9154e+12 -4.70707e+12 -3.25827e+12 -4.60945e+12 -6.79045e+12 -3.02926e+12 -4.12385e+12 -4.36015e+12 -2.49753e+12 -4.00902e+12 -3.20596e+12 -3.81936e+12 -1.04285e+12 -3.9269e+12 -5.31502e+12 -2.82942e+12 -3.11407e+12 -2.97272e+12 -2.05667e+12 -3.27349e+12 -5.57646e+12 -5.03747e+12 -1.79553e+12 -4.08044e+12 -3.41406e+12 -3.40491e+12 -5.86595e+12 -5.72587e+12 -4.46365e+12 -5.57157e+12 -3.87277e+12 -8.43333e+12 -3.24509e+12 -3.22896e+12 -4.73954e+12 -3.19141e+12 -7.38272e+12 -6.95025e+12 -4.17277e+12 -2.97109e+12 -7.67512e+12 -6.7459e+12 -7.42e+12 -4.0368e+12 -5.47262e+12 -5.20433e+12 -6.05406e+12 -5.43206e+12 -7.33516e+12 -5.41406e+12 -5.9317e+12 -4.65862e+12 -7.01657e+12 -6.22085e+12 -8.88224e+12 -7.90857e+12 -3.70571e+12 -4.79005e+12 -6.96921e+12 -3.35667e+12 -5.4209e+12 -3.01006e+12 -4.42038e+12 -8.7005e+12 -5.22005e+12 -5.26856e+12 -6.7588e+12 -5.83253e+12 -7.11348e+12 -5.8588e+12 -4.25932e+12 -7.04751e+12 -5.17573e+12 -4.38973e+12 -2.69819e+12 -3.8774e+12 -8.52378e+12 -3.03917e+12 -2.79193e+12 -3.92586e+12 -7.44342e+12 -6.59293e+12 -7.19366e+12 -5.43253e+12 -6.28577e+12 -7.79857e+12 -8.73336e+12 -6.97365e+12 -4.40064e+12 -4.57275e+12 -8.68088e+12 -4.37758e+12 -5.58687e+12 -4.22581e+12 -4.50222e+12 -3.35834e+12 -4.62492e+12 -4.71291e+12 -5.80579e+12 -5.74211e+12 -4.21174e+12 -3.58965e+12 -3.74527e+12 -4.8809e+12 -1.9779e+12 -4.21034e+12 -3.95996e+12 -6.54718e+12 -5.10811e+12 -6.02794e+12 -4.20259e+12 -5.89213e+12 -5.33554e+12 -3.56395e+12 -4.27936e+12 -3.54427e+12 -4.57647e+12 -4.48458e+12 -7.07894e+12 -7.10426e+12 -5.86378e+12 -6.50233e+12 -7.25149e+12 -7.10631e+12 -3.59388e+12 -1.57162e+12 -3.72161e+12 -3.58968e+12 -2.58314e+12 -6.90947e+12 -5.32969e+12 -5.37643e+12 -2.72957e+12 -4.33549e+12 -4.98018e+12 -4.76466e+12 -2.57294e+12 -3.21942e+12 -3.70332e+12 -4.63344e+12 -3.70092e+12 -2.31306e+12 -1.6924e+12 -3.40545e+12 -3.25481e+12 -2.04632e+12 -2.81477e+12 -2.53755e+12 -4.68704e+12 -1.66453e+12 -3.89341e+12 -3.66384e+12 -3.13518e+12 -4.31195e+12 -1.58691e+12 -1.90366e+12 -4.02139e+12 -3.36617e+12 -2.68002e+12 -4.103e+12 -2.53712e+12 -1.25762e+12 -1.63207e+12 -3.27236e+12 -2.99512e+12 -4.25742e+12 -5.6943e+12 -5.01739e+12 -3.70602e+12 -2.90378e+12 -3.25692e+12 -3.10096e+12 -2.94675e+12 -4.14456e+12 -3.55199e+12 -3.66106e+12 -2.28377e+12 -2.89729e+12 -2.34101e+12 -5.38924e+12 -7.4295e+12 -2.89119e+12 -2.96134e+12 -2.04228e+12 -1.79954e+12 -3.38486e+12 -2.66444e+12 -7.83055e+12 -7.52318e+12 -2.30051e+12 -4.7297e+12 -3.73826e+12 -3.67081e+12 -3.85903e+12 -5.40709e+12 -5.53691e+12 -5.73908e+12 -4.66152e+12 -4.20897e+12 -5.1944e+12 -4.00605e+12 -2.13391e+12 -1.3484e+12 -2.78728e+12 -4.35635e+12 -2.89363e+12 -3.86136e+12 -5.70651e+12 -5.20833e+12 -8.04742e+12 -4.80109e+12 -4.89829e+12 -7.79253e+12 -5.80364e+12 -6.16325e+12 -3.65213e+12 -3.05714e+12 -3.50661e+12 -6.84663e+12 -8.06093e+12 -4.81622e+12 -8.23813e+12 -5.40164e+12 -4.5499e+12 -5.574e+12 -7.56333e+12 -3.65963e+12 -7.33402e+12 -5.13659e+12 -7.10467e+12 -4.81968e+12 -6.64619e+12 -6.7311e+12 -5.50809e+12 -1.56978e+12 -4.69309e+12 -7.82019e+12 -2.86148e+12 -3.60035e+12 -7.23145e+12 -6.06987e+12 -6.68217e+12 -4.66301e+12 -6.71225e+12 -9.01886e+12 -5.24594e+12 -4.29458e+12 -3.21115e+12 -5.57358e+12 -3.9402e+12 -4.73987e+12 -1.79382e+12 -4.04837e+12 -6.73289e+12 -3.17957e+12 -5.21645e+12 -2.17415e+12 -4.33658e+12 -5.19839e+12 -5.12093e+12 -5.08166e+12 -3.5046e+12 -5.81883e+12 -4.29674e+12 -2.85423e+12 -3.87745e+12 -4.3094e+12 -5.43502e+12 -3.31363e+12 -5.54022e+12 -4.82207e+12 -5.9816e+12 -4.79218e+12 -2.01602e+12 -2.91561e+12 -5.08716e+12 -3.40249e+12 -4.36739e+12 -5.15226e+12 -3.43814e+12 -4.89594e+12 -3.22774e+12 -4.39438e+12 -5.65746e+12 -3.10723e+12 -4.55556e+12 -1.74514e+12 -4.17129e+12 -2.84091e+12 -2.41194e+12 -2.52613e+12 -5.20519e+12 -3.23205e+12 -4.60713e+12 -4.61592e+12 -3.08931e+12 -3.50236e+12 -3.31979e+12 -3.36349e+12 -1.84723e+12 -1.79097e+12 -3.49645e+12 -2.49416e+12 -3.7559e+12 -5.11722e+12 -4.17745e+12 -2.68277e+12 -3.10236e+12 -2.20303e+12 -1.98479e+12 -2.01205e+12 -2.69745e+12 -3.12191e+12 -2.8956e+12 -1.56964e+12 -3.2412e+12 -3.06807e+12 -3.14125e+12 -2.53104e+12 -2.92399e+12 -5.05277e+12 -2.24332e+12 -4.23532e+12 -3.7548e+12 -3.72921e+12 -3.3487e+12 -3.87669e+12 -2.47903e+12 -2.46583e+12 -3.73408e+12 -3.74733e+12 -4.20544e+12 -2.33984e+12 -3.44551e+12 -3.56913e+12 -4.34514e+12 -2.27493e+12 -4.79395e+12 -6.0267e+12 -3.24439e+12 -3.39662e+12 -3.03075e+12 -3.50118e+12 -2.6826e+12 -4.8825e+12 -3.17511e+12 -4.14052e+12 -6.25952e+12 -5.80644e+12 -6.84627e+12 -5.36365e+12 -3.20993e+12 -4.15227e+12 -4.79777e+12 -6.87692e+12 -6.95508e+12 -4.58899e+12 -4.51573e+12 -3.73355e+12 -5.6078e+12 -5.42849e+12 -5.72953e+12 -3.44752e+12 -6.1289e+12 -6.00329e+12 -4.29487e+12 -4.02927e+12 -4.70588e+12 -6.21605e+12 -4.05187e+12 -5.74567e+12 -5.40319e+12 -6.99927e+12 -8.20051e+12 -4.83249e+12 -2.35612e+12 -4.53172e+12 -3.94128e+12 -3.3402e+12 -6.28786e+12 -4.6102e+12 -4.14818e+12 -4.30974e+12 -5.32465e+12 -4.41452e+12 -4.25114e+12 -4.55878e+12 -5.54488e+12 -5.73785e+12 -6.23203e+12 -5.37934e+12 -3.57142e+12 -6.87775e+12 -1.88526e+12 -5.13693e+12 -3.25412e+12 -5.12605e+12 -4.72994e+12 -1.42159e+12 -4.85421e+12 -2.82977e+12 -4.25572e+12 -5.83018e+12 -3.53218e+12 -4.46595e+12 -4.19276e+12 -1.7833e+12 -3.98625e+12 -6.23118e+12 -4.3518e+12 -2.42232e+12 -2.1423e+12 -5.2705e+12 -2.44935e+12 -3.47172e+12 -5.12437e+12 -5.19273e+12 -5.63732e+12 -2.48053e+12 -6.09087e+12 -2.7782e+12 -4.69476e+12 -3.47286e+12 -3.25115e+12 -2.99789e+12 -3.90572e+12 -4.14495e+12 -3.06213e+12 -4.07525e+12 -2.98103e+12 -4.59952e+12 -823147000000.0 -3.39423e+12 -2.70821e+12 -1.42174e+12 -1.78564e+12 -3.77928e+12 -2.35551e+12 -2.82108e+12 -2.52096e+12 -2.23204e+12 -2.21441e+12 -2.56912e+12 -4.05295e+12 -1.60256e+12 -3.88129e+12 -2.47043e+12 -3.28751e+12 -1.55726e+12 -2.59485e+12 -2.61116e+12 -1.55258e+12 -2.28795e+12 -2.18242e+12 -1.87463e+12 -2.12522e+12 -3.52913e+12 -2.86985e+12 -2.29768e+12 -3.092e+12 -2.39186e+12 -3.31111e+12 -1.4998e+12 -3.77335e+12 -2.34785e+12 -2.61837e+12 -2.91033e+12 -2.11153e+12 -3.15805e+12 -3.0582e+12 -5.02062e+12 -3.03856e+12 -5.97806e+12 -3.51305e+12 -1.93333e+12 -3.94367e+12 -3.75974e+12 -3.99935e+12 -2.09499e+12 -3.21927e+12 -3.424e+12 -4.61454e+12 -4.2144e+12 -4.32722e+12 -3.45693e+12 -2.52732e+12 -1.36825e+12 -2.41451e+12 -4.56612e+12 -5.59378e+12 -5.93946e+12 -1.65144e+12 -2.72038e+12 -2.4178e+12 -3.47935e+12 -4.40723e+12 -4.78397e+12 -5.3668e+12 -2.89784e+12 -5.51427e+12 -5.72011e+12 -4.70613e+12 -4.53812e+12 -4.93121e+12 -7.00999e+12 -3.55295e+12 -2.83564e+12 -2.97619e+12 -3.73772e+12 -4.39895e+12 -5.33329e+12 -3.69746e+12 -3.50677e+12 -4.22426e+12 -5.05925e+12 -3.34444e+12 -4.32763e+12 -4.16249e+12 -6.58811e+12 -4.96827e+12 -6.67351e+12 -3.67449e+12 -2.81301e+12 -2.28437e+12 -5.69443e+12 -3.37904e+12 -2.61903e+12 -3.44354e+12 -6.33956e+12 -5.21503e+12 -4.11811e+12 -3.861e+12 -4.13817e+12 -5.02694e+12 -3.21169e+12 -3.82736e+12 -3.86027e+12 -2.85999e+12 -8.07207e+12 -4.16282e+12 -4.90049e+12 -3.24172e+12 -3.26905e+12 -3.84718e+12 -3.29477e+12 -4.2395e+12 -3.31194e+12 -3.85931e+12 -3.81525e+12 -4.46571e+12 -2.5884e+12 -3.28498e+12 -1.26908e+12 -2.70128e+12 -5.7845e+12 -1.07371e+12 -3.88784e+12 -1.67102e+12 -2.44021e+12 -2.55858e+12 -3.16171e+12 -2.95804e+12 -1.59128e+12 -2.49299e+12 -2.00377e+12 -2.98745e+12 -1.33283e+12 -2.73125e+12 -2.25681e+12 -1.89272e+12 -2.40309e+12 -2.31606e+12 -3.13429e+12 -1.40592e+12 -1.15052e+12 -543518000000.0 -1.74662e+12 -2.83368e+12 -1.91342e+12 -1.02341e+12 -1.63161e+12 -2.39847e+12 -2.17892e+12 -3.19202e+12 -1.54157e+12 -3.16609e+12 -3.24094e+12 -1.62419e+12 -2.29065e+12 -1.53221e+12 -2.1276e+12 -3.75009e+12 -2.50033e+12 -4.21079e+12 -1.43753e+12 -3.1615e+12 -3.26225e+12 -3.44875e+12 -4.46031e+12 -1.00855e+12 -3.17702e+12 -4.79107e+12 -5.00999e+12 -2.86894e+12 -2.08868e+12 -2.15956e+12 -1.94794e+12 -3.13786e+12 -2.64645e+12 -2.30102e+12 -2.19149e+12 -3.02801e+12 -3.98937e+12 -4.95121e+12 -4.62708e+12 -1.67859e+12 -2.3679e+12 -5.07556e+12 -3.39345e+12 -2.41564e+12 -812004000000.0 -4.4194e+12 -4.81404e+12 -1.86786e+12 -5.47372e+12 -2.1157e+12 -3.72604e+12 -4.57738e+12 -2.97319e+12 -3.05936e+12 -3.71549e+12 -2.53209e+12 -4.01777e+12 -3.57213e+12 -4.31615e+12 -5.41642e+12 -2.99454e+12 -6.22056e+12 -4.42453e+12 -3.71856e+12 -3.23848e+12 -6.28781e+12 -6.61065e+12 -3.94339e+12 -4.85367e+12 -4.44377e+12 -2.7356e+12 -7.20414e+12 -2.3618e+12 -3.32057e+12 -2.37563e+12 -2.4683e+12 -3.39416e+12 -4.87643e+12 -5.04788e+12 -5.9144e+12 -7.28983e+12 -2.9945e+12 -4.77037e+12 -5.25177e+12 -2.67814e+12 -3.33416e+12 -4.47841e+12 -2.46286e+12 -2.0037e+12 -4.34832e+12 -3.95706e+12 -2.0765e+12 -3.05816e+12 -2.37179e+12 -3.91462e+12 -3.23542e+12 -4.34858e+12 -2.67672e+12 -2.47621e+12 -2.68455e+12 -2.35645e+12 -1.46884e+12 -3.65796e+12 -4.08825e+12 -2.15174e+12 -1.83191e+12 -2.34115e+12 -1.48679e+12 -2.1365e+12 -2.00902e+12 -1.30773e+12 -2.37491e+12 -2.26712e+12 -1.34263e+12 -2.394e+12 -858307000000.0 -849796000000.0 -1.23972e+12 -1.90926e+12 -1.44734e+12 -931712000000.0 -2.54566e+12 -3.20819e+12 -1.31814e+12 -1.92452e+12 -2.71139e+12 -1.55171e+12 -2.34951e+12 -2.28989e+12 -1.60785e+12 -530073000000.0 -1.25617e+12 -2.50226e+12 -1.3324e+12 -1.26363e+12 -2.00505e+12 -763381000000.0 -917627000000.0 -1.01216e+12 -2.17769e+12 -1.37743e+12 -1.51696e+12 -1.38372e+12 -2.1516e+12 -2.03172e+12 -1.84756e+12 -1.76085e+12 -1.96627e+12 -1.04835e+12 -1.74597e+12 -1.26484e+12 -2.03912e+12 -2.17541e+12 -3.23721e+12 -2.70148e+12 -2.61639e+12 -2.69085e+12 -2.00693e+12 -2.94717e+12 -4.81312e+12 -3.80744e+12 -1.74685e+12 -2.26902e+12 -2.30525e+12 -2.67665e+12 -1.71427e+12 -2.19028e+12 -2.29907e+12 -3.36897e+12 -2.28588e+12 -3.33243e+12 -2.10225e+12 -3.85455e+12 -2.92821e+12 -1.40674e+12 -427727000000.0 -4.11801e+12 -2.93915e+12 -3.66935e+12 -3.6509e+12 -2.89277e+12 -5.56318e+12 -2.61718e+12 -4.02812e+12 -3.31117e+12 -1.60197e+12 -4.51982e+12 -4.08499e+12 -3.18065e+12 -2.25003e+12 -2.47668e+12 -4.90926e+12 -2.87271e+12 -2.94168e+12 -4.39307e+12 -5.4697e+12 -5.34448e+12 -2.06085e+12 -4.05871e+12 -4.068e+12 -5.08376e+12 -1.91142e+12 -1.71863e+12 -6.02422e+12 -4.86957e+12 -1.96472e+12 -1.8733e+12 -4.84782e+12 -4.08592e+12 -4.52215e+12 -3.31766e+12 -2.09727e+12 -2.3824e+12 -2.42728e+12 -4.35324e+12 -2.36841e+12 -3.12856e+12 -5.408e+12 -451332000000.0 -3.70777e+12 -4.03179e+12 -2.90522e+12 -2.35519e+12 -3.34207e+12 -3.98367e+12 -2.4268e+12 -1.75188e+12 -4.44608e+12 -1.58466e+12 -1.80806e+12 -2.5339e+12 -2.91224e+12 -2.0145e+12 -3.84221e+12 -2.24805e+12 -1.29396e+12 -2.09679e+12 -3.19821e+12 -2.30514e+12 -1.95163e+12 -2.5122e+12 -996793000000.0 -2.03955e+12 -1.90849e+12 -3.19709e+12 -2.61557e+12 -1.57709e+12 -1.51952e+12 -1.87389e+12 -2.82433e+12 -2.35497e+12 -2.19737e+12 -1.87906e+12 -2.05334e+12 -1.14608e+12 -966203000000.0 -815716000000.0 -777132000000.0 -1.07718e+12 -909508000000.0 -839959000000.0 -1.03932e+12 -873538000000.0 -1.42433e+12 -723913000000.0 -874701000000.0 -1.51637e+12 -884015000000.0 -1.38211e+12 -1.03532e+12 -1.1751e+12 -1.10813e+12 -1.7046e+12 -1.38135e+12 -704788000000.0 -997552000000.0 -1.96391e+12 -2.85462e+12 -1.6015e+12 -2.61347e+12 -2.11799e+12 -2.5479e+12 -1.16403e+12 -1.17357e+12 -1.77305e+12 -1.24812e+12 -1.2605e+12 -1.95146e+12 -1.76941e+12 -1.30111e+12 -1.67462e+12 -2.95124e+12 -2.05262e+12 -1.3122e+12 -1.69029e+12 -2.64109e+12 -1.28385e+12 -1.63748e+12 -2.72602e+12 -2.94492e+12 -1.57927e+12 -1.77956e+12 -2.38278e+12 -2.64407e+12 -3.82445e+12 -4.72257e+12 -1.15309e+12 -2.88e+12 -3.27595e+12 -4.07044e+12 -2.69551e+12 -3.3327e+12 -2.36083e+12 -2.17819e+12 -2.95179e+12 -3.1351e+12 -1.53125e+12 -3.68379e+12 -2.67398e+12 -3.9491e+12 -2.43908e+12 -2.5036e+12 -2.95356e+12 -3.66448e+12 -3.14253e+12 -3.76239e+12 -3.83311e+12 -4.43386e+12 -2.465e+12 -2.04083e+12 -2.62229e+12 -4.77128e+12 -2.53346e+12 -2.78086e+12 -2.16071e+12 -2.04196e+12 -2.46357e+12 -3.06927e+12 -1.77029e+12 -1.77476e+12 -2.21309e+12 -2.68442e+12 -1.27383e+12 -1.76286e+12 -2.37336e+12 -2.4559e+12 -1.99191e+12 -2.04428e+12 -1.42137e+12 -2.19563e+12 -1.81974e+12 -2.72388e+12 -2.66072e+12 -1.7433e+12 -2.16463e+12 -2.21458e+12 -2.32303e+12 -2.14268e+12 -1.96934e+12 -2.2714e+12 -1.5155e+12 -2.39991e+12 -1.65758e+12 -2.404e+12 -1.87126e+12 -1.01225e+12 -1.83719e+12 -1.06277e+12 -1.9105e+12 -1.21278e+12 -3.69037e+12 -2.44132e+12 -360310000000.0 -1.15235e+12 -1.84647e+12 -1.06007e+12 -2.00139e+12 -1.05156e+12 -1.25166e+12 -959158000000.0 -1.93768e+12 -601489000000.0 -699698000000.0 -1.4357e+12 -1.25089e+12 -1.4165e+12 -1.02153e+12 -767909000000.0 -885050000000.0 -1.13e+12 -251324000000.0 -688051000000.0 -437746000000.0 -609521000000.0 -874200000000.0 -998527000000.0 -306661000000.0 -250581000000.0 -346691000000.0 -506838000000.0 -331219000000.0 -486011000000.0 -475259000000.0 -675980000000.0 -623257000000.0 -1.28879e+12 -561624000000.0 -1.18217e+12 -1.55123e+12 -966514000000.0 -1.17066e+12 -1.15477e+12 -1.22218e+12 -1.5025e+12 -1.19664e+12 -2.07214e+12 -1.63025e+12 -987402000000.0 -952024000000.0 -1.28601e+12 -1.21496e+12 -1.7179e+12 -1.41083e+12 -1.81583e+12 -1.14592e+12 -1.98585e+12 -1.46756e+12 -1.61036e+12 -1.81702e+12 -1.66577e+12 -1.52219e+12 -3.66489e+12 -2.35522e+12 -3.10869e+12 -1.70611e+12 -1.44407e+12 -1.25056e+12 -3.68598e+12 -1.14487e+12 -1.01814e+12 -1.84719e+12 -2.44549e+12 -1.55353e+12 -2.66605e+12 -2.30619e+12 -2.24621e+12 -1.20892e+12 -1.49184e+12 -4.19486e+12 -1.30908e+12 -2.07354e+12 -1.95863e+12 -2.55307e+12 -2.91779e+12 -2.26296e+12 -5.42262e+12 -2.30768e+12 -994199000000.0 -2.02182e+12 -1.64331e+12 -2.01997e+12 -1.62675e+12 -383817000000.0 -460383000000.0 -1.88936e+12 -1.9889e+12 -1.08669e+12 -3.48803e+12 -1.22488e+12 -1.81879e+12 -1.79356e+12 -965974000000.0 -1.21197e+12 -2.0021e+12 -2.29923e+12 -1.79904e+12 -2.02911e+12 -1.39149e+12 -1.32323e+12 -3.64795e+12 -1.12684e+12 -1.65659e+12 -455586000000.0 -1.42133e+12 -1.09018e+12 -1.70321e+12 -869909000000.0 -1.56519e+12 -1.11086e+12 -1.80707e+12 -1.36442e+12 -2.41146e+12 -675857000000.0 -1.17903e+12 -954128000000.0 -708902000000.0 -395179000000.0 -1.38967e+12 -847274000000.0 -593992000000.0 -555243000000.0 -977369000000.0 -554318000000.0 -330716000000.0 -236281000000.0 -416714000000.0 -432359000000.0 -356906000000.0 -91491700000.0 -404262000000.0 -254522000000.0 -270100000000.0 -161199000000.0 -406823000000.0 -408077000000.0 -421667000000.0 -353475000000.0 -297349000000.0 -217548000000.0 -243749000000.0 -452558000000.0 -1.24097e+12 -234006000000.0 -283133000000.0 -1.01621e+12 -304072000000.0 -1.41386e+12 -1.21251e+12 -902577000000.0 -1.67243e+12 -2.74786e+12 -2.06163e+12 -1.06709e+12 -1.3394e+12 -1.06712e+12 -1.22485e+12 -1.40798e+12 -1.04459e+12 -1.40649e+12 -1.251e+12 -2.55828e+12 -2.96121e+12 -1.42273e+12 -1.04295e+12 -1.59526e+12 -2.82697e+12 -1.17461e+12 -2.49896e+12 -2.27729e+12 -3.71476e+12 -3.53368e+12 -1.69917e+12 -2.12518e+12 -1.293e+12 -1.89075e+12 -2.26873e+12 -2.51847e+12 -1.18899e+12 -930178000000.0 -2.25185e+12 -944176000000.0 -2.43465e+12 -2.27682e+12 -2.27208e+12 -1.46278e+12 -1.22814e+12 -2.09806e+12 -1.51319e+12 -990885000000.0 -973171000000.0 -1.81062e+12 -1.61773e+12 -1.48257e+12 -2.77801e+12 -1.10488e+12 -604139000000.0 -1.80426e+12 -859686000000.0 -1.7449e+12 -1.38963e+12 -1.06217e+12 -1.02131e+12 -1.32183e+12 -658292000000.0 -1.31017e+12 -1.12423e+12 -979455000000.0 -1.13516e+12 -999555000000.0 -916144000000.0 -905793000000.0 -540741000000.0 -472254000000.0 -711969000000.0 -460927000000.0 -434427000000.0 -179696000000.0 -402359000000.0 -126075000000.0 -537578000000.0 -242502000000.0 -291750000000.0 -329026000000.0 -201258000000.0 -189018000000.0 -227554000000.0 -586960000000.0 -419566000000.0 -223508000000.0 -371950000000.0 -483671000000.0 -186614000000.0 -94469100000.0 -243270000000.0 -693435000000.0 -462817000000.0 -332290000000.0 -383431000000.0 -1.34494e+12 -1.74521e+12 -912639000000.0 -695743000000.0 -1.28804e+12 -300908000000.0 -1.07189e+12 -831967000000.0 -825746000000.0 -1.59204e+12 -1.5202e+12 -1.3042e+12 -1.55934e+12 -1.53057e+12 -2.39919e+12 -2.04074e+12 -1.07755e+12 -1.68492e+12 -2.27307e+12 -2.37713e+12 -1.77382e+12 -973798000000.0 -2.33478e+12 -1.65951e+12 -1.61233e+12 -1.30694e+12 -1.29805e+12 -1.63713e+12 -1.54537e+12 -1.50589e+12 -1.11486e+12 -871261000000.0 -767771000000.0 -1.75684e+12 -478173000000.0 -1.46247e+12 -1.09834e+12 -1.96525e+12 -1.16677e+12 -747906000000.0 -644210000000.0 -920121000000.0 -1.7881e+12 -1.06468e+12 -1.18786e+12 -395331000000.0 -1.40126e+12 -770787000000.0 -732810000000.0 -857300000000.0 -719211000000.0 -769813000000.0 -478345000000.0 -844483000000.0 -253746000000.0 -760420000000.0 -497589000000.0 -1.13134e+12 -514536000000.0 -302112000000.0 -887350000000.0 -264558000000.0 -342546000000.0 -216146000000.0 -155598000000.0 -92192000000.0 -222453000000.0 -134602000000.0 -77643400000.0 -247217000000.0 -119514000000.0 -159785000000.0 -89194200000.0 -106117000000.0 -280374000000.0 -330340000000.0 -629570000000.0 -811943000000.0 -203242000000.0 -490215000000.0 -671387000000.0 -474494000000.0 -514880000000.0 -341133000000.0 -388944000000.0 -763706000000.0 -837912000000.0 -858155000000.0 -931941000000.0 -488427000000.0 -853924000000.0 -1.90428e+12 -1.39246e+12 -623012000000.0 -1.69962e+12 -457744000000.0 -897662000000.0 -1.38617e+12 -697573000000.0 -460683000000.0 -683363000000.0 -54666800000.0 -589272000000.0 -805514000000.0 -1.04949e+12 -903677000000.0 -358082000000.0 -339108000000.0 -344544000000.0 -94241000000.0 -507140000000.0 -211156000000.0 -302164000000.0 -262658000000.0 -167170000000.0 -61939400000.0 -203274000000.0 -275921000000.0 -176803000000.0 -260787000000.0 -268063000000.0 -246313000000.0 -207379000000.0 -194448000000.0 -153198000000.0 -527693000000.0 -211273000000.0 -121999000000.0 -210409000000.0 -588101000000.0 -1.1165e+12 -596253000000.0 -200884000000.0 -694986000000.0 -178131000000.0 -123236000000.0 -156639000000.0 -148285000000.0 -61422700000.0 -588982000000.0 -322044000000.0 -97825100000.0 -277945000000.0 -260355000000.0 -134207000000.0 