# vtk DataFile Version 2.0
Time step 87
ASCII
DATASET UNSTRUCTURED_GRID
POINTS 5000 float
226109.0 144185.0 0
231783.0 141794.0 0
235706.0 143963.0 0
279546.0 143460.0 0
207422.0 146958.0 0
213035.0 148462.0 0
218398.0 144740.0 0
222480.0 146838.0 0
227764.0 148650.0 0
230393.0 144894.0 0
232758.0 148808.0 0
238053.0 148861.0 0
242240.0 145304.0 0
248842.0 146410.0 0
255525.0 147546.0 0
259946.0 149449.0 0
263868.0 147498.0 0
268841.0 148372.0 0
273611.0 145338.0 0
276387.0 148984.0 0
286250.0 147768.0 0
292024.0 147083.0 0
192443.0 151260.0 0
196502.0 153465.0 0
198768.0 149615.0 0
203608.0 151004.0 0
200995.0 153588.0 0
208805.0 152553.0 0
213713.0 153511.0 0
218376.0 150299.0 0
223717.0 151112.0 0
227955.0 153056.0 0
232500.0 154051.0 0
237991.0 154380.0 0
242881.0 150941.0 0
247881.0 152635.0 0
252397.0 150601.0 0
256542.0 152409.0 0
264939.0 152140.0 0
260918.0 153789.0 0
273041.0 151376.0 0
277891.0 153850.0 0
280967.0 149495.0 0
284923.0 152551.0 0
288376.0 151428.0 0
291619.0 151937.0 0
295316.0 151005.0 0
300217.0 151175.0 0
305620.0 151873.0 0
189111.0 157118.0 0
194060.0 157190.0 0
199334.0 157135.0 0
204710.0 156097.0 0
211308.0 157721.0 0
218302.0 156242.0 0
224225.0 156379.0 0
221342.0 159298.0 0
229093.0 157190.0 0
234496.0 158284.0 0
243301.0 156272.0 0
248326.0 157727.0 0
252409.0 154770.0 0
253064.0 159482.0 0
257510.0 157229.0 0
264284.0 156692.0 0
269102.0 154976.0 0
273857.0 155449.0 0
272354.0 158844.0 0
278780.0 158987.0 0
282093.0 155667.0 0
285334.0 159562.0 0
288980.0 155376.0 0
293967.0 155529.0 0
299047.0 156745.0 0
304643.0 157146.0 0
188729.0 163023.0 0
194351.0 162338.0 0
200324.0 163104.0 0
207048.0 161805.0 0
215188.0 161358.0 0
220749.0 163501.0 0
226629.0 161072.0 0
231172.0 160417.0 0
239236.0 160124.0 0
234823.0 162645.0 0
244537.0 161318.0 0
249295.0 162612.0 0
253792.0 164105.0 0
257222.0 161682.0 0
261462.0 160517.0 0
267672.0 161083.0 0
275146.0 160481.0 0
272735.0 162720.0 0
276943.0 163612.0 0
281404.0 162999.0 0
291416.0 160307.0 0
296170.0 160701.0 0
297581.0 164354.0 0
301445.0 161591.0 0
306271.0 161887.0 0
311750.0 161065.0 0
186475.0 167423.0 0
190536.0 169766.0 0
195858.0 167685.0 0
201342.0 168980.0 0
206710.0 168010.0 0
211641.0 165761.0 0
216705.0 167630.0 0
222331.0 168342.0 0
225399.0 165450.0 0
225956.0 169068.0 0
230310.0 164930.0 0
239520.0 164776.0 0
235630.0 168052.0 0
242720.0 164820.0 0
241648.0 168808.0 0
245947.0 165641.0 0
246444.0 169445.0 0
249780.0 167114.0 0
254183.0 168917.0 0
258166.0 165866.0 0
263483.0 165667.0 0
271308.0 168149.0 0
277478.0 168292.0 0
282131.0 167408.0 0
287729.0 165676.0 0
293415.0 165133.0 0
291511.0 168947.0 0
294804.0 169083.0 0
299051.0 168634.0 0
302535.0 166055.0 0
306133.0 165744.0 0
304560.0 169991.0 0
311007.0 168182.0 0
182781.0 174332.0 0
187042.0 173069.0 0
197601.0 173414.0 0
204856.0 173915.0 0
210988.0 170659.0 0
214880.0 171942.0 0
219535.0 172380.0 0
224670.0 172828.0 0
230015.0 170463.0 0
234418.0 174322.0 0
244242.0 173495.0 0
250133.0 171210.0 0
254065.0 174138.0 0
259398.0 171291.0 0
265406.0 170955.0 0
275746.0 171819.0 0
272626.0 173793.0 0
281469.0 172245.0 0
284925.0 169907.0 0
289084.0 170410.0 0
286659.0 173708.0 0
291849.0 172420.0 0
300984.0 172543.0 0
296405.0 173520.0 0
304636.0 174935.0 0
308414.0 173137.0 0
316712.0 172207.0 0
312665.0 173502.0 0
181872.0 179805.0 0
186040.0 177450.0 0
191651.0 175649.0 0
194745.0 179905.0 0
199159.0 178699.0 0
210761.0 175609.0 0
215853.0 176143.0 0
221534.0 178375.0 0
228736.0 175636.0 0
226811.0 179733.0 0
232014.0 179364.0 0
236695.0 179190.0 0
239816.0 175753.0 0
243249.0 177548.0 0
248860.0 175439.0 0
246446.0 179690.0 0
252266.0 179885.0 0
258703.0 177058.0 0
262914.0 175009.0 0
263691.0 179767.0 0
268020.0 175804.0 0
272761.0 177828.0 0
277416.0 176173.0 0
282810.0 176999.0 0
287161.0 178692.0 0
291246.0 176680.0 0
295684.0 178838.0 0
300260.0 176775.0 0
305365.0 179860.0 0
310232.0 177442.0 0
315207.0 176673.0 0
317598.0 179980.0 0
184781.0 182961.0 0
189524.0 181570.0 0
194332.0 184809.0 0
198784.0 183046.0 0
201943.0 184378.0 0
204513.0 180423.0 0
210391.0 180960.0 0
215907.0 181300.0 0
223157.0 183968.0 0
229260.0 183303.0 0
234879.0 184159.0 0
241337.0 181615.0 0
248544.0 184327.0 0
258109.0 183499.0 0
264296.0 185254.0 0
269403.0 181394.0 0
275265.0 181876.0 0
280172.0 180720.0 0
284742.0 183093.0 0
291168.0 181800.0 0
295526.0 183605.0 0
300264.0 182074.0 0
305296.0 185277.0 0
310054.0 182844.0 0
314041.0 180668.0 0
317167.0 183726.0 0
182387.0 185958.0 0
185926.0 186678.0 0
183197.0 190018.0 0
189852.0 186739.0 0
192928.0 189722.0 0
199117.0 187707.0 0
203083.0 186895.0 0
206996.0 185688.0 0
204457.0 189869.0 0
212784.0 186042.0 0
218521.0 186154.0 0
222687.0 188380.0 0
226376.0 186601.0 0
230730.0 188035.0 0
235523.0 189596.0 0
239733.0 187027.0 0
244153.0 185766.0 0
249319.0 189344.0 0
252866.0 186301.0 0
260313.0 189789.0 0
265765.0 189795.0 0
269281.0 186559.0 0
274434.0 187107.0 0
279296.0 185358.0 0
283795.0 188578.0 0
289043.0 186821.0 0
294357.0 188300.0 0
300155.0 187930.0 0
305483.0 190034.0 0
313507.0 186262.0 0
319567.0 186493.0 0
316975.0 189149.0 0
188186.0 191177.0 0
184728.0 194322.0 0
192030.0 194004.0 0
196268.0 192878.0 0
200917.0 192327.0 0
205250.0 194370.0 0
209373.0 190832.0 0
215570.0 191284.0 0
221206.0 193229.0 0
226461.0 191081.0 0
231751.0 193608.0 0
239232.0 191441.0 0
236621.0 193577.0 0
243953.0 190826.0 0
248234.0 193826.0 0
254266.0 190957.0 0
263746.0 193839.0 0
270167.0 190885.0 0
274095.0 192904.0 0
278544.0 190505.0 0
283028.0 194010.0 0
288873.0 192760.0 0
293859.0 192996.0 0
297413.0 191917.0 0
302019.0 193409.0 0
310719.0 191260.0 0
316731.0 194922.0 0
181206.0 197277.0 0
185705.0 200184.0 0
188147.0 195871.0 0
190289.0 199157.0 0
194894.0 197915.0 0
200034.0 196878.0 0
203898.0 198307.0 0
207811.0 198276.0 0
211795.0 195557.0 0
216821.0 196711.0 0
221358.0 198632.0 0
226069.0 196241.0 0
230743.0 199089.0 0
235910.0 197491.0 0
240071.0 195365.0 0
244525.0 195518.0 0
242559.0 198402.0 0
247889.0 198909.0 0
252216.0 195710.0 0
257904.0 195830.0 0
263766.0 198247.0 0
268689.0 195653.0 0
274185.0 196831.0 0
271810.0 199753.0 0
277965.0 195558.0 0
276586.0 200325.0 0
281383.0 198856.0 0
286486.0 197693.0 0
291323.0 197975.0 0
297072.0 197011.0 0
302692.0 198303.0 0
306982.0 196139.0 0
311625.0 197163.0 0
319007.0 200336.0 0
322730.0 196991.0 0
179709.0 203499.0 0
185017.0 205595.0 0
192806.0 203316.0 0
199090.0 202611.0 0
205205.0 202418.0 0
212011.0 200437.0 0
209983.0 205165.0 0
216412.0 201228.0 0
220459.0 203947.0 0
225697.0 201680.0 0
230204.0 203573.0 0
239204.0 200993.0 0
234484.0 201746.0 0
236811.0 205016.0 0
243840.0 202168.0 0
248944.0 203991.0 0
253602.0 201048.0 0
259672.0 201241.0 0
257073.0 204882.0 0
264379.0 202991.0 0
267568.0 200214.0 0
269628.0 204095.0 0
273578.0 202939.0 0
280338.0 203589.0 0
284732.0 201860.0 0
288473.0 201044.0 0
287737.0 204954.0 0
295656.0 201463.0 0
292115.0 203207.0 0
300145.0 202895.0 0
306576.0 202039.0 0
313466.0 202637.0 0
181613.0 209737.0 0
189576.0 207667.0 0
194036.0 208220.0 0
198487.0 208373.0 0
202941.0 206926.0 0
207009.0 209531.0 0
211932.0 209850.0 0
215272.0 205588.0 0
216395.0 210010.0 0
221176.0 209246.0 0
226171.0 207180.0 0
230954.0 207053.0 0
234546.0 209003.0 0
238799.0 208304.0 0
241006.0 205498.0 0
242394.0 209826.0 0
244968.0 206180.0 0
248229.0 208558.0 0
253027.0 207164.0 0
257851.0 208592.0 0
260893.0 205650.0 0
262050.0 209216.0 0
265855.0 206996.0 0
271036.0 208589.0 0
275947.0 206413.0 0
280916.0 208216.0 0
283836.0 205594.0 0
285852.0 209349.0 0
291002.0 208144.0 0
295866.0 206833.0 0
300075.0 208228.0 0
304021.0 206938.0 0
309121.0 207480.0 0
313974.0 209486.0 0
318301.0 206807.0 0
180333.0 215038.0 0
186660.0 212321.0 0
191186.0 211366.0 0
191216.0 214546.0 0
195162.0 212889.0 0
200328.0 212790.0 0
204764.0 213564.0 0
209433.0 213590.0 0
214042.0 213884.0 0
219248.0 214136.0 0
225135.0 212538.0 0
228992.0 214831.0 0
229609.0 210845.0 0
233289.0 213401.0 0
238037.0 212070.0 0
241750.0 214543.0 0
246216.0 212789.0 0
254984.0 211537.0 0
250905.0 211825.0 0
256301.0 214967.0 0
258931.0 212312.0 0
262676.0 212968.0 0
266450.0 210943.0 0
270661.0 213045.0 0
275181.0 211481.0 0
279916.0 212659.0 0
284644.0 214089.0 0
289853.0 213153.0 0
294447.0 211383.0 0
295750.0 215368.0 0
299091.0 212351.0 0
304449.0 211964.0 0
309662.0 212737.0 0
314886.0 215329.0 0
321063.0 214003.0 0
180091.0 219387.0 0
184240.0 217399.0 0
188445.0 217441.0 0
193633.0 218253.0 0
197955.0 216284.0 0
201713.0 217416.0 0
198230.0 220085.0 0
206788.0 218032.0 0
211389.0 216843.0 0
211389.0 220805.0 0
215238.0 218311.0 0
219880.0 219058.0 0
223498.0 216557.0 0
226772.0 217443.0 0
232142.0 217580.0 0
229061.0 219855.0 0
237010.0 216790.0 0
241228.0 218261.0 0
249393.0 215630.0 0
245301.0 217596.0 0
249352.0 219427.0 0
252977.0 214906.0 0
254352.0 219487.0 0
260224.0 217169.0 0
266178.0 215914.0 0
268909.0 219411.0 0
271569.0 216912.0 0
276242.0 216496.0 0
281252.0 217162.0 0
287950.0 218439.0 0
292497.0 217081.0 0
301916.0 216067.0 0
298499.0 218531.0 0
306749.0 217320.0 0
302649.0 220426.0 0
310646.0 216524.0 0
311377.0 220118.0 0
179367.0 224195.0 0
183570.0 221935.0 0
186550.0 226007.0 0
188432.0 222055.0 0
192544.0 223332.0 0
196467.0 223508.0 0
202181.0 221982.0 0
207105.0 223533.0 0
211757.0 225298.0 0
215136.0 222800.0 0
219555.0 223680.0 0
224659.0 221364.0 0
233664.0 221554.0 0
229377.0 223746.0 0
238589.0 220904.0 0
236710.0 224407.0 0
242923.0 221155.0 0
240859.0 224698.0 0
246336.0 221373.0 0
245081.0 224664.0 0
249930.0 224194.0 0
254858.0 224911.0 0
259005.0 222176.0 0
264374.0 220936.0 0
262229.0 225228.0 0
268990.0 222706.0 0
266494.0 225346.0 0
273237.0 220993.0 0
271347.0 225129.0 0
275347.0 224974.0 0
278692.0 221473.0 0
283530.0 220644.0 0
282560.0 224495.0 0
287168.0 223588.0 0
291151.0 222471.0 0
294644.0 220668.0 0
294466.0 224444.0 0
298953.0 223206.0 0
306829.0 223042.0 0
311584.0 224993.0 0
316467.0 222563.0 0
182536.0 227639.0 0
189783.0 228822.0 0
194553.0 227889.0 0
198810.0 226054.0 0
198934.0 230529.0 0
202929.0 227005.0 0
208082.0 228857.0 0
215822.0 227613.0 0
220992.0 227595.0 0
223510.0 230195.0 0
225299.0 226487.0 0
229568.0 228016.0 0
233272.0 226376.0 0
237907.0 228920.0 0
242804.0 228066.0 0
246975.0 228611.0 0
251879.0 228993.0 0
258700.0 226726.0 0
255939.0 228549.0 0
263805.0 229479.0 0
268886.0 228634.0 0
273320.0 228445.0 0
278905.0 226461.0 0
280624.0 230492.0 0
281997.0 228159.0 0
285954.0 227689.0 0
291281.0 227049.0 0
297036.0 228003.0 0
302724.0 226946.0 0
307956.0 228079.0 0
311988.0 228899.0 0
315858.0 228039.0 0
182212.0 232126.0 0
187469.0 233557.0 0
192530.0 232200.0 0
197740.0 235522.0 0
203727.0 232065.0 0
211794.0 231468.0 0
215635.0 231992.0 0
217739.0 234906.0 0
219673.0 231371.0 0
227143.0 230911.0 0
223883.0 235241.0 0
232838.0 231138.0 0
229562.0 234111.0 0
236758.0 233049.0 0
242500.0 232988.0 0
248725.0 232836.0 0
252858.0 232906.0 0
255274.0 231267.0 0
259322.0 230550.0 0
257438.0 235130.0 0
262417.0 233707.0 0
266865.0 232865.0 0
271510.0 232269.0 0
277106.0 230445.0 0
280488.0 233458.0 0
283747.0 231123.0 0
284722.0 234736.0 0
288484.0 231411.0 0
289869.0 236087.0 0
293940.0 232656.0 0
299535.0 232921.0 0
305150.0 232809.0 0
310135.0 231886.0 0
309468.0 235809.0 0
313475.0 234198.0 0
187747.0 239874.0 0
192333.0 237101.0 0
202360.0 236155.0 0
207816.0 235858.0 0
207265.0 240244.0 0
211756.0 239957.0 0
213328.0 235662.0 0
216312.0 238630.0 0
219578.0 237239.0 0
220485.0 239981.0 0
233506.0 235756.0 0
229194.0 238239.0 0
233380.0 240425.0 0
237861.0 236396.0 0
237534.0 239891.0 0
241976.0 238643.0 0
246484.0 236808.0 0
248586.0 240023.0 0
245306.0 240558.0 0
251912.0 237080.0 0
265264.0 236297.0 0
261856.0 237749.0 0
269489.0 236428.0 0
266296.0 240223.0 0
275405.0 235629.0 0
280534.0 237410.0 0
285086.0 239952.0 0
293983.0 240275.0 0
297077.0 236639.0 0
298723.0 240494.0 0
302211.0 237779.0 0
307433.0 240520.0 0
312360.0 238901.0 0
315922.0 241013.0 0
191487.0 242863.0 0
196580.0 241085.0 0
199496.0 245950.0 0
202740.0 240761.0 0
208763.0 242639.0 0
212261.0 243432.0 0
216630.0 242730.0 0
221356.0 243457.0 0
225047.0 240727.0 0
225271.0 245209.0 0
229166.0 242896.0 0
232851.0 245101.0 0
236728.0 243566.0 0
240163.0 242471.0 0
243599.0 243470.0 0
247327.0 243663.0 0
251662.0 242577.0 0
256710.0 240906.0 0
261809.0 241786.0 0
264543.0 245161.0 0
269007.0 244732.0 0
271590.0 240807.0 0
273955.0 244027.0 0
276767.0 240927.0 0
280553.0 241937.0 0
289811.0 240207.0 0
297157.0 244475.0 0
302568.0 244046.0 0
307390.0 245961.0 0
200270.0 249835.0 0
205261.0 245071.0 0
207478.0 249404.0 0
203513.0 248766.0 0
209896.0 245918.0 0
211818.0 249757.0 0
214509.0 246632.0 0
219955.0 247780.0 0
224907.0 249557.0 0
229365.0 247577.0 0
233555.0 249849.0 0
236459.0 247119.0 0
240452.0 246545.0 0
241917.0 250370.0 0
249875.0 246871.0 0
245186.0 247716.0 0
254488.0 246205.0 0
252402.0 250218.0 0
259160.0 246147.0 0
259534.0 250392.0 0
256248.0 249928.0 0
262712.0 248964.0 0
267407.0 249948.0 0
272539.0 246998.0 0
275584.0 250286.0 0
277441.0 246044.0 0
282978.0 245776.0 0
285491.0 250040.0 0
289400.0 245514.0 0
294234.0 248704.0 0
299949.0 248437.0 0
202495.0 252427.0 0
206107.0 253656.0 0
213771.0 253362.0 0
210103.0 253167.0 0
216095.0 250820.0 0
218795.0 252657.0 0
216583.0 255431.0 0
222354.0 252966.0 0
219715.0 255815.0 0
227836.0 250946.0 0
226690.0 254339.0 0
230178.0 252181.0 0
233042.0 253823.0 0
238145.0 250859.0 0
235555.0 253178.0 0
238315.0 255060.0 0
241039.0 253162.0 0
248304.0 251295.0 0
244702.0 252917.0 0
250547.0 254023.0 0
254244.0 253803.0 0
258296.0 253953.0 0
262969.0 253262.0 0
266139.0 254385.0 0
268686.0 254368.0 0
271752.0 251115.0 0
271623.0 254691.0 0
274191.0 253426.0 0
280540.0 251035.0 0
277221.0 254531.0 0
284624.0 254480.0 0
289086.0 252047.0 0
293445.0 254348.0 0
297352.0 252196.0 0
302921.0 252309.0 0
202400.0 256428.0 0
202300.0 260003.0 0
208716.0 256808.0 0
205526.0 257680.0 0
208134.0 259566.0 0
205599.0 260831.0 0
212445.0 256622.0 0
210947.0 259778.0 0
218966.0 258561.0 0
215275.0 259508.0 0
223316.0 257654.0 0
221205.0 260874.0 0
227486.0 258882.0 0
230340.0 256348.0 0
234462.0 257235.0 0
231229.0 260116.0 0
238558.0 259157.0 0
242532.0 256666.0 0
247651.0 256458.0 0
245094.0 259578.0 0
247989.0 260826.0 0
251929.0 257192.0 0
250468.0 259630.0 0
255784.0 257936.0 0
257695.0 260843.0 0
264330.0 256713.0 0
260468.0 258026.0 0
264458.0 260730.0 0
266953.0 257178.0 0
270247.0 258053.0 0
267974.0 260344.0 0
273927.0 256902.0 0
280868.0 255901.0 0
277564.0 259350.0 0
282537.0 259827.0 0
289724.0 255961.0 0
286821.0 258155.0 0
294337.0 258729.0 0
290957.0 258207.0 0
297917.0 256004.0 0
297979.0 259397.0 0
304194.0 257939.0 0
202318.0 263622.0 0
208931.0 262069.0 0
206059.0 264382.0 0
212202.0 262675.0 0
209769.0 265645.0 0
218490.0 262223.0 0
215353.0 263413.0 0
218065.0 265926.0 0
224501.0 262282.0 0
221436.0 264237.0 0
228335.0 262917.0 0
232430.0 264708.0 0
234873.0 261377.0 0
238311.0 263125.0 0
236190.0 265171.0 0
241952.0 261179.0 0
241288.0 265294.0 0
245427.0 264001.0 0
253673.0 261892.0 0
250049.0 263621.0 0
257550.0 263671.0 0
259869.0 265742.0 0
255386.0 265152.0 0
260634.0 262415.0 0
263675.0 265669.0 0
270139.0 262070.0 0
267393.0 263748.0 0
272956.0 260828.0 0
271240.0 265946.0 0
274905.0 263698.0 0
278774.0 263668.0 0
282184.0 264481.0 0
289943.0 261720.0 0
286044.0 263833.0 0
293911.0 262872.0 0
294405.0 265968.0 0
297532.0 262851.0 0
197681.0 270100.0 0
202676.0 267509.0 0
202500.0 271217.0 0
206518.0 268392.0 0
213988.0 267095.0 0
210655.0 270358.0 0
216844.0 271215.0 0
220790.0 267900.0 0
221647.0 271032.0 0
224852.0 266992.0 0
228934.0 266959.0 0
228778.0 270527.0 0
232408.0 269405.0 0
238214.0 266921.0 0
235369.0 267981.0 0
240767.0 268667.0 0
243944.0 268410.0 0
248367.0 267724.0 0
252797.0 267219.0 0
257247.0 267184.0 0
255539.0 270966.0 0
260636.0 269808.0 0
265207.0 270315.0 0
267481.0 267143.0 0
269376.0 270444.0 0
273413.0 270120.0 0
280032.0 267651.0 0
276095.0 267376.0 0
277616.0 270751.0 0
283891.0 267978.0 0
284597.0 271446.0 0
281002.0 271328.0 0
290568.0 266466.0 0
287289.0 268179.0 0
288000.0 271473.0 0
294449.0 268691.0 0
291456.0 270422.0 0
294583.0 271471.0 0
297658.0 266485.0 0
297583.0 269994.0 0
201788.0 274281.0 0
206089.0 271660.0 0
204853.0 274336.0 0
208588.0 274056.0 0
213027.0 274475.0 0
220598.0 275192.0 0
224383.0 276190.0 0
225265.0 272218.0 0
228077.0 276245.0 0
233541.0 273289.0 0
230094.0 273438.0 0
237932.0 271611.0 0
242335.0 271600.0 0
243008.0 274891.0 0
239794.0 275965.0 0
246155.0 271894.0 0
247095.0 275343.0 0
250685.0 271948.0 0
254079.0 274917.0 0
259291.0 274596.0 0
263369.0 273944.0 0
267539.0 275343.0 0
272229.0 274635.0 0
276042.0 273186.0 0
279232.0 274943.0 0
275950.0 276573.0 0
282855.0 274341.0 0
286534.0 275421.0 0
290650.0 274074.0 0
293681.0 274136.0 0
297407.0 273666.0 0
202919.0 277601.0 0
202223.0 280996.0 0
207066.0 276759.0 0
206001.0 279712.0 0
205216.0 281609.0 0
210446.0 277426.0 0
213747.0 279371.0 0
209147.0 280616.0 0
216794.0 276857.0 0
218346.0 279626.0 0
222021.0 279813.0 0
225970.0 279580.0 0
231818.0 277152.0 0
230278.0 280429.0 0
233463.0 280191.0 0
235884.0 277475.0 0
238265.0 280734.0 0
240953.0 279126.0 0
244623.0 278528.0 0
248097.0 280706.0 0
250511.0 277008.0 0
253376.0 279655.0 0
256604.0 277616.0 0
260258.0 279497.0 0
256936.0 281587.0 0
262656.0 277552.0 0
265593.0 279839.0 0
269694.0 279334.0 0
272415.0 278380.0 0
279350.0 278819.0 0
275644.0 280075.0 0
282880.0 277859.0 0
283476.0 281103.0 0
289920.0 277150.0 0
286471.0 279252.0 0
290145.0 281174.0 0
293592.0 277331.0 0
294789.0 281081.0 0
297396.0 277094.0 0
298339.0 279861.0 0
196515.0 283733.0 0
202872.0 284359.0 0
207174.0 284173.0 0
212263.0 283673.0 0
210318.0 287026.0 0
216739.0 282262.0 0
215910.0 286079.0 0
219967.0 283554.0 0
223793.0 284235.0 0
219298.0 286900.0 0
227392.0 283264.0 0
232576.0 283328.0 0
230341.0 286286.0 0
235503.0 281859.0 0
235897.0 285139.0 0
239615.0 283994.0 0
242745.0 282273.0 0
245591.0 283643.0 0
249691.0 284794.0 0
251870.0 282244.0 0
254126.0 283864.0 0
252263.0 286422.0 0
259174.0 284543.0 0
262385.0 282291.0 0
262944.0 286103.0 0
268917.0 282641.0 0
265868.0 283734.0 0
269818.0 285919.0 0
272084.0 281888.0 0
273126.0 284940.0 0
280340.0 281888.0 0
276979.0 283932.0 0
280172.0 286341.0 0
282232.0 284324.0 0
284485.0 286816.0 0
286315.0 283619.0 0
289453.0 286457.0 0
293411.0 285182.0 0
297921.0 282495.0 0
297774.0 285141.0 0
303051.0 283065.0 0
195692.0 288651.0 0
202901.0 288011.0 0
201943.0 291383.0 0
206487.0 287297.0 0
208592.0 290036.0 0
205351.0 291128.0 0
213698.0 288740.0 0
211626.0 290878.0 0
217414.0 289843.0 0
223265.0 288840.0 0
220063.0 291510.0 0
226901.0 287358.0 0
228360.0 290255.0 0
233788.0 288387.0 0
231448.0 291411.0 0
237892.0 287558.0 0
239667.0 287335.0 0
237099.0 290661.0 0
243055.0 287297.0 0
240422.0 289820.0 0
244535.0 291171.0 0
246875.0 286973.0 0
249539.0 287676.0 0
247579.0 289992.0 0
251301.0 289715.0 0
255055.0 290973.0 0
255800.0 286922.0 0
259982.0 288904.0 0
263633.0 289858.0 0
266367.0 287013.0 0
267436.0 291122.0 0
273826.0 288387.0 0
270967.0 289560.0 0
274260.0 291683.0 0
276835.0 288316.0 0
281932.0 289341.0 0
284552.0 291800.0 0
286619.0 288701.0 0
290376.0 290394.0 0
293564.0 289568.0 0
297080.0 288511.0 0
297691.0 291818.0 0
202004.0 293925.0 0
202162.0 296582.0 0
208877.0 293365.0 0
205486.0 294148.0 0
209024.0 296529.0 0
211742.0 293248.0 0
211697.0 295687.0 0
215252.0 292565.0 0
218629.0 293962.0 0
214772.0 295913.0 0
217581.0 296687.0 0
221518.0 295234.0 0
225233.0 293650.0 0
229179.0 294322.0 0
232394.0 295099.0 0
234874.0 292874.0 0
239090.0 293887.0 0
236328.0 295922.0 0
241739.0 292201.0 0
242504.0 295364.0 0
249475.0 293256.0 0
245977.0 294789.0 0
253227.0 295223.0 0
258420.0 293681.0 0
258920.0 297107.0 0
262006.0 292946.0 0
264797.0 293952.0 0
262099.0 296178.0 0
269513.0 294538.0 0
266336.0 296816.0 0
271799.0 292437.0 0
273395.0 294794.0 0
278395.0 292081.0 0
276604.0 295737.0 0
281725.0 294433.0 0
285119.0 294988.0 0
287850.0 292587.0 0
288697.0 295042.0 0
294684.0 292605.0 0
291925.0 293194.0 0
295112.0 295391.0 0
291798.0 296233.0 0
298153.0 294329.0 0
298003.0 296816.0 0
202058.0 299305.0 0
202754.0 302287.0 0
205603.0 297674.0 0
206462.0 301282.0 0
213481.0 298928.0 0
210144.0 299797.0 0
216939.0 300126.0 0
220648.0 299025.0 0
224427.0 298942.0 0
227879.0 298331.0 0
231502.0 298986.0 0
235037.0 299095.0 0
237264.0 301092.0 0
239886.0 298022.0 0
243186.0 298259.0 0
241902.0 301122.0 0
247055.0 298924.0 0
250703.0 297919.0 0
252432.0 300762.0 0
255518.0 298131.0 0
256082.0 301242.0 0
263609.0 298245.0 0
260277.0 300009.0 0
263623.0 301367.0 0
268391.0 299519.0 0
271662.0 297853.0 0
274863.0 299165.0 0
271491.0 301079.0 0
279119.0 297588.0 0
277915.0 300072.0 0
282343.0 297844.0 0
280820.0 301183.0 0
285082.0 300437.0 0
286517.0 297328.0 0
289202.0 299189.0 0
288293.0 301884.0 0
293222.0 299761.0 0
296800.0 299843.0 0
202495.0 305361.0 0
207689.0 304663.0 0
205469.0 306643.0 0
211257.0 303125.0 0
210901.0 307039.0 0
214402.0 302783.0 0
217813.0 303825.0 0
214916.0 306364.0 0
217971.0 307303.0 0
221054.0 303390.0 0
221498.0 307252.0 0
224828.0 302975.0 0
227828.0 302810.0 0
225189.0 306509.0 0
227764.0 306169.0 0
231453.0 303366.0 0
230556.0 306833.0 0
234786.0 303959.0 0
237699.0 305266.0 0
239864.0 303078.0 0
244823.0 302354.0 0
240783.0 306421.0 0
243823.0 305772.0 0
249811.0 302502.0 0
247588.0 304643.0 0
253866.0 303729.0 0
251624.0 305605.0 0
258909.0 303655.0 0
256078.0 305727.0 0
259686.0 307109.0 0
262336.0 304239.0 0
266913.0 302868.0 0
266340.0 306713.0 0
270596.0 303799.0 0
274154.0 302562.0 0
271056.0 307173.0 0
274360.0 306311.0 0
277645.0 303005.0 0
280312.0 304557.0 0
277563.0 307263.0 0
283392.0 303045.0 0
282769.0 306385.0 0
286556.0 304297.0 0
285746.0 307336.0 0
290354.0 305182.0 0
292038.0 302659.0 0
294729.0 303978.0 0
293737.0 306596.0 0
297975.0 302785.0 0
297733.0 305380.0 0
196497.0 308597.0 0
201804.0 307994.0 0
202499.0 310589.0 0
209126.0 309846.0 0
205824.0 309783.0 0
214243.0 309826.0 0
212201.0 312227.0 0
217328.0 310838.0 0
220298.0 310341.0 0
222542.0 312356.0 0
227096.0 309011.0 0
224571.0 309938.0 0
229407.0 309768.0 0
226298.0 312376.0 0
228236.0 312203.0 0
233332.0 308329.0 0
232476.0 311627.0 0
235848.0 307743.0 0
238921.0 310187.0 0
242655.0 310617.0 0
248693.0 307767.0 0
245377.0 309056.0 0
253853.0 308657.0 0
250591.0 311317.0 0
257641.0 308672.0 0
255198.0 311638.0 0
258632.0 311875.0 0
262922.0 307744.0 0
262306.0 311379.0 0
268355.0 310049.0 0
265986.0 312617.0 0
273380.0 310117.0 0
275974.0 310954.0 0
280758.0 309342.0 0
284272.0 311117.0 0
289108.0 308444.0 0
287753.0 312061.0 0
292328.0 309138.0 0
290922.0 312192.0 0
293992.0 311696.0 0
297126.0 308343.0 0
297811.0 311550.0 0
303399.0 308967.0 0
201978.0 313535.0 0
202013.0 316010.0 0
205432.0 313564.0 0
208907.0 313627.0 0
205442.0 316333.0 0
214038.0 314476.0 0
209391.0 316846.0 0
212588.0 317166.0 0
217366.0 314400.0 0
217138.0 317680.0 0
220654.0 314744.0 0
225299.0 315226.0 0
228026.0 316700.0 0
229877.0 314133.0 0
232545.0 315503.0 0
235802.0 312490.0 0
236256.0 316178.0 0
239897.0 317074.0 0
240177.0 313948.0 0
243438.0 313983.0 0
244089.0 317123.0 0
246824.0 312788.0 0
247757.0 316367.0 0
252599.0 315535.0 0
256945.0 314703.0 0
258620.0 317020.0 0
261470.0 315955.0 0
264974.0 316314.0 0
269049.0 314628.0 0
268043.0 316393.0 0
271441.0 312579.0 0
274243.0 314182.0 0
271821.0 316880.0 0
279232.0 313075.0 0
276692.0 315218.0 0
280512.0 317112.0 0
282730.0 314292.0 0
284679.0 316047.0 0
290706.0 314123.0 0
287399.0 315066.0 0
290409.0 316262.0 0
294154.0 315058.0 0
297993.0 314179.0 0
297908.0 316725.0 0
197463.0 321616.0 0
201318.0 318069.0 0
201904.0 320298.0 0
202058.0 322754.0 0
204452.0 318915.0 0
207548.0 319507.0 0
205826.0 322757.0 0
212475.0 320617.0 0
209969.0 320659.0 0
215319.0 319680.0 0
219168.0 321642.0 0
216377.0 322643.0 0
219621.0 319088.0 0
222479.0 317792.0 0
224469.0 320194.0 0
221684.0 322249.0 0
227072.0 319956.0 0
231225.0 318648.0 0
229722.0 322189.0 0
234994.0 319974.0 0
237963.0 320994.0 0
241229.0 320113.0 0
244910.0 322620.0 0
245255.0 320139.0 0
247903.0 319975.0 0
250478.0 319120.0 0
251641.0 321253.0 0
254355.0 322735.0 0
255131.0 319372.0 0
258801.0 320697.0 0
261909.0 319878.0 0
263005.0 322728.0 0
269282.0 318866.0 0
265643.0 319542.0 0
270128.0 321633.0 0
266376.0 322704.0 0
273864.0 318820.0 0
272901.0 321481.0 0
277293.0 318558.0 0
278139.0 322024.0 0
282412.0 318647.0 0
285542.0 318910.0 0
281272.0 320930.0 0
283665.0 322180.0 0
288366.0 318045.0 0
286816.0 321827.0 0
290282.0 321011.0 0
293254.0 318696.0 0
294066.0 322262.0 0
297147.0 319548.0 0
297712.0 322442.0 0
202304.0 325419.0 0
205870.0 326210.0 0
209022.0 327514.0 0
212923.0 323967.0 0
209505.0 324069.0 0
214152.0 326563.0 0
217353.0 325676.0 0
224260.0 323463.0 0
220129.0 324628.0 0
221665.0 325926.0 0
226735.0 323434.0 0
224646.0 326672.0 0
227301.0 326901.0 0
233799.0 323546.0 0
229661.0 325697.0 0
232618.0 327358.0 0
238296.0 323571.0 0
236486.0 324733.0 0
239702.0 326688.0 0
235284.0 327295.0 0
237496.0 327226.0 0
241776.0 323913.0 0
243876.0 326800.0 0
249275.0 323108.0 0
246590.0 323970.0 0
246537.0 327774.0 0
249566.0 327286.0 0
252356.0 324803.0 0
252541.0 327670.0 0
258858.0 323799.0 0
256072.0 325432.0 0
261783.0 326040.0 0
270114.0 324334.0 0
267021.0 326214.0 0
275001.0 324157.0 0
272179.0 326110.0 0
279975.0 324787.0 0
276609.0 327383.0 0
279347.0 327777.0 0
283163.0 324923.0 0
290490.0 324543.0 0
287044.0 324918.0 0
290327.0 327767.0 0
293768.0 324907.0 0
297282.0 325213.0 0
297424.0 328055.0 0
203337.0 328648.0 0
201731.0 331574.0 0
206443.0 331299.0 0
211877.0 328502.0 0
210110.0 331384.0 0
218144.0 328512.0 0
214780.0 330324.0 0
218047.0 333004.0 0
220748.0 328567.0 0
223513.0 329791.0 0
221121.0 332692.0 0
228079.0 329535.0 0
226071.0 332186.0 0
230484.0 329687.0 0
234460.0 330784.0 0
231610.0 332422.0 0
236459.0 329646.0 0
238892.0 330221.0 0
238513.0 332476.0 0
241614.0 329415.0 0
243190.0 331829.0 0
246106.0 331079.0 0
248410.0 332911.0 0
250347.0 330409.0 0
253231.0 331518.0 0
255783.0 328986.0 0
259654.0 328948.0 0
257299.0 332515.0 0
264617.0 328783.0 0
260762.0 332035.0 0
264427.0 331892.0 0
269687.0 329136.0 0
267943.0 331724.0 0
273725.0 328319.0 0
272662.0 331056.0 0
275823.0 330248.0 0
279010.0 330334.0 0
277280.0 332283.0 0
283361.0 328570.0 0
282234.0 331995.0 0
287049.0 328562.0 0
290687.0 331050.0 0
288011.0 332141.0 0
293507.0 328125.0 0
293386.0 331492.0 0
297361.0 330772.0 0
201901.0 333609.0 0
202603.0 335973.0 0
206540.0 334800.0 0
212163.0 333164.0 0
211012.0 335994.0 0
214904.0 335135.0 0
218884.0 337034.0 0
224174.0 335469.0 0
221689.0 337727.0 0
228919.0 333497.0 0
226961.0 337803.0 0
229308.0 336334.0 0
232949.0 336485.0 0
235930.0 333992.0 0
238283.0 336864.0 0
240509.0 333977.0 0
243504.0 335861.0 0
246736.0 336519.0 0
249797.0 337883.0 0
251012.0 334436.0 0
254214.0 334697.0 0
257376.0 335652.0 0
260154.0 335078.0 0
264678.0 335104.0 0
262367.0 337407.0 0
269074.0 334260.0 0
267243.0 336162.0 0
269702.0 337829.0 0
272500.0 334316.0 0
272698.0 337914.0 0
275801.0 334382.0 0
280174.0 334400.0 0
277866.0 336735.0 0
285222.0 333756.0 0
282192.0 336860.0 0
285210.0 336763.0 0
289681.0 335367.0 0
292390.0 334738.0 0
296989.0 333854.0 0
296379.0 337126.0 0
202844.0 338839.0 0
202094.0 341603.0 0
208021.0 338130.0 0
205695.0 340036.0 0
205272.0 342868.0 0
207861.0 342937.0 0
212857.0 338987.0 0
210195.0 341208.0 0
215942.0 338322.0 0
219276.0 340237.0 0
214523.0 342146.0 0
217126.0 341681.0 0
222484.0 341319.0 0
225350.0 340449.0 0
228972.0 340172.0 0
227449.0 342703.0 0
230974.0 339612.0 0
232825.0 342377.0 0
235631.0 339895.0 0
238847.0 342370.0 0
241167.0 338859.0 0
243776.0 340822.0 0
246105.0 340384.0 0
248673.0 341878.0 0
252989.0 338492.0 0
251867.0 342187.0 0
256688.0 339579.0 0
255480.0 343176.0 0
264788.0 339475.0 0
260145.0 340694.0 0
264903.0 341943.0 0
267339.0 339147.0 0
268562.0 341595.0 0
266229.0 343179.0 0
271147.0 340834.0 0
272996.0 343017.0 0
275680.0 339736.0 0
278143.0 342405.0 0
280631.0 339251.0 0
282944.0 340776.0 0
286512.0 339902.0 0
290143.0 338886.0 0
290506.0 342307.0 0
286977.0 343240.0 0
293496.0 339709.0 0
294450.0 342927.0 0
298115.0 340254.0 0
298182.0 342291.0 0
302895.0 341819.0 0
202162.0 343903.0 0
202652.0 346506.0 0
208448.0 345119.0 0
205644.0 345706.0 0
207398.0 347567.0 0
212287.0 343882.0 0
210490.0 345938.0 0
213617.0 348443.0 0
217817.0 345623.0 0
214763.0 345829.0 0
220767.0 344113.0 0
222710.0 346291.0 0
225493.0 344471.0 0
227157.0 347303.0 0
229742.0 343624.0 0
229710.0 346801.0 0
233868.0 345547.0 0
237435.0 346070.0 0
242496.0 343636.0 0
242840.0 346525.0 0
240134.0 348391.0 0
245361.0 343615.0 0
248053.0 345362.0 0
245631.0 348151.0 0
252868.0 345112.0 0
250786.0 347897.0 0
257651.0 344767.0 0
255407.0 347225.0 0
259499.0 346432.0 0
261981.0 343430.0 0
263769.0 346221.0 0
269480.0 344536.0 0
267063.0 346506.0 0
271956.0 346270.0 0
275138.0 344771.0 0
279423.0 345745.0 0
276013.0 347349.0 0
282094.0 343392.0 0
284081.0 344701.0 0
280864.0 348159.0 0
284079.0 347143.0 0
288595.0 345810.0 0
291846.0 344904.0 0
293018.0 347630.0 0
297336.0 344875.0 0
296586.0 348120.0 0
202525.0 349388.0 0
202447.0 352412.0 0
205849.0 349713.0 0
206197.0 353321.0 0
210493.0 348851.0 0
209818.0 352376.0 0
213128.0 352362.0 0
218604.0 349219.0 0
215711.0 350472.0 0
221087.0 348904.0 0
224293.0 348834.0 0
221406.0 351619.0 0
224496.0 351828.0 0
227872.0 350844.0 0
232231.0 349232.0 0
230238.0 352328.0 0
235783.0 350220.0 0
240728.0 351686.0 0
244117.0 351098.0 0
248423.0 350229.0 0
245775.0 353065.0 0
253442.0 350095.0 0
250920.0 351723.0 0
254965.0 353129.0 0
257564.0 348547.0 0
259071.0 350984.0 0
262144.0 349318.0 0
262411.0 352927.0 0
265185.0 351496.0 0
268203.0 349961.0 0
272574.0 349996.0 0
277683.0 349394.0 0
276146.0 351764.0 0
279487.0 351610.0 0
282690.0 350077.0 0
284908.0 352085.0 0
286754.0 348806.0 0
290344.0 350036.0 0
292729.0 352524.0 0
297046.0 351278.0 0
202327.0 355181.0 0
202958.0 357986.0 0
206221.0 356572.0 0
208735.0 358526.0 0
210884.0 355820.0 0
215937.0 354056.0 0
219249.0 353557.0 0
214512.0 357024.0 0
217533.0 358340.0 0
221785.0 353991.0 0
219821.0 356733.0 0
223327.0 358008.0 0
225076.0 354795.0 0
228251.0 355124.0 0
229332.0 358208.0 0
232734.0 354263.0 0
232052.0 357639.0 0
236413.0 353724.0 0
239059.0 355800.0 0
235445.0 358386.0 0
239146.0 358863.0 0
241938.0 354957.0 0
244524.0 354868.0 0
242442.0 358574.0 0
248740.0 353699.0 0
245268.0 357086.0 0
247890.0 357094.0 0
252155.0 355106.0 0
251283.0 358461.0 0
258775.0 355135.0 0
255528.0 357020.0 0
262609.0 355098.0 0
262673.0 357564.0 0
268442.0 353668.0 0
265558.0 354780.0 0
267909.0 355741.0 0
265158.0 358093.0 0
267718.0 358582.0 0
269812.0 357372.0 0
271657.0 354232.0 0
274043.0 356410.0 0
276797.0 354565.0 0
279082.0 356274.0 0
281671.0 353730.0 0
283897.0 355666.0 0
281832.0 357135.0 0
287246.0 353963.0 0
290084.0 354794.0 0
285719.0 357115.0 0
290489.0 357733.0 0
294435.0 355376.0 0
293923.0 358273.0 0
297602.0 354407.0 0
298226.0 356936.0 0
302910.0 358343.0 0
203042.0 361044.0 0
207234.0 361393.0 0
212747.0 360310.0 0
210076.0 363887.0 0
218334.0 360847.0 0
215601.0 362485.0 0
221140.0 360828.0 0
224683.0 363144.0 0
228992.0 362115.0 0
226037.0 360449.0 0
231803.0 361564.0 0
234729.0 361925.0 0
238557.0 361808.0 0
243697.0 361530.0 0
240492.0 363827.0 0
246796.0 360200.0 0
249351.0 361420.0 0
254396.0 359505.0 0
251855.0 362363.0 0
253978.0 362635.0 0
257312.0 360100.0 0
259788.0 358558.0 0
257901.0 362372.0 0
256410.0 363232.0 0
261441.0 361179.0 0
264184.0 361056.0 0
268296.0 360926.0 0
266565.0 361909.0 0
271786.0 359304.0 0
274407.0 360810.0 0
270621.0 362061.0 0
273517.0 363032.0 0
275656.0 358929.0 0
278314.0 359399.0 0
280500.0 360685.0 0
276652.0 362290.0 0
283124.0 359142.0 0
284347.0 361284.0 0
288041.0 358946.0 0
287457.0 361967.0 0
290325.0 362783.0 0
292651.0 361073.0 0
297253.0 359584.0 0
297290.0 362523.0 0
194857.0 367140.0 0
202764.0 364202.0 0
202592.0 367397.0 0
205870.0 364143.0 0
208055.0 366762.0 0
205705.0 366921.0 0
213322.0 365467.0 0
218890.0 364830.0 0
216703.0 366977.0 0
221931.0 363718.0 0
220745.0 367571.0 0
223755.0 367619.0 0
225823.0 365619.0 0
229285.0 365471.0 0
227795.0 368257.0 0
232052.0 365949.0 0
232837.0 368938.0 0
235206.0 365242.0 0
237985.0 365401.0 0
235735.0 368980.0 0
238401.0 368277.0 0
240925.0 367872.0 0
243453.0 366761.0 0
245506.0 364465.0 0
248917.0 365301.0 0
245187.0 368977.0 0
252230.0 366076.0 0
254513.0 368593.0 0
255524.0 365405.0 0
258173.0 366261.0 0
257328.0 368815.0 0
264325.0 363859.0 0
260235.0 363945.0 0
262414.0 366458.0 0
266709.0 364331.0 0
269134.0 364905.0 0
265667.0 367239.0 0
271247.0 366489.0 0
273772.0 365796.0 0
278180.0 364265.0 0
276377.0 367354.0 0
279267.0 368214.0 0
280844.0 363961.0 0
283337.0 364158.0 0
281450.0 367846.0 0
283748.0 367529.0 0
286142.0 365160.0 0
288236.0 366972.0 0
294467.0 363871.0 0
291280.0 365914.0 0
297761.0 365570.0 0
296842.0 368460.0 0
196926.0 373174.0 0
203338.0 370808.0 0
209405.0 372710.0 0
209511.0 369677.0 0
206383.0 370977.0 0
212718.0 369096.0 0
212387.0 371937.0 0
216060.0 370520.0 0
219373.0 369720.0 0
214605.0 373408.0 0
218088.0 372954.0 0
221314.0 372124.0 0
224544.0 371400.0 0
227981.0 371547.0 0
230861.0 370532.0 0
232970.0 373048.0 0
236100.0 372526.0 0
239152.0 371926.0 0
241372.0 370946.0 0
243936.0 370854.0 0
242456.0 374240.0 0
244959.0 373363.0 0
248030.0 369547.0 0
247822.0 373120.0 0
250958.0 369881.0 0
253306.0 371501.0 0
251190.0 373789.0 0
258954.0 371703.0 0
256186.0 373904.0 0
261796.0 369667.0 0
264179.0 371325.0 0
261503.0 373863.0 0
267668.0 368963.0 0
266570.0 372296.0 0
272667.0 369624.0 0
270200.0 370031.0 0
270693.0 373354.0 0
275463.0 371008.0 0
278501.0 371848.0 0
283574.0 370934.0 0
280945.0 371371.0 0
284399.0 373170.0 0
285222.0 369435.0 0
287833.0 370212.0 0
291504.0 371240.0 0
293246.0 368512.0 0
297196.0 372011.0 0
295012.0 373938.0 0
198921.0 378484.0 0
196760.0 379433.0 0
202886.0 379411.0 0
201052.0 376561.0 0
202467.0 373781.0 0
204771.0 376127.0 0
206580.0 374124.0 0
208154.0 376430.0 0
207804.0 379115.0 0
212394.0 378056.0 0
211579.0 374820.0 0
215818.0 375568.0 0
218326.0 375529.0 0
218730.0 378678.0 0
220751.0 375003.0 0
224601.0 375207.0 0
222422.0 376530.0 0
228848.0 374911.0 0
226949.0 377122.0 0
231652.0 375726.0 0
234494.0 376888.0 0
231846.0 379276.0 0
237409.0 376358.0 0
240813.0 376339.0 0
244647.0 375765.0 0
245554.0 377922.0 0
248086.0 376485.0 0
250868.0 378156.0 0
254473.0 377388.0 0
257873.0 378717.0 0
259672.0 376194.0 0
263662.0 374673.0 0
262018.0 377935.0 0
267612.0 375635.0 0
264976.0 378068.0 0
269034.0 379561.0 0
274022.0 374578.0 0
271673.0 377299.0 0
277675.0 374740.0 0
279571.0 376729.0 0
275176.0 377940.0 0
281927.0 374666.0 0
283600.0 377203.0 0
286837.0 373590.0 0
287788.0 378968.0 0
286612.0 376734.0 0
290016.0 374272.0 0
291820.0 376621.0 0
293148.0 379519.0 0
297147.0 376833.0 0
299267.0 376207.0 0
300031.0 378350.0 0
302351.0 379598.0 0
304665.0 380910.0 0
190372.0 383232.0 0
186687.0 385956.0 0
188877.0 385122.0 0
192002.0 381901.0 0
194816.0 381404.0 0
194169.0 384182.0 0
192384.0 385886.0 0
197980.0 382946.0 0
200783.0 382529.0 0
197098.0 385842.0 0
202714.0 384998.0 0
205784.0 380834.0 0
205852.0 384685.0 0
208169.0 383533.0 0
210305.0 380792.0 0
211352.0 383725.0 0
214736.0 383660.0 0
215355.0 379571.0 0
217871.0 382498.0 0
219887.0 382869.0 0
221890.0 380147.0 0
223556.0 383525.0 0
225130.0 379560.0 0
226870.0 381768.0 0
229155.0 380228.0 0
229643.0 383671.0 0
234339.0 381844.0 0
231995.0 384624.0 0
237187.0 379961.0 0
239976.0 381510.0 0
242867.0 379699.0 0
244857.0 382969.0 0
247134.0 380255.0 0
247963.0 384561.0 0
249921.0 381480.0 0
254810.0 381413.0 0
252966.0 383774.0 0
257253.0 382031.0 0
259513.0 380781.0 0
256360.0 384892.0 0
258967.0 384689.0 0
262879.0 381602.0 0
265728.0 381167.0 0
266708.0 384022.0 0
272422.0 382650.0 0
272857.0 379934.0 0
269819.0 383501.0 0
277729.0 379952.0 0
275059.0 382552.0 0
280164.0 382441.0 0
282924.0 380170.0 0
285328.0 381597.0 0
287386.0 382162.0 0
289351.0 383176.0 0
287628.0 383890.0 0
289508.0 380982.0 0
292563.0 383276.0 0
296091.0 381242.0 0
298836.0 381680.0 0
297589.0 385889.0 0
303491.0 383645.0 0
300990.0 383209.0 0
300171.0 385849.0 0
306838.0 381893.0 0
309010.0 383413.0 0
305044.0 386356.0 0
306601.0 384559.0 0
310828.0 385268.0 0
313726.0 385282.0 0
315189.0 386512.0 0
182730.0 387969.0 0
184497.0 386750.0 0
180913.0 389817.0 0
184581.0 390669.0 0
186685.0 388864.0 0
188921.0 389278.0 0
190669.0 387507.0 0
194733.0 387501.0 0
193919.0 390227.0 0
197089.0 390041.0 0
198656.0 387771.0 0
199539.0 390459.0 0
200702.0 387699.0 0
202999.0 388293.0 0
201838.0 390099.0 0
205711.0 388796.0 0
208369.0 388406.0 0
210353.0 386790.0 0
212520.0 388821.0 0
214885.0 387396.0 0
217578.0 385625.0 0
216908.0 389237.0 0
219722.0 385627.0 0
219502.0 389394.0 0
222190.0 385930.0 0
222587.0 388947.0 0
225479.0 388776.0 0
226510.0 385284.0 0
229095.0 387272.0 0
228280.0 389648.0 0
232040.0 387802.0 0
236211.0 385024.0 0
239532.0 384696.0 0
235587.0 388946.0 0
239545.0 388586.0 0
242809.0 385081.0 0
243184.0 388554.0 0
249545.0 387650.0 0
245947.0 387885.0 0
253053.0 387136.0 0
255900.0 387478.0 0
257784.0 389014.0 0
261996.0 384812.0 0
260554.0 388860.0 0
263427.0 388518.0 0
265006.0 386096.0 0
269024.0 386615.0 0
267088.0 388281.0 0
271952.0 386537.0 0
275090.0 385674.0 0
275710.0 388787.0 0
278192.0 389512.0 0
278217.0 385347.0 0
280360.0 387922.0 0
282427.0 385395.0 0
285222.0 385732.0 0
288247.0 386044.0 0
286216.0 388817.0 0
290852.0 385010.0 0
293890.0 386017.0 0
289413.0 390197.0 0
290909.0 387730.0 0
293909.0 388371.0 0
295577.0 384791.0 0
295629.0 389803.0 0
297621.0 388376.0 0
302428.0 387904.0 0
299434.0 389040.0 0
302897.0 390821.0 0
307473.0 388291.0 0
306769.0 390695.0 0
310913.0 388315.0 0
314487.0 388160.0 0
312736.0 390883.0 0
316947.0 387894.0 0
316108.0 391089.0 0
318352.0 389721.0 0
320590.0 390556.0 0
168828.0 396845.0 0
171410.0 396173.0 0
173657.0 394781.0 0
178899.0 391848.0 0
175455.0 392516.0 0
176149.0 396520.0 0
178419.0 394583.0 0
181644.0 393442.0 0
185180.0 393566.0 0
183274.0 396125.0 0
188885.0 392482.0 0
187989.0 395154.0 0
191529.0 391641.0 0
195373.0 393239.0 0
191902.0 394487.0 0
197772.0 392403.0 0
195391.0 395218.0 0
197957.0 396569.0 0
199432.0 393744.0 0
200988.0 391807.0 0
205141.0 391449.0 0
203136.0 393226.0 0
202949.0 395497.0 0
209237.0 390879.0 0
206530.0 393483.0 0
208871.0 393102.0 0
211078.0 394674.0 0
212467.0 391386.0 0
213374.0 395670.0 0
215418.0 392071.0 0
217066.0 395162.0 0
219868.0 392863.0 0
222493.0 392081.0 0
224686.0 393012.0 0
226878.0 391987.0 0
230067.0 394382.0 0
230857.0 390958.0 0
234000.0 392618.0 0
237551.0 391512.0 0
238824.0 394215.0 0
235763.0 394738.0 0
241235.0 391986.0 0
243554.0 393692.0 0
245057.0 391117.0 0
247059.0 391514.0 0
249526.0 390777.0 0
245942.0 395187.0 0
253271.0 390576.0 0
251287.0 394017.0 0
256000.0 392248.0 0
258811.0 393518.0 0
261632.0 392370.0 0
263883.0 394899.0 0
264512.0 390352.0 0
265856.0 392404.0 0
268594.0 390991.0 0
269369.0 394209.0 0
271521.0 389627.0 0
271877.0 394336.0 0
273916.0 391369.0 0
275520.0 394704.0 0
278382.0 392482.0 0
282428.0 390071.0 0
280910.0 392628.0 0
283005.0 395088.0 0
284757.0 391222.0 0
285454.0 394583.0 0
287237.0 392256.0 0
288445.0 395427.0 0
293747.0 392111.0 0
291064.0 393494.0 0
297706.0 392225.0 0
296507.0 395228.0 0
300045.0 391781.0 0
303763.0 393900.0 0
301093.0 394842.0 0
306552.0 393147.0 0
309167.0 395088.0 0
309856.0 392518.0 0
313863.0 393662.0 0
312049.0 395498.0 0
317952.0 393339.0 0
316010.0 395065.0 0
322859.0 392898.0 0
320488.0 394384.0 0
323423.0 396732.0 0
325646.0 393989.0 0
327761.0 396312.0 0
162215.0 401157.0 0
164400.0 399938.0 0
166726.0 399001.0 0
169060.0 400084.0 0
172345.0 399819.0 0
175339.0 399669.0 0
178645.0 398978.0 0
179696.0 401633.0 0
180598.0 397061.0 0
183228.0 399099.0 0
182488.0 400838.0 0
185652.0 397969.0 0
189326.0 396912.0 0
187629.0 399757.0 0
191319.0 396791.0 0
193447.0 396545.0 0
190800.0 400742.0 0
193357.0 399887.0 0
196270.0 399624.0 0
200741.0 397330.0 0
205095.0 397006.0 0
201267.0 400172.0 0
204607.0 399869.0 0
207152.0 395984.0 0
207578.0 399037.0 0
209728.0 397618.0 0
211897.0 400715.0 0
215071.0 399096.0 0
219809.0 397162.0 0
221714.0 395445.0 0
224500.0 396187.0 0
223760.0 399018.0 0
227518.0 396460.0 0
227932.0 399025.0 0
229612.0 400037.0 0
231712.0 399799.0 0
231854.0 396940.0 0
234864.0 397480.0 0
238889.0 398220.0 0
241402.0 396389.0 0
243999.0 398846.0 0
248781.0 395786.0 0
249822.0 398914.0 0
252579.0 398179.0 0
254305.0 395566.0 0
253805.0 400057.0 0
256566.0 397365.0 0
259012.0 399316.0 0
258900.0 396095.0 0
261552.0 397887.0 0
264526.0 399913.0 0
267337.0 397195.0 0
270928.0 397642.0 0
273445.0 398322.0 0
276326.0 400322.0 0
278345.0 397750.0 0
280559.0 395901.0 0
282900.0 398268.0 0
280902.0 400294.0 0
285551.0 398816.0 0
288660.0 398621.0 0
293203.0 396603.0 0
291571.0 399315.0 0
299188.0 397156.0 0
295535.0 399080.0 0
302623.0 398289.0 0
299257.0 400627.0 0
302171.0 401488.0 0
304573.0 396943.0 0
307937.0 397714.0 0
305535.0 399953.0 0
312492.0 397487.0 0
314221.0 396955.0 0
309842.0 400387.0 0
313105.0 400895.0 0
317368.0 397645.0 0
316194.0 400307.0 0
319383.0 400780.0 0
319934.0 397153.0 0
320599.0 400148.0 0
322456.0 398606.0 0
323502.0 401183.0 0
326043.0 398848.0 0
329471.0 400370.0 0
330579.0 397025.0 0
332991.0 398297.0 0
331565.0 401527.0 0
334973.0 400630.0 0
156720.0 404014.0 0
154361.0 406553.0 0
160275.0 403182.0 0
163533.0 403405.0 0
159764.0 405733.0 0
166313.0 402742.0 0
168831.0 403060.0 0
165579.0 405902.0 0
168370.0 407073.0 0
171596.0 402885.0 0
173977.0 403839.0 0
171072.0 405686.0 0
175796.0 402026.0 0
178629.0 403899.0 0
175897.0 404907.0 0
183443.0 403081.0 0
180318.0 406793.0 0
182674.0 405396.0 0
186132.0 402185.0 0
190263.0 403652.0 0
187756.0 405089.0 0
194387.0 403215.0 0
192595.0 404795.0 0
198054.0 401776.0 0
195792.0 404905.0 0
198229.0 404231.0 0
201253.0 403009.0 0
202757.0 405346.0 0
205597.0 402749.0 0
208660.0 401798.0 0
207137.0 405378.0 0
209206.0 404586.0 0
212568.0 405517.0 0
215576.0 403740.0 0
217914.0 401730.0 0
220807.0 400432.0 0
222610.0 403322.0 0
225171.0 403561.0 0
225905.0 400569.0 0
227791.0 402564.0 0
229818.0 403575.0 0
233289.0 402985.0 0
236072.0 405213.0 0
235947.0 400366.0 0
238477.0 402734.0 0
241084.0 400971.0 0
242199.0 403908.0 0
245180.0 404381.0 0
246415.0 400897.0 0
250155.0 402703.0 0
253007.0 403165.0 0
254870.0 404950.0 0
256543.0 400836.0 0
258439.0 404033.0 0
261135.0 401547.0 0
262839.0 403438.0 0
266048.0 403255.0 0
269148.0 401345.0 0
272162.0 401629.0 0
274795.0 402091.0 0
273184.0 404590.0 0
277219.0 402670.0 0
275791.0 405514.0 0
278737.0 405838.0 0
280309.0 403415.0 0
283246.0 403851.0 0
283889.0 405974.0 0
284927.0 401762.0 0
288690.0 401441.0 0
285903.0 405982.0 0
287693.0 404119.0 0
290887.0 404431.0 0
292991.0 402522.0 0
296350.0 402641.0 0
298122.0 405707.0 0
300611.0 404294.0 0
303430.0 406323.0 0
304744.0 403294.0 0
308000.0 403670.0 0
310471.0 406367.0 0
313417.0 404318.0 0
317862.0 403125.0 0
316020.0 405511.0 0
321774.0 402435.0 0
320175.0 404171.0 0
324718.0 404610.0 0
322920.0 406742.0 0
326470.0 402012.0 0
328577.0 404103.0 0
327283.0 406134.0 0
331444.0 404744.0 0
334044.0 405169.0 0
337195.0 402207.0 0
337535.0 405683.0 0
340070.0 406932.0 0
340367.0 402873.0 0
342668.0 405180.0 0
345205.0 407047.0 0
147429.0 410907.0 0
151766.0 407642.0 0
149873.0 409387.0 0
153939.0 410712.0 0
156786.0 407608.0 0
158327.0 410416.0 0
162827.0 407616.0 0
161402.0 410383.0 0
165066.0 410053.0 0
169187.0 409929.0 0
166380.0 411791.0 0
172730.0 407118.0 0
171873.0 410238.0 0
174644.0 411067.0 0
175331.0 407564.0 0
178215.0 408345.0 0
178218.0 410830.0 0
181670.0 409393.0 0
185279.0 407264.0 0
180685.0 411772.0 0
184960.0 410376.0 0
189316.0 408136.0 0
189366.0 410650.0 0
192501.0 407679.0 0
192522.0 410935.0 0
195788.0 407385.0 0
199101.0 406823.0 0
195768.0 410082.0 0
199652.0 409320.0 0
202543.0 410693.0 0
203972.0 408070.0 0
207009.0 407964.0 0
206441.0 411147.0 0
210313.0 408654.0 0
212964.0 410346.0 0
215817.0 408015.0 0
218603.0 405795.0 0
218374.0 409711.0 0
221331.0 405633.0 0
220769.0 409271.0 0
223080.0 407857.0 0
224764.0 410122.0 0
225913.0 406124.0 0
228877.0 408001.0 0
232288.0 406766.0 0
233594.0 410441.0 0
234782.0 408140.0 0
238406.0 406167.0 0
237312.0 409710.0 0
240703.0 410334.0 0
240992.0 406856.0 0
243685.0 407450.0 0
245273.0 409137.0 0
248341.0 406764.0 0
251823.0 407558.0 0
254348.0 407785.0 0
257195.0 407560.0 0
257863.0 410629.0 0
261159.0 406577.0 0
260701.0 409819.0 0
263475.0 409975.0 0
264246.0 406649.0 0
266322.0 409036.0 0
268320.0 405694.0 0
269422.0 409824.0 0
270907.0 406396.0 0
271985.0 411106.0 0
273258.0 408598.0 0
276109.0 409245.0 0
279244.0 408654.0 0
282057.0 407305.0 0
283992.0 410286.0 0
286041.0 408356.0 0
288872.0 408216.0 0
288744.0 410867.0 0
291604.0 407733.0 0
294854.0 407750.0 0
294301.0 411141.0 0
298757.0 410190.0 0
301131.0 407571.0 0
303304.0 409848.0 0
305304.0 408449.0 0
307901.0 408292.0 0
307086.0 411496.0 0
312908.0 408633.0 0
310579.0 410314.0 0
317331.0 407784.0 0
315094.0 410956.0 0
320197.0 408417.0 0
320485.0 411425.0 0
322900.0 410633.0 0
328301.0 409335.0 0
325426.0 409485.0 0
330736.0 407771.0 0
333476.0 409266.0 0
332978.0 411642.0 0
335638.0 407793.0 0
337265.0 409912.0 0
340080.0 409359.0 0
343361.0 409389.0 0
341619.0 411373.0 0
347844.0 408552.0 0
346499.0 411807.0 0
350619.0 409488.0 0
352929.0 411377.0 0
136647.0 416993.0 0
142685.0 414537.0 0
139571.0 416086.0 0
145263.0 412767.0 0
148957.0 414928.0 0
147004.0 416788.0 0
151244.0 412684.0 0
153659.0 414703.0 0
152986.0 417083.0 0
156688.0 413124.0 0
156848.0 415870.0 0
162108.0 412982.0 0
159650.0 414166.0 0
164514.0 414904.0 0
160056.0 416143.0 0
169213.0 413173.0 0
168101.0 415019.0 0
171513.0 413747.0 0
172347.0 416682.0 0
175188.0 413707.0 0
177978.0 412898.0 0
177834.0 415866.0 0
181121.0 415215.0 0
184480.0 413736.0 0
187910.0 411787.0 0
186751.0 415527.0 0
188893.0 413702.0 0
192068.0 413725.0 0
197580.0 412148.0 0
195879.0 415109.0 0
200379.0 413345.0 0
201597.0 416238.0 0
204390.0 413365.0 0
209597.0 412337.0 0
207043.0 415582.0 0
214746.0 411702.0 0
212022.0 414048.0 0
213778.0 415812.0 0
217564.0 413764.0 0
220969.0 412062.0 0
223299.0 412696.0 0
223313.0 416182.0 0
226492.0 416282.0 0
227173.0 412621.0 0
229899.0 413884.0 0
231094.0 410935.0 0
232835.0 414581.0 0
235934.0 413443.0 0
239504.0 413776.0 0
242126.0 415422.0 0
243722.0 411862.0 0
246550.0 413553.0 0
248644.0 411092.0 0
251695.0 412002.0 0
251237.0 415381.0 0
254265.0 415555.0 0
254793.0 411341.0 0
255832.0 414348.0 0
258618.0 414765.0 0
263767.0 412063.0 0
261417.0 413455.0 0
263808.0 416176.0 0
266030.0 413111.0 0
268606.0 412974.0 0
270228.0 415673.0 0
272779.0 413896.0 0
275115.0 411821.0 0
275467.0 415702.0 0
278105.0 413520.0 0
280792.0 411941.0 0
283270.0 415903.0 0
286314.0 413593.0 0
291667.0 412047.0 0
289587.0 414662.0 0
293181.0 414679.0 0
296533.0 412713.0 0
296406.0 416612.0 0
301460.0 412426.0 0
304785.0 413459.0 0
300202.0 415717.0 0
303365.0 416071.0 0
309639.0 412668.0 0
306450.0 416110.0 0
309488.0 416342.0 0
312519.0 412801.0 0
312956.0 416337.0 0
317830.0 411953.0 0
316143.0 415433.0 0
318805.0 414944.0 0
322185.0 417286.0 0
322066.0 414117.0 0
325161.0 413203.0 0
329798.0 412469.0 0
325771.0 416106.0 0
329193.0 415540.0 0
334946.0 414288.0 0
333322.0 417000.0 0
337174.0 412512.0 0
339817.0 413326.0 0
338381.0 416442.0 0
343983.0 412423.0 0
340870.0 415588.0 0
343824.0 415181.0 0
347779.0 413614.0 0
349839.0 412580.0 0
348531.0 416810.0 0
353012.0 414251.0 0
350571.0 415420.0 0
354091.0 416903.0 0
355817.0 412445.0 0
357816.0 414150.0 0
360530.0 415106.0 0
357192.0 416731.0 0
362194.0 417300.0 0
364920.0 417572.0 0
128857.0 421081.0 0
132140.0 420915.0 0
134657.0 419364.0 0
137419.0 420979.0 0
139832.0 419283.0 0
142988.0 420703.0 0
144298.0 417721.0 0
147103.0 418944.0 0
145758.0 422586.0 0
149215.0 421160.0 0
150451.0 417908.0 0
152606.0 420685.0 0
155150.0 418156.0 0
154790.0 420827.0 0
158016.0 418015.0 0
159566.0 420394.0 0
162190.0 417626.0 0
162112.0 422262.0 0
166112.0 418137.0 0
169257.0 417789.0 0
164829.0 420832.0 0
167540.0 422035.0 0
169758.0 420917.0 0
175370.0 419010.0 0
179511.0 419907.0 0
182429.0 418695.0 0
185390.0 418453.0 0
183546.0 422127.0 0
188696.0 417950.0 0
186713.0 421290.0 0
191439.0 417351.0 0
189710.0 420976.0 0
194227.0 419152.0 0
198469.0 417128.0 0
197568.0 420257.0 0
200089.0 419047.0 0
200215.0 421334.0 0
203581.0 418796.0 0
204594.0 421789.0 0
209893.0 417097.0 0
207010.0 419157.0 0
209258.0 420359.0 0
211868.0 417709.0 0
211997.0 420929.0 0
214072.0 419010.0 0
215274.0 421442.0 0
220312.0 416463.0 0
216905.0 418146.0 0
218333.0 420914.0 0
220591.0 419780.0 0
223376.0 420377.0 0
229132.0 416732.0 0
226528.0 420262.0 0
229164.0 419790.0 0
231998.0 417925.0 0
234804.0 418940.0 0
237415.0 417342.0 0
237840.0 420671.0 0
244501.0 416779.0 0
240521.0 418106.0 0
243472.0 420569.0 0
246789.0 419785.0 0
248261.0 416327.0 0
250071.0 419773.0 0
253451.0 419121.0 0
257194.0 418751.0 0
260737.0 417656.0 0
264299.0 419755.0 0
267226.0 416606.0 0
267802.0 420322.0 0
271071.0 418818.0 0
273689.0 418234.0 0
275472.0 420948.0 0
277803.0 418633.0 0
280289.0 416879.0 0
281562.0 419509.0 0
279990.0 421120.0 0
287277.0 417294.0 0
284961.0 419617.0 0
289298.0 418281.0 0
288501.0 421150.0 0
291035.0 416864.0 0
291663.0 421721.0 0
293713.0 419356.0 0
298852.0 420272.0 0
302282.0 419175.0 0
305024.0 418388.0 0
306895.0 420193.0 0
309535.0 419778.0 0
313316.0 419856.0 0
317070.0 419450.0 0
319671.0 418286.0 0
324899.0 417600.0 0
321078.0 421840.0 0
322882.0 420333.0 0
328341.0 418646.0 0
325944.0 419977.0 0
332757.0 420036.0 0
330171.0 420935.0 0
337329.0 418969.0 0
336316.0 421558.0 0
340613.0 420123.0 0
341773.0 418080.0 0
343643.0 420501.0 0
345601.0 417626.0 0
350214.0 419512.0 0
346801.0 420706.0 0
349336.0 421863.0 0
353002.0 419063.0 0
353448.0 421591.0 0
357810.0 419258.0 0
356133.0 421276.0 0
360987.0 419905.0 0
365801.0 420878.0 0
363476.0 421151.0 0
366706.0 419209.0 0
368978.0 419940.0 0
370445.0 422167.0 0
121936.0 426950.0 0
124912.0 425543.0 0
127189.0 423420.0 0
127698.0 427382.0 0
130466.0 423732.0 0
131396.0 426964.0 0
134793.0 423231.0 0
134789.0 425506.0 0
138306.0 423185.0 0
138210.0 425977.0 0
141124.0 423310.0 0
142559.0 425328.0 0
145684.0 425608.0 0
148498.0 427114.0 0
150768.0 424157.0 0
153668.0 425110.0 0
156668.0 422988.0 0
158466.0 425368.0 0
161623.0 425458.0 0
165042.0 424578.0 0
167841.0 424929.0 0
171902.0 421531.0 0
173324.0 423629.0 0
170740.0 425654.0 0
176154.0 422571.0 0
176539.0 425595.0 0
179918.0 422662.0 0
180059.0 426055.0 0
184148.0 425680.0 0
189372.0 423412.0 0
187393.0 424355.0 0
192774.0 421938.0 0
191713.0 424770.0 0
194211.0 425240.0 0
196079.0 423180.0 0
198530.0 425470.0 0
201969.0 424402.0 0
204616.0 426835.0 0
207315.0 423259.0 0
209654.0 425006.0 0
212450.0 423780.0 0
215691.0 424008.0 0
219258.0 423958.0 0
222580.0 423807.0 0
225633.0 424408.0 0
227956.0 423046.0 0
229656.0 425722.0 0
231215.0 422276.0 0
235005.0 422361.0 0
233227.0 425896.0 0
240176.0 421767.0 0
237515.0 424423.0 0
240834.0 425416.0 0
244604.0 424951.0 0
248001.0 423160.0 0
249260.0 425845.0 0
251338.0 423028.0 0
254557.0 422913.0 0
257129.0 422329.0 0
255387.0 426050.0 0
258419.0 425217.0 0
261145.0 421509.0 0
262881.0 426446.0 0
265318.0 423463.0 0
272468.0 422107.0 0
269495.0 424449.0 0
277995.0 422900.0 0
275103.0 424906.0 0
279877.0 425311.0 0
283451.0 423581.0 0
287348.0 424442.0 0
290086.0 426532.0 0
294135.0 425604.0 0
296460.0 422490.0 0
303271.0 422643.0 0
300086.0 423996.0 0
306023.0 422177.0 0
305062.0 426469.0 0
308240.0 424848.0 0
310450.0 422859.0 0
313857.0 423868.0 0
313078.0 427105.0 0
317905.0 423607.0 0
317438.0 427204.0 0
324191.0 423238.0 0
322813.0 424202.0 0
321282.0 426054.0 0
326436.0 422648.0 0
329277.0 423357.0 0
326282.0 425545.0 0
330288.0 425870.0 0
333745.0 422776.0 0
333688.0 425637.0 0
338031.0 423780.0 0
337171.0 426443.0 0
340646.0 422703.0 0
344659.0 423297.0 0
342220.0 425395.0 0
345313.0 427057.0 0
347212.0 424740.0 0
349177.0 426942.0 0
351849.0 423832.0 0
354132.0 425825.0 0
357190.0 424011.0 0
360195.0 422960.0 0
358569.0 426992.0 0
362336.0 425109.0 0
365142.0 423982.0 0
368201.0 423074.0 0
370712.0 425302.0 0
366639.0 426557.0 0
372916.0 422916.0 0
372827.0 426307.0 0
374941.0 424615.0 0
377249.0 426130.0 0
380065.0 427529.0 0
115567.0 430100.0 0
119031.0 428663.0 0
122615.0 430246.0 0
118840.0 431740.0 0
125477.0 429455.0 0
131236.0 431196.0 0
135771.0 428022.0 0
135318.0 429934.0 0
137752.0 430707.0 0
140602.0 428526.0 0
142465.0 432044.0 0
144372.0 428127.0 0
146518.0 430649.0 0
150809.0 428799.0 0
154401.0 428181.0 0
150890.0 431288.0 0
154355.0 431205.0 0
157377.0 427895.0 0
159118.0 429859.0 0
156973.0 431661.0 0
162539.0 428763.0 0
162440.0 432454.0 0
165947.0 427960.0 0
168356.0 429592.0 0
164974.0 431060.0 0
166441.0 432058.0 0
173705.0 427938.0 0
171284.0 431495.0 0
176437.0 429695.0 0
176098.0 432167.0 0
179728.0 429770.0 0
182962.0 430216.0 0
186419.0 428694.0 0
189641.0 427523.0 0
187156.0 432102.0 0
189791.0 430991.0 0
192788.0 428699.0 0
193298.0 432023.0 0
195436.0 427525.0 0
199440.0 428714.0 0
196763.0 430717.0 0
202353.0 430486.0 0
207965.0 428182.0 0
206021.0 431293.0 0
212750.0 426971.0 0
210982.0 428596.0 0
215708.0 427730.0 0
219168.0 427513.0 0
222483.0 426979.0 0
224367.0 428067.0 0
221638.0 429842.0 0
224337.0 431656.0 0
226857.0 427012.0 0
228036.0 430490.0 0
231317.0 429140.0 0
234160.0 431493.0 0
236079.0 427778.0 0
239348.0 428846.0 0
243050.0 429871.0 0
247280.0 428709.0 0
250718.0 429232.0 0
252307.0 426222.0 0
253594.0 429308.0 0
255943.0 429150.0 0
258888.0 429033.0 0
262460.0 431362.0 0
267015.0 427961.0 0
266100.0 431933.0 0
272511.0 427315.0 0
270495.0 430518.0 0
277688.0 427277.0 0
275679.0 429961.0 0
279881.0 429357.0 0
282483.0 428236.0 0
285599.0 427564.0 0
284939.0 430510.0 0
287773.0 428819.0 0
291163.0 430242.0 0
294343.0 429975.0 0
298031.0 427090.0 0
298262.0 430746.0 0
301772.0 427095.0 0
301654.0 430192.0 0
305430.0 430506.0 0
310021.0 428993.0 0
313189.0 431391.0 0
315436.0 428502.0 0
318574.0 429814.0 0
315914.0 431120.0 0
320114.0 428336.0 0
324770.0 427870.0 0
320373.0 431863.0 0
322604.0 430407.0 0
329207.0 428537.0 0
326926.0 430975.0 0
333425.0 428594.0 0
331735.0 431179.0 0
336595.0 429668.0 0
341073.0 428557.0 0
344737.0 429281.0 0
340740.0 432167.0 0
345136.0 431763.0 0
347628.0 429429.0 0
348499.0 432294.0 0
351987.0 428745.0 0
355936.0 428185.0 0
352514.0 432394.0 0
355977.0 430211.0 0
358367.0 431350.0 0
361287.0 428838.0 0
365425.0 429022.0 0
362884.0 431990.0 0
369194.0 426852.0 0
369950.0 429127.0 0
367637.0 430943.0 0
372969.0 428552.0 0
375853.0 428859.0 0
372243.0 431502.0 0
375166.0 432517.0 0
378480.0 429632.0 0
381080.0 431676.0 0
382464.0 429439.0 0
385285.0 431193.0 0
107059.0 436017.0 0
104496.0 437064.0 0
109806.0 434442.0 0
112823.0 432901.0 0
111192.0 437745.0 0
115657.0 433118.0 0
113594.0 436224.0 0
116363.0 435011.0 0
115513.0 437142.0 0
117949.0 436748.0 0
120185.0 434528.0 0
123410.0 432858.0 0
122345.0 436871.0 0
127226.0 432880.0 0
124983.0 436384.0 0
133752.0 434423.0 0
128936.0 436319.0 0
130841.0 437514.0 0
137264.0 433435.0 0
134772.0 437679.0 0
138144.0 437735.0 0
140085.0 435009.0 0
142553.0 437281.0 0
144541.0 434873.0 0
147222.0 434063.0 0
145190.0 437502.0 0
148314.0 437458.0 0
150295.0 433392.0 0
154073.0 433869.0 0
151765.0 435989.0 0
159569.0 433204.0 0
156844.0 435444.0 0
160778.0 435231.0 0
162316.0 435617.0 0
164375.0 434013.0 0
167964.0 433989.0 0
165140.0 436494.0 0
168025.0 437078.0 0
174054.0 432939.0 0
171038.0 435255.0 0
173273.0 436085.0 0
175927.0 435169.0 0
179047.0 433241.0 0
181624.0 432921.0 0
184178.0 432552.0 0
180166.0 436590.0 0
183494.0 435256.0 0
187406.0 435945.0 0
190508.0 434252.0 0
192242.0 436886.0 0
195116.0 435348.0 0
198674.0 433967.0 0
202716.0 434903.0 0
209778.0 432527.0 0
206174.0 434579.0 0
208780.0 437294.0 0
214284.0 431960.0 0
211769.0 435933.0 0
215252.0 436514.0 0
218675.0 431557.0 0
218109.0 434934.0 0
221264.0 433881.0 0
224043.0 436348.0 0
227492.0 434658.0 0
230745.0 433326.0 0
233730.0 435674.0 0
237521.0 432296.0 0
236820.0 435295.0 0
240753.0 433196.0 0
245066.0 432736.0 0
243401.0 435206.0 0
248161.0 432873.0 0
246498.0 436103.0 0
251796.0 432551.0 0
250273.0 437068.0 0
254436.0 436149.0 0
255561.0 432458.0 0
258792.0 432614.0 0
258373.0 436223.0 0
262255.0 435674.0 0
266176.0 435986.0 0
269642.0 434378.0 0
273729.0 432312.0 0
273001.0 435298.0 0
278497.0 432601.0 0
276949.0 435942.0 0
282310.0 432542.0 0
281319.0 436134.0 0
287702.0 432103.0 0
285500.0 435635.0 0
289455.0 436781.0 0
291019.0 433802.0 0
294662.0 434354.0 0
299426.0 435297.0 0
303415.0 433866.0 0
308981.0 433010.0 0
306912.0 435390.0 0
309602.0 437196.0 0
312265.0 434962.0 0
315220.0 433994.0 0
318021.0 433099.0 0
318294.0 436656.0 0
321763.0 434508.0 0
324989.0 433640.0 0
322398.0 437525.0 0
329580.0 433807.0 0
325616.0 437479.0 0
328712.0 436710.0 0
333413.0 436371.0 0
335933.0 433146.0 0
337849.0 436701.0 0
339633.0 435148.0 0
343732.0 434318.0 0
341952.0 437074.0 0
347151.0 435965.0 0
350983.0 436369.0 0
354000.0 437399.0 0
356002.0 434800.0 0
359579.0 433440.0 0
358505.0 437359.0 0
361678.0 434777.0 0
365341.0 432820.0 0
366179.0 435073.0 0
363856.0 436942.0 0
369654.0 433526.0 0
368236.0 437113.0 0
374456.0 435755.0 0
371841.0 435682.0 0
378366.0 433062.0 0
379433.0 436091.0 0
376678.0 437341.0 0
383110.0 433325.0 0
382131.0 435050.0 0
384584.0 435325.0 0
387676.0 433416.0 0
390664.0 434091.0 0
388079.0 437050.0 0
392844.0 435998.0 0
395720.0 437707.0 0
96263.5 443004.0 0
98861.5 440743.0 0
102327.0 439487.0 0
107917.0 439342.0 0
105047.0 441514.0 0
112750.0 440357.0 0
109818.0 441744.0 0
115103.0 439304.0 0
118575.0 438952.0 0
116935.0 440405.0 0
121237.0 439821.0 0
120311.0 442757.0 0
124315.0 440487.0 0
127052.0 437937.0 0
127041.0 440496.0 0
130267.0 440622.0 0
133204.0 440863.0 0
135994.0 441184.0 0
139143.0 440605.0 0
142289.0 439944.0 0
145973.0 440317.0 0
148401.0 442234.0 0
150181.0 439933.0 0
153809.0 438824.0 0
152035.0 442810.0 0
159140.0 437681.0 0
156828.0 440729.0 0
162706.0 439200.0 0
164679.0 442352.0 0
166820.0 440348.0 0
170690.0 438528.0 0
173490.0 438593.0 0
169920.0 441461.0 0
173431.0 441424.0 0
176656.0 438208.0 0
176787.0 441350.0 0
184786.0 439198.0 0
180625.0 440647.0 0
189696.0 438512.0 0
187571.0 441060.0 0
193693.0 439207.0 0
191312.0 441703.0 0
197228.0 438543.0 0
195170.0 441172.0 0
197526.0 442394.0 0
200806.0 438340.0 0
205164.0 437606.0 0
204298.0 440075.0 0
208311.0 441120.0 0
212406.0 438885.0 0
212253.0 442598.0 0
219765.0 437910.0 0
215950.0 440094.0 0
223029.0 439779.0 0
226865.0 439611.0 0
230140.0 437316.0 0
230510.0 441121.0 0
233133.0 439837.0 0
239532.0 436939.0 0
236184.0 438545.0 0
238984.0 440736.0 0
243257.0 439108.0 0
246956.0 439526.0 0
252886.0 439827.0 0
256300.0 439740.0 0
260581.0 440192.0 0
264875.0 439429.0 0
267351.0 442194.0 0
269775.0 439029.0 0
273727.0 438429.0 0
273772.0 441519.0 0
276479.0 439764.0 0
280147.0 439115.0 0
281941.0 442490.0 0
284872.0 439941.0 0
289645.0 440975.0 0
293438.0 438297.0 0
297045.0 438715.0 0
296026.0 441095.0 0
298483.0 441228.0 0
304244.0 437635.0 0
301399.0 439475.0 0
304770.0 441829.0 0
309769.0 440548.0 0
307107.0 439417.0 0
311606.0 438989.0 0
314795.0 437823.0 0
314691.0 442053.0 0
318232.0 441037.0 0
321405.0 440650.0 0
324724.0 441381.0 0
328307.0 440563.0 0
331190.0 438971.0 0
331598.0 442676.0 0
334039.0 440979.0 0
335964.0 438935.0 0
339895.0 439296.0 0
337967.0 441866.0 0
344190.0 438801.0 0
342495.0 441821.0 0
345491.0 442243.0 0
347466.0 439666.0 0
351055.0 439325.0 0
353926.0 439910.0 0
356624.0 440027.0 0
359718.0 442318.0 0
361306.0 439517.0 0
364351.0 442083.0 0
366852.0 440203.0 0
371235.0 438214.0 0
370245.0 440516.0 0
376286.0 439939.0 0
373666.0 439247.0 0
372531.0 442151.0 0
375620.0 442636.0 0
381287.0 438714.0 0
378917.0 440715.0 0
384790.0 438301.0 0
385837.0 441496.0 0
382155.0 442993.0 0
390837.0 438905.0 0
389375.0 441800.0 0
394315.0 440552.0 0
398422.0 439165.0 0
401297.0 440910.0 0
397910.0 441729.0 0
404271.0 442608.0 0
87351.1 448454.0 0
90247.5 446375.0 0
93268.0 444539.0 0
94944.9 447462.0 0
98193.6 445767.0 0
100808.0 443543.0 0
102608.0 445717.0 0
106118.0 444575.0 0
105856.0 447475.0 0
109729.0 444813.0 0
113680.0 443244.0 0
113420.0 446340.0 0
110211.0 447937.0 0
117020.0 443231.0 0
116997.0 446363.0 0
120706.0 445369.0 0
123580.0 443390.0 0
123032.0 446316.0 0
119433.0 447712.0 0
125840.0 445236.0 0
126939.0 443354.0 0
128257.0 447227.0 0
130049.0 444245.0 0
133271.0 443576.0 0
133053.0 446625.0 0
136021.0 443599.0 0
135574.0 445625.0 0
137570.0 446981.0 0
139351.0 443965.0 0
143539.0 443514.0 0
141374.0 447438.0 0
146624.0 445575.0 0
150397.0 446449.0 0
153920.0 447025.0 0
154941.0 443769.0 0
157833.0 446212.0 0
160278.0 442927.0 0
163523.0 445264.0 0
166686.0 443433.0 0
166205.0 447541.0 0
169565.0 445317.0 0
173446.0 444586.0 0
173749.0 447426.0 0
176821.0 444867.0 0
179881.0 444153.0 0
183904.0 442580.0 0
180795.0 447351.0 0
182785.0 444585.0 0
186009.0 443640.0 0
189045.0 444891.0 0
184958.0 447079.0 0
194010.0 443797.0 0
192321.0 447430.0 0
196922.0 446203.0 0
199843.0 445694.0 0
200830.0 442400.0 0
204853.0 444585.0 0
208958.0 446086.0 0
212657.0 447393.0 0
215862.0 444325.0 0
218546.0 446590.0 0
219926.0 442422.0 0
224037.0 442988.0 0
221899.0 446965.0 0
228219.0 443752.0 0
225588.0 446232.0 0
232090.0 444677.0 0
235742.0 442534.0 0
235126.0 446693.0 0
238987.0 445704.0 0
241816.0 442792.0 0
243236.0 446202.0 0
245360.0 442887.0 0
249682.0 442408.0 0
247109.0 446202.0 0
254011.0 443349.0 0
251213.0 447089.0 0
257686.0 443063.0 0
263613.0 443276.0 0
260271.0 445255.0 0
263150.0 447355.0 0
267113.0 446682.0 0
270747.0 443558.0 0
274906.0 445368.0 0
278181.0 442909.0 0
281696.0 445674.0 0
287263.0 443628.0 0
285181.0 444631.0 0
289045.0 445630.0 0
293493.0 442447.0 0
292290.0 445899.0 0
297311.0 445134.0 0
301246.0 443511.0 0
304194.0 446699.0 0
307802.0 444158.0 0
311143.0 443371.0 0
311737.0 446832.0 0
318773.0 444417.0 0
315671.0 446826.0 0
321191.0 443754.0 0
323750.0 445288.0 0
320630.0 447809.0 0
328009.0 444894.0 0
333661.0 445132.0 0
331510.0 447325.0 0
335781.0 442988.0 0
340374.0 444521.0 0
337115.0 446933.0 0
345066.0 445431.0 0
342835.0 447467.0 0
348257.0 444575.0 0
350293.0 442453.0 0
348156.0 448163.0 0
353495.0 444029.0 0
351350.0 447022.0 0
356944.0 443590.0 0
358547.0 447158.0 0
362608.0 445601.0 0
366970.0 445823.0 0
369486.0 443971.0 0
369434.0 447407.0 0
374404.0 445134.0 0
371865.0 446456.0 0
378406.0 443639.0 0
381079.0 445925.0 0
377652.0 447275.0 0
384572.0 445274.0 0
383654.0 447676.0 0
387359.0 445535.0 0
391388.0 445506.0 0
394082.0 443294.0 0
398048.0 445159.0 0
401855.0 443731.0 0
401189.0 447497.0 0
403861.0 446072.0 0
406616.0 444725.0 0
409727.0 446053.0 0
412352.0 448204.0 0
81247.6 451593.0 0
84363.0 450388.0 0
87384.0 452579.0 0
89631.5 450242.0 0
92116.0 448902.0 0
92980.8 451487.0 0
90228.7 452648.0 0
95976.4 450119.0 0
93179.7 453950.0 0
96535.0 453030.0 0
99046.3 448566.0 0
102493.0 448529.0 0
99419.0 451639.0 0
107280.0 449638.0 0
103472.0 451631.0 0
112233.0 450843.0 0
108792.0 452569.0 0
114949.0 448930.0 0
117592.0 451042.0 0
115498.0 453286.0 0
121224.0 449758.0 0
119760.0 453567.0 0
122642.0 452690.0 0
125114.0 449359.0 0
127525.0 452386.0 0
130831.0 448938.0 0
131600.0 452519.0 0
135424.0 449492.0 0
138950.0 450126.0 0
135664.0 452634.0 0
137992.0 452796.0 0
141127.0 452144.0 0
144739.0 449760.0 0
149296.0 451287.0 0
153388.0 450596.0 0
157341.0 450118.0 0
161353.0 448225.0 0
160222.0 452342.0 0
163877.0 451029.0 0
168893.0 450982.0 0
171737.0 448258.0 0
172916.0 451386.0 0
177020.0 449208.0 0
179221.0 452743.0 0
182002.0 450253.0 0
184926.0 450697.0 0
188269.0 449180.0 0
191782.0 452682.0 0
195567.0 449751.0 0
199017.0 449930.0 0
202239.0 447785.0 0
203228.0 451849.0 0
206075.0 449054.0 0
209287.0 450838.0 0
213235.0 451395.0 0
216040.0 448455.0 0
218886.0 449118.0 0
216696.0 451950.0 0
221037.0 451781.0 0
225062.0 450197.0 0
229376.0 448841.0 0
233300.0 449547.0 0
237150.0 449837.0 0
241070.0 449633.0 0
244887.0 449717.0 0
248574.0 449663.0 0
256047.0 447992.0 0
260874.0 450409.0 0
264963.0 451610.0 0
268919.0 450343.0 0
271712.0 447987.0 0
272371.0 452562.0 0
278684.0 447555.0 0
275772.0 450013.0 0
279952.0 452301.0 0
284911.0 447537.0 0
282586.0 449490.0 0
287733.0 448251.0 0
285387.0 450670.0 0
288312.0 452252.0 0
291466.0 449858.0 0
295601.0 449171.0 0
299290.0 452222.0 0
300432.0 448467.0 0
304417.0 451761.0 0
308719.0 449082.0 0
313291.0 451974.0 0
317898.0 450934.0 0
324431.0 448967.0 0
322169.0 452996.0 0
327545.0 448633.0 0
326767.0 452215.0 0
334855.0 449870.0 0
330505.0 450915.0 0
339956.0 449994.0 0
345451.0 450003.0 0
342677.0 452963.0 0
348940.0 451269.0 0
351858.0 450758.0 0
355025.0 448359.0 0
356087.0 451470.0 0
359860.0 450953.0 0
363581.0 449615.0 0
364397.0 452776.0 0
367293.0 449436.0 0
370694.0 449971.0 0
367366.0 452732.0 0
370552.0 452785.0 0
374338.0 449781.0 0
373977.0 453203.0 0
377539.0 451363.0 0
381350.0 450255.0 0
386425.0 448743.0 0
385408.0 451581.0 0
389148.0 449226.0 0
388805.0 452061.0 0
392074.0 449550.0 0
395726.0 448224.0 0
392329.0 452807.0 0
400938.0 450413.0 0
397188.0 452535.0 0
404574.0 448589.0 0
404476.0 452343.0 0
407389.0 448482.0 0
410220.0 450620.0 0
415463.0 449923.0 0
413314.0 452282.0 0
418452.0 452463.0 0
71997.2 457380.0 0
74988.5 455597.0 0
78191.6 454187.0 0
81524.6 454322.0 0
78374.1 457594.0 0
81840.7 457404.0 0
84536.9 453980.0 0
85433.7 457818.0 0
87923.2 455186.0 0
91112.7 456192.0 0
95761.3 456171.0 0
100346.0 454730.0 0
98396.2 457655.0 0
102805.0 456561.0 0
105512.0 454339.0 0
107311.0 457044.0 0
110079.0 455561.0 0
112686.0 454484.0 0
117001.0 456310.0 0
113844.0 457201.0 0
120996.0 457405.0 0
124716.0 455288.0 0
128155.0 455849.0 0
127002.0 458021.0 0
130945.0 456496.0 0
135089.0 456062.0 0
139814.0 456497.0 0
144531.0 454513.0 0
148222.0 456243.0 0
152495.0 455324.0 0
155553.0 453708.0 0
158094.0 455665.0 0
162187.0 455398.0 0
166176.0 454917.0 0
170545.0 455741.0 0
175155.0 454543.0 0
178853.0 457456.0 0
182995.0 454216.0 0
187402.0 453223.0 0
186279.0 456984.0 0
189552.0 457058.0 0
193263.0 457186.0 0
196446.0 453755.0 0
199435.0 456630.0 0
200184.0 453473.0 0
203646.0 456898.0 0
206446.0 452906.0 0
208245.0 455793.0 0
211094.0 454487.0 0
214271.0 455865.0 0
218448.0 454688.0 0
224185.0 453941.0 0
221609.0 456430.0 0
227544.0 453561.0 0
225555.0 456965.0 0
229100.0 457316.0 0
231059.0 453454.0 0
234651.0 453125.0 0
232806.0 457448.0 0
239046.0 453338.0 0
236564.0 455978.0 0
242913.0 453646.0 0
247339.0 453386.0 0
249268.0 456895.0 0
252181.0 452560.0 0
252282.0 456997.0 0
254843.0 456615.0 0
257441.0 453681.0 0
261805.0 455759.0 0
268467.0 453006.0 0
266094.0 456308.0 0
269965.0 456285.0 0
273860.0 456947.0 0
276473.0 454320.0 0
276615.0 457350.0 0
279773.0 457549.0 0
284336.0 454929.0 0
288987.0 456090.0 0
291656.0 454360.0 0
294965.0 453018.0 0
294221.0 456628.0 0
297589.0 456392.0 0
302519.0 456029.0 0
308387.0 453621.0 0
306143.0 455841.0 0
308731.0 457898.0 0
311484.0 455979.0 0
314436.0 456948.0 0
317922.0 455685.0 0
322374.0 457937.0 0
329949.0 455086.0 0
326107.0 456324.0 0
333752.0 453946.0 0
337693.0 452823.0 0
336705.0 456467.0 0
340534.0 456494.0 0
344571.0 457556.0 0
347027.0 454221.0 0
351052.0 454744.0 0
354252.0 453573.0 0
355749.0 456334.0 0
357863.0 454198.0 0
359497.0 457940.0 0
361657.0 454876.0 0
365491.0 455888.0 0
368858.0 455993.0 0
372547.0 456729.0 0
377289.0 454099.0 0
381059.0 454137.0 0
376863.0 457201.0 0
380881.0 457696.0 0
384444.0 454733.0 0
384582.0 458093.0 0
387714.0 455075.0 0
391501.0 456464.0 0
395855.0 457006.0 0
400930.0 455229.0 0
399467.0 458244.0 0
404387.0 456700.0 0
408286.0 453606.0 0
408133.0 458575.0 0
412083.0 455809.0 0
415638.0 454092.0 0
416129.0 457587.0 0
419730.0 456199.0 0
422805.0 454806.0 0
426272.0 456082.0 0
424093.0 457992.0 0
63303.6 462816.0 0
66696.7 461412.0 0
69047.0 458798.0 0
71277.9 460929.0 0
75129.4 458806.0 0
73583.2 462933.0 0
76593.7 461781.0 0
80148.3 461128.0 0
84054.0 462061.0 0
88910.7 459326.0 0
91853.6 461711.0 0
87747.8 463504.0 0
93843.2 458976.0 0
96518.1 460634.0 0
94610.6 463397.0 0
100971.0 459378.0 0
99143.4 462015.0 0
104658.0 458831.0 0
107877.0 460920.0 0
103452.0 462353.0 0
111051.0 458692.0 0
112156.0 461327.0 0
114943.0 460269.0 0
117931.0 460087.0 0
113862.0 463553.0 0
121853.0 462317.0 0
124537.0 458794.0 0
126128.0 460858.0 0
129006.0 458776.0 0
129459.0 461931.0 0
132695.0 459525.0 0
133069.0 463564.0 0
136550.0 460289.0 0
140732.0 461383.0 0
144034.0 459110.0 0
147744.0 460172.0 0
151391.0 459329.0 0
149521.0 463231.0 0
153537.0 462599.0 0
155436.0 458567.0 0
157823.0 462471.0 0
160170.0 458901.0 0
162218.0 462945.0 0
164334.0 458939.0 0
167757.0 458559.0 0
166612.0 462423.0 0
169481.0 459787.0 0
173416.0 459254.0 0
170566.0 463140.0 0
177047.0 461795.0 0
183111.0 458575.0 0
181547.0 462760.0 0
186472.0 460763.0 0
190778.0 460647.0 0
196655.0 457975.0 0
194909.0 461464.0 0
199760.0 461071.0 0
203943.0 461473.0 0
207587.0 460026.0 0
211156.0 458507.0 0
214031.0 461214.0 0
217663.0 458561.0 0
220772.0 460647.0 0
223082.0 459545.0 0
226452.0 461329.0 0
230658.0 461049.0 0
233841.0 461828.0 0
236119.0 459287.0 0
237467.0 462000.0 0
240584.0 458310.0 0
244170.0 460777.0 0
245143.0 457331.0 0
247508.0 460387.0 0
251301.0 460143.0 0
254761.0 459862.0 0
258165.0 458262.0 0
264416.0 459827.0 0
261129.0 460387.0 0
268513.0 460914.0 0
271204.0 458810.0 0
273285.0 460917.0 0
276635.0 460141.0 0
283359.0 460569.0 0
287644.0 459566.0 0
291906.0 458879.0 0
290484.0 462435.0 0
293603.0 462892.0 0
295466.0 459621.0 0
300075.0 460216.0 0
305491.0 459923.0 0
308963.0 461342.0 0
312326.0 460149.0 0
316096.0 459922.0 0
319422.0 459434.0 0
318527.0 462339.0 0
322582.0 462707.0 0
325875.0 460478.0 0
329595.0 458785.0 0
329145.0 461893.0 0
333292.0 458170.0 0
337358.0 460228.0 0
341460.0 460840.0 0
345615.0 461660.0 0
348322.0 458340.0 0
350050.0 463020.0 0
352579.0 458934.0 0
356826.0 460355.0 0
358933.0 463219.0 0
363733.0 458482.0 0
361414.0 461098.0 0
365100.0 462422.0 0
367522.0 459400.0 0
371559.0 461042.0 0
375651.0 460340.0 0
379545.0 461216.0 0
383425.0 461675.0 0
388107.0 458906.0 0
387240.0 462111.0 0
390872.0 463536.0 0
391902.0 460194.0 0
395274.0 460487.0 0
398674.0 461261.0 0
402461.0 459160.0 0
404869.0 460439.0 0
402139.0 462661.0 0
410296.0 462642.0 0
412833.0 459450.0 0
414024.0 462074.0 0
417366.0 460863.0 0
421075.0 459597.0 0
422026.0 462991.0 0
426131.0 461699.0 0
428714.0 458824.0 0
432193.0 460844.0 0
435741.0 462810.0 0
56282.6 468405.0 0
60712.3 466057.0 0
65526.2 464860.0 0
65204.2 467499.0 0
69089.2 464422.0 0
68932.8 468401.0 0
72798.9 466012.0 0
76513.3 465295.0 0
79711.3 464634.0 0
82983.6 466715.0 0
87047.7 467098.0 0
91279.4 466059.0 0
97357.6 464654.0 0
94973.4 467210.0 0
100964.0 465102.0 0
98707.0 468085.0 0
102938.0 467293.0 0
105986.0 465257.0 0
110241.0 463920.0 0
108926.0 467661.0 0
112959.0 467455.0 0
117188.0 464045.0 0
119748.0 466493.0 0
122828.0 466596.0 0
126221.0 464669.0 0
129772.0 466140.0 0
137469.0 464466.0 0
134172.0 468046.0 0
141270.0 464846.0 0
139056.0 468383.0 0
143075.0 467799.0 0
144822.0 463383.0 0
147598.0 466931.0 0
152160.0 466486.0 0
155797.0 465856.0 0
159745.0 466921.0 0
163951.0 466424.0 0
167787.0 466613.0 0
174063.0 463732.0 0
172372.0 467846.0 0
177185.0 466087.0 0
185302.0 465361.0 0
188850.0 463864.0 0
188954.0 467896.0 0
192357.0 465299.0 0
196932.0 466083.0 0
202096.0 465488.0 0
206565.0 464344.0 0
209639.0 467526.0 0
210603.0 462963.0 0
214252.0 466631.0 0
217860.0 463174.0 0
219203.0 467245.0 0
222330.0 463836.0 0
228888.0 464269.0 0
225727.0 466219.0 0
229264.0 468047.0 0
231897.0 464892.0 0
235843.0 465791.0 0
241169.0 463813.0 0
245936.0 464663.0 0
249820.0 463489.0 0
246461.0 468728.0 0
253477.0 463969.0 0
257617.0 463057.0 0
259123.0 467226.0 0
261588.0 464332.0 0
264958.0 463867.0 0
269066.0 465387.0 0
266373.0 467790.0 0
271804.0 463760.0 0
272893.0 467622.0 0
275267.0 464151.0 0
279357.0 463319.0 0
283084.0 465084.0 0
286997.0 464753.0 0
291419.0 467246.0 0
296956.0 463042.0 0
295864.0 466695.0 0
299855.0 465576.0 0
303313.0 463433.0 0
303406.0 467461.0 0
307422.0 464780.0 0
311026.0 463743.0 0
315152.0 464295.0 0
311940.0 467941.0 0
319549.0 466070.0 0
323089.0 466885.0 0
327261.0 465458.0 0
333333.0 463312.0 0
338959.0 464329.0 0
336504.0 467009.0 0
339236.0 468158.0 0
342764.0 464533.0 0
342041.0 467541.0 0
346553.0 467300.0 0
354913.0 464065.0 0
352050.0 467816.0 0
355901.0 468355.0 0
358173.0 466512.0 0
362253.0 465903.0 0
368824.0 463814.0 0
366831.0 467220.0 0
372329.0 466346.0 0
375788.0 464159.0 0
380416.0 465302.0 0
377227.0 468175.0 0
385008.0 466286.0 0
388124.0 464964.0 0
389295.0 467239.0 0
395053.0 464412.0 0
392809.0 467203.0 0
398717.0 465144.0 0
399739.0 467866.0 0
402606.0 466468.0 0
406189.0 463807.0 0
405018.0 468326.0 0
408062.0 466823.0 0
411736.0 466403.0 0
414776.0 465061.0 0
416830.0 468190.0 0
418489.0 464164.0 0
421052.0 467021.0 0
424785.0 466557.0 0
428890.0 466138.0 0
431053.0 463647.0 0
434218.0 465524.0 0
436924.0 466677.0 0
439030.0 464620.0 0
438898.0 467757.0 0
442279.0 467525.0 0
49224.5 472196.0 0
52257.3 469816.0 0
55013.9 472193.0 0
52609.6 473191.0 0
59705.4 471617.0 0
63467.9 470219.0 0
66808.6 472322.0 0
71297.6 472643.0 0
73693.5 469327.0 0
75260.8 472830.0 0
77949.7 468981.0 0
82124.9 471199.0 0
78695.9 473033.0 0
85467.2 469716.0 0
85413.9 472942.0 0
89114.0 470121.0 0
92664.8 473110.0 0
92959.4 469832.0 0
96347.4 471416.0 0
101391.0 470608.0 0
105673.0 469295.0 0
105194.0 473701.0 0
109278.0 470973.0 0
112900.0 471659.0 0
116745.0 468411.0 0
116478.0 472355.0 0
120848.0 470616.0 0
126015.0 469262.0 0
128174.0 473502.0 0
130318.0 469741.0 0
132499.0 473195.0 0
136606.0 472087.0 0
141266.0 471804.0 0
145781.0 471392.0 0
150735.0 470669.0 0
155650.0 470184.0 0
159777.0 471118.0 0
162306.0 469578.0 0
165299.0 469964.0 0
168875.0 470181.0 0
167254.0 473163.0 0
176398.0 470973.0 0
181171.0 468403.0 0
183715.0 471880.0 0
185382.0 469088.0 0
187941.0 472596.0 0
193014.0 470555.0 0
197947.0 471289.0 0
200239.0 468487.0 0
202169.0 470344.0 0
204614.0 472724.0 0
205278.0 468627.0 0
208019.0 471398.0 0
212272.0 472112.0 0
217026.0 471642.0 0
222842.0 467995.0 0
220940.0 470943.0 0
225421.0 471974.0 0
230379.0 472167.0 0
233097.0 469301.0 0
239488.0 468384.0 0
236766.0 471303.0 0
243269.0 468804.0 0
241170.0 472504.0 0
246212.0 473272.0 0
250656.0 468514.0 0
255586.0 468106.0 0
258825.0 472167.0 0
262602.0 468501.0 0
262488.0 472248.0 0
269452.0 469533.0 0
265954.0 472335.0 0
272045.0 471410.0 0
277378.0 467960.0 0
275511.0 472040.0 0
280006.0 472944.0 0
281314.0 468307.0 0
284810.0 468047.0 0
284123.0 471537.0 0
287640.0 469715.0 0
290557.0 472628.0 0
294689.0 470953.0 0
299189.0 469987.0 0
303604.0 471566.0 0
307406.0 469208.0 0
310419.0 471931.0 0
314213.0 472667.0 0
316625.0 469248.0 0
320781.0 469826.0 0
324445.0 469709.0 0
322916.0 472908.0 0
328041.0 469968.0 0
330572.0 473272.0 0
332573.0 468727.0 0
337203.0 470493.0 0
340726.0 470858.0 0
343296.0 470324.0 0
345666.0 471830.0 0
349884.0 472146.0 0
355161.0 472676.0 0
359843.0 470450.0 0
363824.0 470089.0 0
370254.0 469875.0 0
366931.0 472063.0 0
370977.0 473594.0 0
374159.0 470752.0 0
378567.0 472095.0 0
381789.0 469498.0 0
382932.0 473281.0 0
386800.0 471057.0 0
391600.0 470731.0 0
396316.0 469303.0 0
394939.0 473507.0 0
398456.0 472558.0 0
401242.0 470527.0 0
404918.0 471595.0 0
409090.0 470797.0 0
413520.0 469973.0 0
417287.0 472748.0 0
420161.0 470233.0 0
421684.0 473361.0 0
423722.0 470390.0 0
425295.0 473656.0 0
427973.0 471030.0 0
431499.0 473500.0 0
432775.0 469154.0 0
437140.0 469943.0 0
435402.0 473457.0 0
440000.0 470707.0 0
446349.0 469681.0 0
443297.0 472713.0 0
450331.0 470791.0 0
448378.0 473421.0 0
452965.0 473728.0 0
41973.1 476741.0 0
45331.0 474083.0 0
45163.9 477239.0 0
49368.7 476312.0 0
53887.2 475865.0 0
56696.1 474762.0 0
56692.0 478125.0 0
60044.2 476083.0 0
63215.7 474213.0 0
63669.8 477811.0 0
66302.8 475976.0 0
69436.1 476091.0 0
73163.2 476221.0 0
76995.3 476196.0 0
81611.3 475516.0 0
85919.0 476577.0 0
89206.2 474296.0 0
91887.6 476065.0 0
89519.4 477805.0 0
92447.3 478291.0 0
95091.0 475949.0 0
99267.2 474295.0 0
97896.9 478234.0 0
101974.0 477506.0 0
106838.0 478333.0 0
110139.0 474974.0 0
114177.0 475665.0 0
119007.0 475641.0 0
122706.0 477572.0 0
123784.0 473925.0 0
126626.0 477312.0 0
130668.0 476895.0 0
132636.0 480217.0 0
134470.0 476734.0 0
138997.0 476318.0 0
143929.0 476080.0 0
149025.0 475440.0 0
153651.0 474591.0 0
157792.0 474461.0 0
155611.0 477489.0 0
159123.0 478341.0 0
162614.0 474222.0 0
167748.0 477859.0 0
171907.0 473593.0 0
176328.0 476119.0 0
180072.0 473640.0 0
183862.0 475954.0 0
180142.0 478540.0 0
187879.0 477636.0 0
191462.0 475173.0 0
195517.0 475756.0 0
201187.0 474928.0 0
207812.0 476069.0 0
211697.0 476141.0 0
215785.0 476809.0 0
220729.0 475205.0 0
229259.0 475316.0 0
226291.0 476493.0 0
233557.0 474182.0 0
231538.0 477457.0 0
238129.0 475544.0 0
235037.0 478673.0 0
242534.0 476820.0 0
250463.0 472927.0 0
254153.0 473016.0 0
250353.0 476385.0 0
253769.0 476747.0 0
257446.0 477637.0 0
262610.0 476524.0 0
269686.0 473181.0 0
268120.0 477557.0 0
272600.0 475328.0 0
276485.0 476738.0 0
283865.0 475744.0 0
280216.0 477429.0 0
287015.0 473779.0 0
293722.0 475642.0 0
297090.0 473778.0 0
297517.0 477621.0 0
300415.0 474597.0 0
304111.0 475467.0 0
307177.0 473677.0 0
306959.0 477838.0 0
310694.0 475955.0 0
314902.0 477551.0 0
318926.0 474013.0 0
323966.0 477787.0 0
326501.0 473473.0 0
329018.0 476795.0 0
334672.0 473455.0 0
332360.0 476492.0 0
335767.0 477890.0 0
339170.0 474436.0 0
343049.0 473571.0 0
342754.0 477482.0 0
346847.0 476286.0 0
351465.0 476784.0 0
354516.0 476751.0 0
359399.0 474401.0 0
357357.0 476938.0 0
360941.0 477562.0 0
363252.0 473981.0 0
364574.0 478013.0 0
367558.0 475731.0 0
375181.0 474826.0 0
371755.0 477766.0 0
379639.0 476370.0 0
383506.0 477263.0 0
386861.0 475331.0 0
390816.0 474610.0 0
389215.0 477610.0 0
391365.0 477430.0 0
394192.0 477319.0 0
398112.0 475937.0 0
402256.0 474874.0 0
407038.0 474830.0 0
405042.0 478468.0 0
409360.0 477583.0 0
412370.0 474533.0 0
416842.0 477115.0 0
420395.0 476066.0 0
424170.0 476347.0 0
428614.0 476186.0 0
433082.0 476631.0 0
436565.0 476558.0 0
439120.0 474173.0 0
442795.0 476358.0 0
439820.0 478671.0 0
446252.0 476550.0 0
450419.0 477040.0 0
456659.0 475211.0 0
454554.0 478200.0 0
459586.0 477846.0 0
29782.8 484121.0 0
32711.2 481939.0 0
34377.3 480097.0 0
38110.5 480252.0 0
41640.1 484006.0 0
42927.1 480254.0 0
45935.7 479515.0 0
45560.8 482903.0 0
48816.6 480527.0 0
53041.2 479764.0 0
56936.1 481780.0 0
53817.9 483430.0 0
60326.3 479842.0 0
60157.1 483406.0 0
64420.2 482091.0 0
67440.0 479118.0 0
71177.4 479423.0 0
68740.8 482621.0 0
74910.5 479472.0 0
72774.7 482645.0 0
76779.6 482726.0 0
78915.0 479124.0 0
80753.6 482191.0 0
83101.6 479292.0 0
86982.4 479971.0 0
85037.5 483683.0 0
90521.9 481535.0 0
94797.2 480359.0 0
96405.4 482679.0 0
99513.6 481481.0 0
103687.0 481116.0 0
107215.0 482590.0 0
111030.0 479326.0 0
110504.0 483980.0 0
113524.0 482170.0 0
115723.0 479080.0 0
116504.0 483147.0 0
119732.0 480110.0 0
124511.0 481474.0 0
129113.0 480414.0 0
136905.0 481122.0 0
141989.0 481005.0 0
146871.0 480512.0 0
151883.0 479408.0 0
155903.0 482378.0 0
163032.0 479401.0 0
160515.0 482985.0 0
172810.0 478952.0 0
170243.0 482195.0 0
173476.0 483517.0 0
176704.0 481089.0 0
184010.0 480613.0 0
180512.0 483286.0 0
188179.0 482227.0 0
191700.0 479151.0 0
198956.0 479149.0 0
195076.0 480567.0 0
196890.0 483541.0 0
203801.0 479041.0 0
201052.0 483163.0 0
207716.0 480837.0 0
205267.0 483345.0 0
211746.0 480226.0 0
219355.0 479633.0 0
216170.0 482300.0 0
223459.0 479208.0 0
228515.0 479475.0 0
230720.0 482894.0 0
232100.0 480563.0 0
239345.0 480564.0 0
235068.0 483868.0 0
243598.0 480658.0 0
246897.0 478928.0 0
245596.0 482483.0 0
249164.0 482917.0 0
252791.0 480344.0 0
256727.0 482879.0 0
261100.0 481544.0 0
265027.0 480908.0 0
268741.0 482990.0 0
272809.0 479985.0 0
277664.0 481943.0 0
283419.0 480753.0 0
288916.0 478593.0 0
293922.0 480170.0 0
297899.0 482546.0 0
302134.0 479223.0 0
306097.0 481912.0 0
310884.0 481421.0 0
319087.0 478887.0 0
316142.0 483101.0 0
321657.0 482934.0 0
328105.0 479717.0 0
332153.0 480923.0 0
339475.0 478949.0 0
337232.0 482848.0 0
345231.0 480213.0 0
342054.0 481832.0 0
349506.0 481072.0 0
354587.0 480133.0 0
358466.0 480319.0 0
362509.0 482102.0 0
365757.0 483461.0 0
367894.0 480517.0 0
372748.0 482716.0 0
376581.0 479758.0 0
381535.0 481243.0 0
386410.0 480022.0 0
391138.0 480639.0 0
388535.0 483499.0 0
394999.0 481416.0 0
397624.0 479449.0 0
399292.0 482394.0 0
401104.0 479133.0 0
403327.0 482784.0 0
408532.0 481815.0 0
412970.0 479272.0 0
413949.0 482957.0 0
417534.0 481096.0 0
421812.0 479526.0 0
421246.0 483010.0 0
425709.0 479130.0 0
425782.0 483033.0 0
428476.0 479772.0 0
429945.0 482462.0 0
431774.0 479796.0 0
435570.0 479594.0 0
434459.0 483896.0 0
438452.0 482460.0 0
442523.0 483097.0 0
444407.0 479793.0 0
447830.0 479507.0 0
447214.0 483421.0 0
451187.0 480941.0 0
454828.0 482562.0 0
457622.0 480650.0 0
462227.0 482211.0 0
458349.0 483453.0 0
463404.0 479151.0 0
466480.0 481667.0 0
22935.2 488055.0 0
26456.2 486285.0 0
30771.7 488445.0 0
34266.1 484794.0 0
35690.3 489065.0 0
37944.6 485063.0 0
40355.8 488502.0 0
45267.8 487519.0 0
49748.5 484132.0 0
49329.6 488243.0 0
52666.9 486636.0 0
57093.2 486712.0 0
62558.3 485987.0 0
66542.5 485769.0 0
70570.9 486151.0 0
74443.1 486479.0 0
77445.1 485879.0 0
80343.7 485521.0 0
82694.7 488849.0 0
86384.5 487472.0 0
89536.0 485512.0 0
88669.7 488405.0 0
93824.2 485082.0 0
98288.1 485446.0 0
100333.0 488773.0 0
103148.0 485286.0 0
107198.0 486903.0 0
111408.0 487942.0 0
113743.0 485090.0 0
116224.0 487912.0 0
120413.0 484726.0 0
124922.0 486559.0 0
128545.0 484041.0 0
133037.0 484995.0 0
129063.0 488307.0 0
137153.0 484878.0 0
137387.0 488376.0 0
140269.0 484951.0 0
144625.0 485179.0 0
150070.0 485171.0 0
158460.0 486506.0 0
154650.0 487077.0 0
162046.0 486776.0 0
165760.0 483897.0 0
170390.0 486715.0 0
176661.0 485479.0 0
177452.0 488411.0 0
184611.0 485036.0 0
180839.0 487871.0 0
188589.0 486314.0 0
192188.0 483834.0 0
192066.0 488060.0 0
195092.0 486395.0 0
198778.0 486991.0 0
203743.0 487919.0 0
209364.0 485573.0 0
213154.0 483840.0 0
214270.0 486700.0 0
217500.0 486774.0 0
220591.0 484082.0 0
223747.0 487778.0 0
226129.0 483934.0 0
230005.0 485743.0 0
232269.0 487433.0 0
235772.0 488929.0 0
239140.0 486842.0 0
242323.0 484269.0 0
242983.0 488955.0 0
246212.0 486191.0 0
250058.0 487598.0 0
252938.0 484960.0 0
256050.0 487562.0 0
264563.0 485123.0 0
260128.0 486206.0 0
272888.0 484840.0 0
276875.0 487987.0 0
281742.0 485744.0 0
284739.0 488601.0 0
286983.0 484764.0 0
291652.0 484271.0 0
295483.0 486610.0 0
299610.0 487064.0 0
302777.0 484395.0 0
307780.0 486627.0 0
312330.0 485865.0 0
315603.0 488245.0 0
319237.0 486631.0 0
323530.0 488013.0 0
327356.0 483770.0 0
332801.0 486314.0 0
337254.0 486849.0 0
341574.0 486046.0 0
345732.0 483964.0 0
345586.0 487660.0 0
349712.0 486629.0 0
353139.0 483913.0 0
354181.0 487267.0 0
357838.0 484440.0 0
361593.0 485864.0 0
364944.0 486181.0 0
368958.0 485164.0 0
373112.0 487502.0 0
377725.0 485060.0 0
382057.0 485270.0 0
385071.0 483911.0 0
384589.0 486982.0 0
387899.0 486605.0 0
392118.0 485177.0 0
396466.0 484793.0 0
395513.0 488789.0 0
400563.0 487065.0 0
406021.0 487072.0 0
410772.0 485601.0 0
414896.0 486958.0 0
418194.0 484800.0 0
422494.0 486313.0 0
419033.0 488715.0 0
426812.0 487725.0 0
430419.0 485952.0 0
434553.0 489084.0 0
439471.0 487080.0 0
444518.0 486975.0 0
448774.0 487278.0 0
451757.0 484734.0 0
452701.0 488312.0 0
456527.0 486715.0 0
461622.0 486524.0 0
466031.0 485502.0 0
469845.0 484203.0 0
469328.0 488539.0 0
473858.0 487364.0 0
14159.1 494253.0 0
16963.4 491513.0 0
19831.0 490000.0 0
22259.4 492888.0 0
26270.0 490104.0 0
26294.6 493915.0 0
29245.8 492154.0 0
33309.2 493169.0 0
38586.9 492915.0 0
43391.7 492439.0 0
47859.8 491887.0 0
52488.8 490386.0 0
56855.7 492795.0 0
60738.4 489476.0 0
64854.0 489296.0 0
62650.6 493154.0 0
68353.1 489159.0 0
67304.4 492774.0 0
72509.0 491345.0 0
76889.1 493297.0 0
77632.2 489229.0 0
80211.5 492437.0 0
86997.4 490811.0 0
83723.3 493503.0 0
91790.4 489612.0 0
96119.5 489124.0 0
94746.9 493119.0 0
99333.7 492932.0 0
104023.0 490076.0 0
108178.0 491204.0 0
113057.0 492067.0 0
117850.0 492233.0 0
121078.0 489449.0 0
125295.0 491081.0 0
133057.0 490144.0 0
129309.0 492991.0 0
136150.0 492393.0 0
142150.0 488747.0 0
139886.0 492382.0 0
143711.0 492523.0 0
146777.0 489750.0 0
151977.0 491440.0 0
156678.0 489825.0 0
156859.0 493473.0 0
160315.0 490140.0 0
165614.0 490016.0 0
170268.0 491298.0 0
174222.0 489294.0 0
177954.0 491634.0 0
182203.0 492690.0 0
185190.0 489329.0 0
189041.0 489968.0 0
191818.0 492731.0 0
195942.0 490687.0 0
200051.0 490167.0 0
204569.0 492971.0 0
207595.0 490464.0 0
211550.0 490480.0 0
216288.0 491012.0 0
220352.0 488929.0 0
223876.0 491842.0 0
228162.0 489601.0 0
232466.0 490718.0 0
239505.0 491384.0 0
235354.0 493358.0 0
243424.0 493068.0 0
247116.0 490822.0 0
252977.0 489875.0 0
251281.0 494293.0 0
255963.0 492409.0 0
258877.0 490172.0 0
263165.0 490056.0 0
268892.0 488790.0 0
273434.0 492402.0 0
277956.0 492985.0 0
281162.0 490768.0 0
284953.0 492749.0 0
288295.0 489791.0 0
292327.0 489767.0 0
297491.0 490867.0 0
303222.0 488898.0 0
301726.0 492954.0 0
306851.0 492835.0 0
311586.0 490040.0 0
319567.0 491078.0 0
315457.0 493053.0 0
324479.0 493712.0 0
328481.0 489468.0 0
332267.0 490946.0 0
335581.0 490136.0 0
339376.0 489247.0 0
338671.0 493083.0 0
343200.0 490823.0 0
347882.0 490835.0 0
352598.0 491121.0 0
357795.0 489260.0 0
356457.0 493088.0 0
360402.0 493199.0 0
362810.0 489478.0 0
365307.0 493986.0 0
368549.0 490001.0 0
373484.0 491786.0 0
376577.0 489554.0 0
381195.0 489409.0 0
378131.0 493546.0 0
386133.0 490554.0 0
386508.0 493973.0 0
390824.0 489492.0 0
389508.0 493494.0 0
393865.0 492910.0 0
398866.0 492323.0 0
403058.0 490887.0 0
407217.0 492275.0 0
410862.0 489603.0 0
415207.0 491536.0 0
419263.0 492934.0 0
423705.0 491274.0 0
430528.0 489626.0 0
428135.0 491842.0 0
432065.0 492512.0 0
435273.0 493384.0 0
438728.0 492047.0 0
442956.0 491023.0 0
446636.0 490127.0 0
450788.0 491654.0 0
455790.0 491105.0 0
459987.0 490621.0 0
463290.0 494022.0 0
464924.0 489730.0 0
473579.0 492040.0 0
468634.0 493281.0 0
478540.0 490034.0 0
482551.0 491820.0 0
486120.0 494475.0 0
7280.23 497909.0 0
10424.2 496415.0 0
13501.7 499313.0 0
18056.8 496000.0 0
20899.0 499549.0 0
21787.5 496791.0 0
24728.4 497557.0 0
29239.2 495939.0 0
32865.8 497785.0 0
36749.2 496708.0 0
41656.8 496630.0 0
46226.8 496089.0 0
51132.2 494781.0 0
49653.2 499229.0 0
54986.2 498117.0 0
59889.6 496927.0 0
65061.6 496821.0 0
69944.7 496335.0 0
74778.7 496251.0 0
79698.2 496500.0 0
84190.0 497353.0 0
89628.2 495459.0 0
95432.8 498035.0 0
99937.9 497198.0 0
104403.0 495058.0 0
109548.0 495661.0 0
113818.0 496741.0 0
115927.0 494583.0 0
118527.0 497093.0 0
121941.0 494120.0 0
125875.0 495390.0 0
123409.0 498975.0 0
133107.0 494901.0 0
129257.0 497978.0 0
137350.0 496043.0 0
142039.0 496154.0 0
147429.0 495243.0 0
153036.0 497231.0 0
157974.0 497246.0 0
161945.0 494228.0 0
167922.0 496053.0 0
173819.0 494378.0 0
178605.0 495844.0 0
183241.0 497589.0 0
187055.0 494132.0 0
191030.0 496833.0 0
195361.0 495912.0 0
200161.0 494150.0 0
204134.0 497293.0 0
208789.0 495217.0 0
213262.0 494667.0 0
220222.0 493347.0 0
217046.0 496467.0 0
222058.0 497417.0 0
226378.0 495515.0 0
229438.0 498459.0 0
230726.0 494346.0 0
234314.0 498503.0 0
239045.0 495991.0 0
243463.0 497786.0 0
246703.0 494900.0 0
248045.0 498532.0 0
252292.0 499729.0 0
255908.0 496610.0 0
260054.0 494247.0 0
263411.0 497187.0 0
265733.0 493778.0 0
269311.0 493956.0 0
267818.0 498075.0 0
271674.0 496410.0 0
276076.0 497195.0 0
281018.0 495071.0 0
284955.0 497466.0 0
289667.0 494551.0 0
294290.0 493920.0 0
298399.0 495972.0 0
303408.0 497649.0 0
308934.0 498974.0 0
311549.0 494626.0 0
314639.0 497959.0 0
319390.0 496064.0 0
329682.0 494062.0 0
327341.0 497618.0 0
334154.0 494585.0 0
331338.0 497857.0 0
337946.0 498086.0 0
342412.0 495763.0 0
345985.0 494143.0 0
349650.0 495203.0 0
346188.0 498603.0 0
353954.0 496183.0 0
357827.0 496154.0 0
361987.0 497874.0 0
370456.0 495205.0 0
367090.0 498525.0 0
373370.0 497167.0 0
374272.0 495011.0 0
376742.0 498159.0 0
383012.0 494321.0 0
391834.0 496715.0 0
387025.0 497426.0 0
396342.0 496278.0 0
399309.0 496154.0 0
399644.0 499279.0 0
403499.0 496119.0 0
408540.0 496172.0 0
411761.0 494335.0 0
411921.0 498426.0 0
416528.0 496708.0 0
421984.0 496055.0 0
426271.0 495225.0 0
425167.0 499211.0 0
429724.0 494695.0 0
429231.0 498170.0 0
433328.0 496654.0 0
438051.0 496631.0 0
441929.0 495115.0 0
446361.0 494299.0 0
444411.0 498851.0 0
450601.0 495573.0 0
448573.0 497765.0 0
454609.0 494604.0 0
457560.0 497572.0 0
453315.0 499242.0 0
458850.0 494272.0 0
461383.0 497872.0 0
466697.0 498251.0 0
472754.0 497124.0 0
477159.0 494573.0 0
477579.0 499051.0 0
481345.0 496213.0 0
485705.0 499529.0 0
490290.0 496966.0 0
494346.0 499533.0 0
3343.99 500063.0 0
8876.13 501856.0 0
14001.7 504436.0 0
17394.8 500735.0 0
19720.1 504196.0 0
23481.0 501947.0 0
28622.8 501478.0 0
34290.0 501348.0 0
39016.0 500931.0 0
44544.4 501116.0 0
48850.2 503797.0 0
53044.4 502550.0 0
57689.5 502050.0 0
61989.9 500627.0 0
67425.5 502067.0 0
71406.7 502408.0 0
72505.7 500005.0 0
76814.6 500536.0 0
82130.7 501381.0 0
86970.6 500211.0 0
86538.2 503701.0 0
91208.2 501168.0 0
95771.1 503871.0 0
98964.9 500602.0 0
102404.0 499393.0 0
101822.0 503945.0 0
106905.0 500516.0 0
111446.0 499406.0 0
111822.0 503230.0 0
115313.0 500551.0 0
119289.0 501173.0 0
122523.0 504136.0 0
127310.0 501975.0 0
133682.0 499265.0 0
138839.0 500977.0 0
144619.0 500022.0 0
147496.0 503852.0 0
148947.0 499688.0 0
151945.0 502300.0 0
156786.0 501849.0 0
162375.0 499810.0 0
167721.0 502669.0 0
171198.0 499676.0 0
172447.0 502623.0 0
175143.0 499395.0 0
178239.0 502538.0 0
179454.0 499717.0 0
182529.0 503073.0 0
188099.0 500847.0 0
193730.0 500482.0 0
199351.0 499988.0 0
203853.0 500880.0 0
207624.0 500359.0 0
212715.0 499196.0 0
210780.0 503377.0 0
218817.0 500308.0 0
222504.0 502118.0 0
225966.0 499814.0 0
230852.0 501980.0 0
239273.0 500803.0 0
234974.0 504086.0 0
245690.0 502932.0 0
250908.0 504554.0 0
256518.0 503694.0 0
259570.0 499143.0 0
263999.0 502257.0 0
271985.0 499978.0 0
275890.0 502966.0 0
280469.0 499768.0 0
284318.0 501936.0 0
288703.0 500803.0 0
293948.0 498991.0 0
299355.0 500647.0 0
296096.0 503428.0 0
304869.0 502206.0 0
314330.0 502569.0 0
318782.0 500983.0 0
323229.0 499018.0 0
328786.0 502555.0 0
334202.0 501257.0 0
339207.0 503805.0 0
342096.0 499854.0 0
344399.0 502779.0 0
350990.0 500428.0 0
356984.0 500884.0 0
364578.0 500733.0 0
362183.0 502743.0 0
366577.0 502901.0 0
371890.0 501098.0 0
377817.0 502809.0 0
382045.0 499408.0 0
386646.0 502548.0 0
390244.0 500497.0 0
394954.0 500816.0 0
399234.0 503682.0 0
403371.0 501558.0 0
407582.0 499729.0 0
411195.0 501837.0 0
415469.0 501785.0 0
420454.0 500392.0 0
424454.0 503599.0 0
428433.0 502089.0 0
432082.0 500708.0 0
435730.0 500100.0 0
436525.0 504326.0 0
440195.0 500943.0 0
444373.0 503963.0 0
448911.0 502034.0 0
458276.0 501788.0 0
453866.0 504425.0 0
462644.0 501717.0 0
466124.0 502600.0 0
470571.0 501490.0 0
474255.0 501287.0 0
477019.0 503061.0 0
481390.0 502606.0 0
490366.0 501788.0 0
494312.0 503419.0 0
498261.0 500008.0 0
497895.0 502989.0 0
3693.52 505845.0 0
9465.82 506272.0 0
17425.6 508814.0 0
24530.5 506916.0 0
29404.3 506546.0 0
32574.0 504775.0 0
36197.8 505201.0 0
33075.5 508562.0 0
37572.1 508389.0 0
40943.9 505692.0 0
45396.3 506446.0 0
50341.4 508557.0 0
55600.1 506384.0 0
61734.3 505904.0 0
68094.0 507828.0 0
73220.3 505059.0 0
78243.3 504965.0 0
82677.7 506336.0 0
86622.5 507298.0 0
90684.8 505636.0 0
94032.2 508957.0 0
98687.5 508273.0 0
108000.0 505381.0 0
111804.0 507732.0 0
116771.0 505452.0 0
118796.0 509093.0 0
122125.0 508800.0 0
127372.0 507264.0 0
133246.0 504603.0 0
138340.0 505895.0 0
142702.0 504803.0 0
145653.0 508029.0 0
151087.0 506987.0 0
155642.0 506766.0 0
161701.0 506622.0 0
167275.0 507665.0 0
171469.0 506979.0 0
175635.0 504945.0 0
179115.0 505297.0 0
181521.0 508758.0 0
186848.0 506721.0 0
192157.0 505211.0 0
197024.0 504849.0 0
195331.0 509020.0 0
199702.0 508420.0 0
202316.0 504680.0 0
206953.0 505087.0 0
210968.0 507891.0 0
215901.0 504495.0 0
221785.0 507236.0 0
226932.0 504472.0 0
240399.0 506238.0 0
269535.0 504262.0 0
273345.0 507379.0 0
277378.0 507826.0 0
281090.0 504946.0 0
287027.0 506830.0 0
292215.0 504180.0 0
299783.0 505378.0 0
295353.0 507928.0 0
304102.0 506497.0 0
309589.0 505444.0 0
313853.0 508808.0 0
317628.0 506241.0 0
323007.0 504373.0 0
327191.0 508202.0 0
333519.0 506990.0 0
343628.0 507382.0 0
348223.0 505037.0 0
353590.0 505851.0 0
359149.0 505964.0 0
363988.0 506624.0 0
369387.0 507054.0 0
374683.0 506386.0 0
378565.0 508656.0 0
382317.0 505281.0 0
391375.0 504538.0 0
387738.0 508070.0 0
395315.0 505585.0 0
393214.0 508977.0 0
398427.0 508902.0 0
403019.0 506271.0 0
406545.0 508697.0 0
407790.0 504561.0 0
410783.0 509433.0 0
412632.0 505202.0 0
415480.0 508074.0 0
419705.0 505396.0 0
424799.0 508445.0 0
427879.0 505535.0 0
431670.0 504537.0 0
429949.0 508943.0 0
434171.0 507872.0 0
440680.0 505434.0 0
438662.0 509345.0 0
443667.0 508431.0 0
449070.0 507491.0 0
458521.0 506741.0 0
454162.0 508491.0 0
463536.0 506039.0 0
468602.0 505514.0 0
473522.0 505193.0 0
471088.0 508620.0 0
478247.0 507327.0 0
474263.0 509198.0 0
483076.0 507319.0 0
486573.0 504893.0 0
491527.0 506587.0 0
496658.0 506671.0 0
3214.77 512072.0 0
7555.53 509645.0 0
8589.81 513500.0 0
12068.3 509980.0 0
16943.3 513857.0 0
25739.7 510815.0 0
22104.9 512200.0 0
28600.5 509793.0 0
27403.1 513816.0 0
36281.3 512653.0 0
31378.7 512427.0 0
40965.8 510217.0 0
41408.3 514646.0 0
45343.2 510936.0 0
45124.4 514513.0 0
49009.0 513449.0 0
53186.3 512473.0 0
58086.8 510644.0 0
63604.0 511034.0 0
68596.4 513236.0 0
72966.6 510203.0 0
78561.9 509949.0 0
84114.1 510782.0 0
89300.6 510360.0 0
92507.1 514377.0 0
96834.5 512144.0 0
100623.0 513611.0 0
104613.0 509560.0 0
110257.0 512495.0 0
115405.0 510560.0 0
119864.0 512771.0 0
124972.0 512390.0 0
131872.0 510153.0 0
136211.0 509220.0 0
135184.0 514076.0 0
141095.0 509710.0 0
148599.0 510442.0 0
145176.0 512882.0 0
152658.0 511573.0 0
149294.0 514063.0 0
157322.0 511162.0 0
161449.0 512462.0 0
165844.0 511667.0 0
170815.0 511974.0 0
175889.0 510137.0 0
179680.0 513466.0 0
185987.0 512245.0 0
190826.0 510252.0 0
204379.0 509254.0 0
281974.0 509634.0 0
291354.0 510942.0 0
301050.0 510140.0 0
306370.0 511085.0 0
311492.0 512222.0 0
317134.0 511049.0 0
321622.0 509877.0 0
325486.0 512722.0 0
335060.0 511721.0 0
330557.0 512323.0 0
338786.0 509426.0 0
337909.0 513736.0 0
343272.0 513601.0 0
347902.0 509876.0 0
352740.0 511609.0 0
356848.0 509551.0 0
357583.0 513974.0 0
361095.0 510520.0 0
365914.0 511261.0 0
369641.0 511470.0 0
373387.0 511493.0 0
378277.0 513773.0 0
382751.0 510704.0 0
386584.0 512908.0 0
390602.0 512701.0 0
395580.0 514002.0 0
400264.0 513124.0 0
403325.0 510853.0 0
407227.0 511838.0 0
410200.0 514544.0 0
414995.0 512888.0 0
419776.0 510634.0 0
423645.0 513144.0 0
428188.0 513253.0 0
434368.0 511623.0 0
442218.0 512381.0 0
446729.0 512127.0 0
452040.0 511784.0 0
457384.0 511973.0 0
462014.0 510165.0 0
463606.0 514268.0 0
466788.0 510209.0 0
468010.0 514405.0 0
471698.0 512336.0 0
476776.0 512707.0 0
481533.0 511078.0 0
487494.0 511271.0 0
493975.0 510627.0 0
498012.0 510071.0 0
497549.0 513825.0 0
2016.15 516607.0 0
5796.2 516979.0 0
10298.7 518317.0 0
12837.1 514418.0 0
14951.2 517966.0 0
19601.7 517696.0 0
24231.1 516650.0 0
27976.9 518091.0 0
32050.3 516595.0 0
37179.2 518287.0 0
42851.0 519642.0 0
47027.7 517154.0 0
52171.4 517584.0 0
56165.9 514736.0 0
60353.6 514837.0 0
57630.1 518533.0 0
64208.5 515176.0 0
66783.8 518139.0 0
62156.4 518654.0 0
71052.2 517080.0 0
75555.1 515005.0 0
73768.4 519098.0 0
81239.8 514845.0 0
86979.2 514709.0 0
84319.7 518801.0 0
89480.9 519120.0 0
97246.9 516407.0 0
93964.8 519000.0 0
101279.0 518567.0 0
105040.0 515558.0 0
109436.0 517740.0 0
115065.0 516218.0 0
120475.0 517434.0 0
125148.0 517404.0 0
129683.0 514699.0 0
132783.0 518016.0 0
136926.0 519061.0 0
140569.0 515292.0 0
143014.0 519369.0 0
146714.0 517315.0 0
151733.0 517860.0 0
155198.0 514856.0 0
158942.0 515483.0 0
163899.0 516965.0 0
334364.0 515829.0 0
339089.0 517184.0 0
349000.0 515199.0 0
346076.0 517995.0 0
353663.0 516895.0 0
358789.0 518831.0 0
362940.0 515585.0 0
369179.0 515297.0 0
373941.0 516358.0 0
380040.0 518615.0 0
383467.0 515594.0 0
388159.0 516866.0 0
392689.0 518637.0 0
400450.0 516774.0 0
405079.0 515559.0 0
414863.0 518102.0 0
419604.0 515876.0 0
425146.0 518227.0 0
432487.0 515289.0 0
430191.0 518540.0 0
438020.0 514963.0 0
444315.0 516400.0 0
449969.0 516554.0 0
454208.0 514888.0 0
455500.0 518441.0 0
459561.0 516275.0 0
462700.0 518091.0 0
466542.0 518157.0 0
471716.0 517277.0 0
476973.0 517999.0 0
481067.0 515273.0 0
488915.0 516756.0 0
485084.0 516571.0 0
492786.0 514975.0 0
494230.0 519369.0 0
497913.0 517833.0 0
2743.73 520913.0 0
7520.95 522621.0 0
12832.4 522793.0 0
17900.6 522426.0 0
23816.6 521914.0 0
30829.4 521505.0 0
34880.7 522172.0 0
38786.5 523462.0 0
43591.7 524802.0 0
48054.2 521727.0 0
54900.6 523055.0 0
59837.3 522077.0 0
64551.0 522865.0 0
70202.8 521756.0 0
74999.0 522285.0 0
79055.1 519682.0 0
82951.0 523642.0 0
88228.4 524198.0 0
97523.1 520883.0 0
93523.7 523567.0 0
101324.0 523213.0 0
105475.0 520405.0 0
107696.0 523408.0 0
112611.0 522626.0 0
117918.0 520851.0 0
122464.0 521725.0 0
129182.0 520845.0 0
349706.0 520194.0 0
354677.0 521837.0 0
366256.0 519450.0 0
370810.0 519930.0 0
375623.0 521026.0 0
380758.0 523918.0 0
384540.0 520139.0 0
388975.0 521710.0 0
393506.0 523721.0 0
397492.0 520228.0 0
403363.0 521075.0 0
409443.0 519774.0 0
407429.0 524507.0 0
414090.0 523185.0 0
419467.0 521244.0 0
424026.0 523392.0 0
429341.0 523285.0 0
434893.0 520160.0 0
440782.0 519907.0 0
438533.0 523896.0 0
442849.0 524482.0 0
446507.0 521161.0 0
451750.0 521620.0 0
456156.0 523050.0 0
459774.0 520383.0 0
463934.0 521675.0 0
469450.0 521786.0 0
473942.0 521433.0 0
477792.0 522536.0 0
481871.0 520219.0 0
486921.0 520556.0 0
490636.0 519683.0 0
492043.0 524180.0 0
497787.0 521881.0 0
2924.8 526321.0 0
6042.38 529179.0 0
9772.32 527329.0 0
14879.5 527160.0 0
20512.3 527619.0 0
28120.2 526521.0 0
33474.8 525659.0 0
39925.5 528616.0 0
45767.7 529392.0 0
50315.2 526466.0 0
55101.6 528698.0 0
59293.7 526142.0 0
63503.8 527650.0 0
68096.4 526422.0 0
72765.9 526073.0 0
78091.5 525434.0 0
81914.9 528802.0 0
117733.0 525161.0 0
399360.0 524997.0 0
403595.0 526195.0 0
411096.0 527889.0 0
416594.0 527951.0 0
420968.0 526142.0 0
425579.0 527669.0 0
430559.0 528957.0 0
434504.0 525770.0 0
439600.0 528402.0 0
444545.0 528733.0 0
449061.0 526199.0 0
454787.0 528099.0 0
460602.0 525079.0 0
466365.0 526543.0 0
472430.0 525892.0 0
477337.0 526862.0 0
481072.0 524834.0 0
485987.0 525772.0 0
490012.0 529163.0 0
494128.0 528814.0 0
497570.0 526258.0 0
1224.87 530056.0 0
16483.7 530641.0 0
66562.4 530292.0 0
75750.0 530877.0 0
435122.0 530288.0 0
461417.0 530465.0 0
470556.0 530923.0 0
497909.0 530672.0 0
POINT_DATA 5000
SCALARS Radius float 1
LOOKUP_TABLE default
5061.3 3163.97 5812.43 6810.52 6182.6 5492.18 5258.36 3951.75 4499.64 3642.12 5542.27 5122.66 5906.14 7513.1 5254.28 4402.52 4436.4 5733.48 5580.89 3588.44 5553.16 6110.27 5415.48 3863.18 5120.0 4998.37 2356.98 5351.6 4715.55 5867.73 5013.56 4375.68 5054.98 6030.06 5484.19 5170.02 3557.27 4688.68 4182.53 4517.56 4672.91 5176.86 5645.7 4366.19 2938.66 3672.51 4008.92 5840.26 5073.35 4834.9 5085.53 5484.83 5538.89 4730.36 6059.59 5701.86 2720.68 4238.81 4468.59 5325.02 5200.76 4927.31 4862.64 5185.34 4432.58 5903.42 3761.32 3955.56 5292.64 4118.05 6166.5 5065.13 4940.78 5561.06 5670.04 6044.04 5325.36 6759.9 7021.47 5926.61 6051.14 4955.55 3563.63 5885.03 4345.55 5246.2 5017.13 4827.23 3673.74 5205.43 6684.56 2635.86 3968.64 4688.67 4385.06 5936.02 3615.22 4231.61 5305.17 4380.59 6716.79 3850.77 5546.39 5945.65 5418.62 5493.32 5416.38 5740.68 4277.89 4195.44 3261.21 5836.15 3653.41 6704.06 2837.58 5600.93 3871.88 3856.01 4390.66 5279.39 4911.47 6116.18 7447.37 4924.6 4733.32 7184.19 4290.3 2924.37 3867.67 4861.08 3942.53 3379.84 4827.82 7613.27 4133.88 4094.62 6230.49 7054.71 4601.27 3641.64 5747.75 4796.33 5539.32 6496.85 5541.59 4124.71 5728.85 6337.56 5803.39 3255.82 4381.97 5242.73 2812.98 2899.43 5603.15 4065.69 4003.05 5399.73 4805.87 3607.45 4951.03 3589.27 4665.12 4927.02 6483.19 4174.52 5109.54 5489.43 5054.25 7325.81 5360.19 4055.8 4794.96 4874.39 4839.34 2980.99 5083.08 4840.01 6834.49 5525.39 3998.5 5938.34 5863.59 4024.3 6257.19 4737.14 4695.45 4660.72 5390.22 4712.33 5227.21 5759.91 4333.2 3260.67 3936.02 5980.74 5816.2 3829.13 3091.3 6458.82 5527.54 5573.7 4727.62 5206.78 6425.26 6186.19 5611.2 7933.0 5173.87 6394.38 5555.28 4686.65 5834.74 5556.96 3888.21 6038.78 5697.78 5123.52 3997.1 4295.38 3383.4 3856.1 4780.03 4044.71 4487.31 5693.81 2540.31 5789.98 4138.16 6138.47 5697.4 4270.95 4005.44 5280.17 5028.96 5143.58 4484.76 5152.36 4220.65 6820.42 4455.12 5380.13 5118.27 5169.36 5932.23 5581.75 5788.23 6052.7 3921.18 4667.36 3038.33 4392.68 5495.39 3554.9 4002.16 4778.34 4684.5 5120.49 6029.66 6302.8 6038.2 5555.88 6732.43 3866.16 3183.98 6362.12 4511.82 5826.64 4816.2 4894.16 4896.52 5711.87 5791.61 6392.01 3666.57 3798.62 5891.05 6902.81 7199.21 5252.48 5542.21 3996.0 4015.92 5708.81 5043.05 3486.22 4414.54 5409.61 5262.61 5094.81 5713.22 5861.71 5017.78 4524.28 3778.1 3794.63 6175.81 4727.24 6959.81 4829.35 6321.41 3372.79 4751.02 4941.22 5184.56 5282.64 4479.66 5308.1 6644.76 4254.17 5615.42 4091.31 4523.7 5529.52 6124.89 5481.78 5924.89 6894.71 5551.36 5201.36 6038.14 4306.53 6135.57 5972.06 4312.67 5015.69 4359.04 4989.15 4947.52 4520.1 6677.09 5813.4 4305.57 5201.67 4089.76 5526.55 3192.41 4987.87 4715.72 3369.13 4669.66 3043.85 5367.2 6730.19 6372.62 7565.34 5337.48 4937.14 4467.94 4933.21 4850.81 5375.47 4723.12 5024.9 4717.05 5659.17 5998.38 4270.24 5423.8 3417.33 4164.13 4926.42 4642.34 5153.74 5874.89 4293.03 3791.79 4424.7 4754.05 4951.47 6084.93 4764.96 3315.57 5607.24 4808.52 5461.13 3599.45 4907.89 5629.19 4937.02 5255.32 5637.59 6084.86 3307.12 3115.91 5478.92 5094.44 4655.49 4566.18 4809.42 5856.11 5287.2 4234.94 4562.29 5013.13 5080.66 5110.45 5248.77 4165.81 4528.09 3556.85 4389.21 4128.98 4925.44 5246.61 5215.15 5046.33 5053.92 5839.13 4726.76 4073.93 5090.24 5655.21 5091.39 6756.95 6037.08 3103.0 3586.91 4948.92 5810.84 3748.24 4230.54 4493.48 6163.38 3459.9 4997.27 4964.09 5543.27 4109.88 3327.49 4980.85 3960.8 5714.58 3329.99 4083.97 5208.32 4607.02 3895.51 6673.96 6291.51 6246.22 4100.38 4307.28 5804.71 5020.12 6352.26 3735.44 4645.41 4786.6 5923.5 4433.59 2240.39 5096.78 4049.23 5601.05 4384.42 4516.43 4749.8 3693.63 5082.6 6061.47 4449.22 4093.08 5628.24 5992.26 4923.9 5070.39 4973.78 4613.31 3947.47 5091.68 3296.27 4713.25 6243.0 5441.96 5174.89 5882.89 5370.52 4188.32 4739.42 5538.93 3697.96 4899.11 5727.3 4242.52 4745.45 5356.51 3847.38 4907.06 3057.03 5163.9 5740.84 4612.68 6324.23 4382.74 4362.19 5690.56 3937.74 5244.78 5478.47 6142.37 5806.08 4853.39 3130.65 5365.89 4511.54 5196.0 6119.09 4204.84 5069.25 5048.89 4288.3 3435.9 5774.81 5344.77 4723.48 4278.07 2631.9 3818.59 4863.72 5495.68 6043.3 5530.87 4973.83 3320.52 4727.24 4651.28 6355.42 4151.94 5492.26 5762.84 5119.37 3982.23 4336.42 5243.29 5004.67 7589.94 5409.33 4466.03 4178.15 7531.29 5935.03 3161.47 3991.03 4652.29 6826.57 4495.87 5027.98 5097.87 5281.28 4143.08 4087.15 5002.48 5489.34 5708.14 5952.75 5537.72 6445.94 3912.37 4281.49 4310.18 4929.8 5927.43 4220.88 6640.13 3092.35 5210.03 5351.39 4583.31 3402.32 4306.11 4898.94 5419.37 5985.29 4733.04 4247.23 5788.66 4755.47 4485.99 3903.75 6390.78 3746.31 4788.87 5346.27 5498.32 7267.18 4758.21 7500.97 6332.36 4262.82 4218.06 5542.14 6342.25 4320.28 4129.43 4685.34 6327.9 6082.81 6519.71 3629.96 3320.11 6022.17 4503.89 5903.66 5313.66 4528.49 5275.32 4268.65 4694.83 4354.08 4520.62 5475.8 7435.25 5543.46 6022.72 5527.33 6475.1 2691.29 6255.18 4277.88 3920.42 4931.53 6691.39 3843.58 3191.99 5449.18 5367.52 4048.37 4714.54 5030.91 5507.24 6851.54 5935.47 5512.23 5349.31 4649.22 5509.42 4256.43 5475.7 5936.36 5314.69 5127.16 6050.81 4249.46 4244.99 4643.31 6917.52 4969.21 4668.71 6256.02 6623.85 5102.36 8332.24 7134.64 4602.25 5110.37 5664.98 4322.15 4659.59 5101.59 3813.22 4377.07 5570.3 3848.93 2651.49 5234.29 4711.62 4114.24 5394.55 2976.22 5094.52 2682.24 5229.48 5415.19 4016.18 5435.74 5560.26 5965.81 2330.66 4177.19 5402.21 3691.0 2845.98 7228.46 5320.92 5228.18 5787.31 6122.55 5480.13 5293.9 4931.38 4736.58 4548.16 3485.26 3240.09 4556.36 5025.39 3688.8 3695.36 5893.5 6020.48 3963.86 5200.05 4645.58 5670.2 4091.8 5166.79 5928.32 5526.75 3950.63 4612.62 4275.57 3619.07 5327.45 2983.99 3702.37 6185.89 5660.85 3990.25 4752.51 3758.07 4880.14 3948.23 6362.14 6719.88 4342.9 5978.82 5978.9 2739.94 4270.53 4194.5 6142.94 4792.73 3369.23 5264.06 4515.71 5358.59 4547.19 3817.13 5023.15 5076.35 3844.9 5273.35 6259.23 5181.4 4662.56 3457.48 4946.74 5417.15 5996.33 6385.23 4467.04 3997.96 3460.94 2614.4 4750.17 6184.4 3587.05 4373.45 4989.09 6229.37 4982.31 5269.18 4406.1 6308.71 6155.31 4790.08 4187.56 5082.47 4329.05 5513.6 5138.31 4901.41 6202.55 6387.01 7111.16 4871.44 4564.34 6375.99 4853.02 5088.44 4998.21 3405.98 3931.07 3688.16 4681.72 6631.19 5817.25 4439.35 6363.92 6205.93 5830.72 3828.81 5309.98 5289.52 5034.59 5314.85 4305.43 5065.11 4553.56 4942.77 5911.67 4223.33 5069.84 3629.62 5329.64 3323.28 4840.84 4997.27 3708.04 4551.24 3610.4 4621.75 6338.89 6480.17 3838.56 6248.81 5872.05 6079.11 4256.67 7440.72 3949.6 4945.39 5376.71 5661.62 4867.08 5626.61 5407.78 6632.99 4923.24 7177.44 6718.19 4307.48 5450.44 3848.54 3927.99 5868.82 4051.44 4301.06 5344.25 6013.14 4602.86 4581.13 3856.59 2765.2 4219.07 5372.61 5413.79 5584.06 3686.21 6445.22 4962.77 4427.28 5323.3 3082.32 6430.39 4765.02 4448.13 5703.6 6326.18 6648.68 4713.74 5061.98 4537.6 6179.96 4419.61 6260.79 4082.57 4407.87 5080.18 5941.4 5266.5 4454.63 4716.19 4050.9 6695.82 5135.69 5514.76 5344.0 3456.98 4501.51 5925.6 5572.95 6723.16 4746.52 5402.24 4948.5 5013.42 5651.07 5210.48 6101.92 4635.6 6239.84 3658.37 5370.85 5629.39 5070.29 4807.28 5075.55 4266.03 4084.49 4220.03 5703.07 5147.36 4662.43 4563.46 3963.76 5169.9 4236.14 5282.91 4263.33 6510.17 4871.96 4066.38 4523.88 6049.55 5709.62 6405.76 4290.14 4593.7 5191.63 5379.87 5987.17 4043.57 3979.82 5586.81 5006.58 5130.91 3868.18 4527.02 7552.94 4519.22 3627.55 4409.63 5865.39 5521.25 3178.54 2684.03 5949.46 6157.04 3776.94 5246.47 4768.61 2261.36 4522.21 5280.69 6923.84 5449.46 6113.54 4043.66 5733.62 6553.94 4425.84 5282.51 3797.33 5331.02 5742.65 5592.32 4241.89 5835.78 4877.67 6045.46 4763.45 4138.42 4481.53 3824.16 5011.31 5077.33 3689.45 3948.17 5383.07 4531.14 4959.34 4247.15 4602.85 7644.38 4051.34 5278.36 3661.9 5136.08 5107.23 4010.57 4187.31 5506.19 6191.29 6719.94 6166.29 5453.6 5294.77 4709.05 3077.84 5255.18 5528.53 3004.16 4460.92 7256.35 5945.89 4800.69 3279.1 5054.74 4099.77 4020.32 3498.2 4245.72 5941.72 3815.26 4150.99 4292.06 5681.38 5330.45 6318.18 5350.88 5045.38 4790.78 6552.22 5379.09 6004.68 6799.4 5222.16 5533.42 5558.68 3240.51 4599.38 7422.36 5161.01 4628.4 4950.67 5227.59 4630.82 5409.63 4813.08 5726.66 5460.65 4767.78 3062.43 4105.55 4042.28 5912.61 4402.67 4403.98 4978.31 4981.9 4948.98 5794.24 6562.18 5147.67 5577.04 4986.77 5125.78 6034.41 5452.83 4591.87 5178.99 4027.09 6422.84 5801.99 5534.94 5180.76 4502.18 3312.06 6218.95 4993.35 5533.72 3678.08 4802.32 5730.33 5518.57 5463.48 4527.99 4543.1 4376.7 5190.61 6051.83 4298.15 3973.12 4263.16 6799.88 5860.67 4540.86 5426.78 5990.52 5235.17 4863.23 3555.86 6566.1 5381.16 4560.84 4414.48 5227.52 5163.02 4537.32 4127.74 4541.21 4216.92 4704.72 4478.15 3771.48 5198.77 5423.0 5643.58 5197.52 5344.43 5615.35 4135.62 5266.22 3361.26 4860.33 4983.39 3685.13 3418.99 4690.55 5366.52 5146.37 7132.12 4836.16 5545.46 5680.94 5832.37 6550.44 4642.93 3764.06 5941.9 6024.75 6642.76 5987.42 6109.49 4340.76 4435.36 6386.78 5565.13 6086.96 6193.35 4302.5 3066.13 6048.7 5908.1 4571.7 5445.87 4107.03 4138.46 5215.05 5137.34 3975.31 4373.47 6070.58 5490.43 6169.11 4896.11 5172.53 5226.97 5754.18 4480.95 4558.15 5417.8 6552.21 5227.02 4232.16 5151.11 5300.96 5581.55 5193.01 8325.01 4440.81 4523.39 5829.22 5567.93 3764.1 2967.38 5652.0 4421.12 5463.41 6065.22 5254.49 4221.28 4996.99 4470.61 2476.04 4656.78 4156.38 6009.88 4177.94 4344.58 4850.01 2775.04 3970.25 4271.69 5198.29 4044.45 6035.6 4285.32 3627.82 5022.28 4285.66 5339.38 4318.48 6132.95 5008.63 4004.35 4270.74 5132.68 6293.89 6595.03 4350.12 5670.0 3834.43 4344.51 4707.06 3474.5 3860.83 4792.39 6348.03 5732.27 4497.78 4243.79 4835.83 5811.18 4779.5 5332.65 4929.75 4237.98 6045.22 6649.96 4456.39 4631.83 3701.27 4729.43 4092.24 5105.16 5991.09 6006.16 4164.68 5896.46 4742.68 4810.12 3821.72 5526.14 5262.19 6449.45 4244.9 4986.51 4763.96 3872.61 3930.79 3450.93 5293.51 4446.06 5737.75 5097.45 5742.47 3603.51 3778.02 4095.75 2761.07 4367.78 6609.84 5135.96 5491.37 3781.77 5658.37 6074.94 4250.88 3475.67 5434.47 5278.56 6917.62 4159.35 6451.33 6439.37 5225.33 4896.39 4614.3 4384.88 5233.78 5126.91 4562.74 4806.34 4678.38 5634.83 5316.75 6898.19 3633.87 7099.43 4470.4 4516.28 5311.03 6048.86 6894.26 4238.4 5365.24 5255.12 4047.87 6625.18 4185.61 4917.99 5099.21 3319.67 4076.59 4298.45 5222.51 5164.1 4972.17 5699.53 3783.54 5527.23 7038.89 5146.37 3863.67 5433.65 5631.14 6137.8 5604.35 4442.22 3091.67 5413.31 4332.87 3633.79 4303.19 6887.27 6081.14 6008.49 3942.07 5480.83 5050.65 5448.61 5495.84 3929.19 5347.48 6396.74 5315.4 5486.68 4611.53 5094.48 6408.83 5576.92 4573.72 5323.91 4163.74 6969.28 5636.4 5283.8 4428.14 6464.15 6685.4 4850.06 4222.77 5268.38 4805.33 4814.12 5067.56 5980.95 4887.76 4343.78 3012.99 6477.91 6316.56 4081.97 5514.84 5401.99 5421.53 3914.2 5653.9 5776.57 4827.33 6268.1 7443.72 5922.5 4374.35 5776.37 4527.08 4011.77 4287.63 5100.25 5805.86 5678.96 2681.29 4049.02 5296.29 6234.32 4586.19 4296.69 4570.98 3665.95 5698.96 6471.42 6372.13 6016.19 4124.49 4479.11 5714.25 6332.01 5325.96 7044.29 4581.37 4013.38 7085.01 3352.35 5263.3 4909.65 2735.53 4008.15 4811.32 6420.81 6400.08 5134.39 4256.57 7144.24 5133.97 3600.43 5683.26 6600.94 5371.02 3937.08 3784.5 5022.8 4502.5 5499.11 2965.79 4410.55 3921.08 5346.68 4190.31 4558.46 5839.71 5020.71 5997.88 4360.23 4585.31 5010.04 4275.07 5388.78 6238.32 6804.79 5369.5 5535.91 5404.01 3230.13 6176.67 5955.86 5016.02 5412.24 4234.18 4920.21 3936.95 6193.08 6069.3 5116.6 5887.01 4669.06 4286.49 5580.92 4715.58 4607.85 4220.46 5784.3 4287.53 5598.74 4906.82 5131.24 5513.57 7055.53 5252.34 5113.21 5083.41 5965.78 5683.61 7055.42 3836.45 5737.92 5662.55 3755.95 5889.35 3056.7 5591.76 4394.56 5825.38 6101.13 5642.35 6357.47 4793.65 4533.37 4532.89 5887.38 2779.99 6942.34 4049.16 5851.61 6153.94 3862.77 5168.35 6523.86 7693.4 3317.83 4743.59 4450.7 3532.3 5769.98 6088.68 6070.3 6155.1 6133.92 4862.21 6125.34 4274.61 6314.07 5443.58 5731.57 5464.68 6401.43 4747.55 2685.81 4510.8 7509.24 5896.26 4587.67 5951.81 5599.7 4834.3 6918.35 4066.57 6348.54 5156.76 4891.38 2949.12 6101.57 6040.74 3856.53 5460.89 4848.46 5742.09 6836.82 3658.05 3858.17 3477.1 3747.03 4631.99 2783.85 5388.39 4356.49 4326.48 6184.88 5829.32 5208.14 5151.52 5973.33 2221.99 3583.21 5937.08 4788.58 4643.56 5046.21 5260.34 5894.61 5013.67 3719.84 4178.4 6261.42 5975.63 5687.85 6444.77 4539.07 5703.74 4475.83 4146.81 5093.82 5756.75 3924.14 6318.23 4206.98 5948.71 5932.07 4054.22 5260.85 5807.46 2884.65 4648.21 4393.16 5478.11 3311.29 3110.13 5030.15 4740.98 3728.18 3185.39 4437.07 3449.37 5335.47 4526.81 4396.25 5092.24 4347.74 3763.05 5442.32 4135.08 5612.21 5687.83 5196.67 5206.48 5729.23 5669.65 7034.11 5782.6 5433.8 2586.12 5564.02 4497.59 6248.6 5831.96 4558.47 5064.79 4691.91 5480.3 4840.44 6639.64 3427.63 5212.43 3687.65 5454.12 4058.87 5478.95 3851.85 5174.75 4984.46 5844.72 7228.94 3992.97 5393.65 4961.99 4595.12 4549.69 4386.8 3644.78 5526.31 6192.77 4078.93 5128.77 4312.15 3994.07 5491.9 5551.95 6405.0 3918.87 5291.9 5067.46 4518.04 4009.62 5128.57 4929.14 5004.23 6000.7 4709.35 6586.45 5820.48 6946.21 4512.11 5759.46 4470.98 5708.99 2435.33 6333.29 4477.04 4074.48 3614.96 5344.83 7046.11 6342.48 5216.26 4887.52 6571.31 4392.65 5048.55 4024.31 4955.16 4147.31 5989.05 5950.88 4441.22 5853.89 4149.55 6484.43 6551.93 6423.81 4583.52 3485.54 5934.82 4501.78 4219.94 5633.61 5048.19 5907.46 4659.16 3101.75 5369.08 3580.58 4863.01 5620.74 5945.08 6496.67 5934.22 5876.71 5011.84 4359.62 6057.22 5253.55 5062.71 4156.2 4289.17 4933.65 5941.61 5950.04 6098.1 4231.83 4745.43 4912.04 3886.68 4449.98 4255.34 4863.97 5589.37 5439.49 3634.5 6379.14 6413.15 6103.11 2202.77 4904.51 5751.15 6201.86 7554.58 4140.4 4625.67 4458.64 5966.75 7122.87 3657.69 6418.11 6799.23 4243.26 4264.91 5399.29 4888.27 5549.49 4766.06 5356.79 5233.29 5604.21 5139.5 6442.69 7493.3 5474.8 3780.23 5826.04 5624.49 5339.78 4004.04 4730.41 5696.88 3471.03 5690.26 5411.85 5082.74 5607.14 6915.83 4844.57 6072.45 5511.88 5782.48 3735.24 4031.78 6574.95 6817.57 6853.04 3420.08 4320.42 7165.9 4701.5 4771.65 4036.91 5110.11 4027.63 6631.28 5350.88 5420.67 5416.45 6459.51 5754.6 3288.01 6870.97 5474.01 5307.35 6056.87 3380.69 4725.01 3639.44 5446.4 5510.9 4883.63 4505.28 3572.94 4153.84 6015.02 6740.71 5119.86 6487.56 5789.55 4874.18 2081.58 4011.37 2511.46 3979.54 4312.56 6320.71 5226.0 4814.55 4373.3 4648.04 5304.13 4750.78 5029.78 5833.06 3527.05 6262.72 3095.48 3664.11 3923.03 3745.84 5188.81 6062.05 4643.85 4203.26 4413.85 3999.94 6171.13 5092.37 4864.22 2395.5 4027.46 3901.8 3497.9 5564.23 5151.21 5398.64 4693.52 4568.41 3624.7 5262.35 4281.98 5783.48 4504.35 5012.97 4891.67 6818.91 3503.65 3429.57 5569.2 5305.59 6114.89 6735.97 5483.7 4330.58 6384.7 5351.86 4355.83 5230.02 4342.18 5166.89 5725.37 5491.63 3868.62 5138.33 3492.83 4971.29 4922.49 5797.36 5001.58 4820.17 4592.15 5084.17 5423.42 6605.86 2775.69 4901.2 4778.82 3169.67 6505.78 5657.36 4612.06 4968.03 5204.04 3361.92 5944.09 3306.14 5490.58 5698.77 4863.79 6607.87 3365.82 6515.84 4166.08 4163.5 5762.59 4861.06 4298.67 5873.69 5960.66 6608.73 3979.26 4962.09 5654.31 3999.48 6939.12 5563.79 4735.33 4406.4 6853.85 4020.4 3493.47 3374.08 4596.75 5768.57 4498.25 4188.87 5108.06 4222.4 4914.45 3573.73 4000.43 4661.03 5318.53 5160.59 4732.09 5138.2 7001.83 4593.7 4349.13 5188.53 4521.75 6746.66 5410.33 4642.74 3636.15 5652.87 5244.78 5135.63 5018.69 3152.86 3896.27 5963.36 5952.38 5169.48 5087.14 6016.08 4731.21 6064.71 6102.98 3425.69 3743.76 6280.13 5510.45 5244.22 3684.15 5585.14 7039.98 4729.42 4854.11 5089.26 4901.44 4633.05 5971.22 2275.45 4909.31 5012.5 6522.59 5467.84 6124.08 5029.47 5876.64 3619.79 4750.58 5395.14 4702.06 5117.47 3464.83 4143.78 4923.41 6481.79 5374.51 4123.6 5320.28 7092.87 4569.12 4796.58 5750.71 4472.17 6222.42 5470.77 5516.95 5328.22 4831.47 4151.76 4216.17 3905.51 4721.02 6484.17 3546.71 4254.37 4938.72 5956.65 5931.77 5313.12 4698.87 5498.42 5351.56 3984.88 3344.57 5220.76 6945.98 6412.67 4482.9 3766.69 5513.8 5036.98 4882.66 3840.21 4081.34 3908.56 4844.83 5377.37 4899.73 4311.48 6394.19 5807.52 5518.11 4192.21 5712.35 3742.11 4743.9 3124.7 3719.11 6060.17 5153.18 6711.21 4236.86 5832.29 4438.76 6456.58 4159.81 3886.72 5244.98 4998.22 5533.19 5711.62 5417.21 6519.43 4785.25 4270.15 5435.19 5461.55 5053.95 6710.88 3298.2 3967.48 2477.07 5926.11 6667.68 5724.64 6213.04 2990.77 4538.95 3163.78 4925.63 4305.16 4970.88 4763.66 5224.12 4850.14 4666.81 6739.08 3637.61 5463.38 6098.14 3493.7 5945.21 4938.74 4200.03 6470.3 5599.49 5313.22 3436.15 4719.7 3474.39 5711.11 5005.85 4575.94 5325.44 5102.75 5021.88 4597.29 5938.17 4200.09 4795.43 5097.95 2928.82 4638.18 4196.37 5806.31 6448.66 4453.97 3556.79 3503.41 7317.04 3971.08 6204.65 6550.4 4775.04 4952.52 4120.07 3646.95 4954.76 6334.53 4906.11 5869.67 4564.1 5457.66 4848.14 5366.22 5973.89 6193.73 5254.24 3597.43 5701.52 6776.22 4467.13 3877.8 6273.6 5902.67 4730.14 2606.51 5393.76 3994.39 4941.02 3864.92 6006.89 3814.65 2955.36 5415.45 3776.8 3965.3 5792.98 5096.43 6156.21 6602.43 6104.26 3562.79 4990.79 7093.13 6306.21 6865.76 5253.37 4497.31 5235.11 3830.46 5211.38 4721.32 6515.8 5965.15 4888.6 3293.56 5882.65 5078.86 7042.12 4780.2 5163.55 4797.52 6326.39 6817.32 5501.93 4471.58 5462.21 5374.98 6313.06 5226.56 6345.13 5274.19 4050.08 5452.42 5186.3 4097.57 5017.5 5966.61 4893.49 4834.87 4514.79 3672.21 5760.22 4509.89 6752.75 5269.38 3022.6 5607.3 5375.1 4811.76 5211.6 4172.6 4745.79 5470.04 5456.71 4908.75 4211.82 6556.26 2628.22 5684.25 5438.92 4124.76 4244.49 4050.03 4813.33 4705.68 4833.55 7224.99 4749.96 3623.19 4658.24 4387.39 4745.16 5825.55 5509.51 3199.4 4316.5 7261.51 4968.14 4914.03 4158.91 5144.56 5321.17 5311.55 3360.86 4869.25 5545.21 4763.4 5024.32 5454.11 4708.17 3779.45 5806.61 4983.1 4618.73 6119.99 3668.93 4960.64 4128.1 4983.3 6592.93 4385.81 6350.71 4383.56 3568.28 4798.17 4953.1 5425.98 5424.46 2895.63 5266.01 6449.64 5767.9 4857.84 2040.66 6413.11 6031.67 5092.28 4739.14 5274.14 4918.77 4636.5 4819.73 3382.7 4903.82 6471.55 4940.42 5085.71 5923.4 4319.79 6643.85 5960.56 6343.14 5862.86 4020.95 6049.79 4390.41 4890.5 6113.95 3731.84 4901.07 3981.07 6496.52 3554.48 3991.42 3718.69 4388.63 6192.0 4940.28 2216.82 5885.28 6579.31 5323.55 3004.34 5452.36 3804.5 6486.37 6100.73 6083.28 4198.94 6163.54 5212.37 6003.78 5965.58 4901.29 5058.51 3899.7 7200.89 4147.49 4802.98 5760.98 5469.35 5384.86 4019.34 4869.48 5510.96 6653.07 4697.91 5071.98 5719.79 5148.1 5224.64 5949.73 5214.63 3495.68 5086.29 4312.48 5527.13 3034.16 5139.18 5551.43 5049.99 4333.87 5136.87 5638.7 2741.2 5813.79 5790.42 5784.37 6010.59 7123.04 5372.82 4009.24 4402.17 4034.05 7778.01 6436.74 5583.61 5690.96 2460.79 5166.79 4653.83 6063.64 4516.53 5996.66 3940.49 5818.95 4093.99 5079.22 6464.8 5384.76 5529.42 2978.76 7016.27 6138.12 6622.11 5257.12 4434.19 4689.15 5100.1 4428.78 4965.89 3954.91 3703.1 5746.28 4946.42 4371.99 5659.95 4623.61 5409.66 4082.47 5187.7 6090.91 3561.29 2965.01 6235.57 6263.44 4863.27 5122.63 6766.43 5774.97 2315.64 5916.16 6934.37 4703.08 3423.15 4488.85 5010.2 4579.69 6123.03 4997.83 5453.98 5148.08 5578.94 5653.03 4157.29 4777.03 7610.49 4286.17 6028.09 4609.02 4852.58 4896.65 4532.7 5561.74 4504.86 5975.23 4788.08 5079.64 996.652 4680.69 6500.49 4972.18 4607.18 3352.34 5078.59 2403.72 4365.58 5134.33 2646.13 5162.67 5419.57 4636.53 3629.49 5766.05 3835.81 5117.64 3916.42 5429.3 4944.51 5532.72 3220.8 4371.08 4584.81 5579.39 5270.51 5490.75 4407.79 6548.29 5783.94 4278.57 5081.08 4201.03 6318.25 5001.87 3667.93 5684.05 4644.88 5293.13 3142.09 4028.22 3682.35 5591.77 3756.96 5182.13 4446.58 5906.57 5401.4 5127.82 5798.38 4456.11 4125.9 5096.24 4986.71 6479.39 4122.92 3604.14 4405.42 4997.91 4908.49 4452.54 4962.21 4684.44 5884.9 4749.59 5089.62 3685.65 3468.42 6790.73 4590.55 3685.13 4673.35 5243.43 3876.21 4741.26 4655.16 5920.32 4186.6 3701.16 4537.14 3295.83 5551.9 5644.82 6413.02 5203.08 4440.57 5412.31 6736.03 3492.19 5374.07 4584.5 5548.29 4118.84 3623.87 5163.77 5469.13 6027.62 5765.42 6098.95 4817.16 5660.55 3989.7 5107.0 4246.61 3684.56 6212.15 5327.75 4783.07 4946.23 6200.63 6816.66 3217.67 3844.54 4473.29 5034.69 3538.53 4509.46 6127.39 5640.12 6638.25 5329.76 4759.99 5214.4 5193.58 5399.43 5695.44 4507.46 3422.21 4526.34 5603.68 5610.95 5042.75 5179.17 4598.92 5241.22 6647.08 4979.52 3422.29 4537.03 4114.2 3990.96 4326.06 5352.24 6370.33 7362.42 4202.77 4493.79 6864.06 4279.44 4932.56 4899.19 7350.26 5167.53 6110.48 7541.76 5053.15 5124.17 5910.86 3862.91 6239.68 5805.1 5366.11 6171.71 5039.12 7382.3 3908.98 3598.08 2995.67 4668.88 4599.81 5381.54 4022.56 5522.21 4406.05 5698.23 4680.94 5810.77 4858.44 5828.35 5089.1 2711.19 5799.69 5876.72 5571.72 5689.26 5869.4 4916.22 4992.42 5297.19 6022.7 4152.85 3867.19 5251.4 4219.78 4188.3 4963.34 5081.78 4459.28 4260.92 5499.39 4407.9 6250.23 4718.54 8659.64 3087.09 4055.54 4588.7 7480.41 5683.95 3766.55 6107.89 4976.12 5530.49 4233.8 5065.26 4304.41 4892.44 3746.36 6789.23 4215.2 5069.89 5361.87 2205.51 3703.49 6813.72 6502.97 4757.2 3205.68 5969.37 4928.35 5241.75 5849.53 4731.53 3763.9 4651.99 5863.0 4420.11 4918.64 5084.5 6562.03 4815.47 4410.82 3889.98 4368.12 5490.64 5034.34 3769.2 3468.45 3856.73 5887.71 5036.14 5635.32 5409.08 5481.64 5673.75 5360.67 5968.54 6263.3 4501.05 5124.34 3247.97 4358.81 5034.46 5757.29 5836.14 5793.12 6008.81 5473.05 5192.49 5537.34 3487.31 5058.34 3768.46 3918.94 3852.82 4507.36 5003.3 4775.49 6245.52 4681.29 4932.29 5499.59 7320.78 3845.9 4064.58 3419.87 4834.44 3628.89 6589.82 4234.88 4824.81 5027.43 4384.28 3772.3 6328.42 4855.01 7300.58 4714.83 5522.75 3608.06 4028.32 5474.15 5236.43 3809.69 7519.2 4099.92 4771.13 7051.9 4940.84 5285.07 4345.67 4255.85 4680.14 4453.64 5019.93 5097.69 5511.6 3885.86 4517.73 5235.29 5177.64 5191.08 4255.31 5453.3 6116.33 5148.58 4479.94 3838.47 2588.37 4062.5 4199.45 5887.15 4435.51 5415.85 7234.66 4858.51 6599.66 4207.54 4603.5 4886.12 5625.65 4936.96 6419.12 4481.76 4301.61 5206.33 3184.64 5375.12 4446.84 4356.36 5452.78 4741.28 5473.72 2603.64 2856.55 4553.68 4268.19 3894.64 5232.85 3758.22 4374.74 4062.56 4583.94 5046.31 1937.5 4337.32 6240.42 5146.0 5721.14 4788.7 4577.73 4987.28 6206.98 5549.71 6443.99 4967.51 5173.82 7212.97 3720.7 5378.24 5698.53 3604.31 4450.49 5661.6 4827.61 4316.45 5385.03 4778.37 4169.15 5134.17 4074.16 4529.77 4904.35 4325.13 5592.54 6172.27 5390.33 4904.37 4651.64 5278.54 5729.92 5016.46 5469.17 4373.2 5061.75 5884.99 6022.78 5726.42 4087.32 5575.11 6643.4 4674.9 5487.63 6599.28 7145.73 5800.81 5749.6 4990.23 3220.29 6016.87 3125.13 4141.21 6715.73 4439.71 5782.43 4174.44 5769.14 5667.51 4456.26 5944.3 7307.21 3563.14 3381.82 5867.64 5135.5 6208.9 4923.57 3340.09 6633.61 3208.96 6059.93 4884.59 3858.06 4478.6 5217.95 5895.77 4608.41 4765.72 4732.09 6261.75 5857.79 3988.3 3757.34 2908.7 4039.91 6415.61 4338.08 4642.66 5276.7 5149.72 5660.16 4541.8 6134.99 5424.88 6200.54 4928.27 4652.01 3583.49 3548.39 3673.28 5421.64 5052.84 4366.74 3375.28 5297.16 5354.66 4647.67 4214.44 5378.23 4787.97 4981.43 4508.18 4061.6 6214.73 5064.67 5175.89 5836.26 6618.21 2617.39 5144.44 3717.47 4051.18 4826.52 5120.92 4685.4 4629.02 6006.16 5914.5 4288.45 4608.62 4071.75 5407.96 5131.77 3186.07 4369.86 5482.76 3745.02 4887.73 6297.99 4211.36 5918.95 5817.74 4538.89 3242.31 6099.28 5285.75 3234.26 4830.13 5370.9 3494.16 4941.52 5900.0 4262.74 3783.79 5078.73 5729.0 5275.57 4179.87 6224.13 3769.24 4761.84 3661.67 5517.65 4009.68 6647.85 7025.09 5461.72 4361.24 3392.26 2549.95 4168.52 6224.85 4556.19 3954.77 5403.97 3784.94 5166.05 6793.1 4506.66 5515.73 5209.55 4708.31 5113.6 4564.41 3873.92 4810.98 5431.29 4198.9 3619.72 5026.76 5091.22 5347.9 4646.51 4438.58 4565.93 4504.52 5602.53 6061.63 6355.68 4184.23 4083.79 4833.46 4144.57 4511.7 4304.63 5750.07 4351.38 6136.49 5550.75 5980.59 6543.13 5933.7 4809.67 4752.14 4687.64 4757.74 4378.3 5411.02 4950.97 5037.06 5175.29 4863.96 5842.56 4094.73 5713.03 3852.6 5849.65 5134.67 4110.59 5131.15 5775.31 4847.14 3332.49 4165.21 4215.0 4811.22 3683.86 3950.27 4918.76 5116.66 3566.79 5003.78 3629.44 3299.24 4208.41 5374.67 6246.56 5730.61 5826.78 6358.93 4559.74 4383.68 6015.22 6666.67 6063.44 2904.46 5512.44 6449.06 4924.07 3200.6 4927.73 4602.57 3565.32 4571.74 3763.85 3419.07 5344.44 5710.33 4626.72 6432.8 5115.42 4082.4 5728.58 6424.77 5453.69 5432.04 5689.56 3702.45 6556.86 4898.29 5265.63 5372.25 4431.06 5730.2 5620.88 4045.67 6005.95 4308.49 4930.17 4581.1 6241.77 4745.44 5317.19 5762.82 4248.14 5192.92 5279.19 4016.6 7050.08 4786.66 5891.25 5370.1 5114.51 2569.12 4622.73 4161.32 4433.12 5161.74 7336.37 5138.93 6945.69 5368.66 5106.46 4795.08 4068.31 6562.92 3671.06 5077.29 5501.73 7035.54 4850.5 4983.43 4027.33 5951.86 6331.74 4252.18 5763.05 4833.67 5023.41 5357.39 6282.38 4659.88 5640.72 5851.63 7107.63 5073.02 5484.36 2279.05 4829.35 4867.7 4187.94 3953.55 6545.43 4063.9 4075.28 5263.27 6834.41 5021.77 7248.4 4356.25 5161.1 3796.15 5469.47 4419.71 5329.59 4244.21 5512.16 4617.55 3197.63 4989.56 4287.16 3875.05 3645.12 3456.47 5471.74 5199.44 5580.34 4344.34 5009.83 5966.42 5717.8 5210.38 4706.5 5210.75 4548.45 4474.83 4658.11 4551.26 6555.44 5658.14 5293.75 6570.35 5114.07 4385.49 4242.63 3269.54 4263.18 7124.45 7142.95 5064.23 6061.85 4454.74 5268.15 5819.0 6347.72 3460.93 5124.86 7168.2 4796.12 4096.86 3622.48 5001.51 6791.86 4209.0 4930.72 5485.84 5703.84 4335.79 5797.32 4886.99 3921.27 3161.1 5159.67 5764.52 5684.88 6523.78 4645.86 5087.97 4519.03 5110.27 4085.96 7360.12 6223.98 5821.49 3035.06 5580.44 5998.13 5129.4 5095.52 6275.25 3303.49 4746.15 4655.37 3720.38 4758.84 5585.25 5256.75 6351.89 5099.9 5932.28 6406.8 7086.69 5648.78 4697.24 6875.73 3612.44 5226.42 5233.76 6081.3 5426.4 5129.68 5866.91 2820.07 5076.84 5325.91 4546.44 5657.55 5727.79 4213.05 5212.92 4831.93 4224.3 4184.21 5788.97 4700.07 3472.91 6760.92 4277.24 4989.2 4469.54 4023.93 4314.56 6300.92 5868.89 5291.05 8137.11 3928.53 6650.77 5036.58 5776.96 4888.12 4209.49 6119.63 4247.69 4409.27 5439.9 4588.99 4752.9 4947.24 4321.21 6506.86 3540.11 5950.45 5088.57 4923.43 4728.55 4568.64 5666.95 4642.2 4127.53 4489.99 5260.52 4212.15 6102.49 5678.58 3185.09 2945.34 5114.23 5495.0 7407.91 5846.95 5716.42 5701.63 4620.95 5368.93 4488.39 6121.56 5879.24 5740.78 6824.53 5997.91 5385.86 4742.82 4422.23 4820.68 6031.22 4171.02 3618.64 7012.36 3530.82 5028.06 4002.99 5587.3 3572.73 3770.22 4864.38 4390.64 4848.98 4491.96 5150.84 4608.01 5184.98 5339.82 4467.51 5460.57 5703.34 4612.68 6668.98 3207.84 3977.98 6649.52 5462.6 4262.19 5617.29 4597.88 4845.91 4878.93 2002.78 5631.32 6892.33 4505.3 4731.37 5023.61 3976.0 4672.86 6530.78 5118.86 2960.5 4975.32 4298.7 4183.4 6170.9 4733.79 4436.48 5833.78 5615.35 5117.52 3967.76 6311.89 4683.28 6405.69 5679.74 3791.41 4825.73 4092.07 5247.01 5853.12 4208.37 5157.38 6203.03 5188.82 5615.84 5235.87 5273.37 4464.73 5043.14 4928.85 6440.38 5556.0 5484.32 4711.04 5007.21 6045.67 7144.05 6226.14 4216.95 5466.33 5742.74 5464.25 3821.94 3946.28 4209.31 5486.48 3498.16 5718.28 5301.47 4514.39 4640.06 6242.79 5993.0 5391.48 5467.63 6047.14 4803.57 4554.68 4140.92 4929.6 4368.28 3919.62 5984.8 5750.35 4945.0 3127.83 4585.04 4241.68 3986.41 6949.65 3469.18 4095.83 3372.95 5695.25 4489.29 5323.95 5676.61 4301.93 5796.26 4603.04 4870.94 5106.33 5198.94 5293.37 5933.54 5271.88 5464.05 5559.79 2980.31 5453.2 3148.79 6348.93 5264.83 5136.51 4332.64 6815.51 5232.16 5189.91 3989.26 5777.26 6119.0 3792.06 5128.59 4293.3 5310.33 6583.37 3688.83 3402.44 6084.88 4397.06 4053.12 4479.5 4014.44 6261.67 3435.13 5065.78 4431.46 4521.42 4614.49 4232.33 4747.68 4939.56 5770.92 3093.38 4723.71 4461.67 6322.0 5793.14 4452.36 4491.26 4511.34 4068.41 6463.71 5560.23 3043.77 5237.55 3902.48 4304.64 3909.94 6030.39 4905.53 4823.06 3799.01 5758.98 5254.49 5288.64 6213.24 4217.36 6734.39 6549.8 4851.18 4150.76 4165.36 5005.72 5368.52 5288.33 6296.54 4841.7 5702.4 5069.9 4717.73 5473.89 6089.45 4732.37 4985.3 5072.5 3904.07 3274.85 5713.36 5545.59 4173.54 4619.2 5599.29 5280.12 4801.8 7216.98 5984.81 5721.05 5271.02 6329.53 7013.17 3805.67 4590.01 5367.73 6101.86 5078.31 4807.35 4227.41 6761.81 3903.91 5630.9 4512.07 4756.8 4692.32 4896.43 4176.32 5463.06 5236.24 4639.8 6069.78 5532.75 3587.93 4517.29 4975.85 4495.75 6171.01 6229.83 4468.26 4523.81 5065.74 5578.18 5791.25 4873.23 4028.35 5410.6 4733.41 4969.68 3901.53 6636.43 5431.14 5313.86 4457.05 5178.07 5151.19 6509.54 6079.55 5485.61 5308.4 4993.49 6581.13 4569.32 5803.3 5537.61 3543.98 4721.98 5252.82 4199.44 5878.55 6604.72 6002.77 4610.55 3794.47 4967.02 6043.34 4462.5 4128.93 4959.72 4712.17 5004.68 3808.04 5348.11 4405.61 6126.5 4034.88 6007.1 6345.2 4832.21 4609.65 5009.21 5059.37 4742.35 5783.38 4139.39 6264.03 5645.54 5088.64 3562.8 6589.8 7392.65 5319.1 3729.16 3783.36 3757.23 4181.93 6828.8 5942.45 5987.88 3579.59 4228.53 6123.46 4871.77 6142.88 5811.26 5797.21 5685.74 5388.73 6740.35 952.938 4678.7 5810.17 3673.6 4966.07 3306.84 4657.24 5748.9 4400.14 4749.18 5553.94 4506.18 5494.28 5606.51 5166.41 5740.65 6038.68 4444.97 5046.12 3000.29 4807.4 2596.96 6349.67 5261.19 4350.15 4139.3 3516.27 6541.45 4601.74 6106.43 5644.81 5228.75 4177.47 6545.99 5334.36 4218.16 2918.64 4933.49 6139.64 4357.11 3990.94 5477.8 5486.89 4462.35 7208.19 4549.51 5025.42 5196.08 4965.24 6379.38 6257.79 5438.55 4849.5 5353.23 5977.66 5209.5 6175.27 5876.51 6731.89 4286.61 2932.52 4603.66 3557.46 4757.87 5971.95 6298.8 3979.46 3689.24 6321.97 6412.84 6071.59 2589.19 3856.4 4137.16 4696.06 4937.36 5984.55 5672.46 3228.27 3956.24 7558.99 4142.1 5056.26 5445.91 5333.04 4812.59 4521.99 6842.54 7115.67 5400.69 6038.56 5573.31 2807.46 4023.88 5599.16 3488.34 5428.24 5658.35 5886.81 5108.84 3511.5 4582.12 4520.14 5067.92 5488.96 5704.61 5410.73 5394.79 4574.03 5290.37 5264.08 4526.87 4151.74 4227.66 5192.82 4594.89 6920.92 4174.22 3573.84 3038.91 3922.28 6570.43 6883.86 6161.94 4065.28 5155.28 5057.59 4461.14 5111.26 5285.6 5062.77 5205.38 6019.35 6075.99 6028.63 4600.71 3450.07 5265.21 4550.92 6215.87 5191.26 5866.42 4067.96 4704.92 4824.12 3663.0 6542.5 4099.26 7104.73 5067.56 5206.47 3834.47 5701.75 6162.3 3272.75 5971.21 5493.89 5262.47 4264.54 3512.94 7043.44 3831.52 4263.65 4258.98 4750.49 4263.78 4643.9 3787.08 4013.86 4816.51 5218.42 5345.73 4770.63 4841.23 2804.54 4196.62 2809.19 5005.6 5589.53 4104.04 5593.79 5104.39 5234.2 4612.13 5846.6 4109.44 5327.05 4903.84 4290.49 4557.1 4434.65 6688.53 5927.1 6500.45 4907.55 4103.76 4094.63 5084.76 6605.11 6834.92 6379.33 5130.57 5652.73 5402.45 5090.48 5582.28 3985.93 5945.25 5985.75 6189.29 3074.49 6571.26 5202.33 3393.59 3549.92 5043.14 4032.06 5089.1 5246.81 5394.78 2853.68 5675.45 4998.37 3361.11 5901.71 6559.82 4179.8 6565.95 4577.98 5043.34 4487.51 4246.24 4295.25 5357.14 3188.21 4850.95 5128.03 3720.92 4379.91 5087.3 4942.63 6139.74 5850.38 7066.26 4691.01 4730.97 5245.95 3677.85 5214.71 5821.42 4067.89 4515.02 6294.09 4571.57 3445.92 3350.99 3820.19 5236.69 4979.5 4586.82 4745.37 5418.98 5939.29 5575.11 4574.54 4949.55 4884.93 3132.34 1969.87 4764.83 5262.79 5927.2 5146.1 5035.71 4419.79 6485.77 6060.06 3669.32 4762.1 5610.53 4954.81 2970.9 4834.39 4383.47 6304.49 4608.34 4835.97 4057.17 5695.79 5464.83 4770.51 4184.47 2781.96 7066.96 4991.35 4467.0 3104.96 4994.65 4587.7 5601.55 4462.87 4346.07 5196.92 4012.92 5759.79 4598.54 4711.15 4426.02 3825.48 4474.39 5459.92 4658.59 4096.47 5188.22 3810.68 6478.35 5453.77 4916.7 2638.82 5030.33 5157.73 4541.22 5847.91 4946.08 3539.68 4934.66 4696.03 4984.01 6217.33 4605.39 6270.59 6045.26 6263.87 5743.8 6666.34 5581.01 4645.91 5749.53 4125.75 3746.62 5247.73 5034.02 4876.37 5260.13 4649.5 5181.31 4810.74 3900.93 5475.83 5784.38 4329.8 4149.17 5728.27 4313.38 4720.22 5580.95 5250.56 3633.58 2468.16 5888.95 6294.14 3463.34 5122.38 2459.88 5262.85 5329.84 5470.67 5225.11 3879.83 5252.22 5733.12 6436.29 6805.02 7394.47 4729.45 6261.13 5919.27 4793.06 6637.38 4975.57 6188.33 6111.23 3057.3 6150.31 4677.84 5873.62 3463.53 4811.11 6126.03 5131.07 4121.07 5524.28 3133.28 6026.04 5731.43 6200.05 5859.17 5615.06 5490.54 4034.41 4841.28 3957.38 4047.95 4494.15 5507.38 6889.5 4710.88 5001.69 5407.69 5544.27 3869.39 3484.81 5960.5 3742.31 3987.69 4316.0 4546.96 6502.99 4287.25 5424.55 4580.06 3926.11 5755.15 5134.72 4271.07 4191.01 6419.64 3814.16 3622.8 4589.06 4140.04 4920.88 5995.4 5414.58 5577.41 4431.23 5917.34 6511.37 5740.98 4216.44 3999.5 6710.14 5034.05 3953.26 5467.51 4625.53 2347.41 4542.16 5714.51 3543.37 5114.67 2030.03 5353.66 5527.27 4621.33 5765.14 4767.54 5121.08 2927.84 5688.77 6177.68 5466.13 4698.7 6229.64 5257.38 2848.44 5625.02 4220.43 4975.56 7282.36 3826.01 4829.77 4444.92 6959.88 5971.9 4532.67 2513.38 4769.62 5316.05 3995.08 5019.84 3874.12 4028.13 4457.73 6476.35 6260.58 3053.19 4067.24 2832.83 5827.3 4084.87 6598.99 3010.1 3825.98 4589.22 4339.97 5203.75 4667.84 5169.09 4512.6 4210.24 4636.45 5342.9 4932.27 4962.35 6786.37 5402.81 4600.81 5354.48 5640.63 4900.26 4167.55 5374.09 6271.22 3421.81 5378.75 3920.64 6186.24 6916.18 5786.06 4137.41 4996.91 4924.52 3920.44 5379.52 4866.8 3768.62 6044.69 2970.24 4197.87 5105.54 5462.1 6353.81 3414.67 4052.49 3518.14 4150.44 5061.74 5203.54 5326.03 6189.67 6142.94 4948.96 5117.83 4416.87 5300.17 5256.82 5152.78 5308.33 5393.43 6896.55 4666.12 4392.75 4921.1 4685.65 6219.34 6023.07 4420.6 5340.05 5287.25 6506.63 5418.12 3626.86 4215.05 6371.96 4668.8 4271.93 3495.3 5890.25 5322.11 5700.79 4697.49 5735.08 7133.44 4726.2 4750.81 5600.21 4282.11 4656.01 6589.13 4037.86 5602.62 4138.59 4938.33 4970.55 5628.97 4484.78 4819.83 6286.27 4801.16 5071.38 5616.66 4802.36 5368.28 4880.78 5075.23 5509.09 3873.72 5212.05 4592.49 3625.98 5479.86 6474.5 3928.99 4702.32 4763.04 5944.52 4413.56 5050.2 4821.41 4924.53 4908.32 4499.52 4813.24 5759.19 3113.64 4490.2 4304.75 5480.86 6139.9 4474.96 4758.76 6036.99 3584.05 5087.03 4916.75 3906.41 4691.15 4260.38 6224.64 4221.03 3799.55 5638.51 6793.49 6060.19 3860.8 4333.23 4919.13 4124.33 5168.97 5783.88 4720.34 5002.38 6705.93 5244.47 5510.89 4731.16 6470.87 5822.7 3780.07 4159.89 3868.69 5466.49 5447.74 4450.51 6033.72 5314.67 3851.47 4966.74 5658.05 5563.47 6593.1 4066.36 4000.51 6032.45 6033.93 5444.36 2827.92 5522.34 4026.03 5044.68 5771.98 4420.35 5899.78 5717.45 5772.57 4813.81 6581.56 4117.9 4052.43 3980.46 4057.4 5534.23 4753.76 4638.09 6025.77 4441.91 5377.01 5330.26 5674.63 5828.25 6470.23 5939.22 4725.11 5483.37 4256.08 5092.93 5881.93 5934.05 4157.1 2803.01 4604.1 5125.17 4399.52 5322.07 4859.01 5076.11 5524.45 5770.07 5990.75 5101.6 5327.39 5781.62 4981.81 5141.03 4840.44 8123.59 6033.28 4188.16 6327.54 5507.07 4654.92 2943.17 5286.55 5327.71 4322.56 5522.18 4850.49 5223.1 4981.55 5144.23 6188.62 6153.07 4414.06 5908.57 7296.47 5742.39 4780.16 5738.37 5616.11 4433.23 5312.2 5847.27 4706.59 5734.84 3982.31 4582.24 4950.07 5367.05 4790.63 3743.85 5259.29 6236.46 4818.53 5584.64 4123.08 3795.63 5189.4 4576.71 5082.66 4337.93 4550.77 3563.33 5201.3 3550.88 5536.0 4328.76 5561.63 5940.5 4358.06 5093.51 5647.93 6201.49 4865.11 5449.09 5502.14 4495.33 4465.56 5282.67 4131.08 5747.9 5178.55 4038.17 5007.41 5146.69 4907.48 3692.99 6213.74 5651.46 4959.94 1635.31 3162.27 5639.4 5011.37 5092.44 5516.37 4441.44 2649.69 4232.44 6908.32 3467.11 5000.74 4817.75 6153.26 5268.27 4013.86 5244.95 4061.87 4645.93 5165.31 4896.67 4585.37 5383.9 5901.8 3934.11 3798.09 5158.44 4288.5 6417.61 4466.22 4781.9 6815.96 6153.71 4475.38 5339.6 5917.08 6561.94 5259.21 5317.83 6738.9 5640.67 5992.06 4460.89 5545.68 4714.66 8052.53 4444.0 6771.18 6182.19 4967.93 4984.17 4867.12 5910.66 7415.84 1458.87 4637.3 5734.07 6241.48 3997.68 4414.09 5125.45 5957.82 3784.68 3717.22 6305.9 6649.21 3470.69 5093.28 4859.95 4132.08 6009.88 4699.77 5093.41 6842.35 5464.34 5259.48 3621.63 4777.96 5801.89 6833.5 6608.94 2613.78 3796.73 5417.07 3082.16 3834.01 5656.84 6789.66 4739.41 6760.64 2515.5 5177.88 5551.79 3793.83 3916.15 4449.73 4088.72 3945.62 5097.85 5342.17 6189.04 5015.67 6538.04 4894.15 6157.59 4345.51 6223.33 5145.13 3747.96 5611.29 6568.45 5004.22 3724.23 4280.92 4696.92 5154.74 4605.61 6898.8 5386.95 6540.57 3864.19 4287.93 6203.24 6818.23 2329.93 4488.41 4369.87 6938.87 5412.07 6185.73 5512.57 4083.24 6520.96 5432.2 4612.4 5336.61 3312.3 5563.09 5637.53 4848.15 4439.09 3882.37 4634.25 5523.81 5448.64 5188.57 6351.48 5715.51 5395.12 4496.51 3886.56 4511.05 3830.7 3456.3 6074.39 5350.9 3775.38 3483.61 4262.52 7430.48 4844.2 6572.17 6080.69 3751.73 3939.96 4554.24 4926.62 3374.62 5555.89 4970.12 6369.66 6044.01 6520.19 5973.57 5922.62 5130.56 4957.99 4063.26 5191.29 4947.64 4997.89 4542.62 4881.51 6131.52 2626.41 4311.92 6729.99 6664.54 3922.98 5161.73 4025.08 5254.93 4803.4 8013.28 3846.55 5283.65 4644.68 2892.36 5981.54 5911.29 5416.41 4694.27 4542.25 4414.23 4849.21 4785.55 5245.4 6981.47 6189.81 5647.11 6379.3 5848.41 4090.28 4048.73 5438.6 7370.52 4521.88 5103.3 5467.05 4601.54 7263.57 3832.09 5705.96 6437.99 5267.65 6632.04 5332.11 5315.71 6158.93 5081.65 4823.14 6679.12 5652.19 4621.32 5806.74 4806.99 6578.62 3771.91 4813.55 5856.43 5217.62 3839.0 6178.19 5349.85 4746.19 4616.81 6381.58 5715.25 3282.57 4798.13 5212.2 4611.21 4095.4 5648.59 4718.61 6697.45 5717.67 3873.79 5357.33 5783.69 5252.37 3721.69 6210.0 3224.81 4499.54 5432.4 5782.25 5037.58 6457.89 4081.77 4948.21 5114.61 4987.01 2181.29 6118.13 4420.3 4706.31 6332.64 4202.12 4766.47 5003.81 4871.1 2694.25 4735.99 3917.09 6009.93 5678.08 5872.45 5270.1 6351.95 5195.09 5345.05 5994.21 3997.52 4444.54 7679.2 5779.9 4909.74 5310.33 5299.03 5036.84 4565.36 5669.41 5813.68 4008.67 5040.9 4770.21 3618.53 4868.66 4004.39 5159.9 4987.48 5943.61 4248.58 5479.17 5020.37 5233.88 4246.83 4726.5 4963.88 5888.94 4727.98 4122.2 5175.88 4516.26 3509.34 5739.69 5360.88 3647.26 7360.62 4893.72 6004.72 4072.4 4983.56 5373.78 5345.65 2489.44 5438.5 5863.36 5699.4 3878.8 4698.94 6284.12 3948.21 4796.04 3465.03 5229.56 6011.4 5799.86 4672.34 5172.1 4362.94 4469.82 5108.42 4630.5 6296.36 4432.32 5105.72 5515.59 4082.01 5237.27 5767.65 4451.76 7885.41 4750.76 4046.22 4907.03 4104.97 4575.72 5617.91 4444.95 3903.9 5606.22 4721.2 3943.77 5161.02 6265.48 6081.35 4203.68 6492.44 4083.1 4613.32 4739.56 3482.73 5145.39 4701.03 3996.93 6225.05 3352.46 5434.04 5200.1 5125.53 5405.6 4884.93 3929.35 4759.38 5403.81 5082.25 6964.78 4374.05 5282.51 5504.65 3760.4 4951.02 5732.11 3919.47 4602.7 5596.68 3783.35 4037.16 6395.63 4790.16 3731.58 4977.64 3166.37 4985.45 5205.53 5699.51 5499.37 4489.18 4883.13 4632.75 5237.76 4994.98 4286.84 5669.15 5296.05 5263.86 6988.4 5056.32 3330.85 6052.22 5376.41 6545.78 3354.94 4870.14 4404.87 2932.2 4944.08 5576.16 5269.39 5003.49 3964.03 4305.35 5210.22 4604.34 4216.33 5497.27 4929.35 5442.79 5051.39 6673.92 5242.38 3124.49 5151.68 4884.94 5459.52 6262.18 3818.37 5566.5 5663.36 4276.59 5579.04 5569.85 5306.31 4223.53 5523.96 4733.37 4535.94 3037.72 6960.97 4287.15 5126.08 5604.0 5369.42 5207.08 4714.52 4587.19 5543.05 6028.89 4836.76 4752.94 5333.16 5551.09 6423.96 6058.13 4501.1 5581.47 5894.69 4274.05 6550.61 6635.51 5533.52 4060.17 4713.56 5410.33 5003.63 4747.24 4695.7 4380.86 4909.13 4287.61 3999.81 5648.02 4867.13 3308.75 6377.45 4439.17 5832.72 2701.42 5677.42 4502.12 6853.07 6327.61 4633.59 5733.59 5575.8 5362.15 5268.93 4609.98 4455.61 4738.72 4752.31 5240.97 5106.9 4523.9 4888.17 3950.53 5755.98 5392.85 4384.91 5077.2 5275.27 4987.01 5529.09 4531.46 6051.35 6094.34 5302.53 6779.82 5543.67 4739.5 4072.95 6210.48 4491.62 3865.5 4863.27 2451.27 3255.93 3695.72 6874.6 4277.54 5925.82 5448.68 4182.05 
SCALARS Velocity float 1
LOOKUP_TABLE default
1.29623 1.27485 1.3001 1.25455 1.28142 1.23935 1.2358 1.31622 1.30337 1.27173 1.28742 1.30952 1.30381 1.32172 1.31753 1.25213 1.31607 1.24064 1.20493 1.27096 1.27176 1.26019 1.23177 1.30894 1.30196 1.32014 1.24192 1.27248 1.23595 1.23199 1.32163 1.30173 1.2904 1.30732 1.30432 1.32378 1.34995 1.30126 1.22191 1.24039 1.32892 1.31559 1.28773 1.26842 1.26106 1.25781 1.24418 1.2222 1.22619 1.1952 1.32172 1.29663 1.31426 1.22769 1.23412 1.31667 1.28081 1.29734 1.3059 1.30619 1.3181 1.3439 1.34009 1.29107 1.32209 1.31677 1.3261 1.3323 1.31483 1.29638 1.27899 1.25796 1.24905 1.2249 1.23106 1.19569 1.32109 1.29447 1.30271 1.23314 1.28473 1.2959 1.31356 1.30352 1.31502 1.30889 1.30731 1.34096 1.35237 1.35794 1.31951 1.3356 1.32667 1.33015 1.29836 1.24935 1.24308 1.22846 1.21886 1.23653 1.21874 1.21157 1.25652 1.3165 1.29418 1.30373 1.29767 1.34371 1.28638 1.27394 1.26047 1.31992 1.30213 1.3265 1.28076 1.28889 1.32413 1.32431 1.32101 1.33126 1.35699 1.35734 1.31139 1.32921 1.29143 1.26729 1.18209 1.36667 1.09952 1.26232 1.24482 1.24175 1.256 1.21878 1.28357 1.27154 1.30627 1.30034 1.30678 1.35243 1.33265 1.26572 1.32142 1.34038 1.32276 1.3332 1.31893 1.3576 1.37338 1.2984 1.30602 1.28834 1.36134 1.32109 1.34426 1.36486 1.26878 1.27038 1.24287 1.23295 1.22879 1.22931 1.20499 1.28036 1.25753 1.21653 1.28311 1.3168 1.35416 1.32823 1.31157 1.35147 1.35275 1.35938 1.42168 1.34816 1.3586 1.38601 1.33694 1.36396 1.33166 1.27702 1.362 1.31341 1.31861 1.27483 1.36175 1.36088 1.2747 1.26298 1.24148 1.24258 1.22569 1.27448 1.16856 1.24973 1.20952 1.25746 1.27253 1.3145 1.34766 1.35956 1.36073 1.40208 1.35736 1.32344 1.36144 1.38016 1.19973 1.3936 1.23459 1.27609 1.37658 1.31727 1.18809 1.25989 1.23805 1.23992 1.22715 1.27589 1.20742 1.16923 1.20019 1.23022 1.16193 1.23458 1.26939 1.32452 1.26853 1.3803 1.34365 1.39511 1.42101 1.40546 1.36564 1.3449 1.30464 1.35888 1.382 1.4235 1.21331 1.39065 1.22043 1.27212 1.36003 1.34062 1.18461 1.26375 1.26643 1.31259 1.19765 1.21744 1.24213 1.28464 1.23149 1.14895 1.21679 1.24982 1.35271 1.38107 1.42237 1.41344 1.43303 1.39583 1.45116 1.31024 1.3668 1.39556 1.31552 1.4779 1.19126 1.27651 1.33829 1.3503 1.18359 1.23818 1.31247 1.28069 1.22425 1.29107 1.26509 1.27813 1.31326 1.18235 1.24077 1.3102 1.10686 1.31442 1.44221 1.36329 1.41492 1.47285 1.4394 1.43226 1.33089 1.51727 1.36522 1.37927 1.38579 1.36488 1.4684 1.22973 1.3683 1.25467 1.18588 1.31594 1.39408 1.3844 1.25407 1.31405 1.2935 1.21373 1.22245 1.23103 1.33718 1.33782 1.28427 1.3052 1.26978 1.29767 1.40892 1.45507 1.29302 1.37758 1.45456 1.47369 1.44359 1.48461 1.55876 1.41538 1.37747 1.35036 1.37165 1.41383 1.46263 1.38131 1.26363 1.37067 1.38848 1.37456 1.34566 1.25043 1.37563 1.28488 1.29691 1.23067 1.28689 1.35816 1.29139 1.31807 1.28231 1.42433 1.35238 1.53248 1.46866 1.28011 1.37497 1.3697 1.52155 1.51276 1.5276 1.54877 1.56205 1.49091 1.41185 1.40266 1.35583 1.29158 1.36547 1.52039 1.46937 1.36108 1.36352 1.32127 1.36012 1.34808 1.51291 1.31394 1.22626 1.13066 1.15007 1.23186 1.33755 1.34925 1.34379 1.3 1.29982 1.42806 1.35397 1.32593 1.46578 1.32449 1.30502 1.35478 1.45995 1.53224 1.54698 1.53502 1.43084 1.49196 1.47827 1.44445 1.37767 1.42243 1.46776 1.38364 1.3493 1.27792 1.42073 1.30483 1.45126 1.52663 1.43542 1.31309 1.16386 1.28302 1.37301 1.11194 1.35284 1.32771 1.29694 1.48594 1.27182 1.3767 1.29676 1.27269 1.27248 1.50234 1.5421 1.71419 1.37185 1.79083 1.52624 1.53399 1.5529 1.5442 1.57699 1.50057 1.53461 1.44815 1.39775 1.37748 1.43768 1.33618 1.31251 1.43158 1.61387 1.46215 1.4015 1.31121 1.38571 1.19655 1.13527 1.13091 1.31421 1.30532 1.49766 1.51983 1.53374 1.51246 1.3228 1.18524 1.35398 1.56728 1.52299 1.43873 1.6455 1.51401 1.48448 1.53763 1.52385 1.56518 1.55089 1.5719 1.56557 1.51694 1.43288 1.4379 1.3238 1.45651 1.37034 1.37346 1.24062 1.26817 1.46805 1.53318 1.46899 1.37925 1.58681 1.53993 1.34225 1.22665 1.38614 1.20914 1.24403 1.23728 1.51478 1.50677 1.49586 1.61908 1.40444 1.46387 1.55923 1.54671 1.53238 1.55778 1.51681 1.51764 1.53371 1.55135 1.55887 1.56118 1.53964 1.48291 1.54746 1.17897 1.97991 1.33862 1.3962 1.38523 1.36984 1.34 1.10833 1.34407 1.46251 1.23814 1.19955 1.17511 1.23298 1.46472 1.62621 1.79834 1.57068 1.64385 1.48897 1.55082 1.5408 1.53155 1.56853 1.52608 1.53225 1.54234 1.56961 1.53834 1.57931 1.55444 1.52273 1.51357 1.40263 1.89002 1.33827 1.45054 1.48234 1.41476 1.44748 1.27363 1.62696 1.46459 1.46432 1.52995 1.09164 1.19731 1.37978 1.69143 1.62116 1.93854 1.67496 1.70764 1.64565 1.73448 1.67546 1.53725 1.56081 1.55226 1.54669 1.56145 1.53121 1.52656 1.53005 1.52822 1.54797 1.52194 1.52452 1.52238 1.53052 1.73838 1.20921 1.55231 1.55261 1.59132 1.8324 1.7615 1.57039 1.5623 1.15311 1.18179 1.5624 1.60171 1.91765 1.84413 1.63682 1.6209 1.64637 1.55879 1.55588 1.56666 1.56707 1.57212 1.56122 1.5347 1.52155 1.52519 1.54931 1.52819 1.55515 1.57494 1.66496 1.50272 1.51092 1.83127 1.74123 1.99671 1.6574 1.2855 3.94119 1.65287 1.94586 3.01949 1.61788 1.69986 1.60193 1.59693 1.50988 1.56406 1.5691 1.58217 1.56958 1.57768 1.50691 1.53156 1.53935 1.52958 1.55645 1.5543 1.5476 1.5695 1.55218 1.45541 1.54307 1.6178 1.66989 1.7402 1.75299 2.07311 1.37456 1.90368 1.36522 1.6437 1.70242 1.62684 1.60274 1.59126 1.53363 1.55095 1.53545 1.51014 1.54255 1.54324 1.57084 1.55005 1.55181 1.56849 1.51287 1.58148 1.53901 1.54006 1.53603 1.55465 1.52184 1.53734 1.47964 1.52556 1.53396 1.59736 1.58251 1.7726 2.22292 1.51985 1.39857 0.977931 1.73926 1.65397 1.51224 1.45481 1.50168 1.44008 1.60407 1.51898 1.54479 1.55309 1.51633 1.50768 1.49361 1.51426 1.528 1.49726 1.53145 1.55874 1.58183 1.56873 1.58316 1.5424 1.55419 1.52942 1.50188 1.52099 1.49996 1.49039 1.50553 1.55467 1.50203 1.59139 1.71807 1.65937 1.58302 2.19351 1.16873 1.49051 2.14905 1.47348 1.51919 1.19178 1.60777 1.48914 1.42487 1.49721 1.46521 1.53856 1.53752 1.5381 1.49388 1.50713 1.48757 1.49905 1.51394 1.501 1.51683 1.51486 1.4679 1.53365 1.53532 1.54135 1.49633 1.48998 1.52068 1.48964 1.48667 1.50031 1.48844 1.62372 1.52866 1.73959 1.56333 1.51089 1.66502 1.40967 1.39824 1.40279 1.54666 1.19178 1.57461 1.53166 1.40425 1.49882 1.46811 1.4964 1.52659 1.5118 1.46662 1.5121 1.52059 1.45997 1.47035 1.51421 1.44603 1.49183 1.4749 1.52028 1.49535 1.48617 1.49474 1.52248 1.50915 1.50547 1.43728 1.49993 1.65614 1.53662 1.44867 1.46032 1.46841 1.52339 1.42155 1.40191 1.43344 1.44543 1.45328 1.55172 1.54076 1.52441 1.38252 1.46764 1.41892 1.49506 1.47197 1.37574 1.38719 1.36093 1.39254 1.43251 1.43079 1.48628 1.47095 1.40963 1.45705 1.4432 1.45196 1.41875 1.47481 1.53179 1.50495 1.44065 1.38492 1.46016 1.39322 1.46528 1.41119 1.42848 1.44505 1.51007 1.50003 1.43041 1.42101 1.33485 1.28177 1.48052 1.44269 1.51293 1.43425 1.44103 1.42793 1.35019 1.39679 1.36135 1.40222 1.41259 1.40011 1.41029 1.43074 1.4441 1.46728 1.45033 1.37826 1.45488 1.35921 1.49805 1.46468 1.45147 1.43512 1.42609 1.39526 1.43245 1.42998 1.40426 1.40259 1.39475 1.42665 1.43633 1.47467 1.45365 1.19178 1.37921 1.34341 1.48362 1.33751 1.44977 1.48062 1.41395 1.40276 1.40796 1.32563 1.38011 1.35059 1.40511 1.39655 1.39554 1.40928 1.41942 1.40387 1.45418 1.44476 1.42271 1.3823 1.46927 1.39281 1.41589 1.42178 1.40035 1.41418 1.40104 1.42948 1.41407 1.42155 1.43239 1.39958 1.40087 1.3973 1.40734 1.43173 1.42451 1.19178 1.19178 1.39141 1.38915 1.36002 1.35532 1.38646 1.43041 1.3269 1.40163 1.42309 1.39761 1.35992 1.36147 1.38492 1.3799 1.39476 1.38628 1.38834 1.39711 1.38486 1.38019 1.38451 1.39503 1.38202 1.40059 1.43519 1.45003 1.35702 1.38431 1.39848 1.38316 1.39937 1.3914 1.39668 1.42531 1.40309 1.39389 1.38837 1.39367 1.40421 1.41033 1.40199 1.38783 1.37927 1.35937 1.38043 1.33741 1.30359 1.29998 1.36761 1.38034 1.36444 1.36005 1.3568 1.38928 1.37989 1.38123 1.38274 1.38324 1.3887 1.38458 1.37826 1.38173 1.3795 1.38521 1.32242 1.32869 1.37112 1.37468 1.35819 1.38118 1.37037 1.39033 1.38643 1.42086 1.38843 1.40349 1.38098 1.37469 1.37643 1.40511 1.39913 1.39107 1.39807 1.39225 1.37691 1.35827 1.34154 1.34949 1.33335 1.34616 1.31767 1.34974 1.35723 1.36527 1.39018 1.37702 1.38343 1.40144 1.38917 1.37206 1.37647 1.37155 1.38138 1.36684 1.31531 1.31349 1.36941 1.33346 1.37472 1.36333 1.37209 1.37744 1.35917 1.4321 1.42693 1.368 1.39345 1.34256 1.36437 1.35972 1.34914 1.38622 1.36651 1.33527 1.33237 1.33192 1.3299 1.32971 1.34087 1.33782 1.33283 1.33281 1.34903 1.33917 1.36319 1.37919 1.36108 1.36845 1.3688 1.37091 1.39222 1.40123 1.38838 1.36239 1.38345 1.35954 1.36919 1.36014 1.35198 1.35909 1.3122 1.32518 1.32283 1.33217 1.35223 1.31917 1.36663 1.3854 1.35715 1.42357 1.3952 1.34351 1.34337 1.34491 1.33197 1.34624 1.34042 1.36058 1.36306 1.36469 1.35604 1.36052 1.35883 1.19178 1.33155 1.32943 1.32855 1.32888 1.32986 1.32652 1.32935 1.32808 1.32454 1.35542 1.345 1.35972 1.34386 1.34817 1.37193 1.36067 1.40422 1.40984 1.35385 1.35601 1.35749 1.34646 1.35808 1.32638 1.34387 1.33541 1.32397 1.32509 1.31179 1.311 1.37233 1.31483 1.33587 1.33112 1.35401 1.33508 1.35075 1.33431 1.35432 1.35227 1.33887 1.19178 1.32687 1.32355 1.32524 1.32451 1.32127 1.32848 1.32163 1.32426 1.32677 1.32187 1.31983 1.33574 1.34503 1.34972 1.34572 1.39678 1.37925 1.30184 1.38589 1.35411 1.34451 1.35802 1.34924 1.35106 1.3519 1.33323 1.32345 1.31447 1.30812 1.30645 1.34883 1.3349 1.31711 1.32826 1.31786 1.34159 1.34152 1.32252 1.318 1.32418 1.31196 1.33858 1.32646 1.30848 1.19178 1.32104 1.31837 1.31671 1.3195 1.31461 1.30888 1.3201 1.32021 1.31004 1.31823 1.31706 1.32529 1.31401 1.34062 1.3331 1.33457 1.3498 1.34237 1.36573 1.33 1.28575 1.31382 1.32251 1.32397 1.33539 1.34372 1.3621 1.36193 1.31566 1.32274 1.30168 1.30534 1.30087 1.30947 1.2952 1.32006 1.31667 1.3229 1.3263 1.34296 1.30305 1.33377 1.33108 1.29638 1.28815 1.30123 1.35638 1.31347 1.29229 1.28559 1.30956 1.30512 1.30872 1.31531 1.31533 1.31467 1.3163 1.34821 1.32279 1.32583 1.33643 1.34475 1.34354 1.36255 1.32916 1.34145 1.31205 1.33636 1.30541 1.36146 1.30751 1.28809 1.29349 1.317 1.31317 1.27603 1.33322 1.34076 1.33308 1.32175 1.3223 1.30764 1.31088 1.29138 1.32245 1.31486 1.33022 1.32547 1.31903 1.32272 1.28156 1.29646 1.2835 1.29055 1.28058 1.27242 1.30085 1.28376 1.30045 1.31522 1.30999 1.3178 1.30742 1.30042 1.31266 1.33147 1.31489 1.33587 1.33142 1.3413 1.36134 1.35276 1.33196 1.30654 1.31459 1.29299 1.27149 1.25974 1.2685 1.34796 1.316 1.3291 1.32353 1.32658 1.30247 1.29378 1.30122 1.31627 1.32763 1.31598 1.31049 1.31461 1.30863 1.29853 1.3091 1.30249 1.29454 1.28793 1.29341 1.27617 1.26801 1.26639 1.28667 1.27266 1.3016 1.3162 1.29966 1.29265 1.29835 1.32015 1.3097 1.33575 1.30228 1.34993 1.38235 1.34184 1.32625 1.29361 1.25657 1.23217 1.20449 1.21215 1.40044 1.23879 1.2534 1.31653 1.26423 1.32445 1.32717 1.32144 1.30523 1.31561 1.31411 1.293 1.28005 1.29775 1.29238 1.29523 1.29762 1.27712 1.25804 1.25782 1.25166 1.24809 1.32533 1.29141 1.24378 1.32706 1.27705 1.29232 1.2878 1.30257 1.27245 1.27968 1.30314 1.33206 1.25128 1.29 1.50756 1.36039 1.33449 1.32002 1.27961 1.29484 1.13354 1.21129 1.46426 1.44755 1.26544 1.26196 1.31311 1.17768 1.29664 1.3414 1.30021 1.21794 1.33064 1.3145 1.26475 1.26591 1.28506 1.28797 1.29236 1.2974 1.28571 1.28898 1.28225 1.26846 1.25768 1.25587 1.19178 1.24465 1.24081 1.29771 1.24377 1.22776 1.26779 1.28371 1.26477 1.25449 1.27305 1.28664 1.2879 1.2814 1.25929 1.25836 1.30551 1.38112 1.28067 1.22307 1.23002 1.15886 1.2851 1.34233 1.25087 1.23382 1.16752 1.33714 1.41638 1.3846 1.30145 1.26011 1.28407 1.27443 1.22678 1.2582 1.27666 1.24367 1.28385 1.28594 1.28186 1.27863 1.29165 1.26878 1.26467 1.2552 1.25826 1.23283 1.21207 1.20841 1.1931 1.27368 1.2277 1.25401 1.27833 1.2612 1.25358 1.28953 1.27159 1.2619 1.26481 1.33607 1.2634 1.34711 1.20857 1.23679 1.27457 1.24935 1.31714 1.24487 1.36049 1.3924 1.42347 1.3064 1.33181 1.2886 1.28806 1.23879 1.25391 1.22007 1.2639 1.26694 1.25925 1.28285 1.25896 1.27128 1.25459 1.20204 1.19897 1.19075 1.21116 1.21813 1.27061 1.29005 1.26201 1.29143 1.2707 1.28968 1.26051 1.24185 1.29647 1.25429 1.25986 1.3869 1.37469 1.16415 1.20656 1.18221 1.19191 1.24103 1.22139 1.291 1.23883 1.29067 1.29962 1.27638 1.37208 1.33444 1.33629 1.34431 1.29756 1.31867 1.32345 1.33088 1.32273 1.30481 1.27248 1.23411 1.21941 1.25239 1.26922 1.26129 1.25182 1.27538 1.22138 1.25658 1.23864 1.2459 1.24424 1.29103 1.31778 1.19178 1.21703 1.21234 1.24593 1.26589 1.28785 1.24468 1.2664 1.21331 1.17958 1.22616 1.37154 1.16022 1.2057 1.23621 1.29085 1.25959 1.29588 1.332 1.21468 1.35122 1.35216 1.35356 1.33921 1.33138 1.34742 1.34263 1.32401 1.33378 1.27663 1.23456 1.30947 1.28293 1.22379 1.25096 1.19997 1.2431 1.2283 1.23032 1.31622 1.26147 1.29429 1.41536 1.27258 1.15058 1.31657 1.18301 1.02493 1.45036 1.1684 1.64304 1.21676 1.24302 1.20113 1.25234 1.22587 1.2104 1.20698 1.23998 1.23286 1.21962 1.21146 1.14119 1.19457 1.18912 1.16343 1.25743 1.23732 1.21565 1.26303 1.22732 1.16875 1.1428 1.32546 1.32308 1.30825 1.34863 1.33941 1.35492 1.34916 1.33447 1.36951 1.326 1.30866 1.19215 1.23371 1.17337 1.15715 1.22926 1.21515 1.18065 1.21385 1.29651 1.50029 1.39752 1.18116 1.13579 1.07233 1.20428 1.41449 1.32999 1.60517 1.21967 1.30185 1.1346 1.24705 0.984709 1.30476 1.22168 1.21257 1.2461 1.21101 1.19715 1.19892 1.18914 1.21656 1.26052 1.18706 1.29299 1.25487 1.2105 1.18292 1.10445 1.18551 1.34951 1.18393 1.33738 1.30787 1.29633 1.38968 1.25564 1.37352 1.33193 1.46169 1.29021 1.12733 1.21682 1.25789 1.24274 1.1176 1.35169 1.28381 1.50572 1.03635 0.843738 1.08506 0.571006 1.93894 4.58955 1.11747 0.890288 1.68062 1.68215 1.79895 1.89473 1.29779 1.34011 1.18629 1.15227 1.22269 1.25884 1.22972 1.24823 1.24623 1.18595 1.20414 1.20605 1.20541 1.21211 1.21416 1.15599 1.26884 1.22078 1.14416 1.05758 1.1311 1.35469 1.32107 1.20521 1.26321 0.992904 1.35076 1.60058 1.09624 1.01939 1.31514 1.33433 1.30416 1.16827 1.20671 1.17443 1.36827 1.18668 1.41556 1.92952 12.9568 0.560396 1.21498 1.18035 0.785812 0.785301 0.848059 0.751942 0.895959 1.25399 1.29975 1.18532 1.52501 0.702381 1.44884 1.54039 1.15934 2.10054 1.88883 1.1212 1.15392 1.08561 1.12903 1.16007 1.23548 1.36176 1.33799 1.22539 1.12498 1.17033 1.22282 1.16769 1.18851 1.19159 1.19144 1.13515 1.18203 1.13153 1.28717 1.10305 1.13058 1.04276 1.1414 1.0534 1.01675 1.26912 1.17779 1.15712 1.33942 1.52196 0.861414 1.17002 1.23343 1.20298 1.26979 1.21395 1.17312 1.18003 1.19069 1.14115 1.17338 1.40589 0.607014 0.970423 0.877824 1.19225 0.554444 0.849989 0.824911 0.997686 0.825077 0.751997 0.807571 0.835688 0.860597 0.882071 0.696303 0.870769 0.805392 1.14903 1.35174 0.770263 0.830815 0.824319 0.914195 0.749253 0.888194 1.11067 0.900677 0.531749 1.26042 1.01874 1.14055 1.09048 1.1249 1.13465 1.18326 1.18166 1.22047 1.09711 1.06524 1.14997 1.20495 1.18803 1.21759 1.14638 1.17847 1.00613 1.17607 1.17021 1.13741 1.01228 1.10539 1.06078 1.04554 1.03056 1.2242 1.07494 1.19829 1.19925 1.08598 1.13687 1.20563 1.15917 1.02735 1.03765 1.08607 1.12868 1.1984 1.14726 1.14613 1.15691 1.27853 1.27418 1.06109 1.21889 1.50142 1.11573 1.31098 1.30547 0.849624 1.26451 0.914251 0.863108 0.902068 0.948098 0.760698 0.871038 0.86145 0.613064 0.819718 0.841143 0.713073 0.659648 0.623432 0.627571 0.590266 0.605698 0.619119 0.66893 0.597432 0.655881 0.471473 0.531479 0.884533 0.908076 0.947601 0.900701 0.744275 0.745383 1.08145 1.122 0.751262 1.24085 0.965733 1.24567 1.17527 1.60481 0.775227 1.14377 1.14469 1.10213 1.1239 1.07565 1.05257 1.05 1.0838 1.34253 1.26382 1.02358 0.970253 0.908494 0.880716 1.13441 1.09775 1.07674 0.998749 1.03041 0.996482 0.996472 0.982831 1.00352 1.03732 1.07397 1.05195 1.12434 1.11985 1.0899 1.24482 1.37723 0.794769 1.0186 1.03734 1.01851 1.14464 1.04609 0.89032 1.02291 1.09416 1.08882 1.07874 1.0677 0.977017 0.938571 0.742972 1.20794 0.819364 0.89288 0.644144 0.678967 0.800854 0.825854 0.807799 0.653497 0.806458 0.707318 0.688387 0.523173 0.677796 0.693162 0.836779 0.883359 0.751415 0.499166 0.600551 0.572846 0.624141 0.692293 0.618077 0.635326 0.704904 0.557811 0.645182 0.719804 1.07083 0.906614 0.864441 0.885247 0.490929 0.967818 0.838412 0.978368 0.964882 0.917889 0.889145 1.03373 0.889348 0.925279 0.9419 1.00204 1.07109 1.06336 1.09785 1.5157 0.447842 0.71763 0.660442 0.997572 0.950736 1.05442 1.00649 0.997812 0.959171 0.979169 0.983304 0.987839 0.976294 0.998285 1.03196 1.04336 1.00513 1.07002 0.993348 0.903429 0.980239 0.99905 1.03037 0.956204 0.975918 0.936134 1.06186 1.01801 1.03618 0.830723 0.986215 0.789914 1.00172 0.893849 0.761232 0.73614 0.795285 0.794306 0.866199 0.819791 0.882684 0.851892 0.85826 0.793513 0.826923 0.886909 0.94169 1.16165 0.540904 0.6226 0.653924 0.673362 0.66837 0.668225 0.693845 0.465191 0.947005 0.814912 0.735778 0.441179 0.483476 0.53798 0.665137 0.5789 0.534516 0.597544 0.627132 0.752809 0.771233 0.730724 0.709243 0.764772 0.738761 0.860542 0.810231 0.902299 0.951703 1.17592 1.10598 0.912472 1.04584 0.764844 0.847243 0.917422 0.924679 0.874699 0.77127 0.908121 0.899555 1.0285 1.11104 1.10153 1.16498 1.1824 0.591515 0.894957 0.952674 1.03492 0.927733 1.04588 0.95647 0.979745 0.962249 0.939454 0.920551 0.895519 0.901613 0.924288 1.06496 0.916568 0.914434 1.03149 1.02055 0.998361 1.1073 0.953114 0.954691 0.867406 0.959228 0.867297 0.878364 0.892439 0.93161 0.835485 0.897949 0.787867 1.03077 1.03884 1.11858 0.9587 1.03165 0.897741 0.812425 0.808581 0.795671 0.836846 0.813488 0.745306 0.807529 1.06643 0.696702 0.739493 0.709237 0.77754 0.695395 0.673979 0.674642 0.667623 0.691412 0.669033 0.654425 0.63956 0.512768 0.502473 0.505139 0.590057 0.758946 0.655822 0.5889 0.618605 0.492635 0.678832 0.663124 0.69915 0.805701 0.740115 0.749718 0.630595 0.748288 0.727911 0.768224 0.722222 0.727762 0.925728 0.876093 0.933635 0.883887 0.925833 0.866171 0.890183 0.814366 0.739391 0.815895 0.857057 0.666146 0.752068 0.808545 1.06608 1.03833 0.581214 1.16439 0.972457 0.825683 0.958901 0.986035 0.866228 0.800895 0.766963 0.826699 0.869414 0.857091 0.879298 0.89218 0.939902 0.945932 0.945339 0.928111 0.91161 0.918495 0.890766 0.827723 0.84565 0.783146 0.848128 0.848699 0.940872 0.841442 0.893997 0.75377 1.11189 1.016 0.920558 0.859688 0.860667 0.857009 0.814135 0.837277 0.803882 0.691754 0.711651 0.616286 0.927639 0.580153 1.01881 0.789664 0.62121 0.838857 0.658112 0.779123 0.806008 0.790293 0.773648 0.748438 0.56326 0.942032 0.740581 0.695487 0.678198 0.678306 0.661795 0.64476 0.720532 0.755176 0.577882 0.733367 0.506183 0.65676 0.56381 0.532007 0.556119 0.525111 0.564777 0.570582 0.553317 0.601662 0.624848 0.658311 0.66485 0.61872 0.65555 0.636158 0.649093 0.615656 0.726318 0.748047 0.667368 0.792069 0.763302 0.703286 0.825315 0.872067 0.870941 0.832659 0.867739 0.941473 0.83291 0.823326 0.731003 0.70819 0.673855 0.773162 0.730163 0.834321 0.858393 0.782985 0.808067 0.983346 0.97389 0.919086 0.826962 0.829013 0.806503 0.840732 0.785508 0.792074 0.843805 0.893608 0.922241 0.981654 0.94378 0.909625 0.899862 0.909088 0.920555 0.88784 0.871139 0.780784 0.827959 0.796316 0.773487 0.831836 0.743883 0.78333 0.695375 0.735552 0.801003 0.94806 0.846609 0.863819 0.819869 0.842378 0.797499 0.693007 0.7494 0.590152 0.682986 0.655782 0.662308 0.507577 0.676603 0.592397 0.579355 0.55181 0.708475 0.624899 0.537804 0.59137 0.721354 0.814732 0.738576 0.853662 0.473538 0.725079 0.599801 0.62253 0.596998 0.686292 1.02071 0.492711 0.661471 1.10806 0.931881 0.326339 0.690457 0.934997 0.667228 0.665996 0.650101 0.615158 0.639096 0.602313 0.589978 0.585275 0.580009 0.568281 0.569498 0.562328 0.574349 0.563823 0.593435 0.587721 0.589919 0.599572 0.610335 0.655929 0.622459 0.667114 0.628434 0.715475 0.640155 0.877959 0.691076 0.679193 0.555447 0.565434 0.926629 1.05497 0.9694 0.939361 0.720834 0.99639 0.234277 1.09846 0.676917 0.498833 0.671757 0.770988 0.71264 0.672134 0.671812 0.734844 0.776586 0.731983 0.757827 0.864225 0.962073 0.764695 0.887519 0.959544 0.891947 0.935187 0.982649 0.831289 0.773379 0.826462 0.743952 0.760469 0.777472 0.799924 0.800906 0.868242 0.84733 0.934447 0.756028 0.924364 0.909507 0.907912 0.849063 0.822208 0.82402 0.779337 0.737435 0.744574 0.758297 0.744801 0.785331 0.844147 0.832358 0.798858 0.838223 0.821418 0.830227 0.809215 0.832593 0.775703 0.807714 0.758477 0.699983 0.681248 0.667013 0.629769 0.616564 0.549384 0.619021 0.676018 0.593224 0.667804 0.710821 0.660849 0.598271 0.652485 0.628148 0.638884 0.672973 0.761187 0.688036 0.657048 0.593183 0.55497 0.539893 0.611423 0.63462 0.631227 0.63045 0.588594 0.581444 0.591454 0.588965 0.580798 0.570825 0.615753 0.600249 0.590214 0.572185 0.586601 0.579314 0.578813 0.583631 0.577295 0.584153 0.579128 0.58525 0.589707 0.601563 0.60695 0.610843 0.610687 0.623923 0.643829 0.59722 0.37068 1.24172 0.625427 0.721078 0.662235 0.360832 0.16967 0.276682 0.544606 0.619903 0.577165 0.647458 0.744861 0.810077 0.73681 0.696408 0.689154 0.689431 0.717527 0.662419 0.739823 0.689417 0.860286 0.883559 0.735558 0.759897 0.747999 0.723975 0.797891 0.790238 0.831372 0.788794 0.741361 0.79436 0.716877 0.719359 0.888194 0.86027 0.822892 0.805195 0.79429 0.765984 0.68038 0.751836 0.755475 0.734421 0.788056 0.779048 0.779874 0.805383 0.788422 0.807146 0.784046 0.754711 0.737558 0.751524 0.700257 0.760893 0.679521 0.659778 0.664471 0.662809 0.63118 0.661502 0.581331 0.68663 0.628951 0.630518 0.642878 0.545142 0.617747 0.627086 0.642344 0.643445 0.639734 0.647836 0.614775 0.635384 0.603435 0.640099 0.592097 0.589981 0.644131 0.622093 0.615193 0.65248 0.607243 0.577604 0.584004 0.598577 0.583955 0.561108 0.577634 0.574117 0.56788 0.525618 0.574249 0.63144 0.583524 0.563345 0.572737 0.573434 0.579472 0.576232 0.57922 0.580732 0.585723 0.587461 0.597842 0.609051 0.617462 0.605794 0.626363 0.630236 0.637699 0.627525 0.665131 0.681556 0.625585 0.612212 0.633798 0.533561 0.543276 0.551461 0.387941 0.477183 0.540939 0.634179 0.768962 0.779917 0.877088 0.821697 0.812005 0.742806 0.761685 0.718511 0.740469 0.688812 0.784461 0.899337 0.660021 0.627209 0.773098 0.819101 0.89998 0.660467 0.828878 0.647705 0.681875 0.762039 0.799323 0.691583 0.739839 0.744574 0.747256 0.726403 0.728115 0.85341 0.797232 0.761283 0.747996 0.692703 0.734973 0.624599 0.749967 0.735174 0.805442 0.856572 0.78573 0.770164 0.804083 0.743741 0.800694 0.805063 0.804511 0.748052 0.745249 0.737684 0.721052 0.726833 0.666876 0.642774 0.663179 0.644119 0.641252 0.654724 0.648904 0.63139 0.623574 0.601119 0.623608 0.633185 0.625915 0.624624 0.609663 0.613752 0.607876 0.60831 0.609644 0.600807 0.599841 0.705408 0.587421 0.587091 0.582972 0.652086 0.583064 0.587766 0.585505 0.573583 0.524918 0.593016 0.559334 0.521942 0.533876 0.527358 0.507533 0.495706 0.491553 0.430487 0.362339 0.519626 0.541021 0.563829 0.542067 0.561915 0.578833 0.578609 0.589114 0.586006 0.559476 0.577826 0.565282 0.577624 0.570505 0.573294 0.573546 0.564039 0.564732 0.57365 0.572831 0.585375 0.594151 0.602333 0.587642 0.604271 0.613507 0.618062 0.608881 0.67582 0.649994 0.668257 0.612496 0.559388 0.580586 0.614833 0.572807 0.457814 0.508403 0.680766 0.717513 0.687607 0.756473 0.93671 0.762826 0.864761 0.755616 0.783745 0.699566 0.787998 0.795371 0.926812 0.81346 0.974194 0.702687 0.861193 0.746659 0.629705 0.909658 0.767704 0.733839 0.517172 0.581716 0.679718 0.685211 0.741009 0.732748 0.74254 0.711793 0.721189 0.715874 0.704888 0.704174 0.69516 0.6945 0.737922 0.698846 0.702637 0.642548 0.572823 0.561159 0.718817 0.553907 0.859893 0.560078 0.812612 0.734397 0.751358 0.717996 0.746021 0.759153 0.77701 0.693532 0.716213 0.612668 0.736256 0.602315 0.623398 0.633402 0.631753 0.623979 0.631074 0.602188 0.642736 0.594834 0.649402 0.566366 0.599842 0.661434 0.683238 0.641595 0.551344 0.638753 0.56635 0.644206 0.653196 0.633604 0.613101 0.609608 0.606043 0.558999 0.56756 0.581112 0.511984 0.567972 0.516054 0.494754 0.524468 0.512574 0.528539 0.505102 0.507166 0.502327 0.496243 0.492797 0.492731 0.494214 0.486662 0.14242 0.0277398 0.256666 0.613153 0.900939 0.593187 0.674112 0.583446 0.594671 0.605101 0.598799 0.599381 0.593708 0.573606 0.587528 0.571696 0.569011 0.579396 0.572341 0.579314 0.589588 0.572494 0.591197 0.628543 0.624614 0.639293 0.627588 0.597767 0.590517 0.594373 0.622257 0.709518 0.543943 0.579487 0.634768 0.524537 0.70292 0.558103 0.741141 0.707246 0.602932 0.594769 0.530041 0.397735 0.395735 0.853014 0.769128 0.760558 0.52564 0.523025 0.524419 0.594264 0.522746 0.522239 0.575365 0.613829 0.595333 0.652938 0.734498 0.707034 0.724403 0.722036 0.697515 0.674489 0.676306 0.653033 0.604315 0.577057 0.565647 0.524977 0.536927 0.560402 0.51892 0.445249 0.609304 0.711317 0.730086 0.706772 0.776819 0.730031 0.705221 0.6505 0.61223 0.620644 0.75085 0.594782 0.636597 0.623784 0.603824 0.576544 0.600627 0.588221 0.521102 0.522587 0.47069 0.579576 0.688911 0.460711 0.56842 0.645776 0.532631 0.785883 0.663555 0.591919 0.545483 0.543227 0.56175 0.561654 0.532861 0.528901 0.554921 0.542172 0.525779 0.548919 0.560331 0.522201 0.566686 0.501957 0.503234 0.581216 0.499018 0.496306 0.499272 0.48155 0.449756 0.461544 0.430441 0.551611 0.400222 0.198584 0.494963 0.818884 0.769467 0.823175 0.667094 0.64534 0.617045 0.632919 0.606924 0.570277 0.603209 0.596044 0.634984 0.603953 0.585973 0.65212 0.59283 0.584482 0.597893 0.563944 0.601089 0.566701 0.574951 0.55591 0.515126 0.563745 0.564128 0.500253 0.544138 0.612734 0.586301 0.604764 0.590295 0.601434 0.574302 0.555225 0.56403 0.563151 0.544382 0.547351 0.526694 0.531279 0.804848 0.668034 0.781884 0.67816 0.528719 0.577212 0.362239 0.506818 0.441563 0.652611 0.651711 0.673661 0.517499 0.539563 0.555903 0.582815 0.547167 0.549867 0.551076 0.5635 0.550078 0.622008 0.673744 0.647617 0.695112 0.715828 0.698054 0.702541 0.675599 0.690275 0.658719 0.656026 0.652822 0.613184 0.629217 0.60056 0.576567 0.558679 0.533002 0.532189 0.434859 0.663409 0.527057 0.663825 0.671322 0.556674 0.744338 0.614119 0.592312 0.637008 0.527708 0.540044 0.61604 0.540746 0.555351 0.541109 0.552083 0.546283 0.529429 0.530032 0.4671 0.530711 0.522954 0.215203 0.556646 0.30228 0.732646 0.395186 0.616978 0.616017 0.541637 0.568719 0.549468 0.564798 0.552364 0.569692 0.514439 0.576676 0.559137 0.524931 0.49883 0.525432 0.577763 0.433068 0.469848 0.494698 0.494141 0.443866 0.513421 0.443959 0.423351 0.444395 0.467509 0.249812 0.408533 0.682764 0.676598 0.552106 0.913982 0.640627 1.12521 0.387866 0.670888 0.825049 0.714358 0.686767 0.58496 0.621152 0.618063 0.538784 0.621071 0.628462 0.553416 0.521123 0.494006 0.543633 0.607302 0.474879 0.545803 0.396753 0.467394 0.45527 0.479028 0.449597 0.490366 0.603933 0.663395 0.658368 0.674306 0.585013 0.528365 0.540688 0.545782 0.535527 0.588309 0.579466 0.401948 0.485646 0.538548 0.47635 0.477708 0.441055 0.55694 0.648857 0.609217 0.599059 0.523423 0.551718 0.553167 0.574643 0.548724 0.558518 0.558782 0.581411 0.62298 0.668855 0.686191 0.695604 0.667401 0.625834 0.595737 0.563658 0.553693 0.548774 0.537138 0.535196 0.533553 0.549987 0.49203 0.491104 0.555152 0.535405 0.520518 0.529556 0.589321 0.506135 0.651577 0.558693 0.598552 0.537107 0.533812 0.561264 0.54574 0.568463 0.563422 0.554381 0.570735 0.552466 0.579075 0.579473 0.49454 0.5508 0.621026 0.616452 0.59084 0.563947 0.574219 0.549076 0.551574 0.558362 0.556667 0.554021 0.567647 0.562461 0.550929 0.575979 0.557574 0.540994 0.568639 0.54267 0.50877 0.559198 0.518463 0.528706 0.504396 0.544006 0.428868 0.473941 0.476377 0.462874 0.473707 0.322294 0.263662 0.220269 0.371434 0.408515 0.467556 0.467841 0.448303 0.48594 0.219015 0.627606 0.500643 0.497597 0.491317 0.489395 0.431336 0.40283 0.485479 0.441271 0.494169 0.485271 0.440779 0.389273 0.622322 0.226306 0.402187 0.445667 0.62185 0.623922 0.617475 0.631207 0.418985 0.432312 0.491295 0.477921 0.44301 0.4339 0.50048 0.500836 0.506474 0.489471 0.52043 0.524388 0.512725 0.53032 0.564565 0.539167 0.563929 0.570679 0.555596 0.562345 0.554138 0.571754 0.549649 0.531274 0.559618 0.577283 0.638175 0.586111 0.664048 0.639468 0.708644 0.660898 0.605566 0.612019 0.587481 0.57456 0.588008 0.560612 0.539237 0.541017 0.527977 0.530703 0.532688 0.530564 0.541803 0.542023 0.524953 0.526675 0.547899 0.535336 0.516257 0.474931 0.556154 0.520874 0.526812 0.52829 0.526931 0.531434 0.535844 0.563722 0.55077 0.597812 0.617603 0.628228 0.558999 0.529473 0.516763 0.517057 0.50265 0.468319 0.575949 0.496078 0.554355 0.537308 0.521144 0.519425 0.561942 0.558938 0.564058 0.567301 0.563356 0.55917 0.556145 0.596914 0.581187 0.460265 0.659906 0.335524 0.473237 0.245832 0.541567 0.477302 0.479837 0.468656 0.448546 0.464216 0.447121 0.392011 0.381307 0.337621 0.40823 0.434222 0.427851 0.415437 0.461812 0.43269 0.368963 0.464673 0.424555 0.553164 0.502848 0.526309 0.465272 0.471352 0.434108 0.463703 0.459045 0.476385 0.409828 0.435902 0.458707 0.454921 0.568863 0.697231 0.512735 0.348196 0.480217 0.448517 0.463235 0.444943 0.500845 0.606834 0.481255 0.458671 0.481401 0.477396 0.459403 0.459264 0.469816 0.48375 0.496037 0.499202 0.467127 0.45204 0.439253 0.450939 0.441856 0.496051 0.48463 0.503334 0.522327 0.520709 0.534573 0.543549 0.569189 0.566017 0.566746 0.570743 0.567095 0.488285 0.545667 0.545983 0.571322 0.605433 0.649231 0.635379 0.721747 0.677128 0.669763 0.598507 0.567862 0.562306 0.572683 0.542436 0.565756 0.535058 0.522924 0.527475 0.529692 0.538394 0.547574 0.530338 0.545016 0.528596 0.524218 0.504779 0.488608 0.502272 0.51416 0.517197 0.525289 0.515745 0.521189 0.538544 0.546219 0.546279 0.556436 0.571064 0.512006 0.48549 0.477431 0.489832 0.512184 0.476653 0.468113 0.499322 0.484141 0.48419 0.491678 0.461184 0.41913 0.444401 0.473302 0.564009 0.485593 0.512542 0.581171 0.63331 0.585364 0.742076 0.786787 0.610468 0.147592 0.430199 0.465033 0.435751 0.456057 0.452409 0.430979 0.470126 0.45749 0.444715 0.403123 0.405704 0.416118 0.422085 0.430364 0.44084 0.472262 0.444828 0.444897 0.425784 0.431869 0.432961 0.493395 0.464974 0.468695 0.431351 0.42177 0.447946 0.417737 0.433804 0.451316 0.511807 0.557998 0.518615 0.495623 0.437241 0.421282 0.425523 0.527248 0.469648 0.452095 0.498539 0.47825 0.503973 0.478404 0.500912 0.490156 0.471243 0.448236 0.467789 0.471604 0.510294 0.526018 0.529785 0.537355 0.542805 0.572684 0.57698 0.572367 0.571635 0.562679 0.548731 0.574588 0.561752 0.570977 0.589598 0.574058 0.564286 0.61194 0.777165 0.568247 0.560451 0.435774 0.53331 0.56887 0.593559 0.563491 0.545535 0.53663 0.554403 0.539633 0.537358 0.529375 0.529717 0.528504 0.541714 0.539672 0.513624 0.516343 0.502427 0.496836 0.492806 0.489527 0.499267 0.507096 0.494566 0.511132 0.515772 0.526308 0.536135 0.536201 0.518575 0.518521 0.510403 0.509775 0.499732 0.496429 0.498889 0.495386 0.487647 0.474091 0.487577 0.477632 0.486465 0.458055 0.447321 0.473418 0.438709 0.451609 0.422695 0.527488 0.433075 0.425793 0.313784 0.420369 0.598862 0.42749 0.586448 0.28659 0.657813 0.473797 0.471285 0.43302 0.417017 0.413709 0.43693 0.441636 0.43384 0.435028 0.430213 0.425816 0.385413 0.393457 0.385745 0.38096 0.382787 0.39308 0.407995 0.384363 0.394727 0.391588 0.40403 0.395175 0.394911 0.405363 0.385941 0.397135 0.403502 0.434094 0.419074 0.410638 0.426432 0.397541 0.401858 0.443957 0.504452 0.467886 0.469161 0.451743 0.372654 0.412891 0.366712 0.369805 0.472728 0.578383 0.571256 0.549106 0.523809 0.506941 0.490265 0.48006 0.502118 0.49055 0.499699 0.510361 0.515228 0.527634 0.55718 0.576176 0.575813 0.604059 0.644846 0.605142 0.564658 0.54296 0.571447 0.607674 0.576754 0.648948 0.518558 0.571394 0.729672 0.598814 0.685678 0.601133 0.490289 0.527819 0.568051 0.598397 0.580593 0.597903 0.552184 0.5766 0.549608 0.526267 0.532175 0.510783 0.518778 0.526939 0.519766 0.533735 0.540013 0.528979 0.501093 0.487502 0.488762 0.493396 0.498854 0.503402 0.509191 0.515002 0.510335 0.521958 0.515056 0.51675 0.510588 0.510723 0.506114 0.503242 0.499731 0.492625 0.482752 0.473328 0.474227 0.47658 0.47623 0.478693 0.472005 0.45901 0.459182 0.438826 0.424321 0.421904 0.437573 0.421893 0.401875 0.393417 0.433079 0.233705 0.326297 0.458728 0.392603 0.432065 0.402413 0.413952 0.41148 0.417286 0.417626 0.411714 0.42005 0.417345 0.415713 0.408992 0.41119 0.401635 0.350455 0.367636 0.359841 0.369027 0.37511 0.377649 0.375816 0.382489 0.39703 0.385449 0.394522 0.382884 0.386556 0.391222 0.389567 0.38678 0.381407 0.397469 0.38657 0.393352 0.40339 0.401926 0.394751 0.391894 0.38785 0.406326 0.420587 0.397185 0.302467 0.436498 0.397557 0.335335 0.0814318 0.306898 0.471277 0.605162 0.627247 0.591412 0.544625 0.520403 0.514164 0.518345 0.505056 0.491504 0.507163 0.507784 0.518491 0.526576 0.545378 0.549043 0.627409 0.651768 0.498212 0.516537 0.573085 0.575397 0.517223 0.616345 0.612394 0.7486 0.445124 0.524042 0.39824 0.476411 0.56794 0.516334 0.622194 0.603097 0.599517 0.565879 0.580512 0.553658 0.524634 0.505277 0.481183 0.534715 0.541327 0.509738 0.5 0.493313 0.483865 0.488802 0.492009 0.496876 0.505087 0.506125 0.512471 0.513711 0.513504 0.513496 0.513819 0.512496 0.509615 0.506676 0.507312 0.503586 0.498914 0.491318 0.483742 0.490456 0.481822 0.479308 0.47836 0.47724 0.474896 0.475451 0.471116 0.471815 0.459603 0.452422 0.456496 0.45203 0.446407 0.429403 0.405231 0.391166 0.40478 0.393099 0.380858 0.392102 0.362718 0.384698 0.395794 0.403474 0.404419 0.410288 0.405697 0.400596 0.406724 0.403279 0.391235 0.393592 0.382336 0.293458 0.287287 0.304215 0.329843 0.349256 0.348437 0.355786 0.359594 0.360945 0.3694 0.372568 0.372084 0.376686 0.371235 0.377273 0.381066 0.384226 0.384823 0.38828 0.389506 0.394366 0.389622 0.396665 0.390768 0.388985 0.398676 0.392796 0.396616 0.39273 0.390643 0.393138 0.395184 0.385824 0.384561 0.380136 0.377057 0.343958 0.30315 0.308125 0.580968 0.384943 0.523203 0.551966 0.533557 0.527815 0.513454 0.51886 0.506136 0.511414 0.509752 0.527133 0.544496 0.545422 0.599039 0.592105 0.73016 0.744439 0.205408 0.446172 0.433572 0.470999 0.428055 0.524409 0.560803 0.567989 0.336725 0.662589 0.830955 0.802983 0.315071 0.320108 0.313046 0.513555 0.366957 0.602465 0.608927 0.585869 0.604436 0.602536 0.588421 0.564401 0.516804 0.445731 0.547677 0.567944 0.51584 0.489839 0.49554 0.501727 0.509979 0.512463 0.514063 0.513863 0.514748 0.509767 0.512931 0.505231 0.507612 0.501458 0.494692 0.489416 0.480771 0.476015 0.475822 0.4733 0.473222 0.472483 0.468413 0.460475 0.467178 0.451134 0.435103 0.431959 0.422159 0.41529 0.390325 0.370649 0.378326 0.387976 0.387284 0.384773 0.390721 0.386247 0.392991 0.389492 0.394117 0.397975 0.389388 0.3913 0.391096 0.399904 0.400061 0.389901 0.393846 0.384339 0.386605 0.374261 0.378648 0.374093 0.364138 0.264659 0.282555 0.280455 0.311256 0.324326 0.330119 0.348309 0.365845 0.371987 0.371794 0.369644 0.368689 0.37515 0.384687 0.391025 0.396049 0.398114 0.398993 0.414585 0.409648 0.404993 0.410828 0.411187 0.410416 0.425951 0.412664 0.398038 0.381321 0.375878 0.362023 0.320049 0.538855 0.711909 0.488621 0.455744 0.53904 0.489027 0.537886 0.547146 0.526598 0.511207 0.51934 0.503207 0.508378 0.500134 0.553187 0.531984 0.535856 0.522254 0.614798 0.654296 0.422581 0.287106 0.416176 0.504661 0.508126 0.498642 0.512436 0.50971 0.538202 0.573093 0.540099 0.928881 0.330537 0.209868 0.275232 0.238065 0.281325 0.395425 0.609105 0.705848 0.611943 0.615903 0.605872 0.580018 0.529344 0.502699 0.481326 0.37717 0.572347 0.472302 0.513267 0.503772 0.504958 0.51105 0.518915 0.514601 0.515269 0.517419 0.520457 0.515541 0.508839 0.504451 0.506875 0.502647 0.499514 0.497245 0.49568 0.483692 0.479301 0.472878 0.465693 0.471023 0.471982 0.470295 0.474451 0.472402 0.460511 0.446546 0.4495 0.429162 0.405732 0.387787 0.381142 0.38379 0.382823 0.381764 0.383312 0.385916 0.383198 0.382798 0.382149 0.380348 0.383678 0.37652 0.373301 0.368184 0.360527 0.351423 0.346878 0.337765 0.210211 0.243043 0.281419 0.172949 0.227267 0.209172 0.257065 0.305365 0.340499 0.366533 0.373694 0.370433 0.366048 0.372667 0.388372 0.39361 0.390851 0.391746 0.402072 0.41412 0.406777 0.417598 0.415821 0.421241 0.424334 0.41792 0.420111 0.424155 0.405478 0.392639 0.378127 0.423791 0.454016 0.43866 0.377672 0.409997 0.463554 0.550688 0.518492 0.526637 0.536613 0.516383 0.509142 0.52455 0.493567 0.500634 0.514003 0.544598 0.520622 0.469012 0.44768 0.507606 0.430172 0.398322 0.466344 0.532247 0.533818 0.549522 0.565159 0.582171 0.690233 0.542152 0.16059 0.127183 0.0927416 0.28103 0.450266 0.339555 0.202703 0.488069 0.601971 0.628631 0.59257 0.534726 0.518244 0.491658 0.479115 0.479821 0.442973 0.451779 0.501472 0.443121 0.498118 0.507077 0.515884 0.522664 0.515103 0.52297 0.528178 0.521851 0.513044 0.519066 0.511197 0.508012 0.505325 0.493892 0.504054 0.495502 0.477956 0.481163 0.470077 0.46004 0.460021 0.472262 0.451096 0.471885 0.469492 0.468897 0.468741 0.466246 0.432184 0.419147 0.404365 0.392088 0.383224 0.379957 0.380572 0.382797 0.381956 0.383594 0.384683 0.37368 0.370874 0.375717 0.3717 0.367364 0.36295 0.354667 0.359699 0.33585 0.358001 0.319304 0.284086 0.247294 0.100781 0.172464 0.194529 0.171394 0.149608 0.17213 0.203465 0.268856 0.321444 0.335615 0.365376 0.374847 0.377239 0.382167 0.371319 0.399382 0.385579 0.402515 0.414848 0.420392 0.424852 0.420877 0.394354 0.398788 0.39651 0.378572 0.392674 0.410596 0.413366 0.428654 0.420682 0.419026 0.446993 0.467956 0.511635 0.522124 0.524383 0.522359 0.517719 0.511369 0.511955 0.534988 0.491056 0.452429 0.45409 0.454223 0.437071 0.479586 0.536805 0.554315 0.519495 0.709618 0.66352 0.172559 0.136484 0.11232 0.100101 0.0405709 0.12021 0.31894 0.364897 0.420419 0.349219 0.511368 0.559914 0.461292 0.564637 0.590866 0.523664 0.588787 0.519306 0.497483 0.486043 0.467793 0.448843 0.44957 0.430258 0.405701 0.510491 0.537857 0.498007 0.528798 0.543515 0.535869 0.52783 0.543885 0.524993 0.517933 0.518314 0.528074 0.51582 0.508678 0.503814 0.468926 0.485957 0.467622 0.457776 0.457421 0.469421 0.466332 0.473164 0.47237 0.431328 0.404582 0.420583 0.403582 0.393175 0.391452 0.381859 0.377708 0.377687 0.374177 0.380822 0.375617 0.382572 0.385121 0.362666 0.365766 0.346268 0.363888 0.353661 0.363461 0.36016 0.359426 0.35658 0.347983 0.348314 0.360894 0.310988 0.363674 0.247552 0.21382 0.18209 0.117688 1.72753 0.24317 0.109314 0.171609 0.19366 0.201202 0.313426 0.366784 0.373645 0.370884 0.355628 0.334568 0.340032 0.361916 0.408378 0.424755 0.419627 0.426122 0.427667 0.416439 0.433124 0.391452 0.396349 0.40347 0.404014 0.394029 0.37717 0.387974 0.418576 0.412963 0.426806 0.451445 0.453552 0.514626 0.526588 0.528162 0.527882 0.526382 0.52107 0.514099 0.512198 0.504577 0.477085 0.511856 0.504856 0.441829 0.462038 0.470505 0.468705 0.466054 0.497479 0.563433 0.622321 0.579355 0.492416 0.479688 0.35885 0.300843 0.160579 0.275411 0.238373 0.400617 0.350883 0.375453 0.515633 0.468389 0.571127 0.513302 0.50182 0.495408 0.473283 0.465048 0.467037 0.466519 0.419776 0.647621 0.527106 0.472254 0.60458 0.542404 0.556665 0.543347 0.552437 0.52916 0.521682 0.512336 0.516004 0.518686 0.469727 0.441329 0.490553 0.464281 0.452511 0.44089 0.42196 0.407097 0.406251 0.399566 0.379048 0.377144 0.364543 0.370886 0.374368 0.377036 0.375833 0.37074 0.355463 0.345482 0.361721 0.34254 0.34546 0.356041 0.344687 0.347003 0.33724 0.337727 0.156319 0.14044 2.14336 0.0448277 0.0960359 0.341797 0.138724 0.355926 0.360652 0.375258 0.375101 0.367415 0.35643 0.364932 0.361044 0.391396 0.372996 0.42586 0.407969 0.427727 0.434572 0.432344 0.419224 0.410091 0.397036 0.404055 0.43159 0.444755 0.449941 0.47918 0.477451 0.492999 0.506732 0.521468 0.525396 0.533951 0.517549 0.511112 0.508901 0.488809 0.460584 0.425897 0.486224 0.475952 0.481867 0.488788 0.493215 0.456761 0.375236 0.329249 0.578627 0.390889 0.178721 0.0571945 0.300988 0.364667 0.551132 0.495579 0.508353 0.506301 0.488214 0.46505 0.468136 0.459022 0.448611 0.395156 0.372276 0.658235 0.518484 0.521516 0.581569 0.559564 0.555106 0.541676 0.532608 0.522829 0.546133 0.492128 0.555789 0.466044 0.451633 0.462167 0.441689 0.453115 0.43666 0.413522 0.411348 0.409717 0.407781 0.411096 0.407344 0.367803 0.358011 0.359129 0.374214 0.348794 0.380726 0.369987 0.379938 0.363955 0.346027 0.323961 0.335998 0.30678 0.343395 0.336695 0.338395 0.340514 0.317971 0.333042 0.260102 0.229639 0.284322 0.156657 0.225947 0.273627 0.514608 0.41155 0.308639 0.305912 0.340569 0.380019 0.38419 0.385293 0.376818 0.40137 0.379338 0.401979 0.405731 0.406297 0.474963 0.438288 0.461069 0.446023 0.430814 0.418829 0.416031 0.431571 0.437487 0.403858 0.394923 0.365776 0.482296 0.477949 0.500714 0.514304 0.518945 0.517362 0.526755 0.519929 0.523354 0.51762 0.518314 0.510239 0.499988 0.487384 0.438832 0.419196 0.524988 0.478923 0.47463 0.54616 0.51858 0.495168 0.482062 0.458509 0.395048 0.443983 0.66102 0.6646 0.571221 0.544506 0.5728 0.570144 0.569995 0.560057 0.551845 0.544327 0.551961 0.538273 0.520034 0.610984 0.550419 0.611422 0.501192 0.490301 0.47129 0.463367 0.453282 0.418719 0.412421 0.405419 0.412775 0.400551 0.413628 0.436595 0.421216 0.374354 0.369379 0.345223 0.333416 0.30518 0.256351 0.317833 0.286631 0.332786 0.295645 0.338233 0.277722 0.16812 0.263022 0.244638 0.145617 0.118272 0.614832 0.72838 0.932586 0.409043 0.35682 0.323393 0.353084 0.403129 0.407734 0.413904 0.442345 0.431747 0.404953 0.390843 0.38667 0.408793 0.38015 0.406775 0.405581 0.474549 0.414514 0.442211 0.455499 0.421785 0.399912 0.406841 0.47398 0.486505 0.423031 0.455264 0.473714 0.498771 0.510038 0.518464 0.524191 0.523993 0.514858 0.51949 0.512301 0.510784 0.50347 0.499283 0.542426 0.569234 0.562851 0.57844 0.556094 0.58315 0.560974 0.459999 0.32986 0.61399 0.521169 0.504927 0.498277 0.436119 0.412195 0.427275 0.41532 0.411756 0.439512 0.426776 0.432829 0.35876 0.363647 0.358943 0.300282 0.292956 0.252722 0.269573 0.290344 0.237383 0.279598 0.29666 0.245664 0.232355 0.1445 0.269664 0.112579 0.614924 0.505665 0.193815 0.471103 0.37889 0.417552 0.410801 0.422539 0.450821 0.357829 0.34476 0.406122 0.447168 0.42766 0.425189 0.503876 0.449887 0.445744 0.442821 0.505126 0.41843 0.533338 0.489569 0.492516 0.5047 0.516013 0.580016 0.575779 0.536176 0.475264 0.3547 0.649008 0.55765 0.530834 0.519977 0.483527 0.454839 0.429919 0.457098 0.428991 0.415427 0.405139 0.410028 0.433508 0.445209 0.428115 0.448021 0.363972 0.301023 0.296831 0.306591 0.3376 0.29013 0.284241 0.236012 0.214761 0.199869 0.331663 0.283114 0.222977 0.0959804 0.477059 0.569238 0.544958 0.271289 0.468564 0.474711 0.428706 0.338375 0.345578 0.344611 0.330206 0.315367 0.417978 0.402478 0.459239 0.699604 0.534149 0.488478 0.476618 0.448475 0.4358 0.418924 0.379456 0.384297 0.417059 0.387921 0.425901 0.35418 0.349855 0.296336 0.342213 0.296618 0.241523 0.225448 0.241816 0.270196 0.310923 0.222569 0.0858169 0.361455 0.349026 0.411963 0.393131 0.27662 0.334359 0.210097 
SCALARS Stress float 1
LOOKUP_TABLE default
-58889500000.0 -25553200000.0 -78748200000.0 -57012800000.0 -99664400000.0 -109339000000.0 -36103200000.0 -82711600000.0 -120562000000.0 -50336500000.0 -189409000000.0 -279882000000.0 -99801500000.0 -164262000000.0 -75074900000.0 -128094000000.0 -102153000000.0 -114763000000.0 -20735400000.0 -44175900000.0 -111647000000.0 -64738400000.0 -37113200000.0 -132460000000.0 -70874600000.0 -163626000000.0 -20599000000.0 -99905900000.0 -131218000000.0 -147067000000.0 -252557000000.0 -230261000000.0 -322992000000.0 -338480000000.0 -245853000000.0 -293628000000.0 -183029000000.0 -158727000000.0 -24811200000.0 -93452100000.0 -149606000000.0 -369392000000.0 -240854000000.0 -77165700000.0 -73052500000.0 -137271000000.0 -65689600000.0 -62823900000.0 -37424600000.0 -26638400000.0 -129389000000.0 -236481000000.0 -352718000000.0 -27287300000.0 -200126000000.0 -385145000000.0 -361330000000.0 -156555000000.0 -343207000000.0 -314045000000.0 -343782000000.0 -395524000000.0 -471328000000.0 -171476000000.0 -212262000000.0 -190053000000.0 -420598000000.0 -434675000000.0 -167393000000.0 -242442000000.0 -448647000000.0 -165361000000.0 -113121000000.0 -104665000000.0 -64509000000.0 -46602200000.0 -251807000000.0 -414263000000.0 -565629000000.0 -100749000000.0 -569873000000.0 -205735000000.0 -262664000000.0 -603486000000.0 -214176000000.0 -672319000000.0 -889192000000.0 -932724000000.0 -119879000000.0 -389063000000.0 -540132000000.0 -153976000000.0 -260736000000.0 -260156000000.0 -280856000000.0 -128053000000.0 -27967900000.0 -89694600000.0 -129501000000.0 -69441700000.0 -42541800000.0 -28374400000.0 -124746000000.0 -389676000000.0 -574342000000.0 -281729000000.0 -652142000000.0 -735836000000.0 -318423000000.0 -327201000000.0 -313917000000.0 -718128000000.0 -373623000000.0 -861541000000.0 -259954000000.0 -605638000000.0 -102201000000.0 -199655000000.0 -537808000000.0 -1.01497e+12 -641322000000.0 -1.21391e+12 -489494000000.0 -419994000000.0 -523107000000.0 -662427000000.0 -72220500000.0 -228072000000.0 -192682000000.0 -287609000000.0 -165550000000.0 -142123000000.0 -38166300000.0 -157923000000.0 -36663100000.0 -56798900000.0 -419893000000.0 -1.00369e+12 -253498000000.0 -112134000000.0 -1.13574e+12 -389458000000.0 -751400000000.0 -1.35513e+12 -1.14993e+12 -460488000000.0 -1.06061e+12 -537614000000.0 -1.32874e+12 -398886000000.0 -594270000000.0 -396387000000.0 -70969900000.0 -432406000000.0 -560464000000.0 -196166000000.0 -250329000000.0 -143204000000.0 -139615000000.0 -74380000000.0 -36628300000.0 -127052000000.0 -31798700000.0 -144421000000.0 -152029000000.0 -268023000000.0 -650741000000.0 -714131000000.0 -762547000000.0 -1.2873e+12 -830662000000.0 -877876000000.0 -682706000000.0 -1.71729e+12 -694051000000.0 -303617000000.0 -1.24624e+12 -432624000000.0 -2.42951e+12 -987448000000.0 -520480000000.0 -1.07475e+12 -1.16543e+12 -846688000000.0 -780392000000.0 -493033000000.0 -763728000000.0 -334348000000.0 -453142000000.0 -251494000000.0 -302205000000.0 -221565000000.0 -31864800000.0 -25818700000.0 -46073800000.0 -258392000000.0 -634612000000.0 -301017000000.0 -175066000000.0 -1.27441e+12 -680590000000.0 -843034000000.0 -708602000000.0 -1.36922e+12 -1.51228e+12 -1.00175e+12 -1.88536e+12 -3.26874e+12 -468390000000.0 -2.33589e+12 -385168000000.0 -881343000000.0 -931257000000.0 -349115000000.0 -19915000000.0 -641052000000.0 -351797000000.0 -218293000000.0 -42963300000.0 -56273300000.0 -19777100000.0 -53811000000.0 -38275200000.0 -136289000000.0 -147723000000.0 -725466000000.0 -244265000000.0 -1.20305e+12 -426108000000.0 -1.79177e+12 -983988000000.0 -860914000000.0 -927386000000.0 -1.54433e+12 -1.52678e+12 -867560000000.0 -1.61464e+12 -1.31046e+12 -620250000000.0 -3.01452e+12 -771490000000.0 -2.15727e+12 -263429000000.0 -643974000000.0 -1.62854e+12 -806932000000.0 -482069000000.0 -954227000000.0 -201499000000.0 -201124000000.0 -20601200000.0 -61934400000.0 -167451000000.0 -34910700000.0 -28831500000.0 -148295000000.0 -866289000000.0 -667450000000.0 -1.49134e+12 -1.38736e+12 -1.11711e+12 -2.07569e+12 -2.80946e+12 -1.13394e+12 -376227000000.0 -1.94129e+12 -1.16673e+12 -1.44364e+12 -1.678e+12 -2.27117e+12 -1.32499e+12 -1.46203e+12 -1.5261e+12 -429142000000.0 -98610300000.0 -357166000000.0 -888679000000.0 -344073000000.0 -185556000000.0 -69181000000.0 -242663000000.0 -177480000000.0 -436395000000.0 -378280000000.0 -829894000000.0 -567664000000.0 -476739000000.0 -1.63003e+12 -1.21036e+12 -1.31315e+12 -1.95805e+12 -3.09103e+12 -1.03773e+12 -545503000000.0 -988705000000.0 -1.07631e+12 -1.84299e+12 -956563000000.0 -2.42312e+12 -1.27436e+12 -2.29222e+12 -704953000000.0 -1.78222e+12 -1.40119e+12 -982531000000.0 -2.16407e+12 -296121000000.0 -634847000000.0 -903989000000.0 -651353000000.0 -707305000000.0 -304204000000.0 -106614000000.0 -69901300000.0 -152833000000.0 -548090000000.0 -515564000000.0 -850664000000.0 -1.09354e+12 -1.55495e+12 -2.26865e+12 -1.21571e+12 -2.15795e+12 -2.64931e+12 -1.6246e+12 -1.06119e+12 -1.50586e+12 -2.49066e+12 -1.97724e+12 -673748000000.0 -1.86797e+12 -3.10796e+12 -2.23232e+12 -2.22601e+12 -1.8669e+12 -2.13876e+12 -1.22339e+12 -1.44022e+12 -1.60262e+12 -587449000000.0 -1.48847e+12 -676506000000.0 -1.12346e+12 -1.43429e+12 -487708000000.0 -439299000000.0 -185055000000.0 -635834000000.0 -906680000000.0 -983492000000.0 -927654000000.0 -1.81076e+12 -1.23939e+12 -1.04088e+12 -1.67475e+12 -2.8177e+12 -2.22096e+12 -2.25732e+12 -3.06733e+12 -1.33543e+12 -1.17594e+12 -1.37874e+12 -2.33522e+12 -3.0409e+12 -1.86387e+12 -1.2638e+12 -884739000000.0 -1.13887e+12 -2.27552e+12 -1.58014e+12 -1.93988e+12 -1.11608e+12 -670504000000.0 -1.62404e+12 -654778000000.0 -1.30065e+12 -344977000000.0 -1.06435e+12 -483385000000.0 -62389600000.0 -60964900000.0 -129931000000.0 -310670000000.0 -356135000000.0 -126537000000.0 -869015000000.0 -1.07129e+12 -1.51666e+12 -1.00568e+12 -1.26119e+12 -2.20003e+12 -1.55082e+12 -1.54832e+12 -1.61282e+12 -2.48616e+12 -2.77561e+12 -2.7066e+12 -2.34994e+12 -1.215e+12 -1.84001e+12 -1.46125e+12 -1.79171e+12 -2.28215e+12 -2.32807e+12 -3.06552e+12 -2.05929e+12 -1.40507e+12 -1.74519e+12 -1.91321e+12 -1.30737e+12 -787490000000.0 -654809000000.0 -851877000000.0 -488370000000.0 -375323000000.0 -140531000000.0 -75226300000.0 -141010000000.0 -542001000000.0 -719385000000.0 -856436000000.0 -268560000000.0 -1.23947e+12 -2.17459e+12 -810059000000.0 -2.14362e+12 -1.59899e+12 -3.76859e+12 -1.402e+12 -1.10117e+12 -3.05064e+12 -1.88042e+12 -2.94821e+12 -1.29419e+12 -1.61546e+12 -2.41651e+12 -2.93048e+12 -1.82767e+12 -3.49879e+12 -3.28292e+12 -4.1049e+12 -2.53006e+12 -2.31778e+12 -2.19728e+12 -2.32968e+12 -2.65294e+12 -796063000000.0 -1.67427e+12 -1.66359e+12 -927695000000.0 -642360000000.0 -220292000000.0 -256665000000.0 -75084700000.0 -369416000000.0 -242342000000.0 -826682000000.0 -1.07246e+12 -851604000000.0 -1.32595e+12 -3.68777e+12 -1.43323e+12 -956966000000.0 -3.3264e+12 -2.64807e+12 -1.86865e+12 -2.60166e+12 -3.0614e+12 -3.92172e+12 -1.52662e+12 -3.88733e+12 -1.50253e+12 -3.05549e+12 -3.86995e+12 -3.8585e+12 -3.07502e+12 -3.5578e+12 -4.91019e+12 -2.38377e+12 -3.52143e+12 -2.60875e+12 -1.46378e+12 -3.18503e+12 -2.06363e+12 -1.7029e+12 -2.43397e+12 -2.85706e+12 -1.04091e+12 -1.32558e+12 -553271000000.0 -1.19971e+12 -678717000000.0 -158933000000.0 -144679000000.0 -89237600000.0 -425541000000.0 -1.36765e+12 -1.17054e+12 -1.53914e+12 -2.38995e+12 -3.61306e+12 -2.01065e+12 -3.46561e+12 -1.38566e+12 -2.86113e+12 -3.26908e+12 -3.65734e+12 -4.44707e+12 -2.97753e+12 -2.78701e+12 -2.36189e+12 -2.86032e+12 -2.00268e+12 -4.54087e+12 -3.86642e+12 -3.29874e+12 -2.03401e+12 -1.20045e+12 -2.15472e+12 -2.59265e+12 -757941000000.0 -1.70834e+12 -60114300000.0 -689453000000.0 -240015000000.0 -93647400000.0 -108702000000.0 -408186000000.0 -386760000000.0 -977420000000.0 -3.59084e+12 -2.78107e+12 -2.64249e+12 -2.84851e+12 -3.73948e+12 -3.67036e+12 -6.20556e+12 -3.06875e+12 -2.92295e+12 -2.72412e+12 -6.04128e+12 -4.97607e+12 -1.53189e+12 -2.88534e+12 -2.76712e+12 -6.57175e+12 -2.6791e+12 -3.68102e+12 -4.03551e+12 -2.95837e+12 -1.54447e+12 -1.90589e+12 -2.60289e+12 -2.57043e+12 -3.2525e+12 -1.68505e+12 -1.6252e+12 -1.42931e+12 -475543000000.0 -577826000000.0 -59891200000.0 -130458000000.0 -1.0125e+12 -1.84936e+12 -2.38753e+12 -1.19179e+12 -2.43059e+12 -3.92559e+12 -3.15397e+12 -2.67453e+12 -2.75757e+12 -2.93641e+12 -4.21941e+12 -5.20859e+12 -3.36943e+12 -3.51015e+12 -5.07311e+12 -3.599e+12 -4.21104e+12 -3.20825e+12 -5.86387e+12 -2.2808e+12 -3.30826e+12 -4.24794e+12 -4.04957e+12 -6.49212e+12 -2.94698e+12 -8.46325e+12 -3.62002e+12 -1.24006e+12 -1.82384e+12 -919292000000.0 -1.27074e+12 -367358000000.0 -98500600000.0 -187773000000.0 -2.08877e+12 -1.9204e+12 -3.09152e+12 -1.71602e+12 -1.95202e+12 -4.67422e+12 -3.99023e+12 -5.78788e+12 -4.83135e+12 -2.98496e+12 -5.0556e+12 -3.46122e+12 -4.48786e+12 -3.43987e+12 -4.02881e+12 -5.57456e+12 -8.73264e+12 -6.22432e+12 -6.90275e+12 -5.47825e+12 -6.54343e+12 -1.80057e+12 -6.81097e+12 -3.69402e+12 -3.96354e+12 -2.50378e+12 -2.38164e+12 -117535000000.0 -1.60968e+12 -3.32624e+12 -4.81213e+12 -2.56242e+12 -3.55756e+12 -5.04663e+12 -5.45979e+12 -6.92098e+12 -6.97353e+12 -5.10424e+12 -5.17758e+12 -4.68329e+12 -5.36489e+12 -4.12997e+12 -5.81254e+12 -6.12069e+12 -5.34637e+12 -5.38701e+12 -6.56034e+12 -4.35254e+12 -3.67813e+12 -5.20976e+12 -7.74222e+12 -3.79284e+12 -4.4123e+12 -6.28182e+12 -8.09966e+12 -5.75812e+12 -9.73651e+12 -7.92914e+12 -1.5308e+12 -3.91978e+12 -6.16182e+12 -4.22279e+12 -4.77624e+12 -5.16463e+12 -3.32744e+12 -3.5706e+12 -6.30233e+12 -3.58403e+12 -2.23457e+12 -5.38503e+12 -4.50727e+12 -4.01751e+12 -5.43438e+12 -2.23315e+12 -5.40599e+12 -2.02379e+12 -5.32695e+12 -5.76112e+12 -3.81946e+12 -6.05412e+12 -6.53341e+12 -6.91804e+12 -1.37522e+12 -3.74892e+12 -5.88814e+12 -3.30815e+12 -2.25156e+12 -9.31741e+12 -5.97044e+12 -4.803e+12 -5.64709e+12 -7.57427e+12 -4.94231e+12 -90027600000.0 -3.6537e+12 -3.37929e+12 -4.45017e+12 -2.76671e+12 -2.54702e+12 -4.46455e+12 -5.33135e+12 -3.20701e+12 -3.06564e+12 -6.66281e+12 -7.04333e+12 -3.82731e+12 -5.68188e+12 -4.51635e+12 -6.22806e+12 -3.71179e+12 -6.05513e+12 -6.8901e+12 -5.37571e+12 -4.06004e+12 -4.77996e+12 -4.03777e+12 -3.184e+12 -6.19831e+12 -2.694e+12 -3.4484e+12 -7.67807e+12 -6.65171e+12 -3.43791e+12 -4.70899e+12 -3.4958e+12 -5.46184e+12 -3.77948e+12 -8.22027e+12 -8.7972e+12 -4.33817e+12 -7.20113e+12 -7.35513e+12 -2.49577e+12 -2.93293e+12 -3.01926e+12 -12549700000.0 -3.82938e+12 -2.91898e+12 -6.26422e+12 -4.66372e+12 -6.76395e+12 -4.64835e+12 -4.1255e+12 -5.95231e+12 -5.66001e+12 -3.79047e+12 -6.14733e+12 -7.9451e+12 -5.99807e+12 -4.97287e+12 -3.2253e+12 -5.80283e+12 -6.57166e+12 -7.81529e+12 -7.66773e+12 -5.01398e+12 -3.88423e+12 -3.49487e+12 -2.49979e+12 -5.3071e+12 -8.08099e+12 -3.22681e+12 -4.71917e+12 -5.42909e+12 -7.86568e+12 -5.93534e+12 -6.56492e+12 -5.24207e+12 -8.62348e+12 -8.20926e+12 -5.5459e+12 -4.27542e+12 -4.07644e+12 -12549700000.0 -4.88679e+12 -4.22449e+12 -5.78036e+12 -8.67616e+12 -9.32507e+12 -1.09978e+13 -5.73875e+12 -5.70051e+12 -8.10186e+12 -6.00467e+12 -6.0588e+12 -5.89646e+12 -3.24418e+12 -4.17591e+12 -4.05605e+12 -5.6546e+12 -9.66773e+12 -7.51748e+12 -5.04161e+12 -9.10318e+12 -8.77696e+12 -8.04462e+12 -4.26223e+12 -7.08715e+12 -6.83705e+12 -6.09458e+12 -6.62727e+12 -4.82913e+12 -5.8976e+12 -5.14081e+12 -5.81831e+12 -7.5191e+12 -4.38591e+12 -5.83545e+12 -3.63659e+12 -6.23742e+12 -3.41067e+12 -3.80055e+12 -4.09408e+12 -2.66682e+12 -4.97006e+12 -3.74543e+12 -5.53231e+12 -9.34299e+12 -9.57828e+12 -4.79795e+12 -8.55821e+12 -7.62066e+12 -8.36682e+12 -4.6621e+12 -1.1336e+13 -4.36231e+12 -5.8557e+12 -6.77332e+12 -7.52515e+12 -6.03718e+12 -7.72681e+12 -7.66205e+12 -9.96346e+12 -6.53764e+12 -1.12331e+13 -9.77363e+12 -4.9771e+12 -6.74141e+12 -4.41036e+12 -4.44365e+12 -7.70339e+12 -4.43205e+12 -4.41927e+12 -4.71368e+12 -6.0151e+12 -3.90828e+12 -5.32001e+12 -4.09981e+12 -2.59814e+12 -4.82946e+12 -7.30078e+12 -7.08252e+12 -7.44239e+12 -3.82022e+12 -9.12243e+12 -6.41723e+12 -5.37392e+12 -6.68164e+12 -3.07009e+12 -9.50581e+12 -5.51292e+12 -4.90964e+12 -7.40749e+12 -9.14546e+12 -9.42802e+12 -5.94987e+12 -6.6236e+12 -5.18643e+12 -8.77745e+12 -5.31825e+12 -8.91732e+12 -4.7611e+12 -5.02071e+12 -6.16012e+12 -7.7366e+12 -6.5151e+12 -5.00192e+12 -5.58519e+12 -4.88264e+12 -1.06735e+13 -6.30716e+12 -7.60624e+12 -4.98212e+12 -2.58969e+12 -12549700000.0 -6.25343e+12 -7.50508e+12 -1.07845e+13 -6.09258e+12 -7.04742e+12 -6.55164e+12 -6.36624e+12 -7.97398e+12 -6.7309e+12 -8.32881e+12 -5.4636e+12 -8.9174e+12 -3.85296e+12 -6.60363e+12 -7.11614e+12 -6.4087e+12 -6.10002e+12 -6.34211e+12 -4.71562e+12 -4.44307e+12 -4.8197e+12 -7.81395e+12 -6.37483e+12 -5.98631e+12 -5.23312e+12 -4.61401e+12 -6.25482e+12 -4.74332e+12 -6.80369e+12 -4.57019e+12 -9.27035e+12 -6.22608e+12 -4.45167e+12 -5.40749e+12 -8.45744e+12 -8.22621e+12 -9.99662e+12 -3.39724e+12 -4.07917e+12 -12549700000.0 -12549700000.0 -6.229e+12 -3.30726e+12 -4.98031e+12 -7.08763e+12 -6.56374e+12 -6.68399e+12 -4.22376e+12 -5.61687e+12 -1.23192e+13 -5.74842e+12 -4.49808e+12 -5.6354e+12 -8.01129e+12 -7.39662e+12 -3.37424e+12 -2.61517e+12 -7.77992e+12 -8.59373e+12 -4.11709e+12 -6.48141e+12 -5.84156e+12 -2.28341e+12 -5.5448e+12 -6.82417e+12 -1.13721e+13 -7.80304e+12 -9.85971e+12 -5.13843e+12 -7.79523e+12 -1.00046e+13 -4.73606e+12 -6.84812e+12 -4.53123e+12 -7.70262e+12 -8.09363e+12 -7.37922e+12 -5.35872e+12 -7.61111e+12 -6.24163e+12 -6.91121e+12 -4.08768e+12 -3.27396e+12 -4.06021e+12 -4.21715e+12 -6.43026e+12 -6.61671e+12 -3.76639e+12 -4.31618e+12 -6.78088e+12 -5.42157e+12 -6.26534e+12 -5.18283e+12 -6.00538e+12 -1.29553e+13 -5.21845e+12 -7.4995e+12 -4.16921e+12 -6.58235e+12 -6.93323e+12 -4.142e+12 -4.77056e+12 -7.89683e+12 -8.75577e+12 -1.04686e+13 -9.65617e+12 -7.14187e+12 -7.08945e+12 -5.73583e+12 -2.96847e+12 -7.36888e+12 -7.0107e+12 -3.08829e+12 -5.38613e+12 -1.14364e+13 -8.39133e+12 -6.15773e+12 -3.64996e+12 -6.20274e+12 -4.38805e+12 -4.47267e+12 -3.57243e+12 -4.99387e+12 -8.38521e+12 -2.74927e+12 -3.44153e+12 -4.08532e+12 -5.93797e+12 -7.25569e+12 -9.92614e+12 -7.57878e+12 -6.38813e+12 -6.74747e+12 -9.8638e+12 -7.90957e+12 -8.90642e+12 -1.09704e+13 -7.37535e+12 -7.59001e+12 -7.90591e+12 -3.83792e+12 -5.88235e+12 -1.25699e+13 -6.88558e+12 -5.93003e+12 -6.415e+12 -7.45159e+12 -5.64709e+12 -7.39346e+12 -6.14692e+12 -8.21935e+12 -7.39225e+12 -5.41298e+12 -3.29101e+12 -4.6657e+12 -4.67627e+12 -8.1548e+12 -5.34221e+12 -5.59774e+12 -6.14192e+12 -6.8822e+12 -6.08266e+12 -8.10198e+12 -7.58635e+12 -4.6943e+12 -7.82717e+12 -6.60274e+12 -7.78081e+12 -9.34493e+12 -7.66967e+12 -5.91209e+12 -7.4233e+12 -4.85813e+12 -9.9636e+12 -8.60649e+12 -7.72434e+12 -7.33061e+12 -5.84007e+12 -3.27234e+12 -8.68458e+12 -6.10579e+12 -8.01025e+12 -4.98794e+12 -6.16079e+12 -7.91389e+12 -7.99935e+12 -7.43247e+12 -5.65257e+12 -6.31537e+12 -5.26782e+12 -6.88224e+12 -8.94888e+12 -5.60651e+12 -4.77305e+12 -5.66417e+12 -1.04277e+13 -8.59387e+12 -6.04545e+12 -7.29171e+12 -9.61013e+12 -7.21783e+12 -6.40499e+12 -4.37834e+12 -1.04417e+13 -7.37893e+12 -5.86522e+12 -5.66933e+12 -7.90583e+12 -6.94914e+12 -5.47086e+12 -5.1646e+12 -6.01176e+12 -3.60179e+12 -4.35297e+12 -12549700000.0 -3.20696e+12 -5.44241e+12 -7.65249e+12 -8.04379e+12 -7.00285e+12 -7.91801e+12 -7.72272e+12 -4.96785e+12 -7.38949e+12 -3.10061e+12 -6.0754e+12 -6.5895e+12 -4.02267e+12 -3.03958e+12 -5.99466e+12 -7.08939e+12 -7.16825e+12 -1.18176e+13 -6.97051e+12 -8.07178e+12 -8.29227e+12 -8.77963e+12 -1.08617e+13 -5.98332e+12 -5.54846e+12 -8.51627e+12 -8.64914e+12 -1.08339e+13 -8.85988e+12 -9.63939e+12 -5.68002e+12 -5.95954e+12 -1.01886e+13 -8.24287e+12 -9.53077e+12 -9.40033e+12 -5.21311e+12 -3.63609e+12 -9.2112e+12 -6.63083e+12 -4.47364e+12 -12549700000.0 -3.31953e+12 -3.58757e+12 -7.66276e+12 -7.31524e+12 -4.46938e+12 -4.95064e+12 -9.25983e+12 -8.3629e+12 -8.82028e+12 -6.56263e+12 -7.54194e+12 -7.00063e+12 -8.41209e+12 -5.54018e+12 -6.89807e+12 -7.88235e+12 -1.06827e+13 -7.49649e+12 -5.77062e+12 -7.10871e+12 -7.53529e+12 -9.01516e+12 -7.59442e+12 -1.62694e+13 -6.41066e+12 -6.04736e+12 -9.64587e+12 -8.35555e+12 -4.63961e+12 -3.46583e+12 -8.72473e+12 -5.24906e+12 -7.65213e+12 -9.62398e+12 -7.24811e+12 -5.08792e+12 -6.67701e+12 -5.25265e+12 -2.59247e+12 -5.67106e+12 -5.56287e+12 -9.60995e+12 -3.8657e+12 -3.9644e+12 -12549700000.0 -1.92895e+12 -3.30571e+12 -3.82746e+12 -7.26405e+12 -5.21467e+12 -9.64244e+12 -6.34047e+12 -4.47049e+12 -6.81565e+12 -5.15573e+12 -7.34244e+12 -5.12072e+12 -9.16862e+12 -6.38779e+12 -5.04386e+12 -5.16707e+12 -7.31419e+12 -1.01916e+13 -1.10143e+13 -6.06369e+12 -8.19619e+12 -4.54883e+12 -5.24546e+12 -5.85713e+12 -4.57956e+12 -5.25707e+12 -6.53009e+12 -1.04258e+13 -8.54317e+12 -5.62368e+12 -5.95283e+12 -6.29048e+12 -8.90605e+12 -6.02897e+12 -7.93781e+12 -6.76608e+12 -4.83218e+12 -8.71589e+12 -1.0169e+13 -5.62289e+12 -6.0872e+12 -4.18728e+12 -6.4804e+12 -5.07868e+12 -7.45757e+12 -9.03912e+12 -9.05111e+12 -6.27494e+12 -7.16877e+12 -4.23578e+12 -5.06841e+12 -5.9937e+12 -8.59132e+12 -7.25578e+12 -1.08196e+13 -5.52623e+12 -6.64765e+12 -5.64835e+12 -4.29956e+12 -4.82073e+12 -4.35675e+12 -7.4655e+12 -4.82264e+12 -8.69353e+12 -7.59744e+12 -8.21509e+12 -4.31791e+12 -3.97684e+12 -5.27866e+12 -2.84987e+12 -5.05808e+12 -1.1264e+13 -6.9246e+12 -7.76041e+12 -4.61785e+12 -7.64719e+12 -9.57066e+12 -6.08764e+12 -4.48618e+12 -7.67804e+12 -7.46474e+12 -1.28144e+13 -5.53935e+12 -1.07918e+13 -1.05981e+13 -7.68443e+12 -7.7154e+12 -5.96459e+12 -5.19382e+12 -7.38985e+12 -7.61735e+12 -6.68205e+12 -6.67903e+12 -5.98216e+12 -6.41285e+12 -5.26647e+12 -9.34767e+12 -3.28132e+12 -1.20602e+13 -6.09108e+12 -7.00254e+12 -7.72901e+12 -1.02491e+13 -1.23885e+13 -5.48903e+12 -7.62129e+12 -8.35307e+12 -4.83842e+12 -1.15559e+13 -5.5171e+12 -6.42692e+12 -7.73758e+12 -3.32744e+12 -4.62219e+12 -5.14182e+12 -7.56597e+12 -6.73028e+12 -7.06353e+12 -8.72376e+12 -4.14696e+12 -8.61153e+12 -1.23485e+13 -7.12687e+12 -5.59685e+12 -8.55461e+12 -9.22096e+12 -8.89966e+12 -7.94458e+12 -5.46419e+12 -3.88772e+12 -7.55511e+12 -5.16384e+12 -4.90793e+12 -5.30989e+12 -1.26893e+13 -8.936e+12 -9.52992e+12 -5.42197e+12 -7.91161e+12 -7.84051e+12 -8.52122e+12 -6.21489e+12 -3.54275e+12 -5.4197e+12 -1.06442e+13 -7.26823e+12 -8.76797e+12 -7.42488e+12 -7.53872e+12 -1.06413e+13 -8.27981e+12 -6.6192e+12 -7.34937e+12 -5.17747e+12 -1.30863e+13 -8.80613e+12 -9.10859e+12 -6.34485e+12 -1.08726e+13 -1.13718e+13 -6.66698e+12 -6.31671e+12 -8.22901e+12 -6.90295e+12 -6.7811e+12 -7.25896e+12 -9.63967e+12 -6.91299e+12 -4.92346e+12 -3.51318e+12 -9.86653e+12 -1.08219e+13 -5.27744e+12 -8.18271e+12 -8.43317e+12 -8.73079e+12 -5.05651e+12 -8.27232e+12 -1.01794e+13 -7.49496e+12 -7.78641e+12 -1.04335e+13 -7.47611e+12 -4.0564e+12 -9.28614e+12 -6.31916e+12 -5.07325e+12 -5.62253e+12 -7.69682e+12 -9.1034e+12 -8.85454e+12 -3.44145e+12 -5.88895e+12 -8.40052e+12 -1.00726e+13 -6.79578e+12 -6.08261e+12 -5.65556e+12 -4.42382e+12 -8.89076e+12 -1.15682e+13 -1.04416e+13 -1.04815e+13 -5.03675e+12 -5.55606e+12 -8.97561e+12 -1.06068e+13 -8.82596e+12 -1.32165e+13 -7.11005e+12 -5.12538e+12 -1.22208e+13 -4.20415e+12 -7.58349e+12 -6.27584e+12 -3.09099e+12 -5.63437e+12 -7.3951e+12 -1.08145e+13 -1.079e+13 -8.36904e+12 -5.63415e+12 -1.29145e+13 -7.19599e+12 -5.74587e+12 -8.27041e+12 -1.09965e+13 -8.52942e+12 -3.72907e+12 -3.20039e+12 -12549700000.0 -4.25941e+12 -5.97736e+12 -2.96123e+12 -6.01424e+12 -4.63548e+12 -7.54922e+12 -5.4054e+12 -6.16659e+12 -8.85821e+12 -7.60115e+12 -8.99616e+12 -5.71464e+12 -6.97001e+12 -6.30208e+12 -5.64974e+12 -7.96038e+12 -1.16101e+13 -1.24433e+13 -8.09211e+12 -9.18751e+12 -7.82583e+12 -4.31498e+12 -1.06397e+13 -9.25448e+12 -7.33364e+12 -8.2285e+12 -5.85155e+12 -7.1001e+12 -5.4821e+12 -9.53191e+12 -9.3492e+12 -7.27128e+12 -9.32134e+12 -7.09242e+12 -5.96023e+12 -8.09968e+12 -6.96372e+12 -6.94692e+12 -5.37777e+12 -8.67859e+12 -5.42095e+12 -9.11548e+12 -6.77714e+12 -8.12354e+12 -5.79383e+12 -9.78877e+12 -5.2813e+12 -5.65374e+12 -9.23044e+12 -1.0522e+13 -8.76117e+12 -1.28087e+13 -5.75062e+12 -8.71273e+12 -9.64226e+12 -4.41498e+12 -9.31522e+12 -3.8084e+12 -7.87737e+12 -6.69008e+12 -9.93144e+12 -8.77648e+12 -1.015e+13 -1.10824e+13 -6.71517e+12 -6.78117e+12 -6.347e+12 -9.10981e+12 -3.70402e+12 -1.2174e+13 -5.34807e+12 -9.76888e+12 -1.04775e+13 -5.94439e+12 -7.39908e+12 -1.19117e+13 -1.46151e+13 -4.35547e+12 -6.66695e+12 -6.11146e+12 -5.01384e+12 -8.2466e+12 -1.03072e+13 -1.0172e+13 -1.1117e+13 -7.77637e+12 -5.08102e+12 -7.70649e+12 -5.71619e+12 -1.1561e+13 -8.88363e+12 -9.22843e+12 -8.43184e+12 -1.04715e+13 -6.81505e+12 -3.65335e+12 -6.06381e+12 -1.54858e+13 -8.79135e+12 -6.51877e+12 -1.03297e+13 -1.01868e+13 -6.49575e+12 -1.23742e+13 -6.5787e+12 -1.17281e+13 -8.21685e+12 -7.4803e+12 -3.01629e+12 -9.76514e+12 -9.45972e+12 -4.72075e+12 -8.60841e+12 -7.14596e+12 -8.81816e+12 -1.28209e+13 -5.19459e+12 -5.07172e+12 -4.44366e+12 -5.05683e+12 -6.10179e+12 -3.40166e+12 -7.97118e+12 -5.38814e+12 -5.72945e+12 -1.10094e+13 -9.48372e+12 -8.13353e+12 -7.76817e+12 -1.02382e+13 -2.53627e+12 -4.29937e+12 -1.07544e+13 -7.32848e+12 -5.73034e+12 -7.73033e+12 -8.74375e+12 -9.00241e+12 -5.44132e+12 -3.24416e+12 -12549700000.0 -7.01685e+12 -1.01946e+13 -9.839e+12 -1.17437e+13 -6.12748e+12 -9.81401e+12 -6.13542e+12 -5.50078e+12 -7.38874e+12 -8.8611e+12 -5.33327e+12 -1.04344e+13 -5.60268e+12 -8.85534e+12 -1.04705e+13 -5.62255e+12 -8.35793e+12 -8.52136e+12 -3.99804e+12 -6.84495e+12 -6.31369e+12 -7.46177e+12 -3.43274e+12 -3.73869e+12 -7.33115e+12 -6.19324e+12 -4.34846e+12 -3.5691e+12 -6.2841e+12 -3.99208e+12 -7.86442e+12 -5.90603e+12 -5.74158e+12 -7.02807e+12 -5.68123e+12 -4.27188e+12 -8.51148e+12 -5.61287e+12 -9.72004e+12 -9.47158e+12 -8.30336e+12 -9.04882e+12 -7.2524e+12 -6.83979e+12 -91748600000.0 -6.96464e+12 -5.72144e+12 -3.43732e+12 -8.57472e+12 -7.11469e+12 -1.17781e+13 -9.58689e+12 -7.37766e+12 -8.00282e+12 -7.02656e+12 -8.20097e+12 -6.67569e+12 -1.10026e+13 -5.15786e+12 -7.82782e+12 -4.46505e+12 -7.7929e+12 -5.92962e+12 -8.72325e+12 -4.89546e+12 -7.68516e+12 -7.84006e+12 -9.76745e+12 -1.36978e+13 -5.15173e+12 -8.23811e+12 -7.80021e+12 -6.72923e+12 -6.58529e+12 -6.53405e+12 -4.76475e+12 -8.18426e+12 -1.02127e+13 -5.15632e+12 -7.63321e+12 -6.00141e+12 -5.29347e+12 -8.80566e+12 -8.9634e+12 -1.11674e+13 -5.19074e+12 -6.60871e+12 -7.66364e+12 -6.46963e+12 -4.525e+12 -7.88796e+12 -7.45924e+12 -9.06672e+12 -1.10107e+13 -4.97268e+12 -9.41527e+12 -351156000000.0 -9.36107e+12 -6.53434e+12 -9.48539e+12 -6.28919e+12 -9.3463e+12 -3.37421e+12 -1.06198e+13 -6.45289e+12 -5.13939e+12 -4.94468e+12 -8.65041e+12 -1.24613e+13 -1.06073e+13 -7.70321e+12 -6.83983e+12 -1.18372e+13 -6.52907e+12 -7.58131e+12 -6.02209e+12 -7.24523e+12 -5.34247e+12 -1.00356e+13 -9.29182e+12 -7.27426e+12 -1.01292e+13 -6.61098e+12 -1.11521e+13 -1.08532e+13 -1.08923e+13 -6.79096e+12 -4.90173e+12 -9.65226e+12 -6.89628e+12 -6.49757e+12 -8.66741e+12 -7.95458e+12 -1.01829e+13 -7.00388e+12 -3.10945e+12 -7.95613e+12 -4.53103e+12 -7.79403e+12 -9.01622e+12 -1.1011e+13 -1.20355e+13 -7.38116e+12 -1.09288e+13 -7.42642e+12 -4.82482e+12 -1.13028e+13 -6.6499e+12 -5.50403e+12 -6.16931e+12 -6.15784e+12 -7.83895e+12 -1.05429e+13 -1.07384e+13 -1.08304e+13 -6.67523e+12 -6.97177e+12 -7.05391e+12 -4.89916e+12 -6.69128e+12 -5.98812e+12 -7.25514e+12 -9.79713e+12 -8.86577e+12 -5.27859e+12 -1.12657e+13 -1.07636e+13 -1.03341e+13 -2.47431e+12 -6.90268e+12 -9.2599e+12 -1.0205e+13 -1.52095e+13 -6.37279e+12 -7.57049e+12 -6.59743e+12 -1.0766e+13 -1.42221e+13 -5.50377e+12 -1.15241e+13 -1.29052e+13 -7.21672e+12 -6.8035e+12 -8.66697e+12 -7.78701e+12 -9.32116e+12 -6.94695e+12 -8.63056e+12 -8.77217e+12 -9.68404e+12 -8.62074e+12 -1.21195e+13 -1.65449e+13 -1.09182e+13 -4.60821e+12 -9.36782e+12 -7.68272e+12 -6.6702e+12 -4.17113e+12 -5.17874e+12 -8.45373e+12 -3.49502e+12 -8.10464e+12 -9.90751e+12 -9.29885e+12 -1.08337e+13 -1.48082e+13 -8.83566e+12 -1.18508e+13 -9.38697e+12 -1.107e+13 -5.36898e+12 -5.70905e+12 -1.34381e+13 -1.30736e+13 -1.42223e+13 -5.14242e+12 -6.38792e+12 -1.39944e+13 -7.26548e+12 -7.05029e+12 -5.87189e+12 -7.74977e+12 -5.41776e+12 -1.1851e+13 -9.03648e+12 -9.32941e+12 -8.69502e+12 -1.04413e+13 -9.27914e+12 -5.27949e+12 -1.29527e+13 -9.29737e+12 -8.74127e+12 -1.06672e+13 -3.98991e+12 -7.27293e+12 -4.80599e+12 -8.86976e+12 -8.96111e+12 -7.49841e+12 -6.80623e+12 -4.76788e+12 -6.44459e+12 -1.02523e+13 -1.22605e+13 -8.39294e+12 -1.20372e+13 -1.0414e+13 -7.58322e+12 -2.32644e+12 -5.80871e+12 -2.84692e+12 -5.44443e+12 -7.50908e+12 -1.24344e+13 -9.75266e+12 -7.87374e+12 -8.04677e+12 -7.92551e+12 -9.74051e+12 -5.92895e+12 -6.42155e+12 -1.14343e+13 -5.71426e+12 -1.01113e+13 -2.92629e+12 -3.81141e+12 -3.82333e+12 -3.92105e+12 -6.63191e+12 -1.24028e+13 -8.42683e+12 -7.21862e+12 -7.6144e+12 -6.86271e+12 -1.11552e+13 -9.3282e+12 -7.23508e+12 -2.82686e+12 -5.54202e+12 -5.48601e+12 -4.60671e+12 -9.23152e+12 -8.09654e+12 -9.44234e+12 -7.35811e+12 -6.988e+12 -5.05546e+12 -7.57821e+12 -5.50827e+12 -9.83768e+12 -7.02006e+12 -7.4609e+12 -7.0936e+12 -1.30207e+13 -4.57473e+12 -4.31714e+12 -8.09026e+12 -8.98842e+12 -1.18341e+13 -1.26963e+13 -9.18734e+12 -5.97628e+12 -1.1828e+13 -8.29586e+12 -6.06891e+12 -8.09924e+12 -6.29628e+12 -7.55208e+12 -8.94711e+12 -8.23691e+12 -5.548e+12 -6.9054e+12 -4.96231e+12 -7.10759e+12 -6.87097e+12 -8.78691e+12 -7.95499e+12 -7.60894e+12 -7.64316e+12 -7.76366e+12 -8.33081e+12 -1.25501e+13 -3.95774e+12 -7.21565e+12 -6.82767e+12 -4.23063e+12 -1.32914e+13 -9.26913e+12 -7.4225e+12 -8.36134e+12 -8.02102e+12 -4.33237e+12 -1.11539e+13 -5.5476e+12 -9.98926e+12 -1.14322e+13 -9.00286e+12 -1.35472e+13 -5.34076e+12 -1.32115e+13 -4.2187e+12 -6.76942e+12 -8.64013e+12 -5.59195e+12 -4.81067e+12 -8.42703e+12 -9.02692e+12 -1.01972e+13 -4.57271e+12 -9.56076e+12 -1.12154e+13 -8.33362e+12 -1.51503e+13 -1.00258e+13 -8.33904e+12 -7.17549e+12 -1.42925e+13 -6.77438e+12 -4.75649e+12 -4.45941e+12 -6.94041e+12 -1.06559e+13 -7.08081e+12 -5.48232e+12 -8.48711e+12 -5.51686e+12 -7.69808e+12 -4.5832e+12 -4.91014e+12 -6.94694e+12 -7.53e+12 -8.22597e+12 -8.33671e+12 -8.38246e+12 -1.30329e+13 -6.51376e+12 -6.05382e+12 -7.93234e+12 -6.40366e+12 -1.17322e+13 -8.92486e+12 -6.56768e+12 -5.43356e+12 -8.70382e+12 -7.55651e+12 -7.7444e+12 -7.76902e+12 -3.90212e+12 -4.61794e+12 -9.73925e+12 -9.37433e+12 -8.51589e+12 -7.64615e+12 -9.61386e+12 -6.34907e+12 -1.08675e+13 -9.81915e+12 -4.5168e+12 -5.29129e+12 -1.0469e+13 -8.62186e+12 -7.97321e+12 -5.10543e+12 -9.22767e+12 -1.28355e+13 -6.8077e+12 -7.23086e+12 -8.76802e+12 -6.95562e+12 -7.34159e+12 -1.06959e+13 -2.99312e+12 -7.39932e+12 -9.70794e+12 -1.20815e+13 -9.50375e+12 -1.17964e+13 -9.15864e+12 -1.17278e+13 -4.99217e+12 -8.83405e+12 -9.14911e+12 -8.92892e+12 -8.63034e+12 -4.73041e+12 -7.08887e+12 -8.25151e+12 -1.06947e+13 -1.04801e+13 -7.71382e+12 -6.19376e+12 -1.31632e+13 -4.75341e+12 -5.12634e+12 -7.94035e+12 -7.85005e+12 -1.29004e+13 -9.70294e+12 -1.03677e+13 -9.00819e+12 -8.30085e+12 -6.78531e+12 -5.72425e+12 -6.14817e+12 -7.84274e+12 -1.37168e+13 -4.56257e+12 -7.0392e+12 -7.1891e+12 -1.11072e+13 -1.09812e+13 -8.68945e+12 -6.73654e+12 -1.02888e+13 -8.48335e+12 -5.32686e+12 -5.19177e+12 -8.65777e+12 -1.33687e+13 -1.16241e+13 -6.6429e+12 -5.4619e+12 -8.72945e+12 -7.32539e+12 -7.18597e+12 -4.01447e+12 -5.29987e+12 -5.08148e+12 -6.55416e+12 -8.3378e+12 -7.88924e+12 -6.36266e+12 -1.09514e+13 -9.12464e+12 -8.66103e+12 -5.40204e+12 -8.28285e+12 -4.97418e+12 -6.77423e+12 -3.90572e+12 -4.10794e+12 -1.0476e+13 -8.80215e+12 -1.21771e+13 -6.32316e+12 -1.00365e+13 -5.83953e+12 -1.19114e+13 -5.95728e+12 -5.73994e+12 -7.79492e+12 -7.47889e+12 -9.40932e+12 -1.02126e+13 -8.59438e+12 -1.40122e+13 -9.97115e+12 -6.72845e+12 -9.62994e+12 -8.83982e+12 -8.04798e+12 -1.46631e+13 -5.41238e+12 -6.76995e+12 -3.63408e+12 -1.07977e+13 -1.45319e+13 -1.05677e+13 -1.18549e+13 -4.1262e+12 -7.29425e+12 -4.09211e+12 -8.07243e+12 -6.54451e+12 -8.95697e+12 -9.72577e+12 -6.3045e+12 -6.31487e+12 -8.28837e+12 -1.04284e+13 -4.42857e+12 -6.429e+12 -9.32448e+12 -6.09387e+12 -1.09295e+13 -8.80181e+12 -7.48619e+12 -1.24115e+13 -1.00039e+13 -8.93606e+12 -4.42311e+12 -6.89927e+12 -5.5047e+12 -1.05747e+13 -7.96641e+12 -7.33076e+12 -8.44868e+12 -8.57706e+12 -7.86997e+12 -7.60306e+12 -1.16388e+13 -6.25097e+12 -7.57239e+12 -7.71292e+12 -3.32949e+12 -6.89726e+12 -6.58418e+12 -9.73529e+12 -1.25988e+13 -7.06002e+12 -4.66527e+12 -5.79275e+12 -1.34898e+13 -6.40819e+12 -1.04669e+13 -1.17086e+13 -7.21445e+12 -7.11226e+12 -5.24732e+12 -3.97461e+12 -7.32679e+12 -1.03475e+13 -7.1744e+12 -9.25757e+12 -6.58489e+12 -8.19848e+12 -6.56877e+12 -8.39637e+12 -1.01951e+13 -1.04113e+13 -7.90894e+12 -4.40946e+12 -8.6658e+12 -1.16414e+13 -6.55544e+12 -5.80207e+12 -1.00537e+13 -1.06622e+13 -6.22079e+12 -3.03542e+12 -7.46957e+12 -5.15357e+12 -7.08561e+12 -5.165e+12 -9.90775e+12 -4.99396e+12 -2.80656e+12 -9.36301e+12 -5.92801e+12 -5.18694e+12 -9.18965e+12 -7.78629e+12 -1.05556e+13 -1.25335e+13 -1.08913e+13 -6.00956e+12 -7.59415e+12 -1.46013e+13 -1.20634e+13 -1.39516e+13 -9.38134e+12 -6.39903e+12 -9.70316e+12 -5.51401e+12 -9.4093e+12 -7.73972e+12 -1.24562e+13 -1.16148e+13 -8.61704e+12 -5.40919e+12 -1.13977e+13 -1.01849e+13 -1.15966e+13 -8.60228e+12 -9.91616e+12 -5.77499e+12 -9.61875e+12 -1.05272e+13 -7.3475e+12 -4.85933e+12 -7.12354e+12 -1.10946e+13 -1.26765e+13 -9.37938e+12 -1.29407e+13 -9.10178e+12 -6.79275e+12 -9.34248e+12 -8.32874e+12 -6.28395e+12 -8.07496e+12 -1.04249e+13 -7.73826e+12 -8.1579e+12 -7.02362e+12 -5.39373e+12 -1.0012e+13 -7.02796e+12 -1.39159e+13 -9.64481e+12 -3.83665e+12 -8.84108e+12 -8.71297e+12 -7.89282e+12 -7.36596e+12 -5.72906e+12 -7.11426e+12 -8.84221e+12 -8.3367e+12 -7.30101e+12 -7.17607e+12 -1.22735e+13 -3.00529e+12 -9.53032e+12 -8.9516e+12 -5.78346e+12 -4.8443e+12 -4.81018e+12 -5.9436e+12 -6.72493e+12 -6.58314e+12 -1.26812e+13 -7.43324e+12 -4.53987e+12 -5.98391e+12 -5.60459e+12 -6.60725e+12 -9.18361e+12 -7.71372e+12 -3.9065e+12 -5.76266e+12 -1.35002e+13 -7.08413e+12 -6.86224e+12 -5.76206e+12 -7.39852e+12 -7.23363e+12 -7.2602e+12 -3.95715e+12 -7.2508e+12 -8.06483e+12 -7.12202e+12 -7.15318e+12 -7.6148e+12 -6.30783e+12 -4.83252e+12 -9.05354e+12 -7.48091e+12 -6.70816e+12 -1.03951e+13 -4.08083e+12 -7.4582e+12 -5.42576e+12 -6.94863e+12 -1.30367e+13 -6.48513e+12 -1.1972e+13 -6.89028e+12 -5.33047e+12 -7.50917e+12 -7.74664e+12 -8.62598e+12 -9.67663e+12 -4.2745e+12 -8.50269e+12 -1.18469e+13 -1.0335e+13 -7.49154e+12 -3.03811e+12 -1.31649e+13 -1.11903e+13 -8.92547e+12 -7.66062e+12 -1.0573e+13 -7.86042e+12 -7.82154e+12 -8.13292e+12 -5.54811e+12 -7.89431e+12 -9.35795e+12 -7.92987e+12 -5.28471e+12 -8.0272e+12 -4.6161e+12 -9.45464e+12 -8.28617e+12 -9.51602e+12 -1.10388e+13 -6.33413e+12 -1.18262e+13 -7.1327e+12 -8.11689e+12 -1.15741e+13 -5.08809e+12 -7.5509e+12 -5.83438e+12 -1.2378e+13 -5.06034e+12 -5.81201e+12 -5.75009e+12 -7.11426e+12 -1.09628e+13 -8.53791e+12 -3.0365e+12 -1.05752e+13 -1.2117e+13 -7.82665e+12 -3.45688e+12 -9.48066e+12 -4.49681e+12 -1.14765e+13 -1.12002e+13 -1.08348e+13 -6.14655e+12 -1.01682e+13 -8.13599e+12 -9.90937e+12 -1.03861e+13 -7.1219e+12 -6.9194e+12 -5.03336e+12 -1.34941e+13 -5.15161e+12 -6.36167e+12 -8.57848e+12 -8.07853e+12 -8.51614e+12 -5.12212e+12 -7.44306e+12 -8.08284e+12 -1.10428e+13 -6.75417e+12 -6.40702e+12 -8.13787e+12 -6.87361e+12 -7.83736e+12 -9.24335e+12 -7.08694e+12 -4.05361e+12 -6.58308e+12 -5.31226e+12 -7.70326e+12 -3.33586e+12 -7.54801e+12 -7.71261e+12 -7.15575e+12 -5.98727e+12 -6.99926e+12 -7.99742e+12 -3.37532e+12 -8.81437e+12 -9.05515e+12 -9.93831e+12 -9.88362e+12 -1.29834e+13 -8.54177e+12 -5.26625e+12 -6.37792e+12 -5.43971e+12 -1.57934e+13 -1.11425e+13 -9.0322e+12 -9.48155e+12 -3.3301e+12 -8.16929e+12 -6.098e+12 -1.05993e+13 -7.51686e+12 -1.12558e+13 -6.06895e+12 -1.00864e+13 -5.99005e+12 -7.4391e+12 -1.17471e+13 -9.48187e+12 -9.84011e+12 -3.99023e+12 -1.49819e+13 -1.16667e+13 -1.30882e+13 -8.62887e+12 -7.1434e+12 -7.99608e+12 -8.77095e+12 -6.66133e+12 -7.98333e+12 -5.98761e+12 -6.32059e+12 -9.36343e+12 -8.06056e+12 -7.17096e+12 -1.02566e+13 -5.35806e+12 -6.71491e+12 -4.02802e+12 -8.97125e+12 -8.69982e+12 -2.99598e+12 -2.79545e+12 -8.64301e+12 -8.16048e+12 -7.04248e+12 -9.41928e+12 -1.36199e+13 -1.22619e+13 -2.80377e+12 -1.05662e+13 -1.47696e+13 -6.37272e+12 -4.85024e+12 -6.60444e+12 -8.71555e+12 -6.79933e+12 -1.15131e+13 -8.89701e+12 -8.27368e+12 -8.28582e+12 -9.58546e+12 -9.47096e+12 -5.65635e+12 -7.2699e+12 -1.58425e+13 -6.59738e+12 -1.03394e+13 -6.6596e+12 -6.95437e+12 -6.99345e+12 -6.54437e+12 -9.12229e+12 -6.29383e+12 -9.96855e+12 -7.30629e+12 -6.61489e+12 -1.25511e+12 -6.6301e+12 -1.06126e+13 -7.24579e+12 -6.34065e+12 -4.45712e+12 -6.6861e+12 -2.04505e+12 -4.50081e+12 -6.57694e+12 -2.80642e+12 -7.48799e+12 -8.27126e+12 -5.73875e+12 -4.26539e+12 -8.8709e+12 -4.44135e+12 -6.72674e+12 -4.66891e+12 -7.44242e+12 -6.66621e+12 -7.77468e+12 -3.65527e+12 -5.73854e+12 -5.81083e+12 -7.47018e+12 -7.38108e+12 -7.66333e+12 -5.94319e+12 -1.0312e+13 -8.55182e+12 -6.14766e+12 -7.0598e+12 -5.62893e+12 -1.02129e+13 -6.5275e+12 -3.94054e+12 -8.5594e+12 -5.63278e+12 -7.84476e+12 -3.99255e+12 -5.22408e+12 -5.05563e+12 -8.00936e+12 -4.09609e+12 -7.30279e+12 -6.01722e+12 -9.82916e+12 -7.53589e+12 -7.97476e+12 -9.12386e+12 -5.46471e+12 -5.24047e+12 -7.4853e+12 -8.39301e+12 -1.28793e+13 -6.01708e+12 -5.43127e+12 -6.2326e+12 -7.57534e+12 -7.60083e+12 -6.00068e+12 -7.76693e+12 -7.19064e+12 -1.06963e+13 -7.26227e+12 -8.11354e+12 -5.23525e+12 -4.75544e+12 -1.3674e+13 -7.56374e+12 -5.72013e+12 -6.80797e+12 -8.81563e+12 -5.2627e+12 -7.50895e+12 -7.03692e+12 -9.73856e+12 -5.43702e+12 -5.74411e+12 -4.77074e+12 -2.84172e+12 -6.41798e+12 -6.77109e+12 -8.02548e+12 -6.33778e+12 -8.06942e+12 -8.31743e+12 -1.22403e+13 -4.80947e+12 -9.29509e+12 -7.02897e+12 -8.65428e+12 -6.26379e+12 -5.27488e+12 -8.53821e+12 -8.40864e+12 -1.07586e+13 -9.88397e+12 -1.00976e+13 -7.52068e+12 -8.99901e+12 -6.26856e+12 -7.38385e+12 -6.21659e+12 -5.58774e+12 -1.07044e+13 -8.47482e+12 -6.92686e+12 -8.45036e+12 -1.0354e+13 -1.25733e+13 -3.51576e+12 -4.38801e+12 -5.59944e+12 -6.76556e+12 -4.12379e+12 -5.80283e+12 -9.35035e+12 -7.99592e+12 -1.13694e+13 -7.00061e+12 -6.16261e+12 -6.92373e+12 -6.96319e+12 -7.17318e+12 -7.38544e+12 -5.46246e+12 -3.65392e+12 -5.71326e+12 -8.37446e+12 -7.73118e+12 -7.02375e+12 -7.31097e+12 -5.88352e+12 -7.1363e+12 -1.08037e+13 -6.21409e+12 -4.04855e+12 -5.82354e+12 -4.89454e+12 -4.9362e+12 -4.54078e+12 -7.78346e+12 -1.03111e+13 -1.28344e+13 -6.25573e+12 -5.77466e+12 -1.09632e+13 -5.57196e+12 -6.9119e+12 -6.48393e+12 -1.34072e+13 -7.10422e+12 -9.21733e+12 -1.41114e+13 -8.0801e+12 -7.09347e+12 -1.02729e+13 -4.75282e+12 -1.11512e+13 -8.62124e+12 -7.64736e+12 -1.07643e+13 -6.52312e+12 -1.37427e+13 -4.75582e+12 -4.52582e+12 -3.19096e+12 -6.40435e+12 -6.49668e+12 -8.10373e+12 -5.35745e+12 -8.21809e+12 -5.70361e+12 -9.03792e+12 -7.01012e+12 -9.38935e+12 -7.52219e+12 -1.01104e+13 -7.62818e+12 -3.56513e+12 -9.37499e+12 -9.96756e+12 -1.00767e+13 -9.6385e+12 -1.03652e+13 -7.73529e+12 -8.60477e+12 -8.90584e+12 -1.0982e+13 -6.06903e+12 -5.28085e+12 -8.62248e+12 -4.11246e+12 -5.82998e+12 -5.47687e+12 -5.31135e+12 -4.24945e+12 -4.78446e+12 -6.08326e+12 -7.22482e+12 -1.05312e+13 -8.51979e+12 -1.94976e+13 -4.59311e+12 -6.57427e+12 -6.8498e+12 -1.53962e+13 -8.80627e+12 -5.33392e+12 -1.13863e+13 -8.20117e+12 -8.39516e+12 -5.04537e+12 -6.92308e+12 -5.71307e+12 -6.87434e+12 -4.86415e+12 -1.2064e+13 -4.99509e+12 -7.53308e+12 -8.41997e+12 -2.40076e+12 -4.20149e+12 -1.1751e+13 -1.0671e+13 -6.83818e+12 -3.52074e+12 -8.81251e+12 -6.97604e+12 -7.39415e+12 -8.61769e+12 -6.0512e+12 -4.83917e+12 -6.35754e+12 -8.45312e+12 -5.56388e+12 -6.76871e+12 -6.93838e+12 -1.01815e+13 -6.24779e+12 -6.20448e+12 -4.78939e+12 -5.67094e+12 -8.12654e+12 -6.75454e+12 -3.8117e+12 -3.42677e+12 -4.42119e+12 -8.19963e+12 -6.00902e+12 -7.45069e+12 -7.61004e+12 -7.03017e+12 -7.93091e+12 -7.14281e+12 -8.77168e+12 -9.09297e+12 -5.46983e+12 -6.1679e+12 -3.34138e+12 -4.52074e+12 -6.96438e+12 -8.12853e+12 -8.79361e+12 -8.54629e+12 -8.83255e+12 -7.51032e+12 -7.02272e+12 -7.47689e+12 -4.07682e+12 -7.17464e+12 -4.77229e+12 -4.71553e+12 -4.47157e+12 -6.40055e+12 -7.08206e+12 -6.61436e+12 -1.02087e+13 -6.43574e+12 -7.27791e+12 -8.47942e+12 -1.39762e+13 -4.7594e+12 -4.9002e+12 -3.65375e+12 -5.45075e+12 -4.41413e+12 -1.11874e+13 -4.79191e+12 -6.32371e+12 -6.96499e+12 -6.31225e+12 -5.2973e+12 -1.11508e+13 -7.87656e+12 -1.41816e+13 -6.57777e+12 -8.41005e+12 -4.49628e+12 -4.82854e+12 -8.98971e+12 -8.29234e+12 -5.12908e+12 -1.3971e+13 -5.9696e+12 -7.47645e+12 -1.24061e+13 -7.77825e+12 -8.26952e+12 -5.63564e+12 -6.14523e+12 -6.44034e+12 -6.11936e+12 -8.73159e+12 -7.84245e+12 -8.56248e+12 -5.959e+12 -6.60198e+12 -5.90987e+12 -5.8044e+12 -5.44279e+12 -4.51678e+12 -6.00395e+12 -7.42968e+12 -8.30772e+12 -6.39784e+12 -4.92125e+12 -3.04958e+12 -4.84488e+12 -5.26255e+12 -8.97026e+12 -7.37696e+12 -7.67068e+12 -1.35343e+13 -7.3218e+12 -1.13954e+13 -6.35135e+12 -6.64486e+12 -7.59839e+12 -8.59521e+12 -7.13578e+12 -1.12218e+13 -5.5359e+12 -6.30255e+12 -7.30754e+12 -3.62474e+12 -7.75325e+12 -5.95518e+12 -5.66747e+12 -8.01378e+12 -6.64667e+12 -8.2055e+12 -2.38218e+12 -3.14197e+12 -5.37092e+12 -5.80268e+12 -4.65341e+12 -6.92478e+12 -4.56234e+12 -5.57309e+12 -4.69972e+12 -6.05682e+12 -6.87845e+12 -2.06299e+12 -4.96266e+12 -9.61471e+12 -6.99046e+12 -8.14673e+12 -6.25322e+12 -5.28763e+12 -6.4272e+12 -9.96566e+12 -7.72507e+12 -1.03555e+13 -6.71676e+12 -6.62458e+12 -1.21587e+13 -4.59354e+12 -7.04923e+12 -8.27202e+12 -4.43432e+12 -5.5202e+12 -7.67694e+12 -6.26306e+12 -5.4043e+12 -6.54063e+12 -5.60183e+12 -4.50146e+12 -6.69766e+12 -4.84007e+12 -5.2455e+12 -6.11569e+12 -5.16808e+12 -7.35531e+12 -8.62034e+12 -7.18559e+12 -6.0045e+12 -5.55857e+12 -6.81289e+12 -7.85711e+12 -6.56272e+12 -7.6209e+12 -5.14401e+12 -6.20219e+12 -7.95657e+12 -8.02008e+12 -8.2803e+12 -5.07955e+12 -7.70748e+12 -9.91503e+12 -5.92107e+12 -7.63997e+12 -1.06684e+13 -1.22621e+13 -8.26059e+12 -8.38295e+12 -6.44829e+12 -3.51728e+12 -8.75228e+12 -3.70709e+12 -5.00995e+12 -1.10476e+13 -5.94731e+12 -8.77484e+12 -5.48526e+12 -8.64695e+12 -8.28505e+12 -5.8867e+12 -9.56795e+12 -1.36183e+13 -4.55362e+12 -4.52614e+12 -9.07713e+12 -6.98463e+12 -1.02183e+13 -7.50835e+12 -4.15099e+12 -1.16861e+13 -4.39798e+12 -8.99397e+12 -6.67734e+12 -4.83362e+12 -6.10558e+12 -8.02614e+12 -9.44033e+12 -7.01239e+12 -7.0346e+12 -6.88863e+12 -1.10852e+13 -9.53325e+12 -4.97811e+12 -5.31439e+12 -3.75238e+12 -5.58749e+12 -8.7774e+12 -4.46024e+12 -6.92088e+12 -5.55103e+12 -5.89879e+12 -6.92658e+12 -4.46847e+12 -7.51478e+12 -8.21559e+12 -1.0492e+13 -6.50293e+12 -7.31851e+12 -3.82481e+12 -3.60312e+12 -4.01839e+12 -7.7929e+12 -6.22908e+12 -5.54267e+12 -3.72725e+12 -7.14459e+12 -7.38081e+12 -6.05389e+12 -5.68473e+12 -7.82405e+12 -6.32337e+12 -6.82967e+12 -6.14168e+12 -5.36009e+12 -9.59156e+12 -6.90131e+12 -7.77066e+12 -8.88744e+12 -1.07098e+13 -2.97994e+12 -6.68529e+12 -4.30921e+12 -4.15343e+12 -5.89858e+12 -6.74218e+12 -6.37981e+12 -5.56287e+12 -9.16699e+12 -8.61259e+12 -5.07002e+12 -5.55558e+12 -4.37787e+12 -6.85486e+12 -6.416e+12 -3.28705e+12 -4.77139e+12 -7.33658e+12 -4.2855e+12 -6.3152e+12 -9.23944e+12 -4.98258e+12 -8.01412e+12 -7.86383e+12 -5.51641e+12 -3.73887e+12 -8.18956e+12 -6.60025e+12 -3.22953e+12 -5.37565e+12 -6.70004e+12 -3.56519e+12 -5.90142e+12 -7.83706e+12 -5.04415e+12 -4.29839e+12 -6.32052e+12 -7.32571e+12 -6.8207e+12 -4.94311e+12 -8.5044e+12 -4.21746e+12 -5.48654e+12 -3.90021e+12 -7.20613e+12 -4.67419e+12 -9.50208e+12 -1.06969e+13 -7.73293e+12 -5.65856e+12 -3.67995e+12 -2.67696e+12 -5.31441e+12 -8.92601e+12 -5.87055e+12 -4.31906e+12 -6.78578e+12 -4.33479e+12 -6.97552e+12 -1.07449e+13 -5.57691e+12 -7.66898e+12 -7.40057e+12 -6.69069e+12 -6.5192e+12 -5.79547e+12 -4.25299e+12 -6.5836e+12 -7.657e+12 -4.75768e+12 -4.71351e+12 -6.19341e+12 -6.45173e+12 -7.44108e+12 -6.08502e+12 -5.31682e+12 -6.45732e+12 -6.46824e+12 -8.74533e+12 -9.78016e+12 -1.02948e+13 -5.49698e+12 -5.52761e+12 -6.41143e+12 -5.55079e+12 -6.20705e+12 -5.69247e+12 -8.77404e+12 -6.07859e+12 -1.06165e+13 -8.96396e+12 -9.8052e+12 -1.17176e+13 -9.94881e+12 -7.01973e+12 -4.46892e+12 -5.18241e+12 -6.98774e+12 -4.00144e+12 -5.56748e+12 -4.61351e+12 -4.98637e+12 -7.79766e+12 -6.24339e+12 -1.07308e+13 -4.84188e+12 -8.56043e+12 -4.30939e+12 -8.41553e+12 -7.32611e+12 -5.47363e+12 -6.64267e+12 -8.30962e+12 -6.33495e+12 -3.53589e+12 -5.27805e+12 -5.21811e+12 -5.8398e+12 -4.31252e+12 -4.78187e+12 -6.2628e+12 -7.28173e+12 -4.10684e+12 -6.21707e+12 -3.84947e+12 -3.32157e+12 -5.16161e+12 -7.82974e+12 -1.04458e+13 -8.63995e+12 -8.49581e+12 -9.87032e+12 -5.99862e+12 -5.46707e+12 -9.07586e+12 -1.06603e+13 -8.81817e+12 -2.96874e+12 -7.39253e+12 -9.69894e+12 -6.13336e+12 -3.19719e+12 -5.91141e+12 -5.31403e+12 -3.61295e+12 -5.47003e+12 -4.12073e+12 -3.51453e+12 -6.95773e+12 -7.08814e+12 -5.34617e+12 -9.21848e+12 -5.92499e+12 -4.30991e+12 -7.43245e+12 -9.39683e+12 -7.16855e+12 -6.8676e+12 -7.55608e+12 -3.89042e+12 -9.28376e+12 -5.97871e+12 -6.09872e+12 -6.83256e+12 -5.21575e+12 -6.85772e+12 -7.02504e+12 -4.41886e+12 -7.56868e+12 -4.89113e+12 -5.65239e+12 -5.26183e+12 -8.34201e+12 -5.36396e+12 -6.9084e+12 -7.53084e+12 -4.85621e+12 -6.54146e+12 -6.3426e+12 -4.59086e+12 -9.8812e+12 -5.79248e+12 -7.61855e+12 -6.56933e+12 -5.91883e+12 -2.5382e+12 -4.85545e+12 -4.14641e+12 -5.69794e+12 -6.36844e+12 -1.12201e+13 -6.89154e+12 -1.06322e+13 -7.32925e+12 -6.19685e+12 -6.10683e+12 -4.91507e+12 -1.00232e+13 -3.81921e+12 -6.54861e+12 -7.56039e+12 -1.12139e+13 -6.14292e+12 -6.24147e+12 -4.65918e+12 -8.57787e+12 -9.18027e+12 -5.13017e+12 -7.90264e+12 -6.37668e+12 -6.64058e+12 -6.79534e+12 -9.54636e+12 -6.08321e+12 -8.18361e+12 -8.58269e+12 -1.22046e+13 -7.20392e+12 -8.01281e+12 -2.64741e+12 -6.57603e+12 -6.23891e+12 -5.67423e+12 -5.5816e+12 -1.05506e+13 -5.13909e+12 -5.08008e+12 -8.34918e+12 -1.20628e+13 -8.03099e+12 -1.34529e+13 -5.95054e+12 -7.52029e+12 -4.55773e+12 -5.69424e+12 -4.30185e+12 -5.38778e+12 -3.48997e+12 -5.65189e+12 -5.7914e+12 -3.42028e+12 -6.73559e+12 -5.02593e+12 -4.46615e+12 -4.19351e+12 -4.07771e+12 -7.5204e+12 -7.26445e+12 -8.42584e+12 -5.78196e+12 -6.8401e+12 -8.67914e+12 -7.96109e+12 -7.24676e+12 -5.66991e+12 -6.66631e+12 -5.62785e+12 -5.79603e+12 -5.78661e+12 -5.84587e+12 -1.01119e+13 -7.92894e+12 -7.50505e+12 -9.94191e+12 -6.79415e+12 -4.98394e+12 -5.01471e+12 -3.25768e+12 -5.67957e+12 -1.1711e+13 -1.17542e+13 -7.13876e+12 -8.70625e+12 -5.79876e+12 -6.67101e+12 -8.21226e+12 -9.79179e+12 -3.70726e+12 -6.55329e+12 -1.08296e+13 -6.1154e+12 -4.5584e+12 -3.86078e+12 -6.57787e+12 -9.68617e+12 -5.01272e+12 -5.57565e+12 -6.87041e+12 -7.02791e+12 -4.89876e+12 -6.91291e+12 -5.54388e+12 -3.90997e+12 -2.89863e+12 -5.73128e+12 -6.78087e+12 -7.18433e+12 -8.41952e+12 -4.80268e+12 -5.73689e+12 -4.78142e+12 -5.77252e+12 -4.42407e+12 -1.11441e+13 -8.30858e+12 -6.75478e+12 -2.92889e+12 -7.08592e+12 -7.29635e+12 -6.16412e+12 -6.21341e+12 -8.03313e+12 -3.02291e+12 -5.03298e+12 -4.52902e+12 -3.63932e+12 -5.37037e+12 -6.33996e+12 -6.82141e+12 -8.62927e+12 -6.52721e+12 -7.95488e+12 -9.41338e+12 -1.04886e+13 -8.27398e+12 -5.90478e+12 -1.0309e+13 -4.12477e+12 -6.9588e+12 -7.05737e+12 -8.45588e+12 -7.15878e+12 -6.5063e+12 -8.38673e+12 -2.83545e+12 -6.35094e+12 -7.21124e+12 -5.2687e+12 -7.88067e+12 -8.12285e+12 -4.81796e+12 -6.63733e+12 -6.03133e+12 -4.71221e+12 -4.87612e+12 -8.62801e+12 -5.58115e+12 -4.26381e+12 -1.12134e+13 -5.02379e+12 -6.78381e+12 -6.17406e+12 -4.35387e+12 -5.94988e+12 -1.07407e+13 -9.19753e+12 -8.08145e+12 -1.58648e+13 -5.21901e+12 -1.08602e+13 -7.40124e+12 -8.55704e+12 -4.47008e+12 -5.34083e+12 -6.38099e+12 -3.6083e+12 -3.9429e+12 -5.31926e+12 -5.70715e+12 -6.46619e+12 -7.04308e+12 -5.57196e+12 -9.96953e+12 -4.14901e+12 -8.66094e+12 -6.7214e+12 -6.46004e+12 -5.33673e+12 -5.40125e+12 -7.61282e+12 -5.81532e+12 -4.47355e+12 -5.52371e+12 -6.69288e+12 -4.47865e+12 -9.06639e+12 -7.5445e+12 -3.19249e+12 -2.40131e+12 -6.06055e+12 -7.82214e+12 -1.19523e+13 -9.12001e+12 -7.9415e+12 -7.66236e+12 -5.45516e+12 -6.59321e+12 -5.58311e+12 -8.5437e+12 -7.60044e+12 -7.9452e+12 -9.97488e+12 -8.01898e+12 -6.8028e+12 -5.36414e+12 -4.30002e+12 -5.39633e+12 -7.69835e+12 -4.50269e+12 -3.63319e+12 -9.11116e+12 -3.34434e+12 -5.32856e+12 -3.85308e+12 -5.94154e+12 -3.58698e+12 -3.82916e+12 -4.80219e+12 -4.14253e+12 -4.96916e+12 -3.93383e+12 -5.24666e+12 -4.46755e+12 -4.70853e+12 -6.01951e+12 -4.68891e+12 -6.23616e+12 -7.02758e+12 -4.39783e+12 -8.29004e+12 -2.46803e+12 -3.8126e+12 -9.19018e+12 -5.3293e+12 -4.65164e+12 -6.36399e+12 -4.79389e+12 -5.00756e+12 -5.45245e+12 -1.58051e+12 -6.13179e+12 -8.86525e+12 -4.71777e+12 -4.70023e+12 -5.85588e+12 -3.77672e+12 -5.00279e+12 -8.86227e+12 -6.13768e+12 -2.40797e+12 -5.21612e+12 -4.72602e+12 -4.30528e+12 -7.92779e+12 -5.14198e+12 -5.3226e+12 -7.70683e+12 -7.59044e+12 -6.50165e+12 -4.62227e+12 -8.49283e+12 -5.61695e+12 -8.74831e+12 -7.36567e+12 -3.94844e+12 -5.68431e+12 -4.90568e+12 -6.35711e+12 -7.88889e+12 -4.94461e+12 -6.28252e+12 -9.09742e+12 -6.9876e+12 -7.56554e+12 -6.87609e+12 -6.84743e+12 -5.39073e+12 -6.13285e+12 -6.61095e+12 -9.88351e+12 -7.96419e+12 -8.49118e+12 -5.62472e+12 -7.05116e+12 -9.49567e+12 -1.18615e+13 -1.0432e+13 -5.73861e+12 -7.56534e+12 -8.38233e+12 -5.24956e+12 -2.72318e+12 -4.72301e+12 -3.3429e+12 -5.52201e+12 -2.52496e+12 -7.93962e+12 -7.30215e+12 -5.59365e+12 -5.56361e+12 -9.25237e+12 -8.70424e+12 -7.43948e+12 -7.47915e+12 -8.9418e+12 -5.66465e+12 -5.30634e+12 -4.34535e+12 -6.14466e+12 -5.04741e+12 -4.83606e+12 -8.55348e+12 -7.75908e+12 -6.07691e+12 -3.07371e+12 -5.19963e+12 -5.10902e+12 -4.32865e+12 -1.01302e+13 -3.90554e+12 -4.38715e+12 -3.04964e+12 -6.9815e+12 -5.18628e+12 -6.76701e+12 -7.64746e+12 -4.91472e+12 -8.0797e+12 -5.3923e+12 -5.87836e+12 -5.91166e+12 -6.03865e+12 -6.41477e+12 -7.41466e+12 -6.57476e+12 -6.67823e+12 -7.00733e+12 -2.44111e+12 -5.75513e+12 -2.61755e+12 -8.40169e+12 -5.95051e+12 -6.45814e+12 -5.06217e+12 -8.91469e+12 -5.38412e+12 -5.39271e+12 -4.0923e+12 -6.81076e+12 -7.02714e+12 -3.55954e+12 -5.35742e+12 -3.50315e+12 -5.25158e+12 -8.44213e+12 -3.1439e+12 -2.73001e+12 -6.38475e+12 -3.4269e+12 -3.04296e+12 -4.50356e+12 -3.73508e+12 -6.69371e+12 -2.90558e+12 -5.35148e+12 -3.96259e+12 -3.97644e+12 -4.1868e+12 -3.63158e+12 -4.71342e+12 -4.47908e+12 -5.72753e+12 -2.88647e+12 -4.62053e+12 -4.11198e+12 -7.8604e+12 -6.93675e+12 -3.50692e+12 -4.54207e+12 -3.62968e+12 -3.57594e+12 -8.04437e+12 -6.03161e+12 -2.45552e+12 -5.31302e+12 -3.49627e+12 -4.35247e+12 -3.90471e+12 -6.8109e+12 -5.52299e+12 -5.4897e+12 -4.09407e+12 -7.52689e+12 -6.64961e+12 -6.482e+12 -8.11533e+12 -4.92799e+12 -9.88694e+12 -9.07425e+12 -5.81984e+12 -4.48942e+12 -4.55623e+12 -5.75656e+12 -6.65441e+12 -6.54279e+12 -8.6742e+12 -6.49496e+12 -7.87019e+12 -6.60678e+12 -5.7497e+12 -7.08758e+12 -8.01887e+12 -5.53393e+12 -6.20065e+12 -6.58797e+12 -4.36272e+12 -3.97248e+12 -7.67876e+12 -7.52203e+12 -5.46015e+12 -5.41848e+12 -7.48471e+12 -7.2593e+12 -6.37696e+12 -1.18533e+13 -5.93358e+12 -5.7511e+12 -4.46703e+12 -6.50705e+12 -8.04063e+12 -4.18581e+12 -5.2208e+12 -7.09708e+12 -8.48782e+12 -6.36948e+12 -5.84928e+12 -5.20926e+12 -1.02524e+13 -4.44271e+12 -7.45968e+12 -5.23741e+12 -5.47057e+12 -5.27936e+12 -5.64147e+12 -4.26416e+12 -7.09514e+12 -6.65636e+12 -5.36728e+12 -7.5647e+12 -6.82347e+12 -3.84808e+12 -5.41403e+12 -5.94809e+12 -4.76003e+12 -8.25057e+12 -7.77963e+12 -4.80843e+12 -4.56535e+12 -5.58324e+12 -6.6109e+12 -7.03755e+12 -5.30687e+12 -4.14909e+12 -5.63703e+12 -4.46176e+12 -5.04272e+12 -4.10832e+12 -8.02486e+12 -6.22026e+12 -5.81276e+12 -4.67211e+12 -5.53309e+12 -5.2372e+12 -7.54612e+12 -6.59678e+12 -5.85092e+12 -5.12294e+12 -4.7244e+12 -6.42932e+12 -4.35024e+12 -6.25013e+12 -5.29277e+12 -2.79887e+12 -4.01974e+12 -5.04956e+12 -3.03515e+12 -5.7139e+12 -7.64325e+12 -6.39936e+12 -4.72431e+12 -3.89904e+12 -4.81302e+12 -6.27195e+12 -4.14149e+12 -3.55772e+12 -4.05967e+12 -4.1876e+12 -5.07377e+12 -3.29434e+12 -4.66965e+12 -3.94248e+12 -6.35752e+12 -3.92071e+12 -6.44396e+12 -6.41763e+12 -5.18717e+12 -4.08246e+12 -5.06187e+12 -5.63252e+12 -4.40459e+12 -5.59842e+12 -4.02356e+12 -7.05156e+12 -5.11611e+12 -5.28773e+12 -2.83867e+12 -7.39798e+12 -1.00292e+13 -5.49277e+12 -3.70234e+12 -3.21223e+12 -3.62167e+12 -3.62752e+12 -8.55351e+12 -7.69017e+12 -7.77991e+12 -3.3651e+12 -4.49614e+12 -7.86336e+12 -5.97503e+12 -7.90615e+12 -7.08567e+12 -7.96764e+12 -7.70592e+12 -6.2859e+12 -9.67511e+12 -1.05468e+12 -5.70887e+12 -7.69269e+12 -4.23153e+12 -6.27216e+12 -3.35229e+12 -5.33235e+12 -7.89864e+12 -4.74647e+12 -5.75195e+12 -7.04717e+12 -5.06907e+12 -7.29185e+12 -7.67233e+12 -6.80579e+12 -8.27197e+12 -9.16237e+12 -4.97295e+12 -6.12839e+12 -2.79382e+12 -3.72195e+12 -2.44328e+12 -6.36106e+12 -4.24227e+12 -3.07188e+12 -4.31899e+12 -3.41949e+12 -9.50634e+12 -5.5062e+12 -7.94473e+12 -7.19337e+12 -6.51955e+12 -4.57171e+12 -9.32577e+12 -6.81191e+12 -4.73921e+12 -2.97412e+12 -5.48761e+12 -7.7811e+12 -4.45494e+12 -4.40885e+12 -6.28005e+12 -6.63283e+12 -5.17881e+12 -9.88822e+12 -4.87826e+12 -5.28105e+12 -6.02638e+12 -5.55461e+12 -8.20895e+12 -7.78509e+12 -6.17687e+12 -5.58418e+12 -5.76982e+12 -7.02301e+12 -5.82083e+12 -8.02422e+12 -7.22039e+12 -8.12756e+12 -4.12122e+12 -1.87097e+12 -4.08002e+12 -2.99227e+12 -4.93485e+12 -6.67139e+12 -7.06424e+12 -3.7015e+12 -3.32191e+12 -6.78571e+12 -6.33586e+12 -6.79057e+12 -2.1929e+12 -2.60846e+12 -3.20948e+12 -4.10251e+12 -4.95126e+12 -4.89154e+12 -5.13973e+12 -2.29263e+12 -3.38648e+12 -7.56923e+12 -3.34007e+12 -4.20849e+12 -5.98928e+12 -4.68329e+12 -4.22049e+12 -3.22543e+12 -6.29325e+12 -7.93809e+12 -5.02832e+12 -5.00872e+12 -5.05598e+12 -2.1855e+12 -3.03722e+12 -5.0699e+12 -2.62026e+12 -5.05741e+12 -5.40786e+12 -4.69748e+12 -4.60145e+12 -2.83431e+12 -3.63788e+12 -3.54516e+12 -3.83698e+12 -5.30714e+12 -4.9954e+12 -5.40584e+12 -5.44915e+12 -4.32996e+12 -4.61784e+12 -4.64748e+12 -3.76936e+12 -3.20667e+12 -3.66415e+12 -5.89048e+12 -4.36189e+12 -8.71914e+12 -3.51083e+12 -2.47708e+12 -2.1329e+12 -3.66996e+12 -8.39832e+12 -8.15268e+12 -7.15856e+12 -4.18832e+12 -6.07001e+12 -5.31926e+12 -4.19589e+12 -5.55535e+12 -6.02377e+12 -5.78902e+12 -5.84428e+12 -7.10443e+12 -7.77901e+12 -7.5165e+12 -4.63308e+12 -3.03673e+12 -5.97933e+12 -5.24673e+12 -8.6108e+12 -6.54564e+12 -7.50465e+12 -4.59587e+12 -4.9991e+12 -5.92701e+12 -3.76595e+12 -9.66938e+12 -4.8337e+12 -1.10245e+13 -5.83898e+12 -6.26969e+12 -4.08789e+12 -5.43697e+12 -8.64525e+12 -1.9012e+12 -8.0145e+12 -4.56932e+12 -3.79858e+12 -2.76387e+12 -3.32385e+12 -9.96321e+12 -3.5852e+12 -4.36042e+12 -4.00385e+12 -5.27175e+12 -4.6337e+12 -4.78869e+12 -3.69763e+12 -3.85115e+12 -5.00973e+12 -5.6081e+12 -5.81599e+12 -4.92269e+12 -5.27436e+12 -2.1599e+12 -3.82053e+12 -1.935e+12 -4.76083e+12 -6.56688e+12 -3.8452e+12 -6.59571e+12 -5.39862e+12 -5.7296e+12 -4.18489e+12 -6.05688e+12 -3.82956e+12 -5.7448e+12 -4.78124e+12 -3.59725e+12 -3.88505e+12 -3.6247e+12 -8.51453e+12 -6.96952e+12 -8.1828e+12 -4.48513e+12 -2.91843e+12 -3.45573e+12 -4.22869e+12 -6.33093e+12 -7.35406e+12 -6.51406e+12 -4.34638e+12 -5.85583e+12 -5.2979e+12 -4.01729e+12 -5.36118e+12 -2.9588e+12 -4.77728e+12 -5.03943e+12 -4.53974e+12 -2.22283e+12 -5.62646e+12 -3.39266e+12 -1.63397e+12 -2.58445e+12 -3.41783e+12 -2.9818e+12 -3.75613e+12 -4.2883e+12 -4.36525e+12 -2.18249e+12 -4.58943e+12 -3.75434e+12 -2.73967e+12 -3.8031e+12 -5.87791e+12 -3.60992e+12 -6.00988e+12 -3.55007e+12 -3.67727e+12 -2.79961e+12 -3.05666e+12 -3.40679e+12 -4.5884e+12 -1.89287e+12 -3.66263e+12 -4.51913e+12 -2.92133e+12 -3.49619e+12 -4.25171e+12 -4.06818e+12 -6.07919e+12 -4.56218e+12 -6.5093e+12 -4.20157e+12 -3.99826e+12 -5.25218e+12 -2.98047e+12 -4.94449e+12 -5.64239e+12 -3.05979e+12 -3.58965e+12 -6.64967e+12 -3.81016e+12 -3.13021e+12 -2.62831e+12 -2.93539e+12 -5.136e+12 -4.30029e+12 -4.30972e+12 -4.27552e+12 -5.93037e+12 -6.694e+12 -6.28082e+12 -4.78463e+12 -5.07206e+12 -4.49032e+12 -2.63086e+12 -1.40587e+12 -4.26116e+12 -5.54261e+12 -6.85502e+12 -5.83312e+12 -5.25202e+12 -4.6927e+12 -8.58431e+12 -7.38559e+12 -3.4385e+12 -4.93241e+12 -5.8414e+12 -5.22048e+12 -2.60275e+12 -5.23217e+12 -4.85384e+12 -7.55521e+12 -5.10188e+12 -5.64911e+12 -2.71761e+12 -6.67713e+12 -4.27469e+12 -3.30909e+12 -2.63353e+12 -1.73116e+12 -6.17421e+12 -5.45184e+12 -4.70048e+12 -2.67503e+12 -5.57917e+12 -5.23753e+12 -6.26438e+12 -4.39779e+12 -4.55311e+12 -5.6047e+12 -3.81036e+12 -5.96334e+12 -4.52929e+12 -4.30142e+12 -3.80246e+12 -3.0717e+12 -3.8356e+12 -5.25316e+12 -4.4407e+12 -3.99897e+12 -5.6802e+12 -3.49848e+12 -6.53546e+12 -4.84346e+12 -3.91548e+12 -2.12484e+12 -4.4674e+12 -5.60337e+12 -3.536e+12 -5.69356e+12 -4.43343e+12 -2.91283e+12 -4.49906e+12 -4.07621e+12 -4.78065e+12 -6.58393e+12 -3.99697e+12 -6.55469e+12 -6.53466e+12 -7.03988e+12 -5.85856e+12 -6.55932e+12 -6.1452e+12 -3.26283e+12 -5.50014e+12 -3.30774e+12 -1.84251e+12 -4.12671e+12 -3.76498e+12 -2.89315e+12 -3.98749e+12 -3.06314e+12 -4.41282e+12 -3.90181e+12 -2.19463e+12 -4.45969e+12 -5.05546e+12 -3.19354e+12 -2.95901e+12 -3.88359e+12 -2.90443e+12 -2.01489e+12 -3.55349e+12 -3.68262e+12 -1.94769e+12 -734670000000.0 -4.64299e+12 -3.61064e+12 -2.07847e+12 -2.96239e+12 -568380000000.0 -3.39308e+12 -3.44689e+12 -3.72071e+12 -3.35347e+12 -2.31733e+12 -3.15823e+12 -4.57737e+12 -4.3736e+12 -6.74494e+12 -5.35051e+12 -3.65431e+12 -4.96867e+12 -4.75054e+12 -4.20431e+12 -5.62818e+12 -4.67537e+12 -4.67848e+12 -5.84939e+12 -2.49748e+12 -5.25548e+12 -4.49836e+12 -4.00946e+12 -2.32258e+12 -3.51174e+12 -5.02803e+12 -3.8806e+12 -3.39072e+12 -3.84885e+12 -2.60385e+12 -6.13898e+12 -5.81254e+12 -7.12086e+12 -5.6331e+12 -5.7218e+12 -5.50499e+12 -3.43127e+12 -4.31589e+12 -3.35049e+12 -2.99586e+12 -4.11909e+12 -5.35891e+12 -8.12818e+12 -4.66384e+12 -4.67986e+12 -5.67748e+12 -5.65342e+12 -3.41765e+12 -3.11016e+12 -5.56354e+12 -3.39907e+12 -3.76225e+12 -3.80349e+12 -4.63447e+12 -7.32145e+12 -4.634e+12 -6.00227e+12 -4.81645e+12 -3.86399e+12 -5.9785e+12 -5.72252e+12 -4.10887e+12 -4.25695e+12 -7.93017e+12 -3.91763e+12 -2.07497e+12 -2.84993e+12 -1.9916e+12 -3.14288e+12 -5.81973e+12 -5.40425e+12 -5.784e+12 -4.59289e+12 -6.74339e+12 -7.46509e+12 -6.23095e+12 -4.15027e+12 -4.08458e+12 -7.38967e+12 -4.84397e+12 -2.85412e+12 -5.35861e+12 -3.96338e+12 -1.77811e+12 -3.94195e+12 -5.10209e+12 -3.16396e+12 -5.15571e+12 -1.42503e+12 -4.50891e+12 -5.7451e+12 -4.32239e+12 -5.07546e+12 -3.3977e+12 -4.27614e+12 -1.86146e+12 -4.45139e+12 -6.85962e+12 -5.27461e+12 -4.18554e+12 -5.17839e+12 -4.55951e+12 -2.15082e+12 -4.30124e+12 -2.67358e+12 -3.50658e+12 -6.98687e+12 -1.90433e+12 -4.40258e+12 -3.36033e+12 -6.82832e+12 -4.42426e+12 -2.02647e+12 -1.48096e+12 -2.58191e+12 -2.63608e+12 -1.46334e+12 -2.65663e+12 -1.40839e+12 -2.60212e+12 -2.82388e+12 -4.32237e+12 -3.06263e+12 -1.8073e+12 -1.26454e+12 -573473000000.0 -2.84567e+12 -2.36953e+12 -5.34878e+12 -1.53806e+12 -2.07173e+12 -2.36109e+12 -1.847e+12 -3.37779e+12 -2.07411e+12 -3.5861e+12 -2.24885e+12 -2.03314e+12 -2.2142e+12 -3.16541e+12 -2.76695e+12 -2.77522e+12 -4.7829e+12 -3.5268e+12 -2.98739e+12 -2.5554e+12 -2.74503e+12 -3.66812e+12 -2.58817e+12 -4.03788e+12 -3.6659e+12 -1.25522e+12 -3.81564e+12 -2.65304e+12 -5.74202e+12 -6.03208e+12 -3.10955e+12 -2.79771e+12 -2.21561e+12 -3.42379e+12 -2.21617e+12 -2.87923e+12 -4.37188e+12 -2.29907e+12 -4.66367e+12 -1.51939e+12 -2.60263e+12 -4.7764e+12 -4.75477e+12 -5.85787e+12 -2.37044e+12 -2.87969e+12 -2.46258e+12 -2.76863e+12 -3.76226e+12 -5.29801e+12 -4.50967e+12 -5.48633e+12 -5.74311e+12 -5.33795e+12 -5.01872e+12 -3.70269e+12 -5.38253e+12 -5.2842e+12 -5.03821e+12 -5.14476e+12 -4.32904e+12 -7.85554e+12 -4.00359e+12 -3.76033e+12 -4.91444e+12 -4.72603e+12 -6.96384e+12 -7.46197e+12 -3.91339e+12 -3.72438e+12 -5.29359e+12 -5.32567e+12 -3.80278e+12 -1.32734e+12 -2.45598e+12 -6.00293e+12 -3.88007e+12 -3.69281e+12 -2.56994e+12 -5.04211e+12 -4.5349e+12 -5.48767e+12 -3.63453e+12 -6.0543e+12 -7.91704e+12 -4.98009e+12 -4.12084e+12 -5.18818e+12 -3.74844e+12 -3.27393e+12 -5.0381e+12 -3.04285e+12 -5.01029e+12 -3.32438e+12 -4.60269e+12 -3.80959e+12 -4.78647e+12 -3.16181e+12 -4.05096e+12 -5.05141e+12 -3.07955e+12 -3.44403e+12 -4.1598e+12 -3.5345e+12 -4.75323e+12 -3.62275e+12 -3.83823e+12 -4.55526e+12 -2.63789e+12 -3.81949e+12 -2.79937e+12 -1.77953e+12 -3.54052e+12 -3.82598e+12 -2.45618e+12 -1.92004e+12 -2.73053e+12 -2.40628e+12 -2.63146e+12 -2.98871e+12 -2.81929e+12 -1.90559e+12 -2.54682e+12 -3.08627e+12 -2.64661e+12 -3.17817e+12 -1.62287e+12 -2.29226e+12 -2.53553e+12 -3.38592e+12 -3.91141e+12 -2.07457e+12 -2.17186e+12 -2.81545e+12 -1.78499e+12 -2.3507e+12 -2.36429e+12 -678869000000.0 -1.0403e+12 -2.13509e+12 -2.05543e+12 -1.24475e+12 -1.55643e+12 -2.74383e+12 -2.66873e+12 -3.87829e+12 -1.38335e+12 -1.46976e+12 -2.23432e+12 -1.35945e+12 -1.82263e+12 -3.52359e+12 -2.56626e+12 -3.35501e+12 -3.73776e+12 -3.22273e+12 -3.9033e+12 -2.00141e+12 -3.59586e+12 -4.20997e+12 -1.90075e+12 -1.94498e+12 -2.57852e+12 -4.08837e+12 -3.12444e+12 -1.99559e+12 -3.65676e+12 -3.2917e+12 -2.40091e+12 -3.50562e+12 -4.13421e+12 -4.04901e+12 -5.11354e+12 -1.49582e+12 -2.78794e+12 -4.847e+12 -4.45643e+12 -4.04447e+12 -1.84739e+12 -4.65627e+12 -2.05456e+12 -3.66588e+12 -4.01703e+12 -3.521e+12 -5.79061e+12 -5.97335e+12 -6.02525e+12 -4.95617e+12 -7.0568e+12 -3.4502e+12 -2.76442e+12 -2.64296e+12 -2.97275e+12 -5.18106e+12 -3.74847e+12 -4.39358e+12 -5.84563e+12 -3.45077e+12 -5.31667e+12 -4.64233e+12 -6.10828e+12 -5.78054e+12 -7.22602e+12 -3.41766e+12 -2.6359e+12 -3.34578e+12 -2.90781e+12 -3.38492e+12 -5.13595e+12 -4.87746e+12 -2.49431e+12 -2.10124e+12 -2.61908e+12 -4.4288e+12 -3.53692e+12 -4.55908e+12 -3.03304e+12 -3.35358e+12 -4.65688e+12 -4.93366e+12 -4.93023e+12 -4.07741e+12 -4.22956e+12 -4.48354e+12 -3.33152e+12 -2.51853e+12 -4.09827e+12 -8.3616e+12 -3.56934e+12 -2.91818e+12 -4.59272e+12 -4.1732e+12 -3.22583e+12 -2.12127e+12 -3.02112e+12 -4.04134e+12 -2.92133e+12 -2.40674e+12 -2.98013e+12 -2.36081e+12 -3.11361e+12 -2.72812e+12 -2.60306e+12 -2.02157e+12 -2.35564e+12 -3.56516e+12 -3.3858e+12 -2.64456e+12 -1.86804e+12 -2.78473e+12 -2.17484e+12 -2.07345e+12 -2.50067e+12 -3.12692e+12 -1.39488e+12 -1.58848e+12 -1.532e+12 -2.65192e+12 -1.15133e+12 -1.77411e+12 -1.53113e+12 -591881000000.0 -2.31332e+12 -1.887e+12 -1.6663e+12 -1.7842e+12 -1.84621e+12 -232862000000.0 -666913000000.0 -1.01344e+12 -1.01583e+12 -1.43052e+12 -1.52454e+12 -1.00532e+12 -860986000000.0 -1.19251e+12 -1.09699e+12 -850333000000.0 -2.56125e+12 -1.68266e+12 -2.11283e+12 -2.16238e+12 -1.8402e+12 -1.40828e+12 -3.38691e+12 -2.09165e+12 -2.55814e+12 -1.78019e+12 -2.19305e+12 -2.54493e+12 -1.46973e+12 -3.26307e+12 -3.3778e+12 -2.34563e+12 -2.46474e+12 -2.06486e+12 -2.58121e+12 -2.21704e+12 -4.84817e+12 -3.26428e+12 -2.94578e+12 -351719000000.0 -1.72713e+12 -4.14092e+12 -2.64434e+12 -3.54574e+12 -3.05173e+12 -2.64599e+12 -1.62169e+12 -2.02215e+12 -5.3638e+12 -1.99898e+12 -3.93819e+12 -3.10915e+12 -4.68442e+12 -4.45059e+12 -2.30233e+12 -4.0734e+12 -3.04447e+12 -3.24517e+12 -3.53948e+12 -2.90567e+12 -3.15974e+12 -4.12327e+12 -4.83714e+12 -3.08466e+12 -2.76479e+12 -4.71022e+12 -3.65229e+12 -6.06133e+12 -3.18425e+12 -3.27228e+12 -6.00924e+12 -4.71559e+12 -2.92277e+12 -3.83279e+12 -4.56464e+12 -6.233e+12 -2.65575e+12 -2.54778e+12 -3.57537e+12 -2.90586e+12 -3.0988e+12 -3.25327e+12 -3.38289e+12 -3.71344e+12 -8.29575e+12 -2.96578e+12 -6.82139e+12 -3.6581e+12 -3.66215e+12 -3.53016e+12 -2.97684e+12 -5.88934e+12 -5.78436e+12 -1.09514e+12 -3.43863e+12 -4.03093e+12 -4.18876e+12 -2.28674e+12 -1.88935e+12 -2.75364e+12 -1.62256e+12 -2.14065e+12 -2.04713e+12 -3.39298e+12 -4.21701e+12 -1.75376e+12 -2.69004e+12 -2.82841e+12 -2.19744e+12 -3.25776e+12 -1.50624e+12 -2.87905e+12 -3.89184e+12 -2.69961e+12 -2.14945e+12 -861323000000.0 -1.76874e+12 -1.95144e+12 -4.90577e+12 -2.94017e+12 -179520000000.0 -1.34889e+12 -1.492e+12 -696585000000.0 -1.66435e+12 -1.29564e+12 -2.6468e+12 -705247000000.0 -2.43255e+12 -108725000000.0 -1.19222e+12 -872202000000.0 -502587000000.0 -1.06124e+12 -651895000000.0 -718244000000.0 -467342000000.0 -935335000000.0 -288895000000.0 -653591000000.0 -438228000000.0 -568159000000.0 -1.206e+12 -530247000000.0 -1.20259e+12 -1.26337e+12 -991520000000.0 -561000000000.0 -2.24111e+12 -2.53452e+12 -1.32218e+12 -815706000000.0 -436012000000.0 -1.69564e+12 -1.52009e+12 -821626000000.0 -3.41151e+12 -2.78852e+12 -2.35834e+12 -1.71221e+12 -1.25841e+12 -2.98368e+12 -4.14447e+12 -1.16932e+12 -1.82318e+12 -1.39088e+12 -3.10514e+12 -2.94835e+12 -2.90374e+12 -2.87149e+12 -2.51659e+12 -5.09054e+12 -3.54369e+12 -1.66167e+12 -3.89974e+12 -1.58568e+12 -3.32672e+12 -4.27881e+12 -2.55531e+12 -2.63341e+12 -1.96836e+12 -3.27421e+12 -3.41168e+12 -3.253e+12 -3.04848e+12 -6.2212e+12 -4.05265e+12 -3.4889e+12 -2.94337e+12 -2.90586e+12 -2.69154e+12 -2.51026e+12 -1.75833e+12 -3.54701e+12 -4.14725e+12 -2.3145e+12 -1.14397e+12 -1.76632e+12 -3.92531e+12 -3.10225e+12 -4.3891e+12 -2.07753e+12 -2.00132e+12 -2.76619e+12 -2.40172e+12 -1.88067e+12 -1.23942e+12 -3.44815e+12 -2.63315e+12 -3.07656e+12 -4.10239e+12 -3.05593e+12 -2.84353e+12 -2.30775e+12 -3.46608e+12 -2.42381e+12 -2.30474e+12 -2.36392e+12 -1.34052e+12 -1.62508e+12 -2.48725e+12 -1.64154e+12 -1.78919e+12 -530358000000.0 -1.27643e+12 -3.12147e+12 -1.66696e+12 -1.13131e+12 -2.08546e+12 -604488000000.0 -2.01925e+12 -1.53674e+12 -2.72292e+12 -1.23935e+12 -1.5068e+12 -1.29776e+12 -742071000000.0 -1.05317e+12 -1.59207e+12 -778909000000.0 -902827000000.0 -363218000000.0 -339125000000.0 -650212000000.0 -822131000000.0 -332477000000.0 -1.10022e+12 -461862000000.0 -461491000000.0 -370006000000.0 -429855000000.0 -152671000000.0 -135221000000.0 -1.08506e+12 -981947000000.0 -815246000000.0 -1.40321e+12 -504098000000.0 -1.20758e+12 -1.81875e+12 -530686000000.0 -1.31838e+12 -2.63988e+12 -891224000000.0 -1.43525e+12 -1.24299e+12 -1.85949e+12 -2.07674e+12 -1.83468e+12 -1.39008e+12 -3.82318e+12 -3.58257e+12 -1.66671e+12 -2.25833e+12 -1.96017e+12 -3.00944e+12 -1.52504e+12 -907357000000.0 -2.01387e+12 -2.9359e+12 -2.10665e+12 -3.91887e+12 -1.62162e+12 -2.9783e+12 -2.21546e+12 -4.35291e+12 -2.14402e+12 -1.10852e+12 -2.4081e+12 -2.19073e+12 -3.19081e+12 -2.20243e+12 -2.19703e+12 -1.64508e+12 -3.99176e+12 -3.21925e+12 -1.54322e+12 -2.85957e+12 -4.59206e+12 -2.90207e+12 -1.97994e+12 -3.79887e+12 -1.09155e+12 -2.55522e+12 -3.07835e+12 -3.86211e+12 -2.4432e+12 -2.34937e+12 -2.00089e+12 -1.75771e+12 -1.50124e+12 -2.40795e+12 -513965000000.0 -2.26933e+12 -2.03521e+12 -1.15387e+12 -2.8811e+12 -2.00794e+12 -2.19143e+12 -1.35674e+12 -1.60396e+12 -458959000000.0 -1.86514e+12 -649657000000.0 -3.4534e+12 -2.75952e+12 -2.2328e+12 -1.87641e+12 -2.72865e+12 -1.9731e+12 -2.5248e+12 -1.52562e+12 -951179000000.0 -1.12269e+12 -4.44879e+12 -1.596e+12 -1.28655e+12 -1.31102e+12 -1.54149e+12 -1.87636e+12 -1.40926e+12 -948285000000.0 -1.59864e+12 -1.23954e+12 -1.11913e+12 -687654000000.0 -285078000000.0 -713800000000.0 -676611000000.0 -799486000000.0 -335103000000.0 -769414000000.0 -142822000000.0 -260743000000.0 -355582000000.0 -254586000000.0 -132173000000.0 -231998000000.0 -200157000000.0 -409087000000.0 -216618000000.0 -114707000000.0 -313539000000.0 -186942000000.0 -356080000000.0 -637058000000.0 -1.38285e+12 -528103000000.0 -1.45215e+12 -1.18906e+12 -2.0039e+12 -1.52805e+12 -732752000000.0 -2.13818e+12 -2.2638e+12 -692370000000.0 -1.12196e+12 -1.4269e+12 -2.87831e+12 -1.45405e+12 -1.38271e+12 -1.44121e+12 -1.71995e+12 -1.88214e+12 -1.20269e+12 -1.98504e+12 -3.17675e+12 -3.6724e+12 -2.39275e+12 -1.84397e+12 -1.79105e+12 -2.01459e+12 -2.24419e+12 -1.76356e+12 -3.11647e+12 -1.90527e+12 -1.3539e+12 -1.95029e+12 -1.78373e+12 -2.4424e+12 -2.17105e+12 -1.79169e+12 -2.95866e+12 -1.68071e+12 -1.79447e+12 -1.43315e+12 -1.68208e+12 -1.39019e+12 -1.93437e+12 -1.77552e+12 -277366000000.0 -1.98563e+12 -2.45795e+12 -724723000000.0 -1.31961e+12 -2.44208e+12 -1.92406e+12 -1.19184e+12 -1.94636e+12 -1.82087e+12 -1.72757e+12 -1.16686e+12 -1.02231e+12 -1.95324e+12 -1.5249e+12 -1.14551e+12 -1.83682e+12 -1.01636e+12 -1.65712e+12 -1.55286e+12 -1.22048e+12 -889490000000.0 -1.44042e+12 -787723000000.0 -884753000000.0 -1.76922e+12 -1.18041e+12 -2.04203e+12 -609563000000.0 -1.01156e+12 -814401000000.0 -430379000000.0 -260295000000.0 -943827000000.0 -117332000000.0 -249145000000.0 -292879000000.0 -430838000000.0 -259001000000.0 -339207000000.0 -223788000000.0 -95761900000.0 -945016000000.0 -120099000000.0 -415251000000.0 -500998000000.0 -946079000000.0 -776161000000.0 -454198000000.0 -1.00076e+12 -804933000000.0 -1.1814e+12 -903965000000.0 -1.28698e+12 -1.47496e+12 -1.04727e+12 -1.18338e+12 -2.16165e+12 -1.82244e+12 -504070000000.0 -1.63155e+12 -2.07847e+12 -2.70921e+12 -1.51609e+12 -662732000000.0 -1.43795e+12 -309819000000.0 -1.41197e+12 -1.4153e+12 -1.08067e+12 -2.13619e+12 -1.33883e+12 -1.49989e+12 -1.54364e+12 -1.51309e+12 -1.24041e+12 -1.06691e+12 -484638000000.0 -1.01157e+12 -792391000000.0 -1.40681e+12 -557995000000.0 -423026000000.0 -726754000000.0 -607294000000.0 -810286000000.0 -1.09924e+12 -364250000000.0 -821771000000.0 -1.2073e+12 -1.15617e+12 -531610000000.0 -993771000000.0 -450712000000.0 -308534000000.0 -338924000000.0 -141728000000.0 -292931000000.0 -79500400000.0 -565778000000.0 -547965000000.0 -263843000000.0 -307289000000.0 -293006000000.0 -280863000000.0 -265744000000.0 -404357000000.0 -454172000000.0 -258293000000.0 -621494000000.0 -382362000000.0 -315620000000.0 -1.08916e+12 -1.0589e+12 -772370000000.0 -576943000000.0 -763949000000.0 -440875000000.0 -1.00867e+12 -1.22396e+12 -2.0683e+12 -1.43866e+12 -736324000000.0 -404377000000.0 -776883000000.0 -1.13937e+12 -1.13131e+12 -1.37186e+12 -791336000000.0 -1.11575e+12 -970489000000.0 -376079000000.0 -1.25456e+12 -1.1768e+12 -934565000000.0 -599712000000.0 -757319000000.0 -422475000000.0 -68392800000.0 -261191000000.0 -264076000000.0 -543911000000.0 -508138000000.0 -207827000000.0 -243881000000.0 -275053000000.0 -478087000000.0 -250971000000.0 -310825000000.0 -240063000000.0 -399057000000.0 -662318000000.0 -971964000000.0 -203241000000.0 -139393000000.0 -219883000000.0 -139041000000.0 -410636000000.0 -431196000000.0 -430915000000.0 -238404000000.0 -306626000000.0 -567822000000.0 -375342000000.0 -292668000000.0 -612049000000.0 -308813000000.0 -903982000000.0 -814604000000.0 -879359000000.0 -362771000000.0 -578385000000.0 -656642000000.0 -237951000000.0 -182770000000.0 -482616000000.0 -39453800000.0 -68579800000.0 -91738500000.0 -422624000000.0 -165911000000.0 -288995000000.0 -252286000000.0 -105864000000.0 