# vtk DataFile Version 2.0
Time step 59
ASCII
DATASET UNSTRUCTURED_GRID
POINTS 4650 float
201999.0 372287.0 0
206078.0 373929.0 0
210321.0 372390.0 0
213457.0 374872.0 0
217453.0 374934.0 0
225371.0 375057.0 0
274629.0 375057.0 0
282547.0 374934.0 0
286543.0 374872.0 0
289679.0 372390.0 0
293922.0 373929.0 0
298001.0 372287.0 0
199309.0 377783.0 0
202811.0 376146.0 0
209347.0 376225.0 0
221423.0 375631.0 0
229057.0 376809.0 0
232743.0 375286.0 0
236049.0 377565.0 0
239522.0 375626.0 0
242634.0 378126.0 0
246268.0 376466.0 0
250000.0 377896.0 0
253732.0 376466.0 0
257366.0 378126.0 0
260478.0 375626.0 0
263951.0 377565.0 0
267257.0 375286.0 0
270943.0 376809.0 0
278577.0 375631.0 0
290653.0 376225.0 0
297189.0 376146.0 0
300691.0 377783.0 0
195998.0 379833.0 0
199307.0 381711.0 0
206061.0 378336.0 0
212434.0 378700.0 0
218944.0 378728.0 0
225767.0 379033.0 0
232478.0 379273.0 0
238959.0 380301.0 0
261041.0 380301.0 0
267522.0 379273.0 0
274233.0 379033.0 0
281056.0 378728.0 0
287566.0 378700.0 0
293939.0 378336.0 0
300693.0 381711.0 0
304002.0 379833.0 0
189282.0 384013.0 0
192643.0 381917.0 0
195893.0 383542.0 0
202646.0 380090.0 0
205695.0 382495.0 0
209096.0 380739.0 0
212268.0 382876.0 0
215669.0 380922.0 0
218977.0 383050.0 0
222287.0 380907.0 0
225663.0 383216.0 0
229077.0 381265.0 0
235391.0 382044.0 0
242502.0 382126.0 0
246201.0 380618.0 0
250000.0 381894.0 0
253799.0 380618.0 0
257498.0 382126.0 0
264609.0 382044.0 0
270923.0 381265.0 0
274337.0 383216.0 0
277713.0 380907.0 0
281023.0 383050.0 0
284331.0 380922.0 0
287732.0 382876.0 0
290904.0 380739.0 0
294305.0 382495.0 0
297354.0 380090.0 0
304107.0 383542.0 0
307357.0 381917.0 0
310718.0 384013.0 0
185928.0 386106.0 0
192500.0 385535.0 0
195658.0 387244.0 0
199040.0 385506.0 0
202403.0 384266.0 0
208801.0 384737.0 0
215523.0 384949.0 0
222285.0 385204.0 0
231972.0 384017.0 0
238949.0 384298.0 0
246176.0 384608.0 0
250000.0 385892.0 0
253824.0 384608.0 0
261051.0 384298.0 0
268028.0 384017.0 0
277715.0 385204.0 0
284477.0 384949.0 0
291199.0 384737.0 0
297597.0 384266.0 0
300960.0 385506.0 0
304342.0 387244.0 0
307500.0 385535.0 0
314072.0 386106.0 0
182586.0 388194.0 0
185778.0 389664.0 0
189130.0 387590.0 0
192295.0 389186.0 0
198833.0 389147.0 0
205409.0 386629.0 0
211995.0 386816.0 0
218826.0 387077.0 0
225193.0 387898.0 0
228569.0 385962.0 0
231959.0 388058.0 0
235391.0 386067.0 0
242486.0 386140.0 0
257514.0 386140.0 0
264609.0 386067.0 0
268041.0 388058.0 0
271431.0 385962.0 0
274807.0 387898.0 0
281174.0 387077.0 0
288005.0 386816.0 0
294591.0 386629.0 0
301167.0 389147.0 0
307705.0 389186.0 0
310870.0 387590.0 0
314222.0 389664.0 0
317414.0 388194.0 0
175940.0 392347.0 0
179257.0 390274.0 0
182442.0 391742.0 0
188946.0 391210.0 0
195447.0 390913.0 0
202430.0 388994.0 0
205514.0 391116.0 0
208566.0 388725.0 0
211720.0 390797.0 0
215156.0 388863.0 0
218232.0 390974.0 0
221868.0 389874.0 0
228540.0 390042.0 0
235411.0 390056.0 0
238976.0 388295.0 0
242515.0 390135.0 0
246199.0 388587.0 0
250000.0 389892.0 0
253801.0 388587.0 0
257485.0 390135.0 0
261024.0 388295.0 0
264589.0 390056.0 0
271460.0 390042.0 0
278132.0 389874.0 0
281768.0 390974.0 0
284844.0 388863.0 0
288280.0 390797.0 0
291434.0 388725.0 0
294486.0 391116.0 0
297570.0 388994.0 0
304553.0 390913.0 0
311054.0 391210.0 0
317558.0 391742.0 0
320743.0 390274.0 0
324060.0 392347.0 0
172640.0 394410.0 0
179121.0 393820.0 0
185611.0 393267.0 0
188765.0 394864.0 0
192097.0 392851.0 0
195246.0 394581.0 0
198618.0 392755.0 0
202189.0 393000.0 0
208615.0 393160.0 0
214886.0 392834.0 0
220793.0 393738.0 0
225136.0 392037.0 0
231977.0 392051.0 0
239020.0 392293.0 0
246239.0 392555.0 0
253761.0 392555.0 0
260980.0 392293.0 0
268023.0 392051.0 0
274864.0 392037.0 0
279207.0 393738.0 0
285114.0 392834.0 0
291385.0 393160.0 0
297811.0 393000.0 0
301382.0 392755.0 0
304754.0 394581.0 0
307903.0 392851.0 0
311235.0 394864.0 0
314389.0 393267.0 0
320879.0 393820.0 0
327360.0 394410.0 0
169357.0 396462.0 0
175816.0 395895.0 0
178984.0 397414.0 0
182290.0 395337.0 0
185446.0 396911.0 0
191910.0 396535.0 0
198427.0 396359.0 0
205251.0 395118.0 0
211781.0 395138.0 0
217394.0 395678.0 0
223965.0 395776.0 0
228552.0 394043.0 0
232009.0 396035.0 0
235442.0 394036.0 0
242565.0 394125.0 0
250000.0 393914.0 0
257435.0 394125.0 0
264558.0 394036.0 0
267991.0 396035.0 0
271448.0 394043.0 0
276035.0 395776.0 0
282606.0 395678.0 0
288219.0 395138.0 0
294749.0 395118.0 0
301573.0 396359.0 0
308090.0 396535.0 0
314554.0 396911.0 0
317710.0 395337.0 0
321016.0 397414.0 0
324184.0 395895.0 0
330643.0 396462.0 0
166092.0 398503.0 0
169267.0 400020.0 0
172531.0 397963.0 0
175698.0 399492.0 0
182141.0 398978.0 0
188591.0 398549.0 0
195063.0 398261.0 0
198244.0 399997.0 0
201926.0 397084.0 0
205023.0 399091.0 0
208403.0 397119.0 0
211032.0 399757.0 0
214299.0 397910.0 0
220589.0 397713.0 0
227149.0 397730.0 0
235553.0 398012.0 0
239152.0 396289.0 0
242724.0 398110.0 0
246363.0 396510.0 0
250000.0 398136.0 0
253637.0 396510.0 0
257276.0 398110.0 0
260848.0 396289.0 0
264447.0 398012.0 0
272851.0 397730.0 0
279411.0 397713.0 0
285701.0 397910.0 0
288968.0 399757.0 0
291597.0 397119.0 0
294977.0 399091.0 0
298074.0 397084.0 0
301756.0 399997.0 0
304937.0 398261.0 0
311409.0 398549.0 0
317859.0 398978.0 0
324302.0 399492.0 0
327469.0 397963.0 0
330733.0 400020.0 0
333908.0 398503.0 0
159606.0 402557.0 0
162843.0 400534.0 0
166021.0 402065.0 0
172434.0 401565.0 0
178855.0 401056.0 0
182003.0 402663.0 0
185288.0 400595.0 0
188429.0 402268.0 0
191734.0 400244.0 0
194886.0 401971.0 0
201659.0 401063.0 0
207759.0 401574.0 0
217452.0 399932.0 0
223782.0 399747.0 0
227011.0 401707.0 0
230359.0 399624.0 0
233607.0 401464.0 0
239403.0 400270.0 0
246498.0 400468.0 0
253502.0 400468.0 0
260597.0 400270.0 0
266393.0 401464.0 0
269641.0 399624.0 0
272989.0 401707.0 0
276218.0 399747.0 0
282548.0 399932.0 0
292241.0 401574.0 0
298341.0 401063.0 0
305114.0 401971.0 0
308266.0 400244.0 0
311571.0 402268.0 0
314712.0 400595.0 0
317997.0 402663.0 0
321145.0 401056.0 0
327566.0 401565.0 0
333979.0 402065.0 0
337157.0 400534.0 0
340394.0 402557.0 0
156373.0 404577.0 0
162789.0 404096.0 0
169191.0 403628.0 0
172351.0 405219.0 0
175591.0 403140.0 0
178738.0 404746.0 0
185143.0 404319.0 0
191571.0 403986.0 0
198056.0 403682.0 0
204464.0 403414.0 0
210876.0 403688.0 0
214166.0 401855.0 0
220598.0 401944.0 0
223782.0 403888.0 0
230274.0 403601.0 0
236874.0 403296.0 0
242909.0 402195.0 0
250000.0 402380.0 0
257091.0 402195.0 0
263126.0 403296.0 0
269726.0 403601.0 0
276218.0 403888.0 0
279402.0 401944.0 0
285834.0 401855.0 0
289124.0 403688.0 0
295536.0 403414.0 0
301944.0 403682.0 0
308429.0 403986.0 0
314857.0 404319.0 0
321262.0 404746.0 0
324409.0 403140.0 0
327649.0 405219.0 0
330809.0 403628.0 0
337211.0 404096.0 0
343627.0 404577.0 0
153137.0 406599.0 0
159564.0 406114.0 0
162750.0 407700.0 0
165967.0 405674.0 0
169133.0 407286.0 0
175500.0 406839.0 0
181878.0 406391.0 0
188279.0 406024.0 0
194720.0 405727.0 0
197862.0 407480.0 0
201181.0 405360.0 0
204268.0 407341.0 0
207573.0 405492.0 0
210722.0 407602.0 0
214027.0 405802.0 0
217315.0 403914.0 0
220492.0 405926.0 0
227008.0 405772.0 0
233557.0 405451.0 0
240189.0 405088.0 0
243507.0 406919.0 0
246567.0 404427.0 0
250000.0 406385.0 0
253433.0 404427.0 0
256493.0 406919.0 0
259811.0 405088.0 0
266443.0 405451.0 0
272992.0 405772.0 0
279508.0 405926.0 0
282685.0 403914.0 0
285973.0 405802.0 0
289278.0 407602.0 0
292427.0 405492.0 0
295732.0 407341.0 0
298819.0 405360.0 0
302138.0 407480.0 0
305280.0 405727.0 0
311721.0 406024.0 0
318122.0 406391.0 0
324500.0 406839.0 0
330867.0 407286.0 0
334033.0 405674.0 0
337250.0 407700.0 0
340436.0 406114.0 0
346863.0 406599.0 0
146623.0 410669.0 0
149888.0 408629.0 0
153089.0 410128.0 0
156333.0 408123.0 0
159530.0 409706.0 0
165929.0 409330.0 0
172287.0 408927.0 0
175427.0 410591.0 0
178639.0 408484.0 0
181773.0 410163.0 0
185014.0 408083.0 0
188145.0 409821.0 0
191415.0 407769.0 0
194544.0 409539.0 0
200965.0 409289.0 0
207401.0 409389.0 0
217198.0 407882.0 0
223708.0 407868.0 0
230271.0 407622.0 0
236867.0 407273.0 0
240182.0 409083.0 0
246852.0 408763.0 0
253148.0 408763.0 0
259818.0 409083.0 0
263133.0 407273.0 0
269729.0 407622.0 0
276292.0 407868.0 0
282802.0 407882.0 0
292599.0 409389.0 0
299035.0 409289.0 0
305456.0 409539.0 0
308585.0 407769.0 0
311855.0 409821.0 0
314986.0 408083.0 0
318227.0 410163.0 0
321361.0 408484.0 0
324573.0 410591.0 0
327713.0 408927.0 0
334071.0 409330.0 0
340470.0 409706.0 0
343667.0 408123.0 0
346911.0 410128.0 0
350112.0 408629.0 0
353377.0 410669.0 0
143344.0 412718.0 0
149826.0 412137.0 0
156297.0 411696.0 0
162725.0 411343.0 0
165912.0 413032.0 0
169096.0 410998.0 0
172247.0 412693.0 0
178559.0 412271.0 0
184904.0 411888.0 0
191269.0 411602.0 0
197656.0 411341.0 0
204080.0 411236.0 0
210583.0 411493.0 0
213896.0 409741.0 0
220401.0 409897.0 0
226963.0 409754.0 0
230249.0 411606.0 0
233568.0 409455.0 0
236885.0 411288.0 0
243513.0 410903.0 0
250000.0 410966.0 0
256487.0 410903.0 0
263115.0 411288.0 0
266432.0 409455.0 0
269751.0 411606.0 0
273037.0 409754.0 0
279599.0 409897.0 0
286104.0 409741.0 0
289417.0 411493.0 0
295920.0 411236.0 0
302344.0 411341.0 0
308731.0 411602.0 0
315096.0 411888.0 0
321441.0 412271.0 0
327753.0 412693.0 0
330904.0 410998.0 0
334088.0 413032.0 0
337275.0 411343.0 0
343703.0 411696.0 0
350174.0 412137.0 0
356656.0 412718.0 0
140055.0 414773.0 0
146545.0 414165.0 0
149772.0 415661.0 0
153046.0 413677.0 0
156274.0 415294.0 0
159510.0 413330.0 0
162718.0 415024.0 0
169089.0 414761.0 0
175382.0 414402.0 0
181688.0 413978.0 0
188032.0 413662.0 0
194380.0 413411.0 0
197486.0 415243.0 0
200762.0 413189.0 0
203902.0 415092.0 0
207248.0 413258.0 0
210467.0 415337.0 0
213786.0 413670.0 0
217091.0 411842.0 0
220309.0 413857.0 0
223642.0 411837.0 0
226919.0 413725.0 0
233555.0 413445.0 0
240217.0 413123.0 0
246699.0 412988.0 0
250000.0 414954.0 0
253301.0 412988.0 0
259783.0 413123.0 0
266445.0 413445.0 0
273081.0 413725.0 0
276358.0 411837.0 0
279691.0 413857.0 0
282909.0 411842.0 0
286214.0 413670.0 0
289533.0 415337.0 0
292752.0 413258.0 0
296098.0 415092.0 0
299238.0 413189.0 0
302514.0 415243.0 0
305620.0 413411.0 0
311968.0 413662.0 0
318312.0 413978.0 0
324618.0 414402.0 0
330911.0 414761.0 0
337282.0 415024.0 0
340490.0 413330.0 0
343726.0 415294.0 0
346954.0 413677.0 0
350228.0 415661.0 0
353455.0 414165.0 0
359945.0 414773.0 0
136765.0 416831.0 0
139955.0 418278.0 0
143250.0 416213.0 0
146478.0 417674.0 0
153016.0 417243.0 0
159499.0 416982.0 0
165922.0 416774.0 0
172249.0 416520.0 0
175384.0 418287.0 0
178504.0 416105.0 0
181627.0 417830.0 0
184818.0 415734.0 0
187953.0 417540.0 0
191152.0 415492.0 0
194266.0 417338.0 0
200607.0 417088.0 0
207091.0 417080.0 0
216980.0 415811.0 0
223573.0 415794.0 0
230220.0 415583.0 0
236872.0 415283.0 0
240138.0 417225.0 0
243453.0 415143.0 0
246763.0 417082.0 0
253237.0 417082.0 0
256547.0 415143.0 0
259862.0 417225.0 0
263128.0 415283.0 0
269780.0 415583.0 0
276427.0 415794.0 0
283020.0 415811.0 0
292909.0 417080.0 0
299393.0 417088.0 0
305734.0 417338.0 0
308848.0 415492.0 0
312047.0 417540.0 0
315182.0 415734.0 0
318373.0 417830.0 0
321496.0 416105.0 0
324616.0 418287.0 0
327751.0 416520.0 0
334078.0 416774.0 0
340501.0 416982.0 0
346984.0 417243.0 0
353522.0 417674.0 0
356750.0 416213.0 0
360045.0 418278.0 0
363235.0 416831.0 0
130223.0 420926.0 0
133483.0 418884.0 0
136668.0 420363.0 0
143179.0 419729.0 0
146431.0 421193.0 0
149733.0 419195.0 0
152994.0 420821.0 0
156259.0 418918.0 0
159485.0 420664.0 0
162718.0 418734.0 0
165935.0 420538.0 0
169126.0 418571.0 0
178490.0 419994.0 0
184750.0 419611.0 0
191099.0 419439.0 0
197389.0 419186.0 0
203782.0 418922.0 0
210309.0 419097.0 0
213655.0 417610.0 0
220201.0 417812.0 0
226883.0 417689.0 0
230168.0 419568.0 0
233523.0 417435.0 0
236810.0 419323.0 0
243446.0 419139.0 0
250000.0 419181.0 0
256554.0 419139.0 0
263190.0 419323.0 0
266477.0 417435.0 0
269832.0 419568.0 0
273117.0 417689.0 0
279799.0 417812.0 0
286345.0 417610.0 0
289691.0 419097.0 0
296218.0 418922.0 0
302611.0 419186.0 0
308901.0 419439.0 0
315250.0 419611.0 0
321510.0 419994.0 0
330874.0 418571.0 0
334065.0 420538.0 0
337282.0 418734.0 0
340515.0 420664.0 0
343741.0 418918.0 0
347006.0 420821.0 0
350267.0 419195.0 0
353569.0 421193.0 0
356821.0 419729.0 0
363332.0 420363.0 0
366517.0 418884.0 0
369777.0 420926.0 0
126996.0 422948.0 0
133408.0 422462.0 0
139884.0 421806.0 0
143130.0 423264.0 0
149701.0 422730.0 0
156237.0 422571.0 0
162696.0 422468.0 0
169158.0 422396.0 0
172333.0 420414.0 0
175548.0 422302.0 0
181564.0 421719.0 0
184615.0 423493.0 0
187917.0 421418.0 0
194256.0 421315.0 0
197455.0 423188.0 0
200529.0 421003.0 0
203708.0 422689.0 0
207007.0 420918.0 0
210359.0 422743.0 0
216790.0 419842.0 0
220262.0 421688.0 0
223552.0 419729.0 0
226809.0 421682.0 0
233465.0 421431.0 0
240117.0 421220.0 0
246694.0 421191.0 0
253306.0 421191.0 0
259883.0 421220.0 0
266535.0 421431.0 0
273191.0 421682.0 0
276448.0 419729.0 0
279738.0 421688.0 0
283210.0 419842.0 0
289641.0 422743.0 0
292993.0 420918.0 0
296292.0 422689.0 0
299471.0 421003.0 0
302545.0 423188.0 0
305744.0 421315.0 0
312083.0 421418.0 0
315385.0 423493.0 0
318436.0 421719.0 0
324452.0 422302.0 0
327667.0 420414.0 0
330842.0 422396.0 0
337304.0 422468.0 0
343763.0 422571.0 0
350299.0 422730.0 0
356870.0 423264.0 0
360116.0 421806.0 0
366592.0 422462.0 0
373004.0 422948.0 0
123805.0 424946.0 0
130196.0 424562.0 0
136615.0 423934.0 0
139857.0 425357.0 0
146391.0 424720.0 0
149669.0 426270.0 0
152970.0 424419.0 0
156189.0 426262.0 0
159441.0 424382.0 0
165899.0 424316.0 0
172403.0 424303.0 0
178753.0 424192.0 0
187731.0 425152.0 0
191163.0 423456.0 0
199731.0 426285.0 0
206940.0 424771.0 0
213621.0 424712.0 0
217163.0 423729.0 0
223456.0 423781.0 0
230109.0 423556.0 0
236773.0 423315.0 0
240061.0 425257.0 0
243383.0 423219.0 0
246686.0 425191.0 0
250000.0 423181.0 0
253314.0 425191.0 0
256617.0 423219.0 0
259939.0 425257.0 0
263227.0 423315.0 0
269891.0 423556.0 0
276544.0 423781.0 0
282837.0 423729.0 0
286379.0 424712.0 0
293060.0 424771.0 0
300269.0 426285.0 0
308837.0 423456.0 0
312269.0 425152.0 0
321247.0 424192.0 0
327597.0 424303.0 0
334101.0 424316.0 0
340559.0 424382.0 0
343811.0 426262.0 0
347030.0 424419.0 0
350331.0 426270.0 0
353609.0 424720.0 0
360143.0 425357.0 0
363385.0 423934.0 0
369804.0 424562.0 0
376195.0 424946.0 0
117414.0 428941.0 0
120619.0 426938.0 0
123897.0 428655.0 0
127037.0 426642.0 0
130253.0 428273.0 0
133402.0 426100.0 0
136627.0 427547.0 0
143115.0 426835.0 0
146365.0 428259.0 0
152923.0 428036.0 0
159336.0 428151.0 0
162612.0 426238.0 0
165778.0 428105.0 0
169111.0 426209.0 0
172344.0 428136.0 0
175693.0 426303.0 0
181896.0 426123.0 0
188722.0 428440.0 0
192230.0 427165.0 0
195941.0 426736.0 0
203432.0 426241.0 0
210226.0 426448.0 0
220254.0 426056.0 0
226753.0 425675.0 0
230053.0 427549.0 0
233416.0 425414.0 0
236725.0 427310.0 0
243360.0 427216.0 0
250000.0 427181.0 0
256640.0 427216.0 0
263275.0 427310.0 0
266584.0 425414.0 0
269947.0 427549.0 0
273247.0 425675.0 0
279746.0 426056.0 0
289774.0 426448.0 0
296568.0 426241.0 0
304059.0 426736.0 0
307770.0 427165.0 0
311278.0 428440.0 0
318104.0 426123.0 0
324307.0 426303.0 0
327656.0 428136.0 0
330889.0 426209.0 0
334222.0 428105.0 0
337388.0 426238.0 0
340664.0 428151.0 0
347077.0 428036.0 0
353635.0 428259.0 0
356885.0 426835.0 0
363373.0 427547.0 0
366598.0 426100.0 0
369747.0 428273.0 0
372963.0 426642.0 0
376103.0 428655.0 0
379381.0 426938.0 0
382586.0 428941.0 0
114172.0 430966.0 0
120726.0 430630.0 0
127158.0 430407.0 0
133476.0 429803.0 0
139893.0 428926.0 0
143158.0 430479.0 0
149623.0 429808.0 0
156065.0 430005.0 0
162455.0 430051.0 0
168955.0 430013.0 0
175577.0 430188.0 0
178986.0 428509.0 0
184974.0 428124.0 0
194501.0 430402.0 0
198295.0 429933.0 0
202108.0 429686.0 0
205956.0 429000.0 0
209510.0 430035.0 0
213149.0 428841.0 0
216685.0 427585.0 0
223543.0 427996.0 0
233393.0 429383.0 0
240015.0 429253.0 0
246674.0 429190.0 0
253326.0 429190.0 0
259985.0 429253.0 0
266607.0 429383.0 0
276457.0 427996.0 0
283315.0 427585.0 0
286851.0 428841.0 0
290490.0 430035.0 0
294044.0 429000.0 0
297892.0 429686.0 0
301705.0 429933.0 0
305499.0 430402.0 0
315026.0 428124.0 0
321014.0 428509.0 0
324423.0 430188.0 0
331045.0 430013.0 0
337545.0 430051.0 0
343935.0 430005.0 0
350377.0 429808.0 0
356842.0 430479.0 0
360107.0 428926.0 0
366524.0 429803.0 0
372842.0 430407.0 0
379274.0 430630.0 0
385828.0 430966.0 0
110892.0 433015.0 0
117493.0 432607.0 0
120848.0 434319.0 0
124051.0 432402.0 0
130401.0 432061.0 0
136740.0 431199.0 0
140074.0 432497.0 0
146357.0 431815.0 0
149559.0 433356.0 0
152807.0 431685.0 0
159143.0 431964.0 0
162342.0 433906.0 0
165613.0 431913.0 0
172115.0 431926.0 0
178794.0 432430.0 0
182564.0 431256.0 0
186678.0 431589.0 0
190808.0 431258.0 0
196849.0 433585.0 0
200686.0 433199.0 0
204602.0 432695.0 0
208387.0 433554.0 0
212229.0 432682.0 0
215916.0 431515.0 0
219562.0 430149.0 0
222892.0 431940.0 0
226504.0 430432.0 0
230123.0 431525.0 0
236651.0 431320.0 0
243334.0 431208.0 0
246648.0 433188.0 0
250000.0 431180.0 0
253352.0 433188.0 0
256666.0 431208.0 0
263349.0 431320.0 0
269877.0 431525.0 0
273496.0 430432.0 0
277108.0 431940.0 0
280438.0 430149.0 0
284084.0 431515.0 0
287771.0 432682.0 0
291613.0 433554.0 0
295398.0 432695.0 0
299314.0 433199.0 0
303151.0 433585.0 0
309192.0 431258.0 0
313322.0 431589.0 0
317436.0 431256.0 0
321206.0 432430.0 0
327885.0 431926.0 0
334387.0 431913.0 0
337658.0 433906.0 0
340857.0 431964.0 0
347193.0 431685.0 0
350441.0 433356.0 0
353643.0 431815.0 0
359926.0 432497.0 0
363260.0 431199.0 0
369599.0 432061.0 0
375949.0 432402.0 0
379152.0 434319.0 0
382507.0 432607.0 0
389108.0 433015.0 0
104253.0 437165.0 0
107583.0 435083.0 0
110898.0 436662.0 0
114207.0 434615.0 0
117554.0 436260.0 0
124243.0 436138.0 0
127372.0 434230.0 0
133655.0 433566.0 0
136930.0 434862.0 0
140254.0 435908.0 0
143440.0 434302.0 0
146810.0 435396.0 0
152278.0 435372.0 0
155786.0 433842.0 0
159077.0 435726.0 0
165503.0 435778.0 0
168725.0 433861.0 0
171782.0 435696.0 0
175232.0 433995.0 0
181592.0 435118.0 0
185295.0 435065.0 0
189126.0 434660.0 0
193057.0 434205.0 0
218729.0 434125.0 0
225873.0 434374.0 0
229561.0 435461.0 0
233148.0 433868.0 0
236657.0 435277.0 0
239985.0 433230.0 0
243269.0 435210.0 0
250000.0 435165.0 0
256731.0 435210.0 0
260015.0 433230.0 0
263343.0 435277.0 0
266852.0 433868.0 0
270439.0 435461.0 0
274127.0 434374.0 0
281271.0 434125.0 0
306943.0 434205.0 0
310874.0 434660.0 0
314705.0 435065.0 0
318408.0 435118.0 0
324768.0 433995.0 0
328218.0 435696.0 0
331275.0 433861.0 0
334497.0 435778.0 0
340923.0 435726.0 0
344214.0 433842.0 0
347722.0 435372.0 0
353190.0 435396.0 0
356560.0 434302.0 0
359746.0 435908.0 0
363070.0 434862.0 0
366345.0 433566.0 0
372628.0 434230.0 0
375757.0 436138.0 0
382446.0 436260.0 0
385793.0 434615.0 0
389102.0 436662.0 0
392417.0 435083.0 0
395747.0 437165.0 0
100903.0 439258.0 0
107572.0 438734.0 0
114242.0 438269.0 0
117623.0 439915.0 0
120938.0 437975.0 0
124362.0 439783.0 0
127649.0 438108.0 0
130699.0 435924.0 0
134083.0 437417.0 0
137557.0 438566.0 0
141393.0 438908.0 0
145003.0 438345.0 0
148990.0 438168.0 0
152611.0 438665.0 0
155989.0 437568.0 0
162024.0 437873.0 0
168817.0 437943.0 0
174517.0 437840.0 0
178067.0 436374.0 0
187493.0 438217.0 0
191401.0 437754.0 0
195334.0 437293.0 0
199165.0 436806.0 0
203063.0 436305.0 0
206881.0 436974.0 0
211088.0 436395.0 0
214956.0 435441.0 0
222191.0 435845.0 0
232662.0 437838.0 0
239863.0 437395.0 0
246635.0 437171.0 0
253365.0 437171.0 0
260137.0 437395.0 0
267338.0 437838.0 0
277809.0 435845.0 0
285044.0 435441.0 0
288912.0 436395.0 0
293119.0 436974.0 0
296937.0 436305.0 0
300835.0 436806.0 0
304666.0 437293.0 0
308599.0 437754.0 0
312507.0 438217.0 0
321933.0 436374.0 0
325483.0 437840.0 0
331183.0 437943.0 0
337976.0 437873.0 0
344011.0 437568.0 0
347389.0 438665.0 0
351010.0 438168.0 0
354997.0 438345.0 0
358607.0 438908.0 0
362443.0 438566.0 0
365917.0 437417.0 0
369301.0 435924.0 0
372351.0 438108.0 0
375638.0 439783.0 0
379062.0 437975.0 0
382377.0 439915.0 0
385758.0 438269.0 0
392428.0 438734.0 0
399097.0 439258.0 0
97538.3 441362.0 0
104226.0 440821.0 0
107569.0 442405.0 0
110915.0 440325.0 0
114287.0 441932.0 0
121053.0 441622.0 0
124562.0 443381.0 0
131169.0 439804.0 0
134794.0 441265.0 0
150797.0 441572.0 0
155014.0 441257.0 0
158778.0 440068.0 0
165351.0 439397.0 0
176208.0 440905.0 0
179869.0 439686.0 0
183575.0 438573.0 0
189764.0 441350.0 0
193678.0 440851.0 0
197641.0 440503.0 0
201558.0 439919.0 0
205524.0 440552.0 0
209436.0 439908.0 0
213473.0 439526.0 0
217917.0 437977.0 0
221467.0 439749.0 0
225236.0 438280.0 0
229003.0 439384.0 0
236325.0 439189.0 0
243257.0 439164.0 0
250000.0 439142.0 0
256743.0 439164.0 0
263675.0 439189.0 0
270997.0 439384.0 0
274764.0 438280.0 0
278533.0 439749.0 0
282083.0 437977.0 0
286527.0 439526.0 0
290564.0 439908.0 0
294476.0 440552.0 0
298442.0 439919.0 0
302359.0 440503.0 0
306322.0 440851.0 0
310236.0 441350.0 0
316425.0 438573.0 0
320131.0 439686.0 0
323792.0 440905.0 0
334649.0 439397.0 0
341222.0 440068.0 0
344986.0 441257.0 0
349203.0 441572.0 0
365206.0 441265.0 0
368831.0 439804.0 0
375438.0 443381.0 0
378947.0 441622.0 0
385713.0 441932.0 0
389085.0 440325.0 0
392431.0 442405.0 0
395774.0 440821.0 0
402462.0 441362.0 0
93627.4 443824.0 0
100859.0 442919.0 0
104202.0 444501.0 0
110940.0 444003.0 0
117695.0 443562.0 0
121136.0 445232.0 0
128113.0 442001.0 0
131715.0 443684.0 0
139174.0 441802.0 0
143288.0 441762.0 0
147057.0 441474.0 0
156831.0 444255.0 0
160620.0 443261.0 0
164374.0 442773.0 0
168253.0 441836.0 0
172134.0 441022.0 0
178401.0 443842.0 0
182128.0 442742.0 0
185872.0 441790.0 0
203087.0 443500.0 0
210499.0 443584.0 0
217726.0 441844.0 0
224709.0 442164.0 0
228480.0 443309.0 0
232148.0 441789.0 0
235879.0 443091.0 0
239519.0 441481.0 0
243114.0 443069.0 0
246596.0 441166.0 0
250000.0 443075.0 0
253404.0 441166.0 0
256886.0 443069.0 0
260481.0 441481.0 0
264121.0 443091.0 0
267852.0 441789.0 0
271520.0 443309.0 0
275291.0 442164.0 0
282274.0 441844.0 0
289501.0 443584.0 0
296913.0 443500.0 0
314128.0 441790.0 0
317872.0 442742.0 0
321599.0 443842.0 0
327866.0 441022.0 0
331747.0 441836.0 0
335626.0 442773.0 0
339380.0 443261.0 0
343169.0 444255.0 0
352943.0 441474.0 0
356712.0 441762.0 0
360826.0 441802.0 0
368285.0 443684.0 0
371887.0 442001.0 0
378864.0 445232.0 0
382305.0 443562.0 0
389060.0 444003.0 0
395798.0 444501.0 0
399141.0 442919.0 0
406373.0 443824.0 0
90263.2 445931.0 0
93697.4 447709.0 0
97231.9 445016.0 0
100724.0 446596.0 0
107586.0 446098.0 0
110996.0 447707.0 0
114337.0 445604.0 0
117751.0 447210.0 0
124565.0 446988.0 0
128164.0 445849.0 0
136815.0 444546.0 0
141227.0 444811.0 0
145165.0 444830.0 0
148994.0 444754.0 0
152937.0 444535.0 0
163044.0 446255.0 0
166898.0 445557.0 0
170682.0 444778.0 0
174460.0 444277.0 0
184320.0 445894.0 0
188079.0 445046.0 0
191902.0 444564.0 0
195700.0 444090.0 0
199398.0 444091.0 0
206778.0 444334.0 0
214228.0 443409.0 0
221105.0 443699.0 0
231631.0 445741.0 0
239077.0 445456.0 0
246399.0 445268.0 0
253601.0 445268.0 0
260923.0 445456.0 0
268369.0 445741.0 0
278895.0 443699.0 0
285772.0 443409.0 0
293222.0 444334.0 0
300602.0 444091.0 0
304300.0 444090.0 0
308098.0 444564.0 0
311921.0 445046.0 0
315680.0 445894.0 0
325540.0 444277.0 0
329318.0 444778.0 0
333102.0 445557.0 0
336956.0 446255.0 0
347063.0 444535.0 0
351006.0 444754.0 0
354835.0 444830.0 0
358773.0 444811.0 0
363185.0 444546.0 0
371836.0 445849.0 0
375435.0 446988.0 0
382249.0 447210.0 0
385663.0 445604.0 0
389004.0 447707.0 0
392414.0 446098.0 0
399276.0 446596.0 0
402768.0 445016.0 0
406303.0 447709.0 0
409737.0 445931.0 0
83522.4 450152.0 0
86901.6 448035.0 0
90377.3 449860.0 0
97389.5 448735.0 0
104208.0 448193.0 0
107666.0 449815.0 0
114413.0 449297.0 0
121167.0 448863.0 0
124587.0 450568.0 0
131520.0 447542.0 0
135247.0 447775.0 0
139111.0 447807.0 0
143113.0 448005.0 0
147063.0 448019.0 0
150996.0 447885.0 0
154903.0 447674.0 0
159269.0 446836.0 0
169166.0 448613.0 0
172938.0 447936.0 0
176750.0 447413.0 0
180596.0 446875.0 0
190420.0 448246.0 0
194251.0 447697.0 0
198074.0 447863.0 0
201871.0 447181.0 0
205616.0 448075.0 0
209424.0 447298.0 0
213311.0 447306.0 0
217038.0 446054.0 0
220563.0 447572.0 0
224216.0 446111.0 0
227957.0 447221.0 0
235393.0 446986.0 0
242766.0 446960.0 0
250000.0 446931.0 0
257234.0 446960.0 0
264607.0 446986.0 0
272043.0 447221.0 0
275784.0 446111.0 0
279437.0 447572.0 0
282962.0 446054.0 0
286689.0 447306.0 0
290576.0 447298.0 0
294384.0 448075.0 0
298129.0 447181.0 0
301926.0 447863.0 0
305749.0 447697.0 0
309580.0 448246.0 0
319404.0 446875.0 0
323250.0 447413.0 0
327062.0 447936.0 0
330834.0 448613.0 0
340731.0 446836.0 0
345097.0 447674.0 0
349004.0 447885.0 0
352937.0 448019.0 0
356887.0 448005.0 0
360889.0 447807.0 0
364753.0 447775.0 0
368480.0 447542.0 0
375413.0 450568.0 0
378833.0 448863.0 0
385587.0 449297.0 0
392334.0 449815.0 0
395792.0 448193.0 0
402610.0 448735.0 0
409623.0 449860.0 0
413098.0 448035.0 0
416478.0 450152.0 0
87045.5 451969.0 0
93849.0 451652.0 0
97629.3 452489.0 0
100897.0 450344.0 0
104362.0 451954.0 0
111107.0 451460.0 0
114520.0 453022.0 0
117849.0 450895.0 0
121339.0 452526.0 0
128451.0 449889.0 0
133295.0 450973.0 0
137199.0 451091.0 0
141103.0 451166.0 0
145068.0 451249.0 0
149025.0 451217.0 0
152951.0 451091.0 0
157614.0 450155.0 0
161514.0 449770.0 0
165362.0 449199.0 0
175225.0 451087.0 0
179058.0 450521.0 0
182890.0 449888.0 0
186641.0 448986.0 0
192914.0 451336.0 0
200621.0 450900.0 0
208277.0 451005.0 0
216005.0 450200.0 0
223520.0 450106.0 0
227297.0 451111.0 0
231016.0 449706.0 0
234781.0 450867.0 0
238544.0 449421.0 0
242663.0 450878.0 0
246308.0 449253.0 0
250000.0 450781.0 0
253692.0 449253.0 0
257337.0 450878.0 0
261456.0 449421.0 0
265219.0 450867.0 0
268984.0 449706.0 0
272703.0 451111.0 0
276480.0 450106.0 0
283995.0 450200.0 0
291723.0 451005.0 0
299379.0 450900.0 0
307086.0 451336.0 0
313359.0 448986.0 0
317110.0 449888.0 0
320942.0 450521.0 0
324775.0 451087.0 0
334638.0 449199.0 0
338486.0 449770.0 0
342386.0 450155.0 0
347049.0 451091.0 0
350975.0 451217.0 0
354932.0 451249.0 0
358897.0 451166.0 0
362801.0 451091.0 0
366705.0 450973.0 0
371549.0 449889.0 0
378661.0 452526.0 0
382151.0 450895.0 0
385480.0 453022.0 0
388893.0 451460.0 0
395638.0 451954.0 0
399103.0 450344.0 0
402371.0 452489.0 0
406151.0 451652.0 0
412955.0 451969.0 0
90820.1 454200.0 0
101091.0 454183.0 0
107852.0 453579.0 0
111319.0 455312.0 0
117938.0 454599.0 0
126700.0 453420.0 0
130461.0 453350.0 0
150973.0 454483.0 0
155873.0 453428.0 0
159810.0 453181.0 0
163726.0 452770.0 0
167587.0 452268.0 0
171416.0 451718.0 0
181441.0 453582.0 0
185292.0 452871.0 0
189090.0 452016.0 0
196786.0 451650.0 0
204420.0 451781.0 0
212185.0 451182.0 0
219745.0 451384.0 0
230307.0 453638.0 0
237844.0 453353.0 0
245936.0 453225.0 0
254064.0 453225.0 0
262156.0 453353.0 0
269693.0 453638.0 0
280255.0 451384.0 0
287815.0 451182.0 0
295580.0 451781.0 0
303214.0 451650.0 0
310910.0 452016.0 0
314708.0 452871.0 0
318559.0 453582.0 0
328584.0 451718.0 0
332413.0 452268.0 0
336274.0 452770.0 0
340190.0 453181.0 0
344127.0 453428.0 0
349027.0 454483.0 0
369539.0 453350.0 0
373300.0 453420.0 0
382062.0 454599.0 0
388681.0 455312.0 0
392148.0 453579.0 0
398909.0 454183.0 0
409180.0 454200.0 0
85650.7 455657.0 0
96488.5 456104.0 0
104607.0 455742.0 0
108100.0 457381.0 0
114803.0 456801.0 0
118418.0 458447.0 0
121273.0 456083.0 0
128507.0 456741.0 0
132312.0 456774.0 0
135202.0 454342.0 0
139128.0 454441.0 0
143072.0 454497.0 0
147031.0 454526.0 0
154055.0 456700.0 0
158015.0 456545.0 0
161979.0 456248.0 0
165919.0 455852.0 0
169824.0 455378.0 0
173711.0 454812.0 0
177574.0 454206.0 0
183909.0 456601.0 0
187787.0 455827.0 0
191613.0 455023.0 0
195525.0 455448.0 0
199386.0 454653.0 0
203252.0 455491.0 0
207102.0 454697.0 0
211070.0 455138.0 0
214923.0 454055.0 0
218755.0 455176.0 0
222693.0 453988.0 0
226538.0 454997.0 0
234107.0 454762.0 0
241588.0 454656.0 0
250000.0 454646.0 0
258412.0 454656.0 0
265893.0 454762.0 0
273462.0 454997.0 0
277307.0 453988.0 0
281245.0 455176.0 0
285077.0 454055.0 0
288930.0 455138.0 0
292898.0 454697.0 0
296748.0 455491.0 0
300614.0 454653.0 0
304475.0 455448.0 0
308387.0 455023.0 0
312213.0 455827.0 0
316091.0 456601.0 0
322426.0 454206.0 0
326289.0 454812.0 0
330176.0 455378.0 0
334081.0 455852.0 0
338021.0 456248.0 0
341985.0 456545.0 0
345945.0 456700.0 0
352969.0 454526.0 0
356928.0 454497.0 0
360872.0 454441.0 0
364798.0 454342.0 0
367688.0 456774.0 0
371493.0 456741.0 0
378727.0 456083.0 0
381582.0 458447.0 0
385197.0 456801.0 0
391900.0 457381.0 0
395393.0 455742.0 0
403512.0 456104.0 0
414349.0 455657.0 0
89004.7 457771.0 0
92930.6 457589.0 0
96651.4 460044.0 0
99946.9 457876.0 0
103505.0 459366.0 0
111538.0 459293.0 0
115314.0 460433.0 0
124756.0 456655.0 0
137118.0 457728.0 0
141078.0 457789.0 0
145038.0 457840.0 0
148985.0 457854.0 0
164137.0 459359.0 0
168117.0 458977.0 0
172129.0 458469.0 0
176075.0 457899.0 0
179997.0 457280.0 0
193073.0 458640.0 0
200678.0 458400.0 0
208329.0 458365.0 0
215899.0 457910.0 0
223467.0 457849.0 0
227274.0 458886.0 0
231009.0 457543.0 0
234823.0 458642.0 0
238571.0 457264.0 0
242477.0 458494.0 0
246243.0 457198.0 0
250000.0 458530.0 0
253757.0 457198.0 0
257523.0 458494.0 0
261429.0 457264.0 0
265177.0 458642.0 0
268991.0 457543.0 0
272726.0 458886.0 0
276533.0 457849.0 0
284101.0 457910.0 0
291671.0 458365.0 0
299322.0 458400.0 0
306927.0 458640.0 0
320003.0 457280.0 0
323925.0 457899.0 0
327871.0 458469.0 0
331883.0 458977.0 0
335863.0 459359.0 0
351015.0 457854.0 0
354962.0 457840.0 0
358922.0 457789.0 0
362882.0 457728.0 0
375244.0 456655.0 0
384686.0 460433.0 0
388462.0 459293.0 0
396495.0 459366.0 0
400053.0 457876.0 0
403349.0 460044.0 0
407069.0 457589.0 0
410995.0 457771.0 0
91168.9 461134.0 0
100228.0 461806.0 0
103945.0 463173.0 0
107068.0 460966.0 0
122143.0 459701.0 0
126168.0 460101.0 0
130151.0 460090.0 0
134098.0 460117.0 0
139070.0 461098.0 0
143033.0 461158.0 0
146999.0 461225.0 0
152181.0 459998.0 0
156159.0 459895.0 0
160151.0 459671.0 0
173974.0 461870.0 0
177804.0 461402.0 0
181626.0 460846.0 0
185442.0 460201.0 0
189251.0 459445.0 0
196899.0 459196.0 0
204503.0 459251.0 0
212146.0 459012.0 0
219685.0 459018.0 0
230274.0 461468.0 0
237857.0 461182.0 0
245910.0 461174.0 0
254090.0 461174.0 0
262143.0 461182.0 0
269726.0 461468.0 0
280315.0 459018.0 0
287854.0 459012.0 0
295497.0 459251.0 0
303101.0 459196.0 0
310749.0 459445.0 0
314558.0 460201.0 0
318374.0 460846.0 0
322196.0 461402.0 0
326026.0 461870.0 0
339849.0 459671.0 0
343841.0 459895.0 0
347819.0 459998.0 0
353001.0 461225.0 0
356967.0 461158.0 0
360930.0 461098.0 0
365902.0 460117.0 0
369849.0 460090.0 0
373832.0 460101.0 0
377857.0 459701.0 0
392932.0 460966.0 0
396055.0 463173.0 0
399772.0 461806.0 0
408831.0 461134.0 0
94480.9 463340.0 0
110133.0 463152.0 0
113856.0 463638.0 0
118771.0 462347.0 0
123633.0 463117.0 0
128026.0 463380.0 0
132002.0 463397.0 0
135978.0 463431.0 0
140999.0 464487.0 0
144953.0 464569.0 0
150285.0 463340.0 0
154275.0 463253.0 0
158283.0 463079.0 0
162267.0 462831.0 0
166220.0 462535.0 0
170121.0 462236.0 0
180153.0 464551.0 0
184067.0 463942.0 0
187961.0 463221.0 0
191827.0 462400.0 0
195729.0 462974.0 0
199564.0 462171.0 0
203419.0 463058.0 0
207237.0 462125.0 0
211132.0 462875.0 0
214961.0 461784.0 0
218778.0 462869.0 0
222586.0 461719.0 0
226423.0 462759.0 0
234103.0 462547.0 0
241655.0 462356.0 0
250000.0 462422.0 0
258345.0 462356.0 0
265897.0 462547.0 0
273577.0 462759.0 0
277414.0 461719.0 0
281222.0 462869.0 0
285039.0 461784.0 0
288868.0 462875.0 0
292763.0 462125.0 0
296581.0 463058.0 0
300436.0 462171.0 0
304271.0 462974.0 0
308173.0 462400.0 0
312039.0 463221.0 0
315933.0 463942.0 0
319847.0 464551.0 0
329879.0 462236.0 0
333780.0 462535.0 0
337733.0 462831.0 0
341717.0 463079.0 0
345725.0 463253.0 0
349715.0 463340.0 0
355047.0 464569.0 0
359001.0 464487.0 0
364022.0 463431.0 0
367998.0 463397.0 0
371974.0 463380.0 0
376367.0 463117.0 0
381229.0 462347.0 0
386144.0 463638.0 0
389867.0 463152.0 0
405519.0 463340.0 0
97231.0 466195.0 0
101128.0 465689.0 0
107018.0 465522.0 0
111836.0 466728.0 0
116854.0 465868.0 0
120752.0 465752.0 0
125518.0 466379.0 0
129885.0 466681.0 0
133872.0 466714.0 0
137860.0 466788.0 0
148262.0 466651.0 0
152409.0 466634.0 0
156422.0 466487.0 0
160415.0 466288.0 0
164388.0 466041.0 0
168336.0 465767.0 0
172279.0 465462.0 0
176223.0 465062.0 0
189567.0 466826.0 0
193294.0 466050.0 0
200759.0 465950.0 0
208345.0 465884.0 0
212154.0 466730.0 0
215921.0 465631.0 0
219708.0 466725.0 0
223492.0 465573.0 0
227299.0 466626.0 0
231069.0 465367.0 0
234898.0 466438.0 0
238625.0 465078.0 0
242421.0 466234.0 0
246224.0 465145.0 0
250000.0 466331.0 0
253776.0 465145.0 0
257579.0 466234.0 0
261375.0 465078.0 0
265102.0 466438.0 0
268931.0 465367.0 0
272701.0 466626.0 0
276508.0 465573.0 0
280292.0 466725.0 0
284079.0 465631.0 0
287846.0 466730.0 0
291655.0 465884.0 0
299241.0 465950.0 0
306706.0 466050.0 0
310433.0 466826.0 0
323777.0 465062.0 0
327721.0 465462.0 0
331664.0 465767.0 0
335612.0 466041.0 0
339585.0 466288.0 0
343578.0 466487.0 0
347591.0 466634.0 0
351738.0 466651.0 0
362140.0 466788.0 0
366128.0 466714.0 0
370115.0 466681.0 0
374482.0 466379.0 0
379248.0 465752.0 0
383146.0 465868.0 0
388164.0 466728.0 0
392982.0 465522.0 0
398872.0 465689.0 0
402769.0 466195.0 0
99754.8 469311.0 0
104171.0 468307.0 0
108859.0 468948.0 0
114767.0 469256.0 0
118752.0 469198.0 0
122716.0 469131.0 0
127374.0 469683.0 0
142899.0 467921.0 0
158574.0 469739.0 0
162558.0 469529.0 0
166522.0 469286.0 0
170465.0 469015.0 0
174372.0 468734.0 0
178235.0 468416.0 0
182047.0 468008.0 0
185822.0 467483.0 0
197022.0 466932.0 0
204553.0 466887.0 0
295447.0 466887.0 0
302978.0 466932.0 0
314178.0 467483.0 0
317953.0 468008.0 0
321765.0 468416.0 0
325628.0 468734.0 0
329535.0 469015.0 0
333478.0 469286.0 0
337442.0 469529.0 0
341426.0 469739.0 0
357101.0 467921.0 0
372626.0 469683.0 0
377284.0 469131.0 0
381248.0 469198.0 0
385233.0 469256.0 0
391141.0 468948.0 0
395829.0 468307.0 0
400245.0 469311.0 0
97065.6 472188.0 0
102635.0 472002.0 0
106540.0 471865.0 0
111661.0 471772.0 0
120708.0 472553.0 0
124677.0 472542.0 0
131736.0 469999.0 0
135723.0 470060.0 0
139719.0 470212.0 0
146230.0 470007.0 0
150404.0 469942.0 0
154580.0 469909.0 0
172636.0 472293.0 0
176577.0 472007.0 0
180508.0 471671.0 0
184412.0 471207.0 0
188292.0 470604.0 0
192138.0 469845.0 0
195946.0 470753.0 0
199752.0 469797.0 0
203554.0 470730.0 0
207348.0 469725.0 0
211189.0 470587.0 0
214990.0 469507.0 0
218786.0 470580.0 0
222588.0 469459.0 0
226405.0 470503.0 0
230200.0 469323.0 0
234030.0 470305.0 0
237860.0 469241.0 0
241744.0 470119.0 0
245994.0 469324.0 0
250000.0 470231.0 0
254006.0 469324.0 0
258256.0 470119.0 0
262140.0 469241.0 0
265970.0 470305.0 0
269800.0 469323.0 0
273595.0 470503.0 0
277412.0 469459.0 0
281214.0 470580.0 0
285010.0 469507.0 0
288811.0 470587.0 0
292652.0 469725.0 0
296446.0 470730.0 0
300248.0 469797.0 0
304054.0 470753.0 0
307862.0 469845.0 0
311708.0 470604.0 0
315588.0 471207.0 0
319492.0 471671.0 0
323423.0 472007.0 0
327364.0 472293.0 0
345420.0 469909.0 0
349596.0 469942.0 0
353770.0 470007.0 0
360281.0 470212.0 0
364277.0 470060.0 0
368264.0 469999.0 0
375323.0 472542.0 0
379292.0 472553.0 0
388339.0 471772.0 0
393460.0 471865.0 0
397365.0 472002.0 0
402934.0 472188.0 0
116722.0 472604.0 0
129226.0 473016.0 0
133558.0 473349.0 0
137528.0 473437.0 0
143039.0 472354.0 0
148433.0 473270.0 0
152579.0 473247.0 0
156753.0 473195.0 0
160740.0 473014.0 0
164718.0 472797.0 0
168686.0 472554.0 0
187182.0 474428.0 0
191132.0 473704.0 0
195031.0 474591.0 0
198974.0 473715.0 0
202869.0 474613.0 0
206906.0 473696.0 0
210815.0 474526.0 0
214851.0 473502.0 0
218718.0 474528.0 0
222689.0 473453.0 0
226668.0 474464.0 0
230493.0 473307.0 0
234386.0 474245.0 0
238256.0 473265.0 0
242175.0 474044.0 0
246097.0 473321.0 0
250000.0 474145.0 0
253903.0 473321.0 0
257825.0 474044.0 0
261744.0 473265.0 0
265614.0 474245.0 0
269507.0 473307.0 0
273332.0 474464.0 0
277311.0 473453.0 0
281282.0 474528.0 0
285149.0 473502.0 0
289185.0 474526.0 0
293094.0 473696.0 0
297131.0 474613.0 0
301026.0 473715.0 0
304969.0 474591.0 0
308868.0 473704.0 0
312818.0 474428.0 0
331314.0 472554.0 0
335282.0 472797.0 0
339260.0 473014.0 0
343247.0 473195.0 0
347421.0 473247.0 0
351567.0 473270.0 0
356961.0 472354.0 0
362472.0 473437.0 0
366442.0 473349.0 0
370774.0 473016.0 0
383278.0 472604.0 0
99970.5 474924.0 0
104945.0 475340.0 0
109148.0 474880.0 0
113712.0 475183.0 0
118683.0 475965.0 0
122661.0 475956.0 0
126637.0 475982.0 0
131068.0 476388.0 0
135376.0 476739.0 0
139343.0 476797.0 0
143222.0 476310.0 0
147085.0 476875.0 0
151004.0 476798.0 0
154953.0 476662.0 0
158929.0 476506.0 0
162913.0 476305.0 0
166898.0 476080.0 0
170879.0 475839.0 0
174856.0 475569.0 0
178833.0 475262.0 0
183215.0 475002.0 0
316785.0 475002.0 0
321167.0 475262.0 0
325144.0 475569.0 0
329121.0 475839.0 0
333102.0 476080.0 0
337087.0 476305.0 0
341071.0 476506.0 0
345047.0 476662.0 0
348996.0 476798.0 0
352915.0 476875.0 0
356778.0 476310.0 0
360657.0 476797.0 0
364624.0 476739.0 0
368932.0 476388.0 0
373363.0 475982.0 0
377339.0 475956.0 0
381317.0 475965.0 0
386288.0 475183.0 0
390852.0 474880.0 0
395055.0 475340.0 0
400029.0 474924.0 0
99577.0 478875.0 0
103701.0 478997.0 0
107999.0 478707.0 0
111994.0 478760.0 0
115984.0 478867.0 0
120626.0 479373.0 0
124606.0 479393.0 0
128586.0 479446.0 0
132915.0 479800.0 0
137246.0 480145.0 0
141218.0 480196.0 0
145141.0 480234.0 0
157101.0 480011.0 0
161096.0 479821.0 0
165094.0 479604.0 0
169090.0 479375.0 0
173096.0 479129.0 0
177091.0 478840.0 0
181196.0 478445.0 0
185700.0 478134.0 0
189787.0 477463.0 0
193701.0 478320.0 0
197658.0 477595.0 0
201579.0 478355.0 0
205535.0 477574.0 0
209464.0 478266.0 0
213409.0 477546.0 0
217334.0 478251.0 0
221358.0 477506.0 0
225286.0 478193.0 0
229501.0 477401.0 0
233433.0 478093.0 0
237799.0 477394.0 0
241752.0 477977.0 0
245996.0 477395.0 0
250000.0 478068.0 0
254004.0 477395.0 0
258248.0 477977.0 0
262201.0 477394.0 0
266567.0 478093.0 0
270499.0 477401.0 0
274714.0 478193.0 0
278642.0 477506.0 0
282666.0 478251.0 0
286591.0 477546.0 0
290536.0 478266.0 0
294465.0 477574.0 0
298421.0 478355.0 0
302342.0 477595.0 0
306299.0 478320.0 0
310213.0 477463.0 0
314300.0 478134.0 0
318804.0 478445.0 0
322909.0 478840.0 0
326904.0 479129.0 0
330910.0 479375.0 0
334906.0 479604.0 0
338904.0 479821.0 0
342899.0 480011.0 0
354859.0 480234.0 0
358782.0 480196.0 0
362754.0 480145.0 0
367085.0 479800.0 0
371414.0 479446.0 0
375394.0 479393.0 0
379374.0 479373.0 0
384016.0 478867.0 0
388006.0 478760.0 0
392001.0 478707.0 0
396299.0 478997.0 0
400423.0 478875.0 0
101604.0 482307.0 0
106042.0 482202.0 0
110019.0 482211.0 0
114002.0 482317.0 0
117991.0 482346.0 0
122573.0 482818.0 0
126553.0 482853.0 0
130527.0 482931.0 0
134796.0 483235.0 0
149132.0 480255.0 0
153118.0 480150.0 0
175336.0 482420.0 0
179320.0 482131.0 0
183292.0 481820.0 0
187251.0 482144.0 0
191152.0 481371.0 0
195085.0 482060.0 0
199018.0 481404.0 0
202959.0 482089.0 0
206879.0 481336.0 0
210814.0 482014.0 0
214737.0 481312.0 0
218662.0 482002.0 0
222578.0 481305.0 0
226496.0 481986.0 0
230405.0 481296.0 0
234321.0 481962.0 0
238238.0 481365.0 0
242164.0 481917.0 0
246088.0 481389.0 0
250000.0 482003.0 0
253912.0 481389.0 0
257836.0 481917.0 0
261762.0 481365.0 0
265679.0 481962.0 0
269595.0 481296.0 0
273504.0 481986.0 0
277422.0 481305.0 0
281338.0 482002.0 0
285263.0 481312.0 0
289186.0 482014.0 0
293121.0 481336.0 0
297041.0 482089.0 0
300982.0 481404.0 0
304915.0 482060.0 0
308848.0 481371.0 0
312749.0 482144.0 0
316708.0 481820.0 0
320680.0 482131.0 0
324664.0 482420.0 0
346882.0 480150.0 0
350868.0 480255.0 0
365204.0 483235.0 0
369473.0 482931.0 0
373447.0 482853.0 0
377427.0 482818.0 0
382009.0 482346.0 0
385998.0 482317.0 0
389981.0 482211.0 0
393958.0 482202.0 0
398396.0 482307.0 0
139155.0 483577.0 0
143139.0 483644.0 0
147128.0 483643.0 0
151227.0 483616.0 0
155220.0 483515.0 0
159261.0 483342.0 0
163279.0 483136.0 0
167280.0 482912.0 0
171294.0 482674.0 0
328706.0 482674.0 0
332720.0 482912.0 0
336721.0 483136.0 0
340739.0 483342.0 0
344780.0 483515.0 0
348773.0 483616.0 0
352872.0 483643.0 0
356861.0 483644.0 0
360845.0 483577.0 0
100625.0 486131.0 0
104699.0 485961.0 0
108691.0 485975.0 0
112672.0 486083.0 0
116646.0 486104.0 0
120608.0 486275.0 0
124578.0 486306.0 0
128550.0 486378.0 0
132528.0 486477.0 0
136704.0 486688.0 0
141081.0 487032.0 0
145146.0 487055.0 0
149194.0 487011.0 0
153289.0 487005.0 0
157377.0 486852.0 0
161437.0 486669.0 0
165464.0 486459.0 0
169478.0 486223.0 0
173520.0 485970.0 0
177750.0 485801.0 0
181756.0 485505.0 0
185757.0 485852.0 0
189785.0 485491.0 0
193769.0 485827.0 0
197755.0 485503.0 0
201734.0 485883.0 0
205772.0 485510.0 0
209755.0 485857.0 0
213773.0 485520.0 0
217754.0 485876.0 0
221778.0 485525.0 0
225758.0 485893.0 0
229845.0 485527.0 0
233825.0 485894.0 0
237935.0 485529.0 0
241918.0 485866.0 0
246000.0 485531.0 0
250000.0 485936.0 0
254000.0 485531.0 0
258082.0 485866.0 0
262065.0 485529.0 0
266175.0 485894.0 0
270155.0 485527.0 0
274242.0 485893.0 0
278222.0 485525.0 0
282246.0 485876.0 0
286227.0 485520.0 0
290245.0 485857.0 0
294228.0 485510.0 0
298266.0 485883.0 0
302245.0 485503.0 0
306231.0 485827.0 0
310215.0 485491.0 0
314243.0 485852.0 0
318244.0 485505.0 0
322250.0 485801.0 0
326480.0 485970.0 0
330522.0 486223.0 0
334536.0 486459.0 0
338563.0 486669.0 0
342623.0 486852.0 0
346711.0 487005.0 0
350806.0 487011.0 0
354854.0 487055.0 0
358919.0 487032.0 0
363296.0 486688.0 0
367472.0 486477.0 0
371450.0 486378.0 0
375422.0 486306.0 0
379392.0 486275.0 0
383354.0 486104.0 0
387328.0 486083.0 0
391309.0 485975.0 0
395301.0 485961.0 0
399375.0 486131.0 0
102146.0 489800.0 0
106138.0 489709.0 0
110131.0 489707.0 0
114254.0 489761.0 0
118281.0 489761.0 0
122368.0 489858.0 0
126367.0 489878.0 0
130424.0 489905.0 0
134456.0 489961.0 0
138631.0 490154.0 0
143118.0 490446.0 0
147215.0 490448.0 0
166992.0 490138.0 0
170916.0 489935.0 0
174838.0 489728.0 0
178766.0 489714.0 0
182690.0 489389.0 0
186614.0 489774.0 0
190547.0 489416.0 0
194488.0 489759.0 0
198435.0 489443.0 0
202383.0 489820.0 0
206336.0 489469.0 0
210295.0 489808.0 0
214257.0 489490.0 0
218222.0 489831.0 0
222189.0 489503.0 0
226158.0 489851.0 0
230128.0 489516.0 0
234102.0 489850.0 0
238074.0 489526.0 0
242051.0 489825.0 0
246027.0 489530.0 0
250000.0 489879.0 0
253973.0 489530.0 0
257949.0 489825.0 0
261926.0 489526.0 0
265898.0 489850.0 0
269872.0 489516.0 0
273842.0 489851.0 0
277811.0 489503.0 0
281778.0 489831.0 0
285743.0 489490.0 0
289705.0 489808.0 0
293664.0 489469.0 0
297617.0 489820.0 0
301565.0 489443.0 0
305512.0 489759.0 0
309453.0 489416.0 0
313386.0 489774.0 0
317310.0 489389.0 0
321234.0 489714.0 0
325162.0 489728.0 0
329084.0 489935.0 0
333008.0 490138.0 0
352785.0 490448.0 0
356882.0 490446.0 0
361369.0 490154.0 0
365544.0 489961.0 0
369576.0 489905.0 0
373633.0 489878.0 0
377632.0 489858.0 0
381719.0 489761.0 0
385746.0 489761.0 0
389869.0 489707.0 0
393862.0 489709.0 0
397854.0 489800.0 0
151207.0 490425.0 0
155175.0 490502.0 0
159126.0 490423.0 0
163063.0 490302.0 0
336937.0 490302.0 0
340874.0 490423.0 0
344825.0 490502.0 0
348793.0 490425.0 0
101766.0 493762.0 0
105763.0 493696.0 0
109755.0 493689.0 0
113741.0 493728.0 0
117722.0 493722.0 0
121696.0 493796.0 0
125665.0 493814.0 0
129627.0 493824.0 0
133580.0 493836.0 0
137531.0 493964.0 0
141486.0 494049.0 0
145459.0 494002.0 0
149445.0 493994.0 0
153434.0 494082.0 0
157429.0 494026.0 0
161427.0 493939.0 0
165441.0 493817.0 0
169718.0 493741.0 0
173906.0 493613.0 0
177964.0 493631.0 0
181962.0 493532.0 0
185957.0 493712.0 0
189970.0 493533.0 0
193966.0 493715.0 0
197963.0 493534.0 0
201954.0 493782.0 0
205974.0 493536.0 0
209966.0 493779.0 0
213979.0 493537.0 0
217969.0 493803.0 0
221983.0 493537.0 0
225972.0 493822.0 0
229991.0 493537.0 0
233981.0 493813.0 0
237998.0 493537.0 0
241990.0 493789.0 0
246000.0 493537.0 0
250000.0 493828.0 0
254000.0 493537.0 0
258010.0 493789.0 0
262002.0 493537.0 0
266019.0 493813.0 0
270009.0 493537.0 0
274028.0 493822.0 0
278017.0 493537.0 0
282031.0 493803.0 0
286021.0 493537.0 0
290034.0 493779.0 0
294026.0 493536.0 0
298046.0 493782.0 0
302037.0 493534.0 0
306034.0 493715.0 0
310030.0 493533.0 0
314043.0 493712.0 0
318038.0 493532.0 0
322036.0 493631.0 0
326094.0 493613.0 0
330282.0 493741.0 0
334559.0 493817.0 0
338573.0 493939.0 0
342571.0 494026.0 0
346566.0 494082.0 0
350555.0 493994.0 0
354541.0 494002.0 0
358514.0 494049.0 0
362469.0 493964.0 0
366420.0 493836.0 0
370373.0 493824.0 0
374335.0 493814.0 0
378304.0 493796.0 0
382278.0 493722.0 0
386259.0 493728.0 0
390245.0 493689.0 0
394237.0 493696.0 0
398234.0 493762.0 0
102012.0 497739.0 0
106011.0 497688.0 0
110011.0 497680.0 0
114024.0 497716.0 0
118031.0 497708.0 0
122035.0 497775.0 0
126035.0 497793.0 0
130044.0 497799.0 0
134048.0 497792.0 0
146187.0 497909.0 0
162158.0 497860.0 0
166145.0 497748.0 0
170132.0 497711.0 0
174119.0 497603.0 0
178107.0 497626.0 0
182096.0 497529.0 0
186084.0 497702.0 0
190073.0 497531.0 0
194063.0 497706.0 0
198054.0 497533.0 0
202043.0 497766.0 0
206033.0 497535.0 0
210024.0 497764.0 0
214017.0 497537.0 0
218008.0 497784.0 0
222000.0 497537.0 0
226007.0 497798.0 0
230000.0 497537.0 0
234004.0 497781.0 0
238000.0 497537.0 0
242001.0 497757.0 0
246000.0 497537.0 0
250000.0 497784.0 0
254000.0 497537.0 0
257999.0 497757.0 0
262000.0 497537.0 0
265996.0 497781.0 0
270000.0 497537.0 0
273993.0 497798.0 0
278000.0 497537.0 0
281992.0 497784.0 0
285983.0 497537.0 0
289976.0 497764.0 0
293967.0 497535.0 0
297957.0 497766.0 0
301946.0 497533.0 0
305937.0 497706.0 0
309927.0 497531.0 0
313916.0 497702.0 0
317904.0 497529.0 0
321893.0 497626.0 0
325881.0 497603.0 0
329868.0 497711.0 0
333855.0 497748.0 0
337842.0 497860.0 0
353813.0 497909.0 0
365952.0 497792.0 0
369956.0 497799.0 0
373965.0 497793.0 0
377965.0 497775.0 0
381969.0 497708.0 0
385976.0 497716.0 0
389989.0 497680.0 0
393989.0 497688.0 0
397988.0 497739.0 0
138089.0 497901.0 0
142190.0 497951.0 0
150181.0 497909.0 0
154176.0 497993.0 0
158169.0 497939.0 0
341831.0 497939.0 0
345824.0 497993.0 0
349819.0 497909.0 0
357810.0 497951.0 0
361911.0 497901.0 0
101984.0 501726.0 0
105983.0 501687.0 0
109982.0 501678.0 0
113981.0 501712.0 0
117979.0 501704.0 0
121976.0 501767.0 0
125973.0 501788.0 0
129970.0 501793.0 0
133966.0 501779.0 0
137960.0 501882.0 0
141956.0 501913.0 0
145952.0 501880.0 0
149949.0 501886.0 0
153946.0 501965.0 0
157945.0 501912.0 0
161944.0 501839.0 0
165954.0 501735.0 0
169975.0 501699.0 0
173992.0 501598.0 0
177997.0 501622.0 0
181998.0 501537.0 0
185995.0 501693.0 0
190000.0 501537.0 0
193996.0 501696.0 0
198000.0 501537.0 0
201996.0 501751.0 0
206000.0 501537.0 0
209999.0 501749.0 0
214000.0 501537.0 0
217999.0 501765.0 0
222000.0 501537.0 0
225999.0 501774.0 0
230000.0 501537.0 0
234000.0 501751.0 0
238000.0 501537.0 0
242000.0 501729.0 0
246000.0 501537.0 0
250000.0 501747.0 0
254000.0 501537.0 0
258000.0 501729.0 0
262000.0 501537.0 0
266000.0 501751.0 0
270000.0 501537.0 0
274001.0 501774.0 0
278000.0 501537.0 0
282001.0 501765.0 0
286000.0 501537.0 0
290001.0 501749.0 0
294000.0 501537.0 0
298004.0 501751.0 0
302000.0 501537.0 0
306004.0 501696.0 0
310000.0 501537.0 0
314005.0 501693.0 0
318002.0 501537.0 0
322003.0 501622.0 0
326008.0 501598.0 0
330025.0 501699.0 0
334046.0 501735.0 0
338056.0 501839.0 0
342055.0 501912.0 0
346054.0 501965.0 0
350051.0 501886.0 0
354048.0 501880.0 0
358044.0 501913.0 0
362040.0 501882.0 0
366034.0 501779.0 0
370030.0 501793.0 0
374027.0 501788.0 0
378024.0 501767.0 0
382021.0 501704.0 0
386019.0 501712.0 0
390018.0 501678.0 0
394017.0 501687.0 0
398016.0 501726.0 0
102001.0 505715.0 0
106000.0 505685.0 0
110001.0 505675.0 0
114001.0 505707.0 0
118002.0 505699.0 0
170012.0 505689.0 0
174010.0 505595.0 0
178009.0 505620.0 0
182008.0 505537.0 0
186005.0 505685.0 0
190002.0 505537.0 0
194000.0 505688.0 0
198000.0 505537.0 0
206000.0 505537.0 0
214000.0 505537.0 0
222000.0 505537.0 0
230000.0 505537.0 0
234000.0 505724.0 0
238000.0 505537.0 0
242000.0 505703.0 0
246000.0 505537.0 0
250000.0 505715.0 0
254000.0 505537.0 0
258000.0 505703.0 0
262000.0 505537.0 0
266000.0 505724.0 0
270000.0 505537.0 0
278000.0 505537.0 0
286000.0 505537.0 0
294000.0 505537.0 0
302000.0 505537.0 0
306000.0 505688.0 0
309998.0 505537.0 0
313995.0 505685.0 0
317992.0 505537.0 0
321991.0 505620.0 0
325990.0 505595.0 0
329988.0 505689.0 0
381998.0 505699.0 0
385999.0 505707.0 0
389999.0 505675.0 0
394000.0 505685.0 0
397999.0 505715.0 0
122002.0 505758.0 0
126002.0 505781.0 0
130003.0 505785.0 0
134003.0 505770.0 0
138009.0 505869.0 0
142014.0 505886.0 0
146015.0 505858.0 0
150018.0 505868.0 0
154017.0 505940.0 0
158017.0 505889.0 0
162015.0 505822.0 0
166013.0 505724.0 0
202000.0 505736.0 0
210000.0 505734.0 0
218000.0 505748.0 0
226000.0 505752.0 0
274000.0 505752.0 0
282000.0 505748.0 0
290000.0 505734.0 0
298000.0 505736.0 0
333987.0 505724.0 0
337985.0 505822.0 0
341983.0 505889.0 0
345983.0 505940.0 0
349982.0 505868.0 0
353985.0 505858.0 0
357986.0 505886.0 0
361991.0 505869.0 0
365997.0 505770.0 0
369997.0 505785.0 0
373998.0 505781.0 0
377998.0 505758.0 0
102000.0 509706.0 0
106000.0 509683.0 0
110000.0 509672.0 0
114000.0 509701.0 0
117999.0 509692.0 0
121999.0 509749.0 0
125999.0 509773.0 0
129998.0 509777.0 0
133998.0 509761.0 0
137996.0 509858.0 0
141996.0 509863.0 0
145996.0 509839.0 0
149995.0 509850.0 0
153994.0 509914.0 0
157994.0 509864.0 0
161995.0 509804.0 0
165998.0 509712.0 0
169999.0 509680.0 0
174000.0 509591.0 0
178000.0 509617.0 0
182000.0 509537.0 0
186000.0 509677.0 0
190000.0 509537.0 0
194000.0 509680.0 0
198000.0 509537.0 0
202000.0 509722.0 0
206000.0 509537.0 0
210000.0 509720.0 0
214000.0 509537.0 0
218000.0 509730.0 0
222000.0 509537.0 0
226000.0 509731.0 0
230000.0 509537.0 0
234000.0 509700.0 0
238000.0 509537.0 0
242000.0 509681.0 0
246000.0 509537.0 0
250000.0 509688.0 0
254000.0 509537.0 0
258000.0 509681.0 0
262000.0 509537.0 0
266000.0 509700.0 0
270000.0 509537.0 0
274000.0 509731.0 0
278000.0 509537.0 0
282000.0 509730.0 0
286000.0 509537.0 0
290000.0 509720.0 0
294000.0 509537.0 0
298000.0 509722.0 0
302000.0 509537.0 0
306000.0 509680.0 0
310000.0 509537.0 0
314000.0 509677.0 0
318000.0 509537.0 0
322000.0 509617.0 0
326000.0 509591.0 0
330001.0 509680.0 0
334002.0 509712.0 0
338005.0 509804.0 0
342006.0 509864.0 0
346006.0 509914.0 0
350005.0 509850.0 0
354004.0 509839.0 0
358004.0 509863.0 0
362004.0 509858.0 0
366002.0 509761.0 0
370002.0 509777.0 0
374001.0 509773.0 0
378001.0 509749.0 0
382001.0 509692.0 0
386000.0 509701.0 0
390000.0 509672.0 0
394000.0 509683.0 0
398000.0 509706.0 0
102000.0 513699.0 0
106000.0 513680.0 0
110000.0 513668.0 0
114000.0 513695.0 0
118000.0 513684.0 0
122000.0 513740.0 0
126000.0 513765.0 0
130000.0 513769.0 0
134000.0 513752.0 0
138001.0 513848.0 0
142001.0 513842.0 0
146001.0 513822.0 0
150001.0 513833.0 0
154002.0 513888.0 0
158002.0 513839.0 0
162001.0 513785.0 0
166000.0 513699.0 0
170000.0 513670.0 0
174000.0 513587.0 0
178000.0 513615.0 0
182000.0 513537.0 0
186000.0 513669.0 0
190000.0 513537.0 0
194000.0 513671.0 0
198000.0 513537.0 0
202000.0 513709.0 0
206000.0 513537.0 0
210000.0 513706.0 0
214000.0 513537.0 0
218000.0 513714.0 0
222000.0 513537.0 0
226000.0 513711.0 0
230000.0 513537.0 0
234000.0 513678.0 0
238000.0 513537.0 0
242000.0 513661.0 0
246000.0 513537.0 0
250000.0 513665.0 0
254000.0 513537.0 0
258000.0 513661.0 0
262000.0 513537.0 0
266000.0 513678.0 0
270000.0 513537.0 0
274000.0 513711.0 0
278000.0 513537.0 0
282000.0 513714.0 0
286000.0 513537.0 0
290000.0 513706.0 0
294000.0 513537.0 0
298000.0 513709.0 0
302000.0 513537.0 0
306000.0 513671.0 0
310000.0 513537.0 0
314000.0 513669.0 0
318000.0 513537.0 0
322000.0 513615.0 0
326000.0 513587.0 0
330000.0 513670.0 0
334000.0 513699.0 0
337999.0 513785.0 0
341998.0 513839.0 0
345998.0 513888.0 0
349999.0 513833.0 0
353999.0 513822.0 0
357999.0 513842.0 0
361999.0 513848.0 0
366000.0 513752.0 0
370000.0 513769.0 0
374000.0 513765.0 0
378000.0 513740.0 0
382000.0 513684.0 0
386000.0 513695.0 0
390000.0 513668.0 0
394000.0 513680.0 0
398000.0 513699.0 0
102000.0 517693.0 0
106000.0 517677.0 0
110000.0 517665.0 0
114000.0 517688.0 0
118000.0 517676.0 0
122000.0 517731.0 0
126000.0 517757.0 0
130000.0 517761.0 0
134000.0 517744.0 0
138000.0 517838.0 0
142000.0 517824.0 0
146000.0 517805.0 0
150000.0 517815.0 0
153999.0 517862.0 0
158000.0 517814.0 0
162000.0 517766.0 0
166000.0 517686.0 0
170000.0 517660.0 0
174000.0 517583.0 0
178000.0 517612.0 0
182000.0 517537.0 0
186000.0 517661.0 0
190000.0 517537.0 0
194000.0 517663.0 0
198000.0 517537.0 0
202000.0 517696.0 0
206000.0 517537.0 0
210000.0 517693.0 0
214000.0 517537.0 0
218000.0 517698.0 0
222000.0 517537.0 0
226000.0 517692.0 0
230000.0 517537.0 0
234000.0 517658.0 0
238000.0 517537.0 0
242000.0 517643.0 0
246000.0 517537.0 0
250000.0 517645.0 0
254000.0 517537.0 0
258000.0 517643.0 0
262000.0 517537.0 0
266000.0 517658.0 0
270000.0 517537.0 0
274000.0 517692.0 0
278000.0 517537.0 0
282000.0 517698.0 0
286000.0 517537.0 0
290000.0 517693.0 0
294000.0 517537.0 0
298000.0 517696.0 0
302000.0 517537.0 0
306000.0 517663.0 0
310000.0 517537.0 0
314000.0 517661.0 0
318000.0 517537.0 0
322000.0 517612.0 0
326000.0 517583.0 0
330000.0 517660.0 0
334000.0 517686.0 0
338000.0 517766.0 0
342000.0 517814.0 0
346001.0 517862.0 0
350000.0 517815.0 0
354000.0 517805.0 0
358000.0 517824.0 0
362000.0 517838.0 0
366000.0 517744.0 0
370000.0 517761.0 0
374000.0 517757.0 0
378000.0 517731.0 0
382000.0 517676.0 0
386000.0 517688.0 0
390000.0 517665.0 0
394000.0 517677.0 0
398000.0 517693.0 0
102000.0 521688.0 0
106000.0 521674.0 0
110000.0 521661.0 0
114000.0 521681.0 0
118000.0 521667.0 0
122000.0 521723.0 0
126000.0 521749.0 0
130000.0 521752.0 0
134000.0 521736.0 0
138000.0 521827.0 0
142000.0 521807.0 0
146000.0 521790.0 0
150000.0 521798.0 0
154000.0 521836.0 0
158000.0 521790.0 0
162000.0 521747.0 0
166000.0 521673.0 0
170000.0 521650.0 0
174000.0 521579.0 0
178000.0 521609.0 0
182000.0 521537.0 0
186000.0 521653.0 0
190000.0 521537.0 0
194000.0 521655.0 0
198000.0 521537.0 0
202000.0 521684.0 0
206000.0 521537.0 0
210000.0 521680.0 0
214000.0 521537.0 0
218000.0 521684.0 0
222000.0 521537.0 0
226000.0 521675.0 0
230000.0 521537.0 0
234000.0 521641.0 0
238000.0 521537.0 0
242000.0 521628.0 0
246000.0 521537.0 0
250000.0 521628.0 0
254000.0 521537.0 0
258000.0 521628.0 0
262000.0 521537.0 0
266000.0 521641.0 0
270000.0 521537.0 0
274000.0 521675.0 0
278000.0 521537.0 0
282000.0 521684.0 0
286000.0 521537.0 0
290000.0 521680.0 0
294000.0 521537.0 0
298000.0 521684.0 0
302000.0 521537.0 0
306000.0 521655.0 0
310000.0 521537.0 0
314000.0 521653.0 0
318000.0 521537.0 0
322000.0 521609.0 0
326000.0 521579.0 0
330000.0 521650.0 0
334000.0 521673.0 0
338000.0 521747.0 0
342000.0 521790.0 0
346000.0 521836.0 0
350000.0 521798.0 0
354000.0 521790.0 0
358000.0 521807.0 0
362000.0 521827.0 0
366000.0 521736.0 0
370000.0 521752.0 0
374000.0 521749.0 0
378000.0 521723.0 0
382000.0 521667.0 0
386000.0 521681.0 0
390000.0 521661.0 0
394000.0 521674.0 0
398000.0 521688.0 0
102000.0 525683.0 0
106000.0 525670.0 0
110000.0 525657.0 0
114000.0 525674.0 0
118000.0 525659.0 0
122000.0 525714.0 0
126000.0 525741.0 0
130000.0 525744.0 0
134000.0 525728.0 0
138000.0 525816.0 0
142000.0 525792.0 0
146000.0 525776.0 0
150000.0 525781.0 0
154000.0 525812.0 0
158000.0 525766.0 0
162000.0 525729.0 0
166000.0 525660.0 0
170000.0 525641.0 0
174000.0 525575.0 0
178000.0 525606.0 0
182000.0 525537.0 0
186000.0 525646.0 0
190000.0 525537.0 0
194000.0 525648.0 0
198000.0 525537.0 0
202000.0 525673.0 0
206000.0 525537.0 0
210000.0 525668.0 0
214000.0 525537.0 0
218000.0 525670.0 0
222000.0 525537.0 0
226000.0 525659.0 0
230000.0 525537.0 0
234000.0 525626.0 0
238000.0 525537.0 0
242000.0 525615.0 0
246000.0 525537.0 0
250000.0 525614.0 0
254000.0 525537.0 0
258000.0 525615.0 0
262000.0 525537.0 0
266000.0 525626.0 0
270000.0 525537.0 0
274000.0 525659.0 0
278000.0 525537.0 0
282000.0 525670.0 0
286000.0 525537.0 0
290000.0 525668.0 0
294000.0 525537.0 0
298000.0 525673.0 0
302000.0 525537.0 0
306000.0 525648.0 0
310000.0 525537.0 0
314000.0 525646.0 0
318000.0 525537.0 0
322000.0 525606.0 0
326000.0 525575.0 0
330000.0 525641.0 0
334000.0 525660.0 0
338000.0 525729.0 0
342000.0 525766.0 0
346000.0 525812.0 0
350000.0 525781.0 0
354000.0 525776.0 0
358000.0 525792.0 0
362000.0 525816.0 0
366000.0 525728.0 0
370000.0 525744.0 0
374000.0 525741.0 0
378000.0 525714.0 0
382000.0 525659.0 0
386000.0 525674.0 0
390000.0 525657.0 0
394000.0 525670.0 0
398000.0 525683.0 0
102000.0 529679.0 0
106000.0 529667.0 0
110000.0 529653.0 0
114000.0 529667.0 0
118000.0 529652.0 0
122000.0 529707.0 0
126000.0 529733.0 0
130000.0 529737.0 0
134000.0 529720.0 0
138000.0 529805.0 0
142000.0 529777.0 0
146000.0 529762.0 0
150000.0 529764.0 0
154000.0 529788.0 0
158000.0 529744.0 0
162000.0 529712.0 0
166000.0 529647.0 0
170000.0 529632.0 0
174000.0 529571.0 0
178000.0 529602.0 0
182000.0 529537.0 0
186000.0 529638.0 0
190000.0 529537.0 0
194000.0 529640.0 0
198000.0 529537.0 0
202000.0 529662.0 0
206000.0 529537.0 0
210000.0 529657.0 0
214000.0 529537.0 0
218000.0 529657.0 0
222000.0 529537.0 0
226000.0 529644.0 0
230000.0 529537.0 0
234000.0 529613.0 0
238000.0 529537.0 0
242000.0 529603.0 0
246000.0 529537.0 0
250000.0 529602.0 0
254000.0 529537.0 0
258000.0 529603.0 0
262000.0 529537.0 0
266000.0 529613.0 0
270000.0 529537.0 0
274000.0 529644.0 0
278000.0 529537.0 0
282000.0 529657.0 0
286000.0 529537.0 0
290000.0 529657.0 0
294000.0 529537.0 0
298000.0 529662.0 0
302000.0 529537.0 0
306000.0 529640.0 0
310000.0 529537.0 0
314000.0 529638.0 0
318000.0 529537.0 0
322000.0 529602.0 0
326000.0 529571.0 0
330000.0 529632.0 0
334000.0 529647.0 0
338000.0 529712.0 0
342000.0 529744.0 0
346000.0 529788.0 0
350000.0 529764.0 0
354000.0 529762.0 0
358000.0 529777.0 0
362000.0 529805.0 0
366000.0 529720.0 0
370000.0 529737.0 0
374000.0 529733.0 0
378000.0 529707.0 0
382000.0 529652.0 0
386000.0 529667.0 0
390000.0 529653.0 0
394000.0 529667.0 0
398000.0 529679.0 0
102000.0 533676.0 0
106000.0 533664.0 0
110000.0 533649.0 0
114000.0 533661.0 0
118000.0 533644.0 0
122000.0 533699.0 0
126000.0 533726.0 0
130000.0 533729.0 0
134000.0 533713.0 0
138000.0 533793.0 0
142000.0 533764.0 0
146000.0 533749.0 0
150000.0 533748.0 0
154000.0 533766.0 0
158000.0 533723.0 0
162000.0 533695.0 0
166000.0 533635.0 0
170000.0 533624.0 0
174000.0 533567.0 0
178000.0 533599.0 0
182000.0 533537.0 0
186000.0 533631.0 0
190000.0 533537.0 0
194000.0 533633.0 0
198000.0 533537.0 0
202000.0 533652.0 0
206000.0 533537.0 0
210000.0 533646.0 0
214000.0 533537.0 0
218000.0 533645.0 0
222000.0 533537.0 0
226000.0 533631.0 0
230000.0 533537.0 0
234000.0 533602.0 0
238000.0 533537.0 0
242000.0 533593.0 0
246000.0 533537.0 0
250000.0 533592.0 0
254000.0 533537.0 0
258000.0 533593.0 0
262000.0 533537.0 0
266000.0 533602.0 0
270000.0 533537.0 0
274000.0 533631.0 0
278000.0 533537.0 0
282000.0 533645.0 0
286000.0 533537.0 0
290000.0 533646.0 0
294000.0 533537.0 0
298000.0 533652.0 0
302000.0 533537.0 0
306000.0 533633.0 0
310000.0 533537.0 0
314000.0 533631.0 0
318000.0 533537.0 0
322000.0 533599.0 0
326000.0 533567.0 0
330000.0 533624.0 0
334000.0 533635.0 0
338000.0 533695.0 0
342000.0 533723.0 0
346000.0 533766.0 0
350000.0 533748.0 0
354000.0 533749.0 0
358000.0 533764.0 0
362000.0 533793.0 0
366000.0 533713.0 0
370000.0 533729.0 0
374000.0 533726.0 0
378000.0 533699.0 0
382000.0 533644.0 0
386000.0 533661.0 0
390000.0 533649.0 0
394000.0 533664.0 0
398000.0 533676.0 0
102000.0 537672.0 0
106000.0 537661.0 0
110000.0 537646.0 0
114000.0 537655.0 0
118000.0 537638.0 0
122000.0 537692.0 0
126000.0 537718.0 0
130000.0 537723.0 0
134000.0 537706.0 0
138000.0 537782.0 0
142000.0 537751.0 0
146000.0 537736.0 0
150000.0 537732.0 0
154000.0 537746.0 0
158000.0 537703.0 0
162000.0 537680.0 0
166000.0 537624.0 0
170000.0 537616.0 0
174000.0 537563.0 0
178000.0 537596.0 0
182000.0 537537.0 0
186000.0 537625.0 0
190000.0 537537.0 0
194000.0 537626.0 0
198000.0 537537.0 0
202000.0 537642.0 0
206000.0 537537.0 0
210000.0 537636.0 0
214000.0 537537.0 0
218000.0 537633.0 0
222000.0 537537.0 0
226000.0 537618.0 0
230000.0 537537.0 0
234000.0 537592.0 0
238000.0 537537.0 0
242000.0 537584.0 0
246000.0 537537.0 0
250000.0 537583.0 0
254000.0 537537.0 0
258000.0 537584.0 0
262000.0 537537.0 0
266000.0 537592.0 0
270000.0 537537.0 0
274000.0 537618.0 0
278000.0 537537.0 0
282000.0 537633.0 0
286000.0 537537.0 0
290000.0 537636.0 0
294000.0 537537.0 0
298000.0 537642.0 0
302000.0 537537.0 0
306000.0 537626.0 0
310000.0 537537.0 0
314000.0 537625.0 0
318000.0 537537.0 0
322000.0 537596.0 0
326000.0 537563.0 0
330000.0 537616.0 0
334000.0 537624.0 0
338000.0 537680.0 0
342000.0 537703.0 0
346000.0 537746.0 0
350000.0 537732.0 0
354000.0 537736.0 0
358000.0 537751.0 0
362000.0 537782.0 0
366000.0 537706.0 0
370000.0 537723.0 0
374000.0 537718.0 0
378000.0 537692.0 0
382000.0 537638.0 0
386000.0 537655.0 0
390000.0 537646.0 0
394000.0 537661.0 0
398000.0 537672.0 0
102000.0 541669.0 0
106000.0 541658.0 0
110000.0 541643.0 0
114000.0 541650.0 0
118000.0 541631.0 0
122000.0 541685.0 0
126000.0 541711.0 0
130000.0 541716.0 0
134000.0 541699.0 0
138000.0 541770.0 0
142000.0 541739.0 0
146000.0 541724.0 0
150000.0 541718.0 0
154000.0 541727.0 0
158000.0 541685.0 0
162000.0 541667.0 0
166000.0 541614.0 0
170000.0 541609.0 0
174000.0 541560.0 0
178000.0 541593.0 0
182000.0 541537.0 0
186000.0 541618.0 0
190000.0 541537.0 0
194000.0 541620.0 0
198000.0 541537.0 0
202000.0 541633.0 0
206000.0 541537.0 0
210000.0 541627.0 0
214000.0 541537.0 0
218000.0 541623.0 0
222000.0 541537.0 0
226000.0 541608.0 0
230000.0 541537.0 0
234000.0 541583.0 0
238000.0 541537.0 0
242000.0 541577.0 0
246000.0 541537.0 0
250000.0 541576.0 0
254000.0 541537.0 0
258000.0 541577.0 0
262000.0 541537.0 0
266000.0 541583.0 0
270000.0 541537.0 0
274000.0 541608.0 0
278000.0 541537.0 0
282000.0 541623.0 0
286000.0 541537.0 0
290000.0 541627.0 0
294000.0 541537.0 0
298000.0 541633.0 0
302000.0 541537.0 0
306000.0 541620.0 0
310000.0 541537.0 0
314000.0 541618.0 0
318000.0 541537.0 0
322000.0 541593.0 0
326000.0 541560.0 0
330000.0 541609.0 0
334000.0 541614.0 0
338000.0 541667.0 0
342000.0 541685.0 0
346000.0 541727.0 0
350000.0 541718.0 0
354000.0 541724.0 0
358000.0 541739.0 0
362000.0 541770.0 0
366000.0 541699.0 0
370000.0 541716.0 0
374000.0 541711.0 0
378000.0 541685.0 0
382000.0 541631.0 0
386000.0 541650.0 0
390000.0 541643.0 0
394000.0 541658.0 0
398000.0 541669.0 0
102000.0 545666.0 0
106000.0 545655.0 0
110000.0 545640.0 0
114000.0 545645.0 0
118000.0 545626.0 0
122000.0 545679.0 0
126000.0 545703.0 0
130000.0 545710.0 0
134000.0 545692.0 0
138000.0 545759.0 0
142000.0 545727.0 0
146000.0 545713.0 0
150000.0 545704.0 0
154000.0 545710.0 0
158000.0 545669.0 0
162000.0 545654.0 0
166000.0 545605.0 0
170000.0 545603.0 0
174000.0 545557.0 0
178000.0 545590.0 0
182000.0 545537.0 0
186000.0 545612.0 0
190000.0 545537.0 0
194000.0 545614.0 0
198000.0 545537.0 0
202000.0 545625.0 0
206000.0 545537.0 0
210000.0 545618.0 0
214000.0 545537.0 0
218000.0 545613.0 0
222000.0 545537.0 0
226000.0 545598.0 0
230000.0 545537.0 0
234000.0 545576.0 0
238000.0 545537.0 0
242000.0 545570.0 0
246000.0 545537.0 0
250000.0 545570.0 0
254000.0 545537.0 0
258000.0 545570.0 0
262000.0 545537.0 0
266000.0 545576.0 0
270000.0 545537.0 0
274000.0 545598.0 0
278000.0 545537.0 0
282000.0 545613.0 0
286000.0 545537.0 0
290000.0 545618.0 0
294000.0 545537.0 0
298000.0 545625.0 0
302000.0 545537.0 0
306000.0 545614.0 0
310000.0 545537.0 0
314000.0 545612.0 0
318000.0 545537.0 0
322000.0 545590.0 0
326000.0 545557.0 0
330000.0 545603.0 0
334000.0 545605.0 0
338000.0 545654.0 0
342000.0 545669.0 0
346000.0 545710.0 0
350000.0 545704.0 0
354000.0 545713.0 0
358000.0 545727.0 0
362000.0 545759.0 0
366000.0 545692.0 0
370000.0 545710.0 0
374000.0 545703.0 0
378000.0 545679.0 0
382000.0 545626.0 0
386000.0 545645.0 0
390000.0 545640.0 0
394000.0 545655.0 0
398000.0 545666.0 0
102000.0 549663.0 0
106000.0 549652.0 0
110000.0 549637.0 0
114000.0 549640.0 0
118000.0 549620.0 0
122000.0 549673.0 0
126000.0 549697.0 0
130000.0 549704.0 0
134000.0 549686.0 0
138000.0 549749.0 0
142000.0 549716.0 0
146000.0 549702.0 0
150000.0 549691.0 0
154000.0 549694.0 0
158000.0 549655.0 0
162000.0 549643.0 0
166000.0 549596.0 0
170000.0 549597.0 0
174000.0 549555.0 0
178000.0 549587.0 0
182000.0 549537.0 0
186000.0 549607.0 0
190000.0 549537.0 0
194000.0 549608.0 0
198000.0 549537.0 0
202000.0 549617.0 0
206000.0 549537.0 0
210000.0 549610.0 0
214000.0 549537.0 0
218000.0 549605.0 0
222000.0 549537.0 0
226000.0 549590.0 0
230000.0 549537.0 0
234000.0 549570.0 0
238000.0 549537.0 0
242000.0 549565.0 0
246000.0 549537.0 0
250000.0 549564.0 0
254000.0 549537.0 0
258000.0 549565.0 0
262000.0 549537.0 0
266000.0 549570.0 0
270000.0 549537.0 0
274000.0 549590.0 0
278000.0 549537.0 0
282000.0 549605.0 0
286000.0 549537.0 0
290000.0 549610.0 0
294000.0 549537.0 0
298000.0 549617.0 0
302000.0 549537.0 0
306000.0 549608.0 0
310000.0 549537.0 0
314000.0 549607.0 0
318000.0 549537.0 0
322000.0 549587.0 0
326000.0 549555.0 0
330000.0 549597.0 0
334000.0 549596.0 0
338000.0 549643.0 0
342000.0 549655.0 0
346000.0 549694.0 0
350000.0 549691.0 0
354000.0 549702.0 0
358000.0 549716.0 0
362000.0 549749.0 0
366000.0 549686.0 0
370000.0 549704.0 0
374000.0 549697.0 0
378000.0 549673.0 0
382000.0 549620.0 0
386000.0 549640.0 0
390000.0 549637.0 0
394000.0 549652.0 0
398000.0 549663.0 0
102000.0 553660.0 0
106000.0 553650.0 0
110000.0 553634.0 0
114000.0 553635.0 0
118000.0 553616.0 0
122000.0 553667.0 0
126000.0 553690.0 0
130000.0 553698.0 0
134000.0 553679.0 0
138000.0 553739.0 0
142000.0 553705.0 0
146000.0 553691.0 0
150000.0 553678.0 0
154000.0 553680.0 0
158000.0 553641.0 0
162000.0 553632.0 0
166000.0 553589.0 0
170000.0 553592.0 0
174000.0 553552.0 0
178000.0 553584.0 0
182000.0 553537.0 0
186000.0 553602.0 0
190000.0 553537.0 0
194000.0 553602.0 0
198000.0 553537.0 0
202000.0 553610.0 0
206000.0 553537.0 0
210000.0 553603.0 0
214000.0 553537.0 0
218000.0 553597.0 0
222000.0 553537.0 0
226000.0 553582.0 0
230000.0 553537.0 0
234000.0 553564.0 0
238000.0 553537.0 0
242000.0 553560.0 0
246000.0 553537.0 0
250000.0 553560.0 0
254000.0 553537.0 0
258000.0 553560.0 0
262000.0 553537.0 0
266000.0 553564.0 0
270000.0 553537.0 0
274000.0 553582.0 0
278000.0 553537.0 0
282000.0 553597.0 0
286000.0 553537.0 0
290000.0 553603.0 0
294000.0 553537.0 0
298000.0 553610.0 0
302000.0 553537.0 0
306000.0 553602.0 0
310000.0 553537.0 0
314000.0 553602.0 0
318000.0 553537.0 0
322000.0 553584.0 0
326000.0 553552.0 0
330000.0 553592.0 0
334000.0 553589.0 0
338000.0 553632.0 0
342000.0 553641.0 0
346000.0 553680.0 0
350000.0 553678.0 0
354000.0 553691.0 0
358000.0 553705.0 0
362000.0 553739.0 0
366000.0 553679.0 0
370000.0 553698.0 0
374000.0 553690.0 0
378000.0 553667.0 0
382000.0 553616.0 0
386000.0 553635.0 0
390000.0 553634.0 0
394000.0 553650.0 0
398000.0 553660.0 0
102000.0 557657.0 0
106000.0 557647.0 0
110000.0 557631.0 0
114000.0 557631.0 0
118000.0 557611.0 0
122000.0 557662.0 0
126000.0 557683.0 0
130000.0 557693.0 0
134000.0 557673.0 0
138000.0 557729.0 0
142000.0 557695.0 0
146000.0 557682.0 0
150000.0 557666.0 0
154000.0 557667.0 0
158000.0 557630.0 0
162000.0 557623.0 0
166000.0 557582.0 0
170000.0 557588.0 0
174000.0 557550.0 0
178000.0 557581.0 0
182000.0 557537.0 0
186000.0 557597.0 0
190000.0 557537.0 0
194000.0 557597.0 0
198000.0 557537.0 0
202000.0 557603.0 0
206000.0 557537.0 0
210000.0 557596.0 0
214000.0 557537.0 0
218000.0 557590.0 0
222000.0 557537.0 0
226000.0 557576.0 0
230000.0 557537.0 0
234000.0 557560.0 0
238000.0 557537.0 0
242000.0 557556.0 0
246000.0 557537.0 0
250000.0 557556.0 0
254000.0 557537.0 0
258000.0 557556.0 0
262000.0 557537.0 0
266000.0 557560.0 0
270000.0 557537.0 0
274000.0 557576.0 0
278000.0 557537.0 0
282000.0 557590.0 0
286000.0 557537.0 0
290000.0 557596.0 0
294000.0 557537.0 0
298000.0 557603.0 0
302000.0 557537.0 0
306000.0 557597.0 0
310000.0 557537.0 0
314000.0 557597.0 0
318000.0 557537.0 0
322000.0 557581.0 0
326000.0 557550.0 0
330000.0 557588.0 0
334000.0 557582.0 0
338000.0 557623.0 0
342000.0 557630.0 0
346000.0 557667.0 0
350000.0 557666.0 0
354000.0 557682.0 0
358000.0 557695.0 0
362000.0 557729.0 0
366000.0 557673.0 0
370000.0 557693.0 0
374000.0 557683.0 0
378000.0 557662.0 0
382000.0 557611.0 0
386000.0 557631.0 0
390000.0 557631.0 0
394000.0 557647.0 0
398000.0 557657.0 0
102000.0 561654.0 0
106000.0 561645.0 0
110000.0 561629.0 0
114000.0 561628.0 0
118000.0 561607.0 0
122000.0 561657.0 0
126000.0 561677.0 0
130000.0 561688.0 0
134000.0 561668.0 0
138000.0 561720.0 0
142000.0 561686.0 0
146000.0 561673.0 0
150000.0 561656.0 0
154000.0 561655.0 0
158000.0 561619.0 0
162000.0 561615.0 0
166000.0 561576.0 0
170000.0 561583.0 0
174000.0 561548.0 0
178000.0 561579.0 0
182000.0 561537.0 0
186000.0 561592.0 0
190000.0 561537.0 0
194000.0 561592.0 0
198000.0 561537.0 0
202000.0 561597.0 0
206000.0 561537.0 0
210000.0 561590.0 0
214000.0 561537.0 0
218000.0 561583.0 0
222000.0 561537.0 0
226000.0 561570.0 0
230000.0 561537.0 0
234000.0 561556.0 0
238000.0 561537.0 0
242000.0 561553.0 0
246000.0 561537.0 0
250000.0 561553.0 0
254000.0 561537.0 0
258000.0 561553.0 0
262000.0 561537.0 0
266000.0 561556.0 0
270000.0 561537.0 0
274000.0 561570.0 0
278000.0 561537.0 0
282000.0 561583.0 0
286000.0 561537.0 0
290000.0 561590.0 0
294000.0 561537.0 0
298000.0 561597.0 0
302000.0 561537.0 0
306000.0 561592.0 0
310000.0 561537.0 0
314000.0 561592.0 0
318000.0 561537.0 0
322000.0 561579.0 0
326000.0 561548.0 0
330000.0 561583.0 0
334000.0 561576.0 0
338000.0 561615.0 0
342000.0 561619.0 0
346000.0 561655.0 0
350000.0 561656.0 0
354000.0 561673.0 0
358000.0 561686.0 0
362000.0 561720.0 0
366000.0 561668.0 0
370000.0 561688.0 0
374000.0 561677.0 0
378000.0 561657.0 0
382000.0 561607.0 0
386000.0 561628.0 0
390000.0 561629.0 0
394000.0 561645.0 0
398000.0 561654.0 0
118000.0 565604.0 0
158000.0 565610.0 0
162000.0 565608.0 0
166000.0 565571.0 0
170000.0 565580.0 0
174000.0 565547.0 0
178000.0 565576.0 0
182000.0 565537.0 0
186000.0 565588.0 0
190000.0 565537.0 0
194000.0 565588.0 0
198000.0 565537.0 0
202000.0 565592.0 0
206000.0 565537.0 0
210000.0 565584.0 0
214000.0 565537.0 0
218000.0 565577.0 0
222000.0 565537.0 0
226000.0 565565.0 0
230000.0 565537.0 0
234000.0 565553.0 0
238000.0 565537.0 0
242000.0 565550.0 0
246000.0 565537.0 0
250000.0 565550.0 0
254000.0 565537.0 0
258000.0 565550.0 0
262000.0 565537.0 0
266000.0 565553.0 0
270000.0 565537.0 0
274000.0 565565.0 0
278000.0 565537.0 0
282000.0 565577.0 0
286000.0 565537.0 0
290000.0 565584.0 0
294000.0 565537.0 0
298000.0 565592.0 0
302000.0 565537.0 0
306000.0 565588.0 0
310000.0 565537.0 0
314000.0 565588.0 0
318000.0 565537.0 0
322000.0 565576.0 0
326000.0 565547.0 0
330000.0 565580.0 0
334000.0 565571.0 0
338000.0 565608.0 0
342000.0 565610.0 0
382000.0 565604.0 0
102000.0 565651.0 0
106000.0 565642.0 0
110000.0 565627.0 0
114000.0 565624.0 0
122000.0 565652.0 0
126000.0 565671.0 0
130000.0 565683.0 0
134000.0 565662.0 0
138000.0 565711.0 0
142000.0 565677.0 0
146000.0 565664.0 0
150000.0 565645.0 0
154000.0 565645.0 0
346000.0 565645.0 0
350000.0 565645.0 0
354000.0 565664.0 0
358000.0 565677.0 0
362000.0 565711.0 0
366000.0 565662.0 0
370000.0 565683.0 0
374000.0 565671.0 0
378000.0 565652.0 0
386000.0 565624.0 0
390000.0 565627.0 0
394000.0 565642.0 0
398000.0 565651.0 0
102000.0 569648.0 0
106000.0 569640.0 0
110000.0 569625.0 0
114000.0 569621.0 0
118000.0 569600.0 0
122000.0 569647.0 0
126000.0 569665.0 0
130000.0 569678.0 0
134000.0 569657.0 0
138000.0 569703.0 0
142000.0 569669.0 0
146000.0 569657.0 0
150000.0 569636.0 0
154000.0 569635.0 0
158000.0 569602.0 0
162000.0 569602.0 0
166000.0 569567.0 0
170000.0 569576.0 0
174000.0 569545.0 0
178000.0 569574.0 0
182000.0 569537.0 0
186000.0 569584.0 0
190000.0 569537.0 0
194000.0 569584.0 0
198000.0 569537.0 0
202000.0 569586.0 0
206000.0 569537.0 0
210000.0 569579.0 0
214000.0 569537.0 0
218000.0 569572.0 0
222000.0 569537.0 0
226000.0 569561.0 0
230000.0 569537.0 0
234000.0 569550.0 0
238000.0 569537.0 0
242000.0 569548.0 0
246000.0 569537.0 0
250000.0 569548.0 0
254000.0 569537.0 0
258000.0 569548.0 0
262000.0 569537.0 0
266000.0 569550.0 0
270000.0 569537.0 0
274000.0 569561.0 0
278000.0 569537.0 0
282000.0 569572.0 0
286000.0 569537.0 0
290000.0 569579.0 0
294000.0 569537.0 0
298000.0 569586.0 0
302000.0 569537.0 0
306000.0 569584.0 0
310000.0 569537.0 0
314000.0 569584.0 0
318000.0 569537.0 0
322000.0 569574.0 0
326000.0 569545.0 0
330000.0 569576.0 0
334000.0 569567.0 0
338000.0 569602.0 0
342000.0 569602.0 0
346000.0 569635.0 0
350000.0 569636.0 0
354000.0 569657.0 0
358000.0 569669.0 0
362000.0 569703.0 0
366000.0 569657.0 0
370000.0 569678.0 0
374000.0 569665.0 0
378000.0 569647.0 0
382000.0 569600.0 0
386000.0 569621.0 0
390000.0 569625.0 0
394000.0 569640.0 0
398000.0 569648.0 0
102000.0 573646.0 0
106000.0 573638.0 0
110000.0 573623.0 0
114000.0 573618.0 0
118000.0 573597.0 0
122000.0 573643.0 0
126000.0 573660.0 0
130000.0 573674.0 0
134000.0 573652.0 0
138000.0 573695.0 0
142000.0 573661.0 0
146000.0 573649.0 0
150000.0 573628.0 0
154000.0 573627.0 0
158000.0 573594.0 0
162000.0 573596.0 0
166000.0 573563.0 0
170000.0 573573.0 0
174000.0 573544.0 0
178000.0 573572.0 0
182000.0 573537.0 0
186000.0 573580.0 0
190000.0 573537.0 0
194000.0 573580.0 0
198000.0 573537.0 0
202000.0 573582.0 0
206000.0 573537.0 0
210000.0 573575.0 0
214000.0 573537.0 0
218000.0 573568.0 0
222000.0 573537.0 0
226000.0 573557.0 0
230000.0 573537.0 0
234000.0 573548.0 0
238000.0 573537.0 0
242000.0 573546.0 0
246000.0 573537.0 0
250000.0 573546.0 0
254000.0 573537.0 0
258000.0 573546.0 0
262000.0 573537.0 0
266000.0 573548.0 0
270000.0 573537.0 0
274000.0 573557.0 0
278000.0 573537.0 0
282000.0 573568.0 0
286000.0 573537.0 0
290000.0 573575.0 0
294000.0 573537.0 0
298000.0 573582.0 0
302000.0 573537.0 0
306000.0 573580.0 0
310000.0 573537.0 0
314000.0 573580.0 0
318000.0 573537.0 0
322000.0 573572.0 0
326000.0 573544.0 0
330000.0 573573.0 0
334000.0 573563.0 0
338000.0 573596.0 0
342000.0 573594.0 0
346000.0 573627.0 0
350000.0 573628.0 0
354000.0 573649.0 0
358000.0 573661.0 0
362000.0 573695.0 0
366000.0 573652.0 0
370000.0 573674.0 0
374000.0 573660.0 0
378000.0 573643.0 0
382000.0 573597.0 0
386000.0 573618.0 0
390000.0 573623.0 0
394000.0 573638.0 0
398000.0 573646.0 0
102000.0 577643.0 0
106000.0 577636.0 0
110000.0 577621.0 0
114000.0 577615.0 0
118000.0 577594.0 0
122000.0 577639.0 0
126000.0 577655.0 0
130000.0 577669.0 0
134000.0 577647.0 0
138000.0 577688.0 0
142000.0 577654.0 0
146000.0 577643.0 0
150000.0 577620.0 0
154000.0 577620.0 0
158000.0 577588.0 0
162000.0 577591.0 0
166000.0 577559.0 0
170000.0 577571.0 0
174000.0 577543.0 0
178000.0 577570.0 0
182000.0 577537.0 0
186000.0 577577.0 0
190000.0 577537.0 0
194000.0 577577.0 0
198000.0 577537.0 0
202000.0 577578.0 0
206000.0 577537.0 0
210000.0 577571.0 0
214000.0 577537.0 0
218000.0 577564.0 0
222000.0 577537.0 0
226000.0 577554.0 0
230000.0 577537.0 0
234000.0 577546.0 0
238000.0 577537.0 0
242000.0 577545.0 0
246000.0 577537.0 0
250000.0 577545.0 0
254000.0 577537.0 0
258000.0 577545.0 0
262000.0 577537.0 0
266000.0 577546.0 0
270000.0 577537.0 0
274000.0 577554.0 0
278000.0 577537.0 0
282000.0 577564.0 0
286000.0 577537.0 0
290000.0 577571.0 0
294000.0 577537.0 0
298000.0 577578.0 0
302000.0 577537.0 0
306000.0 577577.0 0
310000.0 577537.0 0
314000.0 577577.0 0
318000.0 577537.0 0
322000.0 577570.0 0
326000.0 577543.0 0
330000.0 577571.0 0
334000.0 577559.0 0
338000.0 577591.0 0
342000.0 577588.0 0
346000.0 577620.0 0
350000.0 577620.0 0
354000.0 577643.0 0
358000.0 577654.0 0
362000.0 577688.0 0
366000.0 577647.0 0
370000.0 577669.0 0
374000.0 577655.0 0
378000.0 577639.0 0
382000.0 577594.0 0
386000.0 577615.0 0
390000.0 577621.0 0
394000.0 577636.0 0
398000.0 577643.0 0
102000.0 581641.0 0
106000.0 581634.0 0
110000.0 581620.0 0
114000.0 581613.0 0
118000.0 581592.0 0
122000.0 581635.0 0
126000.0 581650.0 0
130000.0 581665.0 0
134000.0 581643.0 0
138000.0 581682.0 0
142000.0 581647.0 0
146000.0 581637.0 0
150000.0 581613.0 0
154000.0 581613.0 0
158000.0 581583.0 0
162000.0 581587.0 0
166000.0 581556.0 0
170000.0 581569.0 0
174000.0 581542.0 0
178000.0 581568.0 0
182000.0 581537.0 0
186000.0 581574.0 0
190000.0 581537.0 0
194000.0 581574.0 0
198000.0 581537.0 0
202000.0 581574.0 0
206000.0 581537.0 0
210000.0 581567.0 0
214000.0 581537.0 0
218000.0 581560.0 0
222000.0 581537.0 0
226000.0 581551.0 0
230000.0 581537.0 0
234000.0 581544.0 0
238000.0 581537.0 0
242000.0 581543.0 0
246000.0 581537.0 0
250000.0 581543.0 0
254000.0 581537.0 0
258000.0 581543.0 0
262000.0 581537.0 0
266000.0 581544.0 0
270000.0 581537.0 0
274000.0 581551.0 0
278000.0 581537.0 0
282000.0 581560.0 0
286000.0 581537.0 0
290000.0 581567.0 0
294000.0 581537.0 0
298000.0 581574.0 0
302000.0 581537.0 0
306000.0 581574.0 0
310000.0 581537.0 0
314000.0 581574.0 0
318000.0 581537.0 0
322000.0 581568.0 0
326000.0 581542.0 0
330000.0 581569.0 0
334000.0 581556.0 0
338000.0 581587.0 0
342000.0 581583.0 0
346000.0 581613.0 0
350000.0 581613.0 0
354000.0 581637.0 0
358000.0 581647.0 0
362000.0 581682.0 0
366000.0 581643.0 0
370000.0 581665.0 0
374000.0 581650.0 0
378000.0 581635.0 0
382000.0 581592.0 0
386000.0 581613.0 0
390000.0 581620.0 0
394000.0 581634.0 0
398000.0 581641.0 0
102000.0 585639.0 0
106000.0 585632.0 0
110000.0 585618.0 0
114000.0 585610.0 0
118000.0 585590.0 0
122000.0 585632.0 0
126000.0 585646.0 0
130000.0 585662.0 0
134000.0 585639.0 0
138000.0 585676.0 0
142000.0 585641.0 0
146000.0 585631.0 0
150000.0 585607.0 0
154000.0 585608.0 0
158000.0 585578.0 0
162000.0 585583.0 0
166000.0 585554.0 0
170000.0 585566.0 0
174000.0 585541.0 0
178000.0 585566.0 0
182000.0 585537.0 0
186000.0 585572.0 0
190000.0 585537.0 0
194000.0 585571.0 0
198000.0 585537.0 0
202000.0 585570.0 0
206000.0 585537.0 0
210000.0 585564.0 0
214000.0 585537.0 0
218000.0 585557.0 0
222000.0 585537.0 0
226000.0 585549.0 0
230000.0 585537.0 0
234000.0 585543.0 0
238000.0 585537.0 0
242000.0 585542.0 0
246000.0 585537.0 0
250000.0 585542.0 0
254000.0 585537.0 0
258000.0 585542.0 0
262000.0 585537.0 0
266000.0 585543.0 0
270000.0 585537.0 0
274000.0 585549.0 0
278000.0 585537.0 0
282000.0 585557.0 0
286000.0 585537.0 0
290000.0 585564.0 0
294000.0 585537.0 0
298000.0 585570.0 0
302000.0 585537.0 0
306000.0 585571.0 0
310000.0 585537.0 0
314000.0 585572.0 0
318000.0 585537.0 0
322000.0 585566.0 0
326000.0 585541.0 0
330000.0 585566.0 0
334000.0 585554.0 0
338000.0 585583.0 0
342000.0 585578.0 0
346000.0 585608.0 0
350000.0 585607.0 0
354000.0 585631.0 0
358000.0 585641.0 0
362000.0 585676.0 0
366000.0 585639.0 0
370000.0 585662.0 0
374000.0 585646.0 0
378000.0 585632.0 0
382000.0 585590.0 0
386000.0 585610.0 0
390000.0 585618.0 0
394000.0 585632.0 0
398000.0 585639.0 0
102000.0 589637.0 0
106000.0 589631.0 0
110000.0 589617.0 0
114000.0 589608.0 0
118000.0 589588.0 0
122000.0 589629.0 0
126000.0 589642.0 0
130000.0 589658.0 0
134000.0 589636.0 0
138000.0 589671.0 0
142000.0 589636.0 0
146000.0 589626.0 0
150000.0 589601.0 0
154000.0 589602.0 0
158000.0 589574.0 0
162000.0 589580.0 0
166000.0 589552.0 0
170000.0 589565.0 0
174000.0 589540.0 0
178000.0 589565.0 0
182000.0 589537.0 0
186000.0 589569.0 0
190000.0 589537.0 0
194000.0 589569.0 0
198000.0 589537.0 0
202000.0 589567.0 0
206000.0 589537.0 0
210000.0 589561.0 0
214000.0 589537.0 0
218000.0 589555.0 0
222000.0 589537.0 0
226000.0 589547.0 0
230000.0 589537.0 0
234000.0 589542.0 0
238000.0 589537.0 0
242000.0 589541.0 0
246000.0 589537.0 0
250000.0 589541.0 0
254000.0 589537.0 0
258000.0 589541.0 0
262000.0 589537.0 0
266000.0 589542.0 0
270000.0 589537.0 0
274000.0 589547.0 0
278000.0 589537.0 0
282000.0 589555.0 0
286000.0 589537.0 0
290000.0 589561.0 0
294000.0 589537.0 0
298000.0 589567.0 0
302000.0 589537.0 0
306000.0 589569.0 0
310000.0 589537.0 0
314000.0 589569.0 0
318000.0 589537.0 0
322000.0 589565.0 0
326000.0 589540.0 0
330000.0 589565.0 0
334000.0 589552.0 0
338000.0 589580.0 0
342000.0 589574.0 0
346000.0 589602.0 0
350000.0 589601.0 0
354000.0 589626.0 0
358000.0 589636.0 0
362000.0 589671.0 0
366000.0 589636.0 0
370000.0 589658.0 0
374000.0 589642.0 0
378000.0 589629.0 0
382000.0 589588.0 0
386000.0 589608.0 0
390000.0 589617.0 0
394000.0 589631.0 0
398000.0 589637.0 0
102000.0 593635.0 0
106000.0 593629.0 0
110000.0 593616.0 0
114000.0 593607.0 0
118000.0 593586.0 0
122000.0 593626.0 0
126000.0 593638.0 0
130000.0 593655.0 0
134000.0 593633.0 0
138000.0 593666.0 0
142000.0 593631.0 0
146000.0 593622.0 0
150000.0 593596.0 0
154000.0 593598.0 0
158000.0 593570.0 0
162000.0 593577.0 0
166000.0 593550.0 0
170000.0 593563.0 0
174000.0 593540.0 0
178000.0 593563.0 0
182000.0 593537.0 0
186000.0 593567.0 0
190000.0 593537.0 0
194000.0 593566.0 0
198000.0 593537.0 0
202000.0 593565.0 0
206000.0 593537.0 0
210000.0 593558.0 0
214000.0 593537.0 0
218000.0 593553.0 0
222000.0 593537.0 0
226000.0 593546.0 0
230000.0 593537.0 0
234000.0 593541.0 0
238000.0 593537.0 0
242000.0 593541.0 0
246000.0 593537.0 0
250000.0 593541.0 0
254000.0 593537.0 0
258000.0 593541.0 0
262000.0 593537.0 0
266000.0 593541.0 0
270000.0 593537.0 0
274000.0 593546.0 0
278000.0 593537.0 0
282000.0 593553.0 0
286000.0 593537.0 0
290000.0 593558.0 0
294000.0 593537.0 0
298000.0 593565.0 0
302000.0 593537.0 0
306000.0 593566.0 0
310000.0 593537.0 0
314000.0 593567.0 0
318000.0 593537.0 0
322000.0 593563.0 0
326000.0 593540.0 0
330000.0 593563.0 0
334000.0 593550.0 0
338000.0 593577.0 0
342000.0 593570.0 0
346000.0 593598.0 0
350000.0 593596.0 0
354000.0 593622.0 0
358000.0 593631.0 0
362000.0 593666.0 0
366000.0 593633.0 0
370000.0 593655.0 0
374000.0 593638.0 0
378000.0 593626.0 0
382000.0 593586.0 0
386000.0 593607.0 0
390000.0 593616.0 0
394000.0 593629.0 0
398000.0 593635.0 0
102000.0 597634.0 0
106000.0 597628.0 0
110000.0 597615.0 0
114000.0 597605.0 0
118000.0 597584.0 0
122000.0 597624.0 0
126000.0 597635.0 0
130000.0 597653.0 0
134000.0 597630.0 0
138000.0 597662.0 0
142000.0 597627.0 0
146000.0 597618.0 0
150000.0 597592.0 0
154000.0 597594.0 0
158000.0 597567.0 0
162000.0 597574.0 0
166000.0 597548.0 0
170000.0 597562.0 0
174000.0 597539.0 0
178000.0 597562.0 0
182000.0 597537.0 0
186000.0 597565.0 0
190000.0 597537.0 0
194000.0 597565.0 0
198000.0 597537.0 0
202000.0 597563.0 0
206000.0 597537.0 0
210000.0 597556.0 0
214000.0 597537.0 0
218000.0 597551.0 0
222000.0 597537.0 0
226000.0 597544.0 0
230000.0 597537.0 0
234000.0 597540.0 0
238000.0 597537.0 0
242000.0 597540.0 0
246000.0 597537.0 0
250000.0 597540.0 0
254000.0 597537.0 0
258000.0 597540.0 0
262000.0 597537.0 0
266000.0 597540.0 0
270000.0 597537.0 0
274000.0 597544.0 0
278000.0 597537.0 0
282000.0 597551.0 0
286000.0 597537.0 0
290000.0 597556.0 0
294000.0 597537.0 0
298000.0 597563.0 0
302000.0 597537.0 0
306000.0 597565.0 0
310000.0 597537.0 0
314000.0 597565.0 0
318000.0 597537.0 0
322000.0 597562.0 0
326000.0 597539.0 0
330000.0 597562.0 0
334000.0 597548.0 0
338000.0 597574.0 0
342000.0 597567.0 0
346000.0 597594.0 0
350000.0 597592.0 0
354000.0 597618.0 0
358000.0 597627.0 0
362000.0 597662.0 0
366000.0 597630.0 0
370000.0 597653.0 0
374000.0 597635.0 0
378000.0 597624.0 0
382000.0 597584.0 0
386000.0 597605.0 0
390000.0 597615.0 0
394000.0 597628.0 0
398000.0 597634.0 0
102000.0 601632.0 0
106000.0 601627.0 0
110000.0 601614.0 0
114000.0 601604.0 0
118000.0 601583.0 0
122000.0 601622.0 0
126000.0 601633.0 0
130000.0 601650.0 0
134000.0 601627.0 0
138000.0 601658.0 0
142000.0 601623.0 0
146000.0 601615.0 0
150000.0 601588.0 0
154000.0 601591.0 0
158000.0 601564.0 0
162000.0 601572.0 0
166000.0 601547.0 0
170000.0 601561.0 0
174000.0 601539.0 0
178000.0 601561.0 0
182000.0 601537.0 0
186000.0 601564.0 0
190000.0 601537.0 0
194000.0 601563.0 0
198000.0 601537.0 0
202000.0 601561.0 0
206000.0 601537.0 0
210000.0 601555.0 0
214000.0 601537.0 0
218000.0 601549.0 0
222000.0 601537.0 0
226000.0 601543.0 0
230000.0 601537.0 0
234000.0 601540.0 0
238000.0 601537.0 0
242000.0 601540.0 0
246000.0 601537.0 0
250000.0 601540.0 0
254000.0 601537.0 0
258000.0 601540.0 0
262000.0 601537.0 0
266000.0 601540.0 0
270000.0 601537.0 0
274000.0 601543.0 0
278000.0 601537.0 0
282000.0 601549.0 0
286000.0 601537.0 0
290000.0 601555.0 0
294000.0 601537.0 0
298000.0 601561.0 0
302000.0 601537.0 0
306000.0 601563.0 0
310000.0 601537.0 0
314000.0 601564.0 0
318000.0 601537.0 0
322000.0 601561.0 0
326000.0 601539.0 0
330000.0 601561.0 0
334000.0 601547.0 0
338000.0 601572.0 0
342000.0 601564.0 0
346000.0 601591.0 0
350000.0 601588.0 0
354000.0 601615.0 0
358000.0 601623.0 0
362000.0 601658.0 0
366000.0 601627.0 0
370000.0 601650.0 0
374000.0 601633.0 0
378000.0 601622.0 0
382000.0 601583.0 0
386000.0 601604.0 0
390000.0 601614.0 0
394000.0 601627.0 0
398000.0 601632.0 0
102000.0 605631.0 0
106000.0 605626.0 0
110000.0 605613.0 0
114000.0 605603.0 0
118000.0 605582.0 0
122000.0 605620.0 0
126000.0 605630.0 0
130000.0 605648.0 0
134000.0 605625.0 0
138000.0 605655.0 0
142000.0 605620.0 0
146000.0 605612.0 0
150000.0 605585.0 0
154000.0 605589.0 0
158000.0 605562.0 0
162000.0 605571.0 0
166000.0 605546.0 0
170000.0 605560.0 0
174000.0 605539.0 0
178000.0 605560.0 0
182000.0 605537.0 0
186000.0 605563.0 0
190000.0 605537.0 0
194000.0 605562.0 0
198000.0 605537.0 0
202000.0 605559.0 0
206000.0 605537.0 0
210000.0 605553.0 0
214000.0 605537.0 0
218000.0 605548.0 0
222000.0 605537.0 0
226000.0 605542.0 0
230000.0 605537.0 0
234000.0 605539.0 0
238000.0 605537.0 0
242000.0 605539.0 0
246000.0 605537.0 0
250000.0 605539.0 0
254000.0 605537.0 0
258000.0 605539.0 0
262000.0 605537.0 0
266000.0 605539.0 0
270000.0 605537.0 0
274000.0 605542.0 0
278000.0 605537.0 0
282000.0 605548.0 0
286000.0 605537.0 0
290000.0 605553.0 0
294000.0 605537.0 0
298000.0 605559.0 0
302000.0 605537.0 0
306000.0 605562.0 0
310000.0 605537.0 0
314000.0 605563.0 0
318000.0 605537.0 0
322000.0 605560.0 0
326000.0 605539.0 0
330000.0 605560.0 0
334000.0 605546.0 0
338000.0 605571.0 0
342000.0 605562.0 0
346000.0 605589.0 0
350000.0 605585.0 0
354000.0 605612.0 0
358000.0 605620.0 0
362000.0 605655.0 0
366000.0 605625.0 0
370000.0 605648.0 0
374000.0 605630.0 0
378000.0 605620.0 0
382000.0 605582.0 0
386000.0 605603.0 0
390000.0 605613.0 0
394000.0 605626.0 0
398000.0 605631.0 0
102000.0 609630.0 0
106000.0 609625.0 0
110000.0 609612.0 0
114000.0 609602.0 0
118000.0 609581.0 0
122000.0 609619.0 0
126000.0 609628.0 0
130000.0 609647.0 0
134000.0 609624.0 0
138000.0 609653.0 0
142000.0 609618.0 0
146000.0 609610.0 0
150000.0 609583.0 0
154000.0 609587.0 0
158000.0 609561.0 0
162000.0 609570.0 0
166000.0 609545.0 0
170000.0 609559.0 0
174000.0 609539.0 0
178000.0 609559.0 0
182000.0 609537.0 0
186000.0 609562.0 0
190000.0 609537.0 0
194000.0 609561.0 0
198000.0 609537.0 0
202000.0 609558.0 0
206000.0 609537.0 0
210000.0 609552.0 0
214000.0 609537.0 0
218000.0 609547.0 0
222000.0 609537.0 0
226000.0 609542.0 0
230000.0 609537.0 0
234000.0 609539.0 0
238000.0 609537.0 0
242000.0 609539.0 0
246000.0 609537.0 0
250000.0 609539.0 0
254000.0 609537.0 0
258000.0 609539.0 0
262000.0 609537.0 0
266000.0 609539.0 0
270000.0 609537.0 0
274000.0 609542.0 0
278000.0 609537.0 0
282000.0 609547.0 0
286000.0 609537.0 0
290000.0 609552.0 0
294000.0 609537.0 0
298000.0 609558.0 0
302000.0 609537.0 0
306000.0 609561.0 0
310000.0 609537.0 0
314000.0 609562.0 0
318000.0 609537.0 0
322000.0 609559.0 0
326000.0 609539.0 0
330000.0 609559.0 0
334000.0 609545.0 0
338000.0 609570.0 0
342000.0 609561.0 0
346000.0 609587.0 0
350000.0 609583.0 0
354000.0 609610.0 0
358000.0 609618.0 0
362000.0 609653.0 0
366000.0 609624.0 0
370000.0 609647.0 0
374000.0 609628.0 0
378000.0 609619.0 0
382000.0 609581.0 0
386000.0 609602.0 0
390000.0 609612.0 0
394000.0 609625.0 0
398000.0 609630.0 0
102000.0 613630.0 0
106000.0 613625.0 0
110000.0 613612.0 0
114000.0 613601.0 0
118000.0 613581.0 0
122000.0 613618.0 0
126000.0 613627.0 0
130000.0 613646.0 0
134000.0 613622.0 0
138000.0 613651.0 0
142000.0 613616.0 0
146000.0 613609.0 0
150000.0 613581.0 0
154000.0 613585.0 0
158000.0 613560.0 0
162000.0 613569.0 0
166000.0 613545.0 0
170000.0 613559.0 0
174000.0 613538.0 0
178000.0 613559.0 0
182000.0 613537.0 0
186000.0 613561.0 0
190000.0 613537.0 0
194000.0 613560.0 0
198000.0 613537.0 0
202000.0 613557.0 0
206000.0 613537.0 0
210000.0 613551.0 0
214000.0 613537.0 0
218000.0 613546.0 0
222000.0 613537.0 0
226000.0 613541.0 0
230000.0 613537.0 0
234000.0 613539.0 0
238000.0 613537.0 0
242000.0 613539.0 0
246000.0 613537.0 0
250000.0 613539.0 0
254000.0 613537.0 0
258000.0 613539.0 0
262000.0 613537.0 0
266000.0 613539.0 0
270000.0 613537.0 0
274000.0 613541.0 0
278000.0 613537.0 0
282000.0 613546.0 0
286000.0 613537.0 0
290000.0 613551.0 0
294000.0 613537.0 0
298000.0 613557.0 0
302000.0 613537.0 0
306000.0 613560.0 0
310000.0 613537.0 0
314000.0 613561.0 0
318000.0 613537.0 0
322000.0 613559.0 0
326000.0 613538.0 0
330000.0 613559.0 0
334000.0 613545.0 0
338000.0 613569.0 0
342000.0 613560.0 0
346000.0 613585.0 0
350000.0 613581.0 0
354000.0 613609.0 0
358000.0 613616.0 0
362000.0 613651.0 0
366000.0 613622.0 0
370000.0 613646.0 0
374000.0 613627.0 0
378000.0 613618.0 0
382000.0 613581.0 0
386000.0 613601.0 0
390000.0 613612.0 0
394000.0 613625.0 0
398000.0 613630.0 0
102000.0 617629.0 0
106000.0 617624.0 0
110000.0 617612.0 0
114000.0 617601.0 0
118000.0 617580.0 0
122000.0 617617.0 0
126000.0 617626.0 0
130000.0 617645.0 0
134000.0 617622.0 0
138000.0 617650.0 0
142000.0 617615.0 0
146000.0 617608.0 0
150000.0 617580.0 0
154000.0 617584.0 0
158000.0 617559.0 0
162000.0 617568.0 0
166000.0 617544.0 0
170000.0 617558.0 0
174000.0 617538.0 0
178000.0 617559.0 0
182000.0 617537.0 0
186000.0 617560.0 0
190000.0 617537.0 0
194000.0 617559.0 0
198000.0 617537.0 0
202000.0 617556.0 0
206000.0 617537.0 0
210000.0 617551.0 0
214000.0 617537.0 0
218000.0 617546.0 0
222000.0 617537.0 0
226000.0 617541.0 0
230000.0 617537.0 0
234000.0 617539.0 0
238000.0 617537.0 0
242000.0 617539.0 0
246000.0 617537.0 0
250000.0 617539.0 0
254000.0 617537.0 0
258000.0 617539.0 0
262000.0 617537.0 0
266000.0 617539.0 0
270000.0 617537.0 0
274000.0 617541.0 0
278000.0 617537.0 0
282000.0 617546.0 0
286000.0 617537.0 0
290000.0 617551.0 0
294000.0 617537.0 0
298000.0 617556.0 0
302000.0 617537.0 0
306000.0 617559.0 0
310000.0 617537.0 0
314000.0 617560.0 0
318000.0 617537.0 0
322000.0 617559.0 0
326000.0 617538.0 0
330000.0 617558.0 0
334000.0 617544.0 0
338000.0 617568.0 0
342000.0 617559.0 0
346000.0 617584.0 0
350000.0 617580.0 0
354000.0 617608.0 0
358000.0 617615.0 0
362000.0 617650.0 0
366000.0 617622.0 0
370000.0 617645.0 0
374000.0 617626.0 0
378000.0 617617.0 0
382000.0 617580.0 0
386000.0 617601.0 0
390000.0 617612.0 0
394000.0 617624.0 0
398000.0 617629.0 0
102000.0 621629.0 0
106000.0 621624.0 0
110000.0 621612.0 0
114000.0 621600.0 0
118000.0 621580.0 0
122000.0 621617.0 0
126000.0 621626.0 0
130000.0 621645.0 0
134000.0 621621.0 0
138000.0 621649.0 0
142000.0 621614.0 0
146000.0 621607.0 0
150000.0 621580.0 0
154000.0 621584.0 0
158000.0 621558.0 0
162000.0 621568.0 0
166000.0 621544.0 0
170000.0 621558.0 0
174000.0 621538.0 0
178000.0 621558.0 0
182000.0 621537.0 0
186000.0 621560.0 0
190000.0 621537.0 0
194000.0 621559.0 0
198000.0 621537.0 0
202000.0 621556.0 0
206000.0 621537.0 0
210000.0 621550.0 0
214000.0 621537.0 0
218000.0 621545.0 0
222000.0 621537.0 0
226000.0 621541.0 0
230000.0 621537.0 0
234000.0 621539.0 0
238000.0 621537.0 0
242000.0 621539.0 0
246000.0 621537.0 0
250000.0 621539.0 0
254000.0 621537.0 0
258000.0 621539.0 0
262000.0 621537.0 0
266000.0 621539.0 0
270000.0 621537.0 0
274000.0 621541.0 0
278000.0 621537.0 0
282000.0 621545.0 0
286000.0 621537.0 0
290000.0 621550.0 0
294000.0 621537.0 0
298000.0 621556.0 0
302000.0 621537.0 0
306000.0 621559.0 0
310000.0 621537.0 0
314000.0 621560.0 0
318000.0 621537.0 0
322000.0 621558.0 0
326000.0 621538.0 0
330000.0 621558.0 0
334000.0 621544.0 0
338000.0 621568.0 0
342000.0 621558.0 0
346000.0 621584.0 0
350000.0 621580.0 0
354000.0 621607.0 0
358000.0 621614.0 0
362000.0 621649.0 0
366000.0 621621.0 0
370000.0 621645.0 0
374000.0 621626.0 0
378000.0 621617.0 0
382000.0 621580.0 0
386000.0 621600.0 0
390000.0 621612.0 0
394000.0 621624.0 0
398000.0 621629.0 0
POINT_DATA 4650
SCALARS Radius float 1
LOOKUP_TABLE default
4000.0 4000.0 4000.0 4000.0 4000.0 4000.0 4000.0 4000.0 4000.0 4000.0 4000.0 4000.0 4000.0 4000.0 4000.0 4000.0 4000.0 4000.0 4000.0 4000.0 4000.0 4000.0 4000.0 4000.0 4000.0 4000.0 4000.0 4000.0 4000.0 4000.0 4000.0 4000.0 4000.0 4000.0 4000.0 4000.0 4000.0 4000.0 4000.0 4000.0 4000.0 4000.0 4000.0 4000.0 4000.0 4000.0 4000.0 4000.0 4000.0 4000.0 4000.0 4000.0 4000.0 4000.0 4000.0 4000.0 4000.0 4000.0 4000.0 4000.0 4000.0 4000.0 4000.0 4000.0 4000.0 4000.0 4000.0 4000.0 4000.0 4000.0 4000.0 4000.0 4000.0 4000.0 4000.0 4000.0 4000.0 4000.0 4000.0 4000.0 4000.0 4000.0 4000.0 4000.0 4000.0 4000.0 4000.0 4000.0 4000.0 4000.0 4000.0 4000.0 4000.0 4000.0 4000.0 4000.0 4000.0 4000.0 4000.0 4000.0 4000.0 4000.0 4000.0 4000.0 4000.0 4000.0 4000.0 4000.0 4000.0 4000.0 4000.0 4000.0 4000.0 4000.0 4000.0 4000.0 4000.0 4000.0 4000.0 4000.0 4000.0 4000.0 4000.0 4000.0 4000.0 4000.0 4000.0 4000.0 4000.0 4000.0 4000.0 4000.0 4000.0 4000.0 4000.0 4000.0 4000.0 4000.0 4000.0 4000.0 4000.0 4000.0 4000.0 4000.0 4000.0 4000.0 4000.0 4000.0 4000.0 4000.0 4000.0 4000.0 4000.0 4000.0 4000.0 4000.0 4000.0 4000.0 4000.0 4000.0 4000.0 4000.0 4000.0 4000.0 4000.0 4000.0 4000.0 4000.0 4000.0 4000.0 4000.0 4000.0 4000.0 4000.0 4000.0 4000.0 4000.0 4000.0 4000.0 4000.0 4000.0 4000.0 4000.0 4000.0 4000.0 4000.0 4000.0 4000.0 4000.0 4000.0 4000.0 4000.0 4000.0 4000.0 4000.0 4000.0 4000.0 4000.0 4000.0 4000.0 4000.0 4000.0 4000.0 4000.0 4000.0 4000.0 4000.0 4000.0 4000.0 4000.0 4000.0 4000.0 4000.0 4000.0 4000.0 4000.0 4000.0 4000.0 4000.0 4000.0 4000.0 4000.0 4000.0 4000.0 4000.0 4000.0 4000.0 4000.0 4000.0 4000.0 4000.0 4000.0 4000.0 4000.0 4000.0 4000.0 4000.0 4000.0 4000.0 4000.0 4000.0 4000.0 4000.0 4000.0 4000.0 4000.0 4000.0 4000.0 4000.0 4000.0 4000.0 4000.0 4000.0 4000.0 4000.0 4000.0 4000.0 4000.0 4000.0 4000.0 4000.0 4000.0 4000.0 4000.0 4000.0 4000.0 4000.0 4000.0 4000.0 4000.0 4000.0 4000.0 4000.0 4000.0 4000.0 4000.0 4000.0 4000.0 4000.0 4000.0 4000.0 4000.0 4000.0 4000.0 4000.0 4000.0 4000.0 4000.0 4000.0 4000.0 4000.0 4000.0 4000.0 4000.0 4000.0 4000.0 4000.0 4000.0 4000.0 4000.0 4000.0 4000.0 4000.0 4000.0 4000.0 4000.0 4000.0 4000.0 4000.0 4000.0 4000.0 4000.0 4000.0 4000.0 4000.0 4000.0 4000.0 4000.0 4000.0 4000.0 4000.0 4000.0 4000.0 4000.0 4000.0 4000.0 4000.0 4000.0 4000.0 4000.0 4000.0 4000.0 4000.0 4000.0 4000.0 4000.0 4000.0 4000.0 4000.0 4000.0 4000.0 4000.0 4000.0 4000.0 4000.0 4000.0 4000.0 4000.0 4000.0 4000.0 4000.0 4000.0 4000.0 4000.0 4000.0 4000.0 4000.0 4000.0 4000.0 4000.0 4000.0 4000.0 4000.0 4000.0 4000.0 4000.0 4000.0 4000.0 4000.0 4000.0 4000.0 4000.0 4000.0 4000.0 4000.0 4000.0 4000.0 4000.0 4000.0 4000.0 4000.0 4000.0 4000.0 4000.0 4000.0 4000.0 4000.0 4000.0 4000.0 4000.0 4000.0 4000.0 4000.0 4000.0 4000.0 4000.0 4000.0 4000.0 4000.0 4000.0 4000.0 4000.0 4000.0 4000.0 4000.0 4000.0 4000.0 4000.0 4000.0 4000.0 4000.0 4000.0 4000.0 4000.0 4000.0 4000.0 4000.0 4000.0 4000.0 4000.0 4000.0 4000.0 4000.0 4000.0 4000.0 4000.0 4000.0 4000.0 4000.0 4000.0 4000.0 4000.0 4000.0 4000.0 4000.0 4000.0 4000.0 4000.0 4000.0 4000.0 4000.0 4000.0 4000.0 4000.0 4000.0 4000.0 4000.0 4000.0 4000.0 4000.0 4000.0 4000.0 4000.0 4000.0 4000.0 4000.0 4000.0 4000.0 4000.0 4000.0 4000.0 4000.0 4000.0 4000.0 4000.0 4000.0 4000.0 4000.0 4000.0 4000.0 4000.0 4000.0 4000.0 4000.0 4000.0 4000.0 4000.0 4000.0 4000.0 4000.0 4000.0 4000.0 4000.0 4000.0 4000.0 4000.0 4000.0 4000.0 4000.0 4000.0 4000.0 4000.0 4000.0 4000.0 4000.0 4000.0 4000.0 4000.0 4000.0 4000.0 4000.0 4000.0 4000.0 4000.0 4000.0 4000.0 4000.0 4000.0 4000.0 4000.0 4000.0 4000.0 4000.0 4000.0 4000.0 4000.0 4000.0 4000.0 4000.0 4000.0 4000.0 4000.0 4000.0 4000.0 4000.0 4000.0 4000.0 4000.0 4000.0 4000.0 4000.0 4000.0 4000.0 4000.0 4000.0 4000.0 4000.0 4000.0 4000.0 4000.0 4000.0 4000.0 4000.0 4000.0 4000.0 4000.0 4000.0 4000.0 4000.0 4000.0 4000.0 4000.0 4000.0 4000.0 4000.0 4000.0 4000.0 4000.0 4000.0 4000.0 4000.0 4000.0 4000.0 4000.0 4000.0 4000.0 4000.0 4000.0 4000.0 4000.0 4000.0 4000.0 4000.0 4000.0 4000.0 4000.0 4000.0 4000.0 4000.0 4000.0 4000.0 4000.0 4000.0 4000.0 4000.0 4000.0 4000.0 4000.0 4000.0 4000.0 4000.0 4000.0 4000.0 4000.0 4000.0 4000.0 4000.0 4000.0 4000.0 4000.0 4000.0 4000.0 4000.0 4000.0 4000.0 4000.0 4000.0 4000.0 4000.0 4000.0 4000.0 4000.0 4000.0 4000.0 4000.0 4000.0 4000.0 4000.0 4000.0 4000.0 4000.0 4000.0 4000.0 4000.0 4000.0 4000.0 4000.0 4000.0 4000.0 4000.0 4000.0 4000.0 4000.0 4000.0 4000.0 4000.0 4000.0 4000.0 4000.0 4000.0 4000.0 4000.0 4000.0 4000.0 4000.0 4000.0 4000.0 4000.0 4000.0 4000.0 4000.0 4000.0 4000.0 4000.0 4000.0 4000.0 4000.0 4000.0 4000.0 4000.0 4000.0 4000.0 4000.0 4000.0 4000.0 4000.0 4000.0 4000.0 4000.0 4000.0 4000.0 4000.0 4000.0 4000.0 4000.0 4000.0 4000.0 4000.0 4000.0 4000.0 4000.0 4000.0 4000.0 4000.0 4000.0 4000.0 4000.0 4000.0 4000.0 4000.0 4000.0 4000.0 4000.0 4000.0 4000.0 4000.0 4000.0 4000.0 4000.0 4000.0 4000.0 4000.0 4000.0 4000.0 4000.0 4000.0 4000.0 4000.0 4000.0 4000.0 4000.0 4000.0 4000.0 4000.0 4000.0 4000.0 4000.0 4000.0 4000.0 4000.0 4000.0 4000.0 4000.0 4000.0 4000.0 4000.0 4000.0 4000.0 4000.0 4000.0 4000.0 4000.0 4000.0 4000.0 4000.0 4000.0 4000.0 4000.0 4000.0 4000.0 4000.0 4000.0 4000.0 4000.0 4000.0 4000.0 4000.0 4000.0 4000.0 4000.0 4000.0 4000.0 4000.0 4000.0 4000.0 4000.0 4000.0 4000.0 4000.0 4000.0 4000.0 4000.0 4000.0 4000.0 4000.0 4000.0 4000.0 4000.0 4000.0 4000.0 4000.0 4000.0 4000.0 4000.0 4000.0 4000.0 4000.0 4000.0 4000.0 4000.0 4000.0 4000.0 4000.0 4000.0 4000.0 4000.0 4000.0 4000.0 4000.0 4000.0 4000.0 4000.0 4000.0 4000.0 4000.0 4000.0 4000.0 4000.0 4000.0 4000.0 4000.0 4000.0 4000.0 4000.0 4000.0 4000.0 4000.0 4000.0 4000.0 4000.0 4000.0 4000.0 4000.0 4000.0 4000.0 4000.0 4000.0 4000.0 4000.0 4000.0 4000.0 4000.0 4000.0 4000.0 4000.0 4000.0 4000.0 4000.0 4000.0 4000.0 4000.0 4000.0 4000.0 4000.0 4000.0 4000.0 4000.0 4000.0 4000.0 4000.0 4000.0 4000.0 4000.0 4000.0 4000.0 4000.0 4000.0 4000.0 4000.0 4000.0 4000.0 4000.0 4000.0 4000.0 4000.0 4000.0 4000.0 4000.0 4000.0 4000.0 4000.0 4000.0 4000.0 4000.0 4000.0 4000.0 4000.0 4000.0 4000.0 4000.0 4000.0 4000.0 4000.0 4000.0 4000.0 4000.0 4000.0 4000.0 4000.0 4000.0 4000.0 4000.0 4000.0 4000.0 4000.0 4000.0 4000.0 4000.0 4000.0 4000.0 4000.0 4000.0 4000.0 4000.0 4000.0 4000.0 4000.0 4000.0 4000.0 4000.0 4000.0 4000.0 4000.0 4000.0 4000.0 4000.0 4000.0 4000.0 4000.0 4000.0 4000.0 4000.0 4000.0 4000.0 4000.0 4000.0 4000.0 4000.0 4000.0 4000.0 4000.0 4000.0 4000.0 4000.0 4000.0 4000.0 4000.0 4000.0 4000.0 4000.0 4000.0 4000.0 4000.0 4000.0 4000.0 4000.0 4000.0 4000.0 4000.0 4000.0 4000.0 4000.0 4000.0 4000.0 4000.0 4000.0 4000.0 4000.0 4000.0 4000.0 4000.0 4000.0 4000.0 4000.0 4000.0 4000.0 4000.0 4000.0 4000.0 4000.0 4000.0 4000.0 4000.0 4000.0 4000.0 4000.0 4000.0 4000.0 4000.0 4000.0 4000.0 4000.0 4000.0 4000.0 4000.0 4000.0 4000.0 4000.0 4000.0 4000.0 4000.0 4000.0 4000.0 4000.0 4000.0 4000.0 4000.0 4000.0 4000.0 4000.0 4000.0 4000.0 4000.0 4000.0 4000.0 4000.0 4000.0 4000.0 4000.0 4000.0 4000.0 4000.0 4000.0 4000.0 4000.0 4000.0 4000.0 4000.0 4000.0 4000.0 4000.0 4000.0 4000.0 4000.0 4000.0 4000.0 4000.0 4000.0 4000.0 4000.0 4000.0 4000.0 4000.0 4000.0 4000.0 4000.0 4000.0 4000.0 4000.0 4000.0 4000.0 4000.0 4000.0 4000.0 4000.0 4000.0 4000.0 4000.0 4000.0 4000.0 4000.0 4000.0 4000.0 4000.0 4000.0 4000.0 4000.0 4000.0 4000.0 4000.0 4000.0 4000.0 4000.0 4000.0 4000.0 4000.0 4000.0 4000.0 4000.0 4000.0 4000.0 4000.0 4000.0 4000.0 4000.0 4000.0 4000.0 4000.0 4000.0 4000.0 4000.0 4000.0 4000.0 4000.0 4000.0 4000.0 4000.0 4000.0 4000.0 4000.0 4000.0 4000.0 4000.0 4000.0 4000.0 4000.0 4000.0 4000.0 4000.0 4000.0 4000.0 4000.0 4000.0 4000.0 4000.0 4000.0 4000.0 4000.0 4000.0 4000.0 4000.0 4000.0 4000.0 4000.0 4000.0 4000.0 4000.0 4000.0 4000.0 4000.0 4000.0 4000.0 4000.0 4000.0 4000.0 4000.0 4000.0 4000.0 4000.0 4000.0 4000.0 4000.0 4000.0 4000.0 4000.0 4000.0 4000.0 4000.0 4000.0 4000.0 4000.0 4000.0 4000.0 4000.0 4000.0 4000.0 4000.0 4000.0 4000.0 4000.0 4000.0 4000.0 4000.0 4000.0 4000.0 4000.0 4000.0 4000.0 4000.0 4000.0 4000.0 4000.0 4000.0 4000.0 4000.0 4000.0 4000.0 4000.0 4000.0 4000.0 4000.0 4000.0 4000.0 4000.0 4000.0 4000.0 4000.0 4000.0 4000.0 4000.0 4000.0 4000.0 4000.0 4000.0 4000.0 4000.0 4000.0 4000.0 4000.0 4000.0 4000.0 4000.0 4000.0 4000.0 4000.0 4000.0 4000.0 4000.0 4000.0 4000.0 4000.0 4000.0 4000.0 4000.0 4000.0 4000.0 4000.0 4000.0 4000.0 4000.0 4000.0 4000.0 4000.0 4000.0 4000.0 4000.0 4000.0 4000.0 4000.0 4000.0 4000.0 4000.0 4000.0 4000.0 4000.0 4000.0 4000.0 4000.0 4000.0 4000.0 4000.0 4000.0 4000.0 4000.0 4000.0 4000.0 4000.0 4000.0 4000.0 4000.0 4000.0 4000.0 4000.0 4000.0 4000.0 4000.0 4000.0 4000.0 4000.0 4000.0 4000.0 4000.0 4000.0 4000.0 4000.0 4000.0 4000.0 4000.0 4000.0 4000.0 4000.0 4000.0 4000.0 4000.0 4000.0 4000.0 4000.0 4000.0 4000.0 4000.0 4000.0 4000.0 4000.0 4000.0 4000.0 4000.0 4000.0 4000.0 4000.0 4000.0 4000.0 4000.0 4000.0 4000.0 4000.0 4000.0 4000.0 4000.0 4000.0 4000.0 4000.0 4000.0 4000.0 4000.0 4000.0 4000.0 4000.0 4000.0 4000.0 4000.0 4000.0 4000.0 4000.0 4000.0 4000.0 4000.0 4000.0 4000.0 4000.0 4000.0 4000.0 4000.0 4000.0 4000.0 4000.0 4000.0 4000.0 4000.0 4000.0 4000.0 4000.0 4000.0 4000.0 4000.0 4000.0 4000.0 4000.0 4000.0 4000.0 4000.0 4000.0 4000.0 4000.0 4000.0 4000.0 4000.0 4000.0 4000.0 4000.0 4000.0 4000.0 4000.0 4000.0 4000.0 4000.0 4000.0 4000.0 4000.0 4000.0 4000.0 4000.0 4000.0 4000.0 4000.0 4000.0 4000.0 4000.0 4000.0 4000.0 4000.0 4000.0 4000.0 4000.0 4000.0 4000.0 4000.0 4000.0 4000.0 4000.0 4000.0 4000.0 4000.0 4000.0 4000.0 4000.0 4000.0 4000.0 4000.0 4000.0 4000.0 4000.0 4000.0 4000.0 4000.0 4000.0 4000.0 4000.0 4000.0 4000.0 4000.0 4000.0 4000.0 4000.0 4000.0 4000.0 4000.0 4000.0 4000.0 4000.0 4000.0 4000.0 4000.0 4000.0 4000.0 4000.0 4000.0 4000.0 4000.0 4000.0 4000.0 4000.0 4000.0 4000.0 4000.0 4000.0 4000.0 4000.0 4000.0 4000.0 4000.0 4000.0 4000.0 4000.0 4000.0 4000.0 4000.0 4000.0 4000.0 4000.0 4000.0 4000.0 4000.0 4000.0 4000.0 4000.0 4000.0 4000.0 4000.0 4000.0 4000.0 4000.0 4000.0 4000.0 4000.0 4000.0 4000.0 4000.0 4000.0 4000.0 4000.0 4000.0 4000.0 4000.0 4000.0 4000.0 4000.0 4000.0 4000.0 4000.0 4000.0 4000.0 4000.0 4000.0 4000.0 4000.0 4000.0 4000.0 4000.0 4000.0 4000.0 4000.0 4000.0 4000.0 4000.0 4000.0 4000.0 4000.0 4000.0 4000.0 4000.0 4000.0 4000.0 4000.0 4000.0 4000.0 4000.0 4000.0 4000.0 4000.0 4000.0 4000.0 4000.0 4000.0 4000.0 4000.0 4000.0 4000.0 4000.0 4000.0 4000.0 4000.0 4000.0 4000.0 4000.0 4000.0 4000.0 4000.0 4000.0 4000.0 4000.0 4000.0 4000.0 4000.0 4000.0 4000.0 4000.0 4000.0 4000.0 4000.0 4000.0 4000.0 4000.0 4000.0 4000.0 4000.0 4000.0 4000.0 4000.0 4000.0 4000.0 4000.0 4000.0 4000.0 4000.0 4000.0 4000.0 4000.0 4000.0 4000.0 4000.0 4000.0 4000.0 4000.0 4000.0 4000.0 4000.0 4000.0 4000.0 4000.0 4000.0 4000.0 4000.0 4000.0 4000.0 4000.0 4000.0 4000.0 4000.0 4000.0 4000.0 4000.0 4000.0 4000.0 4000.0 4000.0 4000.0 4000.0 4000.0 4000.0 4000.0 4000.0 4000.0 4000.0 4000.0 4000.0 4000.0 4000.0 4000.0 4000.0 4000.0 4000.0 4000.0 4000.0 4000.0 4000.0 4000.0 4000.0 4000.0 4000.0 4000.0 4000.0 4000.0 4000.0 4000.0 4000.0 4000.0 4000.0 4000.0 4000.0 4000.0 4000.0 4000.0 4000.0 4000.0 4000.0 4000.0 4000.0 4000.0 4000.0 4000.0 4000.0 4000.0 4000.0 4000.0 4000.0 4000.0 4000.0 4000.0 4000.0 4000.0 4000.0 4000.0 4000.0 4000.0 4000.0 4000.0 4000.0 4000.0 4000.0 4000.0 4000.0 4000.0 4000.0 4000.0 4000.0 4000.0 4000.0 4000.0 4000.0 4000.0 4000.0 4000.0 4000.0 4000.0 4000.0 4000.0 4000.0 4000.0 4000.0 4000.0 4000.0 4000.0 4000.0 4000.0 4000.0 4000.0 4000.0 4000.0 4000.0 4000.0 4000.0 4000.0 4000.0 4000.0 4000.0 4000.0 4000.0 4000.0 4000.0 4000.0 4000.0 4000.0 4000.0 4000.0 4000.0 4000.0 4000.0 4000.0 4000.0 4000.0 4000.0 4000.0 4000.0 4000.0 4000.0 4000.0 4000.0 4000.0 4000.0 4000.0 4000.0 4000.0 4000.0 4000.0 4000.0 4000.0 4000.0 4000.0 4000.0 4000.0 4000.0 4000.0 4000.0 4000.0 4000.0 4000.0 4000.0 4000.0 4000.0 4000.0 4000.0 4000.0 4000.0 4000.0 4000.0 4000.0 4000.0 4000.0 4000.0 4000.0 4000.0 4000.0 4000.0 4000.0 4000.0 4000.0 4000.0 4000.0 4000.0 4000.0 4000.0 4000.0 4000.0 4000.0 4000.0 4000.0 4000.0 4000.0 4000.0 4000.0 4000.0 4000.0 4000.0 4000.0 4000.0 4000.0 4000.0 4000.0 4000.0 4000.0 4000.0 4000.0 4000.0 4000.0 4000.0 4000.0 4000.0 4000.0 4000.0 4000.0 4000.0 4000.0 4000.0 4000.0 4000.0 4000.0 4000.0 4000.0 4000.0 4000.0 4000.0 4000.0 4000.0 4000.0 4000.0 4000.0 4000.0 4000.0 4000.0 4000.0 4000.0 4000.0 4000.0 4000.0 4000.0 4000.0 4000.0 4000.0 4000.0 4000.0 4000.0 4000.0 4000.0 4000.0 4000.0 4000.0 4000.0 4000.0 4000.0 4000.0 4000.0 4000.0 4000.0 4000.0 4000.0 4000.0 4000.0 4000.0 4000.0 4000.0 4000.0 4000.0 4000.0 4000.0 4000.0 4000.0 4000.0 4000.0 4000.0 4000.0 4000.0 4000.0 4000.0 4000.0 4000.0 4000.0 4000.0 4000.0 4000.0 4000.0 4000.0 4000.0 4000.0 4000.0 4000.0 4000.0 4000.0 4000.0 4000.0 4000.0 4000.0 4000.0 4000.0 4000.0 4000.0 4000.0 4000.0 4000.0 4000.0 4000.0 4000.0 4000.0 4000.0 4000.0 4000.0 4000.0 4000.0 4000.0 4000.0 4000.0 4000.0 4000.0 4000.0 4000.0 4000.0 4000.0 4000.0 4000.0 4000.0 4000.0 4000.0 4000.0 4000.0 4000.0 4000.0 4000.0 4000.0 4000.0 4000.0 4000.0 4000.0 4000.0 4000.0 4000.0 4000.0 4000.0 4000.0 4000.0 4000.0 4000.0 4000.0 4000.0 4000.0 4000.0 4000.0 4000.0 4000.0 4000.0 4000.0 4000.0 4000.0 4000.0 4000.0 4000.0 4000.0 4000.0 4000.0 4000.0 4000.0 4000.0 4000.0 4000.0 4000.0 4000.0 4000.0 4000.0 4000.0 4000.0 4000.0 4000.0 4000.0 4000.0 4000.0 4000.0 4000.0 4000.0 4000.0 4000.0 4000.0 4000.0 4000.0 4000.0 4000.0 4000.0 4000.0 4000.0 4000.0 4000.0 4000.0 4000.0 4000.0 4000.0 4000.0 4000.0 4000.0 4000.0 4000.0 4000.0 4000.0 4000.0 4000.0 4000.0 4000.0 4000.0 4000.0 4000.0 4000.0 4000.0 4000.0 4000.0 4000.0 4000.0 4000.0 4000.0 4000.0 4000.0 4000.0 4000.0 4000.0 4000.0 4000.0 4000.0 4000.0 4000.0 4000.0 4000.0 4000.0 4000.0 4000.0 4000.0 4000.0 4000.0 4000.0 4000.0 4000.0 4000.0 4000.0 4000.0 4000.0 4000.0 4000.0 4000.0 4000.0 4000.0 4000.0 4000.0 4000.0 4000.0 4000.0 4000.0 4000.0 4000.0 4000.0 4000.0 4000.0 4000.0 4000.0 4000.0 4000.0 4000.0 4000.0 4000.0 4000.0 4000.0 4000.0 4000.0 4000.0 4000.0 4000.0 4000.0 4000.0 4000.0 4000.0 4000.0 4000.0 4000.0 4000.0 4000.0 4000.0 4000.0 4000.0 4000.0 4000.0 4000.0 4000.0 4000.0 4000.0 4000.0 4000.0 4000.0 4000.0 4000.0 4000.0 4000.0 4000.0 4000.0 4000.0 4000.0 4000.0 4000.0 4000.0 4000.0 4000.0 4000.0 4000.0 4000.0 4000.0 4000.0 4000.0 4000.0 4000.0 4000.0 4000.0 4000.0 4000.0 4000.0 4000.0 4000.0 4000.0 4000.0 4000.0 4000.0 4000.0 4000.0 4000.0 4000.0 4000.0 4000.0 4000.0 4000.0 4000.0 4000.0 4000.0 4000.0 4000.0 4000.0 4000.0 4000.0 4000.0 4000.0 4000.0 4000.0 4000.0 4000.0 4000.0 4000.0 4000.0 4000.0 4000.0 4000.0 4000.0 4000.0 4000.0 4000.0 4000.0 4000.0 4000.0 4000.0 4000.0 4000.0 4000.0 4000.0 4000.0 4000.0 4000.0 4000.0 4000.0 4000.0 4000.0 4000.0 4000.0 4000.0 4000.0 4000.0 4000.0 4000.0 4000.0 4000.0 4000.0 4000.0 4000.0 4000.0 4000.0 4000.0 4000.0 4000.0 4000.0 4000.0 4000.0 4000.0 4000.0 4000.0 4000.0 4000.0 4000.0 4000.0 4000.0 4000.0 4000.0 4000.0 4000.0 4000.0 4000.0 4000.0 4000.0 4000.0 4000.0 4000.0 4000.0 4000.0 4000.0 4000.0 4000.0 4000.0 4000.0 4000.0 4000.0 4000.0 4000.0 4000.0 4000.0 4000.0 4000.0 4000.0 4000.0 4000.0 4000.0 4000.0 4000.0 4000.0 4000.0 4000.0 4000.0 4000.0 4000.0 4000.0 4000.0 4000.0 4000.0 4000.0 4000.0 4000.0 4000.0 4000.0 4000.0 4000.0 4000.0 4000.0 4000.0 4000.0 4000.0 4000.0 4000.0 4000.0 4000.0 4000.0 4000.0 4000.0 4000.0 4000.0 4000.0 4000.0 4000.0 4000.0 4000.0 4000.0 4000.0 4000.0 4000.0 4000.0 4000.0 4000.0 4000.0 4000.0 4000.0 4000.0 4000.0 4000.0 4000.0 4000.0 4000.0 4000.0 4000.0 4000.0 4000.0 4000.0 4000.0 4000.0 4000.0 4000.0 4000.0 4000.0 4000.0 4000.0 4000.0 4000.0 4000.0 4000.0 4000.0 4000.0 4000.0 4000.0 4000.0 4000.0 4000.0 4000.0 4000.0 4000.0 4000.0 4000.0 4000.0 4000.0 4000.0 4000.0 4000.0 4000.0 4000.0 4000.0 4000.0 4000.0 4000.0 4000.0 4000.0 4000.0 4000.0 4000.0 4000.0 4000.0 4000.0 4000.0 4000.0 4000.0 4000.0 4000.0 4000.0 4000.0 4000.0 4000.0 4000.0 4000.0 4000.0 4000.0 4000.0 4000.0 4000.0 4000.0 4000.0 4000.0 4000.0 4000.0 4000.0 4000.0 4000.0 4000.0 4000.0 4000.0 4000.0 4000.0 4000.0 4000.0 4000.0 4000.0 4000.0 4000.0 4000.0 4000.0 4000.0 4000.0 4000.0 4000.0 4000.0 4000.0 4000.0 4000.0 4000.0 4000.0 4000.0 4000.0 4000.0 4000.0 4000.0 4000.0 4000.0 4000.0 4000.0 4000.0 4000.0 4000.0 4000.0 4000.0 4000.0 4000.0 4000.0 4000.0 4000.0 4000.0 4000.0 4000.0 4000.0 4000.0 4000.0 4000.0 4000.0 4000.0 4000.0 4000.0 4000.0 4000.0 4000.0 4000.0 4000.0 4000.0 4000.0 4000.0 4000.0 4000.0 4000.0 4000.0 4000.0 4000.0 4000.0 4000.0 4000.0 4000.0 4000.0 4000.0 4000.0 4000.0 4000.0 4000.0 4000.0 4000.0 4000.0 4000.0 4000.0 4000.0 4000.0 4000.0 4000.0 4000.0 4000.0 4000.0 4000.0 4000.0 4000.0 4000.0 4000.0 4000.0 4000.0 4000.0 4000.0 4000.0 4000.0 4000.0 4000.0 4000.0 4000.0 4000.0 4000.0 4000.0 4000.0 4000.0 4000.0 4000.0 4000.0 4000.0 4000.0 4000.0 4000.0 4000.0 4000.0 4000.0 4000.0 4000.0 4000.0 4000.0 4000.0 4000.0 4000.0 4000.0 4000.0 4000.0 4000.0 4000.0 4000.0 4000.0 4000.0 4000.0 4000.0 4000.0 4000.0 4000.0 4000.0 4000.0 4000.0 4000.0 4000.0 4000.0 4000.0 4000.0 4000.0 4000.0 4000.0 4000.0 4000.0 4000.0 4000.0 4000.0 4000.0 4000.0 4000.0 4000.0 4000.0 4000.0 4000.0 4000.0 4000.0 4000.0 4000.0 4000.0 4000.0 4000.0 4000.0 4000.0 4000.0 4000.0 4000.0 4000.0 4000.0 4000.0 4000.0 4000.0 4000.0 4000.0 4000.0 4000.0 4000.0 4000.0 4000.0 4000.0 4000.0 4000.0 4000.0 4000.0 4000.0 4000.0 4000.0 4000.0 4000.0 4000.0 4000.0 4000.0 4000.0 4000.0 4000.0 4000.0 4000.0 4000.0 4000.0 4000.0 4000.0 4000.0 4000.0 4000.0 4000.0 4000.0 4000.0 4000.0 4000.0 4000.0 4000.0 4000.0 4000.0 4000.0 4000.0 4000.0 4000.0 4000.0 4000.0 4000.0 4000.0 4000.0 4000.0 4000.0 4000.0 4000.0 4000.0 4000.0 4000.0 4000.0 4000.0 4000.0 4000.0 4000.0 4000.0 4000.0 4000.0 4000.0 4000.0 4000.0 4000.0 4000.0 4000.0 4000.0 4000.0 4000.0 4000.0 4000.0 4000.0 4000.0 4000.0 4000.0 4000.0 4000.0 4000.0 4000.0 4000.0 4000.0 4000.0 4000.0 4000.0 4000.0 4000.0 4000.0 4000.0 4000.0 4000.0 4000.0 4000.0 4000.0 4000.0 4000.0 4000.0 4000.0 4000.0 4000.0 4000.0 4000.0 4000.0 4000.0 4000.0 4000.0 4000.0 4000.0 4000.0 4000.0 4000.0 4000.0 4000.0 4000.0 4000.0 4000.0 4000.0 4000.0 4000.0 4000.0 4000.0 4000.0 4000.0 4000.0 4000.0 4000.0 4000.0 4000.0 4000.0 4000.0 4000.0 4000.0 4000.0 4000.0 4000.0 4000.0 4000.0 4000.0 4000.0 4000.0 4000.0 4000.0 4000.0 4000.0 4000.0 4000.0 4000.0 4000.0 4000.0 4000.0 4000.0 4000.0 4000.0 4000.0 4000.0 4000.0 4000.0 4000.0 4000.0 4000.0 4000.0 4000.0 4000.0 4000.0 4000.0 4000.0 4000.0 4000.0 4000.0 4000.0 4000.0 4000.0 4000.0 4000.0 4000.0 4000.0 4000.0 4000.0 4000.0 4000.0 4000.0 4000.0 4000.0 4000.0 4000.0 4000.0 4000.0 4000.0 4000.0 4000.0 4000.0 4000.0 4000.0 4000.0 4000.0 4000.0 4000.0 4000.0 4000.0 4000.0 4000.0 4000.0 4000.0 4000.0 4000.0 4000.0 4000.0 4000.0 4000.0 4000.0 4000.0 4000.0 4000.0 4000.0 4000.0 4000.0 4000.0 4000.0 4000.0 4000.0 4000.0 4000.0 4000.0 4000.0 4000.0 4000.0 4000.0 4000.0 4000.0 4000.0 4000.0 4000.0 4000.0 4000.0 4000.0 4000.0 4000.0 4000.0 4000.0 4000.0 4000.0 4000.0 4000.0 4000.0 4000.0 4000.0 4000.0 4000.0 4000.0 4000.0 4000.0 4000.0 4000.0 4000.0 4000.0 4000.0 4000.0 4000.0 4000.0 4000.0 4000.0 4000.0 4000.0 4000.0 4000.0 4000.0 4000.0 4000.0 4000.0 4000.0 4000.0 4000.0 4000.0 4000.0 4000.0 4000.0 4000.0 4000.0 4000.0 4000.0 4000.0 4000.0 4000.0 4000.0 4000.0 4000.0 4000.0 4000.0 4000.0 4000.0 4000.0 4000.0 4000.0 4000.0 4000.0 4000.0 4000.0 4000.0 4000.0 4000.0 4000.0 4000.0 4000.0 4000.0 4000.0 4000.0 4000.0 4000.0 4000.0 4000.0 4000.0 4000.0 4000.0 4000.0 4000.0 4000.0 4000.0 4000.0 4000.0 4000.0 4000.0 4000.0 4000.0 4000.0 4000.0 4000.0 4000.0 4000.0 4000.0 4000.0 4000.0 4000.0 4000.0 4000.0 4000.0 4000.0 4000.0 4000.0 4000.0 4000.0 4000.0 4000.0 4000.0 4000.0 4000.0 4000.0 4000.0 4000.0 4000.0 4000.0 4000.0 4000.0 4000.0 4000.0 4000.0 4000.0 4000.0 4000.0 4000.0 4000.0 4000.0 4000.0 4000.0 4000.0 4000.0 4000.0 4000.0 4000.0 4000.0 4000.0 4000.0 4000.0 4000.0 4000.0 4000.0 4000.0 4000.0 4000.0 4000.0 4000.0 4000.0 4000.0 4000.0 4000.0 4000.0 4000.0 4000.0 4000.0 4000.0 4000.0 4000.0 4000.0 4000.0 4000.0 4000.0 4000.0 4000.0 4000.0 4000.0 4000.0 4000.0 4000.0 4000.0 4000.0 4000.0 4000.0 4000.0 4000.0 4000.0 4000.0 4000.0 4000.0 4000.0 4000.0 4000.0 4000.0 4000.0 4000.0 4000.0 4000.0 4000.0 4000.0 4000.0 4000.0 4000.0 4000.0 4000.0 4000.0 4000.0 4000.0 4000.0 4000.0 4000.0 4000.0 4000.0 4000.0 4000.0 4000.0 4000.0 4000.0 4000.0 4000.0 4000.0 4000.0 4000.0 4000.0 4000.0 4000.0 4000.0 4000.0 4000.0 4000.0 4000.0 4000.0 4000.0 4000.0 4000.0 4000.0 4000.0 4000.0 4000.0 4000.0 4000.0 4000.0 4000.0 4000.0 4000.0 4000.0 4000.0 4000.0 4000.0 4000.0 4000.0 4000.0 4000.0 4000.0 4000.0 4000.0 4000.0 4000.0 4000.0 4000.0 4000.0 4000.0 4000.0 4000.0 4000.0 4000.0 4000.0 4000.0 4000.0 4000.0 4000.0 4000.0 4000.0 4000.0 4000.0 4000.0 4000.0 4000.0 4000.0 4000.0 4000.0 4000.0 4000.0 4000.0 4000.0 4000.0 4000.0 4000.0 4000.0 4000.0 4000.0 4000.0 4000.0 4000.0 4000.0 4000.0 4000.0 4000.0 4000.0 4000.0 4000.0 4000.0 4000.0 4000.0 4000.0 4000.0 4000.0 4000.0 4000.0 4000.0 4000.0 4000.0 4000.0 4000.0 4000.0 4000.0 4000.0 4000.0 4000.0 4000.0 4000.0 4000.0 4000.0 4000.0 4000.0 4000.0 4000.0 4000.0 4000.0 4000.0 4000.0 4000.0 4000.0 4000.0 4000.0 4000.0 4000.0 4000.0 4000.0 4000.0 4000.0 4000.0 4000.0 4000.0 4000.0 4000.0 4000.0 4000.0 4000.0 4000.0 4000.0 4000.0 4000.0 4000.0 4000.0 4000.0 4000.0 4000.0 4000.0 4000.0 4000.0 4000.0 4000.0 4000.0 4000.0 4000.0 4000.0 4000.0 4000.0 4000.0 4000.0 4000.0 4000.0 4000.0 4000.0 4000.0 4000.0 4000.0 4000.0 4000.0 4000.0 4000.0 4000.0 4000.0 4000.0 4000.0 4000.0 4000.0 4000.0 4000.0 4000.0 4000.0 4000.0 4000.0 4000.0 4000.0 4000.0 4000.0 4000.0 4000.0 4000.0 4000.0 4000.0 4000.0 4000.0 4000.0 4000.0 4000.0 4000.0 4000.0 4000.0 4000.0 4000.0 4000.0 4000.0 4000.0 4000.0 4000.0 4000.0 4000.0 4000.0 4000.0 4000.0 4000.0 4000.0 4000.0 4000.0 4000.0 4000.0 4000.0 4000.0 4000.0 4000.0 4000.0 4000.0 4000.0 4000.0 4000.0 4000.0 4000.0 4000.0 4000.0 4000.0 4000.0 4000.0 4000.0 4000.0 4000.0 4000.0 4000.0 4000.0 4000.0 4000.0 4000.0 4000.0 4000.0 4000.0 4000.0 4000.0 4000.0 4000.0 4000.0 4000.0 4000.0 4000.0 4000.0 4000.0 4000.0 4000.0 4000.0 4000.0 4000.0 4000.0 4000.0 4000.0 4000.0 4000.0 4000.0 4000.0 4000.0 4000.0 4000.0 4000.0 4000.0 4000.0 4000.0 4000.0 4000.0 4000.0 4000.0 4000.0 4000.0 4000.0 4000.0 4000.0 4000.0 4000.0 4000.0 4000.0 4000.0 4000.0 4000.0 4000.0 4000.0 4000.0 4000.0 4000.0 4000.0 4000.0 4000.0 4000.0 4000.0 4000.0 4000.0 4000.0 4000.0 4000.0 4000.0 4000.0 4000.0 4000.0 4000.0 4000.0 4000.0 4000.0 4000.0 4000.0 4000.0 4000.0 4000.0 4000.0 4000.0 4000.0 4000.0 4000.0 4000.0 4000.0 4000.0 4000.0 4000.0 4000.0 4000.0 4000.0 4000.0 4000.0 4000.0 4000.0 4000.0 4000.0 4000.0 4000.0 4000.0 4000.0 4000.0 4000.0 4000.0 4000.0 4000.0 4000.0 4000.0 4000.0 4000.0 4000.0 4000.0 4000.0 4000.0 4000.0 4000.0 4000.0 4000.0 4000.0 4000.0 4000.0 4000.0 4000.0 4000.0 4000.0 4000.0 4000.0 4000.0 4000.0 4000.0 4000.0 4000.0 4000.0 4000.0 4000.0 4000.0 4000.0 4000.0 4000.0 4000.0 4000.0 4000.0 4000.0 4000.0 4000.0 4000.0 4000.0 4000.0 4000.0 4000.0 4000.0 4000.0 4000.0 4000.0 4000.0 4000.0 4000.0 4000.0 4000.0 4000.0 4000.0 4000.0 4000.0 4000.0 4000.0 4000.0 4000.0 4000.0 4000.0 4000.0 4000.0 4000.0 4000.0 4000.0 4000.0 4000.0 4000.0 4000.0 4000.0 4000.0 4000.0 4000.0 4000.0 4000.0 4000.0 4000.0 4000.0 4000.0 4000.0 4000.0 4000.0 4000.0 4000.0 4000.0 4000.0 4000.0 4000.0 4000.0 4000.0 4000.0 4000.0 4000.0 4000.0 4000.0 4000.0 4000.0 4000.0 4000.0 4000.0 4000.0 4000.0 4000.0 4000.0 4000.0 4000.0 4000.0 4000.0 4000.0 4000.0 4000.0 4000.0 4000.0 4000.0 4000.0 4000.0 4000.0 4000.0 4000.0 4000.0 4000.0 4000.0 4000.0 4000.0 4000.0 4000.0 4000.0 4000.0 4000.0 4000.0 4000.0 4000.0 4000.0 4000.0 4000.0 4000.0 4000.0 4000.0 4000.0 4000.0 4000.0 4000.0 4000.0 4000.0 4000.0 4000.0 4000.0 4000.0 4000.0 4000.0 4000.0 4000.0 4000.0 4000.0 4000.0 4000.0 4000.0 4000.0 4000.0 4000.0 4000.0 4000.0 4000.0 4000.0 4000.0 4000.0 4000.0 4000.0 4000.0 4000.0 4000.0 4000.0 4000.0 4000.0 4000.0 4000.0 4000.0 4000.0 4000.0 4000.0 4000.0 4000.0 4000.0 4000.0 4000.0 4000.0 4000.0 4000.0 4000.0 4000.0 4000.0 4000.0 4000.0 4000.0 4000.0 4000.0 4000.0 4000.0 4000.0 4000.0 4000.0 4000.0 4000.0 4000.0 4000.0 4000.0 4000.0 4000.0 4000.0 4000.0 4000.0 4000.0 4000.0 4000.0 4000.0 4000.0 4000.0 4000.0 4000.0 4000.0 4000.0 4000.0 4000.0 4000.0 4000.0 4000.0 4000.0 4000.0 4000.0 4000.0 4000.0 4000.0 4000.0 4000.0 4000.0 4000.0 4000.0 4000.0 4000.0 4000.0 4000.0 4000.0 4000.0 4000.0 4000.0 4000.0 4000.0 4000.0 4000.0 4000.0 4000.0 4000.0 4000.0 4000.0 4000.0 4000.0 4000.0 4000.0 4000.0 4000.0 4000.0 4000.0 4000.0 4000.0 4000.0 4000.0 4000.0 4000.0 4000.0 4000.0 4000.0 4000.0 4000.0 4000.0 4000.0 4000.0 4000.0 4000.0 4000.0 4000.0 4000.0 4000.0 4000.0 4000.0 4000.0 4000.0 4000.0 4000.0 4000.0 4000.0 4000.0 4000.0 4000.0 4000.0 4000.0 4000.0 4000.0 4000.0 4000.0 4000.0 4000.0 4000.0 4000.0 4000.0 4000.0 4000.0 4000.0 4000.0 4000.0 4000.0 4000.0 4000.0 4000.0 4000.0 4000.0 4000.0 4000.0 4000.0 4000.0 4000.0 4000.0 4000.0 4000.0 4000.0 4000.0 4000.0 4000.0 4000.0 4000.0 4000.0 4000.0 4000.0 4000.0 4000.0 4000.0 4000.0 4000.0 4000.0 4000.0 4000.0 4000.0 4000.0 4000.0 4000.0 4000.0 4000.0 4000.0 4000.0 4000.0 4000.0 4000.0 4000.0 4000.0 4000.0 4000.0 4000.0 4000.0 4000.0 4000.0 4000.0 4000.0 4000.0 4000.0 4000.0 4000.0 4000.0 4000.0 4000.0 4000.0 4000.0 4000.0 4000.0 4000.0 4000.0 4000.0 4000.0 4000.0 4000.0 4000.0 4000.0 4000.0 4000.0 4000.0 4000.0 4000.0 4000.0 4000.0 4000.0 4000.0 4000.0 4000.0 4000.0 4000.0 4000.0 4000.0 4000.0 4000.0 4000.0 4000.0 4000.0 4000.0 4000.0 4000.0 4000.0 4000.0 4000.0 4000.0 4000.0 4000.0 4000.0 4000.0 4000.0 4000.0 4000.0 4000.0 4000.0 4000.0 4000.0 4000.0 4000.0 4000.0 4000.0 4000.0 4000.0 4000.0 4000.0 4000.0 4000.0 4000.0 4000.0 4000.0 4000.0 4000.0 4000.0 4000.0 4000.0 4000.0 4000.0 4000.0 4000.0 4000.0 4000.0 4000.0 4000.0 4000.0 4000.0 4000.0 4000.0 4000.0 4000.0 4000.0 4000.0 4000.0 4000.0 4000.0 4000.0 4000.0 4000.0 4000.0 4000.0 4000.0 4000.0 4000.0 4000.0 4000.0 4000.0 4000.0 4000.0 4000.0 4000.0 4000.0 4000.0 4000.0 4000.0 4000.0 4000.0 4000.0 4000.0 4000.0 4000.0 4000.0 4000.0 4000.0 4000.0 4000.0 4000.0 4000.0 4000.0 4000.0 4000.0 4000.0 4000.0 4000.0 4000.0 4000.0 4000.0 4000.0 4000.0 4000.0 4000.0 4000.0 4000.0 4000.0 4000.0 4000.0 4000.0 4000.0 4000.0 4000.0 4000.0 4000.0 4000.0 4000.0 4000.0 4000.0 4000.0 4000.0 4000.0 4000.0 4000.0 4000.0 4000.0 4000.0 4000.0 4000.0 4000.0 4000.0 4000.0 4000.0 4000.0 4000.0 4000.0 4000.0 4000.0 4000.0 4000.0 4000.0 4000.0 4000.0 4000.0 4000.0 4000.0 4000.0 4000.0 4000.0 4000.0 4000.0 4000.0 4000.0 4000.0 4000.0 4000.0 4000.0 4000.0 4000.0 4000.0 4000.0 4000.0 4000.0 4000.0 4000.0 4000.0 4000.0 4000.0 4000.0 4000.0 4000.0 4000.0 4000.0 4000.0 4000.0 4000.0 4000.0 4000.0 4000.0 4000.0 4000.0 4000.0 4000.0 4000.0 4000.0 4000.0 4000.0 4000.0 4000.0 4000.0 4000.0 4000.0 4000.0 4000.0 4000.0 4000.0 4000.0 4000.0 4000.0 4000.0 4000.0 4000.0 4000.0 4000.0 4000.0 4000.0 4000.0 4000.0 4000.0 4000.0 4000.0 4000.0 4000.0 4000.0 4000.0 4000.0 4000.0 4000.0 4000.0 4000.0 4000.0 4000.0 4000.0 4000.0 4000.0 4000.0 4000.0 4000.0 4000.0 4000.0 4000.0 4000.0 4000.0 4000.0 4000.0 4000.0 4000.0 4000.0 4000.0 4000.0 4000.0 4000.0 4000.0 4000.0 4000.0 4000.0 4000.0 4000.0 4000.0 4000.0 4000.0 4000.0 4000.0 4000.0 4000.0 4000.0 4000.0 4000.0 4000.0 4000.0 4000.0 4000.0 4000.0 4000.0 4000.0 4000.0 4000.0 4000.0 4000.0 4000.0 4000.0 4000.0 4000.0 4000.0 4000.0 4000.0 4000.0 4000.0 4000.0 4000.0 4000.0 4000.0 4000.0 4000.0 4000.0 4000.0 4000.0 4000.0 4000.0 4000.0 4000.0 4000.0 4000.0 4000.0 4000.0 4000.0 4000.0 4000.0 4000.0 4000.0 4000.0 4000.0 4000.0 4000.0 4000.0 4000.0 4000.0 4000.0 4000.0 4000.0 4000.0 4000.0 4000.0 4000.0 4000.0 4000.0 4000.0 4000.0 4000.0 4000.0 4000.0 4000.0 4000.0 4000.0 4000.0 4000.0 4000.0 4000.0 4000.0 4000.0 4000.0 4000.0 4000.0 4000.0 4000.0 4000.0 4000.0 4000.0 4000.0 4000.0 4000.0 4000.0 4000.0 4000.0 4000.0 4000.0 4000.0 4000.0 4000.0 4000.0 4000.0 4000.0 4000.0 4000.0 4000.0 4000.0 4000.0 4000.0 4000.0 4000.0 4000.0 4000.0 4000.0 4000.0 4000.0 4000.0 4000.0 4000.0 4000.0 4000.0 4000.0 4000.0 4000.0 4000.0 4000.0 4000.0 4000.0 4000.0 4000.0 4000.0 4000.0 4000.0 4000.0 4000.0 4000.0 4000.0 4000.0 4000.0 4000.0 4000.0 4000.0 4000.0 4000.0 4000.0 4000.0 4000.0 4000.0 4000.0 4000.0 4000.0 4000.0 4000.0 4000.0 4000.0 4000.0 4000.0 4000.0 4000.0 4000.0 4000.0 4000.0 4000.0 4000.0 4000.0 4000.0 4000.0 4000.0 4000.0 4000.0 4000.0 4000.0 4000.0 4000.0 4000.0 4000.0 4000.0 4000.0 4000.0 4000.0 4000.0 4000.0 4000.0 4000.0 4000.0 4000.0 4000.0 4000.0 4000.0 4000.0 4000.0 4000.0 4000.0 4000.0 4000.0 4000.0 4000.0 4000.0 4000.0 4000.0 4000.0 4000.0 4000.0 4000.0 4000.0 4000.0 4000.0 4000.0 4000.0 4000.0 4000.0 4000.0 4000.0 4000.0 4000.0 4000.0 4000.0 4000.0 4000.0 4000.0 4000.0 4000.0 4000.0 4000.0 4000.0 4000.0 4000.0 4000.0 4000.0 4000.0 4000.0 4000.0 4000.0 4000.0 4000.0 4000.0 4000.0 4000.0 4000.0 4000.0 4000.0 4000.0 4000.0 4000.0 4000.0 4000.0 4000.0 4000.0 4000.0 4000.0 4000.0 4000.0 4000.0 4000.0 4000.0 4000.0 4000.0 4000.0 4000.0 4000.0 4000.0 4000.0 4000.0 4000.0 4000.0 4000.0 4000.0 4000.0 4000.0 4000.0 4000.0 4000.0 4000.0 4000.0 4000.0 4000.0 4000.0 4000.0 4000.0 4000.0 4000.0 4000.0 4000.0 4000.0 4000.0 4000.0 4000.0 4000.0 4000.0 4000.0 4000.0 4000.0 4000.0 4000.0 4000.0 4000.0 4000.0 4000.0 4000.0 4000.0 4000.0 4000.0 4000.0 4000.0 4000.0 4000.0 4000.0 4000.0 4000.0 4000.0 4000.0 4000.0 4000.0 4000.0 4000.0 4000.0 4000.0 4000.0 4000.0 4000.0 4000.0 4000.0 4000.0 4000.0 4000.0 4000.0 4000.0 4000.0 4000.0 4000.0 4000.0 4000.0 4000.0 4000.0 4000.0 4000.0 4000.0 4000.0 4000.0 4000.0 4000.0 4000.0 4000.0 4000.0 4000.0 4000.0 4000.0 4000.0 4000.0 4000.0 4000.0 4000.0 4000.0 4000.0 4000.0 4000.0 4000.0 4000.0 4000.0 4000.0 4000.0 4000.0 4000.0 4000.0 4000.0 4000.0 4000.0 4000.0 4000.0 4000.0 4000.0 4000.0 4000.0 4000.0 4000.0 4000.0 4000.0 4000.0 4000.0 4000.0 4000.0 4000.0 4000.0 4000.0 4000.0 4000.0 4000.0 4000.0 4000.0 4000.0 4000.0 4000.0 4000.0 4000.0 4000.0 4000.0 4000.0 4000.0 4000.0 4000.0 4000.0 4000.0 4000.0 4000.0 4000.0 4000.0 4000.0 4000.0 4000.0 4000.0 4000.0 4000.0 4000.0 4000.0 4000.0 4000.0 4000.0 4000.0 4000.0 4000.0 4000.0 4000.0 4000.0 4000.0 4000.0 4000.0 4000.0 4000.0 4000.0 4000.0 4000.0 4000.0 4000.0 4000.0 4000.0 4000.0 4000.0 4000.0 4000.0 4000.0 4000.0 4000.0 4000.0 4000.0 4000.0 4000.0 4000.0 4000.0 4000.0 4000.0 4000.0 4000.0 4000.0 4000.0 4000.0 4000.0 4000.0 4000.0 4000.0 4000.0 4000.0 4000.0 4000.0 4000.0 4000.0 4000.0 4000.0 4000.0 4000.0 4000.0 4000.0 4000.0 4000.0 4000.0 4000.0 4000.0 4000.0 4000.0 4000.0 4000.0 4000.0 4000.0 4000.0 4000.0 4000.0 4000.0 4000.0 4000.0 4000.0 4000.0 4000.0 4000.0 4000.0 4000.0 4000.0 4000.0 4000.0 4000.0 4000.0 4000.0 4000.0 4000.0 4000.0 4000.0 4000.0 4000.0 4000.0 4000.0 4000.0 4000.0 4000.0 4000.0 4000.0 4000.0 4000.0 4000.0 4000.0 4000.0 4000.0 4000.0 4000.0 4000.0 4000.0 4000.0 4000.0 4000.0 4000.0 4000.0 4000.0 4000.0 4000.0 4000.0 4000.0 4000.0 4000.0 4000.0 4000.0 4000.0 4000.0 4000.0 4000.0 4000.0 4000.0 4000.0 4000.0 4000.0 4000.0 4000.0 4000.0 4000.0 4000.0 4000.0 4000.0 4000.0 4000.0 4000.0 4000.0 4000.0 4000.0 4000.0 4000.0 4000.0 4000.0 4000.0 4000.0 4000.0 4000.0 4000.0 4000.0 4000.0 4000.0 4000.0 4000.0 4000.0 4000.0 4000.0 4000.0 4000.0 4000.0 4000.0 4000.0 4000.0 4000.0 4000.0 4000.0 4000.0 4000.0 4000.0 4000.0 4000.0 4000.0 4000.0 4000.0 4000.0 4000.0 4000.0 4000.0 4000.0 4000.0 4000.0 4000.0 4000.0 4000.0 4000.0 4000.0 4000.0 4000.0 4000.0 4000.0 4000.0 4000.0 4000.0 4000.0 4000.0 4000.0 4000.0 4000.0 4000.0 4000.0 4000.0 4000.0 4000.0 4000.0 4000.0 4000.0 4000.0 4000.0 4000.0 4000.0 4000.0 4000.0 4000.0 4000.0 4000.0 4000.0 4000.0 4000.0 4000.0 4000.0 4000.0 4000.0 4000.0 4000.0 4000.0 4000.0 4000.0 4000.0 4000.0 4000.0 4000.0 4000.0 4000.0 4000.0 4000.0 4000.0 4000.0 4000.0 4000.0 4000.0 4000.0 4000.0 4000.0 4000.0 4000.0 4000.0 4000.0 4000.0 4000.0 4000.0 4000.0 4000.0 4000.0 4000.0 4000.0 4000.0 4000.0 4000.0 4000.0 4000.0 4000.0 4000.0 4000.0 4000.0 4000.0 4000.0 4000.0 4000.0 4000.0 4000.0 4000.0 4000.0 4000.0 4000.0 4000.0 4000.0 4000.0 4000.0 4000.0 4000.0 4000.0 4000.0 4000.0 4000.0 4000.0 4000.0 4000.0 4000.0 4000.0 4000.0 4000.0 4000.0 4000.0 4000.0 4000.0 4000.0 4000.0 4000.0 4000.0 4000.0 4000.0 4000.0 4000.0 4000.0 4000.0 4000.0 4000.0 4000.0 4000.0 4000.0 4000.0 4000.0 4000.0 4000.0 4000.0 4000.0 4000.0 4000.0 4000.0 4000.0 4000.0 4000.0 4000.0 4000.0 4000.0 4000.0 4000.0 SCALARS Mass float 1
LOOKUP_TABLE default
11309700000.0 11309700000.0 11309700000.0 11309700000.0 11309700000.0 11309700000.0 11309700000.0 11309700000.0 11309700000.0 11309700000.0 11309700000.0 11309700000.0 11309700000.0 11309700000.0 11309700000.0 11309700000.0 11309700000.0 11309700000.0 11309700000.0 11309700000.0 11309700000.0 11309700000.0 11309700000.0 11309700000.0 11309700000.0 11309700000.0 11309700000.0 11309700000.0 11309700000.0 11309700000.0 11309700000.0 11309700000.0 11309700000.0 11309700000.0 11309700000.0 11309700000.0 11309700000.0 11309700000.0 11309700000.0 11309700000.0 11309700000.0 11309700000.0 11309700000.0 11309700000.0 11309700000.0 11309700000.0 11309700000.0 11309700000.0 11309700000.0 11309700000.0 11309700000.0 11309700000.0 11309700000.0 11309700000.0 11309700000.0 11309700000.0 11309700000.0 11309700000.0 11309700000.0 11309700000.0 11309700000.0 11309700000.0 11309700000.0 11309700000.0 11309700000.0 11309700000.0 11309700000.0 11309700000.0 11309700000.0 11309700000.0 11309700000.0 11309700000.0 11309700000.0 11309700000.0 11309700000.0 11309700000.0 11309700000.0 11309700000.0 11309700000.0 11309700000.0 11309700000.0 11309700000.0 11309700000.0 11309700000.0 11309700000.0 11309700000.0 11309700000.0 11309700000.0 11309700000.0 11309700000.0 11309700000.0 11309700000.0 11309700000.0 11309700000.0 11309700000.0 11309700000.0 11309700000.0 11309700000.0 11309700000.0 11309700000.0 11309700000.0 11309700000.0 11309700000.0 11309700000.0 11309700000.0 11309700000.0 11309700000.0 11309700000.0 11309700000.0 11309700000.0 11309700000.0 11309700000.0 11309700000.0 11309700000.0 11309700000.0 11309700000.0 11309700000.0 11309700000.0 11309700000.0 11309700000.0 11309700000.0 11309700000.0 11309700000.0 11309700000.0 11309700000.0 11309700000.0 11309700000.0 11309700000.0 11309700000.0 11309700000.0 11309700000.0 11309700000.0 11309700000.0 11309700000.0 11309700000.0 11309700000.0 11309700000.0 11309700000.0 11309700000.0 11309700000.0 11309700000.0 11309700000.0 11309700000.0 11309700000.0 11309700000.0 11309700000.0 11309700000.0 11309700000.0 11309700000.0 11309700000.0 11309700000.0 11309700000.0 11309700000.0 11309700000.0 11309700000.0 11309700000.0 11309700000.0 11309700000.0 11309700000.0 11309700000.0 11309700000.0 11309700000.0 11309700000.0 11309700000.0 11309700000.0 11309700000.0 11309700000.0 11309700000.0 11309700000.0 11309700000.0 11309700000.0 11309700000.0 11309700000.0 11309700000.0 11309700000.0 11309700000.0 11309700000.0 11309700000.0 11309700000.0 11309700000.0 11309700000.0 11309700000.0 11309700000.0 11309700000.0 11309700000.0 11309700000.0 11309700000.0 11309700000.0 11309700000.0 11309700000.0 11309700000.0 11309700000.0 11309700000.0 11309700000.0 11309700000.0 11309700000.0 11309700000.0 11309700000.0 11309700000.0 11309700000.0 11309700000.0 11309700000.0 11309700000.0 11309700000.0 11309700000.0 11309700000.0 11309700000.0 11309700000.0 11309700000.0 11309700000.0 11309700000.0 11309700000.0 11309700000.0 11309700000.0 11309700000.0 11309700000.0 11309700000.0 11309700000.0 11309700000.0 11309700000.0 11309700000.0 11309700000.0 11309700000.0 11309700000.0 11309700000.0 11309700000.0 11309700000.0 11309700000.0 11309700000.0 11309700000.0 11309700000.0 11309700000.0 11309700000.0 11309700000.0 11309700000.0 11309700000.0 11309700000.0 11309700000.0 11309700000.0 11309700000.0 11309700000.0 11309700000.0 11309700000.0 11309700000.0 11309700000.0 11309700000.0 11309700000.0 11309700000.0 11309700000.0 11309700000.0 11309700000.0 11309700000.0 11309700000.0 11309700000.0 11309700000.0 11309700000.0 11309700000.0 11309700000.0 11309700000.0 11309700000.0 11309700000.0 11309700000.0 11309700000.0 11309700000.0 11309700000.0 11309700000.0 11309700000.0 11309700000.0 11309700000.0 11309700000.0 11309700000.0 11309700000.0 11309700000.0 11309700000.0 11309700000.0 11309700000.0 11309700000.0 11309700000.0 11309700000.0 11309700000.0 11309700000.0 11309700000.0 11309700000.0 11309700000.0 11309700000.0 11309700000.0 11309700000.0 11309700000.0 11309700000.0 11309700000.0 11309700000.0 11309700000.0 11309700000.0 11309700000.0 11309700000.0 11309700000.0 11309700000.0 11309700000.0 11309700000.0 11309700000.0 11309700000.0 11309700000.0 11309700000.0 11309700000.0 11309700000.0 11309700000.0 11309700000.0 11309700000.0 11309700000.0 11309700000.0 11309700000.0 11309700000.0 11309700000.0 11309700000.0 11309700000.0 11309700000.0 11309700000.0 11309700000.0 11309700000.0 11309700000.0 11309700000.0 11309700000.0 11309700000.0 11309700000.0 11309700000.0 11309700000.0 11309700000.0 11309700000.0 11309700000.0 11309700000.0 11309700000.0 11309700000.0 11309700000.0 11309700000.0 11309700000.0 11309700000.0 11309700000.0 11309700000.0 11309700000.0 11309700000.0 11309700000.0 11309700000.0 11309700000.0 11309700000.0 11309700000.0 11309700000.0 11309700000.0 11309700000.0 11309700000.0 11309700000.0 11309700000.0 11309700000.0 11309700000.0 11309700000.0 11309700000.0 11309700000.0 11309700000.0 11309700000.0 11309700000.0 11309700000.0 11309700000.0 11309700000.0 11309700000.0 11309700000.0 11309700000.0 11309700000.0 11309700000.0 11309700000.0 11309700000.0 11309700000.0 11309700000.0 11309700000.0 11309700000.0 11309700000.0 11309700000.0 11309700000.0 11309700000.0 11309700000.0 11309700000.0 11309700000.0 11309700000.0 11309700000.0 11309700000.0 11309700000.0 11309700000.0 11309700000.0 11309700000.0 11309700000.0 11309700000.0 11309700000.0 11309700000.0 11309700000.0 11309700000.0 11309700000.0 11309700000.0 11309700000.0 11309700000.0 11309700000.0 11309700000.0 11309700000.0 11309700000.0 11309700000.0 11309700000.0 11309700000.0 11309700000.0 11309700000.0 11309700000.0 11309700000.0 11309700000.0 11309700000.0 11309700000.0 11309700000.0 11309700000.0 11309700000.0 11309700000.0 11309700000.0 11309700000.0 11309700000.0 11309700000.0 11309700000.0 11309700000.0 11309700000.0 11309700000.0 11309700000.0 11309700000.0 11309700000.0 11309700000.0 11309700000.0 11309700000.0 11309700000.0 11309700000.0 11309700000.0 11309700000.0 11309700000.0 11309700000.0 11309700000.0 11309700000.0 11309700000.0 11309700000.0 11309700000.0 11309700000.0 11309700000.0 11309700000.0 11309700000.0 11309700000.0 11309700000.0 11309700000.0 11309700000.0 11309700000.0 11309700000.0 11309700000.0 11309700000.0 11309700000.0 11309700000.0 11309700000.0 11309700000.0 11309700000.0 11309700000.0 11309700000.0 11309700000.0 11309700000.0 11309700000.0 11309700000.0 11309700000.0 11309700000.0 11309700000.0 11309700000.0 11309700000.0 11309700000.0 11309700000.0 11309700000.0 11309700000.0 11309700000.0 11309700000.0 11309700000.0 11309700000.0 11309700000.0 11309700000.0 11309700000.0 11309700000.0 11309700000.0 11309700000.0 11309700000.0 11309700000.0 11309700000.0 11309700000.0 11309700000.0 11309700000.0 11309700000.0 11309700000.0 11309700000.0 11309700000.0 11309700000.0 11309700000.0 11309700000.0 11309700000.0 11309700000.0 11309700000.0 11309700000.0 11309700000.0 11309700000.0 11309700000.0 11309700000.0 11309700000.0 11309700000.0 11309700000.0 11309700000.0 11309700000.0 11309700000.0 11309700000.0 11309700000.0 11309700000.0 11309700000.0 11309700000.0 11309700000.0 11309700000.0 11309700000.0 11309700000.0 11309700000.0 11309700000.0 11309700000.0 11309700000.0 11309700000.0 11309700000.0 11309700000.0 11309700000.0 11309700000.0 11309700000.0 11309700000.0 11309700000.0 11309700000.0 11309700000.0 11309700000.0 11309700000.0 11309700000.0 11309700000.0 11309700000.0 11309700000.0 11309700000.0 11309700000.0 11309700000.0 11309700000.0 11309700000.0 11309700000.0 11309700000.0 11309700000.0 11309700000.0 11309700000.0 11309700000.0 11309700000.0 11309700000.0 11309700000.0 11309700000.0 11309700000.0 11309700000.0 11309700000.0 11309700000.0 11309700000.0 11309700000.0 11309700000.0 11309700000.0 11309700000.0 11309700000.0 11309700000.0 11309700000.0 11309700000.0 11309700000.0 11309700000.0 11309700000.0 11309700000.0 11309700000.0 11309700000.0 11309700000.0 11309700000.0 11309700000.0 11309700000.0 11309700000.0 11309700000.0 11309700000.0 11309700000.0 11309700000.0 11309700000.0 11309700000.0 11309700000.0 11309700000.0 11309700000.0 11309700000.0 11309700000.0 11309700000.0 11309700000.0 11309700000.0 11309700000.0 11309700000.0 11309700000.0 11309700000.0 11309700000.0 11309700000.0 11309700000.0 11309700000.0 11309700000.0 11309700000.0 11309700000.0 11309700000.0 11309700000.0 11309700000.0 11309700000.0 11309700000.0 11309700000.0 11309700000.0 11309700000.0 11309700000.0 11309700000.0 11309700000.0 11309700000.0 11309700000.0 11309700000.0 11309700000.0 11309700000.0 11309700000.0 11309700000.0 11309700000.0 11309700000.0 11309700000.0 11309700000.0 11309700000.0 11309700000.0 11309700000.0 11309700000.0 11309700000.0 11309700000.0 11309700000.0 11309700000.0 11309700000.0 11309700000.0 11309700000.0 11309700000.0 11309700000.0 11309700000.0 11309700000.0 11309700000.0 11309700000.0 11309700000.0 11309700000.0 11309700000.0 11309700000.0 11309700000.0 11309700000.0 11309700000.0 11309700000.0 11309700000.0 11309700000.0 11309700000.0 11309700000.0 11309700000.0 11309700000.0 11309700000.0 11309700000.0 11309700000.0 11309700000.0 11309700000.0 11309700000.0 11309700000.0 11309700000.0 11309700000.0 11309700000.0 11309700000.0 11309700000.0 11309700000.0 11309700000.0 11309700000.0 11309700000.0 11309700000.0 11309700000.0 11309700000.0 11309700000.0 11309700000.0 11309700000.0 11309700000.0 11309700000.0 11309700000.0 11309700000.0 11309700000.0 11309700000.0 11309700000.0 11309700000.0 11309700000.0 11309700000.0 11309700000.0 11309700000.0 11309700000.0 11309700000.0 11309700000.0 11309700000.0 11309700000.0 11309700000.0 11309700000.0 11309700000.0 11309700000.0 11309700000.0 11309700000.0 11309700000.0 11309700000.0 11309700000.0 11309700000.0 11309700000.0 11309700000.0 11309700000.0 11309700000.0 11309700000.0 11309700000.0 11309700000.0 11309700000.0 11309700000.0 11309700000.0 11309700000.0 11309700000.0 11309700000.0 11309700000.0 11309700000.0 11309700000.0 11309700000.0 11309700000.0 11309700000.0 11309700000.0 11309700000.0 11309700000.0 11309700000.0 11309700000.0 11309700000.0 11309700000.0 11309700000.0 11309700000.0 11309700000.0 11309700000.0 11309700000.0 11309700000.0 11309700000.0 11309700000.0 11309700000.0 11309700000.0 11309700000.0 11309700000.0 11309700000.0 11309700000.0 11309700000.0 11309700000.0 11309700000.0 11309700000.0 11309700000.0 11309700000.0 11309700000.0 11309700000.0 11309700000.0 11309700000.0 11309700000.0 11309700000.0 11309700000.0 11309700000.0 11309700000.0 11309700000.0 11309700000.0 11309700000.0 11309700000.0 11309700000.0 11309700000.0 11309700000.0 11309700000.0 11309700000.0 11309700000.0 11309700000.0 11309700000.0 11309700000.0 11309700000.0 11309700000.0 11309700000.0 11309700000.0 11309700000.0 11309700000.0 11309700000.0 11309700000.0 11309700000.0 11309700000.0 11309700000.0 11309700000.0 11309700000.0 11309700000.0 11309700000.0 11309700000.0 11309700000.0 11309700000.0 11309700000.0 11309700000.0 11309700000.0 11309700000.0 11309700000.0 11309700000.0 11309700000.0 11309700000.0 11309700000.0 11309700000.0 11309700000.0 11309700000.0 11309700000.0 11309700000.0 11309700000.0 11309700000.0 11309700000.0 11309700000.0 11309700000.0 11309700000.0 11309700000.0 11309700000.0 11309700000.0 11309700000.0 11309700000.0 11309700000.0 11309700000.0 11309700000.0 11309700000.0 11309700000.0 11309700000.0 11309700000.0 11309700000.0 11309700000.0 11309700000.0 11309700000.0 11309700000.0 11309700000.0 11309700000.0 11309700000.0 11309700000.0 11309700000.0 11309700000.0 11309700000.0 11309700000.0 11309700000.0 11309700000.0 11309700000.0 11309700000.0 11309700000.0 11309700000.0 11309700000.0 11309700000.0 11309700000.0 11309700000.0 11309700000.0 11309700000.0 11309700000.0 11309700000.0 11309700000.0 11309700000.0 11309700000.0 11309700000.0 11309700000.0 11309700000.0 11309700000.0 11309700000.0 11309700000.0 11309700000.0 11309700000.0 11309700000.0 11309700000.0 11309700000.0 11309700000.0 11309700000.0 11309700000.0 11309700000.0 11309700000.0 11309700000.0 11309700000.0 11309700000.0 11309700000.0 11309700000.0 11309700000.0 11309700000.0 11309700000.0 11309700000.0 11309700000.0 11309700000.0 11309700000.0 11309700000.0 11309700000.0 11309700000.0 11309700000.0 11309700000.0 11309700000.0 11309700000.0 11309700000.0 11309700000.0 11309700000.0 11309700000.0 11309700000.0 11309700000.0 11309700000.0 11309700000.0 11309700000.0 11309700000.0 11309700000.0 11309700000.0 11309700000.0 11309700000.0 11309700000.0 11309700000.0 11309700000.0 11309700000.0 11309700000.0 11309700000.0 11309700000.0 11309700000.0 11309700000.0 11309700000.0 11309700000.0 11309700000.0 11309700000.0 11309700000.0 11309700000.0 11309700000.0 11309700000.0 11309700000.0 11309700000.0 11309700000.0 11309700000.0 11309700000.0 11309700000.0 11309700000.0 11309700000.0 11309700000.0 11309700000.0 11309700000.0 11309700000.0 11309700000.0 11309700000.0 11309700000.0 11309700000.0 11309700000.0 11309700000.0 11309700000.0 11309700000.0 11309700000.0 11309700000.0 11309700000.0 11309700000.0 11309700000.0 11309700000.0 11309700000.0 11309700000.0 11309700000.0 11309700000.0 11309700000.0 11309700000.0 11309700000.0 11309700000.0 11309700000.0 11309700000.0 11309700000.0 11309700000.0 11309700000.0 11309700000.0 11309700000.0 11309700000.0 11309700000.0 11309700000.0 11309700000.0 11309700000.0 11309700000.0 11309700000.0 11309700000.0 11309700000.0 11309700000.0 11309700000.0 11309700000.0 11309700000.0 11309700000.0 11309700000.0 11309700000.0 11309700000.0 11309700000.0 11309700000.0 11309700000.0 11309700000.0 11309700000.0 11309700000.0 11309700000.0 11309700000.0 11309700000.0 11309700000.0 11309700000.0 11309700000.0 11309700000.0 11309700000.0 11309700000.0 11309700000.0 11309700000.0 11309700000.0 11309700000.0 11309700000.0 11309700000.0 11309700000.0 11309700000.0 11309700000.0 11309700000.0 11309700000.0 11309700000.0 11309700000.0 11309700000.0 11309700000.0 11309700000.0 11309700000.0 11309700000.0 11309700000.0 11309700000.0 11309700000.0 11309700000.0 11309700000.0 11309700000.0 11309700000.0 11309700000.0 11309700000.0 11309700000.0 11309700000.0 11309700000.0 11309700000.0 11309700000.0 11309700000.0 11309700000.0 11309700000.0 11309700000.0 11309700000.0 11309700000.0 11309700000.0 11309700000.0 11309700000.0 11309700000.0 11309700000.0 11309700000.0 11309700000.0 11309700000.0 11309700000.0 11309700000.0 11309700000.0 11309700000.0 11309700000.0 11309700000.0 11309700000.0 11309700000.0 11309700000.0 11309700000.0 11309700000.0 11309700000.0 11309700000.0 11309700000.0 11309700000.0 11309700000.0 11309700000.0 11309700000.0 11309700000.0 11309700000.0 11309700000.0 11309700000.0 11309700000.0 11309700000.0 11309700000.0 11309700000.0 11309700000.0 11309700000.0 11309700000.0 11309700000.0 11309700000.0 11309700000.0 11309700000.0 11309700000.0 11309700000.0 11309700000.0 11309700000.0 11309700000.0 11309700000.0 11309700000.0 11309700000.0 11309700000.0 11309700000.0 11309700000.0 11309700000.0 11309700000.0 11309700000.0 11309700000.0 11309700000.0 11309700000.0 11309700000.0 11309700000.0 11309700000.0 11309700000.0 11309700000.0 11309700000.0 11309700000.0 11309700000.0 11309700000.0 11309700000.0 11309700000.0 11309700000.0 11309700000.0 11309700000.0 11309700000.0 11309700000.0 11309700000.0 11309700000.0 11309700000.0 11309700000.0 11309700000.0 11309700000.0 11309700000.0 11309700000.0 11309700000.0 11309700000.0 11309700000.0 11309700000.0 11309700000.0 11309700000.0 11309700000.0 11309700000.0 11309700000.0 11309700000.0 11309700000.0 11309700000.0 11309700000.0 11309700000.0 11309700000.0 11309700000.0 11309700000.0 11309700000.0 11309700000.0 11309700000.0 11309700000.0 11309700000.0 11309700000.0 11309700000.0 11309700000.0 11309700000.0 11309700000.0 11309700000.0 11309700000.0 11309700000.0 11309700000.0 11309700000.0 11309700000.0 11309700000.0 11309700000.0 11309700000.0 11309700000.0 11309700000.0 11309700000.0 11309700000.0 11309700000.0 11309700000.0 11309700000.0 11309700000.0 11309700000.0 11309700000.0 11309700000.0 11309700000.0 11309700000.0 11309700000.0 11309700000.0 11309700000.0 11309700000.0 11309700000.0 11309700000.0 11309700000.0 11309700000.0 11309700000.0 11309700000.0 11309700000.0 11309700000.0 11309700000.0 11309700000.0 11309700000.0 11309700000.0 11309700000.0 11309700000.0 11309700000.0 11309700000.0 11309700000.0 11309700000.0 11309700000.0 11309700000.0 11309700000.0 11309700000.0 11309700000.0 11309700000.0 11309700000.0 11309700000.0 11309700000.0 11309700000.0 11309700000.0 11309700000.0 11309700000.0 11309700000.0 11309700000.0 11309700000.0 11309700000.0 11309700000.0 11309700000.0 11309700000.0 11309700000.0 11309700000.0 11309700000.0 11309700000.0 11309700000.0 11309700000.0 11309700000.0 11309700000.0 11309700000.0 11309700000.0 11309700000.0 11309700000.0 11309700000.0 11309700000.0 11309700000.0 11309700000.0 11309700000.0 11309700000.0 11309700000.0 11309700000.0 11309700000.0 11309700000.0 11309700000.0 11309700000.0 11309700000.0 11309700000.0 11309700000.0 11309700000.0 11309700000.0 11309700000.0 11309700000.0 11309700000.0 11309700000.0 11309700000.0 11309700000.0 11309700000.0 11309700000.0 11309700000.0 11309700000.0 11309700000.0 11309700000.0 11309700000.0 11309700000.0 11309700000.0 11309700000.0 11309700000.0 11309700000.0 11309700000.0 11309700000.0 11309700000.0 11309700000.0 11309700000.0 11309700000.0 11309700000.0 11309700000.0 11309700000.0 11309700000.0 11309700000.0 11309700000.0 11309700000.0 11309700000.0 11309700000.0 11309700000.0 11309700000.0 11309700000.0 11309700000.0 11309700000.0 11309700000.0 11309700000.0 11309700000.0 11309700000.0 11309700000.0 11309700000.0 11309700000.0 11309700000.0 11309700000.0 11309700000.0 11309700000.0 11309700000.0 11309700000.0 11309700000.0 11309700000.0 11309700000.0 11309700000.0 11309700000.0 11309700000.0 11309700000.0 11309700000.0 11309700000.0 11309700000.0 11309700000.0 11309700000.0 11309700000.0 11309700000.0 11309700000.0 11309700000.0 11309700000.0 11309700000.0 11309700000.0 11309700000.0 11309700000.0 11309700000.0 11309700000.0 11309700000.0 11309700000.0 11309700000.0 11309700000.0 11309700000.0 11309700000.0 11309700000.0 11309700000.0 11309700000.0 11309700000.0 11309700000.0 11309700000.0 11309700000.0 11309700000.0 11309700000.0 11309700000.0 11309700000.0 11309700000.0 11309700000.0 11309700000.0 11309700000.0 11309700000.0 11309700000.0 11309700000.0 11309700000.0 11309700000.0 11309700000.0 11309700000.0 11309700000.0 11309700000.0 11309700000.0 11309700000.0 11309700000.0 11309700000.0 11309700000.0 11309700000.0 11309700000.0 11309700000.0 11309700000.0 11309700000.0 11309700000.0 11309700000.0 11309700000.0 11309700000.0 11309700000.0 11309700000.0 11309700000.0 11309700000.0 11309700000.0 11309700000.0 11309700000.0 11309700000.0 11309700000.0 11309700000.0 11309700000.0 11309700000.0 11309700000.0 11309700000.0 11309700000.0 11309700000.0 11309700000.0 11309700000.0 11309700000.0 11309700000.0 11309700000.0 11309700000.0 11309700000.0 11309700000.0 11309700000.0 11309700000.0 11309700000.0 11309700000.0 11309700000.0 11309700000.0 11309700000.0 11309700000.0 11309700000.0 11309700000.0 11309700000.0 11309700000.0 11309700000.0 11309700000.0 11309700000.0 11309700000.0 11309700000.0 11309700000.0 11309700000.0 11309700000.0 11309700000.0 11309700000.0 11309700000.0 11309700000.0 11309700000.0 11309700000.0 11309700000.0 11309700000.0 11309700000.0 11309700000.0 11309700000.0 11309700000.0 11309700000.0 11309700000.0 11309700000.0 11309700000.0 11309700000.0 11309700000.0 11309700000.0 11309700000.0 11309700000.0 11309700000.0 11309700000.0 11309700000.0 11309700000.0 11309700000.0 11309700000.0 11309700000.0 11309700000.0 11309700000.0 11309700000.0 11309700000.0 11309700000.0 11309700000.0 11309700000.0 11309700000.0 11309700000.0 11309700000.0 11309700000.0 11309700000.0 11309700000.0 11309700000.0 11309700000.0 11309700000.0 11309700000.0 11309700000.0 11309700000.0 11309700000.0 11309700000.0 11309700000.0 11309700000.0 11309700000.0 11309700000.0 11309700000.0 11309700000.0 11309700000.0 11309700000.0 11309700000.0 11309700000.0 11309700000.0 11309700000.0 11309700000.0 11309700000.0 11309700000.0 11309700000.0 11309700000.0 11309700000.0 11309700000.0 11309700000.0 11309700000.0 11309700000.0 11309700000.0 11309700000.0 11309700000.0 11309700000.0 11309700000.0 11309700000.0 11309700000.0 11309700000.0 11309700000.0 11309700000.0 11309700000.0 11309700000.0 11309700000.0 11309700000.0 11309700000.0 11309700000.0 11309700000.0 11309700000.0 11309700000.0 11309700000.0 11309700000.0 11309700000.0 11309700000.0 11309700000.0 11309700000.0 11309700000.0 11309700000.0 11309700000.0 11309700000.0 11309700000.0 11309700000.0 11309700000.0 11309700000.0 11309700000.0 11309700000.0 11309700000.0 11309700000.0 11309700000.0 11309700000.0 11309700000.0 11309700000.0 11309700000.0 11309700000.0 11309700000.0 11309700000.0 11309700000.0 11309700000.0 11309700000.0 11309700000.0 11309700000.0 11309700000.0 11309700000.0 11309700000.0 11309700000.0 11309700000.0 11309700000.0 11309700000.0 11309700000.0 11309700000.0 11309700000.0 11309700000.0 11309700000.0 11309700000.0 11309700000.0 11309700000.0 11309700000.0 11309700000.0 11309700000.0 11309700000.0 11309700000.0 11309700000.0 11309700000.0 11309700000.0 11309700000.0 11309700000.0 11309700000.0 11309700000.0 11309700000.0 11309700000.0 11309700000.0 11309700000.0 11309700000.0 11309700000.0 11309700000.0 11309700000.0 11309700000.0 11309700000.0 11309700000.0 11309700000.0 11309700000.0 11309700000.0 11309700000.0 11309700000.0 11309700000.0 11309700000.0 11309700000.0 11309700000.0 11309700000.0 11309700000.0 11309700000.0 11309700000.0 11309700000.0 11309700000.0 11309700000.0 11309700000.0 11309700000.0 11309700000.0 11309700000.0 11309700000.0 11309700000.0 11309700000.0 11309700000.0 11309700000.0 11309700000.0 11309700000.0 11309700000.0 11309700000.0 11309700000.0 11309700000.0 11309700000.0 11309700000.0 11309700000.0 11309700000.0 11309700000.0 11309700000.0 11309700000.0 11309700000.0 11309700000.0 11309700000.0 11309700000.0 11309700000.0 11309700000.0 11309700000.0 11309700000.0 11309700000.0 11309700000.0 11309700000.0 11309700000.0 11309700000.0 11309700000.0 11309700000.0 11309700000.0 11309700000.0 11309700000.0 11309700000.0 11309700000.0 11309700000.0 11309700000.0 11309700000.0 11309700000.0 11309700000.0 11309700000.0 11309700000.0 11309700000.0 11309700000.0 11309700000.0 11309700000.0 11309700000.0 11309700000.0 11309700000.0 11309700000.0 11309700000.0 11309700000.0 11309700000.0 11309700000.0 11309700000.0 11309700000.0 11309700000.0 11309700000.0 11309700000.0 11309700000.0 11309700000.0 11309700000.0 11309700000.0 11309700000.0 11309700000.0 11309700000.0 11309700000.0 11309700000.0 11309700000.0 11309700000.0 11309700000.0 11309700000.0 11309700000.0 11309700000.0 11309700000.0 11309700000.0 11309700000.0 11309700000.0 11309700000.0 11309700000.0 11309700000.0 11309700000.0 11309700000.0 11309700000.0 11309700000.0 11309700000.0 11309700000.0 11309700000.0 11309700000.0 11309700000.0 11309700000.0 11309700000.0 11309700000.0 11309700000.0 11309700000.0 11309700000.0 11309700000.0 11309700000.0 11309700000.0 11309700000.0 11309700000.0 11309700000.0 11309700000.0 11309700000.0 11309700000.0 11309700000.0 11309700000.0 11309700000.0 11309700000.0 11309700000.0 11309700000.0 11309700000.0 11309700000.0 11309700000.0 11309700000.0 11309700000.0 11309700000.0 11309700000.0 11309700000.0 11309700000.0 11309700000.0 11309700000.0 11309700000.0 11309700000.0 11309700000.0 11309700000.0 11309700000.0 11309700000.0 11309700000.0 11309700000.0 11309700000.0 11309700000.0 11309700000.0 11309700000.0 11309700000.0 11309700000.0 11309700000.0 11309700000.0 11309700000.0 11309700000.0 11309700000.0 11309700000.0 11309700000.0 11309700000.0 11309700000.0 11309700000.0 11309700000.0 11309700000.0 11309700000.0 11309700000.0 11309700000.0 11309700000.0 11309700000.0 11309700000.0 11309700000.0 11309700000.0 11309700000.0 11309700000.0 11309700000.0 11309700000.0 11309700000.0 11309700000.0 11309700000.0 11309700000.0 11309700000.0 11309700000.0 11309700000.0 11309700000.0 11309700000.0 11309700000.0 11309700000.0 11309700000.0 11309700000.0 11309700000.0 11309700000.0 11309700000.0 11309700000.0 11309700000.0 11309700000.0 11309700000.0 11309700000.0 11309700000.0 11309700000.0 11309700000.0 11309700000.0 11309700000.0 11309700000.0 11309700000.0 11309700000.0 11309700000.0 11309700000.0 11309700000.0 11309700000.0 11309700000.0 11309700000.0 11309700000.0 11309700000.0 11309700000.0 11309700000.0 11309700000.0 11309700000.0 11309700000.0 11309700000.0 11309700000.0 11309700000.0 11309700000.0 11309700000.0 11309700000.0 11309700000.0 11309700000.0 11309700000.0 11309700000.0 11309700000.0 11309700000.0 11309700000.0 11309700000.0 11309700000.0 11309700000.0 11309700000.0 11309700000.0 11309700000.0 11309700000.0 11309700000.0 11309700000.0 11309700000.0 11309700000.0 11309700000.0 11309700000.0 11309700000.0 11309700000.0 11309700000.0 11309700000.0 11309700000.0 11309700000.0 11309700000.0 11309700000.0 11309700000.0 11309700000.0 11309700000.0 11309700000.0 11309700000.0 11309700000.0 11309700000.0 11309700000.0 11309700000.0 11309700000.0 11309700000.0 11309700000.0 11309700000.0 11309700000.0 11309700000.0 11309700000.0 11309700000.0 11309700000.0 11309700000.0 11309700000.0 11309700000.0 11309700000.0 11309700000.0 11309700000.0 11309700000.0 11309700000.0 11309700000.0 11309700000.0 11309700000.0 11309700000.0 11309700000.0 11309700000.0 11309700000.0 11309700000.0 11309700000.0 11309700000.0 11309700000.0 11309700000.0 11309700000.0 11309700000.0 11309700000.0 11309700000.0 11309700000.0 11309700000.0 11309700000.0 11309700000.0 11309700000.0 11309700000.0 11309700000.0 11309700000.0 11309700000.0 11309700000.0 11309700000.0 11309700000.0 11309700000.0 11309700000.0 11309700000.0 11309700000.0 11309700000.0 11309700000.0 11309700000.0 11309700000.0 11309700000.0 11309700000.0 11309700000.0 11309700000.0 11309700000.0 11309700000.0 11309700000.0 11309700000.0 11309700000.0 11309700000.0 11309700000.0 11309700000.0 11309700000.0 11309700000.0 11309700000.0 11309700000.0 11309700000.0 11309700000.0 11309700000.0 11309700000.0 11309700000.0 11309700000.0 11309700000.0 11309700000.0 11309700000.0 11309700000.0 11309700000.0 11309700000.0 11309700000.0 11309700000.0 11309700000.0 11309700000.0 11309700000.0 11309700000.0 11309700000.0 11309700000.0 11309700000.0 11309700000.0 11309700000.0 11309700000.0 11309700000.0 11309700000.0 11309700000.0 11309700000.0 11309700000.0 11309700000.0 11309700000.0 11309700000.0 11309700000.0 11309700000.0 11309700000.0 11309700000.0 11309700000.0 11309700000.0 11309700000.0 11309700000.0 11309700000.0 11309700000.0 11309700000.0 11309700000.0 11309700000.0 11309700000.0 11309700000.0 11309700000.0 11309700000.0 11309700000.0 11309700000.0 11309700000.0 11309700000.0 11309700000.0 11309700000.0 11309700000.0 11309700000.0 11309700000.0 11309700000.0 11309700000.0 11309700000.0 11309700000.0 11309700000.0 11309700000.0 11309700000.0 11309700000.0 11309700000.0 11309700000.0 11309700000.0 11309700000.0 11309700000.0 11309700000.0 11309700000.0 11309700000.0 11309700000.0 11309700000.0 11309700000.0 11309700000.0 11309700000.0 11309700000.0 11309700000.0 11309700000.0 11309700000.0 11309700000.0 11309700000.0 11309700000.0 11309700000.0 11309700000.0 11309700000.0 11309700000.0 11309700000.0 11309700000.0 11309700000.0 11309700000.0 11309700000.0 11309700000.0 11309700000.0 11309700000.0 11309700000.0 11309700000.0 11309700000.0 11309700000.0 11309700000.0 11309700000.0 11309700000.0 11309700000.0 11309700000.0 11309700000.0 11309700000.0 11309700000.0 11309700000.0 11309700000.0 11309700000.0 11309700000.0 11309700000.0 11309700000.0 11309700000.0 11309700000.0 11309700000.0 11309700000.0 11309700000.0 11309700000.0 11309700000.0 11309700000.0 11309700000.0 11309700000.0 11309700000.0 11309700000.0 11309700000.0 11309700000.0 11309700000.0 11309700000.0 11309700000.0 11309700000.0 11309700000.0 11309700000.0 11309700000.0 11309700000.0 11309700000.0 11309700000.0 11309700000.0 11309700000.0 11309700000.0 11309700000.0 11309700000.0 11309700000.0 11309700000.0 11309700000.0 11309700000.0 11309700000.0 11309700000.0 11309700000.0 11309700000.0 11309700000.0 11309700000.0 11309700000.0 11309700000.0 11309700000.0 11309700000.0 11309700000.0 11309700000.0 11309700000.0 11309700000.0 11309700000.0 11309700000.0 11309700000.0 11309700000.0 11309700000.0 11309700000.0 11309700000.0 11309700000.0 11309700000.0 11309700000.0 11309700000.0 11309700000.0 11309700000.0 11309700000.0 11309700000.0 11309700000.0 11309700000.0 11309700000.0 11309700000.0 11309700000.0 11309700000.0 11309700000.0 11309700000.0 11309700000.0 11309700000.0 11309700000.0 11309700000.0 11309700000.0 11309700000.0 11309700000.0 11309700000.0 11309700000.0 11309700000.0 11309700000.0 11309700000.0 11309700000.0 11309700000.0 11309700000.0 11309700000.0 11309700000.0 11309700000.0 11309700000.0 11309700000.0 11309700000.0 11309700000.0 11309700000.0 11309700000.0 11309700000.0 11309700000.0 11309700000.0 11309700000.0 11309700000.0 11309700000.0 11309700000.0 11309700000.0 11309700000.0 11309700000.0 11309700000.0 11309700000.0 11309700000.0 11309700000.0 11309700000.0 11309700000.0 11309700000.0 11309700000.0 11309700000.0 11309700000.0 11309700000.0 11309700000.0 11309700000.0 11309700000.0 11309700000.0 11309700000.0 11309700000.0 11309700000.0 11309700000.0 11309700000.0 11309700000.0 11309700000.0 11309700000.0 11309700000.0 11309700000.0 11309700000.0 11309700000.0 11309700000.0 11309700000.0 11309700000.0 11309700000.0 11309700000.0 11309700000.0 11309700000.0 11309700000.0 11309700000.0 11309700000.0 11309700000.0 11309700000.0 11309700000.0 11309700000.0 11309700000.0 11309700000.0 11309700000.0 11309700000.0 11309700000.0 11309700000.0 11309700000.0 11309700000.0 11309700000.0 11309700000.0 11309700000.0 11309700000.0 11309700000.0 11309700000.0 11309700000.0 11309700000.0 11309700000.0 11309700000.0 11309700000.0 11309700000.0 11309700000.0 11309700000.0 11309700000.0 11309700000.0 11309700000.0 11309700000.0 11309700000.0 11309700000.0 11309700000.0 11309700000.0 11309700000.0 11309700000.0 11309700000.0 11309700000.0 11309700000.0 11309700000.0 11309700000.0 11309700000.0 11309700000.0 11309700000.0 11309700000.0 11309700000.0 11309700000.0 11309700000.0 11309700000.0 11309700000.0 11309700000.0 11309700000.0 11309700000.0 11309700000.0 11309700000.0 11309700000.0 11309700000.0 11309700000.0 11309700000.0 11309700000.0 11309700000.0 11309700000.0 11309700000.0 11309700000.0 11309700000.0 11309700000.0 11309700000.0 11309700000.0 11309700000.0 11309700000.0 11309700000.0 11309700000.0 11309700000.0 11309700000.0 11309700000.0 11309700000.0 11309700000.0 11309700000.0 11309700000.0 11309700000.0 11309700000.0 11309700000.0 11309700000.0 11309700000.0 11309700000.0 11309700000.0 11309700000.0 11309700000.0 11309700000.0 11309700000.0 11309700000.0 11309700000.0 11309700000.0 11309700000.0 11309700000.0 11309700000.0 11309700000.0 11309700000.0 11309700000.0 11309700000.0 11309700000.0 11309700000.0 11309700000.0 11309700000.0 11309700000.0 11309700000.0 11309700000.0 11309700000.0 11309700000.0 11309700000.0 11309700000.0 11309700000.0 11309700000.0 11309700000.0 11309700000.0 11309700000.0 11309700000.0 11309700000.0 11309700000.0 11309700000.0 11309700000.0 11309700000.0 11309700000.0 11309700000.0 11309700000.0 11309700000.0 11309700000.0 11309700000.0 11309700000.0 11309700000.0 11309700000.0 11309700000.0 11309700000.0 11309700000.0 11309700000.0 11309700000.0 11309700000.0 11309700000.0 11309700000.0 11309700000.0 11309700000.0 11309700000.0 11309700000.0 11309700000.0 11309700000.0 11309700000.0 11309700000.0 11309700000.0 11309700000.0 11309700000.0 11309700000.0 11309700000.0 11309700000.0 11309700000.0 11309700000.0 11309700000.0 11309700000.0 11309700000.0 11309700000.0 11309700000.0 11309700000.0 11309700000.0 11309700000.0 11309700000.0 11309700000.0 11309700000.0 11309700000.0 11309700000.0 11309700000.0 11309700000.0 11309700000.0 11309700000.0 11309700000.0 11309700000.0 11309700000.0 11309700000.0 11309700000.0 11309700000.0 11309700000.0 11309700000.0 11309700000.0 11309700000.0 11309700000.0 11309700000.0 11309700000.0 11309700000.0 11309700000.0 11309700000.0 11309700000.0 11309700000.0 11309700000.0 11309700000.0 11309700000.0 11309700000.0 11309700000.0 11309700000.0 11309700000.0 11309700000.0 11309700000.0 11309700000.0 11309700000.0 11309700000.0 11309700000.0 11309700000.0 11309700000.0 11309700000.0 11309700000.0 11309700000.0 11309700000.0 11309700000.0 11309700000.0 11309700000.0 11309700000.0 11309700000.0 11309700000.0 11309700000.0 11309700000.0 11309700000.0 11309700000.0 11309700000.0 11309700000.0 11309700000.0 11309700000.0 11309700000.0 11309700000.0 11309700000.0 11309700000.0 11309700000.0 11309700000.0 11309700000.0 11309700000.0 11309700000.0 11309700000.0 11309700000.0 11309700000.0 11309700000.0 11309700000.0 11309700000.0 11309700000.0 11309700000.0 11309700000.0 11309700000.0 11309700000.0 11309700000.0 11309700000.0 11309700000.0 11309700000.0 11309700000.0 11309700000.0 11309700000.0 11309700000.0 11309700000.0 11309700000.0 11309700000.0 11309700000.0 11309700000.0 11309700000.0 11309700000.0 11309700000.0 11309700000.0 11309700000.0 11309700000.0 11309700000.0 11309700000.0 11309700000.0 11309700000.0 11309700000.0 11309700000.0 11309700000.0 11309700000.0 11309700000.0 11309700000.0 11309700000.0 11309700000.0 11309700000.0 11309700000.0 11309700000.0 11309700000.0 11309700000.0 11309700000.0 11309700000.0 11309700000.0 11309700000.0 11309700000.0 11309700000.0 11309700000.0 11309700000.0 11309700000.0 11309700000.0 11309700000.0 11309700000.0 11309700000.0 11309700000.0 11309700000.0 11309700000.0 11309700000.0 11309700000.0 11309700000.0 11309700000.0 11309700000.0 11309700000.0 11309700000.0 11309700000.0 11309700000.0 11309700000.0 11309700000.0 11309700000.0 11309700000.0 11309700000.0 11309700000.0 11309700000.0 11309700000.0 11309700000.0 11309700000.0 11309700000.0 11309700000.0 11309700000.0 11309700000.0 11309700000.0 11309700000.0 11309700000.0 11309700000.0 11309700000.0 11309700000.0 11309700000.0 11309700000.0 11309700000.0 11309700000.0 11309700000.0 11309700000.0 11309700000.0 11309700000.0 11309700000.0 11309700000.0 11309700000.0 11309700000.0 11309700000.0 11309700000.0 11309700000.0 11309700000.0 11309700000.0 11309700000.0 11309700000.0 11309700000.0 11309700000.0 11309700000.0 11309700000.0 11309700000.0 11309700000.0 11309700000.0 11309700000.0 11309700000.0 11309700000.0 11309700000.0 11309700000.0 11309700000.0 11309700000.0 11309700000.0 11309700000.0 11309700000.0 11309700000.0 11309700000.0 11309700000.0 11309700000.0 11309700000.0 11309700000.0 11309700000.0 11309700000.0 11309700000.0 11309700000.0 11309700000.0 11309700000.0 11309700000.0 11309700000.0 11309700000.0 11309700000.0 11309700000.0 11309700000.0 11309700000.0 11309700000.0 11309700000.0 11309700000.0 11309700000.0 11309700000.0 11309700000.0 11309700000.0 11309700000.0 11309700000.0 11309700000.0 11309700000.0 11309700000.0 11309700000.0 11309700000.0 11309700000.0 11309700000.0 11309700000.0 11309700000.0 11309700000.0 11309700000.0 11309700000.0 11309700000.0 11309700000.0 11309700000.0 11309700000.0 11309700000.0 11309700000.0 11309700000.0 11309700000.0 11309700000.0 11309700000.0 11309700000.0 11309700000.0 11309700000.0 11309700000.0 11309700000.0 11309700000.0 11309700000.0 11309700000.0 11309700000.0 11309700000.0 11309700000.0 11309700000.0 11309700000.0 11309700000.0 11309700000.0 11309700000.0 11309700000.0 11309700000.0 11309700000.0 11309700000.0 11309700000.0 11309700000.0 11309700000.0 11309700000.0 11309700000.0 11309700000.0 11309700000.0 11309700000.0 11309700000.0 11309700000.0 11309700000.0 11309700000.0 11309700000.0 11309700000.0 11309700000.0 11309700000.0 11309700000.0 11309700000.0 11309700000.0 11309700000.0 11309700000.0 11309700000.0 11309700000.0 11309700000.0 11309700000.0 11309700000.0 11309700000.0 11309700000.0 11309700000.0 11309700000.0 11309700000.0 11309700000.0 11309700000.0 11309700000.0 11309700000.0 11309700000.0 11309700000.0 11309700000.0 11309700000.0 11309700000.0 11309700000.0 11309700000.0 11309700000.0 11309700000.0 11309700000.0 11309700000.0 11309700000.0 11309700000.0 11309700000.0 11309700000.0 11309700000.0 11309700000.0 11309700000.0 11309700000.0 11309700000.0 11309700000.0 11309700000.0 11309700000.0 11309700000.0 11309700000.0 11309700000.0 11309700000.0 11309700000.0 11309700000.0 11309700000.0 11309700000.0 11309700000.0 11309700000.0 11309700000.0 11309700000.0 11309700000.0 11309700000.0 11309700000.0 11309700000.0 11309700000.0 11309700000.0 11309700000.0 11309700000.0 11309700000.0 11309700000.0 11309700000.0 11309700000.0 11309700000.0 11309700000.0 11309700000.0 11309700000.0 11309700000.0 11309700000.0 11309700000.0 11309700000.0 11309700000.0 11309700000.0 11309700000.0 11309700000.0 11309700000.0 11309700000.0 11309700000.0 11309700000.0 11309700000.0 11309700000.0 11309700000.0 11309700000.0 11309700000.0 11309700000.0 11309700000.0 11309700000.0 11309700000.0 11309700000.0 11309700000.0 11309700000.0 11309700000.0 11309700000.0 11309700000.0 11309700000.0 11309700000.0 11309700000.0 11309700000.0 11309700000.0 11309700000.0 11309700000.0 11309700000.0 11309700000.0 11309700000.0 11309700000.0 11309700000.0 11309700000.0 11309700000.0 11309700000.0 11309700000.0 11309700000.0 11309700000.0 11309700000.0 11309700000.0 11309700000.0 11309700000.0 11309700000.0 11309700000.0 11309700000.0 11309700000.0 11309700000.0 11309700000.0 11309700000.0 11309700000.0 11309700000.0 11309700000.0 11309700000.0 11309700000.0 11309700000.0 11309700000.0 11309700000.0 11309700000.0 11309700000.0 11309700000.0 11309700000.0 11309700000.0 11309700000.0 11309700000.0 11309700000.0 11309700000.0 11309700000.0 11309700000.0 11309700000.0 11309700000.0 11309700000.0 11309700000.0 11309700000.0 11309700000.0 11309700000.0 11309700000.0 11309700000.0 11309700000.0 11309700000.0 11309700000.0 11309700000.0 11309700000.0 11309700000.0 11309700000.0 11309700000.0 11309700000.0 11309700000.0 11309700000.0 11309700000.0 11309700000.0 11309700000.0 11309700000.0 11309700000.0 11309700000.0 11309700000.0 11309700000.0 11309700000.0 11309700000.0 11309700000.0 11309700000.0 11309700000.0 11309700000.0 11309700000.0 11309700000.0 11309700000.0 11309700000.0 11309700000.0 11309700000.0 11309700000.0 11309700000.0 11309700000.0 11309700000.0 11309700000.0 11309700000.0 11309700000.0 11309700000.0 11309700000.0 11309700000.0 11309700000.0 11309700000.0 11309700000.0 11309700000.0 11309700000.0 11309700000.0 11309700000.0 11309700000.0 11309700000.0 11309700000.0 11309700000.0 11309700000.0 11309700000.0 11309700000.0 11309700000.0 11309700000.0 11309700000.0 11309700000.0 11309700000.0 11309700000.0 11309700000.0 11309700000.0 11309700000.0 11309700000.0 11309700000.0 11309700000.0 11309700000.0 11309700000.0 11309700000.0 11309700000.0 11309700000.0 11309700000.0 11309700000.0 11309700000.0 11309700000.0 11309700000.0 11309700000.0 11309700000.0 11309700000.0 11309700000.0 11309700000.0 11309700000.0 11309700000.0 11309700000.0 11309700000.0 11309700000.0 11309700000.0 11309700000.0 11309700000.0 11309700000.0 11309700000.0 11309700000.0 11309700000.0 11309700000.0 11309700000.0 11309700000.0 11309700000.0 11309700000.0 11309700000.0 11309700000.0 11309700000.0 11309700000.0 11309700000.0 11309700000.0 11309700000.0 11309700000.0 11309700000.0 11309700000.0 11309700000.0 11309700000.0 11309700000.0 11309700000.0 11309700000.0 11309700000.0 11309700000.0 11309700000.0 11309700000.0 11309700000.0 11309700000.0 11309700000.0 11309700000.0 11309700000.0 11309700000.0 11309700000.0 11309700000.0 11309700000.0 11309700000.0 11309700000.0 11309700000.0 11309700000.0 11309700000.0 11309700000.0 11309700000.0 11309700000.0 11309700000.0 11309700000.0 11309700000.0 11309700000.0 11309700000.0 11309700000.0 11309700000.0 11309700000.0 11309700000.0 11309700000.0 11309700000.0 11309700000.0 11309700000.0 11309700000.0 11309700000.0 11309700000.0 11309700000.0 11309700000.0 11309700000.0 11309700000.0 11309700000.0 11309700000.0 11309700000.0 11309700000.0 11309700000.0 11309700000.0 11309700000.0 11309700000.0 11309700000.0 11309700000.0 11309700000.0 11309700000.0 11309700000.0 11309700000.0 11309700000.0 11309700000.0 11309700000.0 11309700000.0 11309700000.0 11309700000.0 11309700000.0 11309700000.0 11309700000.0 11309700000.0 11309700000.0 11309700000.0 11309700000.0 11309700000.0 11309700000.0 11309700000.0 11309700000.0 11309700000.0 11309700000.0 11309700000.0 11309700000.0 11309700000.0 11309700000.0 11309700000.0 11309700000.0 11309700000.0 11309700000.0 11309700000.0 11309700000.0 11309700000.0 11309700000.0 11309700000.0 11309700000.0 11309700000.0 11309700000.0 11309700000.0 11309700000.0 11309700000.0 11309700000.0 11309700000.0 11309700000.0 11309700000.0 11309700000.0 11309700000.0 11309700000.0 11309700000.0 11309700000.0 11309700000.0 11309700000.0 11309700000.0 11309700000.0 11309700000.0 11309700000.0 11309700000.0 11309700000.0 11309700000.0 11309700000.0 11309700000.0 11309700000.0 11309700000.0 11309700000.0 11309700000.0 11309700000.0 11309700000.0 11309700000.0 11309700000.0 11309700000.0 11309700000.0 11309700000.0 11309700000.0 11309700000.0 11309700000.0 11309700000.0 11309700000.0 11309700000.0 11309700000.0 11309700000.0 11309700000.0 11309700000.0 11309700000.0 11309700000.0 11309700000.0 11309700000.0 11309700000.0 11309700000.0 11309700000.0 11309700000.0 11309700000.0 11309700000.0 11309700000.0 11309700000.0 11309700000.0 11309700000.0 11309700000.0 11309700000.0 11309700000.0 11309700000.0 11309700000.0 11309700000.0 11309700000.0 11309700000.0 11309700000.0 11309700000.0 11309700000.0 11309700000.0 11309700000.0 11309700000.0 11309700000.0 11309700000.0 11309700000.0 11309700000.0 11309700000.0 11309700000.0 11309700000.0 11309700000.0 11309700000.0 11309700000.0 11309700000.0 11309700000.0 11309700000.0 11309700000.0 11309700000.0 11309700000.0 11309700000.0 11309700000.0 11309700000.0 11309700000.0 11309700000.0 11309700000.0 11309700000.0 11309700000.0 11309700000.0 11309700000.0 11309700000.0 11309700000.0 11309700000.0 11309700000.0 11309700000.0 11309700000.0 11309700000.0 11309700000.0 11309700000.0 11309700000.0 11309700000.0 11309700000.0 11309700000.0 11309700000.0 11309700000.0 11309700000.0 11309700000.0 11309700000.0 11309700000.0 11309700000.0 11309700000.0 11309700000.0 11309700000.0 11309700000.0 11309700000.0 11309700000.0 11309700000.0 11309700000.0 11309700000.0 11309700000.0 11309700000.0 11309700000.0 11309700000.0 11309700000.0 11309700000.0 11309700000.0 11309700000.0 11309700000.0 11309700000.0 11309700000.0 11309700000.0 11309700000.0 11309700000.0 11309700000.0 11309700000.0 11309700000.0 11309700000.0 11309700000.0 11309700000.0 11309700000.0 11309700000.0 11309700000.0 11309700000.0 11309700000.0 11309700000.0 11309700000.0 11309700000.0 11309700000.0 11309700000.0 11309700000.0 11309700000.0 11309700000.0 11309700000.0 11309700000.0 11309700000.0 11309700000.0 11309700000.0 11309700000.0 11309700000.0 11309700000.0 11309700000.0 11309700000.0 11309700000.0 11309700000.0 11309700000.0 11309700000.0 11309700000.0 11309700000.0 11309700000.0 11309700000.0 11309700000.0 11309700000.0 11309700000.0 11309700000.0 11309700000.0 11309700000.0 11309700000.0 11309700000.0 11309700000.0 11309700000.0 11309700000.0 11309700000.0 11309700000.0 11309700000.0 11309700000.0 11309700000.0 11309700000.0 11309700000.0 11309700000.0 11309700000.0 11309700000.0 11309700000.0 11309700000.0 11309700000.0 11309700000.0 11309700000.0 11309700000.0 11309700000.0 11309700000.0 11309700000.0 11309700000.0 11309700000.0 11309700000.0 11309700000.0 11309700000.0 11309700000.0 11309700000.0 11309700000.0 11309700000.0 11309700000.0 11309700000.0 11309700000.0 11309700000.0 11309700000.0 11309700000.0 11309700000.0 11309700000.0 11309700000.0 11309700000.0 11309700000.0 11309700000.0 11309700000.0 11309700000.0 11309700000.0 11309700000.0 11309700000.0 11309700000.0 11309700000.0 11309700000.0 11309700000.0 11309700000.0 11309700000.0 11309700000.0 11309700000.0 11309700000.0 11309700000.0 11309700000.0 11309700000.0 11309700000.0 11309700000.0 11309700000.0 11309700000.0 11309700000.0 11309700000.0 11309700000.0 11309700000.0 11309700000.0 11309700000.0 11309700000.0 11309700000.0 11309700000.0 11309700000.0 11309700000.0 11309700000.0 11309700000.0 11309700000.0 11309700000.0 11309700000.0 11309700000.0 11309700000.0 11309700000.0 11309700000.0 11309700000.0 11309700000.0 11309700000.0 11309700000.0 11309700000.0 11309700000.0 11309700000.0 11309700000.0 11309700000.0 11309700000.0 11309700000.0 11309700000.0 11309700000.0 11309700000.0 11309700000.0 11309700000.0 11309700000.0 11309700000.0 11309700000.0 11309700000.0 11309700000.0 11309700000.0 11309700000.0 11309700000.0 11309700000.0 11309700000.0 11309700000.0 11309700000.0 11309700000.0 11309700000.0 11309700000.0 11309700000.0 11309700000.0 11309700000.0 11309700000.0 11309700000.0 11309700000.0 11309700000.0 11309700000.0 11309700000.0 11309700000.0 11309700000.0 11309700000.0 11309700000.0 11309700000.0 11309700000.0 11309700000.0 11309700000.0 11309700000.0 11309700000.0 11309700000.0 11309700000.0 11309700000.0 11309700000.0 11309700000.0 11309700000.0 11309700000.0 11309700000.0 11309700000.0 11309700000.0 11309700000.0 11309700000.0 11309700000.0 11309700000.0 11309700000.0 11309700000.0 11309700000.0 11309700000.0 11309700000.0 11309700000.0 11309700000.0 11309700000.0 11309700000.0 11309700000.0 11309700000.0 11309700000.0 11309700000.0 11309700000.0 11309700000.0 11309700000.0 11309700000.0 11309700000.0 11309700000.0 11309700000.0 11309700000.0 11309700000.0 11309700000.0 11309700000.0 11309700000.0 11309700000.0 11309700000.0 11309700000.0 11309700000.0 11309700000.0 11309700000.0 11309700000.0 11309700000.0 11309700000.0 11309700000.0 11309700000.0 11309700000.0 11309700000.0 11309700000.0 11309700000.0 11309700000.0 11309700000.0 11309700000.0 11309700000.0 11309700000.0 11309700000.0 11309700000.0 11309700000.0 11309700000.0 11309700000.0 11309700000.0 11309700000.0 11309700000.0 11309700000.0 11309700000.0 11309700000.0 11309700000.0 11309700000.0 11309700000.0 11309700000.0 11309700000.0 11309700000.0 11309700000.0 11309700000.0 11309700000.0 11309700000.0 11309700000.0 11309700000.0 11309700000.0 11309700000.0 11309700000.0 11309700000.0 11309700000.0 11309700000.0 11309700000.0 11309700000.0 11309700000.0 11309700000.0 11309700000.0 11309700000.0 11309700000.0 11309700000.0 11309700000.0 11309700000.0 11309700000.0 11309700000.0 11309700000.0 11309700000.0 11309700000.0 11309700000.0 11309700000.0 11309700000.0 11309700000.0 11309700000.0 11309700000.0 11309700000.0 11309700000.0 11309700000.0 11309700000.0 11309700000.0 11309700000.0 11309700000.0 11309700000.0 11309700000.0 11309700000.0 11309700000.0 11309700000.0 11309700000.0 11309700000.0 11309700000.0 11309700000.0 11309700000.0 11309700000.0 11309700000.0 11309700000.0 11309700000.0 11309700000.0 11309700000.0 11309700000.0 11309700000.0 11309700000.0 11309700000.0 11309700000.0 11309700000.0 11309700000.0 11309700000.0 11309700000.0 11309700000.0 11309700000.0 11309700000.0 11309700000.0 11309700000.0 11309700000.0 11309700000.0 11309700000.0 11309700000.0 11309700000.0 11309700000.0 11309700000.0 11309700000.0 11309700000.0 11309700000.0 11309700000.0 11309700000.0 11309700000.0 11309700000.0 11309700000.0 11309700000.0 11309700000.0 11309700000.0 11309700000.0 11309700000.0 11309700000.0 11309700000.0 11309700000.0 11309700000.0 11309700000.0 11309700000.0 11309700000.0 11309700000.0 11309700000.0 11309700000.0 11309700000.0 11309700000.0 11309700000.0 11309700000.0 11309700000.0 11309700000.0 11309700000.0 11309700000.0 11309700000.0 11309700000.0 11309700000.0 11309700000.0 11309700000.0 11309700000.0 11309700000.0 11309700000.0 11309700000.0 11309700000.0 11309700000.0 11309700000.0 11309700000.0 11309700000.0 11309700000.0 11309700000.0 11309700000.0 11309700000.0 11309700000.0 11309700000.0 11309700000.0 11309700000.0 11309700000.0 11309700000.0 11309700000.0 11309700000.0 11309700000.0 11309700000.0 11309700000.0 11309700000.0 11309700000.0 11309700000.0 11309700000.0 11309700000.0 11309700000.0 11309700000.0 11309700000.0 11309700000.0 11309700000.0 11309700000.0 11309700000.0 11309700000.0 11309700000.0 11309700000.0 11309700000.0 11309700000.0 11309700000.0 11309700000.0 11309700000.0 11309700000.0 11309700000.0 11309700000.0 11309700000.0 11309700000.0 11309700000.0 11309700000.0 11309700000.0 11309700000.0 11309700000.0 11309700000.0 11309700000.0 11309700000.0 11309700000.0 11309700000.0 11309700000.0 11309700000.0 11309700000.0 11309700000.0 11309700000.0 11309700000.0 11309700000.0 11309700000.0 11309700000.0 11309700000.0 11309700000.0 11309700000.0 11309700000.0 11309700000.0 11309700000.0 11309700000.0 11309700000.0 11309700000.0 11309700000.0 11309700000.0 11309700000.0 11309700000.0 11309700000.0 11309700000.0 11309700000.0 11309700000.0 11309700000.0 11309700000.0 11309700000.0 11309700000.0 11309700000.0 11309700000.0 11309700000.0 11309700000.0 11309700000.0 11309700000.0 11309700000.0 11309700000.0 11309700000.0 11309700000.0 11309700000.0 11309700000.0 11309700000.0 11309700000.0 11309700000.0 11309700000.0 11309700000.0 11309700000.0 11309700000.0 11309700000.0 11309700000.0 11309700000.0 11309700000.0 11309700000.0 11309700000.0 11309700000.0 11309700000.0 11309700000.0 11309700000.0 11309700000.0 11309700000.0 11309700000.0 11309700000.0 11309700000.0 11309700000.0 11309700000.0 11309700000.0 11309700000.0 11309700000.0 11309700000.0 11309700000.0 11309700000.0 11309700000.0 11309700000.0 11309700000.0 11309700000.0 11309700000.0 11309700000.0 11309700000.0 11309700000.0 11309700000.0 11309700000.0 11309700000.0 11309700000.0 11309700000.0 11309700000.0 11309700000.0 11309700000.0 11309700000.0 11309700000.0 11309700000.0 11309700000.0 11309700000.0 11309700000.0 11309700000.0 11309700000.0 11309700000.0 11309700000.0 11309700000.0 11309700000.0 11309700000.0 11309700000.0 11309700000.0 11309700000.0 11309700000.0 11309700000.0 11309700000.0 11309700000.0 11309700000.0 11309700000.0 11309700000.0 11309700000.0 11309700000.0 11309700000.0 11309700000.0 11309700000.0 11309700000.0 11309700000.0 11309700000.0 11309700000.0 11309700000.0 11309700000.0 11309700000.0 11309700000.0 11309700000.0 11309700000.0 11309700000.0 11309700000.0 11309700000.0 11309700000.0 11309700000.0 11309700000.0 11309700000.0 11309700000.0 11309700000.0 11309700000.0 11309700000.0 11309700000.0 11309700000.0 11309700000.0 11309700000.0 11309700000.0 11309700000.0 11309700000.0 11309700000.0 11309700000.0 11309700000.0 11309700000.0 11309700000.0 11309700000.0 11309700000.0 11309700000.0 11309700000.0 11309700000.0 11309700000.0 11309700000.0 11309700000.0 11309700000.0 11309700000.0 11309700000.0 11309700000.0 11309700000.0 11309700000.0 11309700000.0 11309700000.0 11309700000.0 11309700000.0 11309700000.0 11309700000.0 11309700000.0 11309700000.0 11309700000.0 11309700000.0 11309700000.0 11309700000.0 11309700000.0 11309700000.0 11309700000.0 11309700000.0 11309700000.0 11309700000.0 11309700000.0 11309700000.0 11309700000.0 11309700000.0 11309700000.0 11309700000.0 11309700000.0 11309700000.0 11309700000.0 11309700000.0 11309700000.0 11309700000.0 11309700000.0 11309700000.0 11309700000.0 11309700000.0 11309700000.0 11309700000.0 11309700000.0 11309700000.0 11309700000.0 11309700000.0 11309700000.0 11309700000.0 11309700000.0 11309700000.0 11309700000.0 11309700000.0 11309700000.0 11309700000.0 11309700000.0 11309700000.0 11309700000.0 11309700000.0 11309700000.0 11309700000.0 11309700000.0 11309700000.0 11309700000.0 11309700000.0 11309700000.0 11309700000.0 11309700000.0 11309700000.0 11309700000.0 11309700000.0 11309700000.0 11309700000.0 11309700000.0 11309700000.0 11309700000.0 11309700000.0 11309700000.0 11309700000.0 11309700000.0 11309700000.0 11309700000.0 11309700000.0 11309700000.0 11309700000.0 11309700000.0 11309700000.0 11309700000.0 11309700000.0 11309700000.0 11309700000.0 11309700000.0 11309700000.0 11309700000.0 11309700000.0 11309700000.0 11309700000.0 11309700000.0 11309700000.0 11309700000.0 11309700000.0 11309700000.0 11309700000.0 11309700000.0 11309700000.0 11309700000.0 11309700000.0 11309700000.0 11309700000.0 11309700000.0 11309700000.0 11309700000.0 11309700000.0 11309700000.0 11309700000.0 11309700000.0 11309700000.0 11309700000.0 11309700000.0 11309700000.0 11309700000.0 11309700000.0 11309700000.0 11309700000.0 11309700000.0 11309700000.0 11309700000.0 11309700000.0 11309700000.0 11309700000.0 11309700000.0 11309700000.0 11309700000.0 11309700000.0 11309700000.0 11309700000.0 11309700000.0 11309700000.0 11309700000.0 11309700000.0 11309700000.0 11309700000.0 11309700000.0 11309700000.0 11309700000.0 11309700000.0 11309700000.0 11309700000.0 11309700000.0 11309700000.0 11309700000.0 11309700000.0 11309700000.0 11309700000.0 11309700000.0 11309700000.0 11309700000.0 11309700000.0 11309700000.0 11309700000.0 11309700000.0 11309700000.0 11309700000.0 11309700000.0 11309700000.0 11309700000.0 11309700000.0 11309700000.0 11309700000.0 11309700000.0 11309700000.0 11309700000.0 11309700000.0 11309700000.0 11309700000.0 11309700000.0 11309700000.0 11309700000.0 11309700000.0 11309700000.0 11309700000.0 11309700000.0 11309700000.0 11309700000.0 11309700000.0 11309700000.0 11309700000.0 11309700000.0 11309700000.0 11309700000.0 11309700000.0 11309700000.0 11309700000.0 11309700000.0 11309700000.0 11309700000.0 11309700000.0 11309700000.0 11309700000.0 11309700000.0 11309700000.0 11309700000.0 11309700000.0 11309700000.0 11309700000.0 11309700000.0 11309700000.0 11309700000.0 11309700000.0 11309700000.0 11309700000.0 11309700000.0 11309700000.0 11309700000.0 11309700000.0 11309700000.0 11309700000.0 11309700000.0 11309700000.0 11309700000.0 11309700000.0 11309700000.0 11309700000.0 11309700000.0 11309700000.0 11309700000.0 11309700000.0 11309700000.0 11309700000.0 11309700000.0 11309700000.0 11309700000.0 11309700000.0 11309700000.0 11309700000.0 11309700000.0 11309700000.0 11309700000.0 11309700000.0 11309700000.0 11309700000.0 11309700000.0 11309700000.0 11309700000.0 11309700000.0 11309700000.0 11309700000.0 11309700000.0 11309700000.0 11309700000.0 11309700000.0 11309700000.0 11309700000.0 11309700000.0 11309700000.0 11309700000.0 11309700000.0 11309700000.0 11309700000.0 11309700000.0 11309700000.0 11309700000.0 11309700000.0 11309700000.0 11309700000.0 11309700000.0 11309700000.0 11309700000.0 11309700000.0 11309700000.0 11309700000.0 11309700000.0 11309700000.0 11309700000.0 11309700000.0 11309700000.0 11309700000.0 11309700000.0 11309700000.0 11309700000.0 11309700000.0 11309700000.0 11309700000.0 11309700000.0 11309700000.0 11309700000.0 11309700000.0 11309700000.0 11309700000.0 11309700000.0 11309700000.0 11309700000.0 11309700000.0 11309700000.0 11309700000.0 11309700000.0 11309700000.0 11309700000.0 11309700000.0 11309700000.0 11309700000.0 11309700000.0 11309700000.0 11309700000.0 11309700000.0 11309700000.0 11309700000.0 11309700000.0 11309700000.0 11309700000.0 11309700000.0 11309700000.0 11309700000.0 11309700000.0 11309700000.0 11309700000.0 11309700000.0 11309700000.0 11309700000.0 11309700000.0 11309700000.0 11309700000.0 11309700000.0 11309700000.0 11309700000.0 11309700000.0 11309700000.0 11309700000.0 11309700000.0 11309700000.0 11309700000.0 11309700000.0 11309700000.0 11309700000.0 11309700000.0 11309700000.0 11309700000.0 11309700000.0 11309700000.0 11309700000.0 11309700000.0 11309700000.0 11309700000.0 11309700000.0 11309700000.0 11309700000.0 11309700000.0 11309700000.0 11309700000.0 11309700000.0 11309700000.0 11309700000.0 11309700000.0 11309700000.0 11309700000.0 11309700000.0 11309700000.0 11309700000.0 11309700000.0 11309700000.0 11309700000.0 11309700000.0 11309700000.0 11309700000.0 11309700000.0 11309700000.0 11309700000.0 11309700000.0 11309700000.0 11309700000.0 11309700000.0 11309700000.0 11309700000.0 11309700000.0 11309700000.0 11309700000.0 11309700000.0 11309700000.0 11309700000.0 11309700000.0 11309700000.0 11309700000.0 11309700000.0 11309700000.0 11309700000.0 11309700000.0 11309700000.0 11309700000.0 11309700000.0 11309700000.0 11309700000.0 11309700000.0 11309700000.0 11309700000.0 11309700000.0 11309700000.0 11309700000.0 11309700000.0 11309700000.0 11309700000.0 11309700000.0 11309700000.0 11309700000.0 11309700000.0 11309700000.0 11309700000.0 11309700000.0 11309700000.0 11309700000.0 11309700000.0 11309700000.0 11309700000.0 11309700000.0 11309700000.0 11309700000.0 11309700000.0 11309700000.0 11309700000.0 11309700000.0 11309700000.0 11309700000.0 11309700000.0 11309700000.0 11309700000.0 11309700000.0 11309700000.0 11309700000.0 11309700000.0 11309700000.0 11309700000.0 11309700000.0 11309700000.0 11309700000.0 11309700000.0 11309700000.0 11309700000.0 11309700000.0 11309700000.0 11309700000.0 11309700000.0 11309700000.0 11309700000.0 11309700000.0 11309700000.0 11309700000.0 11309700000.0 11309700000.0 11309700000.0 11309700000.0 11309700000.0 11309700000.0 11309700000.0 11309700000.0 11309700000.0 11309700000.0 11309700000.0 11309700000.0 11309700000.0 11309700000.0 11309700000.0 11309700000.0 11309700000.0 11309700000.0 11309700000.0 11309700000.0 11309700000.0 11309700000.0 11309700000.0 11309700000.0 11309700000.0 11309700000.0 11309700000.0 11309700000.0 11309700000.0 11309700000.0 11309700000.0 11309700000.0 11309700000.0 11309700000.0 11309700000.0 11309700000.0 11309700000.0 11309700000.0 11309700000.0 11309700000.0 11309700000.0 11309700000.0 11309700000.0 11309700000.0 11309700000.0 11309700000.0 11309700000.0 11309700000.0 11309700000.0 11309700000.0 11309700000.0 11309700000.0 11309700000.0 11309700000.0 11309700000.0 11309700000.0 11309700000.0 11309700000.0 11309700000.0 11309700000.0 11309700000.0 11309700000.0 11309700000.0 11309700000.0 11309700000.0 11309700000.0 11309700000.0 11309700000.0 11309700000.0 11309700000.0 11309700000.0 11309700000.0 11309700000.0 11309700000.0 11309700000.0 11309700000.0 11309700000.0 11309700000.0 11309700000.0 11309700000.0 11309700000.0 11309700000.0 11309700000.0 11309700000.0 11309700000.0 11309700000.0 11309700000.0 11309700000.0 11309700000.0 11309700000.0 11309700000.0 11309700000.0 11309700000.0 11309700000.0 11309700000.0 11309700000.0 11309700000.0 11309700000.0 11309700000.0 11309700000.0 11309700000.0 11309700000.0 11309700000.0 11309700000.0 11309700000.0 11309700000.0 11309700000.0 11309700000.0 11309700000.0 11309700000.0 11309700000.0 11309700000.0 11309700000.0 11309700000.0 11309700000.0 11309700000.0 11309700000.0 11309700000.0 11309700000.0 11309700000.0 11309700000.0 11309700000.0 11309700000.0 11309700000.0 11309700000.0 11309700000.0 11309700000.0 11309700000.0 11309700000.0 11309700000.0 11309700000.0 11309700000.0 11309700000.0 11309700000.0 11309700000.0 11309700000.0 11309700000.0 11309700000.0 11309700000.0 11309700000.0 11309700000.0 11309700000.0 11309700000.0 11309700000.0 11309700000.0 11309700000.0 11309700000.0 11309700000.0 11309700000.0 11309700000.0 11309700000.0 11309700000.0 11309700000.0 11309700000.0 11309700000.0 11309700000.0 11309700000.0 11309700000.0 11309700000.0 11309700000.0 11309700000.0 11309700000.0 11309700000.0 11309700000.0 11309700000.0 11309700000.0 11309700000.0 11309700000.0 11309700000.0 11309700000.0 11309700000.0 11309700000.0 11309700000.0 11309700000.0 11309700000.0 11309700000.0 11309700000.0 11309700000.0 11309700000.0 11309700000.0 11309700000.0 11309700000.0 11309700000.0 11309700000.0 11309700000.0 11309700000.0 11309700000.0 11309700000.0 11309700000.0 11309700000.0 11309700000.0 11309700000.0 11309700000.0 11309700000.0 11309700000.0 11309700000.0 11309700000.0 11309700000.0 11309700000.0 11309700000.0 11309700000.0 11309700000.0 11309700000.0 11309700000.0 11309700000.0 11309700000.0 11309700000.0 11309700000.0 11309700000.0 11309700000.0 11309700000.0 11309700000.0 11309700000.0 11309700000.0 11309700000.0 11309700000.0 11309700000.0 11309700000.0 11309700000.0 11309700000.0 11309700000.0 11309700000.0 11309700000.0 11309700000.0 11309700000.0 11309700000.0 11309700000.0 11309700000.0 11309700000.0 11309700000.0 11309700000.0 11309700000.0 11309700000.0 11309700000.0 11309700000.0 11309700000.0 11309700000.0 11309700000.0 11309700000.0 11309700000.0 11309700000.0 11309700000.0 11309700000.0 11309700000.0 11309700000.0 11309700000.0 11309700000.0 11309700000.0 11309700000.0 11309700000.0 11309700000.0 11309700000.0 11309700000.0 11309700000.0 11309700000.0 11309700000.0 11309700000.0 11309700000.0 11309700000.0 11309700000.0 11309700000.0 11309700000.0 11309700000.0 11309700000.0 11309700000.0 11309700000.0 11309700000.0 11309700000.0 11309700000.0 11309700000.0 11309700000.0 11309700000.0 11309700000.0 11309700000.0 11309700000.0 11309700000.0 11309700000.0 11309700000.0 11309700000.0 11309700000.0 11309700000.0 11309700000.0 11309700000.0 11309700000.0 11309700000.0 11309700000.0 11309700000.0 11309700000.0 11309700000.0 11309700000.0 11309700000.0 11309700000.0 11309700000.0 11309700000.0 11309700000.0 11309700000.0 11309700000.0 11309700000.0 11309700000.0 11309700000.0 11309700000.0 11309700000.0 11309700000.0 11309700000.0 11309700000.0 11309700000.0 11309700000.0 11309700000.0 11309700000.0 11309700000.0 11309700000.0 11309700000.0 11309700000.0 11309700000.0 11309700000.0 11309700000.0 11309700000.0 11309700000.0 11309700000.0 11309700000.0 11309700000.0 11309700000.0 11309700000.0 11309700000.0 11309700000.0 11309700000.0 11309700000.0 11309700000.0 11309700000.0 11309700000.0 11309700000.0 11309700000.0 11309700000.0 11309700000.0 11309700000.0 11309700000.0 11309700000.0 11309700000.0 11309700000.0 11309700000.0 11309700000.0 11309700000.0 11309700000.0 11309700000.0 11309700000.0 11309700000.0 11309700000.0 11309700000.0 11309700000.0 11309700000.0 11309700000.0 11309700000.0 11309700000.0 11309700000.0 11309700000.0 11309700000.0 11309700000.0 11309700000.0 11309700000.0 11309700000.0 11309700000.0 11309700000.0 11309700000.0 11309700000.0 11309700000.0 11309700000.0 11309700000.0 11309700000.0 11309700000.0 11309700000.0 11309700000.0 11309700000.0 11309700000.0 11309700000.0 11309700000.0 11309700000.0 11309700000.0 11309700000.0 11309700000.0 11309700000.0 11309700000.0 11309700000.0 11309700000.0 11309700000.0 11309700000.0 11309700000.0 11309700000.0 11309700000.0 11309700000.0 11309700000.0 11309700000.0 11309700000.0 11309700000.0 11309700000.0 11309700000.0 11309700000.0 11309700000.0 11309700000.0 11309700000.0 11309700000.0 11309700000.0 11309700000.0 11309700000.0 11309700000.0 11309700000.0 11309700000.0 11309700000.0 11309700000.0 11309700000.0 11309700000.0 11309700000.0 11309700000.0 11309700000.0 11309700000.0 11309700000.0 11309700000.0 11309700000.0 11309700000.0 11309700000.0 11309700000.0 11309700000.0 11309700000.0 11309700000.0 11309700000.0 11309700000.0 11309700000.0 11309700000.0 11309700000.0 11309700000.0 11309700000.0 11309700000.0 11309700000.0 11309700000.0 11309700000.0 11309700000.0 11309700000.0 11309700000.0 11309700000.0 11309700000.0 11309700000.0 11309700000.0 11309700000.0 11309700000.0 11309700000.0 11309700000.0 11309700000.0 11309700000.0 11309700000.0 11309700000.0 11309700000.0 11309700000.0 11309700000.0 11309700000.0 11309700000.0 11309700000.0 11309700000.0 11309700000.0 11309700000.0 11309700000.0 11309700000.0 11309700000.0 11309700000.0 11309700000.0 11309700000.0 11309700000.0 11309700000.0 11309700000.0 11309700000.0 11309700000.0 11309700000.0 11309700000.0 11309700000.0 11309700000.0 11309700000.0 11309700000.0 11309700000.0 11309700000.0 11309700000.0 11309700000.0 11309700000.0 11309700000.0 11309700000.0 11309700000.0 11309700000.0 11309700000.0 11309700000.0 11309700000.0 11309700000.0 11309700000.0 11309700000.0 11309700000.0 11309700000.0 11309700000.0 11309700000.0 11309700000.0 11309700000.0 11309700000.0 11309700000.0 11309700000.0 11309700000.0 11309700000.0 11309700000.0 11309700000.0 11309700000.0 11309700000.0 11309700000.0 11309700000.0 11309700000.0 11309700000.0 11309700000.0 11309700000.0 11309700000.0 11309700000.0 11309700000.0 11309700000.0 11309700000.0 11309700000.0 11309700000.0 11309700000.0 11309700000.0 11309700000.0 11309700000.0 11309700000.0 11309700000.0 11309700000.0 11309700000.0 11309700000.0 11309700000.0 11309700000.0 11309700000.0 11309700000.0 
SCALARS Velocity float 1
LOOKUP_TABLE default
1.31846 1.22843 1.23935 1.17509 0.895721 0.951808 0.951808 0.895721 1.17509 1.23935 1.22843 1.31846 0.772709 1.41473 1.23588 1.09062 1.00003 0.976542 1.01572 1.04621 0.824189 0.92401 0.888757 0.92401 0.824189 1.04621 1.01572 0.976542 1.00003 1.09062 1.23588 1.41473 0.772709 0.769152 0.76788 1.35119 1.17549 1.01871 0.96955 0.979213 1.07005 1.07005 0.979213 0.96955 1.01871 1.17549 1.35119 0.76788 0.769152 0.72669 0.764152 0.771551 1.43094 1.43141 1.29438 1.07784 0.941292 0.823102 0.938862 0.971878 0.950215 1.0342 0.821062 1.00132 0.887338 1.00132 0.821062 1.0342 0.950215 0.971878 0.938862 0.823102 0.941292 1.07784 1.29438 1.43141 1.43094 0.771551 0.764152 0.72669 0.690379 0.73354 0.679485 0.742023 1.70943 1.19401 0.933717 0.744559 1.06001 1.04601 1.00167 0.886704 1.00167 1.04601 1.06001 0.744558 0.933717 1.19401 1.70943 0.742022 0.679485 0.73354 0.690379 0.667791 0.666233 0.694033 0.657331 0.533945 1.39262 1.07871 0.766096 0.944456 1.08696 1.01328 0.982954 0.866088 0.866088 0.982953 1.01328 1.08696 0.944456 0.766096 1.07871 1.39262 0.533945 0.657331 0.694033 0.666233 0.667791 0.649752 0.656089 0.652382 0.644714 0.546614 1.23284 1.11714 1.21958 1.09733 0.961756 0.776799 1.18223 0.937897 0.97249 1.02888 0.871684 1.00221 0.886584 1.00221 0.871684 1.02888 0.972489 0.937897 1.18223 0.776799 0.961756 1.09733 1.21958 1.11714 1.23284 0.546614 0.644714 0.652382 0.656089 0.649752 0.64794 0.644154 0.640724 0.61001 0.584065 0.493859 0.433233 1.23747 1.06099 0.941162 1.14843 1.09524 0.984698 1.01124 1.00219 1.00219 1.01124 0.984698 1.09524 1.14843 0.941162 1.06099 1.23747 0.433233 0.493859 0.584065 0.61001 0.640724 0.644154 0.64794 0.651394 0.642298 0.634496 0.637296 0.624151 0.563327 0.435106 1.10159 1.00869 1.14461 1.10273 1.04921 0.992994 0.952269 0.875036 0.890328 0.875036 0.952269 0.992994 1.04921 1.10273 1.14461 1.00869 1.10159 0.435106 0.563327 0.624151 0.637296 0.634496 0.642298 0.651394 0.656272 0.654848 0.648258 0.639687 0.626405 0.606546 0.523562 0.526936 1.15503 1.16865 1.0956 0.914416 1.07371 1.11846 1.03989 0.956762 1.00701 0.892317 1.01117 0.75081 1.01117 0.892317 1.00701 0.956762 1.03989 1.11846 1.07371 0.914416 1.0956 1.16865 1.15503 0.526936 0.523562 0.606546 0.626405 0.639687 0.648258 0.654848 0.656272 0.639092 0.654959 0.656972 0.651735 0.62906 0.622574 0.621115 0.622507 0.590329 0.590805 1.24138 0.742673 1.15685 1.07288 1.00699 0.965956 0.901 0.997408 1.01951 1.01951 0.997408 0.901 0.965956 1.00699 1.07288 1.15685 0.742673 1.24138 0.590806 0.590329 0.622507 0.621115 0.622574 0.62906 0.651735 0.656972 0.654959 0.639092 0.614032 0.644391 0.652612 0.648824 0.642517 0.631371 0.628907 0.637779 0.62768 0.632857 0.959907 1.08937 1.16972 1.12321 0.929154 0.835479 1.01783 0.788252 1.01783 0.835479 0.929154 1.12321 1.16972 1.08937 0.959907 0.632857 0.62768 0.637779 0.628907 0.631371 0.642517 0.648824 0.652612 0.644391 0.614032 0.587504 0.614779 0.617284 0.639252 0.642554 0.641235 0.63046 0.652002 0.668509 0.693359 0.657562 0.736736 0.817494 0.952378 1.10381 1.17699 1.15832 1.04425 0.860644 0.827104 0.783222 1.02999 1.03878 1.02999 0.783222 0.827104 0.860644 1.04425 1.15832 1.17699 1.10381 0.952378 0.817494 0.736736 0.657562 0.693359 0.668509 0.652002 0.63046 0.641235 0.642554 0.639252 0.617284 0.614779 0.587504 0.585018 0.577278 0.582878 0.59131 0.594045 0.617158 0.639036 0.634004 0.632951 0.640423 0.649214 0.690376 0.688461 0.722357 0.752403 0.82687 1.17326 1.09647 0.970114 0.819951 0.791585 0.802754 0.802754 0.791585 0.819951 0.970114 1.09647 1.17326 0.82687 0.752403 0.722357 0.688461 0.690376 0.649214 0.640423 0.632951 0.634004 0.639036 0.617158 0.594045 0.59131 0.582878 0.577278 0.585018 0.596685 0.59375 0.59565 0.601766 0.618371 0.637603 0.646379 0.627296 0.681369 0.739485 0.762932 0.805659 0.938513 1.13439 1.16092 1.01532 0.946789 0.918938 0.886973 0.784285 0.528254 0.784285 0.886973 0.918938 0.946789 1.01532 1.16092 1.13439 0.938513 0.805659 0.762932 0.739485 0.681369 0.627296 0.646379 0.637603 0.618371 0.601766 0.59565 0.59375 0.596685 0.589443 0.611391 0.608323 0.602079 0.594173 0.590223 0.580768 0.647077 0.625978 0.667157 0.752396 0.777984 0.801827 0.816101 0.854532 0.856493 0.910978 1.22609 1.19229 1.11505 1.06026 0.978828 0.895304 0.881036 0.540694 0.538723 0.540694 0.881036 0.895304 0.978828 1.06026 1.11505 1.19229 1.22609 0.910978 0.856493 0.854532 0.816101 0.801827 0.777984 0.752396 0.667157 0.625978 0.647077 0.580768 0.590223 0.594173 0.602079 0.608323 0.611391 0.589443 0.55533 0.615783 0.620162 0.642525 0.621673 0.587264 0.619176 0.648307 0.608515 0.638824 0.741112 0.754523 0.845418 0.806703 0.836916 0.836272 0.901209 1.12659 1.02727 0.920211 0.875889 0.718148 0.685433 0.655713 0.655713 0.685433 0.718148 0.875889 0.920211 1.02727 1.12659 0.901209 0.836271 0.836916 0.806703 0.845417 0.754523 0.741112 0.638824 0.608515 0.648307 0.619176 0.587264 0.621673 0.642525 0.620162 0.615783 0.55533 0.436829 0.48108 0.556121 0.63735 0.6124 0.608909 0.579997 0.587488 0.560143 0.588031 0.580529 0.611875 0.751756 0.855739 0.8949 0.827844 0.87365 0.810138 1.2132 1.05883 0.958928 0.89798 0.871526 0.769465 0.682198 0.716996 0.682198 0.769465 0.871526 0.89798 0.958928 1.05883 1.2132 0.810138 0.873649 0.827844 0.8949 0.855739 0.751756 0.611875 0.580529 0.588031 0.560143 0.587488 0.579997 0.608909 0.6124 0.63735 0.556121 0.48108 0.436829 0.404667 0.498518 0.625463 0.631092 0.54566 0.577049 0.531233 0.591949 0.602044 0.819036 0.919113 0.999621 0.942102 0.949137 0.842786 0.831032 0.77271 0.783299 0.687961 1.12117 1.07299 0.995266 0.941604 0.834996 0.715143 0.714072 0.714072 0.715143 0.834996 0.941604 0.995267 1.07299 1.12117 0.687961 0.783299 0.77271 0.831032 0.842787 0.949137 0.942102 0.999621 0.919113 0.819036 0.602044 0.591949 0.531233 0.577049 0.54566 0.631092 0.625463 0.498518 0.404667 0.34345 0.430736 0.595653 0.631717 0.570921 0.47225 0.523225 0.66858 0.526855 0.5294 0.679088 1.00455 1.19676 1.06876 0.379281 0.585612 0.761873 1.10845 1.04131 0.872513 0.776133 0.758017 0.726068 0.711208 0.710991 0.711208 0.726068 0.758017 0.776133 0.872513 1.04131 1.10845 0.761873 0.585612 0.379281 1.06876 1.19676 1.00455 0.679088 0.5294 0.526855 0.66858 0.523225 0.47225 0.570921 0.631717 0.595653 0.430736 0.34345 0.354248 0.350008 0.296782 0.391283 0.466164 0.518867 0.583569 0.599402 0.568891 0.429088 0.557961 0.473553 0.53033 0.631525 0.77144 0.856437 1.02718 0.190435 0.307838 0.510822 0.63544 0.345041 1.00403 0.928743 0.864666 0.832461 0.795315 0.729336 0.706314 0.729336 0.795315 0.832461 0.864666 0.928743 1.00403 0.345041 0.635439 0.510823 0.307838 0.190436 1.02718 0.856437 0.77144 0.631525 0.53033 0.473553 0.557961 0.429088 0.568891 0.599402 0.583569 0.518867 0.466164 0.391283 0.296782 0.350008 0.354248 0.394421 0.326845 0.547067 0.571409 0.581716 0.650736 0.399539 0.863181 0.491197 0.718633 0.862942 0.911295 0.922704 0.523798 0.255918 0.565936 0.580619 0.510906 0.725133 1.03965 0.818781 0.847174 0.755944 0.71286 0.71286 0.755944 0.847174 0.818781 1.03965 0.725133 0.510906 0.580619 0.565935 0.25591 0.523799 0.922704 0.911295 0.862942 0.718633 0.491197 0.863181 0.399539 0.650736 0.581716 0.571409 0.547066 0.326845 0.394421 0.426168 0.401494 0.388293 0.237809 0.599002 0.565644 0.524624 0.601261 0.869308 0.671093 0.824396 0.486096 0.576081 0.828194 0.904619 0.924124 0.590129 0.581709 0.288294 0.489054 0.555425 0.627532 0.728755 0.982704 1.22811 0.782322 0.865498 0.849522 0.773578 0.733798 0.715696 0.710645 0.715696 0.733797 0.773578 0.849522 0.865498 0.782322 1.22811 0.982704 0.728755 0.627532 0.555424 0.489054 0.288298 0.581709 0.590129 0.924125 0.904619 0.828194 0.576081 0.486096 0.824395 0.671093 0.869308 0.601261 0.524624 0.565644 0.599002 0.237809 0.388293 0.401494 0.426168 0.42499 0.417935 0.387748 0.409599 0.397621 0.385525 0.801081 0.572404 0.510879 0.469824 0.68526 0.435233 1.97893 1.39779 0.602793 0.875089 0.860605 0.833817 0.830727 0.929908 0.531389 0.628941 0.430477 1.02195 0.866189 0.846655 0.945625 0.777397 0.759838 0.718083 0.711952 0.718082 0.759838 0.777397 0.945626 0.846656 0.866189 1.02195 0.430477 0.628941 0.53139 0.929908 0.830727 0.833817 0.860605 0.875089 0.602793 1.39779 1.97893 0.435233 0.68526 0.469825 0.510879 0.572404 0.801081 0.385525 0.397621 0.409599 0.387748 0.417935 0.42499 0.420489 0.382164 0.3536 0.351113 0.465028 0.525286 0.810342 0.615389 0.513819 0.347175 0.199556 0.454267 0.50751 0.459356 1.183 0.834106 0.861111 0.798712 0.85133 0.535734 0.507026 0.432917 0.45796 0.538065 0.723695 0.776861 0.790245 0.787522 0.930811 0.97089 0.718163 0.718163 0.970889 0.930811 0.787522 0.790245 0.776861 0.723695 0.538065 0.457961 0.432917 0.507026 0.535734 0.85133 0.798712 0.861111 0.834106 1.183 0.459355 0.50751 0.454266 0.199557 0.347175 0.513819 0.615389 0.810342 0.525286 0.465028 0.351112 0.3536 0.382164 0.420489 0.440994 0.394738 0.310627 0.325955 0.282546 0.324023 0.320755 0.669253 0.484994 0.397602 0.815044 1.38 0.981427 0.516337 0.533842 0.637625 0.491241 0.480784 0.416613 0.523166 0.761828 0.74475 0.909196 1.11301 0.871519 0.856555 0.867926 0.812151 0.70867 0.717271 0.70867 0.812149 0.867926 0.856555 0.871519 1.11301 0.909196 0.74475 0.761828 0.523165 0.416613 0.480784 0.491241 0.637625 0.533842 0.516337 0.981427 1.38 0.815044 0.397602 0.484994 0.669253 0.320755 0.324023 0.282545 0.325955 0.310627 0.394738 0.440994 0.046319 0.379453 0.326208 0.202886 0.219208 0.136497 1.14527 0.911293 0.308307 0.392621 0.452476 0.316586 0.897848 0.824004 0.538738 0.762977 0.611422 0.57221 0.611721 0.701994 0.842605 1.02305 0.839792 0.880683 0.916062 0.820363 0.872965 0.713134 0.726559 0.700671 0.726561 0.713136 0.872964 0.820364 0.916062 0.880682 0.839792 1.02305 0.842605 0.701994 0.611721 0.57221 0.611422 0.762977 0.538738 0.824004 0.897848 0.316586 0.452476 0.392621 0.308307 0.911293 1.14527 0.136497 0.219208 0.202886 0.326208 0.379453 0.046319 0.145327 0.0744065 0.260559 0.175985 0.154695 0.0431454 0.138952 0.124883 0.372393 1.10594 0.49374 0.506692 0.426502 0.323203 0.633669 0.830999 0.704109 0.478883 0.583632 0.730394 0.798123 0.68847 0.587086 0.859197 0.902482 0.909455 0.818608 0.905936 0.874643 0.920374 0.920373 0.874643 0.905936 0.818608 0.909455 0.902482 0.859197 0.587086 0.68847 0.798123 0.730394 0.583632 0.478883 0.704109 0.830999 0.633669 0.323203 0.426502 0.506692 0.49374 1.10594 0.372393 0.124883 0.138952 0.0431454 0.154695 0.175985 0.260559 0.0744064 0.145327 0.174606 0.138072 0.112063 0.225095 0.13097 0.0164556 0.052863 0.0922378 0.196895 0.596353 0.441907 0.555913 0.447357 0.380403 0.486767 0.43582 0.709975 0.792733 0.572042 0.641118 0.718024 0.693513 0.594219 0.842377 0.72941 0.877399 0.800009 1.00942 0.853902 0.84411 0.835216 0.88899 0.839961 0.73964 0.685055 0.73964 0.839961 0.88899 0.835216 0.84411 0.853902 1.00942 0.800009 0.877399 0.72941 0.842377 0.594219 0.693513 0.718024 0.641118 0.572042 0.792733 0.709975 0.43582 0.486767 0.380403 0.447357 0.555913 0.441907 0.596353 0.196895 0.0922381 0.0528629 0.0164557 0.13097 0.225095 0.112063 0.138072 0.174606 0.119961 0.170066 0.173076 0.13859 0.0663093 0.0934979 0.0857551 0.0835435 0.241954 0.794416 0.574783 0.521348 0.474243 0.425977 0.441416 0.425653 0.712806 0.721652 0.778346 0.647271 0.693249 0.705427 0.67682 0.637918 0.76256 0.80316 0.934604 0.81709 0.879003 0.848686 0.84537 0.87372 0.751116 0.920128 0.695607 0.920129 0.751116 0.87372 0.84537 0.848686 0.879003 0.81709 0.934604 0.803161 0.76256 0.637918 0.67682 0.705427 0.693249 0.647271 0.778346 0.721652 0.712806 0.425652 0.441416 0.425977 0.474243 0.521348 0.574783 0.794416 0.241954 0.0835434 0.085755 0.0934978 0.0663092 0.13859 0.173076 0.170066 0.119961 0.873228 0.109846 0.072782 0.128251 0.193146 0.649084 0.755358 0.434045 0.694213 0.712347 0.740953 0.764691 0.760747 0.697518 0.704868 0.680836 0.828629 0.858021 0.954066 0.860116 0.852591 0.858166 0.928933 0.928933 0.858166 0.852591 0.860116 0.954066 0.858021 0.828629 0.680836 0.704868 0.697518 0.760747 0.764691 0.740953 0.712347 0.694213 0.434045 0.755358 0.649084 0.193146 0.128251 0.0727818 0.109846 0.873228 0.931053 0.793194 0.140076 0.268743 0.252105 0.258392 0.243109 0.609796 0.681763 0.575724 0.474131 0.452208 0.450957 0.697321 0.706777 0.724225 0.735484 0.747492 0.71769 0.68278 0.698123 0.69401 0.655147 0.800802 0.778568 0.844315 0.815803 0.891111 0.915453 0.868878 0.838369 0.871039 0.851415 0.762052 0.705425 0.762052 0.851415 0.871039 0.838369 0.868878 0.915453 0.891111 0.815803 0.844315 0.778568 0.800802 0.655147 0.69401 0.698123 0.68278 0.71769 0.747492 0.735484 0.724225 0.706777 0.697321 0.450957 0.452208 0.474131 0.575724 0.681763 0.609796 0.243109 0.258392 0.252105 0.268743 0.140077 0.793194 0.931053 0.890898 0.89421 0.680993 0.750497 0.743235 0.391977 0.306136 0.826974 0.470902 0.453267 0.469897 0.462683 0.723732 0.739497 0.705307 0.689635 0.684618 0.728818 0.819173 0.846034 0.902306 0.85648 0.849187 0.832304 0.820676 0.821716 0.766394 0.944752 0.714528 0.944752 0.766394 0.821716 0.820676 0.832304 0.849187 0.85648 0.902306 0.846034 0.819173 0.728818 0.684618 0.689635 0.705307 0.739497 0.723732 0.462683 0.469897 0.453267 0.470902 0.826974 0.306136 0.391977 0.743235 0.750497 0.680993 0.89421 0.890898 0.850944 0.646556 0.663622 0.770373 0.572984 0.862327 0.636645 0.586757 0.458426 0.46495 0.488725 0.704485 0.708597 0.711064 0.728654 0.729975 0.735378 0.748396 0.74861 0.835587 0.846709 0.850583 0.851657 0.834787 0.821792 0.952691 0.952691 0.821792 0.834787 0.851657 0.850583 0.846709 0.835587 0.74861 0.748396 0.735378 0.729974 0.728654 0.711064 0.708597 0.704485 0.488725 0.46495 0.458426 0.586757 0.636645 0.862327 0.572984 0.770373 0.663622 0.646556 0.850944 0.814426 0.694449 0.163487 0.363132 0.757531 0.728932 0.594306 0.572287 0.453832 0.484202 0.716463 0.712331 0.706192 0.705569 0.707472 0.717106 0.731584 0.743056 0.746199 0.741337 0.827736 0.823404 0.834979 0.852621 0.849558 0.898466 0.849047 0.875088 0.842121 0.818704 0.778384 0.725287 0.778384 0.818704 0.842121 0.875088 0.849047 0.898466 0.849558 0.852621 0.834979 0.823404 0.827736 0.741337 0.746199 0.743056 0.731584 0.717106 0.707472 0.705569 0.706192 0.712331 0.716463 0.484202 0.453832 0.572287 0.594306 0.728932 0.757531 0.363132 0.163487 0.694449 0.814426 0.869642 0.84389 0.647384 0.601936 0.972988 0.733373 0.523901 0.681451 0.612411 0.591297 0.675293 0.726496 0.716389 0.701206 0.698723 0.699775 0.72288 0.730243 0.767848 0.793021 0.833581 0.857214 0.833568 0.882883 0.829445 0.872209 0.823248 0.839506 0.816991 0.825311 0.797477 0.96456 0.73555 0.964561 0.797476 0.825311 0.816991 0.839506 0.823248 0.872209 0.829445 0.882883 0.833568 0.857214 0.833581 0.793021 0.767848 0.730243 0.72288 0.699775 0.698723 0.701206 0.716389 0.726496 0.675293 0.591297 0.612411 0.681451 0.523901 0.733373 0.972988 0.601936 0.647383 0.84389 0.869642 0.866266 0.766282 0.620706 0.911259 0.610854 0.483759 0.522829 0.470444 0.707938 0.695958 0.692161 0.703304 0.706743 0.70948 0.701855 0.736451 0.783453 0.823139 0.823139 0.783453 0.736451 0.701855 0.70948 0.706743 0.703304 0.692161 0.695958 0.707938 0.470444 0.522829 0.483759 0.610854 0.911259 0.620706 0.766282 0.866266 0.878055 0.860507 0.543911 0.871415 0.540559 0.505421 0.648714 0.609168 0.598413 0.656828 0.710486 0.736052 0.711864 0.733258 0.722522 0.726536 0.760362 0.803498 0.787074 0.832816 0.821067 0.862656 0.834362 0.886754 0.828971 0.874936 0.818102 0.879069 0.805799 0.988613 0.807921 0.913778 0.751274 0.913778 0.807921 0.988613 0.805799 0.879069 0.818102 0.874936 0.828971 0.886754 0.834362 0.862656 0.821067 0.832816 0.787074 0.803498 0.760362 0.726536 0.722522 0.733258 0.711864 0.736052 0.710486 0.656828 0.598413 0.609168 0.648714 0.505421 0.540559 0.871415 0.543911 0.860507 0.878056 0.681334 0.520718 0.624333 0.589775 0.7949 0.72362 0.688413 0.720611 0.709896 0.689928 0.692477 0.807051 0.856364 0.813105 0.853675 0.833446 0.860128 0.828638 0.862831 0.809272 0.844906 0.795964 0.861225 0.781933 0.920232 0.810301 0.914329 0.767298 0.914329 0.810301 0.920232 0.781933 0.861225 0.795964 0.844906 0.809272 0.862831 0.828638 0.860128 0.833446 0.853675 0.813105 0.856364 0.807051 0.692477 0.689928 0.709896 0.720611 0.688413 0.72362 0.7949 0.589775 0.624333 0.520718 0.681334 0.850925 0.716069 0.795987 0.772324 0.589984 0.54099 0.5279 0.511978 0.601241 0.576084 0.753377 0.745839 0.770989 0.7719 0.723348 0.690632 0.698559 0.703923 0.723649 0.734539 0.782415 0.782415 0.734539 0.723649 0.703923 0.698559 0.690632 0.723348 0.7719 0.770989 0.745839 0.753377 0.576084 0.601241 0.511978 0.5279 0.54099 0.589984 0.772324 0.795987 0.71607 0.850925 0.722794 0.616991 0.83625 0.811877 0.809261 0.561463 0.544749 0.517326 0.539179 0.548421 0.63349 0.715047 0.749834 0.706654 0.713317 0.708082 0.715314 0.740241 0.751614 0.801351 0.835413 0.810891 0.843727 0.813894 0.850915 0.812833 0.847257 0.800518 0.85727 0.837081 0.930226 0.841712 0.93949 0.830911 0.944464 0.780661 0.944464 0.830911 0.93949 0.841712 0.930226 0.837081 0.85727 0.800518 0.847257 0.812833 0.850915 0.813894 0.843727 0.810891 0.835413 0.801351 0.751614 0.740241 0.715314 0.708082 0.713317 0.706654 0.749834 0.715047 0.63349 0.548421 0.539179 0.517326 0.544749 0.561463 0.809261 0.811877 0.83625 0.616991 0.722794 0.705296 0.741523 0.767102 0.772416 0.773937 0.551571 0.538048 0.504161 0.516695 0.765507 0.773776 0.732099 0.773852 0.812794 0.862647 0.771374 0.830929 0.776802 0.836113 0.876241 0.846412 0.880503 0.84363 0.881129 0.863566 0.964096 0.864887 0.948906 0.841513 0.94577 0.792497 0.94577 0.841513 0.948906 0.864887 0.964096 0.863566 0.881129 0.84363 0.880503 0.846412 0.876241 0.836113 0.776802 0.830929 0.771374 0.862647 0.812794 0.773852 0.732099 0.773776 0.765507 0.516695 0.504161 0.538048 0.551571 0.773937 0.772416 0.767102 0.741523 0.705296 0.614706 0.68573 0.738986 0.767829 0.758664 0.732597 0.717301 0.712393 0.729645 0.729645 0.712393 0.717301 0.732597 0.758664 0.767829 0.738986 0.68573 0.614706 0.745403 0.837504 0.840058 0.848781 0.847218 0.768812 0.76698 0.740729 0.682152 0.650748 0.661174 0.703997 0.732645 0.751087 0.740618 0.732812 0.719993 0.736968 0.755246 0.833343 0.885576 0.865714 0.913793 0.847308 0.908914 0.862998 0.90656 0.871047 0.903362 0.870233 0.902461 0.881982 0.902857 0.872324 0.902256 0.849112 0.901751 0.804312 0.901751 0.849112 0.902256 0.872324 0.902857 0.881982 0.902461 0.870233 0.903362 0.871047 0.90656 0.862998 0.908914 0.847308 0.913793 0.865714 0.885576 0.833343 0.755246 0.736968 0.719993 0.732812 0.740618 0.751087 0.732645 0.703997 0.661174 0.650748 0.682152 0.740729 0.76698 0.768812 0.847218 0.848781 0.840058 0.837504 0.745403 0.836709 0.896247 0.89474 0.896044 0.897515 0.877065 0.876086 0.868368 0.757727 0.674087 0.675072 0.696774 0.815837 0.826112 0.84109 0.873915 0.948136 0.877268 0.953719 0.880994 0.942265 0.888319 0.931248 0.889767 0.922413 0.885798 0.916239 0.889703 0.910567 0.872721 0.905106 0.853802 0.902672 0.814818 0.902672 0.853802 0.905106 0.872721 0.910567 0.889703 0.916239 0.885798 0.922413 0.889767 0.931248 0.888319 0.942265 0.880994 0.953719 0.877268 0.948136 0.873915 0.84109 0.826112 0.815837 0.696774 0.675072 0.674087 0.757727 0.868368 0.876086 0.877065 0.897515 0.896044 0.89474 0.896247 0.836709 0.767874 0.815566 0.830814 0.821676 0.821676 0.830814 0.815566 0.767874 0.859828 0.900951 0.904829 0.912766 0.916294 0.906856 0.911299 0.917023 0.829872 0.808981 0.818452 0.836467 0.883351 0.910418 0.915445 0.907462 0.898162 0.887231 0.885216 0.893364 0.896143 0.892048 0.896243 0.890202 0.895814 0.892618 0.895212 0.89185 0.894294 0.887761 0.894291 0.888509 0.894207 0.870433 0.893942 0.857868 0.893832 0.825632 0.893832 0.857868 0.893942 0.870433 0.894207 0.888509 0.894291 0.887761 0.894294 0.89185 0.895212 0.892618 0.895814 0.890202 0.896243 0.892048 0.896143 0.893364 0.885216 0.887231 0.898162 0.907462 0.915445 0.910418 0.883351 0.836467 0.818452 0.808981 0.829872 0.917023 0.911299 0.906856 0.916294 0.912766 0.904829 0.900951 0.859828 0.867091 0.901444 0.902554 0.910846 0.915082 0.90455 0.90943 0.913768 0.85893 0.873334 0.917435 0.912684 0.898735 0.896693 0.894684 0.897552 0.893835 0.897321 0.891615 0.896877 0.891326 0.89587 0.891174 0.894842 0.887445 0.893832 0.886578 0.893832 0.868873 0.893832 0.861511 0.893832 0.835139 0.893832 0.861511 0.893832 0.868873 0.893832 0.886578 0.893832 0.887445 0.894842 0.891174 0.89587 0.891326 0.896877 0.891615 0.897321 0.893835 0.897552 0.894684 0.896693 0.898735 0.912684 0.917435 0.873334 0.85893 0.913768 0.90943 0.90455 0.915082 0.910846 0.902554 0.901444 0.867091 0.839752 0.857172 0.901021 0.919761 0.922755 0.922755 0.919761 0.901021 0.857172 0.839752 0.873013 0.900416 0.900182 0.906415 0.910436 0.899847 0.904653 0.907216 0.883405 0.859476 0.856851 0.876184 0.89933 0.912714 0.914495 0.912288 0.911419 0.899966 0.899075 0.895078 0.893965 0.894109 0.893852 0.89218 0.893832 0.889623 0.893832 0.890223 0.893832 0.887627 0.893832 0.88502 0.893832 0.868346 0.893832 0.864701 0.893832 0.843447 0.893832 0.864701 0.893832 0.868346 0.893832 0.88502 0.893832 0.887627 0.893832 0.890223 0.893832 0.889623 0.893832 0.89218 0.893852 0.894109 0.893965 0.895078 0.899075 0.899966 0.911419 0.912288 0.914495 0.912714 0.89933 0.876184 0.856851 0.859476 0.883405 0.907216 0.904653 0.899847 0.910436 0.906415 0.900182 0.900416 0.873013 0.877714 0.899036 0.898248 0.902102 0.905114 0.897876 0.897981 0.8952 0.893967 0.893869 0.893898 0.892559 0.893832 0.893832 0.893832 0.893832 0.893832 0.868654 0.893832 0.86751 0.893832 0.850692 0.893832 0.86751 0.893832 0.868654 0.893832 0.893832 0.893832 0.893832 0.893832 0.892559 0.893898 0.893869 0.893967 0.8952 0.897981 0.897876 0.905114 0.902102 0.898248 0.899036 0.877714 0.895982 0.900391 0.901272 0.892578 0.880121 0.862303 0.877913 0.897224 0.904935 0.90598 0.90602 0.907007 0.888479 0.889516 0.887541 0.88373 0.88373 0.887541 0.889516 0.888479 0.907007 0.90602 0.90598 0.904935 0.897224 0.877913 0.862303 0.880121 0.892578 0.901272 0.900391 0.895982 0.881365 0.897331 0.896736 0.898502 0.900316 0.893243 0.897158 0.89663 0.892934 0.893504 0.86829 0.880269 0.895077 0.898253 0.898631 0.89983 0.902075 0.895269 0.896262 0.895222 0.893832 0.893408 0.893832 0.892739 0.893832 0.887854 0.893832 0.888972 0.893832 0.887202 0.893832 0.882712 0.893832 0.869593 0.893832 0.870001 0.893832 0.856994 0.893832 0.870001 0.893832 0.869593 0.893832 0.882712 0.893832 0.887202 0.893832 0.888972 0.893832 0.887854 0.893832 0.892739 0.893832 0.893408 0.893832 0.895222 0.896262 0.895269 0.902075 0.89983 0.898631 0.898253 0.895077 0.880269 0.86829 0.893504 0.892934 0.89663 0.897158 0.893243 0.900316 0.898502 0.896736 0.897331 0.881365 0.88414 0.895737 0.895488 0.895704 0.896455 0.891486 0.894914 0.893385 0.8918 0.899347 0.873755 0.882746 0.893146 0.892582 0.892543 0.894494 0.897641 0.892919 0.894703 0.895127 0.893832 0.892801 0.893832 0.892678 0.893832 0.887584 0.893832 0.888589 0.893832 0.886687 0.893832 0.881948 0.893832 0.870966 0.893832 0.872225 0.893832 0.86245 0.893832 0.872225 0.893832 0.870966 0.893832 0.881948 0.893832 0.886687 0.893832 0.888589 0.893832 0.887584 0.893832 0.892678 0.893832 0.892801 0.893832 0.895127 0.894703 0.892919 0.897641 0.894494 0.892543 0.892582 0.893146 0.882746 0.873755 0.899347 0.8918 0.893385 0.894914 0.891486 0.896455 0.895704 0.895488 0.895737 0.88414 0.886311 0.894591 0.894443 0.893615 0.893557 0.890502 0.893498 0.891364 0.891133 0.90006 0.878593 0.884941 0.891529 0.887859 0.887786 0.890323 0.893913 0.891004 0.893454 0.894934 0.893832 0.892179 0.893832 0.892415 0.893832 0.887538 0.893832 0.888308 0.893832 0.886184 0.893832 0.88139 0.893832 0.872608 0.893832 0.874246 0.893832 0.867139 0.893832 0.874246 0.893832 0.872608 0.893832 0.88139 0.893832 0.886184 0.893832 0.888308 0.893832 0.887538 0.893832 0.892415 0.893832 0.892179 0.893832 0.894934 0.893454 0.891004 0.893913 0.890323 0.887786 0.887859 0.891529 0.884941 0.878593 0.90006 0.891133 0.891364 0.893498 0.890502 0.893557 0.893615 0.894443 0.894591 0.886311 0.8881 0.893863 0.893608 0.892125 0.891491 0.890087 0.8927 0.89029 0.890979 0.898421 0.882531 0.886634 0.890233 0.884217 0.884251 0.887207 0.890899 0.889572 0.892544 0.894674 0.893832 0.891643 0.893832 0.892036 0.893832 0.887624 0.893832 0.88809 0.893832 0.885818 0.893832 0.881043 0.893832 0.874394 0.893832 0.876117 0.893832 0.871141 0.893832 0.876117 0.893832 0.874394 0.893832 0.881043 0.893832 0.885818 0.893832 0.88809 0.893832 0.887624 0.893832 0.892036 0.893832 0.891643 0.893832 0.894674 0.892544 0.889572 0.890899 0.887207 0.884251 0.884217 0.890233 0.886634 0.882531 0.898421 0.890979 0.89029 0.8927 0.890087 0.891491 0.892125 0.893608 0.893863 0.8881 0.889587 0.893427 0.892976 0.891142 0.890127 0.890049 0.89231 0.889894 0.891109 0.896258 0.885363 0.887815 0.889223 0.881649 0.881705 0.88495 0.888586 0.888606 0.89195 0.894379 0.893832 0.891224 0.893832 0.891629 0.893832 0.887776 0.893832 0.887929 0.893832 0.885612 0.893832 0.880945 0.893832 0.876229 0.893832 0.87787 0.893832 0.87454 0.893832 0.87787 0.893832 0.876229 0.893832 0.880945 0.893832 0.885612 0.893832 0.887929 0.893832 0.887776 0.893832 0.891629 0.893832 0.891224 0.893832 0.894379 0.89195 0.888606 0.888586 0.88495 0.881705 0.881649 0.889223 0.887815 0.885363 0.896258 0.891109 0.889894 0.89231 0.890049 0.890127 0.891142 0.892976 0.893427 0.889587 0.89078 0.89319 0.892523 0.890567 0.889343 0.890226 0.892158 0.889944 0.891351 0.894318 0.88724 0.888535 0.888449 0.880001 0.879979 0.883417 0.88693 0.888052 0.891593 0.894075 0.893832 0.890925 0.893832 0.891255 0.893832 0.88795 0.893832 0.887822 0.893832 0.885537 0.893832 0.881109 0.893832 0.878041 0.893832 0.879519 0.893832 0.877418 0.893832 0.879519 0.893832 0.878041 0.893832 0.881109 0.893832 0.885537 0.893832 0.887822 0.893832 0.88795 0.893832 0.891255 0.893832 0.890925 0.893832 0.894075 0.891593 0.888052 0.88693 0.883417 0.879979 0.880001 0.888449 0.888535 0.88724 0.894318 0.891351 0.889944 0.892158 0.890226 0.889343 0.890567 0.892523 0.89319 0.89078 0.891695 0.893081 0.89223 0.890298 0.889008 0.890497 0.892124 0.890244 0.891611 0.892782 0.888367 0.888816 0.887864 0.879097 0.878978 0.882513 0.885854 0.887832 0.891392 0.893782 0.893832 0.890729 0.893832 0.890951 0.893832 0.888123 0.893832 0.887766 0.893832 0.885565 0.893832 0.881508 0.893832 0.879777 0.893832 0.881072 0.893832 0.879856 0.893832 0.881072 0.893832 0.879777 0.893832 0.881508 0.893832 0.885565 0.893832 0.887766 0.893832 0.888123 0.893832 0.890951 0.893832 0.890729 0.893832 0.893782 0.891392 0.887832 0.885854 0.882513 0.878978 0.879097 0.887864 0.888816 0.888367 0.892782 0.891611 0.890244 0.892124 0.890497 0.889008 0.890298 0.89223 0.893081 0.891695 0.892365 0.893042 0.892071 0.890238 0.888986 0.890772 0.892125 0.890649 0.891822 0.891632 0.888889 0.888762 0.887422 0.878792 0.878605 0.882146 0.885271 0.887864 0.891296 0.893512 0.893832 0.890614 0.893832 0.890727 0.893832 0.888282 0.893832 0.887758 0.893832 0.885679 0.893832 0.882094 0.893832 0.881405 0.893832 0.882529 0.893832 0.881923 0.893832 0.882529 0.893832 0.881405 0.893832 0.882094 0.893832 0.885679 0.893832 0.887758 0.893832 0.888282 0.893832 0.890727 0.893832 0.890614 0.893832 0.893512 0.891296 0.887864 0.885271 0.882146 0.878605 0.878792 0.887422 0.888762 0.888889 0.891632 0.891822 0.890649 0.892125 0.890772 0.888986 0.890238 0.892071 0.893042 0.892365 0.892822 0.89303 0.892015 0.890315 0.889161 0.890998 0.89211 0.891055 0.891942 0.890799 0.888992 0.888553 0.887085 0.878954 0.878738 0.882207 0.885088 0.888069 0.891278 0.893271 0.893832 0.890559 0.893832 0.890579 0.893832 0.888428 0.893832 0.887799 0.893832 0.885867 0.893832 0.882811 0.893832 0.882903 0.893832 0.883887 0.893832 0.883679 0.893832 0.883887 0.893832 0.882903 0.893832 0.882811 0.893832 0.885867 0.893832 0.887799 0.893832 0.888428 0.893832 0.890579 0.893832 0.890559 0.893832 0.893271 0.891278 0.888069 0.885088 0.882207 0.878738 0.878954 0.887085 0.888553 0.888992 0.890799 0.891942 0.891055 0.89211 0.890998 0.889161 0.890315 0.892015 0.89303 0.892822 0.893101 0.893018 0.892028 0.890473 0.889441 0.891152 0.892053 0.891399 0.891964 0.890206 0.888895 0.888342 0.886829 0.879458 0.87925 0.882584 0.885216 0.888381 0.891317 0.893063 0.893832 0.890546 0.893832 0.890494 0.893832 0.888564 0.893832 0.887889 0.893832 0.886121 0.893832 0.883613 0.893832 0.884265 0.893832 0.88514 0.893832 0.885174 0.893832 0.88514 0.893832 0.884265 0.893832 0.883613 0.893832 0.886121 0.893832 0.887889 0.893832 0.888564 0.893832 0.890494 0.893832 0.890546 0.893832 0.893063 0.891317 0.888381 0.885216 0.882584 0.87925 0.879458 0.886829 0.888342 0.888895 0.890206 0.891964 0.891399 0.892053 0.891152 0.889441 0.890473 0.892028 0.893018 0.893101 0.893234 0.892994 0.892083 0.890671 0.889762 0.891233 0.891945 0.891648 0.891903 0.889783 0.888757 0.888199 0.886646 0.880191 0.88002 0.883177 0.88557 0.88875 0.8914 0.892888 0.893832 0.890563 0.893832 0.890459 0.893832 0.8887 0.893832 0.888025 0.893832 0.886433 0.893832 0.884456 0.893832 0.885491 0.893832 0.886284 0.893832 0.88645 0.893832 0.886284 0.893832 0.885491 0.893832 0.884456 0.893832 0.886433 0.893832 0.888025 0.893832 0.8887 0.893832 0.890459 0.893832 0.890563 0.893832 0.892888 0.8914 0.88875 0.88557 0.883177 0.88002 0.880191 0.886646 0.888199 0.888757 0.889783 0.891903 0.891648 0.891945 0.891233 0.889762 0.890671 0.892083 0.892994 0.893234 0.893255 0.892957 0.892158 0.890879 0.890086 0.89125 0.891789 0.891797 0.891784 0.889478 0.88865 0.888137 0.88653 0.881057 0.88095 0.8839 0.886075 0.889139 0.891511 0.892742 0.893832 0.890601 0.893832 0.890464 0.893832 0.888843 0.893832 0.8882 0.893832 0.886793 0.893832 0.885309 0.893832 0.886587 0.893832 0.887316 0.893832 0.887541 0.893832 0.887316 0.893832 0.886587 0.893832 0.885309 0.893832 0.886793 0.893832 0.8882 0.893832 0.888843 0.893832 0.890464 0.893832 0.890601 0.893832 0.892742 0.891511 0.889139 0.886075 0.8839 0.88095 0.881057 0.88653 0.888137 0.88865 0.889478 0.891784 0.891797 0.891789 0.89125 0.890086 0.890879 0.892158 0.892957 0.893255 0.893195 0.892906 0.892236 0.891075 0.890389 0.891217 0.891598 0.891852 0.891628 0.889253 0.888588 0.888141 0.88648 0.881981 0.881958 0.884687 0.886666 0.889525 0.891642 0.892625 0.893832 0.890655 0.893832 0.890499 0.893832 0.888995 0.893832 0.888408 0.893832 0.887189 0.893832 0.886145 0.893832 0.88756 0.893832 0.888237 0.893832 0.888475 0.893832 0.888237 0.893832 0.88756 0.893832 0.886145 0.893832 0.887189 0.893832 0.888408 0.893832 0.888995 0.893832 0.890499 0.893832 0.890655 0.893832 0.892625 0.891642 0.889525 0.886666 0.884687 0.881958 0.881981 0.88648 0.888141 0.888588 0.889253 0.891628 0.891852 0.891598 0.891217 0.890389 0.891075 0.892236 0.892906 0.893195 0.893083 0.892845 0.892308 0.891247 0.890658 0.891152 0.891385 0.891831 0.891452 0.889082 0.888558 0.888188 0.88649 0.882909 0.882983 0.885486 0.887294 0.889892 0.891784 0.892531 0.893832 0.890719 0.893832 0.890557 0.893832 0.889158 0.893832 0.88864 0.893832 0.88761 0.893832 0.886947 0.893832 0.88842 0.893832 0.889052 0.893832 0.889276 0.893832 0.889052 0.893832 0.88842 0.893832 0.886947 0.893832 0.88761 0.893832 0.88864 0.893832 0.889158 0.893832 0.890557 0.893832 0.890719 0.893832 0.892531 0.891784 0.889892 0.887294 0.885486 0.882983 0.882909 0.88649 0.888188 0.888558 0.889082 0.891452 0.891831 0.891385 0.891152 0.890658 0.891247 0.892308 0.892845 0.893083 0.890889 0.883982 0.886261 0.887924 0.890232 0.891934 0.892458 0.893832 0.890791 0.893832 0.890629 0.893832 0.88933 0.893832 0.888889 0.893832 0.888043 0.893832 0.887702 0.893832 0.889178 0.893832 0.889765 0.893832 0.889963 0.893832 0.889765 0.893832 0.889178 0.893832 0.887702 0.893832 0.888043 0.893832 0.888889 0.893832 0.88933 0.893832 0.890629 0.893832 0.890791 0.893832 0.892458 0.891934 0.890232 0.887924 0.886261 0.883982 0.890889 0.892942 0.892777 0.89237 0.891391 0.891072 0.891163 0.891752 0.89127 0.888947 0.888544 0.888261 0.886553 0.883803 0.883803 0.886553 0.888261 0.888544 0.888947 0.89127 0.891752 0.891163 0.891072 0.891391 0.89237 0.892777 0.892942 0.892788 0.892706 0.892419 0.891505 0.891082 0.890991 0.890943 0.891629 0.89109 0.888837 0.888535 0.888346 0.886659 0.884639 0.884925 0.886989 0.888529 0.890541 0.892087 0.892402 0.893832 0.890867 0.893832 0.890711 0.893832 0.889509 0.893832 0.889148 0.893832 0.888478 0.893832 0.888401 0.893832 0.889843 0.893832 0.890386 0.893832 0.890551 0.893832 0.890386 0.893832 0.889843 0.893832 0.888401 0.893832 0.888478 0.893832 0.889148 0.893832 0.889509 0.893832 0.890711 0.893832 0.890867 0.893832 0.892402 0.892087 0.890541 0.888529 0.886989 0.884925 0.884639 0.886659 0.888346 0.888535 0.888837 0.89109 0.891629 0.890943 0.890991 0.891082 0.891505 0.892419 0.892706 0.892788 0.892633 0.892635 0.892457 0.891592 0.891242 0.890917 0.890733 0.89148 0.890922 0.888746 0.888522 0.888433 0.886801 0.885403 0.885793 0.887655 0.889095 0.890819 0.892241 0.89236 0.893832 0.890947 0.893832 0.890798 0.893832 0.889692 0.893832 0.88941 0.893832 0.888903 0.893832 0.889041 0.893832 0.890423 0.893832 0.890921 0.893832 0.891054 0.893832 0.890921 0.893832 0.890423 0.893832 0.889041 0.893832 0.888903 0.893832 0.88941 0.893832 0.889692 0.893832 0.890798 0.893832 0.890947 0.893832 0.89236 0.892241 0.890819 0.889095 0.887655 0.885793 0.885403 0.886801 0.888433 0.888522 0.888746 0.890922 0.89148 0.890733 0.890917 0.891242 0.891592 0.892457 0.892635 0.892633 0.892485 0.892565 0.892485 0.891656 0.891373 0.890857 0.890539 0.891316 0.890768 0.888669 0.888503 0.888516 0.886969 0.886089 0.886578 0.888253 0.889613 0.891066 0.892392 0.892329 0.893832 0.891027 0.893832 0.890887 0.893832 0.889874 0.893832 0.88967 0.893832 0.889311 0.893832 0.889619 0.893832 0.890929 0.893832 0.891379 0.893832 0.891484 0.893832 0.891379 0.893832 0.890929 0.893832 0.889619 0.893832 0.889311 0.893832 0.88967 0.893832 0.889874 0.893832 0.890887 0.893832 0.891027 0.893832 0.892329 0.892392 0.891066 0.889613 0.888253 0.886578 0.886089 0.886969 0.888516 0.888503 0.888669 0.890768 0.891316 0.890539 0.890857 0.891373 0.891656 0.892485 0.892565 0.892485 0.892348 0.892498 0.892504 0.891702 0.891481 0.890811 0.890365 0.891147 0.890633 0.888602 0.888477 0.888591 0.887155 0.886697 0.887275 0.888781 0.890077 0.891284 0.89254 0.892306 0.893832 0.891107 0.893832 0.890974 0.893832 0.890053 0.893832 0.889922 0.893832 0.889695 0.893832 0.890137 0.893832 0.891366 0.893832 0.891769 0.893832 0.891849 0.893832 0.891769 0.893832 0.891366 0.893832 0.890137 0.893832 0.889695 0.893832 0.889922 0.893832 0.890053 0.893832 0.890974 0.893832 0.891107 0.893832 0.892306 0.89254 0.891284 0.890077 0.888781 0.887275 0.886697 0.887155 0.888591 0.888477 0.888602 0.890633 0.891147 0.890365 0.890811 0.891481 0.891702 0.892504 0.892498 0.892348 0.892224 0.892436 0.892515 0.891734 0.891571 0.89078 0.890212 0.890981 0.890516 0.888546 0.888446 0.888658 0.887351 0.887229 0.887887 0.889241 0.890488 0.891476 0.89268 0.89229 0.893832 0.891184 0.893832 0.89106 0.893832 0.890226 0.893832 0.890162 0.893832 0.890052 0.893832 0.890595 0.893832 0.891743 0.893832 0.892099 0.893832 0.892157 0.893832 0.892099 0.893832 0.891743 0.893832 0.890595 0.893832 0.890052 0.893832 0.890162 0.893832 0.890226 0.893832 0.89106 0.893832 0.891184 0.893832 0.89229 0.89268 0.891476 0.890488 0.889241 0.887887 0.887229 0.887351 0.888658 0.888446 0.888546 0.890516 0.890981 0.890212 0.89078 0.891571 0.891734 0.892515 0.892436 0.892224 0.892115 0.892379 0.892521 0.891755 0.891647 0.890763 0.890082 0.890824 0.890416 0.888497 0.888413 0.888716 0.887551 0.887691 0.888417 0.889637 0.890847 0.891644 0.892812 0.89228 0.893832 0.891256 0.893832 0.89114 0.893832 0.890389 0.893832 0.890386 0.893832 0.890377 0.893832 0.890996 0.893832 0.892064 0.893832 0.892376 0.893832 0.892416 0.893832 0.892376 0.893832 0.892064 0.893832 0.890996 0.893832 0.890377 0.893832 0.890386 0.893832 0.890389 0.893832 0.89114 0.893832 0.891256 0.893832 0.89228 0.892812 0.891644 0.890847 0.889637 0.888417 0.887691 0.887551 0.888716 0.888413 0.888497 0.890416 0.890824 0.890082 0.890763 0.891647 0.891755 0.892521 0.892379 0.892115 0.892019 0.892328 0.892523 0.891769 0.891711 0.890757 0.889974 0.89068 0.890332 0.888456 0.888379 0.888766 0.887747 0.888087 0.888871 0.889974 0.891157 0.891789 0.892934 0.892272 0.893832 0.891324 0.893832 0.891215 0.893832 0.89054 0.893832 0.890591 0.893832 0.890669 0.893832 0.891343 0.893832 0.892336 0.893832 0.892607 0.893832 0.892633 0.893832 0.892607 0.893832 0.892336 0.893832 0.891343 0.893832 0.890669 0.893832 0.890591 0.893832 0.89054 0.893832 0.891215 0.893832 0.891324 0.893832 0.892272 0.892934 0.891789 0.891157 0.889974 0.888871 0.888087 0.887747 0.888766 0.888379 0.888456 0.890332 0.89068 0.889974 0.890757 0.891711 0.891769 0.892523 0.892328 0.892019 0.891938 0.892282 0.892521 0.891778 0.891766 0.89076 0.889886 0.890552 0.890263 0.888421 0.888347 0.888809 0.887933 0.888422 0.889254 0.890257 0.891419 0.891913 0.893043 0.892268 0.893832 0.891385 0.893832 0.891283 0.893832 0.890676 0.893832 0.890774 0.893832 0.890925 0.893832 0.891639 0.893832 0.892564 0.893832 0.892796 0.893832 0.892811 0.893832 0.892796 0.893832 0.892564 0.893832 0.891639 0.893832 0.890925 0.893832 0.890774 0.893832 0.890676 0.893832 0.891283 0.893832 0.891385 0.893832 0.892268 0.893043 0.891913 0.891419 0.890257 0.889254 0.888422 0.887933 0.888809 0.888347 0.888421 0.890263 0.890552 0.889886 0.89076 0.891766 0.891778 0.892521 0.892282 0.891938 0.891869 0.892243 0.892517 0.891784 0.891813 0.890769 0.889817 0.890441 0.890207 0.888392 0.888318 0.888844 0.888104 0.888701 0.889572 0.89049 0.891638 0.892018 0.893138 0.892265 0.893832 0.891439 0.893832 0.891343 0.893832 0.890796 0.893832 0.890934 0.893832 0.891145 0.893832 0.891887 0.893832 0.892751 0.893832 0.89295 0.893832 0.892956 0.893832 0.89295 0.893832 0.892751 0.893832 0.891887 0.893832 0.891145 0.893832 0.890934 0.893832 0.890796 0.893832 0.891343 0.893832 0.891439 0.893832 0.892265 0.893138 0.892018 0.891638 0.89049 0.889572 0.888701 0.888104 0.888844 0.888318 0.888392 0.890207 0.890441 0.889817 0.890769 0.891813 0.891784 0.892517 0.892243 0.891869 0.891812 0.89221 0.892513 0.891788 0.891852 0.890781 0.889763 0.890348 0.890162 0.888368 0.888293 0.888873 0.888255 0.888928 0.889829 0.890677 0.891816 0.892104 0.893219 0.892264 0.893832 0.891485 0.893832 0.891395 0.893832 0.890898 0.893832 0.891069 0.893832 0.891328 0.893832 0.892089 0.893832 0.892902 0.893832 0.893072 0.893832 0.893072 0.893832 0.893072 0.893832 0.892902 0.893832 0.892089 0.893832 0.891328 0.893832 0.891069 0.893832 0.890898 0.893832 0.891395 0.893832 0.891485 0.893832 0.892264 0.893219 0.892104 0.891816 0.890677 0.889829 0.888928 0.888255 0.888873 0.888293 0.888368 0.890162 0.890348 0.889763 0.890781 0.891852 0.891788 0.892513 0.89221 0.891812 0.891768 0.892183 0.892508 0.89179 0.891883 0.890794 0.889723 0.890274 0.890128 0.88835 0.888273 0.888896 0.888381 0.889106 0.89003 0.890823 0.891956 0.892172 0.893284 0.892264 0.893832 0.891523 0.893832 0.891437 0.893832 0.890981 0.893832 0.891178 0.893832 0.891475 0.893832 0.892248 0.893832 0.893018 0.893832 0.893166 0.893832 0.89316 0.893832 0.893166 0.893832 0.893018 0.893832 0.892248 0.893832 0.891475 0.893832 0.891178 0.893832 0.890981 0.893832 0.891437 0.893832 0.891523 0.893832 0.892264 0.893284 0.892172 0.891956 0.890823 0.89003 0.889106 0.888381 0.888896 0.888273 0.88835 0.890128 0.890274 0.889723 0.890794 0.891883 0.89179 0.892508 0.892183 0.891768 0.891735 0.892163 0.892503 0.891791 0.891907 0.890807 0.889695 0.890218 0.890102 0.888336 0.888258 0.888914 0.888479 0.889238 0.890178 0.89093 0.892059 0.892223 0.893334 0.892264 0.893832 0.891552 0.893832 0.891469 0.893832 0.891044 0.893832 0.89126 0.893832 0.891585 0.893832 0.892366 0.893832 0.893104 0.893832 0.893234 0.893832 0.893225 0.893832 0.893234 0.893832 0.893104 0.893832 0.892366 0.893832 0.891585 0.893832 0.89126 0.893832 0.891044 0.893832 0.891469 0.893832 0.891552 0.893832 0.892264 0.893334 0.892223 0.892059 0.89093 0.890178 0.889238 0.888479 0.888914 0.888258 0.888336 0.890102 0.890218 0.889695 0.890807 0.891907 0.891791 0.892503 0.892163 0.891735 0.891713 0.892149 0.8925 0.891792 0.891924 0.890816 0.889677 0.890181 0.890086 0.888327 0.888248 0.888925 0.888545 0.889325 0.890275 0.891001 0.892127 0.892256 0.893367 0.892264 0.893832 0.891571 0.893832 0.89149 0.893832 0.891086 0.893832 0.891315 0.893832 0.891658 0.893832 0.892443 0.893832 0.89316 0.893832 0.893278 0.893832 0.893267 0.893832 0.893278 0.893832 0.89316 0.893832 0.892443 0.893832 0.891658 0.893832 0.891315 0.893832 0.891086 0.893832 0.89149 0.893832 0.891571 0.893832 0.892264 0.893367 0.892256 0.892127 0.891001 0.890275 0.889325 0.888545 0.888925 0.888248 0.888327 0.890086 0.890181 0.889677 0.890816 0.891924 0.891792 0.8925 0.892149 0.891713 0.891702 0.892142 0.892499 0.891792 0.891932 0.890821 0.889669 0.890163 0.890078 0.888323 0.888243 0.888931 0.888579 0.889368 0.890324 0.891035 0.892161 0.892273 0.893383 0.892264 0.893832 0.89158 0.893832 0.891501 0.893832 0.891108 0.893832 0.891343 0.893832 0.891695 0.893832 0.892482 0.893832 0.893187 0.893832 0.8933 0.893832 0.893288 0.893832 0.8933 0.893832 0.893187 0.893832 0.892482 0.893832 0.891695 0.893832 0.891343 0.893832 0.891108 0.893832 0.891501 0.893832 0.89158 0.893832 0.892264 0.893383 0.892273 0.892161 0.891035 0.890324 0.889368 0.888579 0.888931 0.888243 0.888323 0.890078 0.890163 0.889669 0.890821 0.891932 0.891792 0.892499 0.892142 0.891702 
SCALARS Axial_Stress float 1
LOOKUP_TABLE default
-132883000000.0 -129992000000.0 -105578000000.0 -99530900000.0 -17760900000.0 -39115500000.0 -39115500000.0 -17760900000.0 -99530900000.0 -105578000000.0 -129992000000.0 -132883000000.0 -614691000000.0 -757967000000.0 -384572000000.0 -99739300000.0 -91403200000.0 -42888300000.0 -150552000000.0 -72998400000.0 -33425000000.0 -25972200000.0 -28002200000.0 -25972200000.0 -33425000000.0 -72998400000.0 -150552000000.0 -42888400000.0 -91403200000.0 -99739300000.0 -384572000000.0 -757967000000.0 -614691000000.0 -1.22259e+12 -1.6715e+12 -922135000000.0 -495798000000.0 -211815000000.0 -183757000000.0 -215601000000.0 -119589000000.0 -119589000000.0 -215601000000.0 -183757000000.0 -211815000000.0 -495798000000.0 -922135000000.0 -1.6715e+12 -1.22259e+12 -1.70886e+12 -1.53536e+12 -2.65986e+12 -1.19574e+12 -1.39402e+12 -1.10928e+12 -998971000000.0 -555520000000.0 -472040000000.0 -236327000000.0 -306989000000.0 -286689000000.0 -173268000000.0 -47045100000.0 -42277100000.0 -16261700000.0 -42277100000.0 -47045100000.0 -173268000000.0 -286689000000.0 -306989000000.0 -236327000000.0 -472040000000.0 -555520000000.0 -998971000000.0 -1.10928e+12 -1.39402e+12 -1.19574e+12 -2.65986e+12 -1.53536e+12 -1.70886e+12 -1.82792e+12 -3.07012e+12 -3.02942e+12 -2.68119e+12 -1.60646e+12 -1.06476e+12 -686936000000.0 -468179000000.0 -310461000000.0 -101018000000.0 -82809800000.0 -13482200000.0 -82809800000.0 -101018000000.0 -310461000000.0 -468179000000.0 -686936000000.0 -1.06476e+12 -1.60646e+12 -2.68119e+12 -3.02942e+12 -3.07012e+12 -1.82792e+12 -1.91667e+12 -3.43656e+12 -3.29509e+12 -3.17161e+12 -2.96348e+12 -1.35804e+12 -1.09814e+12 -390846000000.0 -598281000000.0 -416128000000.0 -232282000000.0 -174164000000.0 -51894100000.0 -51894100000.0 -174164000000.0 -232283000000.0 -416128000000.0 -598281000000.0 -390846000000.0 -1.09814e+12 -1.35804e+12 -2.96348e+12 -3.17161e+12 -3.29509e+12 -3.43656e+12 -1.91667e+12 -2.05509e+12 -1.98894e+12 -3.53314e+12 -3.27344e+12 -3.13854e+12 -1.58917e+12 -1.60337e+12 -1.24029e+12 -1.2075e+12 -1.24231e+12 -1.76954e+12 -811643000000.0 -298466000000.0 -198155000000.0 -90252500000.0 -68215100000.0 -125126000000.0 -10440900000.0 -125126000000.0 -68215100000.0 -90252500000.0 -198155000000.0 -298466000000.0 -811643000000.0 -1.76954e+12 -1.24231e+12 -1.2075e+12 -1.24029e+12 -1.60337e+12 -1.58917e+12 -3.13854e+12 -3.27344e+12 -3.53314e+12 -1.98894e+12 -2.05509e+12 -2.1198e+12 -3.60587e+12 -3.35383e+12 -3.20937e+12 -3.17015e+12 -3.13991e+12 -3.08598e+12 -1.62576e+12 -1.51368e+12 -1.47329e+12 -1.0945e+12 -517156000000.0 -238412000000.0 -77347200000.0 -168470000000.0 -168470000000.0 -77347200000.0 -238412000000.0 -517156000000.0 -1.0945e+12 -1.47329e+12 -1.51368e+12 -1.62576e+12 -3.08598e+12 -3.13991e+12 -3.17015e+12 -3.20937e+12 -3.35383e+12 -3.60587e+12 -2.1198e+12 -2.18293e+12 -3.66591e+12 -3.47822e+12 -3.42058e+12 -3.25559e+12 -3.10706e+12 -3.03124e+12 -1.54242e+12 -1.40945e+12 -1.33222e+12 -1.35925e+12 -294041000000.0 -217024000000.0 -200195000000.0 -79652100000.0 -12093200000.0 -79652200000.0 -200195000000.0 -217024000000.0 -294041000000.0 -1.35925e+12 -1.33222e+12 -1.40945e+12 -1.54242e+12 -3.03124e+12 -3.10706e+12 -3.25559e+12 -3.42058e+12 -3.47822e+12 -3.66591e+12 -2.18293e+12 -2.24154e+12 -3.76725e+12 -3.71953e+12 -3.53094e+12 -3.30319e+12 -3.115e+12 -3.03097e+12 -2.86722e+12 -1.63713e+12 -1.55765e+12 -1.42929e+12 -2.02748e+12 -1.88545e+12 -1.37539e+12 -1.3098e+12 -149132000000.0 -55599600000.0 -157880000000.0 -255552000000.0 -72745100000.0 -255552000000.0 -157880000000.0 -55599600000.0 -149132000000.0 -1.3098e+12 -1.37539e+12 -1.88545e+12 -2.02748e+12 -1.42929e+12 -1.55765e+12 -1.63713e+12 -2.86722e+12 -3.03097e+12 -3.115e+12 -3.30319e+12 -3.53094e+12 -3.71953e+12 -3.76725e+12 -2.24154e+12 -2.31977e+12 -2.28941e+12 -3.80853e+12 -3.58046e+12 -3.34989e+12 -3.18133e+12 -3.14373e+12 -2.99545e+12 -2.99244e+12 -2.86936e+12 -1.61353e+12 -2.06814e+12 -1.68886e+12 -1.28831e+12 -1.2139e+12 -1.27291e+12 -1.16352e+12 -218862000000.0 -225545000000.0 -225545000000.0 -218862000000.0 -1.16352e+12 -1.27291e+12 -1.2139e+12 -1.28831e+12 -1.68886e+12 -2.06814e+12 -1.61353e+12 -2.86936e+12 -2.99244e+12 -2.99545e+12 -3.14373e+12 -3.18133e+12 -3.34989e+12 -3.58046e+12 -3.80853e+12 -2.28941e+12 -2.31977e+12 -2.33051e+12 -3.84073e+12 -3.62259e+12 -3.4313e+12 -3.39399e+12 -3.21703e+12 -3.02296e+12 -2.84315e+12 -2.63978e+12 -2.02243e+12 -2.01868e+12 -1.90295e+12 -1.63144e+12 -1.50199e+12 -1.15122e+12 -1.16559e+12 -103932000000.0 -62528400000.0 -103932000000.0 -1.16559e+12 -1.15122e+12 -1.50199e+12 -1.63144e+12 -1.90295e+12 -2.01868e+12 -2.02243e+12 -2.63978e+12 -2.84315e+12 -3.02296e+12 -3.21703e+12 -3.39399e+12 -3.4313e+12 -3.62259e+12 -3.84073e+12 -2.33051e+12 -2.32338e+12 -3.86366e+12 -3.68353e+12 -3.65667e+12 -3.46249e+12 -3.24364e+12 -3.05414e+12 -2.86528e+12 -2.64722e+12 -2.40145e+12 -2.01447e+12 -2.14447e+12 -2.08432e+12 -1.98549e+12 -1.85561e+12 -1.72621e+12 -1.5863e+12 -1.33873e+12 -1.09801e+12 -958185000000.0 -953631000000.0 -299823000000.0 -417633000000.0 -299823000000.0 -953632000000.0 -958185000000.0 -1.09801e+12 -1.33873e+12 -1.5863e+12 -1.72621e+12 -1.85561e+12 -1.98549e+12 -2.08432e+12 -2.14447e+12 -2.01447e+12 -2.40145e+12 -2.64722e+12 -2.86528e+12 -3.05414e+12 -3.24364e+12 -3.46249e+12 -3.65667e+12 -3.68353e+12 -3.86366e+12 -2.32338e+12 -2.26891e+12 -2.30181e+12 -3.90039e+12 -3.88324e+12 -3.70463e+12 -3.48861e+12 -3.26293e+12 -3.07606e+12 -3.07402e+12 -2.92283e+12 -2.89685e+12 -2.73286e+12 -2.68502e+12 -2.48824e+12 -2.175e+12 -2.0946e+12 -1.67838e+12 -1.42784e+12 -1.1883e+12 -1.02947e+12 -958133000000.0 -828842000000.0 -828842000000.0 -958133000000.0 -1.02947e+12 -1.1883e+12 -1.42784e+12 -1.67838e+12 -2.0946e+12 -2.175e+12 -2.48824e+12 -2.68502e+12 -2.73286e+12 -2.89685e+12 -2.92284e+12 -3.07402e+12 -3.07606e+12 -3.26293e+12 -3.48861e+12 -3.70463e+12 -3.88324e+12 -3.90039e+12 -2.30181e+12 -2.26891e+12 -2.23377e+12 -3.90853e+12 -3.72295e+12 -3.51145e+12 -3.30386e+12 -3.28411e+12 -3.08095e+12 -2.92751e+12 -2.77016e+12 -2.54146e+12 -2.32253e+12 -2.19579e+12 -2.01255e+12 -1.80812e+12 -1.51777e+12 -1.26715e+12 -1.1197e+12 -1.03532e+12 -921852000000.0 -910825000000.0 -1.13101e+12 -910825000000.0 -921852000000.0 -1.03532e+12 -1.1197e+12 -1.26715e+12 -1.51777e+12 -1.80812e+12 -2.01255e+12 -2.19579e+12 -2.32253e+12 -2.54146e+12 -2.77016e+12 -2.92751e+12 -3.08095e+12 -3.28411e+12 -3.30386e+12 -3.51145e+12 -3.72295e+12 -3.90853e+12 -2.23377e+12 -2.20562e+12 -3.89544e+12 -3.75669e+12 -3.74599e+12 -3.56184e+12 -3.53147e+12 -3.32202e+12 -3.08772e+12 -2.88901e+12 -2.80031e+12 -2.6108e+12 -2.37068e+12 -2.25378e+12 -2.23006e+12 -2.29425e+12 -2.14602e+12 -2.15092e+12 -1.76137e+12 -1.60186e+12 -1.41951e+12 -1.34575e+12 -1.18596e+12 -992744000000.0 -823628000000.0 -1.12367e+12 -1.12563e+12 -1.12367e+12 -823628000000.0 -992744000000.0 -1.18596e+12 -1.34575e+12 -1.41951e+12 -1.60186e+12 -1.76137e+12 -2.15092e+12 -2.14602e+12 -2.29425e+12 -2.23006e+12 -2.25378e+12 -2.37068e+12 -2.6108e+12 -2.80031e+12 -2.88901e+12 -3.08772e+12 -3.32202e+12 -3.53147e+12 -3.56184e+12 -3.74599e+12 -3.75669e+12 -3.89544e+12 -2.20562e+12 -2.17896e+12 -3.81901e+12 -3.86243e+12 -3.74054e+12 -3.60973e+12 -3.35743e+12 -3.09263e+12 -2.8609e+12 -2.64438e+12 -2.79037e+12 -2.71332e+12 -2.65336e+12 -2.50296e+12 -2.38985e+12 -2.23932e+12 -2.24193e+12 -2.2772e+12 -1.44694e+12 -1.23562e+12 -1.06949e+12 -869034000000.0 -1.03278e+12 -1.0504e+12 -1.02875e+12 -1.02875e+12 -1.0504e+12 -1.03278e+12 -869034000000.0 -1.06949e+12 -1.23562e+12 -1.44694e+12 -2.2772e+12 -2.24193e+12 -2.23932e+12 -2.38985e+12 -2.50296e+12 -2.65336e+12 -2.71332e+12 -2.79037e+12 -2.64438e+12 -2.8609e+12 -3.09263e+12 -3.35743e+12 -3.60973e+12 -3.74054e+12 -3.86243e+12 -3.81901e+12 -2.17896e+12 -2.14299e+12 -2.15723e+12 -3.73612e+12 -3.69472e+12 -3.62714e+12 -3.64242e+12 -3.49692e+12 -3.4121e+12 -3.18608e+12 -3.12546e+12 -2.86781e+12 -2.82241e+12 -2.71558e+12 -2.54128e+12 -2.16248e+12 -2.17264e+12 -2.44201e+12 -2.53426e+12 -1.6222e+12 -1.20035e+12 -1.14731e+12 -983596000000.0 -922963000000.0 -998013000000.0 -991805000000.0 -1.06236e+12 -991805000000.0 -998013000000.0 -922963000000.0 -983596000000.0 -1.14731e+12 -1.20035e+12 -1.6222e+12 -2.53426e+12 -2.44201e+12 -2.17264e+12 -2.16248e+12 -2.54128e+12 -2.71558e+12 -2.82241e+12 -2.86781e+12 -3.12546e+12 -3.18608e+12 -3.4121e+12 -3.49692e+12 -3.64242e+12 -3.62714e+12 -3.69472e+12 -3.73612e+12 -2.15723e+12 -2.14299e+12 -2.11868e+12 -3.6162e+12 -3.65517e+12 -3.56704e+12 -3.56041e+12 -3.27811e+12 -2.93023e+12 -2.55302e+12 -2.48851e+12 -2.02854e+12 -2.71596e+12 -2.50221e+12 -2.3699e+12 -2.04974e+12 -1.55947e+12 -2.26801e+12 -2.72342e+12 -2.25126e+12 -1.95318e+12 -684221000000.0 -1.59369e+12 -1.30461e+12 -959919000000.0 -967041000000.0 -949960000000.0 -1.06557e+12 -1.06557e+12 -949960000000.0 -967041000000.0 -959919000000.0 -1.30461e+12 -1.59369e+12 -684221000000.0 -1.95318e+12 -2.25126e+12 -2.72342e+12 -2.26801e+12 -1.55947e+12 -2.04974e+12 -2.3699e+12 -2.50221e+12 -2.71596e+12 -2.02853e+12 -2.48851e+12 -2.55302e+12 -2.93023e+12 -3.27811e+12 -3.56041e+12 -3.56704e+12 -3.65517e+12 -3.6162e+12 -2.11868e+12 -2.07447e+12 -3.45796e+12 -3.55059e+12 -3.55282e+12 -3.55739e+12 -3.54637e+12 -3.41977e+12 -3.17821e+12 -3.0246e+12 -2.66204e+12 -2.15128e+12 -2.1083e+12 -2.63518e+12 -1.38311e+12 -1.36217e+12 -1.58004e+12 -1.32245e+12 -1.80773e+12 -963212000000.0 -945540000000.0 -933858000000.0 -1.03694e+12 -1.05959e+12 -1.00952e+12 -1.03468e+12 -1.00952e+12 -1.05959e+12 -1.03694e+12 -933858000000.0 -945540000000.0 -963212000000.0 -1.80773e+12 -1.32245e+12 -1.58004e+12 -1.36217e+12 -1.38311e+12 -2.63518e+12 -2.1083e+12 -2.15128e+12 -2.66204e+12 -3.0246e+12 -3.17821e+12 -3.41977e+12 -3.54637e+12 -3.55739e+12 -3.55282e+12 -3.55059e+12 -3.45796e+12 -2.07447e+12 -1.89376e+12 -1.99629e+12 -3.1117e+12 -3.267e+12 -3.20122e+12 -3.39858e+12 -3.39526e+12 -3.47534e+12 -3.58755e+12 -3.42754e+12 -2.86716e+12 -2.7366e+12 -2.50207e+12 -2.36786e+12 -2.07509e+12 -1.46137e+12 -2.04624e+12 -3.24827e+12 -1.35421e+12 -1.30164e+12 -2.76886e+12 -2.51959e+12 -981548000000.0 -926772000000.0 -852790000000.0 -963971000000.0 -1.02585e+12 -983977000000.0 -974171000000.0 -983977000000.0 -1.02585e+12 -963971000000.0 -852790000000.0 -926772000000.0 -981549000000.0 -2.51959e+12 -2.76886e+12 -1.30164e+12 -1.35422e+12 -3.24827e+12 -2.04624e+12 -1.46137e+12 -2.07509e+12 -2.36786e+12 -2.50207e+12 -2.7366e+12 -2.86716e+12 -3.42754e+12 -3.58755e+12 -3.47534e+12 -3.39526e+12 -3.39858e+12 -3.20122e+12 -3.267e+12 -3.1117e+12 -1.99629e+12 -1.89376e+12 -1.78464e+12 -2.99189e+12 -2.99448e+12 -3.15507e+12 -3.55761e+12 -3.36794e+12 -3.68482e+12 -3.02737e+12 -2.49999e+12 -2.3052e+12 -1.67293e+12 -1.05231e+12 -1.42426e+12 -1.03642e+12 -1.03807e+12 -1.67058e+12 -1.34804e+12 -2.46225e+12 -1.60764e+12 -1.21011e+12 -753671000000.0 -1.15369e+12 -953510000000.0 -939729000000.0 -939729000000.0 -953510000000.0 -1.15369e+12 -753671000000.0 -1.21011e+12 -1.60764e+12 -2.46225e+12 -1.34804e+12 -1.67058e+12 -1.03807e+12 -1.03642e+12 -1.42426e+12 -1.05231e+12 -1.67293e+12 -2.3052e+12 -2.49999e+12 -3.02737e+12 -3.68482e+12 -3.36794e+12 -3.55761e+12 -3.15507e+12 -2.99448e+12 -2.99189e+12 -1.78464e+12 -1.68012e+12 -2.91719e+12 -2.75913e+12 -2.85384e+12 -2.90355e+12 -3.23728e+12 -3.5697e+12 -3.85412e+12 -4.26529e+12 -3.5559e+12 -2.55811e+12 -2.21681e+12 -2.46071e+12 -2.28304e+12 -856718000000.0 -241054000000.0 -1.36033e+12 -2.19739e+12 -876049000000.0 -1.11941e+12 -789461000000.0 -1.56786e+12 -1.33034e+12 -1.08065e+12 -922415000000.0 -948023000000.0 -922472000000.0 -1.02777e+12 -893046000000.0 -936773000000.0 -826406000000.0 -882844000000.0 -826406000000.0 -936773000000.0 -893046000000.0 -1.02777e+12 -922472000000.0 -948023000000.0 -922415000000.0 -1.08065e+12 -1.33034e+12 -1.56786e+12 -789462000000.0 -1.11941e+12 -876050000000.0 -2.19739e+12 -1.36033e+12 -241054000000.0 -856718000000.0 -2.28304e+12 -2.46071e+12 -2.21681e+12 -2.55811e+12 -3.5559e+12 -4.26529e+12 -3.85412e+12 -3.5697e+12 -3.23728e+12 -2.90355e+12 -2.85384e+12 -2.75913e+12 -2.91719e+12 -1.68012e+12 -1.47357e+12 -1.57646e+12 -2.77558e+12 -2.86393e+12 -2.74375e+12 -2.57133e+12 -2.57051e+12 -2.90172e+12 -3.27243e+12 -4.34155e+12 -2.57043e+12 -4.27326e+12 -3.07187e+12 -2.42874e+12 -2.7049e+12 -2.10098e+12 -2.32391e+12 -2.91676e+12 -2.06712e+12 -1.34166e+12 -1.80541e+12 -1.37963e+12 -1.40916e+12 -716385000000.0 -765761000000.0 -761280000000.0 -906968000000.0 -1.13254e+12 -1.02516e+12 -738146000000.0 -827590000000.0 -738145000000.0 -1.02516e+12 -1.13254e+12 -906968000000.0 -761280000000.0 -765760000000.0 -716385000000.0 -1.40916e+12 -1.37963e+12 -1.80541e+12 -1.34166e+12 -2.06712e+12 -2.91676e+12 -2.32391e+12 -2.10098e+12 -2.7049e+12 -2.42874e+12 -3.07187e+12 -4.27326e+12 -2.57043e+12 -4.34155e+12 -3.27243e+12 -2.90172e+12 -2.57051e+12 -2.57133e+12 -2.74375e+12 -2.86393e+12 -2.77558e+12 -1.57646e+12 -1.47357e+12 -1.38651e+12 -2.66655e+12 -2.65616e+12 -2.55231e+12 -2.63108e+12 -2.58826e+12 -1.7316e+12 -2.36093e+12 -2.37034e+12 -2.72976e+12 -3.81535e+12 -2.40953e+12 -2.09703e+12 -4.37849e+12 -2.86925e+12 -1.47533e+12 -1.196e+12 -2.322e+12 -1.78178e+12 -1.13247e+12 -1.07789e+12 -902026000000.0 -785807000000.0 -870067000000.0 -1.28038e+12 -777146000000.0 -481601000000.0 -655573000000.0 -467874000000.0 -709311000000.0 -760718000000.0 -760717000000.0 -709311000000.0 -467874000000.0 -655572000000.0 -481601000000.0 -777146000000.0 -1.28038e+12 -870067000000.0 -785807000000.0 -902027000000.0 -1.07789e+12 -1.13247e+12 -1.78178e+12 -2.322e+12 -1.196e+12 -1.47533e+12 -2.86925e+12 -4.37849e+12 -2.09703e+12 -2.40953e+12 -3.81535e+12 -2.72976e+12 -2.37034e+12 -2.36093e+12 -1.7316e+12 -2.58826e+12 -2.63108e+12 -2.55231e+12 -2.65616e+12 -2.66655e+12 -1.38651e+12 -1.2849e+12 -2.55348e+12 -2.41615e+12 -2.54681e+12 -2.45565e+12 -2.45552e+12 -2.13781e+12 -1.59004e+12 -1.06419e+12 -3.00672e+12 -2.38431e+12 -1.33876e+12 -3.02286e+12 -2.14729e+12 -1.34089e+12 -691591000000.0 -894709000000.0 -949682000000.0 -225635000000.0 -598272000000.0 -774464000000.0 -847843000000.0 -223486000000.0 -648115000000.0 -198086000000.0 -594259000000.0 -446203000000.0 -682980000000.0 -969747000000.0 -730245000000.0 -969746000000.0 -682979000000.0 -446204000000.0 -594258000000.0 -198086000000.0 -648115000000.0 -223486000000.0 -847843000000.0 -774464000000.0 -598272000000.0 -225636000000.0 -949682000000.0 -894709000000.0 -691591000000.0 -1.34089e+12 -2.14729e+12 -3.02286e+12 -1.33876e+12 -2.38431e+12 -3.00672e+12 -1.06419e+12 -1.59004e+12 -2.13781e+12 -2.45552e+12 -2.45565e+12 -2.54681e+12 -2.41615e+12 -2.55348e+12 -1.2849e+12 -667160000000.0 -2.44486e+12 -2.26718e+12 -2.31773e+12 -2.41223e+12 -2.35192e+12 -1.31962e+12 -648181000000.0 -2.67753e+12 -3.05164e+12 -2.35804e+12 -2.16223e+12 -1.7801e+12 -2.24689e+12 -1.05212e+12 -124509000000.0 -1.51646e+12 -1.17747e+12 -805108000000.0 -1.6887e+12 -1.48573e+12 -860303000000.0 -487161000000.0 -406654000000.0 -305496000000.0 -476275000000.0 -321391000000.0 -661813000000.0 -553269000000.0 -793455000000.0 -553269000000.0 -661813000000.0 -321391000000.0 -476274000000.0 -305496000000.0 -406654000000.0 -487161000000.0 -860303000000.0 -1.48573e+12 -1.6887e+12 -805108000000.0 -1.17747e+12 -1.51646e+12 -124509000000.0 -1.05212e+12 -2.24689e+12 -1.7801e+12 -2.16223e+12 -2.35804e+12 -3.05164e+12 -2.67753e+12 -648182000000.0 -1.31962e+12 -2.35192e+12 -2.41223e+12 -2.31773e+12 -2.26718e+12 -2.44486e+12 -667160000000.0 -521825000000.0 -995156000000.0 -1.83561e+12 -1.77292e+12 -2.14602e+12 -2.09603e+12 -2.29654e+12 -2.31779e+12 -2.40349e+12 -1.18415e+12 -1.73658e+12 -2.51104e+12 -2.40961e+12 -2.33721e+12 -1.95123e+12 -2.10188e+12 -1.42974e+12 -1.21038e+12 -1.11532e+12 -1.14356e+12 -771964000000.0 -1.11306e+12 -1.45736e+12 -1.1577e+12 -1.05343e+12 -1.18641e+12 -816732000000.0 -229440000000.0 -107250000000.0 -195099000000.0 -195098000000.0 -107249000000.0 -229440000000.0 -816732000000.0 -1.18641e+12 -1.05343e+12 -1.1577e+12 -1.45736e+12 -1.11306e+12 -771964000000.0 -1.14356e+12 -1.11532e+12 -1.21038e+12 -1.42974e+12 -2.10188e+12 -1.95123e+12 -2.33721e+12 -2.40961e+12 -2.51104e+12 -1.73658e+12 -1.18415e+12 -2.40349e+12 -2.31779e+12 -2.29654e+12 -2.09603e+12 -2.14602e+12 -1.77292e+12 -1.83561e+12 -995156000000.0 -521825000000.0 -96450000000.0 -364224000000.0 -664729000000.0 -1.63641e+12 -1.82745e+12 -1.90024e+12 -2.13257e+12 -2.45429e+12 -2.43735e+12 -1.74535e+12 -2.26553e+12 -1.46431e+12 -1.93176e+12 -2.00759e+12 -1.78531e+12 -1.59211e+12 -2.5945e+12 -1.34642e+12 -1.12736e+12 -1.17173e+12 -1.48595e+12 -736051000000.0 -1.21024e+12 -692902000000.0 -1.04231e+12 -969434000000.0 -992650000000.0 -456294000000.0 -723050000000.0 -1.02655e+12 -496902000000.0 -606746000000.0 -423753000000.0 -378607000000.0 -703938000000.0 -378606000000.0 -423754000000.0 -606746000000.0 -496902000000.0 -1.02655e+12 -723050000000.0 -456294000000.0 -992650000000.0 -969434000000.0 -1.04231e+12 -692901000000.0 -1.21024e+12 -736051000000.0 -1.48595e+12 -1.17173e+12 -1.12736e+12 -1.34642e+12 -2.5945e+12 -1.59211e+12 -1.78531e+12 -2.00759e+12 -1.93176e+12 -1.46431e+12 -2.26553e+12 -1.74535e+12 -2.43735e+12 -2.45429e+12 -2.13257e+12 -1.90024e+12 -1.82745e+12 -1.63641e+12 -664729000000.0 -364224000000.0 -96450000000.0 -420413000000.0 -620236000000.0 -1.5537e+12 -1.66011e+12 -1.67081e+12 -1.875e+12 -2.03875e+12 -2.11831e+12 -2.10926e+12 -538237000000.0 -1.73208e+12 -1.65717e+12 -1.50305e+12 -1.64351e+12 -1.5834e+12 -1.35767e+12 -2.33221e+12 -2.12729e+12 -1.61666e+12 -956055000000.0 -1.09796e+12 -1.29865e+12 -1.0264e+12 -929057000000.0 -702562000000.0 -867170000000.0 -362365000000.0 -484808000000.0 -561334000000.0 -299649000000.0 -469722000000.0 -54729800000.0 -326481000000.0 -87638900000.0 -574328000000.0 -87638800000.0 -326482000000.0 -54730000000.0 -469722000000.0 -299649000000.0 -561334000000.0 -484808000000.0 -362365000000.0 -867170000000.0 -702562000000.0 -929057000000.0 -1.0264e+12 -1.29865e+12 -1.09796e+12 -956055000000.0 -1.61666e+12 -2.12729e+12 -2.33221e+12 -1.35767e+12 -1.5834e+12 -1.64351e+12 -1.50305e+12 -1.65717e+12 -1.73208e+12 -538237000000.0 -2.10926e+12 -2.11831e+12 -2.03875e+12 -1.875e+12 -1.67081e+12 -1.66011e+12 -1.5537e+12 -620236000000.0 -420413000000.0 -107328000000.0 -1.21976e+12 -1.74926e+12 -1.39837e+12 -2.22297e+12 -2.20981e+12 -1.39003e+12 -1.19226e+12 -2.03337e+12 -1.89527e+12 -1.60534e+12 -1.31532e+12 -1.14738e+12 -885439000000.0 -1.00192e+12 -790791000000.0 -467605000000.0 -829585000000.0 -354019000000.0 -676615000000.0 -292225000000.0 -254849000000.0 -61502100000.0 -61501700000.0 -254849000000.0 -292225000000.0 -676615000000.0 -354019000000.0 -829585000000.0 -467605000000.0 -790791000000.0 -1.00192e+12 -885440000000.0 -1.14738e+12 -1.31532e+12 -1.60534e+12 -1.89527e+12 -2.03337e+12 -1.19226e+12 -1.39003e+12 -2.20981e+12 -2.22297e+12 -1.39837e+12 -1.74926e+12 -1.21976e+12 -107328000000.0 -192926000000.0 -1.01682e+12 -1.5539e+12 -1.6003e+12 -1.78631e+12 -1.71723e+12 -3.31849e+12 -1.9264e+12 -1.48659e+12 -1.38013e+12 -1.37866e+12 -1.33181e+12 -1.33561e+12 -1.67226e+12 -1.62584e+12 -1.43932e+12 -1.19244e+12 -929908000000.0 -857679000000.0 -781483000000.0 -565687000000.0 -714894000000.0 -825544000000.0 -266139000000.0 -430783000000.0 -744330000000.0 -731017000000.0 -23590900000.0 -133354000000.0 -364449000000.0 -371702000000.0 -220596000000.0 -296690000000.0 -358878000000.0 -491375000000.0 -358879000000.0 -296690000000.0 -220596000000.0 -371702000000.0 -364449000000.0 -133354000000.0 -23590900000.0 -731017000000.0 -744330000000.0 -430783000000.0 -266139000000.0 -825544000000.0 -714894000000.0 -565687000000.0 -781483000000.0 -857679000000.0 -929908000000.0 -1.19244e+12 -1.43932e+12 -1.62584e+12 -1.67226e+12 -1.33561e+12 -1.33181e+12 -1.37866e+12 -1.38013e+12 -1.48659e+12 -1.9264e+12 -3.31849e+12 -1.71723e+12 -1.78631e+12 -1.6003e+12 -1.5539e+12 -1.01682e+12 -192926000000.0 -217615000000.0 -521807000000.0 -356375000000.0 -989129000000.0 -1.18571e+12 -267295000000.0 -2.23926e+12 -2.24441e+12 -1.07156e+12 -1.14998e+12 -1.09261e+12 -1.01264e+12 -1.04449e+12 -719949000000.0 -595006000000.0 -518720000000.0 -505137000000.0 -719839000000.0 -864631000000.0 -820349000000.0 -455805000000.0 -381415000000.0 -412548000000.0 -208793000000.0 -332995000000.0 -122907000000.0 -261708000000.0 -123103000000.0 -497029000000.0 -123103000000.0 -261708000000.0 -122908000000.0 -332995000000.0 -208793000000.0 -412548000000.0 -381415000000.0 -455805000000.0 -820349000000.0 -864631000000.0 -719839000000.0 -505137000000.0 -518720000000.0 -595006000000.0 -719949000000.0 -1.04449e+12 -1.01264e+12 -1.09261e+12 -1.14998e+12 -1.07156e+12 -2.24441e+12 -2.23926e+12 -267295000000.0 -1.18571e+12 -989129000000.0 -356375000000.0 -521807000000.0 -217615000000.0 -130316000000.0 -253193000000.0 -1.41782e+12 -1.47047e+12 -1.16926e+12 -1.11014e+12 -1.28974e+12 -1.36376e+12 -970367000000.0 -944665000000.0 -749941000000.0 -1.28343e+12 -1.32778e+12 -1.24395e+12 -1.02356e+12 -892101000000.0 -817043000000.0 -815455000000.0 -783564000000.0 -651860000000.0 -533748000000.0 -540192000000.0 -450056000000.0 -189632000000.0 -246979000000.0 -63720500000.0 -63720200000.0 -246979000000.0 -189632000000.0 -450056000000.0 -540192000000.0 -533748000000.0 -651860000000.0 -783564000000.0 -815455000000.0 -817043000000.0 -892101000000.0 -1.02356e+12 -1.24395e+12 -1.32778e+12 -1.28343e+12 -749941000000.0 -944665000000.0 -970367000000.0 -1.36376e+12 -1.28974e+12 -1.11014e+12 -1.16926e+12 -1.47047e+12 -1.41782e+12 -253193000000.0 -130316000000.0 -225888000000.0 -1.15594e+12 -2.36672e+12 -380905000000.0 -1.25693e+12 -1.23051e+12 -1.25392e+12 -1.14412e+12 -835975000000.0 -726743000000.0 -896957000000.0 -1.05955e+12 -1.08343e+12 -1.02768e+12 -985555000000.0 -1.07661e+12 -434784000000.0 -396574000000.0 -438666000000.0 -576636000000.0 -517719000000.0 -474299000000.0 -467649000000.0 -601185000000.0 -146643000000.0 -302819000000.0 -321405000000.0 -316325000000.0 -193792000000.0 -174777000000.0 -249305000000.0 -393408000000.0 -249305000000.0 -174777000000.0 -193792000000.0 -316325000000.0 -321405000000.0 -302819000000.0 -146643000000.0 -601185000000.0 -467649000000.0 -474299000000.0 -517719000000.0 -576636000000.0 -438666000000.0 -396574000000.0 -434784000000.0 -1.07661e+12 -985555000000.0 -1.02768e+12 -1.08343e+12 -1.05955e+12 -896957000000.0 -726743000000.0 -835976000000.0 -1.14412e+12 -1.25392e+12 -1.23051e+12 -1.25693e+12 -380905000000.0 -2.36672e+12 -1.15594e+12 -225888000000.0 -218695000000.0 -839094000000.0 -677837000000.0 -1.43252e+12 -1.05962e+12 -719139000000.0 -1.15889e+12 -1.16272e+12 -1.1106e+12 -910362000000.0 -708282000000.0 -823796000000.0 -883104000000.0 -881604000000.0 -854517000000.0 -836831000000.0 -699097000000.0 -534745000000.0 -951515000000.0 -1.04483e+12 -707631000000.0 -574217000000.0 -480508000000.0 -419968000000.0 -407366000000.0 -296978000000.0 -345636000000.0 -149035000000.0 -248815000000.0 -191720000000.0 -360318000000.0 -214190000000.0 -544853000000.0 -214190000000.0 -360318000000.0 -191720000000.0 -248815000000.0 -149035000000.0 -345636000000.0 -296978000000.0 -407366000000.0 -419968000000.0 -480508000000.0 -574217000000.0 -707631000000.0 -1.04483e+12 -951515000000.0 -534745000000.0 -699097000000.0 -836831000000.0 -854517000000.0 -881605000000.0 -883104000000.0 -823796000000.0 -708282000000.0 -910362000000.0 -1.1106e+12 -1.16272e+12 -1.15889e+12 -719139000000.0 -1.05962e+12 -1.43252e+12 -677837000000.0 -839094000000.0 -218695000000.0 -490030000000.0 -40637300000.0 -1.30496e+12 -573428000000.0 -751975000000.0 -586267000000.0 -1.06431e+12 -580675000000.0 -729214000000.0 -724470000000.0 -723325000000.0 -720610000000.0 -817650000000.0 -886351000000.0 -894009000000.0 -914125000000.0 -736664000000.0 -442869000000.0 -442869000000.0 -736664000000.0 -914125000000.0 -894009000000.0 -886351000000.0 -817650000000.0 -720610000000.0 -723325000000.0 -724470000000.0 -729214000000.0 -580675000000.0 -1.06431e+12 -586267000000.0 -751974000000.0 -573428000000.0 -1.30496e+12 -40637300000.0 -490030000000.0 -149542000000.0 -394218000000.0 -1.05951e+12 -102660000000.0 -595292000000.0 -478500000000.0 -1.07317e+12 -998547000000.0 -661045000000.0 -494506000000.0 -747245000000.0 -701841000000.0 -565769000000.0 -571357000000.0 -434756000000.0 -405848000000.0 -411101000000.0 -488662000000.0 -489102000000.0 -464327000000.0 -491696000000.0 -385228000000.0 -362867000000.0 -308629000000.0 -360247000000.0 -252083000000.0 -247733000000.0 -239030000000.0 -309074000000.0 -97883700000.0 -257046000000.0 -13743700000.0 -369770000000.0 -13743700000.0 -257046000000.0 -97883700000.0 -309074000000.0 -239030000000.0 -247733000000.0 -252083000000.0 -360247000000.0 -308629000000.0 -362867000000.0 -385228000000.0 -491696000000.0 -464327000000.0 -489102000000.0 -488662000000.0 -411101000000.0 -405848000000.0 -434756000000.0 -571357000000.0 -565769000000.0 -701841000000.0 -747245000000.0 -494506000000.0 -661045000000.0 -998547000000.0 -1.07317e+12 -478500000000.0 -595292000000.0 -102660000000.0 -1.05951e+12 -394218000000.0 -149542000000.0 -623883000000.0 -931223000000.0 -973887000000.0 -1.04846e+12 -259502000000.0 -677689000000.0 -525978000000.0 -585487000000.0 -578000000000.0 -576529000000.0 -562694000000.0 -60393000000.0 -50778600000.0 -218194000000.0 -23581300000.0 -238974000000.0 -24546600000.0 -182864000000.0 -15013400000.0 -206414000000.0 -18118900000.0 -122631000000.0 -28002100000.0 -180382000000.0 -32968500000.0 -228847000000.0 -58602900000.0 -367224000000.0 -58602900000.0 -228847000000.0 -32968500000.0 -180382000000.0 -28002100000.0 -122631000000.0 -18118900000.0 -206414000000.0 -15013400000.0 -182864000000.0 -24546600000.0 -238974000000.0 -23581300000.0 -218194000000.0 -50778600000.0 -60393000000.0 -562694000000.0 -576529000000.0 -578000000000.0 -585487000000.0 -525978000000.0 -677689000000.0 -259502000000.0 -1.04847e+12 -973887000000.0 -931223000000.0 -623883000000.0 -175341000000.0 -608153000000.0 -47798700000.0 -180056000000.0 -548067000000.0 -461166000000.0 -368308000000.0 -801757000000.0 -844874000000.0 -919348000000.0 -449422000000.0 -966482000000.0 -691891000000.0 -486893000000.0 -446679000000.0 -433826000000.0 -418891000000.0 -380431000000.0 -362516000000.0 -294934000000.0 -69584600000.0 -69584600000.0 -294934000000.0 -362516000000.0 -380431000000.0 -418891000000.0 -433826000000.0 -446679000000.0 -486893000000.0 -691891000000.0 -966482000000.0 -449422000000.0 -919348000000.0 -844873000000.0 -801757000000.0 -368308000000.0 -461166000000.0 -548067000000.0 -180056000000.0 -47798700000.0 -608153000000.0 -175341000000.0 -92943000000.0 -488372000000.0 -25455100000.0 -146311000000.0 -139047000000.0 -379256000000.0 -335679000000.0 -299703000000.0 -665720000000.0 -632385000000.0 -620276000000.0 -603787000000.0 -276177000000.0 -286671000000.0 -301329000000.0 -280874000000.0 -212878000000.0 -198098000000.0 -147123000000.0 -28758300000.0 -21397600000.0 -160916000000.0 -38879900000.0 -178390000000.0 -70476500000.0 -108374000000.0 -84973200000.0 -129549000000.0 -93935500000.0 -114064000000.0 -28829900000.0 -152608000000.0 -26625200000.0 -180929000000.0 -21596000000.0 -285924000000.0 -21596000000.0 -180929000000.0 -26625200000.0 -152608000000.0 -28829900000.0 -114064000000.0 -93935500000.0 -129549000000.0 -84973200000.0 -108374000000.0 -70476500000.0 -178390000000.0 -38879900000.0 -160916000000.0 -21397600000.0 -28758300000.0 -147123000000.0 -198098000000.0 -212878000000.0 -280874000000.0 -301329000000.0 -286671000000.0 -276177000000.0 -603787000000.0 -620276000000.0 -632385000000.0 -665720000000.0 -299703000000.0 -335679000000.0 -379256000000.0 -139047000000.0 -146311000000.0 -25455100000.0 -488372000000.0 -92943000000.0 -296412000000.0 -128164000000.0 -147500000000.0 -114600000000.0 -100440000000.0 -206805000000.0 -258822000000.0 -247734000000.0 -472684000000.0 -484302000000.0 -414892000000.0 -104191000000.0 -116300000000.0 -162397000000.0 -114750000000.0 -114553000000.0 -89536600000.0 -70824100000.0 -88286700000.0 -49793800000.0 -113451000000.0 -80083600000.0 -163124000000.0 -121023000000.0 -198608000000.0 -130160000000.0 -270199000000.0 -162778000000.0 -320916000000.0 -181453000000.0 -424792000000.0 -181453000000.0 -320916000000.0 -162778000000.0 -270199000000.0 -130161000000.0 -198608000000.0 -121023000000.0 -163124000000.0 -80083600000.0 -113451000000.0 -49793800000.0 -88286700000.0 -70824100000.0 -89536600000.0 -114553000000.0 -114750000000.0 -162397000000.0 -116300000000.0 -104191000000.0 -414892000000.0 -484302000000.0 -472684000000.0 -247734000000.0 -258822000000.0 -206805000000.0 -100440000000.0 -114600000000.0 -147500000000.0 -128164000000.0 -296412000000.0 -420549000000.0 -407436000000.0 -463530000000.0 -346040000000.0 -201104000000.0 -205046000000.0 -200457000000.0 -210014000000.0 -187734000000.0 -187734000000.0 -210014000000.0 -200457000000.0 -205046000000.0 -201104000000.0 -346040000000.0 -463530000000.0 -407436000000.0 -420549000000.0 -166776000000.0 -41690100000.0 -75788300000.0 -107162000000.0 -145050000000.0 -195265000000.0 -173014000000.0 -167266000000.0 -169315000000.0 -318219000000.0 -274757000000.0 -343277000000.0 -328452000000.0 -147000000000.0 -140330000000.0 -123800000000.0 -115233000000.0 -123939000000.0 -110575000000.0 -24775000000.0 -35124400000.0 -14028800000.0 -17232000000.0 -37327300000.0 -18837900000.0 -60699200000.0 -16802500000.0 -66270900000.0 -17172700000.0 -91046800000.0 -16919400000.0 -107182000000.0 -17365700000.0 -157631000000.0 -14530500000.0 -173461000000.0 -11072300000.0 -251926000000.0 -11072300000.0 -173461000000.0 -14530500000.0 -157631000000.0 -17365700000.0 -107182000000.0 -16919400000.0 -91046800000.0 -17172700000.0 -66270900000.0 -16802500000.0 -60699200000.0 -18837900000.0 -37327300000.0 -17232000000.0 -14028800000.0 -35124400000.0 -24775000000.0 -110575000000.0 -123939000000.0 -115233000000.0 -123800000000.0 -140330000000.0 -147000000000.0 -328452000000.0 -343277000000.0 -274757000000.0 -318219000000.0 -169315000000.0 -167266000000.0 -173014000000.0 -195265000000.0 -145050000000.0 -107162000000.0 -75788300000.0 -41690100000.0 -166776000000.0 -117844000000.0 -37059700000.0 -22674000000.0 -9080530000.0 -9422360000.0 -37326400000.0 -24138500000.0 -23079400000.0 -154242000000.0 -204858000000.0 -239782000000.0 -212530000000.0 -328529000000.0 -347386000000.0 -336138000000.0 -277648000000.0 -257180000000.0 -235881000000.0 -202738000000.0 -201039000000.0 -159957000000.0 -189102000000.0 -128097000000.0 -164794000000.0 -100031000000.0 -162162000000.0 -80577400000.0 -165114000000.0 -68019300000.0 -200307000000.0 -63181300000.0 -204980000000.0 -59917800000.0 -268599000000.0 -59917800000.0 -204980000000.0 -63181300000.0 -200307000000.0 -68019300000.0 -165114000000.0 -80577400000.0 -162162000000.0 -100031000000.0 -164794000000.0 -128097000000.0 -189102000000.0 -159957000000.0 -201039000000.0 -202738000000.0 -235881000000.0 -257180000000.0 -277648000000.0 -336138000000.0 -347386000000.0 -328529000000.0 -212530000000.0 -239782000000.0 -204858000000.0 -154242000000.0 -23079400000.0 -24138500000.0 -37326400000.0 -9422360000.0 -9080530000.0 -22674000000.0 -37059700000.0 -117844000000.0 -196744000000.0 -256112000000.0 -303554000000.0 -323972000000.0 -323972000000.0 -303554000000.0 -256112000000.0 -196744000000.0 -84647500000.0 -31141400000.0 -54531800000.0 -78336500000.0 -101778000000.0 -144587000000.0 -157665000000.0 -186702000000.0 -279985000000.0 -300236000000.0 -305057000000.0 -211109000000.0 -128886000000.0 -115738000000.0 -89882600000.0 -59049700000.0 -38158800000.0 -46069900000.0 -27184000000.0 -17199900000.0 -11532800000.0 -41207100000.0 -10880900000.0 -44957300000.0 -11298600000.0 -70119400000.0 -10735800000.0 -71132600000.0 -10465100000.0 -87981700000.0 -10372900000.0 -106656000000.0 -10218500000.0 -142764000000.0 -9610380000.0 -143581000000.0 -9035750000.0 -194885000000.0 -9035750000.0 -143581000000.0 -9610380000.0 -142764000000.0 -10218500000.0 -106656000000.0 -10372900000.0 -87981700000.0 -10465100000.0 -71132600000.0 -10735800000.0 -70119400000.0 -11298600000.0 -44957300000.0 -10880900000.0 -41207100000.0 -11532800000.0 -17199900000.0 -27184000000.0 -46069900000.0 -38158800000.0 -59049700000.0 -89882600000.0 -115738000000.0 -128886000000.0 -211109000000.0 -305057000000.0 -300236000000.0 -279985000000.0 -186702000000.0 -157665000000.0 -144587000000.0 -101778000000.0 -78336500000.0 -54531800000.0 -31141400000.0 -84647500000.0 -66780500000.0 -13114200000.0 -15061400000.0 -20016200000.0 -20290900000.0 -38273500000.0 -27234500000.0 -26367500000.0 -65870000000.0 -122270000000.0 -106329000000.0 -88558700000.0 -92856900000.0 -68978500000.0 -59200800000.0 -45874000000.0 -71981500000.0 -36956300000.0 -66435900000.0 -28265800000.0 -83211700000.0 -20221800000.0 -76247900000.0 -14549900000.0 -86606500000.0 -9035750000.0 -102787000000.0 -9035750000.0 -131806000000.0 -9035750000.0 -128482000000.0 -9035750000.0 -168316000000.0 -9035750000.0 -128482000000.0 -9035750000.0 -131806000000.0 -9035750000.0 -102787000000.0 -9035750000.0 -86606500000.0 -14549900000.0 -76247900000.0 -20221800000.0 -83211700000.0 -28265800000.0 -66435900000.0 -36956300000.0 -71981500000.0 -45874000000.0 -59200800000.0 -68978500000.0 -92856900000.0 -88558700000.0 -106329000000.0 -122270000000.0 -65870000000.0 -26367500000.0 -27234500000.0 -38273500000.0 -20290900000.0 -20016200000.0 -15061400000.0 -13114200000.0 -66780500000.0 -88321500000.0 -144033000000.0 -93901700000.0 -112451000000.0 -118682000000.0 -118682000000.0 -112451000000.0 -93901700000.0 -144033000000.0 -88321400000.0 -55856000000.0 -17400300000.0 -22915400000.0 -32885100000.0 -36511700000.0 -52102000000.0 -45009100000.0 -48247800000.0 -67416400000.0 -86975400000.0 -138454000000.0 -107152000000.0 -86165200000.0 -108382000000.0 -99446900000.0 -72670500000.0 -47056600000.0 -45364100000.0 -21825400000.0 -18559200000.0 -9262070000.0 -41639400000.0 -9089040000.0 -43424800000.0 -9035750000.0 -67957400000.0 -9035750000.0 -68196200000.0 -9035750000.0 -81271900000.0 -9035750000.0 -99411400000.0 -9035750000.0 -121452000000.0 -9035750000.0 -115339000000.0 -9035750000.0 -145284000000.0 -9035750000.0 -115339000000.0 -9035750000.0 -121452000000.0 -9035750000.0 -99411400000.0 -9035750000.0 -81271900000.0 -9035750000.0 -68196200000.0 -9035750000.0 -67957400000.0 -9035750000.0 -43424800000.0 -9089040000.0 -41639400000.0 -9262070000.0 -18559200000.0 -21825400000.0 -45364100000.0 -47056600000.0 -72670500000.0 -99446900000.0 -108382000000.0 -86165200000.0 -107152000000.0 -138454000000.0 -86975400000.0 -67416400000.0 -48247800000.0 -45009200000.0 -52102000000.0 -36511700000.0 -32885100000.0 -22915400000.0 -17400300000.0 -55856000000.0 -46844300000.0 -17470900000.0 -20973700000.0 -31363300000.0 -34413700000.0 -51109600000.0 -26889900000.0 -21741200000.0 -10870700000.0 -42561700000.0 -9437860000.0 -42641700000.0 -9035750000.0 -9035750000.0 -9035750000.0 -9035750000.0 -9035750000.0 -110964000000.0 -9035750000.0 -103454000000.0 -9035750000.0 -125387000000.0 -9035750000.0 -103454000000.0 -9035750000.0 -110964000000.0 -9035750000.0 -9035750000.0 -9035750000.0 -9035750000.0 -9035750000.0 -42641700000.0 -9437860000.0 -42561700000.0 -10870700000.0 -21741200000.0 -26889900000.0 -51109600000.0 -34413700000.0 -31363300000.0 -20973700000.0 -17470900000.0 -46844300000.0 -44278300000.0 -37215300000.0 -39063400000.0 -44819600000.0 -55942500000.0 -108475000000.0 -88057300000.0 -78736400000.0 -109546000000.0 -105818000000.0 -81865500000.0 -57286400000.0 -66088700000.0 -66538400000.0 -78444800000.0 -95414700000.0 -95414800000.0 -78444800000.0 -66538400000.0 -66088700000.0 -57286400000.0 -81865500000.0 -105818000000.0 -109546000000.0 -78736400000.0 -88057300000.0 -108475000000.0 -55942500000.0 -44819600000.0 -39063400000.0 -37215300000.0 -44278300000.0 -40408000000.0 -19569500000.0 -22979300000.0 -34920300000.0 -39188300000.0 -45774300000.0 -40714700000.0 -42979200000.0 -44895700000.0 -51352700000.0 -97765600000.0 -83118200000.0 -80359000000.0 -112542000000.0 -107784000000.0 -82733300000.0 -58194400000.0 -48555900000.0 -24895500000.0 -19710700000.0 -9035750000.0 -41316700000.0 -9035750000.0 -42013500000.0 -9035760000.0 -63785000000.0 -9035750000.0 -64604000000.0 -9035760000.0 -75580700000.0 -9035750000.0 -90918000000.0 -9035760000.0 -100650000000.0 -9035750000.0 -92687200000.0 -9035750000.0 -108253000000.0 -9035750000.0 -92687200000.0 -9035750000.0 -100650000000.0 -9035760000.0 -90918000000.0 -9035750000.0 -75580700000.0 -9035760000.0 -64604000000.0 -9035750000.0 -63785000000.0 -9035760000.0 -42013500000.0 -9035750000.0 -41316700000.0 -9035750000.0 -19710700000.0 -24895500000.0 -48555900000.0 -58194400000.0 -82733300000.0 -107784000000.0 -112542000000.0 -80359000000.0 -83118200000.0 -97765600000.0 -51352700000.0 -44895700000.0 -42979200000.0 -40714700000.0 -45774300000.0 -39188300000.0 -34920300000.0 -22979300000.0 -19569500000.0 -40408000000.0 -35369900000.0 -20733800000.0 -23709400000.0 -36141500000.0 -40906000000.0 -44689500000.0 -41047400000.0 -42825400000.0 -43042000000.0 -48945800000.0 -86382600000.0 -76456800000.0 -79465400000.0 -112876000000.0 -108936000000.0 -84811300000.0 -61209300000.0 -48874800000.0 -25725800000.0 -20249600000.0 -9035760000.0 -40981500000.0 -9035760000.0 -41428100000.0 -9035760000.0 -61235800000.0 -9035760000.0 -62450300000.0 -9035760000.0 -72604000000.0 -9035760000.0 -86036400000.0 -9035760000.0 -90745500000.0 -9035750000.0 -82925400000.0 -9035750000.0 -93546300000.0 -9035750000.0 -82925400000.0 -9035750000.0 -90745500000.0 -9035760000.0 -86036400000.0 -9035760000.0 -72604000000.0 -9035760000.0 -62450300000.0 -9035760000.0 -61235800000.0 -9035760000.0 -41428100000.0 -9035760000.0 -40981500000.0 -9035760000.0 -20249600000.0 -25725800000.0 -48874800000.0 -61209300000.0 -84811300000.0 -108936000000.0 -112876000000.0 -79465400000.0 -76456900000.0 -86382600000.0 -48945800000.0 -43042000000.0 -42825400000.0 -41047400000.0 -44689500000.0 -40906000000.0 -36141500000.0 -23709400000.0 -20733800000.0 -35369900000.0 -31515200000.0 -21475500000.0 -24271900000.0 -36727600000.0 -41729100000.0 -43698100000.0 -41460900000.0 -42582400000.0 -42223400000.0 -50514900000.0 -78486500000.0 -71997900000.0 -78970300000.0 -111648000000.0 -107560000000.0 -84286600000.0 -62082100000.0 -48166500000.0 -25961500000.0 -20737600000.0 -9035760000.0 -40420900000.0 -9035760000.0 -40808900000.0 -9035760000.0 -58579400000.0 -9035760000.0 -60139600000.0 -9035760000.0 -69454700000.0 -9035760000.0 -80884900000.0 -9035760000.0 -81415000000.0 -9035750000.0 -74070900000.0 -9035750000.0 -80957600000.0 -9035750000.0 -74070900000.0 -9035750000.0 -81415000000.0 -9035760000.0 -80884900000.0 -9035760000.0 -69454700000.0 -9035760000.0 -60139600000.0 -9035760000.0 -58579400000.0 -9035760000.0 -40808900000.0 -9035760000.0 -40420900000.0 -9035760000.0 -20737600000.0 -25961500000.0 -48166600000.0 -62082100000.0 -84286600000.0 -107560000000.0 -111648000000.0 -78970300000.0 -71997900000.0 -78486500000.0 -50514900000.0 -42223400000.0 -42582400000.0 -41460900000.0 -43698100000.0 -41729100000.0 -36727600000.0 -24271900000.0 -21475500000.0 -31515200000.0 -28539500000.0 -21767500000.0 -24426900000.0 -36505100000.0 -41436100000.0 -42328000000.0 -41312300000.0 -41567200000.0 -41147100000.0 -52591500000.0 -72360900000.0 -68287500000.0 -77748500000.0 -108662000000.0 -104553000000.0 -82406300000.0 -61703600000.0 -46806500000.0 -25715800000.0 -21139500000.0 -9035760000.0 -39626300000.0 -9035760000.0 -40087700000.0 -9035760000.0 -55902800000.0 -9035760000.0 -57717300000.0 -9035760000.0 -66127400000.0 -9035760000.0 -75558400000.0 -9035760000.0 -72759400000.0 -9035750000.0 -66045800000.0 -9035750000.0 -70205200000.0 -9035750000.0 -66045800000.0 -9035750000.0 -72759400000.0 -9035760000.0 -75558400000.0 -9035760000.0 -66127400000.0 -9035760000.0 -57717300000.0 -9035760000.0 -55902800000.0 -9035760000.0 -40087700000.0 -9035760000.0 -39626300000.0 -9035760000.0 -21139500000.0 -25715800000.0 -46806500000.0 -61703600000.0 -82406300000.0 -104553000000.0 -108662000000.0 -77748500000.0 -68287500000.0 -72360900000.0 -52591500000.0 -41147100000.0 -41567200000.0 -41312300000.0 -42328000000.0 -41436100000.0 -36505100000.0 -24426900000.0 -21767500000.0 -28539500000.0 -26273400000.0 -21768600000.0 -24259400000.0 -35710900000.0 -40357300000.0 -40793300000.0 -40837700000.0 -40140700000.0 -39994900000.0 -54161300000.0 -67709100000.0 -65215800000.0 -76056300000.0 -104333000000.0 -100204000000.0 -79335900000.0 -60169800000.0 -44912700000.0 -25114600000.0 -21431300000.0 -9035760000.0 -38626700000.0 -9035760000.0 -39223600000.0 -9035760000.0 -53257600000.0 -9035760000.0 -55211900000.0 -9035760000.0 -62668100000.0 -9035760000.0 -70143100000.0 -9035760000.0 -64832000000.0 -9035750000.0 -58790700000.0 -9035750000.0 -61032600000.0 -9035750000.0 -58790700000.0 -9035750000.0 -64832000000.0 -9035760000.0 -70143100000.0 -9035760000.0 -62668100000.0 -9035760000.0 -55211900000.0 -9035760000.0 -53257600000.0 -9035760000.0 -39223600000.0 -9035760000.0 -38626700000.0 -9035760000.0 -21431300000.0 -25114600000.0 -44912700000.0 -60169800000.0 -79335900000.0 -100204000000.0 -104333000000.0 -76056300000.0 -65215800000.0 -67709100000.0 -54161300000.0 -39994900000.0 -40140700000.0 -40837700000.0 -40793300000.0 -40357300000.0 -35710900000.0 -24259400000.0 -21768600000.0 -26273400000.0 -24589500000.0 -21593400000.0 -23850600000.0 -34540600000.0 -38764000000.0 -39235200000.0 -40194400000.0 -38559600000.0 -38876500000.0 -54929600000.0 -64129000000.0 -62571800000.0 -73960100000.0 -99050700000.0 -94916600000.0 -75426100000.0 -57761700000.0 -42663800000.0 -24277900000.0 -21600800000.0 -9035770000.0 -37466500000.0 -9035760000.0 -38206000000.0 -9035760000.0 -50670700000.0 -9035760000.0 -52648000000.0 -9035760000.0 -59138000000.0 -9035760000.0 -64731800000.0 -9035760000.0 -57650100000.0 -9035750000.0 -52257500000.0 -9035750000.0 -53211100000.0 -9035750000.0 -52257500000.0 -9035750000.0 -57650100000.0 -9035760000.0 -64731800000.0 -9035760000.0 -59138000000.0 -9035760000.0 -52648000000.0 -9035760000.0 -50670700000.0 -9035760000.0 -38206000000.0 -9035760000.0 -37466500000.0 -9035770000.0 -21600800000.0 -24277900000.0 -42663800000.0 -57761700000.0 -75426100000.0 -94916600000.0 -99050700000.0 -73960100000.0 -62571800000.0 -64129000000.0 -54929600000.0 -38876500000.0 -38559600000.0 -40194400000.0 -39235200000.0 -38764000000.0 -34540600000.0 -23850600000.0 -21593400000.0 -24589500000.0 -23369800000.0 -21318400000.0 -23271100000.0 -33152000000.0 -36876200000.0 -37734900000.0 -39474900000.0 -36991300000.0 -37835300000.0 -54946200000.0 -61263400000.0 -60197400000.0 -71552700000.0 -93173100000.0 -89015300000.0 -70962900000.0 -54738600000.0 -40216400000.0 -23301300000.0 -21646000000.0 -9035770000.0 -36190800000.0 -9035760000.0 -37047200000.0 -9035760000.0 -48153100000.0 -9035760000.0 -50049100000.0 -9035760000.0 -55591500000.0 -9035760000.0 -59421000000.0 -9035760000.0 -51203100000.0 -9035750000.0 -46403500000.0 -9035750000.0 -46541000000.0 -9035750000.0 -46403500000.0 -9035750000.0 -51203100000.0 -9035760000.0 -59421000000.0 -9035760000.0 -55591500000.0 -9035760000.0 -50049100000.0 -9035760000.0 -48153100000.0 -9035760000.0 -37047200000.0 -9035760000.0 -36190800000.0 -9035770000.0 -21646000000.0 -23301300000.0 -40216400000.0 -54738600000.0 -70962900000.0 -89015300000.0 -93173100000.0 -71552700000.0 -60197400000.0 -61263400000.0 -54946200000.0 -37835300000.0 -36991300000.0 -39474900000.0 -37734900000.0 -36876200000.0 -33152000000.0 -23271100000.0 -21318400000.0 -23369800000.0 -22503500000.0 -20993200000.0 -22581300000.0 -31663300000.0 -34864000000.0 -36328200000.0 -38725100000.0 -35530100000.0 -36877600000.0 -54356900000.0 -58838300000.0 -57946800000.0 -68909800000.0 -86987000000.0 -82776000000.0 -66187700000.0 -51327600000.0 -37697500000.0 -22249600000.0 -21571900000.0 -9035770000.0 -34839300000.0 -9035770000.0 -35773200000.0 -9035760000.0 -45706200000.0 -9035760000.0 -47437200000.0 -9035760000.0 -52071500000.0 -9035760000.0 -54298200000.0 -9035760000.0 -45461000000.0 -9035750000.0 -41187800000.0 -9035750000.0 -40850700000.0 -9035750000.0 -41187800000.0 -9035750000.0 -45460900000.0 -9035760000.0 -54298300000.0 -9035760000.0 -52071500000.0 -9035760000.0 -47437200000.0 -9035760000.0 -45706200000.0 -9035760000.0 -35773200000.0 -9035770000.0 -34839300000.0 -9035770000.0 -21571900000.0 -22249600000.0 -37697500000.0 -51327600000.0 -66187700000.0 -82776000000.0 -86987000000.0 -68909800000.0 -57946800000.0 -58838300000.0 -54356900000.0 -36877600000.0 -35530100000.0 -38725100000.0 -36328200000.0 -34864000000.0 -31663300000.0 -22581300000.0 -20993200000.0 -22503500000.0 -21892200000.0 -20645700000.0 -21831900000.0 -30155900000.0 -32847700000.0 -35018000000.0 -37959100000.0 -34215100000.0 -35987100000.0 -53309800000.0 -56636300000.0 -55700100000.0 -66091000000.0 -80719100000.0 -76434100000.0 -61303500000.0 -47718400000.0 -35203100000.0 -21165400000.0 -21388300000.0 -9035770000.0 -33444200000.0 -9035770000.0 -34414600000.0 -9035760000.0 -43327200000.0 -9035760000.0 -44832800000.0 -9035760000.0 -48613500000.0 -9035760000.0 -49433100000.0 -9035760000.0 -40380100000.0 -9035750000.0 -36569900000.0 -9035750000.0 -35994800000.0 -9035750000.0 -36569900000.0 -9035750000.0 -40380100000.0 -9035760000.0 -49433100000.0 -9035760000.0 -48613500000.0 -9035760000.0 -44832800000.0 -9035760000.0 -43327200000.0 -9035760000.0 -34414600000.0 -9035770000.0 -33444200000.0 -9035770000.0 -21388300000.0 -21165400000.0 -35203100000.0 -47718400000.0 -61303500000.0 -76434100000.0 -80719100000.0 -66091000000.0 -55700100000.0 -56636300000.0 -53309800000.0 -35987100000.0 -34215100000.0 -37959100000.0 -35018000000.0 -32847700000.0 -30155900000.0 -21831900000.0 -20645700000.0 -21892200000.0 -21452100000.0 -20287500000.0 -21061600000.0 -28681800000.0 -30903100000.0 -33787000000.0 -37172200000.0 -33046900000.0 -35132400000.0 -51928000000.0 -54498700000.0 -53392300000.0 -63141700000.0 -74544200000.0 -70179400000.0 -56471600000.0 -44064000000.0 -32799500000.0 -20079700000.0 -21107600000.0 -9035770000.0 -32029600000.0 -9035770000.0 -33001000000.0 -9035760000.0 -41012200000.0 -9035760000.0 -42255800000.0 -9035760000.0 -45247700000.0 -9035760000.0 -44875000000.0 -9035760000.0 -35909200000.0 -9035750000.0 -32508000000.0 -9035750000.0 -31850200000.0 -9035750000.0 -32508000000.0 -9035750000.0 -35909200000.0 -9035760000.0 -44875000000.0 -9035760000.0 -45247700000.0 -9035760000.0 -42255800000.0 -9035760000.0 -41012200000.0 -9035760000.0 -33001000000.0 -9035770000.0 -32029600000.0 -9035770000.0 -21107600000.0 -20079700000.0 -32799500000.0 -44064000000.0 -56471600000.0 -70179400000.0 -74544200000.0 -63141700000.0 -53392300000.0 -54498700000.0 -51928000000.0 -35132400000.0 -33046900000.0 -37172200000.0 -33787000000.0 -30903100000.0 -28681800000.0 -21061600000.0 -20287500000.0 -21452100000.0 -21113700000.0 -19919900000.0 -20297000000.0 -27271600000.0 -29071200000.0 -32609200000.0 -36349800000.0 -32002100000.0 -34277400000.0 -50305600000.0 -52339400000.0 -51013800000.0 -60096800000.0 -68590500000.0 -64154000000.0 -51811500000.0 -40482600000.0 -30527600000.0 -19015500000.0 -20743200000.0 -9035770000.0 -30612400000.0 -9035770000.0 -31557300000.0 -9035760000.0 -38758700000.0 -9035760000.0 -39725200000.0 -9035760000.0 -42000100000.0 -9035760000.0 -40654800000.0 -9035760000.0 -31993800000.0 -9035750000.0 -28958400000.0 -9035750000.0 -28312900000.0 -9035750000.0 -28958400000.0 -9035750000.0 -31993800000.0 -9035760000.0 -40654800000.0 -9035760000.0 -42000100000.0 -9035760000.0 -39725200000.0 -9035760000.0 -38758700000.0 -9035760000.0 -31557300000.0 -9035770000.0 -30612400000.0 -9035770000.0 -20743200000.0 -19015500000.0 -30527600000.0 -40482600000.0 -51811500000.0 -64154000000.0 -68590500000.0 -60096800000.0 -51013800000.0 -52339400000.0 -50305600000.0 -34277400000.0 -32002100000.0 -36349800000.0 -32609200000.0 -29071200000.0 -27271600000.0 -20297000000.0 -19919900000.0 -21113700000.0 -20820900000.0 -19539200000.0 -19553800000.0 -25939900000.0 -27368100000.0 -31458100000.0 -35474000000.0 -31045100000.0 -33391300000.0 -48510700000.0 -50132500000.0 -48585400000.0 -56986600000.0 -62943300000.0 -58455000000.0 -47404000000.0 -37059700000.0 -28408900000.0 -17989500000.0 -20308300000.0 -9035770000.0 -29204900000.0 -9035770000.0 -30103700000.0 -9035760000.0 -36566900000.0 -9035760000.0 -37258900000.0 -9035760000.0 -38892400000.0 -9035760000.0 -36786900000.0 -9035760000.0 -28579100000.0 -9035750000.0 -25876000000.0 -9035750000.0 -25295200000.0 -9035750000.0 -25876000000.0 -9035750000.0 -28579100000.0 -9035760000.0 -36786900000.0 -9035760000.0 -38892400000.0 -9035760000.0 -37258900000.0 -9035760000.0 -36566900000.0 -9035760000.0 -30103700000.0 -9035770000.0 -29204900000.0 -9035770000.0 -20308300000.0 -17989500000.0 -28408900000.0 -37059700000.0 -47404000000.0 -58455000000.0 -62943300000.0 -56986600000.0 -48585400000.0 -50132500000.0 -48510700000.0 -33391300000.0 -31045100000.0 -35474000000.0 -31458100000.0 -27368100000.0 -25939900000.0 -19553800000.0 -19539200000.0 -20820900000.0 -20530500000.0 -19140100000.0 -18839500000.0 -24689800000.0 -25794400000.0 -30310500000.0 -34528200000.0 -30137200000.0 -32452200000.0 -46590600000.0 -47884000000.0 -46135600000.0 -53838600000.0 -57652000000.0 -53141200000.0 -43297500000.0 -33851700000.0 -26450900000.0 -17013500000.0 -19815100000.0 -9035770000.0 -27815500000.0 -9035770000.0 -28655600000.0 -9035760000.0 -34439000000.0 -9035760000.0 -34872200000.0 -9035760000.0 -35942400000.0 -9035760000.0 -33273300000.0 -9035760000.0 -25612500000.0 -9035750000.0 -23215000000.0 -9035750000.0 -22722400000.0 -9035750000.0 -23215000000.0 -9035750000.0 -25612500000.0 -9035760000.0 -33273300000.0 -9035760000.0 -35942400000.0 -9035760000.0 -34872200000.0 -9035760000.0 -34439000000.0 -9035760000.0 -28655600000.0 -9035770000.0 -27815500000.0 -9035770000.0 -19815100000.0 -17013500000.0 -26450900000.0 -33851700000.0 -43297500000.0 -53141200000.0 -57652000000.0 -53838600000.0 -46135600000.0 -47884000000.0 -46590600000.0 -32452200000.0 -30137200000.0 -34528200000.0 -30310500000.0 -25794400000.0 -24689800000.0 -18839500000.0 -19140100000.0 -20530500000.0 -20211700000.0 -18717900000.0 -18155500000.0 -23516500000.0 -24341800000.0 -29148600000.0 -33499600000.0 -29242700000.0 -31446500000.0 -44577600000.0 -45608100000.0 -43688600000.0 -50679000000.0 -52737700000.0 -48241000000.0 -39514600000.0 -30890600000.0 -24651600000.0 -16095100000.0 -19274800000.0 -9035770000.0 -26450300000.0 -9035770000.0 -27224700000.0 -9035760000.0 -32378700000.0 -9035760000.0 -32577400000.0 -9035760000.0 -33163400000.0 -9035760000.0 -30106000000.0 -9035760000.0 -23044200000.0 -9035750000.0 -20930100000.0 -9035750000.0 -20531200000.0 -9035750000.0 -20930100000.0 -9035750000.0 -23044200000.0 -9035760000.0 -30106000000.0 -9035760000.0 -33163400000.0 -9035760000.0 -32577400000.0 -9035760000.0 -32378700000.0 -9035760000.0 -27224700000.0 -9035770000.0 -26450300000.0 -9035770000.0 -19274800000.0 -16095100000.0 -24651600000.0 -30890600000.0 -39514600000.0 -48241000000.0 -52737700000.0 -50679000000.0 -43688600000.0 -45608100000.0 -44577600000.0 -31446500000.0 -29242700000.0 -33499600000.0 -29148600000.0 -24341800000.0 -23516500000.0 -18155500000.0 -18717900000.0 -20211700000.0 -22997200000.0 -43759100000.0 -36058400000.0 -28189500000.0 -23003200000.0 -15238900000.0 -18697100000.0 -9035770000.0 -25113500000.0 -9035770000.0 -25819600000.0 -9035760000.0 -30389800000.0 -9035760000.0 -30383700000.0 -9035760000.0 -30563700000.0 -9035760000.0 -27269800000.0 -9035760000.0 -20828500000.0 -9035750000.0 -18977500000.0 -9035750000.0 -18667200000.0 -9035750000.0 -18977500000.0 -9035750000.0 -20828500000.0 -9035760000.0 -27269800000.0 -9035760000.0 -30563700000.0 -9035760000.0 -30383700000.0 -9035760000.0 -30389800000.0 -9035760000.0 -25819600000.0 -9035770000.0 -25113500000.0 -9035770000.0 -18697100000.0 -15238900000.0 -23003200000.0 -28189500000.0 -36058400000.0 -43759100000.0 -22997200000.0 -19844800000.0 -18269100000.0 -17499800000.0 -22411000000.0 -27960800000.0 -32380800000.0 -28332300000.0 -30367200000.0 -42493600000.0 -43316900000.0 -41261100000.0 -47531200000.0 -48200500000.0 -48200500000.0 -47531200000.0 -41261100000.0 -43316900000.0 -42493600000.0 -30367200000.0 -28332300000.0 -32380800000.0 -27960800000.0 -22411000000.0 -17499800000.0 -18269100000.0 -19844800000.0 -19418600000.0 -17791100000.0 -16868200000.0 -21361800000.0 -21745500000.0 -26741900000.0 -31169700000.0 -27383500000.0 -29212500000.0 -40353500000.0 -41016600000.0 -38862900000.0 -44415900000.0 -44025600000.0 -39683500000.0 -32918200000.0 -25747500000.0 -21494600000.0 -14447500000.0 -18090200000.0 -9035770000.0 -23807900000.0 -9035770000.0 -24446100000.0 -9035760000.0 -28475500000.0 -9035760000.0 -28296900000.0 -9035760000.0 -28146900000.0 -9035760000.0 -24744600000.0 -9035760000.0 -18923200000.0 -9035750000.0 -17316100000.0 -9035750000.0 -17084000000.0 -9035750000.0 -17316100000.0 -9035750000.0 -18923200000.0 -9035760000.0 -24744600000.0 -9035760000.0 -28146900000.0 -9035760000.0 -28296900000.0 -9035760000.0 -28475500000.0 -9035760000.0 -24446100000.0 -9035770000.0 -23807900000.0 -9035770000.0 -18090200000.0 -14447500000.0 -21494600000.0 -25747500000.0 -32918200000.0 -39683500000.0 -44025600000.0 -44415900000.0 -38862900000.0 -41016600000.0 -40353500000.0 -29212500000.0 -27383500000.0 -31169700000.0 -26741900000.0 -21745500000.0 -21361800000.0 -16868200000.0 -17791100000.0 -19418600000.0 -18928300000.0 -17282900000.0 -16256000000.0 -20357500000.0 -20572100000.0 -25491800000.0 -29867800000.0 -26380500000.0 -27984400000.0 -38167600000.0 -38709400000.0 -36498400000.0 -41349900000.0 -40189200000.0 -35990700000.0 -30074000000.0 -23554000000.0 -20113100000.0 -13721900000.0 -17460900000.0 -9035770000.0 -22535400000.0 -9035770000.0 -23107800000.0 -9035760000.0 -26637800000.0 -9035760000.0 -26320300000.0 -9035760000.0 -25911900000.0 -9035760000.0 -22507200000.0 -9035760000.0 -17290300000.0 -9035750000.0 -15907700000.0 -9035750000.0 -15741100000.0 -9035750000.0 -15907700000.0 -9035750000.0 -17290300000.0 -9035760000.0 -22507200000.0 -9035760000.0 -25911900000.0 -9035760000.0 -26320300000.0 -9035760000.0 -26637800000.0 -9035760000.0 -23107800000.0 -9035770000.0 -22535400000.0 -9035770000.0 -17460900000.0 -13721900000.0 -20113100000.0 -23554000000.0 -30074000000.0 -35990700000.0 -40189200000.0 -41349900000.0 -36498400000.0 -38709400000.0 -38167600000.0 -27984400000.0 -26380500000.0 -29867800000.0 -25491800000.0 -20572100000.0 -20357500000.0 -16256000000.0 -17282900000.0 -18928300000.0 -18374000000.0 -16744700000.0 -15658500000.0 -19387600000.0 -19463700000.0 -24213600000.0 -28480100000.0 -25313300000.0 -26687500000.0 -35943700000.0 -36394400000.0 -34168300000.0 -38346800000.0 -36662000000.0 -32650200000.0 -27500600000.0 -21592200000.0 -18845900000.0 -13061800000.0 -16814700000.0 -9035770000.0 -21296600000.0 -9035770000.0 -21806300000.0 -9035760000.0 -24877500000.0 -9035760000.0 -24454200000.0 -9035760000.0 -23854100000.0 -9035760000.0 -20532500000.0 -9035760000.0 -15895200000.0 -9035750000.0 -14717500000.0 -9035750000.0 -14603800000.0 -9035750000.0 -14717500000.0 -9035750000.0 -15895200000.0 -9035760000.0 -20532500000.0 -9035760000.0 -23854100000.0 -9035760000.0 -24454200000.0 -9035760000.0 -24877500000.0 -9035760000.0 -21806300000.0 -9035770000.0 -21296600000.0 -9035770000.0 -16814700000.0 -13061800000.0 -18845900000.0 -21592200000.0 -27500600000.0 -32650200000.0 -36662000000.0 -38346800000.0 -34168300000.0 -36394400000.0 -35943700000.0 -26687500000.0 -25313300000.0 -28480100000.0 -24213600000.0 -19463700000.0 -19387600000.0 -15658500000.0 -16744700000.0 -18374000000.0 -17758700000.0 -16177100000.0 -15071600000.0 -18443000000.0 -18409000000.0 -22912500000.0 -27013600000.0 -24176800000.0 -25328300000.0 -33687400000.0 -34069500000.0 -31871200000.0 -35416200000.0 -33412500000.0 -29627700000.0 -25169800000.0 -19841900000.0 -17680200000.0 -12465800000.0 -16156000000.0 -9035770000.0 -20091800000.0 -9035770000.0 -20542200000.0 -9035760000.0 -23193900000.0 -9035760000.0 -22696800000.0 -9035760000.0 -21965400000.0 -9035760000.0 -18795000000.0 -9035760000.0 -14706800000.0 -9035750000.0 -13714000000.0 -9035750000.0 -13641600000.0 -9035750000.0 -13714000000.0 -9035750000.0 -14706800000.0 -9035760000.0 -18795000000.0 -9035760000.0 -21965400000.0 -9035760000.0 -22696800000.0 -9035760000.0 -23193900000.0 -9035760000.0 -20542200000.0 -9035770000.0 -20091800000.0 -9035770000.0 -16156000000.0 -12465800000.0 -17680200000.0 -19841900000.0 -25169800000.0 -29627700000.0 -33412500000.0 -35416200000.0 -31871200000.0 -34069500000.0 -33687400000.0 -25328300000.0 -24176800000.0 -27013600000.0 -22912500000.0 -18409000000.0 -18443000000.0 -15071600000.0 -16177100000.0 -17758700000.0 -17087100000.0 -15581900000.0 -14491700000.0 -17516500000.0 -17398700000.0 -21594400000.0 -25476700000.0 -22970000000.0 -23914000000.0 -31403500000.0 -31732600000.0 -29604000000.0 -32564600000.0 -30409000000.0 -26887500000.0 -23053100000.0 -18281100000.0 -16604100000.0 -11931600000.0 -15488300000.0 -9035770000.0 -18920100000.0 -9035760000.0 -19314900000.0 -9035760000.0 -21585000000.0 -9035760000.0 -21044100000.0 -9035760000.0 -20235300000.0 -9035760000.0 -17269200000.0 -9035760000.0 -13696900000.0 -9035750000.0 -12869400000.0 -9035750000.0 -12828100000.0 -9035750000.0 -12869400000.0 -9035750000.0 -13696900000.0 -9035760000.0 -17269200000.0 -9035760000.0 -20235300000.0 -9035760000.0 -21044100000.0 -9035760000.0 -21585000000.0 -9035760000.0 -19314900000.0 -9035760000.0 -18920100000.0 -9035770000.0 -15488300000.0 -11931600000.0 -16604100000.0 -18281100000.0 -23053100000.0 -26887500000.0 -30409000000.0 -32564600000.0 -29604000000.0 -31732600000.0 -31403500000.0 -23914000000.0 -22970000000.0 -25476700000.0 -21594400000.0 -17398700000.0 -17516500000.0 -14491700000.0 -15581900000.0 -17087100000.0 -16365000000.0 -14961000000.0 -13916000000.0 -16602700000.0 -16425400000.0 -20265000000.0 -23878300000.0 -21694700000.0 -22452100000.0 -29095900000.0 -29382100000.0 -27363400000.0 -29794900000.0 -27620400000.0 -24394700000.0 -21122600000.0 -16887700000.0 -15606600000.0 -11455800000.0 -14814200000.0 -9035770000.0 -17780200000.0 -9035760000.0 -18122700000.0 -9035760000.0 -20047400000.0 -9035760000.0 -19490200000.0 -9035760000.0 -18651400000.0 -9035760000.0 -15930300000.0 -9035760000.0 -12840400000.0 -9035750000.0 -12158800000.0 -9035750000.0 -12140000000.0 -9035750000.0 -12158800000.0 -9035750000.0 -12840400000.0 -9035760000.0 -15930300000.0 -9035760000.0 -18651400000.0 -9035760000.0 -19490200000.0 -9035760000.0 -20047400000.0 -9035760000.0 -18122700000.0 -9035760000.0 -17780200000.0 -9035770000.0 -14814200000.0 -11455800000.0 -15606600000.0 -16887700000.0 -21122600000.0 -24394700000.0 -27620400000.0 -29794900000.0 -27363400000.0 -29382100000.0 -29095900000.0 -22452100000.0 -21694700000.0 -23878300000.0 -20265000000.0 -16425400000.0 -16602700000.0 -13916000000.0 -14961000000.0 -16365000000.0 -15598200000.0 -14316600000.0 -13342200000.0 -15697300000.0 -15483200000.0 -18929500000.0 -22227700000.0 -20355200000.0 -20949600000.0 -26768000000.0 -27017300000.0 -25145800000.0 -27107300000.0 -25017800000.0 -22115600000.0 -19352000000.0 -15639800000.0 -14677400000.0 -11034400000.0 -14135800000.0 -9035770000.0 -16670200000.0 -9035760000.0 -16963800000.0 -9035760000.0 -18576600000.0 -9035760000.0 -18027900000.0 -9035760000.0 -17200100000.0 -9035760000.0 -14754300000.0 -9035760000.0 -12114400000.0 -9035750000.0 -11560400000.0 -9035750000.0 -11557100000.0 -9035750000.0 -11560400000.0 -9035750000.0 -12114400000.0 -9035760000.0 -14754300000.0 -9035760000.0 -17200100000.0 -9035760000.0 -18027900000.0 -9035760000.0 -18576600000.0 -9035760000.0 -16963800000.0 -9035760000.0 -16670200000.0 -9035770000.0 -14135800000.0 -11034400000.0 -14677400000.0 -15639800000.0 -19352000000.0 -22115600000.0 -25017800000.0 -27107300000.0 -25145800000.0 -27017300000.0 -26768000000.0 -20949600000.0 -20355200000.0 -22227700000.0 -18929500000.0 -15483200000.0 -15697300000.0 -13342200000.0 -14316600000.0 -15598200000.0 -14792800000.0 -13651300000.0 -12768800000.0 -14797600000.0 -14567300000.0 -17592100000.0 -20533700000.0 -18957300000.0 -19413100000.0 -24422700000.0 -24638100000.0 -22947800000.0 -24499100000.0 -22573600000.0 -20018600000.0 -17716700000.0 -14516700000.0 -13806900000.0 -10662400000.0 -13454500000.0 -9035770000.0 -15587600000.0 -9035760000.0 -15835200000.0 -9035760000.0 -17166900000.0 -9035760000.0 -16648500000.0 -9035760000.0 -15866600000.0 -9035760000.0 -13718600000.0 -9035760000.0 -11498300000.0 -9035750000.0 -11055000000.0 -9035750000.0 -11061400000.0 -9035750000.0 -11055000000.0 -9035750000.0 -11498300000.0 -9035760000.0 -13718600000.0 -9035760000.0 -15866600000.0 -9035760000.0 -16648500000.0 -9035760000.0 -17166900000.0 -9035760000.0 -15835200000.0 -9035760000.0 -15587600000.0 -9035770000.0 -13454500000.0 -10662400000.0 -13806900000.0 -14516700000.0 -17716700000.0 -20018600000.0 -22573600000.0 -24499100000.0 -22947800000.0 -24638100000.0 -24422700000.0 -19413100000.0 -18957300000.0 -20533700000.0 -17592100000.0 -14567300000.0 -14797600000.0 -12768800000.0 -13651300000.0 -14792800000.0 -13954400000.0 -12967500000.0 -12194600000.0 -13901400000.0 -13673400000.0 -16256000000.0 -18804400000.0 -17507900000.0 -17848700000.0 -22062700000.0 -22245500000.0 -20766200000.0 -21965100000.0 -20262800000.0 -18074200000.0 -16194200000.0 -13498700000.0 -12986300000.0 -10334300000.0 -12771400000.0 -9035760000.0 -14529500000.0 -9035760000.0 -14733800000.0 -9035760000.0 -15811800000.0 -9035760000.0 -15342600000.0 -9035760000.0 -14635700000.0 -9035760000.0 -12801500000.0 -9035760000.0 -10973500000.0 -9035750000.0 -10625600000.0 -9035750000.0 -10637400000.0 -9035750000.0 -10625600000.0 -9035750000.0 -10973500000.0 -9035760000.0 -12801500000.0 -9035760000.0 -14635700000.0 -9035760000.0 -15342600000.0 -9035760000.0 -15811800000.0 -9035760000.0 -14733800000.0 -9035760000.0 -14529500000.0 -9035760000.0 -12771400000.0 -10334300000.0 -12986300000.0 -13498700000.0 -16194200000.0 -18074200000.0 -20262800000.0 -21965100000.0 -20766200000.0 -22245500000.0 -22062700000.0 -17848700000.0 -17507900000.0 -18804400000.0 -16256000000.0 -13673400000.0 -13901400000.0 -12194600000.0 -12967500000.0 -13954400000.0 -13088600000.0 -12268100000.0 -11618900000.0 -13007500000.0 -12798100000.0 -14923300000.0 -17047300000.0 -16014300000.0 -16261700000.0 -19690600000.0 -19840900000.0 -18598100000.0 -19497700000.0 -18061600000.0 -16255000000.0 -14763500000.0 -12567500000.0 -12207200000.0 -10044100000.0 -12087200000.0 -9035760000.0 -13492700000.0 -9035760000.0 -13656100000.0 -9035760000.0 -14503900000.0 -9035760000.0 -14099700000.0 -9035760000.0 -13491800000.0 -9035750000.0 -11982600000.0 -9035760000.0 -10523100000.0 -9035750000.0 -10257300000.0 -9035750000.0 -10271000000.0 -9035750000.0 -10257300000.0 -9035750000.0 -10523100000.0 -9035760000.0 -11982600000.0 -9035750000.0 -13491800000.0 -9035760000.0 -14099700000.0 -9035760000.0 -14503900000.0 -9035760000.0 -13656100000.0 -9035760000.0 -13492700000.0 -9035760000.0 -12087200000.0 -10044100000.0 -12207200000.0 -12567500000.0 -14763500000.0 -16255000000.0 -18061600000.0 -19497700000.0 -18598100000.0 -19840900000.0 -19690600000.0 -16261700000.0 -16014300000.0 -17047300000.0 -14923300000.0 -12798100000.0 -13007500000.0 -11618900000.0 -12268100000.0 -13088600000.0 -12200800000.0 -11555700000.0 -11041400000.0 -12114900000.0 -11937800000.0 -13595100000.0 -15268700000.0 -14484600000.0 -14656900000.0 -17308600000.0 -17426000000.0 -16440700000.0 -17087600000.0 -15948100000.0 -14535400000.0 -13405800000.0 -11705600000.0 -11461500000.0 -9785250000.0 -11402400000.0 -9035760000.0 -12473600000.0 -9035760000.0 -12598200000.0 -9035760000.0 -13235400000.0 -9035760000.0 -12909000000.0 -9035760000.0 -12418900000.0 -9035750000.0 -11242300000.0 -9035750000.0 -10131300000.0 -9035750000.0 -9936710000.0 -9035750000.0 -9949710000.0 -9035750000.0 -9936710000.0 -9035750000.0 -10131300000.0 -9035750000.0 -11242300000.0 -9035750000.0 -12418900000.0 -9035760000.0 -12909000000.0 -9035760000.0 -13235400000.0 -9035760000.0 -12598200000.0 -9035760000.0 -12473600000.0 -9035760000.0 -11402400000.0 -9785250000.0 -11461500000.0 -11705600000.0 -13405800000.0 -14535400000.0 -15948100000.0 -17087600000.0 -16440700000.0 -17426000000.0 -17308600000.0 -14656900000.0 -14484600000.0 -15268700000.0 -13595100000.0 -11937800000.0 -12114900000.0 -11041400000.0 -11555700000.0 -12200800000.0 -11296100000.0 -10833200000.0 -10462200000.0 -11223000000.0 -11089300000.0 -12271300000.0 -13474500000.0 -12926700000.0 -13038600000.0 -14919000000.0 -15002800000.0 -14291400000.0 -14723500000.0 -13901200000.0 -12891500000.0 -12103100000.0 -10896500000.0 -10741400000.0 -9550990000.0 -10717300000.0 -9035760000.0 -11468400000.0 -9035760000.0 -11555800000.0 -9035760000.0 -11997700000.0 -9035750000.0 -11759000000.0 -9035750000.0 -11401000000.0 -9035750000.0 -10562200000.0 -9035750000.0 -9783990000.0 -9035750000.0 -9651810000.0 -9035750000.0 -9662260000.0 -9035750000.0 -9651810000.0 -9035750000.0 -9783990000.0 -9035750000.0 -10562200000.0 -9035750000.0 -11401000000.0 -9035750000.0 -11759000000.0 -9035750000.0 -11997700000.0 -9035760000.0 -11555800000.0 -9035760000.0 -11468400000.0 -9035760000.0 -10717300000.0 -9550990000.0 -10741400000.0 -10896500000.0 -12103100000.0 -12891500000.0 -13901200000.0 -14723500000.0 -14291400000.0 -15002800000.0 -14919000000.0 -13038600000.0 -12926700000.0 -13474500000.0 -12271300000.0 -11089300000.0 -11223000000.0 -10462200000.0 -10833200000.0 -11296100000.0 -10379400000.0 -10103400000.0 -9881450000.0 -10331500000.0 -10249300000.0 -10951200000.0 -11669600000.0 -11348700000.0 -11410900000.0 -12523700000.0 -12573600000.0 -12147600000.0 -12392800000.0 -11901000000.0 -11300400000.0 -10838800000.0 -10124300000.0 -10039500000.0 -9334320000.0 -10032000000.0 -9035760000.0 -10473200000.0 -9035760000.0 -10524600000.0 -9035750000.0 -10782200000.0 -9035750000.0 -10638200000.0 -9035750000.0 -10422300000.0 -9035750000.0 -9924300000.0 -9035750000.0 -9467530000.0 -9035750000.0 -9391580000.0 -9035750000.0 -9398230000.0 -9035750000.0 -9391580000.0 -9035750000.0 -9467530000.0 -9035750000.0 -9924300000.0 -9035750000.0 -10422300000.0 -9035750000.0 -10638200000.0 -9035750000.0 -10782200000.0 -9035750000.0 -10524600000.0 -9035760000.0 -10473200000.0 -9035760000.0 -10032000000.0 -9334320000.0 -10039500000.0 -10124300000.0 -10838800000.0 -11300400000.0 -11901000000.0 -12392800000.0 -12147600000.0 -12573600000.0 -12523700000.0 -11410900000.0 -11348700000.0 -11669600000.0 -10951200000.0 -10249300000.0 -10331500000.0 -9881450000.0 -10103400000.0 -10379400000.0 -9455710000.0 -9369350000.0 -9299800000.0 -9440200000.0 -9414160000.0 -9633470000.0 -9858390000.0 -9758650000.0 -9777580000.0 -10124800000.0 -10140400000.0 -10006900000.0 -10082100000.0 -9928020000.0 -9740270000.0 -9596810000.0 -9373850000.0 -9348230000.0 -9128140000.0 -9346740000.0 -9035750000.0 -9483990000.0 -9035750000.0 -9499960000.0 -9035750000.0 -9579890000.0 -9035750000.0 -9534610000.0 -9035750000.0 -9466780000.0 -9035750000.0 -9311180000.0 -9035750000.0 -9169120000.0 -9035750000.0 -9145700000.0 -9035750000.0 -9147830000.0 -9035750000.0 -9145700000.0 -9035750000.0 -9169120000.0 -9035750000.0 -9311180000.0 -9035750000.0 -9466780000.0 -9035750000.0 -9534610000.0 -9035750000.0 -9579890000.0 -9035750000.0 -9499960000.0 -9035750000.0 -9483990000.0 -9035750000.0 -9346740000.0 -9128140000.0 -9348230000.0 -9373850000.0 -9596810000.0 -9740270000.0 -9928020000.0 -10082100000.0 -10006900000.0 -10140400000.0 -10124800000.0 -9777580000.0 -9758650000.0 -9858390000.0 -9633470000.0 -9414160000.0 -9440200000.0 -9299800000.0 -9369350000.0 -9455710000.0 
SCALARS Shear_Stress float 1
LOOKUP_TABLE default
123291000000.0 30780300000.0 92067400000.0 69597500000.0 195961000.0 2136970000.0 2136970000.0 195956000.0 69597500000.0 92067400000.0 30780300000.0 123291000000.0 119595000000.0 36219200000.0 12900500000.0 7538400000.0 27658800000.0 9753560.0 64818800000.0 15240500000.0 1858170000.0 1685130000.0 2279500000.0 1685130000.0 1858180000.0 15240500000.0 64818800000.0 9744160.0 27658800000.0 7538390000.0 12900500000.0 36219200000.0 119595000000.0 206077000000.0 151240000000.0 355917000000.0 78197400000.0 27478900000.0 60650200000.0 90631000000.0 35338000000.0 35338000000.0 90631100000.0 60650200000.0 27478900000.0 78197400000.0 355917000000.0 151240000000.0 206077000000.0 174833000000.0 202927000000.0 232546000000.0 438416000000.0 595809000000.0 439390000000.0 279463000000.0 221322000000.0 199872000000.0 97160300000.0 134551000000.0 121603000000.0 77307700000.0 17223700000.0 24206400000.0 16261700000.0 24206400000.0 17223700000.0 77307700000.0 121603000000.0 134551000000.0 97160300000.0 199872000000.0 221322000000.0 279463000000.0 439390000000.0 595809000000.0 438416000000.0 232546000000.0 202927000000.0 174833000000.0 147616000000.0 295927000000.0 129240000000.0 19611600000.0 884549000000.0 411619000000.0 103803000000.0 190473000000.0 133317000000.0 22032400000.0 67371800000.0 13482200000.0 67371800000.0 22032300000.0 133317000000.0 190473000000.0 103803000000.0 411619000000.0 884549000000.0 19611700000.0 129240000000.0 295927000000.0 147616000000.0 122273000000.0 301384000000.0 305580000000.0 159684000000.0 153713000000.0 416936000000.0 285124000000.0 14870100000.0 247965000000.0 187941000000.0 77487300000.0 44993300000.0 1557340000.0 1557340000.0 44993300000.0 77487200000.0 187941000000.0 247965000000.0 14870000000.0 285124000000.0 416936000000.0 153713000000.0 159684000000.0 305580000000.0 301384000000.0 122273000000.0 65089600000.0 95701200000.0 290326000000.0 174641000000.0 167822000000.0 961325000000.0 603369000000.0 432635000000.0 431168000000.0 241668000000.0 525903000000.0 486709000000.0 130237000000.0 1345680000.0 20664400000.0 18585600000.0 110752000000.0 10440900000.0 110752000000.0 18585600000.0 20664400000.0 1345700000.0 130237000000.0 486709000000.0 525903000000.0 241668000000.0 431168000000.0 432635000000.0 603369000000.0 961325000000.0 167822000000.0 174641000000.0 290326000000.0 95701200000.0 65089600000.0 32639600000.0 269414000000.0 180231000000.0 82911000000.0 100997000000.0 140179000000.0 170878000000.0 1.08999e+12 504424000000.0 334760000000.0 186350000000.0 8240660000.0 35887000000.0 16502100000.0 151814000000.0 151814000000.0 16502100000.0 35886900000.0 8240670000.0 186350000000.0 334760000000.0 504424000000.0 1.08999e+12 170878000000.0 140179000000.0 100997000000.0 82911000000.0 180231000000.0 269414000000.0 32639600000.0 1868910000.0 240819000000.0 147899000000.0 171536000000.0 73724000000.0 37971800000.0 173555000000.0 575453000000.0 320492000000.0 308947000000.0 324874000000.0 8211590000.0 68839900000.0 35933000000.0 35394500000.0 6559590000.0 35394400000.0 35933100000.0 68839800000.0 8211560000.0 324874000000.0 308947000000.0 320492000000.0 575453000000.0 173555000000.0 37971800000.0 73724000000.0 171536000000.0 147899000000.0 240819000000.0 1868920000.0 22724800000.0 185740000000.0 211432000000.0 115736000000.0 54797600000.0 4204820000.0 90774500000.0 124008000000.0 1.0282e+12 420369000000.0 296463000000.0 518925000000.0 389001000000.0 499603000000.0 412196000000.0 80826000000.0 23318200000.0 29888800000.0 117725000000.0 37886900000.0 117725000000.0 29888800000.0 23318200000.0 80826000000.0 412196000000.0 499603000000.0 389001000000.0 518925000000.0 296463000000.0 420369000000.0 1.0282e+12 124008000000.0 90774500000.0 4204780000.0 54797600000.0 115736000000.0 211432000000.0 185740000000.0 22724800000.0 34043200000.0 36362900000.0 173684000000.0 86467300000.0 22209300000.0 63392900000.0 30518200000.0 96060300000.0 37750500000.0 15870200000.0 796841000000.0 541354000000.0 645094000000.0 469669000000.0 485422000000.0 439050000000.0 472536000000.0 21383900000.0 138344000000.0 138344000000.0 21383800000.0 472536000000.0 439050000000.0 485422000000.0 469669000000.0 645094000000.0 541354000000.0 796841000000.0 15870200000.0 37750400000.0 96060200000.0 30518200000.0 63392900000.0 22209300000.0 86467300000.0 173684000000.0 36362900000.0 34043200000.0 14494000000.0 182094000000.0 64767300000.0 51889500000.0 17889900000.0 108997000000.0 139718000000.0 133220000000.0 23799400000.0 552587000000.0 484326000000.0 542379000000.0 639301000000.0 611164000000.0 481611000000.0 453122000000.0 5764740000.0 22113500000.0 5764740000.0 453122000000.0 481611000000.0 611164000000.0 639301000000.0 542379000000.0 484326000000.0 552587000000.0 23799400000.0 133220000000.0 139718000000.0 108997000000.0 17889900000.0 51889500000.0 64767300000.0 182094000000.0 14494000000.0 21724000000.0 212690000000.0 107443000000.0 68596000000.0 62371700000.0 162142000000.0 184593000000.0 204173000000.0 145380000000.0 247912000000.0 792043000000.0 482716000000.0 442746000000.0 380550000000.0 521306000000.0 622186000000.0 571708000000.0 570711000000.0 505734000000.0 450693000000.0 407800000000.0 20750500000.0 143299000000.0 20750500000.0 407800000000.0 450693000000.0 505734000000.0 570711000000.0 571708000000.0 622186000000.0 521306000000.0 380550000000.0 442746000000.0 482716000000.0 792043000000.0 247912000000.0 145380000000.0 204173000000.0 184593000000.0 162142000000.0 62371700000.0 68596000000.0 107443000000.0 212690000000.0 21724000000.0 89315500000.0 63900500000.0 327703000000.0 262955000000.0 168402000000.0 31235500000.0 204126000000.0 326502000000.0 245899000000.0 308220000000.0 257197000000.0 329989000000.0 266225000000.0 340559000000.0 561295000000.0 329304000000.0 548666000000.0 507621000000.0 526457000000.0 454818000000.0 473244000000.0 338690000000.0 338690000000.0 473244000000.0 454818000000.0 526457000000.0 507621000000.0 548666000000.0 329304000000.0 561295000000.0 340558000000.0 266225000000.0 329989000000.0 257197000000.0 308220000000.0 245899000000.0 326502000000.0 204126000000.0 31235600000.0 168402000000.0 262955000000.0 327703000000.0 63900500000.0 89315500000.0 95283300000.0 399362000000.0 250441000000.0 43819700000.0 111001000000.0 190669000000.0 370608000000.0 388782000000.0 376602000000.0 446907000000.0 453931000000.0 333387000000.0 230855000000.0 467708000000.0 486869000000.0 463014000000.0 433997000000.0 482978000000.0 445647000000.0 365940000000.0 407665000000.0 365940000000.0 445647000000.0 482978000000.0 433997000000.0 463014000000.0 486869000000.0 467708000000.0 230855000000.0 333387000000.0 453931000000.0 446906000000.0 376602000000.0 388782000000.0 370608000000.0 190669000000.0 111001000000.0 43819700000.0 250441000000.0 399362000000.0 95283300000.0 82190700000.0 435952000000.0 440417000000.0 347455000000.0 236478000000.0 140209000000.0 4011990000.0 303594000000.0 543318000000.0 426458000000.0 449036000000.0 553052000000.0 617169000000.0 492141000000.0 215579000000.0 173838000000.0 19441500000.0 483811000000.0 531512000000.0 403183000000.0 412028000000.0 380849000000.0 435668000000.0 381144000000.0 479270000000.0 457926000000.0 479270000000.0 381144000000.0 435668000000.0 380849000000.0 412028000000.0 403183000000.0 531512000000.0 483811000000.0 19441600000.0 173838000000.0 215579000000.0 492141000000.0 617169000000.0 553051000000.0 449036000000.0 426458000000.0 543318000000.0 303594000000.0 4012030000.0 140209000000.0 236478000000.0 347455000000.0 440417000000.0 435952000000.0 82190700000.0 37026300000.0 391599000000.0 419791000000.0 478785000000.0 374976000000.0 108130000000.0 136613000000.0 553418000000.0 892417000000.0 559994000000.0 552245000000.0 481781000000.0 465430000000.0 643653000000.0 743666000000.0 534830000000.0 162483000000.0 577719000000.0 267189000000.0 413599000000.0 403992000000.0 464377000000.0 444452000000.0 442513000000.0 442513000000.0 444452000000.0 464377000000.0 403992000000.0 413599000000.0 267189000000.0 577719000000.0 162483000000.0 534830000000.0 743665000000.0 643652000000.0 465430000000.0 481782000000.0 552245000000.0 559994000000.0 892417000000.0 553418000000.0 136613000000.0 108130000000.0 374976000000.0 478785000000.0 419791000000.0 391599000000.0 37026300000.0 137654000000.0 39221800000.0 290011000000.0 426260000000.0 507042000000.0 492241000000.0 378223000000.0 202414000000.0 48427000000.0 17781900000.0 116594000000.0 303288000000.0 904580000000.0 522134000000.0 822694000000.0 825018000000.0 50221100000.0 270982000000.0 669339000000.0 68087600000.0 423875000000.0 399929000000.0 410761000000.0 453204000000.0 432172000000.0 449872000000.0 432172000000.0 453204000000.0 410761000000.0 399929000000.0 423875000000.0 68087600000.0 669339000000.0 270982000000.0 50221200000.0 825018000000.0 822694000000.0 522134000000.0 904580000000.0 303288000000.0 116594000000.0 17781800000.0 48427100000.0 202414000000.0 378223000000.0 492241000000.0 507042000000.0 426260000000.0 290011000000.0 39221800000.0 137654000000.0 232036000000.0 134485000000.0 381907000000.0 369755000000.0 538208000000.0 125783000000.0 68364100000.0 196637000000.0 499703000000.0 823542000000.0 835841000000.0 756031000000.0 45730800000.0 821232000000.0 132843000000.0 832606000000.0 415477000000.0 272968000000.0 798997000000.0 3443040000.0 327906000000.0 417938000000.0 410232000000.0 410205000000.0 423217000000.0 472610000000.0 472610000000.0 423217000000.0 410205000000.0 410232000000.0 417938000000.0 327906000000.0 3443030000.0 798997000000.0 272967000000.0 415478000000.0 832606000000.0 132843000000.0 821231000000.0 45730900000.0 756031000000.0 835841000000.0 823541000000.0 499703000000.0 196637000000.0 68364100000.0 125783000000.0 538208000000.0 369755000000.0 381907000000.0 134485000000.0 232036000000.0 218413000000.0 28824700000.0 202563000000.0 352657000000.0 501189000000.0 556534000000.0 347773000000.0 25650300000.0 76813500000.0 90586800000.0 214605000000.0 748400000000.0 622557000000.0 274188000000.0 690398000000.0 462186000000.0 884995000000.0 381036000000.0 399946000000.0 407058000000.0 402581000000.0 465792000000.0 471801000000.0 458714000000.0 471328000000.0 458714000000.0 471801000000.0 465792000000.0 402581000000.0 407058000000.0 399946000000.0 381036000000.0 884995000000.0 462186000000.0 690398000000.0 274187000000.0 622556000000.0 748400000000.0 214605000000.0 90586800000.0 76813500000.0 25650400000.0 347773000000.0 556534000000.0 501189000000.0 352657000000.0 202563000000.0 28824700000.0 218413000000.0 30781900000.0 133238000000.0 44612100000.0 152110000000.0 255642000000.0 42650800000.0 74018500000.0 168036000000.0 415183000000.0 240856000000.0 224492000000.0 173835000000.0 93339000000.0 82848900000.0 36465500000.0 310931000000.0 595617000000.0 426337000000.0 600606000000.0 522697000000.0 425797000000.0 492147000000.0 430337000000.0 416844000000.0 341221000000.0 330319000000.0 465564000000.0 424569000000.0 444198000000.0 424569000000.0 465564000000.0 330319000000.0 341221000000.0 416844000000.0 430337000000.0 492147000000.0 425797000000.0 522697000000.0 600607000000.0 426337000000.0 595617000000.0 310931000000.0 36465400000.0 82848900000.0 93339000000.0 173835000000.0 224492000000.0 240856000000.0 415183000000.0 168036000000.0 74018500000.0 42650800000.0 255642000000.0 152110000000.0 44612100000.0 133238000000.0 30781900000.0 44388200000.0 181369000000.0 320367000000.0 238225000000.0 330867000000.0 422630000000.0 488208000000.0 322776000000.0 272780000000.0 154911000000.0 14852300000.0 196223000000.0 491842000000.0 537501000000.0 432425000000.0 240247000000.0 490118000000.0 302912000000.0 622724000000.0 321757000000.0 240982000000.0 450067000000.0 363378000000.0 424928000000.0 424928000000.0 363378000000.0 450067000000.0 240982000000.0 321757000000.0 622724000000.0 302911000000.0 490119000000.0 240246000000.0 432425000000.0 537499000000.0 491842000000.0 196223000000.0 14852300000.0 154911000000.0 272780000000.0 322776000000.0 488208000000.0 422630000000.0 330867000000.0 238225000000.0 320367000000.0 181369000000.0 44388300000.0 82102500000.0 338255000000.0 377906000000.0 20170200000.0 498972000000.0 2960190000.0 734575000000.0 130842000000.0 652118000000.0 57550100000.0 29248500000.0 601520000000.0 247494000000.0 93748900000.0 139971000000.0 22230100000.0 737074000000.0 278751000000.0 408942000000.0 81015600000.0 69265800000.0 488595000000.0 45917700000.0 391436000000.0 402654000000.0 333130000000.0 501954000000.0 398308000000.0 297494000000.0 412455000000.0 329763000000.0 361102000000.0 329763000000.0 412455000000.0 297494000000.0 398308000000.0 501954000000.0 333130000000.0 402654000000.0 391436000000.0 45917900000.0 488595000000.0 69265500000.0 81014800000.0 408942000000.0 278752000000.0 737074000000.0 22230200000.0 139971000000.0 93748800000.0 247494000000.0 601520000000.0 29248300000.0 57550200000.0 652118000000.0 130841000000.0 734575000000.0 2960240000.0 498972000000.0 20170300000.0 377906000000.0 338255000000.0 82102500000.0 139330000000.0 109654000000.0 379297000000.0 371540000000.0 443701000000.0 399344000000.0 403793000000.0 570022000000.0 384681000000.0 741594000000.0 1.03223e+12 365343000000.0 1.04264e+12 21687700000.0 555656000000.0 390253000000.0 667493000000.0 498503000000.0 110562000000.0 877474000000.0 259027000000.0 112201000000.0 26818800000.0 60919000000.0 257514000000.0 271788000000.0 470654000000.0 263346000000.0 410393000000.0 207413000000.0 276307000000.0 207413000000.0 410393000000.0 263346000000.0 470654000000.0 271788000000.0 257513000000.0 60918900000.0 26818400000.0 112201000000.0 259027000000.0 877474000000.0 110562000000.0 498503000000.0 667493000000.0 390253000000.0 555656000000.0 21687700000.0 1.04264e+12 365343000000.0 1.03223e+12 741594000000.0 384681000000.0 570022000000.0 403793000000.0 399344000000.0 443701000000.0 371540000000.0 379297000000.0 109654000000.0 139330000000.0 164572000000.0 389262000000.0 443453000000.0 554227000000.0 523963000000.0 660369000000.0 288729000000.0 491907000000.0 601253000000.0 52685600000.0 613829000000.0 199077000000.0 107803000000.0 360187000000.0 231883000000.0 630293000000.0 371533000000.0 210411000000.0 447129000000.0 144583000000.0 151563000000.0 116514000000.0 212925000000.0 90931100000.0 386621000000.0 347517000000.0 59629000000.0 129138000000.0 188369000000.0 336588000000.0 297998000000.0 297998000000.0 336588000000.0 188369000000.0 129137000000.0 59628900000.0 347517000000.0 386621000000.0 90931000000.0 212925000000.0 116514000000.0 151563000000.0 144583000000.0 447129000000.0 210411000000.0 371533000000.0 630292000000.0 231883000000.0 360187000000.0 107803000000.0 199077000000.0 613829000000.0 52685600000.0 601253000000.0 491907000000.0 288729000000.0 660369000000.0 523963000000.0 554227000000.0 443453000000.0 389262000000.0 164572000000.0 183703000000.0 402551000000.0 417404000000.0 419035000000.0 494006000000.0 724310000000.0 953618000000.0 137361000000.0 113400000000.0 625454000000.0 784828000000.0 114436000000.0 606911000000.0 646713000000.0 79698800000.0 174964000000.0 14496300000.0 193263000000.0 79004300000.0 225777000000.0 276130000000.0 395042000000.0 120267000000.0 298070000000.0 85932600000.0 72225200000.0 28861500000.0 65979500000.0 83051600000.0 82005000000.0 83051300000.0 65980000000.0 28861400000.0 72225300000.0 85932700000.0 298070000000.0 120267000000.0 395042000000.0 276129000000.0 225777000000.0 79004100000.0 193263000000.0 14496300000.0 174964000000.0 79698600000.0 646713000000.0 606911000000.0 114436000000.0 784828000000.0 625454000000.0 113400000000.0 137361000000.0 953619000000.0 724310000000.0 494006000000.0 419035000000.0 417404000000.0 402551000000.0 183703000000.0 115037000000.0 434461000000.0 465322000000.0 432820000000.0 631196000000.0 808514000000.0 13682400000.0 348550000000.0 924734000000.0 723856000000.0 217092000000.0 196902000000.0 80002100000.0 743623000000.0 105983000000.0 45126600000.0 158346000000.0 195718000000.0 211134000000.0 437015000000.0 349222000000.0 110035000000.0 8121230000.0 35673900000.0 71492200000.0 173459000000.0 153964000000.0 202323000000.0 253544000000.0 215441000000.0 253544000000.0 202323000000.0 153963000000.0 173459000000.0 71492800000.0 35673900000.0 8121090000.0 110035000000.0 349222000000.0 437015000000.0 211134000000.0 195719000000.0 158346000000.0 45126600000.0 105983000000.0 743623000000.0 80002100000.0 196902000000.0 217092000000.0 723856000000.0 924734000000.0 348550000000.0 13682300000.0 808514000000.0 631196000000.0 432820000000.0 465322000000.0 434461000000.0 115037000000.0 67039600000.0 131471000000.0 596199000000.0 598458000000.0 447038000000.0 358345000000.0 491495000000.0 573167000000.0 822665000000.0 312849000000.0 697240000000.0 800428000000.0 456831000000.0 482275000000.0 379146000000.0 293024000000.0 111724000000.0 447648000000.0 71453800000.0 320041000000.0 452760000000.0 396976000000.0 566278000000.0 991286000000.0 556578000000.0 638522000000.0 55220900000.0 89898900000.0 42719900000.0 40899300000.0 40899100000.0 42719200000.0 89899000000.0 55220800000.0 638522000000.0 556578000000.0 991286000000.0 566278000000.0 396976000000.0 452760000000.0 320041000000.0 71453900000.0 447648000000.0 111724000000.0 293024000000.0 379146000000.0 482275000000.0 456831000000.0 800428000000.0 697240000000.0 312849000000.0 822665000000.0 573167000000.0 491495000000.0 358345000000.0 447038000000.0 598458000000.0 596199000000.0 131471000000.0 67039500000.0 52385600000.0 1230740000.0 135149000000.0 475028000000.0 517524000000.0 412740000000.0 443091000000.0 611717000000.0 454120000000.0 409691000000.0 61851600000.0 227239000000.0 723532000000.0 603383000000.0 381074000000.0 160835000000.0 448513000000.0 341171000000.0 390662000000.0 238537000000.0 148125000000.0 421459000000.0 182915000000.0 564135000000.0 177537000000.0 142969000000.0 960988000.0 309843000000.0 330681000000.0 14958000000.0 236536000000.0 29917700000.0 199034000000.0 320179000000.0 485868000000.0 320179000000.0 199034000000.0 29917700000.0 236536000000.0 14958000000.0 330681000000.0 309843000000.0 961037000.0 142969000000.0 177537000000.0 564135000000.0 182915000000.0 421459000000.0 148125000000.0 238536000000.0 390662000000.0 341171000000.0 448513000000.0 160835000000.0 381074000000.0 603383000000.0 723532000000.0 227239000000.0 61851500000.0 409691000000.0 454120000000.0 611718000000.0 443091000000.0 412740000000.0 517524000000.0 475028000000.0 135149000000.0 1230750000.0 52385600000.0 119903000000.0 236788000000.0 301910000000.0 251660000000.0 338802000000.0 75211200000.0 231451000000.0 544425000000.0 1.01269e+12 134855000000.0 220314000000.0 253273000000.0 318801000000.0 534915000000.0 408654000000.0 99758100000.0 576076000000.0 374945000000.0 83836100000.0 336069000000.0 213728000000.0 228637000000.0 390366000000.0 97302200000.0 125800000000.0 115651000000.0 204400000000.0 148778000000.0 32534600000.0 142001000000.0 109170000000.0 8481810000.0 272373000000.0 39182800000.0 542634000000.0 39182000000.0 272374000000.0 8481810000.0 109170000000.0 142001000000.0 32534600000.0 148778000000.0 204400000000.0 115651000000.0 125800000000.0 97302100000.0 390366000000.0 228637000000.0 213728000000.0 336069000000.0 83836100000.0 374945000000.0 576076000000.0 99758100000.0 408654000000.0 534915000000.0 318801000000.0 253273000000.0 220314000000.0 134855000000.0 1.01269e+12 544425000000.0 231451000000.0 75211200000.0 338802000000.0 251660000000.0 301910000000.0 236788000000.0 119903000000.0 8975990000.0 110756000000.0 297967000000.0 303317000000.0 64802300000.0 280827000000.0 340947000000.0 95683800000.0 494741000000.0 491915000000.0 188937000000.0 128636000000.0 300005000000.0 115040000000.0 191530000000.0 323817000000.0 372007000000.0 61405500000.0 253338000000.0 163407000000.0 8194290000.0 29611800000.0 60740400000.0 60740100000.0 29611600000.0 8194260000.0 163407000000.0 253338000000.0 61405400000.0 372007000000.0 323818000000.0 191530000000.0 115040000000.0 300005000000.0 128636000000.0 188937000000.0 491915000000.0 494741000000.0 95683800000.0 340947000000.0 280827000000.0 64802300000.0 303317000000.0 297967000000.0 110756000000.0 8975990000.0 45732700000.0 107328000000.0 269181000000.0 404109000000.0 557033000000.0 96613400000.0 65273500000.0 216925000000.0 68060300000.0 186196000000.0 286477000000.0 344699000000.0 346252000000.0 395764000000.0 550021000000.0 425838000000.0 186781000000.0 40097500000.0 137683000000.0 165512000000.0 54836700000.0 60806400000.0 20902400000.0 210735000000.0 35542100000.0 66620700000.0 275996000000.0 5750240000.0 40526300000.0 212377000000.0 118404000000.0 117174000000.0 124056000000.0 174909000000.0 491375000000.0 174909000000.0 124056000000.0 117174000000.0 118404000000.0 212377000000.0 40526300000.0 5750240000.0 275996000000.0 66620600000.0 35542100000.0 210735000000.0 20902400000.0 60806500000.0 54836700000.0 165512000000.0 137683000000.0 40097500000.0 186781000000.0 425838000000.0 550021000000.0 395764000000.0 346252000000.0 344699000000.0 286477000000.0 186196000000.0 68060200000.0 216925000000.0 65273500000.0 96613400000.0 557033000000.0 404109000000.0 269181000000.0 107328000000.0 45732700000.0 169983000000.0 280544000000.0 91333400000.0 37770700000.0 324592000000.0 136250000000.0 754477000000.0 678116000000.0 198982000000.0 317659000000.0 250259000000.0 83488200000.0 430526000000.0 288692000000.0 219085000000.0 114040000000.0 78927000000.0 211420000000.0 185024000000.0 12370100000.0 166087000000.0 17075100000.0 2927320000.0 19427300000.0 83360700000.0 67785700000.0 178017000000.0 9995200000.0 396899000000.0 9994810000.0 178017000000.0 67785700000.0 83360500000.0 19427400000.0 2927370000.0 17075100000.0 166087000000.0 12370100000.0 185024000000.0 211420000000.0 78927000000.0 114040000000.0 219085000000.0 288692000000.0 430526000000.0 83488200000.0 250259000000.0 317659000000.0 198982000000.0 678116000000.0 754476000000.0 136250000000.0 324592000000.0 37770700000.0 91333400000.0 280544000000.0 169983000000.0 29853500000.0 64693700000.0 20952400000.0 39935800000.0 698835000000.0 585500000000.0 483625000000.0 328052000000.0 180280000000.0 250274000000.0 102061000000.0 313162000000.0 542885000000.0 535667000000.0 270096000000.0 347083000000.0 339833000000.0 277835000000.0 198766000000.0 397468000000.0 132029000000.0 363956000000.0 2264000000.0 8640990000.0 30453100000.0 62997100000.0 62996800000.0 30453100000.0 8640920000.0 2263980000.0 363956000000.0 132029000000.0 397468000000.0 198766000000.0 277835000000.0 339833000000.0 347083000000.0 270096000000.0 535667000000.0 542885000000.0 313162000000.0 102061000000.0 250274000000.0 180280000000.0 328052000000.0 483625000000.0 585500000000.0 698835000000.0 39935800000.0 20952400000.0 64693700000.0 29853400000.0 24981400000.0 580499000000.0 194928000000.0 169742000000.0 566469000000.0 487988000000.0 467773000000.0 307195000000.0 115134000000.0 56187700000.0 239007000000.0 471290000000.0 467211000000.0 321750000000.0 72823300000.0 119494000000.0 19621600000.0 36245700000.0 44914300000.0 11921000000.0 136525000000.0 45087800000.0 100174000000.0 100435000000.0 55800500000.0 8810400000.0 52655100000.0 51237000000.0 90222200000.0 66882000000.0 142885000000.0 393408000000.0 142885000000.0 66882000000.0 90222200000.0 51237000000.0 52655100000.0 8810390000.0 55800500000.0 100435000000.0 100174000000.0 45087800000.0 136525000000.0 11921000000.0 44914300000.0 36245700000.0 19621600000.0 119494000000.0 72823300000.0 321750000000.0 467211000000.0 471289000000.0 239007000000.0 56187700000.0 115134000000.0 307195000000.0 467773000000.0 487988000000.0 566469000000.0 169742000000.0 194928000000.0 580499000000.0 24981400000.0 137585000000.0 19780400000.0 10003200000.0 87049900000.0 153590000000.0 53028600000.0 454044000000.0 493004000000.0 469658000000.0 250626000000.0 161011000000.0 384512000000.0 411465000000.0 341335000000.0 207030000000.0 128592000000.0 76895600000.0 26485300000.0 584307000000.0 436729000000.0 269696000000.0 110918000000.0 230116000000.0 131644000000.0 44016500000.0 59588800000.0 23448700000.0 34744100000.0 36145200000.0 40595700000.0 70600100000.0 98884600000.0 244134000000.0 98884700000.0 70600300000.0 40595700000.0 36145300000.0 34744000000.0 23448600000.0 59588800000.0 44016400000.0 131644000000.0 230116000000.0 110918000000.0 269696000000.0 436729000000.0 584307000000.0 26485300000.0 76895600000.0 128592000000.0 207030000000.0 341335000000.0 411465000000.0 384512000000.0 161011000000.0 250626000000.0 469658000000.0 493004000000.0 454044000000.0 53028600000.0 153590000000.0 87049900000.0 10003200000.0 19780400000.0 137585000000.0 176973000000.0 4731590000.0 80448200000.0 76755400000.0 227665000000.0 111570000000.0 433882000000.0 30537700000.0 311047000000.0 225686000000.0 115168000000.0 48032700000.0 209687000000.0 382602000000.0 541212000000.0 602203000000.0 456819000000.0 224010000000.0 224010000000.0 456819000000.0 602203000000.0 541212000000.0 382602000000.0 209687000000.0 48032700000.0 115168000000.0 225686000000.0 311047000000.0 30537700000.0 433882000000.0 111570000000.0 227665000000.0 76755400000.0 80448300000.0 4731590000.0 176973000000.0 924914000.0 176885000000.0 156365000000.0 26967900000.0 163481000000.0 89242700000.0 464104000000.0 458381000000.0 94380400000.0 34764200000.0 336919000000.0 322773000000.0 13141600000.0 16385100000.0 126957000000.0 189579000000.0 216989000000.0 200213000000.0 126107000000.0 220549000000.0 114696000000.0 169356000000.0 63464500000.0 138891000000.0 19141900000.0 99310800000.0 11435600000.0 109338000000.0 38494500000.0 65267900000.0 177566000000.0 13738000000.0 369770000000.0 13738000000.0 177566000000.0 65267900000.0 38494500000.0 109338000000.0 11435600000.0 99310800000.0 19141900000.0 138891000000.0 63464500000.0 169356000000.0 114696000000.0 220549000000.0 126107000000.0 200213000000.0 216989000000.0 189580000000.0 126957000000.0 16385100000.0 13141600000.0 322773000000.0 336919000000.0 34764200000.0 94380400000.0 458381000000.0 464104000000.0 89242700000.0 163481000000.0 26967900000.0 156365000000.0 176885000000.0 924914000.0 220645000000.0 395533000000.0 378406000000.0 437100000000.0 20879900000.0 390530000000.0 286552000000.0 274003000000.0 210233000000.0 157154000000.0 76437200000.0 50053800000.0 36291300000.0 164960000000.0 12387700000.0 177117000000.0 9510840000.0 124503000000.0 14997400000.0 156147000000.0 18105700000.0 93703500000.0 10537000000.0 141407000000.0 11423100000.0 163058000000.0 27748700000.0 287130000000.0 27748600000.0 163058000000.0 11423100000.0 141407000000.0 10537000000.0 93703500000.0 18105700000.0 156147000000.0 14997400000.0 124503000000.0 9510840000.0 177117000000.0 12387700000.0 164960000000.0 36291300000.0 50053800000.0 76437200000.0 157154000000.0 210233000000.0 274003000000.0 286552000000.0 390530000000.0 20879900000.0 437100000000.0 378406000000.0 395533000000.0 220645000000.0 69537400000.0 428741000000.0 19027300000.0 54272000000.0 176293000000.0 92942100000.0 68339800000.0 346197000000.0 298967000000.0 121293000000.0 267629000000.0 47872500000.0 9236360000.0 57933800000.0 132629000000.0 157319000000.0 145822000000.0 112093000000.0 103358000000.0 105502000000.0 50037000000.0 50037000000.0 105502000000.0 103358000000.0 112093000000.0 145822000000.0 157319000000.0 132629000000.0 57933800000.0 9236350000.0 47872600000.0 267629000000.0 121293000000.0 298967000000.0 346197000000.0 68339800000.0 92942100000.0 176293000000.0 54272000000.0 19027300000.0 428741000000.0 69537400000.0 76521700000.0 296705000000.0 5589240000.0 45806900000.0 16140700000.0 113145000000.0 53028600000.0 56717600000.0 282235000000.0 211711000000.0 11743600000.0 49259600000.0 96612500000.0 141916000000.0 147953000000.0 137474000000.0 106161000000.0 93028400000.0 58513000000.0 20542600000.0 18327600000.0 97488900000.0 2235540000.0 94584200000.0 1653770000.0 47422200000.0 178779000.0 56151400000.0 6470620000.0 48985500000.0 760972000.0 109278000000.0 10844100000.0 161617000000.0 21583700000.0 285924000000.0 21583700000.0 161617000000.0 10844100000.0 109278000000.0 760970000.0 48985500000.0 6470620000.0 56151400000.0 178781000.0 47422200000.0 1653770000.0 94584200000.0 2235540000.0 97488900000.0 18327600000.0 20542600000.0 58513000000.0 93028400000.0 106161000000.0 137474000000.0 147953000000.0 141916000000.0 96612600000.0 49259600000.0 11743600000.0 211711000000.0 282235000000.0 56717600000.0 53028600000.0 113145000000.0 16140700000.0 45806900000.0 5589230000.0 296705000000.0 76521700000.0 174263000000.0 7681960000.0 33318100000.0 16948900000.0 3990030000.0 46522400000.0 2466790000.0 23057500000.0 203454000000.0 176871000000.0 132798000000.0 39674700000.0 5959730000.0 43688800000.0 84086300000.0 40752600000.0 3061880000.0 11564900000.0 43019700000.0 12702700000.0 16626000000.0 34490000000.0 5523230000.0 61903100000.0 18043800000.0 94406400000.0 10808300000.0 119094000000.0 21880000000.0 131538000000.0 116221000000.0 131538000000.0 21880000000.0 119094000000.0 10808300000.0 94406400000.0 18043800000.0 61903200000.0 5523230000.0 34490000000.0 16626000000.0 12702700000.0 43019700000.0 11564900000.0 3061880000.0 40752600000.0 84086300000.0 43688800000.0 5959730000.0 39674700000.0 132798000000.0 176871000000.0 203454000000.0 23057500000.0 2466760000.0 46522400000.0 3990030000.0 16948900000.0 33318100000.0 7681960000.0 174263000000.0 147911000000.0 125053000000.0 194437000000.0 155760000000.0 83163500000.0 101210000000.0 99009000000.0 101478000000.0 89992200000.0 89992200000.0 101478000000.0 99009000000.0 101210000000.0 83163500000.0 155760000000.0 194437000000.0 125053000000.0 147911000000.0 132904000000.0 2069960000.0 32414700000.0 69973400000.0 99479500000.0 86377900000.0 78633300000.0 57961100000.0 10373800000.0 137511000000.0 120939000000.0 167644000000.0 159317000000.0 77390200000.0 75254400000.0 68612900000.0 65102800000.0 70626000000.0 64588500000.0 19488800000.0 29286500000.0 12463600000.0 9926630000.0 24163600000.0 5084120000.0 42856800000.0 6243020000.0 50844500000.0 3936140000.0 72616200000.0 3732620000.0 89855200000.0 3408830000.0 140715000000.0 7055900000.0 165153000000.0 11072100000.0 251926000000.0 11072100000.0 165153000000.0 7055900000.0 140715000000.0 3408830000.0 89855200000.0 3732620000.0 72616200000.0 3936140000.0 50844500000.0 6243020000.0 42856800000.0 5084120000.0 24163600000.0 9926630000.0 12463600000.0 29286500000.0 19488800000.0 64588500000.0 70626000000.0 65102800000.0 68612900000.0 75254400000.0 77390200000.0 159317000000.0 167644000000.0 120939000000.0 137511000000.0 10373800000.0 57961200000.0 78633300000.0 86377900000.0 99479500000.0 69973400000.0 32414800000.0 2069960000.0 132904000000.0 71579800000.0 19003800000.0 4394840000.0 9080050000.0 9409740000.0 26632700000.0 16355200000.0 17655100000.0 94393200000.0 113542000000.0 132059000000.0 90360400000.0 230224000000.0 227599000000.0 237750000000.0 251548000000.0 212984000000.0 184768000000.0 171277000000.0 132670000000.0 132740000000.0 72523200000.0 102494000000.0 38968400000.0 77091500000.0 4410550000.0 58487200000.0 38986100000.0 46211900000.0 92240100000.0 40889800000.0 106412000000.0 37100700000.0 174875000000.0 37100700000.0 106412000000.0 40889800000.0 92240100000.0 46211900000.0 38986100000.0 58487200000.0 4410550000.0 77091500000.0 38968400000.0 102494000000.0 72523200000.0 132740000000.0 132670000000.0 171277000000.0 184768000000.0 212984000000.0 251548000000.0 237750000000.0 227599000000.0 230224000000.0 90360400000.0 132059000000.0 113542000000.0 94393200000.0 17655100000.0 16355200000.0 26632700000.0 9409740000.0 9080050000.0 4394850000.0 19003800000.0 71579800000.0 11696000000.0 96306500000.0 157622000000.0 204985000000.0 204985000000.0 157622000000.0 96306500000.0 11696000000.0 73288000000.0 11638800000.0 32240300000.0 52825800000.0 76079300000.0 79701800000.0 117001000000.0 150256000000.0 97149700000.0 70112500000.0 8300580000.0 16080400000.0 13874500000.0 37687700000.0 50161600000.0 44801000000.0 32643400000.0 41958800000.0 25921600000.0 16153000000.0 7467800000.0 36983100000.0 8191210000.0 41640200000.0 7465880000.0 65570300000.0 7803680000.0 67773200000.0 7634480000.0 84824400000.0 7727720000.0 103790000000.0 7877280000.0 140290000000.0 8469850000.0 142405000000.0 9035750000.0 194885000000.0 9035750000.0 142405000000.0 8469850000.0 140290000000.0 7877280000.0 103790000000.0 7727720000.0 84824400000.0 7634480000.0 67773200000.0 7803680000.0 65570300000.0 7465880000.0 41640200000.0 8191210000.0 36983100000.0 7467800000.0 16153000000.0 25921600000.0 41958800000.0 32643400000.0 44801000000.0 50161600000.0 37687700000.0 13874500000.0 16080400000.0 8300580000.0 70112600000.0 97149700000.0 150256000000.0 117001000000.0 79701800000.0 76079300000.0 52825800000.0 32240300000.0 11638800000.0 73288000000.0 64523500000.0 11095200000.0 15045400000.0 19979500000.0 20250000000.0 37535200000.0 26567100000.0 26223000000.0 64892900000.0 82065800000.0 17577400000.0 8482320000.0 6053310000.0 24687300000.0 24171400000.0 26747200000.0 8447060000.0 17753500000.0 20180600000.0 9382710000.0 53580500000.0 1601170000.0 62035700000.0 3595680000.0 81363300000.0 9035750000.0 102779000000.0 9035750000.0 131801000000.0 9035750000.0 128481000000.0 9035750000.0 168316000000.0 9035750000.0 128481000000.0 9035750000.0 131801000000.0 9035750000.0 102779000000.0 9035750000.0 81363300000.0 3595680000.0 62035700000.0 1601170000.0 53580500000.0 9382710000.0 20180600000.0 17753500000.0 8447060000.0 26747200000.0 24171400000.0 24687300000.0 6053310000.0 8482310000.0 17577400000.0 82065800000.0 64892900000.0 26223000000.0 26567100000.0 37535200000.0 20250000000.0 19979500000.0 15045400000.0 11095200000.0 64523500000.0 86386600000.0 126856000000.0 51992200000.0 67512700000.0 49092400000.0 49092400000.0 67512700000.0 51992200000.0 126856000000.0 86386500000.0 54450800000.0 12599300000.0 14131500000.0 20225000000.0 20031100000.0 31965800000.0 21032100000.0 19759400000.0 34355700000.0 50738100000.0 105871000000.0 82577400000.0 66231600000.0 93807600000.0 92249600000.0 70789100000.0 46966500000.0 45305100000.0 21813100000.0 18551900000.0 8851600000.0 41212500000.0 8988410000.0 43314400000.0 9035750000.0 67949000000.0 9035750000.0 68193600000.0 9035750000.0 81271500000.0 9035750000.0 99411000000.0 9035750000.0 121452000000.0 9035750000.0 115339000000.0 9035750000.0 145284000000.0 9035750000.0 115339000000.0 9035750000.0 121452000000.0 9035750000.0 99411000000.0 9035750000.0 81271500000.0 9035750000.0 68193600000.0 9035750000.0 67949000000.0 9035750000.0 43314400000.0 8988410000.0 41212500000.0 8851600000.0 18551900000.0 21813100000.0 45305200000.0 46966500000.0 70789100000.0 92249600000.0 93807600000.0 66231600000.0 82577400000.0 105871000000.0 50738100000.0 34355700000.0 19759400000.0 21032100000.0 31965800000.0 20031100000.0 20225000000.0 14131500000.0 12599300000.0 54450800000.0 46807800000.0 17435000000.0 20973500000.0 31362700000.0 34412900000.0 43493200000.0 20099800000.0 16517800000.0 7245120000.0 40306400000.0 8642120000.0 42641600000.0 9035750000.0 9035750000.0 9035750000.0 9035750000.0 9035750000.0 110964000000.0 9035750000.0 103454000000.0 9035750000.0 125387000000.0 9035750000.0 103454000000.0 9035750000.0 110964000000.0 9035750000.0 9035750000.0 9035750000.0 9035750000.0 9035750000.0 42641600000.0 8642120000.0 40306400000.0 7245120000.0 16517800000.0 20099800000.0 43493200000.0 34412900000.0 31362700000.0 20973500000.0 17435000000.0 46807800000.0 44276800000.0 37213900000.0 39061400000.0 44816300000.0 55934100000.0 108449000000.0 88033900000.0 77652400000.0 106675000000.0 101051000000.0 75137000000.0 49648800000.0 66088600000.0 66538400000.0 78444800000.0 95414700000.0 95414700000.0 78444800000.0 66538400000.0 66088600000.0 49648800000.0 75137000000.0 101051000000.0 106675000000.0 77652400000.0 88033900000.0 108449000000.0 55934100000.0 44816300000.0 39061500000.0 37213900000.0 44276800000.0 40311600000.0 19223400000.0 22324400000.0 33997600000.0 37992300000.0 44239900000.0 38798000000.0 40675400000.0 42235900000.0 48383100000.0 94866800000.0 80558700000.0 78143100000.0 111054000000.0 107297000000.0 82731100000.0 58193600000.0 48555500000.0 24895400000.0 19710600000.0 9035750000.0 41316600000.0 9035750000.0 42013500000.0 9035760000.0 63785000000.0 9035750000.0 64604000000.0 9035760000.0 75580700000.0 9035750000.0 90918000000.0 9035760000.0 100650000000.0 9035750000.0 92687200000.0 9035750000.0 108253000000.0 9035750000.0 92687200000.0 9035750000.0 100650000000.0 9035760000.0 90918000000.0 9035750000.0 75580700000.0 9035760000.0 64604000000.0 9035750000.0 63785000000.0 9035760000.0 42013500000.0 9035750000.0 41316600000.0 9035750000.0 19710600000.0 24895400000.0 48555500000.0 58193600000.0 82731100000.0 107297000000.0 111054000000.0 78143100000.0 80558700000.0 94866800000.0 48383100000.0 42235900000.0 40675400000.0 38798000000.0 44239900000.0 37992300000.0 33997600000.0 22324400000.0 19223400000.0 40311600000.0 35369900000.0 20733800000.0 23709400000.0 36141500000.0 40906000000.0 44689500000.0 41047400000.0 42825400000.0 43042000000.0 48945800000.0 86382500000.0 76456700000.0 79465200000.0 112737000000.0 108526000000.0 84280500000.0 60814600000.0 48739100000.0 25725800000.0 20249600000.0 9035760000.0 40981500000.0 9035760000.0 41428100000.0 9035760000.0 61235800000.0 9035760000.0 62450300000.0 9035760000.0 72604000000.0 9035760000.0 86036400000.0 9035760000.0 90745500000.0 9035750000.0 82925400000.0 9035750000.0 93546300000.0 9035750000.0 82925400000.0 9035750000.0 90745500000.0 9035760000.0 86036400000.0 9035760000.0 72604000000.0 9035760000.0 62450300000.0 9035760000.0 61235800000.0 9035760000.0 41428100000.0 9035760000.0 40981500000.0 9035760000.0 20249600000.0 25725800000.0 48739100000.0 60814600000.0 84280500000.0 108526000000.0 112737000000.0 79465200000.0 76456700000.0 86382500000.0 48945800000.0 43042000000.0 42825400000.0 41047400000.0 44689500000.0 40906000000.0 36141500000.0 23709400000.0 20733800000.0 35369900000.0 31515200000.0 21475500000.0 24271900000.0 36727600000.0 41729100000.0 43698100000.0 41460900000.0 42582400000.0 42223400000.0 50508400000.0 78473300000.0 71950100000.0 78882200000.0 111601000000.0 107560000000.0 84286600000.0 62082100000.0 48166500000.0 25961500000.0 20737600000.0 9035760000.0 40420900000.0 9035760000.0 40808900000.0 9035760000.0 58579400000.0 9035760000.0 60139600000.0 9035760000.0 69454700000.0 9035760000.0 80884900000.0 9035760000.0 81415000000.0 9035750000.0 74070900000.0 9035750000.0 80957600000.0 9035750000.0 74070900000.0 9035750000.0 81415000000.0 9035760000.0 80884900000.0 9035760000.0 69454700000.0 9035760000.0 60139600000.0 9035760000.0 58579400000.0 9035760000.0 40808900000.0 9035760000.0 40420900000.0 9035760000.0 20737600000.0 25961500000.0 48166600000.0 62082100000.0 84286600000.0 107560000000.0 111601000000.0 78882200000.0 71950100000.0 78473300000.0 50508400000.0 42223400000.0 42582400000.0 41460900000.0 43698100000.0 41729100000.0 36727600000.0 24271900000.0 21475500000.0 31515200000.0 28539500000.0 21767500000.0 24426900000.0 36505100000.0 41436100000.0 42328000000.0 41312300000.0 41567200000.0 41147100000.0 52591500000.0 72360900000.0 68287500000.0 77748500000.0 108662000000.0 104553000000.0 82406300000.0 61703600000.0 46806500000.0 25715800000.0 21139500000.0 9035760000.0 39626300000.0 9035760000.0 40087700000.0 9035760000.0 55902800000.0 9035760000.0 57717300000.0 9035760000.0 66127400000.0 9035760000.0 75558400000.0 9035760000.0 72759400000.0 9035750000.0 66045800000.0 9035750000.0 70205200000.0 9035750000.0 66045800000.0 9035750000.0 72759400000.0 9035760000.0 75558400000.0 9035760000.0 66127400000.0 9035760000.0 57717300000.0 9035760000.0 55902800000.0 9035760000.0 40087700000.0 9035760000.0 39626300000.0 9035760000.0 21139500000.0 25715800000.0 46806500000.0 61703600000.0 82406300000.0 104553000000.0 108662000000.0 77748500000.0 68287500000.0 72360900000.0 52591500000.0 41147100000.0 41567200000.0 41312300000.0 42328000000.0 41436100000.0 36505100000.0 24426900000.0 21767500000.0 28539500000.0 26273400000.0 21768600000.0 24259400000.0 35710900000.0 40357300000.0 40793300000.0 40837700000.0 40140700000.0 39994900000.0 54161300000.0 67709100000.0 65215800000.0 76056300000.0 104333000000.0 100204000000.0 79335900000.0 60169800000.0 44912700000.0 25114600000.0 21431300000.0 9035760000.0 38626700000.0 9035760000.0 39223600000.0 9035760000.0 53257600000.0 9035760000.0 55211900000.0 9035760000.0 62668100000.0 9035760000.0 70143100000.0 9035760000.0 64832000000.0 9035750000.0 58790700000.0 9035750000.0 61032600000.0 9035750000.0 58790700000.0 9035750000.0 64832000000.0 9035760000.0 70143100000.0 9035760000.0 62668100000.0 9035760000.0 55211900000.0 9035760000.0 53257600000.0 9035760000.0 39223600000.0 9035760000.0 38626700000.0 9035760000.0 21431300000.0 25114600000.0 44912700000.0 60169800000.0 79335900000.0 100204000000.0 104333000000.0 76056300000.0 65215800000.0 67709100000.0 54161300000.0 39994900000.0 40140700000.0 40837700000.0 40793300000.0 40357300000.0 35710900000.0 24259400000.0 21768600000.0 26273400000.0 24589500000.0 21593400000.0 23850600000.0 34540600000.0 38764000000.0 39235200000.0 40194400000.0 38559600000.0 38876500000.0 54929600000.0 64129000000.0 62571800000.0 73960100000.0 99050700000.0 94916600000.0 75426100000.0 57761700000.0 42663800000.0 24277900000.0 21600800000.0 9035770000.0 37466500000.0 9035760000.0 38206000000.0 9035760000.0 50670700000.0 9035760000.0 52648000000.0 9035760000.0 59138000000.0 9035760000.0 64731800000.0 9035760000.0 57650100000.0 9035750000.0 52257500000.0 9035750000.0 53211100000.0 9035750000.0 52257500000.0 9035750000.0 57650100000.0 9035760000.0 64731800000.0 9035760000.0 59138000000.0 9035760000.0 52648000000.0 9035760000.0 50670700000.0 9035760000.0 38206000000.0 9035760000.0 37466500000.0 9035770000.0 21600800000.0 24277900000.0 42663800000.0 57761700000.0 75426100000.0 94916600000.0 99050700000.0 73960100000.0 62571800000.0 64129000000.0 54929600000.0 38876500000.0 38559600000.0 40194400000.0 39235200000.0 38764000000.0 34540600000.0 23850600000.0 21593400000.0 24589500000.0 23369800000.0 21318400000.0 23271100000.0 33152000000.0 36876200000.0 37734900000.0 39474900000.0 36991300000.0 37835300000.0 54946200000.0 61263400000.0 60197400000.0 71552700000.0 93173100000.0 89015300000.0 70962900000.0 54738600000.0 40216400000.0 23301300000.0 21646000000.0 9035770000.0 36190800000.0 9035760000.0 37047200000.0 9035760000.0 48153100000.0 9035760000.0 50049100000.0 9035760000.0 55591500000.0 9035760000.0 59421000000.0 9035760000.0 51203100000.0 9035750000.0 46403500000.0 9035750000.0 46541000000.0 9035750000.0 46403500000.0 9035750000.0 51203100000.0 9035760000.0 59421000000.0 9035760000.0 55591500000.0 9035760000.0 50049100000.0 9035760000.0 48153100000.0 9035760000.0 37047200000.0 9035760000.0 36190800000.0 9035770000.0 21646000000.0 23301300000.0 40216400000.0 54738600000.0 70962900000.0 89015300000.0 93173100000.0 71552700000.0 60197400000.0 61263400000.0 54946200000.0 37835300000.0 36991300000.0 39474900000.0 37734900000.0 36876200000.0 33152000000.0 23271100000.0 21318400000.0 23369800000.0 22503500000.0 20993200000.0 22581300000.0 31663300000.0 34864000000.0 36328200000.0 38725100000.0 35530100000.0 36877600000.0 54356900000.0 58838300000.0 57946800000.0 68909800000.0 86987000000.0 82776000000.0 66187700000.0 51327600000.0 37697500000.0 22249600000.0 21571900000.0 9035770000.0 34839300000.0 9035770000.0 35773200000.0 9035760000.0 45706200000.0 9035760000.0 47437200000.0 9035760000.0 52071500000.0 9035760000.0 54298200000.0 9035760000.0 45461000000.0 9035750000.0 41187800000.0 9035750000.0 40850700000.0 9035750000.0 41187800000.0 9035750000.0 45460900000.0 9035760000.0 54298300000.0 9035760000.0 52071500000.0 9035760000.0 47437200000.0 9035760000.0 45706200000.0 9035760000.0 35773200000.0 9035770000.0 34839300000.0 9035770000.0 21571900000.0 22249600000.0 37697500000.0 51327600000.0 66187700000.0 82776000000.0 86987000000.0 68909800000.0 57946800000.0 58838300000.0 54356900000.0 36877600000.0 35530100000.0 38725100000.0 36328200000.0 34864000000.0 31663300000.0 22581300000.0 20993200000.0 22503500000.0 21892200000.0 20645700000.0 21831900000.0 30155900000.0 32847700000.0 35018000000.0 37959100000.0 34215100000.0 35987100000.0 53309800000.0 56636300000.0 55700100000.0 66091000000.0 80719100000.0 76434100000.0 61303500000.0 47718400000.0 35203100000.0 21165400000.0 21388300000.0 9035770000.0 33444200000.0 9035770000.0 34414600000.0 9035760000.0 43327200000.0 9035760000.0 44832800000.0 9035760000.0 48613500000.0 9035760000.0 49433100000.0 9035760000.0 40380100000.0 9035750000.0 36569900000.0 9035750000.0 35994800000.0 9035750000.0 36569900000.0 9035750000.0 40380100000.0 9035760000.0 49433100000.0 9035760000.0 48613500000.0 9035760000.0 44832800000.0 9035760000.0 43327200000.0 9035760000.0 34414600000.0 9035770000.0 33444200000.0 9035770000.0 21388300000.0 21165400000.0 35203100000.0 47718400000.0 61303500000.0 76434100000.0 80719100000.0 66091000000.0 55700100000.0 56636300000.0 53309800000.0 35987100000.0 34215100000.0 37959100000.0 35018000000.0 32847700000.0 30155900000.0 21831900000.0 20645700000.0 21892200000.0 21452100000.0 20287500000.0 21061600000.0 28681800000.0 30903100000.0 33787000000.0 37172200000.0 33046900000.0 35132400000.0 51928000000.0 54498700000.0 53392300000.0 63141700000.0 74544200000.0 70179400000.0 56471600000.0 44064000000.0 32799500000.0 20079700000.0 21107600000.0 9035770000.0 32029600000.0 9035770000.0 33001000000.0 9035760000.0 41012200000.0 9035760000.0 42255800000.0 9035760000.0 45247700000.0 9035760000.0 44875000000.0 9035760000.0 35909200000.0 9035750000.0 32508000000.0 9035750000.0 31850200000.0 9035750000.0 32508000000.0 9035750000.0 35909200000.0 9035760000.0 44875000000.0 9035760000.0 45247700000.0 9035760000.0 42255800000.0 9035760000.0 41012200000.0 9035760000.0 33001000000.0 9035770000.0 32029600000.0 9035770000.0 21107600000.0 20079700000.0 32799500000.0 44064000000.0 56471600000.0 70179400000.0 74544200000.0 63141700000.0 53392300000.0 54498700000.0 51928000000.0 35132400000.0 33046900000.0 37172200000.0 33787000000.0 30903100000.0 28681800000.0 21061600000.0 20287500000.0 21452100000.0 21113700000.0 19919900000.0 20297000000.0 27271600000.0 29071200000.0 32609200000.0 36349800000.0 32002100000.0 34277400000.0 50305600000.0 52339400000.0 51013800000.0 60096800000.0 68590500000.0 64154000000.0 51811500000.0 40482600000.0 30527600000.0 19015500000.0 20743200000.0 9035770000.0 30612400000.0 9035770000.0 31557300000.0 9035760000.0 38758700000.0 9035760000.0 39725200000.0 9035760000.0 42000100000.0 9035760000.0 40654800000.0 9035760000.0 31993800000.0 9035750000.0 28958400000.0 9035750000.0 28312900000.0 9035750000.0 28958400000.0 9035750000.0 31993800000.0 9035760000.0 40654800000.0 9035760000.0 42000100000.0 9035760000.0 39725200000.0 9035760000.0 38758700000.0 9035760000.0 31557300000.0 9035770000.0 30612400000.0 9035770000.0 20743200000.0 19015500000.0 30527600000.0 40482600000.0 51811500000.0 64154000000.0 68590500000.0 60096800000.0 51013800000.0 52339400000.0 50305600000.0 34277400000.0 32002100000.0 36349800000.0 32609200000.0 29071200000.0 27271600000.0 20297000000.0 19919900000.0 21113700000.0 20820900000.0 19539200000.0 19553800000.0 25939900000.0 27368100000.0 31458100000.0 35474000000.0 31045100000.0 33391300000.0 48510700000.0 50132500000.0 48585400000.0 56986600000.0 62943300000.0 58455000000.0 47404000000.0 37059700000.0 28408900000.0 17989500000.0 20308300000.0 9035770000.0 29204900000.0 9035770000.0 30103700000.0 9035760000.0 36566900000.0 9035760000.0 37258900000.0 9035760000.0 38892400000.0 9035760000.0 36786900000.0 9035760000.0 28579100000.0 9035750000.0 25876000000.0 9035750000.0 25295200000.0 9035750000.0 25876000000.0 9035750000.0 28579100000.0 9035760000.0 36786900000.0 9035760000.0 38892400000.0 9035760000.0 37258900000.0 9035760000.0 36566900000.0 9035760000.0 30103700000.0 9035770000.0 29204900000.0 9035770000.0 20308300000.0 17989500000.0 28408900000.0 37059700000.0 47404000000.0 58455000000.0 62943300000.0 56986600000.0 48585400000.0 50132500000.0 48510700000.0 33391300000.0 31045100000.0 35474000000.0 31458100000.0 27368100000.0 25939900000.0 19553800000.0 19539200000.0 20820900000.0 20530500000.0 19140100000.0 18839500000.0 24689800000.0 25794400000.0 30310500000.0 34528200000.0 30137200000.0 32452200000.0 46590600000.0 47884000000.0 46135600000.0 53838600000.0 57652000000.0 53141200000.0 43297500000.0 33851700000.0 26450900000.0 17013500000.0 19815100000.0 9035770000.0 27815500000.0 9035770000.0 28655600000.0 9035760000.0 34439000000.0 9035760000.0 34872200000.0 9035760000.0 35942400000.0 9035760000.0 33273300000.0 9035760000.0 25612500000.0 9035750000.0 23215000000.0 9035750000.0 22722400000.0 9035750000.0 23215000000.0 9035750000.0 25612500000.0 9035760000.0 33273300000.0 9035760000.0 35942400000.0 9035760000.0 34872200000.0 9035760000.0 34439000000.0 9035760000.0 28655600000.0 9035770000.0 27815500000.0 9035770000.0 19815100000.0 17013500000.0 26450900000.0 33851700000.0 43297500000.0 53141200000.0 57652000000.0 53838600000.0 46135600000.0 47884000000.0 46590600000.0 32452200000.0 30137200000.0 34528200000.0 30310500000.0 25794400000.0 24689800000.0 18839500000.0 19140100000.0 20530500000.0 20211700000.0 18717900000.0 18155500000.0 23516500000.0 24341800000.0 29148600000.0 33499600000.0 29242700000.0 31446500000.0 44577600000.0 45608100000.0 43688600000.0 50679000000.0 52737700000.0 48241000000.0 39514600000.0 30890600000.0 24651600000.0 16095100000.0 19274800000.0 9035770000.0 26450300000.0 9035770000.0 27224700000.0 9035760000.0 32378700000.0 9035760000.0 32577400000.0 9035760000.0 33163400000.0 9035760000.0 30106000000.0 9035760000.0 23044200000.0 9035750000.0 20930100000.0 9035750000.0 20531200000.0 9035750000.0 20930100000.0 9035750000.0 23044200000.0 9035760000.0 30106000000.0 9035760000.0 33163400000.0 9035760000.0 32577400000.0 9035760000.0 32378700000.0 9035760000.0 27224700000.0 9035770000.0 26450300000.0 9035770000.0 19274800000.0 16095100000.0 24651600000.0 30890600000.0 39514600000.0 48241000000.0 52737700000.0 50679000000.0 43688600000.0 45608100000.0 44577600000.0 31446500000.0 29242700000.0 33499600000.0 29148600000.0 24341800000.0 23516500000.0 18155500000.0 18717900000.0 20211700000.0 22997200000.0 43759100000.0 36058400000.0 28189500000.0 23003200000.0 15238900000.0 18697100000.0 9035770000.0 25113500000.0 9035770000.0 25819600000.0 9035760000.0 30389800000.0 9035760000.0 30383700000.0 9035760000.0 30563700000.0 9035760000.0 27269800000.0 9035760000.0 20828500000.0 9035750000.0 18977500000.0 9035750000.0 18667200000.0 9035750000.0 18977500000.0 9035750000.0 20828500000.0 9035760000.0 27269800000.0 9035760000.0 30563700000.0 9035760000.0 30383700000.0 9035760000.0 30389800000.0 9035760000.0 25819600000.0 9035770000.0 25113500000.0 9035770000.0 18697100000.0 15238900000.0 23003200000.0 28189500000.0 36058400000.0 43759100000.0 22997200000.0 19844800000.0 18269100000.0 17499800000.0 22411000000.0 27960800000.0 32380800000.0 28332300000.0 30367200000.0 42493600000.0 43316900000.0 41261100000.0 47531200000.0 48200500000.0 48200500000.0 47531200000.0 41261100000.0 43316900000.0 42493600000.0 30367200000.0 28332300000.0 32380800000.0 27960800000.0 22411000000.0 17499800000.0 18269100000.0 19844800000.0 19418600000.0 17791100000.0 16868200000.0 21361800000.0 21745500000.0 26741900000.0 31169700000.0 27383500000.0 29212500000.0 40353500000.0 41016600000.0 38862900000.0 44415900000.0 44025600000.0 39683500000.0 32918200000.0 25747500000.0 21494600000.0 14447500000.0 18090200000.0 9035770000.0 23807900000.0 9035770000.0 24446100000.0 9035760000.0 28475500000.0 9035760000.0 28296900000.0 9035760000.0 28146900000.0 9035760000.0 24744600000.0 9035760000.0 18923200000.0 9035750000.0 17316100000.0 9035750000.0 17084000000.0 9035750000.0 17316100000.0 9035750000.0 18923200000.0 9035760000.0 24744600000.0 9035760000.0 28146900000.0 9035760000.0 28296900000.0 9035760000.0 28475500000.0 9035760000.0 24446100000.0 9035770000.0 23807900000.0 9035770000.0 18090200000.0 14447500000.0 21494600000.0 25747500000.0 32918200000.0 39683500000.0 44025600000.0 44415900000.0 38862900000.0 41016600000.0 40353500000.0 29212500000.0 27383500000.0 31169700000.0 26741900000.0 21745500000.0 21361800000.0 16868200000.0 17791100000.0 19418600000.0 18928300000.0 17282900000.0 16256000000.0 20357500000.0 20572100000.0 25491800000.0 29867800000.0 26380500000.0 27984400000.0 38167600000.0 38709400000.0 36498400000.0 41349900000.0 40189200000.0 35990700000.0 30074000000.0 23554000000.0 20113100000.0 13721900000.0 17460900000.0 9035770000.0 22535400000.0 9035770000.0 23107800000.0 9035760000.0 26637800000.0 9035760000.0 26320300000.0 9035760000.0 25911900000.0 9035760000.0 22507200000.0 9035760000.0 17290300000.0 9035750000.0 15907700000.0 9035750000.0 15741100000.0 9035750000.0 15907700000.0 9035750000.0 17290300000.0 9035760000.0 22507200000.0 9035760000.0 25911900000.0 9035760000.0 26320300000.0 9035760000.0 26637800000.0 9035760000.0 23107800000.0 9035770000.0 22535400000.0 9035770000.0 17460900000.0 13721900000.0 20113100000.0 23554000000.0 30074000000.0 35990700000.0 40189200000.0 41349900000.0 36498400000.0 38709400000.0 38167600000.0 27984400000.0 26380500000.0 29867800000.0 25491800000.0 20572100000.0 20357500000.0 16256000000.0 17282900000.0 18928300000.0 18374000000.0 16744700000.0 15658500000.0 19387600000.0 19463700000.0 24213600000.0 28480100000.0 25313300000.0 26687500000.0 35943700000.0 36394400000.0 34168300000.0 38346800000.0 36662000000.0 32650200000.0 27500600000.0 21592200000.0 18845900000.0 13061800000.0 16814700000.0 9035770000.0 21296600000.0 9035770000.0 21806300000.0 9035760000.0 24877500000.0 9035760000.0 24454200000.0 9035760000.0 23854100000.0 9035760000.0 20532500000.0 9035760000.0 15895200000.0 9035750000.0 14717500000.0 9035750000.0 14603800000.0 9035750000.0 14717500000.0 9035750000.0 15895200000.0 9035760000.0 20532500000.0 9035760000.0 23854100000.0 9035760000.0 24454200000.0 9035760000.0 24877500000.0 9035760000.0 21806300000.0 9035770000.0 21296600000.0 9035770000.0 16814700000.0 13061800000.0 18845900000.0 21592200000.0 27500600000.0 32650200000.0 36662000000.0 38346800000.0 34168300000.0 36394400000.0 35943700000.0 26687500000.0 25313300000.0 28480100000.0 24213600000.0 19463700000.0 19387600000.0 15658500000.0 16744700000.0 18374000000.0 17758700000.0 16177100000.0 15071600000.0 18443000000.0 18409000000.0 22912500000.0 27013600000.0 24176800000.0 25328300000.0 33687400000.0 34069500000.0 31871200000.0 35416200000.0 33412500000.0 29627700000.0 25169800000.0 19841900000.0 17680200000.0 12465800000.0 16156000000.0 9035770000.0 20091800000.0 9035770000.0 20542200000.0 9035760000.0 23193900000.0 9035760000.0 22696800000.0 9035760000.0 21965400000.0 9035760000.0 18795000000.0 9035760000.0 14706800000.0 9035750000.0 13714000000.0 9035750000.0 13641600000.0 9035750000.0 13714000000.0 9035750000.0 14706800000.0 9035760000.0 18795000000.0 9035760000.0 21965400000.0 9035760000.0 22696800000.0 9035760000.0 23193900000.0 9035760000.0 20542200000.0 9035770000.0 20091800000.0 9035770000.0 16156000000.0 12465800000.0 17680200000.0 19841900000.0 25169800000.0 29627700000.0 33412500000.0 35416200000.0 31871200000.0 34069500000.0 33687400000.0 25328300000.0 24176800000.0 27013600000.0 22912500000.0 18409000000.0 18443000000.0 15071600000.0 16177100000.0 17758700000.0 17087100000.0 15581900000.0 14491700000.0 17516500000.0 17398700000.0 21594400000.0 25476700000.0 22970000000.0 23914000000.0 31403500000.0 31732600000.0 29604000000.0 32564600000.0 30409000000.0 26887500000.0 23053100000.0 18281100000.0 16604100000.0 11931600000.0 15488300000.0 9035770000.0 18920100000.0 9035760000.0 19314900000.0 9035760000.0 21585000000.0 9035760000.0 21044100000.0 9035760000.0 20235300000.0 9035760000.0 17269200000.0 9035760000.0 13696900000.0 9035750000.0 12869400000.0 9035750000.0 12828100000.0 9035750000.0 12869400000.0 9035750000.0 13696900000.0 9035760000.0 17269200000.0 9035760000.0 20235300000.0 9035760000.0 21044100000.0 9035760000.0 21585000000.0 9035760000.0 19314900000.0 9035760000.0 18920100000.0 9035770000.0 15488300000.0 11931600000.0 16604100000.0 18281100000.0 23053100000.0 26887500000.0 30409000000.0 32564600000.0 29604000000.0 31732600000.0 31403500000.0 23914000000.0 22970000000.0 25476700000.0 21594400000.0 17398700000.0 17516500000.0 14491700000.0 15581900000.0 17087100000.0 16365000000.0 14961000000.0 13916000000.0 16602700000.0 16425400000.0 20265000000.0 23878300000.0 21694700000.0 22452100000.0 29095900000.0 29382100000.0 27363400000.0 29794900000.0 27620400000.0 24394700000.0 21122600000.0 16887700000.0 15606600000.0 11455800000.0 14814200000.0 9035770000.0 17780200000.0 9035760000.0 18122700000.0 9035760000.0 20047400000.0 9035760000.0 19490200000.0 9035760000.0 18651400000.0 9035760000.0 15930300000.0 9035760000.0 12840400000.0 9035750000.0 12158800000.0 9035750000.0 12140000000.0 9035750000.0 12158800000.0 9035750000.0 12840400000.0 9035760000.0 15930300000.0 9035760000.0 18651400000.0 9035760000.0 19490200000.0 9035760000.0 20047400000.0 9035760000.0 18122700000.0 9035760000.0 17780200000.0 9035770000.0 14814200000.0 11455800000.0 15606600000.0 16887700000.0 21122600000.0 24394700000.0 27620400000.0 29794900000.0 27363400000.0 29382100000.0 29095900000.0 22452100000.0 21694700000.0 23878300000.0 20265000000.0 16425400000.0 16602700000.0 13916000000.0 14961000000.0 16365000000.0 15598200000.0 14316600000.0 13342200000.0 15697300000.0 15483200000.0 18929500000.0 22227700000.0 20355200000.0 20949600000.0 26768000000.0 27017300000.0 25145800000.0 27107300000.0 25017800000.0 22115600000.0 19352000000.0 15639800000.0 14677400000.0 11034400000.0 14135800000.0 9035770000.0 16670200000.0 9035760000.0 16963800000.0 9035760000.0 18576600000.0 9035760000.0 18027900000.0 9035760000.0 17200100000.0 9035760000.0 14754300000.0 9035760000.0 12114400000.0 9035750000.0 11560400000.0 9035750000.0 11557100000.0 9035750000.0 11560400000.0 9035750000.0 12114400000.0 9035760000.0 14754300000.0 9035760000.0 17200100000.0 9035760000.0 18027900000.0 9035760000.0 18576600000.0 9035760000.0 16963800000.0 9035760000.0 16670200000.0 9035770000.0 14135800000.0 11034400000.0 14677400000.0 15639800000.0 19352000000.0 22115600000.0 25017800000.0 27107300000.0 25145800000.0 27017300000.0 26768000000.0 20949600000.0 20355200000.0 22227700000.0 18929500000.0 15483200000.0 15697300000.0 13342200000.0 14316600000.0 15598200000.0 14792800000.0 13651300000.0 12768800000.0 14797600000.0 14567300000.0 17592100000.0 20533700000.0 18957300000.0 19413100000.0 24422700000.0 24638100000.0 22947800000.0 24499100000.0 22573600000.0 20018600000.0 17716700000.0 14516700000.0 13806900000.0 10662400000.0 13454500000.0 9035770000.0 15587600000.0 9035760000.0 15835200000.0 9035760000.0 17166900000.0 9035760000.0 16648500000.0 9035760000.0 15866600000.0 9035760000.0 13718600000.0 9035760000.0 11498300000.0 9035750000.0 11055000000.0 9035750000.0 11061400000.0 9035750000.0 11055000000.0 9035750000.0 11498300000.0 9035760000.0 13718600000.0 9035760000.0 15866600000.0 9035760000.0 16648500000.0 9035760000.0 17166900000.0 9035760000.0 15835200000.0 9035760000.0 15587600000.0 9035770000.0 13454500000.0 10662400000.0 13806900000.0 14516700000.0 17716700000.0 20018600000.0 22573600000.0 24499100000.0 22947800000.0 24638100000.0 24422700000.0 19413100000.0 18957300000.0 20533700000.0 17592100000.0 14567300000.0 14797600000.0 12768800000.0 13651300000.0 14792800000.0 13954400000.0 12967500000.0 12194600000.0 13901400000.0 13673400000.0 16256000000.0 18804400000.0 17507900000.0 17848700000.0 22062700000.0 22245500000.0 20766200000.0 21965100000.0 20262800000.0 18074200000.0 16194200000.0 13498700000.0 12986300000.0 10334300000.0 12771400000.0 9035760000.0 14529500000.0 9035760000.0 14733800000.0 9035760000.0 15811800000.0 9035760000.0 15342600000.0 9035760000.0 14635700000.0 9035760000.0 12801500000.0 9035760000.0 10973500000.0 9035750000.0 10625600000.0 9035750000.0 10637400000.0 9035750000.0 10625600000.0 9035750000.0 10973500000.0 9035760000.0 12801500000.0 9035760000.0 14635700000.0 9035760000.0 15342600000.0 9035760000.0 15811800000.0 9035760000.0 14733800000.0 9035760000.0 14529500000.0 9035760000.0 12771400000.0 10334300000.0 12986300000.0 13498700000.0 16194200000.0 18074200000.0 20262800000.0 21965100000.0 20766200000.0 22245500000.0 22062700000.0 17848700000.0 17507900000.0 18804400000.0 16256000000.0 13673400000.0 13901400000.0 12194600000.0 12967500000.0 13954400000.0 13088600000.0 12268100000.0 11618900000.0 13007500000.0 12798100000.0 14923300000.0 17047300000.0 16014300000.0 16261700000.0 19690600000.0 19840900000.0 18598100000.0 19497700000.0 18061600000.0 16255000000.0 14763500000.0 12567500000.0 12207200000.0 10044100000.0 12087200000.0 9035760000.0 13492700000.0 9035760000.0 13656100000.0 9035760000.0 14503900000.0 9035760000.0 14099700000.0 9035760000.0 13491800000.0 9035750000.0 11982600000.0 9035760000.0 10523100000.0 9035750000.0 10257300000.0 9035750000.0 10271000000.0 9035750000.0 10257300000.0 9035750000.0 10523100000.0 9035760000.0 11982600000.0 9035750000.0 13491800000.0 9035760000.0 14099700000.0 9035760000.0 14503900000.0 9035760000.0 13656100000.0 9035760000.0 13492700000.0 9035760000.0 12087200000.0 10044100000.0 12207200000.0 12567500000.0 14763500000.0 16255000000.0 18061600000.0 19497700000.0 18598100000.0 19840900000.0 19690600000.0 16261700000.0 16014300000.0 17047300000.0 14923300000.0 12798100000.0 13007500000.0 11618900000.0 12268100000.0 13088600000.0 12200800000.0 11555700000.0 11041400000.0 12114900000.0 11937800000.0 13595100000.0 15268700000.0 14484600000.0 14656900000.0 17308600000.0 17426000000.0 16440700000.0 17087600000.0 15948100000.0 14535400000.0 13405800000.0 11705600000.0 11461500000.0 9785250000.0 11402400000.0 9035760000.0 12473600000.0 9035760000.0 12598200000.0 9035760000.0 13235400000.0 9035760000.0 12909000000.0 9035760000.0 12418900000.0 9035750000.0 11242300000.0 9035750000.0 10131300000.0 9035750000.0 9936710000.0 9035750000.0 9949710000.0 9035750000.0 9936710000.0 9035750000.0 10131300000.0 9035750000.0 11242300000.0 9035750000.0 12418900000.0 9035760000.0 12909000000.0 9035760000.0 13235400000.0 9035760000.0 12598200000.0 9035760000.0 12473600000.0 9035760000.0 11402400000.0 9785250000.0 11461500000.0 11705600000.0 13405800000.0 14535400000.0 15948100000.0 17087600000.0 16440700000.0 17426000000.0 17308600000.0 14656900000.0 14484600000.0 15268700000.0 13595100000.0 11937800000.0 12114900000.0 11041400000.0 11555700000.0 12200800000.0 11296100000.0 10833200000.0 10462200000.0 11223000000.0 11089300000.0 12271300000.0 13474500000.0 12926700000.0 13038600000.0 14919000000.0 15002800000.0 14291400000.0 14723500000.0 13901200000.0 12891500000.0 12103100000.0 10896500000.0 10741400000.0 9550990000.0 10717300000.0 9035760000.0 11468400000.0 9035760000.0 11555800000.0 9035760000.0 11997700000.0 9035750000.0 11759000000.0 9035750000.0 11401000000.0 9035750000.0 10562200000.0 9035750000.0 9783990000.0 9035750000.0 9651810000.0 9035750000.0 9662260000.0 9035750000.0 9651810000.0 9035750000.0 9783990000.0 9035750000.0 10562200000.0 9035750000.0 11401000000.0 9035750000.0 11759000000.0 9035750000.0 11997700000.0 9035760000.0 11555800000.0 9035760000.0 11468400000.0 9035760000.0 10717300000.0 9550990000.0 10741400000.0 10896500000.0 12103100000.0 12891500000.0 13901200000.0 14723500000.0 14291400000.0 15002800000.0 14919000000.0 13038600000.0 12926700000.0 13474500000.0 12271300000.0 11089300000.0 11223000000.0 10462200000.0 10833200000.0 11296100000.0 10379400000.0 10103400000.0 9881450000.0 10331500000.0 10249300000.0 10951200000.0 11669600000.0 11348700000.0 11410900000.0 12523700000.0 12573600000.0 12147600000.0 12392800000.0 11901000000.0 11300400000.0 10838800000.0 10124300000.0 10039500000.0 9334320000.0 10032000000.0 9035760000.0 10473200000.0 9035760000.0 10524600000.0 9035750000.0 10782200000.0 9035750000.0 10638200000.0 9035750000.0 10422300000.0 9035750000.0 9924300000.0 9035750000.0 9467530000.0 9035750000.0 9391580000.0 9035750000.0 9398230000.0 9035750000.0 9391580000.0 9035750000.0 9467530000.0 9035750000.0 9924300000.0 9035750000.0 10422300000.0 9035750000.0 10638200000.0 9035750000.0 10782200000.0 9035750000.0 10524600000.0 9035760000.0 10473200000.0 9035760000.0 10032000000.0 9334320000.0 10039500000.0 10124300000.0 10838800000.0 11300400000.0 11901000000.0 12392800000.0 12147600000.0 12573600000.0 12523700000.0 11410900000.0 11348700000.0 11669600000.0 10951200000.0 10249300000.0 10331500000.0 9881450000.0 10103400000.0 10379400000.0 9455710000.0 9369350000.0 9299800000.0 9440200000.0 9414160000.0 9633470000.0 9858390000.0 9758650000.0 9777580000.0 10124800000.0 10140400000.0 10006900000.0 10082100000.0 9928020000.0 9740270000.0 9596810000.0 9373850000.0 9348230000.0 9128140000.0 9346740000.0 9035750000.0 9483990000.0 9035750000.0 9499960000.0 9035750000.0 9579890000.0 9035750000.0 9534610000.0 9035750000.0 9466780000.0 9035750000.0 9311180000.0 9035750000.0 9169120000.0 9035750000.0 9145700000.0 9035750000.0 9147830000.0 9035750000.0 9145700000.0 9035750000.0 9169120000.0 9035750000.0 9311180000.0 9035750000.0 9466780000.0 9035750000.0 9534610000.0 9035750000.0 9579890000.0 9035750000.0 9499960000.0 9035750000.0 9483990000.0 9035750000.0 9346740000.0 9128140000.0 9348230000.0 9373850000.0 9596810000.0 9740270000.0 9928020000.0 10082100000.0 10006900000.0 10140400000.0 10124800000.0 9777580000.0 9758650000.0 9858390000.0 9633470000.0 9414160000.0 9440200000.0 9299800000.0 9369350000.0 9455710000.0 