# vtk DataFile Version 2.0
Time step 91
ASCII
DATASET UNSTRUCTURED_GRID
POINTS 4650 float
247401.0 289273.0 0
294579.0 288858.0 0
205456.0 291853.0 0
208921.0 289881.0 0
212357.0 291905.0 0
215667.0 289709.0 0
219347.0 291209.0 0
237029.0 291577.0 0
243982.0 291343.0 0
250914.0 291178.0 0
257861.0 291075.0 0
264724.0 290930.0 0
276798.0 291042.0 0
284276.0 290877.0 0
291140.0 290859.0 0
298003.0 290886.0 0
201999.0 293833.0 0
208905.0 293871.0 0
215812.0 293892.0 0
223123.0 292451.0 0
226742.0 294093.0 0
233647.0 293709.0 0
240574.0 293427.0 0
247497.0 293249.0 0
254414.0 293098.0 0
261339.0 293042.0 0
266656.0 294416.0 0
273186.0 293160.0 0
280848.0 292907.0 0
287728.0 292867.0 0
294577.0 292868.0 0
205447.0 295833.0 0
212363.0 295880.0 0
219568.0 295178.0 0
223336.0 296422.0 0
230293.0 295878.0 0
237194.0 295549.0 0
244095.0 295317.0 0
250996.0 295155.0 0
254470.0 297079.0 0
257888.0 295053.0 0
261336.0 297010.0 0
270154.0 296318.0 0
274063.0 297042.0 0
277448.0 294968.0 0
280948.0 296892.0 0
284324.0 294871.0 0
287774.0 296855.0 0
291168.0 294858.0 0
294594.0 296857.0 0
298004.0 294876.0 0
201998.0 297809.0 0
208896.0 297833.0 0
215824.0 297881.0 0
219617.0 299129.0 0
226947.0 298063.0 0
233837.0 297683.0 0
237377.0 299507.0 0
240721.0 297401.0 0
244219.0 299280.0 0
247594.0 297214.0 0
251068.0 299119.0 0
257926.0 299024.0 0
265119.0 298085.0 0
277603.0 298930.0 0
284403.0 298859.0 0
291202.0 298845.0 0
298005.0 298859.0 0
201996.0 301765.0 0
205436.0 299791.0 0
208860.0 301777.0 0
212338.0 299833.0 0
215757.0 301850.0 0
223407.0 300378.0 0
227046.0 302009.0 0
230494.0 299844.0 0
234067.0 301624.0 0
240876.0 301363.0 0
247690.0 301171.0 0
254517.0 301039.0 0
261379.0 300973.0 0
265169.0 302061.0 0
268573.0 299969.0 0
274303.0 300974.0 0
281060.0 300876.0 0
287831.0 300839.0 0
294612.0 300839.0 0
205411.0 303735.0 0
212255.0 303773.0 0
219534.0 303057.0 0
223292.0 304309.0 0
230811.0 303757.0 0
237569.0 303462.0 0
244342.0 303237.0 0
251135.0 303072.0 0
257944.0 302971.0 0
261328.0 304920.0 0
267787.0 304979.0 0
271050.0 302999.0 0
274461.0 304940.0 0
277748.0 302906.0 0
281159.0 304859.0 0
284483.0 302843.0 0
287885.0 304819.0 0
291239.0 302825.0 0
294630.0 304813.0 0
298006.0 302835.0 0
201994.0 305710.0 0
208797.0 305718.0 0
215603.0 305789.0 0
219310.0 306956.0 0
227619.0 305883.0 0
234308.0 305577.0 0
237753.0 307423.0 0
241028.0 305320.0 0
244456.0 307187.0 0
247781.0 305121.0 0
251195.0 307016.0 0
254554.0 304987.0 0
257938.0 306922.0 0
264565.0 306985.0 0
271176.0 306952.0 0
277855.0 306883.0 0
284551.0 306823.0 0
291271.0 306798.0 0
298008.0 306803.0 0
201992.0 309648.0 0
205379.0 307676.0 0
208728.0 309665.0 0
212138.0 307718.0 0
215438.0 309709.0 0
221465.0 310105.0 0
224503.0 308004.0 0
227940.0 309833.0 0
231098.0 307704.0 0
234520.0 309544.0 0
241164.0 309275.0 0
247863.0 309061.0 0
254584.0 308930.0 0
261257.0 308913.0 0
267905.0 308948.0 0
274557.0 308901.0 0
281234.0 308835.0 0
287929.0 308792.0 0
294645.0 308779.0 0
205344.0 311614.0 0
212034.0 311682.0 0
218386.0 312060.0 0
224821.0 311956.0 0
231328.0 311675.0 0
237908.0 311386.0 0
244557.0 311128.0 0
251251.0 310949.0 0
257939.0 310879.0 0
264602.0 310916.0 0
271264.0 310904.0 0
277926.0 310848.0 0
281284.0 312798.0 0
284602.0 310793.0 0
287961.0 312753.0 0
291297.0 310762.0 0
294657.0 312733.0 0
298009.0 310761.0 0
201989.0 313580.0 0
208657.0 313612.0 0
215167.0 313867.0 0
221672.0 314018.0 0
228165.0 313804.0 0
234688.0 313515.0 0
241278.0 313223.0 0
244640.0 315053.0 0
247936.0 312986.0 0
251305.0 314862.0 0
254620.0 312862.0 0
257979.0 314802.0 0
261290.0 312853.0 0
264648.0 314832.0 0
267960.0 312881.0 0
271314.0 314839.0 0
274622.0 312853.0 0
277972.0 314801.0 0
284635.0 314750.0 0
291315.0 314714.0 0
298010.0 314706.0 0
201987.0 317501.0 0
205314.0 315551.0 0
208599.0 317567.0 0
211893.0 315683.0 0
215174.0 317778.0 0
218442.0 315945.0 0
221770.0 317907.0 0
224992.0 315898.0 0
228308.0 317764.0 0
231495.0 315650.0 0
234813.0 317483.0 0
238031.0 315345.0 0
241367.0 317156.0 0
247999.0 316887.0 0
254667.0 316764.0 0
261335.0 316762.0 0
268001.0 316799.0 0
274659.0 316791.0 0
281315.0 316748.0 0
287982.0 316700.0 0
294665.0 316674.0 0
205295.0 319476.0 0
211895.0 319611.0 0
218508.0 319812.0 0
225100.0 319820.0 0
231614.0 319616.0 0
238123.0 319293.0 0
244705.0 318951.0 0
251357.0 318744.0 0
258022.0 318694.0 0
264685.0 318733.0 0
271344.0 318761.0 0
277996.0 318739.0 0
284654.0 318691.0 0
287993.0 320630.0 0
291326.0 318649.0 0
294669.0 320597.0 0
298011.0 318635.0 0
201986.0 321404.0 0
208603.0 321477.0 0
215226.0 321654.0 0
221858.0 321787.0 0
228416.0 321711.0 0
234909.0 321443.0 0
241434.0 321069.0 0
244755.0 322814.0 0
248051.0 320753.0 0
251396.0 322591.0 0
254708.0 320634.0 0
258045.0 322559.0 0
261367.0 320648.0 0
264699.0 322618.0 0
268024.0 320704.0 0
271353.0 322673.0 0
274677.0 320717.0 0
278005.0 322664.0 0
281330.0 320681.0 0
284664.0 322615.0 0
291332.0 322566.0 0
298011.0 322547.0 0
201986.0 325275.0 0
205300.0 323367.0 0
208626.0 325344.0 0
211932.0 323489.0 0
215288.0 325498.0 0
218585.0 323667.0 0
221952.0 325656.0 0
225200.0 323734.0 0
228524.0 325655.0 0
231715.0 323576.0 0
235000.0 325401.0 0
238197.0 323228.0 0
241488.0 324958.0 0
248089.0 324578.0 0
254724.0 324475.0 0
261365.0 324511.0 0
268020.0 324598.0 0
274677.0 324630.0 0
281335.0 324598.0 0
287999.0 324542.0 0
294673.0 324501.0 0
205309.0 327219.0 0
211973.0 327325.0 0
218664.0 327498.0 0
225310.0 327644.0 0
231833.0 327540.0 0
238276.0 327156.0 0
244795.0 326630.0 0
251410.0 326405.0 0
254686.0 328296.0 0
258023.0 326399.0 0
261298.0 328349.0 0
264672.0 326485.0 0
271337.0 326570.0 0
278005.0 326571.0 0
284670.0 326521.0 0
288007.0 328433.0 0
291338.0 326463.0 0
294677.0 328384.0 0
298012.0 326439.0 0
201986.0 329112.0 0
205316.0 331035.0 0
208647.0 329169.0 0
215341.0 329306.0 0
222048.0 329504.0 0
228654.0 329598.0 0
235130.0 329370.0 0
241550.0 328828.0 0
244833.0 330387.0 0
248112.0 328360.0 0
251382.0 330204.0 0
257904.0 330220.0 0
264571.0 330320.0 0
267975.0 328473.0 0
271296.0 330445.0 0
274663.0 328524.0 0
278008.0 330458.0 0
281341.0 328497.0 0
284683.0 330408.0 0
291347.0 330340.0 0
298013.0 330312.0 0
201985.0 332920.0 0
208656.0 332959.0 0
212000.0 331120.0 0
215369.0 333073.0 0
218727.0 331293.0 0
222126.0 333312.0 0
225422.0 331548.0 0
228786.0 333523.0 0
232007.0 331506.0 0
235404.0 333364.0 0
238415.0 331093.0 0
241655.0 332708.0 0
248109.0 332109.0 0
254557.0 332122.0 0
261084.0 332143.0 0
267876.0 332314.0 0
274657.0 332390.0 0
281364.0 332377.0 0
288026.0 332307.0 0
294684.0 332247.0 0
205316.0 334822.0 0
212005.0 334882.0 0
218750.0 335037.0 0
225517.0 335456.0 0
232186.0 335422.0 0
238851.0 335220.0 0
244867.0 334058.0 0
247875.0 335867.0 0
251233.0 334019.0 0
254328.0 335948.0 0
257690.0 334044.0 0
260791.0 335959.0 0
264205.0 334063.0 0
267212.0 335989.0 0
271267.0 334273.0 0
274699.0 336219.0 0
278041.0 334321.0 0
281428.0 336242.0 0
284720.0 334281.0 0
288069.0 336167.0 0
291367.0 334198.0 0
294699.0 336093.0 0
298014.0 334166.0 0
201985.0 336702.0 0
205306.0 338588.0 0
208648.0 336723.0 0
211983.0 338616.0 0
215364.0 336804.0 0
218732.0 338737.0 0
222134.0 337045.0 0
228915.0 337419.0 0
235624.0 337275.0 0
243914.0 337490.0 0
250923.0 337804.0 0
257433.0 337868.0 0
263832.0 337883.0 0
270166.0 337824.0 0
278140.0 338163.0 0
284800.0 338149.0 0
291406.0 338043.0 0
298016.0 338004.0 0
201984.0 340468.0 0
208620.0 340468.0 0
215324.0 340500.0 0
222123.0 340700.0 0
225640.0 339383.0 0
229049.0 341303.0 0
232343.0 339297.0 0
237120.0 340790.0 0
240347.0 338803.0 0
243908.0 341132.0 0
247321.0 339440.0 0
254063.0 339732.0 0
260511.0 339798.0 0
266843.0 339787.0 0
273115.0 339561.0 0
276092.0 341221.0 0
281564.0 340107.0 0
288150.0 340024.0 0
294727.0 339926.0 0
205292.0 342345.0 0
211926.0 342328.0 0
218684.0 342383.0 0
225769.0 343320.0 0
233910.0 342747.0 0
240546.0 342703.0 0
247243.0 343159.0 0
250615.0 341472.0 0
253854.0 343478.0 0
257196.0 341680.0 0
260304.0 343636.0 0
263563.0 341725.0 0
266615.0 343604.0 0
269864.0 341604.0 0
272925.0 343336.0 0
279116.0 342841.0 0
284949.0 342033.0 0
288291.0 343892.0 0
291476.0 341884.0 0
294767.0 343757.0 0
298018.0 341834.0 0
201983.0 344221.0 0
205284.0 346099.0 0
208588.0 344210.0 0
211874.0 346047.0 0
215220.0 344160.0 0
218487.0 345954.0 0
222084.0 344283.0 0
230740.0 344709.0 0
237328.0 344625.0 0
240682.0 346569.0 0
243906.0 344842.0 0
250534.0 345206.0 0
257044.0 345481.0 0
263393.0 345569.0 0
269703.0 345368.0 0
276029.0 345015.0 0
282194.0 344457.0 0
285331.0 346093.0 0
291572.0 345736.0 0
298021.0 345660.0 0
201983.0 347957.0 0
208576.0 347958.0 0
215152.0 347849.0 0
221639.0 347726.0 0
224869.0 349056.0 0
227632.0 346713.0 0
231077.0 348550.0 0
234166.0 346573.0 0
237538.0 348466.0 0
244010.0 348616.0 0
247240.0 346896.0 0
250536.0 348953.0 0
253787.0 347247.0 0
260195.0 347473.0 0
266485.0 347417.0 0
269624.0 349086.0 0
272847.0 347068.0 0
276022.0 348759.0 0
279159.0 346672.0 0
282296.0 348323.0 0
288493.0 347827.0 0
294810.0 347595.0 0
201984.0 351659.0 0
205293.0 349849.0 0
208609.0 351703.0 0
211873.0 349776.0 0
215194.0 351546.0 0
218419.0 349634.0 0
221789.0 351313.0 0
228158.0 350659.0 0
234458.0 350414.0 0
240862.0 350410.0 0
247318.0 350655.0 0
253805.0 351014.0 0
257006.0 349288.0 0
260197.0 351320.0 0
263319.0 349420.0 0
266432.0 351238.0 0
272832.0 350750.0 0
279182.0 350459.0 0
285420.0 349995.0 0
288549.0 351712.0 0
291667.0 349616.0 0
294846.0 351433.0 0
298023.0 349482.0 0
205332.0 353586.0 0
211957.0 353490.0 0
218600.0 353260.0 0
225166.0 352835.0 0
231474.0 352434.0 0
234786.0 354275.0 0
237788.0 352311.0 0
241085.0 354247.0 0
244163.0 352411.0 0
250603.0 352701.0 0
257058.0 353084.0 0
263358.0 353306.0 0
269606.0 352722.0 0
272867.0 354390.0 0
276031.0 352483.0 0
279129.0 354255.0 0
282297.0 352158.0 0
285409.0 353844.0 0
291694.0 353465.0 0
298026.0 353290.0 0
201987.0 355297.0 0
208702.0 355427.0 0
212153.0 357154.0 0
215390.0 355181.0 0
218948.0 356831.0 0
222072.0 354915.0 0
225493.0 356557.0 0
228504.0 354501.0 0
231820.0 356280.0 0
238077.0 356163.0 0
244364.0 356218.0 0
247446.0 354423.0 0
250720.0 356442.0 0
253874.0 354757.0 0
260309.0 355164.0 0
266489.0 355105.0 0
269695.0 356201.0 0
275919.0 356246.0 0
282224.0 355966.0 0
288542.0 355545.0 0
294854.0 355240.0 0
298027.0 357065.0 0
201988.0 358822.0 0
205396.0 357306.0 0
208832.0 359103.0 0
215857.0 358704.0 0
222450.0 358530.0 0
228853.0 358290.0 0
235114.0 358122.0 0
241355.0 358086.0 0
247636.0 358201.0 0
253993.0 358477.0 0
257136.0 356828.0 0
260381.0 358921.0 0
263577.0 357248.0 0
265385.0 360535.0 0
268931.0 359470.0 0
272619.0 358085.0 0
278983.0 358042.0 0
285357.0 357638.0 0
288526.0 359328.0 0
291691.0 357274.0 0
294853.0 359000.0 0
205520.0 361042.0 0
212891.0 360622.0 0
216451.0 362271.0 0
219419.0 360407.0 0
222898.0 362170.0 0
225875.0 360264.0 0
229228.0 362058.0 0
232168.0 360097.0 0
235452.0 361949.0 0
238393.0 360005.0 0
241674.0 361913.0 0
244631.0 360032.0 0
247927.0 361982.0 0
250918.0 360177.0 0
257260.0 360541.0 0
261947.0 362184.0 0
272092.0 361589.0 0
275650.0 359980.0 0
278761.0 361777.0 0
282108.0 359721.0 0
285323.0 361364.0 0
291698.0 361055.0 0
298028.0 360798.0 0
201987.0 362214.0 0
207088.0 364369.0 0
209977.0 362495.0 0
213527.0 364161.0 0
219952.0 364022.0 0
226291.0 363978.0 0
232525.0 363898.0 0
238729.0 363825.0 0
244983.0 363831.0 0
251288.0 363885.0 0
254234.0 362174.0 0
258525.0 363907.0 0
265041.0 364327.0 0
268489.0 362964.0 0
275232.0 363629.0 0
282026.0 363375.0 0
285506.0 364993.0 0
288590.0 363072.0 0
294842.0 362706.0 0
298028.0 364482.0 0
201962.0 365495.0 0
204831.0 366854.0 0
210633.0 366041.0 0
217040.0 365855.0 0
223369.0 365847.0 0
229605.0 365829.0 0
235796.0 365757.0 0
242021.0 365704.0 0
248353.0 365725.0 0
251859.0 367476.0 0
255140.0 365664.0 0
258351.0 367660.0 0
261672.0 365955.0 0
268063.0 366594.0 0
271585.0 365129.0 0
274523.0 367251.0 0
278467.0 365389.0 0
282452.0 366807.0 0
288705.0 366889.0 0
291702.0 364875.0 0
294806.0 366309.0 0
201958.0 369106.0 0
207973.0 368138.0 0
211350.0 369629.0 0
214151.0 367706.0 0
217598.0 369456.0 0
220475.0 367681.0 0
223794.0 369581.0 0
226690.0 367723.0 0
229948.0 369612.0 0
232871.0 367692.0 0
236131.0 369542.0 0
239072.0 367614.0 0
242371.0 369456.0 0
245356.0 367567.0 0
248728.0 369390.0 0
255101.0 369419.0 0
261407.0 369762.0 0
264690.0 368112.0 0
270975.0 368778.0 0
276648.0 369885.0 0
279613.0 368568.0 0
285622.0 368718.0 0
291798.0 368834.0 0
295172.0 369660.0 0
298045.0 368107.0 0
205080.0 370429.0 0
208512.0 371636.0 0
214729.0 371273.0 0
220944.0 371412.0 0
227026.0 371503.0 0
233193.0 371473.0 0
239406.0 371374.0 0
242669.0 373205.0 0
245672.0 371287.0 0
248885.0 373160.0 0
251961.0 371257.0 0
258191.0 371479.0 0
264335.0 371943.0 0
267598.0 370340.0 0
270311.0 372626.0 0
273503.0 371132.0 0
279387.0 372178.0 0
282557.0 370519.0 0
285414.0 372490.0 0
288630.0 370723.0 0
298028.0 371896.0 0
201976.0 372714.0 0
205669.0 373701.0 0
208943.0 375128.0 0
211829.0 373155.0 0
215113.0 374783.0 0
218075.0 373061.0 0
221266.0 375269.0 0
224121.0 373384.0 0
230249.0 373391.0 0
233517.0 375221.0 0
236455.0 373300.0 0
239700.0 375131.0 0
245860.0 375073.0 0
251977.0 375109.0 0
255052.0 373263.0 0
258026.0 375364.0 0
261149.0 373623.0 0
267131.0 374201.0 0
272997.0 374959.0 0
276163.0 373563.0 0
282189.0 374204.0 0
287880.0 374776.0 0
290896.0 373338.0 0
294050.0 372471.0 0
299506.0 375788.0 0
197729.0 378686.0 0
200639.0 376892.0 0
203353.0 375931.0 0
206310.0 377329.0 0
212122.0 376646.0 0
215220.0 378219.0 0
218361.0 376592.0 0
224342.0 377235.0 0
227296.0 375297.0 0
230594.0 377117.0 0
236758.0 377054.0 0
242877.0 376998.0 0
248949.0 377004.0 0
254959.0 377162.0 0
260897.0 377536.0 0
263991.0 375836.0 0
269865.0 376490.0 0
275733.0 377274.0 0
278937.0 375796.0 0
281642.0 377937.0 0
284797.0 376338.0 0
290284.0 377254.0 0
293234.0 376067.0 0
296405.0 374942.0 0
301683.0 378340.0 0
194792.0 380534.0 0
197777.0 381688.0 0
200668.0 379930.0 0
203568.0 379541.0 0
206554.0 380882.0 0
209340.0 378719.0 0
212405.0 380203.0 0
218284.0 379830.0 0
221531.0 379393.0 0
224949.0 380928.0 0
227705.0 378994.0 0
233844.0 378961.0 0
237010.0 380845.0 0
239927.0 378925.0 0
243005.0 380846.0 0
245960.0 378919.0 0
248950.0 380905.0 0
251936.0 379014.0 0
257846.0 379294.0 0
263696.0 379759.0 0
266764.0 378094.0 0
269509.0 380360.0 0
272597.0 378777.0 0
278468.0 379500.0 0
284249.0 380151.0 0
287298.0 378653.0 0
292847.0 379796.0 0
295816.0 378392.0 0
298531.0 379395.0 0
301573.0 381379.0 0
304615.0 380161.0 0
307559.0 382000.0 0
188933.0 384185.0 0
191961.0 382305.0 0
195021.0 383779.0 0
198495.0 384435.0 0
201228.0 382828.0 0
203940.0 383196.0 0
209601.0 382249.0 0
212737.0 383717.0 0
215493.0 381769.0 0
218896.0 382905.0 0
222458.0 383085.0 0
228205.0 382741.0 0
230977.0 380846.0 0
234135.0 382750.0 0
240081.0 382774.0 0
245993.0 382819.0 0
251854.0 382959.0 0
254834.0 381104.0 0
257662.0 383254.0 0
260663.0 381480.0 0
266457.0 382002.0 0
272247.0 382613.0 0
275332.0 381039.0 0
278052.0 383259.0 0
281153.0 381696.0 0
286850.0 382447.0 0
289852.0 381056.0 0
295557.0 382125.0 0
298578.0 382552.0 0
304530.0 383280.0 0
310575.0 383882.0 0
185986.0 386032.0 0
191775.0 385360.0 0
194289.0 386935.0 0
197092.0 386764.0 0
201011.0 386368.0 0
206841.0 384395.0 0
209949.0 385692.0 0
215987.0 385185.0 0
220332.0 385673.0 0
225623.0 384749.0 0
231332.0 384657.0 0
237190.0 384696.0 0
243062.0 384746.0 0
248898.0 384848.0 0
254689.0 385074.0 0
260444.0 385442.0 0
263436.0 383697.0 0
266189.0 385921.0 0
269202.0 384243.0 0
274980.0 384843.0 0
280754.0 385460.0 0
283812.0 383922.0 0
289529.0 384771.0 0
292539.0 383475.0 0
295226.0 385860.0 0
298197.0 385493.0 0
301461.0 384525.0 0
304425.0 386394.0 0
307541.0 385079.0 0
310689.0 386893.0 0
313692.0 385842.0 0
179942.0 389810.0 0
182979.0 387911.0 0
185943.0 389113.0 0
188964.0 387317.0 0
191901.0 388810.0 0
198792.0 388862.0 0
203937.0 386554.0 0
207219.0 387675.0 0
212953.0 387157.0 0
215344.0 389128.0 0
218000.0 387616.0 0
220836.0 389318.0 0
223294.0 386996.0 0
226134.0 388734.0 0
228646.0 386618.0 0
231579.0 388573.0 0
234348.0 386621.0 0
237284.0 388612.0 0
240157.0 386676.0 0
243051.0 388689.0 0
245965.0 386762.0 0
251739.0 386931.0 0
257477.0 387232.0 0
263202.0 387645.0 0
268936.0 388135.0 0
271944.0 386467.0 0
277709.0 387045.0 0
283467.0 387656.0 0
286506.0 386169.0 0
289273.0 388422.0 0
292277.0 387125.0 0
298108.0 388622.0 0
301206.0 387573.0 0
304257.0 389465.0 0
307525.0 388097.0 0
313738.0 389148.0 0
316707.0 387726.0 0
319724.0 389612.0 0
176894.0 391717.0 0
182882.0 390999.0 0
185894.0 392171.0 0
188964.0 390422.0 0
192207.0 391791.0 0
195349.0 389985.0 0
198320.0 391832.0 0
201597.0 390006.0 0
204565.0 389562.0 0
207315.0 391183.0 0
210117.0 389204.0 0
212693.0 390987.0 0
218038.0 391200.0 0
223593.0 390913.0 0
228919.0 390611.0 0
234454.0 390564.0 0
240158.0 390625.0 0
245887.0 390736.0 0
248804.0 388821.0 0
251600.0 390919.0 0
254531.0 389060.0 0
257290.0 391220.0 0
260237.0 389413.0 0
265953.0 389846.0 0
271688.0 390330.0 0
274687.0 388668.0 0
277440.0 390841.0 0
280445.0 389223.0 0
286223.0 389837.0 0
292165.0 390668.0 0
295163.0 389454.0 0
301203.0 390744.0 0
307284.0 391069.0 0
310697.0 389838.0 0
316687.0 391013.0 0
322838.0 391551.0 0
173862.0 393614.0 0
176734.0 394898.0 0
179798.0 392935.0 0
182769.0 394069.0 0
189025.0 393384.0 0
195171.0 393209.0 0
201087.0 393566.0 0
204115.0 392675.0 0
209944.0 392897.0 0
215275.0 392923.0 0
220802.0 393000.0 0
226266.0 392713.0 0
231685.0 392561.0 0
237288.0 392573.0 0
242983.0 392664.0 0
248682.0 392810.0 0
254357.0 393060.0 0
260042.0 393386.0 0
262989.0 391597.0 0
265746.0 393773.0 0
268708.0 392033.0 0
274451.0 392499.0 0
280219.0 392982.0 0
283211.0 391375.0 0
286020.0 393490.0 0
289047.0 391980.0 0
291913.0 394075.0 0
295196.0 392911.0 0
298195.0 391942.0 0
301373.0 393993.0 0
304314.0 392738.0 0
307487.0 394263.0 0
310321.0 392550.0 0
313627.0 392533.0 0
316938.0 394215.0 0
319864.0 392795.0 0
323098.0 394670.0 0
326018.0 393535.0 0
167906.0 397341.0 0
170863.0 395490.0 0
173714.0 396857.0 0
179656.0 396065.0 0
182639.0 397125.0 0
185817.0 395164.0 0
188856.0 396398.0 0
192014.0 394958.0 0
194908.0 396432.0 0
198032.0 395101.0 0
200794.0 397074.0 0
203795.0 395956.0 0
206896.0 394570.0 0
209578.0 396477.0 0
212517.0 394755.0 0
215087.0 396691.0 0
217935.0 394881.0 0
220593.0 396753.0 0
223480.0 394769.0 0
226107.0 396634.0 0
228930.0 394603.0 0
231613.0 396545.0 0
234447.0 394546.0 0
237204.0 396554.0 0
240089.0 394602.0 0
245774.0 394728.0 0
251438.0 394933.0 0
257107.0 395210.0 0
262798.0 395549.0 0
268515.0 395929.0 0
271477.0 394196.0 0
274268.0 396327.0 0
277238.0 394635.0 0
283034.0 395086.0 0
288861.0 395568.0 0
294729.0 396104.0 0
298349.0 395318.0 0
301788.0 397105.0 0
304719.0 396109.0 0
308248.0 397276.0 0
311069.0 395280.0 0
314246.0 395937.0 0
317513.0 397506.0 0
320241.0 395977.0 0
326361.0 396611.0 0
329241.0 395546.0 0
332486.0 397573.0 0
164969.0 399178.0 0
170795.0 398776.0 0
173680.0 400195.0 0
176577.0 398110.0 0
179477.0 399199.0 0
182411.0 400178.0 0
185655.0 398181.0 0
188711.0 399411.0 0
191781.0 398242.0 0
194616.0 399613.0 0
197744.0 398413.0 0
203493.0 399369.0 0
206542.0 398025.0 0
212162.0 398449.0 0
217675.0 398637.0 0
223211.0 398619.0 0
228742.0 398547.0 0
234318.0 398522.0 0
239955.0 398587.0 0
242865.0 396654.0 0
245615.0 398738.0 0
248528.0 396833.0 0
251272.0 398952.0 0
254185.0 397068.0 0
259862.0 397359.0 0
265566.0 397697.0 0
271308.0 398057.0 0
277091.0 398420.0 0
280059.0 396731.0 0
282918.0 398789.0 0
285885.0 397155.0 0
288756.0 399210.0 0
291684.0 397624.0 0
297138.0 398176.0 0
299877.0 399343.0 0
305741.0 399384.0 0
311538.0 398355.0 0
314797.0 399207.0 0
320792.0 399230.0 0
323532.0 397820.0 0
326779.0 399751.0 0
329620.0 398593.0 0
335721.0 399596.0 0
158992.0 402906.0 0
162018.0 401020.0 0
164988.0 402458.0 0
167906.0 400643.0 0
170844.0 402133.0 0
176586.0 401417.0 0
179576.0 402444.0 0
185378.0 401159.0 0
188336.0 402252.0 0
191534.0 401700.0 0
194470.0 402656.0 0
197475.0 401737.0 0
200482.0 400546.0 0
206071.0 401567.0 0
209151.0 400087.0 0
211717.0 402146.0 0
214723.0 400438.0 0
220263.0 400555.0 0
225818.0 400527.0 0
231404.0 400493.0 0
237038.0 400528.0 0
242696.0 400649.0 0
248356.0 400844.0 0
254020.0 401069.0 0
256938.0 399200.0 0
259698.0 401329.0 0
262627.0 399498.0 0
265414.0 401615.0 0
268357.0 399820.0 0
274131.0 400148.0 0
279953.0 400470.0 0
285816.0 400820.0 0
291601.0 401317.0 0
294341.0 399754.0 0
297258.0 401605.0 0
303058.0 400429.0 0
308857.0 400616.0 0
312148.0 401501.0 0
315439.0 402368.0 0
318122.0 400796.0 0
321314.0 402577.0 0
324002.0 401063.0 0
327067.0 403024.0 0
329942.0 401728.0 0
332838.0 400627.0 0
336068.0 402664.0 0
338949.0 401615.0 0
155929.0 404820.0 0
161935.0 404207.0 0
167948.0 403979.0 0
170953.0 405508.0 0
173799.0 403620.0 0
176816.0 404758.0 0
182718.0 403380.0 0
185970.0 404378.0 0
189687.0 404839.0 0
192925.0 405263.0 0
196460.0 405182.0 0
199745.0 404076.0 0
202931.0 402881.0 0
208632.0 403712.0 0
214269.0 404200.0 0
217278.0 402422.0 0
219839.0 404372.0 0
222849.0 402470.0 0
225449.0 404405.0 0
228446.0 402456.0 0
231110.0 404405.0 0
234095.0 402469.0 0
236808.0 404480.0 0
239765.0 402566.0 0
245432.0 402738.0 0
251100.0 402954.0 0
256776.0 403187.0 0
262479.0 403442.0 0
268230.0 403703.0 0
271178.0 401909.0 0
274037.0 403956.0 0
276993.0 402195.0 0
279902.0 404196.0 0
282858.0 402479.0 0
285817.0 404458.0 0
288753.0 402858.0 0
294627.0 403370.0 0
300304.0 402720.0 0
303347.0 403617.0 0
306375.0 403032.0 0
309684.0 403915.0 0
312956.0 404696.0 0
318735.0 404149.0 0
324220.0 404473.0 0
330247.0 404904.0 0
333158.0 403726.0 0
339271.0 404715.0 0
342155.0 403620.0 0
152833.0 406755.0 0
155784.0 407957.0 0
158877.0 406059.0 0
161815.0 407444.0 0
164823.0 405721.0 0
167626.0 407217.0 0
174038.0 407087.0 0
177532.0 407910.0 0
180114.0 405631.0 0
183525.0 406503.0 0
187246.0 407138.0 0
190934.0 407805.0 0
198637.0 407436.0 0
202128.0 406343.0 0
205443.0 405107.0 0
208042.0 407308.0 0
211206.0 405847.0 0
216805.0 406238.0 0
222420.0 406315.0 0
228078.0 406335.0 0
233810.0 406384.0 0
239534.0 406529.0 0
242495.0 404636.0 0
245231.0 406729.0 0
248172.0 404842.0 0
250922.0 406950.0 0
253853.0 405064.0 0
259551.0 405296.0 0
265289.0 405527.0 0
271084.0 405751.0 0
276943.0 405955.0 0
282868.0 406148.0 0
288890.0 406389.0 0
291854.0 404877.0 0
295161.0 406884.0 0
297833.0 405083.0 0
301072.0 406180.0 0
304630.0 406479.0 0
307829.0 406565.0 0
311163.0 407281.0 0
316164.0 405466.0 0
314607.0 407921.0 0
318434.0 407863.0 0
321386.0 406185.0 0
324549.0 407784.0 0
327374.0 406310.0 0
330448.0 408148.0 0
333401.0 406888.0 0
336348.0 405780.0 0
339525.0 407857.0 0
342450.0 406758.0 0
345332.0 405608.0 0
348466.0 407569.0 0
146554.0 410679.0 0
149708.0 408708.0 0
152652.0 409887.0 0
158757.0 409239.0 0
161738.0 410712.0 0
164677.0 409131.0 0
167415.0 410700.0 0
170342.0 408604.0 0
172699.0 410098.0 0
175589.0 410502.0 0
180998.0 408729.0 0
184592.0 409379.0 0
188168.0 410020.0 0
191737.0 410613.0 0
194793.0 408165.0 0
201332.0 409650.0 0
204737.0 408563.0 0
210643.0 409542.0 0
213763.0 407988.0 0
219362.0 408194.0 0
225012.0 408273.0 0
230759.0 408277.0 0
236535.0 408406.0 0
242266.0 408609.0 0
247977.0 408834.0 0
253691.0 409054.0 0
256624.0 407169.0 0
259423.0 409256.0 0
262354.0 407381.0 0
265193.0 409433.0 0
268135.0 407576.0 0
271025.0 409580.0 0
273984.0 407751.0 0
279905.0 407897.0 0
285929.0 408043.0 0
289097.0 409877.0 0
292096.0 408262.0 0
298641.0 408577.0 0
302440.0 409236.0 0
306043.0 409597.0 0
309386.0 409973.0 0
312773.0 410518.0 0
321804.0 409544.0 0
327521.0 409708.0 0
333602.0 410081.0 0
336571.0 408940.0 0
342636.0 409949.0 0
345575.0 408793.0 0
351556.0 409503.0 0
143411.0 412646.0 0
149471.0 411840.0 0
152407.0 413019.0 0
155625.0 411106.0 0
158628.0 412409.0 0
164615.0 412713.0 0
170035.0 412251.0 0
173132.0 413323.0 0
178736.0 411202.0 0
182103.0 411802.0 0
185582.0 412371.0 0
189173.0 412972.0 0
194851.0 411323.0 0
197878.0 410530.0 0
200294.0 412953.0 0
203862.0 411966.0 0
207315.0 410836.0 0
213301.0 411803.0 0
216315.0 410097.0 0
218888.0 412020.0 0
221942.0 410157.0 0
224484.0 412144.0 0
227643.0 410173.0 0
230370.0 412093.0 0
233486.0 410262.0 0
236226.0 412306.0 0
239268.0 410472.0 0
245009.0 410710.0 0
250744.0 410939.0 0
256487.0 411144.0 0
262256.0 411314.0 0
268074.0 411442.0 0
273964.0 411526.0 0
276941.0 409693.0 0
279976.0 411567.0 0
282944.0 409772.0 0
286057.0 411582.0 0
292359.0 411673.0 0
295283.0 410266.0 0
298116.0 411800.0 0
301236.0 412130.0 0
304533.0 412460.0 0
307891.0 412880.0 0
316287.0 410700.0 0
319421.0 411103.0 0
324586.0 411223.0 0
327752.0 413106.0 0
330631.0 411384.0 0
333614.0 413342.0 0
336653.0 412170.0 0
339660.0 411062.0 0
342715.0 413191.0 0
345701.0 412028.0 0
348653.0 410800.0 0
351673.0 412780.0 0
354603.0 411411.0 0
357614.0 413296.0 0
140279.0 414605.0 0
143236.0 415841.0 0
146341.0 413842.0 0
149308.0 415027.0 0
155348.0 414227.0 0
158279.0 415480.0 0
161674.0 413914.0 0
167294.0 414386.0 0
170415.0 415639.0 0
176272.0 413838.0 0
179540.0 414394.0 0
182913.0 414876.0 0
186382.0 415342.0 0
192788.0 413835.0 0
196675.0 414007.0 0
203027.0 415300.0 0
206510.0 414282.0 0
209962.0 413120.0 0
216057.0 414081.0 0
221343.0 414026.0 0
227161.0 413924.0 0
233131.0 414101.0 0
238961.0 414398.0 0
242007.0 412568.0 0
244769.0 414674.0 0
247773.0 412816.0 0
250568.0 414916.0 0
253539.0 413034.0 0
259318.0 413210.0 0
265130.0 413332.0 0
271001.0 413400.0 0
276964.0 413397.0 0
283108.0 413373.0 0
289191.0 413332.0 0
292301.0 414873.0 0
295698.0 414101.0 0
299337.0 415004.0 0
302831.0 415392.0 0
311252.0 413288.0 0
314742.0 413572.0 0
318197.0 413906.0 0
321827.0 413486.0 0
325040.0 414397.0 0
330510.0 414709.0 0
336681.0 415417.0 0
339706.0 414309.0 0
345669.0 415326.0 0
348692.0 414084.0 0
354654.0 414727.0 0
360605.0 415168.0 0
134025.0 418518.0 0
137154.0 416561.0 0
140135.0 417827.0 0
146241.0 417052.0 0
149291.0 418264.0 0
152303.0 416239.0 0
155331.0 417486.0 0
161213.0 416788.0 0
164448.0 416486.0 0
167677.0 417838.0 0
173668.0 416547.0 0
176937.0 417079.0 0
180285.0 417535.0 0
183724.0 417916.0 0
187247.0 418330.0 0
189897.0 415944.0 0
193435.0 416814.0 0
196459.0 417218.0 0
199629.0 416225.0 0
205520.0 417716.0 0
209102.0 416615.0 0
212636.0 415427.0 0
218772.0 416530.0 0
223877.0 416002.0 0
226708.0 417502.0 0
229969.0 415841.0 0
235859.0 416188.0 0
241720.0 416505.0 0
247564.0 416781.0 0
253399.0 417002.0 0
256369.0 415109.0 0
259241.0 417154.0 0
262190.0 415240.0 0
265109.0 417227.0 0
268049.0 415302.0 0
271010.0 417217.0 0
273980.0 415289.0 0
277019.0 417088.0 0
280032.0 415177.0 0
283156.0 416875.0 0
286343.0 415158.0 0
289736.0 416933.0 0
294258.0 417353.0 0
297578.0 417622.0 0
306247.0 415772.0 0
309664.0 416164.0 0
313129.0 416447.0 0
316621.0 416704.0 0
320250.0 416645.0 0
323626.0 416954.0 0
327412.0 416870.0 0
330542.0 417737.0 0
333641.0 416554.0 0
336356.0 418763.0 0
339516.0 417642.0 0
342611.0 416505.0 0
348595.0 417408.0 0
351647.0 416100.0 0
354583.0 418077.0 0
357614.0 416637.0 0
360574.0 418518.0 0
363592.0 417036.0 0
130883.0 420483.0 0
137030.0 419801.0 0
140089.0 421071.0 0
143170.0 419067.0 0
146256.0 420288.0 0
152392.0 419505.0 0
155579.0 420744.0 0
158439.0 418750.0 0
161935.0 419585.0 0
165095.0 420092.0 0
170983.0 418992.0 0
174320.0 419800.0 0
177682.0 420279.0 0
181114.0 420627.0 0
190898.0 418925.0 0
194636.0 420186.0 0
198449.0 419712.0 0
201966.0 418735.0 0
208040.0 420047.0 0
211698.0 418955.0 0
215296.0 417794.0 0
217962.0 420258.0 0
221584.0 418867.0 0
229403.0 419562.0 0
232686.0 417922.0 0
235437.0 420034.0 0
238614.0 418297.0 0
244515.0 418617.0 0
250397.0 418878.0 0
256271.0 419063.0 0
262160.0 419159.0 0
268076.0 419162.0 0
274006.0 419046.0 0
280136.0 418789.0 0
286266.0 418533.0 0
289128.0 420073.0 0
292399.0 419922.0 0
295930.0 420594.0 0
301085.0 418242.0 0
304546.0 418676.0 0
307988.0 419060.0 0
311461.0 419366.0 0
314962.0 419589.0 0
318537.0 419646.0 0
322040.0 419819.0 0
325681.0 419794.0 0
329253.0 420425.0 0
333034.0 419864.0 0
339227.0 420974.0 0
342379.0 419851.0 0
345501.0 418663.0 0
348383.0 420757.0 0
351509.0 419451.0 0
357520.0 420005.0 0
363558.0 420383.0 0
366594.0 418914.0 0
369613.0 420801.0 0
127726.0 422459.0 0
130770.0 423743.0 0
133911.0 421767.0 0
136993.0 423058.0 0
143198.0 422313.0 0
146363.0 423530.0 0
149397.0 421510.0 0
152611.0 422744.0 0
158980.0 421804.0 0
162338.0 422725.0 0
165643.0 423557.0 0
168373.0 421319.0 0
171744.0 422398.0 0
175179.0 423064.0 0
178696.0 423421.0 0
184572.0 420930.0 0
188057.0 421269.0 0
191499.0 421814.0 0
197079.0 422862.0 0
200755.0 422163.0 0
204372.0 421148.0 0
210569.0 422407.0 0
214267.0 421371.0 0
222750.0 422220.0 0
225839.0 420839.0 0
232162.0 421685.0 0
238233.0 422159.0 0
241409.0 420413.0 0
244250.0 422531.0 0
247351.0 420725.0 0
250233.0 422820.0 0
253272.0 420955.0 0
259191.0 421087.0 0
265134.0 421113.0 0
271081.0 421055.0 0
277031.0 420754.0 0
280073.0 422325.0 0
283348.0 420440.0 0
286663.0 422238.0 0
290579.0 422972.0 0
294092.0 423337.0 0
299345.0 421039.0 0
302808.0 421563.0 0
306268.0 421981.0 0
309742.0 422307.0 0
313239.0 422544.0 0
316761.0 422656.0 0
320226.0 422781.0 0
323672.0 422860.0 0
326880.0 423049.0 0
329898.0 423681.0 0
332823.0 422884.0 0
336035.0 422014.0 0
342024.0 423229.0 0
345215.0 422033.0 0
351278.0 422814.0 0
354427.0 421450.0 0
360480.0 421877.0 0
363472.0 423739.0 0
366564.0 422264.0 0
372646.0 422697.0 0
121382.0 426429.0 0
124557.0 424442.0 0
127613.0 425741.0 0
133877.0 425026.0 0
137034.0 426332.0 0
140124.0 424332.0 0
143304.0 425569.0 0
149593.0 424741.0 0
152892.0 425954.0 0
155931.0 423891.0 0
159247.0 424941.0 0
162517.0 425926.0 0
169082.0 424770.0 0
172721.0 425784.0 0
182211.0 423704.0 0
185753.0 423932.0 0
189361.0 424260.0 0
193746.0 423727.0 0
195565.0 426313.0 0
199245.0 425490.0 0
203068.0 424563.0 0
206847.0 423430.0 0
212929.0 424961.0 0
216394.0 424119.0 0
219660.0 423339.0 0
225433.0 424664.0 0
228731.0 423148.0 0
231604.0 425379.0 0
234972.0 423831.0 0
241079.0 424285.0 0
247138.0 424643.0 0
253164.0 424892.0 0
256196.0 423002.0 0
259170.0 425007.0 0
262165.0 423064.0 0
265204.0 424978.0 0
268169.0 423017.0 0
271244.0 424929.0 0
274102.0 422850.0 0
277142.0 424494.0 0
283087.0 423777.0 0
285853.0 425310.0 0
288972.0 425637.0 0
297600.0 423936.0 0
301046.0 424441.0 0
304507.0 424911.0 0
307990.0 425269.0 0
311504.0 425525.0 0
315049.0 425679.0 0
318588.0 425796.0 0
322126.0 425907.0 0
325624.0 426115.0 0
332371.0 426254.0 0
335557.0 425339.0 0
338802.0 424333.0 0
344811.0 425432.0 0
348070.0 424116.0 0
354198.0 424833.0 0
357359.0 423392.0 0
360324.0 425232.0 0
366487.0 425627.0 0
369585.0 424162.0 0
372630.0 426056.0 0
375700.0 424606.0 0
378777.0 426530.0 0
118212.0 428414.0 0
124447.0 427759.0 0
127579.0 429031.0 0
130736.0 427010.0 0
133920.0 428291.0 0
140230.0 427611.0 0
143469.0 428832.0 0
146540.0 426768.0 0
149841.0 427958.0 0
156201.0 427100.0 0
159505.0 428172.0 0
165675.0 426838.0 0
168614.0 427970.0 0
176414.0 426217.0 0
180018.0 426528.0 0
183637.0 426711.0 0
187331.0 426797.0 0
191599.0 426393.0 0
197591.0 428880.0 0
201598.0 427822.0 0
205610.0 426734.0 0
209322.0 425840.0 0
215291.0 427721.0 0
218771.0 426985.0 0
222160.0 426008.0 0
228215.0 426865.0 0
234507.0 427586.0 0
237832.0 425980.0 0
240736.0 428120.0 0
243975.0 426412.0 0
250081.0 426738.0 0
256148.0 426928.0 0
262200.0 426952.0 0
268328.0 426834.0 0
274318.0 426716.0 0
280223.0 425991.0 0
283341.0 427449.0 0
286848.0 428492.0 0
292398.0 426224.0 0
295826.0 426766.0 0
299272.0 427354.0 0
302713.0 427855.0 0
306187.0 428254.0 0
309707.0 428524.0 0
328950.0 426625.0 0
334821.0 428762.0 0
338191.0 427727.0 0
341525.0 426633.0 0
344300.0 428848.0 0
347681.0 427456.0 0
350981.0 426173.0 0
353939.0 428230.0 0
357134.0 426800.0 0
360134.0 428573.0 0
363342.0 427088.0 0
366400.0 428992.0 0
369530.0 427535.0 0
375700.0 427964.0 0
381876.0 428466.0 0
115055.0 430391.0 0
121283.0 429793.0 0
124418.0 431090.0 0
130777.0 430278.0 0
134034.0 431559.0 0
137146.0 429627.0 0
140392.0 430912.0 0
146762.0 430000.0 0
150112.0 431179.0 0
153176.0 429210.0 0
156505.0 430372.0 0
159843.0 431475.0 0
162769.0 429293.0 0
165900.0 430384.0 0
169122.0 431436.0 0
171543.0 428905.0 0
174689.0 429142.0 0
178077.0 429448.0 0
181643.0 429577.0 0
185375.0 429554.0 0
189326.0 429196.0 0
193245.0 429032.0 0
200164.0 430897.0 0
204264.0 429920.0 0
208045.0 429203.0 0
211714.0 428457.0 0
217743.0 430547.0 0
221322.0 429733.0 0
224774.0 428520.0 0
227695.0 430468.0 0
231141.0 429093.0 0
237423.0 429774.0 0
243694.0 430259.0 0
246926.0 428530.0 0
249938.0 430624.0 0
253081.0 428809.0 0
259184.0 428919.0 0
265302.0 428805.0 0
268531.0 430535.0 0
271506.0 428844.0 0
274646.0 430626.0 0
277446.0 428274.0 0
280774.0 429646.0 0
284340.0 430793.0 0
290325.0 428964.0 0
293848.0 429557.0 0
297378.0 430215.0 0
300852.0 430810.0 0
304323.0 431267.0 0
313266.0 428697.0 0
316841.0 428811.0 0
320425.0 428907.0 0
324014.0 429051.0 0
327594.0 429428.0 0
331286.0 429411.0 0
333735.0 432027.0 0
337428.0 431109.0 0
340910.0 430038.0 0
347254.0 430720.0 0
350665.0 429503.0 0
356913.0 430250.0 0
359972.0 431879.0 0
363218.0 430423.0 0
369461.0 430930.0 0
372593.0 429423.0 0
375666.0 431337.0 0
378785.0 429887.0 0
381903.0 431792.0 0
385015.0 430427.0 0
108809.0 434305.0 0
111919.0 432356.0 0
115012.0 433877.0 0
118134.0 431835.0 0
121269.0 433182.0 0
127618.0 432326.0 0
130884.0 433541.0 0
137320.0 432959.0 0
143671.0 432108.0 0
147001.0 433230.0 0
153491.0 432519.0 0
156836.0 433687.0 0
163166.0 432820.0 0
166455.0 433885.0 0
172619.0 432235.0 0
176021.0 432503.0 0
179584.0 432569.0 0
183301.0 432463.0 0
187167.0 432167.0 0
191042.0 431860.0 0
195107.0 431552.0 0
199283.0 433919.0 0
202956.0 433104.0 0
206691.0 432480.0 0
210416.0 431851.0 0
214095.0 431201.0 0
223938.0 432411.0 0
230708.0 432794.0 0
234073.0 431356.0 0
240379.0 431919.0 0
246717.0 432385.0 0
253016.0 432697.0 0
256147.0 430840.0 0
259285.0 432840.0 0
262263.0 430834.0 0
265378.0 432590.0 0
272047.0 433270.0 0
278158.0 431902.0 0
281820.0 433066.0 0
288006.0 431652.0 0
291598.0 432236.0 0
295211.0 432862.0 0
298882.0 433700.0 0
307856.0 431554.0 0
311433.0 431732.0 0
315031.0 431843.0 0
318638.0 431923.0 0
322259.0 432003.0 0
325920.0 432168.0 0
329811.0 432328.0 0
336504.0 434324.0 0
340244.0 433408.0 0
343742.0 432286.0 0
346852.0 433845.0 0
350358.0 432768.0 0
353698.0 431637.0 0
359843.0 435091.0 0
363138.0 433746.0 0
366319.0 432378.0 0
372515.0 432809.0 0
378752.0 433260.0 0
385077.0 433736.0 0
388198.0 432417.0 0
391416.0 434430.0 0
105716.0 436239.0 0
111931.0 435905.0 0
118147.0 435294.0 0
121331.0 436598.0 0
124464.0 434437.0 0
127724.0 435624.0 0
131050.0 436792.0 0
134210.0 434821.0 0
137544.0 436360.0 0
140593.0 434251.0 0
143891.0 435401.0 0
147266.0 436443.0 0
150399.0 434383.0 0
153811.0 435914.0 0
160221.0 434769.0 0
163704.0 436427.0 0
170020.0 434641.0 0
173781.0 435584.0 0
177448.0 435665.0 0
181177.0 435516.0 0
184971.0 435222.0 0
188762.0 434897.0 0
192495.0 434570.0 0
195976.0 434484.0 0
201600.0 436450.0 0
205261.0 435772.0 0
208977.0 435184.0 0
212704.0 434599.0 0
216447.0 433999.0 0
220227.0 433371.0 0
227289.0 433841.0 0
233523.0 435166.0 0
236982.0 433566.0 0
240033.0 435659.0 0
243423.0 434067.0 0
249801.0 434474.0 0
256172.0 434708.0 0
262502.0 434773.0 0
268588.0 433945.0 0
275625.0 434316.0 0
279341.0 435354.0 0
285534.0 434063.0 0
289204.0 434877.0 0
292807.0 435494.0 0
296499.0 436078.0 0
302381.0 434298.0 0
305948.0 434615.0 0
309563.0 434792.0 0
313192.0 434902.0 0
316822.0 434971.0 0
320453.0 435018.0 0
324104.0 435063.0 0
327875.0 435024.0 0
332104.0 434956.0 0
339687.0 436660.0 0
343230.0 435802.0 0
350027.0 435958.0 0
353455.0 435031.0 0
356710.0 433774.0 0
363095.0 437045.0 0
366253.0 435816.0 0
369364.0 434385.0 0
372367.0 436216.0 0
375579.0 434728.0 0
378677.0 436653.0 0
381892.0 435107.0 0
385102.0 437028.0 0
388295.0 435738.0 0
394646.0 436453.0 0
102584.0 438195.0 0
105809.0 439783.0 0
108885.0 437903.0 0
115070.0 437418.0 0
118246.0 438798.0 0
124573.0 437796.0 0
127870.0 438919.0 0
134447.0 438054.0 0
140800.0 437645.0 0
144112.0 438694.0 0
150739.0 437533.0 0
157080.0 437024.0 0
160520.0 437863.0 0
167241.0 437199.0 0
170904.0 437671.0 0
175386.0 438824.0 0
179122.0 438676.0 0
182888.0 438366.0 0
186679.0 438005.0 0
190444.0 437690.0 0
194146.0 437503.0 0
197910.0 437181.0 0
207425.0 438523.0 0
211140.0 437968.0 0
214876.0 437419.0 0
218625.0 436874.0 0
222374.0 436413.0 0
226012.0 436821.0 0
229957.0 436543.0 0
236534.0 437319.0 0
243194.0 437839.0 0
246525.0 436217.0 0
249667.0 438298.0 0
252937.0 436552.0 0
256146.0 438491.0 0
259435.0 436715.0 0
265865.0 436461.0 0
269696.0 437053.0 0
273301.0 437040.0 0
276995.0 437818.0 0
283112.0 436425.0 0
286779.0 437406.0 0
290318.0 438210.0 0
293901.0 438708.0 0
300359.0 437313.0 0
304000.0 437703.0 0
307678.0 437876.0 0
311354.0 437985.0 0
315018.0 438052.0 0
318669.0 438089.0 0
322312.0 438099.0 0
325975.0 438025.0 0
329652.0 437833.0 0
333109.0 437966.0 0
336327.0 437478.0 0
346565.0 436803.0 0
352860.0 438368.0 0
356412.0 437409.0 0
359819.0 438082.0 0
365980.0 439350.0 0
369155.0 437971.0 0
372174.0 439576.0 0
375461.0 438124.0 0
381849.0 438395.0 0
388331.0 439058.0 0
391525.0 437794.0 0
397862.0 438468.0 0
96114.6 442236.0 0
99381.5 440195.0 0
102623.0 441678.0 0
109026.0 441571.0 0
112038.0 439525.0 0
115213.0 441016.0 0
121483.0 440042.0 0
124776.0 441178.0 0
131214.0 440012.0 0
134614.0 441166.0 0
137826.0 439902.0 0
141188.0 441091.0 0
144685.0 442023.0 0
147466.0 439608.0 0
150806.0 440484.0 0
154161.0 439518.0 0
157730.0 440297.0 0
161381.0 440729.0 0
164796.0 440010.0 0
168491.0 440407.0 0
172248.0 440491.0 0
184720.0 441157.0 0
188515.0 440791.0 0
192306.0 440511.0 0
196148.0 440195.0 0
200002.0 439717.0 0
203732.0 439114.0 0
213169.0 440838.0 0
216869.0 440353.0 0
220547.0 439934.0 0
224186.0 439848.0 0
228111.0 439754.0 0
232947.0 438942.0 0
236331.0 441015.0 0
239780.0 439295.0 0
246328.0 440061.0 0
252859.0 440426.0 0
259416.0 440489.0 0
262837.0 438664.0 0
267413.0 439892.0 0
271308.0 440245.0 0
274933.0 440589.0 0
278588.0 441228.0 0
280756.0 438718.0 0
284491.0 439881.0 0
287919.0 440968.0 0
291559.0 441521.0 0
297487.0 439139.0 0
302182.0 440875.0 0
305864.0 440997.0 0
309558.0 441093.0 0
313246.0 441160.0 0
316921.0 441195.0 0
320586.0 441198.0 0
324248.0 441139.0 0
327893.0 441006.0 0
331463.0 440982.0 0
335125.0 440784.0 0
338680.0 440102.0 0
342184.0 439359.0 0
345593.0 439622.0 0
349284.0 439165.0 0
355377.0 440952.0 0
358843.0 440913.0 0
362566.0 440379.0 0
368847.0 441686.0 0
375460.0 441499.0 0
378608.0 440094.0 0
381735.0 441650.0 0
385069.0 440306.0 0
391550.0 441176.0 0
394737.0 439890.0 0
397892.0 441996.0 0
401040.0 440463.0 0
92819.0 444299.0 0
99338.4 443659.0 0
102610.0 445114.0 0
105915.0 443297.0 0
112202.0 443216.0 0
118463.0 442336.0 0
121789.0 443515.0 0
125183.0 444592.0 0
128109.0 442235.0 0
131472.0 443239.0 0
134929.0 444102.0 0
138386.0 443560.0 0
142024.0 444474.0 0
148239.0 442857.0 0
152034.0 443186.0 0
155469.0 443011.0 0
159149.0 443465.0 0
162950.0 443511.0 0
166460.0 443365.0 0
170159.0 443505.0 0
173872.0 443273.0 0
177205.0 441949.0 0
180922.0 441609.0 0
186670.0 443929.0 0
190474.0 443559.0 0
194331.0 443206.0 0
198209.0 442819.0 0
202030.0 442382.0 0
205765.0 441870.0 0
209468.0 441344.0 0
215049.0 443819.0 0
218696.0 443427.0 0
222315.0 443182.0 0
225995.0 443001.0 0
229658.0 442893.0 0
233179.0 442662.0 0
239543.0 442827.0 0
242978.0 441616.0 0
249504.0 442070.0 0
256168.0 442222.0 0
262472.0 442437.0 0
265945.0 443066.0 0
269539.0 443276.0 0
273196.0 443643.0 0
282258.0 442082.0 0
285511.0 443770.0 0
295204.0 441908.0 0
298906.0 441924.0 0
304208.0 444221.0 0
307854.0 444252.0 0
329885.0 444083.0 0
333572.0 443875.0 0
337298.0 443454.0 0
340886.0 442843.0 0
344359.0 442597.0 0
348069.0 442269.0 0
351774.0 441686.0 0
357803.0 443969.0 0
361538.0 443486.0 0
365298.0 442773.0 0
372185.0 442683.0 0
378461.0 443714.0 0
381735.0 444739.0 0
385042.0 443549.0 0
388314.0 442382.0 0
391407.0 444607.0 0
394678.0 443371.0 0
400996.0 444097.0 0
404178.0 442435.0 0
89518.1 446367.0 0
96040.9 445732.0 0
99302.9 447130.0 0
105932.0 446697.0 0
109183.0 445339.0 0
112469.0 446939.0 0
115467.0 444643.0 0
118839.0 445880.0 0
122300.0 446985.0 0
128647.0 445589.0 0
132224.0 446462.0 0
136008.0 446931.0 0
139539.0 447063.0 0
145726.0 445296.0 0
149553.0 445862.0 0
153327.0 446177.0 0
156954.0 446296.0 0
160730.0 446508.0 0
164470.0 446599.0 0
168150.0 446589.0 0
171899.0 446574.0 0
175544.0 446105.0 0
179065.0 444995.0 0
182883.0 444376.0 0
188696.0 446692.0 0
192520.0 446259.0 0
196370.0 445897.0 0
200194.0 445549.0 0
203971.0 445162.0 0
207692.0 444718.0 0
211378.0 444258.0 0
224109.0 446378.0 0
227772.0 446224.0 0
231456.0 446078.0 0
235142.0 445776.0 0
238702.0 446051.0 0
242458.0 445428.0 0
246036.0 443983.0 0
249436.0 445641.0 0
252961.0 444359.0 0
256572.0 445767.0 0
260242.0 445372.0 0
263985.0 446072.0 0
267788.0 446427.0 0
276811.0 444039.0 0
280490.0 444565.0 0
289306.0 444341.0 0
293105.0 444754.0 0
296933.0 444918.0 0
300734.0 444654.0 0
311533.0 444300.0 0
315219.0 444332.0 0
318902.0 444333.0 0
322582.0 444286.0 0
326250.0 444179.0 0
332043.0 447021.0 0
335785.0 446664.0 0
339503.0 446204.0 0
343122.0 445801.0 0
346795.0 445390.0 0
350529.0 444909.0 0
354217.0 444333.0 0
360398.0 446651.0 0
364164.0 446046.0 0
367908.0 445335.0 0
371427.0 445593.0 0
375090.0 444910.0 0
377753.0 447387.0 0
381209.0 447668.0 0
384741.0 446852.0 0
388098.0 445763.0 0
394414.0 446886.0 0
397748.0 445576.0 0
404046.0 446190.0 0
407264.0 444381.0 0
410306.0 446271.0 0
82923.7 450500.0 0
86220.0 448434.0 0
89512.7 449975.0 0
92770.3 447847.0 0
96072.2 449268.0 0
102597.0 448534.0 0
105980.0 449926.0 0
109485.0 449220.0 0
115894.0 448259.0 0
119420.0 449401.0 0
125848.0 447986.0 0
129504.0 448866.0 0
133296.0 449532.0 0
143240.0 447791.0 0
147067.0 448446.0 0
150905.0 448952.0 0
154699.0 449286.0 0
158457.0 449461.0 0
162247.0 449635.0 0
166046.0 449723.0 0
169877.0 449749.0 0
173800.0 449644.0 0
177527.0 448767.0 0
181294.0 447673.0 0
184974.0 447168.0 0
194533.0 448999.0 0
198318.0 448697.0 0
202084.0 448393.0 0
205818.0 448048.0 0
209515.0 447661.0 0
213183.0 447264.0 0
216830.0 446897.0 0
220460.0 446605.0 0
240687.0 448997.0 0
244322.0 448705.0 0
247888.0 448854.0 0
251636.0 448688.0 0
255197.0 449026.0 0
258885.0 448941.0 0
271505.0 446697.0 0
275219.0 447031.0 0
278963.0 447313.0 0
283380.0 446885.0 0
287197.0 447213.0 0
291058.0 447609.0 0
294947.0 447852.0 0
298831.0 447851.0 0
302582.0 447680.0 0
306193.0 447492.0 0
309862.0 447487.0 0
313553.0 447500.0 0
317251.0 447497.0 0
320952.0 447457.0 0
324649.0 447364.0 0
328332.0 447239.0 0
338045.0 449460.0 0
341785.0 449033.0 0
345515.0 448588.0 0
349253.0 448115.0 0
352987.0 447611.0 0
356675.0 447159.0 0
362932.0 449335.0 0
366638.0 448762.0 0
370231.0 448553.0 0
374039.0 448141.0 0
383896.0 450082.0 0
387525.0 449170.0 0
391008.0 448074.0 0
397382.0 449178.0 0
400771.0 447792.0 0
407017.0 448262.0 0
410144.0 449903.0 0
413466.0 448237.0 0
416720.0 450272.0 0
79625.1 452566.0 0
86254.1 452101.0 0
92866.2 451436.0 0
96284.4 452839.0 0
99419.5 450647.0 0
102849.0 451978.0 0
106449.0 453101.0 0
112959.0 450658.0 0
116545.0 451849.0 0
123036.0 450415.0 0
126752.0 451306.0 0
130558.0 452051.0 0
137064.0 450016.0 0
140749.0 450409.0 0
144556.0 451014.0 0
148429.0 451627.0 0
152277.0 452112.0 0
174739.0 453151.0 0
180037.0 450940.0 0
183578.0 450610.0 0
187027.0 449995.0 0
190745.0 449382.0 0
196409.0 451857.0 0
200144.0 451606.0 0
203871.0 451334.0 0
207578.0 451022.0 0
211261.0 450682.0 0
214923.0 450343.0 0
218572.0 450040.0 0
222225.0 449787.0 0
225889.0 449591.0 0
229573.0 449429.0 0
233269.0 449241.0 0
236894.0 449200.0 0
262492.0 449303.0 0
266146.0 449540.0 0
269864.0 449796.0 0
273615.0 450056.0 0
277445.0 450269.0 0
281431.0 450097.0 0
285268.0 450256.0 0
289111.0 450537.0 0
292999.0 450793.0 0
296902.0 450913.0 0
300750.0 450903.0 0
304506.0 450810.0 0
308196.0 450721.0 0
311901.0 450702.0 0
315617.0 450687.0 0
319340.0 450647.0 0
323065.0 450564.0 0
326788.0 450433.0 0
330524.0 450213.0 0
334282.0 449880.0 0
344181.0 451799.0 0
347957.0 451337.0 0
351717.0 450858.0 0
355456.0 450390.0 0
359195.0 449888.0 0
365424.0 452126.0 0
369088.0 451755.0 0
372808.0 451329.0 0
376542.0 450803.0 0
380113.0 450587.0 0
386639.0 452482.0 0
390324.0 451517.0 0
393895.0 450406.0 0
400331.0 451495.0 0
403758.0 450040.0 0
410107.0 453344.0 0
413444.0 451820.0 0
419942.0 452296.0 0
76318.4 454638.0 0
82991.0 454226.0 0
89653.0 453612.0 0
93129.7 455043.0 0
99794.3 454170.0 0
103443.0 455384.0 0
110095.0 453131.0 0
113705.0 454357.0 0
120220.0 452879.0 0
123990.0 453781.0 0
127821.0 454570.0 0
134386.0 452668.0 0
138198.0 453179.0 0
142001.0 453646.0 0
145871.0 454206.0 0
149793.0 454865.0 0
156105.0 452434.0 0
159902.0 452640.0 0
163695.0 452794.0 0
167458.0 452885.0 0
171135.0 453010.0 0
178184.0 453730.0 0
181955.0 453929.0 0
185633.0 453718.0 0
188996.0 452624.0 0
192680.0 452144.0 0
205572.0 454346.0 0
209275.0 454062.0 0
212962.0 453760.0 0
216636.0 453467.0 0
220308.0 453203.0 0
223985.0 452982.0 0
227675.0 452799.0 0
231375.0 452633.0 0
235059.0 452526.0 0
238784.0 452373.0 0
242484.0 452216.0 0
246101.0 452162.0 0
249796.0 452124.0 0
253412.0 452231.0 0
257121.0 452323.0 0
260751.0 452479.0 0
264448.0 452716.0 0
268169.0 452923.0 0
271930.0 453137.0 0
275747.0 453309.0 0
279643.0 453321.0 0
283457.0 453397.0 0
287275.0 453582.0 0
291128.0 453793.0 0
295013.0 453953.0 0
298890.0 454028.0 0
302722.0 454026.0 0
306498.0 453978.0 0
310239.0 453929.0 0
313982.0 453899.0 0
317730.0 453856.0 0
321483.0 453779.0 0
325240.0 453652.0 0
329005.0 453446.0 0
332780.0 453126.0 0
336573.0 452709.0 0
340385.0 452245.0 0
346632.0 454559.0 0
350425.0 454103.0 0
354197.0 453640.0 0
357958.0 453155.0 0
361705.0 452642.0 0
367928.0 455035.0 0
371658.0 454594.0 0
375390.0 454115.0 0
379086.0 453741.0 0
382844.0 453217.0 0
389415.0 454897.0 0
393143.0 453894.0 0
396781.0 452762.0 0
403237.0 453888.0 0
406682.0 452338.0 0
413232.0 455437.0 0
416617.0 453956.0 0
423128.0 454299.0 0
73002.7 456714.0 0
79719.1 456343.0 0
83179.5 457980.0 0
86424.5 455795.0 0
89934.0 457263.0 0
96700.4 456401.0 0
100396.0 457648.0 0
107209.0 456345.0 0
110914.0 456964.0 0
117421.0 455398.0 0
121242.0 456294.0 0
125103.0 457110.0 0
131680.0 455253.0 0
135542.0 455843.0 0
139395.0 456358.0 0
143248.0 456845.0 0
147135.0 457386.0 0
153666.0 455320.0 0
157512.0 455637.0 0
161325.0 455854.0 0
165110.0 456022.0 0
168857.0 456161.0 0
172551.0 456328.0 0
176151.0 456699.0 0
183735.0 457037.0 0
187480.0 457008.0 0
190667.0 455316.0 0
194396.0 455020.0 0
198125.0 454809.0 0
201853.0 454594.0 0
214649.0 456875.0 0
218348.0 456613.0 0
222047.0 456380.0 0
225752.0 456181.0 0
229464.0 456011.0 0
233173.0 455880.0 0
236894.0 455750.0 0
240603.0 455627.0 0
244281.0 455554.0 0
247960.0 455505.0 0
251625.0 455549.0 0
255312.0 455619.0 0
259001.0 455750.0 0
262698.0 455908.0 0
266434.0 456093.0 0
270198.0 456269.0 0
274003.0 456420.0 0
277851.0 456499.0 0
281677.0 456584.0 0
285488.0 456709.0 0
289318.0 456872.0 0
316100.0 457080.0 0
319883.0 457008.0 0
323672.0 456891.0 0
327470.0 456703.0 0
331276.0 456415.0 0
335086.0 455989.0 0
338963.0 455452.0 0
342812.0 455000.0 0
352909.0 456902.0 0
356693.0 456438.0 0
360463.0 455952.0 0
364210.0 455465.0 0
374258.0 457426.0 0
378009.0 456974.0 0
381796.0 456437.0 0
385609.0 455746.0 0
392205.0 457345.0 0
395958.0 456317.0 0
399640.0 455170.0 0
406021.0 456457.0 0
409664.0 456664.0 0
416256.0 457690.0 0
419727.0 456103.0 0
422827.0 458204.0 0
426304.0 456291.0 0
66319.6 460898.0 0
69670.2 458801.0 0
73132.2 460568.0 0
76438.6 458458.0 0
79928.4 460151.0 0
86695.9 459509.0 0
93535.9 458642.0 0
97262.9 459924.0 0
101115.0 461097.0 0
104211.0 458783.0 0
108099.0 459737.0 0
114660.0 458001.0 0
118537.0 458859.0 0
122426.0 459686.0 0
128985.0 457836.0 0
132871.0 458480.0 0
136751.0 459049.0 0
140620.0 459559.0 0
151205.0 458162.0 0
155083.0 458585.0 0
158930.0 458894.0 0
162741.0 459125.0 0
166518.0 459316.0 0
170258.0 459498.0 0
179915.0 456966.0 0
192192.0 458113.0 0
195986.0 457974.0 0
199748.0 457822.0 0
203494.0 457635.0 0
207228.0 457406.0 0
210945.0 457146.0 0
223799.0 459564.0 0
227529.0 459387.0 0
231258.0 459243.0 0
234988.0 459120.0 0
238711.0 459013.0 0
242417.0 458936.0 0
246116.0 458887.0 0
249805.0 458890.0 0
253503.0 458937.0 0
257208.0 459027.0 0
260927.0 459151.0 0
264667.0 459293.0 0
268435.0 459443.0 0
272233.0 459578.0 0
293178.0 457023.0 0
297051.0 457132.0 0
300912.0 457186.0 0
304743.0 457189.0 0
308541.0 457163.0 0
312321.0 457125.0 0
329734.0 459723.0 0
333591.0 459343.0 0
337558.0 458648.0 0
341443.0 458194.0 0
345289.0 457774.0 0
349110.0 457346.0 0
355401.0 459730.0 0
359194.0 459267.0 0
362972.0 458798.0 0
366734.0 458347.0 0
370496.0 457895.0 0
376890.0 460269.0 0
380703.0 459719.0 0
384540.0 459052.0 0
388386.0 458253.0 0
394991.0 459848.0 0
398754.0 458816.0 0
402438.0 457687.0 0
408916.0 460024.0 0
412639.0 459009.0 0
419273.0 459972.0 0
428827.0 459070.0 0
432415.0 460107.0 0
62954.9 463004.0 0
69801.7 462688.0 0
76648.8 462298.0 0
83468.0 461771.0 0
87059.6 463259.0 0
90269.7 460914.0 0
93880.4 462218.0 0
97468.7 463461.0 0
105131.0 462214.0 0
109028.0 463256.0 0
111916.0 460692.0 0
115935.0 461509.0 0
119815.0 462319.0 0
126325.0 460442.0 0
130223.0 461127.0 0
134116.0 461742.0 0
137998.0 462291.0 0
144486.0 460045.0 0
148374.0 460543.0 0
152669.0 461517.0 0
156534.0 461909.0 0
160375.0 462209.0 0
164188.0 462450.0 0
173968.0 459754.0 0
177762.0 460005.0 0
181610.0 460164.0 0
185452.0 460246.0 0
189274.0 460321.0 0
193687.0 461021.0 0
197538.0 460988.0 0
201342.0 460879.0 0
205121.0 460712.0 0
208878.0 460501.0 0
212617.0 460260.0 0
216345.0 460011.0 0
220071.0 459774.0 0
276058.0 459679.0 0
279885.0 459773.0 0
283705.0 459881.0 0
287531.0 460008.0 0
291376.0 460139.0 0
295238.0 460252.0 0
299106.0 460331.0 0
302964.0 460371.0 0
306804.0 460375.0 0
310626.0 460354.0 0
314438.0 460312.0 0
318251.0 460247.0 0
322069.0 460143.0 0
325895.0 459978.0 0
336265.0 461819.0 0
340118.0 461387.0 0
343955.0 460993.0 0
347781.0 460592.0 0
351596.0 460173.0 0
357891.0 462589.0 0
361697.0 462133.0 0
365494.0 461678.0 0
369292.0 461219.0 0
373093.0 460750.0 0
383420.0 462406.0 0
387300.0 461626.0 0
391164.0 460780.0 0
397761.0 462427.0 0
401527.0 461423.0 0
405205.0 460347.0 0
411806.0 462573.0 0
415575.0 461398.0 0
421989.0 462553.0 0
425432.0 460889.0 0
428538.0 463048.0 0
432221.0 464022.0 0
435676.0 462147.0 0
438981.0 464215.0 0
59577.0 465119.0 0
66455.5 464823.0 0
73330.8 464443.0 0
76908.7 466155.0 0
80219.9 463990.0 0
83849.8 465604.0 0
90708.7 464605.0 0
94371.2 465873.0 0
101001.0 464627.0 0
104445.0 465709.0 0
107851.0 466663.0 0
113423.0 464243.0 0
117298.0 465025.0 0
123718.0 463089.0 0
127619.0 463804.0 0
131513.0 464456.0 0
135402.0 465042.0 0
141870.0 462788.0 0
145741.0 463250.0 0
149631.0 463681.0 0
154168.0 464926.0 0
158024.0 465283.0 0
167980.0 462659.0 0
171757.0 462873.0 0
175567.0 463075.0 0
179423.0 463256.0 0
183297.0 463388.0 0
187171.0 463492.0 0
191051.0 463617.0 0
195218.0 464032.0 0
199111.0 464052.0 0
202958.0 463966.0 0
206769.0 463819.0 0
210548.0 463622.0 0
214307.0 463394.0 0
218060.0 463160.0 0
221814.0 462943.0 0
225568.0 462758.0 0
229318.0 462607.0 0
233064.0 462485.0 0
236801.0 462386.0 0
240528.0 462311.0 0
244247.0 462261.0 0
247959.0 462246.0 0
251672.0 462267.0 0
255393.0 462327.0 0
259125.0 462418.0 0
262875.0 462531.0 0
266646.0 462652.0 0
270441.0 462772.0 0
274258.0 462875.0 0
278082.0 462971.0 0
281909.0 463072.0 0
285741.0 463182.0 0
289583.0 463295.0 0
293440.0 463400.0 0
297307.0 463486.0 0
301178.0 463545.0 0
305042.0 463574.0 0
308896.0 463574.0 0
312741.0 463548.0 0
316581.0 463495.0 0
320422.0 463408.0 0
324267.0 463269.0 0
328118.0 463055.0 0
331974.0 462737.0 0
338793.0 464592.0 0
342617.0 464229.0 0
346438.0 463852.0 0
350260.0 463454.0 0
354078.0 463033.0 0
364205.0 465024.0 0
368034.0 464562.0 0
371870.0 464089.0 0
375715.0 463603.0 0
379564.0 463060.0 0
386174.0 465015.0 0
390070.0 464218.0 0
393936.0 463359.0 0
400517.0 465098.0 0
404283.0 464156.0 0
408015.0 463493.0 0
414660.0 465120.0 0
418407.0 463895.0 0
425009.0 464840.0 0
435508.0 466098.0 0
442328.0 466309.0 0
63095.4 466966.0 0
66647.2 468779.0 0
69993.2 466602.0 0
73567.9 468342.0 0
80533.1 467852.0 0
87581.7 467039.0 0
91328.1 468340.0 0
98015.4 467099.0 0
101619.0 468294.0 0
105195.0 469381.0 0
121187.0 465795.0 0
125071.0 466529.0 0
128954.0 467207.0 0
139284.0 465567.0 0
143159.0 466039.0 0
147035.0 466461.0 0
150922.0 466812.0 0
161866.0 465568.0 0
165697.0 465804.0 0
169523.0 466013.0 0
173360.0 466200.0 0
177218.0 466365.0 0
181100.0 466511.0 0
184994.0 466634.0 0
188895.0 466749.0 0
192813.0 466889.0 0
196816.0 467128.0 0
200746.0 467152.0 0
204624.0 467085.0 0
208457.0 466958.0 0
212247.0 466767.0 0
216023.0 466541.0 0
219802.0 466316.0 0
223582.0 466120.0 0
227357.0 465965.0 0
231121.0 465845.0 0
234874.0 465751.0 0
238617.0 465679.0 0
242354.0 465629.0 0
246085.0 465605.0 0
249817.0 465610.0 0
253552.0 465645.0 0
257298.0 465709.0 0
261058.0 465795.0 0
264834.0 465893.0 0
268630.0 465995.0 0
272444.0 466092.0 0
276268.0 466185.0 0
280100.0 466280.0 0
283937.0 466378.0 0
287783.0 466479.0 0
291640.0 466576.0 0
295509.0 466660.0 0
299385.0 466726.0 0
303263.0 466770.0 0
307139.0 466788.0 0
311009.0 466781.0 0
314875.0 466747.0 0
318737.0 466682.0 0
322596.0 466574.0 0
326453.0 466406.0 0
330304.0 466155.0 0
334934.0 464918.0 0
341238.0 467477.0 0
345064.0 467130.0 0
348891.0 466753.0 0
352720.0 466349.0 0
356550.0 465922.0 0
360379.0 465478.0 0
370581.0 467449.0 0
374458.0 466955.0 0
378360.0 466437.0 0
382257.0 465822.0 0
388957.0 467661.0 0
392841.0 466864.0 0
396698.0 466009.0 0
403263.0 467871.0 0
407036.0 467071.0 0
410852.0 466188.0 0
417542.0 467704.0 0
421363.0 466474.0 0
428223.0 466999.0 0
432032.0 467986.0 0
438834.0 468192.0 0
70233.1 470547.0 0
77180.5 470025.0 0
81213.6 471720.0 0
84452.4 469443.0 0
88356.1 470850.0 0
95041.3 469585.0 0
98744.7 470807.0 0
102426.0 471992.0 0
111348.0 467272.0 0
114976.0 467869.0 0
118742.0 468583.0 0
122580.0 469315.0 0
126439.0 470009.0 0
132841.0 467822.0 0
136730.0 468374.0 0
140617.0 468870.0 0
144501.0 469308.0 0
148385.0 469677.0 0
152272.0 469942.0 0
155707.0 468374.0 0
159561.0 468691.0 0
163416.0 468949.0 0
167271.0 469165.0 0
171133.0 469351.0 0
175008.0 469512.0 0
178896.0 469653.0 0
182796.0 469778.0 0
186705.0 469894.0 0
190620.0 470008.0 0
213979.0 469930.0 0
217772.0 469688.0 0
221577.0 469474.0 0
225376.0 469312.0 0
229160.0 469195.0 0
232928.0 469109.0 0
236687.0 469043.0 0
240439.0 468994.0 0
244188.0 468965.0 0
247936.0 468959.0 0
251687.0 468977.0 0
255446.0 469020.0 0
259216.0 469082.0 0
263000.0 469160.0 0
266799.0 469245.0 0
270614.0 469331.0 0
274440.0 469417.0 0
278275.0 469505.0 0
282118.0 469595.0 0
285969.0 469686.0 0
289830.0 469774.0 0
293701.0 469854.0 0
297582.0 469922.0 0
313132.0 469998.0 0
317014.0 469958.0 0
320889.0 469884.0 0
324755.0 469764.0 0
328604.0 469582.0 0
333538.0 467974.0 0
337400.0 467775.0 0
347475.0 470066.0 0
351319.0 469680.0 0
355166.0 469268.0 0
359015.0 468835.0 0
362865.0 468387.0 0
366719.0 467925.0 0
373120.0 470340.0 0
377032.0 469815.0 0
380991.0 469284.0 0
385060.0 468417.0 0
391717.0 470372.0 0
395594.0 469576.0 0
399447.0 468737.0 0
409866.0 469856.0 0
413712.0 468846.0 0
420414.0 470331.0 0
424617.0 468755.0 0
428569.0 470922.0 0
73873.1 472280.0 0
77873.0 473885.0 0
85313.7 473286.0 0
92113.0 472142.0 0
95860.1 473344.0 0
99598.5 474566.0 0
108845.0 470231.0 0
112535.0 470861.0 0
116267.0 471471.0 0
120070.0 472132.0 0
123937.0 472855.0 0
130315.0 470642.0 0
134208.0 471213.0 0
138108.0 471729.0 0
142009.0 472192.0 0
145908.0 472590.0 0
157289.0 471845.0 0
161150.0 472115.0 0
165020.0 472337.0 0
168900.0 472523.0 0
194549.0 470140.0 0
198519.0 470269.0 0
202455.0 470289.0 0
206348.0 470242.0 0
210193.0 470137.0 0
227184.0 472534.0 0
230964.0 472460.0 0
234735.0 472402.0 0
238501.0 472357.0 0
242265.0 472327.0 0
246029.0 472314.0 0
249796.0 472320.0 0
253568.0 472346.0 0
257350.0 472390.0 0
261142.0 472449.0 0
264948.0 472518.0 0
268766.0 472592.0 0
301468.0 469972.0 0
305357.0 470003.0 0
309246.0 470012.0 0
332063.0 471015.0 0
335929.0 470936.0 0
339787.0 470718.0 0
343633.0 470417.0 0
353733.0 472628.0 0
357602.0 472206.0 0
361474.0 471766.0 0
365349.0 471310.0 0
369229.0 470836.0 0
379531.0 472703.0 0
383930.0 471817.0 0
387829.0 471121.0 0
398333.0 472353.0 0
402196.0 471541.0 0
406032.0 470731.0 0
412700.0 472607.0 0
416561.0 471524.0 0
423632.0 472588.0 0
82127.7 475578.0 0
89198.1 474722.0 0
93033.1 475993.0 0
106130.0 472998.0 0
109890.0 473773.0 0
113665.0 474407.0 0
117473.0 475006.0 0
127810.0 473509.0 0
131709.0 474089.0 0
135624.0 474616.0 0
139545.0 475097.0 0
149804.0 472899.0 0
153695.0 473078.0 0
158913.0 475322.0 0
172790.0 472682.0 0
176690.0 472821.0 0
180599.0 472943.0 0
184514.0 473055.0 0
188436.0 473160.0 0
192366.0 473266.0 0
196314.0 473366.0 0
200276.0 473445.0 0
204218.0 473466.0 0
208125.0 473442.0 0
211982.0 473363.0 0
215750.0 473083.0 0
219563.0 472823.0 0
223383.0 472645.0 0
272596.0 472669.0 0
276436.0 472748.0 0
280284.0 472829.0 0
284140.0 472912.0 0
288006.0 472993.0 0
291881.0 473068.0 0
295766.0 473134.0 0
299658.0 473187.0 0
303555.0 473225.0 0
307456.0 473245.0 0
311357.0 473247.0 0
315256.0 473230.0 0
319148.0 473190.0 0
323026.0 473119.0 0
326882.0 473004.0 0
330507.0 474064.0 0
334379.0 474084.0 0
338259.0 473946.0 0
342134.0 473702.0 0
346001.0 473387.0 0
349866.0 473024.0 0
360033.0 475160.0 0
363928.0 474713.0 0
367825.0 474249.0 0
371724.0 473763.0 0
375626.0 473249.0 0
382480.0 475105.0 0
386663.0 474594.0 0
390560.0 473892.0 0
394451.0 473141.0 0
401061.0 475189.0 0
404947.0 474409.0 0
408824.0 473582.0 0
415557.0 475366.0 0
419456.0 474195.0 0
427052.0 474596.0 0
78803.9 477737.0 0
86097.4 477187.0 0
90112.3 478605.0 0
96844.0 477134.0 0
103288.0 475740.0 0
107113.0 476598.0 0
110959.0 477310.0 0
114812.0 477919.0 0
121337.0 475633.0 0
125305.0 476414.0 0
129227.0 477007.0 0
133159.0 477537.0 0
137099.0 478024.0 0
143468.0 475527.0 0
147386.0 475880.0 0
151297.0 476127.0 0
155197.0 476228.0 0
162786.0 475541.0 0
166675.0 475722.0 0
170577.0 475876.0 0
174488.0 476011.0 0
178406.0 476130.0 0
182330.0 476237.0 0
186259.0 476335.0 0
190195.0 476428.0 0
194143.0 476515.0 0
198103.0 476591.0 0
202070.0 476649.0 0
206024.0 476679.0 0
209952.0 476690.0 0
213822.0 476664.0 0
217559.0 476193.0 0
221381.0 475964.0 0
225195.0 475855.0 0
228980.0 475803.0 0
232760.0 475757.0 0
236539.0 475718.0 0
240318.0 475689.0 0
244098.0 475673.0 0
247880.0 475671.0 0
251666.0 475685.0 0
255460.0 475714.0 0
259263.0 475757.0 0
263076.0 475811.0 0
266900.0 475873.0 0
270735.0 475939.0 0
274580.0 476009.0 0
278433.0 476082.0 0
282295.0 476156.0 0
286166.0 476230.0 0
290046.0 476300.0 0
293934.0 476364.0 0
297831.0 476417.0 0
301734.0 476458.0 0
305641.0 476486.0 0
309552.0 476499.0 0
313463.0 476499.0 0
317370.0 476487.0 0
321266.0 476461.0 0
325137.0 476409.0 0
328876.0 477137.0 0
332757.0 477228.0 0
336661.0 477163.0 0
340565.0 476979.0 0
344462.0 476709.0 0
348355.0 476377.0 0
352246.0 475999.0 0
356139.0 475590.0 0
362459.0 478131.0 0
366376.0 477680.0 0
370290.0 477211.0 0
374202.0 476718.0 0
378112.0 476191.0 0
385098.0 477907.0 0
389365.0 477424.0 0
393265.0 476713.0 0
397165.0 475962.0 0
403766.0 478085.0 0
407659.0 477341.0 0
411641.0 476390.0 0
422721.0 476458.0 0
94170.2 479828.0 0
100516.0 478560.0 0
104363.0 479426.0 0
108249.0 480191.0 0
118679.0 478493.0 0
122568.0 479083.0 0
126786.0 479975.0 0
130724.0 480503.0 0
141046.0 478473.0 0
144995.0 478873.0 0
148932.0 479180.0 0
152865.0 479361.0 0
156778.0 479400.0 0
160580.0 478794.0 0
164470.0 478958.0 0
168377.0 479099.0 0
172297.0 479225.0 0
176223.0 479338.0 0
180154.0 479440.0 0
184090.0 479533.0 0
188031.0 479617.0 0
191981.0 479694.0 0
195942.0 479762.0 0
199912.0 479822.0 0
203888.0 479876.0 0
207859.0 479928.0 0
211811.0 480001.0 0
215693.0 480068.0 0
219355.0 479272.0 0
223180.0 479149.0 0
226961.0 479137.0 0
230753.0 479105.0 0
234547.0 479075.0 0
238343.0 479051.0 0
242139.0 479034.0 0
245937.0 479028.0 0
249739.0 479033.0 0
253547.0 479051.0 0
257361.0 479082.0 0
261184.0 479123.0 0
265016.0 479172.0 0
268857.0 479228.0 0
272708.0 479288.0 0
276567.0 479353.0 0
280435.0 479419.0 0
284310.0 479485.0 0
288195.0 479550.0 0
292087.0 479610.0 0
295987.0 479662.0 0
299894.0 479706.0 0
303806.0 479738.0 0
307722.0 479759.0 0
311639.0 479770.0 0
315556.0 479775.0 0
319467.0 479780.0 0
323361.0 479788.0 0
327178.0 480241.0 0
334997.0 480374.0 0
338931.0 480248.0 0
342861.0 480028.0 0
346784.0 479732.0 0
350704.0 479378.0 0
354623.0 478985.0 0
358542.0 478566.0 0
368811.0 480676.0 0
372737.0 480207.0 0
376657.0 479711.0 0
381175.0 478492.0 0
392038.0 480301.0 0
395946.0 479579.0 0
399856.0 478834.0 0
410457.0 480173.0 0
91279.7 482440.0 0
97804.1 481529.0 0
101696.0 482363.0 0
105599.0 483111.0 0
112148.0 480841.0 0
116045.0 481417.0 0
119947.0 481960.0 0
123868.0 482480.0 0
134673.0 480987.0 0
138634.0 481435.0 0
142607.0 481856.0 0
146586.0 482235.0 0
150554.0 482480.0 0
154509.0 482604.0 0
158442.0 482593.0 0
162296.0 482249.0 0
166201.0 482362.0 0
170124.0 482469.0 0
174055.0 482572.0 0
177992.0 482667.0 0
181932.0 482754.0 0
185877.0 482832.0 0
189828.0 482901.0 0
193787.0 482961.0 0
197754.0 483016.0 0
201730.0 483067.0 0
221067.0 482361.0 0
224865.0 482452.0 0
228692.0 482439.0 0
232515.0 482424.0 0
236334.0 482409.0 0
240152.0 482396.0 0
243969.0 482388.0 0
247788.0 482389.0 0
251610.0 482399.0 0
255437.0 482420.0 0
259271.0 482450.0 0
263112.0 482488.0 0
266962.0 482534.0 0
270819.0 482585.0 0
274685.0 482640.0 0
278558.0 482698.0 0
282439.0 482758.0 0
286328.0 482817.0 0
290225.0 482873.0 0
294128.0 482924.0 0
331073.0 480379.0 0
345159.0 483088.0 0
349110.0 482764.0 0
353058.0 482387.0 0
357003.0 481981.0 0
360943.0 481561.0 0
364879.0 481125.0 0
375155.0 483250.0 0
379838.0 481891.0 0
383766.0 481363.0 0
387686.0 480759.0 0
394694.0 483213.0 0
398604.0 482488.0 0
402525.0 481753.0 0
94934.5 484302.0 0
99069.7 485361.0 0
109519.0 483782.0 0
113444.0 484375.0 0
117371.0 484908.0 0
121303.0 485402.0 0
128336.0 483533.0 0
132280.0 484002.0 0
136238.0 484439.0 0
140208.0 484848.0 0
144204.0 485247.0 0
148269.0 485598.0 0
164058.0 485679.0 0
205713.0 483126.0 0
209702.0 483214.0 0
213724.0 483380.0 0
218684.0 485193.0 0
298039.0 482967.0 0
301954.0 483003.0 0
305872.0 483029.0 0
309792.0 483048.0 0
313711.0 483063.0 0
317627.0 483081.0 0
321533.0 483123.0 0
325393.0 483364.0 0
329328.0 483542.0 0
333275.0 483587.0 0
337238.0 483511.0 0
341202.0 483340.0 0
351449.0 485796.0 0
355424.0 485402.0 0
359384.0 484999.0 0
363339.0 484580.0 0
367286.0 484152.0 0
371225.0 483711.0 0
378451.0 485293.0 0
382393.0 484826.0 0
386326.0 484279.0 0
390247.0 483653.0 0
401232.0 485436.0 0
405266.0 484620.0 0
96166.7 488106.0 0
103013.0 486113.0 0
106947.0 486777.0 0
110882.0 487372.0 0
114833.0 487902.0 0
118786.0 488387.0 0
125247.0 485849.0 0
129936.0 487085.0 0
133882.0 487500.0 0
137844.0 487894.0 0
141817.0 488263.0 0
152253.0 485786.0 0
156235.0 485849.0 0
160177.0 485827.0 0
167977.0 485751.0 0
171908.0 485835.0 0
175846.0 485920.0 0
179789.0 485999.0 0
183735.0 486072.0 0
187686.0 486135.0 0
191642.0 486189.0 0
195603.0 486236.0 0
199569.0 486281.0 0
203540.0 486332.0 0
207512.0 486408.0 0
211476.0 486545.0 0
215390.0 486894.0 0
222613.0 485707.0 0
226553.0 485734.0 0
230436.0 485752.0 0
234291.0 485757.0 0
238135.0 485754.0 0
241974.0 485750.0 0
245812.0 485749.0 0
249651.0 485755.0 0
253493.0 485768.0 0
257339.0 485790.0 0
261190.0 485819.0 0
265049.0 485855.0 0
268914.0 485897.0 0
272786.0 485944.0 0
276666.0 485995.0 0
280553.0 486047.0 0
284447.0 486100.0 0
288348.0 486152.0 0
292255.0 486201.0 0
296168.0 486244.0 0
300086.0 486281.0 0
304007.0 486312.0 0
307929.0 486336.0 0
311850.0 486358.0 0
315766.0 486383.0 0
319672.0 486426.0 0
323559.0 486550.0 0
327500.0 486688.0 0
331508.0 486811.0 0
335493.0 486772.0 0
339486.0 486645.0 0
343479.0 486439.0 0
347467.0 486153.0 0
361761.0 488042.0 0
365720.0 487637.0 0
369670.0 487224.0 0
373609.0 486798.0 0
380960.0 488286.0 0
384920.0 487802.0 0
388867.0 487233.0 0
392806.0 486571.0 0
397327.0 486169.0 0
100430.0 489126.0 0
104434.0 489829.0 0
108365.0 490435.0 0
112329.0 490938.0 0
122744.0 488828.0 0
126698.0 489214.0 0
131573.0 490632.0 0
135523.0 490999.0 0
145874.0 488632.0 0
150000.0 488967.0 0
154043.0 489072.0 0
158017.0 489127.0 0
161960.0 489112.0 0
165860.0 489078.0 0
169785.0 489132.0 0
173721.0 489200.0 0
177663.0 489271.0 0
181610.0 489337.0 0
185560.0 489395.0 0
189512.0 489444.0 0
193467.0 489486.0 0
197424.0 489524.0 0
201383.0 489565.0 0
205339.0 489624.0 0
209292.0 489731.0 0
213232.0 489954.0 0
220210.0 488804.0 0
224416.0 488965.0 0
228337.0 489047.0 0
232222.0 489089.0 0
236093.0 489105.0 0
239956.0 489110.0 0
243814.0 489112.0 0
247671.0 489117.0 0
251528.0 489126.0 0
255388.0 489141.0 0
259251.0 489163.0 0
263119.0 489191.0 0
266993.0 489225.0 0
270873.0 489264.0 0
274759.0 489307.0 0
278652.0 489353.0 0
282551.0 489400.0 0
286456.0 489447.0 0
290368.0 489493.0 0
294285.0 489536.0 0
298206.0 489574.0 0
302129.0 489607.0 0
306054.0 489636.0 0
309978.0 489662.0 0
313898.0 489691.0 0
317812.0 489732.0 0
321717.0 489807.0 0
325642.0 489894.0 0
329599.0 489962.0 0
333737.0 490056.0 0
337723.0 489950.0 0
341738.0 489784.0 0
345770.0 489539.0 0
349807.0 489208.0 0
353821.0 488826.0 0
357792.0 488447.0 0
368076.0 490745.0 0
372020.0 490351.0 0
377006.0 488701.0 0
387424.0 490816.0 0
391428.0 490184.0 0
395367.0 489538.0 0
399953.0 489170.0 0
403880.0 488366.0 0
94200.5 491621.0 0
98120.3 492368.0 0
102059.0 492981.0 0
116306.0 491418.0 0
120288.0 491852.0 0
124254.0 492253.0 0
128212.0 492588.0 0
139491.0 491348.0 0
143477.0 491673.0 0
147582.0 492025.0 0
151864.0 492283.0 0
155847.0 492395.0 0
159813.0 492446.0 0
163755.0 492455.0 0
167679.0 492464.0 0
171614.0 492511.0 0
175556.0 492569.0 0
179502.0 492627.0 0
183451.0 492680.0 0
187401.0 492726.0 0
191352.0 492764.0 0
195303.0 492797.0 0
199252.0 492830.0 0
203197.0 492873.0 0
207137.0 492946.0 0
211070.0 493089.0 0
215007.0 493327.0 0
218581.0 492352.0 0
222327.0 492150.0 0
226237.0 492313.0 0
230135.0 492405.0 0
234029.0 492446.0 0
237915.0 492465.0 0
241795.0 492476.0 0
245671.0 492483.0 0
249545.0 492491.0 0
253419.0 492502.0 0
257295.0 492519.0 0
261174.0 492540.0 0
265057.0 492567.0 0
268945.0 492599.0 0
272838.0 492635.0 0
276737.0 492674.0 0
280642.0 492716.0 0
284552.0 492758.0 0
288468.0 492801.0 0
292388.0 492842.0 0
296313.0 492880.0 0
300240.0 492915.0 0
304169.0 492947.0 0
308098.0 492977.0 0
312024.0 493008.0 0
315947.0 493045.0 0
319867.0 493098.0 0
323797.0 493157.0 0
327744.0 493203.0 0
331714.0 493199.0 0
335973.0 493296.0 0
339953.0 493126.0 0
344014.0 492917.0 0
348107.0 492616.0 0
352183.0 492250.0 0
356162.0 491906.0 0
360153.0 491511.0 0
364120.0 491130.0 0
375503.0 492121.0 0
379464.0 491752.0 0
383429.0 491311.0 0
393958.0 493192.0 0
397900.0 492565.0 0
405487.0 492003.0 0
95657.5 495507.0 0
105903.0 494035.0 0
109874.0 494044.0 0
113843.0 494483.0 0
117876.0 494911.0 0
121856.0 495327.0 0
125823.0 495689.0 0
133245.0 494173.0 0
137199.0 494492.0 0
141175.0 494796.0 0
145180.0 495091.0 0
149479.0 495348.0 0
153674.0 495650.0 0
157654.0 495753.0 0
161617.0 495803.0 0
165572.0 495822.0 0
169516.0 495848.0 0
173461.0 495892.0 0
177409.0 495941.0 0
224086.0 495545.0 0
228015.0 495709.0 0
231942.0 495777.0 0
235856.0 495815.0 0
239759.0 495838.0 0
243655.0 495851.0 0
247546.0 495861.0 0
251435.0 495872.0 0
255324.0 495885.0 0
259215.0 495901.0 0
263107.0 495922.0 0
267004.0 495948.0 0
270904.0 495977.0 0
346353.0 496018.0 0
350490.0 495671.0 0
354477.0 495372.0 0
358519.0 494982.0 0
362488.0 494629.0 0
366447.0 494272.0 0
370396.0 493910.0 0
373952.0 495556.0 0
377914.0 495223.0 0
381890.0 494830.0 0
385863.0 494368.0 0
390001.0 493791.0 0
396457.0 496261.0 0
401769.0 493450.0 0
99610.3 496100.0 0
103512.0 497230.0 0
107467.0 497736.0 0
111438.0 497622.0 0
115463.0 497992.0 0
119475.0 498412.0 0
129783.0 495973.0 0
134954.0 497706.0 0
138914.0 497976.0 0
142895.0 498238.0 0
147089.0 498430.0 0
181359.0 495989.0 0
185308.0 496031.0 0
189258.0 496066.0 0
193205.0 496095.0 0
197150.0 496122.0 0
201091.0 496153.0 0
205028.0 496201.0 0
208964.0 496284.0 0
212918.0 496435.0 0
218086.0 496310.0 0
274810.0 496010.0 0
278720.0 496046.0 0
282635.0 496085.0 0
286555.0 496124.0 0
290480.0 496162.0 0
294408.0 496200.0 0
298339.0 496236.0 0
302273.0 496269.0 0
306207.0 496301.0 0
310140.0 496333.0 0
314073.0 496368.0 0
318006.0 496410.0 0
321945.0 496453.0 0
325897.0 496486.0 0
329865.0 496488.0 0
333841.0 496427.0 0
338214.0 496527.0 0
342203.0 496286.0 0
356846.0 498452.0 0
360819.0 498133.0 0
364783.0 497804.0 0
368736.0 497472.0 0
380286.0 498343.0 0
384297.0 497934.0 0
388413.0 497353.0 0
392511.0 496840.0 0
400321.0 497173.0 0
404265.0 496563.0 0
97228.4 499292.0 0
101229.0 500497.0 0
113109.0 501140.0 0
123472.0 498818.0 0
127448.0 499131.0 0
131410.0 499368.0 0
136707.0 501227.0 0
151284.0 498743.0 0
155486.0 499045.0 0
159468.0 499142.0 0
163452.0 499171.0 0
167420.0 499199.0 0
171376.0 499235.0 0
175329.0 499277.0 0
179281.0 499319.0 0
183233.0 499358.0 0
187182.0 499391.0 0
191129.0 499417.0 0
195073.0 499439.0 0
199013.0 499460.0 0
202950.0 499489.0 0
206888.0 499535.0 0
210838.0 499600.0 0
214992.0 499634.0 0
218688.0 500670.0 0
221954.0 498722.0 0
225879.0 499009.0 0
229842.0 499097.0 0
233784.0 499159.0 0
237710.0 499198.0 0
241625.0 499221.0 0
245534.0 499236.0 0
249439.0 499248.0 0
253341.0 499260.0 0
257243.0 499273.0 0
261146.0 499290.0 0
265051.0 499310.0 0
268959.0 499334.0 0
272871.0 499361.0 0
276787.0 499392.0 0
280707.0 499426.0 0
284632.0 499461.0 0
288560.0 499497.0 0
292492.0 499534.0 0
296428.0 499569.0 0
300365.0 499603.0 0
304304.0 499636.0 0
308244.0 499669.0 0
312185.0 499702.0 0
316128.0 499737.0 0
320077.0 499771.0 0
324037.0 499796.0 0
328010.0 499800.0 0
331997.0 499769.0 0
335980.0 499656.0 0
340484.0 499720.0 0
344532.0 499406.0 0
348741.0 499095.0 0
352742.0 498836.0 0
363079.0 501339.0 0
367038.0 501036.0 0
372353.0 499003.0 0
376319.0 498708.0 0
386842.0 500945.0 0
390890.0 500420.0 0
394989.0 499954.0 0
404392.0 500556.0 0
98410.1 503324.0 0
106450.0 501593.0 0
109940.0 503504.0 0
117090.0 501516.0 0
121090.0 501924.0 0
125161.0 502310.0 0
129135.0 502582.0 0
133098.0 502769.0 0
140677.0 501441.0 0
144795.0 501603.0 0
148896.0 501848.0 0
153084.0 502164.0 0
157289.0 502472.0 0
161337.0 502515.0 0
165325.0 502550.0 0
169295.0 502591.0 0
173257.0 502630.0 0
177215.0 502668.0 0
181171.0 502704.0 0
185124.0 502735.0 0
189073.0 502760.0 0
193017.0 502779.0 0
196957.0 502794.0 0
200894.0 502809.0 0
204833.0 502830.0 0
208786.0 502856.0 0
212779.0 502851.0 0
223676.0 502307.0 0
227751.0 502412.0 0
231714.0 502498.0 0
235656.0 502557.0 0
239588.0 502593.0 0
243512.0 502615.0 0
247432.0 502630.0 0
251348.0 502643.0 0
255261.0 502655.0 0
259174.0 502669.0 0
263088.0 502685.0 0
267004.0 502704.0 0
270922.0 502727.0 0
274844.0 502753.0 0
278769.0 502782.0 0
282698.0 502813.0 0
286630.0 502846.0 0
290566.0 502881.0 0
294505.0 502916.0 0
298447.0 502950.0 0
302391.0 502984.0 0
306336.0 503016.0 0
310284.0 503048.0 0
314235.0 503079.0 0
318191.0 503108.0 0
322157.0 503128.0 0
326134.0 503131.0 0
330124.0 503109.0 0
334139.0 503053.0 0
338207.0 502845.0 0
342803.0 502859.0 0
346911.0 502506.0 0
350969.0 502298.0 0
355129.0 501920.0 0
359109.0 501638.0 0
370708.0 502458.0 0
374677.0 502195.0 0
378661.0 501879.0 0
382640.0 501475.0 0
393299.0 503564.0 0
400444.0 501155.0 0
103236.0 503949.0 0
114748.0 504677.0 0
118720.0 505056.0 0
122791.0 505421.0 0
126903.0 505812.0 0
130889.0 506039.0 0
134864.0 506164.0 0
138525.0 504720.0 0
142565.0 504843.0 0
146606.0 505038.0 0
150687.0 505298.0 0
154851.0 505623.0 0
159211.0 505850.0 0
163237.0 505897.0 0
167217.0 505951.0 0
171190.0 505994.0 0
175157.0 506032.0 0
179120.0 506066.0 0
183078.0 506097.0 0
187031.0 506121.0 0
190979.0 506139.0 0
194920.0 506151.0 0
198855.0 506158.0 0
202786.0 506164.0 0
206717.0 506171.0 0
210654.0 506169.0 0
214580.0 506193.0 0
218085.0 504511.0 0
221774.0 505797.0 0
225718.0 505734.0 0
229670.0 505842.0 0
233610.0 505923.0 0
237549.0 505970.0 0
241486.0 505999.0 0
245418.0 506019.0 0
249346.0 506034.0 0
253271.0 506047.0 0
257195.0 506059.0 0
261117.0 506073.0 0
265041.0 506088.0 0
268966.0 506106.0 0
272893.0 506128.0 0
276822.0 506152.0 0
280755.0 506180.0 0
284691.0 506210.0 0
288631.0 506242.0 0
292573.0 506276.0 0
296518.0 506309.0 0
300466.0 506343.0 0
336396.0 506270.0 0
340524.0 506007.0 0
345136.0 505975.0 0
349122.0 505739.0 0
353370.0 505392.0 0
357356.0 505143.0 0
361335.0 504875.0 0
365302.0 504600.0 0
369019.0 505924.0 0
372986.0 505691.0 0
376966.0 505401.0 0
381022.0 505046.0 0
385150.0 504503.0 0
389310.0 504035.0 0
397279.0 503569.0 0
402842.0 504349.0 0
98449.5 507320.0 0
102516.0 507867.0 0
107610.0 506734.0 0
111640.0 507111.0 0
116374.0 508234.0 0
120446.0 508560.0 0
124518.0 508929.0 0
140417.0 508154.0 0
144399.0 508297.0 0
148384.0 508511.0 0
152431.0 508792.0 0
156807.0 509005.0 0
216282.0 509602.0 0
304416.0 506376.0 0
308369.0 506407.0 0
312326.0 506436.0 0
316288.0 506461.0 0
320258.0 506478.0 0
324238.0 506482.0 0
328228.0 506466.0 0
332224.0 506426.0 0
351517.0 508846.0 0
355563.0 508653.0 0
359551.0 508408.0 0
363531.0 508162.0 0
379293.0 508580.0 0
383524.0 508113.0 0
387591.0 507605.0 0
391694.0 507208.0 0
395679.0 507226.0 0
399661.0 506898.0 0
100032.0 510992.0 0
105386.0 510630.0 0
109349.0 510342.0 0
113314.0 510759.0 0
128708.0 509311.0 0
132732.0 509485.0 0
136721.0 509554.0 0
142261.0 511621.0 0
161141.0 509233.0 0
165136.0 509313.0 0
169125.0 509366.0 0
173105.0 509407.0 0
177077.0 509442.0 0
181042.0 509472.0 0
185002.0 509497.0 0
188955.0 509516.0 0
192900.0 509528.0 0
196837.0 509534.0 0
200763.0 509535.0 0
204678.0 509533.0 0
208580.0 509535.0 0
212450.0 509549.0 0
220068.0 509547.0 0
223840.0 509172.0 0
227676.0 509216.0 0
231575.0 509309.0 0
235510.0 509360.0 0
239455.0 509393.0 0
243400.0 509416.0 0
247340.0 509434.0 0
251276.0 509448.0 0
255209.0 509461.0 0
259140.0 509473.0 0
263071.0 509485.0 0
267002.0 509500.0 0
270934.0 509518.0 0
274868.0 509538.0 0
278805.0 509562.0 0
282744.0 509588.0 0
286686.0 509618.0 0
290631.0 509649.0 0
294580.0 509682.0 0
298530.0 509716.0 0
302484.0 509748.0 0
306441.0 509779.0 0
310402.0 509807.0 0
314369.0 509830.0 0
318343.0 509846.0 0
322324.0 509851.0 0
326313.0 509839.0 0
330308.0 509812.0 0
334476.0 509655.0 0
338707.0 509454.0 0
342871.0 509177.0 0
347294.0 509214.0 0
361720.0 511717.0 0
367294.0 509395.0 0
371260.0 509200.0 0
375239.0 508931.0 0
385968.0 511239.0 0
389948.0 510788.0 0
393946.0 510830.0 0
397936.0 510521.0 0
118141.0 511738.0 0
122177.0 512086.0 0
126308.0 512432.0 0
130584.0 512792.0 0
134638.0 512918.0 0
138604.0 512976.0 0
146166.0 511804.0 0
150075.0 512037.0 0
153964.0 512402.0 0
157848.0 512775.0 0
161729.0 513064.0 0
165626.0 513180.0 0
169546.0 513244.0 0
173481.0 513288.0 0
177428.0 513322.0 0
181384.0 513348.0 0
185347.0 513368.0 0
189316.0 513379.0 0
193290.0 513382.0 0
197270.0 513375.0 0
201257.0 513360.0 0
205251.0 513337.0 0
209274.0 513324.0 0
213342.0 513299.0 0
217482.0 513265.0 0
221521.0 513238.0 0
225485.0 512735.0 0
229473.0 512722.0 0
233448.0 512764.0 0
237415.0 512796.0 0
241376.0 512820.0 0
245330.0 512841.0 0
249277.0 512859.0 0
253220.0 512873.0 0
257159.0 512884.0 0
261097.0 512895.0 0
265034.0 512907.0 0
268971.0 512922.0 0
272909.0 512939.0 0
276848.0 512959.0 0
280790.0 512982.0 0
284734.0 513008.0 0
288682.0 513037.0 0
292632.0 513069.0 0
296585.0 513102.0 0
300541.0 513134.0 0
304501.0 513165.0 0
308466.0 513193.0 0
312435.0 513215.0 0
316412.0 513231.0 0
320395.0 513237.0 0
324384.0 513229.0 0
328379.0 513209.0 0
332556.0 513058.0 0
336779.0 512861.0 0
341012.0 512650.0 0
345073.0 512471.0 0
349641.0 512325.0 0
353665.0 512133.0 0
357736.0 511946.0 0
365520.0 512851.0 0
369494.0 512721.0 0
373484.0 512473.0 0
377555.0 512123.0 0
381751.0 511673.0 0
101675.0 514638.0 0
105686.0 514609.0 0
109708.0 514309.0 0
113685.0 514728.0 0
117597.0 515595.0 0
121575.0 515940.0 0
125549.0 516269.0 0
129524.0 516575.0 0
133515.0 516669.0 0
143000.0 515514.0 0
147127.0 515615.0 0
151565.0 515682.0 0
155541.0 516017.0 0
159516.0 516354.0 0
163499.0 516550.0 0
167467.0 516636.0 0
203233.0 516732.0 0
207227.0 516698.0 0
211285.0 516679.0 0
215378.0 516633.0 0
219432.0 516642.0 0
227426.0 516168.0 0
231401.0 516183.0 0
235378.0 516209.0 0
239353.0 516232.0 0
243319.0 516255.0 0
247277.0 516278.0 0
251229.0 516295.0 0
255175.0 516308.0 0
259120.0 516318.0 0
263063.0 516328.0 0
267005.0 516340.0 0
270946.0 516355.0 0
274888.0 516371.0 0
278831.0 516391.0 0
282777.0 516414.0 0
286725.0 516440.0 0
290676.0 516470.0 0
294630.0 516502.0 0
298588.0 516534.0 0
302549.0 516565.0 0
306516.0 516593.0 0
310488.0 516616.0 0
314467.0 516632.0 0
318452.0 516639.0 0
322444.0 516635.0 0
326440.0 516618.0 0
330622.0 516473.0 0
334851.0 516284.0 0
339059.0 516093.0 0
343180.0 515947.0 0
347414.0 515685.0 0
351407.0 515796.0 0
355376.0 515672.0 0
359343.0 515570.0 0
363272.0 516039.0 0
367623.0 516222.0 0
371706.0 516018.0 0
375812.0 515678.0 0
379898.0 515305.0 0
383883.0 515007.0 0
387867.0 514732.0 0
391827.0 514292.0 0
395807.0 514389.0 0
399793.0 514215.0 0
100621.0 518506.0 0
104617.0 518459.0 0
108598.0 518144.0 0
112569.0 518564.0 0
116481.0 519351.0 0
137840.0 516797.0 0
141132.0 519037.0 0
145125.0 519058.0 0
149268.0 518949.0 0
153249.0 519274.0 0
171429.0 516689.0 0
175392.0 516724.0 0
179357.0 516751.0 0
183326.0 516770.0 0
187299.0 516781.0 0
191276.0 516783.0 0
195257.0 516775.0 0
199243.0 516758.0 0
223469.0 516686.0 0
341229.0 519413.0 0
345346.0 519256.0 0
349330.0 519185.0 0
353381.0 519201.0 0
357366.0 519085.0 0
378137.0 518893.0 0
382119.0 518591.0 0
386094.0 518309.0 0
390071.0 518098.0 0
394059.0 518109.0 0
398053.0 518133.0 0
120455.0 519699.0 0
124429.0 520036.0 0
128402.0 520357.0 0
132378.0 520438.0 0
136346.0 520418.0 0
157232.0 519602.0 0
161335.0 519877.0 0
165373.0 520015.0 0
169362.0 520086.0 0
173343.0 520131.0 0
177321.0 520161.0 0
181300.0 520182.0 0
185280.0 520194.0 0
189262.0 520198.0 0
193247.0 520191.0 0
197235.0 520174.0 0
201226.0 520147.0 0
205220.0 520110.0 0
209218.0 520063.0 0
213323.0 520043.0 0
217331.0 520037.0 0
221348.0 520071.0 0
225403.0 520141.0 0
229365.0 519627.0 0
233350.0 519641.0 0
237333.0 519654.0 0
241313.0 519677.0 0
245277.0 519704.0 0
249239.0 519726.0 0
253192.0 519744.0 0
257143.0 519752.0 0
261092.0 519762.0 0
265037.0 519773.0 0
268982.0 519785.0 0
272925.0 519800.0 0
276869.0 519817.0 0
280815.0 519836.0 0
284762.0 519859.0 0
288713.0 519886.0 0
292666.0 519916.0 0
296624.0 519948.0 0
300586.0 519980.0 0
304554.0 520009.0 0
308527.0 520032.0 0
312508.0 520049.0 0
316495.0 520058.0 0
320488.0 520056.0 0
324491.0 520038.0 0
328681.0 519901.0 0
332911.0 519720.0 0
337106.0 519548.0 0
361318.0 519461.0 0
365307.0 519458.0 0
369832.0 519527.0 0
374043.0 519235.0 0
102043.0 522275.0 0
106036.0 522196.0 0
110021.0 522086.0 0
113987.0 522419.0 0
118191.0 522939.0 0
122174.0 523290.0 0
126162.0 523622.0 0
130360.0 523836.0 0
134414.0 523873.0 0
139039.0 523321.0 0
142970.0 522579.0 0
146969.0 522601.0 0
150969.0 522552.0 0
154958.0 522868.0 0
159060.0 523135.0 0
163249.0 523369.0 0
167295.0 523481.0 0
171289.0 523538.0 0
175280.0 523576.0 0
179269.0 523600.0 0
183257.0 523616.0 0
187247.0 523623.0 0
191237.0 523619.0 0
195229.0 523605.0 0
199223.0 523579.0 0
203218.0 523542.0 0
207216.0 523496.0 0
211222.0 523436.0 0
215289.0 523472.0 0
219263.0 523474.0 0
223244.0 523542.0 0
227204.0 523664.0 0
231339.0 523089.0 0
235330.0 523096.0 0
239313.0 523100.0 0
243281.0 523146.0 0
247249.0 523161.0 0
251206.0 523191.0 0
255167.0 523196.0 0
259119.0 523206.0 0
263071.0 523218.0 0
267018.0 523232.0 0
270963.0 523244.0 0
274907.0 523260.0 0
278852.0 523275.0 0
282798.0 523297.0 0
286746.0 523319.0 0
290696.0 523348.0 0
294651.0 523378.0 0
298611.0 523410.0 0
302578.0 523440.0 0
306553.0 523463.0 0
310535.0 523480.0 0
314524.0 523493.0 0
318519.0 523495.0 0
322537.0 523472.0 0
326724.0 523339.0 0
330965.0 523167.0 0
335155.0 523015.0 0
339157.0 522961.0 0
343149.0 522892.0 0
347129.0 522812.0 0
351104.0 522753.0 0
355077.0 522781.0 0
359033.0 522702.0 0
362981.0 523084.0 0
366948.0 523086.0 0
370906.0 523354.0 0
374861.0 523122.0 0
378808.0 522814.0 0
382757.0 522515.0 0
386711.0 522242.0 0
390677.0 522099.0 0
394656.0 522126.0 0
398646.0 522150.0 0
101204.0 526270.0 0
105190.0 526191.0 0
109163.0 526076.0 0
113118.0 526304.0 0
117049.0 526729.0 0
141443.0 526466.0 0
145415.0 526487.0 0
149379.0 526363.0 0
153335.0 526507.0 0
157291.0 526694.0 0
161259.0 526808.0 0
197223.0 527025.0 0
201222.0 526992.0 0
205219.0 526945.0 0
209213.0 526896.0 0
213191.0 526845.0 0
221165.0 526943.0 0
229464.0 526874.0 0
233411.0 526592.0 0
237359.0 526550.0 0
241319.0 526622.0 0
245271.0 526608.0 0
249229.0 526663.0 0
253181.0 526648.0 0
257132.0 526659.0 0
261085.0 526668.0 0
265039.0 526684.0 0
268996.0 526700.0 0
272959.0 526729.0 0
276925.0 526751.0 0
280898.0 526788.0 0
284876.0 526823.0 0
288861.0 526873.0 0
292853.0 526922.0 0
296848.0 526975.0 0
325126.0 526974.0 0
329451.0 526838.0 0
333625.0 526697.0 0
337622.0 526647.0 0
341618.0 526573.0 0
345614.0 526505.0 0
349611.0 526459.0 0
353605.0 526476.0 0
357602.0 526413.0 0
377754.0 526657.0 0
381877.0 526400.0 0
385995.0 526169.0 0
390000.0 526101.0 0
394000.0 526109.0 0
398000.0 526132.0 0
120998.0 527078.0 0
124955.0 527398.0 0
128932.0 527534.0 0
132923.0 527551.0 0
137367.0 526965.0 0
165241.0 526885.0 0
169237.0 526950.0 0
173235.0 526995.0 0
177233.0 527025.0 0
181230.0 527045.0 0
185227.0 527055.0 0
189224.0 527057.0 0
193223.0 527047.0 0
217173.0 527071.0 0
225148.0 527221.0 0
300847.0 527023.0 0
304886.0 527075.0 0
308922.0 527115.0 0
312940.0 527142.0 0
316937.0 527146.0 0
320931.0 527098.0 0
361615.0 526835.0 0
365623.0 526857.0 0
369610.0 527118.0 0
373603.0 526901.0 0
102016.0 530224.0 0
106016.0 530151.0 0
110016.0 530098.0 0
114014.0 530215.0 0
118220.0 530524.0 0
122368.0 530815.0 0
126391.0 531104.0 0
130381.0 531237.0 0
134365.0 531261.0 0
138325.0 530868.0 0
142275.0 530353.0 0
146256.0 530447.0 0
150242.0 530378.0 0
154233.0 530432.0 0
158228.0 530567.0 0
162224.0 530673.0 0
166222.0 530749.0 0
170225.0 530801.0 0
174263.0 530830.0 0
178307.0 530846.0 0
182380.0 530842.0 0
186445.0 530832.0 0
190533.0 530805.0 0
194568.0 530781.0 0
198609.0 530744.0 0
202613.0 530707.0 0
206633.0 530646.0 0
210630.0 530605.0 0
214651.0 530499.0 0
218595.0 530999.0 0
222569.0 530657.0 0
226539.0 530998.0 0
230516.0 530683.0 0
234494.0 530476.0 0
238482.0 530368.0 0
242467.0 530518.0 0
246458.0 530414.0 0
250446.0 530607.0 0
254439.0 530430.0 0
258437.0 530429.0 0
262436.0 530419.0 0
266435.0 530423.0 0
270435.0 530422.0 0
274433.0 530438.0 0
278432.0 530443.0 0
282429.0 530471.0 0
286424.0 530497.0 0
290416.0 530546.0 0
294406.0 530596.0 0
298393.0 530654.0 0
302380.0 530709.0 0
306366.0 530781.0 0
310352.0 530839.0 0
314336.0 530880.0 0
318320.0 530889.0 0
322303.0 530835.0 0
326281.0 530786.0 0
330257.0 530737.0 0
334232.0 530647.0 0
338211.0 530599.0 0
342193.0 530523.0 0
346177.0 530460.0 0
350165.0 530416.0 0
354155.0 530422.0 0
358145.0 530359.0 0
362113.0 530797.0 0
366105.0 530827.0 0
370093.0 531070.0 0
374082.0 530858.0 0
378070.0 530632.0 0
382057.0 530382.0 0
386047.0 530164.0 0
390044.0 530100.0 0
394042.0 530109.0 0
398041.0 530132.0 0
101967.0 534223.0 0
105965.0 534151.0 0
109962.0 534098.0 0
113956.0 534214.0 0
117941.0 534492.0 0
141943.0 534323.0 0
145941.0 534435.0 0
149938.0 534381.0 0
153934.0 534428.0 0
157927.0 534543.0 0
197800.0 534639.0 0
201787.0 534598.0 0
205776.0 534526.0 0
209767.0 534492.0 0
213756.0 534352.0 0
221699.0 534551.0 0
229650.0 534549.0 0
233883.0 534453.0 0
237878.0 534305.0 0
241941.0 534489.0 0
245938.0 534370.0 0
253925.0 534390.0 0
257923.0 534390.0 0
261921.0 534378.0 0
265919.0 534383.0 0
269916.0 534381.0 0
273914.0 534398.0 0
277912.0 534399.0 0
281910.0 534429.0 0
285908.0 534452.0 0
289907.0 534505.0 0
293906.0 534556.0 0
341985.0 534510.0 0
345984.0 534450.0 0
349984.0 534407.0 0
353983.0 534405.0 0
357983.0 534344.0 0
381996.0 534369.0 0
386000.0 534163.0 0
390000.0 534101.0 0
394000.0 534109.0 0
398000.0 534132.0 0
121926.0 534775.0 0
125911.0 535055.0 0
129906.0 535189.0 0
133905.0 535215.0 0
137951.0 534851.0 0
161918.0 534649.0 0
165908.0 534726.0 0
169897.0 534770.0 0
173885.0 534791.0 0
177871.0 534799.0 0
181857.0 534784.0 0
185843.0 534762.0 0
189828.0 534720.0 0
193814.0 534688.0 0
217720.0 534921.0 0
225676.0 534919.0 0
249931.0 534582.0 0
297913.0 534618.0 0
301916.0 534676.0 0
305919.0 534748.0 0
309921.0 534807.0 0
313927.0 534849.0 0
317926.0 534859.0 0
321933.0 534801.0 0
325950.0 534756.0 0
329974.0 534711.0 0
333986.0 534638.0 0
337985.0 534589.0 0
361958.0 534785.0 0
365964.0 534823.0 0
369957.0 535051.0 0
373972.0 534844.0 0
377988.0 534618.0 0
102000.0 538223.0 0
106000.0 538151.0 0
110000.0 538099.0 0
114000.0 538216.0 0
118005.0 538472.0 0
122009.0 538760.0 0
126008.0 539035.0 0
130006.0 539171.0 0
134009.0 539196.0 0
138032.0 538850.0 0
142003.0 538309.0 0
146001.0 538435.0 0
150000.0 538382.0 0
154000.0 538429.0 0
158002.0 538533.0 0
162004.0 538638.0 0
166006.0 538717.0 0
170007.0 538757.0 0
174009.0 538773.0 0
178012.0 538779.0 0
182016.0 538762.0 0
186020.0 538740.0 0
190025.0 538697.0 0
194029.0 538664.0 0
198035.0 538614.0 0
202035.0 538572.0 0
206036.0 538494.0 0
210036.0 538466.0 0
214089.0 538303.0 0
218038.0 538909.0 0
222051.0 538530.0 0
226112.0 538894.0 0
230092.0 538494.0 0
234088.0 538449.0 0
238080.0 538286.0 0
242071.0 538487.0 0
246065.0 538359.0 0
250054.0 538581.0 0
254045.0 538381.0 0
258042.0 538383.0 0
262039.0 538370.0 0
266036.0 538375.0 0
270033.0 538372.0 0
274031.0 538390.0 0
278029.0 538389.0 0
282026.0 538419.0 0
286025.0 538441.0 0
290022.0 538494.0 0
294020.0 538545.0 0
298018.0 538609.0 0
302016.0 538668.0 0
306014.0 538739.0 0
310013.0 538796.0 0
314012.0 538839.0 0
318010.0 538848.0 0
322009.0 538786.0 0
326008.0 538742.0 0
330006.0 538697.0 0
334005.0 538637.0 0
338004.0 538584.0 0
342003.0 538504.0 0
346002.0 538446.0 0
350001.0 538402.0 0
354001.0 538394.0 0
358001.0 538336.0 0
362012.0 538776.0 0
366011.0 538822.0 0
370015.0 539035.0 0
374010.0 538833.0 0
378003.0 538607.0 0
382000.0 538359.0 0
386000.0 538163.0 0
390000.0 538101.0 0
394000.0 538109.0 0
398000.0 538132.0 0
102000.0 542223.0 0
106000.0 542151.0 0
110000.0 542099.0 0
114000.0 542216.0 0
142000.0 542299.0 0
213991.0 542274.0 0
229913.0 542467.0 0
237990.0 542273.0 0
245995.0 542351.0 0
253998.0 542376.0 0
257998.0 542378.0 0
261998.0 542364.0 0
265998.0 542370.0 0
269998.0 542366.0 0
273998.0 542384.0 0
277998.0 542381.0 0
281998.0 542412.0 0
285998.0 542432.0 0
350000.0 542398.0 0
354000.0 542386.0 0
358000.0 542329.0 0
382000.0 542351.0 0
386000.0 542163.0 0
390000.0 542101.0 0
394000.0 542109.0 0
398000.0 542132.0 0
118000.0 542457.0 0
122000.0 542747.0 0
126003.0 543020.0 0
130003.0 543157.0 0
134003.0 543182.0 0
137994.0 542850.0 0
146000.0 542434.0 0
150000.0 542382.0 0
154000.0 542429.0 0
158000.0 542526.0 0
162000.0 542630.0 0
165999.0 542711.0 0
169999.0 542748.0 0
173999.0 542762.0 0
177999.0 542765.0 0
181999.0 542748.0 0
185999.0 542725.0 0
189998.0 542683.0 0
193998.0 542649.0 0
197997.0 542598.0 0
201997.0 542557.0 0
205996.0 542475.0 0
209995.0 542453.0 0
217972.0 542908.0 0
221954.0 542529.0 0
225937.0 542889.0 0
233994.0 542448.0 0
241998.0 542486.0 0
250000.0 542581.0 0
289998.0 542487.0 0
293998.0 542538.0 0
297999.0 542603.0 0
301999.0 542662.0 0
305999.0 542732.0 0
309999.0 542788.0 0
313999.0 542830.0 0
317999.0 542839.0 0
321999.0 542774.0 0
326000.0 542729.0 0
330000.0 542687.0 0
334000.0 542635.0 0
338000.0 542580.0 0
342000.0 542498.0 0
346000.0 542442.0 0
361997.0 542768.0 0
365999.0 542821.0 0
369996.0 543022.0 0
373999.0 542824.0 0
378000.0 542598.0 0
102000.0 546223.0 0
106000.0 546151.0 0
110000.0 546099.0 0
114000.0 546216.0 0
118000.0 546446.0 0
122000.0 546738.0 0
125999.0 547008.0 0
129999.0 547146.0 0
133999.0 547170.0 0
138002.0 546850.0 0
142000.0 546291.0 0
146000.0 546434.0 0
150000.0 546382.0 0
154000.0 546429.0 0
158000.0 546521.0 0
162000.0 546624.0 0
166000.0 546706.0 0
170000.0 546743.0 0
174000.0 546754.0 0
178000.0 546756.0 0
182000.0 546737.0 0
186000.0 546713.0 0
190000.0 546672.0 0
194000.0 546638.0 0
198000.0 546587.0 0
202000.0 546545.0 0
206000.0 546461.0 0
210000.0 546443.0 0
214001.0 546253.0 0
218001.0 546908.0 0
222001.0 546530.0 0
226020.0 546888.0 0
230010.0 546448.0 0
234010.0 546448.0 0
238006.0 546264.0 0
242000.0 546486.0 0
246000.0 546345.0 0
250000.0 546580.0 0
254000.0 546372.0 0
258000.0 546375.0 0
262000.0 546360.0 0
266000.0 546366.0 0
270000.0 546361.0 0
274000.0 546380.0 0
278000.0 546375.0 0
282000.0 546406.0 0
286000.0 546425.0 0
290000.0 546481.0 0
294000.0 546532.0 0
298000.0 546598.0 0
302000.0 546657.0 0
306000.0 546726.0 0
310000.0 546781.0 0
314000.0 546822.0 0
318000.0 546831.0 0
322000.0 546764.0 0
326000.0 546719.0 0
330000.0 546679.0 0
334000.0 546633.0 0
338000.0 546577.0 0
342000.0 546494.0 0
346000.0 546438.0 0
350000.0 546394.0 0
354000.0 546379.0 0
358000.0 546325.0 0
362000.0 546762.0 0
366000.0 546820.0 0
370001.0 547012.0 0
374000.0 546817.0 0
378000.0 546592.0 0
382000.0 546345.0 0
386000.0 546163.0 0
390000.0 546101.0 0
394000.0 546109.0 0
398000.0 546132.0 0
106000.0 550151.0 0
110000.0 550099.0 0
214000.0 550239.0 0
386000.0 550163.0 0
390000.0 550101.0 0
394000.0 550109.0 0
398000.0 550132.0 0
102000.0 550223.0 0
114000.0 550216.0 0
118000.0 550438.0 0
122000.0 550731.0 0
126000.0 551000.0 0
130000.0 551138.0 0
134000.0 551162.0 0
138000.0 550850.0 0
142000.0 550286.0 0
146000.0 550434.0 0
150000.0 550382.0 0
154000.0 550429.0 0
158000.0 550518.0 0
162000.0 550621.0 0
166000.0 550703.0 0
170000.0 550739.0 0
174000.0 550749.0 0
178000.0 550750.0 0
182000.0 550730.0 0
186000.0 550706.0 0
190000.0 550665.0 0
194000.0 550630.0 0
198000.0 550579.0 0
202000.0 550537.0 0
206000.0 550451.0 0
210000.0 550436.0 0
218000.0 550908.0 0
222000.0 550530.0 0
225997.0 550887.0 0
229998.0 550437.0 0
234000.0 550448.0 0
238000.0 550257.0 0
242000.0 550486.0 0
246000.0 550341.0 0
250000.0 550580.0 0
254000.0 550369.0 0
258000.0 550372.0 0
262000.0 550357.0 0
266000.0 550363.0 0
270000.0 550357.0 0
274000.0 550377.0 0
278000.0 550371.0 0
282000.0 550402.0 0
286000.0 550420.0 0
290000.0 550476.0 0
294000.0 550528.0 0
298000.0 550594.0 0
302000.0 550654.0 0
306000.0 550722.0 0
310000.0 550776.0 0
314000.0 550817.0 0
318000.0 550826.0 0
322000.0 550757.0 0
326000.0 550713.0 0
330000.0 550674.0 0
334000.0 550632.0 0
338000.0 550574.0 0
342000.0 550491.0 0
346000.0 550436.0 0
350000.0 550391.0 0
354000.0 550375.0 0
358000.0 550322.0 0
362000.0 550757.0 0
366000.0 550820.0 0
370000.0 551005.0 0
374000.0 550812.0 0
378000.0 550587.0 0
382000.0 550341.0 0
102000.0 554223.0 0
106000.0 554151.0 0
110000.0 554099.0 0
114000.0 554216.0 0
118000.0 554435.0 0
122000.0 554728.0 0
126000.0 554996.0 0
130000.0 555134.0 0
134000.0 555158.0 0
138000.0 554850.0 0
142000.0 554284.0 0
146000.0 554434.0 0
150000.0 554382.0 0
154000.0 554429.0 0
158000.0 554516.0 0
162000.0 554619.0 0
166000.0 554701.0 0
170000.0 554738.0 0
174000.0 554747.0 0
178000.0 554747.0 0
182000.0 554727.0 0
186000.0 554702.0 0
190000.0 554661.0 0
194000.0 554627.0 0
198000.0 554575.0 0
202000.0 554533.0 0
206000.0 554446.0 0
210000.0 554432.0 0
214000.0 554232.0 0
218000.0 554908.0 0
222000.0 554530.0 0
226000.0 554887.0 0
230000.0 554431.0 0
234000.0 554448.0 0
238000.0 554254.0 0
242000.0 554486.0 0
246000.0 554339.0 0
250000.0 554580.0 0
254000.0 554368.0 0
258000.0 554371.0 0
262000.0 554355.0 0
266000.0 554362.0 0
270000.0 554356.0 0
274000.0 554375.0 0
278000.0 554368.0 0
282000.0 554400.0 0
286000.0 554418.0 0
290000.0 554474.0 0
294000.0 554526.0 0
298000.0 554592.0 0
302000.0 554652.0 0
306000.0 554720.0 0
310000.0 554774.0 0
314000.0 554814.0 0
318000.0 554823.0 0
322000.0 554754.0 0
326000.0 554709.0 0
330000.0 554672.0 0
334000.0 554631.0 0
338000.0 554573.0 0
342000.0 554489.0 0
346000.0 554435.0 0
350000.0 554389.0 0
354000.0 554373.0 0
358000.0 554321.0 0
362000.0 554755.0 0
366000.0 554819.0 0
370000.0 555001.0 0
374000.0 554810.0 0
378000.0 554585.0 0
382000.0 554339.0 0
386000.0 554163.0 0
390000.0 554101.0 0
394000.0 554109.0 0
398000.0 554132.0 0
POINT_DATA 4650
SCALARS Radius float 1
LOOKUP_TABLE default
4000.0 4000.0 4000.0 4000.0 4000.0 4000.0 4000.0 4000.0 4000.0 4000.0 4000.0 4000.0 4000.0 4000.0 4000.0 4000.0 4000.0 4000.0 4000.0 4000.0 4000.0 4000.0 4000.0 4000.0 4000.0 4000.0 4000.0 4000.0 4000.0 4000.0 4000.0 4000.0 4000.0 4000.0 4000.0 4000.0 4000.0 4000.0 4000.0 4000.0 4000.0 4000.0 4000.0 4000.0 4000.0 4000.0 4000.0 4000.0 4000.0 4000.0 4000.0 4000.0 4000.0 4000.0 4000.0 4000.0 4000.0 4000.0 4000.0 4000.0 4000.0 4000.0 4000.0 4000.0 4000.0 4000.0 4000.0 4000.0 4000.0 4000.0 4000.0 4000.0 4000.0 4000.0 4000.0 4000.0 4000.0 4000.0 4000.0 4000.0 4000.0 4000.0 4000.0 4000.0 4000.0 4000.0 4000.0 4000.0 4000.0 4000.0 4000.0 4000.0 4000.0 4000.0 4000.0 4000.0 4000.0 4000.0 4000.0 4000.0 4000.0 4000.0 4000.0 4000.0 4000.0 4000.0 4000.0 4000.0 4000.0 4000.0 4000.0 4000.0 4000.0 4000.0 4000.0 4000.0 4000.0 4000.0 4000.0 4000.0 4000.0 4000.0 4000.0 4000.0 4000.0 4000.0 4000.0 4000.0 4000.0 4000.0 4000.0 4000.0 4000.0 4000.0 4000.0 4000.0 4000.0 4000.0 4000.0 4000.0 4000.0 4000.0 4000.0 4000.0 4000.0 4000.0 4000.0 4000.0 4000.0 4000.0 4000.0 4000.0 4000.0 4000.0 4000.0 4000.0 4000.0 4000.0 4000.0 4000.0 4000.0 4000.0 4000.0 4000.0 4000.0 4000.0 4000.0 4000.0 4000.0 4000.0 4000.0 4000.0 4000.0 4000.0 4000.0 4000.0 4000.0 4000.0 4000.0 4000.0 4000.0 4000.0 4000.0 4000.0 4000.0 4000.0 4000.0 4000.0 4000.0 4000.0 4000.0 4000.0 4000.0 4000.0 4000.0 4000.0 4000.0 4000.0 4000.0 4000.0 4000.0 4000.0 4000.0 4000.0 4000.0 4000.0 4000.0 4000.0 4000.0 4000.0 4000.0 4000.0 4000.0 4000.0 4000.0 4000.0 4000.0 4000.0 4000.0 4000.0 4000.0 4000.0 4000.0 4000.0 4000.0 4000.0 4000.0 4000.0 4000.0 4000.0 4000.0 4000.0 4000.0 4000.0 4000.0 4000.0 4000.0 4000.0 4000.0 4000.0 4000.0 4000.0 4000.0 4000.0 4000.0 4000.0 4000.0 4000.0 4000.0 4000.0 4000.0 4000.0 4000.0 4000.0 4000.0 4000.0 4000.0 4000.0 4000.0 4000.0 4000.0 4000.0 4000.0 4000.0 4000.0 4000.0 4000.0 4000.0 4000.0 4000.0 4000.0 4000.0 4000.0 4000.0 4000.0 4000.0 4000.0 4000.0 4000.0 4000.0 4000.0 4000.0 4000.0 4000.0 4000.0 4000.0 4000.0 4000.0 4000.0 4000.0 4000.0 4000.0 4000.0 4000.0 4000.0 4000.0 4000.0 4000.0 4000.0 4000.0 4000.0 4000.0 4000.0 4000.0 4000.0 4000.0 4000.0 4000.0 4000.0 4000.0 4000.0 4000.0 4000.0 4000.0 4000.0 4000.0 4000.0 4000.0 4000.0 4000.0 4000.0 4000.0 4000.0 4000.0 4000.0 4000.0 4000.0 4000.0 4000.0 4000.0 4000.0 4000.0 4000.0 4000.0 4000.0 4000.0 4000.0 4000.0 4000.0 4000.0 4000.0 4000.0 4000.0 4000.0 4000.0 4000.0 4000.0 4000.0 4000.0 4000.0 4000.0 4000.0 4000.0 4000.0 4000.0 4000.0 4000.0 4000.0 4000.0 4000.0 4000.0 4000.0 4000.0 4000.0 4000.0 4000.0 4000.0 4000.0 4000.0 4000.0 4000.0 4000.0 4000.0 4000.0 4000.0 4000.0 4000.0 4000.0 4000.0 4000.0 4000.0 4000.0 4000.0 4000.0 4000.0 4000.0 4000.0 4000.0 4000.0 4000.0 4000.0 4000.0 4000.0 4000.0 4000.0 4000.0 4000.0 4000.0 4000.0 4000.0 4000.0 4000.0 4000.0 4000.0 4000.0 4000.0 4000.0 4000.0 4000.0 4000.0 4000.0 4000.0 4000.0 4000.0 4000.0 4000.0 4000.0 4000.0 4000.0 4000.0 4000.0 4000.0 4000.0 4000.0 4000.0 4000.0 4000.0 4000.0 4000.0 4000.0 4000.0 4000.0 4000.0 4000.0 4000.0 4000.0 4000.0 4000.0 4000.0 4000.0 4000.0 4000.0 4000.0 4000.0 4000.0 4000.0 4000.0 4000.0 4000.0 4000.0 4000.0 4000.0 4000.0 4000.0 4000.0 4000.0 4000.0 4000.0 4000.0 4000.0 4000.0 4000.0 4000.0 4000.0 4000.0 4000.0 4000.0 4000.0 4000.0 4000.0 4000.0 4000.0 4000.0 4000.0 4000.0 4000.0 4000.0 4000.0 4000.0 4000.0 4000.0 4000.0 4000.0 4000.0 4000.0 4000.0 4000.0 4000.0 4000.0 4000.0 4000.0 4000.0 4000.0 4000.0 4000.0 4000.0 4000.0 4000.0 4000.0 4000.0 4000.0 4000.0 4000.0 4000.0 4000.0 4000.0 4000.0 4000.0 4000.0 4000.0 4000.0 4000.0 4000.0 4000.0 4000.0 4000.0 4000.0 4000.0 4000.0 4000.0 4000.0 4000.0 4000.0 4000.0 4000.0 4000.0 4000.0 4000.0 4000.0 4000.0 4000.0 4000.0 4000.0 4000.0 4000.0 4000.0 4000.0 4000.0 4000.0 4000.0 4000.0 4000.0 4000.0 4000.0 4000.0 4000.0 4000.0 4000.0 4000.0 4000.0 4000.0 4000.0 4000.0 4000.0 4000.0 4000.0 4000.0 4000.0 4000.0 4000.0 4000.0 4000.0 4000.0 4000.0 4000.0 4000.0 4000.0 4000.0 4000.0 4000.0 4000.0 4000.0 4000.0 4000.0 4000.0 4000.0 4000.0 4000.0 4000.0 4000.0 4000.0 4000.0 4000.0 4000.0 4000.0 4000.0 4000.0 4000.0 4000.0 4000.0 4000.0 4000.0 4000.0 4000.0 4000.0 4000.0 4000.0 4000.0 4000.0 4000.0 4000.0 4000.0 4000.0 4000.0 4000.0 4000.0 4000.0 4000.0 4000.0 4000.0 4000.0 4000.0 4000.0 4000.0 4000.0 4000.0 4000.0 4000.0 4000.0 4000.0 4000.0 4000.0 4000.0 4000.0 4000.0 4000.0 4000.0 4000.0 4000.0 4000.0 4000.0 4000.0 4000.0 4000.0 4000.0 4000.0 4000.0 4000.0 4000.0 4000.0 4000.0 4000.0 4000.0 4000.0 4000.0 4000.0 4000.0 4000.0 4000.0 4000.0 4000.0 4000.0 4000.0 4000.0 4000.0 4000.0 4000.0 4000.0 4000.0 4000.0 4000.0 4000.0 4000.0 4000.0 4000.0 4000.0 4000.0 4000.0 4000.0 4000.0 4000.0 4000.0 4000.0 4000.0 4000.0 4000.0 4000.0 4000.0 4000.0 4000.0 4000.0 4000.0 4000.0 4000.0 4000.0 4000.0 4000.0 4000.0 4000.0 4000.0 4000.0 4000.0 4000.0 4000.0 4000.0 4000.0 4000.0 4000.0 4000.0 4000.0 4000.0 4000.0 4000.0 4000.0 4000.0 4000.0 4000.0 4000.0 4000.0 4000.0 4000.0 4000.0 4000.0 4000.0 4000.0 4000.0 4000.0 4000.0 4000.0 4000.0 4000.0 4000.0 4000.0 4000.0 4000.0 4000.0 4000.0 4000.0 4000.0 4000.0 4000.0 4000.0 4000.0 4000.0 4000.0 4000.0 4000.0 4000.0 4000.0 4000.0 4000.0 4000.0 4000.0 4000.0 4000.0 4000.0 4000.0 4000.0 4000.0 4000.0 4000.0 4000.0 4000.0 4000.0 4000.0 4000.0 4000.0 4000.0 4000.0 4000.0 4000.0 4000.0 4000.0 4000.0 4000.0 4000.0 4000.0 4000.0 4000.0 4000.0 4000.0 4000.0 4000.0 4000.0 4000.0 4000.0 4000.0 4000.0 4000.0 4000.0 4000.0 4000.0 4000.0 4000.0 4000.0 4000.0 4000.0 4000.0 4000.0 4000.0 4000.0 4000.0 4000.0 4000.0 4000.0 4000.0 4000.0 4000.0 4000.0 4000.0 4000.0 4000.0 4000.0 4000.0 4000.0 4000.0 4000.0 4000.0 4000.0 4000.0 4000.0 4000.0 4000.0 4000.0 4000.0 4000.0 4000.0 4000.0 4000.0 4000.0 4000.0 4000.0 4000.0 4000.0 4000.0 4000.0 4000.0 4000.0 4000.0 4000.0 4000.0 4000.0 4000.0 4000.0 4000.0 4000.0 4000.0 4000.0 4000.0 4000.0 4000.0 4000.0 4000.0 4000.0 4000.0 4000.0 4000.0 4000.0 4000.0 4000.0 4000.0 4000.0 4000.0 4000.0 4000.0 4000.0 4000.0 4000.0 4000.0 4000.0 4000.0 4000.0 4000.0 4000.0 4000.0 4000.0 4000.0 4000.0 4000.0 4000.0 4000.0 4000.0 4000.0 4000.0 4000.0 4000.0 4000.0 4000.0 4000.0 4000.0 4000.0 4000.0 4000.0 4000.0 4000.0 4000.0 4000.0 4000.0 4000.0 4000.0 4000.0 4000.0 4000.0 4000.0 4000.0 4000.0 4000.0 4000.0 4000.0 4000.0 4000.0 4000.0 4000.0 4000.0 4000.0 4000.0 4000.0 4000.0 4000.0 4000.0 4000.0 4000.0 4000.0 4000.0 4000.0 4000.0 4000.0 4000.0 4000.0 4000.0 4000.0 4000.0 4000.0 4000.0 4000.0 4000.0 4000.0 4000.0 4000.0 4000.0 4000.0 4000.0 4000.0 4000.0 4000.0 4000.0 4000.0 4000.0 4000.0 4000.0 4000.0 4000.0 4000.0 4000.0 4000.0 4000.0 4000.0 4000.0 4000.0 4000.0 4000.0 4000.0 4000.0 4000.0 4000.0 4000.0 4000.0 4000.0 4000.0 4000.0 4000.0 4000.0 4000.0 4000.0 4000.0 4000.0 4000.0 4000.0 4000.0 4000.0 4000.0 4000.0 4000.0 4000.0 4000.0 4000.0 4000.0 4000.0 4000.0 4000.0 4000.0 4000.0 4000.0 4000.0 4000.0 4000.0 4000.0 4000.0 4000.0 4000.0 4000.0 4000.0 4000.0 4000.0 4000.0 4000.0 4000.0 4000.0 4000.0 4000.0 4000.0 4000.0 4000.0 4000.0 4000.0 4000.0 4000.0 4000.0 4000.0 4000.0 4000.0 4000.0 4000.0 4000.0 4000.0 4000.0 4000.0 4000.0 4000.0 4000.0 4000.0 4000.0 4000.0 4000.0 4000.0 4000.0 4000.0 4000.0 4000.0 4000.0 4000.0 4000.0 4000.0 4000.0 4000.0 4000.0 4000.0 4000.0 4000.0 4000.0 4000.0 4000.0 4000.0 4000.0 4000.0 4000.0 4000.0 4000.0 4000.0 4000.0 4000.0 4000.0 4000.0 4000.0 4000.0 4000.0 4000.0 4000.0 4000.0 4000.0 4000.0 4000.0 4000.0 4000.0 4000.0 4000.0 4000.0 4000.0 4000.0 4000.0 4000.0 4000.0 4000.0 4000.0 4000.0 4000.0 4000.0 4000.0 4000.0 4000.0 4000.0 4000.0 4000.0 4000.0 4000.0 4000.0 4000.0 4000.0 4000.0 4000.0 4000.0 4000.0 4000.0 4000.0 4000.0 4000.0 4000.0 4000.0 4000.0 4000.0 4000.0 4000.0 4000.0 4000.0 4000.0 4000.0 4000.0 4000.0 4000.0 4000.0 4000.0 4000.0 4000.0 4000.0 4000.0 4000.0 4000.0 4000.0 4000.0 4000.0 4000.0 4000.0 4000.0 4000.0 4000.0 4000.0 4000.0 4000.0 4000.0 4000.0 4000.0 4000.0 4000.0 4000.0 4000.0 4000.0 4000.0 4000.0 4000.0 4000.0 4000.0 4000.0 4000.0 4000.0 4000.0 4000.0 4000.0 4000.0 4000.0 4000.0 4000.0 4000.0 4000.0 4000.0 4000.0 4000.0 4000.0 4000.0 4000.0 4000.0 4000.0 4000.0 4000.0 4000.0 4000.0 4000.0 4000.0 4000.0 4000.0 4000.0 4000.0 4000.0 4000.0 4000.0 4000.0 4000.0 4000.0 4000.0 4000.0 4000.0 4000.0 4000.0 4000.0 4000.0 4000.0 4000.0 4000.0 4000.0 4000.0 4000.0 4000.0 4000.0 4000.0 4000.0 4000.0 4000.0 4000.0 4000.0 4000.0 4000.0 4000.0 4000.0 4000.0 4000.0 4000.0 4000.0 4000.0 4000.0 4000.0 4000.0 4000.0 4000.0 4000.0 4000.0 4000.0 4000.0 4000.0 4000.0 4000.0 4000.0 4000.0 4000.0 4000.0 4000.0 4000.0 4000.0 4000.0 4000.0 4000.0 4000.0 4000.0 4000.0 4000.0 4000.0 4000.0 4000.0 4000.0 4000.0 4000.0 4000.0 4000.0 4000.0 4000.0 4000.0 4000.0 4000.0 4000.0 4000.0 4000.0 4000.0 4000.0 4000.0 4000.0 4000.0 4000.0 4000.0 4000.0 4000.0 4000.0 4000.0 4000.0 4000.0 4000.0 4000.0 4000.0 4000.0 4000.0 4000.0 4000.0 4000.0 4000.0 4000.0 4000.0 4000.0 4000.0 4000.0 4000.0 4000.0 4000.0 4000.0 4000.0 4000.0 4000.0 4000.0 4000.0 4000.0 4000.0 4000.0 4000.0 4000.0 4000.0 4000.0 4000.0 4000.0 4000.0 4000.0 4000.0 4000.0 4000.0 4000.0 4000.0 4000.0 4000.0 4000.0 4000.0 4000.0 4000.0 4000.0 4000.0 4000.0 4000.0 4000.0 4000.0 4000.0 4000.0 4000.0 4000.0 4000.0 4000.0 4000.0 4000.0 4000.0 4000.0 4000.0 4000.0 4000.0 4000.0 4000.0 4000.0 4000.0 4000.0 4000.0 4000.0 4000.0 4000.0 4000.0 4000.0 4000.0 4000.0 4000.0 4000.0 4000.0 4000.0 4000.0 4000.0 4000.0 4000.0 4000.0 4000.0 4000.0 4000.0 4000.0 4000.0 4000.0 4000.0 4000.0 4000.0 4000.0 4000.0 4000.0 4000.0 4000.0 4000.0 4000.0 4000.0 4000.0 4000.0 4000.0 4000.0 4000.0 4000.0 4000.0 4000.0 4000.0 4000.0 4000.0 4000.0 4000.0 4000.0 4000.0 4000.0 4000.0 4000.0 4000.0 4000.0 4000.0 4000.0 4000.0 4000.0 4000.0 4000.0 4000.0 4000.0 4000.0 4000.0 4000.0 4000.0 4000.0 4000.0 4000.0 4000.0 4000.0 4000.0 4000.0 4000.0 4000.0 4000.0 4000.0 4000.0 4000.0 4000.0 4000.0 4000.0 4000.0 4000.0 4000.0 4000.0 4000.0 4000.0 4000.0 4000.0 4000.0 4000.0 4000.0 4000.0 4000.0 4000.0 4000.0 4000.0 4000.0 4000.0 4000.0 4000.0 4000.0 4000.0 4000.0 4000.0 4000.0 4000.0 4000.0 4000.0 4000.0 4000.0 4000.0 4000.0 4000.0 4000.0 4000.0 4000.0 4000.0 4000.0 4000.0 4000.0 4000.0 4000.0 4000.0 4000.0 4000.0 4000.0 4000.0 4000.0 4000.0 4000.0 4000.0 4000.0 4000.0 4000.0 4000.0 4000.0 4000.0 4000.0 4000.0 4000.0 4000.0 4000.0 4000.0 4000.0 4000.0 4000.0 4000.0 4000.0 4000.0 4000.0 4000.0 4000.0 4000.0 4000.0 4000.0 4000.0 4000.0 4000.0 4000.0 4000.0 4000.0 4000.0 4000.0 4000.0 4000.0 4000.0 4000.0 4000.0 4000.0 4000.0 4000.0 4000.0 4000.0 4000.0 4000.0 4000.0 4000.0 4000.0 4000.0 4000.0 4000.0 4000.0 4000.0 4000.0 4000.0 4000.0 4000.0 4000.0 4000.0 4000.0 4000.0 4000.0 4000.0 4000.0 4000.0 4000.0 4000.0 4000.0 4000.0 4000.0 4000.0 4000.0 4000.0 4000.0 4000.0 4000.0 4000.0 4000.0 4000.0 4000.0 4000.0 4000.0 4000.0 4000.0 4000.0 4000.0 4000.0 4000.0 4000.0 4000.0 4000.0 4000.0 4000.0 4000.0 4000.0 4000.0 4000.0 4000.0 4000.0 4000.0 4000.0 4000.0 4000.0 4000.0 4000.0 4000.0 4000.0 4000.0 4000.0 4000.0 4000.0 4000.0 4000.0 4000.0 4000.0 4000.0 4000.0 4000.0 4000.0 4000.0 4000.0 4000.0 4000.0 4000.0 4000.0 4000.0 4000.0 4000.0 4000.0 4000.0 4000.0 4000.0 4000.0 4000.0 4000.0 4000.0 4000.0 4000.0 4000.0 4000.0 4000.0 4000.0 4000.0 4000.0 4000.0 4000.0 4000.0 4000.0 4000.0 4000.0 4000.0 4000.0 4000.0 4000.0 4000.0 4000.0 4000.0 4000.0 4000.0 4000.0 4000.0 4000.0 4000.0 4000.0 4000.0 4000.0 4000.0 4000.0 4000.0 4000.0 4000.0 4000.0 4000.0 4000.0 4000.0 4000.0 4000.0 4000.0 4000.0 4000.0 4000.0 4000.0 4000.0 4000.0 4000.0 4000.0 4000.0 4000.0 4000.0 4000.0 4000.0 4000.0 4000.0 4000.0 4000.0 4000.0 4000.0 4000.0 4000.0 4000.0 4000.0 4000.0 4000.0 4000.0 4000.0 4000.0 4000.0 4000.0 4000.0 4000.0 4000.0 4000.0 4000.0 4000.0 4000.0 4000.0 4000.0 4000.0 4000.0 4000.0 4000.0 4000.0 4000.0 4000.0 4000.0 4000.0 4000.0 4000.0 4000.0 4000.0 4000.0 4000.0 4000.0 4000.0 4000.0 4000.0 4000.0 4000.0 4000.0 4000.0 4000.0 4000.0 4000.0 4000.0 4000.0 4000.0 4000.0 4000.0 4000.0 4000.0 4000.0 4000.0 4000.0 4000.0 4000.0 4000.0 4000.0 4000.0 4000.0 4000.0 4000.0 4000.0 4000.0 4000.0 4000.0 4000.0 4000.0 4000.0 4000.0 4000.0 4000.0 4000.0 4000.0 4000.0 4000.0 4000.0 4000.0 4000.0 4000.0 4000.0 4000.0 4000.0 4000.0 4000.0 4000.0 4000.0 4000.0 4000.0 4000.0 4000.0 4000.0 4000.0 4000.0 4000.0 4000.0 4000.0 4000.0 4000.0 4000.0 4000.0 4000.0 4000.0 4000.0 4000.0 4000.0 4000.0 4000.0 4000.0 4000.0 4000.0 4000.0 4000.0 4000.0 4000.0 4000.0 4000.0 4000.0 4000.0 4000.0 4000.0 4000.0 4000.0 4000.0 4000.0 4000.0 4000.0 4000.0 4000.0 4000.0 4000.0 4000.0 4000.0 4000.0 4000.0 4000.0 4000.0 4000.0 4000.0 4000.0 4000.0 4000.0 4000.0 4000.0 4000.0 4000.0 4000.0 4000.0 4000.0 4000.0 4000.0 4000.0 4000.0 4000.0 4000.0 4000.0 4000.0 4000.0 4000.0 4000.0 4000.0 4000.0 4000.0 4000.0 4000.0 4000.0 4000.0 4000.0 4000.0 4000.0 4000.0 4000.0 4000.0 4000.0 4000.0 4000.0 4000.0 4000.0 4000.0 4000.0 4000.0 4000.0 4000.0 4000.0 4000.0 4000.0 4000.0 4000.0 4000.0 4000.0 4000.0 4000.0 4000.0 4000.0 4000.0 4000.0 4000.0 4000.0 4000.0 4000.0 4000.0 4000.0 4000.0 4000.0 4000.0 4000.0 4000.0 4000.0 4000.0 4000.0 4000.0 4000.0 4000.0 4000.0 4000.0 4000.0 4000.0 4000.0 4000.0 4000.0 4000.0 4000.0 4000.0 4000.0 4000.0 4000.0 4000.0 4000.0 4000.0 4000.0 4000.0 4000.0 4000.0 4000.0 4000.0 4000.0 4000.0 4000.0 4000.0 4000.0 4000.0 4000.0 4000.0 4000.0 4000.0 4000.0 4000.0 4000.0 4000.0 4000.0 4000.0 4000.0 4000.0 4000.0 4000.0 4000.0 4000.0 4000.0 4000.0 4000.0 4000.0 4000.0 4000.0 4000.0 4000.0 4000.0 4000.0 4000.0 4000.0 4000.0 4000.0 4000.0 4000.0 4000.0 4000.0 4000.0 4000.0 4000.0 4000.0 4000.0 4000.0 4000.0 4000.0 4000.0 4000.0 4000.0 4000.0 4000.0 4000.0 4000.0 4000.0 4000.0 4000.0 4000.0 4000.0 4000.0 4000.0 4000.0 4000.0 4000.0 4000.0 4000.0 4000.0 4000.0 4000.0 4000.0 4000.0 4000.0 4000.0 4000.0 4000.0 4000.0 4000.0 4000.0 4000.0 4000.0 4000.0 4000.0 4000.0 4000.0 4000.0 4000.0 4000.0 4000.0 4000.0 4000.0 4000.0 4000.0 4000.0 4000.0 4000.0 4000.0 4000.0 4000.0 4000.0 4000.0 4000.0 4000.0 4000.0 4000.0 4000.0 4000.0 4000.0 4000.0 4000.0 4000.0 4000.0 4000.0 4000.0 4000.0 4000.0 4000.0 4000.0 4000.0 4000.0 4000.0 4000.0 4000.0 4000.0 4000.0 4000.0 4000.0 4000.0 4000.0 4000.0 4000.0 4000.0 4000.0 4000.0 4000.0 4000.0 4000.0 4000.0 4000.0 4000.0 4000.0 4000.0 4000.0 4000.0 4000.0 4000.0 4000.0 4000.0 4000.0 4000.0 4000.0 4000.0 4000.0 4000.0 4000.0 4000.0 4000.0 4000.0 4000.0 4000.0 4000.0 4000.0 4000.0 4000.0 4000.0 4000.0 4000.0 4000.0 4000.0 4000.0 4000.0 4000.0 4000.0 4000.0 4000.0 4000.0 4000.0 4000.0 4000.0 4000.0 4000.0 4000.0 4000.0 4000.0 4000.0 4000.0 4000.0 4000.0 4000.0 4000.0 4000.0 4000.0 4000.0 4000.0 4000.0 4000.0 4000.0 4000.0 4000.0 4000.0 4000.0 4000.0 4000.0 4000.0 4000.0 4000.0 4000.0 4000.0 4000.0 4000.0 4000.0 4000.0 4000.0 4000.0 4000.0 4000.0 4000.0 4000.0 4000.0 4000.0 4000.0 4000.0 4000.0 4000.0 4000.0 4000.0 4000.0 4000.0 4000.0 4000.0 4000.0 4000.0 4000.0 4000.0 4000.0 4000.0 4000.0 4000.0 4000.0 4000.0 4000.0 4000.0 4000.0 4000.0 4000.0 4000.0 4000.0 4000.0 4000.0 4000.0 4000.0 4000.0 4000.0 4000.0 4000.0 4000.0 4000.0 4000.0 4000.0 4000.0 4000.0 4000.0 4000.0 4000.0 4000.0 4000.0 4000.0 4000.0 4000.0 4000.0 4000.0 4000.0 4000.0 4000.0 4000.0 4000.0 4000.0 4000.0 4000.0 4000.0 4000.0 4000.0 4000.0 4000.0 4000.0 4000.0 4000.0 4000.0 4000.0 4000.0 4000.0 4000.0 4000.0 4000.0 4000.0 4000.0 4000.0 4000.0 4000.0 4000.0 4000.0 4000.0 4000.0 4000.0 4000.0 4000.0 4000.0 4000.0 4000.0 4000.0 4000.0 4000.0 4000.0 4000.0 4000.0 4000.0 4000.0 4000.0 4000.0 4000.0 4000.0 4000.0 4000.0 4000.0 4000.0 4000.0 4000.0 4000.0 4000.0 4000.0 4000.0 4000.0 4000.0 4000.0 4000.0 4000.0 4000.0 4000.0 4000.0 4000.0 4000.0 4000.0 4000.0 4000.0 4000.0 4000.0 4000.0 4000.0 4000.0 4000.0 4000.0 4000.0 4000.0 4000.0 4000.0 4000.0 4000.0 4000.0 4000.0 4000.0 4000.0 4000.0 4000.0 4000.0 4000.0 4000.0 4000.0 4000.0 4000.0 4000.0 4000.0 4000.0 4000.0 4000.0 4000.0 4000.0 4000.0 4000.0 4000.0 4000.0 4000.0 4000.0 4000.0 4000.0 4000.0 4000.0 4000.0 4000.0 4000.0 4000.0 4000.0 4000.0 4000.0 4000.0 4000.0 4000.0 4000.0 4000.0 4000.0 4000.0 4000.0 4000.0 4000.0 4000.0 4000.0 4000.0 4000.0 4000.0 4000.0 4000.0 4000.0 4000.0 4000.0 4000.0 4000.0 4000.0 4000.0 4000.0 4000.0 4000.0 4000.0 4000.0 4000.0 4000.0 4000.0 4000.0 4000.0 4000.0 4000.0 4000.0 4000.0 4000.0 4000.0 4000.0 4000.0 4000.0 4000.0 4000.0 4000.0 4000.0 4000.0 4000.0 4000.0 4000.0 4000.0 4000.0 4000.0 4000.0 4000.0 4000.0 4000.0 4000.0 4000.0 4000.0 4000.0 4000.0 4000.0 4000.0 4000.0 4000.0 4000.0 4000.0 4000.0 4000.0 4000.0 4000.0 4000.0 4000.0 4000.0 4000.0 4000.0 4000.0 4000.0 4000.0 4000.0 4000.0 4000.0 4000.0 4000.0 4000.0 4000.0 4000.0 4000.0 4000.0 4000.0 4000.0 4000.0 4000.0 4000.0 4000.0 4000.0 4000.0 4000.0 4000.0 4000.0 4000.0 4000.0 4000.0 4000.0 4000.0 4000.0 4000.0 4000.0 4000.0 4000.0 4000.0 4000.0 4000.0 4000.0 4000.0 4000.0 4000.0 4000.0 4000.0 4000.0 4000.0 4000.0 4000.0 4000.0 4000.0 4000.0 4000.0 4000.0 4000.0 4000.0 4000.0 4000.0 4000.0 4000.0 4000.0 4000.0 4000.0 4000.0 4000.0 4000.0 4000.0 4000.0 4000.0 4000.0 4000.0 4000.0 4000.0 4000.0 4000.0 4000.0 4000.0 4000.0 4000.0 4000.0 4000.0 4000.0 4000.0 4000.0 4000.0 4000.0 4000.0 4000.0 4000.0 4000.0 4000.0 4000.0 4000.0 4000.0 4000.0 4000.0 4000.0 4000.0 4000.0 4000.0 4000.0 4000.0 4000.0 4000.0 4000.0 4000.0 4000.0 4000.0 4000.0 4000.0 4000.0 4000.0 4000.0 4000.0 4000.0 4000.0 4000.0 4000.0 4000.0 4000.0 4000.0 4000.0 4000.0 4000.0 4000.0 4000.0 4000.0 4000.0 4000.0 4000.0 4000.0 4000.0 4000.0 4000.0 4000.0 4000.0 4000.0 4000.0 4000.0 4000.0 4000.0 4000.0 4000.0 4000.0 4000.0 4000.0 4000.0 4000.0 4000.0 4000.0 4000.0 4000.0 4000.0 4000.0 4000.0 4000.0 4000.0 4000.0 4000.0 4000.0 4000.0 4000.0 4000.0 4000.0 4000.0 4000.0 4000.0 4000.0 4000.0 4000.0 4000.0 4000.0 4000.0 4000.0 4000.0 4000.0 4000.0 4000.0 4000.0 4000.0 4000.0 4000.0 4000.0 4000.0 4000.0 4000.0 4000.0 4000.0 4000.0 4000.0 4000.0 4000.0 4000.0 4000.0 4000.0 4000.0 4000.0 4000.0 4000.0 4000.0 4000.0 4000.0 4000.0 4000.0 4000.0 4000.0 4000.0 4000.0 4000.0 4000.0 4000.0 4000.0 4000.0 4000.0 4000.0 4000.0 4000.0 4000.0 4000.0 4000.0 4000.0 4000.0 4000.0 4000.0 4000.0 4000.0 4000.0 4000.0 4000.0 4000.0 4000.0 4000.0 4000.0 4000.0 4000.0 4000.0 4000.0 4000.0 4000.0 4000.0 4000.0 4000.0 4000.0 4000.0 4000.0 4000.0 4000.0 4000.0 4000.0 4000.0 4000.0 4000.0 4000.0 4000.0 4000.0 4000.0 4000.0 4000.0 4000.0 4000.0 4000.0 4000.0 4000.0 4000.0 4000.0 4000.0 4000.0 4000.0 4000.0 4000.0 4000.0 4000.0 4000.0 4000.0 4000.0 4000.0 4000.0 4000.0 4000.0 4000.0 4000.0 4000.0 4000.0 4000.0 4000.0 4000.0 4000.0 4000.0 4000.0 4000.0 4000.0 4000.0 4000.0 4000.0 4000.0 4000.0 4000.0 4000.0 4000.0 4000.0 4000.0 4000.0 4000.0 4000.0 4000.0 4000.0 4000.0 4000.0 4000.0 4000.0 4000.0 4000.0 4000.0 4000.0 4000.0 4000.0 4000.0 4000.0 4000.0 4000.0 4000.0 4000.0 4000.0 4000.0 4000.0 4000.0 4000.0 4000.0 4000.0 4000.0 4000.0 4000.0 4000.0 4000.0 4000.0 4000.0 4000.0 4000.0 4000.0 4000.0 4000.0 4000.0 4000.0 4000.0 4000.0 4000.0 4000.0 4000.0 4000.0 4000.0 4000.0 4000.0 4000.0 4000.0 4000.0 4000.0 4000.0 4000.0 4000.0 4000.0 4000.0 4000.0 4000.0 4000.0 4000.0 4000.0 4000.0 4000.0 4000.0 4000.0 4000.0 4000.0 4000.0 4000.0 4000.0 4000.0 4000.0 4000.0 4000.0 4000.0 4000.0 4000.0 4000.0 4000.0 4000.0 4000.0 4000.0 4000.0 4000.0 4000.0 4000.0 4000.0 4000.0 4000.0 4000.0 4000.0 4000.0 4000.0 4000.0 4000.0 4000.0 4000.0 4000.0 4000.0 4000.0 4000.0 4000.0 4000.0 4000.0 4000.0 4000.0 4000.0 4000.0 4000.0 4000.0 4000.0 4000.0 4000.0 4000.0 4000.0 4000.0 4000.0 4000.0 4000.0 4000.0 4000.0 4000.0 4000.0 4000.0 4000.0 4000.0 4000.0 4000.0 4000.0 4000.0 4000.0 4000.0 4000.0 4000.0 4000.0 4000.0 4000.0 4000.0 4000.0 4000.0 4000.0 4000.0 4000.0 4000.0 4000.0 4000.0 4000.0 4000.0 4000.0 4000.0 4000.0 4000.0 4000.0 4000.0 4000.0 4000.0 4000.0 4000.0 4000.0 4000.0 4000.0 4000.0 4000.0 4000.0 4000.0 4000.0 4000.0 4000.0 4000.0 4000.0 4000.0 4000.0 4000.0 4000.0 4000.0 4000.0 4000.0 4000.0 4000.0 4000.0 4000.0 4000.0 4000.0 4000.0 4000.0 4000.0 4000.0 4000.0 4000.0 4000.0 4000.0 4000.0 4000.0 4000.0 4000.0 4000.0 4000.0 4000.0 4000.0 4000.0 4000.0 4000.0 4000.0 4000.0 4000.0 4000.0 4000.0 4000.0 4000.0 4000.0 4000.0 4000.0 4000.0 4000.0 4000.0 4000.0 4000.0 4000.0 4000.0 4000.0 4000.0 4000.0 4000.0 4000.0 4000.0 4000.0 4000.0 4000.0 4000.0 4000.0 4000.0 4000.0 4000.0 4000.0 4000.0 4000.0 4000.0 4000.0 4000.0 4000.0 4000.0 4000.0 4000.0 4000.0 4000.0 4000.0 4000.0 4000.0 4000.0 4000.0 4000.0 4000.0 4000.0 4000.0 4000.0 4000.0 4000.0 4000.0 4000.0 4000.0 4000.0 4000.0 4000.0 4000.0 4000.0 4000.0 4000.0 4000.0 4000.0 4000.0 4000.0 4000.0 4000.0 4000.0 4000.0 4000.0 4000.0 4000.0 4000.0 4000.0 4000.0 4000.0 4000.0 4000.0 4000.0 4000.0 4000.0 4000.0 4000.0 4000.0 4000.0 4000.0 4000.0 4000.0 4000.0 4000.0 4000.0 4000.0 4000.0 4000.0 4000.0 4000.0 4000.0 4000.0 4000.0 4000.0 4000.0 4000.0 4000.0 4000.0 4000.0 4000.0 4000.0 4000.0 4000.0 4000.0 4000.0 4000.0 4000.0 4000.0 4000.0 4000.0 4000.0 4000.0 4000.0 4000.0 4000.0 4000.0 4000.0 4000.0 4000.0 4000.0 4000.0 4000.0 4000.0 4000.0 4000.0 4000.0 4000.0 4000.0 4000.0 4000.0 4000.0 4000.0 4000.0 4000.0 4000.0 4000.0 4000.0 4000.0 4000.0 4000.0 4000.0 4000.0 4000.0 4000.0 4000.0 4000.0 4000.0 4000.0 4000.0 4000.0 4000.0 4000.0 4000.0 4000.0 4000.0 4000.0 4000.0 4000.0 4000.0 4000.0 4000.0 4000.0 4000.0 4000.0 4000.0 4000.0 4000.0 4000.0 4000.0 4000.0 4000.0 4000.0 4000.0 4000.0 4000.0 4000.0 4000.0 4000.0 4000.0 4000.0 4000.0 4000.0 4000.0 4000.0 4000.0 4000.0 4000.0 4000.0 4000.0 4000.0 4000.0 4000.0 4000.0 4000.0 4000.0 4000.0 4000.0 4000.0 4000.0 4000.0 4000.0 4000.0 4000.0 4000.0 4000.0 4000.0 4000.0 4000.0 4000.0 4000.0 4000.0 4000.0 4000.0 4000.0 4000.0 4000.0 4000.0 4000.0 4000.0 4000.0 4000.0 4000.0 4000.0 4000.0 4000.0 4000.0 4000.0 4000.0 4000.0 4000.0 4000.0 4000.0 4000.0 4000.0 4000.0 4000.0 4000.0 4000.0 4000.0 4000.0 4000.0 4000.0 4000.0 4000.0 4000.0 4000.0 4000.0 4000.0 4000.0 4000.0 4000.0 4000.0 4000.0 4000.0 4000.0 4000.0 4000.0 4000.0 4000.0 4000.0 4000.0 4000.0 4000.0 4000.0 4000.0 4000.0 4000.0 4000.0 4000.0 4000.0 4000.0 4000.0 4000.0 4000.0 4000.0 4000.0 4000.0 4000.0 4000.0 4000.0 4000.0 4000.0 4000.0 4000.0 4000.0 4000.0 4000.0 4000.0 4000.0 4000.0 4000.0 4000.0 4000.0 4000.0 4000.0 4000.0 4000.0 4000.0 4000.0 4000.0 4000.0 4000.0 4000.0 4000.0 4000.0 4000.0 4000.0 4000.0 4000.0 4000.0 4000.0 4000.0 4000.0 4000.0 4000.0 4000.0 4000.0 4000.0 4000.0 4000.0 4000.0 4000.0 4000.0 4000.0 4000.0 4000.0 4000.0 4000.0 4000.0 4000.0 4000.0 4000.0 4000.0 4000.0 4000.0 4000.0 4000.0 4000.0 4000.0 4000.0 4000.0 4000.0 4000.0 4000.0 4000.0 4000.0 4000.0 4000.0 4000.0 4000.0 4000.0 4000.0 4000.0 4000.0 4000.0 4000.0 4000.0 4000.0 4000.0 4000.0 4000.0 4000.0 4000.0 4000.0 4000.0 4000.0 4000.0 4000.0 4000.0 4000.0 4000.0 4000.0 4000.0 4000.0 4000.0 4000.0 4000.0 4000.0 4000.0 4000.0 4000.0 4000.0 4000.0 4000.0 4000.0 4000.0 4000.0 4000.0 4000.0 4000.0 4000.0 4000.0 4000.0 4000.0 4000.0 4000.0 4000.0 4000.0 4000.0 4000.0 4000.0 4000.0 4000.0 4000.0 4000.0 4000.0 4000.0 4000.0 4000.0 4000.0 4000.0 4000.0 4000.0 4000.0 4000.0 4000.0 4000.0 4000.0 4000.0 4000.0 4000.0 4000.0 4000.0 4000.0 4000.0 4000.0 4000.0 4000.0 4000.0 4000.0 4000.0 4000.0 4000.0 4000.0 4000.0 4000.0 4000.0 4000.0 4000.0 4000.0 4000.0 4000.0 4000.0 4000.0 4000.0 4000.0 4000.0 4000.0 4000.0 4000.0 4000.0 4000.0 4000.0 4000.0 4000.0 4000.0 4000.0 4000.0 4000.0 4000.0 4000.0 4000.0 4000.0 4000.0 4000.0 4000.0 4000.0 4000.0 4000.0 4000.0 4000.0 4000.0 4000.0 4000.0 4000.0 4000.0 4000.0 4000.0 4000.0 4000.0 4000.0 4000.0 4000.0 4000.0 4000.0 4000.0 4000.0 4000.0 4000.0 4000.0 4000.0 4000.0 4000.0 4000.0 4000.0 4000.0 4000.0 4000.0 4000.0 4000.0 4000.0 4000.0 4000.0 4000.0 4000.0 4000.0 4000.0 4000.0 4000.0 4000.0 4000.0 4000.0 4000.0 4000.0 4000.0 4000.0 4000.0 4000.0 4000.0 4000.0 4000.0 4000.0 4000.0 4000.0 4000.0 4000.0 4000.0 4000.0 4000.0 4000.0 4000.0 4000.0 4000.0 4000.0 4000.0 4000.0 4000.0 4000.0 4000.0 4000.0 4000.0 4000.0 4000.0 4000.0 4000.0 4000.0 4000.0 4000.0 4000.0 4000.0 4000.0 4000.0 4000.0 4000.0 4000.0 4000.0 4000.0 4000.0 4000.0 4000.0 4000.0 4000.0 4000.0 4000.0 4000.0 4000.0 4000.0 4000.0 4000.0 4000.0 4000.0 4000.0 4000.0 4000.0 4000.0 4000.0 4000.0 4000.0 4000.0 4000.0 4000.0 4000.0 4000.0 4000.0 4000.0 4000.0 4000.0 4000.0 4000.0 4000.0 4000.0 4000.0 4000.0 4000.0 4000.0 4000.0 4000.0 4000.0 4000.0 4000.0 4000.0 4000.0 4000.0 4000.0 4000.0 4000.0 4000.0 4000.0 4000.0 4000.0 4000.0 4000.0 4000.0 4000.0 4000.0 4000.0 4000.0 4000.0 4000.0 4000.0 4000.0 4000.0 4000.0 4000.0 4000.0 4000.0 4000.0 4000.0 4000.0 4000.0 4000.0 4000.0 4000.0 4000.0 4000.0 4000.0 4000.0 4000.0 4000.0 4000.0 4000.0 4000.0 4000.0 4000.0 4000.0 4000.0 4000.0 4000.0 4000.0 4000.0 4000.0 4000.0 4000.0 4000.0 4000.0 4000.0 4000.0 4000.0 4000.0 4000.0 4000.0 4000.0 4000.0 4000.0 4000.0 4000.0 4000.0 4000.0 4000.0 4000.0 4000.0 4000.0 4000.0 4000.0 4000.0 4000.0 4000.0 4000.0 4000.0 4000.0 4000.0 4000.0 4000.0 4000.0 4000.0 4000.0 4000.0 4000.0 4000.0 4000.0 4000.0 4000.0 4000.0 4000.0 4000.0 4000.0 4000.0 4000.0 4000.0 4000.0 4000.0 4000.0 4000.0 4000.0 4000.0 4000.0 4000.0 4000.0 4000.0 4000.0 4000.0 4000.0 4000.0 4000.0 4000.0 4000.0 4000.0 4000.0 4000.0 4000.0 4000.0 4000.0 4000.0 4000.0 4000.0 4000.0 4000.0 4000.0 4000.0 4000.0 4000.0 4000.0 4000.0 4000.0 4000.0 4000.0 4000.0 4000.0 4000.0 4000.0 4000.0 4000.0 4000.0 4000.0 4000.0 4000.0 4000.0 4000.0 4000.0 4000.0 4000.0 4000.0 4000.0 4000.0 4000.0 4000.0 4000.0 4000.0 4000.0 4000.0 4000.0 4000.0 4000.0 4000.0 4000.0 4000.0 4000.0 4000.0 4000.0 4000.0 4000.0 4000.0 4000.0 4000.0 4000.0 4000.0 4000.0 4000.0 4000.0 4000.0 4000.0 4000.0 4000.0 4000.0 4000.0 4000.0 4000.0 4000.0 4000.0 4000.0 4000.0 4000.0 4000.0 4000.0 4000.0 4000.0 4000.0 4000.0 4000.0 4000.0 4000.0 4000.0 4000.0 4000.0 4000.0 4000.0 4000.0 4000.0 4000.0 4000.0 4000.0 4000.0 4000.0 4000.0 4000.0 4000.0 4000.0 4000.0 4000.0 4000.0 4000.0 4000.0 4000.0 4000.0 4000.0 4000.0 4000.0 4000.0 4000.0 4000.0 4000.0 4000.0 4000.0 4000.0 4000.0 4000.0 4000.0 4000.0 4000.0 4000.0 4000.0 4000.0 4000.0 4000.0 4000.0 4000.0 4000.0 4000.0 4000.0 4000.0 4000.0 4000.0 4000.0 4000.0 4000.0 4000.0 4000.0 4000.0 4000.0 4000.0 4000.0 4000.0 4000.0 4000.0 4000.0 4000.0 4000.0 4000.0 4000.0 4000.0 4000.0 4000.0 4000.0 4000.0 4000.0 4000.0 4000.0 4000.0 4000.0 4000.0 4000.0 4000.0 4000.0 4000.0 4000.0 4000.0 4000.0 4000.0 4000.0 4000.0 4000.0 4000.0 4000.0 4000.0 4000.0 4000.0 4000.0 4000.0 4000.0 4000.0 4000.0 4000.0 4000.0 4000.0 4000.0 4000.0 4000.0 4000.0 4000.0 4000.0 4000.0 4000.0 4000.0 4000.0 4000.0 4000.0 4000.0 4000.0 4000.0 4000.0 4000.0 4000.0 4000.0 4000.0 4000.0 4000.0 4000.0 4000.0 4000.0 4000.0 4000.0 4000.0 4000.0 4000.0 4000.0 4000.0 4000.0 4000.0 4000.0 4000.0 4000.0 4000.0 4000.0 4000.0 4000.0 4000.0 4000.0 4000.0 4000.0 4000.0 4000.0 4000.0 4000.0 4000.0 4000.0 4000.0 4000.0 4000.0 4000.0 4000.0 4000.0 4000.0 4000.0 4000.0 4000.0 4000.0 4000.0 4000.0 4000.0 4000.0 4000.0 4000.0 4000.0 4000.0 4000.0 4000.0 4000.0 4000.0 4000.0 4000.0 4000.0 4000.0 4000.0 4000.0 4000.0 4000.0 4000.0 4000.0 4000.0 4000.0 4000.0 4000.0 4000.0 4000.0 4000.0 4000.0 4000.0 4000.0 4000.0 4000.0 4000.0 4000.0 4000.0 4000.0 4000.0 4000.0 4000.0 4000.0 4000.0 4000.0 4000.0 4000.0 4000.0 4000.0 4000.0 4000.0 4000.0 4000.0 4000.0 4000.0 4000.0 4000.0 4000.0 4000.0 4000.0 4000.0 4000.0 4000.0 4000.0 4000.0 4000.0 4000.0 4000.0 4000.0 4000.0 4000.0 4000.0 4000.0 4000.0 4000.0 4000.0 4000.0 4000.0 4000.0 4000.0 4000.0 4000.0 4000.0 4000.0 4000.0 4000.0 4000.0 4000.0 4000.0 4000.0 4000.0 4000.0 4000.0 4000.0 4000.0 4000.0 4000.0 4000.0 4000.0 4000.0 4000.0 4000.0 4000.0 4000.0 4000.0 4000.0 4000.0 4000.0 4000.0 4000.0 4000.0 4000.0 4000.0 4000.0 4000.0 4000.0 4000.0 4000.0 4000.0 4000.0 4000.0 4000.0 4000.0 4000.0 4000.0 4000.0 4000.0 4000.0 4000.0 4000.0 4000.0 4000.0 4000.0 4000.0 4000.0 4000.0 4000.0 4000.0 4000.0 4000.0 4000.0 4000.0 4000.0 4000.0 4000.0 4000.0 4000.0 4000.0 4000.0 4000.0 4000.0 4000.0 4000.0 4000.0 4000.0 4000.0 4000.0 4000.0 4000.0 4000.0 4000.0 4000.0 4000.0 4000.0 4000.0 4000.0 4000.0 4000.0 4000.0 4000.0 4000.0 4000.0 4000.0 4000.0 4000.0 4000.0 4000.0 4000.0 4000.0 4000.0 4000.0 4000.0 4000.0 4000.0 4000.0 4000.0 4000.0 4000.0 4000.0 4000.0 4000.0 4000.0 4000.0 4000.0 4000.0 4000.0 4000.0 4000.0 4000.0 4000.0 4000.0 4000.0 4000.0 4000.0 4000.0 4000.0 4000.0 4000.0 4000.0 4000.0 4000.0 4000.0 4000.0 4000.0 4000.0 4000.0 4000.0 4000.0 4000.0 4000.0 4000.0 4000.0 4000.0 4000.0 4000.0 4000.0 4000.0 4000.0 4000.0 4000.0 4000.0 4000.0 4000.0 4000.0 4000.0 4000.0 4000.0 4000.0 4000.0 4000.0 4000.0 4000.0 4000.0 4000.0 4000.0 4000.0 4000.0 4000.0 4000.0 4000.0 4000.0 4000.0 4000.0 4000.0 4000.0 4000.0 4000.0 4000.0 4000.0 4000.0 4000.0 4000.0 4000.0 4000.0 4000.0 4000.0 4000.0 4000.0 4000.0 4000.0 4000.0 4000.0 4000.0 4000.0 4000.0 4000.0 4000.0 4000.0 4000.0 4000.0 4000.0 4000.0 4000.0 4000.0 4000.0 4000.0 4000.0 4000.0 4000.0 4000.0 4000.0 4000.0 4000.0 4000.0 4000.0 4000.0 4000.0 4000.0 4000.0 4000.0 4000.0 4000.0 4000.0 4000.0 4000.0 4000.0 4000.0 4000.0 4000.0 4000.0 4000.0 4000.0 4000.0 4000.0 4000.0 4000.0 4000.0 4000.0 4000.0 4000.0 4000.0 4000.0 4000.0 4000.0 4000.0 4000.0 4000.0 4000.0 4000.0 4000.0 4000.0 4000.0 4000.0 4000.0 4000.0 4000.0 4000.0 4000.0 4000.0 4000.0 4000.0 4000.0 4000.0 4000.0 4000.0 4000.0 4000.0 4000.0 4000.0 4000.0 4000.0 4000.0 4000.0 4000.0 4000.0 4000.0 4000.0 4000.0 4000.0 4000.0 4000.0 4000.0 4000.0 4000.0 4000.0 4000.0 4000.0 4000.0 4000.0 4000.0 4000.0 4000.0 4000.0 4000.0 4000.0 4000.0 4000.0 4000.0 4000.0 4000.0 4000.0 4000.0 4000.0 4000.0 4000.0 4000.0 4000.0 4000.0 4000.0 4000.0 4000.0 4000.0 4000.0 4000.0 4000.0 4000.0 4000.0 4000.0 4000.0 4000.0 4000.0 4000.0 4000.0 4000.0 4000.0 4000.0 4000.0 4000.0 4000.0 4000.0 4000.0 4000.0 4000.0 4000.0 4000.0 4000.0 4000.0 4000.0 4000.0 4000.0 4000.0 4000.0 4000.0 4000.0 4000.0 4000.0 4000.0 4000.0 4000.0 4000.0 4000.0 4000.0 4000.0 4000.0 4000.0 4000.0 4000.0 4000.0 4000.0 4000.0 4000.0 4000.0 4000.0 4000.0 4000.0 4000.0 4000.0 4000.0 4000.0 4000.0 4000.0 4000.0 4000.0 4000.0 4000.0 4000.0 4000.0 4000.0 4000.0 4000.0 4000.0 4000.0 4000.0 4000.0 4000.0 4000.0 4000.0 4000.0 4000.0 4000.0 4000.0 4000.0 4000.0 4000.0 4000.0 4000.0 4000.0 4000.0 4000.0 4000.0 4000.0 4000.0 4000.0 4000.0 4000.0 4000.0 4000.0 4000.0 4000.0 4000.0 4000.0 4000.0 4000.0 4000.0 4000.0 4000.0 4000.0 4000.0 4000.0 4000.0 4000.0 4000.0 4000.0 4000.0 4000.0 4000.0 4000.0 4000.0 4000.0 4000.0 4000.0 4000.0 4000.0 4000.0 4000.0 4000.0 4000.0 4000.0 4000.0 4000.0 4000.0 4000.0 4000.0 4000.0 4000.0 4000.0 4000.0 4000.0 4000.0 4000.0 4000.0 4000.0 4000.0 4000.0 4000.0 4000.0 4000.0 4000.0 4000.0 4000.0 4000.0 4000.0 4000.0 4000.0 4000.0 4000.0 4000.0 4000.0 4000.0 4000.0 4000.0 4000.0 4000.0 4000.0 4000.0 4000.0 4000.0 4000.0 4000.0 4000.0 4000.0 4000.0 4000.0 4000.0 4000.0 4000.0 4000.0 4000.0 4000.0 4000.0 4000.0 4000.0 4000.0 4000.0 4000.0 4000.0 4000.0 4000.0 4000.0 4000.0 4000.0 4000.0 4000.0 4000.0 4000.0 4000.0 4000.0 4000.0 4000.0 4000.0 4000.0 4000.0 4000.0 4000.0 4000.0 4000.0 4000.0 4000.0 4000.0 4000.0 4000.0 4000.0 4000.0 4000.0 4000.0 4000.0 4000.0 4000.0 4000.0 4000.0 4000.0 4000.0 4000.0 4000.0 4000.0 4000.0 4000.0 4000.0 4000.0 4000.0 4000.0 4000.0 4000.0 4000.0 4000.0 4000.0 4000.0 4000.0 4000.0 4000.0 4000.0 4000.0 4000.0 4000.0 4000.0 4000.0 4000.0 4000.0 4000.0 4000.0 4000.0 4000.0 4000.0 4000.0 4000.0 4000.0 4000.0 4000.0 4000.0 4000.0 4000.0 4000.0 4000.0 4000.0 4000.0 4000.0 4000.0 4000.0 4000.0 4000.0 4000.0 4000.0 4000.0 4000.0 4000.0 4000.0 4000.0 4000.0 4000.0 4000.0 4000.0 4000.0 4000.0 4000.0 4000.0 4000.0 4000.0 4000.0 4000.0 4000.0 4000.0 4000.0 4000.0 4000.0 4000.0 4000.0 4000.0 4000.0 4000.0 4000.0 4000.0 4000.0 4000.0 4000.0 4000.0 4000.0 4000.0 4000.0 4000.0 4000.0 4000.0 4000.0 4000.0 4000.0 4000.0 4000.0 4000.0 4000.0 4000.0 4000.0 4000.0 4000.0 4000.0 4000.0 4000.0 4000.0 4000.0 4000.0 4000.0 4000.0 4000.0 4000.0 4000.0 4000.0 4000.0 4000.0 4000.0 4000.0 4000.0 4000.0 4000.0 4000.0 4000.0 4000.0 4000.0 4000.0 4000.0 4000.0 4000.0 4000.0 4000.0 4000.0 4000.0 4000.0 4000.0 4000.0 4000.0 4000.0 4000.0 4000.0 4000.0 4000.0 4000.0 4000.0 4000.0 4000.0 4000.0 4000.0 4000.0 4000.0 4000.0 4000.0 4000.0 4000.0 4000.0 4000.0 4000.0 4000.0 4000.0 4000.0 4000.0 4000.0 4000.0 4000.0 4000.0 4000.0 4000.0 4000.0 4000.0 4000.0 4000.0 4000.0 4000.0 4000.0 4000.0 4000.0 4000.0 4000.0 4000.0 4000.0 4000.0 4000.0 4000.0 4000.0 4000.0 4000.0 4000.0 4000.0 4000.0 4000.0 4000.0 4000.0 SCALARS Mass float 1
LOOKUP_TABLE default
11309700000.0 11309700000.0 11309700000.0 11309700000.0 11309700000.0 11309700000.0 11309700000.0 11309700000.0 11309700000.0 11309700000.0 11309700000.0 11309700000.0 11309700000.0 11309700000.0 11309700000.0 11309700000.0 11309700000.0 11309700000.0 11309700000.0 11309700000.0 11309700000.0 11309700000.0 11309700000.0 11309700000.0 11309700000.0 11309700000.0 11309700000.0 11309700000.0 11309700000.0 11309700000.0 11309700000.0 11309700000.0 11309700000.0 11309700000.0 11309700000.0 11309700000.0 11309700000.0 11309700000.0 11309700000.0 11309700000.0 11309700000.0 11309700000.0 11309700000.0 11309700000.0 11309700000.0 11309700000.0 11309700000.0 11309700000.0 11309700000.0 11309700000.0 11309700000.0 11309700000.0 11309700000.0 11309700000.0 11309700000.0 11309700000.0 11309700000.0 11309700000.0 11309700000.0 11309700000.0 11309700000.0 11309700000.0 11309700000.0 11309700000.0 11309700000.0 11309700000.0 11309700000.0 11309700000.0 11309700000.0 11309700000.0 11309700000.0 11309700000.0 11309700000.0 11309700000.0 11309700000.0 11309700000.0 11309700000.0 11309700000.0 11309700000.0 11309700000.0 11309700000.0 11309700000.0 11309700000.0 11309700000.0 11309700000.0 11309700000.0 11309700000.0 11309700000.0 11309700000.0 11309700000.0 11309700000.0 11309700000.0 11309700000.0 11309700000.0 11309700000.0 11309700000.0 11309700000.0 11309700000.0 11309700000.0 11309700000.0 11309700000.0 11309700000.0 11309700000.0 11309700000.0 11309700000.0 11309700000.0 11309700000.0 11309700000.0 11309700000.0 11309700000.0 11309700000.0 11309700000.0 11309700000.0 11309700000.0 11309700000.0 11309700000.0 11309700000.0 11309700000.0 11309700000.0 11309700000.0 11309700000.0 11309700000.0 11309700000.0 11309700000.0 11309700000.0 11309700000.0 11309700000.0 11309700000.0 11309700000.0 11309700000.0 11309700000.0 11309700000.0 11309700000.0 11309700000.0 11309700000.0 11309700000.0 11309700000.0 11309700000.0 11309700000.0 11309700000.0 11309700000.0 11309700000.0 11309700000.0 11309700000.0 11309700000.0 11309700000.0 11309700000.0 11309700000.0 11309700000.0 11309700000.0 11309700000.0 11309700000.0 11309700000.0 11309700000.0 11309700000.0 11309700000.0 11309700000.0 11309700000.0 11309700000.0 11309700000.0 11309700000.0 11309700000.0 11309700000.0 11309700000.0 11309700000.0 11309700000.0 11309700000.0 11309700000.0 11309700000.0 11309700000.0 11309700000.0 11309700000.0 11309700000.0 11309700000.0 11309700000.0 11309700000.0 11309700000.0 11309700000.0 11309700000.0 11309700000.0 11309700000.0 11309700000.0 11309700000.0 11309700000.0 11309700000.0 11309700000.0 11309700000.0 11309700000.0 11309700000.0 11309700000.0 11309700000.0 11309700000.0 11309700000.0 11309700000.0 11309700000.0 11309700000.0 11309700000.0 11309700000.0 11309700000.0 11309700000.0 11309700000.0 11309700000.0 11309700000.0 11309700000.0 11309700000.0 11309700000.0 11309700000.0 11309700000.0 11309700000.0 11309700000.0 11309700000.0 11309700000.0 11309700000.0 11309700000.0 11309700000.0 11309700000.0 11309700000.0 11309700000.0 11309700000.0 11309700000.0 11309700000.0 11309700000.0 11309700000.0 11309700000.0 11309700000.0 11309700000.0 11309700000.0 11309700000.0 11309700000.0 11309700000.0 11309700000.0 11309700000.0 11309700000.0 11309700000.0 11309700000.0 11309700000.0 11309700000.0 11309700000.0 11309700000.0 11309700000.0 11309700000.0 11309700000.0 11309700000.0 11309700000.0 11309700000.0 11309700000.0 11309700000.0 11309700000.0 11309700000.0 11309700000.0 11309700000.0 11309700000.0 11309700000.0 11309700000.0 11309700000.0 11309700000.0 11309700000.0 11309700000.0 11309700000.0 11309700000.0 11309700000.0 11309700000.0 11309700000.0 11309700000.0 11309700000.0 11309700000.0 11309700000.0 11309700000.0 11309700000.0 11309700000.0 11309700000.0 11309700000.0 11309700000.0 11309700000.0 11309700000.0 11309700000.0 11309700000.0 11309700000.0 11309700000.0 11309700000.0 11309700000.0 11309700000.0 11309700000.0 11309700000.0 11309700000.0 11309700000.0 11309700000.0 11309700000.0 11309700000.0 11309700000.0 11309700000.0 11309700000.0 11309700000.0 11309700000.0 11309700000.0 11309700000.0 11309700000.0 11309700000.0 11309700000.0 11309700000.0 11309700000.0 11309700000.0 11309700000.0 11309700000.0 11309700000.0 11309700000.0 11309700000.0 11309700000.0 11309700000.0 11309700000.0 11309700000.0 11309700000.0 11309700000.0 11309700000.0 11309700000.0 11309700000.0 11309700000.0 11309700000.0 11309700000.0 11309700000.0 11309700000.0 11309700000.0 11309700000.0 11309700000.0 11309700000.0 11309700000.0 11309700000.0 11309700000.0 11309700000.0 11309700000.0 11309700000.0 11309700000.0 11309700000.0 11309700000.0 11309700000.0 11309700000.0 11309700000.0 11309700000.0 11309700000.0 11309700000.0 11309700000.0 11309700000.0 11309700000.0 11309700000.0 11309700000.0 11309700000.0 11309700000.0 11309700000.0 11309700000.0 11309700000.0 11309700000.0 11309700000.0 11309700000.0 11309700000.0 11309700000.0 11309700000.0 11309700000.0 11309700000.0 11309700000.0 11309700000.0 11309700000.0 11309700000.0 11309700000.0 11309700000.0 11309700000.0 11309700000.0 11309700000.0 11309700000.0 11309700000.0 11309700000.0 11309700000.0 11309700000.0 11309700000.0 11309700000.0 11309700000.0 11309700000.0 11309700000.0 11309700000.0 11309700000.0 11309700000.0 11309700000.0 11309700000.0 11309700000.0 11309700000.0 11309700000.0 11309700000.0 11309700000.0 11309700000.0 11309700000.0 11309700000.0 11309700000.0 11309700000.0 11309700000.0 11309700000.0 11309700000.0 11309700000.0 11309700000.0 11309700000.0 11309700000.0 11309700000.0 11309700000.0 11309700000.0 11309700000.0 11309700000.0 11309700000.0 11309700000.0 11309700000.0 11309700000.0 11309700000.0 11309700000.0 11309700000.0 11309700000.0 11309700000.0 11309700000.0 11309700000.0 11309700000.0 11309700000.0 11309700000.0 11309700000.0 11309700000.0 11309700000.0 11309700000.0 11309700000.0 11309700000.0 11309700000.0 11309700000.0 11309700000.0 11309700000.0 11309700000.0 11309700000.0 11309700000.0 11309700000.0 11309700000.0 11309700000.0 11309700000.0 11309700000.0 11309700000.0 11309700000.0 11309700000.0 11309700000.0 11309700000.0 11309700000.0 11309700000.0 11309700000.0 11309700000.0 11309700000.0 11309700000.0 11309700000.0 11309700000.0 11309700000.0 11309700000.0 11309700000.0 11309700000.0 11309700000.0 11309700000.0 11309700000.0 11309700000.0 11309700000.0 11309700000.0 11309700000.0 11309700000.0 11309700000.0 11309700000.0 11309700000.0 11309700000.0 11309700000.0 11309700000.0 11309700000.0 11309700000.0 11309700000.0 11309700000.0 11309700000.0 11309700000.0 11309700000.0 11309700000.0 11309700000.0 11309700000.0 11309700000.0 11309700000.0 11309700000.0 11309700000.0 11309700000.0 11309700000.0 11309700000.0 11309700000.0 11309700000.0 11309700000.0 11309700000.0 11309700000.0 11309700000.0 11309700000.0 11309700000.0 11309700000.0 11309700000.0 11309700000.0 11309700000.0 11309700000.0 11309700000.0 11309700000.0 11309700000.0 11309700000.0 11309700000.0 11309700000.0 11309700000.0 11309700000.0 11309700000.0 11309700000.0 11309700000.0 11309700000.0 11309700000.0 11309700000.0 11309700000.0 11309700000.0 11309700000.0 11309700000.0 11309700000.0 11309700000.0 11309700000.0 11309700000.0 11309700000.0 11309700000.0 11309700000.0 11309700000.0 11309700000.0 11309700000.0 11309700000.0 11309700000.0 11309700000.0 11309700000.0 11309700000.0 11309700000.0 11309700000.0 11309700000.0 11309700000.0 11309700000.0 11309700000.0 11309700000.0 11309700000.0 11309700000.0 11309700000.0 11309700000.0 11309700000.0 11309700000.0 11309700000.0 11309700000.0 11309700000.0 11309700000.0 11309700000.0 11309700000.0 11309700000.0 11309700000.0 11309700000.0 11309700000.0 11309700000.0 11309700000.0 11309700000.0 11309700000.0 11309700000.0 11309700000.0 11309700000.0 11309700000.0 11309700000.0 11309700000.0 11309700000.0 11309700000.0 11309700000.0 11309700000.0 11309700000.0 11309700000.0 11309700000.0 11309700000.0 11309700000.0 11309700000.0 11309700000.0 11309700000.0 11309700000.0 11309700000.0 11309700000.0 11309700000.0 11309700000.0 11309700000.0 11309700000.0 11309700000.0 11309700000.0 11309700000.0 11309700000.0 11309700000.0 11309700000.0 11309700000.0 11309700000.0 11309700000.0 11309700000.0 11309700000.0 11309700000.0 11309700000.0 11309700000.0 11309700000.0 11309700000.0 11309700000.0 11309700000.0 11309700000.0 11309700000.0 11309700000.0 11309700000.0 11309700000.0 11309700000.0 11309700000.0 11309700000.0 11309700000.0 11309700000.0 11309700000.0 11309700000.0 11309700000.0 11309700000.0 11309700000.0 11309700000.0 11309700000.0 11309700000.0 11309700000.0 11309700000.0 11309700000.0 11309700000.0 11309700000.0 11309700000.0 11309700000.0 11309700000.0 11309700000.0 11309700000.0 11309700000.0 11309700000.0 11309700000.0 11309700000.0 11309700000.0 11309700000.0 11309700000.0 11309700000.0 11309700000.0 11309700000.0 11309700000.0 11309700000.0 11309700000.0 11309700000.0 11309700000.0 11309700000.0 11309700000.0 11309700000.0 11309700000.0 11309700000.0 11309700000.0 11309700000.0 11309700000.0 11309700000.0 11309700000.0 11309700000.0 11309700000.0 11309700000.0 11309700000.0 11309700000.0 11309700000.0 11309700000.0 11309700000.0 11309700000.0 11309700000.0 11309700000.0 11309700000.0 11309700000.0 11309700000.0 11309700000.0 11309700000.0 11309700000.0 11309700000.0 11309700000.0 11309700000.0 11309700000.0 11309700000.0 11309700000.0 11309700000.0 11309700000.0 11309700000.0 11309700000.0 11309700000.0 11309700000.0 11309700000.0 11309700000.0 11309700000.0 11309700000.0 11309700000.0 11309700000.0 11309700000.0 11309700000.0 11309700000.0 11309700000.0 11309700000.0 11309700000.0 11309700000.0 11309700000.0 11309700000.0 11309700000.0 11309700000.0 11309700000.0 11309700000.0 11309700000.0 11309700000.0 11309700000.0 11309700000.0 11309700000.0 11309700000.0 11309700000.0 11309700000.0 11309700000.0 11309700000.0 11309700000.0 11309700000.0 11309700000.0 11309700000.0 11309700000.0 11309700000.0 11309700000.0 11309700000.0 11309700000.0 11309700000.0 11309700000.0 11309700000.0 11309700000.0 11309700000.0 11309700000.0 11309700000.0 11309700000.0 11309700000.0 11309700000.0 11309700000.0 11309700000.0 11309700000.0 11309700000.0 11309700000.0 11309700000.0 11309700000.0 11309700000.0 11309700000.0 11309700000.0 11309700000.0 11309700000.0 11309700000.0 11309700000.0 11309700000.0 11309700000.0 11309700000.0 11309700000.0 11309700000.0 11309700000.0 11309700000.0 11309700000.0 11309700000.0 11309700000.0 11309700000.0 11309700000.0 11309700000.0 11309700000.0 11309700000.0 11309700000.0 11309700000.0 11309700000.0 11309700000.0 11309700000.0 11309700000.0 11309700000.0 11309700000.0 11309700000.0 11309700000.0 11309700000.0 11309700000.0 11309700000.0 11309700000.0 11309700000.0 11309700000.0 11309700000.0 11309700000.0 11309700000.0 11309700000.0 11309700000.0 11309700000.0 11309700000.0 11309700000.0 11309700000.0 11309700000.0 11309700000.0 11309700000.0 11309700000.0 11309700000.0 11309700000.0 11309700000.0 11309700000.0 11309700000.0 11309700000.0 11309700000.0 11309700000.0 11309700000.0 11309700000.0 11309700000.0 11309700000.0 11309700000.0 11309700000.0 11309700000.0 11309700000.0 11309700000.0 11309700000.0 11309700000.0 11309700000.0 11309700000.0 11309700000.0 11309700000.0 11309700000.0 11309700000.0 11309700000.0 11309700000.0 11309700000.0 11309700000.0 11309700000.0 11309700000.0 11309700000.0 11309700000.0 11309700000.0 11309700000.0 11309700000.0 11309700000.0 11309700000.0 11309700000.0 11309700000.0 11309700000.0 11309700000.0 11309700000.0 11309700000.0 11309700000.0 11309700000.0 11309700000.0 11309700000.0 11309700000.0 11309700000.0 11309700000.0 11309700000.0 11309700000.0 11309700000.0 11309700000.0 11309700000.0 11309700000.0 11309700000.0 11309700000.0 11309700000.0 11309700000.0 11309700000.0 11309700000.0 11309700000.0 11309700000.0 11309700000.0 11309700000.0 11309700000.0 11309700000.0 11309700000.0 11309700000.0 11309700000.0 11309700000.0 11309700000.0 11309700000.0 11309700000.0 11309700000.0 11309700000.0 11309700000.0 11309700000.0 11309700000.0 11309700000.0 11309700000.0 11309700000.0 11309700000.0 11309700000.0 11309700000.0 11309700000.0 11309700000.0 11309700000.0 11309700000.0 11309700000.0 11309700000.0 11309700000.0 11309700000.0 11309700000.0 11309700000.0 11309700000.0 11309700000.0 11309700000.0 11309700000.0 11309700000.0 11309700000.0 11309700000.0 11309700000.0 11309700000.0 11309700000.0 11309700000.0 11309700000.0 11309700000.0 11309700000.0 11309700000.0 11309700000.0 11309700000.0 11309700000.0 11309700000.0 11309700000.0 11309700000.0 11309700000.0 11309700000.0 11309700000.0 11309700000.0 11309700000.0 11309700000.0 11309700000.0 11309700000.0 11309700000.0 11309700000.0 11309700000.0 11309700000.0 11309700000.0 11309700000.0 11309700000.0 11309700000.0 11309700000.0 11309700000.0 11309700000.0 11309700000.0 11309700000.0 11309700000.0 11309700000.0 11309700000.0 11309700000.0 11309700000.0 11309700000.0 11309700000.0 11309700000.0 11309700000.0 11309700000.0 11309700000.0 11309700000.0 11309700000.0 11309700000.0 11309700000.0 11309700000.0 11309700000.0 11309700000.0 11309700000.0 11309700000.0 11309700000.0 11309700000.0 11309700000.0 11309700000.0 11309700000.0 11309700000.0 11309700000.0 11309700000.0 11309700000.0 11309700000.0 11309700000.0 11309700000.0 11309700000.0 11309700000.0 11309700000.0 11309700000.0 11309700000.0 11309700000.0 11309700000.0 11309700000.0 11309700000.0 11309700000.0 11309700000.0 11309700000.0 11309700000.0 11309700000.0 11309700000.0 11309700000.0 11309700000.0 11309700000.0 11309700000.0 11309700000.0 11309700000.0 11309700000.0 11309700000.0 11309700000.0 11309700000.0 11309700000.0 11309700000.0 11309700000.0 11309700000.0 11309700000.0 11309700000.0 11309700000.0 11309700000.0 11309700000.0 11309700000.0 11309700000.0 11309700000.0 11309700000.0 11309700000.0 11309700000.0 11309700000.0 11309700000.0 11309700000.0 11309700000.0 11309700000.0 11309700000.0 11309700000.0 11309700000.0 11309700000.0 11309700000.0 11309700000.0 11309700000.0 11309700000.0 11309700000.0 11309700000.0 11309700000.0 11309700000.0 11309700000.0 11309700000.0 11309700000.0 11309700000.0 11309700000.0 11309700000.0 11309700000.0 11309700000.0 11309700000.0 11309700000.0 11309700000.0 11309700000.0 11309700000.0 11309700000.0 11309700000.0 11309700000.0 11309700000.0 11309700000.0 11309700000.0 11309700000.0 11309700000.0 11309700000.0 11309700000.0 11309700000.0 11309700000.0 11309700000.0 11309700000.0 11309700000.0 11309700000.0 11309700000.0 11309700000.0 11309700000.0 11309700000.0 11309700000.0 11309700000.0 11309700000.0 11309700000.0 11309700000.0 11309700000.0 11309700000.0 11309700000.0 11309700000.0 11309700000.0 11309700000.0 11309700000.0 11309700000.0 11309700000.0 11309700000.0 11309700000.0 11309700000.0 11309700000.0 11309700000.0 11309700000.0 11309700000.0 11309700000.0 11309700000.0 11309700000.0 11309700000.0 11309700000.0 11309700000.0 11309700000.0 11309700000.0 11309700000.0 11309700000.0 11309700000.0 11309700000.0 11309700000.0 11309700000.0 11309700000.0 11309700000.0 11309700000.0 11309700000.0 11309700000.0 11309700000.0 11309700000.0 11309700000.0 11309700000.0 11309700000.0 11309700000.0 11309700000.0 11309700000.0 11309700000.0 11309700000.0 11309700000.0 11309700000.0 11309700000.0 11309700000.0 11309700000.0 11309700000.0 11309700000.0 11309700000.0 11309700000.0 11309700000.0 11309700000.0 11309700000.0 11309700000.0 11309700000.0 11309700000.0 11309700000.0 11309700000.0 11309700000.0 11309700000.0 11309700000.0 11309700000.0 11309700000.0 11309700000.0 11309700000.0 11309700000.0 11309700000.0 11309700000.0 11309700000.0 11309700000.0 11309700000.0 11309700000.0 11309700000.0 11309700000.0 11309700000.0 11309700000.0 11309700000.0 11309700000.0 11309700000.0 11309700000.0 11309700000.0 11309700000.0 11309700000.0 11309700000.0 11309700000.0 11309700000.0 11309700000.0 11309700000.0 11309700000.0 11309700000.0 11309700000.0 11309700000.0 11309700000.0 11309700000.0 11309700000.0 11309700000.0 11309700000.0 11309700000.0 11309700000.0 11309700000.0 11309700000.0 11309700000.0 11309700000.0 11309700000.0 11309700000.0 11309700000.0 11309700000.0 11309700000.0 11309700000.0 11309700000.0 11309700000.0 11309700000.0 11309700000.0 11309700000.0 11309700000.0 11309700000.0 11309700000.0 11309700000.0 11309700000.0 11309700000.0 11309700000.0 11309700000.0 11309700000.0 11309700000.0 11309700000.0 11309700000.0 11309700000.0 11309700000.0 11309700000.0 11309700000.0 11309700000.0 11309700000.0 11309700000.0 11309700000.0 11309700000.0 11309700000.0 11309700000.0 11309700000.0 11309700000.0 11309700000.0 11309700000.0 11309700000.0 11309700000.0 11309700000.0 11309700000.0 11309700000.0 11309700000.0 11309700000.0 11309700000.0 11309700000.0 11309700000.0 11309700000.0 11309700000.0 11309700000.0 11309700000.0 11309700000.0 11309700000.0 11309700000.0 11309700000.0 11309700000.0 11309700000.0 11309700000.0 11309700000.0 11309700000.0 11309700000.0 11309700000.0 11309700000.0 11309700000.0 11309700000.0 11309700000.0 11309700000.0 11309700000.0 11309700000.0 11309700000.0 11309700000.0 11309700000.0 11309700000.0 11309700000.0 11309700000.0 11309700000.0 11309700000.0 11309700000.0 11309700000.0 11309700000.0 11309700000.0 11309700000.0 11309700000.0 11309700000.0 11309700000.0 11309700000.0 11309700000.0 11309700000.0 11309700000.0 11309700000.0 11309700000.0 11309700000.0 11309700000.0 11309700000.0 11309700000.0 11309700000.0 11309700000.0 11309700000.0 11309700000.0 11309700000.0 11309700000.0 11309700000.0 11309700000.0 11309700000.0 11309700000.0 11309700000.0 11309700000.0 11309700000.0 11309700000.0 11309700000.0 11309700000.0 11309700000.0 11309700000.0 11309700000.0 11309700000.0 11309700000.0 11309700000.0 11309700000.0 11309700000.0 11309700000.0 11309700000.0 11309700000.0 11309700000.0 11309700000.0 11309700000.0 11309700000.0 11309700000.0 11309700000.0 11309700000.0 11309700000.0 11309700000.0 11309700000.0 11309700000.0 11309700000.0 11309700000.0 11309700000.0 11309700000.0 11309700000.0 11309700000.0 11309700000.0 11309700000.0 11309700000.0 11309700000.0 11309700000.0 11309700000.0 11309700000.0 11309700000.0 11309700000.0 11309700000.0 11309700000.0 11309700000.0 11309700000.0 11309700000.0 11309700000.0 11309700000.0 11309700000.0 11309700000.0 11309700000.0 11309700000.0 11309700000.0 11309700000.0 11309700000.0 11309700000.0 11309700000.0 11309700000.0 11309700000.0 11309700000.0 11309700000.0 11309700000.0 11309700000.0 11309700000.0 11309700000.0 11309700000.0 11309700000.0 11309700000.0 11309700000.0 11309700000.0 11309700000.0 11309700000.0 11309700000.0 11309700000.0 11309700000.0 11309700000.0 11309700000.0 11309700000.0 11309700000.0 11309700000.0 11309700000.0 11309700000.0 11309700000.0 11309700000.0 11309700000.0 11309700000.0 11309700000.0 11309700000.0 11309700000.0 11309700000.0 11309700000.0 11309700000.0 11309700000.0 11309700000.0 11309700000.0 11309700000.0 11309700000.0 11309700000.0 11309700000.0 11309700000.0 11309700000.0 11309700000.0 11309700000.0 11309700000.0 11309700000.0 11309700000.0 11309700000.0 11309700000.0 11309700000.0 11309700000.0 11309700000.0 11309700000.0 11309700000.0 11309700000.0 11309700000.0 11309700000.0 11309700000.0 11309700000.0 11309700000.0 11309700000.0 11309700000.0 11309700000.0 11309700000.0 11309700000.0 11309700000.0 11309700000.0 11309700000.0 11309700000.0 11309700000.0 11309700000.0 11309700000.0 11309700000.0 11309700000.0 11309700000.0 11309700000.0 11309700000.0 11309700000.0 11309700000.0 11309700000.0 11309700000.0 11309700000.0 11309700000.0 11309700000.0 11309700000.0 11309700000.0 11309700000.0 11309700000.0 11309700000.0 11309700000.0 11309700000.0 11309700000.0 11309700000.0 11309700000.0 11309700000.0 11309700000.0 11309700000.0 11309700000.0 11309700000.0 11309700000.0 11309700000.0 11309700000.0 11309700000.0 11309700000.0 11309700000.0 11309700000.0 11309700000.0 11309700000.0 11309700000.0 11309700000.0 11309700000.0 11309700000.0 11309700000.0 11309700000.0 11309700000.0 11309700000.0 11309700000.0 11309700000.0 11309700000.0 11309700000.0 11309700000.0 11309700000.0 11309700000.0 11309700000.0 11309700000.0 11309700000.0 11309700000.0 11309700000.0 11309700000.0 11309700000.0 11309700000.0 11309700000.0 11309700000.0 11309700000.0 11309700000.0 11309700000.0 11309700000.0 11309700000.0 11309700000.0 11309700000.0 11309700000.0 11309700000.0 11309700000.0 11309700000.0 11309700000.0 11309700000.0 11309700000.0 11309700000.0 11309700000.0 11309700000.0 11309700000.0 11309700000.0 11309700000.0 11309700000.0 11309700000.0 11309700000.0 11309700000.0 11309700000.0 11309700000.0 11309700000.0 11309700000.0 11309700000.0 11309700000.0 11309700000.0 11309700000.0 11309700000.0 11309700000.0 11309700000.0 11309700000.0 11309700000.0 11309700000.0 11309700000.0 11309700000.0 11309700000.0 11309700000.0 11309700000.0 11309700000.0 11309700000.0 11309700000.0 11309700000.0 11309700000.0 11309700000.0 11309700000.0 11309700000.0 11309700000.0 11309700000.0 11309700000.0 11309700000.0 11309700000.0 11309700000.0 11309700000.0 11309700000.0 11309700000.0 11309700000.0 11309700000.0 11309700000.0 11309700000.0 11309700000.0 11309700000.0 11309700000.0 11309700000.0 11309700000.0 11309700000.0 11309700000.0 11309700000.0 11309700000.0 11309700000.0 11309700000.0 11309700000.0 11309700000.0 11309700000.0 11309700000.0 11309700000.0 11309700000.0 11309700000.0 11309700000.0 11309700000.0 11309700000.0 11309700000.0 11309700000.0 11309700000.0 11309700000.0 11309700000.0 11309700000.0 11309700000.0 11309700000.0 11309700000.0 11309700000.0 11309700000.0 11309700000.0 11309700000.0 11309700000.0 11309700000.0 11309700000.0 11309700000.0 11309700000.0 11309700000.0 11309700000.0 11309700000.0 11309700000.0 11309700000.0 11309700000.0 11309700000.0 11309700000.0 11309700000.0 11309700000.0 11309700000.0 11309700000.0 11309700000.0 11309700000.0 11309700000.0 11309700000.0 11309700000.0 11309700000.0 11309700000.0 11309700000.0 11309700000.0 11309700000.0 11309700000.0 11309700000.0 11309700000.0 11309700000.0 11309700000.0 11309700000.0 11309700000.0 11309700000.0 11309700000.0 11309700000.0 11309700000.0 11309700000.0 11309700000.0 11309700000.0 11309700000.0 11309700000.0 11309700000.0 11309700000.0 11309700000.0 11309700000.0 11309700000.0 11309700000.0 11309700000.0 11309700000.0 11309700000.0 11309700000.0 11309700000.0 11309700000.0 11309700000.0 11309700000.0 11309700000.0 11309700000.0 11309700000.0 11309700000.0 11309700000.0 11309700000.0 11309700000.0 11309700000.0 11309700000.0 11309700000.0 11309700000.0 11309700000.0 11309700000.0 11309700000.0 11309700000.0 11309700000.0 11309700000.0 11309700000.0 11309700000.0 11309700000.0 11309700000.0 11309700000.0 11309700000.0 11309700000.0 11309700000.0 11309700000.0 11309700000.0 11309700000.0 11309700000.0 11309700000.0 11309700000.0 11309700000.0 11309700000.0 11309700000.0 11309700000.0 11309700000.0 11309700000.0 11309700000.0 11309700000.0 11309700000.0 11309700000.0 11309700000.0 11309700000.0 11309700000.0 11309700000.0 11309700000.0 11309700000.0 11309700000.0 11309700000.0 11309700000.0 11309700000.0 11309700000.0 11309700000.0 11309700000.0 11309700000.0 11309700000.0 11309700000.0 11309700000.0 11309700000.0 11309700000.0 11309700000.0 11309700000.0 11309700000.0 11309700000.0 11309700000.0 11309700000.0 11309700000.0 11309700000.0 11309700000.0 11309700000.0 11309700000.0 11309700000.0 11309700000.0 11309700000.0 11309700000.0 11309700000.0 11309700000.0 11309700000.0 11309700000.0 11309700000.0 11309700000.0 11309700000.0 11309700000.0 11309700000.0 11309700000.0 11309700000.0 11309700000.0 11309700000.0 11309700000.0 11309700000.0 11309700000.0 11309700000.0 11309700000.0 11309700000.0 11309700000.0 11309700000.0 11309700000.0 11309700000.0 11309700000.0 11309700000.0 11309700000.0 11309700000.0 11309700000.0 11309700000.0 11309700000.0 11309700000.0 11309700000.0 11309700000.0 11309700000.0 11309700000.0 11309700000.0 11309700000.0 11309700000.0 11309700000.0 11309700000.0 11309700000.0 11309700000.0 11309700000.0 11309700000.0 11309700000.0 11309700000.0 11309700000.0 11309700000.0 11309700000.0 11309700000.0 11309700000.0 11309700000.0 11309700000.0 11309700000.0 11309700000.0 11309700000.0 11309700000.0 11309700000.0 11309700000.0 11309700000.0 11309700000.0 11309700000.0 11309700000.0 11309700000.0 11309700000.0 11309700000.0 11309700000.0 11309700000.0 11309700000.0 11309700000.0 11309700000.0 11309700000.0 11309700000.0 11309700000.0 11309700000.0 11309700000.0 11309700000.0 11309700000.0 11309700000.0 11309700000.0 11309700000.0 11309700000.0 11309700000.0 11309700000.0 11309700000.0 11309700000.0 11309700000.0 11309700000.0 11309700000.0 11309700000.0 11309700000.0 11309700000.0 11309700000.0 11309700000.0 11309700000.0 11309700000.0 11309700000.0 11309700000.0 11309700000.0 11309700000.0 11309700000.0 11309700000.0 11309700000.0 11309700000.0 11309700000.0 11309700000.0 11309700000.0 11309700000.0 11309700000.0 11309700000.0 11309700000.0 11309700000.0 11309700000.0 11309700000.0 11309700000.0 11309700000.0 11309700000.0 11309700000.0 11309700000.0 11309700000.0 11309700000.0 11309700000.0 11309700000.0 11309700000.0 11309700000.0 11309700000.0 11309700000.0 11309700000.0 11309700000.0 11309700000.0 11309700000.0 11309700000.0 11309700000.0 11309700000.0 11309700000.0 11309700000.0 11309700000.0 11309700000.0 11309700000.0 11309700000.0 11309700000.0 11309700000.0 11309700000.0 11309700000.0 11309700000.0 11309700000.0 11309700000.0 11309700000.0 11309700000.0 11309700000.0 11309700000.0 11309700000.0 11309700000.0 11309700000.0 11309700000.0 11309700000.0 11309700000.0 11309700000.0 11309700000.0 11309700000.0 11309700000.0 11309700000.0 11309700000.0 11309700000.0 11309700000.0 11309700000.0 11309700000.0 11309700000.0 11309700000.0 11309700000.0 11309700000.0 11309700000.0 11309700000.0 11309700000.0 11309700000.0 11309700000.0 11309700000.0 11309700000.0 11309700000.0 11309700000.0 11309700000.0 11309700000.0 11309700000.0 11309700000.0 11309700000.0 11309700000.0 11309700000.0 11309700000.0 11309700000.0 11309700000.0 11309700000.0 11309700000.0 11309700000.0 11309700000.0 11309700000.0 11309700000.0 11309700000.0 11309700000.0 11309700000.0 11309700000.0 11309700000.0 11309700000.0 11309700000.0 11309700000.0 11309700000.0 11309700000.0 11309700000.0 11309700000.0 11309700000.0 11309700000.0 11309700000.0 11309700000.0 11309700000.0 11309700000.0 11309700000.0 11309700000.0 11309700000.0 11309700000.0 11309700000.0 11309700000.0 11309700000.0 11309700000.0 11309700000.0 11309700000.0 11309700000.0 11309700000.0 11309700000.0 11309700000.0 11309700000.0 11309700000.0 11309700000.0 11309700000.0 11309700000.0 11309700000.0 11309700000.0 11309700000.0 11309700000.0 11309700000.0 11309700000.0 11309700000.0 11309700000.0 11309700000.0 11309700000.0 11309700000.0 11309700000.0 11309700000.0 11309700000.0 11309700000.0 11309700000.0 11309700000.0 11309700000.0 11309700000.0 11309700000.0 11309700000.0 11309700000.0 11309700000.0 11309700000.0 11309700000.0 11309700000.0 11309700000.0 11309700000.0 11309700000.0 11309700000.0 11309700000.0 11309700000.0 11309700000.0 11309700000.0 11309700000.0 11309700000.0 11309700000.0 11309700000.0 11309700000.0 11309700000.0 11309700000.0 11309700000.0 11309700000.0 11309700000.0 11309700000.0 11309700000.0 11309700000.0 11309700000.0 11309700000.0 11309700000.0 11309700000.0 11309700000.0 11309700000.0 11309700000.0 11309700000.0 11309700000.0 11309700000.0 11309700000.0 11309700000.0 11309700000.0 11309700000.0 11309700000.0 11309700000.0 11309700000.0 11309700000.0 11309700000.0 11309700000.0 11309700000.0 11309700000.0 11309700000.0 11309700000.0 11309700000.0 11309700000.0 11309700000.0 11309700000.0 11309700000.0 11309700000.0 11309700000.0 11309700000.0 11309700000.0 11309700000.0 11309700000.0 11309700000.0 11309700000.0 11309700000.0 11309700000.0 11309700000.0 11309700000.0 11309700000.0 11309700000.0 11309700000.0 11309700000.0 11309700000.0 11309700000.0 11309700000.0 11309700000.0 11309700000.0 11309700000.0 11309700000.0 11309700000.0 11309700000.0 11309700000.0 11309700000.0 11309700000.0 11309700000.0 11309700000.0 11309700000.0 11309700000.0 11309700000.0 11309700000.0 11309700000.0 11309700000.0 11309700000.0 11309700000.0 11309700000.0 11309700000.0 11309700000.0 11309700000.0 11309700000.0 11309700000.0 11309700000.0 11309700000.0 11309700000.0 11309700000.0 11309700000.0 11309700000.0 11309700000.0 11309700000.0 11309700000.0 11309700000.0 11309700000.0 11309700000.0 11309700000.0 11309700000.0 11309700000.0 11309700000.0 11309700000.0 11309700000.0 11309700000.0 11309700000.0 11309700000.0 11309700000.0 11309700000.0 11309700000.0 11309700000.0 11309700000.0 11309700000.0 11309700000.0 11309700000.0 11309700000.0 11309700000.0 11309700000.0 11309700000.0 11309700000.0 11309700000.0 11309700000.0 11309700000.0 11309700000.0 11309700000.0 11309700000.0 11309700000.0 11309700000.0 11309700000.0 11309700000.0 11309700000.0 11309700000.0 11309700000.0 11309700000.0 11309700000.0 11309700000.0 11309700000.0 11309700000.0 11309700000.0 11309700000.0 11309700000.0 11309700000.0 11309700000.0 11309700000.0 11309700000.0 11309700000.0 11309700000.0 11309700000.0 11309700000.0 11309700000.0 11309700000.0 11309700000.0 11309700000.0 11309700000.0 11309700000.0 11309700000.0 11309700000.0 11309700000.0 11309700000.0 11309700000.0 11309700000.0 11309700000.0 11309700000.0 11309700000.0 11309700000.0 11309700000.0 11309700000.0 11309700000.0 11309700000.0 11309700000.0 11309700000.0 11309700000.0 11309700000.0 11309700000.0 11309700000.0 11309700000.0 11309700000.0 11309700000.0 11309700000.0 11309700000.0 11309700000.0 11309700000.0 11309700000.0 11309700000.0 11309700000.0 11309700000.0 11309700000.0 11309700000.0 11309700000.0 11309700000.0 11309700000.0 11309700000.0 11309700000.0 11309700000.0 11309700000.0 11309700000.0 11309700000.0 11309700000.0 11309700000.0 11309700000.0 11309700000.0 11309700000.0 11309700000.0 11309700000.0 11309700000.0 11309700000.0 11309700000.0 11309700000.0 11309700000.0 11309700000.0 11309700000.0 11309700000.0 11309700000.0 11309700000.0 11309700000.0 11309700000.0 11309700000.0 11309700000.0 11309700000.0 11309700000.0 11309700000.0 11309700000.0 11309700000.0 11309700000.0 11309700000.0 11309700000.0 11309700000.0 11309700000.0 11309700000.0 11309700000.0 11309700000.0 11309700000.0 11309700000.0 11309700000.0 11309700000.0 11309700000.0 11309700000.0 11309700000.0 11309700000.0 11309700000.0 11309700000.0 11309700000.0 11309700000.0 11309700000.0 11309700000.0 11309700000.0 11309700000.0 11309700000.0 11309700000.0 11309700000.0 11309700000.0 11309700000.0 11309700000.0 11309700000.0 11309700000.0 11309700000.0 11309700000.0 11309700000.0 11309700000.0 11309700000.0 11309700000.0 11309700000.0 11309700000.0 11309700000.0 11309700000.0 11309700000.0 11309700000.0 11309700000.0 11309700000.0 11309700000.0 11309700000.0 11309700000.0 11309700000.0 11309700000.0 11309700000.0 11309700000.0 11309700000.0 11309700000.0 11309700000.0 11309700000.0 11309700000.0 11309700000.0 11309700000.0 11309700000.0 11309700000.0 11309700000.0 11309700000.0 11309700000.0 11309700000.0 11309700000.0 11309700000.0 11309700000.0 11309700000.0 11309700000.0 11309700000.0 11309700000.0 11309700000.0 11309700000.0 11309700000.0 11309700000.0 11309700000.0 11309700000.0 11309700000.0 11309700000.0 11309700000.0 11309700000.0 11309700000.0 11309700000.0 11309700000.0 11309700000.0 11309700000.0 11309700000.0 11309700000.0 11309700000.0 11309700000.0 11309700000.0 11309700000.0 11309700000.0 11309700000.0 11309700000.0 11309700000.0 11309700000.0 11309700000.0 11309700000.0 11309700000.0 11309700000.0 11309700000.0 11309700000.0 11309700000.0 11309700000.0 11309700000.0 11309700000.0 11309700000.0 11309700000.0 11309700000.0 11309700000.0 11309700000.0 11309700000.0 11309700000.0 11309700000.0 11309700000.0 11309700000.0 11309700000.0 11309700000.0 11309700000.0 11309700000.0 11309700000.0 11309700000.0 11309700000.0 11309700000.0 11309700000.0 11309700000.0 11309700000.0 11309700000.0 11309700000.0 11309700000.0 11309700000.0 11309700000.0 11309700000.0 11309700000.0 11309700000.0 11309700000.0 11309700000.0 11309700000.0 11309700000.0 11309700000.0 11309700000.0 11309700000.0 11309700000.0 11309700000.0 11309700000.0 11309700000.0 11309700000.0 11309700000.0 11309700000.0 11309700000.0 11309700000.0 11309700000.0 11309700000.0 11309700000.0 11309700000.0 11309700000.0 11309700000.0 11309700000.0 11309700000.0 11309700000.0 11309700000.0 11309700000.0 11309700000.0 11309700000.0 11309700000.0 11309700000.0 11309700000.0 11309700000.0 11309700000.0 11309700000.0 11309700000.0 11309700000.0 11309700000.0 11309700000.0 11309700000.0 11309700000.0 11309700000.0 11309700000.0 11309700000.0 11309700000.0 11309700000.0 11309700000.0 11309700000.0 11309700000.0 11309700000.0 11309700000.0 11309700000.0 11309700000.0 11309700000.0 11309700000.0 11309700000.0 11309700000.0 11309700000.0 11309700000.0 11309700000.0 11309700000.0 11309700000.0 11309700000.0 11309700000.0 11309700000.0 11309700000.0 11309700000.0 11309700000.0 11309700000.0 11309700000.0 11309700000.0 11309700000.0 11309700000.0 11309700000.0 11309700000.0 11309700000.0 11309700000.0 11309700000.0 11309700000.0 11309700000.0 11309700000.0 11309700000.0 11309700000.0 11309700000.0 11309700000.0 11309700000.0 11309700000.0 11309700000.0 11309700000.0 11309700000.0 11309700000.0 11309700000.0 11309700000.0 11309700000.0 11309700000.0 11309700000.0 11309700000.0 11309700000.0 11309700000.0 11309700000.0 11309700000.0 11309700000.0 11309700000.0 11309700000.0 11309700000.0 11309700000.0 11309700000.0 11309700000.0 11309700000.0 11309700000.0 11309700000.0 11309700000.0 11309700000.0 11309700000.0 11309700000.0 11309700000.0 11309700000.0 11309700000.0 11309700000.0 11309700000.0 11309700000.0 11309700000.0 11309700000.0 11309700000.0 11309700000.0 11309700000.0 11309700000.0 11309700000.0 11309700000.0 11309700000.0 11309700000.0 11309700000.0 11309700000.0 11309700000.0 11309700000.0 11309700000.0 11309700000.0 11309700000.0 11309700000.0 11309700000.0 11309700000.0 11309700000.0 11309700000.0 11309700000.0 11309700000.0 11309700000.0 11309700000.0 11309700000.0 11309700000.0 11309700000.0 11309700000.0 11309700000.0 11309700000.0 11309700000.0 11309700000.0 11309700000.0 11309700000.0 11309700000.0 11309700000.0 11309700000.0 11309700000.0 11309700000.0 11309700000.0 11309700000.0 11309700000.0 11309700000.0 11309700000.0 11309700000.0 11309700000.0 11309700000.0 11309700000.0 11309700000.0 11309700000.0 11309700000.0 11309700000.0 11309700000.0 11309700000.0 11309700000.0 11309700000.0 11309700000.0 11309700000.0 11309700000.0 11309700000.0 11309700000.0 11309700000.0 11309700000.0 11309700000.0 11309700000.0 11309700000.0 11309700000.0 11309700000.0 11309700000.0 11309700000.0 11309700000.0 11309700000.0 11309700000.0 11309700000.0 11309700000.0 11309700000.0 11309700000.0 11309700000.0 11309700000.0 11309700000.0 11309700000.0 11309700000.0 11309700000.0 11309700000.0 11309700000.0 11309700000.0 11309700000.0 11309700000.0 11309700000.0 11309700000.0 11309700000.0 11309700000.0 11309700000.0 11309700000.0 11309700000.0 11309700000.0 11309700000.0 11309700000.0 11309700000.0 11309700000.0 11309700000.0 11309700000.0 11309700000.0 11309700000.0 11309700000.0 11309700000.0 11309700000.0 11309700000.0 11309700000.0 11309700000.0 11309700000.0 11309700000.0 11309700000.0 11309700000.0 11309700000.0 11309700000.0 11309700000.0 11309700000.0 11309700000.0 11309700000.0 11309700000.0 11309700000.0 11309700000.0 11309700000.0 11309700000.0 11309700000.0 11309700000.0 11309700000.0 11309700000.0 11309700000.0 11309700000.0 11309700000.0 11309700000.0 11309700000.0 11309700000.0 11309700000.0 11309700000.0 11309700000.0 11309700000.0 11309700000.0 11309700000.0 11309700000.0 11309700000.0 11309700000.0 11309700000.0 11309700000.0 11309700000.0 11309700000.0 11309700000.0 11309700000.0 11309700000.0 11309700000.0 11309700000.0 11309700000.0 11309700000.0 11309700000.0 11309700000.0 11309700000.0 11309700000.0 11309700000.0 11309700000.0 11309700000.0 11309700000.0 11309700000.0 11309700000.0 11309700000.0 11309700000.0 11309700000.0 11309700000.0 11309700000.0 11309700000.0 11309700000.0 11309700000.0 11309700000.0 11309700000.0 11309700000.0 11309700000.0 11309700000.0 11309700000.0 11309700000.0 11309700000.0 11309700000.0 11309700000.0 11309700000.0 11309700000.0 11309700000.0 11309700000.0 11309700000.0 11309700000.0 11309700000.0 11309700000.0 11309700000.0 11309700000.0 11309700000.0 11309700000.0 11309700000.0 11309700000.0 11309700000.0 11309700000.0 11309700000.0 11309700000.0 11309700000.0 11309700000.0 11309700000.0 11309700000.0 11309700000.0 11309700000.0 11309700000.0 11309700000.0 11309700000.0 11309700000.0 11309700000.0 11309700000.0 11309700000.0 11309700000.0 11309700000.0 11309700000.0 11309700000.0 11309700000.0 11309700000.0 11309700000.0 11309700000.0 11309700000.0 11309700000.0 11309700000.0 11309700000.0 11309700000.0 11309700000.0 11309700000.0 11309700000.0 11309700000.0 11309700000.0 11309700000.0 11309700000.0 11309700000.0 11309700000.0 11309700000.0 11309700000.0 11309700000.0 11309700000.0 11309700000.0 11309700000.0 11309700000.0 11309700000.0 11309700000.0 11309700000.0 11309700000.0 11309700000.0 11309700000.0 11309700000.0 11309700000.0 11309700000.0 11309700000.0 11309700000.0 11309700000.0 11309700000.0 11309700000.0 11309700000.0 11309700000.0 11309700000.0 11309700000.0 11309700000.0 11309700000.0 11309700000.0 11309700000.0 11309700000.0 11309700000.0 11309700000.0 11309700000.0 11309700000.0 11309700000.0 11309700000.0 11309700000.0 11309700000.0 11309700000.0 11309700000.0 11309700000.0 11309700000.0 11309700000.0 11309700000.0 11309700000.0 11309700000.0 11309700000.0 11309700000.0 11309700000.0 11309700000.0 11309700000.0 11309700000.0 11309700000.0 11309700000.0 11309700000.0 11309700000.0 11309700000.0 11309700000.0 11309700000.0 11309700000.0 11309700000.0 11309700000.0 11309700000.0 11309700000.0 11309700000.0 11309700000.0 11309700000.0 11309700000.0 11309700000.0 11309700000.0 11309700000.0 11309700000.0 11309700000.0 11309700000.0 11309700000.0 11309700000.0 11309700000.0 11309700000.0 11309700000.0 11309700000.0 11309700000.0 11309700000.0 11309700000.0 11309700000.0 11309700000.0 11309700000.0 11309700000.0 11309700000.0 11309700000.0 11309700000.0 11309700000.0 11309700000.0 11309700000.0 11309700000.0 11309700000.0 11309700000.0 11309700000.0 11309700000.0 11309700000.0 11309700000.0 11309700000.0 11309700000.0 11309700000.0 11309700000.0 11309700000.0 11309700000.0 11309700000.0 11309700000.0 11309700000.0 11309700000.0 11309700000.0 11309700000.0 11309700000.0 11309700000.0 11309700000.0 11309700000.0 11309700000.0 11309700000.0 11309700000.0 11309700000.0 11309700000.0 11309700000.0 11309700000.0 11309700000.0 11309700000.0 11309700000.0 11309700000.0 11309700000.0 11309700000.0 11309700000.0 11309700000.0 11309700000.0 11309700000.0 11309700000.0 11309700000.0 11309700000.0 11309700000.0 11309700000.0 11309700000.0 11309700000.0 11309700000.0 11309700000.0 11309700000.0 11309700000.0 11309700000.0 11309700000.0 11309700000.0 11309700000.0 11309700000.0 11309700000.0 11309700000.0 11309700000.0 11309700000.0 11309700000.0 11309700000.0 11309700000.0 11309700000.0 11309700000.0 11309700000.0 11309700000.0 11309700000.0 11309700000.0 11309700000.0 11309700000.0 11309700000.0 11309700000.0 11309700000.0 11309700000.0 11309700000.0 11309700000.0 11309700000.0 11309700000.0 11309700000.0 11309700000.0 11309700000.0 11309700000.0 11309700000.0 11309700000.0 11309700000.0 11309700000.0 11309700000.0 11309700000.0 11309700000.0 11309700000.0 11309700000.0 11309700000.0 11309700000.0 11309700000.0 11309700000.0 11309700000.0 11309700000.0 11309700000.0 11309700000.0 11309700000.0 11309700000.0 11309700000.0 11309700000.0 11309700000.0 11309700000.0 11309700000.0 11309700000.0 11309700000.0 11309700000.0 11309700000.0 11309700000.0 11309700000.0 11309700000.0 11309700000.0 11309700000.0 11309700000.0 11309700000.0 11309700000.0 11309700000.0 11309700000.0 11309700000.0 11309700000.0 11309700000.0 11309700000.0 11309700000.0 11309700000.0 11309700000.0 11309700000.0 11309700000.0 11309700000.0 11309700000.0 11309700000.0 11309700000.0 11309700000.0 11309700000.0 11309700000.0 11309700000.0 11309700000.0 11309700000.0 11309700000.0 11309700000.0 11309700000.0 11309700000.0 11309700000.0 11309700000.0 11309700000.0 11309700000.0 11309700000.0 11309700000.0 11309700000.0 11309700000.0 11309700000.0 11309700000.0 11309700000.0 11309700000.0 11309700000.0 11309700000.0 11309700000.0 11309700000.0 11309700000.0 11309700000.0 11309700000.0 11309700000.0 11309700000.0 11309700000.0 11309700000.0 11309700000.0 11309700000.0 11309700000.0 11309700000.0 11309700000.0 11309700000.0 11309700000.0 11309700000.0 11309700000.0 11309700000.0 11309700000.0 11309700000.0 11309700000.0 11309700000.0 11309700000.0 11309700000.0 11309700000.0 11309700000.0 11309700000.0 11309700000.0 11309700000.0 11309700000.0 11309700000.0 11309700000.0 11309700000.0 11309700000.0 11309700000.0 11309700000.0 11309700000.0 11309700000.0 11309700000.0 11309700000.0 11309700000.0 11309700000.0 11309700000.0 11309700000.0 11309700000.0 11309700000.0 11309700000.0 11309700000.0 11309700000.0 11309700000.0 11309700000.0 11309700000.0 11309700000.0 11309700000.0 11309700000.0 11309700000.0 11309700000.0 11309700000.0 11309700000.0 11309700000.0 11309700000.0 11309700000.0 11309700000.0 11309700000.0 11309700000.0 11309700000.0 11309700000.0 11309700000.0 11309700000.0 11309700000.0 11309700000.0 11309700000.0 11309700000.0 11309700000.0 11309700000.0 11309700000.0 11309700000.0 11309700000.0 11309700000.0 11309700000.0 11309700000.0 11309700000.0 11309700000.0 11309700000.0 11309700000.0 11309700000.0 11309700000.0 11309700000.0 11309700000.0 11309700000.0 11309700000.0 11309700000.0 11309700000.0 11309700000.0 11309700000.0 11309700000.0 11309700000.0 11309700000.0 11309700000.0 11309700000.0 11309700000.0 11309700000.0 11309700000.0 11309700000.0 11309700000.0 11309700000.0 11309700000.0 11309700000.0 11309700000.0 11309700000.0 11309700000.0 11309700000.0 11309700000.0 11309700000.0 11309700000.0 11309700000.0 11309700000.0 11309700000.0 11309700000.0 11309700000.0 11309700000.0 11309700000.0 11309700000.0 11309700000.0 11309700000.0 11309700000.0 11309700000.0 11309700000.0 11309700000.0 11309700000.0 11309700000.0 11309700000.0 11309700000.0 11309700000.0 11309700000.0 11309700000.0 11309700000.0 11309700000.0 11309700000.0 11309700000.0 11309700000.0 11309700000.0 11309700000.0 11309700000.0 11309700000.0 11309700000.0 11309700000.0 11309700000.0 11309700000.0 11309700000.0 11309700000.0 11309700000.0 11309700000.0 11309700000.0 11309700000.0 11309700000.0 11309700000.0 11309700000.0 11309700000.0 11309700000.0 11309700000.0 11309700000.0 11309700000.0 11309700000.0 11309700000.0 11309700000.0 11309700000.0 11309700000.0 11309700000.0 11309700000.0 11309700000.0 11309700000.0 11309700000.0 11309700000.0 11309700000.0 11309700000.0 11309700000.0 11309700000.0 11309700000.0 11309700000.0 11309700000.0 11309700000.0 11309700000.0 11309700000.0 11309700000.0 11309700000.0 11309700000.0 11309700000.0 11309700000.0 11309700000.0 11309700000.0 11309700000.0 11309700000.0 11309700000.0 11309700000.0 11309700000.0 11309700000.0 11309700000.0 11309700000.0 11309700000.0 11309700000.0 11309700000.0 11309700000.0 11309700000.0 11309700000.0 11309700000.0 11309700000.0 11309700000.0 11309700000.0 11309700000.0 11309700000.0 11309700000.0 11309700000.0 11309700000.0 11309700000.0 11309700000.0 11309700000.0 11309700000.0 11309700000.0 11309700000.0 11309700000.0 11309700000.0 11309700000.0 11309700000.0 11309700000.0 11309700000.0 11309700000.0 11309700000.0 11309700000.0 11309700000.0 11309700000.0 11309700000.0 11309700000.0 11309700000.0 11309700000.0 11309700000.0 11309700000.0 11309700000.0 11309700000.0 11309700000.0 11309700000.0 11309700000.0 11309700000.0 11309700000.0 11309700000.0 11309700000.0 11309700000.0 11309700000.0 11309700000.0 11309700000.0 11309700000.0 11309700000.0 11309700000.0 11309700000.0 11309700000.0 11309700000.0 11309700000.0 11309700000.0 11309700000.0 11309700000.0 11309700000.0 11309700000.0 11309700000.0 11309700000.0 11309700000.0 11309700000.0 11309700000.0 11309700000.0 11309700000.0 11309700000.0 11309700000.0 11309700000.0 11309700000.0 11309700000.0 11309700000.0 11309700000.0 11309700000.0 11309700000.0 11309700000.0 11309700000.0 11309700000.0 11309700000.0 11309700000.0 11309700000.0 11309700000.0 11309700000.0 11309700000.0 11309700000.0 11309700000.0 11309700000.0 11309700000.0 11309700000.0 11309700000.0 11309700000.0 11309700000.0 11309700000.0 11309700000.0 11309700000.0 11309700000.0 11309700000.0 11309700000.0 11309700000.0 11309700000.0 11309700000.0 11309700000.0 11309700000.0 11309700000.0 11309700000.0 11309700000.0 11309700000.0 11309700000.0 11309700000.0 11309700000.0 11309700000.0 11309700000.0 11309700000.0 11309700000.0 11309700000.0 11309700000.0 11309700000.0 11309700000.0 11309700000.0 11309700000.0 11309700000.0 11309700000.0 11309700000.0 11309700000.0 11309700000.0 11309700000.0 11309700000.0 11309700000.0 11309700000.0 11309700000.0 11309700000.0 11309700000.0 11309700000.0 11309700000.0 11309700000.0 11309700000.0 11309700000.0 11309700000.0 11309700000.0 11309700000.0 11309700000.0 11309700000.0 11309700000.0 11309700000.0 11309700000.0 11309700000.0 11309700000.0 11309700000.0 11309700000.0 11309700000.0 11309700000.0 11309700000.0 11309700000.0 11309700000.0 11309700000.0 11309700000.0 11309700000.0 11309700000.0 11309700000.0 11309700000.0 11309700000.0 11309700000.0 11309700000.0 11309700000.0 11309700000.0 11309700000.0 11309700000.0 11309700000.0 11309700000.0 11309700000.0 11309700000.0 11309700000.0 11309700000.0 11309700000.0 11309700000.0 11309700000.0 11309700000.0 11309700000.0 11309700000.0 11309700000.0 11309700000.0 11309700000.0 11309700000.0 11309700000.0 11309700000.0 11309700000.0 11309700000.0 11309700000.0 11309700000.0 11309700000.0 11309700000.0 11309700000.0 11309700000.0 11309700000.0 11309700000.0 11309700000.0 11309700000.0 11309700000.0 11309700000.0 11309700000.0 11309700000.0 11309700000.0 11309700000.0 11309700000.0 11309700000.0 11309700000.0 11309700000.0 11309700000.0 11309700000.0 11309700000.0 11309700000.0 11309700000.0 11309700000.0 11309700000.0 11309700000.0 11309700000.0 11309700000.0 11309700000.0 11309700000.0 11309700000.0 11309700000.0 11309700000.0 11309700000.0 11309700000.0 11309700000.0 11309700000.0 11309700000.0 11309700000.0 11309700000.0 11309700000.0 11309700000.0 11309700000.0 11309700000.0 11309700000.0 11309700000.0 11309700000.0 11309700000.0 11309700000.0 11309700000.0 11309700000.0 11309700000.0 11309700000.0 11309700000.0 11309700000.0 11309700000.0 11309700000.0 11309700000.0 11309700000.0 11309700000.0 11309700000.0 11309700000.0 11309700000.0 11309700000.0 11309700000.0 11309700000.0 11309700000.0 11309700000.0 11309700000.0 11309700000.0 11309700000.0 11309700000.0 11309700000.0 11309700000.0 11309700000.0 11309700000.0 11309700000.0 11309700000.0 11309700000.0 11309700000.0 11309700000.0 11309700000.0 11309700000.0 11309700000.0 11309700000.0 11309700000.0 11309700000.0 11309700000.0 11309700000.0 11309700000.0 11309700000.0 11309700000.0 11309700000.0 11309700000.0 11309700000.0 11309700000.0 11309700000.0 11309700000.0 11309700000.0 11309700000.0 11309700000.0 11309700000.0 11309700000.0 11309700000.0 11309700000.0 11309700000.0 11309700000.0 11309700000.0 11309700000.0 11309700000.0 11309700000.0 11309700000.0 11309700000.0 11309700000.0 11309700000.0 11309700000.0 11309700000.0 11309700000.0 11309700000.0 11309700000.0 11309700000.0 11309700000.0 11309700000.0 11309700000.0 11309700000.0 11309700000.0 11309700000.0 11309700000.0 11309700000.0 11309700000.0 11309700000.0 11309700000.0 11309700000.0 11309700000.0 11309700000.0 11309700000.0 11309700000.0 11309700000.0 11309700000.0 11309700000.0 11309700000.0 11309700000.0 11309700000.0 11309700000.0 11309700000.0 11309700000.0 11309700000.0 11309700000.0 11309700000.0 11309700000.0 11309700000.0 11309700000.0 11309700000.0 11309700000.0 11309700000.0 11309700000.0 11309700000.0 11309700000.0 11309700000.0 11309700000.0 11309700000.0 11309700000.0 11309700000.0 11309700000.0 11309700000.0 11309700000.0 11309700000.0 11309700000.0 11309700000.0 11309700000.0 11309700000.0 11309700000.0 11309700000.0 11309700000.0 11309700000.0 11309700000.0 11309700000.0 11309700000.0 11309700000.0 11309700000.0 11309700000.0 11309700000.0 11309700000.0 11309700000.0 11309700000.0 11309700000.0 11309700000.0 11309700000.0 11309700000.0 11309700000.0 11309700000.0 11309700000.0 11309700000.0 11309700000.0 11309700000.0 11309700000.0 11309700000.0 11309700000.0 11309700000.0 11309700000.0 11309700000.0 11309700000.0 11309700000.0 11309700000.0 11309700000.0 11309700000.0 11309700000.0 11309700000.0 11309700000.0 11309700000.0 11309700000.0 11309700000.0 11309700000.0 11309700000.0 11309700000.0 11309700000.0 11309700000.0 11309700000.0 11309700000.0 11309700000.0 11309700000.0 11309700000.0 11309700000.0 11309700000.0 11309700000.0 11309700000.0 11309700000.0 11309700000.0 11309700000.0 11309700000.0 11309700000.0 11309700000.0 11309700000.0 11309700000.0 11309700000.0 11309700000.0 11309700000.0 11309700000.0 11309700000.0 11309700000.0 11309700000.0 11309700000.0 11309700000.0 11309700000.0 11309700000.0 11309700000.0 11309700000.0 11309700000.0 11309700000.0 11309700000.0 11309700000.0 11309700000.0 11309700000.0 11309700000.0 11309700000.0 11309700000.0 11309700000.0 11309700000.0 11309700000.0 11309700000.0 11309700000.0 11309700000.0 11309700000.0 11309700000.0 11309700000.0 11309700000.0 11309700000.0 11309700000.0 11309700000.0 11309700000.0 11309700000.0 11309700000.0 11309700000.0 11309700000.0 11309700000.0 11309700000.0 11309700000.0 11309700000.0 11309700000.0 11309700000.0 11309700000.0 11309700000.0 11309700000.0 11309700000.0 11309700000.0 11309700000.0 11309700000.0 11309700000.0 11309700000.0 11309700000.0 11309700000.0 11309700000.0 11309700000.0 11309700000.0 11309700000.0 11309700000.0 11309700000.0 11309700000.0 11309700000.0 11309700000.0 11309700000.0 11309700000.0 11309700000.0 11309700000.0 11309700000.0 11309700000.0 11309700000.0 11309700000.0 11309700000.0 11309700000.0 11309700000.0 11309700000.0 11309700000.0 11309700000.0 11309700000.0 11309700000.0 11309700000.0 11309700000.0 11309700000.0 11309700000.0 11309700000.0 11309700000.0 11309700000.0 11309700000.0 11309700000.0 11309700000.0 11309700000.0 11309700000.0 11309700000.0 11309700000.0 11309700000.0 11309700000.0 11309700000.0 11309700000.0 11309700000.0 11309700000.0 11309700000.0 11309700000.0 11309700000.0 11309700000.0 11309700000.0 11309700000.0 11309700000.0 11309700000.0 11309700000.0 11309700000.0 11309700000.0 11309700000.0 11309700000.0 11309700000.0 11309700000.0 11309700000.0 11309700000.0 11309700000.0 11309700000.0 11309700000.0 11309700000.0 11309700000.0 11309700000.0 11309700000.0 11309700000.0 11309700000.0 11309700000.0 11309700000.0 11309700000.0 11309700000.0 11309700000.0 11309700000.0 11309700000.0 11309700000.0 11309700000.0 11309700000.0 11309700000.0 11309700000.0 11309700000.0 11309700000.0 11309700000.0 11309700000.0 11309700000.0 11309700000.0 11309700000.0 11309700000.0 11309700000.0 11309700000.0 11309700000.0 11309700000.0 11309700000.0 11309700000.0 11309700000.0 11309700000.0 11309700000.0 11309700000.0 11309700000.0 11309700000.0 11309700000.0 11309700000.0 11309700000.0 11309700000.0 11309700000.0 11309700000.0 11309700000.0 11309700000.0 11309700000.0 11309700000.0 11309700000.0 11309700000.0 11309700000.0 11309700000.0 11309700000.0 11309700000.0 11309700000.0 11309700000.0 11309700000.0 11309700000.0 11309700000.0 11309700000.0 11309700000.0 11309700000.0 11309700000.0 11309700000.0 11309700000.0 11309700000.0 11309700000.0 11309700000.0 11309700000.0 11309700000.0 11309700000.0 11309700000.0 11309700000.0 11309700000.0 11309700000.0 11309700000.0 11309700000.0 11309700000.0 11309700000.0 11309700000.0 11309700000.0 11309700000.0 11309700000.0 11309700000.0 11309700000.0 11309700000.0 11309700000.0 11309700000.0 11309700000.0 11309700000.0 11309700000.0 11309700000.0 11309700000.0 11309700000.0 11309700000.0 11309700000.0 11309700000.0 11309700000.0 11309700000.0 11309700000.0 11309700000.0 11309700000.0 11309700000.0 11309700000.0 11309700000.0 11309700000.0 11309700000.0 11309700000.0 11309700000.0 11309700000.0 11309700000.0 11309700000.0 11309700000.0 11309700000.0 11309700000.0 11309700000.0 11309700000.0 11309700000.0 11309700000.0 11309700000.0 11309700000.0 11309700000.0 11309700000.0 11309700000.0 11309700000.0 11309700000.0 11309700000.0 11309700000.0 11309700000.0 11309700000.0 11309700000.0 11309700000.0 11309700000.0 11309700000.0 11309700000.0 11309700000.0 11309700000.0 11309700000.0 11309700000.0 11309700000.0 11309700000.0 11309700000.0 11309700000.0 11309700000.0 11309700000.0 11309700000.0 11309700000.0 11309700000.0 11309700000.0 11309700000.0 11309700000.0 11309700000.0 11309700000.0 11309700000.0 11309700000.0 11309700000.0 11309700000.0 11309700000.0 11309700000.0 11309700000.0 11309700000.0 11309700000.0 11309700000.0 11309700000.0 11309700000.0 11309700000.0 11309700000.0 11309700000.0 11309700000.0 11309700000.0 11309700000.0 11309700000.0 11309700000.0 11309700000.0 11309700000.0 11309700000.0 11309700000.0 11309700000.0 11309700000.0 11309700000.0 11309700000.0 11309700000.0 11309700000.0 11309700000.0 11309700000.0 11309700000.0 11309700000.0 11309700000.0 11309700000.0 11309700000.0 11309700000.0 11309700000.0 11309700000.0 11309700000.0 11309700000.0 11309700000.0 11309700000.0 11309700000.0 11309700000.0 11309700000.0 11309700000.0 11309700000.0 11309700000.0 11309700000.0 11309700000.0 11309700000.0 11309700000.0 11309700000.0 11309700000.0 11309700000.0 11309700000.0 11309700000.0 11309700000.0 11309700000.0 11309700000.0 11309700000.0 11309700000.0 11309700000.0 11309700000.0 11309700000.0 11309700000.0 11309700000.0 11309700000.0 11309700000.0 11309700000.0 11309700000.0 11309700000.0 11309700000.0 11309700000.0 11309700000.0 11309700000.0 11309700000.0 11309700000.0 11309700000.0 11309700000.0 11309700000.0 11309700000.0 11309700000.0 11309700000.0 11309700000.0 11309700000.0 11309700000.0 11309700000.0 11309700000.0 11309700000.0 11309700000.0 11309700000.0 11309700000.0 11309700000.0 11309700000.0 11309700000.0 11309700000.0 11309700000.0 11309700000.0 11309700000.0 11309700000.0 11309700000.0 11309700000.0 11309700000.0 11309700000.0 11309700000.0 11309700000.0 11309700000.0 11309700000.0 11309700000.0 11309700000.0 11309700000.0 11309700000.0 11309700000.0 11309700000.0 11309700000.0 11309700000.0 11309700000.0 11309700000.0 11309700000.0 11309700000.0 11309700000.0 11309700000.0 11309700000.0 11309700000.0 11309700000.0 11309700000.0 11309700000.0 11309700000.0 11309700000.0 11309700000.0 11309700000.0 11309700000.0 11309700000.0 11309700000.0 11309700000.0 11309700000.0 11309700000.0 11309700000.0 11309700000.0 11309700000.0 11309700000.0 11309700000.0 11309700000.0 11309700000.0 11309700000.0 11309700000.0 11309700000.0 11309700000.0 11309700000.0 11309700000.0 11309700000.0 11309700000.0 11309700000.0 11309700000.0 11309700000.0 11309700000.0 11309700000.0 11309700000.0 11309700000.0 11309700000.0 11309700000.0 11309700000.0 11309700000.0 11309700000.0 11309700000.0 11309700000.0 11309700000.0 11309700000.0 11309700000.0 11309700000.0 11309700000.0 11309700000.0 11309700000.0 11309700000.0 11309700000.0 11309700000.0 11309700000.0 11309700000.0 11309700000.0 11309700000.0 11309700000.0 11309700000.0 11309700000.0 11309700000.0 11309700000.0 11309700000.0 11309700000.0 11309700000.0 11309700000.0 11309700000.0 11309700000.0 11309700000.0 11309700000.0 11309700000.0 11309700000.0 11309700000.0 11309700000.0 11309700000.0 11309700000.0 11309700000.0 11309700000.0 11309700000.0 11309700000.0 11309700000.0 11309700000.0 11309700000.0 11309700000.0 11309700000.0 11309700000.0 11309700000.0 11309700000.0 11309700000.0 11309700000.0 11309700000.0 11309700000.0 11309700000.0 11309700000.0 11309700000.0 11309700000.0 11309700000.0 11309700000.0 11309700000.0 11309700000.0 11309700000.0 11309700000.0 11309700000.0 11309700000.0 11309700000.0 11309700000.0 11309700000.0 11309700000.0 11309700000.0 11309700000.0 11309700000.0 11309700000.0 11309700000.0 11309700000.0 11309700000.0 11309700000.0 11309700000.0 11309700000.0 11309700000.0 11309700000.0 11309700000.0 11309700000.0 11309700000.0 11309700000.0 11309700000.0 11309700000.0 11309700000.0 11309700000.0 11309700000.0 11309700000.0 11309700000.0 11309700000.0 11309700000.0 11309700000.0 11309700000.0 11309700000.0 11309700000.0 11309700000.0 11309700000.0 11309700000.0 11309700000.0 11309700000.0 11309700000.0 11309700000.0 11309700000.0 11309700000.0 11309700000.0 11309700000.0 11309700000.0 11309700000.0 11309700000.0 11309700000.0 11309700000.0 11309700000.0 11309700000.0 11309700000.0 11309700000.0 11309700000.0 11309700000.0 11309700000.0 11309700000.0 11309700000.0 11309700000.0 11309700000.0 11309700000.0 11309700000.0 11309700000.0 11309700000.0 11309700000.0 11309700000.0 11309700000.0 11309700000.0 11309700000.0 11309700000.0 11309700000.0 11309700000.0 11309700000.0 11309700000.0 11309700000.0 11309700000.0 11309700000.0 11309700000.0 11309700000.0 11309700000.0 11309700000.0 11309700000.0 11309700000.0 11309700000.0 11309700000.0 11309700000.0 11309700000.0 11309700000.0 11309700000.0 11309700000.0 11309700000.0 11309700000.0 11309700000.0 11309700000.0 11309700000.0 11309700000.0 11309700000.0 11309700000.0 11309700000.0 11309700000.0 11309700000.0 11309700000.0 11309700000.0 11309700000.0 11309700000.0 11309700000.0 11309700000.0 11309700000.0 11309700000.0 11309700000.0 11309700000.0 11309700000.0 11309700000.0 11309700000.0 11309700000.0 11309700000.0 11309700000.0 11309700000.0 11309700000.0 11309700000.0 11309700000.0 11309700000.0 11309700000.0 11309700000.0 11309700000.0 11309700000.0 11309700000.0 11309700000.0 11309700000.0 11309700000.0 11309700000.0 11309700000.0 11309700000.0 11309700000.0 11309700000.0 11309700000.0 11309700000.0 11309700000.0 11309700000.0 11309700000.0 11309700000.0 11309700000.0 11309700000.0 11309700000.0 11309700000.0 11309700000.0 11309700000.0 11309700000.0 11309700000.0 11309700000.0 11309700000.0 11309700000.0 11309700000.0 11309700000.0 11309700000.0 11309700000.0 11309700000.0 11309700000.0 11309700000.0 11309700000.0 11309700000.0 11309700000.0 11309700000.0 11309700000.0 11309700000.0 11309700000.0 11309700000.0 11309700000.0 11309700000.0 11309700000.0 11309700000.0 11309700000.0 11309700000.0 11309700000.0 11309700000.0 11309700000.0 11309700000.0 11309700000.0 11309700000.0 11309700000.0 11309700000.0 11309700000.0 11309700000.0 11309700000.0 11309700000.0 11309700000.0 11309700000.0 11309700000.0 11309700000.0 11309700000.0 11309700000.0 11309700000.0 11309700000.0 11309700000.0 11309700000.0 11309700000.0 11309700000.0 11309700000.0 11309700000.0 11309700000.0 11309700000.0 11309700000.0 11309700000.0 11309700000.0 11309700000.0 11309700000.0 11309700000.0 11309700000.0 11309700000.0 11309700000.0 11309700000.0 11309700000.0 11309700000.0 11309700000.0 11309700000.0 11309700000.0 11309700000.0 11309700000.0 11309700000.0 11309700000.0 11309700000.0 11309700000.0 11309700000.0 11309700000.0 11309700000.0 11309700000.0 11309700000.0 11309700000.0 11309700000.0 11309700000.0 11309700000.0 11309700000.0 11309700000.0 11309700000.0 11309700000.0 11309700000.0 11309700000.0 11309700000.0 11309700000.0 11309700000.0 11309700000.0 11309700000.0 11309700000.0 11309700000.0 11309700000.0 11309700000.0 11309700000.0 11309700000.0 11309700000.0 11309700000.0 11309700000.0 11309700000.0 11309700000.0 11309700000.0 11309700000.0 11309700000.0 11309700000.0 11309700000.0 11309700000.0 11309700000.0 11309700000.0 11309700000.0 11309700000.0 11309700000.0 11309700000.0 11309700000.0 11309700000.0 11309700000.0 11309700000.0 11309700000.0 11309700000.0 11309700000.0 11309700000.0 11309700000.0 11309700000.0 11309700000.0 11309700000.0 11309700000.0 11309700000.0 11309700000.0 11309700000.0 11309700000.0 11309700000.0 11309700000.0 11309700000.0 11309700000.0 11309700000.0 11309700000.0 11309700000.0 11309700000.0 11309700000.0 11309700000.0 11309700000.0 11309700000.0 11309700000.0 11309700000.0 11309700000.0 11309700000.0 11309700000.0 11309700000.0 11309700000.0 11309700000.0 11309700000.0 11309700000.0 11309700000.0 11309700000.0 11309700000.0 11309700000.0 11309700000.0 11309700000.0 11309700000.0 11309700000.0 11309700000.0 11309700000.0 11309700000.0 11309700000.0 11309700000.0 11309700000.0 11309700000.0 11309700000.0 11309700000.0 11309700000.0 11309700000.0 11309700000.0 11309700000.0 11309700000.0 11309700000.0 11309700000.0 11309700000.0 11309700000.0 11309700000.0 11309700000.0 11309700000.0 11309700000.0 11309700000.0 11309700000.0 11309700000.0 11309700000.0 11309700000.0 11309700000.0 11309700000.0 11309700000.0 11309700000.0 11309700000.0 11309700000.0 11309700000.0 11309700000.0 11309700000.0 11309700000.0 11309700000.0 11309700000.0 11309700000.0 11309700000.0 11309700000.0 11309700000.0 11309700000.0 11309700000.0 11309700000.0 11309700000.0 11309700000.0 11309700000.0 11309700000.0 11309700000.0 11309700000.0 11309700000.0 11309700000.0 11309700000.0 11309700000.0 11309700000.0 11309700000.0 11309700000.0 11309700000.0 11309700000.0 11309700000.0 11309700000.0 11309700000.0 11309700000.0 11309700000.0 11309700000.0 11309700000.0 11309700000.0 11309700000.0 11309700000.0 11309700000.0 11309700000.0 11309700000.0 11309700000.0 11309700000.0 11309700000.0 11309700000.0 11309700000.0 11309700000.0 11309700000.0 11309700000.0 11309700000.0 11309700000.0 11309700000.0 11309700000.0 11309700000.0 11309700000.0 11309700000.0 11309700000.0 11309700000.0 11309700000.0 11309700000.0 11309700000.0 11309700000.0 11309700000.0 11309700000.0 11309700000.0 11309700000.0 11309700000.0 11309700000.0 11309700000.0 11309700000.0 11309700000.0 11309700000.0 11309700000.0 11309700000.0 11309700000.0 11309700000.0 11309700000.0 11309700000.0 11309700000.0 11309700000.0 11309700000.0 11309700000.0 11309700000.0 11309700000.0 11309700000.0 11309700000.0 11309700000.0 11309700000.0 11309700000.0 11309700000.0 11309700000.0 11309700000.0 11309700000.0 11309700000.0 11309700000.0 11309700000.0 11309700000.0 11309700000.0 11309700000.0 11309700000.0 11309700000.0 11309700000.0 11309700000.0 11309700000.0 11309700000.0 11309700000.0 11309700000.0 11309700000.0 11309700000.0 11309700000.0 11309700000.0 11309700000.0 11309700000.0 11309700000.0 11309700000.0 11309700000.0 11309700000.0 11309700000.0 11309700000.0 11309700000.0 11309700000.0 11309700000.0 11309700000.0 11309700000.0 11309700000.0 11309700000.0 11309700000.0 11309700000.0 11309700000.0 11309700000.0 11309700000.0 11309700000.0 11309700000.0 11309700000.0 11309700000.0 11309700000.0 11309700000.0 11309700000.0 11309700000.0 11309700000.0 11309700000.0 11309700000.0 11309700000.0 11309700000.0 11309700000.0 11309700000.0 11309700000.0 11309700000.0 11309700000.0 11309700000.0 11309700000.0 11309700000.0 11309700000.0 11309700000.0 11309700000.0 11309700000.0 11309700000.0 11309700000.0 11309700000.0 11309700000.0 11309700000.0 11309700000.0 11309700000.0 11309700000.0 11309700000.0 11309700000.0 11309700000.0 11309700000.0 11309700000.0 11309700000.0 11309700000.0 11309700000.0 11309700000.0 11309700000.0 11309700000.0 11309700000.0 11309700000.0 11309700000.0 11309700000.0 11309700000.0 11309700000.0 11309700000.0 11309700000.0 11309700000.0 11309700000.0 11309700000.0 11309700000.0 11309700000.0 11309700000.0 11309700000.0 11309700000.0 11309700000.0 11309700000.0 11309700000.0 11309700000.0 11309700000.0 11309700000.0 11309700000.0 11309700000.0 11309700000.0 11309700000.0 11309700000.0 11309700000.0 11309700000.0 11309700000.0 11309700000.0 11309700000.0 11309700000.0 11309700000.0 11309700000.0 11309700000.0 11309700000.0 11309700000.0 11309700000.0 11309700000.0 11309700000.0 11309700000.0 11309700000.0 11309700000.0 11309700000.0 11309700000.0 11309700000.0 11309700000.0 11309700000.0 11309700000.0 11309700000.0 11309700000.0 11309700000.0 11309700000.0 11309700000.0 11309700000.0 11309700000.0 11309700000.0 11309700000.0 11309700000.0 11309700000.0 11309700000.0 11309700000.0 11309700000.0 11309700000.0 11309700000.0 11309700000.0 11309700000.0 11309700000.0 
SCALARS Velocity float 1
LOOKUP_TABLE default
1.10924 1.07305 1.0874 1.08818 1.08841 1.10201 1.08697 1.10714 1.10857 1.10991 1.11221 1.05162 1.06268 1.07034 1.06925 1.06822 1.08639 1.08773 1.08868 1.10257 1.10303 1.10675 1.10828 1.10923 1.11035 1.11417 1.02993 1.0595 1.07049 1.06896 1.06728 1.08698 1.08771 1.08816 1.10346 1.10676 1.10758 1.10887 1.1096 1.10972 1.11161 1.1134 1.0313 1.07338 1.07061 1.07006 1.06963 1.06805 1.06795 1.0666 1.06714 1.08631 1.08735 1.08802 1.08955 1.10388 1.10725 1.10812 1.10862 1.10951 1.10934 1.10927 1.1099 1.03921 1.07048 1.0684 1.06668 1.06598 1.08584 1.08669 1.08726 1.08778 1.0876 1.1043 1.10546 1.10684 1.10727 1.10968 1.10988 1.10843 1.11065 1.03913 1.04153 1.07262 1.06864 1.06668 1.06545 1.0861 1.08807 1.0914 1.1055 1.10697 1.10956 1.1108 1.10934 1.10664 1.1043 1.07804 1.07451 1.07081 1.06933 1.06702 1.06677 1.06509 1.06523 1.06407 1.06466 1.0848 1.08668 1.08823 1.09418 1.10386 1.1094 1.11217 1.11163 1.11281 1.11096 1.10979 1.10771 1.10514 1.09057 1.0732 1.06775 1.06512 1.06374 1.06327 1.08316 1.08481 1.08523 1.08789 1.08956 1.09286 1.09993 1.1055 1.10841 1.11193 1.11447 1.11247 1.10718 1.09891 1.07944 1.06943 1.06544 1.0636 1.06271 1.08281 1.08773 1.08839 1.10061 1.11032 1.11539 1.11545 1.11023 1.10227 1.0881 1.07311 1.0664 1.06418 1.06369 1.06244 1.06245 1.06164 1.06202 1.08105 1.08292 1.08452 1.09433 1.10672 1.11483 1.11804 1.11867 1.11416 1.11015 1.10579 1.09918 1.09464 1.0853 1.0788 1.07234 1.06864 1.06545 1.06271 1.06162 1.06115 1.07842 1.08058 1.0797 1.08047 1.08367 1.08889 1.09491 1.10145 1.10817 1.11245 1.11823 1.1194 1.12263 1.11568 1.10381 1.09104 1.07723 1.06783 1.0634 1.06188 1.06114 1.07737 1.07945 1.0882 1.10224 1.11475 1.12472 1.12253 1.10928 1.09614 1.08269 1.0714 1.06482 1.06233 1.06203 1.0615 1.06131 1.06087 1.07524 1.07673 1.08209 1.09446 1.10934 1.12181 1.12858 1.12697 1.11656 1.10741 1.10141 1.09397 1.08836 1.0812 1.07598 1.07123 1.06737 1.06477 1.06312 1.06257 1.06206 1.0611 1.072 1.07406 1.07358 1.07718 1.07949 1.08642 1.09283 1.10257 1.10908 1.11604 1.12411 1.1321 1.1363 1.11587 1.09921 1.08767 1.07626 1.06792 1.06344 1.06284 1.06201 1.0708 1.07413 1.08346 1.10281 1.11349 1.14365 1.13173 1.10407 1.09893 1.09418 1.09155 1.08213 1.07299 1.06546 1.06338 1.06426 1.06325 1.0632 1.06172 1.0689 1.06762 1.07036 1.07596 1.09 1.10653 1.12423 1.14557 1.13623 1.11127 1.10079 1.10065 1.08703 1.0799 1.07787 1.06984 1.06646 1.06406 1.06439 1.06488 1.06235 1.06611 1.06708 1.07099 1.07304 1.07882 1.082 1.10682 1.10833 1.10214 1.08131 1.1631 1.15015 1.10453 1.10464 1.10393 1.08917 1.07299 1.06458 1.06593 1.06414 1.06457 1.06767 1.0763 1.10998 1.10861 0.945745 1.16902 1.10299 1.10745 1.1192 1.11196 1.11514 1.10242 1.10948 1.08543 1.07765 1.0676 1.06471 1.0653 1.06726 1.06594 1.06305 1.06177 1.06389 1.06186 1.06347 1.06319 1.06994 1.07274 1.07517 1.1062 1.08209 1.15486 1.13152 1.12574 1.11728 1.11423 1.06868 1.06551 1.06519 1.05881 1.06302 1.05938 1.06445 1.07348 1.10159 1.09117 1.09396 1.25684 1.20698 1.00088 0.96567 1.13259 1.13051 1.12276 1.11648 1.1187 1.06369 1.06809 1.05916 1.06052 1.05667 1.06777 1.08433 1.21073 1.041 1.04617 1.09382 1.1351 1.14117 1.15138 1.13609 1.14299 1.12317 1.11756 1.12223 1.06372 1.06896 1.06214 1.05174 1.05324 1.06485 1.06282 1.0558 1.04964 1.05584 1.05922 1.0768 1.17433 1.13175 1.04677 1.00937 1.10657 1.15719 1.1644 1.13583 1.11177 1.1209 1.1073 1.05483 1.046 1.0716 1.05546 1.0482 1.07449 1.13199 1.1455 1.13394 1.14068 1.09014 1.0282 1.05958 1.10793 1.14433 1.18051 1.17581 1.1479 1.11466 1.0969 1.11194 1.10981 1.07313 1.04364 1.08456 1.07319 1.06228 1.04406 1.04272 1.05773 1.08897 1.12858 1.10529 1.04352 1.05699 1.16004 1.18305 1.22346 1.2049 1.22527 1.09919 1.09513 1.0953 1.06807 1.05178 1.03854 1.04029 1.09661 1.0402 1.0584 1.11867 1.1141 1.09173 1.0693 1.03725 1.02812 1.11003 1.21972 1.25921 1.14219 1.0481 1.06576 1.08637 1.09809 1.08603 1.04463 1.03971 1.09905 1.08044 1.0348 1.03054 1.05468 1.08887 1.10896 1.11769 1.1087 1.06591 1.02286 1.04642 1.11279 1.18722 1.28177 1.29323 1.05701 1.03205 1.10232 1.05962 1.03538 1.0506 1.09455 1.13511 1.10453 1.03469 1.07192 1.1123 1.09499 1.04432 1.03979 1.23956 1.28866 1.41265 1.32424 0.967915 1.0967 1.0067 1.11961 1.08206 1.04543 1.03343 1.0412 1.17531 1.07207 0.993003 1.00331 1.02138 1.09271 1.10314 1.11011 1.10226 1.07821 1.06989 1.03478 1.07282 1.12857 1.44224 1.00009 1.02011 1.02982 1.21393 1.12262 1.07153 1.0231 1.08411 1.08555 1.22678 1.18078 1.10017 0.901889 1.05886 1.10552 1.09504 1.06719 1.13518 1.37588 1.04772 1.00705 1.05532 0.941488 1.13197 1.05309 1.03158 1.06802 1.14998 1.09377 1.15173 1.21806 0.951859 0.919735 1.08245 1.1085 1.08361 1.06766 0.764058 1.06478 1.0152 1.01222 1.05389 1.05128 1.01243 1.36009 1.11339 1.04843 1.02117 1.12232 1.10092 1.21319 1.26398 1.18352 0.912098 0.717628 0.871085 1.01049 1.11481 1.10866 1.10115 1.09243 1.02958 1.0007 0.848677 0.920433 1.01 1.02457 1.04782 0.952628 1.04943 1.09575 1.00132 1.19484 1.23755 1.09565 1.18035 1.30694 0.526807 1.02074 1.14414 1.03264 0.940983 0.897268 0.828132 0.835167 0.975158 1.02677 1.04787 1.03212 0.989172 0.996658 1.08256 1.04582 1.14046 1.23831 1.08319 1.12786 1.02628 1.25055 1.40556 0.990675 0.199842 0.850349 1.21828 1.11278 1.04182 0.94961 0.877845 0.855927 0.91047 0.953816 0.996918 1.03372 0.996741 0.967315 1.03634 0.919192 1.0979 1.20583 3.52863 0.634792 0.545755 1.37105 1.11017 1.08118 0.942736 1.35034 1.32745 1.22793 1.16279 0.969596 0.912536 0.846469 0.903554 0.981875 1.01609 1.02066 0.983569 0.992577 0.996305 0.994992 0.977625 1.41096 1.13513 0.544676 0.681925 0.579254 0.374941 1.30675 1.39136 1.18076 1.1689 1.38641 1.78924 1.04206 1.13766 1.0003 0.944578 0.926918 0.903437 0.877487 0.871657 0.871976 0.942455 1.00109 1.02112 1.01307 1.00142 0.984 0.978384 0.948777 1.26959 1.73754 1.91228 0.956115 0.593274 0.516293 0.701277 0.672132 0.643315 0.791673 0.825008 1.83139 1.36761 1.20013 1.15677 0.287748 1.05492 0.963711 0.974438 0.931613 0.923934 0.884825 0.890042 0.909978 0.939232 0.971331 1.00829 0.998305 0.985921 0.976921 0.978507 0.964864 0.997615 1.76574 0.645395 0.597074 0.526238 0.680794 0.687657 0.680072 0.701954 0.486338 1.43186 1.21496 0.763636 0.599572 0.875914 0.940613 0.937375 0.903189 0.885819 0.915736 0.96057 0.988882 0.993224 1.00349 0.984487 0.970898 0.971931 1.00831 1.19679 1.39254 0.084445 0.275777 0.25444 0.484257 0.512538 0.543546 0.603793 0.643877 0.660783 0.687417 0.687748 0.518166 1.73615 1.16708 0.920083 0.272839 0.572352 0.537138 0.824711 0.783395 0.854743 0.928074 0.950742 0.942296 0.923262 0.900039 0.891934 0.90167 0.932911 0.971111 0.988098 0.991495 0.97397 0.968818 0.978456 0.987135 1.06499 0.714137 0.346176 0.463537 0.430337 0.549285 0.556962 0.567545 0.568888 0.612803 0.616293 0.670834 0.61934 0.600037 0.632614 0.546571 1.3086 1.08173 1.0364 0.562351 0.283893 0.578569 0.839783 0.944825 0.914336 0.895218 0.895003 0.906581 0.918758 0.919798 0.943081 0.972105 0.978123 0.979105 0.966855 0.965398 0.958369 1.01327 1.18538 0.625833 0.571955 0.522942 0.572531 0.56387 0.537767 0.539731 0.576997 0.582693 0.59357 0.591575 0.751835 1.04419 0.767974 0.281158 0.498468 0.713116 0.891801 0.920019 0.890359 0.901412 0.913344 0.921688 0.947825 0.947353 0.966953 0.966535 0.950742 0.94998 0.923039 0.938289 0.914182 1.10359 0.91348 0.778102 0.504504 0.670586 0.654686 0.598833 0.582435 0.570194 0.559425 0.552317 0.503396 0.516402 0.513023 0.547594 0.545371 0.563539 0.549731 0.577245 0.588071 0.658833 0.639098 0.773695 0.807766 0.664108 0.544012 0.419251 0.257298 0.512555 0.632581 0.71501 0.789461 0.820697 0.890217 0.87136 0.88695 0.895204 0.900324 0.899091 0.92359 0.942361 0.958619 0.948119 0.952322 0.925877 0.88405 0.88738 1.19683 1.33631 0.691922 0.622256 0.637671 0.598 0.579994 0.571841 0.539836 0.548326 0.556347 0.495174 0.498048 0.501584 0.519168 0.529173 0.531061 0.534181 0.521372 0.557293 0.490328 0.520001 0.674655 0.728976 0.559823 0.440344 0.643405 0.756877 0.82688 0.856357 0.868347 0.843835 0.875692 0.844022 0.872642 0.900835 0.920423 0.935682 0.934303 0.932523 0.903367 0.888773 0.838631 0.845056 0.830552 0.498846 0.139735 0.600297 0.576741 0.580259 0.563678 0.537735 0.53906 0.569229 0.485506 0.49018 0.487326 0.490269 0.489681 0.513586 0.527386 0.522646 0.523728 0.501339 0.533171 0.528182 0.622576 0.694898 0.676679 0.632963 0.53738 0.575859 0.704452 0.779514 0.824875 0.839679 0.817706 0.835532 0.875107 0.873294 0.896871 0.891788 0.915945 0.927458 0.913963 0.857525 0.810597 0.863018 0.785717 1.14892 0.434209 0.52035 0.552539 0.579085 0.603031 0.581477 0.546595 0.529682 0.550024 0.56967 0.586868 0.480814 0.484414 0.483403 0.48428 0.499064 0.517457 0.531408 0.526848 0.500333 0.520222 0.538064 0.605234 0.641248 0.669456 0.640719 0.585487 0.657317 0.668363 0.7207 0.742402 0.764232 0.790437 0.793097 0.818903 0.808007 0.810605 0.847747 0.867165 0.887147 0.911521 0.907535 0.916357 0.898502 0.882983 0.823474 0.796018 0.851957 0.574169 0.943228 0.283247 0.46762 0.536158 0.591931 0.609719 0.519507 0.538694 0.589743 0.605464 0.475865 0.478401 0.481811 0.480258 0.480044 0.472975 0.50296 0.529241 0.534077 0.535394 0.508057 0.506024 0.578272 0.621559 0.66391 0.666516 0.666588 0.675049 0.7171 0.753614 0.772746 0.789355 0.807692 0.794258 0.799913 0.801555 0.819508 0.843561 0.861188 0.883378 0.903275 0.867077 0.726108 0.743967 0.855327 0.76907 0.723725 0.727876 0.520024 0.55123 0.571937 0.56048 0.612263 0.636606 0.629962 0.565561 0.538876 0.523481 0.56209 0.602678 0.617555 0.620001 0.633178 0.467221 0.470961 0.474401 0.480624 0.478676 0.474668 0.466771 0.476006 0.494606 0.519547 0.547665 0.540089 0.516348 0.499396 0.530052 0.610331 0.646693 0.692261 0.691557 0.720229 0.759996 0.76451 0.772455 0.782526 0.788182 0.801443 0.821067 0.816253 0.8377 0.83171 0.855365 0.852633 0.881145 0.897701 0.774057 0.62093 0.618413 0.80303 0.700421 0.673287 0.583799 0.573783 0.648027 0.615049 0.559934 0.579515 0.642026 0.645733 0.623338 0.462664 0.468183 0.471473 0.478376 0.481461 0.473723 0.477833 0.504194 0.550773 0.568523 0.559798 0.536967 0.539507 0.574626 0.605553 0.638595 0.67613 0.727953 0.722285 0.757738 0.767049 0.801022 0.773201 0.762685 0.762015 0.756563 0.768185 0.775291 0.784736 0.797565 0.810494 0.826356 0.855679 0.878483 0.881948 0.875121 0.794733 0.329456 0.856233 0.774558 0.662053 0.655272 0.62505 0.579174 0.625457 0.611698 0.677127 0.605252 0.582352 0.582423 0.625626 0.665428 0.668198 0.659051 0.638806 0.598336 0.573637 0.458134 0.45924 0.465005 0.466216 0.476048 0.479251 0.48068 0.460285 0.486644 0.542187 0.577302 0.594507 0.572274 0.541705 0.614112 0.614074 0.690977 0.720464 0.75863 0.806439 0.780895 0.749252 0.751434 0.76238 0.756773 0.769869 0.765745 0.781013 0.792283 0.804441 0.824072 0.863555 0.871588 0.717318 0.518216 0.909769 0.792046 0.686119 0.583207 0.561997 0.554015 0.589257 0.693064 0.640406 0.641225 0.658541 0.659119 0.667316 0.607425 0.531454 0.444661 0.451789 0.455388 0.46109 0.465678 0.470726 0.478875 0.478001 0.472958 0.446597 0.528904 0.58593 0.628725 0.631663 0.56604 0.489311 0.325503 0.513412 0.538151 0.716236 0.746267 0.763204 0.805976 0.841119 0.757248 0.746809 0.742559 0.746993 0.752523 0.761642 0.776082 0.770518 0.786716 0.781751 0.801118 0.801559 0.824542 0.832675 0.86916 0.839817 0.856868 0.878054 0.589299 0.661581 0.645807 0.619237 0.615819 0.578515 0.502616 0.537527 0.716204 0.626444 0.624232 0.659301 0.629492 0.648989 0.640552 0.63494 0.597795 0.547335 0.488317 0.484063 0.437919 0.450036 0.451157 0.454865 0.455413 0.473055 0.487442 0.487089 0.493594 0.472511 0.507417 0.583749 0.663832 0.661896 0.44724 0.462256 0.545168 0.606931 0.79898 0.797452 0.792606 0.851169 0.850455 0.736928 0.736691 0.7348 0.739235 0.742483 0.748565 0.756556 0.765082 0.780968 0.799302 0.811678 0.796479 0.716154 0.840788 0.615103 0.654163 0.627553 0.616011 0.608267 0.584574 0.482491 0.408066 0.408034 1.01738 0.745686 0.443541 0.544373 0.610269 0.619421 0.631271 0.536053 0.434484 0.462043 0.455361 0.433833 0.438556 0.443419 0.447069 0.447863 0.447178 0.461825 0.463571 0.498207 0.485444 0.448344 0.423905 0.525029 0.705834 0.647012 0.647878 0.525563 0.52805 0.674639 0.642508 0.810787 0.851811 0.823045 0.702178 0.757384 0.735139 0.728527 0.734118 0.729246 0.737923 0.734586 0.744978 0.75121 0.761388 0.784916 0.786803 0.740282 0.772871 0.766887 0.743548 0.702152 0.613189 0.606555 0.612344 0.63857 0.677974 0.655519 0.429718 0.272942 0.573022 1.34303 0.793917 0.294638 0.44953 0.559348 0.655679 0.635095 0.505674 0.456357 0.438059 0.46987 0.404322 0.422459 0.432838 0.44092 0.441478 0.445852 0.441103 0.453159 0.443722 0.464427 0.447279 0.392325 0.426925 0.802963 0.617965 0.492677 0.0705771 0.929635 0.540458 0.468334 0.992842 0.831913 0.780224 0.660021 0.665456 0.748573 0.746183 0.730658 0.727631 0.722853 0.725928 0.731774 0.740726 0.735737 0.745367 0.739869 0.762235 0.779645 0.778205 0.744426 0.698063 0.662595 0.578119 0.59886 0.573076 0.574482 0.599185 0.653358 0.725444 0.71523 0.708402 0.892112 0.320201 0.133538 0.273637 0.522256 0.582419 0.672267 0.596816 0.573901 0.466211 0.46275 0.475949 0.482238 0.4749 0.377395 0.415722 0.42195 0.432669 0.432169 0.441299 0.439531 0.441847 0.444503 0.433345 0.396263 0.309183 0.205767 0.631353 0.59726 0.465237 0.292523 0.839098 0.447426 1.4224 0.665571 0.790258 0.654856 0.638056 0.702526 0.73119 0.720659 0.720423 0.712572 0.717888 0.722904 0.729232 0.728716 0.737812 0.763063 0.719884 0.70226 0.654414 0.653041 0.598203 0.549024 0.539131 0.555419 0.586425 1.28592 0.291165 0.1683 0.390245 0.449009 0.563941 0.620121 0.624791 0.596101 0.448627 0.473173 0.419685 0.445545 0.484078 0.442171 0.327253 0.392006 0.407971 0.41662 0.414524 0.436668 0.436435 0.43968 0.421844 0.435105 0.399688 0.364132 0.331834 0.144148 0.392192 0.870374 0.564893 0.619476 0.530644 0.38847 0.692421 0.274966 2.02065 0.438397 0.705613 0.748524 0.637746 0.675134 0.721477 0.708355 0.71822 0.710639 0.706813 0.713674 0.712621 0.722194 0.727062 0.716261 0.692483 0.782522 0.752276 0.74046 0.726528 0.69316 0.590782 0.604298 0.529404 0.505479 0.515667 0.636269 0.645438 0.634951 0.606166 0.727846 0.708382 0.317886 0.18302 0.279713 0.487432 0.639626 0.661459 0.351038 0.391149 0.48818 0.485642 0.469017 0.471395 0.433497 0.402272 0.196725 0.266236 0.332032 0.362179 0.387985 0.407129 0.400838 0.425184 0.427338 0.412146 0.419489 0.410275 0.254523 0.305805 0.73378 0.683018 0.5874 0.476394 0.4927 0.370922 0.419002 1.46972 0.382585 0.641654 0.755329 0.689332 0.690919 0.706631 0.709683 0.702051 0.703537 0.713635 0.719933 0.720322 0.722925 0.712618 0.751851 0.738616 0.718479 0.651277 0.61295 0.601194 0.454144 0.53708 0.571098 0.586529 0.557512 0.501516 0.481675 0.860638 0.13231 0.192738 0.398657 0.406724 0.533785 0.736581 0.994582 0.661626 0.495862 0.45607 0.441763 0.385533 0.371404 0.34936 0.148505 0.296865 0.36504 0.379739 0.393341 0.392994 0.386183 0.394132 0.433853 0.429231 0.416757 0.396634 0.39781 0.446322 0.36771 0.376583 0.31497 0.87368 0.625829 0.52449 0.443597 0.345144 0.373844 0.32161 0.882516 0.566199 0.688817 0.690122 0.614499 0.627018 0.698778 0.696295 0.698307 0.690238 0.695992 0.7017 0.710131 0.718537 0.667553 0.731559 0.723622 0.687157 0.658571 0.647878 0.674743 0.483665 0.508395 0.525532 0.535082 0.496537 0.445832 0.479171 0.378209 1.23873 0.393604 0.439325 0.420516 0.532134 0.985764 0.410905 0.403058 0.371596 0.340437 0.405261 0.373949 0.388831 0.335113 0.348683 0.337889 0.105016 0.120031 0.219092 0.339403 0.366608 0.388429 0.390372 0.371482 0.446743 0.403597 0.399255 0.436744 0.396791 0.496675 0.724299 0.830941 0.574936 0.46162 0.389203 0.345297 0.275643 0.743824 0.612543 0.60839 0.618356 0.621731 0.631364 0.692095 0.701964 0.686566 0.686912 0.692567 0.689807 0.709408 0.697577 0.710208 0.698964 0.642803 0.719048 0.713626 0.712997 0.678152 0.64846 0.651219 0.386266 0.46008 0.505306 0.514529 0.493669 0.479941 0.526113 0.497099 0.169215 1.02326 0.469253 0.367635 0.5929 0.92783 0.350003 0.304723 0.289366 0.276291 0.333857 0.3179 0.307986 0.319201 0.375793 0.139757 0.115123 0.101054 0.251791 0.316227 0.367306 0.382142 0.386359 0.396648 0.400246 0.493621 0.417139 0.388518 0.415224 0.418521 0.499343 0.395818 0.364161 0.389347 0.482401 0.446045 0.453214 0.372306 0.309206 0.586406 0.662021 0.757209 0.648736 0.650165 0.646482 0.670813 0.686598 0.685284 0.682293 0.682861 0.683577 0.713342 0.701103 0.704198 0.652522 0.661633 0.686461 0.695855 0.719694 0.717349 0.644811 0.626841 0.74765 0.378707 0.489918 0.511513 0.509898 0.495272 0.500327 0.509576 0.356352 0.63565 0.525145 0.329487 0.397183 0.462393 0.493763 0.752308 0.49323 0.369786 0.30426 0.298923 0.331535 0.256767 0.275304 0.300752 0.325207 0.30742 0.326324 0.144844 0.186752 0.246198 0.0698346 0.387889 0.379716 0.388975 0.385042 0.38651 0.378624 0.243692 0.46704 0.395231 0.354756 0.172891 0.394082 0.368391 0.337857 0.293788 0.107547 0.413469 0.769586 0.543863 0.455859 0.389153 0.497375 0.530554 0.66764 0.71076 0.615566 0.674632 0.664027 0.669243 0.680913 0.662389 0.675193 0.675808 0.681274 0.671631 0.671767 0.708977 0.602044 0.636315 0.652686 0.722734 0.621746 0.635174 0.77918 0.490073 0.508767 0.5821 0.465894 0.376391 0.326987 0.444973 0.522486 0.585274 0.217537 0.343705 0.318935 0.222508 0.340808 0.203493 0.241804 0.256614 0.238817 0.298822 0.213095 0.230412 0.162386 0.169357 0.220756 0.405397 0.408415 0.41082 0.39158 0.400349 0.395883 0.373259 0.317499 0.267637 0.434293 0.34584 0.259927 0.28199 0.393769 0.395564 0.346091 0.113905 0.179067 0.336714 0.657708 0.54202 0.469189 0.486342 0.51893 0.590711 0.653886 0.690262 0.665503 0.67163 0.665638 0.66537 0.666328 0.674586 0.672388 0.688541 0.655287 0.736473 0.653459 0.788974 0.680475 0.61649 0.655903 0.684827 0.627249 0.625879 0.68462 0.756345 0.517904 0.519057 0.526004 0.53345 0.452122 0.501671 0.401001 0.361886 0.397016 0.490464 0.519818 0.526168 0.224033 0.291948 0.329174 0.273384 0.258108 0.314889 0.186966 0.220007 0.217728 0.237104 0.364241 0.157034 0.323849 0.25852 0.136812 0.17125 0.179421 0.169778 0.207691 0.326888 0.478439 0.475887 0.403623 0.400749 0.387697 0.357699 0.322518 0.393926 0.314523 0.297597 0.326076 0.402874 0.413266 0.407579 0.102636 0.266298 0.215159 0.5848 0.535487 0.520684 0.571352 0.616279 0.651338 0.678067 0.679313 0.674615 0.672143 0.669882 0.664712 0.651896 0.661661 0.626105 0.697249 0.639799 0.646564 0.637244 0.609741 0.621817 0.636283 0.669854 0.703855 0.635746 0.530106 0.527234 0.527581 0.536452 0.549629 0.534956 0.56625 0.411443 0.413725 0.460361 0.497975 0.480054 0.284446 0.24775 0.29054 0.299349 0.291439 0.238048 0.242403 0.234196 0.295106 0.349298 0.11089 0.163376 0.227788 0.225492 0.0734028 0.148643 0.215988 0.270847 0.26462 0.374096 0.452856 0.433769 0.397243 0.406731 0.400481 0.363164 0.35356 0.420438 0.377515 0.319027 0.304289 0.754033 0.591484 0.598945 0.528209 0.489827 0.554142 0.590875 0.624228 0.652629 0.66909 0.673611 0.669497 0.665178 0.662662 0.662516 0.664238 0.667791 0.613749 0.590791 0.62375 0.635683 0.638181 0.597911 0.612727 0.632993 0.661057 0.681149 0.656762 0.605423 0.555704 0.543757 0.543626 0.549507 0.551947 0.55099 0.516039 0.460042 0.472917 0.480693 0.465017 0.368884 0.285869 0.281761 0.285313 0.283841 0.290709 0.225345 0.255947 0.22551 0.223793 0.279497 0.438341 0.157463 0.0655898 0.00721814 0.0419783 0.106743 0.181808 0.274603 0.321741 0.443213 0.45312 0.399099 0.443986 0.448086 0.396312 0.364446 0.387812 0.414336 0.398066 0.291379 0.339561 0.407519 0.424195 0.615336 0.585081 1.01231 0.583568 0.574511 0.459504 0.509851 0.62727 0.648018 0.656825 0.661004 0.660575 0.657986 0.66099 0.662812 0.664326 0.665428 0.664166 0.658865 0.657161 0.648953 0.659484 0.648828 0.608144 0.608657 0.620808 0.621894 0.620462 0.607361 0.625344 0.651262 0.669493 0.662814 0.634987 0.597042 0.568562 0.557374 0.554481 0.55126 0.540584 0.510163 0.473097 0.454628 0.45948 0.482588 0.460731 0.409553 0.3503 0.291705 0.293589 0.284367 0.287331 0.252112 0.254206 0.30895 0.269245 0.245713 0.483768 1.14643 0.0856201 0.11132 0.155028 0.0327753 0.0867833 0.130768 0.169293 0.199243 0.318301 0.442951 0.41785 0.278118 0.524789 0.498906 0.444424 0.38127 0.392362 0.412014 0.436259 0.436464 0.301144 0.333768 0.381268 0.351835 0.356396 0.102267 0.379985 0.641875 0.614869 0.506445 0.545637 0.572796 0.599049 0.647247 0.651234 0.6562 0.657865 0.66007 0.662078 0.662123 0.661994 0.659992 0.658413 0.653542 0.655357 0.646458 0.630472 0.615982 0.616545 0.61772 0.616005 0.616005 0.62147 0.641644 0.56476 0.554119 0.539732 0.51451 0.480157 0.447863 0.503564 0.496001 0.43636 0.391679 0.342994 0.312359 0.298475 0.268812 0.260356 0.287151 0.361437 0.356256 0.388881 0.604446 0.339996 0.291482 0.172271 0.181053 0.194938 0.0023794 0.0132151 0.0366358 0.0373056 0.0887123 0.115965 0.31528 0.384733 0.646999 0.617811 0.589871 0.586713 0.592319 0.464908 0.398177 0.398472 0.413794 0.433377 0.276577 0.311658 0.357525 0.37698 0.52556 0.549524 0.690338 0.529155 0.565653 0.587388 0.603608 0.621616 0.639016 0.655119 0.657823 0.658754 0.65968 0.660224 0.659696 0.658539 0.655462 0.65386 0.648005 0.637434 0.627002 0.620507 0.619449 0.659391 0.663213 0.650846 0.626257 0.599487 0.576894 0.485235 0.455005 0.535198 0.518869 0.496036 0.46911 0.423521 0.387747 0.351439 0.322344 0.310452 0.30254 0.286536 0.299885 0.349835 0.443239 0.449844 0.50879 0.409551 0.38607 0.323255 0.893925 0.757395 0.0128406 0.030336 0.0344693 0.100979 0.153267 0.044116 0.43538 0.731022 1.20565 1.33414 0.711808 0.590663 0.488806 0.419564 0.410892 0.418433 0.428291 0.453579 0.498889 0.293404 0.356474 0.412356 0.506548 0.401912 0.448556 0.630072 0.614726 0.609311 0.556057 0.581422 0.594312 0.60446 0.617578 0.632436 0.64358 0.649953 0.617224 0.616406 0.624126 0.637547 0.651926 0.659169 0.656767 0.644628 0.625007 0.602673 0.582471 0.563063 0.543388 0.518199 0.578853 0.53019 0.509283 0.486213 0.456869 0.419385 0.387695 0.356618 0.335946 0.317289 0.316227 0.382257 0.428103 0.522727 0.530483 0.593583 0.494734 0.466911 0.690836 0.789778 0.798997 0.726579 0.776196 0.789535 0.00828552 0.0330951 0.0563254 0.0216465 0.0870968 0.0689398 0.335724 0.595619 1.09228 1.18125 1.1405 0.6145 0.459258 0.431432 0.425087 0.424396 0.429174 0.445462 0.483099 0.560745 0.333662 0.402293 0.548709 0.485428 0.427177 0.477128 0.601285 0.607252 0.616019 0.575215 0.58905 0.595728 0.603724 0.616312 0.63195 0.645185 0.652494 0.655728 0.65738 0.65773 0.658311 0.658738 0.658012 0.656022 0.653559 0.648801 0.64155 0.633244 0.627117 0.622857 0.620363 0.621023 0.626183 0.636584 0.648083 0.655681 0.657118 0.651903 0.639424 0.622731 0.602567 0.580878 0.557431 0.527118 0.492282 0.452599 0.555929 0.523265 0.500426 0.475173 0.446392 0.389123 0.364579 0.341151 0.323659 0.309182 0.414651 0.457278 0.498083 0.557676 0.578556 0.481228 0.539385 0.602548 0.736748 0.760127 0.807011 0.0375198 0.0534027 0.0265713 0.046542 0.132949 0.450852 0.51193 0.897488 0.886109 0.528399 0.445401 0.429392 0.424735 0.439713 0.467297 0.521693 0.611092 0.468608 0.518089 0.514227 0.516848 0.525001 0.545352 0.60899 0.61408 0.616202 0.590943 0.590084 0.594098 0.601414 0.617736 0.636595 0.651284 0.656063 0.656861 0.65705 0.656987 0.656959 0.656816 0.655741 0.653621 0.64982 0.644113 0.637662 0.632143 0.627586 0.624493 0.625226 0.629862 0.637489 0.646426 0.653785 0.656792 0.654721 0.64757 0.634979 0.618494 0.599411 0.575195 0.544281 0.507071 0.462913 0.613359 0.540865 0.513472 0.489453 0.465048 0.440595 0.414526 0.364756 0.341113 0.320396 0.318193 0.501335 0.517156 0.54276 0.528127 0.427218 0.472229 0.51221 0.681706 0.761227 0.67259 0.786863 0.0438697 0.0970841 0.38881 0.381435 0.593998 0.651852 0.916045 0.487196 1.10875 0.735055 0.563803 0.483726 0.435539 0.427648 0.436252 0.457721 0.498927 0.561001 0.646878 0.368522 0.433945 0.489077 0.524696 0.551029 0.56963 0.585289 0.599783 0.619225 0.617863 0.623661 0.650082 0.656843 0.658169 0.657324 0.656188 0.655597 0.655246 0.654688 0.653295 0.650556 0.646331 0.641373 0.636546 0.632421 0.629721 0.629675 0.632916 0.638845 0.646148 0.652859 0.65683 0.656831 0.614936 0.592474 0.56258 0.526274 0.481206 0.650973 0.580641 0.505098 0.481724 0.458359 0.435191 0.412839 0.389931 0.354031 0.321659 0.269591 0.496223 0.529942 0.539944 0.548375 0.427415 0.475886 0.583196 0.659127 0.559465 0.125435 0.362149 0.520961 0.550908 0.815099 0.75476 0.690066 0.890745 0.766314 0.567099 0.453011 0.430046 0.435861 0.452253 0.483622 0.532526 0.401625 0.463704 0.514348 0.552777 0.616467 0.592706 0.590228 0.592066 0.596855 0.658755 0.656528 0.654838 0.653999 0.653435 0.652472 0.650655 0.647763 0.644208 0.640483 0.637143 0.634833 0.652265 0.643613 0.631304 0.677775 0.610865 0.563075 0.530524 0.477025 0.453781 0.430922 0.407837 0.382486 0.272222 0.544852 0.528938 0.531726 0.509108 0.444261 0.38362 0.459196 0.596013 0.581312 0.521148 0.870836 0.379336 0.60722 0.720961 0.632788 0.43025 0.433582 0.44986 0.474509 0.595902 0.673252 0.44049 0.580661 0.599728 0.61333 0.621116 0.623901 0.620124 0.609493 0.59652 0.59122 0.588554 0.589419 0.650146 0.658828 0.660041 0.634351 0.63626 0.64046 0.64617 0.651976 0.656501 0.658309 0.656156 0.6503 0.64119 0.628291 0.609379 0.583459 0.5469 0.502504 0.691989 0.637755 0.590698 0.553678 0.525114 0.500613 0.449822 0.424021 0.396326 0.36464 0.325529 0.568269 0.541334 0.535996 0.5339 0.501443 0.452418 0.390472 0.404951 0.466351 0.544388 0.508509 0.595922 0.952581 0.984614 0.0314682 0.524467 0.620261 0.612269 0.527132 0.424057 0.426745 0.444456 0.47171 0.512891 0.564401 0.628191 0.692778 0.498364 0.544335 0.578005 0.602086 0.617956 0.626701 0.629319 0.626775 0.618935 0.608401 0.596851 0.587607 0.578989 0.560995 0.663521 0.664248 0.661973 0.658176 0.655212 0.653462 0.652452 0.651577 0.650329 0.648435 0.645982 0.643331 0.64094 0.639238 0.638635 0.639563 0.64236 0.64667 0.651446 0.655707 0.658242 0.658339 0.655373 0.648797 0.638498 0.624829 0.604877 0.574748 0.528502 0.697876 0.658849 0.617511 0.580657 0.549189 0.522893 0.498879 0.474992 0.444248 0.412763 0.377937 0.337948 0.290294 0.556266 0.530581 0.5263 0.518157 0.476481 0.38504 0.327239 0.500964 1.08716 0.916359 0.462053 0.559685 0.565929 0.529019 0.408903 0.43348 0.498728 0.542303 0.59914 0.656435 0.70558 0.482149 0.535168 0.575239 0.602093 0.619741 0.63083 0.635283 0.634168 0.628322 0.61904 0.607046 0.593183 0.578745 0.558903 0.549579 0.67457 0.669514 0.662249 0.656891 0.654008 0.652246 0.651053 0.649965 0.648679 0.647104 0.645302 0.643626 0.64245 0.642041 0.642643 0.644444 0.647428 0.651196 0.654932 0.657592 0.65861 0.657449 0.653466 0.645977 0.63502 0.623684 0.607673 0.567059 0.701103 0.641772 0.606941 0.575044 0.547511 0.522339 0.498645 0.472869 0.396085 0.354738 0.308307 0.59509 0.526673 0.514499 0.505772 0.302541 1.12858 0.99772 0.904176 0.727547 0.592588 0.586415 0.55918 0.552023 0.464068 0.49882 0.522207 0.579276 0.634388 0.679837 0.708082 0.527211 0.574011 0.604991 0.622741 0.634069 0.640654 0.641693 0.638011 0.630458 0.618985 0.60386 0.684444 0.670636 0.660729 0.655983 0.653166 0.651384 0.650083 0.64896 0.64788 0.646755 0.645665 0.644871 0.644612 0.645085 0.646374 0.648496 0.651291 0.65424 0.656729 0.65814 0.675381 0.572502 0.545317 0.522599 0.497673 0.467958 0.433756 0.327906 0.62174 0.575254 0.5469 0.533383 0.510414 0.513654 0.84898 0.849026 0.644248 0.604048 0.579778 0.562021 0.408376 0.447446 0.488713 0.530139 0.555471 0.617308 0.573459 0.585585 0.563847 0.544332 0.731644 0.65786 0.655438 0.65042 0.642447 0.635208 0.626896 0.615047 0.689879 0.684588 0.663666 0.630641 0.600738 0.544235 0.522078 0.492655 0.456033 0.418222 0.375147 0.648472 0.593007 0.557173 0.535458 0.541827 0.812029 0.865547 0.846076 0.744042 0.654943 0.597187 0.567959 0.58647 0.418389 0.467275 0.517507 0.569933 0.66936 0.689073 0.70165 0.610705 0.627522 0.638531 0.645064 0.648315 0.647368 0.641835 0.631873 0.617344 0.598397 0.57462 0.549818 0.523257 0.691221 0.668826 0.660475 0.655755 0.652796 0.650974 0.649776 0.64879 0.648003 0.647356 0.646842 0.646675 0.647067 0.648052 0.649585 0.65159 0.653854 0.655933 0.657308 0.657561 0.656311 0.653123 0.647866 0.642167 0.638753 0.633663 0.662691 0.683953 0.675935 0.654762 0.620856 0.598451 0.566794 0.47639 0.440603 0.399283 0.350698 0.616079 0.568048 0.543746 0.542407 0.522348 0.82474 0.808806 0.688034 0.632317 0.57587 0.618902 0.437091 0.496345 0.588577 0.662527 0.675923 0.694613 0.690889 0.625323 0.633039 0.643344 0.64993 0.654321 0.655501 0.652338 0.64487 0.632506 0.614309 0.590575 0.561022 0.525529 0.730127 0.683124 0.669014 0.660925 0.655872 0.65284 0.651176 0.650173 0.649423 0.648946 0.64865 0.648525 0.64872 0.649406 0.650595 0.65208 0.653713 0.655303 0.656522 0.656998 0.656429 0.654644 0.651648 0.64789 0.645866 0.644211 0.658785 0.673392 0.680634 0.666253 0.648779 0.616337 0.588973 0.563162 0.542691 0.518491 0.424166 0.377872 0.674007 0.560106 0.544071 0.55987 0.586865 0.76589 0.919215 0.820239 0.764646 0.569603 0.559643 0.590365 0.650454 0.554441 0.605839 0.638548 0.662366 0.686605 0.693043 0.670084 0.646499 0.648807 0.655416 0.660244 0.662827 0.662129 0.657544 0.647835 0.631769 0.609452 0.580362 0.537387 0.480335 0.783079 0.698682 0.682625 0.669387 0.661202 0.656309 0.653518 0.652063 0.651264 0.650719 0.65041 0.650321 0.650346 0.650639 0.651343 0.65243 0.653686 0.654902 0.655859 0.656389 0.656266 0.655289 0.653551 0.651567 0.650918 0.65228 0.659614 0.67042 0.680294 0.675479 0.658427 0.648198 0.602448 0.58393 0.561216 0.539292 0.495191 0.462072 0.699982 0.639431 0.592788 0.581312 0.597971 0.784174 0.827182 0.943835 0.622578 0.592913 0.553812 0.559222 0.612781 0.467947 0.533589 0.594878 0.656498 0.617557 0.681641 0.692698 0.687433 0.672025 0.661826 0.662977 0.666883 0.697259 0.68057 0.668651 0.661347 0.657275 0.654777 0.653623 0.652961 0.65241 0.652124 0.651986 0.651965 0.652126 0.59667 0.57886 0.559737 0.50694 0.481681 0.448188 0.405583 0.721745 0.669283 0.615881 0.584847 0.562094 0.600766 0.942028 0.756593 0.9516 0.979695 0.575004 0.57715 0.550682 0.68498 0.508767 0.577154 0.650124 0.625985 0.669844 0.671178 0.669266 0.662454 0.649635 0.629637 0.602044 0.56352 0.497176 0.778282 0.65265 0.653466 0.654378 0.655197 0.655743 0.655889 0.655521 0.654629 0.653508 0.653125 0.655086 0.660347 0.668606 0.675539 0.680452 0.67717 0.652463 0.640177 0.518868 0.495895 0.468192 0.432404 0.646519 0.608055 0.582964 0.585561 0.935572 0.901571 0.76905 0.895746 0.554077 0.571099 0.648259 0.717726 0.55589 0.640492 0.692526 0.696879 0.686914 0.677769 0.673327 0.675512 0.677902 0.679538 0.679275 0.675272 0.666066 0.649668 0.623416 0.588457 0.539582 0.477687 0.515436 0.717239 0.693085 0.677969 0.667755 0.66197 0.658392 0.656691 0.655723 0.654979 0.654245 0.653716 0.653344 0.653071 0.652966 0.653177 0.653662 0.65426 0.654824 0.65519 0.655232 0.654963 0.65457 0.654539 0.656046 0.659705 0.665957 0.672682 0.678231 0.684109 0.674434 0.640671 0.642875 0.587623 0.57827 0.484094 0.45432 0.740691 0.692762 0.598762 0.595817 0.596454 0.863276 0.878302 0.966613 0.803442 0.568735 0.560559 0.620362 0.681413 0.747348 0.631776 0.615764 0.652461 0.658701 0.693031 0.698463 0.689928 0.686643 0.684936 0.686252 0.687499 0.687784 0.685661 0.679448 0.667212 0.646025 0.612414 0.571021 0.525762 0.710785 0.688162 0.675306 0.667288 0.662651 0.660472 0.659075 0.658078 0.656955 0.655844 0.654888 0.654109 0.65347 0.652994 0.652885 0.653106 0.653551 0.654003 0.654332 0.654531 0.654667 0.65503 0.656289 0.659202 0.664336 0.670132 0.67573 0.680369 0.67333 0.675882 0.641351 0.637809 0.586462 0.52929 0.508741 0.755569 0.714863 0.671953 0.641272 0.59993 0.890538 0.90048 0.541148 0.568019 0.624341 0.652491 0.717908 0.775566 0.612246 0.584317 0.650326 0.675843 0.658388 0.692016 0.696244 0.700173 0.695611 0.694921 0.695102 0.695176 0.693802 0.689418 0.680695 0.665483 0.640081 0.601849 0.560562 0.491339 0.556545 0.725669 0.700027 0.684328 0.674342 0.667191 0.664333 0.663115 0.661754 0.660228 0.658567 0.656899 0.655344 0.654086 0.653026 0.652247 0.651946 0.652033 0.65237 0.652827 0.653367 0.653909 0.669236 0.686463 0.631401 0.635413 0.533891 0.519652 0.497532 0.472535 0.767643 0.733153 0.696906 0.666762 0.622672 0.613139 0.856474 0.849686 0.872603 0.92691 0.767173 0.805915 0.539297 0.638263 0.647515 0.552393 0.626345 0.684178 0.668612 0.657923 0.463196 0.654603 0.655763 0.657981 0.662304 0.669823 0.675062 0.66958 0.668617 0.590362 0.527721 0.509663 0.486146 0.693858 0.636828 0.635142 0.611993 0.871915 0.899373 0.8406 0.870545 0.807415 0.828868 0.68955 0.742372 0.7192 0.588538 0.687637 0.710015 0.705635 0.702829 0.702096 0.702053 0.700178 0.696164 0.689626 0.678851 0.662075 0.638914 0.589248 0.556901 1.02018 0.710957 0.692935 0.683674 0.673444 0.668769 0.667244 0.666057 0.664223 0.661903 0.659505 0.657078 0.654938 0.653193 0.651812 0.650884 0.650435 0.650451 0.650928 0.651627 0.652431 0.653398 0.65456 0.65627 0.659351 0.66529 0.674674 0.663707 0.662079 0.666317 0.679638 0.669523 0.630972 0.497541 0.77956 0.747281 0.715025 0.653588 0.632535 0.885576 0.854234 0.633576 0.650184 0.683612 0.715567 0.691895 0.74214 0.677641 0.707921 0.689201 0.669622 0.708866 0.736975 0.733739 0.72804 0.725794 0.724139 0.72222 0.718513 0.712639 0.70458 0.693005 0.679102 0.653594 0.651705 0.632147 0.960441 0.713781 0.685628 0.679907 0.675518 0.672759 0.671182 0.669223 0.666424 0.663311 0.659231 0.656255 0.653698 0.65161 0.64992 0.64879 0.648402 0.648687 0.649434 0.650481 0.651592 0.65282 0.654078 0.656128 0.659276 0.664112 0.670134 0.654408 0.659621 0.684607 0.661533 0.656359 0.591134 0.586126 0.522948 0.795533 0.76167 0.726418 0.707619 0.660343 0.882599 0.850164 0.796291 0.815715 0.637034 0.64946 0.684465 0.723132 0.692567 0.670552 0.68777 0.684003 0.676747 0.680628 0.737843 0.746083 0.687363 0.682035 0.646973 0.657825 0.710869 0.717615 0.682815 0.68488 0.680331 0.676089 0.676682 0.674453 0.67142 0.662469 0.658155 0.654523 0.651697 0.64929 0.647373 0.64626 0.646149 0.646824 0.64812 0.649447 0.650638 0.651878 0.652577 0.654227 0.656572 0.660528 0.657369 0.646282 0.688664 0.689871 0.640146 0.791994 0.700418 0.68924 0.604638 0.740227 0.774154 0.737598 0.717911 0.824712 0.801201 0.751215 0.717282 0.893121 0.907523 0.894942 0.878597 0.834748 0.853084 0.689691 0.756521 0.772895 0.79954 0.682049 0.684468 0.740873 0.734437 0.730742 0.728234 0.724001 0.718861 0.710481 0.698416 0.927132 0.636716 0.696607 0.735947 0.680418 0.657296 0.823292 0.809679 0.782939 0.904801 0.89683 0.896958 0.707664 0.734066 0.773633 0.755141 0.793417 0.679925 0.707008 0.753196 0.752445 0.744124 0.7381 0.735295 0.730554 0.723795 0.71536 0.703813 0.691037 0.684481 0.68435 0.651185 0.709789 0.712226 0.918384 0.737497 0.706888 0.686293 0.681921 0.677287 0.6949 0.693557 0.678122 0.665913 0.656016 0.651954 0.648915 0.646448 0.644456 0.643498 0.643791 0.645202 0.647006 0.648306 0.649095 0.649691 0.64896 0.651633 0.655396 0.63491 0.657883 0.664546 0.723398 0.763833 0.720168 0.741163 0.731609 0.896299 0.86729 0.91459 0.707996 0.691215 0.709573 0.739392 0.760254 0.763073 0.925309 0.806079 0.860304 0.688768 0.682626 0.70782 0.706747 0.769069 0.753709 0.746687 0.741295 0.737146 0.729388 0.720147 0.709249 0.696743 0.68646 0.681711 0.700552 0.685421 0.731584 0.642023 1.07513 0.741674 0.688323 0.681478 0.69398 0.67407 0.753637 0.72444 0.724912 0.688889 0.659533 0.648669 0.645997 0.642871 0.641614 0.640636 0.641845 0.643643 0.64517 0.647001 0.646088 0.645863 0.645127 0.647148 0.627102 0.642611 0.67995 0.7085 0.80008 0.782299 0.789007 0.81598 0.756378 0.716856 0.825574 0.795343 0.809448 0.795334 0.8348 0.835668 0.833447 0.915128 0.903478 0.903587 0.907565 0.90538 0.934247 0.764256 0.7628 0.810946 0.887895 0.920851 0.765925 0.816463 0.821538 0.702507 0.690612 0.679148 0.681787 0.722664 0.672006 0.739599 0.837039 0.813331 0.829525 0.806674 0.85776 0.743248 0.742554 0.731585 0.762978 0.792727 0.799735 0.795737 0.794375 0.792102 0.792551 0.793405 0.796112 0.835454 0.838761 0.841884 0.877015 0.868095 0.874779 0.892166 0.849465 0.849619 0.885845 0.875966 0.85432 0.893916 0.893832 0.893832 0.767194 0.793299 0.790442 0.806173 0.893826 0.821157 0.773064 0.7587 0.75091 0.743129 0.734597 0.725057 0.715035 0.887014 0.89325 0.798964 0.807131 0.811617 0.82289 0.82782 0.799851 0.893305 0.883212 0.880468 0.873232 0.893832 0.893832 0.894301 0.894727 0.86438 0.880984 0.867604 0.868252 0.879436 0.894298 0.853133 0.890058 0.899582 0.896508 0.864315 0.866953 0.868932 0.834469 0.832548 0.835766 0.84023 0.84208 0.843806 0.843608 0.844441 0.840017 0.840962 0.84583 0.769287 0.86712 0.777327 0.889137 0.808569 0.902215 0.870781 0.890666 0.879848 0.89176 0.867392 0.874748 0.871982 0.881944 0.883133 0.884457 0.882429 0.883417 0.882014 0.883643 0.884017 0.885637 0.891172 0.891307 0.890394 0.896067 0.899187 0.876392 0.884749 0.866737 0.895559 0.896826 0.88772 0.892667 0.902412 0.870009 0.86454 0.899983 0.895392 0.882221 0.88037 0.88338 0.876878 0.870728 0.894251 0.893926 0.893863 0.893954 0.893957 0.894964 0.895463 0.85927 0.862621 0.894423 0.894753 0.895265 0.870899 0.866976 0.863329 0.859441 0.867234 0.819654 0.836118 0.828916 0.89354 0.877104 0.893637 0.884013 0.88628 0.88926 0.888066 0.889822 0.888629 0.890092 0.887037 0.888067 0.885928 0.887804 0.88797 0.886307 0.891185 0.895863 0.872301 0.867718 0.876089 0.893821 0.893832 0.893832 0.893832 0.87895 0.869814 0.87156 0.877983 0.894251 0.87208 0.87776 0.853075 0.847921 0.848345 0.851904 0.855995 0.863119 0.864666 0.892117 0.890588 0.892715 0.889538 0.894108 0.892655 0.891062 0.89421 0.894535 0.87802 0.881158 0.868455 0.898496 0.8936 0.892744 0.895006 0.875308 0.877784 0.878108 0.893817 0.89383 0.893832 0.893832 0.858015 0.87248 0.865157 0.867148 0.870032 0.89414 0.865885 0.894094 0.893832 0.893832 0.872737 0.872807 0.878013 0.861787 0.854758 0.852628 0.854147 0.85665 0.861678 0.862846 0.864207 0.861986 0.856152 0.864992 0.830414 0.891025 0.879128 0.894235 0.833368 0.893559 0.872475 0.893154 0.880528 0.893064 0.885091 0.887393 0.885854 0.887045 0.885336 0.88693 0.883031 0.884169 0.88145 0.883657 0.883839 0.885876 0.889064 0.88679 0.884636 0.885404 0.885314 0.87306 0.873684 0.868006 0.895143 0.889829 0.883928 0.888605 0.890091 0.873318 0.870975 0.885814 0.893685 0.869661 0.87568 0.874859 0.875326 0.893832 0.893832 0.893832 0.893832 0.893806 0.893825 0.893832 0.893832 0.868432 0.82859 0.836779 0.868545 0.877978 0.883062 0.885095 0.883051 0.88416 0.881946 0.883586 0.878975 0.880193 0.876944 0.885581 0.874052 0.875271 0.87513 0.893832 0.893832 0.893832 0.893832 0.857558 0.867914 0.860976 0.863069 0.863312 0.89395 0.89381 0.893832 0.893832 0.875332 0.874074 0.878241 0.870552 0.861376 0.857949 0.85713 0.857421 0.860353 0.860563 0.860369 0.859366 0.851581 0.862582 0.893182 0.893581 0.89309 0.893654 0.893217 0.893096 0.879419 0.879619 0.882097 0.884004 0.881207 0.878678 0.877753 0.877355 0.868823 0.868107 0.868577 0.891792 0.886634 0.882015 0.886205 0.879592 0.892327 0.865619 0.874033 0.87331 0.893797 0.893822 0.893832 0.893832 0.85806 0.864664 0.857844 0.860083 0.858398 0.893735 0.870475 0.893596 0.893832 0.893832 0.877687 0.875491 0.878855 0.876403 0.867248 0.863052 0.860106 0.858782 0.859842 0.859201 0.857931 0.857882 0.848831 0.862216 0.827593 0.893652 0.893832 0.891756 0.839385 0.893614 0.865781 0.893168 0.876399 0.893064 0.881575 0.883375 0.880867 0.881855 0.879227 0.8809 0.875697 0.876951 0.873291 0.875968 0.876165 0.878957 0.879854 0.876707 0.873935 0.872276 0.871184 0.865118 0.864242 0.869631 0.889159 0.884145 0.88066 0.884295 0.882245 0.874341 0.879184 0.874757 0.891428 0.862945 0.87287 0.872736 0.875132 0.893832 0.893832 0.893832 0.893832 0.89382 0.893832 0.828624 0.893832 0.893832 0.893832 0.893832 0.89379 0.893832 0.858859 0.862544 0.855833 0.858144 0.855153 0.893525 0.871986 0.893463 0.893832 0.893832 0.87931 0.876795 0.879413 0.878693 0.871887 0.866844 0.862469 0.860011 0.859708 0.858466 0.856478 0.857138 0.847409 0.862662 0.893226 0.893832 0.890533 0.840652 0.893568 0.864009 0.893127 0.875529 0.893044 0.880665 0.882254 0.879379 0.880269 0.877352 0.879032 0.873409 0.87468 0.870738 0.873545 0.873725 0.876717 0.876921 0.873568 0.870657 0.868788 0.867169 0.862183 0.861862 0.870634 0.887306 0.882524 0.879788 0.883002 0.880064 0.874337 0.88217 0.87158 0.890928 0.861349 0.87225 0.872583 0.875157 0.893786 0.893819 0.893832 0.893832 0.859417 0.861535 0.854865 0.857189 0.853538 0.893387 0.872798 0.893402 0.893832 0.893832 0.880122 0.877552 0.879699 0.879273 0.874621 0.86878 0.863768 0.860685 0.859741 0.858165 0.855778 0.856863 0.846853 0.863024 0.829677 0.89297 0.893832 0.889738 0.841137 0.893541 0.863156 0.893106 0.87514 0.893034 0.880238 0.881691 0.878625 0.879468 0.876395 0.878069 0.872235 0.873518 0.869427 0.872293 0.872463 0.875553 0.875404 0.871959 0.868987 0.867076 0.865229 0.860561 0.860752 0.87124 0.886318 0.881743 0.879364 0.882357 0.878992 0.874278 0.88376 0.87 0.890692 0.860611 0.872004 0.872559 0.875192 0.893832 0.893832 0.893832 0.893832 
SCALARS Axial_Stress float 1
LOOKUP_TABLE default
-73230600000.0 -97112900000.0 -116819000000.0 -85337100000.0 -226281000000.0 -120787000000.0 -165053000000.0 -68400600000.0 -83698800000.0 -88214300000.0 -74844500000.0 -63440100000.0 -53039000000.0 -86168500000.0 -176006000000.0 -159528000000.0 -120624000000.0 -220001000000.0 -161104000000.0 -159541000000.0 -164506000000.0 -80745000000.0 -98404900000.0 -206721000000.0 -124735000000.0 -118741000000.0 -120432000000.0 -52455800000.0 -133914000000.0 -295128000000.0 -317017000000.0 -287358000000.0 -238999000000.0 -282722000000.0 -275326000000.0 -187034000000.0 -238962000000.0 -283924000000.0 -284360000000.0 -373741000000.0 -278327000000.0 -431232000000.0 -141335000000.0 -281187000000.0 -242697000000.0 -422152000000.0 -327611000000.0 -453449000000.0 -381987000000.0 -473052000000.0 -235413000000.0 -260270000000.0 -351944000000.0 -125110000000.0 -283134000000.0 -302661000000.0 -321595000000.0 -515032000000.0 -383236000000.0 -522594000000.0 -409756000000.0 -513337000000.0 -471156000000.0 -364868000000.0 -584589000000.0 -535100000000.0 -544679000000.0 -325083000000.0 -390268000000.0 -468750000000.0 -542478000000.0 -361586000000.0 -327058000000.0 -277157000000.0 -307027000000.0 -332886000000.0 -648783000000.0 -642882000000.0 -639872000000.0 -613070000000.0 -425329000000.0 -336726000000.0 -362021000000.0 -846743000000.0 -652613000000.0 -627315000000.0 -629454000000.0 -676869000000.0 -608870000000.0 -482266000000.0 -438916000000.0 -882167000000.0 -779836000000.0 -761182000000.0 -745726000000.0 -691788000000.0 -747446000000.0 -1.11704e+12 -1.09087e+12 -1.01844e+12 -818668000000.0 -846288000000.0 -724077000000.0 -794049000000.0 -707184000000.0 -784608000000.0 -417200000000.0 -517036000000.0 -774996000000.0 -744570000000.0 -771090000000.0 -1.1441e+12 -948571000000.0 -1.02832e+12 -887092000000.0 -993192000000.0 -870852000000.0 -974993000000.0 -843458000000.0 -946343000000.0 -1.41383e+12 -1.14584e+12 -990255000000.0 -893147000000.0 -863211000000.0 -511104000000.0 -646889000000.0 -900195000000.0 -1.00084e+12 -887066000000.0 -1.00678e+12 -2.05366e+12 -1.50954e+12 -1.41018e+12 -1.15987e+12 -1.1874e+12 -1.11745e+12 -1.0996e+12 -1.08204e+12 -1.19543e+12 -1.28369e+12 -1.12336e+12 -1.00524e+12 -948800000000.0 -934357000000.0 -1.13618e+12 -1.01827e+12 -2.21542e+12 -1.72678e+12 -1.37051e+12 -1.24654e+12 -1.21959e+12 -1.20748e+12 -1.23245e+12 -1.33387e+12 -1.2499e+12 -1.1194e+12 -1.13727e+12 -1.04136e+12 -1.09008e+12 -1.01026e+12 -1.07678e+12 -606465000000.0 -779531000000.0 -1.23934e+12 -1.81243e+12 -1.96608e+12 -1.576e+12 -1.38238e+12 -1.33251e+12 -1.44386e+12 -1.32992e+12 -1.44201e+12 -1.3255e+12 -1.42204e+12 -1.33998e+12 -1.40885e+12 -1.33288e+12 -1.3289e+12 -1.23272e+12 -1.2339e+12 -1.17171e+12 -1.14781e+12 -703343000000.0 -917966000000.0 -1.36412e+12 -1.53358e+12 -1.53514e+12 -1.74946e+12 -1.91455e+12 -1.83598e+12 -1.75582e+12 -1.65504e+12 -1.52564e+12 -1.53907e+12 -1.43914e+12 -1.5366e+12 -1.56491e+12 -1.53742e+12 -1.48697e+12 -1.4177e+12 -1.32502e+12 -1.25313e+12 -1.21936e+12 -1.21211e+12 -1.59059e+12 -1.6729e+12 -1.81575e+12 -1.74095e+12 -1.62646e+12 -1.6093e+12 -1.67378e+12 -1.67196e+12 -1.60443e+12 -1.51732e+12 -1.41275e+12 -1.33154e+12 -1.28896e+12 -1.33989e+12 -1.27752e+12 -1.34262e+12 -801932000000.0 -1.06524e+12 -1.69728e+12 -1.77621e+12 -1.78797e+12 -1.68805e+12 -1.65758e+12 -1.73539e+12 -1.92627e+12 -1.81169e+12 -1.91612e+12 -1.74965e+12 -1.7905e+12 -1.63751e+12 -1.63096e+12 -1.5084e+12 -1.48693e+12 -1.40748e+12 -1.4147e+12 -1.3543e+12 -1.39579e+12 -1.40282e+12 -902539000000.0 -1.19988e+12 -1.75558e+12 -1.83128e+12 -1.78259e+12 -1.83958e+12 -1.80984e+12 -1.77939e+12 -1.72439e+12 -1.68525e+12 -1.68319e+12 -1.73551e+12 -1.76035e+12 -1.93886e+12 -2.09412e+12 -1.97526e+12 -1.78817e+12 -1.5842e+12 -1.47214e+12 -1.44313e+12 -1.45549e+12 -1.47241e+12 -1.89312e+12 -1.89228e+12 -1.8495e+12 -1.68212e+12 -1.68378e+12 -1.89974e+12 -2.24099e+12 -2.19381e+12 -2.22808e+12 -1.98308e+12 -1.92819e+12 -1.73067e+12 -1.53296e+12 -1.48073e+12 -1.49618e+12 -1.57131e+12 -1.52852e+12 -1.60743e+12 -1.00569e+12 -1.3233e+12 -2.02279e+12 -1.95823e+12 -1.93021e+12 -1.79671e+12 -1.61471e+12 -1.7457e+12 -2.1696e+12 -2.69998e+12 -2.44201e+12 -2.50002e+12 -2.20726e+12 -1.76448e+12 -1.61347e+12 -1.5182e+12 -1.5072e+12 -1.53254e+12 -1.52271e+12 -1.59434e+12 -1.66119e+12 -1.11225e+12 -1.43694e+12 -2.08812e+12 -2.01478e+12 -2.05987e+12 -1.92816e+12 -1.85475e+12 -1.59262e+12 -1.51766e+12 -1.54097e+12 -1.36466e+12 -2.04929e+12 -2.40212e+12 -2.91259e+12 -2.41811e+12 -2.20993e+12 -1.44764e+12 -1.5193e+12 -1.59647e+12 -1.69368e+12 -1.75555e+12 -2.15499e+12 -2.1512e+12 -2.09283e+12 -1.35522e+12 -1.46063e+12 -1.18009e+12 -3.56874e+12 -3.03315e+12 -2.66068e+12 -2.50807e+12 -2.38178e+12 -2.45493e+12 -2.34027e+12 -2.77909e+12 -1.37481e+12 -1.39773e+12 -1.57431e+12 -1.66671e+12 -1.69392e+12 -1.8294e+12 -1.80895e+12 -1.92612e+12 -1.22339e+12 -1.54264e+12 -2.29404e+12 -2.2248e+12 -2.29916e+12 -2.21582e+12 -2.29268e+12 -2.13973e+12 -1.42618e+12 -1.31828e+12 -1.9697e+12 -2.59426e+12 -2.53481e+12 -2.67426e+12 -3.09991e+12 -1.48562e+12 -1.7924e+12 -1.98126e+12 -1.34073e+12 -1.63911e+12 -2.37598e+12 -2.38117e+12 -2.33594e+12 -1.24895e+12 -1.34444e+12 -1.38489e+12 -1.66638e+12 -1.20491e+12 -2.2874e+12 -2.07128e+12 -2.57714e+12 -2.65375e+12 -2.95049e+12 -3.29423e+12 -3.34252e+12 -1.61764e+12 -1.98583e+12 -2.12914e+12 -2.42169e+12 -2.48897e+12 -2.4417e+12 -1.03465e+12 -1.88648e+12 -1.64336e+12 -2.37826e+12 -2.40673e+12 -2.58505e+12 -2.65411e+12 -2.7724e+12 -2.82712e+12 -3.01714e+12 -3.19095e+12 -3.33567e+12 -3.25516e+12 -1.7995e+12 -2.17842e+12 -2.1948e+12 -2.35981e+12 -1.46372e+12 -1.72774e+12 -2.51355e+12 -2.5043e+12 -2.63201e+12 -2.66186e+12 -2.94157e+12 -2.31145e+12 -1.92802e+12 -2.05345e+12 -2.21438e+12 -2.2889e+12 -2.56334e+12 -2.72391e+12 -2.90531e+12 -3.23803e+12 -3.35317e+12 -3.05902e+12 -2.74376e+12 -2.43898e+12 -1.59194e+12 -1.81615e+12 -2.58161e+12 -2.83339e+12 -3.72707e+12 -2.9508e+12 -1.73074e+12 -2.26468e+12 -2.20957e+12 -2.38558e+12 -2.52947e+12 -2.51991e+12 -2.70401e+12 -2.70528e+12 -2.83766e+12 -3.04701e+12 -3.35308e+12 -3.35925e+12 -3.35736e+12 -3.25271e+12 -3.0655e+12 -2.67929e+12 -2.60323e+12 -1.91659e+12 -2.54306e+12 -2.58656e+12 -2.70742e+12 -2.9215e+12 -3.17911e+12 -3.27885e+12 -2.6727e+12 -2.4953e+12 -2.54802e+12 -2.72774e+12 -2.82485e+12 -2.80757e+12 -2.86704e+12 -2.92902e+12 -3.033e+12 -3.4752e+12 -3.24471e+12 -2.90337e+12 -2.88875e+12 -2.75065e+12 -2.86872e+12 -1.73456e+12 -2.46909e+12 -2.69272e+12 -3.05099e+12 -3.01705e+12 -2.72255e+12 -2.80494e+12 -2.65615e+12 -2.79739e+12 -2.7584e+12 -2.89521e+12 -2.87472e+12 -2.85331e+12 -3.63205e+12 -3.79742e+12 -3.43982e+12 -3.18941e+12 -3.0758e+12 -3.00512e+12 -2.95736e+12 -1.90343e+12 -2.05026e+12 -2.47125e+12 -2.37915e+12 -2.82489e+12 -3.13257e+12 -3.18206e+12 -3.14409e+12 -2.94365e+12 -2.97278e+12 -2.89612e+12 -2.95561e+12 -2.93629e+12 -3.11399e+12 -3.02155e+12 -2.79623e+12 -2.85605e+12 -4.57366e+12 -3.33377e+12 -3.07183e+12 -3.03426e+12 -3.09899e+12 -2.08288e+12 -2.38504e+12 -2.22599e+12 -2.1933e+12 -3.12469e+12 -3.25812e+12 -3.1385e+12 -3.02348e+12 -2.99195e+12 -3.11839e+12 -3.28077e+12 -3.10386e+12 -2.99424e+12 -2.23113e+12 -1.86659e+12 -2.97496e+12 -3.57419e+12 -3.0645e+12 -3.07672e+12 -3.15392e+12 -3.11717e+12 -3.33345e+12 -1.92567e+12 -3.45097e+12 -3.46231e+12 -3.29313e+12 -3.38415e+12 -3.28423e+12 -3.29847e+12 -3.16471e+12 -3.19799e+12 -3.07807e+12 -3.13578e+12 -3.10287e+12 -3.23252e+12 -3.32396e+12 -3.35888e+12 -2.23917e+12 -2.89181e+12 -3.0478e+12 -2.74728e+12 -3.02314e+12 -3.12451e+12 -3.25497e+12 -2.26867e+12 -2.7414e+12 -3.05177e+12 -3.5185e+12 -3.66125e+12 -3.4817e+12 -3.41308e+12 -3.3169e+12 -3.23757e+12 -3.20116e+12 -3.39006e+12 -3.507e+12 -2.33395e+12 -2.64536e+12 -2.84004e+12 -2.38273e+12 -2.82096e+12 -3.48144e+12 -3.35201e+12 -3.59442e+12 -2.46764e+12 -3.20566e+12 -4.81726e+12 -3.70505e+12 -3.67346e+12 -3.50844e+12 -3.41833e+12 -3.34139e+12 -3.28054e+12 -3.22791e+12 -2.73234e+12 -2.42347e+12 -2.82269e+12 -2.75577e+12 -3.05584e+12 -2.89236e+12 -2.5696e+12 -2.33355e+12 -3.93243e+12 -3.27794e+12 -3.20454e+12 -4.01742e+12 -3.09464e+12 -4.28704e+12 -4.38715e+12 -3.90527e+12 -3.8909e+12 -3.59511e+12 -3.59653e+12 -3.50763e+12 -3.50256e+12 -3.4329e+12 -3.46145e+12 -3.37417e+12 -3.39397e+12 -3.30611e+12 -3.16571e+12 -2.93848e+12 -3.03357e+12 -2.99357e+12 -3.13443e+12 -4.6237e+12 -4.90761e+12 -3.72658e+12 -2.35304e+12 -5.3375e+12 -2.84097e+12 -4.42579e+12 -4.74317e+12 -4.35689e+12 -3.6113e+12 -3.55498e+12 -3.53255e+12 -3.48905e+12 -3.4787e+12 -3.35305e+12 -3.33257e+12 -3.13182e+12 -3.08533e+12 -3.23158e+12 -3.2554e+12 -3.63944e+12 -3.81859e+12 -4.66622e+12 -4.3857e+12 -3.86584e+12 -3.14267e+12 -2.03989e+12 -2.21602e+12 -4.93755e+12 -5.02014e+12 -4.7492e+12 -4.77761e+12 -4.23126e+12 -3.40086e+12 -3.58559e+12 -3.57533e+12 -3.67248e+12 -3.58029e+12 -3.5849e+12 -3.45782e+12 -3.30213e+12 -3.18258e+12 -3.27828e+12 -3.24271e+12 -3.52201e+12 -3.95232e+12 -4.33295e+12 -4.31165e+12 -4.22498e+12 -4.04328e+12 -4.25956e+12 -2.97975e+12 -4.70613e+12 -4.17153e+12 -5.65775e+12 -5.49374e+12 -5.167e+12 -5.37858e+12 -4.69536e+12 -3.43678e+12 -3.57252e+12 -3.75565e+12 -3.68942e+12 -3.56373e+12 -3.43238e+12 -3.33633e+12 -3.41298e+12 -3.43999e+12 -3.78309e+12 -4.22962e+12 -4.40342e+12 -4.41307e+12 -4.32613e+12 -4.52612e+12 -5.08476e+12 -5.16977e+12 -4.61412e+12 -4.52341e+12 -7.07204e+12 -6.91403e+12 -5.0129e+12 -5.65636e+12 -5.4072e+12 -5.43431e+12 -5.75016e+12 -2.87304e+12 -3.93965e+12 -3.81528e+12 -3.80266e+12 -3.76713e+12 -3.663e+12 -3.62218e+12 -3.53171e+12 -3.50199e+12 -3.41497e+12 -3.41727e+12 -3.57797e+12 -3.66173e+12 -3.87098e+12 -4.01426e+12 -4.3802e+12 -4.55125e+12 -4.56707e+12 -4.91823e+12 -5.07987e+12 -5.25603e+12 -6.77564e+12 -4.42662e+12 -4.29974e+12 -4.46923e+12 -4.34716e+12 -6.60175e+12 -6.84481e+12 -6.06823e+12 -5.68451e+12 -5.60184e+12 -5.55377e+12 -5.49114e+12 -4.80544e+12 -4.16383e+12 -4.00867e+12 -3.89336e+12 -3.87187e+12 -3.7097e+12 -3.58058e+12 -3.49682e+12 -3.44689e+12 -3.51906e+12 -3.53372e+12 -3.75862e+12 -4.06941e+12 -4.23306e+12 -4.41196e+12 -4.50841e+12 -4.76299e+12 -4.77279e+12 -4.3437e+12 -6.46201e+12 -6.78027e+12 -4.07048e+12 -4.36259e+12 -7.02995e+12 -7.1507e+12 -6.57789e+12 -5.48859e+12 -6.00133e+12 -6.01647e+12 -4.32036e+12 -5.74699e+12 -4.22252e+12 -3.97496e+12 -3.79804e+12 -3.65542e+12 -3.55648e+12 -3.53066e+12 -3.62257e+12 -3.67568e+12 -3.8325e+12 -3.93918e+12 -4.26556e+12 -4.58861e+12 -4.69042e+12 -4.93198e+12 -4.96815e+12 -4.74452e+12 -6.03822e+12 -6.68893e+12 -6.5133e+12 -6.68074e+12 -6.44505e+12 -3.82692e+12 -4.15855e+12 -4.24728e+12 -6.88858e+12 -6.98095e+12 -6.81782e+12 -6.5109e+12 -5.71502e+12 -6.4012e+12 -5.33726e+12 -5.49294e+12 -6.13159e+12 -5.72422e+12 -4.77195e+12 -4.50589e+12 -4.12723e+12 -4.01899e+12 -3.89385e+12 -3.80933e+12 -3.72817e+12 -3.67351e+12 -3.61476e+12 -3.56409e+12 -3.59533e+12 -3.74885e+12 -3.99575e+12 -4.11981e+12 -4.45204e+12 -4.78726e+12 -4.88263e+12 -5.06183e+12 -5.13339e+12 -5.6047e+12 -6.28875e+12 -6.28314e+12 -6.36064e+12 -6.01369e+12 -3.918e+12 -3.78933e+12 -4.12609e+12 -6.77193e+12 -6.72218e+12 -6.85425e+12 -6.30533e+12 -6.00661e+12 -6.18666e+12 -5.35156e+12 -6.7849e+12 -6.32258e+12 -5.82274e+12 -5.67387e+12 -5.77906e+12 -4.96007e+12 -4.27288e+12 -3.91369e+12 -3.74144e+12 -3.6409e+12 -3.60461e+12 -3.62797e+12 -3.59807e+12 -3.64632e+12 -3.68775e+12 -3.89056e+12 -4.16326e+12 -4.30296e+12 -4.48513e+12 -4.63988e+12 -5.00279e+12 -5.14919e+12 -5.05325e+12 -5.93523e+12 -6.52021e+12 -6.06133e+12 -6.07597e+12 -3.6977e+12 -4.14512e+12 -6.62466e+12 -6.67962e+12 -6.59303e+12 -6.54398e+12 -6.31118e+12 -5.80134e+12 -6.34875e+12 -5.95467e+12 -5.56732e+12 -5.34421e+12 -4.61711e+12 -4.09721e+12 -3.83025e+12 -3.68825e+12 -3.64652e+12 -3.63921e+12 -3.73469e+12 -3.80381e+12 -3.93288e+12 -4.04019e+12 -4.33473e+12 -4.66574e+12 -4.83527e+12 -5.02264e+12 -5.21133e+12 -5.43704e+12 -4.93486e+12 -5.3204e+12 -5.5e+12 -5.91901e+12 -6.29169e+12 -6.72504e+12 -5.15228e+12 -5.8832e+12 -6.18157e+12 -6.25199e+12 -3.6154e+12 -4.22384e+12 -4.20972e+12 -6.62751e+12 -6.49456e+12 -6.3939e+12 -6.50612e+12 -6.62071e+12 -6.37638e+12 -6.41031e+12 -6.33e+12 -5.97606e+12 -6.11654e+12 -6.09423e+12 -5.79691e+12 -5.69031e+12 -5.42509e+12 -5.43255e+12 -5.07246e+12 -4.87484e+12 -4.57383e+12 -4.35043e+12 -4.15542e+12 -3.96853e+12 -3.87084e+12 -3.76241e+12 -3.65555e+12 -3.65752e+12 -3.6776e+12 -3.84142e+12 -4.0698e+12 -4.19549e+12 -4.35434e+12 -4.50595e+12 -4.83749e+12 -5.20313e+12 -5.64885e+12 -4.46201e+12 -5.35285e+12 -5.13551e+12 -6.00162e+12 -6.18631e+12 -5.93439e+12 -6.06615e+12 -6.05835e+12 -6.30931e+12 -3.5723e+12 -3.56909e+12 -4.1962e+12 -6.61193e+12 -6.42558e+12 -6.50454e+12 -6.43955e+12 -6.50428e+12 -6.41819e+12 -6.55842e+12 -6.24267e+12 -6.46789e+12 -6.29248e+12 -5.97608e+12 -5.89118e+12 -5.48496e+12 -5.15368e+12 -4.72703e+12 -4.33679e+12 -4.01249e+12 -3.78944e+12 -3.69814e+12 -3.69023e+12 -3.67382e+12 -3.68432e+12 -3.66684e+12 -3.7644e+12 -3.95789e+12 -4.2124e+12 -4.51256e+12 -4.67123e+12 -4.82735e+12 -4.99573e+12 -5.1432e+12 -5.39111e+12 -6.46974e+12 -6.1e+12 -5.41392e+12 -6.19021e+12 -6.17288e+12 -6.12152e+12 -6.17873e+12 -6.27344e+12 -6.37515e+12 -3.56741e+12 -4.06881e+12 -4.13263e+12 -6.47071e+12 -6.53554e+12 -6.38251e+12 -6.34497e+12 -6.36568e+12 -6.77603e+12 -7.06979e+12 -5.72989e+12 -6.94245e+12 -6.41898e+12 -6.05024e+12 -5.643e+12 -5.55361e+12 -5.23776e+12 -5.18441e+12 -4.8497e+12 -4.47373e+12 -4.15983e+12 -3.90099e+12 -3.72803e+12 -3.68923e+12 -3.68098e+12 -3.70438e+12 -3.77491e+12 -3.85919e+12 -3.96409e+12 -4.08256e+12 -4.3581e+12 -4.66818e+12 -4.97379e+12 -5.35187e+12 -5.84207e+12 -6.23802e+12 -5.51244e+12 -5.93583e+12 -6.28157e+12 -6.44649e+12 -6.10331e+12 -6.18687e+12 -6.23993e+12 -6.17489e+12 -6.27069e+12 -6.35071e+12 -6.32407e+12 -3.59152e+12 -3.97261e+12 -6.60063e+12 -6.22948e+12 -5.85612e+12 -6.08295e+12 -5.98438e+12 -6.59872e+12 -6.68204e+12 -6.25328e+12 -6.02013e+12 -6.09665e+12 -5.84716e+12 -5.7381e+12 -5.30806e+12 -4.93277e+12 -4.8903e+12 -4.65909e+12 -4.58424e+12 -4.36258e+12 -4.28242e+12 -4.13778e+12 -4.02383e+12 -3.91148e+12 -3.81067e+12 -3.69676e+12 -3.67192e+12 -3.7094e+12 -3.85705e+12 -4.07706e+12 -4.21288e+12 -4.34782e+12 -4.50509e+12 -4.6527e+12 -4.82318e+12 -4.98234e+12 -5.11855e+12 -5.41756e+12 -6.10451e+12 -6.35035e+12 -4.48184e+12 -5.85721e+12 -6.43197e+12 -6.18088e+12 -6.10259e+12 -6.21911e+12 -6.23673e+12 -6.30314e+12 -3.64006e+12 -3.86846e+12 -6.48333e+12 -6.57317e+12 -6.50604e+12 -6.39602e+12 -6.19995e+12 -4.89401e+12 -5.81713e+12 -6.26374e+12 -6.24821e+12 -5.83206e+12 -5.60507e+12 -5.16535e+12 -5.4104e+12 -5.37852e+12 -5.08141e+12 -4.99907e+12 -4.62813e+12 -4.46165e+12 -4.22399e+12 -4.01846e+12 -3.81036e+12 -3.73641e+12 -3.6738e+12 -3.66348e+12 -3.63458e+12 -3.66431e+12 -3.76341e+12 -3.9503e+12 -4.19571e+12 -4.48762e+12 -4.7979e+12 -5.06872e+12 -5.06602e+12 -4.67516e+12 -5.48619e+12 -5.64571e+12 -5.50144e+12 -5.19125e+12 -5.76305e+12 -6.80938e+12 -6.00308e+12 -5.29061e+12 -5.82181e+12 -6.20971e+12 -6.14284e+12 -6.15888e+12 -6.13935e+12 -6.18636e+12 -6.18007e+12 -6.30823e+12 -3.71586e+12 -3.79597e+12 -3.73279e+12 -3.7682e+12 -6.37232e+12 -6.42106e+12 -6.37979e+12 -6.16715e+12 -5.92439e+12 -5.82356e+12 -6.62916e+12 -6.03051e+12 -6.02194e+12 -5.89925e+12 -5.89986e+12 -5.65759e+12 -4.07024e+12 -5.36158e+12 -5.22579e+12 -4.68063e+12 -4.65584e+12 -4.52507e+12 -4.23578e+12 -4.11645e+12 -3.90457e+12 -3.71465e+12 -3.62126e+12 -3.62516e+12 -3.6855e+12 -3.72653e+12 -3.83233e+12 -3.91372e+12 -4.05277e+12 -4.16265e+12 -4.31933e+12 -4.63114e+12 -4.88296e+12 -4.8737e+12 -5.08508e+12 -3.93096e+12 -4.56159e+12 -5.26613e+12 -5.34166e+12 -5.82037e+12 -5.66673e+12 -5.95691e+12 -6.13497e+12 -6.10751e+12 -6.1714e+12 -6.30888e+12 -3.86426e+12 -3.71005e+12 -6.34318e+12 -6.27826e+12 -6.27493e+12 -6.21045e+12 -5.62658e+12 -6.16898e+12 -6.1512e+12 -6.07228e+12 -5.89823e+12 -5.75403e+12 -5.51402e+12 -6.42526e+12 -5.23739e+12 -4.73017e+12 -4.86872e+12 -4.81823e+12 -4.20628e+12 -4.30216e+12 -4.49207e+12 -4.37156e+12 -4.01889e+12 -4.17642e+12 -4.12722e+12 -4.01324e+12 -3.87706e+12 -3.78245e+12 -3.62994e+12 -3.58439e+12 -3.63618e+12 -3.78262e+12 -4.00541e+12 -4.28368e+12 -4.44304e+12 -4.54355e+12 -4.75683e+12 -4.86026e+12 -4.76846e+12 -4.69999e+12 -5.89786e+12 -5.47737e+12 -5.25753e+12 -5.3389e+12 -5.89345e+12 -6.49e+12 -5.96358e+12 -5.88642e+12 -6.25703e+12 -6.03585e+12 -6.01915e+12 -6.0655e+12 -6.06919e+12 -6.17717e+12 -6.30334e+12 -6.25223e+12 -3.89949e+12 -3.90306e+12 -3.66994e+12 -6.18804e+12 -6.28623e+12 -6.21973e+12 -6.27524e+12 -6.41928e+12 -6.09522e+12 -5.6231e+12 -5.77867e+12 -5.75903e+12 -5.69497e+12 -5.647e+12 -5.62928e+12 -5.20094e+12 -4.2901e+12 -4.84858e+12 -4.64926e+12 -4.47413e+12 -3.27511e+12 -4.11055e+12 -4.19697e+12 -4.01032e+12 -3.71528e+12 -3.66217e+12 -3.56401e+12 -3.56354e+12 -3.51413e+12 -3.565e+12 -3.6635e+12 -3.85294e+12 -4.10132e+12 -4.41221e+12 -4.57433e+12 -5.05389e+12 -5.59585e+12 -3.5647e+12 -5.18666e+12 -5.17277e+12 -5.38924e+12 -5.45955e+12 -5.74675e+12 -4.67205e+12 -6.43397e+12 -6.0058e+12 -6.04063e+12 -6.01067e+12 -6.02379e+12 -6.14043e+12 -6.16773e+12 -3.87662e+12 -3.53347e+12 -3.61096e+12 -6.06904e+12 -6.11136e+12 -6.05365e+12 -6.19418e+12 -6.22647e+12 -6.70059e+12 -4.38423e+12 -5.30091e+12 -5.64683e+12 -5.42062e+12 -5.41218e+12 -5.44422e+12 -5.47549e+12 -5.73677e+12 -5.45416e+12 -6.0263e+12 -5.20566e+12 -4.38023e+12 -4.21437e+12 -3.93705e+12 -2.91016e+12 -3.56026e+12 -4.59445e+12 -4.22267e+12 -3.79018e+12 -3.58455e+12 -3.48335e+12 -3.48051e+12 -3.56249e+12 -3.57452e+12 -3.70511e+12 -3.76191e+12 -3.93693e+12 -4.01917e+12 -4.20818e+12 -4.3146e+12 -4.54708e+12 -4.72116e+12 -4.42416e+12 -3.77804e+12 -5.19336e+12 -4.56991e+12 -5.14968e+12 -5.25111e+12 -5.2779e+12 -5.42594e+12 -5.11275e+12 -5.25075e+12 -4.47379e+12 -6.53341e+12 -6.23472e+12 -5.79308e+12 -5.85594e+12 -5.92543e+12 -5.95776e+12 -6.06368e+12 -5.96173e+12 -6.06725e+12 -5.97381e+12 -3.81984e+12 -3.43584e+12 -5.94263e+12 -5.8511e+12 -5.98407e+12 -5.90877e+12 -6.00491e+12 -5.9409e+12 -6.31451e+12 -5.52038e+12 -4.97544e+12 -5.30754e+12 -5.23741e+12 -5.19911e+12 -5.35586e+12 -5.29671e+12 -4.20691e+12 -4.86109e+12 -4.58227e+12 -4.06162e+12 -3.79472e+12 -3.34733e+12 -2.38365e+12 -2.27372e+12 -4.03632e+12 -3.89401e+12 -3.66884e+12 -3.62017e+12 -3.47309e+12 -3.41824e+12 -3.46278e+12 -3.60047e+12 -3.83342e+12 -4.13967e+12 -4.38155e+12 -4.8648e+12 -6.10388e+12 -4.39414e+12 -5.00211e+12 -5.01337e+12 -5.01409e+12 -5.04896e+12 -5.10004e+12 -5.18278e+12 -5.08767e+12 -5.21973e+12 -4.75617e+12 -4.49309e+12 -5.5163e+12 -5.72488e+12 -5.75733e+12 -5.84419e+12 -5.75357e+12 -5.85485e+12 -5.85023e+12 -5.8724e+12 -3.74225e+12 -3.66113e+12 -3.32934e+12 -5.65785e+12 -5.81057e+12 -5.71829e+12 -5.76176e+12 -5.68242e+12 -5.83979e+12 -5.73639e+12 -5.54415e+12 -5.23801e+12 -4.68002e+12 -5.03829e+12 -4.82054e+12 -4.88908e+12 -5.13745e+12 -5.55799e+12 -5.85535e+12 -6.04022e+12 -4.54943e+12 -4.4196e+12 -4.18526e+12 -3.7343e+12 -3.17624e+12 -4.01237e+12 -3.2542e+12 -3.71911e+12 -3.48774e+12 -3.47889e+12 -3.35171e+12 -3.37526e+12 -3.29116e+12 -3.3672e+12 -3.45906e+12 -3.6446e+12 -3.86125e+12 -4.31855e+12 -4.57624e+12 -4.31265e+12 -3.67524e+12 -4.78216e+12 -4.52395e+12 -4.70801e+12 -4.83463e+12 -4.86681e+12 -4.91203e+12 -4.99133e+12 -5.01817e+12 -5.17757e+12 -5.16451e+12 -5.55753e+12 -6.20411e+12 -5.68459e+12 -5.74579e+12 -5.53723e+12 -5.6204e+12 -5.6269e+12 -5.73456e+12 -5.77462e+12 -5.67574e+12 -5.76472e+12 -3.58297e+12 -3.13282e+12 -3.22556e+12 -5.48658e+12 -5.58872e+12 -5.48342e+12 -5.61798e+12 -5.52449e+12 -5.59234e+12 -5.41528e+12 -5.50537e+12 -5.34797e+12 -5.10535e+12 -3.94785e+12 -3.71878e+12 -5.36296e+12 -5.65528e+12 -5.73112e+12 -5.466e+12 -4.21733e+12 -3.77798e+12 -3.84797e+12 -3.96723e+12 -3.76745e+12 -3.72065e+12 -4.19506e+12 -3.43854e+12 -3.50107e+12 -3.3822e+12 -3.48489e+12 -3.33982e+12 -3.2324e+12 -3.21815e+12 -3.33364e+12 -3.31387e+12 -3.47156e+12 -3.51448e+12 -3.70939e+12 -3.59412e+12 -3.95987e+12 -4.18103e+12 -4.99977e+12 -6.25707e+12 -5.1708e+12 -4.70123e+12 -4.60298e+12 -4.65289e+12 -4.69511e+12 -4.75901e+12 -4.79466e+12 -4.87253e+12 -4.87238e+12 -4.84333e+12 -5.85745e+12 -5.4984e+12 -5.5065e+12 -5.31409e+12 -5.51405e+12 -5.4818e+12 -5.60843e+12 -5.56575e+12 -5.56476e+12 -5.65899e+12 -5.58065e+12 -3.4983e+12 -3.41378e+12 -3.05426e+12 -5.30334e+12 -5.25046e+12 -5.43105e+12 -5.37038e+12 -5.37485e+12 -5.27726e+12 -5.43869e+12 -5.33422e+12 -5.29098e+12 -5.19813e+12 -4.88612e+12 -5.53975e+12 -4.65684e+12 -4.99677e+12 -5.25224e+12 -5.39584e+12 -4.55434e+12 -3.46153e+12 -3.98044e+12 -4.14311e+12 -3.99388e+12 -3.60769e+12 -3.61644e+12 -3.62818e+12 -3.42171e+12 -3.23878e+12 -3.30959e+12 -3.16109e+12 -3.19324e+12 -3.12552e+12 -3.16804e+12 -3.31819e+12 -3.61181e+12 -3.64535e+12 -4.53375e+12 -5.27141e+12 -5.46839e+12 -5.06816e+12 -4.61117e+12 -4.52689e+12 -4.4407e+12 -4.45807e+12 -4.52886e+12 -5.49171e+12 -5.13095e+12 -5.13282e+12 -5.21064e+12 -4.88204e+12 -5.2295e+12 -5.36029e+12 -5.18501e+12 -5.32824e+12 -5.35441e+12 -5.46633e+12 -5.34417e+12 -5.45842e+12 -5.49728e+12 -3.3245e+12 -2.98329e+12 -5.11318e+12 -5.05961e+12 -5.21189e+12 -5.16763e+12 -5.24069e+12 -5.12559e+12 -5.19359e+12 -5.12309e+12 -5.16365e+12 -5.0505e+12 -4.99773e+12 -4.94557e+12 -5.0568e+12 -5.32368e+12 -5.61926e+12 -4.80245e+12 -4.83275e+12 -4.88877e+12 -4.80781e+12 -4.22028e+12 -4.3994e+12 -4.39637e+12 -4.05459e+12 -4.02036e+12 -3.81204e+12 -3.20852e+12 -2.91302e+12 -2.72619e+12 -3.44783e+12 -3.2508e+12 -3.08154e+12 -2.98666e+12 -3.04836e+12 -2.92743e+12 -3.01817e+12 -3.12883e+12 -3.38954e+12 -3.60444e+12 -3.13659e+12 -2.86939e+12 -3.9203e+12 -4.51302e+12 -4.75802e+12 -4.99046e+12 -4.79283e+12 -4.3403e+12 -4.22428e+12 -4.16174e+12 -4.59534e+12 -4.66697e+12 -4.7205e+12 -4.76283e+12 -4.85902e+12 -5.00936e+12 -4.01585e+12 -4.56403e+12 -4.74944e+12 -4.89206e+12 -5.05318e+12 -4.97031e+12 -5.14443e+12 -5.24861e+12 -5.23942e+12 -5.40083e+12 -5.31224e+12 -5.41388e+12 -5.34021e+12 -3.18156e+12 -2.8319e+12 -2.91324e+12 -4.70402e+12 -4.91439e+12 -4.86073e+12 -5.02448e+12 -5.01365e+12 -4.97809e+12 -5.03082e+12 -4.9802e+12 -4.86112e+12 -4.76798e+12 -4.57336e+12 -4.57046e+12 -4.76047e+12 -4.35033e+12 -4.43859e+12 -4.41679e+12 -4.15056e+12 -4.08996e+12 -3.45914e+12 -4.68819e+12 -4.13717e+12 -4.0152e+12 -3.80336e+12 -3.53468e+12 -1.4956e+12 -3.19126e+12 -3.03707e+12 -2.92701e+12 -2.82438e+12 -2.77453e+12 -2.93124e+12 -2.78242e+12 -3.14284e+12 -3.40641e+12 -1.94549e+12 -3.82097e+12 -4.17028e+12 -4.87779e+12 -4.69734e+12 -4.50989e+12 -3.76385e+12 -4.24592e+12 -4.34986e+12 -4.44908e+12 -4.53372e+12 -4.61194e+12 -4.65019e+12 -4.19809e+12 -3.53503e+12 -4.00652e+12 -4.19394e+12 -4.7398e+12 -4.74038e+12 -4.83701e+12 -4.9796e+12 -5.08186e+12 -5.12714e+12 -5.23192e+12 -5.19088e+12 -5.18411e+12 -3.01277e+12 -2.85829e+12 -2.76747e+12 -4.47193e+12 -4.65236e+12 -4.62094e+12 -4.82263e+12 -4.81222e+12 -4.83024e+12 -5.00039e+12 -4.65282e+12 -4.86058e+12 -4.75991e+12 -4.75777e+12 -4.97571e+12 -4.50148e+12 -4.67448e+12 -3.44619e+12 -4.56876e+12 -3.51028e+12 -3.86883e+12 -4.04436e+12 -4.06972e+12 -4.24392e+12 -4.37948e+12 -5.38316e+12 -4.31601e+12 -4.01178e+12 -3.78621e+12 -3.50663e+12 -3.08408e+12 -2.27758e+12 -4.05001e+12 -2.48022e+12 -2.74258e+12 -2.69901e+12 -2.74205e+12 -2.71792e+12 -2.66285e+12 -2.57912e+12 -4.44617e+12 -3.21127e+12 -3.79124e+12 -4.41861e+12 -4.54922e+12 -4.41984e+12 -4.30995e+12 -3.74233e+12 -3.87676e+12 -4.04365e+12 -4.18165e+12 -4.30657e+12 -4.4224e+12 -4.53674e+12 -4.41678e+12 -3.72291e+12 -4.17913e+12 -3.21968e+12 -4.88953e+12 -4.44656e+12 -4.39348e+12 -5.17409e+12 -4.97746e+12 -4.99178e+12 -5.02311e+12 -5.08832e+12 -4.91465e+12 -5.13765e+12 -4.97988e+12 -4.981e+12 -2.73813e+12 -2.61906e+12 -4.22824e+12 -4.24688e+12 -4.41479e+12 -4.38065e+12 -4.62829e+12 -4.68636e+12 -4.82137e+12 -4.5743e+12 -4.68657e+12 -4.76631e+12 -4.52752e+12 -5.1446e+12 -4.15985e+12 -4.70615e+12 -3.10569e+12 -3.654e+12 -3.83909e+12 -4.10915e+12 -4.35164e+12 -4.77799e+12 -4.87924e+12 -3.80179e+12 -3.54249e+12 -3.20103e+12 -2.71538e+12 -1.85347e+12 -3.47413e+12 -2.02593e+12 -2.27667e+12 -2.52588e+12 -2.55393e+12 -2.4769e+12 -2.5017e+12 -2.55633e+12 -2.30809e+12 -2.34665e+12 -3.52017e+12 -2.55576e+12 -3.54222e+12 -4.00283e+12 -4.25461e+12 -4.25515e+12 -4.54825e+12 -2.49885e+12 -3.31369e+12 -3.66159e+12 -3.86718e+12 -4.02851e+12 -4.17898e+12 -4.34635e+12 -4.46005e+12 -4.40237e+12 -5.3665e+12 -5.1664e+12 -5.44285e+12 -4.36398e+12 -3.11979e+12 -5.64969e+12 -4.52762e+12 -4.48569e+12 -4.66504e+12 -4.82393e+12 -5.00553e+12 -4.7489e+12 -4.7505e+12 -2.66151e+12 -2.22253e+12 -2.41129e+12 -4.1117e+12 -3.82052e+12 -4.14128e+12 -4.06883e+12 -4.40917e+12 -4.50137e+12 -4.83112e+12 -5.04911e+12 -3.85366e+12 -4.19349e+12 -4.62628e+12 -5.0971e+12 -5.79566e+12 -3.11087e+12 -4.62938e+12 -5.10877e+12 -2.96795e+12 -4.1741e+12 -4.48311e+12 -3.91284e+12 -4.1651e+12 -4.39186e+12 -4.4353e+12 -4.31789e+12 -4.07813e+12 -3.30112e+12 -2.98517e+12 -2.62687e+12 -2.85499e+12 -2.52453e+12 -1.36255e+12 -2.26346e+12 -2.75768e+12 -2.17631e+12 -1.98209e+12 -2.2584e+12 -1.45685e+12 -2.15912e+12 -3.09805e+12 -3.31673e+12 -3.98342e+12 -3.95997e+12 -3.83925e+12 -3.64287e+12 -4.09812e+12 -5.0864e+12 -2.35129e+12 -3.29186e+12 -3.56224e+12 -3.74076e+12 -3.89303e+12 -4.05198e+12 -4.19636e+12 -4.26854e+12 -4.67369e+12 -4.97128e+12 -4.54429e+12 -3.59844e+12 -4.97207e+12 -4.94451e+12 -3.8131e+12 -4.64013e+12 -4.8862e+12 -3.05549e+12 -4.75703e+12 -4.63957e+12 -4.8361e+12 -4.7912e+12 -4.55286e+12 -4.5176e+12 -4.19837e+12 -2.54729e+12 -2.05799e+12 -3.9567e+12 -3.97876e+12 -3.97962e+12 -3.67597e+12 -4.08728e+12 -4.18225e+12 -4.3298e+12 -4.68988e+12 -5.05742e+12 -5.40911e+12 -2.96895e+12 -4.01435e+12 -5.03919e+12 -4.70737e+12 -3.88834e+12 -4.39296e+12 -4.06911e+12 -3.667e+12 -3.95239e+12 -3.98307e+12 -3.10312e+12 -3.4945e+12 -3.99997e+12 -4.16153e+12 -4.21107e+12 -4.15078e+12 -4.05881e+12 -3.83943e+12 -3.57592e+12 -3.12869e+12 -2.92306e+12 -2.98175e+12 -2.94807e+12 -3.28261e+12 -3.05495e+12 -3.34131e+12 -2.28041e+12 -2.21979e+12 -2.59028e+12 -2.61553e+12 -3.4911e+12 -3.00927e+12 -3.33138e+12 -4.44507e+12 -2.23795e+12 -4.58635e+12 -4.80299e+12 -3.04812e+12 -3.3481e+12 -4.24383e+12 -4.38706e+12 -4.40533e+12 -4.13561e+12 -4.38146e+12 -4.54246e+12 -4.42155e+12 -4.19108e+12 -4.15433e+12 -3.97863e+12 -5.30424e+12 -3.65663e+12 -5.35769e+12 -4.91028e+12 -4.66488e+12 -4.39953e+12 -4.25968e+12 -3.74931e+12 -2.37787e+12 -1.88243e+12 -3.74451e+12 -3.80479e+12 -4.06316e+12 -2.96421e+12 -3.08391e+12 -3.66604e+12 -3.76783e+12 -3.90084e+12 -4.54034e+12 -4.70822e+12 -4.31515e+12 -3.63995e+12 -4.32056e+12 -4.27718e+12 -4.23171e+12 -3.89373e+12 -3.80364e+12 -3.74344e+12 -3.4458e+12 -3.34386e+12 -3.57454e+12 -2.76564e+12 -3.70797e+12 -4.05842e+12 -4.13949e+12 -4.08197e+12 -3.98509e+12 -3.83283e+12 -3.60605e+12 -3.36276e+12 -2.92016e+12 -2.98021e+12 -3.04506e+12 -2.33126e+12 -3.71528e+12 -1.58721e+12 -1.15841e+12 -2.87636e+12 -1.12556e+12 -2.54746e+12 -1.86823e+12 -2.36007e+12 -2.82008e+12 -3.64952e+12 -4.17947e+12 -3.32418e+12 -3.80447e+12 -4.0434e+12 -3.73997e+12 -3.4978e+12 -3.62768e+12 -3.75924e+12 -3.89176e+12 -4.01434e+12 -3.99724e+12 -4.04185e+12 -4.06751e+12 -4.207e+12 -4.17403e+12 -4.1742e+12 -4.03944e+12 -3.89353e+12 -3.7102e+12 -2.95147e+12 -4.76552e+12 -4.55087e+12 -3.19578e+12 -5.20256e+12 -5.03004e+12 -4.63293e+12 -3.97913e+12 -3.84082e+12 -3.18046e+12 -2.17621e+12 -2.22945e+12 -1.49477e+12 -1.69414e+12 -3.07555e+12 -3.44357e+12 -3.48657e+12 -4.03177e+12 -4.38101e+12 -1.96307e+12 -3.24708e+12 -3.41992e+12 -4.03716e+12 -4.12106e+12 -3.99126e+12 -3.92981e+12 -3.87465e+12 -3.85787e+12 -3.78109e+12 -3.50298e+12 -3.40356e+12 -3.19198e+12 -2.59476e+12 -1.95967e+12 -2.73915e+12 -3.60032e+12 -3.93463e+12 -4.11788e+12 -3.9678e+12 -3.79987e+12 -3.60937e+12 -3.39624e+12 -3.19328e+12 -3.02839e+12 -2.97318e+12 -2.67531e+12 -2.14144e+12 -2.86908e+12 -1.95356e+12 -3.10944e+12 -2.10229e+12 -2.94805e+12 -3.23675e+12 -3.61673e+12 -2.01709e+12 -2.68465e+12 -3.18905e+12 -3.45655e+12 -3.4966e+12 -3.44549e+12 -3.18843e+12 -3.29612e+12 -3.39299e+12 -3.49391e+12 -3.59881e+12 -3.71048e+12 -3.87619e+12 -3.78034e+12 -3.93848e+12 -3.95784e+12 -3.92234e+12 -3.8958e+12 -3.97875e+12 -3.63231e+12 -3.43465e+12 -3.82023e+12 -4.01547e+12 -4.43182e+12 -4.36015e+12 -4.16014e+12 -3.46974e+12 -3.28487e+12 -2.5608e+12 -3.32773e+12 -2.10114e+12 -1.9426e+12 -1.2842e+12 -2.6717e+12 -3.10257e+12 -3.15101e+12 -3.61925e+12 -3.83771e+12 -3.88535e+12 -2.57185e+12 -2.86512e+12 -3.55504e+12 -3.64535e+12 -3.62781e+12 -3.92864e+12 -3.671e+12 -3.62848e+12 -3.49399e+12 -3.43648e+12 -2.89064e+12 -4.68009e+12 -3.78649e+12 -3.97307e+12 -4.22493e+12 -4.00123e+12 -3.77552e+12 -3.57504e+12 -3.38663e+12 -3.20796e+12 -3.05653e+12 -2.96354e+12 -2.89699e+12 -2.88269e+12 -2.88023e+12 -2.7124e+12 -2.98045e+12 -2.90313e+12 -2.80801e+12 -2.84266e+12 -2.89544e+12 -2.95318e+12 -2.13351e+12 -2.47536e+12 -2.76775e+12 -3.02434e+12 -3.15775e+12 -3.23457e+12 -3.22084e+12 -3.13206e+12 -3.18576e+12 -3.25448e+12 -3.33135e+12 -3.41593e+12 -3.53301e+12 -3.64448e+12 -3.71489e+12 -3.72044e+12 -3.7242e+12 -3.70351e+12 -3.73999e+12 -3.71895e+12 -3.3944e+12 -3.57134e+12 -3.62086e+12 -3.58726e+12 -4.05775e+12 -3.82768e+12 -3.79536e+12 -3.65071e+12 -2.85285e+12 -2.55978e+12 -3.87714e+12 -3.40367e+12 -1.69933e+12 -1.07573e+12 -2.25899e+12 -2.67992e+12 -2.67776e+12 -3.20599e+12 -3.16785e+12 -1.65402e+12 -2.24197e+12 -3.06232e+12 -3.20655e+12 -3.26917e+12 -3.63165e+12 -3.60763e+12 -3.44695e+12 -3.34508e+12 -2.9958e+12 -3.32608e+12 -3.18235e+12 -3.08653e+12 -2.98493e+12 -3.1133e+12 -3.73533e+12 -3.74238e+12 -2.73135e+12 -4.42693e+12 -4.26104e+12 -3.32572e+12 -3.1692e+12 -3.03491e+12 -2.93339e+12 -2.85875e+12 -2.81529e+12 -2.78512e+12 -2.71713e+12 -2.79008e+12 -2.62748e+12 -2.49597e+12 -2.55433e+12 -2.38527e+12 -2.57403e+12 -2.54262e+12 -2.55526e+12 -2.72258e+12 -2.7205e+12 -2.7651e+12 -2.7794e+12 -2.52453e+12 -2.48379e+12 -2.59471e+12 -2.73805e+12 -2.86517e+12 -2.96495e+12 -3.02355e+12 -3.026e+12 -3.00363e+12 -3.03755e+12 -3.08553e+12 -3.14212e+12 -3.21564e+12 -3.29348e+12 -3.3817e+12 -3.464e+12 -3.6419e+12 -3.51673e+12 -3.51345e+12 -3.51637e+12 -3.50449e+12 -3.4647e+12 -3.30111e+12 -3.33689e+12 -3.33965e+12 -3.62353e+12 -3.70478e+12 -3.32481e+12 -3.26693e+12 -3.10321e+12 -2.06725e+12 -1.72577e+12 -3.24114e+12 -2.88598e+12 -1.36838e+12 -866400000000.0 -1.86704e+12 -1.8273e+12 -2.24293e+12 -2.20824e+12 -2.64411e+12 -2.53908e+12 -2.92164e+12 -1.54772e+12 -2.54409e+12 -2.78459e+12 -2.91527e+12 -3.3177e+12 -3.34745e+12 -3.32909e+12 -3.26477e+12 -3.25237e+12 -3.00469e+12 -2.95581e+12 -2.87722e+12 -2.80236e+12 -2.85781e+12 -2.94477e+12 -3.23863e+12 -2.9822e+12 -2.39849e+12 -4.26581e+12 -4.00902e+12 -3.72987e+12 -3.50816e+12 -2.87445e+12 -2.80209e+12 -2.75012e+12 -2.71097e+12 -2.66681e+12 -2.66572e+12 -2.5903e+12 -2.50637e+12 -2.51065e+12 -2.40102e+12 -2.47199e+12 -2.44118e+12 -2.51975e+12 -2.53717e+12 -2.60399e+12 -2.62585e+12 -2.63399e+12 -2.52965e+12 -2.50373e+12 -2.50992e+12 -2.57318e+12 -2.86122e+12 -2.8886e+12 -2.92254e+12 -2.95564e+12 -2.99014e+12 -3.07435e+12 -3.38215e+12 -3.48197e+12 -3.31466e+12 -3.29659e+12 -3.26924e+12 -3.23705e+12 -3.07601e+12 -3.20377e+12 -3.2877e+12 -3.29539e+12 -2.86643e+12 -2.75051e+12 -2.51154e+12 -1.4984e+12 -3.5225e+12 -2.38086e+12 -2.09305e+12 -1.24743e+12 -994009000000.0 -461341000000.0 -660762000000.0 -1.14259e+12 -1.49641e+12 -1.42293e+12 -1.80951e+12 -2.08856e+12 -1.94302e+12 -1.93181e+12 -2.25978e+12 -2.00932e+12 -1.91041e+12 -2.38339e+12 -2.56589e+12 -3.00566e+12 -3.07159e+12 -3.11155e+12 -3.13084e+12 -2.56592e+12 -2.65541e+12 -2.64706e+12 -2.62413e+12 -2.611e+12 -2.63494e+12 -3.2081e+12 -3.8876e+12 -3.64305e+12 -3.40412e+12 -3.22206e+12 -3.08161e+12 -2.96681e+12 -2.64017e+12 -2.60461e+12 -2.58051e+12 -2.53105e+12 -2.47444e+12 -2.44318e+12 -2.39149e+12 -2.38333e+12 -2.37951e+12 -2.40205e+12 -2.44152e+12 -2.46361e+12 -2.49631e+12 -2.50017e+12 -2.6487e+12 -2.72777e+12 -2.79434e+12 -2.83402e+12 -2.84264e+12 -2.84178e+12 -2.6117e+12 -2.44488e+12 -3.19108e+12 -3.28937e+12 -3.32084e+12 -3.32321e+12 -3.10418e+12 -3.07318e+12 -3.04635e+12 -3.05752e+12 -3.06479e+12 -2.84551e+12 -2.89484e+12 -2.90465e+12 -2.90003e+12 -2.43182e+12 -2.25933e+12 -1.96755e+12 -2.77513e+12 -2.67968e+12 -1.22488e+12 -1.27506e+12 -953826000000.0 -270008000000.0 -818257000000.0 -1.06394e+12 -1.33324e+12 -1.32032e+12 -1.84437e+12 -2.06343e+12 -2.45902e+12 -1.85029e+12 -1.65406e+12 -1.2451e+12 -2.07094e+12 -2.28816e+12 -2.70098e+12 -2.79335e+12 -2.86337e+12 -2.92156e+12 -3.1578e+12 -3.21464e+12 -2.24882e+12 -2.3655e+12 -2.38817e+12 -2.40272e+12 -2.82026e+12 -2.83507e+12 -2.75754e+12 -2.60647e+12 -2.25416e+12 -3.44004e+12 -3.2521e+12 -3.07755e+12 -2.95174e+12 -2.85697e+12 -2.7823e+12 -2.72269e+12 -2.67677e+12 -2.45781e+12 -2.43587e+12 -2.43878e+12 -2.45633e+12 -2.49378e+12 -2.54047e+12 -2.58982e+12 -2.63083e+12 -2.65428e+12 -2.65979e+12 -2.65805e+12 -2.66008e+12 -2.66067e+12 -2.64993e+12 -3.39772e+12 -3.25407e+12 -3.19394e+12 -3.15932e+12 -3.13282e+12 -2.88684e+12 -2.85262e+12 -2.83625e+12 -2.81951e+12 -2.8022e+12 -2.51881e+12 -2.56358e+12 -2.51983e+12 -2.01689e+12 -1.78033e+12 -1.35787e+12 -2.02477e+12 -1.76454e+12 -1.60855e+12 -1.57724e+12 -961113000000.0 -942165000000.0 -728349000000.0 -446675000000.0 -81954500000.0 -498769000000.0 -745487000000.0 -660001000000.0 -897840000000.0 -612316000000.0 -1.52337e+12 -1.85651e+12 -2.82838e+12 -3.115e+12 -3.27219e+12 -1.61825e+12 -2.06901e+12 -2.40626e+12 -2.51555e+12 -2.60217e+12 -2.67668e+12 -2.9816e+12 -3.06047e+12 -3.13498e+12 -1.96634e+12 -2.11078e+12 -2.43214e+12 -2.52083e+12 -2.54892e+12 -2.5322e+12 -2.46943e+12 -2.366e+12 -2.16929e+12 -2.9879e+12 -2.87487e+12 -2.78508e+12 -2.70828e+12 -2.65532e+12 -2.61669e+12 -2.58771e+12 -2.56525e+12 -2.54047e+12 -2.51196e+12 -2.4696e+12 -2.42158e+12 -2.38197e+12 -2.34049e+12 -2.31865e+12 -2.30362e+12 -2.3111e+12 -2.32896e+12 -2.35161e+12 -2.36725e+12 -2.37607e+12 -2.3584e+12 -2.34393e+12 -2.34211e+12 -2.35129e+12 -2.3665e+12 -2.39046e+12 -2.4192e+12 -2.4477e+12 -2.46888e+12 -2.47704e+12 -2.47208e+12 -2.45824e+12 -2.4381e+12 -2.40449e+12 -2.34521e+12 -2.13476e+12 -3.2678e+12 -3.1152e+12 -3.02857e+12 -2.9719e+12 -2.92731e+12 -2.63092e+12 -2.59665e+12 -2.55688e+12 -2.51669e+12 -2.50647e+12 -2.26217e+12 -2.23919e+12 -2.15503e+12 -1.63231e+12 -1.30177e+12 -2.04526e+12 -1.4082e+12 -1.21201e+12 -931272000000.0 -638695000000.0 -170411000000.0 -177571000000.0 -122293000000.0 -448377000000.0 -378753000000.0 -393716000000.0 -820810000000.0 -1.24324e+12 -2.18285e+12 -2.4887e+12 -2.67924e+12 -2.14962e+12 -2.2511e+12 -2.33542e+12 -2.75357e+12 -2.84e+12 -2.94669e+12 -3.03343e+12 -2.16164e+12 -2.20752e+12 -2.2695e+12 -2.30366e+12 -2.30616e+12 -2.29294e+12 -2.25434e+12 -2.20545e+12 -2.11955e+12 -2.54705e+12 -2.56657e+12 -2.5332e+12 -2.48449e+12 -2.47544e+12 -2.47543e+12 -2.48216e+12 -2.47797e+12 -2.45465e+12 -2.41291e+12 -2.3634e+12 -2.31865e+12 -2.27775e+12 -2.24817e+12 -2.22824e+12 -2.22173e+12 -2.22758e+12 -2.23893e+12 -2.25079e+12 -2.2557e+12 -2.25002e+12 -2.24115e+12 -2.23777e+12 -2.24117e+12 -2.24906e+12 -2.25975e+12 -2.27382e+12 -2.28898e+12 -2.30129e+12 -2.30562e+12 -2.29815e+12 -2.27745e+12 -2.24454e+12 -2.19635e+12 -2.12483e+12 -1.90945e+12 -3.40535e+12 -3.03338e+12 -2.9101e+12 -2.82526e+12 -2.7619e+12 -2.70978e+12 -2.66561e+12 -2.33898e+12 -2.27066e+12 -2.13071e+12 -2.01517e+12 -2.04062e+12 -1.93944e+12 -1.80971e+12 -1.30326e+12 -1.42676e+12 -1.48002e+12 -764262000000.0 -330598000000.0 -578056000000.0 -281779000000.0 -246412000000.0 -103488000000.0 -424478000000.0 -331796000000.0 -531777000000.0 -760237000000.0 -1.54681e+12 -1.81337e+12 -1.98051e+12 -2.66714e+12 -2.23212e+12 -2.12686e+12 -2.0601e+12 -2.07946e+12 -2.41149e+12 -2.4942e+12 -2.58339e+12 -2.68377e+12 -2.80357e+12 -2.88177e+12 -1.72453e+12 -1.8881e+12 -1.95853e+12 -2.02214e+12 -2.06902e+12 -2.0953e+12 -2.10425e+12 -2.1075e+12 -2.10767e+12 -2.11445e+12 -2.32029e+12 -2.38723e+12 -2.42331e+12 -2.41259e+12 -2.36742e+12 -2.30746e+12 -2.25442e+12 -2.20905e+12 -2.17365e+12 -2.14815e+12 -2.13366e+12 -2.12926e+12 -2.13205e+12 -2.13739e+12 -2.14081e+12 -2.1383e+12 -2.13348e+12 -2.13e+12 -2.13014e+12 -2.13326e+12 -2.138e+12 -2.14339e+12 -2.14897e+12 -2.11554e+12 -2.07478e+12 -2.01725e+12 -1.93785e+12 -1.73621e+12 -3.29044e+12 -3.1849e+12 -2.67529e+12 -2.59874e+12 -2.53674e+12 -2.48404e+12 -2.43797e+12 -2.39207e+12 -2.07361e+12 -1.96371e+12 -1.58756e+12 -2.15732e+12 -1.76251e+12 -1.62879e+12 -1.47759e+12 -976554000000.0 -921916000000.0 -443414000000.0 -270779000000.0 -173908000000.0 -99025800000.0 -266722000000.0 -513954000000.0 -922208000000.0 -1.27474e+12 -1.44415e+12 -2.55312e+12 -2.23376e+12 -2.04097e+12 -1.99058e+12 -1.79652e+12 -2.13244e+12 -2.21421e+12 -2.30495e+12 -2.39772e+12 -2.50215e+12 -1.51883e+12 -1.68775e+12 -1.77365e+12 -1.8417e+12 -2.15859e+12 -2.31837e+12 -2.33585e+12 -2.30649e+12 -2.25532e+12 -2.34451e+12 -2.25856e+12 -2.19114e+12 -2.13697e+12 -2.09504e+12 -2.06409e+12 -2.04348e+12 -2.03211e+12 -2.0278e+12 -2.02764e+12 -2.02812e+12 -2.02658e+12 -2.15271e+12 -2.15121e+12 -2.14016e+12 -3.07752e+12 -3.01777e+12 -2.88936e+12 -2.77327e+12 -2.35997e+12 -2.30323e+12 -2.25166e+12 -2.20009e+12 -2.14325e+12 -1.7999e+12 -1.99537e+12 -1.90105e+12 -1.30608e+12 -1.14024e+12 -1.05595e+12 -507067000000.0 -467383000000.0 -338771000000.0 -292550000000.0 -385856000000.0 -536374000000.0 -1.95364e+12 -1.97934e+12 -1.91098e+12 -1.86963e+12 -1.81961e+12 -1.91039e+12 -2.01112e+12 -2.10405e+12 -2.61436e+12 -2.6723e+12 -1.34276e+12 -1.89082e+12 -1.92373e+12 -1.94676e+12 -1.96752e+12 -1.99132e+12 -2.02523e+12 -2.05931e+12 -2.12028e+12 -2.11491e+12 -2.06072e+12 -1.94213e+12 -2.27662e+12 -2.39398e+12 -2.40155e+12 -2.02338e+12 -2.02051e+12 -2.0191e+12 -2.01929e+12 -2.02032e+12 -2.02126e+12 -2.02117e+12 -2.01906e+12 -2.0128e+12 -1.99904e+12 -1.97297e+12 -1.92866e+12 -1.86281e+12 -1.77667e+12 -1.59641e+12 -2.79713e+12 -2.78028e+12 -2.68849e+12 -2.59322e+12 -2.50426e+12 -2.4259e+12 -2.06604e+12 -2.01258e+12 -1.95615e+12 -1.89693e+12 -1.8416e+12 -2.09415e+12 -1.68863e+12 -1.60029e+12 -1.4565e+12 -983029000000.0 -793068000000.0 -523535000000.0 -115746000000.0 -216740000000.0 -121065000000.0 -148091000000.0 -124127000000.0 -192247000000.0 -1.16724e+12 -1.20141e+12 -1.45713e+12 -1.59705e+12 -1.67747e+12 -1.85847e+12 -1.35541e+12 -1.5595e+12 -1.70007e+12 -1.81185e+12 -2.18897e+12 -2.28416e+12 -2.37513e+12 -2.41681e+12 -1.51219e+12 -1.61081e+12 -1.68602e+12 -1.74164e+12 -1.78333e+12 -1.81692e+12 -1.84779e+12 -1.87899e+12 -1.9028e+12 -1.91968e+12 -1.92918e+12 -1.88779e+12 -1.77075e+12 -1.53931e+12 -2.42852e+12 -2.45985e+12 -2.36785e+12 -2.21966e+12 -2.12886e+12 -2.06156e+12 -2.01164e+12 -1.97529e+12 -1.94991e+12 -1.93357e+12 -1.92427e+12 -1.91969e+12 -1.91736e+12 -1.91516e+12 -1.91253e+12 -1.90994e+12 -1.90799e+12 -1.90665e+12 -1.90552e+12 -1.90388e+12 -1.90093e+12 -1.89568e+12 -1.88683e+12 -1.87213e+12 -1.84743e+12 -1.80612e+12 -1.73917e+12 -1.63946e+12 -1.47526e+12 -2.48387e+12 -2.49665e+12 -2.44166e+12 -2.37291e+12 -2.30127e+12 -2.23321e+12 -2.17189e+12 -2.11753e+12 -1.82492e+12 -1.76538e+12 -1.69791e+12 -1.62517e+12 -1.5247e+12 -1.8372e+12 -1.39011e+12 -1.29379e+12 -1.15129e+12 -700204000000.0 -250032000000.0 -257265000000.0 -106033000000.0 -604416000000.0 -369178000000.0 -895831000000.0 -1.17662e+12 -1.76807e+12 -1.96116e+12 -1.16213e+12 -1.38615e+12 -1.8915e+12 -1.94486e+12 -2.02092e+12 -2.10601e+12 -2.13665e+12 -1.19573e+12 -1.37003e+12 -1.47739e+12 -1.55752e+12 -1.61652e+12 -1.66267e+12 -1.70087e+12 -1.73385e+12 -1.75884e+12 -1.77275e+12 -1.77193e+12 -1.74523e+12 -1.65957e+12 -1.44309e+12 -1.21383e+12 -2.64539e+12 -2.48399e+12 -2.18232e+12 -2.06125e+12 -1.97855e+12 -1.92057e+12 -1.87981e+12 -1.85118e+12 -1.83173e+12 -1.8193e+12 -1.81181e+12 -1.8073e+12 -1.80413e+12 -1.8014e+12 -1.7989e+12 -1.79669e+12 -1.79467e+12 -1.79245e+12 -1.78949e+12 -1.78518e+12 -1.77875e+12 -1.76926e+12 -1.75535e+12 -1.73425e+12 -1.70068e+12 -1.64685e+12 -1.55246e+12 -1.36837e+12 -2.16657e+12 -2.16503e+12 -2.12085e+12 -2.06727e+12 -2.01388e+12 -1.96605e+12 -1.92274e+12 -1.87816e+12 -1.50918e+12 -1.42275e+12 -1.288e+12 -1.95479e+12 -1.08563e+12 -1.00874e+12 -872770000000.0 -111257000000.0 -217044000000.0 -69509400000.0 -281216000000.0 -693072000000.0 -1.37249e+12 -1.52616e+12 -1.71434e+12 -1.92138e+12 -1.52635e+12 -1.62638e+12 -1.6592e+12 -1.62036e+12 -1.74529e+12 -1.81889e+12 -1.84545e+12 -1.10172e+12 -1.26844e+12 -1.3769e+12 -1.45144e+12 -1.50807e+12 -1.55409e+12 -1.5922e+12 -1.62209e+12 -1.64231e+12 -1.64912e+12 -1.63448e+12 -2.64567e+12 -2.06739e+12 -1.95918e+12 -1.87454e+12 -1.81517e+12 -1.77413e+12 -1.74511e+12 -1.7248e+12 -1.71111e+12 -1.7023e+12 -1.69665e+12 -1.69282e+12 -1.68994e+12 -1.68751e+12 -1.68527e+12 -1.68298e+12 -1.68031e+12 -1.67681e+12 -1.67201e+12 -1.66539e+12 -2.19178e+12 -1.76442e+12 -1.73305e+12 -1.71453e+12 -1.68944e+12 -1.64082e+12 -1.5826e+12 -1.09441e+12 -1.79923e+12 -1.69244e+12 -1.54573e+12 -830129000000.0 -757484000000.0 -616940000000.0 -30463600000.0 -45867300000.0 -995720000000.0 -1.21155e+12 -1.4178e+12 -1.62413e+12 -1.03709e+12 -1.25066e+12 -1.38443e+12 -1.49376e+12 -1.5036e+12 -1.40161e+12 -1.05931e+12 -1.57865e+12 -1.43765e+12 -960142000000.0 -1.33396e+12 -1.65636e+12 -1.64419e+12 -1.62756e+12 -1.60379e+12 -1.56921e+12 -1.51548e+12 -1.38853e+12 -1.82911e+12 -1.84562e+12 -1.8636e+12 -1.84913e+12 -1.80932e+12 -1.47669e+12 -1.50269e+12 -1.46177e+12 -1.41236e+12 -1.33776e+12 -1.24387e+12 -1.637e+12 -1.50849e+12 -1.3723e+12 -1.24507e+12 -550535000000.0 -83604500000.0 -20804000000.0 -258386000000.0 -597386000000.0 -855138000000.0 -1.09257e+12 -1.30258e+12 -1.81401e+12 -938889000000.0 -1.13512e+12 -1.26867e+12 -1.39677e+12 -1.46452e+12 -1.58232e+12 -1.55095e+12 -1.21148e+12 -1.29631e+12 -1.35897e+12 -1.41008e+12 -1.45359e+12 -1.48984e+12 -1.5189e+12 -1.53981e+12 -1.54996e+12 -1.54495e+12 -1.51764e+12 -1.44452e+12 -1.37749e+12 -1.53112e+12 -1.75472e+12 -1.7301e+12 -1.68817e+12 -1.65516e+12 -1.62994e+12 -1.61144e+12 -1.59846e+12 -1.58981e+12 -1.58422e+12 -1.58049e+12 -1.5778e+12 -1.57565e+12 -1.57364e+12 -1.57144e+12 -1.56871e+12 -1.56511e+12 -1.56026e+12 -1.55383e+12 -1.5455e+12 -1.535e+12 -1.522e+12 -1.50609e+12 -1.48712e+12 -1.4658e+12 -1.4435e+12 -1.56835e+12 -1.66301e+12 -1.47264e+12 -1.57416e+12 -1.5486e+12 -1.49219e+12 -1.4575e+12 -1.26119e+12 -1.18519e+12 -1.08928e+12 -936491000000.0 -1.34658e+12 -1.1443e+12 -1.00038e+12 -945231000000.0 -565174000000.0 -108142000000.0 -290840000000.0 -453211000000.0 -792612000000.0 -1.51448e+12 -1.6676e+12 -843879000000.0 -1.02802e+12 -1.32011e+12 -1.17907e+12 -1.385e+12 -1.35824e+12 -1.26033e+12 -1.09247e+12 -1.16363e+12 -1.22105e+12 -1.272e+12 -1.31806e+12 -1.35947e+12 -1.39625e+12 -1.42895e+12 -1.45776e+12 -1.48323e+12 -1.50735e+12 -1.5291e+12 -1.62712e+12 -584499000000.0 -1.63986e+12 -1.60176e+12 -1.555e+12 -1.52721e+12 -1.50653e+12 -1.49135e+12 -1.48075e+12 -1.47364e+12 -1.46917e+12 -1.4664e+12 -1.46453e+12 -1.46307e+12 -1.46165e+12 -1.4599e+12 -1.45747e+12 -1.45405e+12 -1.44939e+12 -1.44326e+12 -1.43552e+12 -1.42619e+12 -1.41543e+12 -1.40368e+12 -1.3918e+12 -1.38237e+12 -1.38389e+12 -1.45065e+12 -1.52645e+12 -1.63931e+12 -1.28548e+12 -1.39174e+12 -1.34803e+12 -1.31788e+12 -1.33658e+12 -1.37514e+12 -1.29419e+12 -953952000000.0 -809011000000.0 -1.4664e+12 -787593000000.0 -830761000000.0 -645231000000.0 -196986000000.0 -164539000000.0 -29042100000.0 -114358000000.0 -237015000000.0 -983260000000.0 -1.21786e+12 -1.38169e+12 -1.50254e+12 -1.156e+12 -1.2243e+12 -1.1224e+12 -1.20267e+12 -1.19123e+12 -1.14217e+12 -1.08957e+12 -1.05527e+12 -1.09562e+12 -1.14082e+12 -1.18628e+12 -1.23012e+12 -1.27216e+12 -1.31315e+12 -1.35438e+12 -1.39841e+12 -1.45135e+12 -1.52717e+12 -1.65829e+12 -1.49861e+12 -1.23052e+12 -1.41996e+12 -1.50623e+12 -1.4106e+12 -1.38748e+12 -1.37329e+12 -1.36345e+12 -1.35708e+12 -1.35318e+12 -1.35101e+12 -1.35003e+12 -1.34969e+12 -1.34948e+12 -1.34907e+12 -1.34816e+12 -1.34642e+12 -1.34351e+12 -1.33924e+12 -1.33347e+12 -1.32616e+12 -1.31746e+12 -1.30772e+12 -1.2977e+12 -1.28866e+12 -1.2828e+12 -1.28628e+12 -1.32041e+12 -1.36937e+12 -1.43316e+12 -1.50076e+12 -1.12197e+12 -1.24766e+12 -1.17764e+12 -1.20484e+12 -1.26665e+12 -1.12846e+12 -1.14078e+12 -1.05375e+12 -1.30172e+12 -1.19306e+12 -1.05453e+12 -550698000000.0 -314756000000.0 -75266700000.0 -33994300000.0 -114193000000.0 -516214000000.0 -782723000000.0 -995155000000.0 -1.08728e+12 -1.22238e+12 -752126000000.0 -934466000000.0 -1.06156e+12 -1.06903e+12 -1.05497e+12 -1.0201e+12 -985992000000.0 -957708000000.0 -971291000000.0 -980762000000.0 -1.01557e+12 -1.05754e+12 -1.23152e+12 -1.173e+12 -1.21158e+12 -1.22183e+12 -1.22453e+12 -1.22597e+12 -1.22751e+12 -1.22922e+12 -1.23104e+12 -1.23292e+12 -1.23457e+12 -1.23569e+12 -1.23602e+12 -1.05995e+12 -1.12187e+12 -999297000000.0 -1.06593e+12 -946579000000.0 -834515000000.0 -688052000000.0 -1.14601e+12 -1.05829e+12 -886576000000.0 -766893000000.0 -659363000000.0 -286000000000.0 -122372000000.0 -116229000000.0 -85202300000.0 -115674000000.0 -539555000000.0 -802108000000.0 -921880000000.0 -1.33928e+12 -665921000000.0 -862347000000.0 -996076000000.0 -918760000000.0 -1.10187e+12 -1.14662e+12 -1.1922e+12 -1.23996e+12 -1.29227e+12 -1.35361e+12 -1.4331e+12 -1.55506e+12 -1.6661e+12 -29893700000.0 -1.23532e+12 -1.23329e+12 -1.22968e+12 -1.22441e+12 -1.21749e+12 -1.20913e+12 -1.19971e+12 -1.19002e+12 -1.18135e+12 -1.1755e+12 -1.17586e+12 -1.19124e+12 -1.21728e+12 -1.24904e+12 -1.27821e+12 -1.31028e+12 -949135000000.0 -1.09556e+12 -968234000000.0 -846267000000.0 -725710000000.0 -578791000000.0 -830996000000.0 -642665000000.0 -612664000000.0 -455400000000.0 -131300000000.0 -58296200000.0 -40302600000.0 -67096300000.0 -635215000000.0 -892251000000.0 -1.06773e+12 -1.18442e+12 -594261000000.0 -903196000000.0 -818263000000.0 -748670000000.0 -838979000000.0 -873808000000.0 -896474000000.0 -932576000000.0 -975061000000.0 -1.02033e+12 -1.06781e+12 -1.11847e+12 -1.17398e+12 -1.23698e+12 -1.31135e+12 -1.40754e+12 -1.56277e+12 -855339000000.0 -903916000000.0 -886310000000.0 -829039000000.0 -1.0087e+12 -1.05479e+12 -1.07473e+12 -1.08732e+12 -1.09641e+12 -1.10351e+12 -1.10926e+12 -1.11405e+12 -1.1181e+12 -1.12128e+12 -1.12333e+12 -1.12402e+12 -1.12318e+12 -1.12057e+12 -1.11603e+12 -1.10959e+12 -1.10146e+12 -1.09203e+12 -1.08202e+12 -1.07255e+12 -1.06517e+12 -1.06182e+12 -1.0659e+12 -1.07615e+12 -1.08724e+12 -1.09082e+12 -1.06307e+12 -1.05612e+12 -919505000000.0 -953814000000.0 -947966000000.0 -881542000000.0 -618012000000.0 -476504000000.0 -1.00724e+12 -913522000000.0 -480881000000.0 -443426000000.0 -126146000000.0 -31090400000.0 -30652500000.0 -106336000000.0 -200455000000.0 -735378000000.0 -789248000000.0 -781467000000.0 -913653000000.0 -1.04137e+12 -839301000000.0 -792290000000.0 -790221000000.0 -721397000000.0 -544756000000.0 -715701000000.0 -764094000000.0 -782343000000.0 -811040000000.0 -850320000000.0 -894461000000.0 -941783000000.0 -993127000000.0 -1.04952e+12 -1.11176e+12 -1.17923e+12 -1.24581e+12 -1.29238e+12 -1.11218e+12 -190850000000.0 -801369000000.0 -882616000000.0 -917744000000.0 -942512000000.0 -960523000000.0 -974091000000.0 -984646000000.0 -993041000000.0 -999950000000.0 -1.0056e+12 -1.00989e+12 -1.01243e+12 -1.01307e+12 -1.01172e+12 -1.00821e+12 -1.00248e+12 -994653000000.0 -985102000000.0 -974497000000.0 -963792000000.0 -954320000000.0 -947514000000.0 -944494000000.0 -944591000000.0 -945497000000.0 -939576000000.0 -920052000000.0 -795238000000.0 -877522000000.0 -891456000000.0 -797866000000.0 -757195000000.0 -841090000000.0 -732156000000.0 -872816000000.0 -784218000000.0 -616239000000.0 -631220000000.0 -185329000000.0 -104989000000.0 -85084700000.0 -627881000000.0 -647867000000.0 -732217000000.0 -610152000000.0 -727542000000.0 -879781000000.0 -563482000000.0 -627125000000.0 -694163000000.0 -609406000000.0 -468953000000.0 -586868000000.0 -682698000000.0 -667651000000.0 -689934000000.0 -726391000000.0 -769164000000.0 -815302000000.0 -865801000000.0 -922225000000.0 -985540000000.0 -1.0555e+12 -1.12899e+12 -1.19091e+12 -1.18743e+12 -1.16717e+12 -622399000000.0 -433224000000.0 -604516000000.0 -752317000000.0 -767811000000.0 -796185000000.0 -821349000000.0 -841599000000.0 -857362000000.0 -869809000000.0 -880085000000.0 -888557000000.0 -895458000000.0 -900298000000.0 -902863000000.0 -903072000000.0 -900887000000.0 -896156000000.0 -888869000000.0 -879239000000.0 -867933000000.0 -855838000000.0 -728014000000.0 -692806000000.0 -792701000000.0 -664026000000.0 -685936000000.0 -601458000000.0 -501474000000.0 -376254000000.0 -745780000000.0 -671951000000.0 -579407000000.0 -471519000000.0 -440240000000.0 -337339000000.0 -103147000000.0 -19834700000.0 -17563400000.0 -90828600000.0 -42588700000.0 -212819000000.0 -489434000000.0 -635342000000.0 -595504000000.0 -530519000000.0 -589469000000.0 -540802000000.0 -368682000000.0 -426619000000.0 -1.37164e+12 -844074000000.0 -833864000000.0 -826063000000.0 -820062000000.0 -814813000000.0 -806597000000.0 -786935000000.0 -730365000000.0 -552425000000.0 -443405000000.0 -380715000000.0 -263849000000.0 -458240000000.0 -276708000000.0 -301151000000.0 -166557000000.0 -76163100000.0 -17896100000.0 -28160300000.0 -111924000000.0 -199578000000.0 -127179000000.0 -478602000000.0 -569627000000.0 -650941000000.0 -688135000000.0 -577528000000.0 -504050000000.0 -525647000000.0 -565791000000.0 -609868000000.0 -653966000000.0 -700489000000.0 -753131000000.0 -814116000000.0 -884579000000.0 -964082000000.0 -1.05528e+12 -1.12096e+12 -1.23677e+12 -879715000000.0 -1.11202e+12 -802363000000.0 -650317000000.0 -651853000000.0 -678812000000.0 -705829000000.0 -727650000000.0 -744316000000.0 -758369000000.0 -769978000000.0 -780057000000.0 -787458000000.0 -792357000000.0 -794505000000.0 -793966000000.0 -790572000000.0 -784227000000.0 -774802000000.0 -762803000000.0 -749169000000.0 -735107000000.0 -721588000000.0 -709606000000.0 -699421000000.0 -690727000000.0 -682268000000.0 -664348000000.0 -631034000000.0 -625347000000.0 -621525000000.0 -464089000000.0 -674170000000.0 -196329000000.0 -634909000000.0 -531307000000.0 -478737000000.0 -156961000000.0 -168431000000.0 -14625800000.0 -19409000000.0 -504227000000.0 -478801000000.0 -434299000000.0 -349237000000.0 -465239000000.0 -650519000000.0 -684688000000.0 -650245000000.0 -644050000000.0 -723694000000.0 -900607000000.0 -754682000000.0 -669902000000.0 -621478000000.0 -596279000000.0 -584689000000.0 -582004000000.0 -583757000000.0 -586746000000.0 -591302000000.0 -598822000000.0 -610455000000.0 -567719000000.0 -552345000000.0 -536227000000.0 -177190000000.0 -298039000000.0 -273341000000.0 -429825000000.0 -510679000000.0 -561788000000.0 -594668000000.0 -616529000000.0 -635086000000.0 -649779000000.0 -663668000000.0 -674051000000.0 -681348000000.0 -685803000000.0 -687261000000.0 -685646000000.0 -680801000000.0 -672082000000.0 -659804000000.0 -644413000000.0 -627806000000.0 -611069000000.0 -595059000000.0 -580763000000.0 -568508000000.0 -557833000000.0 -545098000000.0 -523197000000.0 -518624000000.0 -504658000000.0 -432005000000.0 -325838000000.0 -504174000000.0 -355182000000.0 -247555000000.0 -594011000000.0 -324021000000.0 -334906000000.0 -400664000000.0 -232528000000.0 -11354800000.0 -34553800000.0 -60351100000.0 -48247100000.0 -382685000000.0 -389884000000.0 -367443000000.0 -295479000000.0 -311059000000.0 -103536000000.0 -249961000000.0 -227240000000.0 -306966000000.0 -350717000000.0 -476921000000.0 -524990000000.0 -549414000000.0 -575710000000.0 -463442000000.0 -431797000000.0 -369013000000.0 -253706000000.0 -267878000000.0 -358643000000.0 -421495000000.0 -466770000000.0 -488633000000.0 -512615000000.0 -529055000000.0 -547503000000.0 -560344000000.0 -570361000000.0 -576521000000.0 -580647000000.0 -580775000000.0 -578643000000.0 -571138000000.0 -559602000000.0 -542739000000.0 -522959000000.0 -502327000000.0 -482521000000.0 -463982000000.0 -446415000000.0 -430612000000.0 -422164000000.0 -411437000000.0 -406785000000.0 -398452000000.0 -303671000000.0 -328364000000.0 -83454000000.0 -454628000000.0 -360089000000.0 -223154000000.0 -442399000000.0 -210306000000.0 -222810000000.0 -280489000000.0 -184747000000.0 -175534000000.0 -116000000000.0 -123332000000.0 -66918300000.0 -29210100000.0 -17770000000.0 -43989800000.0 -49642900000.0 -53521900000.0 -346837000000.0 -405935000000.0 -101091000000.0 -68238000000.0 -138023000000.0 -180497000000.0 -523536000000.0 -516622000000.0 -512452000000.0 -511708000000.0 -514229000000.0 -518680000000.0 -525184000000.0 -535164000000.0 -197585000000.0 -168201000000.0 -168866000000.0 -135313000000.0 -234576000000.0 -221995000000.0 -135343000000.0 -177629000000.0 -176158000000.0 -68128800000.0 -45171800000.0 -20392900000.0 -332035000000.0 -310413000000.0 -285047000000.0 -349291000000.0 -395833000000.0 -227586000000.0 -225199000000.0 -330487000000.0 -380147000000.0 -395197000000.0 -400698000000.0 -403670000000.0 -405575000000.0 -408335000000.0 -412539000000.0 -419935000000.0 -431841000000.0 -447215000000.0 -454885000000.0 -287044000000.0 -288361000000.0 -263740000000.0 -183947000000.0 -142844000000.0 -209673000000.0 -296194000000.0 -346820000000.0 -364869000000.0 -398517000000.0 -411913000000.0 -441461000000.0 -452153000000.0 -460058000000.0 -467809000000.0 -473088000000.0 -475816000000.0 -476820000000.0 -472048000000.0 -462641000000.0 -444956000000.0 -422991000000.0 -396031000000.0 -370763000000.0 -349982000000.0 -327723000000.0 -304777000000.0 -287718000000.0 -313241000000.0 -290489000000.0 -274728000000.0 -210871000000.0 -300297000000.0 -147493000000.0 -148497000000.0 -163054000000.0 -21535400000.0 -53809100000.0 -75143000000.0 -174171000000.0 -234164000000.0 -193875000000.0 -192163000000.0 -187151000000.0 -164687000000.0 -172070000000.0 -28062600000.0 -22209900000.0 -52611200000.0 -116648000000.0 -153383000000.0 -154974000000.0 -237647000000.0 -270596000000.0 -287307000000.0 -295531000000.0 -299286000000.0 -299069000000.0 -298955000000.0 -302533000000.0 -310865000000.0 -326963000000.0 -335821000000.0 -298013000000.0 -213354000000.0 -310505000000.0 -233647000000.0 -321456000000.0 -68825700000.0 -150051000000.0 -292507000000.0 -227776000000.0 -306353000000.0 -291384000000.0 -351251000000.0 -368767000000.0 -372508000000.0 -366967000000.0 -369860000000.0 -364199000000.0 -378953000000.0 -369057000000.0 -371556000000.0 -348879000000.0 -328339000000.0 -295374000000.0 -256802000000.0 -233019000000.0 -212079000000.0 -178362000000.0 -153414000000.0 -202425000000.0 -180160000000.0 -175124000000.0 -100281000000.0 -72027300000.0 -137111000000.0 -154641000000.0 -149226000000.0 -266658000000.0 -307243000000.0 -182228000000.0 -181794000000.0 -239127000000.0 -253411000000.0 -239112000000.0 -239134000000.0 -197380000000.0 -113187000000.0 -71211800000.0 -29942500000.0 -34977000000.0 -85456200000.0 -136607000000.0 -210893000000.0 -307936000000.0 -193326000000.0 -131897000000.0 -159838000000.0 -198306000000.0 -228149000000.0 -185397000000.0 -182007000000.0 -194304000000.0 -228943000000.0 -230591000000.0 -378059000000.0 -203854000000.0 -333023000000.0 -217465000000.0 -297982000000.0 -198822000000.0 -277103000000.0 -194974000000.0 -295421000000.0 -286016000000.0 -293382000000.0 -269085000000.0 -243416000000.0 -208318000000.0 -204203000000.0 -175984000000.0 -160247000000.0 -125754000000.0 -104820000000.0 -82225800000.0 -100182000000.0 -103423000000.0 -44660400000.0 -42616700000.0 -63535400000.0 -48066200000.0 -44756700000.0 -101515000000.0 -90519500000.0 -64927300000.0 -68901900000.0 -34983400000.0 -9055270000.0 -9035750000.0 -9035750000.0 -243283000000.0 -228053000000.0 -183690000000.0 -125675000000.0 -9035630000.0 -124506000000.0 -149773000000.0 -169381000000.0 -181877000000.0 -187877000000.0 -187960000000.0 -179572000000.0 -178665000000.0 -44442800000.0 -21892200000.0 -66559800000.0 -68629700000.0 -74898600000.0 -75934000000.0 -84968700000.0 -125185000000.0 -39465400000.0 -26454300000.0 -96691400000.0 -74476100000.0 -9035750000.0 -9035750000.0 -9147180000.0 -9255360000.0 -108623000000.0 -78432000000.0 -115510000000.0 -140229000000.0 -156514000000.0 -83075600000.0 -160001000000.0 -72717700000.0 -52504400000.0 -31336000000.0 -73115300000.0 -71860400000.0 -58324500000.0 -90164800000.0 -107966000000.0 -115240000000.0 -117799000000.0 -117600000000.0 -111693000000.0 -112057000000.0 -113724000000.0 -117618000000.0 -142656000000.0 -109836000000.0 -270932000000.0 -79687500000.0 -139523000000.0 -60033200000.0 -231316000000.0 -63385600000.0 -126080000000.0 -48596200000.0 -84210700000.0 -29515300000.0 -61436600000.0 -48449100000.0 -53205700000.0 -42434000000.0 -46473600000.0 -43088100000.0 -60389200000.0 -64240000000.0 -82653200000.0 -85716800000.0 -93271400000.0 -92231400000.0 -88737300000.0 -96801000000.0 -107594000000.0 -110698000000.0 -114231000000.0 -155911000000.0 -163890000000.0 -172453000000.0 -106245000000.0 -100700000000.0 -105090000000.0 -84609400000.0 -70295200000.0 -104120000000.0 -99459900000.0 -73323400000.0 -36874900000.0 -98960300000.0 -83653600000.0 -80868000000.0 -77580300000.0 -31616300000.0 -18242200000.0 -14459100000.0 -10836300000.0 -11823000000.0 -17287000000.0 -22895200000.0 -28552900000.0 -112165000000.0 -68535100000.0 -13499700000.0 -20816400000.0 -28824100000.0 -77438000000.0 -139321000000.0 -136579000000.0 -146678000000.0 -111854000000.0 -181954000000.0 -57494700000.0 -160158000000.0 -12323900000.0 -73153300000.0 -12131700000.0 -52012800000.0 -44233500000.0 -37989500000.0 -44138700000.0 -41699900000.0 -47489300000.0 -43592300000.0 -54056500000.0 -49549900000.0 -55289700000.0 -47164800000.0 -45090900000.0 -37181000000.0 -28275700000.0 -29954300000.0 -57686800000.0 -50121000000.0 -52467600000.0 -9139200000.0 -9035750000.0 -9035750000.0 -9035750000.0 -88100400000.0 -100109000000.0 -89550700000.0 -83382300000.0 -9103120000.0 -85692000000.0 -83941200000.0 -112011000000.0 -132850000000.0 -144134000000.0 -149507000000.0 -149854000000.0 -143568000000.0 -141614000000.0 -17084500000.0 -39037100000.0 -14996100000.0 -38419400000.0 -34329400000.0 -40666100000.0 -46456100000.0 -47169500000.0 -48889500000.0 -69920800000.0 -68548100000.0 -65967100000.0 -15361400000.0 -26929000000.0 -44038600000.0 -13347900000.0 -74568700000.0 -55346400000.0 -55200800000.0 -9099370000.0 -9052620000.0 -9035750000.0 -9035750000.0 -76337700000.0 -61962100000.0 -74982000000.0 -70924700000.0 -72463200000.0 -9202870000.0 -55172300000.0 -9318190000.0 -9036080000.0 -9035750000.0 -41569200000.0 -44665700000.0 -37934300000.0 -49481600000.0 -62830400000.0 -70437800000.0 -74626400000.0 -75941000000.0 -72812900000.0 -73509200000.0 -75017900000.0 -75701600000.0 -91613300000.0 -67656100000.0 -142702000000.0 -20247100000.0 -19678700000.0 -12002100000.0 -122889000000.0 -25114800000.0 -77734900000.0 -26895400000.0 -58196900000.0 -25424600000.0 -46165000000.0 -41140100000.0 -44657400000.0 -41605600000.0 -45395900000.0 -41258800000.0 -50071500000.0 -47120000000.0 -53375300000.0 -48080800000.0 -47331200000.0 -41760600000.0 -38685900000.0 -43769600000.0 -48455600000.0 -50078900000.0 -51754600000.0 -66034100000.0 -66149600000.0 -59229300000.0 -19387500000.0 -28256400000.0 -35231700000.0 -27475100000.0 -29633500000.0 -47779200000.0 -39496600000.0 -42163700000.0 -12961200000.0 -65619500000.0 -48612600000.0 -48573100000.0 -44853600000.0 -9035750000.0 -9035750000.0 -9035750000.0 -9035760000.0 -9089630000.0 -9051460000.0 -9035750000.0 -9035750000.0 -43596400000.0 -104769000000.0 -92097300000.0 -51131900000.0 -35113400000.0 -27403700000.0 -24799700000.0 -28599900000.0 -27153800000.0 -31083200000.0 -28624700000.0 -36363700000.0 -34507600000.0 -39899100000.0 -26520400000.0 -38306400000.0 -30418900000.0 -36945700000.0 -9035750000.0 -9035750000.0 -9035750000.0 -9035760000.0 -61406700000.0 -52356800000.0 -62172000000.0 -58962500000.0 -61442700000.0 -9255630000.0 -9395480000.0 -9035750000.0 -9035750000.0 -33037400000.0 -35961300000.0 -31322200000.0 -36710900000.0 -47787500000.0 -54595000000.0 -59064900000.0 -61101500000.0 -59713200000.0 -60929300000.0 -63299900000.0 -63473200000.0 -76446600000.0 -57199900000.0 -10860100000.0 -12884700000.0 -16859400000.0 -9702490000.0 -10180300000.0 -10195400000.0 -35956000000.0 -35681400000.0 -31556900000.0 -30291800000.0 -34930100000.0 -38997400000.0 -41165700000.0 -42864100000.0 -52206700000.0 -52834000000.0 -44727300000.0 -16327600000.0 -23657300000.0 -28800500000.0 -23467800000.0 -37640600000.0 -12613700000.0 -54678400000.0 -40134400000.0 -40239100000.0 -9076520000.0 -9048130000.0 -9035750000.0 -9035750000.0 -46196700000.0 -40998100000.0 -47886300000.0 -45552800000.0 -47966800000.0 -9250120000.0 -32939600000.0 -9368200000.0 -9035750000.0 -9035750000.0 -25353600000.0 -27674100000.0 -24626000000.0 -26470800000.0 -34288400000.0 -39459500000.0 -43299200000.0 -45317200000.0 -44954900000.0 -45939600000.0 -47593500000.0 -47221300000.0 -56827600000.0 -42192800000.0 -76992800000.0 -9510340000.0 -9035750000.0 -11909000000.0 -65568400000.0 -10199700000.0 -40005700000.0 -9772240000.0 -28052300000.0 -9870790000.0 -22619300000.0 -20836700000.0 -23687600000.0 -22692600000.0 -25614000000.0 -23847100000.0 -29531800000.0 -28205200000.0 -32179300000.0 -29316900000.0 -29119900000.0 -26080900000.0 -25527200000.0 -28951400000.0 -31930900000.0 -33759900000.0 -35190300000.0 -40939100000.0 -41536300000.0 -34136500000.0 -15128700000.0 -20275300000.0 -23567000000.0 -19957500000.0 -22632400000.0 -29723200000.0 -22976200000.0 -31012800000.0 -11904500000.0 -42437400000.0 -31504100000.0 -31432300000.0 -28906100000.0 -9035750000.0 -9035750000.0 -9035750000.0 -9035760000.0 -9043510000.0 -9035750000.0 -49458000000.0 -9035750000.0 -9035750000.0 -9035750000.0 -9035760000.0 -9060860000.0 -9035750000.0 -30985300000.0 -28448600000.0 -32483600000.0 -31076000000.0 -32761100000.0 -9191030000.0 -22935500000.0 -9262540000.0 -9035750000.0 -9035750000.0 -18416300000.0 -19827700000.0 -18173000000.0 -18751600000.0 -23135200000.0 -26391800000.0 -28960200000.0 -30384200000.0 -30437000000.0 -31133600000.0 -32224400000.0 -31873600000.0 -37744800000.0 -28725900000.0 -9352300000.0 -9035750000.0 -10890600000.0 -41900800000.0 -9198670000.0 -27601600000.0 -9480690000.0 -20506600000.0 -9534610000.0 -17281600000.0 -16258300000.0 -18014800000.0 -17440800000.0 -19222900000.0 -18170800000.0 -21617500000.0 -20827000000.0 -23234800000.0 -21512100000.0 -21395100000.0 -19554200000.0 -19361300000.0 -21439700000.0 -23238800000.0 -24393000000.0 -25355700000.0 -28470700000.0 -28814800000.0 -23786000000.0 -13005500000.0 -16019300000.0 -17834200000.0 -15775300000.0 -17546400000.0 -21277900000.0 -16749000000.0 -22694400000.0 -10847200000.0 -29187800000.0 -22466000000.0 -22354800000.0 -20827400000.0 -9043650000.0 -9038230000.0 -9035750000.0 -9035750000.0 -15881900000.0 -15160300000.0 -16409000000.0 -15965700000.0 -16523100000.0 -9087410000.0 -13344200000.0 -9110340000.0 -9035750000.0 -9035750000.0 -11932300000.0 -12365800000.0 -11875700000.0 -12012800000.0 -13324400000.0 -14373800000.0 -15214000000.0 -15688300000.0 -15739700000.0 -15970500000.0 -16319700000.0 -16194600000.0 -18052400000.0 -15191400000.0 -21684000000.0 -9144230000.0 -9035750000.0 -9623430000.0 -19316100000.0 -9134210000.0 -14887300000.0 -9176000000.0 -12641400000.0 -9191960000.0 -11633600000.0 -11318300000.0 -11875300000.0 -11697500000.0 -12259200000.0 -11930000000.0 -13015200000.0 -12767900000.0 -13525900000.0 -12984700000.0 -12947700000.0 -12368500000.0 -12324400000.0 -12980000000.0 -13546200000.0 -13913400000.0 -14229900000.0 -15170000000.0 -15275900000.0 -13632300000.0 -10318100000.0 -11252800000.0 -11806500000.0 -11173800000.0 -11748900000.0 -12857300000.0 -11367100000.0 -13375400000.0 -9613860000.0 -15372300000.0 -13236500000.0 -13197000000.0 -12721800000.0 -9035750000.0 -9035750000.0 -9035750000.0 -9035750000.0 
SCALARS Shear_Stress float 1
LOOKUP_TABLE default
51669100000.0 27959600000.0 19883800000.0 9506510000.0 12979700000.0 44716600000.0 13664400000.0 59450500000.0 52519600000.0 42460600000.0 50912500000.0 18418600000.0 50832100000.0 7867580000.0 62663700000.0 29025900000.0 32463500000.0 52133500000.0 45090500000.0 15282600000.0 1645040000.0 45792300000.0 40604300000.0 87716700000.0 15956500000.0 57093900000.0 38412800000.0 48495100000.0 5732640000.0 91699000000.0 105687000000.0 60203700000.0 113222000000.0 61426600000.0 51089500000.0 4440450000.0 86352300000.0 57968000000.0 49300900000.0 9084450000.0 32239000000.0 35504400000.0 24320500000.0 95026800000.0 64741300000.0 98145500000.0 89760700000.0 122627000000.0 125253000000.0 126363000000.0 16230100000.0 92763300000.0 119373000000.0 78138000000.0 223346000000.0 81760500000.0 76973700000.0 3444320000.0 6895890000.0 9506970000.0 42979500000.0 6423090000.0 26750100000.0 92029700000.0 87352900000.0 160643000000.0 149962000000.0 18781600000.0 118675000000.0 75662600000.0 89267400000.0 153310000000.0 96780200000.0 201534000000.0 258399000000.0 152446000000.0 9129040000.0 69245700000.0 27756100000.0 14909100000.0 33217100000.0 22388600000.0 1526650000.0 104126000000.0 200821000000.0 180614000000.0 156998000000.0 22108200000.0 52744100000.0 218912000000.0 258721000000.0 28853200000.0 127047000000.0 87801300000.0 48885500000.0 22832300000.0 153000000000.0 321248000000.0 245169000000.0 261070000000.0 239953000000.0 268953000000.0 226437000000.0 224805000000.0 188062000000.0 185804000000.0 18536600000.0 109532000000.0 32069700000.0 24774100000.0 140705000000.0 119134000000.0 218700000000.0 265394000000.0 166019000000.0 154800000000.0 90946700000.0 100465000000.0 77877700000.0 167730000000.0 433110000000.0 254351000000.0 287474000000.0 263033000000.0 214651000000.0 10696000000.0 84164400000.0 69112300000.0 157275000000.0 149695000000.0 127897000000.0 345770000000.0 217505000000.0 430640000000.0 312370000000.0 377386000000.0 246933000000.0 130685000000.0 143050000000.0 360235000000.0 314950000000.0 265826000000.0 285693000000.0 244288000000.0 200501000000.0 165893000000.0 321966000000.0 589490000000.0 497882000000.0 477069000000.0 359097000000.0 190594000000.0 123558000000.0 225363000000.0 179583000000.0 253142000000.0 279016000000.0 271557000000.0 266787000000.0 238362000000.0 220817000000.0 195984000000.0 9507000000.0 68150300000.0 280327000000.0 582929000000.0 346799000000.0 525577000000.0 468776000000.0 288822000000.0 182657000000.0 131001000000.0 95646100000.0 143074000000.0 137181000000.0 194195000000.0 134277000000.0 192574000000.0 207930000000.0 254541000000.0 257720000000.0 247262000000.0 205524000000.0 43704700000.0 86248700000.0 232319000000.0 329005000000.0 511918000000.0 232434000000.0 196646000000.0 200388000000.0 422288000000.0 492223000000.0 532494000000.0 509045000000.0 407626000000.0 293784000000.0 84278200000.0 77045600000.0 114992000000.0 157552000000.0 225134000000.0 243434000000.0 212104000000.0 172460000000.0 219468000000.0 245417000000.0 79811800000.0 335744000000.0 536588000000.0 429698000000.0 130839000000.0 28755200000.0 67244700000.0 107202000000.0 183822000000.0 224671000000.0 212580000000.0 171325000000.0 172283000000.0 133966000000.0 90549800000.0 154463000000.0 170882000000.0 66817300000.0 133292000000.0 459913000000.0 538927000000.0 280144000000.0 45132900000.0 3597830000.0 30442500000.0 16486200000.0 20936900000.0 63535000000.0 70997200000.0 135949000000.0 152396000000.0 193811000000.0 179830000000.0 202876000000.0 166372000000.0 127093000000.0 146157000000.0 264315000000.0 104248000000.0 12126600000.0 51395200000.0 77887800000.0 9586620000.0 54748600000.0 298326000000.0 445489000000.0 550754000000.0 602871000000.0 459231000000.0 287369000000.0 75258700000.0 3966830000.0 11001800000.0 92463100000.0 140039000000.0 149988000000.0 122669000000.0 87415400000.0 23316200000.0 108815000000.0 137323000000.0 261566000000.0 565196000000.0 542453000000.0 60495300000.0 21637700000.0 78903600000.0 1681440000.0 90122000000.0 13287100000.0 76515700000.0 110604000000.0 115567000000.0 77195600000.0 78538400000.0 42554100000.0 204530000000.0 373222000000.0 126265000000.0 121539000000.0 228637000000.0 85505400000.0 359868000000.0 711042000000.0 414141000000.0 176041000000.0 102267000000.0 123061000000.0 67646800000.0 274591000000.0 28782500000.0 114233000000.0 31691400000.0 17720800000.0 89123900000.0 75184700000.0 39199300000.0 257526000000.0 459956000000.0 216502000000.0 238183000000.0 360708000000.0 314093000000.0 329130000000.0 238154000000.0 198675000000.0 359778000000.0 314165000000.0 783700000000.0 885430000000.0 64393600000.0 177771000000.0 10652200000.0 464880000000.0 130262000000.0 39213700000.0 52475800000.0 12835000000.0 187210000000.0 328642000000.0 469361000000.0 240800000000.0 93412200000.0 111160000000.0 62502300000.0 241248000000.0 165076000000.0 111944000000.0 152446000000.0 204773000000.0 63968100000.0 26814400000.0 513113000000.0 435912000000.0 73263900000.0 35946500000.0 73142200000.0 71756700000.0 26059200000.0 15458500000.0 294711000000.0 515173000000.0 194216000000.0 263799000000.0 377495000000.0 461429000000.0 610529000000.0 536376000000.0 46918600000.0 43503500000.0 969248000000.0 225707000000.0 190039000000.0 328376000000.0 175430000000.0 244606000000.0 149973000000.0 58551800000.0 304458000000.0 546770000000.0 239664000000.0 549956000000.0 762435000000.0 324843000000.0 117396000000.0 162305000000.0 94539300000.0 113287000000.0 549347000000.0 729572000000.0 38609500000.0 337349000000.0 338276000000.0 360421000000.0 582237000000.0 23007700000.0 159887000000.0 70624300000.0 163555000000.0 317085000000.0 831167000000.0 181422000000.0 54949500000.0 210221000000.0 279139000000.0 394688000000.0 68529700000.0 183005000000.0 370796000000.0 428231000000.0 390613000000.0 282604000000.0 261600000000.0 796024000000.0 308158000000.0 383482000000.0 168491000000.0 177593000000.0 283965000000.0 583228000000.0 137903000000.0 172727000000.0 212113000000.0 423758000000.0 513386000000.0 1.17986e+12 47318400000.0 74840600000.0 265993000000.0 246634000000.0 144827000000.0 197919000000.0 472317000000.0 150062000000.0 337788000000.0 931309000000.0 942922000000.0 350785000000.0 252101000000.0 668388000000.0 132370000000.0 262018000000.0 412444000000.0 823583000000.0 260842000000.0 257752000000.0 123022000000.0 245878000000.0 58963700000.0 113853000000.0 37039800000.0 39048400000.0 410974000000.0 425968000000.0 83108400000.0 53655900000.0 171820000000.0 480679000000.0 602415000000.0 708510000000.0 289234000000.0 857221000000.0 160059000000.0 182001000000.0 189429000000.0 337203000000.0 264974000000.0 477561000000.0 709319000000.0 316489000000.0 317249000000.0 53864900000.0 50848600000.0 230690000000.0 445566000000.0 579959000000.0 607546000000.0 106021000000.0 389984000000.0 652266000000.0 552323000000.0 493643000000.0 334396000000.0 241806000000.0 247737000000.0 335610000000.0 554003000000.0 137985000000.0 504329000000.0 466983000000.0 380428000000.0 402559000000.0 230717000000.0 43015600000.0 136722000000.0 787050000000.0 432846000000.0 87664200000.0 243636000000.0 364800000000.0 468251000000.0 443862000000.0 424707000000.0 283253000000.0 1.20045e+12 402156000000.0 865953000000.0 716026000000.0 595083000000.0 453371000000.0 2093110000.0 374220000000.0 435662000000.0 471430000000.0 351653000000.0 183775000000.0 110726000000.0 48274500000.0 222125000000.0 1.14438e+12 366549000000.0 219217000000.0 295393000000.0 379641000000.0 255665000000.0 381086000000.0 1.54546e+12 316152000000.0 775298000000.0 706725000000.0 320082000000.0 270939000000.0 471303000000.0 455571000000.0 289215000000.0 71820600000.0 80644000000.0 100472000000.0 343163000000.0 94112200000.0 1.10413e+12 309079000000.0 198853000000.0 195376000000.0 227192000000.0 350253000000.0 127390000000.0 314207000000.0 606868000000.0 355703000000.0 399280000000.0 111820000000.0 41952500000.0 293276000000.0 404349000000.0 449221000000.0 467573000000.0 400637000000.0 393370000000.0 277291000000.0 141975000000.0 40438400000.0 272009000000.0 847673000000.0 113972000000.0 315764000000.0 65873900000.0 156407000000.0 465021000000.0 512123000000.0 1.80893e+12 229151000000.0 401950000000.0 396621000000.0 107829000000.0 179754000000.0 409635000000.0 412981000000.0 258180000000.0 96855300000.0 29639200000.0 420917000000.0 229737000000.0 664824000000.0 517804000000.0 823294000000.0 55708200000.0 371039000000.0 107111000000.0 658530000000.0 1.06484e+12 858340000000.0 394900000000.0 196862000000.0 147704000000.0 365623000000.0 410657000000.0 300306000000.0 9368040000.0 226708000000.0 446826000000.0 176221000000.0 186474000000.0 117478000000.0 579626000000.0 362857000000.0 1.1807e+12 322009000000.0 474797000000.0 960785000000.0 524273000000.0 552546000000.0 475118000000.0 14912900000.0 293272000000.0 86060600000.0 197540000000.0 421110000000.0 347933000000.0 400229000000.0 404258000000.0 350354000000.0 336668000000.0 252210000000.0 139461000000.0 16382100000.0 265217000000.0 484691000000.0 393111000000.0 57898600000.0 967944000000.0 129200000000.0 329455000000.0 1.29169e+12 489763000000.0 151202000000.0 359125000000.0 116245000000.0 170896000000.0 654307000000.0 446782000000.0 343048000000.0 310272000000.0 351668000000.0 237376000000.0 430209000000.0 416291000000.0 557272000000.0 670926000000.0 403780000000.0 873729000000.0 1.15953e+12 129588000000.0 381723000000.0 467446000000.0 404758000000.0 782004000000.0 947886000000.0 484677000000.0 26257100000.0 137598000000.0 289953000000.0 87296100000.0 1.33771e+12 615988000000.0 304458000000.0 316260000000.0 330520000000.0 406401000000.0 513991000000.0 721445000000.0 663538000000.0 843801000000.0 766371000000.0 850453000000.0 842085000000.0 444755000000.0 319328000000.0 1.14395e+12 1.39222e+12 628049000000.0 441918000000.0 247820000000.0 251802000000.0 745601000000.0 500692000000.0 70144500000.0 115794000000.0 450528000000.0 286525000000.0 271780000000.0 290462000000.0 428311000000.0 565131000000.0 725808000000.0 902749000000.0 977320000000.0 923297000000.0 900422000000.0 515538000000.0 228134000000.0 556561000000.0 855680000000.0 1.25584e+12 752501000000.0 509275000000.0 306577000000.0 626358000000.0 718740000000.0 1188310000.0 1.1999e+12 226825000000.0 327557000000.0 199632000000.0 447404000000.0 1.32236e+12 426790000000.0 282306000000.0 436549000000.0 629663000000.0 599691000000.0 780028000000.0 755313000000.0 932630000000.0 929507000000.0 1.02567e+12 1.03376e+12 963147000000.0 921573000000.0 798839000000.0 497526000000.0 804477000000.0 1.00368e+12 679386000000.0 720560000000.0 586618000000.0 382638000000.0 311545000000.0 149015000000.0 389598000000.0 42295400000.0 452646000000.0 505179000000.0 613044000000.0 1.04883e+12 102210000000.0 30236000000.0 169558000000.0 550638000000.0 814392000000.0 631850000000.0 482120000000.0 686156000000.0 807631000000.0 944513000000.0 1.07152e+12 1.05937e+12 1.13022e+12 1.08765e+12 1.01247e+12 843361000000.0 665918000000.0 660206000000.0 660537000000.0 792740000000.0 887124000000.0 1.29699e+12 181069000000.0 347987000000.0 208964000.0 177741000000.0 82737200000.0 598265000000.0 28123500000.0 532292000000.0 167269000000.0 316752000000.0 235739000000.0 490305000000.0 894723000000.0 807434000000.0 852598000000.0 959043000000.0 1.07271e+12 1.15386e+12 1.14434e+12 1.08694e+12 1.04092e+12 954528000000.0 769410000000.0 688883000000.0 709279000000.0 630362000000.0 543069000000.0 1.21157e+12 309911000000.0 396433000000.0 496928000000.0 546607000000.0 791538000000.0 473508000000.0 234269000000.0 199076000000.0 401769000000.0 469382000000.0 283496000000.0 306829000000.0 73492500000.0 130190000000.0 245233000000.0 1.28762e+12 546312000000.0 490119000000.0 1.28307e+12 1.23315e+12 1.02207e+12 1.08534e+12 942013000000.0 1.03457e+12 984281000000.0 1.09066e+12 1.08139e+12 1.15617e+12 1.18814e+12 1.11128e+12 976241000000.0 886001000000.0 731710000000.0 633030000000.0 598082000000.0 425445000000.0 479178000000.0 141894000000.0 488774000000.0 353328000000.0 822415000000.0 288029000000.0 250817000000.0 33894200000.0 298206000000.0 352916000000.0 520791000000.0 533464000000.0 633895000000.0 749975000000.0 766853000000.0 1.44786e+12 156707000000.0 186347000000.0 339005000000.0 891143000000.0 333645000000.0 1.12113e+12 1.25007e+12 1.11473e+12 1.10712e+12 1.16792e+12 1.1589e+12 1.20164e+12 1.20789e+12 1.20903e+12 1.16698e+12 1.05229e+12 902657000000.0 815861000000.0 744085000000.0 682245000000.0 506176000000.0 101036000000.0 583291000000.0 422190000000.0 521844000000.0 1.08135e+12 386450000000.0 12722300000.0 369147000000.0 108523000000.0 239755000000.0 409111000000.0 824722000000.0 310715000000.0 790950000000.0 424576000000.0 555726000000.0 851771000000.0 574096000000.0 1.1901e+12 1.21604e+12 1.13992e+12 1.1684e+12 1.19334e+12 1.21505e+12 1.16901e+12 1.11687e+12 1.04859e+12 979232000000.0 818865000000.0 654289000000.0 588564000000.0 462446000000.0 313113000000.0 88535300000.0 212701000000.0 8036360000.0 640761000000.0 7663060000.0 560941000000.0 759436000000.0 122657000000.0 413782000000.0 316175000000.0 287280000000.0 12529000000.0 398074000000.0 408120000000.0 79177200000.0 244841000000.0 439976000000.0 631930000000.0 771379000000.0 166858000000.0 389825000000.0 246808000000.0 465344000000.0 108700000000.0 71409000000.0 434315000000.0 738631000000.0 744518000000.0 568369000000.0 712544000000.0 953376000000.0 1.05119e+12 1.20112e+12 1.16853e+12 1.18137e+12 1.16843e+12 1.16782e+12 1.19271e+12 1.19747e+12 1.20734e+12 1.11062e+12 965234000000.0 894423000000.0 795687000000.0 722212000000.0 543325000000.0 364380000000.0 195850000000.0 581345000000.0 877210000000.0 201363000000.0 490374000000.0 898563000000.0 221067000000.0 52291600000.0 244517000000.0 224996000000.0 15082800000.0 45837300000.0 334549000000.0 24294100000.0 217723000000.0 42058900000.0 56982500000.0 126711000000.0 622602000000.0 939616000000.0 391085000000.0 652968000000.0 92779500000.0 234136000000.0 231632000000.0 598320000000.0 712536000000.0 909085000000.0 1.07593e+12 1.13772e+12 1.17569e+12 1.19516e+12 1.20909e+12 1.19637e+12 1.20886e+12 1.21309e+12 1.16323e+12 1.03238e+12 868015000000.0 683597000000.0 610860000000.0 495273000000.0 443795000000.0 404341000000.0 360954000000.0 42736500000.0 816690000000.0 864404000000.0 604357000000.0 249754000000.0 20690200000.0 160074000000.0 78242400000.0 218857000000.0 53619000000.0 167116000000.0 164320000000.0 146978000000.0 39303600000.0 2503390000.0 107089000000.0 84344900000.0 65610900000.0 165433000000.0 1.14206e+12 191479000000.0 495963000000.0 553141000000.0 268024000000.0 423326000000.0 559769000000.0 694344000000.0 786969000000.0 977759000000.0 1.06005e+12 1.12824e+12 1.20253e+12 1.21279e+12 1.22113e+12 1.20634e+12 1.15074e+12 1.09492e+12 1.00735e+12 938235000000.0 756503000000.0 562830000000.0 390608000000.0 490980000000.0 689583000000.0 206224000000.0 320541000000.0 21598700000.0 304344000000.0 430362000000.0 92574100000.0 419531000000.0 74248400000.0 99178100000.0 248009000000.0 270381000000.0 241195000000.0 92297000000.0 140877000000.0 206855000000.0 212595000000.0 445691000000.0 311126000000.0 144536000000.0 193085000000.0 441267000000.0 412732000000.0 335144000000.0 75094300000.0 214636000000.0 193710000000.0 348865000000.0 721670000000.0 781434000000.0 787005000000.0 875688000000.0 937453000000.0 972862000000.0 939686000000.0 1.04466e+12 1.05543e+12 1.14523e+12 1.21036e+12 1.21711e+12 1.19336e+12 1.07362e+12 902829000000.0 829501000000.0 705469000000.0 631728000000.0 492517000000.0 436641000000.0 297596000000.0 292053000000.0 398053000000.0 504486000000.0 130440000000.0 1.27259e+12 102838000000.0 159724000000.0 712763000000.0 112249000000.0 226105000000.0 265722000000.0 219611000000.0 132076000000.0 116684000000.0 326199000000.0 294302000000.0 238388000000.0 90071000000.0 132506000000.0 662306000000.0 649873000000.0 366251000000.0 728457000000.0 1.08302e+12 1.66001e+12 1.00852e+12 273152000000.0 73852500000.0 234590000000.0 534127000000.0 875841000000.0 841063000000.0 854744000000.0 931245000000.0 1.09206e+12 1.17326e+12 1.18622e+12 1.21013e+12 1.20384e+12 1.20924e+12 1.12972e+12 978390000000.0 781958000000.0 563679000000.0 323005000000.0 47647500000.0 58991300000.0 344066000000.0 209927000000.0 22603000000.0 133470000000.0 808768000000.0 52993800000.0 61990200000.0 938039000000.0 519777000000.0 103440000000.0 4426020000.0 48438000000.0 312368000000.0 289112000000.0 260021000000.0 196063000000.0 170106000000.0 191476000000.0 241202000000.0 145392000000.0 100161000000.0 332993000000.0 377323000000.0 436778000000.0 430471000000.0 451010000000.0 36606400000.0 496731000000.0 998982000000.0 659826000000.0 760823000000.0 749403000000.0 247504000000.0 1.75426e+12 110743000000.0 4285900000.0 318357000000.0 755620000000.0 758174000000.0 949042000000.0 776349000000.0 975522000000.0 1.12662e+12 1.18375e+12 1.17963e+12 1.16684e+12 1.10141e+12 1.04777e+12 947616000000.0 865836000000.0 737452000000.0 636843000000.0 397220000000.0 88836500000.0 211169000000.0 275523000000.0 1.10716e+12 1.06228e+12 270983000000.0 279116000000.0 71720500000.0 869507000000.0 69416100000.0 221278000000.0 208425000000.0 159039000000.0 141488000000.0 293044000000.0 155817000000.0 232755000000.0 237643000000.0 415389000000.0 555805000000.0 956342000000.0 464744000000.0 82738800000.0 230592000000.0 318537000000.0 766707000000.0 1.10415e+12 331942000000.0 308013000000.0 835120000000.0 394921000000.0 40692300000.0 461513000000.0 1.14676e+12 959472000000.0 894247000000.0 950600000000.0 617576000000.0 569562000000.0 811837000000.0 911938000000.0 1.03483e+12 1.13766e+12 1.16829e+12 1.1313e+12 1.01801e+12 829912000000.0 578954000000.0 450950000000.0 194776000000.0 203176000000.0 100776000000.0 787140000000.0 597954000000.0 191458000000.0 695282000000.0 499168000000.0 250122000000.0 443284000000.0 111486000000.0 521880000000.0 962418000000.0 234038000000.0 364094000000.0 218172000000.0 180221000000.0 75701600000.0 97565400000.0 104241000000.0 93003000000.0 329344000000.0 338691000000.0 150942000000.0 254987000000.0 234542000000.0 225541000000.0 222103000000.0 209195000000.0 877939000000.0 355952000000.0 35881700000.0 255346000000.0 121642000000.0 453125000000.0 704087000000.0 1.47997e+12 1.42515e+12 25772600000.0 86413200000.0 57601900000.0 525650000000.0 718257000000.0 149136000000.0 749738000000.0 948194000000.0 1.0589e+12 1.06331e+12 1.13168e+12 1.11113e+12 1.13548e+12 1.06384e+12 917600000000.0 701795000000.0 372326000000.0 122919000000.0 244844000000.0 35209400000.0 468505000000.0 690603000000.0 38250500000.0 54442500000.0 80477100000.0 633336000000.0 996437000000.0 214492000000.0 780507000000.0 15305200000.0 46771300000.0 78543600000.0 101434000000.0 78072000000.0 324195000000.0 102451000000.0 134008000000.0 273811000000.0 282415000000.0 297426000000.0 205106000000.0 209951000000.0 524887000000.0 1.08386e+12 14828800000.0 150111000000.0 44936100000.0 326723000000.0 632540000000.0 1.00826e+12 732975000000.0 280009000000.0 380850000000.0 255473000000.0 228005000000.0 266913000000.0 48973300000.0 300844000000.0 802856000000.0 169983000000.0 517079000000.0 798027000000.0 959474000000.0 1.05424e+12 1.07484e+12 1.08286e+12 1.01138e+12 978235000000.0 874633000000.0 806478000000.0 729405000000.0 527996000000.0 266578000000.0 127770000000.0 40218500000.0 486775000000.0 1.15088e+12 527005000000.0 604050000000.0 202785000000.0 75712500000.0 1771160000.0 329508000000.0 98915500000.0 422107000000.0 653786000000.0 341691000000.0 8931260000.0 326356000000.0 104210000000.0 64235800000.0 113034000000.0 95707500000.0 93869700000.0 84577700000.0 135199000000.0 287668000000.0 77206200000.0 302276000000.0 344397000000.0 319683000000.0 367854000000.0 327337000000.0 503401000000.0 415993000000.0 662305000000.0 625249000000.0 58642400000.0 134285000000.0 145644000000.0 299928000000.0 1.55617e+12 760465000000.0 639420000000.0 168146000000.0 479903000000.0 326986000000.0 98329500000.0 325220000000.0 476371000000.0 150197000000.0 575296000000.0 623469000000.0 819701000000.0 958650000000.0 1.03186e+12 1.01906e+12 916790000000.0 767923000000.0 616168000000.0 103099000000.0 167178000000.0 76438500000.0 847708000000.0 47562300000.0 18414800000.0 146532000000.0 135777000000.0 39680400000.0 148872000000.0 65164800000.0 391783000000.0 418976000000.0 1.11396e+12 1.05339e+12 40305000000.0 35365100000.0 66605800000.0 158991000000.0 128090000000.0 102306000000.0 178261000000.0 267429000000.0 255156000000.0 68612000000.0 390903000000.0 356270000000.0 380570000000.0 399833000000.0 482363000000.0 430109000000.0 505772000000.0 851844000000.0 739914000000.0 404541000000.0 78974400000.0 44832400000.0 177635000000.0 259051000000.0 405265000000.0 361133000000.0 7975560000.0 77760300000.0 200444000000.0 278037000000.0 541811000000.0 373847000000.0 724816000000.0 4118660000.0 314161000000.0 649036000000.0 822085000000.0 820598000000.0 948757000000.0 924583000000.0 996185000000.0 943260000000.0 789241000000.0 810544000000.0 431510000000.0 222290000000.0 633316000000.0 1.07903e+12 1.19115e+12 178498000000.0 358980000000.0 176302000000.0 181486000000.0 134210000000.0 51036000000.0 144087000000.0 208995000000.0 667676000000.0 951464000000.0 337318000000.0 140212000000.0 66015800000.0 25539300000.0 65585400000.0 213077000000.0 136395000000.0 219422000000.0 258182000000.0 195911000000.0 215231000000.0 107896000000.0 77873600000.0 391663000000.0 461996000000.0 446954000000.0 416171000000.0 487780000000.0 585982000000.0 602566000000.0 683074000000.0 676583000000.0 312687000000.0 994632000000.0 837285000000.0 312381000000.0 444815000000.0 510727000000.0 127202000000.0 681191000000.0 356560000000.0 640882000000.0 773610000000.0 303868000000.0 959539000000.0 953324000000.0 809022000000.0 21525000000.0 121159000000.0 412269000000.0 652190000000.0 808845000000.0 894136000000.0 940937000000.0 872937000000.0 832145000000.0 638820000000.0 634991000000.0 918015000000.0 784383000000.0 607079000000.0 34117800000.0 156708000000.0 784137000000.0 108486000000.0 314838000000.0 240777000000.0 169243000000.0 60476000000.0 17704800000.0 19298500000.0 27902300000.0 177725000000.0 3934890000.0 118922000000.0 1905420000.0 105766000000.0 290266000000.0 197298000000.0 122550000000.0 345720000000.0 252620000000.0 197090000000.0 240820000000.0 183761000000.0 155365000000.0 157005000000.0 356674000000.0 490543000000.0 505411000000.0 578138000000.0 471810000000.0 566903000000.0 610393000000.0 732034000000.0 601451000000.0 545287000000.0 93686000000.0 210694000000.0 597697000000.0 419432000000.0 520532000000.0 939562000000.0 831549000000.0 301286000000.0 917452000000.0 815826000000.0 296168000000.0 301636000000.0 422454000000.0 650443000000.0 147430000000.0 307756000000.0 479135000000.0 455724000000.0 649623000000.0 772192000000.0 846626000000.0 758503000000.0 268572000000.0 921281000000.0 390805000000.0 154805000000.0 517198000000.0 212650000000.0 441821000000.0 381432000000.0 400309000000.0 277102000000.0 121060000000.0 163764000000.0 120114000000.0 138159000000.0 125191000000.0 186971000000.0 588454000000.0 379050000000.0 257656000000.0 108857000000.0 532752000000.0 376502000000.0 293517000000.0 216281000000.0 252968000000.0 62760800000.0 221595000000.0 287208000000.0 418454000000.0 629745000000.0 713826000000.0 474257000000.0 484803000000.0 736520000000.0 887559000000.0 570227000000.0 568270000000.0 662016000000.0 59092900000.0 316714000000.0 268956000000.0 889098000000.0 1.01269e+12 247667000000.0 368893000000.0 1.01286e+12 915057000000.0 1.15666e+12 1.30894e+12 866308000000.0 504000000000.0 75301200000.0 34768900000.0 348686000000.0 857078000000.0 813806000000.0 103066000000.0 368900000000.0 433051000000.0 630966000000.0 571189000000.0 739880000000.0 838962000000.0 458429000000.0 523086000000.0 1.1314e+12 381728000000.0 380023000000.0 28905600000.0 464775000000.0 10177400000.0 67095700000.0 357753000000.0 431938000000.0 382242000000.0 9965120000.0 65453100000.0 113911000000.0 185330000000.0 467985000000.0 495173000000.0 805185000000.0 675253000000.0 381447000000.0 1.11196e+12 646526000000.0 9553100000.0 852320000000.0 504008000000.0 157305000000.0 283238000000.0 286888000000.0 270961000000.0 452886000000.0 3739420000.0 328084000000.0 287478000000.0 60610600000.0 190808000000.0 305318000000.0 581660000000.0 761416000000.0 412400000000.0 612895000000.0 852315000000.0 464904000000.0 609408000000.0 292894000000.0 220338000000.0 173385000000.0 315089000000.0 274168000000.0 817825000000.0 1.00306e+12 1.40566e+12 1.65365e+12 380701000000.0 340292000000.0 478922000000.0 325054000000.0 126261000000.0 674894000000.0 438047000000.0 422440000000.0 153541000000.0 448008000000.0 538025000000.0 645198000000.0 635244000000.0 871255000000.0 790171000000.0 1.14666e+12 226148000000.0 472735000000.0 623557000000.0 355342000000.0 507109000000.0 429107000000.0 183056000000.0 31608100000.0 57841800000.0 131421000000.0 273852000000.0 821180000000.0 1.03118e+12 1.82894e+12 1.04052e+12 230071000000.0 1.60835e+12 937243000000.0 364891000000.0 1.29715e+12 595350000000.0 233844000000.0 314147000000.0 321187000000.0 537933000000.0 28674800000.0 7210410000.0 153431000000.0 65732900000.0 143999000000.0 284433000000.0 465678000000.0 668678000000.0 929139000000.0 893106000000.0 116260000000.0 435043000000.0 671154000000.0 1.05327e+12 1.10395e+12 63668300000.0 1.23933e+12 410505000000.0 1.17904e+12 112548000000.0 343152000000.0 620140000000.0 703977000000.0 674161000000.0 174925000000.0 31072200000.0 327990000000.0 316246000000.0 350279000000.0 329548000000.0 344510000000.0 154387000000.0 773738000000.0 152186000000.0 116504000000.0 328045000000.0 187799000000.0 361955000000.0 256241000000.0 666746000000.0 457548000000.0 52303500000.0 556592000000.0 559398000000.0 523505000000.0 568543000000.0 1.23317e+12 415085000000.0 197037000000.0 21234800000.0 58921100000.0 108315000000.0 189528000000.0 500636000000.0 1.0919e+12 1.79553e+12 323698000000.0 181794000000.0 694655000000.0 452509000000.0 311100000000.0 293285000000.0 34017200000.0 121529000000.0 513451000000.0 364622000000.0 316375000000.0 643479000000.0 694372000000.0 517024000000.0 66846000000.0 20460000000.0 316806000000.0 154439000000.0 37325500000.0 80261900000.0 450852000000.0 640324000000.0 1.27388e+12 285354000000.0 444224000000.0 1.63048e+12 503657000000.0 1.23577e+12 470371000000.0 1.26356e+12 13482900000.0 412722000000.0 548370000000.0 630333000000.0 501120000000.0 674286000000.0 770128000000.0 268933000000.0 258133000000.0 206245000000.0 12116400000.0 672466000000.0 771399000000.0 189911000000.0 370102000000.0 91240100000.0 352386000000.0 72588500000.0 431790000000.0 111453000000.0 112137000000.0 200082000000.0 548058000000.0 627358000000.0 323731000000.0 391113000000.0 161616000000.0 167431000000.0 264394000000.0 644058000000.0 109316000000.0 64438400000.0 105914000000.0 114574000000.0 124833000000.0 203426000000.0 266221000000.0 274394000000.0 206662000000.0 68247100000.0 1.15181e+12 554087000000.0 317327000000.0 923710000000.0 99984100000.0 498968000000.0 1.17116e+12 516258000000.0 841207000000.0 618951000000.0 431458000000.0 179282000000.0 94586000000.0 108832000000.0 583096000000.0 371567000000.0 212757000000.0 89477300000.0 224351000000.0 346746000000.0 892160000000.0 1.42991e+12 269197000000.0 350997000000.0 475559000000.0 497866000000.0 907583000000.0 365087000000.0 555279000000.0 698103000000.0 528779000000.0 546966000000.0 793249000000.0 628994000000.0 656574000000.0 808756000000.0 914542000000.0 679353000000.0 382152000000.0 50238500000.0 145583000000.0 491211000000.0 226578000000.0 995240000000.0 658465000000.0 390346000000.0 710751000000.0 473886000000.0 459097000000.0 460575000000.0 218584000000.0 838372000000.0 368009000000.0 238971000000.0 195898000000.0 602630000000.0 290739000000.0 123671000000.0 199171000000.0 857776000000.0 966099000000.0 25219400000.0 87909400000.0 111861000000.0 122101000000.0 155480000000.0 157431000000.0 24755600000.0 252199000000.0 459603000000.0 54945000000.0 692479000000.0 641189000000.0 707031000000.0 317290000000.0 790956000000.0 658701000000.0 474331000000.0 352504000000.0 116413000000.0 1.26946e+12 877115000000.0 373887000000.0 252368000000.0 105599000000.0 312505000000.0 55665200000.0 540298000000.0 742135000000.0 728711000000.0 254239000000.0 87016900000.0 241627000000.0 378638000000.0 437967000000.0 554361000000.0 987659000000.0 314221000000.0 629686000000.0 762728000000.0 567309000000.0 357909000000.0 624434000000.0 217754000000.0 302698000000.0 278379000000.0 268581000000.0 139595000000.0 288173000000.0 643281000000.0 788312000000.0 924068000000.0 831017000000.0 588327000000.0 322444000000.0 166898000000.0 196251000000.0 428996000000.0 330426000000.0 305852000000.0 407895000000.0 315763000000.0 957623000000.0 271462000000.0 654082000000.0 582394000000.0 429272000000.0 450856000000.0 438651000000.0 149222000000.0 101172000000.0 213398000000.0 372414000000.0 214776000000.0 643323000000.0 123285000000.0 275394000000.0 490340000000.0 292884000000.0 315461000000.0 355522000000.0 719428000000.0 491030000000.0 743391000000.0 1.00313e+12 701526000000.0 1.08297e+12 513407000000.0 1.17423e+12 664617000000.0 496604000000.0 267072000000.0 212171000000.0 88285500000.0 479376000000.0 25302900000.0 414463000000.0 483913000000.0 1.10491e+12 657860000000.0 121120000000.0 11425100000.0 212930000000.0 413333000000.0 557413000000.0 931329000000.0 863660000000.0 70453200000.0 855685000000.0 957039000000.0 652129000000.0 258078000000.0 513484000000.0 343103000000.0 99522000000.0 22220400000.0 86791100000.0 48180900000.0 671706000000.0 538534000000.0 807799000000.0 775365000000.0 636667000000.0 426790000000.0 185850000000.0 7954610000.0 350016000000.0 245078000000.0 115910000000.0 809548000000.0 508347000000.0 34214600000.0 418537000000.0 783428000000.0 510860000000.0 634482000000.0 476440000000.0 219545000000.0 225893000000.0 52806800000.0 722354000000.0 517726000000.0 674842000000.0 742972000000.0 135696000000.0 29153900000.0 91711600000.0 132330000000.0 149215000000.0 101375000000.0 451920000000.0 448013000000.0 211252000000.0 395944000000.0 610022000000.0 593031000000.0 210786000000.0 814385000000.0 742692000000.0 291575000000.0 915116000000.0 509618000000.0 331745000000.0 867555000000.0 467070000000.0 314174000000.0 243563000000.0 92209700000.0 408297000000.0 692182000000.0 39581900000.0 26801500000.0 330189000.0 339132000000.0 365073000000.0 391038000000.0 630238000000.0 1.1229e+12 851383000000.0 183947000000.0 443286000000.0 639151000000.0 950025000000.0 1.13564e+12 702288000000.0 917561000000.0 902260000000.0 731969000000.0 519943000000.0 613136000000.0 668111000000.0 778044000000.0 518825000000.0 258238000000.0 692905000000.0 304915000000.0 615833000000.0 537376000000.0 412394000000.0 238157000000.0 33549900000.0 157676000000.0 328396000000.0 365364000000.0 265726000000.0 1.00784e+12 297379000000.0 905168000000.0 247810000000.0 727548000000.0 43441400000.0 283856000000.0 1.04278e+12 70275900000.0 351858000000.0 713150000000.0 826470000000.0 537363000000.0 12093300000.0 285109000000.0 62280400000.0 49928100000.0 117694000000.0 157406000000.0 167323000000.0 290274000000.0 464491000000.0 566546000000.0 627530000000.0 630703000000.0 504178000000.0 677151000000.0 517601000000.0 4446260000.0 730454000000.0 902933000000.0 952521000000.0 557308000000.0 353643000000.0 195745000000.0 76761300000.0 921740000000.0 662798000000.0 66531800000.0 151072000000.0 38227000000.0 294962000000.0 414261000000.0 511993000000.0 460857000000.0 692349000000.0 1.09791e+12 54586900000.0 408821000000.0 697831000000.0 960677000000.0 1.14583e+12 927649000000.0 556450000000.0 938154000000.0 922732000000.0 862761000000.0 617580000000.0 467193000000.0 532178000000.0 257263000000.0 562600000000.0 399971000000.0 340886000000.0 237655000000.0 92651500000.0 73208600000.0 223768000000.0 303383000000.0 326859000000.0 280505000000.0 212526000000.0 452483000000.0 71555000000.0 333720000000.0 184102000000.0 70094300000.0 374870000000.0 990766000000.0 368433000000.0 306374000000.0 525508000000.0 736459000000.0 676405000000.0 401250000000.0 75988600000.0 58994400000.0 35138400000.0 112599000000.0 171287000000.0 212155000000.0 301903000000.0 422274000000.0 484828000000.0 734091000000.0 687925000000.0 614926000000.0 647063000000.0 651083000000.0 275849000000.0 539568000000.0 640696000000.0 112008000000.0 861329000000.0 931849000000.0 625799000000.0 404194000000.0 54554700000.0 421596000000.0 797017000000.0 294607000000.0 316145000000.0 41399800000.0 234602000000.0 434396000000.0 601354000000.0 733589000000.0 1.03866e+12 765806000000.0 188344000000.0 718901000000.0 958408000000.0 1.11394e+12 1.15335e+12 1.04042e+12 952599000000.0 1.18849e+12 898847000000.0 718664000000.0 557702000000.0 464100000000.0 189206000000.0 88042600000.0 228396000000.0 298360000000.0 607176000000.0 63832200000.0 394316000000.0 152367000000.0 22925300000.0 107062000000.0 203449000000.0 254305000000.0 254739000000.0 230624000000.0 291849000000.0 184160000000.0 253827000000.0 563336000000.0 539533000000.0 652257000000.0 502021000000.0 484216000000.0 477626000000.0 149736000000.0 1503150000.0 251543000000.0 557356000000.0 360728000000.0 200094000000.0 341132000000.0 538780000000.0 620758000000.0 533337000000.0 341019000000.0 157307000000.0 91229800000.0 137689000000.0 193225000000.0 244662000000.0 316335000000.0 396353000000.0 479384000000.0 569394000000.0 734648000000.0 776179000000.0 690601000000.0 656600000000.0 617570000000.0 509077000000.0 519165000000.0 589018000000.0 469532000000.0 858226000000.0 1.08077e+12 907808000000.0 648200000000.0 383868000000.0 232645000000.0 1.03361e+12 314086000000.0 62588300000.0 400149000000.0 24270300000.0 180869000000.0 266252000000.0 386498000000.0 630727000000.0 854133000000.0 1.17821e+12 1.07258e+12 268956000000.0 662418000000.0 921738000000.0 1.05472e+12 1.17204e+12 1.15389e+12 1.09963e+12 1.09515e+12 1.30251e+12 814408000000.0 660479000000.0 485313000000.0 314466000000.0 108047000000.0 207813000000.0 70666800000.0 250971000000.0 257407000000.0 608677000000.0 471949000000.0 360214000000.0 264170000000.0 88318400000.0 154670000000.0 185904000000.0 193716000000.0 219770000000.0 200893000000.0 248779000000.0 392146000000.0 455620000000.0 556368000000.0 485886000000.0 450365000000.0 363441000000.0 233939000000.0 32972200000.0 139473000000.0 330767000000.0 304200000000.0 220646000000.0 241285000000.0 378971000000.0 231950000000.0 278994000000.0 338428000000.0 401887000000.0 454443000000.0 581788000000.0 932711000000.0 864725000000.0 679535000000.0 624912000000.0 543235000000.0 428424000000.0 603333000000.0 822976000000.0 1.01891e+12 1.05517e+12 833240000000.0 567720000000.0 239401000000.0 937142000000.0 852125000000.0 177780000000.0 164210000000.0 71319900000.0 192615000000.0 21833500000.0 13769800000.0 175225000000.0 179193000000.0 226455000000.0 416969000000.0 995441000000.0 1.37037e+12 1.52422e+12 1.34135e+12 1.16116e+12 497575000000.0 862671000000.0 952602000000.0 1.11908e+12 1.12837e+12 1.10317e+12 1.07141e+12 714915000000.0 679378000000.0 526636000000.0 347310000000.0 162734000000.0 11662200000.0 371166000000.0 969353000000.0 596004000000.0 394300000000.0 255950000000.0 131263000000.0 10579100000.0 120654000000.0 151250000000.0 171702000000.0 218836000000.0 307106000000.0 378612000000.0 451616000000.0 455218000000.0 416334000000.0 346410000000.0 232634000000.0 99242500000.0 58442000000.0 191668000000.0 493735000000.0 518141000000.0 447368000000.0 327832000000.0 228545000000.0 200395000000.0 477768000000.0 518515000000.0 1.21906e+12 983237000000.0 843773000000.0 744245000000.0 632052000000.0 576200000000.0 517551000000.0 548660000000.0 600103000000.0 796635000000.0 941574000000.0 1.02463e+12 1.01638e+12 691577000000.0 351346000000.0 135006000000.0 744815000000.0 574904000000.0 31615900000.0 514440000000.0 393626000000.0 30274400000.0 137124000000.0 291694000000.0 272927000000.0 421368000000.0 620191000000.0 717372000000.0 609580000000.0 1.35417e+12 1.08e+12 270613000000.0 694055000000.0 738640000000.0 1.01112e+12 1.03388e+12 1.02952e+12 1.0099e+12 1.10322e+12 1.28127e+12 461499000000.0 490502000000.0 376940000000.0 251307000000.0 116279000000.0 390463000000.0 465981000000.0 344443000000.0 141610000000.0 1.11703e+12 684506000000.0 441775000000.0 273457000000.0 133999000000.0 25105700000.0 49450800000.0 93469500000.0 229558000000.0 211062000000.0 219187000000.0 286889000000.0 384736000000.0 449310000000.0 455301000000.0 408280000000.0 340210000000.0 290662000000.0 282596000000.0 309526000000.0 354045000000.0 409202000000.0 1.19764e+12 900996000000.0 802729000000.0 734136000000.0 680454000000.0 589582000000.0 563808000000.0 583310000000.0 628826000000.0 670162000000.0 948514000000.0 1.05794e+12 931398000000.0 501407000000.0 103605000000.0 597782000000.0 649971000000.0 412352000000.0 541901000000.0 449200000000.0 417011000000.0 266210000000.0 202112000000.0 147608000000.0 42660600000.0 71422400000.0 242798000000.0 405497000000.0 346379000000.0 435652000000.0 505722000000.0 461553000000.0 270635000000.0 161819000000.0 419610000000.0 440459000000.0 549814000000.0 844340000000.0 881670000000.0 902614000000.0 911755000000.0 1.00245e+12 1.06327e+12 1.19453e+12 236072000000.0 328846000000.0 152986000000.0 183345000000.0 343314000000.0 479199000000.0 496667000000.0 462239000000.0 454065000000.0 1.1076e+12 719619000000.0 477673000000.0 275963000000.0 128640000000.0 42698600000.0 694168000.0 29246600000.0 67481200000.0 113971000000.0 173100000000.0 246134000000.0 313246000000.0 372731000000.0 396580000000.0 382726000000.0 328455000000.0 241926000000.0 132065000000.0 12885200000.0 100653000000.0 160338000000.0 180162000000.0 199453000000.0 245060000000.0 313522000000.0 381609000000.0 421854000000.0 425260000000.0 399456000000.0 363446000000.0 338138000000.0 333000000000.0 343956000000.0 358621000000.0 363864000000.0 223126000000.0 843940000000.0 715332000000.0 673343000000.0 646875000000.0 620674000000.0 597801000000.0 644811000000.0 711613000000.0 799855000000.0 875658000000.0 1.1399e+12 983381000000.0 781269000000.0 299628000000.0 191122000000.0 559166000000.0 308788000000.0 255246000000.0 84915700000.0 165458000000.0 81481200000.0 15124500000.0 54619600000.0 148102000000.0 224808000000.0 369548000000.0 432209000000.0 338954000000.0 317454000000.0 67063300000.0 19177000000.0 611135000000.0 664483000000.0 726039000000.0 909921000000.0 922601000000.0 987934000000.0 1.05818e+12 285454000000.0 247397000000.0 260449000000.0 325830000000.0 417283000000.0 497745000000.0 523981000000.0 553867000000.0 666469000000.0 1.01184e+12 723706000000.0 467464000000.0 232621000000.0 98342000000.0 63871800000.0 60272200000.0 28204500000.0 36292600000.0 115352000000.0 193215000000.0 258604000000.0 311598000000.0 341223000000.0 341447000000.0 308163000000.0 243327000000.0 156982000000.0 59700000000.0 33665600000.0 102143000000.0 142254000000.0 174011000000.0 215208000000.0 269975000000.0 329421000000.0 379835000000.0 409405000000.0 415341000000.0 403063000000.0 381763000000.0 358753000000.0 336569000000.0 307362000000.0 253734000000.0 14789200000.0 1.08039e+12 673140000000.0 614594000000.0 598978000000.0 591745000000.0 583489000000.0 578791000000.0 700096000000.0 809603000000.0 879308000000.0 877687000000.0 948932000000.0 798840000000.0 589135000000.0 126936000000.0 397233000000.0 510167000000.0 209721000000.0 54808400000.0 20229900000.0 98317500000.0 55588000000.0 90002700000.0 353289000000.0 150429000000.0 264703000000.0 138879000000.0 309972000000.0 190030000000.0 104974000000.0 720863000000.0 349585000000.0 186424000000.0 382149000000.0 509721000000.0 780770000000.0 812782000000.0 826340000000.0 848578000000.0 903197000000.0 901073000000.0 60028400000.0 221634000000.0 249791000000.0 283030000000.0 332553000000.0 392894000000.0 451548000000.0 499811000000.0 530518000000.0 572582000000.0 46810700000.0 112748000000.0 124194000000.0 52574800000.0 51377100000.0 145378000000.0 213301000000.0 263122000000.0 293604000000.0 301235000000.0 282515000000.0 237270000000.0 170767000000.0 92219000000.0 12825200000.0 53953500000.0 104334000000.0 145331000000.0 187834000000.0 236844000000.0 289959000000.0 340317000000.0 380468000000.0 381646000000.0 341709000000.0 278425000000.0 179316000000.0 104624000000.0 900457000000.0 801908000000.0 567575000000.0 564090000000.0 568086000000.0 575391000000.0 594435000000.0 633345000000.0 716270000000.0 843942000000.0 777350000000.0 1.11867e+12 761512000000.0 621957000000.0 415275000000.0 382344000000.0 366892000000.0 15571400000.0 179094000000.0 151886000000.0 97492100000.0 192586000000.0 55638700000.0 77523300000.0 145987000000.0 116184000000.0 115301000000.0 17974900000.0 83830900000.0 400156000000.0 381387000000.0 623634000000.0 709759000000.0 753685000000.0 769860000000.0 788565000000.0 46206300000.0 162744000000.0 244341000000.0 313439000000.0 699594000000.0 824200000000.0 641887000000.0 402264000000.0 124594000000.0 10778000000.0 107271000000.0 176798000000.0 223816000000.0 253011000000.0 263927000000.0 254528000000.0 223892000000.0 174413000000.0 111978000000.0 45096700000.0 17062100000.0 404989000000.0 412482000000.0 404288000000.0 717557000000.0 756773000000.0 663534000000.0 596084000000.0 557679000000.0 568477000000.0 583482000000.0 606054000000.0 644718000000.0 545348000000.0 987582000000.0 870716000000.0 498865000000.0 338345000000.0 339859000000.0 287663000000.0 124482000000.0 34754200000.0 18392300000.0 42903900000.0 4422730000.0 313155000000.0 368221000000.0 327447000000.0 456107000000.0 493221000000.0 616662000000.0 695343000000.0 733226000000.0 818761000000.0 746763000000.0 89041800000.0 374173000000.0 425731000000.0 468084000000.0 505336000000.0 544355000000.0 611738000000.0 697799000000.0 721800000000.0 579557000000.0 338559000000.0 43164300000.0 16716000000.0 182779000000.0 140311000000.0 69954400000.0 115921000000.0 160381000000.0 207321000000.0 256607000000.0 304827000000.0 347443000000.0 380431000000.0 400566000000.0 405785000000.0 393427000000.0 355485000000.0 277101000000.0 148323000000.0 142651000000.0 563939000000.0 706015000000.0 667252000000.0 608310000000.0 567863000000.0 553752000000.0 577695000000.0 583179000000.0 587472000000.0 589201000000.0 580369000000.0 938082000000.0 820495000000.0 709478000000.0 617783000000.0 423230000000.0 355123000000.0 250876000000.0 46703000000.0 4722980000.0 714097000.0 32871800000.0 18108700000.0 7361150000.0 12634700000.0 180006000000.0 491858000000.0 544430000000.0 546136000000.0 756577000000.0 436092000000.0 550811000000.0 636902000000.0 705972000000.0 735683000000.0 739602000000.0 739229000000.0 615042000000.0 141228000000.0 254762000000.0 337283000000.0 396245000000.0 440276000000.0 477802000000.0 517548000000.0 570821000000.0 635074000000.0 686981000000.0 678147000000.0 555802000000.0 281476000000.0 236975000000.0 68617600000.0 203822000000.0 64902200000.0 86397200000.0 146860000000.0 188174000000.0 215143000000.0 227693000000.0 224575000000.0 204744000000.0 168982000000.0 120672000000.0 65527200000.0 10088700000.0 41385100000.0 88513100000.0 133620000000.0 179117000000.0 225613000000.0 271396000000.0 313542000000.0 348914000000.0 374811000000.0 388892000000.0 387816000000.0 364433000000.0 299266000000.0 161726000000.0 116048000000.0 450992000000.0 648588000000.0 669967000000.0 635084000000.0 592201000000.0 566618000000.0 562262000000.0 569486000000.0 576090000000.0 562085000000.0 538204000000.0 503994000000.0 428002000000.0 787011000000.0 652241000000.0 569250000000.0 507480000000.0 318406000000.0 40450600000.0 178075000000.0 22962800000.0 27613800000.0 149520000000.0 272963000000.0 498382000000.0 622182000000.0 858401000000.0 316054000000.0 512385000000.0 737406000000.0 708549000000.0 698737000000.0 673520000000.0 507438000000.0 83546700000.0 148031000000.0 271382000000.0 351296000000.0 403259000000.0 443368000000.0 482588000000.0 529192000000.0 584230000000.0 639553000000.0 677522000000.0 667762000000.0 564410000000.0 212961000000.0 398536000000.0 172206000000.0 142207000000.0 76569700000.0 105350000000.0 141605000000.0 170212000000.0 186790000000.0 190283000000.0 179850000000.0 155701000000.0 119779000000.0 75759800000.0 28241600000.0 19029600000.0 64512600000.0 108637000000.0 152454000000.0 196272000000.0 239203000000.0 279342000000.0 314214000000.0 341406000000.0 358657000000.0 363510000000.0 352144000000.0 315015000000.0 215899000000.0 37908700000.0 371642000000.0 665132000000.0 665977000000.0 629793000000.0 596076000000.0 583625000000.0 585729000000.0 585480000000.0 504787000000.0 447285000000.0 322560000000.0 838941000000.0 498953000000.0 453402000000.0 403245000000.0 60017400000.0 33311700000.0 26219400000.0 5029390000.0 251449000000.0 568589000000.0 595451000000.0 686381000000.0 859953000000.0 623515000000.0 720339000000.0 764089000000.0 695088000000.0 685168000000.0 623970000000.0 420320000000.0 56318300000.0 166023000000.0 283422000000.0 350236000000.0 396640000000.0 436418000000.0 477972000000.0 524710000000.0 574889000000.0 623037000000.0 660257000000.0 650557000000.0 37564200000.0 24849000000.0 47034900000.0 100253000000.0 131972000000.0 147139000000.0 147729000000.0 134975000000.0 110621000000.0 77319500000.0 38413200000.0 2955480000.0 44764100000.0 86307200000.0 127625000000.0 168641000000.0 208591000000.0 245939000000.0 278716000000.0 590584000000.0 638757000000.0 617913000000.0 617506000000.0 608591000000.0 578748000000.0 548554000000.0 241501000000.0 756540000000.0 704599000000.0 610466000000.0 363130000000.0 329068000000.0 335821000000.0 9797300000.0 11350400000.0 442512000000.0 536563000000.0 607559000000.0 706315000000.0 229127000000.0 454925000000.0 581592000000.0 687746000000.0 701297000000.0 623610000000.0 12470900000.0 674017000000.0 658442000000.0 468099000000.0 176707000000.0 304802000000.0 321880000000.0 327578000000.0 319493000000.0 293192000000.0 235449000000.0 53478500000.0 351892000000.0 581044000000.0 663049000000.0 699724000000.0 678100000000.0 668695000000.0 647553000000.0 584187000000.0 540458000000.0 475496000000.0 397360000000.0 684244000000.0 660430000000.0 552390000000.0 451306000000.0 201978000000.0 12569100000.0 10593700000.0 78278300000.0 230791000000.0 409520000000.0 533663000000.0 615070000000.0 793047000000.0 162887000000.0 393641000000.0 526522000000.0 637563000000.0 646536000000.0 585814000000.0 310346000000.0 189132000000.0 278053000000.0 334595000000.0 378069000000.0 417201000000.0 456203000000.0 496260000000.0 535351000000.0 567868000000.0 583215000000.0 557627000000.0 394132000000.0 150369000000.0 533982000000.0 390876000000.0 136666000000.0 6886780000.0 58324100000.0 92765100000.0 107479000000.0 107031000000.0 94200000000.0 71516800000.0 41692300000.0 7384220000.0 29298200000.0 67040500000.0 105124000000.0 142968000000.0 179737000000.0 214140000000.0 244466000000.0 268714000000.0 284741000000.0 290267000000.0 282663000000.0 258288000000.0 211288000000.0 130896000000.0 296655000000.0 634686000000.0 663165000000.0 718748000000.0 724340000000.0 697349000000.0 673118000000.0 529414000000.0 444003000000.0 349381000000.0 179633000000.0 634120000000.0 552096000000.0 448749000000.0 385686000000.0 220730000000.0 29027100000.0 40580200000.0 198143000000.0 440055000000.0 686218000000.0 690802000000.0 115918000000.0 350583000000.0 608895000000.0 545553000000.0 599417000000.0 450953000000.0 209654000000.0 58647000000.0 187326000000.0 260470000000.0 311000000000.0 350201000000.0 384300000000.0 415843000000.0 444244000000.0 466863000000.0 479525000000.0 478054000000.0 451303000000.0 575526000000.0 309281000000.0 559915000000.0 248048000000.0 92667900000.0 14328000000.0 34073400000.0 61902000000.0 73523400000.0 71982900000.0 59748000000.0 39193100000.0 12627400000.0 17893200000.0 50775900000.0 84872800000.0 119226000000.0 152794000000.0 184286000000.0 212185000000.0 234785000000.0 250192000000.0 256388000000.0 251468000000.0 234131000000.0 204250000000.0 169216000000.0 238548000000.0 408730000000.0 636644000000.0 555546000000.0 640923000000.0 635859000000.0 608824000000.0 617237000000.0 628602000000.0 557286000000.0 297024000000.0 125535000000.0 601490000000.0 398693000000.0 400154000000.0 248159000000.0 117063000000.0 53215100000.0 9306100000.0 20742000000.0 1027960000.0 530759000000.0 591610000000.0 611413000000.0 579437000000.0 508529000000.0 581711000000.0 495813000000.0 496894000000.0 453673000000.0 323397000000.0 180997000000.0 131517000000.0 195010000000.0 244934000000.0 283820000000.0 314853000000.0 340100000000.0 360243000000.0 374693000000.0 382000000000.0 381829000000.0 382865000000.0 422405000000.0 194564000000.0 785310000000.0 254146000000.0 200625000000.0 118389000000.0 73599000000.0 23929200000.0 13762200000.0 36449700000.0 45735400000.0 43686700000.0 32381300000.0 13841600000.0 9977200000.0 37345200000.0 66834800000.0 97246800000.0 127417000000.0 156060000000.0 181750000000.0 202985000000.0 218267000000.0 226176000000.0 225537000000.0 216130000000.0 200322000000.0 188143000000.0 227046000000.0 326570000000.0 460343000000.0 577185000000.0 452755000000.0 551759000000.0 537748000000.0 544868000000.0 584611000000.0 510328000000.0 513335000000.0 404175000000.0 511977000000.0 554555000000.0 515375000000.0 254826000000.0 26795200000.0 21338000000.0 5780830000.0 65864700000.0 199671000000.0 405038000000.0 498972000000.0 496996000000.0 513839000000.0 82286700000.0 321400000000.0 477559000000.0 479713000000.0 443732000000.0 427316000000.0 345277000000.0 260718000000.0 205433000000.0 176674000000.0 199770000000.0 228283000000.0 391952000000.0 187183000000.0 155061000000.0 89707400000.0 37261100000.0 2630390000.0 17233200000.0 25036400000.0 22810000000.0 12362300000.0 4493680000.0 26000700000.0 50554700000.0 471241000000.0 519769000000.0 450466000000.0 471266000000.0 350640000000.0 243197000000.0 78184700000.0 421299000000.0 486122000000.0 448994000000.0 361502000000.0 341144000000.0 31575900000.0 48976100000.0 25811300000.0 1099280000.0 49656400000.0 228057000000.0 401975000000.0 456725000000.0 479585000000.0 58452300000.0 304632000000.0 433110000000.0 400377000000.0 253226000000.0 273119000000.0 287933000000.0 298324000000.0 305645000000.0 313118000000.0 333908000000.0 429099000000.0 585044000000.0 29159500000.0 76768400000.0 103375000000.0 129093000000.0 152602000000.0 172597000000.0 187889000000.0 197523000000.0 201036000000.0 199024000000.0 194471000000.0 195601000000.0 225212000000.0 293286000000.0 386860000000.0 460790000000.0 490010000000.0 395105000000.0 501032000000.0 422983000000.0 306604000000.0 194203000000.0 34062900000.0 372662000000.0 310923000000.0 285438000000.0 208911000000.0 22279100000.0 2659060000.0 14886000000.0 25619800000.0 269154000000.0 406044000000.0 434526000000.0 388730000000.0 52302500000.0 404927000000.0 351199000000.0 294610000000.0 290206000000.0 221846000000.0 186274000000.0 191068000000.0 205014000000.0 218080000000.0 227904000000.0 234903000000.0 241482000000.0 252825000000.0 279852000000.0 350971000000.0 568747000000.0 47840900000.0 231179000000.0 142928000000.0 122231000000.0 230132000000.0 147794000000.0 80834600000.0 37350500000.0 9620610000.0 6364220000.0 12376000000.0 9696410000.0 228524000.0 15740400000.0 35178700000.0 57028800000.0 79987000000.0 102787000000.0 124149000000.0 142880000000.0 158006000000.0 168922000000.0 175631000000.0 179117000000.0 182234000000.0 191257000000.0 218187000000.0 270667000000.0 345502000000.0 422769000000.0 436465000000.0 383937000000.0 375831000000.0 432741000000.0 434323000000.0 397205000000.0 159650000000.0 166382000.0 346118000000.0 381584000000.0 222985000000.0 213214000000.0 68528900000.0 5069780000.0 15177900000.0 1076610000.0 15280100000.0 360758000000.0 387850000000.0 320417000000.0 330035000000.0 302882000000.0 327055000000.0 367657000000.0 364939000000.0 343408000000.0 282139000000.0 325065000000.0 262470000000.0 196137000000.0 173723000000.0 172632000000.0 176669000000.0 180128000000.0 182016000000.0 184205000000.0 192633000000.0 220767000000.0 294149000000.0 465271000000.0 509385000000.0 97713900000.0 288226000000.0 167046000000.0 94373000000.0 55240200000.0 28189800000.0 8565070000.0 3511440000.0 7574240000.0 4100820000.0 5548240000.0 19786400000.0 37106500000.0 56285000000.0 76121600000.0 95403700000.0 112933000000.0 127716000000.0 139318000000.0 148058000000.0 155099000000.0 162873000000.0 175865000000.0 201173000000.0 243991000000.0 303526000000.0 368528000000.0 421547000000.0 378013000000.0 342222000000.0 348103000000.0 365585000000.0 337815000000.0 366403000000.0 270947000000.0 279637000000.0 344762000000.0 307204000000.0 289185000000.0 26532400000.0 21017800000.0 36034800000.0 237818000000.0 292316000000.0 337326000000.0 253441000000.0 276853000000.0 244257000000.0 124913000000.0 303319000000.0 338097000000.0 299912000000.0 242014000000.0 277894000000.0 282882000000.0 200122000000.0 170817000000.0 156864000000.0 150110000000.0 145246000000.0 139851000000.0 133602000000.0 129152000000.0 133253000000.0 158592000000.0 207871000000.0 203530000000.0 172819000000.0 69140600000.0 180915000000.0 1425500000.0 64203500000.0 33219100000.0 37096800000.0 30412900000.0 16272100000.0 1780730000.0 7658220000.0 9892850000.0 5585450000.0 3657930000.0 16259600000.0 31394400000.0 48087200000.0 65202500000.0 81498600000.0 95894900000.0 107855000000.0 117716000000.0 126718000000.0 337839000000.0 266650000000.0 299140000000.0 272523000000.0 295010000000.0 235817000000.0 138321000000.0 18259700000.0 211708000000.0 250559000000.0 257731000000.0 231792000000.0 182275000000.0 160448000000.0 30861900000.0 11296200000.0 16842000000.0 40377100000.0 16848200000.0 23156500000.0 222752000000.0 293204000000.0 266046000000.0 109234000000.0 224794000000.0 259083000000.0 228953000000.0 261511000000.0 278792000000.0 137089000000.0 152034000000.0 175822000000.0 211679000000.0 259127000000.0 311277000000.0 347378000000.0 332795000000.0 238997000000.0 195366000000.0 128669000000.0 12549500000.0 207989000000.0 117655000000.0 124904000000.0 36662600000.0 14240300000.0 333411000.0 14502900000.0 27499800000.0 11745300000.0 6823410000.0 210171000000.0 251143000000.0 191053000000.0 132280000000.0 383864000000.0 303381000000.0 265232000000.0 237919000000.0 219686000000.0 209023000000.0 200439000000.0 190206000000.0 177198000000.0 162362000000.0 147320000000.0 127129000000.0 26322800000.0 113735000000.0 731036000000.0 474945000000.0 351639000000.0 149446000000.0 20892700000.0 18669300000.0 18297100000.0 3749630000.0 10592700000.0 18147500000.0 18673500000.0 13841500000.0 6109970000.0 4538160000.0 17662000000.0 32389800000.0 47362400000.0 61342500000.0 73535100000.0 84010400000.0 93894800000.0 105406000000.0 121059000000.0 143484000000.0 174487000000.0 212718000000.0 251491000000.0 282072000000.0 287753000000.0 282738000000.0 282590000000.0 183584000000.0 263992000000.0 26158000000.0 170726000000.0 157591000000.0 196003000000.0 73434800000.0 70243000000.0 5284120000.0 12173600000.0 334286000000.0 315666000000.0 273712000000.0 220037000000.0 190974000000.0 74481100000.0 106942000000.0 141874000000.0 180805000000.0 163473000000.0 40760500000.0 51134400000.0 9943050000.0 65009100000.0 113516000000.0 157338000000.0 196883000000.0 234947000000.0 275492000000.0 320194000000.0 368550000000.0 418089000000.0 400326000000.0 376275000000.0 351298000000.0 97089300000.0 126194000000.0 41870100000.0 52835100000.0 47056800000.0 33672600000.0 9212310000.0 15019900000.0 29244600000.0 34510000000.0 33259100000.0 30323600000.0 24610400000.0 15879100000.0 4356930000.0 9000190000.0 22639500000.0 35095300000.0 46223000000.0 56480100000.0 68185500000.0 83912300000.0 105462000000.0 132892000000.0 164597000000.0 197233000000.0 226887000000.0 238566000000.0 237715000000.0 226615000000.0 193175000000.0 135041000000.0 230806000000.0 184108000000.0 101985000000.0 121803000000.0 90336700000.0 152361000000.0 183490000000.0 89503700000.0 10493500000.0 33077900000.0 51803400000.0 40445500000.0 319839000000.0 277281000000.0 229401000000.0 174068000000.0 232464000000.0 85404900000.0 172810000000.0 119460000000.0 108631000000.0 110000000000.0 128431000000.0 72826100000.0 223852000000.0 262152000000.0 217189000000.0 205900000000.0 187308000000.0 31043800000.0 4492050000.0 38277600000.0 40120700000.0 13468800000.0 20737600000.0 42612000000.0 53698400000.0 54387500000.0 56896100000.0 56314100000.0 52930200000.0 45457800000.0 34875500000.0 21901600000.0 9394560000.0 2672460000.0 13816500000.0 25715500000.0 40790600000.0 62420800000.0 88704800000.0 116783000000.0 147904000000.0 176658000000.0 190441000000.0 189554000000.0 182756000000.0 135580000000.0 150580000000.0 21931500000.0 142184000000.0 16334900000.0 92794400000.0 67441000000.0 95655400000.0 107167000000.0 131307000000.0 57823100000.0 46909100000.0 2507270000.0 35873600000.0 49391100000.0 11204400000.0 243112000.0 822317000.0 5148270000.0 14890900000.0 151619000000.0 294697000000.0 3815210000.0 15871600000.0 48519200000.0 70813400000.0 46926400000.0 48995100000.0 64676000000.0 86028700000.0 109692000000.0 135405000000.0 163234000000.0 193207000000.0 77288100000.0 82051500000.0 36783400000.0 26763400000.0 88520800000.0 9417180000.0 58282200000.0 41404100000.0 8756330000.0 49645000000.0 27186200000.0 2428490000.0 144575000000.0 119820000000.0 60184200000.0 52336200000.0 108739000000.0 104194000000.0 107905000000.0 135716000000.0 106994000000.0 83001000000.0 76838100000.0 82587600000.0 93708700000.0 107607000000.0 124548000000.0 145030000000.0 169860000000.0 199898000000.0 216338000000.0 138774000000.0 148248000000.0 138569000000.0 92947100000.0 18357100000.0 11839400000.0 39004700000.0 9546990000.0 33473800000.0 50982400000.0 73865200000.0 71666100000.0 83165000000.0 91403600000.0 93234000000.0 91436800000.0 84417300000.0 73484100000.0 62082400000.0 49081400000.0 37330600000.0 22653700000.0 8125870000.0 13297100000.0 42210300000.0 68608200000.0 93773900000.0 124634000000.0 155440000000.0 138876000000.0 130801000000.0 99574700000.0 27357200000.0 40544100000.0 91567300000.0 103692000000.0 3608890000.0 25880900000.0 55899400000.0 19355400000.0 135702000000.0 110129000000.0 114008000000.0 111723000000.0 100414000000.0 37384800000.0 17027500000.0 14013700000.0 31141000000.0 65066400000.0 79647200000.0 76841900000.0 106560000000.0 96909400000.0 87694200000.0 84514700000.0 86748600000.0 91361400000.0 98768700000.0 109447000000.0 122515000000.0 144427000000.0 162177000000.0 147441000000.0 28481000000.0 29711300000.0 48089400000.0 36167200000.0 12159600000.0 2008040000.0 4803330000.0 71133200000.0 67021300000.0 95953400000.0 77083400000.0 95815200000.0 111246000000.0 132203000000.0 139227000000.0 141127000000.0 128573000000.0 124648000000.0 108616000000.0 99021900000.0 79310500000.0 59711000000.0 36251100000.0 3183210000.0 28973200000.0 52259300000.0 73068400000.0 115198000000.0 99570000000.0 99067000000.0 55725000000.0 19037300000.0 1292500000.0 44560500000.0 69924500000.0 52313600000.0 66584000000.0 92339600000.0 95220500000.0 60000800000.0 70355000000.0 82550700000.0 66221700000.0 76058400000.0 94869200000.0 53514000000.0 12240200000.0 17527300000.0 68001000000.0 117462000000.0 124977000000.0 38449600000.0 18455000000.0 114382000000.0 140706000000.0 133323000000.0 73224000000.0 32368000000.0 106492000000.0 106213000000.0 108093000000.0 48498200000.0 120164000000.0 81735500000.0 50838700000.0 165681000000.0 102998000000.0 158022000000.0 117016000000.0 165923000000.0 127025000000.0 132376000000.0 120116000000.0 119715000000.0 106642000000.0 99994600000.0 70952300000.0 49024900000.0 15743300000.0 6134280000.0 26528900000.0 35792800000.0 73170900000.0 81718400000.0 28425900000.0 13804000000.0 28006100000.0 17951800000.0 4375320000.0 54063500000.0 66476500000.0 60272500000.0 65475400000.0 33860800000.0 9055260000.0 9035750000.0 9035750000.0 40122600000.0 299884000.0 34564400000.0 61566000000.0 9035630000.0 12281700000.0 80954700000.0 99506800000.0 101439000000.0 99831900000.0 100139000000.0 98864700000.0 103420000000.0 26595700000.0 3947760000.0 39313800000.0 46925800000.0 52539700000.0 44147700000.0 31545200000.0 69089500000.0 35135200000.0 6262450000.0 62183900000.0 60187500000.0 9035750000.0 9035750000.0 9147140000.0 9255270000.0 97893600000.0 68062300000.0 69256700000.0 34340500000.0 3604770000.0 63214400000.0 16456400000.0 54913700000.0 34362300000.0 13336100000.0 49463100000.0 53993700000.0 49113100000.0 83310300000.0 98762800000.0 104202000000.0 104420000000.0 102178000000.0 94281500000.0 93245200000.0 92991900000.0 95670100000.0 105721000000.0 78667400000.0 131971000000.0 61840800000.0 13441100000.0 42323200000.0 102303000000.0 45024400000.0 28324700000.0 30760600000.0 19631800000.0 11604600000.0 35004700000.0 29718400000.0 38464600000.0 31604300000.0 34736300000.0 29001400000.0 35231500000.0 24818300000.0 22895000000.0 7126120000.0 1309770000.0 13116300000.0 20135400000.0 16400400000.0 14991400000.0 20577900000.0 23385600000.0 6674220000.0 21504100000.0 21554700000.0 71339300000.0 48769300000.0 24915200000.0 26466700000.0 17713600000.0 27514200000.0 26097300000.0 8531490000.0 11387000000.0 57540000000.0 38919500000.0 39203100000.0 42521700000.0 4671160000.0 121434000.0 3610390000.0 7230760000.0 6309690000.0 796550000.0 4571760000.0 9905980000.0 69409800000.0 67293000000.0 4784550000.0 2725120000.0 10697900000.0 24172300000.0 32478700000.0 38403700000.0 62660800000.0 41308900000.0 139171000000.0 17404800000.0 116531000000.0 5722650000.0 64915500000.0 5928000000.0 41521000000.0 28258100000.0 22597200000.0 27320200000.0 23616700000.0 28677700000.0 24800300000.0 36548200000.0 35285700000.0 45037400000.0 41541200000.0 42861200000.0 36685500000.0 27320600000.0 27364800000.0 54995900000.0 48515800000.0 52455900000.0 9139170000.0 9035750000.0 9035750000.0 9035750000.0 49533600000.0 70244500000.0 71745100000.0 76841100000.0 9103070000.0 21403900000.0 5733080000.0 19126700000.0 28715800000.0 31985400000.0 32645600000.0 31904800000.0 26979200000.0 28649900000.0 956686000.0 17836300000.0 3051130000.0 37948200000.0 33964100000.0 40236400000.0 45978300000.0 46715900000.0 48452100000.0 69317300000.0 68089700000.0 65636800000.0 15105300000.0 26249100000.0 43378500000.0 11878200000.0 73010600000.0 55302900000.0 55178800000.0 9099360000.0 9052610000.0 9035750000.0 9035750000.0 76317500000.0 61935900000.0 74877700000.0 70820800000.0 72414700000.0 9202810000.0 55160100000.0 9317490000.0 9035430000.0 9035750000.0 41555700000.0 44646400000.0 37914400000.0 49444200000.0 62767200000.0 70346600000.0 74502600000.0 75784100000.0 72629200000.0 73287600000.0 74749000000.0 75397900000.0 90298400000.0 66439000000.0 120997000000.0 452463000.0 19524100000.0 11673200000.0 104392000000.0 6706280000.0 44288000000.0 7641120000.0 25017800000.0 5964480000.0 17468400000.0 14571600000.0 20313800000.0 19410100000.0 25203200000.0 22952100000.0 33299100000.0 31502900000.0 38623200000.0 34034300000.0 34116200000.0 29566400000.0 27780900000.0 33976300000.0 39324800000.0 41382000000.0 43449800000.0 57829100000.0 57905200000.0 51584900000.0 13233400000.0 23456800000.0 31414400000.0 24765900000.0 27807500000.0 46541900000.0 39006100000.0 41881500000.0 12685000000.0 65085200000.0 47702600000.0 48186600000.0 44853600000.0 9035750000.0 9035750000.0 9035750000.0 9035760000.0 9089630000.0 9051460000.0 9035750000.0 9035750000.0 43596400000.0 102565000000.0 86135100000.0 50369700000.0 34830700000.0 27400700000.0 24781200000.0 28581200000.0 27132300000.0 31052200000.0 28576700000.0 36299300000.0 34464300000.0 39881100000.0 26520400000.0 38306400000.0 30418900000.0 36945700000.0 9035750000.0 9035750000.0 9035750000.0 9035760000.0 61406600000.0 52356500000.0 62171800000.0 58962400000.0 61442500000.0 9255610000.0 9395480000.0 9035750000.0 9035750000.0 33037400000.0 35961300000.0 31163600000.0 36218100000.0 46994100000.0 53586900000.0 57928300000.0 59962900000.0 58598700000.0 59365800000.0 60693300000.0 60408800000.0 73155200000.0 53230800000.0 9152680000.0 7397030000.0 7342020000.0 8964820000.0 9906090000.0 10195200000.0 35954900000.0 35680400000.0 31556300000.0 30291400000.0 34929600000.0 38997000000.0 41165300000.0 42863800000.0 52206400000.0 52833800000.0 44727200000.0 16327600000.0 23657300000.0 28800400000.0 23467800000.0 37640100000.0 12613600000.0 54677100000.0 40134100000.0 40239000000.0 9076520000.0 9048130000.0 9035750000.0 9035750000.0 46196700000.0 40998100000.0 47886300000.0 45552700000.0 47966800000.0 9250120000.0 32939600000.0 9368200000.0 9035750000.0 9035750000.0 25353600000.0 27674100000.0 24626000000.0 26470800000.0 34288400000.0 39459500000.0 43299200000.0 45317200000.0 44954900000.0 45939600000.0 47593500000.0 47221200000.0 56826100000.0 42191200000.0 76992200000.0 9510310000.0 9035750000.0 11907500000.0 64307900000.0 8366420000.0 39390200000.0 9772240000.0 28052200000.0 9870790000.0 22618500000.0 20835900000.0 23687600000.0 22692600000.0 25614000000.0 23847100000.0 29531800000.0 28205200000.0 32179300000.0 29316900000.0 29119900000.0 26080900000.0 25527200000.0 28951400000.0 31930900000.0 33759900000.0 35190300000.0 40939100000.0 41536300000.0 34136500000.0 15128700000.0 20275300000.0 23567000000.0 19957500000.0 22632400000.0 29723200000.0 22976200000.0 31012800000.0 11904500000.0 42437300000.0 31504100000.0 31432300000.0 28906100000.0 9035750000.0 9035750000.0 9035750000.0 9035760000.0 9043510000.0 9035750000.0 49458000000.0 9035750000.0 9035750000.0 9035750000.0 9035760000.0 9060860000.0 9035750000.0 30985300000.0 28448600000.0 32483600000.0 31076000000.0 32761100000.0 9191030000.0 22935500000.0 9262540000.0 9035750000.0 9035750000.0 18416300000.0 19827700000.0 18173000000.0 18751600000.0 23135200000.0 26391800000.0 28960200000.0 30384200000.0 30437000000.0 31133600000.0 32224400000.0 31873600000.0 37744800000.0 28725900000.0 9352300000.0 9035750000.0 10890600000.0 41900300000.0 9198670000.0 27601600000.0 9480690000.0 20506600000.0 9534610000.0 17281600000.0 16258300000.0 18014800000.0 17440800000.0 19222900000.0 18170800000.0 21617500000.0 20827000000.0 23234800000.0 21512100000.0 21395100000.0 19554200000.0 19361300000.0 21439700000.0 23238800000.0 24393000000.0 25355700000.0 28470700000.0 28814800000.0 23786000000.0 13005500000.0 16019300000.0 17834200000.0 15775300000.0 17546400000.0 21277900000.0 16749000000.0 22694400000.0 10847200000.0 29187800000.0 22466000000.0 22354800000.0 20827400000.0 9043650000.0 9038230000.0 9035750000.0 9035750000.0 15881900000.0 15160300000.0 16409000000.0 15965700000.0 16523100000.0 9087410000.0 13344200000.0 9110340000.0 9035750000.0 9035750000.0 11932300000.0 12365800000.0 11875700000.0 12012800000.0 13324400000.0 14373800000.0 15214000000.0 15688300000.0 15739700000.0 15970500000.0 16319700000.0 16194600000.0 18052400000.0 15191400000.0 21684000000.0 9144230000.0 9035750000.0 9623430000.0 19222800000.0 9040850000.0 14887300000.0 9176000000.0 12641400000.0 9191960000.0 11633600000.0 11318300000.0 11875300000.0 11697500000.0 12259200000.0 11930000000.0 13015200000.0 12767900000.0 13525900000.0 12984700000.0 12947700000.0 12368500000.0 12324400000.0 12980000000.0 13546200000.0 13913400000.0 14229900000.0 15170000000.0 15275900000.0 13632300000.0 10318100000.0 11252800000.0 11806500000.0 11173800000.0 11748900000.0 12857300000.0 11367100000.0 13375400000.0 9613860000.0 15372300000.0 13236500000.0 13197000000.0 12721800000.0 9035750000.0 9035750000.0 9035750000.0 9035750000.0 