# vtk DataFile Version 2.0
Time step 36
ASCII
DATASET UNSTRUCTURED_GRID
POINTS 4650 float
113450.0 431434.0 0
116846.0 429314.0 0
120202.0 427225.0 0
124080.0 426881.0 0
127719.0 425475.0 0
131504.0 426473.0 0
135391.0 426023.0 0
139299.0 426179.0 0
143209.0 426127.0 0
147122.0 426133.0 0
151037.0 426127.0 0
154956.0 426125.0 0
158880.0 426122.0 0
162808.0 426119.0 0
166741.0 426117.0 0
170678.0 426115.0 0
174620.0 426114.0 0
178566.0 426112.0 0
182515.0 426111.0 0
186468.0 426110.0 0
190424.0 426109.0 0
194383.0 426109.0 0
198345.0 426108.0 0
202309.0 426107.0 0
206276.0 426107.0 0
210244.0 426106.0 0
214214.0 426106.0 0
218186.0 426106.0 0
222159.0 426106.0 0
226134.0 426105.0 0
230110.0 426105.0 0
234087.0 426105.0 0
238064.0 426105.0 0
242042.0 426105.0 0
246021.0 426105.0 0
250000.0 426105.0 0
253979.0 426105.0 0
257958.0 426105.0 0
261936.0 426105.0 0
265913.0 426105.0 0
269890.0 426105.0 0
273866.0 426105.0 0
277841.0 426106.0 0
281814.0 426106.0 0
285786.0 426106.0 0
289756.0 426106.0 0
293724.0 426107.0 0
297691.0 426107.0 0
301655.0 426108.0 0
305617.0 426109.0 0
309576.0 426109.0 0
313532.0 426110.0 0
317485.0 426111.0 0
321434.0 426112.0 0
325380.0 426114.0 0
329322.0 426115.0 0
333259.0 426117.0 0
337192.0 426119.0 0
341120.0 426122.0 0
345044.0 426125.0 0
348963.0 426127.0 0
352878.0 426133.0 0
356791.0 426127.0 0
360701.0 426179.0 0
364609.0 426023.0 0
368496.0 426473.0 0
372281.0 425475.0 0
375920.0 426881.0 0
379798.0 427225.0 0
383154.0 429314.0 0
386550.0 431434.0 0
109818.0 433703.0 0
116867.0 433150.0 0
120278.0 431159.0 0
124142.0 430877.0 0
127790.0 429539.0 0
131579.0 430468.0 0
135456.0 430050.0 0
139354.0 430179.0 0
143254.0 430139.0 0
147158.0 430139.0 0
151065.0 430134.0 0
154978.0 430129.0 0
158896.0 430126.0 0
162819.0 430123.0 0
166748.0 430120.0 0
170681.0 430118.0 0
174620.0 430116.0 0
178563.0 430114.0 0
182510.0 430113.0 0
186461.0 430111.0 0
190415.0 430110.0 0
194373.0 430109.0 0
198334.0 430109.0 0
202297.0 430108.0 0
206263.0 430107.0 0
210232.0 430107.0 0
214202.0 430106.0 0
218174.0 430106.0 0
222148.0 430106.0 0
226124.0 430105.0 0
230101.0 430105.0 0
234080.0 430105.0 0
238059.0 430105.0 0
242039.0 430105.0 0
246019.0 430105.0 0
250000.0 430105.0 0
253981.0 430105.0 0
257961.0 430105.0 0
261941.0 430105.0 0
265920.0 430105.0 0
269899.0 430105.0 0
273876.0 430105.0 0
277852.0 430106.0 0
281826.0 430106.0 0
285798.0 430106.0 0
289768.0 430107.0 0
293737.0 430107.0 0
297703.0 430108.0 0
301666.0 430109.0 0
305627.0 430109.0 0
309585.0 430110.0 0
313539.0 430111.0 0
317490.0 430113.0 0
321437.0 430114.0 0
325380.0 430116.0 0
329319.0 430118.0 0
333252.0 430120.0 0
337181.0 430123.0 0
341104.0 430126.0 0
345022.0 430129.0 0
348935.0 430134.0 0
352842.0 430139.0 0
356746.0 430139.0 0
360646.0 430179.0 0
364544.0 430050.0 0
368421.0 430468.0 0
372210.0 429539.0 0
375858.0 430877.0 0
379722.0 431159.0 0
383133.0 433150.0 0
390182.0 433703.0 0
106249.0 435934.0 0
113303.0 435291.0 0
386697.0 435291.0 0
393751.0 435934.0 0
109721.0 437535.0 0
113181.0 439188.0 0
116758.0 436986.0 0
120216.0 435106.0 0
124058.0 434869.0 0
127685.0 433534.0 0
131461.0 434454.0 0
135329.0 434060.0 0
139218.0 434176.0 0
143111.0 434139.0 0
147008.0 434138.0 0
150911.0 434132.0 0
154820.0 434127.0 0
158735.0 434123.0 0
162658.0 434120.0 0
166587.0 434117.0 0
170522.0 434115.0 0
174464.0 434113.0 0
178411.0 434111.0 0
182363.0 434110.0 0
186320.0 434109.0 0
190282.0 434108.0 0
194247.0 434107.0 0
198216.0 434107.0 0
202188.0 434106.0 0
206163.0 434106.0 0
210140.0 434106.0 0
214120.0 434106.0 0
218102.0 434105.0 0
222085.0 434105.0 0
226070.0 434105.0 0
230057.0 434105.0 0
234044.0 434105.0 0
238032.0 434105.0 0
242021.0 434105.0 0
246010.0 434105.0 0
250000.0 434105.0 0
253990.0 434105.0 0
257979.0 434105.0 0
261968.0 434105.0 0
265956.0 434105.0 0
269943.0 434105.0 0
273930.0 434105.0 0
277915.0 434105.0 0
281898.0 434105.0 0
285880.0 434106.0 0
289860.0 434106.0 0
293837.0 434106.0 0
297812.0 434106.0 0
301784.0 434107.0 0
305753.0 434107.0 0
309718.0 434108.0 0
313680.0 434109.0 0
317637.0 434110.0 0
321589.0 434111.0 0
325536.0 434113.0 0
329478.0 434115.0 0
333413.0 434117.0 0
337342.0 434120.0 0
341265.0 434123.0 0
345180.0 434127.0 0
349089.0 434132.0 0
352992.0 434138.0 0
356889.0 434139.0 0
360782.0 434176.0 0
364671.0 434060.0 0
368539.0 434454.0 0
372315.0 433534.0 0
375942.0 434869.0 0
379784.0 435106.0 0
383242.0 436986.0 0
386819.0 439188.0 0
390279.0 437535.0 0
99504.5 440165.0 0
102865.0 438063.0 0
106361.0 439801.0 0
116611.0 440815.0 0
120082.0 439058.0 0
123920.0 438847.0 0
127553.0 437591.0 0
131327.0 438429.0 0
135179.0 438074.0 0
139051.0 438172.0 0
142931.0 438139.0 0
146818.0 438135.0 0
150714.0 438128.0 0
154619.0 438122.0 0
158534.0 438118.0 0
162458.0 438115.0 0
166392.0 438112.0 0
170333.0 438110.0 0
174283.0 438109.0 0
178239.0 438108.0 0
182201.0 438107.0 0
186169.0 438106.0 0
190141.0 438106.0 0
194118.0 438106.0 0
198098.0 438105.0 0
202082.0 438105.0 0
206068.0 438105.0 0
210056.0 438105.0 0
214046.0 438105.0 0
218038.0 438105.0 0
222031.0 438105.0 0
226024.0 438105.0 0
230019.0 438105.0 0
234015.0 438105.0 0
238011.0 438105.0 0
242007.0 438105.0 0
246003.0 438105.0 0
250000.0 438105.0 0
253997.0 438105.0 0
257993.0 438105.0 0
261989.0 438105.0 0
265985.0 438105.0 0
269981.0 438105.0 0
273976.0 438105.0 0
277969.0 438105.0 0
281962.0 438105.0 0
285954.0 438105.0 0
289944.0 438105.0 0
293932.0 438105.0 0
297918.0 438105.0 0
301902.0 438105.0 0
305882.0 438106.0 0
309859.0 438106.0 0
313831.0 438106.0 0
317799.0 438107.0 0
321761.0 438108.0 0
325717.0 438109.0 0
329667.0 438110.0 0
333608.0 438112.0 0
337542.0 438115.0 0
341466.0 438118.0 0
345381.0 438122.0 0
349286.0 438128.0 0
353182.0 438135.0 0
357069.0 438139.0 0
360949.0 438172.0 0
364821.0 438074.0 0
368673.0 438429.0 0
372447.0 437591.0 0
376080.0 438847.0 0
379918.0 439058.0 0
383389.0 440815.0 0
393639.0 439801.0 0
397135.0 438063.0 0
400495.0 440165.0 0
96694.2 442995.0 0
103060.0 442017.0 0
109917.0 441395.0 0
390083.0 441395.0 0
396940.0 442017.0 0
403306.0 442995.0 0
100250.0 444816.0 0
106629.0 443726.0 0
110712.0 445148.0 0
114451.0 444014.0 0
119410.0 443378.0 0
123240.0 442742.0 0
127038.0 441880.0 0
130918.0 442368.0 0
134816.0 442093.0 0
138725.0 442157.0 0
142640.0 442128.0 0
146561.0 442126.0 0
150491.0 442121.0 0
154429.0 442118.0 0
158374.0 442115.0 0
162326.0 442112.0 0
166285.0 442111.0 0
170249.0 442109.0 0
174217.0 442108.0 0
178190.0 442107.0 0
182166.0 442107.0 0
186145.0 442106.0 0
190127.0 442106.0 0
194111.0 442106.0 0
198097.0 442105.0 0
202084.0 442105.0 0
206073.0 442105.0 0
210063.0 442105.0 0
214054.0 442105.0 0
218045.0 442105.0 0
222038.0 442105.0 0
226031.0 442105.0 0
230025.0 442105.0 0
234019.0 442105.0 0
238014.0 442105.0 0
242009.0 442105.0 0
246005.0 442105.0 0
250000.0 442105.0 0
253995.0 442105.0 0
257991.0 442105.0 0
261986.0 442105.0 0
265981.0 442105.0 0
269975.0 442105.0 0
273969.0 442105.0 0
277962.0 442105.0 0
281955.0 442105.0 0
285946.0 442105.0 0
289937.0 442105.0 0
293927.0 442105.0 0
297916.0 442105.0 0
301903.0 442105.0 0
305889.0 442106.0 0
309873.0 442106.0 0
313855.0 442106.0 0
317834.0 442107.0 0
321810.0 442107.0 0
325783.0 442108.0 0
329751.0 442109.0 0
333715.0 442111.0 0
337674.0 442112.0 0
341626.0 442115.0 0
345571.0 442118.0 0
349509.0 442121.0 0
353439.0 442126.0 0
357360.0 442128.0 0
361275.0 442157.0 0
365184.0 442093.0 0
369082.0 442368.0 0
372962.0 441880.0 0
376760.0 442742.0 0
380590.0 443378.0 0
385549.0 444014.0 0
389288.0 445148.0 0
393371.0 443726.0 0
399750.0 444816.0 0
113534.0 447873.0 0
117338.0 446723.0 0
121831.0 446454.0 0
125977.0 446106.0 0
129969.0 446217.0 0
134008.0 446106.0 0
138008.0 446105.0 0
142007.0 446105.0 0
146007.0 446105.0 0
150007.0 446105.0 0
154007.0 446105.0 0
158006.0 446105.0 0
162006.0 446105.0 0
166006.0 446105.0 0
170005.0 446105.0 0
174005.0 446105.0 0
178004.0 446105.0 0
182004.0 446105.0 0
186003.0 446105.0 0
190003.0 446105.0 0
194003.0 446105.0 0
198002.0 446105.0 0
202002.0 446105.0 0
206002.0 446105.0 0
210001.0 446105.0 0
214001.0 446105.0 0
218001.0 446105.0 0
222001.0 446105.0 0
226000.0 446105.0 0
230000.0 446105.0 0
234000.0 446105.0 0
238000.0 446105.0 0
242000.0 446105.0 0
246000.0 446105.0 0
250000.0 446105.0 0
254000.0 446105.0 0
258000.0 446105.0 0
262000.0 446105.0 0
266000.0 446105.0 0
270000.0 446105.0 0
274000.0 446105.0 0
277999.0 446105.0 0
281999.0 446105.0 0
285999.0 446105.0 0
289999.0 446105.0 0
293998.0 446105.0 0
297998.0 446105.0 0
301998.0 446105.0 0
305997.0 446105.0 0
309997.0 446105.0 0
313997.0 446105.0 0
317996.0 446105.0 0
321996.0 446105.0 0
325995.0 446105.0 0
329995.0 446105.0 0
333994.0 446105.0 0
337994.0 446105.0 0
341994.0 446105.0 0
345993.0 446105.0 0
349993.0 446105.0 0
353993.0 446105.0 0
357993.0 446105.0 0
361992.0 446105.0 0
365992.0 446106.0 0
370031.0 446217.0 0
374023.0 446106.0 0
378169.0 446454.0 0
382662.0 446723.0 0
386466.0 447873.0 0
98892.3 448555.0 0
103783.0 446776.0 0
107677.0 447540.0 0
392323.0 447540.0 0
396217.0 446776.0 0
401108.0 448555.0 0
102161.0 450850.0 0
106139.0 451112.0 0
110521.0 450603.0 0
114861.0 451577.0 0
118657.0 450434.0 0
122600.0 450309.0 0
126523.0 450090.0 0
130462.0 450166.0 0
134405.0 450111.0 0
138357.0 450111.0 0
142314.0 450110.0 0
146276.0 450109.0 0
150242.0 450108.0 0
154212.0 450107.0 0
158185.0 450107.0 0
162161.0 450106.0 0
166140.0 450106.0 0
170122.0 450106.0 0
174105.0 450106.0 0
178090.0 450105.0 0
182078.0 450105.0 0
186066.0 450105.0 0
190056.0 450105.0 0
194047.0 450105.0 0
198040.0 450105.0 0
202033.0 450105.0 0
206028.0 450105.0 0
210023.0 450105.0 0
214019.0 450105.0 0
218015.0 450105.0 0
222012.0 450105.0 0
226009.0 450105.0 0
230007.0 450105.0 0
234005.0 450105.0 0
238004.0 450105.0 0
242002.0 450105.0 0
246001.0 450105.0 0
250000.0 450105.0 0
253999.0 450105.0 0
257998.0 450105.0 0
261996.0 450105.0 0
265995.0 450105.0 0
269993.0 450105.0 0
273991.0 450105.0 0
277988.0 450105.0 0
281985.0 450105.0 0
285981.0 450105.0 0
289977.0 450105.0 0
293972.0 450105.0 0
297967.0 450105.0 0
301960.0 450105.0 0
305953.0 450105.0 0
309944.0 450105.0 0
313934.0 450105.0 0
317922.0 450105.0 0
321910.0 450105.0 0
325895.0 450106.0 0
329878.0 450106.0 0
333860.0 450106.0 0
337839.0 450106.0 0
341815.0 450107.0 0
345788.0 450107.0 0
349758.0 450108.0 0
353724.0 450109.0 0
357686.0 450110.0 0
361643.0 450111.0 0
365595.0 450111.0 0
369538.0 450166.0 0
373477.0 450090.0 0
377400.0 450309.0 0
381343.0 450434.0 0
385139.0 451577.0 0
389479.0 450603.0 0
393861.0 451112.0 0
397839.0 450850.0 0
104751.0 454795.0 0
108738.0 454468.0 0
112697.0 454890.0 0
117758.0 454291.0 0
121921.0 454203.0 0
125997.0 454106.0 0
129996.0 454126.0 0
134000.0 454105.0 0
138000.0 454105.0 0
142000.0 454105.0 0
146000.0 454105.0 0
150000.0 454105.0 0
154000.0 454105.0 0
158000.0 454105.0 0
162000.0 454105.0 0
166000.0 454105.0 0
170000.0 454105.0 0
174000.0 454105.0 0
178000.0 454105.0 0
182000.0 454105.0 0
186000.0 454105.0 0
190000.0 454105.0 0
194000.0 454105.0 0
198000.0 454105.0 0
202000.0 454105.0 0
206000.0 454105.0 0
210000.0 454105.0 0
214000.0 454105.0 0
218000.0 454105.0 0
222000.0 454105.0 0
226000.0 454105.0 0
230000.0 454105.0 0
234000.0 454105.0 0
238000.0 454105.0 0
242000.0 454105.0 0
246000.0 454105.0 0
250000.0 454105.0 0
254000.0 454105.0 0
258000.0 454105.0 0
262000.0 454105.0 0
266000.0 454105.0 0
270000.0 454105.0 0
274000.0 454105.0 0
278000.0 454105.0 0
282000.0 454105.0 0
286000.0 454105.0 0
290000.0 454105.0 0
294000.0 454105.0 0
298000.0 454105.0 0
302000.0 454105.0 0
306000.0 454105.0 0
310000.0 454105.0 0
314000.0 454105.0 0
318000.0 454105.0 0
322000.0 454105.0 0
326000.0 454105.0 0
330000.0 454105.0 0
334000.0 454105.0 0
338000.0 454105.0 0
342000.0 454105.0 0
346000.0 454105.0 0
350000.0 454105.0 0
354000.0 454105.0 0
358000.0 454105.0 0
362000.0 454105.0 0
366000.0 454105.0 0
370004.0 454126.0 0
374003.0 454106.0 0
378079.0 454203.0 0
382242.0 454291.0 0
387303.0 454890.0 0
391262.0 454468.0 0
395249.0 454795.0 0
100772.0 454649.0 0
399228.0 454649.0 0
102204.0 458426.0 0
106252.0 458466.0 0
110240.0 458325.0 0
114228.0 458549.0 0
118195.0 458228.0 0
122172.0 458168.0 0
126150.0 458104.0 0
130130.0 458116.0 0
134113.0 458106.0 0
138097.0 458106.0 0
142083.0 458105.0 0
146070.0 458105.0 0
150059.0 458105.0 0
154050.0 458105.0 0
158042.0 458105.0 0
162034.0 458105.0 0
166028.0 458105.0 0
170023.0 458105.0 0
174019.0 458105.0 0
178015.0 458105.0 0
182012.0 458105.0 0
186010.0 458105.0 0
190008.0 458105.0 0
194006.0 458105.0 0
198005.0 458105.0 0
202004.0 458105.0 0
206003.0 458105.0 0
210002.0 458105.0 0
214002.0 458105.0 0
218001.0 458105.0 0
222001.0 458105.0 0
226001.0 458105.0 0
230000.0 458105.0 0
234000.0 458105.0 0
238000.0 458105.0 0
242000.0 458105.0 0
246000.0 458105.0 0
250000.0 458105.0 0
254000.0 458105.0 0
258000.0 458105.0 0
262000.0 458105.0 0
266000.0 458105.0 0
270000.0 458105.0 0
273999.0 458105.0 0
277999.0 458105.0 0
281999.0 458105.0 0
285998.0 458105.0 0
289998.0 458105.0 0
293997.0 458105.0 0
297996.0 458105.0 0
301995.0 458105.0 0
305994.0 458105.0 0
309992.0 458105.0 0
313990.0 458105.0 0
317988.0 458105.0 0
321985.0 458105.0 0
325981.0 458105.0 0
329977.0 458105.0 0
333972.0 458105.0 0
337966.0 458105.0 0
341958.0 458105.0 0
345950.0 458105.0 0
349941.0 458105.0 0
353930.0 458105.0 0
357917.0 458105.0 0
361903.0 458106.0 0
365887.0 458106.0 0
369870.0 458116.0 0
373850.0 458104.0 0
377828.0 458168.0 0
381805.0 458228.0 0
385772.0 458549.0 0
389760.0 458325.0 0
393748.0 458466.0 0
397796.0 458426.0 0
113849.0 462494.0 0
117978.0 462190.0 0
121991.0 462149.0 0
126000.0 462105.0 0
130000.0 462109.0 0
134000.0 462105.0 0
138000.0 462105.0 0
142000.0 462105.0 0
146000.0 462105.0 0
150000.0 462105.0 0
154000.0 462105.0 0
158000.0 462105.0 0
162000.0 462105.0 0
166000.0 462105.0 0
170000.0 462105.0 0
174000.0 462105.0 0
178000.0 462105.0 0
182000.0 462105.0 0
186000.0 462105.0 0
190000.0 462105.0 0
194000.0 462105.0 0
198000.0 462105.0 0
202000.0 462105.0 0
206000.0 462105.0 0
210000.0 462105.0 0
214000.0 462105.0 0
218000.0 462105.0 0
222000.0 462105.0 0
226000.0 462105.0 0
230000.0 462105.0 0
234000.0 462105.0 0
238000.0 462105.0 0
242000.0 462105.0 0
246000.0 462105.0 0
250000.0 462105.0 0
254000.0 462105.0 0
258000.0 462105.0 0
262000.0 462105.0 0
266000.0 462105.0 0
270000.0 462105.0 0
274000.0 462105.0 0
278000.0 462105.0 0
282000.0 462105.0 0
286000.0 462105.0 0
290000.0 462105.0 0
294000.0 462105.0 0
298000.0 462105.0 0
302000.0 462105.0 0
306000.0 462105.0 0
310000.0 462105.0 0
314000.0 462105.0 0
318000.0 462105.0 0
322000.0 462105.0 0
326000.0 462105.0 0
330000.0 462105.0 0
334000.0 462105.0 0
338000.0 462105.0 0
342000.0 462105.0 0
346000.0 462105.0 0
350000.0 462105.0 0
354000.0 462105.0 0
358000.0 462105.0 0
362000.0 462105.0 0
366000.0 462105.0 0
370000.0 462109.0 0
374000.0 462105.0 0
378009.0 462149.0 0
382022.0 462190.0 0
386151.0 462494.0 0
101862.0 462408.0 0
105860.0 462423.0 0
109857.0 462305.0 0
390143.0 462305.0 0
394140.0 462423.0 0
398138.0 462408.0 0
102028.0 466399.0 0
106029.0 466401.0 0
110027.0 466298.0 0
114027.0 466451.0 0
118014.0 466164.0 0
122012.0 466139.0 0
126010.0 466105.0 0
130008.0 466107.0 0
134007.0 466105.0 0
138005.0 466105.0 0
142004.0 466105.0 0
146003.0 466105.0 0
150003.0 466105.0 0
154002.0 466105.0 0
158001.0 466105.0 0
162001.0 466105.0 0
166001.0 466105.0 0
170001.0 466105.0 0
174000.0 466105.0 0
178000.0 466105.0 0
182000.0 466105.0 0
186000.0 466105.0 0
190000.0 466105.0 0
194000.0 466105.0 0
198000.0 466105.0 0
202000.0 466105.0 0
206000.0 466105.0 0
210000.0 466105.0 0
214000.0 466105.0 0
218000.0 466105.0 0
222000.0 466105.0 0
226000.0 466105.0 0
230000.0 466105.0 0
234000.0 466105.0 0
238000.0 466105.0 0
242000.0 466105.0 0
246000.0 466105.0 0
250000.0 466105.0 0
254000.0 466105.0 0
258000.0 466105.0 0
262000.0 466105.0 0
266000.0 466105.0 0
270000.0 466105.0 0
274000.0 466105.0 0
278000.0 466105.0 0
282000.0 466105.0 0
286000.0 466105.0 0
290000.0 466105.0 0
294000.0 466105.0 0
298000.0 466105.0 0
302000.0 466105.0 0
306000.0 466105.0 0
310000.0 466105.0 0
314000.0 466105.0 0
318000.0 466105.0 0
322000.0 466105.0 0
326000.0 466105.0 0
329999.0 466105.0 0
333999.0 466105.0 0
337999.0 466105.0 0
341999.0 466105.0 0
345998.0 466105.0 0
349997.0 466105.0 0
353997.0 466105.0 0
357996.0 466105.0 0
361995.0 466105.0 0
365993.0 466105.0 0
369992.0 466107.0 0
373990.0 466105.0 0
377988.0 466139.0 0
381986.0 466164.0 0
385973.0 466451.0 0
389973.0 466298.0 0
393971.0 466401.0 0
397972.0 466399.0 0
113989.0 470410.0 0
118000.0 470143.0 0
122000.0 470131.0 0
126000.0 470105.0 0
130000.0 470106.0 0
134000.0 470105.0 0
138000.0 470105.0 0
142000.0 470105.0 0
146000.0 470105.0 0
150000.0 470105.0 0
154000.0 470105.0 0
158000.0 470105.0 0
162000.0 470105.0 0
166000.0 470105.0 0
170000.0 470105.0 0
174000.0 470105.0 0
178000.0 470105.0 0
182000.0 470105.0 0
186000.0 470105.0 0
190000.0 470105.0 0
194000.0 470105.0 0
198000.0 470105.0 0
202000.0 470105.0 0
206000.0 470105.0 0
210000.0 470105.0 0
214000.0 470105.0 0
218000.0 470105.0 0
222000.0 470105.0 0
226000.0 470105.0 0
230000.0 470105.0 0
234000.0 470105.0 0
238000.0 470105.0 0
242000.0 470105.0 0
246000.0 470105.0 0
250000.0 470105.0 0
254000.0 470105.0 0
258000.0 470105.0 0
262000.0 470105.0 0
266000.0 470105.0 0
270000.0 470105.0 0
274000.0 470105.0 0
278000.0 470105.0 0
282000.0 470105.0 0
286000.0 470105.0 0
290000.0 470105.0 0
294000.0 470105.0 0
298000.0 470105.0 0
302000.0 470105.0 0
306000.0 470105.0 0
310000.0 470105.0 0
314000.0 470105.0 0
318000.0 470105.0 0
322000.0 470105.0 0
326000.0 470105.0 0
330000.0 470105.0 0
334000.0 470105.0 0
338000.0 470105.0 0
342000.0 470105.0 0
346000.0 470105.0 0
350000.0 470105.0 0
354000.0 470105.0 0
358000.0 470105.0 0
362000.0 470105.0 0
366000.0 470105.0 0
370000.0 470106.0 0
374000.0 470105.0 0
378000.0 470131.0 0
382000.0 470143.0 0
386011.0 470410.0 0
101992.0 470390.0 0
105992.0 470384.0 0
109991.0 470292.0 0
390009.0 470292.0 0
394008.0 470384.0 0
398008.0 470390.0 0
102002.0 474378.0 0
106002.0 474367.0 0
110001.0 474283.0 0
114003.0 474369.0 0
118000.0 474129.0 0
122000.0 474125.0 0
126000.0 474105.0 0
130000.0 474105.0 0
134000.0 474105.0 0
138000.0 474105.0 0
142000.0 474105.0 0
146000.0 474105.0 0
150000.0 474105.0 0
154000.0 474105.0 0
158000.0 474105.0 0
162000.0 474105.0 0
166000.0 474105.0 0
170000.0 474105.0 0
174000.0 474105.0 0
178000.0 474105.0 0
182000.0 474105.0 0
186000.0 474105.0 0
190000.0 474105.0 0
194000.0 474105.0 0
198000.0 474105.0 0
202000.0 474105.0 0
206000.0 474105.0 0
210000.0 474105.0 0
214000.0 474105.0 0
218000.0 474105.0 0
222000.0 474105.0 0
226000.0 474105.0 0
230000.0 474105.0 0
234000.0 474105.0 0
238000.0 474105.0 0
242000.0 474105.0 0
246000.0 474105.0 0
250000.0 474105.0 0
254000.0 474105.0 0
258000.0 474105.0 0
262000.0 474105.0 0
266000.0 474105.0 0
270000.0 474105.0 0
274000.0 474105.0 0
278000.0 474105.0 0
282000.0 474105.0 0
286000.0 474105.0 0
290000.0 474105.0 0
294000.0 474105.0 0
298000.0 474105.0 0
302000.0 474105.0 0
306000.0 474105.0 0
310000.0 474105.0 0
314000.0 474105.0 0
318000.0 474105.0 0
322000.0 474105.0 0
326000.0 474105.0 0
330000.0 474105.0 0
334000.0 474105.0 0
338000.0 474105.0 0
342000.0 474105.0 0
346000.0 474105.0 0
350000.0 474105.0 0
354000.0 474105.0 0
358000.0 474105.0 0
362000.0 474105.0 0
366000.0 474105.0 0
370000.0 474105.0 0
374000.0 474105.0 0
378000.0 474125.0 0
382000.0 474129.0 0
385997.0 474369.0 0
389999.0 474283.0 0
393998.0 474367.0 0
397998.0 474378.0 0
102000.0 478364.0 0
106000.0 478350.0 0
110000.0 478273.0 0
114000.0 478331.0 0
118000.0 478119.0 0
122000.0 478120.0 0
126000.0 478105.0 0
130000.0 478105.0 0
134000.0 478105.0 0
138000.0 478105.0 0
142000.0 478105.0 0
146000.0 478105.0 0
150000.0 478105.0 0
154000.0 478105.0 0
158000.0 478105.0 0
162000.0 478105.0 0
166000.0 478105.0 0
170000.0 478105.0 0
174000.0 478105.0 0
178000.0 478105.0 0
182000.0 478105.0 0
186000.0 478105.0 0
190000.0 478105.0 0
194000.0 478105.0 0
198000.0 478105.0 0
202000.0 478105.0 0
206000.0 478105.0 0
210000.0 478105.0 0
214000.0 478105.0 0
218000.0 478105.0 0
222000.0 478105.0 0
226000.0 478105.0 0
230000.0 478105.0 0
234000.0 478105.0 0
238000.0 478105.0 0
242000.0 478105.0 0
246000.0 478105.0 0
250000.0 478105.0 0
254000.0 478105.0 0
258000.0 478105.0 0
262000.0 478105.0 0
266000.0 478105.0 0
270000.0 478105.0 0
274000.0 478105.0 0
278000.0 478105.0 0
282000.0 478105.0 0
286000.0 478105.0 0
290000.0 478105.0 0
294000.0 478105.0 0
298000.0 478105.0 0
302000.0 478105.0 0
306000.0 478105.0 0
310000.0 478105.0 0
314000.0 478105.0 0
318000.0 478105.0 0
322000.0 478105.0 0
326000.0 478105.0 0
330000.0 478105.0 0
334000.0 478105.0 0
338000.0 478105.0 0
342000.0 478105.0 0
346000.0 478105.0 0
350000.0 478105.0 0
354000.0 478105.0 0
358000.0 478105.0 0
362000.0 478105.0 0
366000.0 478105.0 0
370000.0 478105.0 0
374000.0 478105.0 0
378000.0 478120.0 0
382000.0 478119.0 0
386000.0 478331.0 0
390000.0 478273.0 0
394000.0 478350.0 0
398000.0 478364.0 0
102000.0 482349.0 0
106000.0 482332.0 0
110000.0 482262.0 0
114000.0 482295.0 0
118000.0 482113.0 0
122000.0 482115.0 0
126000.0 482105.0 0
130000.0 482105.0 0
134000.0 482105.0 0
138000.0 482105.0 0
142000.0 482105.0 0
146000.0 482105.0 0
150000.0 482105.0 0
154000.0 482105.0 0
158000.0 482105.0 0
162000.0 482105.0 0
166000.0 482105.0 0
170000.0 482105.0 0
174000.0 482105.0 0
178000.0 482105.0 0
182000.0 482105.0 0
186000.0 482105.0 0
190000.0 482105.0 0
194000.0 482105.0 0
198000.0 482105.0 0
202000.0 482105.0 0
206000.0 482105.0 0
210000.0 482105.0 0
214000.0 482105.0 0
218000.0 482105.0 0
222000.0 482105.0 0
226000.0 482105.0 0
230000.0 482105.0 0
234000.0 482105.0 0
238000.0 482105.0 0
242000.0 482105.0 0
246000.0 482105.0 0
250000.0 482105.0 0
254000.0 482105.0 0
258000.0 482105.0 0
262000.0 482105.0 0
266000.0 482105.0 0
270000.0 482105.0 0
274000.0 482105.0 0
278000.0 482105.0 0
282000.0 482105.0 0
286000.0 482105.0 0
290000.0 482105.0 0
294000.0 482105.0 0
298000.0 482105.0 0
302000.0 482105.0 0
306000.0 482105.0 0
310000.0 482105.0 0
314000.0 482105.0 0
318000.0 482105.0 0
322000.0 482105.0 0
326000.0 482105.0 0
330000.0 482105.0 0
334000.0 482105.0 0
338000.0 482105.0 0
342000.0 482105.0 0
346000.0 482105.0 0
350000.0 482105.0 0
354000.0 482105.0 0
358000.0 482105.0 0
362000.0 482105.0 0
366000.0 482105.0 0
370000.0 482105.0 0
374000.0 482105.0 0
378000.0 482115.0 0
382000.0 482113.0 0
386000.0 482295.0 0
390000.0 482262.0 0
394000.0 482332.0 0
398000.0 482349.0 0
102000.0 486332.0 0
106000.0 486315.0 0
110000.0 486249.0 0
114000.0 486262.0 0
118000.0 486109.0 0
122000.0 486112.0 0
126000.0 486105.0 0
130000.0 486105.0 0
134000.0 486105.0 0
138000.0 486105.0 0
142000.0 486105.0 0
146000.0 486105.0 0
150000.0 486105.0 0
154000.0 486105.0 0
158000.0 486105.0 0
162000.0 486105.0 0
166000.0 486105.0 0
170000.0 486105.0 0
174000.0 486105.0 0
178000.0 486105.0 0
182000.0 486105.0 0
186000.0 486105.0 0
190000.0 486105.0 0
194000.0 486105.0 0
198000.0 486105.0 0
202000.0 486105.0 0
206000.0 486105.0 0
210000.0 486105.0 0
214000.0 486105.0 0
218000.0 486105.0 0
222000.0 486105.0 0
226000.0 486105.0 0
230000.0 486105.0 0
234000.0 486105.0 0
238000.0 486105.0 0
242000.0 486105.0 0
246000.0 486105.0 0
250000.0 486105.0 0
254000.0 486105.0 0
258000.0 486105.0 0
262000.0 486105.0 0
266000.0 486105.0 0
270000.0 486105.0 0
274000.0 486105.0 0
278000.0 486105.0 0
282000.0 486105.0 0
286000.0 486105.0 0
290000.0 486105.0 0
294000.0 486105.0 0
298000.0 486105.0 0
302000.0 486105.0 0
306000.0 486105.0 0
310000.0 486105.0 0
314000.0 486105.0 0
318000.0 486105.0 0
322000.0 486105.0 0
326000.0 486105.0 0
330000.0 486105.0 0
334000.0 486105.0 0
338000.0 486105.0 0
342000.0 486105.0 0
346000.0 486105.0 0
350000.0 486105.0 0
354000.0 486105.0 0
358000.0 486105.0 0
362000.0 486105.0 0
366000.0 486105.0 0
370000.0 486105.0 0
374000.0 486105.0 0
378000.0 486112.0 0
382000.0 486109.0 0
386000.0 486262.0 0
390000.0 486249.0 0
394000.0 486315.0 0
398000.0 486332.0 0
102000.0 490314.0 0
106000.0 490297.0 0
110000.0 490236.0 0
114000.0 490233.0 0
118000.0 490107.0 0
122000.0 490110.0 0
126000.0 490105.0 0
130000.0 490105.0 0
134000.0 490105.0 0
138000.0 490105.0 0
142000.0 490105.0 0
146000.0 490105.0 0
150000.0 490105.0 0
154000.0 490105.0 0
158000.0 490105.0 0
162000.0 490105.0 0
166000.0 490105.0 0
170000.0 490105.0 0
174000.0 490105.0 0
178000.0 490105.0 0
182000.0 490105.0 0
186000.0 490105.0 0
190000.0 490105.0 0
194000.0 490105.0 0
198000.0 490105.0 0
202000.0 490105.0 0
206000.0 490105.0 0
210000.0 490105.0 0
214000.0 490105.0 0
218000.0 490105.0 0
222000.0 490105.0 0
226000.0 490105.0 0
230000.0 490105.0 0
234000.0 490105.0 0
238000.0 490105.0 0
242000.0 490105.0 0
246000.0 490105.0 0
250000.0 490105.0 0
254000.0 490105.0 0
258000.0 490105.0 0
262000.0 490105.0 0
266000.0 490105.0 0
270000.0 490105.0 0
274000.0 490105.0 0
278000.0 490105.0 0
282000.0 490105.0 0
286000.0 490105.0 0
290000.0 490105.0 0
294000.0 490105.0 0
298000.0 490105.0 0
302000.0 490105.0 0
306000.0 490105.0 0
310000.0 490105.0 0
314000.0 490105.0 0
318000.0 490105.0 0
322000.0 490105.0 0
326000.0 490105.0 0
330000.0 490105.0 0
334000.0 490105.0 0
338000.0 490105.0 0
342000.0 490105.0 0
346000.0 490105.0 0
350000.0 490105.0 0
354000.0 490105.0 0
358000.0 490105.0 0
362000.0 490105.0 0
366000.0 490105.0 0
370000.0 490105.0 0
374000.0 490105.0 0
378000.0 490110.0 0
382000.0 490107.0 0
386000.0 490233.0 0
390000.0 490236.0 0
394000.0 490297.0 0
398000.0 490314.0 0
102000.0 494297.0 0
106000.0 494279.0 0
110000.0 494222.0 0
114000.0 494208.0 0
118000.0 494106.0 0
122000.0 494108.0 0
126000.0 494105.0 0
130000.0 494105.0 0
134000.0 494105.0 0
138000.0 494105.0 0
142000.0 494105.0 0
146000.0 494105.0 0
150000.0 494105.0 0
154000.0 494105.0 0
158000.0 494105.0 0
162000.0 494105.0 0
166000.0 494105.0 0
170000.0 494105.0 0
174000.0 494105.0 0
178000.0 494105.0 0
182000.0 494105.0 0
186000.0 494105.0 0
190000.0 494105.0 0
194000.0 494105.0 0
198000.0 494105.0 0
202000.0 494105.0 0
206000.0 494105.0 0
210000.0 494105.0 0
214000.0 494105.0 0
218000.0 494105.0 0
222000.0 494105.0 0
226000.0 494105.0 0
230000.0 494105.0 0
234000.0 494105.0 0
238000.0 494105.0 0
242000.0 494105.0 0
246000.0 494105.0 0
250000.0 494105.0 0
254000.0 494105.0 0
258000.0 494105.0 0
262000.0 494105.0 0
266000.0 494105.0 0
270000.0 494105.0 0
274000.0 494105.0 0
278000.0 494105.0 0
282000.0 494105.0 0
286000.0 494105.0 0
290000.0 494105.0 0
294000.0 494105.0 0
298000.0 494105.0 0
302000.0 494105.0 0
306000.0 494105.0 0
310000.0 494105.0 0
314000.0 494105.0 0
318000.0 494105.0 0
322000.0 494105.0 0
326000.0 494105.0 0
330000.0 494105.0 0
334000.0 494105.0 0
338000.0 494105.0 0
342000.0 494105.0 0
346000.0 494105.0 0
350000.0 494105.0 0
354000.0 494105.0 0
358000.0 494105.0 0
362000.0 494105.0 0
366000.0 494105.0 0
370000.0 494105.0 0
374000.0 494105.0 0
378000.0 494108.0 0
382000.0 494106.0 0
386000.0 494208.0 0
390000.0 494222.0 0
394000.0 494279.0 0
398000.0 494297.0 0
102000.0 498279.0 0
106000.0 498262.0 0
110000.0 498209.0 0
114000.0 498186.0 0
118000.0 498105.0 0
122000.0 498107.0 0
126000.0 498105.0 0
130000.0 498105.0 0
134000.0 498105.0 0
138000.0 498105.0 0
142000.0 498105.0 0
146000.0 498105.0 0
150000.0 498105.0 0
154000.0 498105.0 0
158000.0 498105.0 0
162000.0 498105.0 0
166000.0 498105.0 0
170000.0 498105.0 0
174000.0 498105.0 0
178000.0 498105.0 0
182000.0 498105.0 0
186000.0 498105.0 0
190000.0 498105.0 0
194000.0 498105.0 0
198000.0 498105.0 0
202000.0 498105.0 0
206000.0 498105.0 0
210000.0 498105.0 0
214000.0 498105.0 0
218000.0 498105.0 0
222000.0 498105.0 0
226000.0 498105.0 0
230000.0 498105.0 0
234000.0 498105.0 0
238000.0 498105.0 0
242000.0 498105.0 0
246000.0 498105.0 0
250000.0 498105.0 0
254000.0 498105.0 0
258000.0 498105.0 0
262000.0 498105.0 0
266000.0 498105.0 0
270000.0 498105.0 0
274000.0 498105.0 0
278000.0 498105.0 0
282000.0 498105.0 0
286000.0 498105.0 0
290000.0 498105.0 0
294000.0 498105.0 0
298000.0 498105.0 0
302000.0 498105.0 0
306000.0 498105.0 0
310000.0 498105.0 0
314000.0 498105.0 0
318000.0 498105.0 0
322000.0 498105.0 0
326000.0 498105.0 0
330000.0 498105.0 0
334000.0 498105.0 0
338000.0 498105.0 0
342000.0 498105.0 0
346000.0 498105.0 0
350000.0 498105.0 0
354000.0 498105.0 0
358000.0 498105.0 0
362000.0 498105.0 0
366000.0 498105.0 0
370000.0 498105.0 0
374000.0 498105.0 0
378000.0 498107.0 0
382000.0 498105.0 0
386000.0 498186.0 0
390000.0 498209.0 0
394000.0 498262.0 0
398000.0 498279.0 0
102000.0 502262.0 0
106000.0 502246.0 0
110000.0 502196.0 0
114000.0 502168.0 0
118000.0 502105.0 0
122000.0 502106.0 0
126000.0 502105.0 0
130000.0 502105.0 0
134000.0 502105.0 0
138000.0 502105.0 0
142000.0 502105.0 0
146000.0 502105.0 0
150000.0 502105.0 0
154000.0 502105.0 0
158000.0 502105.0 0
162000.0 502105.0 0
166000.0 502105.0 0
170000.0 502105.0 0
174000.0 502105.0 0
178000.0 502105.0 0
182000.0 502105.0 0
186000.0 502105.0 0
190000.0 502105.0 0
194000.0 502105.0 0
198000.0 502105.0 0
202000.0 502105.0 0
206000.0 502105.0 0
210000.0 502105.0 0
214000.0 502105.0 0
218000.0 502105.0 0
222000.0 502105.0 0
226000.0 502105.0 0
230000.0 502105.0 0
234000.0 502105.0 0
238000.0 502105.0 0
242000.0 502105.0 0
246000.0 502105.0 0
250000.0 502105.0 0
254000.0 502105.0 0
258000.0 502105.0 0
262000.0 502105.0 0
266000.0 502105.0 0
270000.0 502105.0 0
274000.0 502105.0 0
278000.0 502105.0 0
282000.0 502105.0 0
286000.0 502105.0 0
290000.0 502105.0 0
294000.0 502105.0 0
298000.0 502105.0 0
302000.0 502105.0 0
306000.0 502105.0 0
310000.0 502105.0 0
314000.0 502105.0 0
318000.0 502105.0 0
322000.0 502105.0 0
326000.0 502105.0 0
330000.0 502105.0 0
334000.0 502105.0 0
338000.0 502105.0 0
342000.0 502105.0 0
346000.0 502105.0 0
350000.0 502105.0 0
354000.0 502105.0 0
358000.0 502105.0 0
362000.0 502105.0 0
366000.0 502105.0 0
370000.0 502105.0 0
374000.0 502105.0 0
378000.0 502106.0 0
382000.0 502105.0 0
386000.0 502168.0 0
390000.0 502196.0 0
394000.0 502246.0 0
398000.0 502262.0 0
102000.0 506245.0 0
106000.0 506230.0 0
110000.0 506184.0 0
114000.0 506153.0 0
118000.0 506105.0 0
122000.0 506106.0 0
126000.0 506105.0 0
130000.0 506105.0 0
134000.0 506105.0 0
138000.0 506105.0 0
142000.0 506105.0 0
146000.0 506105.0 0
150000.0 506105.0 0
154000.0 506105.0 0
158000.0 506105.0 0
162000.0 506105.0 0
166000.0 506105.0 0
170000.0 506105.0 0
174000.0 506105.0 0
178000.0 506105.0 0
182000.0 506105.0 0
186000.0 506105.0 0
190000.0 506105.0 0
194000.0 506105.0 0
198000.0 506105.0 0
202000.0 506105.0 0
206000.0 506105.0 0
210000.0 506105.0 0
214000.0 506105.0 0
218000.0 506105.0 0
222000.0 506105.0 0
226000.0 506105.0 0
230000.0 506105.0 0
234000.0 506105.0 0
238000.0 506105.0 0
242000.0 506105.0 0
246000.0 506105.0 0
250000.0 506105.0 0
254000.0 506105.0 0
258000.0 506105.0 0
262000.0 506105.0 0
266000.0 506105.0 0
270000.0 506105.0 0
274000.0 506105.0 0
278000.0 506105.0 0
282000.0 506105.0 0
286000.0 506105.0 0
290000.0 506105.0 0
294000.0 506105.0 0
298000.0 506105.0 0
302000.0 506105.0 0
306000.0 506105.0 0
310000.0 506105.0 0
314000.0 506105.0 0
318000.0 506105.0 0
322000.0 506105.0 0
326000.0 506105.0 0
330000.0 506105.0 0
334000.0 506105.0 0
338000.0 506105.0 0
342000.0 506105.0 0
346000.0 506105.0 0
350000.0 506105.0 0
354000.0 506105.0 0
358000.0 506105.0 0
362000.0 506105.0 0
366000.0 506105.0 0
370000.0 506105.0 0
374000.0 506105.0 0
378000.0 506106.0 0
382000.0 506105.0 0
386000.0 506153.0 0
390000.0 506184.0 0
394000.0 506230.0 0
398000.0 506245.0 0
102000.0 510229.0 0
106000.0 510216.0 0
110000.0 510173.0 0
114000.0 510142.0 0
118000.0 510105.0 0
122000.0 510106.0 0
126000.0 510105.0 0
130000.0 510105.0 0
134000.0 510105.0 0
138000.0 510105.0 0
142000.0 510105.0 0
146000.0 510105.0 0
150000.0 510105.0 0
154000.0 510105.0 0
158000.0 510105.0 0
162000.0 510105.0 0
166000.0 510105.0 0
170000.0 510105.0 0
174000.0 510105.0 0
178000.0 510105.0 0
182000.0 510105.0 0
186000.0 510105.0 0
190000.0 510105.0 0
194000.0 510105.0 0
198000.0 510105.0 0
202000.0 510105.0 0
206000.0 510105.0 0
210000.0 510105.0 0
214000.0 510105.0 0
218000.0 510105.0 0
222000.0 510105.0 0
226000.0 510105.0 0
230000.0 510105.0 0
234000.0 510105.0 0
238000.0 510105.0 0
242000.0 510105.0 0
246000.0 510105.0 0
250000.0 510105.0 0
254000.0 510105.0 0
258000.0 510105.0 0
262000.0 510105.0 0
266000.0 510105.0 0
270000.0 510105.0 0
274000.0 510105.0 0
278000.0 510105.0 0
282000.0 510105.0 0
286000.0 510105.0 0
290000.0 510105.0 0
294000.0 510105.0 0
298000.0 510105.0 0
302000.0 510105.0 0
306000.0 510105.0 0
310000.0 510105.0 0
314000.0 510105.0 0
318000.0 510105.0 0
322000.0 510105.0 0
326000.0 510105.0 0
330000.0 510105.0 0
334000.0 510105.0 0
338000.0 510105.0 0
342000.0 510105.0 0
346000.0 510105.0 0
350000.0 510105.0 0
354000.0 510105.0 0
358000.0 510105.0 0
362000.0 510105.0 0
366000.0 510105.0 0
370000.0 510105.0 0
374000.0 510105.0 0
378000.0 510106.0 0
382000.0 510105.0 0
386000.0 510142.0 0
390000.0 510173.0 0
394000.0 510216.0 0
398000.0 510229.0 0
102000.0 514215.0 0
106000.0 514203.0 0
110000.0 514162.0 0
114000.0 514132.0 0
118000.0 514105.0 0
122000.0 514105.0 0
126000.0 514105.0 0
130000.0 514105.0 0
134000.0 514105.0 0
138000.0 514105.0 0
142000.0 514105.0 0
146000.0 514105.0 0
150000.0 514105.0 0
154000.0 514105.0 0
158000.0 514105.0 0
162000.0 514105.0 0
166000.0 514105.0 0
170000.0 514105.0 0
174000.0 514105.0 0
178000.0 514105.0 0
182000.0 514105.0 0
186000.0 514105.0 0
190000.0 514105.0 0
194000.0 514105.0 0
198000.0 514105.0 0
202000.0 514105.0 0
206000.0 514105.0 0
210000.0 514105.0 0
214000.0 514105.0 0
218000.0 514105.0 0
222000.0 514105.0 0
226000.0 514105.0 0
230000.0 514105.0 0
234000.0 514105.0 0
238000.0 514105.0 0
242000.0 514105.0 0
246000.0 514105.0 0
250000.0 514105.0 0
254000.0 514105.0 0
258000.0 514105.0 0
262000.0 514105.0 0
266000.0 514105.0 0
270000.0 514105.0 0
274000.0 514105.0 0
278000.0 514105.0 0
282000.0 514105.0 0
286000.0 514105.0 0
290000.0 514105.0 0
294000.0 514105.0 0
298000.0 514105.0 0
302000.0 514105.0 0
306000.0 514105.0 0
310000.0 514105.0 0
314000.0 514105.0 0
318000.0 514105.0 0
322000.0 514105.0 0
326000.0 514105.0 0
330000.0 514105.0 0
334000.0 514105.0 0
338000.0 514105.0 0
342000.0 514105.0 0
346000.0 514105.0 0
350000.0 514105.0 0
354000.0 514105.0 0
358000.0 514105.0 0
362000.0 514105.0 0
366000.0 514105.0 0
370000.0 514105.0 0
374000.0 514105.0 0
378000.0 514105.0 0
382000.0 514105.0 0
386000.0 514132.0 0
390000.0 514162.0 0
394000.0 514203.0 0
398000.0 514215.0 0
102000.0 518201.0 0
106000.0 518191.0 0
110000.0 518153.0 0
114000.0 518125.0 0
118000.0 518105.0 0
122000.0 518105.0 0
126000.0 518105.0 0
130000.0 518105.0 0
134000.0 518105.0 0
138000.0 518105.0 0
142000.0 518105.0 0
146000.0 518105.0 0
150000.0 518105.0 0
154000.0 518105.0 0
158000.0 518105.0 0
162000.0 518105.0 0
166000.0 518105.0 0
170000.0 518105.0 0
174000.0 518105.0 0
178000.0 518105.0 0
182000.0 518105.0 0
186000.0 518105.0 0
190000.0 518105.0 0
194000.0 518105.0 0
198000.0 518105.0 0
202000.0 518105.0 0
206000.0 518105.0 0
210000.0 518105.0 0
214000.0 518105.0 0
218000.0 518105.0 0
222000.0 518105.0 0
226000.0 518105.0 0
230000.0 518105.0 0
234000.0 518105.0 0
238000.0 518105.0 0
242000.0 518105.0 0
246000.0 518105.0 0
250000.0 518105.0 0
254000.0 518105.0 0
258000.0 518105.0 0
262000.0 518105.0 0
266000.0 518105.0 0
270000.0 518105.0 0
274000.0 518105.0 0
278000.0 518105.0 0
282000.0 518105.0 0
286000.0 518105.0 0
290000.0 518105.0 0
294000.0 518105.0 0
298000.0 518105.0 0
302000.0 518105.0 0
306000.0 518105.0 0
310000.0 518105.0 0
314000.0 518105.0 0
318000.0 518105.0 0
322000.0 518105.0 0
326000.0 518105.0 0
330000.0 518105.0 0
334000.0 518105.0 0
338000.0 518105.0 0
342000.0 518105.0 0
346000.0 518105.0 0
350000.0 518105.0 0
354000.0 518105.0 0
358000.0 518105.0 0
362000.0 518105.0 0
366000.0 518105.0 0
370000.0 518105.0 0
374000.0 518105.0 0
378000.0 518105.0 0
382000.0 518105.0 0
386000.0 518125.0 0
390000.0 518153.0 0
394000.0 518191.0 0
398000.0 518201.0 0
102000.0 522189.0 0
106000.0 522180.0 0
110000.0 522145.0 0
114000.0 522119.0 0
118000.0 522105.0 0
122000.0 522105.0 0
126000.0 522105.0 0
130000.0 522105.0 0
134000.0 522105.0 0
138000.0 522105.0 0
142000.0 522105.0 0
146000.0 522105.0 0
150000.0 522105.0 0
154000.0 522105.0 0
158000.0 522105.0 0
162000.0 522105.0 0
166000.0 522105.0 0
170000.0 522105.0 0
174000.0 522105.0 0
178000.0 522105.0 0
182000.0 522105.0 0
186000.0 522105.0 0
190000.0 522105.0 0
194000.0 522105.0 0
198000.0 522105.0 0
202000.0 522105.0 0
206000.0 522105.0 0
210000.0 522105.0 0
214000.0 522105.0 0
218000.0 522105.0 0
222000.0 522105.0 0
226000.0 522105.0 0
230000.0 522105.0 0
234000.0 522105.0 0
238000.0 522105.0 0
242000.0 522105.0 0
246000.0 522105.0 0
250000.0 522105.0 0
254000.0 522105.0 0
258000.0 522105.0 0
262000.0 522105.0 0
266000.0 522105.0 0
270000.0 522105.0 0
274000.0 522105.0 0
278000.0 522105.0 0
282000.0 522105.0 0
286000.0 522105.0 0
290000.0 522105.0 0
294000.0 522105.0 0
298000.0 522105.0 0
302000.0 522105.0 0
306000.0 522105.0 0
310000.0 522105.0 0
314000.0 522105.0 0
318000.0 522105.0 0
322000.0 522105.0 0
326000.0 522105.0 0
330000.0 522105.0 0
334000.0 522105.0 0
338000.0 522105.0 0
342000.0 522105.0 0
346000.0 522105.0 0
350000.0 522105.0 0
354000.0 522105.0 0
358000.0 522105.0 0
362000.0 522105.0 0
366000.0 522105.0 0
370000.0 522105.0 0
374000.0 522105.0 0
378000.0 522105.0 0
382000.0 522105.0 0
386000.0 522119.0 0
390000.0 522145.0 0
394000.0 522180.0 0
398000.0 522189.0 0
102000.0 526178.0 0
106000.0 526170.0 0
110000.0 526138.0 0
114000.0 526115.0 0
118000.0 526105.0 0
122000.0 526105.0 0
126000.0 526105.0 0
130000.0 526105.0 0
134000.0 526105.0 0
138000.0 526105.0 0
142000.0 526105.0 0
146000.0 526105.0 0
150000.0 526105.0 0
154000.0 526105.0 0
158000.0 526105.0 0
162000.0 526105.0 0
166000.0 526105.0 0
170000.0 526105.0 0
174000.0 526105.0 0
178000.0 526105.0 0
182000.0 526105.0 0
186000.0 526105.0 0
190000.0 526105.0 0
194000.0 526105.0 0
198000.0 526105.0 0
202000.0 526105.0 0
206000.0 526105.0 0
210000.0 526105.0 0
214000.0 526105.0 0
218000.0 526105.0 0
222000.0 526105.0 0
226000.0 526105.0 0
230000.0 526105.0 0
234000.0 526105.0 0
238000.0 526105.0 0
242000.0 526105.0 0
246000.0 526105.0 0
250000.0 526105.0 0
254000.0 526105.0 0
258000.0 526105.0 0
262000.0 526105.0 0
266000.0 526105.0 0
270000.0 526105.0 0
274000.0 526105.0 0
278000.0 526105.0 0
282000.0 526105.0 0
286000.0 526105.0 0
290000.0 526105.0 0
294000.0 526105.0 0
298000.0 526105.0 0
302000.0 526105.0 0
306000.0 526105.0 0
310000.0 526105.0 0
314000.0 526105.0 0
318000.0 526105.0 0
322000.0 526105.0 0
326000.0 526105.0 0
330000.0 526105.0 0
334000.0 526105.0 0
338000.0 526105.0 0
342000.0 526105.0 0
346000.0 526105.0 0
350000.0 526105.0 0
354000.0 526105.0 0
358000.0 526105.0 0
362000.0 526105.0 0
366000.0 526105.0 0
370000.0 526105.0 0
374000.0 526105.0 0
378000.0 526105.0 0
382000.0 526105.0 0
386000.0 526115.0 0
390000.0 526138.0 0
394000.0 526170.0 0
398000.0 526178.0 0
102000.0 530168.0 0
106000.0 530161.0 0
110000.0 530131.0 0
114000.0 530112.0 0
118000.0 530105.0 0
122000.0 530105.0 0
126000.0 530105.0 0
130000.0 530105.0 0
134000.0 530105.0 0
138000.0 530105.0 0
142000.0 530105.0 0
146000.0 530105.0 0
150000.0 530105.0 0
154000.0 530105.0 0
158000.0 530105.0 0
162000.0 530105.0 0
166000.0 530105.0 0
170000.0 530105.0 0
174000.0 530105.0 0
178000.0 530105.0 0
182000.0 530105.0 0
186000.0 530105.0 0
190000.0 530105.0 0
194000.0 530105.0 0
198000.0 530105.0 0
202000.0 530105.0 0
206000.0 530105.0 0
210000.0 530105.0 0
214000.0 530105.0 0
218000.0 530105.0 0
222000.0 530105.0 0
226000.0 530105.0 0
230000.0 530105.0 0
234000.0 530105.0 0
238000.0 530105.0 0
242000.0 530105.0 0
246000.0 530105.0 0
250000.0 530105.0 0
254000.0 530105.0 0
258000.0 530105.0 0
262000.0 530105.0 0
266000.0 530105.0 0
270000.0 530105.0 0
274000.0 530105.0 0
278000.0 530105.0 0
282000.0 530105.0 0
286000.0 530105.0 0
290000.0 530105.0 0
294000.0 530105.0 0
298000.0 530105.0 0
302000.0 530105.0 0
306000.0 530105.0 0
310000.0 530105.0 0
314000.0 530105.0 0
318000.0 530105.0 0
322000.0 530105.0 0
326000.0 530105.0 0
330000.0 530105.0 0
334000.0 530105.0 0
338000.0 530105.0 0
342000.0 530105.0 0
346000.0 530105.0 0
350000.0 530105.0 0
354000.0 530105.0 0
358000.0 530105.0 0
362000.0 530105.0 0
366000.0 530105.0 0
370000.0 530105.0 0
374000.0 530105.0 0
378000.0 530105.0 0
382000.0 530105.0 0
386000.0 530112.0 0
390000.0 530131.0 0
394000.0 530161.0 0
398000.0 530168.0 0
102000.0 534159.0 0
106000.0 534153.0 0
110000.0 534126.0 0
114000.0 534110.0 0
118000.0 534105.0 0
122000.0 534105.0 0
126000.0 534105.0 0
130000.0 534105.0 0
134000.0 534105.0 0
138000.0 534105.0 0
142000.0 534105.0 0
146000.0 534105.0 0
150000.0 534105.0 0
154000.0 534105.0 0
158000.0 534105.0 0
162000.0 534105.0 0
166000.0 534105.0 0
170000.0 534105.0 0
174000.0 534105.0 0
178000.0 534105.0 0
182000.0 534105.0 0
186000.0 534105.0 0
190000.0 534105.0 0
194000.0 534105.0 0
198000.0 534105.0 0
202000.0 534105.0 0
206000.0 534105.0 0
210000.0 534105.0 0
214000.0 534105.0 0
218000.0 534105.0 0
222000.0 534105.0 0
226000.0 534105.0 0
230000.0 534105.0 0
234000.0 534105.0 0
238000.0 534105.0 0
242000.0 534105.0 0
246000.0 534105.0 0
250000.0 534105.0 0
254000.0 534105.0 0
258000.0 534105.0 0
262000.0 534105.0 0
266000.0 534105.0 0
270000.0 534105.0 0
274000.0 534105.0 0
278000.0 534105.0 0
282000.0 534105.0 0
286000.0 534105.0 0
290000.0 534105.0 0
294000.0 534105.0 0
298000.0 534105.0 0
302000.0 534105.0 0
306000.0 534105.0 0
310000.0 534105.0 0
314000.0 534105.0 0
318000.0 534105.0 0
322000.0 534105.0 0
326000.0 534105.0 0
330000.0 534105.0 0
334000.0 534105.0 0
338000.0 534105.0 0
342000.0 534105.0 0
346000.0 534105.0 0
350000.0 534105.0 0
354000.0 534105.0 0
358000.0 534105.0 0
362000.0 534105.0 0
366000.0 534105.0 0
370000.0 534105.0 0
374000.0 534105.0 0
378000.0 534105.0 0
382000.0 534105.0 0
386000.0 534110.0 0
390000.0 534126.0 0
394000.0 534153.0 0
398000.0 534159.0 0
102000.0 538151.0 0
106000.0 538146.0 0
110000.0 538122.0 0
114000.0 538108.0 0
118000.0 538105.0 0
122000.0 538105.0 0
126000.0 538105.0 0
130000.0 538105.0 0
134000.0 538105.0 0
138000.0 538105.0 0
142000.0 538105.0 0
146000.0 538105.0 0
150000.0 538105.0 0
154000.0 538105.0 0
158000.0 538105.0 0
162000.0 538105.0 0
166000.0 538105.0 0
170000.0 538105.0 0
174000.0 538105.0 0
178000.0 538105.0 0
182000.0 538105.0 0
186000.0 538105.0 0
190000.0 538105.0 0
194000.0 538105.0 0
198000.0 538105.0 0
202000.0 538105.0 0
206000.0 538105.0 0
210000.0 538105.0 0
214000.0 538105.0 0
218000.0 538105.0 0
222000.0 538105.0 0
226000.0 538105.0 0
230000.0 538105.0 0
234000.0 538105.0 0
238000.0 538105.0 0
242000.0 538105.0 0
246000.0 538105.0 0
250000.0 538105.0 0
254000.0 538105.0 0
258000.0 538105.0 0
262000.0 538105.0 0
266000.0 538105.0 0
270000.0 538105.0 0
274000.0 538105.0 0
278000.0 538105.0 0
282000.0 538105.0 0
286000.0 538105.0 0
290000.0 538105.0 0
294000.0 538105.0 0
298000.0 538105.0 0
302000.0 538105.0 0
306000.0 538105.0 0
310000.0 538105.0 0
314000.0 538105.0 0
318000.0 538105.0 0
322000.0 538105.0 0
326000.0 538105.0 0
330000.0 538105.0 0
334000.0 538105.0 0
338000.0 538105.0 0
342000.0 538105.0 0
346000.0 538105.0 0
350000.0 538105.0 0
354000.0 538105.0 0
358000.0 538105.0 0
362000.0 538105.0 0
366000.0 538105.0 0
370000.0 538105.0 0
374000.0 538105.0 0
378000.0 538105.0 0
382000.0 538105.0 0
386000.0 538108.0 0
390000.0 538122.0 0
394000.0 538146.0 0
398000.0 538151.0 0
102000.0 542144.0 0
106000.0 542140.0 0
110000.0 542118.0 0
114000.0 542107.0 0
118000.0 542105.0 0
122000.0 542105.0 0
126000.0 542105.0 0
130000.0 542105.0 0
134000.0 542105.0 0
138000.0 542105.0 0
142000.0 542105.0 0
146000.0 542105.0 0
150000.0 542105.0 0
154000.0 542105.0 0
158000.0 542105.0 0
162000.0 542105.0 0
166000.0 542105.0 0
170000.0 542105.0 0
174000.0 542105.0 0
178000.0 542105.0 0
182000.0 542105.0 0
186000.0 542105.0 0
190000.0 542105.0 0
194000.0 542105.0 0
198000.0 542105.0 0
202000.0 542105.0 0
206000.0 542105.0 0
210000.0 542105.0 0
214000.0 542105.0 0
218000.0 542105.0 0
222000.0 542105.0 0
226000.0 542105.0 0
230000.0 542105.0 0
234000.0 542105.0 0
238000.0 542105.0 0
242000.0 542105.0 0
246000.0 542105.0 0
250000.0 542105.0 0
254000.0 542105.0 0
258000.0 542105.0 0
262000.0 542105.0 0
266000.0 542105.0 0
270000.0 542105.0 0
274000.0 542105.0 0
278000.0 542105.0 0
282000.0 542105.0 0
286000.0 542105.0 0
290000.0 542105.0 0
294000.0 542105.0 0
298000.0 542105.0 0
302000.0 542105.0 0
306000.0 542105.0 0
310000.0 542105.0 0
314000.0 542105.0 0
318000.0 542105.0 0
322000.0 542105.0 0
326000.0 542105.0 0
330000.0 542105.0 0
334000.0 542105.0 0
338000.0 542105.0 0
342000.0 542105.0 0
346000.0 542105.0 0
350000.0 542105.0 0
354000.0 542105.0 0
358000.0 542105.0 0
362000.0 542105.0 0
366000.0 542105.0 0
370000.0 542105.0 0
374000.0 542105.0 0
378000.0 542105.0 0
382000.0 542105.0 0
386000.0 542107.0 0
390000.0 542118.0 0
394000.0 542140.0 0
398000.0 542144.0 0
102000.0 546139.0 0
106000.0 546134.0 0
110000.0 546115.0 0
114000.0 546107.0 0
118000.0 546105.0 0
122000.0 546105.0 0
126000.0 546105.0 0
130000.0 546105.0 0
134000.0 546105.0 0
138000.0 546105.0 0
142000.0 546105.0 0
146000.0 546105.0 0
150000.0 546105.0 0
154000.0 546105.0 0
158000.0 546105.0 0
162000.0 546105.0 0
166000.0 546105.0 0
170000.0 546105.0 0
174000.0 546105.0 0
178000.0 546105.0 0
182000.0 546105.0 0
186000.0 546105.0 0
190000.0 546105.0 0
194000.0 546105.0 0
198000.0 546105.0 0
202000.0 546105.0 0
206000.0 546105.0 0
210000.0 546105.0 0
214000.0 546105.0 0
218000.0 546105.0 0
222000.0 546105.0 0
226000.0 546105.0 0
230000.0 546105.0 0
234000.0 546105.0 0
238000.0 546105.0 0
242000.0 546105.0 0
246000.0 546105.0 0
250000.0 546105.0 0
254000.0 546105.0 0
258000.0 546105.0 0
262000.0 546105.0 0
266000.0 546105.0 0
270000.0 546105.0 0
274000.0 546105.0 0
278000.0 546105.0 0
282000.0 546105.0 0
286000.0 546105.0 0
290000.0 546105.0 0
294000.0 546105.0 0
298000.0 546105.0 0
302000.0 546105.0 0
306000.0 546105.0 0
310000.0 546105.0 0
314000.0 546105.0 0
318000.0 546105.0 0
322000.0 546105.0 0
326000.0 546105.0 0
330000.0 546105.0 0
334000.0 546105.0 0
338000.0 546105.0 0
342000.0 546105.0 0
346000.0 546105.0 0
350000.0 546105.0 0
354000.0 546105.0 0
358000.0 546105.0 0
362000.0 546105.0 0
366000.0 546105.0 0
370000.0 546105.0 0
374000.0 546105.0 0
378000.0 546105.0 0
382000.0 546105.0 0
386000.0 546107.0 0
390000.0 546115.0 0
394000.0 546134.0 0
398000.0 546139.0 0
102000.0 550133.0 0
106000.0 550129.0 0
110000.0 550113.0 0
114000.0 550106.0 0
118000.0 550105.0 0
122000.0 550105.0 0
126000.0 550105.0 0
130000.0 550105.0 0
134000.0 550105.0 0
138000.0 550105.0 0
142000.0 550105.0 0
146000.0 550105.0 0
150000.0 550105.0 0
154000.0 550105.0 0
158000.0 550105.0 0
162000.0 550105.0 0
166000.0 550105.0 0
170000.0 550105.0 0
174000.0 550105.0 0
178000.0 550105.0 0
182000.0 550105.0 0
186000.0 550105.0 0
190000.0 550105.0 0
194000.0 550105.0 0
198000.0 550105.0 0
202000.0 550105.0 0
206000.0 550105.0 0
210000.0 550105.0 0
214000.0 550105.0 0
218000.0 550105.0 0
222000.0 550105.0 0
226000.0 550105.0 0
230000.0 550105.0 0
234000.0 550105.0 0
238000.0 550105.0 0
242000.0 550105.0 0
246000.0 550105.0 0
250000.0 550105.0 0
254000.0 550105.0 0
258000.0 550105.0 0
262000.0 550105.0 0
266000.0 550105.0 0
270000.0 550105.0 0
274000.0 550105.0 0
278000.0 550105.0 0
282000.0 550105.0 0
286000.0 550105.0 0
290000.0 550105.0 0
294000.0 550105.0 0
298000.0 550105.0 0
302000.0 550105.0 0
306000.0 550105.0 0
310000.0 550105.0 0
314000.0 550105.0 0
318000.0 550105.0 0
322000.0 550105.0 0
326000.0 550105.0 0
330000.0 550105.0 0
334000.0 550105.0 0
338000.0 550105.0 0
342000.0 550105.0 0
346000.0 550105.0 0
350000.0 550105.0 0
354000.0 550105.0 0
358000.0 550105.0 0
362000.0 550105.0 0
366000.0 550105.0 0
370000.0 550105.0 0
374000.0 550105.0 0
378000.0 550105.0 0
382000.0 550105.0 0
386000.0 550106.0 0
390000.0 550113.0 0
394000.0 550129.0 0
398000.0 550133.0 0
102000.0 554129.0 0
106000.0 554125.0 0
110000.0 554111.0 0
114000.0 554106.0 0
118000.0 554105.0 0
122000.0 554105.0 0
126000.0 554105.0 0
130000.0 554105.0 0
134000.0 554105.0 0
138000.0 554105.0 0
142000.0 554105.0 0
146000.0 554105.0 0
150000.0 554105.0 0
154000.0 554105.0 0
158000.0 554105.0 0
162000.0 554105.0 0
166000.0 554105.0 0
170000.0 554105.0 0
174000.0 554105.0 0
178000.0 554105.0 0
182000.0 554105.0 0
186000.0 554105.0 0
190000.0 554105.0 0
194000.0 554105.0 0
198000.0 554105.0 0
202000.0 554105.0 0
206000.0 554105.0 0
210000.0 554105.0 0
214000.0 554105.0 0
218000.0 554105.0 0
222000.0 554105.0 0
226000.0 554105.0 0
230000.0 554105.0 0
234000.0 554105.0 0
238000.0 554105.0 0
242000.0 554105.0 0
246000.0 554105.0 0
250000.0 554105.0 0
254000.0 554105.0 0
258000.0 554105.0 0
262000.0 554105.0 0
266000.0 554105.0 0
270000.0 554105.0 0
274000.0 554105.0 0
278000.0 554105.0 0
282000.0 554105.0 0
286000.0 554105.0 0
290000.0 554105.0 0
294000.0 554105.0 0
298000.0 554105.0 0
302000.0 554105.0 0
306000.0 554105.0 0
310000.0 554105.0 0
314000.0 554105.0 0
318000.0 554105.0 0
322000.0 554105.0 0
326000.0 554105.0 0
330000.0 554105.0 0
334000.0 554105.0 0
338000.0 554105.0 0
342000.0 554105.0 0
346000.0 554105.0 0
350000.0 554105.0 0
354000.0 554105.0 0
358000.0 554105.0 0
362000.0 554105.0 0
366000.0 554105.0 0
370000.0 554105.0 0
374000.0 554105.0 0
378000.0 554105.0 0
382000.0 554105.0 0
386000.0 554106.0 0
390000.0 554111.0 0
394000.0 554125.0 0
398000.0 554129.0 0
102000.0 558125.0 0
106000.0 558122.0 0
110000.0 558110.0 0
114000.0 558105.0 0
118000.0 558105.0 0
122000.0 558105.0 0
126000.0 558105.0 0
130000.0 558105.0 0
134000.0 558105.0 0
138000.0 558105.0 0
142000.0 558105.0 0
146000.0 558105.0 0
150000.0 558105.0 0
154000.0 558105.0 0
158000.0 558105.0 0
162000.0 558105.0 0
166000.0 558105.0 0
170000.0 558105.0 0
174000.0 558105.0 0
178000.0 558105.0 0
182000.0 558105.0 0
186000.0 558105.0 0
190000.0 558105.0 0
194000.0 558105.0 0
198000.0 558105.0 0
202000.0 558105.0 0
206000.0 558105.0 0
210000.0 558105.0 0
214000.0 558105.0 0
218000.0 558105.0 0
222000.0 558105.0 0
226000.0 558105.0 0
230000.0 558105.0 0
234000.0 558105.0 0
238000.0 558105.0 0
242000.0 558105.0 0
246000.0 558105.0 0
250000.0 558105.0 0
254000.0 558105.0 0
258000.0 558105.0 0
262000.0 558105.0 0
266000.0 558105.0 0
270000.0 558105.0 0
274000.0 558105.0 0
278000.0 558105.0 0
282000.0 558105.0 0
286000.0 558105.0 0
290000.0 558105.0 0
294000.0 558105.0 0
298000.0 558105.0 0
302000.0 558105.0 0
306000.0 558105.0 0
310000.0 558105.0 0
314000.0 558105.0 0
318000.0 558105.0 0
322000.0 558105.0 0
326000.0 558105.0 0
330000.0 558105.0 0
334000.0 558105.0 0
338000.0 558105.0 0
342000.0 558105.0 0
346000.0 558105.0 0
350000.0 558105.0 0
354000.0 558105.0 0
358000.0 558105.0 0
362000.0 558105.0 0
366000.0 558105.0 0
370000.0 558105.0 0
374000.0 558105.0 0
378000.0 558105.0 0
382000.0 558105.0 0
386000.0 558105.0 0
390000.0 558110.0 0
394000.0 558122.0 0
398000.0 558125.0 0
102000.0 562122.0 0
106000.0 562119.0 0
110000.0 562108.0 0
114000.0 562105.0 0
118000.0 562105.0 0
122000.0 562105.0 0
126000.0 562105.0 0
130000.0 562105.0 0
134000.0 562105.0 0
138000.0 562105.0 0
142000.0 562105.0 0
146000.0 562105.0 0
150000.0 562105.0 0
154000.0 562105.0 0
158000.0 562105.0 0
162000.0 562105.0 0
166000.0 562105.0 0
170000.0 562105.0 0
174000.0 562105.0 0
178000.0 562105.0 0
182000.0 562105.0 0
186000.0 562105.0 0
190000.0 562105.0 0
194000.0 562105.0 0
198000.0 562105.0 0
202000.0 562105.0 0
206000.0 562105.0 0
210000.0 562105.0 0
214000.0 562105.0 0
218000.0 562105.0 0
222000.0 562105.0 0
226000.0 562105.0 0
230000.0 562105.0 0
234000.0 562105.0 0
238000.0 562105.0 0
242000.0 562105.0 0
246000.0 562105.0 0
250000.0 562105.0 0
254000.0 562105.0 0
258000.0 562105.0 0
262000.0 562105.0 0
266000.0 562105.0 0
270000.0 562105.0 0
274000.0 562105.0 0
278000.0 562105.0 0
282000.0 562105.0 0
286000.0 562105.0 0
290000.0 562105.0 0
294000.0 562105.0 0
298000.0 562105.0 0
302000.0 562105.0 0
306000.0 562105.0 0
310000.0 562105.0 0
314000.0 562105.0 0
318000.0 562105.0 0
322000.0 562105.0 0
326000.0 562105.0 0
330000.0 562105.0 0
334000.0 562105.0 0
338000.0 562105.0 0
342000.0 562105.0 0
346000.0 562105.0 0
350000.0 562105.0 0
354000.0 562105.0 0
358000.0 562105.0 0
362000.0 562105.0 0
366000.0 562105.0 0
370000.0 562105.0 0
374000.0 562105.0 0
378000.0 562105.0 0
382000.0 562105.0 0
386000.0 562105.0 0
390000.0 562108.0 0
394000.0 562119.0 0
398000.0 562122.0 0
102000.0 566119.0 0
106000.0 566116.0 0
110000.0 566107.0 0
114000.0 566105.0 0
118000.0 566105.0 0
122000.0 566105.0 0
126000.0 566105.0 0
130000.0 566105.0 0
134000.0 566105.0 0
138000.0 566105.0 0
142000.0 566105.0 0
146000.0 566105.0 0
150000.0 566105.0 0
154000.0 566105.0 0
158000.0 566105.0 0
162000.0 566105.0 0
166000.0 566105.0 0
170000.0 566105.0 0
174000.0 566105.0 0
178000.0 566105.0 0
182000.0 566105.0 0
186000.0 566105.0 0
190000.0 566105.0 0
194000.0 566105.0 0
198000.0 566105.0 0
202000.0 566105.0 0
206000.0 566105.0 0
210000.0 566105.0 0
214000.0 566105.0 0
218000.0 566105.0 0
222000.0 566105.0 0
226000.0 566105.0 0
230000.0 566105.0 0
234000.0 566105.0 0
238000.0 566105.0 0
242000.0 566105.0 0
246000.0 566105.0 0
250000.0 566105.0 0
254000.0 566105.0 0
258000.0 566105.0 0
262000.0 566105.0 0
266000.0 566105.0 0
270000.0 566105.0 0
274000.0 566105.0 0
278000.0 566105.0 0
282000.0 566105.0 0
286000.0 566105.0 0
290000.0 566105.0 0
294000.0 566105.0 0
298000.0 566105.0 0
302000.0 566105.0 0
306000.0 566105.0 0
310000.0 566105.0 0
314000.0 566105.0 0
318000.0 566105.0 0
322000.0 566105.0 0
326000.0 566105.0 0
330000.0 566105.0 0
334000.0 566105.0 0
338000.0 566105.0 0
342000.0 566105.0 0
346000.0 566105.0 0
350000.0 566105.0 0
354000.0 566105.0 0
358000.0 566105.0 0
362000.0 566105.0 0
366000.0 566105.0 0
370000.0 566105.0 0
374000.0 566105.0 0
378000.0 566105.0 0
382000.0 566105.0 0
386000.0 566105.0 0
390000.0 566107.0 0
394000.0 566116.0 0
398000.0 566119.0 0
102000.0 570117.0 0
106000.0 570114.0 0
110000.0 570107.0 0
114000.0 570105.0 0
118000.0 570105.0 0
122000.0 570105.0 0
126000.0 570105.0 0
130000.0 570105.0 0
134000.0 570105.0 0
138000.0 570105.0 0
142000.0 570105.0 0
146000.0 570105.0 0
150000.0 570105.0 0
154000.0 570105.0 0
158000.0 570105.0 0
162000.0 570105.0 0
166000.0 570105.0 0
170000.0 570105.0 0
174000.0 570105.0 0
178000.0 570105.0 0
182000.0 570105.0 0
186000.0 570105.0 0
190000.0 570105.0 0
194000.0 570105.0 0
198000.0 570105.0 0
202000.0 570105.0 0
206000.0 570105.0 0
210000.0 570105.0 0
214000.0 570105.0 0
218000.0 570105.0 0
222000.0 570105.0 0
226000.0 570105.0 0
230000.0 570105.0 0
234000.0 570105.0 0
238000.0 570105.0 0
242000.0 570105.0 0
246000.0 570105.0 0
250000.0 570105.0 0
254000.0 570105.0 0
258000.0 570105.0 0
262000.0 570105.0 0
266000.0 570105.0 0
270000.0 570105.0 0
274000.0 570105.0 0
278000.0 570105.0 0
282000.0 570105.0 0
286000.0 570105.0 0
290000.0 570105.0 0
294000.0 570105.0 0
298000.0 570105.0 0
302000.0 570105.0 0
306000.0 570105.0 0
310000.0 570105.0 0
314000.0 570105.0 0
318000.0 570105.0 0
322000.0 570105.0 0
326000.0 570105.0 0
330000.0 570105.0 0
334000.0 570105.0 0
338000.0 570105.0 0
342000.0 570105.0 0
346000.0 570105.0 0
350000.0 570105.0 0
354000.0 570105.0 0
358000.0 570105.0 0
362000.0 570105.0 0
366000.0 570105.0 0
370000.0 570105.0 0
374000.0 570105.0 0
378000.0 570105.0 0
382000.0 570105.0 0
386000.0 570105.0 0
390000.0 570107.0 0
394000.0 570114.0 0
398000.0 570117.0 0
102000.0 574115.0 0
106000.0 574112.0 0
110000.0 574106.0 0
114000.0 574105.0 0
118000.0 574105.0 0
122000.0 574105.0 0
126000.0 574105.0 0
130000.0 574105.0 0
134000.0 574105.0 0
138000.0 574105.0 0
142000.0 574105.0 0
146000.0 574105.0 0
150000.0 574105.0 0
154000.0 574105.0 0
158000.0 574105.0 0
162000.0 574105.0 0
166000.0 574105.0 0
170000.0 574105.0 0
174000.0 574105.0 0
178000.0 574105.0 0
182000.0 574105.0 0
186000.0 574105.0 0
190000.0 574105.0 0
194000.0 574105.0 0
198000.0 574105.0 0
202000.0 574105.0 0
206000.0 574105.0 0
210000.0 574105.0 0
214000.0 574105.0 0
218000.0 574105.0 0
222000.0 574105.0 0
226000.0 574105.0 0
230000.0 574105.0 0
234000.0 574105.0 0
238000.0 574105.0 0
242000.0 574105.0 0
246000.0 574105.0 0
250000.0 574105.0 0
254000.0 574105.0 0
258000.0 574105.0 0
262000.0 574105.0 0
266000.0 574105.0 0
270000.0 574105.0 0
274000.0 574105.0 0
278000.0 574105.0 0
282000.0 574105.0 0
286000.0 574105.0 0
290000.0 574105.0 0
294000.0 574105.0 0
298000.0 574105.0 0
302000.0 574105.0 0
306000.0 574105.0 0
310000.0 574105.0 0
314000.0 574105.0 0
318000.0 574105.0 0
322000.0 574105.0 0
326000.0 574105.0 0
330000.0 574105.0 0
334000.0 574105.0 0
338000.0 574105.0 0
342000.0 574105.0 0
346000.0 574105.0 0
350000.0 574105.0 0
354000.0 574105.0 0
358000.0 574105.0 0
362000.0 574105.0 0
366000.0 574105.0 0
370000.0 574105.0 0
374000.0 574105.0 0
378000.0 574105.0 0
382000.0 574105.0 0
386000.0 574105.0 0
390000.0 574106.0 0
394000.0 574112.0 0
398000.0 574115.0 0
102000.0 578113.0 0
106000.0 578111.0 0
110000.0 578106.0 0
114000.0 578105.0 0
118000.0 578105.0 0
122000.0 578105.0 0
126000.0 578105.0 0
130000.0 578105.0 0
134000.0 578105.0 0
138000.0 578105.0 0
142000.0 578105.0 0
146000.0 578105.0 0
150000.0 578105.0 0
154000.0 578105.0 0
158000.0 578105.0 0
162000.0 578105.0 0
166000.0 578105.0 0
170000.0 578105.0 0
174000.0 578105.0 0
178000.0 578105.0 0
182000.0 578105.0 0
186000.0 578105.0 0
190000.0 578105.0 0
194000.0 578105.0 0
198000.0 578105.0 0
202000.0 578105.0 0
206000.0 578105.0 0
210000.0 578105.0 0
214000.0 578105.0 0
218000.0 578105.0 0
222000.0 578105.0 0
226000.0 578105.0 0
230000.0 578105.0 0
234000.0 578105.0 0
238000.0 578105.0 0
242000.0 578105.0 0
246000.0 578105.0 0
250000.0 578105.0 0
254000.0 578105.0 0
258000.0 578105.0 0
262000.0 578105.0 0
266000.0 578105.0 0
270000.0 578105.0 0
274000.0 578105.0 0
278000.0 578105.0 0
282000.0 578105.0 0
286000.0 578105.0 0
290000.0 578105.0 0
294000.0 578105.0 0
298000.0 578105.0 0
302000.0 578105.0 0
306000.0 578105.0 0
310000.0 578105.0 0
314000.0 578105.0 0
318000.0 578105.0 0
322000.0 578105.0 0
326000.0 578105.0 0
330000.0 578105.0 0
334000.0 578105.0 0
338000.0 578105.0 0
342000.0 578105.0 0
346000.0 578105.0 0
350000.0 578105.0 0
354000.0 578105.0 0
358000.0 578105.0 0
362000.0 578105.0 0
366000.0 578105.0 0
370000.0 578105.0 0
374000.0 578105.0 0
378000.0 578105.0 0
382000.0 578105.0 0
386000.0 578105.0 0
390000.0 578106.0 0
394000.0 578111.0 0
398000.0 578113.0 0
102000.0 582112.0 0
106000.0 582110.0 0
110000.0 582106.0 0
114000.0 582105.0 0
118000.0 582105.0 0
122000.0 582105.0 0
126000.0 582105.0 0
130000.0 582105.0 0
134000.0 582105.0 0
138000.0 582105.0 0
142000.0 582105.0 0
146000.0 582105.0 0
150000.0 582105.0 0
154000.0 582105.0 0
158000.0 582105.0 0
162000.0 582105.0 0
166000.0 582105.0 0
170000.0 582105.0 0
174000.0 582105.0 0
178000.0 582105.0 0
182000.0 582105.0 0
186000.0 582105.0 0
190000.0 582105.0 0
194000.0 582105.0 0
198000.0 582105.0 0
202000.0 582105.0 0
206000.0 582105.0 0
210000.0 582105.0 0
214000.0 582105.0 0
218000.0 582105.0 0
222000.0 582105.0 0
226000.0 582105.0 0
230000.0 582105.0 0
234000.0 582105.0 0
238000.0 582105.0 0
242000.0 582105.0 0
246000.0 582105.0 0
250000.0 582105.0 0
254000.0 582105.0 0
258000.0 582105.0 0
262000.0 582105.0 0
266000.0 582105.0 0
270000.0 582105.0 0
274000.0 582105.0 0
278000.0 582105.0 0
282000.0 582105.0 0
286000.0 582105.0 0
290000.0 582105.0 0
294000.0 582105.0 0
298000.0 582105.0 0
302000.0 582105.0 0
306000.0 582105.0 0
310000.0 582105.0 0
314000.0 582105.0 0
318000.0 582105.0 0
322000.0 582105.0 0
326000.0 582105.0 0
330000.0 582105.0 0
334000.0 582105.0 0
338000.0 582105.0 0
342000.0 582105.0 0
346000.0 582105.0 0
350000.0 582105.0 0
354000.0 582105.0 0
358000.0 582105.0 0
362000.0 582105.0 0
366000.0 582105.0 0
370000.0 582105.0 0
374000.0 582105.0 0
378000.0 582105.0 0
382000.0 582105.0 0
386000.0 582105.0 0
390000.0 582106.0 0
394000.0 582110.0 0
398000.0 582112.0 0
102000.0 586111.0 0
106000.0 586109.0 0
110000.0 586105.0 0
114000.0 586105.0 0
118000.0 586105.0 0
122000.0 586105.0 0
126000.0 586105.0 0
130000.0 586105.0 0
134000.0 586105.0 0
138000.0 586105.0 0
142000.0 586105.0 0
146000.0 586105.0 0
150000.0 586105.0 0
154000.0 586105.0 0
158000.0 586105.0 0
162000.0 586105.0 0
166000.0 586105.0 0
170000.0 586105.0 0
174000.0 586105.0 0
178000.0 586105.0 0
182000.0 586105.0 0
186000.0 586105.0 0
190000.0 586105.0 0
194000.0 586105.0 0
198000.0 586105.0 0
202000.0 586105.0 0
206000.0 586105.0 0
210000.0 586105.0 0
214000.0 586105.0 0
218000.0 586105.0 0
222000.0 586105.0 0
226000.0 586105.0 0
230000.0 586105.0 0
234000.0 586105.0 0
238000.0 586105.0 0
242000.0 586105.0 0
246000.0 586105.0 0
250000.0 586105.0 0
254000.0 586105.0 0
258000.0 586105.0 0
262000.0 586105.0 0
266000.0 586105.0 0
270000.0 586105.0 0
274000.0 586105.0 0
278000.0 586105.0 0
282000.0 586105.0 0
286000.0 586105.0 0
290000.0 586105.0 0
294000.0 586105.0 0
298000.0 586105.0 0
302000.0 586105.0 0
306000.0 586105.0 0
310000.0 586105.0 0
314000.0 586105.0 0
318000.0 586105.0 0
322000.0 586105.0 0
326000.0 586105.0 0
330000.0 586105.0 0
334000.0 586105.0 0
338000.0 586105.0 0
342000.0 586105.0 0
346000.0 586105.0 0
350000.0 586105.0 0
354000.0 586105.0 0
358000.0 586105.0 0
362000.0 586105.0 0
366000.0 586105.0 0
370000.0 586105.0 0
374000.0 586105.0 0
378000.0 586105.0 0
382000.0 586105.0 0
386000.0 586105.0 0
390000.0 586105.0 0
394000.0 586109.0 0
398000.0 586111.0 0
102000.0 590110.0 0
106000.0 590108.0 0
110000.0 590105.0 0
114000.0 590105.0 0
118000.0 590105.0 0
122000.0 590105.0 0
126000.0 590105.0 0
130000.0 590105.0 0
134000.0 590105.0 0
138000.0 590105.0 0
142000.0 590105.0 0
146000.0 590105.0 0
150000.0 590105.0 0
154000.0 590105.0 0
158000.0 590105.0 0
162000.0 590105.0 0
166000.0 590105.0 0
170000.0 590105.0 0
174000.0 590105.0 0
178000.0 590105.0 0
182000.0 590105.0 0
186000.0 590105.0 0
190000.0 590105.0 0
194000.0 590105.0 0
198000.0 590105.0 0
202000.0 590105.0 0
206000.0 590105.0 0
210000.0 590105.0 0
214000.0 590105.0 0
218000.0 590105.0 0
222000.0 590105.0 0
226000.0 590105.0 0
230000.0 590105.0 0
234000.0 590105.0 0
238000.0 590105.0 0
242000.0 590105.0 0
246000.0 590105.0 0
250000.0 590105.0 0
254000.0 590105.0 0
258000.0 590105.0 0
262000.0 590105.0 0
266000.0 590105.0 0
270000.0 590105.0 0
274000.0 590105.0 0
278000.0 590105.0 0
282000.0 590105.0 0
286000.0 590105.0 0
290000.0 590105.0 0
294000.0 590105.0 0
298000.0 590105.0 0
302000.0 590105.0 0
306000.0 590105.0 0
310000.0 590105.0 0
314000.0 590105.0 0
318000.0 590105.0 0
322000.0 590105.0 0
326000.0 590105.0 0
330000.0 590105.0 0
334000.0 590105.0 0
338000.0 590105.0 0
342000.0 590105.0 0
346000.0 590105.0 0
350000.0 590105.0 0
354000.0 590105.0 0
358000.0 590105.0 0
362000.0 590105.0 0
366000.0 590105.0 0
370000.0 590105.0 0
374000.0 590105.0 0
378000.0 590105.0 0
382000.0 590105.0 0
386000.0 590105.0 0
390000.0 590105.0 0
394000.0 590108.0 0
398000.0 590110.0 0
102000.0 594109.0 0
106000.0 594107.0 0
110000.0 594105.0 0
114000.0 594105.0 0
118000.0 594105.0 0
122000.0 594105.0 0
126000.0 594105.0 0
130000.0 594105.0 0
134000.0 594105.0 0
138000.0 594105.0 0
142000.0 594105.0 0
146000.0 594105.0 0
150000.0 594105.0 0
154000.0 594105.0 0
158000.0 594105.0 0
162000.0 594105.0 0
166000.0 594105.0 0
170000.0 594105.0 0
174000.0 594105.0 0
178000.0 594105.0 0
182000.0 594105.0 0
186000.0 594105.0 0
190000.0 594105.0 0
194000.0 594105.0 0
198000.0 594105.0 0
202000.0 594105.0 0
206000.0 594105.0 0
210000.0 594105.0 0
214000.0 594105.0 0
218000.0 594105.0 0
222000.0 594105.0 0
226000.0 594105.0 0
230000.0 594105.0 0
234000.0 594105.0 0
238000.0 594105.0 0
242000.0 594105.0 0
246000.0 594105.0 0
250000.0 594105.0 0
254000.0 594105.0 0
258000.0 594105.0 0
262000.0 594105.0 0
266000.0 594105.0 0
270000.0 594105.0 0
274000.0 594105.0 0
278000.0 594105.0 0
282000.0 594105.0 0
286000.0 594105.0 0
290000.0 594105.0 0
294000.0 594105.0 0
298000.0 594105.0 0
302000.0 594105.0 0
306000.0 594105.0 0
310000.0 594105.0 0
314000.0 594105.0 0
318000.0 594105.0 0
322000.0 594105.0 0
326000.0 594105.0 0
330000.0 594105.0 0
334000.0 594105.0 0
338000.0 594105.0 0
342000.0 594105.0 0
346000.0 594105.0 0
350000.0 594105.0 0
354000.0 594105.0 0
358000.0 594105.0 0
362000.0 594105.0 0
366000.0 594105.0 0
370000.0 594105.0 0
374000.0 594105.0 0
378000.0 594105.0 0
382000.0 594105.0 0
386000.0 594105.0 0
390000.0 594105.0 0
394000.0 594107.0 0
398000.0 594109.0 0
102000.0 598108.0 0
106000.0 598107.0 0
110000.0 598105.0 0
114000.0 598105.0 0
118000.0 598105.0 0
122000.0 598105.0 0
126000.0 598105.0 0
130000.0 598105.0 0
134000.0 598105.0 0
138000.0 598105.0 0
142000.0 598105.0 0
146000.0 598105.0 0
150000.0 598105.0 0
154000.0 598105.0 0
158000.0 598105.0 0
162000.0 598105.0 0
166000.0 598105.0 0
170000.0 598105.0 0
174000.0 598105.0 0
178000.0 598105.0 0
182000.0 598105.0 0
186000.0 598105.0 0
190000.0 598105.0 0
194000.0 598105.0 0
198000.0 598105.0 0
202000.0 598105.0 0
206000.0 598105.0 0
210000.0 598105.0 0
214000.0 598105.0 0
218000.0 598105.0 0
222000.0 598105.0 0
226000.0 598105.0 0
230000.0 598105.0 0
234000.0 598105.0 0
238000.0 598105.0 0
242000.0 598105.0 0
246000.0 598105.0 0
250000.0 598105.0 0
254000.0 598105.0 0
258000.0 598105.0 0
262000.0 598105.0 0
266000.0 598105.0 0
270000.0 598105.0 0
274000.0 598105.0 0
278000.0 598105.0 0
282000.0 598105.0 0
286000.0 598105.0 0
290000.0 598105.0 0
294000.0 598105.0 0
298000.0 598105.0 0
302000.0 598105.0 0
306000.0 598105.0 0
310000.0 598105.0 0
314000.0 598105.0 0
318000.0 598105.0 0
322000.0 598105.0 0
326000.0 598105.0 0
330000.0 598105.0 0
334000.0 598105.0 0
338000.0 598105.0 0
342000.0 598105.0 0
346000.0 598105.0 0
350000.0 598105.0 0
354000.0 598105.0 0
358000.0 598105.0 0
362000.0 598105.0 0
366000.0 598105.0 0
370000.0 598105.0 0
374000.0 598105.0 0
378000.0 598105.0 0
382000.0 598105.0 0
386000.0 598105.0 0
390000.0 598105.0 0
394000.0 598107.0 0
398000.0 598108.0 0
102000.0 602107.0 0
106000.0 602106.0 0
110000.0 602105.0 0
114000.0 602105.0 0
118000.0 602105.0 0
122000.0 602105.0 0
126000.0 602105.0 0
130000.0 602105.0 0
134000.0 602105.0 0
138000.0 602105.0 0
142000.0 602105.0 0
146000.0 602105.0 0
150000.0 602105.0 0
154000.0 602105.0 0
158000.0 602105.0 0
162000.0 602105.0 0
166000.0 602105.0 0
170000.0 602105.0 0
174000.0 602105.0 0
178000.0 602105.0 0
182000.0 602105.0 0
186000.0 602105.0 0
190000.0 602105.0 0
194000.0 602105.0 0
198000.0 602105.0 0
202000.0 602105.0 0
206000.0 602105.0 0
210000.0 602105.0 0
214000.0 602105.0 0
218000.0 602105.0 0
222000.0 602105.0 0
226000.0 602105.0 0
230000.0 602105.0 0
234000.0 602105.0 0
238000.0 602105.0 0
242000.0 602105.0 0
246000.0 602105.0 0
250000.0 602105.0 0
254000.0 602105.0 0
258000.0 602105.0 0
262000.0 602105.0 0
266000.0 602105.0 0
270000.0 602105.0 0
274000.0 602105.0 0
278000.0 602105.0 0
282000.0 602105.0 0
286000.0 602105.0 0
290000.0 602105.0 0
294000.0 602105.0 0
298000.0 602105.0 0
302000.0 602105.0 0
306000.0 602105.0 0
310000.0 602105.0 0
314000.0 602105.0 0
318000.0 602105.0 0
322000.0 602105.0 0
326000.0 602105.0 0
330000.0 602105.0 0
334000.0 602105.0 0
338000.0 602105.0 0
342000.0 602105.0 0
346000.0 602105.0 0
350000.0 602105.0 0
354000.0 602105.0 0
358000.0 602105.0 0
362000.0 602105.0 0
366000.0 602105.0 0
370000.0 602105.0 0
374000.0 602105.0 0
378000.0 602105.0 0
382000.0 602105.0 0
386000.0 602105.0 0
390000.0 602105.0 0
394000.0 602106.0 0
398000.0 602107.0 0
102000.0 606107.0 0
106000.0 606106.0 0
110000.0 606105.0 0
114000.0 606105.0 0
118000.0 606105.0 0
122000.0 606105.0 0
126000.0 606105.0 0
130000.0 606105.0 0
134000.0 606105.0 0
138000.0 606105.0 0
142000.0 606105.0 0
146000.0 606105.0 0
150000.0 606105.0 0
154000.0 606105.0 0
158000.0 606105.0 0
162000.0 606105.0 0
166000.0 606105.0 0
170000.0 606105.0 0
174000.0 606105.0 0
178000.0 606105.0 0
182000.0 606105.0 0
186000.0 606105.0 0
190000.0 606105.0 0
194000.0 606105.0 0
198000.0 606105.0 0
202000.0 606105.0 0
206000.0 606105.0 0
210000.0 606105.0 0
214000.0 606105.0 0
218000.0 606105.0 0
222000.0 606105.0 0
226000.0 606105.0 0
230000.0 606105.0 0
234000.0 606105.0 0
238000.0 606105.0 0
242000.0 606105.0 0
246000.0 606105.0 0
250000.0 606105.0 0
254000.0 606105.0 0
258000.0 606105.0 0
262000.0 606105.0 0
266000.0 606105.0 0
270000.0 606105.0 0
274000.0 606105.0 0
278000.0 606105.0 0
282000.0 606105.0 0
286000.0 606105.0 0
290000.0 606105.0 0
294000.0 606105.0 0
298000.0 606105.0 0
302000.0 606105.0 0
306000.0 606105.0 0
310000.0 606105.0 0
314000.0 606105.0 0
318000.0 606105.0 0
322000.0 606105.0 0
326000.0 606105.0 0
330000.0 606105.0 0
334000.0 606105.0 0
338000.0 606105.0 0
342000.0 606105.0 0
346000.0 606105.0 0
350000.0 606105.0 0
354000.0 606105.0 0
358000.0 606105.0 0
362000.0 606105.0 0
366000.0 606105.0 0
370000.0 606105.0 0
374000.0 606105.0 0
378000.0 606105.0 0
382000.0 606105.0 0
386000.0 606105.0 0
390000.0 606105.0 0
394000.0 606106.0 0
398000.0 606107.0 0
102000.0 610107.0 0
106000.0 610106.0 0
110000.0 610105.0 0
114000.0 610105.0 0
118000.0 610105.0 0
122000.0 610105.0 0
126000.0 610105.0 0
130000.0 610105.0 0
134000.0 610105.0 0
138000.0 610105.0 0
142000.0 610105.0 0
146000.0 610105.0 0
150000.0 610105.0 0
154000.0 610105.0 0
158000.0 610105.0 0
162000.0 610105.0 0
166000.0 610105.0 0
170000.0 610105.0 0
174000.0 610105.0 0
178000.0 610105.0 0
182000.0 610105.0 0
186000.0 610105.0 0
190000.0 610105.0 0
194000.0 610105.0 0
198000.0 610105.0 0
202000.0 610105.0 0
206000.0 610105.0 0
210000.0 610105.0 0
214000.0 610105.0 0
218000.0 610105.0 0
222000.0 610105.0 0
226000.0 610105.0 0
230000.0 610105.0 0
234000.0 610105.0 0
238000.0 610105.0 0
242000.0 610105.0 0
246000.0 610105.0 0
250000.0 610105.0 0
254000.0 610105.0 0
258000.0 610105.0 0
262000.0 610105.0 0
266000.0 610105.0 0
270000.0 610105.0 0
274000.0 610105.0 0
278000.0 610105.0 0
282000.0 610105.0 0
286000.0 610105.0 0
290000.0 610105.0 0
294000.0 610105.0 0
298000.0 610105.0 0
302000.0 610105.0 0
306000.0 610105.0 0
310000.0 610105.0 0
314000.0 610105.0 0
318000.0 610105.0 0
322000.0 610105.0 0
326000.0 610105.0 0
330000.0 610105.0 0
334000.0 610105.0 0
338000.0 610105.0 0
342000.0 610105.0 0
346000.0 610105.0 0
350000.0 610105.0 0
354000.0 610105.0 0
358000.0 610105.0 0
362000.0 610105.0 0
366000.0 610105.0 0
370000.0 610105.0 0
374000.0 610105.0 0
378000.0 610105.0 0
382000.0 610105.0 0
386000.0 610105.0 0
390000.0 610105.0 0
394000.0 610106.0 0
398000.0 610107.0 0
102000.0 614106.0 0
106000.0 614105.0 0
110000.0 614105.0 0
114000.0 614105.0 0
118000.0 614105.0 0
122000.0 614105.0 0
126000.0 614105.0 0
130000.0 614105.0 0
134000.0 614105.0 0
138000.0 614105.0 0
142000.0 614105.0 0
146000.0 614105.0 0
150000.0 614105.0 0
154000.0 614105.0 0
158000.0 614105.0 0
162000.0 614105.0 0
166000.0 614105.0 0
170000.0 614105.0 0
174000.0 614105.0 0
178000.0 614105.0 0
182000.0 614105.0 0
186000.0 614105.0 0
190000.0 614105.0 0
194000.0 614105.0 0
198000.0 614105.0 0
202000.0 614105.0 0
206000.0 614105.0 0
210000.0 614105.0 0
214000.0 614105.0 0
218000.0 614105.0 0
222000.0 614105.0 0
226000.0 614105.0 0
230000.0 614105.0 0
234000.0 614105.0 0
238000.0 614105.0 0
242000.0 614105.0 0
246000.0 614105.0 0
250000.0 614105.0 0
254000.0 614105.0 0
258000.0 614105.0 0
262000.0 614105.0 0
266000.0 614105.0 0
270000.0 614105.0 0
274000.0 614105.0 0
278000.0 614105.0 0
282000.0 614105.0 0
286000.0 614105.0 0
290000.0 614105.0 0
294000.0 614105.0 0
298000.0 614105.0 0
302000.0 614105.0 0
306000.0 614105.0 0
310000.0 614105.0 0
314000.0 614105.0 0
318000.0 614105.0 0
322000.0 614105.0 0
326000.0 614105.0 0
330000.0 614105.0 0
334000.0 614105.0 0
338000.0 614105.0 0
342000.0 614105.0 0
346000.0 614105.0 0
350000.0 614105.0 0
354000.0 614105.0 0
358000.0 614105.0 0
362000.0 614105.0 0
366000.0 614105.0 0
370000.0 614105.0 0
374000.0 614105.0 0
378000.0 614105.0 0
382000.0 614105.0 0
386000.0 614105.0 0
390000.0 614105.0 0
394000.0 614105.0 0
398000.0 614106.0 0
102000.0 618106.0 0
106000.0 618105.0 0
110000.0 618105.0 0
114000.0 618105.0 0
118000.0 618105.0 0
122000.0 618105.0 0
126000.0 618105.0 0
130000.0 618105.0 0
134000.0 618105.0 0
138000.0 618105.0 0
142000.0 618105.0 0
146000.0 618105.0 0
150000.0 618105.0 0
154000.0 618105.0 0
158000.0 618105.0 0
162000.0 618105.0 0
166000.0 618105.0 0
170000.0 618105.0 0
174000.0 618105.0 0
178000.0 618105.0 0
182000.0 618105.0 0
186000.0 618105.0 0
190000.0 618105.0 0
194000.0 618105.0 0
198000.0 618105.0 0
202000.0 618105.0 0
206000.0 618105.0 0
210000.0 618105.0 0
214000.0 618105.0 0
218000.0 618105.0 0
222000.0 618105.0 0
226000.0 618105.0 0
230000.0 618105.0 0
234000.0 618105.0 0
238000.0 618105.0 0
242000.0 618105.0 0
246000.0 618105.0 0
250000.0 618105.0 0
254000.0 618105.0 0
258000.0 618105.0 0
262000.0 618105.0 0
266000.0 618105.0 0
270000.0 618105.0 0
274000.0 618105.0 0
278000.0 618105.0 0
282000.0 618105.0 0
286000.0 618105.0 0
290000.0 618105.0 0
294000.0 618105.0 0
298000.0 618105.0 0
302000.0 618105.0 0
306000.0 618105.0 0
310000.0 618105.0 0
314000.0 618105.0 0
318000.0 618105.0 0
322000.0 618105.0 0
326000.0 618105.0 0
330000.0 618105.0 0
334000.0 618105.0 0
338000.0 618105.0 0
342000.0 618105.0 0
346000.0 618105.0 0
350000.0 618105.0 0
354000.0 618105.0 0
358000.0 618105.0 0
362000.0 618105.0 0
366000.0 618105.0 0
370000.0 618105.0 0
374000.0 618105.0 0
378000.0 618105.0 0
382000.0 618105.0 0
386000.0 618105.0 0
390000.0 618105.0 0
394000.0 618105.0 0
398000.0 618106.0 0
102000.0 622106.0 0
106000.0 622105.0 0
110000.0 622105.0 0
114000.0 622105.0 0
118000.0 622105.0 0
122000.0 622105.0 0
126000.0 622105.0 0
130000.0 622105.0 0
134000.0 622105.0 0
138000.0 622105.0 0
142000.0 622105.0 0
146000.0 622105.0 0
150000.0 622105.0 0
154000.0 622105.0 0
158000.0 622105.0 0
162000.0 622105.0 0
166000.0 622105.0 0
170000.0 622105.0 0
174000.0 622105.0 0
178000.0 622105.0 0
182000.0 622105.0 0
186000.0 622105.0 0
190000.0 622105.0 0
194000.0 622105.0 0
198000.0 622105.0 0
202000.0 622105.0 0
206000.0 622105.0 0
210000.0 622105.0 0
214000.0 622105.0 0
218000.0 622105.0 0
222000.0 622105.0 0
226000.0 622105.0 0
230000.0 622105.0 0
234000.0 622105.0 0
238000.0 622105.0 0
242000.0 622105.0 0
246000.0 622105.0 0
250000.0 622105.0 0
254000.0 622105.0 0
258000.0 622105.0 0
262000.0 622105.0 0
266000.0 622105.0 0
270000.0 622105.0 0
274000.0 622105.0 0
278000.0 622105.0 0
282000.0 622105.0 0
286000.0 622105.0 0
290000.0 622105.0 0
294000.0 622105.0 0
298000.0 622105.0 0
302000.0 622105.0 0
306000.0 622105.0 0
310000.0 622105.0 0
314000.0 622105.0 0
318000.0 622105.0 0
322000.0 622105.0 0
326000.0 622105.0 0
330000.0 622105.0 0
334000.0 622105.0 0
338000.0 622105.0 0
342000.0 622105.0 0
346000.0 622105.0 0
350000.0 622105.0 0
354000.0 622105.0 0
358000.0 622105.0 0
362000.0 622105.0 0
366000.0 622105.0 0
370000.0 622105.0 0
374000.0 622105.0 0
378000.0 622105.0 0
382000.0 622105.0 0
386000.0 622105.0 0
390000.0 622105.0 0
394000.0 622105.0 0
398000.0 622106.0 0
102000.0 626106.0 0
106000.0 626105.0 0
110000.0 626105.0 0
114000.0 626105.0 0
118000.0 626105.0 0
122000.0 626105.0 0
126000.0 626105.0 0
130000.0 626105.0 0
134000.0 626105.0 0
138000.0 626105.0 0
142000.0 626105.0 0
146000.0 626105.0 0
150000.0 626105.0 0
154000.0 626105.0 0
158000.0 626105.0 0
162000.0 626105.0 0
166000.0 626105.0 0
170000.0 626105.0 0
174000.0 626105.0 0
178000.0 626105.0 0
182000.0 626105.0 0
186000.0 626105.0 0
190000.0 626105.0 0
194000.0 626105.0 0
198000.0 626105.0 0
202000.0 626105.0 0
206000.0 626105.0 0
210000.0 626105.0 0
214000.0 626105.0 0
218000.0 626105.0 0
222000.0 626105.0 0
226000.0 626105.0 0
230000.0 626105.0 0
234000.0 626105.0 0
238000.0 626105.0 0
242000.0 626105.0 0
246000.0 626105.0 0
250000.0 626105.0 0
254000.0 626105.0 0
258000.0 626105.0 0
262000.0 626105.0 0
266000.0 626105.0 0
270000.0 626105.0 0
274000.0 626105.0 0
278000.0 626105.0 0
282000.0 626105.0 0
286000.0 626105.0 0
290000.0 626105.0 0
294000.0 626105.0 0
298000.0 626105.0 0
302000.0 626105.0 0
306000.0 626105.0 0
310000.0 626105.0 0
314000.0 626105.0 0
318000.0 626105.0 0
322000.0 626105.0 0
326000.0 626105.0 0
330000.0 626105.0 0
334000.0 626105.0 0
338000.0 626105.0 0
342000.0 626105.0 0
346000.0 626105.0 0
350000.0 626105.0 0
354000.0 626105.0 0
358000.0 626105.0 0
362000.0 626105.0 0
366000.0 626105.0 0
370000.0 626105.0 0
374000.0 626105.0 0
378000.0 626105.0 0
382000.0 626105.0 0
386000.0 626105.0 0
390000.0 626105.0 0
394000.0 626105.0 0
398000.0 626106.0 0
102000.0 630105.0 0
106000.0 630105.0 0
110000.0 630105.0 0
114000.0 630105.0 0
118000.0 630105.0 0
122000.0 630105.0 0
126000.0 630105.0 0
130000.0 630105.0 0
134000.0 630105.0 0
138000.0 630105.0 0
142000.0 630105.0 0
146000.0 630105.0 0
150000.0 630105.0 0
154000.0 630105.0 0
158000.0 630105.0 0
162000.0 630105.0 0
166000.0 630105.0 0
170000.0 630105.0 0
174000.0 630105.0 0
178000.0 630105.0 0
182000.0 630105.0 0
186000.0 630105.0 0
190000.0 630105.0 0
194000.0 630105.0 0
198000.0 630105.0 0
202000.0 630105.0 0
206000.0 630105.0 0
210000.0 630105.0 0
214000.0 630105.0 0
218000.0 630105.0 0
222000.0 630105.0 0
226000.0 630105.0 0
230000.0 630105.0 0
234000.0 630105.0 0
238000.0 630105.0 0
242000.0 630105.0 0
246000.0 630105.0 0
250000.0 630105.0 0
254000.0 630105.0 0
258000.0 630105.0 0
262000.0 630105.0 0
266000.0 630105.0 0
270000.0 630105.0 0
274000.0 630105.0 0
278000.0 630105.0 0
282000.0 630105.0 0
286000.0 630105.0 0
290000.0 630105.0 0
294000.0 630105.0 0
298000.0 630105.0 0
302000.0 630105.0 0
306000.0 630105.0 0
310000.0 630105.0 0
314000.0 630105.0 0
318000.0 630105.0 0
322000.0 630105.0 0
326000.0 630105.0 0
330000.0 630105.0 0
334000.0 630105.0 0
338000.0 630105.0 0
342000.0 630105.0 0
346000.0 630105.0 0
350000.0 630105.0 0
354000.0 630105.0 0
358000.0 630105.0 0
362000.0 630105.0 0
366000.0 630105.0 0
370000.0 630105.0 0
374000.0 630105.0 0
378000.0 630105.0 0
382000.0 630105.0 0
386000.0 630105.0 0
390000.0 630105.0 0
394000.0 630105.0 0
398000.0 630105.0 0
102000.0 634105.0 0
106000.0 634105.0 0
110000.0 634105.0 0
114000.0 634105.0 0
118000.0 634105.0 0
122000.0 634105.0 0
126000.0 634105.0 0
130000.0 634105.0 0
134000.0 634105.0 0
138000.0 634105.0 0
142000.0 634105.0 0
146000.0 634105.0 0
150000.0 634105.0 0
154000.0 634105.0 0
158000.0 634105.0 0
162000.0 634105.0 0
166000.0 634105.0 0
170000.0 634105.0 0
174000.0 634105.0 0
178000.0 634105.0 0
182000.0 634105.0 0
186000.0 634105.0 0
190000.0 634105.0 0
194000.0 634105.0 0
198000.0 634105.0 0
202000.0 634105.0 0
206000.0 634105.0 0
210000.0 634105.0 0
214000.0 634105.0 0
218000.0 634105.0 0
222000.0 634105.0 0
226000.0 634105.0 0
230000.0 634105.0 0
234000.0 634105.0 0
238000.0 634105.0 0
242000.0 634105.0 0
246000.0 634105.0 0
250000.0 634105.0 0
254000.0 634105.0 0
258000.0 634105.0 0
262000.0 634105.0 0
266000.0 634105.0 0
270000.0 634105.0 0
274000.0 634105.0 0
278000.0 634105.0 0
282000.0 634105.0 0
286000.0 634105.0 0
290000.0 634105.0 0
294000.0 634105.0 0
298000.0 634105.0 0
302000.0 634105.0 0
306000.0 634105.0 0
310000.0 634105.0 0
314000.0 634105.0 0
318000.0 634105.0 0
322000.0 634105.0 0
326000.0 634105.0 0
330000.0 634105.0 0
334000.0 634105.0 0
338000.0 634105.0 0
342000.0 634105.0 0
346000.0 634105.0 0
350000.0 634105.0 0
354000.0 634105.0 0
358000.0 634105.0 0
362000.0 634105.0 0
366000.0 634105.0 0
370000.0 634105.0 0
374000.0 634105.0 0
378000.0 634105.0 0
382000.0 634105.0 0
386000.0 634105.0 0
390000.0 634105.0 0
394000.0 634105.0 0
398000.0 634105.0 0
102000.0 638105.0 0
106000.0 638105.0 0
110000.0 638105.0 0
114000.0 638105.0 0
118000.0 638105.0 0
122000.0 638105.0 0
126000.0 638105.0 0
130000.0 638105.0 0
134000.0 638105.0 0
138000.0 638105.0 0
142000.0 638105.0 0
146000.0 638105.0 0
150000.0 638105.0 0
154000.0 638105.0 0
158000.0 638105.0 0
162000.0 638105.0 0
166000.0 638105.0 0
170000.0 638105.0 0
174000.0 638105.0 0
178000.0 638105.0 0
182000.0 638105.0 0
186000.0 638105.0 0
190000.0 638105.0 0
194000.0 638105.0 0
198000.0 638105.0 0
202000.0 638105.0 0
206000.0 638105.0 0
210000.0 638105.0 0
214000.0 638105.0 0
218000.0 638105.0 0
222000.0 638105.0 0
226000.0 638105.0 0
230000.0 638105.0 0
234000.0 638105.0 0
238000.0 638105.0 0
242000.0 638105.0 0
246000.0 638105.0 0
250000.0 638105.0 0
254000.0 638105.0 0
258000.0 638105.0 0
262000.0 638105.0 0
266000.0 638105.0 0
270000.0 638105.0 0
274000.0 638105.0 0
278000.0 638105.0 0
282000.0 638105.0 0
286000.0 638105.0 0
290000.0 638105.0 0
294000.0 638105.0 0
298000.0 638105.0 0
302000.0 638105.0 0
306000.0 638105.0 0
310000.0 638105.0 0
314000.0 638105.0 0
318000.0 638105.0 0
322000.0 638105.0 0
326000.0 638105.0 0
330000.0 638105.0 0
334000.0 638105.0 0
338000.0 638105.0 0
342000.0 638105.0 0
346000.0 638105.0 0
350000.0 638105.0 0
354000.0 638105.0 0
358000.0 638105.0 0
362000.0 638105.0 0
366000.0 638105.0 0
370000.0 638105.0 0
374000.0 638105.0 0
378000.0 638105.0 0
382000.0 638105.0 0
386000.0 638105.0 0
390000.0 638105.0 0
394000.0 638105.0 0
398000.0 638105.0 0
102000.0 642105.0 0
106000.0 642105.0 0
110000.0 642105.0 0
114000.0 642105.0 0
118000.0 642105.0 0
122000.0 642105.0 0
126000.0 642105.0 0
130000.0 642105.0 0
134000.0 642105.0 0
138000.0 642105.0 0
142000.0 642105.0 0
146000.0 642105.0 0
150000.0 642105.0 0
154000.0 642105.0 0
158000.0 642105.0 0
162000.0 642105.0 0
166000.0 642105.0 0
170000.0 642105.0 0
174000.0 642105.0 0
178000.0 642105.0 0
182000.0 642105.0 0
186000.0 642105.0 0
190000.0 642105.0 0
194000.0 642105.0 0
198000.0 642105.0 0
202000.0 642105.0 0
206000.0 642105.0 0
210000.0 642105.0 0
214000.0 642105.0 0
218000.0 642105.0 0
222000.0 642105.0 0
226000.0 642105.0 0
230000.0 642105.0 0
234000.0 642105.0 0
238000.0 642105.0 0
242000.0 642105.0 0
246000.0 642105.0 0
250000.0 642105.0 0
254000.0 642105.0 0
258000.0 642105.0 0
262000.0 642105.0 0
266000.0 642105.0 0
270000.0 642105.0 0
274000.0 642105.0 0
278000.0 642105.0 0
282000.0 642105.0 0
286000.0 642105.0 0
290000.0 642105.0 0
294000.0 642105.0 0
298000.0 642105.0 0
302000.0 642105.0 0
306000.0 642105.0 0
310000.0 642105.0 0
314000.0 642105.0 0
318000.0 642105.0 0
322000.0 642105.0 0
326000.0 642105.0 0
330000.0 642105.0 0
334000.0 642105.0 0
338000.0 642105.0 0
342000.0 642105.0 0
346000.0 642105.0 0
350000.0 642105.0 0
354000.0 642105.0 0
358000.0 642105.0 0
362000.0 642105.0 0
366000.0 642105.0 0
370000.0 642105.0 0
374000.0 642105.0 0
378000.0 642105.0 0
382000.0 642105.0 0
386000.0 642105.0 0
390000.0 642105.0 0
394000.0 642105.0 0
398000.0 642105.0 0
102000.0 646105.0 0
106000.0 646105.0 0
110000.0 646105.0 0
114000.0 646105.0 0
118000.0 646105.0 0
122000.0 646105.0 0
126000.0 646105.0 0
130000.0 646105.0 0
134000.0 646105.0 0
138000.0 646105.0 0
142000.0 646105.0 0
146000.0 646105.0 0
150000.0 646105.0 0
154000.0 646105.0 0
158000.0 646105.0 0
162000.0 646105.0 0
166000.0 646105.0 0
170000.0 646105.0 0
174000.0 646105.0 0
178000.0 646105.0 0
182000.0 646105.0 0
186000.0 646105.0 0
190000.0 646105.0 0
194000.0 646105.0 0
198000.0 646105.0 0
202000.0 646105.0 0
206000.0 646105.0 0
210000.0 646105.0 0
214000.0 646105.0 0
218000.0 646105.0 0
222000.0 646105.0 0
226000.0 646105.0 0
230000.0 646105.0 0
234000.0 646105.0 0
238000.0 646105.0 0
242000.0 646105.0 0
246000.0 646105.0 0
250000.0 646105.0 0
254000.0 646105.0 0
258000.0 646105.0 0
262000.0 646105.0 0
266000.0 646105.0 0
270000.0 646105.0 0
274000.0 646105.0 0
278000.0 646105.0 0
282000.0 646105.0 0
286000.0 646105.0 0
290000.0 646105.0 0
294000.0 646105.0 0
298000.0 646105.0 0
302000.0 646105.0 0
306000.0 646105.0 0
310000.0 646105.0 0
314000.0 646105.0 0
318000.0 646105.0 0
322000.0 646105.0 0
326000.0 646105.0 0
330000.0 646105.0 0
334000.0 646105.0 0
338000.0 646105.0 0
342000.0 646105.0 0
346000.0 646105.0 0
350000.0 646105.0 0
354000.0 646105.0 0
358000.0 646105.0 0
362000.0 646105.0 0
366000.0 646105.0 0
370000.0 646105.0 0
374000.0 646105.0 0
378000.0 646105.0 0
382000.0 646105.0 0
386000.0 646105.0 0
390000.0 646105.0 0
394000.0 646105.0 0
398000.0 646105.0 0
102000.0 650105.0 0
106000.0 650105.0 0
110000.0 650105.0 0
114000.0 650105.0 0
118000.0 650105.0 0
122000.0 650105.0 0
126000.0 650105.0 0
130000.0 650105.0 0
134000.0 650105.0 0
138000.0 650105.0 0
142000.0 650105.0 0
146000.0 650105.0 0
150000.0 650105.0 0
154000.0 650105.0 0
158000.0 650105.0 0
162000.0 650105.0 0
166000.0 650105.0 0
170000.0 650105.0 0
174000.0 650105.0 0
178000.0 650105.0 0
182000.0 650105.0 0
186000.0 650105.0 0
190000.0 650105.0 0
194000.0 650105.0 0
198000.0 650105.0 0
202000.0 650105.0 0
206000.0 650105.0 0
210000.0 650105.0 0
214000.0 650105.0 0
218000.0 650105.0 0
222000.0 650105.0 0
226000.0 650105.0 0
230000.0 650105.0 0
234000.0 650105.0 0
238000.0 650105.0 0
242000.0 650105.0 0
246000.0 650105.0 0
250000.0 650105.0 0
254000.0 650105.0 0
258000.0 650105.0 0
262000.0 650105.0 0
266000.0 650105.0 0
270000.0 650105.0 0
274000.0 650105.0 0
278000.0 650105.0 0
282000.0 650105.0 0
286000.0 650105.0 0
290000.0 650105.0 0
294000.0 650105.0 0
298000.0 650105.0 0
302000.0 650105.0 0
306000.0 650105.0 0
310000.0 650105.0 0
314000.0 650105.0 0
318000.0 650105.0 0
322000.0 650105.0 0
326000.0 650105.0 0
330000.0 650105.0 0
334000.0 650105.0 0
338000.0 650105.0 0
342000.0 650105.0 0
346000.0 650105.0 0
350000.0 650105.0 0
354000.0 650105.0 0
358000.0 650105.0 0
362000.0 650105.0 0
366000.0 650105.0 0
370000.0 650105.0 0
374000.0 650105.0 0
378000.0 650105.0 0
382000.0 650105.0 0
386000.0 650105.0 0
390000.0 650105.0 0
394000.0 650105.0 0
398000.0 650105.0 0
102000.0 654105.0 0
106000.0 654105.0 0
110000.0 654105.0 0
114000.0 654105.0 0
118000.0 654105.0 0
122000.0 654105.0 0
126000.0 654105.0 0
130000.0 654105.0 0
134000.0 654105.0 0
138000.0 654105.0 0
142000.0 654105.0 0
146000.0 654105.0 0
150000.0 654105.0 0
154000.0 654105.0 0
158000.0 654105.0 0
162000.0 654105.0 0
166000.0 654105.0 0
170000.0 654105.0 0
174000.0 654105.0 0
178000.0 654105.0 0
182000.0 654105.0 0
186000.0 654105.0 0
190000.0 654105.0 0
194000.0 654105.0 0
198000.0 654105.0 0
202000.0 654105.0 0
206000.0 654105.0 0
210000.0 654105.0 0
214000.0 654105.0 0
218000.0 654105.0 0
222000.0 654105.0 0
226000.0 654105.0 0
230000.0 654105.0 0
234000.0 654105.0 0
238000.0 654105.0 0
242000.0 654105.0 0
246000.0 654105.0 0
250000.0 654105.0 0
254000.0 654105.0 0
258000.0 654105.0 0
262000.0 654105.0 0
266000.0 654105.0 0
270000.0 654105.0 0
274000.0 654105.0 0
278000.0 654105.0 0
282000.0 654105.0 0
286000.0 654105.0 0
290000.0 654105.0 0
294000.0 654105.0 0
298000.0 654105.0 0
302000.0 654105.0 0
306000.0 654105.0 0
310000.0 654105.0 0
314000.0 654105.0 0
318000.0 654105.0 0
322000.0 654105.0 0
326000.0 654105.0 0
330000.0 654105.0 0
334000.0 654105.0 0
338000.0 654105.0 0
342000.0 654105.0 0
346000.0 654105.0 0
350000.0 654105.0 0
354000.0 654105.0 0
358000.0 654105.0 0
362000.0 654105.0 0
366000.0 654105.0 0
370000.0 654105.0 0
374000.0 654105.0 0
378000.0 654105.0 0
382000.0 654105.0 0
386000.0 654105.0 0
390000.0 654105.0 0
394000.0 654105.0 0
398000.0 654105.0 0
102000.0 658105.0 0
106000.0 658105.0 0
110000.0 658105.0 0
114000.0 658105.0 0
118000.0 658105.0 0
122000.0 658105.0 0
126000.0 658105.0 0
130000.0 658105.0 0
134000.0 658105.0 0
138000.0 658105.0 0
142000.0 658105.0 0
146000.0 658105.0 0
150000.0 658105.0 0
154000.0 658105.0 0
158000.0 658105.0 0
162000.0 658105.0 0
166000.0 658105.0 0
170000.0 658105.0 0
174000.0 658105.0 0
178000.0 658105.0 0
182000.0 658105.0 0
186000.0 658105.0 0
190000.0 658105.0 0
194000.0 658105.0 0
198000.0 658105.0 0
202000.0 658105.0 0
206000.0 658105.0 0
210000.0 658105.0 0
214000.0 658105.0 0
218000.0 658105.0 0
222000.0 658105.0 0
226000.0 658105.0 0
230000.0 658105.0 0
234000.0 658105.0 0
238000.0 658105.0 0
242000.0 658105.0 0
246000.0 658105.0 0
250000.0 658105.0 0
254000.0 658105.0 0
258000.0 658105.0 0
262000.0 658105.0 0
266000.0 658105.0 0
270000.0 658105.0 0
274000.0 658105.0 0
278000.0 658105.0 0
282000.0 658105.0 0
286000.0 658105.0 0
290000.0 658105.0 0
294000.0 658105.0 0
298000.0 658105.0 0
302000.0 658105.0 0
306000.0 658105.0 0
310000.0 658105.0 0
314000.0 658105.0 0
318000.0 658105.0 0
322000.0 658105.0 0
326000.0 658105.0 0
330000.0 658105.0 0
334000.0 658105.0 0
338000.0 658105.0 0
342000.0 658105.0 0
346000.0 658105.0 0
350000.0 658105.0 0
354000.0 658105.0 0
358000.0 658105.0 0
362000.0 658105.0 0
366000.0 658105.0 0
370000.0 658105.0 0
374000.0 658105.0 0
378000.0 658105.0 0
382000.0 658105.0 0
386000.0 658105.0 0
390000.0 658105.0 0
394000.0 658105.0 0
398000.0 658105.0 0
102000.0 662105.0 0
106000.0 662105.0 0
110000.0 662105.0 0
114000.0 662105.0 0
118000.0 662105.0 0
122000.0 662105.0 0
126000.0 662105.0 0
130000.0 662105.0 0
134000.0 662105.0 0
138000.0 662105.0 0
142000.0 662105.0 0
146000.0 662105.0 0
150000.0 662105.0 0
154000.0 662105.0 0
158000.0 662105.0 0
162000.0 662105.0 0
166000.0 662105.0 0
170000.0 662105.0 0
174000.0 662105.0 0
178000.0 662105.0 0
182000.0 662105.0 0
186000.0 662105.0 0
190000.0 662105.0 0
194000.0 662105.0 0
198000.0 662105.0 0
202000.0 662105.0 0
206000.0 662105.0 0
210000.0 662105.0 0
214000.0 662105.0 0
218000.0 662105.0 0
222000.0 662105.0 0
226000.0 662105.0 0
230000.0 662105.0 0
234000.0 662105.0 0
238000.0 662105.0 0
242000.0 662105.0 0
246000.0 662105.0 0
250000.0 662105.0 0
254000.0 662105.0 0
258000.0 662105.0 0
262000.0 662105.0 0
266000.0 662105.0 0
270000.0 662105.0 0
274000.0 662105.0 0
278000.0 662105.0 0
282000.0 662105.0 0
286000.0 662105.0 0
290000.0 662105.0 0
294000.0 662105.0 0
298000.0 662105.0 0
302000.0 662105.0 0
306000.0 662105.0 0
310000.0 662105.0 0
314000.0 662105.0 0
318000.0 662105.0 0
322000.0 662105.0 0
326000.0 662105.0 0
330000.0 662105.0 0
334000.0 662105.0 0
338000.0 662105.0 0
342000.0 662105.0 0
346000.0 662105.0 0
350000.0 662105.0 0
354000.0 662105.0 0
358000.0 662105.0 0
362000.0 662105.0 0
366000.0 662105.0 0
370000.0 662105.0 0
374000.0 662105.0 0
378000.0 662105.0 0
382000.0 662105.0 0
386000.0 662105.0 0
390000.0 662105.0 0
394000.0 662105.0 0
398000.0 662105.0 0
102000.0 666105.0 0
106000.0 666105.0 0
110000.0 666105.0 0
114000.0 666105.0 0
118000.0 666105.0 0
122000.0 666105.0 0
126000.0 666105.0 0
130000.0 666105.0 0
134000.0 666105.0 0
138000.0 666105.0 0
142000.0 666105.0 0
146000.0 666105.0 0
150000.0 666105.0 0
154000.0 666105.0 0
158000.0 666105.0 0
162000.0 666105.0 0
166000.0 666105.0 0
170000.0 666105.0 0
174000.0 666105.0 0
178000.0 666105.0 0
182000.0 666105.0 0
186000.0 666105.0 0
190000.0 666105.0 0
194000.0 666105.0 0
198000.0 666105.0 0
202000.0 666105.0 0
206000.0 666105.0 0
210000.0 666105.0 0
214000.0 666105.0 0
218000.0 666105.0 0
222000.0 666105.0 0
226000.0 666105.0 0
230000.0 666105.0 0
234000.0 666105.0 0
238000.0 666105.0 0
242000.0 666105.0 0
246000.0 666105.0 0
250000.0 666105.0 0
254000.0 666105.0 0
258000.0 666105.0 0
262000.0 666105.0 0
266000.0 666105.0 0
270000.0 666105.0 0
274000.0 666105.0 0
278000.0 666105.0 0
282000.0 666105.0 0
286000.0 666105.0 0
290000.0 666105.0 0
294000.0 666105.0 0
298000.0 666105.0 0
302000.0 666105.0 0
306000.0 666105.0 0
310000.0 666105.0 0
314000.0 666105.0 0
318000.0 666105.0 0
322000.0 666105.0 0
326000.0 666105.0 0
330000.0 666105.0 0
334000.0 666105.0 0
338000.0 666105.0 0
342000.0 666105.0 0
346000.0 666105.0 0
350000.0 666105.0 0
354000.0 666105.0 0
358000.0 666105.0 0
362000.0 666105.0 0
366000.0 666105.0 0
370000.0 666105.0 0
374000.0 666105.0 0
378000.0 666105.0 0
382000.0 666105.0 0
386000.0 666105.0 0
390000.0 666105.0 0
394000.0 666105.0 0
398000.0 666105.0 0
102000.0 670105.0 0
106000.0 670105.0 0
110000.0 670105.0 0
114000.0 670105.0 0
118000.0 670105.0 0
122000.0 670105.0 0
126000.0 670105.0 0
130000.0 670105.0 0
134000.0 670105.0 0
138000.0 670105.0 0
142000.0 670105.0 0
146000.0 670105.0 0
150000.0 670105.0 0
154000.0 670105.0 0
158000.0 670105.0 0
162000.0 670105.0 0
166000.0 670105.0 0
170000.0 670105.0 0
174000.0 670105.0 0
178000.0 670105.0 0
182000.0 670105.0 0
186000.0 670105.0 0
190000.0 670105.0 0
194000.0 670105.0 0
198000.0 670105.0 0
202000.0 670105.0 0
206000.0 670105.0 0
210000.0 670105.0 0
214000.0 670105.0 0
218000.0 670105.0 0
222000.0 670105.0 0
226000.0 670105.0 0
230000.0 670105.0 0
234000.0 670105.0 0
238000.0 670105.0 0
242000.0 670105.0 0
246000.0 670105.0 0
250000.0 670105.0 0
254000.0 670105.0 0
258000.0 670105.0 0
262000.0 670105.0 0
266000.0 670105.0 0
270000.0 670105.0 0
274000.0 670105.0 0
278000.0 670105.0 0
282000.0 670105.0 0
286000.0 670105.0 0
290000.0 670105.0 0
294000.0 670105.0 0
298000.0 670105.0 0
302000.0 670105.0 0
306000.0 670105.0 0
310000.0 670105.0 0
314000.0 670105.0 0
318000.0 670105.0 0
322000.0 670105.0 0
326000.0 670105.0 0
330000.0 670105.0 0
334000.0 670105.0 0
338000.0 670105.0 0
342000.0 670105.0 0
346000.0 670105.0 0
350000.0 670105.0 0
354000.0 670105.0 0
358000.0 670105.0 0
362000.0 670105.0 0
366000.0 670105.0 0
370000.0 670105.0 0
374000.0 670105.0 0
378000.0 670105.0 0
382000.0 670105.0 0
386000.0 670105.0 0
390000.0 670105.0 0
394000.0 670105.0 0
398000.0 670105.0 0
POINT_DATA 4650
SCALARS Radius float 1
LOOKUP_TABLE default
4000.0 4000.0 4000.0 4000.0 4000.0 4000.0 4000.0 4000.0 4000.0 4000.0 4000.0 4000.0 4000.0 4000.0 4000.0 4000.0 4000.0 4000.0 4000.0 4000.0 4000.0 4000.0 4000.0 4000.0 4000.0 4000.0 4000.0 4000.0 4000.0 4000.0 4000.0 4000.0 4000.0 4000.0 4000.0 4000.0 4000.0 4000.0 4000.0 4000.0 4000.0 4000.0 4000.0 4000.0 4000.0 4000.0 4000.0 4000.0 4000.0 4000.0 4000.0 4000.0 4000.0 4000.0 4000.0 4000.0 4000.0 4000.0 4000.0 4000.0 4000.0 4000.0 4000.0 4000.0 4000.0 4000.0 4000.0 4000.0 4000.0 4000.0 4000.0 4000.0 4000.0 4000.0 4000.0 4000.0 4000.0 4000.0 4000.0 4000.0 4000.0 4000.0 4000.0 4000.0 4000.0 4000.0 4000.0 4000.0 4000.0 4000.0 4000.0 4000.0 4000.0 4000.0 4000.0 4000.0 4000.0 4000.0 4000.0 4000.0 4000.0 4000.0 4000.0 4000.0 4000.0 4000.0 4000.0 4000.0 4000.0 4000.0 4000.0 4000.0 4000.0 4000.0 4000.0 4000.0 4000.0 4000.0 4000.0 4000.0 4000.0 4000.0 4000.0 4000.0 4000.0 4000.0 4000.0 4000.0 4000.0 4000.0 4000.0 4000.0 4000.0 4000.0 4000.0 4000.0 4000.0 4000.0 4000.0 4000.0 4000.0 4000.0 4000.0 4000.0 4000.0 4000.0 4000.0 4000.0 4000.0 4000.0 4000.0 4000.0 4000.0 4000.0 4000.0 4000.0 4000.0 4000.0 4000.0 4000.0 4000.0 4000.0 4000.0 4000.0 4000.0 4000.0 4000.0 4000.0 4000.0 4000.0 4000.0 4000.0 4000.0 4000.0 4000.0 4000.0 4000.0 4000.0 4000.0 4000.0 4000.0 4000.0 4000.0 4000.0 4000.0 4000.0 4000.0 4000.0 4000.0 4000.0 4000.0 4000.0 4000.0 4000.0 4000.0 4000.0 4000.0 4000.0 4000.0 4000.0 4000.0 4000.0 4000.0 4000.0 4000.0 4000.0 4000.0 4000.0 4000.0 4000.0 4000.0 4000.0 4000.0 4000.0 4000.0 4000.0 4000.0 4000.0 4000.0 4000.0 4000.0 4000.0 4000.0 4000.0 4000.0 4000.0 4000.0 4000.0 4000.0 4000.0 4000.0 4000.0 4000.0 4000.0 4000.0 4000.0 4000.0 4000.0 4000.0 4000.0 4000.0 4000.0 4000.0 4000.0 4000.0 4000.0 4000.0 4000.0 4000.0 4000.0 4000.0 4000.0 4000.0 4000.0 4000.0 4000.0 4000.0 4000.0 4000.0 4000.0 4000.0 4000.0 4000.0 4000.0 4000.0 4000.0 4000.0 4000.0 4000.0 4000.0 4000.0 4000.0 4000.0 4000.0 4000.0 4000.0 4000.0 4000.0 4000.0 4000.0 4000.0 4000.0 4000.0 4000.0 4000.0 4000.0 4000.0 4000.0 4000.0 4000.0 4000.0 4000.0 4000.0 4000.0 4000.0 4000.0 4000.0 4000.0 4000.0 4000.0 4000.0 4000.0 4000.0 4000.0 4000.0 4000.0 4000.0 4000.0 4000.0 4000.0 4000.0 4000.0 4000.0 4000.0 4000.0 4000.0 4000.0 4000.0 4000.0 4000.0 4000.0 4000.0 4000.0 4000.0 4000.0 4000.0 4000.0 4000.0 4000.0 4000.0 4000.0 4000.0 4000.0 4000.0 4000.0 4000.0 4000.0 4000.0 4000.0 4000.0 4000.0 4000.0 4000.0 4000.0 4000.0 4000.0 4000.0 4000.0 4000.0 4000.0 4000.0 4000.0 4000.0 4000.0 4000.0 4000.0 4000.0 4000.0 4000.0 4000.0 4000.0 4000.0 4000.0 4000.0 4000.0 4000.0 4000.0 4000.0 4000.0 4000.0 4000.0 4000.0 4000.0 4000.0 4000.0 4000.0 4000.0 4000.0 4000.0 4000.0 4000.0 4000.0 4000.0 4000.0 4000.0 4000.0 4000.0 4000.0 4000.0 4000.0 4000.0 4000.0 4000.0 4000.0 4000.0 4000.0 4000.0 4000.0 4000.0 4000.0 4000.0 4000.0 4000.0 4000.0 4000.0 4000.0 4000.0 4000.0 4000.0 4000.0 4000.0 4000.0 4000.0 4000.0 4000.0 4000.0 4000.0 4000.0 4000.0 4000.0 4000.0 4000.0 4000.0 4000.0 4000.0 4000.0 4000.0 4000.0 4000.0 4000.0 4000.0 4000.0 4000.0 4000.0 4000.0 4000.0 4000.0 4000.0 4000.0 4000.0 4000.0 4000.0 4000.0 4000.0 4000.0 4000.0 4000.0 4000.0 4000.0 4000.0 4000.0 4000.0 4000.0 4000.0 4000.0 4000.0 4000.0 4000.0 4000.0 4000.0 4000.0 4000.0 4000.0 4000.0 4000.0 4000.0 4000.0 4000.0 4000.0 4000.0 4000.0 4000.0 4000.0 4000.0 4000.0 4000.0 4000.0 4000.0 4000.0 4000.0 4000.0 4000.0 4000.0 4000.0 4000.0 4000.0 4000.0 4000.0 4000.0 4000.0 4000.0 4000.0 4000.0 4000.0 4000.0 4000.0 4000.0 4000.0 4000.0 4000.0 4000.0 4000.0 4000.0 4000.0 4000.0 4000.0 4000.0 4000.0 4000.0 4000.0 4000.0 4000.0 4000.0 4000.0 4000.0 4000.0 4000.0 4000.0 4000.0 4000.0 4000.0 4000.0 4000.0 4000.0 4000.0 4000.0 4000.0 4000.0 4000.0 4000.0 4000.0 4000.0 4000.0 4000.0 4000.0 4000.0 4000.0 4000.0 4000.0 4000.0 4000.0 4000.0 4000.0 4000.0 4000.0 4000.0 4000.0 4000.0 4000.0 4000.0 4000.0 4000.0 4000.0 4000.0 4000.0 4000.0 4000.0 4000.0 4000.0 4000.0 4000.0 4000.0 4000.0 4000.0 4000.0 4000.0 4000.0 4000.0 4000.0 4000.0 4000.0 4000.0 4000.0 4000.0 4000.0 4000.0 4000.0 4000.0 4000.0 4000.0 4000.0 4000.0 4000.0 4000.0 4000.0 4000.0 4000.0 4000.0 4000.0 4000.0 4000.0 4000.0 4000.0 4000.0 4000.0 4000.0 4000.0 4000.0 4000.0 4000.0 4000.0 4000.0 4000.0 4000.0 4000.0 4000.0 4000.0 4000.0 4000.0 4000.0 4000.0 4000.0 4000.0 4000.0 4000.0 4000.0 4000.0 4000.0 4000.0 4000.0 4000.0 4000.0 4000.0 4000.0 4000.0 4000.0 4000.0 4000.0 4000.0 4000.0 4000.0 4000.0 4000.0 4000.0 4000.0 4000.0 4000.0 4000.0 4000.0 4000.0 4000.0 4000.0 4000.0 4000.0 4000.0 4000.0 4000.0 4000.0 4000.0 4000.0 4000.0 4000.0 4000.0 4000.0 4000.0 4000.0 4000.0 4000.0 4000.0 4000.0 4000.0 4000.0 4000.0 4000.0 4000.0 4000.0 4000.0 4000.0 4000.0 4000.0 4000.0 4000.0 4000.0 4000.0 4000.0 4000.0 4000.0 4000.0 4000.0 4000.0 4000.0 4000.0 4000.0 4000.0 4000.0 4000.0 4000.0 4000.0 4000.0 4000.0 4000.0 4000.0 4000.0 4000.0 4000.0 4000.0 4000.0 4000.0 4000.0 4000.0 4000.0 4000.0 4000.0 4000.0 4000.0 4000.0 4000.0 4000.0 4000.0 4000.0 4000.0 4000.0 4000.0 4000.0 4000.0 4000.0 4000.0 4000.0 4000.0 4000.0 4000.0 4000.0 4000.0 4000.0 4000.0 4000.0 4000.0 4000.0 4000.0 4000.0 4000.0 4000.0 4000.0 4000.0 4000.0 4000.0 4000.0 4000.0 4000.0 4000.0 4000.0 4000.0 4000.0 4000.0 4000.0 4000.0 4000.0 4000.0 4000.0 4000.0 4000.0 4000.0 4000.0 4000.0 4000.0 4000.0 4000.0 4000.0 4000.0 4000.0 4000.0 4000.0 4000.0 4000.0 4000.0 4000.0 4000.0 4000.0 4000.0 4000.0 4000.0 4000.0 4000.0 4000.0 4000.0 4000.0 4000.0 4000.0 4000.0 4000.0 4000.0 4000.0 4000.0 4000.0 4000.0 4000.0 4000.0 4000.0 4000.0 4000.0 4000.0 4000.0 4000.0 4000.0 4000.0 4000.0 4000.0 4000.0 4000.0 4000.0 4000.0 4000.0 4000.0 4000.0 4000.0 4000.0 4000.0 4000.0 4000.0 4000.0 4000.0 4000.0 4000.0 4000.0 4000.0 4000.0 4000.0 4000.0 4000.0 4000.0 4000.0 4000.0 4000.0 4000.0 4000.0 4000.0 4000.0 4000.0 4000.0 4000.0 4000.0 4000.0 4000.0 4000.0 4000.0 4000.0 4000.0 4000.0 4000.0 4000.0 4000.0 4000.0 4000.0 4000.0 4000.0 4000.0 4000.0 4000.0 4000.0 4000.0 4000.0 4000.0 4000.0 4000.0 4000.0 4000.0 4000.0 4000.0 4000.0 4000.0 4000.0 4000.0 4000.0 4000.0 4000.0 4000.0 4000.0 4000.0 4000.0 4000.0 4000.0 4000.0 4000.0 4000.0 4000.0 4000.0 4000.0 4000.0 4000.0 4000.0 4000.0 4000.0 4000.0 4000.0 4000.0 4000.0 4000.0 4000.0 4000.0 4000.0 4000.0 4000.0 4000.0 4000.0 4000.0 4000.0 4000.0 4000.0 4000.0 4000.0 4000.0 4000.0 4000.0 4000.0 4000.0 4000.0 4000.0 4000.0 4000.0 4000.0 4000.0 4000.0 4000.0 4000.0 4000.0 4000.0 4000.0 4000.0 4000.0 4000.0 4000.0 4000.0 4000.0 4000.0 4000.0 4000.0 4000.0 4000.0 4000.0 4000.0 4000.0 4000.0 4000.0 4000.0 4000.0 4000.0 4000.0 4000.0 4000.0 4000.0 4000.0 4000.0 4000.0 4000.0 4000.0 4000.0 4000.0 4000.0 4000.0 4000.0 4000.0 4000.0 4000.0 4000.0 4000.0 4000.0 4000.0 4000.0 4000.0 4000.0 4000.0 4000.0 4000.0 4000.0 4000.0 4000.0 4000.0 4000.0 4000.0 4000.0 4000.0 4000.0 4000.0 4000.0 4000.0 4000.0 4000.0 4000.0 4000.0 4000.0 4000.0 4000.0 4000.0 4000.0 4000.0 4000.0 4000.0 4000.0 4000.0 4000.0 4000.0 4000.0 4000.0 4000.0 4000.0 4000.0 4000.0 4000.0 4000.0 4000.0 4000.0 4000.0 4000.0 4000.0 4000.0 4000.0 4000.0 4000.0 4000.0 4000.0 4000.0 4000.0 4000.0 4000.0 4000.0 4000.0 4000.0 4000.0 4000.0 4000.0 4000.0 4000.0 4000.0 4000.0 4000.0 4000.0 4000.0 4000.0 4000.0 4000.0 4000.0 4000.0 4000.0 4000.0 4000.0 4000.0 4000.0 4000.0 4000.0 4000.0 4000.0 4000.0 4000.0 4000.0 4000.0 4000.0 4000.0 4000.0 4000.0 4000.0 4000.0 4000.0 4000.0 4000.0 4000.0 4000.0 4000.0 4000.0 4000.0 4000.0 4000.0 4000.0 4000.0 4000.0 4000.0 4000.0 4000.0 4000.0 4000.0 4000.0 4000.0 4000.0 4000.0 4000.0 4000.0 4000.0 4000.0 4000.0 4000.0 4000.0 4000.0 4000.0 4000.0 4000.0 4000.0 4000.0 4000.0 4000.0 4000.0 4000.0 4000.0 4000.0 4000.0 4000.0 4000.0 4000.0 4000.0 4000.0 4000.0 4000.0 4000.0 4000.0 4000.0 4000.0 4000.0 4000.0 4000.0 4000.0 4000.0 4000.0 4000.0 4000.0 4000.0 4000.0 4000.0 4000.0 4000.0 4000.0 4000.0 4000.0 4000.0 4000.0 4000.0 4000.0 4000.0 4000.0 4000.0 4000.0 4000.0 4000.0 4000.0 4000.0 4000.0 4000.0 4000.0 4000.0 4000.0 4000.0 4000.0 4000.0 4000.0 4000.0 4000.0 4000.0 4000.0 4000.0 4000.0 4000.0 4000.0 4000.0 4000.0 4000.0 4000.0 4000.0 4000.0 4000.0 4000.0 4000.0 4000.0 4000.0 4000.0 4000.0 4000.0 4000.0 4000.0 4000.0 4000.0 4000.0 4000.0 4000.0 4000.0 4000.0 4000.0 4000.0 4000.0 4000.0 4000.0 4000.0 4000.0 4000.0 4000.0 4000.0 4000.0 4000.0 4000.0 4000.0 4000.0 4000.0 4000.0 4000.0 4000.0 4000.0 4000.0 4000.0 4000.0 4000.0 4000.0 4000.0 4000.0 4000.0 4000.0 4000.0 4000.0 4000.0 4000.0 4000.0 4000.0 4000.0 4000.0 4000.0 4000.0 4000.0 4000.0 4000.0 4000.0 4000.0 4000.0 4000.0 4000.0 4000.0 4000.0 4000.0 4000.0 4000.0 4000.0 4000.0 4000.0 4000.0 4000.0 4000.0 4000.0 4000.0 4000.0 4000.0 4000.0 4000.0 4000.0 4000.0 4000.0 4000.0 4000.0 4000.0 4000.0 4000.0 4000.0 4000.0 4000.0 4000.0 4000.0 4000.0 4000.0 4000.0 4000.0 4000.0 4000.0 4000.0 4000.0 4000.0 4000.0 4000.0 4000.0 4000.0 4000.0 4000.0 4000.0 4000.0 4000.0 4000.0 4000.0 4000.0 4000.0 4000.0 4000.0 4000.0 4000.0 4000.0 4000.0 4000.0 4000.0 4000.0 4000.0 4000.0 4000.0 4000.0 4000.0 4000.0 4000.0 4000.0 4000.0 4000.0 4000.0 4000.0 4000.0 4000.0 4000.0 4000.0 4000.0 4000.0 4000.0 4000.0 4000.0 4000.0 4000.0 4000.0 4000.0 4000.0 4000.0 4000.0 4000.0 4000.0 4000.0 4000.0 4000.0 4000.0 4000.0 4000.0 4000.0 4000.0 4000.0 4000.0 4000.0 4000.0 4000.0 4000.0 4000.0 4000.0 4000.0 4000.0 4000.0 4000.0 4000.0 4000.0 4000.0 4000.0 4000.0 4000.0 4000.0 4000.0 4000.0 4000.0 4000.0 4000.0 4000.0 4000.0 4000.0 4000.0 4000.0 4000.0 4000.0 4000.0 4000.0 4000.0 4000.0 4000.0 4000.0 4000.0 4000.0 4000.0 4000.0 4000.0 4000.0 4000.0 4000.0 4000.0 4000.0 4000.0 4000.0 4000.0 4000.0 4000.0 4000.0 4000.0 4000.0 4000.0 4000.0 4000.0 4000.0 4000.0 4000.0 4000.0 4000.0 4000.0 4000.0 4000.0 4000.0 4000.0 4000.0 4000.0 4000.0 4000.0 4000.0 4000.0 4000.0 4000.0 4000.0 4000.0 4000.0 4000.0 4000.0 4000.0 4000.0 4000.0 4000.0 4000.0 4000.0 4000.0 4000.0 4000.0 4000.0 4000.0 4000.0 4000.0 4000.0 4000.0 4000.0 4000.0 4000.0 4000.0 4000.0 4000.0 4000.0 4000.0 4000.0 4000.0 4000.0 4000.0 4000.0 4000.0 4000.0 4000.0 4000.0 4000.0 4000.0 4000.0 4000.0 4000.0 4000.0 4000.0 4000.0 4000.0 4000.0 4000.0 4000.0 4000.0 4000.0 4000.0 4000.0 4000.0 4000.0 4000.0 4000.0 4000.0 4000.0 4000.0 4000.0 4000.0 4000.0 4000.0 4000.0 4000.0 4000.0 4000.0 4000.0 4000.0 4000.0 4000.0 4000.0 4000.0 4000.0 4000.0 4000.0 4000.0 4000.0 4000.0 4000.0 4000.0 4000.0 4000.0 4000.0 4000.0 4000.0 4000.0 4000.0 4000.0 4000.0 4000.0 4000.0 4000.0 4000.0 4000.0 4000.0 4000.0 4000.0 4000.0 4000.0 4000.0 4000.0 4000.0 4000.0 4000.0 4000.0 4000.0 4000.0 4000.0 4000.0 4000.0 4000.0 4000.0 4000.0 4000.0 4000.0 4000.0 4000.0 4000.0 4000.0 4000.0 4000.0 4000.0 4000.0 4000.0 4000.0 4000.0 4000.0 4000.0 4000.0 4000.0 4000.0 4000.0 4000.0 4000.0 4000.0 4000.0 4000.0 4000.0 4000.0 4000.0 4000.0 4000.0 4000.0 4000.0 4000.0 4000.0 4000.0 4000.0 4000.0 4000.0 4000.0 4000.0 4000.0 4000.0 4000.0 4000.0 4000.0 4000.0 4000.0 4000.0 4000.0 4000.0 4000.0 4000.0 4000.0 4000.0 4000.0 4000.0 4000.0 4000.0 4000.0 4000.0 4000.0 4000.0 4000.0 4000.0 4000.0 4000.0 4000.0 4000.0 4000.0 4000.0 4000.0 4000.0 4000.0 4000.0 4000.0 4000.0 4000.0 4000.0 4000.0 4000.0 4000.0 4000.0 4000.0 4000.0 4000.0 4000.0 4000.0 4000.0 4000.0 4000.0 4000.0 4000.0 4000.0 4000.0 4000.0 4000.0 4000.0 4000.0 4000.0 4000.0 4000.0 4000.0 4000.0 4000.0 4000.0 4000.0 4000.0 4000.0 4000.0 4000.0 4000.0 4000.0 4000.0 4000.0 4000.0 4000.0 4000.0 4000.0 4000.0 4000.0 4000.0 4000.0 4000.0 4000.0 4000.0 4000.0 4000.0 4000.0 4000.0 4000.0 4000.0 4000.0 4000.0 4000.0 4000.0 4000.0 4000.0 4000.0 4000.0 4000.0 4000.0 4000.0 4000.0 4000.0 4000.0 4000.0 4000.0 4000.0 4000.0 4000.0 4000.0 4000.0 4000.0 4000.0 4000.0 4000.0 4000.0 4000.0 4000.0 4000.0 4000.0 4000.0 4000.0 4000.0 4000.0 4000.0 4000.0 4000.0 4000.0 4000.0 4000.0 4000.0 4000.0 4000.0 4000.0 4000.0 4000.0 4000.0 4000.0 4000.0 4000.0 4000.0 4000.0 4000.0 4000.0 4000.0 4000.0 4000.0 4000.0 4000.0 4000.0 4000.0 4000.0 4000.0 4000.0 4000.0 4000.0 4000.0 4000.0 4000.0 4000.0 4000.0 4000.0 4000.0 4000.0 4000.0 4000.0 4000.0 4000.0 4000.0 4000.0 4000.0 4000.0 4000.0 4000.0 4000.0 4000.0 4000.0 4000.0 4000.0 4000.0 4000.0 4000.0 4000.0 4000.0 4000.0 4000.0 4000.0 4000.0 4000.0 4000.0 4000.0 4000.0 4000.0 4000.0 4000.0 4000.0 4000.0 4000.0 4000.0 4000.0 4000.0 4000.0 4000.0 4000.0 4000.0 4000.0 4000.0 4000.0 4000.0 4000.0 4000.0 4000.0 4000.0 4000.0 4000.0 4000.0 4000.0 4000.0 4000.0 4000.0 4000.0 4000.0 4000.0 4000.0 4000.0 4000.0 4000.0 4000.0 4000.0 4000.0 4000.0 4000.0 4000.0 4000.0 4000.0 4000.0 4000.0 4000.0 4000.0 4000.0 4000.0 4000.0 4000.0 4000.0 4000.0 4000.0 4000.0 4000.0 4000.0 4000.0 4000.0 4000.0 4000.0 4000.0 4000.0 4000.0 4000.0 4000.0 4000.0 4000.0 4000.0 4000.0 4000.0 4000.0 4000.0 4000.0 4000.0 4000.0 4000.0 4000.0 4000.0 4000.0 4000.0 4000.0 4000.0 4000.0 4000.0 4000.0 4000.0 4000.0 4000.0 4000.0 4000.0 4000.0 4000.0 4000.0 4000.0 4000.0 4000.0 4000.0 4000.0 4000.0 4000.0 4000.0 4000.0 4000.0 4000.0 4000.0 4000.0 4000.0 4000.0 4000.0 4000.0 4000.0 4000.0 4000.0 4000.0 4000.0 4000.0 4000.0 4000.0 4000.0 4000.0 4000.0 4000.0 4000.0 4000.0 4000.0 4000.0 4000.0 4000.0 4000.0 4000.0 4000.0 4000.0 4000.0 4000.0 4000.0 4000.0 4000.0 4000.0 4000.0 4000.0 4000.0 4000.0 4000.0 4000.0 4000.0 4000.0 4000.0 4000.0 4000.0 4000.0 4000.0 4000.0 4000.0 4000.0 4000.0 4000.0 4000.0 4000.0 4000.0 4000.0 4000.0 4000.0 4000.0 4000.0 4000.0 4000.0 4000.0 4000.0 4000.0 4000.0 4000.0 4000.0 4000.0 4000.0 4000.0 4000.0 4000.0 4000.0 4000.0 4000.0 4000.0 4000.0 4000.0 4000.0 4000.0 4000.0 4000.0 4000.0 4000.0 4000.0 4000.0 4000.0 4000.0 4000.0 4000.0 4000.0 4000.0 4000.0 4000.0 4000.0 4000.0 4000.0 4000.0 4000.0 4000.0 4000.0 4000.0 4000.0 4000.0 4000.0 4000.0 4000.0 4000.0 4000.0 4000.0 4000.0 4000.0 4000.0 4000.0 4000.0 4000.0 4000.0 4000.0 4000.0 4000.0 4000.0 4000.0 4000.0 4000.0 4000.0 4000.0 4000.0 4000.0 4000.0 4000.0 4000.0 4000.0 4000.0 4000.0 4000.0 4000.0 4000.0 4000.0 4000.0 4000.0 4000.0 4000.0 4000.0 4000.0 4000.0 4000.0 4000.0 4000.0 4000.0 4000.0 4000.0 4000.0 4000.0 4000.0 4000.0 4000.0 4000.0 4000.0 4000.0 4000.0 4000.0 4000.0 4000.0 4000.0 4000.0 4000.0 4000.0 4000.0 4000.0 4000.0 4000.0 4000.0 4000.0 4000.0 4000.0 4000.0 4000.0 4000.0 4000.0 4000.0 4000.0 4000.0 4000.0 4000.0 4000.0 4000.0 4000.0 4000.0 4000.0 4000.0 4000.0 4000.0 4000.0 4000.0 4000.0 4000.0 4000.0 4000.0 4000.0 4000.0 4000.0 4000.0 4000.0 4000.0 4000.0 4000.0 4000.0 4000.0 4000.0 4000.0 4000.0 4000.0 4000.0 4000.0 4000.0 4000.0 4000.0 4000.0 4000.0 4000.0 4000.0 4000.0 4000.0 4000.0 4000.0 4000.0 4000.0 4000.0 4000.0 4000.0 4000.0 4000.0 4000.0 4000.0 4000.0 4000.0 4000.0 4000.0 4000.0 4000.0 4000.0 4000.0 4000.0 4000.0 4000.0 4000.0 4000.0 4000.0 4000.0 4000.0 4000.0 4000.0 4000.0 4000.0 4000.0 4000.0 4000.0 4000.0 4000.0 4000.0 4000.0 4000.0 4000.0 4000.0 4000.0 4000.0 4000.0 4000.0 4000.0 4000.0 4000.0 4000.0 4000.0 4000.0 4000.0 4000.0 4000.0 4000.0 4000.0 4000.0 4000.0 4000.0 4000.0 4000.0 4000.0 4000.0 4000.0 4000.0 4000.0 4000.0 4000.0 4000.0 4000.0 4000.0 4000.0 4000.0 4000.0 4000.0 4000.0 4000.0 4000.0 4000.0 4000.0 4000.0 4000.0 4000.0 4000.0 4000.0 4000.0 4000.0 4000.0 4000.0 4000.0 4000.0 4000.0 4000.0 4000.0 4000.0 4000.0 4000.0 4000.0 4000.0 4000.0 4000.0 4000.0 4000.0 4000.0 4000.0 4000.0 4000.0 4000.0 4000.0 4000.0 4000.0 4000.0 4000.0 4000.0 4000.0 4000.0 4000.0 4000.0 4000.0 4000.0 4000.0 4000.0 4000.0 4000.0 4000.0 4000.0 4000.0 4000.0 4000.0 4000.0 4000.0 4000.0 4000.0 4000.0 4000.0 4000.0 4000.0 4000.0 4000.0 4000.0 4000.0 4000.0 4000.0 4000.0 4000.0 4000.0 4000.0 4000.0 4000.0 4000.0 4000.0 4000.0 4000.0 4000.0 4000.0 4000.0 4000.0 4000.0 4000.0 4000.0 4000.0 4000.0 4000.0 4000.0 4000.0 4000.0 4000.0 4000.0 4000.0 4000.0 4000.0 4000.0 4000.0 4000.0 4000.0 4000.0 4000.0 4000.0 4000.0 4000.0 4000.0 4000.0 4000.0 4000.0 4000.0 4000.0 4000.0 4000.0 4000.0 4000.0 4000.0 4000.0 4000.0 4000.0 4000.0 4000.0 4000.0 4000.0 4000.0 4000.0 4000.0 4000.0 4000.0 4000.0 4000.0 4000.0 4000.0 4000.0 4000.0 4000.0 4000.0 4000.0 4000.0 4000.0 4000.0 4000.0 4000.0 4000.0 4000.0 4000.0 4000.0 4000.0 4000.0 4000.0 4000.0 4000.0 4000.0 4000.0 4000.0 4000.0 4000.0 4000.0 4000.0 4000.0 4000.0 4000.0 4000.0 4000.0 4000.0 4000.0 4000.0 4000.0 4000.0 4000.0 4000.0 4000.0 4000.0 4000.0 4000.0 4000.0 4000.0 4000.0 4000.0 4000.0 4000.0 4000.0 4000.0 4000.0 4000.0 4000.0 4000.0 4000.0 4000.0 4000.0 4000.0 4000.0 4000.0 4000.0 4000.0 4000.0 4000.0 4000.0 4000.0 4000.0 4000.0 4000.0 4000.0 4000.0 4000.0 4000.0 4000.0 4000.0 4000.0 4000.0 4000.0 4000.0 4000.0 4000.0 4000.0 4000.0 4000.0 4000.0 4000.0 4000.0 4000.0 4000.0 4000.0 4000.0 4000.0 4000.0 4000.0 4000.0 4000.0 4000.0 4000.0 4000.0 4000.0 4000.0 4000.0 4000.0 4000.0 4000.0 4000.0 4000.0 4000.0 4000.0 4000.0 4000.0 4000.0 4000.0 4000.0 4000.0 4000.0 4000.0 4000.0 4000.0 4000.0 4000.0 4000.0 4000.0 4000.0 4000.0 4000.0 4000.0 4000.0 4000.0 4000.0 4000.0 4000.0 4000.0 4000.0 4000.0 4000.0 4000.0 4000.0 4000.0 4000.0 4000.0 4000.0 4000.0 4000.0 4000.0 4000.0 4000.0 4000.0 4000.0 4000.0 4000.0 4000.0 4000.0 4000.0 4000.0 4000.0 4000.0 4000.0 4000.0 4000.0 4000.0 4000.0 4000.0 4000.0 4000.0 4000.0 4000.0 4000.0 4000.0 4000.0 4000.0 4000.0 4000.0 4000.0 4000.0 4000.0 4000.0 4000.0 4000.0 4000.0 4000.0 4000.0 4000.0 4000.0 4000.0 4000.0 4000.0 4000.0 4000.0 4000.0 4000.0 4000.0 4000.0 4000.0 4000.0 4000.0 4000.0 4000.0 4000.0 4000.0 4000.0 4000.0 4000.0 4000.0 4000.0 4000.0 4000.0 4000.0 4000.0 4000.0 4000.0 4000.0 4000.0 4000.0 4000.0 4000.0 4000.0 4000.0 4000.0 4000.0 4000.0 4000.0 4000.0 4000.0 4000.0 4000.0 4000.0 4000.0 4000.0 4000.0 4000.0 4000.0 4000.0 4000.0 4000.0 4000.0 4000.0 4000.0 4000.0 4000.0 4000.0 4000.0 4000.0 4000.0 4000.0 4000.0 4000.0 4000.0 4000.0 4000.0 4000.0 4000.0 4000.0 4000.0 4000.0 4000.0 4000.0 4000.0 4000.0 4000.0 4000.0 4000.0 4000.0 4000.0 4000.0 4000.0 4000.0 4000.0 4000.0 4000.0 4000.0 4000.0 4000.0 4000.0 4000.0 4000.0 4000.0 4000.0 4000.0 4000.0 4000.0 4000.0 4000.0 4000.0 4000.0 4000.0 4000.0 4000.0 4000.0 4000.0 4000.0 4000.0 4000.0 4000.0 4000.0 4000.0 4000.0 4000.0 4000.0 4000.0 4000.0 4000.0 4000.0 4000.0 4000.0 4000.0 4000.0 4000.0 4000.0 4000.0 4000.0 4000.0 4000.0 4000.0 4000.0 4000.0 4000.0 4000.0 4000.0 4000.0 4000.0 4000.0 4000.0 4000.0 4000.0 4000.0 4000.0 4000.0 4000.0 4000.0 4000.0 4000.0 4000.0 4000.0 4000.0 4000.0 4000.0 4000.0 4000.0 4000.0 4000.0 4000.0 4000.0 4000.0 4000.0 4000.0 4000.0 4000.0 4000.0 4000.0 4000.0 4000.0 4000.0 4000.0 4000.0 4000.0 4000.0 4000.0 4000.0 4000.0 4000.0 4000.0 4000.0 4000.0 4000.0 4000.0 4000.0 4000.0 4000.0 4000.0 4000.0 4000.0 4000.0 4000.0 4000.0 4000.0 4000.0 4000.0 4000.0 4000.0 4000.0 4000.0 4000.0 4000.0 4000.0 4000.0 4000.0 4000.0 4000.0 4000.0 4000.0 4000.0 4000.0 4000.0 4000.0 4000.0 4000.0 4000.0 4000.0 4000.0 4000.0 4000.0 4000.0 4000.0 4000.0 4000.0 4000.0 4000.0 4000.0 4000.0 4000.0 4000.0 4000.0 4000.0 4000.0 4000.0 4000.0 4000.0 4000.0 4000.0 4000.0 4000.0 4000.0 4000.0 4000.0 4000.0 4000.0 4000.0 4000.0 4000.0 4000.0 4000.0 4000.0 4000.0 4000.0 4000.0 4000.0 4000.0 4000.0 4000.0 4000.0 4000.0 4000.0 4000.0 4000.0 4000.0 4000.0 4000.0 4000.0 4000.0 4000.0 4000.0 4000.0 4000.0 4000.0 4000.0 4000.0 4000.0 4000.0 4000.0 4000.0 4000.0 4000.0 4000.0 4000.0 4000.0 4000.0 4000.0 4000.0 4000.0 4000.0 4000.0 4000.0 4000.0 4000.0 4000.0 4000.0 4000.0 4000.0 4000.0 4000.0 4000.0 4000.0 4000.0 4000.0 4000.0 4000.0 4000.0 4000.0 4000.0 4000.0 4000.0 4000.0 4000.0 4000.0 4000.0 4000.0 4000.0 4000.0 4000.0 4000.0 4000.0 4000.0 4000.0 4000.0 4000.0 4000.0 4000.0 4000.0 4000.0 4000.0 4000.0 4000.0 4000.0 4000.0 4000.0 4000.0 4000.0 4000.0 4000.0 4000.0 4000.0 4000.0 4000.0 4000.0 4000.0 4000.0 4000.0 4000.0 4000.0 4000.0 4000.0 4000.0 4000.0 4000.0 4000.0 4000.0 4000.0 4000.0 4000.0 4000.0 4000.0 4000.0 4000.0 4000.0 4000.0 4000.0 4000.0 4000.0 4000.0 4000.0 4000.0 4000.0 4000.0 4000.0 4000.0 4000.0 4000.0 4000.0 4000.0 4000.0 4000.0 4000.0 4000.0 4000.0 4000.0 4000.0 4000.0 4000.0 4000.0 4000.0 4000.0 4000.0 4000.0 4000.0 4000.0 4000.0 4000.0 4000.0 4000.0 4000.0 4000.0 4000.0 4000.0 4000.0 4000.0 4000.0 4000.0 4000.0 4000.0 4000.0 4000.0 4000.0 4000.0 4000.0 4000.0 4000.0 4000.0 4000.0 4000.0 4000.0 4000.0 4000.0 4000.0 4000.0 4000.0 4000.0 4000.0 4000.0 4000.0 4000.0 4000.0 4000.0 4000.0 4000.0 4000.0 4000.0 4000.0 4000.0 4000.0 4000.0 4000.0 4000.0 4000.0 4000.0 4000.0 4000.0 4000.0 4000.0 4000.0 4000.0 4000.0 4000.0 4000.0 4000.0 4000.0 4000.0 4000.0 4000.0 4000.0 4000.0 4000.0 4000.0 4000.0 4000.0 4000.0 4000.0 4000.0 4000.0 4000.0 4000.0 4000.0 4000.0 4000.0 4000.0 4000.0 4000.0 4000.0 4000.0 4000.0 4000.0 4000.0 4000.0 4000.0 4000.0 4000.0 4000.0 4000.0 4000.0 4000.0 4000.0 4000.0 4000.0 4000.0 4000.0 4000.0 4000.0 4000.0 4000.0 4000.0 4000.0 4000.0 4000.0 4000.0 4000.0 4000.0 4000.0 4000.0 4000.0 4000.0 4000.0 4000.0 4000.0 4000.0 4000.0 4000.0 4000.0 4000.0 4000.0 4000.0 4000.0 4000.0 4000.0 4000.0 4000.0 4000.0 4000.0 4000.0 4000.0 4000.0 4000.0 4000.0 4000.0 4000.0 4000.0 4000.0 4000.0 4000.0 4000.0 4000.0 4000.0 4000.0 4000.0 4000.0 4000.0 4000.0 4000.0 4000.0 4000.0 4000.0 4000.0 4000.0 4000.0 4000.0 4000.0 4000.0 4000.0 4000.0 4000.0 4000.0 4000.0 4000.0 4000.0 4000.0 4000.0 4000.0 4000.0 4000.0 4000.0 4000.0 4000.0 4000.0 4000.0 4000.0 4000.0 4000.0 4000.0 4000.0 4000.0 4000.0 4000.0 4000.0 4000.0 4000.0 4000.0 4000.0 4000.0 4000.0 4000.0 4000.0 4000.0 4000.0 4000.0 4000.0 4000.0 4000.0 4000.0 4000.0 4000.0 4000.0 4000.0 4000.0 4000.0 4000.0 4000.0 4000.0 4000.0 4000.0 4000.0 4000.0 4000.0 4000.0 4000.0 4000.0 4000.0 4000.0 4000.0 4000.0 4000.0 4000.0 4000.0 4000.0 4000.0 4000.0 4000.0 4000.0 4000.0 4000.0 4000.0 4000.0 4000.0 4000.0 4000.0 4000.0 4000.0 4000.0 4000.0 4000.0 4000.0 4000.0 4000.0 4000.0 4000.0 4000.0 4000.0 4000.0 4000.0 4000.0 4000.0 4000.0 4000.0 4000.0 4000.0 4000.0 4000.0 4000.0 4000.0 4000.0 4000.0 4000.0 4000.0 4000.0 4000.0 4000.0 4000.0 4000.0 4000.0 4000.0 4000.0 4000.0 4000.0 4000.0 4000.0 4000.0 4000.0 4000.0 4000.0 4000.0 4000.0 4000.0 4000.0 4000.0 4000.0 4000.0 4000.0 4000.0 4000.0 4000.0 4000.0 4000.0 4000.0 4000.0 4000.0 4000.0 4000.0 4000.0 4000.0 4000.0 4000.0 4000.0 4000.0 4000.0 4000.0 4000.0 4000.0 4000.0 4000.0 4000.0 4000.0 4000.0 4000.0 4000.0 4000.0 4000.0 4000.0 4000.0 4000.0 4000.0 4000.0 4000.0 4000.0 4000.0 4000.0 4000.0 4000.0 4000.0 4000.0 4000.0 4000.0 4000.0 4000.0 4000.0 4000.0 4000.0 4000.0 4000.0 4000.0 4000.0 4000.0 4000.0 4000.0 4000.0 4000.0 4000.0 4000.0 4000.0 4000.0 4000.0 4000.0 4000.0 4000.0 4000.0 4000.0 4000.0 4000.0 4000.0 4000.0 4000.0 4000.0 4000.0 4000.0 4000.0 4000.0 4000.0 4000.0 4000.0 4000.0 4000.0 4000.0 4000.0 4000.0 4000.0 4000.0 4000.0 4000.0 4000.0 4000.0 4000.0 4000.0 4000.0 4000.0 4000.0 4000.0 4000.0 4000.0 4000.0 4000.0 4000.0 4000.0 4000.0 4000.0 4000.0 4000.0 4000.0 4000.0 4000.0 4000.0 4000.0 4000.0 4000.0 4000.0 4000.0 4000.0 4000.0 4000.0 4000.0 4000.0 4000.0 4000.0 4000.0 4000.0 4000.0 4000.0 4000.0 4000.0 4000.0 4000.0 4000.0 4000.0 4000.0 4000.0 4000.0 4000.0 4000.0 4000.0 4000.0 4000.0 4000.0 4000.0 4000.0 4000.0 4000.0 4000.0 4000.0 4000.0 4000.0 4000.0 4000.0 4000.0 4000.0 4000.0 4000.0 4000.0 4000.0 4000.0 4000.0 4000.0 4000.0 4000.0 4000.0 4000.0 4000.0 4000.0 4000.0 4000.0 4000.0 4000.0 4000.0 4000.0 4000.0 4000.0 4000.0 4000.0 4000.0 4000.0 4000.0 4000.0 4000.0 4000.0 4000.0 4000.0 4000.0 4000.0 4000.0 4000.0 4000.0 4000.0 4000.0 4000.0 4000.0 4000.0 4000.0 4000.0 4000.0 4000.0 4000.0 4000.0 4000.0 4000.0 4000.0 4000.0 4000.0 4000.0 4000.0 4000.0 4000.0 4000.0 4000.0 4000.0 4000.0 4000.0 4000.0 4000.0 4000.0 4000.0 4000.0 4000.0 4000.0 4000.0 4000.0 4000.0 4000.0 4000.0 4000.0 4000.0 4000.0 4000.0 4000.0 4000.0 4000.0 4000.0 4000.0 4000.0 4000.0 4000.0 4000.0 4000.0 4000.0 4000.0 4000.0 4000.0 4000.0 4000.0 4000.0 4000.0 4000.0 4000.0 4000.0 4000.0 4000.0 4000.0 4000.0 4000.0 4000.0 4000.0 4000.0 4000.0 4000.0 4000.0 4000.0 4000.0 4000.0 4000.0 4000.0 4000.0 4000.0 4000.0 4000.0 4000.0 4000.0 4000.0 4000.0 4000.0 4000.0 4000.0 4000.0 4000.0 4000.0 4000.0 4000.0 4000.0 4000.0 4000.0 4000.0 4000.0 4000.0 4000.0 4000.0 4000.0 4000.0 4000.0 4000.0 4000.0 4000.0 4000.0 4000.0 4000.0 4000.0 4000.0 4000.0 4000.0 4000.0 4000.0 4000.0 4000.0 4000.0 4000.0 4000.0 4000.0 4000.0 4000.0 4000.0 4000.0 4000.0 4000.0 4000.0 4000.0 4000.0 4000.0 4000.0 4000.0 4000.0 4000.0 4000.0 4000.0 4000.0 4000.0 4000.0 4000.0 4000.0 4000.0 4000.0 4000.0 4000.0 4000.0 4000.0 4000.0 4000.0 4000.0 4000.0 4000.0 4000.0 4000.0 4000.0 4000.0 4000.0 4000.0 4000.0 4000.0 4000.0 4000.0 4000.0 4000.0 4000.0 4000.0 4000.0 4000.0 4000.0 4000.0 4000.0 4000.0 4000.0 4000.0 4000.0 4000.0 4000.0 4000.0 4000.0 4000.0 4000.0 4000.0 4000.0 4000.0 4000.0 4000.0 4000.0 4000.0 4000.0 4000.0 4000.0 4000.0 4000.0 4000.0 4000.0 4000.0 4000.0 4000.0 4000.0 4000.0 4000.0 4000.0 4000.0 4000.0 4000.0 4000.0 4000.0 4000.0 4000.0 4000.0 4000.0 4000.0 4000.0 4000.0 4000.0 4000.0 4000.0 4000.0 4000.0 4000.0 4000.0 4000.0 4000.0 4000.0 4000.0 4000.0 4000.0 4000.0 4000.0 4000.0 4000.0 4000.0 4000.0 4000.0 4000.0 4000.0 4000.0 4000.0 4000.0 4000.0 4000.0 4000.0 4000.0 4000.0 4000.0 4000.0 4000.0 4000.0 4000.0 4000.0 4000.0 4000.0 4000.0 4000.0 4000.0 4000.0 4000.0 4000.0 4000.0 4000.0 4000.0 4000.0 4000.0 4000.0 4000.0 4000.0 4000.0 4000.0 4000.0 4000.0 4000.0 4000.0 4000.0 4000.0 4000.0 4000.0 4000.0 4000.0 4000.0 4000.0 4000.0 4000.0 4000.0 4000.0 4000.0 4000.0 4000.0 4000.0 4000.0 4000.0 4000.0 4000.0 4000.0 4000.0 4000.0 4000.0 4000.0 4000.0 4000.0 4000.0 4000.0 4000.0 4000.0 4000.0 4000.0 4000.0 4000.0 4000.0 4000.0 4000.0 4000.0 4000.0 4000.0 4000.0 4000.0 4000.0 4000.0 4000.0 4000.0 4000.0 4000.0 4000.0 4000.0 4000.0 4000.0 4000.0 4000.0 4000.0 4000.0 4000.0 4000.0 4000.0 4000.0 4000.0 4000.0 4000.0 4000.0 4000.0 4000.0 4000.0 4000.0 4000.0 4000.0 4000.0 4000.0 4000.0 4000.0 4000.0 4000.0 4000.0 4000.0 4000.0 4000.0 4000.0 4000.0 4000.0 4000.0 4000.0 4000.0 4000.0 4000.0 4000.0 4000.0 4000.0 4000.0 4000.0 4000.0 4000.0 4000.0 4000.0 4000.0 4000.0 4000.0 4000.0 4000.0 4000.0 4000.0 4000.0 4000.0 4000.0 4000.0 4000.0 4000.0 4000.0 4000.0 4000.0 4000.0 4000.0 4000.0 4000.0 4000.0 4000.0 4000.0 4000.0 4000.0 4000.0 4000.0 4000.0 4000.0 4000.0 4000.0 4000.0 4000.0 4000.0 4000.0 4000.0 4000.0 4000.0 4000.0 4000.0 4000.0 4000.0 4000.0 4000.0 4000.0 4000.0 4000.0 4000.0 4000.0 4000.0 4000.0 4000.0 4000.0 4000.0 4000.0 4000.0 4000.0 4000.0 4000.0 4000.0 4000.0 4000.0 4000.0 4000.0 4000.0 4000.0 4000.0 4000.0 4000.0 4000.0 4000.0 4000.0 4000.0 4000.0 4000.0 4000.0 4000.0 4000.0 4000.0 4000.0 4000.0 4000.0 4000.0 4000.0 4000.0 4000.0 4000.0 4000.0 4000.0 4000.0 4000.0 4000.0 4000.0 4000.0 4000.0 4000.0 4000.0 4000.0 4000.0 4000.0 4000.0 4000.0 4000.0 4000.0 4000.0 4000.0 4000.0 4000.0 4000.0 4000.0 4000.0 4000.0 4000.0 4000.0 4000.0 4000.0 4000.0 4000.0 4000.0 4000.0 4000.0 4000.0 4000.0 4000.0 4000.0 4000.0 4000.0 4000.0 4000.0 4000.0 4000.0 4000.0 4000.0 4000.0 4000.0 4000.0 4000.0 4000.0 4000.0 4000.0 4000.0 4000.0 4000.0 4000.0 4000.0 4000.0 4000.0 4000.0 4000.0 4000.0 4000.0 4000.0 4000.0 4000.0 4000.0 4000.0 4000.0 4000.0 4000.0 4000.0 4000.0 4000.0 4000.0 4000.0 4000.0 4000.0 4000.0 4000.0 4000.0 4000.0 4000.0 4000.0 4000.0 4000.0 4000.0 4000.0 4000.0 4000.0 4000.0 4000.0 4000.0 4000.0 4000.0 4000.0 4000.0 4000.0 4000.0 4000.0 4000.0 4000.0 4000.0 4000.0 4000.0 4000.0 4000.0 4000.0 4000.0 4000.0 4000.0 4000.0 4000.0 4000.0 4000.0 4000.0 4000.0 4000.0 4000.0 4000.0 4000.0 4000.0 4000.0 4000.0 4000.0 4000.0 4000.0 4000.0 4000.0 4000.0 4000.0 4000.0 4000.0 4000.0 4000.0 4000.0 4000.0 4000.0 4000.0 4000.0 4000.0 4000.0 4000.0 4000.0 4000.0 4000.0 4000.0 4000.0 4000.0 4000.0 4000.0 4000.0 4000.0 4000.0 4000.0 4000.0 4000.0 4000.0 4000.0 4000.0 4000.0 4000.0 4000.0 4000.0 4000.0 4000.0 4000.0 4000.0 4000.0 4000.0 4000.0 4000.0 4000.0 4000.0 4000.0 4000.0 4000.0 4000.0 4000.0 4000.0 4000.0 4000.0 4000.0 4000.0 4000.0 4000.0 4000.0 4000.0 4000.0 4000.0 4000.0 4000.0 4000.0 4000.0 4000.0 4000.0 4000.0 4000.0 4000.0 4000.0 4000.0 4000.0 4000.0 4000.0 4000.0 4000.0 4000.0 4000.0 4000.0 4000.0 4000.0 4000.0 4000.0 4000.0 4000.0 4000.0 4000.0 4000.0 4000.0 4000.0 4000.0 4000.0 4000.0 4000.0 4000.0 4000.0 4000.0 4000.0 4000.0 4000.0 4000.0 4000.0 4000.0 4000.0 4000.0 4000.0 4000.0 4000.0 4000.0 4000.0 4000.0 4000.0 4000.0 4000.0 4000.0 4000.0 4000.0 4000.0 4000.0 4000.0 4000.0 4000.0 4000.0 4000.0 4000.0 4000.0 4000.0 4000.0 4000.0 4000.0 4000.0 4000.0 4000.0 4000.0 4000.0 4000.0 4000.0 4000.0 4000.0 4000.0 4000.0 4000.0 4000.0 4000.0 4000.0 4000.0 4000.0 4000.0 4000.0 4000.0 4000.0 4000.0 4000.0 4000.0 4000.0 4000.0 4000.0 4000.0 4000.0 4000.0 4000.0 4000.0 4000.0 4000.0 4000.0 4000.0 4000.0 4000.0 4000.0 4000.0 4000.0 4000.0 4000.0 4000.0 4000.0 4000.0 4000.0 4000.0 4000.0 4000.0 4000.0 4000.0 4000.0 4000.0 4000.0 4000.0 4000.0 4000.0 4000.0 4000.0 4000.0 4000.0 4000.0 4000.0 4000.0 4000.0 4000.0 4000.0 4000.0 4000.0 4000.0 4000.0 4000.0 4000.0 4000.0 4000.0 4000.0 4000.0 4000.0 4000.0 4000.0 4000.0 4000.0 4000.0 4000.0 4000.0 4000.0 4000.0 4000.0 4000.0 4000.0 4000.0 4000.0 4000.0 4000.0 4000.0 4000.0 4000.0 4000.0 4000.0 4000.0 4000.0 4000.0 4000.0 4000.0 4000.0 4000.0 4000.0 4000.0 4000.0 4000.0 4000.0 4000.0 4000.0 4000.0 4000.0 4000.0 4000.0 4000.0 4000.0 4000.0 4000.0 4000.0 4000.0 4000.0 4000.0 4000.0 4000.0 4000.0 4000.0 4000.0 4000.0 4000.0 4000.0 4000.0 4000.0 4000.0 4000.0 4000.0 4000.0 4000.0 4000.0 4000.0 4000.0 4000.0 4000.0 4000.0 4000.0 4000.0 4000.0 4000.0 4000.0 4000.0 4000.0 4000.0 4000.0 4000.0 4000.0 4000.0 4000.0 4000.0 4000.0 4000.0 4000.0 4000.0 4000.0 4000.0 4000.0 4000.0 4000.0 4000.0 4000.0 4000.0 4000.0 4000.0 4000.0 4000.0 4000.0 4000.0 4000.0 4000.0 4000.0 4000.0 4000.0 4000.0 4000.0 4000.0 4000.0 4000.0 4000.0 4000.0 4000.0 4000.0 4000.0 4000.0 4000.0 4000.0 4000.0 4000.0 4000.0 4000.0 4000.0 4000.0 4000.0 4000.0 4000.0 4000.0 4000.0 4000.0 4000.0 4000.0 4000.0 4000.0 4000.0 4000.0 4000.0 4000.0 4000.0 4000.0 4000.0 4000.0 4000.0 4000.0 4000.0 4000.0 4000.0 4000.0 4000.0 4000.0 4000.0 4000.0 4000.0 4000.0 4000.0 4000.0 4000.0 4000.0 4000.0 4000.0 4000.0 4000.0 4000.0 4000.0 4000.0 4000.0 4000.0 4000.0 4000.0 4000.0 4000.0 4000.0 4000.0 4000.0 4000.0 4000.0 4000.0 4000.0 4000.0 4000.0 4000.0 4000.0 4000.0 4000.0 4000.0 4000.0 4000.0 4000.0 4000.0 4000.0 4000.0 4000.0 4000.0 4000.0 4000.0 4000.0 4000.0 4000.0 4000.0 4000.0 4000.0 4000.0 4000.0 4000.0 4000.0 4000.0 4000.0 4000.0 4000.0 4000.0 4000.0 4000.0 4000.0 4000.0 4000.0 4000.0 4000.0 4000.0 4000.0 4000.0 4000.0 4000.0 4000.0 4000.0 4000.0 4000.0 4000.0 4000.0 4000.0 4000.0 4000.0 4000.0 4000.0 4000.0 4000.0 4000.0 4000.0 4000.0 4000.0 4000.0 4000.0 4000.0 4000.0 4000.0 4000.0 4000.0 4000.0 4000.0 4000.0 4000.0 4000.0 4000.0 4000.0 4000.0 4000.0 4000.0 4000.0 4000.0 4000.0 4000.0 4000.0 4000.0 4000.0 4000.0 4000.0 4000.0 4000.0 4000.0 4000.0 4000.0 4000.0 4000.0 4000.0 4000.0 4000.0 4000.0 4000.0 4000.0 4000.0 4000.0 4000.0 4000.0 4000.0 4000.0 4000.0 4000.0 4000.0 4000.0 4000.0 4000.0 4000.0 4000.0 4000.0 4000.0 4000.0 4000.0 4000.0 4000.0 4000.0 4000.0 4000.0 4000.0 4000.0 4000.0 4000.0 4000.0 4000.0 4000.0 4000.0 4000.0 4000.0 4000.0 4000.0 4000.0 4000.0 4000.0 4000.0 4000.0 4000.0 4000.0 4000.0 4000.0 4000.0 4000.0 4000.0 4000.0 4000.0 4000.0 4000.0 4000.0 4000.0 4000.0 4000.0 4000.0 4000.0 4000.0 4000.0 4000.0 4000.0 4000.0 4000.0 4000.0 4000.0 4000.0 4000.0 4000.0 4000.0 4000.0 4000.0 4000.0 4000.0 4000.0 4000.0 4000.0 4000.0 4000.0 4000.0 4000.0 4000.0 4000.0 4000.0 4000.0 4000.0 4000.0 4000.0 4000.0 4000.0 4000.0 4000.0 4000.0 4000.0 4000.0 4000.0 4000.0 4000.0 4000.0 4000.0 4000.0 4000.0 4000.0 4000.0 4000.0 4000.0 4000.0 4000.0 4000.0 4000.0 4000.0 4000.0 4000.0 4000.0 4000.0 4000.0 4000.0 4000.0 4000.0 4000.0 4000.0 4000.0 4000.0 4000.0 4000.0 4000.0 4000.0 4000.0 4000.0 4000.0 4000.0 4000.0 4000.0 4000.0 4000.0 4000.0 4000.0 4000.0 4000.0 4000.0 4000.0 4000.0 4000.0 4000.0 4000.0 4000.0 4000.0 4000.0 4000.0 4000.0 4000.0 4000.0 4000.0 4000.0 4000.0 4000.0 4000.0 4000.0 4000.0 4000.0 4000.0 4000.0 4000.0 4000.0 4000.0 4000.0 4000.0 4000.0 4000.0 4000.0 4000.0 4000.0 4000.0 4000.0 4000.0 4000.0 4000.0 4000.0 4000.0 4000.0 4000.0 4000.0 4000.0 4000.0 4000.0 4000.0 4000.0 4000.0 4000.0 4000.0 4000.0 4000.0 4000.0 4000.0 4000.0 4000.0 4000.0 4000.0 4000.0 4000.0 4000.0 4000.0 4000.0 4000.0 4000.0 4000.0 4000.0 4000.0 4000.0 4000.0 4000.0 4000.0 4000.0 4000.0 4000.0 4000.0 4000.0 4000.0 4000.0 4000.0 4000.0 4000.0 4000.0 4000.0 4000.0 4000.0 4000.0 4000.0 4000.0 4000.0 4000.0 4000.0 4000.0 4000.0 4000.0 4000.0 4000.0 4000.0 4000.0 4000.0 SCALARS Mass float 1
LOOKUP_TABLE default
11309700000.0 11309700000.0 11309700000.0 11309700000.0 11309700000.0 11309700000.0 11309700000.0 11309700000.0 11309700000.0 11309700000.0 11309700000.0 11309700000.0 11309700000.0 11309700000.0 11309700000.0 11309700000.0 11309700000.0 11309700000.0 11309700000.0 11309700000.0 11309700000.0 11309700000.0 11309700000.0 11309700000.0 11309700000.0 11309700000.0 11309700000.0 11309700000.0 11309700000.0 11309700000.0 11309700000.0 11309700000.0 11309700000.0 11309700000.0 11309700000.0 11309700000.0 11309700000.0 11309700000.0 11309700000.0 11309700000.0 11309700000.0 11309700000.0 11309700000.0 11309700000.0 11309700000.0 11309700000.0 11309700000.0 11309700000.0 11309700000.0 11309700000.0 11309700000.0 11309700000.0 11309700000.0 11309700000.0 11309700000.0 11309700000.0 11309700000.0 11309700000.0 11309700000.0 11309700000.0 11309700000.0 11309700000.0 11309700000.0 11309700000.0 11309700000.0 11309700000.0 11309700000.0 11309700000.0 11309700000.0 11309700000.0 11309700000.0 11309700000.0 11309700000.0 11309700000.0 11309700000.0 11309700000.0 11309700000.0 11309700000.0 11309700000.0 11309700000.0 11309700000.0 11309700000.0 11309700000.0 11309700000.0 11309700000.0 11309700000.0 11309700000.0 11309700000.0 11309700000.0 11309700000.0 11309700000.0 11309700000.0 11309700000.0 11309700000.0 11309700000.0 11309700000.0 11309700000.0 11309700000.0 11309700000.0 11309700000.0 11309700000.0 11309700000.0 11309700000.0 11309700000.0 11309700000.0 11309700000.0 11309700000.0 11309700000.0 11309700000.0 11309700000.0 11309700000.0 11309700000.0 11309700000.0 11309700000.0 11309700000.0 11309700000.0 11309700000.0 11309700000.0 11309700000.0 11309700000.0 11309700000.0 11309700000.0 11309700000.0 11309700000.0 11309700000.0 11309700000.0 11309700000.0 11309700000.0 11309700000.0 11309700000.0 11309700000.0 11309700000.0 11309700000.0 11309700000.0 11309700000.0 11309700000.0 11309700000.0 11309700000.0 11309700000.0 11309700000.0 11309700000.0 11309700000.0 11309700000.0 11309700000.0 11309700000.0 11309700000.0 11309700000.0 11309700000.0 11309700000.0 11309700000.0 11309700000.0 11309700000.0 11309700000.0 11309700000.0 11309700000.0 11309700000.0 11309700000.0 11309700000.0 11309700000.0 11309700000.0 11309700000.0 11309700000.0 11309700000.0 11309700000.0 11309700000.0 11309700000.0 11309700000.0 11309700000.0 11309700000.0 11309700000.0 11309700000.0 11309700000.0 11309700000.0 11309700000.0 11309700000.0 11309700000.0 11309700000.0 11309700000.0 11309700000.0 11309700000.0 11309700000.0 11309700000.0 11309700000.0 11309700000.0 11309700000.0 11309700000.0 11309700000.0 11309700000.0 11309700000.0 11309700000.0 11309700000.0 11309700000.0 11309700000.0 11309700000.0 11309700000.0 11309700000.0 11309700000.0 11309700000.0 11309700000.0 11309700000.0 11309700000.0 11309700000.0 11309700000.0 11309700000.0 11309700000.0 11309700000.0 11309700000.0 11309700000.0 11309700000.0 11309700000.0 11309700000.0 11309700000.0 11309700000.0 11309700000.0 11309700000.0 11309700000.0 11309700000.0 11309700000.0 11309700000.0 11309700000.0 11309700000.0 11309700000.0 11309700000.0 11309700000.0 11309700000.0 11309700000.0 11309700000.0 11309700000.0 11309700000.0 11309700000.0 11309700000.0 11309700000.0 11309700000.0 11309700000.0 11309700000.0 11309700000.0 11309700000.0 11309700000.0 11309700000.0 11309700000.0 11309700000.0 11309700000.0 11309700000.0 11309700000.0 11309700000.0 11309700000.0 11309700000.0 11309700000.0 11309700000.0 11309700000.0 11309700000.0 11309700000.0 11309700000.0 11309700000.0 11309700000.0 11309700000.0 11309700000.0 11309700000.0 11309700000.0 11309700000.0 11309700000.0 11309700000.0 11309700000.0 11309700000.0 11309700000.0 11309700000.0 11309700000.0 11309700000.0 11309700000.0 11309700000.0 11309700000.0 11309700000.0 11309700000.0 11309700000.0 11309700000.0 11309700000.0 11309700000.0 11309700000.0 11309700000.0 11309700000.0 11309700000.0 11309700000.0 11309700000.0 11309700000.0 11309700000.0 11309700000.0 11309700000.0 11309700000.0 11309700000.0 11309700000.0 11309700000.0 11309700000.0 11309700000.0 11309700000.0 11309700000.0 11309700000.0 11309700000.0 11309700000.0 11309700000.0 11309700000.0 11309700000.0 11309700000.0 11309700000.0 11309700000.0 11309700000.0 11309700000.0 11309700000.0 11309700000.0 11309700000.0 11309700000.0 11309700000.0 11309700000.0 11309700000.0 11309700000.0 11309700000.0 11309700000.0 11309700000.0 11309700000.0 11309700000.0 11309700000.0 11309700000.0 11309700000.0 11309700000.0 11309700000.0 11309700000.0 11309700000.0 11309700000.0 11309700000.0 11309700000.0 11309700000.0 11309700000.0 11309700000.0 11309700000.0 11309700000.0 11309700000.0 11309700000.0 11309700000.0 11309700000.0 11309700000.0 11309700000.0 11309700000.0 11309700000.0 11309700000.0 11309700000.0 11309700000.0 11309700000.0 11309700000.0 11309700000.0 11309700000.0 11309700000.0 11309700000.0 11309700000.0 11309700000.0 11309700000.0 11309700000.0 11309700000.0 11309700000.0 11309700000.0 11309700000.0 11309700000.0 11309700000.0 11309700000.0 11309700000.0 11309700000.0 11309700000.0 11309700000.0 11309700000.0 11309700000.0 11309700000.0 11309700000.0 11309700000.0 11309700000.0 11309700000.0 11309700000.0 11309700000.0 11309700000.0 11309700000.0 11309700000.0 11309700000.0 11309700000.0 11309700000.0 11309700000.0 11309700000.0 11309700000.0 11309700000.0 11309700000.0 11309700000.0 11309700000.0 11309700000.0 11309700000.0 11309700000.0 11309700000.0 11309700000.0 11309700000.0 11309700000.0 11309700000.0 11309700000.0 11309700000.0 11309700000.0 11309700000.0 11309700000.0 11309700000.0 11309700000.0 11309700000.0 11309700000.0 11309700000.0 11309700000.0 11309700000.0 11309700000.0 11309700000.0 11309700000.0 11309700000.0 11309700000.0 11309700000.0 11309700000.0 11309700000.0 11309700000.0 11309700000.0 11309700000.0 11309700000.0 11309700000.0 11309700000.0 11309700000.0 11309700000.0 11309700000.0 11309700000.0 11309700000.0 11309700000.0 11309700000.0 11309700000.0 11309700000.0 11309700000.0 11309700000.0 11309700000.0 11309700000.0 11309700000.0 11309700000.0 11309700000.0 11309700000.0 11309700000.0 11309700000.0 11309700000.0 11309700000.0 11309700000.0 11309700000.0 11309700000.0 11309700000.0 11309700000.0 11309700000.0 11309700000.0 11309700000.0 11309700000.0 11309700000.0 11309700000.0 11309700000.0 11309700000.0 11309700000.0 11309700000.0 11309700000.0 11309700000.0 11309700000.0 11309700000.0 11309700000.0 11309700000.0 11309700000.0 11309700000.0 11309700000.0 11309700000.0 11309700000.0 11309700000.0 11309700000.0 11309700000.0 11309700000.0 11309700000.0 11309700000.0 11309700000.0 11309700000.0 11309700000.0 11309700000.0 11309700000.0 11309700000.0 11309700000.0 11309700000.0 11309700000.0 11309700000.0 11309700000.0 11309700000.0 11309700000.0 11309700000.0 11309700000.0 11309700000.0 11309700000.0 11309700000.0 11309700000.0 11309700000.0 11309700000.0 11309700000.0 11309700000.0 11309700000.0 11309700000.0 11309700000.0 11309700000.0 11309700000.0 11309700000.0 11309700000.0 11309700000.0 11309700000.0 11309700000.0 11309700000.0 11309700000.0 11309700000.0 11309700000.0 11309700000.0 11309700000.0 11309700000.0 11309700000.0 11309700000.0 11309700000.0 11309700000.0 11309700000.0 11309700000.0 11309700000.0 11309700000.0 11309700000.0 11309700000.0 11309700000.0 11309700000.0 11309700000.0 11309700000.0 11309700000.0 11309700000.0 11309700000.0 11309700000.0 11309700000.0 11309700000.0 11309700000.0 11309700000.0 11309700000.0 11309700000.0 11309700000.0 11309700000.0 11309700000.0 11309700000.0 11309700000.0 11309700000.0 11309700000.0 11309700000.0 11309700000.0 11309700000.0 11309700000.0 11309700000.0 11309700000.0 11309700000.0 11309700000.0 11309700000.0 11309700000.0 11309700000.0 11309700000.0 11309700000.0 11309700000.0 11309700000.0 11309700000.0 11309700000.0 11309700000.0 11309700000.0 11309700000.0 11309700000.0 11309700000.0 11309700000.0 11309700000.0 11309700000.0 11309700000.0 11309700000.0 11309700000.0 11309700000.0 11309700000.0 11309700000.0 11309700000.0 11309700000.0 11309700000.0 11309700000.0 11309700000.0 11309700000.0 11309700000.0 11309700000.0 11309700000.0 11309700000.0 11309700000.0 11309700000.0 11309700000.0 11309700000.0 11309700000.0 11309700000.0 11309700000.0 11309700000.0 11309700000.0 11309700000.0 11309700000.0 11309700000.0 11309700000.0 11309700000.0 11309700000.0 11309700000.0 11309700000.0 11309700000.0 11309700000.0 11309700000.0 11309700000.0 11309700000.0 11309700000.0 11309700000.0 11309700000.0 11309700000.0 11309700000.0 11309700000.0 11309700000.0 11309700000.0 11309700000.0 11309700000.0 11309700000.0 11309700000.0 11309700000.0 11309700000.0 11309700000.0 11309700000.0 11309700000.0 11309700000.0 11309700000.0 11309700000.0 11309700000.0 11309700000.0 11309700000.0 11309700000.0 11309700000.0 11309700000.0 11309700000.0 11309700000.0 11309700000.0 11309700000.0 11309700000.0 11309700000.0 11309700000.0 11309700000.0 11309700000.0 11309700000.0 11309700000.0 11309700000.0 11309700000.0 11309700000.0 11309700000.0 11309700000.0 11309700000.0 11309700000.0 11309700000.0 11309700000.0 11309700000.0 11309700000.0 11309700000.0 11309700000.0 11309700000.0 11309700000.0 11309700000.0 11309700000.0 11309700000.0 11309700000.0 11309700000.0 11309700000.0 11309700000.0 11309700000.0 11309700000.0 11309700000.0 11309700000.0 11309700000.0 11309700000.0 11309700000.0 11309700000.0 11309700000.0 11309700000.0 11309700000.0 11309700000.0 11309700000.0 11309700000.0 11309700000.0 11309700000.0 11309700000.0 11309700000.0 11309700000.0 11309700000.0 11309700000.0 11309700000.0 11309700000.0 11309700000.0 11309700000.0 11309700000.0 11309700000.0 11309700000.0 11309700000.0 11309700000.0 11309700000.0 11309700000.0 11309700000.0 11309700000.0 11309700000.0 11309700000.0 11309700000.0 11309700000.0 11309700000.0 11309700000.0 11309700000.0 11309700000.0 11309700000.0 11309700000.0 11309700000.0 11309700000.0 11309700000.0 11309700000.0 11309700000.0 11309700000.0 11309700000.0 11309700000.0 11309700000.0 11309700000.0 11309700000.0 11309700000.0 11309700000.0 11309700000.0 11309700000.0 11309700000.0 11309700000.0 11309700000.0 11309700000.0 11309700000.0 11309700000.0 11309700000.0 11309700000.0 11309700000.0 11309700000.0 11309700000.0 11309700000.0 11309700000.0 11309700000.0 11309700000.0 11309700000.0 11309700000.0 11309700000.0 11309700000.0 11309700000.0 11309700000.0 11309700000.0 11309700000.0 11309700000.0 11309700000.0 11309700000.0 11309700000.0 11309700000.0 11309700000.0 11309700000.0 11309700000.0 11309700000.0 11309700000.0 11309700000.0 11309700000.0 11309700000.0 11309700000.0 11309700000.0 11309700000.0 11309700000.0 11309700000.0 11309700000.0 11309700000.0 11309700000.0 11309700000.0 11309700000.0 11309700000.0 11309700000.0 11309700000.0 11309700000.0 11309700000.0 11309700000.0 11309700000.0 11309700000.0 11309700000.0 11309700000.0 11309700000.0 11309700000.0 11309700000.0 11309700000.0 11309700000.0 11309700000.0 11309700000.0 11309700000.0 11309700000.0 11309700000.0 11309700000.0 11309700000.0 11309700000.0 11309700000.0 11309700000.0 11309700000.0 11309700000.0 11309700000.0 11309700000.0 11309700000.0 11309700000.0 11309700000.0 11309700000.0 11309700000.0 11309700000.0 11309700000.0 11309700000.0 11309700000.0 11309700000.0 11309700000.0 11309700000.0 11309700000.0 11309700000.0 11309700000.0 11309700000.0 11309700000.0 11309700000.0 11309700000.0 11309700000.0 11309700000.0 11309700000.0 11309700000.0 11309700000.0 11309700000.0 11309700000.0 11309700000.0 11309700000.0 11309700000.0 11309700000.0 11309700000.0 11309700000.0 11309700000.0 11309700000.0 11309700000.0 11309700000.0 11309700000.0 11309700000.0 11309700000.0 11309700000.0 11309700000.0 11309700000.0 11309700000.0 11309700000.0 11309700000.0 11309700000.0 11309700000.0 11309700000.0 11309700000.0 11309700000.0 11309700000.0 11309700000.0 11309700000.0 11309700000.0 11309700000.0 11309700000.0 11309700000.0 11309700000.0 11309700000.0 11309700000.0 11309700000.0 11309700000.0 11309700000.0 11309700000.0 11309700000.0 11309700000.0 11309700000.0 11309700000.0 11309700000.0 11309700000.0 11309700000.0 11309700000.0 11309700000.0 11309700000.0 11309700000.0 11309700000.0 11309700000.0 11309700000.0 11309700000.0 11309700000.0 11309700000.0 11309700000.0 11309700000.0 11309700000.0 11309700000.0 11309700000.0 11309700000.0 11309700000.0 11309700000.0 11309700000.0 11309700000.0 11309700000.0 11309700000.0 11309700000.0 11309700000.0 11309700000.0 11309700000.0 11309700000.0 11309700000.0 11309700000.0 11309700000.0 11309700000.0 11309700000.0 11309700000.0 11309700000.0 11309700000.0 11309700000.0 11309700000.0 11309700000.0 11309700000.0 11309700000.0 11309700000.0 11309700000.0 11309700000.0 11309700000.0 11309700000.0 11309700000.0 11309700000.0 11309700000.0 11309700000.0 11309700000.0 11309700000.0 11309700000.0 11309700000.0 11309700000.0 11309700000.0 11309700000.0 11309700000.0 11309700000.0 11309700000.0 11309700000.0 11309700000.0 11309700000.0 11309700000.0 11309700000.0 11309700000.0 11309700000.0 11309700000.0 11309700000.0 11309700000.0 11309700000.0 11309700000.0 11309700000.0 11309700000.0 11309700000.0 11309700000.0 11309700000.0 11309700000.0 11309700000.0 11309700000.0 11309700000.0 11309700000.0 11309700000.0 11309700000.0 11309700000.0 11309700000.0 11309700000.0 11309700000.0 11309700000.0 11309700000.0 11309700000.0 11309700000.0 11309700000.0 11309700000.0 11309700000.0 11309700000.0 11309700000.0 11309700000.0 11309700000.0 11309700000.0 11309700000.0 11309700000.0 11309700000.0 11309700000.0 11309700000.0 11309700000.0 11309700000.0 11309700000.0 11309700000.0 11309700000.0 11309700000.0 11309700000.0 11309700000.0 11309700000.0 11309700000.0 11309700000.0 11309700000.0 11309700000.0 11309700000.0 11309700000.0 11309700000.0 11309700000.0 11309700000.0 11309700000.0 11309700000.0 11309700000.0 11309700000.0 11309700000.0 11309700000.0 11309700000.0 11309700000.0 11309700000.0 11309700000.0 11309700000.0 11309700000.0 11309700000.0 11309700000.0 11309700000.0 11309700000.0 11309700000.0 11309700000.0 11309700000.0 11309700000.0 11309700000.0 11309700000.0 11309700000.0 11309700000.0 11309700000.0 11309700000.0 11309700000.0 11309700000.0 11309700000.0 11309700000.0 11309700000.0 11309700000.0 11309700000.0 11309700000.0 11309700000.0 11309700000.0 11309700000.0 11309700000.0 11309700000.0 11309700000.0 11309700000.0 11309700000.0 11309700000.0 11309700000.0 11309700000.0 11309700000.0 11309700000.0 11309700000.0 11309700000.0 11309700000.0 11309700000.0 11309700000.0 11309700000.0 11309700000.0 11309700000.0 11309700000.0 11309700000.0 11309700000.0 11309700000.0 11309700000.0 11309700000.0 11309700000.0 11309700000.0 11309700000.0 11309700000.0 11309700000.0 11309700000.0 11309700000.0 11309700000.0 11309700000.0 11309700000.0 11309700000.0 11309700000.0 11309700000.0 11309700000.0 11309700000.0 11309700000.0 11309700000.0 11309700000.0 11309700000.0 11309700000.0 11309700000.0 11309700000.0 11309700000.0 11309700000.0 11309700000.0 11309700000.0 11309700000.0 11309700000.0 11309700000.0 11309700000.0 11309700000.0 11309700000.0 11309700000.0 11309700000.0 11309700000.0 11309700000.0 11309700000.0 11309700000.0 11309700000.0 11309700000.0 11309700000.0 11309700000.0 11309700000.0 11309700000.0 11309700000.0 11309700000.0 11309700000.0 11309700000.0 11309700000.0 11309700000.0 11309700000.0 11309700000.0 11309700000.0 11309700000.0 11309700000.0 11309700000.0 11309700000.0 11309700000.0 11309700000.0 11309700000.0 11309700000.0 11309700000.0 11309700000.0 11309700000.0 11309700000.0 11309700000.0 11309700000.0 11309700000.0 11309700000.0 11309700000.0 11309700000.0 11309700000.0 11309700000.0 11309700000.0 11309700000.0 11309700000.0 11309700000.0 11309700000.0 11309700000.0 11309700000.0 11309700000.0 11309700000.0 11309700000.0 11309700000.0 11309700000.0 11309700000.0 11309700000.0 11309700000.0 11309700000.0 11309700000.0 11309700000.0 11309700000.0 11309700000.0 11309700000.0 11309700000.0 11309700000.0 11309700000.0 11309700000.0 11309700000.0 11309700000.0 11309700000.0 11309700000.0 11309700000.0 11309700000.0 11309700000.0 11309700000.0 11309700000.0 11309700000.0 11309700000.0 11309700000.0 11309700000.0 11309700000.0 11309700000.0 11309700000.0 11309700000.0 11309700000.0 11309700000.0 11309700000.0 11309700000.0 11309700000.0 11309700000.0 11309700000.0 11309700000.0 11309700000.0 11309700000.0 11309700000.0 11309700000.0 11309700000.0 11309700000.0 11309700000.0 11309700000.0 11309700000.0 11309700000.0 11309700000.0 11309700000.0 11309700000.0 11309700000.0 11309700000.0 11309700000.0 11309700000.0 11309700000.0 11309700000.0 11309700000.0 11309700000.0 11309700000.0 11309700000.0 11309700000.0 11309700000.0 11309700000.0 11309700000.0 11309700000.0 11309700000.0 11309700000.0 11309700000.0 11309700000.0 11309700000.0 11309700000.0 11309700000.0 11309700000.0 11309700000.0 11309700000.0 11309700000.0 11309700000.0 11309700000.0 11309700000.0 11309700000.0 11309700000.0 11309700000.0 11309700000.0 11309700000.0 11309700000.0 11309700000.0 11309700000.0 11309700000.0 11309700000.0 11309700000.0 11309700000.0 11309700000.0 11309700000.0 11309700000.0 11309700000.0 11309700000.0 11309700000.0 11309700000.0 11309700000.0 11309700000.0 11309700000.0 11309700000.0 11309700000.0 11309700000.0 11309700000.0 11309700000.0 11309700000.0 11309700000.0 11309700000.0 11309700000.0 11309700000.0 11309700000.0 11309700000.0 11309700000.0 11309700000.0 11309700000.0 11309700000.0 11309700000.0 11309700000.0 11309700000.0 11309700000.0 11309700000.0 11309700000.0 11309700000.0 11309700000.0 11309700000.0 11309700000.0 11309700000.0 11309700000.0 11309700000.0 11309700000.0 11309700000.0 11309700000.0 11309700000.0 11309700000.0 11309700000.0 11309700000.0 11309700000.0 11309700000.0 11309700000.0 11309700000.0 11309700000.0 11309700000.0 11309700000.0 11309700000.0 11309700000.0 11309700000.0 11309700000.0 11309700000.0 11309700000.0 11309700000.0 11309700000.0 11309700000.0 11309700000.0 11309700000.0 11309700000.0 11309700000.0 11309700000.0 11309700000.0 11309700000.0 11309700000.0 11309700000.0 11309700000.0 11309700000.0 11309700000.0 11309700000.0 11309700000.0 11309700000.0 11309700000.0 11309700000.0 11309700000.0 11309700000.0 11309700000.0 11309700000.0 11309700000.0 11309700000.0 11309700000.0 11309700000.0 11309700000.0 11309700000.0 11309700000.0 11309700000.0 11309700000.0 11309700000.0 11309700000.0 11309700000.0 11309700000.0 11309700000.0 11309700000.0 11309700000.0 11309700000.0 11309700000.0 11309700000.0 11309700000.0 11309700000.0 11309700000.0 11309700000.0 11309700000.0 11309700000.0 11309700000.0 11309700000.0 11309700000.0 11309700000.0 11309700000.0 11309700000.0 11309700000.0 11309700000.0 11309700000.0 11309700000.0 11309700000.0 11309700000.0 11309700000.0 11309700000.0 11309700000.0 11309700000.0 11309700000.0 11309700000.0 11309700000.0 11309700000.0 11309700000.0 11309700000.0 11309700000.0 11309700000.0 11309700000.0 11309700000.0 11309700000.0 11309700000.0 11309700000.0 11309700000.0 11309700000.0 11309700000.0 11309700000.0 11309700000.0 11309700000.0 11309700000.0 11309700000.0 11309700000.0 11309700000.0 11309700000.0 11309700000.0 11309700000.0 11309700000.0 11309700000.0 11309700000.0 11309700000.0 11309700000.0 11309700000.0 11309700000.0 11309700000.0 11309700000.0 11309700000.0 11309700000.0 11309700000.0 11309700000.0 11309700000.0 11309700000.0 11309700000.0 11309700000.0 11309700000.0 11309700000.0 11309700000.0 11309700000.0 11309700000.0 11309700000.0 11309700000.0 11309700000.0 11309700000.0 11309700000.0 11309700000.0 11309700000.0 11309700000.0 11309700000.0 11309700000.0 11309700000.0 11309700000.0 11309700000.0 11309700000.0 11309700000.0 11309700000.0 11309700000.0 11309700000.0 11309700000.0 11309700000.0 11309700000.0 11309700000.0 11309700000.0 11309700000.0 11309700000.0 11309700000.0 11309700000.0 11309700000.0 11309700000.0 11309700000.0 11309700000.0 11309700000.0 11309700000.0 11309700000.0 11309700000.0 11309700000.0 11309700000.0 11309700000.0 11309700000.0 11309700000.0 11309700000.0 11309700000.0 11309700000.0 11309700000.0 11309700000.0 11309700000.0 11309700000.0 11309700000.0 11309700000.0 11309700000.0 11309700000.0 11309700000.0 11309700000.0 11309700000.0 11309700000.0 11309700000.0 11309700000.0 11309700000.0 11309700000.0 11309700000.0 11309700000.0 11309700000.0 11309700000.0 11309700000.0 11309700000.0 11309700000.0 11309700000.0 11309700000.0 11309700000.0 11309700000.0 11309700000.0 11309700000.0 11309700000.0 11309700000.0 11309700000.0 11309700000.0 11309700000.0 11309700000.0 11309700000.0 11309700000.0 11309700000.0 11309700000.0 11309700000.0 11309700000.0 11309700000.0 11309700000.0 11309700000.0 11309700000.0 11309700000.0 11309700000.0 11309700000.0 11309700000.0 11309700000.0 11309700000.0 11309700000.0 11309700000.0 11309700000.0 11309700000.0 11309700000.0 11309700000.0 11309700000.0 11309700000.0 11309700000.0 11309700000.0 11309700000.0 11309700000.0 11309700000.0 11309700000.0 11309700000.0 11309700000.0 11309700000.0 11309700000.0 11309700000.0 11309700000.0 11309700000.0 11309700000.0 11309700000.0 11309700000.0 11309700000.0 11309700000.0 11309700000.0 11309700000.0 11309700000.0 11309700000.0 11309700000.0 11309700000.0 11309700000.0 11309700000.0 11309700000.0 11309700000.0 11309700000.0 11309700000.0 11309700000.0 11309700000.0 11309700000.0 11309700000.0 11309700000.0 11309700000.0 11309700000.0 11309700000.0 11309700000.0 11309700000.0 11309700000.0 11309700000.0 11309700000.0 11309700000.0 11309700000.0 11309700000.0 11309700000.0 11309700000.0 11309700000.0 11309700000.0 11309700000.0 11309700000.0 11309700000.0 11309700000.0 11309700000.0 11309700000.0 11309700000.0 11309700000.0 11309700000.0 11309700000.0 11309700000.0 11309700000.0 11309700000.0 11309700000.0 11309700000.0 11309700000.0 11309700000.0 11309700000.0 11309700000.0 11309700000.0 11309700000.0 11309700000.0 11309700000.0 11309700000.0 11309700000.0 11309700000.0 11309700000.0 11309700000.0 11309700000.0 11309700000.0 11309700000.0 11309700000.0 11309700000.0 11309700000.0 11309700000.0 11309700000.0 11309700000.0 11309700000.0 11309700000.0 11309700000.0 11309700000.0 11309700000.0 11309700000.0 11309700000.0 11309700000.0 11309700000.0 11309700000.0 11309700000.0 11309700000.0 11309700000.0 11309700000.0 11309700000.0 11309700000.0 11309700000.0 11309700000.0 11309700000.0 11309700000.0 11309700000.0 11309700000.0 11309700000.0 11309700000.0 11309700000.0 11309700000.0 11309700000.0 11309700000.0 11309700000.0 11309700000.0 11309700000.0 11309700000.0 11309700000.0 11309700000.0 11309700000.0 11309700000.0 11309700000.0 11309700000.0 11309700000.0 11309700000.0 11309700000.0 11309700000.0 11309700000.0 11309700000.0 11309700000.0 11309700000.0 11309700000.0 11309700000.0 11309700000.0 11309700000.0 11309700000.0 11309700000.0 11309700000.0 11309700000.0 11309700000.0 11309700000.0 11309700000.0 11309700000.0 11309700000.0 11309700000.0 11309700000.0 11309700000.0 11309700000.0 11309700000.0 11309700000.0 11309700000.0 11309700000.0 11309700000.0 11309700000.0 11309700000.0 11309700000.0 11309700000.0 11309700000.0 11309700000.0 11309700000.0 11309700000.0 11309700000.0 11309700000.0 11309700000.0 11309700000.0 11309700000.0 11309700000.0 11309700000.0 11309700000.0 11309700000.0 11309700000.0 11309700000.0 11309700000.0 11309700000.0 11309700000.0 11309700000.0 11309700000.0 11309700000.0 11309700000.0 11309700000.0 11309700000.0 11309700000.0 11309700000.0 11309700000.0 11309700000.0 11309700000.0 11309700000.0 11309700000.0 11309700000.0 11309700000.0 11309700000.0 11309700000.0 11309700000.0 11309700000.0 11309700000.0 11309700000.0 11309700000.0 11309700000.0 11309700000.0 11309700000.0 11309700000.0 11309700000.0 11309700000.0 11309700000.0 11309700000.0 11309700000.0 11309700000.0 11309700000.0 11309700000.0 11309700000.0 11309700000.0 11309700000.0 11309700000.0 11309700000.0 11309700000.0 11309700000.0 11309700000.0 11309700000.0 11309700000.0 11309700000.0 11309700000.0 11309700000.0 11309700000.0 11309700000.0 11309700000.0 11309700000.0 11309700000.0 11309700000.0 11309700000.0 11309700000.0 11309700000.0 11309700000.0 11309700000.0 11309700000.0 11309700000.0 11309700000.0 11309700000.0 11309700000.0 11309700000.0 11309700000.0 11309700000.0 11309700000.0 11309700000.0 11309700000.0 11309700000.0 11309700000.0 11309700000.0 11309700000.0 11309700000.0 11309700000.0 11309700000.0 11309700000.0 11309700000.0 11309700000.0 11309700000.0 11309700000.0 11309700000.0 11309700000.0 11309700000.0 11309700000.0 11309700000.0 11309700000.0 11309700000.0 11309700000.0 11309700000.0 11309700000.0 11309700000.0 11309700000.0 11309700000.0 11309700000.0 11309700000.0 11309700000.0 11309700000.0 11309700000.0 11309700000.0 11309700000.0 11309700000.0 11309700000.0 11309700000.0 11309700000.0 11309700000.0 11309700000.0 11309700000.0 11309700000.0 11309700000.0 11309700000.0 11309700000.0 11309700000.0 11309700000.0 11309700000.0 11309700000.0 11309700000.0 11309700000.0 11309700000.0 11309700000.0 11309700000.0 11309700000.0 11309700000.0 11309700000.0 11309700000.0 11309700000.0 11309700000.0 11309700000.0 11309700000.0 11309700000.0 11309700000.0 11309700000.0 11309700000.0 11309700000.0 11309700000.0 11309700000.0 11309700000.0 11309700000.0 11309700000.0 11309700000.0 11309700000.0 11309700000.0 11309700000.0 11309700000.0 11309700000.0 11309700000.0 11309700000.0 11309700000.0 11309700000.0 11309700000.0 11309700000.0 11309700000.0 11309700000.0 11309700000.0 11309700000.0 11309700000.0 11309700000.0 11309700000.0 11309700000.0 11309700000.0 11309700000.0 11309700000.0 11309700000.0 11309700000.0 11309700000.0 11309700000.0 11309700000.0 11309700000.0 11309700000.0 11309700000.0 11309700000.0 11309700000.0 11309700000.0 11309700000.0 11309700000.0 11309700000.0 11309700000.0 11309700000.0 11309700000.0 11309700000.0 11309700000.0 11309700000.0 11309700000.0 11309700000.0 11309700000.0 11309700000.0 11309700000.0 11309700000.0 11309700000.0 11309700000.0 11309700000.0 11309700000.0 11309700000.0 11309700000.0 11309700000.0 11309700000.0 11309700000.0 11309700000.0 11309700000.0 11309700000.0 11309700000.0 11309700000.0 11309700000.0 11309700000.0 11309700000.0 11309700000.0 11309700000.0 11309700000.0 11309700000.0 11309700000.0 11309700000.0 11309700000.0 11309700000.0 11309700000.0 11309700000.0 11309700000.0 11309700000.0 11309700000.0 11309700000.0 11309700000.0 11309700000.0 11309700000.0 11309700000.0 11309700000.0 11309700000.0 11309700000.0 11309700000.0 11309700000.0 11309700000.0 11309700000.0 11309700000.0 11309700000.0 11309700000.0 11309700000.0 11309700000.0 11309700000.0 11309700000.0 11309700000.0 11309700000.0 11309700000.0 11309700000.0 11309700000.0 11309700000.0 11309700000.0 11309700000.0 11309700000.0 11309700000.0 11309700000.0 11309700000.0 11309700000.0 11309700000.0 11309700000.0 11309700000.0 11309700000.0 11309700000.0 11309700000.0 11309700000.0 11309700000.0 11309700000.0 11309700000.0 11309700000.0 11309700000.0 11309700000.0 11309700000.0 11309700000.0 11309700000.0 11309700000.0 11309700000.0 11309700000.0 11309700000.0 11309700000.0 11309700000.0 11309700000.0 11309700000.0 11309700000.0 11309700000.0 11309700000.0 11309700000.0 11309700000.0 11309700000.0 11309700000.0 11309700000.0 11309700000.0 11309700000.0 11309700000.0 11309700000.0 11309700000.0 11309700000.0 11309700000.0 11309700000.0 11309700000.0 11309700000.0 11309700000.0 11309700000.0 11309700000.0 11309700000.0 11309700000.0 11309700000.0 11309700000.0 11309700000.0 11309700000.0 11309700000.0 11309700000.0 11309700000.0 11309700000.0 11309700000.0 11309700000.0 11309700000.0 11309700000.0 11309700000.0 11309700000.0 11309700000.0 11309700000.0 11309700000.0 11309700000.0 11309700000.0 11309700000.0 11309700000.0 11309700000.0 11309700000.0 11309700000.0 11309700000.0 11309700000.0 11309700000.0 11309700000.0 11309700000.0 11309700000.0 11309700000.0 11309700000.0 11309700000.0 11309700000.0 11309700000.0 11309700000.0 11309700000.0 11309700000.0 11309700000.0 11309700000.0 11309700000.0 11309700000.0 11309700000.0 11309700000.0 11309700000.0 11309700000.0 11309700000.0 11309700000.0 11309700000.0 11309700000.0 11309700000.0 11309700000.0 11309700000.0 11309700000.0 11309700000.0 11309700000.0 11309700000.0 11309700000.0 11309700000.0 11309700000.0 11309700000.0 11309700000.0 11309700000.0 11309700000.0 11309700000.0 11309700000.0 11309700000.0 11309700000.0 11309700000.0 11309700000.0 11309700000.0 11309700000.0 11309700000.0 11309700000.0 11309700000.0 11309700000.0 11309700000.0 11309700000.0 11309700000.0 11309700000.0 11309700000.0 11309700000.0 11309700000.0 11309700000.0 11309700000.0 11309700000.0 11309700000.0 11309700000.0 11309700000.0 11309700000.0 11309700000.0 11309700000.0 11309700000.0 11309700000.0 11309700000.0 11309700000.0 11309700000.0 11309700000.0 11309700000.0 11309700000.0 11309700000.0 11309700000.0 11309700000.0 11309700000.0 11309700000.0 11309700000.0 11309700000.0 11309700000.0 11309700000.0 11309700000.0 11309700000.0 11309700000.0 11309700000.0 11309700000.0 11309700000.0 11309700000.0 11309700000.0 11309700000.0 11309700000.0 11309700000.0 11309700000.0 11309700000.0 11309700000.0 11309700000.0 11309700000.0 11309700000.0 11309700000.0 11309700000.0 11309700000.0 11309700000.0 11309700000.0 11309700000.0 11309700000.0 11309700000.0 11309700000.0 11309700000.0 11309700000.0 11309700000.0 11309700000.0 11309700000.0 11309700000.0 11309700000.0 11309700000.0 11309700000.0 11309700000.0 11309700000.0 11309700000.0 11309700000.0 11309700000.0 11309700000.0 11309700000.0 11309700000.0 11309700000.0 11309700000.0 11309700000.0 11309700000.0 11309700000.0 11309700000.0 11309700000.0 11309700000.0 11309700000.0 11309700000.0 11309700000.0 11309700000.0 11309700000.0 11309700000.0 11309700000.0 11309700000.0 11309700000.0 11309700000.0 11309700000.0 11309700000.0 11309700000.0 11309700000.0 11309700000.0 11309700000.0 11309700000.0 11309700000.0 11309700000.0 11309700000.0 11309700000.0 11309700000.0 11309700000.0 11309700000.0 11309700000.0 11309700000.0 11309700000.0 11309700000.0 11309700000.0 11309700000.0 11309700000.0 11309700000.0 11309700000.0 11309700000.0 11309700000.0 11309700000.0 11309700000.0 11309700000.0 11309700000.0 11309700000.0 11309700000.0 11309700000.0 11309700000.0 11309700000.0 11309700000.0 11309700000.0 11309700000.0 11309700000.0 11309700000.0 11309700000.0 11309700000.0 11309700000.0 11309700000.0 11309700000.0 11309700000.0 11309700000.0 11309700000.0 11309700000.0 11309700000.0 11309700000.0 11309700000.0 11309700000.0 11309700000.0 11309700000.0 11309700000.0 11309700000.0 11309700000.0 11309700000.0 11309700000.0 11309700000.0 11309700000.0 11309700000.0 11309700000.0 11309700000.0 11309700000.0 11309700000.0 11309700000.0 11309700000.0 11309700000.0 11309700000.0 11309700000.0 11309700000.0 11309700000.0 11309700000.0 11309700000.0 11309700000.0 11309700000.0 11309700000.0 11309700000.0 11309700000.0 11309700000.0 11309700000.0 11309700000.0 11309700000.0 11309700000.0 11309700000.0 11309700000.0 11309700000.0 11309700000.0 11309700000.0 11309700000.0 11309700000.0 11309700000.0 11309700000.0 11309700000.0 11309700000.0 11309700000.0 11309700000.0 11309700000.0 11309700000.0 11309700000.0 11309700000.0 11309700000.0 11309700000.0 11309700000.0 11309700000.0 11309700000.0 11309700000.0 11309700000.0 11309700000.0 11309700000.0 11309700000.0 11309700000.0 11309700000.0 11309700000.0 11309700000.0 11309700000.0 11309700000.0 11309700000.0 11309700000.0 11309700000.0 11309700000.0 11309700000.0 11309700000.0 11309700000.0 11309700000.0 11309700000.0 11309700000.0 11309700000.0 11309700000.0 11309700000.0 11309700000.0 11309700000.0 11309700000.0 11309700000.0 11309700000.0 11309700000.0 11309700000.0 11309700000.0 11309700000.0 11309700000.0 11309700000.0 11309700000.0 11309700000.0 11309700000.0 11309700000.0 11309700000.0 11309700000.0 11309700000.0 11309700000.0 11309700000.0 11309700000.0 11309700000.0 11309700000.0 11309700000.0 11309700000.0 11309700000.0 11309700000.0 11309700000.0 11309700000.0 11309700000.0 11309700000.0 11309700000.0 11309700000.0 11309700000.0 11309700000.0 11309700000.0 11309700000.0 11309700000.0 11309700000.0 11309700000.0 11309700000.0 11309700000.0 11309700000.0 11309700000.0 11309700000.0 11309700000.0 11309700000.0 11309700000.0 11309700000.0 11309700000.0 11309700000.0 11309700000.0 11309700000.0 11309700000.0 11309700000.0 11309700000.0 11309700000.0 11309700000.0 11309700000.0 11309700000.0 11309700000.0 11309700000.0 11309700000.0 11309700000.0 11309700000.0 11309700000.0 11309700000.0 11309700000.0 11309700000.0 11309700000.0 11309700000.0 11309700000.0 11309700000.0 11309700000.0 11309700000.0 11309700000.0 11309700000.0 11309700000.0 11309700000.0 11309700000.0 11309700000.0 11309700000.0 11309700000.0 11309700000.0 11309700000.0 11309700000.0 11309700000.0 11309700000.0 11309700000.0 11309700000.0 11309700000.0 11309700000.0 11309700000.0 11309700000.0 11309700000.0 11309700000.0 11309700000.0 11309700000.0 11309700000.0 11309700000.0 11309700000.0 11309700000.0 11309700000.0 11309700000.0 11309700000.0 11309700000.0 11309700000.0 11309700000.0 11309700000.0 11309700000.0 11309700000.0 11309700000.0 11309700000.0 11309700000.0 11309700000.0 11309700000.0 11309700000.0 11309700000.0 11309700000.0 11309700000.0 11309700000.0 11309700000.0 11309700000.0 11309700000.0 11309700000.0 11309700000.0 11309700000.0 11309700000.0 11309700000.0 11309700000.0 11309700000.0 11309700000.0 11309700000.0 11309700000.0 11309700000.0 11309700000.0 11309700000.0 11309700000.0 11309700000.0 11309700000.0 11309700000.0 11309700000.0 11309700000.0 11309700000.0 11309700000.0 11309700000.0 11309700000.0 11309700000.0 11309700000.0 11309700000.0 11309700000.0 11309700000.0 11309700000.0 11309700000.0 11309700000.0 11309700000.0 11309700000.0 11309700000.0 11309700000.0 11309700000.0 11309700000.0 11309700000.0 11309700000.0 11309700000.0 11309700000.0 11309700000.0 11309700000.0 11309700000.0 11309700000.0 11309700000.0 11309700000.0 11309700000.0 11309700000.0 11309700000.0 11309700000.0 11309700000.0 11309700000.0 11309700000.0 11309700000.0 11309700000.0 11309700000.0 11309700000.0 11309700000.0 11309700000.0 11309700000.0 11309700000.0 11309700000.0 11309700000.0 11309700000.0 11309700000.0 11309700000.0 11309700000.0 11309700000.0 11309700000.0 11309700000.0 11309700000.0 11309700000.0 11309700000.0 11309700000.0 11309700000.0 11309700000.0 11309700000.0 11309700000.0 11309700000.0 11309700000.0 11309700000.0 11309700000.0 11309700000.0 11309700000.0 11309700000.0 11309700000.0 11309700000.0 11309700000.0 11309700000.0 11309700000.0 11309700000.0 11309700000.0 11309700000.0 11309700000.0 11309700000.0 11309700000.0 11309700000.0 11309700000.0 11309700000.0 11309700000.0 11309700000.0 11309700000.0 11309700000.0 11309700000.0 11309700000.0 11309700000.0 11309700000.0 11309700000.0 11309700000.0 11309700000.0 11309700000.0 11309700000.0 11309700000.0 11309700000.0 11309700000.0 11309700000.0 11309700000.0 11309700000.0 11309700000.0 11309700000.0 11309700000.0 11309700000.0 11309700000.0 11309700000.0 11309700000.0 11309700000.0 11309700000.0 11309700000.0 11309700000.0 11309700000.0 11309700000.0 11309700000.0 11309700000.0 11309700000.0 11309700000.0 11309700000.0 11309700000.0 11309700000.0 11309700000.0 11309700000.0 11309700000.0 11309700000.0 11309700000.0 11309700000.0 11309700000.0 11309700000.0 11309700000.0 11309700000.0 11309700000.0 11309700000.0 11309700000.0 11309700000.0 11309700000.0 11309700000.0 11309700000.0 11309700000.0 11309700000.0 11309700000.0 11309700000.0 11309700000.0 11309700000.0 11309700000.0 11309700000.0 11309700000.0 11309700000.0 11309700000.0 11309700000.0 11309700000.0 11309700000.0 11309700000.0 11309700000.0 11309700000.0 11309700000.0 11309700000.0 11309700000.0 11309700000.0 11309700000.0 11309700000.0 11309700000.0 11309700000.0 11309700000.0 11309700000.0 11309700000.0 11309700000.0 11309700000.0 11309700000.0 11309700000.0 11309700000.0 11309700000.0 11309700000.0 11309700000.0 11309700000.0 11309700000.0 11309700000.0 11309700000.0 11309700000.0 11309700000.0 11309700000.0 11309700000.0 11309700000.0 11309700000.0 11309700000.0 11309700000.0 11309700000.0 11309700000.0 11309700000.0 11309700000.0 11309700000.0 11309700000.0 11309700000.0 11309700000.0 11309700000.0 11309700000.0 11309700000.0 11309700000.0 11309700000.0 11309700000.0 11309700000.0 11309700000.0 11309700000.0 11309700000.0 11309700000.0 11309700000.0 11309700000.0 11309700000.0 11309700000.0 11309700000.0 11309700000.0 11309700000.0 11309700000.0 11309700000.0 11309700000.0 11309700000.0 11309700000.0 11309700000.0 11309700000.0 11309700000.0 11309700000.0 11309700000.0 11309700000.0 11309700000.0 11309700000.0 11309700000.0 11309700000.0 11309700000.0 11309700000.0 11309700000.0 11309700000.0 11309700000.0 11309700000.0 11309700000.0 11309700000.0 11309700000.0 11309700000.0 11309700000.0 11309700000.0 11309700000.0 11309700000.0 11309700000.0 11309700000.0 11309700000.0 11309700000.0 11309700000.0 11309700000.0 11309700000.0 11309700000.0 11309700000.0 11309700000.0 11309700000.0 11309700000.0 11309700000.0 11309700000.0 11309700000.0 11309700000.0 11309700000.0 11309700000.0 11309700000.0 11309700000.0 11309700000.0 11309700000.0 11309700000.0 11309700000.0 11309700000.0 11309700000.0 11309700000.0 11309700000.0 11309700000.0 11309700000.0 11309700000.0 11309700000.0 11309700000.0 11309700000.0 11309700000.0 11309700000.0 11309700000.0 11309700000.0 11309700000.0 11309700000.0 11309700000.0 11309700000.0 11309700000.0 11309700000.0 11309700000.0 11309700000.0 11309700000.0 11309700000.0 11309700000.0 11309700000.0 11309700000.0 11309700000.0 11309700000.0 11309700000.0 11309700000.0 11309700000.0 11309700000.0 11309700000.0 11309700000.0 11309700000.0 11309700000.0 11309700000.0 11309700000.0 11309700000.0 11309700000.0 11309700000.0 11309700000.0 11309700000.0 11309700000.0 11309700000.0 11309700000.0 11309700000.0 11309700000.0 11309700000.0 11309700000.0 11309700000.0 11309700000.0 11309700000.0 11309700000.0 11309700000.0 11309700000.0 11309700000.0 11309700000.0 11309700000.0 11309700000.0 11309700000.0 11309700000.0 11309700000.0 11309700000.0 11309700000.0 11309700000.0 11309700000.0 11309700000.0 11309700000.0 11309700000.0 11309700000.0 11309700000.0 11309700000.0 11309700000.0 11309700000.0 11309700000.0 11309700000.0 11309700000.0 11309700000.0 11309700000.0 11309700000.0 11309700000.0 11309700000.0 11309700000.0 11309700000.0 11309700000.0 11309700000.0 11309700000.0 11309700000.0 11309700000.0 11309700000.0 11309700000.0 11309700000.0 11309700000.0 11309700000.0 11309700000.0 11309700000.0 11309700000.0 11309700000.0 11309700000.0 11309700000.0 11309700000.0 11309700000.0 11309700000.0 11309700000.0 11309700000.0 11309700000.0 11309700000.0 11309700000.0 11309700000.0 11309700000.0 11309700000.0 11309700000.0 11309700000.0 11309700000.0 11309700000.0 11309700000.0 11309700000.0 11309700000.0 11309700000.0 11309700000.0 11309700000.0 11309700000.0 11309700000.0 11309700000.0 11309700000.0 11309700000.0 11309700000.0 11309700000.0 11309700000.0 11309700000.0 11309700000.0 11309700000.0 11309700000.0 11309700000.0 11309700000.0 11309700000.0 11309700000.0 11309700000.0 11309700000.0 11309700000.0 11309700000.0 11309700000.0 11309700000.0 11309700000.0 11309700000.0 11309700000.0 11309700000.0 11309700000.0 11309700000.0 11309700000.0 11309700000.0 11309700000.0 11309700000.0 11309700000.0 11309700000.0 11309700000.0 11309700000.0 11309700000.0 11309700000.0 11309700000.0 11309700000.0 11309700000.0 11309700000.0 11309700000.0 11309700000.0 11309700000.0 11309700000.0 11309700000.0 11309700000.0 11309700000.0 11309700000.0 11309700000.0 11309700000.0 11309700000.0 11309700000.0 11309700000.0 11309700000.0 11309700000.0 11309700000.0 11309700000.0 11309700000.0 11309700000.0 11309700000.0 11309700000.0 11309700000.0 11309700000.0 11309700000.0 11309700000.0 11309700000.0 11309700000.0 11309700000.0 11309700000.0 11309700000.0 11309700000.0 11309700000.0 11309700000.0 11309700000.0 11309700000.0 11309700000.0 11309700000.0 11309700000.0 11309700000.0 11309700000.0 11309700000.0 11309700000.0 11309700000.0 11309700000.0 11309700000.0 11309700000.0 11309700000.0 11309700000.0 11309700000.0 11309700000.0 11309700000.0 11309700000.0 11309700000.0 11309700000.0 11309700000.0 11309700000.0 11309700000.0 11309700000.0 11309700000.0 11309700000.0 11309700000.0 11309700000.0 11309700000.0 11309700000.0 11309700000.0 11309700000.0 11309700000.0 11309700000.0 11309700000.0 11309700000.0 11309700000.0 11309700000.0 11309700000.0 11309700000.0 11309700000.0 11309700000.0 11309700000.0 11309700000.0 11309700000.0 11309700000.0 11309700000.0 11309700000.0 11309700000.0 11309700000.0 11309700000.0 11309700000.0 11309700000.0 11309700000.0 11309700000.0 11309700000.0 11309700000.0 11309700000.0 11309700000.0 11309700000.0 11309700000.0 11309700000.0 11309700000.0 11309700000.0 11309700000.0 11309700000.0 11309700000.0 11309700000.0 11309700000.0 11309700000.0 11309700000.0 11309700000.0 11309700000.0 11309700000.0 11309700000.0 11309700000.0 11309700000.0 11309700000.0 11309700000.0 11309700000.0 11309700000.0 11309700000.0 11309700000.0 11309700000.0 11309700000.0 11309700000.0 11309700000.0 11309700000.0 11309700000.0 11309700000.0 11309700000.0 11309700000.0 11309700000.0 11309700000.0 11309700000.0 11309700000.0 11309700000.0 11309700000.0 11309700000.0 11309700000.0 11309700000.0 11309700000.0 11309700000.0 11309700000.0 11309700000.0 11309700000.0 11309700000.0 11309700000.0 11309700000.0 11309700000.0 11309700000.0 11309700000.0 11309700000.0 11309700000.0 11309700000.0 11309700000.0 11309700000.0 11309700000.0 11309700000.0 11309700000.0 11309700000.0 11309700000.0 11309700000.0 11309700000.0 11309700000.0 11309700000.0 11309700000.0 11309700000.0 11309700000.0 11309700000.0 11309700000.0 11309700000.0 11309700000.0 11309700000.0 11309700000.0 11309700000.0 11309700000.0 11309700000.0 11309700000.0 11309700000.0 11309700000.0 11309700000.0 11309700000.0 11309700000.0 11309700000.0 11309700000.0 11309700000.0 11309700000.0 11309700000.0 11309700000.0 11309700000.0 11309700000.0 11309700000.0 11309700000.0 11309700000.0 11309700000.0 11309700000.0 11309700000.0 11309700000.0 11309700000.0 11309700000.0 11309700000.0 11309700000.0 11309700000.0 11309700000.0 11309700000.0 11309700000.0 11309700000.0 11309700000.0 11309700000.0 11309700000.0 11309700000.0 11309700000.0 11309700000.0 11309700000.0 11309700000.0 11309700000.0 11309700000.0 11309700000.0 11309700000.0 11309700000.0 11309700000.0 11309700000.0 11309700000.0 11309700000.0 11309700000.0 11309700000.0 11309700000.0 11309700000.0 11309700000.0 11309700000.0 11309700000.0 11309700000.0 11309700000.0 11309700000.0 11309700000.0 11309700000.0 11309700000.0 11309700000.0 11309700000.0 11309700000.0 11309700000.0 11309700000.0 11309700000.0 11309700000.0 11309700000.0 11309700000.0 11309700000.0 11309700000.0 11309700000.0 11309700000.0 11309700000.0 11309700000.0 11309700000.0 11309700000.0 11309700000.0 11309700000.0 11309700000.0 11309700000.0 11309700000.0 11309700000.0 11309700000.0 11309700000.0 11309700000.0 11309700000.0 11309700000.0 11309700000.0 11309700000.0 11309700000.0 11309700000.0 11309700000.0 11309700000.0 11309700000.0 11309700000.0 11309700000.0 11309700000.0 11309700000.0 11309700000.0 11309700000.0 11309700000.0 11309700000.0 11309700000.0 11309700000.0 11309700000.0 11309700000.0 11309700000.0 11309700000.0 11309700000.0 11309700000.0 11309700000.0 11309700000.0 11309700000.0 11309700000.0 11309700000.0 11309700000.0 11309700000.0 11309700000.0 11309700000.0 11309700000.0 11309700000.0 11309700000.0 11309700000.0 11309700000.0 11309700000.0 11309700000.0 11309700000.0 11309700000.0 11309700000.0 11309700000.0 11309700000.0 11309700000.0 11309700000.0 11309700000.0 11309700000.0 11309700000.0 11309700000.0 11309700000.0 11309700000.0 11309700000.0 11309700000.0 11309700000.0 11309700000.0 11309700000.0 11309700000.0 11309700000.0 11309700000.0 11309700000.0 11309700000.0 11309700000.0 11309700000.0 11309700000.0 11309700000.0 11309700000.0 11309700000.0 11309700000.0 11309700000.0 11309700000.0 11309700000.0 11309700000.0 11309700000.0 11309700000.0 11309700000.0 11309700000.0 11309700000.0 11309700000.0 11309700000.0 11309700000.0 11309700000.0 11309700000.0 11309700000.0 11309700000.0 11309700000.0 11309700000.0 11309700000.0 11309700000.0 11309700000.0 11309700000.0 11309700000.0 11309700000.0 11309700000.0 11309700000.0 11309700000.0 11309700000.0 11309700000.0 11309700000.0 11309700000.0 11309700000.0 11309700000.0 11309700000.0 11309700000.0 11309700000.0 11309700000.0 11309700000.0 11309700000.0 11309700000.0 11309700000.0 11309700000.0 11309700000.0 11309700000.0 11309700000.0 11309700000.0 11309700000.0 11309700000.0 11309700000.0 11309700000.0 11309700000.0 11309700000.0 11309700000.0 11309700000.0 11309700000.0 11309700000.0 11309700000.0 11309700000.0 11309700000.0 11309700000.0 11309700000.0 11309700000.0 11309700000.0 11309700000.0 11309700000.0 11309700000.0 11309700000.0 11309700000.0 11309700000.0 11309700000.0 11309700000.0 11309700000.0 11309700000.0 11309700000.0 11309700000.0 11309700000.0 11309700000.0 11309700000.0 11309700000.0 11309700000.0 11309700000.0 11309700000.0 11309700000.0 11309700000.0 11309700000.0 11309700000.0 11309700000.0 11309700000.0 11309700000.0 11309700000.0 11309700000.0 11309700000.0 11309700000.0 11309700000.0 11309700000.0 11309700000.0 11309700000.0 11309700000.0 11309700000.0 11309700000.0 11309700000.0 11309700000.0 11309700000.0 11309700000.0 11309700000.0 11309700000.0 11309700000.0 11309700000.0 11309700000.0 11309700000.0 11309700000.0 11309700000.0 11309700000.0 11309700000.0 11309700000.0 11309700000.0 11309700000.0 11309700000.0 11309700000.0 11309700000.0 11309700000.0 11309700000.0 11309700000.0 11309700000.0 11309700000.0 11309700000.0 11309700000.0 11309700000.0 11309700000.0 11309700000.0 11309700000.0 11309700000.0 11309700000.0 11309700000.0 11309700000.0 11309700000.0 11309700000.0 11309700000.0 11309700000.0 11309700000.0 11309700000.0 11309700000.0 11309700000.0 11309700000.0 11309700000.0 11309700000.0 11309700000.0 11309700000.0 11309700000.0 11309700000.0 11309700000.0 11309700000.0 11309700000.0 11309700000.0 11309700000.0 11309700000.0 11309700000.0 11309700000.0 11309700000.0 11309700000.0 11309700000.0 11309700000.0 11309700000.0 11309700000.0 11309700000.0 11309700000.0 11309700000.0 11309700000.0 11309700000.0 11309700000.0 11309700000.0 11309700000.0 11309700000.0 11309700000.0 11309700000.0 11309700000.0 11309700000.0 11309700000.0 11309700000.0 11309700000.0 11309700000.0 11309700000.0 11309700000.0 11309700000.0 11309700000.0 11309700000.0 11309700000.0 11309700000.0 11309700000.0 11309700000.0 11309700000.0 11309700000.0 11309700000.0 11309700000.0 11309700000.0 11309700000.0 11309700000.0 11309700000.0 11309700000.0 11309700000.0 11309700000.0 11309700000.0 11309700000.0 11309700000.0 11309700000.0 11309700000.0 11309700000.0 11309700000.0 11309700000.0 11309700000.0 11309700000.0 11309700000.0 11309700000.0 11309700000.0 11309700000.0 11309700000.0 11309700000.0 11309700000.0 11309700000.0 11309700000.0 11309700000.0 11309700000.0 11309700000.0 11309700000.0 11309700000.0 11309700000.0 11309700000.0 11309700000.0 11309700000.0 11309700000.0 11309700000.0 11309700000.0 11309700000.0 11309700000.0 11309700000.0 11309700000.0 11309700000.0 11309700000.0 11309700000.0 11309700000.0 11309700000.0 11309700000.0 11309700000.0 11309700000.0 11309700000.0 11309700000.0 11309700000.0 11309700000.0 11309700000.0 11309700000.0 11309700000.0 11309700000.0 11309700000.0 11309700000.0 11309700000.0 11309700000.0 11309700000.0 11309700000.0 11309700000.0 11309700000.0 11309700000.0 11309700000.0 11309700000.0 11309700000.0 11309700000.0 11309700000.0 11309700000.0 11309700000.0 11309700000.0 11309700000.0 11309700000.0 11309700000.0 11309700000.0 11309700000.0 11309700000.0 11309700000.0 11309700000.0 11309700000.0 11309700000.0 11309700000.0 11309700000.0 11309700000.0 11309700000.0 11309700000.0 11309700000.0 11309700000.0 11309700000.0 11309700000.0 11309700000.0 11309700000.0 11309700000.0 11309700000.0 11309700000.0 11309700000.0 11309700000.0 11309700000.0 11309700000.0 11309700000.0 11309700000.0 11309700000.0 11309700000.0 11309700000.0 11309700000.0 11309700000.0 11309700000.0 11309700000.0 11309700000.0 11309700000.0 11309700000.0 11309700000.0 11309700000.0 11309700000.0 11309700000.0 11309700000.0 11309700000.0 11309700000.0 11309700000.0 11309700000.0 11309700000.0 11309700000.0 11309700000.0 11309700000.0 11309700000.0 11309700000.0 11309700000.0 11309700000.0 11309700000.0 11309700000.0 11309700000.0 11309700000.0 11309700000.0 11309700000.0 11309700000.0 11309700000.0 11309700000.0 11309700000.0 11309700000.0 11309700000.0 11309700000.0 11309700000.0 11309700000.0 11309700000.0 11309700000.0 11309700000.0 11309700000.0 11309700000.0 11309700000.0 11309700000.0 11309700000.0 11309700000.0 11309700000.0 11309700000.0 11309700000.0 11309700000.0 11309700000.0 11309700000.0 11309700000.0 11309700000.0 11309700000.0 11309700000.0 11309700000.0 11309700000.0 11309700000.0 11309700000.0 11309700000.0 11309700000.0 11309700000.0 11309700000.0 11309700000.0 11309700000.0 11309700000.0 11309700000.0 11309700000.0 11309700000.0 11309700000.0 11309700000.0 11309700000.0 11309700000.0 11309700000.0 11309700000.0 11309700000.0 11309700000.0 11309700000.0 11309700000.0 11309700000.0 11309700000.0 11309700000.0 11309700000.0 11309700000.0 11309700000.0 11309700000.0 11309700000.0 11309700000.0 11309700000.0 11309700000.0 11309700000.0 11309700000.0 11309700000.0 11309700000.0 11309700000.0 11309700000.0 11309700000.0 11309700000.0 11309700000.0 11309700000.0 11309700000.0 11309700000.0 11309700000.0 11309700000.0 11309700000.0 11309700000.0 11309700000.0 11309700000.0 11309700000.0 11309700000.0 11309700000.0 11309700000.0 11309700000.0 11309700000.0 11309700000.0 11309700000.0 11309700000.0 11309700000.0 11309700000.0 11309700000.0 11309700000.0 11309700000.0 11309700000.0 11309700000.0 11309700000.0 11309700000.0 11309700000.0 11309700000.0 11309700000.0 11309700000.0 11309700000.0 11309700000.0 11309700000.0 11309700000.0 11309700000.0 11309700000.0 11309700000.0 11309700000.0 11309700000.0 11309700000.0 11309700000.0 11309700000.0 11309700000.0 11309700000.0 11309700000.0 11309700000.0 11309700000.0 11309700000.0 11309700000.0 11309700000.0 11309700000.0 11309700000.0 11309700000.0 11309700000.0 11309700000.0 11309700000.0 11309700000.0 11309700000.0 11309700000.0 11309700000.0 11309700000.0 11309700000.0 11309700000.0 11309700000.0 11309700000.0 11309700000.0 11309700000.0 11309700000.0 11309700000.0 11309700000.0 11309700000.0 11309700000.0 11309700000.0 11309700000.0 11309700000.0 11309700000.0 11309700000.0 11309700000.0 11309700000.0 11309700000.0 11309700000.0 11309700000.0 11309700000.0 11309700000.0 11309700000.0 11309700000.0 11309700000.0 11309700000.0 11309700000.0 11309700000.0 11309700000.0 11309700000.0 11309700000.0 11309700000.0 11309700000.0 11309700000.0 11309700000.0 11309700000.0 11309700000.0 11309700000.0 11309700000.0 11309700000.0 11309700000.0 11309700000.0 11309700000.0 11309700000.0 11309700000.0 11309700000.0 11309700000.0 11309700000.0 11309700000.0 11309700000.0 11309700000.0 11309700000.0 11309700000.0 11309700000.0 11309700000.0 11309700000.0 11309700000.0 11309700000.0 11309700000.0 11309700000.0 11309700000.0 11309700000.0 11309700000.0 11309700000.0 11309700000.0 11309700000.0 11309700000.0 11309700000.0 11309700000.0 11309700000.0 11309700000.0 11309700000.0 11309700000.0 11309700000.0 11309700000.0 11309700000.0 11309700000.0 11309700000.0 11309700000.0 11309700000.0 11309700000.0 11309700000.0 11309700000.0 11309700000.0 11309700000.0 11309700000.0 11309700000.0 11309700000.0 11309700000.0 11309700000.0 11309700000.0 11309700000.0 11309700000.0 11309700000.0 11309700000.0 11309700000.0 11309700000.0 11309700000.0 11309700000.0 11309700000.0 11309700000.0 11309700000.0 11309700000.0 11309700000.0 11309700000.0 11309700000.0 11309700000.0 11309700000.0 11309700000.0 11309700000.0 11309700000.0 11309700000.0 11309700000.0 11309700000.0 11309700000.0 11309700000.0 11309700000.0 11309700000.0 11309700000.0 11309700000.0 11309700000.0 11309700000.0 11309700000.0 11309700000.0 11309700000.0 11309700000.0 11309700000.0 11309700000.0 11309700000.0 11309700000.0 11309700000.0 11309700000.0 11309700000.0 11309700000.0 11309700000.0 11309700000.0 11309700000.0 11309700000.0 11309700000.0 11309700000.0 11309700000.0 11309700000.0 11309700000.0 11309700000.0 11309700000.0 11309700000.0 11309700000.0 11309700000.0 11309700000.0 11309700000.0 11309700000.0 11309700000.0 11309700000.0 11309700000.0 11309700000.0 11309700000.0 11309700000.0 11309700000.0 11309700000.0 11309700000.0 11309700000.0 11309700000.0 11309700000.0 11309700000.0 11309700000.0 11309700000.0 11309700000.0 11309700000.0 11309700000.0 11309700000.0 11309700000.0 11309700000.0 11309700000.0 11309700000.0 11309700000.0 11309700000.0 11309700000.0 11309700000.0 11309700000.0 11309700000.0 11309700000.0 11309700000.0 11309700000.0 11309700000.0 11309700000.0 11309700000.0 11309700000.0 11309700000.0 11309700000.0 11309700000.0 11309700000.0 11309700000.0 11309700000.0 11309700000.0 11309700000.0 11309700000.0 11309700000.0 11309700000.0 11309700000.0 11309700000.0 11309700000.0 11309700000.0 11309700000.0 11309700000.0 11309700000.0 11309700000.0 11309700000.0 11309700000.0 11309700000.0 11309700000.0 11309700000.0 11309700000.0 11309700000.0 11309700000.0 11309700000.0 11309700000.0 11309700000.0 11309700000.0 11309700000.0 11309700000.0 11309700000.0 11309700000.0 11309700000.0 11309700000.0 11309700000.0 11309700000.0 11309700000.0 11309700000.0 11309700000.0 11309700000.0 11309700000.0 11309700000.0 11309700000.0 11309700000.0 11309700000.0 11309700000.0 11309700000.0 11309700000.0 11309700000.0 11309700000.0 11309700000.0 11309700000.0 11309700000.0 11309700000.0 11309700000.0 11309700000.0 11309700000.0 11309700000.0 11309700000.0 11309700000.0 11309700000.0 11309700000.0 11309700000.0 11309700000.0 11309700000.0 11309700000.0 11309700000.0 11309700000.0 11309700000.0 11309700000.0 11309700000.0 11309700000.0 11309700000.0 11309700000.0 11309700000.0 11309700000.0 11309700000.0 11309700000.0 11309700000.0 11309700000.0 11309700000.0 11309700000.0 11309700000.0 11309700000.0 11309700000.0 11309700000.0 11309700000.0 11309700000.0 11309700000.0 11309700000.0 11309700000.0 11309700000.0 11309700000.0 11309700000.0 11309700000.0 11309700000.0 11309700000.0 11309700000.0 11309700000.0 11309700000.0 11309700000.0 11309700000.0 11309700000.0 11309700000.0 11309700000.0 11309700000.0 11309700000.0 11309700000.0 11309700000.0 11309700000.0 11309700000.0 11309700000.0 11309700000.0 11309700000.0 11309700000.0 11309700000.0 11309700000.0 11309700000.0 11309700000.0 11309700000.0 11309700000.0 11309700000.0 11309700000.0 11309700000.0 11309700000.0 11309700000.0 11309700000.0 11309700000.0 11309700000.0 11309700000.0 11309700000.0 11309700000.0 11309700000.0 11309700000.0 11309700000.0 11309700000.0 11309700000.0 11309700000.0 11309700000.0 11309700000.0 11309700000.0 11309700000.0 11309700000.0 11309700000.0 11309700000.0 11309700000.0 11309700000.0 11309700000.0 11309700000.0 11309700000.0 11309700000.0 11309700000.0 11309700000.0 11309700000.0 11309700000.0 11309700000.0 11309700000.0 11309700000.0 11309700000.0 11309700000.0 11309700000.0 11309700000.0 11309700000.0 11309700000.0 11309700000.0 11309700000.0 11309700000.0 11309700000.0 11309700000.0 11309700000.0 11309700000.0 11309700000.0 11309700000.0 11309700000.0 11309700000.0 11309700000.0 11309700000.0 11309700000.0 11309700000.0 11309700000.0 11309700000.0 11309700000.0 11309700000.0 11309700000.0 11309700000.0 11309700000.0 11309700000.0 11309700000.0 11309700000.0 11309700000.0 11309700000.0 11309700000.0 11309700000.0 11309700000.0 11309700000.0 11309700000.0 11309700000.0 11309700000.0 11309700000.0 11309700000.0 11309700000.0 11309700000.0 11309700000.0 11309700000.0 11309700000.0 11309700000.0 11309700000.0 11309700000.0 11309700000.0 11309700000.0 11309700000.0 11309700000.0 11309700000.0 11309700000.0 11309700000.0 11309700000.0 11309700000.0 11309700000.0 11309700000.0 11309700000.0 11309700000.0 11309700000.0 11309700000.0 11309700000.0 11309700000.0 11309700000.0 11309700000.0 11309700000.0 11309700000.0 11309700000.0 11309700000.0 11309700000.0 11309700000.0 11309700000.0 11309700000.0 11309700000.0 11309700000.0 11309700000.0 11309700000.0 11309700000.0 11309700000.0 11309700000.0 11309700000.0 11309700000.0 11309700000.0 11309700000.0 11309700000.0 11309700000.0 11309700000.0 11309700000.0 11309700000.0 11309700000.0 11309700000.0 11309700000.0 11309700000.0 11309700000.0 11309700000.0 11309700000.0 11309700000.0 11309700000.0 11309700000.0 11309700000.0 11309700000.0 11309700000.0 11309700000.0 11309700000.0 11309700000.0 11309700000.0 11309700000.0 11309700000.0 11309700000.0 11309700000.0 11309700000.0 11309700000.0 11309700000.0 11309700000.0 11309700000.0 11309700000.0 11309700000.0 11309700000.0 11309700000.0 11309700000.0 11309700000.0 11309700000.0 11309700000.0 11309700000.0 11309700000.0 11309700000.0 11309700000.0 11309700000.0 11309700000.0 11309700000.0 11309700000.0 11309700000.0 11309700000.0 11309700000.0 11309700000.0 11309700000.0 11309700000.0 11309700000.0 11309700000.0 11309700000.0 11309700000.0 11309700000.0 11309700000.0 11309700000.0 11309700000.0 11309700000.0 11309700000.0 11309700000.0 11309700000.0 11309700000.0 11309700000.0 11309700000.0 11309700000.0 11309700000.0 11309700000.0 11309700000.0 11309700000.0 11309700000.0 11309700000.0 11309700000.0 11309700000.0 11309700000.0 11309700000.0 11309700000.0 11309700000.0 11309700000.0 11309700000.0 11309700000.0 11309700000.0 11309700000.0 11309700000.0 11309700000.0 11309700000.0 11309700000.0 11309700000.0 11309700000.0 11309700000.0 11309700000.0 11309700000.0 11309700000.0 11309700000.0 11309700000.0 11309700000.0 11309700000.0 11309700000.0 11309700000.0 11309700000.0 11309700000.0 11309700000.0 11309700000.0 11309700000.0 11309700000.0 11309700000.0 11309700000.0 11309700000.0 11309700000.0 11309700000.0 11309700000.0 11309700000.0 11309700000.0 11309700000.0 11309700000.0 11309700000.0 11309700000.0 11309700000.0 11309700000.0 11309700000.0 11309700000.0 11309700000.0 11309700000.0 11309700000.0 11309700000.0 11309700000.0 11309700000.0 11309700000.0 11309700000.0 11309700000.0 11309700000.0 11309700000.0 11309700000.0 11309700000.0 11309700000.0 11309700000.0 11309700000.0 11309700000.0 11309700000.0 11309700000.0 11309700000.0 11309700000.0 11309700000.0 11309700000.0 11309700000.0 11309700000.0 11309700000.0 11309700000.0 11309700000.0 11309700000.0 11309700000.0 11309700000.0 11309700000.0 11309700000.0 11309700000.0 11309700000.0 11309700000.0 11309700000.0 11309700000.0 11309700000.0 11309700000.0 11309700000.0 11309700000.0 11309700000.0 11309700000.0 11309700000.0 11309700000.0 11309700000.0 11309700000.0 11309700000.0 11309700000.0 11309700000.0 11309700000.0 11309700000.0 11309700000.0 11309700000.0 11309700000.0 11309700000.0 11309700000.0 11309700000.0 11309700000.0 11309700000.0 11309700000.0 11309700000.0 11309700000.0 11309700000.0 11309700000.0 11309700000.0 11309700000.0 11309700000.0 11309700000.0 11309700000.0 11309700000.0 11309700000.0 11309700000.0 11309700000.0 11309700000.0 11309700000.0 11309700000.0 11309700000.0 11309700000.0 11309700000.0 11309700000.0 11309700000.0 11309700000.0 11309700000.0 11309700000.0 11309700000.0 11309700000.0 11309700000.0 11309700000.0 11309700000.0 11309700000.0 11309700000.0 11309700000.0 11309700000.0 11309700000.0 11309700000.0 11309700000.0 11309700000.0 11309700000.0 11309700000.0 11309700000.0 11309700000.0 11309700000.0 11309700000.0 11309700000.0 11309700000.0 11309700000.0 11309700000.0 11309700000.0 11309700000.0 11309700000.0 11309700000.0 11309700000.0 11309700000.0 11309700000.0 11309700000.0 11309700000.0 11309700000.0 11309700000.0 11309700000.0 11309700000.0 11309700000.0 11309700000.0 11309700000.0 11309700000.0 11309700000.0 11309700000.0 11309700000.0 11309700000.0 11309700000.0 11309700000.0 11309700000.0 11309700000.0 11309700000.0 11309700000.0 11309700000.0 11309700000.0 11309700000.0 11309700000.0 11309700000.0 11309700000.0 11309700000.0 11309700000.0 11309700000.0 11309700000.0 11309700000.0 11309700000.0 11309700000.0 11309700000.0 11309700000.0 11309700000.0 11309700000.0 11309700000.0 11309700000.0 11309700000.0 11309700000.0 11309700000.0 11309700000.0 11309700000.0 11309700000.0 11309700000.0 11309700000.0 11309700000.0 11309700000.0 11309700000.0 11309700000.0 11309700000.0 11309700000.0 11309700000.0 11309700000.0 11309700000.0 11309700000.0 11309700000.0 11309700000.0 11309700000.0 11309700000.0 11309700000.0 11309700000.0 11309700000.0 11309700000.0 11309700000.0 11309700000.0 11309700000.0 11309700000.0 11309700000.0 11309700000.0 11309700000.0 11309700000.0 11309700000.0 11309700000.0 11309700000.0 11309700000.0 11309700000.0 11309700000.0 11309700000.0 11309700000.0 11309700000.0 11309700000.0 11309700000.0 11309700000.0 11309700000.0 11309700000.0 11309700000.0 11309700000.0 11309700000.0 11309700000.0 11309700000.0 11309700000.0 11309700000.0 11309700000.0 11309700000.0 11309700000.0 11309700000.0 11309700000.0 11309700000.0 11309700000.0 11309700000.0 11309700000.0 11309700000.0 11309700000.0 11309700000.0 11309700000.0 11309700000.0 11309700000.0 11309700000.0 11309700000.0 11309700000.0 11309700000.0 11309700000.0 11309700000.0 11309700000.0 11309700000.0 11309700000.0 11309700000.0 11309700000.0 11309700000.0 11309700000.0 11309700000.0 11309700000.0 11309700000.0 11309700000.0 11309700000.0 11309700000.0 11309700000.0 11309700000.0 11309700000.0 11309700000.0 11309700000.0 11309700000.0 11309700000.0 11309700000.0 11309700000.0 11309700000.0 11309700000.0 11309700000.0 11309700000.0 11309700000.0 11309700000.0 11309700000.0 11309700000.0 11309700000.0 11309700000.0 11309700000.0 11309700000.0 11309700000.0 11309700000.0 11309700000.0 11309700000.0 11309700000.0 11309700000.0 11309700000.0 11309700000.0 11309700000.0 11309700000.0 11309700000.0 11309700000.0 11309700000.0 11309700000.0 11309700000.0 11309700000.0 11309700000.0 11309700000.0 11309700000.0 11309700000.0 11309700000.0 11309700000.0 11309700000.0 11309700000.0 11309700000.0 11309700000.0 11309700000.0 11309700000.0 11309700000.0 11309700000.0 11309700000.0 11309700000.0 11309700000.0 11309700000.0 11309700000.0 11309700000.0 11309700000.0 11309700000.0 11309700000.0 11309700000.0 11309700000.0 11309700000.0 11309700000.0 11309700000.0 11309700000.0 11309700000.0 11309700000.0 11309700000.0 11309700000.0 11309700000.0 11309700000.0 11309700000.0 11309700000.0 11309700000.0 11309700000.0 11309700000.0 11309700000.0 11309700000.0 11309700000.0 11309700000.0 11309700000.0 11309700000.0 11309700000.0 11309700000.0 11309700000.0 11309700000.0 11309700000.0 11309700000.0 11309700000.0 11309700000.0 11309700000.0 11309700000.0 11309700000.0 11309700000.0 11309700000.0 11309700000.0 11309700000.0 11309700000.0 11309700000.0 11309700000.0 11309700000.0 11309700000.0 11309700000.0 11309700000.0 11309700000.0 11309700000.0 11309700000.0 11309700000.0 11309700000.0 11309700000.0 11309700000.0 11309700000.0 11309700000.0 11309700000.0 11309700000.0 11309700000.0 11309700000.0 11309700000.0 11309700000.0 11309700000.0 11309700000.0 11309700000.0 11309700000.0 11309700000.0 11309700000.0 11309700000.0 11309700000.0 11309700000.0 11309700000.0 11309700000.0 11309700000.0 11309700000.0 11309700000.0 11309700000.0 11309700000.0 11309700000.0 11309700000.0 11309700000.0 11309700000.0 11309700000.0 11309700000.0 11309700000.0 11309700000.0 11309700000.0 11309700000.0 11309700000.0 11309700000.0 11309700000.0 11309700000.0 11309700000.0 11309700000.0 11309700000.0 11309700000.0 11309700000.0 11309700000.0 11309700000.0 11309700000.0 11309700000.0 11309700000.0 11309700000.0 11309700000.0 11309700000.0 11309700000.0 11309700000.0 11309700000.0 11309700000.0 11309700000.0 11309700000.0 11309700000.0 11309700000.0 11309700000.0 11309700000.0 11309700000.0 11309700000.0 11309700000.0 11309700000.0 11309700000.0 11309700000.0 11309700000.0 11309700000.0 11309700000.0 11309700000.0 11309700000.0 11309700000.0 11309700000.0 11309700000.0 11309700000.0 11309700000.0 11309700000.0 11309700000.0 11309700000.0 11309700000.0 11309700000.0 11309700000.0 11309700000.0 
SCALARS Velocity float 1
LOOKUP_TABLE default
0.362647 0.374703 0.358199 0.696531 1.3264 0.609322 1.00579 0.852361 0.905336 0.893324 0.896097 0.896063 0.896403 0.896214 0.895967 0.895743 0.895468 0.895178 0.894971 0.894825 0.894677 0.894524 0.894394 0.8943 0.894232 0.894176 0.894124 0.894073 0.894023 0.893977 0.893935 0.8939 0.893871 0.89385 0.893838 0.893833 0.893838 0.89385 0.893871 0.8939 0.893935 0.893977 0.894023 0.894073 0.894124 0.894176 0.894232 0.8943 0.894394 0.894524 0.894677 0.894825 0.894971 0.895178 0.895468 0.895743 0.895967 0.896214 0.896403 0.896063 0.896097 0.893324 0.905336 0.852361 1.00579 0.609322 1.3264 0.696531 0.358199 0.374703 0.362647 0.597143 0.412077 0.384504 0.695045 1.368 0.610959 1.00821 0.860544 0.903598 0.894972 0.896995 0.897271 0.896977 0.896776 0.89651 0.89618 0.895791 0.89549 0.895295 0.895118 0.894911 0.894708 0.894551 0.894443 0.894367 0.894302 0.894236 0.894167 0.894099 0.894033 0.893975 0.893925 0.893885 0.893857 0.893839 0.893833 0.893839 0.893857 0.893885 0.893925 0.893975 0.894033 0.894099 0.894167 0.894236 0.894302 0.894367 0.894443 0.894551 0.894708 0.894911 0.895118 0.895295 0.89549 0.895791 0.89618 0.89651 0.896776 0.896977 0.897271 0.896995 0.894972 0.903598 0.860544 1.00821 0.610959 1.368 0.695045 0.384504 0.412077 0.597143 0.403582 0.483123 0.483123 0.403582 0.51482 0.235653 0.475977 0.453654 0.718445 1.40858 0.617781 1.01145 0.861599 0.904296 0.896308 0.898684 0.899001 0.899072 0.898884 0.89846 0.897987 0.897532 0.896995 0.8961 0.895687 0.895336 0.895047 0.894814 0.894621 0.894459 0.894325 0.894218 0.894132 0.894059 0.893998 0.893947 0.893905 0.893873 0.893851 0.893837 0.893832 0.893837 0.893851 0.893873 0.893905 0.893947 0.893998 0.894059 0.894132 0.894218 0.894325 0.894459 0.894621 0.894814 0.895047 0.895336 0.895687 0.8961 0.896995 0.897532 0.897987 0.89846 0.898884 0.899072 0.899001 0.898684 0.896308 0.904296 0.861599 1.01145 0.617781 1.40858 0.718445 0.453654 0.475977 0.235653 0.51482 0.391804 0.454456 0.535961 0.284891 0.345317 0.711006 1.45808 0.643928 1.01782 0.869157 0.908537 0.903251 0.905244 0.905204 0.904512 0.903251 0.901766 0.900341 0.899128 0.897939 0.897279 0.896496 0.89584 0.895309 0.894946 0.894658 0.894305 0.894143 0.894046 0.893976 0.893927 0.893893 0.89387 0.893854 0.893844 0.893837 0.893833 0.893832 0.893833 0.893837 0.893844 0.893854 0.89387 0.893893 0.893927 0.893976 0.894046 0.894143 0.894305 0.894658 0.894946 0.895309 0.89584 0.896496 0.897279 0.897939 0.899128 0.900341 0.901766 0.903251 0.904512 0.905204 0.905244 0.903251 0.908537 0.869157 1.01782 0.643928 1.45808 0.711006 0.345317 0.284891 0.535961 0.454456 0.391804 0.838308 0.467353 0.350769 0.350769 0.467353 0.838308 0.822518 0.497593 0.366249 0.645841 0.526266 0.712457 1.15897 0.683414 0.962028 0.870874 0.904999 0.899644 0.899952 0.898672 0.897328 0.89613 0.895292 0.894668 0.89415 0.894023 0.894004 0.893884 0.893838 0.893847 0.893816 0.893804 0.893933 0.893932 0.893911 0.893894 0.89388 0.893868 0.893857 0.893848 0.893841 0.893836 0.893833 0.893832 0.893833 0.893836 0.893841 0.893848 0.893857 0.893868 0.89388 0.893894 0.893911 0.893932 0.893933 0.893804 0.893816 0.893847 0.893838 0.893884 0.894004 0.894023 0.89415 0.894668 0.895292 0.89613 0.897328 0.898672 0.899952 0.899644 0.904999 0.870874 0.962028 0.683414 1.15897 0.712457 0.526266 0.645841 0.366249 0.497593 0.822518 0.464178 0.722864 0.744744 0.896983 0.763227 0.893833 0.893833 0.893833 0.893833 0.893832 0.893832 0.893832 0.893832 0.893832 0.893832 0.893832 0.893832 0.893832 0.893832 0.893832 0.893832 0.893832 0.893832 0.893832 0.893832 0.893832 0.893832 0.893832 0.893832 0.893832 0.893832 0.893832 0.893832 0.893832 0.893832 0.893832 0.893832 0.893832 0.893832 0.893832 0.893832 0.893832 0.893832 0.893832 0.893832 0.893832 0.893832 0.893832 0.893832 0.893832 0.893832 0.893832 0.893832 0.893832 0.893832 0.893832 0.893832 0.893832 0.893832 0.893832 0.893833 0.893833 0.893833 0.893833 0.763227 0.896983 0.744744 0.722864 0.464178 0.730857 1.03602 0.711022 0.711022 1.03602 0.730857 0.875954 0.484209 0.893832 0.560768 0.799619 0.650291 0.94132 0.823799 0.903874 0.896364 0.895909 0.895485 0.895202 0.894952 0.894711 0.894506 0.894354 0.894253 0.894183 0.894123 0.894069 0.894022 0.893984 0.893954 0.89393 0.89391 0.893894 0.893881 0.89387 0.89386 0.893853 0.893847 0.893842 0.893838 0.893835 0.893834 0.893833 0.893832 0.893833 0.893834 0.893835 0.893838 0.893842 0.893847 0.893853 0.89386 0.89387 0.893881 0.893894 0.89391 0.89393 0.893954 0.893984 0.894022 0.894069 0.894123 0.894183 0.894253 0.894354 0.894506 0.894711 0.894952 0.895202 0.895485 0.895909 0.896364 0.903874 0.823799 0.94132 0.650291 0.799619 0.560768 0.893832 0.484209 0.875954 0.683972 0.942593 0.862354 0.822472 0.736135 0.893902 0.84985 0.893832 0.893832 0.893832 0.893832 0.893832 0.893832 0.893832 0.893832 0.893832 0.893832 0.893832 0.893832 0.893832 0.893832 0.893832 0.893832 0.893832 0.893832 0.893832 0.893832 0.893832 0.893832 0.893832 0.893832 0.893832 0.893832 0.893832 0.893832 0.893832 0.893832 0.893832 0.893832 0.893832 0.893832 0.893832 0.893832 0.893832 0.893832 0.893832 0.893832 0.893832 0.893832 0.893832 0.893832 0.893832 0.893832 0.893832 0.893832 0.893832 0.893832 0.893832 0.893832 0.893832 0.893832 0.893832 0.893832 0.893832 0.893832 0.893832 0.84985 0.893902 0.736135 0.822472 0.862354 0.942593 0.683972 0.925864 0.925864 0.920527 0.827982 0.913093 0.92872 0.835039 0.818327 0.89772 0.867008 0.894498 0.894133 0.894091 0.894056 0.894026 0.893997 0.893967 0.893939 0.893914 0.893894 0.893879 0.893867 0.893858 0.89385 0.893845 0.893841 0.893838 0.893836 0.893835 0.893834 0.893833 0.893833 0.893833 0.893833 0.893832 0.893832 0.893832 0.893832 0.893832 0.893832 0.893832 0.893832 0.893832 0.893832 0.893832 0.893833 0.893833 0.893833 0.893833 0.893834 0.893835 0.893836 0.893838 0.893841 0.893845 0.89385 0.893858 0.893867 0.893879 0.893894 0.893914 0.893939 0.893967 0.893997 0.894026 0.894056 0.894091 0.894133 0.894498 0.867008 0.89772 0.818327 0.835039 0.92872 0.913093 0.827982 0.920527 0.916959 0.828972 0.866809 0.893897 0.878018 0.893839 0.893836 0.893835 0.893835 0.893834 0.893834 0.893834 0.893833 0.893833 0.893833 0.893833 0.893833 0.893833 0.893833 0.893833 0.893833 0.893832 0.893832 0.893832 0.893832 0.893832 0.893832 0.893832 0.893832 0.893832 0.893832 0.893832 0.893832 0.893832 0.893832 0.893832 0.893832 0.893832 0.893832 0.893832 0.893832 0.893832 0.893832 0.893832 0.893832 0.893832 0.893832 0.893832 0.893833 0.893833 0.893833 0.893833 0.893833 0.893833 0.893833 0.893833 0.893833 0.893834 0.893834 0.893834 0.893835 0.893835 0.893836 0.893839 0.878018 0.893897 0.866809 0.828972 0.916959 0.923658 0.86616 0.918781 0.918781 0.86616 0.923658 0.922108 0.885997 0.917087 0.900952 0.831288 0.879648 0.89393 0.885075 0.893857 0.893849 0.893845 0.893841 0.893839 0.893837 0.893835 0.893835 0.893834 0.893833 0.893833 0.893833 0.893833 0.893833 0.893833 0.893833 0.893832 0.893832 0.893832 0.893832 0.893832 0.893832 0.893832 0.893832 0.893832 0.893832 0.893832 0.893832 0.893832 0.893832 0.893832 0.893832 0.893832 0.893832 0.893832 0.893832 0.893832 0.893832 0.893832 0.893832 0.893832 0.893832 0.893832 0.893833 0.893833 0.893833 0.893833 0.893833 0.893833 0.893833 0.893834 0.893835 0.893835 0.893837 0.893839 0.893841 0.893845 0.893849 0.893857 0.885075 0.89393 0.879648 0.831288 0.900952 0.917087 0.885997 0.922108 0.885999 0.84044 0.881419 0.893872 0.889147 0.89385 0.893844 0.893841 0.893838 0.893836 0.893835 0.893834 0.893834 0.893833 0.893833 0.893833 0.893833 0.893833 0.893833 0.893833 0.893832 0.893832 0.893832 0.893832 0.893832 0.893832 0.893832 0.893832 0.893832 0.893832 0.893832 0.893832 0.893832 0.893832 0.893832 0.893832 0.893832 0.893832 0.893832 0.893832 0.893832 0.893832 0.893832 0.893832 0.893832 0.893832 0.893832 0.893832 0.893832 0.893833 0.893833 0.893833 0.893833 0.893833 0.893833 0.893833 0.893834 0.893834 0.893835 0.893836 0.893838 0.893841 0.893844 0.89385 0.889147 0.893872 0.881419 0.84044 0.885999 0.918603 0.896416 0.913941 0.913941 0.896416 0.918603 0.914254 0.899954 0.910453 0.87432 0.852016 0.881971 0.89387 0.891887 0.893848 0.893843 0.89384 0.893837 0.893836 0.893835 0.893834 0.893834 0.893833 0.893833 0.893833 0.893833 0.893833 0.893833 0.893832 0.893832 0.893832 0.893832 0.893832 0.893832 0.893832 0.893832 0.893832 0.893832 0.893832 0.893832 0.893832 0.893832 0.893832 0.893832 0.893832 0.893832 0.893832 0.893832 0.893832 0.893832 0.893832 0.893832 0.893832 0.893832 0.893832 0.893832 0.893832 0.893832 0.893832 0.893833 0.893833 0.893833 0.893833 0.893833 0.893833 0.893834 0.893834 0.893835 0.893836 0.893837 0.89384 0.893843 0.893848 0.891887 0.89387 0.881971 0.852016 0.87432 0.910453 0.899954 0.914254 0.909556 0.899178 0.906725 0.866333 0.863159 0.88305 0.893867 0.893289 0.893845 0.893841 0.893838 0.893837 0.893835 0.893834 0.893834 0.893833 0.893833 0.893833 0.893833 0.893833 0.893833 0.893832 0.893832 0.893832 0.893832 0.893832 0.893832 0.893832 0.893832 0.893832 0.893832 0.893832 0.893832 0.893832 0.893832 0.893832 0.893832 0.893832 0.893832 0.893832 0.893832 0.893832 0.893832 0.893832 0.893832 0.893832 0.893832 0.893832 0.893832 0.893832 0.893832 0.893832 0.893832 0.893832 0.893833 0.893833 0.893833 0.893833 0.893833 0.893833 0.893834 0.893834 0.893835 0.893837 0.893838 0.893841 0.893845 0.893289 0.893867 0.88305 0.863159 0.866333 0.906725 0.899178 0.909556 0.904751 0.896661 0.90286 0.861176 0.872772 0.884573 0.893862 0.893738 0.893843 0.89384 0.893837 0.893836 0.893835 0.893834 0.893834 0.893833 0.893833 0.893833 0.893833 0.893833 0.893832 0.893832 0.893832 0.893832 0.893832 0.893832 0.893832 0.893832 0.893832 0.893832 0.893832 0.893832 0.893832 0.893832 0.893832 0.893832 0.893832 0.893832 0.893832 0.893832 0.893832 0.893832 0.893832 0.893832 0.893832 0.893832 0.893832 0.893832 0.893832 0.893832 0.893832 0.893832 0.893832 0.893832 0.893832 0.893833 0.893833 0.893833 0.893833 0.893833 0.893834 0.893834 0.893835 0.893836 0.893837 0.89384 0.893843 0.893738 0.893862 0.884573 0.872772 0.861176 0.90286 0.896661 0.904751 0.90003 0.893752 0.899038 0.858222 0.880376 0.886276 0.893856 0.893829 0.893841 0.893838 0.893836 0.893835 0.893834 0.893834 0.893833 0.893833 0.893833 0.893833 0.893833 0.893832 0.893832 0.893832 0.893832 0.893832 0.893832 0.893832 0.893832 0.893832 0.893832 0.893832 0.893832 0.893832 0.893832 0.893832 0.893832 0.893832 0.893832 0.893832 0.893832 0.893832 0.893832 0.893832 0.893832 0.893832 0.893832 0.893832 0.893832 0.893832 0.893832 0.893832 0.893832 0.893832 0.893832 0.893832 0.893832 0.893832 0.893833 0.893833 0.893833 0.893833 0.893833 0.893834 0.893834 0.893835 0.893836 0.893838 0.893841 0.893829 0.893856 0.886276 0.880376 0.858222 0.899038 0.893752 0.90003 0.895747 0.890858 0.89543 0.857247 0.885952 0.88795 0.89385 0.89384 0.893839 0.893837 0.893835 0.893834 0.893834 0.893833 0.893833 0.893833 0.893833 0.893832 0.893832 0.893832 0.893832 0.893832 0.893832 0.893832 0.893832 0.893832 0.893832 0.893832 0.893832 0.893832 0.893832 0.893832 0.893832 0.893832 0.893832 0.893832 0.893832 0.893832 0.893832 0.893832 0.893832 0.893832 0.893832 0.893832 0.893832 0.893832 0.893832 0.893832 0.893832 0.893832 0.893832 0.893832 0.893832 0.893832 0.893832 0.893832 0.893832 0.893832 0.893833 0.893833 0.893833 0.893833 0.893834 0.893834 0.893835 0.893837 0.893839 0.89384 0.89385 0.88795 0.885952 0.857247 0.89543 0.890858 0.895747 0.892129 0.88823 0.892182 0.858007 0.889796 0.889448 0.893844 0.893838 0.893836 0.893835 0.893834 0.893834 0.893833 0.893833 0.893833 0.893833 0.893832 0.893832 0.893832 0.893832 0.893832 0.893832 0.893832 0.893832 0.893832 0.893832 0.893832 0.893832 0.893832 0.893832 0.893832 0.893832 0.893832 0.893832 0.893832 0.893832 0.893832 0.893832 0.893832 0.893832 0.893832 0.893832 0.893832 0.893832 0.893832 0.893832 0.893832 0.893832 0.893832 0.893832 0.893832 0.893832 0.893832 0.893832 0.893832 0.893832 0.893832 0.893832 0.893832 0.893833 0.893833 0.893833 0.893833 0.893834 0.893834 0.893835 0.893836 0.893838 0.893844 0.889448 0.889796 0.858007 0.892182 0.88823 0.892129 0.889188 0.886116 0.889402 0.86013 0.892114 0.890689 0.893839 0.893835 0.893834 0.893834 0.893833 0.893833 0.893833 0.893832 0.893832 0.893832 0.893832 0.893832 0.893832 0.893832 0.893832 0.893832 0.893832 0.893832 0.893832 0.893832 0.893832 0.893832 0.893832 0.893832 0.893832 0.893832 0.893832 0.893832 0.893832 0.893832 0.893832 0.893832 0.893832 0.893832 0.893832 0.893832 0.893832 0.893832 0.893832 0.893832 0.893832 0.893832 0.893832 0.893832 0.893832 0.893832 0.893832 0.893832 0.893832 0.893832 0.893832 0.893832 0.893832 0.893832 0.893832 0.893832 0.893833 0.893833 0.893833 0.893834 0.893834 0.893835 0.893839 0.890689 0.892114 0.86013 0.889402 0.886116 0.889188 0.886854 0.884637 0.88716 0.863203 0.893241 0.891655 0.893834 0.893833 0.893832 0.893832 0.893832 0.893832 0.893832 0.893832 0.893832 0.893832 0.893832 0.893832 0.893832 0.893832 0.893832 0.893832 0.893832 0.893832 0.893832 0.893832 0.893832 0.893832 0.893832 0.893832 0.893832 0.893832 0.893832 0.893832 0.893832 0.893832 0.893832 0.893832 0.893832 0.893832 0.893832 0.893832 0.893832 0.893832 0.893832 0.893832 0.893832 0.893832 0.893832 0.893832 0.893832 0.893832 0.893832 0.893832 0.893832 0.893832 0.893832 0.893832 0.893832 0.893832 0.893832 0.893832 0.893832 0.893832 0.893832 0.893832 0.893832 0.893833 0.893834 0.891655 0.893241 0.863203 0.88716 0.884637 0.886854 0.885076 0.883763 0.885484 0.866837 0.893669 0.89237 0.893831 0.89383 0.893831 0.893831 0.893831 0.893832 0.893832 0.893832 0.893832 0.893832 0.893832 0.893832 0.893832 0.893832 0.893832 0.893832 0.893832 0.893832 0.893832 0.893832 0.893832 0.893832 0.893832 0.893832 0.893832 0.893832 0.893832 0.893832 0.893832 0.893832 0.893832 0.893832 0.893832 0.893832 0.893832 0.893832 0.893832 0.893832 0.893832 0.893832 0.893832 0.893832 0.893832 0.893832 0.893832 0.893832 0.893832 0.893832 0.893832 0.893832 0.893832 0.893832 0.893832 0.893832 0.893832 0.893832 0.893832 0.893832 0.893831 0.893831 0.893831 0.89383 0.893831 0.89237 0.893669 0.866837 0.885484 0.883763 0.885076 0.883812 0.883384 0.884365 0.870703 0.893795 0.892881 0.893827 0.893828 0.893829 0.89383 0.893831 0.893831 0.893831 0.893832 0.893832 0.893832 0.893832 0.893832 0.893832 0.893832 0.893832 0.893832 0.893832 0.893832 0.893832 0.893832 0.893832 0.893832 0.893832 0.893832 0.893832 0.893832 0.893832 0.893832 0.893832 0.893832 0.893832 0.893832 0.893832 0.893832 0.893832 0.893832 0.893832 0.893832 0.893832 0.893832 0.893832 0.893832 0.893832 0.893832 0.893832 0.893832 0.893832 0.893832 0.893832 0.893832 0.893832 0.893832 0.893832 0.893832 0.893832 0.893832 0.893831 0.893831 0.893831 0.89383 0.893829 0.893828 0.893827 0.892881 0.893795 0.870703 0.884365 0.883384 0.883812 0.883021 0.883369 0.883763 0.874534 0.893823 0.893233 0.893825 0.893827 0.893828 0.893829 0.89383 0.893831 0.893831 0.893831 0.893832 0.893832 0.893832 0.893832 0.893832 0.893832 0.893832 0.893832 0.893832 0.893832 0.893832 0.893832 0.893832 0.893832 0.893832 0.893832 0.893832 0.893832 0.893832 0.893832 0.893832 0.893832 0.893832 0.893832 0.893832 0.893832 0.893832 0.893832 0.893832 0.893832 0.893832 0.893832 0.893832 0.893832 0.893832 0.893832 0.893832 0.893832 0.893832 0.893832 0.893832 0.893832 0.893832 0.893832 0.893832 0.893832 0.893832 0.893831 0.893831 0.893831 0.89383 0.893829 0.893828 0.893827 0.893825 0.893233 0.893823 0.874534 0.883763 0.883369 0.883021 0.88265 0.883604 0.883614 0.878133 0.893826 0.893467 0.893823 0.893825 0.893827 0.893829 0.89383 0.89383 0.893831 0.893831 0.893831 0.893832 0.893832 0.893832 0.893832 0.893832 0.893832 0.893832 0.893832 0.893832 0.893832 0.893832 0.893832 0.893832 0.893832 0.893832 0.893832 0.893832 0.893832 0.893832 0.893832 0.893832 0.893832 0.893832 0.893832 0.893832 0.893832 0.893832 0.893832 0.893832 0.893832 0.893832 0.893832 0.893832 0.893832 0.893832 0.893832 0.893832 0.893832 0.893832 0.893832 0.893832 0.893832 0.893832 0.893832 0.893832 0.893831 0.893831 0.893831 0.89383 0.89383 0.893829 0.893827 0.893825 0.893823 0.893467 0.893826 0.878133 0.883614 0.883604 0.88265 0.882637 0.884 0.88384 0.881369 0.893825 0.893616 0.893821 0.893824 0.893826 0.893828 0.893829 0.89383 0.893831 0.893831 0.893831 0.893832 0.893832 0.893832 0.893832 0.893832 0.893832 0.893832 0.893832 0.893832 0.893832 0.893832 0.893832 0.893832 0.893832 0.893832 0.893832 0.893832 0.893832 0.893832 0.893832 0.893832 0.893832 0.893832 0.893832 0.893832 0.893832 0.893832 0.893832 0.893832 0.893832 0.893832 0.893832 0.893832 0.893832 0.893832 0.893832 0.893832 0.893832 0.893832 0.893832 0.893832 0.893832 0.893832 0.893832 0.893832 0.893831 0.893831 0.893831 0.89383 0.893829 0.893828 0.893826 0.893824 0.893821 0.893616 0.893825 0.881369 0.88384 0.884 0.882637 0.882915 0.884492 0.884357 0.884169 0.893823 0.893705 0.89382 0.893823 0.893826 0.893828 0.893829 0.89383 0.893831 0.893831 0.893831 0.893832 0.893832 0.893832 0.893832 0.893832 0.893832 0.893832 0.893832 0.893832 0.893832 0.893832 0.893832 0.893832 0.893832 0.893832 0.893832 0.893832 0.893832 0.893832 0.893832 0.893832 0.893832 0.893832 0.893832 0.893832 0.893832 0.893832 0.893832 0.893832 0.893832 0.893832 0.893832 0.893832 0.893832 0.893832 0.893832 0.893832 0.893832 0.893832 0.893832 0.893832 0.893832 0.893832 0.893832 0.893832 0.893831 0.893831 0.893831 0.89383 0.893829 0.893828 0.893826 0.893823 0.89382 0.893705 0.893823 0.884169 0.884357 0.884492 0.882915 0.883417 0.885036 0.885081 0.886511 0.893821 0.893757 0.893819 0.893823 0.893826 0.893828 0.893829 0.89383 0.893831 0.893831 0.893831 0.893832 0.893832 0.893832 0.893832 0.893832 0.893832 0.893832 0.893832 0.893832 0.893832 0.893832 0.893832 0.893832 0.893832 0.893832 0.893832 0.893832 0.893832 0.893832 0.893832 0.893832 0.893832 0.893832 0.893832 0.893832 0.893832 0.893832 0.893832 0.893832 0.893832 0.893832 0.893832 0.893832 0.893832 0.893832 0.893832 0.893832 0.893832 0.893832 0.893832 0.893832 0.893832 0.893832 0.893832 0.893832 0.893831 0.893831 0.893831 0.89383 0.893829 0.893828 0.893826 0.893823 0.893819 0.893757 0.893821 0.886511 0.885081 0.885036 0.883417 0.884081 0.885608 0.885934 0.888406 0.89382 0.893784 0.893819 0.893823 0.893826 0.893828 0.893829 0.89383 0.893831 0.893831 0.893831 0.893832 0.893832 0.893832 0.893832 0.893832 0.893832 0.893832 0.893832 0.893832 0.893832 0.893832 0.893832 0.893832 0.893832 0.893832 0.893832 0.893832 0.893832 0.893832 0.893832 0.893832 0.893832 0.893832 0.893832 0.893832 0.893832 0.893832 0.893832 0.893832 0.893832 0.893832 0.893832 0.893832 0.893832 0.893832 0.893832 0.893832 0.893832 0.893832 0.893832 0.893832 0.893832 0.893832 0.893832 0.893832 0.893831 0.893831 0.893831 0.89383 0.893829 0.893828 0.893826 0.893823 0.893819 0.893784 0.89382 0.888406 0.885934 0.885608 0.884081 0.88485 0.886191 0.886851 0.889895 0.893819 0.893799 0.893819 0.893823 0.893826 0.893828 0.893829 0.89383 0.893831 0.893831 0.893831 0.893832 0.893832 0.893832 0.893832 0.893832 0.893832 0.893832 0.893832 0.893832 0.893832 0.893832 0.893832 0.893832 0.893832 0.893832 0.893832 0.893832 0.893832 0.893832 0.893832 0.893832 0.893832 0.893832 0.893832 0.893832 0.893832 0.893832 0.893832 0.893832 0.893832 0.893832 0.893832 0.893832 0.893832 0.893832 0.893832 0.893832 0.893832 0.893832 0.893832 0.893832 0.893832 0.893832 0.893832 0.893832 0.893831 0.893831 0.893831 0.89383 0.893829 0.893828 0.893826 0.893823 0.893819 0.893799 0.893819 0.889895 0.886851 0.886191 0.88485 0.885674 0.88678 0.887775 0.891032 0.893818 0.893806 0.89382 0.893823 0.893826 0.893828 0.893829 0.89383 0.893831 0.893831 0.893831 0.893832 0.893832 0.893832 0.893832 0.893832 0.893832 0.893832 0.893832 0.893832 0.893832 0.893832 0.893832 0.893832 0.893832 0.893832 0.893832 0.893832 0.893832 0.893832 0.893832 0.893832 0.893832 0.893832 0.893832 0.893832 0.893832 0.893832 0.893832 0.893832 0.893832 0.893832 0.893832 0.893832 0.893832 0.893832 0.893832 0.893832 0.893832 0.893832 0.893832 0.893832 0.893832 0.893832 0.893832 0.893832 0.893831 0.893831 0.893831 0.89383 0.893829 0.893828 0.893826 0.893823 0.89382 0.893806 0.893818 0.891032 0.887775 0.88678 0.885674 0.886512 0.887368 0.888666 0.891876 0.893818 0.89381 0.89382 0.893824 0.893826 0.893828 0.893829 0.89383 0.893831 0.893831 0.893831 0.893832 0.893832 0.893832 0.893832 0.893832 0.893832 0.893832 0.893832 0.893832 0.893832 0.893832 0.893832 0.893832 0.893832 0.893832 0.893832 0.893832 0.893832 0.893832 0.893832 0.893832 0.893832 0.893832 0.893832 0.893832 0.893832 0.893832 0.893832 0.893832 0.893832 0.893832 0.893832 0.893832 0.893832 0.893832 0.893832 0.893832 0.893832 0.893832 0.893832 0.893832 0.893832 0.893832 0.893832 0.893832 0.893831 0.893831 0.893831 0.89383 0.893829 0.893828 0.893826 0.893824 0.89382 0.89381 0.893818 0.891876 0.888666 0.887368 0.886512 0.887334 0.887951 0.889496 0.892487 0.893819 0.893812 0.893821 0.893824 0.893827 0.893828 0.89383 0.89383 0.893831 0.893831 0.893831 0.893832 0.893832 0.893832 0.893832 0.893832 0.893832 0.893832 0.893832 0.893832 0.893832 0.893832 0.893832 0.893832 0.893832 0.893832 0.893832 0.893832 0.893832 0.893832 0.893832 0.893832 0.893832 0.893832 0.893832 0.893832 0.893832 0.893832 0.893832 0.893832 0.893832 0.893832 0.893832 0.893832 0.893832 0.893832 0.893832 0.893832 0.893832 0.893832 0.893832 0.893832 0.893832 0.893832 0.893832 0.893832 0.893831 0.893831 0.893831 0.89383 0.89383 0.893828 0.893827 0.893824 0.893821 0.893812 0.893819 0.892487 0.889496 0.887951 0.887334 0.888115 0.888524 0.890246 0.892919 0.893819 0.893814 0.893822 0.893825 0.893827 0.893829 0.89383 0.89383 0.893831 0.893831 0.893832 0.893832 0.893832 0.893832 0.893832 0.893832 0.893832 0.893832 0.893832 0.893832 0.893832 0.893832 0.893832 0.893832 0.893832 0.893832 0.893832 0.893832 0.893832 0.893832 0.893832 0.893832 0.893832 0.893832 0.893832 0.893832 0.893832 0.893832 0.893832 0.893832 0.893832 0.893832 0.893832 0.893832 0.893832 0.893832 0.893832 0.893832 0.893832 0.893832 0.893832 0.893832 0.893832 0.893832 0.893832 0.893832 0.893832 0.893831 0.893831 0.89383 0.89383 0.893829 0.893827 0.893825 0.893822 0.893814 0.893819 0.892919 0.890246 0.888524 0.888115 0.888841 0.889082 0.890907 0.893218 0.89382 0.893816 0.893823 0.893825 0.893828 0.893829 0.89383 0.893831 0.893831 0.893831 0.893832 0.893832 0.893832 0.893832 0.893832 0.893832 0.893832 0.893832 0.893832 0.893832 0.893832 0.893832 0.893832 0.893832 0.893832 0.893832 0.893832 0.893832 0.893832 0.893832 0.893832 0.893832 0.893832 0.893832 0.893832 0.893832 0.893832 0.893832 0.893832 0.893832 0.893832 0.893832 0.893832 0.893832 0.893832 0.893832 0.893832 0.893832 0.893832 0.893832 0.893832 0.893832 0.893832 0.893832 0.893832 0.893832 0.893832 0.893831 0.893831 0.893831 0.89383 0.893829 0.893828 0.893825 0.893823 0.893816 0.89382 0.893218 0.890907 0.889082 0.888841 0.889502 0.889619 0.891478 0.893421 0.89382 0.893818 0.893824 0.893826 0.893828 0.893829 0.89383 0.893831 0.893831 0.893831 0.893832 0.893832 0.893832 0.893832 0.893832 0.893832 0.893832 0.893832 0.893832 0.893832 0.893832 0.893832 0.893832 0.893832 0.893832 0.893832 0.893832 0.893832 0.893832 0.893832 0.893832 0.893832 0.893832 0.893832 0.893832 0.893832 0.893832 0.893832 0.893832 0.893832 0.893832 0.893832 0.893832 0.893832 0.893832 0.893832 0.893832 0.893832 0.893832 0.893832 0.893832 0.893832 0.893832 0.893832 0.893832 0.893832 0.893832 0.893831 0.893831 0.893831 0.89383 0.893829 0.893828 0.893826 0.893824 0.893818 0.89382 0.893421 0.891478 0.889619 0.889502 0.890095 0.890129 0.891962 0.893555 0.893821 0.893819 0.893824 0.893827 0.893828 0.89383 0.89383 0.893831 0.893831 0.893832 0.893832 0.893832 0.893832 0.893832 0.893832 0.893832 0.893832 0.893832 0.893832 0.893832 0.893832 0.893832 0.893832 0.893832 0.893832 0.893832 0.893832 0.893832 0.893832 0.893832 0.893832 0.893832 0.893832 0.893832 0.893832 0.893832 0.893832 0.893832 0.893832 0.893832 0.893832 0.893832 0.893832 0.893832 0.893832 0.893832 0.893832 0.893832 0.893832 0.893832 0.893832 0.893832 0.893832 0.893832 0.893832 0.893832 0.893832 0.893832 0.893831 0.893831 0.89383 0.89383 0.893828 0.893827 0.893824 0.893819 0.893821 0.893555 0.891962 0.890129 0.890095 0.890619 0.890608 0.892365 0.893644 0.893822 0.893821 0.893825 0.893827 0.893829 0.89383 0.893831 0.893831 0.893831 0.893832 0.893832 0.893832 0.893832 0.893832 0.893832 0.893832 0.893832 0.893832 0.893832 0.893832 0.893832 0.893832 0.893832 0.893832 0.893832 0.893832 0.893832 0.893832 0.893832 0.893832 0.893832 0.893832 0.893832 0.893832 0.893832 0.893832 0.893832 0.893832 0.893832 0.893832 0.893832 0.893832 0.893832 0.893832 0.893832 0.893832 0.893832 0.893832 0.893832 0.893832 0.893832 0.893832 0.893832 0.893832 0.893832 0.893832 0.893832 0.893832 0.893831 0.893831 0.893831 0.89383 0.893829 0.893827 0.893825 0.893821 0.893822 0.893644 0.892365 0.890608 0.890619 0.891079 0.89105 0.892695 0.893702 0.893823 0.893822 0.893826 0.893828 0.893829 0.89383 0.893831 0.893831 0.893831 0.893832 0.893832 0.893832 0.893832 0.893832 0.893832 0.893832 0.893832 0.893832 0.893832 0.893832 0.893832 0.893832 0.893832 0.893832 0.893832 0.893832 0.893832 0.893832 0.893832 0.893832 0.893832 0.893832 0.893832 0.893832 0.893832 0.893832 0.893832 0.893832 0.893832 0.893832 0.893832 0.893832 0.893832 0.893832 0.893832 0.893832 0.893832 0.893832 0.893832 0.893832 0.893832 0.893832 0.893832 0.893832 0.893832 0.893832 0.893832 0.893832 0.893831 0.893831 0.893831 0.89383 0.893829 0.893828 0.893826 0.893822 0.893823 0.893702 0.892695 0.89105 0.891079 0.891478 0.891454 0.892961 0.89374 0.893824 0.893824 0.893827 0.893829 0.89383 0.89383 0.893831 0.893831 0.893832 0.893832 0.893832 0.893832 0.893832 0.893832 0.893832 0.893832 0.893832 0.893832 0.893832 0.893832 0.893832 0.893832 0.893832 0.893832 0.893832 0.893832 0.893832 0.893832 0.893832 0.893832 0.893832 0.893832 0.893832 0.893832 0.893832 0.893832 0.893832 0.893832 0.893832 0.893832 0.893832 0.893832 0.893832 0.893832 0.893832 0.893832 0.893832 0.893832 0.893832 0.893832 0.893832 0.893832 0.893832 0.893832 0.893832 0.893832 0.893832 0.893832 0.893832 0.893831 0.893831 0.89383 0.89383 0.893829 0.893827 0.893824 0.893824 0.89374 0.892961 0.891454 0.891478 0.891824 0.891817 0.893173 0.893765 0.893825 0.893825 0.893828 0.893829 0.89383 0.893831 0.893831 0.893831 0.893832 0.893832 0.893832 0.893832 0.893832 0.893832 0.893832 0.893832 0.893832 0.893832 0.893832 0.893832 0.893832 0.893832 0.893832 0.893832 0.893832 0.893832 0.893832 0.893832 0.893832 0.893832 0.893832 0.893832 0.893832 0.893832 0.893832 0.893832 0.893832 0.893832 0.893832 0.893832 0.893832 0.893832 0.893832 0.893832 0.893832 0.893832 0.893832 0.893832 0.893832 0.893832 0.893832 0.893832 0.893832 0.893832 0.893832 0.893832 0.893832 0.893832 0.893832 0.893831 0.893831 0.893831 0.89383 0.893829 0.893828 0.893825 0.893825 0.893765 0.893173 0.891817 0.891824 0.892121 0.89214 0.893339 0.893782 0.893826 0.893826 0.893828 0.89383 0.89383 0.893831 0.893831 0.893832 0.893832 0.893832 0.893832 0.893832 0.893832 0.893832 0.893832 0.893832 0.893832 0.893832 0.893832 0.893832 0.893832 0.893832 0.893832 0.893832 0.893832 0.893832 0.893832 0.893832 0.893832 0.893832 0.893832 0.893832 0.893832 0.893832 0.893832 0.893832 0.893832 0.893832 0.893832 0.893832 0.893832 0.893832 0.893832 0.893832 0.893832 0.893832 0.893832 0.893832 0.893832 0.893832 0.893832 0.893832 0.893832 0.893832 0.893832 0.893832 0.893832 0.893832 0.893832 0.893832 0.893831 0.893831 0.89383 0.89383 0.893828 0.893826 0.893826 0.893782 0.893339 0.89214 0.892121 0.892376 0.892423 0.893467 0.893794 0.893827 0.893827 0.893829 0.89383 0.893831 0.893831 0.893831 0.893832 0.893832 0.893832 0.893832 0.893832 0.893832 0.893832 0.893832 0.893832 0.893832 0.893832 0.893832 0.893832 0.893832 0.893832 0.893832 0.893832 0.893832 0.893832 0.893832 0.893832 0.893832 0.893832 0.893832 0.893832 0.893832 0.893832 0.893832 0.893832 0.893832 0.893832 0.893832 0.893832 0.893832 0.893832 0.893832 0.893832 0.893832 0.893832 0.893832 0.893832 0.893832 0.893832 0.893832 0.893832 0.893832 0.893832 0.893832 0.893832 0.893832 0.893832 0.893832 0.893832 0.893831 0.893831 0.893831 0.89383 0.893829 0.893827 0.893827 0.893794 0.893467 0.892423 0.892376 0.892595 0.892669 0.893564 0.893802 0.893827 0.893828 0.893829 0.89383 0.893831 0.893831 0.893832 0.893832 0.893832 0.893832 0.893832 0.893832 0.893832 0.893832 0.893832 0.893832 0.893832 0.893832 0.893832 0.893832 0.893832 0.893832 0.893832 0.893832 0.893832 0.893832 0.893832 0.893832 0.893832 0.893832 0.893832 0.893832 0.893832 0.893832 0.893832 0.893832 0.893832 0.893832 0.893832 0.893832 0.893832 0.893832 0.893832 0.893832 0.893832 0.893832 0.893832 0.893832 0.893832 0.893832 0.893832 0.893832 0.893832 0.893832 0.893832 0.893832 0.893832 0.893832 0.893832 0.893832 0.893832 0.893831 0.893831 0.89383 0.893829 0.893828 0.893827 0.893802 0.893564 0.892669 0.892595 0.892783 0.89288 0.893638 0.893809 0.893828 0.893829 0.89383 0.893831 0.893831 0.893831 0.893832 0.893832 0.893832 0.893832 0.893832 0.893832 0.893832 0.893832 0.893832 0.893832 0.893832 0.893832 0.893832 0.893832 0.893832 0.893832 0.893832 0.893832 0.893832 0.893832 0.893832 0.893832 0.893832 0.893832 0.893832 0.893832 0.893832 0.893832 0.893832 0.893832 0.893832 0.893832 0.893832 0.893832 0.893832 0.893832 0.893832 0.893832 0.893832 0.893832 0.893832 0.893832 0.893832 0.893832 0.893832 0.893832 0.893832 0.893832 0.893832 0.893832 0.893832 0.893832 0.893832 0.893832 0.893832 0.893831 0.893831 0.893831 0.89383 0.893829 0.893828 0.893809 0.893638 0.89288 0.892783 0.892944 0.893059 0.893693 0.893814 0.893829 0.893829 0.89383 0.893831 0.893831 0.893832 0.893832 0.893832 0.893832 0.893832 0.893832 0.893832 0.893832 0.893832 0.893832 0.893832 0.893832 0.893832 0.893832 0.893832 0.893832 0.893832 0.893832 0.893832 0.893832 0.893832 0.893832 0.893832 0.893832 0.893832 0.893832 0.893832 0.893832 0.893832 0.893832 0.893832 0.893832 0.893832 0.893832 0.893832 0.893832 0.893832 0.893832 0.893832 0.893832 0.893832 0.893832 0.893832 0.893832 0.893832 0.893832 0.893832 0.893832 0.893832 0.893832 0.893832 0.893832 0.893832 0.893832 0.893832 0.893832 0.893832 0.893831 0.893831 0.89383 0.893829 0.893829 0.893814 0.893693 0.893059 0.892944 0.893082 0.893209 0.893733 0.893818 0.893829 0.89383 0.893831 0.893831 0.893831 0.893832 0.893832 0.893832 0.893832 0.893832 0.893832 0.893832 0.893832 0.893832 0.893832 0.893832 0.893832 0.893832 0.893832 0.893832 0.893832 0.893832 0.893832 0.893832 0.893832 0.893832 0.893832 0.893832 0.893832 0.893832 0.893832 0.893832 0.893832 0.893832 0.893832 0.893832 0.893832 0.893832 0.893832 0.893832 0.893832 0.893832 0.893832 0.893832 0.893832 0.893832 0.893832 0.893832 0.893832 0.893832 0.893832 0.893832 0.893832 0.893832 0.893832 0.893832 0.893832 0.893832 0.893832 0.893832 0.893832 0.893832 0.893831 0.893831 0.893831 0.89383 0.893829 0.893818 0.893733 0.893209 0.893082 0.893201 0.893334 0.893762 0.893821 0.89383 0.89383 0.893831 0.893831 0.893832 0.893832 0.893832 0.893832 0.893832 0.893832 0.893832 0.893832 0.893832 0.893832 0.893832 0.893832 0.893832 0.893832 0.893832 0.893832 0.893832 0.893832 0.893832 0.893832 0.893832 0.893832 0.893832 0.893832 0.893832 0.893832 0.893832 0.893832 0.893832 0.893832 0.893832 0.893832 0.893832 0.893832 0.893832 0.893832 0.893832 0.893832 0.893832 0.893832 0.893832 0.893832 0.893832 0.893832 0.893832 0.893832 0.893832 0.893832 0.893832 0.893832 0.893832 0.893832 0.893832 0.893832 0.893832 0.893832 0.893832 0.893832 0.893832 0.893831 0.893831 0.89383 0.89383 0.893821 0.893762 0.893334 0.893201 0.893302 0.893437 0.893783 0.893824 0.89383 0.893831 0.893831 0.893831 0.893832 0.893832 0.893832 0.893832 0.893832 0.893832 0.893832 0.893832 0.893832 0.893832 0.893832 0.893832 0.893832 0.893832 0.893832 0.893832 0.893832 0.893832 0.893832 0.893832 0.893832 0.893832 0.893832 0.893832 0.893832 0.893832 0.893832 0.893832 0.893832 0.893832 0.893832 0.893832 0.893832 0.893832 0.893832 0.893832 0.893832 0.893832 0.893832 0.893832 0.893832 0.893832 0.893832 0.893832 0.893832 0.893832 0.893832 0.893832 0.893832 0.893832 0.893832 0.893832 0.893832 0.893832 0.893832 0.893832 0.893832 0.893832 0.893832 0.893831 0.893831 0.893831 0.89383 0.893824 0.893783 0.893437 0.893302 0.893389 0.893521 0.893797 0.893826 0.89383 0.893831 0.893831 0.893832 0.893832 0.893832 0.893832 0.893832 0.893832 0.893832 0.893832 0.893832 0.893832 0.893832 0.893832 0.893832 0.893832 0.893832 0.893832 0.893832 0.893832 0.893832 0.893832 0.893832 0.893832 0.893832 0.893832 0.893832 0.893832 0.893832 0.893832 0.893832 0.893832 0.893832 0.893832 0.893832 0.893832 0.893832 0.893832 0.893832 0.893832 0.893832 0.893832 0.893832 0.893832 0.893832 0.893832 0.893832 0.893832 0.893832 0.893832 0.893832 0.893832 0.893832 0.893832 0.893832 0.893832 0.893832 0.893832 0.893832 0.893832 0.893832 0.893832 0.893832 0.893831 0.893831 0.89383 0.893826 0.893797 0.893521 0.893389 0.893463 0.89359 0.893808 0.893827 0.893831 0.893831 0.893831 0.893832 0.893832 0.893832 0.893832 0.893832 0.893832 0.893832 0.893832 0.893832 0.893832 0.893832 0.893832 0.893832 0.893832 0.893832 0.893832 0.893832 0.893832 0.893832 0.893832 0.893832 0.893832 0.893832 0.893832 0.893832 0.893832 0.893832 0.893832 0.893832 0.893832 0.893832 0.893832 0.893832 0.893832 0.893832 0.893832 0.893832 0.893832 0.893832 0.893832 0.893832 0.893832 0.893832 0.893832 0.893832 0.893832 0.893832 0.893832 0.893832 0.893832 0.893832 0.893832 0.893832 0.893832 0.893832 0.893832 0.893832 0.893832 0.893832 0.893832 0.893832 0.893831 0.893831 0.893831 0.893827 0.893808 0.89359 0.893463 0.893526 0.893644 0.893815 0.893828 0.893831 0.893831 0.893832 0.893832 0.893832 0.893832 0.893832 0.893832 0.893832 0.893832 0.893832 0.893832 0.893832 0.893832 0.893832 0.893832 0.893832 0.893832 0.893832 0.893832 0.893832 0.893832 0.893832 0.893832 0.893832 0.893832 0.893832 0.893832 0.893832 0.893832 0.893832 0.893832 0.893832 0.893832 0.893832 0.893832 0.893832 0.893832 0.893832 0.893832 0.893832 0.893832 0.893832 0.893832 0.893832 0.893832 0.893832 0.893832 0.893832 0.893832 0.893832 0.893832 0.893832 0.893832 0.893832 0.893832 0.893832 0.893832 0.893832 0.893832 0.893832 0.893832 0.893832 0.893832 0.893832 0.893831 0.893831 0.893828 0.893815 0.893644 0.893526 0.893579 0.893687 0.89382 0.893829 0.893831 0.893832 0.893832 0.893832 0.893832 0.893832 0.893832 0.893832 0.893832 0.893832 0.893832 0.893832 0.893832 0.893832 0.893832 0.893832 0.893832 0.893832 0.893832 0.893832 0.893832 0.893832 0.893832 0.893832 0.893832 0.893832 0.893832 0.893832 0.893832 0.893832 0.893832 0.893832 0.893832 0.893832 0.893832 0.893832 0.893832 0.893832 0.893832 0.893832 0.893832 0.893832 0.893832 0.893832 0.893832 0.893832 0.893832 0.893832 0.893832 0.893832 0.893832 0.893832 0.893832 0.893832 0.893832 0.893832 0.893832 0.893832 0.893832 0.893832 0.893832 0.893832 0.893832 0.893832 0.893832 0.893832 0.893831 0.893829 0.89382 0.893687 0.893579 0.893623 0.893722 0.893824 0.89383 0.893831 0.893832 0.893832 0.893832 0.893832 0.893832 0.893832 0.893832 0.893832 0.893832 0.893832 0.893832 0.893832 0.893832 0.893832 0.893832 0.893832 0.893832 0.893832 0.893832 0.893832 0.893832 0.893832 0.893832 0.893832 0.893832 0.893832 0.893832 0.893832 0.893832 0.893832 0.893832 0.893832 0.893832 0.893832 0.893832 0.893832 0.893832 0.893832 0.893832 0.893832 0.893832 0.893832 0.893832 0.893832 0.893832 0.893832 0.893832 0.893832 0.893832 0.893832 0.893832 0.893832 0.893832 0.893832 0.893832 0.893832 0.893832 0.893832 0.893832 0.893832 0.893832 0.893832 0.893832 0.893832 0.893832 0.893831 0.89383 0.893824 0.893722 0.893623 0.89366 0.893748 0.893826 0.893831 0.893832 0.893832 0.893832 0.893832 0.893832 0.893832 0.893832 0.893832 0.893832 0.893832 0.893832 0.893832 0.893832 0.893832 0.893832 0.893832 0.893832 0.893832 0.893832 0.893832 0.893832 0.893832 0.893832 0.893832 0.893832 0.893832 0.893832 0.893832 0.893832 0.893832 0.893832 0.893832 0.893832 0.893832 0.893832 0.893832 0.893832 0.893832 0.893832 0.893832 0.893832 0.893832 0.893832 0.893832 0.893832 0.893832 0.893832 0.893832 0.893832 0.893832 0.893832 0.893832 0.893832 0.893832 0.893832 0.893832 0.893832 0.893832 0.893832 0.893832 0.893832 0.893832 0.893832 0.893832 0.893832 0.893832 0.893832 0.893831 0.893826 0.893748 0.89366 0.893691 0.893769 0.893828 0.893831 0.893832 0.893832 0.893832 0.893832 0.893832 0.893832 0.893832 0.893832 0.893832 0.893832 0.893832 0.893832 0.893832 0.893832 0.893832 0.893832 0.893832 0.893832 0.893832 0.893832 0.893832 0.893832 0.893832 0.893832 0.893832 0.893832 0.893832 0.893832 0.893832 0.893832 0.893832 0.893832 0.893832 0.893832 0.893832 0.893832 0.893832 0.893832 0.893832 0.893832 0.893832 0.893832 0.893832 0.893832 0.893832 0.893832 0.893832 0.893832 0.893832 0.893832 0.893832 0.893832 0.893832 0.893832 0.893832 0.893832 0.893832 0.893832 0.893832 0.893832 0.893832 0.893832 0.893832 0.893832 0.893832 0.893832 0.893832 0.893831 0.893828 0.893769 0.893691 0.893716 0.893785 0.893829 0.893831 0.893832 0.893832 0.893832 0.893832 0.893832 0.893832 0.893832 0.893832 0.893832 0.893832 0.893832 0.893832 0.893832 0.893832 0.893832 0.893832 0.893832 0.893832 0.893832 0.893832 0.893832 0.893832 0.893832 0.893832 0.893832 0.893832 0.893832 0.893832 0.893832 0.893832 0.893832 0.893832 0.893832 0.893832 0.893832 0.893832 0.893832 0.893832 0.893832 0.893832 0.893832 0.893832 0.893832 0.893832 0.893832 0.893832 0.893832 0.893832 0.893832 0.893832 0.893832 0.893832 0.893832 0.893832 0.893832 0.893832 0.893832 0.893832 0.893832 0.893832 0.893832 0.893832 0.893832 0.893832 0.893832 0.893832 0.893832 0.893831 0.893829 0.893785 0.893716 0.893737 0.893797 0.89383 0.893832 0.893832 0.893832 0.893832 0.893832 0.893832 0.893832 0.893832 0.893832 0.893832 0.893832 0.893832 0.893832 0.893832 0.893832 0.893832 0.893832 0.893832 0.893832 0.893832 0.893832 0.893832 0.893832 0.893832 0.893832 0.893832 0.893832 0.893832 0.893832 0.893832 0.893832 0.893832 0.893832 0.893832 0.893832 0.893832 0.893832 0.893832 0.893832 0.893832 0.893832 0.893832 0.893832 0.893832 0.893832 0.893832 0.893832 0.893832 0.893832 0.893832 0.893832 0.893832 0.893832 0.893832 0.893832 0.893832 0.893832 0.893832 0.893832 0.893832 0.893832 0.893832 0.893832 0.893832 0.893832 0.893832 0.893832 0.893832 0.893832 0.89383 0.893797 0.893737 0.893753 0.893806 0.89383 0.893832 0.893832 0.893832 0.893832 0.893832 0.893832 0.893832 0.893832 0.893832 0.893832 0.893832 0.893832 0.893832 0.893832 0.893832 0.893832 0.893832 0.893832 0.893832 0.893832 0.893832 0.893832 0.893832 0.893832 0.893832 0.893832 0.893832 0.893832 0.893832 0.893832 0.893832 0.893832 0.893832 0.893832 0.893832 0.893832 0.893832 0.893832 0.893832 0.893832 0.893832 0.893832 0.893832 0.893832 0.893832 0.893832 0.893832 0.893832 0.893832 0.893832 0.893832 0.893832 0.893832 0.893832 0.893832 0.893832 0.893832 0.893832 0.893832 0.893832 0.893832 0.893832 0.893832 0.893832 0.893832 0.893832 0.893832 0.893832 0.893832 0.89383 0.893806 0.893753 0.893765 0.893812 0.893831 0.893832 0.893832 0.893832 0.893832 0.893832 0.893832 0.893832 0.893832 0.893832 0.893832 0.893832 0.893832 0.893832 0.893832 0.893832 0.893832 0.893832 0.893832 0.893832 0.893832 0.893832 0.893832 0.893832 0.893832 0.893832 0.893832 0.893832 0.893832 0.893832 0.893832 0.893832 0.893832 0.893832 0.893832 0.893832 0.893832 0.893832 0.893832 0.893832 0.893832 0.893832 0.893832 0.893832 0.893832 0.893832 0.893832 0.893832 0.893832 0.893832 0.893832 0.893832 0.893832 0.893832 0.893832 0.893832 0.893832 0.893832 0.893832 0.893832 0.893832 0.893832 0.893832 0.893832 0.893832 0.893832 0.893832 0.893832 0.893832 0.893832 0.893831 0.893812 0.893765 0.893774 0.893816 0.893831 0.893832 0.893832 0.893832 0.893832 0.893832 0.893832 0.893832 0.893832 0.893832 0.893832 0.893832 0.893832 0.893832 0.893832 0.893832 0.893832 0.893832 0.893832 0.893832 0.893832 0.893832 0.893832 0.893832 0.893832 0.893832 0.893832 0.893832 0.893832 0.893832 0.893832 0.893832 0.893832 0.893832 0.893832 0.893832 0.893832 0.893832 0.893832 0.893832 0.893832 0.893832 0.893832 0.893832 0.893832 0.893832 0.893832 0.893832 0.893832 0.893832 0.893832 0.893832 0.893832 0.893832 0.893832 0.893832 0.893832 0.893832 0.893832 0.893832 0.893832 0.893832 0.893832 0.893832 0.893832 0.893832 0.893832 0.893832 0.893832 0.893832 0.893831 0.893816 0.893774 0.89378 0.893819 0.893831 0.893832 0.893832 0.893832 0.893832 0.893832 0.893832 0.893832 0.893832 0.893832 0.893832 0.893832 0.893832 0.893832 0.893832 0.893832 0.893832 0.893832 0.893832 0.893832 0.893832 0.893832 0.893832 0.893832 0.893832 0.893832 0.893832 0.893832 0.893832 0.893832 0.893832 0.893832 0.893832 0.893832 0.893832 0.893832 0.893832 0.893832 0.893832 0.893832 0.893832 0.893832 0.893832 0.893832 0.893832 0.893832 0.893832 0.893832 0.893832 0.893832 0.893832 0.893832 0.893832 0.893832 0.893832 0.893832 0.893832 0.893832 0.893832 0.893832 0.893832 0.893832 0.893832 0.893832 0.893832 0.893832 0.893832 0.893832 0.893832 0.893832 0.893831 0.893819 0.89378 0.893783 0.89382 0.893831 0.893832 0.893832 0.893832 0.893832 0.893832 0.893832 0.893832 0.893832 0.893832 0.893832 0.893832 0.893832 0.893832 0.893832 0.893832 0.893832 0.893832 0.893832 0.893832 0.893832 0.893832 0.893832 0.893832 0.893832 0.893832 0.893832 0.893832 0.893832 0.893832 0.893832 0.893832 0.893832 0.893832 0.893832 0.893832 0.893832 0.893832 0.893832 0.893832 0.893832 0.893832 0.893832 0.893832 0.893832 0.893832 0.893832 0.893832 0.893832 0.893832 0.893832 0.893832 0.893832 0.893832 0.893832 0.893832 0.893832 0.893832 0.893832 0.893832 0.893832 0.893832 0.893832 0.893832 0.893832 0.893832 0.893832 0.893832 0.893832 0.893832 0.893831 0.89382 0.893783 
SCALARS Axial_Stress float 1
LOOKUP_TABLE default
-609495000000.0 -611042000000.0 -432615000000.0 -411703000000.0 -380785000000.0 -352036000000.0 -354616000000.0 -356464000000.0 -355732000000.0 -346322000000.0 -332820000000.0 -317303000000.0 -300295000000.0 -282137000000.0 -264164000000.0 -247073000000.0 -230760000000.0 -215503000000.0 -201645000000.0 -188944000000.0 -177046000000.0 -165971000000.0 -155908000000.0 -146875000000.0 -138715000000.0 -131249000000.0 -124377000000.0 -118088000000.0 -112415000000.0 -107404000000.0 -103096000000.0 -99526300000.0 -96723400000.0 -94707900000.0 -93493900000.0 -93088500000.0 -93493900000.0 -94707900000.0 -96723400000.0 -99526300000.0 -103096000000.0 -107404000000.0 -112415000000.0 -118088000000.0 -124377000000.0 -131249000000.0 -138715000000.0 -146875000000.0 -155908000000.0 -165971000000.0 -177046000000.0 -188944000000.0 -201645000000.0 -215503000000.0 -230760000000.0 -247073000000.0 -264164000000.0 -282137000000.0 -300295000000.0 -317303000000.0 -332820000000.0 -346322000000.0 -355732000000.0 -356464000000.0 -354616000000.0 -352036000000.0 -380785000000.0 -411703000000.0 -432615000000.0 -611042000000.0 -609495000000.0 -650747000000.0 -1.30083e+12 -777887000000.0 -490638000000.0 -444748000000.0 -426216000000.0 -402051000000.0 -398682000000.0 -391088000000.0 -377404000000.0 -360656000000.0 -341207000000.0 -320357000000.0 -299781000000.0 -279972000000.0 -260812000000.0 -242649000000.0 -225983000000.0 -210714000000.0 -196367000000.0 -182786000000.0 -170213000000.0 -158861000000.0 -148660000000.0 -139362000000.0 -130752000000.0 -122742000000.0 -115353000000.0 -108656000000.0 -102730000000.0 -97636900000.0 -93423500000.0 -90119800000.0 -87746200000.0 -86316700000.0 -85839200000.0 -86316700000.0 -87746200000.0 -90119800000.0 -93423500000.0 -97636900000.0 -102730000000.0 -108656000000.0 -115353000000.0 -122742000000.0 -130752000000.0 -139362000000.0 -148660000000.0 -158861000000.0 -170213000000.0 -182786000000.0 -196367000000.0 -210714000000.0 -225983000000.0 -242649000000.0 -260812000000.0 -279972000000.0 -299781000000.0 -320357000000.0 -341207000000.0 -360656000000.0 -377404000000.0 -391088000000.0 -398682000000.0 -402051000000.0 -426216000000.0 -444748000000.0 -490638000000.0 -777887000000.0 -1.30083e+12 -650747000000.0 -599829000000.0 -1.08876e+12 -1.08876e+12 -599829000000.0 -1.23899e+12 -1.01816e+12 -1.21632e+12 -846788000000.0 -610467000000.0 -513297000000.0 -512314000000.0 -441552000000.0 -431890000000.0 -416945000000.0 -398341000000.0 -376891000000.0 -352825000000.0 -327155000000.0 -301000000000.0 -275470000000.0 -251342000000.0 -228840000000.0 -207882000000.0 -188342000000.0 -170413000000.0 -154100000000.0 -139371000000.0 -126124000000.0 -114212000000.0 -103536000000.0 -94037200000.0 -85644600000.0 -78266400000.0 -71819300000.0 -66252200000.0 -61545400000.0 -57695100000.0 -54701600000.0 -52564300000.0 -51282200000.0 -50854900000.0 -51282200000.0 -52564300000.0 -54701600000.0 -57695100000.0 -61545400000.0 -66252200000.0 -71819300000.0 -78266400000.0 -85644600000.0 -94037200000.0 -103536000000.0 -114212000000.0 -126124000000.0 -139371000000.0 -154100000000.0 -170413000000.0 -188342000000.0 -207882000000.0 -228840000000.0 -251342000000.0 -275470000000.0 -301000000000.0 -327155000000.0 -352825000000.0 -376891000000.0 -398341000000.0 -416945000000.0 -431890000000.0 -441552000000.0 -512314000000.0 -513297000000.0 -610467000000.0 -846788000000.0 -1.21632e+12 -1.01816e+12 -1.23899e+12 -97456500000.0 -348085000000.0 -824015000000.0 -1.58168e+12 -765665000000.0 -737037000000.0 -584165000000.0 -642732000000.0 -511699000000.0 -490590000000.0 -462002000000.0 -431064000000.0 -396972000000.0 -361136000000.0 -324796000000.0 -289287000000.0 -255692000000.0 -224616000000.0 -196343000000.0 -170862000000.0 -147906000000.0 -127672000000.0 -109986000000.0 -94661300000.0 -81470100000.0 -70183700000.0 -60535000000.0 -52390900000.0 -45594200000.0 -39957000000.0 -35336200000.0 -31602700000.0 -28638600000.0 -26340900000.0 -24628400000.0 -23442700000.0 -22745600000.0 -22515600000.0 -22745600000.0 -23442700000.0 -24628400000.0 -26340900000.0 -28638600000.0 -31602700000.0 -35336200000.0 -39957000000.0 -45594200000.0 -52390900000.0 -60535000000.0 -70183700000.0 -81470100000.0 -94661300000.0 -109986000000.0 -127672000000.0 -147906000000.0 -170862000000.0 -196343000000.0 -224616000000.0 -255692000000.0 -289287000000.0 -324796000000.0 -361136000000.0 -396972000000.0 -431064000000.0 -462002000000.0 -490590000000.0 -511699000000.0 -642732000000.0 -584165000000.0 -737037000000.0 -765665000000.0 -1.58168e+12 -824015000000.0 -348085000000.0 -97456500000.0 -41444800000.0 -284321000000.0 -895243000000.0 -895243000000.0 -284321000000.0 -41444800000.0 -128932000000.0 -303884000000.0 -909941000000.0 -604595000000.0 -915662000000.0 -587839000000.0 -393613000000.0 -510774000000.0 -368908000000.0 -354664000000.0 -329234000000.0 -300757000000.0 -270491000000.0 -240048000000.0 -211343000000.0 -185760000000.0 -163260000000.0 -143384000000.0 -125977000000.0 -110879000000.0 -97788400000.0 -86740400000.0 -77471700000.0 -69593100000.0 -62772700000.0 -56870700000.0 -51745400000.0 -47326400000.0 -43509800000.0 -40164500000.0 -37224800000.0 -34662500000.0 -32475900000.0 -30675200000.0 -29270500000.0 -28266500000.0 -27664400000.0 -27463700000.0 -27664400000.0 -28266500000.0 -29270500000.0 -30675200000.0 -32475900000.0 -34662500000.0 -37224800000.0 -40164500000.0 -43509800000.0 -47326400000.0 -51745400000.0 -56870700000.0 -62772700000.0 -69593100000.0 -77471700000.0 -86740400000.0 -97788400000.0 -110879000000.0 -125977000000.0 -143384000000.0 -163260000000.0 -185760000000.0 -211343000000.0 -240048000000.0 -270491000000.0 -300757000000.0 -329234000000.0 -354664000000.0 -368908000000.0 -510774000000.0 -393613000000.0 -587839000000.0 -915662000000.0 -604595000000.0 -909941000000.0 -303884000000.0 -128932000000.0 -402086000000.0 -387416000000.0 -368230000000.0 -20126100000.0 -129412000000.0 -9166350000.0 -9424380000.0 -9674030000.0 -9909190000.0 -10125500000.0 -10318500000.0 -10483400000.0 -10619500000.0 -10723700000.0 -10794100000.0 -10831400000.0 -10839000000.0 -10818800000.0 -10769000000.0 -10693200000.0 -10597200000.0 -10482400000.0 -10354500000.0 -10221300000.0 -10084700000.0 -9946450000.0 -9813620000.0 -9690910000.0 -9577240000.0 -9472260000.0 -9379940000.0 -9305000000.0 -9249900000.0 -9215910000.0 -9204340000.0 -9215910000.0 -9249900000.0 -9305000000.0 -9379940000.0 -9472260000.0 -9577240000.0 -9690910000.0 -9813620000.0 -9946450000.0 -10084700000.0 -10221300000.0 -10354500000.0 -10482400000.0 -10597200000.0 -10693200000.0 -10769000000.0 -10818800000.0 -10839000000.0 -10831400000.0 -10794100000.0 -10723700000.0 -10619500000.0 -10483400000.0 -10318500000.0 -10125500000.0 -9909190000.0 -9674030000.0 -9424380000.0 -9166350000.0 -129412000000.0 -20126100000.0 -368230000000.0 -387416000000.0 -402086000000.0 -61694200000.0 -74988600000.0 -634280000000.0 -634280000000.0 -74988600000.0 -61694200000.0 -48478400000.0 -372592000000.0 -9035750000.0 -347029000000.0 -387223000000.0 -480401000000.0 -268036000000.0 -304188000000.0 -215161000000.0 -189415000000.0 -169111000000.0 -151791000000.0 -136415000000.0 -122387000000.0 -109567000000.0 -98085700000.0 -88003400000.0 -79169300000.0 -71289900000.0 -64118100000.0 -57563800000.0 -51629400000.0 -46307300000.0 -41552700000.0 -37304100000.0 -33506500000.0 -30120400000.0 -27115900000.0 -24464600000.0 -22142800000.0 -20134600000.0 -18429000000.0 -17014000000.0 -15875800000.0 -15001800000.0 -14382900000.0 -14013400000.0 -13890600000.0 -14013400000.0 -14382900000.0 -15001800000.0 -15875800000.0 -17014000000.0 -18429000000.0 -20134600000.0 -22142800000.0 -24464600000.0 -27115900000.0 -30120400000.0 -33506500000.0 -37304100000.0 -41552700000.0 -46307300000.0 -51629400000.0 -57563800000.0 -64118100000.0 -71289900000.0 -79169300000.0 -88003400000.0 -98085700000.0 -109567000000.0 -122387000000.0 -136415000000.0 -151791000000.0 -169111000000.0 -189415000000.0 -215161000000.0 -304188000000.0 -268036000000.0 -480401000000.0 -387223000000.0 -347029000000.0 -9035750000.0 -372592000000.0 -48478400000.0 -235421000000.0 -48129700000.0 -197490000000.0 -222114000000.0 -152712000000.0 -10712500000.0 -51407600000.0 -9035750000.0 -9035750000.0 -9035750000.0 -9035750000.0 -9035750000.0 -9035750000.0 -9035750000.0 -9035750000.0 -9035750000.0 -9035750000.0 -9035750000.0 -9035750000.0 -9035750000.0 -9035750000.0 -9035750000.0 -9035750000.0 -9035750000.0 -9035750000.0 -9035750000.0 -9035750000.0 -9035750000.0 -9035750000.0 -9035750000.0 -9035750000.0 -9035750000.0 -9035750000.0 -9035750000.0 -9035750000.0 -9035750000.0 -9035750000.0 -9035750000.0 -9035750000.0 -9035750000.0 -9035750000.0 -9035750000.0 -9035750000.0 -9035750000.0 -9035750000.0 -9035750000.0 -9035750000.0 -9035750000.0 -9035750000.0 -9035750000.0 -9035750000.0 -9035750000.0 -9035750000.0 -9035750000.0 -9035750000.0 -9035750000.0 -9035750000.0 -9035750000.0 -9035750000.0 -9035750000.0 -9035750000.0 -9035750000.0 -9035750000.0 -9035750000.0 -9035750000.0 -9035750000.0 -51407600000.0 -10712500000.0 -152712000000.0 -222114000000.0 -197490000000.0 -48129700000.0 -235421000000.0 -46964300000.0 -46964300000.0 -15226800000.0 -140500000000.0 -43723300000.0 -199640000000.0 -231454000000.0 -179643000000.0 -91433100000.0 -107025000000.0 -75860500000.0 -68419700000.0 -61748700000.0 -55618600000.0 -49941200000.0 -44676500000.0 -39809100000.0 -35370700000.0 -31405600000.0 -27926200000.0 -24901400000.0 -22279300000.0 -20012700000.0 -18066100000.0 -16410300000.0 -15016700000.0 -13854200000.0 -12891300000.0 -12098800000.0 -11451300000.0 -10926900000.0 -10506300000.0 -10172400000.0 -9910570000.0 -9708280000.0 -9555350000.0 -9443870000.0 -9368060000.0 -9324050000.0 -9309620000.0 -9324050000.0 -9368060000.0 -9443870000.0 -9555350000.0 -9708280000.0 -9910570000.0 -10172400000.0 -10506300000.0 -10926900000.0 -11451300000.0 -12098800000.0 -12891300000.0 -13854200000.0 -15016700000.0 -16410300000.0 -18066100000.0 -20012700000.0 -22279300000.0 -24901400000.0 -27926200000.0 -31405600000.0 -35370700000.0 -39809100000.0 -44676500000.0 -49941200000.0 -55618600000.0 -61748700000.0 -68419700000.0 -75860500000.0 -107025000000.0 -91433100000.0 -179643000000.0 -231454000000.0 -199640000000.0 -43723300000.0 -140500000000.0 -15226800000.0 -166908000000.0 -123902000000.0 -57494500000.0 -9180320000.0 -22459400000.0 -9037300000.0 -9036470000.0 -9036290000.0 -9036250000.0 -9036190000.0 -9036130000.0 -9036070000.0 -9036020000.0 -9035980000.0 -9035940000.0 -9035910000.0 -9035890000.0 -9035870000.0 -9035850000.0 -9035840000.0 -9035830000.0 -9035820000.0 -9035820000.0 -9035830000.0 -9035840000.0 -9035830000.0 -9035820000.0 -9035810000.0 -9035800000.0 -9035790000.0 -9035770000.0 -9035770000.0 -9035760000.0 -9035750000.0 -9035750000.0 -9035750000.0 -9035760000.0 -9035770000.0 -9035770000.0 -9035790000.0 -9035800000.0 -9035810000.0 -9035820000.0 -9035830000.0 -9035840000.0 -9035830000.0 -9035820000.0 -9035820000.0 -9035830000.0 -9035840000.0 -9035850000.0 -9035870000.0 -9035890000.0 -9035910000.0 -9035940000.0 -9035980000.0 -9036020000.0 -9036070000.0 -9036130000.0 -9036190000.0 -9036250000.0 -9036290000.0 -9036470000.0 -9037300000.0 -22459400000.0 -9180320000.0 -57494500000.0 -123902000000.0 -166908000000.0 -30948400000.0 -97758000000.0 -27672300000.0 -27672300000.0 -97758000000.0 -30948400000.0 -39373700000.0 -80977200000.0 -29912700000.0 -172601000000.0 -108849000000.0 -52427800000.0 -16690400000.0 -22572400000.0 -14750400000.0 -13883300000.0 -13079800000.0 -12325600000.0 -11659400000.0 -11111800000.0 -10674000000.0 -10322800000.0 -10039000000.0 -9809330000.0 -9624900000.0 -9478680000.0 -9364460000.0 -9277420000.0 -9212650000.0 -9164540000.0 -9128410000.0 -9101270000.0 -9080960000.0 -9065700000.0 -9054380000.0 -9046400000.0 -9041280000.0 -9038340000.0 -9036850000.0 -9036180000.0 -9035910000.0 -9035800000.0 -9035770000.0 -9035760000.0 -9035770000.0 -9035800000.0 -9035910000.0 -9036180000.0 -9036850000.0 -9038340000.0 -9041280000.0 -9046400000.0 -9054380000.0 -9065700000.0 -9080960000.0 -9101270000.0 -9128410000.0 -9164540000.0 -9212650000.0 -9277420000.0 -9364460000.0 -9478680000.0 -9624900000.0 -9809330000.0 -10039000000.0 -10322800000.0 -10674000000.0 -11111800000.0 -11659400000.0 -12325600000.0 -13079800000.0 -13883300000.0 -14750400000.0 -22572400000.0 -16690400000.0 -52427800000.0 -108849000000.0 -172601000000.0 -29912700000.0 -80977200000.0 -39373700000.0 -169932000000.0 -76634400000.0 -37413500000.0 -9046880000.0 -12321800000.0 -9048450000.0 -9045180000.0 -9042580000.0 -9040830000.0 -9039500000.0 -9038560000.0 -9037910000.0 -9037420000.0 -9037050000.0 -9036780000.0 -9036570000.0 -9036410000.0 -9036290000.0 -9036200000.0 -9036140000.0 -9036080000.0 -9036040000.0 -9036010000.0 -9035980000.0 -9035950000.0 -9035910000.0 -9035890000.0 -9035860000.0 -9035830000.0 -9035810000.0 -9035790000.0 -9035780000.0 -9035760000.0 -9035760000.0 -9035750000.0 -9035760000.0 -9035760000.0 -9035780000.0 -9035790000.0 -9035810000.0 -9035830000.0 -9035860000.0 -9035890000.0 -9035910000.0 -9035950000.0 -9035980000.0 -9036010000.0 -9036040000.0 -9036080000.0 -9036140000.0 -9036200000.0 -9036290000.0 -9036410000.0 -9036570000.0 -9036780000.0 -9037050000.0 -9037420000.0 -9037910000.0 -9038560000.0 -9039500000.0 -9040830000.0 -9042580000.0 -9045180000.0 -9048450000.0 -12321800000.0 -9046880000.0 -37413500000.0 -76634400000.0 -169932000000.0 -50629100000.0 -76543100000.0 -39209700000.0 -39209700000.0 -76543100000.0 -50629100000.0 -60258300000.0 -76558700000.0 -46424400000.0 -164866000000.0 -56613100000.0 -32372000000.0 -9060890000.0 -10350800000.0 -9055860000.0 -9050110000.0 -9046020000.0 -9043250000.0 -9041210000.0 -9039780000.0 -9038810000.0 -9038080000.0 -9037550000.0 -9037160000.0 -9036860000.0 -9036650000.0 -9036480000.0 -9036360000.0 -9036260000.0 -9036190000.0 -9036130000.0 -9036080000.0 -9036030000.0 -9035980000.0 -9035940000.0 -9035910000.0 -9035880000.0 -9035850000.0 -9035820000.0 -9035800000.0 -9035780000.0 -9035770000.0 -9035760000.0 -9035750000.0 -9035760000.0 -9035770000.0 -9035780000.0 -9035800000.0 -9035820000.0 -9035850000.0 -9035880000.0 -9035910000.0 -9035940000.0 -9035980000.0 -9036030000.0 -9036080000.0 -9036130000.0 -9036190000.0 -9036260000.0 -9036360000.0 -9036480000.0 -9036650000.0 -9036860000.0 -9037160000.0 -9037550000.0 -9038080000.0 -9038810000.0 -9039780000.0 -9041210000.0 -9043250000.0 -9046020000.0 -9050110000.0 -9055860000.0 -10350800000.0 -9060890000.0 -32372000000.0 -56613100000.0 -164866000000.0 -46424400000.0 -76558700000.0 -60258300000.0 -67995600000.0 -78212500000.0 -52728200000.0 -155980000000.0 -40682600000.0 -27697200000.0 -9075900000.0 -9449700000.0 -9062100000.0 -9054360000.0 -9048970000.0 -9045340000.0 -9042680000.0 -9040840000.0 -9039590000.0 -9038660000.0 -9037990000.0 -9037490000.0 -9037120000.0 -9036850000.0 -9036640000.0 -9036490000.0 -9036370000.0 -9036280000.0 -9036200000.0 -9036130000.0 -9036070000.0 -9036010000.0 -9035970000.0 -9035930000.0 -9035890000.0 -9035860000.0 -9035830000.0 -9035800000.0 -9035780000.0 -9035770000.0 -9035760000.0 -9035750000.0 -9035760000.0 -9035770000.0 -9035780000.0 -9035800000.0 -9035830000.0 -9035860000.0 -9035890000.0 -9035930000.0 -9035970000.0 -9036010000.0 -9036070000.0 -9036130000.0 -9036200000.0 -9036280000.0 -9036370000.0 -9036490000.0 -9036640000.0 -9036850000.0 -9037120000.0 -9037490000.0 -9037990000.0 -9038660000.0 -9039590000.0 -9040840000.0 -9042680000.0 -9045340000.0 -9048970000.0 -9054360000.0 -9062100000.0 -9449700000.0 -9075900000.0 -27697200000.0 -40682600000.0 -155980000000.0 -52728200000.0 -78212500000.0 -67995600000.0 -73759000000.0 -79676100000.0 -57426800000.0 -144190000000.0 -28855300000.0 -23472100000.0 -9089320000.0 -9159670000.0 -9067280000.0 -9057920000.0 -9051450000.0 -9047090000.0 -9043930000.0 -9041730000.0 -9040240000.0 -9039150000.0 -9038350000.0 -9037770000.0 -9037330000.0 -9037010000.0 -9036770000.0 -9036590000.0 -9036450000.0 -9036340000.0 -9036240000.0 -9036160000.0 -9036090000.0 -9036040000.0 -9035980000.0 -9035940000.0 -9035900000.0 -9035870000.0 -9035830000.0 -9035810000.0 -9035780000.0 -9035770000.0 -9035760000.0 -9035750000.0 -9035760000.0 -9035770000.0 -9035780000.0 -9035810000.0 -9035830000.0 -9035870000.0 -9035900000.0 -9035940000.0 -9035980000.0 -9036040000.0 -9036090000.0 -9036160000.0 -9036240000.0 -9036340000.0 -9036450000.0 -9036590000.0 -9036770000.0 -9037010000.0 -9037330000.0 -9037770000.0 -9038350000.0 -9039150000.0 -9040240000.0 -9041730000.0 -9043930000.0 -9047090000.0 -9051450000.0 -9057920000.0 -9067280000.0 -9159670000.0 -9089320000.0 -23472100000.0 -28855300000.0 -144190000000.0 -57426800000.0 -79676100000.0 -73759000000.0 -77573300000.0 -80189700000.0 -60515900000.0 -130639000000.0 -20621300000.0 -19844800000.0 -9100760000.0 -9098750000.0 -9071480000.0 -9060810000.0 -9053460000.0 -9048510000.0 -9044930000.0 -9042450000.0 -9040770000.0 -9039530000.0 -9038640000.0 -9037980000.0 -9037490000.0 -9037140000.0 -9036870000.0 -9036670000.0 -9036510000.0 -9036380000.0 -9036280000.0 -9036190000.0 -9036110000.0 -9036050000.0 -9035990000.0 -9035950000.0 -9035910000.0 -9035870000.0 -9035840000.0 -9035810000.0 -9035780000.0 -9035770000.0 -9035760000.0 -9035750000.0 -9035760000.0 -9035770000.0 -9035780000.0 -9035810000.0 -9035840000.0 -9035870000.0 -9035910000.0 -9035950000.0 -9035990000.0 -9036050000.0 -9036110000.0 -9036190000.0 -9036280000.0 -9036380000.0 -9036510000.0 -9036670000.0 -9036870000.0 -9037140000.0 -9037490000.0 -9037980000.0 -9038640000.0 -9039530000.0 -9040770000.0 -9042450000.0 -9044930000.0 -9048510000.0 -9053460000.0 -9060810000.0 -9071480000.0 -9098750000.0 -9100760000.0 -19844800000.0 -20621300000.0 -130639000000.0 -60515900000.0 -80189700000.0 -77573300000.0 -79513900000.0 -79591500000.0 -62054400000.0 -116171000000.0 -15266000000.0 -16877900000.0 -9109780000.0 -9092750000.0 -9074710000.0 -9063040000.0 -9055000000.0 -9049600000.0 -9045700000.0 -9043000000.0 -9041160000.0 -9039820000.0 -9038850000.0 -9038140000.0 -9037610000.0 -9037230000.0 -9036940000.0 -9036720000.0 -9036540000.0 -9036410000.0 -9036290000.0 -9036200000.0 -9036120000.0 -9036050000.0 -9036000000.0 -9035950000.0 -9035910000.0 -9035870000.0 -9035840000.0 -9035810000.0 -9035780000.0 -9035770000.0 -9035760000.0 -9035750000.0 -9035760000.0 -9035770000.0 -9035780000.0 -9035810000.0 -9035840000.0 -9035870000.0 -9035910000.0 -9035950000.0 -9036000000.0 -9036050000.0 -9036120000.0 -9036200000.0 -9036290000.0 -9036410000.0 -9036540000.0 -9036720000.0 -9036940000.0 -9037230000.0 -9037610000.0 -9038140000.0 -9038850000.0 -9039820000.0 -9041160000.0 -9043000000.0 -9045700000.0 -9049600000.0 -9055000000.0 -9063040000.0 -9074710000.0 -9092750000.0 -9109780000.0 -16877900000.0 -15266000000.0 -116171000000.0 -62054400000.0 -79591500000.0 -79513900000.0 -79760300000.0 -77918200000.0 -62162800000.0 -101499000000.0 -12044300000.0 -14558500000.0 -9116260000.0 -9094860000.0 -9077010000.0 -9064610000.0 -9056080000.0 -9050360000.0 -9046230000.0 -9043370000.0 -9041430000.0 -9040020000.0 -9038990000.0 -9038240000.0 -9037680000.0 -9037280000.0 -9036970000.0 -9036740000.0 -9036560000.0 -9036410000.0 -9036300000.0 -9036200000.0 -9036120000.0 -9036050000.0 -9036000000.0 -9035950000.0 -9035900000.0 -9035870000.0 -9035830000.0 -9035810000.0 -9035780000.0 -9035770000.0 -9035760000.0 -9035750000.0 -9035760000.0 -9035770000.0 -9035780000.0 -9035810000.0 -9035830000.0 -9035870000.0 -9035900000.0 -9035950000.0 -9036000000.0 -9036050000.0 -9036120000.0 -9036200000.0 -9036300000.0 -9036410000.0 -9036560000.0 -9036740000.0 -9036970000.0 -9037280000.0 -9037680000.0 -9038240000.0 -9038990000.0 -9040020000.0 -9041430000.0 -9043370000.0 -9046230000.0 -9050360000.0 -9056080000.0 -9064610000.0 -9077010000.0 -9094860000.0 -9116260000.0 -14558500000.0 -12044300000.0 -101499000000.0 -62162800000.0 -77918200000.0 -79760300000.0 -78580900000.0 -75283100000.0 -61010800000.0 -87239500000.0 -10318600000.0 -12821100000.0 -9120370000.0 -9096840000.0 -9078420000.0 -9065560000.0 -9056730000.0 -9050800000.0 -9046540000.0 -9043590000.0 -9041580000.0 -9040120000.0 -9039060000.0 -9038290000.0 -9037710000.0 -9037300000.0 -9036980000.0 -9036740000.0 -9036560000.0 -9036410000.0 -9036290000.0 -9036190000.0 -9036110000.0 -9036050000.0 -9035990000.0 -9035940000.0 -9035900000.0 -9035860000.0 -9035830000.0 -9035800000.0 -9035780000.0 -9035770000.0 -9035760000.0 -9035750000.0 -9035760000.0 -9035770000.0 -9035780000.0 -9035800000.0 -9035830000.0 -9035860000.0 -9035900000.0 -9035940000.0 -9035990000.0 -9036050000.0 -9036110000.0 -9036190000.0 -9036290000.0 -9036410000.0 -9036560000.0 -9036740000.0 -9036980000.0 -9037300000.0 -9037710000.0 -9038290000.0 -9039060000.0 -9040120000.0 -9041580000.0 -9043590000.0 -9046540000.0 -9050800000.0 -9056730000.0 -9065560000.0 -9078420000.0 -9096840000.0 -9120370000.0 -12821100000.0 -10318600000.0 -87239500000.0 -61010800000.0 -75283100000.0 -78580900000.0 -76257800000.0 -71873000000.0 -58802200000.0 -73882200000.0 -9536550000.0 -11569300000.0 -9122410000.0 -9097740000.0 -9079000000.0 -9065930000.0 -9056970000.0 -9050960000.0 -9046640000.0 -9043650000.0 -9041620000.0 -9040140000.0 -9039070000.0 -9038290000.0 -9037710000.0 -9037280000.0 -9036970000.0 -9036720000.0 -9036540000.0 -9036390000.0 -9036280000.0 -9036180000.0 -9036100000.0 -9036040000.0 -9035980000.0 -9035930000.0 -9035890000.0 -9035860000.0 -9035830000.0 -9035800000.0 -9035780000.0 -9035760000.0 -9035760000.0 -9035750000.0 -9035760000.0 -9035760000.0 -9035780000.0 -9035800000.0 -9035830000.0 -9035860000.0 -9035890000.0 -9035930000.0 -9035980000.0 -9036040000.0 -9036100000.0 -9036180000.0 -9036280000.0 -9036390000.0 -9036540000.0 -9036720000.0 -9036970000.0 -9037280000.0 -9037710000.0 -9038290000.0 -9039070000.0 -9040140000.0 -9041620000.0 -9043650000.0 -9046640000.0 -9050960000.0 -9056970000.0 -9065930000.0 -9079000000.0 -9097740000.0 -9122410000.0 -11569300000.0 -9536550000.0 -73882200000.0 -58802200000.0 -71873000000.0 -76257800000.0 -73046400000.0 -67918400000.0 -55760000000.0 -61769500000.0 -9246740000.0 -10698100000.0 -9122670000.0 -9097550000.0 -9078820000.0 -9065770000.0 -9056840000.0 -9050850000.0 -9046550000.0 -9043580000.0 -9041550000.0 -9040080000.0 -9039010000.0 -9038240000.0 -9037670000.0 -9037250000.0 -9036930000.0 -9036690000.0 -9036510000.0 -9036370000.0 -9036250000.0 -9036160000.0 -9036080000.0 -9036020000.0 -9035970000.0 -9035920000.0 -9035880000.0 -9035850000.0 -9035820000.0 -9035800000.0 -9035780000.0 -9035760000.0 -9035760000.0 -9035750000.0 -9035760000.0 -9035760000.0 -9035780000.0 -9035800000.0 -9035820000.0 -9035850000.0 -9035880000.0 -9035920000.0 -9035970000.0 -9036020000.0 -9036080000.0 -9036160000.0 -9036250000.0 -9036370000.0 -9036510000.0 -9036690000.0 -9036930000.0 -9037250000.0 -9037670000.0 -9038240000.0 -9039010000.0 -9040080000.0 -9041550000.0 -9043580000.0 -9046550000.0 -9050850000.0 -9056840000.0 -9065770000.0 -9078820000.0 -9097550000.0 -9122670000.0 -10698100000.0 -9246740000.0 -61769500000.0 -55760000000.0 -67918400000.0 -73046400000.0 -69174200000.0 -63644500000.0 -52111600000.0 -51103400000.0 -9159730000.0 -10110300000.0 -9121410000.0 -9096400000.0 -9077970000.0 -9065150000.0 -9056390000.0 -9050510000.0 -9046300000.0 -9043390000.0 -9041400000.0 -9039960000.0 -9038920000.0 -9038160000.0 -9037600000.0 -9037190000.0 -9036880000.0 -9036650000.0 -9036480000.0 -9036340000.0 -9036230000.0 -9036140000.0 -9036060000.0 -9036000000.0 -9035950000.0 -9035910000.0 -9035870000.0 -9035840000.0 -9035820000.0 -9035790000.0 -9035780000.0 -9035760000.0 -9035760000.0 -9035750000.0 -9035760000.0 -9035760000.0 -9035780000.0 -9035790000.0 -9035820000.0 -9035840000.0 -9035870000.0 -9035910000.0 -9035950000.0 -9036000000.0 -9036060000.0 -9036140000.0 -9036230000.0 -9036340000.0 -9036480000.0 -9036650000.0 -9036880000.0 -9037190000.0 -9037600000.0 -9038160000.0 -9038920000.0 -9039960000.0 -9041400000.0 -9043390000.0 -9046300000.0 -9050510000.0 -9056390000.0 -9065150000.0 -9077970000.0 -9096400000.0 -9121410000.0 -10110300000.0 -9159730000.0 -51103400000.0 -52111600000.0 -63644500000.0 -69174200000.0 -64847200000.0 -59239000000.0 -48076000000.0 -41964300000.0 -9137960000.0 -9725590000.0 -9118880000.0 -9094430000.0 -9076550000.0 -9064140000.0 -9055670000.0 -9049980000.0 -9045910000.0 -9043110000.0 -9041180000.0 -9039780000.0 -9038780000.0 -9038050000.0 -9037510000.0 -9037120000.0 -9036820000.0 -9036600000.0 -9036430000.0 -9036300000.0 -9036190000.0 -9036110000.0 -9036040000.0 -9035980000.0 -9035930000.0 -9035890000.0 -9035860000.0 -9035830000.0 -9035810000.0 -9035790000.0 -9035770000.0 -9035760000.0 -9035750000.0 -9035750000.0 -9035750000.0 -9035760000.0 -9035770000.0 -9035790000.0 -9035810000.0 -9035830000.0 -9035860000.0 -9035890000.0 -9035930000.0 -9035980000.0 -9036040000.0 -9036110000.0 -9036190000.0 -9036300000.0 -9036430000.0 -9036600000.0 -9036820000.0 -9037120000.0 -9037510000.0 -9038050000.0 -9038780000.0 -9039780000.0 -9041180000.0 -9043110000.0 -9045910000.0 -9049980000.0 -9055670000.0 -9064140000.0 -9076550000.0 -9094430000.0 -9118880000.0 -9725590000.0 -9137960000.0 -41964300000.0 -48076000000.0 -59239000000.0 -64847200000.0 -60251200000.0 -54842900000.0 -43852800000.0 -34333800000.0 -9132220000.0 -9481350000.0 -9115340000.0 -9091780000.0 -9074670000.0 -9062810000.0 -9054720000.0 -9049290000.0 -9045420000.0 -9042740000.0 -9040900000.0 -9039570000.0 -9038610000.0 -9037920000.0 -9037400000.0 -9037030000.0 -9036750000.0 -9036540000.0 -9036380000.0 -9036260000.0 -9036160000.0 -9036080000.0 -9036010000.0 -9035960000.0 -9035920000.0 -9035880000.0 -9035850000.0 -9035820000.0 -9035800000.0 -9035790000.0 -9035770000.0 -9035760000.0 -9035750000.0 -9035750000.0 -9035750000.0 -9035760000.0 -9035770000.0 -9035790000.0 -9035800000.0 -9035820000.0 -9035850000.0 -9035880000.0 -9035920000.0 -9035960000.0 -9036010000.0 -9036080000.0 -9036160000.0 -9036260000.0 -9036380000.0 -9036540000.0 -9036750000.0 -9037030000.0 -9037400000.0 -9037920000.0 -9038610000.0 -9039570000.0 -9040900000.0 -9042740000.0 -9045420000.0 -9049290000.0 -9054720000.0 -9062810000.0 -9074670000.0 -9091780000.0 -9115340000.0 -9481350000.0 -9132220000.0 -34333800000.0 -43852800000.0 -54842900000.0 -60251200000.0 -55548900000.0 -50554200000.0 -39614900000.0 -28119000000.0 -9128930000.0 -9330890000.0 -9110990000.0 -9088610000.0 -9072420000.0 -9061230000.0 -9053600000.0 -9048490000.0 -9044840000.0 -9042320000.0 -9040580000.0 -9039330000.0 -9038420000.0 -9037770000.0 -9037290000.0 -9036940000.0 -9036680000.0 -9036480000.0 -9036330000.0 -9036220000.0 -9036120000.0 -9036050000.0 -9035990000.0 -9035940000.0 -9035900000.0 -9035870000.0 -9035840000.0 -9035820000.0 -9035800000.0 -9035780000.0 -9035770000.0 -9035760000.0 -9035750000.0 -9035750000.0 -9035750000.0 -9035760000.0 -9035770000.0 -9035780000.0 -9035800000.0 -9035820000.0 -9035840000.0 -9035870000.0 -9035900000.0 -9035940000.0 -9035990000.0 -9036050000.0 -9036120000.0 -9036220000.0 -9036330000.0 -9036480000.0 -9036680000.0 -9036940000.0 -9037290000.0 -9037770000.0 -9038420000.0 -9039330000.0 -9040580000.0 -9042320000.0 -9044840000.0 -9048490000.0 -9053600000.0 -9061230000.0 -9072420000.0 -9088610000.0 -9110990000.0 -9330890000.0 -9128930000.0 -28119000000.0 -39614900000.0 -50554200000.0 -55548900000.0 -50877700000.0 -46437200000.0 -35503900000.0 -23177300000.0 -9125240000.0 -9240460000.0 -9106070000.0 -9085040000.0 -9069920000.0 -9059470000.0 -9052370000.0 -9047600000.0 -9044200000.0 -9041850000.0 -9040230000.0 -9039060000.0 -9038220000.0 -9037620000.0 -9037170000.0 -9036840000.0 -9036600000.0 -9036420000.0 -9036280000.0 -9036170000.0 -9036090000.0 -9036020000.0 -9035960000.0 -9035920000.0 -9035880000.0 -9035850000.0 -9035830000.0 -9035810000.0 -9035790000.0 -9035780000.0 -9035770000.0 -9035760000.0 -9035750000.0 -9035750000.0 -9035750000.0 -9035760000.0 -9035770000.0 -9035780000.0 -9035790000.0 -9035810000.0 -9035830000.0 -9035850000.0 -9035880000.0 -9035920000.0 -9035960000.0 -9036020000.0 -9036090000.0 -9036170000.0 -9036280000.0 -9036420000.0 -9036600000.0 -9036840000.0 -9037170000.0 -9037620000.0 -9038220000.0 -9039060000.0 -9040230000.0 -9041850000.0 -9044200000.0 -9047600000.0 -9052370000.0 -9059470000.0 -9069920000.0 -9085040000.0 -9106070000.0 -9240460000.0 -9125240000.0 -23177300000.0 -35503900000.0 -46437200000.0 -50877700000.0 -46348700000.0 -42531200000.0 -31628000000.0 -19338600000.0 -9120800000.0 -9186710000.0 -9100760000.0 -9081230000.0 -9067250000.0 -9057600000.0 -9051050000.0 -9046650000.0 -9043530000.0 -9041360000.0 -9039860000.0 -9038790000.0 -9038010000.0 -9037450000.0 -9037040000.0 -9036740000.0 -9036520000.0 -9036350000.0 -9036220000.0 -9036130000.0 -9036050000.0 -9035990000.0 -9035940000.0 -9035900000.0 -9035870000.0 -9035840000.0 -9035820000.0 -9035800000.0 -9035790000.0 -9035770000.0 -9035760000.0 -9035760000.0 -9035750000.0 -9035750000.0 -9035750000.0 -9035760000.0 -9035760000.0 -9035770000.0 -9035790000.0 -9035800000.0 -9035820000.0 -9035840000.0 -9035870000.0 -9035900000.0 -9035940000.0 -9035990000.0 -9036050000.0 -9036130000.0 -9036220000.0 -9036350000.0 -9036520000.0 -9036740000.0 -9037040000.0 -9037450000.0 -9038010000.0 -9038790000.0 -9039860000.0 -9041360000.0 -9043530000.0 -9046650000.0 -9051050000.0 -9057600000.0 -9067250000.0 -9081230000.0 -9100760000.0 -9186710000.0 -9120800000.0 -19338600000.0 -31628000000.0 -42531200000.0 -46348700000.0 -42046300000.0 -38858600000.0 -28063600000.0 -16423400000.0 -9115730000.0 -9154300000.0 -9095240000.0 -9077300000.0 -9064500000.0 -9055690000.0 -9049710000.0 -9045690000.0 -9042840000.0 -9040860000.0 -9039490000.0 -9038510000.0 -9037800000.0 -9037290000.0 -9036920000.0 -9036640000.0 -9036440000.0 -9036290000.0 -9036170000.0 -9036080000.0 -9036010000.0 -9035960000.0 -9035910000.0 -9035880000.0 -9035850000.0 -9035830000.0 -9035810000.0 -9035790000.0 -9035780000.0 -9035770000.0 -9035760000.0 -9035760000.0 -9035750000.0 -9035750000.0 -9035750000.0 -9035760000.0 -9035760000.0 -9035770000.0 -9035780000.0 -9035790000.0 -9035810000.0 -9035830000.0 -9035850000.0 -9035880000.0 -9035910000.0 -9035960000.0 -9036010000.0 -9036080000.0 -9036170000.0 -9036290000.0 -9036440000.0 -9036640000.0 -9036920000.0 -9037290000.0 -9037800000.0 -9038510000.0 -9039490000.0 -9040860000.0 -9042840000.0 -9045690000.0 -9049710000.0 -9055690000.0 -9064500000.0 -9077300000.0 -9095240000.0 -9154300000.0 -9115730000.0 -16423400000.0 -28063600000.0 -38858600000.0 -42046300000.0 -38030600000.0 -35431100000.0 -24856900000.0 -14257400000.0 -9110200000.0 -9133670000.0 -9089680000.0 -9073340000.0 -9061740000.0 -9053770000.0 -9048370000.0 -9044730000.0 -9042150000.0 -9040370000.0 -9039130000.0 -9038230000.0 -9037590000.0 -9037130000.0 -9036790000.0 -9036550000.0 -9036360000.0 -9036230000.0 -9036120000.0 -9036040000.0 -9035980000.0 -9035930000.0 -9035890000.0 -9035860000.0 -9035840000.0 -9035820000.0 -9035800000.0 -9035790000.0 -9035780000.0 -9035770000.0 -9035760000.0 -9035760000.0 -9035750000.0 -9035750000.0 -9035750000.0 -9035760000.0 -9035760000.0 -9035770000.0 -9035780000.0 -9035790000.0 -9035800000.0 -9035820000.0 -9035840000.0 -9035860000.0 -9035890000.0 -9035930000.0 -9035980000.0 -9036040000.0 -9036120000.0 -9036230000.0 -9036360000.0 -9036550000.0 -9036790000.0 -9037130000.0 -9037590000.0 -9038230000.0 -9039130000.0 -9040370000.0 -9042150000.0 -9044730000.0 -9048370000.0 -9053770000.0 -9061740000.0 -9073340000.0 -9089680000.0 -9133670000.0 -9110200000.0 -14257400000.0 -24856900000.0 -35431100000.0 -38030600000.0 -34339300000.0 -32253800000.0 -22029100000.0 -12681300000.0 -9104400000.0 -9119260000.0 -9084190000.0 -9069460000.0 -9059040000.0 -9051900000.0 -9047050000.0 -9043790000.0 -9041490000.0 -9039880000.0 -9038770000.0 -9037970000.0 -9037390000.0 -9036980000.0 -9036680000.0 -9036450000.0 -9036290000.0 -9036170000.0 -9036080000.0 -9036000000.0 -9035950000.0 -9035910000.0 -9035870000.0 -9035850000.0 -9035820000.0 -9035810000.0 -9035790000.0 -9035780000.0 -9035770000.0 -9035770000.0 -9035760000.0 -9035760000.0 -9035750000.0 -9035750000.0 -9035750000.0 -9035760000.0 -9035760000.0 -9035770000.0 -9035770000.0 -9035780000.0 -9035790000.0 -9035810000.0 -9035820000.0 -9035850000.0 -9035870000.0 -9035910000.0 -9035950000.0 -9036000000.0 -9036080000.0 -9036170000.0 -9036290000.0 -9036450000.0 -9036680000.0 -9036980000.0 -9037390000.0 -9037970000.0 -9038770000.0 -9039880000.0 -9041490000.0 -9043790000.0 -9047050000.0 -9051900000.0 -9059040000.0 -9069460000.0 -9084190000.0 -9119260000.0 -9104400000.0 -12681300000.0 -22029100000.0 -32253800000.0 -34339300000.0 -30991500000.0 -29328200000.0 -19580100000.0 -11556700000.0 -9098470000.0 -9108060000.0 -9078880000.0 -9065720000.0 -9056450000.0 -9050090000.0 -9045790000.0 -9042890000.0 -9040840000.0 -9039420000.0 -9038420000.0 -9037710000.0 -9037200000.0 -9036830000.0 -9036560000.0 -9036370000.0 -9036220000.0 -9036110000.0 -9036030000.0 -9035970000.0 -9035920000.0 -9035880000.0 -9035850000.0 -9035830000.0 -9035810000.0 -9035800000.0 -9035790000.0 -9035780000.0 -9035770000.0 -9035760000.0 -9035760000.0 -9035760000.0 -9035750000.0 -9035750000.0 -9035750000.0 -9035760000.0 -9035760000.0 -9035760000.0 -9035770000.0 -9035780000.0 -9035790000.0 -9035800000.0 -9035810000.0 -9035830000.0 -9035850000.0 -9035880000.0 -9035920000.0 -9035970000.0 -9036030000.0 -9036110000.0 -9036220000.0 -9036370000.0 -9036560000.0 -9036830000.0 -9037200000.0 -9037710000.0 -9038420000.0 -9039420000.0 -9040840000.0 -9042890000.0 -9045790000.0 -9050090000.0 -9056450000.0 -9065720000.0 -9078880000.0 -9108060000.0 -9098470000.0 -11556700000.0 -19580100000.0 -29328200000.0 -30991500000.0 -27990500000.0 -26653200000.0 -17494400000.0 -10768400000.0 -9092570000.0 -9098600000.0 -9073840000.0 -9062180000.0 -9053990000.0 -9048390000.0 -9044600000.0 -9042040000.0 -9040240000.0 -9038980000.0 -9038100000.0 -9037470000.0 -9037020000.0 -9036700000.0 -9036460000.0 -9036290000.0 -9036160000.0 -9036060000.0 -9035990000.0 -9035940000.0 -9035900000.0 -9035860000.0 -9035840000.0 -9035820000.0 -9035800000.0 -9035790000.0 -9035780000.0 -9035770000.0 -9035770000.0 -9035760000.0 -9035760000.0 -9035750000.0 -9035750000.0 -9035750000.0 -9035750000.0 -9035750000.0 -9035760000.0 -9035760000.0 -9035770000.0 -9035770000.0 -9035780000.0 -9035790000.0 -9035800000.0 -9035820000.0 -9035840000.0 -9035860000.0 -9035900000.0 -9035940000.0 -9035990000.0 -9036060000.0 -9036160000.0 -9036290000.0 -9036460000.0 -9036700000.0 -9037020000.0 -9037470000.0 -9038100000.0 -9038980000.0 -9040240000.0 -9042040000.0 -9044600000.0 -9048390000.0 -9053990000.0 -9062180000.0 -9073840000.0 -9098600000.0 -9092570000.0 -10768400000.0 -17494400000.0 -26653200000.0 -27990500000.0 -25327700000.0 -24225700000.0 -15745700000.0 -10224500000.0 -9086790000.0 -9090250000.0 -9069130000.0 -9058870000.0 -9051710000.0 -9046810000.0 -9043490000.0 -9041250000.0 -9039670000.0 -9038570000.0 -9037800000.0 -9037250000.0 -9036850000.0 -9036570000.0 -9036360000.0 -9036210000.0 -9036100000.0 -9036020000.0 -9035960000.0 -9035910000.0 -9035870000.0 -9035840000.0 -9035820000.0 -9035810000.0 -9035790000.0 -9035780000.0 -9035770000.0 -9035770000.0 -9035760000.0 -9035760000.0 -9035760000.0 -9035750000.0 -9035750000.0 -9035750000.0 -9035750000.0 -9035750000.0 -9035760000.0 -9035760000.0 -9035760000.0 -9035770000.0 -9035770000.0 -9035780000.0 -9035790000.0 -9035810000.0 -9035820000.0 -9035840000.0 -9035870000.0 -9035910000.0 -9035960000.0 -9036020000.0 -9036100000.0 -9036210000.0 -9036360000.0 -9036570000.0 -9036850000.0 -9037250000.0 -9037800000.0 -9038570000.0 -9039670000.0 -9041250000.0 -9043490000.0 -9046810000.0 -9051710000.0 -9058870000.0 -9069130000.0 -9090250000.0 -9086790000.0 -10224500000.0 -15745700000.0 -24225700000.0 -25327700000.0 -22985400000.0 -22040000000.0 -14300700000.0 -9853940000.0 -9081240000.0 -9082750000.0 -9064770000.0 -9055830000.0 -9049600000.0 -9045350000.0 -9042470000.0 -9040530000.0 -9039150000.0 -9038200000.0 -9037530000.0 -9037050000.0 -9036700000.0 -9036460000.0 -9036280000.0 -9036140000.0 -9036050000.0 -9035980000.0 -9035920000.0 -9035880000.0 -9035850000.0 -9035830000.0 -9035810000.0 -9035800000.0 -9035790000.0 -9035780000.0 -9035770000.0 -9035760000.0 -9035760000.0 -9035760000.0 -9035760000.0 -9035750000.0 -9035750000.0 -9035750000.0 -9035750000.0 -9035750000.0 -9035760000.0 -9035760000.0 -9035760000.0 -9035760000.0 -9035770000.0 -9035780000.0 -9035790000.0 -9035800000.0 -9035810000.0 -9035830000.0 -9035850000.0 -9035880000.0 -9035920000.0 -9035980000.0 -9036050000.0 -9036140000.0 -9036280000.0 -9036460000.0 -9036700000.0 -9037050000.0 -9037530000.0 -9038200000.0 -9039150000.0 -9040530000.0 -9042470000.0 -9045350000.0 -9049600000.0 -9055830000.0 -9064770000.0 -9082750000.0 -9081240000.0 -9853940000.0 -14300700000.0 -22040000000.0 -22985400000.0 -20940300000.0 -20088700000.0 -13123000000.0 -9603700000.0 -9075990000.0 -9076030000.0 -9060810000.0 -9053070000.0 -9047690000.0 -9044030000.0 -9041550000.0 -9039870000.0 -9038680000.0 -9037860000.0 -9037280000.0 -9036860000.0 -9036560000.0 -9036350000.0 -9036200000.0 -9036080000.0 -9036000000.0 -9035940000.0 -9035890000.0 -9035860000.0 -9035830000.0 -9035810000.0 -9035800000.0 -9035790000.0 -9035780000.0 -9035770000.0 -9035770000.0 -9035760000.0 -9035760000.0 -9035760000.0 -9035760000.0 -9035750000.0 -9035750000.0 -9035750000.0 -9035750000.0 -9035750000.0 -9035760000.0 -9035760000.0 -9035760000.0 -9035760000.0 -9035770000.0 -9035770000.0 -9035780000.0 -9035790000.0 -9035800000.0 -9035810000.0 -9035830000.0 -9035860000.0 -9035890000.0 -9035940000.0 -9036000000.0 -9036080000.0 -9036200000.0 -9036350000.0 -9036560000.0 -9036860000.0 -9037280000.0 -9037860000.0 -9038680000.0 -9039870000.0 -9041550000.0 -9044030000.0 -9047690000.0 -9053070000.0 -9060810000.0 -9076030000.0 -9075990000.0 -9603700000.0 -13123000000.0 -20088700000.0 -20940300000.0 -19165700000.0 -18361700000.0 -12175800000.0 -9435350000.0 -9071070000.0 -9070030000.0 -9057230000.0 -9050580000.0 -9045970000.0 -9042840000.0 -9040710000.0 -9039270000.0 -9038260000.0 -9037550000.0 -9037050000.0 -9036690000.0 -9036440000.0 -9036260000.0 -9036130000.0 -9036030000.0 -9035960000.0 -9035910000.0 -9035870000.0 -9035840000.0 -9035820000.0 -9035800000.0 -9035790000.0 -9035780000.0 -9035770000.0 -9035770000.0 -9035760000.0 -9035760000.0 -9035760000.0 -9035760000.0 -9035750000.0 -9035750000.0 -9035750000.0 -9035750000.0 -9035750000.0 -9035750000.0 -9035750000.0 -9035760000.0 -9035760000.0 -9035760000.0 -9035760000.0 -9035770000.0 -9035770000.0 -9035780000.0 -9035790000.0 -9035800000.0 -9035820000.0 -9035840000.0 -9035870000.0 -9035910000.0 -9035960000.0 -9036030000.0 -9036130000.0 -9036260000.0 -9036440000.0 -9036690000.0 -9037050000.0 -9037550000.0 -9038260000.0 -9039270000.0 -9040710000.0 -9042840000.0 -9045970000.0 -9050580000.0 -9057230000.0 -9070030000.0 -9071070000.0 -9435350000.0 -12175800000.0 -18361700000.0 -19165700000.0 -17633600000.0 -16846800000.0 -11423600000.0 -9321820000.0 -9066540000.0 -9064740000.0 -9054040000.0 -9048360000.0 -9044450000.0 -9041780000.0 -9039970000.0 -9038740000.0 -9037880000.0 -9037280000.0 -9036850000.0 -9036550000.0 -9036330000.0 -9036180000.0 -9036070000.0 -9035980000.0 -9035920000.0 -9035880000.0 -9035850000.0 -9035820000.0 -9035810000.0 -9035790000.0 -9035780000.0 -9035770000.0 -9035770000.0 -9035760000.0 -9035760000.0 -9035760000.0 -9035760000.0 -9035760000.0 -9035750000.0 -9035750000.0 -9035750000.0 -9035750000.0 -9035750000.0 -9035750000.0 -9035750000.0 -9035760000.0 -9035760000.0 -9035760000.0 -9035760000.0 -9035760000.0 -9035770000.0 -9035770000.0 -9035780000.0 -9035790000.0 -9035810000.0 -9035820000.0 -9035850000.0 -9035880000.0 -9035920000.0 -9035980000.0 -9036070000.0 -9036180000.0 -9036330000.0 -9036550000.0 -9036850000.0 -9037280000.0 -9037880000.0 -9038740000.0 -9039970000.0 -9041780000.0 -9044450000.0 -9048360000.0 -9054040000.0 -9064740000.0 -9066540000.0 -9321820000.0 -11423600000.0 -16846800000.0 -17633600000.0 -16316000000.0 -15529900000.0 -10833700000.0 -9244490000.0 -9062390000.0 -9060110000.0 -9051230000.0 -9046410000.0 -9043100000.0 -9040840000.0 -9039320000.0 -9038280000.0 -9037550000.0 -9037030000.0 -9036670000.0 -9036420000.0 -9036240000.0 -9036110000.0 -9036010000.0 -9035940000.0 -9035890000.0 -9035860000.0 -9035830000.0 -9035810000.0 -9035800000.0 -9035780000.0 -9035780000.0 -9035770000.0 -9035770000.0 -9035760000.0 -9035760000.0 -9035760000.0 -9035760000.0 -9035750000.0 -9035750000.0 -9035750000.0 -9035750000.0 -9035750000.0 -9035750000.0 -9035750000.0 -9035750000.0 -9035750000.0 -9035760000.0 -9035760000.0 -9035760000.0 -9035760000.0 -9035770000.0 -9035770000.0 -9035780000.0 -9035780000.0 -9035800000.0 -9035810000.0 -9035830000.0 -9035860000.0 -9035890000.0 -9035940000.0 -9036010000.0 -9036110000.0 -9036240000.0 -9036420000.0 -9036670000.0 -9037030000.0 -9037550000.0 -9038280000.0 -9039320000.0 -9040840000.0 -9043100000.0 -9046410000.0 -9051230000.0 -9060110000.0 -9062390000.0 -9244490000.0 -10833700000.0 -15529900000.0 -16316000000.0 -15186700000.0 -14395400000.0 -10376400000.0 -9190920000.0 -9058650000.0 -9056100000.0 -9048760000.0 -9044700000.0 -9041920000.0 -9040020000.0 -9038740000.0 -9037870000.0 -9037250000.0 -9036820000.0 -9036520000.0 -9036310000.0 -9036150000.0 -9036040000.0 -9035970000.0 -9035910000.0 -9035870000.0 -9035840000.0 -9035820000.0 -9035800000.0 -9035790000.0 -9035780000.0 -9035770000.0 -9035770000.0 -9035760000.0 -9035760000.0 -9035760000.0 -9035760000.0 -9035760000.0 -9035750000.0 -9035750000.0 -9035750000.0 -9035750000.0 -9035750000.0 -9035750000.0 -9035750000.0 -9035750000.0 -9035750000.0 -9035760000.0 -9035760000.0 -9035760000.0 -9035760000.0 -9035760000.0 -9035770000.0 -9035770000.0 -9035780000.0 -9035790000.0 -9035800000.0 -9035820000.0 -9035840000.0 -9035870000.0 -9035910000.0 -9035970000.0 -9036040000.0 -9036150000.0 -9036310000.0 -9036520000.0 -9036820000.0 -9037250000.0 -9037870000.0 -9038740000.0 -9040020000.0 -9041920000.0 -9044700000.0 -9048760000.0 -9056100000.0 -9058650000.0 -9190920000.0 -10376400000.0 -14395400000.0 -15186700000.0 -14221000000.0 -13426900000.0 -10026200000.0 -9152960000.0 -9055300000.0 -9052640000.0 -9046620000.0 -9043230000.0 -9040900000.0 -9039320000.0 -9038250000.0 -9037510000.0 -9037000000.0 -9036640000.0 -9036390000.0 -9036210000.0 -9036080000.0 -9035990000.0 -9035930000.0 -9035880000.0 -9035850000.0 -9035820000.0 -9035800000.0 -9035790000.0 -9035780000.0 -9035770000.0 -9035770000.0 -9035760000.0 -9035760000.0 -9035760000.0 -9035760000.0 -9035760000.0 -9035750000.0 -9035750000.0 -9035750000.0 -9035750000.0 -9035750000.0 -9035750000.0 -9035750000.0 -9035750000.0 -9035750000.0 -9035750000.0 -9035750000.0 -9035760000.0 -9035760000.0 -9035760000.0 -9035760000.0 -9035760000.0 -9035770000.0 -9035770000.0 -9035780000.0 -9035790000.0 -9035800000.0 -9035820000.0 -9035850000.0 -9035880000.0 -9035930000.0 -9035990000.0 -9036080000.0 -9036210000.0 -9036390000.0 -9036640000.0 -9037000000.0 -9037510000.0 -9038250000.0 -9039320000.0 -9040900000.0 -9043230000.0 -9046620000.0 -9052640000.0 -9055300000.0 -9152960000.0 -10026200000.0 -13426900000.0 -14221000000.0 -13396900000.0 -12607400000.0 -9761040000.0 -9125350000.0 -9052320000.0 -9049700000.0 -9044780000.0 -9041950000.0 -9040020000.0 -9038710000.0 -9037820000.0 -9037210000.0 -9036780000.0 -9036490000.0 -9036280000.0 -9036130000.0 -9036020000.0 -9035950000.0 -9035890000.0 -9035850000.0 -9035830000.0 -9035810000.0 -9035790000.0 -9035780000.0 -9035770000.0 -9035770000.0 -9035760000.0 -9035760000.0 -9035760000.0 -9035760000.0 -9035760000.0 -9035750000.0 -9035750000.0 -9035750000.0 -9035750000.0 -9035750000.0 -9035750000.0 -9035750000.0 -9035750000.0 -9035750000.0 -9035750000.0 -9035750000.0 -9035750000.0 -9035750000.0 -9035760000.0 -9035760000.0 -9035760000.0 -9035760000.0 -9035760000.0 -9035770000.0 -9035770000.0 -9035780000.0 -9035790000.0 -9035810000.0 -9035830000.0 -9035850000.0 -9035890000.0 -9035950000.0 -9036020000.0 -9036130000.0 -9036280000.0 -9036490000.0 -9036780000.0 -9037210000.0 -9037820000.0 -9038710000.0 -9040020000.0 -9041950000.0 -9044780000.0 -9049700000.0 -9052320000.0 -9125350000.0 -9761040000.0 -12607400000.0 -13396900000.0 -12694800000.0 -11920000000.0 -9562470000.0 -9104770000.0 -9049710000.0 -9047200000.0 -9043210000.0 -9040870000.0 -9039270000.0 -9038190000.0 -9037450000.0 -9036950000.0 -9036600000.0 -9036350000.0 -9036180000.0 -9036060000.0 -9035970000.0 -9035910000.0 -9035870000.0 -9035830000.0 -9035810000.0 -9035800000.0 -9035780000.0 -9035780000.0 -9035770000.0 -9035760000.0 -9035760000.0 -9035760000.0 -9035760000.0 -9035760000.0 -9035750000.0 -9035750000.0 -9035750000.0 -9035750000.0 -9035750000.0 -9035750000.0 -9035750000.0 -9035750000.0 -9035750000.0 -9035750000.0 -9035750000.0 -9035750000.0 -9035750000.0 -9035750000.0 -9035750000.0 -9035760000.0 -9035760000.0 -9035760000.0 -9035760000.0 -9035760000.0 -9035770000.0 -9035780000.0 -9035780000.0 -9035800000.0 -9035810000.0 -9035830000.0 -9035870000.0 -9035910000.0 -9035970000.0 -9036060000.0 -9036180000.0 -9036350000.0 -9036600000.0 -9036950000.0 -9037450000.0 -9038190000.0 -9039270000.0 -9040870000.0 -9043210000.0 -9047200000.0 -9049710000.0 -9104770000.0 -9562470000.0 -11920000000.0 -12694800000.0 -12097700000.0 -11348300000.0 -9415380000.0 -9089100000.0 -9047430000.0 -9045110000.0 -9041870000.0 -9039950000.0 -9038640000.0 -9037750000.0 -9037140000.0 -9036730000.0 -9036440000.0 -9036240000.0 -9036100000.0 -9036000000.0 -9035930000.0 -9035880000.0 -9035840000.0 -9035820000.0 -9035800000.0 -9035790000.0 -9035780000.0 -9035770000.0 -9035770000.0 -9035760000.0 -9035760000.0 -9035760000.0 -9035760000.0 -9035760000.0 -9035750000.0 -9035750000.0 -9035750000.0 -9035750000.0 -9035750000.0 -9035750000.0 -9035750000.0 -9035750000.0 -9035750000.0 -9035750000.0 -9035750000.0 -9035750000.0 -9035750000.0 -9035750000.0 -9035750000.0 -9035760000.0 -9035760000.0 -9035760000.0 -9035760000.0 -9035760000.0 -9035770000.0 -9035770000.0 -9035780000.0 -9035790000.0 -9035800000.0 -9035820000.0 -9035840000.0 -9035880000.0 -9035930000.0 -9036000000.0 -9036100000.0 -9036240000.0 -9036440000.0 -9036730000.0 -9037140000.0 -9037750000.0 -9038640000.0 -9039950000.0 -9041870000.0 -9045110000.0 -9047430000.0 -9089100000.0 -9415380000.0 -11348300000.0 -12097700000.0 -11590700000.0 -10876800000.0 -9307530000.0 -9077000000.0 -9045460000.0 -9043350000.0 -9040750000.0 -9039170000.0 -9038100000.0 -9037380000.0 -9036880000.0 -9036550000.0 -9036310000.0 -9036150000.0 -9036030000.0 -9035950000.0 -9035890000.0 -9035850000.0 -9035820000.0 -9035800000.0 -9035790000.0 -9035780000.0 -9035770000.0 -9035770000.0 -9035760000.0 -9035760000.0 -9035760000.0 -9035760000.0 -9035760000.0 -9035750000.0 -9035750000.0 -9035750000.0 -9035750000.0 -9035750000.0 -9035750000.0 -9035750000.0 -9035750000.0 -9035750000.0 -9035750000.0 -9035750000.0 -9035750000.0 -9035750000.0 -9035750000.0 -9035750000.0 -9035750000.0 -9035750000.0 -9035760000.0 -9035760000.0 -9035760000.0 -9035760000.0 -9035760000.0 -9035770000.0 -9035770000.0 -9035780000.0 -9035790000.0 -9035800000.0 -9035820000.0 -9035850000.0 -9035890000.0 -9035950000.0 -9036030000.0 -9036150000.0 -9036310000.0 -9036550000.0 -9036880000.0 -9037380000.0 -9038100000.0 -9039170000.0 -9040750000.0 -9043350000.0 -9045460000.0 -9077000000.0 -9307530000.0 -10876800000.0 -11590700000.0 -11160900000.0 -10491200000.0 -9229230000.0 -9067560000.0 -9043770000.0 -9041900000.0 -9039810000.0 -9038530000.0 -9037660000.0 -9037070000.0 -9036670000.0 -9036390000.0 -9036200000.0 -9036070000.0 -9035970000.0 -9035910000.0 -9035860000.0 -9035830000.0 -9035810000.0 -9035790000.0 -9035780000.0 -9035770000.0 -9035770000.0 -9035760000.0 -9035760000.0 -9035760000.0 -9035760000.0 -9035760000.0 -9035750000.0 -9035750000.0 -9035750000.0 -9035750000.0 -9035750000.0 -9035750000.0 -9035750000.0 -9035750000.0 -9035750000.0 -9035750000.0 -9035750000.0 -9035750000.0 -9035750000.0 -9035750000.0 -9035750000.0 -9035750000.0 -9035750000.0 -9035750000.0 -9035750000.0 -9035760000.0 -9035760000.0 -9035760000.0 -9035760000.0 -9035760000.0 -9035770000.0 -9035770000.0 -9035780000.0 -9035790000.0 -9035810000.0 -9035830000.0 -9035860000.0 -9035910000.0 -9035970000.0 -9036070000.0 -9036200000.0 -9036390000.0 -9036670000.0 -9037070000.0 -9037660000.0 -9038530000.0 -9039810000.0 -9041900000.0 -9043770000.0 -9067560000.0 -9229230000.0 -10491200000.0 -11160900000.0 -10797400000.0 -10178300000.0 -9172880000.0 -9060190000.0 -9042340000.0 -9040700000.0 -9039030000.0 -9037990000.0 -9037290000.0 -9036810000.0 -9036490000.0 -9036260000.0 -9036110000.0 -9036000000.0 -9035930000.0 -9035880000.0 -9035840000.0 -9035810000.0 -9035800000.0 -9035780000.0 -9035770000.0 -9035770000.0 -9035760000.0 -9035760000.0 -9035760000.0 -9035760000.0 -9035760000.0 -9035750000.0 -9035750000.0 -9035750000.0 -9035750000.0 -9035750000.0 -9035750000.0 -9035750000.0 -9035750000.0 -9035750000.0 -9035750000.0 -9035750000.0 -9035750000.0 -9035750000.0 -9035750000.0 -9035750000.0 -9035750000.0 -9035750000.0 -9035750000.0 -9035750000.0 -9035750000.0 -9035750000.0 -9035760000.0 -9035760000.0 -9035760000.0 -9035760000.0 -9035760000.0 -9035770000.0 -9035770000.0 -9035780000.0 -9035800000.0 -9035810000.0 -9035840000.0 -9035880000.0 -9035930000.0 -9036000000.0 -9036110000.0 -9036260000.0 -9036490000.0 -9036810000.0 -9037290000.0 -9037990000.0 -9039030000.0 -9040700000.0 -9042340000.0 -9060190000.0 -9172880000.0 -10178300000.0 -10797400000.0 -10490800000.0 -9926350000.0 -9132650000.0 -9054420000.0 -9041120000.0 -9039710000.0 -9038380000.0 -9037550000.0 -9036980000.0 -9036600000.0 -9036340000.0 -9036160000.0 -9036040000.0 -9035950000.0 -9035890000.0 -9035850000.0 -9035820000.0 -9035800000.0 -9035790000.0 -9035780000.0 -9035770000.0 -9035760000.0 -9035760000.0 -9035760000.0 -9035760000.0 -9035760000.0 -9035750000.0 -9035750000.0 -9035750000.0 -9035750000.0 -9035750000.0 -9035750000.0 -9035750000.0 -9035750000.0 -9035750000.0 -9035750000.0 -9035750000.0 -9035750000.0 -9035750000.0 -9035750000.0 -9035750000.0 -9035750000.0 -9035750000.0 -9035750000.0 -9035750000.0 -9035750000.0 -9035750000.0 -9035750000.0 -9035750000.0 -9035760000.0 -9035760000.0 -9035760000.0 -9035760000.0 -9035760000.0 -9035770000.0 -9035780000.0 -9035790000.0 -9035800000.0 -9035820000.0 -9035850000.0 -9035890000.0 -9035950000.0 -9036040000.0 -9036160000.0 -9036340000.0 -9036600000.0 -9036980000.0 -9037550000.0 -9038380000.0 -9039710000.0 -9041120000.0 -9054420000.0 -9132650000.0 -9926350000.0 -10490800000.0 -10232700000.0 -9725130000.0 -9104130000.0 -9049930000.0 -9040100000.0 -9038910000.0 -9037860000.0 -9037180000.0 -9036730000.0 -9036420000.0 -9036220000.0 -9036070000.0 -9035980000.0 -9035910000.0 -9035860000.0 -9035830000.0 -9035810000.0 -9035790000.0 -9035780000.0 -9035770000.0 -9035770000.0 -9035760000.0 -9035760000.0 -9035760000.0 -9035760000.0 -9035750000.0 -9035750000.0 -9035750000.0 -9035750000.0 -9035750000.0 -9035750000.0 -9035750000.0 -9035750000.0 -9035750000.0 -9035750000.0 -9035750000.0 -9035750000.0 -9035750000.0 -9035750000.0 -9035750000.0 -9035750000.0 -9035750000.0 -9035750000.0 -9035750000.0 -9035750000.0 -9035750000.0 -9035750000.0 -9035750000.0 -9035750000.0 -9035750000.0 -9035760000.0 -9035760000.0 -9035760000.0 -9035760000.0 -9035770000.0 -9035770000.0 -9035780000.0 -9035790000.0 -9035810000.0 -9035830000.0 -9035860000.0 -9035910000.0 -9035980000.0 -9036070000.0 -9036220000.0 -9036420000.0 -9036730000.0 -9037180000.0 -9037860000.0 -9038910000.0 -9040100000.0 -9049930000.0 -9104130000.0 -9725130000.0 -10232700000.0 -10016300000.0 -9565650000.0 -9084030000.0 -9046460000.0 -9039260000.0 -9038260000.0 -9037420000.0 -9036890000.0 -9036530000.0 -9036280000.0 -9036120000.0 -9036010000.0 -9035930000.0 -9035870000.0 -9035840000.0 -9035810000.0 -9035790000.0 -9035780000.0 -9035770000.0 -9035770000.0 -9035760000.0 -9035760000.0 -9035760000.0 -9035760000.0 -9035760000.0 -9035750000.0 -9035750000.0 -9035750000.0 -9035750000.0 -9035750000.0 -9035750000.0 -9035750000.0 -9035750000.0 -9035750000.0 -9035750000.0 -9035750000.0 -9035750000.0 -9035750000.0 -9035750000.0 -9035750000.0 -9035750000.0 -9035750000.0 -9035750000.0 -9035750000.0 -9035750000.0 -9035750000.0 -9035750000.0 -9035750000.0 -9035750000.0 -9035750000.0 -9035760000.0 -9035760000.0 -9035760000.0 -9035760000.0 -9035760000.0 -9035770000.0 -9035770000.0 -9035780000.0 -9035790000.0 -9035810000.0 -9035840000.0 -9035870000.0 -9035930000.0 -9036010000.0 -9036120000.0 -9036280000.0 -9036530000.0 -9036890000.0 -9037420000.0 -9038260000.0 -9039260000.0 -9046460000.0 -9084030000.0 -9565650000.0 -10016300000.0 -9835480000.0 -9440200000.0 -9069900000.0 -9043790000.0 -9038560000.0 -9037730000.0 -9037070000.0 -9036650000.0 -9036360000.0 -9036170000.0 -9036040000.0 -9035950000.0 -9035890000.0 -9035850000.0 -9035820000.0 -9035800000.0 -9035780000.0 -9035770000.0 -9035770000.0 -9035760000.0 -9035760000.0 -9035760000.0 -9035760000.0 -9035760000.0 -9035750000.0 -9035750000.0 -9035750000.0 -9035750000.0 -9035750000.0 -9035750000.0 -9035750000.0 -9035750000.0 -9035750000.0 -9035750000.0 -9035750000.0 -9035750000.0 -9035750000.0 -9035750000.0 -9035750000.0 -9035750000.0 -9035750000.0 -9035750000.0 -9035750000.0 -9035750000.0 -9035750000.0 -9035750000.0 -9035750000.0 -9035750000.0 -9035750000.0 -9035750000.0 -9035750000.0 -9035760000.0 -9035760000.0 -9035760000.0 -9035760000.0 -9035760000.0 -9035770000.0 -9035770000.0 -9035780000.0 -9035800000.0 -9035820000.0 -9035850000.0 -9035890000.0 -9035950000.0 -9036040000.0 -9036170000.0 -9036360000.0 -9036650000.0 -9037070000.0 -9037730000.0 -9038560000.0 -9043790000.0 -9069900000.0 -9440200000.0 -9835480000.0 -9684850000.0 -9342260000.0 -9059990000.0 -9041750000.0 -9037980000.0 -9037300000.0 -9036790000.0 -9036450000.0 -9036230000.0 -9036080000.0 -9035980000.0 -9035910000.0 -9035860000.0 -9035820000.0 -9035800000.0 -9035790000.0 -9035780000.0 -9035770000.0 -9035760000.0 -9035760000.0 -9035760000.0 -9035760000.0 -9035760000.0 -9035750000.0 -9035750000.0 -9035750000.0 -9035750000.0 -9035750000.0 -9035750000.0 -9035750000.0 -9035750000.0 -9035750000.0 -9035750000.0 -9035750000.0 -9035750000.0 -9035750000.0 -9035750000.0 -9035750000.0 -9035750000.0 -9035750000.0 -9035750000.0 -9035750000.0 -9035750000.0 -9035750000.0 -9035750000.0 -9035750000.0 -9035750000.0 -9035750000.0 -9035750000.0 -9035750000.0 -9035750000.0 -9035750000.0 -9035760000.0 -9035760000.0 -9035760000.0 -9035760000.0 -9035760000.0 -9035770000.0 -9035780000.0 -9035790000.0 -9035800000.0 -9035820000.0 -9035860000.0 -9035910000.0 -9035980000.0 -9036080000.0 -9036230000.0 -9036450000.0 -9036790000.0 -9037300000.0 -9037980000.0 -9041750000.0 -9059990000.0 -9342260000.0 -9684850000.0 -9559860000.0 -9266380000.0 -9053040000.0 -9040200000.0 -9037510000.0 -9036960000.0 -9036560000.0 -9036300000.0 -9036120000.0 -9036000000.0 -9035920000.0 -9035870000.0 -9035830000.0 -9035810000.0 -9035790000.0 -9035780000.0 -9035770000.0 -9035760000.0 -9035760000.0 -9035760000.0 -9035760000.0 -9035760000.0 -9035750000.0 -9035750000.0 -9035750000.0 -9035750000.0 -9035750000.0 -9035750000.0 -9035750000.0 -9035750000.0 -9035750000.0 -9035750000.0 -9035750000.0 -9035750000.0 -9035750000.0 -9035750000.0 -9035750000.0 -9035750000.0 -9035750000.0 -9035750000.0 -9035750000.0 -9035750000.0 -9035750000.0 -9035750000.0 -9035750000.0 -9035750000.0 -9035750000.0 -9035750000.0 -9035750000.0 -9035750000.0 -9035750000.0 -9035750000.0 -9035750000.0 -9035760000.0 -9035760000.0 -9035760000.0 -9035760000.0 -9035760000.0 -9035770000.0 -9035780000.0 -9035790000.0 -9035810000.0 -9035830000.0 -9035870000.0 -9035920000.0 -9036000000.0 -9036120000.0 -9036300000.0 -9036560000.0 -9036960000.0 -9037510000.0 -9040200000.0 -9053040000.0 -9266380000.0 -9559860000.0 -9456500000.0 -9208010000.0 -9048160000.0 -9039040000.0 -9037130000.0 -9036690000.0 -9036380000.0 -9036180000.0 -9036040000.0 -9035950000.0 -9035880000.0 -9035840000.0 -9035810000.0 -9035790000.0 -9035780000.0 -9035770000.0 -9035770000.0 -9035760000.0 -9035760000.0 -9035760000.0 -9035760000.0 -9035750000.0 -9035750000.0 -9035750000.0 -9035750000.0 -9035750000.0 -9035750000.0 -9035750000.0 -9035750000.0 -9035750000.0 -9035750000.0 -9035750000.0 -9035750000.0 -9035750000.0 -9035750000.0 -9035750000.0 -9035750000.0 -9035750000.0 -9035750000.0 -9035750000.0 -9035750000.0 -9035750000.0 -9035750000.0 -9035750000.0 -9035750000.0 -9035750000.0 -9035750000.0 -9035750000.0 -9035750000.0 -9035750000.0 -9035750000.0 -9035750000.0 -9035750000.0 -9035750000.0 -9035760000.0 -9035760000.0 -9035760000.0 -9035760000.0 -9035770000.0 -9035770000.0 -9035780000.0 -9035790000.0 -9035810000.0 -9035840000.0 -9035880000.0 -9035950000.0 -9036040000.0 -9036180000.0 -9036380000.0 -9036690000.0 -9037130000.0 -9039040000.0 -9048160000.0 -9208010000.0 -9456500000.0 -9371270000.0 -9163430000.0 -9044700000.0 -9038170000.0 -9036830000.0 -9036480000.0 -9036240000.0 -9036080000.0 -9035970000.0 -9035900000.0 -9035850000.0 -9035820000.0 -9035800000.0 -9035780000.0 -9035770000.0 -9035770000.0 -9035760000.0 -9035760000.0 -9035760000.0 -9035760000.0 -9035750000.0 -9035750000.0 -9035750000.0 -9035750000.0 -9035750000.0 -9035750000.0 -9035750000.0 -9035750000.0 -9035750000.0 -9035750000.0 -9035750000.0 -9035750000.0 -9035750000.0 -9035750000.0 -9035750000.0 -9035750000.0 -9035750000.0 -9035750000.0 -9035750000.0 -9035750000.0 -9035750000.0 -9035750000.0 -9035750000.0 -9035750000.0 -9035750000.0 -9035750000.0 -9035750000.0 -9035750000.0 -9035750000.0 -9035750000.0 -9035750000.0 -9035750000.0 -9035750000.0 -9035750000.0 -9035750000.0 -9035760000.0 -9035760000.0 -9035760000.0 -9035760000.0 -9035770000.0 -9035770000.0 -9035780000.0 -9035800000.0 -9035820000.0 -9035850000.0 -9035900000.0 -9035970000.0 -9036080000.0 -9036240000.0 -9036480000.0 -9036830000.0 -9038170000.0 -9044700000.0 -9163430000.0 -9371270000.0 -9301140000.0 -9129600000.0 -9042230000.0 -9037520000.0 -9036580000.0 -9036310000.0 -9036120000.0 -9036000000.0 -9035920000.0 -9035870000.0 -9035830000.0 -9035800000.0 -9035790000.0 -9035780000.0 -9035770000.0 -9035760000.0 -9035760000.0 -9035760000.0 -9035760000.0 -9035760000.0 -9035750000.0 -9035750000.0 -9035750000.0 -9035750000.0 -9035750000.0 -9035750000.0 -9035750000.0 -9035750000.0 -9035750000.0 -9035750000.0 -9035750000.0 -9035750000.0 -9035750000.0 -9035750000.0 -9035750000.0 -9035750000.0 -9035750000.0 -9035750000.0 -9035750000.0 -9035750000.0 -9035750000.0 -9035750000.0 -9035750000.0 -9035750000.0 -9035750000.0 -9035750000.0 -9035750000.0 -9035750000.0 -9035750000.0 -9035750000.0 -9035750000.0 -9035750000.0 -9035750000.0 -9035750000.0 -9035750000.0 -9035760000.0 -9035760000.0 -9035760000.0 -9035760000.0 -9035760000.0 -9035770000.0 -9035780000.0 -9035790000.0 -9035800000.0 -9035830000.0 -9035870000.0 -9035920000.0 -9036000000.0 -9036120000.0 -9036310000.0 -9036580000.0 -9037520000.0 -9042230000.0 -9129600000.0 -9301140000.0 -9243460000.0 -9104070000.0 -9040460000.0 -9037030000.0 -9036390000.0 -9036170000.0 -9036030000.0 -9035940000.0 -9035880000.0 -9035840000.0 -9035810000.0 -9035790000.0 -9035780000.0 -9035770000.0 -9035760000.0 -9035760000.0 -9035760000.0 -9035760000.0 -9035760000.0 -9035750000.0 -9035750000.0 -9035750000.0 -9035750000.0 -9035750000.0 -9035750000.0 -9035750000.0 -9035750000.0 -9035750000.0 -9035750000.0 -9035750000.0 -9035750000.0 -9035750000.0 -9035750000.0 -9035750000.0 -9035750000.0 -9035750000.0 -9035750000.0 -9035750000.0 -9035750000.0 -9035750000.0 -9035750000.0 -9035750000.0 -9035750000.0 -9035750000.0 -9035750000.0 -9035750000.0 -9035750000.0 -9035750000.0 -9035750000.0 -9035750000.0 -9035750000.0 -9035750000.0 -9035750000.0 -9035750000.0 -9035750000.0 -9035750000.0 -9035760000.0 -9035760000.0 -9035760000.0 -9035760000.0 -9035760000.0 -9035770000.0 -9035780000.0 -9035790000.0 -9035810000.0 -9035840000.0 -9035880000.0 -9035940000.0 -9036030000.0 -9036170000.0 -9036390000.0 -9037030000.0 -9040460000.0 -9104070000.0 -9243460000.0 -9195910000.0 -9084870000.0 -9039160000.0 -9036670000.0 -9036230000.0 -9036070000.0 -9035960000.0 -9035890000.0 -9035850000.0 -9035820000.0 -9035790000.0 -9035780000.0 -9035770000.0 -9035770000.0 -9035760000.0 -9035760000.0 -9035760000.0 -9035760000.0 -9035750000.0 -9035750000.0 -9035750000.0 -9035750000.0 -9035750000.0 -9035750000.0 -9035750000.0 -9035750000.0 -9035750000.0 -9035750000.0 -9035750000.0 -9035750000.0 -9035750000.0 -9035750000.0 -9035750000.0 -9035750000.0 -9035750000.0 -9035750000.0 -9035750000.0 -9035750000.0 -9035750000.0 -9035750000.0 -9035750000.0 -9035750000.0 -9035750000.0 -9035750000.0 -9035750000.0 -9035750000.0 -9035750000.0 -9035750000.0 -9035750000.0 -9035750000.0 -9035750000.0 -9035750000.0 -9035750000.0 -9035750000.0 -9035750000.0 -9035750000.0 -9035750000.0 -9035760000.0 -9035760000.0 -9035760000.0 -9035760000.0 -9035770000.0 -9035770000.0 -9035780000.0 -9035790000.0 -9035820000.0 -9035850000.0 -9035890000.0 -9035960000.0 -9036070000.0 -9036230000.0 -9036670000.0 -9039160000.0 -9084870000.0 -9195910000.0 -9156440000.0 -9070440000.0 -9038190000.0 -9036400000.0 -9036110000.0 -9035980000.0 -9035910000.0 -9035860000.0 -9035820000.0 -9035800000.0 -9035780000.0 -9035770000.0 -9035770000.0 -9035760000.0 -9035760000.0 -9035760000.0 -9035760000.0 -9035750000.0 -9035750000.0 -9035750000.0 -9035750000.0 -9035750000.0 -9035750000.0 -9035750000.0 -9035750000.0 -9035750000.0 -9035750000.0 -9035750000.0 -9035750000.0 -9035750000.0 -9035750000.0 -9035750000.0 -9035750000.0 -9035750000.0 -9035750000.0 -9035750000.0 -9035750000.0 -9035750000.0 -9035750000.0 -9035750000.0 -9035750000.0 -9035750000.0 -9035750000.0 -9035750000.0 -9035750000.0 -9035750000.0 -9035750000.0 -9035750000.0 -9035750000.0 -9035750000.0 -9035750000.0 -9035750000.0 -9035750000.0 -9035750000.0 -9035750000.0 -9035750000.0 -9035750000.0 -9035750000.0 -9035760000.0 -9035760000.0 -9035760000.0 -9035760000.0 -9035770000.0 -9035770000.0 -9035780000.0 -9035800000.0 -9035820000.0 -9035860000.0 -9035910000.0 -9035980000.0 -9036110000.0 -9036400000.0 -9038190000.0 -9070440000.0 -9156440000.0 -9123270000.0 -9059500000.0 -9037450000.0 -9036200000.0 -9036000000.0 -9035920000.0 -9035860000.0 -9035830000.0 -9035800000.0 -9035780000.0 -9035770000.0 -9035770000.0 -9035760000.0 -9035760000.0 -9035760000.0 -9035760000.0 -9035750000.0 -9035750000.0 -9035750000.0 -9035750000.0 -9035750000.0 -9035750000.0 -9035750000.0 -9035750000.0 -9035750000.0 -9035750000.0 -9035750000.0 -9035750000.0 -9035750000.0 -9035750000.0 -9035750000.0 -9035750000.0 -9035750000.0 -9035750000.0 -9035750000.0 -9035750000.0 -9035750000.0 -9035750000.0 -9035750000.0 -9035750000.0 -9035750000.0 -9035750000.0 -9035750000.0 -9035750000.0 -9035750000.0 -9035750000.0 -9035750000.0 -9035750000.0 -9035750000.0 -9035750000.0 -9035750000.0 -9035750000.0 -9035750000.0 -9035750000.0 -9035750000.0 -9035750000.0 -9035750000.0 -9035750000.0 -9035750000.0 -9035760000.0 -9035760000.0 -9035760000.0 -9035760000.0 -9035770000.0 -9035770000.0 -9035780000.0 -9035800000.0 -9035830000.0 -9035860000.0 -9035920000.0 -9036000000.0 -9036200000.0 -9037450000.0 -9059500000.0 -9123270000.0 -9094790000.0 -9051030000.0 -9036860000.0 -9036040000.0 -9035920000.0 -9035860000.0 -9035820000.0 -9035800000.0 -9035780000.0 -9035770000.0 -9035770000.0 -9035760000.0 -9035760000.0 -9035760000.0 -9035760000.0 -9035750000.0 -9035750000.0 -9035750000.0 -9035750000.0 -9035750000.0 -9035750000.0 -9035750000.0 -9035750000.0 -9035750000.0 -9035750000.0 -9035750000.0 -9035750000.0 -9035750000.0 -9035750000.0 -9035750000.0 -9035750000.0 -9035750000.0 -9035750000.0 -9035750000.0 -9035750000.0 -9035750000.0 -9035750000.0 -9035750000.0 -9035750000.0 -9035750000.0 -9035750000.0 -9035750000.0 -9035750000.0 -9035750000.0 -9035750000.0 -9035750000.0 -9035750000.0 -9035750000.0 -9035750000.0 -9035750000.0 -9035750000.0 -9035750000.0 -9035750000.0 -9035750000.0 -9035750000.0 -9035750000.0 -9035750000.0 -9035750000.0 -9035750000.0 -9035750000.0 -9035760000.0 -9035760000.0 -9035760000.0 -9035760000.0 -9035770000.0 -9035770000.0 -9035780000.0 -9035800000.0 -9035820000.0 -9035860000.0 -9035920000.0 -9036040000.0 -9036860000.0 -9051030000.0 -9094790000.0 -9069530000.0 -9044210000.0 -9036380000.0 -9035910000.0 -9035850000.0 -9035810000.0 -9035790000.0 -9035780000.0 -9035770000.0 -9035760000.0 -9035760000.0 -9035760000.0 -9035760000.0 -9035760000.0 -9035750000.0 -9035750000.0 -9035750000.0 -9035750000.0 -9035750000.0 -9035750000.0 -9035750000.0 -9035750000.0 -9035750000.0 -9035750000.0 -9035750000.0 -9035750000.0 -9035750000.0 -9035750000.0 -9035750000.0 -9035750000.0 -9035750000.0 -9035750000.0 -9035750000.0 -9035750000.0 -9035750000.0 -9035750000.0 -9035750000.0 -9035750000.0 -9035750000.0 -9035750000.0 -9035750000.0 -9035750000.0 -9035750000.0 -9035750000.0 -9035750000.0 -9035750000.0 -9035750000.0 -9035750000.0 -9035750000.0 -9035750000.0 -9035750000.0 -9035750000.0 -9035750000.0 -9035750000.0 -9035750000.0 -9035750000.0 -9035750000.0 -9035750000.0 -9035750000.0 -9035750000.0 -9035750000.0 -9035760000.0 -9035760000.0 -9035760000.0 -9035760000.0 -9035760000.0 -9035770000.0 -9035780000.0 -9035790000.0 -9035810000.0 -9035850000.0 -9035910000.0 -9036380000.0 -9044210000.0 -9069530000.0 -9046150000.0 -9038320000.0 -9035940000.0 -9035800000.0 -9035780000.0 -9035770000.0 -9035770000.0 -9035760000.0 -9035760000.0 -9035760000.0 -9035760000.0 -9035750000.0 -9035750000.0 -9035750000.0 -9035750000.0 -9035750000.0 -9035750000.0 -9035750000.0 -9035750000.0 -9035750000.0 -9035750000.0 -9035750000.0 -9035750000.0 -9035750000.0 -9035750000.0 -9035750000.0 -9035750000.0 -9035750000.0 -9035750000.0 -9035750000.0 -9035750000.0 -9035750000.0 -9035750000.0 -9035750000.0 -9035750000.0 -9035750000.0 -9035750000.0 -9035750000.0 -9035750000.0 -9035750000.0 -9035750000.0 -9035750000.0 -9035750000.0 -9035750000.0 -9035750000.0 -9035750000.0 -9035750000.0 -9035750000.0 -9035750000.0 -9035750000.0 -9035750000.0 -9035750000.0 -9035750000.0 -9035750000.0 -9035750000.0 -9035750000.0 -9035750000.0 -9035750000.0 -9035750000.0 -9035750000.0 -9035750000.0 -9035750000.0 -9035750000.0 -9035750000.0 -9035760000.0 -9035760000.0 -9035760000.0 -9035760000.0 -9035770000.0 -9035770000.0 -9035780000.0 -9035800000.0 -9035940000.0 -9038320000.0 -9046150000.0 
SCALARS Shear_Stress float 1
LOOKUP_TABLE default
68495500000.0 159921000000.0 118486000000.0 338363000000.0 269533000000.0 298870000000.0 326705000000.0 339443000000.0 337216000000.0 328406000000.0 314822000000.0 299327000000.0 282311000000.0 264146000000.0 246163000000.0 229062000000.0 212739000000.0 197475000000.0 183610000000.0 170904000000.0 159001000000.0 147922000000.0 137855000000.0 128820000000.0 120658000000.0 113190000000.0 106316000000.0 100025000000.0 94350500000.0 89337200000.0 85027700000.0 81457100000.0 78653200000.0 76637000000.0 75422500000.0 75016900000.0 75422500000.0 76637000000.0 78653200000.0 81457100000.0 85027700000.0 89337200000.0 94350500000.0 100025000000.0 106316000000.0 113190000000.0 120658000000.0 128820000000.0 137855000000.0 147922000000.0 159001000000.0 170904000000.0 183610000000.0 197475000000.0 212739000000.0 229062000000.0 246163000000.0 264146000000.0 282311000000.0 299327000000.0 314822000000.0 328406000000.0 337216000000.0 339443000000.0 326705000000.0 298870000000.0 269533000000.0 338363000000.0 118486000000.0 159921000000.0 68495500000.0 102636000000.0 258733000000.0 170961000000.0 386014000000.0 313226000000.0 326249000000.0 374170000000.0 379941000000.0 372732000000.0 359493000000.0 342701000000.0 323248000000.0 302394000000.0 281806000000.0 261986000000.0 242813000000.0 224639000000.0 207965000000.0 192689000000.0 178335000000.0 164748000000.0 152170000000.0 140814000000.0 130610000000.0 121310000000.0 112698000000.0 104685000000.0 97293800000.0 90594200000.0 84665100000.0 79570300000.0 75355100000.0 72050000000.0 69675500000.0 68245300000.0 67767700000.0 68245300000.0 69675500000.0 72050000000.0 75355100000.0 79570300000.0 84665100000.0 90594200000.0 97293800000.0 104685000000.0 112698000000.0 121310000000.0 130610000000.0 140814000000.0 152170000000.0 164748000000.0 178335000000.0 192689000000.0 207965000000.0 224639000000.0 242813000000.0 261986000000.0 281806000000.0 302394000000.0 323248000000.0 342701000000.0 359493000000.0 372732000000.0 379941000000.0 374170000000.0 326249000000.0 313226000000.0 386014000000.0 170961000000.0 258733000000.0 102636000000.0 32546500000.0 70834500000.0 70834500000.0 32546500000.0 161269000000.0 292035000000.0 312585000000.0 280842000000.0 429624000000.0 366973000000.0 336258000000.0 413645000000.0 410197000000.0 398661000000.0 380495000000.0 359003000000.0 334946000000.0 309262000000.0 283036000000.0 257388000000.0 233194000000.0 210626000000.0 189632000000.0 170279000000.0 152401000000.0 136077000000.0 121339000000.0 108084000000.0 96166500000.0 85485600000.0 75982400000.0 67586300000.0 60205300000.0 53755600000.0 48186300000.0 43477700000.0 39626100000.0 36631500000.0 34493400000.0 33210800000.0 32783300000.0 33210800000.0 34493400000.0 36631500000.0 39626100000.0 43477700000.0 48186300000.0 53755600000.0 60205300000.0 67586300000.0 75982400000.0 85485600000.0 96166500000.0 108084000000.0 121339000000.0 136077000000.0 152401000000.0 170279000000.0 189632000000.0 210626000000.0 233194000000.0 257388000000.0 283036000000.0 309262000000.0 334946000000.0 359003000000.0 380495000000.0 398661000000.0 410197000000.0 413645000000.0 336258000000.0 366973000000.0 429624000000.0 280842000000.0 312585000000.0 292035000000.0 161269000000.0 31984800000.0 62201200000.0 118408000000.0 15678500000.0 406139000000.0 408613000000.0 448710000000.0 360135000000.0 484001000000.0 465455000000.0 443973000000.0 413115000000.0 378864000000.0 342900000000.0 306532000000.0 270891000000.0 237143000000.0 206004000000.0 177666000000.0 152165000000.0 129558000000.0 109423000000.0 91763800000.0 76479800000.0 63320300000.0 52014300000.0 42425400000.0 34328600000.0 27529000000.0 21889700000.0 17267400000.0 13533000000.0 10568200000.0 8270050000.0 6557200000.0 5371330000.0 4674160000.0 4444100000.0 4674160000.0 5371330000.0 6557200000.0 8270050000.0 10568200000.0 13533000000.0 17267400000.0 21889700000.0 27529000000.0 34328600000.0 42425400000.0 52014300000.0 63320300000.0 76479800000.0 91763800000.0 109423000000.0 129558000000.0 152165000000.0 177666000000.0 206004000000.0 237143000000.0 270891000000.0 306532000000.0 342900000000.0 378864000000.0 413115000000.0 443973000000.0 465455000000.0 484001000000.0 360135000000.0 448710000000.0 408613000000.0 406139000000.0 15678500000.0 118408000000.0 62201200000.0 31984800000.0 161304000.0 9310590000.0 368735000000.0 368735000000.0 9310590000.0 161303000.0 32822500000.0 153826000000.0 68086400000.0 6658240000.0 154223000000.0 267719000000.0 338124000000.0 204767000000.0 346371000000.0 332710000000.0 311263000000.0 282759000000.0 252317000000.0 221727000000.0 192993000000.0 167337000000.0 144789000000.0 124906000000.0 107496000000.0 92399500000.0 79486400000.0 68481100000.0 59243900000.0 51407700000.0 44623200000.0 38703900000.0 33629100000.0 29258400000.0 25441100000.0 22095200000.0 19155100000.0 16592300000.0 14405300000.0 12604300000.0 11199300000.0 10195100000.0 9592900000.0 9392230000.0 9592900000.0 10195100000.0 11199300000.0 12604300000.0 14405300000.0 16592300000.0 19155100000.0 22095200000.0 25441100000.0 29258400000.0 33629100000.0 38703900000.0 44623200000.0 51407700000.0 59243900000.0 68481100000.0 79486400000.0 92399500000.0 107496000000.0 124906000000.0 144789000000.0 167337000000.0 192993000000.0 221727000000.0 252317000000.0 282759000000.0 311263000000.0 332710000000.0 346371000000.0 204767000000.0 338124000000.0 267719000000.0 154223000000.0 6658240000.0 68086400000.0 153826000000.0 32822500000.0 113884000000.0 109273000000.0 210614000000.0 2037010000.0 97773400000.0 8905130000.0 8647110000.0 8397450000.0 8162300000.0 7945980000.0 7753040000.0 7588060000.0 7451980000.0 7347810000.0 7277430000.0 7240060000.0 7232550000.0 7252730000.0 7302490000.0 7378290000.0 7474300000.0 7589070000.0 7717040000.0 7850220000.0 7986810000.0 8125050000.0 8257880000.0 8380590000.0 8494260000.0 8599250000.0 8691560000.0 8766500000.0 8821600000.0 8855600000.0 8867170000.0 8855600000.0 8821600000.0 8766500000.0 8691560000.0 8599250000.0 8494260000.0 8380590000.0 8257880000.0 8125050000.0 7986810000.0 7850220000.0 7717040000.0 7589070000.0 7474300000.0 7378290000.0 7302490000.0 7252730000.0 7232550000.0 7240060000.0 7277430000.0 7347810000.0 7451980000.0 7588060000.0 7753040000.0 7945980000.0 8162300000.0 8397450000.0 8647110000.0 8905130000.0 97773400000.0 2037010000.0 210614000000.0 109273000000.0 113884000000.0 33654400000.0 52435200000.0 104457000000.0 104457000000.0 52435200000.0 33654400000.0 23378300000.0 217658000000.0 9035750000.0 73423900000.0 4286800000.0 29077100000.0 247670000000.0 158296000000.0 196915000000.0 171435000000.0 151105000000.0 133773000000.0 118387000000.0 104349000000.0 91521700000.0 80035200000.0 69948900000.0 61111900000.0 53230100000.0 46056200000.0 39500100000.0 33564200000.0 28240900000.0 23485400000.0 19235900000.0 15437600000.0 12051000000.0 9046010000.0 6394340000.0 4072180000.0 2063760000.0 357983000.0 1057200000.0 2195530000.0 3069590000.0 3688570000.0 4058070000.0 4180940000.0 4058070000.0 3688570000.0 3069590000.0 2195530000.0 1057200000.0 357983000.0 2063760000.0 4072180000.0 6394340000.0 9046010000.0 12051000000.0 15437600000.0 19235900000.0 23485400000.0 28240900000.0 33564200000.0 39500100000.0 46056200000.0 53230100000.0 61111900000.0 69948900000.0 80035200000.0 91521700000.0 104349000000.0 118387000000.0 133773000000.0 151105000000.0 171435000000.0 196915000000.0 158296000000.0 247670000000.0 29077100000.0 4286800000.0 73423900000.0 9035750000.0 217658000000.0 23378300000.0 108197000000.0 29222700000.0 49658700000.0 148003000000.0 146517000000.0 7359430000.0 47305200000.0 9035750000.0 9035750000.0 9035750000.0 9035750000.0 9035750000.0 9035750000.0 9035750000.0 9035750000.0 9035750000.0 9035750000.0 9035750000.0 9035750000.0 9035750000.0 9035750000.0 9035750000.0 9035750000.0 9035750000.0 9035750000.0 9035750000.0 9035750000.0 9035750000.0 9035750000.0 9035750000.0 9035750000.0 9035750000.0 9035750000.0 9035750000.0 9035750000.0 9035750000.0 9035750000.0 9035750000.0 9035750000.0 9035750000.0 9035750000.0 9035750000.0 9035750000.0 9035750000.0 9035750000.0 9035750000.0 9035750000.0 9035750000.0 9035750000.0 9035750000.0 9035750000.0 9035750000.0 9035750000.0 9035750000.0 9035750000.0 9035750000.0 9035750000.0 9035750000.0 9035750000.0 9035750000.0 9035750000.0 9035750000.0 9035750000.0 9035750000.0 9035750000.0 9035750000.0 47305200000.0 7359430000.0 146517000000.0 148003000000.0 49658700000.0 29222700000.0 108197000000.0 29374500000.0 29374500000.0 15143600000.0 80513600000.0 20096800000.0 77599400000.0 62906600000.0 2777180000.0 73218600000.0 41463500000.0 57788900000.0 50359000000.0 43686700000.0 37555300000.0 31876700000.0 26610700000.0 21742100000.0 17302600000.0 13336800000.0 9856700000.0 6831390000.0 4208930000.0 1941980000.0 4894460.0 1660800000.0 3054590000.0 4217160000.0 5180070000.0 5972630000.0 6620180000.0 7144610000.0 7565240000.0 7899120000.0 8160970000.0 8363250000.0 8516170000.0 8627640000.0 8703450000.0 8747450000.0 8761880000.0 8747450000.0 8703450000.0 8627640000.0 8516170000.0 8363250000.0 8160970000.0 7899120000.0 7565240000.0 7144610000.0 6620180000.0 5972630000.0 5180070000.0 4217160000.0 3054590000.0 1660800000.0 4894340.0 1941980000.0 4208930000.0 6831390000.0 9856700000.0 13336800000.0 17302600000.0 21742100000.0 26610700000.0 31876700000.0 37555300000.0 43686700000.0 50359000000.0 57788900000.0 41463500000.0 73218600000.0 2777180000.0 62906600000.0 77599400000.0 20096800000.0 80513600000.0 15143600000.0 153076000000.0 123481000000.0 57368900000.0 8924060000.0 22184100000.0 9037300000.0 9036470000.0 9036290000.0 9036250000.0 9036190000.0 9036130000.0 9036070000.0 9036020000.0 9035980000.0 9035940000.0 9035910000.0 9035890000.0 9035870000.0 9035850000.0 9035840000.0 9035830000.0 9035820000.0 9035820000.0 9035830000.0 9035840000.0 9035830000.0 9035820000.0 9035810000.0 9035800000.0 9035790000.0 9035770000.0 9035770000.0 9035760000.0 9035750000.0 9035750000.0 9035750000.0 9035760000.0 9035770000.0 9035770000.0 9035790000.0 9035800000.0 9035810000.0 9035820000.0 9035830000.0 9035840000.0 9035830000.0 9035820000.0 9035820000.0 9035830000.0 9035840000.0 9035850000.0 9035870000.0 9035890000.0 9035910000.0 9035940000.0 9035980000.0 9036020000.0 9036070000.0 9036130000.0 9036190000.0 9036250000.0 9036290000.0 9036470000.0 9037300000.0 22184100000.0 8924060000.0 57368900000.0 123481000000.0 153076000000.0 23214300000.0 84534700000.0 10830400000.0 10830400000.0 84534700000.0 23214300000.0 39328900000.0 79552600000.0 28601100000.0 163551000000.0 91148200000.0 35304100000.0 1415390000.0 9284740000.0 3332740000.0 4196380000.0 4997700000.0 5750640000.0 6415740000.0 6962600000.0 7399750000.0 7750520000.0 8033980000.0 8263360000.0 8447570000.0 8593620000.0 8707700000.0 8794640000.0 8859330000.0 8907370000.0 8943450000.0 8970570000.0 8990870000.0 9006090000.0 9017380000.0 9025310000.0 9030400000.0 9033290000.0 9034750000.0 9035390000.0 9035640000.0 9035720000.0 9035740000.0 9035750000.0 9035740000.0 9035720000.0 9035640000.0 9035390000.0 9034750000.0 9033290000.0 9030400000.0 9025310000.0 9017380000.0 9006090000.0 8990870000.0 8970570000.0 8943450000.0 8907370000.0 8859330000.0 8794640000.0 8707700000.0 8593620000.0 8447570000.0 8263360000.0 8033980000.0 7750520000.0 7399750000.0 6962600000.0 6415740000.0 5750640000.0 4997700000.0 4196380000.0 3332740000.0 9284740000.0 1415390000.0 35304100000.0 91148200000.0 163551000000.0 28601100000.0 79552600000.0 39328900000.0 168891000000.0 76633300000.0 37413200000.0 9042720000.0 12317700000.0 9048450000.0 9045180000.0 9042580000.0 9040830000.0 9039500000.0 9038560000.0 9037910000.0 9037420000.0 9037050000.0 9036780000.0 9036570000.0 9036410000.0 9036290000.0 9036200000.0 9036140000.0 9036080000.0 9036040000.0 9036010000.0 9035980000.0 9035950000.0 9035910000.0 9035890000.0 9035860000.0 9035830000.0 9035810000.0 9035790000.0 9035780000.0 9035760000.0 9035760000.0 9035750000.0 9035760000.0 9035760000.0 9035780000.0 9035790000.0 9035810000.0 9035830000.0 9035860000.0 9035890000.0 9035910000.0 9035950000.0 9035980000.0 9036010000.0 9036040000.0 9036080000.0 9036140000.0 9036200000.0 9036290000.0 9036410000.0 9036570000.0 9036780000.0 9037050000.0 9037420000.0 9037910000.0 9038560000.0 9039500000.0 9040830000.0 9042580000.0 9045180000.0 9048450000.0 12317700000.0 9042720000.0 37413200000.0 76633300000.0 168891000000.0 50625800000.0 76294700000.0 37941800000.0 37941800000.0 76294700000.0 50625800000.0 60258000000.0 76558200000.0 46424200000.0 164863000000.0 56613100000.0 32372000000.0 9060890000.0 10350800000.0 9055860000.0 9050110000.0 9046020000.0 9043250000.0 9041210000.0 9039780000.0 9038810000.0 9038080000.0 9037550000.0 9037160000.0 9036860000.0 9036650000.0 9036480000.0 9036360000.0 9036260000.0 9036190000.0 9036130000.0 9036080000.0 9036030000.0 9035980000.0 9035940000.0 9035910000.0 9035880000.0 9035850000.0 9035820000.0 9035800000.0 9035780000.0 9035770000.0 9035760000.0 9035750000.0 9035760000.0 9035770000.0 9035780000.0 9035800000.0 9035820000.0 9035850000.0 9035880000.0 9035910000.0 9035940000.0 9035980000.0 9036030000.0 9036080000.0 9036130000.0 9036190000.0 9036260000.0 9036360000.0 9036480000.0 9036650000.0 9036860000.0 9037160000.0 9037550000.0 9038080000.0 9038810000.0 9039780000.0 9041210000.0 9043250000.0 9046020000.0 9050110000.0 9055860000.0 10350800000.0 9060890000.0 32372000000.0 56613100000.0 164863000000.0 46424200000.0 76558200000.0 60258000000.0 67995500000.0 78212500000.0 52728200000.0 155980000000.0 40682600000.0 27697200000.0 9075900000.0 9449700000.0 9062100000.0 9054360000.0 9048970000.0 9045340000.0 9042680000.0 9040840000.0 9039590000.0 9038660000.0 9037990000.0 9037490000.0 9037120000.0 9036850000.0 9036640000.0 9036490000.0 9036370000.0 9036280000.0 9036200000.0 9036130000.0 9036070000.0 9036010000.0 9035970000.0 9035930000.0 9035890000.0 9035860000.0 9035830000.0 9035800000.0 9035780000.0 9035770000.0 9035760000.0 9035750000.0 9035760000.0 9035770000.0 9035780000.0 9035800000.0 9035830000.0 9035860000.0 9035890000.0 9035930000.0 9035970000.0 9036010000.0 9036070000.0 9036130000.0 9036200000.0 9036280000.0 9036370000.0 9036490000.0 9036640000.0 9036850000.0 9037120000.0 9037490000.0 9037990000.0 9038660000.0 9039590000.0 9040840000.0 9042680000.0 9045340000.0 9048970000.0 9054360000.0 9062100000.0 9449700000.0 9075900000.0 27697200000.0 40682600000.0 155980000000.0 52728200000.0 78212500000.0 67995500000.0 73759000000.0 79676100000.0 57426800000.0 144190000000.0 28855300000.0 23472100000.0 9089320000.0 9159670000.0 9067280000.0 9057920000.0 9051450000.0 9047090000.0 9043930000.0 9041730000.0 9040240000.0 9039150000.0 9038350000.0 9037770000.0 9037330000.0 9037010000.0 9036770000.0 9036590000.0 9036450000.0 9036340000.0 9036240000.0 9036160000.0 9036090000.0 9036040000.0 9035980000.0 9035940000.0 9035900000.0 9035870000.0 9035830000.0 9035810000.0 9035780000.0 9035770000.0 9035760000.0 9035750000.0 9035760000.0 9035770000.0 9035780000.0 9035810000.0 9035830000.0 9035870000.0 9035900000.0 9035940000.0 9035980000.0 9036040000.0 9036090000.0 9036160000.0 9036240000.0 9036340000.0 9036450000.0 9036590000.0 9036770000.0 9037010000.0 9037330000.0 9037770000.0 9038350000.0 9039150000.0 9040240000.0 9041730000.0 9043930000.0 9047090000.0 9051450000.0 9057920000.0 9067280000.0 9159670000.0 9089320000.0 23472100000.0 28855300000.0 144190000000.0 57426800000.0 79676100000.0 73759000000.0 77573300000.0 80189700000.0 60515900000.0 130639000000.0 20621300000.0 19844800000.0 9100760000.0 9098750000.0 9071480000.0 9060810000.0 9053460000.0 9048510000.0 9044930000.0 9042450000.0 9040770000.0 9039530000.0 9038640000.0 9037980000.0 9037490000.0 9037140000.0 9036870000.0 9036670000.0 9036510000.0 9036380000.0 9036280000.0 9036190000.0 9036110000.0 9036050000.0 9035990000.0 9035950000.0 9035910000.0 9035870000.0 9035840000.0 9035810000.0 9035780000.0 9035770000.0 9035760000.0 9035750000.0 9035760000.0 9035770000.0 9035780000.0 9035810000.0 9035840000.0 9035870000.0 9035910000.0 9035950000.0 9035990000.0 9036050000.0 9036110000.0 9036190000.0 9036280000.0 9036380000.0 9036510000.0 9036670000.0 9036870000.0 9037140000.0 9037490000.0 9037980000.0 9038640000.0 9039530000.0 9040770000.0 9042450000.0 9044930000.0 9048510000.0 9053460000.0 9060810000.0 9071480000.0 9098750000.0 9100760000.0 19844800000.0 20621300000.0 130639000000.0 60515900000.0 80189700000.0 77573300000.0 79513900000.0 79591500000.0 62054400000.0 116171000000.0 15266000000.0 16877900000.0 9109780000.0 9092750000.0 9074710000.0 9063040000.0 9055000000.0 9049600000.0 9045700000.0 9043000000.0 9041160000.0 9039820000.0 9038850000.0 9038140000.0 9037610000.0 9037230000.0 9036940000.0 9036720000.0 9036540000.0 9036410000.0 9036290000.0 9036200000.0 9036120000.0 9036050000.0 9036000000.0 9035950000.0 9035910000.0 9035870000.0 9035840000.0 9035810000.0 9035780000.0 9035770000.0 9035760000.0 9035750000.0 9035760000.0 9035770000.0 9035780000.0 9035810000.0 9035840000.0 9035870000.0 9035910000.0 9035950000.0 9036000000.0 9036050000.0 9036120000.0 9036200000.0 9036290000.0 9036410000.0 9036540000.0 9036720000.0 9036940000.0 9037230000.0 9037610000.0 9038140000.0 9038850000.0 9039820000.0 9041160000.0 9043000000.0 9045700000.0 9049600000.0 9055000000.0 9063040000.0 9074710000.0 9092750000.0 9109780000.0 16877900000.0 15266000000.0 116171000000.0 62054400000.0 79591500000.0 79513900000.0 79760300000.0 77918200000.0 62162800000.0 101499000000.0 12044300000.0 14558500000.0 9116260000.0 9094860000.0 9077010000.0 9064610000.0 9056080000.0 9050360000.0 9046230000.0 9043370000.0 9041430000.0 9040020000.0 9038990000.0 9038240000.0 9037680000.0 9037280000.0 9036970000.0 9036740000.0 9036560000.0 9036410000.0 9036300000.0 9036200000.0 9036120000.0 9036050000.0 9036000000.0 9035950000.0 9035900000.0 9035870000.0 9035830000.0 9035810000.0 9035780000.0 9035770000.0 9035760000.0 9035750000.0 9035760000.0 9035770000.0 9035780000.0 9035810000.0 9035830000.0 9035870000.0 9035900000.0 9035950000.0 9036000000.0 9036050000.0 9036120000.0 9036200000.0 9036300000.0 9036410000.0 9036560000.0 9036740000.0 9036970000.0 9037280000.0 9037680000.0 9038240000.0 9038990000.0 9040020000.0 9041430000.0 9043370000.0 9046230000.0 9050360000.0 9056080000.0 9064610000.0 9077010000.0 9094860000.0 9116260000.0 14558500000.0 12044300000.0 101499000000.0 62162800000.0 77918200000.0 79760300000.0 78580900000.0 75283100000.0 61010800000.0 87239500000.0 10318600000.0 12821100000.0 9120370000.0 9096840000.0 9078420000.0 9065560000.0 9056730000.0 9050800000.0 9046540000.0 9043590000.0 9041580000.0 9040120000.0 9039060000.0 9038290000.0 9037710000.0 9037300000.0 9036980000.0 9036740000.0 9036560000.0 9036410000.0 9036290000.0 9036190000.0 9036110000.0 9036050000.0 9035990000.0 9035940000.0 9035900000.0 9035860000.0 9035830000.0 9035800000.0 9035780000.0 9035770000.0 9035760000.0 9035750000.0 9035760000.0 9035770000.0 9035780000.0 9035800000.0 9035830000.0 9035860000.0 9035900000.0 9035940000.0 9035990000.0 9036050000.0 9036110000.0 9036190000.0 9036290000.0 9036410000.0 9036560000.0 9036740000.0 9036980000.0 9037300000.0 9037710000.0 9038290000.0 9039060000.0 9040120000.0 9041580000.0 9043590000.0 9046540000.0 9050800000.0 9056730000.0 9065560000.0 9078420000.0 9096840000.0 9120370000.0 12821100000.0 10318600000.0 87239500000.0 61010800000.0 75283100000.0 78580900000.0 76257800000.0 71873000000.0 58802200000.0 73882200000.0 9536550000.0 11569300000.0 9122410000.0 9097740000.0 9079000000.0 9065930000.0 9056970000.0 9050960000.0 9046640000.0 9043650000.0 9041620000.0 9040140000.0 9039070000.0 9038290000.0 9037710000.0 9037280000.0 9036970000.0 9036720000.0 9036540000.0 9036390000.0 9036280000.0 9036180000.0 9036100000.0 9036040000.0 9035980000.0 9035930000.0 9035890000.0 9035860000.0 9035830000.0 9035800000.0 9035780000.0 9035760000.0 9035760000.0 9035750000.0 9035760000.0 9035760000.0 9035780000.0 9035800000.0 9035830000.0 9035860000.0 9035890000.0 9035930000.0 9035980000.0 9036040000.0 9036100000.0 9036180000.0 9036280000.0 9036390000.0 9036540000.0 9036720000.0 9036970000.0 9037280000.0 9037710000.0 9038290000.0 9039070000.0 9040140000.0 9041620000.0 9043650000.0 9046640000.0 9050960000.0 9056970000.0 9065930000.0 9079000000.0 9097740000.0 9122410000.0 11569300000.0 9536550000.0 73882200000.0 58802200000.0 71873000000.0 76257800000.0 73046400000.0 67918400000.0 55760000000.0 61769500000.0 9246740000.0 10698100000.0 9122670000.0 9097550000.0 9078820000.0 9065770000.0 9056840000.0 9050850000.0 9046550000.0 9043580000.0 9041550000.0 9040080000.0 9039010000.0 9038240000.0 9037670000.0 9037250000.0 9036930000.0 9036690000.0 9036510000.0 9036370000.0 9036250000.0 9036160000.0 9036080000.0 9036020000.0 9035970000.0 9035920000.0 9035880000.0 9035850000.0 9035820000.0 9035800000.0 9035780000.0 9035760000.0 9035760000.0 9035750000.0 9035760000.0 9035760000.0 9035780000.0 9035800000.0 9035820000.0 9035850000.0 9035880000.0 9035920000.0 9035970000.0 9036020000.0 9036080000.0 9036160000.0 9036250000.0 9036370000.0 9036510000.0 9036690000.0 9036930000.0 9037250000.0 9037670000.0 9038240000.0 9039010000.0 9040080000.0 9041550000.0 9043580000.0 9046550000.0 9050850000.0 9056840000.0 9065770000.0 9078820000.0 9097550000.0 9122670000.0 10698100000.0 9246740000.0 61769500000.0 55760000000.0 67918400000.0 73046400000.0 69174200000.0 63644500000.0 52111600000.0 51103400000.0 9159730000.0 10110300000.0 9121410000.0 9096400000.0 9077970000.0 9065150000.0 9056390000.0 9050510000.0 9046300000.0 9043390000.0 9041400000.0 9039960000.0 9038920000.0 9038160000.0 9037600000.0 9037190000.0 9036880000.0 9036650000.0 9036480000.0 9036340000.0 9036230000.0 9036140000.0 9036060000.0 9036000000.0 9035950000.0 9035910000.0 9035870000.0 9035840000.0 9035820000.0 9035790000.0 9035780000.0 9035760000.0 9035760000.0 9035750000.0 9035760000.0 9035760000.0 9035780000.0 9035790000.0 9035820000.0 9035840000.0 9035870000.0 9035910000.0 9035950000.0 9036000000.0 9036060000.0 9036140000.0 9036230000.0 9036340000.0 9036480000.0 9036650000.0 9036880000.0 9037190000.0 9037600000.0 9038160000.0 9038920000.0 9039960000.0 9041400000.0 9043390000.0 9046300000.0 9050510000.0 9056390000.0 9065150000.0 9077970000.0 9096400000.0 9121410000.0 10110300000.0 9159730000.0 51103400000.0 52111600000.0 63644500000.0 69174200000.0 64847200000.0 59239000000.0 48076000000.0 41964300000.0 9137960000.0 9725590000.0 9118880000.0 9094430000.0 9076550000.0 9064140000.0 9055670000.0 9049980000.0 9045910000.0 9043110000.0 9041180000.0 9039780000.0 9038780000.0 9038050000.0 9037510000.0 9037120000.0 9036820000.0 9036600000.0 9036430000.0 9036300000.0 9036190000.0 9036110000.0 9036040000.0 9035980000.0 9035930000.0 9035890000.0 9035860000.0 9035830000.0 9035810000.0 9035790000.0 9035770000.0 9035760000.0 9035750000.0 9035750000.0 9035750000.0 9035760000.0 9035770000.0 9035790000.0 9035810000.0 9035830000.0 9035860000.0 9035890000.0 9035930000.0 9035980000.0 9036040000.0 9036110000.0 9036190000.0 9036300000.0 9036430000.0 9036600000.0 9036820000.0 9037120000.0 9037510000.0 9038050000.0 9038780000.0 9039780000.0 9041180000.0 9043110000.0 9045910000.0 9049980000.0 9055670000.0 9064140000.0 9076550000.0 9094430000.0 9118880000.0 9725590000.0 9137960000.0 41964300000.0 48076000000.0 59239000000.0 64847200000.0 60251200000.0 54842900000.0 43852800000.0 34333800000.0 9132220000.0 9481350000.0 9115340000.0 9091780000.0 9074670000.0 9062810000.0 9054720000.0 9049290000.0 9045420000.0 9042740000.0 9040900000.0 9039570000.0 9038610000.0 9037920000.0 9037400000.0 9037030000.0 9036750000.0 9036540000.0 9036380000.0 9036260000.0 9036160000.0 9036080000.0 9036010000.0 9035960000.0 9035920000.0 9035880000.0 9035850000.0 9035820000.0 9035800000.0 9035790000.0 9035770000.0 9035760000.0 9035750000.0 9035750000.0 9035750000.0 9035760000.0 9035770000.0 9035790000.0 9035800000.0 9035820000.0 9035850000.0 9035880000.0 9035920000.0 9035960000.0 9036010000.0 9036080000.0 9036160000.0 9036260000.0 9036380000.0 9036540000.0 9036750000.0 9037030000.0 9037400000.0 9037920000.0 9038610000.0 9039570000.0 9040900000.0 9042740000.0 9045420000.0 9049290000.0 9054720000.0 9062810000.0 9074670000.0 9091780000.0 9115340000.0 9481350000.0 9132220000.0 34333800000.0 43852800000.0 54842900000.0 60251200000.0 55548900000.0 50554200000.0 39614900000.0 28119000000.0 9128930000.0 9330890000.0 9110990000.0 9088610000.0 9072420000.0 9061230000.0 9053600000.0 9048490000.0 9044840000.0 9042320000.0 9040580000.0 9039330000.0 9038420000.0 9037770000.0 9037290000.0 9036940000.0 9036680000.0 9036480000.0 9036330000.0 9036220000.0 9036120000.0 9036050000.0 9035990000.0 9035940000.0 9035900000.0 9035870000.0 9035840000.0 9035820000.0 9035800000.0 9035780000.0 9035770000.0 9035760000.0 9035750000.0 9035750000.0 9035750000.0 9035760000.0 9035770000.0 9035780000.0 9035800000.0 9035820000.0 9035840000.0 9035870000.0 9035900000.0 9035940000.0 9035990000.0 9036050000.0 9036120000.0 9036220000.0 9036330000.0 9036480000.0 9036680000.0 9036940000.0 9037290000.0 9037770000.0 9038420000.0 9039330000.0 9040580000.0 9042320000.0 9044840000.0 9048490000.0 9053600000.0 9061230000.0 9072420000.0 9088610000.0 9110990000.0 9330890000.0 9128930000.0 28119000000.0 39614900000.0 50554200000.0 55548900000.0 50877700000.0 46437200000.0 35503900000.0 23177300000.0 9125240000.0 9240460000.0 9106070000.0 9085040000.0 9069920000.0 9059470000.0 9052370000.0 9047600000.0 9044200000.0 9041850000.0 9040230000.0 9039060000.0 9038220000.0 9037620000.0 9037170000.0 9036840000.0 9036600000.0 9036420000.0 9036280000.0 9036170000.0 9036090000.0 9036020000.0 9035960000.0 9035920000.0 9035880000.0 9035850000.0 9035830000.0 9035810000.0 9035790000.0 9035780000.0 9035770000.0 9035760000.0 9035750000.0 9035750000.0 9035750000.0 9035760000.0 9035770000.0 9035780000.0 9035790000.0 9035810000.0 9035830000.0 9035850000.0 9035880000.0 9035920000.0 9035960000.0 9036020000.0 9036090000.0 9036170000.0 9036280000.0 9036420000.0 9036600000.0 9036840000.0 9037170000.0 9037620000.0 9038220000.0 9039060000.0 9040230000.0 9041850000.0 9044200000.0 9047600000.0 9052370000.0 9059470000.0 9069920000.0 9085040000.0 9106070000.0 9240460000.0 9125240000.0 23177300000.0 35503900000.0 46437200000.0 50877700000.0 46348700000.0 42531200000.0 31628000000.0 19338600000.0 9120800000.0 9186710000.0 9100760000.0 9081230000.0 9067250000.0 9057600000.0 9051050000.0 9046650000.0 9043530000.0 9041360000.0 9039860000.0 9038790000.0 9038010000.0 9037450000.0 9037040000.0 9036740000.0 9036520000.0 9036350000.0 9036220000.0 9036130000.0 9036050000.0 9035990000.0 9035940000.0 9035900000.0 9035870000.0 9035840000.0 9035820000.0 9035800000.0 9035790000.0 9035770000.0 9035760000.0 9035760000.0 9035750000.0 9035750000.0 9035750000.0 9035760000.0 9035760000.0 9035770000.0 9035790000.0 9035800000.0 9035820000.0 9035840000.0 9035870000.0 9035900000.0 9035940000.0 9035990000.0 9036050000.0 9036130000.0 9036220000.0 9036350000.0 9036520000.0 9036740000.0 9037040000.0 9037450000.0 9038010000.0 9038790000.0 9039860000.0 9041360000.0 9043530000.0 9046650000.0 9051050000.0 9057600000.0 9067250000.0 9081230000.0 9100760000.0 9186710000.0 9120800000.0 19338600000.0 31628000000.0 42531200000.0 46348700000.0 42046300000.0 38858600000.0 28063600000.0 16423400000.0 9115730000.0 9154300000.0 9095240000.0 9077300000.0 9064500000.0 9055690000.0 9049710000.0 9045690000.0 9042840000.0 9040860000.0 9039490000.0 9038510000.0 9037800000.0 9037290000.0 9036920000.0 9036640000.0 9036440000.0 9036290000.0 9036170000.0 9036080000.0 9036010000.0 9035960000.0 9035910000.0 9035880000.0 9035850000.0 9035830000.0 9035810000.0 9035790000.0 9035780000.0 9035770000.0 9035760000.0 9035760000.0 9035750000.0 9035750000.0 9035750000.0 9035760000.0 9035760000.0 9035770000.0 9035780000.0 9035790000.0 9035810000.0 9035830000.0 9035850000.0 9035880000.0 9035910000.0 9035960000.0 9036010000.0 9036080000.0 9036170000.0 9036290000.0 9036440000.0 9036640000.0 9036920000.0 9037290000.0 9037800000.0 9038510000.0 9039490000.0 9040860000.0 9042840000.0 9045690000.0 9049710000.0 9055690000.0 9064500000.0 9077300000.0 9095240000.0 9154300000.0 9115730000.0 16423400000.0 28063600000.0 38858600000.0 42046300000.0 38030600000.0 35431100000.0 24856900000.0 14257400000.0 9110200000.0 9133670000.0 9089680000.0 9073340000.0 9061740000.0 9053770000.0 9048370000.0 9044730000.0 9042150000.0 9040370000.0 9039130000.0 9038230000.0 9037590000.0 9037130000.0 9036790000.0 9036550000.0 9036360000.0 9036230000.0 9036120000.0 9036040000.0 9035980000.0 9035930000.0 9035890000.0 9035860000.0 9035840000.0 9035820000.0 9035800000.0 9035790000.0 9035780000.0 9035770000.0 9035760000.0 9035760000.0 9035750000.0 9035750000.0 9035750000.0 9035760000.0 9035760000.0 9035770000.0 9035780000.0 9035790000.0 9035800000.0 9035820000.0 9035840000.0 9035860000.0 9035890000.0 9035930000.0 9035980000.0 9036040000.0 9036120000.0 9036230000.0 9036360000.0 9036550000.0 9036790000.0 9037130000.0 9037590000.0 9038230000.0 9039130000.0 9040370000.0 9042150000.0 9044730000.0 9048370000.0 9053770000.0 9061740000.0 9073340000.0 9089680000.0 9133670000.0 9110200000.0 14257400000.0 24856900000.0 35431100000.0 38030600000.0 34339300000.0 32253800000.0 22029100000.0 12681300000.0 9104400000.0 9119260000.0 9084190000.0 9069460000.0 9059040000.0 9051900000.0 9047050000.0 9043790000.0 9041490000.0 9039880000.0 9038770000.0 9037970000.0 9037390000.0 9036980000.0 9036680000.0 9036450000.0 9036290000.0 9036170000.0 9036080000.0 9036000000.0 9035950000.0 9035910000.0 9035870000.0 9035850000.0 9035820000.0 9035810000.0 9035790000.0 9035780000.0 9035770000.0 9035770000.0 9035760000.0 9035760000.0 9035750000.0 9035750000.0 9035750000.0 9035760000.0 9035760000.0 9035770000.0 9035770000.0 9035780000.0 9035790000.0 9035810000.0 9035820000.0 9035850000.0 9035870000.0 9035910000.0 9035950000.0 9036000000.0 9036080000.0 9036170000.0 9036290000.0 9036450000.0 9036680000.0 9036980000.0 9037390000.0 9037970000.0 9038770000.0 9039880000.0 9041490000.0 9043790000.0 9047050000.0 9051900000.0 9059040000.0 9069460000.0 9084190000.0 9119260000.0 9104400000.0 12681300000.0 22029100000.0 32253800000.0 34339300000.0 30991500000.0 29328200000.0 19580100000.0 11556700000.0 9098470000.0 9108060000.0 9078880000.0 9065720000.0 9056450000.0 9050090000.0 9045790000.0 9042890000.0 9040840000.0 9039420000.0 9038420000.0 9037710000.0 9037200000.0 9036830000.0 9036560000.0 9036370000.0 9036220000.0 9036110000.0 9036030000.0 9035970000.0 9035920000.0 9035880000.0 9035850000.0 9035830000.0 9035810000.0 9035800000.0 9035790000.0 9035780000.0 9035770000.0 9035760000.0 9035760000.0 9035760000.0 9035750000.0 9035750000.0 9035750000.0 9035760000.0 9035760000.0 9035760000.0 9035770000.0 9035780000.0 9035790000.0 9035800000.0 9035810000.0 9035830000.0 9035850000.0 9035880000.0 9035920000.0 9035970000.0 9036030000.0 9036110000.0 9036220000.0 9036370000.0 9036560000.0 9036830000.0 9037200000.0 9037710000.0 9038420000.0 9039420000.0 9040840000.0 9042890000.0 9045790000.0 9050090000.0 9056450000.0 9065720000.0 9078880000.0 9108060000.0 9098470000.0 11556700000.0 19580100000.0 29328200000.0 30991500000.0 27990500000.0 26653200000.0 17494400000.0 10768400000.0 9092570000.0 9098600000.0 9073840000.0 9062180000.0 9053990000.0 9048390000.0 9044600000.0 9042040000.0 9040240000.0 9038980000.0 9038100000.0 9037470000.0 9037020000.0 9036700000.0 9036460000.0 9036290000.0 9036160000.0 9036060000.0 9035990000.0 9035940000.0 9035900000.0 9035860000.0 9035840000.0 9035820000.0 9035800000.0 9035790000.0 9035780000.0 9035770000.0 9035770000.0 9035760000.0 9035760000.0 9035750000.0 9035750000.0 9035750000.0 9035750000.0 9035750000.0 9035760000.0 9035760000.0 9035770000.0 9035770000.0 9035780000.0 9035790000.0 9035800000.0 9035820000.0 9035840000.0 9035860000.0 9035900000.0 9035940000.0 9035990000.0 9036060000.0 9036160000.0 9036290000.0 9036460000.0 9036700000.0 9037020000.0 9037470000.0 9038100000.0 9038980000.0 9040240000.0 9042040000.0 9044600000.0 9048390000.0 9053990000.0 9062180000.0 9073840000.0 9098600000.0 9092570000.0 10768400000.0 17494400000.0 26653200000.0 27990500000.0 25327700000.0 24225700000.0 15745700000.0 10224500000.0 9086790000.0 9090250000.0 9069130000.0 9058870000.0 9051710000.0 9046810000.0 9043490000.0 9041250000.0 9039670000.0 9038570000.0 9037800000.0 9037250000.0 9036850000.0 9036570000.0 9036360000.0 9036210000.0 9036100000.0 9036020000.0 9035960000.0 9035910000.0 9035870000.0 9035840000.0 9035820000.0 9035810000.0 9035790000.0 9035780000.0 9035770000.0 9035770000.0 9035760000.0 9035760000.0 9035760000.0 9035750000.0 9035750000.0 9035750000.0 9035750000.0 9035750000.0 9035760000.0 9035760000.0 9035760000.0 9035770000.0 9035770000.0 9035780000.0 9035790000.0 9035810000.0 9035820000.0 9035840000.0 9035870000.0 9035910000.0 9035960000.0 9036020000.0 9036100000.0 9036210000.0 9036360000.0 9036570000.0 9036850000.0 9037250000.0 9037800000.0 9038570000.0 9039670000.0 9041250000.0 9043490000.0 9046810000.0 9051710000.0 9058870000.0 9069130000.0 9090250000.0 9086790000.0 10224500000.0 15745700000.0 24225700000.0 25327700000.0 22985400000.0 22040000000.0 14300700000.0 9853940000.0 9081240000.0 9082750000.0 9064770000.0 9055830000.0 9049600000.0 9045350000.0 9042470000.0 9040530000.0 9039150000.0 9038200000.0 9037530000.0 9037050000.0 9036700000.0 9036460000.0 9036280000.0 9036140000.0 9036050000.0 9035980000.0 9035920000.0 9035880000.0 9035850000.0 9035830000.0 9035810000.0 9035800000.0 9035790000.0 9035780000.0 9035770000.0 9035760000.0 9035760000.0 9035760000.0 9035760000.0 9035750000.0 9035750000.0 9035750000.0 9035750000.0 9035750000.0 9035760000.0 9035760000.0 9035760000.0 9035760000.0 9035770000.0 9035780000.0 9035790000.0 9035800000.0 9035810000.0 9035830000.0 9035850000.0 9035880000.0 9035920000.0 9035980000.0 9036050000.0 9036140000.0 9036280000.0 9036460000.0 9036700000.0 9037050000.0 9037530000.0 9038200000.0 9039150000.0 9040530000.0 9042470000.0 9045350000.0 9049600000.0 9055830000.0 9064770000.0 9082750000.0 9081240000.0 9853940000.0 14300700000.0 22040000000.0 22985400000.0 20940300000.0 20088700000.0 13123000000.0 9603700000.0 9075990000.0 9076030000.0 9060810000.0 9053070000.0 9047690000.0 9044030000.0 9041550000.0 9039870000.0 9038680000.0 9037860000.0 9037280000.0 9036860000.0 9036560000.0 9036350000.0 9036200000.0 9036080000.0 9036000000.0 9035940000.0 9035890000.0 9035860000.0 9035830000.0 9035810000.0 9035800000.0 9035790000.0 9035780000.0 9035770000.0 9035770000.0 9035760000.0 9035760000.0 9035760000.0 9035760000.0 9035750000.0 9035750000.0 9035750000.0 9035750000.0 9035750000.0 9035760000.0 9035760000.0 9035760000.0 9035760000.0 9035770000.0 9035770000.0 9035780000.0 9035790000.0 9035800000.0 9035810000.0 9035830000.0 9035860000.0 9035890000.0 9035940000.0 9036000000.0 9036080000.0 9036200000.0 9036350000.0 9036560000.0 9036860000.0 9037280000.0 9037860000.0 9038680000.0 9039870000.0 9041550000.0 9044030000.0 9047690000.0 9053070000.0 9060810000.0 9076030000.0 9075990000.0 9603700000.0 13123000000.0 20088700000.0 20940300000.0 19165700000.0 18361700000.0 12175800000.0 9435350000.0 9071070000.0 9070030000.0 9057230000.0 9050580000.0 9045970000.0 9042840000.0 9040710000.0 9039270000.0 9038260000.0 9037550000.0 9037050000.0 9036690000.0 9036440000.0 9036260000.0 9036130000.0 9036030000.0 9035960000.0 9035910000.0 9035870000.0 9035840000.0 9035820000.0 9035800000.0 9035790000.0 9035780000.0 9035770000.0 9035770000.0 9035760000.0 9035760000.0 9035760000.0 9035760000.0 9035750000.0 9035750000.0 9035750000.0 9035750000.0 9035750000.0 9035750000.0 9035750000.0 9035760000.0 9035760000.0 9035760000.0 9035760000.0 9035770000.0 9035770000.0 9035780000.0 9035790000.0 9035800000.0 9035820000.0 9035840000.0 9035870000.0 9035910000.0 9035960000.0 9036030000.0 9036130000.0 9036260000.0 9036440000.0 9036690000.0 9037050000.0 9037550000.0 9038260000.0 9039270000.0 9040710000.0 9042840000.0 9045970000.0 9050580000.0 9057230000.0 9070030000.0 9071070000.0 9435350000.0 12175800000.0 18361700000.0 19165700000.0 17633600000.0 16846800000.0 11423600000.0 9321820000.0 9066540000.0 9064740000.0 9054040000.0 9048360000.0 9044450000.0 9041780000.0 9039970000.0 9038740000.0 9037880000.0 9037280000.0 9036850000.0 9036550000.0 9036330000.0 9036180000.0 9036070000.0 9035980000.0 9035920000.0 9035880000.0 9035850000.0 9035820000.0 9035810000.0 9035790000.0 9035780000.0 9035770000.0 9035770000.0 9035760000.0 9035760000.0 9035760000.0 9035760000.0 9035760000.0 9035750000.0 9035750000.0 9035750000.0 9035750000.0 9035750000.0 9035750000.0 9035750000.0 9035760000.0 9035760000.0 9035760000.0 9035760000.0 9035760000.0 9035770000.0 9035770000.0 9035780000.0 9035790000.0 9035810000.0 9035820000.0 9035850000.0 9035880000.0 9035920000.0 9035980000.0 9036070000.0 9036180000.0 9036330000.0 9036550000.0 9036850000.0 9037280000.0 9037880000.0 9038740000.0 9039970000.0 9041780000.0 9044450000.0 9048360000.0 9054040000.0 9064740000.0 9066540000.0 9321820000.0 11423600000.0 16846800000.0 17633600000.0 16316000000.0 15529900000.0 10833700000.0 9244490000.0 9062390000.0 9060110000.0 9051230000.0 9046410000.0 9043100000.0 9040840000.0 9039320000.0 9038280000.0 9037550000.0 9037030000.0 9036670000.0 9036420000.0 9036240000.0 9036110000.0 9036010000.0 9035940000.0 9035890000.0 9035860000.0 9035830000.0 9035810000.0 9035800000.0 9035780000.0 9035780000.0 9035770000.0 9035770000.0 9035760000.0 9035760000.0 9035760000.0 9035760000.0 9035750000.0 9035750000.0 9035750000.0 9035750000.0 9035750000.0 9035750000.0 9035750000.0 9035750000.0 9035750000.0 9035760000.0 9035760000.0 9035760000.0 9035760000.0 9035770000.0 9035770000.0 9035780000.0 9035780000.0 9035800000.0 9035810000.0 9035830000.0 9035860000.0 9035890000.0 9035940000.0 9036010000.0 9036110000.0 9036240000.0 9036420000.0 9036670000.0 9037030000.0 9037550000.0 9038280000.0 9039320000.0 9040840000.0 9043100000.0 9046410000.0 9051230000.0 9060110000.0 9062390000.0 9244490000.0 10833700000.0 15529900000.0 16316000000.0 15186700000.0 14395400000.0 10376400000.0 9190920000.0 9058650000.0 9056100000.0 9048760000.0 9044700000.0 9041920000.0 9040020000.0 9038740000.0 9037870000.0 9037250000.0 9036820000.0 9036520000.0 9036310000.0 9036150000.0 9036040000.0 9035970000.0 9035910000.0 9035870000.0 9035840000.0 9035820000.0 9035800000.0 9035790000.0 9035780000.0 9035770000.0 9035770000.0 9035760000.0 9035760000.0 9035760000.0 9035760000.0 9035760000.0 9035750000.0 9035750000.0 9035750000.0 9035750000.0 9035750000.0 9035750000.0 9035750000.0 9035750000.0 9035750000.0 9035760000.0 9035760000.0 9035760000.0 9035760000.0 9035760000.0 9035770000.0 9035770000.0 9035780000.0 9035790000.0 9035800000.0 9035820000.0 9035840000.0 9035870000.0 9035910000.0 9035970000.0 9036040000.0 9036150000.0 9036310000.0 9036520000.0 9036820000.0 9037250000.0 9037870000.0 9038740000.0 9040020000.0 9041920000.0 9044700000.0 9048760000.0 9056100000.0 9058650000.0 9190920000.0 10376400000.0 14395400000.0 15186700000.0 14221000000.0 13426900000.0 10026200000.0 9152960000.0 9055300000.0 9052640000.0 9046620000.0 9043230000.0 9040900000.0 9039320000.0 9038250000.0 9037510000.0 9037000000.0 9036640000.0 9036390000.0 9036210000.0 9036080000.0 9035990000.0 9035930000.0 9035880000.0 9035850000.0 9035820000.0 9035800000.0 9035790000.0 9035780000.0 9035770000.0 9035770000.0 9035760000.0 9035760000.0 9035760000.0 9035760000.0 9035760000.0 9035750000.0 9035750000.0 9035750000.0 9035750000.0 9035750000.0 9035750000.0 9035750000.0 9035750000.0 9035750000.0 9035750000.0 9035750000.0 9035760000.0 9035760000.0 9035760000.0 9035760000.0 9035760000.0 9035770000.0 9035770000.0 9035780000.0 9035790000.0 9035800000.0 9035820000.0 9035850000.0 9035880000.0 9035930000.0 9035990000.0 9036080000.0 9036210000.0 9036390000.0 9036640000.0 9037000000.0 9037510000.0 9038250000.0 9039320000.0 9040900000.0 9043230000.0 9046620000.0 9052640000.0 9055300000.0 9152960000.0 10026200000.0 13426900000.0 14221000000.0 13396900000.0 12607400000.0 9761040000.0 9125350000.0 9052320000.0 9049700000.0 9044780000.0 9041950000.0 9040020000.0 9038710000.0 9037820000.0 9037210000.0 9036780000.0 9036490000.0 9036280000.0 9036130000.0 9036020000.0 9035950000.0 9035890000.0 9035850000.0 9035830000.0 9035810000.0 9035790000.0 9035780000.0 9035770000.0 9035770000.0 9035760000.0 9035760000.0 9035760000.0 9035760000.0 9035760000.0 9035750000.0 9035750000.0 9035750000.0 9035750000.0 9035750000.0 9035750000.0 9035750000.0 9035750000.0 9035750000.0 9035750000.0 9035750000.0 9035750000.0 9035750000.0 9035760000.0 9035760000.0 9035760000.0 9035760000.0 9035760000.0 9035770000.0 9035770000.0 9035780000.0 9035790000.0 9035810000.0 9035830000.0 9035850000.0 9035890000.0 9035950000.0 9036020000.0 9036130000.0 9036280000.0 9036490000.0 9036780000.0 9037210000.0 9037820000.0 9038710000.0 9040020000.0 9041950000.0 9044780000.0 9049700000.0 9052320000.0 9125350000.0 9761040000.0 12607400000.0 13396900000.0 12694800000.0 11920000000.0 9562470000.0 9104770000.0 9049710000.0 9047200000.0 9043210000.0 9040870000.0 9039270000.0 9038190000.0 9037450000.0 9036950000.0 9036600000.0 9036350000.0 9036180000.0 9036060000.0 9035970000.0 9035910000.0 9035870000.0 9035830000.0 9035810000.0 9035800000.0 9035780000.0 9035780000.0 9035770000.0 9035760000.0 9035760000.0 9035760000.0 9035760000.0 9035760000.0 9035750000.0 9035750000.0 9035750000.0 9035750000.0 9035750000.0 9035750000.0 9035750000.0 9035750000.0 9035750000.0 9035750000.0 9035750000.0 9035750000.0 9035750000.0 9035750000.0 9035750000.0 9035760000.0 9035760000.0 9035760000.0 9035760000.0 9035760000.0 9035770000.0 9035780000.0 9035780000.0 9035800000.0 9035810000.0 9035830000.0 9035870000.0 9035910000.0 9035970000.0 9036060000.0 9036180000.0 9036350000.0 9036600000.0 9036950000.0 9037450000.0 9038190000.0 9039270000.0 9040870000.0 9043210000.0 9047200000.0 9049710000.0 9104770000.0 9562470000.0 11920000000.0 12694800000.0 12097700000.0 11348300000.0 9415380000.0 9089100000.0 9047430000.0 9045110000.0 9041870000.0 9039950000.0 9038640000.0 9037750000.0 9037140000.0 9036730000.0 9036440000.0 9036240000.0 9036100000.0 9036000000.0 9035930000.0 9035880000.0 9035840000.0 9035820000.0 9035800000.0 9035790000.0 9035780000.0 9035770000.0 9035770000.0 9035760000.0 9035760000.0 9035760000.0 9035760000.0 9035760000.0 9035750000.0 9035750000.0 9035750000.0 9035750000.0 9035750000.0 9035750000.0 9035750000.0 9035750000.0 9035750000.0 9035750000.0 9035750000.0 9035750000.0 9035750000.0 9035750000.0 9035750000.0 9035760000.0 9035760000.0 9035760000.0 9035760000.0 9035760000.0 9035770000.0 9035770000.0 9035780000.0 9035790000.0 9035800000.0 9035820000.0 9035840000.0 9035880000.0 9035930000.0 9036000000.0 9036100000.0 9036240000.0 9036440000.0 9036730000.0 9037140000.0 9037750000.0 9038640000.0 9039950000.0 9041870000.0 9045110000.0 9047430000.0 9089100000.0 9415380000.0 11348300000.0 12097700000.0 11590700000.0 10876800000.0 9307530000.0 9077000000.0 9045460000.0 9043350000.0 9040750000.0 9039170000.0 9038100000.0 9037380000.0 9036880000.0 9036550000.0 9036310000.0 9036150000.0 9036030000.0 9035950000.0 9035890000.0 9035850000.0 9035820000.0 9035800000.0 9035790000.0 9035780000.0 9035770000.0 9035770000.0 9035760000.0 9035760000.0 9035760000.0 9035760000.0 9035760000.0 9035750000.0 9035750000.0 9035750000.0 9035750000.0 9035750000.0 9035750000.0 9035750000.0 9035750000.0 9035750000.0 9035750000.0 9035750000.0 9035750000.0 9035750000.0 9035750000.0 9035750000.0 9035750000.0 9035750000.0 9035760000.0 9035760000.0 9035760000.0 9035760000.0 9035760000.0 9035770000.0 9035770000.0 9035780000.0 9035790000.0 9035800000.0 9035820000.0 9035850000.0 9035890000.0 9035950000.0 9036030000.0 9036150000.0 9036310000.0 9036550000.0 9036880000.0 9037380000.0 9038100000.0 9039170000.0 9040750000.0 9043350000.0 9045460000.0 9077000000.0 9307530000.0 10876800000.0 11590700000.0 11160900000.0 10491200000.0 9229230000.0 9067560000.0 9043770000.0 9041900000.0 9039810000.0 9038530000.0 9037660000.0 9037070000.0 9036670000.0 9036390000.0 9036200000.0 9036070000.0 9035970000.0 9035910000.0 9035860000.0 9035830000.0 9035810000.0 9035790000.0 9035780000.0 9035770000.0 9035770000.0 9035760000.0 9035760000.0 9035760000.0 9035760000.0 9035760000.0 9035750000.0 9035750000.0 9035750000.0 9035750000.0 9035750000.0 9035750000.0 9035750000.0 9035750000.0 9035750000.0 9035750000.0 9035750000.0 9035750000.0 9035750000.0 9035750000.0 9035750000.0 9035750000.0 9035750000.0 9035750000.0 9035750000.0 9035760000.0 9035760000.0 9035760000.0 9035760000.0 9035760000.0 9035770000.0 9035770000.0 9035780000.0 9035790000.0 9035810000.0 9035830000.0 9035860000.0 9035910000.0 9035970000.0 9036070000.0 9036200000.0 9036390000.0 9036670000.0 9037070000.0 9037660000.0 9038530000.0 9039810000.0 9041900000.0 9043770000.0 9067560000.0 9229230000.0 10491200000.0 11160900000.0 10797400000.0 10178300000.0 9172880000.0 9060190000.0 9042340000.0 9040700000.0 9039030000.0 9037990000.0 9037290000.0 9036810000.0 9036490000.0 9036260000.0 9036110000.0 9036000000.0 9035930000.0 9035880000.0 9035840000.0 9035810000.0 9035800000.0 9035780000.0 9035770000.0 9035770000.0 9035760000.0 9035760000.0 9035760000.0 9035760000.0 9035760000.0 9035750000.0 9035750000.0 9035750000.0 9035750000.0 9035750000.0 9035750000.0 9035750000.0 9035750000.0 9035750000.0 9035750000.0 9035750000.0 9035750000.0 9035750000.0 9035750000.0 9035750000.0 9035750000.0 9035750000.0 9035750000.0 9035750000.0 9035750000.0 9035750000.0 9035760000.0 9035760000.0 9035760000.0 9035760000.0 9035760000.0 9035770000.0 9035770000.0 9035780000.0 9035800000.0 9035810000.0 9035840000.0 9035880000.0 9035930000.0 9036000000.0 9036110000.0 9036260000.0 9036490000.0 9036810000.0 9037290000.0 9037990000.0 9039030000.0 9040700000.0 9042340000.0 9060190000.0 9172880000.0 10178300000.0 10797400000.0 10490800000.0 9926350000.0 9132650000.0 9054420000.0 9041120000.0 9039710000.0 9038380000.0 9037550000.0 9036980000.0 9036600000.0 9036340000.0 9036160000.0 9036040000.0 9035950000.0 9035890000.0 9035850000.0 9035820000.0 9035800000.0 9035790000.0 9035780000.0 9035770000.0 9035760000.0 9035760000.0 9035760000.0 9035760000.0 9035760000.0 9035750000.0 9035750000.0 9035750000.0 9035750000.0 9035750000.0 9035750000.0 9035750000.0 9035750000.0 9035750000.0 9035750000.0 9035750000.0 9035750000.0 9035750000.0 9035750000.0 9035750000.0 9035750000.0 9035750000.0 9035750000.0 9035750000.0 9035750000.0 9035750000.0 9035750000.0 9035750000.0 9035760000.0 9035760000.0 9035760000.0 9035760000.0 9035760000.0 9035770000.0 9035780000.0 9035790000.0 9035800000.0 9035820000.0 9035850000.0 9035890000.0 9035950000.0 9036040000.0 9036160000.0 9036340000.0 9036600000.0 9036980000.0 9037550000.0 9038380000.0 9039710000.0 9041120000.0 9054420000.0 9132650000.0 9926350000.0 10490800000.0 10232700000.0 9725130000.0 9104130000.0 9049930000.0 9040100000.0 9038910000.0 9037860000.0 9037180000.0 9036730000.0 9036420000.0 9036220000.0 9036070000.0 9035980000.0 9035910000.0 9035860000.0 9035830000.0 9035810000.0 9035790000.0 9035780000.0 9035770000.0 9035770000.0 9035760000.0 9035760000.0 9035760000.0 9035760000.0 9035750000.0 9035750000.0 9035750000.0 9035750000.0 9035750000.0 9035750000.0 9035750000.0 9035750000.0 9035750000.0 9035750000.0 9035750000.0 9035750000.0 9035750000.0 9035750000.0 9035750000.0 9035750000.0 9035750000.0 9035750000.0 9035750000.0 9035750000.0 9035750000.0 9035750000.0 9035750000.0 9035750000.0 9035750000.0 9035760000.0 9035760000.0 9035760000.0 9035760000.0 9035770000.0 9035770000.0 9035780000.0 9035790000.0 9035810000.0 9035830000.0 9035860000.0 9035910000.0 9035980000.0 9036070000.0 9036220000.0 9036420000.0 9036730000.0 9037180000.0 9037860000.0 9038910000.0 9040100000.0 9049930000.0 9104130000.0 9725130000.0 10232700000.0 10016300000.0 9565650000.0 9084030000.0 9046460000.0 9039260000.0 9038260000.0 9037420000.0 9036890000.0 9036530000.0 9036280000.0 9036120000.0 9036010000.0 9035930000.0 9035870000.0 9035840000.0 9035810000.0 9035790000.0 9035780000.0 9035770000.0 9035770000.0 9035760000.0 9035760000.0 9035760000.0 9035760000.0 9035760000.0 9035750000.0 9035750000.0 9035750000.0 9035750000.0 9035750000.0 9035750000.0 9035750000.0 9035750000.0 9035750000.0 9035750000.0 9035750000.0 9035750000.0 9035750000.0 9035750000.0 9035750000.0 9035750000.0 9035750000.0 9035750000.0 9035750000.0 9035750000.0 9035750000.0 9035750000.0 9035750000.0 9035750000.0 9035750000.0 9035760000.0 9035760000.0 9035760000.0 9035760000.0 9035760000.0 9035770000.0 9035770000.0 9035780000.0 9035790000.0 9035810000.0 9035840000.0 9035870000.0 9035930000.0 9036010000.0 9036120000.0 9036280000.0 9036530000.0 9036890000.0 9037420000.0 9038260000.0 9039260000.0 9046460000.0 9084030000.0 9565650000.0 10016300000.0 9835480000.0 9440200000.0 9069900000.0 9043790000.0 9038560000.0 9037730000.0 9037070000.0 9036650000.0 9036360000.0 9036170000.0 9036040000.0 9035950000.0 9035890000.0 9035850000.0 9035820000.0 9035800000.0 9035780000.0 9035770000.0 9035770000.0 9035760000.0 9035760000.0 9035760000.0 9035760000.0 9035760000.0 9035750000.0 9035750000.0 9035750000.0 9035750000.0 9035750000.0 9035750000.0 9035750000.0 9035750000.0 9035750000.0 9035750000.0 9035750000.0 9035750000.0 9035750000.0 9035750000.0 9035750000.0 9035750000.0 9035750000.0 9035750000.0 9035750000.0 9035750000.0 9035750000.0 9035750000.0 9035750000.0 9035750000.0 9035750000.0 9035750000.0 9035750000.0 9035760000.0 9035760000.0 9035760000.0 9035760000.0 9035760000.0 9035770000.0 9035770000.0 9035780000.0 9035800000.0 9035820000.0 9035850000.0 9035890000.0 9035950000.0 9036040000.0 9036170000.0 9036360000.0 9036650000.0 9037070000.0 9037730000.0 9038560000.0 9043790000.0 9069900000.0 9440200000.0 9835480000.0 9684850000.0 9342260000.0 9059990000.0 9041750000.0 9037980000.0 9037300000.0 9036790000.0 9036450000.0 9036230000.0 9036080000.0 9035980000.0 9035910000.0 9035860000.0 9035820000.0 9035800000.0 9035790000.0 9035780000.0 9035770000.0 9035760000.0 9035760000.0 9035760000.0 9035760000.0 9035760000.0 9035750000.0 9035750000.0 9035750000.0 9035750000.0 9035750000.0 9035750000.0 9035750000.0 9035750000.0 9035750000.0 9035750000.0 9035750000.0 9035750000.0 9035750000.0 9035750000.0 9035750000.0 9035750000.0 9035750000.0 9035750000.0 9035750000.0 9035750000.0 9035750000.0 9035750000.0 9035750000.0 9035750000.0 9035750000.0 9035750000.0 9035750000.0 9035750000.0 9035750000.0 9035760000.0 9035760000.0 9035760000.0 9035760000.0 9035760000.0 9035770000.0 9035780000.0 9035790000.0 9035800000.0 9035820000.0 9035860000.0 9035910000.0 9035980000.0 9036080000.0 9036230000.0 9036450000.0 9036790000.0 9037300000.0 9037980000.0 9041750000.0 9059990000.0 9342260000.0 9684850000.0 9559860000.0 9266380000.0 9053040000.0 9040200000.0 9037510000.0 9036960000.0 9036560000.0 9036300000.0 9036120000.0 9036000000.0 9035920000.0 9035870000.0 9035830000.0 9035810000.0 9035790000.0 9035780000.0 9035770000.0 9035760000.0 9035760000.0 9035760000.0 9035760000.0 9035760000.0 9035750000.0 9035750000.0 9035750000.0 9035750000.0 9035750000.0 9035750000.0 9035750000.0 9035750000.0 9035750000.0 9035750000.0 9035750000.0 9035750000.0 9035750000.0 9035750000.0 9035750000.0 9035750000.0 9035750000.0 9035750000.0 9035750000.0 9035750000.0 9035750000.0 9035750000.0 9035750000.0 9035750000.0 9035750000.0 9035750000.0 9035750000.0 9035750000.0 9035750000.0 9035750000.0 9035750000.0 9035760000.0 9035760000.0 9035760000.0 9035760000.0 9035760000.0 9035770000.0 9035780000.0 9035790000.0 9035810000.0 9035830000.0 9035870000.0 9035920000.0 9036000000.0 9036120000.0 9036300000.0 9036560000.0 9036960000.0 9037510000.0 9040200000.0 9053040000.0 9266380000.0 9559860000.0 9456500000.0 9208010000.0 9048160000.0 9039040000.0 9037130000.0 9036690000.0 9036380000.0 9036180000.0 9036040000.0 9035950000.0 9035880000.0 9035840000.0 9035810000.0 9035790000.0 9035780000.0 9035770000.0 9035770000.0 9035760000.0 9035760000.0 9035760000.0 9035760000.0 9035750000.0 9035750000.0 9035750000.0 9035750000.0 9035750000.0 9035750000.0 9035750000.0 9035750000.0 9035750000.0 9035750000.0 9035750000.0 9035750000.0 9035750000.0 9035750000.0 9035750000.0 9035750000.0 9035750000.0 9035750000.0 9035750000.0 9035750000.0 9035750000.0 9035750000.0 9035750000.0 9035750000.0 9035750000.0 9035750000.0 9035750000.0 9035750000.0 9035750000.0 9035750000.0 9035750000.0 9035750000.0 9035750000.0 9035760000.0 9035760000.0 9035760000.0 9035760000.0 9035770000.0 9035770000.0 9035780000.0 9035790000.0 9035810000.0 9035840000.0 9035880000.0 9035950000.0 9036040000.0 9036180000.0 9036380000.0 9036690000.0 9037130000.0 9039040000.0 9048160000.0 9208010000.0 9456500000.0 9371270000.0 9163430000.0 9044700000.0 9038170000.0 9036830000.0 9036480000.0 9036240000.0 9036080000.0 9035970000.0 9035900000.0 9035850000.0 9035820000.0 9035800000.0 9035780000.0 9035770000.0 9035770000.0 9035760000.0 9035760000.0 9035760000.0 9035760000.0 9035750000.0 9035750000.0 9035750000.0 9035750000.0 9035750000.0 9035750000.0 9035750000.0 9035750000.0 9035750000.0 9035750000.0 9035750000.0 9035750000.0 9035750000.0 9035750000.0 9035750000.0 9035750000.0 9035750000.0 9035750000.0 9035750000.0 9035750000.0 9035750000.0 9035750000.0 9035750000.0 9035750000.0 9035750000.0 9035750000.0 9035750000.0 9035750000.0 9035750000.0 9035750000.0 9035750000.0 9035750000.0 9035750000.0 9035750000.0 9035750000.0 9035760000.0 9035760000.0 9035760000.0 9035760000.0 9035770000.0 9035770000.0 9035780000.0 9035800000.0 9035820000.0 9035850000.0 9035900000.0 9035970000.0 9036080000.0 9036240000.0 9036480000.0 9036830000.0 9038170000.0 9044700000.0 9163430000.0 9371270000.0 9301140000.0 9129600000.0 9042230000.0 9037520000.0 9036580000.0 9036310000.0 9036120000.0 9036000000.0 9035920000.0 9035870000.0 9035830000.0 9035800000.0 9035790000.0 9035780000.0 9035770000.0 9035760000.0 9035760000.0 9035760000.0 9035760000.0 9035760000.0 9035750000.0 9035750000.0 9035750000.0 9035750000.0 9035750000.0 9035750000.0 9035750000.0 9035750000.0 9035750000.0 9035750000.0 9035750000.0 9035750000.0 9035750000.0 9035750000.0 9035750000.0 9035750000.0 9035750000.0 9035750000.0 9035750000.0 9035750000.0 9035750000.0 9035750000.0 9035750000.0 9035750000.0 9035750000.0 9035750000.0 9035750000.0 9035750000.0 9035750000.0 9035750000.0 9035750000.0 9035750000.0 9035750000.0 9035750000.0 9035750000.0 9035760000.0 9035760000.0 9035760000.0 9035760000.0 9035760000.0 9035770000.0 9035780000.0 9035790000.0 9035800000.0 9035830000.0 9035870000.0 9035920000.0 9036000000.0 9036120000.0 9036310000.0 9036580000.0 9037520000.0 9042230000.0 9129600000.0 9301140000.0 9243460000.0 9104070000.0 9040460000.0 9037030000.0 9036390000.0 9036170000.0 9036030000.0 9035940000.0 9035880000.0 9035840000.0 9035810000.0 9035790000.0 9035780000.0 9035770000.0 9035760000.0 9035760000.0 9035760000.0 9035760000.0 9035760000.0 9035750000.0 9035750000.0 9035750000.0 9035750000.0 9035750000.0 9035750000.0 9035750000.0 9035750000.0 9035750000.0 9035750000.0 9035750000.0 9035750000.0 9035750000.0 9035750000.0 9035750000.0 9035750000.0 9035750000.0 9035750000.0 9035750000.0 9035750000.0 9035750000.0 9035750000.0 9035750000.0 9035750000.0 9035750000.0 9035750000.0 9035750000.0 9035750000.0 9035750000.0 9035750000.0 9035750000.0 9035750000.0 9035750000.0 9035750000.0 9035750000.0 9035750000.0 9035750000.0 9035760000.0 9035760000.0 9035760000.0 9035760000.0 9035760000.0 9035770000.0 9035780000.0 9035790000.0 9035810000.0 9035840000.0 9035880000.0 9035940000.0 9036030000.0 9036170000.0 9036390000.0 9037030000.0 9040460000.0 9104070000.0 9243460000.0 9195910000.0 9084870000.0 9039160000.0 9036670000.0 9036230000.0 9036070000.0 9035960000.0 9035890000.0 9035850000.0 9035820000.0 9035790000.0 9035780000.0 9035770000.0 9035770000.0 9035760000.0 9035760000.0 9035760000.0 9035760000.0 9035750000.0 9035750000.0 9035750000.0 9035750000.0 9035750000.0 9035750000.0 9035750000.0 9035750000.0 9035750000.0 9035750000.0 9035750000.0 9035750000.0 9035750000.0 9035750000.0 9035750000.0 9035750000.0 9035750000.0 9035750000.0 9035750000.0 9035750000.0 9035750000.0 9035750000.0 9035750000.0 9035750000.0 9035750000.0 9035750000.0 9035750000.0 9035750000.0 9035750000.0 9035750000.0 9035750000.0 9035750000.0 9035750000.0 9035750000.0 9035750000.0 9035750000.0 9035750000.0 9035750000.0 9035750000.0 9035760000.0 9035760000.0 9035760000.0 9035760000.0 9035770000.0 9035770000.0 9035780000.0 9035790000.0 9035820000.0 9035850000.0 9035890000.0 9035960000.0 9036070000.0 9036230000.0 9036670000.0 9039160000.0 9084870000.0 9195910000.0 9156440000.0 9070440000.0 9038190000.0 9036400000.0 9036110000.0 9035980000.0 9035910000.0 9035860000.0 9035820000.0 9035800000.0 9035780000.0 9035770000.0 9035770000.0 9035760000.0 9035760000.0 9035760000.0 9035760000.0 9035750000.0 9035750000.0 9035750000.0 9035750000.0 9035750000.0 9035750000.0 9035750000.0 9035750000.0 9035750000.0 9035750000.0 9035750000.0 9035750000.0 9035750000.0 9035750000.0 9035750000.0 9035750000.0 9035750000.0 9035750000.0 9035750000.0 9035750000.0 9035750000.0 9035750000.0 9035750000.0 9035750000.0 9035750000.0 9035750000.0 9035750000.0 9035750000.0 9035750000.0 9035750000.0 9035750000.0 9035750000.0 9035750000.0 9035750000.0 9035750000.0 9035750000.0 9035750000.0 9035750000.0 9035750000.0 9035750000.0 9035750000.0 9035760000.0 9035760000.0 9035760000.0 9035760000.0 9035770000.0 9035770000.0 9035780000.0 9035800000.0 9035820000.0 9035860000.0 9035910000.0 9035980000.0 9036110000.0 9036400000.0 9038190000.0 9070440000.0 9156440000.0 9123270000.0 9059500000.0 9037450000.0 9036200000.0 9036000000.0 9035920000.0 9035860000.0 9035830000.0 9035800000.0 9035780000.0 9035770000.0 9035770000.0 9035760000.0 9035760000.0 9035760000.0 9035760000.0 9035750000.0 9035750000.0 9035750000.0 9035750000.0 9035750000.0 9035750000.0 9035750000.0 9035750000.0 9035750000.0 9035750000.0 9035750000.0 9035750000.0 9035750000.0 9035750000.0 9035750000.0 9035750000.0 9035750000.0 9035750000.0 9035750000.0 9035750000.0 9035750000.0 9035750000.0 9035750000.0 9035750000.0 9035750000.0 9035750000.0 9035750000.0 9035750000.0 9035750000.0 9035750000.0 9035750000.0 9035750000.0 9035750000.0 9035750000.0 9035750000.0 9035750000.0 9035750000.0 9035750000.0 9035750000.0 9035750000.0 9035750000.0 9035750000.0 9035750000.0 9035760000.0 9035760000.0 9035760000.0 9035760000.0 9035770000.0 9035770000.0 9035780000.0 9035800000.0 9035830000.0 9035860000.0 9035920000.0 9036000000.0 9036200000.0 9037450000.0 9059500000.0 9123270000.0 9094790000.0 9051030000.0 9036860000.0 9036040000.0 9035920000.0 9035860000.0 9035820000.0 9035800000.0 9035780000.0 9035770000.0 9035770000.0 9035760000.0 9035760000.0 9035760000.0 9035760000.0 9035750000.0 9035750000.0 9035750000.0 9035750000.0 9035750000.0 9035750000.0 9035750000.0 9035750000.0 9035750000.0 9035750000.0 9035750000.0 9035750000.0 9035750000.0 9035750000.0 9035750000.0 9035750000.0 9035750000.0 9035750000.0 9035750000.0 9035750000.0 9035750000.0 9035750000.0 9035750000.0 9035750000.0 9035750000.0 9035750000.0 9035750000.0 9035750000.0 9035750000.0 9035750000.0 9035750000.0 9035750000.0 9035750000.0 9035750000.0 9035750000.0 9035750000.0 9035750000.0 9035750000.0 9035750000.0 9035750000.0 9035750000.0 9035750000.0 9035750000.0 9035750000.0 9035750000.0 9035760000.0 9035760000.0 9035760000.0 9035760000.0 9035770000.0 9035770000.0 9035780000.0 9035800000.0 9035820000.0 9035860000.0 9035920000.0 9036040000.0 9036860000.0 9051030000.0 9094790000.0 9069530000.0 9044210000.0 9036380000.0 9035910000.0 9035850000.0 9035810000.0 9035790000.0 9035780000.0 9035770000.0 9035760000.0 9035760000.0 9035760000.0 9035760000.0 9035760000.0 9035750000.0 9035750000.0 9035750000.0 9035750000.0 9035750000.0 9035750000.0 9035750000.0 9035750000.0 9035750000.0 9035750000.0 9035750000.0 9035750000.0 9035750000.0 9035750000.0 9035750000.0 9035750000.0 9035750000.0 9035750000.0 9035750000.0 9035750000.0 9035750000.0 9035750000.0 9035750000.0 9035750000.0 9035750000.0 9035750000.0 9035750000.0 9035750000.0 9035750000.0 9035750000.0 9035750000.0 9035750000.0 9035750000.0 9035750000.0 9035750000.0 9035750000.0 9035750000.0 9035750000.0 9035750000.0 9035750000.0 9035750000.0 9035750000.0 9035750000.0 9035750000.0 9035750000.0 9035750000.0 9035750000.0 9035760000.0 9035760000.0 9035760000.0 9035760000.0 9035760000.0 9035770000.0 9035780000.0 9035790000.0 9035810000.0 9035850000.0 9035910000.0 9036380000.0 9044210000.0 9069530000.0 9046150000.0 9038320000.0 9035940000.0 9035800000.0 9035780000.0 9035770000.0 9035770000.0 9035760000.0 9035760000.0 9035760000.0 9035760000.0 9035750000.0 9035750000.0 9035750000.0 9035750000.0 9035750000.0 9035750000.0 9035750000.0 9035750000.0 9035750000.0 9035750000.0 9035750000.0 9035750000.0 9035750000.0 9035750000.0 9035750000.0 9035750000.0 9035750000.0 9035750000.0 9035750000.0 9035750000.0 9035750000.0 9035750000.0 9035750000.0 9035750000.0 9035750000.0 9035750000.0 9035750000.0 9035750000.0 9035750000.0 9035750000.0 9035750000.0 9035750000.0 9035750000.0 9035750000.0 9035750000.0 9035750000.0 9035750000.0 9035750000.0 9035750000.0 9035750000.0 9035750000.0 9035750000.0 9035750000.0 9035750000.0 9035750000.0 9035750000.0 9035750000.0 9035750000.0 9035750000.0 9035750000.0 9035750000.0 9035750000.0 9035750000.0 9035760000.0 9035760000.0 9035760000.0 9035760000.0 9035770000.0 9035770000.0 9035780000.0 9035800000.0 9035940000.0 9038320000.0 9046150000.0 