# vtk DataFile Version 2.0
Time step 48
ASCII
DATASET UNSTRUCTURED_GRID
POINTS 5000 float
297464.0 306983.0 0
202705.0 309267.0 0
207636.0 307453.0 0
206551.0 311757.0 0
213164.0 308601.0 0
209443.0 310675.0 0
221947.0 310699.0 0
228448.0 311933.0 0
231959.0 309803.0 0
237238.0 311710.0 0
272107.0 310436.0 0
279553.0 309481.0 0
290943.0 308782.0 0
297176.0 312255.0 0
202414.0 314305.0 0
206989.0 316062.0 0
211301.0 313773.0 0
217082.0 312835.0 0
214583.0 317490.0 0
220753.0 317057.0 0
224702.0 314267.0 0
232573.0 313112.0 0
230129.0 316361.0 0
235063.0 316820.0 0
242585.0 313975.0 0
249233.0 314569.0 0
255527.0 313779.0 0
260279.0 315151.0 0
264411.0 317021.0 0
267134.0 313012.0 0
271377.0 314937.0 0
275898.0 314461.0 0
281375.0 315237.0 0
286537.0 312760.0 0
288793.0 317126.0 0
292179.0 314251.0 0
203008.0 319567.0 0
210058.0 320109.0 0
217559.0 321066.0 0
225946.0 318420.0 0
231876.0 320349.0 0
236185.0 321871.0 0
244790.0 319098.0 0
239834.0 318677.0 0
249068.0 320090.0 0
252985.0 319174.0 0
257124.0 318210.0 0
261041.0 319509.0 0
268684.0 317926.0 0
265390.0 321919.0 0
269954.0 321809.0 0
273410.0 319183.0 0
278156.0 318757.0 0
276582.0 322393.0 0
285221.0 317539.0 0
282545.0 319201.0 0
280800.0 322533.0 0
285507.0 321772.0 0
289247.0 320518.0 0
292762.0 321463.0 0
296665.0 318310.0 0
201914.0 324121.0 0
206460.0 323768.0 0
213531.0 324087.0 0
218188.0 325337.0 0
222539.0 322647.0 0
228030.0 323102.0 0
225639.0 326426.0 0
232578.0 324519.0 0
236502.0 326332.0 0
241173.0 324021.0 0
246678.0 323680.0 0
251500.0 323452.0 0
254151.0 327323.0 0
256330.0 322899.0 0
260827.0 323776.0 0
268621.0 325381.0 0
273058.0 324675.0 0
270838.0 327497.0 0
278039.0 327186.0 0
283861.0 326703.0 0
289679.0 324715.0 0
296209.0 325994.0 0
203704.0 328092.0 0
202021.0 332058.0 0
209758.0 328496.0 0
216018.0 330263.0 0
222006.0 328431.0 0
229075.0 327919.0 0
226077.0 332068.0 0
233060.0 328086.0 0
231719.0 332354.0 0
235769.0 330507.0 0
240085.0 329718.0 0
244820.0 328188.0 0
243769.0 331815.0 0
249528.0 327773.0 0
247721.0 332404.0 0
252171.0 331684.0 0
258710.0 327786.0 0
256050.0 330987.0 0
264204.0 327948.0 0
269017.0 329711.0 0
273551.0 329293.0 0
271627.0 332944.0 0
281454.0 330799.0 0
285488.0 331759.0 0
288031.0 328540.0 0
289776.0 331602.0 0
291599.0 328524.0 0
293428.0 331275.0 0
297548.0 331739.0 0
202046.0 335782.0 0
206227.0 333017.0 0
211537.0 334238.0 0
216531.0 335907.0 0
221034.0 333764.0 0
224905.0 337580.0 0
228911.0 335702.0 0
232256.0 336618.0 0
236911.0 335570.0 0
241388.0 333774.0 0
244777.0 334701.0 0
246945.0 337516.0 0
250658.0 336060.0 0
260041.0 333127.0 0
254989.0 334951.0 0
266135.0 334197.0 0
270623.0 337217.0 0
277090.0 333585.0 0
280427.0 337121.0 0
282422.0 334583.0 0
286935.0 335387.0 0
291068.0 335084.0 0
294720.0 334409.0 0
297870.0 336143.0 0
202313.0 339695.0 0
207370.0 338175.0 0
205505.0 342900.0 0
213242.0 339612.0 0
209590.0 342419.0 0
220297.0 338466.0 0
222876.0 341448.0 0
229625.0 339187.0 0
227059.0 342515.0 0
233774.0 340354.0 0
239166.0 341452.0 0
242425.0 337802.0 0
245261.0 341849.0 0
249509.0 340029.0 0
253735.0 339607.0 0
257995.0 337903.0 0
262530.0 338678.0 0
267143.0 339924.0 0
274474.0 338383.0 0
270469.0 340780.0 0
273580.0 342743.0 0
277907.0 338213.0 0
276878.0 340789.0 0
279958.0 340426.0 0
284068.0 338638.0 0
289042.0 338870.0 0
286766.0 342412.0 0
294209.0 338811.0 0
291482.0 342746.0 0
298508.0 342597.0 0
298382.0 339724.0 0
201930.0 343545.0 0
201646.0 346560.0 0
204508.0 346883.0 0
208456.0 346721.0 0
213083.0 344743.0 0
218381.0 343324.0 0
223694.0 345737.0 0
228182.0 347530.0 0
231245.0 344347.0 0
235652.0 344906.0 0
238553.0 348115.0 0
241903.0 345380.0 0
245916.0 346702.0 0
248867.0 347870.0 0
249535.0 344218.0 0
254002.0 344532.0 0
258808.0 342938.0 0
264212.0 343654.0 0
261637.0 346870.0 0
268986.0 344907.0 0
273418.0 347335.0 0
277686.0 344594.0 0
282521.0 343535.0 0
280597.0 347917.0 0
284514.0 347272.0 0
288832.0 346530.0 0
295525.0 343109.0 0
293874.0 347091.0 0
297890.0 345972.0 0
202325.0 349975.0 0
205611.0 350655.0 0
212124.0 348705.0 0
209316.0 351614.0 0
213004.0 351872.0 0
216214.0 348914.0 0
220773.0 349053.0 0
225194.0 350869.0 0
229323.0 352876.0 0
233186.0 349735.0 0
238024.0 353223.0 0
242847.0 350307.0 0
247475.0 351268.0 0
252463.0 349813.0 0
257511.0 348387.0 0
261507.0 351027.0 0
265310.0 348322.0 0
269493.0 350009.0 0
273515.0 352094.0 0
276921.0 349266.0 0
282767.0 351643.0 0
286431.0 350497.0 0
290298.0 350952.0 0
294506.0 351315.0 0
297844.0 349812.0 0
202704.0 354194.0 0
201730.0 357835.0 0
204922.0 358027.0 0
206749.0 354940.0 0
208373.0 358456.0 0
211305.0 355742.0 0
216131.0 353961.0 0
220936.0 354127.0 0
225753.0 355795.0 0
229906.0 357246.0 0
233162.0 354841.0 0
236218.0 357577.0 0
240143.0 358418.0 0
242830.0 355007.0 0
246792.0 355401.0 0
250828.0 354980.0 0
256622.0 354960.0 0
261984.0 355852.0 0
265953.0 353466.0 0
269972.0 355194.0 0
273950.0 357090.0 0
278127.0 353535.0 0
282730.0 356296.0 0
286827.0 353959.0 0
291747.0 355718.0 0
297296.0 354502.0 0
202573.0 361367.0 0
206399.0 361244.0 0
214546.0 357070.0 0
210527.0 361486.0 0
213097.0 359365.0 0
215006.0 362381.0 0
217688.0 358837.0 0
222403.0 359444.0 0
226703.0 360352.0 0
229763.0 361385.0 0
233234.0 360059.0 0
237510.0 363167.0 0
244847.0 359728.0 0
241545.0 362227.0 0
249302.0 359413.0 0
247774.0 363701.0 0
253065.0 359017.0 0
251750.0 363645.0 0
260435.0 359290.0 0
256661.0 362006.0 0
261996.0 362765.0 0
265041.0 359001.0 0
266126.0 363430.0 0
269526.0 359984.0 0
273932.0 362195.0 0
278322.0 358494.0 0
278376.0 362590.0 0
282154.0 360571.0 0
284513.0 362220.0 0
286805.0 358415.0 0
287687.0 362208.0 0
291074.0 359904.0 0
291120.0 363336.0 0
296433.0 359858.0 0
202991.0 365673.0 0
207933.0 364798.0 0
212454.0 365364.0 0
216129.0 365472.0 0
219373.0 363491.0 0
218947.0 367235.0 0
223896.0 363893.0 0
222425.0 367680.0 0
228058.0 365085.0 0
232567.0 364865.0 0
235543.0 368434.0 0
239697.0 368299.0 0
241297.0 365463.0 0
244196.0 364555.0 0
243371.0 368141.0 0
246517.0 367087.0 0
249819.0 368094.0 0
254608.0 368288.0 0
259092.0 366084.0 0
263425.0 367406.0 0
267451.0 367241.0 0
269824.0 364746.0 0
273102.0 366862.0 0
276660.0 366343.0 0
278433.0 368716.0 0
281497.0 365442.0 0
286348.0 366573.0 0
294061.0 364797.0 0
290813.0 368315.0 0
297478.0 364577.0 0
198556.0 378178.0 0
201208.0 377077.0 0
202583.0 370376.0 0
206770.0 373174.0 0
206472.0 368946.0 0
210628.0 373484.0 0
210683.0 369400.0 0
214330.0 374118.0 0
215507.0 369866.0 0
220191.0 371387.0 0
223519.0 371993.0 0
226152.0 368891.0 0
230798.0 369869.0 0
227301.0 373405.0 0
234237.0 372518.0 0
237878.0 372194.0 0
241833.0 371918.0 0
246401.0 371412.0 0
251015.0 373459.0 0
259464.0 370251.0 0
256279.0 373355.0 0
262906.0 371828.0 0
266428.0 370917.0 0
270225.0 369703.0 0
268530.0 373318.0 0
271986.0 373421.0 0
274924.0 370392.0 0
278577.0 372190.0 0
282116.0 369986.0 0
281937.0 373596.0 0
286153.0 372221.0 0
290989.0 372210.0 0
297017.0 373339.0 0
296275.0 369374.0 0
298608.0 376874.0 0
300970.0 379240.0 0
193540.0 381479.0 0
190655.0 383432.0 0
196496.0 380362.0 0
197161.0 383620.0 0
200338.0 380217.0 0
202830.0 374338.0 0
202724.0 379435.0 0
200355.0 382580.0 0
203100.0 381447.0 0
208782.0 376214.0 0
205872.0 378403.0 0
209523.0 379950.0 0
211900.0 377211.0 0
215730.0 378071.0 0
218783.0 375101.0 0
220051.0 379012.0 0
223110.0 375971.0 0
227041.0 378091.0 0
230381.0 380535.0 0
231449.0 375639.0 0
234117.0 379300.0 0
236005.0 375636.0 0
239767.0 375677.0 0
237733.0 378644.0 0
244310.0 375515.0 0
242031.0 378217.0 0
247598.0 377038.0 0
254638.0 376865.0 0
251457.0 379104.0 0
255572.0 380363.0 0
257945.0 377540.0 0
260481.0 374665.0 0
261702.0 378439.0 0
258951.0 380921.0 0
265090.0 375320.0 0
273114.0 377143.0 0
269429.0 377259.0 0
275464.0 374675.0 0
276058.0 378507.0 0
279347.0 376014.0 0
283506.0 376695.0 0
286126.0 378705.0 0
288248.0 375903.0 0
294526.0 378110.0 0
292712.0 374990.0 0
293582.0 381301.0 0
296977.0 380145.0 0
296757.0 383145.0 0
304172.0 380267.0 0
300433.0 382678.0 0
304210.0 383186.0 0
308245.0 383159.0 0
306691.0 381040.0 0
310938.0 384154.0 0
181741.0 389048.0 0
186746.0 385586.0 0
184521.0 388018.0 0
193701.0 383919.0 0
189479.0 385985.0 0
192252.0 388273.0 0
194727.0 386018.0 0
196707.0 387581.0 0
198890.0 386036.0 0
202192.0 385137.0 0
199774.0 388590.0 0
205347.0 383364.0 0
208586.0 383533.0 0
211594.0 384205.0 0
213235.0 380996.0 0
214727.0 384849.0 0
217182.0 381717.0 0
217962.0 385932.0 0
220768.0 383133.0 0
223420.0 380373.0 0
226752.0 382547.0 0
229616.0 384586.0 0
232810.0 383838.0 0
236527.0 382554.0 0
240179.0 380945.0 0
244735.0 380179.0 0
242787.0 383959.0 0
246336.0 384319.0 0
248255.0 381422.0 0
252813.0 382984.0 0
250141.0 384859.0 0
256041.0 383934.0 0
259345.0 384238.0 0
262729.0 382614.0 0
265360.0 379866.0 0
268628.0 381742.0 0
272803.0 381058.0 0
270668.0 384742.0 0
276721.0 382598.0 0
274067.0 385975.0 0
280002.0 379995.0 0
280701.0 384333.0 0
283512.0 381224.0 0
290098.0 379240.0 0
287225.0 382284.0 0
288857.0 385464.0 0
293714.0 385500.0 0
291029.0 383459.0 0
297318.0 387129.0 0
300701.0 386089.0 0
304298.0 386430.0 0
307443.0 386037.0 0
309855.0 387680.0 0
312812.0 386483.0 0
315523.0 388286.0 0
318634.0 388808.0 0
176622.0 392384.0 0
174065.0 393852.0 0
178959.0 390561.0 0
181837.0 392556.0 0
178690.0 394661.0 0
185235.0 393260.0 0
187321.0 390024.0 0
190243.0 391493.0 0
195443.0 390628.0 0
193216.0 393817.0 0
198669.0 391346.0 0
202810.0 388276.0 0
202926.0 392166.0 0
205800.0 387097.0 0
206957.0 390799.0 0
208479.0 386795.0 0
211583.0 388230.0 0
214332.0 391493.0 0
215400.0 388086.0 0
217482.0 390105.0 0
220678.0 388116.0 0
223788.0 385467.0 0
224561.0 389230.0 0
227219.0 386904.0 0
227343.0 389913.0 0
230804.0 388239.0 0
234945.0 387507.0 0
238971.0 385463.0 0
238224.0 389050.0 0
241619.0 388679.0 0
244598.0 387028.0 0
251047.0 388193.0 0
247643.0 387739.0 0
253492.0 386415.0 0
253746.0 391451.0 0
257237.0 388283.0 0
261930.0 387252.0 0
266321.0 385665.0 0
267855.0 390022.0 0
270140.0 388113.0 0
273018.0 389861.0 0
276803.0 390813.0 0
277871.0 386757.0 0
280983.0 389361.0 0
284833.0 390127.0 0
284520.0 386053.0 0
290771.0 390298.0 0
287888.0 388187.0 0
287986.0 391399.0 0
291183.0 387591.0 0
294677.0 389310.0 0
293163.0 392287.0 0
300976.0 389272.0 0
298449.0 391267.0 0
304536.0 390671.0 0
311752.0 390127.0 0
307776.0 389401.0 0
309408.0 391647.0 0
315482.0 391441.0 0
312648.0 393127.0 0
320625.0 391646.0 0
318372.0 393996.0 0
324015.0 392587.0 0
326432.0 393882.0 0
165855.0 398863.0 0
171377.0 395582.0 0
168826.0 397565.0 0
170209.0 400055.0 0
175683.0 395969.0 0
173567.0 397479.0 0
176565.0 398152.0 0
182354.0 395668.0 0
179344.0 397491.0 0
182631.0 398011.0 0
185376.0 396777.0 0
188237.0 394559.0 0
190508.0 397132.0 0
194321.0 398032.0 0
196113.0 395838.0 0
199125.0 394740.0 0
204045.0 395489.0 0
207074.0 394867.0 0
210443.0 392777.0 0
211158.0 396144.0 0
215028.0 394744.0 0
218219.0 393291.0 0
217905.0 396401.0 0
221139.0 396260.0 0
221618.0 391741.0 0
225222.0 393438.0 0
229600.0 392616.0 0
232959.0 391889.0 0
234747.0 395623.0 0
236487.0 392016.0 0
239658.0 391894.0 0
244852.0 390603.0 0
242307.0 393637.0 0
245613.0 394672.0 0
248794.0 392196.0 0
251732.0 395776.0 0
254878.0 396853.0 0
257458.0 394068.0 0
260539.0 396317.0 0
260419.0 391789.0 0
262902.0 394456.0 0
264562.0 390740.0 0
266775.0 394121.0 0
270380.0 392945.0 0
274188.0 393298.0 0
276715.0 395455.0 0
279737.0 393943.0 0
282962.0 393059.0 0
286026.0 394438.0 0
288928.0 395176.0 0
290423.0 393668.0 0
290481.0 397193.0 0
293227.0 396242.0 0
296616.0 394238.0 0
296597.0 398160.0 0
300134.0 396752.0 0
302021.0 393763.0 0
304742.0 395808.0 0
307446.0 393971.0 0
307683.0 397491.0 0
311130.0 396459.0 0
315256.0 395874.0 0
316406.0 399695.0 0
319791.0 397587.0 0
322872.0 395346.0 0
324427.0 396946.0 0
322416.0 400034.0 0
326942.0 398118.0 0
328719.0 395838.0 0
331547.0 397699.0 0
334315.0 399437.0 0
156858.0 404210.0 0
160017.0 403307.0 0
163258.0 400943.0 0
166856.0 401220.0 0
164110.0 403774.0 0
166818.0 404942.0 0
169176.0 402732.0 0
171135.0 404607.0 0
173136.0 400158.0 0
176136.0 400063.0 0
173775.0 402910.0 0
177257.0 402533.0 0
179283.0 400111.0 0
183271.0 400422.0 0
180962.0 402118.0 0
187173.0 399090.0 0
185322.0 402722.0 0
189059.0 402015.0 0
191796.0 400655.0 0
194591.0 399867.0 0
197373.0 398641.0 0
193320.0 403640.0 0
196681.0 401870.0 0
200896.0 397949.0 0
201072.0 401951.0 0
205199.0 398719.0 0
205291.0 401852.0 0
208043.0 397692.0 0
208316.0 401271.0 0
210380.0 399695.0 0
214612.0 399483.0 0
218857.0 399869.0 0
224672.0 398173.0 0
222056.0 400672.0 0
228119.0 396284.0 0
228269.0 399966.0 0
231594.0 396598.0 0
234845.0 399786.0 0
231494.0 400428.0 0
238560.0 396470.0 0
243247.0 399163.0 0
248064.0 397464.0 0
251517.0 400310.0 0
257935.0 397495.0 0
255729.0 401103.0 0
260564.0 401179.0 0
264985.0 398298.0 0
268806.0 401329.0 0
269348.0 397448.0 0
272074.0 400301.0 0
272851.0 396751.0 0
275880.0 399333.0 0
279730.0 398365.0 0
282561.0 396813.0 0
286536.0 398870.0 0
283273.0 401973.0 0
290385.0 401681.0 0
293199.0 399608.0 0
295827.0 401538.0 0
300459.0 401808.0 0
304216.0 399489.0 0
306374.0 403987.0 0
307912.0 400921.0 0
312193.0 401040.0 0
319606.0 401047.0 0
318305.0 403816.0 0
325915.0 400822.0 0
322363.0 404298.0 0
325309.0 403157.0 0
329963.0 400130.0 0
328853.0 402300.0 0
331803.0 403816.0 0
327789.0 404808.0 0
333537.0 402119.0 0
337076.0 400746.0 0
335393.0 403921.0 0
338915.0 402742.0 0
341934.0 403856.0 0
344667.0 405234.0 0
146786.0 410538.0 0
149511.0 408658.0 0
154740.0 405800.0 0
152511.0 407842.0 0
153399.0 410237.0 0
156675.0 407719.0 0
159608.0 406827.0 0
162972.0 406801.0 0
165311.0 407250.0 0
162862.0 409840.0 0
166282.0 409744.0 0
168623.0 407045.0 0
172746.0 406665.0 0
170299.0 408667.0 0
174845.0 405601.0 0
177970.0 406257.0 0
173301.0 409441.0 0
181688.0 405463.0 0
186606.0 405447.0 0
183980.0 408822.0 0
190136.0 405379.0 0
188170.0 408484.0 0
192119.0 408225.0 0
194797.0 406472.0 0
197789.0 405444.0 0
200607.0 406593.0 0
203920.0 405687.0 0
207895.0 405380.0 0
211818.0 403606.0 0
214102.0 407245.0 0
216298.0 403812.0 0
219901.0 403941.0 0
222659.0 406739.0 0
225081.0 403139.0 0
229071.0 403520.0 0
230194.0 406513.0 0
232663.0 403572.0 0
235689.0 404296.0 0
238330.0 401660.0 0
241269.0 404098.0 0
243168.0 407344.0 0
244766.0 403889.0 0
247515.0 401938.0 0
247427.0 406852.0 0
250305.0 404411.0 0
253872.0 405430.0 0
257650.0 406156.0 0
261858.0 406702.0 0
265298.0 403535.0 0
268057.0 405704.0 0
271408.0 404615.0 0
275027.0 403127.0 0
277643.0 406807.0 0
279058.0 402553.0 0
286335.0 406250.0 0
286961.0 403311.0 0
290095.0 406024.0 0
293945.0 403705.0 0
293788.0 407147.0 0
298249.0 406130.0 0
302818.0 408130.0 0
303481.0 404552.0 0
307230.0 408289.0 0
310546.0 405352.0 0
314995.0 404508.0 0
314253.0 407435.0 0
321062.0 407570.0 0
318017.0 407215.0 0
325821.0 407248.0 0
323642.0 409683.0 0
331147.0 406534.0 0
329442.0 409859.0 0
335114.0 407305.0 0
338101.0 405774.0 0
341186.0 406255.0 0
338411.0 410010.0 0
339776.0 408289.0 0
343136.0 408215.0 0
347255.0 406853.0 0
345963.0 408959.0 0
348799.0 410188.0 0
350118.0 408622.0 0
352649.0 410548.0 0
140240.0 415660.0 0
142171.0 413345.0 0
144568.0 412016.0 0
144121.0 415549.0 0
145577.0 413979.0 0
149118.0 411442.0 0
148103.0 414436.0 0
156395.0 410438.0 0
152421.0 413147.0 0
156006.0 414009.0 0
159637.0 410382.0 0
159395.0 413955.0 0
162805.0 413266.0 0
165365.0 412634.0 0
167255.0 414744.0 0
168991.0 411566.0 0
171882.0 412701.0 0
176820.0 409971.0 0
175257.0 414641.0 0
180458.0 411008.0 0
182594.0 413628.0 0
186096.0 412838.0 0
189620.0 410711.0 0
196100.0 408950.0 0
193738.0 410350.0 0
192023.0 412786.0 0
196100.0 411817.0 0
198641.0 408910.0 0
198946.0 412189.0 0
202582.0 409956.0 0
206639.0 409545.0 0
209540.0 411822.0 0
210717.0 408488.0 0
212932.0 411793.0 0
215351.0 410238.0 0
217913.0 407864.0 0
220632.0 410131.0 0
224582.0 410516.0 0
226824.0 407045.0 0
226706.0 412658.0 0
229301.0 410460.0 0
233445.0 408088.0 0
235630.0 410925.0 0
238321.0 407434.0 0
237975.0 411759.0 0
241295.0 411342.0 0
245487.0 411239.0 0
248897.0 410847.0 0
251593.0 408666.0 0
255516.0 410509.0 0
259133.0 410122.0 0
262604.0 411658.0 0
265801.0 408667.0 0
270308.0 409629.0 0
274185.0 410972.0 0
274168.0 407752.0 0
276397.0 410018.0 0
278958.0 410662.0 0
282160.0 407063.0 0
281982.0 411208.0 0
286000.0 410522.0 0
292381.0 409768.0 0
289588.0 409860.0 0
292695.0 413057.0 0
295631.0 410473.0 0
299434.0 410985.0 0
303321.0 411995.0 0
306563.0 412245.0 0
311600.0 409967.0 0
309891.0 413180.0 0
317030.0 410171.0 0
314873.0 411676.0 0
320251.0 410286.0 0
319708.0 413597.0 0
326254.0 411415.0 0
323041.0 412570.0 0
326007.0 414589.0 0
329686.0 414102.0 0
333521.0 410803.0 0
336460.0 411603.0 0
333688.0 414438.0 0
337327.0 415143.0 0
342360.0 410927.0 0
340260.0 413445.0 0
345758.0 412417.0 0
343396.0 414871.0 0
350731.0 412674.0 0
348245.0 414466.0 0
355043.0 412566.0 0
353143.0 415442.0 0
357704.0 414149.0 0
131153.0 420721.0 0
133947.0 419124.0 0
137137.0 416791.0 0
137123.0 419572.0 0
141695.0 417899.0 0
145474.0 417137.0 0
144089.0 419296.0 0
147532.0 416864.0 0
151241.0 415968.0 0
148141.0 418743.0 0
151723.0 419226.0 0
155119.0 417069.0 0
157049.0 419038.0 0
160208.0 417201.0 0
164158.0 416383.0 0
165390.0 419263.0 0
170297.0 415342.0 0
168455.0 417377.0 0
169162.0 419923.0 0
171932.0 417047.0 0
175785.0 418566.0 0
179111.0 414757.0 0
179113.0 418592.0 0
182614.0 416801.0 0
185768.0 417408.0 0
189419.0 415870.0 0
192874.0 416834.0 0
194692.0 414437.0 0
197620.0 416649.0 0
202124.0 415034.0 0
205846.0 413493.0 0
209370.0 415619.0 0
213918.0 415392.0 0
217339.0 412924.0 0
219922.0 416549.0 0
217079.0 417028.0 0
221309.0 413269.0 0
224055.0 415106.0 0
228158.0 415359.0 0
231225.0 416462.0 0
232286.0 412998.0 0
235913.0 414666.0 0
239822.0 415400.0 0
244106.0 415094.0 0
247762.0 414596.0 0
251801.0 413365.0 0
250241.0 417120.0 0
255350.0 414931.0 0
259188.0 414893.0 0
262439.0 417044.0 0
263480.0 415103.0 0
267044.0 413381.0 0
269839.0 416285.0 0
271987.0 413583.0 0
276543.0 413731.0 0
276156.0 417281.0 0
280283.0 413995.0 0
279672.0 418268.0 0
282724.0 416388.0 0
283855.0 413679.0 0
285289.0 417805.0 0
286469.0 414672.0 0
288945.0 418012.0 0
289389.0 413688.0 0
296527.0 414514.0 0
293306.0 417849.0 0
297884.0 418029.0 0
300419.0 414590.0 0
303853.0 415297.0 0
307284.0 416256.0 0
311149.0 417906.0 0
313267.0 414416.0 0
316733.0 415005.0 0
315002.0 418118.0 0
318212.0 418442.0 0
320747.0 417447.0 0
322940.0 415860.0 0
326988.0 418025.0 0
324346.0 418119.0 0
330077.0 417733.0 0
333298.0 417919.0 0
336418.0 418768.0 0
341061.0 417178.0 0
339315.0 418331.0 0
342077.0 419525.0 0
346238.0 416879.0 0
343452.0 417718.0 0
345058.0 420437.0 0
351114.0 417778.0 0
348401.0 419626.0 0
355806.0 417157.0 0
356180.0 419829.0 0
359889.0 415950.0 0
359633.0 418904.0 0
363031.0 416524.0 0
364761.0 418975.0 0
367622.0 419337.0 0
369492.0 420773.0 0
125697.0 425404.0 0
128325.0 423046.0 0
134238.0 422333.0 0
136688.0 422674.0 0
132006.0 424323.0 0
140044.0 420574.0 0
137963.0 425185.0 0
141422.0 423477.0 0
145972.0 421873.0 0
149525.0 422379.0 0
154367.0 421658.0 0
152045.0 425178.0 0
156474.0 423410.0 0
158721.0 421217.0 0
161814.0 420211.0 0
159262.0 424311.0 0
165569.0 422299.0 0
162605.0 424082.0 0
168499.0 423686.0 0
172550.0 420011.0 0
172190.0 423864.0 0
176013.0 422331.0 0
179354.0 422097.0 0
182710.0 420213.0 0
186468.0 420359.0 0
183955.0 422782.0 0
189717.0 419777.0 0
190996.0 422913.0 0
193845.0 419913.0 0
197420.0 421013.0 0
201501.0 419829.0 0
205360.0 418051.0 0
204135.0 423293.0 0
207788.0 420627.0 0
211459.0 419029.0 0
211683.0 422563.0 0
215008.0 419531.0 0
218833.0 421202.0 0
222379.0 418576.0 0
225273.0 418345.0 0
223353.0 422593.0 0
228807.0 420724.0 0
233741.0 417591.0 0
233467.0 420838.0 0
237255.0 419168.0 0
240137.0 423040.0 0
242147.0 418993.0 0
246718.0 419179.0 0
253161.0 417579.0 0
251413.0 421944.0 0
256472.0 419639.0 0
260814.0 420156.0 0
266050.0 418495.0 0
271124.0 420174.0 0
273451.0 416923.0 0
276104.0 421131.0 0
283217.0 419887.0 0
286184.0 422131.0 0
290114.0 421625.0 0
292978.0 423613.0 0
296144.0 420957.0 0
300885.0 417686.0 0
300078.0 421340.0 0
303965.0 419272.0 0
303963.0 423137.0 0
307587.0 420825.0 0
311507.0 422046.0 0
315257.0 421627.0 0
319339.0 422011.0 0
322785.0 420678.0 0
326796.0 421060.0 0
324187.0 424361.0 0
330000.0 420663.0 0
327885.0 424042.0 0
330936.0 423557.0 0
333327.0 420868.0 0
334366.0 424260.0 0
337014.0 422029.0 0
340268.0 420861.0 0
340640.0 423716.0 0
343994.0 423048.0 0
347447.0 424804.0 0
349220.0 422535.0 0
352463.0 423413.0 0
353290.0 420556.0 0
357415.0 422625.0 0
361633.0 421808.0 0
363728.0 424504.0 0
366691.0 422575.0 0
371415.0 422830.0 0
368705.0 425170.0 0
373985.0 424570.0 0
377187.0 425331.0 0
114536.0 430355.0 0
119485.0 428274.0 0
116618.0 429557.0 0
122178.0 426895.0 0
122853.0 431018.0 0
129703.0 426363.0 0
126856.0 429187.0 0
130471.0 429216.0 0
133868.0 427006.0 0
135433.0 430205.0 0
138811.0 428241.0 0
140313.0 430770.0 0
141436.0 427670.0 0
144674.0 426374.0 0
142789.0 430462.0 0
148472.0 426662.0 0
149226.0 429714.0 0
155482.0 425812.0 0
152828.0 429117.0 0
158423.0 426968.0 0
161191.0 428144.0 0
165000.0 426814.0 0
164283.0 430096.0 0
168488.0 427604.0 0
171920.0 427695.0 0
175607.0 426001.0 0
178780.0 426083.0 0
181814.0 424566.0 0
183427.0 427970.0 0
187233.0 424654.0 0
187449.0 429199.0 0
191001.0 427034.0 0
194353.0 424436.0 0
199040.0 425282.0 0
202989.0 427522.0 0
205727.0 427632.0 0
208433.0 425279.0 0
214923.0 423216.0 0
212682.0 426899.0 0
217077.0 425574.0 0
220197.0 425207.0 0
225687.0 425250.0 0
222794.0 428287.0 0
228560.0 425849.0 0
232012.0 424951.0 0
235814.0 423644.0 0
237937.0 427513.0 0
244379.0 423453.0 0
242071.0 427174.0 0
247762.0 424090.0 0
245698.0 427689.0 0
249574.0 427560.0 0
252854.0 426737.0 0
255197.0 424063.0 0
258669.0 424473.0 0
261861.0 424896.0 0
264335.0 422579.0 0
268483.0 424228.0 0
264858.0 427697.0 0
271422.0 427784.0 0
273322.0 424373.0 0
275145.0 428287.0 0
277171.0 425227.0 0
281465.0 423930.0 0
285971.0 426468.0 0
288907.0 424715.0 0
290596.0 428434.0 0
295093.0 427864.0 0
297114.0 424502.0 0
300872.0 425329.0 0
298570.0 427727.0 0
308135.0 425457.0 0
303972.0 426557.0 0
311323.0 428390.0 0
316957.0 425282.0 0
313122.0 425376.0 0
315533.0 429240.0 0
320903.0 425203.0 0
319472.0 427396.0 0
323739.0 428695.0 0
327744.0 427390.0 0
331171.0 426866.0 0
335833.0 427391.0 0
338822.0 425495.0 0
343241.0 426225.0 0
338498.0 429603.0 0
341081.0 428171.0 0
343894.0 430368.0 0
346508.0 428000.0 0
350389.0 426060.0 0
352584.0 428347.0 0
355772.0 425923.0 0
357940.0 429705.0 0
359881.0 425372.0 0
361508.0 428017.0 0
365360.0 427137.0 0
366470.0 430167.0 0
370094.0 427871.0 0
370356.0 431072.0 0
373981.0 427838.0 0
378833.0 427595.0 0
381573.0 429145.0 0
384487.0 429524.0 0
386152.0 431157.0 0
107246.0 435214.0 0
110510.0 434667.0 0
112727.0 432455.0 0
115325.0 432941.0 0
116030.0 435585.0 0
118478.0 431580.0 0
118877.0 434592.0 0
122500.0 434287.0 0
125924.0 434935.0 0
127148.0 432657.0 0
131650.0 431714.0 0
129521.0 433806.0 0
133777.0 434067.0 0
137763.0 432410.0 0
141153.0 434534.0 0
145839.0 430888.0 0
144477.0 433899.0 0
148217.0 433165.0 0
151698.0 432727.0 0
156328.0 429515.0 0
155400.0 433535.0 0
159874.0 432026.0 0
164308.0 433766.0 0
167929.0 431221.0 0
171823.0 431629.0 0
175868.0 429948.0 0
174891.0 434472.0 0
179361.0 429144.0 0
178264.0 433102.0 0
181289.0 431609.0 0
184951.0 432593.0 0
190171.0 431521.0 0
194906.0 430102.0 0
200062.0 430657.0 0
204855.0 431836.0 0
208739.0 429644.0 0
211969.0 431478.0 0
215381.0 429028.0 0
216075.0 432533.0 0
218799.0 428863.0 0
220057.0 432956.0 0
226469.0 428095.0 0
223920.0 433303.0 0
226341.0 430720.0 0
230017.0 429796.0 0
234079.0 428045.0 0
232929.0 430940.0 0
236211.0 431970.0 0
240550.0 430692.0 0
243733.0 430110.0 0
243158.0 432987.0 0
246965.0 432057.0 0
251844.0 432026.0 0
256438.0 429432.0 0
260951.0 429193.0 0
268332.0 430141.0 0
272581.0 432422.0 0
276816.0 431863.0 0
279990.0 429138.0 0
283182.0 432597.0 0
283660.0 428748.0 0
286549.0 431040.0 0
294675.0 432275.0 0
298480.0 431074.0 0
301628.0 429101.0 0
302037.0 433021.0 0
305570.0 430061.0 0
305918.0 433989.0 0
309109.0 430528.0 0
309682.0 433822.0 0
312433.0 431641.0 0
316288.0 433456.0 0
319878.0 430936.0 0
322896.0 433303.0 0
328801.0 430424.0 0
326065.0 432141.0 0
332898.0 430193.0 0
330382.0 433288.0 0
336645.0 433113.0 0
341137.0 432830.0 0
345972.0 433365.0 0
349538.0 430642.0 0
353099.0 433418.0 0
354602.0 430896.0 0
357181.0 433680.0 0
362976.0 431125.0 0
360643.0 432976.0 0
365282.0 434025.0 0
374254.0 431086.0 0
369302.0 434255.0 0
373435.0 434492.0 0
377636.0 431235.0 0
376677.0 434619.0 0
381934.0 432007.0 0
379719.0 433923.0 0
388576.0 433102.0 0
384887.0 433639.0 0
390630.0 435305.0 0
393698.0 436539.0 0
99369.8 440563.0 0
105238.0 437576.0 0
101855.0 438734.0 0
110140.0 437714.0 0
107687.0 439438.0 0
110343.0 441226.0 0
113597.0 436390.0 0
113535.0 438974.0 0
116619.0 438534.0 0
119286.0 437769.0 0
122655.0 437826.0 0
130698.0 436729.0 0
126738.0 438455.0 0
130072.0 440449.0 0
133792.0 438606.0 0
136767.0 436095.0 0
138815.0 439191.0 0
142745.0 437940.0 0
146909.0 436995.0 0
151079.0 436408.0 0
150624.0 439852.0 0
154651.0 437219.0 0
158138.0 436223.0 0
161234.0 435918.0 0
157433.0 440166.0 0
160936.0 439267.0 0
164439.0 437595.0 0
167769.0 435323.0 0
167461.0 439565.0 0
171151.0 435136.0 0
170521.0 437992.0 0
173639.0 437646.0 0
177351.0 437044.0 0
181475.0 435999.0 0
185286.0 437507.0 0
188135.0 434608.0 0
189632.0 437913.0 0
191837.0 434736.0 0
194313.0 434682.0 0
193794.0 438417.0 0
201011.0 434243.0 0
197553.0 434825.0 0
200664.0 436949.0 0
203633.0 436040.0 0
206136.0 438076.0 0
208616.0 434349.0 0
210325.0 438846.0 0
213165.0 435718.0 0
217301.0 436852.0 0
221508.0 437528.0 0
225592.0 437227.0 0
227915.0 433593.0 0
229126.0 436802.0 0
231915.0 434241.0 0
234988.0 436500.0 0
239240.0 435511.0 0
244505.0 437657.0 0
249363.0 436419.0 0
252953.0 437036.0 0
255890.0 434948.0 0
258513.0 438027.0 0
259758.0 433767.0 0
264286.0 433329.0 0
268698.0 434789.0 0
272120.0 437735.0 0
275965.0 435734.0 0
279047.0 437110.0 0
279966.0 433922.0 0
282557.0 436580.0 0
285971.0 435645.0 0
290524.0 434072.0 0
293238.0 437890.0 0
295142.0 435738.0 0
298719.0 435583.0 0
300463.0 439369.0 0
303058.0 437301.0 0
307865.0 437627.0 0
313561.0 434606.0 0
311898.0 437526.0 0
316261.0 437589.0 0
319504.0 435276.0 0
324247.0 437043.0 0
327631.0 435192.0 0
327764.0 439387.0 0
330303.0 437129.0 0
333162.0 434955.0 0
334011.0 437563.0 0
337599.0 437504.0 0
341544.0 436513.0 0
344837.0 436112.0 0
343959.0 439478.0 0
347128.0 438127.0 0
349497.0 435686.0 0
351853.0 438763.0 0
354380.0 436550.0 0
357912.0 437441.0 0
361748.0 436108.0 0
365103.0 437531.0 0
369132.0 438034.0 0
373598.0 438425.0 0
376992.0 437627.0 0
377782.0 440376.0 0
380408.0 437350.0 0
383549.0 436199.0 0
381664.0 441012.0 0
388976.0 438208.0 0
386765.0 436289.0 0
384837.0 438387.0 0
386666.0 439815.0 0
393553.0 440589.0 0
396792.0 438401.0 0
399383.0 439853.0 0
93647.3 443492.0 0
91641.9 445791.0 0
96839.4 442020.0 0
96391.8 444976.0 0
100136.0 445393.0 0
104095.0 441421.0 0
100960.0 442647.0 0
105601.0 444182.0 0
108787.0 444079.0 0
113900.0 442223.0 0
117734.0 441185.0 0
118177.0 444322.0 0
121232.0 440959.0 0
124770.0 441854.0 0
121296.0 443999.0 0
124668.0 445401.0 0
128321.0 443252.0 0
128632.0 445901.0 0
132265.0 441227.0 0
135722.0 441578.0 0
131393.0 444207.0 0
134707.0 445069.0 0
139226.0 443031.0 0
138244.0 445991.0 0
142772.0 442000.0 0
146700.0 441012.0 0
149760.0 443266.0 0
153452.0 440628.0 0
154115.0 444258.0 0
158439.0 443661.0 0
164426.0 440392.0 0
162256.0 442917.0 0
166544.0 443594.0 0
171249.0 441394.0 0
175760.0 441022.0 0
179693.0 439501.0 0
179465.0 443327.0 0
182540.0 440450.0 0
186158.0 441078.0 0
189670.0 441613.0 0
192914.0 442355.0 0
197835.0 438859.0 0
196829.0 443233.0 0
202125.0 440962.0 0
206912.0 442245.0 0
211229.0 443201.0 0
214656.0 440170.0 0
218800.0 441318.0 0
223945.0 442436.0 0
227937.0 440024.0 0
229253.0 443190.0 0
232046.0 439439.0 0
236618.0 440268.0 0
240049.0 439145.0 0
241194.0 442465.0 0
248314.0 440615.0 0
251584.0 440589.0 0
255476.0 440073.0 0
262418.0 438113.0 0
264543.0 442029.0 0
266939.0 438788.0 0
269982.0 441535.0 0
273646.0 441430.0 0
276330.0 439440.0 0
280467.0 440455.0 0
285153.0 440755.0 0
289302.0 439040.0 0
293345.0 442479.0 0
297015.0 439605.0 0
299802.0 442423.0 0
302916.0 441803.0 0
305966.0 440506.0 0
306662.0 444493.0 0
310356.0 442110.0 0
313905.0 443864.0 0
314208.0 440531.0 0
317570.0 442645.0 0
320517.0 439554.0 0
322193.0 443371.0 0
324894.0 441435.0 0
328838.0 442995.0 0
331871.0 440383.0 0
333526.0 444143.0 0
335587.0 440557.0 0
337491.0 442474.0 0
340327.0 440807.0 0
341602.0 444754.0 0
345239.0 442582.0 0
348945.0 441389.0 0
353015.0 442977.0 0
355613.0 440603.0 0
358336.0 443168.0 0
360830.0 440418.0 0
363029.0 443829.0 0
364370.0 440744.0 0
368366.0 442430.0 0
365747.0 445413.0 0
372356.0 442057.0 0
376016.0 442557.0 0
379438.0 444347.0 0
382681.0 445223.0 0
385292.0 442979.0 0
388709.0 443043.0 0
390046.0 441126.0 0
392655.0 444075.0 0
390338.0 445922.0 0
396608.0 442529.0 0
396076.0 446186.0 0
399224.0 444488.0 0
401737.0 442359.0 0
404888.0 444512.0 0
408606.0 445556.0 0
83471.1 451381.0 0
86305.7 449159.0 0
88625.6 447104.0 0
88853.2 451385.0 0
92086.7 449327.0 0
95835.7 448404.0 0
99555.9 448235.0 0
103059.0 446578.0 0
104889.0 448834.0 0
101657.0 450973.0 0
107002.0 447556.0 0
110552.0 446265.0 0
109308.0 449474.0 0
114349.0 445969.0 0
113017.0 450072.0 0
119739.0 446879.0 0
117272.0 448372.0 0
119197.0 450949.0 0
122486.0 448982.0 0
127586.0 447728.0 0
130617.0 446965.0 0
126082.0 449673.0 0
129794.0 449918.0 0
133713.0 448767.0 0
137405.0 448840.0 0
140146.0 450938.0 0
141963.0 446863.0 0
145827.0 445535.0 0
144127.0 450085.0 0
146160.0 448539.0 0
149881.0 447717.0 0
154400.0 448226.0 0
158119.0 447570.0 0
162305.0 446954.0 0
170119.0 444799.0 0
166496.0 448022.0 0
169890.0 447507.0 0
174264.0 445606.0 0
178021.0 447005.0 0
181448.0 447050.0 0
183710.0 444144.0 0
190497.0 444833.0 0
187288.0 445014.0 0
189479.0 448409.0 0
193438.0 446369.0 0
196412.0 448366.0 0
200110.0 446083.0 0
204229.0 445094.0 0
205859.0 447378.0 0
208001.0 445755.0 0
211846.0 447915.0 0
215577.0 444430.0 0
219692.0 445897.0 0
216701.0 448664.0 0
223391.0 448148.0 0
227039.0 446407.0 0
230886.0 447316.0 0
233454.0 443758.0 0
234818.0 448023.0 0
237638.0 445052.0 0
241996.0 447481.0 0
245310.0 443570.0 0
249474.0 444340.0 0
246676.0 447766.0 0
253837.0 444984.0 0
250152.0 447938.0 0
260028.0 444031.0 0
264568.0 448011.0 0
267047.0 444103.0 0
268556.0 447793.0 0
271823.0 445337.0 0
275395.0 448671.0 0
277197.0 444308.0 0
282279.0 445290.0 0
286021.0 445606.0 0
288926.0 448059.0 0
289349.0 443913.0 0
293020.0 447683.0 0
297288.0 449188.0 0
297196.0 444860.0 0
302077.0 446483.0 0
307126.0 448438.0 0
311851.0 447286.0 0
315836.0 446556.0 0
320356.0 446973.0 0
324249.0 448604.0 0
325665.0 445302.0 0
327508.0 448622.0 0
330355.0 447021.0 0
337642.0 446016.0 0
334408.0 447697.0 0
340988.0 448531.0 0
345092.0 445723.0 0
347848.0 445894.0 0
344564.0 448473.0 0
349128.0 449134.0 0
350756.0 445232.0 0
352533.0 447929.0 0
355410.0 445743.0 0
358056.0 448666.0 0
360760.0 446135.0 0
363688.0 447226.0 0
361805.0 449888.0 0
364934.0 449702.0 0
367816.0 448634.0 0
370419.0 446227.0 0
370491.0 450344.0 0
371948.0 448969.0 0
374101.0 445872.0 0
377652.0 447324.0 0
374887.0 450163.0 0
382228.0 447644.0 0
379984.0 449637.0 0
384566.0 446642.0 0
387090.0 447007.0 0
385063.0 449799.0 0
388584.0 450714.0 0
393756.0 448034.0 0
390066.0 448880.0 0
391852.0 449727.0 0
398605.0 448503.0 0
394757.0 450939.0 0
396840.0 450387.0 0
401450.0 447015.0 0
400775.0 451346.0 0
403400.0 449739.0 0
405831.0 448010.0 0
408286.0 450097.0 0
411055.0 447970.0 0
414073.0 450148.0 0
73565.1 456421.0 0
77047.7 455193.0 0
80406.4 453507.0 0
82451.9 456685.0 0
85638.8 453499.0 0
86187.7 456528.0 0
89786.0 454494.0 0
93559.7 453139.0 0
94718.1 456293.0 0
97397.4 451711.0 0
98277.3 455234.0 0
102136.0 454675.0 0
105520.0 454428.0 0
105879.0 451438.0 0
108969.0 453321.0 0
112573.0 453450.0 0
116239.0 450988.0 0
116111.0 453666.0 0
119783.0 454553.0 0
123522.0 452627.0 0
126976.0 451847.0 0
125785.0 454722.0 0
129461.0 454219.0 0
132128.0 451867.0 0
135821.0 452430.0 0
138554.0 454483.0 0
143089.0 454421.0 0
146809.0 451008.0 0
149736.0 451593.0 0
152726.0 450947.0 0
155961.0 451368.0 0
152853.0 455050.0 0
157356.0 454670.0 0
159700.0 451361.0 0
163530.0 450904.0 0
162057.0 455214.0 0
168707.0 450646.0 0
166452.0 453214.0 0
169918.0 452809.0 0
171966.0 449905.0 0
172759.0 453890.0 0
176051.0 450669.0 0
180278.0 450670.0 0
185106.0 449470.0 0
182135.0 453699.0 0
185383.0 453977.0 0
188925.0 452708.0 0
192849.0 450988.0 0
196248.0 452715.0 0
198928.0 450225.0 0
200086.0 453775.0 0
202933.0 449592.0 0
207612.0 449818.0 0
210224.0 453387.0 0
213970.0 451415.0 0
216993.0 452411.0 0
219867.0 450168.0 0
219800.0 453715.0 0
223313.0 452733.0 0
227783.0 451357.0 0
232628.0 451582.0 0
238405.0 448993.0 0
236350.0 451256.0 0
240216.0 452724.0 0
244128.0 451218.0 0
248394.0 452372.0 0
253001.0 450149.0 0
256760.0 448615.0 0
256287.0 452498.0 0
260471.0 450847.0 0
264253.0 452507.0 0
267648.0 451759.0 0
271750.0 450495.0 0
276097.0 453087.0 0
280212.0 450047.0 0
283044.0 453843.0 0
285332.0 449949.0 0
290302.0 452261.0 0
294500.0 452330.0 0
298222.0 453780.0 0
300880.0 450542.0 0
302116.0 453624.0 0
304681.0 451227.0 0
308548.0 452812.0 0
310097.0 450414.0 0
312605.0 452405.0 0
316824.0 450812.0 0
321869.0 451458.0 0
326142.0 451883.0 0
333231.0 450486.0 0
329637.0 451288.0 0
331951.0 453837.0 0
337814.0 450397.0 0
335565.0 453996.0 0
339910.0 454594.0 0
342090.0 451547.0 0
344161.0 454593.0 0
346267.0 451883.0 0
349688.0 452795.0 0
352014.0 451415.0 0
353838.0 453139.0 0
355272.0 450728.0 0
354927.0 454591.0 0
356978.0 453512.0 0
359821.0 452212.0 0
361259.0 455694.0 0
364683.0 453331.0 0
368479.0 452927.0 0
372454.0 452649.0 0
374684.0 455340.0 0
377961.0 452941.0 0
382667.0 451441.0 0
382564.0 455005.0 0
386651.0 453682.0 0
391643.0 452256.0 0
390212.0 454441.0 0
398400.0 453336.0 0
395138.0 454656.0 0
403184.0 454178.0 0
400652.0 456183.0 0
405768.0 452238.0 0
405325.0 456527.0 0
407569.0 454495.0 0
410358.0 452760.0 0
413118.0 453560.0 0
413635.0 455963.0 0
417364.0 451993.0 0
416312.0 454802.0 0
420544.0 453212.0 0
420033.0 456658.0 0
423513.0 455507.0 0
67011.4 459765.0 0
70520.1 459436.0 0
74054.9 459314.0 0
74782.1 462012.0 0
77431.1 458332.0 0
85102.4 459261.0 0
80887.3 459934.0 0
88212.8 459010.0 0
91239.4 457213.0 0
91864.9 460150.0 0
98860.1 458124.0 0
95506.4 459690.0 0
102656.0 457898.0 0
100705.0 460790.0 0
104973.0 460959.0 0
106506.0 457350.0 0
109533.0 456101.0 0
109582.0 459178.0 0
113124.0 456842.0 0
113315.0 460570.0 0
116582.0 457219.0 0
120041.0 459026.0 0
123277.0 456593.0 0
123860.0 459949.0 0
127415.0 458150.0 0
133057.0 454702.0 0
131515.0 457744.0 0
133153.0 461020.0 0
135575.0 456926.0 0
139638.0 457611.0 0
142754.0 458786.0 0
147702.0 455106.0 0
145671.0 458950.0 0
149583.0 459060.0 0
152799.0 459149.0 0
155625.0 458005.0 0
158725.0 458053.0 0
162396.0 459552.0 0
165691.0 457312.0 0
169376.0 455802.0 0
168685.0 459702.0 0
172842.0 457942.0 0
177628.0 455682.0 0
182775.0 458100.0 0
187627.0 456847.0 0
192342.0 455994.0 0
196840.0 457092.0 0
201056.0 457609.0 0
204918.0 454196.0 0
208146.0 457251.0 0
211892.0 457843.0 0
214120.0 454476.0 0
216993.0 457382.0 0
222263.0 457061.0 0
226289.0 456029.0 0
230616.0 455710.0 0
235644.0 455633.0 0
244211.0 455444.0 0
240299.0 457303.0 0
248463.0 458338.0 0
252506.0 454995.0 0
256117.0 456389.0 0
258841.0 455019.0 0
262199.0 456094.0 0
266388.0 456044.0 0
271724.0 455522.0 0
276256.0 457039.0 0
279846.0 455444.0 0
284113.0 458556.0 0
286533.0 454452.0 0
289566.0 458064.0 0
292873.0 455513.0 0
295359.0 455622.0 0
298035.0 458159.0 0
301599.0 457026.0 0
305855.0 456269.0 0
311129.0 457778.0 0
315491.0 455073.0 0
315263.0 459306.0 0
317732.0 457717.0 0
320360.0 455064.0 0
320413.0 459406.0 0
323790.0 459500.0 0
329163.0 455156.0 0
325071.0 455547.0 0
328797.0 459708.0 0
333071.0 457491.0 0
337159.0 457173.0 0
340583.0 459195.0 0
342702.0 456862.0 0
347972.0 455745.0 0
345616.0 458690.0 0
352069.0 455147.0 0
351026.0 459294.0 0
358308.0 455538.0 0
356024.0 458202.0 0
360197.0 459327.0 0
368030.0 456465.0 0
365128.0 458329.0 0
371089.0 456202.0 0
370367.0 460114.0 0
374612.0 459660.0 0
378620.0 457654.0 0
381548.0 460162.0 0
387824.0 457333.0 0
384727.0 458813.0 0
392316.0 457322.0 0
389930.0 460962.0 0
397834.0 458165.0 0
395204.0 460155.0 0
403015.0 458791.0 0
400471.0 461348.0 0
407791.0 458557.0 0
405453.0 460677.0 0
410280.0 456365.0 0
412675.0 459639.0 0
415951.0 458622.0 0
417546.0 456850.0 0
417627.0 461274.0 0
423635.0 458642.0 0
420631.0 459969.0 0
425453.0 460037.0 0
426621.0 456720.0 0
428040.0 459006.0 0
429877.0 457991.0 0
431931.0 459833.0 0
434291.0 461712.0 0
58282.0 466652.0 0
61609.7 464649.0 0
65200.1 462869.0 0
65769.0 466321.0 0
69102.4 463088.0 0
72436.9 463027.0 0
70273.5 466433.0 0
74083.3 465774.0 0
77443.3 461861.0 0
77604.6 465181.0 0
80255.6 463603.0 0
84103.9 461987.0 0
82786.5 465507.0 0
87950.3 462674.0 0
86493.0 466895.0 0
94743.9 462891.0 0
92022.9 463516.0 0
90201.7 466117.0 0
98000.1 461876.0 0
96123.5 465116.0 0
98875.2 464254.0 0
102434.0 464473.0 0
108138.0 462463.0 0
105939.0 465312.0 0
111555.0 463499.0 0
115085.0 464591.0 0
116823.0 460878.0 0
118267.0 463960.0 0
121259.0 462912.0 0
129324.0 461086.0 0
125959.0 463288.0 0
130246.0 464421.0 0
134418.0 464955.0 0
137020.0 460736.0 0
138088.0 464137.0 0
140745.0 461402.0 0
141688.0 465040.0 0
143740.0 461878.0 0
145063.0 464704.0 0
147365.0 462208.0 0
151300.0 462493.0 0
155402.0 461493.0 0
157309.0 464665.0 0
159184.0 461491.0 0
165325.0 461208.0 0
162132.0 464905.0 0
167607.0 464344.0 0
172303.0 462975.0 0
175954.0 460214.0 0
177057.0 463661.0 0
179127.0 460320.0 0
181560.0 463855.0 0
186005.0 461380.0 0
189559.0 464354.0 0
190059.0 460086.0 0
193810.0 461562.0 0
197981.0 460634.0 0
202028.0 462128.0 0
204868.0 458645.0 0
208179.0 461706.0 0
213836.0 462698.0 0
220020.0 461675.0 0
225078.0 460482.0 0
228676.0 459040.0 0
228975.0 463482.0 0
232893.0 460569.0 0
237314.0 459659.0 0
239887.0 461152.0 0
243522.0 460256.0 0
251074.0 462704.0 0
253811.0 459621.0 0
258736.0 459991.0 0
264323.0 461530.0 0
269069.0 459558.0 0
269107.0 463153.0 0
274007.0 461532.0 0
279245.0 460020.0 0
287581.0 463502.0 0
291662.0 462348.0 0
294372.0 459505.0 0
294869.0 464125.0 0
298685.0 462776.0 0
304081.0 459806.0 0
301341.0 460356.0 0
303470.0 463379.0 0
307023.0 461127.0 0
310616.0 463549.0 0
314477.0 462651.0 0
318102.0 461360.0 0
321428.0 462697.0 0
325896.0 463815.0 0
332926.0 461539.0 0
336463.0 460401.0 0
335901.0 464402.0 0
339995.0 463540.0 0
343810.0 462115.0 0
345941.0 464175.0 0
347837.0 462233.0 0
352101.0 464458.0 0
355620.0 462229.0 0
359283.0 463108.0 0
363313.0 462303.0 0
362809.0 465607.0 0
367389.0 461829.0 0
370634.0 463646.0 0
378288.0 462440.0 0
374287.0 464761.0 0
382765.0 463565.0 0
386353.0 462475.0 0
387639.0 465697.0 0
389136.0 464568.0 0
393137.0 464000.0 0
397919.0 464181.0 0
401909.0 466458.0 0
403365.0 463593.0 0
409754.0 461075.0 0
407325.0 464207.0 0
414376.0 462921.0 0
411552.0 464785.0 0
416105.0 465753.0 0
419409.0 465001.0 0
422693.0 462683.0 0
423790.0 465329.0 0
426334.0 462630.0 0
429610.0 461920.0 0
426645.0 466250.0 0
429226.0 464856.0 0
432673.0 463904.0 0
431554.0 466382.0 0
437060.0 463504.0 0
440005.0 465011.0 0
435640.0 465940.0 0
442508.0 467011.0 0
48034.0 472345.0 0
51985.6 470933.0 0
54966.5 468011.0 0
55629.8 470584.0 0
59428.2 469882.0 0
62668.3 467443.0 0
63679.1 470244.0 0
67374.4 469211.0 0
72870.6 469488.0 0
75825.5 468540.0 0
79841.9 468723.0 0
84129.0 469287.0 0
82656.2 472623.0 0
86916.5 471586.0 0
93280.7 466678.0 0
90074.7 469614.0 0
94832.9 470069.0 0
98586.2 468143.0 0
103011.0 468521.0 0
109001.0 466580.0 0
106046.0 468074.0 0
109052.0 470615.0 0
112219.0 466873.0 0
115314.0 467414.0 0
113496.0 469638.0 0
118078.0 466870.0 0
117361.0 470532.0 0
122283.0 467366.0 0
125255.0 470295.0 0
127108.0 467311.0 0
127878.0 470284.0 0
134827.0 468250.0 0
131418.0 468162.0 0
135079.0 471283.0 0
138069.0 467941.0 0
142306.0 468784.0 0
145310.0 467155.0 0
148958.0 466030.0 0
153474.0 465575.0 0
151655.0 469388.0 0
156848.0 469040.0 0
161577.0 469785.0 0
166274.0 468537.0 0
170809.0 467726.0 0
174765.0 467025.0 0
178438.0 467648.0 0
182529.0 469296.0 0
185544.0 465843.0 0
187706.0 469108.0 0
192911.0 467622.0 0
197182.0 464702.0 0
197326.0 468786.0 0
205220.0 465575.0 0
200873.0 467237.0 0
204537.0 469869.0 0
209497.0 467165.0 0
213938.0 467631.0 0
217856.0 465975.0 0
220606.0 468919.0 0
224059.0 465560.0 0
228857.0 468427.0 0
233035.0 466128.0 0
236714.0 463763.0 0
237112.0 468356.0 0
241245.0 465175.0 0
243919.0 468814.0 0
246581.0 464334.0 0
247770.0 468688.0 0
251373.0 466911.0 0
255418.0 464316.0 0
257768.0 467239.0 0
260027.0 464889.0 0
263501.0 466839.0 0
267344.0 466485.0 0
271439.0 465673.0 0
275512.0 467332.0 0
278235.0 464422.0 0
282417.0 464021.0 0
280165.0 468672.0 0
284967.0 468539.0 0
291748.0 465970.0 0
289284.0 468792.0 0
294461.0 467701.0 0
297923.0 466967.0 0
301091.0 466144.0 0
307169.0 464834.0 0
304630.0 467655.0 0
309715.0 469183.0 0
314209.0 467052.0 0
318032.0 464875.0 0
317968.0 468887.0 0
322356.0 467309.0 0
327329.0 468596.0 0
330778.0 465502.0 0
335175.0 468836.0 0
339639.0 467768.0 0
343899.0 466728.0 0
348203.0 466428.0 0
351904.0 469211.0 0
356397.0 466903.0 0
360220.0 466877.0 0
360323.0 470370.0 0
363722.0 469040.0 0
367357.0 465819.0 0
367657.0 470424.0 0
371254.0 471633.0 0
371498.0 467906.0 0
373593.0 470503.0 0
376396.0 469464.0 0
379844.0 466659.0 0
380508.0 470966.0 0
383046.0 469444.0 0
384821.0 466751.0 0
387650.0 469923.0 0
390417.0 467193.0 0
392389.0 470659.0 0
394528.0 468106.0 0
398296.0 468680.0 0
405393.0 467059.0 0
401631.0 470047.0 0
403934.0 469072.0 0
409264.0 467916.0 0
407240.0 469824.0 0
413007.0 467776.0 0
411379.0 470214.0 0
416070.0 469560.0 0
419567.0 468682.0 0
422415.0 467415.0 0
424777.0 469814.0 0
429685.0 468321.0 0
428031.0 470272.0 0
434333.0 468577.0 0
432273.0 470899.0 0
438422.0 467308.0 0
437605.0 470975.0 0
440785.0 469337.0 0
445330.0 468752.0 0
443385.0 471064.0 0
447985.0 471119.0 0
451460.0 472083.0 0
41979.9 476958.0 0
44931.1 474446.0 0
47729.1 476185.0 0
51197.7 474282.0 0
53291.4 477177.0 0
54757.6 473819.0 0
56624.2 472865.0 0
56602.9 475813.0 0
59564.5 473562.0 0
63286.0 472776.0 0
61011.2 476806.0 0
65297.5 475946.0 0
69501.6 473196.0 0
74062.1 473478.0 0
76096.3 471520.0 0
75453.8 476095.0 0
78957.5 474370.0 0
85076.3 475730.0 0
88923.3 474509.0 0
91792.5 473007.0 0
93907.7 475758.0 0
96618.4 473005.0 0
98968.9 475863.0 0
100578.0 471792.0 0
105054.0 471834.0 0
103273.0 475418.0 0
107809.0 475510.0 0
112841.0 474413.0 0
117530.0 474578.0 0
121647.0 472442.0 0
126523.0 473466.0 0
130759.0 471925.0 0
130143.0 475335.0 0
133507.0 474516.0 0
139181.0 472130.0 0
143159.0 472627.0 0
147071.0 470638.0 0
150149.0 473231.0 0
153567.0 472711.0 0
158750.0 474653.0 0
164393.0 473320.0 0
169910.0 472583.0 0
174250.0 470403.0 0
174634.0 474439.0 0
178010.0 471640.0 0
181270.0 473370.0 0
185200.0 473203.0 0
190394.0 473193.0 0
195482.0 472171.0 0
200063.0 471656.0 0
207743.0 471762.0 0
212023.0 471985.0 0
215592.0 474003.0 0
216446.0 470239.0 0
219545.0 472929.0 0
224492.0 471352.0 0
228601.0 473345.0 0
233318.0 471409.0 0
237636.0 472366.0 0
240419.0 469195.0 0
241633.0 472712.0 0
246411.0 473149.0 0
250871.0 471576.0 0
255116.0 469707.0 0
257217.0 472831.0 0
260375.0 470222.0 0
265485.0 471140.0 0
270970.0 470330.0 0
275875.0 471549.0 0
279437.0 472805.0 0
284208.0 473570.0 0
289894.0 473686.0 0
292810.0 470064.0 0
294399.0 473073.0 0
296569.0 470490.0 0
301086.0 470511.0 0
305406.0 471926.0 0
308677.0 474617.0 0
311814.0 473277.0 0
315398.0 472181.0 0
320315.0 472061.0 0
324318.0 471241.0 0
327847.0 472752.0 0
331163.0 470883.0 0
334990.0 473303.0 0
339199.0 471698.0 0
342423.0 474055.0 0
343239.0 470799.0 0
347720.0 470507.0 0
346345.0 474287.0 0
351581.0 474229.0 0
356095.0 471558.0 0
360287.0 473569.0 0
364261.0 473256.0 0
368802.0 474736.0 0
374542.0 474652.0 0
378253.0 473088.0 0
381778.0 474456.0 0
384505.0 472594.0 0
387385.0 474416.0 0
390274.0 473165.0 0
393508.0 474469.0 0
395884.0 471989.0 0
399918.0 472559.0 0
397558.0 475128.0 0
404524.0 472571.0 0
402194.0 475923.0 0
409256.0 472925.0 0
413783.0 472871.0 0
417848.0 473070.0 0
417807.0 476304.0 0
421205.0 471486.0 0
422443.0 475594.0 0
429791.0 473182.0 0
425671.0 473509.0 0
428139.0 476150.0 0
434785.0 473429.0 0
432549.0 475683.0 0
436643.0 475839.0 0
439734.0 474148.0 0
441822.0 472135.0 0
444911.0 473209.0 0
443297.0 475933.0 0
448221.0 474702.0 0
451661.0 475179.0 0
454534.0 474250.0 0
457184.0 475714.0 0
459841.0 477390.0 0
38611.4 478697.0 0
35382.6 480668.0 0
40304.6 481430.0 0
43442.9 482345.0 0
44735.1 479075.0 0
47425.5 480998.0 0
50124.9 478989.0 0
51449.8 482402.0 0
57742.2 478112.0 0
55067.6 480073.0 0
57986.2 481319.0 0
60899.2 480422.0 0
64530.1 480138.0 0
68063.0 479352.0 0
71559.4 477879.0 0
70385.4 481592.0 0
74619.7 480440.0 0
78077.8 478949.0 0
81403.6 477263.0 0
80616.8 480890.0 0
83380.5 479126.0 0
87087.1 478862.0 0
89200.9 481839.0 0
90123.0 477179.0 0
92535.1 479775.0 0
96345.6 478516.0 0
100782.0 480195.0 0
105001.0 478592.0 0
108000.0 479424.0 0
111322.0 478835.0 0
119108.0 476765.0 0
115684.0 477998.0 0
122957.0 476870.0 0
124066.0 481063.0 0
127568.0 477714.0 0
128293.0 481337.0 0
132863.0 478687.0 0
136838.0 475324.0 0
138175.0 479340.0 0
141385.0 476034.0 0
146245.0 475531.0 0
147917.0 479374.0 0
154412.0 475544.0 0
151100.0 476740.0 0
155271.0 478798.0 0
162830.0 477527.0 0
166887.0 477872.0 0
171252.0 477048.0 0
174826.0 479405.0 0
178264.0 475807.0 0
179228.0 479358.0 0
182137.0 477014.0 0
186756.0 478161.0 0
191323.0 477498.0 0
193971.0 475823.0 0
194191.0 479238.0 0
198435.0 476523.0 0
204021.0 475077.0 0
207319.0 479588.0 0
208675.0 475337.0 0
212507.0 477986.0 0
217919.0 477485.0 0
222790.0 475780.0 0
226914.0 478183.0 0
231410.0 475741.0 0
235730.0 476454.0 0
239840.0 476149.0 0
243981.0 477926.0 0
248641.0 476915.0 0
253791.0 475985.0 0
259863.0 475301.0 0
264445.0 475570.0 0
268886.0 474931.0 0
273269.0 474420.0 0
272006.0 478045.0 0
276615.0 474598.0 0
275370.0 477106.0 0
279705.0 477866.0 0
284300.0 478459.0 0
287438.0 477182.0 0
290704.0 478607.0 0
294124.0 476743.0 0
298767.0 475067.0 0
300978.0 479292.0 0
304061.0 476256.0 0
308603.0 478889.0 0
313274.0 476959.0 0
319009.0 476960.0 0
323753.0 474824.0 0
324447.0 479651.0 0
327615.0 476544.0 0
329620.0 479560.0 0
331552.0 475566.0 0
335415.0 477031.0 0
338934.0 475762.0 0
343345.0 478303.0 0
348769.0 478447.0 0
353752.0 479583.0 0
357125.0 476241.0 0
359818.0 478979.0 0
362183.0 476798.0 0
366527.0 478528.0 0
371600.0 478034.0 0
379019.0 476611.0 0
376631.0 480271.0 0
382274.0 477768.0 0
380821.0 479750.0 0
383875.0 480383.0 0
385405.0 476790.0 0
390107.0 476865.0 0
387575.0 480182.0 0
394882.0 478084.0 0
392028.0 480981.0 0
399245.0 478595.0 0
402702.0 479021.0 0
405140.0 479524.0 0
406943.0 476486.0 0
410121.0 480804.0 0
411602.0 476407.0 0
415033.0 476301.0 0
414569.0 479252.0 0
416938.0 479152.0 0
420507.0 479342.0 0
423919.0 480061.0 0
426130.0 478115.0 0
426354.0 482080.0 0
428712.0 480139.0 0
430570.0 478005.0 0
432379.0 480338.0 0
434762.0 478132.0 0
439433.0 478460.0 0
436692.0 480798.0 0
443242.0 480810.0 0
446933.0 478030.0 0
447673.0 481823.0 0
450999.0 478485.0 0
454523.0 478031.0 0
451028.0 481751.0 0
454305.0 481663.0 0
457593.0 479737.0 0
460395.0 482070.0 0
462413.0 479263.0 0
465183.0 481690.0 0
28670.5 484478.0 0
25988.8 486836.0 0
32197.5 482928.0 0
31293.7 486861.0 0
34723.8 484440.0 0
37262.6 483098.0 0
34840.9 487017.0 0
37999.3 486022.0 0
40633.7 484758.0 0
43518.3 486254.0 0
40340.1 487742.0 0
46859.7 484013.0 0
46942.8 487828.0 0
50417.9 486142.0 0
54948.0 483840.0 0
57641.8 483507.0 0
54721.8 487285.0 0
60630.4 483646.0 0
58927.4 486190.0 0
63910.7 483621.0 0
67457.3 482454.0 0
66444.2 485972.0 0
69776.3 485275.0 0
72813.1 483298.0 0
77048.7 483057.0 0
74340.2 486489.0 0
77868.4 486037.0 0
80242.5 483956.0 0
82679.0 486141.0 0
84254.2 482074.0 0
86695.4 484837.0 0
92547.1 483790.0 0
95233.3 485310.0 0
95822.0 481805.0 0
98587.6 484124.0 0
100295.0 486490.0 0
102297.0 484609.0 0
105140.0 482233.0 0
104745.0 485838.0 0
109175.0 482906.0 0
106684.0 484752.0 0
113865.0 482017.0 0
111340.0 486224.0 0
119020.0 481060.0 0
121378.0 484850.0 0
125518.0 484699.0 0
131679.0 482968.0 0
135539.0 483451.0 0
140082.0 483980.0 0
143533.0 480272.0 0
144403.0 485208.0 0
147343.0 482902.0 0
151519.0 481617.0 0
155826.0 482263.0 0
160181.0 480662.0 0
165209.0 482609.0 0
170061.0 481537.0 0
173103.0 484245.0 0
177545.0 483104.0 0
182251.0 481955.0 0
186797.0 483503.0 0
190698.0 481015.0 0
193760.0 482696.0 0
197647.0 481675.0 0
202562.0 480253.0 0
201139.0 484741.0 0
205694.0 483957.0 0
210892.0 483862.0 0
216164.0 482050.0 0
221556.0 480292.0 0
224486.0 482824.0 0
228721.0 483271.0 0
231878.0 479618.0 0
232558.0 483362.0 0
235808.0 481440.0 0
239439.0 479735.0 0
241834.0 481283.0 0
245021.0 483097.0 0
250010.0 481101.0 0
257843.0 479236.0 0
254651.0 481191.0 0
262241.0 479975.0 0
267568.0 479779.0 0
271918.0 482132.0 0
275302.0 480401.0 0
278517.0 483184.0 0
274614.0 484143.0 0
282828.0 482400.0 0
287432.0 481806.0 0
291872.0 483297.0 0
294011.0 480278.0 0
297473.0 479819.0 0
295870.0 483793.0 0
299960.0 483522.0 0
304422.0 481938.0 0
308698.0 482985.0 0
312587.0 481826.0 0
316485.0 480748.0 0
316443.0 484550.0 0
320526.0 483147.0 0
325141.0 484331.0 0
328106.0 482442.0 0
333475.0 479913.0 0
331346.0 483134.0 0
338402.0 480466.0 0
335309.0 483961.0 0
339749.0 484897.0 0
342709.0 482697.0 0
346427.0 481919.0 0
350678.0 483525.0 0
358079.0 480956.0 0
355585.0 484754.0 0
359652.0 483792.0 0
362317.0 480988.0 0
362879.0 484457.0 0
366368.0 482893.0 0
370955.0 482118.0 0
374633.0 484048.0 0
378524.0 486071.0 0
381651.0 482948.0 0
385788.0 484025.0 0
389198.0 483852.0 0
392731.0 484707.0 0
397530.0 483071.0 0
402000.0 481647.0 0
402473.0 484720.0 0
405833.0 483126.0 0
409739.0 485629.0 0
414737.0 483609.0 0
418174.0 481972.0 0
419155.0 486174.0 0
422445.0 483689.0 0
430160.0 482818.0 0
427315.0 485509.0 0
430453.0 486800.0 0
434306.0 482338.0 0
432452.0 484637.0 0
439957.0 482920.0 0
436691.0 485404.0 0
441923.0 486934.0 0
444955.0 484347.0 0
449250.0 486244.0 0
453059.0 485026.0 0
457022.0 484414.0 0
464192.0 484683.0 0
461402.0 484927.0 0
468759.0 483555.0 0
467013.0 486920.0 0
470533.0 487003.0 0
472220.0 484793.0 0
474796.0 487628.0 0
17038.6 491717.0 0
22737.3 487765.0 0
20479.8 490299.0 0
24517.3 490363.0 0
28435.9 488885.0 0
27559.8 492447.0 0
31293.2 491413.0 0
37526.6 488980.0 0
34126.4 490116.0 0
36701.5 491956.0 0
39710.8 490436.0 0
43244.8 490411.0 0
47216.4 491284.0 0
50865.7 490016.0 0
55095.4 490897.0 0
62836.3 487407.0 0
58466.6 489660.0 0
61362.1 491040.0 0
67210.5 488384.0 0
64928.0 490742.0 0
70644.3 488414.0 0
68840.3 491049.0 0
73169.3 490071.0 0
77072.0 489617.0 0
79862.9 487730.0 0
81570.5 490698.0 0
85588.7 488684.0 0
89347.0 490579.0 0
89891.2 486331.0 0
93135.2 487559.0 0
97421.4 488175.0 0
102538.0 489212.0 0
107280.0 487299.0 0
106267.0 491367.0 0
109654.0 489871.0 0
112685.0 489502.0 0
116431.0 486513.0 0
114882.0 491214.0 0
118174.0 490910.0 0
123979.0 488113.0 0
120337.0 488131.0 0
121704.0 491016.0 0
129044.0 485349.0 0
128419.0 489320.0 0
132797.0 486977.0 0
136720.0 487530.0 0
140859.0 487886.0 0
145099.0 489208.0 0
147757.0 489597.0 0
149335.0 486692.0 0
153781.0 485482.0 0
154163.0 490245.0 0
158500.0 485783.0 0
159800.0 489992.0 0
162032.0 484501.0 0
164190.0 487157.0 0
168843.0 485868.0 0
172278.0 488054.0 0
175699.0 486575.0 0
179783.0 486461.0 0
183561.0 486036.0 0
186781.0 488307.0 0
190744.0 485063.0 0
190884.0 488503.0 0
195758.0 486932.0 0
200463.0 489122.0 0
204188.0 487562.0 0
207881.0 488388.0 0
212377.0 489193.0 0
215269.0 485947.0 0
220141.0 485240.0 0
225294.0 486919.0 0
230529.0 488245.0 0
234721.0 485660.0 0
239644.0 485121.0 0
244107.0 488411.0 0
248825.0 486664.0 0
253535.0 485273.0 0
258710.0 484072.0 0
256752.0 488904.0 0
260603.0 488787.0 0
264883.0 485672.0 0
269287.0 483923.0 0
271586.0 486764.0 0
276552.0 487827.0 0
281635.0 487039.0 0
285542.0 485704.0 0
289447.0 486938.0 0
293761.0 487245.0 0
297505.0 486736.0 0
301850.0 488509.0 0
306834.0 486600.0 0
311159.0 486084.0 0
314049.0 485467.0 0
315136.0 488670.0 0
318714.0 487253.0 0
322930.0 488449.0 0
326642.0 486984.0 0
329032.0 485591.0 0
332363.0 486643.0 0
336713.0 488185.0 0
341270.0 488382.0 0
346102.0 486796.0 0
351748.0 488197.0 0
356118.0 489130.0 0
360424.0 487793.0 0
365642.0 487179.0 0
369639.0 486277.0 0
369151.0 490148.0 0
373455.0 486348.0 0
372061.0 488957.0 0
375628.0 489394.0 0
383740.0 487674.0 0
380202.0 491377.0 0
389806.0 488528.0 0
394357.0 491003.0 0
395468.0 487669.0 0
397434.0 490359.0 0
400652.0 487614.0 0
405882.0 487545.0 0
412902.0 486604.0 0
411441.0 489777.0 0
416039.0 488781.0 0
423821.0 487507.0 0
420798.0 490328.0 0
424444.0 490192.0 0
427576.0 489502.0 0
433742.0 487641.0 0
430946.0 489668.0 0
434257.0 490462.0 0
437850.0 489365.0 0
442114.0 490962.0 0
446281.0 489545.0 0
454625.0 487341.0 0
451981.0 489545.0 0
455610.0 489894.0 0
458973.0 487912.0 0
463143.0 488367.0 0
467376.0 490531.0 0
471620.0 490913.0 0
476025.0 492044.0 0
478498.0 489794.0 0
481887.0 491669.0 0
9649.3 497559.0 0
14049.2 495217.0 0
18155.3 494152.0 0
18854.5 497061.0 0
21553.1 493575.0 0
24846.8 494100.0 0
26358.1 496844.0 0
22481.1 497582.0 0
29907.8 495229.0 0
34030.2 494922.0 0
37397.0 497788.0 0
39761.3 494453.0 0
44240.3 494707.0 0
48552.6 494480.0 0
52637.3 493477.0 0
50865.3 497590.0 0
55017.4 496468.0 0
57777.6 493424.0 0
61934.5 494239.0 0
66439.4 494454.0 0
71431.8 493001.0 0
75069.0 492467.0 0
78533.8 493269.0 0
74405.5 495415.0 0
82722.6 494973.0 0
84810.0 491885.0 0
86632.4 493941.0 0
94081.1 491306.0 0
90725.4 495137.0 0
98492.3 491870.0 0
95746.4 496218.0 0
101653.0 494618.0 0
106154.0 495203.0 0
110973.0 494109.0 0
116018.0 494927.0 0
119719.0 493801.0 0
123002.0 494041.0 0
124786.0 491425.0 0
127628.0 494139.0 0
133381.0 491713.0 0
138002.0 490264.0 0
137717.0 493183.0 0
141425.0 491453.0 0
145330.0 493249.0 0
149239.0 491582.0 0
148452.0 495066.0 0
151982.0 494737.0 0
156987.0 495042.0 0
161869.0 493387.0 0
167914.0 489907.0 0
164275.0 490634.0 0
166140.0 494053.0 0
171374.0 491380.0 0
173119.0 493495.0 0
176790.0 491241.0 0
181092.0 493951.0 0
182279.0 489889.0 0
185157.0 492834.0 0
189265.0 491890.0 0
193211.0 490957.0 0
192326.0 494187.0 0
197495.0 493525.0 0
204222.0 492323.0 0
209476.0 493103.0 0
214531.0 494179.0 0
217083.0 489596.0 0
219074.0 493614.0 0
221949.0 490183.0 0
226497.0 491486.0 0
230054.0 492637.0 0
235647.0 490146.0 0
240214.0 490192.0 0
243365.0 493570.0 0
248005.0 492206.0 0
252509.0 490347.0 0
256278.0 493436.0 0
263498.0 491593.0 0
268290.0 490783.0 0
273002.0 491125.0 0
276425.0 491549.0 0
280410.0 492032.0 0
285912.0 490503.0 0
291545.0 491580.0 0
296451.0 490375.0 0
299744.0 493229.0 0
304131.0 494271.0 0
306534.0 490769.0 0
309095.0 494651.0 0
310739.0 490229.0 0
314572.0 493606.0 0
319034.0 491353.0 0
323907.0 493835.0 0
328778.0 490624.0 0
333257.0 489992.0 0
331612.0 494571.0 0
335551.0 493337.0 0
339598.0 491439.0 0
344117.0 491953.0 0
348786.0 491841.0 0
353593.0 492894.0 0
359172.0 493037.0 0
364633.0 491866.0 0
369503.0 494123.0 0
372565.0 491982.0 0
376251.0 492915.0 0
378346.0 495863.0 0
382363.0 495576.0 0
385526.0 492436.0 0
389581.0 492720.0 0
389186.0 495886.0 0
392958.0 493823.0 0
400785.0 491313.0 0
397704.0 493795.0 0
404345.0 491303.0 0
402648.0 494854.0 0
407891.0 491414.0 0
407405.0 495344.0 0
411365.0 493668.0 0
416263.0 493732.0 0
421350.0 494474.0 0
425880.0 493387.0 0
431069.0 493831.0 0
435042.0 496487.0 0
436042.0 493365.0 0
439680.0 492580.0 0
439444.0 496423.0 0
444901.0 495121.0 0
449628.0 492469.0 0
450542.0 496719.0 0
454331.0 493815.0 0
459046.0 492251.0 0
458895.0 495798.0 0
463094.0 491926.0 0
462896.0 496148.0 0
466475.0 493954.0 0
469772.0 495360.0 0
466489.0 498112.0 0
474274.0 495396.0 0
478818.0 494442.0 0
481378.0 497697.0 0
482008.0 494730.0 0
485160.0 493440.0 0
483857.0 495674.0 0
484844.0 497731.0 0
488096.0 496165.0 0
5777.33 498841.0 0
2155.45 500026.0 0
9524.74 501291.0 0
6224.78 501817.0 0
12822.5 499637.0 0
17034.8 500203.0 0
21429.9 500698.0 0
25210.2 500507.0 0
29644.9 499172.0 0
33804.8 498924.0 0
37067.1 501548.0 0
41467.5 499106.0 0
46342.3 498355.0 0
49783.9 501544.0 0
54022.3 499807.0 0
57062.0 501766.0 0
58680.6 497712.0 0
63006.5 497708.0 0
60706.7 500740.0 0
66473.5 498308.0 0
70178.1 496481.0 0
69080.2 500260.0 0
73068.4 498881.0 0
78102.2 497509.0 0
79594.7 501727.0 0
82956.7 499432.0 0
86934.7 497573.0 0
90951.4 499195.0 0
94304.8 500830.0 0
99539.1 500358.0 0
103815.0 498756.0 0
107783.0 499084.0 0
112872.0 499568.0 0
116711.0 498030.0 0
120052.0 497437.0 0
123968.0 497192.0 0
127190.0 498956.0 0
131260.0 496512.0 0
133205.0 498873.0 0
135625.0 496564.0 0
138580.0 499162.0 0
140999.0 495595.0 0
142385.0 499392.0 0
145345.0 497136.0 0
149079.0 498631.0 0
153410.0 499032.0 0
157860.0 500377.0 0
161796.0 497358.0 0
166845.0 499354.0 0
170360.0 495328.0 0
174830.0 496421.0 0
178912.0 497916.0 0
183712.0 497229.0 0
188506.0 496503.0 0
193225.0 497608.0 0
197497.0 499230.0 0
202106.0 497052.0 0
206809.0 496991.0 0
211299.0 497644.0 0
219726.0 497300.0 0
215806.0 499130.0 0
223195.0 494678.0 0
223780.0 498866.0 0
227750.0 496155.0 0
233102.0 495645.0 0
238380.0 494520.0 0
241732.0 498348.0 0
247118.0 498119.0 0
252013.0 495474.0 0
259420.0 499455.0 0
256081.0 497841.0 0
260533.0 495317.0 0
262691.0 499050.0 0
265977.0 496024.0 0
270602.0 495030.0 0
269848.0 499063.0 0
275547.0 495845.0 0
280814.0 497152.0 0
284148.0 494666.0 0
287863.0 495108.0 0
285049.0 498592.0 0
291400.0 496207.0 0
295712.0 495820.0 0
300599.0 497807.0 0
304996.0 499170.0 0
309067.0 499321.0 0
312264.0 497003.0 0
312134.0 499807.0 0
315731.0 499484.0 0
319219.0 496129.0 0
322744.0 497756.0 0
326269.0 499066.0 0
328170.0 495378.0 0
330910.0 498319.0 0
335517.0 498574.0 0
340872.0 496402.0 0
346374.0 495933.0 0
344652.0 500084.0 0
350232.0 495840.0 0
348945.0 499858.0 0
353781.0 498229.0 0
356410.0 495841.0 0
362698.0 496225.0 0
359387.0 498456.0 0
366298.0 496402.0 0
373723.0 496241.0 0
369431.0 498205.0 0
377222.0 499757.0 0
380716.0 498859.0 0
384134.0 499638.0 0
385919.0 496867.0 0
388594.0 500203.0 0
395987.0 497070.0 0
392483.0 498496.0 0
396472.0 501140.0 0
400479.0 498714.0 0
404906.0 498703.0 0
408721.0 500355.0 0
412116.0 497506.0 0
416356.0 498816.0 0
420003.0 497954.0 0
424595.0 497908.0 0
425669.0 501896.0 0
428471.0 497137.0 0
429080.0 500196.0 0
432217.0 498479.0 0
436974.0 500289.0 0
442482.0 500072.0 0
447480.0 499413.0 0
451564.0 500821.0 0
455735.0 498844.0 0
460463.0 498947.0 0
460163.0 502091.0 0
467354.0 501676.0 0
463603.0 500455.0 0
471391.0 499733.0 0
476965.0 499094.0 0
481554.0 501343.0 0
484842.0 500430.0 0
488640.0 500827.0 0
493627.0 502069.0 0
492044.0 498252.0 0
495433.0 499012.0 0
497909.0 500078.0 0
2556.0 503290.0 0
8898.87 504220.0 0
6400.34 504908.0 0
8409.92 507362.0 0
12787.0 503782.0 0
12032.8 507889.0 0
20026.9 503511.0 0
17024.3 504523.0 0
19877.3 506703.0 0
23482.3 503966.0 0
25967.6 506170.0 0
27768.2 502974.0 0
29462.3 506533.0 0
32621.3 503225.0 0
32988.3 507285.0 0
36725.7 506224.0 0
40334.1 503479.0 0
44924.4 503299.0 0
46149.3 507840.0 0
49230.4 505350.0 0
53139.1 503437.0 0
56510.3 505568.0 0
60225.1 504032.0 0
64301.0 501722.0 0
63325.7 506062.0 0
67723.5 504350.0 0
71915.0 502779.0 0
75604.5 501426.0 0
74411.1 504770.0 0
77529.1 504359.0 0
82427.7 504647.0 0
87018.4 502450.0 0
91429.3 502837.0 0
96052.6 503296.0 0
104191.0 502776.0 0
99634.6 506410.0 0
108844.0 503615.0 0
113593.0 504782.0 0
117587.0 501651.0 0
122815.0 501078.0 0
120602.0 503606.0 0
126751.0 503140.0 0
130663.0 500407.0 0
130602.0 504077.0 0
135001.0 502084.0 0
140396.0 502680.0 0
145518.0 501825.0 0
150288.0 502800.0 0
154453.0 503775.0 0
159324.0 505518.0 0
162106.0 501628.0 0
169877.0 503371.0 0
172023.0 499594.0 0
173949.0 503178.0 0
175564.0 500095.0 0
177787.0 502553.0 0
181954.0 501601.0 0
186397.0 500990.0 0
189388.0 504579.0 0
190157.0 500318.0 0
193759.0 502352.0 0
198130.0 504448.0 0
204594.0 500674.0 0
200892.0 500992.0 0
202246.0 503656.0 0
208605.0 501082.0 0
212657.0 501382.0 0
219980.0 501283.0 0
223767.0 503046.0 0
228143.0 501337.0 0
233038.0 501095.0 0
237175.0 499403.0 0
243588.0 502037.0 0
239856.0 501996.0 0
252230.0 500297.0 0
256827.0 502252.0 0
261475.0 503135.0 0
265976.0 501080.0 0
273883.0 501079.0 0
269934.0 503628.0 0
277728.0 499903.0 0
278179.0 504009.0 0
280437.0 500772.0 0
283245.0 502776.0 0
287183.0 503842.0 0
289360.0 499785.0 0
293883.0 500374.0 0
291435.0 504073.0 0
297638.0 500286.0 0
296495.0 504375.0 0
301752.0 502777.0 0
307246.0 503865.0 0
311842.0 502895.0 0
315973.0 504457.0 0
321165.0 502226.0 0
326137.0 503365.0 0
330064.0 502611.0 0
334537.0 503166.0 0
339834.0 502459.0 0
345222.0 504533.0 0
349416.0 503887.0 0
352218.0 501946.0 0
356680.0 502215.0 0
360708.0 502655.0 0
363035.0 505434.0 0
364605.0 500652.0 0
369093.0 501894.0 0
373118.0 500793.0 0
371922.0 505061.0 0
376318.0 504016.0 0
380856.0 503280.0 0
385725.0 503782.0 0
389887.0 504387.0 0
392889.0 502713.0 0
396623.0 505114.0 0
400605.0 503402.0 0
404379.0 502068.0 0
407406.0 504167.0 0
410879.0 503953.0 0
413311.0 501491.0 0
414723.0 505853.0 0
421319.0 501707.0 0
417364.0 502392.0 0
419957.0 505869.0 0
424340.0 505651.0 0
429149.0 504394.0 0
432574.0 502439.0 0
435986.0 504513.0 0
439978.0 503995.0 0
446283.0 502054.0 0
443888.0 504005.0 0
447724.0 506275.0 0
448974.0 502737.0 0
452221.0 505016.0 0
456089.0 503488.0 0
459864.0 505880.0 0
464083.0 504290.0 0
463461.0 507923.0 0
470533.0 503362.0 0
468156.0 504933.0 0
471966.0 506953.0 0
474305.0 503421.0 0
477447.0 507124.0 0
478272.0 503320.0 0
481491.0 504958.0 0
484708.0 503518.0 0
488625.0 504643.0 0
484787.0 506978.0 0
492705.0 506375.0 0
497333.0 503785.0 0
3454.39 507626.0 0
1342.91 510734.0 0
9767.84 510831.0 0
6213.56 511371.0 0
13944.7 511717.0 0
16223.3 507905.0 0
19059.7 511282.0 0
22904.4 508584.0 0
26576.7 509839.0 0
30562.0 510678.0 0
34723.3 509763.0 0
41154.1 508090.0 0
37552.1 510986.0 0
43915.3 511387.0 0
52415.8 507250.0 0
49235.0 508786.0 0
51833.2 511887.0 0
55893.0 509247.0 0
59561.8 507658.0 0
58930.3 511379.0 0
62888.7 510049.0 0
66883.5 508784.0 0
71334.4 507228.0 0
70032.0 511450.0 0
75253.3 507755.0 0
73608.5 510636.0 0
77259.8 511331.0 0
78877.9 507522.0 0
82071.2 509976.0 0
85440.7 506960.0 0
86447.8 509679.0 0
89168.2 506591.0 0
89086.9 509664.0 0
93667.6 505967.0 0
91735.0 509663.0 0
95228.3 509554.0 0
102175.0 510695.0 0
105010.0 507024.0 0
109960.0 508174.0 0
114568.0 509474.0 0
117837.0 506430.0 0
119536.0 511157.0 0
123129.0 506446.0 0
128379.0 507645.0 0
131338.0 509987.0 0
132942.0 506935.0 0
137550.0 506616.0 0
142808.0 506580.0 0
147445.0 505496.0 0
146624.0 509165.0 0
151117.0 507609.0 0
155223.0 507687.0 0
158173.0 510157.0 0
165218.0 505338.0 0
167404.0 509823.0 0
171135.0 507053.0 0
176119.0 507530.0 0
180394.0 505553.0 0
184592.0 505418.0 0
187692.0 509187.0 0
193855.0 507506.0 0
198660.0 509179.0 0
201366.0 506661.0 0
205803.0 505136.0 0
208184.0 509479.0 0
210886.0 505211.0 0
213205.0 509539.0 0
216377.0 504809.0 0
221871.0 507116.0 0
226765.0 506115.0 0
225437.0 509516.0 0
231373.0 505651.0 0
236541.0 504921.0 0
241118.0 505193.0 0
243754.0 508330.0 0
248032.0 504631.0 0
253360.0 504792.0 0
252113.0 509251.0 0
257254.0 507652.0 0
261619.0 507650.0 0
265674.0 505999.0 0
273790.0 505624.0 0
270197.0 509216.0 0
276713.0 508744.0 0
282182.0 507832.0 0
288262.0 508929.0 0
293330.0 507806.0 0
300166.0 506900.0 0
304208.0 507439.0 0
308546.0 509050.0 0
312108.0 506846.0 0
315572.0 508277.0 0
319663.0 508193.0 0
324508.0 507269.0 0
328327.0 506204.0 0
331901.0 506782.0 0
336790.0 508037.0 0
341441.0 506813.0 0
344253.0 509671.0 0
348796.0 508056.0 0
353627.0 506492.0 0
357162.0 509724.0 0
359240.0 506346.0 0
364751.0 509467.0 0
367328.0 505657.0 0
370624.0 510335.0 0
375045.0 507921.0 0
379180.0 507959.0 0
383947.0 508346.0 0
388387.0 508035.0 0
392932.0 507417.0 0
400085.0 507145.0 0
397075.0 509194.0 0
404342.0 506598.0 0
401848.0 510758.0 0
406407.0 510202.0 0
409612.0 507757.0 0
413551.0 510000.0 0
418168.0 509870.0 0
423018.0 509601.0 0
425609.0 510132.0 0
427931.0 508376.0 0
431469.0 511270.0 0
432987.0 507372.0 0
442915.0 507473.0 0
438258.0 508286.0 0
442292.0 511235.0 0
446436.0 509969.0 0
451481.0 509055.0 0
449654.0 511823.0 0
455951.0 508360.0 0
458115.0 512009.0 0
460434.0 509638.0 0
461665.0 513193.0 0
467075.0 508154.0 0
464119.0 510837.0 0
467166.0 511758.0 0
470647.0 510806.0 0
475249.0 510458.0 0
481441.0 508836.0 0
479679.0 511839.0 0
488089.0 509267.0 0
484432.0 510838.0 0
494553.0 509568.0 0
490944.0 511345.0 0
498212.0 506970.0 0
497785.0 509862.0 0
2343.09 513338.0 0
10074.7 514833.0 0
5833.43 515038.0 0
16018.9 515708.0 0
20800.0 514804.0 0
23461.7 512614.0 0
24902.8 517400.0 0
26803.6 513176.0 0
29860.0 515000.0 0
33864.4 513172.0 0
33129.6 517078.0 0
40678.7 513528.0 0
36824.5 515035.0 0
47468.5 511977.0 0
44710.8 515475.0 0
49126.8 515837.0 0
55677.3 512787.0 0
53623.1 516153.0 0
57823.7 515355.0 0
62006.4 514204.0 0
66107.6 512766.0 0
69168.6 515106.0 0
73730.0 514672.0 0
79067.8 515038.0 0
84597.3 514039.0 0
89147.6 512261.0 0
93249.8 513531.0 0
98233.8 512382.0 0
106025.0 511744.0 0
110908.0 513135.0 0
115340.0 514366.0 0
119231.0 515923.0 0
124884.0 511327.0 0
128942.0 511640.0 0
127806.0 515405.0 0
131864.0 513848.0 0
135028.0 510672.0 0
142980.0 510584.0 0
139452.0 510784.0 0
141928.0 513735.0 0
145090.0 512436.0 0
149216.0 512634.0 0
154131.0 511825.0 0
158887.0 514967.0 0
162376.0 510104.0 0
164730.0 512982.0 0
168128.0 513990.0 0
171908.0 511263.0 0
176222.0 512720.0 0
181882.0 510701.0 0
186976.0 514370.0 0
191466.0 511940.0 0
194365.0 514760.0 0
195570.0 511426.0 0
198126.0 514120.0 0
203337.0 509706.0 0
201594.0 513120.0 0
205852.0 514220.0 0
210620.0 513181.0 0
214601.0 513983.0 0
217902.0 510421.0 0
222676.0 512108.0 0
229381.0 509953.0 0
227047.0 513681.0 0
234361.0 509934.0 0
239266.0 509550.0 0
242919.0 513023.0 0
247566.0 510891.0 0
251040.0 513848.0 0
255550.0 512701.0 0
259877.0 511547.0 0
264489.0 511259.0 0
268515.0 514609.0 0
274488.0 514094.0 0
279576.0 512015.0 0
284185.0 513192.0 0
293123.0 512616.0 0
297087.0 509642.0 0
301342.0 511078.0 0
305286.0 511407.0 0
308369.0 514406.0 0
313271.0 511922.0 0
318388.0 512895.0 0
323254.0 511981.0 0
329012.0 511034.0 0
334654.0 513521.0 0
340313.0 511919.0 0
344294.0 514618.0 0
347976.0 512245.0 0
352866.0 512270.0 0
358200.0 513588.0 0
360796.0 510053.0 0
362675.0 513474.0 0
366343.0 512946.0 0
369483.0 515013.0 0
373769.0 515382.0 0
376548.0 512069.0 0
381625.0 512501.0 0
387503.0 513132.0 0
390687.0 510414.0 0
393474.0 512545.0 0
398169.0 512902.0 0
401049.0 515312.0 0
405097.0 513849.0 0
410320.0 513001.0 0
415721.0 514160.0 0
421146.0 513661.0 0
427096.0 513374.0 0
435334.0 511278.0 0
433191.0 515185.0 0
437105.0 514013.0 0
438619.0 511989.0 0
440921.0 514768.0 0
445954.0 514565.0 0
450920.0 515409.0 0
454397.0 512863.0 0
458625.0 516069.0 0
462654.0 516510.0 0
465101.0 514425.0 0
473265.0 513609.0 0
469657.0 515461.0 0
476781.0 514176.0 0
474749.0 517196.0 0
483275.0 513651.0 0
480092.0 516728.0 0
487137.0 513164.0 0
493772.0 513672.0 0
490504.0 515608.0 0
497410.0 513404.0 0
2405.57 517206.0 0
2058.12 520942.0 0
6612.33 518985.0 0
11860.8 518866.0 0
20160.8 517928.0 0
16891.1 520590.0 0
21664.6 521824.0 0
29409.5 518913.0 0
32388.1 521193.0 0
36139.5 519193.0 0
39497.3 517377.0 0
42463.3 518797.0 0
46711.8 519702.0 0
50750.6 518882.0 0
56638.2 518036.0 0
54001.1 519846.0 0
57364.8 520158.0 0
60502.5 518391.0 0
65400.0 517001.0 0
70318.4 520089.0 0
75442.9 518459.0 0
79030.8 519904.0 0
82146.2 518041.0 0
85667.4 518608.0 0
89205.8 516255.0 0
92668.9 517972.0 0
96865.6 517129.0 0
102015.0 515764.0 0
104233.0 520034.0 0
107322.0 516569.0 0
112058.0 517855.0 0
116320.0 519157.0 0
123310.0 515802.0 0
120981.0 520014.0 0
125916.0 519701.0 0
131305.0 518885.0 0
137024.0 515729.0 0
141900.0 517406.0 0
145335.0 515482.0 0
145517.0 519525.0 0
148492.0 516865.0 0
152458.0 516097.0 0
155522.0 519222.0 0
163886.0 516598.0 0
167928.0 517651.0 0
172134.0 516088.0 0
176319.0 516644.0 0
179457.0 515151.0 0
179314.0 519127.0 0
182841.0 516318.0 0
188756.0 519241.0 0
191235.0 516037.0 0
196043.0 518799.0 0
201431.0 517578.0 0
206494.0 519484.0 0
210806.0 517262.0 0
218947.0 515405.0 0
215259.0 518723.0 0
223698.0 517002.0 0
228477.0 518391.0 0
231841.0 514404.0 0
233615.0 519248.0 0
237650.0 515059.0 0
243595.0 518285.0 0
246662.0 514895.0 0
249156.0 517737.0 0
253596.0 517150.0 0
259005.0 516818.0 0
264052.0 515801.0 0
263072.0 519534.0 0
266802.0 518744.0 0
271255.0 518963.0 0
280143.0 516677.0 0
288928.0 515309.0 0
284999.0 518616.0 0
293520.0 517525.0 0
297906.0 514784.0 0
303251.0 515603.0 0
313213.0 518134.0 0
318260.0 517412.0 0
320994.0 515443.0 0
323454.0 515632.0 0
326357.0 515517.0 0
330309.0 516391.0 0
339525.0 516799.0 0
344777.0 520308.0 0
349265.0 516714.0 0
354870.0 518170.0 0
360524.0 517694.0 0
365555.0 517487.0 0
370479.0 519330.0 0
374784.0 519308.0 0
378867.0 517117.0 0
383745.0 516520.0 0
387154.0 518144.0 0
391811.0 517495.0 0
395705.0 520413.0 0
396735.0 516469.0 0
399888.0 519368.0 0
404280.0 518223.0 0
408402.0 517027.0 0
412861.0 518327.0 0
418654.0 517652.0 0
423945.0 517626.0 0
429212.0 518454.0 0
433678.0 520142.0 0
438149.0 517854.0 0
443419.0 518286.0 0
448962.0 519450.0 0
454751.0 518354.0 0
457490.0 521886.0 0
461419.0 520336.0 0
465918.0 518525.0 0
466061.0 523037.0 0
471143.0 520569.0 0
477026.0 520326.0 0
481800.0 520975.0 0
485711.0 517315.0 0
491343.0 520098.0 0
496767.0 517588.0 0
2079.48 524422.0 0
5753.04 523181.0 0
9306.38 522123.0 0
9696.0 525333.0 0
13234.5 523167.0 0
17732.7 524881.0 0
22055.6 526399.0 0
27112.9 523478.0 0
32181.9 525597.0 0
35677.0 523042.0 0
39238.4 521244.0 0
38701.0 525537.0 0
43214.1 522994.0 0
50163.8 523297.0 0
46350.7 525434.0 0
53288.6 527120.0 0
55510.5 523317.0 0
58383.4 526937.0 0
59890.5 522564.0 0
62677.3 525228.0 0
64373.6 521276.0 0
67317.0 524986.0 0
75077.5 522744.0 0
78950.7 524235.0 0
83497.7 522662.0 0
89177.8 521440.0 0
91389.8 525596.0 0
94418.1 521383.0 0
96129.1 525193.0 0
99756.0 521295.0 0
104952.0 524005.0 0
108630.0 521139.0 0
113166.0 522316.0 0
117945.0 523630.0 0
123230.0 524520.0 0
128663.0 523575.0 0
132405.0 523234.0 0
136068.0 521405.0 0
134638.0 524940.0 0
140969.0 521827.0 0
145563.0 524776.0 0
150335.0 520813.0 0
154510.0 523601.0 0
160549.0 521246.0 0
165593.0 520668.0 0
169987.0 521025.0 0
174633.0 520604.0 0
178348.0 524570.0 0
183663.0 521260.0 0
188155.0 524523.0 0
192446.0 522143.0 0
196765.0 524238.0 0
202316.0 523368.0 0
206888.0 523792.0 0
211135.0 522463.0 0
216270.0 523746.0 0
220179.0 520459.0 0
224801.0 521663.0 0
220137.0 524430.0 0
230100.0 522833.0 0
234522.0 524236.0 0
238703.0 521149.0 0
242793.0 524466.0 0
247436.0 522327.0 0
251457.0 520697.0 0
255435.0 521359.0 0
259957.0 522425.0 0
264392.0 523211.0 0
268472.0 522553.0 0
272957.0 524152.0 0
276251.0 520194.0 0
281063.0 521798.0 0
289759.0 520170.0 0
285962.0 524087.0 0
293668.0 521505.0 0
291341.0 524582.0 0
297810.0 520192.0 0
302285.0 519939.0 0
301667.0 524262.0 0
307117.0 520246.0 0
310956.0 522011.0 0
313673.0 523416.0 0
317680.0 522063.0 0
323186.0 520170.0 0
328921.0 521003.0 0
334442.0 519878.0 0
339472.0 522239.0 0
342929.0 525072.0 0
346906.0 525365.0 0
350548.0 522166.0 0
354557.0 525073.0 0
358712.0 522393.0 0
363320.0 521279.0 0
362955.0 525181.0 0
367601.0 523586.0 0
373012.0 523201.0 0
377916.0 522703.0 0
383451.0 521678.0 0
389260.0 522308.0 0
393702.0 523583.0 0
398615.0 524105.0 0
403849.0 522907.0 0
408481.0 521184.0 0
408122.0 525635.0 0
412200.0 523546.0 0
416496.0 521521.0 0
421496.0 521209.0 0
419614.0 524615.0 0
426324.0 522017.0 0
423738.0 525114.0 0
430615.0 523191.0 0
437190.0 522016.0 0
434483.0 524381.0 0
441271.0 521827.0 0
438829.0 525700.0 0
445399.0 522019.0 0
448974.0 524288.0 0
453265.0 522774.0 0
456935.0 525870.0 0
460550.0 524341.0 0
463408.0 526261.0 0
467447.0 527607.0 0
470900.0 525356.0 0
474876.0 523567.0 0
478755.0 524039.0 0
479487.0 527862.0 0
483749.0 525885.0 0
486580.0 521624.0 0
488978.0 525432.0 0
493462.0 524461.0 0
497099.0 522094.0 0
1764.29 527630.0 0
5942.8 527790.0 0
13834.1 527141.0 0
10230.2 529362.0 0
13725.3 531615.0 0
17750.9 529111.0 0
21641.6 530646.0 0
26493.3 529365.0 0
31189.2 530083.0 0
35265.9 528415.0 0
39389.9 530815.0 0
42848.0 527335.0 0
45831.0 528166.0 0
48831.7 528489.0 0
51677.7 530342.0 0
55877.8 530928.0 0
61496.8 527975.0 0
60905.9 531586.0 0
64649.7 528681.0 0
71945.5 525882.0 0
68850.9 529711.0 0
76375.4 527312.0 0
81489.5 528095.0 0
86732.3 526588.0 0
85314.8 530514.0 0
89553.2 530600.0 0
93269.8 528994.0 0
96934.9 529147.0 0
101001.0 526711.0 0
105488.0 528499.0 0
109351.0 525629.0 0
114206.0 526998.0 0
119016.0 528253.0 0
123014.0 529104.0 0
127331.0 528106.0 0
132265.0 527581.0 0
138369.0 526961.0 0
142946.0 529486.0 0
150539.0 525493.0 0
153739.0 528124.0 0
157896.0 526041.0 0
157482.0 530280.0 0
162069.0 526448.0 0
165172.0 528912.0 0
167136.0 525110.0 0
169877.0 529055.0 0
172553.0 525439.0 0
179624.0 529354.0 0
183470.0 526885.0 0
192518.0 527115.0 0
196509.0 529232.0 0
199772.0 527523.0 0
203963.0 528789.0 0
208657.0 527203.0 0
213138.0 527141.0 0
218787.0 528507.0 0
223347.0 525975.0 0
227092.0 525284.0 0
230627.0 527654.0 0
238711.0 526089.0 0
235363.0 528582.0 0
241727.0 528945.0 0
246875.0 528006.0 0
251906.0 524964.0 0
251579.0 529279.0 0
256828.0 526255.0 0
261856.0 526914.0 0
267208.0 527265.0 0
272066.0 529080.0 0
276963.0 527689.0 0
281196.0 526115.0 0
284217.0 529056.0 0
289114.0 528965.0 0
294403.0 528384.0 0
297088.0 524844.0 0
299319.0 528561.0 0
304120.0 528881.0 0
306100.0 525163.0 0
307984.0 528285.0 0
310072.0 525199.0 0
311619.0 529323.0 0
316042.0 527162.0 0
320947.0 525874.0 0
326289.0 525784.0 0
332111.0 525298.0 0
335234.0 529807.0 0
336221.0 524362.0 0
339023.0 526883.0 0
343251.0 529332.0 0
347357.0 529067.0 0
350730.0 527107.0 0
354656.0 530279.0 0
358538.0 527139.0 0
362013.0 528516.0 0
366648.0 529912.0 0
371460.0 527099.0 0
375667.0 526841.0 0
380754.0 527725.0 0
386390.0 526877.0 0
391049.0 526229.0 0
390209.0 531014.0 0
395226.0 528202.0 0
400079.0 528507.0 0
403905.0 527450.0 0
407590.0 530510.0 0
411907.0 528436.0 0
416046.0 526343.0 0
416286.0 531035.0 0
420849.0 528773.0 0
426762.0 529207.0 0
424789.0 528441.0 0
427857.0 526268.0 0
429601.0 530520.0 0
432135.0 527276.0 0
435847.0 527983.0 0
439962.0 530725.0 0
444054.0 526542.0 0
448711.0 528152.0 0
452636.0 527270.0 0
456171.0 531198.0 0
460348.0 528164.0 0
464213.0 530328.0 0
475007.0 527904.0 0
471117.0 529475.0 0
478015.0 531429.0 0
482460.0 530758.0 0
487420.0 530483.0 0
492768.0 528827.0 0
497668.0 526643.0 0
497297.0 530827.0 0
2675.5 531418.0 0
2530.68 535499.0 0
7764.29 533356.0 0
12555.9 535583.0 0
18121.0 534616.0 0
23975.0 534378.0 0
28903.8 534008.0 0
34491.1 532548.0 0
37807.0 535924.0 0
44894.2 531514.0 0
42136.3 534815.0 0
45573.3 536182.0 0
49182.5 533549.0 0
52639.8 532400.0 0
53689.2 535164.0 0
58020.2 534756.0 0
61753.8 536443.0 0
65482.5 533026.0 0
73260.1 530780.0 0
70024.5 534240.0 0
77775.7 531604.0 0
74600.2 535460.0 0
78583.4 535434.0 0
81890.6 533032.0 0
86599.9 534952.0 0
94568.1 532527.0 0
99920.1 532588.0 0
105234.0 533565.0 0
110117.0 530734.0 0
115333.0 532131.0 0
120669.0 533592.0 0
125897.0 532499.0 0
130520.0 532029.0 0
135332.0 531629.0 0
139632.0 531849.0 0
143738.0 534313.0 0
148389.0 530436.0 0
153443.0 532917.0 0
158034.0 534812.0 0
161726.0 531315.0 0
166939.0 532662.0 0
171514.0 533421.0 0
174835.0 530132.0 0
179169.0 534494.0 0
183091.0 531133.0 0
185051.0 534745.0 0
187816.0 530130.0 0
189414.0 534444.0 0
192855.0 531846.0 0
197438.0 533575.0 0
200186.0 530643.0 0
202813.0 533994.0 0
208093.0 532200.0 0
214032.0 532202.0 0
219357.0 533432.0 0
223491.0 534292.0 0
225925.0 530242.0 0
232506.0 532151.0 0
237747.0 532762.0 0
244233.0 532400.0 0
249320.0 533582.0 0
254867.0 532123.0 0
259036.0 530328.0 0
264078.0 531487.0 0
268644.0 531867.0 0
274171.0 533665.0 0
280232.0 532763.0 0
286336.0 533713.0 0
292060.0 533646.0 0
297062.0 532750.0 0
301761.0 532775.0 0
307388.0 531655.0 0
315229.0 532028.0 0
310914.0 533747.0 0
319766.0 530691.0 0
324363.0 530831.0 0
322134.0 534488.0 0
329690.0 530609.0 0
339393.0 530683.0 0
337533.0 534547.0 0
341780.0 533210.0 0
350255.0 531012.0 0
346547.0 533968.0 0
351985.0 534890.0 0
360172.0 532431.0 0
369644.0 534388.0 0
372576.0 531453.0 0
373139.0 535484.0 0
375874.0 533627.0 0
376749.0 530466.0 0
379275.0 533499.0 0
384316.0 532768.0 0
388903.0 535425.0 0
394615.0 532696.0 0
392444.0 535439.0 0
398497.0 532154.0 0
401288.0 535716.0 0
402897.0 531791.0 0
406341.0 535710.0 0
411919.0 534105.0 0
420571.0 532651.0 0
417638.0 535876.0 0
422300.0 535586.0 0
425093.0 532328.0 0
430033.0 534891.0 0
434628.0 532148.0 0
439033.0 536176.0 0
446141.0 531207.0 0
443336.0 534145.0 0
447977.0 535292.0 0
450935.0 531779.0 0
456807.0 535967.0 0
460913.0 531527.0 0
459795.0 534466.0 0
468492.0 532588.0 0
463849.0 534891.0 0
473598.0 532856.0 0
471356.0 536085.0 0
480719.0 533825.0 0
477253.0 535048.0 0
484416.0 534444.0 0
488057.0 534897.0 0
492359.0 533803.0 0
497402.0 535243.0 0
2084.26 539366.0 0
6475.2 538581.0 0
9788.31 536970.0 0
11521.4 539868.0 0
15290.6 538620.0 0
21400.9 538644.0 0
26472.9 538723.0 0
30915.7 541327.0 0
32695.0 536691.0 0
36752.4 541459.0 0
42009.6 538846.0 0
46437.8 540277.0 0
50504.1 538283.0 0
56614.8 540023.0 0
66331.1 537403.0 0
71111.5 538495.0 0
75459.9 540129.0 0
78606.8 538390.0 0
81963.2 537412.0 0
85984.8 540361.0 0
91318.8 534925.0 0
91076.9 539353.0 0
95927.7 537175.0 0
101832.0 538045.0 0
98589.1 540491.0 0
109711.0 536527.0 0
114862.0 537060.0 0
118859.0 538207.0 0
122607.0 538444.0 0
124841.0 536168.0 0
128427.0 536201.0 0
133014.0 535859.0 0
130764.0 539691.0 0
138380.0 536622.0 0
134623.0 539785.0 0
143456.0 539779.0 0
148946.0 536539.0 0
153882.0 536888.0 0
152343.0 540084.0 0
157217.0 540196.0 0
162786.0 536057.0 0
167984.0 538163.0 0
173874.0 537696.0 0
178194.0 539642.0 0
182562.0 539095.0 0
188079.0 538143.0 0
193310.0 536809.0 0
199676.0 537193.0 0
203366.0 539148.0 0
206664.0 536555.0 0
210640.0 536395.0 0
215056.0 537678.0 0
219741.0 537853.0 0
224245.0 538714.0 0
228349.0 535372.0 0
233256.0 536485.0 0
237410.0 538123.0 0
241492.0 535750.0 0
245519.0 537340.0 0
249461.0 538685.0 0
253846.0 537386.0 0
259945.0 535895.0 0
266725.0 536436.0 0
272120.0 538515.0 0
277520.0 538205.0 0
281694.0 537503.0 0
285135.0 538294.0 0
289312.0 537756.0 0
293996.0 538613.0 0
299457.0 537548.0 0
305813.0 536634.0 0
314697.0 536369.0 0
310963.0 538075.0 0
318392.0 534815.0 0
318187.0 538894.0 0
322603.0 539197.0 0
326897.0 535963.0 0
332513.0 535183.0 0
335527.0 539317.0 0
330856.0 539508.0 0
341995.0 537754.0 0
346772.0 539415.0 0
351022.0 539197.0 0
354994.0 538419.0 0
356060.0 534839.0 0
359319.0 537693.0 0
365029.0 536347.0 0
370242.0 538059.0 0
373939.0 538596.0 0
376849.0 536641.0 0
381368.0 538101.0 0
386232.0 537772.0 0
390584.0 539121.0 0
396522.0 536160.0 0
394886.0 540019.0 0
399524.0 539945.0 0
403455.0 538774.0 0
408483.0 540646.0 0
413709.0 539547.0 0
422056.0 538976.0 0
418426.0 539944.0 0
426148.0 537184.0 0
430863.0 539834.0 0
434265.0 536690.0 0
436458.0 540718.0 0
444348.0 538585.0 0
449447.0 539438.0 0
452762.0 536140.0 0
455968.0 539887.0 0
460364.0 538072.0 0
464612.0 540003.0 0
467637.0 536705.0 0
469987.0 540495.0 0
475181.0 539029.0 0
480926.0 537935.0 0
482816.0 541533.0 0
486450.0 538690.0 0
491983.0 538984.0 0
497361.0 539500.0 0
3353.91 543841.0 0
8511.87 542479.0 0
12281.4 543929.0 0
17822.5 543428.0 0
23229.1 542257.0 0
26885.5 543915.0 0
32575.0 546405.0 0
42126.9 543307.0 0
43080.7 546194.0 0
46472.0 545002.0 0
51015.7 542767.0 0
54677.4 545196.0 0
59591.2 545409.0 0
62742.8 540971.0 0
67545.2 541539.0 0
71547.1 543138.0 0
75927.5 545068.0 0
80449.8 542116.0 0
84775.8 545351.0 0
89837.4 544160.0 0
95149.4 542804.0 0
100745.0 542892.0 0
106178.0 541478.0 0
111957.0 541509.0 0
116440.0 540908.0 0
120511.0 542399.0 0
126049.0 542008.0 0
131911.0 544822.0 0
138208.0 542932.0 0
148410.0 542214.0 0
144092.0 545096.0 0
153411.0 544418.0 0
158968.0 544818.0 0
162942.0 541542.0 0
168362.0 544274.0 0
171158.0 541043.0 0
174372.0 543556.0 0
179980.0 543645.0 0
186159.0 542153.0 0
191219.0 541642.0 0
197017.0 541258.0 0
202021.0 542999.0 0
205474.0 543043.0 0
208417.0 540335.0 0
212768.0 541758.0 0
217478.0 542052.0 0
222124.0 542779.0 0
228737.0 541002.0 0
233475.0 540708.0 0
237473.0 543303.0 0
241733.0 540398.0 0
246564.0 542370.0 0
251551.0 542422.0 0
257004.0 542515.0 0
263329.0 541728.0 0
268482.0 541278.0 0
272329.0 543556.0 0
277008.0 543106.0 0
281960.0 541870.0 0
286351.0 541735.0 0
290253.0 542073.0 0
293574.0 542002.0 0
297228.0 542670.0 0
303029.0 542585.0 0
308817.0 542302.0 0
314214.0 540798.0 0
317842.0 543260.0 0
322571.0 544361.0 0
326821.0 541633.0 0
335888.0 543987.0 0
331254.0 544292.0 0
339445.0 541774.0 0
343768.0 543201.0 0
349125.0 544342.0 0
353502.0 542263.0 0
357619.0 541974.0 0
362342.0 541185.0 0
364457.0 544520.0 0
367191.0 541346.0 0
372364.0 542471.0 0
376986.0 540876.0 0
380274.0 542522.0 0
386558.0 542791.0 0
392391.0 543989.0 0
396644.0 542938.0 0
399887.0 544096.0 0
403936.0 542592.0 0
407870.0 545872.0 0
413166.0 545179.0 0
416906.0 542861.0 0
420996.0 542994.0 0
425868.0 541813.0 0
428005.0 546293.0 0
429453.0 543239.0 0
433384.0 545495.0 0
438355.0 544759.0 0
441260.0 541995.0 0
446568.0 543610.0 0
452245.0 543255.0 0
456716.0 543892.0 0
460212.0 542089.0 0
463687.0 544156.0 0
467993.0 544788.0 0
473589.0 544973.0 0
478895.0 542829.0 0
485683.0 542805.0 0
483203.0 545842.0 0
489586.0 543995.0 0
494583.0 543468.0 0
498300.0 543212.0 0
497880.0 546592.0 0
3673.65 550137.0 0
8676.58 546975.0 0
13638.3 548560.0 0
18930.1 549784.0 0
23156.4 546648.0 0
27666.3 548204.0 0
38682.2 547363.0 0
44219.6 549762.0 0
50905.3 547998.0 0
55951.8 549347.0 0
61038.4 550664.0 0
65217.1 545670.0 0
65883.3 550068.0 0
70727.7 548480.0 0
76170.9 550091.0 0
80292.0 547243.0 0
80198.2 551061.0 0
84179.4 550083.0 0
88759.9 548983.0 0
93487.7 547779.0 0
98614.8 546892.0 0
103522.0 546137.0 0
109320.0 547060.0 0
115971.0 545789.0 0
118360.0 550077.0 0
121295.0 547037.0 0
121839.0 551211.0 0
126157.0 547733.0 0
135451.0 548464.0 0
140044.0 548393.0 0
148765.0 547203.0 0
144823.0 550102.0 0
153095.0 549303.0 0
158102.0 549353.0 0
163202.0 547279.0 0
167803.0 549789.0 0
171715.0 547692.0 0
175769.0 548465.0 0
184025.0 546468.0 0
180005.0 548361.0 0
188889.0 546183.0 0
194383.0 547572.0 0
199391.0 545873.0 0
203980.0 547186.0 0
209417.0 545636.0 0
214598.0 545804.0 0
218867.0 546356.0 0
216493.0 549250.0 0
222849.0 546807.0 0
226842.0 545440.0 0
232179.0 545888.0 0
238699.0 547401.0 0
242289.0 545336.0 0
247711.0 547114.0 0
253265.0 546609.0 0
257324.0 547356.0 0
260762.0 546209.0 0
267538.0 546189.0 0
272179.0 547911.0 0
276523.0 547684.0 0
281181.0 546912.0 0
288871.0 546462.0 0
285104.0 548209.0 0
293272.0 545443.0 0
292738.0 549673.0 0
297722.0 548277.0 0
302692.0 547672.0 0
307654.0 547874.0 0
313357.0 546038.0 0
318741.0 548152.0 0
327005.0 547043.0 0
331104.0 548698.0 0
335373.0 548430.0 0
339828.0 546339.0 0
344825.0 548443.0 0
349902.0 549581.0 0
355161.0 547342.0 0
360539.0 545252.0 0
359728.0 548779.0 0
364083.0 549180.0 0
368488.0 545945.0 0
373135.0 547222.0 0
376340.0 550289.0 0
377454.0 545474.0 0
380355.0 549331.0 0
382262.0 545682.0 0
384841.0 549777.0 0
389036.0 547535.0 0
396794.0 547165.0 0
393048.0 550633.0 0
402765.0 548054.0 0
407351.0 550543.0 0
410835.0 549281.0 0
415432.0 550477.0 0
418339.0 546658.0 0
421680.0 548168.0 0
423888.0 545883.0 0
425143.0 549810.0 0
429734.0 550326.0 0
433893.0 550522.0 0
438138.0 548915.0 0
442043.0 546368.0 0
441982.0 550377.0 0
446057.0 548874.0 0
450745.0 547833.0 0
455088.0 547227.0 0
453610.0 550604.0 0
457485.0 550782.0 0
460008.0 546778.0 0
464834.0 547967.0 0
469718.0 550066.0 0
474688.0 549735.0 0
478579.0 547803.0 0
483008.0 550918.0 0
487439.0 548611.0 0
493330.0 548130.0 0
497496.0 550652.0 0
3227.52 556182.0 0
9449.56 552405.0 0
14862.3 554295.0 0
20000.5 554090.0 0
24060.1 551738.0 0
29103.4 552313.0 0
34255.0 551750.0 0
39751.1 552780.0 0
44083.5 555624.0 0
48819.6 552927.0 0
52659.0 555599.0 0
56892.6 554067.0 0
64526.1 553350.0 0
68164.2 552690.0 0
72494.6 554670.0 0
77912.5 554375.0 0
82546.2 554355.0 0
91912.0 552058.0 0
87720.5 554123.0 0
96639.2 551631.0 0
101982.0 550801.0 0
99687.1 554651.0 0
106903.0 552325.0 0
103516.0 555538.0 0
111287.0 554911.0 0
113775.0 550689.0 0
117071.0 554863.0 0
125570.0 552514.0 0
130926.0 551386.0 0
136988.0 553082.0 0
141678.0 553205.0 0
145417.0 554705.0 0
149225.0 552112.0 0
153558.0 553900.0 0
158395.0 554562.0 0
162760.0 552381.0 0
166885.0 554587.0 0
172418.0 552480.0 0
178089.0 552748.0 0
183699.0 551780.0 0
189606.0 551496.0 0
194840.0 553701.0 0
199620.0 550739.0 0
203876.0 551807.0 0
207547.0 550632.0 0
212375.0 550381.0 0
216160.0 553014.0 0
220485.0 550660.0 0
225891.0 550491.0 0
230639.0 550760.0 0
235744.0 551236.0 0
241942.0 550705.0 0
246705.0 551016.0 0
250719.0 550343.0 0
255314.0 550860.0 0
259876.0 550256.0 0
264606.0 550972.0 0
269403.0 550977.0 0
274110.0 552254.0 0
279544.0 551420.0 0
283874.0 551890.0 0
288357.0 551355.0 0
286263.0 555196.0 0
295539.0 553559.0 0
304378.0 550994.0 0
300684.0 552839.0 0
305043.0 554876.0 0
309831.0 552582.0 0
314431.0 551436.0 0
319180.0 553325.0 0
323855.0 549741.0 0
328142.0 552254.0 0
333318.0 552728.0 0
339874.0 551996.0 0
346807.0 554117.0 0
352923.0 553918.0 0
359317.0 553436.0 0
365431.0 554710.0 0
369653.0 550858.0 0
370113.0 555407.0 0
373463.0 553513.0 0
377534.0 555144.0 0
381622.0 553157.0 0
386165.0 555165.0 0
388901.0 551549.0 0
390902.0 554655.0 0
395043.0 555229.0 0
398687.0 552017.0 0
403956.0 553615.0 0
411670.0 552552.0 0
409018.0 555589.0 0
414768.0 555981.0 0
420703.0 552001.0 0
425967.0 554896.0 0
431889.0 554452.0 0
436912.0 553355.0 0
444574.0 553239.0 0
449761.0 553131.0 0
455128.0 554514.0 0
462191.0 551589.0 0
459706.0 555740.0 0
464466.0 555727.0 0
469075.0 555327.0 0
474194.0 554432.0 0
478646.0 552391.0 0
484276.0 555309.0 0
486956.0 552654.0 0
490682.0 551653.0 0
494314.0 553461.0 0
497993.0 554589.0 0
2027.96 560739.0 0
9460.23 557430.0 0
6079.89 560664.0 0
13787.4 559840.0 0
19053.7 558612.0 0
22782.5 555920.0 0
23825.1 559574.0 0
26673.5 556043.0 0
31473.4 556325.0 0
33297.2 560232.0 0
36734.0 557111.0 0
44840.5 559971.0 0
41104.9 559368.0 0
48779.6 558237.0 0
55637.4 558865.0 0
61310.7 556007.0 0
60140.3 560572.0 0
66672.2 557230.0 0
76207.3 557880.0 0
73068.0 560088.0 0
80204.6 558263.0 0
84960.3 558082.0 0
89620.0 559494.0 0
93960.7 556091.0 0
94662.1 560779.0 0
98388.4 558350.0 0
107269.0 556580.0 0
102836.0 560016.0 0
113445.0 560082.0 0
122396.0 555542.0 0
119569.0 560316.0 0
127830.0 556301.0 0
124575.0 559361.0 0
132977.0 557190.0 0
137992.0 557959.0 0
142478.0 558435.0 0
146059.0 557884.0 0
149710.0 557082.0 0
154499.0 558394.0 0
158718.0 559004.0 0
162775.0 557135.0 0
170432.0 556937.0 0
175176.0 557444.0 0
180053.0 557016.0 0
184157.0 556751.0 0
189084.0 557107.0 0
193407.0 557779.0 0
199718.0 555996.0 0
204158.0 555325.0 0
209761.0 556207.0 0
215174.0 556601.0 0
217485.0 559444.0 0
219833.0 555614.0 0
224941.0 555881.0 0
230290.0 555460.0 0
235109.0 556633.0 0
239565.0 555461.0 0
245321.0 556053.0 0
252211.0 555946.0 0
258500.0 555098.0 0
262995.0 555024.0 0
267622.0 555733.0 0
272038.0 555882.0 0
277729.0 556223.0 0
282522.0 555707.0 0
290681.0 556197.0 0
286629.0 559254.0 0
295512.0 559085.0 0
300332.0 557442.0 0
308950.0 556826.0 0
314609.0 557533.0 0
320490.0 558140.0 0
323797.0 554846.0 0
330682.0 557170.0 0
336424.0 557117.0 0
341219.0 556768.0 0
344692.0 559346.0 0
350005.0 557960.0 0
356218.0 558878.0 0
362087.0 559118.0 0
368196.0 558539.0 0
373389.0 558359.0 0
377651.0 559661.0 0
381757.0 557980.0 0
392080.0 558204.0 0
388255.0 559808.0 0
396469.0 560341.0 0
400228.0 556756.0 0
400934.0 560116.0 0
405658.0 556555.0 0
405478.0 560594.0 0
411610.0 560355.0 0
419627.0 556297.0 0
422705.0 559053.0 0
417957.0 560649.0 0
426922.0 560979.0 0
429583.0 557951.0 0
435696.0 557788.0 0
438870.0 560712.0 0
440988.0 556438.0 0
446365.0 557407.0 0
451876.0 558372.0 0
456726.0 558840.0 0
461880.0 559600.0 0
467239.0 560290.0 0
471645.0 558290.0 0
475395.0 559208.0 0
479744.0 556731.0 0
484043.0 560115.0 0
489982.0 557147.0 0
496505.0 558670.0 0
2739.52 564983.0 0
9861.51 561762.0 0
12906.0 564689.0 0
17346.2 563416.0 0
21528.9 561935.0 0
24445.0 563702.0 0
28691.1 560906.0 0
27638.7 564967.0 0
31227.5 565581.0 0
37348.0 562972.0 0
42807.1 563237.0 0
47643.4 563090.0 0
51272.6 564927.0 0
51892.2 561371.0 0
55973.7 564320.0 0
61467.5 565274.0 0
64366.0 561688.0 0
66477.4 565730.0 0
68926.2 561692.0 0
72873.2 566226.0 0
77319.0 561901.0 0
82851.8 562612.0 0
87551.9 564131.0 0
92600.9 565684.0 0
98896.1 563134.0 0
104333.0 565464.0 0
107812.0 560670.0 0
110456.0 565046.0 0
114920.0 564618.0 0
118913.0 565501.0 0
124043.0 564351.0 0
129101.0 561401.0 0
135478.0 563049.0 0
141914.0 563769.0 0
146496.0 561241.0 0
151234.0 561946.0 0
156358.0 563150.0 0
161691.0 561701.0 0
165652.0 560470.0 0
164850.0 564866.0 0
169538.0 560706.0 0
173512.0 562125.0 0
178938.0 562124.0 0
185259.0 561690.0 0
193736.0 560787.0 0
190320.0 561686.0 0
198466.0 561494.0 0
202759.0 564690.0 0
204440.0 560056.0 0
213767.0 559928.0 0
209925.0 563233.0 0
215859.0 563740.0 0
221992.0 560239.0 0
222096.0 564058.0 0
227093.0 560522.0 0
232456.0 560959.0 0
238330.0 560359.0 0
242738.0 560441.0 0
241525.0 564539.0 0
246816.0 561767.0 0
250601.0 560637.0 0
254507.0 561605.0 0
251868.0 564414.0 0
259405.0 560268.0 0
264505.0 560369.0 0
270885.0 560975.0 0
275975.0 560427.0 0
276899.0 564795.0 0
281349.0 560922.0 0
286247.0 564430.0 0
290786.0 561658.0 0
299713.0 561690.0 0
304950.0 560506.0 0
310591.0 562255.0 0
315811.0 563864.0 0
320926.0 562830.0 0
325594.0 559949.0 0
330212.0 561862.0 0
334476.0 562012.0 0
339926.0 561551.0 0
347000.0 563695.0 0
351739.0 562287.0 0
357094.0 564913.0 0
362226.0 564073.0 0
366570.0 562462.0 0
371110.0 562267.0 0
375494.0 563669.0 0
380546.0 562755.0 0
385592.0 564432.0 0
391764.0 564232.0 0
397024.0 565560.0 0
400623.0 563265.0 0
409669.0 565149.0 0
415316.0 565368.0 0
422609.0 564404.0 0
432115.0 561487.0 0
428756.0 566118.0 0
436332.0 562777.0 0
443038.0 561524.0 0
448228.0 562169.0 0
453298.0 563389.0 0
458535.0 563423.0 0
463816.0 564665.0 0
468831.0 565632.0 0
472211.0 562219.0 0
475683.0 563430.0 0
479091.0 561573.0 0
482251.0 564562.0 0
488353.0 563031.0 0
493001.0 562331.0 0
494334.0 566150.0 0
497565.0 563587.0 0
3965.35 570170.0 0
7969.28 566140.0 0
12023.8 569010.0 0
16339.1 568020.0 0
20157.5 570867.0 0
20994.1 566189.0 0
25772.7 568691.0 0
35015.7 567569.0 0
31442.5 570383.0 0
40523.3 567138.0 0
45158.1 567119.0 0
42676.2 570517.0 0
52497.6 569412.0 0
58402.0 569514.0 0
63655.3 569891.0 0
68226.2 569769.0 0
79056.5 566291.0 0
77339.0 571066.0 0
84676.5 566412.0 0
82567.9 569469.0 0
87612.8 568880.0 0
98286.5 568861.0 0
103201.0 570546.0 0
108323.0 569807.0 0
114068.0 568893.0 0
119648.0 570238.0 0
124632.0 569573.0 0
130025.0 567446.0 0
136317.0 569699.0 0
140417.0 567642.0 0
146883.0 565795.0 0
143807.0 569764.0 0
152375.0 567086.0 0
148395.0 569670.0 0
160425.0 565903.0 0
163364.0 569349.0 0
169881.0 565520.0 0
173815.0 569566.0 0
175370.0 565375.0 0
178479.0 567519.0 0
182530.0 566030.0 0
187999.0 566800.0 0
193603.0 565370.0 0
198752.0 567073.0 0
201986.0 569093.0 0
206268.0 568231.0 0
213492.0 568802.0 0
218012.0 568926.0 0
219707.0 565909.0 0
221898.0 569030.0 0
225970.0 566041.0 0
231269.0 565893.0 0
236042.0 565096.0 0
238272.0 569421.0 0
242687.0 568892.0 0
246292.0 566590.0 0
252348.0 567862.0 0
256296.0 565911.0 0
261050.0 565183.0 0
266676.0 565491.0 0
272051.0 566714.0 0
281551.0 567172.0 0
290661.0 567254.0 0
295804.0 565140.0 0
302034.0 565828.0 0
307075.0 565770.0 0
308154.0 570109.0 0
311625.0 567142.0 0
315797.0 568678.0 0
320263.0 567699.0 0
325877.0 565947.0 0
331262.0 566208.0 0
337163.0 566809.0 0
342753.0 565677.0 0
346901.0 568698.0 0
352104.0 567700.0 0
361319.0 568318.0 0
365359.0 566874.0 0
370515.0 566989.0 0
375108.0 568176.0 0
378905.0 566909.0 0
383020.0 569318.0 0
388696.0 569725.0 0
394295.0 569486.0 0
399143.0 569450.0 0
404128.0 567140.0 0
412102.0 569368.0 0
416771.0 570846.0 0
420715.0 568871.0 0
424770.0 569566.0 0
432335.0 569662.0 0
434296.0 566065.0 0
437029.0 570288.0 0
439555.0 565507.0 0
444932.0 566601.0 0
450217.0 567048.0 0
451917.0 570664.0 0
455157.0 568042.0 0
460357.0 568661.0 0
465579.0 569564.0 0
473534.0 566565.0 0
470520.0 570027.0 0
478217.0 566248.0 0
476078.0 570154.0 0
481424.0 570119.0 0
485787.0 567101.0 0
490429.0 567062.0 0
493760.0 570303.0 0
497895.0 568082.0 0
1211.15 572865.0 0
8558.88 570856.0 0
8041.13 575119.0 0
13100.4 573705.0 0
17691.7 574523.0 0
23652.7 572671.0 0
27711.2 574402.0 0
33297.7 575276.0 0
37815.7 571723.0 0
42613.5 575018.0 0
47103.7 571723.0 0
51034.1 574400.0 0
55777.0 574220.0 0
60987.7 574069.0 0
66800.4 574455.0 0
71562.5 572026.0 0
74496.6 575713.0 0
79660.9 575791.0 0
85475.0 574521.0 0
90874.1 576043.0 0
92122.0 571481.0 0
95977.0 574731.0 0
100632.0 573853.0 0
105694.0 574542.0 0
111136.0 573342.0 0
115105.0 573302.0 0
118667.0 574466.0 0
122842.0 573985.0 0
129133.0 574619.0 0
135003.0 574618.0 0
140410.0 572744.0 0
147212.0 572847.0 0
143987.0 574899.0 0
151896.0 572714.0 0
157700.0 570689.0 0
162585.0 574306.0 0
168170.0 570741.0 0
178419.0 572059.0 0
183966.0 570684.0 0
187114.0 575265.0 0
189646.0 571213.0 0
194093.0 570738.0 0
198745.0 571688.0 0
203270.0 573555.0 0
209526.0 571880.0 0
213094.0 574464.0 0
218031.0 573632.0 0
222441.0 573711.0 0
228197.0 570954.0 0
233438.0 570045.0 0
231234.0 574500.0 0
236163.0 574323.0 0
241387.0 573421.0 0
248746.0 570228.0 0
253068.0 574255.0 0
256126.0 570081.0 0
258286.0 574000.0 0
260529.0 570185.0 0
262296.0 574003.0 0
265249.0 570660.0 0
270381.0 571837.0 0
276485.0 570754.0 0
281561.0 571551.0 0
286191.0 570365.0 0
292396.0 572145.0 0
298448.0 571089.0 0
303887.0 570251.0 0
306118.0 574378.0 0
312588.0 572238.0 0
318264.0 572986.0 0
323094.0 571409.0 0
327705.0 571247.0 0
332959.0 571160.0 0
337221.0 573465.0 0
341789.0 571099.0 0
345989.0 574477.0 0
350450.0 572608.0 0
357133.0 570374.0 0
361686.0 573855.0 0
367014.0 571148.0 0
372629.0 572736.0 0
378287.0 571496.0 0
382529.0 574268.0 0
387748.0 575584.0 0
397091.0 573897.0 0
392327.0 573552.0 0
402682.0 572955.0 0
407816.0 571609.0 0
412544.0 574517.0 0
417556.0 575841.0 0
421619.0 573221.0 0
426299.0 575057.0 0
428762.0 571316.0 0
432881.0 574635.0 0
442270.0 571235.0 0
438958.0 575703.0 0
447668.0 571224.0 0
444915.0 575991.0 0
451330.0 575864.0 0
457619.0 573759.0 0
462919.0 573428.0 0
467810.0 574634.0 0
473317.0 573950.0 0
478226.0 574102.0 0
482568.0 574906.0 0
486478.0 572186.0 0
490589.0 572895.0 0
493680.0 575005.0 0
497787.0 572649.0 0
2948.16 576299.0 0
1348.53 580089.0 0
6576.41 580386.0 0
11463.0 578647.0 0
17144.1 579714.0 0
21888.3 576267.0 0
24876.5 580413.0 0
29722.6 579330.0 0
34582.1 580506.0 0
38007.2 577015.0 0
43676.8 579905.0 0
47342.7 576909.0 0
51865.4 578972.0 0
57202.2 579500.0 0
62590.9 578928.0 0
67151.9 579364.0 0
71462.7 579681.0 0
76894.3 580062.0 0
82665.8 580855.0 0
88190.3 579399.0 0
94128.1 579523.0 0
99422.3 578660.0 0
104764.0 580143.0 0
110065.0 578071.0 0
115361.0 577764.0 0
120542.0 578572.0 0
125506.0 579862.0 0
134085.0 578940.0 0
138882.0 576933.0 0
147782.0 575758.0 0
143437.0 580141.0 0
151861.0 578435.0 0
157628.0 577018.0 0
163280.0 579204.0 0
167430.0 575667.0 0
173139.0 575740.0 0
177771.0 575590.0 0
177738.0 579257.0 0
181767.0 575636.0 0
186590.0 579884.0 0
193203.0 576521.0 0
199715.0 575805.0 0
203658.0 578717.0 0
207842.0 575919.0 0
213214.0 579668.0 0
217980.0 578673.0 0
221996.0 578579.0 0
226364.0 575327.0 0
225702.0 579602.0 0
230678.0 579982.0 0
236472.0 579522.0 0
242336.0 579299.0 0
246974.0 575062.0 0
256675.0 578635.0 0
266478.0 575481.0 0
273728.0 575662.0 0
272196.0 580096.0 0
278599.0 575887.0 0
282436.0 574962.0 0
282994.0 579272.0 0
286553.0 575540.0 0
290617.0 576569.0 0
295732.0 576959.0 0
300811.0 579779.0 0
301725.0 575242.0 0
310150.0 576133.0 0
314602.0 577424.0 0
319589.0 578005.0 0
324885.0 576523.0 0
330564.0 575811.0 0
335104.0 577330.0 0
341030.0 577719.0 0
345817.0 580458.0 0
349831.0 577951.0 0
355355.0 575558.0 0
360558.0 579960.0 0
367646.0 577018.0 0
377507.0 577672.0 0
383511.0 579037.0 0
389861.0 580558.0 0
393941.0 577841.0 0
400690.0 578067.0 0
407851.0 576422.0 0
404408.0 576442.0 0
406221.0 580979.0 0
412726.0 579778.0 0
417512.0 580445.0 0
421676.0 578115.0 0
426354.0 580216.0 0
430968.0 579331.0 0
435296.0 579466.0 0
441494.0 580796.0 0
446399.0 580785.0 0
456235.0 579315.0 0
461277.0 578036.0 0
466157.0 580295.0 0
472473.0 579724.0 0
478542.0 579162.0 0
483239.0 578875.0 0
488551.0 576865.0 0
492915.0 580290.0 0
497580.0 577263.0 0
2412.99 583473.0 0
6079.69 584689.0 0
11118.5 584505.0 0
22783.5 584795.0 0
28509.6 584441.0 0
33970.7 585884.0 0
39369.6 581271.0 0
39384.3 586078.0 0
48003.0 583593.0 0
53930.1 583677.0 0
59007.3 584594.0 0
64351.1 584033.0 0
69154.6 583542.0 0
73609.0 583945.0 0
78208.2 584475.0 0
84249.9 585577.0 0
87546.8 583735.0 0
92271.3 584356.0 0
97570.3 583842.0 0
102231.0 584096.0 0
109017.0 583281.0 0
113156.0 581710.0 0
117314.0 582461.0 0
122393.0 582854.0 0
127414.0 583857.0 0
129835.0 580556.0 0
133072.0 584586.0 0
138131.0 581983.0 0
148178.0 581940.0 0
154468.0 583499.0 0
159525.0 582138.0 0
167632.0 580205.0 0
172229.0 581637.0 0
182367.0 580553.0 0
190567.0 582004.0 0
198251.0 580674.0 0
208234.0 580494.0 0
248003.0 580556.0 0
252339.0 579792.0 0
261152.0 580513.0 0
266631.0 581264.0 0
277620.0 581039.0 0
288248.0 580894.0 0
293171.0 581414.0 0
297076.0 582838.0 0
307114.0 580728.0 0
312944.0 582302.0 0
318016.0 582723.0 0
322299.0 581076.0 0
326562.0 582114.0 0
331358.0 580685.0 0
336468.0 582390.0 0
341613.0 583658.0 0
345956.0 584417.0 0
350457.0 583328.0 0
355269.0 581372.0 0
358803.0 584748.0 0
364130.0 583784.0 0
367874.0 582059.0 0
372134.0 580936.0 0
371677.0 585399.0 0
376167.0 583031.0 0
380628.0 581896.0 0
385770.0 583649.0 0
392593.0 584810.0 0
396906.0 581950.0 0
401673.0 583179.0 0
405671.0 585947.0 0
410502.0 584433.0 0
416157.0 585626.0 0
421794.0 583127.0 0
426378.0 585385.0 0
431537.0 584083.0 0
437101.0 584032.0 0
442144.0 586040.0 0
446707.0 585069.0 0
451460.0 582514.0 0
456583.0 583916.0 0
461324.0 583274.0 0
465796.0 585557.0 0
471008.0 585825.0 0
476561.0 584236.0 0
481660.0 583185.0 0
487003.0 582153.0 0
491222.0 585409.0 0
497914.0 581721.0 0
495342.0 584774.0 0
17486.5 586136.0 0
43801.5 586775.0 0
453920.0 587846.0 0
487361.0 587251.0 0
POINT_DATA 5000
SCALARS Radius float 1
LOOKUP_TABLE default
5073.35 5415.48 5120.0 3863.18 6182.6 2356.98 5258.36 5061.3 3163.97 5812.43 5580.89 6810.52 5840.26 5670.04 4834.9 5085.53 4998.37 5492.18 5351.6 5867.73 3951.75 3642.12 4499.64 5542.27 5906.14 7513.1 5254.28 4436.4 4182.53 5733.48 3588.44 5645.7 5553.16 6110.27 4008.92 5561.06 6044.04 5484.83 4715.55 5013.56 4375.68 5054.98 5484.19 5122.66 3557.27 4688.68 4402.52 4517.56 4672.91 5903.42 3761.32 5176.86 4366.19 4118.05 3672.51 2938.66 5065.13 4940.78 3615.22 4380.59 6716.79 3850.77 5325.36 5538.89 4730.36 6059.59 5701.86 2720.68 4238.81 4468.59 6030.06 5170.02 4927.31 4862.64 5185.34 4432.58 3955.56 5292.64 2635.86 6166.5 5936.02 5305.17 7613.27 5546.39 4133.88 6759.9 7021.47 5926.61 4955.55 6051.14 3563.63 5836.15 4345.55 5885.03 5325.02 2837.58 5200.76 5246.2 5017.13 5205.43 3673.74 6684.56 3968.64 4385.06 4688.67 4290.3 4861.08 4231.61 3942.53 3379.84 3607.45 4951.03 4094.62 5945.65 5418.62 5493.32 5416.38 5740.68 4195.44 3261.21 6704.06 3653.41 3871.88 3856.01 4390.66 6116.18 4827.23 7447.37 4924.6 7184.19 2924.37 3867.67 4003.05 4827.82 3589.27 4333.2 4665.12 6483.19 4927.02 6230.49 4174.52 4601.27 3641.64 4277.89 5747.75 5539.32 6496.85 5600.93 5541.59 4124.71 5279.39 4911.47 5803.39 4381.97 4733.32 3255.82 5242.73 2899.43 2812.98 4065.69 5399.73 4805.87 4712.33 5759.91 5227.21 3038.33 3260.67 3936.02 3383.4 3856.1 5980.74 5109.54 7054.71 5489.43 5054.25 4796.33 5360.19 4794.96 4874.39 4839.34 2980.99 5083.08 5728.85 6337.56 5863.59 3998.5 6257.19 4737.14 5603.15 5390.22 4695.45 4660.72 6038.78 3997.1 5123.52 4295.38 4780.03 4044.71 3829.13 5816.2 3091.3 6458.82 5527.54 5573.7 4727.62 7325.81 6425.26 6186.19 4840.01 6834.49 5525.39 5938.34 4024.3 5555.28 5169.36 4686.65 5556.96 3888.21 5697.78 4667.36 4392.68 5495.39 3554.9 3996.0 4487.31 4002.16 5693.81 5789.98 6138.47 5697.4 5206.78 4055.8 5280.17 5028.96 5143.58 4484.76 5611.2 7933.0 5173.87 6394.38 5118.27 5932.23 5834.74 6052.7 3921.18 6902.81 5529.52 5252.48 4015.92 2540.31 4778.34 4138.16 4684.5 6029.66 6302.8 4270.95 4005.44 5555.88 6732.43 6362.12 3866.16 5152.36 4511.82 4220.65 5826.64 4455.12 6820.42 4894.16 5380.13 4896.52 5711.87 5791.61 5788.23 5581.75 3798.62 3666.57 5891.05 4254.17 4091.31 5615.42 7199.21 6124.89 5708.81 5043.05 3486.22 5120.49 4414.54 5409.61 5262.61 6038.2 5713.22 5861.71 5017.78 3183.98 4524.28 3794.63 3778.1 4727.24 6959.81 4816.2 6321.41 3372.79 4941.22 5282.64 4479.66 3369.13 6392.01 6644.76 4523.7 6372.62 5255.32 4049.23 4929.8 5337.48 5481.78 5542.21 4937.14 5924.89 5551.36 6894.71 5201.36 4306.53 5094.81 5972.06 6135.57 4312.67 4359.04 5015.69 6175.81 6677.09 4829.35 5813.4 4089.76 4751.02 5184.56 3192.41 4987.87 4715.72 5367.2 5308.1 3043.85 6730.19 4937.02 6037.08 7565.34 6756.95 6324.23 4382.74 4651.28 5601.05 4516.43 3586.91 5637.59 3103.0 4948.92 3115.91 3307.12 6084.86 5478.92 4467.94 4850.81 6038.14 4723.12 5024.9 5659.17 4562.29 5998.38 5423.8 4270.24 4989.15 3417.33 4947.52 4164.13 4520.1 4305.57 5874.89 4293.03 3791.79 5201.67 4754.05 4424.7 5526.55 3315.57 6084.93 4669.66 4764.96 4808.52 5461.13 3599.45 4907.89 5091.39 5629.19 5090.24 2240.39 5923.5 4727.24 5096.78 4612.68 5293.9 3320.52 4129.43 4685.34 4151.94 5927.43 4384.42 6355.42 5690.56 4362.19 3693.63 4493.48 4749.8 3937.74 5810.84 5094.44 4655.49 4933.21 4566.18 5375.47 4964.09 4809.42 4717.05 5287.2 4234.94 5013.13 5080.66 4926.42 4642.34 5248.77 4083.97 5153.74 4165.81 4528.09 4389.21 4128.98 4925.44 4951.47 5246.61 5215.15 4307.28 5046.33 5804.71 5607.24 5053.92 4726.76 5655.21 5839.13 3735.44 4786.6 4073.93 4645.41 5740.84 5530.87 4973.83 3912.37 6142.94 6342.25 3843.58 4931.38 4736.58 4329.05 6082.81 5110.37 6327.9 5492.26 5244.78 5762.84 6640.13 5478.47 5082.6 6142.37 4230.54 6061.47 3748.24 6163.38 4997.27 3459.9 4093.08 5543.27 5856.11 3327.49 4109.88 3960.8 4980.85 5714.58 5110.45 3329.99 5208.32 3296.27 3895.51 4607.02 3556.85 6673.96 6291.51 5882.89 6246.22 4188.32 4100.38 4739.42 5538.93 5020.12 5727.3 4242.52 6352.26 3057.03 3847.38 5356.51 4907.06 5163.9 5495.68 4433.59 6043.3 6445.94 4281.49 4310.18 4320.28 4218.06 5542.14 6691.39 7134.64 4602.25 4194.5 4501.51 4792.73 5513.6 4901.41 3485.26 4556.36 3240.09 3191.99 5664.98 4659.59 4048.37 4220.88 6519.71 3092.35 5210.03 5351.39 5119.37 3982.23 5806.08 5243.29 4853.39 4449.22 3130.65 5365.89 5628.24 5992.26 5070.39 4923.9 4613.31 4973.78 3947.47 4713.25 5091.68 4204.84 6243.0 5048.89 3991.03 5441.96 3435.9 5174.89 4288.3 5370.52 4652.29 5774.81 3697.96 4723.48 4899.11 4745.45 5281.28 2631.9 3818.59 4087.15 4863.72 5489.34 5002.48 5708.14 5952.75 4262.82 5537.72 3920.42 6332.36 4931.53 6122.55 5480.13 4270.53 4790.08 5978.9 5082.47 5191.63 5344.25 5344.0 4043.57 5925.6 5379.87 3708.04 6013.14 4602.86 5138.31 4621.75 5264.06 3369.23 4551.24 5358.59 3688.8 4548.16 4515.71 5449.18 5367.52 4322.15 4714.54 3629.96 3320.11 5030.91 5507.24 6022.17 6851.54 4583.31 4503.89 4336.42 4306.11 3402.32 7589.94 5004.67 5409.33 4466.03 4511.54 4898.94 5196.0 4733.04 4178.15 6119.09 7531.29 5069.25 5935.03 3161.47 6390.78 7435.25 6826.57 4788.87 4495.87 3746.31 5344.77 5027.98 5097.87 4278.07 7267.18 6475.1 6255.18 4143.08 4758.21 7500.97 6623.85 5228.18 5102.36 8332.24 2739.94 6155.31 4187.56 6308.71 3629.62 4840.84 4997.27 4301.06 4716.19 5135.69 4593.7 3456.98 6045.46 4763.45 4150.99 4107.03 3771.48 4478.15 5681.38 5147.67 4138.42 5987.17 3979.82 2765.2 5006.58 5586.81 4581.13 4219.07 3856.59 3610.4 6387.01 5413.79 6202.55 5025.39 7111.16 5893.5 3817.13 4547.19 4377.07 5101.59 3813.22 5570.3 5935.47 5903.66 5313.66 4528.49 5419.37 5275.32 5985.29 4247.23 4268.65 4694.83 4354.08 5788.66 4520.62 5229.48 3903.75 4755.47 5475.7 4485.99 5475.8 5314.69 6050.81 5543.46 4249.46 6022.72 5498.32 5527.33 5346.27 4969.21 2691.29 6256.02 4277.88 4668.71 7228.46 6362.14 3948.23 6719.88 5787.31 4342.9 5065.11 4223.33 4553.56 5911.67 5329.64 5514.76 6695.82 6405.76 4290.14 3815.26 4877.67 4020.32 5445.87 4216.92 4704.72 4571.7 4177.94 4742.68 5922.5 3929.19 4271.69 3633.87 3970.25 5198.77 4850.01 4292.06 5643.58 5577.04 5011.31 6318.18 4481.53 3948.17 5077.33 4746.52 5572.95 6338.89 6723.16 5584.06 3686.21 6480.17 5023.15 3695.36 3844.9 4564.34 3963.86 3848.93 5076.35 6020.48 5200.05 4091.8 5234.29 4645.58 2651.49 5512.23 4711.62 5349.31 4649.22 2976.22 5394.55 5509.42 4256.43 5936.36 2682.24 5928.32 5415.19 4016.18 5127.16 5435.74 4244.99 5327.45 5560.26 5965.81 3702.37 4643.31 2330.66 4177.19 6917.52 3691.0 5402.21 2845.98 4880.14 4982.31 5320.92 5269.18 4406.1 5034.59 5978.82 4942.77 5069.84 3927.99 4051.44 5868.82 3323.28 4050.9 6049.55 5709.62 5835.78 3498.2 5941.72 5794.24 4245.72 6562.18 5908.1 4541.21 4344.58 6048.7 5634.83 5896.46 5495.84 4862.21 5113.21 4502.5 5499.11 5347.48 2775.04 4810.12 4138.46 5215.05 3821.72 6035.6 4986.77 5137.34 5423.0 5330.45 5125.78 3689.45 3824.16 5045.38 3868.18 5130.91 5372.61 4948.5 5402.24 4519.22 6445.22 3838.56 4871.44 6248.81 6375.99 5273.35 6259.23 5181.4 5670.2 4662.56 3457.48 4114.24 5166.79 5417.15 3688.16 5094.52 4946.74 5996.33 3950.63 4612.62 5526.75 3619.07 4275.57 6385.23 2614.4 2983.99 6185.89 3997.96 4750.17 5660.85 3460.94 3990.25 6184.4 3758.07 4752.51 4373.45 3587.05 6229.37 4989.09 5289.52 6718.19 4307.48 5314.85 4305.43 5450.44 6510.17 5080.18 5266.5 4263.33 4454.63 4523.88 4066.38 4241.89 3279.1 5054.74 4981.9 4537.32 3066.13 4127.74 2476.04 4156.38 4302.5 5105.16 6009.88 6006.16 4164.68 5316.75 6268.1 5022.8 3784.5 6133.92 3719.84 4178.4 7034.11 5782.6 4011.77 4527.08 6261.42 4374.35 5965.78 6396.74 6898.19 5526.14 5198.29 6449.45 4044.45 3975.31 5344.43 5262.19 4373.47 6070.58 6034.41 5350.88 5452.83 4959.34 5383.07 4527.02 4531.14 4247.15 5013.42 4602.85 5651.07 4962.77 5872.05 4853.02 6101.92 5323.3 5088.44 4635.6 4998.21 6079.11 3931.07 3405.98 6430.39 7440.72 4681.72 3949.6 4945.39 6326.18 5661.62 6631.19 4467.04 6648.68 5626.61 5817.25 6363.92 6205.93 4439.35 5830.72 3828.81 5309.98 4236.14 5733.62 4407.87 3848.54 5282.91 5941.4 4425.84 5331.02 4871.96 5742.65 5592.32 5912.61 4978.31 5381.16 4099.77 4403.98 4948.98 4414.48 5227.52 5163.02 4656.78 4092.24 5991.09 5126.91 4678.38 5448.61 5050.65 4827.33 7055.53 5513.57 5013.67 5669.65 5729.23 5934.22 3780.23 3471.03 5253.55 4359.62 5820.48 6057.22 2586.12 6946.21 5433.8 6125.34 5975.63 5252.34 4410.55 2965.79 7099.43 4287.63 5315.4 4516.28 3627.82 5678.96 4244.9 4285.32 5490.43 4986.51 5022.28 5197.52 5178.99 4790.78 4591.87 6422.84 6552.22 4502.18 5379.09 5210.48 7552.94 4051.34 3627.55 6239.84 4256.67 5865.39 4427.28 3082.32 3658.37 5949.46 4765.02 5376.71 5703.6 5070.29 4867.08 4807.28 4266.03 5075.55 5280.69 4220.03 4713.74 5407.78 4084.49 5061.98 6632.99 6179.96 4537.6 4923.24 5147.36 4419.61 7177.44 4563.46 4082.57 6553.94 5255.18 5169.9 5282.51 3004.16 7256.35 3797.33 4105.55 4863.23 4800.69 6566.1 4402.67 3555.86 6386.78 5565.13 4560.84 6086.96 4729.43 4562.74 3701.27 5233.78 4806.34 5776.57 3942.07 5133.97 7443.72 6600.94 3937.08 5371.02 5260.34 6155.1 5206.48 4709.35 6586.45 5826.04 5624.49 3095.48 4166.08 3979.26 6608.73 5188.81 3745.84 4730.41 5011.84 5696.88 5690.26 4156.2 5062.71 4497.59 4289.17 5564.02 4274.61 6314.07 5776.37 3921.08 4190.31 5486.68 6048.86 5100.25 6894.26 5311.03 5339.38 6169.11 5615.35 4896.11 4027.09 5172.53 4135.62 5801.99 5534.94 7644.38 6004.68 6799.4 4409.63 5521.25 3661.9 5107.23 5370.85 5136.08 3178.54 5558.68 3776.94 5629.39 4448.13 2684.03 6157.04 4768.61 2261.36 4522.21 5506.19 6719.94 6923.84 5449.46 5703.07 6113.54 4662.43 6260.79 4043.66 3963.76 5528.53 5726.66 5460.65 4460.92 4767.78 5945.89 5235.17 4042.28 4779.5 4340.76 4435.36 6065.22 4221.28 4470.61 4996.99 6193.35 4631.83 6887.27 6008.49 5653.9 7144.24 5598.74 3600.43 4906.82 4788.58 5131.24 5196.67 5876.71 6496.67 5474.8 5226.0 4373.3 5339.78 4750.78 4861.06 5762.59 6481.79 5320.28 4796.58 5960.66 4298.67 3999.48 4962.09 5654.31 4203.26 4643.85 3923.03 4004.04 5607.14 6072.45 6915.83 4027.46 4470.98 6444.77 5759.46 5083.41 7055.42 5683.61 3836.45 5805.86 4049.02 4470.4 5346.68 5296.29 4611.53 5255.12 5094.48 4285.66 3872.61 4238.4 4318.48 6132.95 5266.22 4860.33 5226.97 3685.13 3312.06 5754.18 3361.26 5180.76 3418.99 4480.95 4993.35 5278.36 6218.95 5222.16 5533.72 5533.42 4802.32 4010.57 4599.38 5246.47 4187.31 6191.29 7422.36 5161.01 4298.15 4950.67 4628.4 5227.59 6166.29 5453.6 5409.63 5294.77 3077.84 4709.05 4630.82 4813.08 6799.88 4540.86 3062.43 5426.78 2967.38 5652.0 5463.41 4421.12 5225.33 4929.75 5254.49 6649.96 4456.39 4303.19 4896.39 4384.88 3633.79 6081.14 5480.83 4220.46 4607.85 4287.53 5683.26 5612.21 5046.21 5894.61 5687.83 5004.23 6442.69 6320.71 4648.04 3527.05 6262.72 5029.78 6607.87 5374.51 3365.82 3664.11 4163.5 7092.87 5224.12 4850.14 3637.61 5463.38 4569.12 6098.14 5750.71 5873.69 4472.17 6222.42 5470.77 6062.05 5082.74 4735.33 5411.85 4844.57 3999.94 6171.13 5092.37 2395.5 3901.8 5511.88 4864.22 5941.61 4512.11 4933.65 6248.6 5443.58 5687.85 4558.46 6401.43 5020.71 2681.29 5997.88 5839.71 5576.92 6408.83 3930.79 5365.24 4004.35 4763.96 5008.63 4270.74 5132.68 6293.89 6595.03 4983.39 5366.52 4690.55 5146.37 7132.12 3678.08 4836.16 5518.57 5463.48 3240.51 5730.33 4527.99 4376.7 5190.61 5832.37 3764.06 6051.83 4642.93 3973.12 4263.16 6024.75 6109.49 5860.67 5987.42 5990.52 3764.1 4835.83 4159.35 5604.35 6477.91 3091.67 4237.98 6439.37 6045.22 4081.97 4614.3 5134.39 5514.84 5784.3 4256.57 3914.2 5421.53 6088.68 5937.08 6070.3 5128.57 4929.14 6000.7 5945.08 3979.54 5139.5 7493.3 4968.03 4814.55 5833.06 5698.77 3464.83 6515.84 4143.78 4123.6 4538.95 5724.64 4970.88 5965.15 4763.66 6739.08 7042.12 4797.52 6343.14 5501.93 4471.58 5462.21 6313.06 5945.21 3493.7 4938.74 4200.03 6470.3 3474.39 4831.47 5516.95 6939.12 5563.79 4413.85 4406.4 3905.51 6853.85 4020.4 3497.9 3493.47 4596.75 5782.48 4031.78 5950.04 6098.1 5708.99 4231.83 2435.33 6333.29 4558.47 5731.57 5662.55 4360.23 5737.92 3755.95 6234.32 4585.31 4586.19 5293.51 3450.93 4446.06 5323.91 5097.45 4185.61 5737.75 4558.15 2761.07 3778.02 6552.21 5417.8 5227.02 4350.12 5670.0 4232.16 5300.96 5151.11 4344.51 5680.94 5581.55 5545.46 4543.1 5193.01 6550.44 3474.5 8325.01 5732.27 4440.81 4523.39 5941.9 5434.47 6642.76 5829.22 4497.78 4243.79 5567.93 5811.18 5433.65 5332.65 6451.33 5413.31 6316.56 4332.87 6420.81 4715.58 5401.99 3317.83 5580.92 5769.98 3532.3 3583.21 2221.99 4643.56 5442.32 5067.46 4135.08 4863.01 5620.74 5233.29 5604.21 3169.67 4312.56 4612.06 5204.04 5304.13 3361.92 3306.14 5944.09 4863.79 5490.58 4702.06 5395.14 2477.07 5117.47 4923.41 4497.31 4925.63 2990.77 3163.78 4888.6 4305.16 3293.56 4666.81 5882.65 5078.86 4780.2 5163.55 6326.39 6817.32 4319.79 5960.56 6643.85 5774.97 4020.95 5862.86 6049.79 5374.98 5226.56 6345.13 5274.19 5599.49 4097.57 4719.7 5313.22 5328.22 4151.76 4216.17 6484.17 4721.02 4254.37 3546.71 5768.57 3374.08 5564.23 3735.24 6574.95 4074.48 3614.96 4477.04 3886.68 6853.04 4745.43 5703.74 4747.55 5831.96 3056.7 5464.68 2685.81 5591.76 4510.8 5889.35 5010.04 6625.18 4394.56 4570.98 4275.07 5825.38 4573.72 4047.87 5099.21 5742.47 4917.99 5636.4 4367.78 4095.75 3603.51 4298.45 5222.51 6609.84 5135.96 3781.77 3834.43 5658.37 4707.06 6074.94 5491.37 3860.83 4250.88 6348.03 3475.67 4792.39 5278.56 5146.37 6917.62 4013.38 5631.14 6137.8 4343.78 5263.3 4442.22 4008.15 4887.76 4669.06 3012.99 4811.32 6400.08 4743.59 5208.14 5151.52 4450.7 3763.05 5973.33 5092.24 5369.08 4347.74 4518.04 5291.9 4009.62 3580.58 2081.58 5356.79 2511.46 4011.37 4778.82 5657.36 6124.08 5467.84 4750.58 5053.95 6710.88 3967.48 6667.68 6213.04 4721.32 3830.46 5092.28 6413.11 4739.14 5274.14 4918.77 4434.19 4636.5 4819.73 3382.7 4940.42 6471.55 3954.91 5085.71 4946.42 5923.4 2965.01 6263.44 4863.27 4584.5 5122.63 2315.64 6766.43 4703.08 4390.41 4890.5 4050.08 6113.95 5452.42 4901.07 5186.3 5017.5 3436.15 5005.85 5711.11 5325.44 4575.94 5021.88 4938.72 4597.29 5956.65 4188.87 4498.25 5931.77 5151.21 5398.64 3573.73 6817.57 4693.52 4568.41 3624.7 3420.08 4912.04 4691.91 4539.07 4475.83 5064.79 5480.3 7509.24 5896.26 5388.78 6101.13 5599.7 4163.74 6969.28 3665.95 5698.96 3319.67 6471.42 5283.8 4076.59 5164.1 6464.15 4972.17 4479.11 6685.4 5699.53 4222.77 3783.54 5268.38 5527.23 7038.89 3863.67 4814.12 6193.08 5067.56 6069.3 3352.35 2735.53 5116.6 4909.65 6523.86 7693.4 4286.49 4326.48 4437.07 6184.88 3449.37 5491.9 4396.25 5829.32 6405.0 5551.95 3918.87 5549.49 3101.75 4766.06 5423.42 4874.18 6605.86 2775.69 6505.78 4785.25 3619.79 6519.43 5029.47 5876.64 6306.21 5926.11 5253.37 5211.38 5235.11 6031.67 6515.8 5529.42 5384.76 5257.12 6138.12 4903.82 4428.78 5100.1 5746.28 4371.99 3703.1 5187.7 3561.29 6090.91 4152.85 4623.61 4082.47 3295.83 4219.78 4963.34 5499.39 5644.82 6413.02 4440.57 6235.57 3492.19 5203.08 5412.31 4118.84 5548.29 3623.87 5916.16 5163.77 6934.37 6027.62 3731.84 4488.85 3423.15 3981.07 4579.69 3554.48 6496.52 5966.61 3991.42 4893.49 4834.87 5102.75 3672.21 5760.22 4200.09 5938.17 4795.43 5097.95 5108.06 4914.45 4222.4 4698.87 4000.43 3984.88 4661.03 5160.59 5262.35 4281.98 4320.42 4255.34 7165.9 5344.83 7046.11 3427.63 4863.97 4146.81 6342.48 5756.75 5093.82 4587.67 5951.81 3924.14 6918.35 4296.69 6238.32 6804.79 6372.13 5369.5 4428.14 5404.01 6016.19 4124.49 3230.13 5714.25 5325.96 4850.06 6332.01 7044.29 4805.33 4234.18 7085.01 5980.95 6836.82 3862.77 5887.01 4631.99 5168.35 2783.85 3747.03 5388.39 4356.49 5335.47 4526.81 3994.07 4219.94 5907.46 4264.91 4659.16 5399.29 5789.55 4633.05 2275.45 4901.2 6522.59 5012.5 5435.19 5461.55 3562.79 4270.15 3298.2 5424.46 6865.76 5266.01 5767.9 2978.76 2040.66 7016.27 6622.11 5089.62 4689.15 4965.89 6790.73 5659.95 5243.43 4741.26 5920.32 5409.66 4186.6 4537.14 5551.9 5251.4 3867.19 4188.3 4453.64 5081.78 4459.28 5019.93 5235.29 4255.31 6116.33 4260.92 4479.94 6250.23 4407.9 4718.54 6736.03 5374.07 3087.09 7480.41 3766.55 5683.95 5469.13 5010.2 5765.42 6098.95 6123.03 4997.83 4388.63 3718.69 6192.0 4514.79 2216.82 4940.28 4509.89 5885.28 6752.75 3004.34 5269.38 3022.6 2928.82 5607.3 4811.76 5313.12 5351.56 3344.57 5318.53 4732.09 5220.76 6945.98 5138.2 5783.48 4701.5 4449.98 4771.65 5589.37 4840.44 5439.49 6639.64 5212.43 3687.65 4834.3 5454.12 5478.95 6348.54 4066.57 5642.35 5156.76 6357.47 6101.57 4891.38 5535.91 4793.65 5955.86 4532.89 6176.67 4533.37 4848.46 5412.24 2779.99 5016.02 4581.37 4920.21 4049.16 5851.61 3936.95 6153.94 5478.11 5526.31 3858.17 5030.15 3477.1 4740.98 3185.39 3728.18 5128.77 7122.87 5633.61 5048.19 4243.26 6799.23 4888.27 6740.71 6487.56 4854.11 5971.22 4909.31 5417.21 5711.62 4383.56 4798.17 4990.79 7093.13 5166.79 4516.53 4953.1 2895.63 5818.95 6449.64 4093.99 3940.49 4857.84 6464.8 4908.49 4684.44 4962.21 5884.9 3685.13 3468.42 3685.65 4590.55 4673.35 4655.16 3876.21 5869.4 4916.22 3701.16 6022.7 4345.67 4255.85 5511.6 5097.69 3885.86 6261.75 4517.73 5177.64 3757.34 6415.61 4338.08 5660.16 4541.8 6134.99 5453.3 5424.88 3838.47 2588.37 4062.5 5887.15 4435.51 5415.85 7234.66 8659.64 4055.54 4588.7 4886.12 6419.12 6107.89 4233.8 4976.12 5530.49 4817.16 5660.55 5453.98 5148.08 5653.03 5578.94 7610.49 4286.17 6579.31 5323.55 5375.1 3804.5 4172.6 5498.42 4196.37 6448.66 3556.79 4453.97 7317.04 6412.67 7001.83 4504.35 4593.7 5012.97 4036.91 5110.11 6379.14 5216.26 4887.52 3851.85 6318.23 4058.87 4206.98 5174.75 5932.07 4984.46 5948.71 3856.53 2949.12 5460.89 6040.74 5260.85 5742.09 2884.65 5887.38 5807.46 6942.34 3658.05 4549.69 6423.81 6192.77 3644.78 4312.15 4078.93 5934.82 4501.78 4922.49 3572.94 5797.36 5001.58 4153.84 5119.86 4592.15 5084.17 4901.44 3776.8 4998.22 5533.19 5096.43 6156.21 6602.43 3568.28 5425.98 5996.66 6479.39 4122.92 4997.91 5079.22 3604.14 4452.54 4406.05 4749.59 4858.44 4680.94 5799.69 5828.35 5571.72 5689.26 4992.42 4771.13 5297.19 7051.9 5895.77 4940.84 4608.41 4765.72 4732.09 3988.3 5857.79 2908.7 4039.91 6136.49 4642.66 5276.7 4752.14 4378.3 4419.71 5037.06 4950.97 5175.29 4863.96 5842.56 4094.73 5191.08 6200.54 4199.45 5148.58 3548.39 5421.64 4858.51 4207.54 6599.66 3375.28 5625.65 4936.96 4301.61 4481.76 3184.64 5206.33 5452.78 4446.84 5065.26 4304.41 6789.23 3989.7 4157.29 4777.03 3684.56 4246.61 6028.09 5327.75 5452.36 4609.02 6486.37 4638.18 6083.28 5211.6 5806.31 4745.79 3503.41 5456.71 4908.75 3971.08 6204.65 4482.9 6550.4 4349.13 3766.69 4891.67 6818.91 3503.65 3634.5 4027.63 6631.28 6571.31 5420.67 4392.65 6413.15 6103.11 5048.55 6459.51 4024.31 5844.72 3992.97 5989.05 4054.22 7228.94 5393.65 4961.99 4648.21 4393.16 4595.12 3311.29 3110.13 6484.43 4625.67 3485.54 4458.64 4583.52 6418.11 3492.83 6015.02 5244.22 5585.14 7039.98 4820.17 6456.58 4729.42 4159.81 5089.26 3886.72 5415.45 6592.93 6350.71 6436.74 6104.26 2460.79 5583.61 6063.64 4986.71 4405.42 7382.3 3598.08 2995.67 4022.56 4599.81 5381.54 5522.21 5810.77 5698.23 5089.1 2711.19 4028.32 5876.72 7519.2 5236.43 3809.69 4099.92 3208.96 5285.07 3858.06 4680.14 4478.6 4083.79 4184.23 4144.57 4833.46 5750.07 4351.38 5933.7 6543.13 4809.67 5149.72 4687.64 4757.74 5036.58 5469.47 5329.59 4888.12 6119.63 4244.21 5439.9 5411.02 5512.16 3197.63 4989.56 4617.55 4287.16 3645.12 5471.74 3456.47 5199.44 4344.34 5713.03 4652.01 3583.49 5849.65 3673.28 4928.27 5052.84 4366.74 4165.21 5297.16 4603.5 4647.67 5354.66 3566.79 4214.44 5378.23 5375.12 4787.97 4356.36 3746.36 4892.44 4741.28 2603.64 4215.2 5069.89 2856.55 5107.0 2205.51 6212.15 5361.87 6813.72 4783.07 4946.23 4896.65 5561.74 5975.23 6100.73 4788.08 4198.94 5470.04 4211.82 6556.26 5684.25 5438.92 4244.49 5036.98 5513.8 5188.53 4521.75 3429.57 5569.2 5350.88 5410.33 4642.74 6735.97 5305.59 5416.45 4330.58 5754.6 4955.16 3288.01 4904.51 4147.31 2202.77 5751.15 5950.88 4441.22 4149.55 5853.89 6551.93 4140.4 4386.8 5446.4 3639.44 4725.01 5966.75 5510.9 3657.69 4883.63 4505.28 4971.29 6280.13 3684.15 5832.29 4438.76 3994.39 6006.89 4618.73 3814.65 5244.98 3965.3 5792.98 4960.64 4983.3 4385.81 4034.05 5690.96 4456.11 5798.38 3862.91 4653.83 4125.9 5096.24 6171.71 3628.89 6589.82 4668.88 5027.43 3772.3 4855.01 7300.58 4714.83 3608.06 5474.15 4923.57 6633.61 4884.59 5217.95 6355.68 4511.7 5484.36 3953.55 4187.94 4304.63 5550.75 5980.59 6834.41 5021.77 7248.4 4356.25 5776.96 4209.49 4216.95 5464.25 5742.74 3946.28 3821.94 5984.81 4209.31 3498.16 5486.48 4409.27 4752.9 5301.47 4947.24 3875.05 4588.99 4321.21 3540.11 5950.45 5088.57 5580.34 3852.6 5775.31 5134.67 4110.59 3332.49 4847.14 4215.0 4706.5 3950.27 5116.66 3629.44 5003.78 5374.67 6246.56 4981.43 4061.6 5473.72 6214.73 4553.68 5175.89 3894.64 3703.49 6502.97 4268.19 4374.74 4757.2 3758.22 4062.56 4852.58 6200.63 4532.7 4504.86 4473.29 5079.64 996.652 6163.54 5212.37 6500.49 6003.78 5965.58 2628.22 5058.51 4901.29 4124.76 4050.03 4775.04 4120.07 4952.52 4882.66 3840.21 6746.66 4954.76 3908.56 4844.83 5244.78 3636.15 6114.89 5135.63 6384.7 4355.83 6870.97 5351.86 6056.87 5474.01 6201.86 5307.35 4342.18 7554.58 3380.69 5166.89 5491.63 5725.37 3868.62 5138.33 3743.76 3425.69 6711.21 5510.45 4730.14 2606.51 4941.02 3864.92 6119.99 2955.36 3668.93 4128.1 5372.82 4402.17 7778.01 5127.82 5124.17 5805.1 5366.11 5039.12 4064.58 3908.98 3419.87 4824.81 6328.42 5769.14 7307.21 3381.82 5522.75 3619.72 5867.64 6208.9 3340.09 6059.93 5602.53 4867.7 6061.63 2279.05 4829.35 4063.9 4075.28 4277.24 5263.27 4314.56 6300.92 3796.15 5161.1 3928.53 6045.67 5466.33 5280.12 7216.98 4444.97 5721.05 5271.02 6329.53 7013.17 3805.67 4590.01 5718.28 4247.69 4514.39 5367.73 4640.06 6242.79 4227.41 6506.86 5391.48 4803.57 5966.42 4923.43 5009.83 5131.15 5210.38 5717.8 4811.22 3683.86 4918.76 4474.83 5293.75 3299.24 4208.41 5826.78 5730.61 4508.18 7124.45 6358.93 5064.67 6618.21 5232.85 3717.47 4051.18 3205.68 5969.37 6816.66 3217.67 3844.54 5034.69 4509.46 4680.69 3538.53 4420.11 6127.39 4972.18 4607.18 3352.34 5329.76 3899.7 2403.72 7200.89 4147.49 4813.33 4802.98 4833.55 4081.34 3646.95 7224.99 6334.53 5377.37 5869.67 5652.87 4311.48 5483.7 5018.69 3152.86 5952.38 3896.27 5807.52 5963.36 5230.02 5087.14 5169.48 6016.08 4731.21 3124.7 6064.71 6102.98 6060.17 5153.18 4763.4 5902.67 4236.86 5454.11 5393.76 5806.61 4983.1 6010.59 7123.04 4009.24 3756.96 5906.57 4446.58 5401.4 5053.15 5910.86 6239.68 7320.78 4834.44 4234.88 4384.28 4456.26 5113.6 5944.3 3563.14 4810.98 5135.5 4646.51 5347.9 4438.58 5640.72 4565.93 5851.63 4504.52 7107.63 5073.02 6545.43 6760.92 4023.93 4989.2 4469.54 5868.89 8137.11 5291.05 5484.32 6650.77 6226.14 4173.54 5599.29 5606.51 4801.8 5740.65 5166.41 6038.68 5046.12 5067.56 3000.29 4807.4 2596.96 3834.47 6349.67 4350.15 4264.54 3516.27 5261.19 4139.3 6541.45 4263.78 4601.74 6101.86 5078.31 5228.75 5993.0 6047.14 5467.63 4568.64 4929.6 5666.95 4642.2 3919.62 4127.53 5210.75 4489.99 4548.45 6555.44 4551.26 5658.14 5114.07 4385.49 4263.18 7142.95 4383.68 5836.26 6666.67 2617.39 5144.44 4583.94 5046.31 4928.35 1937.5 5241.75 4731.53 5849.53 3763.9 4651.99 4788.7 5863.0 5084.5 5640.12 6638.25 5078.59 5134.33 5419.57 5162.67 5760.98 4705.68 5469.35 5384.86 4749.96 4658.24 4387.39 4906.11 4899.73 4564.1 5457.66 6394.19 5973.89 5366.22 6193.73 5518.11 3742.11 4192.21 5712.35 3597.43 5701.52 4743.9 4158.91 6776.22 5321.17 3719.11 4467.13 4869.25 3877.8 6273.6 5136.87 5024.32 4708.17 3779.45 2741.2 5790.42 5784.37 3142.09 5591.77 3682.35 5182.13 6110.48 7541.76 4775.49 4932.29 4681.29 4990.23 5499.59 3220.29 3845.9 5749.6 4141.21 5782.43 4439.71 4708.31 4027.33 4198.9 3873.92 5431.29 5091.22 5026.76 5023.41 6282.38 4546.44 5657.55 5727.79 5212.92 4831.93 5788.97 5615.84 3472.91 4464.73 4928.85 6440.38 5556.0 4711.04 5007.21 7144.05 4619.2 4506.18 4824.12 4067.96 6542.5 7104.73 4834.39 4383.47 6162.3 5493.89 5701.75 3272.75 4057.17 5262.47 3104.96 3512.94 4467.0 7043.44 4991.35 4263.65 3831.52 4587.7 4750.49 4258.98 4643.9 5196.92 6106.43 3787.08 5644.81 4807.35 6761.81 5334.36 3903.91 4728.55 4554.68 4368.28 5750.35 4692.32 5984.8 4945.0 4658.11 3127.83 4212.15 5678.58 6570.35 4242.63 3269.54 4559.74 7407.91 6015.22 4454.74 6063.44 4826.52 2904.46 5120.92 4337.32 4685.4 6240.42 5146.0 5721.14 4577.73 4987.28 6206.98 4918.64 4815.47 4759.99 4368.12 2646.13 4365.58 5214.4 4636.53 5399.43 3629.49 5766.05 5117.64 4019.34 3835.81 3916.42 4869.48 3623.19 4745.16 4697.91 5825.55 5509.51 4848.14 4316.5 3199.4 5254.24 4914.03 5086.29 5144.56 5311.55 5139.18 3360.86 5551.43 3034.16 5049.99 4201.03 5545.21 4333.87 5001.87 3667.93 5684.05 5638.7 5813.79 4644.88 5293.13 7350.26 3768.46 5167.53 5003.3 6245.52 5800.81 3954.77 3784.94 6016.87 3125.13 4506.66 6715.73 4174.44 5667.51 5209.55 4564.41 6331.74 5951.86 4252.18 4833.67 4659.88 5325.91 4092.07 4213.05 4224.3 4184.21 6203.03 5188.82 4700.07 5235.87 5273.37 5043.14 4717.73 4732.37 4985.3 3904.07 5072.5 5713.36 3274.85 5748.9 5545.59 5494.28 5610.53 3663.0 2970.9 4099.26 6304.49 5206.47 5755.15 4580.06 4608.34 3926.11 5971.21 4835.97 6419.64 5464.83 7066.96 2781.96 4431.23 5414.58 5917.34 4994.65 5740.98 5601.55 4462.87 5759.79 4013.86 6545.99 4177.47 4218.16 5630.9 2918.64 6139.64 4140.92 4512.07 4756.8 4896.43 5463.06 5236.24 4639.8 4585.04 3986.41 4241.68 5260.52 6102.49 3185.09 3469.18 5114.23 2945.34 5495.0 3372.95 4489.29 4301.93 5064.23 6061.85 5268.15 5512.44 5819.0 6449.06 4924.07 3200.6 4629.02 5914.5 6006.16 4288.45 4608.62 5407.96 4071.75 4626.72 6562.03 5549.71 4410.82 6443.99 3889.98 5193.58 5490.64 5695.44 4507.46 3422.21 5429.3 5603.68 5510.96 4944.51 6653.07 5532.72 4584.81 3220.8 5071.98 5719.79 4371.08 5148.1 7261.51 4968.14 5224.64 5949.73 4312.48 5527.13 4278.57 6370.33 5081.08 6318.25 6864.06 4493.79 4279.44 4899.19 5058.34 4028.22 3918.94 5575.11 5487.63 3852.82 4507.36 7145.73 4168.52 5403.97 5106.46 6793.1 4068.31 5166.05 5077.29 5515.73 7035.54 4850.5 5426.4 5763.05 5129.68 5357.39 3791.41 5076.84 5853.12 5247.01 4208.37 5157.38 4841.7 5702.4 5069.9 952.938 5473.89 4678.7 6089.45 4966.07 5810.17 5265.21 4657.24 4749.18 4400.14 5553.94 3669.32 4704.92 4762.1 4954.81 3742.31 4316.0 4546.96 5424.55 5134.72 4921.1 5695.79 3814.16 5287.25 4420.6 3622.8 4589.06 4770.51 5577.41 4184.47 6511.37 3999.5 4346.07 6710.14 4012.92 5034.05 4598.54 4426.02 5218.42 4816.51 4933.49 5345.73 4770.63 3990.94 4841.23 4357.11 5477.8 4176.32 4462.35 6069.78 5532.75 6949.65 4095.83 5695.25 5676.61 5846.95 5716.42 5701.63 4620.95 6347.72 3460.93 4488.39 5124.86 4927.73 3565.32 4602.57 3763.85 3419.07 5710.33 5344.44 6432.8 5131.77 3186.07 4369.86 4967.51 5173.82 7212.97 5698.53 5034.34 3856.73 3769.2 4450.49 5036.14 3468.45 5635.32 4526.34 4316.45 5610.95 5042.75 5179.17 4598.92 5579.39 5270.51 4979.52 5490.75 4407.79 5214.63 3495.68 5783.94 5352.24 7362.42 4202.77 5836.14 6008.81 4932.56 5192.49 3487.31 5726.42 6643.4 4674.9 5461.72 6599.28 6224.85 4556.19 5368.66 4795.08 6562.92 5501.73 3671.06 4697.24 3612.44 4983.43 5117.52 5233.76 5866.91 6405.69 2820.07 5679.74 4825.73 4165.36 5288.33 6296.54 5797.21 5685.74 6740.35 3673.6 6028.63 3450.07 3306.84 4550.92 6215.87 5191.26 5866.42 5544.27 3484.81 3987.69 4287.25 6502.99 4392.75 4666.12 4271.07 6219.34 4191.01 4475.38 5674.63 5340.05 4920.88 4140.04 5995.4 5890.25 4216.44 5700.79 5735.08 4726.2 4750.81 4711.15 3825.48 4658.59 5188.22 3810.68 2804.54 4196.62 2809.19 5005.6 5486.89 7208.19 4549.51 5196.08 3587.93 4517.29 4975.85 4495.75 5323.95 6171.01 4468.26 5796.26 4603.04 4870.94 5368.93 5293.37 5271.88 6121.56 7168.2 4571.74 4096.86 4796.12 3622.48 5001.51 5385.86 5115.42 4082.4 5482.76 3745.02 3720.7 4887.73 4211.36 5378.24 3604.31 5817.74 5887.71 5661.6 4827.61 5409.08 5285.75 5481.64 5673.75 5241.22 5360.67 6647.08 6263.3 3422.29 4501.05 4537.03 6548.29 3990.96 4114.2 4326.06 5034.46 5793.12 5473.05 5469.17 4373.2 5537.34 5884.99 7025.09 4433.12 3392.26 2549.95 4361.24 5138.93 6406.8 7086.69 5648.78 6875.73 5226.42 6081.3 5615.35 3967.76 6311.89 4683.28 4217.36 6549.8 4150.76 4851.18 5005.72 5368.52 4871.77 5811.26 5062.77 6019.35 6075.99 5262.79 5927.2 5146.1 6485.77 6060.06 3869.39 5960.5 5308.33 5393.43 6896.55 4685.65 5377.01 6023.07 6470.23 6506.63 4215.05 4668.8 3495.3 4271.93 5322.11 4697.49 5524.45 7133.44 5600.21 3953.26 4474.39 5467.51 5459.92 6478.35 4096.47 5114.67 5453.77 5353.66 4916.7 4104.04 5589.53 5593.79 5025.42 4965.24 6379.38 6257.79 5438.55 4849.5 5353.23 6229.83 4523.81 5578.18 5106.33 5198.94 5933.54 5559.79 2980.31 5879.24 3148.79 5740.78 6824.53 5997.91 4742.82 6791.86 4209.0 4930.72 5728.58 6424.77 6297.99 5918.95 4538.89 5689.56 6556.86 3242.31 6099.28 5372.25 5385.03 4169.15 3234.26 4778.37 5134.17 5968.54 4904.35 5592.54 3247.97 5124.34 4904.37 4358.81 4651.64 5729.92 5757.29 5016.46 5061.75 6224.13 3769.24 4761.84 6022.78 4087.32 5517.65 6647.85 2569.12 4161.32 5161.74 7336.37 5099.9 6945.69 5118.86 4298.7 4183.4 6170.9 4733.79 5833.78 4436.48 4823.06 5758.98 5288.64 6213.24 6734.39 5942.45 4228.53 6123.46 6142.88 5155.28 4461.14 5111.26 5388.73 5205.38 4574.54 4884.93 4949.55 4600.71 4494.15 3957.38 5035.71 5507.38 4419.79 4710.88 5407.69 5152.78 4117.9 4057.4 5534.23 4753.76 4638.09 4441.91 4781.9 6815.96 5330.26 5339.6 5828.25 5939.22 3626.86 6371.96 5125.17 4604.1 5322.07 4859.01 5076.11 5990.75 5101.6 4282.11 6589.13 4625.53 2347.41 4542.16 3543.37 5628.97 2638.82 5527.27 5030.33 5234.2 5104.39 4612.13 5846.6 5327.05 4109.44 4903.84 4290.49 4434.65 5977.66 5209.5 5065.74 5791.25 4873.23 4028.35 5464.05 5453.2 6348.93 5136.51 4332.64 5232.16 4422.23 4457.05 4820.68 3989.26 6031.22 3618.64 5485.84 4335.79 5453.69 5432.04 3921.27 3702.45 5265.63 4898.29 4431.06 5730.2 4830.13 3494.16 5370.9 4074.16 4529.77 4325.13 6172.27 5390.33 3783.79 5078.73 5278.54 5729.0 5192.92 5275.57 4179.87 4786.66 5891.25 5370.1 3661.67 5129.4 5114.51 4009.68 3303.49 4622.73 4655.37 5585.25 5256.75 6351.89 5932.28 5560.23 2960.5 4975.32 5237.55 3902.48 4304.64 6030.39 4905.53 3799.01 7392.65 5254.49 3757.23 6828.8 5987.88 3579.59 6883.86 6161.94 4065.28 5057.59 5939.29 5418.98 5285.6 5575.11 5615.06 1969.87 3132.34 4764.83 5203.54 4841.28 4047.95 6142.94 6889.5 4416.87 5300.17 6581.56 4052.43 4896.67 6025.77 3934.11 4466.22 4496.51 6153.71 5917.08 4725.11 5483.37 5418.12 5092.93 5934.05 4714.66 6771.18 5770.07 4984.17 4656.01 5781.62 5602.62 4037.86 4138.59 5714.51 2030.03 4938.33 4484.78 4621.33 5157.73 5847.91 4541.22 4934.66 4946.08 3539.68 4984.01 6217.33 4557.1 6688.53 5927.1 6175.27 5876.51 6731.89 5410.6 4733.41 5264.83 3901.53 5431.14 6815.51 5313.86 5178.07 5189.91 5777.26 4171.02 5703.84 7012.36 3530.82 5028.06 5797.32 4002.99 4886.99 5159.67 3161.1 5764.52 5684.88 6523.78 4645.86 4045.67 5620.88 4941.52 5900.0 4262.74 6241.77 5317.19 4248.14 5279.19 4016.6 5821.49 7050.08 5580.44 5998.13 5095.52 4746.15 3720.38 4731.37 4758.84 5023.61 4672.86 4068.41 6530.78 3043.77 5783.38 4139.39 3909.94 6264.03 5088.64 6589.8 3729.16 5319.1 3783.36 3038.91 4181.93 3922.28 6570.43 3445.92 3350.99 3820.19 4979.5 4586.82 4745.37 6026.04 6200.05 4052.49 5859.17 4034.41 5490.54 5326.03 6189.67 5717.45 5001.69 4948.96 5117.83 5256.82 4013.86 3980.46 4061.87 5383.9 5165.31 5158.44 3798.09 3886.56 4288.5 4511.05 3456.3 6561.94 5259.21 4256.08 5881.93 2803.01 4399.52 4444.0 4554.24 6182.19 5910.66 5327.39 7415.84 4981.81 5141.03 4970.55 8123.59 5765.14 4767.54 5121.08 2927.84 4696.03 6177.68 4605.39 4698.7 6270.59 6045.26 2848.44 6500.45 4907.55 4103.76 4286.61 2932.52 4603.66 4969.68 4757.87 6636.43 3557.46 5971.95 6298.8 3689.24 3979.46 6321.97 5151.19 6509.54 6119.0 3792.06 5128.59 4293.3 5587.3 3572.73 4864.38 3770.22 4390.64 5150.84 4608.01 5087.97 6005.95 4308.49 4930.17 4581.1 4745.44 4085.96 5762.82 7360.12 6223.98 5462.6 5617.29 3035.06 4262.19 4597.88 4878.93 6275.25 6892.33 4452.36 4505.3 3976.0 4511.34 4832.21 6463.71 5059.37 5394.79 4742.35 5645.54 5264.08 4526.87 4151.74 3562.8 5192.82 6920.92 4174.22 3573.84 4067.89 6294.09 4571.57 5131.07 5236.69 4121.07 5524.28 3133.28 5731.43 6353.81 4150.44 3518.14 5061.74 5771.98 4420.35 5899.78 5772.57 4813.81 5268.27 5244.95 4645.93 5448.64 4585.37 5901.8 6417.61 5715.51 3721.69 5783.69 6074.39 5317.83 6738.9 4460.89 4157.1 8052.53 3939.96 4867.12 6044.01 4637.3 1458.87 5734.07 4840.44 3997.68 6033.28 4819.83 4801.16 5071.38 5616.66 5688.77 5368.28 5466.13 6229.64 4220.43 6263.87 5743.8 4094.63 5084.76 6605.11 6834.92 6379.33 5652.73 5130.57 5402.45 3985.93 6412.84 6071.59 2589.19 6079.55 5485.61 4993.49 5310.33 6583.37 3688.83 3402.44 4848.98 4491.96 5184.98 4467.51 5339.82 4519.03 5460.57 5110.27 5703.34 4612.68 6668.98 6649.52 4232.33 4939.56 4747.68 5770.92 3093.38 4845.91 2002.78 5631.32 6322.0 5793.14 4491.26 4609.65 5704.61 5009.21 4379.91 5410.73 4574.03 5290.37 5850.38 4227.66 4691.01 4594.89 3677.85 5245.95 5821.42 4515.02 3463.53 6126.03 6044.69 2970.24 4197.87 5105.54 5462.1 6032.45 3414.67 5444.36 5522.34 5044.68 2649.69 6908.32 3467.11 5000.74 6153.26 5637.53 3882.37 4634.25 4095.4 5188.57 6351.48 5395.12 3830.7 5357.33 6210.0 5350.9 3483.61 4262.52 7430.48 5992.06 5545.68 6080.69 4970.12 4967.93 6520.19 5973.57 6241.48 5125.45 5957.82 6286.27 4188.16 6327.54 5507.07 4802.36 2943.17 5327.71 4880.78 5257.38 5075.23 4975.56 7282.36 6666.34 3826.01 4645.91 3928.99 5581.01 4125.75 5749.53 5090.48 5247.73 5034.02 5582.28 5945.25 5181.31 3856.4 4696.06 4937.36 4137.16 5308.4 6581.13 4569.32 5537.61 6084.88 4397.06 4199.44 3543.98 4053.12 4479.5 6261.67 3435.13 5065.78 4431.46 4521.42 3207.84 3977.98 6043.34 4128.93 4959.72 4712.17 4723.71 3808.04 4461.67 4405.61 6126.5 4034.88 6007.1 6345.2 5488.96 5128.03 3720.92 5087.3 4942.63 6139.74 4975.57 7066.26 4730.97 3057.3 6150.31 5214.71 4677.84 4996.91 4811.11 3920.44 4924.52 5379.52 4866.8 5658.05 5314.67 6593.1 4066.36 4000.51 6033.93 5011.37 2827.92 4026.03 5092.44 4441.44 4232.44 5336.61 4817.75 3312.3 5563.09 4848.15 4439.09 3282.57 4798.13 5523.81 4718.61 6697.45 3873.79 5717.67 5515.59 5252.37 5432.4 5037.58 6457.89 5640.67 6572.17 3751.73 5555.89 4766.47 6369.66 5678.08 5872.45 5922.62 4414.09 5191.29 3784.68 3717.22 6649.21 4654.92 5286.55 4322.56 5522.18 5509.09 5625.02 3873.72 5212.05 4592.49 5479.86 4829.77 6474.5 4444.92 6959.88 5971.9 3746.62 4532.67 4876.37 4769.62 5260.13 4649.5 4810.74 5985.75 5475.83 6189.29 5984.55 5672.46 5803.3 3228.27 4721.98 5252.82 4142.1 5056.26 5878.55 4014.44 6604.72 6002.77 3794.47 4610.55 4967.02 4614.49 5400.69 4462.5 5573.31 5004.68 4023.88 5348.11 3488.34 5428.24 3511.5 5108.84 4582.12 4520.14 5067.92 5357.14 3188.21 5919.27 4793.06 6637.38 6188.33 6111.23 6916.18 5786.06 5873.62 4137.41 3868.69 5447.74 4450.51 6033.72 3768.62 3851.47 4966.74 5563.47 5651.46 3162.27 5639.4 6185.73 5516.37 6520.96 5432.2 4612.4 4746.19 6381.58 5212.2 5648.59 4611.21 5108.42 4630.5 6296.36 4432.32 4451.76 3224.81 4499.54 3775.38 4046.22 4104.97 4844.2 4575.72 5114.61 6118.13 3374.62 4420.3 4926.62 4871.1 3917.09 6009.93 3482.73 4083.1 5270.1 5130.56 4947.64 4957.99 6305.9 3470.69 4542.62 4859.95 4132.08 6009.88 5223.1 4699.77 4850.49 3625.98 4981.55 6188.62 4702.32 6153.07 4763.04 4414.06 5944.52 4413.56 5050.2 2513.38 5316.05 4908.32 3995.08 5019.84 3900.93 5784.38 4149.17 4329.8 5728.27 3074.49 5202.33 3956.24 7558.99 3393.59 4032.06 5043.14 5333.04 5445.91 4521.99 4812.59 6842.54 7115.67 5675.45 3361.11 6038.56 2807.46 5599.16 4179.8 5658.35 4577.98 5886.81 4487.51 4295.25 7394.47 4729.45 4850.95 5374.09 6271.22 3421.81 5378.75 3920.64 6186.24 5822.7 3780.07 5466.49 4038.17 5007.41 3692.99 4907.48 6213.74 4959.94 2329.93 1635.31 6938.87 5412.07 4083.24 4806.99 5512.57 4813.55 3771.91 5217.62 3839.0 6178.19 4616.81 5715.25 4362.94 4469.82 6545.78 3354.94 4404.87 5237.27 5767.65 7885.41 5782.25 5497.27 4081.77 4948.21 4987.01 2181.29 4202.12 6332.64 2694.25 4735.99 6492.44 4613.32 5145.39 3352.46 3996.93 6351.95 5195.09 4063.26 5345.05 4997.89 7679.2 5093.28 6131.52 4311.92 6729.99 5093.41 6842.35 5144.23 5464.34 3621.63 4777.96 5801.89 5908.57 7296.47 5742.39 4821.41 4924.53 5616.11 4499.52 3874.12 4813.24 4028.13 4457.73 6476.35 6260.58 3053.19 4067.24 6571.26 4313.38 5580.95 3549.92 6598.99 5250.56 5246.81 2468.16 5089.1 5888.95 5394.78 3463.34 5169.09 5122.38 2853.68 5262.85 2459.88 4998.37 5329.84 6559.82 3879.83 5342.9 6565.95 5733.12 5043.34 4246.24 6805.02 5354.48 5640.63 4900.26 6261.13 4167.55 4720.34 5244.47 4731.16 5510.89 6470.87 4495.33 5282.67 4159.89 5178.55 5146.69 6203.24 6818.23 4488.41 4369.87 5652.19 5806.74 6578.62 5856.43 6284.12 3465.03 5349.85 5799.86 5172.1 6052.22 5376.41 5003.63 4870.14 2932.2 5105.72 4082.01 5003.49 4750.76 3964.03 4907.03 5832.72 5617.91 4444.95 4721.2 5161.02 4706.31 6265.48 4203.68 5003.81 4739.56 4701.03 3818.37 6225.05 5434.04 5200.1 3997.52 4881.51 5779.9 2626.41 4909.74 5310.33 6664.54 3922.98 5161.73 5259.48 5254.93 4803.4 6833.5 6608.94 2613.78 4780.16 5417.07 5738.37 3834.01 4433.23 4739.41 5759.19 5847.27 3113.64 4490.2 4304.75 5480.86 6139.9 4720.22 2832.83 5827.3 6036.99 3010.1 3633.58 3825.98 6294.14 4339.97 5203.75 4667.84 3906.41 4691.15 4512.6 4210.24 5470.67 5901.71 5225.11 5252.22 4962.35 6436.29 5402.81 4600.81 4328.76 4919.13 4124.33 5168.97 5783.88 5002.38 6705.93 4865.11 5449.09 5502.14 4465.56 4131.08 5747.9 3864.19 4287.93 5315.71 6158.93 5081.65 4823.14 6679.12 4621.32 5699.4 3878.8 4698.94 3948.21 4796.04 5669.15 5229.56 6011.4 4672.34 3330.85 5056.32 5533.52 5410.33 4695.7 4747.24 4944.08 4380.86 5576.16 5269.39 4305.35 5210.22 4216.33 2451.27 3903.9 4929.35 5606.22 3943.77 3124.49 6081.35 5459.52 6262.18 5566.5 5663.36 4276.59 5579.04 5125.53 5994.21 4444.54 5403.81 5082.25 6964.78 4374.05 5299.03 5036.84 4565.36 5813.68 4025.08 4008.67 3618.53 4770.21 8013.28 3846.55 3796.73 3082.16 4644.68 5656.84 6789.66 5416.41 5312.2 4706.59 5734.84 5551.79 3982.31 4950.07 4582.24 4474.96 4084.87 4790.63 5259.29 3584.05 4589.22 5087.03 4818.53 5097.85 5584.64 4123.08 6224.64 4260.38 4221.03 4636.45 3799.55 4932.27 5638.51 6793.49 3563.33 6060.19 5536.0 6786.37 4333.23 5145.13 5561.63 5940.5 4358.06 5093.51 5647.93 4280.92 6201.49 4696.92 5154.74 4605.61 6898.8 5386.95 6540.57 5332.11 4893.72 6004.72 5373.78 4072.4 5345.65 5438.5 5863.36 4632.75 5237.76 4994.98 4286.84 6423.96 5296.05 6058.13 5263.86 5894.69 6988.4 6635.51 4060.17 6051.35 5302.53 4909.13 4287.61 5648.02 3308.75 4604.34 4439.17 5677.42 2701.42 5442.79 5051.39 6673.92 5242.38 5151.68 4884.94 5362.15 4609.98 4738.72 4752.31 5240.97 5569.85 5405.6 3929.35 4884.93 4759.38 6960.97 4287.15 5282.51 5504.65 5669.41 5732.11 5040.9 5596.68 4868.66 5159.9 5283.65 2892.36 5943.61 5981.54 5911.29 4542.25 4694.27 6760.64 2515.5 4849.21 5177.88 3793.83 6981.47 3916.15 5367.05 4758.76 5647.11 4088.72 3945.62 4916.75 3743.85 6236.46 5342.17 6379.3 6189.04 5189.4 5082.66 4550.77 4894.15 4337.93 3550.88 5201.3 4345.51 4048.73 6223.33 5438.6 3860.8 3747.96 5611.29 4521.88 6568.45 5004.22 4601.54 7263.57 3832.09 5705.96 6437.99 5739.69 6632.04 7360.62 4977.64 4985.45 4983.56 5699.51 4489.18 2489.44 5499.37 4883.13 4836.76 4752.94 5551.09 3950.53 4501.1 5581.47 4384.91 4987.01 4713.56 6094.34 6779.82 5543.67 3999.81 4867.13 6377.45 4863.27 4502.12 3255.93 6853.07 4633.59 5733.59 5575.8 4455.61 5268.93 6874.6 5106.9 5306.31 5523.96 4223.53 4733.37 4535.94 3037.72 4523.9 5126.08 5604.0 3760.4 4951.02 3919.47 4602.7 3783.35 4037.16 4004.39 6395.63 4987.48 4248.58 5479.17 5020.37 4414.23 5233.88 4785.55 5245.4 6189.81 4449.73 5015.67 3795.63 4576.71 6538.04 6157.59 5848.41 4090.28 4246.83 7370.52 4726.5 5467.05 3724.23 5103.3 4963.88 5888.94 4727.98 4122.2 5175.88 5267.65 4516.26 4790.16 3509.34 5360.88 3647.26 3731.58 3166.37 5369.42 5207.08 5205.53 4714.52 4587.19 5543.05 6028.89 5333.16 4888.17 5755.98 5392.85 5077.2 4274.05 6550.61 4277.54 5529.09 4531.46 5925.82 5448.68 4739.5 6210.48 4491.62 4182.05 3865.5 6327.61 3695.72 5275.27 4072.95 
SCALARS Velocity float 1
LOOKUP_TABLE default
1.53482 1.54124 1.54616 1.54411 1.55039 1.54794 1.54734 1.57475 1.57728 1.57308 1.54053 1.5609 1.52558 1.53207 1.54154 1.54389 1.54848 1.54563 1.54367 1.55513 1.55494 1.57771 1.57418 1.58054 1.59494 1.59223 1.59108 1.53142 1.53112 1.53425 1.54174 1.54119 1.57065 1.57409 1.56367 1.51843 1.54159 1.54242 1.55144 1.55499 1.57268 1.59017 1.58924 1.60611 1.59398 1.60059 1.59273 1.51061 1.53916 1.53946 1.54489 1.54255 1.54713 1.54233 1.5539 1.55805 1.5388 1.56303 1.56924 1.57616 1.52956 1.54084 1.54189 1.5514 1.54829 1.55572 1.55519 1.53749 1.57565 1.59707 1.61598 1.60092 1.59274 1.571 1.58512 1.50345 1.55922 1.52382 1.5412 1.53838 1.55078 1.57309 1.59378 1.54318 1.54523 1.54752 1.54188 1.55528 1.56392 1.56218 1.57609 1.56656 1.59248 1.62028 1.6176 1.61416 1.60506 1.62872 1.56809 1.48626 1.5315 1.53246 1.47746 1.51247 1.44901 1.54744 1.55007 1.55787 1.57683 1.59605 1.61361 1.57896 1.54723 1.54887 1.54927 1.5402 1.55707 1.56619 1.54925 1.55863 1.60361 1.63898 1.60719 1.48097 1.54675 1.47042 1.53736 1.53165 1.46494 1.56914 1.54739 1.53666 1.51021 1.53305 1.58119 1.58831 1.5471 1.55193 1.54675 1.55482 1.55015 1.56644 1.56517 1.54221 1.58617 1.57683 1.62554 1.67166 1.49662 1.49235 1.53746 1.51982 1.57684 1.54296 1.62621 1.50987 1.62574 1.56188 1.57785 1.54398 1.50008 1.52106 1.50872 1.5721 1.54978 1.60515 1.59666 1.55083 1.55415 1.55373 1.53683 1.55868 1.57203 1.56342 1.65666 1.62806 1.56605 1.31924 1.38831 1.46953 1.48274 1.50633 1.53079 1.54664 1.5578 1.55893 1.55322 1.61913 1.57145 1.51351 1.50248 1.53414 1.5401 1.5805 1.56839 1.61391 1.55936 1.55626 1.52497 1.50908 1.51905 1.59965 1.5405 1.58433 1.48199 1.58707 1.37408 1.37949 1.44808 1.50221 1.55561 1.56745 1.55184 1.58082 1.62209 1.60909 1.51073 1.54889 1.55771 1.59355 1.63555 1.56834 1.61349 1.53578 1.52317 1.50788 1.49192 1.61095 1.57731 1.54572 1.45993 1.57223 1.38497 1.37865 1.35789 1.39747 1.46345 1.55848 1.57203 1.53165 1.62514 1.63513 1.6137 1.47281 1.54252 1.58731 1.66079 1.64663 1.45119 1.60809 1.56344 1.55123 1.58705 1.61748 1.61939 1.53951 1.38415 1.24851 1.37479 1.34675 1.38356 1.38788 1.2412 1.53958 1.5424 1.55984 1.541 1.52514 1.5386 1.54066 1.63457 1.63974 1.60537 1.5705 1.51512 1.65796 1.56635 1.5595 1.56013 1.60296 1.69524 1.71322 1.43609 1.59694 1.59626 1.61429 1.67523 1.67181 1.62799 1.38303 1.34041 1.39641 1.41295 1.38508 1.38494 1.34549 1.23936 1.60589 1.52776 1.51815 1.51626 1.4979 1.56474 1.61595 1.54785 1.54625 1.59341 1.62453 1.7157 1.681 1.71486 0.603652 0.739623 1.97472 1.03098 1.18875 1.93449 1.59189 1.49768 1.60012 1.85607 1.35725 1.2562 1.37695 1.41293 1.34938 1.43823 1.45698 1.21537 1.67142 1.50763 1.45337 1.5075 1.46918 1.48724 1.45244 1.41023 1.50613 1.50625 1.61221 1.58372 1.73637 1.63152 1.61841 1.65696 3.06853 0.794859 1.14772 1.50792 1.06133 1.02006 1.63564 2.84427 1.60081 1.07501 1.2539 2.05292 2.26936 1.39265 1.65341 1.46282 1.73561 1.48315 1.38479 1.42338 1.36683 1.35568 1.36161 1.30148 1.57099 1.34774 1.27831 1.24429 1.63902 1.47741 1.95545 1.31034 1.28956 1.43014 1.3481 1.21192 1.47929 1.43885 1.40258 1.45383 1.45965 1.50342 1.60237 1.55623 1.79341 1.46118 1.48553 1.45058 2.40205 1.93567 1.03507 1.29041 1.09486 1.07593 1.09716 1.04767 0.832061 0.595912 0.783637 1.34028 1.56248 0.908712 0.629569 0.966029 0.922066 1.14443 1.1578 1.65654 1.59296 1.36557 1.33114 1.4356 1.35026 1.49143 1.52339 1.52157 1.53261 1.26143 1.2997 1.28177 1.01043 1.44629 1.29237 1.40711 1.47788 1.70294 0.926776 1.34339 1.25057 1.295 1.56242 1.46456 1.44334 1.51958 1.48498 1.33215 1.56158 1.61742 1.59338 1.79825 1.45515 1.27234 1.37105 1.45817 1.54385 1.28209 1.10563 1.07838 1.03239 1.03301 0.994672 0.977403 0.913546 0.920012 0.896773 0.915394 0.910674 1.07374 1.12577 1.28278 1.0755 1.1392 1.15351 1.28253 1.10582 1.58291 1.298 1.4623 1.2729 1.67502 1.49427 1.77223 1.70485 1.70737 1.27434 1.29639 1.37971 1.33149 1.29712 1.20732 1.25861 1.24195 1.29254 1.03423 1.09202 1.36131 1.19841 1.25205 1.30315 1.28145 1.25412 1.43846 1.29971 1.26925 1.37351 1.39953 1.35298 1.59416 1.14415 1.2582 1.05665 1.30797 1.24883 1.2147 1.23596 1.19531 1.1385 0.996088 1.0674 1.06206 0.965875 0.98649 0.949059 0.941715 0.926446 0.921665 0.903874 0.932755 0.922159 0.915715 0.889131 0.919868 0.930542 0.973457 0.928786 0.991089 1.05226 1.2122 1.16648 1.10715 1.10686 1.05271 1.2197 1.30216 1.49157 0.860854 0.792568 0.982253 1.05326 1.1591 0.920092 1.37612 1.32677 1.29874 1.31266 1.29555 1.26807 1.13103 1.14669 1.13394 1.09636 1.17282 0.986061 1.05235 0.981022 1.41426 1.42947 1.3322 1.27293 1.28794 1.20688 1.15315 1.25236 1.37302 1.14991 1.02434 1.04764 1.01077 1.13287 1.19483 1.14091 1.15225 1.1444 1.13918 1.07632 1.07589 1.0266 0.964338 0.967114 0.92229 0.924715 0.921624 0.919262 0.925402 0.921625 0.917582 0.905304 0.879956 0.878231 0.893644 0.900389 0.883194 0.900405 0.904099 0.906258 0.919977 0.941742 0.938574 0.98275 0.992537 1.0919 1.04415 1.14617 1.07207 1.08739 1.09622 1.10984 1.10467 1.09667 1.12733 1.13517 0.956969 1.16187 0.867437 1.1014 1.11459 0.979155 0.980407 1.11006 1.43508 1.42996 1.37082 1.22424 1.26696 1.27747 1.2254 1.2191 1.13225 1.18647 1.14367 0.896257 0.98607 0.854178 1.32435 1.36284 1.30948 1.25412 1.26177 1.1934 1.14388 1.29022 1.15182 1.17325 1.0436 1.08634 1.11834 1.09178 1.1177 1.10116 1.09021 1.06258 0.95195 0.954942 0.93048 0.953988 0.9501 0.928237 0.941626 0.941944 0.94943 0.929782 0.900815 0.939447 0.901955 0.904274 0.896526 0.844365 0.888516 0.88142 0.895375 0.86487 0.880472 0.879818 0.897447 0.899863 0.895976 0.901446 0.902822 0.951115 0.919506 0.96672 0.969166 0.957703 1.01997 1.01514 0.92623 1.1248 1.04901 1.03545 0.996672 0.998902 0.886351 0.797808 1.30406 1.11547 1.09473 1.0905 1.31213 0.977628 1.17703 1.19009 1.20396 1.23767 1.11284 1.17256 1.13005 1.07762 1.08068 1.11139 1.07066 1.11972 1.07365 0.906523 0.895755 1.19514 1.30618 1.34366 1.13836 1.0812 1.13458 1.14749 1.12936 0.970371 1.05041 0.991195 1.12443 1.05967 1.11269 1.13404 1.07816 1.02524 1.03394 0.993112 1.01505 0.966266 0.943768 0.945968 0.938715 0.930397 0.933596 0.892826 0.894015 0.939534 0.886258 0.904366 0.874246 0.905378 0.907442 0.916263 0.90305 0.866019 0.84417 0.85925 0.863818 0.873783 0.870832 0.875981 0.86485 0.887404 0.877198 0.899041 0.910645 0.913566 0.917802 0.919296 0.970701 0.970239 0.977179 0.922463 0.993687 1.05511 1.0466 0.934845 0.955988 0.915477 0.892916 0.882822 0.829672 0.756925 1.17074 1.06399 1.09722 1.11459 1.16588 1.16273 0.894552 0.977626 1.10703 1.09257 1.15738 1.16632 1.12896 1.12692 1.00813 1.07291 1.05434 1.05714 1.06791 0.974454 0.899876 0.924162 1.11431 1.28816 1.14019 1.22547 1.13301 1.14764 1.13789 1.30283 1.21454 0.887412 0.984841 0.886888 0.959304 1.09438 1.00191 1.02124 1.19748 0.928928 0.970506 1.34094 0.981918 0.894624 0.935828 0.930631 0.890093 0.922374 0.904368 0.896007 0.910243 0.884611 0.923461 0.908452 0.915549 0.932489 0.932509 0.945647 0.927903 0.950719 0.929953 0.814977 0.811278 0.921525 0.802117 0.85922 0.841195 0.815686 0.845491 0.884513 0.880203 0.937967 0.91716 0.893993 0.924217 0.949261 0.870937 0.966125 0.959242 0.834263 0.955146 0.917963 0.952323 0.897486 0.902875 0.984847 0.929489 0.902186 0.898783 0.848895 0.776262 1.0701 1.05663 1.03613 1.03086 0.981889 1.02857 0.908678 1.03801 1.05889 1.13405 1.11921 1.06261 1.04953 1.04523 1.02723 1.01994 1.02407 1.01005 0.942785 0.90958 0.880817 1.04299 0.945906 1.19544 1.02287 0.854412 1.15469 0.965731 1.22225 1.42618 1.35661 1.39828 1.34522 1.08802 0.939374 0.946025 0.95453 1.13354 1.07692 1.0191 0.969839 0.907273 1.04542 0.909192 1.00316 1.02603 0.845345 0.920424 0.927293 0.909153 0.972684 0.943168 0.838251 0.910355 0.850383 0.922223 0.887559 0.916237 0.928141 0.936563 0.945453 0.927167 0.926811 0.923807 0.914772 0.908031 0.911103 0.89328 0.819737 0.81712 0.8107 0.828881 0.817767 0.797792 0.868256 0.858754 0.928519 0.92984 0.891166 0.824437 0.825195 0.885558 0.895405 0.873882 0.84573 0.865759 0.897942 0.919013 0.971561 0.905189 0.91394 0.91149 0.944377 0.923509 0.917644 0.936061 0.89002 0.89354 0.862229 1.00853 0.935547 0.966294 1.03212 1.04588 1.03256 1.02233 1.04496 1.0311 1.03967 1.07915 1.05314 1.03818 1.03723 1.00832 1.02358 1.01008 1.0118 1.01594 1.01246 0.949195 0.910248 0.874984 1.05869 0.85525 0.983656 1.0576 1.02806 0.715911 0.919494 1.11775 1.00915 1.07025 0.971818 0.913164 0.902662 0.849082 1.01027 0.987691 0.946258 0.98226 0.927862 0.973313 0.994349 0.903793 0.994299 0.860691 0.899319 0.646218 0.750345 0.821735 0.902449 0.90378 0.922825 0.922237 0.895828 0.87638 0.871432 0.857067 0.849915 0.82867 0.808467 0.799876 0.814839 0.802393 0.818165 0.836287 0.8227 0.820955 0.834446 0.841563 0.851891 0.858528 0.856426 0.866822 0.893168 0.878354 0.810212 0.815521 0.843376 0.867765 0.887118 0.887849 0.867985 0.910666 0.880659 0.932063 0.892254 0.960092 0.923163 0.940503 0.954726 0.937456 0.936766 0.904911 0.885268 0.964839 0.944879 1.01104 1.02386 1.0362 1.02321 1.02834 1.00632 0.993 1.10265 1.01956 1.02379 1.00309 0.99703 0.991867 0.974151 0.976705 0.975654 1.02377 1.0249 1.00527 0.944581 0.953555 0.941115 0.97687 0.906292 0.834045 0.846645 0.840491 0.912295 0.962618 1.02005 0.860063 0.751627 0.825526 0.938798 0.839032 0.774831 0.985283 0.823064 0.860929 0.811601 0.849647 1.00803 0.829259 0.916629 0.817774 0.947965 1.016 0.916857 0.693471 1.08 0.823664 0.672702 0.765225 0.864354 0.844571 0.881758 0.848062 0.928665 0.9017 0.846786 0.880981 0.853014 0.893433 0.85147 0.814374 0.829032 0.83911 0.821378 0.83589 0.812954 0.793758 0.806335 0.820624 0.823494 0.83108 0.870797 0.888745 0.862838 0.862715 0.863463 0.84853 0.841527 0.821272 0.822027 0.827148 0.821124 0.853211 0.872993 0.87722 0.907417 0.890287 0.937084 1.02672 0.955184 0.84555 0.970778 0.878242 0.907206 0.908574 0.921645 0.897862 0.980253 0.899382 1.00547 1.0355 1.00618 0.973605 0.98784 0.962613 1.03382 0.962427 0.990377 1.03909 1.00234 0.99761 0.989716 0.98958 0.978347 0.970746 0.970438 0.986382 1.03136 0.982093 0.94482 0.896022 0.863421 0.87028 0.897667 0.93734 0.911447 0.83148 0.75991 0.931946 0.780951 1.07751 0.930673 0.797357 0.47978 0.802576 0.809604 0.832609 0.853889 0.770602 0.954223 0.939425 0.896377 0.917163 0.91918 0.758776 0.789792 0.799341 0.812388 0.795752 0.891207 0.789104 0.786296 0.892004 0.744476 0.809182 0.774816 0.718785 0.820759 0.674354 0.748778 0.783321 0.724181 0.705586 0.768461 0.826262 0.792709 0.85042 0.802821 0.791115 0.831793 0.894153 0.882426 0.864245 0.973073 0.849795 0.855474 0.757876 0.793829 0.84956 0.770553 0.829993 0.85556 0.857869 0.903473 0.904184 0.914404 0.873456 0.91954 0.860174 0.85638 0.845237 0.843591 0.937561 0.918979 0.895244 0.851532 0.906431 0.919553 0.923775 0.861725 0.889483 0.856376 0.862647 0.945656 0.920516 0.894771 0.85211 1.09393 1.05219 0.948197 0.970394 0.942905 0.939648 0.959342 1.00091 0.988301 1.00095 0.972381 0.972189 0.977608 0.976606 0.957617 1.03799 0.997019 1.0024 0.991791 0.963237 0.895615 0.887535 0.88634 0.864216 0.886731 0.893023 0.88907 0.895727 0.86055 0.818491 0.848717 0.87762 0.79826 0.696963 0.709634 0.76591 0.776128 0.783456 1.02226 0.878427 0.976843 0.903401 0.926122 0.898598 0.894898 0.860839 0.833252 0.83573 0.837523 0.849799 0.839324 0.842058 0.794139 0.789986 0.781129 0.804845 0.775553 0.779071 0.659663 0.713084 0.693908 0.688567 0.730012 0.729547 0.733245 0.654834 0.6478 0.642891 0.739789 0.744409 0.758243 0.766498 0.773071 0.775306 0.75866 0.791688 0.773694 0.783145 0.783876 0.688032 0.914991 0.798036 0.837427 0.826594 0.754892 0.813889 0.787429 0.816407 0.823524 0.824996 0.81155 0.822683 0.842048 0.885727 0.886038 0.936243 0.81231 0.833078 0.816166 0.772504 0.808165 0.84093 0.83878 0.860362 0.887634 0.897423 0.859254 0.831609 0.861507 0.901578 0.908368 0.94424 1.00948 0.936792 0.93402 0.918942 0.92406 0.958758 0.944432 0.965988 0.966568 0.975505 0.97673 0.975656 0.972886 0.905504 1.0063 1.05592 1.02887 0.918501 0.923924 0.890395 0.899219 0.888624 0.887055 0.888984 0.859835 0.862311 0.870824 0.799745 0.829413 0.791563 0.807548 0.771481 0.814164 0.809132 0.811243 0.817056 0.859059 0.879352 0.840847 0.850088 0.84747 0.859555 0.854927 0.763426 0.842375 0.850942 0.827103 0.812204 0.832367 0.816441 0.799016 0.798276 0.804235 0.786805 0.792559 0.781885 0.728839 0.711144 0.747324 0.681707 0.715789 0.747425 0.671938 0.701938 0.739455 0.641944 0.712087 0.807989 0.762226 0.750819 0.751393 0.778994 0.768327 0.781387 0.780121 0.790397 0.793323 0.772038 0.788195 0.786804 0.786484 0.750689 0.783732 0.751377 0.709544 0.934682 0.937008 0.813195 0.822791 0.777495 0.769186 0.805644 0.816962 0.706743 0.819199 0.872363 0.704143 0.771468 0.802581 0.799899 0.82097 0.774317 0.845537 0.805429 0.824166 0.835931 0.907775 0.899804 0.877845 0.842183 0.841667 0.865579 0.898488 0.914122 0.942727 0.959928 0.952761 0.97381 0.931544 0.920792 0.909012 0.910112 0.915095 0.922398 0.940343 0.956699 0.955632 0.965883 0.970981 0.97336 0.975528 0.972439 0.958501 0.974079 0.964612 0.870327 0.880619 0.91307 0.937773 0.933239 0.920711 0.907582 0.891926 0.894447 0.889989 0.884993 0.861025 0.864864 0.85644 0.84199 0.818575 0.827704 0.835814 0.858226 0.826419 0.832666 0.836125 0.831856 0.833142 0.843088 0.78065 0.741085 0.821946 0.771102 0.899471 0.947019 0.852199 0.802287 0.841918 0.808409 0.865093 0.776372 0.810211 0.79422 0.821021 0.807436 0.792864 0.811868 0.802612 0.796263 0.811037 0.752434 0.772831 0.783629 0.773422 0.777625 0.790833 0.788504 0.780654 0.795736 0.777463 0.842579 0.773046 0.825086 0.863872 0.853975 0.875773 0.884651 0.75401 0.758757 0.761419 0.756713 0.754458 0.744196 0.731929 0.759958 0.764919 0.775123 0.764983 0.7748 0.800685 0.762464 0.821311 0.792587 0.844702 0.750461 0.719662 0.77619 0.726202 0.799891 0.692096 0.763461 0.713627 0.740899 0.794786 0.965365 0.952314 0.864796 0.881661 0.894822 0.848972 0.836756 0.815608 0.811245 0.807996 0.808462 0.836193 0.84083 0.872639 0.878315 0.900978 0.879365 0.911764 0.909405 0.895984 0.906615 0.907771 0.93715 0.954381 0.954512 0.960191 0.91652 0.914535 0.905931 0.902247 0.895199 0.910065 0.924873 0.945603 0.959062 0.953545 0.959237 0.970461 0.97108 0.97163 0.977968 0.964737 0.946887 0.908442 0.916593 0.933392 0.935436 0.921099 0.910961 0.899192 0.89 0.872687 0.859009 0.8496 0.847642 0.851601 0.843482 0.831419 0.835481 0.835356 0.851195 0.854905 0.849109 0.835587 0.843265 0.834033 0.846776 0.822744 0.831657 0.820464 0.836865 0.830955 0.718792 0.613131 0.997845 0.64374 1.16725 0.849736 0.942092 0.844238 0.809291 0.819629 0.745721 0.826849 0.808826 0.825409 0.814206 0.774931 0.752187 0.764666 0.757221 0.766222 0.740954 0.78808 0.759375 0.790465 0.783317 0.760711 0.707057 0.969926 0.729411 1.03891 0.713494 0.944971 0.732816 0.735262 0.744695 0.755691 0.7518 0.751319 0.755071 0.75054 0.769669 0.771318 0.769703 0.778905 0.767511 0.760146 0.71255 0.733019 0.751216 0.744691 0.668838 0.733218 0.773276 0.740066 0.769505 0.82576 0.881397 0.794678 0.800316 0.615881 0.713002 0.729479 0.819088 1.01273 0.909209 0.944167 0.811526 0.793987 0.807231 0.798749 0.814763 0.838887 0.849043 0.884957 0.911969 0.935881 0.926719 0.912581 0.907558 0.980941 0.96329 0.900401 0.886893 0.90538 0.897033 0.911904 0.92403 0.934024 0.945067 0.962419 0.966575 0.959818 0.964911 0.960342 0.958219 0.940044 0.932466 0.945514 0.945232 0.929041 0.911111 0.898587 0.885281 0.884457 0.871391 0.867416 0.854446 0.845558 0.843782 0.844025 0.841984 0.862986 0.85175 0.866894 0.8552 0.84874 0.847947 0.855703 0.85061 0.84419 0.829176 0.823222 0.813802 0.826004 0.841874 0.853041 1.33298 0.814581 0.7555 0.790245 0.949998 0.816226 0.896152 0.689979 0.803121 0.849601 0.822578 0.873163 0.720956 0.845152 0.714316 0.712206 0.720452 0.701992 0.745815 0.73171 0.782796 0.73119 0.71801 0.7314 0.730701 0.733895 0.65135 0.766412 0.903509 0.85929 0.659762 0.621993 0.652818 0.74698 0.725996 0.730453 0.714266 0.722441 0.744173 0.710777 0.719587 0.748848 0.70244 0.717539 0.733567 0.71936 0.718946 0.688788 0.779901 0.787045 0.760669 0.768614 0.747793 0.753362 0.706668 0.744635 0.774924 0.775133 0.830888 0.84962 0.948278 0.836469 0.814962 0.850962 0.848518 0.77969 0.705256 1.01588 0.814933 0.874543 0.855574 1.21383 1.01936 0.782319 0.762716 0.783649 0.78874 0.833686 0.833977 0.855432 0.898569 0.918581 0.93657 0.937663 0.952945 0.931278 0.901569 0.915407 0.877724 0.815563 0.915281 0.924562 0.874634 0.878836 0.920539 0.919673 0.936427 0.937139 0.938275 0.959943 0.922271 0.946695 0.962039 0.962507 0.95596 0.951339 0.951313 0.958203 0.964518 0.945846 0.895571 0.868366 0.879675 0.885831 0.880601 0.849858 0.859301 0.857102 0.848872 0.853041 0.852839 0.861041 0.869071 0.865424 0.85652 0.849021 0.858238 0.833643 0.825152 0.827776 0.828029 0.834321 0.835234 0.758007 0.832235 0.814774 1.02079 1.09515 0.82874 0.800251 0.831988 0.853708 0.789398 0.793909 0.851843 0.690812 0.695875 0.70992 0.719194 0.760531 0.708037 0.723545 0.703704 0.652639 0.637921 0.581062 0.824061 0.739977 0.570236 0.803262 0.615155 0.878453 0.650803 0.676014 0.695398 0.681752 0.615216 0.779942 0.767919 0.735303 0.678283 0.717273 0.679221 0.668491 0.730529 0.731507 0.743896 0.708695 0.764795 0.733031 0.746315 0.777996 0.75616 0.715458 0.703169 0.77461 0.763472 0.781529 0.824641 0.834441 0.818057 0.910094 0.876152 0.829229 0.785786 0.857484 0.71363 0.630884 0.799754 0.562616 0.809579 0.682593 0.921329 0.772083 0.7821 0.837635 0.812087 0.843555 0.844772 0.923487 0.917525 0.976426 0.93194 0.922981 0.894743 0.862809 0.83571 0.844371 0.879679 0.87603 0.86092 0.87139 0.894916 0.908854 0.881488 0.919778 0.944025 0.980145 0.969506 0.997567 0.91859 0.913115 0.94352 0.948526 0.959592 0.963442 0.965058 0.961419 0.961454 0.95083 0.970041 0.992899 0.963419 0.939036 0.961299 0.957518 0.855922 0.897283 0.890857 0.893488 0.878563 0.856374 0.856417 0.862332 0.867257 0.871385 0.882941 0.884846 0.878503 0.86237 0.866591 0.844109 0.833255 0.826899 0.819305 0.807653 0.745403 0.747851 0.813346 0.905058 0.810106 0.627774 0.736588 0.84256 0.674536 0.805716 0.731738 0.791409 0.798996 0.787375 0.757837 0.767491 0.77104 0.651351 0.705967 0.660135 0.734865 0.735631 0.735835 0.690037 0.750364 0.630081 0.707424 0.87883 0.80683 0.696744 0.661209 0.830181 0.686294 0.688919 0.727319 0.689868 0.678267 0.690531 0.67668 0.636274 0.707911 0.70469 0.495084 0.54835 0.752022 0.594061 0.605926 0.716734 0.650655 0.679801 0.698854 0.758088 0.753992 0.75718 0.72696 0.772891 0.787021 0.696072 0.732935 0.744934 0.642241 0.633622 0.714562 0.68644 0.748968 0.748546 0.772028 0.832739 0.777108 0.66033 0.652108 0.777046 0.685447 0.5683 0.962431 0.901703 0.97952 0.820079 0.81009 0.825174 0.794283 0.950473 0.914624 0.955419 0.964445 0.931062 0.901373 0.86942 0.848953 0.854829 0.860377 0.886104 0.896015 0.896551 0.897043 0.938744 0.927859 0.977919 1.04741 0.881535 0.867558 0.936428 0.963309 0.969436 0.973238 0.967372 0.961545 0.955897 0.983519 0.92243 0.925599 0.902463 0.936005 0.917644 0.898224 0.896986 0.851319 0.870097 0.876016 0.887573 0.899325 0.897066 0.893461 0.875985 0.875285 0.8546 0.854037 0.842321 0.834572 0.841695 0.831212 0.810831 0.779916 0.792217 0.780392 0.707869 0.627012 0.682477 0.766989 0.760721 0.800569 0.777164 0.77538 0.712369 0.788381 0.731406 0.772196 0.766163 0.735412 0.53034 0.615829 0.754803 0.79096 0.602384 0.71365 0.715219 0.703636 0.666321 0.686598 0.702104 0.718335 0.711461 0.687903 0.695954 0.677875 0.543805 0.568031 0.514524 0.720493 0.707409 0.710848 0.607508 0.55273 0.582411 0.681597 0.747861 0.685976 0.700778 0.730211 0.746661 0.829622 0.778134 0.771826 0.714216 0.718 0.730803 0.711695 0.673239 0.661297 0.625297 0.685239 0.662629 0.695907 0.757918 0.745499 0.756084 0.745372 0.792455 0.694358 0.734337 0.483247 0.448762 0.478449 0.54225 0.720092 0.844282 0.943254 0.822328 0.81136 0.767357 0.85943 0.82129 0.799324 0.74395 1.03573 0.983125 0.927141 0.94225 0.931851 0.920939 0.891115 0.863981 0.850987 0.853221 0.846703 0.85102 0.865507 0.868925 0.896525 0.917431 0.940818 0.918524 0.996068 1.0222 0.844614 0.869134 0.988365 0.971079 0.975396 0.975889 0.973933 0.982955 0.986203 0.975166 0.975274 0.94946 0.939934 0.921325 0.925637 0.931852 0.880351 0.821639 0.815037 0.861938 0.889894 0.920302 0.915072 0.948539 0.905184 0.910776 0.891176 0.882536 0.864529 0.87061 0.85461 0.845005 0.82454 0.831082 0.78474 0.762122 0.793208 0.683128 0.739746 0.709009 0.711056 0.724605 0.734652 0.763001 0.753107 0.754399 0.778762 0.781249 0.763715 0.735069 0.775615 0.748255 0.844652 0.791877 0.900945 0.683682 0.65859 0.679209 0.785981 0.680868 0.777163 0.663288 0.652331 0.698042 0.661745 0.673282 0.676263 0.703699 0.652602 0.753056 0.67523 0.715965 0.609416 0.654782 0.640112 0.532674 0.575087 0.636948 0.59749 0.684086 0.693982 0.705618 0.718474 0.734388 0.702157 0.648673 0.46682 0.505364 0.517071 0.518509 0.722837 0.707789 0.770649 0.529994 0.626628 0.513076 0.78436 0.741256 0.648885 0.608542 0.676351 0.67572 0.647792 0.635765 0.653636 0.679182 0.647692 0.691111 0.765528 0.771572 0.783604 0.74586 0.734085 0.717899 0.720511 0.715574 0.743285 0.725681 0.731845 0.696917 0.661562 0.665518 0.611535 1.03011 0.886783 1.00995 0.863102 0.854818 0.805277 0.784149 0.774614 0.809675 1.00989 0.918764 0.927302 0.923914 0.914952 0.900794 0.868086 0.855027 0.853596 0.846886 0.85829 0.853916 0.910909 0.931164 0.941646 0.937702 0.90805 1.03629 1.12553 1.01628 0.891767 0.862622 0.862059 0.968191 0.979559 0.984209 0.971863 0.98968 0.985882 0.971592 0.963602 0.967827 0.952287 0.938597 0.936778 0.939021 0.950482 0.945276 0.990414 0.816486 0.863802 0.878867 0.916656 0.905833 0.955666 1.00275 0.952918 0.886107 0.895971 0.871433 0.865543 0.8519 0.894792 0.876113 0.869956 0.837956 0.865226 0.843595 0.81924 0.835282 0.793701 0.795358 0.763369 0.764978 0.734215 0.737128 0.75227 0.770549 0.793669 0.803242 0.802594 0.770043 0.789564 0.83702 0.517793 0.668315 0.622014 0.73372 0.616824 0.656408 0.606431 0.789486 0.664225 0.670512 0.614975 0.71059 0.734045 0.757877 0.6641 0.641729 0.620053 0.588525 0.64492 0.662879 0.662785 0.727525 0.652767 0.537946 0.523504 0.68544 0.740262 0.628189 0.542762 0.549776 0.557791 0.478385 0.471183 0.422325 0.420709 0.522292 0.450148 0.671262 0.499443 0.661535 0.634665 0.61274 0.500202 0.450383 0.790919 0.69743 0.692052 0.701378 0.708782 0.739364 0.744502 0.750515 0.711712 0.691047 0.694132 0.709591 0.687263 0.710963 0.70671 0.677892 0.598174 0.351797 0.576436 0.455178 1.28774 0.864224 0.861671 0.897061 0.922134 0.85901 0.852043 0.845909 0.808483 0.823356 0.849351 0.813633 0.973612 0.929153 0.928358 0.966071 0.944756 0.930972 0.91484 0.916151 0.86045 0.880831 0.871136 0.862658 0.867571 0.911885 0.929311 0.950461 0.96743 0.935396 0.808556 1.03759 0.847497 0.892372 0.933541 0.987363 0.996894 1.00664 1.01286 0.961704 1.01743 0.98399 0.977735 0.968443 0.95558 0.949401 0.948524 0.961345 0.989783 0.857594 0.863181 0.870902 0.882825 0.928903 1.01682 1.07606 0.981803 0.865424 0.861768 0.874007 0.902074 0.887363 0.878193 0.849932 0.82372 0.810695 0.822831 0.794199 0.802988 0.801054 0.75439 0.784118 0.752497 0.751624 0.767367 0.747597 0.833797 0.79306 0.887081 0.830402 0.847523 0.668097 0.676472 0.704474 0.669906 0.730274 0.677204 0.702802 0.672737 0.579053 0.654399 0.733535 0.680322 0.715834 0.673894 0.628592 0.566718 0.471691 0.42379 0.910401 0.979572 0.469231 0.747068 0.71031 1.14758 0.923543 0.859839 0.705672 1.00711 0.486388 0.47441 0.440762 0.407547 0.362864 0.429614 0.400953 0.373542 0.534595 0.541229 0.632354 0.594286 0.793534 0.642653 0.685043 0.656429 0.708819 0.710651 0.747561 0.682899 0.702851 0.627206 0.594203 0.71383 0.727438 0.703331 0.678989 0.601206 0.685778 0.608565 0.879863 0.852212 0.821661 0.852747 0.883613 0.862106 0.846457 0.857428 0.823289 0.834155 0.866762 0.93025 0.922548 0.933159 0.99771 1.00031 0.96553 0.952754 0.932096 0.925731 0.897545 0.881393 0.896751 0.887208 0.898666 0.924741 0.959011 0.997816 1.06639 0.987918 0.860111 0.848177 1.14936 0.880778 0.860675 0.917199 0.961915 1.01397 0.95274 0.952534 0.983502 0.975651 0.984858 0.97028 0.963403 0.968845 0.985212 0.986171 0.907856 0.884836 0.864818 0.896956 0.927281 0.997969 1.11225 0.798857 1.26217 0.781178 0.872014 0.885772 0.894359 0.883946 0.866609 0.83478 0.830598 0.808547 0.806532 0.805169 0.79532 0.766886 0.746892 0.767587 0.741828 0.785543 0.752495 0.702254 0.767642 0.768024 0.782652 0.806086 0.804984 0.667965 0.739045 0.681276 0.64302 0.6907 0.705622 0.656854 0.594384 0.640313 0.596355 0.632042 0.666922 0.602697 0.644726 0.623718 0.662246 0.614808 0.629446 0.468181 0.425373 0.564179 0.373005 0.872286 0.551171 0.637568 0.923675 0.400087 1.50014 0.280493 0.263813 0.265028 0.683509 0.837234 0.258778 0.502894 0.494735 0.46413 0.443212 0.481491 0.339524 0.532883 0.666964 0.610294 0.664867 0.691536 0.662681 0.738721 0.717949 0.686422 0.69323 0.693186 0.708055 0.719851 0.709623 0.521456 0.796382 0.759716 0.762859 0.7517 0.758891 0.73548 0.809812 0.852724 0.845976 0.861967 0.876725 0.874925 0.881288 0.873315 0.864735 0.881029 0.849709 0.870546 0.878893 0.971546 1.00732 1.01784 0.981748 0.939061 0.912291 0.908526 0.917517 0.92159 0.91774 0.926449 1.07137 0.915534 0.927667 0.961862 0.802872 1.17823 0.920851 0.881325 0.91875 0.95348 0.887982 0.998144 0.877607 0.901725 0.94903 0.978459 0.97057 0.973099 1.00128 0.987919 0.977362 0.997535 0.968123 0.976643 0.973484 0.990178 0.887854 0.892105 0.88336 0.86816 0.8972 0.954552 0.992305 1.09908 1.21834 0.764903 0.861295 0.888066 0.884929 0.884239 0.869681 0.887971 0.871555 0.83969 0.868667 0.833079 0.822659 0.833815 0.818471 0.805667 0.798298 0.783754 0.781099 0.736935 0.760072 0.746655 0.724802 0.739756 0.717605 0.890174 1.0934 0.673208 0.737076 0.646232 0.722425 0.7202 0.6918 0.662563 0.572938 0.568928 0.579256 0.581782 0.57439 0.517456 0.540078 0.547614 0.591772 0.434371 0.322161 0.28191 0.593985 0.966258 1.01018 0.444027 1.04689 0.0904651 0.315176 0.274882 0.318771 0.36898 0.397941 0.663711 0.683678 0.549877 0.635907 0.688307 0.476543 0.507075 0.449878 0.307798 0.388806 0.469235 0.487633 0.343437 0.381093 0.628227 0.840852 0.755831 0.713584 0.719611 0.709647 0.691536 0.706573 0.693524 0.697576 0.689538 0.698644 0.71572 0.866553 0.782664 0.79987 0.790553 0.799219 0.778888 0.814065 0.822523 0.842991 0.853858 0.851972 0.859973 0.870941 0.881684 0.877687 0.87816 0.918017 0.905438 1.04819 1.04595 1.06062 1.01681 0.988924 0.946445 0.927635 0.924611 0.917542 0.92565 0.926666 0.933227 0.923784 0.933591 0.917044 0.876671 1.09354 0.89359 0.847914 1.19683 0.933153 0.870513 0.985161 0.977008 0.969194 0.892422 0.941389 0.963485 0.962119 0.976453 0.979185 0.991913 0.986137 0.960059 0.978699 0.986948 0.989422 0.985488 0.989958 0.983545 0.961126 0.875309 0.891879 0.91749 0.987141 1.07935 0.782812 0.809213 0.868452 0.859005 0.875699 0.897759 0.863505 0.816557 0.834489 0.841452 0.832337 0.836908 0.828814 0.81264 0.798739 0.787935 0.771629 0.756784 0.731061 0.723759 0.704206 0.7213 0.744169 0.821121 0.485895 0.966149 0.743728 0.637648 0.657372 0.695631 0.68713 0.653977 0.510262 0.528276 0.411553 0.511266 0.586431 0.526416 0.45394 0.475102 0.42784 0.48511 0.518778 0.523065 0.546344 0.693089 0.436748 0.204363 0.114136 0.283704 0.146299 1.17459 1.08271 0.239217 0.268356 0.403247 0.325988 0.498446 0.592953 0.582252 0.613963 0.644862 0.501158 0.458655 0.211812 0.360891 0.335375 1.01478 1.4205 0.83118 0.775145 0.740739 0.671561 0.699686 0.703062 0.694392 0.695674 0.688264 0.697193 0.710106 0.699104 0.722731 0.724751 0.768979 0.757266 0.801825 0.962208 0.899674 0.912734 0.815344 0.818101 0.828391 0.832254 0.815813 0.828712 0.828091 0.838806 0.805507 0.836457 0.845772 0.891471 0.88496 0.892194 0.899153 0.91012 0.898346 0.978768 0.864691 0.919774 0.983559 0.951816 0.938514 0.941582 0.943154 0.927207 0.941157 0.951959 0.942845 0.901884 0.912077 0.916239 0.765997 0.848883 0.706963 1.04202 1.14566 1.01478 1.09309 0.979779 0.968268 0.976014 0.981667 0.901435 0.938635 0.97771 0.96016 0.975952 0.990626 0.98118 0.997138 0.983282 0.96331 0.96796 0.890609 0.878979 0.935176 0.955773 1.02471 0.991329 0.829914 0.80808 0.852722 0.870682 0.864931 0.872784 0.905954 0.824311 0.843245 0.839339 0.831781 0.81759 0.801343 0.789891 0.781971 0.741972 0.76942 0.730671 0.757735 0.760502 0.740268 0.803335 0.74931 0.737777 0.738344 0.697907 0.723286 0.701483 0.694099 0.716842 0.729693 0.729153 0.589908 0.920978 0.482353 0.385479 0.403748 0.4209 0.444306 0.414277 0.431479 0.435442 0.468191 0.369054 0.75279 0.971976 0.862179 0.513679 0.311255 1.07272 1.49031 0.291091 0.459132 0.391516 0.532505 0.607243 0.630487 0.568646 0.611152 0.499638 0.445322 0.535087 0.40527 0.515869 1.05843 1.03267 0.808397 0.656418 0.730489 0.697829 0.682276 0.69217 0.699967 0.704548 0.746101 0.78057 0.83287 0.890913 0.850224 0.850927 0.841297 0.841775 0.810707 0.850642 0.816848 0.799474 0.77528 0.815799 0.894431 0.832552 0.90205 0.91328 0.918754 0.923158 0.87477 0.961417 0.889372 0.919189 0.953162 0.981112 0.960238 0.958336 0.954573 0.962355 0.954667 0.96102 0.974006 0.997235 0.96618 0.944545 0.909498 0.868955 0.818872 0.996405 1.01398 1.10053 1.0889 1.09679 1.04273 1.00949 0.983354 0.964418 0.944628 0.960981 0.963511 0.988802 0.99195 1.0054 0.990608 0.97266 0.967932 0.972568 0.943766 0.966241 0.968586 0.956743 0.848547 0.879106 0.867725 0.854824 0.853508 0.883992 0.901773 0.870636 0.838744 0.850705 0.851341 0.829593 0.812029 0.793801 0.787368 0.785037 0.784775 0.787678 0.778194 0.765774 0.770749 0.749909 0.742583 0.731436 0.746105 0.728079 0.727411 0.72062 0.730261 0.891789 0.558324 0.375382 0.466262 0.469108 0.380996 0.456683 0.385306 0.239196 1.01299 0.512513 0.773933 0.73036 0.944279 0.926428 0.410114 0.525942 0.503996 0.519425 0.566721 0.519291 0.522429 0.523226 0.590497 0.509799 0.431057 1.09781 0.558853 0.626201 0.706584 0.722494 0.687509 0.685849 0.685669 0.718836 0.734289 0.778178 0.780398 0.810818 0.848175 0.895443 0.892524 0.86618 0.879162 0.861051 0.848428 0.827567 0.860444 0.819018 0.814394 0.810052 0.848474 0.951617 0.944453 0.971654 0.957187 0.944089 0.877054 0.924435 0.958733 0.971046 0.976032 0.96173 0.957668 0.959029 0.966232 0.952385 0.964028 0.982578 0.989752 0.969487 0.871003 0.91356 0.907153 1.04939 1.05749 1.08031 1.09674 1.09387 1.06874 1.0371 0.995867 0.985954 0.969422 0.982412 0.980384 0.961271 0.986482 0.999579 0.997147 1.01067 0.989185 0.972335 0.981084 0.972901 0.975954 0.974639 0.993401 0.920688 0.882867 0.87994 0.860492 0.875889 0.882064 0.857801 0.870264 0.86163 0.832578 0.80748 0.806044 0.788002 0.820916 0.80175 0.815122 0.791844 0.778302 0.771749 0.771153 0.761891 0.761136 0.757861 0.751466 0.753157 0.757439 0.794402 0.802895 0.406944 0.549589 0.586444 0.544451 0.523231 0.37065 0.816751 0.711181 0.486086 0.607368 0.594624 0.546515 0.56634 0.536204 0.495071 0.509055 0.489014 0.720154 0.621223 0.601001 0.674556 0.879538 0.72451 0.958237 0.684999 0.694157 0.673307 0.683833 0.703397 0.692513 0.732475 0.772677 0.804584 0.817621 0.869897 0.917863 0.915374 0.914148 0.902068 0.87258 0.863385 0.843319 0.810426 0.781461 0.74084 1.38786 0.963081 1.08298 0.964804 0.963179 0.93833 0.893651 0.898789 0.978637 0.966548 0.969091 0.944749 0.961419 0.971545 0.97066 0.973552 0.983325 1.00977 0.980629 0.926011 0.909832 0.953128 0.940998 1.09504 1.07546 1.08081 1.04475 1.05239 1.04349 0.999413 0.990799 0.995422 0.996292 1.0177 0.973175 0.99239 1.00835 1.01299 1.01347 1.00525 0.993174 0.96102 0.98821 0.981135 0.99963 0.983914 0.996651 0.977143 0.915032 0.896348 0.905094 0.91674 0.882543 0.862994 0.856986 0.882639 0.888699 0.894352 0.908602 0.886025 0.853708 0.821655 0.818428 0.850554 0.851702 0.802757 0.789703 0.803321 0.787823 0.777129 0.775969 0.781104 0.771874 0.780578 0.765916 0.759567 0.761928 0.776139 0.765886 0.768831 0.758038 0.71924 0.735749 0.693244 0.761703 0.726594 0.546163 0.826621 0.254208 0.435985 0.573233 0.717146 0.661512 0.731976 0.58916 0.651973 0.665951 0.546784 0.55266 0.616787 0.49004 0.476183 0.566543 0.809654 0.679955 0.766135 0.854748 0.908294 0.796381 0.744948 0.681332 0.708272 0.696203 0.737749 0.773691 0.792045 0.81 0.822967 0.84781 0.804334 0.851388 0.896606 0.928505 0.913245 0.82858 0.856355 0.839497 0.778475 0.771844 0.786368 0.891064 0.988663 1.01378 0.92254 0.893506 0.89666 0.905939 0.886417 0.941937 0.970747 0.969958 0.974979 0.98719 0.985919 0.965172 0.891255 0.965744 0.987886 1.01966 0.986251 0.965883 1.03905 1.19561 1.10873 1.06598 1.07376 1.04972 1.05381 1.0372 1.04817 0.994382 1.0055 1.0052 1.01012 1.0583 1.00489 1.01334 1.0281 0.980488 0.994884 0.992024 1.00497 1.00231 1.00835 1.04213 1.05566 1.01223 1.00741 0.948051 0.919377 0.923481 0.899458 0.915172 0.938096 0.899068 0.86827 0.85569 0.879079 0.892666 0.905547 0.913744 0.884627 0.848063 0.836593 0.828976 0.836802 0.853383 0.86569 0.807456 0.811272 0.793991 0.788487 0.796206 0.7879 0.779319 0.78141 0.774376 0.775615 0.767116 0.758428 0.754598 0.805091 0.792119 0.725047 0.659442 0.709875 0.842721 0.828922 0.741218 0.623983 0.51997 0.572155 0.722108 0.637865 0.655554 0.693339 0.673474 0.719028 0.784946 0.395772 0.635056 0.74222 0.745673 0.806235 0.839564 0.808862 0.787797 0.784547 0.748057 0.724796 0.715303 0.709826 0.818604 0.795932 0.805992 0.86658 0.796178 0.857884 0.813125 0.796056 0.944769 0.938822 0.809701 0.880087 0.809301 0.766758 0.740883 0.889281 0.99796 1.0364 1.01853 0.929706 0.913819 0.931209 0.931966 0.935526 1.13917 1.09725 0.996892 0.976904 0.941203 0.970462 1.01003 0.977942 0.899092 0.959826 1.00706 1.04723 1.03566 0.969409 1.00175 1.01334 1.11469 1.04523 1.05445 1.06485 1.05166 1.013 1.01087 1.01811 0.999578 1.05619 1.00769 1.07754 0.99206 0.999335 1.00851 1.04915 1.0577 1.01502 0.944654 0.980071 0.950457 0.93021 0.92829 0.945684 0.863065 0.956945 0.822768 0.898701 0.915609 0.920706 0.925327 0.919916 0.914421 0.957404 0.880782 0.847488 0.850414 0.845954 0.867907 0.861317 0.847305 0.847933 0.795129 0.791372 0.813996 0.779591 0.786328 0.78237 0.774043 0.810126 0.797531 0.673853 0.759828 0.82349 0.660374 0.739662 0.738923 0.841275 0.812604 0.788212 0.871798 0.598983 0.67327 0.493378 0.472193 0.692147 0.669014 0.681098 0.64186 0.95223 0.982054 0.725843 0.745089 0.779468 0.767403 0.742822 0.795799 0.817066 0.728233 0.742703 0.761159 0.806186 0.842076 0.820225 0.835431 0.826087 0.797964 0.972545 0.96307 0.932476 0.885677 0.879056 0.930873 0.844827 0.727123 0.818874 0.689289 0.926788 1.02258 0.999819 1.06079 1.07565 1.03533 0.94638 0.923709 0.944566 0.944421 0.955417 0.946612 1.03635 1.00761 0.972051 1.00862 0.954478 0.975357 1.01775 1.07829 1.03729 1.05953 0.993491 1.00799 1.02244 1.13869 1.05963 1.07234 1.076 1.07922 1.06255 1.02441 1.02518 0.988606 1.02656 1.08575 0.977675 1.04776 1.07551 1.01372 0.991234 1.06156 1.06097 1.05563 1.06724 0.92756 0.972334 0.972872 0.944219 1.00754 0.948579 1.03008 0.74034 0.875042 0.884996 0.923755 0.916619 0.925589 0.935019 0.941035 0.950148 0.885592 0.861427 0.855886 0.860588 0.857534 0.86375 0.87824 0.805041 0.766064 0.813598 0.792331 0.78711 0.776259 0.776944 0.700649 0.784142 0.865506 0.767098 0.739369 0.797283 0.852093 0.877506 0.790769 0.613436 0.615562 0.440195 0.732043 0.69668 0.662046 0.584397 0.936606 0.926271 0.787707 0.780224 0.798761 0.806397 0.787275 0.735851 0.761183 0.789536 0.835428 0.783179 0.849916 0.861593 0.840394 0.820813 0.810918 0.9579 0.962569 0.929474 0.953913 0.87811 0.797352 0.746626 1.04242 0.992337 1.04133 0.966293 1.01732 0.95966 0.961291 0.966643 0.988391 1.00136 1.02641 1.00942 1.03588 0.927725 1.0408 1.07347 1.07857 1.06311 1.08375 1.03939 1.04745 1.02671 1.1246 1.05639 1.05894 1.07686 1.09847 1.08839 1.04849 1.02334 1.00149 1.04274 1.09525 0.946683 1.04186 1.08461 1.0595 1.0063 1.10747 1.07183 1.06219 0.930907 0.953834 0.93274 1.02258 0.977374 1.0382 1.06816 0.830523 0.92356 0.927645 0.937451 0.931285 0.937609 0.943059 0.948589 0.894128 0.863596 0.857106 0.866102 0.874645 0.880463 0.833782 0.827007 0.789702 0.776245 0.722068 0.768864 0.828767 0.742281 0.753237 0.756469 0.767829 0.783878 0.795349 0.827449 0.897679 0.836347 0.740543 0.418712 0.690506 0.772502 0.711273 0.713452 0.729673 0.692187 0.700113 0.976598 0.93788 0.839176 0.79359 0.802926 0.803136 0.787098 0.822161 0.849232 0.877843 0.882499 0.890728 0.871256 0.840616 0.829264 0.827831 0.982679 0.966034 0.991893 0.94306 0.908963 0.843273 0.768838 0.648173 0.57408 1.04376 0.945592 0.989186 0.998324 1.03144 0.980827 0.970025 0.98707 1.00305 1.02171 1.03745 1.05242 1.0281 0.972749 1.0347 1.0177 1.06315 1.08843 1.06634 1.06241 1.08305 1.05695 1.0584 1.14244 1.0734 1.06625 1.06343 1.09944 1.09093 1.06833 1.02864 1.01731 1.04712 1.09283 1.04548 1.03578 1.05169 1.05185 1.07686 1.01012 1.09852 1.11338 1.0608 1.01656 1.02728 0.92679 0.981566 1.04668 1.07504 0.858363 0.92836 0.949299 0.940778 0.939407 0.944687 0.928295 0.955228 0.948267 0.938195 0.942464 0.902456 0.857371 0.90148 0.88097 0.890354 0.857325 0.831794 0.834638 0.901221 0.837728 0.89303 0.630401 0.921464 0.710007 0.749111 0.742456 0.770503 0.7843 0.788946 0.794198 0.805939 0.806019 0.849652 0.872552 0.872949 0.745616 0.691116 0.854771 0.714614 0.763505 0.680341 0.748349 0.980177 0.952293 0.850381 0.807599 0.811254 0.781233 0.839163 0.860561 0.963103 0.834099 0.874832 0.89318 0.905979 0.882062 0.827432 0.95602 0.899316 1.01037 0.96566 0.981431 0.960665 0.968511 0.94699 0.877675 0.789743 1.05659 0.994926 0.953149 1.03868 1.0324 1.00952 0.987687 0.966674 0.999591 1.01248 1.0422 1.03812 1.05261 0.994973 1.01316 1.03614 1.13633 1.08581 1.10093 1.09087 1.06108 1.06248 1.15787 1.10786 1.07137 1.04264 1.1137 1.09548 1.08204 1.03687 1.02902 1.02809 1.08251 1.03709 1.03542 0.980029 1.07976 1.03703 1.09102 1.04712 1.13355 1.12051 1.07066 1.1224 1.02555 0.949951 0.97847 1.0545 1.09707 0.984068 0.941294 0.938089 0.949303 0.910253 0.936697 0.955828 0.945456 0.909962 0.893622 0.913913 0.855054 0.893792 0.857601 0.847588 0.852757 0.856903 0.935494 0.718205 0.842281 0.746881 0.783931 0.804132 0.82516 0.803299 0.856257 0.871432 0.892197 0.777588 0.783427 0.813793 0.836307 0.903384 0.772137 0.659569 0.81121 0.674181 0.985754 0.972308 0.875958 0.867116 0.849464 0.816217 0.793095 0.80867 0.879462 0.871187 0.895929 0.879183 0.865434 0.892395 0.883084 0.883751 0.904319 0.869462 0.874275 0.961115 0.971565 0.940471 0.943177 0.961477 0.965151 1.02582 1.10327 0.915423 1.03745 1.09304 0.983232 0.92956 1.06623 1.02678 1.01446 0.992493 0.96331 1.0159 1.06352 1.05376 1.04253 1.05887 1.00331 1.01587 1.04219 1.1455 1.09156 1.09055 1.07755 1.07148 1.07834 1.15845 1.11749 1.0885 1.06029 1.10534 1.09097 1.03825 1.0406 1.03118 1.07286 1.0363 1.0624 1.14345 1.08079 1.0732 1.14471 1.11119 1.07534 1.10163 1.04392 0.99535 0.978161 1.04127 1.0686 1.05627 0.977362 0.942772 0.973303 0.941213 0.92669 0.891977 0.97528 0.915627 0.8567 0.84701 0.865742 0.861217 0.853286 0.896729 0.954132 0.890369 0.907006 0.889831 0.598669 0.729538 0.961435 0.736884 0.807872 0.812035 0.832695 0.886254 0.885901 0.907181 0.872202 0.800229 0.796056 0.729429 0.635156 0.876494 0.971745 1.00861 0.919589 0.872799 0.872273 0.878762 0.925293 0.858568 0.897714 0.900851 0.903134 0.880069 0.895353 0.896928 0.894006 0.853933 0.832409 0.841421 0.880574 0.911965 1.00074 0.936387 0.951353 0.99049 1.00213 1.01858 1.02933 0.945785 1.0717 1.0161 0.959727 1.06653 1.02192 1.02303 0.969073 1.03698 1.06732 1.02365 1.07411 1.06867 1.05026 1.0433 1.00295 0.977993 1.06075 1.13234 1.14114 1.06914 1.09093 1.08187 1.06936 1.07044 1.09522 1.09923 1.09779 1.08226 1.0903 1.06009 1.12423 1.08726 1.19505 1.09376 1.05915 1.09001 1.07921 1.08289 1.06243 1.11281 1.15691 1.07401 1.04782 1.06655 1.10776 1.07714 1.12872 1.05395 1.03656 1.0481 1.0198 1.04126 1.06067 0.982468 0.957478 0.994127 0.950612 0.945636 0.992939 0.973674 0.918932 0.84435 0.859578 0.918407 0.911666 0.909555 0.90205 1.09334 1.02538 0.737892 0.821533 0.847592 0.909149 0.915523 0.909971 0.923847 0.903734 0.850765 0.810042 0.764821 0.747499 0.711317 0.747268 0.877774 1.01067 1.02176 0.861209 0.875344 0.893627 0.894591 0.931546 0.908692 0.908348 0.910599 0.91955 0.905939 0.874513 0.835195 0.911832 0.916767 0.897652 0.880948 0.992456 0.954077 1.00493 1.01635 1.02817 0.934682 1.035 0.999482 0.975811 1.10606 1.03713 1.1452 1.01956 0.981669 1.06183 1.04599 1.08005 1.04846 1.04996 1.05881 1.04892 1.02087 1.00404 1.07107 1.19178 1.09843 1.1114 1.19151 0.916835 1.15639 1.12346 1.12164 1.08126 1.10313 1.10444 1.05217 1.20294 1.12718 1.12625 1.09194 1.09243 1.11558 1.11469 1.08428 1.06203 1.05122 1.09025 1.08251 1.09908 1.08042 1.13143 1.07718 1.07583 1.02931 1.02513 1.04197 1.00651 0.96594 0.985756 0.970446 0.968164 1.00588 0.975609 0.961998 0.92896 0.883919 0.895819 0.917993 0.903795 0.906621 0.954694 0.970716 0.997395 1.1265 0.927911 0.971705 0.982148 0.824048 0.877451 0.933459 0.9237 0.92257 0.907581 0.915596 0.897177 0.85561 0.801354 0.780925 0.711188 0.990288 0.924184 0.921257 0.946967 0.955757 0.886563 0.904935 0.959237 0.939262 0.910601 0.906151 0.925315 0.934695 0.889147 0.842442 0.835393 0.911501 0.959793 0.965144 0.893017 0.9178 1.02117 0.994066 1.0295 0.961525 1.00819 0.931373 0.991743 0.995043 0.991766 1.03792 0.933756 1.0699 1.02893 1.12215 1.07524 1.09751 1.06736 1.03802 1.05911 1.04631 1.0212 1.07842 1.19178 1.11504 1.14994 1.20559 1.21596 1.16138 1.15417 1.14175 1.14388 1.10371 1.10392 1.13022 1.13168 1.18869 1.1322 1.13515 1.09595 1.10096 1.0913 1.11545 1.10724 1.12584 1.099 1.07811 1.08595 1.087 1.09882 1.08675 1.19899 1.07075 1.03368 1.04474 1.05541 1.04281 1.05108 1.00878 0.993449 0.971324 0.968118 0.995849 0.943591 0.940011 0.884984 0.986252 0.906105 0.9043 0.91272 0.910689 0.929888 0.92273 0.96645 0.888027 0.945622 0.927096 0.896154 0.922576 0.949661 0.981335 0.944925 0.914434 0.918606 0.892305 0.855611 0.774634 0.811604 0.874061 0.928001 0.895496 0.934787 0.949922 0.948648 0.965601 1.03128 0.917563 0.956233 0.949146 0.909294 0.909534 0.948297 0.975225 0.918954 0.846929 0.958506 0.897852 0.971335 0.903245 0.99914 1.01579 1.02395 0.973814 1.00942 0.958763 0.973062 1.00334 1.03284 0.917923 1.06969 1.03448 1.12337 1.09065 1.11466 1.0573 1.08646 1.08848 1.02639 1.06522 1.03192 1.05382 1.1683 1.12299 1.14634 1.19178 1.19182 1.15071 1.15673 1.14184 1.14414 1.11117 1.13561 1.13671 1.09752 1.10005 1.0974 1.13613 1.14559 1.13185 1.1064 1.1373 1.11273 1.1256 1.1152 1.07951 1.08966 1.10093 1.09295 1.07245 1.0249 1.04497 1.03536 1.04783 1.05999 1.00553 0.996096 0.995306 0.992391 0.87788 1.0482 1.02359 0.904686 1.03295 0.937905 0.908413 0.910653 0.915521 0.930305 0.948028 0.948 0.980048 0.920559 0.939401 1.07001 0.935362 0.910125 0.924681 0.904919 0.91943 0.827313 0.864772 0.907333 0.926842 0.958888 1.0362 0.94905 0.969514 0.957229 0.957985 0.947263 0.9607 1.01381 0.956718 0.9025 1.0371 0.924869 0.935004 0.888312 1.02733 1.03272 1.05914 0.969174 0.960182 0.959098 0.961178 1.03457 0.997107 1.00279 1.02585 0.997267 1.06012 1.1414 1.12088 1.05296 1.01991 1.05437 1.07242 1.12148 1.13583 1.18705 1.15269 1.09813 1.14953 1.12359 1.0999 1.10763 1.09649 1.09844 1.10839 1.09064 1.12869 1.07827 1.02832 1.048 1.03456 1.04949 1.06032 1.02604 1.01422 1.00012 1.04004 1.04033 1.00599 0.99625 0.932845 0.955346 1.12133 1.01685 0.933316 0.957048 0.938691 0.918688 0.932586 0.946758 0.975775 0.976223 0.921596 0.910977 0.941481 0.995152 0.943993 0.926345 0.919389 0.938085 0.935915 0.86345 0.844048 0.813141 0.957105 1.10226 0.92396 0.942902 
SCALARS Stress float 1
LOOKUP_TABLE default
-141283000000.0 -206353000000.0 -147182000000.0 -323433000000.0 -267213000000.0 -149026000000.0 -213930000000.0 -248379000000.0 -60654700000.0 -271395000000.0 -245548000000.0 -317541000000.0 -209587000000.0 -635131000000.0 -383898000000.0 -1.05493e+12 -672863000000.0 -505298000000.0 -1.16408e+12 -679510000000.0 -483117000000.0 -264149000000.0 -360983000000.0 -1.09126e+12 -413137000000.0 -644732000000.0 -225979000000.0 -105507000000.0 -449516000000.0 -303541000000.0 -241351000000.0 -673508000000.0 -973964000000.0 -412455000000.0 -1.13561e+12 -984073000000.0 -1.2026e+12 -1.18769e+12 -1.44316e+12 -832076000000.0 -969307000000.0 -1.3062e+12 -1.44236e+12 -1.17897e+12 -432041000000.0 -993879000000.0 -892789000000.0 -1.10304e+12 -580747000000.0 -1.58237e+12 -961918000000.0 -460742000000.0 -839032000000.0 -1.54013e+12 -578221000000.0 -503963000000.0 -1.744e+12 -1.05025e+12 -1.26262e+12 -1.85095e+12 -1.00039e+12 -734705000000.0 -1.53476e+12 -1.32169e+12 -2.36623e+12 -1.6558e+12 -2.05392e+12 -407345000000.0 -848584000000.0 -1.06091e+12 -853823000000.0 -1.62046e+12 -1.55115e+12 -1.66723e+12 -679996000000.0 -1.37444e+12 -888723000000.0 -1.79148e+12 -1.05477e+12 -2.02942e+12 -2.21072e+12 -1.41321e+12 -1.33333e+12 -1.78372e+12 -1.7401e+12 -2.68149e+12 -2.97926e+12 -2.37569e+12 -1.66196e+12 -3.16157e+12 -1.2577e+12 -2.92604e+12 -2.43748e+12 -2.80812e+12 -2.58983e+12 -838584000000.0 -2.49799e+12 -2.22222e+12 -2.50177e+12 -1.9799e+12 -1.41811e+12 -2.50941e+12 -1.27035e+12 -1.57991e+12 -2.29177e+12 -2.10858e+12 -1.87293e+12 -2.41317e+12 -1.43455e+12 -862296000000.0 -594148000000.0 -1.34497e+12 -843147000000.0 -3.53944e+12 -1.62749e+12 -3.37685e+12 -2.14164e+12 -2.61137e+12 -2.75001e+12 -1.22485e+12 -2.73665e+12 -1.82303e+12 -2.33653e+12 -1.07398e+12 -840468000000.0 -2.11545e+12 -2.08646e+12 -5.36543e+12 -3.07388e+12 -3.43538e+12 -850062000000.0 -949092000000.0 -1.55232e+12 -2.45694e+12 -1.62596e+12 -1.34773e+12 -1.58199e+12 -3.86294e+12 -3.34648e+12 -3.73549e+12 -2.97089e+12 -2.40977e+12 -1.75764e+12 -2.23534e+12 -4.02311e+12 -3.48836e+12 -4.9286e+12 -4.05345e+12 -2.38735e+12 -1.67073e+12 -2.2347e+12 -3.24504e+12 -3.87179e+12 -1.59832e+12 -2.74837e+12 -1.74813e+12 -3.67313e+12 -1.27087e+12 -1.15337e+12 -1.85269e+12 -2.16402e+12 -2.3016e+12 -2.97687e+12 -3.06663e+12 -3.65171e+12 -793407000000.0 -635999000000.0 -1.64141e+12 -1.55438e+12 -2.32778e+12 -5.18826e+12 -3.78454e+12 -4.6008e+12 -3.97576e+12 -3.37269e+12 -3.09312e+12 -4.66837e+12 -3.43327e+12 -3.36289e+12 -3.19452e+12 -1.9568e+12 -2.93591e+12 -4.60659e+12 -4.24196e+12 -4.52049e+12 -2.55371e+12 -4.39021e+12 -2.57481e+12 -3.56519e+12 -3.60292e+12 -3.47587e+12 -3.58564e+12 -5.57032e+12 -2.05665e+12 -2.62775e+12 -1.67302e+12 -2.88988e+12 -2.39347e+12 -3.19002e+12 -6.0601e+12 -2.12425e+12 -6.41797e+12 -4.86741e+12 -4.26934e+12 -3.36179e+12 -6.78145e+12 -5.42814e+12 -5.39617e+12 -2.79219e+12 -6.34704e+12 -3.93943e+12 -5.64677e+12 -1.13109e+12 -4.18933e+12 -3.7444e+12 -3.44886e+12 -4.49234e+12 -2.98006e+12 -5.40502e+12 -4.17575e+12 -1.58562e+12 -3.16142e+12 -1.89875e+12 -2.83886e+12 -3.40637e+12 -2.81672e+12 -5.118e+12 -5.78089e+12 -5.57065e+12 -5.43803e+12 -4.28947e+12 -2.17367e+12 -4.96099e+12 -4.13159e+12 -4.42506e+12 -3.25442e+12 -4.96755e+12 -7.54071e+12 -5.69263e+12 -5.94873e+12 -4.1742e+12 -5.60352e+12 -4.97824e+12 -5.91886e+12 -1.77649e+12 -7.09577e+12 -3.25599e+12 -3.52282e+12 -2.93974e+12 -2.1874e+12 -3.7615e+12 -3.55255e+12 -3.99675e+12 -6.16794e+12 -7.1431e+12 -3.07454e+12 -3.62125e+12 -5.69093e+12 -6.59596e+12 -6.37373e+12 -3.4316e+12 -4.2801e+12 -3.39022e+12 -3.38351e+12 -5.48096e+12 -3.93902e+12 -6.58941e+12 -3.98089e+12 -3.84578e+12 -4.02668e+12 -4.79065e+12 -5.23636e+12 -5.92739e+12 -6.24282e+12 -2.42575e+12 -2.82631e+12 -5.2385e+12 -4.0729e+12 -3.56637e+12 -5.77011e+12 -5.22921e+12 -5.07804e+12 -6.08848e+12 -4.95208e+12 -3.05148e+12 -4.32437e+12 -4.60084e+12 -5.37728e+12 -5.08065e+12 -6.38507e+12 -6.27357e+12 -6.42863e+12 -4.39732e+12 -2.2242e+12 -3.75051e+12 -2.52327e+12 -2.89285e+12 -3.59152e+12 -7.22455e+12 -4.73962e+12 -6.6458e+12 -2.32236e+12 -4.20676e+12 -5.52532e+12 -3.87944e+12 -2.53342e+12 -7.22568e+12 -8.23392e+12 -5.27976e+12 -8.50651e+12 -4.77522e+12 -3.28456e+12 -5.30146e+12 -4.54648e+12 -6.29376e+12 -6.90088e+12 -5.53418e+12 -7.03792e+12 -6.9371e+12 -8.7345e+12 -5.70002e+12 -4.05266e+12 -5.33308e+12 -6.00031e+12 -7.49878e+12 -4.01294e+12 -3.62493e+12 -4.50822e+12 -6.11298e+12 -6.47683e+12 -4.55929e+12 -6.38367e+12 -3.76982e+12 -4.24241e+12 -4.2739e+12 -2.3643e+12 -4.59952e+12 -3.69744e+12 -5.70159e+12 -5.98376e+12 -2.56079e+12 -8.37745e+12 -5.33676e+12 -6.9108e+12 -8.17959e+12 -7.74269e+12 -7.63751e+12 -3.79977e+12 -4.01138e+12 -6.43389e+12 -5.8391e+12 -4.20696e+12 -5.735e+12 -3.08885e+12 -6.74179e+12 -3.33299e+12 -3.41874e+12 -7.98868e+12 -7.09722e+12 -4.96872e+12 -5.6343e+12 -7.31921e+12 -5.01889e+12 -4.82245e+12 -6.49994e+12 -4.19427e+12 -6.21091e+12 -5.63054e+12 -3.58359e+12 -4.33137e+12 -2.41482e+12 -4.3057e+12 -3.83047e+12 -3.53002e+12 -4.1622e+12 -6.28558e+12 -3.66556e+12 -2.78954e+12 -5.10163e+12 -4.34089e+12 -3.70776e+12 -5.1962e+12 -2.68438e+12 -6.6887e+12 -4.46172e+12 -4.85379e+12 -4.99938e+12 -5.80844e+12 -3.70111e+12 -5.38845e+12 -6.3821e+12 -6.28427e+12 -6.39141e+12 -2.27593e+12 -8.58112e+12 -4.55402e+12 -6.84448e+12 -6.94466e+12 -5.44695e+12 -2.59179e+12 -3.81909e+12 -4.49454e+12 -3.5485e+12 -8.25137e+12 -6.17732e+12 -9.66863e+12 -8.969e+12 -5.3057e+12 -4.24479e+12 -5.63565e+12 -5.90854e+12 -4.44792e+12 -7.72079e+12 -5.84069e+12 -5.54093e+12 -5.86995e+12 -5.3738e+12 -6.54316e+12 -5.64446e+12 -5.31912e+12 -4.62757e+12 -5.87792e+12 -3.92947e+12 -4.88459e+12 -4.98686e+12 -4.41868e+12 -3.40193e+12 -5.01189e+12 -3.4411e+12 -4.99302e+12 -3.33368e+12 -3.93186e+12 -3.76346e+12 -4.06992e+12 -4.80291e+12 -4.8707e+12 -5.99796e+12 -5.06967e+12 -4.50052e+12 -5.7273e+12 -6.51678e+12 -6.66186e+12 -5.80729e+12 -5.3439e+12 -7.34168e+12 -7.68138e+12 -4.10154e+12 -6.19553e+12 -4.57304e+12 -6.22164e+12 -8.87821e+12 -8.24822e+12 -7.09693e+12 -4.74588e+12 -7.18426e+12 -8.44582e+12 -3.48023e+12 -4.97045e+12 -4.78399e+12 -4.42257e+12 -1.02214e+13 -7.17505e+12 -1.03036e+13 -8.32251e+12 -7.9464e+12 -8.29884e+12 -1.08194e+13 -7.37602e+12 -6.67401e+12 -8.90094e+12 -5.01748e+12 -8.82576e+12 -4.12077e+12 -8.6176e+12 -6.10181e+12 -3.49748e+12 -4.22574e+12 -6.56991e+12 -6.71413e+12 -2.8726e+12 -3.85898e+12 -3.70926e+12 -4.74502e+12 -5.78876e+12 -5.30571e+12 -3.04223e+12 -5.01647e+12 -2.76792e+12 -3.55744e+12 -4.30878e+12 -2.42299e+12 -8.14352e+12 -7.38271e+12 -7.29885e+12 -6.9581e+12 -4.03351e+12 -3.83019e+12 -5.11252e+12 -6.32833e+12 -5.97023e+12 -7.38763e+12 -5.07515e+12 -8.57181e+12 -2.80099e+12 -4.13637e+12 -6.33193e+12 -5.74308e+12 -6.64224e+12 -7.4038e+12 -6.35137e+12 -9.24103e+12 -1.05027e+13 -6.29424e+12 -5.79354e+12 -5.69961e+12 -5.58152e+12 -8.97094e+12 -8.81214e+12 -1.31838e+13 -4.52069e+12 -3.93702e+12 -4.03931e+12 -4.51426e+12 -6.13748e+12 -6.78858e+12 -4.39361e+12 -6.40875e+12 -3.49773e+12 -4.50157e+12 -8.67998e+12 -5.72869e+12 -4.88437e+12 -5.73396e+12 -1.00935e+13 -3.37935e+12 -6.95918e+12 -7.0151e+12 -6.39872e+12 -4.40501e+12 -7.94617e+12 -6.81733e+12 -6.02441e+12 -4.81169e+12 -3.28716e+12 -6.39026e+12 -6.89799e+12 -7.55902e+12 -5.56405e+12 -4.81772e+12 -4.73461e+12 -5.15921e+12 -3.61536e+12 -4.74525e+12 -5.27597e+12 -4.43133e+12 -7.44873e+12 -5.59262e+12 -3.32735e+12 -5.50879e+12 -2.58017e+12 -5.6186e+12 -4.28781e+12 -5.98356e+12 -4.84588e+12 -6.40625e+12 -3.8253e+12 -5.15908e+12 -5.3298e+12 -5.31277e+12 -6.70907e+12 -2.53417e+12 -3.88434e+12 -4.73576e+12 -6.0711e+12 -7.8494e+12 -7.09221e+12 -8.90654e+12 -9.22154e+12 -5.5981e+12 -8.42046e+12 -5.78952e+12 -1.03726e+13 -8.14316e+12 -1.03814e+13 -8.76628e+12 -6.67013e+12 -6.963e+12 -1.04083e+13 -7.94202e+12 -5.72102e+12 -6.04388e+12 -5.67229e+12 -4.13411e+12 -7.5227e+12 -5.86398e+12 -5.57465e+12 -1.01405e+13 -6.01817e+12 -7.60046e+12 -5.63718e+12 -7.71911e+12 -4.0229e+12 -6.06054e+12 -8.5014e+12 -4.13915e+12 -5.45504e+12 -6.39526e+12 -7.78073e+12 -7.62669e+12 -5.76135e+12 -6.02581e+12 -3.83887e+12 -3.43393e+12 -6.38722e+12 -7.06992e+12 -8.37856e+12 -1.06904e+13 -5.48037e+12 -5.56537e+12 -4.56386e+12 -4.88963e+12 -3.89821e+12 -1.1988e+13 -5.90244e+12 -6.74397e+12 -5.15395e+12 -5.19373e+12 -5.41751e+12 -5.13849e+12 -4.12521e+12 -3.95277e+12 -7.12742e+12 -1.02436e+13 -5.47736e+12 -6.62737e+12 -2.85578e+12 -8.08284e+12 -1.05181e+13 -9.15523e+12 -5.00146e+12 -4.43424e+12 -3.30018e+12 -6.13961e+12 -5.73749e+12 -5.629e+12 -4.73117e+12 -1.11986e+13 -8.7705e+12 -8.64306e+12 -4.72238e+12 -6.24445e+12 -1.2985e+13 -1.08518e+13 -7.818e+12 -7.58154e+12 -1.65327e+13 -3.76336e+12 -1.0738e+13 -5.7496e+12 -1.03084e+13 -5.08802e+12 -7.48625e+12 -7.24007e+12 -5.7423e+12 -6.36755e+12 -8.1598e+12 -4.63819e+12 -4.51161e+12 -7.57851e+12 -4.86688e+12 -3.95007e+12 -3.61915e+12 -3.23663e+12 -4.23392e+12 -6.87063e+12 -7.61456e+12 -6.02759e+12 -1.05523e+13 -5.33181e+12 -3.47521e+12 -7.78792e+12 -8.53541e+12 -5.94566e+12 -5.07717e+12 -4.97748e+12 -4.66007e+12 -1.03964e+13 -8.16857e+12 -9.97523e+12 -7.46631e+12 -1.17498e+13 -8.47533e+12 -5.06344e+12 -5.0227e+12 -4.84335e+12 -6.80908e+12 -4.53318e+12 -7.86673e+12 -8.2299e+12 -8.33177e+12 -6.21522e+12 -5.36271e+12 -6.48353e+12 -6.41895e+12 -7.48045e+12 -4.16643e+12 -4.3176e+12 -4.39534e+12 -4.01462e+12 -6.51999e+12 -4.76245e+12 -5.99277e+12 -3.80155e+12 -4.80036e+12 -5.39971e+12 -4.56071e+12 -5.7036e+12 -5.71948e+12 -7.60024e+12 -6.92925e+12 -4.50172e+12 -7.39494e+12 -6.63468e+12 -6.67284e+12 -6.90592e+12 -5.81833e+12 -2.8421e+12 -8.39572e+12 -5.19733e+12 -5.72721e+12 -1.21844e+13 -9.92877e+12 -4.71565e+12 -1.06007e+13 -9.66708e+12 -6.23077e+12 -6.81539e+12 -5.6576e+12 -6.11404e+12 -9.39782e+12 -7.5207e+12 -9.23547e+12 -1.20452e+13 -1.16836e+13 -5.95447e+12 -5.13497e+12 -7.16131e+12 -5.23349e+12 -8.94299e+12 -3.99463e+12 -6.73995e+12 -7.30989e+12 -3.36794e+12 -5.0963e+12 -7.13729e+12 -3.48421e+12 -3.826e+12 -5.02015e+12 -4.82504e+12 -7.68123e+12 -6.94249e+12 -6.37263e+12 -9.11912e+12 -8.81229e+12 -7.45497e+12 -1.02892e+13 -6.11505e+12 -5.45978e+12 -6.98338e+12 -6.44741e+12 -8.31331e+12 -9.94361e+12 -1.08935e+13 -8.19317e+12 -4.78839e+12 -1.0281e+13 -6.61971e+12 -3.69678e+12 -3.99517e+12 -5.0698e+12 -3.9085e+12 -4.08055e+12 -6.52862e+12 -8.68409e+12 -6.84272e+12 -4.66127e+12 -6.68518e+12 -4.77328e+12 -2.36625e+12 -6.57157e+12 -5.38818e+12 -5.95218e+12 -4.8606e+12 -2.82572e+12 -5.66836e+12 -5.62509e+12 -4.07271e+12 -5.97052e+12 -1.90683e+12 -6.97169e+12 -5.90685e+12 -3.86839e+12 -5.3173e+12 -4.60619e+12 -4.11444e+12 -6.03455e+12 -6.87475e+12 -7.45754e+12 -3.54222e+12 -5.08646e+12 -1.70467e+12 -4.1859e+12 -9.92249e+12 -3.69363e+12 -6.28143e+12 -2.65031e+12 -5.42127e+12 -5.90801e+12 -7.11563e+12 -7.59443e+12 -5.50147e+12 -6.37374e+12 -8.89518e+12 -6.82477e+12 -6.5103e+12 -4.43615e+12 -5.30935e+12 -8.12559e+12 -4.28739e+12 -5.1516e+12 -9.74479e+12 -8.93931e+12 -1.00801e+13 -5.31e+12 -9.35233e+12 -8.72424e+12 -6.06811e+12 -1.11911e+13 -1.06127e+13 -6.51918e+12 -6.35974e+12 -1.11409e+13 -6.60272e+12 -1.0688e+13 -6.50714e+12 -5.50303e+12 -5.60323e+12 -4.24761e+12 -8.73898e+12 -7.90888e+12 -2.73344e+12 -6.73002e+12 -5.45059e+12 -7.93065e+12 -5.2033e+12 -9.60239e+12 -7.63936e+12 -7.07048e+12 -7.8066e+12 -8.23958e+12 -6.89802e+12 -4.19779e+12 -4.29412e+12 -6.81063e+12 -4.81351e+12 -6.99754e+12 -8.00112e+12 -6.70947e+12 -7.27292e+12 -5.6743e+12 -9.61129e+12 -4.17291e+12 -5.69624e+12 -9.0001e+12 -9.4751e+12 -6.92521e+12 -8.03553e+12 -6.0726e+12 -6.4006e+12 -4.569e+12 -3.06526e+12 -4.20333e+12 -5.45469e+12 -5.86406e+12 -3.55882e+12 -4.76467e+12 -4.90118e+12 -6.95739e+12 -3.19773e+12 -4.4043e+12 -5.59508e+12 -3.11592e+12 -3.84674e+12 -6.27187e+12 -2.12265e+12 -2.35069e+12 -7.50082e+12 -4.28043e+12 -4.88914e+12 -6.08249e+12 -3.5576e+12 -3.86262e+12 -7.53911e+12 -3.67535e+12 -4.9355e+12 -4.41395e+12 -3.54893e+12 -8.33844e+12 -5.57679e+12 -7.01301e+12 -9.12867e+12 -5.04675e+12 -6.63111e+12 -5.16491e+12 -7.69922e+12 -1.00386e+13 -7.0608e+12 -6.82915e+12 -5.36768e+12 -5.42234e+12 -5.61422e+12 -5.04038e+12 -5.09788e+12 -3.86873e+12 -7.3574e+12 -6.68449e+12 -5.957e+12 -3.34236e+12 -5.12293e+12 -2.48674e+12 -6.24311e+12 -4.87055e+12 -6.84976e+12 -9.23188e+12 -1.02282e+13 -6.52578e+12 -8.45471e+12 -8.77649e+12 -7.68916e+12 -3.20365e+12 -8.6203e+12 -3.25854e+12 -4.14654e+12 -9.73151e+12 -6.74956e+12 -6.18814e+12 -6.69182e+12 -1.10137e+13 -5.80961e+12 -9.05491e+12 -1.20383e+13 -1.29003e+13 -8.80631e+12 -7.57355e+12 -1.05576e+13 -4.90288e+12 -5.1514e+12 -8.52743e+12 -7.21386e+12 -5.88965e+12 -8.69246e+12 -9.1715e+12 -7.09267e+12 -7.56956e+12 -6.5185e+12 -6.91212e+12 -5.5085e+12 -5.30187e+12 -4.90282e+12 -6.16813e+12 -5.73966e+12 -7.23879e+12 -6.55891e+12 -8.16717e+12 -5.56922e+12 -7.85747e+12 -6.59429e+12 -6.18099e+12 -5.32865e+12 -5.62621e+12 -6.72529e+12 -3.85658e+12 -3.08761e+12 -7.55903e+12 -9.43826e+12 -4.24895e+12 -3.79092e+12 -4.79147e+12 -7.90825e+12 -6.45815e+12 -7.71953e+12 -4.37136e+12 -7.02288e+12 -5.20276e+12 -6.05562e+12 -7.21168e+12 -7.70841e+12 -4.40951e+12 -6.62619e+12 -4.17138e+12 -6.11195e+12 -4.83761e+12 -6.86821e+12 -5.11694e+12 -4.20859e+12 -6.62727e+12 -8.02327e+12 -5.3936e+12 -7.66599e+12 -6.64273e+12 -8.30808e+12 -7.66223e+12 -8.32078e+12 -6.7564e+12 -7.81308e+12 -4.86922e+12 -5.32999e+12 -6.41052e+12 -5.99992e+12 -7.13332e+12 -7.06856e+12 -5.72244e+12 -5.13542e+12 -9.04919e+12 -7.05284e+12 -6.25127e+12 -7.85766e+12 -7.90352e+12 -7.38151e+12 -1.31963e+13 -8.89803e+12 -9.01588e+12 -7.20347e+12 -1.00169e+13 -7.35401e+12 -3.82968e+12 -2.75375e+12 -6.08628e+12 -3.97338e+12 -7.76358e+12 -1.13191e+13 -3.97264e+12 -1.29974e+13 -9.07264e+12 -9.80902e+12 -1.01698e+13 -8.02047e+12 -5.66563e+12 -3.75847e+12 -1.2673e+13 -5.92339e+12 -9.02214e+12 -6.29291e+12 -4.70399e+12 -8.56321e+12 -5.0524e+12 -5.84097e+12 -7.74877e+12 -6.6219e+12 -6.5403e+12 -7.17188e+12 -6.58236e+12 -6.05088e+12 -5.52975e+12 -9.36573e+12 -9.55081e+12 -5.52982e+12 -7.4532e+12 -6.78593e+12 -1.20183e+13 -4.60024e+12 -3.5961e+12 -8.21306e+12 -4.39103e+12 -6.82413e+12 -3.97393e+12 -2.33208e+12 -3.3353e+12 -5.83025e+12 -5.26959e+12 -6.1239e+12 -6.62051e+12 -5.45923e+12 -4.90812e+12 -4.69557e+12 -4.18907e+12 -4.84657e+12 -4.83984e+12 -3.84816e+12 -4.72108e+12 -5.06825e+12 -3.82412e+12 -5.83458e+12 -8.25962e+12 -7.65019e+12 -4.8049e+12 -5.59716e+12 -5.66247e+12 -4.78925e+12 -9.02321e+12 -4.33005e+12 -4.3524e+12 -8.21404e+12 -6.25667e+12 -6.36404e+12 -6.2501e+12 -2.79643e+12 -1.1154e+13 -4.48167e+12 -4.85516e+12 -6.4606e+12 -6.45424e+12 -9.49944e+12 -5.45445e+12 -4.11101e+12 -9.49893e+12 -7.65863e+12 -6.06695e+12 -9.33421e+12 -5.85071e+12 -6.23866e+12 -4.49432e+12 -7.06244e+12 -6.85101e+12 -8.689e+12 -5.84144e+12 -7.75622e+12 -1.39081e+13 -1.14446e+13 -6.35161e+12 -8.53517e+12 -8.12217e+12 -1.10706e+13 -8.49312e+12 -7.61646e+12 -1.27662e+13 -7.3258e+12 -6.26214e+12 -2.69592e+12 -3.85621e+12 -3.49198e+12 -8.5744e+12 -5.59352e+12 -5.03014e+12 -6.62085e+12 -7.53044e+12 -9.25695e+12 -8.94751e+12 -5.47581e+12 -7.75991e+12 -6.22501e+12 -5.96671e+12 -8.96598e+12 -6.45407e+12 -1.09476e+13 -8.84585e+12 -4.88724e+12 -5.73412e+12 -7.65537e+12 -8.95121e+12 -7.34879e+12 -1.13704e+13 -7.51686e+12 -6.86722e+12 -8.8683e+12 -7.7614e+12 -6.08219e+12 -4.42435e+12 -6.42321e+12 -4.87794e+12 -7.63999e+12 -7.08562e+12 -1.16067e+13 -8.31106e+12 -8.64433e+12 -4.40543e+12 -6.10001e+12 -3.40885e+12 -5.60528e+12 -5.79434e+12 -5.08516e+12 -2.88085e+12 -5.80351e+12 -3.53998e+12 -5.45777e+12 -4.33294e+12 -2.44978e+12 -7.19477e+12 -4.66425e+12 -1.23806e+12 -4.59738e+12 -4.76293e+12 -7.57473e+12 -7.95198e+12 -5.6345e+12 -6.76638e+12 -7.21241e+12 -5.35465e+12 -7.37686e+12 -3.04676e+12 -3.60803e+12 -6.03433e+12 -6.74729e+12 -6.43064e+12 -4.87403e+12 -5.44442e+12 -7.66613e+12 -6.22986e+12 -4.16462e+12 -5.31384e+12 -4.80114e+12 -5.10871e+12 -8.63039e+12 -5.27647e+12 -5.33885e+12 -6.44086e+12 -9.08893e+12 -5.77692e+12 -1.10136e+13 -9.15616e+12 -8.46172e+12 -1.25121e+13 -8.12731e+12 -4.85853e+12 -7.30252e+12 -6.9419e+12 -7.37286e+12 -8.30149e+12 -9.38506e+12 -1.15053e+13 -8.63864e+12 -9.2069e+12 -6.9989e+12 -8.70722e+12 -6.56896e+12 -4.98684e+12 -8.77505e+12 -8.5897e+12 -6.25578e+12 -5.01049e+12 -7.08029e+12 -4.28413e+12 -5.23869e+12 -7.62329e+12 -8.8132e+12 -5.55259e+12 -6.77691e+12 -5.00729e+12 -5.57615e+12 -9.24041e+12 -9.41059e+12 -1.21674e+13 -5.30294e+12 -5.8986e+12 -1.04374e+13 -9.02601e+12 -7.1521e+12 -1.17043e+13 -8.29469e+12 -4.60719e+12 -8.02173e+12 -5.09248e+12 -5.68943e+12 -7.10258e+12 -6.56425e+12 -5.59165e+12 -6.71435e+12 -6.15726e+12 -4.89713e+12 -4.25211e+12 -4.68849e+12 -4.94252e+12 -7.91487e+12 -6.21889e+12 -5.69194e+12 -5.84137e+12 -3.3543e+12 -3.16439e+12 -6.07982e+12 -3.23958e+12 -5.70261e+12 -3.13849e+12 -4.35455e+12 -5.24708e+12 -5.4327e+12 -7.63841e+12 -5.63831e+12 -5.79868e+12 -5.89822e+12 -4.42523e+12 -3.25021e+12 -4.56072e+12 -4.96273e+12 -3.79118e+12 -7.14594e+12 -9.06984e+12 -4.78653e+12 -3.69249e+12 -4.33771e+12 -4.18177e+12 -5.03114e+12 -6.2239e+12 -6.37629e+12 -5.0557e+12 -5.59877e+12 -2.35344e+12 -4.52978e+12 -4.09536e+12 -4.22602e+12 -8.8194e+12 -4.88847e+12 -2.32856e+12 -5.5693e+12 -2.31586e+12 -6.25429e+12 -6.68838e+12 -4.57067e+12 -6.19358e+12 -5.54562e+12 -6.89461e+12 -9.72134e+12 -5.08632e+12 -4.98262e+12 -5.92881e+12 -5.28317e+12 -4.01652e+12 -8.52761e+12 -7.69091e+12 -4.99674e+12 -5.56694e+12 -5.11831e+12 -8.83093e+12 -7.86605e+12 -7.23215e+12 -8.88337e+12 -8.38838e+12 -7.61111e+12 -1.10956e+13 -1.10692e+13 -6.24916e+12 -4.89109e+12 -1.06956e+13 -7.77725e+12 -1.17575e+13 -8.07125e+12 -4.94455e+12 -5.00836e+12 -5.24302e+12 -1.41809e+13 -6.23434e+12 -4.91933e+12 -3.02895e+12 -6.70077e+12 -4.45194e+12 -9.30872e+12 -9.70012e+12 -9.95107e+12 -6.2336e+12 -1.02511e+13 -8.14045e+12 -9.79772e+12 -6.77397e+12 -7.06461e+12 -7.85805e+12 -7.22611e+12 -5.04807e+12 -9.33074e+12 -7.04949e+12 -2.29913e+12 -4.65195e+12 -7.99111e+12 -6.24859e+12 -8.57431e+12 -6.23593e+12 -6.05282e+12 -9.7244e+12 -7.73846e+12 -8.25026e+12 -5.95298e+12 -9.53964e+12 -6.34862e+12 -2.72465e+12 -7.82251e+12 -7.39085e+12 -7.29733e+12 -8.62882e+12 -4.22038e+12 -6.01972e+12 -3.81123e+12 -5.02903e+12 -5.15673e+12 -4.34696e+12 -5.94006e+12 -7.28406e+12 -7.66464e+12 -5.09795e+12 -5.74397e+12 -4.22658e+12 -4.86427e+12 -7.43421e+12 -3.18999e+12 -4.25228e+12 -5.00416e+12 -5.13194e+12 -3.20174e+12 -6.23827e+12 -4.41146e+12 -3.18967e+12 -4.76844e+12 -6.02369e+12 -3.33283e+12 -5.89624e+12 -4.35467e+12 -3.47728e+12 -3.62413e+12 -7.01367e+12 -6.26315e+12 -6.89862e+12 -6.94601e+12 -6.74382e+12 -3.39591e+12 -4.85559e+12 -4.38392e+12 -6.27299e+12 -8.29541e+12 -3.00391e+12 -4.65827e+12 -8.46017e+12 -8.11325e+12 -4.45488e+12 -5.39797e+12 -6.11649e+12 -7.07339e+12 -7.68589e+12 -4.90645e+12 -4.19904e+12 -7.29533e+12 -8.4003e+12 -8.34222e+12 -8.59013e+12 -6.83479e+12 -6.79693e+12 -8.53381e+12 -8.93954e+12 -4.92974e+12 -7.15814e+12 -1.31869e+13 -6.87458e+12 -7.70315e+12 -9.37169e+12 -8.69792e+12 -4.48477e+12 -1.07902e+13 -5.24808e+12 -5.43381e+12 -6.68048e+12 -8.35478e+12 -8.61535e+12 -9.40583e+12 -7.37881e+12 -9.12447e+12 -9.88925e+12 -5.31018e+12 -8.30281e+12 -5.91885e+12 -4.89058e+12 -8.5721e+12 -1.11352e+13 -9.87077e+12 -4.96663e+12 -6.96921e+12 -5.67226e+12 -1.1025e+13 -4.17278e+12 -6.94484e+12 -7.97666e+12 -1.16811e+13 -8.47878e+12 -5.46148e+12 -6.07559e+12 -4.50078e+12 -1.12527e+13 -4.35027e+12 -3.77347e+12 -3.95294e+12 -5.6388e+12 -7.9555e+12 -4.96162e+12 -8.52297e+12 -8.82552e+12 -8.38255e+12 -4.90984e+12 -2.29076e+12 -9.20599e+12 -5.49559e+12 -7.53984e+12 -7.47599e+12 -4.78507e+12 -6.87457e+12 -3.54848e+12 -7.92747e+12 -5.06689e+12 -5.23914e+12 -5.80343e+12 -3.10953e+12 -4.37248e+12 -5.89789e+12 -5.41575e+12 -3.18729e+12 -6.39228e+12 -4.37398e+12 -2.15934e+12 -2.94615e+12 -7.27437e+12 -5.36617e+12 -4.7e+12 -3.26397e+12 -5.6099e+12 -3.68011e+12 -5.05826e+12 -4.76693e+12 -3.44344e+12 -5.87228e+12 -4.70559e+12 -5.5841e+12 -3.71424e+12 -4.70643e+12 -6.65295e+12 -2.20834e+12 -8.86942e+12 -5.09101e+12 -2.66726e+12 -4.15304e+12 -6.00582e+12 -6.22401e+12 -7.62844e+12 -6.25564e+12 -4.27886e+12 -3.99979e+12 -5.974e+12 -5.42496e+12 -5.54912e+12 -5.46469e+12 -6.78224e+12 -5.87212e+12 -6.55523e+12 -4.85151e+12 -8.29389e+12 -5.41644e+12 -6.09016e+12 -3.16977e+12 -6.40357e+12 -7.47713e+12 -3.73207e+12 -3.93698e+12 -2.40916e+12 -5.58509e+12 -6.83344e+12 -6.12704e+12 -4.76089e+12 -5.53439e+12 -7.7315e+12 -6.64973e+12 -7.48829e+12 -3.16639e+12 -5.25087e+12 -5.56506e+12 -6.4165e+12 -7.6813e+12 -3.51524e+12 -3.76907e+12 -9.21159e+12 -6.63858e+12 -7.66941e+12 -6.03174e+12 -7.26267e+12 -2.94077e+12 -7.07806e+12 -6.54134e+12 -5.6925e+12 -6.48635e+12 -3.15332e+12 -3.56958e+12 -6.65946e+12 -5.678e+12 -4.02783e+12 -7.82361e+12 -9.63559e+12 -7.59888e+12 -7.29026e+12 -7.72963e+12 -7.7674e+12 -8.84642e+12 -4.07636e+12 -6.78708e+12 -8.12338e+12 -9.29056e+12 -5.72966e+12 -8.32482e+12 -1.00634e+13 -8.41312e+12 -7.63573e+12 -1.1073e+13 -7.86376e+12 -7.84802e+12 -4.85102e+12 -6.38924e+12 -7.32191e+12 -7.23256e+12 -5.06764e+12 -5.14648e+12 -1.00028e+13 -6.05946e+12 -4.87174e+12 -4.08608e+12 -7.96125e+12 -3.86074e+12 -7.60429e+12 -4.29782e+12 -9.24297e+12 -4.48324e+12 -4.31506e+12 -5.35394e+12 -4.17234e+12 -9.52219e+12 -5.33385e+12 -7.2861e+12 -5.69882e+12 -7.02075e+12 -2.66229e+12 -5.95225e+12 -2.11431e+12 -6.45286e+12 -4.73039e+12 -7.57758e+12 -5.68223e+12 -7.60498e+12 -4.50817e+12 -4.49827e+12 -3.57388e+12 -6.31354e+12 -3.84992e+12 -3.64335e+12 -5.02673e+12 -6.23008e+12 -4.90785e+12 -5.38146e+12 -4.11827e+12 -2.85653e+12 -1.82323e+12 -3.77854e+12 -4.70439e+12 -6.70268e+12 -4.82521e+12 -2.98265e+12 -3.16497e+12 -4.40002e+12 -4.38046e+12 -5.10574e+12 -5.03302e+12 -2.89986e+12 -3.11055e+12 -5.78408e+12 -2.12377e+12 -3.75848e+12 -5.05546e+12 -4.79945e+12 -7.61995e+12 -3.17714e+12 -5.03137e+12 -5.71653e+12 -3.23693e+12 -4.86691e+12 -4.56713e+12 -3.96078e+12 -4.6008e+12 -4.66828e+12 -2.82055e+12 -4.54449e+12 -6.94031e+12 -4.94288e+12 -5.64236e+12 -5.86093e+12 -4.40663e+12 -3.65703e+12 -7.53614e+12 -5.93748e+12 -6.19649e+12 -4.74977e+12 -4.78123e+12 -6.44865e+12 -4.24707e+12 -3.56157e+12 -1.60093e+12 -6.52902e+12 -2.08542e+12 -3.89923e+12 -5.56551e+12 -7.55014e+12 -8.65509e+12 -7.30387e+12 -6.18246e+12 -6.96735e+12 -1.09415e+13 -5.43427e+12 -1.08403e+13 -9.69531e+12 -6.29948e+12 -4.62028e+12 -7.11506e+12 -1.01321e+13 -6.67862e+12 -8.03262e+12 -7.18914e+12 -5.62592e+12 -6.52188e+12 -7.62364e+12 -4.22485e+12 -7.09296e+12 -7.93049e+12 -4.75145e+12 -5.00779e+12 -6.95949e+12 -7.206e+12 -2.61104e+12 -7.50382e+12 -6.46127e+12 -6.33202e+12 -7.506e+12 -2.84654e+12 -1.09453e+13 -6.78591e+12 -5.53171e+12 -7.06321e+12 -4.81268e+12 -9.04562e+12 -7.5702e+12 -6.6343e+12 -7.19176e+12 -6.59627e+12 -3.93711e+12 -6.65786e+12 -7.67037e+12 -7.0391e+12 -5.86869e+12 -6.70747e+12 -6.64931e+12 -5.8415e+12 -8.25313e+12 -4.88328e+12 -5.49733e+12 -7.55504e+12 -6.54126e+12 -6.75816e+12 -3.54966e+12 -1.00026e+13 -5.33153e+12 -5.26887e+12 -3.73264e+12 -3.33621e+12 -5.18392e+12 -4.85819e+12 -4.46801e+12 -4.29162e+12 -5.45357e+12 -6.4282e+12 -1.00378e+13 -6.0106e+12 -5.5574e+12 -5.72541e+12 -5.13045e+12 -3.22144e+12 -8.23143e+12 -3.03765e+12 -5.79686e+12 -2.49531e+12 -6.3695e+12 -4.77916e+12 -2.14502e+12 -4.04902e+12 -6.10737e+12 -3.56571e+12 -2.91317e+12 -5.70673e+12 -5.48357e+12 -3.60343e+12 -2.76301e+12 -4.02444e+12 -5.11201e+12 -7.67433e+12 -3.06206e+12 -3.58424e+12 -5.19425e+12 -5.08477e+12 -5.23819e+12 -2.15531e+12 -1.50106e+12 -4.87965e+12 -4.98688e+12 -7.78206e+12 -9.16107e+12 -3.98961e+12 -4.33055e+12 -4.43658e+12 -6.8419e+12 -2.91961e+12 -5.94206e+12 -4.13524e+12 -6.59028e+12 -7.30675e+12 -6.02045e+12 -3.8932e+12 -6.25063e+12 -2.96273e+12 -5.47293e+12 -6.10094e+12 -5.62269e+12 -9.08729e+12 -2.64119e+12 -8.64786e+12 -5.63979e+12 -4.01566e+12 -9.43768e+12 -6.72244e+12 -7.61726e+12 -9.48371e+12 -9.3088e+12 -7.22844e+12 -7.53974e+12 -7.12835e+12 -9.15058e+12 -1.03401e+13 -8.07696e+12 -8.71947e+12 -7.30261e+12 -9.60583e+12 -6.88986e+12 -6.05761e+12 -7.29069e+12 -8.85012e+12 -6.07183e+12 -4.16162e+12 -7.00092e+12 -4.40129e+12 -1.03667e+13 -5.43872e+12 -4.39363e+12 -4.61087e+12 -2.4113e+12 -3.49749e+12 -5.15772e+12 -5.74919e+12 -6.21396e+12 -7.30991e+12 -6.44501e+12 -9.74812e+12 -4.49255e+12 -7.45145e+12 -7.70988e+12 -5.55525e+12 -8.13227e+12 -5.12512e+12 -9.52424e+12 -7.42559e+12 -1.12971e+13 -9.54784e+12 -4.30483e+12 -5.728e+12 -4.41572e+12 -4.50542e+12 -5.46604e+12 -4.16087e+12 -9.50449e+12 -8.07528e+12 -4.51295e+12 -6.15534e+12 -5.82279e+12 -6.22533e+12 -3.74604e+12 -7.80083e+12 -4.87286e+12 -8.20542e+12 -5.78349e+12 -5.77206e+12 -6.17357e+12 -5.4515e+12 -4.38175e+12 -4.62952e+12 -3.85635e+12 -3.57887e+12 -4.91479e+12 -5.8191e+12 -5.46662e+12 -4.53705e+12 -4.61862e+12 -4.21566e+12 -8.7159e+12 -5.75917e+12 -9.00256e+12 -3.07192e+12 -4.89538e+12 -4.04584e+12 -6.50474e+12 -6.354e+12 -4.3935e+12 -4.53594e+12 -4.7963e+12 -3.31769e+12 -7.56897e+12 -4.07951e+12 -5.74836e+12 -6.17462e+12 -6.31716e+12 -4.45427e+12 -3.64272e+12 -4.1991e+12 -4.59543e+12 -3.36001e+12 -1.86115e+12 -4.90242e+12 -5.10147e+12 -3.5106e+12 -5.23934e+12 -5.78052e+12 -4.82489e+12 -3.59335e+12 -6.6006e+12 -6.12566e+12 -6.40516e+12 -3.09386e+12 -5.25266e+12 -3.62156e+12 -3.68897e+12 -1.83213e+12 -3.20094e+12 -4.55862e+12 -3.36537e+12 -4.68129e+12 -3.86764e+12 -3.36293e+12 -3.76599e+12 -6.75045e+12 -4.33989e+12 -4.68441e+12 -6.045e+12 -6.84207e+12 -4.99034e+12 -1.98013e+12 -5.71978e+12 -8.82605e+12 -6.00557e+12 -6.20675e+12 -7.02031e+12 -3.48635e+12 -5.22422e+12 -3.44394e+12 -8.07942e+12 -9.77339e+12 -7.04047e+12 -7.80508e+12 -2.91726e+12 -2.10858e+12 -1.11754e+13 -1.08054e+13 -6.8937e+12 -6.16785e+12 -7.18949e+12 -1.07608e+13 -8.32165e+12 -7.68397e+12 -6.5628e+12 -9.8981e+12 -7.57589e+12 -5.49804e+12 -6.29586e+12 -8.29952e+12 -7.12222e+12 -4.89248e+12 -5.09714e+12 -5.51824e+12 -4.90907e+12 -3.90669e+12 -7.12484e+12 -5.15938e+12 -4.00642e+12 -6.59354e+12 -3.86863e+12 -6.02047e+12 -1.01985e+13 -6.40456e+12 -6.09469e+12 -1.11159e+13 -8.57334e+12 -4.07445e+12 -1.32695e+13 -5.04396e+12 -8.58267e+12 -7.96505e+12 -6.49391e+12 -8.29812e+12 -8.55632e+12 -8.96786e+12 -6.41569e+12 -5.25857e+12 -3.90499e+12 -8.65465e+12 -5.01429e+12 -1.86367e+12 -6.13703e+12 -5.02368e+12 -7.82284e+12 -9.41802e+12 -2.8087e+12 -6.262e+12 -2.62941e+12 -2.64296e+12 -6.46453e+12 -4.71963e+12 -5.8599e+12 -5.85932e+12 -3.00298e+12 -5.6992e+12 -4.77401e+12 -5.49865e+12 -8.52199e+12 -6.02283e+12 -6.60615e+12 -4.22934e+12 -4.08915e+12 -3.98468e+12 -4.20148e+12 -4.84019e+12 -4.51016e+12 -5.6789e+12 -4.66331e+12 -2.6317e+12 -4.82455e+12 -5.29413e+12 -4.69139e+12 -5.31312e+12 -3.08117e+12 -5.29574e+12 -5.02178e+12 -5.20138e+12 -5.41507e+12 -2.56084e+12 -4.73252e+12 -2.3699e+12 -4.40832e+12 -2.76307e+12 -4.60931e+12 -3.71404e+12 -3.24223e+12 -3.25859e+12 -1.79896e+12 -3.70198e+12 -3.53676e+12 -3.50572e+12 -3.34727e+12 -5.08363e+12 -2.84548e+12 -6.14434e+12 -3.58454e+12 -4.57097e+12 -2.40911e+12 -3.6043e+12 -2.0183e+12 -3.65077e+12 -1.70145e+12 -2.76717e+12 -4.53542e+12 -6.5629e+12 -5.49659e+12 -4.98323e+12 -3.97861e+12 -7.90217e+12 -4.46724e+12 -7.64708e+12 -7.95801e+12 -4.81071e+12 -6.80809e+12 -5.50362e+12 -6.31521e+12 -6.73738e+12 -4.50254e+12 -4.62409e+12 -5.77587e+12 -9.89846e+12 -6.44578e+12 -5.091e+12 -5.68085e+12 -2.69747e+12 -7.18166e+12 -9.20574e+12 -4.26495e+12 -4.30883e+12 -6.05479e+12 -9.01629e+12 -6.20308e+12 -5.52925e+12 -6.88923e+12 -8.26853e+12 -4.1003e+12 -3.87005e+12 -4.04458e+12 -5.8247e+12 -5.5961e+12 -5.7656e+12 -4.31036e+12 -8.44299e+12 -6.45226e+12 -4.38275e+12 -9.01395e+12 -5.51074e+12 -5.6065e+12 -7.6421e+12 -6.95333e+12 -5.4707e+12 -9.73558e+12 -5.97199e+12 -5.10724e+12 -4.45167e+12 -7.80036e+12 -3.99797e+12 -5.55227e+12 -4.13268e+12 -9.19501e+12 -8.11009e+12 -7.57922e+12 -4.97341e+12 -2.76855e+12 -4.66862e+12 -8.54992e+12 -6.22357e+12 -7.71223e+12 -1.2428e+13 -1.64397e+13 -5.45606e+12 -6.01391e+12 -6.70136e+12 -9.95679e+12 -8.36092e+12 -4.44785e+12 -6.04597e+12 -6.77616e+12 -5.83948e+12 -7.79378e+12 -7.28388e+12 -6.44711e+12 -7.44902e+12 -7.01048e+12 -1.1654e+13 -4.68805e+12 -8.63884e+12 -5.94362e+12 -5.99035e+12 -3.81122e+12 -4.21451e+12 -6.06383e+12 -4.33416e+12 -7.85147e+12 -2.69562e+12 -3.91077e+12 -8.68799e+12 -8.03149e+12 -8.06054e+12 -3.55998e+12 -3.49375e+12 -3.70502e+12 -2.97816e+12 -3.78496e+12 -5.26278e+12 -4.13828e+12 -3.49311e+12 -2.63991e+12 -5.56501e+12 -3.10391e+12 -2.77933e+12 -4.49203e+12 -4.97155e+12 -3.77151e+12 -3.40005e+12 -1.85545e+12 -1.40115e+12 -3.62433e+12 -4.93882e+12 -4.48769e+12 -3.88558e+12 -1.7584e+12 -3.77567e+12 -4.1119e+12 -6.66217e+12 -1.59691e+12 -3.02431e+12 -4.07858e+12 -4.09082e+12 -1.92391e+12 -3.37449e+12 -2.39177e+12 -4.70949e+12 -3.51045e+12 -3.59055e+12 -3.0704e+12 -4.25207e+12 -4.4646e+12 -3.75647e+12 -4.6579e+12 -3.36312e+12 -4.76411e+12 -4.69218e+12 -3.31672e+12 -4.6827e+12 -5.67306e+12 -4.89067e+12 -6.19738e+12 -8.49369e+12 -3.30763e+12 -5.34216e+12 -7.41121e+12 -7.97825e+12 -4.31574e+12 -5.31609e+12 -5.71359e+12 -3.636e+12 -5.04297e+12 -4.79269e+12 -5.68928e+12 -6.07965e+12 -5.49864e+12 -8.29053e+12 -7.68069e+12 -7.71305e+12 -7.77215e+12 -6.86036e+12 -5.61402e+12 -7.22566e+12 -1.16766e+13 -8.51831e+12 -7.11375e+12 -5.67184e+12 -6.38519e+12 -5.70884e+12 -4.79637e+12 -8.80229e+12 -3.15944e+12 -4.80596e+12 -9.66973e+12 -6.46069e+12 -7.6685e+12 -4.29724e+12 -3.92974e+12 -3.7284e+12 -4.6174e+12 -4.18963e+12 -6.7306e+12 -6.24723e+12 -8.49924e+12 -5.24807e+12 -7.18224e+12 -9.46563e+12 -5.14861e+12 -6.51538e+12 -3.53745e+12 -7.06189e+12 -6.5268e+12 -5.34525e+12 -1.04788e+13 -3.59345e+12 -7.45419e+12 -6.24712e+12 -5.09537e+12 -4.73347e+12 -3.33488e+12 -6.03721e+12 -6.60328e+12 -4.76143e+12 -5.95632e+12 -4.99202e+12 -9.4219e+12 -4.28066e+12 -4.09034e+12 -5.02998e+12 -3.31098e+12 -4.3339e+12 -7.48945e+12 -5.85733e+12 -6.00943e+12 -4.41416e+12 -7.06969e+12 -4.31869e+12 -6.95241e+12 -5.21671e+12 -5.7862e+12 -4.92412e+12 -3.39971e+12 -5.01606e+12 -4.41444e+12 -3.83461e+12 -6.61057e+12 -4.24447e+12 -6.22344e+12 -2.93286e+12 -2.69698e+12 -3.56887e+12 -5.8877e+12 -2.3085e+12 -2.48858e+12 -2.2308e+12 -5.69761e+12 -5.48543e+12 -3.56965e+12 -3.45188e+12 -4.68954e+12 -5.89819e+12 -4.10287e+12 -4.22435e+12 -2.39739e+12 -3.3049e+12 -2.61555e+12 -2.85885e+12 -2.23728e+12 -4.43046e+12 -3.18856e+12 -3.26021e+12 -2.55581e+12 -2.75737e+12 -2.88204e+12 -1.92886e+12 -1.71072e+12 -4.18063e+12 -3.72629e+12 -1.79341e+12 -2.64251e+12 -2.96808e+12 -5.14524e+12 -1.85076e+12 -4.20452e+12 -3.69149e+12 -3.66195e+12 -6.25695e+12 -4.22865e+12 -6.27836e+12 -4.54608e+12 -2.62701e+12 -3.63129e+12 -3.18955e+12 -5.54586e+12 -7.44877e+12 -7.517e+12 -7.42878e+12 -6.69619e+12 -1.90192e+12 -6.14003e+12 -6.18544e+12 -5.64065e+12 -4.53791e+12 -9.37563e+12 -3.02913e+12 -2.35385e+12 -3.49381e+12 -4.34509e+12 -6.2815e+12 -6.3315e+12 -7.44348e+12 -7.10222e+12 -6.48557e+12 -2.47911e+12 -4.48302e+12 -8.36608e+12 -1.18269e+13 -7.2001e+12 -3.91126e+12 -4.51716e+12 -2.93344e+12 -7.22811e+12 -4.76784e+12 -5.54826e+12 -5.46121e+12 -4.44627e+12 -4.43721e+12 -4.10894e+12 -5.82979e+12 -8.97938e+12 -5.06764e+12 -9.25428e+12 -1.02549e+13 -6.89254e+12 -7.07759e+12 -6.42897e+12 -6.16139e+12 -6.88241e+12 -8.09783e+12 -7.31639e+12 -4.6843e+12 -6.92226e+12 -3.35355e+12 -4.85763e+12 -4.9722e+12 -7.35242e+12 -3.2334e+12 -6.35403e+12 -5.44929e+12 -4.54587e+12 -4.1719e+12 -7.1349e+12 -3.66516e+12 -7.18299e+12 -5.44304e+12 -7.81309e+12 -5.60358e+12 -3.23282e+12 -7.83221e+12 -3.85262e+12 -5.85931e+12 -6.43675e+12 -4.88347e+12 -4.5094e+12 -6.19402e+12 -5.16568e+12 -5.20148e+12 -6.08317e+12 -3.43248e+12 -4.25024e+12 -6.34129e+12 -6.43048e+12 -5.65876e+12 -4.49656e+12 -3.58286e+12 -5.48533e+12 -5.30865e+12 -2.37774e+12 -4.23652e+12 -5.46137e+12 -2.10484e+12 -5.09805e+12 -1.61057e+12 -7.68431e+12 -5.69147e+12 -8.51262e+12 -4.6087e+12 -4.77693e+12 -5.38379e+12 -6.07122e+12 -6.54114e+12 -6.07623e+12 -3.76886e+12 -3.58778e+12 -4.60705e+12 -3.93556e+12 -6.39468e+12 -4.63716e+12 -4.84029e+12 -2.05626e+12 -3.75523e+12 -3.14828e+12 -3.53487e+12 -3.07464e+12 -1.90579e+12 -4.46588e+12 -3.49467e+12 -3.99007e+12 -2.08024e+12 -4.22834e+12 -3.41298e+12 -4.02045e+12 -2.91485e+12 -4.66791e+12 -3.37911e+12 -1.79538e+12 -3.01469e+12 -1.60459e+12 -761566000000.0 -3.64242e+12 -2.93615e+12 -3.17215e+12 -2.40363e+12 -4.53286e+12 -5.50133e+12 -2.14282e+12 -2.6216e+12 -4.03115e+12 -1.99407e+12 -2.76811e+12 -4.4115e+12 -4.54441e+12 -2.45329e+12 -3.32237e+12 -2.77757e+12 -3.0725e+12 -4.54273e+12 -2.51659e+12 -4.92856e+12 -3.52722e+12 -2.34894e+12 -4.39652e+12 -3.66295e+12 -2.68943e+12 -4.39714e+12 -2.44805e+12 -5.12922e+12 -3.83434e+12 -3.92788e+12 -3.78341e+12 -3.72288e+12 -5.67352e+12 -3.88495e+12 -4.76411e+12 -3.15662e+12 -3.77424e+12 -3.80009e+12 -5.05667e+12 -6.72722e+12 -3.65605e+12 -7.35906e+12 -4.10416e+12 -4.74231e+12 -3.78074e+12 -5.99847e+12 -1.0216e+13 -5.42003e+12 -3.56515e+12 -6.97176e+12 -6.01458e+12 -9.1306e+12 -5.94932e+12 -6.46639e+12 -9.08802e+12 -4.95676e+12 -6.70279e+12 -4.00289e+12 -4.58273e+12 -4.56324e+12 -7.87433e+12 -8.48666e+12 -1.03463e+13 -6.78264e+12 -1.12303e+13 -5.5665e+12 -8.61494e+12 -5.12239e+12 -5.3827e+12 -5.34109e+12 -8.47916e+12 -4.99166e+12 -2.68724e+12 -6.46096e+12 -3.20155e+12 -2.4871e+12 -4.92286e+12 -5.3961e+12 -5.69111e+12 -6.41601e+12 -6.27707e+12 -4.10543e+12 -5.54687e+12 -5.0078e+12 -3.77094e+12 -8.20615e+12 -6.06468e+12 -7.29105e+12 -4.28956e+12 -7.29629e+12 -6.37172e+12 -4.43255e+12 -2.79495e+12 -5.42793e+12 -3.97229e+12 -4.86685e+12 -3.64461e+12 -5.55192e+12 -3.40581e+12 -5.01791e+12 -6.20491e+12 -7.484e+12 -5.55281e+12 -3.82254e+12 -6.05457e+12 -6.38166e+12 -3.60945e+12 -4.99291e+12 -3.49817e+12 -2.96008e+12 -6.79046e+12 -3.76518e+12 -3.67523e+12 -4.38547e+12 -3.28363e+12 -3.28625e+12 -5.15875e+12 -6.56186e+12 -3.97263e+12 -3.22038e+12 -3.32419e+12 -4.05232e+12 -693937000000.0 -5.27339e+12 -5.40021e+12 -4.92445e+12 -5.31523e+12 -4.97699e+12 -1.66919e+12 -2.62095e+12 -2.54576e+12 -1.7519e+12 -2.85156e+12 -2.92084e+12 -2.74976e+12 -2.00688e+12 -3.22876e+12 -2.35138e+12 -4.42784e+12 -4.00018e+12 -2.27901e+12 -2.05155e+12 -2.85255e+12 -1.5726e+12 -3.62915e+12 -3.06854e+12 -4.10777e+12 -2.85484e+12 -3.82992e+12 -2.99598e+12 -4.38893e+12 -3.59165e+12 -4.03747e+12 -3.91565e+12 -2.78355e+12 -5.55169e+12 -2.43637e+12 -2.23403e+12 -2.85058e+12 -4.12769e+12 -1.981e+12 -3.04102e+12 -858317000000.0 -1.58226e+12 -3.73194e+12 -4.14511e+12 -3.54256e+12 -1.6273e+12 -2.50008e+12 -2.38478e+12 -4.63243e+12 -2.36031e+12 -1.99573e+12 -2.31489e+12 -3.97237e+12 -3.70295e+12 -8.49641e+12 -3.86072e+12 -4.99104e+12 -5.15625e+12 -5.37012e+12 -4.73741e+12 -3.00857e+12 -2.88043e+12 -2.61393e+12 -4.3262e+12 -6.94792e+12 -5.06559e+12 -7.55241e+12 -2.20296e+12 -6.40342e+12 -3.3207e+12 -6.3122e+12 -7.14012e+12 -3.65867e+12 -6.99614e+12 -7.13845e+12 -5.54093e+12 -7.49561e+12 -2.11779e+12 -5.27888e+12 -4.19432e+12 -4.21014e+12 -4.61144e+12 -6.43556e+12 -5.42309e+12 -9.54367e+12 -4.14809e+12 -6.58618e+12 -4.8015e+12 -8.47829e+12 -7.85281e+12 -7.10699e+12 -1.19255e+13 -5.99728e+12 -5.55406e+12 -4.68455e+12 -6.31886e+12 -7.8855e+12 -4.33274e+12 -5.53892e+12 -7.52229e+12 -4.79831e+12 -5.00241e+12 -6.5344e+12 -5.37176e+12 -8.19951e+12 -4.83137e+12 -9.09781e+12 -6.89956e+12 -5.60435e+12 -7.47098e+12 -5.76603e+12 -5.85586e+12 -5.95162e+12 -5.68935e+12 -6.3792e+12 -4.66485e+12 -3.36881e+12 -4.99295e+12 -4.24409e+12 -5.01293e+12 -2.7504e+12 -4.06889e+12 -7.11343e+12 -6.79066e+12 -4.70521e+12 -8.48146e+12 -6.66272e+12 -5.48391e+12 -6.4005e+12 -4.34582e+12 -2.81998e+12 -2.88449e+12 -2.44087e+12 -5.42022e+12 -5.91324e+12 -1.86547e+12 -3.0129e+12 -4.49816e+12 -2.99797e+12 -2.86551e+12 -2.07391e+12 -2.381e+12 -4.1172e+12 -4.68227e+12 -2.10509e+12 -1.94299e+12 -3.61889e+12 -1.84078e+12 -1.49872e+12 -4.52059e+12 -2.0687e+12 -2.61319e+12 -2.51317e+12 -3.30151e+12 -2.93363e+12 -1.95652e+12 -4.16986e+12 -3.47749e+12 -2.5869e+12 -3.00471e+12 -4.24426e+12 -2.56536e+12 -3.97616e+12 -2.95645e+12 -1.34935e+12 -3.25609e+12 -1.68378e+12 -3.88806e+12 -3.91075e+12 -3.20075e+12 -2.88971e+12 -3.32084e+12 -4.00875e+12 -2.62879e+12 -2.16759e+12 -3.64475e+12 -3.35934e+12 -2.82181e+12 -2.78338e+12 -3.53745e+12 -4.11186e+12 -2.79795e+12 -3.15454e+12 -3.75912e+12 -3.08623e+12 -2.6968e+12 -3.75059e+12 -5.96451e+12 -3.39308e+12 -2.23532e+12 -4.81629e+12 -3.76795e+12 -4.85138e+12 -3.66148e+12 -5.01162e+12 -6.01255e+12 -8.61425e+12 -3.96643e+12 -3.26079e+12 -3.96628e+12 -3.30475e+12 -4.55762e+12 -5.96881e+12 -3.50553e+12 -4.33868e+12 -4.18903e+12 -5.05652e+12 -4.71846e+12 -4.1914e+12 -6.3422e+12 -4.98897e+12 -6.02378e+12 -5.00065e+12 -8.87527e+12 -5.98571e+12 -8.34753e+12 -8.59056e+12 -4.25435e+12 -5.87735e+12 -5.08523e+12 -7.74444e+12 -1.30784e+13 -7.14356e+12 -7.16913e+12 -9.88272e+12 -8.95485e+12 -5.05288e+12 -7.48855e+12 -7.13155e+12 -6.04702e+12 -8.21502e+12 -6.38394e+12 -9.52847e+12 -6.86796e+12 -6.28914e+12 -3.03754e+12 -3.9725e+12 -2.35845e+12 -3.82144e+12 -6.71798e+12 -3.11186e+12 -2.05773e+12 -3.55511e+12 -5.85221e+12 -5.28655e+12 -9.1109e+12 -4.46364e+12 -4.85432e+12 -7.6635e+12 -6.24764e+12 -5.7671e+12 -7.48111e+12 -7.9079e+12 -6.10725e+12 -4.38647e+12 -4.85459e+12 -6.32194e+12 -4.85426e+12 -3.82015e+12 -4.11107e+12 -5.54309e+12 -4.10727e+12 -4.15017e+12 -7.69814e+12 -4.79826e+12 -6.32675e+12 -4.99926e+12 -3.24104e+12 -3.40054e+12 -8.44613e+12 -4.2526e+12 -5.90091e+12 -6.56483e+12 -2.1078e+12 -4.03905e+12 -4.0872e+12 -4.0349e+12 -4.06922e+12 -999589000000.0 -3.88365e+12 -4.48368e+12 -5.12113e+12 -3.00455e+12 -3.49017e+12 -3.19817e+12 -4.66764e+12 -3.04159e+12 -4.62727e+12 -5.3554e+12 -3.31736e+12 -3.67965e+12 -2.6743e+12 -3.06414e+12 -3.45898e+12 -2.34595e+12 -3.68524e+12 -3.30129e+12 -1.78471e+12 -1.6105e+12 -1.96003e+12 -1.38351e+12 -2.73602e+12 -1.79402e+12 -2.62653e+12 -3.30578e+12 -4.64076e+12 -3.37324e+12 -1.71979e+12 -2.9674e+12 -1.72865e+12 -943353000000.0 -2.82726e+12 -1.46572e+12 -2.20694e+12 -2.7194e+12 -1.03582e+12 -4.59412e+12 -3.34196e+12 -1.78618e+12 -1.66673e+12 -2.46622e+12 -2.25411e+12 -3.49931e+12 -3.00473e+12 -2.83273e+12 -2.68426e+12 -2.53769e+12 -1.85559e+12 -3.79514e+12 -4.26196e+12 -2.23865e+12 -3.33119e+12 -2.18011e+12 -3.92566e+12 -5.26635e+12 -8.15405e+12 -3.13518e+12 -3.66965e+12 -3.94253e+12 -2.68661e+12 -3.92164e+12 -2.52162e+12 -3.0306e+12 -4.41827e+12 -3.57584e+12 -4.97416e+12 -3.04603e+12 -3.48094e+12 -3.28731e+12 -2.90973e+12 -2.9967e+12 -4.6115e+12 -5.42809e+12 -4.47762e+12 -4.80792e+12 -6.60949e+12 -4.62133e+12 -5.28708e+12 -6.47639e+12 -5.52413e+12 -4.65381e+12 -6.39091e+12 -6.51484e+12 -3.03176e+12 -3.99493e+12 -4.9726e+12 -7.57212e+12 -6.15328e+12 -4.8525e+12 -5.31892e+12 -1.00397e+13 -5.29752e+12 -4.57238e+12 -5.33784e+12 -3.99609e+12 -9.4159e+12 -1.10451e+13 -5.6702e+12 -4.53265e+12 -8.48831e+12 -6.49415e+12 -5.92015e+12 -2.27448e+12 -1.67299e+12 -4.65426e+12 -2.84806e+12 -3.6235e+12 -4.34594e+12 -9.72183e+12 -5.92722e+12 -4.50472e+12 -4.22855e+12 -4.5706e+12 -4.3807e+12 -4.3725e+12 -4.78925e+12 -5.82575e+12 -7.45601e+12 -3.78431e+12 -5.8974e+12 -5.47447e+12 -8.5999e+12 -5.60497e+12 -3.11326e+12 -4.56931e+12 -4.05095e+12 -3.76231e+12 -6.09745e+12 -4.33959e+12 -7.02896e+12 -4.88725e+12 -4.60492e+12 -2.22013e+12 -3.57672e+12 -5.35667e+12 -6.88153e+12 -3.63713e+12 -2.72612e+12 -2.71506e+12 -7.04063e+12 -5.57252e+12 -1.98186e+12 -5.49601e+12 -2.83838e+12 -2.31629e+12 -3.80697e+12 -3.20042e+12 -3.99414e+12 -4.86576e+12 -4.19094e+12 -3.99862e+12 -2.30259e+12 -2.74309e+12 -4.1693e+12 -4.41852e+12 -3.39125e+12 -2.91812e+12 -2.18783e+12 -477209000000.0 -1.68392e+12 -3.2341e+12 -1.98483e+12 -2.89539e+12 -1.72253e+12 -4.3429e+12 -1.77823e+12 -1.33289e+12 -2.21935e+12 -2.38644e+12 -2.25454e+12 -1.20515e+12 -2.30362e+12 -2.78722e+12 -2.78204e+12 -3.51559e+12 -2.1677e+12 -1.9303e+12 -833446000000.0 -2.09285e+12 -1.72806e+12 -1.31815e+12 -2.49619e+12 -2.53721e+12 -2.41216e+12 -1.65682e+12 -2.37612e+12 -1.6008e+12 -2.31705e+12 -1.67199e+12 -2.90603e+12 -1.6888e+12 -2.36457e+12 -1.34702e+12 -2.40561e+12 -1.95918e+12 -2.4355e+12 -2.30328e+12 -3.37299e+12 -4.87714e+12 -2.09167e+12 -3.08379e+12 -3.30577e+12 -3.91792e+12 -3.69241e+12 -2.35012e+12 -2.61676e+12 -5.88462e+12 -1.5065e+12 -3.03121e+12 -5.40234e+12 -3.45026e+12 -5.48266e+12 -4.63523e+12 -3.12537e+12 -5.67056e+12 -6.27814e+12 -3.6874e+12 -3.6818e+12 -3.6323e+12 -4.83998e+12 -2.71973e+12 -3.58346e+12 -3.74812e+12 -3.3555e+12 -6.01553e+12 -4.93666e+12 -4.27449e+12 -4.77111e+12 -4.99325e+12 -4.8638e+12 -4.3534e+12 -5.19516e+12 -5.15507e+12 -3.53161e+12 -5.68312e+12 -5.73948e+12 -2.86083e+12 -6.5073e+12 -6.31683e+12 -6.21625e+12 -5.94561e+12 -3.10437e+12 -2.7607e+12 -4.0912e+12 -7.46494e+12 -6.333e+12 -6.38093e+12 -5.45518e+12 -5.01283e+12 -4.02217e+12 -7.53671e+12 -5.44397e+12 -7.54477e+12 -4.25312e+12 -7.29425e+12 -1.78508e+12 -4.75567e+12 -5.70782e+12 -7.14274e+12 -5.62389e+12 -6.14334e+12 -6.16055e+12 -4.24943e+12 -6.24288e+12 -3.58278e+12 -7.33289e+12 -2.90754e+12 -4.10913e+12 -5.93757e+12 -2.14157e+12 -6.45024e+12 -3.29267e+12 -3.75872e+12 -4.34089e+12 -4.46699e+12 -5.55481e+12 -4.86409e+12 -3.70151e+12 -4.14811e+12 -3.29484e+12 -2.69077e+12 -5.62037e+12 -5.27946e+12 -1.55058e+12 -1.91269e+12 -4.10174e+12 -2.05235e+12 -4.60442e+12 -1.69827e+12 -3.87852e+12 -3.18929e+12 -3.59319e+12 -5.51254e+12 -3.62923e+12 -4.699e+12 -3.65612e+12 -5.46714e+12 -2.6475e+12 -1.53825e+12 -2.98462e+12 -5.18661e+12 -4.64346e+12 -3.15535e+12 -3.1926e+12 -2.39374e+12 -2.71909e+12 -3.44236e+12 -4.97325e+12 -3.74474e+12 -2.06057e+12 -3.26149e+12 -1.63721e+12 -2.66037e+12 -2.91596e+12 -2.13929e+12 -715120000000.0 -1.56548e+12 -2.42788e+12 -3.37395e+12 -3.24467e+12 -1.75638e+12 -2.6405e+12 -1.88925e+12 -1.48517e+12 -875276000000.0 -1.67386e+12 -1.78285e+12 -1.95333e+12 -3.30421e+12 -3.5222e+12 -3.59344e+12 -2.11554e+12 -2.26685e+12 -2.14514e+12 -2.85289e+12 -1.71108e+12 -2.01711e+12 -2.04072e+12 -3.00003e+12 -3.08065e+12 -2.80151e+12 -2.64123e+12 -2.28089e+12 -1.64836e+12 -1.26218e+12 -2.66884e+12 -2.8309e+12 -3.40784e+12 -2.3595e+12 -2.66215e+12 -5.47531e+12 -3.08927e+12 -3.49219e+12 -3.24381e+12 -6.29547e+12 -2.80834e+12 -3.53703e+12 -2.72735e+12 -4.52137e+12 -5.073e+12 -4.33757e+12 -4.47126e+12 -4.86444e+12 -4.5791e+12 -4.06938e+12 -2.74547e+12 -4.09843e+12 -4.90244e+12 -3.4858e+12 -3.10452e+12 -3.40158e+12 -4.60894e+12 -5.52049e+12 -4.09502e+12 -717185000000.0 -5.30609e+12 -4.32882e+12 -5.97506e+12 -4.79524e+12 -5.47728e+12 -5.14396e+12 -4.16419e+12 -4.19346e+12 -3.8982e+12 -5.43598e+12 -2.99452e+12 -4.36806e+12 -4.32921e+12 -4.43293e+12 -2.75926e+12 -4.05812e+12 -4.35469e+12 -5.86392e+12 -5.40004e+12 -4.3843e+12 -6.51909e+12 -3.15008e+12 -5.5766e+12 -4.00557e+12 -1.89835e+12 -3.5068e+12 -3.17177e+12 -5.06536e+12 -3.85494e+12 -6.95697e+12 -3.36741e+12 -3.63648e+12 -6.3383e+12 -3.54424e+12 -4.68857e+12 -3.92983e+12 -3.47429e+12 -4.37455e+12 -4.04529e+12 -4.72532e+12 -4.69525e+12 -3.72536e+12 -3.46064e+12 -3.49991e+12 -3.23095e+12 -5.21004e+12 -2.94652e+12 -3.70337e+12 -4.87973e+12 -3.22418e+12 -7.28312e+12 -2.67607e+12 -4.27213e+12 -4.87326e+12 -5.09183e+12 -4.99139e+12 -4.50694e+12 -3.47984e+12 -5.94128e+12 -1.93908e+12 -2.19333e+12 -3.55188e+12 -3.41715e+12 -2.21017e+12 -2.4823e+12 -1.53978e+12 -1.98182e+12 -3.52055e+12 -3.00782e+12 -2.6118e+12 -2.14518e+12 -1.26702e+12 -1.9665e+12 -2.25747e+12 -2.64691e+12 -2.67559e+12 -2.0811e+12 -2.34572e+12 -1.7763e+12 -1.67654e+12 -1.49154e+12 -1.86875e+12 -1.13876e+12 -1.8351e+12 -2.22605e+12 -853285000000.0 -2.58355e+12 -1.79976e+12 -2.16451e+12 -1.48538e+12 -1.90646e+12 -1.96891e+12 -1.29591e+12 -2.59202e+12 -1.19995e+12 -1.65638e+12 -62282900000.0 -1.71376e+12 -1.81286e+12 -3.57547e+12 -1.79817e+12 -2.96027e+12 -3.63872e+12 -2.38949e+12 -3.10015e+12 -1.07729e+12 -2.77468e+12 -4.16424e+12 -1.44227e+12 -2.42293e+12 -2.72559e+12 -3.19087e+12 -2.15662e+12 -3.23647e+12 -3.77966e+12 -4.66211e+12 -3.95189e+12 -1.47897e+12 -2.63865e+12 -2.08657e+12 -4.75023e+12 -3.155e+12 -3.05134e+12 -4.58909e+12 -3.30546e+12 -1.97557e+12 -3.76478e+12 -4.17345e+12 -2.13895e+12 -4.39242e+12 -5.25535e+12 -4.80297e+12 -4.85298e+12 -6.2037e+12 -2.0551e+12 -4.78269e+12 -2.26849e+12 -2.22151e+12 -3.6025e+12 -6.21692e+12 -5.57645e+12 -5.4667e+12 -4.83619e+12 -2.70493e+12 -3.03154e+12 -4.24174e+12 -7.40176e+12 -4.44217e+12 -3.58987e+12 -3.39979e+12 -5.9265e+12 -3.33935e+12 -4.5118e+12 -5.52556e+12 -4.82905e+12 -3.19737e+12 -1.56751e+12 -5.40627e+12 -6.0893e+12 -3.95861e+12 -5.87694e+12 -5.36126e+12 -4.49166e+12 -3.53352e+12 -3.59573e+12 -2.66245e+12 -3.79058e+12 -3.87635e+12 -2.7669e+12 -1.29978e+12 -2.83229e+12 -1.45725e+12 -3.37334e+12 -4.8086e+12 -5.43536e+12 -3.44308e+12 -4.08704e+12 -2.2883e+12 -4.1548e+12 -4.12221e+12 -3.57759e+12 -3.56787e+12 -4.09858e+12 -3.01683e+12 -4.88377e+12 -2.18312e+12 -2.55186e+12 -4.09266e+12 -3.36473e+12 -2.62818e+12 -3.19792e+12 -4.68997e+12 -3.01072e+12 -1.89964e+12 -2.60888e+12 -1.7516e+12 -2.99783e+12 -3.46721e+12 -2.13813e+12 -2.15508e+12 -2.30399e+12 -2.05159e+12 -1.81232e+12 -2.3664e+12 -1.16448e+12 -2.15418e+12 -1.06028e+12 -1.67708e+12 -2.48469e+12 -2.6553e+12 -1.85333e+12 -2.45419e+12 -1.53015e+12 -2.66796e+12 -2.32428e+12 -1.25383e+12 -1.47079e+12 -1.20432e+12 -1.86511e+12 -868918000000.0 -664074000000.0 -821920000000.0 -1.69275e+12 -913834000000.0 -1.72034e+12 -1.52621e+12 -1.49797e+12 -3.04387e+12 -2.39327e+12 -2.15269e+12 -747431000000.0 -2.03406e+12 -2.87936e+12 -3.75267e+12 -1.77659e+12 -1.63392e+12 -1.48931e+12 -2.02068e+12 -3.05179e+12 -4.3766e+12 -4.76506e+12 -3.37782e+12 -4.58524e+12 -3.29416e+12 -4.36839e+12 -4.22184e+12 -2.53063e+12 -3.94926e+12 -3.50309e+12 -2.74418e+12 -5.02272e+12 -2.23954e+12 -3.18228e+12 -3.26458e+12 -4.45613e+12 -4.41366e+12 -3.50452e+12 -3.65747e+12 -5.89458e+12 -5.95091e+12 -4.49024e+12 -4.92221e+12 -4.02346e+12 -5.95254e+12 -5.42828e+12 -2.19694e+12 -4.5951e+12 -4.90881e+12 -3.45362e+12 -6.67661e+12 -3.12751e+12 -4.46707e+12 -5.11685e+12 -5.45931e+12 -5.17319e+12 -1.93414e+12 -3.15769e+12 -2.42842e+12 -2.72415e+12 -4.86401e+12 -3.07866e+12 -4.30918e+12 -5.97846e+12 -4.19965e+12 -2.47339e+12 -3.20556e+12 -3.81724e+12 -4.07034e+12 -5.14989e+12 -2.86641e+12 -3.93671e+12 -4.94197e+12 -3.49867e+12 -3.84549e+12 -2.45484e+12 -4.62255e+12 -4.35497e+12 -3.4654e+12 -4.4152e+12 -5.1064e+12 -4.74038e+12 -3.80138e+12 -2.67543e+12 -4.01673e+12 -3.69884e+12 -1.98547e+12 -4.18057e+12 -2.72539e+12 -2.39921e+12 -2.23906e+12 -3.30745e+12 -1.094e+12 -4.19315e+12 -2.05908e+12 -3.58405e+12 -4.46194e+12 -3.12286e+12 -2.12409e+12 -2.67278e+12 -1.80419e+12 -2.26105e+12 -3.63778e+12 -2.33186e+12 -2.98953e+12 -3.29391e+12 -1.43464e+12 -2.28239e+12 -2.84402e+12 -962129000000.0 -2.27105e+12 -2.12169e+12 -1.71567e+12 -51570900000.0 -1.33304e+12 -1.54791e+12 -1.62985e+12 -1.9426e+12 -708128000000.0 -1.58357e+12 -401372000000.0 -1.23275e+12 -1.23265e+12 -1.36208e+12 -1.96948e+12 -2.06446e+12 -2.52201e+12 -1.48826e+12 -1.69739e+12 -1.78871e+12 -1.3839e+12 -1.51888e+12 -2.32357e+12 -2.36508e+12 -1.61651e+12 -2.71693e+12 -1.23566e+12 -1.95019e+12 -1.69231e+12 -3.48786e+12 -2.11957e+12 -4.47009e+12 -2.61807e+12 -2.15968e+12 -1.19836e+12 -3.61663e+12 -1.84924e+12 -3.49295e+12 -2.72289e+12 -2.41798e+12 -2.25999e+12 -3.63243e+12 -5.00663e+12 -4.01433e+12 -4.09258e+12 -1.79528e+12 -4.26754e+12 -4.98588e+12 -3.44153e+12 -1.74565e+12 -2.87371e+12 -4.00637e+12 -4.20926e+12 -4.03279e+12 -3.34946e+12 -3.99744e+12 -2.68112e+12 -4.13973e+12 -2.11407e+12 -4.29975e+12 -5.01768e+12 -3.8282e+12 -3.38398e+12 -4.37063e+12 -3.72117e+12 -2.53597e+12 -2.45601e+12 -4.60113e+12 -3.55692e+12 -3.98981e+12 -2.84019e+12 -4.2753e+12 -6.74934e+12 -5.33819e+12 -4.57268e+12 -6.64007e+12 -4.6321e+12 -2.0309e+12 -5.78037e+12 -4.04763e+12 -3.61382e+12 -3.96671e+12 -3.02671e+12 -4.51482e+12 -3.82042e+12 -3.48599e+12 -2.6291e+12 -5.58876e+12 -3.4214e+12 -1.3705e+12 -1.85237e+12 -2.44179e+12 -4.40581e+12 -1.75132e+12 -3.47656e+12 -4.12224e+12 -3.11873e+12 -3.29552e+12 -2.20662e+12 -3.07369e+12 -2.8584e+12 -2.31078e+12 -1.59642e+12 -2.84992e+12 -3.59042e+12 -4.04655e+12 -3.04362e+12 -2.52e+12 -3.68022e+12 -1.50366e+12 -1.87166e+12 -3.24075e+12 -2.18151e+12 -2.21499e+12 -3.04018e+12 -2.3268e+12 -2.74962e+12 -1.45451e+12 -1.6254e+12 -1.81623e+12 -2.40103e+12 -2.62023e+12 -146224000000.0 -1.73225e+12 -1.81301e+12 -2.26766e+12 -2.05364e+12 -414408000000.0 -1.05036e+12 -1.04253e+12 -1.12119e+12 -1.19811e+12 -959215000000.0 -1.14801e+12 -785684000000.0 -1.23131e+12 -423335000000.0 -1.4142e+12 -118909000000.0 -888741000000.0 -1.16723e+12 -825605000000.0 -436866000000.0 -1.58607e+12 -1.45395e+12 -1.91064e+12 -834921000000.0 -858948000000.0 -1.87847e+12 -2.72383e+12 -1.28884e+12 -314252000000.0 -1.87773e+12 -1.72513e+12 -1.38558e+12 -797570000000.0 -1.44442e+12 -1.16096e+12 -1.70788e+12 -1.78935e+12 -3.06177e+12 -2.63902e+12 -2.1494e+12 -745924000000.0 -2.02554e+12 -1.97928e+12 -1.47213e+12 -1.13285e+12 -2.45993e+12 -2.61426e+12 -3.16591e+12 -3.9369e+12 -3.75405e+12 -1.00056e+12 -4.13658e+12 -3.64697e+12 -1.47748e+12 -5.20367e+12 -4.02654e+12 -2.05697e+12 -3.33085e+12 -4.33498e+12 -3.33371e+12 -3.86625e+12 -3.88884e+12 -3.63752e+12 -943883000000.0 -1.71086e+12 -2.79288e+12 -3.8404e+12 -3.09471e+12 -2.77209e+12 -4.36732e+12 -6.43292e+12 -3.7441e+12 -4.32041e+12 -4.33086e+12 -1.92769e+12 -3.14087e+12 -4.89344e+12 -2.65557e+12 -2.78602e+12 -2.66082e+12 -3.98912e+12 -5.39193e+12 -2.44692e+12 -3.30494e+12 -3.36166e+12 -2.56379e+12 -2.42501e+12 -2.2854e+12 -4.40202e+12 -4.07979e+12 -2.40893e+12 -2.73109e+12 -4.38516e+12 -3.68853e+12 -2.45614e+12 -1.65795e+12 -3.62475e+12 -1.13873e+12 -3.81933e+12 -3.53327e+12 -1.52335e+12 -3.17045e+12 -4.43328e+12 -1.54084e+12 -2.5505e+12 -1.52562e+12 -1.16146e+12 -2.88571e+12 -3.79916e+12 -2.61193e+12 -4.72442e+12 -4.07386e+12 -4.11374e+12 -3.25843e+12 -3.68851e+12 -3.63725e+12 -1.45954e+12 -1.70255e+12 -1.27493e+12 -1.48083e+12 -3.31609e+12 -2.15687e+12 -1.49092e+12 -1.70471e+12 -2.24697e+12 -1.02831e+12 -1.33542e+12 -2.62886e+12 -597685000000.0 -785666000000.0 -1.07564e+12 -1.13526e+12 -1.13949e+12 -796264000000.0 -599789000000.0 -1.32044e+12 -1.27662e+12 -1.46824e+12 -797518000000.0 -418030000000.0 -806413000000.0 -1.26529e+12 -1.279e+12 -293500000000.0 -884518000000.0 -830746000000.0 -921655000000.0 -1.27252e+12 -563795000000.0 -1.66873e+12 -2.01993e+12 -1.02903e+12 -1.84713e+12 -1.8702e+12 -1.37221e+12 -478995000000.0 -1.168e+12 -855964000000.0 -1.16305e+12 -899632000000.0 -782369000000.0 -3.61564e+12 -535384000000.0 -2.5355e+12 -2.07841e+12 -1.78535e+12 -1.79996e+12 -1.49427e+12 -3.80915e+12 -1.32353e+12 -2.85132e+12 -1.18131e+12 -962481000000.0 -1.84497e+12 -463469000000.0 -2.75425e+12 -1.37181e+12 -1.3833e+12 -1.41558e+12 -2.85946e+12 -1.86555e+12 -2.33216e+12 -2.90355e+12 -2.85663e+12 -2.65589e+12 -3.45397e+12 -2.36268e+12 -2.3518e+12 -3.26644e+12 -3.7418e+12 -2.33759e+12 -3.72959e+12 -3.72644e+12 -3.33661e+12 -3.71416e+12 -2.59429e+12 -2.77325e+12 -3.00298e+12 -2.6593e+12 -2.42057e+12 -2.37701e+12 -1.62998e+12 -2.60439e+12 -2.85847e+12 -2.24177e+12 -1.82347e+12 -5.50011e+12 -3.02801e+12 -2.42709e+12 -3.74715e+12 -1.55255e+12 -1.40594e+12 -2.92505e+12 -1.90304e+12 -3.84088e+12 -4.74068e+12 -2.61868e+12 -5.29911e+12 -2.28997e+12 -2.39392e+12 -2.43006e+12 -5.83161e+12 -3.86824e+12 -1.76722e+12 -1.8272e+12 -1.0303e+12 -2.12597e+12 -3.47213e+12 -2.10852e+12 -1.10702e+12 -3.33935e+12 -3.09114e+12 -1.38055e+12 -3.94746e+12 -1.96623e+12 -1.87753e+12 -1.96832e+12 -840066000000.0 -1.47837e+12 -1.90864e+12 -2.53781e+12 -2.40487e+12 -783870000000.0 -1.55601e+12 -1.72569e+12 -1.18588e+12 -1.51843e+12 -2.34951e+12 -1.54681e+12 -2.81483e+12 -2.14002e+12 -823686000000.0 -1.16102e+12 -683097000000.0 -1.431e+12 -651122000000.0 -552176000000.0 -716401000000.0 -662901000000.0 -1.18043e+12 -893830000000.0 -1.17572e+12 -1.08679e+12 -786186000000.0 -485279000000.0 -1.27428e+12 -1.01585e+12 -1.06107e+12 -1.51827e+12 -1.56366e+12 -832652000000.0 -1.28673e+12 -1.09436e+12 -346406000000.0 -868086000000.0 -1.09877e+12 -282945000000.0 -1.70453e+12 -1.22231e+12 -1.04734e+12 -1.94902e+12 -939538000000.0 -935763000000.0 -840150000000.0 -2.02203e+12 -1.61273e+12 -1.79973e+12 -1.85582e+12 -1.66758e+12 -2.28795e+12 -1.84352e+12 -799824000000.0 -826751000000.0 -2.10211e+12 -3.60687e+12 -913465000000.0 -1.55298e+12 -1.22456e+12 -2.43444e+12 -2.11139e+12 -1.94898e+12 -2.78296e+12 -1.56408e+12 -2.69595e+12 -995480000000.0 -2.63931e+12 -4.02821e+12 -1.58854e+12 -1.51972e+12 -2.4797e+12 -2.54481e+12 -2.69678e+12 -3.54308e+12 -3.29674e+12 -2.32256e+12 -2.46978e+12 -2.46974e+12 -2.36303e+12 -2.36888e+12 -3.41362e+12 -4.05986e+12 -3.80687e+12 -2.88012e+12 -2.00343e+12 -2.62634e+12 -3.89993e+12 -2.63961e+12 -3.15944e+12 -2.74202e+12 -1.63458e+12 -4.72262e+12 -1.62367e+12 -2.47411e+12 -2.63197e+12 -1.83644e+12 -12510900000.0 -3.36421e+12 -1.54648e+12 -1.62478e+12 -3.32486e+12 -1.14092e+12 -2.79321e+12 -2.24334e+12 -2.59503e+12 -1.36245e+12 -2.23528e+12 -2.06559e+12 -2.938e+12 -941162000000.0 -2.57526e+12 -2.75406e+12 -2.09853e+12 -1.50817e+12 -2.46536e+12 -2.06386e+12 -1.12612e+12 -1.99681e+12 -981712000000.0 -996879000000.0 -609996000000.0 -2.67318e+12 -1.00459e+12 -660415000000.0 -1.29514e+12 -1.08788e+12 -1.24227e+12 -909873000000.0 -1.40208e+12 -519075000000.0 -317520000000.0 -597777000000.0 -638934000000.0 -919603000000.0 -547007000000.0 -585563000000.0 -776689000000.0 -691925000000.0 -1.03422e+12 -1.28755e+12 -599455000000.0 -1.25692e+12 -2.00544e+12 -1.07545e+12 -728177000000.0 -976798000000.0 -741100000000.0 -128202000000.0 -838977000000.0 -212043000000.0 -1.57425e+12 -998397000000.0 -1.45033e+12 -734128000000.0 -1.11687e+12 -1.47817e+12 -960991000000.0 -1.21357e+12 -1.12222e+12 -1.77594e+12 -1.69764e+12 -738011000000.0 -1.48445e+12 -1.09038e+12 -1.1398e+12 -1.15829e+12 -2.3532e+12 -2.26177e+12 -1.25088e+12 -1.15046e+12 -1.48949e+12 -2.58802e+12 -570378000000.0 -2.4442e+12 -2.00337e+12 -2.17468e+12 -2.59332e+12 -1.33124e+12 -3.55462e+12 -2.7199e+12 -2.93519e+12 -1.38368e+12 -3.51563e+12 -1.04736e+12 -2.28845e+12 -2.50818e+12 -2.38679e+12 -1.87198e+12 -2.12496e+12 -1.95197e+12 -2.59405e+12 -2.26717e+12 -2.65957e+12 -2.7721e+12 -2.45862e+12 -3.88333e+12 -3.85918e+12 -1.59328e+12 -1.33977e+12 -4.25635e+12 -3.89e+12 -1.8676e+12 -3.23074e+12 -1.55747e+12 -2.04092e+12 -3.12557e+12 -2.28032e+12 -3.33271e+12 -1.92906e+12 -2.29759e+12 -3.08741e+12 -2.12239e+12 -1.33481e+12 -2.11601e+12 -1.36246e+12 -250311000000.0 -2.40773e+12 -1.20909e+12 -1.94698e+12 -1.05778e+12 -1.63155e+12 -2.98588e+12 -2.9051e+12 -870668000000.0 -793155000000.0 -517722000000.0 -1.41293e+12 -1.34503e+12 -2.03314e+12 -1.17509e+12 -1.69419e+12 -1.61291e+12 -1.19944e+12 -1.77642e+12 -1.09262e+12 -625906000000.0 -1.12271e+12 -1.26624e+12 -602594000000.0 -1.69617e+12 -1.04803e+12 -1.83486e+12 -915854000000.0 -843233000000.0 -197946000000.0 -476379000000.0 -436522000000.0 -612281000000.0 -228879000000.0 -143842000000.0 -624187000000.0 -759898000000.0 -440301000000.0 -212651000000.0 -211103000000.0 -432516000000.0 -1.01413e+12 -863081000000.0 -984412000000.0 -531182000000.0 -565670000000.0 -353446000000.0 -707034000000.0 -674462000000.0 -925014000000.0 -316722000000.0 -1.01661e+12 -1.44887e+12 -876437000000.0 -843852000000.0 -544398000000.0 -933257000000.0 -859209000000.0 -1.88286e+12 -1.52663e+12 -1.36239e+12 -1.45087e+12 -1.202e+12 -1.94209e+12 -2.21249e+12 -1.53279e+12 -1.19318e+12 -276733000000.0 -980480000000.0 -1.64614e+12 -1.64951e+12 -1.66686e+12 -2.43581e+12 -1.02618e+12 -3.10476e+12 -855216000000.0 -1.39403e+12 -3.08279e+12 -2.24617e+12 -775173000000.0 -2.00814e+12 -2.63553e+12 -1.07031e+12 -1.87661e+12 -2.04754e+12 -1.97045e+12 -542591000000.0 -2.9803e+12 -1.66976e+12 -1.45978e+12 -720201000000.0 -2.21177e+12 -2.2901e+12 -2.45436e+12 -2.51493e+12 -1.57788e+12 -3.11378e+12 -2.17635e+12 -2.26255e+12 -2.13826e+12 -1.77377e+12 -2.28455e+12 -1.78033e+12 -2.00628e+12 -1.12212e+12 -1.31454e+12 -1.79813e+12 -3.06046e+12 -3.50609e+12 -2.26104e+12 -3.05588e+12 -1.486e+12 -1.58712e+12 -1.83939e+12 -1.3655e+12 -1.77433e+12 -1.66787e+12 -2.48398e+12 -1.26319e+12 -760043000000.0 -1.77757e+12 -1.75244e+12 -1.46794e+12 -1.76506e+12 -1.23944e+12 -1.46799e+12 -1.71483e+12 -1.73686e+12 -1.21007e+12 -2.16272e+12 -1.64148e+12 -405390000000.0 -822128000000.0 -951111000000.0 -1.00034e+12 -800292000000.0 -483843000000.0 -408952000000.0 -1.0232e+12 -847508000000.0 -1.28256e+12 -1.32488e+12 -499518000000.0 -1.19171e+12 -322589000000.0 -828829000000.0 -573840000000.0 -320674000000.0 -299991000000.0 -772766000000.0 -528166000000.0 -793955000000.0 -874656000000.0 -501353000000.0 -600836000000.0 -646216000000.0 -841325000000.0 -735742000000.0 -872852000000.0 -726084000000.0 -686141000000.0 -462721000000.0 -846074000000.0 -160159000000.0 -548359000000.0 -614019000000.0 -786921000000.0 -324228000000.0 -253393000000.0 -684374000000.0 -1.0555e+12 -22182900000.0 -1.25894e+12 -632313000000.0 -1.33882e+12 -683536000000.0 -887481000000.0 -1.45765e+12 -1.44757e+12 -2.1441e+12 -1.61786e+12 -840021000000.0 -1.7531e+12 -1.2536e+12 -2.0589e+12 -1.30521e+12 -623255000000.0 -1.41728e+12 -2.06974e+12 -2.10956e+12 -936644000000.0 -1.38563e+12 -2.21058e+12 -1.481e+12 -1.91361e+12 -1.61654e+12 -1.45186e+12 -2.23453e+12 -2.48955e+12 -2.00256e+12 -2.85294e+12 -1.00506e+12 -1.98465e+12 -1.5765e+12 -2.48974e+12 -1.96203e+12 -1.27106e+12 -489932000000.0 -2.08958e+12 -523599000000.0 -1.25487e+12 -1.5019e+12 -470305000000.0 -989452000000.0 -980856000000.0 -2.39058e+12 -814792000000.0 -1.31046e+12 -1.69992e+12 -1.23217e+12 -1.39869e+12 -2.38948e+12 -697904000000.0 -630172000000.0 -1.42522e+12 -1.36368e+12 -1.10095e+12 -1.02238e+12 -2.34653e+12 -781023000000.0 -962230000000.0 -1.92347e+12 -721505000000.0 -794815000000.0 -986699000000.0 -1.41809e+12 -1.27872e+12 -862441000000.0 -939460000000.0 -608524000000.0 -689483000000.0 -1.09875e+12 -712105000000.0 -918221000000.0 -1.76994e+12 -906796000000.0 -539358000000.0 -783961000000.0 -597053000000.0 -985129000000.0 -724637000000.0 -449898000000.0 -368693000000.0 -997253000000.0 -471983000000.0 -880896000000.0 -680345000000.0 -122569000000.0 -844482000000.0 -323576000000.0 -656236000000.0 -165484000000.0 -272523000000.0 -376345000000.0 -475457000000.0 -93573000000.0 -492607000000.0 -344706000000.0 -687659000000.0 -615339000000.0 -396642000000.0 -80011500000.0 -700276000000.0 -26865500000.0 -1.02943e+12 -237423000000.0 -515536000000.0 -123934000000.0 -932622000000.0 -564933000000.0 -527028000000.0 -1.27606e+12 -672114000000.0 -1.05827e+12 -376270000000.0 -1.26319e+12 -224916000000.0 -532512000000.0 -180337000000.0 -1.60076e+12 -900808000000.0 -643934000000.0 -1.37509e+12 -1.12716e+12 -846871000000.0 -420536000000.0 -1.24748e+12 -2.00976e+12 -1.56913e+12 -409218000000.0 -586014000000.0 -1.16066e+12 -1.21338e+12 -1.22235e+12 -1.68048e+12 -1.07239e+12 -1.01023e+12 -1.69665e+12 -1.75577e+12 -1.19991e+12 -2.15348e+12 -342669000000.0 -2.24264e+12 -959316000000.0 -651972000000.0 -2.67019e+12 -604594000000.0 -1.23287e+12 -912910000000.0 -1.46606e+12 -3.09241e+12 -1.49889e+12 -1.25463e+12 -1.16594e+12 -1.40047e+12 -1.46806e+12 -20354900000.0 -699003000000.0 -2.62899e+12 -746549000000.0 -641926000000.0 -1.88823e+12 -807673000000.0 -870019000000.0 -544443000000.0 -544527000000.0 -1.45652e+12 -1.05919e+12 -553718000000.0 -1.76282e+12 -2.20966e+12 -1.49822e+12 -1.38271e+12 -1.55157e+12 -851714000000.0 -1.57638e+12 -531813000000.0 -965508000000.0 -682361000000.0 -626765000000.0 -438153000000.0 -741806000000.0 -227544000000.0 -1.0659e+12 -1.27742e+12 -214484000000.0 -717541000000.0 -344447000000.0 -504802000000.0 -654155000000.0 -153428000000.0 -638666000000.0 -260123000000.0 -489849000000.0 -620992000000.0 -829742000000.0 -110562000000.0 -555099000000.0 -810626000000.0 -259475000000.0 -72399600000.0 -231675000000.0 -138527000000.0 -227638000000.0 -281152000000.0 -99448000000.0 -437320000000.0 -468662000000.0 -216963000000.0 -160053000000.0 -119268000000.0 -230553000000.0 -113915000000.0 -331372000000.0 -23584200000.0 -342993000000.0 -299913000000.0 -473716000000.0 -513683000000.0 -582885000000.0 -587692000000.0 -508356000000.0 -228444000000.0 -713086000000.0 -953480000000.0 -767673000000.0 -326083000000.0 -479689000000.0 -773452000000.0 -660777000000.0 -792701000000.0 -358811000000.0 -627477000000.0 -752374000000.0 -1.31816e+12 -1.1893e+12 -957748000000.0 -845489000000.0 -220029000000.0 -1.36381e+12 -1.69142e+12 -2.24982e+12 -878128000000.0 -1.14289e+12 -1.47933e+12 -685380000000.0 -1.42071e+12 -2.26493e+12 -1.21676e+12 -983039000000.0 -1.56993e+12 -2.10647e+12 -1.44481e+12 -1.80771e+12 -1.53627e+12 -949967000000.0 -1.56896e+12 -499276000000.0 -1.83279e+12 -933837000000.0 -1.49435e+12 -1.37168e+12 -1.22e+12 -894934000000.0 -1.05195e+12 -701243000000.0 -1.07115e+12 -621237000000.0 -796871000000.0 -862251000000.0 -974071000000.0 -803973000000.0 -226567000000.0 -1.285e+12 -748965000000.0 -764433000000.0 -658718000000.0 -623012000000.0 -853706000000.0 -647683000000.0 -1.27638e+12 -984952000000.0 -356665000000.0 -443880000000.0 -678364000000.0 -746208000000.0 -612605000000.0 -471039000000.0 -329458000000.0 -489929000000.0 -134353000000.0 -951599000000.0 -821679000000.0 -81634900000.0 -523139000000.0 -265717000000.0 -322775000000.0 -433045000000.0 -531690000000.0 -241274000000.0 -815379000000.0 -540082000000.0 -84497100000.0 -376726000000.0 -590957000000.0 -190276000000.0 -698395000000.0 -143029000000.0 -12549700000.0 -226669000000.0 -141713000000.0 -14593100000.0 -56471100000.0 -22608900000.0 -223158000000.0 -115882000000.0 -243272000000.0 -171036000000.0 -110913000000.0 -121444000000.0 -32241400000.0 -199595000000.0 -219386000000.0 -389126000000.0 -300444000000.0 -246197000000.0 -511648000000.0 -684036000000.0 -245053000000.0 -62606800000.0 -183442000000.0 -416691000000.0 -408535000000.0 -356818000000.0 -41218100000.0 -257821000000.0 -894949000000.0 -392115000000.0 -664656000000.0 -936232000000.0 -409777000000.0 -483850000000.0 -523410000000.0 -173538000000.0 -646558000000.0 -754277000000.0 -693422000000.0 -405963000000.0 -1.11187e+12 -1.78256e+12 -1.08906e+12 -1.35589e+12 -1.18993e+12 -856859000000.0 -884296000000.0 -1.12265e+12 -837469000000.0 -381395000000.0 -1.89297e+12 -322226000000.0 -52517600000.0 -239620000000.0 -1.30868e+12 -1.07435e+12 -809119000000.0 -821194000000.0 -1.29447e+12 -736106000000.0 -848422000000.0 -1.49175e+12 -561650000000.0 -1.17082e+12 -129132000000.0 -495092000000.0 -651853000000.0 -349420000000.0 -567752000000.0 -466753000000.0 -810282000000.0 -890877000000.0 -386964000000.0 -1.04742e+12 -779800000000.0 -862384000000.0 -733648000000.0 -827850000000.0 -688846000000.0 -251265000000.0 -622444000000.0 -884337000000.0 -631247000000.0 -635513000000.0 -329307000000.0 -708159000000.0 -332959000000.0 -481380000000.0 -704752000000.0 -177369000000.0 -300035000000.0 -280763000000.0 -324879000000.0 -733832000000.0 -419271000000.0 -375890000000.0 -119571000000.0 -126547000000.0 -458965000000.0 -342130000000.0 -210422000000.0 -123507000000.0 -200960000000.0 -373540000000.0 -240618000000.0 -35037900000.0 -407166000000.0 -94326500000.0 -12549700000.0 -226392000000.0 -87372700000.0 -48325200000.0 -33332100000.0 -130043000000.0 -75375200000.0 -109562000000.0 -138467000000.0 -308709000000.0 -50144800000.0 -237668000000.0 -219146000000.0 -16206600000.0 -151420000000.0 -28770400000.0 -197328000000.0 -165732000000.0 -325799000000.0 -163982000000.0 -192965000000.0 -179063000000.0 -385455000000.0 -298119000000.0 -158150000000.0 -310662000000.0 -302526000000.0 -401321000000.0 -293926000000.0 -740964000000.0 -404630000000.0 -845150000000.0 -309236000000.0 -512405000000.0 -202096000000.0 -859794000000.0 -980949000000.0 -496875000000.0 -823830000000.0 -490802000000.0 -509567000000.0 -464846000000.0 -110883000000.0 -356186000000.0 -1.05682e+12 -864381000000.0 -499767000000.0 -761098000000.0 -448729000000.0 -713620000000.0 -721425000000.0 -997908000000.0 -685925000000.0 -888240000000.0 -529272000000.0 -862233000000.0 -975054000000.0 -132697000000.0 -804014000000.0 -1.14633e+12 -988752000000.0 -583744000000.0 -1.37508e+12 -693846000000.0 -904705000000.0 -236069000000.0 -521527000000.0 -132980000000.0 -259730000000.0 -581301000000.0 -493610000000.0 -490819000000.0 -253771000000.0 -514772000000.0 -464156000000.0 -485175000000.0 -471419000000.0 -214733000000.0 -326036000000.0 -390956000000.0 -476534000000.0 -245419000000.0 -390988000000.0 -250929000000.0 -450581000000.0 -126915000000.0 -189621000000.0 -335886000000.0 -229335000000.0 -481342000000.0 -278366000000.0 -498679000000.0 -340333000000.0 -268208000000.0 -280029000000.0 -22665400000.0 -130551000000.0 -250766000000.0 -83694400000.0 -83307300000.0 -106979000000.0 -251906000000.0 -47148400000.0 -58459800000.0 -155489000000.0 -67677200000.0 -378638000000.0 -30000600000.0 -89382400000.0 -112324000000.0 -28988800000.0 -12549700000.0 -12566600000.0 -38067300000.0 -16630300000.0 -35602500000.0 -27333400000.0 -56039300000.0 -226857000000.0 -97975900000.0 -120896000000.0 -123718000000.0 -118703000000.0 -36883200000.0 -74952700000.0 -111448000000.0 -35899200000.0 -74088900000.0 -167609000000.0 -134977000000.0 -109672000000.0 -255266000000.0 -202706000000.0 -236616000000.0 -225063000000.0 -299291000000.0 -71961900000.0 -460355000000.0 -113729000000.0 -266189000000.0 -486451000000.0 -298101000000.0 -309817000000.0 -487832000000.0 -202787000000.0 -348999000000.0 -311015000000.0 -179049000000.0 -556979000000.0 -112836000000.0 -348459000000.0 -254743000000.0 -363118000000.0 -226322000000.0 -355728000000.0 -297801000000.0 -173832000000.0 -391583000000.0 -453847000000.0 -183155000000.0 -111532000000.0 -695085000000.0 -722227000000.0 -519357000000.0 -345404000000.0 -329732000000.0 -731779000000.0 -440629000000.0 -70899800000.0 -57697800000.0 -200152000000.0 -75842500000.0 -114608000000.0 -101034000000.0 -308485000000.0 -93580100000.0 -347137000000.0 -251650000000.0 -171329000000.0 -206038000000.0 -130550000000.0 -63946200000.0 -72831600000.0 -34298700000.0 -212052000000.0 -171423000000.0 -151144000000.0 -49779500000.0 -87069700000.0 -116830000000.0 -103312000000.0 -44740800000.0 -37733100000.0 -190631000000.0 -110820000000.0 -63960600000.0 -79717500000.0 -75823400000.0 -53602900000.0 -50185300000.0 -66241100000.0 -72245200000.0 -69109100000.0 -129796000000.0 -26000600000.0 -32185000000.0 -21354900000.0 -83066000000.0 -126819000000.0 -76984100000.0 -91991900000.0 -68910200000.0 -41173600000.0 -146083000000.0 -57186900000.0 -52343200000.0 -74475900000.0 -77246400000.0 -156668000000.0 -159156000000.0 -82087000000.0 -63852100000.0 -104019000000.0 -144785000000.0 -49973600000.0 -79554400000.0 -100371000000.0 -238020000000.0 -29726400000.0 -41547600000.0 -35380100000.0 -120753000000.0 -101345000000.0 -171860000000.0 -125300000000.0 -66459800000.0 -118562000000.0 -120312000000.0 -130000000000.0 -75581400000.0 -104419000000.0 -109371000000.0 -79155600000.0 -78784100000.0 -612582000000.0 -343172000000.0 -353661000000.0 -83390600000.0 -143222000000.0 -115451000000.0 -118281000000.0 -451248000000.0 -107801000000.0 -200768000000.0 -77570500000.0 -170574000000.0 -41509200000.0 -101407000000.0 -53398000000.0 