# vtk DataFile Version 2.0
Time step 81
ASCII
DATASET UNSTRUCTURED_GRID
POINTS 5000 float
219607.0 167051.0 0
227108.0 167477.0 0
232630.0 164695.0 0
231432.0 167870.0 0
236208.0 167390.0 0
242566.0 168759.0 0
273455.0 167160.0 0
279693.0 166276.0 0
194960.0 173236.0 0
200814.0 172031.0 0
207998.0 169959.0 0
213880.0 170920.0 0
223746.0 170468.0 0
219309.0 172581.0 0
228077.0 172128.0 0
233093.0 172120.0 0
238412.0 172332.0 0
243344.0 174369.0 0
249076.0 170280.0 0
255422.0 170170.0 0
259924.0 171809.0 0
263998.0 170160.0 0
269035.0 170675.0 0
265545.0 174176.0 0
274792.0 171524.0 0
279294.0 172435.0 0
284550.0 170683.0 0
290283.0 169892.0 0
286799.0 174275.0 0
293668.0 173594.0 0
298531.0 173053.0 0
303920.0 173817.0 0
191713.0 178446.0 0
198395.0 176312.0 0
201502.0 175800.0 0
201533.0 179716.0 0
205033.0 174775.0 0
206983.0 179597.0 0
210179.0 175240.0 0
212448.0 179680.0 0
215137.0 175831.0 0
224217.0 174897.0 0
219732.0 178480.0 0
228690.0 176468.0 0
233246.0 177328.0 0
238734.0 177777.0 0
248212.0 176455.0 0
252267.0 174844.0 0
253458.0 178904.0 0
256401.0 175048.0 0
258420.0 179544.0 0
261582.0 175911.0 0
268386.0 178314.0 0
272238.0 174725.0 0
273153.0 178766.0 0
277239.0 177304.0 0
283351.0 175476.0 0
281416.0 179204.0 0
290129.0 175068.0 0
287163.0 178243.0 0
293280.0 177999.0 0
298443.0 178739.0 0
304027.0 179173.0 0
191585.0 184323.0 0
196304.0 180263.0 0
216267.0 183305.0 0
221779.0 182293.0 0
225292.0 180065.0 0
227616.0 184621.0 0
230198.0 180827.0 0
231811.0 184348.0 0
235112.0 181550.0 0
244073.0 179668.0 0
239886.0 183433.0 0
249114.0 181393.0 0
254883.0 183786.0 0
263519.0 179912.0 0
261037.0 183961.0 0
266891.0 184369.0 0
271569.0 182114.0 0
274360.0 183790.0 0
278001.0 182397.0 0
284583.0 183151.0 0
290525.0 182579.0 0
295293.0 182407.0 0
299484.0 184034.0 0
304308.0 184160.0 0
309701.0 183007.0 0
189398.0 188756.0 0
197145.0 185344.0 0
203155.0 185553.0 0
209959.0 184936.0 0
214679.0 188664.0 0
221221.0 186551.0 0
225752.0 188673.0 0
230649.0 188890.0 0
235410.0 185788.0 0
243334.0 188203.0 0
240228.0 187994.0 0
245167.0 184722.0 0
246477.0 188986.0 0
249928.0 186227.0 0
254040.0 188515.0 0
257837.0 186828.0 0
262983.0 189236.0 0
271953.0 185975.0 0
276118.0 186981.0 0
280573.0 186374.0 0
286003.0 189558.0 0
295407.0 186446.0 0
291322.0 187501.0 0
298965.0 188586.0 0
302340.0 187438.0 0
307270.0 189741.0 0
193298.0 191354.0 0
190402.0 195187.0 0
198944.0 190573.0 0
204492.0 191387.0 0
209885.0 191051.0 0
214025.0 193788.0 0
218884.0 191816.0 0
224648.0 192575.0 0
228363.0 192700.0 0
236252.0 191002.0 0
242072.0 192132.0 0
246670.0 192740.0 0
250062.0 190758.0 0
253707.0 193427.0 0
258029.0 190999.0 0
264312.0 194966.0 0
269424.0 190930.0 0
275549.0 191661.0 0
273016.0 194700.0 0
280235.0 190728.0 0
282650.0 193613.0 0
291268.0 191433.0 0
286393.0 194410.0 0
289001.0 193592.0 0
295433.0 190973.0 0
297875.0 194570.0 0
301531.0 192132.0 0
305223.0 194946.0 0
309099.0 195006.0 0
313212.0 193916.0 0
186443.0 196278.0 0
189468.0 199637.0 0
194908.0 197929.0 0
200959.0 196175.0 0
207529.0 196660.0 0
213268.0 199034.0 0
217019.0 196437.0 0
221633.0 196348.0 0
226965.0 196375.0 0
231972.0 195105.0 0
237580.0 197119.0 0
244657.0 196730.0 0
249327.0 195654.0 0
253204.0 198543.0 0
258543.0 196303.0 0
269892.0 196761.0 0
274700.0 198944.0 0
279012.0 195328.0 0
279810.0 200037.0 0
284011.0 197575.0 0
288795.0 196912.0 0
293292.0 195600.0 0
297194.0 198798.0 0
301547.0 196936.0 0
307142.0 199213.0 0
312108.0 198403.0 0
184943.0 201246.0 0
188022.0 204209.0 0
192944.0 203800.0 0
198802.0 201565.0 0
203404.0 201095.0 0
202690.0 205352.0 0
208717.0 203000.0 0
218255.0 200496.0 0
214316.0 204403.0 0
224288.0 201666.0 0
228797.0 204274.0 0
230310.0 200000.0 0
232968.0 203938.0 0
237385.0 202593.0 0
241732.0 200560.0 0
248186.0 200260.0 0
245033.0 202542.0 0
252230.0 204173.0 0
257648.0 202025.0 0
261758.0 199817.0 0
262590.0 204440.0 0
266363.0 200257.0 0
270682.0 201591.0 0
273941.0 204721.0 0
278725.0 204227.0 0
283592.0 202615.0 0
287784.0 200921.0 0
292666.0 200913.0 0
297322.0 204086.0 0
302393.0 201829.0 0
311055.0 202398.0 0
307111.0 204647.0 0
314471.0 203623.0 0
185463.0 207446.0 0
189034.0 207929.0 0
198099.0 206541.0 0
192815.0 208762.0 0
202681.0 210000.0 0
205805.0 206680.0 0
206579.0 209290.0 0
210526.0 208598.0 0
216072.0 209876.0 0
219532.0 205448.0 0
225625.0 207216.0 0
230374.0 208137.0 0
236166.0 208024.0 0
241783.0 205599.0 0
246947.0 205879.0 0
250557.0 209400.0 0
257551.0 208716.0 0
263974.0 209415.0 0
268318.0 206053.0 0
272513.0 209682.0 0
277224.0 208759.0 0
282429.0 207469.0 0
287629.0 205770.0 0
292424.0 205480.0 0
296381.0 209859.0 0
302393.0 207226.0 0
311647.0 206464.0 0
308996.0 209988.0 0
315285.0 206792.0 0
313492.0 210393.0 0
186585.0 211428.0 0
187134.0 215498.0 0
191269.0 213580.0 0
196106.0 211269.0 0
195571.0 215588.0 0
199638.0 214002.0 0
207486.0 212412.0 0
212223.0 214164.0 0
221666.0 210255.0 0
223992.0 213952.0 0
226926.0 211118.0 0
232481.0 212245.0 0
237366.0 213321.0 0
241107.0 210564.0 0
243504.0 215105.0 0
245722.0 210263.0 0
248780.0 213849.0 0
253329.0 212927.0 0
262366.0 213359.0 0
268301.0 212058.0 0
275095.0 214170.0 0
280645.0 212673.0 0
285988.0 211515.0 0
290970.0 209990.0 0
289616.0 214349.0 0
293429.0 213941.0 0
300605.0 211583.0 0
297883.0 215601.0 0
304996.0 213980.0 0
188100.0 219715.0 0
192476.0 218103.0 0
196022.0 219865.0 0
200617.0 218850.0 0
205609.0 216233.0 0
209812.0 218757.0 0
218652.0 215373.0 0
214985.0 219669.0 0
223657.0 218596.0 0
228327.0 215396.0 0
233730.0 217424.0 0
238933.0 217069.0 0
237416.0 219944.0 0
241810.0 219661.0 0
247649.0 218132.0 0
252372.0 217550.0 0
257834.0 215503.0 0
265686.0 216001.0 0
262015.0 218935.0 0
270496.0 216628.0 0
274537.0 219269.0 0
279526.0 217649.0 0
285552.0 217071.0 0
291909.0 218810.0 0
296982.0 220524.0 0
302107.0 219429.0 0
306973.0 218880.0 0
311664.0 215871.0 0
317822.0 217222.0 0
187141.0 225292.0 0
192373.0 222798.0 0
200304.0 224505.0 0
205242.0 220879.0 0
208888.0 222542.0 0
212281.0 223395.0 0
216287.0 225378.0 0
219649.0 221986.0 0
228785.0 220662.0 0
224324.0 223736.0 0
234038.0 222956.0 0
239001.0 223046.0 0
242969.0 223122.0 0
245589.0 220971.0 0
250174.0 221790.0 0
256754.0 221561.0 0
262213.0 223384.0 0
267061.0 220830.0 0
269976.0 225154.0 0
271610.0 221723.0 0
274417.0 224852.0 0
278377.0 222317.0 0
282875.0 221281.0 0
281968.0 224630.0 0
287386.0 222380.0 0
293647.0 225093.0 0
299919.0 224818.0 0
306625.0 224469.0 0
311955.0 221709.0 0
190379.0 229880.0 0
195076.0 227270.0 0
199269.0 229690.0 0
206260.0 226431.0 0
211979.0 228070.0 0
217143.0 230630.0 0
220617.0 226662.0 0
225027.0 228865.0 0
229229.0 225787.0 0
233465.0 227343.0 0
237273.0 226869.0 0
241541.0 226733.0 0
244196.0 229945.0 0
246734.0 225411.0 0
248486.0 229635.0 0
252658.0 226520.0 0
258481.0 226787.0 0
263039.0 228080.0 0
265958.0 225350.0 0
267961.0 229384.0 0
272109.0 228244.0 0
275924.0 229378.0 0
278994.0 226634.0 0
285137.0 227076.0 0
288997.0 225796.0 0
289933.0 229550.0 0
297369.0 229528.0 0
302519.0 230118.0 0
307679.0 230487.0 0
312203.0 227493.0 0
189646.0 235309.0 0
194944.0 232986.0 0
200630.0 233330.0 0
198422.0 235354.0 0
203464.0 230715.0 0
204402.0 234965.0 0
208026.0 231668.0 0
212358.0 232593.0 0
218894.0 235628.0 0
221868.0 232496.0 0
226784.0 233813.0 0
230958.0 231176.0 0
235528.0 230395.0 0
239522.0 230791.0 0
235859.0 234475.0 0
242691.0 233600.0 0
239690.0 234495.0 0
246732.0 233305.0 0
251836.0 232440.0 0
256009.0 230402.0 0
259799.0 230995.0 0
256204.0 234030.0 0
259931.0 234614.0 0
263691.0 232171.0 0
267749.0 233914.0 0
272484.0 232632.0 0
281231.0 230158.0 0
278082.0 232444.0 0
281450.0 234870.0 0
285445.0 231744.0 0
286768.0 235792.0 0
289632.0 233449.0 0
294151.0 233154.0 0
299457.0 234265.0 0
305147.0 235696.0 0
311881.0 233837.0 0
191195.0 240990.0 0
193056.0 237967.0 0
196311.0 237898.0 0
200443.0 238340.0 0
205219.0 239542.0 0
209392.0 236349.0 0
212138.0 240046.0 0
214515.0 236161.0 0
220335.0 239734.0 0
223281.0 236752.0 0
227960.0 238199.0 0
231672.0 235917.0 0
231528.0 239918.0 0
235219.0 239061.0 0
239585.0 238020.0 0
244242.0 237066.0 0
249045.0 236514.0 0
253382.0 236656.0 0
251297.0 239907.0 0
254819.0 239866.0 0
257158.0 237708.0 0
260372.0 238648.0 0
263542.0 236257.0 0
267256.0 237924.0 0
271524.0 237577.0 0
274877.0 239959.0 0
276399.0 235762.0 0
279211.0 239344.0 0
284099.0 239261.0 0
291248.0 237053.0 0
296467.0 238437.0 0
300518.0 238340.0 0
195711.0 242426.0 0
198264.0 246578.0 0
200604.0 242740.0 0
205648.0 243739.0 0
208933.0 241392.0 0
209769.0 244620.0 0
216318.0 240020.0 0
214355.0 244516.0 0
218317.0 242926.0 0
221762.0 244013.0 0
224914.0 241270.0 0
229148.0 242611.0 0
233363.0 243451.0 0
238178.0 242888.0 0
242625.0 241253.0 0
242029.0 244839.0 0
247076.0 240532.0 0
250002.0 243466.0 0
245786.0 244698.0 0
253485.0 242663.0 0
258090.0 242888.0 0
263765.0 241408.0 0
268599.0 241314.0 0
266987.0 244734.0 0
271702.0 243517.0 0
276910.0 243608.0 0
281785.0 243877.0 0
286308.0 242901.0 0
288546.0 240158.0 0
289872.0 244157.0 0
292555.0 241155.0 0
295707.0 244588.0 0
300417.0 241975.0 0
304834.0 247331.0 0
306401.0 242048.0 0
201047.0 249749.0 0
202668.0 246252.0 0
207073.0 247315.0 0
205348.0 250298.0 0
211532.0 248285.0 0
222487.0 247647.0 0
218615.0 246758.0 0
226316.0 246095.0 0
230120.0 245684.0 0
232518.0 247329.0 0
229467.0 250143.0 0
235995.0 247142.0 0
239882.0 247451.0 0
243647.0 247933.0 0
249243.0 246951.0 0
246612.0 248536.0 0
253807.0 246892.0 0
258278.0 248573.0 0
262257.0 246021.0 0
265509.0 248205.0 0
269407.0 248212.0 0
274308.0 247382.0 0
278672.0 247495.0 0
282341.0 248008.0 0
286155.0 246646.0 0
284238.0 249980.0 0
287728.0 250357.0 0
291387.0 247578.0 0
295317.0 249370.0 0
300390.0 246477.0 0
299154.0 249578.0 0
203110.0 253933.0 0
208013.0 254238.0 0
208942.0 250576.0 0
212075.0 252213.0 0
211741.0 256013.0 0
215940.0 250348.0 0
220405.0 250605.0 0
220146.0 254638.0 0
224210.0 255151.0 0
224681.0 250992.0 0
228064.0 254678.0 0
233876.0 251130.0 0
231825.0 254752.0 0
237763.0 251161.0 0
235753.0 255137.0 0
241772.0 251298.0 0
244041.0 254777.0 0
239897.0 255531.0 0
245686.0 251557.0 0
247647.0 255581.0 0
250144.0 251451.0 0
254892.0 251923.0 0
258736.0 253175.0 0
255974.0 255230.0 0
261983.0 250886.0 0
262538.0 255628.0 0
265857.0 251838.0 0
269091.0 252321.0 0
272447.0 251510.0 0
271008.0 255416.0 0
274720.0 254639.0 0
276477.0 251060.0 0
280408.0 251356.0 0
277720.0 254556.0 0
283896.0 253666.0 0
287506.0 255290.0 0
291677.0 251956.0 0
295099.0 253995.0 0
297892.0 252532.0 0
197272.0 259552.0 0
202013.0 257853.0 0
206009.0 258215.0 0
210161.0 259662.0 0
215869.0 255372.0 0
214676.0 259839.0 0
218593.0 258991.0 0
222573.0 258801.0 0
226245.0 257980.0 0
229779.0 258664.0 0
233908.0 258855.0 0
237873.0 259240.0 0
243483.0 259756.0 0
249120.0 259717.0 0
252108.0 255912.0 0
255072.0 257996.0 0
252857.0 259769.0 0
258706.0 257252.0 0
261342.0 260207.0 0
265146.0 259653.0 0
266997.0 255801.0 0
269502.0 259385.0 0
273952.0 258362.0 0
280571.0 256014.0 0
277213.0 257331.0 0
279550.0 259146.0 0
276957.0 260624.0 0
283795.0 258964.0 0
288033.0 260381.0 0
291808.0 256933.0 0
295564.0 257947.0 0
298000.0 256132.0 0
297894.0 260099.0 0
202901.0 261652.0 0
202255.0 265462.0 0
207441.0 262853.0 0
205460.0 265734.0 0
212370.0 264450.0 0
217108.0 263036.0 0
220801.0 261995.0 0
222425.0 264586.0 0
219646.0 265864.0 0
226353.0 262671.0 0
231766.0 262414.0 0
235596.0 262841.0 0
239320.0 262573.0 0
242616.0 265376.0 0
246816.0 263682.0 0
251780.0 263920.0 0
256874.0 261915.0 0
263722.0 263040.0 0
260791.0 264400.0 0
267463.0 263391.0 0
272667.0 263390.0 0
277255.0 264184.0 0
280940.0 262394.0 0
284927.0 264218.0 0
289370.0 263801.0 0
293139.0 261510.0 0
296917.0 264192.0 0
203091.0 269485.0 0
208722.0 268164.0 0
212562.0 268816.0 0
214206.0 270781.0 0
215986.0 267637.0 0
223353.0 267418.0 0
220207.0 269913.0 0
226875.0 268502.0 0
230479.0 266001.0 0
234458.0 267091.0 0
230873.0 270168.0 0
238320.0 266128.0 0
237614.0 270003.0 0
240701.0 268968.0 0
243858.0 270215.0 0
248624.0 266874.0 0
245525.0 267421.0 0
247354.0 270448.0 0
251456.0 269338.0 0
256089.0 267672.0 0
264836.0 266969.0 0
260828.0 268429.0 0
269766.0 267981.0 0
275077.0 268618.0 0
272097.0 270968.0 0
280503.0 267637.0 0
284688.0 268891.0 0
288273.0 267979.0 0
292409.0 266095.0 0
295050.0 268364.0 0
292187.0 270757.0 0
298154.0 268132.0 0
202959.0 273896.0 0
207146.0 272382.0 0
208225.0 275975.0 0
211246.0 272218.0 0
212090.0 276021.0 0
217008.0 271291.0 0
215372.0 274243.0 0
223977.0 271571.0 0
220293.0 274869.0 0
227865.0 272881.0 0
225137.0 275923.0 0
234137.0 271820.0 0
231171.0 274784.0 0
237294.0 273710.0 0
240953.0 273172.0 0
249819.0 273477.0 0
245344.0 274381.0 0
254046.0 272951.0 0
258287.0 272845.0 0
263124.0 271973.0 0
261869.0 275694.0 0
266998.0 271398.0 0
270256.0 273448.0 0
274586.0 273915.0 0
278050.0 272092.0 0
282273.0 272836.0 0
287705.0 273713.0 0
292861.0 276083.0 0
296745.0 272217.0 0
297775.0 276225.0 0
302750.0 273286.0 0
201538.0 277082.0 0
202479.0 279942.0 0
204831.0 276974.0 0
206407.0 280399.0 0
213688.0 279293.0 0
210188.0 279529.0 0
216559.0 278056.0 0
219443.0 279394.0 0
222909.0 279597.0 0
228285.0 276765.0 0
227057.0 280317.0 0
230462.0 278678.0 0
233330.0 280010.0 0
234707.0 276677.0 0
238912.0 277464.0 0
236142.0 279885.0 0
242585.0 277076.0 0
241621.0 279638.0 0
248366.0 277647.0 0
245329.0 279704.0 0
249792.0 280731.0 0
252142.0 276968.0 0
253409.0 280471.0 0
258864.0 276968.0 0
255656.0 276611.0 0
257465.0 280360.0 0
262209.0 279835.0 0
266353.0 276725.0 0
265518.0 280936.0 0
268040.0 280817.0 0
270953.0 277603.0 0
274712.0 278123.0 0
270778.0 281232.0 0
273184.0 280530.0 0
279337.0 277220.0 0
284187.0 277583.0 0
283444.0 281112.0 0
288174.0 279550.0 0
292976.0 280803.0 0
297323.0 279681.0 0
304194.0 279055.0 0
202399.0 283362.0 0
202290.0 286651.0 0
209129.0 283177.0 0
205683.0 283726.0 0
208120.0 285665.0 0
205534.0 286544.0 0
212778.0 282576.0 0
211174.0 285726.0 0
216669.0 281856.0 0
219059.0 284794.0 0
215354.0 285648.0 0
219752.0 282237.0 0
223313.0 283840.0 0
227258.0 284591.0 0
230560.0 282538.0 0
234543.0 283391.0 0
230717.0 285950.0 0
238779.0 281491.0 0
238180.0 285261.0 0
242712.0 282944.0 0
244870.0 286097.0 0
247617.0 283506.0 0
251705.0 283864.0 0
250430.0 286272.0 0
255470.0 284335.0 0
260091.0 284099.0 0
264089.0 283048.0 0
266805.0 283582.0 0
269989.0 284525.0 0
273382.0 283596.0 0
276647.0 281519.0 0
280044.0 281981.0 0
277323.0 285954.0 0
281876.0 285842.0 0
290017.0 283341.0 0
286452.0 284130.0 0
294653.0 284635.0 0
291639.0 285439.0 0
297942.0 282908.0 0
297979.0 286193.0 0
197681.0 291217.0 0
202323.0 289860.0 0
209107.0 287736.0 0
206070.0 289722.0 0
212376.0 288508.0 0
209710.0 291099.0 0
218531.0 288130.0 0
215514.0 289516.0 0
218421.0 291603.0 0
221295.0 287053.0 0
221519.0 290236.0 0
224589.0 288212.0 0
228243.0 288692.0 0
233734.0 287184.0 0
231969.0 290723.0 0
236937.0 288463.0 0
239958.0 290257.0 0
235614.0 290934.0 0
241339.0 286777.0 0
244256.0 290071.0 0
247671.0 287701.0 0
253988.0 288343.0 0
250467.0 289667.0 0
257649.0 287013.0 0
257552.0 289903.0 0
264182.0 286756.0 0
260506.0 288225.0 0
260266.0 291283.0 0
263772.0 291474.0 0
267715.0 286735.0 0
270230.0 288062.0 0
267184.0 289775.0 0
273212.0 287383.0 0
274026.0 290716.0 0
277565.0 289954.0 0
280979.0 289813.0 0
285537.0 289152.0 0
289627.0 288091.0 0
293869.0 288333.0 0
294321.0 291590.0 0
297530.0 289194.0 0
202675.0 293294.0 0
202491.0 296634.0 0
206288.0 293505.0 0
206189.0 296865.0 0
213799.0 292809.0 0
210243.0 295659.0 0
216844.0 296129.0 0
221103.0 294140.0 0
224749.0 292684.0 0
228507.0 292875.0 0
228947.0 296449.0 0
232115.0 295182.0 0
237621.0 292319.0 0
234894.0 293756.0 0
238095.0 296498.0 0
240749.0 293332.0 0
243440.0 293839.0 0
242153.0 296753.0 0
248119.0 292684.0 0
246107.0 296690.0 0
253136.0 293195.0 0
250623.0 296704.0 0
256098.0 291899.0 0
258620.0 293269.0 0
256331.0 296082.0 0
262039.0 295500.0 0
270236.0 291894.0 0
266497.0 293584.0 0
269215.0 295976.0 0
273497.0 295087.0 0
280258.0 293517.0 0
276781.0 294021.0 0
283635.0 292549.0 0
284486.0 295627.0 0
290705.0 292105.0 0
287347.0 292919.0 0
287567.0 296486.0 0
294379.0 294367.0 0
291034.0 295875.0 0
297656.0 292497.0 0
297573.0 295663.0 0
201781.0 299547.0 0
204844.0 299245.0 0
208616.0 299649.0 0
206467.0 301722.0 0
213096.0 298971.0 0
219364.0 300110.0 0
215559.0 302004.0 0
221977.0 297307.0 0
223607.0 300767.0 0
225494.0 297395.0 0
227445.0 301581.0 0
233936.0 298528.0 0
230259.0 299363.0 0
243192.0 299754.0 0
239852.0 300689.0 0
247250.0 299992.0 0
253947.0 299077.0 0
250657.0 301638.0 0
259778.0 299416.0 0
256393.0 301624.0 0
263458.0 300748.0 0
265628.0 297383.0 0
267945.0 301775.0 0
275432.0 298603.0 0
271705.0 299333.0 0
277721.0 297174.0 0
279911.0 300192.0 0
276692.0 301063.0 0
281220.0 296769.0 0
283988.0 298765.0 0
283551.0 302044.0 0
287522.0 300260.0 0
294243.0 296867.0 0
291076.0 299105.0 0
293835.0 299449.0 0
297410.0 298910.0 0
196515.0 304849.0 0
202925.0 302636.0 0
202227.0 305659.0 0
207702.0 303760.0 0
205455.0 305128.0 0
210706.0 302241.0 0
213374.0 304683.0 0
209612.0 306079.0 0
217814.0 304428.0 0
221523.0 304126.0 0
225307.0 304426.0 0
231854.0 302308.0 0
229996.0 305058.0 0
233441.0 305029.0 0
236019.0 302432.0 0
238550.0 305403.0 0
235700.0 306509.0 0
241159.0 303773.0 0
244795.0 303141.0 0
242991.0 306840.0 0
248299.0 305222.0 0
253563.0 304032.0 0
252142.0 306690.0 0
259999.0 303851.0 0
257013.0 305815.0 0
262787.0 303784.0 0
266083.0 305603.0 0
273620.0 302487.0 0
270909.0 304417.0 0
273054.0 306155.0 0
280111.0 303864.0 0
276575.0 304702.0 0
283928.0 305586.0 0
281044.0 306967.0 0
290624.0 302495.0 0
286734.0 303879.0 0
289702.0 306251.0 0
293853.0 302609.0 0
294551.0 306069.0 0
297413.0 302236.0 0
298336.0 304822.0 0
303051.0 304181.0 0
195692.0 309767.0 0
202869.0 308601.0 0
206611.0 308004.0 0
206227.0 311467.0 0
212410.0 309357.0 0
209456.0 310948.0 0
216564.0 307160.0 0
216462.0 310823.0 0
220169.0 307844.0 0
223932.0 308716.0 0
219697.0 311221.0 0
227513.0 307887.0 0
226988.0 311945.0 0
232654.0 307793.0 0
230478.0 310680.0 0
236001.0 309592.0 0
238060.0 311913.0 0
239819.0 308536.0 0
243303.0 311668.0 0
239900.0 311757.0 0
245859.0 308109.0 0
247163.0 311289.0 0
249781.0 311916.0 0
254398.0 308299.0 0
249998.0 309103.0 0
252590.0 310822.0 0
259023.0 308756.0 0
256005.0 311522.0 0
262275.0 307478.0 0
263463.0 310664.0 0
269608.0 307376.0 0
266324.0 308826.0 0
270316.0 310733.0 0
267085.0 311807.0 0
273507.0 309279.0 0
277405.0 308706.0 0
280184.0 311292.0 0
282434.0 309360.0 0
284434.0 311976.0 0
285977.0 308515.0 0
289323.0 311341.0 0
293340.0 309823.0 0
297915.0 307212.0 0
297777.0 309797.0 0
202889.0 312314.0 0
201938.0 315634.0 0
208404.0 314221.0 0
205302.0 315380.0 0
213636.0 313322.0 0
211278.0 314526.0 0
211758.0 317087.0 0
217518.0 314190.0 0
215162.0 316682.0 0
223368.0 313256.0 0
220105.0 315727.0 0
228755.0 314496.0 0
233952.0 312755.0 0
231767.0 315728.0 0
237332.0 314968.0 0
235167.0 317165.0 0
240612.0 314129.0 0
244686.0 315416.0 0
241936.0 316476.0 0
247770.0 314245.0 0
251448.0 313939.0 0
255102.0 315645.0 0
258620.0 317109.0 0
260238.0 312668.0 0
263871.0 314168.0 0
262111.0 316887.0 0
267579.0 315705.0 0
273919.0 312758.0 0
271438.0 314654.0 0
274243.0 316371.0 0
276766.0 313128.0 0
278270.0 316872.0 0
281864.0 314226.0 0
284307.0 316948.0 0
286497.0 313457.0 0
290711.0 314972.0 0
287825.0 316473.0 0
293665.0 314169.0 0
294672.0 317189.0 0
297079.0 313023.0 0
297695.0 316233.0 0
202002.0 318153.0 0
202161.0 320735.0 0
208908.0 317419.0 0
205487.0 318315.0 0
205669.0 321601.0 0
209148.0 320490.0 0
211711.0 319601.0 0
218554.0 318103.0 0
214707.0 319938.0 0
217659.0 320680.0 0
221675.0 319066.0 0
225519.0 317592.0 0
229354.0 318475.0 0
228048.0 322342.0 0
232610.0 319219.0 0
239317.0 318152.0 0
236557.0 320131.0 0
242637.0 319555.0 0
240016.0 322240.0 0
243200.0 322422.0 0
249438.0 317454.0 0
246129.0 319058.0 0
252874.0 319393.0 0
250778.0 322260.0 0
255558.0 321531.0 0
258727.0 320659.0 0
264567.0 318359.0 0
261877.0 320218.0 0
269024.0 319184.0 0
265902.0 321317.0 0
271564.0 317686.0 0
273394.0 319281.0 0
271308.0 321949.0 0
276489.0 320565.0 0
278655.0 322488.0 0
281572.0 319207.0 0
285565.0 319607.0 0
281961.0 322199.0 0
285295.0 322069.0 0
288428.0 319123.0 0
288616.0 322350.0 0
291750.0 317843.0 0
294960.0 319691.0 0
291697.0 320948.0 0
298154.0 318623.0 0
298004.0 320904.0 0
202055.0 323301.0 0
202751.0 326160.0 0
206452.0 325089.0 0
210188.0 323714.0 0
213558.0 322876.0 0
211295.0 326944.0 0
217076.0 323951.0 0
214496.0 326600.0 0
217915.0 327512.0 0
220871.0 322835.0 0
221191.0 327091.0 0
224616.0 322732.0 0
224963.0 326787.0 0
227910.0 326741.0 0
231627.0 323008.0 0
231521.0 327305.0 0
235179.0 323149.0 0
237241.0 325265.0 0
239759.0 327208.0 0
241847.0 325338.0 0
244692.0 326480.0 0
247011.0 323122.0 0
249595.0 326671.0 0
252367.0 324910.0 0
259903.0 323795.0 0
255559.0 324661.0 0
258330.0 327256.0 0
263200.0 322618.0 0
263331.0 325712.0 0
268066.0 324027.0 0
266678.0 327211.0 0
274441.0 323575.0 0
270997.0 325228.0 0
272666.0 327097.0 0
278142.0 325088.0 0
276095.0 326644.0 0
281157.0 325482.0 0
285407.0 325148.0 0
283874.0 327162.0 0
288571.0 325382.0 0
293528.0 324195.0 0
291358.0 326089.0 0
296825.0 323807.0 0
297973.0 326707.0 0
196497.0 329713.0 0
202495.0 329178.0 0
201801.0 331751.0 0
207693.0 328360.0 0
205491.0 330389.0 0
210877.0 330723.0 0
214942.0 330053.0 0
218011.0 330885.0 0
221564.0 330866.0 0
225214.0 330320.0 0
227813.0 330028.0 0
227206.0 332776.0 0
230638.0 330724.0 0
233491.0 332249.0 0
234783.0 328014.0 0
237626.0 329423.0 0
236024.0 331874.0 0
240753.0 330432.0 0
243689.0 329952.0 0
247363.0 328779.0 0
248479.0 331828.0 0
253533.0 327730.0 0
251365.0 329676.0 0
253514.0 332575.0 0
255750.0 329337.0 0
259121.0 330899.0 0
257021.0 332374.0 0
261581.0 328020.0 0
262094.0 331642.0 0
265229.0 330529.0 0
269803.0 328712.0 0
270657.0 332151.0 0
273719.0 330798.0 0
279731.0 327793.0 0
277235.0 330328.0 0
282230.0 329602.0 0
280776.0 332465.0 0
285754.0 330540.0 0
287903.0 328233.0 0
289422.0 332114.0 0
291553.0 329193.0 0
294716.0 328022.0 0
294142.0 331333.0 0
297736.0 329258.0 0
297140.0 332233.0 0
303399.0 330083.0 0
202497.0 334312.0 0
201978.0 337171.0 0
209164.0 333491.0 0
205802.0 333434.0 0
205458.0 337136.0 0
208964.0 337115.0 0
214287.0 333391.0 0
212329.0 335766.0 0
217413.0 334380.0 0
217458.0 337848.0 0
220392.0 333843.0 0
222631.0 335852.0 0
224709.0 333638.0 0
229557.0 333543.0 0
226387.0 336058.0 0
228335.0 335890.0 0
232594.0 335473.0 0
229937.0 337846.0 0
239019.0 334348.0 0
236007.0 336530.0 0
242622.0 334732.0 0
245263.0 333194.0 0
246789.0 336831.0 0
250473.0 335353.0 0
254935.0 335623.0 0
258179.0 335564.0 0
261602.0 335531.0 0
267432.0 333315.0 0
265590.0 336223.0 0
268653.0 337674.0 0
274097.0 334646.0 0
271132.0 336326.0 0
274473.0 337816.0 0
276401.0 334190.0 0
279302.0 336210.0 0
284225.0 334156.0 0
282517.0 337466.0 0
290927.0 335983.0 0
287543.0 335233.0 0
290316.0 337468.0 0
292478.0 333654.0 0
294275.0 336397.0 0
297807.0 335148.0 0
297991.0 337812.0 0
197463.0 342732.0 0
202012.0 339537.0 0
201314.0 341503.0 0
205486.0 339765.0 0
204512.0 342238.0 0
207718.0 342746.0 0
214160.0 338033.0 0
209493.0 340227.0 0
212620.0 340647.0 0
217256.0 341078.0 0
215307.0 342926.0 0
220758.0 338193.0 0
219694.0 342519.0 0
222511.0 341212.0 0
225355.0 338814.0 0
228030.0 340327.0 0
232473.0 339313.0 0
231071.0 342424.0 0
235915.0 340157.0 0
239278.0 340578.0 0
240466.0 338128.0 0
243524.0 338147.0 0
244140.0 341158.0 0
241277.0 342983.0 0
247867.0 340309.0 0
252615.0 339519.0 0
257008.0 338601.0 0
258796.0 340493.0 0
261672.0 339827.0 0
265189.0 340023.0 0
268416.0 339662.0 0
269549.0 342230.0 0
266092.0 343034.0 0
271967.0 340122.0 0
274149.0 342086.0 0
276997.0 338448.0 0
277586.0 341824.0 0
284440.0 339023.0 0
280683.0 340462.0 0
282787.0 341971.0 0
287208.0 338237.0 0
290337.0 339473.0 0
285872.0 341720.0 0
288831.0 341225.0 0
293567.0 339510.0 0
297894.0 340067.0 0
297165.0 342858.0 0
201902.0 343605.0 0
202058.0 346025.0 0
205840.0 345836.0 0
212446.0 344064.0 0
209997.0 344061.0 0
212859.0 347256.0 0
209325.0 347450.0 0
219110.0 344983.0 0
216288.0 345920.0 0
224326.0 343709.0 0
221626.0 345663.0 0
224164.0 346915.0 0
220011.0 347891.0 0
226938.0 343460.0 0
226643.0 346928.0 0
229522.0 345819.0 0
233506.0 347174.0 0
234904.0 343915.0 0
237943.0 344825.0 0
237807.0 347602.0 0
244699.0 346226.0 0
241447.0 346793.0 0
245512.0 343921.0 0
248015.0 343905.0 0
249217.0 347052.0 0
246440.0 347618.0 0
250495.0 343104.0 0
255016.0 343131.0 0
251629.0 345244.0 0
254170.0 346599.0 0
258526.0 344008.0 0
258875.0 347107.0 0
261984.0 343443.0 0
263048.0 345865.0 0
266436.0 346145.0 0
270463.0 344835.0 0
273271.0 344640.0 0
270375.0 347354.0 0
275329.0 347400.0 0
278402.0 345281.0 0
280264.0 347993.0 0
281503.0 344175.0 0
283876.0 345400.0 0
286657.0 344721.0 0
290129.0 344346.0 0
290375.0 347726.0 0
293261.0 343076.0 0
294237.0 346056.0 0
297722.0 345802.0 0
202299.0 348574.0 0
203342.0 351679.0 0
205801.0 349231.0 0
209124.0 350756.0 0
213866.0 349815.0 0
211850.0 351950.0 0
217159.0 348849.0 0
217805.0 351554.0 0
221454.0 349245.0 0
224466.0 349989.0 0
220438.0 351799.0 0
223250.0 352961.0 0
229535.0 349366.0 0
227148.0 350395.0 0
227763.0 353046.0 0
232150.0 351147.0 0
235991.0 348747.0 0
239353.0 350015.0 0
234859.0 350929.0 0
237251.0 351330.0 0
243043.0 350027.0 0
241603.0 352905.0 0
249308.0 351527.0 0
245995.0 350700.0 0
251985.0 348813.0 0
252611.0 351480.0 0
256014.0 348784.0 0
255875.0 352228.0 0
259784.0 352053.0 0
261796.0 349085.0 0
264710.0 351393.0 0
267472.0 349392.0 0
269828.0 352135.0 0
272514.0 349137.0 0
273784.0 351389.0 0
276859.0 350580.0 0
279518.0 350900.0 0
275813.0 353130.0 0
283372.0 348185.0 0
283536.0 351820.0 0
287092.0 348105.0 0
287174.0 351816.0 0
290309.0 351017.0 0
293593.0 348377.0 0
293520.0 351385.0 0
297292.0 348614.0 0
297430.0 351428.0 0
201734.0 354464.0 0
201892.0 356484.0 0
206607.0 354152.0 0
206335.0 357490.0 0
210390.0 354750.0 0
211994.0 356947.0 0
214543.0 358283.0 0
214706.0 353573.0 0
217688.0 356172.0 0
220707.0 355685.0 0
225762.0 355497.0 0
228600.0 357795.0 0
230031.0 353626.0 0
233768.0 354343.0 0
230998.0 356326.0 0
235955.0 353263.0 0
239173.0 353574.0 0
237835.0 355488.0 0
235541.0 357412.0 0
244938.0 354397.0 0
242460.0 356479.0 0
239939.0 357295.0 0
247755.0 355399.0 0
251290.0 354259.0 0
254246.0 355449.0 0
250297.0 357368.0 0
252922.0 358054.0 0
257896.0 355577.0 0
257201.0 358282.0 0
261159.0 355023.0 0
264648.0 354781.0 0
260412.0 358059.0 0
264890.0 358092.0 0
267987.0 354674.0 0
269226.0 357205.0 0
272681.0 354048.0 0
272607.0 357219.0 0
277355.0 354992.0 0
279215.0 353420.0 0
275921.0 357168.0 0
280269.0 357332.0 0
282380.0 355158.0 0
285384.0 356886.0 0
290802.0 354265.0 0
288189.0 355396.0 0
293506.0 354655.0 0
292578.0 357883.0 0
297364.0 354250.0 0
296995.0 357391.0 0
202592.0 358793.0 0
202852.0 361551.0 0
207313.0 361361.0 0
210156.0 359305.0 0
212347.0 362064.0 0
218450.0 359999.0 0
215221.0 361376.0 0
218817.0 362883.0 0
223639.0 358462.0 0
221414.0 360773.0 0
226771.0 360759.0 0
225192.0 363164.0 0
228814.0 363452.0 0
232984.0 360021.0 0
230158.0 361174.0 0
238613.0 359937.0 0
236397.0 362926.0 0
244083.0 359620.0 0
241640.0 361966.0 0
247271.0 359647.0 0
249874.0 361575.0 0
253189.0 361544.0 0
256783.0 362024.0 0
262673.0 360367.0 0
264964.0 362484.0 0
267506.0 359066.0 0
269967.0 360761.0 0
267538.0 362016.0 0
272909.0 360793.0 0
278049.0 359404.0 0
275915.0 362364.0 0
282416.0 359807.0 0
285498.0 359853.0 0
280829.0 362024.0 0
289943.0 358548.0 0
286733.0 362932.0 0
290348.0 362036.0 0
293566.0 362979.0 0
296386.0 360565.0 0
302895.0 362935.0 0
202168.0 366505.0 0
202090.0 364179.0 0
205413.0 366172.0 0
205612.0 363858.0 0
208318.0 368006.0 0
208212.0 365728.0 0
210463.0 364339.0 0
212271.0 367143.0 0
214593.0 365570.0 0
216690.0 364453.0 0
219345.0 366714.0 0
222164.0 364234.0 0
222174.0 368348.0 0
225033.0 367032.0 0
227175.0 365697.0 0
229471.0 367152.0 0
233421.0 364894.0 0
230837.0 364653.0 0
233951.0 368235.0 0
239368.0 365568.0 0
244316.0 364217.0 0
242861.0 366778.0 0
246564.0 363847.0 0
249090.0 365397.0 0
245780.0 367007.0 0
252318.0 365448.0 0
253217.0 368305.0 0
260116.0 363365.0 0
255776.0 365926.0 0
257638.0 367538.0 0
264731.0 364766.0 0
261674.0 366203.0 0
268807.0 364295.0 0
266005.0 365561.0 0
268795.0 367002.0 0
271440.0 363854.0 0
273197.0 365860.0 0
271544.0 368171.0 0
275224.0 367206.0 0
278352.0 365000.0 0
279022.0 368492.0 0
283134.0 363586.0 0
282042.0 366110.0 0
284030.0 367374.0 0
290492.0 365482.0 0
286976.0 366231.0 0
294439.0 366147.0 0
291678.0 367923.0 0
298186.0 365703.0 0
298124.0 363644.0 0
202661.0 368949.0 0
202432.0 374012.0 0
202529.0 371340.0 0
205956.0 368665.0 0
206785.0 370642.0 0
210137.0 369083.0 0
210199.0 371760.0 0
213251.0 371691.0 0
214582.0 369115.0 0
217494.0 369322.0 0
217884.0 373091.0 0
220280.0 371337.0 0
223086.0 371177.0 0
226088.0 370090.0 0
228612.0 370138.0 0
232028.0 370388.0 0
232070.0 373830.0 0
237711.0 369026.0 0
236751.0 372743.0 0
243417.0 369715.0 0
240788.0 371211.0 0
248317.0 368840.0 0
246097.0 371932.0 0
248510.0 373979.0 0
250916.0 370968.0 0
253431.0 373136.0 0
255537.0 370169.0 0
257650.0 371417.0 0
259399.0 369418.0 0
263594.0 368930.0 0
261997.0 372013.0 0
266683.0 369002.0 0
268260.0 372478.0 0
272162.0 371996.0 0
275813.0 369809.0 0
276522.0 372852.0 0
278800.0 372436.0 0
280812.0 370513.0 0
283717.0 369918.0 0
281935.0 373080.0 0
288377.0 368969.0 0
286171.0 371577.0 0
292922.0 370472.0 0
290199.0 372796.0 0
297343.0 368167.0 0
297034.0 373928.0 0
200482.0 377376.0 0
196190.0 380596.0 0
198783.0 379263.0 0
204253.0 376397.0 0
202700.0 379585.0 0
206555.0 378109.0 0
206010.0 373141.0 0
209279.0 375176.0 0
210133.0 378842.0 0
212548.0 375695.0 0
215061.0 377919.0 0
214970.0 374023.0 0
218495.0 376642.0 0
220704.0 374470.0 0
220972.0 377021.0 0
223362.0 374400.0 0
223802.0 377592.0 0
226448.0 373990.0 0
228925.0 374534.0 0
226533.0 378198.0 0
229389.0 378199.0 0
235112.0 375565.0 0
231994.0 378754.0 0
238692.0 377116.0 0
240820.0 374777.0 0
244209.0 374311.0 0
242460.0 378184.0 0
245368.0 376944.0 0
244783.0 379685.0 0
248109.0 377522.0 0
250818.0 374674.0 0
251184.0 377455.0 0
258961.0 374247.0 0
255243.0 375857.0 0
257465.0 378580.0 0
263303.0 375410.0 0
260981.0 377817.0 0
264339.0 378271.0 0
265461.0 373972.0 0
266584.0 377377.0 0
268625.0 376314.0 0
270195.0 376528.0 0
273185.0 375656.0 0
271915.0 378913.0 0
277870.0 375877.0 0
275947.0 377924.0 0
280189.0 375164.0 0
284545.0 374732.0 0
282153.0 377522.0 0
287646.0 375944.0 0
284865.0 378439.0 0
286915.0 379019.0 0
290877.0 377749.0 0
292830.0 375059.0 0
296578.0 371116.0 0
297695.0 376822.0 0
294382.0 378005.0 0
300021.0 377077.0 0
301588.0 378318.0 0
303031.0 380073.0 0
298243.0 380223.0 0
186614.0 386159.0 0
188678.0 385000.0 0
193897.0 382779.0 0
191102.0 383770.0 0
200537.0 382170.0 0
198291.0 383320.0 0
199267.0 385419.0 0
203736.0 382179.0 0
202839.0 385457.0 0
207513.0 381389.0 0
206871.0 385416.0 0
210256.0 384128.0 0
212811.0 380606.0 0
214294.0 383532.0 0
217219.0 380458.0 0
217348.0 383329.0 0
219693.0 383789.0 0
219703.0 379735.0 0
222829.0 381592.0 0
228999.0 381668.0 0
226179.0 382771.0 0
231262.0 382582.0 0
234397.0 383216.0 0
235161.0 379603.0 0
238349.0 380716.0 0
241049.0 380832.0 0
242965.0 383526.0 0
245444.0 381655.0 0
248151.0 380910.0 0
253341.0 379846.0 0
250777.0 382262.0 0
252785.0 384065.0 0
258014.0 381652.0 0
260213.0 384023.0 0
255535.0 381881.0 0
261066.0 381101.0 0
263687.0 383373.0 0
264647.0 380800.0 0
267466.0 380494.0 0
267618.0 383150.0 0
269974.0 379576.0 0
270736.0 382350.0 0
274030.0 380721.0 0
272844.0 383518.0 0
276731.0 382182.0 0
277844.0 380276.0 0
275682.0 384345.0 0
278656.0 384062.0 0
280439.0 380029.0 0
283586.0 380367.0 0
280592.0 383162.0 0
283128.0 383663.0 0
285353.0 382167.0 0
288196.0 382396.0 0
290050.0 380307.0 0
292244.0 382129.0 0
295060.0 381129.0 0
295980.0 384479.0 0
298499.0 384984.0 0
300213.0 382256.0 0
302537.0 383991.0 0
305225.0 381564.0 0
307449.0 383309.0 0
306950.0 386433.0 0
310480.0 383638.0 0
312165.0 385843.0 0
179919.0 389463.0 0
178407.0 390729.0 0
184405.0 387155.0 0
182702.0 388959.0 0
182423.0 391478.0 0
190840.0 387743.0 0
187799.0 389418.0 0
194388.0 386585.0 0
191172.0 390364.0 0
194456.0 389406.0 0
197694.0 387848.0 0
197279.0 390850.0 0
199769.0 389615.0 0
202383.0 388643.0 0
207092.0 388682.0 0
209757.0 389838.0 0
211485.0 387018.0 0
214648.0 387026.0 0
217415.0 387285.0 0
220168.0 387170.0 0
222715.0 385665.0 0
224568.0 387508.0 0
222506.0 389374.0 0
227548.0 386368.0 0
230436.0 386048.0 0
233420.0 386560.0 0
235899.0 387690.0 0
237437.0 384268.0 0
239857.0 385790.0 0
238116.0 388670.0 0
245277.0 386390.0 0
242381.0 388332.0 0
247369.0 384041.0 0
246013.0 389633.0 0
253362.0 387950.0 0
250018.0 386820.0 0
255136.0 385020.0 0
257329.0 386453.0 0
258468.0 384311.0 0
259703.0 387497.0 0
262215.0 386138.0 0
263581.0 389855.0 0
266083.0 385117.0 0
269088.0 386981.0 0
266382.0 388203.0 0
269264.0 384650.0 0
271872.0 386440.0 0
274434.0 388161.0 0
276668.0 387000.0 0
279206.0 388548.0 0
281805.0 386883.0 0
284372.0 386841.0 0
286597.0 385805.0 0
289173.0 385383.0 0
287334.0 388832.0 0
291520.0 385087.0 0
289671.0 389109.0 0
293988.0 386560.0 0
291780.0 388846.0 0
295916.0 389330.0 0
298425.0 389486.0 0
300443.0 386991.0 0
303622.0 386925.0 0
301365.0 390893.0 0
304806.0 390295.0 0
309555.0 387766.0 0
310460.0 390606.0 0
313449.0 390757.0 0
314446.0 387181.0 0
316601.0 388361.0 0
318856.0 389419.0 0
317053.0 391405.0 0
320878.0 390832.0 0
324014.0 391686.0 0
172674.0 394147.0 0
174750.0 393419.0 0
170999.0 395295.0 0
174312.0 396411.0 0
176996.0 392571.0 0
178637.0 394835.0 0
181251.0 393744.0 0
183040.0 395596.0 0
186524.0 391755.0 0
189311.0 393867.0 0
185724.0 394392.0 0
192035.0 392738.0 0
194919.0 392550.0 0
191655.0 395887.0 0
196181.0 395240.0 0
199350.0 392736.0 0
204278.0 391037.0 0
201735.0 393831.0 0
205162.0 394280.0 0
206908.0 392424.0 0
208807.0 392910.0 0
212058.0 391323.0 0
212400.0 393794.0 0
214301.0 394234.0 0
214290.0 390144.0 0
216323.0 392117.0 0
219233.0 391398.0 0
221826.0 393358.0 0
225027.0 391704.0 0
226464.0 395153.0 0
228096.0 390314.0 0
229386.0 393398.0 0
230701.0 389645.0 0
233268.0 390350.0 0
232223.0 394128.0 0
235786.0 391367.0 0
238030.0 392008.0 0
240960.0 391053.0 0
244225.0 390964.0 0
244756.0 393318.0 0
241797.0 394027.0 0
248968.0 390713.0 0
247779.0 393951.0 0
252168.0 391774.0 0
255002.0 392961.0 0
251143.0 394667.0 0
255852.0 389718.0 0
258570.0 390082.0 0
258186.0 394942.0 0
260952.0 392357.0 0
263542.0 394877.0 0
265457.0 392853.0 0
268554.0 390661.0 0
267623.0 393118.0 0
271636.0 390134.0 0
270384.0 393936.0 0
274396.0 391951.0 0
276569.0 391467.0 0
280207.0 391986.0 0
283346.0 390333.0 0
283240.0 393844.0 0
285642.0 390784.0 0
284996.0 395577.0 0
287579.0 393507.0 0
293465.0 391713.0 0
289365.0 391495.0 0
292104.0 395659.0 0
291158.0 392458.0 0
295591.0 393905.0 0
298184.0 393895.0 0
303649.0 394498.0 0
300836.0 393709.0 0
306934.0 392813.0 0
307406.0 396215.0 0
310738.0 393931.0 0
312383.0 395489.0 0
318664.0 393285.0 0
314899.0 392877.0 0
316687.0 395283.0 0
321970.0 393210.0 0
322272.0 396248.0 0
325399.0 392909.0 0
326892.0 394117.0 0
325299.0 395870.0 0
328277.0 395910.0 0
330538.0 396762.0 0
164231.0 399535.0 0
162344.0 401862.0 0
167464.0 398979.0 0
169487.0 396980.0 0
167775.0 401735.0 0
172861.0 398664.0 0
170815.0 400747.0 0
174717.0 401672.0 0
176747.0 396855.0 0
177352.0 399382.0 0
180011.0 397044.0 0
180983.0 399930.0 0
184097.0 398673.0 0
185259.0 401451.0 0
186612.0 397312.0 0
189143.0 396771.0 0
188214.0 399618.0 0
187374.0 400866.0 0
190061.0 398937.0 0
193980.0 397534.0 0
193066.0 399918.0 0
190755.0 401429.0 0
198466.0 396501.0 0
196945.0 398960.0 0
198371.0 400866.0 0
201207.0 397684.0 0
203816.0 399209.0 0
206944.0 396696.0 0
210102.0 395067.0 0
208322.0 399668.0 0
210169.0 400367.0 0
215495.0 396234.0 0
211545.0 397232.0 0
213921.0 399365.0 0
217044.0 400050.0 0
217960.0 395606.0 0
219575.0 397115.0 0
219513.0 399778.0 0
222599.0 396329.0 0
223706.0 399155.0 0
227617.0 398329.0 0
230677.0 397043.0 0
231442.0 400682.0 0
235049.0 395790.0 0
238256.0 395465.0 0
240095.0 399259.0 0
242591.0 396921.0 0
244535.0 398199.0 0
244727.0 395719.0 0
247606.0 397188.0 0
252677.0 397135.0 0
250233.0 399826.0 0
256213.0 398792.0 0
259530.0 399677.0 0
260972.0 397025.0 0
262569.0 399094.0 0
267648.0 395880.0 0
265318.0 397512.0 0
269472.0 397706.0 0
272999.0 399925.0 0
272935.0 395979.0 0
276617.0 395905.0 0
276742.0 399146.0 0
278334.0 399907.0 0
279512.0 395195.0 0
281161.0 397748.0 0
285114.0 398859.0 0
288798.0 399567.0 0
289769.0 395901.0 0
291916.0 400633.0 0
294807.0 396734.0 0
297329.0 396840.0 0
294753.0 399607.0 0
299115.0 396943.0 0
297737.0 398705.0 0
298848.0 399777.0 0
303091.0 396689.0 0
301060.0 397901.0 0
302178.0 400704.0 0
304776.0 397448.0 0
307158.0 398994.0 0
304790.0 400480.0 0
309458.0 401027.0 0
309851.0 397050.0 0
314074.0 397666.0 0
310857.0 398698.0 0
314478.0 400167.0 0
318879.0 397351.0 0
318634.0 399758.0 0
324056.0 399327.0 0
321802.0 401230.0 0
326988.0 398662.0 0
329553.0 400314.0 0
332506.0 398941.0 0
332475.0 402126.0 0
335243.0 399969.0 0
153813.0 406537.0 0
157670.0 403847.0 0
155992.0 405760.0 0
160315.0 403099.0 0
165053.0 403095.0 0
160031.0 406406.0 0
164889.0 405898.0 0
169440.0 404021.0 0
167729.0 406552.0 0
172324.0 404017.0 0
172082.0 406676.0 0
178409.0 402552.0 0
175510.0 404982.0 0
178971.0 404944.0 0
182019.0 402671.0 0
184797.0 403656.0 0
181049.0 404858.0 0
183105.0 405400.0 0
188831.0 402535.0 0
187575.0 405105.0 0
195336.0 402183.0 0
192765.0 403915.0 0
190713.0 405451.0 0
194542.0 405934.0 0
199894.0 402821.0 0
196644.0 404483.0 0
198368.0 405747.0 0
202790.0 402478.0 0
203523.0 405090.0 0
206409.0 401377.0 0
206856.0 403664.0 0
209627.0 402808.0 0
212118.0 404016.0 0
214750.0 403928.0 0
217150.0 403334.0 0
219671.0 404089.0 0
222053.0 402068.0 0
223016.0 405644.0 0
224864.0 403175.0 0
227012.0 404786.0 0
226764.0 401193.0 0
229628.0 403611.0 0
234415.0 399411.0 0
234059.0 404153.0 0
237314.0 400848.0 0
237214.0 404433.0 0
240176.0 404512.0 0
242521.0 402033.0 0
246009.0 401456.0 0
248285.0 404690.0 0
251523.0 403037.0 0
254887.0 402199.0 0
256129.0 404661.0 0
258669.0 402477.0 0
261826.0 401934.0 0
265207.0 402944.0 0
267087.0 400579.0 0
269935.0 401128.0 0
271941.0 404433.0 0
269892.0 404217.0 0
274803.0 402865.0 0
277660.0 403258.0 0
280614.0 400451.0 0
280460.0 403682.0 0
283459.0 404860.0 0
283941.0 401562.0 0
286353.0 404242.0 0
288403.0 403154.0 0
290784.0 405553.0 0
292423.0 403843.0 0
296842.0 402165.0 0
295102.0 404422.0 0
297822.0 405273.0 0
300032.0 403016.0 0
301604.0 406346.0 0
307047.0 403599.0 0
304402.0 404565.0 0
308779.0 406515.0 0
311961.0 402102.0 0
311201.0 404944.0 0
314198.0 404718.0 0
316533.0 401966.0 0
316685.0 405843.0 0
319550.0 402733.0 0
323638.0 403478.0 0
319910.0 406048.0 0
322659.0 405304.0 0
324376.0 405632.0 0
325785.0 402489.0 0
328518.0 402140.0 0
327144.0 405259.0 0
331963.0 404146.0 0
329975.0 405352.0 0
335313.0 404370.0 0
337398.0 402342.0 0
339033.0 406422.0 0
340193.0 403048.0 0
342608.0 404313.0 0
344600.0 406650.0 0
146920.0 410171.0 0
151636.0 407774.0 0
149910.0 409710.0 0
153805.0 409476.0 0
157472.0 408341.0 0
155897.0 411458.0 0
162438.0 407468.0 0
159764.0 410076.0 0
163119.0 410128.0 0
166332.0 409265.0 0
169525.0 408402.0 0
165766.0 411164.0 0
173863.0 407931.0 0
170169.0 411106.0 0
173064.0 410376.0 0
177101.0 407523.0 0
180192.0 408726.0 0
175992.0 411003.0 0
179079.0 411463.0 0
182975.0 408381.0 0
183047.0 411348.0 0
186477.0 408040.0 0
186288.0 411590.0 0
189446.0 409745.0 0
191358.0 407909.0 0
194111.0 408378.0 0
194153.0 411281.0 0
196828.0 407964.0 0
200850.0 406637.0 0
197889.0 409576.0 0
205104.0 407671.0 0
200909.0 409447.0 0
204676.0 410961.0 0
207929.0 406368.0 0
208598.0 411326.0 0
214478.0 407613.0 0
210904.0 408112.0 0
213311.0 411241.0 0
216635.0 406785.0 0
215668.0 410157.0 0
219208.0 407632.0 0
221690.0 407680.0 0
224127.0 410575.0 0
225797.0 407335.0 0
228847.0 408835.0 0
231626.0 407128.0 0
234679.0 408061.0 0
237338.0 408353.0 0
239840.0 409102.0 0
242702.0 406903.0 0
245409.0 405851.0 0
247010.0 408270.0 0
249951.0 408909.0 0
252379.0 406315.0 0
254744.0 407954.0 0
257611.0 409368.0 0
258685.0 405843.0 0
261472.0 405480.0 0
263311.0 408528.0 0
260683.0 410270.0 0
265293.0 405927.0 0
266298.0 410114.0 0
268013.0 405716.0 0
269305.0 408045.0 0
271758.0 408204.0 0
274415.0 406986.0 0
277434.0 407676.0 0
280136.0 407561.0 0
283465.0 409232.0 0
286591.0 407352.0 0
288660.0 410920.0 0
289132.0 407776.0 0
293583.0 408302.0 0
291551.0 409464.0 0
295931.0 407534.0 0
299024.0 408283.0 0
303871.0 409216.0 0
306379.0 408692.0 0
308567.0 411622.0 0
313411.0 407528.0 0
310939.0 409265.0 0
314539.0 411171.0 0
316495.0 408491.0 0
320372.0 409244.0 0
323873.0 410005.0 0
325998.0 408092.0 0
328729.0 409431.0 0
329763.0 411875.0 0
330364.0 407910.0 0
332246.0 408585.0 0
333712.0 406725.0 0
331976.0 410405.0 0
334809.0 410124.0 0
336623.0 408059.0 0
338451.0 410596.0 0
341295.0 407597.0 0
341188.0 410917.0 0
343720.0 411249.0 0
346859.0 408248.0 0
350026.0 408912.0 0
347190.0 411744.0 0
352323.0 411216.0 0
138260.0 416673.0 0
140704.0 415106.0 0
142634.0 413337.0 0
145157.0 412319.0 0
147349.0 414504.0 0
144828.0 416685.0 0
149298.0 417085.0 0
150369.0 412434.0 0
153612.0 413694.0 0
152353.0 416583.0 0
159130.0 412999.0 0
155971.0 415919.0 0
162765.0 412642.0 0
163968.0 414263.0 0
159963.0 415577.0 0
162455.0 417075.0 0
167509.0 412598.0 0
166867.0 414963.0 0
171853.0 414107.0 0
174618.0 413715.0 0
170195.0 415871.0 0
179612.0 414070.0 0
176717.0 415775.0 0
182517.0 413930.0 0
183528.0 417340.0 0
184946.0 413846.0 0
186309.0 416228.0 0
188137.0 413870.0 0
191020.0 412366.0 0
191813.0 415107.0 0
194325.0 416359.0 0
196539.0 412941.0 0
199682.0 412411.0 0
198054.0 415689.0 0
199872.0 416014.0 0
203122.0 414606.0 0
206594.0 415721.0 0
209777.0 414616.0 0
213661.0 414554.0 0
218210.0 410923.0 0
216866.0 413994.0 0
219215.0 415227.0 0
221030.0 411988.0 0
221736.0 414956.0 0
224143.0 414679.0 0
226659.0 414094.0 0
228131.0 411676.0 0
232184.0 411169.0 0
235253.0 411773.0 0
230758.0 414239.0 0
237726.0 413018.0 0
240126.0 412894.0 0
244945.0 410916.0 0
242047.0 410936.0 0
243194.0 414994.0 0
248145.0 412667.0 0
252836.0 411150.0 0
250970.0 414475.0 0
253713.0 415151.0 0
256162.0 412885.0 0
259942.0 413416.0 0
261919.0 415151.0 0
262866.0 412784.0 0
269274.0 410859.0 0
265894.0 413772.0 0
268975.0 414985.0 0
271961.0 412656.0 0
277977.0 411120.0 0
275230.0 411454.0 0
276448.0 414609.0 0
278797.0 415070.0 0
280539.0 412293.0 0
281472.0 416237.0 0
282940.0 414559.0 0
286038.0 412398.0 0
287511.0 415669.0 0
291412.0 412295.0 0
290364.0 414855.0 0
294248.0 412733.0 0
292188.0 416454.0 0
296569.0 411683.0 0
299366.0 411775.0 0
294858.0 416194.0 0
297527.0 415740.0 0
302497.0 411671.0 0
299821.0 415144.0 0
303972.0 414925.0 0
307035.0 413972.0 0
311416.0 413003.0 0
311718.0 415337.0 0
318454.0 412108.0 0
314724.0 415068.0 0
319692.0 414998.0 0
323990.0 413050.0 0
322914.0 415945.0 0
327232.0 413253.0 0
327489.0 416289.0 0
334499.0 412464.0 0
330558.0 416604.0 0
332682.0 414584.0 0
337076.0 412683.0 0
335770.0 416929.0 0
338385.0 415809.0 0
340643.0 414158.0 0
343391.0 415423.0 0
345430.0 413897.0 0
349762.0 413005.0 0
347086.0 416106.0 0
349804.0 415415.0 0
354855.0 413094.0 0
353031.0 415539.0 0
357465.0 414564.0 0
360224.0 415481.0 0
127879.0 422480.0 0
133586.0 420220.0 0
130735.0 421625.0 0
136208.0 418423.0 0
138464.0 421289.0 0
142333.0 418130.0 0
141005.0 420682.0 0
145584.0 420136.0 0
148147.0 419852.0 0
153266.0 419081.0 0
150890.0 420769.0 0
157490.0 417683.0 0
155459.0 420841.0 0
159458.0 419562.0 0
158374.0 421789.0 0
161661.0 419873.0 0
165741.0 417722.0 0
169455.0 418214.0 0
165739.0 420411.0 0
168751.0 420122.0 0
173073.0 417331.0 0
171799.0 419715.0 0
176200.0 419101.0 0
178707.0 421196.0 0
180397.0 417962.0 0
184550.0 420408.0 0
180744.0 420412.0 0
189389.0 417124.0 0
187445.0 419564.0 0
191746.0 419218.0 0
194707.0 421342.0 0
196445.0 418725.0 0
199307.0 419115.0 0
202851.0 419051.0 0
209750.0 418464.0 0
206645.0 419320.0 0
213056.0 418256.0 0
210859.0 421221.0 0
213467.0 421165.0 0
216186.0 417998.0 0
219220.0 418105.0 0
216133.0 421149.0 0
219633.0 421110.0 0
224849.0 417627.0 0
221886.0 417647.0 0
228527.0 417133.0 0
227978.0 420800.0 0
232096.0 418928.0 0
234058.0 415984.0 0
234814.0 420395.0 0
236923.0 416460.0 0
237361.0 419960.0 0
239885.0 417097.0 0
241882.0 419595.0 0
244808.0 420388.0 0
246210.0 416675.0 0
249733.0 418264.0 0
252720.0 419512.0 0
258003.0 416493.0 0
254526.0 417236.0 0
256305.0 419306.0 0
261094.0 418777.0 0
264379.0 416577.0 0
265302.0 420573.0 0
266998.0 417995.0 0
270582.0 418624.0 0
273906.0 416678.0 0
276228.0 419222.0 0
284338.0 416971.0 0
279280.0 418321.0 0
282611.0 419086.0 0
286013.0 419326.0 0
288893.0 418684.0 0
291143.0 418030.0 0
292699.0 419905.0 0
295328.0 419401.0 0
298499.0 419351.0 0
301986.0 418408.0 0
309412.0 417152.0 0
306049.0 419585.0 0
309425.0 421768.0 0
312491.0 418470.0 0
312544.0 421786.0 0
315009.0 417711.0 0
318429.0 417695.0 0
315547.0 421219.0 0
318533.0 420524.0 0
321526.0 418909.0 0
321415.0 421319.0 0
324604.0 421945.0 0
325145.0 418481.0 0
328438.0 420112.0 0
333361.0 418447.0 0
331026.0 419569.0 0
332905.0 422082.0 0
335837.0 420525.0 0
339268.0 422157.0 0
340378.0 418957.0 0
343179.0 418090.0 0
346930.0 418686.0 0
349657.0 419325.0 0
345257.0 421055.0 0
350351.0 421866.0 0
351437.0 417507.0 0
353937.0 418829.0 0
352953.0 421589.0 0
356053.0 417887.0 0
358106.0 419301.0 0
359751.0 418497.0 0
357894.0 422301.0 0
360558.0 421943.0 0
362622.0 417439.0 0
365396.0 418427.0 0
362414.0 420330.0 0
364993.0 422417.0 0
367360.0 420130.0 0
370188.0 421132.0 0
372237.0 422108.0 0
120154.0 426523.0 0
123406.0 426372.0 0
125917.0 424835.0 0
128669.0 426498.0 0
131167.0 424884.0 0
135937.0 423113.0 0
138303.0 424063.0 0
134266.0 426073.0 0
140987.0 424019.0 0
143877.0 422568.0 0
140570.0 426915.0 0
143834.0 426589.0 0
145403.0 424065.0 0
148001.0 422839.0 0
146390.0 426432.0 0
151500.0 422616.0 0
149458.0 424518.0 0
154046.0 423859.0 0
151344.0 426454.0 0
159670.0 424259.0 0
156788.0 425412.0 0
162756.0 422656.0 0
168038.0 422960.0 0
165242.0 426029.0 0
171478.0 423076.0 0
171932.0 426679.0 0
174903.0 427208.0 0
175158.0 422464.0 0
179475.0 423088.0 0
177029.0 424789.0 0
178857.0 426879.0 0
182821.0 423093.0 0
182087.0 426546.0 0
187179.0 424445.0 0
189386.0 422077.0 0
185645.0 427835.0 0
190304.0 426728.0 0
192167.0 423262.0 0
193446.0 426486.0 0
198668.0 422181.0 0
196420.0 424357.0 0
201536.0 423388.0 0
204492.0 422274.0 0
204146.0 425469.0 0
206919.0 422671.0 0
206459.0 426741.0 0
209900.0 424641.0 0
213501.0 424650.0 0
216052.0 424219.0 0
219027.0 424317.0 0
223807.0 421582.0 0
222079.0 425312.0 0
226915.0 424444.0 0
229645.0 424280.0 0
230838.0 421826.0 0
233516.0 423426.0 0
239989.0 422277.0 0
236908.0 424357.0 0
240826.0 426323.0 0
243047.0 423164.0 0
244392.0 425479.0 0
247800.0 422881.0 0
251731.0 423304.0 0
258098.0 421314.0 0
254992.0 422254.0 0
256050.0 425417.0 0
259188.0 424265.0 0
262256.0 422650.0 0
263848.0 425597.0 0
268427.0 421720.0 0
266075.0 423738.0 0
267361.0 425360.0 0
272719.0 421493.0 0
270288.0 424429.0 0
272905.0 425897.0 0
275069.0 423112.0 0
277995.0 422914.0 0
279946.0 421650.0 0
280989.0 424525.0 0
283068.0 422592.0 0
284372.0 426456.0 0
286440.0 421947.0 0
287795.0 425370.0 0
290481.0 422012.0 0
293233.0 425059.0 0
295437.0 422212.0 0
296861.0 425782.0 0
298677.0 422983.0 0
301776.0 422069.0 0
300502.0 425551.0 0
304330.0 426308.0 0
304818.0 422540.0 0
308471.0 425207.0 0
311340.0 425309.0 0
313630.0 425272.0 0
316841.0 424979.0 0
320216.0 424359.0 0
328002.0 422320.0 0
324877.0 425642.0 0
327986.0 425446.0 0
330355.0 424038.0 0
331623.0 427096.0 0
333746.0 425951.0 0
335281.0 423970.0 0
337976.0 425117.0 0
335892.0 426667.0 0
343186.0 423667.0 0
342337.0 426763.0 0
348397.0 422993.0 0
346995.0 425754.0 0
350321.0 426333.0 0
351894.0 424771.0 0
355434.0 423581.0 0
354691.0 426684.0 0
358346.0 426569.0 0
360781.0 425678.0 0
363164.0 424546.0 0
365077.0 426868.0 0
368595.0 423700.0 0
368290.0 426518.0 0
372205.0 424569.0 0
374270.0 423970.0 0
371573.0 426887.0 0
375170.0 427047.0 0
376450.0 424601.0 0
378058.0 426896.0 0
380486.0 427639.0 0
113336.0 432325.0 0
118486.0 428862.0 0
116269.0 430947.0 0
121732.0 429271.0 0
122677.0 432330.0 0
126078.0 428679.0 0
126162.0 430933.0 0
129707.0 428663.0 0
132551.0 428857.0 0
133761.0 430826.0 0
129498.0 431446.0 0
137122.0 427840.0 0
136616.0 431013.0 0
139194.0 432713.0 0
141860.0 430063.0 0
147716.0 428978.0 0
144862.0 430814.0 0
149485.0 431377.0 0
153110.0 428675.0 0
152594.0 431865.0 0
156355.0 428257.0 0
159355.0 428879.0 0
156348.0 431312.0 0
159433.0 431813.0 0
161123.0 427333.0 0
163251.0 429590.0 0
168799.0 427336.0 0
165609.0 430901.0 0
168073.0 430320.0 0
171652.0 430280.0 0
175352.0 430252.0 0
178224.0 429630.0 0
181431.0 429762.0 0
180648.0 431960.0 0
184315.0 430939.0 0
188724.0 429482.0 0
191512.0 428945.0 0
191281.0 431171.0 0
195003.0 429795.0 0
198986.0 426936.0 0
199569.0 430099.0 0
202451.0 428069.0 0
204656.0 428874.0 0
202329.0 431169.0 0
205047.0 432030.0 0
207032.0 429652.0 0
208326.0 432024.0 0
210426.0 428651.0 0
210972.0 431909.0 0
213916.0 428323.0 0
213580.0 431606.0 0
217144.0 427956.0 0
220599.0 428648.0 0
224854.0 426919.0 0
223642.0 429269.0 0
226018.0 431400.0 0
228014.0 428240.0 0
231813.0 427171.0 0
235805.0 427464.0 0
235758.0 430999.0 0
238793.0 429324.0 0
242695.0 429414.0 0
245624.0 428475.0 0
248758.0 427101.0 0
252727.0 426950.0 0
251546.0 430589.0 0
257429.0 428459.0 0
255224.0 429501.0 0
260672.0 427536.0 0
262856.0 429943.0 0
269240.0 428100.0 0
265907.0 428516.0 0
272524.0 428936.0 0
270421.0 432044.0 0
275852.0 426942.0 0
278903.0 426379.0 0
275430.0 430358.0 0
278340.0 430102.0 0
281769.0 428539.0 0
284460.0 431502.0 0
286948.0 429805.0 0
290549.0 428429.0 0
292848.0 431367.0 0
298822.0 427886.0 0
294883.0 428492.0 0
296908.0 429355.0 0
302060.0 429872.0 0
306909.0 429873.0 0
310195.0 428862.0 0
312835.0 428025.0 0
314790.0 431538.0 0
314936.0 429245.0 0
317460.0 428237.0 0
319132.0 430792.0 0
321517.0 427444.0 0
322765.0 431033.0 0
329527.0 428480.0 0
326652.0 430202.0 0
331762.0 430672.0 0
333150.0 429395.0 0
335049.0 431847.0 0
335648.0 429224.0 0
339806.0 427671.0 0
338631.0 429979.0 0
343236.0 429514.0 0
345897.0 428363.0 0
342783.0 432202.0 0
349834.0 429199.0 0
347541.0 430838.0 0
353102.0 427624.0 0
352639.0 430699.0 0
355490.0 430980.0 0
357177.0 428566.0 0
360333.0 430874.0 0
361380.0 428558.0 0
364117.0 429111.0 0
365919.0 431639.0 0
368514.0 429528.0 0
373465.0 429062.0 0
371076.0 430950.0 0
376020.0 431379.0 0
377926.0 429917.0 0
380321.0 430619.0 0
382608.0 429393.0 0
384792.0 430857.0 0
387438.0 432146.0 0
107251.0 435309.0 0
110365.0 434087.0 0
110965.0 437298.0 0
114208.0 435699.0 0
118757.0 433019.0 0
116761.0 435143.0 0
122295.0 436440.0 0
126961.0 433500.0 0
126445.0 435422.0 0
128872.0 436207.0 0
131706.0 434137.0 0
133512.0 437777.0 0
135354.0 433759.0 0
137455.0 436351.0 0
141956.0 434353.0 0
141244.0 436728.0 0
145320.0 434192.0 0
148246.0 433908.0 0
145136.0 437277.0 0
147879.0 437647.0 0
153451.0 435036.0 0
149919.0 435938.0 0
157024.0 434485.0 0
155814.0 437423.0 0
159241.0 436375.0 0
162224.0 432691.0 0
164905.0 435239.0 0
168202.0 433558.0 0
171447.0 434098.0 0
175290.0 433950.0 0
178679.0 432844.0 0
177533.0 437040.0 0
182893.0 433669.0 0
180859.0 436087.0 0
187069.0 432390.0 0
185253.0 434719.0 0
187052.0 436684.0 0
189740.0 434556.0 0
193799.0 434288.0 0
197740.0 432096.0 0
196887.0 436417.0 0
200787.0 434120.0 0
203716.0 435586.0 0
206999.0 434711.0 0
210322.0 435020.0 0
213805.0 435461.0 0
216665.0 432372.0 0
219968.0 432246.0 0
217442.0 436831.0 0
222889.0 432220.0 0
220570.0 435578.0 0
223186.0 434616.0 0
229512.0 432308.0 0
226205.0 435360.0 0
230517.0 435821.0 0
232520.0 431054.0 0
233441.0 434020.0 0
236956.0 433805.0 0
240561.0 432747.0 0
244507.0 432777.0 0
248152.0 431601.0 0
247490.0 435701.0 0
250877.0 434544.0 0
259106.0 431863.0 0
254885.0 433169.0 0
258544.0 435441.0 0
263225.0 433716.0 0
266581.0 432273.0 0
268604.0 435354.0 0
273847.0 434434.0 0
277782.0 433446.0 0
280948.0 432630.0 0
280856.0 436360.0 0
284187.0 434863.0 0
289270.0 431998.0 0
287139.0 433620.0 0
291102.0 435713.0 0
296140.0 432411.0 0
295412.0 435858.0 0
299055.0 436658.0 0
299742.0 432285.0 0
303396.0 435984.0 0
304972.0 432437.0 0
309177.0 433404.0 0
307663.0 436432.0 0
312280.0 432576.0 0
311035.0 437129.0 0
314367.0 436232.0 0
317398.0 433440.0 0
319832.0 436903.0 0
322446.0 434309.0 0
326719.0 433809.0 0
325125.0 435443.0 0
327553.0 436951.0 0
328942.0 435117.0 0
330324.0 432597.0 0
333616.0 434372.0 0
331344.0 437118.0 0
339196.0 432584.0 0
337793.0 435127.0 0
342089.0 435245.0 0
345158.0 436444.0 0
346100.0 433321.0 0
349826.0 436328.0 0
350809.0 433178.0 0
353960.0 434034.0 0
353818.0 436528.0 0
357723.0 433324.0 0
356344.0 435754.0 0
360570.0 435900.0 0
362749.0 433131.0 0
364423.0 435509.0 0
367787.0 433964.0 0
366924.0 436850.0 0
371378.0 434749.0 0
374504.0 433965.0 0
376824.0 435629.0 0
378501.0 433721.0 0
380524.0 432960.0 0
379604.0 437130.0 0
383142.0 433679.0 0
385831.0 434360.0 0
382294.0 436784.0 0
389791.0 434025.0 0
388351.0 436296.0 0
390536.0 437783.0 0
392658.0 435798.0 0
96366.6 442149.0 0
98987.5 441056.0 0
101704.0 439506.0 0
102964.0 442794.0 0
104759.0 437958.0 0
105448.0 441287.0 0
107796.0 438291.0 0
108217.0 440270.0 0
107243.0 442359.0 0
112181.0 440198.0 0
109656.0 442154.0 0
115292.0 438698.0 0
118607.0 438924.0 0
113986.0 442648.0 0
116966.0 442630.0 0
120955.0 441940.0 0
124890.0 439803.0 0
128330.0 438976.0 0
130982.0 440669.0 0
133425.0 442716.0 0
135616.0 440672.0 0
138357.0 439740.0 0
141804.0 439004.0 0
142804.0 441728.0 0
145678.0 440057.0 0
147878.0 441922.0 0
150143.0 439469.0 0
153004.0 438586.0 0
151638.0 441368.0 0
153176.0 441819.0 0
154935.0 440136.0 0
157219.0 438742.0 0
156374.0 442256.0 0
158984.0 440906.0 0
161971.0 438463.0 0
164321.0 440279.0 0
167403.0 437660.0 0
166546.0 439890.0 0
167209.0 442360.0 0
170577.0 438042.0 0
173937.0 438336.0 0
170137.0 441380.0 0
174875.0 440860.0 0
172663.0 441221.0 0
177975.0 440252.0 0
180938.0 439539.0 0
184000.0 437928.0 0
181950.0 442223.0 0
185203.0 440942.0 0
188538.0 439723.0 0
191407.0 437842.0 0
194181.0 440147.0 0
198069.0 440758.0 0
200684.0 438172.0 0
204362.0 438553.0 0
202190.0 442087.0 0
207141.0 437964.0 0
210402.0 438707.0 0
214280.0 439595.0 0
217384.0 440665.0 0
220015.0 439013.0 0
223218.0 438108.0 0
225111.0 441444.0 0
227623.0 438556.0 0
229565.0 441555.0 0
232142.0 438845.0 0
234969.0 436569.0 0
239061.0 437073.0 0
236075.0 440304.0 0
239852.0 441212.0 0
243258.0 437165.0 0
247629.0 440186.0 0
250354.0 437525.0 0
253394.0 437221.0 0
251917.0 440359.0 0
255494.0 440853.0 0
256532.0 437407.0 0
258967.0 439560.0 0
261106.0 437140.0 0
262556.0 441227.0 0
265972.0 438330.0 0
269546.0 441767.0 0
271542.0 437954.0 0
274622.0 440497.0 0
277334.0 437644.0 0
280077.0 441004.0 0
283361.0 438741.0 0
286667.0 437074.0 0
286136.0 440510.0 0
289187.0 440002.0 0
291617.0 441316.0 0
293343.0 439089.0 0
296299.0 439383.0 0
299517.0 440210.0 0
302930.0 440431.0 0
307243.0 440224.0 0
311209.0 440570.0 0
314696.0 440316.0 0
318233.0 440485.0 0
324709.0 438220.0 0
322687.0 440057.0 0
324419.0 441962.0 0
329030.0 438934.0 0
326609.0 440316.0 0
330445.0 441427.0 0
333531.0 440435.0 0
335481.0 437674.0 0
340275.0 437856.0 0
337987.0 440507.0 0
344076.0 440130.0 0
348172.0 440073.0 0
352300.0 439560.0 0
355309.0 439690.0 0
350843.0 442360.0 0
359181.0 439352.0 0
363827.0 437704.0 0
363411.0 441010.0 0
366651.0 439307.0 0
370372.0 438195.0 0
369060.0 440810.0 0
373093.0 439376.0 0
375028.0 437867.0 0
373392.0 441766.0 0
376136.0 442247.0 0
377722.0 439870.0 0
380607.0 441519.0 0
382696.0 440327.0 0
385779.0 437945.0 0
384327.0 442526.0 0
387249.0 440884.0 0
389730.0 439622.0 0
392045.0 439938.0 0
395112.0 438058.0 0
392520.0 442893.0 0
395645.0 441747.0 0
398094.0 438732.0 0
400320.0 440661.0 0
403214.0 442384.0 0
91329.4 445464.0 0
88920.8 447607.0 0
94319.9 444504.0 0
96258.6 447005.0 0
99491.3 444432.0 0
101204.0 446598.0 0
104361.0 445442.0 0
106723.0 444554.0 0
108478.0 445760.0 0
110161.0 444385.0 0
112829.0 445492.0 0
116014.0 446194.0 0
118588.0 447254.0 0
118927.0 444183.0 0
121946.0 444028.0 0
121904.0 447018.0 0
125484.0 443062.0 0
128891.0 443461.0 0
125289.0 446415.0 0
128057.0 446653.0 0
131335.0 446027.0 0
136508.0 443176.0 0
134628.0 445503.0 0
137776.0 446381.0 0
139475.0 443111.0 0
141505.0 445647.0 0
144911.0 444944.0 0
148047.0 447363.0 0
150168.0 444089.0 0
153759.0 445203.0 0
158433.0 444710.0 0
155980.0 447592.0 0
161492.0 442767.0 0
164378.0 442934.0 0
161912.0 445649.0 0
164531.0 445492.0 0
167752.0 445555.0 0
174759.0 443791.0 0
171405.0 444806.0 0
178771.0 443615.0 0
176478.0 447477.0 0
183554.0 445049.0 0
180712.0 446518.0 0
186936.0 444404.0 0
190469.0 443112.0 0
191041.0 447044.0 0
194790.0 444463.0 0
198276.0 443997.0 0
201418.0 446546.0 0
204426.0 446006.0 0
206971.0 442618.0 0
211551.0 442831.0 0
214945.0 443189.0 0
209912.0 446935.0 0
213344.0 445966.0 0
217497.0 443852.0 0
221028.0 442258.0 0
220560.0 446618.0 0
224352.0 445460.0 0
227814.0 444490.0 0
232979.0 443174.0 0
230841.0 446611.0 0
234334.0 446937.0 0
236706.0 444488.0 0
239970.0 445371.0 0
243694.0 442191.0 0
243149.0 446222.0 0
246528.0 445233.0 0
253417.0 443326.0 0
250150.0 443992.0 0
258881.0 442760.0 0
256191.0 444994.0 0
259055.0 447122.0 0
261756.0 444607.0 0
266062.0 444189.0 0
269582.0 446555.0 0
272848.0 444035.0 0
277421.0 442646.0 0
276424.0 445493.0 0
280725.0 446152.0 0
283731.0 443234.0 0
287894.0 443987.0 0
291958.0 445429.0 0
295169.0 442350.0 0
298701.0 443383.0 0
296160.0 446484.0 0
302595.0 444511.0 0
307037.0 444535.0 0
311310.0 444458.0 0
314644.0 444106.0 0
317389.0 443741.0 0
316693.0 446767.0 0
319113.0 446044.0 0
321174.0 443196.0 0
323745.0 445734.0 0
327457.0 444107.0 0
334194.0 444515.0 0
331274.0 444703.0 0
337167.0 443421.0 0
339344.0 445700.0 0
341912.0 443373.0 0
345365.0 444965.0 0
343525.0 447018.0 0
346699.0 443326.0 0
349323.0 445127.0 0
347769.0 447486.0 0
354564.0 443644.0 0
351931.0 446407.0 0
358593.0 443319.0 0
355986.0 447227.0 0
358994.0 446314.0 0
361715.0 443880.0 0
362088.0 446237.0 0
364689.0 446348.0 0
366201.0 443377.0 0
369233.0 445668.0 0
371374.0 443174.0 0
375134.0 446095.0 0
378112.0 444884.0 0
380082.0 443749.0 0
380176.0 447634.0 0
381838.0 445723.0 0
384002.0 444819.0 0
386697.0 445383.0 0
389060.0 443550.0 0
387119.0 447959.0 0
390620.0 447614.0 0
393768.0 446324.0 0
398460.0 443501.0 0
397052.0 446552.0 0
401786.0 445306.0 0
405882.0 443836.0 0
404960.0 446514.0 0
408460.0 445411.0 0
411157.0 446927.0 0
82867.9 450988.0 0
80099.8 452971.0 0
85767.0 449213.0 0
87505.1 451686.0 0
92277.3 449331.0 0
90305.6 452094.0 0
94469.4 451361.0 0
97785.2 449722.0 0
97836.4 452647.0 0
101408.0 449666.0 0
102134.0 452620.0 0
105130.0 448504.0 0
108464.0 448585.0 0
105405.0 451724.0 0
111827.0 448160.0 0
111983.0 450764.0 0
108636.0 451828.0 0
115175.0 449068.0 0
118610.0 450125.0 0
114489.0 451561.0 0
116971.0 451831.0 0
122467.0 450090.0 0
120701.0 452737.0 0
125587.0 449134.0 0
128284.0 449100.0 0
127947.0 451204.0 0
125481.0 452233.0 0
131543.0 449354.0 0
130002.0 452514.0 0
135418.0 449617.0 0
138782.0 451561.0 0
140308.0 448244.0 0
143655.0 448880.0 0
142647.0 452598.0 0
146702.0 450760.0 0
151791.0 449219.0 0
149834.0 452833.0 0
158732.0 447901.0 0
155440.0 450988.0 0
158792.0 450880.0 0
161791.0 448762.0 0
161363.0 452926.0 0
165103.0 448581.0 0
168618.0 448982.0 0
165068.0 451963.0 0
168369.0 452224.0 0
172310.0 448676.0 0
174317.0 451516.0 0
179871.0 449613.0 0
176498.0 450752.0 0
184205.0 448329.0 0
182709.0 451839.0 0
187677.0 447503.0 0
186691.0 451186.0 0
189250.0 449956.0 0
191934.0 450778.0 0
194899.0 448526.0 0
197960.0 447183.0 0
199245.0 450076.0 0
196043.0 452597.0 0
203491.0 450521.0 0
206544.0 447700.0 0
208312.0 451402.0 0
212501.0 449561.0 0
216231.0 447582.0 0
216338.0 452317.0 0
219466.0 449929.0 0
223447.0 450092.0 0
227190.0 448320.0 0
227549.0 451603.0 0
233628.0 449671.0 0
230684.0 450723.0 0
237269.0 448968.0 0
244806.0 448828.0 0
241056.0 449182.0 0
249137.0 448842.0 0
246508.0 451851.0 0
253250.0 447105.0 0
252611.0 450859.0 0
256177.0 449910.0 0
263861.0 447942.0 0
260762.0 450949.0 0
267407.0 449501.0 0
273456.0 448871.0 0
270445.0 450998.0 0
277484.0 448705.0 0
276891.0 452029.0 0
279865.0 450067.0 0
285151.0 446967.0 0
283481.0 450178.0 0
288834.0 449262.0 0
286422.0 452261.0 0
291125.0 452694.0 0
294239.0 450578.0 0
299279.0 448077.0 0
298480.0 451775.0 0
303181.0 448517.0 0
301574.0 450824.0 0
303943.0 451428.0 0
306837.0 449192.0 0
310531.0 448191.0 0
313754.0 448570.0 0
310449.0 451588.0 0
314096.0 452695.0 0
317525.0 450184.0 0
321393.0 449157.0 0
325160.0 451470.0 0
326209.0 448499.0 0
330021.0 448181.0 0
328081.0 451152.0 0
333498.0 448497.0 0
330983.0 452402.0 0
336893.0 447640.0 0
338739.0 450350.0 0
340910.0 448507.0 0
345433.0 449824.0 0
342900.0 450638.0 0
349979.0 450126.0 0
347234.0 452677.0 0
352861.0 448781.0 0
354581.0 451652.0 0
357539.0 450569.0 0
360992.0 449909.0 0
364750.0 450277.0 0
367515.0 448429.0 0
370743.0 451536.0 0
372334.0 447968.0 0
375204.0 451608.0 0
377574.0 449277.0 0
377686.0 452849.0 0
380061.0 451909.0 0
382472.0 450000.0 0
384342.0 448197.0 0
385416.0 452790.0 0
387394.0 450546.0 0
390197.0 450500.0 0
390553.0 452654.0 0
394152.0 450350.0 0
393381.0 453072.0 0
398209.0 450626.0 0
401134.0 448276.0 0
405106.0 450042.0 0
402672.0 453096.0 0
408656.0 448356.0 0
410551.0 450611.0 0
408348.0 452400.0 0
413304.0 448910.0 0
416365.0 450188.0 0
413799.0 452378.0 0
418891.0 452296.0 0
73870.1 456215.0 0
77035.4 454972.0 0
81207.0 455393.0 0
79467.2 457435.0 0
82328.6 458269.0 0
84429.0 453668.0 0
83722.5 456121.0 0
87192.4 454638.0 0
85722.8 457681.0 0
91423.3 454735.0 0
88480.8 456824.0 0
92139.4 458050.0 0
94705.2 454232.0 0
96238.9 457142.0 0
99535.0 454685.0 0
101509.0 457479.0 0
104465.0 455465.0 0
107432.0 454909.0 0
109990.0 456439.0 0
111509.0 453489.0 0
112943.0 457874.0 0
114276.0 454837.0 0
117758.0 455302.0 0
123460.0 454805.0 0
120424.0 457834.0 0
127897.0 455100.0 0
131286.0 456082.0 0
133482.0 453445.0 0
133964.0 458203.0 0
136982.0 455807.0 0
141741.0 457188.0 0
145968.0 454393.0 0
148908.0 457074.0 0
153240.0 454375.0 0
152714.0 457549.0 0
157106.0 454471.0 0
164006.0 455922.0 0
160705.0 457772.0 0
165747.0 454770.0 0
168964.0 457003.0 0
171495.0 452646.0 0
173029.0 455963.0 0
175048.0 453930.0 0
178350.0 453479.0 0
176119.0 457128.0 0
178814.0 457555.0 0
181421.0 455678.0 0
189477.0 453659.0 0
185536.0 455653.0 0
188963.0 457769.0 0
192977.0 453935.0 0
192027.0 457106.0 0
195658.0 457359.0 0
200062.0 454654.0 0
204992.0 454843.0 0
208724.0 456476.0 0
211927.0 453737.0 0
214744.0 456251.0 0
218256.0 457010.0 0
220602.0 453201.0 0
222185.0 456223.0 0
225262.0 453996.0 0
234362.0 453182.0 0
229709.0 454832.0 0
232814.0 456976.0 0
238438.0 452700.0 0
236813.0 457392.0 0
242787.0 452718.0 0
240317.0 455975.0 0
246250.0 455567.0 0
249981.0 454209.0 0
254391.0 454030.0 0
258025.0 453426.0 0
264726.0 452724.0 0
261546.0 455491.0 0
265008.0 456963.0 0
268794.0 455111.0 0
273431.0 453544.0 0
277152.0 456352.0 0
280841.0 453561.0 0
284934.0 455055.0 0
289173.0 454355.0 0
287903.0 457127.0 0
292889.0 455141.0 0
296484.0 455117.0 0
301860.0 455032.0 0
306662.0 453317.0 0
305863.0 457444.0 0
310516.0 456157.0 0
315276.0 457571.0 0
317828.0 453987.0 0
321824.0 453846.0 0
324388.0 457713.0 0
327110.0 454643.0 0
330777.0 456013.0 0
335164.0 452526.0 0
334089.0 456047.0 0
338659.0 454991.0 0
340911.0 452760.0 0
344204.0 454924.0 0
341817.0 457633.0 0
349998.0 455519.0 0
351934.0 452965.0 0
355462.0 455050.0 0
353227.0 457248.0 0
358411.0 454129.0 0
357080.0 457640.0 0
359923.0 457447.0 0
361884.0 453918.0 0
364365.0 455887.0 0
366886.0 453312.0 0
368555.0 457213.0 0
371985.0 455489.0 0
375584.0 455204.0 0
378824.0 455493.0 0
382386.0 455102.0 0
385458.0 457091.0 0
388810.0 455534.0 0
392872.0 456329.0 0
396083.0 454411.0 0
396053.0 457487.0 0
399011.0 454668.0 0
399509.0 457956.0 0
404155.0 457466.0 0
407781.0 455237.0 0
411699.0 453736.0 0
411207.0 457300.0 0
416478.0 454559.0 0
414893.0 457532.0 0
419734.0 456191.0 0
421955.0 453976.0 0
422140.0 458109.0 0
424873.0 456476.0 0
64546.1 461608.0 0
66631.7 462894.0 0
67822.3 460086.0 0
71219.7 458542.0 0
71715.7 461411.0 0
75233.8 458847.0 0
74726.6 462142.0 0
77912.0 459490.0 0
81116.2 460460.0 0
78753.8 463127.0 0
84793.0 460892.0 0
87506.1 463290.0 0
89136.2 460125.0 0
91572.7 462817.0 0
93729.5 460395.0 0
96190.7 462304.0 0
98662.6 459674.0 0
100721.0 462162.0 0
103348.0 460094.0 0
105871.0 458699.0 0
104352.0 463138.0 0
106939.0 461877.0 0
108768.0 459274.0 0
111367.0 461218.0 0
115679.0 458933.0 0
114473.0 462885.0 0
118777.0 461147.0 0
122061.0 461555.0 0
124560.0 458710.0 0
128411.0 458484.0 0
125930.0 462356.0 0
131166.0 458861.0 0
129414.0 461934.0 0
133974.0 462489.0 0
138137.0 460759.0 0
142088.0 462443.0 0
145445.0 458625.0 0
146224.0 462251.0 0
149568.0 460872.0 0
152945.0 461713.0 0
156365.0 458430.0 0
156877.0 462100.0 0
160920.0 462003.0 0
165110.0 459129.0 0
165086.0 463218.0 0
173484.0 459686.0 0
169537.0 461674.0 0
177695.0 461197.0 0
182053.0 459587.0 0
186326.0 461166.0 0
191725.0 461364.0 0
199011.0 459785.0 0
195642.0 461317.0 0
202480.0 457992.0 0
202177.0 461528.0 0
205625.0 459863.0 0
209679.0 460715.0 0
212250.0 457987.0 0
213178.0 461777.0 0
215155.0 458898.0 0
217431.0 461815.0 0
221623.0 460144.0 0
226161.0 458738.0 0
230275.0 459471.0 0
233988.0 460735.0 0
243437.0 457409.0 0
240345.0 459924.0 0
244315.0 461014.0 0
247691.0 459034.0 0
251910.0 458424.0 0
249631.0 462089.0 0
257234.0 458268.0 0
262531.0 460336.0 0
269834.0 459168.0 0
266855.0 460972.0 0
273105.0 457952.0 0
271056.0 461921.0 0
275321.0 461929.0 0
279056.0 460110.0 0
281943.0 457590.0 0
283187.0 462429.0 0
285748.0 459274.0 0
288733.0 460272.0 0
291036.0 457875.0 0
294946.0 459280.0 0
291821.0 461867.0 0
299054.0 458598.0 0
298766.0 462435.0 0
303242.0 461119.0 0
308548.0 460877.0 0
312829.0 461133.0 0
319813.0 459028.0 0
316679.0 462374.0 0
323805.0 462741.0 0
328292.0 460015.0 0
333045.0 459272.0 0
336133.0 462198.0 0
337219.0 458484.0 0
344750.0 460625.0 0
340678.0 461483.0 0
347066.0 458140.0 0
350564.0 460581.0 0
355294.0 460807.0 0
359296.0 461167.0 0
362751.0 458353.0 0
365730.0 458982.0 0
363023.0 461574.0 0
370201.0 460834.0 0
366669.0 462240.0 0
373137.0 458590.0 0
376079.0 458881.0 0
373858.0 461673.0 0
378746.0 458406.0 0
376858.0 462585.0 0
380354.0 461763.0 0
382251.0 458518.0 0
385411.0 459950.0 0
384428.0 462932.0 0
389026.0 459705.0 0
392410.0 459467.0 0
395203.0 460512.0 0
392162.0 463236.0 0
398968.0 461901.0 0
403236.0 462159.0 0
407947.0 460156.0 0
411465.0 461573.0 0
406944.0 463206.0 0
415303.0 462561.0 0
418781.0 459688.0 0
422663.0 461706.0 0
426156.0 460180.0 0
429188.0 458785.0 0
430571.0 461850.0 0
427658.0 463537.0 0
432715.0 460102.0 0
435168.0 462855.0 0
58454.8 465838.0 0
62018.7 464315.0 0
60625.6 467561.0 0
64852.8 465822.0 0
67645.9 467022.0 0
69759.3 463632.0 0
70553.3 467204.0 0
74033.5 465887.0 0
78111.5 467449.0 0
81941.8 468419.0 0
82589.1 464102.0 0
85705.9 466364.0 0
89782.9 465744.0 0
92161.8 467296.0 0
94249.7 464977.0 0
97072.6 467317.0 0
98409.0 464204.0 0
101903.0 466126.0 0
106151.0 465376.0 0
108015.0 467415.0 0
108894.0 463971.0 0
111242.0 465672.0 0
117967.0 464400.0 0
115077.0 467764.0 0
120742.0 463912.0 0
119461.0 466476.0 0
123203.0 463510.0 0
123009.0 466857.0 0
126459.0 465612.0 0
130084.0 466187.0 0
138215.0 465694.0 0
134455.0 466990.0 0
142275.0 466271.0 0
145849.0 465917.0 0
150019.0 465062.0 0
154516.0 465396.0 0
158701.0 465826.0 0
162194.0 465831.0 0
164172.0 466999.0 0
168332.0 466450.0 0
173765.0 464447.0 0
178371.0 465480.0 0
181547.0 463586.0 0
181491.0 467984.0 0
184609.0 465304.0 0
188703.0 465111.0 0
192069.0 465772.0 0
194746.0 464377.0 0
199005.0 464998.0 0
203976.0 464403.0 0
207375.0 463558.0 0
206751.0 467153.0 0
210595.0 465451.0 0
214819.0 464939.0 0
218126.0 466449.0 0
220720.0 463925.0 0
224216.0 463458.0 0
222451.0 466831.0 0
227772.0 463295.0 0
226288.0 467193.0 0
230178.0 467321.0 0
231316.0 463330.0 0
234240.0 465214.0 0
237417.0 462674.0 0
241418.0 464175.0 0
243450.0 467760.0 0
246456.0 464439.0 0
253987.0 463224.0 0
250154.0 466055.0 0
253272.0 467209.0 0
259244.0 463881.0 0
256615.0 467446.0 0
263989.0 465601.0 0
268457.0 465387.0 0
272662.0 465350.0 0
279319.0 464287.0 0
276508.0 466754.0 0
279532.0 467151.0 0
282827.0 467461.0 0
287785.0 464651.0 0
292611.0 465640.0 0
295426.0 463850.0 0
298222.0 466182.0 0
301607.0 465497.0 0
306652.0 465273.0 0
310769.0 463945.0 0
314189.0 464891.0 0
311062.0 467491.0 0
319834.0 463798.0 0
317840.0 466828.0 0
321651.0 466779.0 0
325097.0 466533.0 0
328128.0 464915.0 0
332105.0 463331.0 0
331378.0 467439.0 0
335382.0 465913.0 0
339232.0 464984.0 0
343749.0 464114.0 0
342644.0 467346.0 0
348025.0 463713.0 0
346476.0 467579.0 0
352850.0 464487.0 0
356566.0 464687.0 0
360752.0 465682.0 0
365027.0 465350.0 0
369366.0 464762.0 0
368005.0 467554.0 0
372876.0 464945.0 0
380803.0 465461.0 0
376979.0 466925.0 0
385048.0 466534.0 0
388612.0 463527.0 0
389091.0 467133.0 0
395692.0 464368.0 0
392796.0 467088.0 0
399679.0 465637.0 0
397026.0 468361.0 0
403062.0 465710.0 0
406325.0 466449.0 0
410022.0 464098.0 0
409862.0 467393.0 0
412789.0 465219.0 0
416910.0 466634.0 0
419697.0 463678.0 0
420880.0 466410.0 0
424112.0 464940.0 0
425577.0 468223.0 0
432532.0 465580.0 0
428707.0 467104.0 0
437308.0 467600.0 0
438581.0 464832.0 0
442002.0 466729.0 0
445201.0 468478.0 0
51423.6 471427.0 0
47344.4 472878.0 0
55819.0 469109.0 0
59669.8 470519.0 0
58873.4 473703.0 0
63487.7 469359.0 0
67115.3 470494.0 0
63157.5 473416.0 0
70517.4 470436.0 0
73663.3 469575.0 0
76647.3 471727.0 0
80634.9 471673.0 0
85237.5 471105.0 0
88194.4 468748.0 0
90638.8 470111.0 0
88603.4 472906.0 0
92721.9 472992.0 0
94453.8 469757.0 0
96812.6 471962.0 0
100040.0 469976.0 0
102818.0 472214.0 0
104798.0 468561.0 0
106788.0 472220.0 0
110504.0 469590.0 0
113226.0 471989.0 0
116304.0 472032.0 0
119480.0 469926.0 0
122922.0 470799.0 0
126663.0 469592.0 0
131743.0 470080.0 0
128687.0 473399.0 0
135945.0 470122.0 0
139696.0 469728.0 0
144099.0 469683.0 0
148132.0 469125.0 0
146572.0 473042.0 0
152370.0 469103.0 0
150239.0 472476.0 0
156647.0 469666.0 0
158345.0 473246.0 0
161118.0 469451.0 0
165220.0 470213.0 0
168826.0 470839.0 0
171982.0 468913.0 0
171953.0 473149.0 0
176494.0 469720.0 0
180192.0 472569.0 0
183853.0 471297.0 0
186238.0 468573.0 0
187576.0 473102.0 0
190451.0 469461.0 0
195194.0 468988.0 0
199474.0 469962.0 0
202653.0 468450.0 0
205495.0 470926.0 0
209316.0 470471.0 0
213729.0 469013.0 0
215755.0 472778.0 0
217912.0 470079.0 0
220465.0 469480.0 0
224116.0 471219.0 0
228421.0 470992.0 0
233521.0 468834.0 0
231746.0 471970.0 0
235258.0 471699.0 0
238019.0 467846.0 0
241181.0 470198.0 0
244420.0 472547.0 0
247289.0 468962.0 0
250880.0 469828.0 0
254573.0 469961.0 0
258119.0 472193.0 0
260076.0 468131.0 0
262867.0 470188.0 0
266709.0 469582.0 0
270970.0 469600.0 0
274117.0 468347.0 0
279092.0 469787.0 0
275418.0 471276.0 0
282534.0 472858.0 0
286834.0 470201.0 0
291327.0 469229.0 0
294226.0 472038.0 0
295695.0 468327.0 0
299492.0 469209.0 0
297564.0 472161.0 0
303780.0 469422.0 0
301467.0 473088.0 0
308220.0 470454.0 0
314628.0 468331.0 0
312985.0 471880.0 0
316579.0 470638.0 0
320537.0 471219.0 0
323940.0 469341.0 0
324935.0 473090.0 0
328078.0 469795.0 0
334401.0 468956.0 0
332681.0 472562.0 0
338671.0 470351.0 0
344397.0 471298.0 0
350976.0 468162.0 0
348223.0 471062.0 0
355845.0 468818.0 0
360764.0 470310.0 0
364508.0 468891.0 0
364107.0 472410.0 0
368015.0 471776.0 0
371896.0 468563.0 0
375536.0 470651.0 0
372427.0 473201.0 0
379114.0 472172.0 0
381746.0 469280.0 0
386385.0 470694.0 0
391083.0 471560.0 0
394078.0 469656.0 0
395199.0 471915.0 0
398866.0 471788.0 0
401770.0 469546.0 0
405414.0 469865.0 0
405433.0 472761.0 0
408764.0 470653.0 0
411840.0 472022.0 0
413527.0 468607.0 0
415751.0 471439.0 0
418885.0 470240.0 0
422394.0 469405.0 0
426831.0 471498.0 0
423076.0 472838.0 0
430658.0 470642.0 0
434877.0 469988.0 0
440371.0 469537.0 0
438775.0 473041.0 0
443067.0 470550.0 0
445009.0 471618.0 0
443150.0 473743.0 0
448371.0 471335.0 0
452368.0 473445.0 0
40480.3 477106.0 0
44382.1 475225.0 0
47759.8 476298.0 0
50042.6 474973.0 0
51298.0 477532.0 0
54791.2 474443.0 0
54264.4 478966.0 0
57625.3 477276.0 0
61374.2 477604.0 0
65759.4 477796.0 0
67544.2 474173.0 0
71833.3 474150.0 0
69395.0 477954.0 0
76235.3 476238.0 0
72939.7 478106.0 0
79321.9 474525.0 0
79666.0 477851.0 0
82835.6 474647.0 0
86428.3 475426.0 0
87115.2 478321.0 0
90517.7 476465.0 0
95488.2 475469.0 0
99618.7 474039.0 0
99331.3 478575.0 0
103261.0 475694.0 0
106824.0 476758.0 0
110532.0 474118.0 0
110456.0 478048.0 0
114776.0 476111.0 0
119794.0 474479.0 0
122122.0 478226.0 0
124252.0 473859.0 0
126121.0 477389.0 0
131181.0 477156.0 0
133772.0 473741.0 0
137447.0 473750.0 0
135365.0 477888.0 0
142063.0 473513.0 0
139746.0 477762.0 0
144876.0 477307.0 0
149840.0 476832.0 0
153965.0 477835.0 0
154115.0 473655.0 0
156612.0 476359.0 0
162289.0 473583.0 0
159644.0 476797.0 0
163289.0 477105.0 0
166952.0 474866.0 0
170949.0 477987.0 0
175912.0 475448.0 0
183864.0 475292.0 0
180158.0 476293.0 0
192335.0 474274.0 0
197335.0 473505.0 0
195875.0 476928.0 0
199782.0 477250.0 0
202116.0 473474.0 0
206649.0 474965.0 0
211575.0 474995.0 0
216524.0 476829.0 0
219982.0 473588.0 0
220247.0 477877.0 0
223214.0 476249.0 0
226567.0 474226.0 0
229706.0 474917.0 0
234020.0 475942.0 0
239062.0 473710.0 0
242631.0 477208.0 0
248779.0 472990.0 0
246260.0 476214.0 0
253172.0 473464.0 0
250577.0 477757.0 0
255977.0 477075.0 0
259690.0 476823.0 0
261904.0 473959.0 0
265542.0 473707.0 0
269343.0 473468.0 0
268154.0 477393.0 0
272782.0 473613.0 0
271721.0 477027.0 0
278357.0 473507.0 0
275604.0 476245.0 0
280252.0 477393.0 0
290383.0 474425.0 0
286325.0 474724.0 0
288034.0 477680.0 0
294769.0 476721.0 0
299146.0 475776.0 0
303099.0 477918.0 0
305498.0 474210.0 0
309291.0 474231.0 0
312650.0 476539.0 0
317297.0 475026.0 0
322026.0 476260.0 0
328494.0 473986.0 0
326238.0 476884.0 0
329955.0 476813.0 0
333637.0 476999.0 0
338171.0 475714.0 0
342053.0 473948.0 0
344996.0 474950.0 0
342984.0 477279.0 0
347841.0 474089.0 0
346635.0 477452.0 0
349229.0 476721.0 0
352384.0 473469.0 0
351641.0 478080.0 0
355867.0 478263.0 0
357808.0 473817.0 0
361804.0 474423.0 0
365796.0 476395.0 0
369715.0 476100.0 0
376372.0 475276.0 0
373167.0 477818.0 0
380424.0 476546.0 0
383553.0 473685.0 0
384885.0 477647.0 0
387987.0 474928.0 0
392863.0 476257.0 0
397395.0 475226.0 0
402285.0 474129.0 0
400639.0 477871.0 0
405469.0 476007.0 0
408120.0 474159.0 0
411391.0 475539.0 0
408628.0 478777.0 0
415370.0 475051.0 0
419586.0 474362.0 0
426436.0 474910.0 0
423430.0 477206.0 0
429845.0 474524.0 0
428065.0 477815.0 0
431459.0 477800.0 0
434017.0 474898.0 0
437566.0 477352.0 0
441448.0 477286.0 0
446036.0 474516.0 0
445123.0 477958.0 0
449302.0 476526.0 0
456283.0 474512.0 0
454334.0 477216.0 0
458870.0 477423.0 0
462451.0 478834.0 0
29464.7 483167.0 0
33196.1 483302.0 0
37086.9 479789.0 0
40219.2 480165.0 0
40823.8 482404.0 0
37931.2 483219.0 0
44402.8 479339.0 0
43603.1 483515.0 0
47805.8 483050.0 0
48717.6 479049.0 0
51190.4 481201.0 0
54515.5 482919.0 0
57664.0 480687.0 0
60668.5 481379.0 0
63982.0 481281.0 0
62321.2 484050.0 0
67380.4 481680.0 0
71254.1 481160.0 0
75962.5 480514.0 0
80395.6 481363.0 0
83667.2 478823.0 0
86131.0 481101.0 0
83806.2 482603.0 0
86719.4 483346.0 0
89416.8 481132.0 0
92214.4 483340.0 0
93497.1 479305.0 0
96211.1 482555.0 0
100997.0 483322.0 0
104181.0 479941.0 0
108184.0 480978.0 0
113231.0 481128.0 0
117937.0 479378.0 0
117099.0 483033.0 0
121073.0 482591.0 0
124565.0 481447.0 0
128306.0 480250.0 0
127331.0 483478.0 0
132391.0 482387.0 0
137382.0 482464.0 0
142673.0 481932.0 0
147548.0 481221.0 0
151812.0 481122.0 0
156766.0 480960.0 0
161523.0 480016.0 0
166249.0 480547.0 0
170649.0 483107.0 0
174575.0 480684.0 0
178330.0 479027.0 0
178305.0 483113.0 0
182573.0 479911.0 0
187895.0 478285.0 0
185875.0 482782.0 0
192964.0 479525.0 0
197238.0 479436.0 0
203652.0 478279.0 0
200386.0 481209.0 0
204572.0 483223.0 0
208505.0 479659.0 0
213461.0 480479.0 0
217947.0 480441.0 0
222565.0 482254.0 0
226642.0 477999.0 0
227469.0 481956.0 0
230618.0 479172.0 0
234393.0 481281.0 0
238200.0 478762.0 0
241488.0 481343.0 0
246063.0 481235.0 0
250263.0 482569.0 0
254167.0 481607.0 0
259258.0 481627.0 0
263539.0 477993.0 0
263101.0 481613.0 0
266893.0 481520.0 0
273811.0 479766.0 0
270962.0 480926.0 0
277508.0 480917.0 0
284354.0 477925.0 0
282372.0 482423.0 0
287151.0 481111.0 0
290880.0 479576.0 0
294262.0 481986.0 0
298583.0 479954.0 0
301796.0 481933.0 0
308168.0 478380.0 0
305426.0 482041.0 0
309238.0 482383.0 0
312199.0 480701.0 0
315730.0 479092.0 0
319624.0 479726.0 0
316060.0 483009.0 0
324447.0 481037.0 0
328471.0 479998.0 0
332168.0 480484.0 0
336306.0 480232.0 0
340512.0 480279.0 0
338252.0 483343.0 0
345140.0 481047.0 0
349063.0 479985.0 0
352965.0 482520.0 0
361154.0 478673.0 0
357621.0 482872.0 0
360706.0 482765.0 0
365549.0 480300.0 0
363573.0 482839.0 0
369463.0 479853.0 0
367218.0 483413.0 0
373879.0 481427.0 0
377238.0 479129.0 0
381586.0 480502.0 0
378190.0 483297.0 0
386120.0 481884.0 0
389315.0 478797.0 0
390035.0 482789.0 0
393318.0 480830.0 0
396741.0 479431.0 0
396415.0 482800.0 0
400078.0 481338.0 0
398449.0 483439.0 0
404189.0 479112.0 0
403801.0 482493.0 0
407146.0 482688.0 0
411251.0 482527.0 0
413313.0 479018.0 0
415408.0 482095.0 0
418478.0 478969.0 0
422846.0 481487.0 0
426573.0 480273.0 0
430512.0 480821.0 0
427481.0 483744.0 0
431242.0 483743.0 0
434731.0 480033.0 0
433821.0 483469.0 0
437375.0 483614.0 0
439116.0 480487.0 0
442541.0 480384.0 0
441309.0 483408.0 0
445680.0 482454.0 0
448724.0 480190.0 0
452200.0 480352.0 0
450317.0 483580.0 0
456378.0 480813.0 0
453776.0 483264.0 0
460435.0 481989.0 0
465314.0 481434.0 0
468936.0 482620.0 0
24781.9 487242.0 0
21461.4 489401.0 0
27794.7 485003.0 0
29119.5 487791.0 0
32688.1 487881.0 0
36540.5 486905.0 0
40473.6 485820.0 0
44606.7 487197.0 0
48684.0 486777.0 0
51600.2 485095.0 0
54728.8 486833.0 0
58347.3 485016.0 0
61760.2 487516.0 0
65469.1 485242.0 0
67837.5 487641.0 0
69422.1 484510.0 0
71519.5 487795.0 0
73363.6 484053.0 0
77602.6 484173.0 0
75320.3 487106.0 0
81345.7 484888.0 0
79392.0 488708.0 0
84788.5 486509.0 0
89075.8 485496.0 0
90660.3 487878.0 0
93729.8 486623.0 0
97881.1 486197.0 0
101389.0 487635.0 0
105182.0 484451.0 0
107782.0 487317.0 0
110006.0 484359.0 0
110834.0 488394.0 0
114200.0 485505.0 0
119274.0 486762.0 0
124196.0 485612.0 0
129295.0 486995.0 0
134823.0 487373.0 0
140163.0 486852.0 0
145506.0 485874.0 0
149482.0 484097.0 0
153091.0 484954.0 0
157042.0 486105.0 0
161879.0 484693.0 0
166969.0 485904.0 0
174403.0 485585.0 0
170832.0 488085.0 0
178184.0 487769.0 0
182261.0 484999.0 0
186061.0 486899.0 0
189804.0 483650.0 0
192961.0 486719.0 0
196118.0 483534.0 0
200195.0 485716.0 0
203777.0 487956.0 0
208543.0 483756.0 0
207875.0 487944.0 0
212243.0 485538.0 0
217095.0 484234.0 0
220072.0 488026.0 0
224031.0 487171.0 0
226816.0 485407.0 0
230512.0 483925.0 0
230800.0 487874.0 0
234411.0 486152.0 0
238310.0 483748.0 0
242721.0 485832.0 0
247726.0 486153.0 0
251951.0 485707.0 0
255842.0 485020.0 0
259128.0 487178.0 0
263936.0 485687.0 0
269781.0 485989.0 0
274145.0 483668.0 0
278494.0 485500.0 0
283010.0 487295.0 0
286174.0 484756.0 0
290205.0 483810.0 0
294112.0 487577.0 0
298560.0 484340.0 0
302787.0 485499.0 0
307744.0 486445.0 0
312376.0 484855.0 0
316597.0 488479.0 0
320481.0 484592.0 0
324826.0 485883.0 0
329757.0 484798.0 0
334849.0 483730.0 0
334025.0 486624.0 0
338194.0 487723.0 0
341787.0 484608.0 0
345597.0 485499.0 0
348879.0 483896.0 0
348306.0 488246.0 0
351474.0 486511.0 0
355808.0 487214.0 0
360890.0 486114.0 0
364806.0 486181.0 0
370925.0 483803.0 0
368953.0 487884.0 0
374384.0 486140.0 0
379377.0 488166.0 0
383182.0 485348.0 0
388233.0 486689.0 0
393295.0 485304.0 0
397708.0 486449.0 0
401412.0 484838.0 0
405118.0 485738.0 0
402045.0 488736.0 0
409322.0 486393.0 0
414501.0 486438.0 0
418896.0 483711.0 0
419546.0 487548.0 0
423170.0 485561.0 0
426816.0 487269.0 0
431298.0 487343.0 0
435333.0 486128.0 0
439883.0 487629.0 0
444035.0 486152.0 0
448225.0 486784.0 0
453040.0 487148.0 0
457089.0 484759.0 0
457638.0 488529.0 0
460738.0 486392.0 0
463524.0 484456.0 0
464185.0 487389.0 0
467949.0 486008.0 0
471893.0 485059.0 0
474910.0 487392.0 0
14939.8 493073.0 0
12124.6 494496.0 0
18012.2 491133.0 0
21435.5 493228.0 0
25643.3 491615.0 0
30302.8 491905.0 0
34990.3 491150.0 0
40042.7 490303.0 0
44084.2 491231.0 0
47483.3 489852.0 0
51933.5 490114.0 0
47127.5 493538.0 0
55457.6 492919.0 0
57523.1 489400.0 0
60969.5 490658.0 0
59274.7 493604.0 0
64904.6 490143.0 0
63063.6 493637.0 0
68719.8 491523.0 0
71750.7 490969.0 0
74767.1 490592.0 0
76944.7 493977.0 0
80567.5 492526.0 0
83785.5 490555.0 0
82785.5 493442.0 0
88024.1 490180.0 0
92520.5 490682.0 0
97311.2 490390.0 0
101433.0 491912.0 0
104736.0 489072.0 0
107986.0 490224.0 0
105640.0 493046.0 0
110466.0 493080.0 0
114857.0 489954.0 0
119299.0 491802.0 0
123225.0 489350.0 0
123111.0 493891.0 0
127358.0 491327.0 0
131574.0 490362.0 0
134380.0 491517.0 0
138375.0 491424.0 0
143784.0 491494.0 0
148366.0 493553.0 0
149698.0 488876.0 0
152225.0 493050.0 0
154377.0 489596.0 0
155851.0 493396.0 0
159681.0 490644.0 0
164280.0 489088.0 0
164283.0 493596.0 0
167523.0 490492.0 0
170706.0 492509.0 0
174564.0 490358.0 0
178535.0 492222.0 0
182270.0 489550.0 0
189311.0 488894.0 0
186065.0 491693.0 0
192549.0 490693.0 0
189980.0 493121.0 0
196668.0 489390.0 0
200936.0 490140.0 0
204882.0 492789.0 0
208985.0 491691.0 0
212430.0 490998.0 0
215803.0 488567.0 0
217160.0 492889.0 0
223055.0 492538.0 0
227124.0 489411.0 0
230252.0 490703.0 0
233966.0 491675.0 0
238436.0 488735.0 0
242238.0 491111.0 0
245119.0 488961.0 0
247428.0 489591.0 0
246483.0 492969.0 0
250552.0 490441.0 0
254813.0 489063.0 0
258137.0 492466.0 0
262619.0 490886.0 0
266683.0 489718.0 0
274447.0 488518.0 0
270466.0 491598.0 0
279224.0 490495.0 0
284024.0 492219.0 0
288189.0 488953.0 0
292169.0 493176.0 0
299515.0 488776.0 0
297069.0 492826.0 0
304009.0 490151.0 0
308799.0 491790.0 0
311854.0 489041.0 0
318336.0 492962.0 0
322024.0 490139.0 0
327599.0 489928.0 0
333434.0 490661.0 0
339072.0 493048.0 0
343446.0 489454.0 0
343605.0 493434.0 0
347961.0 492446.0 0
352097.0 490228.0 0
359577.0 489926.0 0
356234.0 492737.0 0
360778.0 493227.0 0
364319.0 490287.0 0
368118.0 491684.0 0
372292.0 489084.0 0
375588.0 490681.0 0
371524.0 491806.0 0
379910.0 492799.0 0
384532.0 490610.0 0
388885.0 490759.0 0
391694.0 489235.0 0
394936.0 489194.0 0
391608.0 492421.0 0
394825.0 492410.0 0
398625.0 490847.0 0
406276.0 489960.0 0
402682.0 493546.0 0
411446.0 491246.0 0
407742.0 493887.0 0
416442.0 490669.0 0
420293.0 491513.0 0
423693.0 489245.0 0
424173.0 493192.0 0
427809.0 490632.0 0
432112.0 491928.0 0
435816.0 489774.0 0
435825.0 493486.0 0
439878.0 492762.0 0
444960.0 490621.0 0
450167.0 490533.0 0
452259.0 493621.0 0
454548.0 490937.0 0
458527.0 492085.0 0
462410.0 490632.0 0
467490.0 490538.0 0
471634.0 489382.0 0
470722.0 494065.0 0
474600.0 492548.0 0
478363.0 490194.0 0
482599.0 492534.0 0
486269.0 494116.0 0
9320.26 497280.0 0
5773.7 499347.0 0
13503.2 498179.0 0
17750.9 495942.0 0
21859.6 497077.0 0
24385.9 495591.0 0
24391.6 499896.0 0
28121.1 496364.0 0
33037.0 495390.0 0
36085.5 498637.0 0
37945.7 494880.0 0
40466.8 498685.0 0
42384.3 494676.0 0
45303.5 497701.0 0
51310.3 496123.0 0
56768.9 497095.0 0
61491.1 497144.0 0
66782.6 496083.0 0
71963.4 494267.0 0
71007.6 498333.0 0
74354.5 497580.0 0
81149.2 495927.0 0
77815.1 498667.0 0
85865.1 494699.0 0
90217.8 494244.0 0
88620.7 498210.0 0
94525.7 494109.0 0
93116.3 498193.0 0
98273.5 495030.0 0
102342.0 496229.0 0
107201.0 497206.0 0
111918.0 497486.0 0
115232.0 494689.0 0
119236.0 496430.0 0
123051.0 498673.0 0
126934.0 496277.0 0
131364.0 494440.0 0
129909.0 498506.0 0
133588.0 498658.0 0
136086.0 495228.0 0
140571.0 496109.0 0
145671.0 497875.0 0
150410.0 496342.0 0
154061.0 496711.0 0
159382.0 496737.0 0
164084.0 498163.0 0
168132.0 496254.0 0
171418.0 495470.0 0
171863.0 498704.0 0
174855.0 495020.0 0
179340.0 496599.0 0
182318.0 493600.0 0
183551.0 496988.0 0
187095.0 495528.0 0
194066.0 493798.0 0
191077.0 497531.0 0
198970.0 494478.0 0
195344.0 497076.0 0
202752.0 497335.0 0
207030.0 497707.0 0
210225.0 494581.0 0
213504.0 494825.0 0
216609.0 497826.0 0
220118.0 496514.0 0
224339.0 498311.0 0
229248.0 493148.0 0
226946.0 494975.0 0
228818.0 497575.0 0
231576.0 495681.0 0
238677.0 493794.0 0
235444.0 496533.0 0
239401.0 498409.0 0
242758.0 495544.0 0
246815.0 497638.0 0
250277.0 495177.0 0
253892.0 493465.0 0
253578.0 497393.0 0
257489.0 497082.0 0
261598.0 495669.0 0
266025.0 494014.0 0
274847.0 493732.0 0
270158.0 497266.0 0
280091.0 496379.0 0
288070.0 494390.0 0
285024.0 496808.0 0
290743.0 498029.0 0
294645.0 496844.0 0
298710.0 497655.0 0
301508.0 494143.0 0
305665.0 494669.0 0
309332.0 496347.0 0
313819.0 493827.0 0
317767.0 497204.0 0
321731.0 495334.0 0
325309.0 493654.0 0
329709.0 494950.0 0
325823.0 498115.0 0
334795.0 496300.0 0
338686.0 497689.0 0
345856.0 495703.0 0
342030.0 496760.0 0
349805.0 497112.0 0
352103.0 493897.0 0
354552.0 496968.0 0
359340.0 497102.0 0
364516.0 495097.0 0
363312.0 498948.0 0
369560.0 495222.0 0
367294.0 498966.0 0
375250.0 495450.0 0
380090.0 496815.0 0
383474.0 495151.0 0
385457.0 499051.0 0
388250.0 494847.0 0
393304.0 496202.0 0
396714.0 498708.0 0
398198.0 495049.0 0
405599.0 497189.0 0
411084.0 497049.0 0
415192.0 494557.0 0
416116.0 498938.0 0
419746.0 495834.0 0
423998.0 497182.0 0
428774.0 495525.0 0
433311.0 495839.0 0
437240.0 496283.0 0
434819.0 498591.0 0
440480.0 496971.0 0
444052.0 495441.0 0
447256.0 498364.0 0
448447.0 494428.0 0
451819.0 497678.0 0
456440.0 495287.0 0
456077.0 499122.0 0
461558.0 494956.0 0
460198.0 498330.0 0
465824.0 494677.0 0
464524.0 498234.0 0
469104.0 498298.0 0
474621.0 497983.0 0
478917.0 495360.0 0
484033.0 497741.0 0
479671.0 499347.0 0
489307.0 496485.0 0
493109.0 498740.0 0
2066.73 500006.0 0
3348.21 504157.0 0
9528.87 502264.0 0
14036.9 502238.0 0
16738.6 500232.0 0
19876.8 500255.0 0
17430.8 503369.0 0
21590.8 503604.0 0
28394.5 500779.0 0
32117.2 499589.0 0
31711.4 503393.0 0
37041.7 503159.0 0
43210.7 502108.0 0
48638.5 501011.0 0
53787.9 500744.0 0
58903.6 500935.0 0
64040.5 500816.0 0
68833.8 501244.0 0
73732.1 501644.0 0
78173.5 502568.0 0
83622.0 500644.0 0
89480.1 503122.0 0
94010.9 502334.0 0
98344.8 499929.0 0
103587.0 500651.0 0
107790.0 501937.0 0
109987.0 499844.0 0
112448.0 502481.0 0
115811.0 499501.0 0
119554.0 500780.0 0
122603.0 503697.0 0
126686.0 500954.0 0
130869.0 502221.0 0
137452.0 498956.0 0
135593.0 502476.0 0
141055.0 501661.0 0
146590.0 503728.0 0
150483.0 500021.0 0
151517.0 503822.0 0
155557.0 500858.0 0
161513.0 502796.0 0
167601.0 501342.0 0
172522.0 502881.0 0
176225.0 499785.0 0
181395.0 501231.0 0
186577.0 499620.0 0
185558.0 503674.0 0
190033.0 502819.0 0
194963.0 501153.0 0
199345.0 499600.0 0
203545.0 501961.0 0
208252.0 501875.0 0
212134.0 499034.0 0
219884.0 500843.0 0
215850.0 502603.0 0
223709.0 503450.0 0
228181.0 501802.0 0
232419.0 499733.0 0
236520.0 501945.0 0
243436.0 499511.0 0
241323.0 503351.0 0
245918.0 502387.0 0
250613.0 501149.0 0
255734.0 500876.0 0
258825.0 503780.0 0
260225.0 499982.0 0
264678.0 499279.0 0
268149.0 502529.0 0
271868.0 501966.0 0
274935.0 503306.0 0
275332.0 498968.0 0
279392.0 502531.0 0
283239.0 500394.0 0
286989.0 500132.0 0
290308.0 503126.0 0
295489.0 501679.0 0
303696.0 498599.0 0
300423.0 501744.0 0
307899.0 500528.0 0
313113.0 500085.0 0
317962.0 501840.0 0
321753.0 500178.0 0
325712.0 503143.0 0
330869.0 500615.0 0
336158.0 500856.0 0
340765.0 501256.0 0
345297.0 499524.0 0
349236.0 502025.0 0
352776.0 500309.0 0
356513.0 501252.0 0
360883.0 502096.0 0
364790.0 501970.0 0
369049.0 503550.0 0
372304.0 499640.0 0
377563.0 500568.0 0
381423.0 499463.0 0
379106.0 503390.0 0
382491.0 503218.0 0
390459.0 499644.0 0
387966.0 503995.0 0
394073.0 500088.0 0
393295.0 503796.0 0
397853.0 502265.0 0
400993.0 498552.0 0
404083.0 500434.0 0
402283.0 502663.0 0
408192.0 501991.0 0
413001.0 500936.0 0
416706.0 502974.0 0
421212.0 500866.0 0
426844.0 500117.0 0
431357.0 499259.0 0
430175.0 503089.0 0
434413.0 502098.0 0
438427.0 500314.0 0
437362.0 504620.0 0
440937.0 503273.0 0
443301.0 499893.0 0
445200.0 504112.0 0
449550.0 502026.0 0
453873.0 501113.0 0
458610.0 502845.0 0
462963.0 501462.0 0
466768.0 501931.0 0
472043.0 502913.0 0
477809.0 503233.0 0
483018.0 502254.0 0
488625.0 501464.0 0
494132.0 503401.0 0
497337.0 500055.0 0
498288.0 503268.0 0
8290.54 506816.0 0
13541.6 506518.0 0
18981.7 507191.0 0
26570.3 505660.0 0
30478.6 509297.0 0
33112.8 506821.0 0
37111.6 508775.0 0
41560.8 506690.0 0
45138.0 509318.0 0
46782.8 505414.0 0
51238.1 504758.0 0
50215.3 509387.0 0
55685.0 504834.0 0
61261.3 506024.0 0
66465.2 504914.0 0
65092.9 507393.0 0
70828.9 505668.0 0
76109.8 506626.0 0
80974.1 505403.0 0
80604.8 508883.0 0
85266.3 506306.0 0
89889.4 508937.0 0
93037.3 505710.0 0
96429.5 504426.0 0
95957.2 509035.0 0
100857.0 505272.0 0
105374.0 504552.0 0
105466.0 508494.0 0
109096.0 505872.0 0
113043.0 506592.0 0
117296.0 504519.0 0
121036.0 507867.0 0
127016.0 505311.0 0
132214.0 507154.0 0
138079.0 506370.0 0
142428.0 506136.0 0
145374.0 508779.0 0
150244.0 508430.0 0
155854.0 506461.0 0
165158.0 505935.0 0
169063.0 506295.0 0
165802.0 509018.0 0
173362.0 506854.0 0
177201.0 504562.0 0
182221.0 507530.0 0
188090.0 507339.0 0
194026.0 506938.0 0
198992.0 504080.0 0
198398.0 507468.0 0
202006.0 507856.0 0
206806.0 506060.0 0
211659.0 504437.0 0
219487.0 505852.0 0
215141.0 506964.0 0
224535.0 507615.0 0
227797.0 506086.0 0
232456.0 505176.0 0
237608.0 506755.0 0
245426.0 507391.0 0
250028.0 505992.0 0
254307.0 505191.0 0
263406.0 504279.0 0
267231.0 506648.0 0
271759.0 506215.0 0
276333.0 506491.0 0
280930.0 507943.0 0
285196.0 504372.0 0
289555.0 507490.0 0
293996.0 507062.0 0
299696.0 506588.0 0
304566.0 503873.0 0
309760.0 505000.0 0
306171.0 508544.0 0
315283.0 506085.0 0
321018.0 505408.0 0
325362.0 508156.0 0
329715.0 505836.0 0
333887.0 504517.0 0
337948.0 504541.0 0
344859.0 504489.0 0
341155.0 507680.0 0
349095.0 506108.0 0
353151.0 504740.0 0
351497.0 508959.0 0
358034.0 506425.0 0
364047.0 506697.0 0
369226.0 508374.0 0
371692.0 506325.0 0
374261.0 504120.0 0
373532.0 508601.0 0
378684.0 507279.0 0
384599.0 507925.0 0
390813.0 508540.0 0
395120.0 507730.0 0
399934.0 506935.0 0
404867.0 505525.0 0
408776.0 507328.0 0
412714.0 504848.0 0
416402.0 506632.0 0
420468.0 505952.0 0
425361.0 504390.0 0
429382.0 507403.0 0
432767.0 509308.0 0
433479.0 505877.0 0
436448.0 508479.0 0
441076.0 507454.0 0
445438.0 508334.0 0
449276.0 507002.0 0
453918.0 505273.0 0
458610.0 507930.0 0
463464.0 505730.0 0
467912.0 505778.0 0
471268.0 507544.0 0
475202.0 507231.0 0
481632.0 505908.0 0
479126.0 507589.0 0
485968.0 506184.0 0
490864.0 506530.0 0
497883.0 506144.0 0
497520.0 509919.0 0
3684.0 510149.0 0
10505.9 510748.0 0
15951.9 511612.0 0
22520.2 510822.0 0
23348.1 514668.0 0
27299.8 510786.0 0
30688.4 513199.0 0
26315.6 514023.0 0
33519.3 510637.0 0
36384.2 513141.0 0
41010.1 511949.0 0
46115.8 513664.0 0
55960.3 510075.0 0
51953.3 514667.0 0
61825.8 511630.0 0
67167.9 509962.0 0
72236.8 510313.0 0
76862.3 511557.0 0
80866.8 512518.0 0
84774.3 510761.0 0
88147.8 513885.0 0
92796.9 513428.0 0
101297.0 510049.0 0
104777.0 513006.0 0
110328.0 510832.0 0
116109.0 509678.0 0
120638.0 513177.0 0
126553.0 510626.0 0
131619.0 512047.0 0
136012.0 511065.0 0
140869.0 510273.0 0
144448.0 513441.0 0
149020.0 513325.0 0
155100.0 513310.0 0
161102.0 509422.0 0
169144.0 511156.0 0
165050.0 513457.0 0
172492.0 509932.0 0
172348.0 512818.0 0
176654.0 510025.0 0
180912.0 513570.0 0
186093.0 511952.0 0
190747.0 511158.0 0
194313.0 513705.0 0
197969.0 510979.0 0
202267.0 512797.0 0
205628.0 510402.0 0
210898.0 510276.0 0
216918.0 511793.0 0
221611.0 510234.0 0
229789.0 509322.0 0
226127.0 512199.0 0
234207.0 510616.0 0
240726.0 511378.0 0
252221.0 509759.0 0
258273.0 509238.0 0
263844.0 509506.0 0
269289.0 511300.0 0
275210.0 511239.0 0
282303.0 512775.0 0
285972.0 509847.0 0
291379.0 512800.0 0
296938.0 511158.0 0
302443.0 510553.0 0
305534.0 513426.0 0
310722.0 509624.0 0
310144.0 513922.0 0
315666.0 512420.0 0
321034.0 510248.0 0
324925.0 513514.0 0
330018.0 511085.0 0
335812.0 509373.0 0
340779.0 513456.0 0
346314.0 510115.0 0
355408.0 511111.0 0
350860.0 513561.0 0
360820.0 511774.0 0
366338.0 511774.0 0
371037.0 512221.0 0
376208.0 513056.0 0
381813.0 512237.0 0
387255.0 512390.0 0
392967.0 513988.0 0
397160.0 511236.0 0
401093.0 511682.0 0
404679.0 509674.0 0
408690.0 511968.0 0
412277.0 514091.0 0
413375.0 509792.0 0
418268.0 509917.0 0
420971.0 512857.0 0
424626.0 509490.0 0
429796.0 512174.0 0
434669.0 512875.0 0
439054.0 511648.0 0
443499.0 512082.0 0
446990.0 514974.0 0
448438.0 511285.0 0
453688.0 510705.0 0
458364.0 512142.0 0
462674.0 510569.0 0
467759.0 510029.0 0
465503.0 514004.0 0
472971.0 511374.0 0
477709.0 511163.0 0
480680.0 513490.0 0
483158.0 510385.0 0
488760.0 510222.0 0
494492.0 507760.0 0
493255.0 512314.0 0
497989.0 513523.0 0
3192.53 515912.0 0
7740.64 513979.0 0
11921.4 514976.0 0
10278.0 519088.0 0
15085.3 518475.0 0
19646.3 515803.0 0
24585.0 517734.0 0
28840.1 517019.0 0
33735.9 517344.0 0
39398.0 516325.0 0
40808.1 519542.0 0
43713.8 518050.0 0
47920.3 517603.0 0
50920.5 519251.0 0
54818.7 519054.0 0
57451.2 515122.0 0
58662.1 519213.0 0
62464.8 516634.0 0
65752.4 519374.0 0
67602.4 515232.0 0
73120.2 515350.0 0
78560.1 516033.0 0
83627.0 515676.0 0
90523.7 517204.0 0
94260.2 517898.0 0
98746.9 514677.0 0
103828.0 517936.0 0
108578.0 515868.0 0
112024.0 514612.0 0
112957.0 518303.0 0
115339.0 514374.0 0
118019.0 518172.0 0
125076.0 516114.0 0
129413.0 515310.0 0
134265.0 515930.0 0
138859.0 514376.0 0
138285.0 519165.0 0
141798.0 516789.0 0
145842.0 518071.0 0
150556.0 517770.0 0
154695.0 519101.0 0
159153.0 518433.0 0
160784.0 514451.0 0
164182.0 518397.0 0
169675.0 516321.0 0
175519.0 515656.0 0
180044.0 519084.0 0
189550.0 515514.0 0
185046.0 517010.0 0
198484.0 515954.0 0
206829.0 514716.0 0
278750.0 514627.0 0
285936.0 514650.0 0
295940.0 516613.0 0
300488.0 514559.0 0
307579.0 517917.0 0
312950.0 518281.0 0
318188.0 517857.0 0
320561.0 514451.0 0
322658.0 517801.0 0
329226.0 516719.0 0
334145.0 515023.0 0
337926.0 518812.0 0
342417.0 518148.0 0
346079.0 515748.0 0
355201.0 515956.0 0
360108.0 517499.0 0
364289.0 515401.0 0
368738.0 516312.0 0
373747.0 518047.0 0
379532.0 517691.0 0
384014.0 516293.0 0
388464.0 517669.0 0
392627.0 519057.0 0
396472.0 518325.0 0
399312.0 515181.0 0
404343.0 514966.0 0
406278.0 519181.0 0
409209.0 516562.0 0
413084.0 517237.0 0
416480.0 514463.0 0
420847.0 517620.0 0
425427.0 514842.0 0
429754.0 517099.0 0
434281.0 517769.0 0
438343.0 515502.0 0
442957.0 517424.0 0
438649.0 519730.0 0
448141.0 519228.0 0
451262.0 515260.0 0
456020.0 515458.0 0
458033.0 518862.0 0
461156.0 515838.0 0
466085.0 518474.0 0
469586.0 514769.0 0
470536.0 518778.0 0
478192.0 515220.0 0
474335.0 516414.0 0
482035.0 516406.0 0
487527.0 515502.0 0
493083.0 517375.0 0
497555.0 517134.0 0
2032.74 520613.0 0
6018.06 519707.0 0
8068.55 523724.0 0
12833.9 522652.0 0
17489.5 522891.0 0
21267.6 520386.0 0
24091.3 523035.0 0
27821.4 521118.0 0
32717.6 523198.0 0
37589.6 520768.0 0
41736.7 522566.0 0
46904.0 522317.0 0
52405.7 522935.0 0
57103.4 522886.0 0
61814.3 521657.0 0
66291.8 522683.0 0
70312.6 520418.0 0
75989.6 520260.0 0
81238.6 520172.0 0
86679.6 519876.0 0
88514.7 524359.0 0
91649.5 521439.0 0
98078.3 520755.0 0
102524.0 522965.0 0
108262.0 521734.0 0
113585.0 523037.0 0
118227.0 523204.0 0
122726.0 520534.0 0
128246.0 520134.0 0
125689.0 523981.0 0
133602.0 521497.0 0
142372.0 520417.0 0
139658.0 523657.0 0
148292.0 521414.0 0
144682.0 524276.0 0
152045.0 521995.0 0
156951.0 523669.0 0
173037.0 520073.0 0
332943.0 519721.0 0
345306.0 520089.0 0
341801.0 522251.0 0
350653.0 519775.0 0
346597.0 523499.0 0
353561.0 524054.0 0
356420.0 521166.0 0
364952.0 519728.0 0
361090.0 522785.0 0
369803.0 521476.0 0
374702.0 523643.0 0
376757.0 520336.0 0
379380.0 522498.0 0
384232.0 521314.0 0
390064.0 522280.0 0
394875.0 522804.0 0
401489.0 520143.0 0
406475.0 522882.0 0
411040.0 521189.0 0
416133.0 519685.0 0
420287.0 522730.0 0
425707.0 519851.0 0
430808.0 522598.0 0
435487.0 521854.0 0
439217.0 524973.0 0
444470.0 522748.0 0
453598.0 520093.0 0
449556.0 524173.0 0
458311.0 522756.0 0
462066.0 520556.0 0
462441.0 524769.0 0
465139.0 522287.0 0
468859.0 522483.0 0
473895.0 521632.0 0
478640.0 519510.0 0
483887.0 520472.0 0
480570.0 524077.0 0
489661.0 520686.0 0
486961.0 523660.0 0
493860.0 521955.0 0
490566.0 524142.0 0
497921.0 520995.0 0
2747.1 524965.0 0
7788.86 528630.0 0
11626.2 526540.0 0
15797.3 527559.0 0
21503.7 527328.0 0
27208.6 526128.0 0
30988.8 527246.0 0
34059.3 529656.0 0
37998.6 525926.0 0
43522.8 526886.0 0
49769.7 527660.0 0
54519.6 526226.0 0
58728.4 527613.0 0
63833.1 526079.0 0
67007.2 529562.0 0
68773.6 525422.0 0
73610.0 524963.0 0
76873.1 529330.0 0
78830.3 524525.0 0
82090.0 529504.0 0
83942.1 524610.0 0
87306.1 528856.0 0
91598.5 526922.0 0
95115.1 524490.0 0
95481.3 529123.0 0
99249.0 526322.0 0
105453.0 527999.0 0
110923.0 526439.0 0
115424.0 527433.0 0
122094.0 526833.0 0
129814.0 525155.0 0
135918.0 525648.0 0
357201.0 526156.0 0
365739.0 524712.0 0
362012.0 528133.0 0
370528.0 526536.0 0
377252.0 527891.0 0
382071.0 526565.0 0
387058.0 525726.0 0
391748.0 526563.0 0
395940.0 528591.0 0
399159.0 525078.0 0
403893.0 526722.0 0
409719.0 526953.0 0
415392.0 525001.0 0
420305.0 528002.0 0
425022.0 525003.0 0
428928.0 527784.0 0
434032.0 528380.0 0
439354.0 530507.0 0
443842.0 527363.0 0
447917.0 528689.0 0
454405.0 525463.0 0
458682.0 527375.0 0
463148.0 529479.0 0
466559.0 526171.0 0
471795.0 526165.0 0
476313.0 525625.0 0
479360.0 528408.0 0
484139.0 527564.0 0
489174.0 527765.0 0
493677.0 526603.0 0
497783.0 524872.0 0
497576.0 529209.0 0
2906.02 530393.0 0
1222.41 534112.0 0
7430.4 533805.0 0
12190.7 531086.0 0
17978.6 532950.0 0
24506.1 532967.0 0
29293.2 530562.0 0
40185.2 530719.0 0
36407.9 534391.0 0
45651.0 531643.0 0
50632.2 533285.0 0
54448.4 530284.0 0
58270.8 532542.0 0
61486.9 535000.0 0
62545.2 530978.0 0
71681.0 529799.0 0
68516.1 534938.0 0
74507.6 534035.0 0
100777.0 529740.0 0
110469.0 530732.0 0
388587.0 530860.0 0
400422.0 530738.0 0
406203.0 531310.0 0
410544.0 532022.0 0
414194.0 529989.0 0
418163.0 533105.0 0
425298.0 529958.0 0
423556.0 534368.0 0
429776.0 532277.0 0
435705.0 533947.0 0
440381.0 534985.0 0
444248.0 532054.0 0
452867.0 530473.0 0
448886.0 533814.0 0
458443.0 532619.0 0
463960.0 534894.0 0
468916.0 531030.0 0
474972.0 530139.0 0
478154.0 534068.0 0
481708.0 531630.0 0
486691.0 532688.0 0
492838.0 531882.0 0
497911.0 533599.0 0
3519.34 535169.0 0
11998.3 535961.0 0
15591.3 537351.0 0
41920.0 535530.0 0
473226.0 535247.0 0
490272.0 536594.0 0
495096.0 536422.0 0
POINT_DATA 5000
SCALARS Radius float 1
LOOKUP_TABLE default
5258.36 5061.3 3163.97 3642.12 5812.43 5906.14 5580.89 6810.52 5415.48 5120.0 6182.6 5492.18 3951.75 5867.73 4499.64 5542.27 5122.66 5484.19 7513.1 5254.28 4402.52 4436.4 5733.48 4182.53 3588.44 5645.7 5553.16 6110.27 2938.66 4008.92 5840.26 5073.35 4834.9 3863.18 2356.98 5484.83 4998.37 5538.89 5351.6 4730.36 4715.55 5013.56 6059.59 4375.68 5054.98 6030.06 5170.02 3557.27 4927.31 4688.68 5185.34 4517.56 5903.42 4672.91 3761.32 5176.86 4366.19 4118.05 3672.51 5065.13 4940.78 5561.06 5670.04 6044.04 5085.53 5926.61 2720.68 5701.86 4955.55 4238.81 3563.63 4468.59 5325.02 5885.03 5200.76 4862.64 4432.58 5205.43 6684.56 3955.56 2635.86 5292.64 6166.5 5936.02 3615.22 5305.17 4380.59 6716.79 3850.77 5325.36 6759.9 7021.47 5416.38 6051.14 4195.44 5836.15 4345.55 2837.58 3653.41 5246.2 3871.88 5017.13 4827.23 3673.74 6116.18 3968.64 4688.67 4385.06 7184.19 4231.61 4290.3 3942.53 3379.84 7613.27 5546.39 4094.62 5945.65 5418.62 5493.32 4601.27 5740.68 4277.89 3261.21 6704.06 5600.93 3856.01 4390.66 5279.39 4911.47 5803.39 7447.37 4924.6 3255.82 4733.32 2812.98 3867.67 2899.43 2924.37 4861.08 4003.05 4827.82 3607.45 3589.27 4951.03 4133.88 4927.02 6483.19 6230.49 7054.71 5489.43 3641.64 5747.75 4796.33 5539.32 6496.85 5541.59 4124.71 5728.85 6337.56 4381.97 6257.19 5242.73 4737.14 5603.15 4065.69 5399.73 4712.33 4805.87 5759.91 4333.2 4665.12 3936.02 5980.74 4174.52 5109.54 3829.13 6458.82 5054.25 5527.54 7325.81 4055.8 5360.19 4794.96 4874.39 4839.34 5083.08 2980.99 6834.49 5525.39 3998.5 5938.34 5863.59 4024.3 5555.28 4686.65 4695.45 4660.72 5390.22 6038.78 5227.21 3997.1 5123.52 3260.67 3383.4 3856.1 5816.2 4044.71 5693.81 3091.3 2540.31 5789.98 6138.47 5573.7 4727.62 5206.78 6425.26 6186.19 4840.01 5611.2 7933.0 5173.87 6394.38 5118.27 5169.36 5834.74 5556.96 3888.21 6052.7 5697.78 4295.38 4667.36 3038.33 4392.68 4780.03 3554.9 5495.39 4487.31 4002.16 4778.34 4138.16 6029.66 5697.4 4270.95 4005.44 5280.17 5028.96 5143.58 6362.12 4484.76 5152.36 4220.65 4455.12 5380.13 5711.87 5932.23 5581.75 5788.23 3666.57 3798.62 3921.18 5891.05 6902.81 5252.48 3996.0 4015.92 5708.81 4684.5 5120.49 6302.8 5409.61 6038.2 5555.88 6732.43 3866.16 3183.98 4524.28 4511.82 5826.64 6820.42 4894.16 4816.2 4896.52 4941.22 5791.61 6392.01 6644.76 4254.17 5615.42 4091.31 7199.21 5529.52 6124.89 5542.21 5924.89 5043.05 3486.22 4414.54 5201.36 5262.61 5713.22 5094.81 5861.71 5017.78 3794.63 3778.1 4727.24 6959.81 4829.35 6321.41 4751.02 3372.79 5184.56 5282.64 4479.66 3369.13 5308.1 6730.19 6372.62 7565.34 4523.7 5337.48 5481.78 4937.14 6894.71 5551.36 6038.14 4306.53 6135.57 5972.06 4312.67 4359.04 5015.69 4947.52 6175.81 4520.1 6677.09 5813.4 5201.67 4089.76 5526.55 3192.41 4987.87 4715.72 5367.2 3043.85 5461.13 4907.89 5629.19 4937.02 5255.32 5637.59 6084.86 3307.12 3115.91 4467.94 5478.92 4933.21 4850.81 4723.12 5024.9 5659.17 5998.38 4270.24 4989.15 5423.8 4164.13 3417.33 4642.34 5874.89 4305.57 3791.79 4293.03 4424.7 4754.05 4951.47 6084.93 4669.66 3315.57 5607.24 4808.52 4726.76 3599.45 5655.21 5091.39 6756.95 6037.08 4049.23 3103.0 3586.91 4948.92 5810.84 5094.44 4655.49 5375.47 4809.42 4717.05 5287.2 4562.29 4234.94 5013.13 5080.66 4926.42 5153.74 4165.81 4528.09 3556.85 4389.21 4128.98 4925.44 5246.61 5215.15 5046.33 4764.96 5053.92 5839.13 5090.24 5923.5 2240.39 5601.05 4382.74 4516.43 4749.8 3748.24 4230.54 4566.18 6163.38 3459.9 4964.09 5856.11 4109.88 4980.85 5714.58 5110.45 3329.99 5248.77 4083.97 5208.32 3895.51 6291.51 6246.22 4307.28 4100.38 5804.71 5020.12 6352.26 3735.44 4073.93 4786.6 4645.41 5740.84 5096.78 4727.24 6324.23 4651.28 4384.42 4493.48 4362.19 5082.6 4093.08 4997.27 5543.27 3327.49 3960.8 5992.26 4923.9 4973.78 3947.47 4607.02 3296.27 6673.96 5174.89 5882.89 4188.32 5538.93 5727.3 4242.52 3847.38 4907.06 3057.03 5163.9 4433.59 4973.83 4612.68 3320.52 6355.42 5690.56 3693.63 3937.74 5478.47 6061.47 4449.22 5806.08 4853.39 5628.24 5365.89 5070.39 4511.54 4613.31 5196.0 5091.68 4204.84 6119.09 4713.25 5069.25 6243.0 5441.96 4288.3 3435.9 5370.52 5774.81 4739.42 3697.96 4899.11 4723.48 4278.07 4745.45 5356.51 3818.59 5495.68 6043.3 5530.87 3912.37 4310.18 4929.8 4151.94 5244.78 5762.84 6142.37 5119.37 3982.23 5243.29 3130.65 5004.67 5409.33 4178.15 7531.29 5935.03 5048.89 3991.03 3161.47 4652.29 4495.87 5027.98 5344.77 5097.87 5281.28 4863.72 2631.9 4087.15 4143.08 5489.34 5952.75 6445.94 4281.49 4129.43 4320.28 5927.43 4685.34 5492.26 4220.88 6640.13 5351.39 4336.42 3402.32 4583.31 7589.94 4466.03 4898.94 4733.04 5788.66 4755.47 6390.78 6826.57 3746.31 4788.87 5346.27 7267.18 4758.21 5002.48 5708.14 4262.82 5537.72 6342.25 6327.9 6519.71 3092.35 3629.96 5210.03 4306.11 6022.17 5903.66 5419.37 5985.29 4528.49 4247.23 4268.65 4694.83 4354.08 4485.99 3903.75 4520.62 5475.8 7435.25 5498.32 5543.46 6475.1 6255.18 2691.29 7500.97 3920.42 6332.36 5542.14 4218.06 4931.53 3843.58 6082.81 5449.18 5367.52 4714.54 5030.91 3320.11 5507.24 4503.89 6851.54 5313.66 5935.47 5275.32 5512.23 4649.22 5509.42 5475.7 5936.36 5314.69 6050.81 6022.72 4643.31 5527.33 4969.21 6256.02 4277.88 6623.85 8332.24 7134.64 6691.39 4602.25 5293.9 3191.99 5110.37 4048.37 5664.98 4322.15 4659.59 5101.59 3813.22 5570.3 2651.49 5234.29 4711.62 4114.24 5349.31 5394.55 2976.22 4256.43 2682.24 5229.48 5415.19 4016.18 5127.16 5435.74 4249.46 4244.99 5560.26 5965.81 6917.52 2330.66 4177.19 5402.21 4668.71 3691.0 2845.98 7228.46 5102.36 5228.18 5787.31 6122.55 5480.13 6142.94 4931.38 4736.58 4548.16 3485.26 3240.09 4556.36 5025.39 3688.8 4377.07 3695.36 5893.5 3848.93 6020.48 5200.05 4645.58 5670.2 4091.8 5094.52 5166.79 5928.32 3950.63 5526.75 4275.57 3619.07 5327.45 6185.89 3702.37 3990.25 4752.51 4880.14 5320.92 3948.23 6362.14 6719.88 4342.9 5978.82 5978.9 2739.94 4270.53 4194.5 4329.05 4792.73 3369.23 5264.06 4515.71 5358.59 4547.19 3817.13 5023.15 3963.86 3844.9 5076.35 5273.35 5181.4 6259.23 4662.56 5417.15 3457.48 4946.74 5996.33 4612.62 6385.23 4467.04 2983.99 3997.96 5660.85 4750.17 3460.94 6184.4 3758.07 3587.05 4373.45 4989.09 4982.31 5269.18 4406.1 6155.31 6308.71 4790.08 4187.56 5082.47 5513.6 5138.31 4901.41 4551.24 6202.55 6387.01 7111.16 4871.44 6375.99 4853.02 5088.44 4998.21 3405.98 3931.07 7440.72 3688.16 4681.72 3949.6 6631.19 5661.62 5817.25 5626.61 2614.4 4439.35 6363.92 6205.93 6229.37 3828.81 5309.98 5289.52 5034.59 5314.85 5065.11 4553.56 5911.67 4223.33 5069.84 3629.62 5329.64 4840.84 4997.27 3708.04 3610.4 4621.75 4581.13 6338.89 6480.17 5584.06 4564.34 3838.56 6248.81 5872.05 6079.11 4256.67 4945.39 5376.71 4867.08 5407.78 6648.68 6632.99 5061.98 4923.24 5830.72 7177.44 4307.48 6718.19 4305.43 5450.44 3848.54 4942.77 3927.99 5266.5 5868.82 3323.28 4051.44 4301.06 5344.25 4501.51 6013.14 4602.86 3856.59 2765.2 4219.07 5372.61 5413.79 3686.21 6445.22 4962.77 4427.28 5323.3 3082.32 6430.39 4765.02 3658.37 4448.13 5703.6 5070.29 6326.18 4713.74 4266.03 4537.6 6179.96 4419.61 6260.79 4407.87 4082.57 4236.14 5080.18 5941.4 4454.63 4263.33 4716.19 4050.9 6695.82 5135.69 5514.76 5344.0 3456.98 5191.63 5379.87 5925.6 5572.95 3979.82 6723.16 4746.52 5402.24 4948.5 5013.42 5651.07 5210.48 6101.92 3627.55 4635.6 6239.84 5370.85 3178.54 5629.39 6157.04 2684.03 4807.28 4768.61 2261.36 4084.49 5075.55 4220.03 5703.07 5449.46 5147.36 4662.43 4563.46 3963.76 5169.9 5733.62 5282.91 6510.17 4871.96 4066.38 4523.88 6049.55 5709.62 6405.76 4290.14 4593.7 5987.17 4043.57 5586.81 5006.58 5130.91 3868.18 3689.45 4527.02 5383.07 7552.94 4519.22 4409.63 5865.39 5521.25 5949.46 3661.9 3776.94 5246.47 4010.57 4522.21 5280.69 6923.84 6166.29 6113.54 4043.66 5294.77 6553.94 4425.84 5282.51 3797.33 5331.02 7256.35 5742.65 5592.32 4241.89 5835.78 5054.74 4877.67 4020.32 6045.46 4763.45 4138.42 4481.53 3824.16 5011.31 5330.45 5077.33 3948.17 4531.14 4959.34 4247.15 4602.85 7644.38 4051.34 6004.68 5278.36 5136.08 5107.23 4187.31 5558.68 3240.51 5506.19 6191.29 6719.94 5161.01 4950.67 5453.6 4709.05 3077.84 5255.18 5528.53 3004.16 4460.92 5460.65 5945.89 4105.55 4800.69 3279.1 5912.61 4978.31 4099.77 4981.9 3498.2 4245.72 5941.72 3815.26 4150.99 4292.06 5681.38 6318.18 5045.38 5350.88 5125.78 4790.78 5452.83 4591.87 6552.22 6422.84 5379.09 5534.94 5180.76 6799.4 6218.95 5222.16 5533.42 4802.32 4599.38 5730.33 7422.36 4527.99 4628.4 5409.63 5227.59 6051.83 4630.82 4813.08 5726.66 6799.88 4767.78 3062.43 5426.78 4042.28 4863.23 4402.67 4403.98 5381.16 4948.98 5794.24 4537.32 6562.18 4216.92 4478.15 5147.67 3771.48 5577.04 4986.77 6034.41 5178.99 4027.09 5801.99 4502.18 3312.06 3361.26 4993.35 4690.55 5533.72 3678.08 5146.37 5518.57 5463.48 4543.1 5545.46 4376.7 5190.61 5832.37 4298.15 3973.12 4642.93 4263.16 6024.75 5860.67 4540.86 5990.52 5235.17 3555.86 6566.1 4560.84 6386.78 5227.52 4414.48 6086.96 5163.02 4127.74 4541.21 4704.72 5908.1 5445.87 5198.77 4107.03 5423.0 5643.58 5215.05 5137.34 5197.52 5344.43 5615.35 6169.11 4135.62 5266.22 4860.33 4983.39 3685.13 3418.99 5366.52 4480.95 7132.12 5417.8 4836.16 5680.94 5581.55 6550.44 3764.06 5941.9 6642.76 5987.42 6109.49 3764.1 4340.76 5652.0 4421.12 4435.36 6065.22 5565.13 4996.99 3066.13 6193.35 2476.04 4302.5 6048.7 4571.7 4177.94 4850.01 4138.46 2775.04 3975.31 5198.29 4044.45 4373.47 6070.58 5490.43 4896.11 5022.28 5172.53 4318.48 6132.95 5226.97 5754.18 4558.15 5132.68 6552.21 5227.02 4232.16 5151.11 5300.96 5670.0 5193.01 8325.01 4440.81 4523.39 5829.22 5567.93 2967.38 4835.83 5811.18 5463.41 4929.75 5254.49 6045.22 4470.61 4221.28 4456.39 4656.78 4156.38 4631.83 4092.24 6009.88 4344.58 5896.46 3970.25 4271.69 6035.6 4285.32 3627.82 5262.19 6449.45 4285.66 5339.38 5008.63 4004.35 4763.96 3872.61 4270.74 3450.93 6293.89 5737.75 6595.03 4350.12 3603.51 3834.43 6609.84 4344.51 4707.06 5491.37 3781.77 3474.5 6348.03 3860.83 4792.39 5732.27 5434.47 4497.78 4243.79 5332.65 4779.5 4237.98 4159.35 6439.37 6649.96 4896.39 3701.27 4729.43 5105.16 5991.09 5126.91 6006.16 4164.68 4742.68 4810.12 6898.19 3821.72 5526.14 4244.9 4470.4 4986.51 5311.03 3930.79 5293.51 4238.4 5365.24 5097.45 4446.06 4047.87 5742.47 3778.02 4095.75 2761.07 4367.78 5135.96 5222.51 6074.94 5658.37 4250.88 3475.67 5278.56 7038.89 5146.37 6917.62 5433.65 6451.33 5604.35 5225.33 3091.67 4614.3 4384.88 4332.87 5233.78 6887.27 4562.74 6008.49 4806.34 4678.38 5050.65 5634.83 5316.75 3633.87 3929.19 7099.43 6396.74 4516.28 5315.4 4611.53 6048.86 6894.26 5255.12 6625.18 4573.72 4185.61 4917.99 5099.21 3319.67 4076.59 4298.45 5636.4 4972.17 5164.1 4428.14 5699.53 3783.54 5527.23 4222.77 5268.38 3863.67 4805.33 5631.14 6137.8 4814.12 5067.56 4442.22 4887.76 5413.31 6477.91 4303.19 3633.79 4081.97 5514.84 6081.14 5421.53 3942.07 5480.83 5448.61 4827.33 5495.84 6268.1 5347.48 5922.5 5776.37 5486.68 5100.25 5094.48 5678.96 2681.29 6408.83 5576.92 5323.91 4586.19 4296.69 6969.28 4163.74 5283.8 6471.42 6464.15 6016.19 6685.4 4850.06 6332.01 7044.29 5980.95 4013.38 4343.78 3012.99 5263.3 6316.56 5401.99 6420.81 3914.2 5653.9 5134.39 5776.57 7144.24 5133.97 6600.94 7443.72 5022.8 4502.5 4374.35 4011.77 4527.08 2965.79 4287.63 5805.86 5346.68 4049.02 5296.29 5997.88 6234.32 4360.23 4585.31 4570.98 4275.07 5698.96 3665.95 6238.32 6372.13 4124.49 5369.5 4479.11 5714.25 3230.13 5325.96 5016.02 7085.01 4581.37 4234.18 3352.35 6193.08 4909.65 2735.53 5116.6 4008.15 4811.32 4669.06 4286.49 6400.08 5580.92 4256.57 4607.85 4220.46 3600.43 5683.26 5371.02 4906.82 3784.5 3937.08 5499.11 5113.21 5252.34 4410.55 3921.08 4190.31 5683.61 4558.46 5020.71 5839.71 5737.92 3755.95 5889.35 5010.04 5388.78 5825.38 5599.7 6804.79 5642.35 5535.91 5404.01 6176.67 5955.86 4533.37 5412.24 5887.38 4920.21 4049.16 3936.95 6069.3 6153.94 5887.01 6523.86 7693.4 4715.58 4743.59 3317.83 5784.3 4287.53 3532.3 5598.74 6088.68 5131.24 6070.3 5513.57 6133.92 4862.21 5782.6 6261.42 5965.78 6125.34 4274.61 5083.41 7055.42 5443.58 3836.45 5731.57 5662.55 5464.68 3056.7 2685.81 5591.76 5896.26 4394.56 6101.13 4587.67 5951.81 6918.35 4834.3 4066.57 6357.47 4793.65 4891.38 4532.89 2949.12 6040.74 2779.99 4848.46 5851.61 6942.34 3658.05 3862.77 6836.82 3858.17 5168.35 4631.99 3747.03 2783.85 6184.88 4326.48 5208.14 5829.32 4450.7 5769.98 5973.33 5937.08 2221.99 4643.56 4788.58 6155.1 7055.53 5013.67 5260.34 3719.84 4178.4 5669.65 5729.23 5011.84 5253.55 7034.11 5820.48 2586.12 5433.8 5564.02 5975.63 6444.77 6314.07 6248.6 5687.85 6401.43 5703.74 4747.55 4539.07 4475.83 4510.8 7509.24 5093.82 5756.75 3924.14 6318.23 6348.54 5156.76 6101.57 5948.71 3856.53 5460.89 5742.09 5260.85 2884.65 4393.16 3311.29 5807.46 5478.11 5030.15 3477.1 5388.39 4740.98 4356.49 3728.18 4437.07 5335.47 3449.37 4396.25 4526.81 3763.05 5151.52 3583.21 5092.24 4347.74 5442.32 4135.08 5612.21 5046.21 5894.61 5687.83 5196.67 5206.48 4709.35 5934.22 6586.45 5876.71 3780.23 5826.04 3471.03 4004.04 4359.62 5690.26 5607.14 5062.71 6057.22 6946.21 4156.2 4289.17 4497.59 4470.98 4512.11 5759.46 5708.99 6333.29 4558.47 5831.96 5064.79 5480.3 4146.81 4840.44 3427.63 6639.64 5212.43 5454.12 4058.87 4206.98 5932.07 5174.75 5844.72 4984.46 4054.22 3992.97 5393.65 7228.94 4648.21 4595.12 3110.13 4549.69 5526.31 6423.81 3644.78 4078.93 6192.77 3185.39 5128.77 3994.07 5491.9 6405.0 5551.95 3918.87 5291.9 5067.46 4518.04 5128.57 4009.62 4929.14 4863.01 6000.7 5945.08 5004.23 6496.67 5139.5 6442.69 5474.8 6320.71 5226.0 5624.49 5339.78 4750.78 4373.3 5029.78 3095.48 3745.84 4730.41 3923.03 4643.85 5696.88 5082.74 5411.85 3999.94 6915.83 4027.46 4844.57 6072.45 5511.88 3901.8 5941.61 4933.65 6098.1 5950.04 4231.83 2435.33 4074.48 4477.04 3614.96 3886.68 4691.91 5344.83 7046.11 4863.97 6342.48 5439.49 5216.26 4887.52 3687.65 5478.95 6571.31 3851.85 4392.65 5048.55 4024.31 4147.31 4955.16 5989.05 5950.88 4441.22 5853.89 4149.55 4961.99 4386.8 6551.93 6484.43 4625.67 3485.54 4312.15 4583.52 5934.82 4501.78 5633.61 4219.94 5907.46 4659.16 4264.91 5369.08 5399.29 5549.49 5620.74 3101.75 4766.06 3580.58 5356.79 5233.29 3979.54 5604.21 7493.3 4968.03 4814.55 5304.13 3527.05 4648.04 5833.06 6262.72 6607.87 3664.11 4166.08 3365.82 5762.59 4861.06 3979.26 5960.66 6608.73 5188.81 5654.31 6062.05 3999.48 6939.12 4203.26 4735.33 4413.85 6853.85 6171.13 4020.4 5092.37 4864.22 2395.5 3374.08 3497.9 5782.48 5564.23 4188.87 4031.78 3735.24 5398.64 6574.95 6817.57 6853.04 4745.43 3420.08 4320.42 4255.34 4912.04 7165.9 4701.5 4449.98 4771.65 4036.91 5589.37 5110.11 6379.14 3634.5 6631.28 6413.15 6103.11 6459.51 4904.51 3288.01 2202.77 5751.15 6201.86 5474.01 7554.58 3380.69 4140.4 4725.01 4458.64 5966.75 3657.69 6418.11 7122.87 5048.19 4243.26 3572.94 6799.23 4888.27 6740.71 6487.56 5789.55 5423.42 4874.18 2081.58 6605.86 4011.37 2511.46 2775.69 4312.56 4778.82 5657.36 3169.67 5204.04 4612.06 5467.84 3361.92 5944.09 3306.14 5490.58 5698.77 4863.79 6515.84 4702.06 4163.5 5374.51 6481.79 4123.6 5320.28 4796.58 4298.67 5750.71 5873.69 4962.09 4472.17 5470.77 4831.47 5516.95 5563.79 4151.76 4406.4 3905.51 4721.02 3493.47 4596.75 3546.71 4254.37 4498.25 5768.57 5151.21 5108.06 4222.4 4000.43 4693.52 3573.73 4661.03 4568.41 5160.59 3624.7 5262.35 4281.98 5783.48 4504.35 5012.97 4891.67 6818.91 3429.57 3503.65 5569.2 4027.63 5350.88 5420.67 5305.59 5416.45 6114.89 4330.58 5754.6 6870.97 5351.86 6056.87 5307.35 4342.18 3639.44 5446.4 5725.37 5510.9 4883.63 3492.83 4505.28 6015.02 4922.49 4153.84 5797.36 5001.58 5119.86 4820.17 4592.15 5084.17 4854.11 4901.2 4633.05 2275.45 6505.78 6522.59 6124.08 5012.5 6519.43 5029.47 3619.79 5876.64 4750.58 5053.95 5395.14 3464.83 6710.88 3967.48 2477.07 5117.47 4143.78 4923.41 4538.95 5724.64 4970.88 7092.87 4763.66 5224.12 4850.14 6739.08 3637.61 4569.12 6098.14 3493.7 4938.74 6470.3 6222.42 4200.03 5313.22 3474.39 5328.22 3436.15 4216.17 5711.11 4575.94 6484.17 4938.72 5021.88 4597.29 5956.65 4200.09 5931.77 5097.95 5313.12 4914.45 4698.87 5351.56 3984.88 5318.53 3344.57 4732.09 5220.76 6945.98 5138.2 6412.67 4593.7 7001.83 4482.9 4349.13 3766.69 5188.53 4521.75 6746.66 5410.33 4642.74 6735.97 3636.15 5483.7 5135.63 6384.7 4355.83 3896.27 5963.36 5230.02 5169.48 6016.08 5166.89 5491.63 6064.71 4731.21 3868.62 6102.98 5138.33 3425.69 4971.29 6280.13 5244.22 5585.14 7039.98 4729.42 4159.81 5089.26 4901.44 3886.72 5971.22 4909.31 5711.62 4785.25 5435.19 4270.15 5461.55 7093.13 3298.2 5926.11 6667.68 6213.04 4497.31 5211.38 2990.77 3163.78 4925.63 3830.46 4305.16 5965.15 4888.6 4666.81 5882.65 5078.86 7042.12 4797.52 4780.2 6326.39 5501.93 5462.21 4471.58 5463.38 6313.06 5374.98 5226.56 5945.21 6345.13 5274.19 5599.49 4050.08 4719.7 4097.57 5452.42 5017.5 5005.85 4893.49 5325.44 5102.75 4834.87 5938.17 5760.22 4795.43 5607.3 2928.82 4811.76 4638.18 5498.42 4196.37 5806.31 6448.66 4453.97 3556.79 3503.41 7317.04 3971.08 6204.65 6550.4 5513.8 5036.98 4120.07 4882.66 3840.21 4081.34 3908.56 4844.83 5244.78 5652.87 5377.37 4311.48 5018.69 5952.38 3152.86 6394.19 5807.52 5087.14 5518.11 4192.21 5712.35 4743.9 3124.7 3719.11 3743.76 6060.17 5153.18 6711.21 3684.15 5510.45 4236.86 4730.14 5832.29 2606.51 4438.76 6456.58 6006.89 5244.98 3814.65 5415.45 3965.3 4998.22 5533.19 5792.98 3776.8 5417.21 5096.43 6156.21 6602.43 3562.79 4383.56 6306.21 4990.79 6865.76 5253.37 5424.46 5235.11 5266.01 4721.32 5767.9 6515.8 3293.56 6031.67 6413.11 5092.28 4739.14 4918.77 5163.55 4636.5 4819.73 6817.32 3382.7 6471.55 5085.71 4319.79 6643.85 5960.56 6343.14 4020.95 6049.79 5862.86 4390.41 6113.95 4901.07 3981.07 5186.3 6496.52 3991.42 3718.69 4388.63 5966.61 4514.79 4940.28 2216.82 3672.21 4509.89 6752.75 3004.34 5269.38 5375.1 3022.6 5211.6 4172.6 4745.79 5470.04 5456.71 4908.75 6556.26 5438.92 5684.25 4244.49 4124.76 4050.03 4775.04 4952.52 4813.33 4833.55 4954.76 3646.95 6334.53 4749.96 4906.11 5869.67 4387.39 4899.73 4564.1 5457.66 4848.14 5366.22 5973.89 6193.73 5254.24 5701.52 3742.11 3597.43 6776.22 4467.13 5321.17 3877.8 6273.6 5902.67 5454.11 3994.39 5393.76 4941.02 3864.92 4618.73 2955.36 3668.93 4960.64 4983.3 6592.93 6104.26 6350.71 6436.74 3568.28 5583.61 4798.17 4953.1 5425.98 5166.79 2895.63 4516.53 5818.95 6449.64 3940.49 2040.66 4857.84 6464.8 5384.76 7016.27 5529.42 5274.14 5257.12 4434.19 6138.12 4428.78 4903.82 5100.1 4965.89 4940.42 3954.91 3703.1 5746.28 4371.99 5923.4 4623.61 4946.42 5187.7 5409.66 4082.47 3561.29 2965.01 6235.57 6263.44 4863.27 5122.63 5774.97 2315.64 6766.43 4703.08 4890.5 6934.37 3423.15 4488.85 3731.84 5010.2 3554.48 4579.69 4997.83 6123.03 5578.94 5148.08 6192.0 5885.28 7610.49 6579.31 6028.09 4609.02 5323.55 3804.5 5452.36 4896.65 6486.37 5561.74 6083.28 6100.73 5975.23 4788.08 4198.94 6163.54 4211.82 5212.37 6003.78 2628.22 5058.51 4901.29 3899.7 7200.89 4147.49 4802.98 4705.68 7224.99 5384.86 4869.48 3623.19 4658.24 4745.16 5509.51 5825.55 5719.79 3199.4 4316.5 7261.51 4968.14 4158.91 4914.03 5086.29 5144.56 5311.55 5139.18 4869.25 3360.86 3034.16 4763.4 5545.21 4333.87 5024.32 4708.17 3779.45 2741.2 5806.61 5790.42 4983.1 5784.37 6119.99 7123.04 4128.1 4009.24 5372.82 4385.81 4402.17 7778.01 4034.05 5690.96 2460.79 4653.83 6063.64 5996.66 4093.99 6479.39 4122.92 5079.22 4997.91 3604.14 2978.76 4908.49 4452.54 6622.11 4962.21 4689.15 5884.9 5089.62 3685.65 6790.73 3685.13 4590.55 5243.43 5659.95 4741.26 6090.91 5920.32 4186.6 4537.14 3701.16 4152.85 3295.83 5551.9 4219.78 5644.82 5203.08 6413.02 5412.31 6736.03 3492.19 5374.07 4584.5 4118.84 3623.87 5548.29 5916.16 5163.77 5469.13 6027.62 6098.95 5765.42 4817.16 5453.98 5660.55 5653.03 4157.29 3989.7 5107.0 4777.03 4246.61 4286.17 3684.56 5327.75 4946.23 4852.58 4532.7 4504.86 3217.67 4473.29 5079.64 996.652 4680.69 6500.49 5965.58 3352.34 4607.18 2403.72 5078.59 4365.58 5134.33 2646.13 5419.57 4636.53 5162.67 3629.49 5760.98 5469.35 4019.34 3835.81 5429.3 5510.96 6653.07 4697.91 4584.81 5071.98 4371.08 5148.1 5224.64 5949.73 5214.63 4312.48 3495.68 5527.13 4278.57 5049.99 5551.43 4201.03 6318.25 5136.87 5638.7 5001.87 3667.93 5813.79 4644.88 5293.13 6010.59 5591.77 4446.58 3682.35 3756.96 5401.4 5127.82 5798.38 4456.11 3862.91 4125.9 5096.24 5366.11 4986.71 6171.71 4405.42 7382.3 2995.67 3598.08 4022.56 4599.81 4684.44 5381.54 4406.05 4749.59 5698.23 4858.44 4680.94 3468.42 5828.35 5799.69 4673.35 5571.72 3876.21 4655.16 5869.4 4916.22 6022.7 5297.19 5251.4 3867.19 4188.3 4963.34 5081.78 4459.28 4260.92 5499.39 6250.23 4407.9 4440.57 4718.54 8659.64 3087.09 4055.54 4588.7 7480.41 5683.95 3766.55 6107.89 4976.12 4233.8 5530.49 4304.41 5065.26 3746.36 6789.23 4892.44 5069.89 2205.51 5361.87 6212.15 6813.72 4783.07 6200.63 6816.66 3844.54 5241.75 5034.69 5849.53 4509.46 3538.53 4420.11 6127.39 5640.12 4972.18 6638.25 5329.76 4759.99 5214.4 5193.58 5399.43 5766.05 5117.64 5695.44 3916.42 4507.46 3422.21 4944.51 5603.68 5610.95 5532.72 3220.8 5179.17 5579.39 5270.51 5490.75 4979.52 4407.79 5783.94 6548.29 3990.96 6370.33 5081.08 4202.77 6864.06 4493.79 5684.05 4932.56 4279.44 3142.09 4028.22 7350.26 5182.13 5167.53 6110.48 5906.57 7541.76 5053.15 5910.86 4775.49 5124.17 4681.29 6239.68 5805.1 7320.78 5039.12 3908.98 4064.58 3419.87 3628.89 4668.88 6589.82 4824.81 5522.21 5027.43 3772.3 4855.01 5810.77 7300.58 5089.1 2711.19 4714.83 5876.72 4028.32 5236.43 5689.26 3809.69 4992.42 4771.13 7051.9 4940.84 4255.85 4345.67 4453.64 5097.69 5019.93 3885.86 5511.6 5235.29 4517.73 3757.34 5177.64 4255.31 5191.08 5453.3 5148.58 6116.33 3838.47 4479.94 2588.37 4062.5 5887.15 4199.45 4435.51 7234.66 5415.85 4858.51 4207.54 6599.66 4886.12 6419.12 4481.76 4301.61 5206.33 4446.84 5452.78 4356.36 5473.72 4741.28 4215.2 2603.64 2856.55 4553.68 3703.49 3894.64 4268.19 6502.97 3758.22 4757.2 3205.68 4583.94 5969.37 4928.35 5046.31 4337.32 1937.5 4731.53 3763.9 4651.99 4788.7 5863.0 5084.5 4918.64 6562.03 4410.82 4815.47 4368.12 6443.99 3889.98 5490.64 5034.34 3769.2 3468.45 5036.14 5635.32 4526.34 5409.08 5042.75 4598.92 5241.22 5673.75 5360.67 6647.08 6263.3 3422.29 4537.03 4501.05 5124.34 4114.2 4326.06 5352.24 5034.46 7362.42 5793.12 5836.14 5473.05 6008.81 5537.34 5192.49 4899.19 3487.31 5058.34 3918.94 3768.46 3852.82 4507.36 5003.3 6245.52 4932.29 5499.59 5749.6 4834.44 3845.9 3125.13 4234.88 4141.21 4439.71 5782.43 4384.28 6328.42 5769.14 7307.21 5522.75 3608.06 5474.15 5867.64 7519.2 4099.92 6633.61 3208.96 5285.07 4884.59 3858.06 4680.14 4478.6 4608.41 5895.77 4732.09 4765.72 6261.75 3988.3 5857.79 2908.7 4039.91 6415.61 6136.49 4642.66 4338.08 5276.7 5149.72 4541.8 5660.16 6134.99 6200.54 5424.88 4652.01 4928.27 3583.49 3673.28 3548.39 5421.64 4366.74 5297.16 3375.28 4603.5 5354.66 5625.65 4936.96 4647.67 4214.44 5378.23 3184.64 4787.97 4981.43 5375.12 4061.6 6214.73 5836.26 5175.89 6618.21 5232.85 2617.39 4374.74 4062.56 3717.47 4051.18 4685.4 5146.0 6240.42 5721.14 6006.16 4577.73 4288.45 4987.28 6206.98 5131.77 5549.71 4967.51 5173.82 3720.7 7212.97 5698.53 3856.73 5378.24 3604.31 4450.49 5887.71 5661.6 4827.61 4316.45 5481.64 5385.03 4169.15 4778.37 5134.17 5968.54 4074.16 4904.35 3247.97 5592.54 4358.81 4904.37 5278.54 4651.64 5757.29 5016.46 5469.17 4373.2 5061.75 6022.78 5884.99 5726.42 6643.4 5575.11 5487.63 4674.9 6599.28 7145.73 5800.81 4990.23 3220.29 3954.77 3784.94 6016.87 5166.05 6715.73 5667.51 4174.44 4456.26 5113.6 5944.3 3563.14 4810.98 3381.82 5135.5 5431.29 6208.9 3619.72 4923.57 5347.9 4646.51 3340.09 4438.58 4565.93 6059.93 5602.53 5217.95 6355.68 4083.79 4184.23 4511.7 4144.57 4833.46 4351.38 5750.07 4187.94 5980.59 5550.75 6543.13 5933.7 4809.67 4752.14 4757.74 4687.64 4378.3 4950.97 5411.02 5037.06 5175.29 5842.56 4863.96 4094.73 5713.03 3852.6 5849.65 5131.15 5134.67 5775.31 4110.59 5052.84 3332.49 4847.14 4165.21 3950.27 4215.0 3683.86 5116.66 4918.76 3566.79 3629.44 3299.24 5003.78 5374.67 4208.41 6246.56 5826.78 4508.18 5064.67 6358.93 4383.68 6666.67 6015.22 5144.44 6063.44 2904.46 4826.52 6449.06 5120.92 4629.02 4924.07 4927.73 5914.5 3565.32 4608.62 3419.07 5407.96 5344.44 4071.75 4626.72 3186.07 4369.86 5482.76 3745.02 4887.73 5728.58 6297.99 4211.36 5918.95 4538.89 5817.74 6556.86 3242.31 6099.28 5285.75 3234.26 3494.16 4830.13 5370.9 4325.13 4529.77 6172.27 4262.74 5390.33 3783.79 5078.73 5729.92 5729.0 5275.57 6224.13 4179.87 3769.24 4761.84 3661.67 4087.32 5517.65 6647.85 4009.68 2569.12 7025.09 5461.72 4433.12 4361.24 3392.26 2549.95 6224.85 4168.52 5403.97 4556.19 5368.66 5106.46 6793.1 4068.31 4506.66 5515.73 3671.06 5209.55 5077.29 4708.31 4564.41 3873.92 4198.9 4027.33 5026.76 5951.86 5091.22 4833.67 5023.41 6282.38 5640.72 4504.52 7107.63 6061.63 5073.02 5484.36 2279.05 4867.7 4829.35 4304.63 6545.43 3953.55 4063.9 4075.28 5263.27 4277.24 6834.41 5021.77 7248.4 6300.92 4356.25 3796.15 5161.1 5469.47 4419.71 5036.58 5329.59 4244.21 5512.16 3197.63 4617.55 3875.05 4989.56 4287.16 3645.12 3456.47 5199.44 5471.74 4344.34 5580.34 5966.42 5009.83 5210.38 5717.8 4706.5 5210.75 4811.22 4658.11 4474.83 6555.44 5293.75 5658.14 5114.07 4385.49 5730.61 4263.18 7124.45 7142.95 4559.74 6061.85 4454.74 5268.15 5512.44 3460.93 6347.72 3200.6 7168.2 4602.57 4571.74 3763.85 5710.33 4096.86 3622.48 5001.51 5115.42 6432.8 4209.0 4082.4 4930.72 5485.84 6424.77 5453.69 5432.04 5689.56 3702.45 5265.63 4898.29 4431.06 5372.25 5620.88 5730.2 4045.67 4941.52 6005.95 5900.0 4308.49 4581.1 6241.77 5317.19 4248.14 5192.92 5279.19 4016.6 7050.08 4786.66 5891.25 5370.1 5114.51 4622.73 3303.49 4161.32 5161.74 7336.37 5138.93 5099.9 6945.69 6406.8 4795.08 6562.92 5648.78 5501.73 4697.24 7035.54 3612.44 4983.43 4850.5 6331.74 5233.76 5763.05 4252.18 5357.39 5129.68 4659.88 2820.07 5076.84 5325.91 4546.44 5851.63 5657.55 5727.79 5212.92 4831.93 5788.97 3472.91 6760.92 4989.2 4469.54 4023.93 4314.56 5868.89 8137.11 5291.05 3928.53 6650.77 5776.96 6045.67 4209.49 4888.12 4216.95 6119.63 3498.16 4247.69 4409.27 5439.9 4752.9 4588.99 4947.24 4321.21 3540.11 6506.86 5950.45 4803.57 5088.57 4728.55 4923.43 4568.64 5666.95 4642.2 4127.53 4489.99 4945.0 4212.15 4548.45 5260.52 4551.26 6102.49 5678.58 3185.09 6570.35 4242.63 5114.23 3269.54 5495.0 7407.91 5846.95 5716.42 5064.23 5701.63 4620.95 5368.93 5819.0 4488.39 6121.56 5124.86 5879.24 4796.12 5740.78 5997.91 5385.86 6791.86 6031.22 5703.84 3618.64 4335.79 3530.82 5797.32 4886.99 3921.27 5159.67 3161.1 5764.52 5684.88 6523.78 4645.86 5087.97 4930.17 4519.03 5110.27 4745.44 5762.82 4085.96 7360.12 6223.98 3035.06 5821.49 5580.44 4262.19 5998.13 5095.52 5129.4 6275.25 4746.15 3720.38 4655.37 5585.25 4758.84 5256.75 5023.61 6351.89 5932.28 5118.86 7086.69 4298.7 6170.9 6875.73 5226.42 4436.48 6081.3 5117.52 5615.35 5426.4 5866.91 6405.69 5679.74 3791.41 4092.07 4825.73 5853.12 5247.01 4213.05 4224.3 4208.37 4184.21 5157.38 6203.03 4700.07 5188.82 5235.87 5615.84 4464.73 4928.85 5043.14 6440.38 5556.0 5484.32 5007.21 4711.04 7144.05 6226.14 5466.33 5742.74 5464.25 3946.28 5280.12 3821.94 5984.81 4209.31 5486.48 3805.67 5718.28 4514.39 5301.47 4640.06 6242.79 5993.0 6047.14 5391.48 5467.63 4554.68 4368.28 4929.6 5750.35 3919.62 5984.8 3127.83 3986.41 4585.04 4241.68 3469.18 6949.65 2945.34 4095.83 3372.95 5695.25 4489.29 5676.61 5796.26 4301.93 4603.04 4870.94 5293.37 5271.88 5559.79 2980.31 3148.79 6348.93 6824.53 4332.64 4742.82 5232.16 4422.23 4820.68 3989.26 4171.02 7012.36 5028.06 4002.99 4293.3 5587.3 3572.73 4864.38 3770.22 4390.64 4848.98 5150.84 4491.96 5184.98 4608.01 4467.51 5339.82 5460.57 5065.78 5703.34 6668.98 4612.68 3207.84 6649.52 3977.98 5462.6 5617.29 4597.88 4878.93 4845.91 2002.78 5631.32 6892.33 4505.3 4731.37 3976.0 4672.86 6530.78 2960.5 4975.32 5560.23 4183.4 5237.55 3902.48 4304.64 4733.79 5833.78 4905.53 4823.06 5758.98 3967.76 5254.49 6311.89 5288.64 4683.28 4217.36 6549.8 4851.18 4165.36 5005.72 5288.33 4841.7 6296.54 5702.4 5273.37 5069.9 4717.73 5473.89 4732.37 6089.45 4985.3 5072.5 3904.07 5713.36 3274.85 5545.59 4173.54 4619.2 5599.29 5606.51 7216.98 4801.8 4444.97 5721.05 5271.02 4807.4 6329.53 4350.15 7013.17 4590.01 4601.74 5367.73 5078.31 6101.86 4807.35 4227.41 6761.81 3903.91 5630.9 4140.92 4512.07 4756.8 4896.43 4692.32 4176.32 5463.06 4639.8 5236.24 6069.78 5532.75 3587.93 4517.29 4975.85 4495.75 5323.95 6171.01 6229.83 4468.26 5578.18 5106.33 5198.94 4873.23 5933.54 4028.35 5464.05 4733.41 5453.2 5264.83 3901.53 5136.51 5431.14 6815.51 5313.86 4457.05 5189.91 5151.19 5777.26 6119.0 3792.06 5128.59 4993.49 5310.33 6583.37 4569.32 3688.83 3402.44 6084.88 4397.06 4479.5 4053.12 4014.44 6261.67 3435.13 6002.77 4431.46 4521.42 4614.49 6043.34 4232.33 4939.56 4747.68 5770.92 3093.38 4461.67 4723.71 6126.5 6322.0 5793.14 4491.26 4452.36 4068.41 4511.34 6463.71 4832.21 5059.37 3043.77 5783.38 4139.39 6264.03 3909.94 5088.64 6030.39 3799.01 6589.8 7392.65 5319.1 6213.24 3757.23 6734.39 5942.45 4150.76 4228.53 6123.46 5368.52 4871.77 6142.88 5811.26 5797.21 5685.74 6740.35 952.938 4678.7 3673.6 5810.17 4966.07 3306.84 4657.24 4400.14 5748.9 4749.18 5553.94 4506.18 5166.41 5494.28 5740.65 6038.68 5046.12 7104.73 3000.29 2596.96 5067.56 6349.67 5701.75 4264.54 5261.19 3516.27 4139.3 4263.65 6541.45 4750.49 4263.78 6106.43 5644.81 5228.75 6545.99 4177.47 5334.36 4218.16 2918.64 4933.49 6139.64 3990.94 4357.11 5477.8 5486.89 4462.35 7208.19 4549.51 5025.42 5196.08 4965.24 6379.38 6257.79 5438.55 4849.5 5353.23 5977.66 4523.81 5065.74 5209.5 5791.25 6175.27 5876.51 6731.89 4286.61 5410.6 2932.52 4969.68 4603.66 3557.46 6636.43 5971.95 6298.8 5178.07 3689.24 6509.54 6079.55 2589.19 4696.06 5485.61 5308.4 6581.13 5803.3 5537.61 3228.27 4721.98 3543.98 4199.44 5878.55 6604.72 4812.59 4610.55 3794.47 4967.02 7115.67 5400.69 4462.5 4128.93 4959.72 4712.17 5004.68 3808.04 4023.88 4405.61 5348.11 5428.24 6007.1 4034.88 3511.5 6345.2 4609.65 5704.61 5009.21 4742.35 5394.79 5645.54 5264.08 3562.8 4526.87 4151.74 5192.82 6920.92 3729.16 3783.36 4174.22 4181.93 3573.84 3038.91 6828.8 3922.28 6570.43 5987.88 3579.59 6161.94 4065.28 5155.28 5057.59 5111.26 5388.73 5285.6 5062.77 6019.35 6075.99 6028.63 4600.71 3450.07 5265.21 4550.92 5927.2 6215.87 5191.26 4067.96 5866.42 4824.12 4704.92 3663.0 6542.5 4099.26 5206.47 3834.47 4834.39 6162.3 3272.75 5971.21 5493.89 4057.17 2781.96 7066.96 5262.47 3512.94 3104.96 4467.0 7043.44 4587.7 5601.55 3831.52 4258.98 5196.92 4643.9 3787.08 4013.86 4598.54 4816.51 5218.42 5345.73 4770.63 4841.23 2804.54 4196.62 2809.19 5005.6 4104.04 5589.53 5593.79 5104.39 5234.2 4612.13 5846.6 5327.05 4109.44 4903.84 4290.49 4434.65 4557.1 6688.53 5927.1 6500.45 4907.55 4103.76 6605.11 4757.87 6379.33 5130.57 5652.73 3979.46 5402.45 6321.97 6412.84 3985.93 6071.59 3856.4 4937.36 4137.16 6189.29 5984.55 5672.46 3956.24 7558.99 5252.82 4142.1 5056.26 5333.04 5445.91 4521.99 6842.54 2853.68 5675.45 6038.56 5573.31 2807.46 5599.16 3488.34 4179.8 5658.35 5108.84 5886.81 4582.12 4520.14 5067.92 5488.96 3188.21 5410.73 5128.03 3720.92 4379.91 4574.03 5290.37 4942.63 5850.38 4227.66 4691.01 4594.89 5245.95 3677.85 5821.42 4067.89 6294.09 6883.86 4571.57 3445.92 3350.99 3820.19 4979.5 5236.69 4745.37 4461.14 5418.98 5939.29 5575.11 5205.38 4574.54 4949.55 4884.93 3132.34 4764.83 1969.87 5262.79 3957.38 4494.15 5035.71 5146.1 4419.79 6485.77 6060.06 3669.32 4762.1 5544.27 3484.81 5610.53 3742.31 4316.0 4954.81 2970.9 4546.96 6304.49 4383.47 4608.34 4580.06 4835.97 3926.11 5695.79 5464.83 3622.8 4770.51 4920.88 4184.47 5414.58 4431.23 4991.35 4994.65 5740.98 4346.07 4462.87 4012.92 5759.79 4426.02 4711.15 4474.39 3825.48 5459.92 4658.59 5188.22 4096.47 3810.68 6478.35 5453.77 4916.7 2638.82 5030.33 5157.73 4541.22 5847.91 3539.68 4934.66 4696.03 4984.01 6217.33 4605.39 6270.59 6045.26 6263.87 5743.8 4094.63 5084.76 5581.01 6834.92 5749.53 5090.48 5247.73 5034.02 5582.28 4649.5 5945.25 5181.31 5985.75 5475.83 4329.8 3074.49 5728.27 6571.26 5202.33 5580.95 3549.92 3393.59 5043.14 4032.06 5246.81 5089.1 5394.78 5122.38 4998.37 3361.11 5901.71 6559.82 6565.95 4577.98 5043.34 4246.24 4487.51 4295.25 7394.47 5357.14 4850.95 5919.27 5087.3 6637.38 6139.74 4975.57 7066.26 4730.97 3057.3 6150.31 5214.71 4677.84 4515.02 4811.11 3463.53 6126.03 5131.07 4121.07 4586.82 5524.28 6026.04 5731.43 6200.05 5859.17 5615.06 5490.54 4841.28 4047.95 5203.54 5507.38 6889.5 4710.88 5001.69 5407.69 3869.39 5960.5 3987.69 6502.99 4287.25 5424.55 5755.15 5134.72 4921.1 4271.07 4191.01 3814.16 6419.64 4589.06 5340.05 4215.05 3626.86 4140.04 4668.8 5995.4 5577.41 5917.34 6511.37 4216.44 3999.5 6710.14 5735.08 4726.2 5034.05 3953.26 4750.81 5467.51 4282.11 4625.53 2347.41 4542.16 5714.51 3543.37 5114.67 2030.03 5353.66 5527.27 5765.14 4767.54 4946.08 2927.84 5121.08 5688.77 6177.68 5466.13 4698.7 5257.38 6229.64 2848.44 4220.43 4975.56 7282.36 4829.77 6666.34 3826.01 4645.91 4444.92 6959.88 4125.75 5971.9 3746.62 4532.67 4876.37 4769.62 5260.13 4810.74 5019.84 3900.93 4028.13 5784.38 4149.17 6260.58 3053.19 4720.22 4313.38 5827.3 6598.99 5250.56 2468.16 6294.14 5888.95 5203.75 3463.34 2459.88 5169.09 5262.85 5329.84 5470.67 5225.11 3879.83 5733.12 5252.22 6436.29 5402.81 6805.02 5354.48 4729.45 5640.63 6261.13 5374.09 4793.06 3421.81 6188.33 6111.23 6916.18 5786.06 5873.62 4137.41 4996.91 4924.52 4866.8 5379.52 3768.62 6044.69 2970.24 3133.28 5105.54 4197.87 5462.1 6353.81 3414.67 4052.49 4034.41 3518.14 4150.44 5061.74 6189.67 5326.03 6142.94 4420.35 4948.96 5117.83 4416.87 5256.82 5300.17 5152.78 5308.33 4117.9 5393.43 6896.55 4666.12 4638.09 4392.75 4685.65 6219.34 6023.07 4420.6 5674.63 5287.25 6506.63 5939.22 4725.11 5418.12 5092.93 5934.05 6371.96 4271.93 3495.3 5125.17 5890.25 5322.11 4859.01 5700.79 5076.11 4697.49 5524.45 7133.44 5600.21 4656.01 6589.13 5602.62 4037.86 4138.59 4938.33 4970.55 5628.97 4484.78 4819.83 4621.33 6286.27 4801.16 5071.38 5616.66 4802.36 5368.28 4880.78 5509.09 5075.23 5625.02 3873.72 4592.49 5212.05 5479.86 6474.5 3928.99 4763.04 5944.52 4413.56 5050.2 2513.38 4821.41 5316.05 4908.32 3995.08 4499.52 3874.12 4457.73 5759.19 6476.35 3113.64 4304.75 5480.86 4067.24 2832.83 4474.96 4084.87 6036.99 3633.58 3010.1 3584.05 3825.98 4339.97 4589.22 5087.03 4667.84 4691.15 4512.6 4210.24 4260.38 4636.45 4932.27 5342.9 4962.35 6793.49 6786.37 4600.81 4333.23 4919.13 4124.33 5168.97 4900.26 4167.55 4720.34 6271.22 5244.47 5378.75 3920.64 6186.24 5510.89 5822.7 3780.07 3868.69 4159.89 5447.74 3920.44 4450.51 6033.72 5314.67 3851.47 5658.05 4966.74 6593.1 4066.36 4000.51 6033.93 6032.45 5444.36 4026.03 5522.34 5771.98 5899.78 5717.45 5000.74 5772.57 4813.81 6581.56 4052.43 3980.46 4061.87 4057.4 5534.23 4585.37 4753.76 5383.9 6025.77 3934.11 4441.91 5158.44 5377.01 4466.22 5330.26 6470.23 5828.25 5917.08 4475.38 5483.37 5259.21 4256.08 6738.9 5881.93 4460.89 2803.01 4604.1 4157.1 4714.66 4399.52 5322.07 4444.0 6771.18 5770.07 5990.75 5101.6 5327.39 5781.62 4981.81 5141.03 4840.44 8123.59 6033.28 4188.16 6327.54 5507.07 4654.92 2943.17 5286.55 5327.71 4322.56 5223.1 4850.49 4981.55 3625.98 5144.23 6188.62 6153.07 4702.32 4414.06 5908.57 7296.47 5742.39 4780.16 4924.53 5616.11 4813.24 4433.23 5312.2 5847.27 4490.2 5734.84 3982.31 6139.9 4758.76 4582.24 4790.63 5259.29 4916.75 4818.53 3906.41 5584.64 4123.08 6224.64 4221.03 4576.71 3799.55 5638.51 4550.77 3563.33 3550.88 6060.19 5536.0 3860.8 4328.76 5561.63 5940.5 5783.88 4358.06 5002.38 6705.93 4865.11 4731.16 5502.14 6470.87 4495.33 5282.67 5466.49 5178.55 4038.17 5007.41 4907.48 3692.99 6213.74 5563.47 5651.46 3162.27 1635.31 5639.4 5011.37 6185.73 2827.92 5516.37 5092.44 5044.68 2649.69 4441.44 6908.32 3467.11 4817.75 6153.26 5268.27 4013.86 5244.95 4645.93 5165.31 3882.37 4634.25 4896.67 5448.64 5901.8 3798.09 6417.61 4288.5 4781.9 6815.96 6153.71 5339.6 6561.94 5350.9 5317.83 3483.61 5640.67 5992.06 5545.68 8052.53 3939.96 4554.24 5555.89 6182.19 4967.93 4984.17 4867.12 6044.01 5910.66 7415.84 4637.3 1458.87 5734.07 6241.48 3997.68 4414.09 5125.45 5957.82 3784.68 3717.22 6305.9 6649.21 3470.69 5093.28 4859.95 4132.08 5522.18 4699.77 5093.41 6842.35 5464.34 3621.63 4777.96 5801.89 6833.5 2613.78 5417.07 3796.73 3834.01 5738.37 6789.66 4739.41 6760.64 4706.59 2515.5 5177.88 5551.79 4950.07 5367.05 3916.15 4088.72 3743.85 6236.46 5097.85 6189.04 3795.63 5189.4 5082.66 4337.93 5201.3 4345.51 6223.33 5145.13 3747.96 5611.29 6568.45 5093.51 5647.93 5004.22 6201.49 5449.09 5154.74 4605.61 4465.56 4131.08 5747.9 5386.95 3864.19 5146.69 4287.93 6203.24 6818.23 4488.41 2329.93 4959.94 4369.87 6938.87 5412.07 5512.57 4083.24 6520.96 4232.44 4612.4 5336.61 3312.3 5563.09 5637.53 4848.15 3282.57 4439.09 4798.13 5523.81 4095.4 5188.57 6351.48 5395.12 5715.51 4496.51 3886.56 4511.05 3456.3 3830.7 6074.39 5432.4 4262.52 5037.58 7430.48 4844.2 6572.17 6080.69 2181.29 3751.73 4926.62 4420.3 3374.62 4766.47 4970.12 6369.66 6520.19 6009.93 5973.57 5922.62 5130.56 4957.99 4063.26 5191.29 4947.64 4997.89 4542.62 4881.51 6131.52 6009.88 6729.99 6664.54 3922.98 5161.73 5259.48 5254.93 4803.4 8013.28 6608.94 4644.68 5283.65 3082.16 2892.36 5656.84 5911.29 5416.41 4694.27 4414.23 4849.21 4785.55 3793.83 6981.47 6189.81 4449.73 3945.62 5647.11 5342.17 6379.3 5015.67 6538.04 4894.15 6157.59 5848.41 4048.73 5438.6 7370.52 4521.88 3724.23 5103.3 4280.92 4601.54 7263.57 4696.92 5705.96 6437.99 6898.8 6632.04 6540.57 5315.71 5332.11 6158.93 5081.65 4823.14 6679.12 5652.19 5806.74 6578.62 4806.99 3771.91 5432.2 5217.62 3839.0 6178.19 4746.19 4616.81 6381.58 5715.25 5212.2 4611.21 5648.59 4469.82 4718.61 6697.45 3873.79 5717.67 5357.33 4432.32 5783.69 5252.37 3224.81 6210.0 4499.54 3775.38 5782.25 4046.22 6457.89 4081.77 5114.61 4948.21 4987.01 6118.13 4706.31 4202.12 6332.64 4871.1 2694.25 4735.99 3917.09 4083.1 4613.32 5678.08 3482.73 5872.45 3996.93 5270.1 6351.95 5195.09 5345.05 3997.52 4444.54 7679.2 5779.9 4909.74 2626.41 5310.33 4311.92 5299.03 5036.84 4565.36 5813.68 4025.08 5040.9 4008.67 4770.21 4868.66 4004.39 5159.9 3846.55 4987.48 5943.61 5981.54 5479.17 4542.25 5020.37 5233.88 5245.4 4090.28 4246.83 4726.5 5467.05 4963.88 5888.94 4727.98 3832.09 4122.2 5175.88 5267.65 5739.69 3509.34 5360.88 4893.72 6004.72 4072.4 5373.78 5345.65 5438.5 4621.32 5699.4 3878.8 4698.94 4813.55 5856.43 3948.21 4796.04 3465.03 5349.85 6011.4 5799.86 4672.34 5172.1 4362.94 6052.22 5056.32 5376.41 5108.42 4630.5 3354.94 6296.36 5105.72 5515.59 4082.01 3721.69 5237.27 4451.76 7885.41 4750.76 4907.03 4104.97 4575.72 5617.91 4444.95 5606.22 4721.2 3943.77 5161.02 6265.48 5003.81 4203.68 6492.44 4739.56 4701.03 5145.39 3352.46 6225.05 5434.04 5200.1 5994.21 3929.35 4884.93 5403.81 5082.25 6964.78 4374.05 5282.51 5504.65 5669.41 3760.4 5732.11 3618.53 4602.7 3783.35 5596.68 4037.16 6395.63 4248.58 4516.26 3647.26 4790.16 7360.62 3731.58 3166.37 4977.64 4983.56 4985.45 5699.51 5499.37 2489.44 4489.18 5863.36 4632.75 5237.76 6284.12 4286.84 5669.15 5229.56 5296.05 5263.86 6988.4 3330.85 6635.51 5533.52 6545.78 5410.33 4870.14 4404.87 4695.7 2932.2 4944.08 5576.16 5767.65 5003.49 5269.39 3964.03 4305.35 5210.22 3308.75 4216.33 5497.27 4929.35 3903.9 5051.39 6673.92 5242.38 3124.49 5151.68 6081.35 5459.52 6262.18 3818.37 5566.5 5663.36 4752.31 4276.59 5579.04 5569.85 5125.53 5306.31 5405.6 5523.96 4223.53 4759.38 4733.37 4535.94 6960.97 4287.15 5126.08 5604.0 4951.02 3919.47 5369.42 5205.53 5207.08 4714.52 4587.19 5543.05 4883.13 4836.76 4752.94 4994.98 5551.09 6423.96 6058.13 5581.47 5894.69 4274.05 6550.61 4987.01 4060.17 4713.56 5003.63 4747.24 5302.53 4380.86 4909.13 4287.61 3999.81 5648.02 4867.13 4604.34 4439.17 4863.27 5832.72 2451.27 5677.42 5442.79 6853.07 6327.61 4633.59 4884.94 5733.59 5362.15 5268.93 4609.98 4455.61 3695.72 4738.72 5240.97 6874.6 5106.9 3037.72 4523.9 6028.89 5333.16 4888.17 3950.53 4501.1 5755.98 4384.91 5392.85 5077.2 5275.27 4277.54 5529.09 6051.35 4531.46 6094.34 5925.82 6779.82 5543.67 4739.5 4072.95 6210.48 6377.45 4182.05 2701.42 4502.12 3255.93 5575.8 5448.68 4491.62 3865.5 
SCALARS Velocity float 1
LOOKUP_TABLE default
1.28744 1.3301 1.33869 1.33905 1.36995 1.36721 1.27819 1.31755 1.26584 1.25772 1.32897 1.31165 1.35491 1.29224 1.33996 1.35451 1.37643 1.36431 1.37258 1.24524 1.24931 1.27796 1.30002 1.27992 1.29967 1.31669 1.31874 1.30085 1.32847 1.32381 1.25615 1.24512 1.23746 1.32259 1.28092 1.28535 1.39145 1.37194 1.33081 1.31274 1.30805 1.35652 1.28916 1.33828 1.3493 1.36221 1.38284 1.28891 1.29831 1.22869 1.24377 1.25191 1.309 1.33161 1.33388 1.32832 1.31505 1.33197 1.33076 1.33351 1.32044 1.2557 1.24368 1.22636 1.35055 1.28572 1.31903 1.34436 1.33768 1.34272 1.33976 1.34362 1.3689 1.35498 1.38521 1.4485 1.28998 1.28742 1.29388 1.31616 1.31262 1.33136 1.35165 1.31846 1.19544 1.27975 1.25782 1.22801 1.22289 1.34691 1.27661 1.34932 1.31807 1.32854 1.33366 1.32807 1.3304 1.36126 1.34821 1.37055 1.36615 1.38451 1.43188 1.47767 1.28605 1.30918 1.32048 1.34808 1.37238 1.27879 1.32849 1.28396 1.25165 1.22614 1.19656 1.18228 1.32974 1.26198 1.3372 1.37101 1.3872 1.44832 1.51887 1.31739 1.35329 1.36527 1.38134 1.44059 1.48136 1.30475 1.29327 1.31824 1.31186 1.34711 1.36333 1.32984 1.37178 1.38925 1.28989 1.27898 1.27011 1.21118 1.22684 1.30307 1.23295 1.2635 1.23937 1.33196 1.26739 1.30917 1.35322 1.35929 1.45858 1.57058 1.29742 1.35367 1.368 1.44726 1.4653 1.29636 1.31811 1.33898 1.33644 1.36971 1.38357 1.3184 1.29051 1.26994 1.20839 1.28847 1.28711 1.31545 1.24754 1.18732 1.30385 1.2861 1.20637 1.35538 1.33193 1.38615 1.46623 1.49284 1.50176 1.30545 1.44378 1.39911 1.48233 1.44562 1.46609 1.45987 1.42457 1.34151 1.35232 1.31645 1.3419 1.38452 1.36723 1.35338 1.2785 1.25663 1.29529 1.19086 1.19125 1.23551 1.31491 1.13297 1.29269 1.24987 1.16832 1.16283 1.22657 1.37064 1.39076 1.4039 1.49003 1.42339 1.37676 1.49656 1.45592 1.46451 1.40398 1.34287 1.34673 1.30508 1.41968 1.32726 1.41563 1.27333 1.23311 1.34701 1.38815 1.20084 1.29887 1.30025 1.32353 1.40866 1.25091 1.16794 1.35648 1.18193 1.21343 1.41722 1.42907 1.41287 1.45292 1.4759 1.35535 1.37084 1.45135 1.44106 1.47178 1.31632 1.49321 1.47784 1.42624 1.54902 1.45464 1.44789 1.41238 1.13207 1.17776 1.28787 1.3701 1.37733 1.27875 1.32403 1.51617 1.48744 1.42039 1.67193 1.41358 1.38179 1.43691 1.54311 1.47436 1.47773 1.40169 1.46916 1.49086 1.44999 1.52506 1.53213 1.459 1.41821 1.47707 1.40674 1.16822 1.37521 1.18781 1.26374 1.18687 1.38469 1.41834 1.38905 1.50225 1.38566 1.62304 1.38592 1.4958 1.41412 1.47495 1.44782 1.42229 1.48366 1.61904 1.46056 1.49202 1.51401 1.49732 1.50378 1.50296 1.48493 1.39731 1.40134 1.30994 1.43159 1.46502 1.44082 1.12122 1.24318 1.36174 1.42733 1.45227 1.54155 1.65985 1.39498 1.48887 1.53583 1.4141 1.46268 1.44913 1.48171 1.53084 1.57955 1.54553 1.48936 1.4996 1.51494 1.50652 1.50305 1.48874 1.42847 1.33155 1.43514 1.51965 1.49703 1.51606 1.58435 1.1738 1.121 1.27171 1.42241 1.42778 1.53959 1.62657 1.55899 1.53243 1.68068 1.38062 1.5627 1.63284 1.42601 1.47054 1.49396 1.4805 1.53014 1.49547 1.52383 1.50969 1.49513 1.51275 1.49328 1.50731 1.50726 1.4965 1.45955 1.7199 1.84865 1.59368 1.34181 1.42267 1.52056 1.57799 1.74051 1.14288 1.06048 1.3264 1.28161 1.33384 1.5895 1.73073 1.37744 1.41267 1.73113 1.48841 1.55507 1.62171 1.47591 1.5122 1.48248 1.49545 1.51639 1.51175 1.50199 1.50836 1.5054 1.50026 1.49877 1.50419 1.48902 1.47677 1.69042 1.76651 1.59222 1.60956 1.61298 1.51641 1.77185 1.46173 1.92113 1.30042 1.48789 2.3509 2.15085 1.76832 1.61676 1.67417 1.55522 1.53395 1.53509 1.51437 1.51045 1.51167 1.51603 1.51433 1.51412 1.5173 1.51216 1.50131 1.48812 1.47887 1.49265 1.55573 1.59441 1.60144 1.74777 1.81579 1.71962 1.36704 1.92166 1.9592 1.40957 1.04345 2.85095 0.732883 1.56305 2.68207 1.77613 1.56008 1.70793 1.47166 1.53859 1.5184 1.5468 1.5346 1.52582 1.52236 1.52009 1.52398 1.51124 1.51182 1.50316 1.52279 1.48823 1.51977 1.61392 1.66361 1.69298 1.67166 1.67014 1.72164 2.10243 2.2625 2.9332 1.31557 1.80211 1.90582 1.77131 1.56586 1.75862 1.83347 1.77158 1.26742 1.41106 1.57144 1.56222 1.55459 1.54376 1.55828 1.53047 1.53135 1.53282 1.52708 1.52508 1.52085 1.51572 1.52597 1.5216 1.52367 1.53132 1.52737 1.51404 1.42021 1.50805 1.34817 1.55523 1.72675 1.77732 1.64676 1.59121 1.78792 1.54717 1.70891 1.19178 1.39644 1.45544 1.47789 1.73116 1.59854 1.69356 1.51151 1.41084 1.55194 1.5461 1.5262 1.52623 1.51984 1.51945 1.52368 1.51787 1.52506 1.51243 1.53097 1.54027 1.49855 1.37181 1.64426 1.74629 1.7371 1.57411 1.57414 1.56481 1.61518 1.52456 1.68123 1.55471 1.42905 1.42698 1.44906 1.43364 1.50709 1.58167 1.54223 1.52069 1.49605 1.49359 1.57353 1.50672 1.52567 1.52583 1.51887 1.50762 1.51276 1.51613 1.49276 1.50501 1.45502 1.48938 1.6143 1.559 1.52641 1.54449 1.49712 1.43121 1.45854 1.49368 1.55817 1.53192 1.50362 1.47456 1.50992 1.54442 1.47203 1.51162 1.52052 1.49186 1.51882 1.5181 1.50733 1.51917 1.50625 1.4958 1.49242 1.49916 1.47067 1.48746 1.43118 1.4527 1.53408 1.51532 1.52389 1.52221 1.48586 1.50088 1.47717 1.41758 1.4659 1.45826 1.42997 1.37 1.55917 1.60997 1.47781 1.46248 1.49002 1.45762 1.48655 1.49669 1.49044 1.50285 1.49467 1.50357 1.4793 1.47481 1.4707 1.46485 1.5008 1.4508 1.43513 1.47609 1.49816 1.49493 1.46367 1.46651 1.44741 1.19178 1.42139 1.42472 1.43332 1.43882 1.20338 1.43079 1.54256 1.46616 1.47419 1.47639 1.46349 1.47516 1.47434 1.49052 1.49686 1.50455 1.48716 1.4776 1.49728 1.47727 1.48734 1.47702 1.46927 1.45977 1.46638 1.44511 1.45872 1.47269 1.47273 1.4582 1.43009 1.41998 1.41237 1.40865 1.46615 1.48691 1.46906 1.45897 1.44436 1.43543 1.19178 1.41511 1.40758 1.42223 1.40918 1.39835 1.40484 1.28143 1.33398 1.42708 1.44543 1.41727 1.4386 1.45086 1.43031 1.47316 1.48132 1.44736 1.48538 1.45196 1.46443 1.45738 1.47453 1.48083 1.48084 1.44927 1.42994 1.47812 1.46112 1.42528 1.39005 1.43108 1.45879 1.41999 1.46678 1.44284 1.43711 1.42622 1.43201 1.42617 1.41846 1.19178 1.40381 1.35857 1.38681 1.3912 1.3803 1.42028 1.41218 1.40734 1.46551 1.44525 1.43971 1.44012 1.45774 1.47034 1.40959 1.40106 1.42525 1.4057 1.40248 1.45183 1.45715 1.46992 1.43492 1.43136 1.47313 1.40881 1.3722 1.46265 1.43988 1.43667 1.42432 1.36737 1.34244 1.42881 1.44329 1.42334 1.43435 1.42214 1.42259 1.41362 1.39458 1.39399 1.38699 1.39291 1.38482 1.37827 1.37583 1.44595 1.4357 1.44587 1.44831 1.45862 1.41082 1.43521 1.41113 1.40078 1.38944 1.38685 1.38691 1.37266 1.47215 1.36893 1.42266 1.34998 1.36057 1.42569 1.43593 1.43729 1.44316 1.42022 1.50196 1.35707 1.33418 1.26168 1.42182 1.37384 1.43185 1.42241 1.40066 1.40347 1.39573 1.39363 1.39016 1.38522 1.38557 1.38218 1.35235 1.38154 1.42298 1.4094 1.43734 1.4486 1.43262 1.45919 1.37679 1.39483 1.36111 1.29153 1.34249 1.41312 1.34282 1.4182 1.42482 1.43112 1.37716 1.43364 1.37528 1.36829 1.37598 1.49462 1.37407 1.30382 1.47103 1.407 1.39756 1.39979 1.37963 1.19178 1.39134 1.3875 1.38016 1.38699 1.38248 1.37781 1.38214 1.3837 1.34736 1.4154 1.41995 1.37445 1.39587 1.40761 1.3917 1.38282 1.38873 1.36827 1.38268 1.34561 1.32543 1.33812 1.3825 1.35213 1.41233 1.42878 1.39155 1.42291 1.35869 1.3742 1.37327 1.34683 1.37919 1.4576 1.38017 1.38501 1.40223 1.3898 1.38819 1.38226 1.19178 1.19178 1.3874 1.38578 1.38191 1.3723 1.37583 1.38571 1.37391 1.35976 1.3702 1.36067 1.36539 1.36449 1.36645 1.36516 1.36566 1.35985 1.381 1.36458 1.37482 1.36158 1.36692 1.34624 1.33792 1.34825 1.34552 1.37708 1.35314 1.3901 1.37097 1.41328 1.4113 1.40919 1.40362 1.35159 1.37173 1.37212 1.37589 1.39122 1.38911 1.38269 1.37457 1.36765 1.36357 1.38541 1.37974 1.37198 1.37859 1.3629 1.36992 1.36351 1.36421 1.35679 1.35678 1.35665 1.35707 1.35984 1.35707 1.35812 1.35523 1.3621 1.36088 1.36006 1.36241 1.35052 1.35428 1.36191 1.37491 1.36967 1.37222 1.38481 1.35969 1.41376 1.36599 1.36308 1.35986 1.37445 1.38766 1.38902 1.38525 1.39172 1.36886 1.36095 1.35881 1.35496 1.37705 1.37252 1.3689 1.37107 1.35945 1.36229 1.36073 1.35529 1.35378 1.35198 1.35125 1.3449 1.35345 1.34959 1.3499 1.35555 1.34974 1.355 1.34595 1.35325 1.35945 1.35967 1.35435 1.3641 1.35536 1.36054 1.3669 1.36767 1.38637 1.37001 1.415 1.35687 1.36152 1.36247 1.36556 1.36912 1.39739 1.35989 1.41956 1.39403 1.38108 1.37142 1.35201 1.35473 1.35286 1.34837 1.3642 1.35688 1.35461 1.35617 1.35645 1.34929 1.34534 1.35322 1.33667 1.34553 1.33794 1.34303 1.34311 1.34672 1.34983 1.3496 1.34568 1.34125 1.34166 1.34865 1.35329 1.35675 1.36096 1.36214 1.36342 1.35721 1.36549 1.36477 1.36069 1.37092 1.36193 1.35751 1.35918 1.37963 1.37039 1.35107 1.32284 1.4187 1.33731 1.38279 1.33612 1.35414 1.3446 1.34033 1.19178 1.3534 1.35312 1.35109 1.35297 1.34563 1.3447 1.33057 1.33091 1.34089 1.34175 1.33636 1.34181 1.35294 1.34081 1.33733 1.32684 1.34501 1.35259 1.35487 1.35254 1.36333 1.36153 1.36441 1.36195 1.36881 1.36729 1.36656 1.37627 1.35642 1.36676 1.3749 1.39302 1.31516 1.32062 1.31523 1.30867 1.28506 1.37972 1.32289 1.36095 1.34802 1.39725 1.34614 1.34491 1.19178 1.35271 1.35136 1.3477 1.34958 1.34396 1.34217 1.33889 1.34065 1.33219 1.32596 1.32441 1.32281 1.33361 1.33611 1.33303 1.33372 1.34158 1.33366 1.33374 1.33761 1.34978 1.35088 1.35046 1.35721 1.37364 1.36482 1.37785 1.35246 1.35477 1.32571 1.36842 1.31957 1.34086 1.32416 1.29994 1.29577 1.31999 1.33837 1.2961 1.33222 1.38136 1.37535 1.33492 1.33955 1.19178 1.34747 1.34329 1.34016 1.34004 1.32871 1.33987 1.33444 1.33976 1.32273 1.31811 1.32209 1.3211 1.3204 1.32697 1.33304 1.33249 1.33282 1.33628 1.34957 1.34307 1.34623 1.34871 1.33797 1.35005 1.36322 1.38115 1.33555 1.35837 1.34021 1.32344 1.30247 1.32644 1.30333 1.31778 1.33363 1.32474 1.29359 1.32916 1.32399 1.29649 1.33796 1.3083 1.35462 1.35232 1.34091 1.3268 1.33764 1.33818 1.32534 1.34105 1.33871 1.33195 1.33984 1.31702 1.3136 1.32631 1.31476 1.3301 1.30951 1.33277 1.33367 1.34028 1.33704 1.33209 1.34574 1.34224 1.32958 1.31943 1.34139 1.35447 1.36608 1.34102 1.36495 1.34801 1.37316 1.34568 1.31653 1.30963 1.33454 1.32718 1.29512 1.29663 1.30587 1.28294 1.31415 1.3159 1.34516 1.33898 1.34218 1.33976 1.35194 1.34683 1.34282 1.33918 1.32178 1.33474 1.33609 1.32417 1.33616 1.32077 1.34054 1.30398 1.29485 1.31086 1.31087 1.31613 1.28966 1.34402 1.35391 1.37862 1.34643 1.32721 1.33276 1.33848 1.3386 1.31015 1.3059 1.37003 1.32486 1.38389 1.38028 1.32869 1.33086 1.29188 1.30666 1.24925 1.27141 1.26245 1.29438 1.2924 1.30559 1.40046 1.27178 1.35711 1.38501 1.35649 1.36767 1.33452 1.33861 1.31225 1.32794 1.35699 1.35583 1.35358 1.32525 1.33431 1.33812 1.33378 1.33342 1.31254 1.32215 1.30136 1.30831 1.21737 1.33763 1.34242 1.34064 1.35089 1.34078 1.33637 1.34674 1.31519 1.3278 1.33166 1.30035 1.29684 1.42624 1.18731 1.28529 1.29651 1.32191 1.29059 1.28011 1.32622 1.30713 1.25469 1.23262 1.28029 1.26115 1.29969 1.40119 1.25952 1.41053 1.39524 1.36155 1.32129 1.37514 1.26501 1.31037 1.43788 1.44231 1.3552 1.33697 1.39697 1.35002 1.33225 1.31166 1.32379 1.29073 1.30083 1.29516 1.24667 1.20646 1.30887 1.32178 1.35069 1.31858 1.31757 1.33798 1.3397 1.265 1.24913 1.2072 1.26037 1.28485 1.32799 1.26695 1.2528 1.29555 1.21958 1.28991 1.23538 1.3815 1.34816 1.36888 1.31815 1.34403 1.22899 1.45621 1.5167 1.19178 1.27009 1.26039 1.44479 1.4714 1.34112 1.34413 1.35416 1.39039 1.34598 1.32804 1.32362 1.31834 1.30537 1.24248 1.23502 1.25167 1.20614 1.42721 1.34997 1.30873 1.378 1.37741 1.29317 1.25889 1.36968 1.23273 1.38273 1.42152 1.27777 1.23056 1.40858 1.28081 1.24289 1.30187 1.26022 1.22517 1.21307 1.20741 1.24442 1.28519 1.30849 1.3348 1.32872 1.30551 1.31727 1.31485 1.55543 1.32677 1.641 1.64751 1.14404 0.881867 1.15601 1.53295 1.50898 1.3329 1.29814 1.45581 1.4253 1.40931 1.42537 1.33797 1.25396 1.22603 1.23475 1.08537 1.19252 1.28333 1.30608 1.34519 1.32926 1.27902 1.20802 1.25682 1.28858 1.41462 1.39234 1.22865 1.03443 1.43256 1.2473 1.25325 1.28231 1.17882 1.29533 1.37321 1.31428 1.32328 1.2913 1.33313 1.32571 1.30539 1.22419 1.15714 1.75738 1.7279 0.552919 0.68737 0.734082 1.52056 1.56277 1.34938 1.75149 1.3585 1.34501 1.44129 1.47409 1.50586 1.15469 1.23967 1.20959 1.23737 1.24608 1.23737 1.25538 1.28824 1.26947 0.857069 1.16112 1.30604 1.30172 1.30545 1.31888 1.35028 1.30058 1.27146 1.18545 1.16901 1.2662 1.29044 1.16033 1.11437 1.28755 1.29058 1.3848 1.33372 1.56232 1.02492 1.21099 1.05299 1.36149 1.40269 1.44157 1.20863 1.36527 1.1683 1.27349 1.14552 1.32785 1.23294 1.89848 2.08095 1.52618 0.565237 0.570304 0.705509 1.75029 0.87187 0.877881 0.838554 0.864352 1.58244 1.40456 1.63304 1.5585 1.37057 1.43982 0.793734 1.04476 1.67176 1.20469 0.748496 0.861583 1.20645 1.19028 1.21035 1.37372 1.22583 0.924018 1.11517 0.791781 1.62094 1.2275 1.30083 1.30727 1.35448 0.930505 1.04331 0.992295 0.925691 1.10314 1.31448 1.15544 1.0883 1.38073 1.4054 1.41601 1.29448 1.23247 1.16023 1.04883 1.42041 1.35233 0.993912 1.23092 1.15604 1.16112 1.44463 0.99526 1.20959 1.18133 1.13927 1.14338 1.47176 1.10448 1.3513 1.28958 0.996621 0.845647 0.823369 0.927126 0.842884 0.851274 0.747216 0.749992 0.845858 0.81564 0.772459 0.895375 0.810416 0.986526 0.842885 0.740185 1.33672 1.2135 1.14549 0.622013 0.761461 1.20566 1.08196 1.16149 1.28613 0.933374 1.10702 1.28141 1.13962 1.34255 0.999268 1.1418 1.22453 1.3036 1.31789 1.22017 1.07092 1.3342 1.39962 0.918707 1.04478 1.19813 1.23322 1.30703 1.10658 1.2423 1.01225 1.12579 0.804781 1.27943 1.00949 1.5925 1.35721 1.30876 0.997917 1.43491 1.27198 0.743826 1.15984 1.16022 1.00872 1.25578 1.1446 1.04675 1.08693 1.06504 0.987224 1.21428 1.08963 0.981304 1.20419 0.937562 1.03327 1.02079 0.845406 0.854256 0.895348 0.779727 0.869665 0.322083 0.732118 0.730611 0.732249 0.738484 0.732575 0.751058 0.781381 0.759639 0.806838 0.766758 0.768289 0.725058 0.949148 0.838746 0.886284 0.891703 0.911516 1.03884 1.04495 0.932262 1.1622 1.16099 1.17183 1.20873 1.19636 1.2113 1.01672 1.07122 1.18691 1.0481 1.09874 1.098 1.07596 1.14779 1.18567 1.22957 1.13986 1.2406 0.98828 0.927835 0.978244 1.00439 0.974999 1.22494 1.06158 1.0761 1.11254 1.24634 1.09359 1.25441 1.16392 1.11324 1.17612 1.12665 0.929841 1.08154 0.603135 1.34063 1.48989 0.970629 0.968831 1.05417 0.884567 1.03377 0.99693 1.04349 0.948414 1.01548 0.979329 1.0559 0.715228 0.680799 0.944338 0.853627 0.68145 0.749302 0.701565 0.919274 0.758993 0.949295 0.80716 0.37312 0.435243 0.74223 0.482862 0.458572 0.718015 0.710702 0.73353 0.736791 0.734389 0.74427 0.753855 0.760706 0.742007 0.774177 0.781786 0.729508 0.741376 0.760797 0.763502 0.751167 0.782298 0.79315 0.835856 0.856651 0.879942 0.87389 0.937763 0.95821 0.982193 1.0294 0.926967 0.873287 1.28461 1.27437 1.01744 1.07042 1.24181 1.0108 1.03416 0.920566 1.1934 1.11939 1.09762 0.932551 1.14284 1.17833 0.963413 1.13012 1.11896 0.963544 0.903373 0.950691 0.931469 0.998551 0.906681 0.864492 0.979956 1.08233 1.2346 1.04359 1.16261 1.06522 1.04893 0.667191 0.778282 1.16967 1.20525 0.81776 1.12712 1.06638 0.980172 0.882858 0.978472 0.93542 0.932952 0.970483 0.922751 0.860831 0.936228 0.887279 0.63849 0.807421 0.852884 0.618935 0.827369 0.688907 0.871053 0.798639 0.757122 0.822074 0.815258 0.740496 0.828754 0.745902 0.880225 0.762527 0.609198 0.445285 0.587775 0.605637 0.684861 0.701293 0.675474 0.698485 0.740952 0.754071 0.734293 0.802379 0.886392 0.79646 0.766803 0.702125 0.713135 0.737331 0.738955 0.802096 0.749696 0.815204 0.853492 0.833357 0.945838 0.912874 0.891974 0.988099 1.00462 0.913288 1.14461 1.0079 0.7088 1.22657 0.898383 0.836308 0.54095 1.17622 1.16131 1.03421 0.985791 0.934786 0.86021 0.64087 0.941962 1.006 1.13618 0.972048 1.05141 1.02314 0.972752 0.907774 0.952958 0.913449 0.921723 0.954617 0.976855 1.05002 0.862263 1.0327 1.14218 1.04662 0.818819 1.05676 0.710518 0.921317 1.07326 0.901084 0.74404 1.05203 0.961428 0.958008 0.968116 0.925387 0.921194 0.927472 0.88552 0.860556 0.835505 0.76487 0.723797 0.80114 0.838774 0.808251 0.705729 0.780816 0.631245 0.855761 0.936257 0.685541 0.705734 0.742958 0.838464 0.790167 0.978968 0.65455 1.10263 0.674177 0.569253 0.766313 0.613995 0.634019 0.668946 0.647615 0.679301 0.66757 0.711454 0.798853 0.619537 0.876332 0.603774 0.288747 0.756767 0.76179 0.753073 0.681905 0.64525 0.711334 0.734447 0.785764 0.756227 0.817262 0.839248 0.733136 0.807366 0.687498 0.956073 1.00413 0.948833 0.930182 0.965332 0.829412 0.90926 0.771466 0.757673 0.753369 0.704977 0.765508 0.631759 0.730413 0.575921 1.30997 0.798791 1.00437 0.974997 0.826357 0.719944 0.566593 0.892948 1.0083 0.9088 1.03936 1.04622 0.857372 0.869571 0.869886 0.949786 0.988462 1.00527 1.04454 0.88214 0.891652 0.970128 0.956221 0.960186 1.2737 1.3148 0.971889 0.820724 0.909278 0.999764 0.879995 0.827195 0.88956 0.94263 0.950426 0.92683 0.904628 0.856596 0.778255 0.722775 0.803334 0.812487 0.822795 0.753814 0.725305 0.700172 0.745703 0.613897 0.649964 0.540394 0.843873 1.33756 0.62588 0.77185 1.03142 0.625538 0.630661 0.727972 0.601681 0.631956 0.652467 0.645396 0.644998 0.645164 0.605389 0.619193 0.624362 0.636045 0.634769 0.612247 0.621072 0.651748 0.590833 0.613778 0.461862 0.595942 0.534077 0.761261 0.715039 0.671829 0.686317 0.756831 0.713969 0.6455 0.692029 0.679156 0.69046 0.666861 0.634717 0.674563 0.72139 0.891315 0.923036 0.899759 0.837264 0.836297 0.771813 0.770821 0.751929 0.73721 0.748525 0.747007 0.814232 1.09598 1.06979 0.863866 0.941544 0.861806 0.790139 0.742507 0.70315 0.911894 0.93252 0.865332 0.877653 1.09145 0.912093 1.10377 0.981166 0.844106 0.88624 0.885024 0.913396 0.942993 0.809629 0.788811 0.984148 0.826961 1.01039 0.87977 0.718417 0.900676 0.945813 0.88587 0.890907 0.826521 0.854557 0.80305 0.825745 0.821693 0.875076 0.807547 0.873729 0.824218 0.931115 0.883904 0.864644 0.868006 0.831205 0.915441 0.827871 0.741597 0.855515 0.805371 0.738538 0.759918 0.713582 0.715273 0.676257 0.718665 0.803547 0.245352 0.672133 0.722102 0.673296 0.595283 0.580562 0.666398 0.631561 0.632918 0.643914 0.640959 0.629621 0.643398 0.643665 0.645078 0.646362 0.586029 0.600061 0.588941 0.607101 0.60064 0.603452 0.60742 0.613659 0.620688 0.622677 0.628865 0.647067 0.648279 0.695641 0.721349 0.687155 0.706866 0.756541 0.75296 0.797742 0.744395 0.836858 0.739441 0.669571 0.626571 0.598013 0.651543 0.932696 0.768102 0.812143 0.743698 0.748363 0.733661 0.733849 0.67542 0.738751 0.616488 0.620425 0.815666 0.801201 0.8429 0.831807 0.811747 0.759448 0.8242 0.797538 0.812611 0.845635 0.861219 0.925472 0.9861 0.969719 0.950154 0.761728 0.956932 0.887574 0.855076 0.928105 0.808661 0.975632 0.726423 0.755019 0.922654 0.780374 0.841759 0.863368 0.882026 0.861051 0.883826 0.857185 0.82895 0.957221 0.755199 0.804047 0.812771 0.831765 0.867592 0.841963 0.754275 0.487148 0.647548 0.771752 0.71773 0.769465 0.75715 0.752824 0.755408 0.739444 0.784169 0.728244 0.683339 0.747071 0.681955 0.715666 0.70171 0.660244 0.630772 0.638897 0.648721 0.621636 0.628559 0.714682 0.606398 0.638779 0.656703 0.644609 0.653341 0.648309 0.644767 0.716525 0.656937 0.636705 0.647384 0.64966 0.633173 0.639312 0.638288 0.618541 0.572052 0.574101 0.583147 0.583916 0.589135 0.596774 0.587795 0.587942 0.596975 0.605907 0.597878 0.603242 0.606211 0.615324 0.601797 0.6128 0.603436 0.563448 0.581961 0.685742 0.658208 0.71882 0.824696 0.79203 0.84933 0.721205 0.602331 0.706875 0.66774 0.675234 0.596612 0.663927 0.626909 0.729707 0.809241 0.604372 0.635448 0.672321 0.759892 0.734504 0.815097 0.709212 0.702826 0.65953 0.673013 0.62031 0.57402 0.929444 0.751315 0.768278 0.765948 0.745128 0.768886 0.820728 0.833249 0.88108 0.828094 0.949808 0.814323 0.806174 0.74484 0.844859 0.855386 0.780872 0.749396 0.728875 0.745091 0.702369 0.679392 0.816159 0.791448 0.750745 0.855402 0.852604 0.861739 0.782156 0.800617 0.824415 0.814999 0.778671 0.78162 0.886398 0.883282 0.653977 0.745846 0.828161 0.807258 0.852993 0.927438 0.860416 0.687184 0.830781 0.771374 0.679099 0.694156 0.711782 0.762167 0.717674 0.690981 0.692669 0.705241 0.66403 0.668427 0.642559 0.614238 0.621707 0.612884 0.606032 0.691222 0.669075 0.592623 0.71673 0.656162 0.632633 0.66962 0.65194 0.590654 0.603666 0.593016 0.603627 0.605495 0.580284 0.603805 0.586864 0.572456 0.570932 0.569211 0.559688 0.569989 0.572942 0.56859 0.58092 0.579443 0.587964 0.586537 0.588318 0.592693 0.588595 0.592301 0.596653 0.598682 0.604571 0.611823 0.619587 0.618086 0.625277 0.627458 0.640169 0.593927 0.615218 0.655716 0.634793 0.762785 1.04633 0.166051 0.743766 0.515205 0.552715 0.584484 0.617364 0.621041 0.619849 0.648918 0.725934 0.770533 0.847263 0.708551 0.686219 0.662939 0.636571 0.653625 0.623503 0.585391 0.597788 0.493858 0.657162 0.772173 0.861673 0.645996 0.757204 0.705027 0.719081 0.855615 0.831099 0.92352 0.983398 0.944272 0.804874 0.681726 0.785842 0.82945 0.755857 0.790805 0.687815 0.71857 0.695663 0.65746 0.759178 0.68247 0.757291 0.71556 0.731306 0.774901 0.612203 0.74269 0.819634 0.772227 0.753388 0.997402 0.913014 0.882641 0.812724 0.77942 0.928652 0.793815 0.746444 0.640891 0.609496 0.678076 0.687665 0.680819 0.721243 0.665132 0.673466 0.679552 0.672369 0.668991 0.655511 0.630157 0.592083 0.560921 0.683581 0.538718 0.821805 0.401982 0.566078 0.720787 0.457013 0.576488 0.550288 0.61441 0.62579 0.590405 0.567172 0.595855 0.600922 0.588896 0.579577 0.577443 0.569409 0.566557 0.560321 0.549523 0.547509 0.550817 0.549529 0.553747 0.568436 0.560712 0.5971 0.592447 0.602362 0.599428 0.596424 0.605381 0.596898 0.608736 0.623883 0.614181 0.619781 0.624103 0.629743 0.629164 0.631997 0.63109 0.60339 0.633161 0.638549 0.544255 0.547213 0.670786 0.680963 0.577475 0.607725 0.711672 0.630068 0.652446 0.681984 0.674244 0.646287 0.703402 0.76402 0.677497 0.657017 0.656121 0.663392 0.646881 0.615583 0.746273 0.724845 0.791917 0.752507 0.867506 0.858645 0.88404 0.982393 0.745368 0.932147 1.17909 1.07528 0.555464 0.688752 0.683926 0.729578 0.694942 0.766083 0.64254 0.765305 0.717988 0.582305 0.748891 0.819075 0.62755 0.679826 0.811786 0.786978 0.766533 0.807691 0.742824 0.733316 0.93592 0.870868 0.687542 0.780774 0.734196 0.846715 0.759603 0.800211 0.622973 0.69263 0.677626 0.661385 0.734339 0.655044 0.662371 0.674822 0.646028 0.664529 0.667584 0.665882 0.655844 0.612049 0.655846 0.715033 0.722222 0.658488 0.64282 0.500055 0.536051 0.563595 0.529013 0.61185 0.585688 0.611317 0.621151 0.572114 0.58027 0.579929 0.581655 0.570998 0.561985 0.573351 0.548511 0.56246 0.547513 0.555537 0.54132 0.540489 0.537048 0.532975 0.55981 0.553567 0.551235 0.552439 0.551073 0.551477 0.54999 0.553465 0.555488 0.568908 0.567316 0.563054 0.602384 0.581721 0.5935 0.58931 0.600199 0.601559 0.596922 0.604823 0.612994 0.621575 0.64749 0.647884 0.636093 0.634772 0.639339 0.641363 0.634915 0.632922 0.634959 0.650652 0.621879 0.623571 0.618294 0.618902 0.623848 0.632066 0.575873 0.688496 0.74769 0.690011 0.739461 0.761539 0.659505 0.621433 0.653283 0.619105 0.601807 0.63898 0.672615 0.689849 0.645219 0.669821 0.673533 0.668777 0.638629 0.656729 0.715287 0.699984 0.741389 0.804973 0.777934 0.673057 0.248879 0.552245 0.766693 0.626446 0.836626 0.6627 0.686139 0.679956 0.730606 0.756014 0.729199 0.732732 0.750616 0.723714 0.721218 0.686291 0.589224 0.561392 0.737234 0.661293 0.650825 0.691832 0.793548 0.738509 0.756504 0.709227 0.724058 0.81577 0.78961 0.688823 0.704812 0.749201 0.651813 0.625105 0.703351 0.652017 0.779746 0.730988 0.639391 0.669634 0.68371 0.677347 0.652398 0.624771 0.669543 0.675657 0.646618 0.613 0.570537 0.606831 0.571658 0.576052 0.590003 0.566014 0.561177 0.575559 0.561348 0.558133 0.567613 0.562887 0.548127 0.544267 0.541675 0.545214 0.541461 0.532158 0.533969 0.52962 0.526265 0.524353 0.523419 0.52537 0.523277 0.517742 0.555043 0.541221 0.562955 0.556143 0.556303 0.552675 0.555281 0.560606 0.564467 0.568853 0.581495 0.591016 0.61235 0.595651 0.604768 0.57975 0.593145 0.587254 0.569598 0.531084 0.512053 0.603553 0.516613 0.621291 0.657202 0.625514 0.614963 0.618519 0.631423 0.620166 0.603369 0.610807 0.602361 0.59919 0.580267 0.588512 0.661008 0.725192 0.735528 0.651476 0.691863 0.6645 0.636087 0.685382 0.70371 0.579546 0.635896 0.668182 0.593711 0.629781 0.647946 0.657188 0.702721 0.606643 0.643827 0.659967 0.728479 0.645902 0.832534 0.539663 0.588521 0.538559 1.41277 1.05056 0.367993 0.636849 0.645112 0.716189 0.704965 0.7045 0.701426 0.693846 0.650339 0.653753 0.630834 0.586981 0.524074 0.643557 0.566365 0.635978 0.727983 0.693541 0.64552 0.769886 0.750377 0.688026 0.695429 0.743534 0.746804 0.658327 0.542949 0.567689 0.371457 0.803692 0.98472 0.766866 0.681423 0.774975 0.682808 0.680512 0.642497 0.664959 0.625192 0.621868 0.612338 0.632448 0.596307 0.609764 0.589126 0.601721 0.582049 0.591653 0.611193 0.610824 0.586982 0.581658 0.572382 0.563284 0.556752 0.555619 0.553227 0.551861 0.544186 0.552047 0.536099 0.534404 0.553945 0.516194 0.52188 0.520255 0.516445 0.51264 0.509479 0.504774 0.489617 0.502275 0.478176 0.519658 0.544405 0.556334 0.546844 0.551884 0.552047 0.547363 0.542075 0.556125 0.556882 0.570694 0.547877 0.584472 0.584904 0.592901 0.58635 0.55852 0.566243 0.541171 0.566514 0.539959 0.529085 0.519769 0.515726 0.51413 0.531242 0.525367 0.635558 0.651595 0.619994 0.552652 0.584549 0.627607 0.614144 0.596225 0.579352 0.617709 0.624719 0.608243 0.625571 0.649574 0.672104 0.630986 0.655521 0.760182 0.734746 0.674047 0.733402 0.498828 0.448444 0.521769 0.517527 0.572122 0.526736 0.548633 0.59683 0.56205 0.533625 0.580567 0.584656 0.600716 0.619904 0.632893 0.612364 0.623809 0.738017 0.777641 0.587501 0.973366 0.514708 0.411801 0.647558 0.617333 0.706642 0.677417 0.6855 0.69185 0.647547 0.634269 0.641881 0.572831 0.575086 0.558877 0.585662 0.588706 0.618859 0.671172 0.612688 0.621639 0.576709 0.612356 0.592959 0.616126 0.520302 0.592367 0.569458 0.572472 0.66576 0.581977 0.608908 0.601682 0.591064 0.624308 0.362592 0.345479 0.775142 0.762691 0.721124 0.771811 0.699761 0.673826 0.639322 0.678822 0.612576 0.631302 0.609524 0.601109 0.617492 0.605458 0.637203 0.567545 0.639981 0.579944 0.601273 0.559801 0.569472 0.560878 0.573248 0.562692 0.560982 0.530151 0.541398 0.50729 0.512296 0.520044 0.510594 0.504126 0.504751 0.512638 0.505077 0.502402 0.496125 0.484691 0.506851 0.482212 0.456617 0.455783 0.44099 0.467818 0.473444 0.481958 0.487893 0.534183 0.511032 0.525161 0.529914 0.532712 0.539708 0.53085 0.520673 0.546043 0.512319 0.536317 0.48569 0.494298 0.542332 0.507576 0.533676 0.515017 0.52473 0.524054 0.51463 0.516446 0.525451 0.57604 0.632635 0.573367 0.6044 0.522525 0.659376 0.664006 0.646239 0.651229 0.621149 0.661849 0.804923 0.739085 0.789772 0.874088 0.816796 0.718703 0.616129 0.502431 0.489771 0.432316 0.530568 0.486469 0.521461 0.536737 0.537465 0.53965 0.568084 0.584487 0.607987 0.62889 0.587646 0.55656 0.623192 0.342027 0.388509 0.816019 0.217674 0.725745 0.558884 0.67965 0.706294 0.696515 0.731751 0.733153 0.621874 0.636952 0.587855 0.610758 0.576266 0.549756 0.573038 0.590392 0.599762 0.575225 0.581863 0.568501 0.585013 0.544649 0.523354 0.588231 0.542533 0.535952 0.553508 0.602792 0.418946 0.452497 0.394789 0.420331 0.744932 0.535684 0.686909 0.688732 0.622514 0.731813 0.588866 0.598368 0.599046 0.602911 0.610566 0.60283 0.644426 0.483749 0.458876 0.658402 0.600548 0.672102 0.593097 0.605575 0.600348 0.599166 0.504563 0.507674 0.509857 0.503876 0.51484 0.511062 0.499329 0.492289 0.487943 0.506849 0.456715 0.483631 0.449274 0.43333 0.440382 0.438044 0.378923 0.366405 0.404912 0.439399 0.404027 0.419953 0.395997 0.456994 0.473027 0.44798 0.513089 0.443776 0.494045 0.473737 0.490202 0.47183 0.48034 0.461876 0.459259 0.483661 0.480457 0.505367 0.529927 0.503346 0.513475 0.478259 0.475487 0.542256 0.574111 0.526678 0.481411 0.527841 0.452807 0.473176 0.486299 0.522751 0.702438 0.541182 0.404398 0.530804 0.646123 0.273756 0.358187 0.465778 0.0921752 0.547766 0.433754 0.473419 0.361802 0.486925 0.509605 0.549456 0.53697 0.569426 0.563855 0.585501 0.582071 0.564924 0.540607 0.552696 0.540061 0.39822 0.322342 0.385356 0.639168 0.711279 0.801656 0.941527 0.955633 0.56372 0.736773 0.606269 0.580794 0.558855 0.564513 0.561001 0.563671 0.57575 0.593845 0.587143 0.599901 0.580499 0.569802 0.559681 0.550127 0.554431 0.532723 0.534325 0.522084 0.513956 0.5309 0.501255 0.511104 0.495665 0.432305 0.436722 0.412669 0.688877 0.665642 0.81854 0.606343 0.605895 0.603538 0.584707 0.572585 0.491796 0.486505 0.544833 0.429474 0.623401 0.538929 0.578728 0.575472 0.508611 0.539506 0.60683 0.655536 0.548495 0.583126 0.532201 0.527442 0.512561 0.540303 0.514019 0.503785 0.516306 0.505836 0.522072 0.458767 0.431774 0.423593 0.403002 0.401463 0.421847 0.398963 0.39443 0.371053 0.365589 0.35691 0.363033 0.364034 0.378739 0.363313 0.358792 0.444043 0.456602 0.465052 0.435286 0.46483 0.450703 0.460021 0.446513 0.452119 0.467665 0.495861 0.482866 0.504725 0.483637 0.472461 0.47455 0.502415 0.487535 0.468977 0.477907 0.462397 0.44062 0.507458 0.479095 0.520228 0.536654 0.453453 0.319794 0.352201 0.231163 0.184673 0.410419 0.519423 0.494766 0.432646 0.507412 0.517051 0.507399 0.520426 0.533725 0.546462 0.558373 0.577553 0.549151 0.556508 0.545956 0.54879 0.486446 0.467894 0.518878 0.45106 0.521719 0.46035 0.441208 0.690868 0.715146 0.990498 0.469096 0.301575 0.659127 0.615157 0.621669 0.62286 0.624282 0.588842 0.558385 0.571727 0.586463 0.58029 0.590141 0.595705 0.582974 0.560122 0.548915 0.54319 0.525233 0.51034 0.517972 0.512209 0.511151 0.490422 0.498903 0.488652 0.495423 0.489093 0.341501 0.520564 0.392501 0.356567 0.454977 0.21786 0.640535 0.384686 0.640751 0.635347 0.561202 0.491382 0.476497 0.504127 0.508938 0.505992 0.46904 0.539865 0.573112 0.521732 0.516697 0.450278 0.540901 0.460311 0.523915 0.516712 0.509597 0.506042 0.49938 0.503799 0.478018 0.471588 0.44188 0.438365 0.394463 0.438341 0.396316 0.38699 0.385552 0.376398 0.363405 0.37221 0.36801 0.354479 0.372326 0.360588 0.370654 0.372118 0.386036 0.391569 0.447577 0.46877 0.448429 0.460558 0.437356 0.443988 0.446992 0.437356 0.457876 0.470124 0.476311 0.485414 0.466225 0.469405 0.459562 0.456997 0.469541 0.471744 0.460672 0.457276 0.449289 0.506078 0.515293 0.511 0.471952 0.485897 0.369839 0.438731 0.409485 0.370993 0.255715 0.397785 0.525284 0.54601 0.529224 0.522793 0.526962 0.525232 0.516858 0.529556 0.516693 0.539463 0.544544 0.540551 0.52305 0.536279 0.550312 0.548161 0.549176 0.545847 0.526353 0.465338 0.827612 0.841834 0.598639 0.682589 0.0470354 0.393913 0.458269 0.664183 0.636351 0.621307 0.614221 0.585969 0.563304 0.56112 0.570955 0.585459 0.574114 0.598519 0.590142 0.57211 0.563577 0.553416 0.541553 0.548805 0.521392 0.538876 0.509518 0.508214 0.509767 0.502147 0.501052 0.48713 0.517565 0.502973 0.612325 0.508897 0.467301 0.154778 0.506922 0.412337 0.528833 0.500409 0.500437 0.48946 0.503376 0.47907 0.457208 0.490365 0.453957 0.497988 0.518617 0.49678 0.450615 0.463278 0.464429 0.492842 0.468458 0.438942 0.464468 0.475962 0.482073 0.481554 0.502301 0.503608 0.396518 0.454919 0.422918 0.385573 0.39875 0.382379 0.396541 0.393894 0.389482 0.370309 0.364149 0.36546 0.373257 0.388491 0.376999 0.403306 0.388488 0.393296 0.37191 0.37179 0.369845 0.382892 0.404898 0.385891 0.431331 0.402334 0.44857 0.445646 0.447117 0.450667 0.457316 0.45504 0.461563 0.466879 0.462336 0.464067 0.457359 0.457183 0.453782 0.45616 0.459498 0.45561 0.449072 0.45912 0.475225 0.470975 0.502145 0.48618 0.504818 0.502823 0.490538 0.471015 0.465321 0.441516 0.432484 0.410918 0.459212 0.478791 0.496839 0.525894 0.53682 0.53816 0.540242 0.537529 0.552695 0.560997 0.510735 0.518019 0.509499 0.53162 0.55318 0.548803 0.557602 0.546404 0.524875 0.662121 0.596817 0.294299 0.431882 0.544068 0.454953 0.621479 0.562757 0.59256 0.594246 0.587593 0.566727 0.553964 0.548603 0.552271 0.544494 0.583776 0.553977 0.590509 0.58056 0.598152 0.580635 0.55998 0.543696 0.536231 0.522699 0.513927 0.514196 0.509649 0.50927 0.520091 0.516638 0.515932 0.509928 0.462564 0.480591 0.303072 0.474331 0.323705 0.377469 0.401737 0.472027 0.466637 0.484413 0.502455 0.494948 0.48923 0.490931 0.471453 0.483529 0.460723 0.470318 0.461757 0.488757 0.471518 0.452827 0.470349 0.453769 0.480995 0.445492 0.46238 0.473262 0.454612 0.486388 0.434539 0.449735 0.400112 0.440287 0.407005 0.403253 0.41404 0.40788 0.388264 0.415349 0.385582 0.35907 0.377014 0.360798 0.348032 0.251207 0.267468 0.316309 0.382918 0.394209 0.350081 0.392554 0.385378 0.410238 0.410508 0.404546 0.413402 0.391633 0.386911 0.373723 0.385049 0.366519 0.392738 0.442072 0.460561 0.455917 0.463565 0.466863 0.467572 0.46289 0.467596 0.463054 0.464433 0.463886 0.458901 0.456908 0.460792 0.460595 0.467062 0.46898 0.469534 0.477622 0.481656 0.490581 0.498639 0.499534 0.491281 0.490129 0.485375 0.492706 0.506693 0.529016 0.539035 0.543522 0.541966 0.540152 0.538394 0.550359 0.565297 0.493255 0.504033 0.511391 0.502423 0.504723 0.555446 0.545367 0.586546 0.600592 0.60614 0.592057 0.539805 0.403493 0.467735 0.468631 0.570554 0.55793 0.571622 0.567692 0.563321 0.541942 0.536436 0.526684 0.539675 0.600128 0.625817 0.588012 0.563587 0.55657 0.558694 0.553622 0.526291 0.542052 0.530856 0.526987 0.517473 0.51608 0.533849 0.504341 0.521798 0.509201 0.493338 0.470756 0.49552 0.470438 0.429963 0.474824 0.492862 0.490811 0.499116 0.491824 0.495418 0.488986 0.496625 0.481649 0.4697 0.45553 0.472946 0.442599 0.486618 0.483031 0.488586 0.449538 0.489538 0.422203 0.487925 0.443923 0.400671 0.432567 0.515115 0.483873 0.518707 0.452177 0.424334 0.424983 0.443086 0.393943 0.399417 0.409818 0.405014 0.385037 0.405064 0.413627 0.381393 0.417503 0.407467 0.395902 0.399163 0.379668 0.385008 0.358672 0.338801 0.316791 0.19753 0.26698 0.233035 0.169577 0.235434 0.361899 0.436 0.474498 0.436011 0.410934 0.393119 0.404841 0.429032 0.36742 0.381817 0.40033 0.484768 0.460412 0.46638 0.477398 0.475062 0.484875 0.474643 0.470246 0.466186 0.466812 0.465438 0.467101 0.461639 0.466054 0.463527 0.468926 0.46751 0.474264 0.478775 0.499445 0.502325 0.504948 0.504859 0.502426 0.504606 0.510065 0.513177 0.524703 0.536738 0.531717 0.544002 0.549316 0.555496 0.561134 0.499948 0.498833 0.516675 0.538335 0.473677 0.498869 0.584493 0.54703 0.565524 0.644984 0.625011 0.568312 0.566403 0.523096 0.468335 0.478396 0.467012 0.544094 0.541092 0.565014 0.553002 0.520696 0.505261 0.492058 0.66565 0.585848 0.568222 0.569815 0.566529 0.55779 0.543799 0.535336 0.543702 0.536956 0.529819 0.540716 0.510719 0.527307 0.511968 0.485375 0.48252 0.469538 0.489858 0.488792 0.495375 0.500377 0.499576 0.497738 0.507574 0.501651 0.510751 0.444477 0.385111 0.490292 0.483299 0.389422 0.391355 0.428076 0.478906 0.659485 0.43473 0.404121 0.422061 0.494762 0.446733 0.417894 0.376682 0.368406 0.395719 0.389936 0.37189 0.378147 0.366101 0.345732 0.35586 0.335542 0.294293 0.263419 0.23713 0.213569 0.311143 0.34495 0.298694 0.197822 0.456585 0.564085 0.455202 0.41385 0.392012 0.432208 0.324076 0.381622 0.383835 0.302643 0.407969 0.229449 0.564999 0.551714 0.50634 0.464843 0.470105 0.474476 0.467847 0.471838 0.471526 0.470039 0.470441 0.466949 0.469977 0.472262 0.4744 0.473945 0.477084 0.47495 0.490191 0.497771 0.500026 0.503463 0.508107 0.513854 0.523097 0.514861 0.524732 0.518386 0.527209 0.525398 0.527146 0.538258 0.535271 0.527523 0.534594 0.547855 0.553667 0.53222 0.541862 0.512183 0.527316 0.518494 0.533458 0.517154 0.42082 0.59559 0.580328 0.606388 0.521614 0.640533 0.565516 0.49441 0.474233 0.475791 0.480333 0.478476 0.494441 0.509357 0.536773 0.549284 0.569194 0.536863 0.497013 0.518181 0.468853 0.415134 0.575553 0.562401 0.580774 0.576716 0.561235 0.557204 0.544674 0.549734 0.542648 0.537286 0.534589 0.523042 0.502405 0.513593 0.50693 0.50189 0.504783 0.508158 0.508913 0.502344 0.513413 0.512807 0.516009 0.517255 0.533155 0.519839 0.532982 0.236183 0.579153 0.6624 0.913323 0.539286 0.487057 0.641839 0.435097 0.234367 0.885416 0.693313 0.53716 0.452216 0.446725 0.379449 0.406568 0.387575 0.37405 0.354212 0.375087 0.375043 0.381479 0.377149 0.372104 0.359392 0.329899 0.34495 0.287922 0.197285 0.112485 0.066508 0.204213 0.122951 0.363909 0.397468 0.504312 0.515395 0.655473 0.683478 0.533442 1.22595 0.807573 0.500299 0.510979 0.382786 0.334865 0.318451 0.326452 0.457974 0.467731 0.440679 0.443512 0.467063 0.452848 0.467731 0.47023 0.463412 0.470368 0.466986 0.472506 0.472512 0.475121 0.480376 0.479213 0.487639 0.498344 0.503007 0.503469 0.507238 0.511511 0.5093 0.516055 0.524515 0.527349 0.530792 0.536175 0.537794 0.530335 0.534436 0.54486 0.538901 0.553493 0.552543 0.560607 0.535174 0.520628 0.524032 0.52185 0.525908 0.53116 0.575506 0.605177 0.501272 0.615835 0.526071 0.443151 0.576944 0.406372 0.358208 0.500998 0.483055 0.504542 0.485637 0.479685 0.514331 0.514467 0.505307 0.495748 0.521512 0.577666 0.553316 0.471222 0.515711 0.481401 0.49076 0.403365 0.470265 0.600909 0.580936 0.556668 0.557912 0.557276 0.552229 0.556627 0.549791 0.545444 0.542287 0.550927 0.538084 0.531619 0.518044 0.524964 0.517613 0.511356 0.515045 0.515144 0.514171 0.513357 0.525439 0.51414 0.531076 0.553109 0.553635 0.501446 0.602979 0.595854 0.493092 0.85305 0.460996 0.332627 0.49886 0.372715 0.0877565 0.215331 0.386695 0.326877 0.348042 0.264867 0.337133 0.380892 0.384852 0.385269 0.389859 0.37688 0.413559 0.377037 0.397341 0.365517 0.389167 0.372944 0.337886 0.210919 0.0694442 0.306618 0.0338792 0.210898 2.62342 0.0923523 0.303177 0.272177 0.311515 0.462221 0.24276 0.516561 0.929781 1.31305 0.661365 0.670615 0.228884 0.223326 0.279045 0.329725 0.407612 0.448305 0.437522 0.445051 0.455499 0.468454 0.472655 0.47228 0.472867 0.479907 0.480507 0.486747 0.487464 0.495111 0.504222 0.506883 0.512661 0.516673 0.51928 0.524212 0.532578 0.531871 0.535176 0.536665 0.542997 0.542181 0.553379 0.552847 0.567966 0.516644 0.524042 0.534928 0.534158 0.522716 0.535389 0.492164 0.423282 0.486375 0.380273 0.47014 0.374868 0.453797 0.456923 0.477629 0.500797 0.395755 0.511208 0.492005 0.444931 0.450925 0.574045 0.528848 0.523572 0.494958 0.452314 0.396907 0.473952 0.421174 0.442604 0.645882 0.573818 0.586917 0.560857 0.554064 0.564081 0.554903 0.555957 0.547815 0.541985 0.533742 0.527067 0.528025 0.522841 0.520427 0.517757 0.515468 0.513276 0.51733 0.51806 0.533114 0.512651 0.50821 0.52662 0.449731 0.5669 0.506154 0.497531 0.6871 0.608702 0.565664 0.480685 0.356834 0.43811 0.242675 0.278539 0.31496 0.317345 0.312147 0.29982 0.334239 0.355234 0.315772 0.38483 0.449377 0.429928 0.419871 0.407756 0.404549 0.388274 0.34966 0.343906 0.116905 0.513648 1.57987 0.14348 0.236167 0.281367 0.392656 0.728136 0.342472 0.340483 0.370623 0.448057 0.34789 0.267367 0.269291 0.265382 0.335078 0.371065 0.43626 0.46394 0.426679 0.436326 0.443244 0.420482 0.469852 0.456386 0.46413 0.468868 0.462613 0.470372 0.477623 0.489014 0.487862 0.49423 0.496223 0.506214 0.511504 0.521593 0.52717 0.531719 0.538245 0.53771 0.541641 0.554007 0.553341 0.554738 0.558095 0.556479 0.53469 0.541376 0.538919 0.51452 0.478476 0.500043 0.483445 0.430499 0.470453 0.467603 0.464382 0.384885 0.434393 0.476528 0.387973 0.534529 0.481759 0.603231 0.556085 0.558378 0.512649 0.447813 0.492365 0.258915 0.490222 0.449958 0.59875 0.548914 0.666715 0.562385 0.571152 0.568931 0.555196 0.551442 0.546984 0.536217 0.550105 0.535474 0.529783 0.538491 0.528854 0.521534 0.512814 0.50872 0.509382 0.505089 0.507958 0.5299 0.432948 0.519187 0.505768 0.503543 0.475567 0.456642 0.447376 0.395818 0.346056 0.370509 0.322996 0.337635 0.327535 0.353047 0.328954 0.353632 0.417098 0.385034 0.403571 0.403233 0.400894 0.375259 0.330969 0.293649 0.502313 0.640996 0.403004 0.100943 0.184962 0.329028 0.321945 0.435097 0.354169 0.094256 0.270598 0.163899 0.339181 0.342477 0.381631 0.329277 0.313429 0.307195 0.331953 0.390592 0.426901 0.414561 0.434445 0.448361 0.448132 0.458469 0.485564 0.492358 0.498415 0.501094 0.523125 0.520831 0.527853 0.531466 0.535584 0.545572 0.542503 0.550436 0.551904 0.553117 0.556128 0.554531 0.557877 0.545711 0.542322 0.547481 0.557041 0.385695 0.431402 0.500892 0.48724 0.467621 0.299249 0.431952 0.426143 0.477686 0.467127 0.342233 0.52253 0.457525 0.326486 0.572481 0.50537 0.421837 0.535543 0.563456 0.454475 0.505052 0.537944 0.575702 0.533557 0.582303 0.589625 0.583095 0.566777 0.55849 0.56068 0.547016 0.538163 0.548289 0.53372 0.523241 0.508902 0.490183 0.484995 0.512796 0.469454 0.52689 0.512151 0.487764 0.469198 0.453457 0.452923 0.454553 0.428899 0.424292 0.417876 0.312916 0.30112 0.274073 0.230474 0.272047 0.311325 0.322073 0.374863 0.395306 0.354725 0.401837 0.360116 0.404095 0.222666 1.27313 0.563483 1.17535 0.0337852 0.201066 0.319041 0.329167 0.341193 0.392693 0.356519 0.351566 0.303361 0.36323 0.404794 0.426519 0.389938 0.45608 0.362432 0.348138 0.329609 0.340427 0.330315 0.351151 0.353222 0.398278 0.42703 0.440978 0.474078 0.46456 0.476859 0.508762 0.509193 0.510393 0.518075 0.513712 0.530593 0.521619 0.528264 0.536628 0.539793 0.548868 0.548579 0.556336 0.552805 0.561012 0.564287 0.556618 0.568948 0.554538 0.548458 0.543473 0.566527 0.55667 0.486351 0.474408 0.511215 0.475475 0.497778 0.395821 0.543969 0.544642 0.573129 0.59492 0.601383 0.579812 0.570032 0.572278 0.56647 0.558409 0.546885 0.546288 0.535082 0.52758 0.517647 0.466607 0.478561 0.493725 0.486022 0.478932 0.514721 0.499822 0.505052 0.464773 0.451819 0.439902 0.433785 0.399307 0.37573 0.125274 0.253064 0.2536 0.188386 0.218648 0.224133 0.252903 0.224722 0.293923 0.314414 0.36689 0.343964 0.334464 0.377267 0.375289 0.0411439 0.987225 0.0346305 0.145883 0.245404 0.288922 0.33063 0.511563 0.353496 0.592177 0.552789 0.495361 0.43949 0.434545 0.413749 0.35453 0.349134 0.345949 0.378621 0.392432 0.435806 0.445016 0.460008 0.458676 0.447938 0.504108 0.524062 0.51983 0.511561 0.526637 0.526144 0.536067 0.540646 0.546602 0.555297 0.548921 0.553591 0.553075 0.561112 0.56658 0.548768 0.578632 0.566332 0.572618 0.560146 0.570145 0.563793 0.55975 0.543595 0.554664 0.539938 0.59816 0.540869 0.522506 0.526495 0.50266 0.489779 0.495646 0.474026 0.444842 0.450015 0.478717 0.45551 0.462565 0.257667 0.0806199 0.284926 0.209703 0.227168 0.168933 0.254605 0.187968 0.283708 0.314599 0.354589 0.357057 0.314182 0.342984 0.240058 0.356601 0.707769 0.33008 0.0467966 0.121536 0.280513 0.318797 0.448791 0.60605 0.0957258 0.275234 0.459966 0.472685 0.449615 0.329816 0.341305 0.355976 0.365623 0.367657 0.403283 0.457074 0.445328 0.451402 0.462586 0.463174 0.459925 0.459834 0.49219 0.587567 0.536902 0.517959 0.508985 0.527815 0.541232 0.548933 0.546486 0.564821 0.551125 0.561308 0.453406 0.593679 0.522185 0.526882 0.511746 0.520788 0.494979 0.526316 0.47703 0.445911 0.45782 0.516683 0.495453 0.432372 0.210749 0.406924 0.303678 0.179165 0.129073 0.182902 0.226809 0.319898 0.34827 0.339047 0.419115 0.394881 0.498622 0.191758 0.336798 0.115466 0.147698 0.289156 0.373482 0.514153 0.640922 0.347398 0.433541 0.422184 0.313912 0.351918 0.350415 0.360911 0.361179 0.362597 0.467277 0.545512 0.435098 0.595758 0.503332 0.538638 0.544237 0.536487 0.508932 0.468395 0.471866 0.553601 0.484709 0.459701 0.497291 0.233754 0.363959 0.227309 0.591383 0.164701 0.222134 0.260251 0.316484 0.36194 0.404907 0.405264 0.43113 0.369012 0.368898 0.442152 0.480481 0.275515 0.289813 0.416495 0.417507 
SCALARS Stress float 1
LOOKUP_TABLE default
-49126900000.0 -67460900000.0 -33246400000.0 -67589800000.0 -122878000000.0 -148963000000.0 -51109100000.0 -101606000000.0 -46870800000.0 -47103000000.0 -91767100000.0 -62095500000.0 -55648500000.0 -149249000000.0 -123731000000.0 -204096000000.0 -320009000000.0 -210438000000.0 -280204000000.0 -117590000000.0 -124872000000.0 -73310600000.0 -125566000000.0 -93697600000.0 -100848000000.0 -377543000000.0 -192531000000.0 -133818000000.0 -43174300000.0 -174564000000.0 -92307500000.0 -51567000000.0 -40919100000.0 -105515000000.0 -20108600000.0 -286445000000.0 -149127000000.0 -500221000000.0 -278969000000.0 -286095000000.0 -257632000000.0 -178428000000.0 -486974000000.0 -280472000000.0 -446569000000.0 -576506000000.0 -443190000000.0 -27614100000.0 -164586000000.0 -23217500000.0 -211182000000.0 -154693000000.0 -276138000000.0 -211290000000.0 -428926000000.0 -499942000000.0 -89945600000.0 -265791000000.0 -53261200000.0 -182441000000.0 -249050000000.0 -150250000000.0 -91224400000.0 -63986800000.0 -156577000000.0 -388873000000.0 -233607000000.0 -710557000000.0 -693885000000.0 -67376800000.0 -190743000000.0 -433954000000.0 -268351000000.0 -811946000000.0 -628119000000.0 -97469200000.0 -189155000000.0 -496710000000.0 -708490000000.0 -435615000000.0 -171090000000.0 -388542000000.0 -692448000000.0 -444373000000.0 -19060900000.0 -169295000000.0 -173137000000.0 -70417600000.0 -32335200000.0 -322834000000.0 -410430000000.0 -984955000000.0 -995688000000.0 -558680000000.0 -618824000000.0 -914984000000.0 -653712000000.0 -414525000000.0 -694171000000.0 -807246000000.0 -479539000000.0 -920544000000.0 -829264000000.0 -423662000000.0 -968746000000.0 -405905000000.0 -277497000000.0 -561444000000.0 -607063000000.0 -118361000000.0 -411328000000.0 -305713000000.0 -229448000000.0 -168157000000.0 -112258000000.0 -58170700000.0 -532955000000.0 -575271000000.0 -831441000000.0 -245159000000.0 -1.22403e+12 -568260000000.0 -350971000000.0 -2.15138e+12 -1.05146e+12 -714841000000.0 -939997000000.0 -1.43124e+12 -1.24187e+12 -758200000000.0 -971849000000.0 -394123000000.0 -625601000000.0 -676221000000.0 -52434000000.0 -552289000000.0 -651244000000.0 -523501000000.0 -500245000000.0 -252891000000.0 -67560100000.0 -71048300000.0 -108236000000.0 -54615600000.0 -33448100000.0 -72092500000.0 -191250000000.0 -635813000000.0 -1.24973e+12 -265138000000.0 -348452000000.0 -1.86744e+12 -587750000000.0 -829660000000.0 -1.29435e+12 -1.56053e+12 -222693000000.0 -1.89557e+12 -1.92648e+12 -427642000000.0 -1.32331e+12 -770927000000.0 -1.56575e+12 -925010000000.0 -468760000000.0 -191986000000.0 -318341000000.0 -188150000000.0 -186001000000.0 -93902100000.0 -43799300000.0 -108943000000.0 -292303000000.0 -32748400000.0 -675166000000.0 -469826000000.0 -1.47476e+12 -619050000000.0 -823267000000.0 -2.95673e+12 -1.64476e+12 -1.29411e+12 -1.53777e+12 -1.00765e+12 -1.5617e+12 -1.15595e+12 -410510000000.0 -3.89114e+12 -1.22826e+12 -1.28525e+12 -2.39803e+12 -1.66044e+12 -1.40064e+12 -1.5279e+12 -1.40691e+12 -815561000000.0 -1.02941e+12 -506544000000.0 -643377000000.0 -376090000000.0 -110782000000.0 -89277100000.0 -12538600000.0 -28108900000.0 -196851000000.0 -241307000000.0 -286211000000.0 -581188000000.0 -233971000000.0 -459830000000.0 -1.16113e+12 -1.98403e+12 -1.97338e+12 -1.2352e+12 -1.5461e+12 -2.06947e+12 -2.56883e+12 -1.27401e+12 -2.61377e+12 -2.60972e+12 -1.92532e+12 -1.53289e+12 -1.75004e+12 -1.46183e+12 -2.22756e+12 -1.02983e+12 -211653000000.0 -1.52797e+12 -264207000000.0 -149470000000.0 -302680000000.0 -25821200000.0 -67333900000.0 -127653000000.0 -160751000000.0 -94693900000.0 -359548000000.0 -51449000000.0 -858581000000.0 -397158000000.0 -1.15444e+12 -1.98778e+12 -1.72422e+12 -707285000000.0 -2.45264e+12 -2.05889e+12 -2.6753e+12 -2.66491e+12 -784871000000.0 -2.2286e+12 -1.50895e+12 -1.84768e+12 -1.34826e+12 -967884000000.0 -2.47387e+12 -2.06682e+12 -2.18134e+12 -571771000000.0 -442108000000.0 -1.19026e+12 -400918000000.0 -1.3469e+12 -311948000000.0 -234318000000.0 -358770000000.0 -1.19584e+12 -421427000000.0 -990457000000.0 -949226000000.0 -856195000000.0 -2.61637e+12 -2.18126e+12 -4.17591e+12 -1.23012e+12 -1.33028e+12 -2.06687e+12 -2.09522e+12 -3.2775e+12 -4.62373e+12 -1.92887e+12 -1.42013e+12 -635169000000.0 -1.11939e+12 -2.49063e+12 -1.70759e+12 -1.0556e+12 -367817000000.0 -491839000000.0 -714342000000.0 -471313000000.0 -107157000000.0 -275912000000.0 -815848000000.0 -658882000000.0 -1.43764e+12 -1.64974e+12 -1.50052e+12 -1.98008e+12 -1.50081e+12 -2.39796e+12 -1.60441e+12 -2.98325e+12 -3.11064e+12 -2.39842e+12 -1.51864e+12 -1.86167e+12 -3.87382e+12 -1.64368e+12 -2.68078e+12 -2.39799e+12 -914115000000.0 -1.81065e+12 -2.83705e+12 -1.80892e+12 -1.24183e+12 -1.49278e+12 -1.40962e+12 -1.80111e+12 -1.14155e+12 -100583000000.0 -502920000000.0 -981810000000.0 -1.39753e+12 -2.96304e+12 -1.95358e+12 -1.49633e+12 -657077000000.0 -3.81917e+12 -3.94604e+12 -3.15973e+12 -2.04947e+12 -3.27355e+12 -3.28079e+12 -3.95821e+12 -3.30896e+12 -3.75194e+12 -4.27317e+12 -3.23793e+12 -2.29759e+12 -2.48352e+12 -741436000000.0 -2.58577e+12 -2.46582e+12 -1.25137e+12 -1.12683e+12 -1.6368e+12 -1.07909e+12 -723598000000.0 -600996000000.0 -114880000000.0 -189647000000.0 -998153000000.0 -728229000000.0 -1.01808e+12 -1.91481e+12 -2.67559e+12 -1.65935e+12 -2.84633e+12 -2.09912e+12 -2.8713e+12 -4.05637e+12 -3.39758e+12 -2.91999e+12 -2.43905e+12 -2.81599e+12 -2.56148e+12 -2.19651e+12 -2.86134e+12 -3.80695e+12 -2.55629e+12 -1.45962e+12 -2.55946e+12 -2.31819e+12 -2.51495e+12 -3.26765e+12 -3.59643e+12 -1.48258e+12 -1.12589e+12 -2.25912e+12 -1.64729e+12 -2.27594e+12 -1.55655e+12 -1.32508e+12 -855318000000.0 -322737000000.0 -161792000000.0 -141964000000.0 -161951000000.0 -272489000000.0 -1.46039e+12 -3.7775e+12 -1.25785e+12 -2.45721e+12 -3.13483e+12 -3.1057e+12 -2.6807e+12 -4.1161e+12 -2.29736e+12 -3.14204e+12 -3.08567e+12 -2.86885e+12 -2.86242e+12 -3.85387e+12 -2.44605e+12 -3.49219e+12 -2.42037e+12 -2.63947e+12 -2.92208e+12 -3.77717e+12 -5.17189e+12 -2.87138e+12 -3.97756e+12 -1.81255e+12 -3.12658e+12 -4.70288e+12 -2.56089e+12 -1.60126e+12 -87887800000.0 -485513000000.0 -489858000000.0 -952351000000.0 -3.03804e+12 -2.09285e+12 -2.70041e+12 -2.8922e+12 -4.49016e+12 -2.28245e+12 -4.18423e+12 -5.29195e+12 -2.33189e+12 -2.97744e+12 -3.92053e+12 -3.99745e+12 -2.03225e+12 -4.4221e+12 -2.72924e+12 -4.09434e+12 -3.15066e+12 -4.38198e+12 -5.69185e+12 -3.1917e+12 -2.227e+12 -4.22997e+12 -3.68837e+12 -5.51555e+12 -2.38869e+12 -1.77229e+12 -2.63415e+12 -2.79183e+12 -1.52728e+12 -777542000000.0 -202555000000.0 -138585000000.0 -2.1885e+12 -1.6799e+12 -2.70648e+12 -2.96032e+12 -4.16205e+12 -3.51369e+12 -4.41429e+12 -4.20963e+12 -1.92426e+12 -3.23101e+12 -5.36915e+12 -3.95634e+12 -4.25787e+12 -2.73044e+12 -4.38279e+12 -2.35258e+12 -7.03054e+12 -4.16412e+12 -5.69865e+12 -3.53754e+12 -4.40081e+12 -5.63228e+12 -2.94902e+12 -2.84316e+12 -3.04656e+12 -1.84339e+12 -4.11521e+12 -2.14174e+12 -2.87235e+12 -1.28993e+12 -1.37742e+12 -5.53798e+12 -5.52043e+12 -2.64401e+12 -2.86645e+12 -6.29052e+12 -5.15654e+12 -3.9049e+12 -5.32581e+12 -5.06087e+12 -5.09954e+12 -5.41059e+12 -4.55813e+12 -3.56535e+12 -3.87614e+12 -5.03137e+12 -4.91092e+12 -4.24152e+12 -7.07116e+12 -4.19022e+12 -4.8274e+12 -6.44351e+12 -5.24892e+12 -3.16172e+12 -2.66013e+12 -5.18068e+12 -5.34292e+12 -3.90779e+12 -3.02453e+12 -4.60902e+12 -4.4756e+12 -3.62355e+12 -4.29852e+12 -4.8185e+12 -2.96753e+12 -5.36936e+12 -6.95668e+12 -5.30646e+12 -2.85178e+12 -2.3969e+12 -12549700000.0 -3.01903e+12 -5.59412e+12 -6.64036e+12 -6.75304e+12 -5.50556e+12 -2.90072e+12 -5.34304e+12 -2.51393e+12 -4.72237e+12 -5.25286e+12 -3.23519e+12 -9.37625e+12 -6.68347e+12 -4.16553e+12 -3.6912e+12 -2.49897e+12 -4.15393e+12 -3.86366e+12 -4.889e+12 -5.57361e+12 -5.32001e+12 -5.28998e+12 -4.56832e+12 -1.2645e+12 -3.60653e+12 -3.61411e+12 -5.01733e+12 -7.03112e+12 -8.29591e+12 -3.99853e+12 -2.09791e+12 -2.3518e+12 -5.12343e+12 -3.84123e+12 -6.4134e+12 -4.76417e+12 -8.28526e+12 -5.65124e+12 -3.99249e+12 -3.2369e+12 -4.78182e+12 -9.45785e+12 -4.0593e+12 -4.48893e+12 -4.91385e+12 -6.40639e+12 -5.00624e+12 -7.92787e+12 -8.49342e+12 -3.19255e+12 -4.76425e+12 -5.96751e+12 -9.98147e+12 -5.53102e+12 -5.19415e+12 -5.88933e+12 -4.5603e+12 -5.8956e+12 -5.80354e+12 -6.41247e+12 -8.35751e+12 -2.67386e+12 -3.26991e+12 -5.4789e+12 -4.24243e+12 -7.44487e+12 -7.28399e+12 -6.54219e+12 -6.50054e+12 -4.90765e+12 -3.95104e+12 -4.07354e+12 -4.81612e+12 -4.21652e+12 -4.74886e+12 -3.67137e+12 -4.86765e+12 -6.73336e+12 -1.07004e+13 -5.96312e+12 -7.07221e+12 -8.36563e+12 -8.08312e+12 -2.58134e+12 -1.09093e+13 -4.33486e+12 -8.48139e+12 -6.85031e+12 -4.85934e+12 -6.28537e+12 -2.75106e+12 -5.86844e+12 -6.83431e+12 -6.09722e+12 -4.79354e+12 -5.67621e+12 -3.1036e+12 -6.58077e+12 -4.98932e+12 -9.56682e+12 -6.15409e+12 -7.52965e+12 -5.99823e+12 -6.33367e+12 -5.16377e+12 -6.22888e+12 -6.9355e+12 -7.27304e+12 -6.46525e+12 -7.94148e+12 -7.91012e+12 -5.79641e+12 -6.81821e+12 -5.73078e+12 -8.09352e+12 -5.02032e+12 -1.00172e+13 -1.39468e+13 -1.09608e+13 -7.10255e+12 -4.10473e+12 -12549700000.0 -2.14656e+12 -4.41208e+12 -4.41383e+12 -7.1506e+12 -4.5466e+12 -5.5525e+12 -5.97654e+12 -3.98376e+12 -7.23252e+12 -2.18617e+12 -5.97272e+12 -5.02932e+12 -4.29399e+12 -6.15517e+12 -6.20166e+12 -2.75354e+12 -4.43407e+12 -2.4636e+12 -6.16078e+12 -6.1783e+12 -3.89747e+12 -5.94923e+12 -6.44638e+12 -4.7403e+12 -4.46508e+12 -7.16222e+12 -7.97687e+12 -9.60167e+12 -1.86905e+12 -4.10489e+12 -6.5208e+12 -5.67691e+12 -3.51505e+12 -2.59105e+12 -1.04975e+13 -7.01603e+12 -6.49836e+12 -7.80503e+12 -8.22629e+12 -5.11805e+12 -12549700000.0 -4.10295e+12 -3.82942e+12 -4.9387e+12 -3.25924e+12 -2.71175e+12 -4.71762e+12 -5.85962e+12 -3.66514e+12 -4.55738e+12 -3.62975e+12 -7.4383e+12 -3.85449e+12 -7.69571e+12 -6.28685e+12 -5.1429e+12 -6.78067e+12 -4.34941e+12 -5.88894e+12 -6.24259e+12 -7.70509e+12 -4.57086e+12 -6.50205e+12 -4.44657e+12 -3.71556e+12 -6.78376e+12 -8.60619e+12 -3.83665e+12 -3.8109e+12 -5.04814e+12 -5.89831e+12 -6.78409e+12 -4.47449e+12 -8.73239e+12 -9.86354e+12 -5.26757e+12 -8.40813e+12 -7.87946e+12 -2.67197e+12 -3.41112e+12 -3.31089e+12 -12549700000.0 -3.99933e+12 -3.16945e+12 -6.53119e+12 -5.21837e+12 -7.29531e+12 -5.14809e+12 -4.35971e+12 -6.48087e+12 -4.09589e+12 -4.18452e+12 -6.25937e+12 -6.59666e+12 -6.18617e+12 -8.52227e+12 -5.00648e+12 -6.42951e+12 -3.35094e+12 -6.16687e+12 -8.27549e+12 -5.49568e+12 -8.42576e+12 -5.53754e+12 -3.16438e+12 -4.19128e+12 -7.41072e+12 -5.83107e+12 -3.66581e+12 -8.29514e+12 -3.74703e+12 -3.55617e+12 -5.10131e+12 -5.7914e+12 -6.05345e+12 -6.51041e+12 -5.39159e+12 -8.84359e+12 -8.63368e+12 -5.63542e+12 -4.61036e+12 -4.5272e+12 -5.17509e+12 -4.67675e+12 -6.2246e+12 -5.30451e+12 -9.16185e+12 -9.74424e+12 -1.17867e+13 -6.08971e+12 -8.66494e+12 -6.26499e+12 -6.24326e+12 -6.30276e+12 -3.6931e+12 -4.73297e+12 -1.20901e+13 -3.97071e+12 -5.78685e+12 -4.65461e+12 -1.03765e+13 -7.91483e+12 -7.98187e+12 -8.3999e+12 -2.49052e+12 -4.85326e+12 -9.25741e+12 -8.8619e+12 -8.38105e+12 -4.50193e+12 -7.55969e+12 -7.29463e+12 -6.16665e+12 -6.46407e+12 -6.23131e+12 -5.07699e+12 -7.73079e+12 -4.77799e+12 -5.95303e+12 -3.83009e+12 -6.33965e+12 -4.1229e+12 -4.2593e+12 -2.82278e+12 -4.17806e+12 -5.65408e+12 -4.89983e+12 -9.26236e+12 -9.71318e+12 -7.62864e+12 -5.69428e+12 -4.90445e+12 -8.60766e+12 -7.90226e+12 -8.8935e+12 -4.85961e+12 -6.39743e+12 -7.0629e+12 -6.55717e+12 -7.26453e+12 -1.00773e+13 -9.74097e+12 -6.90177e+12 -6.46632e+12 -7.91471e+12 -1.15884e+13 -4.69447e+12 -9.99462e+12 -4.79258e+12 -7.01907e+12 -3.9011e+12 -5.90714e+12 -4.48877e+12 -7.01145e+12 -7.66815e+12 -3.3022e+12 -4.47012e+12 -4.82027e+12 -5.01741e+12 -12549700000.0 -6.19231e+12 -3.9058e+12 -3.77506e+12 -2.49696e+12 -4.81406e+12 -7.38567e+12 -7.31761e+12 -4.38878e+12 -9.45606e+12 -6.70619e+12 -5.70471e+12 -6.97408e+12 -3.30945e+12 -9.96048e+12 -5.97968e+12 -4.18217e+12 -5.33922e+12 -7.78755e+12 -6.8095e+12 -9.52694e+12 -5.87211e+12 -5.16216e+12 -5.50126e+12 -8.65748e+12 -5.53326e+12 -8.9857e+12 -5.2532e+12 -4.85371e+12 -5.12755e+12 -6.5896e+12 -8.01102e+12 -5.20609e+12 -4.72512e+12 -5.74708e+12 -5.05156e+12 -1.07997e+13 -6.50629e+12 -7.73176e+12 -5.41368e+12 -2.52964e+12 -12549700000.0 -12549700000.0 -6.26727e+12 -7.55486e+12 -5.54706e+12 -1.08115e+13 -6.18736e+12 -7.63673e+12 -7.0584e+12 -6.52749e+12 -8.64228e+12 -7.57498e+12 -8.63021e+12 -4.54093e+12 -5.76834e+12 -9.46913e+12 -7.04977e+12 -3.53851e+12 -7.56334e+12 -9.22687e+12 -2.81243e+12 -6.4345e+12 -5.92993e+12 -2.33335e+12 -4.68899e+12 -6.73785e+12 -4.83201e+12 -8.05399e+12 -7.6596e+12 -6.69979e+12 -6.06249e+12 -5.60025e+12 -4.74685e+12 -6.77783e+12 -7.98791e+12 -7.00659e+12 -1.01137e+13 -6.58337e+12 -4.6986e+12 -5.65617e+12 -8.69382e+12 -8.48663e+12 -1.05281e+13 -3.39821e+12 -4.21389e+12 -6.45173e+12 -3.4146e+12 -7.43673e+12 -6.74753e+12 -7.01101e+12 -3.93532e+12 -3.9801e+12 -6.12702e+12 -6.93325e+12 -1.25408e+13 -6.03762e+12 -5.87813e+12 -8.23887e+12 -7.88774e+12 -8.38803e+12 -4.41716e+12 -4.32701e+12 -6.90041e+12 -4.43234e+12 -5.7552e+12 -7.46333e+12 -1.09647e+13 -9.02734e+12 -9.90872e+12 -5.35332e+12 -7.47193e+12 -1.03978e+13 -5.2817e+12 -6.89957e+12 -4.71949e+12 -7.76176e+12 -1.22645e+13 -8.34612e+12 -7.80855e+12 -5.59348e+12 -8.45377e+12 -6.21733e+12 -6.37588e+12 -4.65529e+12 -6.97378e+12 -4.29553e+12 -3.35009e+12 -4.11811e+12 -4.35453e+12 -6.72852e+12 -7.34901e+12 -6.80313e+12 -4.55992e+12 -5.94643e+12 -6.40669e+12 -5.20514e+12 -6.09454e+12 -1.34335e+13 -5.66037e+12 -9.40533e+12 -7.76556e+12 -6.8811e+12 -7.31016e+12 -5.1484e+12 -8.21887e+12 -3.99761e+12 -8.33099e+12 -8.8869e+12 -1.057e+13 -6.9345e+12 -6.25188e+12 -7.23486e+12 -6.06606e+12 -3.29236e+12 -7.91099e+12 -7.395e+12 -3.19744e+12 -5.84285e+12 -7.49579e+12 -8.50373e+12 -4.4821e+12 -6.07219e+12 -3.23108e+12 -8.4687e+12 -6.34257e+12 -5.06272e+12 -6.48879e+12 -3.61229e+12 -5.35009e+12 -8.53558e+12 -2.81662e+12 -3.48261e+12 -4.1673e+12 -6.18933e+12 -1.01949e+13 -6.55197e+12 -7.80706e+12 -8.03712e+12 -7.05554e+12 -7.84318e+12 -6.18798e+12 -1.0378e+13 -1.02645e+13 -8.08015e+12 -8.16988e+12 -7.54629e+12 -1.14587e+13 -8.91494e+12 -7.61032e+12 -7.90314e+12 -6.50139e+12 -6.01254e+12 -8.24339e+12 -1.32403e+13 -6.11004e+12 -5.89346e+12 -7.90504e+12 -7.18798e+12 -9.04974e+12 -5.48448e+12 -6.45965e+12 -8.32958e+12 -1.04796e+13 -6.07703e+12 -3.28652e+12 -7.85989e+12 -4.43549e+12 -6.32751e+12 -5.36174e+12 -5.70155e+12 -7.4139e+12 -6.4744e+12 -8.00501e+12 -5.47277e+12 -8.35055e+12 -3.58209e+12 -12549700000.0 -4.75445e+12 -3.26289e+12 -8.08907e+12 -6.93098e+12 -9.67692e+12 -7.69531e+12 -5.02484e+12 -9.07977e+12 -6.03295e+12 -3.44592e+12 -3.37411e+12 -6.47065e+12 -5.99496e+12 -8.55199e+12 -5.029e+12 -7.66738e+12 -8.18817e+12 -7.81687e+12 -6.62997e+12 -8.54013e+12 -5.78525e+12 -7.27421e+12 -9.39134e+12 -5.60284e+12 -4.82341e+12 -6.02207e+12 -5.90594e+12 -9.72537e+12 -8.88363e+12 -6.08355e+12 -9.12439e+12 -7.68564e+12 -4.36949e+12 -1.0672e+13 -6.21573e+12 -1.07213e+13 -8.45339e+12 -6.31541e+12 -9.82742e+12 -7.07339e+12 -5.76452e+12 -6.26079e+12 -4.53447e+12 -6.7026e+12 -12549700000.0 -5.5975e+12 -3.35127e+12 -7.89008e+12 -8.31387e+12 -7.9231e+12 -7.51987e+12 -7.19285e+12 -8.39762e+12 -8.11035e+12 -9.27707e+12 -5.11173e+12 -7.6692e+12 -6.08717e+12 -6.76499e+12 -4.24218e+12 -3.21841e+12 -7.59854e+12 -5.70631e+12 -1.18059e+13 -7.80354e+12 -7.15719e+12 -8.65094e+12 -9.3092e+12 -1.14757e+13 -5.76782e+12 -9.65896e+12 -1.02282e+13 -9.39182e+12 -1.01165e+13 -4.74572e+12 -5.55294e+12 -9.01259e+12 -6.13624e+12 -6.56097e+12 -9.49339e+12 -8.38263e+12 -6.60272e+12 -3.75999e+12 -9.62138e+12 -2.67432e+12 -5.39478e+12 -9.23706e+12 -4.29959e+12 -3.83537e+12 -12549700000.0 -3.67915e+12 -1.95847e+12 -4.556e+12 -7.44219e+12 -5.34399e+12 -5.18905e+12 -9.60069e+12 -8.47947e+12 -7.01411e+12 -6.84755e+12 -7.78058e+12 -5.19093e+12 -9.75903e+12 -7.18867e+12 -8.87944e+12 -6.97826e+12 -7.86996e+12 -1.11023e+13 -7.21938e+12 -5.45357e+12 -7.27372e+12 -7.36977e+12 -7.95214e+12 -8.26346e+12 -1.69236e+13 -6.32206e+12 -6.01543e+12 -1.0011e+13 -8.49615e+12 -3.26904e+12 -6.25262e+12 -8.92897e+12 -7.70625e+12 -7.24201e+12 -7.13252e+12 -8.86601e+12 -5.71764e+12 -5.52184e+12 -5.47735e+12 -6.04912e+12 -5.16317e+12 -6.42883e+12 -5.12886e+12 -9.18553e+12 -3.70277e+12 -7.4041e+12 -3.43928e+12 -3.85529e+12 -1.00429e+13 -6.5231e+12 -4.84143e+12 -7.60992e+12 -1.10262e+13 -5.43681e+12 -7.55458e+12 -6.50349e+12 -5.28991e+12 -5.91633e+12 -4.56842e+12 -5.4936e+12 -4.42947e+12 -1.067e+13 -8.98773e+12 -1.14357e+13 -6.14782e+12 -4.72318e+12 -4.29122e+12 -1.10658e+13 -5.78761e+12 -6.33158e+12 -8.34545e+12 -4.44883e+12 -4.80745e+12 -1.08873e+13 -5.42178e+12 -6.45241e+12 -8.6141e+12 -8.39747e+12 -5.88732e+12 -5.72768e+12 -7.70745e+12 -6.55627e+12 -5.17609e+12 -5.51439e+12 -1.07578e+13 -1.0628e+13 -7.9579e+12 -4.40366e+12 -6.61866e+12 -7.27174e+12 -9.25581e+12 -7.62914e+12 -9.09547e+12 -6.41838e+12 -4.45245e+12 -5.12471e+12 -9.76371e+12 -6.32004e+12 -8.67889e+12 -5.79615e+12 -5.84431e+12 -6.94245e+12 -8.0841e+12 -5.10914e+12 -7.54619e+12 -5.7576e+12 -8.24051e+12 -7.57212e+12 -5.27218e+12 -4.86127e+12 -8.31901e+12 -4.39972e+12 -5.79858e+12 -3.03151e+12 -5.05421e+12 -7.28881e+12 -7.773e+12 -9.65925e+12 -9.21395e+12 -6.24387e+12 -4.28668e+12 -7.35483e+12 -1.25968e+13 -7.6732e+12 -1.30809e+13 -8.2601e+12 -1.11772e+13 -8.32696e+12 -8.21052e+12 -4.09593e+12 -6.19705e+12 -5.23999e+12 -5.31805e+12 -7.73264e+12 -1.30112e+13 -7.18444e+12 -1.00387e+13 -7.02949e+12 -6.03789e+12 -7.84391e+12 -6.59627e+12 -5.45645e+12 -3.22952e+12 -3.76976e+12 -1.19868e+13 -1.15398e+13 -7.4228e+12 -7.36798e+12 -7.4374e+12 -1.05612e+13 -1.31211e+13 -8.57968e+12 -1.25996e+13 -6.75116e+12 -5.67091e+12 -7.19646e+12 -7.71457e+12 -3.76398e+12 -4.904e+12 -5.40686e+12 -9.4151e+12 -7.39818e+12 -6.98388e+12 -6.36047e+12 -9.51153e+12 -5.38459e+12 -8.21461e+12 -6.08338e+12 -7.90844e+12 -5.95676e+12 -7.06437e+12 -9.3156e+12 -9.30356e+12 -7.66203e+12 -7.70339e+12 -5.59172e+12 -7.23083e+12 -7.95965e+12 -1.03553e+13 -5.18313e+12 -5.17613e+12 -5.53483e+12 -8.37781e+12 -9.18837e+12 -9.18415e+12 -5.65583e+12 -8.39392e+12 -8.89091e+12 -7.70042e+12 -6.23737e+12 -7.90211e+12 -5.70474e+12 -8.00634e+12 -1.00449e+13 -9.13313e+12 -7.21125e+12 -8.14507e+12 -8.861e+12 -3.7683e+12 -1.18392e+13 -8.36843e+12 -8.01636e+12 -7.15172e+12 -6.1281e+12 -1.31931e+13 -5.04962e+12 -8.55363e+12 -1.24508e+13 -1.12499e+13 -1.05833e+13 -1.14179e+13 -7.32245e+12 -1.07664e+13 -1.31074e+13 -9.8656e+12 -5.0267e+12 -4.86499e+12 -3.70437e+12 -7.71417e+12 -1.1005e+13 -8.54722e+12 -1.12296e+13 -5.4546e+12 -8.84861e+12 -8.7595e+12 -1.04988e+13 -1.34164e+13 -7.43351e+12 -1.13287e+13 -1.08511e+13 -12549700000.0 -4.20753e+12 -4.16865e+12 -5.13154e+12 -6.53636e+12 -3.05056e+12 -6.42146e+12 -9.3055e+12 -8.16912e+12 -5.74473e+12 -8.12801e+12 -9.06908e+12 -1.07079e+13 -6.70617e+12 -6.75995e+12 -5.91e+12 -6.187e+12 -8.91505e+12 -4.2677e+12 -1.02561e+13 -1.03252e+13 -5.23767e+12 -8.60102e+12 -6.28202e+12 -8.86856e+12 -4.59214e+12 -8.62913e+12 -7.88043e+12 -1.26579e+13 -7.42566e+12 -5.69548e+12 -3.87355e+12 -1.01651e+13 -6.32391e+12 -3.08773e+12 -7.5744e+12 -5.3623e+12 -7.0248e+12 -6.54212e+12 -6.53941e+12 -1.11682e+13 -8.47297e+12 -6.31223e+12 -7.39323e+12 -6.10015e+12 -5.87746e+12 -8.6639e+12 -9.49546e+12 -7.36136e+12 -3.27152e+12 -3.99751e+12 -6.28948e+12 -6.31715e+12 -5.90866e+12 -5.9172e+12 -5.03888e+12 -5.23959e+12 -9.49599e+12 -6.8478e+12 -7.27625e+12 -9.45578e+12 -9.30486e+12 -5.11694e+12 -9.42701e+12 -7.07581e+12 -8.34411e+12 -1.00186e+13 -9.24425e+12 -1.28012e+13 -1.02227e+13 -9.26664e+12 -9.11927e+12 -1.04744e+13 -9.48752e+12 -6.50995e+12 -8.42743e+12 -9.53265e+12 -7.36355e+12 -5.64438e+12 -5.6043e+12 -9.44019e+12 -1.14955e+13 -1.02809e+13 -1.16086e+13 -1.48663e+13 -6.6461e+12 -7.96767e+12 -4.20254e+12 -9.52363e+12 -5.3466e+12 -4.51561e+12 -9.251e+12 -1.15989e+13 -9.01778e+12 -1.07907e+13 -6.16302e+12 -8.6568e+12 -6.31696e+12 -6.87205e+12 -1.05613e+13 -1.15128e+13 -1.25706e+13 -7.32135e+12 -8.98678e+12 -1.48263e+13 -9.4205e+12 -5.56509e+12 -9.73974e+12 -1.04022e+13 -9.84504e+12 -3.90053e+12 -3.38364e+12 -8.62251e+12 -9.98863e+12 -6.42151e+12 -1.10646e+13 -7.56041e+12 -9.89521e+12 -1.29981e+13 -7.92304e+12 -6.43334e+12 -1.16455e+13 -7.52627e+12 -7.14439e+12 -6.07893e+12 -4.05515e+12 -9.21768e+12 -3.61062e+12 -7.74449e+12 -9.28408e+12 -1.33161e+13 -5.44139e+12 -5.61259e+12 -1.33806e+13 -5.31649e+12 -7.82339e+12 -6.47971e+12 -4.83712e+12 -3.13994e+12 -1.1776e+13 -5.92288e+12 -8.51375e+12 -9.43732e+12 -6.30152e+12 -9.26331e+12 -1.01608e+13 -1.16132e+13 -2.57707e+12 -7.7252e+12 -7.84652e+12 -1.23806e+13 -1.05613e+13 -8.04598e+12 -1.00669e+13 -4.27845e+12 -4.75487e+12 -8.94983e+12 -1.18366e+13 -6.98271e+12 -7.26103e+12 -1.25692e+13 -8.58815e+12 -4.54422e+12 -1.16645e+13 -1.06443e+13 -1.10936e+13 -1.38903e+13 -1.38062e+13 -1.336e+13 -1.08757e+13 -1.20764e+13 -9.9534e+12 -8.65802e+12 -6.81836e+12 -6.90296e+12 -6.85552e+12 -1.51983e+13 -8.4299e+12 -9.0677e+12 -4.8422e+12 -1.15121e+13 -1.09465e+13 -7.84596e+12 -9.98861e+12 -9.58111e+12 -4.81856e+12 -8.33996e+12 -8.81795e+12 -8.58844e+12 -3.84193e+12 -6.07372e+12 -4.37583e+12 -9.43759e+12 -8.40518e+12 -7.4426e+12 -4.62344e+12 -8.1121e+12 -6.64289e+12 -5.54541e+12 -5.12109e+12 -6.51783e+12 -7.04193e+12 -4.12788e+12 -5.99939e+12 -6.09125e+12 -5.02108e+12 -7.19507e+12 -5.07426e+12 -7.59771e+12 -6.31152e+12 -8.51922e+12 -6.5082e+12 -1.01941e+13 -8.66814e+12 -1.03485e+13 -1.13863e+13 -9.94453e+12 -9.52212e+12 -9.29224e+12 -8.75192e+12 -1.24101e+13 -1.25373e+13 -3.82646e+12 -9.79966e+12 -3.51701e+12 -4.33908e+12 -5.12682e+12 -9.19249e+12 -1.03472e+13 -1.04465e+13 -1.24892e+13 -1.64744e+13 -7.25369e+12 -7.49495e+12 -7.42319e+12 -7.59457e+12 -7.90374e+12 -1.09243e+13 -1.01302e+13 -1.29413e+13 -7.45727e+12 -9.92039e+12 -8.41964e+12 -9.32552e+12 -6.25105e+12 -7.45733e+12 -4.70418e+12 -1.2655e+13 -8.14765e+12 -8.18021e+12 -5.51697e+12 -5.35364e+12 -1.01749e+13 -8.12184e+12 -9.92661e+12 -8.1283e+12 -6.4927e+12 -5.7903e+12 -8.48396e+12 -1.42979e+13 -6.3646e+12 -6.70446e+12 -3.9253e+12 -6.78438e+12 -9.1212e+12 -1.1319e+13 -4.52622e+12 -5.64516e+12 -1.02943e+13 -3.79391e+12 -7.84219e+12 -5.74958e+12 -8.09811e+12 -1.08557e+13 -9.6327e+12 -5.021e+12 -8.91909e+12 -8.00336e+12 -6.91305e+12 -8.46877e+12 -4.82231e+12 -7.3802e+12 -8.49473e+12 -1.16348e+13 -1.15853e+13 -9.22731e+12 -1.45593e+13 -9.99272e+12 -1.36552e+13 -1.11419e+13 -1.44679e+13 -1.00465e+13 -7.54559e+12 -7.25474e+12 -5.64807e+12 -7.96026e+12 -6.37373e+12 -2.72597e+12 -3.8084e+12 -5.49559e+12 -4.35025e+12 -8.00822e+12 -8.14638e+12 -8.92266e+12 -1.03014e+13 -7.10212e+12 -1.60081e+13 -6.53542e+12 -8.90083e+12 -1.35554e+13 -9.58033e+12 -5.84313e+12 -1.21489e+13 -8.64487e+12 -1.20828e+13 -1.18832e+13 -6.36955e+12 -3.32174e+12 -6.33228e+12 -6.55797e+12 -4.17902e+12 -4.92549e+12 -7.98335e+12 -8.2942e+12 -1.44894e+13 -6.67949e+12 -1.27803e+13 -8.38128e+12 -8.49592e+12 -7.59385e+12 -5.18334e+12 -8.57797e+12 -1.1137e+13 -5.23097e+12 -6.20262e+12 -7.45203e+12 -5.64122e+12 -5.16561e+12 -7.15474e+12 -9.84271e+12 -9.14654e+12 -6.47285e+12 -1.04173e+13 -6.09846e+12 -6.71765e+12 -6.71788e+12 -1.12729e+13 -1.08519e+13 -7.02756e+12 -4.18342e+12 -5.95852e+12 -6.32404e+12 -1.05958e+13 -6.91672e+12 -8.9286e+12 -5.87259e+12 -9.8485e+12 -7.294e+12 -7.08835e+12 -8.15778e+12 -9.40964e+12 -8.9882e+12 -9.51981e+12 -3.91497e+12 -8.0942e+12 -5.00125e+12 -9.04657e+12 -9.13563e+12 -6.35564e+12 -1.12694e+13 -1.7597e+13 -7.5488e+12 -8.98209e+12 -1.00454e+13 -5.90781e+12 -7.78306e+12 -1.19734e+13 -1.18225e+13 -1.36748e+13 -4.60306e+12 -3.96942e+12 -6.06057e+12 -1.00397e+13 -5.57872e+12 -4.5539e+12 -8.5663e+12 -1.12787e+13 -6.57149e+12 -1.09311e+13 -1.29505e+13 -8.17609e+12 -1.52312e+13 -7.50923e+12 -8.80864e+12 -8.05554e+12 -1.46931e+13 -1.1742e+13 -6.15742e+12 -8.27413e+12 -7.96078e+12 -2.68219e+12 -4.59905e+12 -4.92791e+12 -1.06908e+13 -9.35163e+12 -5.41469e+12 -6.14369e+12 -6.41966e+12 -8.56269e+12 -1.36425e+13 -1.33775e+13 -1.52193e+13 -6.80442e+12 -4.35515e+12 -6.91352e+12 -5.98273e+12 -7.82077e+12 -1.41816e+13 -6.50219e+12 -6.26313e+12 -6.77267e+12 -5.06009e+12 -1.0021e+13 -7.89253e+12 -1.11922e+13 -5.2497e+12 -1.18987e+13 -1.11141e+13 -1.06205e+13 -1.13104e+13 -7.45404e+12 -4.14075e+12 -2.56056e+12 -9.88493e+12 -1.06979e+13 -8.74467e+12 -1.51883e+13 -4.49819e+12 -6.72616e+12 -6.70045e+12 -6.3223e+12 -9.59672e+12 -5.71495e+12 -1.05225e+13 -1.38011e+13 -7.42015e+12 -6.76676e+12 -4.14757e+12 -1.24474e+13 -7.10514e+12 -1.21712e+13 -1.22922e+13 -9.83659e+12 -8.1321e+12 -7.36069e+12 -2.6056e+12 -1.36341e+13 -5.53527e+12 -2.76699e+12 -4.309e+12 -6.79359e+12 -7.18835e+12 -9.53927e+12 -4.41398e+12 -8.87023e+12 -7.09439e+12 -8.82585e+12 -5.39298e+12 -1.14243e+13 -5.04954e+12 -9.84108e+12 -1.08412e+13 -9.07585e+12 -1.34975e+13 -8.39757e+12 -6.51185e+12 -1.10456e+13 -1.10984e+13 -7.7648e+12 -6.46688e+12 -5.68179e+12 -4.17473e+12 -8.39033e+12 -8.85075e+12 -1.00746e+13 -7.28792e+12 -1.0106e+13 -8.54515e+12 -1.04687e+13 -1.06059e+13 -6.18133e+12 -7.36541e+12 -6.40132e+12 -7.73418e+12 -5.03848e+12 -7.38542e+12 -4.88997e+12 -6.43065e+12 -6.66254e+12 -1.03914e+13 -8.95776e+12 -9.0008e+12 -5.75928e+12 -6.02175e+12 -7.54643e+12 -4.57602e+12 -6.4246e+12 -7.07145e+12 -7.74377e+12 -4.78927e+12 -8.70681e+12 -6.13083e+12 -1.07648e+13 -6.32284e+12 -8.68505e+12 -6.75119e+12 -1.31175e+13 -4.41865e+12 -4.19622e+12 -9.34052e+12 -6.63379e+12 -8.27857e+12 -8.07036e+12 -8.99812e+12 -8.48563e+12 -9.76785e+12 -5.45912e+12 -8.83407e+12 -1.34139e+13 -8.63676e+12 -1.00737e+13 -7.61054e+12 -5.89779e+12 -5.32671e+12 -7.77105e+12 -9.67172e+12 -7.80629e+12 -6.65192e+12 -4.71201e+12 -5.49925e+12 -9.79269e+12 -7.13344e+12 -6.04768e+12 -9.57969e+12 -8.3906e+12 -8.47754e+12 -7.34559e+12 -6.54055e+12 -7.42409e+12 -7.18326e+12 -6.51042e+12 -7.53854e+12 -3.28972e+12 -1.26536e+13 -1.23968e+13 -1.12966e+13 -9.31478e+12 -1.37585e+13 -8.73995e+12 -5.42614e+12 -1.09577e+13 -8.51653e+12 -9.03507e+12 -9.54406e+12 -5.28116e+12 -1.4188e+13 -6.26977e+12 -3.32105e+12 -9.47035e+12 -6.08812e+12 -7.35584e+12 -6.5696e+12 -1.18182e+13 -8.83201e+12 -1.29843e+13 -8.78049e+12 -5.98539e+12 -6.21133e+12 -1.02118e+13 -3.99251e+12 -4.97418e+12 -9.49631e+12 -5.79759e+12 -8.49966e+12 -1.24968e+13 -1.24614e+13 -7.57145e+12 -9.12144e+12 -5.95122e+12 -9.13099e+12 -4.105e+12 -6.65086e+12 -9.64255e+12 -8.36206e+12 -1.33246e+13 -7.50372e+12 -8.7479e+12 -7.26864e+12 -1.0395e+13 -6.47638e+12 -1.05848e+13 -9.21824e+12 -9.08035e+12 -8.8761e+12 -6.31289e+12 -8.40587e+12 -5.45251e+12 -8.24077e+12 -4.01519e+12 -7.56347e+12 -8.71046e+12 -1.29477e+13 -9.0868e+12 -1.22876e+13 -6.89609e+12 -1.20778e+13 -7.10736e+12 -6.16638e+12 -4.93696e+12 -7.28397e+12 -6.39706e+12 -1.20451e+13 -8.1588e+12 -7.15106e+12 -1.28937e+13 -5.15374e+12 -7.84907e+12 -6.93735e+12 -1.1316e+13 -5.75714e+12 -5.49326e+12 -9.74472e+12 -7.99306e+12 -7.96616e+12 -9.86432e+12 -7.38789e+12 -8.6424e+12 -9.32149e+12 -5.90144e+12 -5.49099e+12 -9.75542e+12 -7.45289e+12 -3.81093e+12 -7.25689e+12 -1.05282e+13 -7.42014e+12 -9.33691e+12 -1.27358e+13 -7.18167e+12 -5.53074e+12 -7.4171e+12 -7.45569e+12 -5.31248e+12 -9.69956e+12 -7.69583e+12 -9.80659e+12 -7.58617e+12 -8.79867e+12 -7.33824e+12 -9.22205e+12 -1.51853e+13 -5.41569e+12 -1.12713e+13 -1.33122e+13 -1.18881e+13 -7.72116e+12 -8.32258e+12 -3.56717e+12 -3.78601e+12 -8.89645e+12 -5.99275e+12 -7.0309e+12 -1.18191e+13 -8.65704e+12 -8.62895e+12 -1.12179e+13 -1.00682e+13 -1.15651e+13 -5.73691e+12 -8.36662e+12 -9.60586e+12 -7.08264e+12 -7.33852e+12 -5.19078e+12 -7.46563e+12 -1.25598e+13 -1.0856e+13 -9.30256e+12 -1.18533e+13 -1.19576e+13 -9.46658e+12 -9.70758e+12 -6.75366e+12 -7.41212e+12 -6.43202e+12 -8.97137e+12 -7.58728e+12 -8.0096e+12 -7.02496e+12 -8.43295e+12 -8.03836e+12 -7.63881e+12 -1.08515e+13 -9.94429e+12 -7.35984e+12 -9.03968e+12 -3.83369e+12 -7.44404e+12 -7.15105e+12 -9.54876e+12 -5.56871e+12 -1.04888e+13 -1.14918e+13 -6.71474e+12 -5.18913e+12 -5.04874e+12 -1.4788e+13 -6.09971e+12 -1.02526e+13 -1.14012e+13 -8.33645e+12 -7.19888e+12 -5.16571e+12 -6.95066e+12 -4.6088e+12 -5.05453e+12 -5.48583e+12 -6.92144e+12 -8.22617e+12 -9.11651e+12 -8.11199e+12 -5.15247e+12 -7.41005e+12 -9.76672e+12 -4.32919e+12 -1.09073e+13 -9.48587e+12 -8.13083e+12 -7.90296e+12 -5.27751e+12 -8.62544e+12 -7.00286e+12 -3.92935e+12 -4.87084e+12 -5.05325e+12 -9.33767e+12 -7.31657e+12 -1.19424e+13 -4.30289e+12 -8.91393e+12 -5.66697e+12 -6.03148e+12 -9.8432e+12 -2.97417e+12 -6.53991e+12 -1.15029e+13 -9.69982e+12 -8.25331e+12 -4.3107e+12 -7.99691e+12 -5.02588e+12 -7.34128e+12 -8.92792e+12 -9.55206e+12 -4.04371e+12 -9.28449e+12 -8.75137e+12 -1.11477e+13 -1.1998e+13 -5.55659e+12 -6.74295e+12 -1.11641e+13 -8.15612e+12 -1.41914e+13 -9.3522e+12 -8.63955e+12 -9.72064e+12 -9.0016e+12 -7.66867e+12 -1.06179e+13 -1.30281e+13 -4.31611e+12 -1.12995e+13 -1.31951e+13 -8.82544e+12 -7.93378e+12 -7.94841e+12 -9.82284e+12 -7.77575e+12 -8.31669e+12 -1.03758e+13 -5.41897e+12 -9.46488e+12 -5.49434e+12 -4.48607e+12 -1.01816e+13 -8.15863e+12 -9.40991e+12 -5.8185e+12 -1.0788e+13 -1.0429e+13 -6.98461e+12 -1.21329e+13 -7.57388e+12 -5.74941e+12 -8.20527e+12 -1.34841e+13 -6.36228e+12 -5.24104e+12 -6.21592e+12 -1.04099e+13 -6.8752e+12 -7.9461e+12 -2.75828e+12 -5.66912e+12 -6.95792e+12 -1.30085e+13 -3.79117e+12 -9.46145e+12 -8.84501e+12 -3.71842e+12 -8.51774e+12 -5.85042e+12 -7.12475e+12 -9.04685e+12 -7.90602e+12 -7.25499e+12 -1.15104e+13 -8.1034e+12 -9.24464e+12 -5.95495e+12 -5.2991e+12 -5.22046e+12 -6.89314e+12 -6.82112e+12 -6.49802e+12 -6.41272e+12 -7.16494e+12 -4.42949e+12 -1.03773e+13 -6.88543e+12 -6.54751e+12 -9.09967e+12 -5.42385e+12 -6.21798e+12 -5.88683e+12 -8.08808e+12 -6.39245e+12 -7.69154e+12 -9.14079e+12 -9.47995e+12 -7.24262e+12 -8.50445e+12 -4.12836e+12 -4.58789e+12 -1.13636e+13 -5.69906e+12 -7.76371e+12 -5.23536e+12 -9.83169e+12 -9.16544e+12 -7.87062e+12 -4.96187e+12 -7.04013e+12 -6.7003e+12 -5.18551e+12 -6.31817e+12 -3.1274e+12 -4.50467e+12 -6.1347e+12 -7.61638e+12 -1.11266e+13 -1.06024e+13 -1.18268e+13 -1.10065e+13 -5.09425e+12 -8.70524e+12 -7.2968e+12 -7.27599e+12 -8.59524e+12 -8.73962e+12 -4.124e+12 -6.33185e+12 -9.40275e+12 -1.20055e+13 -6.19846e+12 -3.14418e+12 -7.48148e+12 -1.20028e+13 -9.21039e+12 -1.44677e+13 -1.07529e+13 -1.02099e+13 -8.61128e+12 -7.61608e+12 -1.17099e+13 -5.79511e+12 -7.92551e+12 -8.24521e+12 -7.87378e+12 -8.28806e+12 -5.5598e+12 -6.27615e+12 -9.88076e+12 -6.98573e+12 -7.85506e+12 -5.29039e+12 -8.5427e+12 -8.9448e+12 -6.97725e+12 -3.90306e+12 -3.48961e+12 -2.77514e+12 -8.79495e+12 -8.11679e+12 -7.04545e+12 -9.30842e+12 -1.19177e+13 -2.86831e+12 -1.39099e+13 -6.71516e+12 -8.33165e+12 -1.39104e+13 -4.93412e+12 -6.03128e+12 -4.80947e+12 -8.09445e+12 -5.42944e+12 -6.99729e+12 -7.47499e+12 -1.07949e+13 -9.70762e+12 -8.05118e+12 -1.16766e+13 -1.09847e+13 -1.66233e+13 -1.16908e+13 -1.03662e+13 -6.6214e+12 -8.0472e+12 -5.01067e+12 -7.84356e+12 -6.98706e+12 -1.11807e+13 -8.38471e+12 -1.01955e+13 -1.03342e+13 -1.03179e+13 -7.32783e+12 -5.73647e+12 -9.95541e+12 -6.05427e+12 -7.69938e+12 -1.00049e+13 -3.56623e+12 -6.8427e+12 -6.85056e+12 -4.77576e+12 -1.31463e+13 -4.66862e+12 -6.16283e+12 -6.87933e+12 -1.29925e+13 -7.49453e+12 -6.67009e+12 -4.21897e+12 -5.76848e+12 -5.90993e+12 -7.91015e+12 -8.86348e+12 -8.0847e+12 -3.86619e+12 -4.98217e+12 -1.2322e+13 -7.00489e+12 -5.12414e+12 -6.64611e+12 -6.42796e+12 -6.98358e+12 -7.75341e+12 -6.77148e+12 -6.6278e+12 -3.7947e+12 -3.48033e+12 -6.62348e+12 -7.40708e+12 -5.2566e+12 -7.01154e+12 -6.21873e+12 -4.34355e+12 -2.98495e+12 -8.59915e+12 -8.61953e+12 -7.43695e+12 -1.01086e+13 -9.59913e+12 -1.24215e+13 -5.31613e+12 -5.24728e+12 -7.86546e+12 -6.89942e+12 -6.12062e+12 -1.52145e+13 -5.89493e+12 -8.86686e+12 -2.94549e+12 -6.31371e+12 -1.03259e+13 -1.09932e+13 -6.5603e+12 -1.16934e+13 -6.17256e+12 -7.43122e+12 -7.89554e+12 -4.52553e+12 -4.45553e+12 -6.84092e+12 -6.22825e+12 -1.26763e+13 -7.7903e+12 -7.5888e+12 -1.06099e+13 -7.64359e+12 -4.93924e+12 -1.33243e+13 -4.6449e+12 -6.76678e+12 -8.5485e+12 -9.58428e+12 -8.02806e+12 -1.14873e+13 -1.01381e+13 -6.00923e+12 -4.54394e+12 -5.30737e+12 -5.55205e+12 -2.73824e+12 -7.76478e+12 -4.19622e+12 -6.86528e+12 -6.32607e+12 -8.16811e+12 -8.15528e+12 -1.25341e+13 -4.80019e+12 -9.21058e+12 -6.9628e+12 -6.05912e+12 -5.01591e+12 -8.67105e+12 -1.04591e+13 -8.40646e+12 -8.88791e+12 -1.0697e+13 -1.00649e+13 -1.03261e+13 -7.47639e+12 -8.47565e+12 -9.2578e+12 -9.99692e+12 -5.47411e+12 -6.04452e+12 -7.72984e+12 -7.44685e+12 -5.96696e+12 -6.70095e+12 -5.5295e+12 -8.85994e+12 -7.79115e+12 -6.4721e+12 -6.07361e+12 -6.63048e+12 -3.43813e+12 -5.4073e+12 -7.0814e+12 -1.2068e+12 -6.84003e+12 -1.01929e+13 -9.50262e+12 -4.0259e+12 -5.97252e+12 -2.52335e+12 -6.67691e+12 -5.03569e+12 -6.92199e+12 -2.69622e+12 -7.38057e+12 -5.76586e+12 -7.56709e+12 -3.95685e+12 -8.05855e+12 -7.64563e+12 -4.71703e+12 -4.41836e+12 -7.1594e+12 -7.85622e+12 -1.04479e+13 -5.95378e+12 -5.29385e+12 -6.73402e+12 -5.41666e+12 -6.70899e+12 -7.4245e+12 -8.47296e+12 -7.1843e+12 -5.07436e+12 -3.8956e+12 -7.8595e+12 -5.55892e+12 -6.89696e+12 -7.40056e+12 -5.25936e+12 -9.61806e+12 -7.13836e+12 -7.82268e+12 -6.63427e+12 -4.70623e+12 -8.25768e+12 -5.98873e+12 -7.67316e+12 -9.2363e+12 -7.83998e+12 -5.5786e+12 -4.71123e+12 -4.10666e+12 -8.00663e+12 -8.00516e+12 -9.33319e+12 -5.08522e+12 -4.49665e+12 -5.16823e+12 -7.48242e+12 -7.89176e+12 -8.18729e+12 -9.95253e+12 -5.54849e+12 -1.4087e+13 -3.11492e+12 -3.88999e+12 -4.92924e+12 -5.96445e+12 -6.87217e+12 -8.15066e+12 -5.49702e+12 -7.15081e+12 -8.75477e+12 -7.78017e+12 -6.06989e+12 -4.85652e+12 -9.49812e+12 -9.01225e+12 -6.98619e+12 -9.65385e+12 -4.90606e+12 -7.68431e+12 -9.7461e+12 -7.4998e+12 -1.1182e+13 -9.02147e+12 -8.76981e+12 -4.95322e+12 -6.49452e+12 -5.53696e+12 -5.32439e+12 -4.16933e+12 -4.81003e+12 -6.14158e+12 -1.09037e+13 -7.03215e+12 -7.44279e+12 -8.7257e+12 -1.93429e+13 -4.73083e+12 -6.74226e+12 -6.82438e+12 -1.558e+13 -8.82415e+12 -5.49216e+12 -1.09571e+13 -8.31282e+12 -5.55196e+12 -8.30211e+12 -5.67139e+12 -7.00014e+12 -4.82944e+12 -1.18231e+13 -7.20859e+12 -7.12846e+12 -2.50477e+12 -8.0731e+12 -1.00776e+13 -1.12325e+13 -6.83657e+12 -9.9804e+12 -1.19933e+13 -4.55047e+12 -7.20186e+12 -6.82547e+12 -8.5158e+12 -6.11008e+12 -3.92782e+12 -5.58823e+12 -9.64683e+12 -9.19775e+12 -7.34037e+12 -1.06628e+13 -7.3285e+12 -5.98598e+12 -6.40109e+12 -6.54665e+12 -7.77165e+12 -8.32879e+12 -6.53026e+12 -7.76801e+12 -4.55732e+12 -5.19278e+12 -3.74368e+12 -6.60399e+12 -7.75342e+12 -7.60414e+12 -7.48007e+12 -3.22494e+12 -6.5893e+12 -7.57546e+12 -7.33547e+12 -7.39181e+12 -6.56565e+12 -5.46434e+12 -8.21505e+12 -9.58854e+12 -4.54451e+12 -9.36765e+12 -6.655e+12 -5.44068e+12 -1.05054e+13 -6.15393e+12 -7.94798e+12 -6.47308e+12 -5.40309e+12 -3.98438e+12 -5.16747e+12 -1.20895e+13 -7.24796e+12 -7.01142e+12 -9.66397e+12 -9.27811e+12 -1.40709e+13 -7.25573e+12 -9.60436e+12 -6.50612e+12 -7.08634e+12 -6.3953e+12 -1.01092e+13 -8.98036e+12 -1.34238e+13 -7.37965e+12 -4.81769e+12 -4.75483e+12 -3.86224e+12 -3.93249e+12 -6.29663e+12 -1.04914e+13 -6.40666e+12 -8.1048e+12 -6.70254e+12 -5.13532e+12 -8.0346e+12 -9.54282e+12 -1.41854e+13 -8.1807e+12 -3.69769e+12 -6.80547e+12 -1.04226e+13 -5.53248e+12 -8.36551e+12 -9.43646e+12 -5.32235e+12 -7.8421e+12 -7.54267e+12 -1.39307e+13 -7.77505e+12 -6.16471e+12 -6.13701e+12 -5.95348e+12 -7.76454e+12 -8.00881e+12 -6.07847e+12 -8.53727e+12 -5.81688e+12 -6.52146e+12 -5.45932e+12 -5.73514e+12 -4.34815e+12 -5.57321e+12 -5.87653e+12 -8.4488e+12 -7.34668e+12 -4.79156e+12 -6.31127e+12 -3.00325e+12 -4.76639e+12 -8.78352e+12 -5.28916e+12 -7.3484e+12 -1.37284e+13 -8.38078e+12 -6.74388e+12 -6.52067e+12 -1.25041e+13 -7.30186e+12 -1.12692e+13 -5.92545e+12 -6.13059e+12 -7.62516e+12 -5.66066e+12 -8.33508e+12 -5.61176e+12 -7.72221e+12 -6.21794e+12 -5.12371e+12 -2.59813e+12 -2.94123e+12 -5.69771e+12 -4.11753e+12 -4.57924e+12 -5.5685e+12 -1.07008e+13 -4.44132e+12 -6.1649e+12 -3.07061e+12 -5.7787e+12 -8.40706e+12 -7.30458e+12 -6.34051e+12 -4.75337e+12 -1.94165e+12 -6.18107e+12 -4.54697e+12 -5.8171e+12 -5.75981e+12 -8.75147e+12 -6.65902e+12 -6.66542e+12 -1.03106e+13 -5.94348e+12 -6.64165e+12 -5.52215e+12 -9.99394e+12 -4.52644e+12 -7.84054e+12 -6.4434e+12 -4.02782e+12 -3.7192e+12 -6.44625e+12 -7.58376e+12 -5.58361e+12 -6.87091e+12 -6.54866e+12 -5.74356e+12 -7.20409e+12 -7.66726e+12 -7.09468e+12 -1.01911e+13 -8.9196e+12 -3.63848e+12 -5.2721e+12 -5.23165e+12 -6.07693e+12 -4.57773e+12 -4.68358e+12 -7.16949e+12 -6.39925e+12 -1.20777e+13 -8.15128e+12 -8.30587e+12 -6.81193e+12 -8.45909e+12 -7.31861e+12 -6.79886e+12 -6.57615e+12 -4.05181e+12 -6.38502e+12 -4.36643e+12 -4.52695e+12 -4.43537e+12 -5.81392e+12 -7.02011e+12 -9.94866e+12 -6.45831e+12 -7.61334e+12 -8.29963e+12 -6.36789e+12 -4.78805e+12 -3.7872e+12 -4.72353e+12 -4.87222e+12 -5.71438e+12 -8.56229e+12 -6.48226e+12 -1.07971e+13 -8.77861e+12 -1.33493e+13 -8.61901e+12 -5.16389e+12 -8.58992e+12 -9.37965e+12 -1.46029e+13 -6.16135e+12 -1.11257e+13 -4.18815e+12 -7.71737e+12 -6.80167e+12 -4.79941e+12 -7.19738e+12 -6.05712e+12 -5.91125e+12 -9.64326e+12 -5.88866e+12 -7.62507e+12 -1.09813e+13 -4.99903e+12 -1.0037e+13 -3.44522e+12 -5.61224e+12 -8.80938e+12 -1.13345e+13 -6.91576e+12 -4.522e+12 -5.49852e+12 -6.11667e+12 -4.71259e+12 -6.83561e+12 -7.48846e+12 -1.00946e+13 -8.45011e+12 -6.98111e+12 -6.65916e+12 -3.80608e+12 -3.99876e+12 -3.88107e+12 -7.88453e+12 -5.77677e+12 -7.19124e+12 -3.88804e+12 -6.21385e+12 -6.9819e+12 -8.16564e+12 -7.18381e+12 -6.01824e+12 -5.64053e+12 -8.21277e+12 -3.83459e+12 -6.31086e+12 -6.97083e+12 -7.33981e+12 -5.65403e+12 -9.65744e+12 -8.76202e+12 -7.74954e+12 -1.1125e+13 -6.98017e+12 -2.95323e+12 -5.40823e+12 -4.3614e+12 -4.15908e+12 -4.36553e+12 -5.72943e+12 -6.67084e+12 -9.52041e+12 -8.01468e+12 -8.98523e+12 -5.76181e+12 -5.15732e+12 -6.28111e+12 -9.35096e+12 -6.54822e+12 -7.81805e+12 -6.3403e+12 -6.70597e+12 -4.32183e+12 -1.17546e+13 -8.09227e+12 -3.87467e+12 -6.86478e+12 -3.6967e+12 -5.12786e+12 -8.13836e+12 -7.5819e+12 -6.09075e+12 -4.99436e+12 -7.34077e+12 -6.46899e+12 -4.64636e+12 -5.69451e+12 -6.05303e+12 -8.25771e+12 -4.37716e+12 -5.91837e+12 -3.32551e+12 -7.19612e+12 -4.87613e+12 -5.36567e+12 -6.34946e+12 -5.47793e+12 -7.30972e+12 -5.79774e+12 -6.99038e+12 -4.81087e+12 -6.09919e+12 -7.71457e+12 -8.15827e+12 -7.89479e+12 -1.02929e+13 -7.78339e+12 -7.20834e+12 -6.31683e+12 -9.9861e+12 -1.18273e+13 -8.22545e+12 -6.07308e+12 -3.45806e+12 -4.24697e+12 -3.90983e+12 -8.92879e+12 -6.95416e+12 -1.05114e+13 -7.81887e+12 -5.34254e+12 -5.77065e+12 -6.55103e+12 -9.03978e+12 -4.41864e+12 -6.54881e+12 -4.12877e+12 -6.47752e+12 -7.30442e+12 -1.04612e+13 -4.58131e+12 -7.46743e+12 -7.79174e+12 -6.32393e+12 -3.95853e+12 -5.60527e+12 -6.11549e+12 -9.34938e+12 -8.61293e+12 -8.07181e+12 -1.00971e+13 -5.18353e+12 -5.14211e+12 -5.80729e+12 -4.55966e+12 -5.89251e+12 -6.30561e+12 -8.5587e+12 -5.1615e+12 -1.04941e+13 -8.64351e+12 -1.20923e+13 -1.0092e+13 -7.41424e+12 -4.56574e+12 -7.37146e+12 -4.88101e+12 -3.97785e+12 -4.7564e+12 -5.77704e+12 -4.95433e+12 -7.77257e+12 -9.82355e+12 -6.4605e+12 -5.23651e+12 -8.28717e+12 -4.53794e+12 -8.63956e+12 -6.81678e+12 -6.93597e+12 -8.57862e+12 -5.95089e+12 -6.41576e+12 -3.7494e+12 -6.2288e+12 -5.42667e+12 -4.24621e+12 -5.28364e+12 -4.161e+12 -7.14059e+12 -6.45592e+12 -4.14436e+12 -3.74332e+12 -3.33276e+12 -6.32192e+12 -7.76813e+12 -4.92242e+12 -1.01573e+13 -8.30436e+12 -5.82492e+12 -7.14497e+12 -9.90475e+12 -5.72151e+12 -1.06744e+13 -8.66582e+12 -6.82004e+12 -9.1078e+12 -3.28929e+12 -5.93357e+12 -9.26337e+12 -6.29675e+12 -5.55328e+12 -5.95036e+12 -6.02679e+12 -7.87172e+12 -3.70391e+12 -5.53433e+12 -3.39895e+12 -7.02642e+12 -7.1889e+12 -4.17335e+12 -5.51832e+12 -3.00394e+12 -4.95725e+12 -6.98718e+12 -4.22093e+12 -6.32812e+12 -7.39737e+12 -8.71891e+12 -4.92092e+12 -7.72953e+12 -5.20154e+12 -7.34497e+12 -8.87053e+12 -3.53549e+12 -7.92743e+12 -6.51049e+12 -3.15038e+12 -3.38288e+12 -5.33436e+12 -6.02077e+12 -4.61916e+12 -4.83945e+12 -8.06227e+12 -4.90005e+12 -6.50817e+12 -4.0287e+12 -5.45739e+12 -7.34687e+12 -7.17147e+12 -5.7717e+12 -8.03203e+12 -4.4751e+12 -4.0613e+12 -5.19388e+12 -3.76875e+12 -4.67095e+12 -6.49562e+12 -9.5858e+12 -4.31925e+12 -2.39696e+12 -1.05625e+13 -7.36304e+12 -5.38477e+12 -5.25958e+12 -3.58638e+12 -2.58165e+12 -8.7029e+12 -5.25786e+12 -7.0668e+12 -5.69076e+12 -7.11568e+12 -6.43557e+12 -1.04076e+13 -4.93445e+12 -5.91888e+12 -7.42584e+12 -4.13055e+12 -7.14901e+12 -6.60798e+12 -6.33524e+12 -5.42819e+12 -4.06788e+12 -4.68564e+12 -4.67482e+12 -6.03967e+12 -8.80575e+12 -6.35129e+12 -6.15203e+12 -6.49668e+12 -9.75634e+12 -8.17188e+12 -6.23517e+12 -1.20629e+13 -9.94812e+12 -7.38451e+12 -7.85617e+12 -2.50619e+12 -6.73588e+12 -6.12571e+12 -5.83585e+12 -1.06021e+13 -4.85006e+12 -4.5774e+12 -4.75248e+12 -8.574e+12 -5.13927e+12 -1.15398e+13 -8.47008e+12 -1.29653e+13 -1.05463e+13 -6.3299e+12 -4.63226e+12 -7.07926e+12 -5.74764e+12 -4.59141e+12 -7.1319e+12 -5.4681e+12 -3.49385e+12 -5.65638e+12 -3.56944e+12 -5.6461e+12 -4.39148e+12 -6.94463e+12 -4.49278e+12 -4.13378e+12 -3.54394e+12 -6.93076e+12 -7.35805e+12 -5.85486e+12 -8.17422e+12 -8.83916e+12 -7.07193e+12 -7.28074e+12 -8.01835e+12 -6.00464e+12 -6.69827e+12 -6.23901e+12 -5.53321e+12 -5.41963e+12 -9.89241e+12 -7.73676e+12 -8.2053e+12 -6.77059e+12 -5.06411e+12 -8.41385e+12 -5.30589e+12 -1.16625e+13 -1.17709e+13 -6.36995e+12 -8.30581e+12 -5.52995e+12 -6.57374e+12 -7.7895e+12 -3.83558e+12 -9.46116e+12 -3.19879e+12 -1.07878e+13 -5.59455e+12 -5.27422e+12 -3.76797e+12 -7.18527e+12 -4.22238e+12 -3.83791e+12 -6.38261e+12 -6.16305e+12 -9.1756e+12 -4.92227e+12 -4.47465e+12 -5.62532e+12 -6.20845e+12 -8.90224e+12 -6.79682e+12 -6.42594e+12 -7.15676e+12 -3.70307e+12 -5.70858e+12 -5.60862e+12 -4.9552e+12 -6.40697e+12 -6.26524e+12 -6.54244e+12 -4.13896e+12 -5.41044e+12 -6.84444e+12 -7.12204e+12 -4.62222e+12 -4.956e+12 -7.6911e+12 -6.34601e+12 -4.69572e+12 -6.15097e+12 -6.1633e+12 -4.14009e+12 -8.95362e+12 -5.35177e+12 -6.6919e+12 -6.1707e+12 -5.36702e+12 -4.61324e+12 -2.80088e+12 -3.98419e+12 -6.31003e+12 -1.07845e+13 -6.67569e+12 -6.84121e+12 -1.03272e+13 -8.89419e+12 -5.91461e+12 -9.89235e+12 -8.15881e+12 -7.3068e+12 -5.62577e+12 -1.08763e+13 -3.95687e+12 -6.2271e+12 -5.81088e+12 -8.80846e+12 -6.76128e+12 -7.94103e+12 -5.49205e+12 -6.82861e+12 -6.6448e+12 -5.85382e+12 -2.65164e+12 -6.02263e+12 -7.35853e+12 -5.43045e+12 -8.65092e+12 -7.96175e+12 -8.20297e+12 -6.81499e+12 -6.04593e+12 -7.95502e+12 -4.65738e+12 -1.12685e+13 -6.65166e+12 -6.05044e+12 -4.35774e+12 -5.98061e+12 -8.96181e+12 -1.58348e+13 -8.26089e+12 -4.52356e+12 -1.15901e+13 -8.65205e+12 -9.25137e+12 -5.5908e+12 -4.54432e+12 -5.90389e+12 -6.43272e+12 -2.31538e+12 -4.6215e+12 -3.70196e+12 -5.17042e+12 -5.88186e+12 -5.78039e+12 -6.61118e+12 -5.31723e+12 -4.58295e+12 -9.93631e+12 -8.63679e+12 -6.17043e+12 -6.74584e+12 -5.40422e+12 -6.41848e+12 -5.10448e+12 -7.85173e+12 -5.83204e+12 -4.72236e+12 -5.49693e+12 -5.84616e+12 -4.64053e+12 -5.13378e+12 -6.52396e+12 -5.65465e+12 -8.64561e+12 -7.52172e+12 -3.344e+12 -9.75957e+12 -5.0178e+12 -6.00248e+12 -3.65717e+12 -7.60544e+12 -1.18342e+13 -8.86124e+12 -7.52249e+12 -6.49679e+12 -7.03757e+12 -5.52576e+12 -6.79556e+12 -7.82745e+12 -5.32788e+12 -8.23695e+12 -6.53521e+12 -7.42175e+12 -5.75455e+12 -7.63652e+12 -7.46814e+12 -6.73628e+12 -9.04861e+12 -6.69367e+12 -6.96732e+12 -3.34153e+12 -4.88902e+12 -3.47236e+12 -6.75541e+12 -5.21056e+12 -3.58939e+12 -5.44992e+12 -2.70251e+12 -6.32267e+12 -6.75833e+12 -8.12437e+12 -4.70184e+12 -5.45778e+12 -5.27229e+12 -4.49383e+12 -5.38418e+12 -4.15854e+12 -6.8568e+12 -3.64989e+12 -1.05922e+13 -7.81079e+12 -2.91388e+12 -5.85569e+12 -6.46713e+12 -3.97028e+12 -6.42148e+12 -5.98542e+12 -5.91108e+12 -7.88787e+12 -4.66272e+12 -3.37436e+12 -4.54905e+12 -5.85281e+12 -4.97548e+12 -6.62338e+12 -5.38231e+12 -8.1396e+12 -7.73951e+12 -5.83703e+12 -1.06507e+13 -4.21621e+12 -7.94951e+12 -1.00876e+13 -6.87752e+12 -5.20851e+12 -8.37405e+12 -6.0763e+12 -7.1719e+12 -7.07899e+12 -8.28936e+12 -8.98853e+12 -7.53583e+12 -3.89888e+12 -4.67341e+12 -5.94765e+12 -8.06249e+12 -6.37436e+12 -5.11292e+12 -4.57688e+12 -4.95828e+12 -4.7734e+12 -6.37974e+12 -8.71679e+12 -6.03977e+12 -7.08582e+12 -6.68416e+12 -7.7375e+12 -5.31067e+12 -6.53167e+12 -6.51145e+12 -9.85667e+12 -7.96544e+12 -8.63989e+12 -6.87275e+12 -5.48103e+12 -1.19906e+13 -1.04514e+13 -7.54738e+12 -8.56095e+12 -5.42058e+12 -4.84615e+12 -7.74033e+12 -2.77426e+12 -5.98514e+12 -3.28088e+12 -4.85391e+12 -4.37972e+12 -7.56897e+12 -5.396e+12 -7.13834e+12 -5.84893e+12 -9.74838e+12 -8.50833e+12 -8.47804e+12 -7.51218e+12 -7.74114e+12 -5.35798e+12 -4.56751e+12 -5.95495e+12 -7.5891e+12 -4.57501e+12 -8.37576e+12 -2.94484e+12 -3.91892e+12 -4.74513e+12 -5.04093e+12 -3.87319e+12 -1.03779e+13 -2.74703e+12 -4.4635e+12 -2.98522e+12 -7.08052e+12 -5.13983e+12 -7.46201e+12 -7.56996e+12 -5.12824e+12 -5.2207e+12 -5.55473e+12 -6.38807e+12 -6.42255e+12 -6.94088e+12 -2.575e+12 -2.70271e+12 -8.25258e+12 -9.35081e+12 -4.55825e+12 -4.90689e+12 -5.04352e+12 -4.53022e+12 -5.01268e+12 -3.79077e+12 -4.23578e+12 -8.51055e+12 -5.22432e+12 -3.88308e+12 -3.71153e+12 -5.54104e+12 -3.10965e+12 -4.13906e+12 -3.56146e+12 -3.84534e+12 -4.48769e+12 -5.09011e+12 -3.4818e+12 -4.34513e+12 -4.55663e+12 -3.98516e+12 -5.47611e+12 -5.87312e+12 -4.79742e+12 -5.67497e+12 -8.07596e+12 -4.16009e+12 -2.53528e+12 -8.75104e+12 -3.02354e+12 -4.38293e+12 -5.69569e+12 -4.37419e+12 -5.22473e+12 -4.15348e+12 -1.49141e+12 -5.70504e+12 -7.97476e+12 -4.44471e+12 -4.27098e+12 -3.43106e+12 -4.45085e+12 -8.03153e+12 -2.56031e+12 -5.09153e+12 -6.09251e+12 -4.26995e+12 -4.87808e+12 -3.27576e+12 -4.36612e+12 -5.19203e+12 -7.58937e+12 -5.45907e+12 -5.6374e+12 -7.38852e+12 -4.0584e+12 -6.51666e+12 -8.33552e+12 -6.41793e+12 -5.46843e+12 -4.9929e+12 -9.04292e+12 -5.56581e+12 -4.5202e+12 -5.65594e+12 -6.59885e+12 -6.35331e+12 -8.31569e+12 -7.9369e+12 -6.92299e+12 -6.58081e+12 -6.45291e+12 -7.22174e+12 -6.1803e+12 -8.18376e+12 -6.22285e+12 -5.77908e+12 -4.12352e+12 -7.39887e+12 -3.86189e+12 -7.5478e+12 -5.73309e+12 -5.49585e+12 -7.95168e+12 -7.39111e+12 -1.22837e+13 -6.38698e+12 -5.27552e+12 -5.99388e+12 -4.63931e+12 -3.79936e+12 -6.73334e+12 -3.19216e+12 -8.02243e+12 -5.57578e+12 -5.54026e+12 -7.14487e+12 -6.34698e+12 -8.6854e+12 -5.76399e+12 -5.41003e+12 -9.89061e+12 -4.2521e+12 -7.21912e+12 -4.40555e+12 -4.93146e+12 -5.30102e+12 -5.59578e+12 -5.22712e+12 -4.38479e+12 -6.83841e+12 -5.2645e+12 -6.21639e+12 -7.52919e+12 -6.93493e+12 -3.81417e+12 -5.46695e+12 -6.15044e+12 -4.92701e+12 -6.40297e+12 -8.06522e+12 -8.08884e+12 -4.46005e+12 -6.73191e+12 -6.01604e+12 -5.96067e+12 -5.21151e+12 -7.37154e+12 -4.10213e+12 -6.53232e+12 -4.42588e+12 -5.82859e+12 -5.86087e+12 -4.06412e+12 -6.35008e+12 -5.88398e+12 -8.36205e+12 -5.54571e+12 -4.36982e+12 -5.25535e+12 -5.00117e+12 -6.47186e+12 -6.54362e+12 -3.06251e+12 -5.00091e+12 -5.20047e+12 -4.98451e+12 -7.44831e+12 -4.87482e+12 -3.20539e+12 -2.62668e+12 -5.96531e+12 -2.89162e+12 -4.02417e+12 -2.64299e+12 -3.34084e+12 -5.99743e+12 -3.32027e+12 -5.70524e+12 -3.40225e+12 -3.72099e+12 -4.47859e+12 -4.80186e+12 -3.61119e+12 -4.11068e+12 -3.71041e+12 -5.72458e+12 -2.66728e+12 -3.77198e+12 -3.47094e+12 -6.1122e+12 -7.50332e+12 -6.42995e+12 -4.21684e+12 -3.06683e+12 -2.89119e+12 -3.25272e+12 -7.71101e+12 -4.21999e+12 -5.09836e+12 -2.50647e+12 -5.7496e+12 -3.91006e+12 -6.65138e+12 -3.82604e+12 -5.16005e+12 -6.73611e+12 -4.15085e+12 -7.37514e+12 -1.02336e+13 -5.63991e+12 -8.29332e+12 -3.55784e+12 -9.33606e+12 -7.71186e+12 -4.40914e+12 -4.48716e+12 -7.75155e+12 -6.6729e+12 -5.83352e+12 -8.034e+12 -7.29587e+12 -7.82028e+12 -7.67579e+12 -9.68481e+12 -940385000000.0 -5.57967e+12 -4.20975e+12 -7.66719e+12 -5.85622e+12 -3.05736e+12 -4.97337e+12 -4.99768e+12 -7.4206e+12 -5.71886e+12 -7.14673e+12 -5.34138e+12 -6.52589e+12 -7.48539e+12 -8.28089e+12 -9.00834e+12 -6.03523e+12 -1.11711e+13 -2.78811e+12 -2.50976e+12 -5.86179e+12 -6.45454e+12 -5.54409e+12 -2.85655e+12 -4.28272e+12 -3.49184e+12 -4.48692e+12 -4.28921e+12 -9.64337e+12 -5.46009e+12 -4.94013e+12 -7.92076e+12 -7.16528e+12 -6.62894e+12 -9.25822e+12 -4.40311e+12 -6.88744e+12 -4.78152e+12 -3.05642e+12 -5.50701e+12 -7.58125e+12 -3.99351e+12 -4.29153e+12 -6.26301e+12 -6.62422e+12 -5.05186e+12 -9.79847e+12 -4.71765e+12 -5.33027e+12 -6.33273e+12 -5.64961e+12 -8.22146e+12 -7.93048e+12 -5.99738e+12 -5.18441e+12 -6.12972e+12 -7.35326e+12 -4.398e+12 -5.34691e+12 -5.38223e+12 -7.10019e+12 -7.71985e+12 -7.1217e+12 -7.9741e+12 -4.05036e+12 -5.50551e+12 -1.86286e+12 -4.96701e+12 -3.99325e+12 -2.92992e+12 -7.84678e+12 -6.39184e+12 -6.62109e+12 -5.20304e+12 -3.17753e+12 -6.59941e+12 -6.5561e+12 -1.39339e+12 -3.74685e+12 -4.53428e+12 -4.59725e+12 -6.39186e+12 -6.16108e+12 -5.13251e+12 -1.89508e+12 -3.32488e+12 -2.46564e+12 -2.57561e+12 -4.73435e+12 -6.90701e+12 -3.54103e+12 -3.49104e+12 -2.80739e+12 -4.34372e+12 -7.88368e+12 -4.41424e+12 -3.70113e+12 -3.54972e+12 -4.14965e+12 -3.69228e+12 -4.02969e+12 -2.78467e+12 -2.34782e+12 -4.12274e+12 -4.21623e+12 -4.8971e+12 -5.88058e+12 -3.65826e+12 -2.58622e+12 -6.00715e+12 -4.38882e+12 -4.43785e+12 -4.44217e+12 -4.80131e+12 -5.25261e+12 -4.77534e+12 -4.36889e+12 -2.82135e+12 -3.67386e+12 -3.16933e+12 -5.8617e+12 -8.67505e+12 -3.70344e+12 -3.24844e+12 -3.44883e+12 -3.60405e+12 -2.4562e+12 -2.06764e+12 -8.22969e+12 -3.57607e+12 -8.28104e+12 -7.5117e+12 -3.41616e+12 -7.11419e+12 -4.20636e+12 -5.91565e+12 -5.27854e+12 -5.60899e+12 -6.51514e+12 -5.95243e+12 -5.9573e+12 -7.39849e+12 -7.89818e+12 -7.51434e+12 -5.16268e+12 -3.33192e+12 -6.0487e+12 -5.32293e+12 -7.03733e+12 -8.39377e+12 -6.61237e+12 -4.70947e+12 -7.54666e+12 -6.01192e+12 -4.996e+12 -3.90217e+12 -9.79515e+12 -4.92319e+12 -6.33217e+12 -4.13696e+12 -5.31866e+12 -8.73397e+12 -1.98704e+12 -8.09542e+12 -4.65576e+12 -2.81594e+12 -1.73343e+12 -6.49458e+12 -3.83162e+12 -3.42247e+12 -2.75542e+12 -4.92292e+12 -1.02272e+13 -5.38227e+12 -6.64252e+12 -3.80516e+12 -4.23441e+12 -5.91853e+12 -5.19414e+12 -3.74252e+12 -3.86462e+12 -4.77392e+12 -4.74066e+12 -5.59316e+12 -5.85312e+12 -4.80573e+12 -4.89479e+12 -2.15764e+12 -3.69927e+12 -1.95309e+12 -4.80832e+12 -3.8527e+12 -6.54715e+12 -6.55948e+12 -5.3497e+12 -5.5993e+12 -4.10119e+12 -6.08559e+12 -5.6638e+12 -3.75252e+12 -4.42555e+12 -3.75335e+12 -4.67483e+12 -4.52144e+12 -7.78608e+12 -6.37605e+12 -7.82369e+12 -4.27188e+12 -2.69677e+12 -6.08675e+12 -4.80299e+12 -6.29167e+12 -4.1801e+12 -5.63646e+12 -3.5694e+12 -5.11434e+12 -6.50393e+12 -5.92887e+12 -2.9136e+12 -6.05625e+12 -2.83628e+12 -3.11811e+12 -2.10434e+12 -4.77289e+12 -4.74798e+12 -4.48745e+12 -3.12721e+12 -5.64493e+12 -4.56462e+12 -3.33384e+12 -3.96852e+12 -3.98459e+12 -4.5765e+12 -3.68259e+12 -6.30082e+12 -1.2534e+12 -4.98302e+12 -3.21225e+12 -4.55711e+12 -1.99066e+12 -5.38301e+12 -2.1082e+12 -2.01575e+12 -4.94601e+12 -4.18399e+12 -3.83807e+12 -3.04796e+12 -2.67711e+12 -3.35568e+12 -5.09587e+12 -1.78821e+12 -3.94398e+12 -4.02951e+12 -2.50135e+12 -2.92916e+12 -4.17162e+12 -4.38475e+12 -3.6443e+12 -4.21913e+12 -3.5585e+12 -4.124e+12 -4.32311e+12 -5.19582e+12 -2.95447e+12 -5.56205e+12 -3.01819e+12 -6.53362e+12 -7.99158e+12 -3.76358e+12 -3.12405e+12 -2.52397e+12 -2.8828e+12 -4.19943e+12 -5.12391e+12 -4.22387e+12 -4.0325e+12 -5.8995e+12 -6.55731e+12 -6.27703e+12 -5.75413e+12 -4.80162e+12 -4.95185e+12 -5.02704e+12 -1.89631e+12 -4.28484e+12 -1.29019e+12 -5.32867e+12 -3.53121e+12 -4.07404e+12 -5.4668e+12 -6.08246e+12 -4.77962e+12 -8.76382e+12 -7.73616e+12 -3.43542e+12 -4.70276e+12 -6.05102e+12 -3.21839e+12 -6.24604e+12 -2.97428e+12 -3.96002e+12 -5.38211e+12 -2.66722e+12 -4.67943e+12 -7.65916e+12 -4.89014e+12 -5.14497e+12 -4.85495e+12 -5.66266e+12 -3.88161e+12 -6.68138e+12 -4.41717e+12 -2.27679e+12 -3.37535e+12 -3.30876e+12 -2.62261e+12 -5.58022e+12 -4.81318e+12 -5.93035e+12 -5.84296e+12 -6.62323e+12 -4.67178e+12 -4.46233e+12 -3.93429e+12 -6.52451e+12 -3.77666e+12 -3.66144e+12 -4.4153e+12 -3.20772e+12 -5.50143e+12 -4.4908e+12 -5.67789e+12 -4.12122e+12 -3.48729e+12 -6.58843e+12 -4.83434e+12 -3.98443e+12 -2.12515e+12 -4.48999e+12 -5.58299e+12 -3.52989e+12 -5.69182e+12 -2.88018e+12 -4.40052e+12 -4.02992e+12 -4.56952e+12 -5.90798e+12 -2.89044e+12 -6.03225e+12 -4.88269e+12 -6.36933e+12 -5.52771e+12 -3.34536e+12 -4.14951e+12 -6.0709e+12 -7.12179e+12 -5.3508e+12 -3.87884e+12 -4.00715e+12 -3.69774e+12 -5.26303e+12 -2.85262e+12 -4.54124e+12 -4.89388e+12 -4.65996e+12 -4.38227e+12 -3.23103e+12 -1.97621e+12 -3.75811e+12 -5.61369e+12 -3.81041e+12 -3.32086e+12 -1.7678e+12 -1.15642e+12 -3.35191e+12 -2.40019e+12 -3.81457e+12 -3.58227e+12 -2.8051e+12 -3.00539e+12 -3.27185e+12 -1.77857e+12 -4.85605e+12 -5.62105e+12 -4.99358e+12 -2.38878e+12 -2.82696e+12 -1.10163e+12 -3.2586e+12 -1.62433e+12 -6.34958e+12 -4.33071e+12 -3.29202e+12 -4.34653e+12 -3.849e+12 -5.12796e+12 -5.81649e+12 -4.4658e+12 -6.16777e+12 -3.89702e+12 -2.39467e+12 -5.05611e+12 -4.88075e+12 -4.4669e+12 -3.54348e+12 -3.41095e+12 -2.26046e+12 -4.92629e+12 -3.80562e+12 -3.34489e+12 -4.3116e+12 -3.75492e+12 -6.06659e+12 -5.71114e+12 -6.99344e+12 -5.49842e+12 -5.32203e+12 -5.45089e+12 -4.77605e+12 -3.32311e+12 -5.00496e+12 -5.71863e+12 -8.24732e+12 -4.8762e+12 -4.97503e+12 -5.91685e+12 -3.46592e+12 -5.91987e+12 -3.59409e+12 -7.36162e+12 -4.71201e+12 -6.03962e+12 -5.94992e+12 -5.69646e+12 -4.81902e+12 -4.01897e+12 -4.31707e+12 -3.88975e+12 -7.92118e+12 -3.01446e+12 -3.93502e+12 -2.3813e+12 -2.00308e+12 -2.06345e+12 -4.19425e+12 -6.20489e+12 -6.25824e+12 -7.17778e+12 -8.11518e+12 -4.28895e+12 -4.13708e+12 -7.35185e+12 -6.16885e+12 -4.78076e+12 -4.13541e+12 -3.50633e+12 -4.21193e+12 -4.79192e+12 -3.73337e+12 -4.05653e+12 -1.75011e+12 -4.0479e+12 -5.09776e+12 -3.16273e+12 -5.2044e+12 -1.42566e+12 -4.49072e+12 -5.669e+12 -5.10257e+12 -3.49232e+12 -4.46334e+12 -1.83941e+12 -4.25706e+12 -4.35294e+12 -6.61299e+12 -5.02116e+12 -3.66322e+12 -4.53707e+12 -5.93332e+12 -1.30683e+12 -3.39208e+12 -3.40841e+12 -6.7682e+12 -4.30851e+12 -6.39647e+12 -1.80773e+12 -3.12858e+12 -3.28576e+12 -6.65449e+12 -3.19523e+12 -4.27787e+12 -1.68663e+12 -1.91813e+12 -2.86035e+12 -2.72909e+12 -4.06352e+12 -3.24304e+12 -2.7403e+12 -2.71999e+12 -1.5858e+12 -3.75112e+12 -2.83621e+12 -3.16261e+12 -1.5611e+12 -1.37808e+12 -2.84561e+12 -2.10087e+12 -3.7317e+12 -3.09412e+12 -1.45959e+12 -3.24372e+12 -4.41418e+12 -3.37328e+12 -2.01481e+12 -1.41037e+12 -2.73677e+12 -2.67781e+12 -4.06922e+12 -3.43965e+12 -3.35334e+12 -1.86473e+12 -3.82281e+12 -2.38803e+12 -4.91339e+12 -3.32164e+12 -4.69609e+12 -2.98341e+12 -2.96235e+12 -3.35154e+12 -5.38902e+12 -3.8535e+12 -3.95106e+12 -1.06514e+12 -4.28377e+12 -5.5944e+12 -5.70455e+12 -2.82599e+12 -3.78196e+12 -2.67733e+12 -2.05295e+12 -3.30763e+12 -4.33291e+12 -2.7714e+12 -2.23587e+12 -4.66101e+12 -1.43527e+12 -2.57895e+12 -4.73051e+12 -2.61613e+12 -4.80588e+12 -5.56818e+12 -2.36568e+12 -2.89025e+12 -3.34344e+12 -2.20159e+12 -3.03774e+12 -4.54372e+12 -6.74148e+12 -3.61102e+12 -5.934e+12 -3.78563e+12 -5.11023e+12 -5.0085e+12 -3.8891e+12 -5.27951e+12 -5.44397e+12 -5.19905e+12 -5.37337e+12 -3.47e+12 -4.40592e+12 -7.85278e+12 -3.95749e+12 -4.39528e+12 -3.71901e+12 -4.68162e+12 -6.82977e+12 -7.26943e+12 -3.60144e+12 -5.55733e+12 -4.86623e+12 -6.19569e+12 -5.16178e+12 -3.67079e+12 -4.06458e+12 -3.61987e+12 -5.89384e+12 -6.66124e+12 -3.91832e+12 -2.42868e+12 -3.38213e+12 -5.20546e+12 -5.50755e+12 -4.91272e+12 -6.23525e+12 -4.07027e+12 -4.08981e+12 -5.00195e+12 -7.94944e+12 -5.35221e+12 -3.23377e+12 -4.97291e+12 -5.13519e+12 -2.98714e+12 -3.29384e+12 -4.65807e+12 -3.81924e+12 -4.80123e+12 -3.16567e+12 -4.2591e+12 -4.04108e+12 -5.22328e+12 -3.40246e+12 -3.50883e+12 -4.1707e+12 -3.4914e+12 -4.62595e+12 -3.65704e+12 -4.61344e+12 -4.12318e+12 -4.2907e+12 -2.56354e+12 -2.78191e+12 -4.15878e+12 -3.51836e+12 -3.68205e+12 -2.39127e+12 -2.67922e+12 -2.25654e+12 -2.4628e+12 -2.77143e+12 -1.42385e+12 -2.61053e+12 -2.47257e+12 -2.3613e+12 -2.08216e+12 -2.42616e+12 -1.62233e+12 -1.99948e+12 -2.59647e+12 -3.98722e+12 -1.16086e+12 -2.4413e+12 -2.93978e+12 -1.31131e+12 -401277000000.0 -1.69201e+12 -1.95713e+12 -3.00652e+12 -983626000000.0 -908758000000.0 -896821000000.0 -1.49917e+12 -969970000000.0 -1.83676e+12 -1.8842e+12 -1.94686e+12 -1.59049e+12 -1.81432e+12 -1.74429e+12 -1.91036e+12 -1.94268e+12 -2.40972e+12 -2.9851e+12 -1.13081e+12 -3.73043e+12 -3.91661e+12 -2.42227e+12 -2.06191e+12 -1.33555e+12 -1.69853e+12 -2.9151e+12 -3.20933e+12 -2.44761e+12 -2.40811e+12 -3.42733e+12 -2.995e+12 -3.60312e+12 -2.47417e+12 -5.54301e+12 -3.66244e+12 -4.01013e+12 -1.77612e+12 -2.49445e+12 -1.81015e+12 -3.01509e+12 -2.13182e+12 -1.90216e+12 -3.53804e+12 -3.1525e+12 -2.3408e+12 -4.17384e+12 -3.41299e+12 -5.33948e+12 -2.23635e+12 -2.32128e+12 -4.81794e+12 -4.548e+12 -3.86989e+12 -2.7239e+12 -4.8353e+12 -5.1447e+12 -4.08045e+12 -5.83434e+12 -3.3339e+12 -5.45367e+12 -4.75255e+12 -7.07061e+12 -2.82721e+12 -2.63654e+12 -3.08048e+12 -3.07088e+12 -5.40707e+12 -3.31236e+12 -3.85556e+12 -4.15833e+12 -5.74203e+12 -3.06052e+12 -3.33238e+12 -4.63471e+12 -5.10247e+12 -3.03357e+12 -4.1709e+12 -5.35535e+12 -6.06313e+12 -4.82545e+12 -3.67235e+12 -3.88659e+12 -3.51103e+12 -2.1689e+12 -4.40149e+12 -4.10245e+12 -3.74479e+12 -1.59588e+12 -3.55067e+12 -2.40307e+12 -3.55604e+12 -3.94854e+12 -4.69141e+12 -3.2095e+12 -4.39616e+12 -4.5364e+12 -5.44015e+12 -3.92013e+12 -4.07594e+12 -4.59533e+12 -3.07921e+12 -2.39317e+12 -4.0589e+12 -8.4068e+12 -3.52995e+12 -3.04309e+12 -4.48796e+12 -4.25785e+12 -3.18502e+12 -2.09355e+12 -2.86227e+12 -3.96017e+12 -3.16272e+12 -2.24421e+12 -3.00056e+12 -3.04278e+12 -1.87701e+12 -2.70669e+12 -2.56336e+12 -1.95449e+12 -1.89696e+12 -2.32433e+12 -3.44691e+12 -3.23636e+12 -2.18021e+12 -1.67107e+12 -1.72942e+12 -1.2744e+12 -2.15732e+12 -1.86434e+12 -2.02449e+12 -3.16246e+12 -1.83709e+12 -1.84825e+12 -1.4946e+12 -2.60161e+12 -1.14217e+12 -904305000000.0 -1.25835e+12 -2.1236e+12 -1.54494e+12 -1.4059e+12 -1.6185e+12 -1.44408e+12 -940762000000.0 -1.90261e+12 -879357000000.0 -841391000000.0 -612917000000.0 -2.17222e+12 -975689000000.0 -1.08259e+12 -1.17315e+12 -4.31939e+12 -1.24379e+12 -1.0949e+12 -1.80046e+12 -1.82372e+12 -1.70271e+12 -3.23631e+12 -2.00905e+12 -3.15819e+12 -3.59256e+12 -3.15926e+12 -1.80595e+12 -2.16436e+12 -3.26955e+12 -1.53117e+12 -2.21768e+12 -3.96796e+12 -3.35917e+12 -2.32037e+12 -2.42714e+12 -2.53987e+12 -2.16695e+12 -4.72433e+12 -3.8576e+12 -2.80822e+12 -1.91336e+12 -922327000000.0 -3.70026e+12 -3.06386e+12 -4.19721e+12 -1.12632e+12 -2.66627e+12 -2.86032e+12 -2.82544e+12 -1.68435e+12 -2.5143e+12 -5.357e+12 -1.66785e+12 -3.05066e+12 -4.33421e+12 -4.18155e+12 -2.24779e+12 -4.00554e+12 -3.10716e+12 -3.50146e+12 -1.3778e+12 -3.7624e+12 -3.20765e+12 -3.62775e+12 -5.03757e+12 -2.76432e+12 -6.0286e+12 -3.60787e+12 -3.27038e+12 -5.9122e+12 -4.29375e+12 -4.13985e+12 -5.047e+12 -3.26549e+12 -2.6666e+12 -1.85194e+12 -4.80598e+12 -3.52036e+12 -3.79379e+12 -6.85619e+12 -2.53482e+12 -2.49453e+12 -4.1489e+12 -5.50664e+12 -4.03085e+12 -3.35352e+12 -3.63285e+12 -3.52363e+12 -5.52287e+12 -6.76876e+12 -3.17995e+12 -849754000000.0 -3.8395e+12 -3.91656e+12 -2.21169e+12 -1.89736e+12 -2.7141e+12 -1.68316e+12 -2.18507e+12 -2.0814e+12 -3.10945e+12 -4.90377e+12 -1.76532e+12 -2.42918e+12 -2.74915e+12 -2.08331e+12 -1.90501e+12 -1.33857e+12 -2.67134e+12 -3.81511e+12 -2.61561e+12 -825508000000.0 -1.72704e+12 -1.8414e+12 -4.82597e+12 -312634000000.0 -1.82095e+12 -1.29339e+12 -1.32555e+12 -2.61169e+12 -2.06848e+12 -419575000000.0 -2.08323e+12 -1.02667e+12 -734079000000.0 -748093000000.0 -2.1564e+12 -1.02699e+12 -660563000000.0 -406811000000.0 -845402000000.0 -829483000000.0 -1.99867e+12 -1.11381e+12 -752695000000.0 -585766000000.0 -1.20959e+12 -756030000000.0 -1.13632e+12 -723087000000.0 -1.45502e+12 -1.8219e+12 -521945000000.0 -820379000000.0 -1.61742e+12 -2.24478e+12 -1.15661e+12 -2.05296e+12 -793278000000.0 -1.86505e+12 -1.44818e+12 -1.21483e+12 -1.05788e+12 -1.86336e+12 -1.48707e+12 -3.34237e+12 -2.57946e+12 -1.71721e+12 -2.03059e+12 -1.2438e+12 -2.91816e+12 -4.11603e+12 -1.99917e+12 -1.11496e+12 -2.52075e+12 -1.67131e+12 -4.3122e+12 -2.66896e+12 -2.14397e+12 -1.87041e+12 -4.15727e+12 -2.48396e+12 -1.93396e+12 -3.80825e+12 -1.56232e+12 -3.71888e+12 -4.20839e+12 -2.60891e+12 -1.33179e+12 -2.54717e+12 -2.71501e+12 -3.06034e+12 -2.46082e+12 -3.61002e+12 -6.47605e+12 -3.85166e+12 -3.65133e+12 -3.24499e+12 -2.41901e+12 -2.33909e+12 -1.69288e+12 -2.01118e+12 -5.5311e+12 -4.15866e+12 -1.94966e+12 -2.91176e+12 -4.75839e+12 -2.16994e+12 -3.95496e+12 -2.98543e+12 -778115000000.0 -2.17586e+12 -2.23055e+12 -2.26325e+12 -1.39394e+12 -2.37535e+12 -1.5598e+12 -4.11612e+12 -4.11378e+12 -2.25903e+12 -3.68509e+12 -2.28286e+12 -2.82899e+12 -2.35389e+12 -2.296e+12 -2.40688e+12 -1.91187e+12 -1.36403e+12 -2.62889e+12 -1.24058e+12 -1.6648e+12 -3.21165e+12 -3.25495e+12 -1.78114e+12 -1.14957e+12 -2.04716e+12 -2.03457e+12 -2.00603e+12 -1.5034e+12 -2.43832e+12 -3.09126e+12 -1.3148e+12 -1.37293e+12 -761097000000.0 -422947000000.0 -1.33418e+12 -1.43597e+12 -1.20125e+12 -1.28624e+12 -372001000000.0 -661499000000.0 -571050000000.0 -629186000000.0 -1.65564e+12 -1.04953e+12 -1.00155e+12 -452059000000.0 -333637000000.0 -252229000000.0 -412820000000.0 -155106000000.0 -571806000000.0 -399258000000.0 -364385000000.0 -473747000000.0 -324619000000.0 -1.4055e+12 -1.12585e+12 -619966000000.0 -886500000000.0 -887030000000.0 -533677000000.0 -787936000000.0 -1.84302e+12 -893582000000.0 -1.35958e+12 -2.68665e+12 -3.43118e+12 -1.68272e+12 -2.35826e+12 -1.80187e+12 -1.23919e+12 -2.04204e+12 -1.8576e+12 -2.07296e+12 -3.76191e+12 -2.84871e+12 -2.4983e+12 -2.25721e+12 -2.62804e+12 -1.73812e+12 -3.51669e+12 -2.97773e+12 -2.10723e+12 -3.83066e+12 -2.52211e+12 -2.65893e+12 -4.25419e+12 -3.11144e+12 -2.24617e+12 -2.80331e+12 -3.37024e+12 -2.97221e+12 -2.31254e+12 -4.79205e+12 -1.87683e+12 -4.0527e+12 -2.68212e+12 -2.97611e+12 -3.76947e+12 -3.0064e+12 -2.01643e+12 -3.22662e+12 -2.50979e+12 -1.90617e+12 -1.69154e+12 -1.62339e+12 -3.54331e+12 -1.19822e+12 -2.74381e+12 -1.83862e+12 -1.232e+12 -3.00633e+12 -1.67987e+12 -1.80309e+12 -2.98242e+12 -1.36451e+12 -1.18001e+12 -1.72342e+12 -1.9372e+12 -2.07074e+12 -1.55243e+12 -3.40251e+12 -1.05086e+12 -3.50037e+12 -1.61066e+12 -1.24921e+12 -3.05109e+12 -2.21991e+12 -2.25367e+12 -1.33242e+12 -1.64307e+12 -5.06542e+12 -2.73572e+12 -938873000000.0 -613251000000.0 -1.38151e+12 -1.1537e+12 -1.51756e+12 -2.0486e+12 -1.46349e+12 -1.63896e+12 -620394000000.0 -1.05499e+12 -1.17841e+12 -629301000000.0 -526632000000.0 -707789000000.0 -584994000000.0 -849088000000.0 -208762000000.0 -576873000000.0 -797603000000.0 -235507000000.0 -177818000000.0 -231444000000.0 -255705000000.0 -266991000000.0 -150250000000.0 -197751000000.0 -290038000000.0 -530974000000.0 -223775000000.0 -398060000000.0 -210889000000.0 -867851000000.0 -105859000000.0 -378800000000.0 -776353000000.0 -668281000000.0 -371861000000.0 -1.45554e+12 -1.17551e+12 -2.01959e+12 -1.34661e+12 -1.33311e+12 -1.21816e+12 -1.21123e+12 -2.03383e+12 -2.57596e+12 -1.34624e+12 -1.46764e+12 -1.82139e+12 -2.19934e+12 -1.40669e+12 -2.02682e+12 -1.10623e+12 -1.55858e+12 -3.44022e+12 -3.95458e+12 -1.57582e+12 -1.46356e+12 -1.75847e+12 -3.02837e+12 -2.82641e+12 -2.51648e+12 -2.53553e+12 -1.7222e+12 -1.16158e+12 -3.73981e+12 -1.40167e+12 -3.74218e+12 -1.97353e+12 -1.72333e+12 -1.95985e+12 -2.28114e+12 -4.42617e+12 -1.71245e+12 -1.81741e+12 -1.22112e+12 -2.34195e+12 -1.85495e+12 -1.05061e+12 -2.16437e+12 -2.33497e+12 -1.41748e+12 -1.87405e+12 -1.97852e+12 -2.01068e+12 -877380000000.0 -2.36869e+12 -1.17784e+12 -622019000000.0 -1.6363e+12 -911205000000.0 -2.06098e+12 -1.56045e+12 -1.22361e+12 -1.94958e+12 -525155000000.0 -1.02673e+12 -1.55955e+12 -1.30999e+12 -2.29373e+12 -565904000000.0 -1.0983e+12 -896160000000.0 -983255000000.0 -390162000000.0 -867082000000.0 -320631000000.0 -221865000000.0 -381820000000.0 -271104000000.0 -246362000000.0 -317540000000.0 -137831000000.0 -216934000000.0 -532773000000.0 -215701000000.0 -1.61e+12 -96327600000.0 -195236000000.0 -940780000000.0 -857008000000.0 -400102000000.0 -1.75764e+12 -788380000000.0 -430518000000.0 -876294000000.0 -985364000000.0 -972987000000.0 -1.08209e+12 -1.15334e+12 -1.04822e+12 -1.07948e+12 -1.81233e+12 -1.85564e+12 -2.10353e+12 -2.18515e+12 -1.0119e+12 -2.61096e+12 -1.78243e+12 -3.29192e+12 -1.45901e+12 -1.55135e+12 -1.68985e+12 -1.34696e+12 -548852000000.0 -1.63047e+12 -2.11444e+12 -2.6961e+12 -1.33752e+12 -2.00898e+12 -842637000000.0 -716356000000.0 -1.77676e+12 -715656000000.0 -1.66165e+12 -878118000000.0 -1.07356e+12 -714611000000.0 -1.3206e+12 -1.40402e+12 -887983000000.0 -934111000000.0 -748220000000.0 -1.73778e+12 -1.20291e+12 -1.01773e+12 -944029000000.0 -1.05003e+12 -2.12591e+12 -1.36675e+12 -229680000000.0 -1.38113e+12 -1.00675e+12 -985432000000.0 -655799000000.0 -977019000000.0 -550874000000.0 -510971000000.0 -1.10069e+12 -133855000000.0 -324252000000.0 -511453000000.0 -520138000000.0 -280675000000.0 -295667000000.0 -241569000000.0 -114646000000.0 -376556000000.0 -664532000000.0 -302111000000.0 -160995000000.0 -196197000000.0 -488296000000.0 -833436000000.0 -741298000000.0 -385206000000.0 -1.03134e+12 -1.17939e+12 -1.2052e+12 -1.51187e+12 -705830000000.0 -1.99944e+12 -1.08243e+12 -1.46572e+12 -785952000000.0 -558802000000.0 -755492000000.0 -1.5237e+12 -928965000000.0 -848830000000.0 -898028000000.0 -1.06608e+12 -905601000000.0 -287585000000.0 -1.4935e+12 -764266000000.0 -718178000000.0 -844359000000.0 -763871000000.0 -751686000000.0 -91247100000.0 -480507000000.0 -868920000000.0 -677339000000.0 -451087000000.0 -407662000000.0 -601085000000.0 -299863000000.0 -580899000000.0 -303553000000.0 -516324000000.0 -259872000000.0 -90067800000.0 -441734000000.0 -1.02523e+12 -358073000000.0 -199398000000.0 -54726900000.0 -140319000000.0 -266405000000.0 -271797000000.0 -211261000000.0 -140656000000.0 -422069000000.0 -341290000000.0 -502265000000.0 -226378000000.0 -183201000000.0 -294201000000.0 -105950000000.0 -588913000000.0 -803965000000.0 -211144000000.0 -493876000000.0 -360690000000.0 -913756000000.0 -788372000000.0 -247687000000.0 -362439000000.0 -605479000000.0 -897272000000.0 -170681000000.0 -80395700000.0 -190326000000.0 -86378100000.0 -293894000000.0 -295735000000.0 -162264000000.0 -103805000000.0 