# vtk DataFile Version 2.0
Time step 78
ASCII
DATASET UNSTRUCTURED_GRID
POINTS 4650 float
208676.0 323129.0 0
215378.0 322943.0 0
205377.0 325357.0 0
212091.0 325179.0 0
219023.0 324538.0 0
236656.0 325265.0 0
243672.0 325088.0 0
248123.0 323169.0 0
252096.0 323549.0 0
257603.0 324977.0 0
263698.0 324023.0 0
277202.0 324405.0 0
283777.0 324814.0 0
290704.0 324743.0 0
294502.0 323489.0 0
201996.0 327419.0 0
208806.0 327375.0 0
215624.0 326978.0 0
222730.0 326000.0 0
226315.0 327746.0 0
233257.0 327365.0 0
240247.0 327145.0 0
247172.0 327025.0 0
254138.0 326963.0 0
261055.0 326994.0 0
266964.0 326308.0 0
273770.0 326423.0 0
280348.0 326851.0 0
287264.0 326767.0 0
298000.0 325447.0 0
205422.0 329401.0 0
212287.0 329286.0 0
219290.0 328500.0 0
222985.0 329965.0 0
229895.0 329515.0 0
236850.0 329236.0 0
243756.0 329064.0 0
250672.0 328942.0 0
257592.0 328956.0 0
264794.0 329647.0 0
270342.0 328408.0 0
276910.0 328872.0 0
280402.0 330820.0 0
283834.0 328799.0 0
287323.0 330747.0 0
290754.0 328729.0 0
294528.0 327440.0 0
298002.0 329398.0 0
201996.0 331395.0 0
205430.0 333355.0 0
208887.0 331357.0 0
212383.0 333277.0 0
215879.0 330944.0 0
219547.0 332434.0 0
226560.0 331710.0 0
233472.0 331335.0 0
237012.0 333194.0 0
240369.0 331119.0 0
243863.0 333028.0 0
247251.0 330986.0 0
250710.0 332920.0 0
254133.0 330926.0 0
257579.0 332907.0 0
261044.0 330960.0 0
264736.0 333632.0 0
268197.0 331723.0 0
273462.0 330888.0 0
276975.0 332833.0 0
283894.0 332762.0 0
290835.0 332704.0 0
294545.0 331351.0 0
201996.0 335352.0 0
208847.0 335304.0 0
216032.0 334891.0 0
223226.0 333904.0 0
226795.0 335648.0 0
230129.0 333477.0 0
233695.0 335283.0 0
240511.0 335081.0 0
247324.0 334950.0 0
254144.0 334880.0 0
261008.0 334900.0 0
269662.0 335392.0 0
273565.0 334847.0 0
280467.0 334769.0 0
287445.0 334705.0 0
294557.0 335229.0 0
298004.0 333311.0 0
205406.0 337305.0 0
212247.0 337243.0 0
219743.0 336344.0 0
223437.0 337811.0 0
230430.0 337396.0 0
237202.0 337149.0 0
243974.0 336990.0 0
250755.0 336884.0 0
257555.0 336843.0 0
266215.0 337312.0 0
277045.0 336778.0 0
280705.0 338686.0 0
284067.0 336699.0 0
287544.0 338655.0 0
290917.0 336674.0 0
298005.0 337191.0 0
201994.0 339307.0 0
208793.0 339247.0 0
212150.0 341182.0 0
215830.0 338816.0 0
219481.0 340228.0 0
227227.0 339521.0 0
233939.0 339232.0 0
237393.0 341109.0 0
240662.0 339042.0 0
244087.0 340951.0 0
247403.0 338911.0 0
250804.0 340842.0 0
254160.0 338832.0 0
257543.0 340779.0 0
260944.0 338794.0 0
264285.0 340717.0 0
269691.0 339345.0 0
273611.0 338779.0 0
277366.0 340670.0 0
284180.0 340629.0 0
291002.0 340635.0 0
294567.0 339079.0 0
201992.0 343262.0 0
205376.0 341257.0 0
208729.0 343197.0 0
215685.0 342720.0 0
221018.0 343727.0 0
224083.0 341630.0 0
227559.0 343440.0 0
230726.0 341333.0 0
234166.0 343190.0 0
240808.0 343005.0 0
247483.0 342869.0 0
254184.0 342779.0 0
260901.0 342723.0 0
267600.0 342655.0 0
274063.0 342650.0 0
280829.0 342602.0 0
287638.0 342590.0 0
294573.0 342908.0 0
298006.0 341045.0 0
205347.0 345216.0 0
212065.0 345109.0 0
217968.0 345737.0 0
224435.0 345543.0 0
230978.0 345283.0 0
237567.0 345072.0 0
244195.0 344910.0 0
250857.0 344792.0 0
257543.0 344717.0 0
264233.0 344659.0 0
270842.0 344655.0 0
277498.0 344582.0 0
284275.0 344544.0 0
291083.0 344579.0 0
298006.0 344878.0 0
201990.0 347217.0 0
208675.0 347154.0 0
214866.0 347638.0 0
221314.0 347618.0 0
227819.0 347379.0 0
234360.0 347150.0 0
240940.0 346965.0 0
244293.0 348863.0 0
247560.0 346821.0 0
250909.0 348733.0 0
254214.0 346719.0 0
257556.0 348648.0 0
260885.0 346655.0 0
264208.0 348597.0 0
267533.0 346618.0 0
270871.0 348563.0 0
274196.0 346579.0 0
277580.0 348484.0 0
280921.0 346506.0 0
284341.0 348436.0 0
287714.0 346503.0 0
291146.0 348491.0 0
294575.0 346725.0 0
201987.0 351167.0 0
205317.0 349181.0 0
208472.0 351319.0 0
211686.0 349473.0 0
214951.0 351522.0 0
218155.0 349614.0 0
221487.0 351499.0 0
224665.0 349460.0 0
228007.0 351311.0 0
231179.0 349234.0 0
234519.0 351105.0 0
237717.0 349031.0 0
241053.0 350919.0 0
247630.0 350762.0 0
254247.0 350648.0 0
260886.0 350580.0 0
267539.0 350532.0 0
274234.0 350466.0 0
280975.0 350387.0 0
287758.0 350383.0 0
294570.0 350538.0 0
298006.0 348696.0 0
205227.0 353186.0 0
211726.0 353384.0 0
218275.0 353470.0 0
224824.0 353360.0 0
231335.0 353175.0 0
237840.0 352983.0 0
244376.0 352805.0 0
250958.0 352660.0 0
257576.0 352566.0 0
264214.0 352506.0 0
270886.0 352443.0 0
277609.0 352351.0 0
284375.0 352299.0 0
291166.0 352359.0 0
298007.0 352498.0 0
201983.0 355122.0 0
208488.0 355243.0 0
215042.0 355378.0 0
221616.0 355363.0 0
228151.0 355226.0 0
234647.0 355050.0 0
241147.0 354861.0 0
247689.0 354688.0 0
250999.0 356567.0 0
254280.0 354560.0 0
257599.0 356465.0 0
260900.0 354485.0 0
264221.0 356395.0 0
267546.0 354417.0 0
270885.0 356301.0 0
274243.0 354323.0 0
277610.0 356185.0 0
280993.0 354234.0 0
284381.0 356128.0 0
287775.0 354231.0 0
291178.0 356184.0 0
294585.0 354348.0 0
298008.0 356288.0 0
201984.0 359022.0 0
205247.0 357119.0 0
208551.0 359119.0 0
211799.0 357253.0 0
215146.0 359214.0 0
218387.0 357311.0 0
221739.0 359213.0 0
224954.0 357242.0 0
228280.0 359127.0 0
231464.0 357103.0 0
234758.0 358985.0 0
237942.0 356925.0 0
241223.0 358792.0 0
244443.0 356733.0 0
247736.0 358595.0 0
254308.0 358450.0 0
260912.0 358372.0 0
267543.0 358284.0 0
274233.0 358154.0 0
280984.0 358046.0 0
287773.0 358040.0 0
294589.0 358140.0 0
205285.0 360983.0 0
211896.0 361089.0 0
218507.0 361139.0 0
225083.0 361110.0 0
231586.0 361022.0 0
238031.0 360860.0 0
244496.0 360644.0 0
251029.0 360450.0 0
257615.0 360344.0 0
264220.0 360270.0 0
270870.0 360137.0 0
274209.0 361957.0 0
277591.0 359989.0 0
284363.0 359919.0 0
287744.0 361809.0 0
291171.0 359970.0 0
298008.0 360057.0 0
201985.0 362857.0 0
208629.0 362941.0 0
215261.0 363030.0 0
221867.0 363050.0 0
228412.0 363017.0 0
234868.0 362919.0 0
241288.0 362713.0 0
247767.0 362480.0 0
254325.0 362316.0 0
257618.0 364205.0 0
260914.0 362246.0 0
264204.0 364135.0 0
267526.0 362134.0 0
270846.0 363951.0 0
277562.0 363763.0 0
280954.0 361825.0 0
284313.0 363675.0 0
291131.0 363716.0 0
294579.0 361904.0 0
298007.0 363795.0 0
205325.0 364773.0 0
208702.0 366703.0 0
211998.0 364889.0 0
215384.0 366821.0 0
218634.0 364953.0 0
222004.0 366870.0 0
225220.0 364964.0 0
228560.0 366896.0 0
231720.0 364937.0 0
234999.0 366860.0 0
238122.0 364794.0 0
241355.0 366631.0 0
244536.0 364541.0 0
247777.0 366344.0 0
251041.0 364304.0 0
254321.0 366154.0 0
260900.0 366112.0 0
267502.0 365967.0 0
274190.0 365732.0 0
280915.0 365580.0 0
284247.0 367418.0 0
287665.0 365540.0 0
294539.0 365626.0 0
201986.0 366630.0 0
205357.0 368492.0 0
212110.0 368641.0 0
218772.0 368746.0 0
225364.0 368799.0 0
231885.0 368850.0 0
238245.0 368743.0 0
244567.0 368433.0 0
251022.0 368121.0 0
257593.0 368049.0 0
264177.0 367996.0 0
267489.0 369772.0 0
270837.0 367733.0 0
274218.0 369472.0 0
277551.0 367513.0 0
280890.0 369329.0 0
287549.0 369266.0 0
291012.0 367410.0 0
294362.0 369263.0 0
298004.0 367485.0 0
201992.0 374101.0 0
201990.0 370368.0 0
208790.0 370387.0 0
212258.0 372336.0 0
215528.0 370579.0 0
218916.0 372523.0 0
222147.0 370674.0 0
225502.0 372617.0 0
228706.0 370751.0 0
232032.0 372727.0 0
235204.0 370820.0 0
241446.0 370563.0 0
247757.0 370196.0 0
254271.0 369959.0 0
257486.0 371873.0 0
260849.0 369971.0 0
264129.0 371844.0 0
270897.0 371459.0 0
274375.0 373176.0 0
277602.0 371254.0 0
280889.0 373109.0 0
284172.0 371176.0 0
290842.0 371089.0 0
297760.0 371095.0 0
298016.0 374611.0 0
199840.0 377376.0 0
202827.0 377842.0 0
205561.0 375626.0 0
205408.0 372129.0 0
208927.0 373960.0 0
215659.0 374320.0 0
222290.0 374467.0 0
228832.0 374585.0 0
235337.0 374727.0 0
238520.0 372812.0 0
241829.0 374824.0 0
244594.0 372343.0 0
247704.0 374055.0 0
250953.0 371889.0 0
254132.0 373743.0 0
260661.0 373806.0 0
267565.0 373505.0 0
271224.0 375082.0 0
277690.0 375034.0 0
284107.0 374971.0 0
287424.0 373001.0 0
294198.0 372839.0 0
300453.0 377564.0 0
193669.0 381246.0 0
196757.0 379315.0 0
199867.0 380515.0 0
208760.0 377451.0 0
212329.0 375992.0 0
219072.0 376282.0 0
225623.0 376424.0 0
232131.0 376583.0 0
238620.0 376735.0 0
245160.0 376779.0 0
250802.0 375585.0 0
257198.0 375699.0 0
260218.0 377628.0 0
263888.0 375602.0 0
265373.0 378792.0 0
268264.0 377008.0 0
274560.0 376943.0 0
280891.0 376942.0 0
287344.0 376722.0 0
290727.0 374736.0 0
291716.0 378037.0 0
294650.0 376214.0 0
297462.0 378351.0 0
300448.0 380771.0 0
303540.0 379500.0 0
190570.0 383181.0 0
196733.0 382571.0 0
202811.0 381565.0 0
205736.0 379419.0 0
211607.0 379384.0 0
214352.0 381129.0 0
215819.0 378006.0 0
219243.0 380031.0 0
222425.0 378258.0 0
225699.0 380230.0 0
228913.0 378405.0 0
232167.0 380424.0 0
235395.0 378618.0 0
238633.0 380626.0 0
241911.0 378734.0 0
250244.0 379118.0 0
253781.0 377546.0 0
256691.0 379552.0 0
262386.0 380370.0 0
268496.0 380752.0 0
271521.0 378861.0 0
274653.0 380786.0 0
277746.0 378872.0 0
280852.0 380806.0 0
284061.0 378780.0 0
288934.0 379806.0 0
294626.0 380036.0 0
297493.0 382059.0 0
303582.0 382743.0 0
306647.0 381440.0 0
309785.0 383399.0 0
187457.0 385126.0 0
190492.0 386465.0 0
193612.0 384533.0 0
196645.0 385902.0 0
199760.0 383862.0 0
202669.0 385251.0 0
205612.0 383235.0 0
208529.0 381243.0 0
211346.0 383101.0 0
217125.0 382758.0 0
222552.0 382072.0 0
228900.0 382213.0 0
235394.0 382515.0 0
241025.0 383467.0 0
246901.0 380120.0 0
249513.0 382942.0 0
253109.0 381312.0 0
255972.0 383457.0 0
259264.0 381903.0 0
265382.0 382506.0 0
271577.0 382682.0 0
277701.0 382749.0 0
283397.0 383226.0 0
286200.0 381544.0 0
289043.0 383661.0 0
291831.0 381849.0 0
297555.0 385687.0 0
300535.0 384117.0 0
303688.0 386016.0 0
306741.0 384660.0 0
312968.0 385384.0 0
181175.0 389056.0 0
184324.0 387083.0 0
187355.0 388386.0 0
193529.0 387860.0 0
199632.0 387326.0 0
202566.0 388874.0 0
208434.0 385040.0 0
214218.0 384862.0 0
219966.0 384400.0 0
225736.0 384072.0 0
228796.0 386062.0 0
232021.0 384218.0 0
234972.0 386364.0 0
238146.0 385186.0 0
243971.0 381877.0 0
246168.0 384844.0 0
252598.0 385127.0 0
258929.0 385687.0 0
262186.0 384120.0 0
265240.0 386212.0 0
268444.0 384502.0 0
271488.0 386489.0 0
274605.0 384650.0 0
280486.0 384916.0 0
286227.0 385416.0 0
291865.0 385719.0 0
294654.0 383851.0 0
297648.0 389240.0 0
300639.0 387493.0 0
306891.0 387883.0 0
309943.0 386579.0 0
313184.0 388517.0 0
316193.0 387399.0 0
178082.0 390990.0 0
184197.0 390333.0 0
187285.0 391654.0 0
190408.0 389770.0 0
193446.0 391233.0 0
196542.0 389299.0 0
199518.0 390822.0 0
205531.0 386977.0 0
211307.0 386858.0 0
214181.0 388644.0 0
217101.0 386568.0 0
219965.0 388295.0 0
222864.0 386148.0 0
225768.0 388044.0 0
231754.0 388076.0 0
239519.0 388607.0 0
242827.0 386716.0 0
249313.0 386882.0 0
255655.0 387294.0 0
261995.0 387837.0 0
268314.0 388246.0 0
274469.0 388529.0 0
277512.0 386713.0 0
280392.0 388850.0 0
283335.0 387117.0 0
289075.0 387544.0 0
294688.0 387674.0 0
300824.0 390848.0 0
303839.0 389295.0 0
307047.0 391128.0 0
310114.0 389756.0 0
316454.0 390517.0 0
319440.0 389443.0 0
322498.0 391359.0 0
175002.0 392915.0 0
181095.0 392425.0 0
184154.0 393585.0 0
190387.0 393117.0 0
196452.0 392740.0 0
199396.0 394337.0 0
202463.0 392434.0 0
205476.0 390660.0 0
208407.0 388796.0 0
211263.0 390643.0 0
217018.0 390414.0 0
222807.0 390108.0 0
228670.0 389997.0 0
234851.0 389960.0 0
237734.0 391772.0 0
242795.0 390569.0 0
246051.0 388730.0 0
249207.0 390803.0 0
252415.0 389011.0 0
255531.0 391130.0 0
258748.0 389453.0 0
261873.0 391570.0 0
265099.0 389927.0 0
271358.0 390295.0 0
277408.0 390627.0 0
283289.0 391006.0 0
286221.0 389286.0 0
289142.0 391426.0 0
291932.0 389620.0 0
294816.0 391543.0 0
297804.0 392669.0 0
304079.0 392601.0 0
310124.0 392979.0 0
313311.0 391638.0 0
316460.0 393598.0 0
319509.0 392934.0 0
325520.0 393248.0 0
171904.0 394850.0 0
174989.0 396243.0 0
178051.0 394359.0 0
181087.0 395872.0 0
187321.0 394931.0 0
190535.0 396504.0 0
193458.0 394681.0 0
196416.0 396261.0 0
202325.0 395943.0 0
208347.0 392552.0 0
214063.0 392488.0 0
219833.0 392198.0 0
225656.0 392002.0 0
228549.0 393903.0 0
231637.0 391904.0 0
234569.0 393780.0 0
240640.0 393507.0 0
246006.0 392625.0 0
252348.0 392894.0 0
258667.0 393236.0 0
265001.0 393664.0 0
268193.0 391999.0 0
271263.0 394094.0 0
274365.0 392385.0 0
280333.0 392758.0 0
286209.0 393138.0 0
292132.0 393524.0 0
298294.0 395704.0 0
301183.0 394136.0 0
304158.0 396056.0 0
307111.0 394508.0 0
310098.0 396351.0 0
313115.0 394772.0 0
319324.0 396574.0 0
322418.0 394835.0 0
325536.0 396613.0 0
328611.0 395173.0 0
165544.0 398819.0 0
168745.0 396821.0 0
171796.0 398115.0 0
178102.0 397770.0 0
181243.0 399448.0 0
184173.0 396765.0 0
187556.0 398151.0 0
193565.0 398267.0 0
199320.0 397926.0 0
202149.0 399436.0 0
205383.0 394313.0 0
208203.0 396340.0 0
211133.0 394491.0 0
213864.0 396393.0 0
216839.0 394297.0 0
219648.0 396080.0 0
222660.0 394038.0 0
225504.0 395922.0 0
231461.0 395785.0 0
237523.0 395591.0 0
243540.0 395274.0 0
249194.0 394715.0 0
252372.0 396780.0 0
255497.0 394967.0 0
258644.0 397036.0 0
261810.0 395328.0 0
268115.0 395761.0 0
274306.0 396226.0 0
277345.0 394512.0 0
280311.0 396654.0 0
283260.0 394888.0 0
289164.0 395234.0 0
295092.0 395649.0 0
297842.0 398769.0 0
301164.0 397603.0 0
307124.0 397982.0 0
313156.0 398087.0 0
316088.0 396470.0 0
319675.0 400233.0 0
322496.0 398247.0 0
328709.0 398462.0 0
331757.0 397134.0 0
334962.0 399133.0 0
162335.0 400823.0 0
168544.0 400054.0 0
171539.0 401367.0 0
174855.0 399528.0 0
177902.0 401084.0 0
184557.0 399695.0 0
187568.0 401507.0 0
190606.0 399983.0 0
193541.0 401908.0 0
196593.0 399872.0 0
199823.0 401714.0 0
205190.0 397954.0 0
210920.0 398408.0 0
216652.0 398186.0 0
222461.0 397932.0 0
228376.0 397803.0 0
231318.0 399652.0 0
234415.0 397630.0 0
237388.0 399442.0 0
240481.0 397372.0 0
243460.0 399160.0 0
246475.0 397051.0 0
249473.0 398853.0 0
255525.0 398818.0 0
261783.0 399106.0 0
264946.0 397418.0 0
268076.0 399522.0 0
271213.0 397887.0 0
277329.0 398385.0 0
283281.0 398775.0 0
286202.0 396981.0 0
289132.0 399053.0 0
292101.0 397326.0 0
294806.0 399659.0 0
300830.0 400926.0 0
304089.0 399524.0 0
307178.0 401444.0 0
310193.0 399756.0 0
313490.0 401268.0 0
316579.0 399396.0 0
322795.0 401727.0 0
325703.0 399972.0 0
328950.0 401756.0 0
331941.0 400352.0 0
338217.0 401166.0 0
159155.0 402812.0 0
162083.0 404086.0 0
165287.0 402053.0 0
168232.0 403308.0 0
174507.0 402790.0 0
177374.0 404422.0 0
180745.0 402983.0 0
184060.0 402534.0 0
190539.0 403527.0 0
196611.0 403186.0 0
204426.0 401597.0 0
207495.0 403622.0 0
207845.0 400144.0 0
213790.0 400333.0 0
219424.0 399936.0 0
222061.0 401796.0 0
225266.0 399814.0 0
228212.0 401651.0 0
234278.0 401487.0 0
240384.0 401234.0 0
246474.0 400952.0 0
252519.0 400743.0 0
258652.0 400858.0 0
264920.0 401178.0 0
271205.0 401666.0 0
274296.0 400056.0 0
277366.0 402250.0 0
280344.0 400544.0 0
286276.0 400847.0 0
291952.0 401160.0 0
294261.0 403742.0 0
297527.0 402182.0 0
304043.0 402859.0 0
310392.0 403092.0 0
316739.0 402658.0 0
319890.0 403769.0 0
323094.0 405136.0 0
326019.0 403357.0 0
332249.0 403573.0 0
335231.0 402292.0 0
338535.0 404326.0 0
341482.0 403207.0 0
152944.0 406698.0 0
156026.0 404770.0 0
158966.0 406114.0 0
165004.0 405346.0 0
167899.0 406642.0 0
171147.0 404648.0 0
173994.0 406108.0 0
180102.0 406419.0 0
183468.0 405587.0 0
187028.0 404644.0 0
189913.0 406779.0 0
193588.0 405666.0 0
197270.0 406029.0 0
200614.0 404979.0 0
204012.0 404708.0 0
210292.0 405909.0 0
210876.0 402264.0 0
213846.0 404639.0 0
216671.0 402163.0 0
218464.0 405127.0 0
225069.0 403585.0 0
231149.0 403509.0 0
234129.0 405331.0 0
237273.0 403292.0 0
240303.0 405082.0 0
243409.0 403025.0 0
246453.0 404831.0 0
249508.0 402776.0 0
252552.0 404664.0 0
255588.0 402714.0 0
258676.0 404704.0 0
261776.0 402896.0 0
264906.0 404936.0 0
268063.0 403270.0 0
274334.0 403869.0 0
280433.0 404428.0 0
283377.0 402655.0 0
289298.0 402951.0 0
297607.0 405498.0 0
300835.0 404249.0 0
304177.0 406160.0 0
307297.0 404889.0 0
310477.0 406472.0 0
313648.0 404536.0 0
316965.0 406074.0 0
320170.0 407242.0 0
326428.0 406708.0 0
329315.0 405063.0 0
332619.0 406826.0 0
335566.0 405469.0 0
341782.0 406432.0 0
344702.0 405221.0 0
146786.0 410547.0 0
149875.0 408617.0 0
155927.0 408106.0 0
158918.0 409505.0 0
161903.0 407437.0 0
164821.0 408753.0 0
167677.0 410139.0 0
170727.0 408040.0 0
173469.0 409521.0 0
176758.0 407779.0 0
179383.0 409846.0 0
182715.0 408812.0 0
186261.0 407780.0 0
192350.0 409207.0 0
199567.0 408468.0 0
203059.0 407889.0 0
206713.0 407058.0 0
216084.0 407662.0 0
221824.0 405336.0 0
224721.0 407352.0 0
227978.0 405486.0 0
230938.0 407338.0 0
237158.0 407125.0 0
243357.0 406879.0 0
249504.0 406673.0 0
255614.0 406600.0 0
261779.0 406698.0 0
268052.0 406991.0 0
271221.0 405409.0 0
277465.0 406105.0 0
283533.0 406490.0 0
286514.0 404650.0 0
290030.0 409370.0 0
291177.0 405965.0 0
294573.0 407388.0 0
297976.0 408759.0 0
300948.0 407623.0 0
307276.0 408508.0 0
313892.0 407746.0 0
317313.0 409647.0 0
320737.0 410593.0 0
323542.0 408432.0 0
326989.0 410050.0 0
329757.0 408397.0 0
335866.0 408704.0 0
338830.0 407536.0 0
341958.0 409745.0 0
344912.0 408526.0 0
347847.0 407191.0 0
350938.0 409128.0 0
143652.0 412505.0 0
152904.0 410030.0 0
155951.0 411495.0 0
161905.0 410904.0 0
164863.0 412318.0 0
170409.0 411616.0 0
176154.0 411172.0 0
181785.0 412220.0 0
185260.0 411016.0 0
188810.0 410087.0 0
195775.0 408851.0 0
198178.0 411615.0 0
201878.0 411175.0 0
205552.0 410444.0 0
209188.0 409545.0 0
212687.0 408520.0 0
218252.0 410473.0 0
221284.0 408884.0 0
227670.0 409276.0 0
233965.0 409144.0 0
240222.0 408916.0 0
246424.0 408699.0 0
252565.0 408559.0 0
258695.0 408553.0 0
264897.0 408692.0 0
271219.0 409095.0 0
274390.0 407644.0 0
277571.0 409915.0 0
280619.0 408323.0 0
286832.0 408167.0 0
293308.0 410496.0 0
296745.0 411457.0 0
300624.0 411400.0 0
303874.0 409430.0 0
310664.0 409763.0 0
314106.0 410766.0 0
318396.0 413215.0 0
324207.0 411613.0 0
330267.0 411838.0 0
332977.0 410162.0 0
336029.0 412043.0 0
338982.0 410825.0 0
344938.0 411920.0 0
347951.0 410549.0 0
357056.0 412955.0 0
140479.0 414489.0 0
143543.0 415763.0 0
146720.0 413816.0 0
149842.0 411923.0 0
152928.0 413373.0 0
159007.0 412954.0 0
167721.0 413885.0 0
170454.0 415434.0 0
173054.0 413062.0 0
175753.0 414602.0 0
178664.0 413394.0 0
184125.0 414291.0 0
187644.0 413423.0 0
191136.0 412655.0 0
194597.0 412119.0 0
204241.0 413800.0 0
207935.0 413079.0 0
211522.0 412270.0 0
214948.0 411441.0 0
217529.0 414227.0 0
224287.0 411058.0 0
227361.0 413006.0 0
230706.0 411117.0 0
233810.0 412919.0 0
237043.0 410935.0 0
240148.0 412735.0 0
243306.0 410723.0 0
246403.0 412556.0 0
249499.0 410553.0 0
252588.0 412438.0 0
255642.0 410476.0 0
258738.0 412406.0 0
261790.0 410507.0 0
264895.0 412452.0 0
268035.0 410690.0 0
271197.0 412732.0 0
274362.0 411367.0 0
280812.0 412183.0 0
283882.0 410322.0 0
287270.0 411949.0 0
290811.0 413062.0 0
294469.0 413987.0 0
304360.0 412376.0 0
307918.0 412174.0 0
311490.0 413071.0 0
315149.0 413581.0 0
321732.0 413942.0 0
325030.0 414733.0 0
327664.0 413448.0 0
330505.0 415550.0 0
333234.0 413688.0 0
339021.0 414214.0 0
341927.0 413157.0 0
347758.0 413977.0 0
350911.0 412528.0 0
353986.0 411043.0 0
357043.0 416278.0 0
360189.0 414910.0 0
137287.0 416487.0 0
140338.0 417775.0 0
146671.0 417070.0 0
149830.0 415222.0 0
152969.0 416703.0 0
156030.0 414903.0 0
159138.0 416409.0 0
162065.0 414455.0 0
165073.0 415997.0 0
173458.0 416740.0 0
177412.0 417216.0 0
180592.0 415902.0 0
186480.0 416757.0 0
189887.0 416064.0 0
193341.0 415467.0 0
196882.0 414910.0 0
200509.0 414386.0 0
206545.0 416500.0 0
210285.0 415856.0 0
213942.0 415142.0 0
220990.0 412787.0 0
230520.0 414848.0 0
236944.0 414723.0 0
243269.0 414555.0 0
249510.0 414417.0 0
255694.0 414344.0 0
261853.0 414335.0 0
268005.0 414374.0 0
274257.0 415175.0 0
277384.0 413630.0 0
284278.0 414142.0 0
288282.0 415624.0 0
292103.0 416570.0 0
298368.0 414426.0 0
302023.0 414862.0 0
305864.0 415342.0 0
309392.0 415676.0 0
313046.0 416253.0 0
320074.0 416710.0 0
323578.0 417265.0 0
327484.0 417168.0 0
333930.0 417087.0 0
336421.0 415436.0 0
341082.0 416783.0 0
344481.0 415413.0 0
350777.0 415903.0 0
353948.0 414432.0 0
360222.0 418195.0 0
363389.0 416913.0 0
130974.0 420444.0 0
134108.0 418478.0 0
137144.0 419836.0 0
143459.0 419010.0 0
146643.0 420297.0 0
149839.0 418513.0 0
156110.0 418325.0 0
162235.0 418045.0 0
165303.0 419658.0 0
167974.0 417812.0 0
170953.0 419175.0 0
174460.0 419764.0 0
177729.0 420333.0 0
183141.0 417444.0 0
188388.0 419459.0 0
191916.0 418850.0 0
195478.0 418262.0 0
199098.0 417695.0 0
202794.0 417110.0 0
208769.0 419286.0 0
212626.0 418722.0 0
216521.0 417917.0 0
220456.0 416572.0 0
223977.0 414832.0 0
227208.0 416715.0 0
230409.0 418583.0 0
233692.0 416674.0 0
240095.0 416539.0 0
243255.0 418376.0 0
246400.0 416400.0 0
249545.0 418267.0 0
252634.0 416302.0 0
255781.0 418199.0 0
258825.0 416258.0 0
261991.0 418164.0 0
264994.0 416249.0 0
268193.0 418116.0 0
271125.0 416267.0 0
276859.0 417734.0 0
280121.0 415848.0 0
283063.0 417525.0 0
286289.0 418505.0 0
289826.0 419263.0 0
296023.0 417213.0 0
299869.0 417719.0 0
303676.0 418109.0 0
307437.0 418577.0 0
311089.0 418987.0 0
316718.0 416523.0 0
321829.0 420006.0 0
325421.0 420109.0 0
328701.0 420345.0 0
331252.0 418921.0 0
337689.0 418455.0 0
344164.0 418750.0 0
347499.0 417297.0 0
350572.0 419249.0 0
353826.0 417819.0 0
356937.0 419544.0 0
363448.0 420239.0 0
366623.0 418941.0 0
369840.0 420962.0 0
127908.0 422371.0 0
134013.0 421922.0 0
140251.0 421069.0 0
143426.0 422246.0 0
146661.0 423494.0 0
153028.0 420016.0 0
156193.0 421811.0 0
159217.0 419856.0 0
162252.0 421660.0 0
168479.0 421767.0 0
172030.0 422509.0 0
175596.0 423061.0 0
180969.0 419844.0 0
184813.0 420054.0 0
190302.0 422206.0 0
193918.0 421632.0 0
197558.0 421051.0 0
201244.0 420464.0 0
204980.0 419872.0 0
214225.0 421941.0 0
217602.0 421447.0 0
220759.0 420232.0 0
223892.0 418491.0 0
227103.0 420451.0 0
233647.0 420424.0 0
236884.0 418498.0 0
240076.0 420337.0 0
246424.0 420233.0 0
252709.0 420150.0 0
258963.0 420094.0 0
265219.0 420031.0 0
271693.0 419635.0 0
274948.0 420934.0 0
280071.0 419704.0 0
283543.0 421172.0 0
293666.0 419949.0 0
297667.0 420502.0 0
301630.0 420967.0 0
305472.0 421363.0 0
314774.0 419386.0 0
318358.0 419719.0 0
323906.0 423067.0 0
327570.0 423242.0 0
331387.0 422709.0 0
334500.0 420309.0 0
337771.0 422036.0 0
340873.0 420143.0 0
347280.0 420589.0 0
353631.0 421233.0 0
356768.0 422720.0 0
360139.0 421428.0 0
363346.0 423541.0 0
366646.0 422389.0 0
373005.0 422943.0 0
121883.0 426136.0 0
124921.0 424239.0 0
130963.0 424003.0 0
134048.0 425429.0 0
137115.0 423224.0 0
140290.0 424385.0 0
143531.0 425487.0 0
149855.0 421804.0 0
153049.0 423286.0 0
159321.0 423316.0 0
165284.0 422981.0 0
169841.0 425367.0 0
173495.0 425818.0 0
179330.0 423182.0 0
182884.0 422919.0 0
186663.0 422728.0 0
195877.0 424426.0 0
199562.0 423853.0 0
203265.0 423282.0 0
206976.0 422730.0 0
210660.0 422236.0 0
220322.0 424067.0 0
223807.0 422329.0 0
230402.0 422313.0 0
236871.0 422277.0 0
243271.0 422190.0 0
249606.0 422104.0 0
255903.0 422035.0 0
262199.0 421963.0 0
268602.0 421739.0 0
271953.0 423318.0 0
277996.0 422618.0 0
281200.0 423914.0 0
287055.0 422050.0 0
290468.0 422786.0 0
293778.0 423417.0 0
297062.0 423841.0 0
300405.0 424079.0 0
303884.0 424290.0 0
309227.0 421825.0 0
312926.0 422218.0 0
316597.0 422595.0 0
320241.0 422911.0 0
325938.0 426133.0 0
329721.0 425983.0 0
334769.0 423452.0 0
340724.0 423565.0 0
343949.0 422171.0 0
347065.0 423823.0 0
350430.0 422617.0 0
356773.0 425762.0 0
360036.0 424615.0 0
366252.0 425866.0 0
369704.0 424569.0 0
373532.0 426325.0 0
376377.0 425026.0 0
118778.0 428076.0 0
121954.0 429654.0 0
125099.0 427805.0 0
128051.0 426069.0 0
137202.0 426638.0 0
140399.0 427697.0 0
146843.0 426690.0 0
149852.0 425166.0 0
152866.0 426501.0 0
156069.0 425392.0 0
159275.0 426386.0 0
162616.0 425450.0 0
166391.0 425837.0 0
171568.0 428742.0 0
177270.0 426059.0 0
181048.0 426064.0 0
184762.0 425804.0 0
188516.0 425481.0 0
192205.0 424982.0 0
197783.0 427250.0 0
201488.0 426705.0 0
205195.0 426178.0 0
208904.0 425703.0 0
212630.0 425352.0 0
216468.0 425019.0 0
227187.0 424174.0 0
230430.0 426093.0 0
233651.0 424193.0 0
236901.0 426064.0 0
240094.0 424135.0 0
243314.0 426004.0 0
246473.0 424057.0 0
249690.0 425930.0 0
252811.0 423981.0 0
256050.0 425849.0 0
259140.0 423903.0 0
262439.0 425725.0 0
265528.0 423749.0 0
268886.0 425451.0 0
275198.0 424881.0 0
278543.0 426459.0 0
284581.0 424906.0 0
288023.0 425715.0 0
291512.0 426369.0 0
295063.0 426863.0 0
298650.0 427177.0 0
307496.0 424685.0 0
311167.0 425092.0 0
314844.0 425461.0 0
318530.0 425783.0 0
322237.0 425997.0 0
333256.0 426156.0 0
337156.0 425866.0 0
340452.0 426651.0 0
343768.0 425749.0 0
346855.0 426940.0 0
350186.0 425930.0 0
353508.0 424807.0 0
359523.0 427964.0 0
362844.0 426933.0 0
370938.0 427791.0 0
376600.0 428549.0 0
379581.0 427040.0 0
382713.0 429005.0 0
112596.0 431947.0 0
115682.0 430015.0 0
118856.0 431671.0 0
125196.0 431229.0 0
131130.0 427678.0 0
134314.0 429000.0 0
137606.0 430108.0 0
143586.0 428688.0 0
146746.0 429655.0 0
150048.0 428815.0 0
153688.0 429362.0 0
157071.0 428977.0 0
160903.0 429027.0 0
164363.0 428738.0 0
168062.0 428779.0 0
179046.0 429033.0 0
182843.0 428934.0 0
186601.0 428656.0 0
190357.0 428279.0 0
194078.0 427789.0 0
203339.0 429626.0 0
207028.0 429164.0 0
210695.0 428782.0 0
214326.0 428508.0 0
217809.0 428381.0 0
221049.0 427662.0 0
224038.0 425999.0 0
227199.0 427990.0 0
233707.0 427976.0 0
240137.0 427943.0 0
246543.0 427877.0 0
252931.0 427798.0 0
259332.0 427689.0 0
265776.0 427487.0 0
272236.0 427101.0 0
275644.0 428706.0 0
282008.0 427705.0 0
285576.0 428629.0 0
289234.0 429308.0 0
292950.0 429800.0 0
296692.0 430163.0 0
302236.0 427390.0 0
305817.0 427661.0 0
309450.0 428014.0 0
313121.0 428369.0 0
316812.0 428683.0 0
320528.0 428924.0 0
327986.0 429091.0 0
331618.0 429174.0 0
335305.0 429072.0 0
338776.0 429384.0 0
342532.0 429314.0 0
345802.0 429797.0 0
349372.0 429322.0 0
352743.0 428443.0 0
356001.0 428641.0 0
361860.0 430491.0 0
365079.0 429550.0 0
368128.0 428731.0 0
370689.0 431404.0 0
373715.0 430059.0 0
379625.0 430619.0 0
385827.0 430954.0 0
109458.0 433907.0 0
115857.0 433653.0 0
122028.0 433182.0 0
128297.0 429899.0 0
131509.0 431397.0 0
134915.0 432555.0 0
140951.0 431108.0 0
144373.0 432025.0 0
148180.0 432253.0 0
151588.0 432098.0 0
155280.0 432250.0 0
158848.0 432048.0 0
162501.0 432045.0 0
166072.0 431905.0 0
169693.0 431943.0 0
175266.0 428948.0 0
180836.0 431991.0 0
184638.0 431820.0 0
188420.0 431514.0 0
192185.0 431114.0 0
195921.0 430635.0 0
199636.0 430126.0 0
208847.0 432227.0 0
212551.0 431919.0 0
216308.0 431742.0 0
220211.0 431341.0 0
223916.0 429918.0 0
230523.0 429867.0 0
236951.0 429872.0 0
243376.0 429821.0 0
249788.0 429748.0 0
256205.0 429650.0 0
259508.0 431472.0 0
262651.0 429488.0 0
265993.0 431243.0 0
269127.0 429194.0 0
272498.0 430842.0 0
279192.0 430262.0 0
282976.0 431435.0 0
286892.0 432211.0 0
300405.0 430441.0 0
304072.0 430702.0 0
307726.0 430996.0 0
311400.0 431319.0 0
315098.0 431623.0 0
318816.0 431876.0 0
324247.0 429087.0 0
329948.0 432240.0 0
333617.0 432244.0 0
337180.0 432385.0 0
340814.0 432419.0 0
344320.0 432678.0 0
347997.0 432525.0 0
351545.0 431980.0 0
354880.0 431672.0 0
358421.0 431230.0 0
364263.0 433144.0 0
367518.0 432331.0 0
373438.0 433763.0 0
376563.0 432247.0 0
379513.0 434267.0 0
382676.0 432593.0 0
388956.0 432909.0 0
106246.0 435911.0 0
109540.0 437460.0 0
112764.0 435546.0 0
116146.0 437289.0 0
119143.0 435376.0 0
122516.0 436772.0 0
125305.0 434430.0 0
128750.0 433846.0 0
132278.0 435035.0 0
138399.0 433565.0 0
141973.0 434447.0 0
145773.0 434959.0 0
149499.0 435214.0 0
153126.0 435191.0 0
156826.0 435240.0 0
160451.0 435169.0 0
164102.0 435144.0 0
167722.0 435095.0 0
173316.0 431960.0 0
177045.0 432027.0 0
186433.0 434726.0 0
190222.0 434397.0 0
193990.0 433991.0 0
197731.0 433534.0 0
201450.0 433065.0 0
205153.0 432619.0 0
214280.0 435102.0 0
217886.0 434980.0 0
221280.0 434826.0 0
224339.0 433561.0 0
227367.0 431722.0 0
230564.0 433698.0 0
233760.0 431790.0 0
237010.0 433693.0 0
240196.0 431761.0 0
243443.0 433646.0 0
246624.0 431698.0 0
249892.0 433564.0 0
253058.0 431608.0 0
256353.0 433448.0 0
262834.0 433260.0 0
269357.0 432949.0 0
275872.0 432422.0 0
279101.0 433986.0 0
290831.0 432732.0 0
294701.0 433101.0 0
298504.0 433430.0 0
302252.0 433723.0 0
305964.0 434011.0 0
309666.0 434307.0 0
313377.0 434597.0 0
322543.0 432065.0 0
326273.0 432158.0 0
331975.0 435373.0 0
335610.0 435467.0 0
350217.0 435291.0 0
353756.0 434927.0 0
357291.0 434460.0 0
360834.0 433884.0 0
366812.0 435861.0 0
370180.0 434977.0 0
376292.0 435956.0 0
382601.0 436196.0 0
385786.0 434528.0 0
388958.0 436461.0 0
392110.0 434878.0 0
99648.3 440032.0 0
102967.0 437958.0 0
106225.0 439443.0 0
112901.0 439085.0 0
119638.0 439120.0 0
126319.0 437446.0 0
129837.0 437676.0 0
135877.0 436054.0 0
139545.0 436930.0 0
143339.0 437566.0 0
147144.0 438004.0 0
158348.0 438319.0 0
162023.0 438300.0 0
165699.0 438288.0 0
171379.0 435111.0 0
175069.0 435101.0 0
178831.0 435067.0 0
182629.0 434950.0 0
192011.0 437313.0 0
195779.0 436916.0 0
199520.0 436489.0 0
203238.0 436065.0 0
206936.0 435674.0 0
210620.0 435344.0 0
227351.0 435609.0 0
233825.0 435614.0 0
240248.0 435593.0 0
246708.0 435519.0 0
253182.0 435417.0 0
259669.0 435264.0 0
266173.0 435008.0 0
269508.0 436713.0 0
272738.0 434615.0 0
276116.0 436294.0 0
282348.0 435119.0 0
285737.0 435643.0 0
289271.0 435869.0 0
292929.0 436100.0 0
296674.0 436421.0 0
300432.0 436732.0 0
304178.0 437029.0 0
307911.0 437319.0 0
317104.0 434854.0 0
320839.0 435062.0 0
324576.0 435206.0 0
328285.0 435314.0 0
339252.0 435524.0 0
342852.0 435652.0 0
346540.0 435593.0 0
356138.0 437728.0 0
359750.0 437198.0 0
363327.0 436578.0 0
369490.0 438522.0 0
372972.0 437445.0 0
375945.0 439654.0 0
379340.0 437883.0 0
385829.0 438105.0 0
392141.0 438410.0 0
395286.0 436861.0 0
398484.0 438860.0 0
96300.8 442126.0 0
102907.0 441494.0 0
109501.0 440970.0 0
116345.0 440824.0 0
121214.0 442505.0 0
123737.0 440032.0 0
127512.0 440738.0 0
133444.0 438624.0 0
137138.0 439488.0 0
140926.0 440186.0 0
144751.0 440718.0 0
150923.0 438222.0 0
154636.0 438273.0 0
163601.0 441451.0 0
169374.0 438270.0 0
173084.0 438253.0 0
176827.0 438197.0 0
180609.0 438095.0 0
184414.0 437918.0 0
188221.0 437655.0 0
197560.0 439891.0 0
201303.0 439498.0 0
205024.0 439119.0 0
208731.0 438780.0 0
212436.0 438505.0 0
216165.0 438320.0 0
219990.0 438224.0 0
223932.0 437444.0 0
227517.0 439304.0 0
230661.0 437512.0 0
237041.0 437539.0 0
243507.0 437474.0 0
246789.0 439343.0 0
249994.0 437382.0 0
253299.0 439231.0 0
256492.0 437253.0 0
259818.0 439066.0 0
263001.0 437049.0 0
266340.0 438806.0 0
272798.0 438387.0 0
279677.0 437827.0 0
283521.0 438728.0 0
287379.0 439020.0 0
291144.0 439226.0 0
294879.0 439472.0 0
298630.0 439763.0 0
302388.0 440058.0 0
311644.0 437599.0 0
315385.0 437856.0 0
319133.0 438077.0 0
322883.0 438249.0 0
326621.0 438383.0 0
330343.0 438477.0 0
334034.0 438564.0 0
337718.0 438625.0 0
341387.0 438693.0 0
345098.0 438656.0 0
348825.0 438461.0 0
352502.0 438159.0 0
358576.0 440498.0 0
362245.0 439934.0 0
365890.0 439292.0 0
372256.0 441081.0 0
379587.0 441333.0 0
382703.0 439745.0 0
385948.0 441728.0 0
389031.0 440055.0 0
392251.0 441980.0 0
395352.0 440376.0 0
401666.0 440860.0 0
92932.6 444233.0 0
99570.9 443578.0 0
102866.0 445052.0 0
106190.0 442994.0 0
109484.0 444541.0 0
112762.0 442538.0 0
115870.0 444192.0 0
125026.0 443452.0 0
131104.0 441347.0 0
134778.0 442142.0 0
138547.0 442851.0 0
148584.0 441083.0 0
152386.0 441291.0 0
156144.0 441384.0 0
159884.0 441441.0 0
167317.0 441446.0 0
171046.0 441420.0 0
174802.0 441369.0 0
178580.0 441272.0 0
182381.0 441119.0 0
186194.0 440900.0 0
190001.0 440614.0 0
193792.0 440270.0 0
203090.0 442555.0 0
206815.0 442218.0 0
210524.0 441926.0 0
214217.0 441697.0 0
217877.0 441540.0 0
221410.0 441552.0 0
224634.0 441044.0 0
230579.0 441419.0 0
233823.0 439486.0 0
237048.0 441388.0 0
240288.0 439430.0 0
243566.0 441303.0 0
250091.0 441203.0 0
256620.0 441066.0 0
263157.0 440857.0 0
269672.0 440545.0 0
275974.0 440029.0 0
279022.0 441489.0 0
282234.0 442138.0 0
285724.0 442182.0 0
289391.0 442369.0 0
293108.0 442588.0 0
296846.0 442839.0 0
306143.0 440346.0 0
309898.0 440623.0 0
313657.0 440880.0 0
317421.0 441108.0 0
321188.0 441298.0 0
324951.0 441451.0 0
328703.0 441568.0 0
332440.0 441661.0 0
336169.0 441726.0 0
339893.0 441768.0 0
343638.0 441736.0 0
347401.0 441592.0 0
351152.0 441343.0 0
354880.0 440976.0 0
361022.0 443274.0 0
364741.0 442679.0 0
368476.0 441983.0 0
373789.0 444305.0 0
376721.0 443078.0 0
382852.0 443368.0 0
389197.0 443697.0 0
395510.0 443930.0 0
398553.0 442417.0 0
403700.0 443669.0 0
407247.0 444361.0 0
89553.9 446348.0 0
92855.6 447813.0 0
96219.1 445684.0 0
99539.8 447148.0 0
106175.0 446570.0 0
112784.0 446178.0 0
119106.0 445270.0 0
122664.0 446146.0 0
128754.0 444228.0 0
132446.0 444915.0 0
136200.0 445591.0 0
142377.0 443440.0 0
146225.0 443893.0 0
150068.0 444213.0 0
153886.0 444414.0 0
157672.0 444528.0 0
161442.0 444591.0 0
172733.0 444554.0 0
176524.0 444471.0 0
180332.0 444337.0 0
184152.0 444147.0 0
187972.0 443902.0 0
191783.0 443606.0 0
195575.0 443270.0 0
199344.0 442913.0 0
208636.0 445353.0 0
212369.0 445100.0 0
216107.0 444909.0 0
219867.0 444816.0 0
223748.0 444685.0 0
227355.0 443385.0 0
233773.0 443347.0 0
240324.0 443262.0 0
246867.0 443168.0 0
253411.0 443053.0 0
259952.0 442882.0 0
266506.0 442628.0 0
269876.0 444398.0 0
272981.0 442294.0 0
276318.0 443980.0 0
279898.0 445225.0 0
283761.0 445438.0 0
287525.0 445545.0 0
300601.0 443114.0 0
304367.0 443393.0 0
308139.0 443665.0 0
311916.0 443921.0 0
315698.0 444154.0 0
319483.0 444355.0 0
323269.0 444523.0 0
327049.0 444656.0 0
330823.0 444759.0 0
334592.0 444828.0 0
338360.0 444863.0 0
342142.0 444835.0 0
345938.0 444720.0 0
349735.0 444510.0 0
353522.0 444198.0 0
357287.0 443783.0 0
370566.0 444906.0 0
376521.0 446834.0 0
379758.0 445022.0 0
386124.0 445402.0 0
389488.0 447353.0 0
392527.0 445578.0 0
400212.0 445460.0 0
407094.0 448043.0 0
410499.0 446389.0 0
82231.2 450939.0 0
86188.8 448456.0 0
89511.9 449981.0 0
96202.5 449265.0 0
102881.0 448644.0 0
106240.0 450182.0 0
109487.0 448128.0 0
112825.0 449702.0 0
116284.0 447768.0 0
120053.0 448836.0 0
126370.0 447019.0 0
130113.0 447762.0 0
133891.0 448411.0 0
140022.0 446189.0 0
143876.0 446699.0 0
147740.0 447097.0 0
151596.0 447386.0 0
155431.0 447581.0 0
159243.0 447698.0 0
165199.0 444611.0 0
168961.0 444600.0 0
178264.0 447566.0 0
182095.0 447402.0 0
185929.0 447188.0 0
189757.0 446929.0 0
193571.0 446633.0 0
197366.0 446309.0 0
201140.0 445976.0 0
204895.0 445651.0 0
221922.0 447910.0 0
226706.0 447195.0 0
230452.0 445318.0 0
233773.0 447169.0 0
237058.0 445218.0 0
240354.0 447093.0 0
243622.0 445131.0 0
246946.0 446995.0 0
250187.0 445028.0 0
253521.0 446885.0 0
256742.0 444892.0 0
260078.0 446717.0 0
263290.0 444675.0 0
266634.0 446442.0 0
273316.0 446190.0 0
291283.0 445732.0 0
295041.0 445956.0 0
298806.0 446204.0 0
302582.0 446466.0 0
306366.0 446728.0 0
310159.0 446981.0 0
313958.0 447215.0 0
317763.0 447423.0 0
321569.0 447601.0 0
336787.0 447973.0 0
340602.0 447952.0 0
344429.0 447857.0 0
348261.0 447678.0 0
352091.0 447412.0 0
355903.0 447055.0 0
359683.0 446615.0 0
363413.0 446100.0 0
367065.0 445515.0 0
373106.0 447894.0 0
379646.0 448572.0 0
382968.0 447037.0 0
386276.0 449080.0 0
393110.0 449054.0 0
396659.0 447229.0 0
399982.0 449113.0 0
403452.0 447348.0 0
410447.0 450043.0 0
413834.0 448472.0 0
417221.0 450594.0 0
78867.9 453046.0 0
85771.4 452108.0 0
92868.6 451422.0 0
96239.1 452878.0 0
99571.0 450748.0 0
102963.0 452261.0 0
109633.0 451755.0 0
116009.0 451243.0 0
123879.0 449745.0 0
127738.0 450592.0 0
131590.0 451271.0 0
137712.0 448999.0 0
141557.0 449529.0 0
145421.0 449977.0 0
149292.0 450331.0 0
153159.0 450596.0 0
157013.0 450779.0 0
163041.0 447761.0 0
166835.0 447776.0 0
170634.0 447750.0 0
174442.0 447681.0 0
187717.0 450246.0 0
191552.0 449982.0 0
195372.0 449690.0 0
199173.0 449382.0 0
202957.0 449072.0 0
206727.0 448776.0 0
210489.0 448508.0 0
214256.0 448279.0 0
218049.0 448099.0 0
230473.0 449072.0 0
237056.0 449051.0 0
243684.0 448957.0 0
250283.0 448860.0 0
256863.0 448735.0 0
263418.0 448516.0 0
269986.0 448182.0 0
276975.0 447787.0 0
281708.0 448514.0 0
285602.0 448712.0 0
289414.0 448886.0 0
293204.0 449092.0 0
296990.0 449321.0 0
300779.0 449565.0 0
304578.0 449815.0 0
308385.0 450060.0 0
312200.0 450292.0 0
325376.0 447747.0 0
329179.0 447860.0 0
332982.0 447937.0 0
350602.0 450624.0 0
354458.0 450316.0 0
358295.0 449935.0 0
362099.0 449490.0 0
365851.0 448991.0 0
369526.0 448461.0 0
375944.0 450603.0 0
379539.0 451861.0 0
382979.0 450643.0 0
389651.0 450941.0 0
393032.0 452737.0 0
396498.0 450870.0 0
403323.0 451033.0 0
407028.0 451685.0 0
413830.0 452135.0 0
420643.0 452737.0 0
75499.7 455157.0 0
82272.5 454737.0 0
89215.6 453633.0 0
92727.5 455058.0 0
99638.8 454375.0 0
106401.0 453802.0 0
109896.0 455401.0 0
113005.0 453436.0 0
119223.0 452312.0 0
122541.0 453094.0 0
135430.0 451861.0 0
139273.0 452405.0 0
143132.0 452881.0 0
147004.0 453280.0 0
150883.0 453596.0 0
160851.0 450891.0 0
164678.0 450945.0 0
168504.0 450946.0 0
172335.0 450898.0 0
176173.0 450803.0 0
180020.0 450661.0 0
183870.0 450474.0 0
193365.0 453058.0 0
197192.0 452776.0 0
201002.0 452485.0 0
204798.0 452196.0 0
208583.0 451923.0 0
212365.0 451674.0 0
216152.0 451454.0 0
219956.0 451242.0 0
223749.0 451020.0 0
227398.0 450922.0 0
233709.0 451021.0 0
240411.0 450915.0 0
247020.0 450824.0 0
253637.0 450728.0 0
260204.0 450576.0 0
263532.0 452380.0 0
266770.0 450276.0 0
270153.0 452024.0 0
273282.0 449952.0 0
276424.0 451538.0 0
280010.0 451685.0 0
283755.0 451850.0 0
287554.0 452047.0 0
291352.0 452244.0 0
295153.0 452459.0 0
298957.0 452688.0 0
302769.0 452924.0 0
316023.0 450503.0 0
319849.0 450689.0 0
323679.0 450845.0 0
327509.0 450967.0 0
331340.0 451053.0 0
335176.0 451096.0 0
339020.0 451084.0 0
342874.0 451006.0 0
346737.0 450854.0 0
356831.0 453235.0 0
360698.0 452842.0 0
364541.0 452399.0 0
368356.0 451921.0 0
372151.0 451386.0 0
382555.0 454276.0 0
386179.0 452800.0 0
389557.0 454590.0 0
396432.0 454524.0 0
399882.0 452787.0 0
406988.0 455284.0 0
410427.0 453692.0 0
413812.0 455835.0 0
417270.0 454373.0 0
424023.0 454856.0 0
72130.9 457268.0 0
78929.6 456902.0 0
82381.3 458573.0 0
85906.9 455832.0 0
89408.3 457339.0 0
96259.7 456508.0 0
99777.4 457999.0 0
103100.0 455875.0 0
106608.0 457389.0 0
116430.0 454918.0 0
119960.0 455934.0 0
125986.0 453736.0 0
129560.0 454269.0 0
133261.0 454801.0 0
137040.0 455337.0 0
144727.0 456248.0 0
154761.0 453836.0 0
158632.0 454002.0 0
162494.0 454101.0 0
166348.0 454139.0 0
170202.0 454119.0 0
174061.0 454046.0 0
177927.0 453925.0 0
181797.0 453759.0 0
185664.0 453557.0 0
189521.0 453321.0 0
202853.0 455613.0 0
206661.0 455343.0 0
210462.0 455087.0 0
214263.0 454849.0 0
218072.0 454625.0 0
221894.0 454409.0 0
225737.0 454241.0 0
230408.0 453230.0 0
233944.0 454779.0 0
237141.0 452848.0 0
240439.0 454774.0 0
243736.0 452792.0 0
247094.0 454649.0 0
250380.0 452692.0 0
253755.0 454573.0 0
257004.0 452597.0 0
260383.0 454478.0 0
266823.0 454103.0 0
273546.0 454047.0 0
277994.0 454895.0 0
281846.0 455045.0 0
285663.0 455218.0 0
289479.0 455412.0 0
293294.0 455616.0 0
306590.0 453159.0 0
310421.0 453386.0 0
314260.0 453597.0 0
318106.0 453788.0 0
321957.0 453951.0 0
325810.0 454084.0 0
329667.0 454180.0 0
333528.0 454233.0 0
337397.0 454233.0 0
341276.0 454171.0 0
345163.0 454041.0 0
349056.0 453840.0 0
352948.0 453570.0 0
363095.0 455775.0 0
366974.0 455338.0 0
370841.0 454866.0 0
374683.0 454296.0 0
378411.0 454853.0 0
385659.0 456534.0 0
389708.0 458220.0 0
393013.0 456459.0 0
399812.0 456492.0 0
403240.0 454776.0 0
410378.0 457352.0 0
417195.0 458194.0 0
420618.0 456572.0 0
427394.0 456970.0 0
68755.2 459382.0 0
72260.9 461230.0 0
75599.1 459071.0 0
79086.7 460818.0 0
86071.9 459593.0 0
92953.9 458735.0 0
96472.2 460192.0 0
103314.0 459485.0 0
106875.0 460966.0 0
110159.0 458945.0 0
113463.0 457209.0 0
117155.0 458612.0 0
123618.0 456667.0 0
127311.0 457289.0 0
131034.0 457818.0 0
140866.0 455825.0 0
148609.0 456602.0 0
152503.0 456885.0 0
156399.0 457099.0 0
160289.0 457245.0 0
164173.0 457326.0 0
168052.0 457342.0 0
171932.0 457295.0 0
175819.0 457192.0 0
179713.0 457044.0 0
183602.0 456864.0 0
187481.0 456654.0 0
191347.0 456417.0 0
195198.0 456159.0 0
199033.0 455888.0 0
216171.0 458034.0 0
219979.0 457813.0 0
223774.0 457610.0 0
227549.0 457388.0 0
231199.0 457087.0 0
237119.0 456736.0 0
243794.0 456626.0 0
250470.0 456519.0 0
257147.0 456454.0 0
263784.0 456327.0 0
270010.0 455722.0 0
272673.0 457864.0 0
276242.0 458075.0 0
279984.0 458249.0 0
283777.0 458417.0 0
297113.0 455831.0 0
300939.0 456054.0 0
304774.0 456279.0 0
308618.0 456498.0 0
312473.0 456707.0 0
316336.0 456898.0 0
320207.0 457068.0 0
324082.0 457210.0 0
327961.0 457317.0 0
331845.0 457383.0 0
335736.0 457397.0 0
339636.0 457352.0 0
343544.0 457243.0 0
347459.0 457067.0 0
351377.0 456828.0 0
355293.0 456529.0 0
359201.0 456175.0 0
369352.0 458326.0 0
373215.0 457904.0 0
376992.0 457948.0 0
380941.0 457548.0 0
386748.0 460066.0 0
392745.0 460391.0 0
396355.0 458168.0 0
399702.0 460213.0 0
403133.0 458596.0 0
406902.0 458842.0 0
413686.0 459593.0 0
420465.0 460481.0 0
423939.0 458763.0 0
427266.0 460932.0 0
430767.0 459083.0 0
75803.0 463039.0 0
82596.1 462447.0 0
89595.3 461089.0 0
93180.2 462462.0 0
100013.0 461650.0 0
103568.0 463109.0 0
110522.0 462442.0 0
114104.0 460991.0 0
121029.0 459440.0 0
124853.0 460172.0 0
128670.0 460793.0 0
134794.0 458327.0 0
138604.0 458813.0 0
142457.0 459248.0 0
146340.0 459624.0 0
150241.0 459939.0 0
154155.0 460191.0 0
158070.0 460380.0 0
173696.0 460468.0 0
177619.0 460328.0 0
181533.0 460168.0 0
185434.0 459982.0 0
189322.0 459769.0 0
193195.0 459535.0 0
197053.0 459284.0 0
200896.0 459025.0 0
204726.0 458764.0 0
208546.0 458509.0 0
212360.0 458265.0 0
229574.0 460570.0 0
233437.0 460202.0 0
240514.0 458634.0 0
247152.0 458469.0 0
253866.0 458419.0 0
260549.0 458382.0 0
263962.0 460218.0 0
267209.0 458256.0 0
270185.0 460787.0 0
287591.0 458597.0 0
291415.0 458791.0 0
295247.0 458994.0 0
299086.0 459205.0 0
302933.0 459418.0 0
306791.0 459630.0 0
310659.0 459833.0 0
314537.0 460023.0 0
318425.0 460195.0 0
322322.0 460346.0 0
326222.0 460465.0 0
330127.0 460545.0 0
334039.0 460577.0 0
337958.0 460550.0 0
341884.0 460461.0 0
345817.0 460308.0 0
349756.0 460094.0 0
353695.0 459825.0 0
357630.0 459505.0 0
361554.0 459142.0 0
365463.0 458744.0 0
375463.0 461215.0 0
379357.0 460932.0 0
383170.0 460467.0 0
389513.0 462625.0 0
396220.0 461702.0 0
402878.0 462502.0 0
406650.0 462378.0 0
410196.0 461039.0 0
413389.0 463396.0 0
416972.0 462064.0 0
423722.0 462734.0 0
82688.2 466370.0 0
86338.7 463409.0 0
89903.1 464872.0 0
96734.5 463904.0 0
100298.0 465338.0 0
107140.0 464536.0 0
110706.0 465936.0 0
118486.0 462166.0 0
122339.0 462977.0 0
126204.0 463680.0 0
132483.0 461336.0 0
136311.0 461828.0 0
140168.0 462276.0 0
144055.0 462668.0 0
147965.0 463005.0 0
151893.0 463285.0 0
161981.0 460505.0 0
165887.0 460564.0 0
169789.0 460552.0 0
187295.0 463117.0 0
191188.0 462905.0 0
195067.0 462675.0 0
198932.0 462433.0 0
202783.0 462184.0 0
206622.0 461936.0 0
210453.0 461693.0 0
214278.0 461459.0 0
218100.0 461235.0 0
221918.0 461024.0 0
225741.0 460810.0 0
237256.0 460479.0 0
240457.0 462610.0 0
243815.0 460481.0 0
247261.0 462256.0 0
250561.0 460332.0 0
253918.0 462284.0 0
257265.0 460296.0 0
260672.0 462329.0 0
274123.0 461268.0 0
277986.0 461461.0 0
281829.0 461630.0 0
285668.0 461801.0 0
289510.0 461982.0 0
293356.0 462175.0 0
297209.0 462374.0 0
301069.0 462578.0 0
304938.0 462780.0 0
308818.0 462977.0 0
312708.0 463163.0 0
348093.0 463373.0 0
352051.0 463129.0 0
356005.0 462839.0 0
359950.0 462510.0 0
363879.0 462149.0 0
367786.0 461771.0 0
371659.0 461408.0 0
381768.0 463979.0 0
385631.0 463539.0 0
395704.0 465117.0 0
399358.0 463952.0 0
406115.0 465910.0 0
409798.0 464753.0 0
416686.0 465982.0 0
86549.8 467291.0 0
93506.9 466240.0 0
97100.4 467661.0 0
103850.0 466774.0 0
107357.0 468143.0 0
115613.0 464517.0 0
119817.0 465778.0 0
123706.0 466533.0 0
130076.0 464293.0 0
133954.0 464842.0 0
137835.0 465317.0 0
141741.0 465727.0 0
155831.0 463507.0 0
159769.0 463673.0 0
163702.0 463779.0 0
167632.0 463813.0 0
171562.0 463760.0 0
175525.0 463611.0 0
179465.0 463469.0 0
183387.0 463306.0 0
196963.0 465837.0 0
200834.0 465603.0 0
204692.0 465364.0 0
208541.0 465126.0 0
212382.0 464894.0 0
216219.0 464668.0 0
220052.0 464451.0 0
223887.0 464234.0 0
227727.0 464004.0 0
231568.0 463732.0 0
235351.0 463608.0 0
243983.0 464259.0 0
250654.0 464165.0 0
257228.0 464069.0 0
264208.0 464006.0 0
268091.0 464020.0 0
271988.0 464320.0 0
275930.0 464630.0 0
279831.0 464830.0 0
283709.0 465009.0 0
287576.0 465187.0 0
291441.0 465371.0 0
295308.0 465562.0 0
299181.0 465756.0 0
303061.0 465950.0 0
316611.0 463334.0 0
320525.0 463487.0 0
324448.0 463621.0 0
328373.0 463719.0 0
332303.0 463768.0 0
336243.0 463765.0 0
340187.0 463698.0 0
344137.0 463566.0 0
358305.0 465879.0 0
362255.0 465552.0 0
366185.0 465208.0 0
370087.0 464874.0 0
373958.0 464610.0 0
377857.0 464326.0 0
388144.0 466402.0 0
391978.0 465498.0 0
398582.0 467637.0 0
402323.0 466427.0 0
409137.0 468457.0 0
412913.0 467216.0 0
87131.6 471185.0 0
90247.5 468695.0 0
93936.7 470053.0 0
100688.0 469088.0 0
104224.0 470511.0 0
114004.0 467814.0 0
117557.0 468743.0 0
121283.0 469445.0 0
127604.0 467205.0 0
131517.0 467796.0 0
135451.0 468355.0 0
145669.0 466084.0 0
149613.0 466385.0 0
153573.0 466631.0 0
157536.0 466832.0 0
161494.0 466983.0 0
165447.0 467070.0 0
169400.0 467072.0 0
173456.0 466890.0 0
177411.0 466769.0 0
181347.0 466629.0 0
185270.0 466463.0 0
189180.0 466272.0 0
193078.0 466062.0 0
206625.0 468564.0 0
210483.0 468335.0 0
214334.0 468110.0 0
218181.0 467891.0 0
222026.0 467673.0 0
225871.0 467450.0 0
229710.0 467214.0 0
233520.0 467017.0 0
237351.0 466759.0 0
241080.0 466503.0 0
247261.0 466049.0 0
254442.0 466868.0 0
258370.0 467512.0 0
262223.0 467303.0 0
266141.0 467387.0 0
270006.0 467532.0 0
273904.0 467775.0 0
277825.0 468016.0 0
281730.0 468214.0 0
285620.0 468398.0 0
289504.0 468580.0 0
306951.0 466140.0 0
310852.0 466321.0 0
314764.0 466489.0 0
318689.0 466641.0 0
322629.0 466776.0 0
326583.0 466901.0 0
330529.0 466975.0 0
334484.0 466985.0 0
338456.0 466950.0 0
342423.0 466841.0 0
346396.0 466667.0 0
350370.0 466444.0 0
354342.0 466179.0 0
364550.0 468636.0 0
368485.0 468322.0 0
372400.0 468039.0 0
376322.0 467752.0 0
380259.0 467426.0 0
384216.0 467056.0 0
390875.0 469134.0 0
394704.0 468540.0 0
401467.0 470233.0 0
405294.0 469459.0 0
412159.0 471028.0 0
90871.8 472548.0 0
97580.1 471457.0 0
101176.0 472911.0 0
110796.0 469536.0 0
114940.0 471583.0 0
125123.0 470121.0 0
129031.0 470743.0 0
132958.0 471300.0 0
139393.0 468789.0 0
143348.0 469166.0 0
147314.0 469495.0 0
151299.0 469755.0 0
155283.0 469982.0 0
159259.0 470176.0 0
163227.0 470318.0 0
167187.0 470386.0 0
171431.0 470158.0 0
175380.0 470072.0 0
179317.0 469957.0 0
183249.0 469810.0 0
187174.0 469639.0 0
191089.0 469447.0 0
194992.0 469240.0 0
198882.0 469020.0 0
202759.0 468793.0 0
224019.0 470905.0 0
227871.0 470681.0 0
231716.0 470467.0 0
235574.0 470233.0 0
239439.0 469993.0 0
243345.0 469660.0 0
247225.0 469748.0 0
250638.0 467904.0 0
264215.0 470726.0 0
268084.0 470838.0 0
271953.0 471006.0 0
293386.0 468765.0 0
297271.0 468952.0 0
301162.0 469138.0 0
305061.0 469322.0 0
308970.0 469498.0 0
312889.0 469663.0 0
316821.0 469813.0 0
320765.0 469945.0 0
324728.0 470062.0 0
328720.0 470196.0 0
332690.0 470228.0 0
336667.0 470195.0 0
340685.0 470137.0 0
344673.0 469979.0 0
348662.0 469772.0 0
352648.0 469527.0 0
356628.0 469251.0 0
360596.0 468952.0 0
374729.0 471200.0 0
378679.0 470896.0 0
382631.0 470541.0 0
386699.0 470095.0 0
393646.0 472058.0 0
397548.0 471235.0 0
404296.0 473064.0 0
408191.0 472146.0 0
87847.1 475098.0 0
91608.4 476445.0 0
94574.8 473922.0 0
98231.0 475330.0 0
107740.0 471847.0 0
111409.0 472957.0 0
118745.0 472421.0 0
122594.0 473082.0 0
126515.0 473686.0 0
137031.0 471855.0 0
141001.0 472251.0 0
144980.0 472604.0 0
149018.0 472882.0 0
153019.0 473129.0 0
157004.0 473358.0 0
169409.0 473399.0 0
173355.0 473380.0 0
177292.0 473294.0 0
181233.0 473164.0 0
185171.0 473008.0 0
189102.0 472832.0 0
193022.0 472641.0 0
196930.0 472437.0 0
200825.0 472223.0 0
204708.0 472004.0 0
208582.0 471782.0 0
212448.0 471560.0 0
216308.0 471341.0 0
220165.0 471123.0 0
241504.0 473194.0 0
245356.0 473052.0 0
249308.0 472934.0 0
252627.0 470991.0 0
256429.0 470765.0 0
260360.0 470757.0 0
275847.0 471215.0 0
279753.0 471424.0 0
283655.0 471616.0 0
287552.0 471800.0 0
291446.0 471982.0 0
295342.0 472164.0 0
299242.0 472345.0 0
303149.0 472523.0 0
307065.0 472694.0 0
310991.0 472856.0 0
314926.0 473005.0 0
318871.0 473138.0 0
322824.0 473251.0 0
326789.0 473348.0 0
330891.0 473499.0 0
334865.0 473478.0 0
338846.0 473395.0 0
342947.0 473315.0 0
346939.0 473116.0 0
350936.0 472886.0 0
354926.0 472629.0 0
358908.0 472352.0 0
362879.0 472061.0 0
366837.0 471763.0 0
370783.0 471478.0 0
384964.0 473666.0 0
389728.0 472625.0 0
396474.0 474851.0 0
400425.0 473920.0 0
407139.0 475849.0 0
411137.0 474815.0 0
95335.4 477840.0 0
104726.0 474341.0 0
108436.0 475454.0 0
112303.0 476287.0 0
116108.0 475323.0 0
120019.0 476090.0 0
123987.0 476664.0 0
130473.0 474294.0 0
134474.0 474766.0 0
138653.0 475355.0 0
142632.0 475715.0 0
160981.0 473552.0 0
164944.0 473692.0 0
187118.0 476219.0 0
191055.0 476043.0 0
194980.0 475854.0 0
198892.0 475654.0 0
202792.0 475446.0 0
206681.0 475233.0 0
210561.0 475016.0 0
214435.0 474800.0 0
218303.0 474584.0 0
222168.0 474368.0 0
226030.0 474150.0 0
229889.0 473931.0 0
233752.0 473702.0 0
237621.0 473461.0 0
254578.0 474221.0 0
258438.0 474109.0 0
262317.0 474117.0 0
266171.0 474169.0 0
270032.0 474298.0 0
273905.0 474467.0 0
277794.0 474657.0 0
281693.0 474849.0 0
285593.0 475035.0 0
289494.0 475215.0 0
293397.0 475394.0 0
297304.0 475570.0 0
301218.0 475743.0 0
305140.0 475910.0 0
309071.0 476069.0 0
313012.0 476217.0 0
353210.0 476017.0 0
357199.0 475757.0 0
361182.0 475485.0 0
365155.0 475206.0 0
369120.0 474927.0 0
373082.0 474655.0 0
377049.0 474382.0 0
381006.0 474069.0 0
388151.0 475927.0 0
392383.0 475565.0 0
399359.0 477593.0 0
403249.0 476730.0 0
88632.0 479018.0 0
92385.7 480408.0 0
101770.0 476963.0 0
105546.0 478090.0 0
109432.0 478994.0 0
117333.0 479037.0 0
127935.0 477245.0 0
132063.0 477807.0 0
136030.0 478241.0 0
140307.0 478854.0 0
146717.0 476005.0 0
150748.0 476275.0 0
154733.0 476534.0 0
158712.0 476770.0 0
162677.0 476975.0 0
167364.0 476611.0 0
171316.0 476682.0 0
175259.0 476643.0 0
179214.0 476525.0 0
183169.0 476381.0 0
200879.0 478891.0 0
204783.0 478688.0 0
208678.0 478478.0 0
212564.0 478266.0 0
216444.0 478053.0 0
220319.0 477839.0 0
224190.0 477625.0 0
228056.0 477408.0 0
231922.0 477183.0 0
235788.0 476949.0 0
239654.0 476697.0 0
243516.0 476490.0 0
247412.0 476325.0 0
251327.0 476227.0 0
256523.0 477501.0 0
260392.0 477478.0 0
264256.0 477528.0 0
268112.0 477622.0 0
271976.0 477762.0 0
275851.0 477929.0 0
279737.0 478108.0 0
283633.0 478288.0 0
287534.0 478467.0 0
291440.0 478642.0 0
295352.0 478814.0 0
316962.0 476352.0 0
320917.0 476472.0 0
324873.0 476565.0 0
328837.0 476620.0 0
333088.0 476803.0 0
337064.0 476722.0 0
341049.0 476581.0 0
345220.0 476487.0 0
349211.0 476260.0 0
363443.0 478652.0 0
367417.0 478386.0 0
371388.0 478121.0 0
375362.0 477862.0 0
379340.0 477615.0 0
383294.0 477276.0 0
390691.0 478915.0 0
395127.0 478408.0 0
402163.0 480419.0 0
406048.0 479595.0 0
410004.0 478611.0 0
98849.0 479744.0 0
102681.0 480820.0 0
106644.0 481783.0 0
113375.0 479608.0 0
121526.0 479688.0 0
125470.0 480265.0 0
129538.0 480760.0 0
133650.0 481348.0 0
144400.0 479127.0 0
148460.0 479418.0 0
152445.0 479706.0 0
156424.0 479974.0 0
160389.0 480230.0 0
165267.0 479795.0 0
169235.0 479958.0 0
173204.0 480005.0 0
177191.0 479893.0 0
181170.0 479758.0 0
185138.0 479607.0 0
189093.0 479445.0 0
193035.0 479271.0 0
196964.0 479086.0 0
218474.0 481319.0 0
222354.0 481108.0 0
226229.0 480895.0 0
230098.0 480676.0 0
233962.0 480449.0 0
237822.0 480212.0 0
241667.0 479970.0 0
245538.0 479760.0 0
249431.0 479623.0 0
253329.0 479573.0 0
258442.0 480835.0 0
262315.0 480880.0 0
266179.0 480967.0 0
270041.0 481086.0 0
273908.0 481234.0 0
277784.0 481397.0 0
299270.0 478982.0 0
303196.0 479145.0 0
307132.0 479300.0 0
311078.0 479446.0 0
315033.0 479581.0 0
318997.0 479705.0 0
322965.0 479816.0 0
326926.0 479883.0 0
330892.0 479878.0 0
335311.0 480096.0 0
339291.0 479952.0 0
343279.0 479763.0 0
347489.0 479660.0 0
351480.0 479419.0 0
355473.0 479172.0 0
359461.0 478915.0 0
369660.0 481601.0 0
373626.0 481353.0 0
377587.0 481124.0 0
386671.0 479299.0 0
397947.0 481175.0 0
404853.0 483353.0 0
99652.9 483656.0 0
110691.0 482487.0 0
115064.0 482748.0 0
118965.0 482620.0 0
123038.0 483331.0 0
127124.0 483819.0 0
137637.0 481713.0 0
142119.0 482284.0 0
146156.0 482565.0 0
150145.0 482877.0 0
154125.0 483170.0 0
158089.0 483459.0 0
163102.0 482965.0 0
167077.0 483196.0 0
171068.0 483342.0 0
175189.0 483272.0 0
179183.0 483139.0 0
183168.0 482997.0 0
187140.0 482847.0 0
191098.0 482688.0 0
195042.0 482519.0 0
198973.0 482338.0 0
202892.0 482146.0 0
206799.0 481946.0 0
210698.0 481740.0 0
214589.0 481530.0 0
239857.0 483507.0 0
243675.0 483237.0 0
247543.0 483040.0 0
251412.0 482962.0 0
255292.0 482961.0 0
281672.0 481568.0 0
285568.0 481739.0 0
289474.0 481909.0 0
293386.0 482077.0 0
297306.0 482241.0 0
301235.0 482399.0 0
305174.0 482550.0 0
309123.0 482693.0 0
313082.0 482826.0 0
317052.0 482950.0 0
321033.0 483065.0 0
325024.0 483175.0 0
329003.0 483195.0 0
332979.0 483118.0 0
337558.0 483366.0 0
341539.0 483172.0 0
345526.0 482954.0 0
349745.0 482842.0 0
353734.0 482599.0 0
357724.0 482354.0 0
361709.0 482105.0 0
365688.0 481853.0 0
381515.0 481442.0 0
385245.0 482723.0 0
389179.0 482356.0 0
393370.0 481813.0 0
103859.0 484582.0 0
108069.0 485393.0 0
112525.0 485772.0 0
116480.0 486124.0 0
120397.0 486228.0 0
131102.0 484331.0 0
135329.0 484862.0 0
139439.0 485129.0 0
143873.0 485745.0 0
147849.0 486052.0 0
151827.0 486362.0 0
160878.0 486141.0 0
177220.0 486534.0 0
181215.0 486392.0 0
185200.0 486252.0 0
189172.0 486106.0 0
193130.0 485952.0 0
197075.0 485786.0 0
201008.0 485608.0 0
204929.0 485419.0 0
208840.0 485221.0 0
212743.0 485017.0 0
216638.0 484807.0 0
220528.0 484599.0 0
224411.0 484390.0 0
228287.0 484179.0 0
232150.0 483959.0 0
236010.0 483731.0 0
249489.0 486376.0 0
253339.0 486340.0 0
257207.0 486376.0 0
260339.0 484219.0 0
264219.0 484311.0 0
268090.0 484425.0 0
271957.0 484563.0 0
275826.0 484716.0 0
279705.0 484874.0 0
283596.0 485037.0 0
287497.0 485199.0 0
291408.0 485361.0 0
295328.0 485519.0 0
299258.0 485673.0 0
303198.0 485819.0 0
307149.0 485958.0 0
311110.0 486089.0 0
315081.0 486210.0 0
319064.0 486324.0 0
323054.0 486433.0 0
327126.0 486534.0 0
335123.0 486343.0 0
343795.0 486394.0 0
347781.0 486162.0 0
351981.0 486041.0 0
355970.0 485802.0 0
359956.0 485566.0 0
363938.0 485328.0 0
367913.0 485091.0 0
371879.0 484857.0 0
375836.0 484635.0 0
379748.0 485119.0 0
383581.0 486046.0 0
387680.0 485864.0 0
391764.0 485310.0 0
396170.0 484620.0 0
400710.0 484012.0 0
96972.5 486625.0 0
101053.0 487391.0 0
105352.0 488230.0 0
109977.0 488788.0 0
114077.0 489252.0 0
124746.0 486919.0 0
128710.0 487439.0 0
132837.0 487870.0 0
137166.0 488312.0 0
141187.0 488605.0 0
155791.0 486673.0 0
164849.0 486413.0 0
168837.0 486622.0 0
173119.0 486614.0 0
195187.0 489235.0 0
199134.0 489071.0 0
203069.0 488896.0 0
206993.0 488708.0 0
210908.0 488510.0 0
214815.0 488307.0 0
218710.0 488096.0 0
222606.0 487893.0 0
226490.0 487685.0 0
230361.0 487484.0 0
234220.0 487254.0 0
238072.0 487035.0 0
241917.0 486831.0 0
245670.0 486481.0 0
262228.0 487642.0 0
266116.0 487766.0 0
269989.0 487904.0 0
273856.0 488057.0 0
277729.0 488207.0 0
281612.0 488360.0 0
285510.0 488512.0 0
289417.0 488666.0 0
293335.0 488820.0 0
297264.0 488967.0 0
331136.0 486487.0 0
339816.0 486616.0 0
358183.0 489034.0 0
362167.0 488809.0 0
366146.0 488588.0 0
370118.0 488368.0 0
374080.0 488156.0 0
385879.0 489253.0 0
390270.0 488873.0 0
394511.0 488144.0 0
398924.0 487491.0 0
403344.0 486994.0 0
98503.9 490456.0 0
102599.0 491068.0 0
107264.0 491677.0 0
118065.0 489513.0 0
122003.0 489718.0 0
126863.0 490898.0 0
130825.0 491203.0 0
145566.0 489248.0 0
149540.0 489558.0 0
153506.0 489880.0 0
158618.0 489338.0 0
162585.0 489629.0 0
166568.0 489876.0 0
170917.0 489883.0 0
175186.0 489894.0 0
179284.0 489798.0 0
183277.0 489659.0 0
187258.0 489526.0 0
191228.0 489386.0 0
220803.0 491392.0 0
224721.0 491197.0 0
228581.0 491009.0 0
232471.0 490796.0 0
236300.0 490568.0 0
240173.0 490341.0 0
247479.0 489794.0 0
251354.0 489740.0 0
255210.0 489748.0 0
259081.0 489793.0 0
264121.0 491094.0 0
268008.0 491248.0 0
271865.0 491414.0 0
275741.0 491563.0 0
279614.0 491711.0 0
301205.0 489108.0 0
305157.0 489243.0 0
309119.0 489370.0 0
313091.0 489489.0 0
317073.0 489599.0 0
321065.0 489707.0 0
325088.0 489798.0 0
329289.0 489860.0 0
333333.0 489760.0 0
337321.0 489572.0 0
342065.0 489861.0 0
346045.0 489628.0 0
350031.0 489395.0 0
354194.0 489261.0 0
368335.0 491883.0 0
372304.0 491683.0 0
377993.0 488728.0 0
381887.0 489416.0 0
397223.0 491039.0 0
401514.0 490525.0 0
111606.0 492335.0 0
115736.0 492714.0 0
119702.0 492963.0 0
123658.0 493163.0 0
134807.0 491445.0 0
138920.0 491817.0 0
142899.0 492130.0 0
147266.0 492767.0 0
151236.0 493089.0 0
156345.0 492562.0 0
160307.0 492858.0 0
164283.0 493121.0 0
168671.0 493133.0 0
172993.0 493163.0 0
177287.0 493170.0 0
181371.0 493072.0 0
185358.0 492950.0 0
189337.0 492822.0 0
193308.0 492685.0 0
197270.0 492536.0 0
201220.0 492374.0 0
205159.0 492200.0 0
209086.0 492010.0 0
213005.0 491811.0 0
216915.0 491615.0 0
243896.0 491245.0 0
249352.0 493123.0 0
253209.0 493150.0 0
257070.0 493165.0 0
260940.0 493194.0 0
283508.0 491847.0 0
287413.0 491994.0 0
291328.0 492141.0 0
295255.0 492282.0 0
299195.0 492417.0 0
303148.0 492546.0 0
307111.0 492670.0 0
311084.0 492786.0 0
315066.0 492894.0 0
319056.0 492994.0 0
323072.0 493091.0 0
327214.0 493120.0 0
331497.0 493162.0 0
335562.0 493026.0 0
339546.0 492822.0 0
344297.0 493111.0 0
348279.0 492879.0 0
352267.0 492653.0 0
356386.0 492506.0 0
360374.0 492295.0 0
364357.0 492087.0 0
376217.0 492314.0 0
380146.0 492820.0 0
384127.0 492682.0 0
388416.0 492291.0 0
393000.0 491753.0 0
100079.0 494144.0 0
104527.0 494561.0 0
108928.0 495256.0 0
113335.0 495847.0 0
117413.0 496215.0 0
121399.0 496420.0 0
125366.0 496594.0 0
128680.0 494487.0 0
132657.0 494743.0 0
136628.0 495015.0 0
140643.0 495360.0 0
144617.0 495671.0 0
148978.0 496304.0 0
154070.0 495806.0 0
158033.0 496111.0 0
162003.0 496374.0 0
166405.0 496380.0 0
170761.0 496414.0 0
175107.0 496437.0 0
179407.0 496449.0 0
183463.0 496376.0 0
187454.0 496261.0 0
191438.0 496137.0 0
195414.0 496001.0 0
199380.0 495854.0 0
203335.0 495692.0 0
207280.0 495519.0 0
211212.0 495321.0 0
215133.0 495125.0 0
219046.0 494952.0 0
222943.0 494649.0 0
226836.0 494588.0 0
230728.0 494280.0 0
234604.0 494679.0 0
238409.0 493831.0 0
242012.0 495234.0 0
245845.0 494653.0 0
251151.0 496534.0 0
255069.0 496568.0 0
258952.0 496580.0 0
262817.0 496567.0 0
266019.0 494570.0 0
269863.0 494804.0 0
273731.0 494920.0 0
277603.0 495096.0 0
281494.0 495206.0 0
285392.0 495340.0 0
289303.0 495484.0 0
293229.0 495618.0 0
297169.0 495746.0 0
301121.0 495868.0 0
305086.0 495987.0 0
309061.0 496100.0 0
313046.0 496207.0 0
317040.0 496305.0 0
321040.0 496390.0 0
325186.0 496425.0 0
329392.0 496426.0 0
333735.0 496451.0 0
337791.0 496307.0 0
341775.0 496100.0 0
346507.0 496374.0 0
350492.0 496150.0 0
354482.0 495937.0 0
358552.0 495781.0 0
362541.0 495587.0 0
366525.0 495397.0 0
370504.0 495215.0 0
374419.0 495885.0 0
378372.0 496243.0 0
382357.0 496136.0 0
386615.0 495759.0 0
391112.0 495204.0 0
395683.0 494683.0 0
399747.0 494120.0 0
102006.0 497654.0 0
106228.0 498174.0 0
110686.0 498796.0 0
115021.0 499394.0 0
130496.0 498039.0 0
134443.0 498319.0 0
138403.0 498594.0 0
142379.0 498928.0 0
146354.0 499216.0 0
151794.0 499063.0 0
206808.0 499409.0 0
210728.0 499203.0 0
214662.0 499009.0 0
218566.0 498881.0 0
222451.0 498453.0 0
226397.0 498558.0 0
230309.0 498126.0 0
234234.0 498650.0 0
238076.0 497728.0 0
245591.0 498555.0 0
268706.0 498593.0 0
272680.0 498700.0 0
276642.0 498940.0 0
280625.0 499033.0 0
284610.0 499177.0 0
288575.0 499331.0 0
292542.0 499459.0 0
352678.0 499445.0 0
356669.0 499247.0 0
360696.0 499086.0 0
364684.0 498910.0 0
368667.0 498743.0 0
384829.0 499257.0 0
389277.0 498702.0 0
393766.0 498168.0 0
398155.0 497805.0 0
119190.0 499701.0 0
123169.0 499883.0 0
127121.0 500026.0 0
155763.0 499379.0 0
159725.0 499665.0 0
163687.0 499887.0 0
167626.0 500067.0 0
171540.0 500211.0 0
175436.0 500295.0 0
179330.0 500310.0 0
183236.0 500241.0 0
187155.0 500134.0 0
191084.0 500012.0 0
195017.0 499879.0 0
198950.0 499735.0 0
202880.0 499577.0 0
241760.0 499164.0 0
249224.0 499907.0 0
253115.0 499970.0 0
257024.0 499992.0 0
260954.0 499967.0 0
264934.0 499811.0 0
296505.0 499582.0 0
300468.0 499696.0 0
304430.0 499808.0 0
308388.0 499913.0 0
312344.0 500009.0 0
316295.0 500094.0 0
320239.0 500160.0 0
324177.0 500158.0 0
328117.0 500091.0 0
332066.0 499965.0 0
336034.0 499795.0 0
340018.0 499610.0 0
344000.0 499405.0 0
348689.0 499656.0 0
372579.0 499432.0 0
376538.0 499668.0 0
380534.0 499594.0 0
100401.0 501650.0 0
104392.0 501713.0 0
108371.0 502030.0 0
112377.0 502379.0 0
116855.0 502889.0 0
121034.0 503191.0 0
125025.0 503356.0 0
129379.0 503180.0 0
133202.0 502097.0 0
137177.0 502352.0 0
141143.0 502679.0 0
145120.0 502929.0 0
149156.0 502054.0 0
153493.0 502645.0 0
157476.0 502968.0 0
161484.0 503202.0 0
165468.0 503393.0 0
169436.0 503559.0 0
173394.0 503675.0 0
177351.0 503723.0 0
181311.0 503689.0 0
185266.0 503601.0 0
189218.0 503490.0 0
193170.0 503366.0 0
197120.0 503233.0 0
201066.0 503087.0 0
205009.0 502926.0 0
208956.0 502753.0 0
212893.0 502510.0 0
219324.0 502779.0 0
223280.0 502225.0 0
227211.0 502489.0 0
231110.0 501935.0 0
234955.0 502574.0 0
238737.0 501626.0 0
242413.0 503079.0 0
246301.0 502486.0 0
251099.0 503369.0 0
255050.0 503414.0 0
259001.0 503394.0 0
262958.0 503304.0 0
266893.0 503178.0 0
270671.0 502094.0 0
274620.0 502425.0 0
278583.0 502422.0 0
282548.0 502522.0 0
286510.0 502699.0 0
290489.0 502817.0 0
294458.0 502941.0 0
298428.0 503050.0 0
302396.0 503159.0 0
306365.0 503265.0 0
310334.0 503364.0 0
314306.0 503452.0 0
318282.0 503526.0 0
322268.0 503567.0 0
326258.0 503537.0 0
330249.0 503445.0 0
334242.0 503297.0 0
338236.0 503122.0 0
342223.0 502934.0 0
346205.0 502737.0 0
350843.0 502959.0 0
354834.0 502765.0 0
358824.0 502584.0 0
362817.0 502423.0 0
366801.0 502266.0 0
370708.0 502957.0 0
374666.0 503121.0 0
378646.0 503038.0 0
382981.0 502745.0 0
387479.0 502239.0 0
391503.0 501999.0 0
395489.0 501761.0 0
399479.0 501640.0 0
102000.0 505586.0 0
106000.0 505562.0 0
110085.0 505638.0 0
114257.0 505881.0 0
118726.0 506385.0 0
122915.0 506690.0 0
127205.0 506651.0 0
131173.0 506647.0 0
135006.0 505671.0 0
138968.0 506008.0 0
142953.0 506234.0 0
147091.0 506366.0 0
151037.0 505775.0 0
155141.0 506272.0 0
159288.0 506519.0 0
163324.0 506719.0 0
191283.0 506851.0 0
195253.0 506726.0 0
199221.0 506596.0 0
203175.0 506449.0 0
207119.0 506281.0 0
211033.0 506149.0 0
214919.0 505837.0 0
218645.0 506708.0 0
222416.0 506008.0 0
226272.0 506379.0 0
230093.0 505727.0 0
233933.0 506416.0 0
237725.0 505438.0 0
245234.0 506296.0 0
253073.0 506847.0 0
257043.0 506840.0 0
261007.0 506783.0 0
264962.0 506678.0 0
268890.0 506537.0 0
272771.0 505970.0 0
276690.0 505919.0 0
280618.0 505956.0 0
284545.0 506157.0 0
288487.0 506207.0 0
292435.0 506328.0 0
296400.0 506421.0 0
300366.0 506525.0 0
304338.0 506628.0 0
308313.0 506728.0 0
312295.0 506817.0 0
332403.0 506788.0 0
336426.0 506627.0 0
340503.0 506499.0 0
344606.0 506383.0 0
348681.0 506303.0 0
352977.0 506285.0 0
356970.0 506112.0 0
360953.0 505950.0 0
364926.0 505789.0 0
368827.0 506467.0 0
372777.0 506603.0 0
376752.0 506516.0 0
381031.0 506203.0 0
385600.0 505751.0 0
389856.0 505637.0 0
394000.0 505562.0 0
398000.0 505586.0 0
167316.0 506897.0 0
171308.0 507042.0 0
175310.0 507119.0 0
179331.0 507120.0 0
183325.0 507059.0 0
187308.0 506963.0 0
241367.0 506880.0 0
249132.0 506753.0 0
316283.0 506894.0 0
320281.0 506951.0 0
324325.0 506962.0 0
328363.0 506907.0 0
101361.0 509604.0 0
105347.0 509579.0 0
109320.0 509563.0 0
113276.0 509724.0 0
117223.0 510031.0 0
121195.0 510244.0 0
125250.0 510122.0 0
129248.0 510129.0 0
133423.0 509866.0 0
137384.0 509673.0 0
141342.0 509856.0 0
145322.0 509943.0 0
149297.0 509680.0 0
153263.0 509801.0 0
157226.0 509930.0 0
161194.0 510061.0 0
165179.0 510241.0 0
169176.0 510405.0 0
173221.0 510506.0 0
177295.0 510534.0 0
181355.0 510507.0 0
185370.0 510434.0 0
189365.0 510331.0 0
193355.0 510220.0 0
197341.0 510089.0 0
201329.0 509971.0 0
205315.0 509807.0 0
209603.0 509870.0 0
213588.0 509573.0 0
219096.0 510617.0 0
223017.0 509900.0 0
226966.0 510298.0 0
230877.0 509623.0 0
234793.0 510276.0 0
238717.0 509785.0 0
242928.0 510509.0 0
246872.0 509981.0 0
250959.0 510293.0 0
255078.0 510288.0 0
259072.0 510266.0 0
263059.0 510175.0 0
267022.0 510063.0 0
270955.0 509882.0 0
274845.0 509877.0 0
278709.0 509422.0 0
282603.0 509814.0 0
286514.0 509634.0 0
290441.0 509761.0 0
294382.0 509812.0 0
298336.0 509913.0 0
302303.0 510005.0 0
306280.0 510106.0 0
310267.0 510193.0 0
314261.0 510275.0 0
318263.0 510336.0 0
322321.0 510362.0 0
326416.0 510349.0 0
330506.0 510263.0 0
334577.0 510125.0 0
338587.0 509979.0 0
342597.0 509903.0 0
346599.0 509846.0 0
350598.0 509812.0 0
354607.0 509893.0 0
358588.0 509751.0 0
362568.0 509695.0 0
366552.0 509731.0 0
370594.0 510053.0 0
374617.0 510132.0 0
378612.0 510018.0 0
382592.0 509847.0 0
386559.0 509626.0 0
390537.0 509578.0 0
394523.0 509568.0 0
398516.0 509595.0 0
102000.0 513583.0 0
106000.0 513560.0 0
110001.0 513546.0 0
114061.0 513624.0 0
118300.0 513840.0 0
122285.0 514051.0 0
126267.0 513986.0 0
130254.0 513986.0 0
134233.0 513740.0 0
138215.0 513666.0 0
142202.0 513739.0 0
146188.0 513840.0 0
150175.0 513695.0 0
154170.0 513726.0 0
158173.0 513810.0 0
162254.0 513898.0 0
166469.0 513997.0 0
170710.0 514074.0 0
174779.0 514152.0 0
178770.0 514204.0 0
182747.0 514200.0 0
186705.0 514153.0 0
190647.0 514066.0 0
194573.0 513987.0 0
198488.0 513872.0 0
202392.0 513802.0 0
206295.0 513647.0 0
210193.0 513818.0 0
214088.0 513511.0 0
217896.0 514377.0 0
221763.0 513648.0 0
225695.0 514070.0 0
229602.0 513403.0 0
233517.0 514023.0 0
237470.0 513556.0 0
241407.0 514179.0 0
245367.0 513654.0 0
249343.0 514062.0 0
253327.0 513855.0 0
257326.0 513855.0 0
261317.0 513739.0 0
265574.0 513770.0 0
269566.0 513595.0 0
273642.0 513690.0 0
277619.0 513384.0 0
281586.0 513680.0 0
285548.0 513491.0 0
289507.0 513637.0 0
293459.0 513664.0 0
297411.0 513771.0 0
301361.0 513845.0 0
305315.0 513942.0 0
309273.0 514013.0 0
313240.0 514090.0 0
317216.0 514137.0 0
321204.0 514152.0 0
325200.0 514120.0 0
329363.0 514060.0 0
333622.0 513970.0 0
337778.0 513871.0 0
341805.0 513822.0 0
345840.0 513770.0 0
349844.0 513741.0 0
353840.0 513792.0 0
357842.0 513678.0 0
361839.0 513666.0 0
365834.0 513659.0 0
369816.0 513971.0 0
377804.0 513910.0 0
381799.0 513742.0 0
385975.0 513580.0 0
389990.0 513553.0 0
394000.0 513560.0 0
398000.0 513584.0 0
373810.0 514036.0 0
101942.0 517583.0 0
105940.0 517560.0 0
109937.0 517546.0 0
113932.0 517606.0 0
117922.0 517786.0 0
121914.0 517996.0 0
125912.0 517966.0 0
129909.0 517955.0 0
133896.0 517697.0 0
137892.0 517662.0 0
141884.0 517711.0 0
145874.0 517819.0 0
149860.0 517693.0 0
153845.0 517720.0 0
157824.0 517791.0 0
161800.0 517859.0 0
165772.0 517914.0 0
169745.0 517941.0 0
173716.0 517983.0 0
177690.0 518021.0 0
181669.0 518009.0 0
185657.0 517974.0 0
189650.0 517899.0 0
193672.0 517852.0 0
197709.0 517759.0 0
201912.0 517753.0 0
205923.0 517608.0 0
209980.0 517795.0 0
214003.0 517504.0 0
218460.0 518265.0 0
222389.0 517575.0 0
226359.0 517990.0 0
230311.0 517431.0 0
234282.0 517909.0 0
238253.0 517467.0 0
242345.0 518043.0 0
246304.0 517511.0 0
250258.0 518021.0 0
254239.0 517735.0 0
258228.0 517750.0 0
262219.0 517617.0 0
266209.0 517705.0 0
270196.0 517519.0 0
274182.0 517652.0 0
278165.0 517387.0 0
282151.0 517637.0 0
286144.0 517435.0 0
290139.0 517579.0 0
294170.0 517572.0 0
298168.0 517676.0 0
302314.0 517696.0 0
306312.0 517783.0 0
310309.0 517835.0 0
314301.0 517907.0 0
318289.0 517946.0 0
322269.0 517970.0 0
326244.0 517952.0 0
330218.0 517941.0 0
334191.0 517901.0 0
338164.0 517837.0 0
342140.0 517806.0 0
346122.0 517757.0 0
350107.0 517732.0 0
354097.0 517765.0 0
358087.0 517673.0 0
362082.0 517663.0 0
366079.0 517651.0 0
370070.0 517953.0 0
374070.0 518015.0 0
378067.0 517880.0 0
382061.0 517712.0 0
386056.0 517577.0 0
390054.0 517553.0 0
394053.0 517560.0 0
398052.0 517583.0 0
102000.0 521583.0 0
106000.0 521560.0 0
110000.0 521545.0 0
114003.0 521593.0 0
118024.0 521753.0 0
122035.0 521958.0 0
130033.0 521935.0 0
134023.0 521676.0 0
138022.0 521661.0 0
142020.0 521697.0 0
146018.0 521806.0 0
150015.0 521696.0 0
154015.0 521719.0 0
158016.0 521783.0 0
162023.0 521841.0 0
182085.0 521950.0 0
186080.0 521918.0 0
190071.0 521841.0 0
194061.0 521805.0 0
198048.0 521713.0 0
202034.0 521736.0 0
206019.0 521589.0 0
210002.0 521779.0 0
213980.0 521496.0 0
221854.0 521521.0 0
225830.0 521930.0 0
229906.0 521442.0 0
233882.0 521854.0 0
237860.0 521442.0 0
245838.0 521463.0 0
253800.0 521700.0 0
257887.0 521734.0 0
261883.0 521588.0 0
265938.0 521684.0 0
269966.0 521492.0 0
273984.0 521646.0 0
277982.0 521415.0 0
281974.0 521631.0 0
285966.0 521423.0 0
289959.0 521570.0 0
293953.0 521542.0 0
297945.0 521652.0 0
301938.0 521649.0 0
305931.0 521737.0 0
309925.0 521781.0 0
313920.0 521854.0 0
317917.0 521890.0 0
321916.0 521922.0 0
325922.0 521914.0 0
333972.0 521871.0 0
337984.0 521822.0 0
341984.0 521799.0 0
345984.0 521751.0 0
349984.0 521729.0 0
353983.0 521750.0 0
357982.0 521671.0 0
361982.0 521662.0 0
365981.0 521650.0 0
369970.0 521939.0 0
377965.0 521860.0 0
381985.0 521694.0 0
385998.0 521574.0 0
389999.0 521552.0 0
394000.0 521560.0 0
398000.0 521583.0 0
126034.0 521959.0 0
166043.0 521886.0 0
170069.0 521913.0 0
174088.0 521943.0 0
178087.0 521970.0 0
217910.0 522164.0 0
241821.0 521987.0 0
249812.0 521995.0 0
329949.0 521909.0 0
373968.0 522001.0 0
101994.0 525583.0 0
105993.0 525560.0 0
109993.0 525545.0 0
113992.0 525584.0 0
117989.0 525726.0 0
121984.0 525926.0 0
125983.0 525953.0 0
129983.0 525916.0 0
133995.0 525664.0 0
137995.0 525661.0 0
141994.0 525689.0 0
145992.0 525795.0 0
149990.0 525696.0 0
153989.0 525719.0 0
157987.0 525781.0 0
161985.0 525831.0 0
165983.0 525868.0 0
169981.0 525897.0 0
173979.0 525918.0 0
177977.0 525938.0 0
181975.0 525912.0 0
185975.0 525884.0 0
189973.0 525807.0 0
193980.0 525779.0 0
197984.0 525684.0 0
201995.0 525722.0 0
205998.0 525573.0 0
210003.0 525762.0 0
214006.0 525489.0 0
218135.0 526100.0 0
222087.0 525499.0 0
226064.0 525898.0 0
230036.0 525441.0 0
234031.0 525819.0 0
238011.0 525435.0 0
242098.0 525956.0 0
246064.0 525442.0 0
250056.0 525986.0 0
254053.0 525682.0 0
258052.0 525727.0 0
262048.0 525571.0 0
266045.0 525671.0 0
270039.0 525474.0 0
274033.0 525644.0 0
278025.0 525415.0 0
282018.0 525628.0 0
286012.0 525419.0 0
290008.0 525567.0 0
294008.0 525521.0 0
298006.0 525636.0 0
302012.0 525622.0 0
306013.0 525710.0 0
310017.0 525748.0 0
314016.0 525821.0 0
318016.0 525852.0 0
322014.0 525889.0 0
326013.0 525888.0 0
330011.0 525887.0 0
334010.0 525851.0 0
338008.0 525814.0 0
342007.0 525795.0 0
346006.0 525747.0 0
350005.0 525727.0 0
354004.0 525740.0 0
358003.0 525671.0 0
362003.0 525662.0 0
366003.0 525650.0 0
370018.0 525923.0 0
374017.0 525988.0 0
378014.0 525844.0 0
382010.0 525679.0 0
386008.0 525572.0 0
390008.0 525552.0 0
394007.0 525560.0 0
398007.0 525583.0 0
102000.0 529583.0 0
106000.0 529560.0 0
110000.0 529545.0 0
114000.0 529578.0 0
118002.0 529702.0 0
134002.0 529657.0 0
138002.0 529661.0 0
142002.0 529684.0 0
190006.0 529775.0 0
198002.0 529657.0 0
202000.0 529710.0 0
205996.0 529559.0 0
213978.0 529481.0 0
221993.0 529484.0 0
230000.0 529442.0 0
233994.0 529790.0 0
237984.0 529433.0 0
245999.0 529431.0 0
253947.0 529671.0 0
261980.0 529556.0 0
265992.0 529660.0 0
269997.0 529460.0 0
273998.0 529641.0 0
278000.0 529417.0 0
282000.0 529625.0 0
286000.0 529417.0 0
290000.0 529566.0 0
294000.0 529503.0 0
297999.0 529623.0 0
301999.0 529597.0 0
305998.0 529687.0 0
309997.0 529717.0 0
357998.0 529671.0 0
361998.0 529661.0 0
365998.0 529650.0 0
381999.0 529666.0 0
386000.0 529570.0 0
390000.0 529551.0 0
394000.0 529560.0 0
398000.0 529583.0 0
122010.0 529896.0 0
126010.0 529946.0 0
130010.0 529897.0 0
146001.0 529785.0 0
150000.0 529696.0 0
154000.0 529719.0 0
158001.0 529777.0 0
162002.0 529823.0 0
166003.0 529853.0 0
170004.0 529882.0 0
174008.0 529896.0 0
178009.0 529909.0 0
182008.0 529878.0 0
186008.0 529854.0 0
194005.0 529755.0 0
209989.0 529747.0 0
217935.0 530044.0 0
225979.0 529873.0 0
241952.0 529933.0 0
249960.0 529984.0 0
257984.0 529723.0 0
313996.0 529792.0 0
317996.0 529819.0 0
321996.0 529860.0 0
325997.0 529864.0 0
329998.0 529867.0 0
333999.0 529835.0 0
337999.0 529808.0 0
341999.0 529790.0 0
345999.0 529743.0 0
349999.0 529725.0 0
353999.0 529734.0 0
369989.0 529907.0 0
373988.0 529975.0 0
377994.0 529830.0 0
102000.0 533583.0 0
106000.0 533560.0 0
110000.0 533545.0 0
114000.0 533573.0 0
118000.0 533682.0 0
121996.0 533871.0 0
125995.0 533938.0 0
129996.0 533879.0 0
134000.0 533653.0 0
138000.0 533661.0 0
142000.0 533681.0 0
146000.0 533774.0 0
150000.0 533696.0 0
154000.0 533719.0 0
157999.0 533773.0 0
161999.0 533816.0 0
165999.0 533840.0 0
169999.0 533867.0 0
173999.0 533875.0 0
177998.0 533882.0 0
181998.0 533847.0 0
185998.0 533826.0 0
189998.0 533746.0 0
193999.0 533733.0 0
197999.0 533634.0 0
202000.0 533699.0 0
206000.0 533546.0 0
210000.0 533733.0 0
214001.0 533474.0 0
218036.0 533997.0 0
222000.0 533472.0 0
226004.0 533849.0 0
230000.0 533441.0 0
234001.0 533765.0 0
238000.0 533434.0 0
242021.0 533914.0 0
246000.0 533425.0 0
250012.0 533983.0 0
254010.0 533661.0 0
258009.0 533719.0 0
262005.0 533542.0 0
266004.0 533651.0 0
270000.0 533450.0 0
274000.0 533639.0 0
278000.0 533417.0 0
282000.0 533623.0 0
286000.0 533417.0 0
290000.0 533565.0 0
294000.0 533488.0 0
298000.0 533612.0 0
302000.0 533575.0 0
306000.0 533666.0 0
310000.0 533690.0 0
314001.0 533766.0 0
318001.0 533789.0 0
322001.0 533834.0 0
326001.0 533842.0 0
330000.0 533850.0 0
334000.0 533822.0 0
338000.0 533803.0 0
342000.0 533784.0 0
346000.0 533739.0 0
350000.0 533722.0 0
354000.0 533729.0 0
358000.0 533670.0 0
362000.0 533661.0 0
366000.0 533650.0 0
370005.0 533890.0 0
374006.0 533963.0 0
378004.0 533818.0 0
382000.0 533655.0 0
386000.0 533569.0 0
390000.0 533551.0 0
394000.0 533560.0 0
398000.0 533583.0 0
206000.0 537534.0 0
214000.0 537466.0 0
222000.0 537461.0 0
230000.0 537441.0 0
238000.0 537434.0 0
246000.0 537421.0 0
261999.0 537529.0 0
270000.0 537441.0 0
278000.0 537417.0 0
286000.0 537417.0 0
294000.0 537476.0 0
302000.0 537556.0 0
102000.0 537583.0 0
106000.0 537560.0 0
110000.0 537545.0 0
114000.0 537570.0 0
118000.0 537666.0 0
122001.0 537848.0 0
126002.0 537930.0 0
130001.0 537862.0 0
134000.0 537651.0 0
138000.0 537661.0 0
142000.0 537678.0 0
146000.0 537765.0 0
150000.0 537696.0 0
154000.0 537719.0 0
158000.0 537769.0 0
162000.0 537809.0 0
166000.0 537829.0 0
170000.0 537854.0 0
174000.0 537855.0 0
178000.0 537858.0 0
182000.0 537818.0 0
186000.0 537800.0 0
190000.0 537720.0 0
194000.0 537714.0 0
198000.0 537614.0 0
202000.0 537689.0 0
210000.0 537721.0 0
217992.0 537956.0 0
225999.0 537827.0 0
234000.0 537742.0 0
241995.0 537895.0 0
249997.0 537982.0 0
253997.0 537650.0 0
257999.0 537714.0 0
266000.0 537643.0 0
274000.0 537637.0 0
282000.0 537621.0 0
290000.0 537565.0 0
298000.0 537604.0 0
306000.0 537648.0 0
310000.0 537666.0 0
314000.0 537743.0 0
318000.0 537762.0 0
322000.0 537810.0 0
326000.0 537823.0 0
330000.0 537835.0 0
334000.0 537811.0 0
338000.0 537798.0 0
342000.0 537777.0 0
346000.0 537735.0 0
350000.0 537719.0 0
354000.0 537725.0 0
358000.0 537670.0 0
362000.0 537661.0 0
366000.0 537650.0 0
369999.0 537873.0 0
373998.0 537950.0 0
378000.0 537807.0 0
382000.0 537645.0 0
386000.0 537567.0 0
390000.0 537550.0 0
394000.0 537560.0 0
398000.0 537583.0 0
102000.0 541583.0 0
106000.0 541560.0 0
110000.0 541545.0 0
114000.0 541567.0 0
118000.0 541653.0 0
122000.0 541829.0 0
126000.0 541921.0 0
130000.0 541845.0 0
134000.0 541650.0 0
138000.0 541660.0 0
142000.0 541676.0 0
146000.0 541756.0 0
150000.0 541696.0 0
154000.0 541718.0 0
158000.0 541765.0 0
162000.0 541803.0 0
166000.0 541820.0 0
170000.0 541841.0 0
174000.0 541838.0 0
178000.0 541836.0 0
182000.0 541792.0 0
186000.0 541777.0 0
190000.0 541696.0 0
194000.0 541696.0 0
198000.0 541595.0 0
202000.0 541680.0 0
206000.0 541523.0 0
210000.0 541709.0 0
214000.0 541459.0 0
218001.0 541921.0 0
222000.0 541452.0 0
226000.0 541807.0 0
230000.0 541441.0 0
234000.0 541723.0 0
238000.0 541434.0 0
242001.0 541879.0 0
246000.0 541418.0 0
250001.0 541981.0 0
254001.0 541640.0 0
258000.0 541710.0 0
262000.0 541517.0 0
266000.0 541635.0 0
270000.0 541434.0 0
274000.0 541635.0 0
278000.0 541417.0 0
282000.0 541619.0 0
286000.0 541417.0 0
290000.0 541564.0 0
294000.0 541466.0 0
298000.0 541596.0 0
302000.0 541539.0 0
306000.0 541633.0 0
310000.0 541644.0 0
314000.0 541723.0 0
318000.0 541739.0 0
322000.0 541789.0 0
326000.0 541805.0 0
330000.0 541821.0 0
334000.0 541802.0 0
338000.0 541793.0 0
342000.0 541771.0 0
346000.0 541732.0 0
350000.0 541717.0 0
354000.0 541722.0 0
358000.0 541669.0 0
362000.0 541661.0 0
366000.0 541650.0 0
370000.0 541856.0 0
374001.0 541937.0 0
378000.0 541798.0 0
382000.0 541637.0 0
386000.0 541566.0 0
390000.0 541549.0 0
394000.0 541560.0 0
398000.0 541583.0 0
102000.0 545583.0 0
106000.0 545560.0 0
110000.0 545545.0 0
114000.0 545566.0 0
118000.0 545642.0 0
122000.0 545812.0 0
126000.0 545911.0 0
130000.0 545830.0 0
134000.0 545650.0 0
138000.0 545660.0 0
142000.0 545674.0 0
146000.0 545747.0 0
150000.0 545696.0 0
154000.0 545718.0 0
158000.0 545760.0 0
162000.0 545798.0 0
166000.0 545811.0 0
170000.0 545830.0 0
174000.0 545822.0 0
178000.0 545816.0 0
182000.0 545769.0 0
186000.0 545757.0 0
190000.0 545675.0 0
194000.0 545681.0 0
198000.0 545579.0 0
202000.0 545671.0 0
206000.0 545513.0 0
210000.0 545699.0 0
214000.0 545452.0 0
218000.0 545890.0 0
222000.0 545444.0 0
226000.0 545788.0 0
230000.0 545441.0 0
234000.0 545707.0 0
238000.0 545434.0 0
242000.0 545863.0 0
246000.0 545417.0 0
250000.0 545980.0 0
254000.0 545631.0 0
258000.0 545706.0 0
262000.0 545506.0 0
266000.0 545629.0 0
270000.0 545429.0 0
274000.0 545633.0 0
278000.0 545417.0 0
282000.0 545617.0 0
286000.0 545417.0 0
290000.0 545564.0 0
294000.0 545458.0 0
298000.0 545591.0 0
302000.0 545525.0 0
306000.0 545619.0 0
310000.0 545626.0 0
314000.0 545705.0 0
318000.0 545718.0 0
322000.0 545771.0 0
326000.0 545790.0 0
330000.0 545810.0 0
334000.0 545795.0 0
338000.0 545789.0 0
342000.0 545765.0 0
346000.0 545729.0 0
350000.0 545714.0 0
354000.0 545720.0 0
358000.0 545668.0 0
362000.0 545661.0 0
366000.0 545650.0 0
370000.0 545841.0 0
374000.0 545925.0 0
378000.0 545790.0 0
382000.0 545630.0 0
386000.0 545564.0 0
390000.0 545549.0 0
394000.0 545560.0 0
398000.0 545583.0 0
102000.0 549583.0 0
106000.0 549560.0 0
110000.0 549545.0 0
114000.0 549564.0 0
118000.0 549633.0 0
122000.0 549798.0 0
126000.0 549902.0 0
130000.0 549816.0 0
134000.0 549650.0 0
138000.0 549660.0 0
142000.0 549673.0 0
146000.0 549740.0 0
150000.0 549696.0 0
154000.0 549717.0 0
158000.0 549756.0 0
162000.0 549793.0 0
166000.0 549804.0 0
170000.0 549820.0 0
174000.0 549807.0 0
178000.0 549799.0 0
182000.0 549749.0 0
186000.0 549739.0 0
190000.0 549657.0 0
194000.0 549667.0 0
198000.0 549566.0 0
202000.0 549663.0 0
206000.0 549504.0 0
210000.0 549690.0 0
214000.0 549446.0 0
218000.0 549863.0 0
222000.0 549438.0 0
226000.0 549772.0 0
230000.0 549441.0 0
234000.0 549693.0 0
238000.0 549434.0 0
242000.0 549849.0 0
246000.0 549417.0 0
250000.0 549979.0 0
254000.0 549622.0 0
258000.0 549702.0 0
262000.0 549496.0 0
266000.0 549624.0 0
270000.0 549425.0 0
274000.0 549631.0 0
278000.0 549417.0 0
282000.0 549616.0 0
286000.0 549417.0 0
290000.0 549563.0 0
294000.0 549452.0 0
298000.0 549586.0 0
302000.0 549512.0 0
306000.0 549608.0 0
310000.0 549610.0 0
314000.0 549690.0 0
318000.0 549700.0 0
322000.0 549755.0 0
326000.0 549776.0 0
330000.0 549800.0 0
334000.0 549789.0 0
338000.0 549784.0 0
342000.0 549760.0 0
346000.0 549727.0 0
350000.0 549712.0 0
354000.0 549717.0 0
358000.0 549668.0 0
362000.0 549661.0 0
366000.0 549650.0 0
370000.0 549826.0 0
374000.0 549914.0 0
378000.0 549782.0 0
382000.0 549623.0 0
386000.0 549563.0 0
390000.0 549548.0 0
394000.0 549560.0 0
398000.0 549583.0 0
102000.0 553583.0 0
106000.0 553560.0 0
110000.0 553545.0 0
114000.0 553563.0 0
118000.0 553626.0 0
122000.0 553786.0 0
126000.0 553894.0 0
130000.0 553803.0 0
134000.0 553650.0 0
138000.0 553660.0 0
142000.0 553672.0 0
146000.0 553733.0 0
150000.0 553695.0 0
154000.0 553717.0 0
158000.0 553751.0 0
162000.0 553789.0 0
166000.0 553798.0 0
170000.0 553811.0 0
174000.0 553795.0 0
178000.0 553783.0 0
182000.0 553731.0 0
186000.0 553723.0 0
190000.0 553640.0 0
194000.0 553656.0 0
198000.0 553554.0 0
202000.0 553656.0 0
206000.0 553495.0 0
210000.0 553682.0 0
214000.0 553442.0 0
218000.0 553839.0 0
222000.0 553433.0 0
226000.0 553757.0 0
230000.0 553440.0 0
234000.0 553681.0 0
238000.0 553434.0 0
242000.0 553837.0 0
246000.0 553417.0 0
250000.0 553979.0 0
254000.0 553614.0 0
258000.0 553699.0 0
262000.0 553486.0 0
266000.0 553619.0 0
270000.0 553423.0 0
274000.0 553630.0 0
278000.0 553417.0 0
282000.0 553615.0 0
286000.0 553417.0 0
290000.0 553563.0 0
294000.0 553446.0 0
298000.0 553582.0 0
302000.0 553502.0 0
306000.0 553598.0 0
310000.0 553596.0 0
314000.0 553677.0 0
318000.0 553685.0 0
322000.0 553741.0 0
326000.0 553765.0 0
330000.0 553792.0 0
334000.0 553783.0 0
338000.0 553780.0 0
342000.0 553754.0 0
346000.0 553725.0 0
350000.0 553710.0 0
354000.0 553715.0 0
358000.0 553667.0 0
362000.0 553661.0 0
366000.0 553650.0 0
370000.0 553813.0 0
374000.0 553904.0 0
378000.0 553775.0 0
382000.0 553618.0 0
386000.0 553562.0 0
390000.0 553547.0 0
394000.0 553560.0 0
398000.0 553583.0 0
102000.0 557583.0 0
106000.0 557560.0 0
110000.0 557544.0 0
114000.0 557562.0 0
118000.0 557620.0 0
122000.0 557776.0 0
126000.0 557886.0 0
130000.0 557792.0 0
134000.0 557650.0 0
138000.0 557660.0 0
142000.0 557670.0 0
146000.0 557727.0 0
150000.0 557695.0 0
154000.0 557717.0 0
158000.0 557747.0 0
162000.0 557785.0 0
166000.0 557793.0 0
170000.0 557804.0 0
174000.0 557784.0 0
178000.0 557770.0 0
182000.0 557716.0 0
186000.0 557710.0 0
190000.0 557627.0 0
194000.0 557646.0 0
198000.0 557543.0 0
202000.0 557649.0 0
206000.0 557487.0 0
210000.0 557675.0 0
214000.0 557437.0 0
218000.0 557820.0 0
222000.0 557429.0 0
226000.0 557745.0 0
230000.0 557440.0 0
234000.0 557672.0 0
238000.0 557434.0 0
242000.0 557826.0 0
246000.0 557417.0 0
250000.0 557978.0 0
254000.0 557606.0 0
258000.0 557696.0 0
262000.0 557478.0 0
266000.0 557615.0 0
270000.0 557421.0 0
274000.0 557628.0 0
278000.0 557417.0 0
282000.0 557614.0 0
286000.0 557417.0 0
290000.0 557563.0 0
294000.0 557442.0 0
298000.0 557579.0 0
302000.0 557493.0 0
306000.0 557590.0 0
310000.0 557584.0 0
314000.0 557666.0 0
318000.0 557672.0 0
322000.0 557730.0 0
326000.0 557755.0 0
330000.0 557785.0 0
334000.0 557779.0 0
338000.0 557776.0 0
342000.0 557750.0 0
346000.0 557723.0 0
350000.0 557708.0 0
354000.0 557713.0 0
358000.0 557666.0 0
362000.0 557660.0 0
366000.0 557650.0 0
370000.0 557802.0 0
374000.0 557894.0 0
378000.0 557769.0 0
382000.0 557614.0 0
386000.0 557561.0 0
390000.0 557547.0 0
394000.0 557560.0 0
398000.0 557583.0 0
102000.0 561583.0 0
106000.0 561560.0 0
110000.0 561544.0 0
114000.0 561561.0 0
118000.0 561615.0 0
122000.0 561768.0 0
126000.0 561878.0 0
130000.0 561783.0 0
134000.0 561650.0 0
138000.0 561659.0 0
142000.0 561669.0 0
146000.0 561722.0 0
150000.0 561695.0 0
154000.0 561716.0 0
158000.0 561744.0 0
162000.0 561781.0 0
166000.0 561788.0 0
170000.0 561797.0 0
174000.0 561775.0 0
178000.0 561759.0 0
182000.0 561703.0 0
186000.0 561699.0 0
190000.0 561615.0 0
194000.0 561637.0 0
198000.0 561535.0 0
202000.0 561643.0 0
206000.0 561481.0 0
210000.0 561669.0 0
214000.0 561434.0 0
218000.0 561803.0 0
222000.0 561426.0 0
226000.0 561734.0 0
230000.0 561440.0 0
234000.0 561664.0 0
238000.0 561434.0 0
242000.0 561817.0 0
246000.0 561417.0 0
250000.0 561977.0 0
254000.0 561600.0 0
258000.0 561693.0 0
262000.0 561471.0 0
266000.0 561612.0 0
270000.0 561419.0 0
274000.0 561627.0 0
278000.0 561417.0 0
282000.0 561612.0 0
286000.0 561417.0 0
290000.0 561562.0 0
294000.0 561439.0 0
298000.0 561577.0 0
302000.0 561486.0 0
306000.0 561583.0 0
310000.0 561575.0 0
314000.0 561657.0 0
318000.0 561662.0 0
322000.0 561720.0 0
326000.0 561746.0 0
330000.0 561779.0 0
334000.0 561775.0 0
338000.0 561772.0 0
342000.0 561746.0 0
346000.0 561722.0 0
350000.0 561706.0 0
354000.0 561711.0 0
358000.0 561666.0 0
362000.0 561660.0 0
366000.0 561650.0 0
370000.0 561792.0 0
374000.0 561886.0 0
378000.0 561764.0 0
382000.0 561610.0 0
386000.0 561560.0 0
390000.0 561546.0 0
394000.0 561560.0 0
398000.0 561583.0 0
102000.0 565583.0 0
106000.0 565560.0 0
110000.0 565544.0 0
114000.0 565561.0 0
118000.0 565612.0 0
122000.0 565762.0 0
126000.0 565872.0 0
130000.0 565775.0 0
134000.0 565649.0 0
138000.0 565659.0 0
142000.0 565668.0 0
146000.0 565718.0 0
150000.0 565695.0 0
154000.0 565716.0 0
158000.0 565741.0 0
162000.0 565778.0 0
166000.0 565784.0 0
170000.0 565792.0 0
174000.0 565767.0 0
178000.0 565750.0 0
182000.0 565692.0 0
186000.0 565689.0 0
190000.0 565605.0 0
194000.0 565630.0 0
198000.0 565528.0 0
202000.0 565638.0 0
206000.0 565475.0 0
210000.0 565664.0 0
214000.0 565431.0 0
218000.0 565789.0 0
222000.0 565423.0 0
226000.0 565725.0 0
230000.0 565440.0 0
234000.0 565658.0 0
238000.0 565434.0 0
242000.0 565809.0 0
246000.0 565417.0 0
250000.0 565976.0 0
254000.0 565595.0 0
258000.0 565691.0 0
262000.0 565466.0 0
266000.0 565610.0 0
270000.0 565418.0 0
274000.0 565625.0 0
278000.0 565417.0 0
282000.0 565612.0 0
286000.0 565417.0 0
290000.0 565562.0 0
294000.0 565436.0 0
298000.0 565575.0 0
302000.0 565480.0 0
306000.0 565578.0 0
310000.0 565567.0 0
314000.0 565650.0 0
318000.0 565653.0 0
322000.0 565713.0 0
326000.0 565739.0 0
330000.0 565774.0 0
334000.0 565771.0 0
338000.0 565769.0 0
342000.0 565742.0 0
346000.0 565721.0 0
350000.0 565705.0 0
354000.0 565709.0 0
358000.0 565665.0 0
362000.0 565660.0 0
366000.0 565650.0 0
370000.0 565783.0 0
374000.0 565878.0 0
378000.0 565759.0 0
382000.0 565607.0 0
386000.0 565559.0 0
390000.0 565546.0 0
394000.0 565560.0 0
398000.0 565583.0 0
102000.0 569583.0 0
106000.0 569560.0 0
110000.0 569544.0 0
114000.0 569560.0 0
118000.0 569609.0 0
122000.0 569757.0 0
126000.0 569867.0 0
130000.0 569769.0 0
134000.0 569649.0 0
138000.0 569659.0 0
142000.0 569667.0 0
146000.0 569715.0 0
150000.0 569695.0 0
154000.0 569716.0 0
158000.0 569739.0 0
162000.0 569775.0 0
166000.0 569781.0 0
170000.0 569787.0 0
174000.0 569761.0 0
178000.0 569743.0 0
182000.0 569684.0 0
186000.0 569682.0 0
190000.0 569598.0 0
194000.0 569625.0 0
198000.0 569522.0 0
202000.0 569634.0 0
206000.0 569470.0 0
210000.0 569660.0 0
214000.0 569429.0 0
218000.0 569779.0 0
222000.0 569422.0 0
226000.0 569719.0 0
230000.0 569439.0 0
234000.0 569653.0 0
238000.0 569434.0 0
242000.0 569803.0 0
246000.0 569417.0 0
250000.0 569976.0 0
254000.0 569591.0 0
258000.0 569689.0 0
262000.0 569461.0 0
266000.0 569608.0 0
270000.0 569418.0 0
274000.0 569624.0 0
278000.0 569417.0 0
282000.0 569611.0 0
286000.0 569417.0 0
290000.0 569562.0 0
294000.0 569434.0 0
298000.0 569573.0 0
302000.0 569476.0 0
306000.0 569574.0 0
310000.0 569561.0 0
314000.0 569644.0 0
318000.0 569646.0 0
322000.0 569707.0 0
326000.0 569734.0 0
330000.0 569770.0 0
334000.0 569769.0 0
338000.0 569767.0 0
342000.0 569739.0 0
346000.0 569720.0 0
350000.0 569704.0 0
354000.0 569707.0 0
358000.0 569665.0 0
362000.0 569660.0 0
366000.0 569650.0 0
370000.0 569777.0 0
374000.0 569872.0 0
378000.0 569755.0 0
382000.0 569605.0 0
386000.0 569558.0 0
390000.0 569545.0 0
394000.0 569560.0 0
398000.0 569583.0 0
102000.0 573583.0 0
106000.0 573560.0 0
110000.0 573544.0 0
114000.0 573560.0 0
118000.0 573607.0 0
122000.0 573753.0 0
126000.0 573863.0 0
130000.0 573764.0 0
134000.0 573649.0 0
138000.0 573659.0 0
142000.0 573667.0 0
146000.0 573713.0 0
150000.0 573695.0 0
154000.0 573715.0 0
158000.0 573737.0 0
162000.0 573773.0 0
166000.0 573779.0 0
170000.0 573784.0 0
174000.0 573756.0 0
178000.0 573737.0 0
182000.0 573678.0 0
186000.0 573677.0 0
190000.0 573592.0 0
194000.0 573621.0 0
198000.0 573518.0 0
202000.0 573631.0 0
206000.0 573467.0 0
210000.0 573657.0 0
214000.0 573427.0 0
218000.0 573771.0 0
222000.0 573421.0 0
226000.0 573713.0 0
230000.0 573439.0 0
234000.0 573650.0 0
238000.0 573434.0 0
242000.0 573798.0 0
246000.0 573417.0 0
254000.0 573587.0 0
258000.0 573688.0 0
262000.0 573458.0 0
266000.0 573606.0 0
270000.0 573417.0 0
274000.0 573624.0 0
278000.0 573417.0 0
282000.0 573610.0 0
286000.0 573417.0 0
290000.0 573562.0 0
294000.0 573432.0 0
298000.0 573572.0 0
302000.0 573473.0 0
306000.0 573571.0 0
310000.0 573556.0 0
314000.0 573640.0 0
318000.0 573641.0 0
322000.0 573702.0 0
326000.0 573730.0 0
330000.0 573767.0 0
334000.0 573767.0 0
338000.0 573765.0 0
342000.0 573737.0 0
346000.0 573719.0 0
350000.0 573703.0 0
354000.0 573706.0 0
358000.0 573664.0 0
362000.0 573660.0 0
366000.0 573650.0 0
370000.0 573771.0 0
374000.0 573868.0 0
378000.0 573753.0 0
382000.0 573603.0 0
386000.0 573558.0 0
390000.0 573545.0 0
394000.0 573560.0 0
398000.0 573583.0 0
250000.0 573976.0 0
102000.0 577583.0 0
106000.0 577560.0 0
110000.0 577544.0 0
114000.0 577559.0 0
118000.0 577606.0 0
122000.0 577751.0 0
126000.0 577860.0 0
130000.0 577761.0 0
134000.0 577649.0 0
138000.0 577659.0 0
142000.0 577666.0 0
146000.0 577711.0 0
150000.0 577695.0 0
154000.0 577715.0 0
158000.0 577736.0 0
162000.0 577772.0 0
166000.0 577777.0 0
170000.0 577782.0 0
174000.0 577753.0 0
178000.0 577734.0 0
182000.0 577674.0 0
186000.0 577673.0 0
190000.0 577588.0 0
194000.0 577618.0 0
198000.0 577515.0 0
202000.0 577629.0 0
206000.0 577465.0 0
210000.0 577655.0 0
214000.0 577426.0 0
218000.0 577765.0 0
222000.0 577420.0 0
226000.0 577710.0 0
230000.0 577439.0 0
234000.0 577647.0 0
238000.0 577434.0 0
242000.0 577795.0 0
246000.0 577417.0 0
250000.0 577975.0 0
254000.0 577585.0 0
258000.0 577687.0 0
262000.0 577456.0 0
266000.0 577605.0 0
270000.0 577417.0 0
274000.0 577623.0 0
278000.0 577417.0 0
282000.0 577610.0 0
286000.0 577417.0 0
290000.0 577562.0 0
294000.0 577432.0 0
298000.0 577571.0 0
302000.0 577471.0 0
306000.0 577569.0 0
310000.0 577553.0 0
314000.0 577637.0 0
318000.0 577638.0 0
322000.0 577699.0 0
326000.0 577727.0 0
330000.0 577766.0 0
334000.0 577765.0 0
338000.0 577763.0 0
342000.0 577736.0 0
346000.0 577719.0 0
350000.0 577703.0 0
354000.0 577706.0 0
358000.0 577664.0 0
362000.0 577660.0 0
366000.0 577649.0 0
370000.0 577768.0 0
374000.0 577865.0 0
378000.0 577751.0 0
382000.0 577602.0 0
386000.0 577558.0 0
390000.0 577545.0 0
394000.0 577560.0 0
398000.0 577583.0 0
102000.0 581583.0 0
106000.0 581560.0 0
110000.0 581544.0 0
114000.0 581559.0 0
118000.0 581605.0 0
122000.0 581749.0 0
130000.0 581759.0 0
134000.0 581649.0 0
138000.0 581659.0 0
142000.0 581666.0 0
146000.0 581711.0 0
150000.0 581695.0 0
154000.0 581715.0 0
158000.0 581735.0 0
162000.0 581771.0 0
166000.0 581776.0 0
170000.0 581781.0 0
174000.0 581752.0 0
178000.0 581732.0 0
182000.0 581672.0 0
186000.0 581671.0 0
190000.0 581587.0 0
194000.0 581617.0 0
198000.0 581514.0 0
202000.0 581628.0 0
206000.0 581464.0 0
210000.0 581654.0 0
214000.0 581426.0 0
218000.0 581763.0 0
222000.0 581419.0 0
226000.0 581708.0 0
230000.0 581439.0 0
234000.0 581646.0 0
238000.0 581434.0 0
242000.0 581793.0 0
246000.0 581417.0 0
254000.0 581584.0 0
258000.0 581686.0 0
262000.0 581455.0 0
266000.0 581605.0 0
270000.0 581417.0 0
274000.0 581623.0 0
278000.0 581417.0 0
282000.0 581610.0 0
286000.0 581417.0 0
290000.0 581562.0 0
294000.0 581431.0 0
298000.0 581571.0 0
302000.0 581470.0 0
306000.0 581568.0 0
310000.0 581552.0 0
314000.0 581636.0 0
318000.0 581636.0 0
322000.0 581698.0 0
326000.0 581726.0 0
330000.0 581765.0 0
334000.0 581765.0 0
338000.0 581763.0 0
342000.0 581735.0 0
346000.0 581719.0 0
350000.0 581702.0 0
354000.0 581705.0 0
358000.0 581664.0 0
362000.0 581660.0 0
366000.0 581649.0 0
370000.0 581766.0 0
378000.0 581750.0 0
382000.0 581602.0 0
386000.0 581557.0 0
390000.0 581545.0 0
394000.0 581560.0 0
398000.0 581583.0 0
126000.0 581859.0 0
250000.0 581975.0 0
374000.0 581863.0 0
POINT_DATA 4650
SCALARS Radius float 1
LOOKUP_TABLE default
4000.0 4000.0 4000.0 4000.0 4000.0 4000.0 4000.0 4000.0 4000.0 4000.0 4000.0 4000.0 4000.0 4000.0 4000.0 4000.0 4000.0 4000.0 4000.0 4000.0 4000.0 4000.0 4000.0 4000.0 4000.0 4000.0 4000.0 4000.0 4000.0 4000.0 4000.0 4000.0 4000.0 4000.0 4000.0 4000.0 4000.0 4000.0 4000.0 4000.0 4000.0 4000.0 4000.0 4000.0 4000.0 4000.0 4000.0 4000.0 4000.0 4000.0 4000.0 4000.0 4000.0 4000.0 4000.0 4000.0 4000.0 4000.0 4000.0 4000.0 4000.0 4000.0 4000.0 4000.0 4000.0 4000.0 4000.0 4000.0 4000.0 4000.0 4000.0 4000.0 4000.0 4000.0 4000.0 4000.0 4000.0 4000.0 4000.0 4000.0 4000.0 4000.0 4000.0 4000.0 4000.0 4000.0 4000.0 4000.0 4000.0 4000.0 4000.0 4000.0 4000.0 4000.0 4000.0 4000.0 4000.0 4000.0 4000.0 4000.0 4000.0 4000.0 4000.0 4000.0 4000.0 4000.0 4000.0 4000.0 4000.0 4000.0 4000.0 4000.0 4000.0 4000.0 4000.0 4000.0 4000.0 4000.0 4000.0 4000.0 4000.0 4000.0 4000.0 4000.0 4000.0 4000.0 4000.0 4000.0 4000.0 4000.0 4000.0 4000.0 4000.0 4000.0 4000.0 4000.0 4000.0 4000.0 4000.0 4000.0 4000.0 4000.0 4000.0 4000.0 4000.0 4000.0 4000.0 4000.0 4000.0 4000.0 4000.0 4000.0 4000.0 4000.0 4000.0 4000.0 4000.0 4000.0 4000.0 4000.0 4000.0 4000.0 4000.0 4000.0 4000.0 4000.0 4000.0 4000.0 4000.0 4000.0 4000.0 4000.0 4000.0 4000.0 4000.0 4000.0 4000.0 4000.0 4000.0 4000.0 4000.0 4000.0 4000.0 4000.0 4000.0 4000.0 4000.0 4000.0 4000.0 4000.0 4000.0 4000.0 4000.0 4000.0 4000.0 4000.0 4000.0 4000.0 4000.0 4000.0 4000.0 4000.0 4000.0 4000.0 4000.0 4000.0 4000.0 4000.0 4000.0 4000.0 4000.0 4000.0 4000.0 4000.0 4000.0 4000.0 4000.0 4000.0 4000.0 4000.0 4000.0 4000.0 4000.0 4000.0 4000.0 4000.0 4000.0 4000.0 4000.0 4000.0 4000.0 4000.0 4000.0 4000.0 4000.0 4000.0 4000.0 4000.0 4000.0 4000.0 4000.0 4000.0 4000.0 4000.0 4000.0 4000.0 4000.0 4000.0 4000.0 4000.0 4000.0 4000.0 4000.0 4000.0 4000.0 4000.0 4000.0 4000.0 4000.0 4000.0 4000.0 4000.0 4000.0 4000.0 4000.0 4000.0 4000.0 4000.0 4000.0 4000.0 4000.0 4000.0 4000.0 4000.0 4000.0 4000.0 4000.0 4000.0 4000.0 4000.0 4000.0 4000.0 4000.0 4000.0 4000.0 4000.0 4000.0 4000.0 4000.0 4000.0 4000.0 4000.0 4000.0 4000.0 4000.0 4000.0 4000.0 4000.0 4000.0 4000.0 4000.0 4000.0 4000.0 4000.0 4000.0 4000.0 4000.0 4000.0 4000.0 4000.0 4000.0 4000.0 4000.0 4000.0 4000.0 4000.0 4000.0 4000.0 4000.0 4000.0 4000.0 4000.0 4000.0 4000.0 4000.0 4000.0 4000.0 4000.0 4000.0 4000.0 4000.0 4000.0 4000.0 4000.0 4000.0 4000.0 4000.0 4000.0 4000.0 4000.0 4000.0 4000.0 4000.0 4000.0 4000.0 4000.0 4000.0 4000.0 4000.0 4000.0 4000.0 4000.0 4000.0 4000.0 4000.0 4000.0 4000.0 4000.0 4000.0 4000.0 4000.0 4000.0 4000.0 4000.0 4000.0 4000.0 4000.0 4000.0 4000.0 4000.0 4000.0 4000.0 4000.0 4000.0 4000.0 4000.0 4000.0 4000.0 4000.0 4000.0 4000.0 4000.0 4000.0 4000.0 4000.0 4000.0 4000.0 4000.0 4000.0 4000.0 4000.0 4000.0 4000.0 4000.0 4000.0 4000.0 4000.0 4000.0 4000.0 4000.0 4000.0 4000.0 4000.0 4000.0 4000.0 4000.0 4000.0 4000.0 4000.0 4000.0 4000.0 4000.0 4000.0 4000.0 4000.0 4000.0 4000.0 4000.0 4000.0 4000.0 4000.0 4000.0 4000.0 4000.0 4000.0 4000.0 4000.0 4000.0 4000.0 4000.0 4000.0 4000.0 4000.0 4000.0 4000.0 4000.0 4000.0 4000.0 4000.0 4000.0 4000.0 4000.0 4000.0 4000.0 4000.0 4000.0 4000.0 4000.0 4000.0 4000.0 4000.0 4000.0 4000.0 4000.0 4000.0 4000.0 4000.0 4000.0 4000.0 4000.0 4000.0 4000.0 4000.0 4000.0 4000.0 4000.0 4000.0 4000.0 4000.0 4000.0 4000.0 4000.0 4000.0 4000.0 4000.0 4000.0 4000.0 4000.0 4000.0 4000.0 4000.0 4000.0 4000.0 4000.0 4000.0 4000.0 4000.0 4000.0 4000.0 4000.0 4000.0 4000.0 4000.0 4000.0 4000.0 4000.0 4000.0 4000.0 4000.0 4000.0 4000.0 4000.0 4000.0 4000.0 4000.0 4000.0 4000.0 4000.0 4000.0 4000.0 4000.0 4000.0 4000.0 4000.0 4000.0 4000.0 4000.0 4000.0 4000.0 4000.0 4000.0 4000.0 4000.0 4000.0 4000.0 4000.0 4000.0 4000.0 4000.0 4000.0 4000.0 4000.0 4000.0 4000.0 4000.0 4000.0 4000.0 4000.0 4000.0 4000.0 4000.0 4000.0 4000.0 4000.0 4000.0 4000.0 4000.0 4000.0 4000.0 4000.0 4000.0 4000.0 4000.0 4000.0 4000.0 4000.0 4000.0 4000.0 4000.0 4000.0 4000.0 4000.0 4000.0 4000.0 4000.0 4000.0 4000.0 4000.0 4000.0 4000.0 4000.0 4000.0 4000.0 4000.0 4000.0 4000.0 4000.0 4000.0 4000.0 4000.0 4000.0 4000.0 4000.0 4000.0 4000.0 4000.0 4000.0 4000.0 4000.0 4000.0 4000.0 4000.0 4000.0 4000.0 4000.0 4000.0 4000.0 4000.0 4000.0 4000.0 4000.0 4000.0 4000.0 4000.0 4000.0 4000.0 4000.0 4000.0 4000.0 4000.0 4000.0 4000.0 4000.0 4000.0 4000.0 4000.0 4000.0 4000.0 4000.0 4000.0 4000.0 4000.0 4000.0 4000.0 4000.0 4000.0 4000.0 4000.0 4000.0 4000.0 4000.0 4000.0 4000.0 4000.0 4000.0 4000.0 4000.0 4000.0 4000.0 4000.0 4000.0 4000.0 4000.0 4000.0 4000.0 4000.0 4000.0 4000.0 4000.0 4000.0 4000.0 4000.0 4000.0 4000.0 4000.0 4000.0 4000.0 4000.0 4000.0 4000.0 4000.0 4000.0 4000.0 4000.0 4000.0 4000.0 4000.0 4000.0 4000.0 4000.0 4000.0 4000.0 4000.0 4000.0 4000.0 4000.0 4000.0 4000.0 4000.0 4000.0 4000.0 4000.0 4000.0 4000.0 4000.0 4000.0 4000.0 4000.0 4000.0 4000.0 4000.0 4000.0 4000.0 4000.0 4000.0 4000.0 4000.0 4000.0 4000.0 4000.0 4000.0 4000.0 4000.0 4000.0 4000.0 4000.0 4000.0 4000.0 4000.0 4000.0 4000.0 4000.0 4000.0 4000.0 4000.0 4000.0 4000.0 4000.0 4000.0 4000.0 4000.0 4000.0 4000.0 4000.0 4000.0 4000.0 4000.0 4000.0 4000.0 4000.0 4000.0 4000.0 4000.0 4000.0 4000.0 4000.0 4000.0 4000.0 4000.0 4000.0 4000.0 4000.0 4000.0 4000.0 4000.0 4000.0 4000.0 4000.0 4000.0 4000.0 4000.0 4000.0 4000.0 4000.0 4000.0 4000.0 4000.0 4000.0 4000.0 4000.0 4000.0 4000.0 4000.0 4000.0 4000.0 4000.0 4000.0 4000.0 4000.0 4000.0 4000.0 4000.0 4000.0 4000.0 4000.0 4000.0 4000.0 4000.0 4000.0 4000.0 4000.0 4000.0 4000.0 4000.0 4000.0 4000.0 4000.0 4000.0 4000.0 4000.0 4000.0 4000.0 4000.0 4000.0 4000.0 4000.0 4000.0 4000.0 4000.0 4000.0 4000.0 4000.0 4000.0 4000.0 4000.0 4000.0 4000.0 4000.0 4000.0 4000.0 4000.0 4000.0 4000.0 4000.0 4000.0 4000.0 4000.0 4000.0 4000.0 4000.0 4000.0 4000.0 4000.0 4000.0 4000.0 4000.0 4000.0 4000.0 4000.0 4000.0 4000.0 4000.0 4000.0 4000.0 4000.0 4000.0 4000.0 4000.0 4000.0 4000.0 4000.0 4000.0 4000.0 4000.0 4000.0 4000.0 4000.0 4000.0 4000.0 4000.0 4000.0 4000.0 4000.0 4000.0 4000.0 4000.0 4000.0 4000.0 4000.0 4000.0 4000.0 4000.0 4000.0 4000.0 4000.0 4000.0 4000.0 4000.0 4000.0 4000.0 4000.0 4000.0 4000.0 4000.0 4000.0 4000.0 4000.0 4000.0 4000.0 4000.0 4000.0 4000.0 4000.0 4000.0 4000.0 4000.0 4000.0 4000.0 4000.0 4000.0 4000.0 4000.0 4000.0 4000.0 4000.0 4000.0 4000.0 4000.0 4000.0 4000.0 4000.0 4000.0 4000.0 4000.0 4000.0 4000.0 4000.0 4000.0 4000.0 4000.0 4000.0 4000.0 4000.0 4000.0 4000.0 4000.0 4000.0 4000.0 4000.0 4000.0 4000.0 4000.0 4000.0 4000.0 4000.0 4000.0 4000.0 4000.0 4000.0 4000.0 4000.0 4000.0 4000.0 4000.0 4000.0 4000.0 4000.0 4000.0 4000.0 4000.0 4000.0 4000.0 4000.0 4000.0 4000.0 4000.0 4000.0 4000.0 4000.0 4000.0 4000.0 4000.0 4000.0 4000.0 4000.0 4000.0 4000.0 4000.0 4000.0 4000.0 4000.0 4000.0 4000.0 4000.0 4000.0 4000.0 4000.0 4000.0 4000.0 4000.0 4000.0 4000.0 4000.0 4000.0 4000.0 4000.0 4000.0 4000.0 4000.0 4000.0 4000.0 4000.0 4000.0 4000.0 4000.0 4000.0 4000.0 4000.0 4000.0 4000.0 4000.0 4000.0 4000.0 4000.0 4000.0 4000.0 4000.0 4000.0 4000.0 4000.0 4000.0 4000.0 4000.0 4000.0 4000.0 4000.0 4000.0 4000.0 4000.0 4000.0 4000.0 4000.0 4000.0 4000.0 4000.0 4000.0 4000.0 4000.0 4000.0 4000.0 4000.0 4000.0 4000.0 4000.0 4000.0 4000.0 4000.0 4000.0 4000.0 4000.0 4000.0 4000.0 4000.0 4000.0 4000.0 4000.0 4000.0 4000.0 4000.0 4000.0 4000.0 4000.0 4000.0 4000.0 4000.0 4000.0 4000.0 4000.0 4000.0 4000.0 4000.0 4000.0 4000.0 4000.0 4000.0 4000.0 4000.0 4000.0 4000.0 4000.0 4000.0 4000.0 4000.0 4000.0 4000.0 4000.0 4000.0 4000.0 4000.0 4000.0 4000.0 4000.0 4000.0 4000.0 4000.0 4000.0 4000.0 4000.0 4000.0 4000.0 4000.0 4000.0 4000.0 4000.0 4000.0 4000.0 4000.0 4000.0 4000.0 4000.0 4000.0 4000.0 4000.0 4000.0 4000.0 4000.0 4000.0 4000.0 4000.0 4000.0 4000.0 4000.0 4000.0 4000.0 4000.0 4000.0 4000.0 4000.0 4000.0 4000.0 4000.0 4000.0 4000.0 4000.0 4000.0 4000.0 4000.0 4000.0 4000.0 4000.0 4000.0 4000.0 4000.0 4000.0 4000.0 4000.0 4000.0 4000.0 4000.0 4000.0 4000.0 4000.0 4000.0 4000.0 4000.0 4000.0 4000.0 4000.0 4000.0 4000.0 4000.0 4000.0 4000.0 4000.0 4000.0 4000.0 4000.0 4000.0 4000.0 4000.0 4000.0 4000.0 4000.0 4000.0 4000.0 4000.0 4000.0 4000.0 4000.0 4000.0 4000.0 4000.0 4000.0 4000.0 4000.0 4000.0 4000.0 4000.0 4000.0 4000.0 4000.0 4000.0 4000.0 4000.0 4000.0 4000.0 4000.0 4000.0 4000.0 4000.0 4000.0 4000.0 4000.0 4000.0 4000.0 4000.0 4000.0 4000.0 4000.0 4000.0 4000.0 4000.0 4000.0 4000.0 4000.0 4000.0 4000.0 4000.0 4000.0 4000.0 4000.0 4000.0 4000.0 4000.0 4000.0 4000.0 4000.0 4000.0 4000.0 4000.0 4000.0 4000.0 4000.0 4000.0 4000.0 4000.0 4000.0 4000.0 4000.0 4000.0 4000.0 4000.0 4000.0 4000.0 4000.0 4000.0 4000.0 4000.0 4000.0 4000.0 4000.0 4000.0 4000.0 4000.0 4000.0 4000.0 4000.0 4000.0 4000.0 4000.0 4000.0 4000.0 4000.0 4000.0 4000.0 4000.0 4000.0 4000.0 4000.0 4000.0 4000.0 4000.0 4000.0 4000.0 4000.0 4000.0 4000.0 4000.0 4000.0 4000.0 4000.0 4000.0 4000.0 4000.0 4000.0 4000.0 4000.0 4000.0 4000.0 4000.0 4000.0 4000.0 4000.0 4000.0 4000.0 4000.0 4000.0 4000.0 4000.0 4000.0 4000.0 4000.0 4000.0 4000.0 4000.0 4000.0 4000.0 4000.0 4000.0 4000.0 4000.0 4000.0 4000.0 4000.0 4000.0 4000.0 4000.0 4000.0 4000.0 4000.0 4000.0 4000.0 4000.0 4000.0 4000.0 4000.0 4000.0 4000.0 4000.0 4000.0 4000.0 4000.0 4000.0 4000.0 4000.0 4000.0 4000.0 4000.0 4000.0 4000.0 4000.0 4000.0 4000.0 4000.0 4000.0 4000.0 4000.0 4000.0 4000.0 4000.0 4000.0 4000.0 4000.0 4000.0 4000.0 4000.0 4000.0 4000.0 4000.0 4000.0 4000.0 4000.0 4000.0 4000.0 4000.0 4000.0 4000.0 4000.0 4000.0 4000.0 4000.0 4000.0 4000.0 4000.0 4000.0 4000.0 4000.0 4000.0 4000.0 4000.0 4000.0 4000.0 4000.0 4000.0 4000.0 4000.0 4000.0 4000.0 4000.0 4000.0 4000.0 4000.0 4000.0 4000.0 4000.0 4000.0 4000.0 4000.0 4000.0 4000.0 4000.0 4000.0 4000.0 4000.0 4000.0 4000.0 4000.0 4000.0 4000.0 4000.0 4000.0 4000.0 4000.0 4000.0 4000.0 4000.0 4000.0 4000.0 4000.0 4000.0 4000.0 4000.0 4000.0 4000.0 4000.0 4000.0 4000.0 4000.0 4000.0 4000.0 4000.0 4000.0 4000.0 4000.0 4000.0 4000.0 4000.0 4000.0 4000.0 4000.0 4000.0 4000.0 4000.0 4000.0 4000.0 4000.0 4000.0 4000.0 4000.0 4000.0 4000.0 4000.0 4000.0 4000.0 4000.0 4000.0 4000.0 4000.0 4000.0 4000.0 4000.0 4000.0 4000.0 4000.0 4000.0 4000.0 4000.0 4000.0 4000.0 4000.0 4000.0 4000.0 4000.0 4000.0 4000.0 4000.0 4000.0 4000.0 4000.0 4000.0 4000.0 4000.0 4000.0 4000.0 4000.0 4000.0 4000.0 4000.0 4000.0 4000.0 4000.0 4000.0 4000.0 4000.0 4000.0 4000.0 4000.0 4000.0 4000.0 4000.0 4000.0 4000.0 4000.0 4000.0 4000.0 4000.0 4000.0 4000.0 4000.0 4000.0 4000.0 4000.0 4000.0 4000.0 4000.0 4000.0 4000.0 4000.0 4000.0 4000.0 4000.0 4000.0 4000.0 4000.0 4000.0 4000.0 4000.0 4000.0 4000.0 4000.0 4000.0 4000.0 4000.0 4000.0 4000.0 4000.0 4000.0 4000.0 4000.0 4000.0 4000.0 4000.0 4000.0 4000.0 4000.0 4000.0 4000.0 4000.0 4000.0 4000.0 4000.0 4000.0 4000.0 4000.0 4000.0 4000.0 4000.0 4000.0 4000.0 4000.0 4000.0 4000.0 4000.0 4000.0 4000.0 4000.0 4000.0 4000.0 4000.0 4000.0 4000.0 4000.0 4000.0 4000.0 4000.0 4000.0 4000.0 4000.0 4000.0 4000.0 4000.0 4000.0 4000.0 4000.0 4000.0 4000.0 4000.0 4000.0 4000.0 4000.0 4000.0 4000.0 4000.0 4000.0 4000.0 4000.0 4000.0 4000.0 4000.0 4000.0 4000.0 4000.0 4000.0 4000.0 4000.0 4000.0 4000.0 4000.0 4000.0 4000.0 4000.0 4000.0 4000.0 4000.0 4000.0 4000.0 4000.0 4000.0 4000.0 4000.0 4000.0 4000.0 4000.0 4000.0 4000.0 4000.0 4000.0 4000.0 4000.0 4000.0 4000.0 4000.0 4000.0 4000.0 4000.0 4000.0 4000.0 4000.0 4000.0 4000.0 4000.0 4000.0 4000.0 4000.0 4000.0 4000.0 4000.0 4000.0 4000.0 4000.0 4000.0 4000.0 4000.0 4000.0 4000.0 4000.0 4000.0 4000.0 4000.0 4000.0 4000.0 4000.0 4000.0 4000.0 4000.0 4000.0 4000.0 4000.0 4000.0 4000.0 4000.0 4000.0 4000.0 4000.0 4000.0 4000.0 4000.0 4000.0 4000.0 4000.0 4000.0 4000.0 4000.0 4000.0 4000.0 4000.0 4000.0 4000.0 4000.0 4000.0 4000.0 4000.0 4000.0 4000.0 4000.0 4000.0 4000.0 4000.0 4000.0 4000.0 4000.0 4000.0 4000.0 4000.0 4000.0 4000.0 4000.0 4000.0 4000.0 4000.0 4000.0 4000.0 4000.0 4000.0 4000.0 4000.0 4000.0 4000.0 4000.0 4000.0 4000.0 4000.0 4000.0 4000.0 4000.0 4000.0 4000.0 4000.0 4000.0 4000.0 4000.0 4000.0 4000.0 4000.0 4000.0 4000.0 4000.0 4000.0 4000.0 4000.0 4000.0 4000.0 4000.0 4000.0 4000.0 4000.0 4000.0 4000.0 4000.0 4000.0 4000.0 4000.0 4000.0 4000.0 4000.0 4000.0 4000.0 4000.0 4000.0 4000.0 4000.0 4000.0 4000.0 4000.0 4000.0 4000.0 4000.0 4000.0 4000.0 4000.0 4000.0 4000.0 4000.0 4000.0 4000.0 4000.0 4000.0 4000.0 4000.0 4000.0 4000.0 4000.0 4000.0 4000.0 4000.0 4000.0 4000.0 4000.0 4000.0 4000.0 4000.0 4000.0 4000.0 4000.0 4000.0 4000.0 4000.0 4000.0 4000.0 4000.0 4000.0 4000.0 4000.0 4000.0 4000.0 4000.0 4000.0 4000.0 4000.0 4000.0 4000.0 4000.0 4000.0 4000.0 4000.0 4000.0 4000.0 4000.0 4000.0 4000.0 4000.0 4000.0 4000.0 4000.0 4000.0 4000.0 4000.0 4000.0 4000.0 4000.0 4000.0 4000.0 4000.0 4000.0 4000.0 4000.0 4000.0 4000.0 4000.0 4000.0 4000.0 4000.0 4000.0 4000.0 4000.0 4000.0 4000.0 4000.0 4000.0 4000.0 4000.0 4000.0 4000.0 4000.0 4000.0 4000.0 4000.0 4000.0 4000.0 4000.0 4000.0 4000.0 4000.0 4000.0 4000.0 4000.0 4000.0 4000.0 4000.0 4000.0 4000.0 4000.0 4000.0 4000.0 4000.0 4000.0 4000.0 4000.0 4000.0 4000.0 4000.0 4000.0 4000.0 4000.0 4000.0 4000.0 4000.0 4000.0 4000.0 4000.0 4000.0 4000.0 4000.0 4000.0 4000.0 4000.0 4000.0 4000.0 4000.0 4000.0 4000.0 4000.0 4000.0 4000.0 4000.0 4000.0 4000.0 4000.0 4000.0 4000.0 4000.0 4000.0 4000.0 4000.0 4000.0 4000.0 4000.0 4000.0 4000.0 4000.0 4000.0 4000.0 4000.0 4000.0 4000.0 4000.0 4000.0 4000.0 4000.0 4000.0 4000.0 4000.0 4000.0 4000.0 4000.0 4000.0 4000.0 4000.0 4000.0 4000.0 4000.0 4000.0 4000.0 4000.0 4000.0 4000.0 4000.0 4000.0 4000.0 4000.0 4000.0 4000.0 4000.0 4000.0 4000.0 4000.0 4000.0 4000.0 4000.0 4000.0 4000.0 4000.0 4000.0 4000.0 4000.0 4000.0 4000.0 4000.0 4000.0 4000.0 4000.0 4000.0 4000.0 4000.0 4000.0 4000.0 4000.0 4000.0 4000.0 4000.0 4000.0 4000.0 4000.0 4000.0 4000.0 4000.0 4000.0 4000.0 4000.0 4000.0 4000.0 4000.0 4000.0 4000.0 4000.0 4000.0 4000.0 4000.0 4000.0 4000.0 4000.0 4000.0 4000.0 4000.0 4000.0 4000.0 4000.0 4000.0 4000.0 4000.0 4000.0 4000.0 4000.0 4000.0 4000.0 4000.0 4000.0 4000.0 4000.0 4000.0 4000.0 4000.0 4000.0 4000.0 4000.0 4000.0 4000.0 4000.0 4000.0 4000.0 4000.0 4000.0 4000.0 4000.0 4000.0 4000.0 4000.0 4000.0 4000.0 4000.0 4000.0 4000.0 4000.0 4000.0 4000.0 4000.0 4000.0 4000.0 4000.0 4000.0 4000.0 4000.0 4000.0 4000.0 4000.0 4000.0 4000.0 4000.0 4000.0 4000.0 4000.0 4000.0 4000.0 4000.0 4000.0 4000.0 4000.0 4000.0 4000.0 4000.0 4000.0 4000.0 4000.0 4000.0 4000.0 4000.0 4000.0 4000.0 4000.0 4000.0 4000.0 4000.0 4000.0 4000.0 4000.0 4000.0 4000.0 4000.0 4000.0 4000.0 4000.0 4000.0 4000.0 4000.0 4000.0 4000.0 4000.0 4000.0 4000.0 4000.0 4000.0 4000.0 4000.0 4000.0 4000.0 4000.0 4000.0 4000.0 4000.0 4000.0 4000.0 4000.0 4000.0 4000.0 4000.0 4000.0 4000.0 4000.0 4000.0 4000.0 4000.0 4000.0 4000.0 4000.0 4000.0 4000.0 4000.0 4000.0 4000.0 4000.0 4000.0 4000.0 4000.0 4000.0 4000.0 4000.0 4000.0 4000.0 4000.0 4000.0 4000.0 4000.0 4000.0 4000.0 4000.0 4000.0 4000.0 4000.0 4000.0 4000.0 4000.0 4000.0 4000.0 4000.0 4000.0 4000.0 4000.0 4000.0 4000.0 4000.0 4000.0 4000.0 4000.0 4000.0 4000.0 4000.0 4000.0 4000.0 4000.0 4000.0 4000.0 4000.0 4000.0 4000.0 4000.0 4000.0 4000.0 4000.0 4000.0 4000.0 4000.0 4000.0 4000.0 4000.0 4000.0 4000.0 4000.0 4000.0 4000.0 4000.0 4000.0 4000.0 4000.0 4000.0 4000.0 4000.0 4000.0 4000.0 4000.0 4000.0 4000.0 4000.0 4000.0 4000.0 4000.0 4000.0 4000.0 4000.0 4000.0 4000.0 4000.0 4000.0 4000.0 4000.0 4000.0 4000.0 4000.0 4000.0 4000.0 4000.0 4000.0 4000.0 4000.0 4000.0 4000.0 4000.0 4000.0 4000.0 4000.0 4000.0 4000.0 4000.0 4000.0 4000.0 4000.0 4000.0 4000.0 4000.0 4000.0 4000.0 4000.0 4000.0 4000.0 4000.0 4000.0 4000.0 4000.0 4000.0 4000.0 4000.0 4000.0 4000.0 4000.0 4000.0 4000.0 4000.0 4000.0 4000.0 4000.0 4000.0 4000.0 4000.0 4000.0 4000.0 4000.0 4000.0 4000.0 4000.0 4000.0 4000.0 4000.0 4000.0 4000.0 4000.0 4000.0 4000.0 4000.0 4000.0 4000.0 4000.0 4000.0 4000.0 4000.0 4000.0 4000.0 4000.0 4000.0 4000.0 4000.0 4000.0 4000.0 4000.0 4000.0 4000.0 4000.0 4000.0 4000.0 4000.0 4000.0 4000.0 4000.0 4000.0 4000.0 4000.0 4000.0 4000.0 4000.0 4000.0 4000.0 4000.0 4000.0 4000.0 4000.0 4000.0 4000.0 4000.0 4000.0 4000.0 4000.0 4000.0 4000.0 4000.0 4000.0 4000.0 4000.0 4000.0 4000.0 4000.0 4000.0 4000.0 4000.0 4000.0 4000.0 4000.0 4000.0 4000.0 4000.0 4000.0 4000.0 4000.0 4000.0 4000.0 4000.0 4000.0 4000.0 4000.0 4000.0 4000.0 4000.0 4000.0 4000.0 4000.0 4000.0 4000.0 4000.0 4000.0 4000.0 4000.0 4000.0 4000.0 4000.0 4000.0 4000.0 4000.0 4000.0 4000.0 4000.0 4000.0 4000.0 4000.0 4000.0 4000.0 4000.0 4000.0 4000.0 4000.0 4000.0 4000.0 4000.0 4000.0 4000.0 4000.0 4000.0 4000.0 4000.0 4000.0 4000.0 4000.0 4000.0 4000.0 4000.0 4000.0 4000.0 4000.0 4000.0 4000.0 4000.0 4000.0 4000.0 4000.0 4000.0 4000.0 4000.0 4000.0 4000.0 4000.0 4000.0 4000.0 4000.0 4000.0 4000.0 4000.0 4000.0 4000.0 4000.0 4000.0 4000.0 4000.0 4000.0 4000.0 4000.0 4000.0 4000.0 4000.0 4000.0 4000.0 4000.0 4000.0 4000.0 4000.0 4000.0 4000.0 4000.0 4000.0 4000.0 4000.0 4000.0 4000.0 4000.0 4000.0 4000.0 4000.0 4000.0 4000.0 4000.0 4000.0 4000.0 4000.0 4000.0 4000.0 4000.0 4000.0 4000.0 4000.0 4000.0 4000.0 4000.0 4000.0 4000.0 4000.0 4000.0 4000.0 4000.0 4000.0 4000.0 4000.0 4000.0 4000.0 4000.0 4000.0 4000.0 4000.0 4000.0 4000.0 4000.0 4000.0 4000.0 4000.0 4000.0 4000.0 4000.0 4000.0 4000.0 4000.0 4000.0 4000.0 4000.0 4000.0 4000.0 4000.0 4000.0 4000.0 4000.0 4000.0 4000.0 4000.0 4000.0 4000.0 4000.0 4000.0 4000.0 4000.0 4000.0 4000.0 4000.0 4000.0 4000.0 4000.0 4000.0 4000.0 4000.0 4000.0 4000.0 4000.0 4000.0 4000.0 4000.0 4000.0 4000.0 4000.0 4000.0 4000.0 4000.0 4000.0 4000.0 4000.0 4000.0 4000.0 4000.0 4000.0 4000.0 4000.0 4000.0 4000.0 4000.0 4000.0 4000.0 4000.0 4000.0 4000.0 4000.0 4000.0 4000.0 4000.0 4000.0 4000.0 4000.0 4000.0 4000.0 4000.0 4000.0 4000.0 4000.0 4000.0 4000.0 4000.0 4000.0 4000.0 4000.0 4000.0 4000.0 4000.0 4000.0 4000.0 4000.0 4000.0 4000.0 4000.0 4000.0 4000.0 4000.0 4000.0 4000.0 4000.0 4000.0 4000.0 4000.0 4000.0 4000.0 4000.0 4000.0 4000.0 4000.0 4000.0 4000.0 4000.0 4000.0 4000.0 4000.0 4000.0 4000.0 4000.0 4000.0 4000.0 4000.0 4000.0 4000.0 4000.0 4000.0 4000.0 4000.0 4000.0 4000.0 4000.0 4000.0 4000.0 4000.0 4000.0 4000.0 4000.0 4000.0 4000.0 4000.0 4000.0 4000.0 4000.0 4000.0 4000.0 4000.0 4000.0 4000.0 4000.0 4000.0 4000.0 4000.0 4000.0 4000.0 4000.0 4000.0 4000.0 4000.0 4000.0 4000.0 4000.0 4000.0 4000.0 4000.0 4000.0 4000.0 4000.0 4000.0 4000.0 4000.0 4000.0 4000.0 4000.0 4000.0 4000.0 4000.0 4000.0 4000.0 4000.0 4000.0 4000.0 4000.0 4000.0 4000.0 4000.0 4000.0 4000.0 4000.0 4000.0 4000.0 4000.0 4000.0 4000.0 4000.0 4000.0 4000.0 4000.0 4000.0 4000.0 4000.0 4000.0 4000.0 4000.0 4000.0 4000.0 4000.0 4000.0 4000.0 4000.0 4000.0 4000.0 4000.0 4000.0 4000.0 4000.0 4000.0 4000.0 4000.0 4000.0 4000.0 4000.0 4000.0 4000.0 4000.0 4000.0 4000.0 4000.0 4000.0 4000.0 4000.0 4000.0 4000.0 4000.0 4000.0 4000.0 4000.0 4000.0 4000.0 4000.0 4000.0 4000.0 4000.0 4000.0 4000.0 4000.0 4000.0 4000.0 4000.0 4000.0 4000.0 4000.0 4000.0 4000.0 4000.0 4000.0 4000.0 4000.0 4000.0 4000.0 4000.0 4000.0 4000.0 4000.0 4000.0 4000.0 4000.0 4000.0 4000.0 4000.0 4000.0 4000.0 4000.0 4000.0 4000.0 4000.0 4000.0 4000.0 4000.0 4000.0 4000.0 4000.0 4000.0 4000.0 4000.0 4000.0 4000.0 4000.0 4000.0 4000.0 4000.0 4000.0 4000.0 4000.0 4000.0 4000.0 4000.0 4000.0 4000.0 4000.0 4000.0 4000.0 4000.0 4000.0 4000.0 4000.0 4000.0 4000.0 4000.0 4000.0 4000.0 4000.0 4000.0 4000.0 4000.0 4000.0 4000.0 4000.0 4000.0 4000.0 4000.0 4000.0 4000.0 4000.0 4000.0 4000.0 4000.0 4000.0 4000.0 4000.0 4000.0 4000.0 4000.0 4000.0 4000.0 4000.0 4000.0 4000.0 4000.0 4000.0 4000.0 4000.0 4000.0 4000.0 4000.0 4000.0 4000.0 4000.0 4000.0 4000.0 4000.0 4000.0 4000.0 4000.0 4000.0 4000.0 4000.0 4000.0 4000.0 4000.0 4000.0 4000.0 4000.0 4000.0 4000.0 4000.0 4000.0 4000.0 4000.0 4000.0 4000.0 4000.0 4000.0 4000.0 4000.0 4000.0 4000.0 4000.0 4000.0 4000.0 4000.0 4000.0 4000.0 4000.0 4000.0 4000.0 4000.0 4000.0 4000.0 4000.0 4000.0 4000.0 4000.0 4000.0 4000.0 4000.0 4000.0 4000.0 4000.0 4000.0 4000.0 4000.0 4000.0 4000.0 4000.0 4000.0 4000.0 4000.0 4000.0 4000.0 4000.0 4000.0 4000.0 4000.0 4000.0 4000.0 4000.0 4000.0 4000.0 4000.0 4000.0 4000.0 4000.0 4000.0 4000.0 4000.0 4000.0 4000.0 4000.0 4000.0 4000.0 4000.0 4000.0 4000.0 4000.0 4000.0 4000.0 4000.0 4000.0 4000.0 4000.0 4000.0 4000.0 4000.0 4000.0 4000.0 4000.0 4000.0 4000.0 4000.0 4000.0 4000.0 4000.0 4000.0 4000.0 4000.0 4000.0 4000.0 4000.0 4000.0 4000.0 4000.0 4000.0 4000.0 4000.0 4000.0 4000.0 4000.0 4000.0 4000.0 4000.0 4000.0 4000.0 4000.0 4000.0 4000.0 4000.0 4000.0 4000.0 4000.0 4000.0 4000.0 4000.0 4000.0 4000.0 4000.0 4000.0 4000.0 4000.0 4000.0 4000.0 4000.0 4000.0 4000.0 4000.0 4000.0 4000.0 4000.0 4000.0 4000.0 4000.0 4000.0 4000.0 4000.0 4000.0 4000.0 4000.0 4000.0 4000.0 4000.0 4000.0 4000.0 4000.0 4000.0 4000.0 4000.0 4000.0 4000.0 4000.0 4000.0 4000.0 4000.0 4000.0 4000.0 4000.0 4000.0 4000.0 4000.0 4000.0 4000.0 4000.0 4000.0 4000.0 4000.0 4000.0 4000.0 4000.0 4000.0 4000.0 4000.0 4000.0 4000.0 4000.0 4000.0 4000.0 4000.0 4000.0 4000.0 4000.0 4000.0 4000.0 4000.0 4000.0 4000.0 4000.0 4000.0 4000.0 4000.0 4000.0 4000.0 4000.0 4000.0 4000.0 4000.0 4000.0 4000.0 4000.0 4000.0 4000.0 4000.0 4000.0 4000.0 4000.0 4000.0 4000.0 4000.0 4000.0 4000.0 4000.0 4000.0 4000.0 4000.0 4000.0 4000.0 4000.0 4000.0 4000.0 4000.0 4000.0 4000.0 4000.0 4000.0 4000.0 4000.0 4000.0 4000.0 4000.0 4000.0 4000.0 4000.0 4000.0 4000.0 4000.0 4000.0 4000.0 4000.0 4000.0 4000.0 4000.0 4000.0 4000.0 4000.0 4000.0 4000.0 4000.0 4000.0 4000.0 4000.0 4000.0 4000.0 4000.0 4000.0 4000.0 4000.0 4000.0 4000.0 4000.0 4000.0 4000.0 4000.0 4000.0 4000.0 4000.0 4000.0 4000.0 4000.0 4000.0 4000.0 4000.0 4000.0 4000.0 4000.0 4000.0 4000.0 4000.0 4000.0 4000.0 4000.0 4000.0 4000.0 4000.0 4000.0 4000.0 4000.0 4000.0 4000.0 4000.0 4000.0 4000.0 4000.0 4000.0 4000.0 4000.0 4000.0 4000.0 4000.0 4000.0 4000.0 4000.0 4000.0 4000.0 4000.0 4000.0 4000.0 4000.0 4000.0 4000.0 4000.0 4000.0 4000.0 4000.0 4000.0 4000.0 4000.0 4000.0 4000.0 4000.0 4000.0 4000.0 4000.0 4000.0 4000.0 4000.0 4000.0 4000.0 4000.0 4000.0 4000.0 4000.0 4000.0 4000.0 4000.0 4000.0 4000.0 4000.0 4000.0 4000.0 4000.0 4000.0 4000.0 4000.0 4000.0 4000.0 4000.0 4000.0 4000.0 4000.0 4000.0 4000.0 4000.0 4000.0 4000.0 4000.0 4000.0 4000.0 4000.0 4000.0 4000.0 4000.0 4000.0 4000.0 4000.0 4000.0 4000.0 4000.0 4000.0 4000.0 4000.0 4000.0 4000.0 4000.0 4000.0 4000.0 4000.0 4000.0 4000.0 4000.0 4000.0 4000.0 4000.0 4000.0 4000.0 4000.0 4000.0 4000.0 4000.0 4000.0 4000.0 4000.0 4000.0 4000.0 4000.0 4000.0 4000.0 4000.0 4000.0 4000.0 4000.0 4000.0 4000.0 4000.0 4000.0 4000.0 4000.0 4000.0 4000.0 4000.0 4000.0 4000.0 4000.0 4000.0 4000.0 4000.0 4000.0 4000.0 4000.0 4000.0 4000.0 4000.0 4000.0 4000.0 4000.0 4000.0 4000.0 4000.0 4000.0 4000.0 4000.0 4000.0 4000.0 4000.0 4000.0 4000.0 4000.0 4000.0 4000.0 4000.0 4000.0 4000.0 4000.0 4000.0 4000.0 4000.0 4000.0 4000.0 4000.0 4000.0 4000.0 4000.0 4000.0 4000.0 4000.0 4000.0 4000.0 4000.0 4000.0 4000.0 4000.0 4000.0 4000.0 4000.0 4000.0 4000.0 4000.0 4000.0 4000.0 4000.0 4000.0 4000.0 4000.0 4000.0 4000.0 4000.0 4000.0 4000.0 4000.0 4000.0 4000.0 4000.0 4000.0 4000.0 4000.0 4000.0 4000.0 4000.0 4000.0 4000.0 4000.0 4000.0 4000.0 4000.0 4000.0 4000.0 4000.0 4000.0 4000.0 4000.0 4000.0 4000.0 4000.0 4000.0 4000.0 4000.0 4000.0 4000.0 4000.0 4000.0 4000.0 4000.0 4000.0 4000.0 4000.0 4000.0 4000.0 4000.0 4000.0 4000.0 4000.0 4000.0 4000.0 4000.0 4000.0 4000.0 4000.0 4000.0 4000.0 4000.0 4000.0 4000.0 4000.0 4000.0 4000.0 4000.0 4000.0 4000.0 4000.0 4000.0 4000.0 4000.0 4000.0 4000.0 4000.0 4000.0 4000.0 4000.0 4000.0 4000.0 4000.0 4000.0 4000.0 4000.0 4000.0 4000.0 4000.0 4000.0 4000.0 4000.0 4000.0 4000.0 4000.0 4000.0 4000.0 4000.0 4000.0 4000.0 4000.0 4000.0 4000.0 4000.0 4000.0 4000.0 4000.0 4000.0 4000.0 4000.0 4000.0 4000.0 4000.0 4000.0 4000.0 4000.0 4000.0 4000.0 4000.0 4000.0 4000.0 4000.0 4000.0 4000.0 4000.0 4000.0 4000.0 4000.0 4000.0 4000.0 4000.0 4000.0 4000.0 4000.0 4000.0 4000.0 4000.0 4000.0 4000.0 4000.0 4000.0 4000.0 4000.0 4000.0 4000.0 4000.0 4000.0 4000.0 4000.0 4000.0 4000.0 4000.0 4000.0 4000.0 4000.0 4000.0 4000.0 4000.0 4000.0 4000.0 4000.0 4000.0 4000.0 4000.0 4000.0 4000.0 4000.0 4000.0 4000.0 4000.0 4000.0 4000.0 4000.0 4000.0 4000.0 4000.0 4000.0 4000.0 4000.0 4000.0 4000.0 4000.0 4000.0 4000.0 4000.0 4000.0 4000.0 4000.0 4000.0 4000.0 4000.0 4000.0 4000.0 4000.0 4000.0 4000.0 4000.0 4000.0 4000.0 4000.0 4000.0 4000.0 4000.0 4000.0 4000.0 4000.0 4000.0 4000.0 4000.0 4000.0 4000.0 4000.0 4000.0 4000.0 4000.0 4000.0 4000.0 4000.0 4000.0 4000.0 4000.0 4000.0 4000.0 4000.0 4000.0 4000.0 4000.0 4000.0 4000.0 4000.0 4000.0 4000.0 4000.0 4000.0 4000.0 4000.0 4000.0 4000.0 4000.0 4000.0 4000.0 4000.0 4000.0 4000.0 4000.0 4000.0 4000.0 4000.0 4000.0 4000.0 4000.0 4000.0 4000.0 4000.0 4000.0 4000.0 4000.0 4000.0 4000.0 4000.0 4000.0 4000.0 4000.0 4000.0 4000.0 4000.0 4000.0 4000.0 4000.0 4000.0 4000.0 4000.0 4000.0 4000.0 4000.0 4000.0 4000.0 4000.0 4000.0 4000.0 4000.0 4000.0 4000.0 4000.0 4000.0 4000.0 4000.0 4000.0 4000.0 4000.0 4000.0 4000.0 4000.0 4000.0 4000.0 4000.0 4000.0 4000.0 4000.0 4000.0 4000.0 4000.0 4000.0 4000.0 4000.0 4000.0 4000.0 4000.0 4000.0 4000.0 4000.0 4000.0 4000.0 4000.0 4000.0 4000.0 4000.0 4000.0 4000.0 4000.0 4000.0 4000.0 4000.0 4000.0 4000.0 4000.0 4000.0 4000.0 4000.0 4000.0 4000.0 4000.0 4000.0 4000.0 4000.0 4000.0 4000.0 4000.0 4000.0 4000.0 4000.0 4000.0 4000.0 4000.0 4000.0 4000.0 4000.0 4000.0 4000.0 4000.0 4000.0 4000.0 4000.0 4000.0 4000.0 4000.0 4000.0 4000.0 4000.0 4000.0 4000.0 4000.0 4000.0 4000.0 4000.0 4000.0 4000.0 4000.0 4000.0 4000.0 4000.0 4000.0 4000.0 4000.0 4000.0 4000.0 4000.0 4000.0 4000.0 4000.0 4000.0 4000.0 4000.0 4000.0 4000.0 4000.0 4000.0 4000.0 4000.0 4000.0 4000.0 4000.0 4000.0 4000.0 4000.0 4000.0 4000.0 4000.0 4000.0 4000.0 4000.0 4000.0 4000.0 4000.0 4000.0 4000.0 4000.0 4000.0 4000.0 4000.0 4000.0 4000.0 4000.0 4000.0 4000.0 4000.0 4000.0 4000.0 4000.0 4000.0 4000.0 4000.0 4000.0 4000.0 4000.0 4000.0 4000.0 4000.0 4000.0 4000.0 4000.0 4000.0 4000.0 4000.0 4000.0 4000.0 4000.0 4000.0 4000.0 4000.0 4000.0 4000.0 4000.0 4000.0 4000.0 4000.0 4000.0 4000.0 4000.0 4000.0 4000.0 4000.0 4000.0 4000.0 4000.0 4000.0 4000.0 4000.0 4000.0 4000.0 4000.0 4000.0 4000.0 4000.0 4000.0 4000.0 4000.0 4000.0 4000.0 4000.0 4000.0 4000.0 4000.0 4000.0 4000.0 4000.0 4000.0 4000.0 4000.0 4000.0 4000.0 4000.0 4000.0 4000.0 4000.0 4000.0 4000.0 4000.0 4000.0 4000.0 4000.0 4000.0 4000.0 4000.0 4000.0 4000.0 4000.0 4000.0 4000.0 4000.0 4000.0 4000.0 4000.0 4000.0 4000.0 4000.0 4000.0 4000.0 4000.0 4000.0 4000.0 4000.0 4000.0 4000.0 4000.0 4000.0 4000.0 4000.0 4000.0 4000.0 4000.0 4000.0 4000.0 4000.0 4000.0 4000.0 4000.0 4000.0 4000.0 4000.0 4000.0 4000.0 4000.0 4000.0 4000.0 4000.0 4000.0 4000.0 4000.0 4000.0 4000.0 4000.0 4000.0 4000.0 4000.0 4000.0 4000.0 4000.0 4000.0 4000.0 4000.0 4000.0 4000.0 4000.0 4000.0 4000.0 4000.0 4000.0 4000.0 4000.0 4000.0 4000.0 4000.0 4000.0 4000.0 4000.0 4000.0 4000.0 4000.0 4000.0 4000.0 4000.0 4000.0 4000.0 4000.0 4000.0 4000.0 4000.0 4000.0 4000.0 4000.0 4000.0 4000.0 4000.0 4000.0 4000.0 4000.0 4000.0 4000.0 4000.0 4000.0 4000.0 4000.0 4000.0 4000.0 4000.0 4000.0 4000.0 4000.0 4000.0 4000.0 4000.0 4000.0 4000.0 4000.0 4000.0 4000.0 4000.0 4000.0 4000.0 4000.0 4000.0 4000.0 4000.0 4000.0 4000.0 4000.0 4000.0 4000.0 4000.0 4000.0 4000.0 4000.0 4000.0 4000.0 4000.0 4000.0 4000.0 4000.0 4000.0 4000.0 4000.0 4000.0 4000.0 4000.0 4000.0 4000.0 4000.0 4000.0 4000.0 4000.0 4000.0 4000.0 4000.0 4000.0 4000.0 4000.0 4000.0 4000.0 4000.0 4000.0 4000.0 4000.0 4000.0 4000.0 4000.0 4000.0 4000.0 4000.0 4000.0 4000.0 4000.0 4000.0 4000.0 4000.0 4000.0 4000.0 4000.0 4000.0 4000.0 4000.0 4000.0 4000.0 4000.0 4000.0 4000.0 4000.0 4000.0 4000.0 4000.0 4000.0 4000.0 4000.0 4000.0 4000.0 4000.0 4000.0 4000.0 4000.0 4000.0 4000.0 4000.0 4000.0 4000.0 4000.0 4000.0 4000.0 4000.0 4000.0 4000.0 4000.0 4000.0 4000.0 4000.0 4000.0 4000.0 4000.0 4000.0 4000.0 4000.0 4000.0 4000.0 4000.0 4000.0 4000.0 4000.0 4000.0 4000.0 4000.0 4000.0 4000.0 4000.0 4000.0 4000.0 4000.0 4000.0 4000.0 4000.0 4000.0 4000.0 4000.0 4000.0 4000.0 4000.0 4000.0 4000.0 4000.0 4000.0 4000.0 4000.0 4000.0 4000.0 4000.0 4000.0 4000.0 4000.0 4000.0 4000.0 4000.0 4000.0 4000.0 4000.0 4000.0 4000.0 4000.0 4000.0 4000.0 4000.0 4000.0 4000.0 4000.0 4000.0 4000.0 4000.0 4000.0 4000.0 4000.0 4000.0 4000.0 4000.0 4000.0 4000.0 4000.0 4000.0 4000.0 4000.0 4000.0 4000.0 4000.0 4000.0 4000.0 4000.0 4000.0 4000.0 4000.0 4000.0 4000.0 4000.0 4000.0 4000.0 4000.0 4000.0 4000.0 4000.0 4000.0 4000.0 4000.0 4000.0 4000.0 4000.0 4000.0 4000.0 4000.0 4000.0 4000.0 4000.0 4000.0 4000.0 4000.0 4000.0 4000.0 4000.0 4000.0 4000.0 4000.0 4000.0 4000.0 4000.0 4000.0 4000.0 4000.0 4000.0 4000.0 4000.0 4000.0 4000.0 4000.0 4000.0 4000.0 4000.0 4000.0 4000.0 4000.0 4000.0 4000.0 4000.0 4000.0 4000.0 4000.0 4000.0 4000.0 4000.0 4000.0 4000.0 4000.0 4000.0 4000.0 4000.0 4000.0 4000.0 4000.0 4000.0 4000.0 4000.0 4000.0 4000.0 4000.0 4000.0 4000.0 4000.0 4000.0 4000.0 4000.0 4000.0 4000.0 4000.0 4000.0 4000.0 4000.0 4000.0 4000.0 4000.0 4000.0 4000.0 4000.0 4000.0 4000.0 4000.0 4000.0 4000.0 4000.0 4000.0 4000.0 4000.0 4000.0 4000.0 4000.0 4000.0 4000.0 4000.0 4000.0 4000.0 4000.0 4000.0 4000.0 4000.0 4000.0 4000.0 4000.0 4000.0 4000.0 4000.0 4000.0 4000.0 4000.0 4000.0 4000.0 4000.0 4000.0 4000.0 4000.0 4000.0 4000.0 4000.0 4000.0 4000.0 4000.0 4000.0 4000.0 4000.0 4000.0 4000.0 4000.0 4000.0 4000.0 4000.0 4000.0 4000.0 4000.0 4000.0 4000.0 4000.0 4000.0 4000.0 4000.0 4000.0 4000.0 4000.0 4000.0 4000.0 4000.0 4000.0 4000.0 4000.0 4000.0 4000.0 4000.0 4000.0 4000.0 4000.0 4000.0 4000.0 4000.0 4000.0 4000.0 4000.0 4000.0 4000.0 4000.0 4000.0 4000.0 4000.0 4000.0 4000.0 4000.0 4000.0 4000.0 4000.0 4000.0 4000.0 4000.0 4000.0 4000.0 4000.0 4000.0 4000.0 4000.0 4000.0 4000.0 4000.0 4000.0 4000.0 4000.0 4000.0 4000.0 4000.0 4000.0 4000.0 4000.0 4000.0 4000.0 4000.0 4000.0 4000.0 4000.0 4000.0 4000.0 4000.0 4000.0 4000.0 4000.0 4000.0 4000.0 4000.0 4000.0 4000.0 4000.0 4000.0 4000.0 4000.0 4000.0 4000.0 4000.0 4000.0 4000.0 4000.0 4000.0 4000.0 4000.0 4000.0 4000.0 4000.0 4000.0 4000.0 4000.0 4000.0 4000.0 4000.0 4000.0 4000.0 4000.0 4000.0 4000.0 4000.0 4000.0 4000.0 4000.0 4000.0 4000.0 4000.0 4000.0 4000.0 4000.0 4000.0 4000.0 4000.0 4000.0 4000.0 4000.0 4000.0 4000.0 4000.0 4000.0 4000.0 4000.0 4000.0 4000.0 4000.0 4000.0 4000.0 4000.0 4000.0 4000.0 4000.0 4000.0 4000.0 4000.0 4000.0 4000.0 4000.0 4000.0 4000.0 4000.0 4000.0 4000.0 4000.0 4000.0 4000.0 4000.0 4000.0 4000.0 4000.0 4000.0 4000.0 4000.0 4000.0 4000.0 4000.0 4000.0 4000.0 4000.0 4000.0 4000.0 4000.0 4000.0 4000.0 4000.0 4000.0 4000.0 4000.0 4000.0 4000.0 4000.0 4000.0 4000.0 4000.0 4000.0 4000.0 4000.0 4000.0 4000.0 4000.0 4000.0 4000.0 4000.0 4000.0 4000.0 4000.0 4000.0 4000.0 4000.0 4000.0 4000.0 4000.0 4000.0 4000.0 4000.0 4000.0 4000.0 4000.0 4000.0 4000.0 4000.0 4000.0 4000.0 4000.0 4000.0 4000.0 4000.0 4000.0 4000.0 4000.0 4000.0 4000.0 4000.0 4000.0 4000.0 4000.0 4000.0 4000.0 4000.0 4000.0 4000.0 4000.0 4000.0 4000.0 4000.0 4000.0 4000.0 4000.0 4000.0 4000.0 4000.0 4000.0 4000.0 4000.0 4000.0 4000.0 4000.0 4000.0 4000.0 4000.0 4000.0 4000.0 4000.0 4000.0 4000.0 4000.0 4000.0 4000.0 4000.0 4000.0 4000.0 4000.0 4000.0 4000.0 4000.0 4000.0 4000.0 4000.0 4000.0 4000.0 4000.0 4000.0 4000.0 4000.0 4000.0 4000.0 4000.0 4000.0 4000.0 4000.0 4000.0 4000.0 4000.0 4000.0 4000.0 4000.0 4000.0 4000.0 4000.0 4000.0 4000.0 4000.0 4000.0 4000.0 4000.0 4000.0 4000.0 4000.0 4000.0 4000.0 4000.0 4000.0 4000.0 4000.0 4000.0 4000.0 4000.0 4000.0 4000.0 4000.0 4000.0 4000.0 4000.0 4000.0 4000.0 4000.0 4000.0 4000.0 4000.0 4000.0 4000.0 4000.0 4000.0 4000.0 4000.0 4000.0 4000.0 4000.0 4000.0 4000.0 4000.0 4000.0 4000.0 4000.0 4000.0 4000.0 4000.0 4000.0 4000.0 4000.0 4000.0 4000.0 4000.0 4000.0 4000.0 4000.0 4000.0 4000.0 4000.0 4000.0 4000.0 4000.0 4000.0 4000.0 4000.0 4000.0 4000.0 4000.0 4000.0 4000.0 4000.0 4000.0 4000.0 4000.0 4000.0 4000.0 4000.0 4000.0 4000.0 4000.0 4000.0 4000.0 4000.0 4000.0 4000.0 4000.0 4000.0 4000.0 4000.0 4000.0 4000.0 4000.0 4000.0 4000.0 4000.0 4000.0 4000.0 4000.0 4000.0 4000.0 4000.0 4000.0 4000.0 4000.0 4000.0 4000.0 4000.0 4000.0 4000.0 4000.0 4000.0 4000.0 4000.0 4000.0 4000.0 4000.0 4000.0 4000.0 4000.0 4000.0 4000.0 4000.0 4000.0 4000.0 4000.0 4000.0 4000.0 4000.0 4000.0 4000.0 4000.0 4000.0 4000.0 4000.0 4000.0 4000.0 4000.0 4000.0 4000.0 4000.0 4000.0 4000.0 4000.0 4000.0 4000.0 4000.0 4000.0 4000.0 4000.0 4000.0 4000.0 SCALARS Mass float 1
LOOKUP_TABLE default
11309700000.0 11309700000.0 11309700000.0 11309700000.0 11309700000.0 11309700000.0 11309700000.0 11309700000.0 11309700000.0 11309700000.0 11309700000.0 11309700000.0 11309700000.0 11309700000.0 11309700000.0 11309700000.0 11309700000.0 11309700000.0 11309700000.0 11309700000.0 11309700000.0 11309700000.0 11309700000.0 11309700000.0 11309700000.0 11309700000.0 11309700000.0 11309700000.0 11309700000.0 11309700000.0 11309700000.0 11309700000.0 11309700000.0 11309700000.0 11309700000.0 11309700000.0 11309700000.0 11309700000.0 11309700000.0 11309700000.0 11309700000.0 11309700000.0 11309700000.0 11309700000.0 11309700000.0 11309700000.0 11309700000.0 11309700000.0 11309700000.0 11309700000.0 11309700000.0 11309700000.0 11309700000.0 11309700000.0 11309700000.0 11309700000.0 11309700000.0 11309700000.0 11309700000.0 11309700000.0 11309700000.0 11309700000.0 11309700000.0 11309700000.0 11309700000.0 11309700000.0 11309700000.0 11309700000.0 11309700000.0 11309700000.0 11309700000.0 11309700000.0 11309700000.0 11309700000.0 11309700000.0 11309700000.0 11309700000.0 11309700000.0 11309700000.0 11309700000.0 11309700000.0 11309700000.0 11309700000.0 11309700000.0 11309700000.0 11309700000.0 11309700000.0 11309700000.0 11309700000.0 11309700000.0 11309700000.0 11309700000.0 11309700000.0 11309700000.0 11309700000.0 11309700000.0 11309700000.0 11309700000.0 11309700000.0 11309700000.0 11309700000.0 11309700000.0 11309700000.0 11309700000.0 11309700000.0 11309700000.0 11309700000.0 11309700000.0 11309700000.0 11309700000.0 11309700000.0 11309700000.0 11309700000.0 11309700000.0 11309700000.0 11309700000.0 11309700000.0 11309700000.0 11309700000.0 11309700000.0 11309700000.0 11309700000.0 11309700000.0 11309700000.0 11309700000.0 11309700000.0 11309700000.0 11309700000.0 11309700000.0 11309700000.0 11309700000.0 11309700000.0 11309700000.0 11309700000.0 11309700000.0 11309700000.0 11309700000.0 11309700000.0 11309700000.0 11309700000.0 11309700000.0 11309700000.0 11309700000.0 11309700000.0 11309700000.0 11309700000.0 11309700000.0 11309700000.0 11309700000.0 11309700000.0 11309700000.0 11309700000.0 11309700000.0 11309700000.0 11309700000.0 11309700000.0 11309700000.0 11309700000.0 11309700000.0 11309700000.0 11309700000.0 11309700000.0 11309700000.0 11309700000.0 11309700000.0 11309700000.0 11309700000.0 11309700000.0 11309700000.0 11309700000.0 11309700000.0 11309700000.0 11309700000.0 11309700000.0 11309700000.0 11309700000.0 11309700000.0 11309700000.0 11309700000.0 11309700000.0 11309700000.0 11309700000.0 11309700000.0 11309700000.0 11309700000.0 11309700000.0 11309700000.0 11309700000.0 11309700000.0 11309700000.0 11309700000.0 11309700000.0 11309700000.0 11309700000.0 11309700000.0 11309700000.0 11309700000.0 11309700000.0 11309700000.0 11309700000.0 11309700000.0 11309700000.0 11309700000.0 11309700000.0 11309700000.0 11309700000.0 11309700000.0 11309700000.0 11309700000.0 11309700000.0 11309700000.0 11309700000.0 11309700000.0 11309700000.0 11309700000.0 11309700000.0 11309700000.0 11309700000.0 11309700000.0 11309700000.0 11309700000.0 11309700000.0 11309700000.0 11309700000.0 11309700000.0 11309700000.0 11309700000.0 11309700000.0 11309700000.0 11309700000.0 11309700000.0 11309700000.0 11309700000.0 11309700000.0 11309700000.0 11309700000.0 11309700000.0 11309700000.0 11309700000.0 11309700000.0 11309700000.0 11309700000.0 11309700000.0 11309700000.0 11309700000.0 11309700000.0 11309700000.0 11309700000.0 11309700000.0 11309700000.0 11309700000.0 11309700000.0 11309700000.0 11309700000.0 11309700000.0 11309700000.0 11309700000.0 11309700000.0 11309700000.0 11309700000.0 11309700000.0 11309700000.0 11309700000.0 11309700000.0 11309700000.0 11309700000.0 11309700000.0 11309700000.0 11309700000.0 11309700000.0 11309700000.0 11309700000.0 11309700000.0 11309700000.0 11309700000.0 11309700000.0 11309700000.0 11309700000.0 11309700000.0 11309700000.0 11309700000.0 11309700000.0 11309700000.0 11309700000.0 11309700000.0 11309700000.0 11309700000.0 11309700000.0 11309700000.0 11309700000.0 11309700000.0 11309700000.0 11309700000.0 11309700000.0 11309700000.0 11309700000.0 11309700000.0 11309700000.0 11309700000.0 11309700000.0 11309700000.0 11309700000.0 11309700000.0 11309700000.0 11309700000.0 11309700000.0 11309700000.0 11309700000.0 11309700000.0 11309700000.0 11309700000.0 11309700000.0 11309700000.0 11309700000.0 11309700000.0 11309700000.0 11309700000.0 11309700000.0 11309700000.0 11309700000.0 11309700000.0 11309700000.0 11309700000.0 11309700000.0 11309700000.0 11309700000.0 11309700000.0 11309700000.0 11309700000.0 11309700000.0 11309700000.0 11309700000.0 11309700000.0 11309700000.0 11309700000.0 11309700000.0 11309700000.0 11309700000.0 11309700000.0 11309700000.0 11309700000.0 11309700000.0 11309700000.0 11309700000.0 11309700000.0 11309700000.0 11309700000.0 11309700000.0 11309700000.0 11309700000.0 11309700000.0 11309700000.0 11309700000.0 11309700000.0 11309700000.0 11309700000.0 11309700000.0 11309700000.0 11309700000.0 11309700000.0 11309700000.0 11309700000.0 11309700000.0 11309700000.0 11309700000.0 11309700000.0 11309700000.0 11309700000.0 11309700000.0 11309700000.0 11309700000.0 11309700000.0 11309700000.0 11309700000.0 11309700000.0 11309700000.0 11309700000.0 11309700000.0 11309700000.0 11309700000.0 11309700000.0 11309700000.0 11309700000.0 11309700000.0 11309700000.0 11309700000.0 11309700000.0 11309700000.0 11309700000.0 11309700000.0 11309700000.0 11309700000.0 11309700000.0 11309700000.0 11309700000.0 11309700000.0 11309700000.0 11309700000.0 11309700000.0 11309700000.0 11309700000.0 11309700000.0 11309700000.0 11309700000.0 11309700000.0 11309700000.0 11309700000.0 11309700000.0 11309700000.0 11309700000.0 11309700000.0 11309700000.0 11309700000.0 11309700000.0 11309700000.0 11309700000.0 11309700000.0 11309700000.0 11309700000.0 11309700000.0 11309700000.0 11309700000.0 11309700000.0 11309700000.0 11309700000.0 11309700000.0 11309700000.0 11309700000.0 11309700000.0 11309700000.0 11309700000.0 11309700000.0 11309700000.0 11309700000.0 11309700000.0 11309700000.0 11309700000.0 11309700000.0 11309700000.0 11309700000.0 11309700000.0 11309700000.0 11309700000.0 11309700000.0 11309700000.0 11309700000.0 11309700000.0 11309700000.0 11309700000.0 11309700000.0 11309700000.0 11309700000.0 11309700000.0 11309700000.0 11309700000.0 11309700000.0 11309700000.0 11309700000.0 11309700000.0 11309700000.0 11309700000.0 11309700000.0 11309700000.0 11309700000.0 11309700000.0 11309700000.0 11309700000.0 11309700000.0 11309700000.0 11309700000.0 11309700000.0 11309700000.0 11309700000.0 11309700000.0 11309700000.0 11309700000.0 11309700000.0 11309700000.0 11309700000.0 11309700000.0 11309700000.0 11309700000.0 11309700000.0 11309700000.0 11309700000.0 11309700000.0 11309700000.0 11309700000.0 11309700000.0 11309700000.0 11309700000.0 11309700000.0 11309700000.0 11309700000.0 11309700000.0 11309700000.0 11309700000.0 11309700000.0 11309700000.0 11309700000.0 11309700000.0 11309700000.0 11309700000.0 11309700000.0 11309700000.0 11309700000.0 11309700000.0 11309700000.0 11309700000.0 11309700000.0 11309700000.0 11309700000.0 11309700000.0 11309700000.0 11309700000.0 11309700000.0 11309700000.0 11309700000.0 11309700000.0 11309700000.0 11309700000.0 11309700000.0 11309700000.0 11309700000.0 11309700000.0 11309700000.0 11309700000.0 11309700000.0 11309700000.0 11309700000.0 11309700000.0 11309700000.0 11309700000.0 11309700000.0 11309700000.0 11309700000.0 11309700000.0 11309700000.0 11309700000.0 11309700000.0 11309700000.0 11309700000.0 11309700000.0 11309700000.0 11309700000.0 11309700000.0 11309700000.0 11309700000.0 11309700000.0 11309700000.0 11309700000.0 11309700000.0 11309700000.0 11309700000.0 11309700000.0 11309700000.0 11309700000.0 11309700000.0 11309700000.0 11309700000.0 11309700000.0 11309700000.0 11309700000.0 11309700000.0 11309700000.0 11309700000.0 11309700000.0 11309700000.0 11309700000.0 11309700000.0 11309700000.0 11309700000.0 11309700000.0 11309700000.0 11309700000.0 11309700000.0 11309700000.0 11309700000.0 11309700000.0 11309700000.0 11309700000.0 11309700000.0 11309700000.0 11309700000.0 11309700000.0 11309700000.0 11309700000.0 11309700000.0 11309700000.0 11309700000.0 11309700000.0 11309700000.0 11309700000.0 11309700000.0 11309700000.0 11309700000.0 11309700000.0 11309700000.0 11309700000.0 11309700000.0 11309700000.0 11309700000.0 11309700000.0 11309700000.0 11309700000.0 11309700000.0 11309700000.0 11309700000.0 11309700000.0 11309700000.0 11309700000.0 11309700000.0 11309700000.0 11309700000.0 11309700000.0 11309700000.0 11309700000.0 11309700000.0 11309700000.0 11309700000.0 11309700000.0 11309700000.0 11309700000.0 11309700000.0 11309700000.0 11309700000.0 11309700000.0 11309700000.0 11309700000.0 11309700000.0 11309700000.0 11309700000.0 11309700000.0 11309700000.0 11309700000.0 11309700000.0 11309700000.0 11309700000.0 11309700000.0 11309700000.0 11309700000.0 11309700000.0 11309700000.0 11309700000.0 11309700000.0 11309700000.0 11309700000.0 11309700000.0 11309700000.0 11309700000.0 11309700000.0 11309700000.0 11309700000.0 11309700000.0 11309700000.0 11309700000.0 11309700000.0 11309700000.0 11309700000.0 11309700000.0 11309700000.0 11309700000.0 11309700000.0 11309700000.0 11309700000.0 11309700000.0 11309700000.0 11309700000.0 11309700000.0 11309700000.0 11309700000.0 11309700000.0 11309700000.0 11309700000.0 11309700000.0 11309700000.0 11309700000.0 11309700000.0 11309700000.0 11309700000.0 11309700000.0 11309700000.0 11309700000.0 11309700000.0 11309700000.0 11309700000.0 11309700000.0 11309700000.0 11309700000.0 11309700000.0 11309700000.0 11309700000.0 11309700000.0 11309700000.0 11309700000.0 11309700000.0 11309700000.0 11309700000.0 11309700000.0 11309700000.0 11309700000.0 11309700000.0 11309700000.0 11309700000.0 11309700000.0 11309700000.0 11309700000.0 11309700000.0 11309700000.0 11309700000.0 11309700000.0 11309700000.0 11309700000.0 11309700000.0 11309700000.0 11309700000.0 11309700000.0 11309700000.0 11309700000.0 11309700000.0 11309700000.0 11309700000.0 11309700000.0 11309700000.0 11309700000.0 11309700000.0 11309700000.0 11309700000.0 11309700000.0 11309700000.0 11309700000.0 11309700000.0 11309700000.0 11309700000.0 11309700000.0 11309700000.0 11309700000.0 11309700000.0 11309700000.0 11309700000.0 11309700000.0 11309700000.0 11309700000.0 11309700000.0 11309700000.0 11309700000.0 11309700000.0 11309700000.0 11309700000.0 11309700000.0 11309700000.0 11309700000.0 11309700000.0 11309700000.0 11309700000.0 11309700000.0 11309700000.0 11309700000.0 11309700000.0 11309700000.0 11309700000.0 11309700000.0 11309700000.0 11309700000.0 11309700000.0 11309700000.0 11309700000.0 11309700000.0 11309700000.0 11309700000.0 11309700000.0 11309700000.0 11309700000.0 11309700000.0 11309700000.0 11309700000.0 11309700000.0 11309700000.0 11309700000.0 11309700000.0 11309700000.0 11309700000.0 11309700000.0 11309700000.0 11309700000.0 11309700000.0 11309700000.0 11309700000.0 11309700000.0 11309700000.0 11309700000.0 11309700000.0 11309700000.0 11309700000.0 11309700000.0 11309700000.0 11309700000.0 11309700000.0 11309700000.0 11309700000.0 11309700000.0 11309700000.0 11309700000.0 11309700000.0 11309700000.0 11309700000.0 11309700000.0 11309700000.0 11309700000.0 11309700000.0 11309700000.0 11309700000.0 11309700000.0 11309700000.0 11309700000.0 11309700000.0 11309700000.0 11309700000.0 11309700000.0 11309700000.0 11309700000.0 11309700000.0 11309700000.0 11309700000.0 11309700000.0 11309700000.0 11309700000.0 11309700000.0 11309700000.0 11309700000.0 11309700000.0 11309700000.0 11309700000.0 11309700000.0 11309700000.0 11309700000.0 11309700000.0 11309700000.0 11309700000.0 11309700000.0 11309700000.0 11309700000.0 11309700000.0 11309700000.0 11309700000.0 11309700000.0 11309700000.0 11309700000.0 11309700000.0 11309700000.0 11309700000.0 11309700000.0 11309700000.0 11309700000.0 11309700000.0 11309700000.0 11309700000.0 11309700000.0 11309700000.0 11309700000.0 11309700000.0 11309700000.0 11309700000.0 11309700000.0 11309700000.0 11309700000.0 11309700000.0 11309700000.0 11309700000.0 11309700000.0 11309700000.0 11309700000.0 11309700000.0 11309700000.0 11309700000.0 11309700000.0 11309700000.0 11309700000.0 11309700000.0 11309700000.0 11309700000.0 11309700000.0 11309700000.0 11309700000.0 11309700000.0 11309700000.0 11309700000.0 11309700000.0 11309700000.0 11309700000.0 11309700000.0 11309700000.0 11309700000.0 11309700000.0 11309700000.0 11309700000.0 11309700000.0 11309700000.0 11309700000.0 11309700000.0 11309700000.0 11309700000.0 11309700000.0 11309700000.0 11309700000.0 11309700000.0 11309700000.0 11309700000.0 11309700000.0 11309700000.0 11309700000.0 11309700000.0 11309700000.0 11309700000.0 11309700000.0 11309700000.0 11309700000.0 11309700000.0 11309700000.0 11309700000.0 11309700000.0 11309700000.0 11309700000.0 11309700000.0 11309700000.0 11309700000.0 11309700000.0 11309700000.0 11309700000.0 11309700000.0 11309700000.0 11309700000.0 11309700000.0 11309700000.0 11309700000.0 11309700000.0 11309700000.0 11309700000.0 11309700000.0 11309700000.0 11309700000.0 11309700000.0 11309700000.0 11309700000.0 11309700000.0 11309700000.0 11309700000.0 11309700000.0 11309700000.0 11309700000.0 11309700000.0 11309700000.0 11309700000.0 11309700000.0 11309700000.0 11309700000.0 11309700000.0 11309700000.0 11309700000.0 11309700000.0 11309700000.0 11309700000.0 11309700000.0 11309700000.0 11309700000.0 11309700000.0 11309700000.0 11309700000.0 11309700000.0 11309700000.0 11309700000.0 11309700000.0 11309700000.0 11309700000.0 11309700000.0 11309700000.0 11309700000.0 11309700000.0 11309700000.0 11309700000.0 11309700000.0 11309700000.0 11309700000.0 11309700000.0 11309700000.0 11309700000.0 11309700000.0 11309700000.0 11309700000.0 11309700000.0 11309700000.0 11309700000.0 11309700000.0 11309700000.0 11309700000.0 11309700000.0 11309700000.0 11309700000.0 11309700000.0 11309700000.0 11309700000.0 11309700000.0 11309700000.0 11309700000.0 11309700000.0 11309700000.0 11309700000.0 11309700000.0 11309700000.0 11309700000.0 11309700000.0 11309700000.0 11309700000.0 11309700000.0 11309700000.0 11309700000.0 11309700000.0 11309700000.0 11309700000.0 11309700000.0 11309700000.0 11309700000.0 11309700000.0 11309700000.0 11309700000.0 11309700000.0 11309700000.0 11309700000.0 11309700000.0 11309700000.0 11309700000.0 11309700000.0 11309700000.0 11309700000.0 11309700000.0 11309700000.0 11309700000.0 11309700000.0 11309700000.0 11309700000.0 11309700000.0 11309700000.0 11309700000.0 11309700000.0 11309700000.0 11309700000.0 11309700000.0 11309700000.0 11309700000.0 11309700000.0 11309700000.0 11309700000.0 11309700000.0 11309700000.0 11309700000.0 11309700000.0 11309700000.0 11309700000.0 11309700000.0 11309700000.0 11309700000.0 11309700000.0 11309700000.0 11309700000.0 11309700000.0 11309700000.0 11309700000.0 11309700000.0 11309700000.0 11309700000.0 11309700000.0 11309700000.0 11309700000.0 11309700000.0 11309700000.0 11309700000.0 11309700000.0 11309700000.0 11309700000.0 11309700000.0 11309700000.0 11309700000.0 11309700000.0 11309700000.0 11309700000.0 11309700000.0 11309700000.0 11309700000.0 11309700000.0 11309700000.0 11309700000.0 11309700000.0 11309700000.0 11309700000.0 11309700000.0 11309700000.0 11309700000.0 11309700000.0 11309700000.0 11309700000.0 11309700000.0 11309700000.0 11309700000.0 11309700000.0 11309700000.0 11309700000.0 11309700000.0 11309700000.0 11309700000.0 11309700000.0 11309700000.0 11309700000.0 11309700000.0 11309700000.0 11309700000.0 11309700000.0 11309700000.0 11309700000.0 11309700000.0 11309700000.0 11309700000.0 11309700000.0 11309700000.0 11309700000.0 11309700000.0 11309700000.0 11309700000.0 11309700000.0 11309700000.0 11309700000.0 11309700000.0 11309700000.0 11309700000.0 11309700000.0 11309700000.0 11309700000.0 11309700000.0 11309700000.0 11309700000.0 11309700000.0 11309700000.0 11309700000.0 11309700000.0 11309700000.0 11309700000.0 11309700000.0 11309700000.0 11309700000.0 11309700000.0 11309700000.0 11309700000.0 11309700000.0 11309700000.0 11309700000.0 11309700000.0 11309700000.0 11309700000.0 11309700000.0 11309700000.0 11309700000.0 11309700000.0 11309700000.0 11309700000.0 11309700000.0 11309700000.0 11309700000.0 11309700000.0 11309700000.0 11309700000.0 11309700000.0 11309700000.0 11309700000.0 11309700000.0 11309700000.0 11309700000.0 11309700000.0 11309700000.0 11309700000.0 11309700000.0 11309700000.0 11309700000.0 11309700000.0 11309700000.0 11309700000.0 11309700000.0 11309700000.0 11309700000.0 11309700000.0 11309700000.0 11309700000.0 11309700000.0 11309700000.0 11309700000.0 11309700000.0 11309700000.0 11309700000.0 11309700000.0 11309700000.0 11309700000.0 11309700000.0 11309700000.0 11309700000.0 11309700000.0 11309700000.0 11309700000.0 11309700000.0 11309700000.0 11309700000.0 11309700000.0 11309700000.0 11309700000.0 11309700000.0 11309700000.0 11309700000.0 11309700000.0 11309700000.0 11309700000.0 11309700000.0 11309700000.0 11309700000.0 11309700000.0 11309700000.0 11309700000.0 11309700000.0 11309700000.0 11309700000.0 11309700000.0 11309700000.0 11309700000.0 11309700000.0 11309700000.0 11309700000.0 11309700000.0 11309700000.0 11309700000.0 11309700000.0 11309700000.0 11309700000.0 11309700000.0 11309700000.0 11309700000.0 11309700000.0 11309700000.0 11309700000.0 11309700000.0 11309700000.0 11309700000.0 11309700000.0 11309700000.0 11309700000.0 11309700000.0 11309700000.0 11309700000.0 11309700000.0 11309700000.0 11309700000.0 11309700000.0 11309700000.0 11309700000.0 11309700000.0 11309700000.0 11309700000.0 11309700000.0 11309700000.0 11309700000.0 11309700000.0 11309700000.0 11309700000.0 11309700000.0 11309700000.0 11309700000.0 11309700000.0 11309700000.0 11309700000.0 11309700000.0 11309700000.0 11309700000.0 11309700000.0 11309700000.0 11309700000.0 11309700000.0 11309700000.0 11309700000.0 11309700000.0 11309700000.0 11309700000.0 11309700000.0 11309700000.0 11309700000.0 11309700000.0 11309700000.0 11309700000.0 11309700000.0 11309700000.0 11309700000.0 11309700000.0 11309700000.0 11309700000.0 11309700000.0 11309700000.0 11309700000.0 11309700000.0 11309700000.0 11309700000.0 11309700000.0 11309700000.0 11309700000.0 11309700000.0 11309700000.0 11309700000.0 11309700000.0 11309700000.0 11309700000.0 11309700000.0 11309700000.0 11309700000.0 11309700000.0 11309700000.0 11309700000.0 11309700000.0 11309700000.0 11309700000.0 11309700000.0 11309700000.0 11309700000.0 11309700000.0 11309700000.0 11309700000.0 11309700000.0 11309700000.0 11309700000.0 11309700000.0 11309700000.0 11309700000.0 11309700000.0 11309700000.0 11309700000.0 11309700000.0 11309700000.0 11309700000.0 11309700000.0 11309700000.0 11309700000.0 11309700000.0 11309700000.0 11309700000.0 11309700000.0 11309700000.0 11309700000.0 11309700000.0 11309700000.0 11309700000.0 11309700000.0 11309700000.0 11309700000.0 11309700000.0 11309700000.0 11309700000.0 11309700000.0 11309700000.0 11309700000.0 11309700000.0 11309700000.0 11309700000.0 11309700000.0 11309700000.0 11309700000.0 11309700000.0 11309700000.0 11309700000.0 11309700000.0 11309700000.0 11309700000.0 11309700000.0 11309700000.0 11309700000.0 11309700000.0 11309700000.0 11309700000.0 11309700000.0 11309700000.0 11309700000.0 11309700000.0 11309700000.0 11309700000.0 11309700000.0 11309700000.0 11309700000.0 11309700000.0 11309700000.0 11309700000.0 11309700000.0 11309700000.0 11309700000.0 11309700000.0 11309700000.0 11309700000.0 11309700000.0 11309700000.0 11309700000.0 11309700000.0 11309700000.0 11309700000.0 11309700000.0 11309700000.0 11309700000.0 11309700000.0 11309700000.0 11309700000.0 11309700000.0 11309700000.0 11309700000.0 11309700000.0 11309700000.0 11309700000.0 11309700000.0 11309700000.0 11309700000.0 11309700000.0 11309700000.0 11309700000.0 11309700000.0 11309700000.0 11309700000.0 11309700000.0 11309700000.0 11309700000.0 11309700000.0 11309700000.0 11309700000.0 11309700000.0 11309700000.0 11309700000.0 11309700000.0 11309700000.0 11309700000.0 11309700000.0 11309700000.0 11309700000.0 11309700000.0 11309700000.0 11309700000.0 11309700000.0 11309700000.0 11309700000.0 11309700000.0 11309700000.0 11309700000.0 11309700000.0 11309700000.0 11309700000.0 11309700000.0 11309700000.0 11309700000.0 11309700000.0 11309700000.0 11309700000.0 11309700000.0 11309700000.0 11309700000.0 11309700000.0 11309700000.0 11309700000.0 11309700000.0 11309700000.0 11309700000.0 11309700000.0 11309700000.0 11309700000.0 11309700000.0 11309700000.0 11309700000.0 11309700000.0 11309700000.0 11309700000.0 11309700000.0 11309700000.0 11309700000.0 11309700000.0 11309700000.0 11309700000.0 11309700000.0 11309700000.0 11309700000.0 11309700000.0 11309700000.0 11309700000.0 11309700000.0 11309700000.0 11309700000.0 11309700000.0 11309700000.0 11309700000.0 11309700000.0 11309700000.0 11309700000.0 11309700000.0 11309700000.0 11309700000.0 11309700000.0 11309700000.0 11309700000.0 11309700000.0 11309700000.0 11309700000.0 11309700000.0 11309700000.0 11309700000.0 11309700000.0 11309700000.0 11309700000.0 11309700000.0 11309700000.0 11309700000.0 11309700000.0 11309700000.0 11309700000.0 11309700000.0 11309700000.0 11309700000.0 11309700000.0 11309700000.0 11309700000.0 11309700000.0 11309700000.0 11309700000.0 11309700000.0 11309700000.0 11309700000.0 11309700000.0 11309700000.0 11309700000.0 11309700000.0 11309700000.0 11309700000.0 11309700000.0 11309700000.0 11309700000.0 11309700000.0 11309700000.0 11309700000.0 11309700000.0 11309700000.0 11309700000.0 11309700000.0 11309700000.0 11309700000.0 11309700000.0 11309700000.0 11309700000.0 11309700000.0 11309700000.0 11309700000.0 11309700000.0 11309700000.0 11309700000.0 11309700000.0 11309700000.0 11309700000.0 11309700000.0 11309700000.0 11309700000.0 11309700000.0 11309700000.0 11309700000.0 11309700000.0 11309700000.0 11309700000.0 11309700000.0 11309700000.0 11309700000.0 11309700000.0 11309700000.0 11309700000.0 11309700000.0 11309700000.0 11309700000.0 11309700000.0 11309700000.0 11309700000.0 11309700000.0 11309700000.0 11309700000.0 11309700000.0 11309700000.0 11309700000.0 11309700000.0 11309700000.0 11309700000.0 11309700000.0 11309700000.0 11309700000.0 11309700000.0 11309700000.0 11309700000.0 11309700000.0 11309700000.0 11309700000.0 11309700000.0 11309700000.0 11309700000.0 11309700000.0 11309700000.0 11309700000.0 11309700000.0 11309700000.0 11309700000.0 11309700000.0 11309700000.0 11309700000.0 11309700000.0 11309700000.0 11309700000.0 11309700000.0 11309700000.0 11309700000.0 11309700000.0 11309700000.0 11309700000.0 11309700000.0 11309700000.0 11309700000.0 11309700000.0 11309700000.0 11309700000.0 11309700000.0 11309700000.0 11309700000.0 11309700000.0 11309700000.0 11309700000.0 11309700000.0 11309700000.0 11309700000.0 11309700000.0 11309700000.0 11309700000.0 11309700000.0 11309700000.0 11309700000.0 11309700000.0 11309700000.0 11309700000.0 11309700000.0 11309700000.0 11309700000.0 11309700000.0 11309700000.0 11309700000.0 11309700000.0 11309700000.0 11309700000.0 11309700000.0 11309700000.0 11309700000.0 11309700000.0 11309700000.0 11309700000.0 11309700000.0 11309700000.0 11309700000.0 11309700000.0 11309700000.0 11309700000.0 11309700000.0 11309700000.0 11309700000.0 11309700000.0 11309700000.0 11309700000.0 11309700000.0 11309700000.0 11309700000.0 11309700000.0 11309700000.0 11309700000.0 11309700000.0 11309700000.0 11309700000.0 11309700000.0 11309700000.0 11309700000.0 11309700000.0 11309700000.0 11309700000.0 11309700000.0 11309700000.0 11309700000.0 11309700000.0 11309700000.0 11309700000.0 11309700000.0 11309700000.0 11309700000.0 11309700000.0 11309700000.0 11309700000.0 11309700000.0 11309700000.0 11309700000.0 11309700000.0 11309700000.0 11309700000.0 11309700000.0 11309700000.0 11309700000.0 11309700000.0 11309700000.0 11309700000.0 11309700000.0 11309700000.0 11309700000.0 11309700000.0 11309700000.0 11309700000.0 11309700000.0 11309700000.0 11309700000.0 11309700000.0 11309700000.0 11309700000.0 11309700000.0 11309700000.0 11309700000.0 11309700000.0 11309700000.0 11309700000.0 11309700000.0 11309700000.0 11309700000.0 11309700000.0 11309700000.0 11309700000.0 11309700000.0 11309700000.0 11309700000.0 11309700000.0 11309700000.0 11309700000.0 11309700000.0 11309700000.0 11309700000.0 11309700000.0 11309700000.0 11309700000.0 11309700000.0 11309700000.0 11309700000.0 11309700000.0 11309700000.0 11309700000.0 11309700000.0 11309700000.0 11309700000.0 11309700000.0 11309700000.0 11309700000.0 11309700000.0 11309700000.0 11309700000.0 11309700000.0 11309700000.0 11309700000.0 11309700000.0 11309700000.0 11309700000.0 11309700000.0 11309700000.0 11309700000.0 11309700000.0 11309700000.0 11309700000.0 11309700000.0 11309700000.0 11309700000.0 11309700000.0 11309700000.0 11309700000.0 11309700000.0 11309700000.0 11309700000.0 11309700000.0 11309700000.0 11309700000.0 11309700000.0 11309700000.0 11309700000.0 11309700000.0 11309700000.0 11309700000.0 11309700000.0 11309700000.0 11309700000.0 11309700000.0 11309700000.0 11309700000.0 11309700000.0 11309700000.0 11309700000.0 11309700000.0 11309700000.0 11309700000.0 11309700000.0 11309700000.0 11309700000.0 11309700000.0 11309700000.0 11309700000.0 11309700000.0 11309700000.0 11309700000.0 11309700000.0 11309700000.0 11309700000.0 11309700000.0 11309700000.0 11309700000.0 11309700000.0 11309700000.0 11309700000.0 11309700000.0 11309700000.0 11309700000.0 11309700000.0 11309700000.0 11309700000.0 11309700000.0 11309700000.0 11309700000.0 11309700000.0 11309700000.0 11309700000.0 11309700000.0 11309700000.0 11309700000.0 11309700000.0 11309700000.0 11309700000.0 11309700000.0 11309700000.0 11309700000.0 11309700000.0 11309700000.0 11309700000.0 11309700000.0 11309700000.0 11309700000.0 11309700000.0 11309700000.0 11309700000.0 11309700000.0 11309700000.0 11309700000.0 11309700000.0 11309700000.0 11309700000.0 11309700000.0 11309700000.0 11309700000.0 11309700000.0 11309700000.0 11309700000.0 11309700000.0 11309700000.0 11309700000.0 11309700000.0 11309700000.0 11309700000.0 11309700000.0 11309700000.0 11309700000.0 11309700000.0 11309700000.0 11309700000.0 11309700000.0 11309700000.0 11309700000.0 11309700000.0 11309700000.0 11309700000.0 11309700000.0 11309700000.0 11309700000.0 11309700000.0 11309700000.0 11309700000.0 11309700000.0 11309700000.0 11309700000.0 11309700000.0 11309700000.0 11309700000.0 11309700000.0 11309700000.0 11309700000.0 11309700000.0 11309700000.0 11309700000.0 11309700000.0 11309700000.0 11309700000.0 11309700000.0 11309700000.0 11309700000.0 11309700000.0 11309700000.0 11309700000.0 11309700000.0 11309700000.0 11309700000.0 11309700000.0 11309700000.0 11309700000.0 11309700000.0 11309700000.0 11309700000.0 11309700000.0 11309700000.0 11309700000.0 11309700000.0 11309700000.0 11309700000.0 11309700000.0 11309700000.0 11309700000.0 11309700000.0 11309700000.0 11309700000.0 11309700000.0 11309700000.0 11309700000.0 11309700000.0 11309700000.0 11309700000.0 11309700000.0 11309700000.0 11309700000.0 11309700000.0 11309700000.0 11309700000.0 11309700000.0 11309700000.0 11309700000.0 11309700000.0 11309700000.0 11309700000.0 11309700000.0 11309700000.0 11309700000.0 11309700000.0 11309700000.0 11309700000.0 11309700000.0 11309700000.0 11309700000.0 11309700000.0 11309700000.0 11309700000.0 11309700000.0 11309700000.0 11309700000.0 11309700000.0 11309700000.0 11309700000.0 11309700000.0 11309700000.0 11309700000.0 11309700000.0 11309700000.0 11309700000.0 11309700000.0 11309700000.0 11309700000.0 11309700000.0 11309700000.0 11309700000.0 11309700000.0 11309700000.0 11309700000.0 11309700000.0 11309700000.0 11309700000.0 11309700000.0 11309700000.0 11309700000.0 11309700000.0 11309700000.0 11309700000.0 11309700000.0 11309700000.0 11309700000.0 11309700000.0 11309700000.0 11309700000.0 11309700000.0 11309700000.0 11309700000.0 11309700000.0 11309700000.0 11309700000.0 11309700000.0 11309700000.0 11309700000.0 11309700000.0 11309700000.0 11309700000.0 11309700000.0 11309700000.0 11309700000.0 11309700000.0 11309700000.0 11309700000.0 11309700000.0 11309700000.0 11309700000.0 11309700000.0 11309700000.0 11309700000.0 11309700000.0 11309700000.0 11309700000.0 11309700000.0 11309700000.0 11309700000.0 11309700000.0 11309700000.0 11309700000.0 11309700000.0 11309700000.0 11309700000.0 11309700000.0 11309700000.0 11309700000.0 11309700000.0 11309700000.0 11309700000.0 11309700000.0 11309700000.0 11309700000.0 11309700000.0 11309700000.0 11309700000.0 11309700000.0 11309700000.0 11309700000.0 11309700000.0 11309700000.0 11309700000.0 11309700000.0 11309700000.0 11309700000.0 11309700000.0 11309700000.0 11309700000.0 11309700000.0 11309700000.0 11309700000.0 11309700000.0 11309700000.0 11309700000.0 11309700000.0 11309700000.0 11309700000.0 11309700000.0 11309700000.0 11309700000.0 11309700000.0 11309700000.0 11309700000.0 11309700000.0 11309700000.0 11309700000.0 11309700000.0 11309700000.0 11309700000.0 11309700000.0 11309700000.0 11309700000.0 11309700000.0 11309700000.0 11309700000.0 11309700000.0 11309700000.0 11309700000.0 11309700000.0 11309700000.0 11309700000.0 11309700000.0 11309700000.0 11309700000.0 11309700000.0 11309700000.0 11309700000.0 11309700000.0 11309700000.0 11309700000.0 11309700000.0 11309700000.0 11309700000.0 11309700000.0 11309700000.0 11309700000.0 11309700000.0 11309700000.0 11309700000.0 11309700000.0 11309700000.0 11309700000.0 11309700000.0 11309700000.0 11309700000.0 11309700000.0 11309700000.0 11309700000.0 11309700000.0 11309700000.0 11309700000.0 11309700000.0 11309700000.0 11309700000.0 11309700000.0 11309700000.0 11309700000.0 11309700000.0 11309700000.0 11309700000.0 11309700000.0 11309700000.0 11309700000.0 11309700000.0 11309700000.0 11309700000.0 11309700000.0 11309700000.0 11309700000.0 11309700000.0 11309700000.0 11309700000.0 11309700000.0 11309700000.0 11309700000.0 11309700000.0 11309700000.0 11309700000.0 11309700000.0 11309700000.0 11309700000.0 11309700000.0 11309700000.0 11309700000.0 11309700000.0 11309700000.0 11309700000.0 11309700000.0 11309700000.0 11309700000.0 11309700000.0 11309700000.0 11309700000.0 11309700000.0 11309700000.0 11309700000.0 11309700000.0 11309700000.0 11309700000.0 11309700000.0 11309700000.0 11309700000.0 11309700000.0 11309700000.0 11309700000.0 11309700000.0 11309700000.0 11309700000.0 11309700000.0 11309700000.0 11309700000.0 11309700000.0 11309700000.0 11309700000.0 11309700000.0 11309700000.0 11309700000.0 11309700000.0 11309700000.0 11309700000.0 11309700000.0 11309700000.0 11309700000.0 11309700000.0 11309700000.0 11309700000.0 11309700000.0 11309700000.0 11309700000.0 11309700000.0 11309700000.0 11309700000.0 11309700000.0 11309700000.0 11309700000.0 11309700000.0 11309700000.0 11309700000.0 11309700000.0 11309700000.0 11309700000.0 11309700000.0 11309700000.0 11309700000.0 11309700000.0 11309700000.0 11309700000.0 11309700000.0 11309700000.0 11309700000.0 11309700000.0 11309700000.0 11309700000.0 11309700000.0 11309700000.0 11309700000.0 11309700000.0 11309700000.0 11309700000.0 11309700000.0 11309700000.0 11309700000.0 11309700000.0 11309700000.0 11309700000.0 11309700000.0 11309700000.0 11309700000.0 11309700000.0 11309700000.0 11309700000.0 11309700000.0 11309700000.0 11309700000.0 11309700000.0 11309700000.0 11309700000.0 11309700000.0 11309700000.0 11309700000.0 11309700000.0 11309700000.0 11309700000.0 11309700000.0 11309700000.0 11309700000.0 11309700000.0 11309700000.0 11309700000.0 11309700000.0 11309700000.0 11309700000.0 11309700000.0 11309700000.0 11309700000.0 11309700000.0 11309700000.0 11309700000.0 11309700000.0 11309700000.0 11309700000.0 11309700000.0 11309700000.0 11309700000.0 11309700000.0 11309700000.0 11309700000.0 11309700000.0 11309700000.0 11309700000.0 11309700000.0 11309700000.0 11309700000.0 11309700000.0 11309700000.0 11309700000.0 11309700000.0 11309700000.0 11309700000.0 11309700000.0 11309700000.0 11309700000.0 11309700000.0 11309700000.0 11309700000.0 11309700000.0 11309700000.0 11309700000.0 11309700000.0 11309700000.0 11309700000.0 11309700000.0 11309700000.0 11309700000.0 11309700000.0 11309700000.0 11309700000.0 11309700000.0 11309700000.0 11309700000.0 11309700000.0 11309700000.0 11309700000.0 11309700000.0 11309700000.0 11309700000.0 11309700000.0 11309700000.0 11309700000.0 11309700000.0 11309700000.0 11309700000.0 11309700000.0 11309700000.0 11309700000.0 11309700000.0 11309700000.0 11309700000.0 11309700000.0 11309700000.0 11309700000.0 11309700000.0 11309700000.0 11309700000.0 11309700000.0 11309700000.0 11309700000.0 11309700000.0 11309700000.0 11309700000.0 11309700000.0 11309700000.0 11309700000.0 11309700000.0 11309700000.0 11309700000.0 11309700000.0 11309700000.0 11309700000.0 11309700000.0 11309700000.0 11309700000.0 11309700000.0 11309700000.0 11309700000.0 11309700000.0 11309700000.0 11309700000.0 11309700000.0 11309700000.0 11309700000.0 11309700000.0 11309700000.0 11309700000.0 11309700000.0 11309700000.0 11309700000.0 11309700000.0 11309700000.0 11309700000.0 11309700000.0 11309700000.0 11309700000.0 11309700000.0 11309700000.0 11309700000.0 11309700000.0 11309700000.0 11309700000.0 11309700000.0 11309700000.0 11309700000.0 11309700000.0 11309700000.0 11309700000.0 11309700000.0 11309700000.0 11309700000.0 11309700000.0 11309700000.0 11309700000.0 11309700000.0 11309700000.0 11309700000.0 11309700000.0 11309700000.0 11309700000.0 11309700000.0 11309700000.0 11309700000.0 11309700000.0 11309700000.0 11309700000.0 11309700000.0 11309700000.0 11309700000.0 11309700000.0 11309700000.0 11309700000.0 11309700000.0 11309700000.0 11309700000.0 11309700000.0 11309700000.0 11309700000.0 11309700000.0 11309700000.0 11309700000.0 11309700000.0 11309700000.0 11309700000.0 11309700000.0 11309700000.0 11309700000.0 11309700000.0 11309700000.0 11309700000.0 11309700000.0 11309700000.0 11309700000.0 11309700000.0 11309700000.0 11309700000.0 11309700000.0 11309700000.0 11309700000.0 11309700000.0 11309700000.0 11309700000.0 11309700000.0 11309700000.0 11309700000.0 11309700000.0 11309700000.0 11309700000.0 11309700000.0 11309700000.0 11309700000.0 11309700000.0 11309700000.0 11309700000.0 11309700000.0 11309700000.0 11309700000.0 11309700000.0 11309700000.0 11309700000.0 11309700000.0 11309700000.0 11309700000.0 11309700000.0 11309700000.0 11309700000.0 11309700000.0 11309700000.0 11309700000.0 11309700000.0 11309700000.0 11309700000.0 11309700000.0 11309700000.0 11309700000.0 11309700000.0 11309700000.0 11309700000.0 11309700000.0 11309700000.0 11309700000.0 11309700000.0 11309700000.0 11309700000.0 11309700000.0 11309700000.0 11309700000.0 11309700000.0 11309700000.0 11309700000.0 11309700000.0 11309700000.0 11309700000.0 11309700000.0 11309700000.0 11309700000.0 11309700000.0 11309700000.0 11309700000.0 11309700000.0 11309700000.0 11309700000.0 11309700000.0 11309700000.0 11309700000.0 11309700000.0 11309700000.0 11309700000.0 11309700000.0 11309700000.0 11309700000.0 11309700000.0 11309700000.0 11309700000.0 11309700000.0 11309700000.0 11309700000.0 11309700000.0 11309700000.0 11309700000.0 11309700000.0 11309700000.0 11309700000.0 11309700000.0 11309700000.0 11309700000.0 11309700000.0 11309700000.0 11309700000.0 11309700000.0 11309700000.0 11309700000.0 11309700000.0 11309700000.0 11309700000.0 11309700000.0 11309700000.0 11309700000.0 11309700000.0 11309700000.0 11309700000.0 11309700000.0 11309700000.0 11309700000.0 11309700000.0 11309700000.0 11309700000.0 11309700000.0 11309700000.0 11309700000.0 11309700000.0 11309700000.0 11309700000.0 11309700000.0 11309700000.0 11309700000.0 11309700000.0 11309700000.0 11309700000.0 11309700000.0 11309700000.0 11309700000.0 11309700000.0 11309700000.0 11309700000.0 11309700000.0 11309700000.0 11309700000.0 11309700000.0 11309700000.0 11309700000.0 11309700000.0 11309700000.0 11309700000.0 11309700000.0 11309700000.0 11309700000.0 11309700000.0 11309700000.0 11309700000.0 11309700000.0 11309700000.0 11309700000.0 11309700000.0 11309700000.0 11309700000.0 11309700000.0 11309700000.0 11309700000.0 11309700000.0 11309700000.0 11309700000.0 11309700000.0 11309700000.0 11309700000.0 11309700000.0 11309700000.0 11309700000.0 11309700000.0 11309700000.0 11309700000.0 11309700000.0 11309700000.0 11309700000.0 11309700000.0 11309700000.0 11309700000.0 11309700000.0 11309700000.0 11309700000.0 11309700000.0 11309700000.0 11309700000.0 11309700000.0 11309700000.0 11309700000.0 11309700000.0 11309700000.0 11309700000.0 11309700000.0 11309700000.0 11309700000.0 11309700000.0 11309700000.0 11309700000.0 11309700000.0 11309700000.0 11309700000.0 11309700000.0 11309700000.0 11309700000.0 11309700000.0 11309700000.0 11309700000.0 11309700000.0 11309700000.0 11309700000.0 11309700000.0 11309700000.0 11309700000.0 11309700000.0 11309700000.0 11309700000.0 11309700000.0 11309700000.0 11309700000.0 11309700000.0 11309700000.0 11309700000.0 11309700000.0 11309700000.0 11309700000.0 11309700000.0 11309700000.0 11309700000.0 11309700000.0 11309700000.0 11309700000.0 11309700000.0 11309700000.0 11309700000.0 11309700000.0 11309700000.0 11309700000.0 11309700000.0 11309700000.0 11309700000.0 11309700000.0 11309700000.0 11309700000.0 11309700000.0 11309700000.0 11309700000.0 11309700000.0 11309700000.0 11309700000.0 11309700000.0 11309700000.0 11309700000.0 11309700000.0 11309700000.0 11309700000.0 11309700000.0 11309700000.0 11309700000.0 11309700000.0 11309700000.0 11309700000.0 11309700000.0 11309700000.0 11309700000.0 11309700000.0 11309700000.0 11309700000.0 11309700000.0 11309700000.0 11309700000.0 11309700000.0 11309700000.0 11309700000.0 11309700000.0 11309700000.0 11309700000.0 11309700000.0 11309700000.0 11309700000.0 11309700000.0 11309700000.0 11309700000.0 11309700000.0 11309700000.0 11309700000.0 11309700000.0 11309700000.0 11309700000.0 11309700000.0 11309700000.0 11309700000.0 11309700000.0 11309700000.0 11309700000.0 11309700000.0 11309700000.0 11309700000.0 11309700000.0 11309700000.0 11309700000.0 11309700000.0 11309700000.0 11309700000.0 11309700000.0 11309700000.0 11309700000.0 11309700000.0 11309700000.0 11309700000.0 11309700000.0 11309700000.0 11309700000.0 11309700000.0 11309700000.0 11309700000.0 11309700000.0 11309700000.0 11309700000.0 11309700000.0 11309700000.0 11309700000.0 11309700000.0 11309700000.0 11309700000.0 11309700000.0 11309700000.0 11309700000.0 11309700000.0 11309700000.0 11309700000.0 11309700000.0 11309700000.0 11309700000.0 11309700000.0 11309700000.0 11309700000.0 11309700000.0 11309700000.0 11309700000.0 11309700000.0 11309700000.0 11309700000.0 11309700000.0 11309700000.0 11309700000.0 11309700000.0 11309700000.0 11309700000.0 11309700000.0 11309700000.0 11309700000.0 11309700000.0 11309700000.0 11309700000.0 11309700000.0 11309700000.0 11309700000.0 11309700000.0 11309700000.0 11309700000.0 11309700000.0 11309700000.0 11309700000.0 11309700000.0 11309700000.0 11309700000.0 11309700000.0 11309700000.0 11309700000.0 11309700000.0 11309700000.0 11309700000.0 11309700000.0 11309700000.0 11309700000.0 11309700000.0 11309700000.0 11309700000.0 11309700000.0 11309700000.0 11309700000.0 11309700000.0 11309700000.0 11309700000.0 11309700000.0 11309700000.0 11309700000.0 11309700000.0 11309700000.0 11309700000.0 11309700000.0 11309700000.0 11309700000.0 11309700000.0 11309700000.0 11309700000.0 11309700000.0 11309700000.0 11309700000.0 11309700000.0 11309700000.0 11309700000.0 11309700000.0 11309700000.0 11309700000.0 11309700000.0 11309700000.0 11309700000.0 11309700000.0 11309700000.0 11309700000.0 11309700000.0 11309700000.0 11309700000.0 11309700000.0 11309700000.0 11309700000.0 11309700000.0 11309700000.0 11309700000.0 11309700000.0 11309700000.0 11309700000.0 11309700000.0 11309700000.0 11309700000.0 11309700000.0 11309700000.0 11309700000.0 11309700000.0 11309700000.0 11309700000.0 11309700000.0 11309700000.0 11309700000.0 11309700000.0 11309700000.0 11309700000.0 11309700000.0 11309700000.0 11309700000.0 11309700000.0 11309700000.0 11309700000.0 11309700000.0 11309700000.0 11309700000.0 11309700000.0 11309700000.0 11309700000.0 11309700000.0 11309700000.0 11309700000.0 11309700000.0 11309700000.0 11309700000.0 11309700000.0 11309700000.0 11309700000.0 11309700000.0 11309700000.0 11309700000.0 11309700000.0 11309700000.0 11309700000.0 11309700000.0 11309700000.0 11309700000.0 11309700000.0 11309700000.0 11309700000.0 11309700000.0 11309700000.0 11309700000.0 11309700000.0 11309700000.0 11309700000.0 11309700000.0 11309700000.0 11309700000.0 11309700000.0 11309700000.0 11309700000.0 11309700000.0 11309700000.0 11309700000.0 11309700000.0 11309700000.0 11309700000.0 11309700000.0 11309700000.0 11309700000.0 11309700000.0 11309700000.0 11309700000.0 11309700000.0 11309700000.0 11309700000.0 11309700000.0 11309700000.0 11309700000.0 11309700000.0 11309700000.0 11309700000.0 11309700000.0 11309700000.0 11309700000.0 11309700000.0 11309700000.0 11309700000.0 11309700000.0 11309700000.0 11309700000.0 11309700000.0 11309700000.0 11309700000.0 11309700000.0 11309700000.0 11309700000.0 11309700000.0 11309700000.0 11309700000.0 11309700000.0 11309700000.0 11309700000.0 11309700000.0 11309700000.0 11309700000.0 11309700000.0 11309700000.0 11309700000.0 11309700000.0 11309700000.0 11309700000.0 11309700000.0 11309700000.0 11309700000.0 11309700000.0 11309700000.0 11309700000.0 11309700000.0 11309700000.0 11309700000.0 11309700000.0 11309700000.0 11309700000.0 11309700000.0 11309700000.0 11309700000.0 11309700000.0 11309700000.0 11309700000.0 11309700000.0 11309700000.0 11309700000.0 11309700000.0 11309700000.0 11309700000.0 11309700000.0 11309700000.0 11309700000.0 11309700000.0 11309700000.0 11309700000.0 11309700000.0 11309700000.0 11309700000.0 11309700000.0 11309700000.0 11309700000.0 11309700000.0 11309700000.0 11309700000.0 11309700000.0 11309700000.0 11309700000.0 11309700000.0 11309700000.0 11309700000.0 11309700000.0 11309700000.0 11309700000.0 11309700000.0 11309700000.0 11309700000.0 11309700000.0 11309700000.0 11309700000.0 11309700000.0 11309700000.0 11309700000.0 11309700000.0 11309700000.0 11309700000.0 11309700000.0 11309700000.0 11309700000.0 11309700000.0 11309700000.0 11309700000.0 11309700000.0 11309700000.0 11309700000.0 11309700000.0 11309700000.0 11309700000.0 11309700000.0 11309700000.0 11309700000.0 11309700000.0 11309700000.0 11309700000.0 11309700000.0 11309700000.0 11309700000.0 11309700000.0 11309700000.0 11309700000.0 11309700000.0 11309700000.0 11309700000.0 11309700000.0 11309700000.0 11309700000.0 11309700000.0 11309700000.0 11309700000.0 11309700000.0 11309700000.0 11309700000.0 11309700000.0 11309700000.0 11309700000.0 11309700000.0 11309700000.0 11309700000.0 11309700000.0 11309700000.0 11309700000.0 11309700000.0 11309700000.0 11309700000.0 11309700000.0 11309700000.0 11309700000.0 11309700000.0 11309700000.0 11309700000.0 11309700000.0 11309700000.0 11309700000.0 11309700000.0 11309700000.0 11309700000.0 11309700000.0 11309700000.0 11309700000.0 11309700000.0 11309700000.0 11309700000.0 11309700000.0 11309700000.0 11309700000.0 11309700000.0 11309700000.0 11309700000.0 11309700000.0 11309700000.0 11309700000.0 11309700000.0 11309700000.0 11309700000.0 11309700000.0 11309700000.0 11309700000.0 11309700000.0 11309700000.0 11309700000.0 11309700000.0 11309700000.0 11309700000.0 11309700000.0 11309700000.0 11309700000.0 11309700000.0 11309700000.0 11309700000.0 11309700000.0 11309700000.0 11309700000.0 11309700000.0 11309700000.0 11309700000.0 11309700000.0 11309700000.0 11309700000.0 11309700000.0 11309700000.0 11309700000.0 11309700000.0 11309700000.0 11309700000.0 11309700000.0 11309700000.0 11309700000.0 11309700000.0 11309700000.0 11309700000.0 11309700000.0 11309700000.0 11309700000.0 11309700000.0 11309700000.0 11309700000.0 11309700000.0 11309700000.0 11309700000.0 11309700000.0 11309700000.0 11309700000.0 11309700000.0 11309700000.0 11309700000.0 11309700000.0 11309700000.0 11309700000.0 11309700000.0 11309700000.0 11309700000.0 11309700000.0 11309700000.0 11309700000.0 11309700000.0 11309700000.0 11309700000.0 11309700000.0 11309700000.0 11309700000.0 11309700000.0 11309700000.0 11309700000.0 11309700000.0 11309700000.0 11309700000.0 11309700000.0 11309700000.0 11309700000.0 11309700000.0 11309700000.0 11309700000.0 11309700000.0 11309700000.0 11309700000.0 11309700000.0 11309700000.0 11309700000.0 11309700000.0 11309700000.0 11309700000.0 11309700000.0 11309700000.0 11309700000.0 11309700000.0 11309700000.0 11309700000.0 11309700000.0 11309700000.0 11309700000.0 11309700000.0 11309700000.0 11309700000.0 11309700000.0 11309700000.0 11309700000.0 11309700000.0 11309700000.0 11309700000.0 11309700000.0 11309700000.0 11309700000.0 11309700000.0 11309700000.0 11309700000.0 11309700000.0 11309700000.0 11309700000.0 11309700000.0 11309700000.0 11309700000.0 11309700000.0 11309700000.0 11309700000.0 11309700000.0 11309700000.0 11309700000.0 11309700000.0 11309700000.0 11309700000.0 11309700000.0 11309700000.0 11309700000.0 11309700000.0 11309700000.0 11309700000.0 11309700000.0 11309700000.0 11309700000.0 11309700000.0 11309700000.0 11309700000.0 11309700000.0 11309700000.0 11309700000.0 11309700000.0 11309700000.0 11309700000.0 11309700000.0 11309700000.0 11309700000.0 11309700000.0 11309700000.0 11309700000.0 11309700000.0 11309700000.0 11309700000.0 11309700000.0 11309700000.0 11309700000.0 11309700000.0 11309700000.0 11309700000.0 11309700000.0 11309700000.0 11309700000.0 11309700000.0 11309700000.0 11309700000.0 11309700000.0 11309700000.0 11309700000.0 11309700000.0 11309700000.0 11309700000.0 11309700000.0 11309700000.0 11309700000.0 11309700000.0 11309700000.0 11309700000.0 11309700000.0 11309700000.0 11309700000.0 11309700000.0 11309700000.0 11309700000.0 11309700000.0 11309700000.0 11309700000.0 11309700000.0 11309700000.0 11309700000.0 11309700000.0 11309700000.0 11309700000.0 11309700000.0 11309700000.0 11309700000.0 11309700000.0 11309700000.0 11309700000.0 11309700000.0 11309700000.0 11309700000.0 11309700000.0 11309700000.0 11309700000.0 11309700000.0 11309700000.0 11309700000.0 11309700000.0 11309700000.0 11309700000.0 11309700000.0 11309700000.0 11309700000.0 11309700000.0 11309700000.0 11309700000.0 11309700000.0 11309700000.0 11309700000.0 11309700000.0 11309700000.0 11309700000.0 11309700000.0 11309700000.0 11309700000.0 11309700000.0 11309700000.0 11309700000.0 11309700000.0 11309700000.0 11309700000.0 11309700000.0 11309700000.0 11309700000.0 11309700000.0 11309700000.0 11309700000.0 11309700000.0 11309700000.0 11309700000.0 11309700000.0 11309700000.0 11309700000.0 11309700000.0 11309700000.0 11309700000.0 11309700000.0 11309700000.0 11309700000.0 11309700000.0 11309700000.0 11309700000.0 11309700000.0 11309700000.0 11309700000.0 11309700000.0 11309700000.0 11309700000.0 11309700000.0 11309700000.0 11309700000.0 11309700000.0 11309700000.0 11309700000.0 11309700000.0 11309700000.0 11309700000.0 11309700000.0 11309700000.0 11309700000.0 11309700000.0 11309700000.0 11309700000.0 11309700000.0 11309700000.0 11309700000.0 11309700000.0 11309700000.0 11309700000.0 11309700000.0 11309700000.0 11309700000.0 11309700000.0 11309700000.0 11309700000.0 11309700000.0 11309700000.0 11309700000.0 11309700000.0 11309700000.0 11309700000.0 11309700000.0 11309700000.0 11309700000.0 11309700000.0 11309700000.0 11309700000.0 11309700000.0 11309700000.0 11309700000.0 11309700000.0 11309700000.0 11309700000.0 11309700000.0 11309700000.0 11309700000.0 11309700000.0 11309700000.0 11309700000.0 11309700000.0 11309700000.0 11309700000.0 11309700000.0 11309700000.0 11309700000.0 11309700000.0 11309700000.0 11309700000.0 11309700000.0 11309700000.0 11309700000.0 11309700000.0 11309700000.0 11309700000.0 11309700000.0 11309700000.0 11309700000.0 11309700000.0 11309700000.0 11309700000.0 11309700000.0 11309700000.0 11309700000.0 11309700000.0 11309700000.0 11309700000.0 11309700000.0 11309700000.0 11309700000.0 11309700000.0 11309700000.0 11309700000.0 11309700000.0 11309700000.0 11309700000.0 11309700000.0 11309700000.0 11309700000.0 11309700000.0 11309700000.0 11309700000.0 11309700000.0 11309700000.0 11309700000.0 11309700000.0 11309700000.0 11309700000.0 11309700000.0 11309700000.0 11309700000.0 11309700000.0 11309700000.0 11309700000.0 11309700000.0 11309700000.0 11309700000.0 11309700000.0 11309700000.0 11309700000.0 11309700000.0 11309700000.0 11309700000.0 11309700000.0 11309700000.0 11309700000.0 11309700000.0 11309700000.0 11309700000.0 11309700000.0 11309700000.0 11309700000.0 11309700000.0 11309700000.0 11309700000.0 11309700000.0 11309700000.0 11309700000.0 11309700000.0 11309700000.0 11309700000.0 11309700000.0 11309700000.0 11309700000.0 11309700000.0 11309700000.0 11309700000.0 11309700000.0 11309700000.0 11309700000.0 11309700000.0 11309700000.0 11309700000.0 11309700000.0 11309700000.0 11309700000.0 11309700000.0 11309700000.0 11309700000.0 11309700000.0 11309700000.0 11309700000.0 11309700000.0 11309700000.0 11309700000.0 11309700000.0 11309700000.0 11309700000.0 11309700000.0 11309700000.0 11309700000.0 11309700000.0 11309700000.0 11309700000.0 11309700000.0 11309700000.0 11309700000.0 11309700000.0 11309700000.0 11309700000.0 11309700000.0 11309700000.0 11309700000.0 11309700000.0 11309700000.0 11309700000.0 11309700000.0 11309700000.0 11309700000.0 11309700000.0 11309700000.0 11309700000.0 11309700000.0 11309700000.0 11309700000.0 11309700000.0 11309700000.0 11309700000.0 11309700000.0 11309700000.0 11309700000.0 11309700000.0 11309700000.0 11309700000.0 11309700000.0 11309700000.0 11309700000.0 11309700000.0 11309700000.0 11309700000.0 11309700000.0 11309700000.0 11309700000.0 11309700000.0 11309700000.0 11309700000.0 11309700000.0 11309700000.0 11309700000.0 11309700000.0 11309700000.0 11309700000.0 11309700000.0 11309700000.0 11309700000.0 11309700000.0 11309700000.0 11309700000.0 11309700000.0 11309700000.0 11309700000.0 11309700000.0 11309700000.0 11309700000.0 11309700000.0 11309700000.0 11309700000.0 11309700000.0 11309700000.0 11309700000.0 11309700000.0 11309700000.0 11309700000.0 11309700000.0 11309700000.0 11309700000.0 11309700000.0 11309700000.0 11309700000.0 11309700000.0 11309700000.0 11309700000.0 11309700000.0 11309700000.0 11309700000.0 11309700000.0 11309700000.0 11309700000.0 11309700000.0 11309700000.0 11309700000.0 11309700000.0 11309700000.0 11309700000.0 11309700000.0 11309700000.0 11309700000.0 11309700000.0 11309700000.0 11309700000.0 11309700000.0 11309700000.0 11309700000.0 11309700000.0 11309700000.0 11309700000.0 11309700000.0 11309700000.0 11309700000.0 11309700000.0 11309700000.0 11309700000.0 11309700000.0 11309700000.0 11309700000.0 11309700000.0 11309700000.0 11309700000.0 11309700000.0 11309700000.0 11309700000.0 11309700000.0 11309700000.0 11309700000.0 11309700000.0 11309700000.0 11309700000.0 11309700000.0 11309700000.0 11309700000.0 11309700000.0 11309700000.0 11309700000.0 11309700000.0 11309700000.0 11309700000.0 11309700000.0 11309700000.0 11309700000.0 11309700000.0 11309700000.0 11309700000.0 11309700000.0 11309700000.0 11309700000.0 11309700000.0 11309700000.0 11309700000.0 11309700000.0 11309700000.0 11309700000.0 11309700000.0 11309700000.0 11309700000.0 11309700000.0 11309700000.0 11309700000.0 11309700000.0 11309700000.0 11309700000.0 11309700000.0 11309700000.0 11309700000.0 11309700000.0 11309700000.0 11309700000.0 11309700000.0 11309700000.0 11309700000.0 11309700000.0 11309700000.0 11309700000.0 11309700000.0 11309700000.0 11309700000.0 11309700000.0 11309700000.0 11309700000.0 11309700000.0 11309700000.0 11309700000.0 11309700000.0 11309700000.0 11309700000.0 11309700000.0 11309700000.0 11309700000.0 11309700000.0 11309700000.0 11309700000.0 11309700000.0 11309700000.0 11309700000.0 11309700000.0 11309700000.0 11309700000.0 11309700000.0 11309700000.0 11309700000.0 11309700000.0 11309700000.0 11309700000.0 11309700000.0 11309700000.0 11309700000.0 11309700000.0 11309700000.0 11309700000.0 11309700000.0 11309700000.0 11309700000.0 11309700000.0 11309700000.0 11309700000.0 11309700000.0 11309700000.0 11309700000.0 11309700000.0 11309700000.0 11309700000.0 11309700000.0 11309700000.0 11309700000.0 11309700000.0 11309700000.0 11309700000.0 11309700000.0 11309700000.0 11309700000.0 11309700000.0 11309700000.0 11309700000.0 11309700000.0 11309700000.0 11309700000.0 11309700000.0 11309700000.0 11309700000.0 11309700000.0 11309700000.0 11309700000.0 11309700000.0 11309700000.0 11309700000.0 11309700000.0 11309700000.0 11309700000.0 11309700000.0 11309700000.0 11309700000.0 11309700000.0 11309700000.0 11309700000.0 11309700000.0 11309700000.0 11309700000.0 11309700000.0 11309700000.0 11309700000.0 11309700000.0 11309700000.0 11309700000.0 11309700000.0 11309700000.0 11309700000.0 11309700000.0 11309700000.0 11309700000.0 11309700000.0 11309700000.0 11309700000.0 11309700000.0 11309700000.0 11309700000.0 11309700000.0 11309700000.0 11309700000.0 11309700000.0 11309700000.0 11309700000.0 11309700000.0 11309700000.0 11309700000.0 11309700000.0 11309700000.0 11309700000.0 11309700000.0 11309700000.0 11309700000.0 11309700000.0 11309700000.0 11309700000.0 11309700000.0 11309700000.0 11309700000.0 11309700000.0 11309700000.0 11309700000.0 11309700000.0 11309700000.0 11309700000.0 11309700000.0 11309700000.0 11309700000.0 11309700000.0 11309700000.0 11309700000.0 11309700000.0 11309700000.0 11309700000.0 11309700000.0 11309700000.0 11309700000.0 11309700000.0 11309700000.0 11309700000.0 11309700000.0 11309700000.0 11309700000.0 11309700000.0 11309700000.0 11309700000.0 11309700000.0 11309700000.0 11309700000.0 11309700000.0 11309700000.0 11309700000.0 11309700000.0 11309700000.0 11309700000.0 11309700000.0 11309700000.0 11309700000.0 11309700000.0 11309700000.0 11309700000.0 11309700000.0 11309700000.0 11309700000.0 11309700000.0 11309700000.0 11309700000.0 11309700000.0 11309700000.0 11309700000.0 11309700000.0 11309700000.0 11309700000.0 11309700000.0 11309700000.0 11309700000.0 11309700000.0 11309700000.0 11309700000.0 11309700000.0 11309700000.0 11309700000.0 11309700000.0 11309700000.0 11309700000.0 11309700000.0 11309700000.0 11309700000.0 11309700000.0 11309700000.0 11309700000.0 11309700000.0 11309700000.0 11309700000.0 11309700000.0 11309700000.0 11309700000.0 11309700000.0 11309700000.0 11309700000.0 11309700000.0 11309700000.0 11309700000.0 11309700000.0 11309700000.0 11309700000.0 11309700000.0 11309700000.0 11309700000.0 11309700000.0 11309700000.0 11309700000.0 11309700000.0 11309700000.0 11309700000.0 11309700000.0 11309700000.0 11309700000.0 11309700000.0 11309700000.0 11309700000.0 11309700000.0 11309700000.0 11309700000.0 11309700000.0 11309700000.0 11309700000.0 11309700000.0 11309700000.0 11309700000.0 11309700000.0 11309700000.0 11309700000.0 11309700000.0 11309700000.0 11309700000.0 11309700000.0 11309700000.0 11309700000.0 11309700000.0 11309700000.0 11309700000.0 11309700000.0 11309700000.0 11309700000.0 11309700000.0 11309700000.0 11309700000.0 11309700000.0 11309700000.0 11309700000.0 11309700000.0 11309700000.0 11309700000.0 11309700000.0 11309700000.0 11309700000.0 11309700000.0 11309700000.0 11309700000.0 11309700000.0 11309700000.0 11309700000.0 11309700000.0 11309700000.0 11309700000.0 11309700000.0 11309700000.0 11309700000.0 11309700000.0 11309700000.0 11309700000.0 11309700000.0 11309700000.0 11309700000.0 11309700000.0 11309700000.0 11309700000.0 11309700000.0 11309700000.0 11309700000.0 11309700000.0 11309700000.0 11309700000.0 11309700000.0 11309700000.0 11309700000.0 11309700000.0 11309700000.0 11309700000.0 11309700000.0 11309700000.0 11309700000.0 11309700000.0 11309700000.0 11309700000.0 11309700000.0 11309700000.0 11309700000.0 11309700000.0 11309700000.0 11309700000.0 11309700000.0 11309700000.0 11309700000.0 11309700000.0 11309700000.0 11309700000.0 11309700000.0 11309700000.0 11309700000.0 11309700000.0 11309700000.0 11309700000.0 11309700000.0 11309700000.0 11309700000.0 11309700000.0 11309700000.0 11309700000.0 11309700000.0 11309700000.0 11309700000.0 11309700000.0 11309700000.0 11309700000.0 11309700000.0 11309700000.0 11309700000.0 11309700000.0 11309700000.0 11309700000.0 11309700000.0 11309700000.0 11309700000.0 11309700000.0 11309700000.0 11309700000.0 11309700000.0 11309700000.0 11309700000.0 11309700000.0 11309700000.0 11309700000.0 11309700000.0 11309700000.0 11309700000.0 11309700000.0 11309700000.0 11309700000.0 11309700000.0 11309700000.0 11309700000.0 11309700000.0 11309700000.0 11309700000.0 11309700000.0 11309700000.0 11309700000.0 11309700000.0 11309700000.0 11309700000.0 11309700000.0 11309700000.0 11309700000.0 11309700000.0 11309700000.0 11309700000.0 11309700000.0 11309700000.0 11309700000.0 11309700000.0 11309700000.0 11309700000.0 11309700000.0 11309700000.0 11309700000.0 11309700000.0 11309700000.0 11309700000.0 11309700000.0 11309700000.0 11309700000.0 11309700000.0 11309700000.0 11309700000.0 11309700000.0 11309700000.0 11309700000.0 11309700000.0 11309700000.0 11309700000.0 11309700000.0 11309700000.0 11309700000.0 11309700000.0 11309700000.0 11309700000.0 11309700000.0 11309700000.0 11309700000.0 11309700000.0 11309700000.0 11309700000.0 11309700000.0 11309700000.0 11309700000.0 11309700000.0 11309700000.0 11309700000.0 11309700000.0 11309700000.0 11309700000.0 11309700000.0 11309700000.0 11309700000.0 11309700000.0 11309700000.0 11309700000.0 11309700000.0 11309700000.0 11309700000.0 11309700000.0 11309700000.0 11309700000.0 11309700000.0 11309700000.0 11309700000.0 11309700000.0 11309700000.0 11309700000.0 11309700000.0 11309700000.0 11309700000.0 11309700000.0 11309700000.0 11309700000.0 11309700000.0 11309700000.0 11309700000.0 11309700000.0 11309700000.0 11309700000.0 11309700000.0 11309700000.0 11309700000.0 11309700000.0 11309700000.0 11309700000.0 11309700000.0 11309700000.0 11309700000.0 11309700000.0 11309700000.0 11309700000.0 11309700000.0 11309700000.0 11309700000.0 11309700000.0 11309700000.0 11309700000.0 11309700000.0 11309700000.0 11309700000.0 11309700000.0 11309700000.0 11309700000.0 11309700000.0 11309700000.0 11309700000.0 11309700000.0 11309700000.0 11309700000.0 11309700000.0 11309700000.0 11309700000.0 11309700000.0 11309700000.0 11309700000.0 11309700000.0 11309700000.0 11309700000.0 11309700000.0 11309700000.0 11309700000.0 11309700000.0 11309700000.0 11309700000.0 11309700000.0 11309700000.0 11309700000.0 11309700000.0 11309700000.0 11309700000.0 11309700000.0 11309700000.0 11309700000.0 11309700000.0 11309700000.0 11309700000.0 11309700000.0 11309700000.0 11309700000.0 11309700000.0 11309700000.0 11309700000.0 11309700000.0 11309700000.0 11309700000.0 11309700000.0 11309700000.0 11309700000.0 11309700000.0 11309700000.0 11309700000.0 11309700000.0 11309700000.0 11309700000.0 11309700000.0 11309700000.0 11309700000.0 11309700000.0 11309700000.0 11309700000.0 11309700000.0 11309700000.0 11309700000.0 11309700000.0 11309700000.0 11309700000.0 11309700000.0 11309700000.0 11309700000.0 11309700000.0 11309700000.0 11309700000.0 11309700000.0 11309700000.0 11309700000.0 11309700000.0 11309700000.0 11309700000.0 11309700000.0 11309700000.0 11309700000.0 11309700000.0 11309700000.0 11309700000.0 11309700000.0 11309700000.0 11309700000.0 11309700000.0 11309700000.0 11309700000.0 11309700000.0 11309700000.0 11309700000.0 11309700000.0 11309700000.0 11309700000.0 11309700000.0 11309700000.0 11309700000.0 11309700000.0 11309700000.0 11309700000.0 11309700000.0 11309700000.0 11309700000.0 11309700000.0 11309700000.0 11309700000.0 11309700000.0 11309700000.0 11309700000.0 11309700000.0 11309700000.0 11309700000.0 11309700000.0 11309700000.0 11309700000.0 11309700000.0 11309700000.0 11309700000.0 11309700000.0 11309700000.0 11309700000.0 11309700000.0 11309700000.0 11309700000.0 11309700000.0 11309700000.0 11309700000.0 11309700000.0 11309700000.0 11309700000.0 11309700000.0 11309700000.0 11309700000.0 11309700000.0 11309700000.0 11309700000.0 11309700000.0 11309700000.0 11309700000.0 11309700000.0 11309700000.0 11309700000.0 11309700000.0 11309700000.0 11309700000.0 11309700000.0 11309700000.0 11309700000.0 11309700000.0 11309700000.0 11309700000.0 11309700000.0 11309700000.0 11309700000.0 11309700000.0 11309700000.0 11309700000.0 11309700000.0 11309700000.0 11309700000.0 11309700000.0 11309700000.0 11309700000.0 11309700000.0 11309700000.0 11309700000.0 11309700000.0 11309700000.0 11309700000.0 11309700000.0 11309700000.0 11309700000.0 11309700000.0 11309700000.0 11309700000.0 11309700000.0 11309700000.0 11309700000.0 11309700000.0 11309700000.0 11309700000.0 11309700000.0 11309700000.0 11309700000.0 11309700000.0 11309700000.0 11309700000.0 11309700000.0 11309700000.0 11309700000.0 11309700000.0 11309700000.0 11309700000.0 11309700000.0 11309700000.0 11309700000.0 11309700000.0 11309700000.0 11309700000.0 11309700000.0 11309700000.0 11309700000.0 11309700000.0 11309700000.0 11309700000.0 11309700000.0 11309700000.0 11309700000.0 11309700000.0 11309700000.0 11309700000.0 11309700000.0 11309700000.0 11309700000.0 11309700000.0 11309700000.0 11309700000.0 11309700000.0 11309700000.0 11309700000.0 11309700000.0 11309700000.0 11309700000.0 11309700000.0 11309700000.0 11309700000.0 11309700000.0 11309700000.0 11309700000.0 11309700000.0 11309700000.0 11309700000.0 11309700000.0 11309700000.0 11309700000.0 11309700000.0 11309700000.0 11309700000.0 11309700000.0 11309700000.0 11309700000.0 11309700000.0 11309700000.0 11309700000.0 11309700000.0 11309700000.0 11309700000.0 11309700000.0 11309700000.0 11309700000.0 11309700000.0 11309700000.0 11309700000.0 11309700000.0 11309700000.0 11309700000.0 11309700000.0 11309700000.0 11309700000.0 11309700000.0 11309700000.0 11309700000.0 11309700000.0 11309700000.0 11309700000.0 11309700000.0 11309700000.0 11309700000.0 11309700000.0 11309700000.0 11309700000.0 11309700000.0 11309700000.0 11309700000.0 11309700000.0 11309700000.0 11309700000.0 11309700000.0 11309700000.0 11309700000.0 11309700000.0 11309700000.0 11309700000.0 11309700000.0 11309700000.0 11309700000.0 11309700000.0 11309700000.0 11309700000.0 11309700000.0 11309700000.0 11309700000.0 11309700000.0 11309700000.0 11309700000.0 11309700000.0 11309700000.0 11309700000.0 11309700000.0 11309700000.0 11309700000.0 11309700000.0 11309700000.0 11309700000.0 11309700000.0 11309700000.0 11309700000.0 11309700000.0 11309700000.0 11309700000.0 11309700000.0 11309700000.0 11309700000.0 11309700000.0 11309700000.0 11309700000.0 11309700000.0 11309700000.0 11309700000.0 11309700000.0 11309700000.0 11309700000.0 11309700000.0 11309700000.0 11309700000.0 11309700000.0 11309700000.0 11309700000.0 11309700000.0 11309700000.0 11309700000.0 11309700000.0 11309700000.0 11309700000.0 11309700000.0 11309700000.0 11309700000.0 11309700000.0 11309700000.0 11309700000.0 11309700000.0 11309700000.0 11309700000.0 11309700000.0 11309700000.0 11309700000.0 11309700000.0 11309700000.0 11309700000.0 11309700000.0 11309700000.0 11309700000.0 11309700000.0 11309700000.0 11309700000.0 11309700000.0 11309700000.0 11309700000.0 11309700000.0 11309700000.0 11309700000.0 11309700000.0 11309700000.0 11309700000.0 11309700000.0 11309700000.0 11309700000.0 11309700000.0 11309700000.0 11309700000.0 11309700000.0 11309700000.0 11309700000.0 11309700000.0 11309700000.0 11309700000.0 11309700000.0 11309700000.0 11309700000.0 11309700000.0 11309700000.0 11309700000.0 11309700000.0 11309700000.0 11309700000.0 11309700000.0 11309700000.0 11309700000.0 11309700000.0 11309700000.0 11309700000.0 11309700000.0 11309700000.0 11309700000.0 11309700000.0 11309700000.0 11309700000.0 11309700000.0 11309700000.0 11309700000.0 11309700000.0 11309700000.0 11309700000.0 11309700000.0 11309700000.0 11309700000.0 11309700000.0 11309700000.0 11309700000.0 11309700000.0 11309700000.0 11309700000.0 11309700000.0 11309700000.0 11309700000.0 11309700000.0 11309700000.0 11309700000.0 11309700000.0 11309700000.0 11309700000.0 11309700000.0 11309700000.0 11309700000.0 11309700000.0 11309700000.0 11309700000.0 11309700000.0 11309700000.0 11309700000.0 11309700000.0 11309700000.0 11309700000.0 11309700000.0 11309700000.0 11309700000.0 11309700000.0 11309700000.0 11309700000.0 11309700000.0 11309700000.0 11309700000.0 11309700000.0 11309700000.0 11309700000.0 11309700000.0 11309700000.0 11309700000.0 11309700000.0 11309700000.0 11309700000.0 11309700000.0 11309700000.0 11309700000.0 11309700000.0 11309700000.0 11309700000.0 11309700000.0 11309700000.0 11309700000.0 11309700000.0 11309700000.0 11309700000.0 11309700000.0 11309700000.0 11309700000.0 11309700000.0 11309700000.0 11309700000.0 11309700000.0 11309700000.0 11309700000.0 11309700000.0 11309700000.0 11309700000.0 11309700000.0 11309700000.0 11309700000.0 11309700000.0 11309700000.0 11309700000.0 11309700000.0 11309700000.0 11309700000.0 11309700000.0 11309700000.0 11309700000.0 11309700000.0 11309700000.0 11309700000.0 11309700000.0 11309700000.0 11309700000.0 11309700000.0 11309700000.0 11309700000.0 11309700000.0 
SCALARS Velocity float 1
LOOKUP_TABLE default
1.05461 1.08003 1.07066 1.06792 1.11049 1.11073 1.10627 1.12449 1.04789 1.10446 1.10359 1.05669 1.08162 1.04572 1.26873 1.0911 1.08355 1.07408 1.10931 1.10988 1.11276 1.10876 1.10512 1.10419 1.10583 1.0562 1.06817 1.0983 1.06602 1.26345 1.09278 1.08138 1.11108 1.11069 1.1145 1.1111 1.10688 1.10542 1.1048 1.02418 1.07634 1.10825 1.09938 1.08275 1.06499 1.04478 1.2694 1.26289 1.09397 1.09344 1.08602 1.08424 1.07196 1.10879 1.11054 1.11286 1.1108 1.10899 1.10829 1.10643 1.10664 1.105 1.10533 1.10612 1.02432 1.04477 1.11564 1.10883 1.08403 1.04884 1.26737 1.09525 1.08795 1.06992 1.11089 1.1108 1.11419 1.1116 1.1102 1.10844 1.10696 1.10694 1.05601 1.11518 1.10045 1.06778 1.26288 1.25955 1.09266 1.08666 1.10599 1.11009 1.11202 1.11145 1.11059 1.10892 1.10766 1.04232 1.10968 1.1018 1.08684 1.07504 1.05565 1.25459 1.09631 1.08849 1.08815 1.06705 1.10275 1.10763 1.11186 1.11329 1.1125 1.11379 1.11122 1.11138 1.10909 1.10706 1.10481 1.09513 1.05665 1.11553 1.10987 1.09378 1.06676 1.25594 1.10081 1.09199 1.08636 1.06325 1.09871 1.10299 1.10391 1.10965 1.11155 1.11556 1.11444 1.10969 1.10209 1.10104 1.11363 1.10766 1.08701 1.24487 1.24755 1.09428 1.08528 1.08782 1.09709 1.10604 1.11488 1.11754 1.11331 1.10581 1.09961 1.11657 1.11553 1.10421 1.08289 1.23682 1.11298 1.08546 1.09018 1.08827 1.09732 1.11016 1.11883 1.1217 1.11784 1.11521 1.10977 1.10529 1.10238 1.10458 1.10807 1.11918 1.11939 1.12207 1.11582 1.11255 1.10216 1.11271 1.22306 1.13145 1.10024 1.13332 1.10385 1.0868 1.08134 1.07718 1.08682 1.089 1.10113 1.10789 1.11605 1.12217 1.12162 1.10991 1.10352 1.1139 1.12476 1.1197 1.10731 1.18818 1.22565 1.15901 1.1075 1.07493 1.07567 1.09523 1.1169 1.12625 1.11707 1.10443 1.10843 1.12465 1.12441 1.11123 1.12454 1.21855 1.15195 1.14044 1.08676 1.06641 1.0797 1.10557 1.12576 1.12526 1.11728 1.10867 1.10045 1.10319 1.11133 1.1202 1.13146 1.12805 1.11918 1.11448 1.10256 1.11109 1.14203 1.19012 1.22754 1.17057 1.16654 1.15739 1.11461 1.08433 1.06849 1.05405 1.06402 1.06969 1.08951 1.1042 1.11822 1.12964 1.13083 1.12806 1.1041 1.09937 1.12695 1.12918 1.10016 1.11323 1.20211 1.19213 1.12752 1.05271 1.0502 1.08461 1.1206 1.13501 1.11453 1.09109 1.11313 1.14093 1.13062 1.11072 1.09134 1.09743 1.14355 1.23268 1.18315 1.19482 1.0781 1.03929 1.061 1.1048 1.13393 1.12961 1.09267 1.07112 1.08814 1.11032 1.13324 1.15319 1.09942 1.08656 1.07044 1.12604 1.21027 1.235 1.18826 1.24411 1.15955 1.12533 1.05489 1.03115 1.03971 1.05914 1.08282 1.10736 1.12373 1.13799 1.13949 1.13206 1.10864 1.07758 1.06938 1.1369 1.13171 1.06469 1.05047 1.04521 1.27127 1.10125 1.09634 1.23723 1.06609 1.03926 1.085 1.12609 1.1444 1.10082 1.05094 1.11798 1.14727 1.16567 1.10046 1.0787 1.05377 1.10637 1.12047 1.43023 1.22494 0.791247 0.97314 1.32061 1.29275 1.14381 1.07617 1.03518 1.05311 1.06312 1.08713 1.11418 1.14024 1.13911 1.05707 1.01633 1.04971 1.15277 1.18146 1.04286 1.0435 1.07662 1.08095 1.32715 1.46868 0.909256 0.646348 0.953229 0.929674 1.00203 1.45075 1.16784 1.07914 1.07125 1.11237 1.1495 1.18963 1.14872 1.15078 1.09416 1.04399 1.01171 1.12425 1.13257 1.06347 1.24855 1.25289 1.64297 0.637151 0.662788 0.666757 0.737265 1.1473 1.46352 1.19399 1.07721 1.08796 1.14066 1.23509 1.06919 1.00772 1.05946 1.33749 0.844283 1.06937 1.10477 1.18496 1.50778 1.59224 1.37437 1.40259 1.20433 0.990504 0.797709 0.675412 0.686189 1.11391 1.23662 1.38121 1.11967 1.36627 1.38892 1.15802 1.10799 1.08316 1.09201 1.1111 1.12618 1.18201 1.05765 1.03481 0.941568 0.690361 0.964093 1.12189 1.11144 1.11329 1.34301 1.52393 1.1862 1.24888 1.10918 0.87941 0.772019 0.784841 0.692682 0.695535 0.690697 0.769815 0.884399 1.06788 1.23139 1.3549 1.04638 0.911231 1.29133 1.09969 1.11124 1.29453 1.33259 1.04858 0.984521 0.880955 0.683417 0.771064 1.03558 1.1378 0.977816 1.1517 0.902014 0.959524 0.705262 0.885039 0.75508 0.811546 0.776504 0.666204 0.683366 0.690138 0.709231 0.885768 0.947361 1.11645 0.78408 0.741453 1.15337 1.1204 1.07596 1.08913 1.33658 1.31407 0.994424 0.970345 0.75428 0.694874 0.771944 0.888165 0.957664 1.07589 0.895536 0.94451 0.898209 0.965259 0.653119 0.652542 0.770632 0.799498 0.738268 0.69197 0.655499 0.679585 0.700772 0.686024 0.69542 0.73288 0.804885 1.08894 0.881539 0.707443 0.656587 0.773107 0.885793 1.09422 1.08889 1.10997 1.00282 1.00877 0.878378 0.752358 0.85338 0.970015 1.04012 0.922998 0.845621 0.867703 1.0034 0.877662 0.81405 0.76532 0.786779 0.657372 0.562839 0.617689 0.647174 0.643328 0.667814 0.710237 0.72005 0.763808 0.814281 1.01484 0.962906 0.803745 0.722631 0.97644 1.09399 1.04114 0.823215 1.07714 1.01676 0.996456 0.941141 0.87383 0.803477 0.794099 0.794141 0.890683 0.951577 0.890136 0.841331 0.869971 1.03558 1.24494 1.02745 0.714592 0.740138 0.782801 0.867515 0.589116 0.645493 0.640839 0.631708 0.638077 0.601172 0.690698 0.706486 0.715422 0.705724 0.649508 0.923562 0.761501 0.883602 1.06892 1.05149 1.05513 0.953997 0.746155 1.06655 0.91988 0.829202 0.812004 0.83531 0.855378 0.895901 0.916472 0.894666 0.973648 0.0948867 0.686068 0.58546 0.648234 0.622733 0.763715 0.417487 0.595444 0.624212 0.636359 0.648851 0.638549 0.600898 0.624488 0.617741 0.64802 0.742401 0.574712 0.787858 0.709101 1.03886 1.00393 0.839288 0.845386 0.827519 0.954983 1.01597 1.05014 0.987228 0.821189 0.706258 1.02152 0.899448 0.86956 0.843603 0.819177 0.832363 0.866115 0.892726 0.891879 0.904983 0.943541 1.37007 0.174327 0.355635 0.543704 0.611738 0.801518 0.388366 0.510329 0.627951 0.61461 0.608963 0.647988 0.608654 0.516297 0.557689 0.536238 0.803555 0.595853 0.618821 0.60476 0.676128 0.636618 1.11265 1.04867 0.864592 1.06816 1.00602 0.931216 0.896805 0.81148 0.758348 0.720369 0.681404 0.689017 0.866308 0.830081 0.823619 0.834554 0.849983 0.875704 0.918866 0.950971 1.06422 1.06265 1.17309 0.399465 0.439597 0.549856 0.559058 0.608873 0.609275 0.471407 0.582987 0.627449 0.628393 0.638858 0.657002 0.690387 0.654727 0.576306 0.460688 0.455793 0.358717 0.581788 0.568833 0.708917 1.79467 0.86315 1.34303 0.810691 1.04353 1.12607 1.03997 0.958669 0.858545 0.760854 0.700626 0.802153 0.840436 0.826326 0.851224 0.867184 0.884963 0.891741 0.975148 1.15719 1.02368 0.755326 0.54246 0.603151 0.569676 0.488756 0.553281 0.580479 0.642455 0.616805 0.638903 0.68585 0.620474 0.654374 0.698016 0.70157 0.619393 0.485684 0.435337 0.468976 0.515547 0.573328 0.652589 0.637261 0.561 0.556621 1.0575 0.722644 0.838841 0.91348 0.96831 0.38074 1.00712 0.892181 0.843363 0.799619 0.762701 0.732176 0.727756 0.725283 0.77666 0.81691 0.812629 0.824676 0.820096 0.83314 0.872796 0.913011 0.924844 1.17291 0.915146 0.669225 0.73089 0.666288 0.718064 0.654772 0.594049 0.60065 0.617766 0.658165 0.696649 0.60395 0.714317 0.650072 0.502789 0.557859 0.664945 0.710842 0.752078 0.74434 0.733461 0.530533 0.499826 0.56598 0.65635 0.510865 0.603969 0.727969 0.715882 0.865959 0.740531 0.430492 1.179 1.04021 0.941163 0.901982 0.796393 0.742286 0.745002 0.789955 0.806695 0.826227 0.847795 0.904063 0.971369 0.936519 0.450254 1.25877 1.42744 1.47324 0.889737 0.838312 0.761238 0.696751 0.568902 0.592118 0.643175 0.67154 0.605665 0.598835 0.801251 0.665056 0.637365 0.62162 0.465882 0.588382 0.618359 0.740775 0.673375 0.514916 0.892843 0.59288 0.670595 0.731998 0.710783 0.739222 0.766915 0.698516 0.64254 0.487133 0.629722 1.08234 0.992598 0.847141 0.762959 0.742246 0.767548 0.790383 0.806951 0.844062 0.873645 0.898533 0.955873 0.900784 0.638336 0.570939 0.792864 0.826403 0.924892 1.1263 0.389597 0.563608 0.739213 0.685135 0.59515 0.600665 0.767649 0.588551 0.340058 0.437947 0.445737 0.468108 0.530163 0.555651 0.641702 0.942387 1.31338 0.80171 1.33126 0.968792 0.741217 0.829212 0.794805 0.775559 0.664883 0.648402 0.58228 0.547165 0.703649 1.0585 0.979599 0.918914 0.834707 0.795786 0.767718 0.749472 0.744928 0.750646 0.759944 0.774505 0.777612 0.790773 0.791795 0.811901 0.829953 0.887623 0.909171 1.12862 0.829018 0.680969 0.434585 0.900753 0.857104 0.790522 0.91645 0.453328 0.536586 0.574555 0.568646 0.938165 0.68791 0.74374 0.667168 0.515517 0.570125 0.255318 0.245987 0.40067 0.43107 0.448466 0.520578 0.550267 0.581648 0.541975 0.497343 0.532979 1.73038 0.320446 0.755106 1.07596 0.860548 0.759603 0.699221 0.698979 0.637443 0.629707 0.592716 0.96291 0.877866 0.794163 0.751663 0.74808 0.765465 0.781068 0.792846 0.900279 0.927684 1.44166 0.937691 0.832342 0.526312 0.671318 0.741149 0.751314 0.807777 0.49001 0.484343 0.616326 0.57254 1.18883 0.421122 0.649116 0.638653 0.510721 0.300726 0.260178 0.341713 0.370361 0.414366 0.43645 0.493786 0.511726 0.552988 0.19487 0.343358 1.00633 0.663704 0.27069 0.28909 1.51028 0.556515 0.607343 0.619768 0.61476 0.615628 0.6204 0.652932 0.731025 0.924795 0.960422 0.92922 0.834005 0.818325 0.769075 0.751658 0.74466 0.743175 0.753367 0.759212 0.770662 0.776308 0.784104 0.787723 0.795083 0.843112 0.872434 0.796863 0.756053 0.944256 0.736441 0.53935 0.652242 0.707529 0.756232 0.729499 0.45468 0.402305 0.570986 0.278205 0.822192 0.367288 0.600034 0.669382 0.648525 0.475651 0.35154 0.300622 0.250185 0.288607 0.392335 0.466714 0.49667 0.574512 0.537321 0.518416 0.384179 0.27562 0.958846 0.416973 0.171807 1.68259 0.531309 0.584332 0.573866 0.571927 0.582307 0.597644 0.378946 0.471362 0.920583 0.924208 0.857693 0.805395 0.787454 0.761895 0.742257 0.747575 0.765653 0.782684 0.781212 0.747855 0.828923 0.713725 0.999313 0.80702 0.651377 0.656096 0.733479 0.629077 0.433592 0.506705 0.45841 0.524817 0.55443 0.450594 0.563653 0.46262 0.269774 0.189405 0.293227 0.297606 0.202266 0.208629 0.237022 0.341636 0.413768 0.455274 0.460197 0.438673 0.494338 0.414929 0.455806 0.493317 0.623676 0.424661 0.79997 1.10117 0.622146 0.563393 0.557997 0.555639 0.538331 0.45277 0.797834 0.939758 0.818837 0.781855 0.746476 0.739442 0.753389 0.773128 0.784043 0.778108 0.695965 0.622753 0.590985 0.770142 0.495939 0.23684 0.0969104 0.381904 0.708773 0.714632 0.668112 0.558225 0.517644 0.49185 0.560876 0.647914 0.400682 0.600912 0.672687 0.362677 0.0784123 0.210331 0.29525 0.0816144 0.138102 0.225549 0.222026 0.188054 0.301187 0.445435 0.403977 0.423435 0.339089 0.432203 0.615419 0.455097 0.337102 0.242464 0.481585 0.524015 0.739325 0.855203 0.663813 0.606076 0.536301 0.529855 0.524045 0.490556 0.45971 0.531438 0.841453 0.830238 0.803989 0.772099 0.755073 0.738898 0.737972 0.734407 0.741233 0.747008 0.760079 0.766246 0.778987 0.77928 0.75238 0.702943 0.666105 0.695536 0.589843 0.336497 0.190961 0.59451 0.659807 0.659547 0.610532 0.520606 0.531543 0.553522 0.694396 0.417314 0.960492 0.645259 0.650198 0.205982 0.169328 0.213923 0.128398 0.19338 0.181117 0.211402 0.219585 0.202547 0.274698 0.395324 0.418697 0.411339 0.304017 0.559622 0.321235 0.151069 0.612794 0.386907 0.289124 0.384591 0.61845 0.725141 0.770149 0.673778 0.582213 0.501069 0.484728 0.447471 0.364724 0.322336 0.654462 0.895981 0.875743 0.79599 0.746592 0.732069 0.735466 0.753297 0.771304 0.772101 0.753484 0.680916 0.723251 0.618008 0.49426 0.370918 0.267868 0.466024 0.579839 0.622771 0.616394 0.580122 0.536768 0.539865 0.555958 0.631711 0.546337 1.00504 0.632675 0.682767 0.507518 0.144042 0.0396306 0.189815 0.136894 0.116374 0.1476 0.244436 0.199741 0.179176 0.162242 0.429641 0.396286 0.386667 0.341056 0.364608 0.379035 0.177301 0.348552 0.511035 0.396007 0.434255 0.459075 0.570654 0.639733 0.702562 0.6987 0.628976 0.554023 0.519647 0.457163 0.422937 0.401699 0.579583 0.863592 0.822761 0.76177 0.732778 0.728202 0.740087 0.745157 0.758804 0.76197 0.773183 0.771337 0.733697 0.685249 0.699164 0.321666 0.398688 0.510008 0.575358 0.595709 0.592199 0.562853 0.583472 0.573114 0.600805 0.579316 0.760352 0.807887 0.588567 0.164176 0.285621 0.0919622 0.0970496 0.0327154 0.105961 0.124452 0.181789 0.252514 0.206556 0.197749 0.171995 0.123127 0.107116 0.0392081 0.090185 0.387665 0.39017 0.371727 0.320431 0.316434 0.293812 0.266734 0.387507 0.438828 0.451165 0.45741 0.574205 0.608251 0.676216 0.637663 0.578021 0.52573 0.501109 0.479904 0.413057 0.353943 0.435047 0.81401 0.83342 0.813142 0.78225 0.747634 0.738929 0.726064 0.724588 0.723203 0.729854 0.733849 0.749042 0.768723 0.769556 0.742309 0.568093 0.49237 0.426071 0.422084 0.476872 0.541576 0.574698 0.585507 0.590093 0.597467 0.603547 0.673824 0.362095 0.155494 0.122184 0.0508385 0.0871449 0.105645 0.176182 0.216361 0.195859 0.245849 0.256718 0.228942 0.184158 0.159074 0.17085 0.0715789 0.38986 0.386132 0.335006 0.33451 0.321109 0.410153 0.458629 0.484767 0.590537 0.609971 0.622149 0.661234 0.588218 0.548808 0.517347 0.492026 0.464505 0.437976 0.878399 0.76112 0.730155 0.719155 0.725547 0.738568 0.754086 0.758826 0.782054 0.816049 0.64171 0.51905 0.441735 0.49983 0.484114 0.47032 0.486829 0.526231 0.588713 0.592264 0.59723 0.589383 0.592885 0.676158 0.717884 0.322174 0.122377 0.0523779 0.0686 0.0870843 0.151257 0.169374 0.168468 0.215368 0.274018 0.32388 0.299072 0.222751 0.187135 0.140335 0.201867 0.0285634 0.236189 0.423988 0.428028 0.384039 0.369701 0.33881 0.388524 0.501555 0.546644 0.602515 0.648743 0.652887 0.644564 0.622383 0.537669 0.512574 0.490266 0.465588 0.442567 0.419643 0.426188 0.740485 0.850635 0.782722 0.737776 0.718892 0.715626 0.718955 0.722036 0.729323 0.73373 0.743895 0.750583 0.771073 0.736109 0.608914 0.497072 0.475606 0.494162 0.497008 0.506534 0.562833 0.58724 0.597326 0.60065 0.597234 0.599561 0.60526 0.603657 0.629358 0.65202 0.634174 0.536012 0.303273 0.158256 0.0993566 0.139666 0.105544 0.169701 0.148269 0.128675 0.133374 0.262401 0.377934 0.344105 0.259499 0.232776 0.228879 0.242974 0.246156 0.351329 0.236608 0.430539 0.444465 0.475786 0.380447 0.4024 0.434284 0.466566 0.535206 0.565939 0.626486 0.659275 0.64769 0.624695 0.598505 0.572314 0.513832 0.496683 0.474298 0.451173 0.437009 0.344659 0.611441 0.801728 0.756782 0.729269 0.721772 0.714562 0.717768 0.726301 0.739606 0.76503 0.823063 0.660186 0.438219 0.428793 0.478105 0.485355 0.503579 0.527922 0.556641 0.581806 0.596399 0.603305 0.604035 0.604484 0.60556 0.602923 0.612225 0.613842 0.595352 0.545539 0.453853 0.282722 0.187171 0.168285 0.201472 0.123835 0.189109 0.108941 0.19248 0.319388 0.85557 0.375587 0.492817 0.371809 0.284234 0.25058 0.194697 0.34389 0.446409 0.395455 0.413934 0.502446 0.492988 0.460588 0.431368 0.418096 0.447303 0.47824 0.506451 0.606666 0.630339 0.650202 0.63916 0.615888 0.592695 0.567687 0.5367 0.503937 0.484852 0.467046 0.435382 0.487965 0.798334 0.748247 0.715231 0.713464 0.722393 0.731588 0.74812 0.769469 0.811965 0.844196 0.536748 0.470379 0.467085 0.518239 0.53468 0.555537 0.575805 0.591058 0.599405 0.603625 0.604155 0.602761 0.600809 0.600464 0.59405 0.574785 0.535166 0.474285 0.392588 0.304012 0.0621784 0.132538 0.170329 0.159906 0.0790018 0.648002 0.320568 0.331732 0.366559 0.519616 0.452922 0.293171 0.210539 0.0964556 0.137978 0.0463716 0.428894 0.627713 0.398094 0.519786 0.628264 0.508394 0.4976 0.456443 0.460324 0.473376 0.510287 0.533485 0.566408 0.636891 0.644474 0.635454 0.614589 0.590056 0.563773 0.537886 0.518394 0.496259 0.918775 0.760957 0.722824 0.720487 0.711343 0.712073 0.714944 0.717849 0.724052 0.727131 0.731378 0.736492 0.747339 0.80974 0.49034 0.504764 0.5235 0.54051 0.558118 0.57406 0.586803 0.595278 0.599949 0.592674 0.583727 0.564588 0.531487 0.487742 0.429552 0.352775 0.267704 0.209477 0.208573 0.234208 0.286598 0.232441 0.193198 0.415988 0.507208 0.693158 0.275742 0.297153 0.298317 0.338424 0.402197 0.335924 0.21856 0.232101 0.169226 0.0515027 0.377656 0.614497 0.579528 0.64671 0.498854 0.522193 0.497878 0.486823 0.494659 0.507983 0.532228 0.562287 0.59456 0.623274 0.626744 0.605462 0.58366 0.562374 0.541063 0.524233 0.510195 0.497119 0.48065 0.754882 0.708722 0.71197 0.721208 0.729514 0.73759 0.759478 0.957278 0.52207 0.497005 0.496505 0.510804 0.525779 0.543584 0.560459 0.574964 0.585976 0.600854 0.599869 0.596758 0.502114 0.460584 0.409695 0.356782 0.318682 0.322457 0.0862342 0.16708 0.309246 0.177849 0.142053 0.261638 0.614387 0.310128 0.248584 0.358483 0.330765 0.344111 0.230106 0.0617936 0.17125 0.10697 0.148683 0.266257 0.568477 0.740743 0.516107 0.514442 0.499769 0.495657 0.509807 0.53016 0.563116 0.584699 0.608965 0.6341 0.643085 0.638714 0.597597 0.580415 0.563273 0.54584 0.531471 0.521343 0.511126 0.51358 0.518463 0.630801 0.7089 0.709482 0.717245 0.727612 0.734599 0.742528 0.748579 0.75481 0.820768 0.672396 0.508097 0.521092 0.514852 0.519242 0.531088 0.545829 0.561533 0.593505 0.597592 0.598578 0.597434 0.593877 0.587372 0.577324 0.56122 0.535149 0.452245 0.420242 0.393594 0.389247 0.302799 0.384634 0.381858 0.253809 0.269943 0.465637 0.361475 0.259379 0.288854 0.334016 0.367284 0.337623 0.334118 0.385396 0.393033 0.184242 0.0212811 0.200623 0.207193 0.136404 0.361361 0.375189 0.869312 0.914597 0.549168 0.564696 0.517129 0.522414 0.534882 0.559414 0.582593 0.604686 0.622663 0.63444 0.637691 0.630131 0.616573 0.565934 0.552387 0.542135 0.535854 0.536467 0.542566 0.586298 0.628649 0.700681 0.708893 0.707636 0.713071 0.720085 0.72497 0.731287 0.731448 0.735524 0.766413 0.630193 0.591805 0.535026 0.533969 0.532933 0.539422 0.57517 0.585963 0.593335 0.597235 0.598268 0.596681 0.591889 0.584985 0.575578 0.561468 0.541673 0.516617 0.48694 0.442045 0.424035 0.389177 0.341806 0.543331 0.60994 0.564451 0.379141 0.581331 0.646427 0.334031 0.396311 0.378987 0.375488 0.344606 0.34371 0.344265 0.371563 0.372136 0.0449448 0.164106 0.341955 0.455752 0.315839 0.391887 0.360232 0.545704 0.794272 0.787758 0.514145 0.51664 0.534552 0.550182 0.56216 0.575959 0.595649 0.614151 0.626121 0.634647 0.633993 0.623163 0.609664 0.594796 0.580575 0.55665 0.562986 0.584335 0.604958 0.647094 0.696539 0.715346 0.728394 0.732485 0.737624 0.74534 0.64068 0.591644 0.578285 0.552708 0.550118 0.563284 0.575872 0.586131 0.593423 0.597911 0.599284 0.59714 0.592129 0.585087 0.576632 0.566033 0.551468 0.532592 0.509606 0.485149 0.460376 0.395267 0.325848 0.393697 0.538349 0.800574 0.636997 0.616237 0.656624 0.676375 0.457284 0.361848 0.398153 0.383364 0.379876 0.372705 0.365003 0.46006 0.159484 0.116732 0.355311 0.516416 0.493113 0.731441 0.313578 0.560453 0.70222 0.614333 0.573298 0.541772 0.545675 0.55909 0.572288 0.572616 0.617294 0.634995 0.635791 0.629705 0.61914 0.60724 0.594708 0.581994 0.570559 0.561649 0.556355 0.636105 0.661076 0.70557 0.721223 0.734858 0.733132 0.720938 0.720493 0.641486 0.549015 0.550543 0.556751 0.566689 0.577916 0.587471 0.59467 0.599492 0.601199 0.599009 0.593681 0.586851 0.579921 0.572859 0.563034 0.548373 0.529931 0.511936 0.49453 0.47532 0.44253 0.3626 0.465999 0.480482 0.779336 0.699759 0.666009 0.556521 0.458264 0.473644 0.475231 0.374326 0.707203 0.353431 0.221983 0.297485 0.509309 0.412887 0.331255 0.213077 0.431451 0.57261 0.7132 0.634837 0.606676 0.594578 0.595965 0.594688 0.58039 0.591628 0.600539 0.627468 0.617819 0.606822 0.595837 0.58598 0.578573 0.574507 0.574211 0.579318 0.592699 0.610027 0.696403 0.696158 0.715464 0.717415 0.730805 0.734907 0.733361 0.728155 0.623211 0.593632 0.578458 0.565393 0.56274 0.565336 0.571803 0.580919 0.58993 0.597337 0.602588 0.551473 0.535843 0.522229 0.504283 0.472373 0.397893 0.321148 0.411397 0.536027 0.594322 0.600441 0.573788 0.564304 0.627813 0.55559 0.219898 0.440024 0.388696 0.197984 0.541313 0.394677 0.477599 0.642479 0.669563 0.656199 0.632582 0.587471 0.587708 0.594129 0.599368 0.603445 0.635399 0.639921 0.635233 0.608178 0.599674 0.593358 0.589787 0.589684 0.593916 0.603673 0.618223 0.637648 0.658172 0.680636 0.723869 0.727674 0.729817 0.69854 0.654389 0.635403 0.616553 0.595825 0.583245 0.575861 0.575208 0.578693 0.585278 0.593405 0.605007 0.603629 0.597536 0.590018 0.583845 0.579354 0.574168 0.565314 0.532618 0.509251 0.46257 0.379599 0.346924 0.415441 0.640014 1.02036 0.58914 0.614168 0.578602 0.581636 0.632629 0.516861 0.487659 0.62092 0.318118 0.488189 0.515607 0.433636 0.559549 0.630962 0.667365 0.62647 0.620594 0.611165 0.599838 0.598967 0.600626 0.596548 0.640425 0.643473 0.640633 0.635201 0.627263 0.617951 0.603145 0.602871 0.606405 0.614532 0.626997 0.643105 0.660714 0.678619 0.691607 0.697503 0.697515 0.704014 0.72545 0.692756 0.675764 0.647902 0.630802 0.613352 0.598519 0.590109 0.586097 0.600925 0.606643 0.610122 0.610573 0.606501 0.596016 0.588589 0.585087 0.582609 0.580601 0.572526 0.559526 0.546509 0.506872 0.436255 0.388176 0.43344 0.382409 0.48738 0.893238 0.651418 0.608013 0.51259 0.598042 0.636245 0.571959 0.648696 0.275145 0.563881 0.473747 0.569253 0.634567 0.65026 0.641619 0.642892 0.643629 0.622052 0.611098 0.603339 0.592122 0.655397 0.647223 0.644426 0.640542 0.635163 0.628114 0.620178 0.612452 0.606499 0.649176 0.665296 0.681251 0.693619 0.699074 0.698378 0.683133 0.746182 0.680272 0.661955 0.64347 0.586973 0.5915 0.598324 0.605508 0.611474 0.615517 0.617361 0.616475 0.611519 0.593671 0.590592 0.589685 0.592981 0.591823 0.580371 0.571108 0.556223 0.539976 0.41273 0.423922 0.489582 0.560594 0.643056 0.494798 0.324905 0.398941 0.760883 0.776519 0.688903 0.794203 0.175135 0.448227 0.497103 0.423801 0.481562 0.641505 0.645493 0.659346 0.672511 0.647951 0.628176 0.672314 0.655313 0.647354 0.644453 0.641396 0.637096 0.631437 0.625036 0.61927 0.615363 0.614229 0.616779 0.62362 0.634726 0.700972 0.683792 0.655092 0.75217 0.737336 0.709377 0.627384 0.613228 0.60348 0.597778 0.596611 0.599323 0.604681 0.611261 0.617234 0.621328 0.623468 0.623668 0.622962 0.619851 0.592954 0.595883 0.59904 0.60695 0.603134 0.589751 0.581238 0.563895 0.543464 0.503971 0.431726 0.533319 0.797614 0.515961 0.515321 0.151918 0.401878 0.892753 0.304969 0.508857 0.241866 0.548368 0.388968 0.47404 0.60179 0.611601 0.631615 0.660837 0.613099 0.594661 0.644944 0.641575 0.637086 0.632057 0.62745 0.624738 0.625441 0.630594 0.640211 0.653677 0.669143 0.684815 0.697733 0.703498 0.752905 0.726985 0.697635 0.671811 0.656098 0.63971 0.626363 0.615686 0.609172 0.606907 0.608477 0.612654 0.618327 0.623877 0.627856 0.629892 0.600989 0.587295 0.565988 0.540864 0.500337 0.453604 0.416459 0.459306 0.774996 0.639029 0.494581 0.357082 0.887043 1.07516 0.847635 0.468692 0.397142 0.501417 0.508633 0.600673 0.632107 0.653105 0.699795 0.662485 0.646696 0.629239 0.607426 0.69146 0.664167 0.651294 0.648525 0.647109 0.639584 0.635651 0.633786 0.636008 0.643689 0.655566 0.671064 0.687379 0.700805 0.70918 0.706902 0.690945 0.664855 0.636016 0.744895 0.716067 0.690614 0.670034 0.652661 0.637388 0.62648 0.619266 0.616615 0.61771 0.621478 0.630173 0.628167 0.628945 0.633945 0.596055 0.604567 0.609902 0.620127 0.616408 0.564814 0.536273 0.504148 0.457973 0.448723 0.499333 0.662461 0.519822 0.351698 0.235823 0.181715 0.987638 0.841514 0.631501 0.189804 0.50199 0.495962 0.485946 0.634302 0.69571 0.686152 0.654868 0.645727 0.628507 0.711455 0.677838 0.655461 0.653684 0.652977 0.652445 0.651082 0.648261 0.644206 0.656372 0.671557 0.688082 0.702396 0.71264 0.716608 0.700472 0.673473 0.650998 0.621686 0.739271 0.712693 0.687585 0.666394 0.648658 0.635343 0.62688 0.631994 0.63549 0.637322 0.637507 0.63548 0.629952 0.638123 0.653896 0.602298 0.616103 0.620233 0.636165 0.627513 0.610476 0.591341 0.533162 0.499449 0.458473 0.720389 0.519606 0.464204 0.914124 0.367493 0.531522 0.618867 0.477595 0.483849 0.683095 0.689112 0.663107 0.672857 0.658091 0.652267 0.730233 0.696712 0.666624 0.659725 0.658855 0.659496 0.659636 0.658462 0.655631 0.651793 0.647366 0.643158 0.641916 0.645728 0.719431 0.678032 0.663366 0.642541 0.616508 0.62828 0.625808 0.626314 0.629732 0.635371 0.64085 0.644485 0.646261 0.646196 0.6441 0.640255 0.627116 0.65778 0.671378 0.613695 0.630376 0.628098 0.651471 0.634639 0.614841 0.594244 0.564663 1.00772 0.69538 0.595446 0.597057 0.793649 0.647168 0.572617 0.510644 0.588385 0.523554 0.701499 0.705966 0.665183 0.64557 0.664675 0.741981 0.663042 0.665842 0.66665 0.666934 0.665943 0.663984 0.660281 0.654813 0.650582 0.649452 0.655087 0.668508 0.685222 0.701448 0.714573 0.719973 0.659154 0.639902 0.61012 0.738044 0.70966 0.682474 0.659618 0.643941 0.636695 0.634883 0.635739 0.63796 0.643473 0.64957 0.653597 0.655892 0.655796 0.653595 0.650075 0.64634 0.62986 0.691762 0.639459 0.631034 0.661393 0.643031 0.620531 0.593645 0.562223 0.528514 0.483183 0.941311 0.680117 0.613144 0.552145 0.618917 0.448042 0.888255 0.811599 0.755423 0.700388 0.564464 0.476109 0.531516 0.642154 0.709351 0.673867 0.670212 0.719527 0.687107 0.672331 0.674317 0.672728 0.669465 0.664228 0.657785 0.654604 0.661452 0.678686 0.699444 0.716716 0.723825 0.723609 0.733741 0.671405 0.736518 0.705503 0.673935 0.650113 0.643833 0.64338 0.645026 0.646949 0.652792 0.658783 0.674674 0.630073 0.649524 0.625037 0.59694 0.559854 0.514952 0.647333 0.569779 0.600089 0.599977 0.478491 0.798608 0.765794 0.784842 0.552552 0.601944 0.621611 0.751939 0.656443 0.653282 0.672945 0.74416 0.737421 0.709639 0.693121 0.672182 0.670835 0.672497 0.673508 0.674198 0.668099 0.697157 0.720144 0.727701 0.72771 0.731842 0.669787 0.661916 0.633859 0.601923 0.733704 0.701348 0.657481 0.644497 0.647874 0.663815 0.665978 0.665543 0.663366 0.660189 0.654728 0.660644 0.629861 0.695859 0.709334 0.642801 0.645718 0.63931 0.666846 0.597532 0.55789 0.899859 0.651914 0.595614 0.726125 0.642424 0.577634 0.581136 0.602279 0.784696 0.699662 0.662987 0.656472 0.67059 0.744418 0.741223 0.7302 0.71312 0.692527 0.67996 0.677852 0.678462 0.679876 0.681662 0.681943 0.682193 0.681118 0.67357 0.663322 0.658007 0.630176 0.684811 0.655082 0.625655 0.596993 0.6516 0.652766 0.662465 0.671501 0.674584 0.676513 0.67593 0.672846 0.669606 0.665641 0.662946 0.673348 0.641126 0.717017 0.717556 0.656757 0.659216 0.641955 0.673758 0.652579 0.633356 0.89606 0.655997 0.628274 0.621443 0.623419 0.762146 0.785181 0.736859 0.605779 0.576256 0.594017 0.64765 0.737977 0.767669 0.740718 0.696224 0.672788 0.66888 0.724035 0.754842 0.736624 0.729579 0.714057 0.70268 0.687032 0.682242 0.682981 0.686517 0.690178 0.691838 0.693019 0.691471 0.684731 0.667689 0.660371 0.681212 0.716299 0.727755 0.689846 0.730925 0.842361 0.649294 0.676454 0.648064 0.62372 0.601442 0.732061 0.66241 0.650559 0.64136 0.655694 0.660491 0.664915 0.683328 0.68927 0.684798 0.68611 0.68267 0.67804 0.674375 0.672594 0.673904 0.690009 0.660594 0.728886 0.719685 0.672944 0.662091 0.659868 0.681568 0.662188 0.634361 0.604746 0.901207 0.683444 0.63703 0.600874 0.685816 0.620183 0.777959 0.803895 0.779468 0.714421 0.580142 0.759984 0.758742 0.733626 0.683987 0.711004 0.697422 0.747131 0.731806 0.728282 0.711533 0.74941 0.782072 0.790338 0.743368 0.764979 0.669412 0.625491 0.621624 0.609877 0.646206 0.663746 0.667896 0.695314 0.675073 0.669641 0.695402 0.664003 0.636957 0.605752 0.683416 0.682181 0.769967 0.592358 0.620951 0.690466 0.723327 0.779288 0.728735 0.708752 0.69042 0.681625 0.682813 0.690941 0.701471 0.712364 0.723502 0.733205 0.733125 0.868646 0.706084 0.671017 0.652895 0.628781 0.612027 0.703544 0.69612 0.691104 0.685567 0.680886 0.677702 0.677879 0.689356 0.714495 0.736049 0.742655 0.737753 0.719044 0.672886 0.902111 0.709047 0.684272 0.901347 0.787727 0.762305 0.73516 0.595635 0.605083 0.664691 0.684175 0.760655 0.74543 0.68949 0.768249 0.710424 0.706011 0.761492 0.754311 0.715765 0.690494 0.676914 0.672493 0.678811 0.687344 0.700826 0.713526 0.726154 0.740095 0.737213 0.752839 0.722806 0.719459 0.764266 0.774628 0.815679 0.733591 0.76919 0.863194 0.691279 0.689435 0.677751 0.661845 0.657152 0.602986 0.627701 0.875252 0.619022 0.680508 0.653455 0.692967 0.715553 0.706942 0.69773 0.693589 0.685576 0.681158 0.677827 0.679443 0.698472 0.727287 0.748529 0.747215 0.75085 0.69101 0.677617 0.672716 0.669228 0.671249 0.665539 0.917008 0.723959 0.708426 0.698827 0.680593 0.781526 0.768167 0.900629 0.893832 0.893832 0.801007 0.720074 0.605348 0.636762 0.623818 0.712189 0.749241 0.686711 0.716664 0.829152 0.75899 0.761452 0.729844 0.738561 0.701492 0.715383 0.736034 0.751637 0.739988 0.802024 0.800026 0.713314 0.762183 0.772879 0.807598 0.710229 0.761134 0.713399 0.675781 0.699133 0.698646 0.693026 0.590436 0.959518 0.693291 0.801717 0.712791 0.755853 0.750886 0.71979 0.704688 0.698653 0.691273 0.683859 0.736408 0.756756 0.81334 0.781888 0.777923 0.675948 0.68328 0.65968 0.661701 0.877357 0.723653 0.714365 0.680385 0.766499 0.853414 0.893832 0.893832 0.69795 0.67462 0.669943 0.672484 0.675523 0.689416 0.850272 0.689423 0.678758 0.677647 0.685354 0.708545 0.909589 0.910407 0.92354 0.815136 0.791947 0.822481 0.827382 0.861333 0.706873 0.910904 0.781461 0.875229 0.784485 0.876877 0.837247 0.78322 0.720416 0.684532 0.668749 0.668962 0.669381 0.67705 0.6887 0.704742 0.721241 0.753046 0.765572 0.856993 0.902295 0.74599 0.802469 0.81121 0.847566 0.752361 0.721972 0.824185 0.72177 0.771065 0.696635 0.710746 0.67607 0.700828 0.6811 0.794246 0.740859 0.799829 0.74598 0.759491 0.742692 0.721056 0.701627 0.693189 0.68519 0.679803 0.676317 0.682208 0.69215 0.712882 0.742047 0.783427 0.885565 0.888889 0.884059 0.786871 0.750656 0.89767 0.807468 0.921776 0.857471 0.838701 0.813358 0.87591 0.889746 0.899184 0.897957 0.893832 0.893832 0.893862 0.85125 0.852599 0.871747 0.894942 0.908192 0.775325 0.901015 0.835548 0.898571 0.89931 0.895293 0.876179 0.852184 0.853242 0.851254 0.832803 0.818828 0.809279 0.805459 0.807051 0.80743 0.812957 0.844728 0.848279 0.881517 0.925379 0.769221 0.841557 0.85123 0.911011 0.814647 0.796934 0.84971 0.777993 0.892189 0.822265 0.861818 0.822858 0.866221 0.836015 0.885854 0.926604 0.880776 0.837296 0.848692 0.832528 0.824585 0.804868 0.80013 0.798026 0.798334 0.798744 0.813022 0.831947 0.842513 0.827283 0.826821 0.895047 0.892768 0.897966 0.825542 0.892222 0.894285 0.828888 0.929689 0.865323 0.860502 0.891776 0.89483 0.893832 0.893832 0.888259 0.893959 0.894026 0.8947 0.858101 0.854024 0.868929 0.904392 0.905767 0.812309 0.895689 0.853918 0.899799 0.899256 0.897756 0.892027 0.875371 0.872957 0.900877 0.89241 0.88327 0.876967 0.876003 0.874033 0.876635 0.871397 0.863346 0.868759 0.881217 0.915157 0.807224 0.870712 0.88254 0.910395 0.857572 0.85022 0.876835 0.818715 0.885405 0.872284 0.90023 0.882497 0.881197 0.853316 0.895599 0.903013 0.891678 0.854175 0.87031 0.86018 0.860746 0.873781 0.87308 0.872261 0.871658 0.869106 0.876993 0.88796 0.878676 0.850165 0.857127 0.908534 0.898705 0.904521 0.844269 0.896167 0.894576 0.894542 0.920964 0.893615 0.868145 0.866298 0.891935 0.895046 0.89389 0.893844 0.893907 0.893867 0.894154 0.864657 0.853493 0.863534 0.899082 0.833791 0.894254 0.864578 0.89557 0.894092 0.894565 0.896563 0.879104 0.87737 0.877737 0.876081 0.874909 0.867925 0.874353 0.878481 0.880797 0.909236 0.882107 0.891275 0.896701 0.862868 0.871083 0.84034 0.892732 0.901143 0.891903 0.883455 0.860136 0.89485 0.895036 0.891363 0.868613 0.874501 0.862874 0.867479 0.87216 0.872284 0.870939 0.870784 0.868421 0.875591 0.884408 0.855614 0.867908 0.905724 0.896138 0.901787 0.857371 0.895503 0.894168 0.894564 0.911911 0.868926 0.872011 0.891652 0.895014 0.893865 0.89391 0.904512 0.872821 0.897479 0.891246 0.883111 0.820789 0.88457 0.891993 0.87589 0.895656 0.893911 0.893873 0.894149 0.871203 0.854912 0.861202 0.904119 0.893967 0.853179 0.894256 0.874001 0.892544 0.894102 0.894593 0.89988 0.882096 0.872683 0.891183 0.885269 0.877653 0.872286 0.873706 0.872619 0.872835 0.866705 0.881045 0.883108 0.88142 0.901165 0.8313 0.882008 0.888828 0.896185 0.861882 0.875225 0.886009 0.853742 0.892977 0.899107 0.899171 0.892012 0.883155 0.864799 0.894097 0.894987 0.890338 0.872175 0.882032 0.864421 0.870374 0.869405 0.869438 0.866839 0.866948 0.864019 0.870377 0.878292 0.873068 0.861592 0.881698 0.901816 0.893745 0.898861 0.87032 0.895408 0.894175 0.894054 0.904466 0.895926 0.872148 0.875798 0.891714 0.894864 0.89387 0.893909 0.893903 0.89387 0.894116 0.87728 0.858104 0.867365 0.894203 0.880706 0.870358 0.867258 0.884555 0.88537 0.895734 0.87907 0.894467 0.861717 0.88928 0.863712 0.898148 0.890234 0.883254 0.869244 0.893911 0.893832 0.890564 0.88677 0.890198 0.866822 0.873422 0.868917 0.868838 0.865263 0.895159 0.894145 0.894046 0.878135 0.892361 0.894677 0.893868 0.8939 0.861296 0.902815 0.889595 0.890598 0.894067 0.894524 0.899726 0.884868 0.874447 0.886707 0.881057 0.873992 0.868974 0.871161 0.872394 0.881937 0.838542 0.883454 0.884459 0.893066 0.897167 0.865446 0.862281 0.867743 0.874962 0.872355 0.867492 0.889797 0.898333 0.89191 0.896211 0.879518 0.898093 0.894978 0.876849 0.893891 0.893865 0.894072 0.882428 0.862437 0.862614 0.900555 0.886506 0.878093 0.894142 0.885516 0.889181 0.894027 0.894432 0.898015 0.887185 0.877029 0.88406 0.8786 0.872123 0.867391 0.869975 0.869436 0.873091 0.869072 0.88678 0.88642 0.882399 0.891632 0.844066 0.878557 0.879332 0.894432 0.862918 0.893868 0.882839 0.871977 0.893451 0.894951 0.89526 0.888261 0.883736 0.873172 0.89382 0.893832 0.891283 0.893218 0.89337 0.870023 0.876554 0.869669 0.869675 0.865493 0.865622 0.862435 0.86709 0.873697 0.873184 0.872918 0.892658 0.895611 0.8908 0.894102 0.885812 0.894872 0.8941 0.894026 0.892559 0.893411 0.881127 0.879911 0.893019 0.894467 0.893864 0.893889 0.886961 0.88882 0.878407 0.894362 0.893866 0.879238 0.886556 0.876752 0.893832 0.893809 0.873565 0.870997 0.893878 0.893858 0.894017 0.886441 0.867044 0.864782 0.89793 0.884265 0.886846 0.894077 0.889544 0.887898 0.893987 0.894317 0.896042 0.8888 0.879798 0.882786 0.877478 0.871563 0.867084 0.869771 0.86936 0.874206 0.871331 0.88805 0.882708 0.849069 0.876699 0.865078 0.881532 0.893691 0.891721 0.893572 0.884371 0.893593 0.891965 0.893945 0.879414 0.871372 0.86667 0.866921 0.863774 0.867763 0.873811 0.874937 0.877554 0.893335 0.893452 0.89022 0.892671 0.89023 0.894581 0.894044 0.893999 0.888105 0.8916 0.884174 0.881492 0.893256 0.894247 0.893858 0.893876 0.893863 0.893851 0.893956 0.889319 0.87136 0.867554 0.895277 0.88236 0.891715 0.894008 0.892197 0.886715 0.893948 0.894187 0.894183 0.88973 0.882431 0.882384 0.877244 0.871818 0.867646 0.870261 0.869788 0.875493 0.873468 0.888351 0.886906 0.883036 0.887179 0.853045 0.879431 0.875293 0.894265 0.867716 0.893862 0.88059 0.884606 0.893706 0.889139 0.892193 0.885195 0.885091 0.879936 0.893281 0.893832 0.892462 0.893832 0.893913 0.876967 0.881998 0.872582 0.873445 0.86839 0.868804 0.865804 0.869211 0.874709 0.877082 0.881333 0.89325 0.891748 0.890012 0.891876 0.892531 0.894293 0.893981 0.893964 0.884846 0.889699 0.886114 0.882973 0.893168 0.894025 0.893851 0.893862 0.893848 0.893843 0.893895 0.891188 0.875178 0.87053 0.892677 0.880777 0.89342 0.893934 0.89324 0.885812 0.893907 0.894045 0.892561 0.890154 0.884491 0.882455 0.877514 0.872512 0.868692 0.871159 0.870557 0.876731 0.875289 0.888032 0.886383 0.883394 0.886423 0.856606 0.880857 0.874796 0.894146 0.870484 0.893856 0.879996 0.889076 0.89362 0.887249 0.891158 0.884153 0.88587 0.882663 0.892977 0.893832 0.892754 0.893832 0.893796 0.880033 0.884272 0.874294 0.875506 0.870389 0.870927 0.868095 0.871035 0.875944 0.879241 0.88423 0.892733 0.890445 0.890062 0.89151 0.893094 0.894013 0.893914 0.893925 0.88259 0.887849 0.887182 0.884333 0.892987 0.893811 0.893844 0.893848 0.893834 0.893835 0.893836 0.892231 0.878447 0.873358 0.890216 0.879687 0.893795 0.893859 0.893295 0.885314 0.893867 0.893898 0.891243 0.890222 0.885809 0.882754 0.878001 0.873405 0.869906 0.87224 0.87152 0.877764 0.876791 0.887443 0.885689 0.883746 0.886261 0.859705 0.882463 0.874898 0.89401 0.873156 0.893849 0.879694 0.892059 0.8935 0.885932 0.890432 0.883416 0.886644 0.884976 0.892689 0.893832 0.892843 0.893832 0.893679 0.882682 0.886152 0.876069 0.877391 0.872373 0.873067 0.870342 0.872943 0.877232 0.88116 0.886245 0.891923 0.88947 0.890268 0.891375 0.892792 0.893748 0.893847 0.893883 0.881041 0.886165 0.887546 0.885505 0.892834 0.893612 0.893836 0.893834 0.89382 0.893827 0.893781 0.89268 0.881163 0.87584 0.888008 0.879113 0.893824 0.893785 0.892997 0.885195 0.893827 0.89375 0.890238 0.89003 0.886532 0.883126 0.878522 0.874338 0.87108 0.873347 0.872535 0.878603 0.87801 0.886789 0.885012 0.884072 0.886496 0.862287 0.884124 0.875331 0.893869 0.875597 0.893841 0.879572 0.893359 0.893356 0.885075 0.889959 0.882973 0.887348 0.886943 0.892408 0.893832 0.892781 0.893832 0.893579 0.884836 0.887597 0.877819 0.879088 0.874171 0.875036 0.87238 0.874738 0.878408 0.882691 0.887495 0.890993 0.888745 0.890556 0.89135 0.892248 0.893505 0.893783 0.893839 0.87996 0.884688 0.887402 0.88645 0.892723 0.893435 0.893828 0.89382 0.893807 0.89382 0.893731 0.892786 0.883343 0.877907 0.886122 0.878931 0.89379 0.893714 0.892652 0.885349 0.89379 0.893608 0.88951 0.889661 0.886878 0.883468 0.878977 0.875201 0.87211 0.874374 0.873515 0.879329 0.878981 0.88617 0.884428 0.884346 0.886966 0.864387 0.88572 0.875919 0.893733 0.877734 0.893832 0.879531 0.893739 0.893196 0.884567 0.88969 0.882795 0.887938 0.888598 0.892152 0.893832 0.892643 0.893832 0.893499 0.886463 0.888645 0.879452 0.880602 0.87575 0.876738 0.874132 0.876315 0.879387 0.883786 0.888133 0.890097 0.888218 0.89088 0.891373 0.891717 0.89329 0.893721 0.893796 0.879208 0.883414 0.886977 0.887176 0.892637 0.893282 0.893821 0.893807 0.893795 0.893813 0.893685 0.892739 0.885032 0.879557 0.884569 0.878984 0.893751 0.893649 0.892357 0.885655 0.893755 0.893476 0.889009 0.889201 0.886993 0.883719 0.879326 0.875921 0.872959 0.875265 0.874422 0.879976 0.879739 0.885637 0.883978 0.884555 0.88753 0.866078 0.887155 0.876552 0.893608 0.879538 0.893824 0.879516 0.893818 0.893034 0.884296 0.889585 0.882826 0.888405 0.889955 0.891933 0.893832 0.892484 0.893832 0.893437 0.887614 0.889375 0.8809 0.881918 0.877118 0.878164 0.875578 0.877625 0.880143 0.884474 0.888307 0.889319 0.887853 0.891207 0.891409 0.891273 0.893107 0.893666 0.893756 0.878712 0.882328 0.88646 0.887716 0.892563 0.893155 0.893814 0.893795 0.893784 0.893807 0.893645 0.892649 0.886289 0.880824 0.883332 0.879154 0.893714 0.893592 0.892126 0.886021 0.893724 0.89336 0.88868 0.88872 0.886966 0.883867 0.879565 0.876477 0.873626 0.876007 0.875232 0.880533 0.880312 0.885214 0.88367 0.8847 0.888089 0.867412 0.888372 0.877156 0.893496 0.881005 0.893816 0.879509 0.893831 0.892886 0.884177 0.889596 0.882996 0.888759 0.89103 0.891754 0.893832 0.892335 0.893832 0.893388 0.888388 0.889863 0.882122 0.883013 0.878271 0.879333 0.876735 0.878657 0.880688 0.884836 0.888181 0.888689 0.88762 0.89151 0.891444 0.890926 0.892955 0.893617 0.89372 0.878417 0.881426 0.88596 0.888113 0.892496 0.893054 0.893808 0.893785 0.893775 0.893801 0.893612 0.892559 0.887186 0.881759 0.882381 0.879362 0.893684 0.893545 0.891956 0.886377 0.893698 0.893262 0.888478 0.888276 0.886857 0.883927 0.879709 0.876876 0.874128 0.876602 0.875917 0.880978 0.880724 0.884908 0.883487 0.884794 0.888586 0.868423 0.889347 0.877682 0.893402 0.882143 0.893809 0.879505 0.893832 0.892756 0.884148 0.889672 0.88323 0.889018 0.891848 0.89161 0.893832 0.892207 0.893832 0.893349 0.888889 0.890171 0.883093 0.883875 0.879196 0.88026 0.87763 0.87943 0.881058 0.884971 0.887912 0.888207 0.887483 0.891766 0.89147 0.890668 0.892835 0.893576 0.893689 0.878266 0.880705 0.885534 0.8884 0.892437 0.892977 0.893803 0.893776 0.893768 0.893797 0.893587 0.892486 0.88779 0.88241 0.881692 0.879555 0.89366 0.893509 0.891839 0.886678 0.893677 0.893186 0.888361 0.887912 0.886719 0.883929 0.879782 0.877142 0.874485 0.877053 0.876452 0.881303 0.880999 0.884706 0.883394 0.884847 0.888985 0.869147 0.890074 0.878099 0.893329 0.882972 0.893803 0.879506 0.893832 0.884165 0.889769 0.883464 0.889196 0.892434 0.891502 0.893832 0.892107 0.893832 0.893321 0.889196 0.890349 0.88381 0.884505 0.879887 0.88095 0.878286 0.879975 0.881294 0.884978 0.887623 0.887861 0.887409 0.891963 0.891488 0.890489 0.892747 0.893544 0.893665 0.878207 0.880166 0.885204 0.888598 0.892388 0.892922 0.893798 0.893769 0.892653 0.893764 0.893795 0.89357 0.892435 0.888159 0.882818 0.881243 0.879702 0.893643 0.893484 0.891767 0.886894 0.893664 0.893134 0.888301 0.887658 0.8866 0.883906 0.879813 0.877301 0.874715 0.877357 0.876817 0.881514 0.881163 0.884588 0.883355 0.884874 0.889261 0.869613 0.890554 0.878385 0.893278 0.883513 0.893799 0.879508 0.893832 0.892581 0.884195 0.889852 0.883649 0.889307 0.892812 0.891429 0.893832 0.892039 0.893832 0.893302 0.889367 0.890441 0.884278 0.884914 0.880345 0.881408 0.878718 0.880322 0.881432 0.884935 0.887392 0.887638 0.887372 0.892095 0.891499 0.890377 0.892689 0.893522 0.893649 0.878195 0.879808 0.884982 0.888723 0.892353 0.892887 0.893796 0.893764 0.893761 0.893793 0.893561 0.892408 0.888333 0.883015 0.87978 0.893635 0.893471 0.891732 0.887006 0.893656 0.893108 0.888275 0.887527 0.886532 0.883888 0.879822 0.877375 0.874828 0.877512 0.877002 0.881616 0.881239 0.884534 0.883343 0.884885 0.889402 0.86984 0.890793 0.87853 0.893253 0.883779 0.893797 0.87951 0.893832 0.884215 0.889898 0.883749 0.88936 0.892997 0.891392 0.893832 0.892004 0.893832 0.893292 0.889442 0.890478 0.884508 0.885115 0.880572 0.881636 0.878932 0.88049 0.881494 0.8849 0.887267 0.887529 0.887357 0.892161 0.891504 0.890323 0.89266 0.893512 0.89364 0.878197 0.88487 0.888784 0.892335 0.89287 0.893794 0.893762 0.881023 0.892545 0.879629 
SCALARS Axial_Stress float 1
LOOKUP_TABLE default
-82997300000.0 -103750000000.0 -172289000000.0 -261745000000.0 -144200000000.0 -70809200000.0 -70273000000.0 -88180700000.0 -74250900000.0 -72555400000.0 -87339300000.0 -80827400000.0 -72728000000.0 -56162200000.0 -115378000000.0 -224170000000.0 -353696000000.0 -196946000000.0 -122342000000.0 -107857000000.0 -90015800000.0 -90638900000.0 -206948000000.0 -185259000000.0 -171310000000.0 -120915000000.0 -161080000000.0 -166284000000.0 -101622000000.0 -113267000000.0 -412831000000.0 -210014000000.0 -296344000000.0 -265059000000.0 -123727000000.0 -222353000000.0 -271104000000.0 -144257000000.0 -272110000000.0 -157505000000.0 -266241000000.0 -165217000000.0 -270345000000.0 -196818000000.0 -224815000000.0 -151190000000.0 -335741000000.0 -367454000000.0 -308289000000.0 -492891000000.0 -267603000000.0 -134755000000.0 -332065000000.0 -452638000000.0 -288919000000.0 -261280000000.0 -485225000000.0 -367084000000.0 -498780000000.0 -372099000000.0 -470720000000.0 -364014000000.0 -481352000000.0 -321315000000.0 -323688000000.0 -331710000000.0 -131981000000.0 -342007000000.0 -312134000000.0 -343689000000.0 -638694000000.0 -381291000000.0 -564800000000.0 -299227000000.0 -436428000000.0 -429597000000.0 -355328000000.0 -624053000000.0 -622672000000.0 -616032000000.0 -618644000000.0 -602795000000.0 -425063000000.0 -460903000000.0 -395532000000.0 -482441000000.0 -884279000000.0 -582199000000.0 -658730000000.0 -544281000000.0 -469484000000.0 -490124000000.0 -846198000000.0 -767721000000.0 -742088000000.0 -726498000000.0 -769911000000.0 -354758000000.0 -460872000000.0 -768212000000.0 -622474000000.0 -652793000000.0 -498033000000.0 -750956000000.0 -468322000000.0 -735330000000.0 -854530000000.0 -671743000000.0 -730298000000.0 -1.16819e+12 -944582000000.0 -1.03269e+12 -877123000000.0 -977047000000.0 -850612000000.0 -957698000000.0 -856441000000.0 -981223000000.0 -933351000000.0 -1.0131e+12 -348623000000.0 -476683000000.0 -947723000000.0 -805968000000.0 -654425000000.0 -1.07795e+12 -551246000000.0 -824189000000.0 -917500000000.0 -886419000000.0 -1.96327e+12 -1.49596e+12 -1.44656e+12 -1.17705e+12 -1.21484e+12 -1.1152e+12 -1.07374e+12 -1.06858e+12 -1.11576e+12 -1.08135e+12 -1.14422e+12 -971209000000.0 -827281000000.0 -1.21371e+12 -878708000000.0 -977325000000.0 -961453000000.0 -2.25309e+12 -1.75662e+12 -1.42336e+12 -1.26927e+12 -1.19868e+12 -1.17048e+12 -1.18019e+12 -1.20229e+12 -1.49559e+12 -1.14766e+12 -995629000000.0 -822625000000.0 -967631000000.0 -644599000000.0 -994257000000.0 -2.23808e+12 -2.03797e+12 -1.65531e+12 -1.43811e+12 -1.33385e+12 -1.40636e+12 -1.28425e+12 -1.37204e+12 -1.26891e+12 -1.36349e+12 -1.28359e+12 -1.39709e+12 -1.37771e+12 -1.45266e+12 -1.37275e+12 -1.34217e+12 -1.16663e+12 -1.19674e+12 -1.01844e+12 -1.03516e+12 -1.28403e+12 -787563000000.0 -1.09605e+12 -1.82788e+12 -1.99449e+12 -2.09669e+12 -2.15598e+12 -2.02686e+12 -1.87278e+12 -1.79689e+12 -1.61977e+12 -1.62661e+12 -1.47768e+12 -1.53405e+12 -1.48467e+12 -1.45866e+12 -1.45821e+12 -1.48019e+12 -1.46399e+12 -1.35763e+12 -1.24079e+12 -1.3086e+12 -1.02412e+12 -1.67219e+12 -1.9854e+12 -2.07726e+12 -1.9416e+12 -1.77268e+12 -1.66228e+12 -1.60222e+12 -1.56569e+12 -1.54091e+12 -1.53544e+12 -1.54613e+12 -1.48934e+12 -1.39537e+12 -1.32544e+12 -1.0913e+12 -1.05065e+12 -1.90104e+12 -2.0548e+12 -2.03331e+12 -1.90182e+12 -1.78454e+12 -1.71892e+12 -1.6778e+12 -1.75593e+12 -1.64234e+12 -1.70572e+12 -1.61078e+12 -1.67088e+12 -1.60525e+12 -1.67381e+12 -1.59354e+12 -1.64533e+12 -1.53029e+12 -1.58487e+12 -1.4568e+12 -1.52554e+12 -1.45426e+12 -1.19527e+12 -1.25519e+12 -1.90374e+12 -2.01356e+12 -2.01232e+12 -2.0731e+12 -2.07067e+12 -2.06587e+12 -2.0009e+12 -1.98743e+12 -1.89518e+12 -1.91687e+12 -1.82597e+12 -1.89223e+12 -1.7896e+12 -1.86811e+12 -1.82091e+12 -1.7535e+12 -1.73618e+12 -1.74129e+12 -1.70472e+12 -1.64335e+12 -1.602e+12 -2.06355e+12 -2.08262e+12 -2.09969e+12 -2.05895e+12 -1.99398e+12 -1.97156e+12 -1.9739e+12 -1.94864e+12 -1.86148e+12 -1.79532e+12 -1.81302e+12 -1.90038e+12 -1.81487e+12 -1.76736e+12 -1.81441e+12 -1.69034e+12 -1.30361e+12 -1.43569e+12 -2.13279e+12 -2.12383e+12 -2.1125e+12 -2.05821e+12 -2.02156e+12 -2.06044e+12 -2.06231e+12 -1.99817e+12 -2.00094e+12 -1.87727e+12 -1.88681e+12 -1.85866e+12 -1.95169e+12 -1.99988e+12 -1.89534e+12 -1.96819e+12 -1.82002e+12 -1.71267e+12 -1.39864e+12 -2.19769e+12 -2.25415e+12 -2.17055e+12 -2.20402e+12 -2.15603e+12 -2.1796e+12 -2.1165e+12 -2.10961e+12 -2.06421e+12 -2.07785e+12 -2.09745e+12 -2.23507e+12 -2.16571e+12 -2.27256e+12 -2.15667e+12 -2.18132e+12 -1.9579e+12 -1.95181e+12 -2.07081e+12 -2.10394e+12 -2.1865e+12 -2.01144e+12 -1.75022e+12 -1.5577e+12 -2.30882e+12 -2.27544e+12 -2.24109e+12 -2.19322e+12 -2.06946e+12 -2.19669e+12 -2.37623e+12 -2.4115e+12 -2.11799e+12 -1.90141e+12 -1.97389e+12 -2.08225e+12 -2.26433e+12 -2.21035e+12 -2.3445e+12 -2.23964e+12 -2.03898e+12 -2.09368e+12 -1.4131e+12 -1.32514e+12 -1.5781e+12 -2.39708e+12 -2.45058e+12 -2.313e+12 -2.30536e+12 -2.25833e+12 -2.29853e+12 -2.19457e+12 -2.14889e+12 -1.92552e+12 -2.41438e+12 -2.50295e+12 -2.40199e+12 -2.2363e+12 -1.94125e+12 -1.65493e+12 -2.22353e+12 -2.64427e+12 -2.49219e+12 -2.5599e+12 -2.39843e+12 -2.32683e+12 -1.88743e+12 -2.09424e+12 -3.64378e+12 -4.33375e+12 -3.3876e+12 -2.39365e+12 -2.80846e+12 -2.34724e+12 -2.36813e+12 -2.3131e+12 -2.03673e+12 -1.76421e+12 -1.7277e+12 -2.55135e+12 -2.72009e+12 -2.78423e+12 -2.68868e+12 -1.83938e+12 -1.83643e+12 -2.85844e+12 -2.73548e+12 -2.58614e+12 -2.47142e+12 -2.35749e+12 -3.65446e+12 -3.56499e+12 -3.6285e+12 -5.41975e+12 -3.80902e+12 -2.43447e+12 -2.41113e+12 -2.44647e+12 -2.2702e+12 -1.94427e+12 -1.62492e+12 -3.41173e+12 -2.28156e+12 -1.93478e+12 -1.87578e+12 -4.03743e+12 -3.569e+12 -2.94345e+12 -2.72455e+12 -2.4448e+12 -2.36519e+12 -4.263e+12 -3.65193e+12 -4.65739e+12 -5.5762e+12 -3.59959e+12 -3.53622e+12 -5.65011e+12 -4.69508e+12 -4.38234e+12 -4.35705e+12 -4.66056e+12 -2.17023e+12 -2.34222e+12 -2.5352e+12 -2.67385e+12 -2.47425e+12 -2.39728e+12 -2.13505e+12 -1.99544e+12 -1.73563e+12 -2.82349e+12 -2.76334e+12 -2.0279e+12 -3.8946e+12 -3.71556e+12 -3.32136e+12 -3.20795e+12 -2.93004e+12 -2.70336e+12 -2.51592e+12 -4.40894e+12 -4.67015e+12 -5.02224e+12 -5.75042e+12 -3.54826e+12 -3.48957e+12 -3.51032e+12 -5.75632e+12 -5.71539e+12 -5.50733e+12 -5.30463e+12 -4.98247e+12 -4.73713e+12 -4.50166e+12 -4.70316e+12 -4.49525e+12 -2.58872e+12 -2.76726e+12 -1.96243e+12 -3.25573e+12 -2.64178e+12 -1.43478e+12 -2.21639e+12 -2.75905e+12 -3.45798e+12 -3.81201e+12 -3.46059e+12 -3.04524e+12 -4.09456e+12 -4.38001e+12 -4.45768e+12 -4.59202e+12 -5.16336e+12 -5.50558e+12 -5.63904e+12 -5.83204e+12 -3.41564e+12 -3.41731e+12 -3.46972e+12 -5.774e+12 -5.59503e+12 -5.29285e+12 -5.13959e+12 -4.73303e+12 -4.63549e+12 -4.06785e+12 -2.87855e+12 -3.03776e+12 -2.7819e+12 -3.3125e+12 -3.0403e+12 -3.13082e+12 -1.89046e+12 -2.36212e+12 -3.18954e+12 -3.59315e+12 -3.54412e+12 -3.59485e+12 -3.46866e+12 -3.33854e+12 -3.66589e+12 -4.26794e+12 -4.49982e+12 -4.76552e+12 -5.2115e+12 -5.45853e+12 -5.72564e+12 -5.87489e+12 -5.87556e+12 -3.32449e+12 -3.4839e+12 -5.71711e+12 -5.67421e+12 -5.65628e+12 -5.51367e+12 -5.44018e+12 -5.29728e+12 -4.92604e+12 -4.65843e+12 -4.42098e+12 -4.32738e+12 -3.93271e+12 -3.56754e+12 -3.34407e+12 -3.34331e+12 -1.96481e+12 -1.88788e+12 -2.17623e+12 -2.76709e+12 -3.3283e+12 -3.47859e+12 -3.48316e+12 -3.47761e+12 -3.67251e+12 -3.93881e+12 -4.28955e+12 -4.61142e+12 -5.43884e+12 -5.58845e+12 -5.78648e+12 -5.82268e+12 -5.72379e+12 -3.2224e+12 -3.44614e+12 -3.48062e+12 -5.51061e+12 -5.60174e+12 -5.57544e+12 -5.43529e+12 -5.29111e+12 -5.22542e+12 -4.98565e+12 -4.76785e+12 -4.52173e+12 -4.10522e+12 -3.64102e+12 -3.38319e+12 -3.2101e+12 -3.53295e+12 -2.13386e+12 -2.19188e+12 -2.36736e+12 -2.54658e+12 -2.82062e+12 -3.05504e+12 -3.21208e+12 -3.37842e+12 -3.46729e+12 -3.5563e+12 -3.84028e+12 -4.05363e+12 -4.07434e+12 -4.31684e+12 -4.22792e+12 -5.11542e+12 -5.71084e+12 -5.93278e+12 -5.84713e+12 -5.73979e+12 -5.07601e+12 -3.40147e+12 -3.3906e+12 -5.53767e+12 -5.59653e+12 -5.15727e+12 -5.57959e+12 -5.53628e+12 -5.46124e+12 -5.41763e+12 -5.36314e+12 -4.70749e+12 -4.20469e+12 -3.87702e+12 -3.53672e+12 -3.45838e+12 -3.34568e+12 -3.47573e+12 -3.4476e+12 -2.20523e+12 -2.62678e+12 -3.03995e+12 -3.3042e+12 -3.40441e+12 -3.42791e+12 -3.49352e+12 -3.66337e+12 -3.97779e+12 -3.94081e+12 -6.23024e+12 -5.82446e+12 -5.66701e+12 -5.73379e+12 -5.82782e+12 -6.19036e+12 -4.14553e+12 -5.26236e+12 -5.45592e+12 -3.39445e+12 -3.29341e+12 -3.31573e+12 -5.5614e+12 -5.23002e+12 -4.00696e+12 -5.44872e+12 -5.819e+12 -5.1318e+12 -5.25584e+12 -5.76379e+12 -4.99935e+12 -4.58517e+12 -4.32191e+12 -3.98154e+12 -3.97578e+12 -3.95801e+12 -3.74357e+12 -3.61626e+12 -3.44469e+12 -3.4909e+12 -3.45653e+12 -2.33562e+12 -2.63305e+12 -2.87953e+12 -3.07612e+12 -3.18913e+12 -3.3585e+12 -3.4466e+12 -3.54062e+12 -3.60721e+12 -3.79339e+12 -4.06308e+12 -2.92618e+12 -5.1259e+12 -5.76967e+12 -5.52086e+12 -5.9946e+12 -6.45117e+12 -4.9298e+12 -5.18108e+12 -5.59609e+12 -3.34179e+12 -3.26043e+12 -3.35506e+12 -5.59708e+12 -5.42744e+12 -5.36836e+12 -5.0638e+12 -6.19723e+12 -5.62119e+12 -5.37727e+12 -4.70569e+12 -5.03639e+12 -3.98145e+12 -5.05013e+12 -3.97762e+12 -3.95424e+12 -3.85081e+12 -3.49911e+12 -3.46812e+12 -3.44971e+12 -3.40287e+12 -3.44054e+12 -3.39375e+12 -3.38744e+12 -3.17634e+12 -2.95542e+12 -3.21161e+12 -3.28653e+12 -3.34653e+12 -3.38555e+12 -3.46815e+12 -3.71185e+12 -3.95684e+12 -4.16112e+12 -4.12426e+12 -3.88857e+12 -4.90488e+12 -5.38463e+12 -5.15521e+12 -5.55915e+12 -5.4054e+12 -5.44741e+12 -5.33267e+12 -5.38959e+12 -5.515e+12 -5.67572e+12 -3.20158e+12 -3.47539e+12 -5.77938e+12 -5.67086e+12 -5.50107e+12 -5.27115e+12 -5.2883e+12 -4.7909e+12 -5.37697e+12 -4.78214e+12 -4.84044e+12 -4.38066e+12 -4.31365e+12 -4.11863e+12 -3.70215e+12 -4.17809e+12 -3.59849e+12 -3.58424e+12 -3.56504e+12 -3.38425e+12 -3.34296e+12 -3.28917e+12 -3.05267e+12 -3.13227e+12 -3.31144e+12 -3.36117e+12 -3.3789e+12 -3.36462e+12 -3.50324e+12 -3.9212e+12 -4.62981e+12 -3.04727e+12 -4.36432e+12 -4.89069e+12 -5.1144e+12 -5.17298e+12 -5.02486e+12 -5.29067e+12 -5.40111e+12 -5.60325e+12 -5.69589e+12 -5.68608e+12 -3.24551e+12 -3.62557e+12 -3.58281e+12 -5.86573e+12 -5.60739e+12 -5.46772e+12 -5.36513e+12 -5.35904e+12 -5.24005e+12 -5.2699e+12 -5.10547e+12 -4.45252e+12 -2.73809e+12 -5.38043e+12 -3.98384e+12 -4.89177e+12 -3.34615e+12 -3.31628e+12 -1.71651e+12 -3.25477e+12 -2.90399e+12 -3.77959e+12 -3.39553e+12 -3.28939e+12 -3.31186e+12 -3.24693e+12 -3.27863e+12 -3.20708e+12 -3.17247e+12 -3.14204e+12 -3.12808e+12 -3.22471e+12 -3.26327e+12 -3.37461e+12 -3.37814e+12 -3.29454e+12 -3.36612e+12 -3.60357e+12 -4.07049e+12 -4.51189e+12 -4.47803e+12 -4.70747e+12 -4.57389e+12 -4.5745e+12 -5.08346e+12 -4.75189e+12 -4.89955e+12 -5.36898e+12 -5.50049e+12 -5.64756e+12 -5.64433e+12 -5.72513e+12 -3.39129e+12 -3.49596e+12 -3.58831e+12 -5.86683e+12 -5.72782e+12 -5.70013e+12 -5.55428e+12 -5.38591e+12 -5.38469e+12 -5.49345e+12 -5.52528e+12 -5.4984e+12 -5.30115e+12 -5.02057e+12 -4.25741e+12 -4.66599e+12 -4.45867e+12 -4.13856e+12 -3.13479e+12 -4.03051e+12 -3.50632e+12 -3.44305e+12 -3.27094e+12 -3.21527e+12 -3.19078e+12 -3.15972e+12 -3.19099e+12 -3.33447e+12 -3.47271e+12 -3.3838e+12 -3.18929e+12 -3.51299e+12 -3.79939e+12 -3.50033e+12 -2.50624e+12 -3.6812e+12 -5.13318e+12 -4.61195e+12 -3.35873e+12 -4.79661e+12 -3.73179e+12 -5.06283e+12 -5.35329e+12 -5.3726e+12 -5.53586e+12 -5.75669e+12 -5.64338e+12 -5.64625e+12 -5.78707e+12 -3.51117e+12 -3.53318e+12 -3.36134e+12 -5.82704e+12 -5.67924e+12 -5.54375e+12 -5.37714e+12 -5.34966e+12 -5.88898e+12 -5.20127e+12 -5.2692e+12 -4.86768e+12 -4.40625e+12 -4.29015e+12 -4.37899e+12 -3.98908e+12 -3.57762e+12 -3.03583e+12 -3.83206e+12 -2.89315e+12 -3.22745e+12 -3.17809e+12 -3.15897e+12 -3.14845e+12 -3.15932e+12 -3.27148e+12 -3.46095e+12 -3.53528e+12 -3.22286e+12 -2.96292e+12 -3.00029e+12 -3.38766e+12 -4.12234e+12 -4.59989e+12 -2.69488e+12 -4.88038e+12 -4.61865e+12 -5.64909e+12 -4.33363e+12 -5.64418e+12 -5.5443e+12 -5.78692e+12 -5.91621e+12 -5.70224e+12 -5.69057e+12 -5.75905e+12 -3.34739e+12 -3.22685e+12 -5.5143e+12 -5.66592e+12 -5.75538e+12 -5.65317e+12 -5.52491e+12 -5.05386e+12 -5.14294e+12 -5.72616e+12 -6.44276e+12 -5.55455e+12 -5.36296e+12 -5.06364e+12 -4.62852e+12 -4.54346e+12 -3.91099e+12 -3.53244e+12 -3.16736e+12 -3.17115e+12 -2.55314e+12 -2.96868e+12 -2.91265e+12 -3.10909e+12 -3.06318e+12 -3.11787e+12 -3.07173e+12 -3.1162e+12 -3.09e+12 -3.1297e+12 -3.13704e+12 -3.19777e+12 -3.26344e+12 -3.38684e+12 -3.56107e+12 -3.61355e+12 -3.78778e+12 -3.3422e+12 -2.15573e+12 -2.76791e+12 -2.68029e+12 -3.35694e+12 -3.80779e+12 -4.69442e+12 -3.32332e+12 -4.96486e+12 -5.39808e+12 -5.56666e+12 -6.36614e+12 -5.44043e+12 -4.88626e+12 -5.67255e+12 -5.78694e+12 -5.60928e+12 -5.40554e+12 -5.51965e+12 -3.45077e+12 -5.31942e+12 -3.14515e+12 -3.13629e+12 -5.33965e+12 -5.4879e+12 -5.57603e+12 -5.48984e+12 -5.46253e+12 -5.30115e+12 -5.27303e+12 -5.14203e+12 -5.34649e+12 -3.95123e+12 -4.37226e+12 -5.47245e+12 -4.87445e+12 -4.5916e+12 -4.33741e+12 -4.1308e+12 -3.44042e+12 -2.97641e+12 -2.59678e+12 -2.93583e+12 -2.97427e+12 -3.01126e+12 -3.04167e+12 -3.08071e+12 -3.16591e+12 -3.36259e+12 -3.87056e+12 -3.20284e+12 -3.20721e+12 -1.63506e+12 -2.17781e+12 -2.89835e+12 -3.54874e+12 -3.74752e+12 -4.16776e+12 -4.24527e+12 -4.80793e+12 -4.78856e+12 -5.19455e+12 -4.36786e+12 -5.31243e+12 -5.99726e+12 -4.40238e+12 -5.09546e+12 -5.27147e+12 -5.37513e+12 -5.08914e+12 -2.89111e+12 -3.07653e+12 -3.10075e+12 -5.16871e+12 -5.33283e+12 -5.37638e+12 -5.39168e+12 -5.23567e+12 -4.94275e+12 -4.87811e+12 -4.53078e+12 -4.90748e+12 -4.91857e+12 -5.80093e+12 -6.33517e+12 -4.76879e+12 -4.51317e+12 -4.27497e+12 -4.04989e+12 -3.76058e+12 -2.86036e+12 -1.88611e+12 -1.35603e+12 -1.68837e+12 -2.65241e+12 -2.88943e+12 -2.82793e+12 -2.92944e+12 -2.98373e+12 -2.9598e+12 -3.02206e+12 -3.01293e+12 -3.08633e+12 -3.10375e+12 -3.21459e+12 -3.28649e+12 -3.51485e+12 -3.76889e+12 -4.52168e+12 -2.02983e+12 -3.10543e+12 -3.97789e+12 -3.63487e+12 -2.71035e+12 -2.99126e+12 -3.3794e+12 -3.59455e+12 -4.1486e+12 -4.29559e+12 -4.97846e+12 -5.04455e+12 -5.17705e+12 -5.90627e+12 -4.96759e+12 -3.64358e+12 -4.80823e+12 -5.15377e+12 -5.03469e+12 -5.10274e+12 -5.15057e+12 -4.72648e+12 -2.65829e+12 -2.45846e+12 -3.00844e+12 -4.95503e+12 -5.16387e+12 -5.26358e+12 -5.4405e+12 -5.33061e+12 -4.85352e+12 -5.20767e+12 -4.74167e+12 -3.10108e+12 -4.27491e+12 -4.92038e+12 -4.02785e+12 -5.09282e+12 -4.39301e+12 -4.16445e+12 -3.94552e+12 -3.68064e+12 -3.34541e+12 -3.29502e+12 -3.51305e+12 -3.22764e+12 -2.71122e+12 -2.63773e+12 -2.84675e+12 -2.91485e+12 -2.89134e+12 -2.94215e+12 -3.01132e+12 -3.13024e+12 -3.37501e+12 -3.28112e+12 -2.70374e+12 -2.46247e+12 -2.9987e+12 -2.34088e+12 -2.45228e+12 -2.80488e+12 -3.54123e+12 -4.5764e+12 -4.88965e+12 -4.55124e+12 -4.68661e+12 -3.25622e+12 -4.61941e+12 -4.46105e+12 -4.77423e+12 -4.92403e+12 -4.74336e+12 -5.05229e+12 -4.92245e+12 -4.74098e+12 -4.32642e+12 -2.14719e+12 -2.90062e+12 -3.03677e+12 -4.66271e+12 -4.69251e+12 -4.94598e+12 -5.03302e+12 -5.19286e+12 -5.23705e+12 -5.33597e+12 -4.76444e+12 -5.36465e+12 -3.19121e+12 -4.21157e+12 -4.89491e+12 -4.43892e+12 -4.61053e+12 -3.84114e+12 -3.62926e+12 -3.39717e+12 -3.15812e+12 -2.95225e+12 -1.57455e+12 -2.353e+12 -2.78132e+12 -2.82001e+12 -2.87209e+12 -2.92721e+12 -3.01278e+12 -3.1512e+12 -3.20192e+12 -3.05464e+12 -3.55878e+12 -3.3229e+12 -3.21033e+12 -3.558e+12 -4.23655e+12 -4.50414e+12 -4.2707e+12 -3.76056e+12 -3.98309e+12 -4.16967e+12 -4.41509e+12 -4.6198e+12 -4.41477e+12 -4.03957e+12 -5.82096e+12 -4.83691e+12 -4.57695e+12 -4.98456e+12 -4.74083e+12 -5.77091e+12 -5.2453e+12 -3.98053e+12 -3.27601e+12 -4.75911e+12 -2.67469e+12 -2.78691e+12 -4.39865e+12 -4.40091e+12 -4.21142e+12 -4.84246e+12 -5.14242e+12 -5.34946e+12 -5.17951e+12 -5.62084e+12 -4.24117e+12 -5.83868e+12 -3.06714e+12 -4.58577e+12 -3.84112e+12 -4.40085e+12 -4.46673e+12 -4.24702e+12 -4.22154e+12 -4.03597e+12 -3.5423e+12 -3.34712e+12 -3.13759e+12 -2.906e+12 -2.65666e+12 -1.87402e+12 -2.78351e+12 -2.66461e+12 -2.74319e+12 -2.74583e+12 -2.80441e+12 -2.77625e+12 -2.84965e+12 -2.82482e+12 -2.91284e+12 -2.89151e+12 -3.00547e+12 -2.94676e+12 -3.05946e+12 -2.94944e+12 -2.93221e+12 -2.85633e+12 -2.98319e+12 -3.13912e+12 -3.6068e+12 -4.01814e+12 -4.10951e+12 -3.81462e+12 -3.96545e+12 -4.1073e+12 -4.27363e+12 -4.35143e+12 -4.29232e+12 -3.27329e+12 -5.72953e+12 -4.11113e+12 -5.80732e+12 -4.97702e+12 -3.84368e+12 -5.44046e+12 -4.83756e+12 -5.43218e+12 -4.71057e+12 -2.81983e+12 -2.79722e+12 -2.51357e+12 -2.69056e+12 -4.14913e+12 -4.54784e+12 -4.24842e+12 -4.40364e+12 -4.72466e+12 -5.61236e+12 -6.31105e+12 -4.01944e+12 -5.23071e+12 -4.17692e+12 -4.33287e+12 -3.91448e+12 -4.08685e+12 -4.1373e+12 -4.12016e+12 -3.98896e+12 -3.88648e+12 -3.72194e+12 -3.14576e+12 -3.01416e+12 -2.95916e+12 -2.9899e+12 -3.66163e+12 -3.80555e+12 -2.89646e+12 -2.53739e+12 -2.70781e+12 -2.71081e+12 -2.74601e+12 -2.79366e+12 -2.84333e+12 -2.86962e+12 -2.82702e+12 -2.47536e+12 -2.44091e+12 -2.44057e+12 -2.8355e+12 -3.3206e+12 -3.61832e+12 -3.92501e+12 -3.76059e+12 -3.79295e+12 -3.8917e+12 -4.00037e+12 -4.08932e+12 -4.05913e+12 -4.25369e+12 -3.90009e+12 -4.52837e+12 -4.25178e+12 -5.43432e+12 -5.30746e+12 -4.12179e+12 -5.51419e+12 -5.02178e+12 -4.77099e+12 -5.04258e+12 -4.916e+12 -4.84482e+12 -4.4914e+12 -2.73037e+12 -2.32517e+12 -3.82426e+12 -4.4326e+12 -3.28888e+12 -3.69116e+12 -4.13258e+12 -5.09279e+12 -5.45347e+12 -4.97832e+12 -4.60378e+12 -4.69777e+12 -4.11399e+12 -4.17177e+12 -3.84757e+12 -3.95625e+12 -4.07113e+12 -3.87434e+12 -3.82227e+12 -3.71058e+12 -3.59912e+12 -3.4547e+12 -3.29776e+12 -2.87414e+12 -2.74055e+12 -2.4464e+12 -1.64715e+12 -2.05031e+12 -2.71404e+12 -2.65672e+12 -2.67432e+12 -2.70752e+12 -2.74971e+12 -2.6934e+12 -2.7765e+12 -2.69511e+12 -2.78826e+12 -2.65177e+12 -1.56238e+12 -1.20321e+12 -1.61487e+12 -3.69229e+12 -3.67019e+12 -3.64855e+12 -3.69747e+12 -3.77578e+12 -3.84822e+12 -4.16608e+12 -4.01701e+12 -3.95583e+12 -4.21857e+12 -4.20271e+12 -4.78875e+12 -4.92795e+12 -4.65039e+12 -4.88676e+12 -5.10948e+12 -4.57384e+12 -4.6088e+12 -4.29633e+12 -4.41132e+12 -4.15234e+12 -4.28508e+12 -2.67636e+12 -2.14655e+12 -3.54146e+12 -3.61857e+12 -3.26926e+12 -3.59377e+12 -3.67409e+12 -4.97915e+12 -2.06745e+12 -3.36964e+12 -4.47773e+12 -4.72486e+12 -4.59253e+12 -4.62511e+12 -4.2722e+12 -4.17686e+12 -3.94345e+12 -3.86673e+12 -3.74628e+12 -3.82922e+12 -3.87856e+12 -3.55542e+12 -3.45926e+12 -3.35035e+12 -3.22202e+12 -3.09468e+12 -2.97826e+12 -2.90329e+12 -3.16286e+12 -3.98709e+12 -3.40878e+12 -2.81337e+12 -2.55426e+12 -2.60967e+12 -2.57813e+12 -2.61712e+12 -2.55909e+12 -2.6299e+12 -2.5805e+12 -2.66053e+12 -2.60608e+12 -2.62903e+12 -2.56643e+12 -2.41729e+12 -2.87605e+12 -2.31963e+12 -3.03118e+12 -3.31093e+12 -3.42697e+12 -3.47199e+12 -3.50801e+12 -3.56489e+12 -3.91924e+12 -3.92161e+12 -3.81137e+12 -3.95103e+12 -4.47983e+12 -4.62001e+12 -4.59387e+12 -4.6491e+12 -4.13686e+12 -4.19173e+12 -3.8022e+12 -3.96549e+12 -4.17599e+12 -4.21e+12 -2.66219e+12 -1.84134e+12 -2.00009e+12 -3.53041e+12 -3.28297e+12 -2.10415e+12 -3.90987e+12 -2.63303e+12 -3.84204e+12 -4.10946e+12 -4.12881e+12 -4.18339e+12 -3.83818e+12 -3.69906e+12 -3.63401e+12 -3.74269e+12 -3.67529e+12 -3.65586e+12 -3.62132e+12 -3.22839e+12 -3.13054e+12 -3.03026e+12 -2.94116e+12 -2.87486e+12 -2.84446e+12 -2.50759e+12 -2.57031e+12 -2.49726e+12 -2.50602e+12 -2.52447e+12 -2.54309e+12 -2.55588e+12 -2.48032e+12 -2.33708e+12 -1.97924e+12 -3.20229e+12 -3.32432e+12 -3.19487e+12 -2.9559e+12 -3.08098e+12 -3.18612e+12 -3.2597e+12 -3.31227e+12 -3.62632e+12 -3.68647e+12 -3.72332e+12 -3.79227e+12 -4.00888e+12 -4.2912e+12 -4.44428e+12 -4.25157e+12 -4.21421e+12 -4.18015e+12 -3.50637e+12 -3.44678e+12 -2.35321e+12 -3.5631e+12 -4.0276e+12 -4.24678e+12 -2.62806e+12 -2.57984e+12 -1.69591e+12 -3.40012e+12 -3.46347e+12 -2.70122e+12 -2.53303e+12 -3.29853e+12 -3.26337e+12 -3.32208e+12 -3.60026e+12 -3.69778e+12 -3.76704e+12 -4.11441e+12 -3.91173e+12 -3.45601e+12 -3.55621e+12 -3.52173e+12 -3.46512e+12 -3.42827e+12 -3.37926e+12 -3.31374e+12 -2.93853e+12 -2.86702e+12 -2.80465e+12 -2.75505e+12 -2.71437e+12 -2.63553e+12 -2.08196e+12 -1.54489e+12 -2.83746e+12 -2.6568e+12 -2.43907e+12 -2.43459e+12 -2.3794e+12 -2.4505e+12 -2.38873e+12 -2.46232e+12 -2.39112e+12 -2.47026e+12 -2.38917e+12 -2.47116e+12 -1.46529e+12 -1.77944e+12 -2.69831e+12 -2.86451e+12 -2.8886e+12 -2.97375e+12 -3.04808e+12 -3.36069e+12 -3.41258e+12 -3.46517e+12 -3.51014e+12 -3.56781e+12 -3.61288e+12 -3.7028e+12 -3.77786e+12 -3.94151e+12 -4.0571e+12 -4.12965e+12 -4.24339e+12 -3.87331e+12 -3.79739e+12 -3.68827e+12 -2.0593e+12 -3.75584e+12 -3.85923e+12 -3.76087e+12 -4.02232e+12 -4.07951e+12 -4.26236e+12 -2.28233e+12 -1.56399e+12 -3.24335e+12 -3.19067e+12 -3.32541e+12 -3.28034e+12 -3.4903e+12 -4.1934e+12 -2.83246e+12 -2.94985e+12 -3.19665e+12 -3.31696e+12 -3.77549e+12 -3.71547e+12 -3.60347e+12 -3.53869e+12 -3.39819e+12 -3.33979e+12 -3.29544e+12 -3.24666e+12 -3.20078e+12 -3.14967e+12 -3.08856e+12 -3.01416e+12 -2.72866e+12 -2.69681e+12 -2.69746e+12 -2.75967e+12 -2.91124e+12 -3.59875e+12 -4.08996e+12 -2.24484e+12 -2.38073e+12 -2.28415e+12 -2.36414e+12 -2.30979e+12 -2.31871e+12 -2.32302e+12 -2.30906e+12 -2.31127e+12 -2.83422e+12 -3.66387e+12 -3.63371e+12 -2.99271e+12 -2.87902e+12 -2.83514e+12 -2.82977e+12 -3.10927e+12 -3.16016e+12 -3.20677e+12 -3.2534e+12 -3.29757e+12 -3.3472e+12 -3.39643e+12 -3.46523e+12 -3.53678e+12 -3.64541e+12 -3.73512e+12 -3.79852e+12 -3.87223e+12 -3.90483e+12 -3.49069e+12 -3.33765e+12 -2.91644e+12 -4.40452e+12 -4.4049e+12 -3.5913e+12 -3.69627e+12 -4.08641e+12 -4.02747e+12 -2.36024e+12 -1.60014e+12 -1.45396e+12 -2.86739e+12 -3.06151e+12 -3.01237e+12 -3.1737e+12 -3.30645e+12 -3.53812e+12 -2.74174e+12 -2.90792e+12 -2.85523e+12 -2.97438e+12 -3.39607e+12 -3.43543e+12 -3.43638e+12 -3.39197e+12 -3.32181e+12 -3.27134e+12 -3.10988e+12 -3.06755e+12 -3.02148e+12 -2.97724e+12 -2.93203e+12 -2.88086e+12 -2.82651e+12 -2.77499e+12 -2.58195e+12 -2.58829e+12 -2.60578e+12 -2.69433e+12 -1.97622e+12 -2.38316e+12 -2.1492e+12 -2.24019e+12 -2.24969e+12 -2.25335e+12 -2.25267e+12 -2.21498e+12 -2.0764e+12 -2.25587e+12 -2.3284e+12 -1.89665e+12 -2.75078e+12 -2.68505e+12 -2.86967e+12 -2.91812e+12 -2.96538e+12 -3.00898e+12 -3.05048e+12 -3.09103e+12 -3.13417e+12 -3.17971e+12 -3.23546e+12 -3.29705e+12 -3.3755e+12 -3.44544e+12 -3.4971e+12 -3.54491e+12 -3.57194e+12 -3.56023e+12 -3.40884e+12 -3.37577e+12 -3.87164e+12 -3.32428e+12 -3.0465e+12 -3.735e+12 -2.23795e+12 -2.36706e+12 -1.49608e+12 -952165000000.0 -1.28508e+12 -2.57584e+12 -2.83236e+12 -2.97192e+12 -2.96825e+12 -3.23383e+12 -3.17772e+12 -2.58765e+12 -2.1027e+12 -2.58304e+12 -2.59733e+12 -2.66507e+12 -3.0589e+12 -3.11332e+12 -3.13604e+12 -3.1286e+12 -3.09839e+12 -3.05696e+12 -3.21138e+12 -3.15823e+12 -2.84122e+12 -2.80406e+12 -2.77005e+12 -2.73519e+12 -2.69846e+12 -2.66114e+12 -2.62558e+12 -2.59651e+12 -2.27812e+12 -901742000000.0 -1.94179e+12 -2.1187e+12 -2.17021e+12 -2.08728e+12 -2.17616e+12 -2.12553e+12 -2.18824e+12 -2.11615e+12 -2.18377e+12 -2.11001e+12 -2.1888e+12 -2.15505e+12 -1.62185e+12 -2.69129e+12 -2.69751e+12 -2.71242e+12 -2.74388e+12 -2.78102e+12 -2.81894e+12 -2.85529e+12 -2.89078e+12 -2.92771e+12 -3.12156e+12 -3.17533e+12 -3.21565e+12 -3.24725e+12 -3.26665e+12 -3.2693e+12 -3.2551e+12 -3.23472e+12 -3.2328e+12 -3.06208e+12 -3.49562e+12 -3.34697e+12 -2.89035e+12 -1.85501e+12 -1.95734e+12 -2.24705e+12 -2.37637e+12 -2.39378e+12 -1.25641e+12 -938324000000.0 -767306000000.0 -2.05349e+12 -2.65794e+12 -2.59425e+12 -2.7568e+12 -2.70375e+12 -2.94919e+12 -3.8324e+12 -1.89389e+12 -1.8943e+12 -2.24324e+12 -2.7533e+12 -2.81715e+12 -2.8541e+12 -2.85913e+12 -2.84284e+12 -2.82145e+12 -3.0165e+12 -2.96533e+12 -2.91981e+12 -2.87857e+12 -2.58201e+12 -2.55911e+12 -2.53418e+12 -2.50742e+12 -2.48273e+12 -2.46453e+12 -2.45562e+12 -2.45277e+12 -2.46101e+12 -1.98761e+12 -1.96929e+12 -2.06502e+12 -2.05146e+12 -2.04621e+12 -2.04591e+12 -2.15576e+12 -904465000000.0 -2.11264e+12 -2.47165e+12 -2.51419e+12 -2.5418e+12 -2.56144e+12 -2.58226e+12 -2.60887e+12 -2.63849e+12 -2.66841e+12 -2.96715e+12 -3.0124e+12 -3.06293e+12 -2.97548e+12 -2.96761e+12 -2.94403e+12 -2.90563e+12 -2.85371e+12 -2.84326e+12 -1.3066e+12 -3.7192e+12 -3.04141e+12 -2.22023e+12 -1.9791e+12 -2.11036e+12 -2.05869e+12 -2.31375e+12 -2.2133e+12 -807592000000.0 -557295000000.0 -1.49629e+12 -2.04223e+12 -1.98511e+12 -2.43914e+12 -2.68623e+12 -2.62216e+12 -2.92104e+12 -3.71665e+12 -3.40393e+12 -2.45426e+12 -2.53527e+12 -2.57823e+12 -2.59782e+12 -2.59138e+12 -2.79707e+12 -2.76161e+12 -2.72109e+12 -2.68568e+12 -2.65375e+12 -2.62662e+12 -2.60424e+12 -2.3977e+12 -2.37958e+12 -2.36084e+12 -2.34554e+12 -2.33666e+12 -2.33786e+12 -2.36102e+12 -2.37632e+12 -2.403e+12 -2.70539e+12 -1.65014e+12 -2.01276e+12 -1.99551e+12 -1.96432e+12 -1.97356e+12 -1.96766e+12 -1.99919e+12 -1.92909e+12 -2.24743e+12 -2.87568e+12 -2.65954e+12 -2.43449e+12 -2.4261e+12 -2.41065e+12 -2.41737e+12 -2.43099e+12 -2.44835e+12 -2.69751e+12 -2.72752e+12 -2.75958e+12 -2.79511e+12 -2.83453e+12 -2.87823e+12 -2.91907e+12 -2.94936e+12 -2.96856e+12 -2.65964e+12 -2.60723e+12 -2.52519e+12 -2.39673e+12 -2.19054e+12 -2.01244e+12 -1.85811e+12 -1.90407e+12 -2.16547e+12 -2.08154e+12 -2.37487e+12 -2.2455e+12 -1.93045e+12 -1.69092e+12 -599767000000.0 -332799000000.0 -1.13073e+12 -1.21684e+12 -1.75371e+12 -1.71566e+12 -1.96798e+12 -2.13588e+12 -2.46821e+12 -2.54124e+12 -2.91847e+12 -2.82699e+12 -3.12852e+12 -2.62636e+12 -2.42639e+12 -2.37963e+12 -2.35274e+12 -2.57572e+12 -2.56076e+12 -2.53933e+12 -2.50875e+12 -2.4795e+12 -2.45677e+12 -2.43991e+12 -2.43266e+12 -2.42415e+12 -2.4125e+12 -2.22037e+12 -2.21106e+12 -2.20616e+12 -2.20709e+12 -2.19362e+12 -2.14364e+12 -2.10818e+12 -845147000000.0 -2.45729e+12 -2.04899e+12 -1.78585e+12 -1.91942e+12 -1.89466e+12 -1.92579e+12 -1.81475e+12 -1.86408e+12 -1.67898e+12 -2.21522e+12 -786196000000.0 -2.09149e+12 -2.23656e+12 -2.25043e+12 -2.26982e+12 -2.27423e+12 -2.46917e+12 -2.49152e+12 -2.51338e+12 -2.53488e+12 -2.55825e+12 -2.58409e+12 -2.6121e+12 -2.64312e+12 -2.67306e+12 -2.69581e+12 -2.70739e+12 -2.70684e+12 -2.69221e+12 -2.29259e+12 -2.18138e+12 -1.95546e+12 -1.32897e+12 -3.29421e+12 -1.30908e+12 -2.53909e+12 -1.85669e+12 -1.99649e+12 -1.74632e+12 -2.13278e+12 -1.42406e+12 -1.29005e+12 -361828000000.0 -108624000000.0 -240247000000.0 -691848000000.0 -704253000000.0 -1.43487e+12 -1.83339e+12 -1.85098e+12 -2.24195e+12 -2.29586e+12 -2.66047e+12 -1.76685e+12 -1.50032e+12 -2.8385e+12 -2.62506e+12 -2.36979e+12 -2.36206e+12 -2.34308e+12 -2.32617e+12 -2.31463e+12 -2.30473e+12 -2.28231e+12 -2.25688e+12 -2.24234e+12 -2.23748e+12 -2.25472e+12 -2.261e+12 -2.26041e+12 -2.25457e+12 -2.24469e+12 -2.23231e+12 -2.0862e+12 -2.10459e+12 -2.20755e+12 -2.38563e+12 -2.10393e+12 -1.69614e+12 -1.83949e+12 -1.81131e+12 -1.71944e+12 -1.44668e+12 -2.9065e+12 -2.78887e+12 -2.59472e+12 -2.30312e+12 -2.18824e+12 -2.28358e+12 -2.29556e+12 -2.30941e+12 -2.32478e+12 -2.3399e+12 -2.35328e+12 -2.36518e+12 -2.38019e+12 -2.39716e+12 -2.41449e+12 -2.43383e+12 -2.45049e+12 -2.45892e+12 -2.45662e+12 -2.44145e+12 -2.41012e+12 -2.3621e+12 -1.87983e+12 -1.4434e+12 -2.57004e+12 -2.3587e+12 -3.2581e+12 -1.28969e+12 -2.39056e+12 -2.09447e+12 -1.46051e+12 -2.50817e+12 -1.65391e+12 -831023000000.0 -778818000000.0 -258903000000.0 -119501000000.0 -171322000000.0 -899869000000.0 -1.49294e+12 -1.51837e+12 -1.95845e+12 -2.06644e+12 -2.16503e+12 -1.14995e+12 -2.22599e+12 -2.28614e+12 -2.19638e+12 -2.22786e+12 -2.16124e+12 -2.12035e+12 -2.10126e+12 -2.08369e+12 -2.07022e+12 -2.06449e+12 -2.00352e+12 -2.06968e+12 -2.0948e+12 -2.10496e+12 -2.10712e+12 -2.1045e+12 -2.09876e+12 -2.09163e+12 -2.08481e+12 -2.08036e+12 -2.08124e+12 -1.96171e+12 -1.07531e+12 -1.72279e+12 -1.79133e+12 -1.68019e+12 -1.40295e+12 -1.40789e+12 -1.13651e+12 -913394000000.0 -2.14693e+12 -2.1406e+12 -2.14169e+12 -2.14832e+12 -2.15709e+12 -2.16689e+12 -2.17648e+12 -2.18378e+12 -2.18705e+12 -2.18495e+12 -2.18941e+12 -2.19537e+12 -2.19834e+12 -2.20889e+12 -2.21579e+12 -2.21534e+12 -2.20549e+12 -2.18205e+12 -2.14403e+12 -2.09245e+12 -2.01957e+12 -1.93774e+12 -2.11194e+12 -2.1672e+12 -1.01305e+12 -2.97091e+12 -1.20346e+12 -2.50964e+12 -2.02447e+12 -1.35551e+12 -1.0378e+12 -178026000000.0 -215222000000.0 -1.10382e+12 -1.26247e+12 -1.63942e+12 -1.80064e+12 -2.15806e+12 -2.30763e+12 -1.84137e+12 -1.9326e+12 -1.92658e+12 -2.05547e+12 -1.95567e+12 -1.89446e+12 -1.86564e+12 -1.84559e+12 -1.82965e+12 -2.04645e+12 -2.01722e+12 -1.99963e+12 -1.95787e+12 -1.96106e+12 -1.96112e+12 -1.95889e+12 -1.95534e+12 -1.95196e+12 -1.95102e+12 -1.95335e+12 -1.96151e+12 -1.98922e+12 -2.00347e+12 -2.20181e+12 -720137000000.0 -1.59743e+12 -1.89571e+12 -1.81959e+12 -1.58851e+12 -1.6136e+12 -790731000000.0 -2.06401e+12 -2.05431e+12 -2.0286e+12 -2.00769e+12 -1.99872e+12 -1.99958e+12 -2.0037e+12 -2.00952e+12 -2.01569e+12 -2.02137e+12 -2.02484e+12 -1.97682e+12 -1.96469e+12 -1.93893e+12 -1.90107e+12 -1.85055e+12 -1.78259e+12 -1.6709e+12 -1.57894e+12 -1.77143e+12 -2.84896e+12 -2.12275e+12 -2.1134e+12 -1.69294e+12 -204571000000.0 -494316000000.0 -1.2806e+12 -1.45207e+12 -2.02608e+12 -2.33845e+12 -1.46066e+12 -1.41056e+12 -1.60154e+12 -1.85599e+12 -1.7268e+12 -1.64894e+12 -1.62643e+12 -1.82596e+12 -1.80897e+12 -1.77045e+12 -1.72432e+12 -1.68597e+12 -1.88431e+12 -1.93043e+12 -1.94941e+12 -1.82261e+12 -1.82271e+12 -1.82167e+12 -1.82124e+12 -1.82278e+12 -1.82762e+12 -1.83919e+12 -1.84517e+12 -1.82891e+12 -1.65006e+12 -1.96441e+12 -2.03299e+12 -1.69056e+12 -1.9325e+12 -1.28374e+12 -909358000000.0 -1.37745e+12 -1.76374e+12 -1.8257e+12 -1.84389e+12 -1.84967e+12 -1.8539e+12 -1.85927e+12 -1.8645e+12 -1.86904e+12 -2.02372e+12 -2.01415e+12 -1.98769e+12 -1.98122e+12 -1.97552e+12 -1.96364e+12 -1.97103e+12 -1.97631e+12 -1.71348e+12 -1.6756e+12 -1.62877e+12 -1.56822e+12 -1.63124e+12 -1.62e+12 -854295000000.0 -1.39438e+12 -1.66028e+12 -999954000000.0 -1.08111e+12 -683820000000.0 -232537000000.0 -747265000000.0 -953004000000.0 -1.68673e+12 -1.90957e+12 -2.48151e+12 -2.03279e+12 -1.52781e+12 -1.59527e+12 -1.5463e+12 -1.31924e+12 -1.60468e+12 -1.59159e+12 -1.59974e+12 -1.58565e+12 -1.53762e+12 -1.46198e+12 -1.32143e+12 -1.77438e+12 -1.79105e+12 -1.80167e+12 -1.81014e+12 -1.81635e+12 -1.82052e+12 -1.69083e+12 -1.6934e+12 -1.69782e+12 -1.70497e+12 -1.71059e+12 -1.70857e+12 -1.67286e+12 -1.81744e+12 -1.78337e+12 -1.71484e+12 -1.96336e+12 -256108000000.0 -1.76235e+12 -955646000000.0 -1.19544e+12 -1.24378e+12 -1.43477e+12 -1.61097e+12 -1.66882e+12 -1.69415e+12 -1.70693e+12 -1.87257e+12 -1.87411e+12 -1.87156e+12 -1.86183e+12 -1.83617e+12 -1.75888e+12 -1.74604e+12 -1.74816e+12 -1.70194e+12 -1.72712e+12 -1.74659e+12 -1.75131e+12 -1.73987e+12 -1.46144e+12 -1.41792e+12 -1.40127e+12 -1.3501e+12 -1.27216e+12 -1.09671e+12 -1.493e+12 -1.81825e+12 -936742000000.0 -1.47771e+12 -441693000000.0 -579902000000.0 -1.30055e+12 -1.4454e+12 -3.1459e+12 -1.25952e+12 -1.42266e+12 -1.35581e+12 -1.36741e+12 -1.36965e+12 -1.36859e+12 -1.32987e+12 -1.38769e+12 -1.39222e+12 -1.34178e+12 -1.25413e+12 -1.08146e+12 -1.77294e+12 -1.69367e+12 -1.66418e+12 -1.66415e+12 -1.67051e+12 -1.67774e+12 -1.68356e+12 -1.68726e+12 -1.68922e+12 -1.58142e+12 -1.57056e+12 -1.60187e+12 -1.55169e+12 -1.50258e+12 -758389000000.0 -1.78443e+12 -1.72602e+12 -1.19779e+12 -1.27969e+12 -1.32058e+12 -1.71512e+12 -1.72144e+12 -1.72584e+12 -1.72852e+12 -1.72931e+12 -1.727e+12 -1.71959e+12 -1.70387e+12 -1.66255e+12 -1.43785e+12 -1.51085e+12 -1.55029e+12 -1.42616e+12 -1.51076e+12 -1.53938e+12 -1.54731e+12 -1.53409e+12 -1.50337e+12 -1.14701e+12 -1.05959e+12 -980569000000.0 -385086000000.0 -1.266e+12 -1.22484e+12 -953441000000.0 -800316000000.0 -150360000000.0 -459616000000.0 -863520000000.0 -1.18986e+12 -2.37774e+12 -2.8143e+12 -1.20501e+12 -1.09527e+12 -1.14816e+12 -1.10064e+12 -1.16337e+12 -1.14748e+12 -1.24965e+12 -1.25525e+12 -1.19137e+12 -1.68407e+12 -1.58223e+12 -1.51467e+12 -1.51131e+12 -1.52059e+12 -1.53208e+12 -1.54211e+12 -1.54954e+12 -1.55477e+12 -1.55903e+12 -1.5637e+12 -1.56923e+12 -1.57564e+12 -1.58079e+12 -1.23527e+12 -1.33404e+12 -1.24748e+12 -1.69697e+12 -1.25716e+12 -1.41919e+12 -1.41276e+12 -1.49925e+12 -1.53999e+12 -1.56143e+12 -1.57359e+12 -1.5813e+12 -1.58608e+12 -1.58849e+12 -1.58893e+12 -1.58714e+12 -1.58281e+12 -1.57725e+12 -1.5808e+12 -1.61592e+12 -1.2046e+12 -1.33453e+12 -1.44283e+12 -1.27257e+12 -1.35107e+12 -1.36821e+12 -1.36784e+12 -1.34615e+12 -1.30808e+12 -1.26205e+12 -1.22251e+12 -526234000000.0 -1.491e+12 -895648000000.0 -889584000000.0 -584147000000.0 -278550000000.0 -570875000000.0 -1.41893e+12 -1.92666e+12 -2.18158e+12 -671342000000.0 -557979000000.0 -906156000000.0 -1.02463e+12 -1.25765e+12 -947732000000.0 -1.02972e+12 -1.09537e+12 -902242000000.0 -1.3824e+12 -1.39848e+12 -1.41017e+12 -1.41876e+12 -1.4258e+12 -1.43281e+12 -1.44071e+12 -1.44873e+12 -1.45577e+12 -1.45997e+12 -1.45976e+12 -1.46872e+12 -1.44833e+12 -1.4198e+12 -1.55739e+12 -1.37124e+12 -1.35662e+12 -1.26998e+12 -1.28737e+12 -1.3103e+12 -1.35503e+12 -1.39763e+12 -1.42258e+12 -1.43716e+12 -1.44583e+12 -1.4507e+12 -1.45276e+12 -1.45259e+12 -1.45012e+12 -1.44493e+12 -1.22182e+12 -1.20183e+12 -1.16918e+12 -1.12289e+12 -1.06986e+12 -991978000000.0 -857043000000.0 -739797000000.0 -1.5496e+12 -1.14759e+12 -734843000000.0 -741497000000.0 -142907000000.0 -186764000000.0 -495957000000.0 -994204000000.0 -1.38618e+12 -328886000000.0 -1.01588e+12 -985747000000.0 -1.08555e+12 -844951000000.0 -1.12647e+12 -1.16128e+12 -1.08347e+12 -987702000000.0 -794930000000.0 -1.53532e+12 -1.39818e+12 -1.31492e+12 -1.33883e+12 -1.36187e+12 -1.29113e+12 -1.30042e+12 -1.31047e+12 -1.32195e+12 -1.33233e+12 -1.34115e+12 -1.34722e+12 -1.35558e+12 -1.35204e+12 -1.33717e+12 -1.29793e+12 -1.33538e+12 -1.27328e+12 -1.18977e+12 -1.47918e+12 -1.3774e+12 -1.31355e+12 -1.25832e+12 -1.25106e+12 -1.25774e+12 -1.27616e+12 -1.29572e+12 -1.30866e+12 -1.31674e+12 -1.32091e+12 -1.43785e+12 -1.43259e+12 -1.46552e+12 -1.53362e+12 -1.0186e+12 -1.18695e+12 -1.29203e+12 -1.16459e+12 -1.21588e+12 -1.00018e+12 -945497000000.0 -871327000000.0 -749665000000.0 -479820000000.0 -354074000000.0 -1.18045e+12 -893938000000.0 -673271000000.0 -361237000000.0 -116300000000.0 -69472700000.0 -319156000000.0 -733915000000.0 -1.81221e+12 -740778000000.0 -761329000000.0 -889850000000.0 -761044000000.0 -1.00121e+12 -1.04214e+12 -990969000000.0 -916229000000.0 -753355000000.0 -1.34473e+12 -1.17652e+12 -962477000000.0 -1.12686e+12 -1.19021e+12 -1.22883e+12 -1.25378e+12 -1.27014e+12 -1.28169e+12 -1.22161e+12 -1.2344e+12 -1.2453e+12 -1.25576e+12 -1.25657e+12 -1.24472e+12 -1.31603e+12 -1.32543e+12 -1.29641e+12 -1.14078e+12 -1.38696e+12 -1.31731e+12 -1.2478e+12 -1.20292e+12 -1.18459e+12 -1.179e+12 -1.32223e+12 -1.32129e+12 -1.31788e+12 -1.31131e+12 -1.30056e+12 -1.28567e+12 -1.26271e+12 -1.30732e+12 -1.40591e+12 -883159000000.0 -1.05281e+12 -1.12881e+12 -1.07312e+12 -1.08371e+12 -1.0738e+12 -1.04348e+12 -779322000000.0 -703073000000.0 -585611000000.0 -1.34519e+12 -706956000000.0 -269397000000.0 -43315900000.0 -1.27617e+12 -1.68767e+12 -755535000000.0 -491198000000.0 -638226000000.0 -963441000000.0 -856242000000.0 -877310000000.0 -891689000000.0 -853242000000.0 -742557000000.0 -1.13456e+12 -1.00761e+12 -716697000000.0 -931966000000.0 -1.02487e+12 -1.07971e+12 -1.11243e+12 -1.13176e+12 -1.14486e+12 -1.15541e+12 -1.16617e+12 -1.17833e+12 -1.19173e+12 -1.20848e+12 -1.18214e+12 -1.37402e+12 -1.4189e+12 -1.29927e+12 -1.13629e+12 -1.18393e+12 -1.19031e+12 -1.19548e+12 -1.19758e+12 -1.1974e+12 -1.19555e+12 -1.1915e+12 -1.18438e+12 -1.1728e+12 -1.1528e+12 -1.11774e+12 -999350000000.0 -1.09685e+12 -1.23405e+12 -805508000000.0 -937916000000.0 -965785000000.0 -981752000000.0 -964909000000.0 -934433000000.0 -891736000000.0 -839911000000.0 -237647000000.0 -1.33204e+12 -1.14703e+12 -794221000000.0 -396249000000.0 -750743000000.0 -1.07367e+12 -1.43345e+12 -853028000000.0 -620082000000.0 -760626000000.0 -835321000000.0 -791947000000.0 -799529000000.0 -790140000000.0 -929559000000.0 -875720000000.0 -943836000000.0 -980155000000.0 -998056000000.0 -1.00992e+12 -1.01991e+12 -1.03022e+12 -1.04344e+12 -1.05961e+12 -1.07642e+12 -1.10292e+12 -1.11633e+12 -1.13653e+12 -1.15024e+12 -1.16684e+12 -1.18533e+12 -1.42639e+12 -1.29432e+12 -1.15954e+12 -1.25468e+12 -1.21988e+12 -1.16346e+12 -1.12062e+12 -1.0933e+12 -1.08596e+12 -1.08216e+12 -1.08337e+12 -1.08139e+12 -1.07841e+12 -1.07522e+12 -1.07061e+12 -1.06379e+12 -1.05389e+12 -1.04026e+12 -1.01707e+12 -987530000000.0 -762286000000.0 -1.0273e+12 -828717000000.0 -808524000000.0 -881490000000.0 -842838000000.0 -796637000000.0 -741593000000.0 -683109000000.0 -621974000000.0 -554787000000.0 -235438000000.0 -1.18165e+12 -780694000000.0 -810809000000.0 -562124000000.0 -539750000000.0 -8941890000.0 -138482000000.0 -469669000000.0 -573538000000.0 -888622000000.0 -398634000000.0 -408991000000.0 -510155000000.0 -669058000000.0 -660214000000.0 -729058000000.0 -878906000000.0 -689805000000.0 -761099000000.0 -885277000000.0 -893903000000.0 -905135000000.0 -923332000000.0 -945233000000.0 -963693000000.0 -1.00941e+12 -1.01163e+12 -1.05897e+12 -1.03649e+12 -1.11569e+12 -1.12142e+12 -1.06305e+12 -1.73437e+12 -1.11153e+12 -1.11687e+12 -1.06872e+12 -1.0053e+12 -993303000000.0 -979601000000.0 -980183000000.0 -973255000000.0 -965254000000.0 -960378000000.0 -896182000000.0 -763606000000.0 -716157000000.0 -654910000000.0 -589288000000.0 -525176000000.0 -454925000000.0 -802720000000.0 -606084000000.0 -549481000000.0 -371996000000.0 -208442000000.0 -33655300000.0 -186354000000.0 -348604000000.0 -1.03542e+12 -962589000000.0 -360418000000.0 -467149000000.0 -708930000000.0 -712601000000.0 -687078000000.0 -736410000000.0 -751468000000.0 -651088000000.0 -706904000000.0 -723100000000.0 -834300000000.0 -866721000000.0 -872998000000.0 -878572000000.0 -933750000000.0 -937813000000.0 -923365000000.0 -969764000000.0 -1.04165e+12 -1.05951e+12 -1.34549e+12 -1.3097e+12 -1.22696e+12 -1.19709e+12 -1.01501e+12 -1.03104e+12 -918847000000.0 -894438000000.0 -866028000000.0 -954797000000.0 -947597000000.0 -937984000000.0 -927023000000.0 -915914000000.0 -889805000000.0 -808607000000.0 -681991000000.0 -759839000000.0 -820375000000.0 -708875000000.0 -715142000000.0 -664968000000.0 -769917000000.0 -432800000000.0 -357654000000.0 -189407000000.0 -948762000000.0 -319694000000.0 -73279300000.0 -531906000000.0 -780700000000.0 -856137000000.0 -959190000000.0 -304635000000.0 -560754000000.0 -569746000000.0 -623082000000.0 -621418000000.0 -566019000000.0 -620736000000.0 -597895000000.0 -636403000000.0 -671936000000.0 -701831000000.0 -790346000000.0 -761104000000.0 -752030000000.0 -752102000000.0 -756526000000.0 -765588000000.0 -778634000000.0 -806405000000.0 -842381000000.0 -839597000000.0 -731952000000.0 -1.37018e+12 -1.17149e+12 -1.1808e+12 -1.26656e+12 -886228000000.0 -872380000000.0 -857062000000.0 -850418000000.0 -844193000000.0 -836491000000.0 -825212000000.0 -813486000000.0 -805349000000.0 -811904000000.0 -748775000000.0 -696839000000.0 -587833000000.0 -651758000000.0 -626221000000.0 -630525000000.0 -602941000000.0 -535089000000.0 -651008000000.0 -583045000000.0 -509171000000.0 -161583000000.0 -759523000000.0 -719951000000.0 -543995000000.0 -423108000000.0 -51535100000.0 -109550000000.0 -327049000000.0 -488735000000.0 -509890000000.0 -740084000000.0 -892531000000.0 -353791000000.0 -350289000000.0 -263097000000.0 -465272000000.0 -493964000000.0 -555214000000.0 -420900000000.0 -463608000000.0 -492677000000.0 -525830000000.0 -570313000000.0 -594866000000.0 -640152000000.0 -609124000000.0 -586501000000.0 -583761000000.0 -586909000000.0 -593774000000.0 -608277000000.0 -617017000000.0 -690383000000.0 -731003000000.0 -567471000000.0 -1.13336e+12 -454308000000.0 -1.02242e+12 -428709000000.0 -1.03248e+12 -626065000000.0 -895930000000.0 -827007000000.0 -971408000000.0 -1.12227e+12 -1.44556e+12 -1.04487e+12 -744336000000.0 -874385000000.0 -661899000000.0 -780752000000.0 -770860000000.0 -720809000000.0 -715413000000.0 -703321000000.0 -695852000000.0 -679335000000.0 -660382000000.0 -644579000000.0 -638956000000.0 -660072000000.0 -603869000000.0 -546828000000.0 -491475000000.0 -501292000000.0 -450436000000.0 -544577000000.0 -490684000000.0 -415693000000.0 -522846000000.0 -445119000000.0 -359339000000.0 -256980000000.0 -138744000000.0 -618384000000.0 -508609000000.0 -475415000000.0 -338091000000.0 -224925000000.0 -41269600000.0 -27334600000.0 -96018800000.0 -289979000000.0 -319455000000.0 -393491000000.0 -283488000000.0 -321435000000.0 -313783000000.0 -490457000000.0 -302986000000.0 -596671000000.0 -602040000000.0 -632018000000.0 -509258000000.0 -870279000000.0 -246606000000.0 -675705000000.0 -225628000000.0 -459921000000.0 -667320000000.0 -199236000000.0 -374978000000.0 -198488000000.0 -326731000000.0 -398125000000.0 -440283000000.0 -503065000000.0 -376994000000.0 -305563000000.0 -383758000000.0 -311052000000.0 -211489000000.0 -307548000000.0 -272667000000.0 -122871000000.0 -42029700000.0 -498139000000.0 -677061000000.0 -901964000000.0 -324013000000.0 -357397000000.0 -555717000000.0 -707185000000.0 -840090000000.0 -904448000000.0 -934433000000.0 -836847000000.0 -741513000000.0 -685027000000.0 -647891000000.0 -624788000000.0 -606625000000.0 -713984000000.0 -1.00348e+12 -820605000000.0 -819256000000.0 -864054000000.0 -558586000000.0 -551394000000.0 -592219000000.0 -627743000000.0 -660965000000.0 -693003000000.0 -733964000000.0 -794057000000.0 -746749000000.0 -666597000000.0 -557648000000.0 -422738000000.0 -378629000000.0 -298351000000.0 -441019000000.0 -159232000000.0 -492115000000.0 -374155000000.0 -25024000000.0 -67310900000.0 -80060600000.0 -187019000000.0 -347834000000.0 -418127000000.0 -473698000000.0 -479739000000.0 -137914000000.0 -241417000000.0 -246971000000.0 -375055000000.0 -53569800000.0 -204177000000.0 -97247000000.0 -272298000000.0 -450259000000.0 -547760000000.0 -604087000000.0 -629188000000.0 -654019000000.0 -627985000000.0 -592548000000.0 -564187000000.0 -535191000000.0 -515294000000.0 -500128000000.0 -412686000000.0 -565704000000.0 -99957700000.0 -635701000000.0 -247716000000.0 -684652000000.0 -503897000000.0 -697315000000.0 -409045000000.0 -432393000000.0 -490118000000.0 -542479000000.0 -615466000000.0 -591637000000.0 -654057000000.0 -325071000000.0 -161528000000.0 -305775000000.0 -430623000000.0 -252283000000.0 -396740000000.0 -439493000000.0 -507404000000.0 -536614000000.0 -559905000000.0 -574925000000.0 -587922000000.0 -586247000000.0 -512369000000.0 -452887000000.0 -385299000000.0 -330265000000.0 -280175000000.0 -249914000000.0 -161907000000.0 -325868000000.0 -266496000000.0 -207858000000.0 -247259000000.0 -201563000000.0 -204526000000.0 -370779000000.0 -388348000000.0 -215084000000.0 -121276000000.0 -78121400000.0 -67883600000.0 -24540300000.0 -9035750000.0 -9035750000.0 -51514000000.0 -196421000000.0 -300617000000.0 -269588000000.0 -197747000000.0 -530513000000.0 -207684000000.0 -131547000000.0 -212016000000.0 -159809000000.0 -69097100000.0 -41700400000.0 -106007000000.0 -273079000000.0 -430826000000.0 -420376000000.0 -396523000000.0 -394722000000.0 -469080000000.0 -435472000000.0 -807426000000.0 -804752000000.0 -920797000000.0 -531513000000.0 -636737000000.0 -500133000000.0 -476678000000.0 -412170000000.0 -294411000000.0 -379195000000.0 -406017000000.0 -495357000000.0 -629982000000.0 -325103000000.0 -354272000000.0 -488858000000.0 -306267000000.0 -433692000000.0 -358442000000.0 -418383000000.0 -432911000000.0 -442058000000.0 -442578000000.0 -442100000000.0 -273725000000.0 -260668000000.0 -152878000000.0 -52665500000.0 -46042300000.0 -226093000000.0 -160203000000.0 -133950000000.0 -204018000000.0 -266458000000.0 -265130000000.0 -232234000000.0 -208469000000.0 -84040300000.0 -23316800000.0 -9035750000.0 -9035750000.0 -314417000000.0 -307328000000.0 -335617000000.0 -381301000000.0 -423740000000.0 -441767000000.0 -690533000000.0 -583125000000.0 -432578000000.0 -392841000000.0 -343263000000.0 -298385000000.0 -36021200000.0 -89486600000.0 -146650000000.0 -281116000000.0 -324711000000.0 -231858000000.0 -53791200000.0 -83965000000.0 -300621000000.0 -166382000000.0 -236779000000.0 -114164000000.0 -141837000000.0 -146007000000.0 -176470000000.0 -198326000000.0 -186418000000.0 -146256000000.0 -200046000000.0 -242131000000.0 -275636000000.0 -266692000000.0 -288948000000.0 -263440000000.0 -288838000000.0 -183970000000.0 -214298000000.0 -58342100000.0 -144311000000.0 -267892000000.0 -311971000000.0 -207249000000.0 -201438000000.0 -327306000000.0 -283899000000.0 -238297000000.0 -223751000000.0 -38140900000.0 -167970000000.0 -126106000000.0 -272748000000.0 -334474000000.0 -551327000000.0 -436764000000.0 -472977000000.0 -347730000000.0 -456384000000.0 -346206000000.0 -411847000000.0 -335651000000.0 -349235000000.0 -306305000000.0 -309754000000.0 -280379000000.0 -292344000000.0 -257426000000.0 -210725000000.0 -192517000000.0 -202051000000.0 -136291000000.0 -20817800000.0 -24934300000.0 -12164100000.0 -173514000000.0 -117813000000.0 -79176700000.0 -96452400000.0 -25611400000.0 -82488700000.0 -164194000000.0 -215319000000.0 -127857000000.0 -81472300000.0 -51157100000.0 -23059800000.0 -9035750000.0 -9035750000.0 -9044920000.0 -83068300000.0 -179290000000.0 -216387000000.0 -88531100000.0 -121435000000.0 -207904000000.0 -68441000000.0 -135274000000.0 -89130200000.0 -38542600000.0 -18459500000.0 -27332300000.0 -73542600000.0 -106664000000.0 -82512800000.0 -141541000000.0 -225164000000.0 -321663000000.0 -374312000000.0 -443315000000.0 -458630000000.0 -519528000000.0 -464130000000.0 -500435000000.0 -432967000000.0 -447052000000.0 -563260000000.0 -366676000000.0 -257978000000.0 -174309000000.0 -277938000000.0 -151583000000.0 -146762000000.0 -185714000000.0 -36112800000.0 -112983000000.0 -46421400000.0 -123134000000.0 -83239400000.0 -139398000000.0 -34227500000.0 -75318200000.0 -129557000000.0 -220420000000.0 -219147000000.0 -327495000000.0 -307688000000.0 -349479000000.0 -328553000000.0 -335257000000.0 -295448000000.0 -275143000000.0 -205667000000.0 -144830000000.0 -127380000000.0 -140318000000.0 -86612900000.0 -17857200000.0 -22895400000.0 -15731500000.0 -103816000000.0 -19295400000.0 -24161800000.0 -44475500000.0 -63278600000.0 -111343000000.0 -102165000000.0 -19597600000.0 -9260900000.0 -9035750000.0 -9035750000.0 -80846700000.0 -12082500000.0 -18178700000.0 -24381600000.0 -85340300000.0 -159113000000.0 -163099000000.0 -35659200000.0 -90950600000.0 -118185000000.0 -32503600000.0 -94798600000.0 -88943800000.0 -62747800000.0 -78962500000.0 -108846000000.0 -159764000000.0 -197303000000.0 -178245000000.0 -211338000000.0 -229544000000.0 -229822000000.0 -186503000000.0 -168582000000.0 -125232000000.0 -142180000000.0 -77882500000.0 -88479900000.0 -76502100000.0 -36420600000.0 -292455000000.0 -130008000000.0 -140936000000.0 -26584200000.0 -165245000000.0 -52231600000.0 -110082000000.0 -147923000000.0 -55187100000.0 -98155000000.0 -50335300000.0 -106266000000.0 -96094000000.0 -141106000000.0 -53482400000.0 -37405500000.0 -35279300000.0 -55687800000.0 -36197200000.0 -113868000000.0 -90406500000.0 -134600000000.0 -134672000000.0 -176751000000.0 -190977000000.0 -234372000000.0 -233701000000.0 -216272000000.0 -212271000000.0 -218126000000.0 -160030000000.0 -101935000000.0 -88021000000.0 -60153200000.0 -110406000000.0 -37524000000.0 -25678100000.0 -14504600000.0 -55247300000.0 -60835600000.0 -92890800000.0 -93663000000.0 -27976400000.0 -16554300000.0 -13143000000.0 -10402500000.0 -9052580000.0 -9043600000.0 -9109160000.0 -50934800000.0 -125629000000.0 -145230000000.0 -86612200000.0 -75635400000.0 -14439100000.0 -49747700000.0 -54628100000.0 -11764500000.0 -10078500000.0 -20585300000.0 -50437100000.0 -169870000000.0 -165434000000.0 -180840000000.0 -159328000000.0 -179227000000.0 -118934000000.0 -125874000000.0 -122810000000.0 -91302400000.0 -89105500000.0 -113141000000.0 -14373900000.0 -147109000000.0 -33942900000.0 -77783400000.0 -50710100000.0 -21001900000.0 -68476500000.0 -56403300000.0 -82581400000.0 -16105700000.0 -12383300000.0 -29228300000.0 -46404100000.0 -44621700000.0 -121652000000.0 -101916000000.0 -146771000000.0 -138305000000.0 -162463000000.0 -152207000000.0 -164112000000.0 -138295000000.0 -109553000000.0 -94015800000.0 -46662400000.0 -24509300000.0 -24676300000.0 -15553500000.0 -55386800000.0 -10767200000.0 -11689700000.0 -12774500000.0 -68941300000.0 -79240000000.0 -73522100000.0 -17601200000.0 -10148600000.0 -9043300000.0 -9053380000.0 -35195000000.0 -80876200000.0 -68399300000.0 -101644000000.0 -136634000000.0 -279648000000.0 -98020400000.0 -15071500000.0 -97890900000.0 -61386100000.0 -9406960000.0 -10015500000.0 -10829700000.0 -41937400000.0 -112069000000.0 -131939000000.0 -35560000000.0 -83511500000.0 -46825600000.0 -10330000000.0 -36254500000.0 -54101300000.0 -12650900000.0 -14248000000.0 -27313800000.0 -51856800000.0 -80591200000.0 -77706300000.0 -106677000000.0 -132115000000.0 -151518000000.0 -134955000000.0 -137664000000.0 -107665000000.0 -117686000000.0 -59778600000.0 -67227000000.0 -71075000000.0 -38598800000.0 -228328000000.0 -77943200000.0 -114759000000.0 -12927700000.0 -130540000000.0 -21025100000.0 -92005700000.0 -58839800000.0 -13141000000.0 -48897400000.0 -25416800000.0 -69397400000.0 -58252500000.0 -75772800000.0 -23798000000.0 -14835100000.0 -24243600000.0 -24216700000.0 -19544900000.0 -85331000000.0 -64961600000.0 -110396000000.0 -105766000000.0 -134094000000.0 -130838000000.0 -149335000000.0 -133343000000.0 -111133000000.0 -96764000000.0 -85052600000.0 -41624400000.0 -32880800000.0 -28102200000.0 -19843700000.0 -42136800000.0 -11292200000.0 -9982730000.0 -9324140000.0 -72355800000.0 -60335800000.0 -70429600000.0 -66313400000.0 -18419500000.0 -11782600000.0 -9765200000.0 -9321110000.0 -9118360000.0 -9075530000.0 -9343030000.0 -30943100000.0 -94477700000.0 -31677700000.0 -9918560000.0 -26631900000.0 -131622000000.0 -112932000000.0 -61743800000.0 -70303700000.0 -50609100000.0 -61024400000.0 -9179470000.0 -116297000000.0 -12894900000.0 -42628600000.0 -49565200000.0 -64012700000.0 -48116700000.0 -56982800000.0 -17390400000.0 -9035750000.0 -18704800000.0 -13577800000.0 -12884200000.0 -72877000000.0 -55561800000.0 -100858000000.0 -96472400000.0 -123052000000.0 -11229300000.0 -10166800000.0 -10116900000.0 -57005200000.0 -15973800000.0 -11000800000.0 -9072230000.0 -9118890000.0 -117541000000.0 -38943800000.0 -83342900000.0 -50576700000.0 -9101040000.0 -9764170000.0 -23242700000.0 -40033900000.0 -64383700000.0 -67956500000.0 -94742900000.0 -118875000000.0 -139242000000.0 -126650000000.0 -104044000000.0 -75415900000.0 -204722000000.0 -104441000000.0 -88327600000.0 -14896300000.0 -24812300000.0 -118531000000.0 -134129000000.0 -118748000000.0 -98560200000.0 -82101800000.0 -66499000000.0 -31180700000.0 -31948200000.0 -24932700000.0 -19591600000.0 -31556500000.0 -76285800000.0 -59915700000.0 -60412700000.0 -9145690000.0 -9090280000.0 -9451850000.0 -24479500000.0 -80423900000.0 -104482000000.0 -41976000000.0 -80411500000.0 -20427100000.0 -9542900000.0 -21347700000.0 -48882100000.0 -9237440000.0 -10170500000.0 -25477300000.0 -36705800000.0 -57173600000.0 -65359700000.0 -89777300000.0 -110595000000.0 -127776000000.0 -114637000000.0 -118020000000.0 -90369200000.0 -95864000000.0 -50769900000.0 -58199400000.0 -61727800000.0 -39493700000.0 -180725000000.0 -57747200000.0 -99677900000.0 -9433320000.0 -103380000000.0 -9043770000.0 -83177200000.0 -30033800000.0 -12911900000.0 -49771400000.0 -26031500000.0 -62061300000.0 -43867900000.0 -47174400000.0 -17358600000.0 -9035750000.0 -17445100000.0 -9623900000.0 -10965600000.0 -62223800000.0 -47230500000.0 -90189000000.0 -85781100000.0 -110831000000.0 -106555000000.0 -121077000000.0 -108060000000.0 -90907100000.0 -73634900000.0 -56230800000.0 -29054700000.0 -33344400000.0 -23872800000.0 -20142100000.0 -25360300000.0 -11140000000.0 -9510970000.0 -9189230000.0 -76586900000.0 -59899400000.0 -53979500000.0 -50753500000.0 -15319400000.0 -11313600000.0 -9086360000.0 -9145340000.0 -54838200000.0 -38386400000.0 -48567300000.0 -9665320000.0 -9057900000.0 -21637700000.0 -59131800000.0 -38935200000.0 -9035750000.0 -9065850000.0 -52802700000.0 -80302000000.0 -9167900000.0 -9102530000.0 -9540900000.0 -19954600000.0 -67989300000.0 -91986300000.0 -44239200000.0 -76890300000.0 -14009900000.0 -9660380000.0 -17996200000.0 -46623000000.0 -9269200000.0 -10260200000.0 -26643800000.0 -33591100000.0 -50052400000.0 -60747900000.0 -82894200000.0 -101185000000.0 -116637000000.0 -104672000000.0 -107858000000.0 -81809200000.0 -85764000000.0 -47590500000.0 -56870400000.0 -158197000000.0 -93400300000.0 -90956100000.0 -78320700000.0 -12717400000.0 -49535300000.0 -26056300000.0 -39581500000.0 -17267100000.0 -16409400000.0 -10589800000.0 -40336800000.0 -75995800000.0 -99300800000.0 -95125900000.0 -108379000000.0 -97155100000.0 -82584100000.0 -65285800000.0 -47869600000.0 -28266400000.0 -33795800000.0 -22583200000.0 -20196000000.0 -21954400000.0 -11524400000.0 -9611220000.0 -9264490000.0 -75505200000.0 -59045700000.0 -48316300000.0 -44883000000.0 -14895300000.0 -11536400000.0 -9098280000.0 -9166580000.0 -9184130000.0 -9111920000.0 -9606670000.0 -16952100000.0 -57315000000.0 -80333900000.0 -45396200000.0 -72487300000.0 -10845300000.0 -9748700000.0 -16081700000.0 -43910100000.0 -9327240000.0 -10435400000.0 -27268100000.0 -31396000000.0 -44335700000.0 -56109800000.0 -76049800000.0 -91941500000.0 -105601000000.0 -94703500000.0 -97669100000.0 -73648200000.0 -76496600000.0 -44876500000.0 -51645400000.0 -52155700000.0 -36218400000.0 -140093000000.0 -42360700000.0 -86135700000.0 -9862660000.0 -79371700000.0 -9070740000.0 -72963500000.0 -15936500000.0 -12614300000.0 -48307300000.0 -25760200000.0 -55797300000.0 -35680600000.0 -32117100000.0 -17084100000.0 -9035750000.0 -15611900000.0 -9036540000.0 -10579900000.0 -44741600000.0 -34568900000.0 -70967000000.0 -66853300000.0 -88229100000.0 -84195700000.0 -96184600000.0 -86545100000.0 -74368300000.0 -57679700000.0 -41331000000.0 -27811400000.0 -33396400000.0 -21076200000.0 -19688000000.0 -20200200000.0 -11785000000.0 -9687060000.0 -9326660000.0 -72685600000.0 -57645700000.0 -44175600000.0 -39836600000.0 -14585800000.0 -11666600000.0 -9107560000.0 -9182220000.0 -9194050000.0 -9118200000.0 -9646890000.0 -15053200000.0 -48312400000.0 -69725500000.0 -45463300000.0 -67401300000.0 -9744740000.0 -9806590000.0 -15200700000.0 -40796800000.0 -9367820000.0 -10553200000.0 -27168000000.0 -29543500000.0 -39566900000.0 -51287100000.0 -69076400000.0 -82778300000.0 -94755300000.0 -84921100000.0 -87661900000.0 -65975800000.0 -68046100000.0 -42292700000.0 -48436200000.0 -47571700000.0 -33428400000.0 -123504000000.0 -36570200000.0 -78336600000.0 -10015700000.0 -68809700000.0 -9081540000.0 -67244200000.0 -12255500000.0 -12518800000.0 -46081500000.0 -24934000000.0 -51951400000.0 -32071200000.0 -26572500000.0 -16774000000.0 -9035750000.0 -14990600000.0 -9035770000.0 -10585800000.0 -37992300000.0 -29799100000.0 -62285900000.0 -58514900000.0 -77813400000.0 -73987500000.0 -84747300000.0 -76483600000.0 -66471600000.0 -50861400000.0 -36208000000.0 -27299500000.0 -32319500000.0 -19496600000.0 -18851600000.0 -19393700000.0 -11925000000.0 -9735770000.0 -9373330000.0 -68578600000.0 -55482300000.0 -40752800000.0 -35367000000.0 -14262500000.0 -11705300000.0 -9113910000.0 -9191970000.0 -9197690000.0 -9121190000.0 -9661480000.0 -13886100000.0 -40794100000.0 -60240600000.0 -44482800000.0 -61747800000.0 -9483420000.0 -9833140000.0 -14796100000.0 -37373700000.0 -9391100000.0 -10610000000.0 -26437900000.0 -27833800000.0 -35571400000.0 -46471800000.0 -62183300000.0 -73869100000.0 -84281700000.0 -75475900000.0 -77954600000.0 -58785900000.0 -60301300000.0 -39597900000.0 -45043800000.0 -43124100000.0 -30357200000.0 -108241000000.0 -31365200000.0 -70342600000.0 -10117500000.0 -59321800000.0 -9089670000.0 -61284900000.0 -10209600000.0 -12385000000.0 -43121700000.0 -23710900000.0 -47725500000.0 -28765300000.0 -22126100000.0 -16336200000.0 -9035750000.0 -14474800000.0 -9035750000.0 -10549400000.0 -32418100000.0 -25902500000.0 -54296200000.0 -50994100000.0 -68161300000.0 -64591800000.0 -74173600000.0 -67111200000.0 -59027200000.0 -44834100000.0 -32166600000.0 -26573700000.0 -30724800000.0 -17944100000.0 -17856900000.0 -18884700000.0 -11949500000.0 -9756170000.0 -9402880000.0 -63570900000.0 -52574500000.0 -37723200000.0 -31422500000.0 -13873700000.0 -11657000000.0 -9117110000.0 -9195740000.0 -9195260000.0 -9120800000.0 -9651660000.0 -13143800000.0 -34546300000.0 -51833300000.0 -42523900000.0 -55688400000.0 -9439630000.0 -9828230000.0 -14464300000.0 -33775600000.0 -9397360000.0 -10604600000.0 -25194300000.0 -26130200000.0 -32088800000.0 -41748500000.0 -55453500000.0 -65284400000.0 -74250900000.0 -66438200000.0 -68620300000.0 -52012400000.0 -53138000000.0 -36681100000.0 -41396700000.0 -38807800000.0 -27232900000.0 -94137900000.0 -26806600000.0 -62382300000.0 -10162500000.0 -50872200000.0 -9094660000.0 -55192400000.0 -9357880000.0 -12197300000.0 -39649100000.0 -22213100000.0 -43237200000.0 -25758700000.0 -18608500000.0 -15780300000.0 -9035750000.0 -13993700000.0 -9035750000.0 -10467100000.0 -27856100000.0 -22731900000.0 -47007900000.0 -44225000000.0 -59280000000.0 -56017700000.0 -64454900000.0 -58461000000.0 -52059900000.0 -39511000000.0 -28878500000.0 -25532500000.0 -28744900000.0 -16478900000.0 -16800400000.0 -18301400000.0 -11865900000.0 -9748560000.0 -9414450000.0 -57949200000.0 -48986300000.0 -34832300000.0 -27933800000.0 -13421300000.0 -11528700000.0 -9117070000.0 -9193570000.0 -9187060000.0 -9117120000.0 -9619160000.0 -12597900000.0 -29354100000.0 -44378600000.0 -39690200000.0 -49403700000.0 -9423510000.0 -9792730000.0 -14036200000.0 -30137200000.0 -9387210000.0 -10538300000.0 -23557200000.0 -24338500000.0 -28889300000.0 -37147300000.0 -48905300000.0 -57039600000.0 -64655200000.0 -57820300000.0 -59679800000.0 -45575500000.0 -46444300000.0 -33514600000.0 -37497600000.0 -34611200000.0 -24203100000.0 -81008900000.0 -22904800000.0 -54584400000.0 -10149500000.0 -43370600000.0 -9096230000.0 -49039600000.0 -9102560000.0 -11949100000.0 -35839900000.0 -20538900000.0 -38593800000.0 -23024700000.0 -15874400000.0 -15112400000.0 -9035750000.0 -13490900000.0 -9035750000.0 -10344400000.0 -24122700000.0 -20124900000.0 -40402000000.0 -38125200000.0 -51102000000.0 -48207100000.0 -55516600000.0 -50492900000.0 -45531600000.0 -34753700000.0 -26057500000.0 -24131700000.0 -26481200000.0 -15131100000.0 -15729200000.0 -17519400000.0 -11684400000.0 -9714160000.0 -9407940000.0 -51905300000.0 -44803000000.0 -31892300000.0 -24816800000.0 -12920800000.0 -11329700000.0 -9113830000.0 -9185670000.0 -9173510000.0 -9110340000.0 -9566070000.0 -12107800000.0 -25010500000.0 -37719600000.0 -36111100000.0 -43038800000.0 -9396540000.0 -9728560000.0 -13478700000.0 -26557600000.0 -9361700000.0 -10414300000.0 -21634100000.0 -22397400000.0 -25821500000.0 -32661700000.0 -42518600000.0 -49110400000.0 -55443800000.0 -49593300000.0 -51116500000.0 -39419500000.0 -40121700000.0 -30111900000.0 -33380500000.0 -30515900000.0 -21355000000.0 -68670100000.0 -19628700000.0 -47006900000.0 -10081300000.0 -36697100000.0 -9094270000.0 -42862800000.0 -9046440000.0 -11635800000.0 -31827800000.0 -18764700000.0 -33888600000.0 -20520800000.0 -13795200000.0 -14342100000.0 -9035750000.0 -12935600000.0 -9035750000.0 -10189300000.0 -21022900000.0 -17928900000.0 -34427400000.0 -32614100000.0 -43536900000.0 -41058800000.0 -47251400000.0 -43124700000.0 -39371600000.0 -30405800000.0 -23478300000.0 -22381800000.0 -24011400000.0 -13911900000.0 -14663700000.0 -16532900000.0 -11417100000.0 -9654940000.0 -9384010000.0 -45569400000.0 -40111000000.0 -28794400000.0 -21987100000.0 -12383100000.0 -11070000000.0 -9107550000.0 -9172410000.0 -9155180000.0 -9100750000.0 -9494790000.0 -11606700000.0 -21324800000.0 -31695800000.0 -31922300000.0 -36683600000.0 -9354250000.0 -9638650000.0 -12806200000.0 -23092600000.0 -9322310000.0 -10238100000.0 -19512400000.0 -20277400000.0 -22796500000.0 -28264300000.0 -36257500000.0 -41446600000.0 -46549000000.0 -41704100000.0 -42895000000.0 -33507000000.0 -34086400000.0 -26505400000.0 -29091700000.0 -26498200000.0 -18722800000.0 -56960700000.0 -16911000000.0 -39663700000.0 -9963080000.0 -30718800000.0 -9088930000.0 -36675000000.0 -9037100000.0 -11258600000.0 -27704700000.0 -16948900000.0 -29193700000.0 -18199400000.0 -12249600000.0 -13484600000.0 -9035750000.0 -12319200000.0 -9035750000.0 -10009000000.0 -18375900000.0 -16019400000.0 -29007700000.0 -27608800000.0 -36494900000.0 -34460500000.0 -39539800000.0 -36254900000.0 -33498100000.0 -26320800000.0 -20973200000.0 -20328200000.0 -21397300000.0 -12819700000.0 -13610600000.0 -15373000000.0 -11077200000.0 -9573530000.0 -9344070000.0 -39037500000.0 -34991700000.0 -25500100000.0 -19371500000.0 -11814700000.0 -10760300000.0 -9098490000.0 -9154340000.0 -9132760000.0 -9088750000.0 -9408110000.0 -11073700000.0 -18128400000.0 -26157600000.0 -27253300000.0 -30381600000.0 -9298030000.0 -9526750000.0 -12043700000.0 -19761400000.0 -9270930000.0 -10016900000.0 -17259200000.0 -17976400000.0 -19764000000.0 -23921900000.0 -30083700000.0 -33987800000.0 -37899600000.0 -34090800000.0 -34970500000.0 -27800800000.0 -28267200000.0 -22735800000.0 -24680900000.0 -22535200000.0 -16301300000.0 -45739900000.0 -14661200000.0 -32539500000.0 -9801720000.0 -25299100000.0 -9080490000.0 -30479600000.0 -9035890000.0 -10823900000.0 -23528400000.0 -15132600000.0 -24554800000.0 -16015700000.0 -11123200000.0 -12556900000.0 -9035750000.0 -11645600000.0 -9035750000.0 -9809490000.0 -16035300000.0 -14302500000.0 -24050500000.0 -23019600000.0 -29885700000.0 -28305100000.0 -32264800000.0 -29775800000.0 -27832600000.0 -22381400000.0 -18433100000.0 -18030100000.0 -18688900000.0 -11842700000.0 -12570400000.0 -14077800000.0 -10678300000.0 -9473140000.0 -9290130000.0 -32382400000.0 -29523200000.0 -22016300000.0 -16911500000.0 -11220100000.0 -10411300000.0 -9087020000.0 -9132150000.0 -9107030000.0 -9074810000.0 -9309100000.0 -10508300000.0 -15277700000.0 -20971900000.0 -22223600000.0 -24144700000.0 -9230390000.0 -9397210000.0 -11215600000.0 -16556200000.0 -9209850000.0 -9759100000.0 -14923600000.0 -15513500000.0 -16698600000.0 -19606300000.0 -23964000000.0 -26674600000.0 -29429100000.0 -26690200000.0 -27287800000.0 -22256800000.0 -22602400000.0 -18846200000.0 -20192500000.0 -18607700000.0 -14061400000.0 -34879500000.0 -12777500000.0 -25600000000.0 -9605310000.0 -20303400000.0 -9069470000.0 -24277600000.0 -9035760000.0 -19332900000.0 -13338100000.0 -19990700000.0 -13931100000.0 -10309500000.0 -11575300000.0 -9035750000.0 -10924600000.0 -9035750000.0 -9595440000.0 -13892900000.0 -12708700000.0 -19454300000.0 -18751500000.0 -23614600000.0 -22490600000.0 -25318000000.0 -23584100000.0 -22307800000.0 -18506100000.0 -15806400000.0 -15548500000.0 -15923500000.0 -10961000000.0 -11540300000.0 -12683200000.0 -10234000000.0 -9357470000.0 -9224770000.0 -25656900000.0 -23782800000.0 -18373800000.0 -14561100000.0 -10603900000.0 -10032700000.0 -9073590000.0 -9106630000.0 -10341500000.0 -9078910000.0 -9059440000.0 -9201140000.0 -9917980000.0 -12653300000.0 -16022400000.0 -16943400000.0 -17964500000.0 -9154330000.0 -9254830000.0 -10343300000.0 -13451300000.0 -9141650000.0 -9474610000.0 -12539900000.0 -12924300000.0 -13594500000.0 -15298800000.0 -17872900000.0 -19455000000.0 -21077300000.0 -19439900000.0 -19782600000.0 -16827000000.0 -17038500000.0 -14876900000.0 -15660000000.0 -14700700000.0 -11959300000.0 -24262000000.0 -11154200000.0 -18797600000.0 -9383140000.0 -15602400000.0 -9056490000.0 -18069600000.0 -9035750000.0 -9823370000.0 -15135100000.0 -11571400000.0 -15496300000.0 -11912300000.0 -9710770000.0 -10555100000.0 -9035750000.0 -10168500000.0 -9035750000.0 -9371180000.0 -11871900000.0 -11187800000.0 -15113100000.0 -14708400000.0 -17583700000.0 -16917200000.0 -18598700000.0 -17585800000.0 -16870100000.0 -14647800000.0 -13088600000.0 -12940900000.0 -13126500000.0 -10149500000.0 -10517100000.0 -11221300000.0 -9757730000.0 -9230640000.0 -9150990000.0 -18894900000.0 -17847800000.0 -14613900000.0 -12283300000.0 -9971260000.0 -9633890000.0 -9058730000.0 -9078680000.0 -9049330000.0 -9043210000.0 -9087790000.0 -9312270000.0 -10154900000.0 -11206200000.0 -11820500000.0 -9073160000.0 -9104730000.0 -9445900000.0 -10409300000.0 -9069140000.0 -9173980000.0 -10131600000.0 -10255800000.0 -10460700000.0 -10990600000.0 -11793400000.0 -12284500000.0 -12790100000.0 -12277100000.0 -12382600000.0 -11462700000.0 -11529500000.0 -10862800000.0 -11105500000.0 -10803200000.0 -9941790000.0 -13779100000.0 -9684990000.0 -12076900000.0 -9145380000.0 -11072400000.0 -9042320000.0 -11856400000.0 -9035750000.0 -10939600000.0 -9825710000.0 -11049100000.0 -9930700000.0 -9236640000.0 -9511790000.0 -9035750000.0 -9390950000.0 -9035750000.0 -9140910000.0 -9915660000.0 -9704340000.0 -10921100000.0 -10796300000.0 -11693300000.0 -11485100000.0 -12010900000.0 -11696400000.0 -11477700000.0 -10787500000.0 -10305800000.0 -10260400000.0 -10313900000.0 -9380080000.0 -9497800000.0 -9721040000.0 -9262580000.0 -9097100000.0 -9072110000.0 -12115200000.0 -10782500000.0 -10046300000.0 -9328500000.0 -9223380000.0 -9042990000.0 -9049260000.0 -11515700000.0 -9283270000.0 -11795700000.0 
SCALARS Shear_Stress float 1
LOOKUP_TABLE default
16920700000.0 32943800000.0 57961200000.0 99071700000.0 19733300000.0 56979200000.0 54428100000.0 46444900000.0 15751400000.0 48518200000.0 9689710000.0 13243400000.0 27840900000.0 30361200000.0 115111000000.0 17980800000.0 91500100000.0 20487100000.0 29430600000.0 46576600000.0 49149700000.0 46036200000.0 106833000000.0 80476100000.0 64706200000.0 1992330000.0 51716200000.0 36493400000.0 27586100000.0 113267000000.0 48153900000.0 74132100000.0 104201000000.0 108929000000.0 53105900000.0 99799100000.0 60461700000.0 13303900000.0 93998000000.0 33986900.0 9024570000.0 62584000000.0 125560000000.0 75385200000.0 85297100000.0 50472900000.0 257759000000.0 241409000000.0 63291500000.0 54529400000.0 93867500000.0 67709200000.0 47765300000.0 178894000000.0 117728000000.0 104191000000.0 27700300000.0 18898000000.0 11003000000.0 53726200000.0 43073300000.0 83296000000.0 113332000000.0 123619000000.0 58382000000.0 63834800000.0 78836600000.0 127793000000.0 148018000000.0 19014600000.0 294807000000.0 91982200000.0 57122700000.0 211332000000.0 192630000000.0 263160000000.0 143651000000.0 2279940000.0 64614200000.0 63308100000.0 8354960000.0 166721000000.0 7768660000.0 53191700000.0 195849000000.0 46853600000.0 332765000000.0 338577000000.0 19309600000.0 12910600000.0 328024000000.0 374404000000.0 466519000.0 114357000000.0 120343000000.0 106559000000.0 11032000000.0 91148100000.0 225184000000.0 106057000000.0 89973800000.0 29473100000.0 67952600000.0 417589000000.0 56109600000.0 33536100000.0 69142500000.0 93213600000.0 326711000000.0 1711810000.0 179647000000.0 256871000000.0 186000000000.0 221588000000.0 158390000000.0 176335000000.0 101272000000.0 94096100000.0 69009600000.0 140767000000.0 100853000000.0 242532000000.0 84168600000.0 67962700000.0 68548400000.0 367145000000.0 15386300000.0 122831000000.0 162764000000.0 116070000000.0 151430000000.0 54444700000.0 278051000000.0 236143000000.0 328450000000.0 291786000000.0 234217000000.0 170472000000.0 120123000000.0 234794000000.0 25377100000.0 56527400000.0 48404700000.0 394688000000.0 479789000000.0 233271000000.0 77234200000.0 356205000000.0 348598000000.0 378003000000.0 361299000000.0 297881000000.0 228286000000.0 171170000000.0 209821000000.0 411162000000.0 6676120000.0 81976900000.0 5852740000.0 531500000000.0 12704800000.0 248792000000.0 553439000000.0 311262000000.0 399934000000.0 415748000000.0 364109000000.0 343588000000.0 283228000000.0 254378000000.0 212620000000.0 199636000000.0 182936000000.0 212494000000.0 286447000000.0 77137300000.0 123154000000.0 19626300000.0 62706200000.0 128700000000.0 110165000000.0 115579000000.0 410912000000.0 65881100000.0 363237000000.0 604268000000.0 608101000000.0 246320000000.0 251464000000.0 230613000000.0 353306000000.0 394231000000.0 435601000000.0 454478000000.0 422007000000.0 404132000000.0 303927000000.0 221658000000.0 191285000000.0 122041000000.0 30013500000.0 124550000000.0 176687000000.0 420614000000.0 589548000000.0 567546000000.0 306201000000.0 128810000000.0 286507000000.0 436554000000.0 452947000000.0 362605000000.0 251640000000.0 195263000000.0 147253000000.0 9446450000.0 128880000000.0 202226000000.0 223139000000.0 629442000000.0 51409600000.0 318214000000.0 110855000000.0 152446000000.0 355395000000.0 469559000000.0 423847000000.0 299676000000.0 223040000000.0 203285000000.0 169955000000.0 164994000000.0 118250000000.0 57998400000.0 57947500000.0 113781000000.0 217342000000.0 220917000000.0 296618000000.0 260163000000.0 344412000000.0 405573000000.0 664481000000.0 174731000000.0 310034000000.0 111094000000.0 126931000000.0 21360400000.0 59973200000.0 100621000000.0 228915000000.0 325149000000.0 428660000000.0 493703000000.0 475827000000.0 441055000000.0 365287000000.0 279928000000.0 164027000000.0 149773000000.0 29442200000.0 177433000000.0 309244000000.0 376211000000.0 454688000000.0 17703200000.0 11667700000.0 6814280000.0 184648000000.0 436623000000.0 517250000000.0 368912000000.0 172860000000.0 143366000000.0 115981000000.0 101032000000.0 239504000000.0 286087000000.0 390504000000.0 486483000000.0 469381000000.0 747810000000.0 417546000000.0 118285000000.0 63331100000.0 51816300000.0 300306000000.0 551123000000.0 479997000000.0 261683000000.0 110693000000.0 115279000000.0 150762000000.0 127778000000.0 6744450000.0 169297000000.0 327684000000.0 358643000000.0 407875000000.0 634168000000.0 578509000000.0 904430000000.0 278829000000.0 397877000000.0 173821000000.0 162808000000.0 48759600000.0 7014660000.0 132149000000.0 237238000000.0 449656000000.0 645166000000.0 605314000000.0 581049000000.0 405830000000.0 281502000000.0 102037000000.0 44096600000.0 150365000000.0 56994600000.0 312529000000.0 328714000000.0 293229000000.0 489205000000.0 873545000000.0 598242000000.0 595152000000.0 369166000000.0 92252600000.0 83647300000.0 350841000000.0 797373000000.0 533885000000.0 11081900000.0 78330000000.0 101531000000.0 285395000000.0 317621000000.0 387502000000.0 307978000000.0 150321000000.0 362181000000.0 679279000000.0 1.05014e+12 1.19931e+12 645283000000.0 678248000000.0 770199000000.0 488647000000.0 221382000000.0 135678000000.0 19594000000.0 63297100000.0 170674000000.0 258500000000.0 461986000000.0 811187000000.0 395905000000.0 16931400000.0 115452000000.0 79617000000.0 250956000000.0 603508000000.0 151779000000.0 104957000000.0 142229000000.0 66265900000.0 639581000000.0 1.32575e+12 970284000000.0 277233000000.0 1.39957e+12 354745000000.0 1.06044e+12 969635000000.0 357399000000.0 4922830000.0 139045000000.0 375407000000.0 465140000000.0 344923000000.0 777758000000.0 750617000000.0 98905000000.0 170827000000.0 10159900000.0 898111000000.0 243992000000.0 217474000000.0 145209000000.0 254044000000.0 1.41518e+12 172775000000.0 150229000000.0 181914000000.0 367527000000.0 130389000000.0 954037000000.0 135068000000.0 99101700000.0 225325000000.0 370450000000.0 10817700000.0 212504000000.0 238111000000.0 186897000000.0 698786000000.0 221880000000.0 140871000000.0 273391000000.0 403227000000.0 564679000000.0 1.0396e+12 69492300000.0 358587000000.0 1.1182e+12 424038000000.0 110892000000.0 120607000000.0 317316000000.0 838111000000.0 822045000000.0 133656000000.0 331068000000.0 838030000000.0 252426000000.0 138937000000.0 275246000000.0 142405000000.0 132478000000.0 399500000000.0 279473000000.0 150186000000.0 170849000000.0 225125000000.0 105294000000.0 674935000000.0 333801000000.0 418736000000.0 583646000000.0 504864000000.0 451370000000.0 29558400000.0 491079000000.0 899188000000.0 611662000000.0 409152000000.0 39839000000.0 19667400000.0 77310800000.0 298495000000.0 275579000000.0 210319000000.0 114594000000.0 538164000000.0 776675000000.0 732347000000.0 561790000000.0 844611000000.0 335876000000.0 326011000000.0 154380000000.0 725852000000.0 918371000000.0 18627700000.0 129235000000.0 700037000000.0 834454000000.0 211742000000.0 509459000000.0 720932000000.0 1.12157e+12 858177000000.0 957977000000.0 883930000000.0 237393000000.0 311923000000.0 432639000000.0 437215000000.0 76517200000.0 275636000000.0 63901700000.0 372704000000.0 220035000000.0 31843900000.0 272668000000.0 726720000000.0 630941000000.0 1.16709e+12 629518000000.0 656012000000.0 284987000000.0 373837000000.0 875187000000.0 704064000000.0 119048000000.0 343193000000.0 329351000000.0 267623000000.0 133222000000.0 282447000000.0 472530000000.0 672850000000.0 1.2115e+12 942604000000.0 1.02131e+12 907863000000.0 95240300000.0 334473000000.0 461705000000.0 479926000000.0 573300000000.0 80637600000.0 210939000000.0 436424000000.0 444886000000.0 277545000000.0 94025900000.0 106352000000.0 91248900000.0 574891000000.0 673427000000.0 773516000000.0 823556000000.0 988436000000.0 1.23334e+12 1.07781e+12 651959000000.0 429240000000.0 53341500000.0 609768000000.0 438208000000.0 141569000000.0 257917000000.0 741492000000.0 1.04424e+12 1.026e+12 960846000000.0 971195000000.0 1.0251e+12 418335000000.0 402959000000.0 223357000000.0 494734000000.0 698341000000.0 569279000000.0 336463000000.0 124714000000.0 61840700000.0 598245000000.0 233280000000.0 53313900000.0 246211000000.0 63219700000.0 426266000000.0 659865000000.0 801148000000.0 894430000000.0 1.08193e+12 922920000000.0 89131600000.0 451688000000.0 74697500000.0 393775000000.0 609123000000.0 524728000000.0 423831000000.0 255501000000.0 180406000000.0 147467000000.0 481325000000.0 908652000000.0 927093000000.0 865647000000.0 789866000000.0 1.05078e+12 1.52166e+12 553236000000.0 77837600000.0 268672000000.0 691913000000.0 845359000000.0 727136000000.0 86359300000.0 548563000.0 430921000000.0 145127000000.0 433171000000.0 589576000000.0 82329800000.0 210449000000.0 254202000000.0 38948500000.0 693873000000.0 943197000000.0 931415000000.0 1.03135e+12 860791000000.0 621883000000.0 618434000000.0 689950000000.0 325646000000.0 554084000000.0 308377000000.0 211198000000.0 286951000000.0 467870000000.0 690159000000.0 950578000000.0 818414000000.0 683042000000.0 398081000000.0 7317900000.0 52947200000.0 631745000.0 115045000000.0 344673000000.0 835877000000.0 223695000000.0 280572000000.0 21036200000.0 29417600000.0 16198100000.0 439971000000.0 464890000000.0 387580000000.0 952452000000.0 340844000000.0 382604000000.0 834567000000.0 577768000000.0 360320000000.0 769613000000.0 989766000000.0 1.06244e+12 939838000000.0 858481000000.0 978872000000.0 923500000000.0 753249000000.0 628942000000.0 842752000000.0 559537000000.0 653265000000.0 464636000000.0 394930000000.0 261437000000.0 305847000000.0 650312000000.0 836121000000.0 909096000000.0 912725000000.0 700363000000.0 1.97363e+12 348321000000.0 9345830000.0 43770800000.0 385624000000.0 682783000000.0 686710000000.0 252627000000.0 369032000000.0 54373300000.0 102164000000.0 113207000000.0 366461000000.0 400694000000.0 530804000000.0 608153000000.0 879007000000.0 497339000000.0 104709000000.0 812799000000.0 424111000000.0 457328000000.0 553686000000.0 901914000000.0 1.1428e+12 906469000000.0 759862000000.0 725797000000.0 681919000000.0 661971000000.0 738498000000.0 762618000000.0 979465000000.0 1.05024e+12 586935000000.0 331435000000.0 259011000000.0 286471000000.0 436177000000.0 798862000000.0 879437000000.0 819249000000.0 876850000000.0 633858000000.0 1.95914e+12 636177000000.0 239892000000.0 49567500000.0 239488000000.0 754105000000.0 765994000000.0 96003300000.0 296225000000.0 371003000000.0 449974000000.0 48096800000.0 196985000000.0 98302000000.0 230962000000.0 218819000000.0 469742000000.0 347620000000.0 320043000000.0 1.0005e+12 394090000000.0 1.19115e+12 1.09239e+12 250844000000.0 26924100000.0 1.21656e+12 1.08175e+12 4652890000.0 596251000000.0 690940000000.0 653234000000.0 667663000000.0 780123000000.0 938687000000.0 491426000000.0 274382000000.0 349525000000.0 608625000000.0 771719000000.0 876172000000.0 706398000000.0 996670000000.0 74036200000.0 920277000000.0 656022000000.0 478337000000.0 356558000000.0 179193000000.0 378949000000.0 250550000000.0 430390000000.0 470024000000.0 336729000000.0 83219500000.0 216434000000.0 248436000000.0 47460900000.0 25438100000.0 101545000000.0 178479000000.0 160618000000.0 89248300000.0 772524000000.0 920673000000.0 950537000000.0 95768100000.0 950933000000.0 139391000000.0 631054000000.0 89001100000.0 270760000000.0 339750000000.0 176362000000.0 568906000000.0 525019000000.0 628197000000.0 539672000000.0 601026000000.0 578230000000.0 660157000000.0 688054000000.0 826593000000.0 805289000000.0 725394000000.0 574619000000.0 388897000000.0 276639000000.0 218218000000.0 512287000000.0 891848000000.0 759745000000.0 673135000000.0 983495000000.0 650809000000.0 801286000000.0 112151000000.0 819728000000.0 938684000000.0 73951300000.0 179276000000.0 255667000000.0 287474000000.0 273370000000.0 405982000000.0 117900000000.0 209450000000.0 60045400000.0 148024000000.0 80495700000.0 26505200000.0 101033000000.0 273389000000.0 628690000000.0 261388000000.0 193548000000.0 199018000000.0 210813000000.0 294218000000.0 850568000000.0 502719000000.0 255121000000.0 517149000000.0 458984000000.0 284493000000.0 149507000000.0 256730000000.0 523553000000.0 430382000000.0 486338000000.0 585455000000.0 727764000000.0 702788000000.0 443969000000.0 142915000000.0 187005000000.0 644217000000.0 723783000000.0 18490800000.0 535329000000.0 397734000000.0 201037000000.0 730026000000.0 533986000000.0 304114000000.0 1.48272e+12 520329000000.0 326568000000.0 654372000000.0 67539000000.0 43192800000.0 214778000000.0 208240000000.0 82467100000.0 11509400000.0 264927000000.0 297212000000.0 20155100000.0 212681000000.0 98236200000.0 240031000000.0 464582000000.0 830557000000.0 135666000000.0 567766000000.0 445002000000.0 258293000000.0 317238000000.0 283272000000.0 573520000000.0 358022000000.0 166302000000.0 978860000000.0 973615000000.0 147043000000.0 224647000000.0 358595000000.0 482521000000.0 619868000000.0 717537000000.0 605065000000.0 298999000000.0 25443200000.0 353317000000.0 308694000000.0 745651000000.0 88722800000.0 122584000000.0 783027000000.0 221334000000.0 1.25429e+12 635919000000.0 1.04581e+12 1.09067e+12 792548000000.0 494212000000.0 103173000000.0 46295700000.0 816468000.0 217820000000.0 21200200000.0 36873900000.0 36870000000.0 489450000000.0 452882000000.0 323048000000.0 318131000000.0 32336500000.0 1.10922e+12 880603000000.0 601373000000.0 231573000000.0 947874000000.0 800460000000.0 158807000000.0 244326000000.0 65031500000.0 400074000000.0 12319000000.0 661859000000.0 1.01912e+12 285051000000.0 34563800000.0 108903000000.0 158495000000.0 183050000000.0 352111000000.0 381649000000.0 509365000000.0 545639000000.0 647662000000.0 642419000000.0 665753000000.0 606076000000.0 514391000000.0 421797000000.0 100229000000.0 185174000000.0 517154000000.0 12180200000.0 366667000000.0 243198000000.0 19042400000.0 599841000000.0 1.14599e+12 446037000000.0 447907000000.0 290476000000.0 362885000000.0 9993380000.0 575984000000.0 140436000000.0 105099000000.0 997166000000.0 701897000000.0 370875000000.0 223419000000.0 207541000000.0 579667000000.0 72363400000.0 111078000000.0 409457000000.0 619004000000.0 437078000000.0 458353000000.0 139767000000.0 168170000000.0 258662000000.0 370637000000.0 585803000000.0 1.181e+12 914248000000.0 357061000000.0 341530000000.0 129818000000.0 79768600000.0 381403000000.0 315722000000.0 2618920000.0 308430000000.0 496564000000.0 286669000.0 227263000000.0 428480000000.0 567486000000.0 609244000000.0 539299000000.0 298006000000.0 1.10523e+12 669970000000.0 684730000000.0 581584000000.0 758973000000.0 531890000000.0 193570000000.0 436694000000.0 190713000000.0 381534000000.0 343303000000.0 987221000000.0 782680000000.0 626141000000.0 183653000000.0 817918000000.0 456017000000.0 387889000000.0 227841000000.0 730827000000.0 65988400000.0 402682000000.0 239616000000.0 242450000000.0 602600000000.0 785796000000.0 536932000000.0 63150100000.0 267595000000.0 380031000000.0 1.51899e+12 391551000000.0 20525900000.0 21407400000.0 5201140000.0 88682600000.0 25144900000.0 39630200000.0 220361000000.0 351233000000.0 486101000000.0 589264000000.0 746825000000.0 672982000000.0 290940000000.0 80563900000.0 85731000000.0 57942400000.0 296547000000.0 355399000000.0 467856000000.0 484197000000.0 560769000000.0 521417000000.0 553619000000.0 456523000000.0 438758000000.0 139240000000.0 187318000000.0 178456000000.0 167176000000.0 439139000000.0 596537000000.0 95618000000.0 754519000000.0 596459000000.0 417442000000.0 435257000000.0 216761000000.0 62911300000.0 7830020000.0 421103000000.0 302566000000.0 586381000000.0 652254000000.0 462581000000.0 638387000000.0 494390000000.0 273128000000.0 935481000000.0 659117000000.0 64293400000.0 265620000000.0 629732000000.0 41974200000.0 422704000000.0 638371000000.0 840430000000.0 667642000000.0 150415000000.0 229138000000.0 925701000000.0 1.21366e+12 140150000000.0 517971000000.0 566901000000.0 773731000000.0 198884000000.0 119736000000.0 173677000000.0 260487000000.0 354693000000.0 869912000000.0 889737000000.0 501075000000.0 26770500000.0 200189000000.0 52359400000.0 161090000000.0 242485000000.0 394398000000.0 466847000000.0 437805000000.0 239660000000.0 464220000000.0 848558000000.0 138707000000.0 24564900000.0 1.16538e+12 1.47892e+12 1.10153e+12 666147000000.0 223347000000.0 47904900000.0 423141000000.0 1.07824e+12 409057000000.0 1.23225e+12 1.00987e+12 576695000000.0 906000000000.0 23898200000.0 1.3352e+12 970360000000.0 427680000000.0 273871000000.0 332306000000.0 148292000000.0 266060000000.0 265537000000.0 119428000000.0 217490000000.0 440794000000.0 744055000000.0 452320000000.0 847082000000.0 1.06181e+12 607593000000.0 630052000000.0 453736000000.0 464533000000.0 202484000000.0 507890000000.0 189552000000.0 164252000000.0 115431000000.0 49583900000.0 511455000000.0 637052000000.0 230194000000.0 870210000.0 144484000000.0 304322000000.0 400471000000.0 406097000000.0 273895000000.0 140574000000.0 83726100000.0 828760000000.0 1.07249e+12 390938000000.0 604304000000.0 589866000000.0 593496000000.0 543165000000.0 337238000000.0 484950000000.0 317757000000.0 322651000000.0 424667000000.0 633852000000.0 20193900000.0 496898000000.0 973935000000.0 71629300000.0 1.18764e+12 642204000000.0 1.00086e+12 483067000000.0 282458000000.0 466920000000.0 376106000000.0 281485000000.0 308256000000.0 210155000000.0 425591000000.0 725255000000.0 20667400000.0 73621200000.0 1.26111e+12 373906000000.0 818943000000.0 831492000000.0 540624000000.0 585310000000.0 623137000000.0 233530000000.0 687395000000.0 647318000000.0 463764000000.0 457866000000.0 265799000000.0 192438000000.0 116429000000.0 35952900000.0 29225000000.0 252840000000.0 664770000000.0 82905900000.0 39437200000.0 74469800000.0 178494000000.0 227759000000.0 273142000000.0 332151000000.0 321933000000.0 365625000000.0 285422000000.0 287880000000.0 115994000000.0 18721700000.0 33467300000.0 732666000000.0 495015000000.0 893803000000.0 687241000000.0 405519000000.0 129044000000.0 71787600000.0 54731200000.0 235744000000.0 300301000000.0 412182000000.0 452564000000.0 625226000000.0 423768000000.0 453140000000.0 925757000000.0 813268000000.0 294492000000.0 540764000000.0 201634000000.0 73949400000.0 773208000000.0 307495000000.0 318259000000.0 279815000000.0 152539000000.0 343787000000.0 234062000000.0 854597000000.0 447114000000.0 174401000000.0 31069300000.0 72750100000.0 508966000000.0 534708000000.0 605017000000.0 30354000000.0 237461000000.0 292807000000.0 32137100000.0 639347000000.0 620297000000.0 502782000000.0 430393000000.0 291122000000.0 4323150000.0 164095000000.0 351386000000.0 775852000000.0 952508000000.0 746395000000.0 310012000000.0 46751000000.0 170782000000.0 232734000000.0 282710000000.0 272578000000.0 167065000000.0 16357300000.0 57477600000.0 61829900000.0 492127000000.0 384711000000.0 114531000000.0 180344000000.0 267969000000.0 171992000000.0 132981000000.0 75285400000.0 231105000000.0 345595000000.0 411927000000.0 199631000000.0 280432000000.0 315759000000.0 208000000000.0 335132000000.0 229414000000.0 80898400000.0 1.0156e+12 429646000000.0 377640000000.0 1.10772e+12 1.35919e+12 457455000000.0 781578000000.0 132951000000.0 210155000000.0 22848100000.0 48383000000.0 110911000000.0 1.1909e+12 291492000000.0 1679240000.0 90941100000.0 598496000000.0 459720000000.0 136868000000.0 384214000000.0 76198400000.0 83033600000.0 209108000000.0 6347160000.0 413340000000.0 600533000000.0 595773000000.0 502965000000.0 393208000000.0 249529000000.0 122349000000.0 122275000000.0 40796100000.0 487473000000.0 804105000000.0 263150000000.0 202271000000.0 217676000000.0 256041000000.0 254392000000.0 194616000000.0 118255000000.0 66242700000.0 1957230000.0 5524460000.0 23536100000.0 478751000000.0 664817000000.0 858526000000.0 145886000000.0 31599900000.0 50030400000.0 169321000000.0 286098000000.0 357569000000.0 475398000000.0 207646000000.0 72186800000.0 54571700000.0 149301000000.0 349886000000.0 344411000000.0 464117000000.0 59472200000.0 136109000000.0 434828000000.0 588079000000.0 498907000000.0 469657000000.0 37888600000.0 24419500000.0 146552000000.0 116379000000.0 573279000000.0 427246000000.0 543067000000.0 342776000000.0 417988000000.0 718287000000.0 1.22777e+12 18570900000.0 220138000000.0 626457000000.0 833885000000.0 648849000000.0 277277000000.0 306614000000.0 60827000000.0 33935600000.0 48264200000.0 89662500000.0 442615000000.0 539839000000.0 452379000000.0 331249000000.0 187187000000.0 51303800000.0 64765700000.0 483396000000.0 913101000000.0 799042000000.0 637460000000.0 277399000000.0 199435000000.0 218735000000.0 277962000000.0 251878000000.0 234081000000.0 239264000000.0 200360000000.0 201887000000.0 144894000000.0 66287400000.0 50653200000.0 181657000000.0 589227000000.0 775035000000.0 578047000000.0 376458000000.0 223698000000.0 150556000000.0 173066000000.0 250998000000.0 393295000000.0 261684000000.0 93916600000.0 105298000000.0 167267000000.0 177514000000.0 194292000000.0 25166200000.0 126242000000.0 211004000000.0 263988000000.0 234505000000.0 127478000000.0 89341500000.0 112708000000.0 175150000000.0 138437000000.0 470109000000.0 870708000000.0 244615000000.0 627650000000.0 918964000000.0 292879000000.0 605817000000.0 838931000000.0 860631000000.0 301290000000.0 134777000000.0 99916100000.0 88524000000.0 249086000000.0 466015000000.0 556352000000.0 381920000000.0 251010000000.0 103704000000.0 37027900000.0 162661000000.0 293548000000.0 6950480000.0 345846000000.0 245774000000.0 196602000000.0 155914000000.0 100221000000.0 52595600000.0 123631000000.0 91774800000.0 133196000000.0 899162000000.0 783184000000.0 449374000000.0 123407000000.0 166047000000.0 217323000000.0 202593000000.0 205026000000.0 317736000000.0 351060000000.0 299960000000.0 242710000000.0 53446800000.0 341597000000.0 476646000000.0 341945000000.0 267448000000.0 75048700000.0 140581000000.0 169582000000.0 883803000000.0 611996000000.0 52233900000.0 155476000000.0 77211500000.0 160752000000.0 207928000000.0 489185000000.0 524308000000.0 1.27775e+12 533133000000.0 853691000000.0 325911000000.0 47689500000.0 460122000000.0 719113000000.0 834382000000.0 674759000000.0 393288000000.0 213876000000.0 108039000000.0 224435000000.0 337922000000.0 460845000000.0 512688000000.0 478698000000.0 174056000000.0 35414800000.0 83768100000.0 159956000000.0 140180000000.0 145057000000.0 805556000000.0 617804000000.0 468864000000.0 479603000000.0 278994000000.0 193854000000.0 153207000000.0 158649000000.0 128199000000.0 117928000000.0 92351300000.0 79534400000.0 106488000000.0 368870000000.0 460192000000.0 584007000000.0 408919000000.0 98800500000.0 59560800000.0 147916000000.0 191050000000.0 244590000000.0 296207000000.0 332008000000.0 322511000000.0 290089000000.0 217443000000.0 205319000000.0 206504000000.0 380032000000.0 523909000000.0 457921000000.0 402178000000.0 425121000000.0 352989000000.0 282264000000.0 692845000000.0 350396000000.0 156165000000.0 40518900000.0 11451900000.0 95532000000.0 194954000000.0 451573000000.0 220375000000.0 503092000000.0 483556000000.0 490117000000.0 489251000000.0 514817000000.0 152184000000.0 431062000000.0 360868000000.0 196137000000.0 554031000000.0 814008000000.0 649421000000.0 444096000000.0 325186000000.0 197738000000.0 236552000000.0 314809000000.0 390642000000.0 454682000000.0 463343000000.0 407549000000.0 304475000000.0 24715900000.0 140536000000.0 239873000000.0 352129000000.0 663307000000.0 991960000000.0 760047000000.0 432293000000.0 341544000000.0 179436000000.0 192794000000.0 143349000000.0 123436000000.0 112095000000.0 76628400000.0 229934000000.0 658231000000.0 1.0244e+12 997286000000.0 677997000000.0 218869000000.0 54926500000.0 41692300000.0 216742000000.0 249718000000.0 290822000000.0 326903000000.0 338742000000.0 330636000000.0 302679000000.0 299535000000.0 320982000000.0 431993000000.0 553860000000.0 581142000000.0 565079000000.0 503144000000.0 447504000000.0 445232000000.0 572084000000.0 987418000000.0 491002000000.0 55419300000.0 10175900000.0 143101000000.0 33908000000.0 124597000000.0 209301000000.0 157627000000.0 516233000000.0 534108000000.0 519488000000.0 438774000000.0 535440000000.0 666194000000.0 344079000000.0 160835000000.0 33984500000.0 361957000000.0 737727000000.0 785076000000.0 733578000000.0 600201000000.0 452208000000.0 357026000000.0 323301000000.0 381502000000.0 424071000000.0 440115000000.0 413325000000.0 339052000000.0 229583000000.0 103193000000.0 121076000000.0 141733000000.0 79493700000.0 373408000000.0 242845000000.0 574299000000.0 126488000000.0 128578000000.0 105084000000.0 113940000000.0 112104000000.0 55168400000.0 29281300000.0 507036000000.0 480200000000.0 4781250000.0 366362000000.0 8914100000.0 132402000000.0 194812000000.0 243773000000.0 288453000000.0 327382000000.0 352149000000.0 362099000000.0 361020000000.0 370956000000.0 401133000000.0 481363000000.0 578994000000.0 633774000000.0 646662000000.0 609272000000.0 527404000000.0 1.12612e+12 558172000000.0 127517000000.0 33807900000.0 453693000000.0 364189000000.0 759501000000.0 384038000000.0 179983000000.0 52418000000.0 144343000000.0 413181000000.0 549560000000.0 485825000000.0 467016000000.0 363072000000.0 253622000000.0 1.16053e+12 931782000000.0 11569500000.0 147144000000.0 281222000000.0 600701000000.0 717175000000.0 737328000000.0 675242000000.0 563783000000.0 453108000000.0 294677000000.0 288891000000.0 418582000000.0 431383000000.0 413804000000.0 361631000000.0 276794000000.0 170067000000.0 57154800000.0 45881100000.0 719412000000.0 580747000000.0 54268700000.0 120060000000.0 100081000000.0 36247500000.0 78226300000.0 59250200000.0 92730800000.0 105354000000.0 122822000000.0 156230000000.0 113387000000.0 80810800000.0 222121000000.0 8934310000.0 43338300000.0 99434000000.0 166898000000.0 227763000000.0 281331000000.0 326932000000.0 361572000000.0 384856000000.0 519442000000.0 599558000000.0 660739000000.0 687089000000.0 662661000000.0 574592000000.0 413974000000.0 143463000000.0 371242000000.0 74266400000.0 1.0874e+12 181168000000.0 95563500000.0 1.13336e+12 1.11489e+12 656704000000.0 290707000000.0 596463000000.0 232817000000.0 76312200000.0 286438000.0 388443000000.0 485826000000.0 560559000000.0 539646000000.0 586570000000.0 412582000000.0 70188500000.0 658400000000.0 470758000000.0 383447000000.0 447772000000.0 570827000000.0 647963000000.0 664009000000.0 625019000000.0 544985000000.0 383843000000.0 351289000000.0 356283000000.0 384588000000.0 387429000000.0 318381000000.0 228347000000.0 129304000000.0 36175400000.0 33338100000.0 55755700000.0 4506800000.0 274352000000.0 256793000000.0 78531900000.0 47637800000.0 44861200000.0 150419000000.0 161616000000.0 39237000000.0 591374000000.0 746594000000.0 393355000000.0 137372000000.0 91644000000.0 107905000000.0 154028000000.0 212891000000.0 271257000000.0 323624000000.0 400389000000.0 420342000000.0 455065000000.0 710877000000.0 663200000000.0 560358000000.0 393275000000.0 141370000000.0 121839000000.0 24442800000.0 1.28851e+12 249010000000.0 902015000000.0 606501000000.0 816903000000.0 337606000000.0 655600000000.0 498463000000.0 14780900000.0 49647500000.0 128640000000.0 538851000000.0 700935000000.0 644963000000.0 687541000000.0 814762000000.0 164198000000.0 563179000000.0 752705000000.0 384204000000.0 446405000000.0 526464000000.0 583165000000.0 596018000000.0 462376000000.0 409636000000.0 393919000000.0 404298000000.0 422606000000.0 436317000000.0 428061000000.0 279055000000.0 191028000000.0 102938000000.0 28398600000.0 17948900000.0 22215400000.0 33488900000.0 35195500000.0 344223000000.0 391203000000.0 278289000000.0 79336400000.0 4405590000.0 68567200000.0 274519000000.0 436227000000.0 27103300000.0 350156000000.0 496038000000.0 551345000000.0 451221000000.0 71270400000.0 75837600000.0 80807400000.0 106261000000.0 147461000000.0 201189000000.0 366565000000.0 399737000000.0 425997000000.0 452891000000.0 489671000000.0 545385000000.0 613645000000.0 674232000000.0 711221000000.0 668141000000.0 586867000000.0 485186000000.0 414271000000.0 504419000000.0 725765000000.0 454782000000.0 970349000000.0 787597000000.0 626930000000.0 824523000000.0 637858000000.0 372948000000.0 143897000000.0 59854600000.0 67769100000.0 31578800000.0 56079700000.0 360446000000.0 480342000000.0 739021000000.0 764289000000.0 719652000000.0 841152000000.0 42989700000.0 70389200000.0 705099000000.0 532760000000.0 154428000000.0 137416000000.0 462565000000.0 572654000000.0 522920000000.0 467469000000.0 431693000000.0 424729000000.0 438936000000.0 454776000000.0 451844000000.0 416694000000.0 356648000000.0 84531900000.0 27233600000.0 120965000.0 16112800000.0 59819300000.0 122727000000.0 645606000000.0 188530000000.0 323015000000.0 99526700000.0 65901000000.0 435242000.0 73285600000.0 23700200000.0 8165190000.0 98156200000.0 239856000000.0 611017000000.0 47193400000.0 698129000000.0 187294000000.0 86822900000.0 94066200000.0 107299000000.0 260586000000.0 317967000000.0 368388000000.0 409226000000.0 442343000000.0 473829000000.0 510493000000.0 558826000000.0 617133000000.0 674477000000.0 717812000000.0 735194000000.0 719043000000.0 595606000000.0 521618000000.0 399115000000.0 297316000000.0 1.24364e+12 788483000000.0 154152000000.0 53516900000.0 540296000000.0 143681000000.0 562920000000.0 10903300000.0 2639280000.0 85304600000.0 56918800000.0 17838900000.0 40690300000.0 158067000000.0 263687000000.0 538198000000.0 563164000000.0 814955000000.0 1.01268e+12 1.04745e+12 186107000000.0 485403000000.0 34574800000.0 51927500000.0 102569000000.0 329449000000.0 538054000000.0 563712000000.0 547149000000.0 506168000000.0 466490000000.0 444575000000.0 452157000000.0 476737000000.0 486062000000.0 450583000000.0 393811000000.0 322728000000.0 242524000000.0 160108000000.0 22457500000.0 62602400000.0 98777700000.0 356832000000.0 326210000000.0 224157000000.0 15391500000.0 124750000000.0 21679000000.0 178869000000.0 253002000000.0 379549000000.0 529077000000.0 153713000000.0 21287000000.0 143029000000.0 192479000000.0 250003000000.0 309679000000.0 366297000000.0 415599000000.0 454222000000.0 487544000000.0 522763000000.0 563499000000.0 612105000000.0 663469000000.0 707571000000.0 735284000000.0 739307000000.0 715887000000.0 665421000000.0 345343000000.0 211018000000.0 719187000000.0 842798000000.0 138749000000.0 489222000000.0 932859000000.0 316580000000.0 218680000000.0 849462000000.0 192715000000.0 220069000000.0 80426000000.0 27320500000.0 62324700000.0 520165000.0 12857500000.0 382906000000.0 423753000000.0 666105000000.0 742153000000.0 1.40241e+12 260659000000.0 635868000000.0 422717000000.0 280312000000.0 11623200000.0 200589000000.0 356630000000.0 463961000000.0 526463000000.0 548929000000.0 535076000000.0 497912000000.0 536508000000.0 490276000000.0 428886000000.0 360266000000.0 285507000000.0 207706000000.0 132773000000.0 67992300000.0 20869000000.0 4633880000.0 167248000000.0 343662000000.0 387701000000.0 216825000000.0 3894190000.0 259707000000.0 204762000000.0 318235000000.0 116812000000.0 45500600000.0 94753600000.0 135426000000.0 183245000000.0 238233000000.0 297717000000.0 357963000000.0 415333000000.0 465483000000.0 499988000000.0 529594000000.0 565000000000.0 603286000000.0 646019000000.0 687952000000.0 722499000000.0 738307000000.0 726031000000.0 684940000000.0 615036000000.0 510599000000.0 303652000000.0 332984000000.0 511250000000.0 45686500000.0 953190000000.0 504217000000.0 771715000000.0 405477000000.0 121810000000.0 89908500000.0 10896000000.0 92858100000.0 116531000000.0 276607000000.0 460856000000.0 463536000000.0 949922000000.0 1.15211e+12 331199000000.0 446944000000.0 457511000000.0 169297000000.0 197699000000.0 303495000000.0 407031000000.0 492959000000.0 550415000000.0 497949000000.0 462219000000.0 457708000000.0 389011000000.0 319253000000.0 246639000000.0 174263000000.0 107527000000.0 52076500000.0 11989500000.0 14608900000.0 31796400000.0 13697800000.0 35704400000.0 79406900000.0 109258000000.0 228762000000.0 241910000000.0 103639000000.0 414823000000.0 297146000000.0 267139000000.0 563776000000.0 185084000000.0 99964600000.0 87050100000.0 105062000000.0 137381000000.0 177555000000.0 226828000000.0 282899000000.0 342725000000.0 403943000000.0 723939000000.0 720666000000.0 686261000000.0 615720000000.0 506351000000.0 336020000000.0 2243870000.0 330115000000.0 650922000000.0 786465000000.0 202222000000.0 755895000000.0 403526000000.0 86375500000.0 214913000000.0 281569000000.0 305860000000.0 415515000000.0 446957000000.0 489815000000.0 403342000000.0 444069000000.0 423672000000.0 323105000000.0 336493000000.0 420091000000.0 565102000000.0 537373000000.0 495522000000.0 468684000000.0 512740000000.0 620916000000.0 531258000000.0 456911000000.0 208750000000.0 142798000000.0 84054000000.0 36756300000.0 2515300000.0 17742800000.0 14875500000.0 5357250000.0 18960700000.0 245329000000.0 328508000000.0 276437000000.0 360993000000.0 564322000000.0 296432000000.0 177382000000.0 196777000000.0 419332000000.0 257208000000.0 175307000000.0 146623000000.0 152032000000.0 178110000000.0 217355000000.0 266511000000.0 464642000000.0 519083000000.0 541121000000.0 560169000000.0 598530000000.0 633384000000.0 665433000000.0 700455000000.0 625650000000.0 530191000000.0 391517000000.0 219976000000.0 315688000000.0 430016000000.0 39641200000.0 183882000000.0 599588000000.0 232292000000.0 620073000000.0 380713000000.0 120798000000.0 305654000000.0 170283000000.0 147405000000.0 15982200000.0 507672000000.0 522826000000.0 178586000000.0 489000000000.0 553399000000.0 442083000000.0 488417000000.0 556500000000.0 594290000000.0 575201000000.0 527549000000.0 484878000000.0 476252000000.0 687272000000.0 533421000000.0 458185000000.0 400635000000.0 341252000000.0 276498000000.0 61773700000.0 21575600000.0 5840070000.0 18044500000.0 20927800000.0 36653600000.0 153227000000.0 82429100000.0 343068000000.0 279085000000.0 411720000000.0 127351000000.0 595481000000.0 167519000000.0 16302300000.0 57450100000.0 182086000000.0 286601000000.0 228783000000.0 184845000000.0 170052000000.0 322152000000.0 381741000000.0 444447000000.0 511693000000.0 579613000000.0 568266000000.0 574853000000.0 642834000000.0 657974000000.0 678596000000.0 709637000000.0 713107000000.0 685195000000.0 458350000000.0 349927000000.0 346828000000.0 404182000000.0 473410000000.0 480586000000.0 573148000000.0 880899000000.0 251212000000.0 769046000000.0 321761000000.0 99394900000.0 57136400000.0 256153000000.0 737702000000.0 120854000000.0 264722000000.0 428811000000.0 588269000000.0 489733000000.0 531508000000.0 573983000000.0 627943000000.0 600481000000.0 535560000000.0 456359000000.0 353373000000.0 633010000000.0 469916000000.0 419181000000.0 391786000000.0 351548000000.0 298104000000.0 236454000000.0 172882000000.0 113137000000.0 38865100000.0 73040300000.0 29927300000.0 3384420000.0 145862000000.0 237469000000.0 548836000000.0 363342000000.0 188446000000.0 98072300000.0 14382300000.0 180164000000.0 208107000000.0 248615000000.0 297939000000.0 352563000000.0 410079000000.0 471278000000.0 547098000000.0 659819000000.0 577301000000.0 593240000000.0 682480000000.0 662698000000.0 691985000000.0 698624000000.0 680406000000.0 633492000000.0 558029000000.0 377876000000.0 363083000000.0 402221000000.0 99530200000.0 792108000000.0 727950000000.0 654629000000.0 552513000000.0 16166300000.0 33443100000.0 112059000000.0 233556000000.0 337824000000.0 1.0784e+12 73861400000.0 230423000000.0 485878000000.0 460505000000.0 531515000000.0 547712000000.0 600855000000.0 586881000000.0 520927000000.0 538189000000.0 414484000000.0 373042000000.0 378383000000.0 358211000000.0 316084000000.0 260285000000.0 198858000000.0 138496000000.0 84326000000.0 39827800000.0 6747330000.0 14200400000.0 26259700000.0 149651000000.0 109647000000.0 152806000000.0 53467600000.0 123656000000.0 79415800000.0 125771000000.0 189397000000.0 180441000000.0 169721000000.0 173658000000.0 193796000000.0 227460000000.0 271153000000.0 320710000000.0 371537000000.0 419354000000.0 460951000000.0 510600000000.0 638753000000.0 476164000000.0 537934000000.0 631148000000.0 595795000000.0 650184000000.0 651112000000.0 623123000000.0 564415000000.0 488651000000.0 409527000000.0 381415000000.0 22534900000.0 789666000000.0 638185000000.0 488912000000.0 384038000000.0 188837000000.0 95823600000.0 52039100000.0 723640000000.0 1.33062e+12 133636000000.0 301566000000.0 421218000000.0 487812000000.0 611892000000.0 406430000000.0 485380000000.0 425672000000.0 259446000000.0 338074000000.0 284073000000.0 222602000000.0 160878000000.0 104013000000.0 55524300000.0 17770700000.0 9259100000.0 27944500000.0 43068900000.0 59564600000.0 46165600000.0 29017900000.0 13607100000.0 41902800000.0 64058400000.0 85470600000.0 173059000000.0 106378000000.0 22463700000.0 67003300000.0 117196000000.0 134298000000.0 147583000000.0 168407000000.0 199601000000.0 240273000000.0 287278000000.0 336247000000.0 381764000000.0 584354000000.0 549329000000.0 491911000000.0 428089000000.0 386476000000.0 367412000000.0 303941000000.0 227211000000.0 758368000000.0 679728000000.0 466680000000.0 506648000000.0 22918800000.0 36501600000.0 165689000000.0 385834000000.0 875871000000.0 225162000000.0 463244000000.0 409978000000.0 507094000000.0 361684000000.0 529767000000.0 546295000000.0 488744000000.0 396007000000.0 202105000000.0 448234000000.0 364786000000.0 340051000000.0 386216000000.0 375735000000.0 121252000000.0 68980100000.0 26197300000.0 5483360000.0 28947900000.0 48594400000.0 67169700000.0 73778900000.0 76839500000.0 83096100000.0 124212000000.0 15442100000.0 85343700000.0 13695300000.0 27133900000.0 77486300000.0 139559000000.0 165294000000.0 115795000000.0 50353900000.0 15358600000.0 63703500000.0 96652000000.0 127013000000.0 161435000000.0 416563000000.0 429848000000.0 464303000000.0 570926000000.0 378098000000.0 498609000000.0 566078000000.0 538447000000.0 588370000000.0 414784000000.0 364755000000.0 330392000000.0 296097000000.0 131116000000.0 49786000000.0 619757000000.0 470835000000.0 375058000000.0 200476000000.0 61699700000.0 15745700000.0 129555000000.0 411150000000.0 1.13873e+12 257541000000.0 301260000000.0 390858000000.0 354981000000.0 465209000000.0 493411000000.0 456834000000.0 368275000000.0 174982000000.0 388541000000.0 392449000000.0 338865000000.0 441054000000.0 414496000000.0 368951000000.0 310503000000.0 245856000000.0 181307000000.0 52577600000.0 75216200000.0 98595900000.0 120032000000.0 143879000000.0 200242000000.0 137775000000.0 11803500000.0 42270800000.0 62979100000.0 1731840000.0 94243200000.0 155633000000.0 167218000000.0 135779000000.0 84108300000.0 202588000000.0 249495000000.0 299326000000.0 348708000000.0 392145000000.0 420496000000.0 402266000000.0 413155000000.0 489251000000.0 317180000000.0 465893000000.0 498953000000.0 492003000000.0 525558000000.0 511538000000.0 468750000000.0 258309000000.0 186372000000.0 39990500000.0 740138000000.0 351868000000.0 179273000000.0 36857000000.0 671809000000.0 692639000000.0 91713700000.0 164172000000.0 260486000000.0 439393000000.0 349957000000.0 423805000000.0 426904000000.0 346765000000.0 166430000000.0 318130000000.0 422063000000.0 324024000000.0 415703000000.0 427874000000.0 392908000000.0 334210000000.0 267077000000.0 200213000000.0 137009000000.0 80609000000.0 33488500000.0 4329730000.0 30553200000.0 326484000000.0 197171000000.0 37104400000.0 69975500000.0 107608000000.0 25653900000.0 25471900000.0 69384400000.0 110958000000.0 155971000000.0 205223000000.0 256858000000.0 309395000000.0 361672000000.0 410598000000.0 455210000000.0 393786000000.0 403641000000.0 424674000000.0 280824000000.0 421990000000.0 428381000000.0 444824000000.0 456031000000.0 428733000000.0 378670000000.0 319840000000.0 190186000000.0 532192000000.0 496270000000.0 389884000000.0 181297000000.0 301132000000.0 455350000000.0 557812000000.0 223983000000.0 268179000000.0 324263000000.0 349190000000.0 313018000000.0 334444000000.0 305990000000.0 234052000000.0 390603000000.0 395386000000.0 347896000000.0 281957000000.0 216102000000.0 152565000000.0 92615100000.0 40345000000.0 939100000.0 35986000000.0 55845300000.0 79191600000.0 108302000000.0 151561000000.0 189924000000.0 224724000000.0 223004000000.0 155782000000.0 111950000000.0 29182200000.0 104177000000.0 165644000000.0 187953000000.0 167160000000.0 114170000000.0 55051700000.0 1508570000.0 50239600000.0 100672000000.0 154481000000.0 208814000000.0 262373000000.0 314702000000.0 366379000000.0 408606000000.0 438523000000.0 361131000000.0 362892000000.0 365410000000.0 360755000000.0 397811000000.0 382644000000.0 341359000000.0 282481000000.0 211592000000.0 129783000000.0 19327000000.0 199643000000.0 512422000000.0 444745000000.0 401763000000.0 275510000000.0 283635000000.0 8911680000.0 43824400000.0 155285000000.0 256704000000.0 483683000000.0 79204000000.0 185928000000.0 200611000000.0 298945000000.0 284152000000.0 165381000000.0 369505000000.0 312496000000.0 327634000000.0 167119000000.0 107940000000.0 50793100000.0 3582320000.0 30880700000.0 72056400000.0 80990700000.0 106000000000.0 149503000000.0 231968000000.0 241493000000.0 282904000000.0 532868000000.0 282277000000.0 67635700000.0 123665000000.0 204820000000.0 235074000000.0 196331000000.0 137287000000.0 68184100000.0 15634800000.0 38818400000.0 98888700000.0 415331000000.0 256112000000.0 309146000000.0 254136000000.0 186589000000.0 108746000000.0 17056600000.0 387831000000.0 318657000000.0 261696000000.0 191340000000.0 114570000000.0 11043900000.0 42074400000.0 143175000000.0 441523000000.0 319825000000.0 11324700000.0 107200000000.0 278322000000.0 255367000000.0 162678000000.0 158517000000.0 298521000000.0 284185000000.0 290473000000.0 309593000000.0 368020000000.0 346978000000.0 285907000000.0 226423000000.0 84633300000.0 128187000000.0 243359000000.0 265870000000.0 315894000000.0 245610000000.0 18689700000.0 105362000000.0 162108000000.0 70525100000.0 128786000000.0 212736000000.0 292620000000.0 268393000000.0 229121000000.0 158525000000.0 214100000000.0 265063000000.0 313856000000.0 364791000000.0 398009000000.0 363329000000.0 322193000000.0 366703000000.0 286507000000.0 236188000000.0 308066000000.0 299499000000.0 346374000000.0 94797300000.0 6657860000.0 161883000000.0 394319000000.0 155796000000.0 35592500000.0 256934000000.0 340884000000.0 301065000000.0 309195000000.0 79198200000.0 241940000000.0 215879000000.0 226224000000.0 160420000000.0 90383200000.0 208410000000.0 244093000000.0 256573000000.0 273474000000.0 299514000000.0 337135000000.0 278545000000.0 230800000000.0 180576000000.0 126131000000.0 71155300000.0 15215100000.0 26005500000.0 50818900000.0 130774000000.0 396931000000.0 95660600000.0 213568000000.0 176257000000.0 46448600000.0 132406000000.0 82362100000.0 26203300000.0 40786000000.0 106633000000.0 167616000000.0 219570000000.0 265149000000.0 305726000000.0 355543000000.0 342290000000.0 302110000000.0 276775000000.0 310514000000.0 203185000000.0 216730000000.0 258307000000.0 244077000000.0 290721000000.0 235599000000.0 172101000000.0 131469000000.0 268734000000.0 320292000000.0 244762000000.0 203162000000.0 13573600000.0 33036200000.0 141068000000.0 230712000000.0 255228000000.0 288200000000.0 278290000000.0 10481600000.0 54787800000.0 46232900000.0 175760000000.0 164238000000.0 152771000000.0 50771500000.0 115888000000.0 227691000000.0 300500000000.0 356284000000.0 385591000000.0 438427000000.0 399880000000.0 336561000000.0 284380000000.0 228689000000.0 169962000000.0 112485000000.0 48414600000.0 23297700000.0 14149200000.0 182450000000.0 136679000000.0 351022000000.0 61246800000.0 350888000000.0 2352880000.0 290185000000.0 201675000000.0 191448000000.0 85418000000.0 162680000000.0 73450800000.0 306015000000.0 409172000000.0 246726000000.0 312562000000.0 151834000000.0 89878200000.0 33367300000.0 57121400000.0 134222000000.0 208030000000.0 271028000000.0 325512000000.0 371067000000.0 409104000000.0 435325000000.0 378701000000.0 313485000000.0 283480000000.0 245297000000.0 140066000000.0 194833000000.0 209001000000.0 193300000000.0 230923000000.0 164578000000.0 97558500000.0 4789240000.0 95802400000.0 212102000000.0 232798000000.0 215678000000.0 141319000000.0 101476000000.0 12362400000.0 10954300000.0 34848300000.0 131628000000.0 168347000000.0 98752800000.0 66020700000.0 53497500000.0 111453000000.0 194740000000.0 31428300000.0 41604700000.0 17826500000.0 40544300000.0 218541000000.0 272533000000.0 210007000000.0 246294000000.0 115984000000.0 109959000000.0 215116000000.0 38238400000.0 77571900000.0 7654550000.0 141293000000.0 129410000000.0 103116000000.0 137807000000.0 159281000000.0 141902000000.0 162312000000.0 88773100000.0 11880500000.0 157126000000.0 121097000000.0 52772600000.0 13495000000.0 191986000000.0 160325000000.0 132386000000.0 31939500000.0 31402700000.0 53754800000.0 15883000000.0 21414500000.0 36129700000.0 16669500000.0 35268600000.0 45912400000.0 52538700000.0 41873900000.0 18255100000.0 8336810000.0 142677000000.0 230592000000.0 166889000000.0 57774400000.0 176794000000.0 110372000000.0 158936000000.0 181783000000.0 190035000000.0 190246000000.0 185167000000.0 174801000000.0 166610000000.0 110185000000.0 85338700000.0 89109800000.0 122009000000.0 138341000000.0 78831600000.0 167545000000.0 93370700000.0 155263000000.0 190302000000.0 7136750000.0 12116200000.0 9045600000.0 94406500000.0 141283000000.0 169115000000.0 200356000000.0 146120000000.0 32903900000.0 32978400000.0 47061400000.0 188408000000.0 8947350000.0 87788800000.0 45341400000.0 111354000000.0 111775000000.0 73148700000.0 60656900000.0 70842200000.0 77647700000.0 46237100000.0 22020500000.0 5783920000.0 19882400000.0 46916600000.0 50108500000.0 96335800000.0 119421000000.0 72537200000.0 329767000000.0 228293000000.0 19876000000.0 293008000000.0 92230900000.0 28222900000.0 61013600000.0 107432000000.0 13985500000.0 39357400000.0 20504100000.0 46214500000.0 131375000000.0 136098000000.0 56751200000.0 13511600000.0 32449100000.0 51291000000.0 45652400000.0 75618100000.0 85129200000.0 98872100000.0 113008000000.0 138484000000.0 180051000000.0 185120000000.0 180064000000.0 168889000000.0 160105000000.0 127440000000.0 79173500000.0 25607600000.0 136389000000.0 102048000000.0 75217800000.0 70105300000.0 27967800000.0 98235200000.0 23239700000.0 127838000000.0 102248000000.0 63458300000.0 15698100000.0 5343490000.0 6532430000.0 9035750000.0 9035750000.0 26591900000.0 103155000000.0 157123000000.0 143589000000.0 4699340000.0 44302500000.0 89977100000.0 28841000000.0 86560000000.0 50977400000.0 3935180000.0 28390200000.0 52574000000.0 120891000000.0 60226800000.0 35515500000.0 13636400000.0 80024100000.0 159218000000.0 314523000000.0 339353000000.0 438879000000.0 202372000000.0 422526000000.0 225581000000.0 194609000000.0 158624000000.0 230404000000.0 112726000000.0 2442970000.0 30736700000.0 88580500000.0 120429000000.0 291015000000.0 267707000000.0 159883000000.0 212798000000.0 100352000000.0 70169800000.0 8513900000.0 38429400000.0 69472800000.0 97530200000.0 131504000000.0 142839000000.0 141802000000.0 91554900000.0 35308800000.0 22414800000.0 114454000000.0 35169600000.0 42497800000.0 82986900000.0 124971000000.0 70583200000.0 54494600000.0 104553000000.0 43728200000.0 18757200000.0 9035750000.0 9035750000.0 126593000000.0 138909000000.0 168334000000.0 173797000000.0 144899000000.0 99680000000.0 100062000000.0 110149000000.0 171527000000.0 186306000000.0 170567000000.0 152022000000.0 18489300000.0 71943000000.0 123690000000.0 56935300000.0 30452600000.0 94380800000.0 27142200000.0 50418600000.0 64352500000.0 122129000000.0 16705700000.0 36337800000.0 74898500000.0 121776000000.0 94919100000.0 11139500000.0 76013800000.0 85549400000.0 116010000000.0 141303000000.0 163925000000.0 146612000000.0 136226000000.0 97293300000.0 111236000000.0 51631100000.0 109843000000.0 34831900000.0 111293000000.0 187878000000.0 111666000000.0 42662600000.0 44425800000.0 7603050000.0 25825800000.0 82222500000.0 49037900000.0 24534500000.0 74843100000.0 14048500000.0 4606350000.0 113355000000.0 217830000000.0 410363000000.0 319154000000.0 320309000000.0 206660000000.0 193298000000.0 71067900000.0 33610000000.0 50622300000.0 84699400000.0 141840000000.0 161931000000.0 186187000000.0 161022000000.0 130873000000.0 122568000000.0 135350000000.0 91305800000.0 16475200000.0 19341400000.0 10029200000.0 75205900000.0 37569100000.0 61022800000.0 4333700000.0 22675300000.0 49501500000.0 52019300000.0 15952100000.0 66948200000.0 59611400000.0 33205500000.0 5148470000.0 9035750000.0 9035750000.0 9044920000.0 79559600000.0 129901000000.0 96589200000.0 37974500000.0 13225700000.0 79988800000.0 50264800000.0 28992700000.0 5861730000.0 20336400000.0 447162000.0 25891800000.0 67112800000.0 90903200000.0 64362000000.0 78633100000.0 64562200000.0 25872200000.0 51115900000.0 103738000000.0 178821000000.0 198335000000.0 283069000000.0 259867000000.0 311569000000.0 266386000000.0 57947700000.0 79361500000.0 71997200000.0 111766000000.0 38925900000.0 6898350000.0 50330600000.0 98690900000.0 18188600000.0 42723900000.0 3892470000.0 65893400000.0 53642900000.0 101452000000.0 8853010000.0 56020600000.0 93823300000.0 71947300000.0 125269000000.0 59498100000.0 84781000000.0 42736500000.0 32741400000.0 18561700000.0 47060000000.0 104042000000.0 117428000000.0 107362000000.0 109348000000.0 127909000000.0 81863300000.0 17424700000.0 22315500000.0 2930990000.0 86796400000.0 8388940000.0 6111390000.0 609020000.0 15949000000.0 84312800000.0 91651800000.0 19351200000.0 9260800000.0 9035750000.0 9035750000.0 38606000000.0 5980200000.0 113890000.0 6269730000.0 44711800000.0 122393000000.0 141969000000.0 17060700000.0 61699400000.0 83529700000.0 14411700000.0 27537600000.0 5567540000.0 44507600000.0 60831200000.0 65735700000.0 44451700000.0 21999700000.0 47697900000.0 13508300000.0 32997500000.0 85284200000.0 100731000000.0 132260000000.0 117190000000.0 135177000000.0 76662600000.0 87647400000.0 76291300000.0 36409800000.0 239550000000.0 49435600000.0 68884900000.0 7589980000.0 139079000000.0 32687700000.0 80523600000.0 66853100000.0 31585900000.0 17572100000.0 18427000000.0 38391500000.0 23118800000.0 56864800000.0 26834300000.0 18776600000.0 2905240000.0 36537500000.0 27920400000.0 107335000000.0 84292100000.0 119971000000.0 108859000000.0 123662000000.0 99594600000.0 93270900000.0 46946500000.0 4390200000.0 6558810000.0 2652740000.0 37754500000.0 62892500000.0 41553300000.0 37647800000.0 34314600000.0 19393900000.0 7623100000.0 3552360000.0 54116200000.0 56972300000.0 82605400000.0 75262600000.0 8883140000.0 2811790000.0 4927690000.0 7666350000.0 9052580000.0 9043600000.0 9109160000.0 50918800000.0 125532000000.0 140385000000.0 76215800000.0 63044400000.0 3754230000.0 41410300000.0 46824700000.0 6319160000.0 8330180000.0 20557900000.0 50290200000.0 137515000000.0 112378000000.0 107613000000.0 70240800000.0 77863500000.0 14664000000.0 25985600000.0 25048600000.0 11327000000.0 60759300000.0 98553900000.0 3887070000.0 134147000000.0 24588200000.0 76420100000.0 47235900000.0 17886500000.0 64926500000.0 56130700000.0 82272000000.0 16088200000.0 5853500000.0 10507100000.0 16827700000.0 3847840000.0 73022500000.0 48014800000.0 92019400000.0 90227600000.0 123104000000.0 124354000000.0 148418000000.0 133525000000.0 108780000000.0 93711600000.0 46569800000.0 24216300000.0 23808200000.0 13566200000.0 53197400000.0 8026450000.0 6534530000.0 5348460000.0 61551700000.0 77120900000.0 73493200000.0 17599200000.0 10148400000.0 9043300000.0 9053380000.0 26228100000.0 80491900000.0 67965800000.0 98300400000.0 123170000000.0 205700000000.0 87907000000.0 12186300000.0 97421100000.0 56211700000.0 8764500000.0 8102900000.0 7630700000.0 37497400000.0 107415000000.0 129291000000.0 34320800000.0 82749700000.0 46227700000.0 8140030000.0 32236100000.0 48620800000.0 5442440000.0 4731920000.0 15324600000.0 37497300000.0 64620400000.0 60915800000.0 90466400000.0 118641000000.0 142351000000.0 130016000000.0 136008000000.0 107615000000.0 117652000000.0 59773000000.0 67225300000.0 71074200000.0 38596000000.0 215014000000.0 56911500000.0 97998300000.0 5312270000.0 127542000000.0 18193000000.0 88715000000.0 55856100000.0 13122600000.0 45907500000.0 19656300000.0 60924900000.0 46320700000.0 61931500000.0 10111900000.0 3428210000.0 15232800000.0 17738800000.0 15972500000.0 83723700000.0 64381400000.0 110355000000.0 105719000000.0 132845000000.0 127210000000.0 142586000000.0 123253000000.0 98926200000.0 84035400000.0 73111500000.0 31409900000.0 24716200000.0 21738700000.0 15087200000.0 38620400000.0 8788470000.0 8523870000.0 8847420000.0 71550300000.0 58163300000.0 67176400000.0 62617300000.0 15200800000.0 9437150000.0 8349660000.0 8852690000.0 9118360000.0 9075530000.0 9343030000.0 30943000000.0 94476700000.0 29895000000.0 8877680000.0 26317300000.0 124090000000.0 100470000000.0 47408100000.0 54264600000.0 29954100000.0 60993200000.0 9179470000.0 116286000000.0 10787300000.0 40888600000.0 47477200000.0 63509600000.0 48108600000.0 56976800000.0 17389700000.0 9035750000.0 18704600000.0 13577700000.0 12884200000.0 72876700000.0 55144000000.0 99923100000.0 95286400000.0 121850000000.0 10043000000.0 8612520000.0 8167560000.0 57004700000.0 15973700000.0 11000800000.0 9072230000.0 9118890000.0 117534000000.0 38593800000.0 81934200000.0 50576500000.0 9101040000.0 9764170000.0 23242600000.0 40033300000.0 64382200000.0 67954300000.0 94737600000.0 118135000000.0 136474000000.0 121371000000.0 94185700000.0 57199600000.0 193055000000.0 104389000000.0 86087900000.0 11114200000.0 24322600000.0 117598000000.0 133549000000.0 118569000000.0 98558400000.0 82100800000.0 66498500000.0 30995600000.0 31589400000.0 24539600000.0 18992900000.0 30672700000.0 74747700000.0 59455400000.0 60410900000.0 9145690000.0 9090280000.0 9451850000.0 24479500000.0 80423900000.0 104481000000.0 41975500000.0 80410600000.0 20427100000.0 9542900000.0 21347700000.0 48882100000.0 9150160000.0 9897860000.0 25026900000.0 36070300000.0 56338800000.0 64379700000.0 88804700000.0 109812000000.0 127311000000.0 114498000000.0 118019000000.0 90369000000.0 95864000000.0 50769900000.0 58199400000.0 61727300000.0 39492600000.0 175148000000.0 52319200000.0 99673800000.0 9433320000.0 103380000000.0 9043770000.0 83149800000.0 30033800000.0 12911200000.0 49322700000.0 25352000000.0 61579100000.0 43627900000.0 47174400000.0 17358600000.0 9035750000.0 17445100000.0 9623900000.0 10965600000.0 62223800000.0 47230500000.0 90189000000.0 85781000000.0 110831000000.0 106555000000.0 121076000000.0 107988000000.0 90731800000.0 73439900000.0 56086700000.0 28979900000.0 33321900000.0 23872800000.0 20142100000.0 25360300000.0 11140000000.0 9510970000.0 9189230000.0 76585600000.0 59481000000.0 53202100000.0 50393500000.0 15319400000.0 11313600000.0 9086360000.0 9145340000.0 54838200000.0 38386400000.0 48567300000.0 9665320000.0 9057900000.0 21637700000.0 59131700000.0 38935200000.0 9035750000.0 9065850000.0 52802700000.0 80302000000.0 9167900000.0 9102530000.0 9540900000.0 19954600000.0 67989300000.0 91986100000.0 44230200000.0 76881300000.0 14009900000.0 9660380000.0 17996200000.0 46623000000.0 9269200000.0 10260200000.0 26643800000.0 33591100000.0 50052400000.0 60747900000.0 82894200000.0 101185000000.0 116633000000.0 104668000000.0 107847000000.0 81797600000.0 85764000000.0 47590500000.0 56870400000.0 158174000000.0 93400200000.0 90956100000.0 78317500000.0 12717300000.0 49534800000.0 26056200000.0 39581400000.0 17267100000.0 16409400000.0 10589800000.0 40336800000.0 75995800000.0 99300800000.0 95125900000.0 108379000000.0 97155100000.0 82584100000.0 65285800000.0 47869600000.0 28266400000.0 33795800000.0 22583200000.0 20196000000.0 21954400000.0 11524400000.0 9611220000.0 9264490000.0 75497800000.0 59038300000.0 48316200000.0 44883000000.0 14895300000.0 11536400000.0 9098280000.0 9166580000.0 9184130000.0 9111920000.0 9606670000.0 16952100000.0 57315000000.0 80333900000.0 45396100000.0 72487300000.0 10845300000.0 9748700000.0 16081700000.0 43910100000.0 9327240000.0 10435400000.0 27268100000.0 31396000000.0 44335700000.0 56104800000.0 76039900000.0 91936500000.0 105601000000.0 94703500000.0 97669100000.0 73648200000.0 76496600000.0 44876500000.0 51645400000.0 52155700000.0 36218400000.0 140093000000.0 42360700000.0 86135700000.0 9862660000.0 79371700000.0 9070740000.0 72963400000.0 15936500000.0 12614300000.0 48307200000.0 25760200000.0 55797300000.0 35680600000.0 32117100000.0 17084100000.0 9035750000.0 15611900000.0 9036540000.0 10579900000.0 44741600000.0 34568900000.0 70967000000.0 66853300000.0 88229100000.0 84195700000.0 96184600000.0 86545100000.0 74368300000.0 57679700000.0 41331000000.0 27811400000.0 33396400000.0 21076200000.0 19688000000.0 20200200000.0 11785000000.0 9687060000.0 9326660000.0 72685600000.0 57645700000.0 44175600000.0 39836600000.0 14585800000.0 11666600000.0 9107560000.0 9182220000.0 9194050000.0 9118200000.0 9646890000.0 15053200000.0 48312400000.0 69725500000.0 45463300000.0 67401300000.0 9744740000.0 9806590000.0 15200700000.0 40796800000.0 9367820000.0 10553200000.0 27168000000.0 29543500000.0 39566900000.0 51287100000.0 69076400000.0 82778300000.0 94755300000.0 84921100000.0 87661900000.0 65975800000.0 68046100000.0 42292700000.0 48436200000.0 47571700000.0 33428400000.0 123504000000.0 36570200000.0 78336600000.0 10015700000.0 68809700000.0 9081540000.0 67244200000.0 12255500000.0 12518800000.0 46081500000.0 24934000000.0 51951400000.0 32071200000.0 26572500000.0 16774000000.0 9035750000.0 14990600000.0 9035770000.0 10585800000.0 37992300000.0 29799100000.0 62285900000.0 58514900000.0 77813400000.0 73987500000.0 84747300000.0 76483600000.0 66471600000.0 50861400000.0 36208000000.0 27299500000.0 32319500000.0 19496600000.0 18851600000.0 19393700000.0 11925000000.0 9735770000.0 9373330000.0 68578600000.0 55482300000.0 40752800000.0 35367000000.0 14262500000.0 11705300000.0 9113910000.0 9191970000.0 9197690000.0 9121190000.0 9661480000.0 13886100000.0 40794100000.0 60240600000.0 44482800000.0 61747800000.0 9483420000.0 9833140000.0 14796100000.0 37373700000.0 9391100000.0 10610000000.0 26437900000.0 27833800000.0 35571400000.0 46471800000.0 62183300000.0 73869100000.0 84281700000.0 75475900000.0 77954600000.0 58785900000.0 60301300000.0 39597900000.0 45043800000.0 43124100000.0 30357200000.0 108241000000.0 31365200000.0 70342600000.0 10117500000.0 59321800000.0 9089670000.0 61284900000.0 10209600000.0 12385000000.0 43121700000.0 23710900000.0 47725500000.0 28765300000.0 22126100000.0 16336200000.0 9035750000.0 14474800000.0 9035750000.0 10549400000.0 32418100000.0 25902500000.0 54296200000.0 50994100000.0 68161300000.0 64591800000.0 74173600000.0 67111200000.0 59027200000.0 44834100000.0 32166600000.0 26573700000.0 30724800000.0 17944100000.0 17856900000.0 18884700000.0 11949500000.0 9756170000.0 9402880000.0 63570900000.0 52574500000.0 37723200000.0 31422500000.0 13873700000.0 11657000000.0 9117110000.0 9195740000.0 9195260000.0 9120800000.0 9651660000.0 13143800000.0 34546300000.0 51833300000.0 42523900000.0 55688400000.0 9439630000.0 9828230000.0 14464300000.0 33775600000.0 9397360000.0 10604600000.0 25194300000.0 26130200000.0 32088800000.0 41748500000.0 55453500000.0 65284400000.0 74250900000.0 66438200000.0 68620300000.0 52012400000.0 53138000000.0 36681100000.0 41396700000.0 38807800000.0 27232900000.0 94137900000.0 26806600000.0 62382300000.0 10162500000.0 50872200000.0 9094660000.0 55192400000.0 9357880000.0 12197300000.0 39649100000.0 22213100000.0 43237200000.0 25758700000.0 18608500000.0 15780300000.0 9035750000.0 13993700000.0 9035750000.0 10467100000.0 27856100000.0 22731900000.0 47007900000.0 44225000000.0 59280000000.0 56017700000.0 64454900000.0 58461000000.0 52059900000.0 39511000000.0 28878500000.0 25532500000.0 28744900000.0 16478900000.0 16800400000.0 18301400000.0 11865900000.0 9748560000.0 9414450000.0 57949200000.0 48986300000.0 34832300000.0 27933800000.0 13421300000.0 11528700000.0 9117070000.0 9193570000.0 9187060000.0 9117120000.0 9619160000.0 12597900000.0 29354100000.0 44378600000.0 39690200000.0 49403700000.0 9423510000.0 9792730000.0 14036200000.0 30137200000.0 9387210000.0 10538300000.0 23557200000.0 24338500000.0 28889300000.0 37147300000.0 48905300000.0 57039600000.0 64655200000.0 57820300000.0 59679800000.0 45575500000.0 46444300000.0 33514600000.0 37497600000.0 34611200000.0 24203100000.0 81008900000.0 22904800000.0 54584400000.0 10149500000.0 43370600000.0 9096230000.0 49039600000.0 9102560000.0 11949100000.0 35839900000.0 20538900000.0 38593800000.0 23024700000.0 15874400000.0 15112400000.0 9035750000.0 13490900000.0 9035750000.0 10344400000.0 24122700000.0 20124900000.0 40402000000.0 38125200000.0 51102000000.0 48207100000.0 55516600000.0 50492900000.0 45531600000.0 34753700000.0 26057500000.0 24131700000.0 26481200000.0 15131100000.0 15729200000.0 17519400000.0 11684400000.0 9714160000.0 9407940000.0 51905300000.0 44803000000.0 31892300000.0 24816800000.0 12920800000.0 11329700000.0 9113830000.0 9185670000.0 9173510000.0 9110340000.0 9566070000.0 12107800000.0 25010500000.0 37719600000.0 36111100000.0 43038800000.0 9396540000.0 9728560000.0 13478700000.0 26557600000.0 9361700000.0 10414300000.0 21634100000.0 22397400000.0 25821500000.0 32661700000.0 42518600000.0 49110400000.0 55443800000.0 49593300000.0 51116500000.0 39419500000.0 40121700000.0 30111900000.0 33380500000.0 30515900000.0 21355000000.0 68670100000.0 19628700000.0 47006900000.0 10081300000.0 36697100000.0 9094270000.0 42862800000.0 9046440000.0 11635800000.0 31827800000.0 18764700000.0 33888600000.0 20520800000.0 13795200000.0 14342100000.0 9035750000.0 12935600000.0 9035750000.0 10189300000.0 21022900000.0 17928900000.0 34427400000.0 32614100000.0 43536900000.0 41058800000.0 47251400000.0 43124700000.0 39371600000.0 30405800000.0 23478300000.0 22381800000.0 24011400000.0 13911900000.0 14663700000.0 16532900000.0 11417100000.0 9654940000.0 9384010000.0 45569400000.0 40111000000.0 28794400000.0 21987100000.0 12383100000.0 11070000000.0 9107550000.0 9172410000.0 9155180000.0 9100750000.0 9494790000.0 11606700000.0 21324800000.0 31695800000.0 31922300000.0 36683600000.0 9354250000.0 9638650000.0 12806200000.0 23092600000.0 9322310000.0 10238100000.0 19512400000.0 20277400000.0 22796500000.0 28264300000.0 36257500000.0 41446600000.0 46549000000.0 41704100000.0 42895000000.0 33507000000.0 34086400000.0 26505400000.0 29091700000.0 26498200000.0 18722800000.0 56960700000.0 16911000000.0 39663700000.0 9963080000.0 30718800000.0 9088930000.0 36675000000.0 9037100000.0 11258600000.0 27704700000.0 16948900000.0 29193700000.0 18199400000.0 12249600000.0 13484600000.0 9035750000.0 12319200000.0 9035750000.0 10009000000.0 18375900000.0 16019400000.0 29007700000.0 27608800000.0 36494900000.0 34460500000.0 39539800000.0 36254900000.0 33498100000.0 26320800000.0 20973200000.0 20328200000.0 21397300000.0 12819700000.0 13610600000.0 15373000000.0 11077200000.0 9573530000.0 9344070000.0 39037500000.0 34991700000.0 25500100000.0 19371500000.0 11814700000.0 10760300000.0 9098490000.0 9154340000.0 9132760000.0 9088750000.0 9408110000.0 11073700000.0 18128400000.0 26157600000.0 27253300000.0 30381600000.0 9298030000.0 9526750000.0 12043700000.0 19761400000.0 9270930000.0 10016900000.0 17259200000.0 17976400000.0 19764000000.0 23921900000.0 30083700000.0 33987800000.0 37899600000.0 34090800000.0 34970500000.0 27800800000.0 28267200000.0 22735800000.0 24680900000.0 22535200000.0 16301300000.0 45739900000.0 14661200000.0 32539500000.0 9801720000.0 25299100000.0 9080490000.0 30479600000.0 9035890000.0 10823900000.0 23528400000.0 15132600000.0 24554800000.0 16015700000.0 11123200000.0 12556900000.0 9035750000.0 11645600000.0 9035750000.0 9809490000.0 16035300000.0 14302500000.0 24050500000.0 23019600000.0 29885700000.0 28305100000.0 32264800000.0 29775800000.0 27832600000.0 22381400000.0 18433100000.0 18030100000.0 18688900000.0 11842700000.0 12570400000.0 14077800000.0 10678300000.0 9473140000.0 9290130000.0 32382400000.0 29523200000.0 22016300000.0 16911500000.0 11220100000.0 10411300000.0 9087020000.0 9132150000.0 9107030000.0 9074810000.0 9309100000.0 10508300000.0 15277700000.0 20971900000.0 22223600000.0 24144700000.0 9230390000.0 9397210000.0 11215600000.0 16556200000.0 9209850000.0 9759100000.0 14923600000.0 15513500000.0 16698600000.0 19606300000.0 23964000000.0 26674600000.0 29429100000.0 26690200000.0 27287800000.0 22256800000.0 22602400000.0 18846200000.0 20192500000.0 18607700000.0 14061400000.0 34879500000.0 12777500000.0 25600000000.0 9605310000.0 20303400000.0 9069470000.0 24277600000.0 9035760000.0 19332900000.0 13338100000.0 19990700000.0 13931100000.0 10309500000.0 11575300000.0 9035750000.0 10924600000.0 9035750000.0 9595440000.0 13892900000.0 12708700000.0 19454300000.0 18751500000.0 23614600000.0 22490600000.0 25318000000.0 23584100000.0 22307800000.0 18506100000.0 15806400000.0 15548500000.0 15923500000.0 10961000000.0 11540300000.0 12683200000.0 10234000000.0 9357470000.0 9224770000.0 25656900000.0 23782800000.0 18373800000.0 14561100000.0 10603900000.0 10032700000.0 9073590000.0 9106630000.0 10341500000.0 9078910000.0 9059440000.0 9201140000.0 9917980000.0 12653300000.0 16022400000.0 16943400000.0 17964500000.0 9154330000.0 9254830000.0 10343300000.0 13451300000.0 9141650000.0 9474610000.0 12539900000.0 12924300000.0 13594500000.0 15298800000.0 17872900000.0 19455000000.0 21077300000.0 19439900000.0 19782600000.0 16827000000.0 17038500000.0 14876900000.0 15660000000.0 14700700000.0 11959300000.0 24262000000.0 11154200000.0 18797600000.0 9383140000.0 15602400000.0 9056490000.0 18069600000.0 9035750000.0 9823370000.0 15135100000.0 11571400000.0 15496300000.0 11912300000.0 9710770000.0 10555100000.0 9035750000.0 10168500000.0 9035750000.0 9371180000.0 11871900000.0 11187800000.0 15113100000.0 14708400000.0 17583700000.0 16917200000.0 18598700000.0 17585800000.0 16870100000.0 14647800000.0 13088600000.0 12940900000.0 13126500000.0 10149500000.0 10517100000.0 11221300000.0 9757730000.0 9230640000.0 9150990000.0 18894900000.0 17847800000.0 14613900000.0 12283300000.0 9971260000.0 9633890000.0 9058730000.0 9078680000.0 9049330000.0 9043210000.0 9087790000.0 9312270000.0 10154900000.0 11206200000.0 11820500000.0 9073160000.0 9104730000.0 9445900000.0 10409300000.0 9069140000.0 9173980000.0 10131600000.0 10255800000.0 10460700000.0 10990600000.0 11793400000.0 12284500000.0 12790100000.0 12277100000.0 12382600000.0 11462700000.0 11529500000.0 10862800000.0 11105500000.0 10803200000.0 9941790000.0 13779100000.0 9684990000.0 12076900000.0 9145380000.0 11072400000.0 9042320000.0 11856400000.0 9035750000.0 10939600000.0 9825710000.0 11049100000.0 9930700000.0 9236640000.0 9511790000.0 9035750000.0 9390950000.0 9035750000.0 9140910000.0 9915660000.0 9704340000.0 10921100000.0 10796300000.0 11693300000.0 11485100000.0 12010900000.0 11696400000.0 11477700000.0 10787500000.0 10305800000.0 10260400000.0 10313900000.0 9380080000.0 9497800000.0 9721040000.0 9262580000.0 9097100000.0 9072110000.0 12115200000.0 10782500000.0 10046300000.0 9328500000.0 9223380000.0 9042990000.0 9049260000.0 11515700000.0 9283270000.0 11795700000.0 