# vtk DataFile Version 2.0
Time step 75
ASCII
DATASET UNSTRUCTURED_GRID
POINTS 4650 float
208618.0 330531.0 0
215164.0 330738.0 0
248151.0 330971.0 0
252142.0 330928.0 0
205279.0 332715.0 0
211823.0 332902.0 0
218735.0 332506.0 0
222688.0 333050.0 0
236040.0 332992.0 0
243057.0 332730.0 0
257135.0 332687.0 0
263625.0 332290.0 0
276718.0 332885.0 0
283909.0 331725.0 0
290659.0 331578.0 0
294509.0 332605.0 0
201998.0 334969.0 0
208510.0 335054.0 0
215339.0 334726.0 0
226026.0 335236.0 0
232691.0 335158.0 0
239662.0 334826.0 0
246652.0 334655.0 0
253634.0 334617.0 0
260548.0 334781.0 0
266960.0 334426.0 0
273394.0 334970.0 0
280538.0 333844.0 0
283942.0 335843.0 0
287326.0 333764.0 0
290720.0 335804.0 0
298001.0 334525.0 0
205253.0 337241.0 0
212006.0 336928.0 0
215537.0 338689.0 0
218896.0 336469.0 0
222729.0 337495.0 0
229390.0 337376.0 0
236308.0 336971.0 0
239884.0 338808.0 0
243249.0 336715.0 0
246754.0 338630.0 0
250156.0 336577.0 0
253600.0 338584.0 0
257061.0 336660.0 0
264084.0 337155.0 0
270024.0 336876.0 0
276622.0 337244.0 0
280506.0 337830.0 0
287332.0 337853.0 0
294574.0 336552.0 0
201993.0 339376.0 0
205414.0 341305.0 0
208715.0 339147.0 0
212224.0 340921.0 0
219097.0 340392.0 0
226093.0 339597.0 0
229676.0 341340.0 0
232976.0 339134.0 0
236566.0 340938.0 0
243399.0 340697.0 0
250214.0 340575.0 0
257008.0 340605.0 0
260474.0 338739.0 0
263806.0 341129.0 0
267270.0 339535.0 0
273173.0 339203.0 0
276575.0 341207.0 0
283904.0 339834.0 0
290719.0 339860.0 0
294575.0 340453.0 0
298005.0 338478.0 0
201996.0 343321.0 0
208888.0 343192.0 0
215782.0 342624.0 0
222787.0 341813.0 0
226369.0 343546.0 0
233293.0 343087.0 0
240092.0 342790.0 0
246878.0 342618.0 0
253644.0 342561.0 0
260353.0 342667.0 0
269162.0 342936.0 0
273089.0 343125.0 0
280462.0 341802.0 0
283871.0 343807.0 0
287300.0 341843.0 0
290690.0 343856.0 0
298005.0 342366.0 0
205433.0 345244.0 0
212465.0 344880.0 0
216059.0 346525.0 0
219376.0 344276.0 0
223054.0 345755.0 0
230076.0 345258.0 0
236828.0 344909.0 0
243580.0 344684.0 0
247040.0 346605.0 0
250328.0 344566.0 0
253773.0 346532.0 0
257057.0 344566.0 0
260791.0 346510.0 0
265569.0 344675.0 0
276475.0 345127.0 0
280427.0 345754.0 0
287276.0 345822.0 0
294560.0 344296.0 0
201996.0 347246.0 0
208849.0 347155.0 0
212377.0 348824.0 0
219662.0 348125.0 0
226912.0 347426.0 0
233613.0 347048.0 0
237100.0 348887.0 0
240319.0 346774.0 0
243778.0 348669.0 0
250492.0 348542.0 0
257352.0 348463.0 0
264237.0 348403.0 0
268909.0 346821.0 0
272836.0 347023.0 0
277866.0 348707.0 0
283854.0 347763.0 0
290661.0 347853.0 0
294546.0 348079.0 0
298006.0 346190.0 0
201994.0 351163.0 0
205411.0 349171.0 0
208793.0 351089.0 0
215936.0 350413.0 0
223806.0 349579.0 0
227321.0 351348.0 0
230445.0 349199.0 0
233920.0 351018.0 0
240550.0 350759.0 0
247219.0 350581.0 0
253973.0 350456.0 0
260796.0 350408.0 0
267584.0 350439.0 0
274422.0 350535.0 0
281235.0 350642.0 0
287245.0 349793.0 0
290610.0 351850.0 0
298005.0 349951.0 0
205379.0 353092.0 0
212271.0 352746.0 0
217768.0 353743.0 0
220795.0 351750.0 0
224246.0 353494.0 0
230777.0 353156.0 0
237357.0 352871.0 0
243975.0 352650.0 0
247384.0 354549.0 0
250657.0 352490.0 0
254061.0 354407.0 0
257401.0 352392.0 0
260782.0 354338.0 0
264171.0 352358.0 0
267539.0 354331.0 0
270964.0 352351.0 0
277778.0 352564.0 0
284588.0 352649.0 0
294513.0 351798.0 0
298009.0 353643.0 0
201991.0 355072.0 0
208724.0 355017.0 0
214721.0 355634.0 0
221158.0 355601.0 0
227661.0 355290.0 0
234195.0 354994.0 0
237586.0 356856.0 0
240765.0 354745.0 0
244152.0 356631.0 0
250768.0 356454.0 0
257429.0 356338.0 0
264134.0 356284.0 0
270871.0 356285.0 0
274305.0 354410.0 0
277643.0 356417.0 0
281124.0 354542.0 0
284438.0 356562.0 0
287920.0 354712.0 0
294609.0 355455.0 0
201985.0 358979.0 0
205326.0 357013.0 0
211618.0 357437.0 0
218034.0 357593.0 0
224542.0 357401.0 0
227912.0 359221.0 0
231055.0 357117.0 0
234427.0 358969.0 0
240953.0 358734.0 0
247515.0 358526.0 0
254120.0 358370.0 0
260767.0 358274.0 0
267460.0 358236.0 0
274186.0 358284.0 0
280950.0 358412.0 0
287697.0 358655.0 0
291139.0 356918.0 0
298008.0 357321.0 0
205191.0 360984.0 0
208425.0 359180.0 0
211648.0 361291.0 0
214867.0 359486.0 0
218189.0 361414.0 0
221387.0 359454.0 0
224742.0 361284.0 0
231268.0 361065.0 0
237778.0 360841.0 0
244297.0 360619.0 0
250851.0 360431.0 0
254159.0 362344.0 0
257442.0 360293.0 0
260741.0 362213.0 0
264081.0 360206.0 0
267374.0 362136.0 0
270763.0 360184.0 0
274047.0 362149.0 0
277483.0 360272.0 0
284209.0 360443.0 0
290993.0 360789.0 0
294499.0 359131.0 0
298003.0 360903.0 0
201979.0 362911.0 0
208408.0 363060.0 0
214949.0 363283.0 0
221530.0 363281.0 0
228087.0 363126.0 0
234609.0 362934.0 0
237932.0 364822.0 0
241107.0 362726.0 0
244414.0 364612.0 0
247618.0 362512.0 0
250913.0 364417.0 0
257442.0 364254.0 0
264022.0 364125.0 0
270647.0 364066.0 0
277304.0 364122.0 0
280745.0 362271.0 0
283970.0 364298.0 0
287441.0 362499.0 0
294414.0 362811.0 0
201977.0 366811.0 0
205183.0 364890.0 0
208420.0 366883.0 0
211684.0 365087.0 0
214990.0 367041.0 0
218276.0 365197.0 0
221606.0 367075.0 0
224868.0 365135.0 0
228199.0 367001.0 0
231422.0 364992.0 0
234744.0 366883.0 0
241235.0 366722.0 0
247697.0 366506.0 0
254183.0 366325.0 0
260711.0 366152.0 0
267288.0 366030.0 0
273899.0 366007.0 0
280527.0 366115.0 0
287157.0 366343.0 0
290631.0 364547.0 0
293845.0 366404.0 0
298002.0 364391.0 0
205180.0 368737.0 0
211690.0 368844.0 0
218307.0 368944.0 0
224929.0 368950.0 0
231521.0 368892.0 0
238049.0 368794.0 0
244515.0 368623.0 0
250957.0 368410.0 0
257439.0 368216.0 0
263970.0 368038.0 0
267217.0 369917.0 0
270536.0 367937.0 0
273758.0 369858.0 0
277120.0 367964.0 0
280296.0 369954.0 0
283703.0 368140.0 0
290349.0 368342.0 0
298020.0 367796.0 0
201976.0 370694.0 0
208414.0 370662.0 0
214985.0 370762.0 0
221615.0 370829.0 0
228248.0 370840.0 0
234832.0 370809.0 0
241335.0 370717.0 0
244595.0 372646.0 0
247770.0 370529.0 0
251003.0 372443.0 0
254200.0 370311.0 0
257455.0 372170.0 0
260694.0 370086.0 0
263941.0 371943.0 0
270445.0 371801.0 0
276943.0 371806.0 0
283403.0 371990.0 0
286832.0 370164.0 0
292243.0 371398.0 0
294983.0 369626.0 0
298045.0 371398.0 0
201971.0 374594.0 0
205169.0 372549.0 0
208429.0 374400.0 0
211676.0 372569.0 0
214908.0 374464.0 0
218265.0 372656.0 0
221534.0 374535.0 0
224918.0 372724.0 0
228225.0 374633.0 0
231564.0 372756.0 0
234877.0 374706.0 0
238129.0 372750.0 0
241403.0 374706.0 0
247828.0 374576.0 0
254256.0 374287.0 0
260706.0 374010.0 0
267177.0 373795.0 0
273646.0 373707.0 0
280063.0 373803.0 0
286145.0 374323.0 0
289231.0 372818.0 0
295423.0 373409.0 0
299003.0 375038.0 0
199449.0 377630.0 0
205289.0 376304.0 0
208432.0 378172.0 0
211615.0 376299.0 0
218109.0 376331.0 0
224810.0 376444.0 0
231554.0 376572.0 0
238174.0 376688.0 0
244648.0 376667.0 0
251080.0 376429.0 0
257510.0 376115.0 0
263950.0 375837.0 0
267182.0 377661.0 0
270395.0 375657.0 0
273584.0 377554.0 0
276802.0 375659.0 0
279866.0 377708.0 0
283009.0 375948.0 0
289102.0 376580.0 0
292260.0 375031.0 0
295480.0 376871.0 0
301214.0 378049.0 0
193087.0 381616.0 0
196262.0 379632.0 0
199388.0 380951.0 0
202472.0 378502.0 0
205439.0 380183.0 0
211511.0 380057.0 0
214760.0 378175.0 0
217858.0 380017.0 0
221269.0 378173.0 0
224360.0 380035.0 0
228137.0 378356.0 0
231495.0 380322.0 0
234883.0 378564.0 0
241447.0 378686.0 0
247905.0 378562.0 0
254343.0 378247.0 0
257617.0 380042.0 0
260765.0 377923.0 0
264012.0 379719.0 0
270398.0 379500.0 0
276724.0 379525.0 0
282902.0 379840.0 0
285985.0 378172.0 0
289029.0 380321.0 0
292189.0 378638.0 0
295076.0 380643.0 0
298146.0 378921.0 0
301034.0 381345.0 0
304220.0 379935.0 0
307265.0 381837.0 0
189924.0 383592.0 0
196191.0 382998.0 0
202416.0 382261.0 0
208413.0 382009.0 0
214562.0 381918.0 0
217576.0 383746.0 0
220904.0 381844.0 0
227402.0 381880.0 0
234844.0 382369.0 0
238194.0 380601.0 0
241494.0 382647.0 0
244716.0 380655.0 0
248006.0 382524.0 0
251182.0 380391.0 0
254488.0 382178.0 0
260888.0 381822.0 0
267245.0 381510.0 0
273587.0 381390.0 0
279827.0 381579.0 0
285950.0 381997.0 0
292002.0 382401.0 0
297959.0 382667.0 0
304126.0 383285.0 0
310346.0 383761.0 0
186768.0 385563.0 0
189831.0 386949.0 0
193007.0 384984.0 0
196094.0 386415.0 0
199280.0 384410.0 0
202299.0 385958.0 0
205366.0 383993.0 0
208300.0 385841.0 0
211389.0 383868.0 0
214350.0 385704.0 0
220584.0 385545.0 0
223942.0 383673.0 0
226976.0 385509.0 0
230405.0 383755.0 0
233361.0 385675.0 0
238186.0 384471.0 0
244805.0 384634.0 0
251352.0 384313.0 0
257807.0 383949.0 0
261099.0 385715.0 0
264140.0 383586.0 0
267371.0 385335.0 0
270463.0 383317.0 0
273664.0 385193.0 0
276747.0 383362.0 0
279870.0 385420.0 0
282908.0 383695.0 0
285955.0 385841.0 0
288965.0 384131.0 0
294940.0 384414.0 0
297927.0 386325.0 0
300996.0 384761.0 0
304136.0 386665.0 0
307245.0 385189.0 0
310382.0 387104.0 0
313451.0 385699.0 0
180472.0 389495.0 0
183617.0 387530.0 0
186664.0 388908.0 0
192901.0 388379.0 0
199163.0 387930.0 0
205258.0 387789.0 0
211225.0 387699.0 0
217321.0 387497.0 0
223610.0 387336.0 0
229993.0 387424.0 0
236280.0 387607.0 0
241540.0 386586.0 0
248180.0 386440.0 0
254748.0 386069.0 0
258125.0 387846.0 0
264345.0 387443.0 0
270589.0 387093.0 0
276823.0 387172.0 0
282946.0 387543.0 0
288972.0 387972.0 0
291945.0 386206.0 0
294920.0 388183.0 0
297960.0 389931.0 0
301035.0 388217.0 0
307306.0 388555.0 0
313525.0 389035.0 0
316569.0 387646.0 0
319686.0 389594.0 0
177330.0 391459.0 0
183509.0 390864.0 0
186546.0 392286.0 0
189713.0 390334.0 0
192760.0 391798.0 0
195969.0 389863.0 0
199029.0 391453.0 0
202191.0 389629.0 0
208172.0 389688.0 0
214162.0 389512.0 0
217144.0 391271.0 0
220320.0 389256.0 0
223343.0 390999.0 0
226648.0 389145.0 0
229654.0 391108.0 0
232965.0 389417.0 0
239201.0 389517.0 0
242222.0 391305.0 0
244963.0 388601.0 0
248587.0 390240.0 0
251678.0 388164.0 0
255179.0 389928.0 0
261431.0 389625.0 0
267558.0 389130.0 0
273773.0 388965.0 0
276869.0 390977.0 0
279916.0 389250.0 0
282961.0 391383.0 0
285988.0 389693.0 0
291974.0 390038.0 0
301139.0 391661.0 0
304226.0 390060.0 0
307435.0 391939.0 0
310479.0 390468.0 0
316654.0 390976.0 0
322802.0 391541.0 0
174191.0 393420.0 0
177230.0 394782.0 0
180366.0 392820.0 0
183410.0 394234.0 0
189574.0 393753.0 0
195807.0 393319.0 0
198869.0 394937.0 0
202079.0 393258.0 0
205150.0 391603.0 0
208040.0 393560.0 0
211081.0 391551.0 0
214053.0 393336.0 0
220170.0 392993.0 0
226374.0 392753.0 0
232539.0 393192.0 0
235889.0 391418.0 0
238833.0 393373.0 0
245650.0 392510.0 0
252206.0 391949.0 0
258619.0 391765.0 0
262069.0 393637.0 0
264658.0 391306.0 0
267763.0 392922.0 0
270729.0 390824.0 0
273814.0 392725.0 0
279885.0 393076.0 0
286009.0 393524.0 0
289026.0 391824.0 0
292062.0 393902.0 0
294967.0 391985.0 0
298048.0 393465.0 0
301345.0 395054.0 0
304392.0 393460.0 0
310590.0 393874.0 0
313618.0 392405.0 0
316722.0 394344.0 0
319768.0 392919.0 0
322878.0 394865.0 0
325916.0 393487.0 0
167889.0 397357.0 0
171047.0 395385.0 0
174091.0 396732.0 0
180282.0 396176.0 0
186450.0 395711.0 0
189474.0 397234.0 0
192588.0 395245.0 0
195590.0 396770.0 0
201973.0 396791.0 0
205043.0 395470.0 0
210973.0 395404.0 0
217119.0 395062.0 0
220269.0 396771.0 0
223212.0 394694.0 0
229296.0 394823.0 0
235303.0 395214.0 0
241981.0 395063.0 0
246548.0 396042.0 0
249324.0 393975.0 0
252761.0 395792.0 0
255675.0 393777.0 0
259101.0 395626.0 0
265547.0 395570.0 0
270736.0 394519.0 0
276752.0 394790.0 0
282918.0 395193.0 0
289061.0 395655.0 0
295088.0 395874.0 0
298276.0 396818.0 0
304568.0 396895.0 0
307573.0 395368.0 0
310640.0 397350.0 0
313675.0 395826.0 0
319822.0 396273.0 0
325994.0 396800.0 0
329040.0 395439.0 0
332179.0 397400.0 0
164710.0 399343.0 0
170938.0 398679.0 0
174002.0 400067.0 0
177149.0 398134.0 0
180226.0 399550.0 0
183348.0 397640.0 0
186412.0 399187.0 0
192481.0 398760.0 0
198586.0 398331.0 0
201595.0 399996.0 0
207906.0 397466.0 0
210984.0 399212.0 0
214046.0 397127.0 0
217208.0 398808.0 0
223569.0 398452.0 0
226265.0 396352.0 0
227825.0 399305.0 0
231781.0 397052.0 0
234611.0 398970.0 0
238155.0 397137.0 0
240705.0 399389.0 0
243818.0 397965.0 0
249887.0 397821.0 0
256143.0 397644.0 0
262531.0 397480.0 0
269124.0 397542.0 0
273489.0 396483.0 0
276480.0 398497.0 0
279755.0 396859.0 0
282803.0 398959.0 0
285963.0 397319.0 0
292122.0 397758.0 0
298446.0 399947.0 0
301560.0 398440.0 0
307614.0 398878.0 0
313671.0 399293.0 0
316749.0 397744.0 0
319849.0 399642.0 0
322933.0 398215.0 0
326061.0 400134.0 0
329129.0 398736.0 0
335341.0 399375.0 0
161503.0 401346.0 0
164555.0 402595.0 0
167761.0 400632.0 0
170830.0 401991.0 0
177081.0 401512.0 0
183332.0 401066.0 0
186444.0 402701.0 0
189459.0 400784.0 0
192503.0 402337.0 0
195485.0 400301.0 0
198516.0 401810.0 0
204866.0 399475.0 0
207948.0 401323.0 0
214156.0 400884.0 0
220471.0 400434.0 0
223907.0 401887.0 0
231048.0 400774.0 0
237374.0 400985.0 0
243716.0 401552.0 0
246952.0 399819.0 0
250163.0 401660.0 0
253187.0 399670.0 0
256519.0 401505.0 0
259526.0 399479.0 0
262932.0 401293.0 0
266010.0 399350.0 0
269519.0 401258.0 0
272931.0 399905.0 0
276193.0 402054.0 0
279562.0 400564.0 0
285843.0 401087.0 0
289003.0 399445.0 0
292010.0 401586.0 0
295132.0 399862.0 0
301447.0 401883.0 0
304574.0 400419.0 0
307533.0 402434.0 0
310604.0 400888.0 0
313605.0 402793.0 0
316732.0 401162.0 0
322976.0 401587.0 0
329218.0 402048.0 0
332289.0 400679.0 0
335480.0 402634.0 0
338531.0 401368.0 0
154986.0 405416.0 0
158265.0 403368.0 0
161316.0 404573.0 0
167626.0 403921.0 0
170718.0 405314.0 0
173917.0 403419.0 0
177017.0 404914.0 0
180193.0 402916.0 0
183364.0 404483.0 0
189536.0 404391.0 0
195592.0 403888.0 0
198827.0 405229.0 0
201793.0 403111.0 0
205064.0 403575.0 0
211141.0 402994.0 0
217387.0 402510.0 0
220696.0 404030.0 0
227336.0 402941.0 0
233954.0 402755.0 0
240298.0 403064.0 0
246914.0 403479.0 0
253455.0 403504.0 0
259885.0 403310.0 0
266341.0 403120.0 0
272852.0 403490.0 0
279380.0 404217.0 0
282642.0 402692.0 0
288846.0 403233.0 0
294875.0 403843.0 0
298096.0 403092.0 0
301115.0 405261.0 0
304390.0 403955.0 0
310495.0 404475.0 0
316676.0 404572.0 0
319856.0 403003.0 0
323018.0 404981.0 0
326126.0 403483.0 0
329314.0 405370.0 0
332408.0 403971.0 0
338703.0 404605.0 0
341754.0 403381.0 0
345014.0 405417.0 0
151666.0 407490.0 0
158032.0 406564.0 0
161096.0 407808.0 0
164386.0 405858.0 0
167479.0 407218.0 0
173832.0 406786.0 0
180171.0 406229.0 0
183439.0 407853.0 0
186547.0 406234.0 0
189694.0 408066.0 0
192641.0 405918.0 0
195857.0 407443.0 0
202231.0 406378.0 0
208219.0 405176.0 0
211383.0 406796.0 0
214351.0 404633.0 0
217588.0 406209.0 0
223996.0 405447.0 0
227252.0 406745.0 0
230524.0 404596.0 0
233588.0 406532.0 0
236925.0 404737.0 0
239944.0 406729.0 0
243343.0 405057.0 0
246349.0 406938.0 0
250229.0 405381.0 0
256821.0 405324.0 0
263251.0 405104.0 0
266551.0 406947.0 0
269651.0 405064.0 0
272911.0 407178.0 0
276120.0 405680.0 0
282497.0 406420.0 0
285680.0 404855.0 0
288639.0 407054.0 0
291764.0 405433.0 0
297775.0 406464.0 0
304138.0 407475.0 0
307364.0 405979.0 0
310330.0 408128.0 0
313485.0 406314.0 0
316593.0 407938.0 0
319857.0 406313.0 0
326198.0 406841.0 0
332539.0 407271.0 0
335633.0 405903.0 0
338904.0 407851.0 0
341968.0 406593.0 0
348311.0 407477.0 0
148309.0 409589.0 0
151358.0 410641.0 0
154709.0 408586.0 0
157778.0 409769.0 0
164174.0 409120.0 0
167260.0 410503.0 0
170602.0 408641.0 0
173761.0 410163.0 0
176950.0 408360.0 0
180151.0 409404.0 0
186729.0 409769.0 0
192838.0 409447.0 0
199190.0 408589.0 0
202520.0 409910.0 0
205400.0 407468.0 0
208490.0 409038.0 0
214558.0 408407.0 0
217748.0 409964.0 0
220829.0 407697.0 0
224055.0 409114.0 0
230356.0 408468.0 0
236642.0 408492.0 0
242967.0 408685.0 0
249250.0 408752.0 0
252160.0 410420.0 0
253665.0 407244.0 0
257120.0 409099.0 0
260199.0 407129.0 0
263525.0 408951.0 0
269792.0 408876.0 0
276152.0 409360.0 0
279313.0 407913.0 0
285519.0 408657.0 0
291546.0 409273.0 0
294625.0 407721.0 0
297560.0 410023.0 0
300841.0 408649.0 0
307190.0 409490.0 0
313297.0 409841.0 0
319884.0 409497.0 0
323077.0 408413.0 0
326256.0 410211.0 0
329416.0 408697.0 0
332739.0 410562.0 0
335825.0 409173.0 0
342198.0 409819.0 0
345267.0 408612.0 0
348590.0 410662.0 0
351642.0 409560.0 0
144928.0 411705.0 0
147984.0 412746.0 0
154449.0 411772.0 0
157567.0 413001.0 0
160859.0 411059.0 0
163936.0 412399.0 0
170338.0 411919.0 0
176923.0 411906.0 0
180331.0 412324.0 0
183557.0 411114.0 0
189819.0 411902.0 0
193223.0 412719.0 0
196258.0 411016.0 0
199560.0 411960.0 0
205640.0 411307.0 0
211572.0 410615.0 0
214776.0 412208.0 0
220890.0 411431.0 0
227193.0 410591.0 0
233425.0 410358.0 0
239694.0 410458.0 0
242757.0 412405.0 0
245973.0 410590.0 0
249016.0 412417.0 0
255133.0 411994.0 0
260524.0 410956.0 0
266783.0 410807.0 0
273022.0 410894.0 0
279319.0 411667.0 0
282401.0 410199.0 0
285352.0 412510.0 0
288457.0 410906.0 0
294430.0 411577.0 0
300610.0 412052.0 0
303821.0 411046.0 0
306819.0 412785.0 0
310204.0 411958.0 0
316473.0 411196.0 0
319698.0 412428.0 0
323088.0 411949.0 0
329660.0 411981.0 0
336042.0 412464.0 0
339118.0 411115.0 0
342383.0 413074.0 0
345498.0 411827.0 0
351938.0 412761.0 0
354998.0 411660.0 0
138192.0 415924.0 0
141546.0 413822.0 0
144603.0 414911.0 0
147742.0 415921.0 0
151098.0 413804.0 0
154255.0 414981.0 0
160693.0 414363.0 0
163815.0 415756.0 0
166986.0 413821.0 0
169964.0 415238.0 0
173372.0 413430.0 0
176106.0 415324.0 0
183075.0 414458.0 0
186499.0 413301.0 0
189066.0 415763.0 0
196205.0 414834.0 0
199701.0 415087.0 0
202948.0 413614.0 0
208550.0 412931.0 0
211898.0 414323.0 0
217799.0 413826.0 0
220906.0 415194.0 0
224039.0 412871.0 0
227146.0 414421.0 0
230272.0 412335.0 0
233327.0 414204.0 0
236489.0 412292.0 0
239578.0 414232.0 0
245864.0 414298.0 0
252120.0 414127.0 0
258180.0 413562.0 0
261288.0 415195.0 0
263852.0 412827.0 0
267112.0 414703.0 0
269993.0 412694.0 0
273176.0 414614.0 0
276220.0 413053.0 0
282346.0 414071.0 0
288175.0 414764.0 0
291421.0 413096.0 0
297287.0 413671.0 0
300380.0 415229.0 0
303833.0 414892.0 0
310944.0 415828.0 0
313515.0 413370.0 0
316928.0 414540.0 0
323873.0 415387.0 0
326617.0 413471.0 0
330021.0 415307.0 0
332994.0 413891.0 0
339259.0 414436.0 0
345668.0 415067.0 0
348821.0 413862.0 0
352155.0 415976.0 0
355293.0 414906.0 0
358362.0 413767.0 0
361710.0 415864.0 0
134894.0 417993.0 0
141260.0 417106.0 0
144411.0 418137.0 0
150942.0 416983.0 0
154181.0 418225.0 0
157430.0 416256.0 0
160592.0 417715.0 0
166932.0 417299.0 0
172751.0 416823.0 0
175083.0 418668.0 0
179403.0 415118.0 0
181909.0 417637.0 0
185544.0 416811.0 0
192540.0 415778.0 0
202320.0 417324.0 0
205804.0 415854.0 0
209257.0 416469.0 0
214781.0 416193.0 0
217856.0 417729.0 0
224059.0 416656.0 0
230174.0 416196.0 0
236418.0 416104.0 0
242716.0 416148.0 0
249028.0 416112.0 0
252239.0 417842.0 0
255270.0 415766.0 0
258446.0 417404.0 0
264445.0 416907.0 0
270323.0 416555.0 0
276279.0 416771.0 0
279258.0 415466.0 0
281978.0 417954.0 0
285195.0 416616.0 0
291119.0 416653.0 0
294404.0 415671.0 0
297720.0 417448.0 0
307476.0 415855.0 0
314463.0 416887.0 0
318095.0 417734.0 0
320578.0 415234.0 0
324970.0 418756.0 0
327229.0 416833.0 0
333015.0 417385.0 0
336136.0 415835.0 0
339350.0 417795.0 0
342504.0 416354.0 0
345736.0 418343.0 0
348961.0 417077.0 0
355486.0 418172.0 0
358634.0 417082.0 0
365004.0 417929.0 0
131679.0 420012.0 0
137975.0 419319.0 0
141134.0 420425.0 0
147631.0 419111.0 0
150912.0 420166.0 0
157426.0 419544.0 0
163709.0 419115.0 0
166752.0 420764.0 0
170061.0 418828.0 0
172931.0 421235.0 0
178379.0 418239.0 0
184067.0 420210.0 0
187668.0 419429.0 0
191140.0 418944.0 0
194856.0 418391.0 0
198421.0 418055.0 0
204578.0 420000.0 0
208195.0 419653.0 0
212060.0 418805.0 0
221174.0 418906.0 0
226985.0 418256.0 0
230006.0 420003.0 0
233248.0 418032.0 0
236422.0 419886.0 0
239572.0 418004.0 0
242771.0 419891.0 0
245906.0 418016.0 0
249145.0 419819.0 0
255474.0 419529.0 0
261648.0 419088.0 0
267655.0 418681.0 0
273533.0 418355.0 0
278603.0 419563.0 0
288209.0 418842.0 0
291926.0 419903.0 0
295510.0 420182.0 0
301627.0 418173.0 0
305173.0 418477.0 0
308881.0 419021.0 0
312344.0 419504.0 0
315941.0 420295.0 0
321653.0 418333.0 0
327064.0 421380.0 0
329869.0 418919.0 0
333196.0 420850.0 0
336234.0 419200.0 0
342507.0 419669.0 0
349001.0 420292.0 0
352272.0 419200.0 0
358771.0 420439.0 0
361921.0 419271.0 0
368222.0 419947.0 0
125370.0 423951.0 0
128535.0 421980.0 0
131709.0 423657.0 0
134790.0 421526.0 0
137956.0 422774.0 0
141222.0 423775.0 0
144370.0 421384.0 0
147668.0 422309.0 0
151008.0 423343.0 0
154214.0 421503.0 0
157485.0 422805.0 0
160654.0 421182.0 0
163858.0 422553.0 0
169617.0 422055.0 0
176731.0 421439.0 0
180406.0 420903.0 0
186096.0 422911.0 0
189696.0 422349.0 0
193345.0 421779.0 0
197028.0 421340.0 0
200806.0 420709.0 0
206740.0 423025.0 0
210604.0 422383.0 0
214452.0 421648.0 0
218292.0 421516.0 0
222693.0 421925.0 0
226509.0 421903.0 0
233246.0 421781.0 0
239623.0 421767.0 0
246019.0 421737.0 0
252414.0 421567.0 0
258725.0 421220.0 0
262001.0 422940.0 0
264889.0 420823.0 0
268210.0 422569.0 0
270958.0 420457.0 0
274634.0 421789.0 0
277941.0 423165.0 0
281953.0 421573.0 0
285718.0 421548.0 0
289471.0 422573.0 0
293344.0 423240.0 0
299254.0 420845.0 0
303016.0 421458.0 0
306681.0 421875.0 0
310321.0 422433.0 0
313915.0 422994.0 0
319609.0 420990.0 0
323283.0 421531.0 0
330375.0 422166.0 0
336080.0 422648.0 0
339289.0 421259.0 0
342461.0 422966.0 0
345713.0 421654.0 0
348913.0 423500.0 0
352259.0 422429.0 0
355552.0 421459.0 0
358739.0 423841.0 0
361959.0 422756.0 0
365109.0 421444.0 0
368218.0 423523.0 0
371404.0 421937.0 0
374603.0 423934.0 0
122072.0 426007.0 0
128601.0 425566.0 0
134890.0 425159.0 0
138201.0 426257.0 0
144560.0 424658.0 0
147929.0 425530.0 0
154317.0 424858.0 0
157436.0 426010.0 0
160632.0 424741.0 0
163904.0 425601.0 0
167250.0 424565.0 0
171213.0 424684.0 0
174818.0 424299.0 0
178673.0 424088.0 0
182422.0 423547.0 0
188091.0 425746.0 0
191777.0 425193.0 0
195473.0 424681.0 0
199237.0 424124.0 0
203001.0 423518.0 0
212618.0 425397.0 0
216328.0 424953.0 0
220080.0 424842.0 0
223768.0 425269.0 0
227068.0 425585.0 0
230018.0 423627.0 0
236453.0 423652.0 0
239701.0 425518.0 0
242871.0 423631.0 0
246155.0 425465.0 0
249301.0 423538.0 0
252605.0 425304.0 0
255700.0 423292.0 0
259003.0 425018.0 0
265333.0 424673.0 0
271720.0 424156.0 0
280839.0 424956.0 0
284250.0 425059.0 0
287682.0 425726.0 0
297067.0 423694.0 0
300807.0 424268.0 0
304555.0 424802.0 0
308241.0 425292.0 0
311922.0 425833.0 0
317593.0 423632.0 0
321345.0 424183.0 0
325196.0 424424.0 0
328812.0 424821.0 0
332758.0 424693.0 0
336103.0 425745.0 0
339303.0 424793.0 0
342416.0 426241.0 0
345587.0 425052.0 0
352051.0 425663.0 0
355423.0 424763.0 0
361812.0 426311.0 0
365045.0 425067.0 0
371378.0 425461.0 0
377897.0 425988.0 0
118802.0 428056.0 0
125194.0 427352.0 0
128236.0 429020.0 0
131849.0 427398.0 0
135352.0 428820.0 0
141599.0 427141.0 0
144956.0 427966.0 0
148257.0 428744.0 0
151355.0 426518.0 0
154759.0 428481.0 0
158464.0 428809.0 0
161861.0 428260.0 0
165757.0 428115.0 0
169296.0 427614.0 0
173096.0 427501.0 0
176832.0 427145.0 0
180652.0 426790.0 0
184402.0 426282.0 0
193830.0 428072.0 0
197578.0 427537.0 0
201338.0 426991.0 0
205086.0 426471.0 0
208868.0 425913.0 0
218226.0 428272.0 0
221917.0 428267.0 0
230080.0 427470.0 0
233248.0 425532.0 0
236506.0 427403.0 0
242984.0 427370.0 0
249463.0 427269.0 0
255924.0 427054.0 0
262341.0 426750.0 0
268773.0 426352.0 0
272229.0 427999.0 0
275141.0 425676.0 0
278351.0 427465.0 0
281923.0 428419.0 0
291266.0 426153.0 0
294986.0 426685.0 0
298702.0 427169.0 0
302443.0 427682.0 0
306182.0 428190.0 0
315613.0 426365.0 0
319370.0 426879.0 0
323199.0 427253.0 0
326954.0 427629.0 0
330770.0 427761.0 0
334326.0 428271.0 0
338260.0 428390.0 0
341645.0 429135.0 0
345258.0 428682.0 0
348622.0 426679.0 0
351775.0 428889.0 0
355084.0 428086.0 0
358453.0 427249.0 0
364770.0 428786.0 0
368129.0 427165.0 0
371656.0 428855.0 0
374768.0 427362.0 0
381179.0 428041.0 0
115598.0 430067.0 0
118655.0 431653.0 0
121899.0 429490.0 0
125036.0 430779.0 0
130828.0 430849.0 0
138927.0 429725.0 0
142396.0 430587.0 0
145839.0 431367.0 0
151521.0 429479.0 0
163848.0 431176.0 0
167590.0 430944.0 0
171253.0 430587.0 0
175041.0 430333.0 0
178819.0 429967.0 0
182616.0 429569.0 0
186372.0 429099.0 0
190105.0 428588.0 0
195861.0 430960.0 0
199616.0 430446.0 0
203368.0 429943.0 0
207121.0 429434.0 0
210854.0 428955.0 0
214558.0 428538.0 0
223692.0 431423.0 0
226621.0 429216.0 0
233301.0 429302.0 0
239793.0 429264.0 0
246291.0 429202.0 0
252789.0 429050.0 0
256133.0 430817.0 0
259266.0 428798.0 0
262642.0 430530.0 0
265741.0 428462.0 0
269174.0 430154.0 0
275635.0 429728.0 0
285495.0 428788.0 0
289173.0 429260.0 0
292881.0 429676.0 0
296626.0 430146.0 0
300374.0 430612.0 0
309904.0 428685.0 0
313639.0 429183.0 0
317402.0 429650.0 0
321214.0 430056.0 0
325017.0 430441.0 0
328833.0 430728.0 0
332510.0 431110.0 0
336253.0 431350.0 0
348518.0 429661.0 0
354237.0 431508.0 0
357696.0 430706.0 0
361208.0 429857.0 0
366091.0 432150.0 0
368755.0 430611.0 0
374946.0 430836.0 0
378075.0 429450.0 0
381323.0 431575.0 0
384414.0 430069.0 0
109408.0 433947.0 0
112515.0 432009.0 0
121567.0 433028.0 0
127894.0 432889.0 0
131009.0 434624.0 0
133652.0 431968.0 0
136805.0 432531.0 0
140141.0 433326.0 0
149332.0 432035.0 0
153114.0 432042.0 0
156518.0 431675.0 0
160239.0 431598.0 0
169443.0 433836.0 0
173187.0 433502.0 0
176984.0 433186.0 0
180779.0 432813.0 0
184572.0 432408.0 0
188346.0 431951.0 0
192104.0 431466.0 0
201607.0 433416.0 0
205355.0 432942.0 0
209085.0 432492.0 0
212789.0 432092.0 0
216460.0 431790.0 0
220093.0 431638.0 0
226802.0 433098.0 0
229984.0 431146.0 0
233347.0 433018.0 0
236588.0 431154.0 0
239883.0 433018.0 0
243096.0 431116.0 0
246418.0 432951.0 0
249617.0 431013.0 0
252957.0 432806.0 0
259497.0 432570.0 0
266040.0 432247.0 0
272617.0 431857.0 0
279294.0 431253.0 0
283166.0 431925.0 0
286959.0 432331.0 0
290761.0 432732.0 0
294542.0 433145.0 0
298321.0 433588.0 0
304130.0 431094.0 0
307888.0 431574.0 0
311650.0 432039.0 0
315432.0 432484.0 0
319242.0 432885.0 0
323063.0 433265.0 0
326899.0 433608.0 0
339817.0 431845.0 0
343563.0 431971.0 0
346957.0 432261.0 0
350739.0 432212.0 0
359856.0 433515.0 0
363085.0 432859.0 0
368814.0 434512.0 0
371839.0 432411.0 0
375120.0 434324.0 0
378231.0 432964.0 0
387572.0 432046.0 0
390647.0 433973.0 0
106248.0 435916.0 0
109582.0 437599.0 0
112714.0 435732.0 0
115785.0 433807.0 0
119117.0 435543.0 0
124322.0 434014.0 0
126242.0 436164.0 0
134447.0 435507.0 0
137856.0 436168.0 0
143593.0 434068.0 0
147156.0 434690.0 0
150913.0 434952.0 0
154626.0 434943.0 0
158258.0 434669.0 0
162000.0 434448.0 0
165693.0 434114.0 0
178919.0 436064.0 0
182725.0 435691.0 0
186526.0 435285.0 0
190312.0 434843.0 0
194087.0 434375.0 0
197852.0 433895.0 0
207310.0 436009.0 0
211034.0 435620.0 0
214748.0 435297.0 0
218477.0 435068.0 0
222299.0 434877.0 0
230166.0 434892.0 0
236649.0 434908.0 0
243199.0 434872.0 0
249753.0 434770.0 0
256313.0 434584.0 0
262880.0 434313.0 0
269442.0 433954.0 0
272847.0 435625.0 0
276190.0 433510.0 0
280782.0 434873.0 0
284753.0 435431.0 0
288643.0 435788.0 0
292477.0 436182.0 0
302096.0 434037.0 0
305874.0 434491.0 0
309658.0 434936.0 0
313454.0 435359.0 0
317268.0 435752.0 0
321095.0 436119.0 0
330684.0 434005.0 0
334432.0 434332.0 0
338080.0 434726.0 0
341801.0 434969.0 0
345451.0 435225.0 0
349167.0 435177.0 0
352922.0 434874.0 0
356462.0 434240.0 0
362170.0 436465.0 0
365555.0 435767.0 0
371949.0 435822.0 0
381355.0 435217.0 0
384451.0 433706.0 0
387445.0 435799.0 0
390516.0 437552.0 0
393799.0 435936.0 0
99713.6 439996.0 0
103015.0 437934.0 0
106340.0 439502.0 0
116019.0 437539.0 0
122539.0 437265.0 0
129006.0 437552.0 0
132145.0 438370.0 0
141356.0 436851.0 0
144958.0 437444.0 0
148692.0 437808.0 0
152466.0 437948.0 0
156241.0 437858.0 0
159990.0 437602.0 0
163766.0 437346.0 0
167528.0 437038.0 0
171317.0 436735.0 0
175108.0 436403.0 0
184667.0 438600.0 0
188473.0 438201.0 0
192267.0 437774.0 0
196047.0 437330.0 0
199814.0 436881.0 0
203569.0 436435.0 0
212970.0 438803.0 0
216673.0 438538.0 0
220348.0 438339.0 0
223883.0 438234.0 0
226987.0 436727.0 0
230146.0 438702.0 0
233415.0 436803.0 0
236728.0 438682.0 0
239964.0 436780.0 0
243281.0 438643.0 0
246526.0 436714.0 0
249868.0 438540.0 0
253102.0 436573.0 0
256462.0 438364.0 0
259680.0 436349.0 0
263052.0 438105.0 0
266274.0 436049.0 0
269682.0 437779.0 0
276122.0 437252.0 0
279446.0 438398.0 0
283011.0 438705.0 0
286713.0 438917.0 0
296282.0 436592.0 0
300078.0 437017.0 0
303871.0 437445.0 0
307669.0 437868.0 0
311476.0 438275.0 0
315293.0 438656.0 0
324941.0 436464.0 0
328786.0 436839.0 0
332640.0 437279.0 0
336367.0 437688.0 0
340102.0 437967.0 0
343830.0 438188.0 0
347622.0 438222.0 0
351412.0 438029.0 0
355146.0 437652.0 0
358721.0 437085.0 0
368218.0 438383.0 0
371628.0 439011.0 0
375003.0 437871.0 0
378214.0 436563.0 0
384325.0 437491.0 0
393821.0 439402.0 0
397057.0 437969.0 0
400353.0 440031.0 0
96384.0 442080.0 0
103006.0 441495.0 0
109692.0 441220.0 0
112897.0 439490.0 0
116177.0 441333.0 0
119338.0 439282.0 0
122611.0 441080.0 0
125783.0 439481.0 0
129318.0 441109.0 0
135534.0 439096.0 0
139080.0 439696.0 0
142722.0 440268.0 0
146461.0 440688.0 0
150254.0 440914.0 0
154082.0 440933.0 0
157932.0 440768.0 0
161751.0 440524.0 0
165571.0 440255.0 0
169388.0 439952.0 0
173210.0 439642.0 0
177029.0 439314.0 0
180851.0 438971.0 0
190412.0 441158.0 0
194209.0 440750.0 0
197992.0 440332.0 0
201760.0 439915.0 0
205514.0 439510.0 0
209251.0 439133.0 0
222502.0 441655.0 0
226773.0 440598.0 0
233493.0 440572.0 0
240024.0 440566.0 0
246614.0 440490.0 0
253222.0 440354.0 0
259828.0 440147.0 0
266414.0 439851.0 0
273092.0 439538.0 0
276722.0 441094.0 0
290489.0 439260.0 0
294284.0 439639.0 0
298083.0 440035.0 0
301884.0 440439.0 0
305690.0 440840.0 0
309503.0 441231.0 0
319121.0 439012.0 0
322960.0 439344.0 0
326810.0 439676.0 0
330694.0 440047.0 0
334633.0 440659.0 0
338430.0 440999.0 0
342196.0 441220.0 0
346021.0 441268.0 0
349869.0 441166.0 0
353688.0 440910.0 0
357438.0 440514.0 0
361086.0 439985.0 0
364674.0 439335.0 0
367128.0 442165.0 0
370672.0 442110.0 0
377807.0 440221.0 0
381127.0 438953.0 0
384021.0 441315.0 0
387284.0 439670.0 0
390542.0 440972.0 0
397133.0 441448.0 0
403638.0 442091.0 0
93055.6 444165.0 0
99673.6 443589.0 0
102986.0 445077.0 0
106325.0 443044.0 0
109678.0 444729.0 0
113022.0 443348.0 0
119475.0 443086.0 0
126114.0 442940.0 0
130190.0 444738.0 0
132923.0 441948.0 0
136673.0 442547.0 0
140415.0 443119.0 0
144198.0 443588.0 0
148021.0 443895.0 0
151877.0 443993.0 0
155807.0 443867.0 0
159696.0 443689.0 0
163559.0 443446.0 0
167423.0 443166.0 0
171275.0 442873.0 0
175118.0 442569.0 0
178953.0 442249.0 0
182782.0 441910.0 0
186602.0 441546.0 0
196145.0 443769.0 0
199930.0 443379.0 0
203701.0 442996.0 0
207458.0 442632.0 0
211202.0 442302.0 0
214940.0 442021.0 0
218691.0 441794.0 0
227294.0 444247.0 0
230287.0 442422.0 0
236753.0 442488.0 0
243344.0 442428.0 0
249962.0 442323.0 0
256583.0 442160.0 0
263195.0 441926.0 0
269728.0 441589.0 0
272913.0 443316.0 0
280858.0 441922.0 0
284728.0 442147.0 0
288523.0 442403.0 0
292315.0 442734.0 0
296112.0 443097.0 0
299915.0 443473.0 0
303725.0 443853.0 0
313323.0 441601.0 0
317148.0 441947.0 0
320977.0 442269.0 0
324805.0 442575.0 0
328634.0 442880.0 0
332471.0 443234.0 0
336778.0 444040.0 0
340566.0 444341.0 0
344411.0 444367.0 0
348283.0 444302.0 0
352153.0 444122.0 0
355991.0 443839.0 0
359764.0 443434.0 0
363469.0 442882.0 0
369533.0 445373.0 0
374349.0 441388.0 0
377050.0 443831.0 0
380601.0 442662.0 0
386947.0 443625.0 0
390486.0 444190.0 0
393869.0 442839.0 0
397054.0 444982.0 0
400374.0 443585.0 0
406911.0 444144.0 0
89740.2 446244.0 0
93088.6 447880.0 0
96368.7 445731.0 0
99716.8 447230.0 0
106321.0 446579.0 0
109711.0 448102.0 0
116324.0 445189.0 0
119710.0 446851.0 0
122916.0 444761.0 0
126689.0 446383.0 0
134225.0 445326.0 0
138065.0 445961.0 0
141895.0 446491.0 0
145748.0 446879.0 0
157622.0 446823.0 0
161520.0 446629.0 0
165430.0 446359.0 0
169317.0 446093.0 0
173183.0 445817.0 0
177035.0 445526.0 0
180877.0 445215.0 0
184710.0 444883.0 0
188533.0 444528.0 0
192345.0 444155.0 0
201869.0 446467.0 0
205645.0 446118.0 0
209408.0 445794.0 0
213156.0 445508.0 0
216881.0 445270.0 0
220555.0 445093.0 0
224087.0 445032.0 0
230187.0 446387.0 0
233467.0 444415.0 0
236742.0 446297.0 0
240056.0 444362.0 0
243396.0 446220.0 0
246687.0 444278.0 0
250040.0 446122.0 0
253319.0 444150.0 0
256678.0 445971.0 0
259949.0 443961.0 0
263317.0 445767.0 0
266551.0 443715.0 0
269888.0 445540.0 0
276005.0 444792.0 0
279341.0 445322.0 0
282916.0 445405.0 0
286624.0 445615.0 0
290380.0 445886.0 0
294163.0 446206.0 0
297962.0 446550.0 0
307541.0 444226.0 0
311363.0 444585.0 0
315189.0 444923.0 0
319014.0 445240.0 0
322834.0 445536.0 0
326643.0 445818.0 0
330435.0 446095.0 0
334244.0 446305.0 0
339155.0 447639.0 0
358313.0 446818.0 0
362121.0 446380.0 0
365881.0 445794.0 0
373312.0 444773.0 0
379825.0 446303.0 0
383454.0 445090.0 0
389993.0 447340.0 0
393620.0 446274.0 0
400209.0 447179.0 0
403598.0 445723.0 0
406821.0 447854.0 0
410172.0 446190.0 0
83145.7 450379.0 0
86442.3 448312.0 0
89832.7 450029.0 0
96483.0 449424.0 0
103093.0 448699.0 0
106514.0 450133.0 0
113246.0 447315.0 0
116615.0 449103.0 0
123204.0 448345.0 0
131893.0 448067.0 0
135723.0 448784.0 0
139560.0 449391.0 0
149633.0 447084.0 0
153695.0 446932.0 0
167349.0 449297.0 0
171236.0 449056.0 0
175102.0 448797.0 0
178956.0 448517.0 0
182800.0 448214.0 0
186635.0 447891.0 0
190461.0 447548.0 0
194276.0 447192.0 0
198079.0 446828.0 0
207606.0 449274.0 0
211387.0 448987.0 0
215165.0 448741.0 0
218945.0 448547.0 0
222745.0 448419.0 0
226635.0 448051.0 0
233389.0 448254.0 0
240088.0 448154.0 0
246749.0 448079.0 0
253397.0 447963.0 0
260038.0 447789.0 0
266695.0 447591.0 0
273273.0 447351.0 0
276981.0 448479.0 0
280845.0 448722.0 0
284637.0 448866.0 0
288422.0 449088.0 0
301773.0 446905.0 0
305591.0 447260.0 0
309416.0 447606.0 0
313244.0 447937.0 0
317072.0 448249.0 0
320895.0 448541.0 0
324707.0 448814.0 0
328504.0 449071.0 0
332296.0 449271.0 0
342882.0 447570.0 0
346703.0 447480.0 0
350581.0 447335.0 0
354454.0 447117.0 0
364551.0 449306.0 0
368398.0 448819.0 0
372230.0 448173.0 0
376071.0 447324.0 0
382648.0 448802.0 0
386312.0 447557.0 0
393050.0 449643.0 0
396706.0 448497.0 0
403383.0 449383.0 0
410046.0 449972.0 0
413445.0 448241.0 0
416744.0 450307.0 0
86574.6 452169.0 0
93269.8 451644.0 0
99921.8 450906.0 0
103414.0 452334.0 0
110061.0 451421.0 0
113701.0 451588.0 0
120119.0 450628.0 0
123579.0 452131.0 0
126511.0 449856.0 0
129834.0 450917.0 0
133431.0 451651.0 0
137203.0 452296.0 0
143420.0 449863.0 0
147299.0 450174.0 0
151649.0 449975.0 0
155564.0 449951.0 0
159467.0 449821.0 0
163431.0 449532.0 0
177021.0 451816.0 0
180875.0 451543.0 0
184721.0 451248.0 0
188559.0 450934.0 0
192389.0 450604.0 0
196209.0 450265.0 0
200018.0 449924.0 0
203817.0 449591.0 0
217210.0 451979.0 0
221059.0 451793.0 0
224996.0 451557.0 0
229882.0 450217.0 0
236762.0 450080.0 0
243445.0 450022.0 0
250106.0 449938.0 0
256755.0 449801.0 0
263397.0 449606.0 0
266756.0 451416.0 0
270125.0 449448.0 0
274148.0 451167.0 0
278696.0 451898.0 0
292213.0 449361.0 0
296015.0 449670.0 0
299828.0 449997.0 0
303649.0 450331.0 0
307478.0 450662.0 0
311311.0 450984.0 0
315145.0 451290.0 0
318977.0 451579.0 0
322802.0 451848.0 0
336087.0 449270.0 0
341389.0 450933.0 0
345146.0 450765.0 0
348975.0 450587.0 0
352859.0 450396.0 0
356758.0 450146.0 0
360673.0 449819.0 0
363085.0 452774.0 0
367038.0 452224.0 0
371134.0 451641.0 0
375043.0 450806.0 0
378895.0 449893.0 0
385499.0 451352.0 0
389250.0 450549.0 0
396167.0 451954.0 0
399842.0 450757.0 0
406574.0 451592.0 0
413299.0 452066.0 0
76538.2 454517.0 0
79835.5 452463.0 0
83321.9 454303.0 0
90054.0 453867.0 0
93605.3 455440.0 0
96765.0 453156.0 0
100317.0 454595.0 0
106999.0 453672.0 0
110661.0 454827.0 0
117167.0 453018.0 0
120670.0 454478.0 0
127131.0 453496.0 0
130838.0 454495.0 0
141053.0 452843.0 0
144929.0 453259.0 0
149575.0 452967.0 0
153478.0 453083.0 0
157369.0 453041.0 0
161472.0 452687.0 0
165394.0 452488.0 0
169286.0 452287.0 0
173160.0 452064.0 0
186641.0 454314.0 0
190485.0 454009.0 0
194321.0 453693.0 0
198148.0 453371.0 0
201967.0 453053.0 0
205778.0 452745.0 0
209585.0 452457.0 0
213392.0 452200.0 0
230237.0 454036.0 0
233408.0 451988.0 0
236796.0 453871.0 0
240127.0 451954.0 0
243496.0 453839.0 0
246806.0 451895.0 0
250166.0 453772.0 0
253463.0 451796.0 0
256818.0 453650.0 0
260111.0 451635.0 0
263470.0 453465.0 0
270066.0 453260.0 0
282600.0 452109.0 0
286434.0 452310.0 0
290248.0 452551.0 0
294062.0 452826.0 0
297882.0 453126.0 0
301710.0 453437.0 0
305545.0 453752.0 0
309384.0 454063.0 0
313227.0 454362.0 0
326620.0 452096.0 0
330437.0 452300.0 0
334262.0 452387.0 0
338061.0 452199.0 0
343600.0 454185.0 0
347372.0 453943.0 0
351198.0 453718.0 0
355091.0 453474.0 0
359035.0 453184.0 0
369614.0 455022.0 0
374000.0 454296.0 0
377916.0 453464.0 0
381770.0 452493.0 0
388499.0 453867.0 0
392357.0 452976.0 0
399343.0 454308.0 0
403015.0 453053.0 0
406198.0 455358.0 0
409786.0 453768.0 0
416580.0 454173.0 0
420048.0 452379.0 0
423390.0 454468.0 0
69809.9 458723.0 0
73185.5 456611.0 0
76687.4 458456.0 0
80070.7 456456.0 0
86831.7 456068.0 0
97209.2 456907.0 0
103954.0 455952.0 0
107672.0 457223.0 0
114269.0 455572.0 0
117808.0 456911.0 0
124202.0 455887.0 0
127777.0 457087.0 0
134692.0 455179.0 0
138601.0 455788.0 0
142522.0 456313.0 0
147456.0 455934.0 0
151332.0 456199.0 0
155200.0 456279.0 0
159558.0 455812.0 0
163460.0 455675.0 0
167340.0 455517.0 0
171211.0 455331.0 0
175076.0 455114.0 0
178936.0 454870.0 0
182791.0 454602.0 0
196259.0 456811.0 0
200096.0 456507.0 0
203927.0 456209.0 0
207752.0 455924.0 0
211576.0 455662.0 0
215401.0 455426.0 0
219230.0 455220.0 0
223056.0 455022.0 0
226783.0 454922.0 0
233489.0 455833.0 0
240185.0 455769.0 0
246854.0 455729.0 0
253529.0 455650.0 0
260164.0 455498.0 0
266839.0 455290.0 0
273276.0 454928.0 0
276895.0 455187.0 0
280649.0 455340.0 0
284462.0 455546.0 0
288281.0 455766.0 0
292104.0 456014.0 0
295933.0 456287.0 0
299769.0 456576.0 0
303611.0 456873.0 0
317070.0 454646.0 0
320910.0 454912.0 0
324748.0 455155.0 0
328589.0 455360.0 0
332441.0 455486.0 0
336300.0 455454.0 0
340103.0 455161.0 0
345766.0 457414.0 0
349544.0 457139.0 0
353371.0 456858.0 0
357270.0 456565.0 0
361316.0 456167.0 0
365544.0 455648.0 0
377292.0 457101.0 0
380991.0 456163.0 0
384745.0 455122.0 0
388035.0 457235.0 0
391829.0 456351.0 0
395600.0 455391.0 0
402486.0 456721.0 0
409466.0 457578.0 0
413057.0 455911.0 0
419900.0 456276.0 0
423246.0 458398.0 0
426743.0 456566.0 0
430121.0 458680.0 0
73324.5 460576.0 0
83615.9 458293.0 0
90435.4 457729.0 0
94098.9 459264.0 0
100882.0 458271.0 0
104627.0 459557.0 0
108421.0 460806.0 0
111418.0 458387.0 0
115003.0 459481.0 0
121362.0 458331.0 0
124890.0 459691.0 0
131316.0 458076.0 0
134852.0 458825.0 0
138401.0 459463.0 0
145373.0 458932.0 0
149159.0 459311.0 0
152980.0 459520.0 0
157635.0 458892.0 0
161519.0 458857.0 0
165386.0 458751.0 0
169251.0 458602.0 0
173116.0 458416.0 0
176982.0 458199.0 0
180846.0 457956.0 0
184708.0 457692.0 0
188564.0 457409.0 0
192415.0 457114.0 0
205898.0 459390.0 0
209737.0 459127.0 0
213577.0 458885.0 0
217422.0 458669.0 0
221280.0 458475.0 0
225161.0 458337.0 0
229363.0 457920.0 0
236898.0 457681.0 0
243531.0 457681.0 0
250221.0 457622.0 0
256895.0 457528.0 0
263483.0 457333.0 0
266748.0 459069.0 0
270240.0 457273.0 0
274757.0 458456.0 0
278635.0 458632.0 0
282466.0 458803.0 0
286299.0 459004.0 0
290134.0 459228.0 0
293974.0 459476.0 0
307459.0 457171.0 0
311311.0 457462.0 0
315165.0 457741.0 0
319020.0 458003.0 0
322876.0 458243.0 0
326736.0 458450.0 0
330606.0 458597.0 0
334487.0 458639.0 0
338356.0 458521.0 0
342157.0 458189.0 0
347875.0 460667.0 0
351636.0 460351.0 0
355417.0 460027.0 0
362882.0 459492.0 0
366496.0 459150.0 0
370076.0 458620.0 0
373654.0 457923.0 0
380018.0 459898.0 0
383782.0 458925.0 0
391111.0 459738.0 0
394925.0 458861.0 0
398726.0 457871.0 0
405605.0 459119.0 0
412783.0 459775.0 0
416371.0 458060.0 0
426613.0 460525.0 0
76872.4 462407.0 0
80442.8 460637.0 0
84055.9 462343.0 0
87240.1 460007.0 0
90986.5 461613.0 0
97802.1 460658.0 0
101562.0 461941.0 0
112173.0 462136.0 0
118586.0 460786.0 0
122066.0 462359.0 0
128521.0 460774.0 0
132190.0 461678.0 0
135872.0 462414.0 0
141963.0 460083.0 0
155670.0 461934.0 0
159538.0 462022.0 0
163402.0 461986.0 0
167267.0 461878.0 0
171136.0 461723.0 0
175009.0 461532.0 0
178884.0 461312.0 0
182757.0 461068.0 0
186628.0 460807.0 0
190494.0 460531.0 0
194354.0 460246.0 0
198208.0 459956.0 0
202055.0 459669.0 0
215575.0 462130.0 0
219419.0 461934.0 0
223250.0 461772.0 0
227057.0 461644.0 0
230755.0 461637.0 0
233614.0 459540.0 0
236827.0 461549.0 0
240202.0 459637.0 0
243563.0 461532.0 0
246900.0 459574.0 0
250278.0 461485.0 0
253591.0 459518.0 0
256958.0 461410.0 0
260271.0 459410.0 0
263681.0 461313.0 0
269636.0 461150.0 0
273066.0 461829.0 0
276711.0 461940.0 0
280488.0 462097.0 0
284310.0 462268.0 0
297820.0 459744.0 0
301672.0 460023.0 0
305529.0 460307.0 0
309391.0 460588.0 0
313257.0 460860.0 0
317126.0 461119.0 0
320998.0 461357.0 0
324875.0 461566.0 0
328759.0 461728.0 0
332651.0 461815.0 0
336542.0 461791.0 0
340403.0 461621.0 0
344195.0 461279.0 0
359197.0 459735.0 0
365017.0 462640.0 0
368781.0 462167.0 0
372532.0 461533.0 0
376275.0 460770.0 0
382652.0 462751.0 0
387290.0 460528.0 0
394063.0 462353.0 0
397921.0 461450.0 0
401775.0 460424.0 0
408835.0 461369.0 0
416130.0 461959.0 0
419710.0 460228.0 0
423081.0 462368.0 0
87830.1 463944.0 0
94755.9 463121.0 0
98542.0 464418.0 0
105357.0 463172.0 0
109137.0 464441.0 0
115865.0 463348.0 0
119313.0 465130.0 0
125759.0 463468.0 0
129493.0 464445.0 0
133252.0 465281.0 0
139568.0 463060.0 0
143336.0 463591.0 0
146879.0 462410.0 0
150692.0 462750.0 0
173013.0 464868.0 0
176901.0 464669.0 0
180789.0 464445.0 0
184675.0 464203.0 0
188556.0 463945.0 0
192432.0 463676.0 0
196302.0 463402.0 0
200166.0 463126.0 0
204024.0 462855.0 0
207877.0 462595.0 0
211728.0 462352.0 0
229098.0 465026.0 0
233038.0 464825.0 0
240233.0 463501.0 0
246929.0 463420.0 0
253671.0 463405.0 0
260308.0 463293.0 0
266981.0 463828.0 0
288152.0 462467.0 0
292004.0 462691.0 0
295861.0 462937.0 0
299724.0 463198.0 0
303592.0 463468.0 0
307464.0 463738.0 0
311342.0 464003.0 0
315224.0 464257.0 0
319111.0 464493.0 0
323004.0 464705.0 0
326903.0 464879.0 0
349960.0 463940.0 0
353726.0 463573.0 0
357494.0 463241.0 0
361255.0 462970.0 0
367345.0 465666.0 0
371195.0 465098.0 0
375033.0 464414.0 0
378858.0 463644.0 0
386347.0 463782.0 0
390213.0 463141.0 0
396893.0 465042.0 0
400806.0 464123.0 0
404876.0 462901.0 0
408122.0 465186.0 0
412086.0 463622.0 0
84642.6 466295.0 0
91627.7 465511.0 0
95585.3 466981.0 0
102350.0 465626.0 0
106145.0 466829.0 0
109920.0 468103.0 0
113113.0 465948.0 0
123039.0 466210.0 0
126814.0 467214.0 0
130613.0 468111.0 0
137022.0 465988.0 0
140824.0 466581.0 0
144654.0 467104.0 0
148320.0 465929.0 0
153629.0 464947.0 0
157493.0 465161.0 0
161369.0 465209.0 0
165247.0 465155.0 0
169128.0 465033.0 0
186604.0 467358.0 0
190496.0 467105.0 0
194382.0 466845.0 0
198262.0 466581.0 0
202135.0 466319.0 0
206002.0 466065.0 0
209864.0 465824.0 0
213721.0 465602.0 0
217573.0 465404.0 0
221415.0 465237.0 0
225254.0 465104.0 0
236919.0 465302.0 0
243553.0 465402.0 0
250334.0 465346.0 0
257077.0 465328.0 0
263541.0 465194.0 0
270691.0 464954.0 0
274563.0 465301.0 0
278417.0 465414.0 0
282280.0 465557.0 0
286146.0 465728.0 0
290016.0 465928.0 0
293888.0 466153.0 0
297764.0 466397.0 0
301643.0 466652.0 0
305527.0 466912.0 0
309415.0 467169.0 0
313309.0 467418.0 0
330808.0 464997.0 0
334713.0 465034.0 0
338602.0 464964.0 0
342452.0 464762.0 0
346240.0 464405.0 0
352112.0 467137.0 0
355897.0 466782.0 0
359684.0 466453.0 0
363502.0 466109.0 0
369749.0 468637.0 0
373639.0 468024.0 0
377506.0 467347.0 0
381333.0 466645.0 0
385145.0 467029.0 0
389067.0 466535.0 0
392991.0 465869.0 0
399651.0 467800.0 0
403829.0 466663.0 0
411356.0 467513.0 0
415389.0 465840.0 0
88456.4 467890.0 0
92478.5 469395.0 0
99445.7 468197.0 0
103254.0 469353.0 0
107082.0 470502.0 0
113304.0 469846.0 0
116607.0 467921.0 0
120364.0 469032.0 0
124161.0 470014.0 0
134418.0 468891.0 0
138235.0 469547.0 0
151496.0 467950.0 0
155379.0 468275.0 0
159279.0 468414.0 0
163181.0 468423.0 0
167085.0 468343.0 0
170990.0 468205.0 0
174897.0 468027.0 0
178803.0 467823.0 0
182706.0 467598.0 0
200232.0 469783.0 0
204113.0 469536.0 0
207988.0 469299.0 0
211856.0 469078.0 0
215716.0 468879.0 0
219567.0 468708.0 0
223411.0 468567.0 0
227249.0 468454.0 0
231098.0 468317.0 0
234881.0 468339.0 0
240146.0 467475.0 0
243663.0 469206.0 0
247007.0 467232.0 0
250415.0 469258.0 0
253687.0 467291.0 0
256970.0 469164.0 0
260461.0 467518.0 0
264207.0 468881.0 0
268014.0 467832.0 0
272299.0 468543.0 0
276285.0 468723.0 0
280213.0 468851.0 0
284118.0 469004.0 0
288011.0 469183.0 0
291901.0 469389.0 0
295791.0 469616.0 0
299682.0 469857.0 0
317210.0 467651.0 0
321118.0 467863.0 0
325034.0 468046.0 0
328956.0 468187.0 0
332879.0 468267.0 0
336793.0 468266.0 0
340685.0 468161.0 0
344538.0 467929.0 0
348344.0 467551.0 0
361980.0 469599.0 0
365857.0 469162.0 0
376077.0 471005.0 0
379944.0 470387.0 0
383793.0 470351.0 0
387723.0 469928.0 0
391680.0 469358.0 0
395715.0 468640.0 0
402579.0 470417.0 0
407067.0 468943.0 0
89704.4 472225.0 0
96598.1 470829.0 0
100451.0 472014.0 0
104462.0 473028.0 0
117698.0 471879.0 0
121524.0 472866.0 0
127992.0 470946.0 0
131817.0 471789.0 0
135674.0 472502.0 0
142033.0 470117.0 0
145764.0 470654.0 0
149431.0 471043.0 0
153250.0 471391.0 0
157149.0 471604.0 0
161074.0 471679.0 0
165008.0 471647.0 0
168938.0 471543.0 0
172872.0 471384.0 0
176800.0 471200.0 0
180722.0 470994.0 0
184638.0 470769.0 0
188547.0 470532.0 0
192450.0 470286.0 0
196344.0 470035.0 0
209981.0 472557.0 0
213852.0 472358.0 0
217714.0 472185.0 0
221567.0 472042.0 0
225412.0 471920.0 0
229249.0 471805.0 0
233057.0 471739.0 0
236897.0 471580.0 0
240657.0 471400.0 0
246978.0 471009.0 0
253770.0 471426.0 0
262379.0 472271.0 0
266348.0 472093.0 0
270268.0 471937.0 0
274212.0 472014.0 0
278162.0 472149.0 0
282089.0 472290.0 0
286001.0 472455.0 0
289906.0 472643.0 0
303577.0 470106.0 0
307476.0 470356.0 0
311381.0 470600.0 0
315293.0 470830.0 0
319213.0 471041.0 0
323144.0 471227.0 0
327086.0 471382.0 0
331033.0 471495.0 0
334975.0 471543.0 0
338907.0 471508.0 0
342815.0 471370.0 0
346687.0 471103.0 0
350507.0 470739.0 0
354326.0 470349.0 0
358140.0 469976.0 0
368260.0 472180.0 0
372174.0 471614.0 0
390247.0 472839.0 0
394301.0 472192.0 0
398395.0 471466.0 0
409746.0 471885.0 0
93549.7 473281.0 0
98134.5 475131.0 0
102009.0 475719.0 0
110384.0 472501.0 0
114192.0 473535.0 0
125391.0 473779.0 0
129226.0 474705.0 0
139525.0 473133.0 0
143355.0 473711.0 0
147189.0 474205.0 0
151044.0 474546.0 0
154960.0 474789.0 0
158921.0 474924.0 0
162898.0 474938.0 0
166860.0 474880.0 0
170830.0 474738.0 0
174784.0 474575.0 0
178727.0 474388.0 0
182662.0 474180.0 0
186589.0 473959.0 0
190508.0 473727.0 0
194417.0 473489.0 0
198319.0 473248.0 0
202214.0 473008.0 0
206101.0 472776.0 0
223578.0 475398.0 0
227428.0 475290.0 0
242831.0 474631.0 0
246674.0 474673.0 0
250234.0 473136.0 0
258506.0 472534.0 0
293807.0 472854.0 0
297709.0 473082.0 0
301614.0 473321.0 0
305523.0 473563.0 0
309437.0 473801.0 0
313359.0 474029.0 0
317290.0 474239.0 0
321231.0 474424.0 0
325186.0 474582.0 0
329156.0 474713.0 0
333131.0 474807.0 0
337099.0 474822.0 0
341058.0 474755.0 0
344992.0 474581.0 0
348891.0 474288.0 0
352749.0 473916.0 0
356594.0 473524.0 0
360456.0 473122.0 0
364349.0 472683.0 0
370675.0 475202.0 0
374597.0 474632.0 0
378497.0 474075.0 0
382361.0 473774.0 0
386284.0 473366.0 0
396904.0 475075.0 0
400908.0 474465.0 0
405817.0 472676.0 0
90890.1 476227.0 0
94766.9 477083.0 0
107561.0 475420.0 0
111404.0 476279.0 0
115317.0 477190.0 0
118963.0 475822.0 0
122835.0 476640.0 0
133125.0 475449.0 0
137024.0 476124.0 0
140914.0 476735.0 0
144816.0 477276.0 0
148747.0 477707.0 0
176724.0 477783.0 0
180679.0 477590.0 0
184624.0 477384.0 0
188559.0 477168.0 0
192484.0 476943.0 0
196399.0 476713.0 0
200306.0 476482.0 0
204206.0 476255.0 0
208097.0 476040.0 0
211980.0 475841.0 0
215854.0 475667.0 0
219719.0 475521.0 0
231265.0 475203.0 0
235113.0 475075.0 0
238958.0 474907.0 0
249153.0 477561.0 0
252759.0 475982.0 0
256611.0 475888.0 0
260554.0 475788.0 0
264458.0 475589.0 0
268365.0 475451.0 0
272252.0 475402.0 0
276166.0 475473.0 0
280087.0 475596.0 0
284000.0 475745.0 0
287910.0 475916.0 0
291818.0 476112.0 0
295726.0 476327.0 0
299637.0 476555.0 0
303554.0 476789.0 0
307477.0 477023.0 0
311408.0 477248.0 0
315348.0 477458.0 0
319297.0 477644.0 0
323259.0 477801.0 0
351140.0 477478.0 0
355040.0 477097.0 0
358930.0 476681.0 0
362831.0 476235.0 0
366748.0 475743.0 0
377010.0 477707.0 0
380896.0 477277.0 0
384814.0 476882.0 0
388780.0 476339.0 0
392814.0 475743.0 0
404372.0 476370.0 0
408321.0 475744.0 0
99803.0 478768.0 0
104810.0 478509.0 0
108706.0 479208.0 0
112593.0 479956.0 0
120386.0 479626.0 0
126668.0 477690.0 0
130596.0 478407.0 0
134528.0 479107.0 0
138451.0 479754.0 0
142380.0 480324.0 0
152706.0 477985.0 0
156699.0 478147.0 0
160766.0 478209.0 0
164754.0 478218.0 0
168788.0 478084.0 0
172763.0 477948.0 0
190546.0 480398.0 0
194475.0 480179.0 0
198395.0 479958.0 0
202305.0 479738.0 0
206208.0 479525.0 0
210102.0 479328.0 0
213987.0 479152.0 0
217866.0 479003.0 0
221739.0 478879.0 0
225604.0 478774.0 0
229461.0 478683.0 0
233321.0 478571.0 0
237182.0 478416.0 0
241047.0 478185.0 0
244903.0 477989.0 0
254705.0 479360.0 0
258638.0 479235.0 0
262568.0 479102.0 0
266463.0 478957.0 0
270343.0 478869.0 0
274225.0 478861.0 0
278121.0 478937.0 0
282019.0 479064.0 0
285924.0 479214.0 0
289828.0 479394.0 0
293737.0 479592.0 0
297650.0 479809.0 0
301570.0 480035.0 0
305498.0 480263.0 0
327237.0 477929.0 0
331233.0 478046.0 0
335258.0 478119.0 0
339254.0 478098.0 0
343246.0 478006.0 0
347213.0 477790.0 0
361302.0 479821.0 0
365226.0 479334.0 0
369155.0 478802.0 0
373085.0 478242.0 0
379437.0 480847.0 0
383360.0 480496.0 0
387360.0 479880.0 0
391330.0 479309.0 0
395382.0 478693.0 0
399352.0 478124.0 0
405595.0 480153.0 0
93776.1 480916.0 0
97584.7 481932.0 0
102167.0 481927.0 0
106124.0 482269.0 0
110027.0 482931.0 0
116717.0 480839.0 0
124182.0 480769.0 0
128111.0 481413.0 0
132053.0 482093.0 0
135994.0 482778.0 0
146346.0 480815.0 0
150390.0 481173.0 0
154463.0 481367.0 0
158581.0 481445.0 0
162591.0 481535.0 0
166757.0 481422.0 0
170746.0 481319.0 0
174718.0 481182.0 0
178693.0 481000.0 0
182656.0 480810.0 0
186607.0 480609.0 0
208220.0 482819.0 0
212118.0 482643.0 0
216006.0 482488.0 0
219892.0 482361.0 0
223772.0 482257.0 0
227648.0 482170.0 0
231521.0 482071.0 0
235400.0 481938.0 0
239279.0 481736.0 0
243166.0 481467.0 0
247138.0 481100.0 0
251090.0 480879.0 0
260667.0 482589.0 0
264570.0 482470.0 0
268449.0 482365.0 0
272318.0 482306.0 0
276191.0 482323.0 0
280059.0 482425.0 0
283953.0 482541.0 0
287841.0 482705.0 0
291743.0 482881.0 0
309437.0 480485.0 0
313386.0 480694.0 0
317347.0 480885.0 0
321313.0 481043.0 0
325292.0 481169.0 0
329279.0 481271.0 0
333328.0 481374.0 0
337410.0 481426.0 0
341420.0 481376.0 0
345491.0 481246.0 0
349482.0 481008.0 0
353441.0 480662.0 0
357379.0 480263.0 0
367630.0 482426.0 0
371568.0 481869.0 0
375497.0 481308.0 0
389924.0 482911.0 0
393877.0 482330.0 0
397831.0 481790.0 0
401775.0 481243.0 0
99692.9 485218.0 0
113949.0 483546.0 0
121282.0 483491.0 0
125651.0 484474.0 0
129597.0 485110.0 0
139915.0 483396.0 0
143886.0 483886.0 0
148006.0 484312.0 0
152203.0 484574.0 0
156375.0 484686.0 0
160369.0 484811.0 0
164673.0 484734.0 0
168717.0 484680.0 0
172704.0 484591.0 0
176711.0 484410.0 0
180691.0 484235.0 0
184657.0 484050.0 0
188610.0 483855.0 0
192551.0 483649.0 0
196481.0 483437.0 0
200403.0 483224.0 0
204315.0 483016.0 0
241398.0 485034.0 0
245302.0 484641.0 0
249213.0 484365.0 0
253135.0 484170.0 0
256748.0 482705.0 0
295651.0 483086.0 0
299568.0 483302.0 0
303499.0 483522.0 0
307444.0 483740.0 0
311402.0 483947.0 0
315374.0 484137.0 0
319359.0 484311.0 0
323347.0 484433.0 0
327339.0 484534.0 0
331333.0 484607.0 0
335443.0 484698.0 0
339563.0 484738.0 0
343626.0 484637.0 0
347743.0 484483.0 0
351820.0 484208.0 0
355798.0 483833.0 0
359759.0 483422.0 0
363695.0 482954.0 0
370050.0 485508.0 0
374004.0 484940.0 0
377924.0 484410.0 0
385974.0 483451.0 0
400394.0 484966.0 0
103640.0 485596.0 0
107568.0 486035.0 0
111505.0 486582.0 0
115521.0 487038.0 0
119480.0 487035.0 0
123392.0 487692.0 0
133540.0 485780.0 0
137462.0 486528.0 0
141460.0 486989.0 0
145551.0 487399.0 0
149866.0 487731.0 0
154138.0 487925.0 0
158159.0 488090.0 0
162493.0 488004.0 0
166642.0 488015.0 0
170640.0 487990.0 0
174744.0 487823.0 0
178731.0 487661.0 0
182709.0 487492.0 0
186675.0 487314.0 0
190629.0 487123.0 0
194571.0 486922.0 0
198502.0 486715.0 0
202425.0 486511.0 0
206337.0 486315.0 0
210243.0 486133.0 0
214146.0 485984.0 0
218031.0 485844.0 0
221925.0 485738.0 0
225814.0 485656.0 0
229703.0 485572.0 0
233599.0 485456.0 0
237500.0 485295.0 0
247355.0 487885.0 0
251244.0 487665.0 0
255146.0 487496.0 0
258777.0 486075.0 0
262684.0 485976.0 0
266572.0 485875.0 0
270443.0 485795.0 0
274301.0 485749.0 0
278147.0 485862.0 0
282007.0 485896.0 0
285869.0 486060.0 0
289750.0 486199.0 0
293641.0 486388.0 0
297549.0 486592.0 0
301476.0 486801.0 0
305422.0 487012.0 0
309389.0 487217.0 0
313373.0 487405.0 0
317368.0 487575.0 0
321413.0 487723.0 0
325408.0 487819.0 0
329405.0 487897.0 0
333406.0 487942.0 0
337561.0 488030.0 0
341751.0 488031.0 0
345859.0 487890.0 0
350043.0 487689.0 0
354189.0 487389.0 0
358180.0 487006.0 0
362153.0 486597.0 0
366097.0 486080.0 0
376448.0 488037.0 0
380592.0 487295.0 0
384529.0 486997.0 0
388481.0 486510.0 0
392443.0 485987.0 0
396422.0 485480.0 0
101203.0 488852.0 0
105170.0 489250.0 0
109117.0 489709.0 0
113087.0 490170.0 0
117047.0 490595.0 0
127328.0 488279.0 0
131260.0 488922.0 0
135150.0 489813.0 0
139121.0 490164.0 0
143157.0 490533.0 0
184742.0 490772.0 0
188711.0 490599.0 0
192666.0 490412.0 0
196608.0 490214.0 0
200539.0 490013.0 0
204458.0 489820.0 0
208365.0 489636.0 0
212269.0 489468.0 0
216181.0 489361.0 0
220051.0 489213.0 0
223959.0 489139.0 0
227854.0 489072.0 0
231770.0 488975.0 0
235682.0 488836.0 0
239603.0 488655.0 0
243487.0 488338.0 0
257141.0 490825.0 0
260801.0 489473.0 0
264707.0 489387.0 0
268592.0 489298.0 0
272483.0 489225.0 0
276374.0 489404.0 0
280294.0 489399.0 0
284216.0 489615.0 0
288147.0 489743.0 0
292074.0 489949.0 0
295997.0 490155.0 0
299918.0 490353.0 0
303838.0 490544.0 0
307755.0 490716.0 0
356551.0 490575.0 0
360539.0 490211.0 0
364575.0 489768.0 0
368520.0 489178.0 0
372497.0 488570.0 0
383015.0 490564.0 0
386978.0 490122.0 0
390942.0 489634.0 0
394905.0 489137.0 0
398873.0 488642.0 0
98815.9 492143.0 0
102796.0 492471.0 0
106751.0 492899.0 0
120988.0 490836.0 0
124929.0 491375.0 0
128855.0 491999.0 0
147431.0 490824.0 0
151814.0 491119.0 0
155942.0 491360.0 0
160315.0 491296.0 0
164469.0 491304.0 0
168527.0 491362.0 0
172736.0 491216.0 0
176770.0 491091.0 0
180761.0 490934.0 0
206500.0 493157.0 0
210397.0 492979.0 0
214284.0 492822.0 0
218170.0 493182.0 0
222032.0 492582.0 0
225964.0 492585.0 0
229897.0 492474.0 0
233848.0 492384.0 0
237800.0 492193.0 0
241682.0 493013.0 0
245415.0 491738.0 0
249307.0 491201.0 0
253226.0 490998.0 0
262842.0 492888.0 0
266741.0 492820.0 0
270631.0 492714.0 0
278388.0 492839.0 0
282264.0 493043.0 0
286151.0 493112.0 0
311674.0 490859.0 0
315599.0 490975.0 0
319540.0 491061.0 0
323500.0 491134.0 0
327484.0 491209.0 0
331480.0 491266.0 0
335487.0 491292.0 0
339718.0 491346.0 0
343975.0 491306.0 0
348142.0 491118.0 0
352388.0 490869.0 0
370987.0 492242.0 0
374910.0 491675.0 0
379084.0 490965.0 0
393362.0 492798.0 0
397328.0 492317.0 0
401323.0 492153.0 0
110710.0 493344.0 0
114667.0 493781.0 0
118617.0 494173.0 0
122545.0 494495.0 0
127291.0 495609.0 0
132898.0 493143.0 0
136880.0 493438.0 0
140868.0 493751.0 0
145072.0 493984.0 0
149370.0 494238.0 0
153656.0 494585.0 0
158118.0 494595.0 0
162308.0 494619.0 0
166338.0 494680.0 0
170656.0 494583.0 0
174761.0 494501.0 0
178809.0 494376.0 0
182804.0 494229.0 0
186790.0 494072.0 0
190765.0 493904.0 0
194725.0 493720.0 0
198665.0 493524.0 0
202588.0 493331.0 0
251309.0 494508.0 0
255244.0 494330.0 0
259159.0 494148.0 0
274510.0 492974.0 0
290045.0 493293.0 0
293953.0 493492.0 0
297876.0 493679.0 0
301810.0 493871.0 0
305754.0 494048.0 0
309704.0 494199.0 0
313657.0 494318.0 0
317615.0 494410.0 0
321580.0 494483.0 0
325555.0 494547.0 0
329545.0 494604.0 0
333546.0 494645.0 0
337614.0 494630.0 0
341929.0 494638.0 0
346239.0 494559.0 0
350484.0 494313.0 0
354721.0 494064.0 0
358852.0 493806.0 0
362911.0 493412.0 0
367021.0 493125.0 0
372737.0 495784.0 0
377548.0 494581.0 0
381479.0 494166.0 0
385431.0 493735.0 0
389396.0 493275.0 0
100393.0 496029.0 0
104386.0 496111.0 0
108347.0 496542.0 0
112310.0 496983.0 0
116277.0 497398.0 0
120243.0 497761.0 0
124198.0 498056.0 0
131047.0 496914.0 0
135018.0 496955.0 0
138988.0 497232.0 0
142973.0 497327.0 0
147017.0 497437.0 0
151232.0 497714.0 0
155848.0 497861.0 0
160132.0 497944.0 0
164176.0 498027.0 0
168166.0 498093.0 0
172141.0 498146.0 0
176109.0 498113.0 0
180073.0 498026.0 0
184037.0 497905.0 0
188001.0 497770.0 0
191962.0 497620.0 0
195920.0 497446.0 0
199877.0 497246.0 0
203842.0 497040.0 0
207809.0 496862.0 0
211751.0 496664.0 0
215710.0 496463.0 0
219598.0 496905.0 0
223480.0 496206.0 0
227361.0 496571.0 0
231251.0 496191.0 0
235148.0 496422.0 0
239034.0 495959.0 0
242818.0 497033.0 0
246449.0 495518.0 0
249460.0 497999.0 0
253387.0 497848.0 0
257310.0 497669.0 0
261230.0 497461.0 0
264979.0 496387.0 0
268873.0 496272.0 0
272757.0 496560.0 0
276617.0 496376.0 0
280489.0 496583.0 0
284353.0 496622.0 0
288243.0 496796.0 0
292129.0 496988.0 0
296030.0 497147.0 0
299933.0 497312.0 0
303841.0 497454.0 0
307764.0 497574.0 0
311703.0 497675.0 0
315660.0 497766.0 0
319629.0 497843.0 0
323607.0 497907.0 0
327593.0 497960.0 0
331590.0 498005.0 0
335654.0 498010.0 0
339813.0 497937.0 0
344177.0 497918.0 0
348578.0 497771.0 0
352811.0 497527.0 0
356975.0 497321.0 0
360961.0 497169.0 0
364931.0 496853.0 0
368909.0 496898.0 0
375932.0 498128.0 0
379904.0 497795.0 0
383860.0 497363.0 0
387825.0 496920.0 0
391792.0 496452.0 0
395759.0 495991.0 0
399755.0 496044.0 0
100831.0 500012.0 0
104830.0 500071.0 0
108805.0 500489.0 0
112778.0 500929.0 0
128987.0 500329.0 0
132966.0 500448.0 0
136939.0 500635.0 0
140925.0 500729.0 0
144919.0 500816.0 0
148914.0 500931.0 0
153415.0 501022.0 0
190059.0 501111.0 0
194045.0 500958.0 0
198026.0 500778.0 0
201996.0 500570.0 0
205961.0 500368.0 0
209935.0 500227.0 0
213900.0 499965.0 0
217853.0 500507.0 0
222165.0 499920.0 0
226476.0 500461.0 0
230454.0 500088.0 0
234437.0 500349.0 0
238394.0 499874.0 0
246087.0 500051.0 0
262974.0 500975.0 0
266809.0 500278.0 0
270691.0 499939.0 0
274538.0 500627.0 0
278397.0 499946.0 0
282264.0 500623.0 0
286155.0 500160.0 0
290060.0 500384.0 0
293975.0 500522.0 0
297890.0 500687.0 0
301820.0 500834.0 0
305762.0 500948.0 0
309715.0 501050.0 0
346507.0 501154.0 0
350896.0 501004.0 0
355049.0 500813.0 0
359043.0 500716.0 0
363028.0 500576.0 0
367004.0 500452.0 0
370981.0 500307.0 0
387173.0 500840.0 0
391145.0 500375.0 0
395121.0 499942.0 0
399120.0 500012.0 0
117117.0 501275.0 0
121325.0 501565.0 0
125297.0 501803.0 0
157897.0 501243.0 0
162021.0 501377.0 0
166037.0 501464.0 0
170033.0 501522.0 0
174071.0 501525.0 0
178082.0 501465.0 0
182079.0 501366.0 0
186071.0 501244.0 0
242223.0 500958.0 0
251143.0 501546.0 0
255104.0 501393.0 0
259047.0 501197.0 0
313677.0 501137.0 0
317651.0 501214.0 0
321634.0 501279.0 0
325623.0 501334.0 0
329620.0 501378.0 0
333670.0 501389.0 0
337841.0 501333.0 0
342040.0 501239.0 0
374656.0 501814.0 0
378627.0 501539.0 0
382920.0 501218.0 0
102002.0 503928.0 0
106002.0 503901.0 0
110341.0 504169.0 0
114678.0 504435.0 0
118997.0 504787.0 0
123123.0 505127.0 0
127133.0 505268.0 0
130878.0 503888.0 0
134864.0 504042.0 0
138856.0 504140.0 0
142851.0 504225.0 0
146844.0 504321.0 0
150970.0 504348.0 0
155206.0 504575.0 0
159554.0 504839.0 0
163544.0 504995.0 0
167518.0 505095.0 0
171489.0 505148.0 0
175455.0 505163.0 0
179413.0 505123.0 0
183370.0 505049.0 0
187320.0 504952.0 0
191265.0 504848.0 0
195198.0 504732.0 0
199121.0 504579.0 0
203021.0 504388.0 0
206905.0 504193.0 0
210774.0 504214.0 0
214629.0 503814.0 0
218429.0 504508.0 0
222248.0 503844.0 0
226090.0 504434.0 0
229974.0 504033.0 0
233884.0 504301.0 0
237784.0 503800.0 0
241578.0 504870.0 0
245444.0 503980.0 0
249275.0 505036.0 0
253251.0 504915.0 0
257232.0 504746.0 0
261209.0 504518.0 0
265285.0 504203.0 0
269227.0 503653.0 0
273138.0 504371.0 0
277051.0 503708.0 0
280940.0 504391.0 0
284859.0 503912.0 0
288797.0 504230.0 0
292739.0 504290.0 0
296688.0 504470.0 0
300646.0 504615.0 0
304624.0 504715.0 0
308599.0 504817.0 0
312577.0 504901.0 0
316553.0 504974.0 0
320532.0 505034.0 0
324509.0 505084.0 0
328484.0 505118.0 0
332459.0 505114.0 0
336435.0 505003.0 0
340421.0 504848.0 0
344620.0 504659.0 0
348897.0 504450.0 0
353120.0 504309.0 0
357116.0 504220.0 0
361109.0 504128.0 0
365097.0 504019.0 0
369088.0 503889.0 0
372833.0 505280.0 0
376867.0 505116.0 0
381021.0 504719.0 0
385347.0 504386.0 0
389747.0 504110.0 0
393998.0 503901.0 0
397998.0 503928.0 0
101137.0 507960.0 0
105129.0 507925.0 0
109114.0 507974.0 0
113091.0 508099.0 0
117063.0 508266.0 0
121039.0 508514.0 0
129662.0 508288.0 0
133618.0 507988.0 0
137584.0 508042.0 0
141548.0 507992.0 0
145514.0 508077.0 0
149484.0 508058.0 0
153453.0 508162.0 0
157430.0 508217.0 0
161416.0 508359.0 0
165412.0 508481.0 0
169418.0 508551.0 0
173416.0 508579.0 0
177411.0 508565.0 0
181401.0 508506.0 0
185381.0 508428.0 0
189348.0 508330.0 0
193323.0 508240.0 0
197306.0 508106.0 0
201665.0 508122.0 0
205660.0 507955.0 0
209984.0 508124.0 0
214005.0 507734.0 0
218594.0 508464.0 0
222538.0 507805.0 0
226601.0 508370.0 0
230576.0 507977.0 0
234565.0 508224.0 0
238537.0 507792.0 0
242685.0 508665.0 0
246602.0 507968.0 0
254831.0 508559.0 0
258816.0 508394.0 0
262790.0 508140.0 0
266751.0 508068.0 0
270677.0 507499.0 0
274608.0 508103.0 0
278554.0 507581.0 0
282513.0 508063.0 0
286483.0 507667.0 0
290468.0 507948.0 0
294493.0 507871.0 0
298489.0 508029.0 0
302562.0 508095.0 0
306553.0 508203.0 0
310545.0 508287.0 0
314536.0 508367.0 0
318528.0 508428.0 0
322520.0 508484.0 0
326515.0 508526.0 0
330514.0 508546.0 0
334565.0 508494.0 0
338561.0 508364.0 0
342547.0 508219.0 0
346524.0 508170.0 0
350495.0 508112.0 0
354464.0 508063.0 0
358430.0 507987.0 0
362395.0 508045.0 0
366360.0 507986.0 0
370313.0 508301.0 0
378936.0 508511.0 0
382906.0 508229.0 0
386880.0 508072.0 0
390857.0 507951.0 0
394842.0 507925.0 0
398834.0 507957.0 0
125031.0 508651.0 0
250705.0 508761.0 0
374946.0 508655.0 0
102000.0 511921.0 0
106000.0 511897.0 0
110015.0 511890.0 0
114143.0 511954.0 0
118288.0 512060.0 0
122278.0 512297.0 0
126267.0 512442.0 0
130249.0 512205.0 0
134227.0 511989.0 0
138213.0 512012.0 0
142202.0 511997.0 0
146193.0 512041.0 0
150187.0 512044.0 0
154184.0 512089.0 0
158183.0 512139.0 0
162285.0 512235.0 0
166378.0 512323.0 0
170426.0 512371.0 0
174422.0 512386.0 0
178407.0 512370.0 0
182380.0 512312.0 0
186340.0 512250.0 0
190291.0 512155.0 0
194233.0 512096.0 0
198174.0 511973.0 0
202114.0 512076.0 0
206056.0 511903.0 0
209998.0 512112.0 0
213928.0 511712.0 0
217828.0 512355.0 0
221739.0 511706.0 0
225672.0 512234.0 0
229632.0 511857.0 0
233604.0 512093.0 0
237564.0 511671.0 0
241470.0 512437.0 0
245410.0 511776.0 0
249335.0 512516.0 0
253317.0 512240.0 0
257523.0 512168.0 0
261614.0 511934.0 0
265893.0 511974.0 0
269882.0 511724.0 0
273864.0 512030.0 0
277844.0 511727.0 0
281822.0 512000.0 0
285796.0 511725.0 0
289768.0 511926.0 0
293737.0 511793.0 0
297699.0 511947.0 0
301655.0 511945.0 0
305615.0 512051.0 0
309577.0 512116.0 0
313546.0 512193.0 0
317520.0 512241.0 0
321502.0 512296.0 0
325491.0 512335.0 0
329486.0 512359.0 0
333539.0 512322.0 0
337679.0 512237.0 0
341813.0 512141.0 0
345812.0 512101.0 0
349809.0 512050.0 0
353804.0 512041.0 0
357796.0 511997.0 0
361785.0 512015.0 0
365772.0 511989.0 0
369749.0 512217.0 0
373733.0 512451.0 0
377724.0 512302.0 0
381714.0 512039.0 0
385893.0 511943.0 0
389987.0 511889.0 0
394000.0 511897.0 0
398000.0 511921.0 0
101920.0 515921.0 0
105919.0 515897.0 0
109916.0 515888.0 0
113913.0 515943.0 0
117908.0 516031.0 0
121899.0 516260.0 0
129939.0 516161.0 0
133954.0 515993.0 0
137953.0 516004.0 0
141951.0 515997.0 0
145946.0 516035.0 0
149941.0 516038.0 0
153933.0 516076.0 0
157922.0 516125.0 0
161909.0 516199.0 0
165895.0 516263.0 0
169881.0 516294.0 0
173869.0 516297.0 0
177861.0 516278.0 0
181857.0 516220.0 0
185858.0 516173.0 0
189889.0 516087.0 0
193949.0 516056.0 0
197971.0 515946.0 0
201993.0 516051.0 0
206001.0 515878.0 0
210034.0 516094.0 0
214018.0 515747.0 0
218199.0 516295.0 0
222158.0 515743.0 0
226171.0 516175.0 0
230152.0 515819.0 0
234144.0 516044.0 0
238133.0 515774.0 0
242365.0 516304.0 0
246315.0 515726.0 0
254236.0 516116.0 0
258230.0 516097.0 0
262217.0 515865.0 0
266205.0 515961.0 0
270188.0 515712.0 0
274169.0 516014.0 0
278152.0 515719.0 0
282137.0 515984.0 0
286125.0 515731.0 0
290118.0 515910.0 0
294114.0 515772.0 0
298110.0 515922.0 0
302126.0 515884.0 0
306125.0 515989.0 0
310158.0 516033.0 0
314156.0 516109.0 0
318154.0 516146.0 0
322149.0 516200.0 0
326141.0 516238.0 0
330130.0 516267.0 0
334116.0 516249.0 0
338101.0 516193.0 0
342087.0 516125.0 0
346075.0 516088.0 0
350066.0 516040.0 0
354060.0 516035.0 0
358055.0 515997.0 0
362052.0 516006.0 0
366051.0 515993.0 0
370068.0 516170.0 0
378100.0 516263.0 0
382089.0 516013.0 0
386085.0 515933.0 0
390081.0 515887.0 0
394079.0 515897.0 0
398078.0 515921.0 0
125894.0 516407.0 0
250250.0 516409.0 0
374105.0 516415.0 0
102000.0 519920.0 0
106000.0 519896.0 0
110001.0 519887.0 0
114008.0 519936.0 0
118020.0 520018.0 0
122038.0 520236.0 0
126034.0 520384.0 0
130024.0 520134.0 0
134020.0 519992.0 0
138018.0 520003.0 0
142017.0 519996.0 0
146015.0 520034.0 0
150015.0 520037.0 0
154014.0 520071.0 0
158013.0 520118.0 0
162024.0 520182.0 0
166037.0 520234.0 0
170041.0 520257.0 0
174040.0 520249.0 0
178039.0 520226.0 0
182037.0 520167.0 0
186033.0 520129.0 0
190028.0 520044.0 0
194023.0 520032.0 0
198017.0 519929.0 0
202011.0 520031.0 0
206003.0 519856.0 0
209993.0 520075.0 0
213976.0 519747.0 0
217940.0 520248.0 0
221907.0 519747.0 0
225886.0 520140.0 0
229871.0 519806.0 0
233864.0 520023.0 0
237854.0 519764.0 0
241822.0 520240.0 0
245788.0 519710.0 0
249731.0 520373.0 0
253717.0 520064.0 0
257879.0 520074.0 0
261942.0 519835.0 0
265973.0 519953.0 0
269977.0 519746.0 0
273969.0 520003.0 0
277991.0 519748.0 0
281984.0 519977.0 0
285991.0 519750.0 0
289987.0 519907.0 0
293983.0 519767.0 0
297978.0 519916.0 0
301975.0 519857.0 0
305970.0 519963.0 0
309967.0 519995.0 0
313964.0 520072.0 0
317962.0 520103.0 0
321961.0 520159.0 0
325960.0 520196.0 0
329960.0 520229.0 0
333964.0 520219.0 0
337978.0 520172.0 0
341986.0 520117.0 0
345986.0 520082.0 0
349985.0 520039.0 0
353984.0 520034.0 0
357983.0 519996.0 0
361981.0 520005.0 0
365980.0 519992.0 0
369975.0 520141.0 0
373965.0 520390.0 0
377961.0 520239.0 0
381982.0 520004.0 0
385994.0 519926.0 0
389999.0 519886.0 0
394000.0 519896.0 0
398000.0 519920.0 0
101993.0 523920.0 0
105993.0 523896.0 0
109992.0 523887.0 0
113991.0 523931.0 0
117990.0 524006.0 0
129998.0 524114.0 0
133997.0 523992.0 0
137997.0 524003.0 0
141997.0 523996.0 0
145996.0 524034.0 0
149996.0 524036.0 0
153995.0 524068.0 0
157994.0 524111.0 0
181989.0 524124.0 0
185990.0 524095.0 0
189992.0 524009.0 0
193995.0 524013.0 0
197996.0 523912.0 0
201998.0 524013.0 0
206000.0 523836.0 0
210003.0 524058.0 0
214000.0 523751.0 0
222010.0 523751.0 0
226036.0 524115.0 0
230023.0 523799.0 0
234018.0 524011.0 0
238011.0 523771.0 0
246057.0 523748.0 0
254089.0 524029.0 0
258086.0 524062.0 0
262076.0 523817.0 0
266070.0 523950.0 0
270061.0 523745.0 0
274050.0 523997.0 0
278040.0 523747.0 0
282031.0 523973.0 0
286023.0 523750.0 0
290018.0 523906.0 0
294015.0 523763.0 0
298011.0 523912.0 0
302010.0 523837.0 0
306008.0 523944.0 0
310008.0 523965.0 0
314007.0 524045.0 0
318008.0 524069.0 0
322008.0 524127.0 0
326007.0 524163.0 0
342004.0 524110.0 0
346004.0 524077.0 0
350003.0 524039.0 0
354003.0 524034.0 0
358002.0 523996.0 0
362002.0 524004.0 0
366002.0 523992.0 0
370002.0 524120.0 0
382010.0 523996.0 0
386008.0 523921.0 0
390008.0 523886.0 0
394007.0 523896.0 0
398007.0 523920.0 0
121984.0 524214.0 0
125981.0 524360.0 0
161993.0 524168.0 0
165992.0 524210.0 0
169991.0 524226.0 0
173990.0 524211.0 0
177989.0 524185.0 0
218038.0 524211.0 0
242084.0 524208.0 0
250102.0 524353.0 0
330007.0 524199.0 0
334006.0 524195.0 0
338005.0 524157.0 0
374020.0 524365.0 0
378017.0 524215.0 0
102000.0 527920.0 0
106000.0 527896.0 0
110000.0 527886.0 0
114000.0 527924.0 0
118001.0 527995.0 0
122007.0 528191.0 0
126011.0 528333.0 0
130004.0 528099.0 0
134002.0 527991.0 0
138002.0 528002.0 0
142001.0 527996.0 0
146001.0 528034.0 0
150001.0 528036.0 0
154001.0 528065.0 0
158001.0 528104.0 0
162002.0 528155.0 0
166003.0 528188.0 0
170003.0 528199.0 0
174003.0 528177.0 0
178003.0 528149.0 0
182003.0 528087.0 0
186003.0 528065.0 0
190002.0 527980.0 0
194001.0 527997.0 0
198001.0 527896.0 0
202000.0 527997.0 0
206000.0 527820.0 0
210000.0 528041.0 0
214000.0 527751.0 0
217986.0 528178.0 0
222000.0 527751.0 0
225991.0 528095.0 0
229999.0 527795.0 0
233995.0 528002.0 0
237988.0 527771.0 0
241966.0 528185.0 0
245943.0 527748.0 0
249898.0 528344.0 0
253883.0 528005.0 0
257975.0 528053.0 0
261992.0 527802.0 0
265993.0 527947.0 0
270000.0 527751.0 0
273992.0 527990.0 0
278000.0 527751.0 0
281998.0 527969.0 0
286000.0 527751.0 0
290000.0 527905.0 0
294000.0 527761.0 0
298000.0 527908.0 0
302000.0 527822.0 0
305999.0 527928.0 0
309999.0 527940.0 0
313999.0 528021.0 0
317998.0 528040.0 0
321998.0 528099.0 0
325998.0 528134.0 0
329998.0 528173.0 0
333998.0 528174.0 0
337999.0 528143.0 0
341999.0 528103.0 0
345999.0 528073.0 0
349999.0 528038.0 0
353999.0 528034.0 0
357999.0 527996.0 0
361998.0 528004.0 0
365998.0 527991.0 0
369996.0 528103.0 0
373989.0 528337.0 0
377993.0 528192.0 0
381999.0 527987.0 0
386000.0 527916.0 0
390000.0 527885.0 0
394000.0 527896.0 0
398000.0 527920.0 0
102000.0 531919.0 0
106000.0 531896.0 0
110000.0 531885.0 0
114000.0 531918.0 0
190000.0 531956.0 0
198000.0 531880.0 0
206000.0 531806.0 0
214000.0 531751.0 0
222000.0 531751.0 0
230000.0 531791.0 0
238000.0 531770.0 0
246000.0 531751.0 0
262017.0 531791.0 0
270008.0 531751.0 0
278000.0 531751.0 0
286000.0 531751.0 0
290000.0 531903.0 0
294000.0 531758.0 0
298000.0 531905.0 0
302000.0 531810.0 0
306000.0 531916.0 0
310000.0 531918.0 0
386000.0 531911.0 0
390000.0 531884.0 0
394000.0 531896.0 0
398000.0 531919.0 0
118000.0 531983.0 0
121996.0 532169.0 0
125994.0 532306.0 0
130000.0 532087.0 0
134000.0 531990.0 0
138000.0 532001.0 0
142000.0 531996.0 0
146000.0 532033.0 0
150000.0 532035.0 0
154000.0 532062.0 0
158000.0 532097.0 0
161999.0 532143.0 0
165999.0 532169.0 0
169999.0 532175.0 0
173999.0 532147.0 0
177999.0 532119.0 0
182000.0 532056.0 0
186000.0 532041.0 0
194000.0 531981.0 0
202000.0 531983.0 0
210000.0 532026.0 0
218003.0 532149.0 0
226001.0 532076.0 0
234000.0 531994.0 0
242014.0 532165.0 0
250043.0 532337.0 0
254027.0 531984.0 0
258026.0 532045.0 0
266014.0 531944.0 0
274001.0 531983.0 0
282000.0 531964.0 0
314000.0 532001.0 0
318000.0 532015.0 0
322000.0 532075.0 0
326001.0 532109.0 0
330000.0 532150.0 0
334000.0 532155.0 0
338000.0 532131.0 0
342000.0 532095.0 0
346000.0 532069.0 0
350000.0 532038.0 0
354000.0 532033.0 0
358000.0 531996.0 0
362000.0 532003.0 0
366000.0 531991.0 0
370000.0 532090.0 0
374006.0 532309.0 0
378004.0 532169.0 0
382000.0 531978.0 0
102000.0 535919.0 0
106000.0 535895.0 0
110000.0 535884.0 0
114000.0 535912.0 0
118000.0 535972.0 0
122000.0 536147.0 0
126002.0 536278.0 0
130000.0 536078.0 0
134000.0 535990.0 0
138000.0 536000.0 0
142000.0 535996.0 0
146000.0 536033.0 0
150000.0 536035.0 0
154000.0 536059.0 0
158000.0 536090.0 0
162000.0 536132.0 0
166000.0 536151.0 0
170000.0 536154.0 0
174000.0 536121.0 0
178000.0 536092.0 0
182000.0 536028.0 0
186000.0 536020.0 0
190000.0 535936.0 0
194000.0 535967.0 0
198000.0 535864.0 0
202000.0 535971.0 0
206000.0 535794.0 0
210000.0 536012.0 0
214000.0 535751.0 0
218000.0 536122.0 0
222000.0 535751.0 0
226000.0 536060.0 0
230000.0 535787.0 0
234000.0 535986.0 0
238000.0 535770.0 0
241997.0 536147.0 0
246000.0 535751.0 0
249973.0 536332.0 0
253988.0 535966.0 0
257997.0 536038.0 0
261999.0 535782.0 0
266000.0 535942.0 0
270000.0 535751.0 0
274000.0 535977.0 0
278000.0 535751.0 0
282000.0 535959.0 0
286000.0 535751.0 0
290000.0 535902.0 0
294000.0 535756.0 0
298000.0 535903.0 0
302000.0 535801.0 0
306000.0 535905.0 0
310000.0 535900.0 0
314000.0 535985.0 0
318000.0 535994.0 0
322000.0 536054.0 0
326000.0 536087.0 0
330000.0 536130.0 0
334000.0 536137.0 0
338000.0 536120.0 0
342000.0 536087.0 0
346000.0 536065.0 0
350000.0 536037.0 0
354000.0 536033.0 0
358000.0 535996.0 0
362000.0 536001.0 0
366000.0 535990.0 0
370000.0 536081.0 0
373998.0 536281.0 0
378000.0 536147.0 0
382000.0 535968.0 0
386000.0 535906.0 0
390000.0 535883.0 0
394000.0 535895.0 0
398000.0 535919.0 0
102000.0 539919.0 0
106000.0 539895.0 0
110000.0 539883.0 0
114000.0 539906.0 0
118000.0 539962.0 0
122000.0 540125.0 0
126000.0 540250.0 0
130000.0 540071.0 0
134000.0 539989.0 0
138000.0 539999.0 0
142000.0 539996.0 0
146000.0 540033.0 0
150000.0 540034.0 0
154000.0 540056.0 0
158000.0 540083.0 0
162000.0 540121.0 0
166000.0 540135.0 0
170000.0 540134.0 0
174000.0 540098.0 0
178000.0 540070.0 0
182000.0 540005.0 0
186000.0 540002.0 0
190000.0 539918.0 0
194000.0 539953.0 0
198000.0 539850.0 0
202000.0 539961.0 0
206000.0 539785.0 0
210000.0 539999.0 0
214000.0 539751.0 0
218000.0 540098.0 0
222000.0 539751.0 0
226000.0 540045.0 0
230000.0 539784.0 0
234000.0 539979.0 0
238000.0 539770.0 0
242000.0 540131.0 0
246000.0 539751.0 0
250008.0 540327.0 0
254002.0 539949.0 0
258001.0 540032.0 0
262000.0 539775.0 0
266000.0 539939.0 0
270000.0 539751.0 0
274000.0 539971.0 0
278000.0 539751.0 0
282000.0 539955.0 0
286000.0 539751.0 0
290000.0 539901.0 0
294000.0 539755.0 0
298000.0 539901.0 0
302000.0 539793.0 0
306000.0 539897.0 0
310000.0 539885.0 0
314000.0 539970.0 0
318000.0 539975.0 0
322000.0 540037.0 0
326000.0 540069.0 0
330000.0 540113.0 0
334000.0 540122.0 0
338000.0 540109.0 0
342000.0 540080.0 0
346000.0 540061.0 0
350000.0 540036.0 0
354000.0 540033.0 0
358000.0 539996.0 0
362000.0 540000.0 0
366000.0 539989.0 0
370000.0 540073.0 0
374000.0 540252.0 0
378000.0 540125.0 0
382000.0 539959.0 0
386000.0 539902.0 0
390000.0 539882.0 0
394000.0 539895.0 0
398000.0 539919.0 0
102000.0 543918.0 0
106000.0 543895.0 0
110000.0 543882.0 0
114000.0 543901.0 0
118000.0 543951.0 0
122000.0 544105.0 0
126000.0 544224.0 0
130000.0 544065.0 0
134000.0 543988.0 0
138000.0 543998.0 0
142000.0 543996.0 0
146000.0 544032.0 0
150000.0 544033.0 0
154000.0 544054.0 0
158000.0 544076.0 0
162000.0 544110.0 0
166000.0 544120.0 0
170000.0 544117.0 0
174000.0 544078.0 0
178000.0 544050.0 0
182000.0 543985.0 0
186000.0 543986.0 0
190000.0 543903.0 0
194000.0 543941.0 0
198000.0 543836.0 0
202000.0 543952.0 0
206000.0 543777.0 0
210000.0 543987.0 0
214000.0 543751.0 0
218000.0 544076.0 0
222000.0 543751.0 0
226000.0 544031.0 0
230000.0 543780.0 0
234000.0 543973.0 0
238000.0 543770.0 0
242000.0 544117.0 0
246000.0 543751.0 0
249998.0 544322.0 0
254000.0 543933.0 0
258000.0 544026.0 0
262000.0 543770.0 0
266000.0 543936.0 0
270000.0 543751.0 0
274000.0 543965.0 0
278000.0 543751.0 0
282000.0 543951.0 0
286000.0 543751.0 0
290000.0 543899.0 0
294000.0 543754.0 0
298000.0 543899.0 0
302000.0 543787.0 0
306000.0 543890.0 0
310000.0 543872.0 0
314000.0 543958.0 0
318000.0 543959.0 0
322000.0 544021.0 0
326000.0 544052.0 0
330000.0 544098.0 0
334000.0 544107.0 0
338000.0 544099.0 0
342000.0 544072.0 0
346000.0 544057.0 0
350000.0 544035.0 0
354000.0 544032.0 0
358000.0 543996.0 0
362000.0 543999.0 0
366000.0 543988.0 0
370000.0 544067.0 0
374000.0 544225.0 0
378000.0 544105.0 0
382000.0 543949.0 0
386000.0 543898.0 0
390000.0 543881.0 0
394000.0 543895.0 0
398000.0 543919.0 0
102000.0 547918.0 0
106000.0 547895.0 0
110000.0 547881.0 0
114000.0 547896.0 0
118000.0 547942.0 0
122000.0 548086.0 0
126000.0 548198.0 0
130000.0 548060.0 0
134000.0 547987.0 0
138000.0 547996.0 0
142000.0 547996.0 0
146000.0 548032.0 0
150000.0 548032.0 0
154000.0 548051.0 0
158000.0 548069.0 0
162000.0 548101.0 0
166000.0 548105.0 0
170000.0 548101.0 0
174000.0 548061.0 0
178000.0 548033.0 0
182000.0 547967.0 0
186000.0 547973.0 0
190000.0 547889.0 0
194000.0 547929.0 0
198000.0 547824.0 0
202000.0 547944.0 0
206000.0 547771.0 0
210000.0 547977.0 0
214000.0 547751.0 0
218000.0 548057.0 0
222000.0 547751.0 0
226000.0 548019.0 0
230000.0 547777.0 0
234000.0 547967.0 0
238000.0 547770.0 0
242000.0 548104.0 0
246000.0 547751.0 0
250000.0 548317.0 0
254000.0 547918.0 0
258000.0 548020.0 0
262000.0 547765.0 0
266000.0 547933.0 0
270000.0 547751.0 0
274000.0 547959.0 0
278000.0 547751.0 0
282000.0 547946.0 0
286000.0 547751.0 0
290000.0 547898.0 0
294000.0 547753.0 0
298000.0 547897.0 0
302000.0 547781.0 0
306000.0 547883.0 0
310000.0 547860.0 0
314000.0 547947.0 0
318000.0 547944.0 0
322000.0 548008.0 0
326000.0 548038.0 0
330000.0 548084.0 0
334000.0 548094.0 0
338000.0 548090.0 0
342000.0 548065.0 0
346000.0 548054.0 0
350000.0 548034.0 0
354000.0 548032.0 0
358000.0 547996.0 0
362000.0 547997.0 0
366000.0 547987.0 0
370000.0 548062.0 0
374000.0 548200.0 0
378000.0 548086.0 0
382000.0 547940.0 0
386000.0 547894.0 0
390000.0 547880.0 0
394000.0 547895.0 0
398000.0 547918.0 0
102000.0 551918.0 0
106000.0 551895.0 0
110000.0 551880.0 0
114000.0 551892.0 0
118000.0 551933.0 0
122000.0 552069.0 0
126000.0 552175.0 0
130000.0 552056.0 0
134000.0 551986.0 0
138000.0 551995.0 0
142000.0 551996.0 0
146000.0 552031.0 0
150000.0 552031.0 0
154000.0 552049.0 0
158000.0 552062.0 0
162000.0 552091.0 0
166000.0 552092.0 0
170000.0 552087.0 0
174000.0 552045.0 0
178000.0 552018.0 0
182000.0 551952.0 0
186000.0 551961.0 0
190000.0 551877.0 0
194000.0 551919.0 0
198000.0 551813.0 0
202000.0 551937.0 0
206000.0 551767.0 0
210000.0 551967.0 0
214000.0 551751.0 0
218000.0 552040.0 0
222000.0 551751.0 0
226000.0 552008.0 0
230000.0 551774.0 0
234000.0 551962.0 0
238000.0 551769.0 0
242000.0 552092.0 0
246000.0 551751.0 0
250000.0 552312.0 0
254000.0 551905.0 0
258000.0 552015.0 0
262000.0 551762.0 0
266000.0 551931.0 0
270000.0 551751.0 0
274000.0 551954.0 0
278000.0 551751.0 0
282000.0 551942.0 0
286000.0 551751.0 0
290000.0 551896.0 0
294000.0 551752.0 0
298000.0 551896.0 0
302000.0 551777.0 0
306000.0 551878.0 0
310000.0 551851.0 0
314000.0 551938.0 0
318000.0 551932.0 0
322000.0 551996.0 0
326000.0 552025.0 0
330000.0 552072.0 0
334000.0 552082.0 0
338000.0 552082.0 0
342000.0 552059.0 0
346000.0 552051.0 0
350000.0 552033.0 0
354000.0 552031.0 0
358000.0 551996.0 0
362000.0 551996.0 0
366000.0 551986.0 0
370000.0 552057.0 0
374000.0 552176.0 0
378000.0 552069.0 0
382000.0 551932.0 0
386000.0 551890.0 0
390000.0 551879.0 0
394000.0 551895.0 0
398000.0 551918.0 0
102000.0 555918.0 0
106000.0 555894.0 0
110000.0 555878.0 0
114000.0 555888.0 0
118000.0 555925.0 0
122000.0 556053.0 0
126000.0 556153.0 0
130000.0 556052.0 0
134000.0 555984.0 0
138000.0 555993.0 0
142000.0 555996.0 0
146000.0 556031.0 0
150000.0 556030.0 0
154000.0 556047.0 0
158000.0 556056.0 0
162000.0 556083.0 0
166000.0 556081.0 0
170000.0 556075.0 0
174000.0 556031.0 0
178000.0 556005.0 0
182000.0 555939.0 0
186000.0 555951.0 0
190000.0 555866.0 0
194000.0 555910.0 0
198000.0 555804.0 0
202000.0 555932.0 0
206000.0 555763.0 0
210000.0 555958.0 0
214000.0 555751.0 0
218000.0 556025.0 0
222000.0 555751.0 0
226000.0 555999.0 0
230000.0 555771.0 0
234000.0 555957.0 0
238000.0 555769.0 0
242000.0 556082.0 0
246000.0 555751.0 0
250000.0 556308.0 0
254000.0 555892.0 0
258000.0 556011.0 0
262000.0 555760.0 0
266000.0 555929.0 0
270000.0 555751.0 0
274000.0 555949.0 0
278000.0 555751.0 0
282000.0 555939.0 0
286000.0 555751.0 0
290000.0 555895.0 0
294000.0 555752.0 0
298000.0 555895.0 0
302000.0 555772.0 0
306000.0 555873.0 0
310000.0 555842.0 0
314000.0 555930.0 0
318000.0 555921.0 0
322000.0 555986.0 0
326000.0 556014.0 0
330000.0 556061.0 0
334000.0 556071.0 0
338000.0 556074.0 0
342000.0 556052.0 0
346000.0 556049.0 0
350000.0 556032.0 0
354000.0 556031.0 0
358000.0 555996.0 0
362000.0 555994.0 0
366000.0 555985.0 0
370000.0 556053.0 0
374000.0 556154.0 0
378000.0 556053.0 0
382000.0 555924.0 0
386000.0 555887.0 0
390000.0 555878.0 0
394000.0 555894.0 0
398000.0 555918.0 0
102000.0 559917.0 0
106000.0 559894.0 0
110000.0 559877.0 0
114000.0 559885.0 0
118000.0 559917.0 0
122000.0 560039.0 0
126000.0 560133.0 0
130000.0 560049.0 0
134000.0 559983.0 0
138000.0 559992.0 0
142000.0 559995.0 0
146000.0 560030.0 0
150000.0 560029.0 0
154000.0 560045.0 0
158000.0 560051.0 0
162000.0 560075.0 0
166000.0 560070.0 0
170000.0 560063.0 0
174000.0 560019.0 0
178000.0 559993.0 0
182000.0 559928.0 0
186000.0 559942.0 0
190000.0 559857.0 0
194000.0 559902.0 0
198000.0 559796.0 0
202000.0 559927.0 0
206000.0 559760.0 0
210000.0 559951.0 0
214000.0 559751.0 0
218000.0 560012.0 0
222000.0 559751.0 0
226000.0 559990.0 0
230000.0 559769.0 0
234000.0 559953.0 0
238000.0 559768.0 0
242000.0 560073.0 0
246000.0 559751.0 0
250000.0 560303.0 0
254000.0 559881.0 0
258000.0 560007.0 0
262000.0 559758.0 0
266000.0 559926.0 0
270000.0 559751.0 0
274000.0 559945.0 0
278000.0 559751.0 0
282000.0 559935.0 0
286000.0 559751.0 0
290000.0 559894.0 0
294000.0 559752.0 0
298000.0 559894.0 0
302000.0 559769.0 0
306000.0 559869.0 0
310000.0 559835.0 0
314000.0 559923.0 0
318000.0 559912.0 0
322000.0 559977.0 0
326000.0 560004.0 0
330000.0 560051.0 0
334000.0 560061.0 0
338000.0 560067.0 0
342000.0 560047.0 0
346000.0 560047.0 0
350000.0 560031.0 0
354000.0 560030.0 0
358000.0 559995.0 0
362000.0 559993.0 0
366000.0 559984.0 0
370000.0 560050.0 0
374000.0 560134.0 0
378000.0 560039.0 0
382000.0 559917.0 0
386000.0 559884.0 0
390000.0 559877.0 0
394000.0 559894.0 0
398000.0 559917.0 0
102000.0 563917.0 0
106000.0 563894.0 0
110000.0 563876.0 0
114000.0 563882.0 0
118000.0 563911.0 0
122000.0 564027.0 0
126000.0 564116.0 0
130000.0 564045.0 0
134000.0 563982.0 0
138000.0 563991.0 0
142000.0 563995.0 0
146000.0 564030.0 0
150000.0 564028.0 0
154000.0 564043.0 0
158000.0 564046.0 0
162000.0 564068.0 0
166000.0 564060.0 0
170000.0 564054.0 0
174000.0 564009.0 0
178000.0 563984.0 0
182000.0 563918.0 0
186000.0 563934.0 0
190000.0 563849.0 0
194000.0 563895.0 0
198000.0 563789.0 0
202000.0 563923.0 0
206000.0 563758.0 0
210000.0 563945.0 0
214000.0 563751.0 0
218000.0 564001.0 0
222000.0 563751.0 0
226000.0 563983.0 0
230000.0 563767.0 0
234000.0 563949.0 0
238000.0 563768.0 0
242000.0 564065.0 0
246000.0 563751.0 0
250000.0 564299.0 0
254000.0 563872.0 0
258000.0 564003.0 0
262000.0 563756.0 0
266000.0 563924.0 0
270000.0 563751.0 0
274000.0 563941.0 0
278000.0 563751.0 0
282000.0 563932.0 0
286000.0 563751.0 0
290000.0 563893.0 0
294000.0 563752.0 0
298000.0 563893.0 0
302000.0 563765.0 0
306000.0 563865.0 0
310000.0 563829.0 0
314000.0 563917.0 0
318000.0 563904.0 0
322000.0 563969.0 0
326000.0 563995.0 0
330000.0 564043.0 0
334000.0 564052.0 0
338000.0 564060.0 0
342000.0 564042.0 0
346000.0 564045.0 0
350000.0 564030.0 0
354000.0 564030.0 0
358000.0 563995.0 0
362000.0 563992.0 0
366000.0 563983.0 0
370000.0 564046.0 0
374000.0 564117.0 0
378000.0 564027.0 0
382000.0 563911.0 0
386000.0 563881.0 0
390000.0 563876.0 0
394000.0 563894.0 0
398000.0 563917.0 0
102000.0 567917.0 0
106000.0 567894.0 0
110000.0 567876.0 0
114000.0 567879.0 0
118000.0 567905.0 0
122000.0 568017.0 0
126000.0 568101.0 0
130000.0 568043.0 0
134000.0 567981.0 0
138000.0 567990.0 0
142000.0 567995.0 0
146000.0 568029.0 0
150000.0 568027.0 0
154000.0 568042.0 0
158000.0 568041.0 0
162000.0 568062.0 0
166000.0 568052.0 0
170000.0 568045.0 0
174000.0 568000.0 0
178000.0 567975.0 0
182000.0 567909.0 0
186000.0 567928.0 0
190000.0 567842.0 0
194000.0 567889.0 0
198000.0 567783.0 0
202000.0 567920.0 0
206000.0 567756.0 0
210000.0 567939.0 0
214000.0 567751.0 0
218000.0 567992.0 0
222000.0 567751.0 0
226000.0 567977.0 0
230000.0 567765.0 0
234000.0 567946.0 0
238000.0 567768.0 0
242000.0 568059.0 0
246000.0 567751.0 0
250000.0 568296.0 0
254000.0 567864.0 0
258000.0 568000.0 0
262000.0 567755.0 0
266000.0 567923.0 0
270000.0 567751.0 0
274000.0 567938.0 0
278000.0 567751.0 0
282000.0 567930.0 0
286000.0 567751.0 0
290000.0 567892.0 0
294000.0 567751.0 0
298000.0 567892.0 0
302000.0 567763.0 0
306000.0 567862.0 0
310000.0 567823.0 0
314000.0 567912.0 0
318000.0 567897.0 0
322000.0 567962.0 0
326000.0 567988.0 0
330000.0 568035.0 0
334000.0 568045.0 0
338000.0 568055.0 0
342000.0 568038.0 0
346000.0 568043.0 0
350000.0 568029.0 0
354000.0 568030.0 0
358000.0 567995.0 0
362000.0 567991.0 0
366000.0 567982.0 0
370000.0 568043.0 0
374000.0 568102.0 0
378000.0 568017.0 0
382000.0 567905.0 0
386000.0 567879.0 0
390000.0 567875.0 0
394000.0 567894.0 0
398000.0 567917.0 0
102000.0 571916.0 0
106000.0 571894.0 0
110000.0 571875.0 0
114000.0 571877.0 0
118000.0 571901.0 0
122000.0 572008.0 0
126000.0 572089.0 0
130000.0 572040.0 0
134000.0 571981.0 0
138000.0 571989.0 0
142000.0 571995.0 0
146000.0 572029.0 0
150000.0 572027.0 0
154000.0 572041.0 0
158000.0 572038.0 0
162000.0 572056.0 0
166000.0 572045.0 0
170000.0 572038.0 0
174000.0 571992.0 0
178000.0 571968.0 0
182000.0 571903.0 0
186000.0 571922.0 0
190000.0 571836.0 0
194000.0 571885.0 0
198000.0 571779.0 0
202000.0 571917.0 0
206000.0 571755.0 0
210000.0 571935.0 0
214000.0 571751.0 0
218000.0 571984.0 0
222000.0 571751.0 0
226000.0 571972.0 0
230000.0 571764.0 0
234000.0 571944.0 0
238000.0 571767.0 0
242000.0 572053.0 0
246000.0 571751.0 0
250000.0 572293.0 0
254000.0 571857.0 0
258000.0 571998.0 0
262000.0 571754.0 0
266000.0 571921.0 0
270000.0 571751.0 0
274000.0 571935.0 0
278000.0 571751.0 0
282000.0 571927.0 0
286000.0 571751.0 0
290000.0 571891.0 0
294000.0 571751.0 0
298000.0 571891.0 0
302000.0 571761.0 0
306000.0 571859.0 0
310000.0 571819.0 0
314000.0 571908.0 0
318000.0 571891.0 0
322000.0 571957.0 0
326000.0 571982.0 0
330000.0 572029.0 0
334000.0 572038.0 0
338000.0 572050.0 0
342000.0 572034.0 0
346000.0 572042.0 0
350000.0 572028.0 0
354000.0 572029.0 0
358000.0 571995.0 0
362000.0 571990.0 0
366000.0 571981.0 0
370000.0 572041.0 0
374000.0 572090.0 0
378000.0 572008.0 0
382000.0 571901.0 0
386000.0 571877.0 0
390000.0 571875.0 0
394000.0 571894.0 0
398000.0 571916.0 0
102000.0 575916.0 0
106000.0 575894.0 0
110000.0 575874.0 0
114000.0 575875.0 0
118000.0 575897.0 0
122000.0 576001.0 0
126000.0 576079.0 0
130000.0 576038.0 0
134000.0 575980.0 0
138000.0 575988.0 0
142000.0 575995.0 0
146000.0 576029.0 0
150000.0 576026.0 0
154000.0 576040.0 0
158000.0 576035.0 0
162000.0 576052.0 0
166000.0 576039.0 0
170000.0 576032.0 0
174000.0 575986.0 0
178000.0 575963.0 0
182000.0 575897.0 0
186000.0 575918.0 0
190000.0 575831.0 0
194000.0 575881.0 0
198000.0 575775.0 0
202000.0 575915.0 0
206000.0 575754.0 0
210000.0 575931.0 0
214000.0 575751.0 0
218000.0 575978.0 0
222000.0 575751.0 0
226000.0 575968.0 0
230000.0 575762.0 0
234000.0 575941.0 0
238000.0 575767.0 0
242000.0 576049.0 0
246000.0 575751.0 0
254000.0 575851.0 0
258000.0 575996.0 0
262000.0 575754.0 0
266000.0 575920.0 0
270000.0 575751.0 0
274000.0 575933.0 0
278000.0 575751.0 0
282000.0 575926.0 0
286000.0 575751.0 0
290000.0 575890.0 0
294000.0 575751.0 0
298000.0 575891.0 0
302000.0 575759.0 0
306000.0 575857.0 0
310000.0 575815.0 0
314000.0 575905.0 0
318000.0 575886.0 0
322000.0 575952.0 0
326000.0 575977.0 0
330000.0 576024.0 0
334000.0 576033.0 0
338000.0 576046.0 0
342000.0 576031.0 0
346000.0 576041.0 0
350000.0 576027.0 0
354000.0 576029.0 0
358000.0 575995.0 0
362000.0 575989.0 0
366000.0 575980.0 0
370000.0 576039.0 0
374000.0 576080.0 0
378000.0 576002.0 0
382000.0 575897.0 0
386000.0 575875.0 0
390000.0 575874.0 0
394000.0 575894.0 0
398000.0 575916.0 0
250000.0 576290.0 0
102000.0 579916.0 0
106000.0 579894.0 0
110000.0 579874.0 0
114000.0 579874.0 0
118000.0 579894.0 0
122000.0 579996.0 0
126000.0 580071.0 0
130000.0 580036.0 0
134000.0 579979.0 0
138000.0 579988.0 0
142000.0 579995.0 0
146000.0 580029.0 0
150000.0 580026.0 0
154000.0 580039.0 0
158000.0 580032.0 0
162000.0 580049.0 0
166000.0 580035.0 0
170000.0 580028.0 0
174000.0 579982.0 0
178000.0 579959.0 0
182000.0 579893.0 0
186000.0 579914.0 0
190000.0 579827.0 0
194000.0 579878.0 0
198000.0 579773.0 0
202000.0 579913.0 0
206000.0 579754.0 0
210000.0 579928.0 0
214000.0 579751.0 0
218000.0 579974.0 0
222000.0 579751.0 0
226000.0 579965.0 0
230000.0 579761.0 0
234000.0 579940.0 0
238000.0 579767.0 0
242000.0 580046.0 0
246000.0 579751.0 0
250000.0 580288.0 0
254000.0 579847.0 0
258000.0 579995.0 0
262000.0 579753.0 0
266000.0 579919.0 0
270000.0 579751.0 0
274000.0 579931.0 0
278000.0 579751.0 0
282000.0 579924.0 0
286000.0 579751.0 0
290000.0 579890.0 0
294000.0 579751.0 0
298000.0 579890.0 0
302000.0 579758.0 0
306000.0 579856.0 0
310000.0 579813.0 0
314000.0 579902.0 0
318000.0 579883.0 0
322000.0 579949.0 0
326000.0 579973.0 0
330000.0 580021.0 0
334000.0 580029.0 0
338000.0 580043.0 0
342000.0 580029.0 0
346000.0 580040.0 0
350000.0 580027.0 0
354000.0 580029.0 0
358000.0 579995.0 0
362000.0 579988.0 0
366000.0 579980.0 0
370000.0 580037.0 0
374000.0 580072.0 0
378000.0 579997.0 0
382000.0 579895.0 0
386000.0 579874.0 0
390000.0 579874.0 0
394000.0 579894.0 0
398000.0 579916.0 0
102000.0 583916.0 0
106000.0 583894.0 0
110000.0 583873.0 0
114000.0 583873.0 0
118000.0 583893.0 0
122000.0 583993.0 0
134000.0 583979.0 0
138000.0 583987.0 0
142000.0 583995.0 0
158000.0 584031.0 0
166000.0 584032.0 0
170000.0 584025.0 0
174000.0 583979.0 0
178000.0 583956.0 0
182000.0 583890.0 0
186000.0 583912.0 0
190000.0 583825.0 0
194000.0 583876.0 0
198000.0 583771.0 0
202000.0 583912.0 0
206000.0 583753.0 0
210000.0 583927.0 0
214000.0 583751.0 0
218000.0 583971.0 0
222000.0 583751.0 0
226000.0 583963.0 0
230000.0 583761.0 0
234000.0 583939.0 0
238000.0 583767.0 0
246000.0 583751.0 0
254000.0 583845.0 0
258000.0 583994.0 0
262000.0 583753.0 0
266000.0 583918.0 0
270000.0 583751.0 0
274000.0 583930.0 0
278000.0 583751.0 0
282000.0 583923.0 0
286000.0 583751.0 0
290000.0 583889.0 0
294000.0 583751.0 0
298000.0 583890.0 0
302000.0 583757.0 0
306000.0 583855.0 0
310000.0 583811.0 0
314000.0 583900.0 0
318000.0 583881.0 0
322000.0 583947.0 0
326000.0 583970.0 0
330000.0 584018.0 0
334000.0 584027.0 0
342000.0 584028.0 0
358000.0 583995.0 0
362000.0 583988.0 0
366000.0 583979.0 0
378000.0 583993.0 0
382000.0 583893.0 0
386000.0 583873.0 0
390000.0 583873.0 0
394000.0 583894.0 0
398000.0 583916.0 0
126000.0 584066.0 0
130000.0 584035.0 0
146000.0 584028.0 0
150000.0 584025.0 0
154000.0 584038.0 0
162000.0 584047.0 0
242000.0 584044.0 0
250000.0 584287.0 0
338000.0 584041.0 0
346000.0 584039.0 0
350000.0 584026.0 0
354000.0 584029.0 0
370000.0 584036.0 0
374000.0 584067.0 0
102000.0 587916.0 0
106000.0 587894.0 0
110000.0 587873.0 0
114000.0 587873.0 0
118000.0 587892.0 0
122000.0 587991.0 0
126000.0 588064.0 0
130000.0 588035.0 0
134000.0 587979.0 0
138000.0 587987.0 0
142000.0 587995.0 0
146000.0 588028.0 0
150000.0 588025.0 0
154000.0 588038.0 0
158000.0 588030.0 0
162000.0 588046.0 0
166000.0 588031.0 0
170000.0 588024.0 0
174000.0 587977.0 0
178000.0 587955.0 0
182000.0 587889.0 0
186000.0 587911.0 0
190000.0 587824.0 0
194000.0 587876.0 0
198000.0 587770.0 0
202000.0 587911.0 0
206000.0 587753.0 0
210000.0 587926.0 0
214000.0 587751.0 0
218000.0 587969.0 0
222000.0 587751.0 0
226000.0 587962.0 0
230000.0 587761.0 0
234000.0 587938.0 0
238000.0 587767.0 0
242000.0 588042.0 0
246000.0 587751.0 0
250000.0 588286.0 0
254000.0 587843.0 0
258000.0 587993.0 0
262000.0 587753.0 0
266000.0 587918.0 0
270000.0 587751.0 0
274000.0 587930.0 0
278000.0 587751.0 0
282000.0 587923.0 0
286000.0 587751.0 0
290000.0 587889.0 0
294000.0 587751.0 0
298000.0 587890.0 0
302000.0 587757.0 0
306000.0 587854.0 0
310000.0 587810.0 0
314000.0 587900.0 0
318000.0 587880.0 0
322000.0 587946.0 0
326000.0 587969.0 0
330000.0 588017.0 0
334000.0 588026.0 0
338000.0 588040.0 0
342000.0 588027.0 0
346000.0 588039.0 0
350000.0 588026.0 0
354000.0 588028.0 0
358000.0 587995.0 0
362000.0 587988.0 0
366000.0 587979.0 0
370000.0 588035.0 0
374000.0 588065.0 0
378000.0 587992.0 0
382000.0 587892.0 0
386000.0 587873.0 0
390000.0 587873.0 0
394000.0 587894.0 0
398000.0 587916.0 0
POINT_DATA 4650
SCALARS Radius float 1
LOOKUP_TABLE default
4000.0 4000.0 4000.0 4000.0 4000.0 4000.0 4000.0 4000.0 4000.0 4000.0 4000.0 4000.0 4000.0 4000.0 4000.0 4000.0 4000.0 4000.0 4000.0 4000.0 4000.0 4000.0 4000.0 4000.0 4000.0 4000.0 4000.0 4000.0 4000.0 4000.0 4000.0 4000.0 4000.0 4000.0 4000.0 4000.0 4000.0 4000.0 4000.0 4000.0 4000.0 4000.0 4000.0 4000.0 4000.0 4000.0 4000.0 4000.0 4000.0 4000.0 4000.0 4000.0 4000.0 4000.0 4000.0 4000.0 4000.0 4000.0 4000.0 4000.0 4000.0 4000.0 4000.0 4000.0 4000.0 4000.0 4000.0 4000.0 4000.0 4000.0 4000.0 4000.0 4000.0 4000.0 4000.0 4000.0 4000.0 4000.0 4000.0 4000.0 4000.0 4000.0 4000.0 4000.0 4000.0 4000.0 4000.0 4000.0 4000.0 4000.0 4000.0 4000.0 4000.0 4000.0 4000.0 4000.0 4000.0 4000.0 4000.0 4000.0 4000.0 4000.0 4000.0 4000.0 4000.0 4000.0 4000.0 4000.0 4000.0 4000.0 4000.0 4000.0 4000.0 4000.0 4000.0 4000.0 4000.0 4000.0 4000.0 4000.0 4000.0 4000.0 4000.0 4000.0 4000.0 4000.0 4000.0 4000.0 4000.0 4000.0 4000.0 4000.0 4000.0 4000.0 4000.0 4000.0 4000.0 4000.0 4000.0 4000.0 4000.0 4000.0 4000.0 4000.0 4000.0 4000.0 4000.0 4000.0 4000.0 4000.0 4000.0 4000.0 4000.0 4000.0 4000.0 4000.0 4000.0 4000.0 4000.0 4000.0 4000.0 4000.0 4000.0 4000.0 4000.0 4000.0 4000.0 4000.0 4000.0 4000.0 4000.0 4000.0 4000.0 4000.0 4000.0 4000.0 4000.0 4000.0 4000.0 4000.0 4000.0 4000.0 4000.0 4000.0 4000.0 4000.0 4000.0 4000.0 4000.0 4000.0 4000.0 4000.0 4000.0 4000.0 4000.0 4000.0 4000.0 4000.0 4000.0 4000.0 4000.0 4000.0 4000.0 4000.0 4000.0 4000.0 4000.0 4000.0 4000.0 4000.0 4000.0 4000.0 4000.0 4000.0 4000.0 4000.0 4000.0 4000.0 4000.0 4000.0 4000.0 4000.0 4000.0 4000.0 4000.0 4000.0 4000.0 4000.0 4000.0 4000.0 4000.0 4000.0 4000.0 4000.0 4000.0 4000.0 4000.0 4000.0 4000.0 4000.0 4000.0 4000.0 4000.0 4000.0 4000.0 4000.0 4000.0 4000.0 4000.0 4000.0 4000.0 4000.0 4000.0 4000.0 4000.0 4000.0 4000.0 4000.0 4000.0 4000.0 4000.0 4000.0 4000.0 4000.0 4000.0 4000.0 4000.0 4000.0 4000.0 4000.0 4000.0 4000.0 4000.0 4000.0 4000.0 4000.0 4000.0 4000.0 4000.0 4000.0 4000.0 4000.0 4000.0 4000.0 4000.0 4000.0 4000.0 4000.0 4000.0 4000.0 4000.0 4000.0 4000.0 4000.0 4000.0 4000.0 4000.0 4000.0 4000.0 4000.0 4000.0 4000.0 4000.0 4000.0 4000.0 4000.0 4000.0 4000.0 4000.0 4000.0 4000.0 4000.0 4000.0 4000.0 4000.0 4000.0 4000.0 4000.0 4000.0 4000.0 4000.0 4000.0 4000.0 4000.0 4000.0 4000.0 4000.0 4000.0 4000.0 4000.0 4000.0 4000.0 4000.0 4000.0 4000.0 4000.0 4000.0 4000.0 4000.0 4000.0 4000.0 4000.0 4000.0 4000.0 4000.0 4000.0 4000.0 4000.0 4000.0 4000.0 4000.0 4000.0 4000.0 4000.0 4000.0 4000.0 4000.0 4000.0 4000.0 4000.0 4000.0 4000.0 4000.0 4000.0 4000.0 4000.0 4000.0 4000.0 4000.0 4000.0 4000.0 4000.0 4000.0 4000.0 4000.0 4000.0 4000.0 4000.0 4000.0 4000.0 4000.0 4000.0 4000.0 4000.0 4000.0 4000.0 4000.0 4000.0 4000.0 4000.0 4000.0 4000.0 4000.0 4000.0 4000.0 4000.0 4000.0 4000.0 4000.0 4000.0 4000.0 4000.0 4000.0 4000.0 4000.0 4000.0 4000.0 4000.0 4000.0 4000.0 4000.0 4000.0 4000.0 4000.0 4000.0 4000.0 4000.0 4000.0 4000.0 4000.0 4000.0 4000.0 4000.0 4000.0 4000.0 4000.0 4000.0 4000.0 4000.0 4000.0 4000.0 4000.0 4000.0 4000.0 4000.0 4000.0 4000.0 4000.0 4000.0 4000.0 4000.0 4000.0 4000.0 4000.0 4000.0 4000.0 4000.0 4000.0 4000.0 4000.0 4000.0 4000.0 4000.0 4000.0 4000.0 4000.0 4000.0 4000.0 4000.0 4000.0 4000.0 4000.0 4000.0 4000.0 4000.0 4000.0 4000.0 4000.0 4000.0 4000.0 4000.0 4000.0 4000.0 4000.0 4000.0 4000.0 4000.0 4000.0 4000.0 4000.0 4000.0 4000.0 4000.0 4000.0 4000.0 4000.0 4000.0 4000.0 4000.0 4000.0 4000.0 4000.0 4000.0 4000.0 4000.0 4000.0 4000.0 4000.0 4000.0 4000.0 4000.0 4000.0 4000.0 4000.0 4000.0 4000.0 4000.0 4000.0 4000.0 4000.0 4000.0 4000.0 4000.0 4000.0 4000.0 4000.0 4000.0 4000.0 4000.0 4000.0 4000.0 4000.0 4000.0 4000.0 4000.0 4000.0 4000.0 4000.0 4000.0 4000.0 4000.0 4000.0 4000.0 4000.0 4000.0 4000.0 4000.0 4000.0 4000.0 4000.0 4000.0 4000.0 4000.0 4000.0 4000.0 4000.0 4000.0 4000.0 4000.0 4000.0 4000.0 4000.0 4000.0 4000.0 4000.0 4000.0 4000.0 4000.0 4000.0 4000.0 4000.0 4000.0 4000.0 4000.0 4000.0 4000.0 4000.0 4000.0 4000.0 4000.0 4000.0 4000.0 4000.0 4000.0 4000.0 4000.0 4000.0 4000.0 4000.0 4000.0 4000.0 4000.0 4000.0 4000.0 4000.0 4000.0 4000.0 4000.0 4000.0 4000.0 4000.0 4000.0 4000.0 4000.0 4000.0 4000.0 4000.0 4000.0 4000.0 4000.0 4000.0 4000.0 4000.0 4000.0 4000.0 4000.0 4000.0 4000.0 4000.0 4000.0 4000.0 4000.0 4000.0 4000.0 4000.0 4000.0 4000.0 4000.0 4000.0 4000.0 4000.0 4000.0 4000.0 4000.0 4000.0 4000.0 4000.0 4000.0 4000.0 4000.0 4000.0 4000.0 4000.0 4000.0 4000.0 4000.0 4000.0 4000.0 4000.0 4000.0 4000.0 4000.0 4000.0 4000.0 4000.0 4000.0 4000.0 4000.0 4000.0 4000.0 4000.0 4000.0 4000.0 4000.0 4000.0 4000.0 4000.0 4000.0 4000.0 4000.0 4000.0 4000.0 4000.0 4000.0 4000.0 4000.0 4000.0 4000.0 4000.0 4000.0 4000.0 4000.0 4000.0 4000.0 4000.0 4000.0 4000.0 4000.0 4000.0 4000.0 4000.0 4000.0 4000.0 4000.0 4000.0 4000.0 4000.0 4000.0 4000.0 4000.0 4000.0 4000.0 4000.0 4000.0 4000.0 4000.0 4000.0 4000.0 4000.0 4000.0 4000.0 4000.0 4000.0 4000.0 4000.0 4000.0 4000.0 4000.0 4000.0 4000.0 4000.0 4000.0 4000.0 4000.0 4000.0 4000.0 4000.0 4000.0 4000.0 4000.0 4000.0 4000.0 4000.0 4000.0 4000.0 4000.0 4000.0 4000.0 4000.0 4000.0 4000.0 4000.0 4000.0 4000.0 4000.0 4000.0 4000.0 4000.0 4000.0 4000.0 4000.0 4000.0 4000.0 4000.0 4000.0 4000.0 4000.0 4000.0 4000.0 4000.0 4000.0 4000.0 4000.0 4000.0 4000.0 4000.0 4000.0 4000.0 4000.0 4000.0 4000.0 4000.0 4000.0 4000.0 4000.0 4000.0 4000.0 4000.0 4000.0 4000.0 4000.0 4000.0 4000.0 4000.0 4000.0 4000.0 4000.0 4000.0 4000.0 4000.0 4000.0 4000.0 4000.0 4000.0 4000.0 4000.0 4000.0 4000.0 4000.0 4000.0 4000.0 4000.0 4000.0 4000.0 4000.0 4000.0 4000.0 4000.0 4000.0 4000.0 4000.0 4000.0 4000.0 4000.0 4000.0 4000.0 4000.0 4000.0 4000.0 4000.0 4000.0 4000.0 4000.0 4000.0 4000.0 4000.0 4000.0 4000.0 4000.0 4000.0 4000.0 4000.0 4000.0 4000.0 4000.0 4000.0 4000.0 4000.0 4000.0 4000.0 4000.0 4000.0 4000.0 4000.0 4000.0 4000.0 4000.0 4000.0 4000.0 4000.0 4000.0 4000.0 4000.0 4000.0 4000.0 4000.0 4000.0 4000.0 4000.0 4000.0 4000.0 4000.0 4000.0 4000.0 4000.0 4000.0 4000.0 4000.0 4000.0 4000.0 4000.0 4000.0 4000.0 4000.0 4000.0 4000.0 4000.0 4000.0 4000.0 4000.0 4000.0 4000.0 4000.0 4000.0 4000.0 4000.0 4000.0 4000.0 4000.0 4000.0 4000.0 4000.0 4000.0 4000.0 4000.0 4000.0 4000.0 4000.0 4000.0 4000.0 4000.0 4000.0 4000.0 4000.0 4000.0 4000.0 4000.0 4000.0 4000.0 4000.0 4000.0 4000.0 4000.0 4000.0 4000.0 4000.0 4000.0 4000.0 4000.0 4000.0 4000.0 4000.0 4000.0 4000.0 4000.0 4000.0 4000.0 4000.0 4000.0 4000.0 4000.0 4000.0 4000.0 4000.0 4000.0 4000.0 4000.0 4000.0 4000.0 4000.0 4000.0 4000.0 4000.0 4000.0 4000.0 4000.0 4000.0 4000.0 4000.0 4000.0 4000.0 4000.0 4000.0 4000.0 4000.0 4000.0 4000.0 4000.0 4000.0 4000.0 4000.0 4000.0 4000.0 4000.0 4000.0 4000.0 4000.0 4000.0 4000.0 4000.0 4000.0 4000.0 4000.0 4000.0 4000.0 4000.0 4000.0 4000.0 4000.0 4000.0 4000.0 4000.0 4000.0 4000.0 4000.0 4000.0 4000.0 4000.0 4000.0 4000.0 4000.0 4000.0 4000.0 4000.0 4000.0 4000.0 4000.0 4000.0 4000.0 4000.0 4000.0 4000.0 4000.0 4000.0 4000.0 4000.0 4000.0 4000.0 4000.0 4000.0 4000.0 4000.0 4000.0 4000.0 4000.0 4000.0 4000.0 4000.0 4000.0 4000.0 4000.0 4000.0 4000.0 4000.0 4000.0 4000.0 4000.0 4000.0 4000.0 4000.0 4000.0 4000.0 4000.0 4000.0 4000.0 4000.0 4000.0 4000.0 4000.0 4000.0 4000.0 4000.0 4000.0 4000.0 4000.0 4000.0 4000.0 4000.0 4000.0 4000.0 4000.0 4000.0 4000.0 4000.0 4000.0 4000.0 4000.0 4000.0 4000.0 4000.0 4000.0 4000.0 4000.0 4000.0 4000.0 4000.0 4000.0 4000.0 4000.0 4000.0 4000.0 4000.0 4000.0 4000.0 4000.0 4000.0 4000.0 4000.0 4000.0 4000.0 4000.0 4000.0 4000.0 4000.0 4000.0 4000.0 4000.0 4000.0 4000.0 4000.0 4000.0 4000.0 4000.0 4000.0 4000.0 4000.0 4000.0 4000.0 4000.0 4000.0 4000.0 4000.0 4000.0 4000.0 4000.0 4000.0 4000.0 4000.0 4000.0 4000.0 4000.0 4000.0 4000.0 4000.0 4000.0 4000.0 4000.0 4000.0 4000.0 4000.0 4000.0 4000.0 4000.0 4000.0 4000.0 4000.0 4000.0 4000.0 4000.0 4000.0 4000.0 4000.0 4000.0 4000.0 4000.0 4000.0 4000.0 4000.0 4000.0 4000.0 4000.0 4000.0 4000.0 4000.0 4000.0 4000.0 4000.0 4000.0 4000.0 4000.0 4000.0 4000.0 4000.0 4000.0 4000.0 4000.0 4000.0 4000.0 4000.0 4000.0 4000.0 4000.0 4000.0 4000.0 4000.0 4000.0 4000.0 4000.0 4000.0 4000.0 4000.0 4000.0 4000.0 4000.0 4000.0 4000.0 4000.0 4000.0 4000.0 4000.0 4000.0 4000.0 4000.0 4000.0 4000.0 4000.0 4000.0 4000.0 4000.0 4000.0 4000.0 4000.0 4000.0 4000.0 4000.0 4000.0 4000.0 4000.0 4000.0 4000.0 4000.0 4000.0 4000.0 4000.0 4000.0 4000.0 4000.0 4000.0 4000.0 4000.0 4000.0 4000.0 4000.0 4000.0 4000.0 4000.0 4000.0 4000.0 4000.0 4000.0 4000.0 4000.0 4000.0 4000.0 4000.0 4000.0 4000.0 4000.0 4000.0 4000.0 4000.0 4000.0 4000.0 4000.0 4000.0 4000.0 4000.0 4000.0 4000.0 4000.0 4000.0 4000.0 4000.0 4000.0 4000.0 4000.0 4000.0 4000.0 4000.0 4000.0 4000.0 4000.0 4000.0 4000.0 4000.0 4000.0 4000.0 4000.0 4000.0 4000.0 4000.0 4000.0 4000.0 4000.0 4000.0 4000.0 4000.0 4000.0 4000.0 4000.0 4000.0 4000.0 4000.0 4000.0 4000.0 4000.0 4000.0 4000.0 4000.0 4000.0 4000.0 4000.0 4000.0 4000.0 4000.0 4000.0 4000.0 4000.0 4000.0 4000.0 4000.0 4000.0 4000.0 4000.0 4000.0 4000.0 4000.0 4000.0 4000.0 4000.0 4000.0 4000.0 4000.0 4000.0 4000.0 4000.0 4000.0 4000.0 4000.0 4000.0 4000.0 4000.0 4000.0 4000.0 4000.0 4000.0 4000.0 4000.0 4000.0 4000.0 4000.0 4000.0 4000.0 4000.0 4000.0 4000.0 4000.0 4000.0 4000.0 4000.0 4000.0 4000.0 4000.0 4000.0 4000.0 4000.0 4000.0 4000.0 4000.0 4000.0 4000.0 4000.0 4000.0 4000.0 4000.0 4000.0 4000.0 4000.0 4000.0 4000.0 4000.0 4000.0 4000.0 4000.0 4000.0 4000.0 4000.0 4000.0 4000.0 4000.0 4000.0 4000.0 4000.0 4000.0 4000.0 4000.0 4000.0 4000.0 4000.0 4000.0 4000.0 4000.0 4000.0 4000.0 4000.0 4000.0 4000.0 4000.0 4000.0 4000.0 4000.0 4000.0 4000.0 4000.0 4000.0 4000.0 4000.0 4000.0 4000.0 4000.0 4000.0 4000.0 4000.0 4000.0 4000.0 4000.0 4000.0 4000.0 4000.0 4000.0 4000.0 4000.0 4000.0 4000.0 4000.0 4000.0 4000.0 4000.0 4000.0 4000.0 4000.0 4000.0 4000.0 4000.0 4000.0 4000.0 4000.0 4000.0 4000.0 4000.0 4000.0 4000.0 4000.0 4000.0 4000.0 4000.0 4000.0 4000.0 4000.0 4000.0 4000.0 4000.0 4000.0 4000.0 4000.0 4000.0 4000.0 4000.0 4000.0 4000.0 4000.0 4000.0 4000.0 4000.0 4000.0 4000.0 4000.0 4000.0 4000.0 4000.0 4000.0 4000.0 4000.0 4000.0 4000.0 4000.0 4000.0 4000.0 4000.0 4000.0 4000.0 4000.0 4000.0 4000.0 4000.0 4000.0 4000.0 4000.0 4000.0 4000.0 4000.0 4000.0 4000.0 4000.0 4000.0 4000.0 4000.0 4000.0 4000.0 4000.0 4000.0 4000.0 4000.0 4000.0 4000.0 4000.0 4000.0 4000.0 4000.0 4000.0 4000.0 4000.0 4000.0 4000.0 4000.0 4000.0 4000.0 4000.0 4000.0 4000.0 4000.0 4000.0 4000.0 4000.0 4000.0 4000.0 4000.0 4000.0 4000.0 4000.0 4000.0 4000.0 4000.0 4000.0 4000.0 4000.0 4000.0 4000.0 4000.0 4000.0 4000.0 4000.0 4000.0 4000.0 4000.0 4000.0 4000.0 4000.0 4000.0 4000.0 4000.0 4000.0 4000.0 4000.0 4000.0 4000.0 4000.0 4000.0 4000.0 4000.0 4000.0 4000.0 4000.0 4000.0 4000.0 4000.0 4000.0 4000.0 4000.0 4000.0 4000.0 4000.0 4000.0 4000.0 4000.0 4000.0 4000.0 4000.0 4000.0 4000.0 4000.0 4000.0 4000.0 4000.0 4000.0 4000.0 4000.0 4000.0 4000.0 4000.0 4000.0 4000.0 4000.0 4000.0 4000.0 4000.0 4000.0 4000.0 4000.0 4000.0 4000.0 4000.0 4000.0 4000.0 4000.0 4000.0 4000.0 4000.0 4000.0 4000.0 4000.0 4000.0 4000.0 4000.0 4000.0 4000.0 4000.0 4000.0 4000.0 4000.0 4000.0 4000.0 4000.0 4000.0 4000.0 4000.0 4000.0 4000.0 4000.0 4000.0 4000.0 4000.0 4000.0 4000.0 4000.0 4000.0 4000.0 4000.0 4000.0 4000.0 4000.0 4000.0 4000.0 4000.0 4000.0 4000.0 4000.0 4000.0 4000.0 4000.0 4000.0 4000.0 4000.0 4000.0 4000.0 4000.0 4000.0 4000.0 4000.0 4000.0 4000.0 4000.0 4000.0 4000.0 4000.0 4000.0 4000.0 4000.0 4000.0 4000.0 4000.0 4000.0 4000.0 4000.0 4000.0 4000.0 4000.0 4000.0 4000.0 4000.0 4000.0 4000.0 4000.0 4000.0 4000.0 4000.0 4000.0 4000.0 4000.0 4000.0 4000.0 4000.0 4000.0 4000.0 4000.0 4000.0 4000.0 4000.0 4000.0 4000.0 4000.0 4000.0 4000.0 4000.0 4000.0 4000.0 4000.0 4000.0 4000.0 4000.0 4000.0 4000.0 4000.0 4000.0 4000.0 4000.0 4000.0 4000.0 4000.0 4000.0 4000.0 4000.0 4000.0 4000.0 4000.0 4000.0 4000.0 4000.0 4000.0 4000.0 4000.0 4000.0 4000.0 4000.0 4000.0 4000.0 4000.0 4000.0 4000.0 4000.0 4000.0 4000.0 4000.0 4000.0 4000.0 4000.0 4000.0 4000.0 4000.0 4000.0 4000.0 4000.0 4000.0 4000.0 4000.0 4000.0 4000.0 4000.0 4000.0 4000.0 4000.0 4000.0 4000.0 4000.0 4000.0 4000.0 4000.0 4000.0 4000.0 4000.0 4000.0 4000.0 4000.0 4000.0 4000.0 4000.0 4000.0 4000.0 4000.0 4000.0 4000.0 4000.0 4000.0 4000.0 4000.0 4000.0 4000.0 4000.0 4000.0 4000.0 4000.0 4000.0 4000.0 4000.0 4000.0 4000.0 4000.0 4000.0 4000.0 4000.0 4000.0 4000.0 4000.0 4000.0 4000.0 4000.0 4000.0 4000.0 4000.0 4000.0 4000.0 4000.0 4000.0 4000.0 4000.0 4000.0 4000.0 4000.0 4000.0 4000.0 4000.0 4000.0 4000.0 4000.0 4000.0 4000.0 4000.0 4000.0 4000.0 4000.0 4000.0 4000.0 4000.0 4000.0 4000.0 4000.0 4000.0 4000.0 4000.0 4000.0 4000.0 4000.0 4000.0 4000.0 4000.0 4000.0 4000.0 4000.0 4000.0 4000.0 4000.0 4000.0 4000.0 4000.0 4000.0 4000.0 4000.0 4000.0 4000.0 4000.0 4000.0 4000.0 4000.0 4000.0 4000.0 4000.0 4000.0 4000.0 4000.0 4000.0 4000.0 4000.0 4000.0 4000.0 4000.0 4000.0 4000.0 4000.0 4000.0 4000.0 4000.0 4000.0 4000.0 4000.0 4000.0 4000.0 4000.0 4000.0 4000.0 4000.0 4000.0 4000.0 4000.0 4000.0 4000.0 4000.0 4000.0 4000.0 4000.0 4000.0 4000.0 4000.0 4000.0 4000.0 4000.0 4000.0 4000.0 4000.0 4000.0 4000.0 4000.0 4000.0 4000.0 4000.0 4000.0 4000.0 4000.0 4000.0 4000.0 4000.0 4000.0 4000.0 4000.0 4000.0 4000.0 4000.0 4000.0 4000.0 4000.0 4000.0 4000.0 4000.0 4000.0 4000.0 4000.0 4000.0 4000.0 4000.0 4000.0 4000.0 4000.0 4000.0 4000.0 4000.0 4000.0 4000.0 4000.0 4000.0 4000.0 4000.0 4000.0 4000.0 4000.0 4000.0 4000.0 4000.0 4000.0 4000.0 4000.0 4000.0 4000.0 4000.0 4000.0 4000.0 4000.0 4000.0 4000.0 4000.0 4000.0 4000.0 4000.0 4000.0 4000.0 4000.0 4000.0 4000.0 4000.0 4000.0 4000.0 4000.0 4000.0 4000.0 4000.0 4000.0 4000.0 4000.0 4000.0 4000.0 4000.0 4000.0 4000.0 4000.0 4000.0 4000.0 4000.0 4000.0 4000.0 4000.0 4000.0 4000.0 4000.0 4000.0 4000.0 4000.0 4000.0 4000.0 4000.0 4000.0 4000.0 4000.0 4000.0 4000.0 4000.0 4000.0 4000.0 4000.0 4000.0 4000.0 4000.0 4000.0 4000.0 4000.0 4000.0 4000.0 4000.0 4000.0 4000.0 4000.0 4000.0 4000.0 4000.0 4000.0 4000.0 4000.0 4000.0 4000.0 4000.0 4000.0 4000.0 4000.0 4000.0 4000.0 4000.0 4000.0 4000.0 4000.0 4000.0 4000.0 4000.0 4000.0 4000.0 4000.0 4000.0 4000.0 4000.0 4000.0 4000.0 4000.0 4000.0 4000.0 4000.0 4000.0 4000.0 4000.0 4000.0 4000.0 4000.0 4000.0 4000.0 4000.0 4000.0 4000.0 4000.0 4000.0 4000.0 4000.0 4000.0 4000.0 4000.0 4000.0 4000.0 4000.0 4000.0 4000.0 4000.0 4000.0 4000.0 4000.0 4000.0 4000.0 4000.0 4000.0 4000.0 4000.0 4000.0 4000.0 4000.0 4000.0 4000.0 4000.0 4000.0 4000.0 4000.0 4000.0 4000.0 4000.0 4000.0 4000.0 4000.0 4000.0 4000.0 4000.0 4000.0 4000.0 4000.0 4000.0 4000.0 4000.0 4000.0 4000.0 4000.0 4000.0 4000.0 4000.0 4000.0 4000.0 4000.0 4000.0 4000.0 4000.0 4000.0 4000.0 4000.0 4000.0 4000.0 4000.0 4000.0 4000.0 4000.0 4000.0 4000.0 4000.0 4000.0 4000.0 4000.0 4000.0 4000.0 4000.0 4000.0 4000.0 4000.0 4000.0 4000.0 4000.0 4000.0 4000.0 4000.0 4000.0 4000.0 4000.0 4000.0 4000.0 4000.0 4000.0 4000.0 4000.0 4000.0 4000.0 4000.0 4000.0 4000.0 4000.0 4000.0 4000.0 4000.0 4000.0 4000.0 4000.0 4000.0 4000.0 4000.0 4000.0 4000.0 4000.0 4000.0 4000.0 4000.0 4000.0 4000.0 4000.0 4000.0 4000.0 4000.0 4000.0 4000.0 4000.0 4000.0 4000.0 4000.0 4000.0 4000.0 4000.0 4000.0 4000.0 4000.0 4000.0 4000.0 4000.0 4000.0 4000.0 4000.0 4000.0 4000.0 4000.0 4000.0 4000.0 4000.0 4000.0 4000.0 4000.0 4000.0 4000.0 4000.0 4000.0 4000.0 4000.0 4000.0 4000.0 4000.0 4000.0 4000.0 4000.0 4000.0 4000.0 4000.0 4000.0 4000.0 4000.0 4000.0 4000.0 4000.0 4000.0 4000.0 4000.0 4000.0 4000.0 4000.0 4000.0 4000.0 4000.0 4000.0 4000.0 4000.0 4000.0 4000.0 4000.0 4000.0 4000.0 4000.0 4000.0 4000.0 4000.0 4000.0 4000.0 4000.0 4000.0 4000.0 4000.0 4000.0 4000.0 4000.0 4000.0 4000.0 4000.0 4000.0 4000.0 4000.0 4000.0 4000.0 4000.0 4000.0 4000.0 4000.0 4000.0 4000.0 4000.0 4000.0 4000.0 4000.0 4000.0 4000.0 4000.0 4000.0 4000.0 4000.0 4000.0 4000.0 4000.0 4000.0 4000.0 4000.0 4000.0 4000.0 4000.0 4000.0 4000.0 4000.0 4000.0 4000.0 4000.0 4000.0 4000.0 4000.0 4000.0 4000.0 4000.0 4000.0 4000.0 4000.0 4000.0 4000.0 4000.0 4000.0 4000.0 4000.0 4000.0 4000.0 4000.0 4000.0 4000.0 4000.0 4000.0 4000.0 4000.0 4000.0 4000.0 4000.0 4000.0 4000.0 4000.0 4000.0 4000.0 4000.0 4000.0 4000.0 4000.0 4000.0 4000.0 4000.0 4000.0 4000.0 4000.0 4000.0 4000.0 4000.0 4000.0 4000.0 4000.0 4000.0 4000.0 4000.0 4000.0 4000.0 4000.0 4000.0 4000.0 4000.0 4000.0 4000.0 4000.0 4000.0 4000.0 4000.0 4000.0 4000.0 4000.0 4000.0 4000.0 4000.0 4000.0 4000.0 4000.0 4000.0 4000.0 4000.0 4000.0 4000.0 4000.0 4000.0 4000.0 4000.0 4000.0 4000.0 4000.0 4000.0 4000.0 4000.0 4000.0 4000.0 4000.0 4000.0 4000.0 4000.0 4000.0 4000.0 4000.0 4000.0 4000.0 4000.0 4000.0 4000.0 4000.0 4000.0 4000.0 4000.0 4000.0 4000.0 4000.0 4000.0 4000.0 4000.0 4000.0 4000.0 4000.0 4000.0 4000.0 4000.0 4000.0 4000.0 4000.0 4000.0 4000.0 4000.0 4000.0 4000.0 4000.0 4000.0 4000.0 4000.0 4000.0 4000.0 4000.0 4000.0 4000.0 4000.0 4000.0 4000.0 4000.0 4000.0 4000.0 4000.0 4000.0 4000.0 4000.0 4000.0 4000.0 4000.0 4000.0 4000.0 4000.0 4000.0 4000.0 4000.0 4000.0 4000.0 4000.0 4000.0 4000.0 4000.0 4000.0 4000.0 4000.0 4000.0 4000.0 4000.0 4000.0 4000.0 4000.0 4000.0 4000.0 4000.0 4000.0 4000.0 4000.0 4000.0 4000.0 4000.0 4000.0 4000.0 4000.0 4000.0 4000.0 4000.0 4000.0 4000.0 4000.0 4000.0 4000.0 4000.0 4000.0 4000.0 4000.0 4000.0 4000.0 4000.0 4000.0 4000.0 4000.0 4000.0 4000.0 4000.0 4000.0 4000.0 4000.0 4000.0 4000.0 4000.0 4000.0 4000.0 4000.0 4000.0 4000.0 4000.0 4000.0 4000.0 4000.0 4000.0 4000.0 4000.0 4000.0 4000.0 4000.0 4000.0 4000.0 4000.0 4000.0 4000.0 4000.0 4000.0 4000.0 4000.0 4000.0 4000.0 4000.0 4000.0 4000.0 4000.0 4000.0 4000.0 4000.0 4000.0 4000.0 4000.0 4000.0 4000.0 4000.0 4000.0 4000.0 4000.0 4000.0 4000.0 4000.0 4000.0 4000.0 4000.0 4000.0 4000.0 4000.0 4000.0 4000.0 4000.0 4000.0 4000.0 4000.0 4000.0 4000.0 4000.0 4000.0 4000.0 4000.0 4000.0 4000.0 4000.0 4000.0 4000.0 4000.0 4000.0 4000.0 4000.0 4000.0 4000.0 4000.0 4000.0 4000.0 4000.0 4000.0 4000.0 4000.0 4000.0 4000.0 4000.0 4000.0 4000.0 4000.0 4000.0 4000.0 4000.0 4000.0 4000.0 4000.0 4000.0 4000.0 4000.0 4000.0 4000.0 4000.0 4000.0 4000.0 4000.0 4000.0 4000.0 4000.0 4000.0 4000.0 4000.0 4000.0 4000.0 4000.0 4000.0 4000.0 4000.0 4000.0 4000.0 4000.0 4000.0 4000.0 4000.0 4000.0 4000.0 4000.0 4000.0 4000.0 4000.0 4000.0 4000.0 4000.0 4000.0 4000.0 4000.0 4000.0 4000.0 4000.0 4000.0 4000.0 4000.0 4000.0 4000.0 4000.0 4000.0 4000.0 4000.0 4000.0 4000.0 4000.0 4000.0 4000.0 4000.0 4000.0 4000.0 4000.0 4000.0 4000.0 4000.0 4000.0 4000.0 4000.0 4000.0 4000.0 4000.0 4000.0 4000.0 4000.0 4000.0 4000.0 4000.0 4000.0 4000.0 4000.0 4000.0 4000.0 4000.0 4000.0 4000.0 4000.0 4000.0 4000.0 4000.0 4000.0 4000.0 4000.0 4000.0 4000.0 4000.0 4000.0 4000.0 4000.0 4000.0 4000.0 4000.0 4000.0 4000.0 4000.0 4000.0 4000.0 4000.0 4000.0 4000.0 4000.0 4000.0 4000.0 4000.0 4000.0 4000.0 4000.0 4000.0 4000.0 4000.0 4000.0 4000.0 4000.0 4000.0 4000.0 4000.0 4000.0 4000.0 4000.0 4000.0 4000.0 4000.0 4000.0 4000.0 4000.0 4000.0 4000.0 4000.0 4000.0 4000.0 4000.0 4000.0 4000.0 4000.0 4000.0 4000.0 4000.0 4000.0 4000.0 4000.0 4000.0 4000.0 4000.0 4000.0 4000.0 4000.0 4000.0 4000.0 4000.0 4000.0 4000.0 4000.0 4000.0 4000.0 4000.0 4000.0 4000.0 4000.0 4000.0 4000.0 4000.0 4000.0 4000.0 4000.0 4000.0 4000.0 4000.0 4000.0 4000.0 4000.0 4000.0 4000.0 4000.0 4000.0 4000.0 4000.0 4000.0 4000.0 4000.0 4000.0 4000.0 4000.0 4000.0 4000.0 4000.0 4000.0 4000.0 4000.0 4000.0 4000.0 4000.0 4000.0 4000.0 4000.0 4000.0 4000.0 4000.0 4000.0 4000.0 4000.0 4000.0 4000.0 4000.0 4000.0 4000.0 4000.0 4000.0 4000.0 4000.0 4000.0 4000.0 4000.0 4000.0 4000.0 4000.0 4000.0 4000.0 4000.0 4000.0 4000.0 4000.0 4000.0 4000.0 4000.0 4000.0 4000.0 4000.0 4000.0 4000.0 4000.0 4000.0 4000.0 4000.0 4000.0 4000.0 4000.0 4000.0 4000.0 4000.0 4000.0 4000.0 4000.0 4000.0 4000.0 4000.0 4000.0 4000.0 4000.0 4000.0 4000.0 4000.0 4000.0 4000.0 4000.0 4000.0 4000.0 4000.0 4000.0 4000.0 4000.0 4000.0 4000.0 4000.0 4000.0 4000.0 4000.0 4000.0 4000.0 4000.0 4000.0 4000.0 4000.0 4000.0 4000.0 4000.0 4000.0 4000.0 4000.0 4000.0 4000.0 4000.0 4000.0 4000.0 4000.0 4000.0 4000.0 4000.0 4000.0 4000.0 4000.0 4000.0 4000.0 4000.0 4000.0 4000.0 4000.0 4000.0 4000.0 4000.0 4000.0 4000.0 4000.0 4000.0 4000.0 4000.0 4000.0 4000.0 4000.0 4000.0 4000.0 4000.0 4000.0 4000.0 4000.0 4000.0 4000.0 4000.0 4000.0 4000.0 4000.0 4000.0 4000.0 4000.0 4000.0 4000.0 4000.0 4000.0 4000.0 4000.0 4000.0 4000.0 4000.0 4000.0 4000.0 4000.0 4000.0 4000.0 4000.0 4000.0 4000.0 4000.0 4000.0 4000.0 4000.0 4000.0 4000.0 4000.0 4000.0 4000.0 4000.0 4000.0 4000.0 4000.0 4000.0 4000.0 4000.0 4000.0 4000.0 4000.0 4000.0 4000.0 4000.0 4000.0 4000.0 4000.0 4000.0 4000.0 4000.0 4000.0 4000.0 4000.0 4000.0 4000.0 4000.0 4000.0 4000.0 4000.0 4000.0 4000.0 4000.0 4000.0 4000.0 4000.0 4000.0 4000.0 4000.0 4000.0 4000.0 4000.0 4000.0 4000.0 4000.0 4000.0 4000.0 4000.0 4000.0 4000.0 4000.0 4000.0 4000.0 4000.0 4000.0 4000.0 4000.0 4000.0 4000.0 4000.0 4000.0 4000.0 4000.0 4000.0 4000.0 4000.0 4000.0 4000.0 4000.0 4000.0 4000.0 4000.0 4000.0 4000.0 4000.0 4000.0 4000.0 4000.0 4000.0 4000.0 4000.0 4000.0 4000.0 4000.0 4000.0 4000.0 4000.0 4000.0 4000.0 4000.0 4000.0 4000.0 4000.0 4000.0 4000.0 4000.0 4000.0 4000.0 4000.0 4000.0 4000.0 4000.0 4000.0 4000.0 4000.0 4000.0 4000.0 4000.0 4000.0 4000.0 4000.0 4000.0 4000.0 4000.0 4000.0 4000.0 4000.0 4000.0 4000.0 4000.0 4000.0 4000.0 4000.0 4000.0 4000.0 4000.0 4000.0 4000.0 4000.0 4000.0 4000.0 4000.0 4000.0 4000.0 4000.0 4000.0 4000.0 4000.0 4000.0 4000.0 4000.0 4000.0 4000.0 4000.0 4000.0 4000.0 4000.0 4000.0 4000.0 4000.0 4000.0 4000.0 4000.0 4000.0 4000.0 4000.0 4000.0 4000.0 4000.0 4000.0 4000.0 4000.0 4000.0 4000.0 4000.0 4000.0 4000.0 4000.0 4000.0 4000.0 4000.0 4000.0 4000.0 4000.0 4000.0 4000.0 4000.0 4000.0 4000.0 4000.0 4000.0 4000.0 4000.0 4000.0 4000.0 4000.0 4000.0 4000.0 4000.0 4000.0 4000.0 4000.0 4000.0 4000.0 4000.0 4000.0 4000.0 4000.0 4000.0 4000.0 4000.0 4000.0 4000.0 4000.0 4000.0 4000.0 4000.0 4000.0 4000.0 4000.0 4000.0 4000.0 4000.0 4000.0 4000.0 4000.0 4000.0 4000.0 4000.0 4000.0 4000.0 4000.0 4000.0 4000.0 4000.0 4000.0 4000.0 4000.0 4000.0 4000.0 4000.0 4000.0 4000.0 4000.0 4000.0 4000.0 4000.0 4000.0 4000.0 4000.0 4000.0 4000.0 4000.0 4000.0 4000.0 4000.0 4000.0 4000.0 4000.0 4000.0 4000.0 4000.0 4000.0 4000.0 4000.0 4000.0 4000.0 4000.0 4000.0 4000.0 4000.0 4000.0 4000.0 4000.0 4000.0 4000.0 4000.0 4000.0 4000.0 4000.0 4000.0 4000.0 4000.0 4000.0 4000.0 4000.0 4000.0 4000.0 4000.0 4000.0 4000.0 4000.0 4000.0 4000.0 4000.0 4000.0 4000.0 4000.0 4000.0 4000.0 4000.0 4000.0 4000.0 4000.0 4000.0 4000.0 4000.0 4000.0 4000.0 4000.0 4000.0 4000.0 4000.0 4000.0 4000.0 4000.0 4000.0 4000.0 4000.0 4000.0 4000.0 4000.0 4000.0 4000.0 4000.0 4000.0 4000.0 4000.0 4000.0 4000.0 4000.0 4000.0 4000.0 4000.0 4000.0 4000.0 4000.0 4000.0 4000.0 4000.0 4000.0 4000.0 4000.0 4000.0 4000.0 4000.0 4000.0 4000.0 4000.0 4000.0 4000.0 4000.0 4000.0 4000.0 4000.0 4000.0 4000.0 4000.0 4000.0 4000.0 4000.0 4000.0 4000.0 4000.0 4000.0 4000.0 4000.0 4000.0 4000.0 4000.0 4000.0 4000.0 4000.0 4000.0 4000.0 4000.0 4000.0 4000.0 4000.0 4000.0 4000.0 4000.0 4000.0 4000.0 4000.0 4000.0 4000.0 4000.0 4000.0 4000.0 4000.0 4000.0 4000.0 4000.0 4000.0 4000.0 4000.0 4000.0 4000.0 4000.0 4000.0 4000.0 4000.0 4000.0 4000.0 4000.0 4000.0 4000.0 4000.0 4000.0 4000.0 4000.0 4000.0 4000.0 4000.0 4000.0 4000.0 4000.0 4000.0 4000.0 4000.0 4000.0 4000.0 4000.0 4000.0 4000.0 4000.0 4000.0 4000.0 4000.0 4000.0 4000.0 4000.0 4000.0 4000.0 4000.0 4000.0 4000.0 4000.0 4000.0 4000.0 4000.0 4000.0 4000.0 4000.0 4000.0 4000.0 4000.0 4000.0 4000.0 4000.0 4000.0 4000.0 4000.0 4000.0 4000.0 4000.0 4000.0 4000.0 4000.0 4000.0 4000.0 4000.0 4000.0 4000.0 4000.0 4000.0 4000.0 4000.0 4000.0 4000.0 4000.0 4000.0 4000.0 4000.0 4000.0 4000.0 4000.0 4000.0 4000.0 4000.0 4000.0 4000.0 4000.0 4000.0 4000.0 4000.0 4000.0 4000.0 4000.0 4000.0 4000.0 4000.0 4000.0 4000.0 4000.0 4000.0 4000.0 4000.0 4000.0 4000.0 4000.0 4000.0 4000.0 4000.0 4000.0 4000.0 4000.0 4000.0 4000.0 4000.0 4000.0 4000.0 4000.0 4000.0 4000.0 4000.0 4000.0 4000.0 4000.0 4000.0 4000.0 4000.0 4000.0 4000.0 4000.0 4000.0 4000.0 4000.0 4000.0 4000.0 4000.0 4000.0 4000.0 4000.0 4000.0 4000.0 4000.0 4000.0 4000.0 4000.0 4000.0 4000.0 4000.0 4000.0 4000.0 4000.0 4000.0 4000.0 4000.0 4000.0 4000.0 4000.0 4000.0 4000.0 4000.0 4000.0 4000.0 4000.0 4000.0 4000.0 4000.0 4000.0 4000.0 4000.0 4000.0 4000.0 4000.0 4000.0 4000.0 4000.0 4000.0 4000.0 4000.0 4000.0 4000.0 4000.0 4000.0 4000.0 4000.0 4000.0 4000.0 4000.0 4000.0 4000.0 4000.0 4000.0 4000.0 4000.0 4000.0 4000.0 4000.0 4000.0 4000.0 4000.0 4000.0 4000.0 4000.0 4000.0 4000.0 4000.0 4000.0 4000.0 4000.0 4000.0 4000.0 4000.0 4000.0 4000.0 4000.0 4000.0 4000.0 4000.0 4000.0 4000.0 4000.0 4000.0 4000.0 4000.0 4000.0 4000.0 4000.0 4000.0 4000.0 4000.0 4000.0 4000.0 4000.0 4000.0 4000.0 4000.0 4000.0 4000.0 4000.0 4000.0 4000.0 4000.0 4000.0 4000.0 4000.0 4000.0 4000.0 4000.0 4000.0 4000.0 4000.0 4000.0 4000.0 4000.0 4000.0 4000.0 4000.0 4000.0 4000.0 4000.0 4000.0 4000.0 4000.0 4000.0 4000.0 4000.0 4000.0 4000.0 4000.0 4000.0 4000.0 4000.0 4000.0 4000.0 4000.0 4000.0 4000.0 4000.0 4000.0 4000.0 4000.0 4000.0 4000.0 4000.0 4000.0 4000.0 4000.0 4000.0 4000.0 4000.0 4000.0 4000.0 4000.0 4000.0 4000.0 4000.0 4000.0 4000.0 4000.0 4000.0 4000.0 4000.0 4000.0 4000.0 4000.0 4000.0 4000.0 4000.0 4000.0 4000.0 4000.0 4000.0 4000.0 4000.0 4000.0 4000.0 4000.0 4000.0 4000.0 4000.0 4000.0 4000.0 4000.0 4000.0 4000.0 4000.0 4000.0 4000.0 4000.0 4000.0 4000.0 4000.0 4000.0 4000.0 4000.0 4000.0 4000.0 4000.0 4000.0 4000.0 4000.0 4000.0 4000.0 4000.0 4000.0 4000.0 4000.0 4000.0 4000.0 4000.0 4000.0 4000.0 4000.0 4000.0 4000.0 4000.0 4000.0 4000.0 4000.0 4000.0 4000.0 4000.0 4000.0 4000.0 4000.0 4000.0 4000.0 4000.0 4000.0 4000.0 4000.0 4000.0 4000.0 4000.0 4000.0 4000.0 4000.0 4000.0 4000.0 4000.0 4000.0 4000.0 4000.0 4000.0 4000.0 4000.0 4000.0 4000.0 4000.0 4000.0 4000.0 4000.0 4000.0 4000.0 4000.0 4000.0 4000.0 4000.0 4000.0 4000.0 4000.0 4000.0 4000.0 4000.0 4000.0 4000.0 4000.0 4000.0 4000.0 4000.0 4000.0 4000.0 4000.0 4000.0 4000.0 4000.0 4000.0 4000.0 4000.0 4000.0 4000.0 4000.0 4000.0 4000.0 4000.0 4000.0 4000.0 4000.0 4000.0 4000.0 4000.0 4000.0 4000.0 4000.0 4000.0 4000.0 4000.0 4000.0 4000.0 4000.0 4000.0 4000.0 4000.0 4000.0 4000.0 4000.0 4000.0 4000.0 4000.0 4000.0 4000.0 4000.0 4000.0 4000.0 4000.0 4000.0 4000.0 4000.0 4000.0 4000.0 4000.0 4000.0 4000.0 4000.0 4000.0 4000.0 4000.0 4000.0 4000.0 4000.0 4000.0 4000.0 4000.0 4000.0 4000.0 4000.0 4000.0 4000.0 4000.0 4000.0 4000.0 4000.0 4000.0 4000.0 4000.0 4000.0 4000.0 4000.0 4000.0 4000.0 4000.0 4000.0 4000.0 4000.0 4000.0 4000.0 4000.0 4000.0 4000.0 4000.0 4000.0 4000.0 4000.0 4000.0 4000.0 4000.0 4000.0 4000.0 4000.0 4000.0 4000.0 4000.0 4000.0 4000.0 4000.0 4000.0 4000.0 4000.0 4000.0 4000.0 4000.0 4000.0 4000.0 4000.0 4000.0 4000.0 4000.0 4000.0 4000.0 4000.0 4000.0 4000.0 4000.0 4000.0 4000.0 4000.0 4000.0 4000.0 4000.0 4000.0 4000.0 4000.0 4000.0 4000.0 4000.0 4000.0 4000.0 4000.0 4000.0 4000.0 4000.0 4000.0 4000.0 4000.0 4000.0 4000.0 4000.0 4000.0 4000.0 4000.0 4000.0 4000.0 4000.0 4000.0 4000.0 4000.0 4000.0 4000.0 4000.0 4000.0 4000.0 4000.0 4000.0 4000.0 4000.0 4000.0 4000.0 4000.0 4000.0 4000.0 4000.0 4000.0 4000.0 4000.0 4000.0 4000.0 4000.0 4000.0 4000.0 4000.0 4000.0 4000.0 4000.0 4000.0 4000.0 4000.0 4000.0 4000.0 4000.0 4000.0 4000.0 4000.0 4000.0 4000.0 4000.0 4000.0 4000.0 4000.0 4000.0 4000.0 4000.0 4000.0 4000.0 4000.0 4000.0 4000.0 4000.0 4000.0 4000.0 4000.0 4000.0 4000.0 4000.0 4000.0 4000.0 4000.0 4000.0 4000.0 4000.0 4000.0 4000.0 4000.0 4000.0 4000.0 4000.0 4000.0 4000.0 4000.0 4000.0 4000.0 4000.0 4000.0 4000.0 4000.0 4000.0 4000.0 4000.0 4000.0 4000.0 4000.0 4000.0 4000.0 4000.0 4000.0 4000.0 4000.0 4000.0 4000.0 4000.0 4000.0 4000.0 4000.0 4000.0 4000.0 4000.0 4000.0 4000.0 4000.0 4000.0 4000.0 4000.0 4000.0 4000.0 4000.0 4000.0 4000.0 4000.0 4000.0 4000.0 4000.0 4000.0 4000.0 4000.0 4000.0 4000.0 4000.0 4000.0 4000.0 4000.0 4000.0 4000.0 4000.0 4000.0 4000.0 4000.0 4000.0 4000.0 4000.0 4000.0 4000.0 4000.0 4000.0 4000.0 4000.0 4000.0 4000.0 4000.0 4000.0 4000.0 4000.0 4000.0 4000.0 4000.0 4000.0 4000.0 4000.0 4000.0 4000.0 4000.0 4000.0 4000.0 4000.0 4000.0 4000.0 4000.0 4000.0 4000.0 4000.0 4000.0 4000.0 4000.0 4000.0 4000.0 4000.0 4000.0 4000.0 4000.0 4000.0 4000.0 4000.0 4000.0 4000.0 4000.0 4000.0 4000.0 4000.0 4000.0 4000.0 4000.0 4000.0 4000.0 4000.0 4000.0 4000.0 4000.0 4000.0 4000.0 4000.0 4000.0 4000.0 4000.0 4000.0 4000.0 4000.0 4000.0 4000.0 4000.0 4000.0 4000.0 4000.0 4000.0 4000.0 4000.0 4000.0 4000.0 4000.0 4000.0 4000.0 4000.0 4000.0 4000.0 4000.0 4000.0 4000.0 4000.0 4000.0 4000.0 4000.0 4000.0 4000.0 4000.0 4000.0 4000.0 4000.0 4000.0 4000.0 4000.0 4000.0 4000.0 4000.0 4000.0 4000.0 4000.0 4000.0 4000.0 4000.0 4000.0 4000.0 4000.0 4000.0 4000.0 4000.0 4000.0 4000.0 4000.0 4000.0 4000.0 4000.0 4000.0 4000.0 4000.0 4000.0 4000.0 4000.0 4000.0 4000.0 4000.0 4000.0 4000.0 4000.0 4000.0 4000.0 4000.0 4000.0 4000.0 4000.0 4000.0 4000.0 4000.0 4000.0 4000.0 4000.0 4000.0 4000.0 4000.0 4000.0 4000.0 4000.0 4000.0 4000.0 4000.0 4000.0 4000.0 4000.0 4000.0 4000.0 4000.0 4000.0 4000.0 4000.0 4000.0 4000.0 4000.0 4000.0 4000.0 4000.0 4000.0 4000.0 4000.0 4000.0 4000.0 4000.0 4000.0 4000.0 4000.0 4000.0 4000.0 4000.0 4000.0 4000.0 4000.0 4000.0 4000.0 4000.0 4000.0 4000.0 4000.0 4000.0 4000.0 4000.0 4000.0 4000.0 4000.0 4000.0 4000.0 4000.0 4000.0 4000.0 4000.0 4000.0 4000.0 4000.0 4000.0 4000.0 4000.0 4000.0 4000.0 4000.0 4000.0 4000.0 4000.0 4000.0 4000.0 4000.0 4000.0 4000.0 4000.0 4000.0 4000.0 4000.0 4000.0 4000.0 4000.0 4000.0 4000.0 4000.0 4000.0 4000.0 4000.0 4000.0 4000.0 4000.0 4000.0 4000.0 4000.0 4000.0 4000.0 4000.0 4000.0 4000.0 4000.0 4000.0 4000.0 4000.0 4000.0 4000.0 4000.0 4000.0 4000.0 4000.0 4000.0 4000.0 4000.0 4000.0 4000.0 4000.0 4000.0 4000.0 4000.0 4000.0 4000.0 4000.0 4000.0 4000.0 4000.0 4000.0 4000.0 4000.0 4000.0 4000.0 4000.0 4000.0 4000.0 4000.0 4000.0 4000.0 4000.0 4000.0 4000.0 4000.0 4000.0 4000.0 4000.0 4000.0 4000.0 4000.0 4000.0 4000.0 4000.0 4000.0 4000.0 4000.0 4000.0 4000.0 4000.0 4000.0 4000.0 4000.0 4000.0 4000.0 4000.0 4000.0 4000.0 4000.0 4000.0 4000.0 4000.0 4000.0 4000.0 4000.0 4000.0 4000.0 4000.0 4000.0 4000.0 4000.0 4000.0 4000.0 4000.0 4000.0 4000.0 4000.0 4000.0 4000.0 4000.0 4000.0 4000.0 4000.0 4000.0 4000.0 4000.0 4000.0 4000.0 4000.0 4000.0 4000.0 4000.0 4000.0 4000.0 4000.0 4000.0 4000.0 4000.0 4000.0 4000.0 4000.0 4000.0 4000.0 4000.0 4000.0 4000.0 4000.0 4000.0 4000.0 4000.0 4000.0 4000.0 4000.0 4000.0 4000.0 4000.0 4000.0 4000.0 4000.0 4000.0 4000.0 4000.0 4000.0 4000.0 4000.0 4000.0 4000.0 4000.0 4000.0 4000.0 4000.0 4000.0 4000.0 4000.0 4000.0 4000.0 4000.0 4000.0 4000.0 4000.0 4000.0 4000.0 4000.0 4000.0 4000.0 4000.0 4000.0 4000.0 4000.0 4000.0 4000.0 4000.0 4000.0 4000.0 4000.0 4000.0 4000.0 4000.0 4000.0 4000.0 4000.0 4000.0 4000.0 4000.0 4000.0 4000.0 4000.0 4000.0 4000.0 4000.0 4000.0 4000.0 4000.0 4000.0 4000.0 4000.0 4000.0 4000.0 4000.0 4000.0 4000.0 4000.0 4000.0 4000.0 4000.0 4000.0 4000.0 4000.0 4000.0 4000.0 4000.0 4000.0 4000.0 4000.0 4000.0 4000.0 4000.0 4000.0 4000.0 4000.0 4000.0 4000.0 4000.0 4000.0 4000.0 4000.0 4000.0 4000.0 4000.0 4000.0 4000.0 4000.0 4000.0 4000.0 4000.0 4000.0 4000.0 4000.0 4000.0 4000.0 4000.0 4000.0 4000.0 4000.0 4000.0 4000.0 4000.0 4000.0 4000.0 4000.0 4000.0 4000.0 4000.0 4000.0 4000.0 4000.0 4000.0 4000.0 4000.0 4000.0 4000.0 4000.0 4000.0 4000.0 4000.0 4000.0 4000.0 4000.0 4000.0 4000.0 4000.0 4000.0 4000.0 4000.0 4000.0 4000.0 4000.0 4000.0 4000.0 4000.0 4000.0 4000.0 4000.0 4000.0 4000.0 4000.0 4000.0 4000.0 4000.0 4000.0 4000.0 4000.0 4000.0 4000.0 4000.0 4000.0 4000.0 4000.0 4000.0 4000.0 4000.0 4000.0 4000.0 4000.0 4000.0 4000.0 4000.0 4000.0 4000.0 4000.0 4000.0 4000.0 4000.0 4000.0 4000.0 4000.0 4000.0 4000.0 4000.0 4000.0 4000.0 4000.0 4000.0 4000.0 4000.0 4000.0 4000.0 4000.0 4000.0 4000.0 4000.0 4000.0 4000.0 4000.0 4000.0 4000.0 4000.0 4000.0 4000.0 4000.0 4000.0 4000.0 4000.0 4000.0 4000.0 4000.0 4000.0 4000.0 4000.0 4000.0 4000.0 4000.0 4000.0 4000.0 4000.0 4000.0 4000.0 4000.0 4000.0 4000.0 4000.0 4000.0 4000.0 4000.0 4000.0 4000.0 4000.0 4000.0 4000.0 4000.0 4000.0 4000.0 4000.0 4000.0 4000.0 4000.0 4000.0 4000.0 4000.0 4000.0 4000.0 4000.0 4000.0 4000.0 4000.0 4000.0 4000.0 4000.0 4000.0 4000.0 4000.0 4000.0 4000.0 4000.0 4000.0 4000.0 4000.0 4000.0 4000.0 4000.0 4000.0 4000.0 4000.0 4000.0 4000.0 4000.0 SCALARS Mass float 1
LOOKUP_TABLE default
11309700000.0 11309700000.0 11309700000.0 11309700000.0 11309700000.0 11309700000.0 11309700000.0 11309700000.0 11309700000.0 11309700000.0 11309700000.0 11309700000.0 11309700000.0 11309700000.0 11309700000.0 11309700000.0 11309700000.0 11309700000.0 11309700000.0 11309700000.0 11309700000.0 11309700000.0 11309700000.0 11309700000.0 11309700000.0 11309700000.0 11309700000.0 11309700000.0 11309700000.0 11309700000.0 11309700000.0 11309700000.0 11309700000.0 11309700000.0 11309700000.0 11309700000.0 11309700000.0 11309700000.0 11309700000.0 11309700000.0 11309700000.0 11309700000.0 11309700000.0 11309700000.0 11309700000.0 11309700000.0 11309700000.0 11309700000.0 11309700000.0 11309700000.0 11309700000.0 11309700000.0 11309700000.0 11309700000.0 11309700000.0 11309700000.0 11309700000.0 11309700000.0 11309700000.0 11309700000.0 11309700000.0 11309700000.0 11309700000.0 11309700000.0 11309700000.0 11309700000.0 11309700000.0 11309700000.0 11309700000.0 11309700000.0 11309700000.0 11309700000.0 11309700000.0 11309700000.0 11309700000.0 11309700000.0 11309700000.0 11309700000.0 11309700000.0 11309700000.0 11309700000.0 11309700000.0 11309700000.0 11309700000.0 11309700000.0 11309700000.0 11309700000.0 11309700000.0 11309700000.0 11309700000.0 11309700000.0 11309700000.0 11309700000.0 11309700000.0 11309700000.0 11309700000.0 11309700000.0 11309700000.0 11309700000.0 11309700000.0 11309700000.0 11309700000.0 11309700000.0 11309700000.0 11309700000.0 11309700000.0 11309700000.0 11309700000.0 11309700000.0 11309700000.0 11309700000.0 11309700000.0 11309700000.0 11309700000.0 11309700000.0 11309700000.0 11309700000.0 11309700000.0 11309700000.0 11309700000.0 11309700000.0 11309700000.0 11309700000.0 11309700000.0 11309700000.0 11309700000.0 11309700000.0 11309700000.0 11309700000.0 11309700000.0 11309700000.0 11309700000.0 11309700000.0 11309700000.0 11309700000.0 11309700000.0 11309700000.0 11309700000.0 11309700000.0 11309700000.0 11309700000.0 11309700000.0 11309700000.0 11309700000.0 11309700000.0 11309700000.0 11309700000.0 11309700000.0 11309700000.0 11309700000.0 11309700000.0 11309700000.0 11309700000.0 11309700000.0 11309700000.0 11309700000.0 11309700000.0 11309700000.0 11309700000.0 11309700000.0 11309700000.0 11309700000.0 11309700000.0 11309700000.0 11309700000.0 11309700000.0 11309700000.0 11309700000.0 11309700000.0 11309700000.0 11309700000.0 11309700000.0 11309700000.0 11309700000.0 11309700000.0 11309700000.0 11309700000.0 11309700000.0 11309700000.0 11309700000.0 11309700000.0 11309700000.0 11309700000.0 11309700000.0 11309700000.0 11309700000.0 11309700000.0 11309700000.0 11309700000.0 11309700000.0 11309700000.0 11309700000.0 11309700000.0 11309700000.0 11309700000.0 11309700000.0 11309700000.0 11309700000.0 11309700000.0 11309700000.0 11309700000.0 11309700000.0 11309700000.0 11309700000.0 11309700000.0 11309700000.0 11309700000.0 11309700000.0 11309700000.0 11309700000.0 11309700000.0 11309700000.0 11309700000.0 11309700000.0 11309700000.0 11309700000.0 11309700000.0 11309700000.0 11309700000.0 11309700000.0 11309700000.0 11309700000.0 11309700000.0 11309700000.0 11309700000.0 11309700000.0 11309700000.0 11309700000.0 11309700000.0 11309700000.0 11309700000.0 11309700000.0 11309700000.0 11309700000.0 11309700000.0 11309700000.0 11309700000.0 11309700000.0 11309700000.0 11309700000.0 11309700000.0 11309700000.0 11309700000.0 11309700000.0 11309700000.0 11309700000.0 11309700000.0 11309700000.0 11309700000.0 11309700000.0 11309700000.0 11309700000.0 11309700000.0 11309700000.0 11309700000.0 11309700000.0 11309700000.0 11309700000.0 11309700000.0 11309700000.0 11309700000.0 11309700000.0 11309700000.0 11309700000.0 11309700000.0 11309700000.0 11309700000.0 11309700000.0 11309700000.0 11309700000.0 11309700000.0 11309700000.0 11309700000.0 11309700000.0 11309700000.0 11309700000.0 11309700000.0 11309700000.0 11309700000.0 11309700000.0 11309700000.0 11309700000.0 11309700000.0 11309700000.0 11309700000.0 11309700000.0 11309700000.0 11309700000.0 11309700000.0 11309700000.0 11309700000.0 11309700000.0 11309700000.0 11309700000.0 11309700000.0 11309700000.0 11309700000.0 11309700000.0 11309700000.0 11309700000.0 11309700000.0 11309700000.0 11309700000.0 11309700000.0 11309700000.0 11309700000.0 11309700000.0 11309700000.0 11309700000.0 11309700000.0 11309700000.0 11309700000.0 11309700000.0 11309700000.0 11309700000.0 11309700000.0 11309700000.0 11309700000.0 11309700000.0 11309700000.0 11309700000.0 11309700000.0 11309700000.0 11309700000.0 11309700000.0 11309700000.0 11309700000.0 11309700000.0 11309700000.0 11309700000.0 11309700000.0 11309700000.0 11309700000.0 11309700000.0 11309700000.0 11309700000.0 11309700000.0 11309700000.0 11309700000.0 11309700000.0 11309700000.0 11309700000.0 11309700000.0 11309700000.0 11309700000.0 11309700000.0 11309700000.0 11309700000.0 11309700000.0 11309700000.0 11309700000.0 11309700000.0 11309700000.0 11309700000.0 11309700000.0 11309700000.0 11309700000.0 11309700000.0 11309700000.0 11309700000.0 11309700000.0 11309700000.0 11309700000.0 11309700000.0 11309700000.0 11309700000.0 11309700000.0 11309700000.0 11309700000.0 11309700000.0 11309700000.0 11309700000.0 11309700000.0 11309700000.0 11309700000.0 11309700000.0 11309700000.0 11309700000.0 11309700000.0 11309700000.0 11309700000.0 11309700000.0 11309700000.0 11309700000.0 11309700000.0 11309700000.0 11309700000.0 11309700000.0 11309700000.0 11309700000.0 11309700000.0 11309700000.0 11309700000.0 11309700000.0 11309700000.0 11309700000.0 11309700000.0 11309700000.0 11309700000.0 11309700000.0 11309700000.0 11309700000.0 11309700000.0 11309700000.0 11309700000.0 11309700000.0 11309700000.0 11309700000.0 11309700000.0 11309700000.0 11309700000.0 11309700000.0 11309700000.0 11309700000.0 11309700000.0 11309700000.0 11309700000.0 11309700000.0 11309700000.0 11309700000.0 11309700000.0 11309700000.0 11309700000.0 11309700000.0 11309700000.0 11309700000.0 11309700000.0 11309700000.0 11309700000.0 11309700000.0 11309700000.0 11309700000.0 11309700000.0 11309700000.0 11309700000.0 11309700000.0 11309700000.0 11309700000.0 11309700000.0 11309700000.0 11309700000.0 11309700000.0 11309700000.0 11309700000.0 11309700000.0 11309700000.0 11309700000.0 11309700000.0 11309700000.0 11309700000.0 11309700000.0 11309700000.0 11309700000.0 11309700000.0 11309700000.0 11309700000.0 11309700000.0 11309700000.0 11309700000.0 11309700000.0 11309700000.0 11309700000.0 11309700000.0 11309700000.0 11309700000.0 11309700000.0 11309700000.0 11309700000.0 11309700000.0 11309700000.0 11309700000.0 11309700000.0 11309700000.0 11309700000.0 11309700000.0 11309700000.0 11309700000.0 11309700000.0 11309700000.0 11309700000.0 11309700000.0 11309700000.0 11309700000.0 11309700000.0 11309700000.0 11309700000.0 11309700000.0 11309700000.0 11309700000.0 11309700000.0 11309700000.0 11309700000.0 11309700000.0 11309700000.0 11309700000.0 11309700000.0 11309700000.0 11309700000.0 11309700000.0 11309700000.0 11309700000.0 11309700000.0 11309700000.0 11309700000.0 11309700000.0 11309700000.0 11309700000.0 11309700000.0 11309700000.0 11309700000.0 11309700000.0 11309700000.0 11309700000.0 11309700000.0 11309700000.0 11309700000.0 11309700000.0 11309700000.0 11309700000.0 11309700000.0 11309700000.0 11309700000.0 11309700000.0 11309700000.0 11309700000.0 11309700000.0 11309700000.0 11309700000.0 11309700000.0 11309700000.0 11309700000.0 11309700000.0 11309700000.0 11309700000.0 11309700000.0 11309700000.0 11309700000.0 11309700000.0 11309700000.0 11309700000.0 11309700000.0 11309700000.0 11309700000.0 11309700000.0 11309700000.0 11309700000.0 11309700000.0 11309700000.0 11309700000.0 11309700000.0 11309700000.0 11309700000.0 11309700000.0 11309700000.0 11309700000.0 11309700000.0 11309700000.0 11309700000.0 11309700000.0 11309700000.0 11309700000.0 11309700000.0 11309700000.0 11309700000.0 11309700000.0 11309700000.0 11309700000.0 11309700000.0 11309700000.0 11309700000.0 11309700000.0 11309700000.0 11309700000.0 11309700000.0 11309700000.0 11309700000.0 11309700000.0 11309700000.0 11309700000.0 11309700000.0 11309700000.0 11309700000.0 11309700000.0 11309700000.0 11309700000.0 11309700000.0 11309700000.0 11309700000.0 11309700000.0 11309700000.0 11309700000.0 11309700000.0 11309700000.0 11309700000.0 11309700000.0 11309700000.0 11309700000.0 11309700000.0 11309700000.0 11309700000.0 11309700000.0 11309700000.0 11309700000.0 11309700000.0 11309700000.0 11309700000.0 11309700000.0 11309700000.0 11309700000.0 11309700000.0 11309700000.0 11309700000.0 11309700000.0 11309700000.0 11309700000.0 11309700000.0 11309700000.0 11309700000.0 11309700000.0 11309700000.0 11309700000.0 11309700000.0 11309700000.0 11309700000.0 11309700000.0 11309700000.0 11309700000.0 11309700000.0 11309700000.0 11309700000.0 11309700000.0 11309700000.0 11309700000.0 11309700000.0 11309700000.0 11309700000.0 11309700000.0 11309700000.0 11309700000.0 11309700000.0 11309700000.0 11309700000.0 11309700000.0 11309700000.0 11309700000.0 11309700000.0 11309700000.0 11309700000.0 11309700000.0 11309700000.0 11309700000.0 11309700000.0 11309700000.0 11309700000.0 11309700000.0 11309700000.0 11309700000.0 11309700000.0 11309700000.0 11309700000.0 11309700000.0 11309700000.0 11309700000.0 11309700000.0 11309700000.0 11309700000.0 11309700000.0 11309700000.0 11309700000.0 11309700000.0 11309700000.0 11309700000.0 11309700000.0 11309700000.0 11309700000.0 11309700000.0 11309700000.0 11309700000.0 11309700000.0 11309700000.0 11309700000.0 11309700000.0 11309700000.0 11309700000.0 11309700000.0 11309700000.0 11309700000.0 11309700000.0 11309700000.0 11309700000.0 11309700000.0 11309700000.0 11309700000.0 11309700000.0 11309700000.0 11309700000.0 11309700000.0 11309700000.0 11309700000.0 11309700000.0 11309700000.0 11309700000.0 11309700000.0 11309700000.0 11309700000.0 11309700000.0 11309700000.0 11309700000.0 11309700000.0 11309700000.0 11309700000.0 11309700000.0 11309700000.0 11309700000.0 11309700000.0 11309700000.0 11309700000.0 11309700000.0 11309700000.0 11309700000.0 11309700000.0 11309700000.0 11309700000.0 11309700000.0 11309700000.0 11309700000.0 11309700000.0 11309700000.0 11309700000.0 11309700000.0 11309700000.0 11309700000.0 11309700000.0 11309700000.0 11309700000.0 11309700000.0 11309700000.0 11309700000.0 11309700000.0 11309700000.0 11309700000.0 11309700000.0 11309700000.0 11309700000.0 11309700000.0 11309700000.0 11309700000.0 11309700000.0 11309700000.0 11309700000.0 11309700000.0 11309700000.0 11309700000.0 11309700000.0 11309700000.0 11309700000.0 11309700000.0 11309700000.0 11309700000.0 11309700000.0 11309700000.0 11309700000.0 11309700000.0 11309700000.0 11309700000.0 11309700000.0 11309700000.0 11309700000.0 11309700000.0 11309700000.0 11309700000.0 11309700000.0 11309700000.0 11309700000.0 11309700000.0 11309700000.0 11309700000.0 11309700000.0 11309700000.0 11309700000.0 11309700000.0 11309700000.0 11309700000.0 11309700000.0 11309700000.0 11309700000.0 11309700000.0 11309700000.0 11309700000.0 11309700000.0 11309700000.0 11309700000.0 11309700000.0 11309700000.0 11309700000.0 11309700000.0 11309700000.0 11309700000.0 11309700000.0 11309700000.0 11309700000.0 11309700000.0 11309700000.0 11309700000.0 11309700000.0 11309700000.0 11309700000.0 11309700000.0 11309700000.0 11309700000.0 11309700000.0 11309700000.0 11309700000.0 11309700000.0 11309700000.0 11309700000.0 11309700000.0 11309700000.0 11309700000.0 11309700000.0 11309700000.0 11309700000.0 11309700000.0 11309700000.0 11309700000.0 11309700000.0 11309700000.0 11309700000.0 11309700000.0 11309700000.0 11309700000.0 11309700000.0 11309700000.0 11309700000.0 11309700000.0 11309700000.0 11309700000.0 11309700000.0 11309700000.0 11309700000.0 11309700000.0 11309700000.0 11309700000.0 11309700000.0 11309700000.0 11309700000.0 11309700000.0 11309700000.0 11309700000.0 11309700000.0 11309700000.0 11309700000.0 11309700000.0 11309700000.0 11309700000.0 11309700000.0 11309700000.0 11309700000.0 11309700000.0 11309700000.0 11309700000.0 11309700000.0 11309700000.0 11309700000.0 11309700000.0 11309700000.0 11309700000.0 11309700000.0 11309700000.0 11309700000.0 11309700000.0 11309700000.0 11309700000.0 11309700000.0 11309700000.0 11309700000.0 11309700000.0 11309700000.0 11309700000.0 11309700000.0 11309700000.0 11309700000.0 11309700000.0 11309700000.0 11309700000.0 11309700000.0 11309700000.0 11309700000.0 11309700000.0 11309700000.0 11309700000.0 11309700000.0 11309700000.0 11309700000.0 11309700000.0 11309700000.0 11309700000.0 11309700000.0 11309700000.0 11309700000.0 11309700000.0 11309700000.0 11309700000.0 11309700000.0 11309700000.0 11309700000.0 11309700000.0 11309700000.0 11309700000.0 11309700000.0 11309700000.0 11309700000.0 11309700000.0 11309700000.0 11309700000.0 11309700000.0 11309700000.0 11309700000.0 11309700000.0 11309700000.0 11309700000.0 11309700000.0 11309700000.0 11309700000.0 11309700000.0 11309700000.0 11309700000.0 11309700000.0 11309700000.0 11309700000.0 11309700000.0 11309700000.0 11309700000.0 11309700000.0 11309700000.0 11309700000.0 11309700000.0 11309700000.0 11309700000.0 11309700000.0 11309700000.0 11309700000.0 11309700000.0 11309700000.0 11309700000.0 11309700000.0 11309700000.0 11309700000.0 11309700000.0 11309700000.0 11309700000.0 11309700000.0 11309700000.0 11309700000.0 11309700000.0 11309700000.0 11309700000.0 11309700000.0 11309700000.0 11309700000.0 11309700000.0 11309700000.0 11309700000.0 11309700000.0 11309700000.0 11309700000.0 11309700000.0 11309700000.0 11309700000.0 11309700000.0 11309700000.0 11309700000.0 11309700000.0 11309700000.0 11309700000.0 11309700000.0 11309700000.0 11309700000.0 11309700000.0 11309700000.0 11309700000.0 11309700000.0 11309700000.0 11309700000.0 11309700000.0 11309700000.0 11309700000.0 11309700000.0 11309700000.0 11309700000.0 11309700000.0 11309700000.0 11309700000.0 11309700000.0 11309700000.0 11309700000.0 11309700000.0 11309700000.0 11309700000.0 11309700000.0 11309700000.0 11309700000.0 11309700000.0 11309700000.0 11309700000.0 11309700000.0 11309700000.0 11309700000.0 11309700000.0 11309700000.0 11309700000.0 11309700000.0 11309700000.0 11309700000.0 11309700000.0 11309700000.0 11309700000.0 11309700000.0 11309700000.0 11309700000.0 11309700000.0 11309700000.0 11309700000.0 11309700000.0 11309700000.0 11309700000.0 11309700000.0 11309700000.0 11309700000.0 11309700000.0 11309700000.0 11309700000.0 11309700000.0 11309700000.0 11309700000.0 11309700000.0 11309700000.0 11309700000.0 11309700000.0 11309700000.0 11309700000.0 11309700000.0 11309700000.0 11309700000.0 11309700000.0 11309700000.0 11309700000.0 11309700000.0 11309700000.0 11309700000.0 11309700000.0 11309700000.0 11309700000.0 11309700000.0 11309700000.0 11309700000.0 11309700000.0 11309700000.0 11309700000.0 11309700000.0 11309700000.0 11309700000.0 11309700000.0 11309700000.0 11309700000.0 11309700000.0 11309700000.0 11309700000.0 11309700000.0 11309700000.0 11309700000.0 11309700000.0 11309700000.0 11309700000.0 11309700000.0 11309700000.0 11309700000.0 11309700000.0 11309700000.0 11309700000.0 11309700000.0 11309700000.0 11309700000.0 11309700000.0 11309700000.0 11309700000.0 11309700000.0 11309700000.0 11309700000.0 11309700000.0 11309700000.0 11309700000.0 11309700000.0 11309700000.0 11309700000.0 11309700000.0 11309700000.0 11309700000.0 11309700000.0 11309700000.0 11309700000.0 11309700000.0 11309700000.0 11309700000.0 11309700000.0 11309700000.0 11309700000.0 11309700000.0 11309700000.0 11309700000.0 11309700000.0 11309700000.0 11309700000.0 11309700000.0 11309700000.0 11309700000.0 11309700000.0 11309700000.0 11309700000.0 11309700000.0 11309700000.0 11309700000.0 11309700000.0 11309700000.0 11309700000.0 11309700000.0 11309700000.0 11309700000.0 11309700000.0 11309700000.0 11309700000.0 11309700000.0 11309700000.0 11309700000.0 11309700000.0 11309700000.0 11309700000.0 11309700000.0 11309700000.0 11309700000.0 11309700000.0 11309700000.0 11309700000.0 11309700000.0 11309700000.0 11309700000.0 11309700000.0 11309700000.0 11309700000.0 11309700000.0 11309700000.0 11309700000.0 11309700000.0 11309700000.0 11309700000.0 11309700000.0 11309700000.0 11309700000.0 11309700000.0 11309700000.0 11309700000.0 11309700000.0 11309700000.0 11309700000.0 11309700000.0 11309700000.0 11309700000.0 11309700000.0 11309700000.0 11309700000.0 11309700000.0 11309700000.0 11309700000.0 11309700000.0 11309700000.0 11309700000.0 11309700000.0 11309700000.0 11309700000.0 11309700000.0 11309700000.0 11309700000.0 11309700000.0 11309700000.0 11309700000.0 11309700000.0 11309700000.0 11309700000.0 11309700000.0 11309700000.0 11309700000.0 11309700000.0 11309700000.0 11309700000.0 11309700000.0 11309700000.0 11309700000.0 11309700000.0 11309700000.0 11309700000.0 11309700000.0 11309700000.0 11309700000.0 11309700000.0 11309700000.0 11309700000.0 11309700000.0 11309700000.0 11309700000.0 11309700000.0 11309700000.0 11309700000.0 11309700000.0 11309700000.0 11309700000.0 11309700000.0 11309700000.0 11309700000.0 11309700000.0 11309700000.0 11309700000.0 11309700000.0 11309700000.0 11309700000.0 11309700000.0 11309700000.0 11309700000.0 11309700000.0 11309700000.0 11309700000.0 11309700000.0 11309700000.0 11309700000.0 11309700000.0 11309700000.0 11309700000.0 11309700000.0 11309700000.0 11309700000.0 11309700000.0 11309700000.0 11309700000.0 11309700000.0 11309700000.0 11309700000.0 11309700000.0 11309700000.0 11309700000.0 11309700000.0 11309700000.0 11309700000.0 11309700000.0 11309700000.0 11309700000.0 11309700000.0 11309700000.0 11309700000.0 11309700000.0 11309700000.0 11309700000.0 11309700000.0 11309700000.0 11309700000.0 11309700000.0 11309700000.0 11309700000.0 11309700000.0 11309700000.0 11309700000.0 11309700000.0 11309700000.0 11309700000.0 11309700000.0 11309700000.0 11309700000.0 11309700000.0 11309700000.0 11309700000.0 11309700000.0 11309700000.0 11309700000.0 11309700000.0 11309700000.0 11309700000.0 11309700000.0 11309700000.0 11309700000.0 11309700000.0 11309700000.0 11309700000.0 11309700000.0 11309700000.0 11309700000.0 11309700000.0 11309700000.0 11309700000.0 11309700000.0 11309700000.0 11309700000.0 11309700000.0 11309700000.0 11309700000.0 11309700000.0 11309700000.0 11309700000.0 11309700000.0 11309700000.0 11309700000.0 11309700000.0 11309700000.0 11309700000.0 11309700000.0 11309700000.0 11309700000.0 11309700000.0 11309700000.0 11309700000.0 11309700000.0 11309700000.0 11309700000.0 11309700000.0 11309700000.0 11309700000.0 11309700000.0 11309700000.0 11309700000.0 11309700000.0 11309700000.0 11309700000.0 11309700000.0 11309700000.0 11309700000.0 11309700000.0 11309700000.0 11309700000.0 11309700000.0 11309700000.0 11309700000.0 11309700000.0 11309700000.0 11309700000.0 11309700000.0 11309700000.0 11309700000.0 11309700000.0 11309700000.0 11309700000.0 11309700000.0 11309700000.0 11309700000.0 11309700000.0 11309700000.0 11309700000.0 11309700000.0 11309700000.0 11309700000.0 11309700000.0 11309700000.0 11309700000.0 11309700000.0 11309700000.0 11309700000.0 11309700000.0 11309700000.0 11309700000.0 11309700000.0 11309700000.0 11309700000.0 11309700000.0 11309700000.0 11309700000.0 11309700000.0 11309700000.0 11309700000.0 11309700000.0 11309700000.0 11309700000.0 11309700000.0 11309700000.0 11309700000.0 11309700000.0 11309700000.0 11309700000.0 11309700000.0 11309700000.0 11309700000.0 11309700000.0 11309700000.0 11309700000.0 11309700000.0 11309700000.0 11309700000.0 11309700000.0 11309700000.0 11309700000.0 11309700000.0 11309700000.0 11309700000.0 11309700000.0 11309700000.0 11309700000.0 11309700000.0 11309700000.0 11309700000.0 11309700000.0 11309700000.0 11309700000.0 11309700000.0 11309700000.0 11309700000.0 11309700000.0 11309700000.0 11309700000.0 11309700000.0 11309700000.0 11309700000.0 11309700000.0 11309700000.0 11309700000.0 11309700000.0 11309700000.0 11309700000.0 11309700000.0 11309700000.0 11309700000.0 11309700000.0 11309700000.0 11309700000.0 11309700000.0 11309700000.0 11309700000.0 11309700000.0 11309700000.0 11309700000.0 11309700000.0 11309700000.0 11309700000.0 11309700000.0 11309700000.0 11309700000.0 11309700000.0 11309700000.0 11309700000.0 11309700000.0 11309700000.0 11309700000.0 11309700000.0 11309700000.0 11309700000.0 11309700000.0 11309700000.0 11309700000.0 11309700000.0 11309700000.0 11309700000.0 11309700000.0 11309700000.0 11309700000.0 11309700000.0 11309700000.0 11309700000.0 11309700000.0 11309700000.0 11309700000.0 11309700000.0 11309700000.0 11309700000.0 11309700000.0 11309700000.0 11309700000.0 11309700000.0 11309700000.0 11309700000.0 11309700000.0 11309700000.0 11309700000.0 11309700000.0 11309700000.0 11309700000.0 11309700000.0 11309700000.0 11309700000.0 11309700000.0 11309700000.0 11309700000.0 11309700000.0 11309700000.0 11309700000.0 11309700000.0 11309700000.0 11309700000.0 11309700000.0 11309700000.0 11309700000.0 11309700000.0 11309700000.0 11309700000.0 11309700000.0 11309700000.0 11309700000.0 11309700000.0 11309700000.0 11309700000.0 11309700000.0 11309700000.0 11309700000.0 11309700000.0 11309700000.0 11309700000.0 11309700000.0 11309700000.0 11309700000.0 11309700000.0 11309700000.0 11309700000.0 11309700000.0 11309700000.0 11309700000.0 11309700000.0 11309700000.0 11309700000.0 11309700000.0 11309700000.0 11309700000.0 11309700000.0 11309700000.0 11309700000.0 11309700000.0 11309700000.0 11309700000.0 11309700000.0 11309700000.0 11309700000.0 11309700000.0 11309700000.0 11309700000.0 11309700000.0 11309700000.0 11309700000.0 11309700000.0 11309700000.0 11309700000.0 11309700000.0 11309700000.0 11309700000.0 11309700000.0 11309700000.0 11309700000.0 11309700000.0 11309700000.0 11309700000.0 11309700000.0 11309700000.0 11309700000.0 11309700000.0 11309700000.0 11309700000.0 11309700000.0 11309700000.0 11309700000.0 11309700000.0 11309700000.0 11309700000.0 11309700000.0 11309700000.0 11309700000.0 11309700000.0 11309700000.0 11309700000.0 11309700000.0 11309700000.0 11309700000.0 11309700000.0 11309700000.0 11309700000.0 11309700000.0 11309700000.0 11309700000.0 11309700000.0 11309700000.0 11309700000.0 11309700000.0 11309700000.0 11309700000.0 11309700000.0 11309700000.0 11309700000.0 11309700000.0 11309700000.0 11309700000.0 11309700000.0 11309700000.0 11309700000.0 11309700000.0 11309700000.0 11309700000.0 11309700000.0 11309700000.0 11309700000.0 11309700000.0 11309700000.0 11309700000.0 11309700000.0 11309700000.0 11309700000.0 11309700000.0 11309700000.0 11309700000.0 11309700000.0 11309700000.0 11309700000.0 11309700000.0 11309700000.0 11309700000.0 11309700000.0 11309700000.0 11309700000.0 11309700000.0 11309700000.0 11309700000.0 11309700000.0 11309700000.0 11309700000.0 11309700000.0 11309700000.0 11309700000.0 11309700000.0 11309700000.0 11309700000.0 11309700000.0 11309700000.0 11309700000.0 11309700000.0 11309700000.0 11309700000.0 11309700000.0 11309700000.0 11309700000.0 11309700000.0 11309700000.0 11309700000.0 11309700000.0 11309700000.0 11309700000.0 11309700000.0 11309700000.0 11309700000.0 11309700000.0 11309700000.0 11309700000.0 11309700000.0 11309700000.0 11309700000.0 11309700000.0 11309700000.0 11309700000.0 11309700000.0 11309700000.0 11309700000.0 11309700000.0 11309700000.0 11309700000.0 11309700000.0 11309700000.0 11309700000.0 11309700000.0 11309700000.0 11309700000.0 11309700000.0 11309700000.0 11309700000.0 11309700000.0 11309700000.0 11309700000.0 11309700000.0 11309700000.0 11309700000.0 11309700000.0 11309700000.0 11309700000.0 11309700000.0 11309700000.0 11309700000.0 11309700000.0 11309700000.0 11309700000.0 11309700000.0 11309700000.0 11309700000.0 11309700000.0 11309700000.0 11309700000.0 11309700000.0 11309700000.0 11309700000.0 11309700000.0 11309700000.0 11309700000.0 11309700000.0 11309700000.0 11309700000.0 11309700000.0 11309700000.0 11309700000.0 11309700000.0 11309700000.0 11309700000.0 11309700000.0 11309700000.0 11309700000.0 11309700000.0 11309700000.0 11309700000.0 11309700000.0 11309700000.0 11309700000.0 11309700000.0 11309700000.0 11309700000.0 11309700000.0 11309700000.0 11309700000.0 11309700000.0 11309700000.0 11309700000.0 11309700000.0 11309700000.0 11309700000.0 11309700000.0 11309700000.0 11309700000.0 11309700000.0 11309700000.0 11309700000.0 11309700000.0 11309700000.0 11309700000.0 11309700000.0 11309700000.0 11309700000.0 11309700000.0 11309700000.0 11309700000.0 11309700000.0 11309700000.0 11309700000.0 11309700000.0 11309700000.0 11309700000.0 11309700000.0 11309700000.0 11309700000.0 11309700000.0 11309700000.0 11309700000.0 11309700000.0 11309700000.0 11309700000.0 11309700000.0 11309700000.0 11309700000.0 11309700000.0 11309700000.0 11309700000.0 11309700000.0 11309700000.0 11309700000.0 11309700000.0 11309700000.0 11309700000.0 11309700000.0 11309700000.0 11309700000.0 11309700000.0 11309700000.0 11309700000.0 11309700000.0 11309700000.0 11309700000.0 11309700000.0 11309700000.0 11309700000.0 11309700000.0 11309700000.0 11309700000.0 11309700000.0 11309700000.0 11309700000.0 11309700000.0 11309700000.0 11309700000.0 11309700000.0 11309700000.0 11309700000.0 11309700000.0 11309700000.0 11309700000.0 11309700000.0 11309700000.0 11309700000.0 11309700000.0 11309700000.0 11309700000.0 11309700000.0 11309700000.0 11309700000.0 11309700000.0 11309700000.0 11309700000.0 11309700000.0 11309700000.0 11309700000.0 11309700000.0 11309700000.0 11309700000.0 11309700000.0 11309700000.0 11309700000.0 11309700000.0 11309700000.0 11309700000.0 11309700000.0 11309700000.0 11309700000.0 11309700000.0 11309700000.0 11309700000.0 11309700000.0 11309700000.0 11309700000.0 11309700000.0 11309700000.0 11309700000.0 11309700000.0 11309700000.0 11309700000.0 11309700000.0 11309700000.0 11309700000.0 11309700000.0 11309700000.0 11309700000.0 11309700000.0 11309700000.0 11309700000.0 11309700000.0 11309700000.0 11309700000.0 11309700000.0 11309700000.0 11309700000.0 11309700000.0 11309700000.0 11309700000.0 11309700000.0 11309700000.0 11309700000.0 11309700000.0 11309700000.0 11309700000.0 11309700000.0 11309700000.0 11309700000.0 11309700000.0 11309700000.0 11309700000.0 11309700000.0 11309700000.0 11309700000.0 11309700000.0 11309700000.0 11309700000.0 11309700000.0 11309700000.0 11309700000.0 11309700000.0 11309700000.0 11309700000.0 11309700000.0 11309700000.0 11309700000.0 11309700000.0 11309700000.0 11309700000.0 11309700000.0 11309700000.0 11309700000.0 11309700000.0 11309700000.0 11309700000.0 11309700000.0 11309700000.0 11309700000.0 11309700000.0 11309700000.0 11309700000.0 11309700000.0 11309700000.0 11309700000.0 11309700000.0 11309700000.0 11309700000.0 11309700000.0 11309700000.0 11309700000.0 11309700000.0 11309700000.0 11309700000.0 11309700000.0 11309700000.0 11309700000.0 11309700000.0 11309700000.0 11309700000.0 11309700000.0 11309700000.0 11309700000.0 11309700000.0 11309700000.0 11309700000.0 11309700000.0 11309700000.0 11309700000.0 11309700000.0 11309700000.0 11309700000.0 11309700000.0 11309700000.0 11309700000.0 11309700000.0 11309700000.0 11309700000.0 11309700000.0 11309700000.0 11309700000.0 11309700000.0 11309700000.0 11309700000.0 11309700000.0 11309700000.0 11309700000.0 11309700000.0 11309700000.0 11309700000.0 11309700000.0 11309700000.0 11309700000.0 11309700000.0 11309700000.0 11309700000.0 11309700000.0 11309700000.0 11309700000.0 11309700000.0 11309700000.0 11309700000.0 11309700000.0 11309700000.0 11309700000.0 11309700000.0 11309700000.0 11309700000.0 11309700000.0 11309700000.0 11309700000.0 11309700000.0 11309700000.0 11309700000.0 11309700000.0 11309700000.0 11309700000.0 11309700000.0 11309700000.0 11309700000.0 11309700000.0 11309700000.0 11309700000.0 11309700000.0 11309700000.0 11309700000.0 11309700000.0 11309700000.0 11309700000.0 11309700000.0 11309700000.0 11309700000.0 11309700000.0 11309700000.0 11309700000.0 11309700000.0 11309700000.0 11309700000.0 11309700000.0 11309700000.0 11309700000.0 11309700000.0 11309700000.0 11309700000.0 11309700000.0 11309700000.0 11309700000.0 11309700000.0 11309700000.0 11309700000.0 11309700000.0 11309700000.0 11309700000.0 11309700000.0 11309700000.0 11309700000.0 11309700000.0 11309700000.0 11309700000.0 11309700000.0 11309700000.0 11309700000.0 11309700000.0 11309700000.0 11309700000.0 11309700000.0 11309700000.0 11309700000.0 11309700000.0 11309700000.0 11309700000.0 11309700000.0 11309700000.0 11309700000.0 11309700000.0 11309700000.0 11309700000.0 11309700000.0 11309700000.0 11309700000.0 11309700000.0 11309700000.0 11309700000.0 11309700000.0 11309700000.0 11309700000.0 11309700000.0 11309700000.0 11309700000.0 11309700000.0 11309700000.0 11309700000.0 11309700000.0 11309700000.0 11309700000.0 11309700000.0 11309700000.0 11309700000.0 11309700000.0 11309700000.0 11309700000.0 11309700000.0 11309700000.0 11309700000.0 11309700000.0 11309700000.0 11309700000.0 11309700000.0 11309700000.0 11309700000.0 11309700000.0 11309700000.0 11309700000.0 11309700000.0 11309700000.0 11309700000.0 11309700000.0 11309700000.0 11309700000.0 11309700000.0 11309700000.0 11309700000.0 11309700000.0 11309700000.0 11309700000.0 11309700000.0 11309700000.0 11309700000.0 11309700000.0 11309700000.0 11309700000.0 11309700000.0 11309700000.0 11309700000.0 11309700000.0 11309700000.0 11309700000.0 11309700000.0 11309700000.0 11309700000.0 11309700000.0 11309700000.0 11309700000.0 11309700000.0 11309700000.0 11309700000.0 11309700000.0 11309700000.0 11309700000.0 11309700000.0 11309700000.0 11309700000.0 11309700000.0 11309700000.0 11309700000.0 11309700000.0 11309700000.0 11309700000.0 11309700000.0 11309700000.0 11309700000.0 11309700000.0 11309700000.0 11309700000.0 11309700000.0 11309700000.0 11309700000.0 11309700000.0 11309700000.0 11309700000.0 11309700000.0 11309700000.0 11309700000.0 11309700000.0 11309700000.0 11309700000.0 11309700000.0 11309700000.0 11309700000.0 11309700000.0 11309700000.0 11309700000.0 11309700000.0 11309700000.0 11309700000.0 11309700000.0 11309700000.0 11309700000.0 11309700000.0 11309700000.0 11309700000.0 11309700000.0 11309700000.0 11309700000.0 11309700000.0 11309700000.0 11309700000.0 11309700000.0 11309700000.0 11309700000.0 11309700000.0 11309700000.0 11309700000.0 11309700000.0 11309700000.0 11309700000.0 11309700000.0 11309700000.0 11309700000.0 11309700000.0 11309700000.0 11309700000.0 11309700000.0 11309700000.0 11309700000.0 11309700000.0 11309700000.0 11309700000.0 11309700000.0 11309700000.0 11309700000.0 11309700000.0 11309700000.0 11309700000.0 11309700000.0 11309700000.0 11309700000.0 11309700000.0 11309700000.0 11309700000.0 11309700000.0 11309700000.0 11309700000.0 11309700000.0 11309700000.0 11309700000.0 11309700000.0 11309700000.0 11309700000.0 11309700000.0 11309700000.0 11309700000.0 11309700000.0 11309700000.0 11309700000.0 11309700000.0 11309700000.0 11309700000.0 11309700000.0 11309700000.0 11309700000.0 11309700000.0 11309700000.0 11309700000.0 11309700000.0 11309700000.0 11309700000.0 11309700000.0 11309700000.0 11309700000.0 11309700000.0 11309700000.0 11309700000.0 11309700000.0 11309700000.0 11309700000.0 11309700000.0 11309700000.0 11309700000.0 11309700000.0 11309700000.0 11309700000.0 11309700000.0 11309700000.0 11309700000.0 11309700000.0 11309700000.0 11309700000.0 11309700000.0 11309700000.0 11309700000.0 11309700000.0 11309700000.0 11309700000.0 11309700000.0 11309700000.0 11309700000.0 11309700000.0 11309700000.0 11309700000.0 11309700000.0 11309700000.0 11309700000.0 11309700000.0 11309700000.0 11309700000.0 11309700000.0 11309700000.0 11309700000.0 11309700000.0 11309700000.0 11309700000.0 11309700000.0 11309700000.0 11309700000.0 11309700000.0 11309700000.0 11309700000.0 11309700000.0 11309700000.0 11309700000.0 11309700000.0 11309700000.0 11309700000.0 11309700000.0 11309700000.0 11309700000.0 11309700000.0 11309700000.0 11309700000.0 11309700000.0 11309700000.0 11309700000.0 11309700000.0 11309700000.0 11309700000.0 11309700000.0 11309700000.0 11309700000.0 11309700000.0 11309700000.0 11309700000.0 11309700000.0 11309700000.0 11309700000.0 11309700000.0 11309700000.0 11309700000.0 11309700000.0 11309700000.0 11309700000.0 11309700000.0 11309700000.0 11309700000.0 11309700000.0 11309700000.0 11309700000.0 11309700000.0 11309700000.0 11309700000.0 11309700000.0 11309700000.0 11309700000.0 11309700000.0 11309700000.0 11309700000.0 11309700000.0 11309700000.0 11309700000.0 11309700000.0 11309700000.0 11309700000.0 11309700000.0 11309700000.0 11309700000.0 11309700000.0 11309700000.0 11309700000.0 11309700000.0 11309700000.0 11309700000.0 11309700000.0 11309700000.0 11309700000.0 11309700000.0 11309700000.0 11309700000.0 11309700000.0 11309700000.0 11309700000.0 11309700000.0 11309700000.0 11309700000.0 11309700000.0 11309700000.0 11309700000.0 11309700000.0 11309700000.0 11309700000.0 11309700000.0 11309700000.0 11309700000.0 11309700000.0 11309700000.0 11309700000.0 11309700000.0 11309700000.0 11309700000.0 11309700000.0 11309700000.0 11309700000.0 11309700000.0 11309700000.0 11309700000.0 11309700000.0 11309700000.0 11309700000.0 11309700000.0 11309700000.0 11309700000.0 11309700000.0 11309700000.0 11309700000.0 11309700000.0 11309700000.0 11309700000.0 11309700000.0 11309700000.0 11309700000.0 11309700000.0 11309700000.0 11309700000.0 11309700000.0 11309700000.0 11309700000.0 11309700000.0 11309700000.0 11309700000.0 11309700000.0 11309700000.0 11309700000.0 11309700000.0 11309700000.0 11309700000.0 11309700000.0 11309700000.0 11309700000.0 11309700000.0 11309700000.0 11309700000.0 11309700000.0 11309700000.0 11309700000.0 11309700000.0 11309700000.0 11309700000.0 11309700000.0 11309700000.0 11309700000.0 11309700000.0 11309700000.0 11309700000.0 11309700000.0 11309700000.0 11309700000.0 11309700000.0 11309700000.0 11309700000.0 11309700000.0 11309700000.0 11309700000.0 11309700000.0 11309700000.0 11309700000.0 11309700000.0 11309700000.0 11309700000.0 11309700000.0 11309700000.0 11309700000.0 11309700000.0 11309700000.0 11309700000.0 11309700000.0 11309700000.0 11309700000.0 11309700000.0 11309700000.0 11309700000.0 11309700000.0 11309700000.0 11309700000.0 11309700000.0 11309700000.0 11309700000.0 11309700000.0 11309700000.0 11309700000.0 11309700000.0 11309700000.0 11309700000.0 11309700000.0 11309700000.0 11309700000.0 11309700000.0 11309700000.0 11309700000.0 11309700000.0 11309700000.0 11309700000.0 11309700000.0 11309700000.0 11309700000.0 11309700000.0 11309700000.0 11309700000.0 11309700000.0 11309700000.0 11309700000.0 11309700000.0 11309700000.0 11309700000.0 11309700000.0 11309700000.0 11309700000.0 11309700000.0 11309700000.0 11309700000.0 11309700000.0 11309700000.0 11309700000.0 11309700000.0 11309700000.0 11309700000.0 11309700000.0 11309700000.0 11309700000.0 11309700000.0 11309700000.0 11309700000.0 11309700000.0 11309700000.0 11309700000.0 11309700000.0 11309700000.0 11309700000.0 11309700000.0 11309700000.0 11309700000.0 11309700000.0 11309700000.0 11309700000.0 11309700000.0 11309700000.0 11309700000.0 11309700000.0 11309700000.0 11309700000.0 11309700000.0 11309700000.0 11309700000.0 11309700000.0 11309700000.0 11309700000.0 11309700000.0 11309700000.0 11309700000.0 11309700000.0 11309700000.0 11309700000.0 11309700000.0 11309700000.0 11309700000.0 11309700000.0 11309700000.0 11309700000.0 11309700000.0 11309700000.0 11309700000.0 11309700000.0 11309700000.0 11309700000.0 11309700000.0 11309700000.0 11309700000.0 11309700000.0 11309700000.0 11309700000.0 11309700000.0 11309700000.0 11309700000.0 11309700000.0 11309700000.0 11309700000.0 11309700000.0 11309700000.0 11309700000.0 11309700000.0 11309700000.0 11309700000.0 11309700000.0 11309700000.0 11309700000.0 11309700000.0 11309700000.0 11309700000.0 11309700000.0 11309700000.0 11309700000.0 11309700000.0 11309700000.0 11309700000.0 11309700000.0 11309700000.0 11309700000.0 11309700000.0 11309700000.0 11309700000.0 11309700000.0 11309700000.0 11309700000.0 11309700000.0 11309700000.0 11309700000.0 11309700000.0 11309700000.0 11309700000.0 11309700000.0 11309700000.0 11309700000.0 11309700000.0 11309700000.0 11309700000.0 11309700000.0 11309700000.0 11309700000.0 11309700000.0 11309700000.0 11309700000.0 11309700000.0 11309700000.0 11309700000.0 11309700000.0 11309700000.0 11309700000.0 11309700000.0 11309700000.0 11309700000.0 11309700000.0 11309700000.0 11309700000.0 11309700000.0 11309700000.0 11309700000.0 11309700000.0 11309700000.0 11309700000.0 11309700000.0 11309700000.0 11309700000.0 11309700000.0 11309700000.0 11309700000.0 11309700000.0 11309700000.0 11309700000.0 11309700000.0 11309700000.0 11309700000.0 11309700000.0 11309700000.0 11309700000.0 11309700000.0 11309700000.0 11309700000.0 11309700000.0 11309700000.0 11309700000.0 11309700000.0 11309700000.0 11309700000.0 11309700000.0 11309700000.0 11309700000.0 11309700000.0 11309700000.0 11309700000.0 11309700000.0 11309700000.0 11309700000.0 11309700000.0 11309700000.0 11309700000.0 11309700000.0 11309700000.0 11309700000.0 11309700000.0 11309700000.0 11309700000.0 11309700000.0 11309700000.0 11309700000.0 11309700000.0 11309700000.0 11309700000.0 11309700000.0 11309700000.0 11309700000.0 11309700000.0 11309700000.0 11309700000.0 11309700000.0 11309700000.0 11309700000.0 11309700000.0 11309700000.0 11309700000.0 11309700000.0 11309700000.0 11309700000.0 11309700000.0 11309700000.0 11309700000.0 11309700000.0 11309700000.0 11309700000.0 11309700000.0 11309700000.0 11309700000.0 11309700000.0 11309700000.0 11309700000.0 11309700000.0 11309700000.0 11309700000.0 11309700000.0 11309700000.0 11309700000.0 11309700000.0 11309700000.0 11309700000.0 11309700000.0 11309700000.0 11309700000.0 11309700000.0 11309700000.0 11309700000.0 11309700000.0 11309700000.0 11309700000.0 11309700000.0 11309700000.0 11309700000.0 11309700000.0 11309700000.0 11309700000.0 11309700000.0 11309700000.0 11309700000.0 11309700000.0 11309700000.0 11309700000.0 11309700000.0 11309700000.0 11309700000.0 11309700000.0 11309700000.0 11309700000.0 11309700000.0 11309700000.0 11309700000.0 11309700000.0 11309700000.0 11309700000.0 11309700000.0 11309700000.0 11309700000.0 11309700000.0 11309700000.0 11309700000.0 11309700000.0 11309700000.0 11309700000.0 11309700000.0 11309700000.0 11309700000.0 11309700000.0 11309700000.0 11309700000.0 11309700000.0 11309700000.0 11309700000.0 11309700000.0 11309700000.0 11309700000.0 11309700000.0 11309700000.0 11309700000.0 11309700000.0 11309700000.0 11309700000.0 11309700000.0 11309700000.0 11309700000.0 11309700000.0 11309700000.0 11309700000.0 11309700000.0 11309700000.0 11309700000.0 11309700000.0 11309700000.0 11309700000.0 11309700000.0 11309700000.0 11309700000.0 11309700000.0 11309700000.0 11309700000.0 11309700000.0 11309700000.0 11309700000.0 11309700000.0 11309700000.0 11309700000.0 11309700000.0 11309700000.0 11309700000.0 11309700000.0 11309700000.0 11309700000.0 11309700000.0 11309700000.0 11309700000.0 11309700000.0 11309700000.0 11309700000.0 11309700000.0 11309700000.0 11309700000.0 11309700000.0 11309700000.0 11309700000.0 11309700000.0 11309700000.0 11309700000.0 11309700000.0 11309700000.0 11309700000.0 11309700000.0 11309700000.0 11309700000.0 11309700000.0 11309700000.0 11309700000.0 11309700000.0 11309700000.0 11309700000.0 11309700000.0 11309700000.0 11309700000.0 11309700000.0 11309700000.0 11309700000.0 11309700000.0 11309700000.0 11309700000.0 11309700000.0 11309700000.0 11309700000.0 11309700000.0 11309700000.0 11309700000.0 11309700000.0 11309700000.0 11309700000.0 11309700000.0 11309700000.0 11309700000.0 11309700000.0 11309700000.0 11309700000.0 11309700000.0 11309700000.0 11309700000.0 11309700000.0 11309700000.0 11309700000.0 11309700000.0 11309700000.0 11309700000.0 11309700000.0 11309700000.0 11309700000.0 11309700000.0 11309700000.0 11309700000.0 11309700000.0 11309700000.0 11309700000.0 11309700000.0 11309700000.0 11309700000.0 11309700000.0 11309700000.0 11309700000.0 11309700000.0 11309700000.0 11309700000.0 11309700000.0 11309700000.0 11309700000.0 11309700000.0 11309700000.0 11309700000.0 11309700000.0 11309700000.0 11309700000.0 11309700000.0 11309700000.0 11309700000.0 11309700000.0 11309700000.0 11309700000.0 11309700000.0 11309700000.0 11309700000.0 11309700000.0 11309700000.0 11309700000.0 11309700000.0 11309700000.0 11309700000.0 11309700000.0 11309700000.0 11309700000.0 11309700000.0 11309700000.0 11309700000.0 11309700000.0 11309700000.0 11309700000.0 11309700000.0 11309700000.0 11309700000.0 11309700000.0 11309700000.0 11309700000.0 11309700000.0 11309700000.0 11309700000.0 11309700000.0 11309700000.0 11309700000.0 11309700000.0 11309700000.0 11309700000.0 11309700000.0 11309700000.0 11309700000.0 11309700000.0 11309700000.0 11309700000.0 11309700000.0 11309700000.0 11309700000.0 11309700000.0 11309700000.0 11309700000.0 11309700000.0 11309700000.0 11309700000.0 11309700000.0 11309700000.0 11309700000.0 11309700000.0 11309700000.0 11309700000.0 11309700000.0 11309700000.0 11309700000.0 11309700000.0 11309700000.0 11309700000.0 11309700000.0 11309700000.0 11309700000.0 11309700000.0 11309700000.0 11309700000.0 11309700000.0 11309700000.0 11309700000.0 11309700000.0 11309700000.0 11309700000.0 11309700000.0 11309700000.0 11309700000.0 11309700000.0 11309700000.0 11309700000.0 11309700000.0 11309700000.0 11309700000.0 11309700000.0 11309700000.0 11309700000.0 11309700000.0 11309700000.0 11309700000.0 11309700000.0 11309700000.0 11309700000.0 11309700000.0 11309700000.0 11309700000.0 11309700000.0 11309700000.0 11309700000.0 11309700000.0 11309700000.0 11309700000.0 11309700000.0 11309700000.0 11309700000.0 11309700000.0 11309700000.0 11309700000.0 11309700000.0 11309700000.0 11309700000.0 11309700000.0 11309700000.0 11309700000.0 11309700000.0 11309700000.0 11309700000.0 11309700000.0 11309700000.0 11309700000.0 11309700000.0 11309700000.0 11309700000.0 11309700000.0 11309700000.0 11309700000.0 11309700000.0 11309700000.0 11309700000.0 11309700000.0 11309700000.0 11309700000.0 11309700000.0 11309700000.0 11309700000.0 11309700000.0 11309700000.0 11309700000.0 11309700000.0 11309700000.0 11309700000.0 11309700000.0 11309700000.0 11309700000.0 11309700000.0 11309700000.0 11309700000.0 11309700000.0 11309700000.0 11309700000.0 11309700000.0 11309700000.0 11309700000.0 11309700000.0 11309700000.0 11309700000.0 11309700000.0 11309700000.0 11309700000.0 11309700000.0 11309700000.0 11309700000.0 11309700000.0 11309700000.0 11309700000.0 11309700000.0 11309700000.0 11309700000.0 11309700000.0 11309700000.0 11309700000.0 11309700000.0 11309700000.0 11309700000.0 11309700000.0 11309700000.0 11309700000.0 11309700000.0 11309700000.0 11309700000.0 11309700000.0 11309700000.0 11309700000.0 11309700000.0 11309700000.0 11309700000.0 11309700000.0 11309700000.0 11309700000.0 11309700000.0 11309700000.0 11309700000.0 11309700000.0 11309700000.0 11309700000.0 11309700000.0 11309700000.0 11309700000.0 11309700000.0 11309700000.0 11309700000.0 11309700000.0 11309700000.0 11309700000.0 11309700000.0 11309700000.0 11309700000.0 11309700000.0 11309700000.0 11309700000.0 11309700000.0 11309700000.0 11309700000.0 11309700000.0 11309700000.0 11309700000.0 11309700000.0 11309700000.0 11309700000.0 11309700000.0 11309700000.0 11309700000.0 11309700000.0 11309700000.0 11309700000.0 11309700000.0 11309700000.0 11309700000.0 11309700000.0 11309700000.0 11309700000.0 11309700000.0 11309700000.0 11309700000.0 11309700000.0 11309700000.0 11309700000.0 11309700000.0 11309700000.0 11309700000.0 11309700000.0 11309700000.0 11309700000.0 11309700000.0 11309700000.0 11309700000.0 11309700000.0 11309700000.0 11309700000.0 11309700000.0 11309700000.0 11309700000.0 11309700000.0 11309700000.0 11309700000.0 11309700000.0 11309700000.0 11309700000.0 11309700000.0 11309700000.0 11309700000.0 11309700000.0 11309700000.0 11309700000.0 11309700000.0 11309700000.0 11309700000.0 11309700000.0 11309700000.0 11309700000.0 11309700000.0 11309700000.0 11309700000.0 11309700000.0 11309700000.0 11309700000.0 11309700000.0 11309700000.0 11309700000.0 11309700000.0 11309700000.0 11309700000.0 11309700000.0 11309700000.0 11309700000.0 11309700000.0 11309700000.0 11309700000.0 11309700000.0 11309700000.0 11309700000.0 11309700000.0 11309700000.0 11309700000.0 11309700000.0 11309700000.0 11309700000.0 11309700000.0 11309700000.0 11309700000.0 11309700000.0 11309700000.0 11309700000.0 11309700000.0 11309700000.0 11309700000.0 11309700000.0 11309700000.0 11309700000.0 11309700000.0 11309700000.0 11309700000.0 11309700000.0 11309700000.0 11309700000.0 11309700000.0 11309700000.0 11309700000.0 11309700000.0 11309700000.0 11309700000.0 11309700000.0 11309700000.0 11309700000.0 11309700000.0 11309700000.0 11309700000.0 11309700000.0 11309700000.0 11309700000.0 11309700000.0 11309700000.0 11309700000.0 11309700000.0 11309700000.0 11309700000.0 11309700000.0 11309700000.0 11309700000.0 11309700000.0 11309700000.0 11309700000.0 11309700000.0 11309700000.0 11309700000.0 11309700000.0 11309700000.0 11309700000.0 11309700000.0 11309700000.0 11309700000.0 11309700000.0 11309700000.0 11309700000.0 11309700000.0 11309700000.0 11309700000.0 11309700000.0 11309700000.0 11309700000.0 11309700000.0 11309700000.0 11309700000.0 11309700000.0 11309700000.0 11309700000.0 11309700000.0 11309700000.0 11309700000.0 11309700000.0 11309700000.0 11309700000.0 11309700000.0 11309700000.0 11309700000.0 11309700000.0 11309700000.0 11309700000.0 11309700000.0 11309700000.0 11309700000.0 11309700000.0 11309700000.0 11309700000.0 11309700000.0 11309700000.0 11309700000.0 11309700000.0 11309700000.0 11309700000.0 11309700000.0 11309700000.0 11309700000.0 11309700000.0 11309700000.0 11309700000.0 11309700000.0 11309700000.0 11309700000.0 11309700000.0 11309700000.0 11309700000.0 11309700000.0 11309700000.0 11309700000.0 11309700000.0 11309700000.0 11309700000.0 11309700000.0 11309700000.0 11309700000.0 11309700000.0 11309700000.0 11309700000.0 11309700000.0 11309700000.0 11309700000.0 11309700000.0 11309700000.0 11309700000.0 11309700000.0 11309700000.0 11309700000.0 11309700000.0 11309700000.0 11309700000.0 11309700000.0 11309700000.0 11309700000.0 11309700000.0 11309700000.0 11309700000.0 11309700000.0 11309700000.0 11309700000.0 11309700000.0 11309700000.0 11309700000.0 11309700000.0 11309700000.0 11309700000.0 11309700000.0 11309700000.0 11309700000.0 11309700000.0 11309700000.0 11309700000.0 11309700000.0 11309700000.0 11309700000.0 11309700000.0 11309700000.0 11309700000.0 11309700000.0 11309700000.0 11309700000.0 11309700000.0 11309700000.0 11309700000.0 11309700000.0 11309700000.0 11309700000.0 11309700000.0 11309700000.0 11309700000.0 11309700000.0 11309700000.0 11309700000.0 11309700000.0 11309700000.0 11309700000.0 11309700000.0 11309700000.0 11309700000.0 11309700000.0 11309700000.0 11309700000.0 11309700000.0 11309700000.0 11309700000.0 11309700000.0 11309700000.0 11309700000.0 11309700000.0 11309700000.0 11309700000.0 11309700000.0 11309700000.0 11309700000.0 11309700000.0 11309700000.0 11309700000.0 11309700000.0 11309700000.0 11309700000.0 11309700000.0 11309700000.0 11309700000.0 11309700000.0 11309700000.0 11309700000.0 11309700000.0 11309700000.0 11309700000.0 11309700000.0 11309700000.0 11309700000.0 11309700000.0 11309700000.0 11309700000.0 11309700000.0 11309700000.0 11309700000.0 11309700000.0 11309700000.0 11309700000.0 11309700000.0 11309700000.0 11309700000.0 11309700000.0 11309700000.0 11309700000.0 11309700000.0 11309700000.0 11309700000.0 11309700000.0 11309700000.0 11309700000.0 11309700000.0 11309700000.0 11309700000.0 11309700000.0 11309700000.0 11309700000.0 11309700000.0 11309700000.0 11309700000.0 11309700000.0 11309700000.0 11309700000.0 11309700000.0 11309700000.0 11309700000.0 11309700000.0 11309700000.0 11309700000.0 11309700000.0 11309700000.0 11309700000.0 11309700000.0 11309700000.0 11309700000.0 11309700000.0 11309700000.0 11309700000.0 11309700000.0 11309700000.0 11309700000.0 11309700000.0 11309700000.0 11309700000.0 11309700000.0 11309700000.0 11309700000.0 11309700000.0 11309700000.0 11309700000.0 11309700000.0 11309700000.0 11309700000.0 11309700000.0 11309700000.0 11309700000.0 11309700000.0 11309700000.0 11309700000.0 11309700000.0 11309700000.0 11309700000.0 11309700000.0 11309700000.0 11309700000.0 11309700000.0 11309700000.0 11309700000.0 11309700000.0 11309700000.0 11309700000.0 11309700000.0 11309700000.0 11309700000.0 11309700000.0 11309700000.0 11309700000.0 11309700000.0 11309700000.0 11309700000.0 11309700000.0 11309700000.0 11309700000.0 11309700000.0 11309700000.0 11309700000.0 11309700000.0 11309700000.0 11309700000.0 11309700000.0 11309700000.0 11309700000.0 11309700000.0 11309700000.0 11309700000.0 11309700000.0 11309700000.0 11309700000.0 11309700000.0 11309700000.0 11309700000.0 11309700000.0 11309700000.0 11309700000.0 11309700000.0 11309700000.0 11309700000.0 11309700000.0 11309700000.0 11309700000.0 11309700000.0 11309700000.0 11309700000.0 11309700000.0 11309700000.0 11309700000.0 11309700000.0 11309700000.0 11309700000.0 11309700000.0 11309700000.0 11309700000.0 11309700000.0 11309700000.0 11309700000.0 11309700000.0 11309700000.0 11309700000.0 11309700000.0 11309700000.0 11309700000.0 11309700000.0 11309700000.0 11309700000.0 11309700000.0 11309700000.0 11309700000.0 11309700000.0 11309700000.0 11309700000.0 11309700000.0 11309700000.0 11309700000.0 11309700000.0 11309700000.0 11309700000.0 11309700000.0 11309700000.0 11309700000.0 11309700000.0 11309700000.0 11309700000.0 11309700000.0 11309700000.0 11309700000.0 11309700000.0 11309700000.0 11309700000.0 11309700000.0 11309700000.0 11309700000.0 11309700000.0 11309700000.0 11309700000.0 11309700000.0 11309700000.0 11309700000.0 11309700000.0 11309700000.0 11309700000.0 11309700000.0 11309700000.0 11309700000.0 11309700000.0 11309700000.0 11309700000.0 11309700000.0 11309700000.0 11309700000.0 11309700000.0 11309700000.0 11309700000.0 11309700000.0 11309700000.0 11309700000.0 11309700000.0 11309700000.0 11309700000.0 11309700000.0 11309700000.0 11309700000.0 11309700000.0 11309700000.0 11309700000.0 11309700000.0 11309700000.0 11309700000.0 11309700000.0 11309700000.0 11309700000.0 11309700000.0 11309700000.0 11309700000.0 11309700000.0 11309700000.0 11309700000.0 11309700000.0 11309700000.0 11309700000.0 11309700000.0 11309700000.0 11309700000.0 11309700000.0 11309700000.0 11309700000.0 11309700000.0 11309700000.0 11309700000.0 11309700000.0 11309700000.0 11309700000.0 11309700000.0 11309700000.0 11309700000.0 11309700000.0 11309700000.0 11309700000.0 11309700000.0 11309700000.0 11309700000.0 11309700000.0 11309700000.0 11309700000.0 11309700000.0 11309700000.0 11309700000.0 11309700000.0 11309700000.0 11309700000.0 11309700000.0 11309700000.0 11309700000.0 11309700000.0 11309700000.0 11309700000.0 11309700000.0 11309700000.0 11309700000.0 11309700000.0 11309700000.0 11309700000.0 11309700000.0 11309700000.0 11309700000.0 11309700000.0 11309700000.0 11309700000.0 11309700000.0 11309700000.0 11309700000.0 11309700000.0 11309700000.0 11309700000.0 11309700000.0 11309700000.0 11309700000.0 11309700000.0 11309700000.0 11309700000.0 11309700000.0 11309700000.0 11309700000.0 11309700000.0 11309700000.0 11309700000.0 11309700000.0 11309700000.0 11309700000.0 11309700000.0 11309700000.0 11309700000.0 11309700000.0 11309700000.0 11309700000.0 11309700000.0 11309700000.0 11309700000.0 11309700000.0 11309700000.0 11309700000.0 11309700000.0 11309700000.0 11309700000.0 11309700000.0 11309700000.0 11309700000.0 11309700000.0 11309700000.0 11309700000.0 11309700000.0 11309700000.0 11309700000.0 11309700000.0 11309700000.0 11309700000.0 11309700000.0 11309700000.0 11309700000.0 11309700000.0 11309700000.0 11309700000.0 11309700000.0 11309700000.0 11309700000.0 11309700000.0 11309700000.0 11309700000.0 11309700000.0 11309700000.0 11309700000.0 11309700000.0 11309700000.0 11309700000.0 11309700000.0 11309700000.0 11309700000.0 11309700000.0 11309700000.0 11309700000.0 11309700000.0 11309700000.0 11309700000.0 11309700000.0 11309700000.0 11309700000.0 11309700000.0 11309700000.0 11309700000.0 11309700000.0 11309700000.0 11309700000.0 11309700000.0 11309700000.0 11309700000.0 11309700000.0 11309700000.0 11309700000.0 11309700000.0 11309700000.0 11309700000.0 11309700000.0 11309700000.0 11309700000.0 11309700000.0 11309700000.0 11309700000.0 11309700000.0 11309700000.0 11309700000.0 11309700000.0 11309700000.0 11309700000.0 11309700000.0 11309700000.0 11309700000.0 11309700000.0 11309700000.0 11309700000.0 11309700000.0 11309700000.0 11309700000.0 11309700000.0 11309700000.0 11309700000.0 11309700000.0 11309700000.0 11309700000.0 11309700000.0 11309700000.0 11309700000.0 11309700000.0 11309700000.0 11309700000.0 11309700000.0 11309700000.0 11309700000.0 11309700000.0 11309700000.0 11309700000.0 11309700000.0 11309700000.0 11309700000.0 11309700000.0 11309700000.0 11309700000.0 11309700000.0 11309700000.0 11309700000.0 11309700000.0 11309700000.0 11309700000.0 11309700000.0 11309700000.0 11309700000.0 11309700000.0 11309700000.0 11309700000.0 11309700000.0 11309700000.0 11309700000.0 11309700000.0 11309700000.0 11309700000.0 11309700000.0 11309700000.0 11309700000.0 11309700000.0 11309700000.0 11309700000.0 11309700000.0 11309700000.0 11309700000.0 11309700000.0 11309700000.0 11309700000.0 11309700000.0 11309700000.0 11309700000.0 11309700000.0 11309700000.0 11309700000.0 11309700000.0 11309700000.0 11309700000.0 11309700000.0 11309700000.0 11309700000.0 11309700000.0 11309700000.0 11309700000.0 11309700000.0 11309700000.0 11309700000.0 11309700000.0 11309700000.0 11309700000.0 11309700000.0 11309700000.0 11309700000.0 11309700000.0 11309700000.0 11309700000.0 11309700000.0 11309700000.0 11309700000.0 11309700000.0 11309700000.0 11309700000.0 11309700000.0 11309700000.0 11309700000.0 11309700000.0 11309700000.0 11309700000.0 11309700000.0 11309700000.0 11309700000.0 11309700000.0 11309700000.0 11309700000.0 11309700000.0 11309700000.0 11309700000.0 11309700000.0 11309700000.0 11309700000.0 11309700000.0 11309700000.0 11309700000.0 11309700000.0 11309700000.0 11309700000.0 11309700000.0 11309700000.0 11309700000.0 11309700000.0 11309700000.0 11309700000.0 11309700000.0 11309700000.0 11309700000.0 11309700000.0 11309700000.0 11309700000.0 11309700000.0 11309700000.0 11309700000.0 11309700000.0 11309700000.0 11309700000.0 11309700000.0 11309700000.0 11309700000.0 11309700000.0 11309700000.0 11309700000.0 11309700000.0 11309700000.0 11309700000.0 11309700000.0 11309700000.0 11309700000.0 11309700000.0 11309700000.0 11309700000.0 11309700000.0 11309700000.0 11309700000.0 11309700000.0 11309700000.0 11309700000.0 11309700000.0 11309700000.0 11309700000.0 11309700000.0 11309700000.0 11309700000.0 11309700000.0 11309700000.0 11309700000.0 11309700000.0 11309700000.0 11309700000.0 11309700000.0 11309700000.0 11309700000.0 11309700000.0 11309700000.0 11309700000.0 11309700000.0 11309700000.0 11309700000.0 11309700000.0 11309700000.0 11309700000.0 11309700000.0 11309700000.0 11309700000.0 11309700000.0 11309700000.0 11309700000.0 11309700000.0 11309700000.0 11309700000.0 11309700000.0 11309700000.0 11309700000.0 11309700000.0 11309700000.0 11309700000.0 11309700000.0 11309700000.0 11309700000.0 11309700000.0 11309700000.0 11309700000.0 11309700000.0 11309700000.0 11309700000.0 11309700000.0 11309700000.0 11309700000.0 11309700000.0 11309700000.0 11309700000.0 11309700000.0 11309700000.0 11309700000.0 11309700000.0 11309700000.0 11309700000.0 11309700000.0 11309700000.0 11309700000.0 11309700000.0 11309700000.0 11309700000.0 11309700000.0 11309700000.0 11309700000.0 11309700000.0 11309700000.0 11309700000.0 11309700000.0 11309700000.0 11309700000.0 11309700000.0 11309700000.0 11309700000.0 11309700000.0 11309700000.0 11309700000.0 11309700000.0 11309700000.0 11309700000.0 11309700000.0 11309700000.0 11309700000.0 11309700000.0 11309700000.0 11309700000.0 11309700000.0 11309700000.0 11309700000.0 11309700000.0 11309700000.0 11309700000.0 11309700000.0 11309700000.0 11309700000.0 11309700000.0 11309700000.0 11309700000.0 11309700000.0 11309700000.0 11309700000.0 11309700000.0 11309700000.0 11309700000.0 11309700000.0 11309700000.0 11309700000.0 11309700000.0 11309700000.0 11309700000.0 11309700000.0 11309700000.0 11309700000.0 11309700000.0 11309700000.0 11309700000.0 11309700000.0 11309700000.0 11309700000.0 11309700000.0 11309700000.0 11309700000.0 11309700000.0 11309700000.0 11309700000.0 11309700000.0 11309700000.0 11309700000.0 11309700000.0 11309700000.0 11309700000.0 11309700000.0 11309700000.0 11309700000.0 11309700000.0 11309700000.0 11309700000.0 11309700000.0 11309700000.0 11309700000.0 11309700000.0 11309700000.0 11309700000.0 11309700000.0 11309700000.0 11309700000.0 11309700000.0 11309700000.0 11309700000.0 11309700000.0 11309700000.0 11309700000.0 11309700000.0 11309700000.0 11309700000.0 11309700000.0 11309700000.0 11309700000.0 11309700000.0 11309700000.0 11309700000.0 11309700000.0 11309700000.0 11309700000.0 11309700000.0 11309700000.0 11309700000.0 11309700000.0 11309700000.0 11309700000.0 11309700000.0 11309700000.0 11309700000.0 11309700000.0 11309700000.0 11309700000.0 11309700000.0 11309700000.0 11309700000.0 11309700000.0 11309700000.0 11309700000.0 11309700000.0 11309700000.0 11309700000.0 11309700000.0 11309700000.0 11309700000.0 11309700000.0 11309700000.0 11309700000.0 11309700000.0 11309700000.0 11309700000.0 11309700000.0 11309700000.0 11309700000.0 11309700000.0 11309700000.0 11309700000.0 11309700000.0 11309700000.0 11309700000.0 11309700000.0 11309700000.0 11309700000.0 11309700000.0 11309700000.0 11309700000.0 11309700000.0 11309700000.0 11309700000.0 11309700000.0 11309700000.0 11309700000.0 11309700000.0 11309700000.0 11309700000.0 11309700000.0 11309700000.0 11309700000.0 11309700000.0 11309700000.0 11309700000.0 11309700000.0 11309700000.0 11309700000.0 11309700000.0 11309700000.0 11309700000.0 11309700000.0 11309700000.0 11309700000.0 11309700000.0 11309700000.0 11309700000.0 11309700000.0 11309700000.0 11309700000.0 11309700000.0 11309700000.0 11309700000.0 11309700000.0 11309700000.0 11309700000.0 11309700000.0 11309700000.0 11309700000.0 11309700000.0 11309700000.0 11309700000.0 11309700000.0 11309700000.0 11309700000.0 11309700000.0 11309700000.0 11309700000.0 11309700000.0 11309700000.0 11309700000.0 11309700000.0 11309700000.0 11309700000.0 11309700000.0 11309700000.0 11309700000.0 11309700000.0 11309700000.0 11309700000.0 11309700000.0 11309700000.0 11309700000.0 11309700000.0 11309700000.0 11309700000.0 11309700000.0 11309700000.0 11309700000.0 11309700000.0 11309700000.0 11309700000.0 11309700000.0 11309700000.0 11309700000.0 11309700000.0 11309700000.0 11309700000.0 11309700000.0 11309700000.0 11309700000.0 11309700000.0 11309700000.0 11309700000.0 11309700000.0 11309700000.0 11309700000.0 11309700000.0 11309700000.0 11309700000.0 11309700000.0 11309700000.0 11309700000.0 11309700000.0 11309700000.0 11309700000.0 11309700000.0 11309700000.0 11309700000.0 11309700000.0 11309700000.0 11309700000.0 11309700000.0 11309700000.0 11309700000.0 11309700000.0 11309700000.0 11309700000.0 11309700000.0 11309700000.0 11309700000.0 11309700000.0 11309700000.0 11309700000.0 11309700000.0 11309700000.0 11309700000.0 11309700000.0 11309700000.0 11309700000.0 11309700000.0 11309700000.0 11309700000.0 11309700000.0 11309700000.0 11309700000.0 11309700000.0 11309700000.0 11309700000.0 11309700000.0 11309700000.0 11309700000.0 11309700000.0 11309700000.0 11309700000.0 11309700000.0 11309700000.0 11309700000.0 11309700000.0 11309700000.0 11309700000.0 11309700000.0 11309700000.0 11309700000.0 11309700000.0 11309700000.0 11309700000.0 11309700000.0 11309700000.0 11309700000.0 11309700000.0 11309700000.0 11309700000.0 11309700000.0 11309700000.0 11309700000.0 11309700000.0 11309700000.0 11309700000.0 11309700000.0 11309700000.0 11309700000.0 11309700000.0 11309700000.0 11309700000.0 11309700000.0 11309700000.0 11309700000.0 11309700000.0 11309700000.0 11309700000.0 11309700000.0 11309700000.0 11309700000.0 11309700000.0 11309700000.0 11309700000.0 11309700000.0 11309700000.0 11309700000.0 11309700000.0 11309700000.0 11309700000.0 11309700000.0 11309700000.0 11309700000.0 11309700000.0 11309700000.0 11309700000.0 11309700000.0 11309700000.0 11309700000.0 11309700000.0 11309700000.0 11309700000.0 11309700000.0 11309700000.0 11309700000.0 11309700000.0 11309700000.0 11309700000.0 11309700000.0 11309700000.0 11309700000.0 11309700000.0 11309700000.0 11309700000.0 11309700000.0 11309700000.0 11309700000.0 11309700000.0 11309700000.0 11309700000.0 11309700000.0 11309700000.0 11309700000.0 11309700000.0 11309700000.0 11309700000.0 11309700000.0 11309700000.0 11309700000.0 11309700000.0 11309700000.0 11309700000.0 11309700000.0 11309700000.0 11309700000.0 11309700000.0 11309700000.0 11309700000.0 11309700000.0 11309700000.0 11309700000.0 11309700000.0 11309700000.0 11309700000.0 11309700000.0 11309700000.0 11309700000.0 11309700000.0 11309700000.0 11309700000.0 11309700000.0 11309700000.0 11309700000.0 11309700000.0 11309700000.0 11309700000.0 11309700000.0 11309700000.0 11309700000.0 11309700000.0 11309700000.0 11309700000.0 11309700000.0 11309700000.0 11309700000.0 11309700000.0 11309700000.0 11309700000.0 11309700000.0 11309700000.0 11309700000.0 11309700000.0 11309700000.0 11309700000.0 11309700000.0 11309700000.0 11309700000.0 11309700000.0 11309700000.0 11309700000.0 11309700000.0 11309700000.0 11309700000.0 11309700000.0 11309700000.0 11309700000.0 11309700000.0 11309700000.0 11309700000.0 11309700000.0 11309700000.0 11309700000.0 11309700000.0 11309700000.0 11309700000.0 11309700000.0 11309700000.0 11309700000.0 11309700000.0 11309700000.0 11309700000.0 11309700000.0 11309700000.0 11309700000.0 11309700000.0 11309700000.0 11309700000.0 11309700000.0 11309700000.0 11309700000.0 11309700000.0 11309700000.0 11309700000.0 11309700000.0 11309700000.0 11309700000.0 11309700000.0 11309700000.0 11309700000.0 11309700000.0 11309700000.0 11309700000.0 11309700000.0 11309700000.0 11309700000.0 11309700000.0 11309700000.0 11309700000.0 11309700000.0 11309700000.0 11309700000.0 11309700000.0 11309700000.0 11309700000.0 11309700000.0 11309700000.0 11309700000.0 11309700000.0 11309700000.0 11309700000.0 11309700000.0 11309700000.0 11309700000.0 11309700000.0 11309700000.0 11309700000.0 11309700000.0 11309700000.0 11309700000.0 11309700000.0 11309700000.0 11309700000.0 11309700000.0 11309700000.0 11309700000.0 11309700000.0 11309700000.0 11309700000.0 11309700000.0 11309700000.0 11309700000.0 11309700000.0 11309700000.0 11309700000.0 11309700000.0 11309700000.0 11309700000.0 11309700000.0 11309700000.0 11309700000.0 11309700000.0 11309700000.0 11309700000.0 11309700000.0 11309700000.0 11309700000.0 11309700000.0 11309700000.0 11309700000.0 11309700000.0 11309700000.0 11309700000.0 11309700000.0 11309700000.0 11309700000.0 11309700000.0 11309700000.0 11309700000.0 11309700000.0 11309700000.0 11309700000.0 11309700000.0 11309700000.0 11309700000.0 11309700000.0 11309700000.0 11309700000.0 11309700000.0 11309700000.0 11309700000.0 11309700000.0 11309700000.0 11309700000.0 11309700000.0 11309700000.0 11309700000.0 11309700000.0 11309700000.0 11309700000.0 11309700000.0 11309700000.0 11309700000.0 11309700000.0 11309700000.0 11309700000.0 11309700000.0 11309700000.0 11309700000.0 11309700000.0 11309700000.0 11309700000.0 11309700000.0 11309700000.0 11309700000.0 11309700000.0 11309700000.0 11309700000.0 11309700000.0 11309700000.0 11309700000.0 11309700000.0 11309700000.0 11309700000.0 11309700000.0 11309700000.0 11309700000.0 11309700000.0 11309700000.0 11309700000.0 11309700000.0 11309700000.0 11309700000.0 11309700000.0 11309700000.0 11309700000.0 11309700000.0 11309700000.0 11309700000.0 11309700000.0 11309700000.0 11309700000.0 11309700000.0 11309700000.0 11309700000.0 11309700000.0 11309700000.0 11309700000.0 11309700000.0 11309700000.0 11309700000.0 11309700000.0 11309700000.0 11309700000.0 11309700000.0 11309700000.0 11309700000.0 11309700000.0 11309700000.0 11309700000.0 11309700000.0 11309700000.0 11309700000.0 11309700000.0 11309700000.0 11309700000.0 11309700000.0 11309700000.0 11309700000.0 11309700000.0 11309700000.0 11309700000.0 11309700000.0 11309700000.0 11309700000.0 11309700000.0 11309700000.0 11309700000.0 11309700000.0 11309700000.0 11309700000.0 11309700000.0 11309700000.0 11309700000.0 11309700000.0 11309700000.0 11309700000.0 11309700000.0 11309700000.0 11309700000.0 11309700000.0 11309700000.0 11309700000.0 11309700000.0 11309700000.0 11309700000.0 11309700000.0 11309700000.0 11309700000.0 11309700000.0 11309700000.0 11309700000.0 11309700000.0 11309700000.0 11309700000.0 11309700000.0 11309700000.0 11309700000.0 11309700000.0 11309700000.0 11309700000.0 11309700000.0 11309700000.0 11309700000.0 11309700000.0 11309700000.0 11309700000.0 11309700000.0 11309700000.0 11309700000.0 11309700000.0 11309700000.0 11309700000.0 11309700000.0 11309700000.0 11309700000.0 11309700000.0 11309700000.0 11309700000.0 11309700000.0 11309700000.0 11309700000.0 
SCALARS Velocity float 1
LOOKUP_TABLE default
1.01176 1.10496 1.0676 1.05923 1.0004 1.11026 1.12943 0.931926 1.04955 1.02851 1.12246 1.25626 1.3085 1.0675 0.98856 1.30734 0.950342 1.0997 1.10526 0.929376 1.06818 1.03552 1.03376 1.07808 1.17456 1.28088 1.28872 1.02918 1.01361 1.04353 1.0166 1.27327 1.05703 1.09329 1.10694 1.12814 0.957547 1.09071 1.04598 1.03988 1.02973 1.03279 1.0362 1.06684 1.11655 1.14411 1.33338 1.16751 1.02827 0.997574 1.30353 1.1632 1.15684 1.06818 1.09015 1.127 1.11682 1.08772 1.06342 1.05541 1.03483 1.04123 1.10758 1.16916 1.15028 1.20054 1.18983 1.17695 1.01464 0.984958 1.31051 1.28884 1.17021 1.15099 1.1062 1.14236 1.11383 1.07563 1.04489 1.03942 1.05448 1.15904 1.05911 1.18524 1.02432 1.01803 1.0034 0.997172 1.30491 1.16957 1.08265 1.09384 1.13187 1.13439 1.10094 1.05889 1.04308 1.04188 1.04167 1.03395 1.09808 1.10745 1.03287 1.17843 1.01953 1.01191 1.32343 1.17916 1.16487 1.08363 1.14025 1.12802 1.07674 1.06049 1.0484 1.03817 1.041 1.06603 1.0936 1.05471 1.18177 1.13437 1.01856 1.00674 1.33779 1.32194 1.18911 1.17841 1.17411 1.08885 1.15426 1.12226 1.0993 1.07628 1.04517 1.02974 1.00531 1.08347 1.1057 1.1158 1.14125 1.02148 1.07153 1.33845 1.19094 1.07857 1.21732 1.17473 1.14434 1.09605 1.05757 1.02645 1.01098 1.01599 1.00413 1.03808 1.06156 1.08773 1.09695 1.10459 1.12568 1.15117 1.34968 1.34674 1.18412 1.17563 1.24947 1.17139 1.1165 1.07451 1.05361 1.03773 1.01574 1.00179 1.03088 1.07939 1.10184 1.11189 1.12045 1.13444 1.15583 1.18611 1.35302 1.13838 1.18749 1.29166 1.21249 1.14177 1.11628 1.09378 1.07407 1.03111 0.998065 1.00675 1.05942 1.09241 1.1088 1.13358 1.19863 1.24056 1.35822 1.15636 1.2765 1.27959 1.25568 1.22847 1.17837 1.14689 1.09599 1.05385 1.00783 0.995273 1.02038 1.03621 1.06529 1.07988 1.09331 1.10052 1.10663 1.11724 1.15915 1.24018 1.34344 1.35169 1.08384 1.21964 1.26538 1.19414 1.11964 1.07975 1.0627 1.03053 1.0048 0.994787 0.99886 1.0507 1.08438 1.10038 1.11398 1.13218 1.15332 1.1918 1.32546 1.03598 1.12152 1.1696 1.25628 1.25306 1.23795 1.2119 1.15593 1.12284 1.10186 1.08981 1.04133 0.994921 1.04062 1.07584 1.09624 1.10417 1.12524 1.18145 1.22424 1.2891 1.30736 1.0694 1.2126 1.24718 1.16299 1.10555 1.07936 1.03486 0.997753 1.07215 1.09259 1.10176 1.10196 1.10324 1.10749 1.1122 1.14176 1.22145 1.21888 0.934488 1.1552 1.23773 1.22193 1.12637 1.09558 1.07627 1.05235 1.02551 1.12217 1.07025 1.08652 1.08906 1.10106 1.10629 1.10123 1.12456 1.18911 1.18384 1.21698 1.09085 0.969818 1.02159 1.15692 1.16386 1.17012 1.2196 1.19639 1.17543 1.12773 1.10885 1.11094 1.09393 1.0936 1.13735 1.0967 1.09973 1.11215 1.10143 1.10198 1.09796 1.15402 1.14696 0.879307 0.789556 1.04835 1.18492 1.21518 1.15518 1.19028 1.12539 1.10866 1.1375 1.12627 1.10446 1.11573 1.12925 1.11345 1.09602 1.09045 1.07486 1.09659 1.13642 1.17307 1.10095 0.627504 0.949737 0.962424 0.952803 1.01495 1.09796 1.15484 1.13695 1.12935 1.09486 1.15747 1.10625 1.16695 1.1412 1.11491 1.13552 1.11389 1.11149 1.1153 1.14022 1.12426 1.06796 1.06422 1.09292 1.11367 1.13863 1.06025 0.937804 0.726927 0.642076 0.679434 0.881123 0.945336 1.01968 1.13416 1.14907 1.11407 1.13267 1.07032 1.19552 1.14049 1.12614 1.13038 1.13427 1.12953 1.11313 1.13128 1.15859 1.08178 1.03984 1.06859 1.11087 0.939403 0.700143 0.716717 0.828911 0.842125 0.896208 0.897955 0.958111 0.961925 1.0857 1.11484 1.13915 1.11091 1.07046 1.08026 1.06293 1.04883 1.0245 1.18507 1.12201 1.12907 1.10433 1.15392 1.17712 1.21261 1.14279 1.0581 1.0321 0.994573 1.02493 1.04562 1.09588 1.04516 0.934307 0.79913 0.753349 0.72245 0.747573 0.740515 0.738804 0.783549 0.797969 0.847923 0.879367 1.03726 1.09032 1.04939 1.02701 1.06795 0.96008 1.13568 1.13789 1.08947 1.05919 1.24459 1.1718 0.977106 1.00004 1.07962 1.09777 1.03655 0.869336 0.817648 0.752679 0.766861 0.743158 0.718219 0.701811 0.75719 0.782007 0.820696 0.854333 0.860623 0.867773 0.897305 1.07581 1.05132 0.995396 1.00083 0.977325 1.04638 1.10929 1.03191 0.86096 1.02048 1.13356 1.13474 1.12468 1.01005 1.19762 1.30024 1.03485 0.933903 0.967034 0.982722 1.0339 1.07861 0.810861 0.775904 0.794144 0.779547 0.74033 0.683484 0.67261 0.682476 0.717613 0.737837 0.81379 0.893475 0.932724 0.863153 1.02993 1.11415 1.07493 1.02407 0.958039 1.06653 1.05311 0.930042 0.833088 1.15304 1.07354 0.968286 0.862001 1.34692 1.44923 1.20088 1.03701 0.951708 1.00954 1.0727 1.11434 1.05234 0.809949 0.903971 0.828951 0.761307 0.757216 0.71752 0.701101 0.661004 0.651969 0.627658 0.648048 0.654679 0.698835 0.76283 0.784875 0.850976 0.886156 0.913305 1.10315 1.07322 0.975543 0.964729 0.967961 1.22724 0.900193 1.29537 1.01213 0.984462 1.0568 1.02472 0.993638 0.819611 1.36847 0.959835 0.98814 1.0124 1.21117 0.979818 0.788407 0.767606 0.70571 0.719686 0.675815 0.636092 0.631236 0.615118 0.609872 0.635776 0.63945 0.661311 0.683961 0.721738 0.739288 0.798592 0.890602 0.638608 1.15889 0.948565 0.970225 0.928463 1.03314 1.21562 0.797945 0.990949 0.844387 0.782884 0.557496 0.645673 1.06043 1.03724 0.91828 0.718313 1.12112 0.983171 0.941473 0.970495 0.968986 1.05649 0.452589 0.801565 0.682523 0.677564 0.686059 0.652014 0.636628 0.617485 0.616059 0.594673 0.592836 0.604955 0.620017 0.623007 0.635078 0.706675 0.711164 0.741675 0.722055 0.773189 0.602167 1.58288 0.972206 0.898517 0.908692 0.75441 1.01247 0.70113 0.677821 0.936493 1.02453 1.0653 1.03652 1.00749 0.952514 0.83968 0.659929 0.852219 0.811782 0.906625 0.905371 0.909792 0.93043 1.26211 0.424317 0.662041 0.611846 0.647262 0.643502 0.663312 0.615375 0.605398 0.601644 0.585937 0.57517 0.549675 0.573397 0.589312 0.617203 0.621884 0.623285 0.599197 0.67157 0.696566 0.697288 0.612232 0.480912 0.263075 0.968445 0.910723 0.852913 0.763971 0.196622 0.820911 0.606401 0.92532 1.04426 0.997616 0.771367 0.725798 0.841277 0.90635 0.869862 1.03353 0.19433 0.37447 0.474861 0.598073 0.654134 0.639909 0.588401 0.603913 0.599734 0.596555 0.566216 0.552925 0.516195 0.526864 0.567409 0.580253 0.604609 0.612987 0.625118 0.684663 0.739283 0.702928 0.657806 0.640303 0.551038 0.655585 0.961715 0.874935 0.844065 0.777653 0.732702 0.568998 0.823029 0.764416 0.711256 0.672596 0.666105 0.866849 1.01176 1.04768 0.905482 0.814462 0.737238 0.756382 0.783274 0.836224 0.858777 0.86456 0.916942 0.63916 0.47455 0.530095 0.585769 0.632737 0.684787 0.643871 0.600033 0.597364 0.580934 0.547187 0.53446 0.459959 0.50523 0.519495 0.541287 0.554316 0.590972 0.587128 0.621611 0.610564 0.593701 0.81629 0.6988 0.629854 0.663126 0.794254 0.993017 0.866825 0.803465 0.760718 0.739896 0.690581 0.761505 0.719218 0.766766 0.854671 0.741342 1.09431 1.13988 1.0115 0.945106 0.77723 0.759342 0.770861 0.837798 0.874779 0.96856 0.805568 0.634778 0.551994 0.67336 0.741088 0.569989 0.615505 0.599136 0.574691 0.562357 0.506743 0.488862 0.430858 0.382493 0.479636 0.509347 0.526357 0.533704 0.562052 0.562875 0.577262 0.506342 0.880588 0.754586 0.602306 0.714639 0.679936 0.88746 1.00142 0.816305 0.832016 0.704899 0.682204 0.743791 0.736298 0.776504 0.839913 0.770549 0.598806 1.12374 0.85216 0.789266 0.727186 0.777384 0.866345 0.825703 0.930505 0.864748 0.644131 0.652465 0.543857 0.754107 0.90057 0.547183 0.560554 0.539108 0.525408 0.481496 0.458811 0.354572 0.278994 0.445414 0.459642 0.449 0.480867 0.503004 0.51081 0.540991 0.540937 0.550771 0.528527 0.512382 0.333877 0.581007 0.591442 0.511588 0.55252 0.764235 0.836935 0.642009 0.975796 0.704699 0.694186 0.711297 0.726477 0.745612 0.736741 0.7346 0.744353 0.771846 0.640523 0.456511 0.430707 1.0426 0.90174 0.799768 0.802621 0.770214 0.696294 0.894944 0.748671 0.790764 0.713178 0.501466 0.442054 0.56644 0.552898 0.305693 0.552734 0.511422 0.536715 0.501468 0.427623 0.397789 0.346614 0.290273 0.178138 0.168413 0.436828 0.45128 0.459117 0.488078 0.500234 0.519014 0.526946 0.519309 0.413823 0.427293 0.793215 0.642091 0.542906 0.621328 0.62675 0.451451 0.898476 0.771771 0.660559 0.739541 0.736471 0.734891 0.744667 0.69889 0.60925 0.522397 0.474041 0.501038 0.818589 0.79458 0.76084 0.7701 0.607853 0.855078 0.620149 0.70416 0.547651 0.492855 0.616238 0.773932 0.337711 0.48355 0.507077 0.515684 0.483037 0.453775 0.406005 0.378352 0.317598 0.261238 0.286528 0.432564 0.444877 0.456942 0.476128 0.487654 0.510393 0.52613 0.495447 0.470767 0.488628 0.621154 0.590782 0.545012 0.577618 0.579369 0.64751 0.659897 0.763152 0.618288 0.720724 0.735584 0.722672 0.72832 0.718308 0.727942 0.710198 0.713468 0.660953 0.550999 0.499142 0.669802 0.799363 0.798643 0.614244 0.720376 0.664182 0.653079 0.596745 0.519548 0.487276 0.553598 0.564314 0.366913 0.468566 0.477324 0.492309 0.433056 0.374502 0.347672 0.314185 0.303329 0.32255 0.402481 0.42732 0.450876 0.445778 0.453318 0.455029 0.460797 0.469202 0.480748 0.49538 0.497702 0.518129 0.51431 0.487284 0.557746 0.588629 0.583763 0.586525 0.591454 0.629622 0.631445 0.687358 0.638568 0.536209 0.660323 0.597784 0.736144 0.717614 0.703147 0.680766 0.612145 0.543008 0.591551 0.597108 0.704566 0.740992 0.788075 0.666673 0.813388 0.671639 0.661161 0.680807 0.653925 0.619204 0.563375 0.527001 0.535247 0.547413 0.499704 0.414292 0.46717 0.468644 0.422654 0.399691 0.397248 0.369783 0.314856 0.322833 0.361937 0.450037 0.488143 0.343695 0.518709 0.313463 0.434371 0.453278 0.444993 0.457266 0.461898 0.488292 0.494774 0.516953 0.504394 0.495006 0.498314 0.54036 0.559114 0.579784 0.597915 0.602917 0.622501 0.63154 0.65061 0.637547 0.593941 0.564341 0.624096 0.729517 0.723531 0.701823 0.688417 0.686761 0.66781 0.647368 0.625209 0.589974 0.607941 0.664077 0.76189 0.626059 0.52134 0.552206 0.657683 0.65425 0.618835 0.575247 0.565195 0.540848 0.515086 0.447561 0.394096 0.414856 0.420012 0.452385 0.417452 0.408044 0.396445 0.343587 0.386983 0.374565 0.464552 0.515204 0.344245 0.414741 0.545826 0.483731 0.436066 0.43912 0.447974 0.461051 0.47504 0.477648 0.454754 0.494161 0.498235 0.502422 0.528969 0.551269 0.56658 0.582723 0.625926 0.631788 0.641121 0.65837 0.643695 0.569308 0.592698 0.693589 0.702436 0.690095 0.676471 0.649693 0.627604 0.653297 0.736606 0.765023 0.757225 0.696214 0.616335 0.606051 0.65264 0.652469 0.642573 0.620478 0.548156 0.526277 0.480107 0.428589 0.390063 0.38107 0.376393 0.354048 0.408484 0.413681 0.39635 0.371687 0.346644 0.510112 0.497383 0.370012 0.5911 0.535884 0.274413 0.301741 0.310955 0.63827 0.453932 0.416829 0.423999 0.43886 0.46814 0.499776 0.51341 0.528158 0.54626 0.567275 0.580532 0.598024 0.610303 0.632038 0.637159 0.638879 0.631271 0.623425 0.602916 0.566658 0.699226 0.687554 0.678724 0.66505 0.64558 0.657311 0.651989 0.686122 0.7035 0.745199 0.766003 0.544444 0.573865 0.615423 0.638979 0.639582 0.602139 0.582402 0.556195 0.520113 0.468944 0.399532 0.351849 0.343335 0.421747 0.403737 0.373331 0.387293 0.690586 0.615977 0.542678 0.604829 0.57773 0.434047 0.200311 0.3934 0.149329 0.467617 0.403689 0.429593 0.40277 0.407256 0.456237 0.45246 0.458903 0.478984 0.532206 0.547132 0.565764 0.583747 0.597945 0.613536 0.62551 0.631383 0.623427 0.614094 0.599874 0.578755 0.570044 0.673844 0.689304 0.675107 0.678592 0.671048 0.670036 0.666526 0.658617 0.663676 0.67712 0.719949 0.775677 0.680013 0.579794 0.573689 0.593444 0.618742 0.630398 0.634799 0.625564 0.611753 0.593486 0.56414 0.524813 0.462369 0.367819 0.381071 0.421217 0.417957 0.417287 0.431859 0.813666 0.465814 0.741907 0.649544 0.310786 0.313757 0.136187 0.175481 0.125644 0.267596 0.285333 0.66189 0.4872 0.393472 0.397521 0.42269 0.44328 0.445702 0.451182 0.468965 0.487434 0.511662 0.580282 0.596288 0.612637 0.623146 0.628717 0.63157 0.610485 0.59615 0.580857 0.570247 0.567825 0.658863 0.669004 0.668609 0.66842 0.675844 0.701405 0.754448 0.797396 0.776483 0.64949 0.583098 0.59389 0.605928 0.6341 0.633122 0.629675 0.620208 0.60798 0.586563 0.343679 0.263238 0.292428 0.350444 0.388609 0.424173 0.412002 0.418156 0.328222 0.231991 0.982723 0.595296 0.49499 0.374458 0.276574 0.287004 0.188251 0.120345 0.0347926 0.300831 0.539585 0.413808 0.393716 0.408996 0.424484 0.43964 0.442996 0.458076 0.486309 0.50657 0.528525 0.548226 0.565829 0.60921 0.622163 0.626884 0.62654 0.626312 0.621779 0.581547 0.568365 0.555616 0.552782 0.654008 0.652725 0.658193 0.65887 0.666413 0.668613 0.670094 0.674781 0.675399 0.688177 0.691724 0.70766 0.732927 0.788608 0.757734 0.502112 0.549463 0.586347 0.618515 0.627 0.631225 0.633494 0.633304 0.63239 0.557021 0.468996 0.259009 0.161038 0.208295 0.303355 0.395041 0.418034 0.367238 0.363101 0.443942 0.502562 0.422752 0.659961 0.490959 0.208886 0.213022 0.151711 0.162625 0.151651 0.0341133 0.139584 0.427347 0.398353 0.503415 0.495169 0.433926 0.387913 0.410534 0.42397 0.437022 0.429152 0.440425 0.484404 0.50898 0.524006 0.54429 0.564733 0.579342 0.594216 0.624382 0.62429 0.621843 0.61834 0.60976 0.59583 0.544269 0.62844 0.648862 0.663203 0.673304 0.684623 0.702837 0.719106 0.858258 0.75059 0.598893 0.607703 0.616672 0.623559 0.629918 0.63477 0.632371 0.634107 0.620508 0.544332 0.18085 0.130515 0.21714 0.238377 0.362463 0.37608 0.334468 0.348551 0.269209 0.407828 0.302121 0.290977 0.663716 0.594147 0.371982 0.230347 0.203326 0.023046 0.0982767 0.160914 0.0391389 0.183391 0.305117 0.30823 0.443441 0.508094 0.393163 0.350119 0.416133 0.423705 0.437415 0.439992 0.418481 0.492419 0.51336 0.526728 0.549488 0.566184 0.580898 0.594866 0.608114 0.617874 0.620064 0.615344 0.608029 0.596001 0.580403 0.56649 0.554793 0.614754 0.635793 0.653291 0.670394 0.681134 0.697366 0.714226 0.722695 0.81303 0.496295 0.555521 0.583743 0.596288 0.605536 0.613838 0.621785 0.637643 0.645601 0.663013 0.693136 0.745687 0.854737 0.102703 0.390394 0.213184 0.233089 0.349045 0.373619 0.389458 0.371713 0.184977 0.401881 0.160451 0.511249 0.645475 0.305683 0.277326 0.212996 0.136902 0.00920605 0.135955 0.0551368 0.118428 0.0132119 0.0982378 0.345546 0.446824 0.440471 0.468371 0.506911 0.423553 0.439859 0.446513 0.449761 0.509515 0.519699 0.560756 0.575321 0.58547 0.596637 0.605542 0.613532 0.619978 0.622447 0.607243 0.596368 0.582779 0.567437 0.551067 0.533319 0.517129 0.641749 0.642014 0.650652 0.662559 0.674005 0.678481 0.690627 0.69316 0.70618 0.709896 0.720249 0.722394 0.757044 0.633666 0.460325 0.525178 0.558279 0.580372 0.592952 0.60378 0.627821 0.632318 0.639652 0.650976 0.672098 0.715728 0.812414 1.0903 1.0091 0.472341 0.504554 0.377189 0.242292 0.27207 0.514648 0.0973525 0.231279 0.11414 0.0352796 0.0013115 0.0263386 0.0879452 0.111874 0.105711 0.0935022 0.0384472 0.179809 0.972887 0.559885 0.490331 0.472478 0.456296 0.46827 0.415699 0.518624 0.584031 0.589394 0.595871 0.603682 0.609694 0.615663 0.619773 0.618649 0.61396 0.587479 0.571807 0.554895 0.537161 0.514357 0.57585 0.637499 0.666279 0.687093 0.703204 0.716969 0.730904 0.776206 0.548328 0.511325 0.542166 0.564514 0.612474 0.618486 0.622914 0.627524 0.631377 0.637855 0.65259 0.695283 0.828727 0.352835 0.0540954 0.198094 0.328977 0.46998 0.313913 0.256066 0.10911 0.433824 0.67773 0.149503 0.152661 0.0776366 0.0304237 0.131435 0.0819689 0.17419 0.136136 0.105792 0.217253 0.432028 0.464648 0.548218 0.55594 0.523496 0.587537 0.506496 0.492155 0.463627 0.437536 0.542133 0.495188 0.484085 0.568779 0.600116 0.605308 0.610861 0.615643 0.617397 0.613836 0.606866 0.598823 0.547104 0.534694 0.530325 0.648035 0.657006 0.680553 0.70123 0.715374 0.723779 0.724493 0.741406 0.811952 0.543793 0.580479 0.593024 0.603346 0.61028 0.614486 0.616413 0.615788 0.613572 0.610539 1.27837 0.897219 0.388479 0.198192 0.305617 0.400455 0.642334 0.755567 0.709626 0.230983 0.270412 0.344365 0.610271 0.165468 0.110631 0.103365 0.0277358 0.157873 0.369253 0.672774 0.320709 0.285443 0.335698 0.190968 0.21829 0.337625 0.377234 0.480739 0.538974 0.581439 0.582576 0.500493 0.472239 0.540401 0.486917 0.440287 0.598181 0.598433 0.596104 0.596247 0.611262 0.614396 0.614536 0.61004 0.601934 0.592728 0.579809 0.564165 0.654966 0.643305 0.660524 0.67241 0.689325 0.696464 0.712945 0.715299 0.725918 0.723978 0.722601 0.744645 0.53845 0.554542 0.56995 0.583144 0.594787 0.603409 0.608202 0.609446 0.607399 0.615027 0.665991 0.860686 1.33219 0.834818 0.430378 0.278797 0.312132 0.622459 0.670466 0.354372 0.496337 0.458037 0.39046 0.21163 0.208456 0.15281 0.183251 0.1335 0.115558 0.30342 0.162394 0.364746 0.354261 0.330859 0.825772 0.317228 0.276028 0.297782 0.314135 0.275875 0.376912 0.600342 0.620897 0.533656 0.528548 0.527788 0.535367 0.49399 0.434408 0.639726 0.60364 0.596887 0.594452 0.596227 0.601226 0.606152 0.612983 0.607604 0.598578 0.587676 0.574261 0.55851 0.54397 0.536434 0.456107 0.661874 0.679012 0.707536 0.727022 0.73097 0.720925 0.639709 0.527485 0.543881 0.549729 0.562454 0.575788 0.587462 0.597141 0.60312 0.601766 0.59273 0.584449 0.599944 0.686036 0.918213 1.31588 0.847032 0.319739 0.121789 0.516541 1.09276 0.901838 0.618404 0.565281 0.568514 0.338489 0.271865 0.22138 0.244794 0.23085 0.20622 0.223991 0.199317 0.225095 0.180688 0.345687 0.79654 0.452934 0.380118 0.249404 0.240918 0.261681 0.187783 0.169725 0.498521 0.622983 0.576235 0.560876 0.580922 0.519272 0.500942 0.453461 0.674166 0.611079 0.593203 0.591196 0.592495 0.597038 0.602273 0.607168 0.611403 0.613526 0.596187 0.582717 0.568242 0.553099 0.540694 0.511561 0.671958 0.667887 0.700019 0.723621 0.734797 0.721004 0.712717 0.657142 0.584456 0.54698 0.552121 0.560228 0.571846 0.582619 0.605092 0.603595 0.598457 0.589541 0.579659 0.58353 0.625116 0.747572 0.9626 1.25343 0.753735 0.165012 0.448738 1.00903 0.888072 0.78591 0.636166 0.583499 0.649584 0.261606 0.212998 0.249721 0.215402 0.35927 0.409024 0.220194 0.309879 0.831075 0.820898 0.702674 0.561853 0.307585 0.227168 0.38492 0.289574 0.653883 0.57261 0.555024 0.565083 0.623314 0.696841 0.625862 0.596152 0.588513 0.589766 0.59318 0.599098 0.604699 0.609538 0.61277 0.614125 0.612736 0.606579 0.564239 0.552849 0.545823 0.574632 0.51202 0.676058 0.687034 0.692783 0.714111 0.718023 0.730759 0.736542 0.740613 0.734015 0.699338 0.6653 0.573432 0.569027 0.557441 0.562625 0.592011 0.598723 0.601967 0.601943 0.598714 0.592404 0.5852 0.585564 0.608487 0.677913 0.803247 0.964628 1.18173 0.700529 0.778361 0.675442 0.601379 0.58345 0.678964 0.251734 0.246278 0.272063 0.307801 0.346522 0.437983 0.140425 0.22267 0.733512 0.380157 0.308341 0.199355 0.212155 0.257419 0.789867 0.58766 0.537481 0.557134 0.599483 0.649373 0.496141 0.471579 0.592161 0.597712 0.603641 0.608719 0.613084 0.615648 0.616319 0.613652 0.606137 0.594664 0.580141 0.584427 0.478946 0.71024 0.731849 0.743935 0.741674 0.72403 0.570844 0.580695 0.589649 0.59657 0.600139 0.601193 0.600223 0.597033 0.59288 0.592934 0.606295 0.287269 0.553624 0.598244 0.826895 0.654256 0.582091 0.567603 0.562854 0.240309 0.25633 0.324682 0.353665 0.183407 0.434463 0.444824 0.789781 0.606913 0.453901 0.263391 0.281514 0.51197 0.67299 0.634896 0.556514 0.567652 0.576471 0.619551 0.664996 0.487116 0.696814 0.642936 0.608921 0.592584 0.590004 0.613798 0.617493 0.619517 0.619057 0.614936 0.606335 0.593786 0.578083 0.563364 0.55909 0.576252 0.694792 0.731984 0.740128 0.737349 0.692054 0.636536 0.574525 0.569596 0.567732 0.573638 0.581252 0.588482 0.595059 0.599614 0.601772 0.602436 0.602125 0.647056 0.724881 0.830982 0.961534 1.10468 0.780854 0.631517 0.796294 0.740415 0.550958 0.515892 0.505209 0.495263 0.323516 0.304528 0.306485 0.434761 0.119372 0.365885 0.483437 0.791469 0.654601 0.451438 0.437769 0.611711 0.61549 1.17407 0.772598 0.639412 0.571466 0.596406 0.68395 0.652547 0.624604 0.604625 0.594735 0.593576 0.598804 0.604298 0.60921 0.621199 0.615601 0.606422 0.592142 0.575889 0.56476 0.583521 0.60157 0.628828 0.638371 0.735822 0.737029 0.742669 0.742725 0.756688 0.748529 0.684183 0.684145 0.502659 0.608162 0.580108 0.577265 0.578723 0.583058 0.590191 0.595698 0.599052 0.601042 0.602109 0.610492 0.63334 0.680588 0.753404 0.848933 0.979648 0.946554 0.687412 0.599288 0.474188 0.434136 0.308151 0.335536 0.344249 0.433766 0.118962 0.514856 0.875625 0.558716 0.54414 0.874963 0.846295 0.692795 0.599584 0.604811 0.603182 0.634232 0.670083 0.675994 0.658134 0.638249 0.619418 0.604152 0.596931 0.603355 0.607195 0.611141 0.61533 0.619417 0.622231 0.623332 0.606302 0.587754 0.567753 0.58319 0.613402 0.631511 0.709811 0.768943 0.763502 0.757286 0.704678 0.725218 0.629535 0.614551 0.598575 0.585055 0.587931 0.588395 0.591211 0.601887 0.604098 0.606272 0.608392 0.611554 0.618634 0.632331 0.656359 0.702956 0.770451 0.855571 0.929654 0.73657 0.509472 0.693925 0.543759 0.501522 0.385195 0.49195 0.494527 0.770104 0.838313 1.01362 0.976684 0.807823 0.503792 0.631325 0.656399 0.623204 0.64762 0.662896 0.659897 0.650181 0.633506 0.620534 0.599669 0.61255 0.613652 0.615155 0.618062 0.62175 0.624642 0.626057 0.626173 0.623754 0.617708 0.627684 0.641557 0.786511 0.778226 0.747878 0.71337 0.596507 0.600262 0.602904 0.605035 0.608085 0.612592 0.619097 0.627784 0.639209 0.652264 0.669255 0.722631 0.778616 0.833151 0.760174 0.630732 0.546983 0.604943 0.590769 0.56274 0.498985 0.424823 0.315769 0.319076 0.587028 0.779639 0.621679 0.982669 0.942847 0.911606 0.729716 0.442828 0.661264 0.693466 0.626478 0.627337 0.63603 0.646174 0.647157 0.621159 0.622393 0.624567 0.627085 0.629165 0.630277 0.629542 0.625722 0.615058 0.598315 0.578913 0.576551 0.707162 0.755548 0.793217 0.543675 0.49792 0.751095 0.758944 0.701011 0.642096 0.621156 0.59979 0.590871 0.59341 0.596594 0.599772 0.600481 0.602494 0.605604 0.609224 0.614017 0.621363 0.633794 0.646722 0.776756 0.727103 0.655461 0.605127 0.555071 0.458768 0.348198 0.303888 0.394637 0.594821 0.77783 0.716798 1.25538 0.792696 0.857802 0.757422 0.62328 0.749929 0.684761 0.647635 0.640501 0.643693 0.660889 0.645466 0.643889 0.606093 0.62607 0.62264 0.63196 0.633097 0.634259 0.630306 0.62042 0.607043 0.587578 0.583459 0.634408 0.644841 0.707942 0.743762 0.802473 0.802426 0.775343 0.631084 0.75415 0.757041 0.697562 0.640862 0.621251 0.598598 0.596042 0.601713 0.606974 0.604521 0.604503 0.605268 0.60828 0.659133 0.664743 0.687148 0.73791 0.774403 0.794506 0.666803 0.600696 0.564282 0.595237 0.25675 0.253135 0.55364 0.638649 0.679688 0.78865 0.91991 1.07606 1.08615 0.890171 0.816411 0.792278 0.477485 0.780386 0.743684 0.693438 0.648663 0.632898 0.660926 0.658675 0.66423 0.620632 0.646823 0.630888 0.62751 0.627835 0.629762 0.630808 0.622608 0.60466 0.59422 0.61698 0.645439 0.700275 0.736835 0.794714 0.816837 0.783302 0.72376 0.662145 0.772383 0.744462 0.682079 0.628557 0.61193 0.601146 0.597987 0.620504 0.60691 0.61369 0.621178 0.632883 0.650102 0.66399 0.673035 0.68197 0.698735 0.740734 0.772267 0.79228 0.770709 0.731698 0.571663 0.541029 0.523736 0.728243 0.759475 0.813139 0.858971 0.741923 0.77816 0.638646 0.776211 0.749017 0.654619 0.651252 0.652405 0.66334 0.682206 0.629281 0.67245 0.646671 0.637174 0.63511 0.63679 0.636868 0.635884 0.635314 0.635532 0.637545 0.634804 0.822568 0.742118 0.693527 0.660588 0.707381 0.607954 0.607293 0.608557 0.612127 0.620503 0.631562 0.645286 0.664616 0.676996 0.689328 0.6883 0.703528 0.751306 0.767425 0.754141 0.747933 0.7067 0.63751 0.554948 0.582494 0.437977 0.696214 0.819917 0.829393 0.693293 0.753911 0.775077 0.719429 0.751722 0.705821 0.728193 0.680741 0.673422 0.649097 0.688669 0.64029 0.688249 0.664871 0.659265 0.643476 0.645325 0.64592 0.643413 0.639992 0.638051 0.64051 0.646007 0.643406 0.623379 0.601801 0.60571 0.640301 0.69163 0.736706 0.783047 0.813224 0.725838 0.668591 0.666758 0.762905 0.767879 0.718568 0.662466 0.622168 0.612073 0.599895 0.660964 0.611938 0.613901 0.610093 0.608884 0.611701 0.619713 0.632391 0.6423 0.658051 0.680608 0.687107 0.695404 0.690641 0.720375 0.756176 0.723938 0.729667 0.734151 0.715419 0.606166 0.562002 0.792831 0.68506 0.615845 0.729678 0.785096 0.734644 0.77708 0.730927 0.776989 0.74925 0.718895 0.668826 0.884796 0.756824 0.709686 0.656003 0.650919 0.641851 0.639074 0.644366 0.649218 0.645689 0.614732 0.59483 0.62395 0.680253 0.734066 0.784052 0.808891 0.827302 0.88741 0.649892 0.781758 0.755563 0.702261 0.640705 0.640559 0.615312 0.681284 0.622066 0.638766 0.638469 0.641011 0.653038 0.673114 0.72266 0.740442 0.845658 0.592796 0.496623 0.685169 0.722594 0.751752 0.786951 0.811929 0.902265 0.746471 0.743564 0.776216 0.752721 0.71908 0.671651 0.66194 0.652249 0.698858 0.675871 0.686022 0.655859 0.654462 0.656399 0.65383 0.639475 0.609724 0.78004 0.642907 0.70638 0.785108 0.794103 0.82041 0.928198 0.959252 0.789737 0.680866 0.771228 0.804755 0.641431 0.635401 0.733726 0.649292 0.699649 0.711323 0.712764 0.707821 0.693206 0.695171 0.701928 0.707101 0.733112 0.716669 0.705671 0.613562 0.349234 0.742437 0.778748 0.806345 0.894761 0.747634 0.75301 0.743614 0.764937 0.719394 0.904757 0.804748 0.769045 0.732525 0.680099 0.622392 0.708585 0.68741 0.707272 0.67319 0.66475 0.666777 0.667517 0.662595 0.658137 0.64138 0.637191 0.649205 0.717477 0.656688 0.615113 0.859321 0.662666 0.645191 0.640411 0.643703 0.661819 0.68734 0.713861 0.717421 0.715711 0.710513 0.702644 0.699502 0.727903 0.72042 0.700449 0.702698 0.708697 0.740072 0.858067 0.893832 0.671623 0.722102 0.670867 0.737901 0.752344 0.898447 0.739632 0.748118 0.73825 0.739215 0.74814 0.760153 0.915206 0.731829 0.778074 0.758722 0.734465 0.651326 0.680205 0.706187 0.715443 0.726133 0.720867 0.706852 0.715898 0.716073 0.712728 0.716588 0.696768 0.676932 0.706167 0.725313 0.733515 0.706406 0.88495 0.767394 0.838355 0.885882 0.849364 0.877744 0.786661 0.985826 0.743803 0.687114 0.640915 0.583854 0.99697 0.739447 0.989762 0.753488 0.833707 0.70327 0.725254 0.692433 0.692307 0.698975 0.721084 0.741421 0.743407 0.726644 0.722268 0.719021 0.714278 0.704997 0.721872 0.746319 0.704935 0.679719 0.711757 0.747217 0.767185 0.827966 0.935451 0.730753 0.744965 0.743798 0.743113 0.765113 0.799431 0.894917 0.893926 0.739754 0.750939 0.740322 0.902278 0.896985 0.793294 0.775517 0.760422 0.7291 0.681111 0.736993 0.729247 0.692218 0.69655 0.721542 0.727245 0.730796 0.890191 0.794686 0.875544 0.927642 0.882278 0.911395 0.896106 0.660642 0.966173 0.897465 0.806007 0.78014 0.734503 0.710876 0.681959 0.693098 0.690493 0.710549 0.738511 0.75027 0.66597 0.707891 0.749545 0.795613 0.758399 0.892628 0.912062 0.739803 0.765647 0.894506 0.893785 0.769382 0.768973 0.793722 0.716084 0.725914 0.732036 0.733419 0.721856 0.723408 0.721756 0.721981 0.824202 0.79395 0.749762 0.711117 0.744491 0.73152 0.727067 0.722337 0.715087 0.727371 0.744686 0.739833 0.797154 0.759673 0.781301 0.893832 0.893832 0.806708 0.78777 0.72974 0.773092 0.7889 0.922554 0.802678 0.77421 0.820573 0.795538 0.827605 0.800232 0.806766 0.790071 0.764058 0.755553 0.733978 0.717069 0.723124 0.752175 0.735406 0.732788 0.733774 0.708408 0.73779 0.87758 0.781089 0.85633 0.818001 0.868524 0.906672 0.852312 0.876216 0.772212 0.849627 0.799058 0.76606 0.730237 0.672996 0.612492 0.894434 0.857382 0.797259 0.772622 0.731042 0.868181 0.71173 0.706838 0.737274 0.765899 0.768829 0.757646 0.743753 0.737408 0.732913 0.730298 0.750354 0.78009 0.819052 0.804693 0.81726 0.786579 0.788749 0.832257 0.894356 0.913301 0.794052 0.76144 0.720947 0.790631 0.810981 0.893832 0.893832 0.898703 0.901443 0.888671 0.873533 0.844065 0.870144 0.800123 0.919146 0.885944 0.827698 0.782788 0.873056 0.875545 0.880471 0.814743 0.771326 0.754372 0.740897 0.729185 0.733235 0.735114 0.739086 0.788385 0.779353 0.867548 0.877152 0.896817 0.814377 0.835534 0.803458 0.836452 0.872633 0.834511 0.906192 0.760348 0.789052 0.823492 0.797789 0.747214 0.865416 0.912451 0.871671 0.90119 0.854173 0.908521 0.893103 0.847364 0.838183 0.759899 0.776633 0.768666 0.75691 0.745577 0.736727 0.731404 0.743519 0.773557 0.793195 0.861459 0.885229 0.872499 0.837005 0.871995 0.884914 0.922021 0.792089 0.872484 0.843712 0.869999 0.878991 0.900725 0.898999 0.884649 0.826249 0.890844 0.893832 0.893832 0.89522 0.902651 0.889318 0.908562 0.931646 0.816206 0.903042 0.893487 0.895876 0.893771 0.89484 0.884213 0.891927 0.834295 0.848447 0.835379 0.820209 0.809258 0.802998 0.80174 0.809485 0.827145 0.827377 0.876646 0.873763 0.890518 0.820197 0.847737 0.826611 0.856754 0.891663 0.865293 0.938107 0.808411 0.83007 0.874905 0.888521 0.871993 0.862765 0.89393 0.900174 0.895155 0.907626 0.883892 0.915644 0.887119 0.89429 0.892105 0.803213 0.822575 0.819381 0.820665 0.82 0.821585 0.822681 0.829064 0.84986 0.849791 0.880892 0.890815 0.881162 0.893926 0.895779 0.893337 0.903149 0.808197 0.92949 0.908234 0.893776 0.895389 0.895054 0.893832 0.893832 0.894226 0.894003 0.895814 0.901282 0.89392 0.907002 0.832796 0.895558 0.896181 0.894377 0.894437 0.895606 0.890072 0.899236 0.87266 0.86327 0.85254 0.838593 0.830191 0.827858 0.833067 0.826376 0.842161 0.874574 0.871379 0.868679 0.886637 0.897141 0.857426 0.898586 0.866117 0.89543 0.878405 0.895418 0.850054 0.909937 0.900352 0.889072 0.862233 0.8971 0.903999 0.897756 0.902016 0.893373 0.897833 0.893098 0.895652 0.892655 0.830047 0.843969 0.846109 0.847772 0.84524 0.845452 0.845469 0.848221 0.861496 0.860469 0.898067 0.895608 0.890936 0.894425 0.894483 0.896305 0.89556 0.82772 0.90535 0.899057 0.89407 0.895613 0.894011 0.894238 0.929935 0.892292 0.926364 0.89438 0.894173 0.895865 0.898182 0.894365 0.902321 0.921871 0.842427 0.895716 0.896252 0.894088 0.894581 0.895617 0.890969 0.898596 0.882974 0.867543 0.857405 0.843197 0.834751 0.832 0.8384 0.833919 0.85867 0.897056 0.871149 0.867688 0.884644 0.897621 0.861972 0.896863 0.871626 0.896103 0.884396 0.898463 0.86808 0.896498 0.898044 0.899701 0.892518 0.865096 0.896877 0.895335 0.896256 0.895127 0.896079 0.894715 0.89432 0.89304 0.890905 0.843425 0.852796 0.848971 0.851231 0.847879 0.848259 0.849089 0.852929 0.866758 0.869456 0.899844 0.894116 0.895304 0.894596 0.89409 0.896419 0.895755 0.837783 0.918696 0.900008 0.899207 0.892789 0.895667 0.894171 0.894383 0.894351 0.89416 0.895659 0.895426 0.893928 0.852874 0.8956 0.896018 0.894097 0.894545 0.895465 0.891427 0.897706 0.837951 0.844866 0.84337 0.878349 0.896444 0.87247 0.86786 0.883635 0.893832 0.894413 0.874588 0.894897 0.886484 0.894552 0.89499 0.896274 0.893107 0.867867 0.896064 0.895608 0.894631 0.895271 0.895944 0.894821 0.8946 0.890693 0.889639 0.855458 0.860952 0.853617 0.85587 0.851996 0.852443 0.85311 0.898062 0.892556 0.895661 0.89455 0.894093 0.89618 0.895626 0.848748 0.898614 0.891983 0.895486 0.894157 0.894352 0.897831 0.912644 0.886006 0.871847 0.862017 0.848663 0.841025 0.864493 0.873336 0.898588 0.857494 0.870796 0.879744 0.910197 0.895263 0.894296 0.894127 0.895387 0.893306 0.893113 0.893585 0.903891 0.862519 0.895426 0.895701 0.894077 0.894477 0.895275 0.891712 0.896499 0.887713 0.876024 0.866482 0.854511 0.848109 0.84521 0.852263 0.852185 0.887452 0.891449 0.874421 0.869369 0.883063 0.893832 0.866402 0.893832 0.876437 0.893494 0.887327 0.894595 0.875411 0.894612 0.897781 0.892454 0.892393 0.871109 0.895326 0.894011 0.893444 0.893832 0.895058 0.893832 0.894636 0.889539 0.889363 0.865624 0.868166 0.858668 0.861144 0.857043 0.857749 0.858186 0.862684 0.874323 0.884176 0.895784 0.891519 0.895462 0.89448 0.894074 0.895844 0.895446 0.859201 0.902039 0.891236 0.897436 0.891614 0.895248 0.894125 0.894296 0.894229 0.894088 0.895076 0.891722 0.861006 0.88716 0.871685 0.893832 0.893832 0.89262 0.894527 0.893832 0.874339 0.894055 0.893832 0.893832 0.894534 0.889268 0.889756 0.873659 0.874621 0.864047 0.891553 0.894976 0.894085 0.894228 0.892077 0.889618 0.896217 0.870906 0.895217 0.895358 0.894051 0.894389 0.89506 0.892072 0.8952 0.888914 0.87964 0.8706 0.860155 0.855025 0.852628 0.859839 0.88796 0.876684 0.882857 0.867807 0.877833 0.887881 0.8769 0.897281 0.889327 0.891291 0.894569 0.892584 0.894099 0.86651 0.862398 0.863333 0.863564 0.867902 0.877601 0.885929 0.89397 0.891037 0.895211 0.894391 0.894048 0.89547 0.895231 0.868385 0.894826 0.887733 0.895909 0.894154 0.894042 0.894742 0.890613 0.890847 0.886156 0.889785 0.877704 0.894978 0.895001 0.894018 0.894285 0.894823 0.892383 0.893958 0.889493 0.882214 0.874209 0.865286 0.861338 0.859375 0.866571 0.868687 0.88601 0.884175 0.87897 0.874331 0.882894 0.893832 0.869085 0.893832 0.879007 0.892081 0.888266 0.894431 0.878192 0.893832 0.896101 0.886613 0.890275 0.877435 0.894001 0.893832 0.89179 0.893832 0.893268 0.893832 0.894342 0.889576 0.890336 0.879777 0.879683 0.869369 0.871499 0.867457 0.86855 0.868659 0.872553 0.880307 0.887044 0.892595 0.890883 0.894937 0.894288 0.894016 0.89508 0.894988 0.875944 0.888744 0.884701 0.894166 0.89157 0.894683 0.89404 0.894151 0.894072 0.893993 0.8944 0.889921 0.889547 0.883265 0.884582 0.882871 0.894715 0.894635 0.893981 0.89417 0.89457 0.892542 0.89278 0.889487 0.883772 0.877058 0.869667 0.866797 0.865166 0.872096 0.874476 0.884285 0.882313 0.881033 0.877056 0.883073 0.893832 0.870429 0.893832 0.88004 0.891752 0.888552 0.894331 0.879344 0.893832 0.894821 0.884541 0.889519 0.880321 0.893514 0.893832 0.891198 0.893832 0.892583 0.893832 0.894092 0.890199 0.890908 0.884294 0.88329 0.873953 0.875737 0.871812 0.873028 0.873032 0.876292 0.88228 0.887767 0.891451 0.890875 0.894646 0.894174 0.89398 0.894687 0.894722 0.881773 0.883793 0.882262 0.892311 0.89155 0.894382 0.893991 0.894069 0.893986 0.893941 0.894064 0.889555 0.888323 0.880929 0.880502 0.886634 0.894434 0.894268 0.893941 0.894049 0.894308 0.89256 0.891661 0.88915 0.884498 0.879038 0.873152 0.871187 0.869953 0.876325 0.878428 0.883239 0.881289 0.882783 0.879709 0.883334 0.893832 0.87186 0.893832 0.880955 0.89155 0.888768 0.894228 0.880352 0.893832 0.893744 0.883067 0.889041 0.882908 0.8931 0.893832 0.890696 0.893832 0.892014 0.893832 0.893819 0.890922 0.891417 0.887054 0.88579 0.877582 0.879116 0.875334 0.876599 0.876467 0.87905 0.883557 0.888081 0.890457 0.890936 0.894346 0.894054 0.893941 0.894296 0.894439 0.885981 0.87989 0.880433 0.890515 0.891467 0.894083 0.89394 0.893984 0.8939 0.893888 0.893747 0.889418 0.887257 0.879181 0.877383 0.889124 0.894141 0.893911 0.893898 0.893925 0.894042 0.892489 0.890624 0.888632 0.884503 0.880262 0.875741 0.87454 0.873675 0.879331 0.880938 0.882735 0.880893 0.884227 0.882171 0.883639 0.893832 0.873298 0.893832 0.88176 0.891422 0.888924 0.89411 0.881215 0.893832 0.892839 0.882002 0.888798 0.885141 0.89274 0.893832 0.890272 0.893832 0.891536 0.893832 0.893548 0.891618 0.891837 0.888262 0.887301 0.880367 0.881675 0.878068 0.879285 0.878996 0.880935 0.884149 0.888084 0.889616 0.891031 0.894046 0.89393 0.893899 0.893914 0.894145 0.888718 0.876903 0.879114 0.888932 0.891314 0.893797 0.893887 0.893898 0.893814 0.893835 0.893456 0.889423 0.886393 0.878016 0.875063 0.890529 0.893845 0.893571 0.893855 0.893801 0.89378 0.892378 0.889703 0.887947 0.883998 0.880946 0.877533 0.876973 0.876368 0.881328 0.88234 0.882616 0.88098 0.885406 0.884362 0.883965 0.893832 0.874661 0.893832 0.882454 0.891332 0.889031 0.893981 0.881926 0.893832 0.892002 0.881286 0.888729 0.88701 0.892417 0.893832 0.889921 0.893832 0.891135 0.893832 0.893291 0.892223 0.892161 0.888593 0.888001 0.882429 0.883484 0.880084 0.881183 0.880728 0.88212 0.884158 0.887856 0.888931 0.891136 0.893753 0.893807 0.893856 0.893551 0.893848 0.89024 0.874688 0.878195 0.887652 0.891112 0.893531 0.893834 0.893813 0.893732 0.893783 0.8932 0.889505 0.885764 0.877347 0.873401 0.891137 0.893553 0.893254 0.893812 0.893681 0.893527 0.892253 0.888926 0.88714 0.883271 0.881252 0.878693 0.878633 0.878221 0.88255 0.882922 0.882778 0.881422 0.886355 0.886246 0.884291 0.893832 0.875894 0.893832 0.883034 0.891262 0.889093 0.893851 0.882491 0.893832 0.891206 0.880887 0.888772 0.888532 0.892125 0.893832 0.88963 0.893832 0.8908 0.893832 0.893057 0.892717 0.892397 0.888653 0.888245 0.883861 0.884673 0.88147 0.882418 0.881801 0.882784 0.883813 0.887441 0.888392 0.891236 0.893474 0.893686 0.893813 0.893213 0.893555 0.890906 0.873111 0.877602 0.886705 0.890899 0.893291 0.893782 0.893731 0.893654 0.893734 0.892981 0.88962 0.885373 0.877059 0.872271 0.891193 0.893272 0.892966 0.89377 0.893567 0.893289 0.892121 0.888305 0.886319 0.882543 0.881281 0.87939 0.879709 0.879454 0.883197 0.883014 0.883133 0.882098 0.887108 0.887823 0.884601 0.893832 0.876962 0.893832 0.883502 0.891204 0.88912 0.893725 0.882925 0.893832 0.890465 0.880739 0.88888 0.889742 0.891862 0.893832 0.889387 0.893832 0.89052 0.893832 0.892846 0.893099 0.892557 0.88874 0.888353 0.884763 0.885397 0.882355 0.883143 0.88238 0.883075 0.883346 0.886914 0.887983 0.891317 0.893214 0.893571 0.893772 0.892907 0.893273 0.891012 0.872043 0.877291 0.886069 0.890706 0.893082 0.893733 0.893653 0.893582 0.893688 0.892801 0.889736 0.885188 0.877048 0.871546 0.890892 0.893009 0.892711 0.893731 0.893461 0.893071 0.891984 0.887832 0.885584 0.88193 0.881148 0.879765 0.880376 0.880233 0.883472 0.882924 0.883604 0.882898 0.887696 0.889111 0.884882 0.893832 0.877859 0.893832 0.883868 0.891154 0.88912 0.893606 0.883247 0.893832 0.889796 0.880766 0.889018 0.89068 0.89163 0.893832 0.889185 0.893832 0.890287 0.893832 0.892662 0.893378 0.892654 0.888927 0.888481 0.885262 0.885789 0.882872 0.883513 0.882621 0.883109 0.882903 0.886372 0.88769 0.891366 0.892977 0.893465 0.893733 0.892635 0.89301 0.890759 0.871363 0.877223 0.885692 0.890547 0.892904 0.893688 0.893582 0.893518 0.893648 0.892657 0.889839 0.885157 0.877227 0.871113 0.89041 0.892771 0.892491 0.893696 0.893366 0.892877 0.891842 0.887486 0.884987 0.881468 0.880969 0.879937 0.880772 0.880692 0.883564 0.88284 0.884125 0.883732 0.888146 0.890136 0.885127 0.893832 0.878592 0.893832 0.884146 0.891113 0.889101 0.893496 0.883478 0.893832 0.889206 0.880903 0.889161 0.891391 0.891429 0.893832 0.889018 0.893832 0.890093 0.893832 0.892506 0.89357 0.892702 0.889194 0.888664 0.885504 0.885966 0.883136 0.883658 0.882653 0.882991 0.882544 0.885888 0.887495 0.891376 0.892767 0.893369 0.893698 0.892401 0.892771 0.89031 0.870961 0.877345 0.885511 0.890422 0.892759 0.893647 0.893517 0.893462 0.893613 0.892546 0.889922 0.885224 0.877518 0.870879 0.889888 0.892564 0.892307 0.893666 0.893284 0.892709 0.8917 0.887241 0.884533 0.881149 0.880818 0.880006 0.881003 0.880952 0.883601 0.882828 0.884637 0.884527 0.888482 0.890931 0.885332 0.893832 0.879177 0.893832 0.88435 0.891079 0.889073 0.893398 0.883636 0.893832 0.888704 0.881095 0.889289 0.891915 0.891259 0.893832 0.888883 0.893832 0.889936 0.893832 0.892377 0.893694 0.892716 0.889496 0.888881 0.88562 0.886031 0.883245 0.883677 0.882579 0.882818 0.882281 0.885496 0.887375 0.891351 0.892587 0.893287 0.893667 0.892206 0.892563 0.889803 0.870746 0.877587 0.885466 0.890326 0.892644 0.893612 0.893461 0.893417 0.893584 0.892465 0.889984 0.885338 0.877845 0.87077 0.889418 0.892392 0.892161 0.89364 0.893216 0.892571 0.891568 0.887074 0.884208 0.880944 0.880721 0.880038 0.881145 0.881107 0.883641 0.882878 0.885096 0.885224 0.888725 0.891525 0.885495 0.893832 0.879628 0.893832 0.884496 0.891053 0.889041 0.893317 0.88374 0.893832 0.881298 0.889395 0.892292 0.891123 0.893832 0.888777 0.893832 0.88981 0.893832 0.892274 0.893767 0.892708 0.88979 0.8891 0.885689 0.886055 0.883277 0.883646 0.882476 0.882656 0.882101 0.885203 0.887308 0.891303 0.892441 0.893218 0.893642 0.892051 0.89239 0.889335 0.870649 0.877878 0.885498 0.890254 0.892556 0.893584 0.893416 0.888293 0.893381 0.893562 0.892409 0.890026 0.885459 0.878147 0.870733 0.889045 0.892259 0.892051 0.893621 0.893164 0.892466 0.891456 0.886966 0.883987 0.880823 0.880671 0.880063 0.881242 0.881211 0.88369 0.882959 0.885468 0.885782 0.888892 0.891946 0.885617 0.893832 0.879959 0.893832 0.884594 0.891034 0.889012 0.893253 0.883804 0.893832 0.88798 0.881479 0.889474 0.892549 0.89102 0.893832 0.888699 0.893832 0.889716 0.893832 0.892199 0.893805 0.892691 0.890042 0.889291 0.885743 0.88607 0.883282 0.883608 0.882387 0.882534 0.881985 0.884998 0.887275 0.891248 0.892329 0.893166 0.893622 0.891934 0.892257 0.88896 0.870618 0.878153 0.885563 0.890204 0.892494 0.893561 0.89338 0.893358 0.893547 0.892374 0.890053 0.885556 0.878374 0.892169 0.891979 0.893608 0.886902 0.880759 0.880651 0.880086 0.881307 0.881281 0.883736 0.883034 0.885729 0.886169 0.888995 0.892214 0.885697 0.893832 0.880175 0.893832 0.884654 0.891023 0.888989 0.893209 0.893832 0.881613 0.889526 0.892709 0.89095 0.893832 0.888646 0.893832 0.889652 0.893832 0.892149 0.893822 0.892674 0.890224 0.889431 0.885786 0.886083 0.883283 0.88358 0.882327 0.882458 0.881919 0.887261 0.893609 0.891857 0.892167 0.878363 0.885625 0.890172 0.892454 0.893546 0.893356 0.87073 0.88879 0.893129 0.892395 0.891374 0.883853 0.88384 0.887768 0.88487 0.891202 0.892253 0.893131 0.888701 0.870618 0.893345 0.893539 0.892358 0.890066 0.88561 0.878495 0.870734 0.88866 0.892124 0.891943 0.893601 0.893112 0.892359 0.891331 0.886872 0.883789 0.880732 0.880646 0.8801 0.881342 0.881318 0.883763 0.883078 0.885863 0.886368 0.889045 0.892344 0.885737 0.893832 0.880282 0.893832 0.884682 0.891017 0.888978 0.893187 0.883856 0.893832 0.887662 0.881684 0.889551 0.892786 0.890916 0.893832 0.88862 0.893832 0.88962 0.893832 0.892124 0.893828 0.892664 0.89032 0.889504 0.885809 0.886092 0.883283 0.883567 0.882298 0.882423 0.881888 0.884809 0.887256 0.891176 0.892215 0.893113 0.893602 0.891819 0.892121 0.88857 0.870624 0.878476 0.885662 0.890157 0.892435 0.893539 0.893344 
SCALARS Axial_Stress float 1
LOOKUP_TABLE default
-58836000000.0 -99115200000.0 -74077000000.0 -70078700000.0 -92888300000.0 -253995000000.0 -131105000000.0 -48701900000.0 -58902200000.0 -51668800000.0 -71671500000.0 -177189000000.0 -289855000000.0 -91357000000.0 -71216000000.0 -183517000000.0 -108579000000.0 -352388000000.0 -259413000000.0 -64614300000.0 -108295000000.0 -91408800000.0 -155662000000.0 -160695000000.0 -256797000000.0 -316908000000.0 -517121000000.0 -301267000000.0 -366859000000.0 -216252000000.0 -315032000000.0 -177851000000.0 -520526000000.0 -259262000000.0 -411753000000.0 -364612000000.0 -146226000000.0 -200342000000.0 -177978000000.0 -266121000000.0 -193084000000.0 -322864000000.0 -118845000000.0 -447240000000.0 -359538000000.0 -280515000000.0 -913029000000.0 -396945000000.0 -408237000000.0 -431115000000.0 -628053000000.0 -465182000000.0 -543435000000.0 -414895000000.0 -333576000000.0 -563257000000.0 -283193000000.0 -326939000000.0 -237493000000.0 -413756000000.0 -417224000000.0 -476990000000.0 -747770000000.0 -483161000000.0 -899252000000.0 -958112000000.0 -500408000000.0 -518873000000.0 -449200000000.0 -430242000000.0 -929905000000.0 -542645000000.0 -455468000000.0 -269158000000.0 -504262000000.0 -283171000000.0 -379444000000.0 -574251000000.0 -533094000000.0 -560471000000.0 -720711000000.0 -1.33525e+12 -580608000000.0 -659786000000.0 -454050000000.0 -508814000000.0 -482248000000.0 -461288000000.0 -814993000000.0 -613416000000.0 -370394000000.0 -610604000000.0 -650021000000.0 -415649000000.0 -834451000000.0 -685078000000.0 -652061000000.0 -761101000000.0 -704770000000.0 -896738000000.0 -1.05403e+12 -691078000000.0 -247351000000.0 -606731000000.0 -426470000000.0 -547390000000.0 -1.17172e+12 -527016000000.0 -601716000000.0 -662473000000.0 -783499000000.0 -1.11479e+12 -878987000000.0 -931940000000.0 -774265000000.0 -862142000000.0 -856316000000.0 -660512000000.0 -514298000000.0 -698150000000.0 -615334000000.0 -1.1942e+12 -587103000000.0 -476953000000.0 -1.41134e+12 -1.0572e+12 -646496000000.0 -802448000000.0 -866546000000.0 -806513000000.0 -1.41504e+12 -1.39797e+12 -1.12154e+12 -1.12375e+12 -987080000000.0 -938330000000.0 -788725000000.0 -805094000000.0 -1.05915e+12 -1.06841e+12 -909617000000.0 -608017000000.0 -461153000000.0 -1.26685e+12 -1.0282e+12 -852683000000.0 -2.34662e+12 -2.12805e+12 -1.78257e+12 -1.35333e+12 -1.14027e+12 -1.04409e+12 -1.08383e+12 -962583000000.0 -1.01902e+12 -901835000000.0 -1.0431e+12 -945671000000.0 -1.09568e+12 -786032000000.0 -1.15836e+12 -816390000000.0 -1.54591e+12 -1.55712e+12 -795964000000.0 -973643000000.0 -2.46787e+12 -2.15509e+12 -1.63533e+12 -1.32426e+12 -1.31269e+12 -1.16651e+12 -1.1974e+12 -1.13477e+12 -1.12081e+12 -1.14922e+12 -1.1615e+12 -1.14777e+12 -1.266e+12 -1.09527e+12 -1.09133e+12 -718794000000.0 -2.2011e+12 -981971000000.0 -1.26496e+12 -2.43119e+12 -2.34901e+12 -1.92396e+12 -1.7873e+12 -1.54611e+12 -1.48854e+12 -1.31476e+12 -1.23773e+12 -1.20428e+12 -1.23384e+12 -1.29606e+12 -1.35429e+12 -1.3266e+12 -1.22635e+12 -1.17048e+12 -1.70023e+12 -2.0187e+12 -2.15585e+12 -2.39026e+12 -2.43578e+12 -2.35172e+12 -2.1835e+12 -2.02656e+12 -1.68937e+12 -1.45238e+12 -1.33758e+12 -1.29101e+12 -1.36206e+12 -1.30085e+12 -1.4219e+12 -1.36131e+12 -1.51276e+12 -1.42296e+12 -1.5913e+12 -1.48424e+12 -1.45298e+12 -1.23219e+12 -1.68168e+12 -1.80518e+12 -1.25876e+12 -2.31114e+12 -2.43531e+12 -2.24478e+12 -1.90395e+12 -1.61475e+12 -1.55644e+12 -1.43536e+12 -1.46257e+12 -1.37688e+12 -1.42714e+12 -1.46566e+12 -1.56768e+12 -1.67192e+12 -1.74515e+12 -1.60534e+12 -1.71794e+12 -1.59353e+12 -1.47348e+12 -1.4168e+12 -2.3441e+12 -2.51552e+12 -2.46689e+12 -2.51936e+12 -2.40775e+12 -2.34098e+12 -2.12296e+12 -2.00225e+12 -1.80083e+12 -1.71148e+12 -1.5112e+12 -1.50048e+12 -1.4954e+12 -1.60332e+12 -1.7389e+12 -1.851e+12 -1.88441e+12 -1.8379e+12 -1.91819e+12 -2.21457e+12 -2.08077e+12 -2.56133e+12 -2.62423e+12 -2.52598e+12 -2.22134e+12 -1.88868e+12 -1.63257e+12 -1.54314e+12 -1.53498e+12 -1.61492e+12 -1.77657e+12 -1.97205e+12 -1.92545e+12 -2.12581e+12 -2.02529e+12 -2.18453e+12 -1.99395e+12 -1.6391e+12 -2.55428e+12 -1.46214e+12 -2.72402e+12 -2.6823e+12 -2.46778e+12 -2.08584e+12 -1.78214e+12 -1.56152e+12 -1.58708e+12 -1.58106e+12 -1.61962e+12 -1.58789e+12 -1.77926e+12 -1.79048e+12 -1.99016e+12 -2.1848e+12 -2.32775e+12 -2.17925e+12 -1.89837e+12 -4.17379e+12 -4.20539e+12 -3.14226e+12 -1.31505e+12 -2.71718e+12 -3.05653e+12 -2.86594e+12 -2.90603e+12 -2.68447e+12 -2.59471e+12 -2.31742e+12 -2.13743e+12 -1.94927e+12 -1.83297e+12 -1.68769e+12 -1.60568e+12 -1.67019e+12 -1.76177e+12 -1.98135e+12 -2.2134e+12 -2.40703e+12 -2.50646e+12 -3.33779e+12 -3.76903e+12 -3.83098e+12 -1.18468e+12 -3.02543e+12 -3.18983e+12 -3.36676e+12 -3.1297e+12 -2.9341e+12 -2.30765e+12 -1.99041e+12 -1.72148e+12 -1.64877e+12 -1.74786e+12 -1.95408e+12 -2.2124e+12 -2.46935e+12 -2.4537e+12 -2.69516e+12 -2.62654e+12 -2.94519e+12 -2.98685e+12 -3.72433e+12 -4.03743e+12 -3.50021e+12 -3.74533e+12 -3.0806e+12 -3.02887e+12 -4.76413e+12 -3.81475e+12 -3.81856e+12 -3.36848e+12 -3.14756e+12 -3.18252e+12 -2.91509e+12 -3.01087e+12 -2.05048e+12 -1.90843e+12 -1.86313e+12 -1.63113e+12 -1.70347e+12 -1.90744e+12 -2.12712e+12 -2.18311e+12 -2.45271e+12 -2.74114e+12 -2.95664e+12 -3.22716e+12 -3.41379e+12 -3.65985e+12 -3.79521e+12 -4.18103e+12 -4.16605e+12 -5.21845e+12 -3.52567e+12 -3.43397e+12 -3.15448e+12 -4.96918e+12 -4.15336e+12 -3.67916e+12 -3.36526e+12 -3.40546e+12 -3.23216e+12 -3.1666e+12 -1.7203e+12 -1.70849e+12 -1.52711e+12 -1.59217e+12 -1.6941e+12 -1.83077e+12 -2.03567e+12 -2.39477e+12 -2.75183e+12 -3.00125e+12 -3.18479e+12 -3.47421e+12 -3.96988e+12 -4.50206e+12 -5.2828e+12 -3.39261e+12 -3.22215e+12 -5.24464e+12 -5.11719e+12 -4.87112e+12 -4.65963e+12 -4.30144e+12 -3.98548e+12 -3.78586e+12 -3.57555e+12 -3.5533e+12 -3.45845e+12 -3.33479e+12 -3.4587e+12 -3.23434e+12 -3.2414e+12 -1.46304e+12 -1.39986e+12 -1.88864e+12 -2.29902e+12 -2.60701e+12 -2.71828e+12 -3.07968e+12 -3.06295e+12 -3.29887e+12 -3.21097e+12 -3.35479e+12 -3.36463e+12 -3.54048e+12 -3.72587e+12 -4.24491e+12 -4.58793e+12 -5.0111e+12 -5.13582e+12 -5.34682e+12 -5.41547e+12 -3.38653e+12 -3.32646e+12 -3.2817e+12 -5.36044e+12 -5.02688e+12 -4.63739e+12 -4.01794e+12 -3.67515e+12 -3.56229e+12 -3.56527e+12 -3.4912e+12 -3.12633e+12 -1.10017e+12 -1.62448e+12 -2.169e+12 -2.43016e+12 -3.02108e+12 -3.44099e+12 -3.42939e+12 -3.45926e+12 -3.71049e+12 -3.96497e+12 -4.17749e+12 -4.6108e+12 -4.90813e+12 -5.2259e+12 -5.49676e+12 -3.40848e+12 -3.43353e+12 -3.34714e+12 -5.45758e+12 -5.27867e+12 -5.15735e+12 -4.96613e+12 -4.82184e+12 -4.65077e+12 -4.38187e+12 -3.8015e+12 -3.61962e+12 -3.63232e+12 -3.63052e+12 -3.80673e+12 -3.74154e+12 -3.7216e+12 -3.35255e+12 -2.8168e+12 -2.32393e+12 -765995000000.0 -1.81744e+12 -2.01025e+12 -2.25822e+12 -2.76299e+12 -3.49931e+12 -3.61384e+12 -3.61635e+12 -3.48204e+12 -3.50104e+12 -3.55171e+12 -3.86756e+12 -4.86086e+12 -5.03782e+12 -5.15982e+12 -5.31681e+12 -5.57012e+12 -3.44019e+12 -3.35356e+12 -5.52916e+12 -5.51395e+12 -5.36013e+12 -5.10356e+12 -4.80153e+12 -4.67935e+12 -4.44469e+12 -3.94312e+12 -3.69405e+12 -3.65289e+12 -3.57665e+12 -3.76346e+12 -4.19e+12 -3.36345e+12 -3.01672e+12 -2.27135e+12 -2.01289e+12 -2.30374e+12 -2.26131e+12 -2.10827e+12 -3.37278e+12 -3.94929e+12 -3.92652e+12 -3.93374e+12 -3.52928e+12 -3.53924e+12 -3.63294e+12 -3.65875e+12 -3.93747e+12 -4.62384e+12 -4.99696e+12 -5.03357e+12 -5.24969e+12 -5.40319e+12 -5.45687e+12 -5.60683e+12 -5.60657e+12 -3.43348e+12 -3.29886e+12 -3.33721e+12 -5.54394e+12 -5.39525e+12 -5.19758e+12 -5.03701e+12 -4.97159e+12 -4.91481e+12 -4.4996e+12 -3.60778e+12 -3.52686e+12 -3.60373e+12 -3.6416e+12 -4.06047e+12 -4.06956e+12 -2.69943e+12 -2.1944e+12 -3.4906e+12 -2.6778e+12 -2.58694e+12 -2.39401e+12 -2.38177e+12 -2.12666e+12 -4.44808e+12 -3.63074e+12 -3.51506e+12 -3.53884e+12 -3.28056e+12 -4.99565e+12 -5.11348e+12 -5.14246e+12 -5.14825e+12 -5.29973e+12 -5.47496e+12 -5.60658e+12 -3.4058e+12 -3.35895e+12 -3.24129e+12 -5.54445e+12 -5.38951e+12 -5.37826e+12 -5.27087e+12 -5.25494e+12 -5.08483e+12 -4.95754e+12 -5.05961e+12 -5.48785e+12 -3.38629e+12 -3.4463e+12 -3.54851e+12 -3.58964e+12 -3.51914e+12 -4.77589e+12 -2.52806e+12 -2.68288e+12 -2.67485e+12 -2.48729e+12 -3.6759e+12 -4.45622e+12 -2.9912e+12 -2.51786e+12 -2.34786e+12 -2.19804e+12 -3.71913e+12 -3.51876e+12 -3.52954e+12 -3.50563e+12 -3.53398e+12 -3.40723e+12 -5.51797e+12 -5.30366e+12 -5.0735e+12 -5.15746e+12 -5.32987e+12 -5.33376e+12 -5.44586e+12 -5.44348e+12 -5.59403e+12 -3.29473e+12 -3.16454e+12 -5.50781e+12 -5.53137e+12 -5.38433e+12 -5.19747e+12 -5.13257e+12 -4.92071e+12 -4.89672e+12 -4.85403e+12 -4.96557e+12 -5.25882e+12 -2.65217e+12 -3.17734e+12 -3.51826e+12 -3.59883e+12 -3.24577e+12 -2.35136e+12 -3.15372e+12 -3.7138e+12 -3.62284e+12 -3.00165e+12 -2.72339e+12 -2.59134e+12 -2.48942e+12 -2.47959e+12 -2.26667e+12 -2.06233e+12 -2.80888e+12 -3.16632e+12 -3.46449e+12 -3.51345e+12 -3.49537e+12 -3.37488e+12 -2.57398e+12 -5.19845e+12 -5.0717e+12 -4.92036e+12 -4.9722e+12 -4.96783e+12 -5.18433e+12 -5.25816e+12 -5.42641e+12 -5.57045e+12 -5.53862e+12 -3.21244e+12 -2.94391e+12 -3.06473e+12 -5.46528e+12 -5.3635e+12 -5.2133e+12 -5.22032e+12 -4.96123e+12 -5.1433e+12 -4.9887e+12 -4.64207e+12 -4.8175e+12 -4.82249e+12 -5.16556e+12 -2.81149e+12 -3.43962e+12 -3.51727e+12 -3.37156e+12 -2.4517e+12 -2.81058e+12 -3.47963e+12 -3.03718e+12 -2.67289e+12 -2.56887e+12 -2.48605e+12 -2.88531e+12 -3.30993e+12 -3.45698e+12 -3.49992e+12 -3.1045e+12 -4.80987e+12 -4.68488e+12 -4.81546e+12 -4.6901e+12 -5.02208e+12 -5.18991e+12 -5.01812e+12 -5.26966e+12 -5.25422e+12 -5.39805e+12 -5.4883e+12 -3.11199e+12 -2.99533e+12 -2.81135e+12 -5.41948e+12 -5.29588e+12 -5.32497e+12 -5.1623e+12 -5.04015e+12 -5.01351e+12 -4.80461e+12 -4.68655e+12 -4.16902e+12 -4.68402e+12 -4.35842e+12 -4.2734e+12 -3.44546e+12 -3.50567e+12 -3.46763e+12 -3.3695e+12 -3.2219e+12 -2.54544e+12 -2.31255e+12 -2.91195e+12 -3.1641e+12 -3.3767e+12 -3.53756e+12 -3.64363e+12 -2.4081e+12 -2.57469e+12 -2.61121e+12 -2.78126e+12 -2.70715e+12 -3.11933e+12 -3.1786e+12 -3.38128e+12 -3.48394e+12 -3.53045e+12 -3.56245e+12 -4.26775e+12 -4.34293e+12 -4.70064e+12 -4.19913e+12 -4.71416e+12 -4.8076e+12 -5.04354e+12 -5.09114e+12 -5.19781e+12 -5.3541e+12 -5.31818e+12 -5.43255e+12 -2.86433e+12 -2.66707e+12 -5.23165e+12 -5.34668e+12 -5.27277e+12 -5.173e+12 -5.03188e+12 -4.97864e+12 -4.70202e+12 -4.59582e+12 -4.97612e+12 -4.40977e+12 -4.29948e+12 -4.49377e+12 -4.20599e+12 -3.58887e+12 -3.59338e+12 -3.38334e+12 -3.29649e+12 -3.27838e+12 -3.02688e+12 -2.81617e+12 -3.16669e+12 -3.55085e+12 -3.99798e+12 -4.06756e+12 -2.24114e+12 -2.29702e+12 -2.60914e+12 -2.74376e+12 -3.05068e+12 -3.30896e+12 -3.29448e+12 -3.43159e+12 -3.67348e+12 -3.6031e+12 -4.19942e+12 -4.47463e+12 -4.34523e+12 -4.41973e+12 -4.93923e+12 -4.67392e+12 -4.76037e+12 -5.01734e+12 -5.06303e+12 -5.20229e+12 -5.28251e+12 -5.34903e+12 -5.21234e+12 -2.71026e+12 -2.54132e+12 -5.07368e+12 -5.18384e+12 -5.15035e+12 -5.18197e+12 -5.12653e+12 -4.92191e+12 -3.5971e+12 -5.97487e+12 -5.14215e+12 -2.70741e+12 -4.93099e+12 -3.76994e+12 -4.52692e+12 -3.86874e+12 -3.44494e+12 -3.41644e+12 -3.12846e+12 -2.93838e+12 -3.06149e+12 -3.34795e+12 -3.50792e+12 -3.7584e+12 -3.89408e+12 -3.90827e+12 -2.47644e+12 -2.97043e+12 -3.42025e+12 -3.29423e+12 -3.35239e+12 -3.37728e+12 -3.44056e+12 -3.60346e+12 -4.55905e+12 -3.91141e+12 -4.9459e+12 -2.73876e+12 -5.12283e+12 -5.96011e+12 -3.64434e+12 -4.94758e+12 -5.15219e+12 -5.20132e+12 -5.1457e+12 -5.1771e+12 -5.01264e+12 -2.56533e+12 -2.48185e+12 -2.48859e+12 -4.88086e+12 -4.87264e+12 -5.06873e+12 -5.06601e+12 -5.05472e+12 -5.01757e+12 -5.06291e+12 -5.15401e+12 -4.81236e+12 -5.16553e+12 -5.21138e+12 -4.29296e+12 -2.96825e+12 -2.80321e+12 -5.20697e+12 -3.64561e+12 -3.07576e+12 -3.95661e+12 -2.95787e+12 -3.17065e+12 -3.12104e+12 -3.23334e+12 -3.06714e+12 -3.12213e+12 -3.19327e+12 -3.30841e+12 -3.61156e+12 -3.84648e+12 -3.6355e+12 -3.38027e+12 -2.69843e+12 -2.96857e+12 -3.32026e+12 -3.85869e+12 -3.62018e+12 -3.12368e+12 -3.34293e+12 -3.50694e+12 -4.17236e+12 -5.36351e+12 -2.70851e+12 -2.93532e+12 -4.29596e+12 -5.22905e+12 -5.10385e+12 -4.86795e+12 -5.16275e+12 -5.08823e+12 -5.06113e+12 -5.04117e+12 -5.03739e+12 -4.8117e+12 -4.78461e+12 -2.46652e+12 -2.46067e+12 -2.5018e+12 -4.67533e+12 -4.67795e+12 -4.96008e+12 -4.96155e+12 -5.08458e+12 -4.96876e+12 -4.80696e+12 -5.43012e+12 -5.87203e+12 -5.18375e+12 -4.90019e+12 -4.37743e+12 -4.50129e+12 -3.30025e+12 -1.95411e+12 -4.31608e+12 -2.71902e+12 -2.43138e+12 -3.41883e+12 -3.13474e+12 -3.17371e+12 -3.39449e+12 -3.62095e+12 -3.52303e+12 -3.66253e+12 -3.42878e+12 -3.19964e+12 -3.42219e+12 -4.14838e+12 -3.45179e+12 -2.85654e+12 -2.58314e+12 -4.37511e+12 -2.41112e+12 -3.17013e+12 -4.53129e+12 -4.3666e+12 -4.90249e+12 -5.26843e+12 -5.74292e+12 -5.53533e+12 -4.78813e+12 -5.02087e+12 -4.97043e+12 -5.05835e+12 -4.90677e+12 -4.90248e+12 -4.57235e+12 -4.58029e+12 -2.52311e+12 -2.50793e+12 -4.45813e+12 -4.46604e+12 -4.77306e+12 -4.93684e+12 -5.01095e+12 -5.10002e+12 -4.85621e+12 -4.72095e+12 -3.94277e+12 -5.42767e+12 -4.28748e+12 -3.79351e+12 -3.93249e+12 -3.62751e+12 -3.77807e+12 -2.65878e+12 -3.09103e+12 -1.95252e+12 -3.2574e+12 -3.29344e+12 -2.9289e+12 -3.07951e+12 -3.1505e+12 -3.23983e+12 -3.24331e+12 -3.4104e+12 -3.35929e+12 -3.35851e+12 -3.21528e+12 -3.10678e+12 -4.19946e+12 -1.9633e+12 -2.10561e+12 -3.43986e+12 -2.73766e+12 -3.75094e+12 -3.59571e+12 -3.9257e+12 -3.77638e+12 -4.27936e+12 -5.38423e+12 -4.04353e+12 -4.61012e+12 -4.81196e+12 -5.09393e+12 -4.95818e+12 -4.84488e+12 -4.6678e+12 -4.35655e+12 -4.42132e+12 -2.54613e+12 -2.44215e+12 -2.52393e+12 -3.83184e+12 -4.15682e+12 -4.16368e+12 -4.33726e+12 -4.58714e+12 -4.81142e+12 -5.11338e+12 -4.89607e+12 -5.09475e+12 -4.6535e+12 -4.63893e+12 -5.92928e+12 -5.01228e+12 -4.66519e+12 -3.90653e+12 -3.86118e+12 -3.55916e+12 -3.63096e+12 -3.18106e+12 -2.80404e+12 -2.05527e+12 -1.37477e+12 -1.387e+12 -2.42471e+12 -1.67797e+12 -3.1184e+12 -3.11944e+12 -3.20521e+12 -3.24848e+12 -3.1739e+12 -2.99948e+12 -3.05041e+12 -2.93544e+12 -3.21339e+12 -2.26272e+12 -2.83415e+12 -2.10039e+12 -1.6223e+12 -1.8341e+12 -2.86743e+12 -3.19606e+12 -3.64776e+12 -3.55044e+12 -3.85555e+12 -3.89334e+12 -4.64158e+12 -4.99873e+12 -5.90196e+12 -4.69115e+12 -4.67166e+12 -5.02568e+12 -4.80997e+12 -4.94538e+12 -4.6429e+12 -4.4221e+12 -4.14813e+12 -4.10738e+12 -4.23739e+12 -4.05517e+12 -2.52153e+12 -2.40906e+12 -2.40775e+12 -3.80016e+12 -3.62729e+12 -3.94677e+12 -4.6118e+12 -4.88669e+12 -4.95039e+12 -5.53221e+12 -4.06664e+12 -5.822e+12 -3.21125e+12 -4.36519e+12 -4.19223e+12 -4.38652e+12 -4.1715e+12 -3.73857e+12 -3.53718e+12 -3.41838e+12 -3.16191e+12 -2.83237e+12 -2.20914e+12 -1.7601e+12 -2.00403e+12 -3.36873e+12 -3.88659e+12 -2.97045e+12 -3.02399e+12 -2.96956e+12 -3.07645e+12 -3.00903e+12 -3.12581e+12 -3.01033e+12 -3.10094e+12 -2.94047e+12 -2.82416e+12 -2.49021e+12 -4.29489e+12 -2.38973e+12 -3.02916e+12 -2.87384e+12 -3.18393e+12 -3.43042e+12 -3.53495e+12 -3.731e+12 -4.14393e+12 -4.35007e+12 -4.18037e+12 -4.34306e+12 -3.14413e+12 -5.77831e+12 -4.27206e+12 -5.17878e+12 -4.72354e+12 -4.70194e+12 -4.3916e+12 -3.72344e+12 -3.73006e+12 -3.9969e+12 -2.40074e+12 -2.40538e+12 -4.36834e+12 -4.09025e+12 -2.62534e+12 -2.67166e+12 -4.44399e+12 -4.8583e+12 -5.42796e+12 -5.11562e+12 -3.78438e+12 -5.07947e+12 -4.12153e+12 -4.38623e+12 -3.8839e+12 -4.24137e+12 -4.02036e+12 -4.00558e+12 -3.85215e+12 -3.31262e+12 -3.10346e+12 -2.89137e+12 -2.75957e+12 -2.42377e+12 -2.11552e+12 -2.64165e+12 -3.01322e+12 -2.89071e+12 -2.86474e+12 -2.90695e+12 -2.91395e+12 -2.87196e+12 -2.76763e+12 -2.50076e+12 -2.1578e+12 -2.20272e+12 -2.9995e+12 -2.75507e+12 -2.63907e+12 -2.88715e+12 -2.95413e+12 -3.13538e+12 -3.32569e+12 -3.82959e+12 -3.9649e+12 -3.96908e+12 -4.15226e+12 -3.77272e+12 -4.17811e+12 -3.68786e+12 -5.2664e+12 -3.58709e+12 -4.97735e+12 -5.26229e+12 -4.65455e+12 -4.16949e+12 -2.50733e+12 -3.31375e+12 -4.2555e+12 -4.22298e+12 -2.42806e+12 -2.49802e+12 -4.03239e+12 -4.06066e+12 -4.5821e+12 -4.6776e+12 -3.90164e+12 -4.41581e+12 -4.86183e+12 -6.21808e+12 -4.05333e+12 -4.14245e+12 -3.89273e+12 -3.92404e+12 -3.78159e+12 -3.71798e+12 -3.61363e+12 -3.45809e+12 -3.0499e+12 -2.87738e+12 -2.73545e+12 -2.5237e+12 -2.34844e+12 -2.17535e+12 -3.35017e+12 -1.94171e+12 -2.84097e+12 -2.81803e+12 -2.82182e+12 -2.79597e+12 -2.65883e+12 -2.71735e+12 -2.53361e+12 -2.52766e+12 -2.26734e+12 -2.14864e+12 -2.36059e+12 -2.59067e+12 -2.6186e+12 -2.79752e+12 -2.91498e+12 -3.45781e+12 -3.60149e+12 -3.68931e+12 -3.73105e+12 -3.83167e+12 -3.74948e+12 -3.97032e+12 -3.81062e+12 -6.13764e+12 -4.6734e+12 -4.1609e+12 -3.34823e+12 -4.87029e+12 -4.28833e+12 -4.15771e+12 -4.17779e+12 -4.11193e+12 -2.48701e+12 -2.22064e+12 -2.27775e+12 -4.47833e+12 -3.64473e+12 -3.43769e+12 -4.64431e+12 -3.92411e+12 -4.13955e+12 -5.30784e+12 -4.86775e+12 -4.4328e+12 -4.58805e+12 -3.84957e+12 -3.70079e+12 -3.64978e+12 -3.54886e+12 -3.47348e+12 -3.3543e+12 -3.21867e+12 -2.707e+12 -2.55611e+12 -2.42238e+12 -2.31297e+12 -2.29308e+12 -2.54014e+12 -2.57588e+12 -2.48299e+12 -2.65702e+12 -2.7705e+12 -2.66774e+12 -2.73678e+12 -2.64495e+12 -2.7197e+12 -2.59917e+12 -2.50233e+12 -2.3473e+12 -2.0338e+12 -1.14207e+12 -1.88526e+12 -2.08863e+12 -2.39241e+12 -2.54881e+12 -2.71431e+12 -3.07194e+12 -3.22913e+12 -3.35439e+12 -3.46029e+12 -3.51653e+12 -3.58058e+12 -3.57365e+12 -4.41371e+12 -4.38311e+12 -4.71534e+12 -5.17381e+12 -4.033e+12 -4.25741e+12 -3.56871e+12 -4.41979e+12 -4.31167e+12 -4.08837e+12 -2.46541e+12 -2.5345e+12 -2.11153e+12 -3.25506e+12 -3.17583e+12 -3.34296e+12 -2.85926e+12 -5.3446e+12 -4.97966e+12 -3.84523e+12 -3.72887e+12 -4.38343e+12 -4.62009e+12 -4.49538e+12 -4.46688e+12 -4.12571e+12 -4.07405e+12 -3.87225e+12 -3.41243e+12 -3.32713e+12 -3.2357e+12 -3.1222e+12 -2.98517e+12 -2.8418e+12 -2.42447e+12 -2.31676e+12 -2.2234e+12 -2.12385e+12 -1.59566e+12 -2.79975e+12 -2.5766e+12 -2.57796e+12 -2.53643e+12 -2.46591e+12 -2.33422e+12 -2.20634e+12 -2.02338e+12 -1.34764e+12 -1.00087e+12 -1.39008e+12 -2.01722e+12 -2.31149e+12 -2.85098e+12 -2.99407e+12 -3.12917e+12 -3.239e+12 -3.32174e+12 -3.38752e+12 -3.6109e+12 -3.59785e+12 -3.82443e+12 -3.91702e+12 -4.32843e+12 -4.34597e+12 -4.48773e+12 -4.25968e+12 -3.74789e+12 -3.90246e+12 -4.76772e+12 -3.86017e+12 -3.88297e+12 -3.53572e+12 -3.85359e+12 -2.39069e+12 -1.77308e+12 -1.94543e+12 -3.26394e+12 -2.95192e+12 -2.03027e+12 -4.65833e+12 -3.66594e+12 -3.9259e+12 -4.07559e+12 -4.05254e+12 -4.03867e+12 -3.94437e+12 -3.78949e+12 -3.74308e+12 -3.63424e+12 -3.57898e+12 -3.47911e+12 -3.11201e+12 -3.01836e+12 -2.90676e+12 -2.78624e+12 -2.66555e+12 -2.54065e+12 -2.26538e+12 -2.27046e+12 -2.31092e+12 -3.3751e+12 -2.9729e+12 -2.38079e+12 -2.5304e+12 -2.48947e+12 -2.51531e+12 -2.40983e+12 -2.47363e+12 -2.36336e+12 -2.41605e+12 -2.29058e+12 -2.32918e+12 -2.20096e+12 -2.16248e+12 -1.92408e+12 -2.57101e+12 -2.74908e+12 -2.38414e+12 -2.0737e+12 -2.49124e+12 -2.64597e+12 -2.78021e+12 -2.90888e+12 -3.02758e+12 -3.12771e+12 -3.41471e+12 -3.42635e+12 -3.20305e+12 -3.33618e+12 -3.45501e+12 -3.68449e+12 -3.84754e+12 -3.88861e+12 -3.94349e+12 -3.80271e+12 -2.31937e+12 -4.90638e+12 -4.47859e+12 -4.01637e+12 -3.45249e+12 -3.98241e+12 -2.24419e+12 -2.09671e+12 -1.6085e+12 -3.19074e+12 -3.05857e+12 -2.7545e+12 -2.51946e+12 -2.65825e+12 -2.79212e+12 -3.60899e+12 -2.72953e+12 -3.53674e+12 -3.55278e+12 -3.60871e+12 -3.60149e+12 -3.59084e+12 -3.54412e+12 -3.56615e+12 -3.50555e+12 -3.46208e+12 -3.4016e+12 -3.34521e+12 -3.26764e+12 -3.19675e+12 -2.81648e+12 -2.71447e+12 -2.61e+12 -2.50465e+12 -2.40656e+12 -2.32214e+12 -1.6221e+12 -1.65317e+12 -2.49993e+12 -2.35265e+12 -2.30663e+12 -2.24856e+12 -2.16312e+12 -2.09741e+12 -1.49464e+12 -1.08435e+12 -2.19181e+12 -2.32916e+12 -2.45966e+12 -2.58709e+12 -2.70659e+12 -2.82181e+12 -3.21662e+12 -3.28446e+12 -3.33678e+12 -3.27627e+12 -2.57112e+12 -2.91305e+12 -3.10994e+12 -3.29583e+12 -3.39762e+12 -3.42948e+12 -3.41938e+12 -3.3246e+12 -3.16495e+12 -2.22908e+12 -3.91973e+12 -3.75609e+12 -3.53723e+12 -2.89471e+12 -2.65986e+12 -4.12879e+12 -3.81395e+12 -1.90589e+12 -1.45649e+12 -2.99026e+12 -3.07171e+12 -3.22016e+12 -3.39467e+12 -2.0066e+12 -2.54186e+12 -3.03306e+12 -1.42962e+12 -2.68864e+12 -3.08441e+12 -3.13419e+12 -3.13738e+12 -3.10735e+12 -3.02929e+12 -3.25376e+12 -3.28178e+12 -3.24215e+12 -3.23775e+12 -3.19546e+12 -3.13919e+12 -3.06828e+12 -2.99362e+12 -2.90991e+12 -2.5384e+12 -2.4471e+12 -2.35949e+12 -2.27923e+12 -2.20758e+12 -2.14003e+12 -2.018e+12 -3.59465e+12 -2.55205e+12 -2.28931e+12 -2.24638e+12 -2.20324e+12 -2.1303e+12 -2.03388e+12 -2.0794e+12 -2.54648e+12 -1.3928e+12 -1.90702e+12 -2.03623e+12 -2.17096e+12 -2.29234e+12 -2.40665e+12 -2.518e+12 -2.93151e+12 -3.03777e+12 -3.14497e+12 -3.26933e+12 -3.42334e+12 -3.66803e+12 -2.33634e+12 -2.38488e+12 -2.7833e+12 -2.92273e+12 -2.9933e+12 -2.97903e+12 -2.94604e+12 -2.80988e+12 -2.76241e+12 -4.03572e+12 -3.19521e+12 -3.09161e+12 -1.7529e+12 -4.39301e+12 -4.04103e+12 -3.5824e+12 -3.45332e+12 -1.69406e+12 -1.29245e+12 -2.32684e+12 -2.69958e+12 -2.78204e+12 -3.34528e+12 -3.77864e+12 -2.15497e+12 -2.28379e+12 -2.54595e+12 -2.05717e+12 -2.60593e+12 -2.71443e+12 -2.70795e+12 -2.64894e+12 -3.03108e+12 -3.00273e+12 -3.06723e+12 -3.05768e+12 -3.01078e+12 -2.94872e+12 -2.87655e+12 -2.8004e+12 -2.7179e+12 -2.62952e+12 -2.29631e+12 -2.22584e+12 -2.1684e+12 -2.13582e+12 -2.15469e+12 -2.31557e+12 -3.23393e+12 -2.12393e+12 -2.19167e+12 -2.07009e+12 -2.17454e+12 -2.09799e+12 -2.15313e+12 -2.0558e+12 -2.09749e+12 -1.99145e+12 -2.00705e+12 -1.87718e+12 -1.91165e+12 -1.79525e+12 -3.312e+12 -2.96687e+12 -2.23547e+12 -2.10658e+12 -2.09706e+12 -2.16184e+12 -2.24835e+12 -2.626e+12 -2.73313e+12 -2.8426e+12 -2.95983e+12 -3.09807e+12 -3.27854e+12 -3.56579e+12 -3.88474e+12 -2.2122e+12 -2.52656e+12 -2.46858e+12 -2.27831e+12 -3.12257e+12 -2.56233e+12 -2.36808e+12 -3.77908e+12 -3.7959e+12 -3.06363e+12 -2.97653e+12 -2.47717e+12 -1.445e+12 -780681000000.0 -1.072e+12 -1.85772e+12 -2.39296e+12 -2.97781e+12 -3.29398e+12 -1.58847e+12 -1.5944e+12 -2.4535e+12 -2.45963e+12 -2.43753e+12 -2.37639e+12 -2.40891e+12 -3.00789e+12 -2.93113e+12 -2.89343e+12 -2.83279e+12 -2.76327e+12 -2.68946e+12 -2.61383e+12 -2.53469e+12 -2.45391e+12 -2.37382e+12 -2.08489e+12 -2.02911e+12 -1.97958e+12 -1.93586e+12 -1.9421e+12 -1.14363e+12 -1.89661e+12 -2.03712e+12 -2.01011e+12 -1.95782e+12 -1.89066e+12 -1.72804e+12 -1.61547e+12 -1.4798e+12 -2.01112e+12 -1.9625e+12 -1.98743e+12 -2.34236e+12 -2.43951e+12 -2.5382e+12 -2.64109e+12 -2.75278e+12 -2.88097e+12 -3.03897e+12 -3.25721e+12 -3.55479e+12 -2.45425e+12 -2.58296e+12 -2.62233e+12 -2.60833e+12 -2.00291e+12 -2.00883e+12 -2.28638e+12 -2.49233e+12 -1.97551e+12 -1.52256e+12 -3.07886e+12 -3.14039e+12 -2.50845e+12 -1.98384e+12 -1.15816e+12 -915256000000.0 -1.36801e+12 -1.90739e+12 -2.53223e+12 -2.72086e+12 -3.49777e+12 -1.44797e+12 -2.06158e+12 -2.5672e+12 -3.57023e+12 -3.37148e+12 -2.50495e+12 -2.18177e+12 -2.28974e+12 -2.04225e+12 -2.98228e+12 -2.8269e+12 -2.65063e+12 -2.91473e+12 -2.651e+12 -2.57731e+12 -2.50465e+12 -2.4321e+12 -2.35854e+12 -2.28599e+12 -2.21528e+12 -2.14721e+12 -1.79769e+12 -1.67978e+12 -1.0492e+12 -918920000000.0 -1.98434e+12 -1.95828e+12 -1.91972e+12 -1.86092e+12 -1.8111e+12 -1.7717e+12 -1.32519e+12 -626726000000.0 -1.3832e+12 -2.03219e+12 -2.09951e+12 -2.17748e+12 -2.26122e+12 -2.34878e+12 -2.44069e+12 -2.53998e+12 -2.65096e+12 -2.77979e+12 -3.74417e+12 -2.00359e+12 -2.29325e+12 -2.33447e+12 -2.30544e+12 -2.19496e+12 -2.00143e+12 -1.56311e+12 -1.81899e+12 -1.52707e+12 -1.85956e+12 -1.94024e+12 -1.54414e+12 -2.79197e+12 -2.47037e+12 -2.53296e+12 -1.96511e+12 -1.50767e+12 -432264000000.0 -516076000000.0 -805547000000.0 -1.37306e+12 -1.45194e+12 -2.02683e+12 -2.17277e+12 -2.85663e+12 -2.80804e+12 -1.70896e+12 -2.09833e+12 -2.8003e+12 -1.99905e+12 -1.99373e+12 -1.7472e+12 -2.79491e+12 -2.63517e+12 -2.29454e+12 -2.90987e+12 -2.85893e+12 -2.79499e+12 -2.72441e+12 -2.32202e+12 -2.25478e+12 -2.18787e+12 -2.12248e+12 -2.05863e+12 -1.99628e+12 -1.93493e+12 -1.87157e+12 -2.08566e+12 -1.8415e+12 -1.82365e+12 -1.90214e+12 -1.84151e+12 -1.87879e+12 -1.78113e+12 -1.8278e+12 -1.74881e+12 -1.76856e+12 -1.6656e+12 -1.81348e+12 -1.77191e+12 -1.84043e+12 -1.89667e+12 -1.95461e+12 -2.02015e+12 -2.09132e+12 -2.16688e+12 -2.24657e+12 -2.33159e+12 -2.93643e+12 -3.1208e+12 -3.31181e+12 -3.27761e+12 -1.9073e+12 -2.09125e+12 -2.08013e+12 -1.97751e+12 -1.777e+12 -1.59916e+12 -1.4827e+12 -1.34471e+12 -1.40405e+12 -2.36793e+12 -2.31579e+12 -2.03714e+12 -1.94639e+12 -1.24844e+12 -1.4524e+12 -1.12592e+12 -694823000000.0 -471110000000.0 -91220200000.0 -277530000000.0 -473271000000.0 -355018000000.0 -831584000000.0 -1.61494e+12 -2.26738e+12 -2.24885e+12 -1.30217e+12 -1.77485e+12 -2.32703e+12 -2.3413e+12 -1.70959e+12 -1.53241e+12 -1.35234e+12 -2.50985e+12 -2.41014e+12 -2.03315e+12 -2.98819e+12 -2.84204e+12 -2.71612e+12 -2.62018e+12 -2.53768e+12 -2.46141e+12 -2.39011e+12 -2.022e+12 -1.96338e+12 -1.9057e+12 -1.84846e+12 -1.79335e+12 -1.74548e+12 -1.71471e+12 -1.64754e+12 -2.14918e+12 -1.90212e+12 -1.81665e+12 -1.74478e+12 -1.68475e+12 -1.69598e+12 -1.60621e+12 -2.28673e+12 -2.05776e+12 -1.76157e+12 -1.77048e+12 -1.78352e+12 -1.82204e+12 -1.87261e+12 -1.93075e+12 -1.99411e+12 -2.42471e+12 -2.52891e+12 -2.64637e+12 -2.77126e+12 -2.88632e+12 -2.95424e+12 -2.7955e+12 -1.76977e+12 -1.86641e+12 -1.84385e+12 -1.62779e+12 -1.40387e+12 -1.58834e+12 -1.98221e+12 -1.4402e+12 -973085000000.0 -2.52094e+12 -2.37279e+12 -2.15631e+12 -1.40504e+12 -858591000000.0 -1.0217e+12 -720055000000.0 -433051000000.0 -296550000000.0 -100907000000.0 -183714000000.0 -304863000000.0 -830535000000.0 -978252000000.0 -1.75221e+12 -1.8175e+12 -1.7537e+12 -1.90105e+12 -1.55261e+12 -1.93628e+12 -1.76208e+12 -2.76288e+12 -2.74103e+12 -2.63167e+12 -2.38108e+12 -2.24111e+12 -1.79694e+12 -2.97024e+12 -2.81036e+12 -2.63514e+12 -2.51055e+12 -2.41699e+12 -2.33819e+12 -2.26793e+12 -2.20377e+12 -2.14244e+12 -2.08191e+12 -1.75656e+12 -1.70286e+12 -1.64864e+12 -1.58609e+12 -1.46615e+12 -1.28224e+12 -193520000000.0 -1.96647e+12 -1.68761e+12 -1.65484e+12 -1.58064e+12 -1.71613e+12 -2.28611e+12 -736421000000.0 -1.18795e+12 -1.56097e+12 -1.60019e+12 -1.65158e+12 -1.68847e+12 -1.7309e+12 -2.0616e+12 -2.13301e+12 -2.2096e+12 -2.29308e+12 -2.38382e+12 -2.47654e+12 -2.55786e+12 -2.60845e+12 -2.60018e+12 -2.39799e+12 -1.59566e+12 -1.71403e+12 -1.8331e+12 -2.52567e+12 -2.84794e+12 -2.80314e+12 -2.47443e+12 -1.3581e+12 -816604000000.0 -2.31651e+12 -1.96985e+12 -1.64631e+12 -907856000000.0 -515656000000.0 -666138000000.0 -214540000000.0 -135787000000.0 -155992000000.0 -125257000000.0 -372044000000.0 -597595000000.0 -1.20865e+12 -1.42206e+12 -1.3304e+12 -1.83379e+12 -1.09262e+12 -2.1493e+12 -2.33631e+12 -2.33869e+12 -2.56261e+12 -2.84125e+12 -2.7047e+12 -2.52046e+12 -2.38102e+12 -2.28018e+12 -2.20176e+12 -2.13543e+12 -2.07628e+12 -2.02127e+12 -1.96766e+12 -1.91446e+12 -1.86164e+12 -1.80939e+12 -1.5314e+12 -1.49377e+12 -1.50014e+12 -1.57482e+12 -2.01152e+12 -2.17539e+12 -1.50055e+12 -1.60653e+12 -1.59474e+12 -1.63031e+12 -1.50575e+12 -1.56249e+12 -1.50841e+12 -1.43635e+12 -1.00007e+12 -2.35473e+12 -2.51614e+12 -1.67815e+12 -1.57162e+12 -1.54186e+12 -1.77848e+12 -1.83042e+12 -1.88629e+12 -1.94547e+12 -2.00792e+12 -2.07427e+12 -2.1445e+12 -2.21544e+12 -2.27916e+12 -2.3236e+12 -2.34021e+12 -2.30276e+12 -2.13606e+12 -2.02413e+12 -2.34265e+12 -2.39821e+12 -2.21719e+12 -1.82102e+12 -766568000000.0 -2.7125e+12 -1.83394e+12 -1.41232e+12 -902803000000.0 -743422000000.0 -335683000000.0 -221633000000.0 -100260000000.0 -279802000000.0 -560957000000.0 -908107000000.0 -1.58866e+12 -1.73759e+12 -1.423e+12 -875458000000.0 -1.54269e+12 -1.81007e+12 -1.93494e+12 -2.31477e+12 -1.95767e+12 -1.89489e+12 -1.53196e+12 -2.04616e+12 -1.98924e+12 -1.93831e+12 -1.89119e+12 -1.84537e+12 -1.79986e+12 -1.75437e+12 -1.70866e+12 -1.66247e+12 -1.61572e+12 -1.5712e+12 -1.42739e+12 -515783000000.0 -1.48079e+12 -1.52426e+12 -1.38254e+12 -1.52183e+12 -1.23076e+12 -1.56288e+12 -1.59487e+12 -1.63331e+12 -1.67538e+12 -1.72053e+12 -1.76842e+12 -1.81876e+12 -1.87127e+12 -1.9254e+12 -1.97869e+12 -2.02676e+12 -1.55979e+12 -1.68632e+12 -1.82031e+12 -2.09699e+12 -1.95025e+12 -1.85953e+12 -1.60157e+12 -1.13944e+12 -2.69023e+12 -2.25335e+12 -1.30498e+12 -851769000000.0 -593762000000.0 -511819000000.0 -393277000000.0 -93016600000.0 -344177000000.0 -445402000000.0 -1.26828e+12 -1.59285e+12 -1.69147e+12 -1.02944e+12 -1.02711e+12 -1.31173e+12 -1.50904e+12 -1.95065e+12 -1.84519e+12 -1.55482e+12 -1.1765e+12 -2.55601e+12 -2.49493e+12 -2.34044e+12 -2.2139e+12 -2.11866e+12 -1.71566e+12 -1.67858e+12 -1.64124e+12 -1.60313e+12 -1.56409e+12 -1.52426e+12 -1.48538e+12 -1.45136e+12 -1.4202e+12 -1.39255e+12 -1.36195e+12 -1.91269e+12 -1.32924e+12 -1.46234e+12 -1.15538e+12 -1.99916e+12 -980429000000.0 -1.35114e+12 -1.33114e+12 -1.37766e+12 -1.4146e+12 -1.45353e+12 -1.49086e+12 -1.52705e+12 -1.56357e+12 -1.60128e+12 -1.64061e+12 -1.6817e+12 -2.06506e+12 -2.08867e+12 -2.0917e+12 -2.05144e+12 -1.92606e+12 -1.5412e+12 -1.61638e+12 -1.76367e+12 -1.89938e+12 -1.55339e+12 -1.40536e+12 -1.13535e+12 -770921000000.0 -2.32273e+12 -2.0666e+12 -1.59961e+12 -862145000000.0 -451080000000.0 -113571000000.0 -143891000000.0 -88712600000.0 -254957000000.0 -841980000000.0 -1.1933e+12 -1.8606e+12 -1.39508e+12 -735411000000.0 -733225000000.0 -915275000000.0 -1.60561e+12 -1.66481e+12 -2.02403e+12 -2.15444e+12 -2.08171e+12 -1.99362e+12 -1.92403e+12 -1.86525e+12 -1.82661e+12 -1.78854e+12 -1.75191e+12 -1.46143e+12 -1.42919e+12 -1.397e+12 -1.36851e+12 -1.34444e+12 -1.32008e+12 -1.30084e+12 -1.3375e+12 -1.21345e+12 -1.72932e+12 -532306000000.0 -1.70458e+12 -1.59516e+12 -1.11075e+12 -1.39395e+12 -1.71306e+12 -577322000000.0 -1.16255e+12 -240120000000.0 -408296000000.0 -1.00754e+12 -1.1621e+12 -1.25088e+12 -1.30621e+12 -1.34956e+12 -1.38441e+12 -1.4149e+12 -1.72349e+12 -1.76363e+12 -1.79683e+12 -1.82062e+12 -1.83954e+12 -1.84877e+12 -1.8444e+12 -1.79106e+12 -1.67819e+12 -1.57102e+12 -1.5966e+12 -1.03539e+12 -751383000000.0 -1.83881e+12 -1.76436e+12 -1.52311e+12 -1.17356e+12 -332163000000.0 -438523000000.0 -107375000000.0 -455153000000.0 -595714000000.0 -1.73915e+12 -535967000000.0 -563828000000.0 -1.09844e+12 -1.19193e+12 -1.32278e+12 -1.72881e+12 -2.08059e+12 -1.93757e+12 -1.8628e+12 -1.79135e+12 -1.72552e+12 -1.69074e+12 -1.6503e+12 -1.64675e+12 -1.62665e+12 -1.6028e+12 -1.57852e+12 -1.55123e+12 -1.52245e+12 -1.49262e+12 -1.28167e+12 -1.26171e+12 -1.23861e+12 -1.21502e+12 -1.22177e+12 -1.2026e+12 -1.41137e+12 -1.41795e+12 -1.45866e+12 -1.94017e+12 -316745000000.0 -815950000000.0 -690484000000.0 -375968000000.0 -719270000000.0 -984934000000.0 -1.10039e+12 -1.16927e+12 -1.21676e+12 -1.44387e+12 -1.47315e+12 -1.50347e+12 -1.53528e+12 -1.56628e+12 -1.59149e+12 -1.60068e+12 -1.59516e+12 -1.59492e+12 -1.59101e+12 -1.57969e+12 -1.52828e+12 -1.43358e+12 -1.41364e+12 -1.5188e+12 -1.28559e+12 -1.20392e+12 -1.36125e+12 -1.12515e+12 -808032000000.0 -49259500000.0 -281998000000.0 -605187000000.0 -1.36259e+12 -658771000000.0 -1.24663e+12 -853321000000.0 -691707000000.0 -1.41879e+12 -1.54846e+12 -1.63768e+12 -1.49751e+12 -1.44958e+12 -1.37621e+12 -1.41873e+12 -1.37054e+12 -1.45165e+12 -1.45472e+12 -1.44403e+12 -1.43417e+12 -1.41791e+12 -1.39839e+12 -1.37712e+12 -1.35421e+12 -1.33008e+12 -1.30494e+12 -1.11267e+12 -1.1014e+12 -896753000000.0 -1.95907e+12 -1.19943e+12 -1.36859e+12 -1.25049e+12 -1.27637e+12 -1.29684e+12 -1.31619e+12 -1.3362e+12 -1.35731e+12 -1.38151e+12 -1.40378e+12 -1.41543e+12 -1.39152e+12 -1.3312e+12 -1.33489e+12 -1.30789e+12 -1.28202e+12 -1.27914e+12 -1.25348e+12 -1.2792e+12 -1.29844e+12 -1.30401e+12 -1.03442e+12 -954159000000.0 -761352000000.0 -1.35336e+12 -1.38722e+12 -736035000000.0 -317294000000.0 -375405000000.0 -131076000000.0 -374817000000.0 -382967000000.0 -766294000000.0 -951335000000.0 -467701000000.0 -733292000000.0 -946622000000.0 -1.08239e+12 -1.17817e+12 -1.1953e+12 -1.11604e+12 -1.27696e+12 -1.28487e+12 -1.27967e+12 -1.26918e+12 -1.25637e+12 -1.24186e+12 -1.22601e+12 -1.20924e+12 -1.1905e+12 -1.174e+12 -1.15305e+12 -1.1252e+12 -1.16057e+12 -1.17204e+12 -1.24755e+12 -801730000000.0 -981004000000.0 -931755000000.0 -1.01796e+12 -757184000000.0 -690954000000.0 -692171000000.0 -845610000000.0 -980802000000.0 -1.05174e+12 -1.10296e+12 -1.13127e+12 -1.1524e+12 -1.16324e+12 -1.17093e+12 -1.17927e+12 -1.18987e+12 -1.20201e+12 -1.22411e+12 -1.24496e+12 -989839000000.0 -1.00453e+12 -1.02703e+12 -1.04358e+12 -1.05023e+12 -828803000000.0 -961394000000.0 -899016000000.0 -1.14149e+12 -972050000000.0 -215318000000.0 -86985200000.0 -832972000000.0 -216477000000.0 -388980000000.0 -1.02954e+12 -666989000000.0 -308395000000.0 -613001000000.0 -769523000000.0 -859576000000.0 -879361000000.0 -1.07166e+12 -1.13367e+12 -1.23065e+12 -1.06789e+12 -1.28801e+12 -1.28581e+12 -1.13037e+12 -1.12421e+12 -1.11707e+12 -1.10864e+12 -1.09781e+12 -1.08175e+12 -1.06613e+12 -1.04004e+12 -1.01823e+12 -995626000000.0 -998021000000.0 -996601000000.0 -1.03675e+12 -1.03896e+12 -1.37775e+12 -720111000000.0 -801090000000.0 -814376000000.0 -742203000000.0 -766784000000.0 -816318000000.0 -901087000000.0 -953997000000.0 -1.01345e+12 -1.03158e+12 -1.04835e+12 -1.04724e+12 -1.04071e+12 -1.03427e+12 -1.25455e+12 -1.17604e+12 -1.07655e+12 -1.07447e+12 -966518000000.0 -987314000000.0 -800176000000.0 -820383000000.0 -846282000000.0 -872383000000.0 -776942000000.0 -433462000000.0 -873235000000.0 -792003000000.0 -555111000000.0 -391951000000.0 -112222000000.0 -207807000000.0 -576491000000.0 -261843000000.0 -178902000000.0 -585972000000.0 -691919000000.0 -274504000000.0 -428335000000.0 -574723000000.0 -596710000000.0 -809026000000.0 -833949000000.0 -997058000000.0 -1.08863e+12 -906626000000.0 -1.16868e+12 -1.12951e+12 -1.08974e+12 -1.13273e+12 -1.13842e+12 -1.13581e+12 -996700000000.0 -973753000000.0 -962823000000.0 -933183000000.0 -900454000000.0 -866571000000.0 -838758000000.0 -827047000000.0 -842774000000.0 -1.00199e+12 -711515000000.0 -870956000000.0 -743150000000.0 -741352000000.0 -753652000000.0 -830846000000.0 -909440000000.0 -862347000000.0 -955653000000.0 -948825000000.0 -972027000000.0 -1.03109e+12 -1.03333e+12 -1.03554e+12 -1.06858e+12 -1.11654e+12 -1.17367e+12 -1.04665e+12 -929502000000.0 -895254000000.0 -757916000000.0 -674708000000.0 -755736000000.0 -782353000000.0 -638967000000.0 -704380000000.0 -771477000000.0 -644506000000.0 -397789000000.0 -327574000000.0 -257044000000.0 -387584000000.0 -1.15353e+12 -160768000000.0 -316679000000.0 -456263000000.0 -551413000000.0 -729687000000.0 -690041000000.0 -830603000000.0 -921395000000.0 -862034000000.0 -993943000000.0 -1.02079e+12 -851814000000.0 -988480000000.0 -999400000000.0 -1.00136e+12 -999869000000.0 -1.00014e+12 -1.00223e+12 -1.00369e+12 -1.00269e+12 -711652000000.0 -976018000000.0 -921851000000.0 -860519000000.0 -741779000000.0 -953175000000.0 -929811000000.0 -904974000000.0 -881754000000.0 -868120000000.0 -865561000000.0 -836356000000.0 -933967000000.0 -1.00316e+12 -1.05832e+12 -898953000000.0 -784993000000.0 -726341000000.0 -654160000000.0 -529643000000.0 -585124000000.0 -573764000000.0 -586748000000.0 -502155000000.0 -645691000000.0 -762453000000.0 -880798000000.0 -107350000000.0 -338712000000.0 -255575000000.0 -656739000000.0 -730157000000.0 -203486000000.0 -349922000000.0 -536859000000.0 -70275000000.0 -550174000000.0 -625001000000.0 -659166000000.0 -713026000000.0 -758169000000.0 -859059000000.0 -901120000000.0 -720287000000.0 -896077000000.0 -877819000000.0 -872849000000.0 -867679000000.0 -868668000000.0 -877860000000.0 -892301000000.0 -902786000000.0 -908465000000.0 -907738000000.0 -860650000000.0 -874950000000.0 -827872000000.0 -770314000000.0 -696332000000.0 -667470000000.0 -606836000000.0 -1.05663e+12 -925082000000.0 -850216000000.0 -668386000000.0 -676899000000.0 -705696000000.0 -763612000000.0 -945105000000.0 -776778000000.0 -1.00606e+12 -856218000000.0 -934493000000.0 -876907000000.0 -821854000000.0 -778750000000.0 -728350000000.0 -689960000000.0 -680693000000.0 -715423000000.0 -730526000000.0 -835852000000.0 -883054000000.0 -889705000000.0 -739071000000.0 -633392000000.0 -606085000000.0 -543089000000.0 -486840000000.0 -438183000000.0 -298796000000.0 -400432000000.0 -520538000000.0 -311928000000.0 -770233000000.0 -592223000000.0 -318081000000.0 -185384000000.0 -250801000000.0 -209673000000.0 -338028000000.0 -449454000000.0 -620391000000.0 -440261000000.0 -467773000000.0 -53057900000.0 -235584000000.0 -460276000000.0 -736631000000.0 -731234000000.0 -739898000000.0 -768100000000.0 -801395000000.0 -813555000000.0 -825346000000.0 -843571000000.0 -689953000000.0 -853113000000.0 -700432000000.0 -580973000000.0 -519360000000.0 -492394000000.0 -485312000000.0 -771496000000.0 -833825000000.0 -566157000000.0 -608063000000.0 -648930000000.0 -686545000000.0 -479958000000.0 -632576000000.0 -551958000000.0 -646918000000.0 -664898000000.0 -692774000000.0 -733701000000.0 -773819000000.0 -817710000000.0 -408925000000.0 -219241000000.0 -72330000000.0 -334911000000.0 -514370000000.0 -559592000000.0 -461705000000.0 -308436000000.0 -163906000000.0 -79662500000.0 -22260800000.0 -208128000000.0 -252304000000.0 -283995000000.0 -426173000000.0 -370176000000.0 -567370000000.0 -505119000000.0 -625487000000.0 -687407000000.0 -772561000000.0 -668416000000.0 -767415000000.0 -754073000000.0 -749647000000.0 -706257000000.0 -772245000000.0 -858523000000.0 -401478000000.0 -795742000000.0 -314669000000.0 -442805000000.0 -216200000000.0 -350024000000.0 -258696000000.0 -596238000000.0 -847333000000.0 -768739000000.0 -518358000000.0 -518499000000.0 -639983000000.0 -723249000000.0 -645052000000.0 -705250000000.0 -857838000000.0 -879669000000.0 -825679000000.0 -753761000000.0 -757972000000.0 -754152000000.0 -702670000000.0 -572596000000.0 -529686000000.0 -463569000000.0 -478777000000.0 -363611000000.0 -452528000000.0 -432252000000.0 -175314000000.0 -62326100000.0 -11759900000.0 -303279000000.0 -394974000000.0 -514771000000.0 -467864000000.0 -293191000000.0 -22221300000.0 -126309000000.0 -216041000000.0 -400118000000.0 -395202000000.0 -440909000000.0 -501920000000.0 -607478000000.0 -605560000000.0 -624908000000.0 -640508000000.0 -621711000000.0 -582732000000.0 -567085000000.0 -566201000000.0 -597099000000.0 -661748000000.0 -715748000000.0 -614777000000.0 -704982000000.0 -817703000000.0 -476721000000.0 -664530000000.0 -600246000000.0 -608234000000.0 -599926000000.0 -615165000000.0 -650906000000.0 -710220000000.0 -718655000000.0 -687274000000.0 -658376000000.0 -644962000000.0 -601727000000.0 -522448000000.0 -455841000000.0 -380505000000.0 -376596000000.0 -377780000000.0 -219513000000.0 -60324400000.0 -9035750000.0 -203708000000.0 -616071000000.0 -431555000000.0 -355053000000.0 -276203000000.0 -21933700000.0 -158292000000.0 -208003000000.0 -202158000000.0 -242189000000.0 -325331000000.0 -516807000000.0 -136196000000.0 -144809000000.0 -222572000000.0 -207055000000.0 -228556000000.0 -340571000000.0 -276008000000.0 -427798000000.0 -487434000000.0 -533273000000.0 -642762000000.0 -681675000000.0 -663838000000.0 -600418000000.0 -555229000000.0 -517662000000.0 -477855000000.0 -445350000000.0 -431869000000.0 -416293000000.0 -447765000000.0 -536854000000.0 -394112000000.0 -622932000000.0 -404791000000.0 -507728000000.0 -383748000000.0 -524619000000.0 -328293000000.0 -490085000000.0 -682925000000.0 -580953000000.0 -616788000000.0 -678939000000.0 -453244000000.0 -476354000000.0 -574655000000.0 -616084000000.0 -665501000000.0 -643355000000.0 -623545000000.0 -588317000000.0 -615074000000.0 -637854000000.0 -657031000000.0 -659019000000.0 -623789000000.0 -609764000000.0 -594172000000.0 -571553000000.0 -551431000000.0 -531874000000.0 -449157000000.0 -396746000000.0 -293928000000.0 -269492000000.0 -267890000000.0 -208135000000.0 -152725000000.0 -106707000000.0 -101430000000.0 -499050000000.0 -280370000000.0 -250492000000.0 -180737000000.0 -166286000000.0 -50480100000.0 -15763700000.0 -10195200000.0 -45235700000.0 -93645600000.0 -87639200000.0 -124271000000.0 -92041100000.0 -161665000000.0 -143764000000.0 -105787000000.0 -211550000000.0 -142294000000.0 -388295000000.0 -330186000000.0 -310083000000.0 -354749000000.0 -412171000000.0 -144431000000.0 -476984000000.0 -29558000000.0 -351741000000.0 -54230900000.0 -129952000000.0 -91301000000.0 -198552000000.0 -210436000000.0 -629305000000.0 -410928000000.0 -481599000000.0 -401215000000.0 -420116000000.0 -324288000000.0 -538198000000.0 -386579000000.0 -516287000000.0 -468938000000.0 -460685000000.0 -510505000000.0 -502494000000.0 -134126000000.0 -173105000000.0 -132796000000.0 -118424000000.0 -104968000000.0 -92555400000.0 -127129000000.0 -83056900000.0 -79587500000.0 -10644100000.0 -9856250000.0 -121502000000.0 -205929000000.0 -497040000000.0 -206704000000.0 -344612000000.0 -369475000000.0 -421093000000.0 -478472000000.0 -484066000000.0 -461263000000.0 -435252000000.0 -240655000000.0 -356215000000.0 -398288000000.0 -474487000000.0 -487359000000.0 -469371000000.0 -454281000000.0 -433255000000.0 -428167000000.0 -382493000000.0 -330165000000.0 -227226000000.0 -511819000000.0 -198104000000.0 -122584000000.0 -9035750000.0 -9035750000.0 -36059600000.0 -62849900000.0 -127079000000.0 -128300000000.0 -330939000000.0 -48630100000.0 -63733100000.0 -58323200000.0 -98634600000.0 -107139000000.0 -39290100000.0 -65059300000.0 -158020000000.0 -342912000000.0 -402012000000.0 -471411000000.0 -555011000000.0 -568429000000.0 -551048000000.0 -536041000000.0 -501133000000.0 -475852000000.0 -491081000000.0 -553866000000.0 -669377000000.0 -525947000000.0 -735918000000.0 -592819000000.0 -669776000000.0 -491703000000.0 -424250000000.0 -357319000000.0 -311689000000.0 -347894000000.0 -163049000000.0 -269458000000.0 -228070000000.0 -198136000000.0 -286479000000.0 -102443000000.0 -110943000000.0 -164569000000.0 -228646000000.0 -267522000000.0 -266403000000.0 -219202000000.0 -304898000000.0 -258258000000.0 -260572000000.0 -331922000000.0 -365581000000.0 -386321000000.0 -400881000000.0 -413357000000.0 -425578000000.0 -443786000000.0 -407447000000.0 -333556000000.0 -191299000000.0 -58145100000.0 -49048300000.0 -84688700000.0 -80158000000.0 -65658000000.0 -43564300000.0 -33368700000.0 -345964000000.0 -133568000000.0 -110157000000.0 -65763400000.0 -35025600000.0 -9035750000.0 -9035750000.0 -23703500000.0 -52735300000.0 -83751000000.0 -120486000000.0 -156016000000.0 -137123000000.0 -271016000000.0 -140511000000.0 -145186000000.0 -173104000000.0 -162382000000.0 -132150000000.0 -138666000000.0 -111809000000.0 -164215000000.0 -200743000000.0 -249965000000.0 -311677000000.0 -351134000000.0 -395370000000.0 -395348000000.0 -403628000000.0 -268906000000.0 -217875000000.0 -108339000000.0 -149377000000.0 -53382000000.0 -110028000000.0 -158422000000.0 -100967000000.0 -130927000000.0 -59821200000.0 -86470500000.0 -20085100000.0 -214437000000.0 -133567000000.0 -125805000000.0 -132596000000.0 -268178000000.0 -150553000000.0 -161777000000.0 -99131300000.0 -104679000000.0 -69484100000.0 -39773400000.0 -19214500000.0 -47181000000.0 -37787900000.0 -245719000000.0 -228223000000.0 -280738000000.0 -273904000000.0 -305148000000.0 -295432000000.0 -287265000000.0 -251479000000.0 -197299000000.0 -177318000000.0 -125789000000.0 -133831000000.0 -140469000000.0 -162158000000.0 -164154000000.0 -144323000000.0 -146291000000.0 -292304000000.0 -151419000000.0 -142146000000.0 -123866000000.0 -84382300000.0 -53236400000.0 -23954200000.0 -79010900000.0 -32105300000.0 -88372600000.0 -9035750000.0 -9035750000.0 -9349830000.0 -25811200000.0 -62969700000.0 -106895000000.0 -106827000000.0 -205166000000.0 -70574900000.0 -59169400000.0 -47738800000.0 -36929200000.0 -26042900000.0 -37330800000.0 -35548700000.0 -100443000000.0 -144753000000.0 -192022000000.0 -267319000000.0 -328861000000.0 -388098000000.0 -392056000000.0 -428655000000.0 -367048000000.0 -352368000000.0 -316860000000.0 -331178000000.0 -269183000000.0 -240972000000.0 -324612000000.0 -177044000000.0 -221402000000.0 -116303000000.0 -134916000000.0 -86011800000.0 -191019000000.0 -48571000000.0 -42725500000.0 -98723500000.0 -46632000000.0 -111203000000.0 -15937300000.0 -26882700000.0 -52896900000.0 -52015000000.0 -80484100000.0 -87336900000.0 -113183000000.0 -154971000000.0 -179351000000.0 -323704000000.0 -292314000000.0 -320544000000.0 -288156000000.0 -290837000000.0 -256731000000.0 -234419000000.0 -194559000000.0 -143286000000.0 -107275000000.0 -43387300000.0 -36058700000.0 -31931000000.0 -34638900000.0 -45975300000.0 -56882100000.0 -67378000000.0 -213083000000.0 -107989000000.0 -104496000000.0 -42274100000.0 -29706500000.0 -9312520000.0 -9035750000.0 -9035760000.0 -11193000000.0 -15251700000.0 -20192100000.0 -42550600000.0 -68510700000.0 -99434600000.0 -121441000000.0 -11936800000.0 -17296300000.0 -22413500000.0 -28897300000.0 -36397000000.0 -60937400000.0 -76608800000.0 -129403000000.0 -176480000000.0 -204564000000.0 -233908000000.0 -232739000000.0 -224949000000.0 -181609000000.0 -183251000000.0 -112749000000.0 -87185000000.0 -93564800000.0 -101897000000.0 -82001200000.0 -10192300000.0 -174791000000.0 -15444100000.0 -118291000000.0 -32806800000.0 -61972900000.0 -13062300000.0 -139342000000.0 -37595600000.0 -97396000000.0 -64514000000.0 -126630000000.0 -50960500000.0 -42401500000.0 -57485600000.0 -33579400000.0 -43326800000.0 -23896000000.0 -21990100000.0 -26324500000.0 -25920500000.0 -121661000000.0 -112550000000.0 -156949000000.0 -151784000000.0 -185013000000.0 -190620000000.0 -206581000000.0 -204148000000.0 -179074000000.0 -145260000000.0 -85107900000.0 -66159100000.0 -42232500000.0 -31160400000.0 -24007500000.0 -18252600000.0 -12228000000.0 -130982000000.0 -105479000000.0 -54339100000.0 -43522500000.0 -19912900000.0 -15141800000.0 -11157700000.0 -87984800000.0 -32673900000.0 -95229400000.0 -9301370000.0 -9126860000.0 -10682800000.0 -31801400000.0 -54504300000.0 -96809000000.0 -104457000000.0 -105607000000.0 -17628800000.0 -16981900000.0 -14257600000.0 -13284200000.0 -12154300000.0 -25027800000.0 -33956700000.0 -66328000000.0 -108945000000.0 -137278000000.0 -174135000000.0 -189105000000.0 -201040000000.0 -171551000000.0 -174953000000.0 -112640000000.0 -92620700000.0 -101478000000.0 -106807000000.0 -95113700000.0 -25676700000.0 -165904000000.0 -15652000000.0 -107631000000.0 -27896200000.0 -55654900000.0 -18974500000.0 -114768000000.0 -12230400000.0 -27406300000.0 -84771700000.0 -38096000000.0 -80283600000.0 -15841900000.0 -9787210000.0 -32765200000.0 -9521750000.0 -24795600000.0 -10600000000.0 -17106500000.0 -28537500000.0 -34295100000.0 -107830000000.0 -104148000000.0 -144630000000.0 -134156000000.0 -156408000000.0 -148546000000.0 -150023000000.0 -135850000000.0 -108994000000.0 -76059700000.0 -36320500000.0 -28462500000.0 -12606800000.0 -13227600000.0 -14329600000.0 -17297400000.0 -17987100000.0 -113449000000.0 -109985000000.0 -100954000000.0 -41696000000.0 -30417200000.0 -10517200000.0 -9134630000.0 -9308640000.0 -9878320000.0 -10313300000.0 -13216500000.0 -35630900000.0 -57091800000.0 -78131600000.0 -10780800000.0 -12092300000.0 -10098600000.0 -11230600000.0 -12372800000.0 -25031900000.0 -38362500000.0 -166167000000.0 -134256000000.0 -133065000000.0 -79198100000.0 -73484900000.0 -76527200000.0 -79574800000.0 -76496700000.0 -9035750000.0 -10176300000.0 -94483200000.0 -25280600000.0 -46454100000.0 -9581380000.0 -11138700000.0 -87255200000.0 -49219900000.0 -81458400000.0 -31170600000.0 -21528100000.0 -44963600000.0 -19220700000.0 -34290100000.0 -16493700000.0 -19316800000.0 -25182500000.0 -26548300000.0 -78692900000.0 -77898800000.0 -116832000000.0 -109129000000.0 -132466000000.0 -127960000000.0 -132396000000.0 -40181300000.0 -29125700000.0 -12083600000.0 -10850300000.0 -9829820000.0 -12076900000.0 -10694000000.0 -83985400000.0 -46373500000.0 -32301800000.0 -12957700000.0 -10305000000.0 -9880080000.0 -99816700000.0 -110296000000.0 -65134000000.0 -102349000000.0 -125790000000.0 -154391000000.0 -161302000000.0 -144803000000.0 -100547000000.0 -22932500000.0 -121690000000.0 -100812000000.0 -68682100000.0 -114503000000.0 -103186000000.0 -9738960000.0 -9399090000.0 -12185900000.0 -33721100000.0 -54074900000.0 -98485700000.0 -116817000000.0 -63702600000.0 -12392700000.0 -13308200000.0 -9957100000.0 -10638800000.0 -11427200000.0 -21696800000.0 -36681600000.0 -58333400000.0 -89971400000.0 -109882000000.0 -134217000000.0 -139491000000.0 -144450000000.0 -115887000000.0 -114122000000.0 -71503300000.0 -73608000000.0 -67960300000.0 -69184000000.0 -72122600000.0 -9035750000.0 -131674000000.0 -9035750000.0 -85747600000.0 -24762200000.0 -43421000000.0 -10772900000.0 -91300500000.0 -10562800000.0 -27714900000.0 -83142700000.0 -37624000000.0 -57458000000.0 -19059700000.0 -9212150000.0 -34961200000.0 -9035750000.0 -26877200000.0 -9035750000.0 -13936800000.0 -19335800000.0 -21989200000.0 -61851200000.0 -64210800000.0 -101049000000.0 -94456300000.0 -115916000000.0 -110997000000.0 -115006000000.0 -105306000000.0 -89035400000.0 -59912500000.0 -39503500000.0 -26929000000.0 -11668600000.0 -10624500000.0 -9971040000.0 -13549200000.0 -12406000000.0 -68099500000.0 -120021000000.0 -100787000000.0 -45155500000.0 -29185700000.0 -11883600000.0 -9405410000.0 -9747160000.0 -9921600000.0 -9516140000.0 -12779300000.0 -33332700000.0 -97574000000.0 -72107000000.0 -59409200000.0 -9035750000.0 -9035750000.0 -24557800000.0 -9530740000.0 -9035750000.0 -51162400000.0 -10808100000.0 -9035750000.0 -9035750000.0 -14221300000.0 -17666900000.0 -20229400000.0 -50740000000.0 -54046700000.0 -87127900000.0 -28237900000.0 -12426900000.0 -9521400000.0 -9929900000.0 -53416500000.0 -97734000000.0 -119291000000.0 -50197400000.0 -11910800000.0 -13131300000.0 -9334820000.0 -10401900000.0 -11741700000.0 -20796000000.0 -37620400000.0 -55790300000.0 -82834900000.0 -99038600000.0 -118668000000.0 -121366000000.0 -125087000000.0 -99240900000.0 -67603300000.0 -60148200000.0 -67534900000.0 -120316000000.0 -78510300000.0 -40239000000.0 -82810000000.0 -26754700000.0 -82131700000.0 -39908500000.0 -22307600000.0 -35089000000.0 -27235100000.0 -81444500000.0 -101333000000.0 -96782500000.0 -100989000000.0 -93012700000.0 -81211500000.0 -55823600000.0 -40001000000.0 -25745400000.0 -11999900000.0 -10367000000.0 -9331020000.0 -13399600000.0 -11895900000.0 -53311100000.0 -121729000000.0 -99170600000.0 -46231000000.0 -10074200000.0 -9615090000.0 -13237600000.0 -32339100000.0 -52318500000.0 -95222200000.0 -119228000000.0 -41220500000.0 -12448000000.0 -13707800000.0 -9420500000.0 -10601400000.0 -12168100000.0 -19966500000.0 -37854600000.0 -53459900000.0 -76744900000.0 -89488900000.0 -105186000000.0 -106011000000.0 -108823000000.0 -85796500000.0 -84533300000.0 -64638500000.0 -69003100000.0 -53201700000.0 -50563200000.0 -62871100000.0 -9035750000.0 -109576000000.0 -9035750000.0 -71846300000.0 -23995000000.0 -37702000000.0 -9808360000.0 -75784100000.0 -9035750000.0 -27808700000.0 -78072600000.0 -35803800000.0 -40384400000.0 -20029900000.0 -9035750000.0 -33956200000.0 -9035750000.0 -27213700000.0 -9035750000.0 -14456200000.0 -15894800000.0 -18595300000.0 -42620100000.0 -46309400000.0 -75341200000.0 -70600800000.0 -88825400000.0 -84670300000.0 -88955600000.0 -82597600000.0 -74506600000.0 -52451300000.0 -39813400000.0 -24554500000.0 -12529000000.0 -10581600000.0 -9415610000.0 -14018700000.0 -12438900000.0 -43373000000.0 -121104000000.0 -95970900000.0 -46654600000.0 -27229400000.0 -12851400000.0 -9619320000.0 -10082000000.0 -10193400000.0 -9693890000.0 -13554200000.0 -30921400000.0 -50732500000.0 -91484500000.0 -116749000000.0 -34820800000.0 -12877400000.0 -14129600000.0 -9491380000.0 -10768700000.0 -12535800000.0 -19312600000.0 -37645700000.0 -51415700000.0 -71684300000.0 -81353200000.0 -93626600000.0 -92976700000.0 -95058600000.0 -74837400000.0 -74289100000.0 -61125000000.0 -64768800000.0 -47137700000.0 -42778500000.0 -58227500000.0 -9035750000.0 -99378400000.0 -9035750000.0 -65656500000.0 -23209800000.0 -35320500000.0 -10042500000.0 -69265000000.0 -9035750000.0 -28573600000.0 -74777100000.0 -34271900000.0 -33852700000.0 -20018000000.0 -9035750000.0 -32970300000.0 -9035750000.0 -26854400000.0 -9035750000.0 -14608100000.0 -14237000000.0 -17181300000.0 -36764000000.0 -40482300000.0 -65525300000.0 -61624200000.0 -78205300000.0 -74495600000.0 -78795500000.0 -73909700000.0 -68790800000.0 -49501300000.0 -39068100000.0 -23303200000.0 -12937600000.0 -10750400000.0 -9485710000.0 -14469600000.0 -12872200000.0 -36276800000.0 -118210000000.0 -91719600000.0 -46374800000.0 -26203400000.0 -13150800000.0 -9697200000.0 -10200300000.0 -10277000000.0 -9751060000.0 -13728300000.0 -29236200000.0 -48644900000.0 -86652300000.0 -112246000000.0 -30379300000.0 -13190100000.0 -14395200000.0 -9545850000.0 -10885800000.0 -12793400000.0 -18718000000.0 -36952300000.0 -49338800000.0 -67170000000.0 -74269700000.0 -83695900000.0 -81978300000.0 -83449900000.0 -65940800000.0 -66211200000.0 -56991100000.0 -59843000000.0 -41884100000.0 -36079800000.0 -53661000000.0 -9035750000.0 -89718700000.0 -9035750000.0 -59878000000.0 -22286700000.0 -33050600000.0 -10229900000.0 -63195600000.0 -9035750000.0 -28812100000.0 -70540300000.0 -32323300000.0 -28460700000.0 -19802100000.0 -9035750000.0 -31738500000.0 -9035750000.0 -26214300000.0 -9035750000.0 -14656000000.0 -12816000000.0 -15989100000.0 -32610300000.0 -36030400000.0 -57448000000.0 -54248600000.0 -69227200000.0 -65997300000.0 -70261000000.0 -66620900000.0 -63773500000.0 -46793100000.0 -37860400000.0 -22048700000.0 -13220500000.0 -10869400000.0 -9539740000.0 -14752300000.0 -13187800000.0 -31380700000.0 -113393000000.0 -86526100000.0 -45375900000.0 -25154600000.0 -13323500000.0 -9753600000.0 -10282700000.0 -10323800000.0 -9785760000.0 -13764400000.0 -27407500000.0 -46093000000.0 -80949600000.0 -106161000000.0 -27354500000.0 -13380100000.0 -14506300000.0 -9582690000.0 -10950700000.0 -12938200000.0 -18129900000.0 -35810100000.0 -47092700000.0 -62909800000.0 -67930600000.0 -75068900000.0 -72633100000.0 -73631100000.0 -58639800000.0 -59633500000.0 -52470100000.0 -54557700000.0 -37323600000.0 -30433800000.0 -49203000000.0 -9035750000.0 -80616300000.0 -9035750000.0 -54459900000.0 -21277700000.0 -30862800000.0 -10370100000.0 -57517000000.0 -9035750000.0 -28585600000.0 -65806000000.0 -30260900000.0 -24090800000.0 -19412000000.0 -9035750000.0 -30303300000.0 -9035750000.0 -25341500000.0 -9035750000.0 -14590900000.0 -11674500000.0 -14994000000.0 -29582700000.0 -32543900000.0 -50757100000.0 -48155700000.0 -61582000000.0 -58845500000.0 -63015500000.0 -60373900000.0 -59209500000.0 -44176400000.0 -36258500000.0 -20818100000.0 -13375500000.0 -10936200000.0 -9576470000.0 -14870000000.0 -13380000000.0 -28079500000.0 -107068000000.0 -80627200000.0 -43692600000.0 -24065500000.0 -13372400000.0 -9787680000.0 -10328600000.0 -10333700000.0 -9797740000.0 -13671500000.0 -25522600000.0 -43144000000.0 -74597200000.0 -98871500000.0 -25270000000.0 -13444600000.0 -14468300000.0 -9601200000.0 -10962600000.0 -12970300000.0 -17511100000.0 -34259000000.0 -44616000000.0 -58658900000.0 -62054100000.0 -67421000000.0 -64560700000.0 -65223000000.0 -52486500000.0 -54023500000.0 -47773600000.0 -49155300000.0 -33336900000.0 -25764300000.0 -44869300000.0 -9035750000.0 -72069300000.0 -9035750000.0 -49355900000.0 -20213600000.0 -28733100000.0 -10459400000.0 -52170800000.0 -9035750000.0 -27969700000.0 -60675300000.0 -28107300000.0 -20605200000.0 -18870700000.0 -9035750000.0 -28695700000.0 -9035750000.0 -24273500000.0 -9035750000.0 -14413800000.0 -10803800000.0 -14161600000.0 -27123900000.0 -29681600000.0 -45125900000.0 -43039300000.0 -54972500000.0 -52710900000.0 -56722800000.0 -54841200000.0 -54869000000.0 -41535300000.0 -34325900000.0 -19621800000.0 -13403700000.0 -10950300000.0 -9595160000.0 -14828700000.0 -13446000000.0 -25824600000.0 -99591000000.0 -74229700000.0 -41409700000.0 -22915200000.0 -13303900000.0 -9799170000.0 -10337900000.0 -10307800000.0 -9787310000.0 -13461900000.0 -23636900000.0 -39877700000.0 -67811800000.0 -90686400000.0 -23716700000.0 -13383600000.0 -14289600000.0 -9601290000.0 -10922400000.0 -12892300000.0 -16842600000.0 -32347200000.0 -41864800000.0 -54234700000.0 -56436200000.0 -60459300000.0 -57422800000.0 -57851200000.0 -47106800000.0 -48981900000.0 -43050900000.0 -43816400000.0 -29817700000.0 -21964800000.0 -40666200000.0 -9035750000.0 -64048500000.0 -9035750000.0 -44521200000.0 -19111200000.0 -26642100000.0 -10494200000.0 -47098300000.0 -9035750000.0 -27003700000.0 -55279800000.0 -25928100000.0 -17860200000.0 -18195200000.0 -9035750000.0 -26944600000.0 -9035750000.0 -23041800000.0 -9035750000.0 -14131400000.0 -10169000000.0 -13454100000.0 -24871400000.0 -27148100000.0 -40281000000.0 -38621000000.0 -49131400000.0 -47301300000.0 -51087500000.0 -49757300000.0 -50548300000.0 -38790800000.0 -32125700000.0 -18461200000.0 -13309500000.0 -10912100000.0 -9595650000.0 -14637500000.0 -13386300000.0 -24154200000.0 -91258100000.0 -67496100000.0 -38642800000.0 -21687100000.0 -13127400000.0 -9788380000.0 -10311500000.0 -10247600000.0 -9755370000.0 -13149900000.0 -21780900000.0 -36380500000.0 -60780600000.0 -81855900000.0 -22389900000.0 -13200500000.0 -13981300000.0 -9583390000.0 -10832100000.0 -12709400000.0 -16117100000.0 -30131300000.0 -38804200000.0 -49547000000.0 -50939700000.0 -53947700000.0 -50932700000.0 -51199400000.0 -42214600000.0 -44209000000.0 -38406200000.0 -38670900000.0 -26674500000.0 -18914300000.0 -36592200000.0 -9035750000.0 -56503800000.0 -9035750000.0 -39911100000.0 -17979800000.0 -24572900000.0 -10474400000.0 -42242800000.0 -9035750000.0 -25710300000.0 -49735900000.0 -23765900000.0 -15719600000.0 -17399600000.0 -9035750000.0 -25074400000.0 -9035750000.0 -21673200000.0 -9035750000.0 -13753100000.0 -9726640000.0 -12836800000.0 -22684900000.0 -24754700000.0 -35991800000.0 -34668400000.0 -43824300000.0 -42370100000.0 -45865100000.0 -44925800000.0 -46111900000.0 -35883500000.0 -29715600000.0 -17332000000.0 -13099700000.0 -10823800000.0 -9578300000.0 -14307900000.0 -13204200000.0 -22735400000.0 -82311600000.0 -60552800000.0 -35517200000.0 -20376500000.0 -12854400000.0 -9756150000.0 -10250900000.0 -10155300000.0 -9703260000.0 -12751000000.0 -19967500000.0 -32738400000.0 -53645900000.0 -72580000000.0 -21083200000.0 -12901900000.0 -13556200000.0 -9548390000.0 -10694800000.0 -12429000000.0 -15332800000.0 -27671500000.0 -35429800000.0 -44587300000.0 -45466400000.0 -47712600000.0 -44868800000.0 -45031400000.0 -37596700000.0 -39511400000.0 -33909100000.0 -33801700000.0 -23829300000.0 -16490200000.0 -32639700000.0 -9035750000.0 -49372600000.0 -9035750000.0 -35481900000.0 -16824900000.0 -22512200000.0 -10402300000.0 -37553500000.0 -9035750000.0 -24115500000.0 -44136600000.0 -21645100000.0 -14059700000.0 -16496900000.0 -9035750000.0 -23105600000.0 -9035750000.0 -20190500000.0 -9035750000.0 -13289800000.0 -9433470000.0 -12280200000.0 -20552000000.0 -22427700000.0 -32065200000.0 -31006100000.0 -38863300000.0 -37725500000.0 -40870800000.0 -40209300000.0 -41504900000.0 -32776000000.0 -27146800000.0 -16226700000.0 -12783600000.0 -10688300000.0 -9543970000.0 -13854100000.0 -12906100000.0 -21354200000.0 -72943500000.0 -53502700000.0 -32149100000.0 -18990200000.0 -12497800000.0 -9703830000.0 -10158300000.0 -10034100000.0 -9632800000.0 -12280800000.0 -18198200000.0 -29026300000.0 -46508200000.0 -63011700000.0 -19664400000.0 -12497000000.0 -13028700000.0 -9497660000.0 -10514700000.0 -12060600000.0 -14489500000.0 -25024800000.0 -31771900000.0 -39393100000.0 -39953500000.0 -41632100000.0 -39073700000.0 -39175500000.0 -33107600000.0 -34801800000.0 -29599100000.0 -29249600000.0 -21215900000.0 -14576600000.0 -28796300000.0 -9035750000.0 -42587400000.0 -9035750000.0 -31193800000.0 -15650300000.0 -20450000000.0 -10281600000.0 -32987400000.0 -9035750000.0 -22251200000.0 -38546600000.0 -19576700000.0 -12772800000.0 -15500500000.0 -9035750000.0 -21055200000.0 -9035750000.0 -18613300000.0 -9035750000.0 -12752700000.0 -9249720000.0 -11760500000.0 -18499900000.0 -20160600000.0 -28349400000.0 -27507700000.0 -34109700000.0 -33232200000.0 -35977000000.0 -35512800000.0 -36729300000.0 -29461400000.0 -24463300000.0 -15134700000.0 -12371800000.0 -10509800000.0 -9493960000.0 -13291400000.0 -12501300000.0 -19877600000.0 -63300400000.0 -46430400000.0 -28635400000.0 -17540700000.0 -12070800000.0 -9633220000.0 -10036600000.0 -9887260000.0 -9546200000.0 -11753900000.0 -16468000000.0 -25299800000.0 -39433300000.0 -53261500000.0 -18065400000.0 -11997600000.0 -12414200000.0 -9432950000.0 -10296900000.0 -11614900000.0 -13588400000.0 -22240700000.0 -27881200000.0 -34018100000.0 -34376600000.0 -35625800000.0 -33440100000.0 -33507500000.0 -28666900000.0 -30066700000.0 -25489400000.0 -25019800000.0 -18779000000.0 -13067700000.0 -25046900000.0 -9035750000.0 -36082600000.0 -9035750000.0 -27012300000.0 -14459300000.0 -18379900000.0 -10117200000.0 -28508900000.0 -9035750000.0 -20153500000.0 -33004500000.0 -17562100000.0 -11767500000.0 -14424400000.0 -9035750000.0 -18938200000.0 -9035750000.0 -16958800000.0 -9035750000.0 -12153600000.0 -9141690000.0 -11259600000.0 -16552700000.0 -17966200000.0 -24741100000.0 -24088500000.0 -29466000000.0 -28802600000.0 -31102900000.0 -30778400000.0 -31813500000.0 -25960100000.0 -21702200000.0 -14043900000.0 -11876600000.0 -10293400000.0 -9429980000.0 -12636200000.0 -12001800000.0 -18233500000.0 -53486900000.0 -39399300000.0 -25048600000.0 -16041400000.0 -11586300000.0 -9546490000.0 -9889430000.0 -9718870000.0 -9445960000.0 -11183700000.0 -14769500000.0 -21593100000.0 -32456200000.0 -43404000000.0 -16271700000.0 -11418000000.0 -11728300000.0 -9356370000.0 -10047300000.0 -11104200000.0 -12632500000.0 -19359000000.0 -23812600000.0 -28514400000.0 -28740300000.0 -29648200000.0 -27899100000.0 -27945000000.0 -24243400000.0 -25322800000.0 -21571100000.0 -21088900000.0 -16473100000.0 -11869500000.0 -21374500000.0 -9035750000.0 -29797700000.0 -9035750000.0 -22908500000.0 -13254900000.0 -16298700000.0 -9915110000.0 -24090400000.0 -9035750000.0 -27528300000.0 -15595900000.0 -10969000000.0 -13282400000.0 -9035750000.0 -16768100000.0 -9035750000.0 -15242500000.0 -9035750000.0 -11504200000.0 -9083140000.0 -10764900000.0 -14718400000.0 -15852400000.0 -21183400000.0 -20700000000.0 -24869800000.0 -24385700000.0 -26205300000.0 -25981400000.0 -26792400000.0 -22306700000.0 -18891900000.0 -12944100000.0 -11311700000.0 -10044900000.0 -9354110000.0 -11905100000.0 -11421600000.0 -16401300000.0 -43573500000.0 -32447900000.0 -21437900000.0 -14504200000.0 -11056900000.0 -9446160000.0 -9720600000.0 -17861100000.0 -9533300000.0 -9334890000.0 -10582200000.0 -13094300000.0 -17921400000.0 -25584800000.0 -33486100000.0 -14305600000.0 -10774200000.0 -10987200000.0 -9270300000.0 -9772410000.0 -10542000000.0 -11628600000.0 -16411000000.0 -19616400000.0 -22925400000.0 -23060800000.0 -23679200000.0 -22410200000.0 -22440400000.0 -19830100000.0 -20588400000.0 -17817600000.0 -17411000000.0 -14260300000.0 -10898900000.0 -17761600000.0 -9035750000.0 -23677100000.0 -9035750000.0 -18858800000.0 -12040400000.0 -14206000000.0 -9682510000.0 -19710400000.0 -9035750000.0 -15414900000.0 -22119100000.0 -13669000000.0 -10316500000.0 -12089000000.0 -9035750000.0 -14557500000.0 -9035750000.0 -13478600000.0 -9035750000.0 -10816200000.0 -9054580000.0 -10268900000.0 -12989400000.0 -13816000000.0 -17651400000.0 -17320900000.0 -20287200000.0 -19958400000.0 -21269700000.0 -21122600000.0 -21697800000.0 -18539700000.0 -16052900000.0 -11829100000.0 -10691700000.0 -9770840000.0 -9268730000.0 -11115200000.0 -10776900000.0 -14398300000.0 -33604400000.0 -25588300000.0 -17831100000.0 -12939200000.0 -10494100000.0 -9335020000.0 -9534560000.0 -9335300000.0 -9215980000.0 -9959610000.0 -11434700000.0 -14284800000.0 -18803800000.0 -10083600000.0 -10206700000.0 -9177350000.0 -13420500000.0 -17283800000.0 -17354700000.0 -17712200000.0 -16950600000.0 -16967700000.0 -15426600000.0 -15871400000.0 -14189600000.0 -13923500000.0 -12109100000.0 -10082900000.0 -14190300000.0 -9035750000.0 -17669500000.0 -9035750000.0 -14843800000.0 -10818700000.0 -12103200000.0 -9427560000.0 -9035750000.0 -16765300000.0 -11770200000.0 -9760030000.0 -10858700000.0 -9035750000.0 -12318200000.0 -9035750000.0 -11680900000.0 -9035750000.0 -10100900000.0 -9042210000.0 -9768770000.0 -11344200000.0 -11842300000.0 -14134700000.0 -13944200000.0 -15704400000.0 -15515200000.0 -16299200000.0 -16215900000.0 -16555300000.0 -13198100000.0 -9176440000.0 -10283500000.0 -10085400000.0 -18809500000.0 -14238800000.0 -11355400000.0 -9908240000.0 -9216050000.0 -9336060000.0 -23535100000.0 -12208900000.0 -9479200000.0 -9942400000.0 -10587000000.0 -15335500000.0 -15353200000.0 -12857800000.0 -14695300000.0 -10698100000.0 -10032000000.0 -9478340000.0 -12264400000.0 -23604400000.0 -9129820000.0 -9092370000.0 -9325080000.0 -9783890000.0 -10672500000.0 -12080900000.0 -13564200000.0 -10032400000.0 -9364990000.0 -9403060000.0 -9080270000.0 -9175010000.0 -9320470000.0 -9521730000.0 -10406300000.0 -11006100000.0 -11612900000.0 -11634000000.0 -11744500000.0 -11505600000.0 -11510900000.0 -11030400000.0 -11168700000.0 -10638700000.0 -10552600000.0 -9992350000.0 -9355660000.0 -10642900000.0 -9035750000.0 -11726000000.0 -9035750000.0 -10847300000.0 -9592630000.0 -9993760000.0 -9159080000.0 -11006900000.0 -9035750000.0 -10233900000.0 -11446100000.0 -9887980000.0 -9257580000.0 -9606470000.0 -9035750000.0 -10061700000.0 -9035750000.0 -9862980000.0 -9035750000.0 -9369470000.0 -9037200000.0 -9264810000.0 -9752320000.0 -9908800000.0 -10626900000.0 -10568100000.0 -11118000000.0 -11059500000.0 -11305200000.0 -11279600000.0 -11385400000.0 -10806000000.0 -10335700000.0 -9555430000.0 -9348560000.0 -9174750000.0 -9079980000.0 -9427140000.0 -9365540000.0 -10049800000.0 -13585800000.0 -12083100000.0 -10659100000.0 -9760660000.0 -9309130000.0 -9092390000.0 -9130060000.0 
SCALARS Shear_Stress float 1
LOOKUP_TABLE default
4447550000.0 2834710000.0 28713600000.0 25914800000.0 17722300000.0 93712100000.0 45849000000.0 16246500000.0 26302000000.0 23786600000.0 63647500000.0 31785800000.0 152579000000.0 22886200000.0 28204300000.0 80140400000.0 24232400000.0 127305000000.0 960870000.0 12496400000.0 14068100000.0 10261900000.0 67359400000.0 86590100000.0 38418900000.0 50792900000.0 208113000000.0 133814000000.0 131902000000.0 80764300000.0 196689000000.0 79673500000.0 196939000000.0 113043000000.0 54746700000.0 121086000000.0 75387700000.0 10713000000.0 46441000000.0 30346600000.0 2944750000.0 36432000000.0 34758200000.0 37478300000.0 77736700000.0 46892700000.0 201014000000.0 114932000000.0 125621000000.0 160522000000.0 96258100000.0 29551200000.0 63420200000.0 185057000000.0 70061200000.0 223400000000.0 12198200000.0 120833000000.0 55566800000.0 31335600000.0 102875000000.0 186457000000.0 73311300000.0 85659600000.0 415713000000.0 131240000000.0 37010200000.0 44439600000.0 97208900000.0 272902000000.0 212168000000.0 220936000000.0 177796000000.0 17841800000.0 169856000000.0 2486240000.0 193009000000.0 46117500000.0 153693000000.0 185687000000.0 180832000000.0 126096000000.0 184297000000.0 129536000000.0 45137900000.0 26852400000.0 126634000000.0 287971000000.0 447157000000.0 106191000000.0 70241100000.0 261917000000.0 376290000000.0 231592000000.0 30238800000.0 186094000000.0 222017000000.0 244794000000.0 232271000000.0 118873000000.0 117723000000.0 342352000000.0 88040100000.0 331520000000.0 60068500000.0 107076000000.0 407913000000.0 222978000000.0 4355850000.0 19204200000.0 522137000000.0 37391100000.0 231416000000.0 330868000000.0 274157000000.0 303135000000.0 179697000000.0 165235000000.0 1144370000.0 277763000000.0 250746000000.0 315260000000.0 19408500000.0 305369000000.0 609742000000.0 671881000000.0 210265000000.0 63776300000.0 47465400000.0 295872000000.0 75818600000.0 283609000000.0 250765000000.0 376994000000.0 377241000000.0 273849000000.0 18083300000.0 120027000000.0 162528000000.0 151829000000.0 19540700000.0 85477200000.0 211871000000.0 911896000000.0 27846300000.0 50798500000.0 249718000000.0 10137400000.0 358543000000.0 399609000000.0 439483000000.0 375418000000.0 343601000000.0 198224000000.0 227281000000.0 58951900000.0 99613000000.0 103364000000.0 68336100000.0 189238000000.0 266903000000.0 19467100000.0 870369000000.0 969479000000.0 168288000000.0 114525000000.0 473135000000.0 193404000000.0 407859000000.0 471174000000.0 515104000000.0 463957000000.0 459252000000.0 350327000000.0 235341000000.0 103626000000.0 74613700000.0 163716000000.0 217459000000.0 131644000000.0 66926300000.0 77791900000.0 642248000000.0 31641200000.0 227153000000.0 628327000000.0 187242000000.0 311967000000.0 366446000000.0 457090000000.0 508169000000.0 541779000000.0 460406000000.0 371911000000.0 213635000000.0 53030800000.0 93004900000.0 130407000000.0 22977400000.0 280745000000.0 1.17443e+12 578443000000.0 649323000000.0 162387000000.0 173362000000.0 17749900000.0 135453000000.0 203925000000.0 422718000000.0 559701000000.0 549467000000.0 478199000000.0 488248000000.0 356167000000.0 309908000000.0 181469000000.0 128332000000.0 52420700000.0 23580600000.0 121238000000.0 38635600000.0 373162000000.0 905239000000.0 1.57688e+12 81050200000.0 259610000000.0 60472800000.0 12246200000.0 267058000000.0 488506000000.0 563750000000.0 612160000000.0 630254000000.0 562769000000.0 582390000000.0 449032000000.0 251265000000.0 93474900000.0 28337100000.0 60959500000.0 15629500000.0 97363400000.0 1.10276e+12 27756600000.0 384246000000.0 92830800000.0 44051800000.0 202804000000.0 134113000000.0 122858000000.0 73308400000.0 136957000000.0 337505000000.0 422956000000.0 646147000000.0 644956000000.0 579368000000.0 376272000000.0 195053000000.0 58621800000.0 16139600000.0 25838600000.0 267044000000.0 1.14818e+12 1.81961e+12 239340000000.0 147164000000.0 248728000000.0 73678300000.0 212610000000.0 525745000000.0 670758000000.0 658848000000.0 494772000000.0 309664000000.0 256560000000.0 160671000000.0 157952000000.0 76081400000.0 159094000000.0 103104000000.0 467034000000.0 1.37103e+12 58372600000.0 24522400000.0 255667000000.0 272830000000.0 30893000000.0 315676000000.0 640776000000.0 682174000000.0 681468000000.0 672324000000.0 603627000000.0 522098000000.0 420863000000.0 355438000000.0 232324000000.0 226721000000.0 336149000000.0 26102100000.0 388768000000.0 131934000000.0 410978000000.0 114459000000.0 87763500000.0 105832000000.0 96232400000.0 170584000000.0 334470000000.0 463873000000.0 256774000000.0 290521000000.0 27173800000.0 165045000000.0 456596000000.0 616315000000.0 685601000000.0 617297000000.0 451144000000.0 306784000000.0 261604000000.0 408765000000.0 1.03107e+12 916206000000.0 263621000000.0 465956000000.0 187740000000.0 358213000000.0 409723000000.0 85406700000.0 258404000000.0 631129000000.0 234382000000.0 362583000000.0 683729000000.0 641283000000.0 533122000000.0 390600000000.0 339580000000.0 287695000000.0 338648000000.0 389846000000.0 676411000000.0 935372000000.0 436019000000.0 9430960000.0 469068000000.0 154117000000.0 57484900000.0 61268200000.0 354335000000.0 1.29717e+12 813231000000.0 347936000000.0 33654500000.0 19943000000.0 367878000000.0 476018000000.0 765352000000.0 694780000000.0 44727000000.0 561455000000.0 613338000000.0 563134000000.0 512265000000.0 474809000000.0 422867000000.0 307825000000.0 497362000000.0 748351000000.0 677578000000.0 434813000000.0 40300400000.0 618573000000.0 1.37626e+12 433599000000.0 191378000000.0 140667000000.0 68713500000.0 331420000000.0 621592000000.0 675474000000.0 281633000000.0 219734000000.0 69065100000.0 446117000000.0 500677000000.0 198159000000.0 420856000000.0 615093000000.0 435054000000.0 513197000000.0 450577000000.0 513398000000.0 354145000000.0 362180000000.0 628128000000.0 651190000000.0 558423000000.0 592825000000.0 361658000000.0 121937000000.0 81304100000.0 282114000000.0 310199000000.0 275663000000.0 168866000000.0 358169000000.0 676692000000.0 729417000000.0 587596000000.0 500561000000.0 110007000000.0 170835000000.0 209419000000.0 282145000000.0 12061100000.0 246274000000.0 498379000000.0 270333000000.0 514408000000.0 628926000000.0 472018000000.0 360628000000.0 280531000000.0 339413000000.0 479728000000.0 608141000000.0 691464000000.0 727881000000.0 671823000000.0 615886000000.0 233504000000.0 296232000000.0 358486000000.0 331898000000.0 291739000000.0 120030000000.0 98821400000.0 91223900000.0 256961000000.0 276429000000.0 126127000000.0 682087000000.0 706857000000.0 380805000000.0 29483700000.0 14965900000.0 325105000000.0 5047900000.0 18924500000.0 338367000000.0 608756000000.0 578418000000.0 227594000000.0 500543000000.0 692232000000.0 749432000000.0 698169000000.0 672446000000.0 37490000000.0 301977000000.0 321494000000.0 243847000000.0 131478000000.0 135850000000.0 107698000000.0 247878000000.0 182258000000.0 225664000000.0 218455000000.0 250477000000.0 208960000000.0 188068000000.0 809600000000.0 602203000000.0 486479000000.0 255003000000.0 133753000000.0 164472000000.0 165561000000.0 296904000000.0 595901000000.0 514778000000.0 21903200000.0 326650000000.0 1394850000.0 250192000000.0 874165000000.0 439058000000.0 369005000000.0 583951000000.0 626099000000.0 621313000000.0 702010000000.0 784879000000.0 415971000000.0 359870000000.0 235218000000.0 227272000000.0 228128000000.0 138707000000.0 89664000000.0 258093000000.0 265222000000.0 209987000000.0 97045600000.0 247369000000.0 398579000000.0 59516600000.0 838111000000.0 896251000000.0 741265000000.0 545271000000.0 445149000000.0 120348000000.0 666192000000.0 395499000000.0 229824000000.0 75649900000.0 81249500000.0 376969000000.0 235226000000.0 905736000000.0 739588000000.0 210961000000.0 486395000000.0 529013000000.0 584735000000.0 703468000000.0 756518000000.0 939573000000.0 432105000000.0 409715000000.0 269986000000.0 83098200000.0 164130000000.0 199254000000.0 248914000000.0 247148000000.0 115938000000.0 22324400000.0 59348900000.0 297158000000.0 272642000000.0 91046600000.0 65239500000.0 52944100000.0 42544400000.0 590905000000.0 1.30186e+12 608762000000.0 395228000000.0 175021000000.0 471474000000.0 875460000000.0 91977500000.0 440361000000.0 84371900000.0 177311000000.0 424577000000.0 335969000000.0 335034000000.0 176645000000.0 185482000000.0 356563000000.0 472353000000.0 560320000000.0 1.4191e+12 676556000000.0 19264000000.0 41551800000.0 61096300000.0 86421100000.0 266564000000.0 288240000000.0 82988900000.0 46493800000.0 21914000000.0 343344000000.0 325114000000.0 253599000000.0 344263000000.0 207595000000.0 31944900000.0 124245000000.0 189576000000.0 603635000000.0 737203000000.0 458426000000.0 414565000000.0 229051000000.0 532775000000.0 7692870000.0 669047000000.0 27037800000.0 73531600000.0 43690700000.0 749400000000.0 175482000000.0 508455000000.0 412010000000.0 199758000000.0 670436000000.0 352840000000.0 190100000000.0 282503000000.0 318294000000.0 459286000000.0 594284000000.0 608254000000.0 125253000000.0 101968000000.0 48102200000.0 208485000000.0 346051000000.0 253144000000.0 324129000000.0 333698000000.0 2239760000.0 69566500000.0 434416000000.0 387425000000.0 392850000000.0 247512000000.0 278154000000.0 23869100000.0 203044000000.0 147791000000.0 190161000000.0 15776600000.0 1.66572e+12 549598000000.0 325773000000.0 133372000000.0 649110000000.0 210624000000.0 522951000000.0 490736000000.0 215550000000.0 226326000000.0 456937000000.0 335758000000.0 304859000000.0 169176000000.0 64309300000.0 115088000000.0 856841000000.0 416413000000.0 22600700000.0 398137000000.0 465406000000.0 581852000000.0 1.69259e+12 200363000000.0 112953000000.0 74446100000.0 166810000000.0 49242400000.0 286312000000.0 259720000000.0 386638000000.0 374810000000.0 418430000000.0 43575200000.0 183048000000.0 132762000000.0 482262000000.0 446696000000.0 468275000000.0 372880000000.0 190897000000.0 530446000000.0 454566000000.0 360726000000.0 182143000000.0 416543000000.0 556049000000.0 1.55132e+12 438388000000.0 134231000000.0 151651000000.0 76864900000.0 208691000000.0 21665000000.0 654348000000.0 121214000000.0 262208000000.0 103368000000.0 345909000000.0 15805800.0 246712000000.0 530130000000.0 1.46264e+12 514344000000.0 482924000000.0 33061100000.0 304735000000.0 458399000000.0 528403000000.0 221068000000.0 379785000000.0 457840000000.0 433612000000.0 460484000000.0 98150600000.0 140790000000.0 231281000000.0 532677000000.0 535224000000.0 518106000000.0 552989000000.0 445127000000.0 899872000000.0 772628000000.0 68103000000.0 777988000000.0 29392700000.0 99855800000.0 339313000000.0 745812000000.0 563366000000.0 354688000000.0 226045000000.0 186093000000.0 462908000000.0 383313000000.0 286012000000.0 205645000000.0 15647400000.0 466952000000.0 419436000000.0 736603000000.0 133776000000.0 293443000000.0 417581000000.0 301437000000.0 9671080000.0 124944000000.0 360527000000.0 476789000000.0 709575000000.0 734634000000.0 263992000000.0 20736900000.0 104945000000.0 744525000000.0 90554400000.0 785444000000.0 882697000000.0 450198000000.0 532716000000.0 496428000000.0 504795000000.0 499237000000.0 182697000000.0 253540000000.0 632556000000.0 567839000000.0 586874000000.0 560096000000.0 541388000000.0 655427000000.0 778080000000.0 52282900000.0 1.37142e+12 110080000000.0 691103000000.0 618789000000.0 236651000000.0 1.12862e+12 931762000000.0 475340000000.0 600031000000.0 140336000000.0 143161000000.0 587669000000.0 269673000000.0 17644000000.0 107227000000.0 282918000000.0 581940000000.0 241050000000.0 269210000000.0 490896000000.0 420002000000.0 102654000000.0 267945000000.0 680242000000.0 720675000000.0 1.07683e+12 56091900000.0 555979000000.0 645768000000.0 135015000000.0 1.37742e+12 21818700000.0 783377000000.0 630443000000.0 511431000000.0 529011000000.0 537291000000.0 525067000000.0 588798000000.0 200505000000.0 221787000000.0 633162000000.0 656409000000.0 653648000000.0 508568000000.0 457264000000.0 616108000000.0 65377900000.0 919506000000.0 430496000000.0 1.05334e+12 900560000000.0 602178000000.0 1.01963e+12 1.21275e+12 399641000000.0 968466000000.0 343708000000.0 586586000000.0 474640000000.0 218495000000.0 195388000000.0 108788000000.0 147565000000.0 628172000000.0 176060000000.0 647886000000.0 169630000000.0 573694000000.0 715923000000.0 1.09495e+12 790183000000.0 1.26163e+12 817941000000.0 730305000000.0 871209000000.0 1.07721e+12 462276000000.0 935219000000.0 39510500000.0 579607000000.0 414923000000.0 467568000000.0 590340000000.0 598179000000.0 594305000000.0 187607000000.0 13722500000.0 147743000000.0 569502000000.0 752591000000.0 756246000000.0 712533000000.0 474795000000.0 492081000000.0 204607000000.0 48242800000.0 671786000000.0 305625000000.0 503811000000.0 114074000000.0 1.057e+12 734248000000.0 692165000000.0 147458000000.0 293391000000.0 790125000000.0 896981000000.0 387180000000.0 414223000000.0 617901000000.0 634696000000.0 497412000000.0 386173000000.0 289209000000.0 154423000000.0 255703000000.0 855181000000.0 960559000000.0 537172000000.0 788934000000.0 614220000000.0 351018000000.0 324567000000.0 937596000000.0 1.01485e+12 96066000000.0 459336000000.0 557552000000.0 913955000000.0 1.09196e+12 104290000000.0 460394000000.0 397002000000.0 725691000000.0 39133500000.0 152603000000.0 444372000000.0 638209000000.0 696661000000.0 708848000000.0 547047000000.0 135866000000.0 21470900000.0 183011000000.0 452016000000.0 646561000000.0 891560000000.0 741089000000.0 686729000000.0 246110000000.0 205927000000.0 820426000000.0 78691300000.0 590100000000.0 296192000000.0 154334000000.0 694094000000.0 433478000000.0 1.26249e+12 384422000000.0 1.03265e+12 705833000000.0 1.04029e+12 522682000000.0 338459000000.0 198530000000.0 108185000000.0 159282000000.0 428295000000.0 601097000000.0 979448000000.0 819488000000.0 978396000000.0 1.22811e+12 108146000000.0 1.19103e+12 356491000000.0 1.38602e+12 422009000000.0 670343000000.0 147372000000.0 328751000000.0 574142000000.0 150844000000.0 695949000000.0 198972000000.0 466891000000.0 244902000000.0 607621000000.0 660786000000.0 827985000000.0 605080000000.0 419348000000.0 144061000000.0 334295000000.0 235854000000.0 441306000000.0 833718000000.0 1.00126e+12 826042000000.0 356998000000.0 786151000000.0 796160000000.0 647855000000.0 1746340000.0 167747000000.0 526531000000.0 83106200000.0 242713000000.0 737263000000.0 438372000000.0 632520000000.0 70663800000.0 313551000000.0 312663000000.0 98435700000.0 271217000000.0 245995000000.0 245623000000.0 133262000000.0 102110000000.0 56215000000.0 284605000000.0 702666000000.0 883070000000.0 159504000000.0 311287000000.0 393099000000.0 555690000000.0 530508000000.0 736731000000.0 322827000000.0 44875700000.0 559891000000.0 165968000000.0 69490600000.0 634008000000.0 812976000000.0 828314000000.0 329223000000.0 731641000000.0 955306000000.0 805460000000.0 371818000000.0 205462000000.0 200894000000.0 265509000000.0 134012000000.0 287902000000.0 87323200000.0 167291000000.0 390555000000.0 627585000000.0 798008000000.0 983412000000.0 601394000000.0 979585000000.0 11815600000.0 1.20723e+12 98723200000.0 860577000000.0 446646000000.0 5388810000.0 51550600000.0 7365320000.0 443886000000.0 333324000000.0 448606000000.0 309673000000.0 165123000000.0 303219000000.0 990454000000.0 588279000000.0 152735000000.0 151952000000.0 45942700000.0 96892100000.0 406271000000.0 445932000000.0 687517000000.0 461425000000.0 375987000000.0 22730800000.0 445343000000.0 793638000000.0 314812000000.0 191243000000.0 513067000000.0 220949000000.0 387769000000.0 66988400000.0 19199900000.0 14379800000.0 440566000000.0 798562000000.0 63574800000.0 1.10683e+12 88620900000.0 833262000000.0 505203000000.0 1.0407e+12 832238000000.0 610317000000.0 321523000000.0 44368400000.0 51668000000.0 14436200000.0 27118800000.0 190881000000.0 29390700000.0 494747000000.0 217588000000.0 86861500000.0 540965000000.0 798615000000.0 292330000000.0 823280000000.0 755979000000.0 508723000000.0 48304800000.0 840550000000.0 426559000000.0 761206000000.0 388474000000.0 185372000000.0 101292000000.0 265235000000.0 263028000000.0 33788900000.0 317164000000.0 529652000000.0 495266000000.0 557471000000.0 676542000000.0 73385700000.0 121867000000.0 53797400000.0 58509000000.0 1376530000.0 17923100000.0 45426200000.0 179905000000.0 236132000000.0 335931000000.0 148437000000.0 258988000000.0 1.4466e+12 786967000000.0 26452100000.0 186756000000.0 216885000000.0 68639400000.0 175863000000.0 391098000000.0 747657000000.0 444260000000.0 836827000000.0 214525000000.0 442659000000.0 740068000000.0 1.0116e+12 221955000000.0 850688000000.0 558321000000.0 59978900000.0 283977000000.0 641478000000.0 35712400000.0 227673000000.0 559884000000.0 212113000000.0 347408000000.0 150917000000.0 103201000000.0 29841400000.0 7116770000.0 1.40833e+12 426894000000.0 560424000000.0 203157000000.0 424609000000.0 64589500000.0 625209000000.0 541811000000.0 578279000000.0 302037000000.0 215701000000.0 191797000000.0 93284700000.0 141016000000.0 60404300000.0 647310000000.0 461070000000.0 113625000000.0 51154700000.0 16465800000.0 2204800000.0 15227500000.0 86544400000.0 199925000000.0 119367000000.0 216828000000.0 639864000000.0 769260000000.0 223188000000.0 537079000000.0 26873900000.0 1404750000.0 140250000000.0 190916000000.0 310528000000.0 597013000000.0 582905000000.0 662335000000.0 98097600000.0 508423000000.0 184716000000.0 648565000000.0 623434000000.0 1.43815e+12 28943300000.0 59148200000.0 91123500000.0 212505000000.0 510219000000.0 451561000000.0 414330000000.0 108581000000.0 535473000000.0 755501000000.0 151116000000.0 697055000000.0 750444000000.0 78819700000.0 52783000000.0 38371000000.0 499309000000.0 138542000000.0 347001000000.0 313743000000.0 555161000000.0 519464000000.0 469724000000.0 337178000000.0 220905000000.0 178132000000.0 93690000000.0 43729900000.0 109317000000.0 308014000000.0 568928000000.0 600558000000.0 399824000000.0 14429500000.0 1926280000.0 31728700000.0 2452620000.0 5745210000.0 89578000000.0 44779900000.0 74486700000.0 21508600000.0 261561000000.0 707239000000.0 255729000000.0 161637000000.0 33805500000.0 93428300000.0 213856000000.0 348686000000.0 502929000000.0 580597000000.0 626187000000.0 343473000000.0 325703000000.0 14525500000.0 522941000000.0 41765700000.0 11138200000.0 110207000000.0 960527000000.0 556332000000.0 372273000000.0 267577000000.0 56092300000.0 311628000000.0 123632000000.0 319310000000.0 1.21019e+12 714800000000.0 260646000000.0 1.2352e+12 1.38702e+12 634017000000.0 581075000000.0 237023000000.0 121870000000.0 400349000000.0 416191000000.0 436818000000.0 522488000000.0 485866000000.0 433382000000.0 327058000000.0 250336000000.0 17744800000.0 113444000000.0 282709000000.0 495553000000.0 693254000000.0 722169000000.0 7618530000.0 357989000000.0 74277700000.0 2316050000.0 28643100000.0 32806100000.0 51319500000.0 41485800000.0 40836300000.0 8087450000.0 27343300000.0 59829300000.0 34992300000.0 260549000000.0 14808400000.0 71146600000.0 63760400000.0 126155000000.0 181098000000.0 258051000000.0 346601000000.0 472865000000.0 558137000000.0 629166000000.0 557240000000.0 279871000000.0 113287000000.0 160438000000.0 561748000000.0 1.05217e+12 1.46116e+12 1.33244e+12 474308000000.0 132168000000.0 20561800000.0 517808000000.0 76175200000.0 60046500000.0 308632000000.0 143694000000.0 73418900000.0 39397600000.0 98029600000.0 536758000000.0 333159000000.0 582132000000.0 153004000000.0 399012000000.0 603130000000.0 483046000000.0 281033000000.0 399899000000.0 312751000000.0 502649000000.0 460304000000.0 392266000000.0 303595000000.0 208255000000.0 108983000000.0 209087000000.0 332624000000.0 370859000000.0 112781000000.0 468123000000.0 155670000000.0 48927300000.0 43384800000.0 62181000000.0 38615400000.0 24127000000.0 73172500000.0 196808000000.0 599406000000.0 529098000000.0 439528000000.0 255832000000.0 159084000000.0 174246000000.0 251029000000.0 338999000000.0 433239000000.0 521764000000.0 603637000000.0 403791000000.0 151103000000.0 219823000000.0 208004000000.0 479419000000.0 562269000000.0 309995000000.0 356805000000.0 576909000000.0 343124000000.0 747098000000.0 362524000000.0 351731000000.0 663266000000.0 625847000000.0 174994000000.0 122513000000.0 152380000000.0 589806000000.0 133265000000.0 2458030000.0 1.07848e+12 1.08473e+12 187608000000.0 251144000000.0 554737000000.0 664560000000.0 585826000000.0 480512000000.0 489745000000.0 455058000000.0 491892000000.0 492207000000.0 419020000000.0 343193000000.0 248011000000.0 144298000000.0 39542100000.0 79226300000.0 411987000000.0 529311000000.0 913387000000.0 747920000000.0 210104000000.0 154912000000.0 9085360000.0 42151500000.0 25509400000.0 53767200000.0 64713600000.0 77209800000.0 63939700000.0 50800800000.0 26060800000.0 12980100000.0 34442300000.0 76321200000.0 460811000000.0 808664000000.0 705372000000.0 396425000000.0 136123000000.0 173887000000.0 230588000000.0 307251000000.0 388824000000.0 463709000000.0 652794000000.0 698044000000.0 344655000000.0 243942000000.0 278547000000.0 501963000000.0 671404000000.0 545452000000.0 172601000000.0 363731000000.0 1.1339e+12 688409000000.0 108610000000.0 247567000000.0 582812000000.0 624717000000.0 125425000000.0 21175100000.0 62865700000.0 516359000000.0 711037000000.0 310155000000.0 233287000000.0 46074200000.0 80858600000.0 1.07281e+12 273316000000.0 469969000000.0 177049000000.0 180619000000.0 462373000000.0 651085000000.0 736634000000.0 722605000000.0 615445000000.0 581953000000.0 554093000000.0 537213000000.0 506848000000.0 476927000000.0 281308000000.0 182714000000.0 76533400000.0 38708900000.0 161614000000.0 289584000000.0 468816000000.0 519379000000.0 137982000000.0 20387800000.0 80202600000.0 71412300000.0 18390000000.0 112175000000.0 161825000000.0 545712000000.0 83902000000.0 42502000000.0 115998000000.0 186632000000.0 257929000000.0 330851000000.0 536228000000.0 606534000000.0 732631000000.0 983599000000.0 351272000000.0 339162000000.0 452021000000.0 684920000000.0 697044000000.0 515293000000.0 195549000000.0 67245200000.0 104651000000.0 853679000000.0 508486000000.0 181155000000.0 393405000000.0 381068000000.0 979454000000.0 1.02463e+12 413649000000.0 31205200000.0 3843970000.0 386196000000.0 423094000000.0 698074000000.0 980630000000.0 625920000000.0 55403700000.0 1.11131e+12 573651000000.0 240183000000.0 350630000000.0 337427000000.0 476225000000.0 612492000000.0 766382000000.0 920796000000.0 779613000000.0 691592000000.0 663328000000.0 598609000000.0 542213000000.0 487519000000.0 433213000000.0 365191000000.0 118539000000.0 13141100000.0 96672000000.0 203630000000.0 288064000000.0 302807000000.0 160427000000.0 816561000000.0 334708000000.0 29964700000.0 77842500000.0 81300200000.0 50406600000.0 46338600000.0 373981000000.0 709777000000.0 485329000000.0 69895700000.0 112980000000.0 41411600000.0 43835400000.0 122724000000.0 198209000000.0 395949000000.0 447664000000.0 485009000000.0 522163000000.0 582080000000.0 925924000000.0 16845900000.0 364505000000.0 643473000000.0 716851000000.0 658231000000.0 454954000000.0 197061000000.0 30180800000.0 390222000000.0 272885000000.0 336725000000.0 45884300000.0 1.01359e+12 1.13501e+12 586095000000.0 454048000000.0 341758000000.0 86323500000.0 73773700000.0 181259000000.0 291705000000.0 297915000000.0 558458000000.0 998350000000.0 387709000000.0 40137200000.0 641680000000.0 1.58254e+12 796754000000.0 516966000000.0 508178000000.0 606504000000.0 836490000000.0 767001000000.0 776477000000.0 675663000000.0 582163000000.0 508138000000.0 443063000000.0 378228000000.0 303348000000.0 216290000000.0 37331000000.0 139869000000.0 244064000000.0 358877000000.0 539897000000.0 909364000000.0 1.03276e+12 361388000000.0 132903000000.0 125136000000.0 85382900000.0 103170000000.0 88931400000.0 70897700000.0 61665300000.0 29839500000.0 19976400000.0 9934660000.0 179979000000.0 411810000000.0 928468000000.0 1.02467e+12 780333000000.0 402271000000.0 213792000000.0 67628000000.0 41419600000.0 268198000000.0 328057000000.0 371676000000.0 396632000000.0 404672000000.0 401847000000.0 474079000000.0 647900000000.0 485974000000.0 414012000000.0 200562000000.0 239049000000.0 707605000000.0 381784000000.0 500967000.0 1.2641e+12 792014000000.0 477110000000.0 295162000000.0 205171000000.0 126532000000.0 172469000000.0 137493000000.0 76760700000.0 247192000000.0 336583000000.0 516107000000.0 929380000000.0 347356000000.0 297096000000.0 616972000000.0 398172000000.0 426876000000.0 705975000000.0 1.05222e+12 740906000000.0 613990000000.0 521653000000.0 449645000000.0 384614000000.0 317338000000.0 241445000000.0 156036000000.0 62116400000.0 137141000000.0 194972000000.0 219991000000.0 162252000000.0 281192000000.0 86236600000.0 256188000000.0 133917000000.0 85870900000.0 35618600000.0 7383360000.0 18124600000.0 405179000000.0 86856900000.0 119530000000.0 186141000000.0 177118000000.0 129313000000.0 203950000000.0 264614000000.0 309226000000.0 336250000000.0 345789000000.0 344250000000.0 370804000000.0 436736000000.0 123744000000.0 497533000000.0 613062000000.0 565117000000.0 374587000000.0 573847000000.0 827871000000.0 771441000000.0 257898000000.0 586550000000.0 1.28423e+12 817937000000.0 415392000000.0 146067000000.0 85299300000.0 74243300000.0 12921300000.0 165493000000.0 303823000000.0 450997000000.0 875726000000.0 1.03015e+12 114785000000.0 92522000000.0 148295000000.0 583825000000.0 204081000000.0 202845000000.0 485948000000.0 476725000000.0 929920000000.0 738094000000.0 731308000000.0 914778000000.0 443704000000.0 384122000000.0 324283000000.0 259531000000.0 187099000000.0 107287000000.0 22954000000.0 60956100000.0 26619100000.0 266448000000.0 371791000000.0 478104000000.0 199696000000.0 107800000000.0 44981300000.0 5451540000.0 37556900000.0 25082400000.0 170596000000.0 384711000000.0 442488000000.0 107543000000.0 16890100000.0 69028400000.0 144704000000.0 208025000000.0 257486000000.0 292153000000.0 313343000000.0 330032000000.0 146569000000.0 566739000000.0 94914700000.0 394632000000.0 538117000000.0 584266000000.0 497982000000.0 610582000000.0 837089000000.0 886803000000.0 999106000000.0 666766000000.0 24281300000.0 1.4866e+12 1.28714e+12 796558000000.0 285029000000.0 157468000000.0 26676000000.0 240694000000.0 167953000000.0 87291000000.0 203252000000.0 265096000000.0 451906000000.0 663744000000.0 621796000000.0 530482000000.0 358130000000.0 491551000000.0 730959000000.0 355895000000.0 301251000000.0 721047000000.0 637206000000.0 550587000000.0 961945000000.0 724258000000.0 599134000000.0 511448000000.0 271422000000.0 210780000000.0 143796000000.0 72962500000.0 2817490000.0 59728600000.0 102525000000.0 105640000000.0 786015000000.0 292557000000.0 222361000000.0 140413000000.0 60788200000.0 64898800000.0 25796000000.0 6746390000.0 76538600000.0 41011700000.0 38485000000.0 399330000000.0 161511000000.0 60688800000.0 83682100000.0 39813400000.0 27792000000.0 97264900000.0 160199000000.0 213373000000.0 255457000000.0 368996000000.0 446321000000.0 474817000000.0 71682700000.0 540651000000.0 9192980000.0 266995000000.0 513927000000.0 643852000000.0 1.04285e+12 1.16871e+12 955728000000.0 536781000000.0 1.73619e+12 1.68398e+12 967806000000.0 600641000000.0 500814000000.0 328156000000.0 126462000000.0 48476800000.0 35890100000.0 46728700000.0 39312700000.0 67316400000.0 152406000000.0 2051960000.0 378670000000.0 698747000000.0 831206000000.0 830232000000.0 463419000000.0 174852000000.0 140095000000.0 814289000000.0 803678000000.0 597131000000.0 493741000000.0 457551000000.0 297085000000.0 866125000000.0 636404000000.0 532210000000.0 470742000000.0 420589000000.0 373980000000.0 325485000000.0 111454000000.0 49200600000.0 7966720000.0 54191400000.0 84008000000.0 95114500000.0 112551000000.0 429420000000.0 705086000000.0 286289000000.0 8497970000.0 57541600000.0 27208600000.0 186229000000.0 205527000000.0 667072000000.0 632218000000.0 331937000000.0 145562000000.0 107832000000.0 59952800000.0 1450780000.0 61374700000.0 121799000000.0 287929000000.0 318177000000.0 364429000000.0 442514000000.0 522707000000.0 443032000000.0 187507000000.0 512125000000.0 122546000000.0 161246000000.0 497875000000.0 678010000000.0 971514000000.0 94192300000.0 180807000000.0 91240800000.0 1.66436e+12 1.42543e+12 1.25409e+12 691916000000.0 511799000000.0 274374000000.0 55058100000.0 58117100000.0 33258800000.0 53295600000.0 3792620000.0 103228000000.0 187253000000.0 221532000000.0 649146000000.0 889404000000.0 911885000000.0 332781000000.0 599323000000.0 525921000000.0 210931000000.0 5084320000.0 222899000000.0 363210000000.0 461105000000.0 71198600000.0 4364920000.0 692839000000.0 553680000000.0 458274000000.0 415886000000.0 387093000000.0 357441000000.0 322723000000.0 280268000000.0 230012000000.0 173077000000.0 14032500000.0 47584400000.0 61218900000.0 43890400000.0 3486050000.0 353196000000.0 96049000000.0 64329700000.0 46811800000.0 11502100000.0 73346800000.0 431231000000.0 338739000000.0 76035900000.0 342634000000.0 16695400000.0 141350000000.0 104211000000.0 66205600000.0 16788100000.0 176200000000.0 223224000000.0 263835000000.0 302675000000.0 350440000000.0 417954000000.0 494169000000.0 509183000000.0 326901000000.0 238397000000.0 575839000000.0 382169000000.0 292090000000.0 503423000000.0 355359000000.0 223186000000.0 54080100000.0 72710000000.0 219950000000.0 1.23207e+12 1.10859e+12 956642000000.0 538271000000.0 357279000000.0 249492000000.0 2522880000.0 60819700000.0 57717900000.0 29841700000.0 33353600000.0 138477000000.0 470943000000.0 711225000000.0 119883000000.0 510183000000.0 418553000000.0 32340400000.0 95628600000.0 4615300000.0 484342000000.0 480415000000.0 481525000000.0 415468000000.0 378420000000.0 360879000000.0 344390000000.0 321607000000.0 288893000000.0 247309000000.0 198603000000.0 144491000000.0 87749700000.0 32960300000.0 104006000000.0 171357000000.0 269510000000.0 580687000000.0 438540000000.0 93947000000.0 350711000000.0 16742100000.0 14781000000.0 83254000000.0 51147000000.0 58635300000.0 160509000000.0 87207500000.0 35167800000.0 821955000000.0 872978000000.0 720268000000.0 330123000000.0 174569000000.0 37859300000.0 93338800000.0 146218000000.0 195105000000.0 240585000000.0 285178000000.0 333561000000.0 390207000000.0 449201000000.0 475855000000.0 406287000000.0 163498000000.0 284649000000.0 445253000000.0 15595300000.0 70346700000.0 60517200000.0 6370710000.0 409318000000.0 1.45273e+12 918584000000.0 857780000000.0 651775000000.0 422890000000.0 236278000000.0 11301000000.0 27557100000.0 22994600000.0 186773000000.0 427457000000.0 827005000000.0 753498000000.0 296813000000.0 317178000000.0 72433900000.0 123885000000.0 188904000000.0 29934400000.0 43679900000.0 91634200000.0 152623000000.0 346310000000.0 330066000000.0 302557000000.0 266031000000.0 222548000000.0 173439000000.0 120780000000.0 67451900000.0 17028300000.0 27133400000.0 65111500000.0 152980000000.0 185337000000.0 280486000000.0 218657000000.0 16886300000.0 384716000000.0 592368000000.0 83509000000.0 25526500000.0 25384200000.0 74752400000.0 123274000000.0 170730000000.0 217988000000.0 266619000000.0 318066000000.0 371363000000.0 419021000000.0 546095000000.0 390085000000.0 344776000000.0 194614000000.0 269979000000.0 268507000000.0 154909000000.0 73079400000.0 1.16467e+12 1.03304e+12 714100000000.0 496428000000.0 388698000000.0 345055000000.0 191997000000.0 15830700000.0 81084200000.0 72108600000.0 565268000000.0 617473000000.0 4864730000.0 184487000000.0 232381000000.0 17036200000.0 133593000000.0 216932000000.0 290793000000.0 299269000000.0 134841000000.0 274509000000.0 439306000000.0 412955000000.0 379048000000.0 359683000000.0 247405000000.0 200275000000.0 149741000000.0 97704000000.0 46273400000.0 2902160000.0 49651800000.0 96995900000.0 153439000000.0 200335000000.0 208371000000.0 218716000000.0 265713000000.0 70054500000.0 153679000000.0 29345700000.0 183556000000.0 31082100000.0 116764000000.0 77187900000.0 43337700000.0 7598390000.0 27717600000.0 66245100000.0 107670000000.0 150890000000.0 196351000000.0 245865000000.0 442617000000.0 408061000000.0 276157000000.0 22854500000.0 348499000000.0 396598000000.0 304404000000.0 116176000000.0 123779000000.0 333374000000.0 224608000000.0 45493300000.0 461311000000.0 858577000000.0 960212000000.0 817808000000.0 405434000000.0 182845000000.0 65625900000.0 70863700000.0 11147200000.0 11455900000.0 207327000000.0 389188000000.0 102898000000.0 148592000000.0 279948000000.0 239175000000.0 78370000000.0 191932000000.0 156753000000.0 167261000000.0 433128000000.0 440864000000.0 412274000000.0 388777000000.0 370938000000.0 356343000000.0 326373000000.0 289489000000.0 71935200000.0 20757300000.0 29898200000.0 83267200000.0 143172000000.0 201644000000.0 245086000000.0 207816000000.0 440146000000.0 173558000000.0 50688000000.0 220865000000.0 368004000000.0 41143400000.0 348014000000.0 241861000000.0 263570000000.0 601766000000.0 73520100000.0 182268000000.0 282049000000.0 104420000000.0 46117500000.0 32742800000.0 43809400000.0 66283600000.0 96827900000.0 300742000000.0 359029000000.0 409913000000.0 435461000000.0 420880000000.0 344507000000.0 193646000000.0 30574800000.0 288593000000.0 127476000000.0 297924000000.0 70654600000.0 334150000000.0 558823000000.0 795536000000.0 738839000000.0 587841000000.0 17122800000.0 241310000000.0 21853900000.0 22024400000.0 140189000000.0 189488000000.0 214093000000.0 78255300000.0 11804200000.0 131367000000.0 196259000000.0 37448500000.0 257364000000.0 412038000000.0 141271000000.0 379174000000.0 437654000000.0 434753000000.0 412949000000.0 404892000000.0 362920000000.0 319590000000.0 275622000000.0 227105000000.0 175945000000.0 123865000000.0 63634300000.0 124820000000.0 188512000000.0 243948000000.0 281265000000.0 397012000000.0 265146000000.0 419461000000.0 311890000000.0 532321000000.0 139859000000.0 1935490000.0 10402300000.0 202789000000.0 45086200000.0 136455000000.0 83098900000.0 54575900000.0 50840100000.0 133230000000.0 175148000000.0 222615000000.0 277774000000.0 341352000000.0 407557000000.0 453459000000.0 453098000000.0 416170000000.0 332976000000.0 181276000000.0 62390100000.0 222490000000.0 221282000000.0 92017000000.0 311147000000.0 261048000000.0 652514000000.0 492975000000.0 364907000000.0 6533420000.0 42628100000.0 197876000000.0 37517300000.0 73242800000.0 382789000000.0 16930100000.0 44634800000.0 127588000000.0 65545300000.0 99061200000.0 156303000000.0 394959000000.0 502094000000.0 518295000000.0 464167000000.0 479917000000.0 408177000000.0 353027000000.0 306847000000.0 254740000000.0 200614000000.0 146269000000.0 93307700000.0 42153300000.0 9132640000.0 265964000000.0 329903000000.0 366525000000.0 436048000000.0 59109700000.0 412784000000.0 62371200000.0 85153000000.0 115057000000.0 152571000000.0 197456000000.0 248811000000.0 311077000000.0 385796000000.0 466265000000.0 509512000000.0 480810000000.0 450902000000.0 359936000000.0 197485000000.0 16188400000.0 114208000000.0 63217500000.0 102115000000.0 252595000000.0 250993000000.0 148772000000.0 148187000000.0 319550000000.0 569773000000.0 295452000000.0 14721800000.0 129343000000.0 51655500000.0 82355500000.0 73413500000.0 253399000000.0 261871000000.0 202548000000.0 22033100000.0 219896000000.0 220101000000.0 230915000000.0 294589000000.0 361911000000.0 374993000000.0 337907000000.0 281028000000.0 222436000000.0 165773000000.0 111486000000.0 59477600000.0 8718360000.0 45901600000.0 104249000000.0 163455000000.0 217714000000.0 294771000000.0 268826000000.0 137442000000.0 119924000000.0 222852000000.0 119441000000.0 58576000000.0 162091000000.0 247936000000.0 227598000000.0 57134400000.0 12302400000.0 16863600000.0 26835300000.0 38428800000.0 60536800000.0 88337600000.0 125413000000.0 169936000000.0 220834000000.0 274062000000.0 341378000000.0 426499000000.0 82013500000.0 25115300000.0 73461100000.0 170001000000.0 244429000000.0 45846600000.0 176255000000.0 321154000000.0 593074000000.0 442987000000.0 35648200000.0 14164100000.0 242301000000.0 46787600000.0 3360880000.0 398641000000.0 155013000000.0 1371260000.0 182548000000.0 217435000000.0 231623000000.0 359135000000.0 450985000000.0 543593000000.0 562055000000.0 464260000000.0 533286000000.0 432400000000.0 179388000000.0 123455000000.0 71206100000.0 20095400000.0 30201900000.0 86266800000.0 139580000000.0 184547000000.0 231595000000.0 285582000000.0 291943000000.0 279944000000.0 236159000000.0 269936000000.0 272583000000.0 18549900000.0 9494700000.0 97783700000.0 273506000000.0 297941000000.0 228833000000.0 141474000000.0 88504900000.0 41914200000.0 19153400000.0 16163300000.0 46410800000.0 87375900000.0 136059000000.0 526575000000.0 547462000000.0 510072000000.0 507305000000.0 390937000000.0 247976000000.0 128176000000.0 160894000000.0 193764000000.0 182958000000.0 206542000000.0 42035300000.0 525764000000.0 417868000000.0 239283000000.0 139459000000.0 7073760000.0 39138800000.0 54038100000.0 48144200000.0 101197000000.0 73432800000.0 79800900000.0 51371900000.0 70426900000.0 179876000000.0 101876000000.0 411287000000.0 428745000000.0 480149000000.0 527327000000.0 418500000000.0 501157000000.0 429729000000.0 372277000000.0 370532000000.0 306837000000.0 241196000000.0 64959400000.0 121908000000.0 161424000000.0 196593000000.0 241359000000.0 272530000000.0 272674000000.0 256278000000.0 225031000000.0 138979000000.0 126498000000.0 115073000000.0 139398000000.0 253845000000.0 345693000000.0 323537000000.0 280297000000.0 245497000000.0 147408000000.0 122564000000.0 55854200000.0 190847000000.0 251005000000.0 297409000000.0 362458000000.0 436691000000.0 513506000000.0 479990000000.0 448763000000.0 444749000000.0 378809000000.0 274589000000.0 196607000000.0 140155000000.0 126831000000.0 154696000000.0 184986000000.0 345997000000.0 180062000000.0 88058600000.0 13441200000.0 106233000000.0 438260000000.0 87793400000.0 99583600000.0 128774000000.0 208368000000.0 379631000000.0 332481000000.0 379901000000.0 434946000000.0 386045000000.0 428937000000.0 450577000000.0 355867000000.0 407560000000.0 328435000000.0 256980000000.0 188451000000.0 127924000000.0 75322300000.0 26128700000.0 21282900000.0 155744000000.0 22426500000.0 7849210000.0 42185200000.0 106186000000.0 21134700000.0 32745400000.0 94996100000.0 158744000000.0 228191000000.0 304448000000.0 333315000000.0 397991000000.0 443325000000.0 476531000000.0 403208000000.0 374311000000.0 352136000000.0 322936000000.0 273866000000.0 259365000000.0 158921000000.0 91130500000.0 166267000000.0 167958000000.0 247406000000.0 478783000000.0 81047300000.0 32789700000.0 98831600000.0 224069000000.0 329990000000.0 109716000000.0 15667300000.0 142250000000.0 6149290000.0 273743000000.0 294432000000.0 279304000000.0 337603000000.0 346072000000.0 360799000000.0 422931000000.0 323562000000.0 378078000000.0 323592000000.0 266744000000.0 197524000000.0 130422000000.0 74006400000.0 27692400000.0 19564200000.0 64680600000.0 94156000000.0 172567000000.0 192415000000.0 201041000000.0 242871000000.0 260170000000.0 233387000000.0 246042000000.0 98465900000.0 130459000000.0 106266000000.0 175904000000.0 247078000000.0 336197000000.0 390212000000.0 357613000000.0 441961000000.0 268913000000.0 277232000000.0 144373000000.0 90362700000.0 10941200000.0 80857100000.0 168010000000.0 251796000000.0 322184000000.0 365752000000.0 357290000000.0 392714000000.0 422330000000.0 410811000000.0 325133000000.0 296113000000.0 289034000000.0 255692000000.0 260390000000.0 232130000000.0 84804100000.0 79362300000.0 197733000000.0 35007200000.0 286873000000.0 281725000000.0 190388000000.0 136884000000.0 132117000000.0 14986600000.0 58904200000.0 184374000000.0 179597000000.0 41617000000.0 75421800000.0 33221200000.0 52890200000.0 210368000000.0 217770000000.0 145579000000.0 74724700000.0 19280200000.0 27228700000.0 85232100000.0 125193000000.0 106886000000.0 271011000000.0 209707000000.0 214141000000.0 252119000000.0 225793000000.0 223400000000.0 270710000000.0 220367000000.0 71894100000.0 227343000000.0 293695000000.0 316372000000.0 258752000000.0 290395000000.0 103806000000.0 106815000000.0 38084200000.0 43442600000.0 45243200000.0 35828200000.0 31340400000.0 19081200000.0 213302000000.0 119653000000.0 6525950000.0 74440900000.0 183564000000.0 175672000000.0 212776000000.0 140445000000.0 88591900000.0 54284200000.0 3920470000.0 50482000000.0 18243000000.0 82139000000.0 8104650000.0 91985400000.0 237403000000.0 225794000000.0 278045000000.0 287460000000.0 368520000000.0 305633000000.0 338177000000.0 330211000000.0 284860000000.0 149122000000.0 186444000000.0 128480000000.0 330335000000.0 18360600000.0 232748000000.0 84455000000.0 159662000000.0 16952900000.0 126087000000.0 16587500000.0 14302300000.0 85997200000.0 297467000000.0 340466000000.0 308763000000.0 314192000000.0 338787000000.0 263593000000.0 13758400000.0 76879300000.0 134087000000.0 218348000000.0 318559000000.0 360177000000.0 321112000000.0 246478000000.0 244367000000.0 212765000000.0 221596000000.0 62433300000.0 48370100000.0 67193900000.0 67450100000.0 20721400000.0 6271810000.0 46267800000.0 68930300000.0 42889200000.0 60250000000.0 32921700000.0 4010150000.0 39973700000.0 99497200000.0 176524000000.0 176519000000.0 181916000000.0 208564000000.0 294252000000.0 319302000000.0 337030000000.0 378655000000.0 366056000000.0 312453000000.0 246568000000.0 163554000000.0 75131000000.0 2231650000.0 56870600000.0 120177000000.0 73216900000.0 112284000000.0 427607000000.0 213780000000.0 165008000000.0 86616900000.0 34884500000.0 16194800000.0 52586100000.0 97988000000.0 136508000000.0 170831000000.0 227996000000.0 290188000000.0 294532000000.0 234627000000.0 194358000000.0 170450000000.0 171064000000.0 174371000000.0 107216000000.0 27350800000.0 9035750000.0 19674100000.0 163909000000.0 47758000000.0 114342000000.0 107269000000.0 3917670000.0 36652800000.0 46345100000.0 57816700000.0 73429600000.0 60951600000.0 164867000000.0 74024800000.0 67832800000.0 14863200000.0 54979500000.0 106546000000.0 137775000000.0 111471000000.0 207437000000.0 231676000000.0 188049000000.0 210156000000.0 212399000000.0 197393000000.0 165697000000.0 131699000000.0 92272300000.0 64426400000.0 68018600000.0 85350100000.0 10952200000.0 8070270000.0 38569200000.0 229608000000.0 61901400000.0 343271000000.0 244952000000.0 327718000000.0 140523000000.0 138448000000.0 19282100000.0 67171400000.0 119101000000.0 112058000000.0 135445000000.0 333041000000.0 363155000000.0 409014000000.0 427930000000.0 409294000000.0 364294000000.0 306263000000.0 291847000000.0 240160000000.0 210839000000.0 149011000000.0 68236200000.0 9334150000.0 89777700000.0 141863000000.0 181144000000.0 223718000000.0 250064000000.0 216602000000.0 177201000000.0 124570000000.0 119562000000.0 123362000000.0 65706100000.0 9079590000.0 60193100000.0 46230500000.0 238586000000.0 74628500000.0 73896700000.0 75058500000.0 70935600000.0 860697000.0 2082150000.0 7876690000.0 29601600000.0 63864800000.0 66407100000.0 57767600000.0 73583200000.0 21729300000.0 20027400000.0 27213600000.0 84608000000.0 64423200000.0 173997000000.0 120101000000.0 65804600000.0 44770400000.0 92331700000.0 75310800000.0 199062000000.0 11469500000.0 259096000000.0 36158000000.0 75581400000.0 917869000.0 58420800000.0 57079800000.0 151017000000.0 374147000000.0 311003000000.0 295800000000.0 226378000000.0 275907000000.0 203352000000.0 308313000000.0 202414000000.0 184937000000.0 107229000000.0 4037130000.0 53505400000.0 63997600000.0 79698100000.0 49160900000.0 8212930000.0 47070600000.0 74346000000.0 61084000000.0 67587000000.0 67206700000.0 7472510000.0 8212670000.0 88837900000.0 66844200000.0 190792000000.0 111009000000.0 207052000000.0 217800000000.0 249415000000.0 293956000000.0 291912000000.0 257579000000.0 216727000000.0 40303500000.0 95977800000.0 46672800000.0 102214000000.0 111670000000.0 165255000000.0 207133000000.0 235199000000.0 262014000000.0 239311000000.0 196850000000.0 118641000000.0 194404000000.0 63394300000.0 86948200000.0 9035750000.0 9035750000.0 27737700000.0 34516400000.0 60172800000.0 61651700000.0 116098000000.0 25271000000.0 19390700000.0 1499910000.0 31895300000.0 46425000000.0 23722700000.0 40468900000.0 76118300000.0 112705000000.0 80620000000.0 94473700000.0 107230000000.0 88275200000.0 58310500000.0 17200800000.0 54776800000.0 134385000000.0 209084000000.0 272217000000.0 298375000000.0 461965000000.0 269515000000.0 386622000000.0 224325000000.0 306917000000.0 262946000000.0 225908000000.0 168809000000.0 6092530000.0 58454800000.0 15613300000.0 14543500000.0 15827500000.0 117763000000.0 14629600000.0 61414200000.0 80884600000.0 130097000000.0 161304000000.0 144284000000.0 201413000000.0 129963000000.0 102413000000.0 17704400000.0 75987400000.0 97454600000.0 114424000000.0 127670000000.0 136924000000.0 129760000000.0 132043000000.0 114897000000.0 106830000000.0 82272100000.0 33849400000.0 29128800000.0 40814800000.0 19980900000.0 15930700000.0 25426600000.0 11914400000.0 130304000000.0 64688100000.0 52080200000.0 37480300000.0 28403400000.0 9035750000.0 9035750000.0 5863220000.0 34767700000.0 59303300000.0 65385500000.0 31395600000.0 14884100000.0 39712700000.0 120632000000.0 127391000000.0 107695000000.0 95610800000.0 103482000000.0 73764500000.0 38241600000.0 66171200000.0 130648000000.0 160140000000.0 186628000000.0 184988000000.0 163062000000.0 91466900000.0 83098600000.0 51723100000.0 98968800000.0 86764900000.0 125851000000.0 51620300000.0 106902000000.0 147494000000.0 91901500000.0 103239000000.0 24521900000.0 49965000000.0 1299490000.0 102565000000.0 12130500000.0 50481500000.0 2217360000.0 6902250000.0 130199000000.0 88641300000.0 66773100000.0 41841000000.0 22083300000.0 20791600000.0 1254930000.0 33827500000.0 25838700000.0 136510000000.0 101310000000.0 133530000000.0 125583000000.0 148646000000.0 150411000000.0 167775000000.0 162862000000.0 127704000000.0 76671200000.0 30057700000.0 76388100000.0 97582400000.0 100842000000.0 109678000000.0 126551000000.0 126157000000.0 45070300000.0 8648610000.0 46723000000.0 58939300000.0 58930500000.0 35315400000.0 6120290000.0 32950200000.0 25750400000.0 32909000000.0 9035750000.0 9035750000.0 9349490000.0 24704100000.0 46877300000.0 56338200000.0 26135000000.0 90912300000.0 51984900000.0 41163400000.0 29638000000.0 18912800000.0 7986050000.0 19854900000.0 29114300000.0 94221100000.0 132718000000.0 156143000000.0 168430000000.0 141745000000.0 104862000000.0 28434400000.0 4052760000.0 94257700000.0 112434000000.0 127872000000.0 88876800000.0 129826000000.0 134710000000.0 2614490000.0 87519700000.0 2830070000.0 55436800000.0 20175800000.0 59656100000.0 74908400000.0 2500420000.0 14298800000.0 50932100000.0 40771900000.0 98027800000.0 4452760000.0 8419420000.0 6166400000.0 33039300000.0 36298500000.0 68028400000.0 91957000000.0 102279000000.0 133958000000.0 13887500000.0 19479600000.0 36242800000.0 48621700000.0 98015600000.0 120549000000.0 150636000000.0 157270000000.0 129290000000.0 100305000000.0 37586500000.0 18975000000.0 489636000.0 16618100000.0 27874100000.0 38879700000.0 48773600000.0 107452000000.0 39900700000.0 68581600000.0 35162000000.0 28405800000.0 9312240000.0 9035750000.0 9035760000.0 7023870000.0 2830060000.0 299953000.0 15653400000.0 40754900000.0 80044600000.0 120561000000.0 6851330000.0 1792590000.0 4330390000.0 10541900000.0 17964100000.0 10015200000.0 12802200000.0 23185900000.0 64305500000.0 100145000000.0 150558000000.0 179829000000.0 204390000000.0 178155000000.0 180858000000.0 112096000000.0 86938200000.0 93476700000.0 101878000000.0 81380900000.0 9585270000.0 160199000000.0 2994740000.0 104108000000.0 14116200000.0 46445800000.0 5082000000.0 97482900000.0 17552900000.0 54425000000.0 12968000000.0 57860200000.0 25316800000.0 23615500000.0 103218000.0 14945500000.0 4349140000.0 5582780000.0 3030510000.0 16129900000.0 22591500000.0 119586000000.0 110370000000.0 148573000000.0 135042000000.0 152235000000.0 135273000000.0 126343000000.0 100194000000.0 62496300000.0 30669500000.0 13867400000.0 12286500000.0 18013900000.0 12837800000.0 5923070000.0 884616000.0 6538410000.0 129960000000.0 83408600000.0 25370100000.0 17105500000.0 217679000.0 2948980000.0 7066920000.0 81417600000.0 2822350000.0 87585200000.0 9301320000.0 9126850000.0 10682300000.0 31788500000.0 54464700000.0 92957600000.0 93315600000.0 89990100000.0 2328760000.0 4099630000.0 3874010000.0 5721070000.0 7362690000.0 22503100000.0 33179300000.0 66272500000.0 108788000000.0 136224000000.0 168751000000.0 175619000000.0 177494000000.0 139334000000.0 137203000000.0 74294800000.0 57357200000.0 68657700000.0 75051800000.0 63892400000.0 5526710000.0 144665000000.0 2691160000.0 96163800000.0 19609200000.0 43268700000.0 519299000.0 99400800000.0 6102760000.0 11174000000.0 73082700000.0 37783300000.0 79813100000.0 15817000000.0 8956490000.0 31867700000.0 9152410000.0 24401600000.0 7775120000.0 8642670000.0 14480300000.0 14309800000.0 84878000000.0 81104900000.0 123447000000.0 117002000000.0 143590000000.0 140762000000.0 146371000000.0 134888000000.0 108819000000.0 75983800000.0 35635700000.0 26139700000.0 7976680000.0 5725720000.0 3798500000.0 3952030000.0 1917040000.0 97186500000.0 98616500000.0 97046800000.0 41671300000.0 30405700000.0 10516700000.0 9134620000.0 9308580000.0 9179790000.0 8222210000.0 9752050000.0 30971300000.0 51728200000.0 78127800000.0 10409100000.0 10970500000.0 8184190000.0 8442030000.0 8581900000.0 20129400000.0 32295200000.0 165113000000.0 134238000000.0 133053000000.0 79194100000.0 73483000000.0 76526400000.0 79574800000.0 76496200000.0 9035750000.0 7946650000.0 92730600000.0 23643400000.0 45600900000.0 8787630000.0 7027570000.0 74617300000.0 26304500000.0 55190600000.0 4149890000.0 2698470000.0 23027100000.0 472577000.0 17193100000.0 1918270000.0 7568560000.0 16286100000.0 20492700000.0 74872400000.0 75981200000.0 116330000000.0 109055000000.0 131846000000.0 126146000000.0 129285000000.0 35700200000.0 25461200000.0 9220420000.0 8775970000.0 8448050000.0 11287500000.0 10434700000.0 83980900000.0 40834300000.0 27639700000.0 9531010000.0 8244810000.0 9193870000.0 95377400000.0 108626000000.0 58047700000.0 94996800000.0 119141000000.0 149251000000.0 158176000000.0 142465000000.0 95949100000.0 21726800000.0 117277000000.0 95545900000.0 63463900000.0 112741000000.0 98501300000.0 9738960000.0 9399090000.0 12185900000.0 33720900000.0 54074600000.0 98481800000.0 115336000000.0 61022500000.0 10196800000.0 11495500000.0 8522910000.0 9623380000.0 10826800000.0 21501000000.0 36681500000.0 58333100000.0 89970700000.0 109880000000.0 134080000000.0 139050000000.0 143678000000.0 114966000000.0 113340000000.0 71176100000.0 73607900000.0 67960300000.0 69184000000.0 72122500000.0 9035750000.0 131648000000.0 9035750000.0 85736400000.0 24761600000.0 42537400000.0 7949970000.0 89271400000.0 7604920000.0 21621100000.0 79771600000.0 37596300000.0 57431800000.0 19055800000.0 8973260000.0 34716700000.0 9035750000.0 26875900000.0 9035750000.0 13936700000.0 19335600000.0 21989100000.0 61850800000.0 64112500000.0 100747000000.0 94113200000.0 115713000000.0 110899000000.0 114970000000.0 105305000000.0 89035000000.0 59912300000.0 39294700000.0 26510800000.0 11049900000.0 9593370000.0 8504280000.0 11681000000.0 10140800000.0 65331100000.0 118486000000.0 100783000000.0 45155300000.0 29185600000.0 11883600000.0 9405410000.0 9747160000.0 9921600000.0 9516140000.0 12779300000.0 33332700000.0 97574000000.0 72107000000.0 59409200000.0 9035750000.0 9035750000.0 24557800000.0 9530730000.0 9035750000.0 45418500000.0 7387050000.0 9035750000.0 9035750000.0 14221300000.0 17666900000.0 20229400000.0 50740000000.0 54046700000.0 87127900000.0 28237900000.0 12426900000.0 9521400000.0 9929900000.0 53416500000.0 97522700000.0 119078000000.0 50197400000.0 11910800000.0 13131300000.0 9334820000.0 10373800000.0 11649800000.0 20658200000.0 37461300000.0 55596800000.0 82609300000.0 98832500000.0 118580000000.0 121366000000.0 125087000000.0 99240800000.0 67603300000.0 60148200000.0 67534900000.0 120314000000.0 78509800000.0 40238900000.0 82796600000.0 26353500000.0 78613400000.0 33920700000.0 17081700000.0 34091200000.0 27235100000.0 81444500000.0 101333000000.0 96782500000.0 100989000000.0 92991500000.0 81161100000.0 55773200000.0 39967400000.0 25733000000.0 11999900000.0 10367000000.0 9331020000.0 13399600000.0 11895900000.0 53311000000.0 121508000000.0 98951300000.0 46231000000.0 10074200000.0 9615090000.0 13237600000.0 32339100000.0 52318500000.0 95222100000.0 119227000000.0 41220500000.0 12448000000.0 13707800000.0 9420500000.0 10601400000.0 12168100000.0 19966500000.0 37854600000.0 53459900000.0 76744900000.0 89488900000.0 105174000000.0 106000000000.0 108822000000.0 85795300000.0 84533300000.0 64638500000.0 69003100000.0 53201700000.0 50563200000.0 62871100000.0 9035750000.0 109576000000.0 9035750000.0 71846300000.0 23995000000.0 37702000000.0 9808360000.0 75782700000.0 9035750000.0 27801500000.0 78064200000.0 35802300000.0 40383600000.0 20029700000.0 9035750000.0 33956200000.0 9035750000.0 27213700000.0 9035750000.0 14456200000.0 15894800000.0 18595300000.0 42620100000.0 46309400000.0 75341200000.0 70600800000.0 88825400000.0 84670300000.0 88955600000.0 82597600000.0 74506600000.0 52451300000.0 39813400000.0 24554500000.0 12529000000.0 10581600000.0 9415610000.0 14018700000.0 12438900000.0 43373000000.0 121103000000.0 95970800000.0 46654600000.0 27229400000.0 12851400000.0 9619320000.0 10082000000.0 10193400000.0 9693890000.0 13554200000.0 30921400000.0 50732500000.0 91484500000.0 116749000000.0 34820800000.0 12877400000.0 14129600000.0 9491380000.0 10768700000.0 12535800000.0 19312600000.0 37645700000.0 51415700000.0 71684100000.0 81353100000.0 93626600000.0 92976700000.0 95058600000.0 74837400000.0 74289100000.0 61125000000.0 64768800000.0 47137700000.0 42778500000.0 58227500000.0 9035750000.0 99378400000.0 9035750000.0 65656500000.0 23209800000.0 35320500000.0 10042500000.0 69264900000.0 9035750000.0 28571900000.0 74642000000.0 34137600000.0 33852700000.0 20018000000.0 9035750000.0 32970300000.0 9035750000.0 26854400000.0 9035750000.0 14608100000.0 14237000000.0 17181300000.0 36764000000.0 40482300000.0 65525300000.0 61624200000.0 78205300000.0 74495600000.0 78795500000.0 73909700000.0 68790800000.0 49501300000.0 39068100000.0 23303200000.0 12937600000.0 10750400000.0 9485710000.0 14469600000.0 12872200000.0 36276800000.0 118209000000.0 91719600000.0 46374800000.0 26203400000.0 13150800000.0 9697200000.0 10200300000.0 10277000000.0 9751060000.0 13728300000.0 29236200000.0 48644900000.0 86652300000.0 112246000000.0 30379300000.0 13190100000.0 14395200000.0 9545850000.0 10885800000.0 12793400000.0 18718000000.0 36952300000.0 49338800000.0 67170000000.0 74269700000.0 83695900000.0 81978300000.0 83449900000.0 65940800000.0 66211200000.0 56991100000.0 59843000000.0 41884100000.0 36079800000.0 53661000000.0 9035750000.0 89718700000.0 9035750000.0 59878000000.0 22286700000.0 33050600000.0 10229900000.0 63195600000.0 9035750000.0 28812000000.0 70540300000.0 32323300000.0 28460700000.0 19802100000.0 9035750000.0 31738500000.0 9035750000.0 26214300000.0 9035750000.0 14656000000.0 12816000000.0 15989100000.0 32610300000.0 36030400000.0 57448000000.0 54248600000.0 69227200000.0 65997300000.0 70261000000.0 66620900000.0 63773500000.0 46793100000.0 37860400000.0 22048700000.0 13220500000.0 10869400000.0 9539740000.0 14752300000.0 13187800000.0 31380700000.0 113393000000.0 86526100000.0 45375900000.0 25154600000.0 13323500000.0 9753600000.0 10282700000.0 10323800000.0 9785760000.0 13764400000.0 27407500000.0 46093000000.0 80949600000.0 106161000000.0 27354500000.0 13380100000.0 14506300000.0 9582690000.0 10950700000.0 12938200000.0 18129900000.0 35810100000.0 47092700000.0 62909800000.0 67930600000.0 75068900000.0 72633100000.0 73631100000.0 58639800000.0 59633500000.0 52470100000.0 54557700000.0 37323600000.0 30433800000.0 49203000000.0 9035750000.0 80616300000.0 9035750000.0 54459900000.0 21277700000.0 30862800000.0 10370100000.0 57517000000.0 9035750000.0 28585600000.0 65806000000.0 30260900000.0 24090800000.0 19412000000.0 9035750000.0 30303300000.0 9035750000.0 25341500000.0 9035750000.0 14590900000.0 11674500000.0 14994000000.0 29582700000.0 32543900000.0 50757100000.0 48155700000.0 61582000000.0 58845500000.0 63015500000.0 60373900000.0 59209500000.0 44176400000.0 36258500000.0 20818100000.0 13375500000.0 10936200000.0 9576470000.0 14870000000.0 13380000000.0 28079500000.0 107068000000.0 80627200000.0 43692600000.0 24065500000.0 13372400000.0 9787680000.0 10328600000.0 10333700000.0 9797740000.0 13671500000.0 25522600000.0 43144000000.0 74597200000.0 98871500000.0 25270000000.0 13444600000.0 14468300000.0 9601200000.0 10962600000.0 12970300000.0 17511100000.0 34259000000.0 44616000000.0 58658900000.0 62054100000.0 67421000000.0 64560700000.0 65223000000.0 52486500000.0 54023500000.0 47773600000.0 49155300000.0 33336900000.0 25764300000.0 44869300000.0 9035750000.0 72069300000.0 9035750000.0 49355900000.0 20213600000.0 28733100000.0 10459400000.0 52170800000.0 9035750000.0 27969700000.0 60675300000.0 28107300000.0 20605200000.0 18870700000.0 9035750000.0 28695700000.0 9035750000.0 24273500000.0 9035750000.0 14413800000.0 10803800000.0 14161600000.0 27123900000.0 29681600000.0 45125900000.0 43039300000.0 54972500000.0 52710900000.0 56722800000.0 54841200000.0 54869000000.0 41535300000.0 34325900000.0 19621800000.0 13403700000.0 10950300000.0 9595160000.0 14828700000.0 13446000000.0 25824600000.0 99591000000.0 74229700000.0 41409700000.0 22915200000.0 13303900000.0 9799170000.0 10337900000.0 10307800000.0 9787310000.0 13461900000.0 23636900000.0 39877700000.0 67811800000.0 90686400000.0 23716700000.0 13383600000.0 14289600000.0 9601290000.0 10922400000.0 12892300000.0 16842600000.0 32347200000.0 41864800000.0 54234700000.0 56436200000.0 60459300000.0 57422800000.0 57851200000.0 47106800000.0 48981900000.0 43050900000.0 43816400000.0 29817700000.0 21964800000.0 40666200000.0 9035750000.0 64048500000.0 9035750000.0 44521200000.0 19111200000.0 26642100000.0 10494200000.0 47098300000.0 9035750000.0 27003700000.0 55279800000.0 25928100000.0 17860200000.0 18195200000.0 9035750000.0 26944600000.0 9035750000.0 23041800000.0 9035750000.0 14131400000.0 10169000000.0 13454100000.0 24871400000.0 27148100000.0 40281000000.0 38621000000.0 49131400000.0 47301300000.0 51087500000.0 49757300000.0 50548300000.0 38790800000.0 32125700000.0 18461200000.0 13309500000.0 10912100000.0 9595650000.0 14637500000.0 13386300000.0 24154200000.0 91258100000.0 67496100000.0 38642800000.0 21687100000.0 13127400000.0 9788380000.0 10311500000.0 10247600000.0 9755370000.0 13149900000.0 21780900000.0 36380500000.0 60780600000.0 81855900000.0 22389900000.0 13200500000.0 13981300000.0 9583390000.0 10832100000.0 12709400000.0 16117100000.0 30131300000.0 38804200000.0 49547000000.0 50939700000.0 53947700000.0 50932700000.0 51199400000.0 42214600000.0 44209000000.0 38406200000.0 38670900000.0 26674500000.0 18914300000.0 36592200000.0 9035750000.0 56503800000.0 9035750000.0 39911100000.0 17979800000.0 24572900000.0 10474400000.0 42242800000.0 9035750000.0 25710300000.0 49735900000.0 23765900000.0 15719600000.0 17399600000.0 9035750000.0 25074400000.0 9035750000.0 21673200000.0 9035750000.0 13753100000.0 9726640000.0 12836800000.0 22684900000.0 24754700000.0 35991800000.0 34668400000.0 43824300000.0 42370100000.0 45865100000.0 44925800000.0 46111900000.0 35883500000.0 29715600000.0 17332000000.0 13099700000.0 10823800000.0 9578300000.0 14307900000.0 13204200000.0 22735400000.0 82311600000.0 60552800000.0 35517200000.0 20376500000.0 12854400000.0 9756150000.0 10250900000.0 10155300000.0 9703260000.0 12751000000.0 19967500000.0 32738400000.0 53645900000.0 72580000000.0 21083200000.0 12901900000.0 13556200000.0 9548390000.0 10694800000.0 12429000000.0 15332800000.0 27671500000.0 35429800000.0 44587300000.0 45466400000.0 47712600000.0 44868800000.0 45031400000.0 37596700000.0 39511400000.0 33909100000.0 33801700000.0 23829300000.0 16490200000.0 32639700000.0 9035750000.0 49372600000.0 9035750000.0 35481900000.0 16824900000.0 22512200000.0 10402300000.0 37553500000.0 9035750000.0 24115500000.0 44136600000.0 21645100000.0 14059700000.0 16496900000.0 9035750000.0 23105600000.0 9035750000.0 20190500000.0 9035750000.0 13289800000.0 9433470000.0 12280200000.0 20552000000.0 22427700000.0 32065200000.0 31006100000.0 38863300000.0 37725500000.0 40870800000.0 40209300000.0 41504900000.0 32776000000.0 27146800000.0 16226700000.0 12783600000.0 10688300000.0 9543970000.0 13854100000.0 12906100000.0 21354200000.0 72943500000.0 53502700000.0 32149100000.0 18990200000.0 12497800000.0 9703830000.0 10158300000.0 10034100000.0 9632800000.0 12280800000.0 18198200000.0 29026300000.0 46508200000.0 63011700000.0 19664400000.0 12497000000.0 13028700000.0 9497660000.0 10514700000.0 12060600000.0 14489500000.0 25024800000.0 31771900000.0 39393100000.0 39953500000.0 41632100000.0 39073700000.0 39175500000.0 33107600000.0 34801800000.0 29599100000.0 29249600000.0 21215900000.0 14576600000.0 28796300000.0 9035750000.0 42587400000.0 9035750000.0 31193800000.0 15650300000.0 20450000000.0 10281600000.0 32987400000.0 9035750000.0 22251200000.0 38546600000.0 19576700000.0 12772800000.0 15500500000.0 9035750000.0 21055200000.0 9035750000.0 18613300000.0 9035750000.0 12752700000.0 9249720000.0 11760500000.0 18499900000.0 20160600000.0 28349400000.0 27507700000.0 34109700000.0 33232200000.0 35977000000.0 35512800000.0 36729300000.0 29461400000.0 24463300000.0 15134700000.0 12371800000.0 10509800000.0 9493960000.0 13291400000.0 12501300000.0 19877600000.0 63300400000.0 46430400000.0 28635400000.0 17540700000.0 12070800000.0 9633220000.0 10036600000.0 9887260000.0 9546200000.0 11753900000.0 16468000000.0 25299800000.0 39433300000.0 53261500000.0 18065400000.0 11997600000.0 12414200000.0 9432950000.0 10296900000.0 11614900000.0 13588400000.0 22240700000.0 27881200000.0 34018100000.0 34376600000.0 35625800000.0 33440100000.0 33507500000.0 28666900000.0 30066700000.0 25489400000.0 25019800000.0 18779000000.0 13067700000.0 25046900000.0 9035750000.0 36082600000.0 9035750000.0 27012300000.0 14459300000.0 18379900000.0 10117200000.0 28508900000.0 9035750000.0 20153500000.0 33004500000.0 17562100000.0 11767500000.0 14424400000.0 9035750000.0 18938200000.0 9035750000.0 16958800000.0 9035750000.0 12153600000.0 9141690000.0 11259600000.0 16552700000.0 17966200000.0 24741100000.0 24088500000.0 29466000000.0 28802600000.0 31102900000.0 30778400000.0 31813500000.0 25960100000.0 21702200000.0 14043900000.0 11876600000.0 10293400000.0 9429980000.0 12636200000.0 12001800000.0 18233500000.0 53486900000.0 39399300000.0 25048600000.0 16041400000.0 11586300000.0 9546490000.0 9889430000.0 9718870000.0 9445960000.0 11183700000.0 14769500000.0 21593100000.0 32456200000.0 43404000000.0 16271700000.0 11418000000.0 11728300000.0 9356370000.0 10047300000.0 11104200000.0 12632500000.0 19359000000.0 23812600000.0 28514400000.0 28740300000.0 29648200000.0 27899100000.0 27945000000.0 24243400000.0 25322800000.0 21571100000.0 21088900000.0 16473100000.0 11869500000.0 21374500000.0 9035750000.0 29797700000.0 9035750000.0 22908500000.0 13254900000.0 16298700000.0 9915110000.0 24090400000.0 9035750000.0 27528300000.0 15595900000.0 10969000000.0 13282400000.0 9035750000.0 16768100000.0 9035750000.0 15242500000.0 9035750000.0 11504200000.0 9083140000.0 10764900000.0 14718400000.0 15852400000.0 21183400000.0 20700000000.0 24869800000.0 24385700000.0 26205300000.0 25981400000.0 26792400000.0 22306700000.0 18891900000.0 12944100000.0 11311700000.0 10044900000.0 9354110000.0 11905100000.0 11421600000.0 16401300000.0 43573500000.0 32447900000.0 21437900000.0 14504200000.0 11056900000.0 9446160000.0 9720600000.0 17861100000.0 9533300000.0 9334890000.0 10582200000.0 13094300000.0 17921400000.0 25584800000.0 33486100000.0 14305600000.0 10774200000.0 10987200000.0 9270300000.0 9772410000.0 10542000000.0 11628600000.0 16411000000.0 19616400000.0 22925400000.0 23060800000.0 23679200000.0 22410200000.0 22440400000.0 19830100000.0 20588400000.0 17817600000.0 17411000000.0 14260300000.0 10898900000.0 17761600000.0 9035750000.0 23677100000.0 9035750000.0 18858800000.0 12040400000.0 14206000000.0 9682510000.0 19710400000.0 9035750000.0 15414900000.0 22119100000.0 13669000000.0 10316500000.0 12089000000.0 9035750000.0 14557500000.0 9035750000.0 13478600000.0 9035750000.0 10816200000.0 9054580000.0 10268900000.0 12989400000.0 13816000000.0 17651400000.0 17320900000.0 20287200000.0 19958400000.0 21269700000.0 21122600000.0 21697800000.0 18539700000.0 16052900000.0 11829100000.0 10691700000.0 9770840000.0 9268730000.0 11115200000.0 10776900000.0 14398300000.0 33604400000.0 25588300000.0 17831100000.0 12939200000.0 10494100000.0 9335020000.0 9534560000.0 9335300000.0 9215980000.0 9959610000.0 11434700000.0 14284800000.0 18803800000.0 10083600000.0 10206700000.0 9177350000.0 13420500000.0 17283800000.0 17354700000.0 17712200000.0 16950600000.0 16967700000.0 15426600000.0 15871400000.0 14189600000.0 13923500000.0 12109100000.0 10082900000.0 14190300000.0 9035750000.0 17669500000.0 9035750000.0 14843800000.0 10818700000.0 12103200000.0 9427560000.0 9035750000.0 16765300000.0 11770200000.0 9760030000.0 10858700000.0 9035750000.0 12318200000.0 9035750000.0 11680900000.0 9035750000.0 10100900000.0 9042210000.0 9768770000.0 11344200000.0 11842300000.0 14134700000.0 13944200000.0 15704400000.0 15515200000.0 16299200000.0 16215900000.0 16555300000.0 13198100000.0 9176440000.0 10283500000.0 10085400000.0 18809500000.0 14238800000.0 11355400000.0 9908240000.0 9216050000.0 9336060000.0 23535100000.0 12208900000.0 9479200000.0 9942400000.0 10587000000.0 15335500000.0 15353200000.0 12857800000.0 14695300000.0 10698100000.0 10032000000.0 9478340000.0 12264400000.0 23604400000.0 9129820000.0 9092370000.0 9325080000.0 9783890000.0 10672500000.0 12080900000.0 13564200000.0 10032400000.0 9364990000.0 9403060000.0 9080270000.0 9175010000.0 9320470000.0 9521730000.0 10406300000.0 11006100000.0 11612900000.0 11634000000.0 11744500000.0 11505600000.0 11510900000.0 11030400000.0 11168700000.0 10638700000.0 10552600000.0 9992350000.0 9355660000.0 10642900000.0 9035750000.0 11726000000.0 9035750000.0 10847300000.0 9592630000.0 9993760000.0 9159080000.0 11006900000.0 9035750000.0 10233900000.0 11446100000.0 9887980000.0 9257580000.0 9606470000.0 9035750000.0 10061700000.0 9035750000.0 9862980000.0 9035750000.0 9369470000.0 9037200000.0 9264810000.0 9752320000.0 9908800000.0 10626900000.0 10568100000.0 11118000000.0 11059500000.0 11305200000.0 11279600000.0 11385400000.0 10806000000.0 10335700000.0 9555430000.0 9348560000.0 9174750000.0 9079980000.0 9427140000.0 9365540000.0 10049800000.0 13585800000.0 12083100000.0 10659100000.0 9760660000.0 9309130000.0 9092390000.0 9130060000.0 