# vtk DataFile Version 2.0
Time step 85
ASCII
DATASET UNSTRUCTURED_GRID
POINTS 5000 float
231988.0 149293.0 0
219066.0 152093.0 0
226357.0 151895.0 0
230667.0 152423.0 0
235816.0 151629.0 0
242348.0 153006.0 0
248917.0 154282.0 0
273481.0 152468.0 0
279681.0 150920.0 0
193241.0 158530.0 0
199282.0 157234.0 0
207611.0 154552.0 0
204058.0 158834.0 0
213289.0 155816.0 0
218643.0 157634.0 0
222843.0 154693.0 0
223875.0 159011.0 0
227839.0 156417.0 0
232839.0 156446.0 0
238147.0 156543.0 0
242994.0 158646.0 0
252278.0 158622.0 0
255224.0 155385.0 0
259802.0 156877.0 0
263842.0 155164.0 0
265164.0 159442.0 0
268866.0 155731.0 0
275775.0 156434.0 0
272713.0 159182.0 0
280339.0 157076.0 0
285594.0 155275.0 0
287894.0 158826.0 0
291371.0 154621.0 0
291125.0 159472.0 0
294775.0 158372.0 0
299679.0 158366.0 0
305076.0 159112.0 0
189832.0 164172.0 0
197061.0 161118.0 0
201051.0 160946.0 0
205380.0 163869.0 0
209229.0 160075.0 0
214163.0 160830.0 0
218729.0 163571.0 0
228197.0 160804.0 0
224561.0 164229.0 0
232786.0 161681.0 0
238271.0 162057.0 0
243578.0 163966.0 0
247967.0 160512.0 0
252697.0 162767.0 0
256670.0 160131.0 0
261156.0 161114.0 0
264055.0 164485.0 0
268887.0 162825.0 0
273640.0 163237.0 0
277691.0 161686.0 0
284482.0 160106.0 0
281914.0 163450.0 0
288363.0 162786.0 0
293875.0 162764.0 0
298953.0 164009.0 0
304544.0 164448.0 0
194721.0 164918.0 0
199983.0 164714.0 0
207909.0 169474.0 0
211716.0 164951.0 0
215548.0 168641.0 0
221439.0 166910.0 0
227096.0 168777.0 0
229472.0 164887.0 0
234599.0 166002.0 0
231337.0 168256.0 0
239365.0 167820.0 0
244680.0 169047.0 0
248553.0 165585.0 0
253803.0 167420.0 0
258063.0 164835.0 0
261608.0 168547.0 0
267553.0 168939.0 0
272238.0 166686.0 0
275022.0 168338.0 0
278616.0 166792.0 0
285183.0 167309.0 0
291212.0 167484.0 0
295975.0 167834.0 0
301112.0 168962.0 0
305939.0 169253.0 0
311396.0 168323.0 0
187421.0 174535.0 0
189553.0 170075.0 0
195209.0 170062.0 0
201185.0 170646.0 0
212475.0 173382.0 0
220969.0 171129.0 0
225625.0 173019.0 0
230523.0 172792.0 0
234956.0 170358.0 0
242874.0 172540.0 0
239699.0 172461.0 0
249439.0 170484.0 0
246074.0 173375.0 0
253892.0 172094.0 0
257405.0 169807.0 0
258227.0 174009.0 0
263565.0 173700.0 0
272624.0 170565.0 0
276839.0 171466.0 0
281281.0 170734.0 0
287374.0 173466.0 0
292955.0 172258.0 0
297141.0 171582.0 0
301511.0 173527.0 0
305054.0 172994.0 0
191295.0 177169.0 0
196728.0 175421.0 0
202244.0 176520.0 0
207592.0 175697.0 0
211871.0 178290.0 0
217336.0 175578.0 0
222695.0 175954.0 0
226387.0 176590.0 0
230361.0 178325.0 0
235853.0 175754.0 0
241796.0 176517.0 0
246411.0 177199.0 0
249805.0 175034.0 0
249817.0 179218.0 0
254108.0 176887.0 0
259173.0 179468.0 0
265143.0 179087.0 0
270823.0 175871.0 0
274881.0 179476.0 0
277081.0 176189.0 0
280608.0 179832.0 0
281732.0 175130.0 0
284227.0 177918.0 0
288206.0 178278.0 0
290739.0 177145.0 0
293824.0 176206.0 0
298027.0 176032.0 0
300120.0 179834.0 0
303721.0 177312.0 0
309965.0 175319.0 0
315532.0 179392.0 0
184042.0 181952.0 0
187942.0 180614.0 0
187306.0 185059.0 0
192654.0 182997.0 0
198706.0 181093.0 0
205611.0 181592.0 0
211574.0 183240.0 0
215603.0 179903.0 0
216691.0 184033.0 0
220261.0 180181.0 0
225409.0 180432.0 0
229302.0 183459.0 0
234977.0 182076.0 0
244260.0 181270.0 0
240224.0 184120.0 0
248703.0 183588.0 0
253796.0 182034.0 0
262596.0 183122.0 0
267514.0 184016.0 0
271848.0 181587.0 0
276627.0 183839.0 0
286059.0 181663.0 0
281965.0 184509.0 0
290778.0 180575.0 0
295481.0 180554.0 0
299524.0 184076.0 0
303834.0 182127.0 0
307608.0 180366.0 0
311484.0 180672.0 0
309257.0 184721.0 0
314210.0 183842.0 0
182872.0 186858.0 0
186093.0 189690.0 0
190979.0 188991.0 0
196040.0 187019.0 0
200557.0 186291.0 0
205878.0 188135.0 0
211702.0 188620.0 0
217114.0 189092.0 0
222568.0 185955.0 0
227737.0 187641.0 0
232142.0 187480.0 0
236796.0 187154.0 0
243826.0 185490.0 0
241534.0 189558.0 0
246704.0 188023.0 0
252489.0 187794.0 0
258262.0 185243.0 0
263298.0 187777.0 0
269014.0 189680.0 0
272029.0 185678.0 0
274841.0 189421.0 0
279649.0 188334.0 0
286038.0 186639.0 0
290129.0 184760.0 0
289991.0 189788.0 0
294879.0 185915.0 0
299331.0 189376.0 0
304371.0 187077.0 0
309273.0 190105.0 0
313243.0 187891.0 0
316909.0 187612.0 0
183229.0 193040.0 0
186809.0 193511.0 0
190707.0 193979.0 0
195935.0 191940.0 0
200689.0 190652.0 0
200345.0 195303.0 0
203681.0 192282.0 0
204328.0 194898.0 0
208181.0 193551.0 0
213943.0 193812.0 0
219752.0 193769.0 0
224387.0 191490.0 0
226700.0 194924.0 0
229484.0 191537.0 0
235165.0 192142.0 0
240083.0 194971.0 0
244539.0 193751.0 0
249074.0 192464.0 0
258058.0 191786.0 0
264329.0 192936.0 0
273929.0 194502.0 0
278770.0 193015.0 0
283950.0 191117.0 0
294576.0 190541.0 0
293666.0 195262.0 0
299430.0 195269.0 0
304503.0 192500.0 0
315753.0 191193.0 0
312253.0 193923.0 0
318613.0 193476.0 0
184467.0 197135.0 0
189379.0 198562.0 0
193964.0 196661.0 0
197407.0 199625.0 0
202014.0 199938.0 0
205730.0 197746.0 0
210597.0 198774.0 0
216850.0 198950.0 0
223159.0 196898.0 0
227082.0 199352.0 0
231137.0 196158.0 0
235925.0 197493.0 0
239459.0 199547.0 0
244075.0 198930.0 0
249261.0 197438.0 0
253118.0 194916.0 0
259693.0 198259.0 0
264811.0 197365.0 0
269012.0 195055.0 0
268450.0 199532.0 0
277548.0 198181.0 0
282948.0 196489.0 0
288200.0 194862.0 0
292748.0 199896.0 0
296345.0 199185.0 0
304066.0 197254.0 0
309250.0 198763.0 0
316024.0 196394.0 0
185747.0 201245.0 0
182979.0 204798.0 0
189672.0 203288.0 0
193313.0 201152.0 0
196519.0 204736.0 0
201719.0 204551.0 0
206184.0 202155.0 0
213407.0 203362.0 0
221948.0 201722.0 0
226987.0 204444.0 0
232481.0 201720.0 0
237217.0 201941.0 0
240658.0 203471.0 0
244662.0 203617.0 0
248391.0 201947.0 0
253878.0 199637.0 0
252195.0 204178.0 0
257919.0 204254.0 0
263978.0 201769.0 0
268691.0 204280.0 0
272965.0 200693.0 0
273309.0 204782.0 0
277013.0 203152.0 0
282013.0 201676.0 0
287855.0 200655.0 0
295781.0 204384.0 0
300806.0 200858.0 0
305609.0 203669.0 0
310308.0 204284.0 0
315438.0 202140.0 0
321539.0 203854.0 0
187531.0 207601.0 0
192079.0 206457.0 0
195125.0 210323.0 0
201477.0 210331.0 0
205379.0 206305.0 0
207602.0 209969.0 0
209162.0 205432.0 0
212663.0 208311.0 0
217693.0 205974.0 0
222446.0 206837.0 0
226651.0 209890.0 0
231614.0 207240.0 0
236632.0 205822.0 0
242962.0 206794.0 0
239729.0 209448.0 0
247834.0 207013.0 0
253568.0 209232.0 0
259583.0 209567.0 0
263545.0 206304.0 0
267335.0 208568.0 0
271613.0 208452.0 0
280719.0 206430.0 0
276158.0 207773.0 0
285379.0 205403.0 0
286274.0 209067.0 0
290155.0 205843.0 0
293846.0 209272.0 0
301224.0 205791.0 0
298577.0 210407.0 0
305053.0 209439.0 0
312153.0 209751.0 0
317754.0 207545.0 0
182529.0 210897.0 0
187817.0 213027.0 0
192374.0 214982.0 0
196834.0 215151.0 0
205515.0 214467.0 0
211756.0 213509.0 0
216530.0 210402.0 0
216854.0 214697.0 0
221276.0 211837.0 0
227568.0 215216.0 0
231184.0 211707.0 0
232396.0 215092.0 0
235208.0 210221.0 0
237660.0 213631.0 0
244252.0 210815.0 0
241870.0 214400.0 0
248758.0 211903.0 0
245850.0 215012.0 0
252550.0 214873.0 0
256995.0 213117.0 0
264197.0 211083.0 0
260896.0 213895.0 0
269192.0 212580.0 0
274258.0 211050.0 0
278328.0 212047.0 0
282578.0 210314.0 0
281888.0 213966.0 0
285751.0 212999.0 0
290034.0 210946.0 0
294017.0 214056.0 0
302680.0 214369.0 0
307888.0 214631.0 0
317210.0 213673.0 0
183987.0 216740.0 0
189382.0 219599.0 0
193900.0 218676.0 0
201125.0 216047.0 0
197874.0 220090.0 0
203003.0 220291.0 0
208736.0 217986.0 0
213626.0 218174.0 0
218125.0 218771.0 0
222437.0 217029.0 0
226195.0 220333.0 0
230727.0 219024.0 0
235448.0 217715.0 0
239654.0 217060.0 0
243260.0 218742.0 0
248820.0 218128.0 0
254005.0 219059.0 0
257146.0 216712.0 0
264980.0 215285.0 0
261147.0 217572.0 0
265172.0 219398.0 0
269351.0 217216.0 0
274160.0 215127.0 0
273655.0 219914.0 0
279148.0 216662.0 0
284113.0 217503.0 0
289022.0 215943.0 0
297494.0 216732.0 0
292538.0 218602.0 0
301300.0 219223.0 0
306514.0 219627.0 0
312864.0 216295.0 0
318020.0 221044.0 0
182928.0 222080.0 0
186817.0 224383.0 0
190949.0 224832.0 0
193624.0 221829.0 0
196116.0 225466.0 0
200486.0 223721.0 0
204028.0 225321.0 0
206909.0 222191.0 0
211301.0 221963.0 0
213393.0 225133.0 0
215694.0 222082.0 0
221317.0 222426.0 0
225561.0 224681.0 0
233895.0 222011.0 0
229409.0 223116.0 0
238742.0 220808.0 0
242163.0 223425.0 0
246702.0 222220.0 0
251257.0 221777.0 0
255147.0 222288.0 0
253554.0 224782.0 0
257930.0 220391.0 0
261405.0 221441.0 0
264833.0 224259.0 0
269362.0 221617.0 0
269934.0 225434.0 0
274522.0 224727.0 0
278304.0 221046.0 0
279763.0 225370.0 0
283031.0 222228.0 0
288128.0 221180.0 0
290276.0 225178.0 0
296504.0 220850.0 0
292695.0 222716.0 0
298960.0 224559.0 0
303834.0 224260.0 0
307639.0 223278.0 0
311814.0 222025.0 0
182684.0 230172.0 0
183824.0 226350.0 0
187310.0 228923.0 0
192243.0 229314.0 0
196417.0 230836.0 0
200504.0 227641.0 0
204545.0 229830.0 0
208967.0 226492.0 0
217445.0 225849.0 0
213756.0 228942.0 0
217883.0 229655.0 0
222041.0 227559.0 0
228234.0 226645.0 0
232256.0 225980.0 0
230219.0 229204.0 0
234361.0 229729.0 0
237330.0 225498.0 0
238937.0 229721.0 0
241449.0 227096.0 0
242996.0 230147.0 0
249817.0 225362.0 0
245435.0 226740.0 0
249030.0 228939.0 0
253786.0 229052.0 0
258605.0 225460.0 0
263006.0 228923.0 0
267440.0 227920.0 0
271595.0 229432.0 0
276840.0 229253.0 0
285888.0 226815.0 0
281424.0 229143.0 0
291177.0 228947.0 0
294890.0 226307.0 0
299258.0 228732.0 0
304078.0 229898.0 0
308496.0 226894.0 0
313688.0 228976.0 0
186106.0 234132.0 0
190330.0 233305.0 0
194070.0 235137.0 0
200377.0 231390.0 0
202827.0 233771.0 0
209503.0 231689.0 0
215619.0 232813.0 0
220773.0 232545.0 0
226049.0 230737.0 0
230939.0 232926.0 0
236640.0 233146.0 0
240834.0 233618.0 0
246206.0 230623.0 0
245035.0 233728.0 0
249819.0 233535.0 0
254896.0 234151.0 0
258577.0 231033.0 0
262667.0 233427.0 0
267262.0 231209.0 0
266616.0 234621.0 0
270265.0 233507.0 0
274343.0 233099.0 0
279629.0 233004.0 0
284380.0 232103.0 0
288287.0 231212.0 0
291772.0 232851.0 0
295331.0 231065.0 0
294847.0 236274.0 0
299860.0 233416.0 0
304791.0 235084.0 0
308792.0 231798.0 0
308853.0 235852.0 0
312614.0 234397.0 0
185320.0 238574.0 0
190656.0 239280.0 0
195577.0 238983.0 0
198801.0 235664.0 0
202536.0 239043.0 0
206380.0 235694.0 0
207813.0 240238.0 0
211993.0 236216.0 0
217583.0 236886.0 0
221399.0 240266.0 0
222675.0 236343.0 0
226901.0 235667.0 0
225115.0 239183.0 0
228710.0 240192.0 0
230755.0 237199.0 0
234259.0 236052.0 0
238521.0 237934.0 0
243071.0 236990.0 0
247135.0 237658.0 0
251981.0 238039.0 0
259084.0 235522.0 0
256130.0 237444.0 0
255173.0 240141.0 0
259037.0 239533.0 0
263160.0 238130.0 0
268176.0 237978.0 0
272263.0 236753.0 0
274988.0 239908.0 0
276612.0 236134.0 0
279998.0 236599.0 0
278384.0 238922.0 0
281407.0 239647.0 0
283656.0 236180.0 0
288572.0 235428.0 0
290899.0 240076.0 0
300397.0 238923.0 0
305400.0 239372.0 0
309362.0 239809.0 0
193338.0 244795.0 0
198293.0 242694.0 0
203583.0 243635.0 0
209947.0 244984.0 0
213118.0 240663.0 0
217312.0 241032.0 0
215406.0 244468.0 0
219772.0 243920.0 0
225430.0 244216.0 0
233710.0 240652.0 0
230899.0 243641.0 0
237491.0 242113.0 0
234718.0 245313.0 0
238851.0 245277.0 0
243041.0 241932.0 0
248966.0 241820.0 0
252911.0 241932.0 0
257155.0 244111.0 0
261905.0 242598.0 0
264504.0 245344.0 0
266012.0 241901.0 0
270574.0 241258.0 0
268485.0 245562.0 0
273899.0 245103.0 0
278428.0 242005.0 0
285840.0 239902.0 0
282315.0 243322.0 0
286766.0 244517.0 0
291027.0 244324.0 0
295897.0 241885.0 0
303625.0 242875.0 0
307529.0 243848.0 0
311223.0 245630.0 0
199577.0 247432.0 0
205315.0 246977.0 0
208398.0 250377.0 0
211853.0 248842.0 0
214843.0 248555.0 0
218703.0 247568.0 0
221776.0 246667.0 0
222294.0 249639.0 0
226265.0 249817.0 0
230330.0 247547.0 0
234138.0 249907.0 0
237864.0 248624.0 0
242435.0 247692.0 0
246721.0 245829.0 0
248685.0 249068.0 0
245542.0 249636.0 0
251889.0 246095.0 0
256446.0 249951.0 0
261326.0 246735.0 0
265590.0 249278.0 0
270803.0 250168.0 0
278717.0 245797.0 0
276252.0 250159.0 0
282577.0 248821.0 0
289286.0 248880.0 0
294407.0 246379.0 0
294836.0 249809.0 0
300048.0 246105.0 0
298115.0 250025.0 0
203096.0 250872.0 0
206915.0 254695.0 0
212472.0 251889.0 0
210958.0 254884.0 0
215088.0 251939.0 0
218855.0 252002.0 0
223186.0 253477.0 0
227015.0 254217.0 0
230276.0 252111.0 0
233505.0 254521.0 0
237302.0 252679.0 0
240405.0 251327.0 0
243744.0 252483.0 0
240817.0 255595.0 0
247381.0 252706.0 0
249946.0 255750.0 0
251626.0 251571.0 0
254319.0 255280.0 0
258733.0 255257.0 0
261352.0 250816.0 0
263776.0 254342.0 0
267864.0 253735.0 0
271404.0 255631.0 0
273513.0 253046.0 0
279049.0 252751.0 0
285686.0 251694.0 0
282126.0 255188.0 0
292352.0 252350.0 0
296736.0 254125.0 0
202953.0 255925.0 0
201543.0 259436.0 0
208167.0 258595.0 0
204666.0 259431.0 0
212299.0 258677.0 0
215180.0 255443.0 0
216270.0 259875.0 0
220157.0 257169.0 0
225125.0 258099.0 0
227892.0 259900.0 0
230125.0 257029.0 0
234142.0 259143.0 0
236974.0 256291.0 0
238670.0 259940.0 0
242430.0 259527.0 0
245303.0 256702.0 0
248361.0 259923.0 0
252276.0 259323.0 0
259194.0 259475.0 0
255933.0 259045.0 0
262325.0 258148.0 0
266985.0 259073.0 0
276012.0 255990.0 0
271636.0 259809.0 0
275194.0 260333.0 0
279903.0 260194.0 0
284719.0 259673.0 0
288163.0 255617.0 0
292969.0 258169.0 0
297775.0 258369.0 0
302750.0 259208.0 0
202476.0 262570.0 0
206385.0 263055.0 0
209072.0 265893.0 0
213933.0 262354.0 0
210348.0 262162.0 0
212654.0 265576.0 0
218962.0 261821.0 0
216707.0 264422.0 0
222663.0 261876.0 0
219890.0 264754.0 0
226776.0 263122.0 0
230369.0 261287.0 0
233238.0 262827.0 0
230402.0 265262.0 0
234526.0 266138.0 0
235917.0 262309.0 0
238587.0 264018.0 0
241495.0 262192.0 0
242642.0 265613.0 0
245259.0 262122.0 0
249849.0 263030.0 0
247616.0 265917.0 0
253646.0 262905.0 0
257763.0 262952.0 0
262577.0 262341.0 0
264213.0 265628.0 0
265898.0 263361.0 0
268549.0 263253.0 0
271270.0 263625.0 0
273641.0 262973.0 0
276822.0 264155.0 0
280372.0 264973.0 0
283891.0 263719.0 0
288410.0 261929.0 0
290149.0 265755.0 0
293197.0 263177.0 0
297330.0 261988.0 0
297932.0 265377.0 0
304194.0 264978.0 0
202409.0 266197.0 0
202295.0 269628.0 0
205722.0 266609.0 0
208197.0 268545.0 0
205547.0 269547.0 0
209000.0 270877.0 0
211101.0 268762.0 0
219024.0 267438.0 0
215370.0 268452.0 0
218533.0 271061.0 0
223366.0 266501.0 0
221203.0 269710.0 0
224472.0 271000.0 0
227456.0 267611.0 0
231135.0 268897.0 0
234617.0 270196.0 0
238454.0 267983.0 0
241723.0 269931.0 0
244981.0 268732.0 0
248005.0 270057.0 0
251699.0 266228.0 0
250641.0 268773.0 0
253760.0 271018.0 0
255479.0 266965.0 0
260181.0 266832.0 0
257602.0 269721.0 0
264198.0 269450.0 0
260515.0 271164.0 0
266909.0 266036.0 0
270135.0 267101.0 0
267685.0 269230.0 0
270076.0 270722.0 0
273494.0 266334.0 0
273229.0 270305.0 0
277394.0 268668.0 0
282182.0 268762.0 0
286627.0 266971.0 0
289591.0 270704.0 0
294641.0 267332.0 0
291565.0 268076.0 0
293755.0 271113.0 0
297980.0 268798.0 0
197681.0 277139.0 0
202322.0 272905.0 0
206015.0 272928.0 0
212338.0 271561.0 0
209773.0 274328.0 0
214013.0 275898.0 0
215495.0 272359.0 0
218286.0 274763.0 0
221423.0 273075.0 0
228266.0 271631.0 0
224750.0 275569.0 0
228619.0 275805.0 0
232163.0 273503.0 0
237959.0 271812.0 0
235888.0 273972.0 0
238047.0 275487.0 0
241010.0 273845.0 0
245182.0 272903.0 0
248392.0 276192.0 0
250116.0 272544.0 0
253012.0 276078.0 0
257521.0 272588.0 0
259862.0 274448.0 0
255753.0 274383.0 0
263569.0 274404.0 0
267084.0 272470.0 0
270329.0 274693.0 0
274224.0 273755.0 0
277797.0 272626.0 0
280308.0 276248.0 0
281431.0 272942.0 0
285634.0 272494.0 0
283955.0 276353.0 0
290586.0 275006.0 0
287357.0 276581.0 0
294272.0 274360.0 0
297524.0 271941.0 0
297657.0 275409.0 0
202680.0 276474.0 0
202499.0 279937.0 0
206447.0 276837.0 0
206123.0 280094.0 0
210552.0 278948.0 0
216844.0 279780.0 0
220993.0 276995.0 0
221865.0 280110.0 0
228975.0 279307.0 0
225484.0 280384.0 0
232323.0 277973.0 0
235232.0 276769.0 0
238122.0 279965.0 0
240849.0 277103.0 0
243862.0 277093.0 0
242332.0 280243.0 0
246189.0 280308.0 0
250670.0 280339.0 0
257687.0 276258.0 0
255811.0 279659.0 0
261203.0 278509.0 0
266696.0 276244.0 0
269177.0 279062.0 0
265117.0 279780.0 0
273337.0 278232.0 0
276723.0 276862.0 0
277810.0 279896.0 0
284589.0 279786.0 0
281068.0 279783.0 0
287994.0 279815.0 0
294485.0 277185.0 0
291509.0 278855.0 0
294536.0 280011.0 0
297581.0 278775.0 0
201785.0 282860.0 0
202929.0 286009.0 0
204909.0 282780.0 0
208513.0 282714.0 0
206865.0 285375.0 0
212903.0 282919.0 0
210287.0 286011.0 0
216611.0 285309.0 0
220407.0 283728.0 0
224174.0 284124.0 0
227893.0 284601.0 0
233884.0 281589.0 0
230357.0 282141.0 0
231882.0 285506.0 0
235924.0 285797.0 0
243181.0 283371.0 0
239877.0 284222.0 0
247238.0 283708.0 0
253880.0 283131.0 0
250572.0 285456.0 0
259566.0 282838.0 0
256415.0 285438.0 0
263405.0 283520.0 0
267696.0 284301.0 0
275650.0 281509.0 0
272020.0 282769.0 0
272895.0 286485.0 0
279263.0 283574.0 0
276057.0 284757.0 0
282849.0 282732.0 0
283032.0 286233.0 0
286571.0 283699.0 0
290693.0 282382.0 0
290008.0 285386.0 0
293664.0 282658.0 0
293611.0 285790.0 0
297406.0 282267.0 0
297398.0 285596.0 0
196515.0 290772.0 0
202220.0 289254.0 0
207046.0 287981.0 0
205117.0 289123.0 0
206878.0 292003.0 0
213762.0 287810.0 0
209874.0 289594.0 0
218241.0 288046.0 0
216768.0 290692.0 0
221988.0 288051.0 0
220111.0 291753.0 0
225771.0 287652.0 0
227429.0 291290.0 0
230226.0 288606.0 0
233474.0 288485.0 0
232610.0 291496.0 0
238324.0 288969.0 0
235562.0 290105.0 0
240989.0 287402.0 0
244694.0 286868.0 0
242784.0 290525.0 0
248158.0 289054.0 0
245636.0 291905.0 0
253458.0 287963.0 0
251973.0 290587.0 0
259917.0 287573.0 0
256894.0 289668.0 0
262672.0 286706.0 0
262303.0 290744.0 0
265934.0 288502.0 0
269182.0 291005.0 0
270279.0 287803.0 0
272407.0 290195.0 0
279512.0 287265.0 0
275911.0 288418.0 0
280548.0 290289.0 0
283653.0 289443.0 0
286593.0 287495.0 0
290134.0 289465.0 0
294779.0 289499.0 0
298341.0 288305.0 0
297923.0 290886.0 0
303051.0 290104.0 0
195692.0 295690.0 0
202869.0 292391.0 0
202895.0 296088.0 0
206330.0 295282.0 0
212725.0 292570.0 0
209871.0 294728.0 0
216382.0 294695.0 0
223976.0 292406.0 0
219674.0 295084.0 0
227027.0 295469.0 0
230366.0 294360.0 0
233789.0 296538.0 0
235924.0 293332.0 0
239651.0 292211.0 0
237903.0 295733.0 0
239695.0 295500.0 0
243094.0 295480.0 0
249815.0 293027.0 0
246955.0 295127.0 0
249615.0 295864.0 0
254278.0 292189.0 0
252416.0 294712.0 0
259040.0 292575.0 0
255922.0 295290.0 0
260111.0 296764.0 0
263087.0 294310.0 0
265984.0 292140.0 0
270005.0 294191.0 0
266561.0 295328.0 0
273332.0 293266.0 0
273950.0 296688.0 0
277163.0 292330.0 0
280262.0 294747.0 0
276942.0 296736.0 0
282343.0 292684.0 0
284525.0 295084.0 0
286410.0 291899.0 0
289493.0 294758.0 0
286658.0 296904.0 0
293410.0 293471.0 0
297776.0 293517.0 0
297080.0 296825.0 0
201940.0 299445.0 0
202002.0 301989.0 0
208380.0 297965.0 0
205296.0 299217.0 0
208858.0 301313.0 0
205490.0 302189.0 0
213575.0 297097.0 0
211259.0 298569.0 0
211717.0 301020.0 0
217570.0 298106.0 0
215133.0 300570.0 0
218540.0 302029.0 0
223456.0 297041.0 0
220235.0 299646.0 0
228547.0 298339.0 0
225399.0 301738.0 0
231561.0 299536.0 0
237153.0 298810.0 0
234963.0 301013.0 0
239144.0 302023.0 0
240446.0 297961.0 0
244545.0 299292.0 0
241772.0 300339.0 0
247610.0 298118.0 0
249397.0 301360.0 0
251363.0 297879.0 0
255053.0 299416.0 0
258614.0 301296.0 0
263737.0 298024.0 0
262184.0 300961.0 0
267578.0 299359.0 0
271125.0 297857.0 0
274355.0 299979.0 0
271871.0 300746.0 0
278515.0 300509.0 0
281995.0 297723.0 0
284651.0 300003.0 0
290495.0 298601.0 0
287968.0 300654.0 0
293622.0 297870.0 0
294685.0 300916.0 0
291907.0 301485.0 0
297692.0 300102.0 0
202162.0 304610.0 0
202057.0 307271.0 0
209086.0 304456.0 0
205632.0 305615.0 0
211664.0 303550.0 0
213480.0 306875.0 0
214669.0 303891.0 0
217555.0 304655.0 0
221558.0 303205.0 0
220693.0 306965.0 0
229293.0 302398.0 0
227957.0 306399.0 0
224473.0 306918.0 0
232495.0 303192.0 0
231548.0 307038.0 0
236416.0 304060.0 0
235091.0 307185.0 0
242504.0 303476.0 0
239904.0 306175.0 0
243151.0 306361.0 0
245984.0 302926.0 0
246999.0 307022.0 0
253026.0 303354.0 0
250701.0 306082.0 0
255590.0 305695.0 0
258864.0 304812.0 0
264851.0 302154.0 0
262076.0 304180.0 0
263463.0 306457.0 0
269491.0 302769.0 0
266201.0 305009.0 0
273409.0 303033.0 0
271546.0 306003.0 0
276569.0 304034.0 0
278908.0 306030.0 0
281762.0 302808.0 0
285017.0 302973.0 0
282043.0 306076.0 0
288566.0 303091.0 0
286036.0 305204.0 0
289033.0 306865.0 0
295030.0 303647.0 0
291762.0 304541.0 0
298152.0 302537.0 0
298005.0 304907.0 0
202753.0 310211.0 0
206458.0 309169.0 0
210154.0 307726.0 0
211275.0 311037.0 0
216964.0 308034.0 0
214433.0 310685.0 0
217827.0 311717.0 0
221067.0 311299.0 0
224848.0 310939.0 0
227838.0 310840.0 0
231451.0 311379.0 0
237202.0 309267.0 0
239761.0 311205.0 0
234748.0 312088.0 0
241827.0 309257.0 0
244706.0 310439.0 0
249675.0 310579.0 0
252384.0 308811.0 0
253691.0 311679.0 0
260143.0 307830.0 0
255773.0 308811.0 0
258585.0 311332.0 0
263564.0 309640.0 0
261916.0 312066.0 0
268278.0 307669.0 0
266889.0 310971.0 0
270392.0 312047.0 0
274739.0 307371.0 0
271354.0 309231.0 0
273877.0 310726.0 0
277806.0 308481.0 0
277354.0 311195.0 0
280167.0 312411.0 0
280835.0 309496.0 0
285003.0 308428.0 0
283698.0 311094.0 0
288246.0 309475.0 0
287186.0 312099.0 0
293278.0 308181.0 0
291419.0 310754.0 0
294645.0 311998.0 0
296808.0 307857.0 0
297971.0 310797.0 0
196497.0 315636.0 0
202496.0 313273.0 0
201803.0 315872.0 0
207702.0 312506.0 0
205487.0 314506.0 0
210902.0 314905.0 0
214923.0 314247.0 0
217971.0 315177.0 0
221496.0 315139.0 0
225168.0 314473.0 0
227759.0 314168.0 0
227125.0 316972.0 0
230562.0 314857.0 0
233411.0 316340.0 0
237609.0 313467.0 0
235987.0 315996.0 0
240752.0 314464.0 0
243747.0 313879.0 0
247458.0 312704.0 0
248608.0 315780.0 0
245334.0 317127.0 0
251497.0 313618.0 0
253735.0 316569.0 0
255917.0 313436.0 0
259395.0 314914.0 0
257381.0 316448.0 0
262562.0 315550.0 0
265856.0 314473.0 0
268095.0 317614.0 0
270910.0 315375.0 0
274152.0 314482.0 0
277410.0 315271.0 0
282592.0 314112.0 0
280720.0 317087.0 0
285764.0 315019.0 0
289201.0 316481.0 0
290573.0 313412.0 0
293809.0 314691.0 0
292472.0 317342.0 0
297733.0 313354.0 0
297127.0 316310.0 0
303399.0 316006.0 0
202499.0 318450.0 0
201977.0 321387.0 0
209132.0 317688.0 0
205816.0 317610.0 0
205431.0 321377.0 0
208896.0 321436.0 0
214244.0 317680.0 0
212209.0 320063.0 0
214039.0 322325.0 0
217330.0 318697.0 0
217355.0 322237.0 0
220307.0 318195.0 0
222546.0 320201.0 0
220647.0 322572.0 0
224606.0 317858.0 0
229466.0 317743.0 0
226317.0 320292.0 0
228268.0 320140.0 0
232529.0 319630.0 0
229878.0 322089.0 0
239033.0 318400.0 0
235960.0 320643.0 0
242693.0 318690.0 0
240458.0 322109.0 0
243580.0 322098.0 0
246879.0 320797.0 0
250577.0 319314.0 0
255114.0 319569.0 0
258472.0 319683.0 0
256990.0 322601.0 0
262045.0 319271.0 0
265797.0 320273.0 0
268764.0 322150.0 0
273191.0 318256.0 0
271255.0 320639.0 0
274335.0 322066.0 0
275877.0 318872.0 0
279271.0 320869.0 0
284220.0 318748.0 0
282677.0 322010.0 0
287673.0 319776.0 0
290493.0 321976.0 0
287348.0 322727.0 0
290908.0 320245.0 0
294008.0 319925.0 0
297803.0 319402.0 0
297992.0 321916.0 0
202012.0 323839.0 0
201317.0 325882.0 0
205410.0 324124.0 0
204456.0 326720.0 0
207545.0 327264.0 0
209376.0 324635.0 0
212554.0 324983.0 0
217138.0 325497.0 0
215287.0 327429.0 0
219616.0 326927.0 0
222436.0 325601.0 0
225282.0 323105.0 0
227972.0 324608.0 0
226930.0 327808.0 0
232461.0 323517.0 0
231110.0 326663.0 0
235980.0 324276.0 0
239425.0 324643.0 0
244146.0 325099.0 0
241389.0 327367.0 0
247866.0 324369.0 0
252653.0 323505.0 0
250543.0 327098.0 0
258709.0 324807.0 0
255177.0 327274.0 0
261528.0 323792.0 0
265015.0 324069.0 0
262026.0 327680.0 0
268197.0 324016.0 0
269341.0 326564.0 0
265803.0 327202.0 0
271841.0 324615.0 0
273892.0 326580.0 0
276810.0 323042.0 0
280553.0 324912.0 0
277297.0 326349.0 0
284611.0 323654.0 0
282430.0 326424.0 0
285440.0 326429.0 0
290580.0 324002.0 0
288386.0 325544.0 0
294001.0 323285.0 0
293095.0 327205.0 0
297910.0 324296.0 0
297151.0 327050.0 0
197463.0 328655.0 0
201903.0 328093.0 0
202057.0 330550.0 0
205814.0 330525.0 0
212443.0 328416.0 0
209940.0 328447.0 0
212881.0 331735.0 0
209449.0 331843.0 0
219105.0 329452.0 0
216313.0 330429.0 0
224313.0 328058.0 0
221606.0 330101.0 0
224176.0 331336.0 0
220033.0 332439.0 0
229545.0 330085.0 0
226608.0 331299.0 0
233585.0 331455.0 0
234958.0 328102.0 0
238166.0 328802.0 0
237918.0 331592.0 0
244770.0 330508.0 0
241551.0 331425.0 0
245399.0 328104.0 0
247957.0 327937.0 0
249245.0 331055.0 0
246507.0 331836.0 0
251661.0 329189.0 0
254339.0 330623.0 0
252255.0 332656.0 0
258822.0 328414.0 0
258964.0 331522.0 0
263086.0 330429.0 0
270184.0 329346.0 0
266388.0 330383.0 0
270137.0 332010.0 0
272957.0 329203.0 0
275035.0 331917.0 0
278158.0 329776.0 0
279987.0 332520.0 0
281289.0 328687.0 0
283648.0 329953.0 0
283166.0 332674.0 0
286591.0 329305.0 0
289986.0 328646.0 0
290374.0 332068.0 0
287002.0 332566.0 0
294177.0 330192.0 0
293553.0 332602.0 0
297715.0 329917.0 0
297284.0 332731.0 0
202302.0 333201.0 0
203339.0 336406.0 0
205856.0 333977.0 0
209027.0 335275.0 0
214048.0 334347.0 0
211828.0 336310.0 0
217259.0 333463.0 0
218039.0 336299.0 0
221570.0 333742.0 0
224548.0 334529.0 0
220639.0 336352.0 0
223383.0 337615.0 0
229533.0 333576.0 0
227214.0 334794.0 0
227954.0 337425.0 0
232324.0 335350.0 0
230345.0 337693.0 0
236156.0 332903.0 0
239483.0 334358.0 0
234972.0 335309.0 0
237281.0 335327.0 0
236162.0 337633.0 0
238823.0 338008.0 0
243500.0 334524.0 0
241445.0 337121.0 0
246271.0 335310.0 0
249537.0 335314.0 0
252630.0 335374.0 0
256134.0 333084.0 0
255855.0 336626.0 0
259715.0 336641.0 0
261839.0 333723.0 0
264651.0 336403.0 0
267093.0 333897.0 0
269695.0 336809.0 0
272210.0 333790.0 0
273696.0 336014.0 0
276617.0 335117.0 0
279350.0 335465.0 0
275793.0 337892.0 0
279061.0 337975.0 0
283394.0 336276.0 0
290254.0 335396.0 0
287078.0 336231.0 0
293479.0 335693.0 0
297421.0 335531.0 0
201730.0 339286.0 0
201901.0 341328.0 0
206458.0 339037.0 0
206562.0 342554.0 0
210109.0 339177.0 0
212164.0 340980.0 0
214733.0 338108.0 0
214893.0 342891.0 0
218022.0 340774.0 0
221065.0 340490.0 0
226003.0 340027.0 0
228865.0 341482.0 0
234212.0 338796.0 0
231522.0 340503.0 0
238283.0 340231.0 0
235859.0 341954.0 0
243119.0 339530.0 0
240413.0 341660.0 0
245953.0 338678.0 0
248433.0 340382.0 0
250844.0 338293.0 0
253603.0 339312.0 0
251001.0 342130.0 0
253949.0 342439.0 0
257429.0 340132.0 0
257158.0 343017.0 0
260149.0 342642.0 0
260906.0 339699.0 0
264533.0 339558.0 0
264782.0 342819.0 0
267974.0 339392.0 0
269130.0 341950.0 0
272652.0 338723.0 0
272513.0 341967.0 0
277284.0 339831.0 0
275805.0 341995.0 0
280182.0 341944.0 0
282301.0 339675.0 0
285273.0 341431.0 0
290691.0 338700.0 0
288046.0 339813.0 0
289770.0 343063.0 0
293375.0 339011.0 0
292410.0 342317.0 0
297362.0 338239.0 0
296991.0 341300.0 0
202602.0 343649.0 0
202843.0 346434.0 0
208022.0 345981.0 0
205685.0 347756.0 0
210958.0 343768.0 0
212862.0 346687.0 0
218883.0 344765.0 0
215938.0 346058.0 0
219346.0 347983.0 0
224107.0 343256.0 0
221661.0 345580.0 0
226954.0 345495.0 0
229533.0 344462.0 0
225535.0 348203.0 0
229051.0 348007.0 0
233005.0 344582.0 0
231149.0 347976.0 0
238349.0 344639.0 0
235782.0 347823.0 0
243540.0 343440.0 0
241348.0 346471.0 0
246892.0 344004.0 0
246409.0 347675.0 0
250079.0 345483.0 0
253150.0 346463.0 0
256679.0 347120.0 0
262566.0 344999.0 0
264970.0 347260.0 0
260287.0 347811.0 0
267406.0 343882.0 0
269846.0 345570.0 0
267454.0 346869.0 0
272778.0 345611.0 0
277953.0 344238.0 0
275779.0 347217.0 0
282322.0 344424.0 0
285407.0 344451.0 0
280719.0 346711.0 0
282947.0 348333.0 0
286545.0 347642.0 0
290294.0 346575.0 0
293629.0 347303.0 0
296372.0 344549.0 0
298124.0 347565.0 0
202091.0 349169.0 0
202162.0 351457.0 0
205326.0 350401.0 0
207927.0 350812.0 0
208661.0 352874.0 0
205635.0 353214.0 0
210180.0 348959.0 0
212407.0 351524.0 0
214569.0 349808.0 0
217217.0 349328.0 0
217966.0 353161.0 0
222696.0 349041.0 0
220928.0 351705.0 0
227985.0 350435.0 0
225792.0 352003.0 0
232997.0 350568.0 0
230203.0 351798.0 0
239468.0 349977.0 0
244097.0 348322.0 0
243262.0 351215.0 0
248735.0 349501.0 0
245955.0 351078.0 0
251916.0 350024.0 0
253619.0 352315.0 0
256223.0 350796.0 0
258119.0 352471.0 0
264727.0 349596.0 0
261678.0 350994.0 0
268733.0 349240.0 0
265976.0 350485.0 0
268782.0 351986.0 0
271330.0 348679.0 0
273069.0 350756.0 0
271478.0 353227.0 0
275196.0 352141.0 0
278195.0 349878.0 0
279165.0 353431.0 0
281856.0 350941.0 0
283766.0 352308.0 0
290289.0 349935.0 0
286694.0 351022.0 0
294191.0 350351.0 0
291506.0 352400.0 0
298178.0 349628.0 0
297330.0 352057.0 0
302895.0 348857.0 0
202651.0 354014.0 0
202523.0 356795.0 0
207559.0 355041.0 0
205927.0 357070.0 0
210754.0 353645.0 0
210634.0 356518.0 0
213802.0 356063.0 0
214939.0 353470.0 0
218743.0 356865.0 0
215883.0 358028.0 0
222938.0 353822.0 0
221173.0 356240.0 0
224408.0 356504.0 0
227119.0 354769.0 0
229768.0 354870.0 0
232674.0 356317.0 0
234701.0 353567.0 0
238106.0 353495.0 0
236903.0 358040.0 0
243617.0 354092.0 0
240833.0 355650.0 0
248590.0 353267.0 0
246194.0 356101.0 0
251222.0 355249.0 0
253448.0 357603.0 0
255573.0 354830.0 0
259525.0 354486.0 0
257548.0 356304.0 0
263494.0 353751.0 0
262073.0 357131.0 0
266641.0 354035.0 0
268115.0 357417.0 0
272243.0 357135.0 0
275630.0 354689.0 0
280490.0 355813.0 0
277406.0 357030.0 0
283731.0 354707.0 0
282443.0 357658.0 0
288322.0 353594.0 0
286237.0 356536.0 0
289998.0 357517.0 0
292940.0 354923.0 0
296586.0 355163.0 0
297052.0 358270.0 0
202451.0 359622.0 0
202328.0 362293.0 0
206328.0 360539.0 0
209942.0 359847.0 0
213264.0 359958.0 0
210883.0 363321.0 0
215902.0 361665.0 0
219058.0 361283.0 0
221156.0 359157.0 0
224046.0 359451.0 0
221456.0 361651.0 0
224548.0 362334.0 0
227627.0 358430.0 0
229578.0 359866.0 0
227789.0 362712.0 0
232314.0 360589.0 0
235789.0 361280.0 0
239010.0 362457.0 0
241119.0 359133.0 0
244417.0 358814.0 0
241978.0 362454.0 0
244610.0 362533.0 0
248753.0 358101.0 0
246011.0 360908.0 0
248866.0 361620.0 0
251027.0 359305.0 0
254998.0 360730.0 0
252210.0 362693.0 0
258967.0 358903.0 0
259194.0 362920.0 0
262539.0 360757.0 0
265124.0 359052.0 0
263143.0 362915.0 0
268415.0 361117.0 0
265897.0 362442.0 0
268208.0 363470.0 0
271555.0 361740.0 0
275619.0 358899.0 0
274216.0 363464.0 0
276908.0 361507.0 0
279434.0 359171.0 0
279273.0 363636.0 0
284771.0 359877.0 0
281886.0 361390.0 0
284239.0 363415.0 0
287585.0 361537.0 0
290231.0 362501.0 0
292698.0 359504.0 0
294373.0 362301.0 0
297594.0 361327.0 0
298224.0 363788.0 0
202961.0 365045.0 0
203043.0 367874.0 0
206200.0 363762.0 0
207518.0 368397.0 0
208750.0 365820.0 0
212896.0 367848.0 0
214409.0 364664.0 0
217480.0 365800.0 0
218048.0 368343.0 0
219833.0 364405.0 0
223229.0 365842.0 0
229387.0 368763.0 0
226166.0 367632.0 0
229415.0 365184.0 0
232002.0 364608.0 0
232117.0 368340.0 0
235488.0 365300.0 0
239126.0 365955.0 0
242285.0 365881.0 0
245286.0 364750.0 0
247933.0 365015.0 0
246715.0 367866.0 0
249676.0 368895.0 0
251691.0 366047.0 0
254749.0 367076.0 0
255776.0 364447.0 0
257538.0 367672.0 0
260231.0 366296.0 0
263108.0 365369.0 0
265574.0 365908.0 0
268066.0 366283.0 0
270196.0 365091.0 0
272123.0 366809.0 0
274759.0 367992.0 0
275713.0 365958.0 0
278456.0 366410.0 0
282240.0 364650.0 0
280659.0 368056.0 0
283220.0 366832.0 0
284824.0 368488.0 0
286116.0 364599.0 0
288162.0 366566.0 0
294000.0 365439.0 0
291099.0 365638.0 0
297264.0 366450.0 0
302910.0 365381.0 0
202752.0 370931.0 0
205790.0 370828.0 0
203862.0 373572.0 0
209589.0 371449.0 0
212753.0 372339.0 0
215882.0 370156.0 0
218500.0 372789.0 0
220710.0 368553.0 0
224001.0 370507.0 0
221348.0 371442.0 0
226048.0 371987.0 0
229457.0 372298.0 0
232376.0 372457.0 0
235026.0 369012.0 0
238565.0 369064.0 0
235489.0 372644.0 0
238206.0 372759.0 0
243605.0 368934.0 0
240612.0 371045.0 0
245579.0 371903.0 0
248965.0 372633.0 0
252206.0 369753.0 0
254304.0 370461.0 0
252399.0 373364.0 0
259386.0 370057.0 0
256353.0 371997.0 0
257641.0 370091.0 0
258722.0 373646.0 0
261961.0 368987.0 0
264617.0 368932.0 0
265112.0 371638.0 0
261118.0 372338.0 0
268773.0 368650.0 0
267103.0 369636.0 0
267408.0 372127.0 0
269762.0 372605.0 0
271152.0 369701.0 0
274078.0 370396.0 0
272077.0 374004.0 0
274508.0 373227.0 0
276982.0 369439.0 0
278872.0 371287.0 0
281612.0 371474.0 0
284117.0 371699.0 0
286743.0 371489.0 0
288850.0 369405.0 0
288303.0 373966.0 0
291632.0 370378.0 0
293938.0 369509.0 0
297771.0 372541.0 0
294804.0 373447.0 0
297283.0 369736.0 0
298928.0 376794.0 0
194824.0 381015.0 0
199182.0 378862.0 0
196833.0 379901.0 0
200809.0 376172.0 0
203984.0 378865.0 0
207271.0 373798.0 0
206406.0 376999.0 0
209174.0 380202.0 0
209489.0 377174.0 0
212001.0 376198.0 0
215193.0 377625.0 0
215954.0 374395.0 0
220016.0 375407.0 0
218153.0 377784.0 0
223435.0 374535.0 0
220788.0 378932.0 0
224121.0 378433.0 0
226922.0 374806.0 0
230370.0 376769.0 0
227652.0 378040.0 0
232646.0 375837.0 0
235500.0 376156.0 0
238314.0 375790.0 0
240895.0 375174.0 0
243454.0 374153.0 0
241146.0 378317.0 0
243806.0 378109.0 0
245188.0 376359.0 0
248186.0 376773.0 0
254861.0 375228.0 0
251307.0 377051.0 0
253567.0 378550.0 0
257533.0 375922.0 0
259158.0 378873.0 0
262102.0 377640.0 0
263465.0 374282.0 0
266396.0 375344.0 0
268852.0 376548.0 0
264957.0 378938.0 0
273778.0 377202.0 0
271365.0 377694.0 0
277100.0 374490.0 0
279850.0 375511.0 0
276465.0 378468.0 0
279439.0 379075.0 0
281948.0 375211.0 0
284256.0 374845.0 0
284061.0 377695.0 0
281827.0 378787.0 0
286359.0 376110.0 0
287881.0 378666.0 0
291168.0 374192.0 0
291186.0 378043.0 0
294677.0 376862.0 0
298351.0 377874.0 0
298528.0 380821.0 0
302296.0 378502.0 0
303843.0 380655.0 0
188263.0 384257.0 0
186818.0 385473.0 0
192655.0 382002.0 0
191007.0 383771.0 0
191428.0 386215.0 0
199692.0 382154.0 0
196376.0 383746.0 0
200317.0 384072.0 0
202866.0 381826.0 0
206659.0 380968.0 0
206358.0 383721.0 0
209154.0 385031.0 0
211239.0 382767.0 0
214603.0 382806.0 0
211881.0 379586.0 0
214023.0 380321.0 0
217124.0 380584.0 0
217419.0 382834.0 0
219817.0 381370.0 0
223140.0 382295.0 0
220818.0 383638.0 0
227275.0 381952.0 0
230221.0 381952.0 0
225504.0 384112.0 0
232204.0 379912.0 0
235351.0 379550.0 0
233398.0 383647.0 0
238770.0 379176.0 0
236474.0 383306.0 0
239857.0 383306.0 0
242286.0 381525.0 0
244576.0 384620.0 0
244993.0 380222.0 0
248060.0 380194.0 0
245064.0 382338.0 0
248063.0 383677.0 0
251307.0 380890.0 0
256100.0 380830.0 0
258585.0 384975.0 0
260356.0 382784.0 0
262552.0 381323.0 0
267506.0 379600.0 0
264751.0 382245.0 0
268789.0 382944.0 0
271911.0 381109.0 0
275241.0 382246.0 0
278664.0 382208.0 0
283077.0 381867.0 0
280976.0 383839.0 0
285124.0 379787.0 0
288021.0 381633.0 0
285786.0 383478.0 0
289140.0 385186.0 0
292322.0 381071.0 0
291245.0 383851.0 0
295319.0 382160.0 0
297051.0 385460.0 0
301257.0 382046.0 0
300395.0 385721.0 0
303586.0 384815.0 0
306240.0 382036.0 0
308464.0 383286.0 0
308001.0 386294.0 0
305502.0 386156.0 0
310686.0 384312.0 0
312753.0 385746.0 0
178745.0 390443.0 0
182903.0 388308.0 0
185145.0 387449.0 0
180583.0 389184.0 0
182038.0 391111.0 0
184491.0 391386.0 0
189688.0 388055.0 0
187170.0 389247.0 0
187659.0 391394.0 0
195605.0 386449.0 0
193702.0 389088.0 0
191160.0 390426.0 0
198609.0 387718.0 0
197168.0 391094.0 0
199209.0 391024.0 0
201567.0 387005.0 0
203832.0 385077.0 0
202047.0 390483.0 0
204470.0 389792.0 0
205596.0 387596.0 0
208458.0 388864.0 0
212082.0 389555.0 0
213999.0 386629.0 0
216261.0 389670.0 0
217253.0 385976.0 0
220439.0 387316.0 0
223571.0 386462.0 0
225494.0 388420.0 0
228002.0 386632.0 0
228335.0 389935.0 0
230829.0 385545.0 0
233237.0 388633.0 0
236087.0 386870.0 0
238833.0 388546.0 0
241726.0 386627.0 0
243754.0 389489.0 0
246543.0 386420.0 0
247021.0 389789.0 0
251225.0 384897.0 0
250007.0 388195.0 0
254821.0 388820.0 0
254907.0 384624.0 0
257571.0 387991.0 0
260244.0 387362.0 0
262873.0 385275.0 0
264089.0 388584.0 0
266106.0 385270.0 0
267044.0 388203.0 0
270457.0 386458.0 0
273416.0 385401.0 0
273524.0 388703.0 0
276570.0 385977.0 0
275367.0 388649.0 0
279730.0 386974.0 0
283141.0 389230.0 0
284835.0 386368.0 0
287989.0 387656.0 0
290873.0 387215.0 0
292898.0 388231.0 0
291054.0 388674.0 0
293182.0 386121.0 0
294070.0 390191.0 0
296372.0 388454.0 0
297410.0 390707.0 0
299610.0 390211.0 0
301861.0 388815.0 0
304435.0 388973.0 0
309154.0 388987.0 0
306757.0 390758.0 0
310991.0 387493.0 0
311503.0 391194.0 0
314741.0 387699.0 0
317614.0 387706.0 0
319018.0 388907.0 0
314841.0 390665.0 0
318244.0 390643.0 0
320670.0 390228.0 0
175177.0 394175.0 0
171853.0 394771.0 0
177233.0 392149.0 0
178107.0 395956.0 0
180728.0 393545.0 0
181850.0 396360.0 0
185051.0 393817.0 0
190376.0 393452.0 0
187774.0 395129.0 0
193303.0 393225.0 0
195080.0 391457.0 0
191913.0 396359.0 0
194422.0 395336.0 0
198783.0 393346.0 0
196202.0 393709.0 0
197641.0 394824.0 0
202132.0 393482.0 0
205179.0 393793.0 0
201299.0 395951.0 0
207110.0 391863.0 0
209119.0 394182.0 0
211687.0 393003.0 0
214852.0 391590.0 0
213168.0 395259.0 0
215992.0 393278.0 0
218247.0 390105.0 0
218544.0 392703.0 0
222014.0 390647.0 0
220593.0 393837.0 0
224192.0 394660.0 0
225217.0 391710.0 0
227920.0 393666.0 0
230653.0 393978.0 0
230699.0 390815.0 0
235173.0 391840.0 0
238653.0 391745.0 0
242137.0 391918.0 0
249131.0 393305.0 0
245856.0 393578.0 0
252385.0 390823.0 0
253508.0 393787.0 0
256270.0 393255.0 0
256877.0 390999.0 0
258090.0 395027.0 0
259642.0 390442.0 0
263146.0 391566.0 0
260890.0 394193.0 0
267900.0 390957.0 0
266105.0 393055.0 0
270235.0 393462.0 0
271049.0 390578.0 0
273541.0 392770.0 0
276343.0 392014.0 0
278622.0 390442.0 0
277599.0 394948.0 0
280225.0 395038.0 0
281236.0 392203.0 0
283312.0 394752.0 0
288763.0 390821.0 0
285669.0 391653.0 0
285994.0 394914.0 0
291792.0 391049.0 0
290249.0 393905.0 0
293183.0 395110.0 0
295102.0 392687.0 0
297778.0 394109.0 0
300175.0 393147.0 0
302470.0 391765.0 0
303901.0 392308.0 0
302111.0 395451.0 0
304519.0 395322.0 0
307068.0 393482.0 0
310040.0 395949.0 0
310990.0 393626.0 0
313860.0 395255.0 0
316592.0 393511.0 0
317681.0 396396.0 0
319807.0 393531.0 0
322060.0 392032.0 0
324281.0 392869.0 0
321465.0 395584.0 0
326323.0 395083.0 0
329066.0 396120.0 0
164920.0 399303.0 0
163047.0 401327.0 0
167777.0 398422.0 0
169938.0 397110.0 0
166904.0 401543.0 0
172578.0 398455.0 0
175157.0 397019.0 0
172393.0 401535.0 0
177080.0 399486.0 0
180022.0 398818.0 0
175392.0 401492.0 0
179923.0 401584.0 0
184838.0 397675.0 0
182399.0 400734.0 0
188694.0 397766.0 0
185790.0 399879.0 0
187876.0 400042.0 0
190324.0 399473.0 0
192389.0 398335.0 0
195063.0 399454.0 0
195978.0 396816.0 0
198997.0 397059.0 0
198722.0 399696.0 0
200646.0 400797.0 0
205442.0 396009.0 0
202514.0 397910.0 0
202978.0 400881.0 0
204659.0 398604.0 0
207085.0 399328.0 0
208699.0 396616.0 0
210321.0 400244.0 0
211901.0 397972.0 0
216530.0 396364.0 0
215321.0 400296.0 0
219074.0 398153.0 0
220162.0 400366.0 0
220923.0 396479.0 0
223399.0 397977.0 0
227134.0 395949.0 0
225972.0 398127.0 0
229983.0 397497.0 0
233234.0 399012.0 0
234035.0 395295.0 0
236663.0 397008.0 0
239108.0 394815.0 0
237915.0 399583.0 0
240796.0 397757.0 0
243616.0 395284.0 0
244271.0 398441.0 0
246866.0 397131.0 0
249720.0 396375.0 0
253535.0 396902.0 0
252080.0 400055.0 0
256717.0 398152.0 0
259840.0 398944.0 0
264602.0 395463.0 0
262538.0 397512.0 0
264686.0 400431.0 0
266408.0 397110.0 0
268369.0 395203.0 0
267615.0 399259.0 0
270594.0 397545.0 0
273168.0 395879.0 0
274079.0 400042.0 0
275969.0 397588.0 0
278481.0 400562.0 0
280672.0 398082.0 0
283740.0 398046.0 0
288138.0 395946.0 0
286075.0 399174.0 0
289037.0 399198.0 0
290897.0 397133.0 0
292291.0 400140.0 0
297937.0 396958.0 0
294824.0 398359.0 0
300579.0 398546.0 0
302850.0 400634.0 0
307473.0 397014.0 0
304981.0 398514.0 0
308495.0 400007.0 0
306521.0 401428.0 0
312950.0 397734.0 0
311929.0 400356.0 0
315943.0 398224.0 0
316401.0 400187.0 0
318116.0 399759.0 0
319853.0 397776.0 0
323895.0 396878.0 0
323899.0 399976.0 0
321307.0 400176.0 0
326636.0 398755.0 0
329040.0 400877.0 0
331136.0 398434.0 0
333863.0 399084.0 0
336293.0 400361.0 0
153643.0 405959.0 0
158562.0 403446.0 0
156710.0 405436.0 0
160716.0 402216.0 0
164276.0 403798.0 0
160670.0 405150.0 0
169632.0 402383.0 0
166087.0 405085.0 0
168869.0 405208.0 0
172727.0 404470.0 0
171097.0 406451.0 0
176601.0 404127.0 0
179306.0 403369.0 0
175297.0 406221.0 0
184347.0 402624.0 0
180170.0 405667.0 0
182843.0 404971.0 0
187491.0 403974.0 0
189951.0 402570.0 0
186825.0 406785.0 0
190323.0 406446.0 0
192697.0 402954.0 0
193197.0 406145.0 0
196020.0 402296.0 0
197533.0 404441.0 0
200496.0 403995.0 0
204208.0 402421.0 0
202604.0 405803.0 0
206815.0 402476.0 0
205504.0 405677.0 0
209990.0 404191.0 0
213530.0 403489.0 0
218198.0 402306.0 0
222708.0 401344.0 0
221616.0 404257.0 0
225557.0 402230.0 0
228536.0 400738.0 0
225744.0 405097.0 0
228010.0 405123.0 0
230313.0 405204.0 0
231265.0 402324.0 0
233966.0 403745.0 0
235526.0 401070.0 0
239940.0 402032.0 0
238527.0 404199.0 0
242431.0 400793.0 0
244311.0 404094.0 0
246457.0 400638.0 0
249308.0 401218.0 0
250069.0 404675.0 0
252786.0 404493.0 0
254654.0 401956.0 0
257615.0 402347.0 0
259624.0 404449.0 0
260169.0 401498.0 0
262711.0 403349.0 0
268536.0 403270.0 0
271309.0 400856.0 0
273015.0 403476.0 0
276009.0 403267.0 0
278204.0 405645.0 0
281562.0 404074.0 0
282866.0 400984.0 0
285871.0 401800.0 0
285160.0 404218.0 0
288011.0 405616.0 0
289204.0 402792.0 0
292470.0 403326.0 0
291988.0 405827.0 0
297133.0 401307.0 0
295397.0 403986.0 0
299370.0 403007.0 0
303049.0 404052.0 0
306195.0 404513.0 0
304794.0 407134.0 0
308846.0 406008.0 0
309647.0 402761.0 0
313989.0 402975.0 0
312288.0 406162.0 0
317216.0 403755.0 0
320112.0 403048.0 0
323022.0 403511.0 0
324501.0 403013.0 0
321592.0 406229.0 0
326190.0 401408.0 0
330032.0 404027.0 0
325334.0 405037.0 0
327461.0 404618.0 0
332771.0 402404.0 0
334876.0 403648.0 0
331692.0 406265.0 0
334686.0 406848.0 0
338246.0 402676.0 0
340458.0 404249.0 0
343607.0 404899.0 0
345884.0 407192.0 0
149014.0 409359.0 0
147091.0 411121.0 0
151686.0 408226.0 0
153839.0 409988.0 0
157079.0 408069.0 0
162520.0 407143.0 0
160059.0 409585.0 0
162036.0 411941.0 0
165118.0 408797.0 0
168106.0 407913.0 0
169497.0 409520.0 0
165834.0 411592.0 0
172863.0 407822.0 0
172287.0 410224.0 0
177042.0 408984.0 0
179549.0 408152.0 0
175663.0 411004.0 0
178706.0 411980.0 0
184466.0 408120.0 0
181906.0 410008.0 0
189116.0 408443.0 0
188964.0 411126.0 0
192144.0 408611.0 0
195360.0 407172.0 0
192677.0 410747.0 0
198028.0 407833.0 0
195468.0 410324.0 0
200127.0 409080.0 0
203753.0 408718.0 0
208902.0 407989.0 0
205483.0 409317.0 0
215474.0 406846.0 0
212462.0 408434.0 0
215710.0 410509.0 0
218771.0 405803.0 0
218524.0 410789.0 0
223609.0 405928.0 0
220470.0 408902.0 0
223326.0 408720.0 0
225984.0 407996.0 0
228166.0 408623.0 0
231891.0 407924.0 0
235083.0 410018.0 0
236149.0 406433.0 0
238898.0 408421.0 0
241470.0 405890.0 0
242304.0 409071.0 0
245112.0 409765.0 0
246750.0 406368.0 0
250085.0 408770.0 0
252906.0 409132.0 0
254184.0 406567.0 0
256975.0 405925.0 0
255380.0 409918.0 0
258706.0 409121.0 0
261511.0 406569.0 0
263465.0 408141.0 0
265631.0 405520.0 0
267039.0 408920.0 0
274034.0 406545.0 0
270621.0 406810.0 0
272102.0 410509.0 0
276216.0 407316.0 0
274868.0 410252.0 0
278719.0 407849.0 0
277818.0 410305.0 0
280792.0 410233.0 0
282572.0 407859.0 0
285594.0 407732.0 0
285969.0 410163.0 0
287801.0 409675.0 0
290179.0 408274.0 0
293644.0 408357.0 0
296710.0 407172.0 0
300446.0 406485.0 0
302091.0 409551.0 0
304942.0 409458.0 0
308326.0 409195.0 0
307162.0 411646.0 0
314110.0 409281.0 0
311184.0 411081.0 0
317203.0 407236.0 0
316199.0 411678.0 0
319652.0 408499.0 0
323798.0 407007.0 0
320784.0 410862.0 0
323703.0 411488.0 0
328181.0 407595.0 0
326142.0 409575.0 0
330602.0 408446.0 0
334041.0 409879.0 0
331654.0 411547.0 0
337299.0 407220.0 0
338901.0 409827.0 0
336806.0 411347.0 0
340774.0 407723.0 0
343315.0 408984.0 0
340543.0 411967.0 0
343317.0 411379.0 0
348387.0 409051.0 0
346578.0 411510.0 0
350983.0 410514.0 0
353733.0 411433.0 0
142439.0 414535.0 0
139806.0 416336.0 0
144583.0 412688.0 0
148436.0 414411.0 0
146225.0 416696.0 0
151061.0 412564.0 0
151000.0 416507.0 0
153890.0 415344.0 0
155534.0 412616.0 0
158527.0 412514.0 0
159283.0 415030.0 0
156737.0 416345.0 0
163523.0 413789.0 0
161494.0 416997.0 0
168398.0 412591.0 0
165735.0 415403.0 0
167977.0 415634.0 0
171540.0 413103.0 0
171923.0 415788.0 0
174833.0 415185.0 0
175301.0 413285.0 0
177841.0 414540.0 0
181973.0 413496.0 0
184703.0 415366.0 0
185807.0 411629.0 0
186340.0 414273.0 0
189610.0 414200.0 0
192658.0 413474.0 0
194719.0 415363.0 0
197078.0 412266.0 0
197538.0 416365.0 0
199871.0 414114.0 0
201654.0 411573.0 0
204593.0 412106.0 0
204192.0 414883.0 0
208601.0 412061.0 0
207117.0 416110.0 0
210245.0 415134.0 0
212642.0 412127.0 0
212448.0 415695.0 0
216023.0 413791.0 0
218845.0 413653.0 0
218469.0 416263.0 0
221518.0 412671.0 0
224364.0 411533.0 0
222682.0 415388.0 0
227569.0 412885.0 0
230096.0 415727.0 0
231143.0 411603.0 0
232614.0 415179.0 0
233758.0 412864.0 0
237579.0 411288.0 0
236489.0 414438.0 0
240097.0 415321.0 0
240683.0 412114.0 0
243406.0 412656.0 0
244910.0 414587.0 0
248078.0 412650.0 0
251785.0 413525.0 0
254552.0 412945.0 0
257556.0 412665.0 0
258195.0 415764.0 0
261701.0 411152.0 0
261110.0 414490.0 0
263981.0 414453.0 0
264820.0 411585.0 0
267180.0 414573.0 0
269045.0 411734.0 0
271483.0 414143.0 0
273868.0 415063.0 0
275537.0 413335.0 0
276881.0 416092.0 0
278640.0 414052.0 0
284206.0 411477.0 0
281589.0 413015.0 0
283316.0 416284.0 0
288252.0 412201.0 0
286375.0 414303.0 0
291069.0 411813.0 0
294102.0 411823.0 0
291062.0 414522.0 0
294132.0 415547.0 0
297537.0 411467.0 0
297112.0 415081.0 0
299430.0 416361.0 0
301166.0 412948.0 0
303634.0 415593.0 0
305156.0 412615.0 0
307038.0 416349.0 0
309212.0 414001.0 0
313030.0 413101.0 0
311697.0 415481.0 0
314851.0 414910.0 0
318609.0 413851.0 0
324081.0 414565.0 0
321526.0 414965.0 0
326458.0 413524.0 0
328906.0 412316.0 0
328834.0 416110.0 0
333421.0 414646.0 0
336356.0 413776.0 0
338333.0 416513.0 0
340419.0 414561.0 0
343099.0 415230.0 0
344946.0 413426.0 0
347447.0 414768.0 0
349597.0 413864.0 0
351460.0 415324.0 0
353187.0 414492.0 0
356053.0 413338.0 0
358859.0 414357.0 0
355994.0 416274.0 0
360762.0 416001.0 0
363402.0 416899.0 0
133728.0 418818.0 0
131732.0 421192.0 0
136662.0 417905.0 0
136918.0 421097.0 0
141456.0 419462.0 0
144213.0 418504.0 0
144087.0 420774.0 0
140004.0 422507.0 0
147425.0 419992.0 0
149826.0 418822.0 0
151980.0 420111.0 0
153924.0 418278.0 0
151829.0 422585.0 0
157225.0 418281.0 0
155268.0 420164.0 0
159420.0 419732.0 0
156534.0 422500.0 0
162965.0 420691.0 0
164794.0 417479.0 0
166107.0 420025.0 0
169148.0 418430.0 0
174335.0 418092.0 0
171680.0 421479.0 0
177719.0 417891.0 0
175499.0 422193.0 0
178469.0 421515.0 0
181353.0 417051.0 0
183320.0 419092.0 0
181348.0 421851.0 0
185675.0 417204.0 0
188900.0 417133.0 0
185150.0 421149.0 0
188203.0 420817.0 0
192931.0 418298.0 0
195798.0 420222.0 0
198806.0 419358.0 0
201837.0 416721.0 0
204358.0 419422.0 0
207384.0 420978.0 0
209384.0 418329.0 0
215088.0 417786.0 0
211424.0 419725.0 0
217783.0 420685.0 0
220798.0 417174.0 0
220952.0 420321.0 0
224347.0 420095.0 0
225476.0 416568.0 0
227176.0 420757.0 0
228207.0 418286.0 0
231360.0 419310.0 0
234954.0 418063.0 0
238646.0 418416.0 0
241302.0 420332.0 0
243281.0 416973.0 0
243877.0 421503.0 0
246217.0 419140.0 0
248403.0 416973.0 0
251927.0 417516.0 0
250946.0 420978.0 0
254261.0 420539.0 0
255212.0 416534.0 0
256298.0 419715.0 0
259400.0 419394.0 0
264588.0 416630.0 0
262324.0 417949.0 0
264576.0 420716.0 0
267063.0 418368.0 0
268958.0 420544.0 0
270079.0 416774.0 0
271839.0 419238.0 0
274707.0 418157.0 0
277743.0 419716.0 0
280345.0 417917.0 0
282763.0 421104.0 0
288889.0 417393.0 0
285764.0 419973.0 0
289975.0 420894.0 0
292322.0 418198.0 0
293753.0 420328.0 0
296022.0 418235.0 0
299221.0 420463.0 0
302979.0 419217.0 0
305896.0 419170.0 0
308816.0 418908.0 0
307655.0 421345.0 0
311975.0 418881.0 0
315399.0 418461.0 0
318592.0 417835.0 0
315980.0 422243.0 0
319512.0 421865.0 0
321673.0 417656.0 0
324621.0 419500.0 0
322225.0 420762.0 0
325892.0 417053.0 0
328398.0 419524.0 0
327634.0 421447.0 0
332281.0 417736.0 0
331470.0 420679.0 0
336514.0 419123.0 0
335894.0 422104.0 0
341638.0 418590.0 0
343886.0 417690.0 0
340471.0 421191.0 0
343689.0 422297.0 0
344949.0 420382.0 0
346577.0 417431.0 0
348764.0 419732.0 0
351331.0 418494.0 0
353726.0 417690.0 0
353181.0 421576.0 0
357215.0 418938.0 0
360154.0 418775.0 0
355838.0 421079.0 0
360644.0 421500.0 0
364945.0 419052.0 0
363883.0 421813.0 0
367569.0 419214.0 0
369270.0 420826.0 0
368346.0 422543.0 0
371520.0 421519.0 0
121961.0 427383.0 0
125908.0 422924.0 0
124244.0 425262.0 0
127531.0 425558.0 0
129197.0 422756.0 0
131849.0 425083.0 0
131790.0 427361.0 0
134479.0 422810.0 0
135336.0 425045.0 0
138145.0 425153.0 0
142746.0 424409.0 0
139586.0 427164.0 0
142690.0 427462.0 0
146207.0 423045.0 0
147782.0 426062.0 0
149625.0 422654.0 0
153613.0 425012.0 0
150720.0 426965.0 0
159049.0 424157.0 0
155507.0 427427.0 0
162009.0 423349.0 0
162008.0 426829.0 0
164926.0 424337.0 0
167077.0 422999.0 0
168909.0 425010.0 0
164863.0 427164.0 0
171203.0 426272.0 0
173822.0 425045.0 0
177783.0 424966.0 0
184469.0 424103.0 0
181628.0 424994.0 0
187489.0 424237.0 0
186808.0 426541.0 0
191595.0 422048.0 0
194888.0 423391.0 0
190524.0 425090.0 0
193564.0 426334.0 0
197340.0 422203.0 0
197645.0 424508.0 0
200813.0 422086.0 0
204539.0 422930.0 0
202173.0 425109.0 0
209428.0 421783.0 0
206873.0 424218.0 0
209437.0 424940.0 0
211651.0 422860.0 0
214532.0 422336.0 0
212674.0 425468.0 0
215831.0 425105.0 0
218240.0 423988.0 0
221006.0 424475.0 0
224283.0 423920.0 0
226796.0 423990.0 0
229665.0 422636.0 0
233037.0 423241.0 0
235936.0 421892.0 0
239050.0 422463.0 0
236290.0 425053.0 0
238929.0 426008.0 0
242285.0 425027.0 0
245873.0 424295.0 0
248302.0 422199.0 0
250123.0 425620.0 0
253624.0 424249.0 0
257646.0 423420.0 0
261369.0 422180.0 0
261943.0 425877.0 0
268865.0 423791.0 0
265148.0 424226.0 0
272609.0 422839.0 0
274912.0 422020.0 0
275213.0 425890.0 0
277660.0 423823.0 0
280707.0 422918.0 0
284174.0 423772.0 0
282015.0 425500.0 0
287617.0 423376.0 0
291932.0 421854.0 0
290854.0 424817.0 0
294096.0 425301.0 0
296161.0 422897.0 0
299050.0 425937.0 0
301875.0 423978.0 0
305145.0 422617.0 0
309706.0 422970.0 0
306349.0 425946.0 0
309048.0 425111.0 0
312247.0 422252.0 0
313546.0 425328.0 0
316875.0 426511.0 0
323745.0 424179.0 0
320769.0 426096.0 0
325487.0 422545.0 0
327031.0 424985.0 0
329663.0 422464.0 0
329399.0 424925.0 0
325909.0 426388.0 0
333457.0 423200.0 0
332509.0 425575.0 0
336811.0 425103.0 0
339306.0 423780.0 0
343674.0 424895.0 0
341053.0 425970.0 0
346779.0 422694.0 0
349944.0 422767.0 0
347713.0 425424.0 0
350240.0 426862.0 0
352448.0 424052.0 0
354934.0 425902.0 0
356609.0 423559.0 0
359153.0 423442.0 0
360340.0 426275.0 0
363221.0 425065.0 0
365464.0 427066.0 0
366306.0 423319.0 0
368284.0 426190.0 0
370611.0 424461.0 0
373006.0 423756.0 0
375417.0 424484.0 0
372933.0 426893.0 0
375047.0 427784.0 0
377368.0 426142.0 0
379575.0 427587.0 0
112671.0 431914.0 0
115899.0 430623.0 0
118937.0 428822.0 0
119841.0 432036.0 0
122705.0 431230.0 0
124840.0 429201.0 0
128439.0 428868.0 0
132859.0 429864.0 0
132483.0 431776.0 0
135243.0 427844.0 0
137711.0 430382.0 0
134922.0 432587.0 0
141452.0 430020.0 0
143594.0 432595.0 0
145485.0 428944.0 0
148060.0 430631.0 0
151367.0 430249.0 0
154275.0 429899.0 0
158600.0 427550.0 0
156095.0 431895.0 0
159438.0 431016.0 0
162807.0 430207.0 0
167643.0 428204.0 0
165281.0 431885.0 0
174293.0 428116.0 0
170815.0 430153.0 0
173519.0 432043.0 0
177557.0 428566.0 0
181442.0 428518.0 0
184882.0 427438.0 0
183514.0 431657.0 0
189179.0 427944.0 0
186843.0 430651.0 0
190003.0 431797.0 0
191713.0 428437.0 0
192849.0 430667.0 0
196068.0 428566.0 0
199571.0 427662.0 0
196838.0 431856.0 0
204975.0 426989.0 0
202166.0 430238.0 0
205487.0 431823.0 0
207449.0 428869.0 0
210374.0 427757.0 0
213910.0 428082.0 0
210896.0 430890.0 0
213782.0 431781.0 0
217707.0 428119.0 0
217267.0 431584.0 0
224614.0 427588.0 0
221337.0 428288.0 0
220522.0 431501.0 0
223305.0 431285.0 0
226922.0 426814.0 0
229834.0 426610.0 0
226008.0 430554.0 0
228860.0 429837.0 0
233587.0 426839.0 0
232408.0 430499.0 0
236510.0 428659.0 0
239936.0 429644.0 0
235477.0 432051.0 0
243756.0 429187.0 0
247472.0 427384.0 0
249449.0 429417.0 0
251985.0 428571.0 0
257712.0 426713.0 0
255088.0 427844.0 0
256625.0 430418.0 0
259461.0 429425.0 0
264297.0 430295.0 0
266911.0 427231.0 0
269155.0 430727.0 0
271681.0 427476.0 0
274530.0 430950.0 0
279431.0 426851.0 0
277185.0 428785.0 0
279690.0 431403.0 0
281822.0 429238.0 0
285701.0 427513.0 0
288060.0 431313.0 0
289718.0 428134.0 0
292619.0 430005.0 0
296841.0 429099.0 0
302938.0 427513.0 0
300811.0 430404.0 0
304795.0 430320.0 0
308187.0 429720.0 0
311342.0 427396.0 0
312887.0 431571.0 0
316010.0 429704.0 0
318357.0 431119.0 0
320394.0 429801.0 0
324196.0 428276.0 0
321445.0 432362.0 0
323045.0 430735.0 0
329152.0 427575.0 0
327635.0 429973.0 0
333175.0 428163.0 0
332082.0 430719.0 0
336729.0 427955.0 0
340213.0 428700.0 0
336358.0 430868.0 0
339511.0 431977.0 0
345256.0 427540.0 0
344020.0 430724.0 0
348287.0 429192.0 0
347656.0 431436.0 0
350514.0 431564.0 0
352150.0 429089.0 0
354856.0 430864.0 0
357132.0 427845.0 0
358574.0 430264.0 0
361589.0 429211.0 0
364814.0 430814.0 0
370290.0 428515.0 0
368382.0 431057.0 0
372465.0 430027.0 0
375548.0 430065.0 0
372380.0 432249.0 0
378290.0 430348.0 0
380877.0 431119.0 0
382399.0 428982.0 0
384799.0 430901.0 0
387624.0 432655.0 0
106980.0 436211.0 0
104292.0 437747.0 0
110012.0 434663.0 0
113047.0 434715.0 0
110822.0 437880.0 0
113547.0 436682.0 0
116391.0 433680.0 0
117417.0 436409.0 0
120831.0 434693.0 0
124496.0 434729.0 0
128447.0 433145.0 0
131011.0 436316.0 0
134502.0 435328.0 0
137304.0 436922.0 0
139632.0 433969.0 0
141759.0 436810.0 0
147419.0 433031.0 0
144488.0 436041.0 0
147932.0 435267.0 0
151302.0 433409.0 0
154023.0 433587.0 0
151801.0 436152.0 0
156325.0 435423.0 0
159293.0 434670.0 0
157939.0 437364.0 0
159378.0 437896.0 0
161872.0 433325.0 0
163371.0 434301.0 0
161338.0 436262.0 0
168260.0 433837.0 0
164940.0 436249.0 0
173053.0 434509.0 0
171024.0 435184.0 0
173024.0 437487.0 0
176754.0 432484.0 0
179977.0 432933.0 0
176064.0 435900.0 0
178616.0 435772.0 0
180858.0 435468.0 0
183984.0 434900.0 0
186827.0 434151.0 0
187714.0 437227.0 0
194059.0 433748.0 0
190485.0 435037.0 0
199692.0 433662.0 0
195772.0 437067.0 0
203221.0 434887.0 0
208901.0 432195.0 0
207013.0 435817.0 0
211732.0 436063.0 0
216152.0 435831.0 0
219370.0 434152.0 0
222799.0 434836.0 0
226606.0 434232.0 0
230216.0 433392.0 0
233335.0 435592.0 0
239263.0 433153.0 0
236855.0 436174.0 0
242964.0 434042.0 0
247153.0 432519.0 0
250812.0 432404.0 0
253777.0 431776.0 0
253753.0 434767.0 0
250922.0 436173.0 0
257129.0 433535.0 0
256001.0 436463.0 0
260413.0 433042.0 0
259707.0 436540.0 0
263707.0 435719.0 0
267423.0 434558.0 0
272090.0 433825.0 0
277508.0 434018.0 0
274888.0 435921.0 0
281848.0 433384.0 0
284540.0 431978.0 0
280705.0 436754.0 0
284675.0 436188.0 0
287253.0 433986.0 0
290426.0 432405.0 0
293918.0 433582.0 0
290055.0 435493.0 0
293463.0 436926.0 0
297256.0 433564.0 0
301168.0 433976.0 0
304522.0 433383.0 0
308083.0 433928.0 0
311494.0 435703.0 0
315874.0 433995.0 0
318651.0 433723.0 0
314880.0 437513.0 0
317951.0 436486.0 0
323237.0 434299.0 0
320850.0 435587.0 0
324634.0 436862.0 0
325489.0 432681.0 0
329806.0 433094.0 0
327876.0 435802.0 0
334682.0 433430.0 0
332454.0 435917.0 0
338920.0 435494.0 0
343627.0 434420.0 0
348040.0 433962.0 0
346492.0 436458.0 0
351343.0 434474.0 0
355355.0 434518.0 0
358894.0 432480.0 0
358488.0 436989.0 0
361345.0 432840.0 0
361397.0 435146.0 0
365149.0 434346.0 0
363840.0 436780.0 0
367860.0 435132.0 0
369827.0 433540.0 0
368103.0 437566.0 0
375129.0 433410.0 0
372471.0 435896.0 0
377820.0 434006.0 0
380820.0 434792.0 0
377383.0 437594.0 0
383328.0 433143.0 0
385498.0 434698.0 0
384662.0 436501.0 0
382062.0 437749.0 0
390045.0 434898.0 0
386983.0 436830.0 0
393034.0 435572.0 0
395231.0 437488.0 0
96643.1 442143.0 0
99670.6 441161.0 0
101714.0 438809.0 0
104906.0 441139.0 0
108365.0 439495.0 0
112697.0 438843.0 0
112259.0 441013.0 0
109850.0 442032.0 0
115083.0 438523.0 0
115760.0 440729.0 0
114069.0 442150.0 0
118413.0 441597.0 0
119533.0 438584.0 0
122257.0 438290.0 0
121538.0 442191.0 0
126230.0 438244.0 0
124354.0 439805.0 0
128125.0 439471.0 0
124343.0 442422.0 0
127475.0 442610.0 0
131983.0 439612.0 0
130421.0 442855.0 0
135356.0 439658.0 0
136344.0 442533.0 0
139761.0 439209.0 0
142418.0 439436.0 0
139500.0 441867.0 0
143224.0 442187.0 0
145603.0 439299.0 0
149010.0 437957.0 0
147390.0 441876.0 0
154097.0 437803.0 0
150988.0 441052.0 0
156360.0 439978.0 0
162243.0 438752.0 0
165125.0 439366.0 0
159879.0 441474.0 0
168071.0 437602.0 0
167862.0 440859.0 0
170426.0 438322.0 0
170537.0 440855.0 0
173788.0 440576.0 0
177286.0 439312.0 0
180640.0 438405.0 0
184536.0 438336.0 0
182157.0 442258.0 0
186393.0 441363.0 0
189216.0 439969.0 0
192199.0 438313.0 0
192017.0 441823.0 0
199483.0 438036.0 0
195334.0 441293.0 0
198629.0 441931.0 0
203031.0 438113.0 0
202002.0 441052.0 0
205823.0 440347.0 0
208889.0 439449.0 0
210238.0 441551.0 0
213156.0 440365.0 0
219385.0 437445.0 0
215995.0 439193.0 0
218615.0 441158.0 0
222812.0 439213.0 0
226435.0 438086.0 0
229797.0 437211.0 0
229329.0 440903.0 0
233135.0 439600.0 0
240093.0 437641.0 0
236391.0 439250.0 0
238495.0 441894.0 0
243735.0 437566.0 0
242087.0 440679.0 0
246999.0 436781.0 0
245358.0 440302.0 0
249543.0 440562.0 0
253871.0 439325.0 0
258300.0 439946.0 0
262581.0 439766.0 0
266866.0 439094.0 0
270295.0 437414.0 0
273466.0 438822.0 0
274609.0 441856.0 0
277677.0 439300.0 0
283512.0 439827.0 0
287998.0 439128.0 0
292065.0 440033.0 0
297163.0 437888.0 0
295552.0 441800.0 0
299312.0 442139.0 0
301865.0 438380.0 0
306089.0 437366.0 0
309600.0 438805.0 0
306406.0 441048.0 0
312096.0 439856.0 0
312005.0 442608.0 0
314297.0 441320.0 0
317677.0 440146.0 0
321115.0 439119.0 0
325421.0 439718.0 0
328562.0 439810.0 0
331523.0 438771.0 0
333781.0 441075.0 0
336256.0 438598.0 0
340644.0 439336.0 0
338595.0 441297.0 0
342410.0 437574.0 0
344698.0 439430.0 0
342916.0 441759.0 0
349935.0 438198.0 0
347053.0 440749.0 0
350713.0 441951.0 0
353682.0 438554.0 0
353823.0 441809.0 0
356578.0 439655.0 0
356546.0 442161.0 0
359245.0 442231.0 0
361022.0 439454.0 0
363889.0 441684.0 0
366194.0 439260.0 0
370667.0 438113.0 0
369622.0 442213.0 0
374966.0 437591.0 0
374303.0 440152.0 0
372381.0 440924.0 0
378948.0 441836.0 0
379328.0 439320.0 0
376345.0 441364.0 0
383866.0 440311.0 0
381661.0 442515.0 0
387314.0 439864.0 0
390495.0 438556.0 0
388352.0 443102.0 0
393279.0 440381.0 0
396722.0 442095.0 0
398112.0 439200.0 0
400810.0 440660.0 0
403569.0 442338.0 0
87949.8 447813.0 0
90939.8 445977.0 0
94130.2 444343.0 0
97548.7 445928.0 0
101648.0 443634.0 0
103099.0 446388.0 0
99724.7 447958.0 0
106665.0 443340.0 0
106747.0 446360.0 0
110701.0 444845.0 0
110551.0 447863.0 0
114204.0 444933.0 0
117541.0 444522.0 0
114194.0 447878.0 0
117975.0 447229.0 0
120793.0 445089.0 0
120493.0 447851.0 0
123166.0 447399.0 0
123921.0 445280.0 0
127228.0 446177.0 0
130467.0 445598.0 0
133185.0 443132.0 0
133225.0 445566.0 0
132806.0 447606.0 0
136563.0 445873.0 0
140802.0 445401.0 0
143921.0 447433.0 0
145676.0 444128.0 0
149228.0 444960.0 0
154033.0 443067.0 0
152213.0 446062.0 0
157525.0 445219.0 0
161934.0 444605.0 0
164054.0 442647.0 0
160866.0 447514.0 0
164033.0 445680.0 0
167270.0 443740.0 0
170898.0 443710.0 0
174366.0 443792.0 0
170869.0 446839.0 0
174329.0 447201.0 0
178030.0 443242.0 0
177514.0 446874.0 0
180754.0 445887.0 0
183137.0 446300.0 0
185238.0 444434.0 0
189279.0 443935.0 0
187183.0 447387.0 0
193350.0 444056.0 0
191796.0 446340.0 0
195721.0 445356.0 0
199431.0 445745.0 0
202968.0 443604.0 0
207165.0 444155.0 0
211322.0 445381.0 0
215049.0 443159.0 0
218910.0 445741.0 0
221884.0 442816.0 0
222951.0 446126.0 0
225633.0 442734.0 0
229253.0 444513.0 0
227101.0 447036.0 0
232163.0 443717.0 0
235285.0 442564.0 0
235275.0 446276.0 0
238781.0 445628.0 0
242780.0 444429.0 0
246485.0 443250.0 0
245775.0 446825.0 0
249854.0 445779.0 0
252779.0 442930.0 0
254133.0 446565.0 0
256236.0 442987.0 0
257818.0 446370.0 0
260820.0 443793.0 0
264221.0 446462.0 0
265587.0 442736.0 0
268087.0 445489.0 0
270460.0 442293.0 0
271592.0 446781.0 0
274635.0 444844.0 0
277434.0 443186.0 0
279258.0 446141.0 0
281063.0 442080.0 0
282950.0 445490.0 0
286150.0 443471.0 0
288717.0 447031.0 0
291231.0 444353.0 0
295450.0 445650.0 0
298252.0 444561.0 0
303388.0 442864.0 0
300617.0 444939.0 0
303311.0 447123.0 0
309108.0 442758.0 0
306670.0 445308.0 0
313371.0 445464.0 0
310244.0 446994.0 0
317002.0 444299.0 0
320664.0 443651.0 0
323997.0 442751.0 0
321453.0 446730.0 0
323841.0 445846.0 0
327395.0 443648.0 0
326155.0 447553.0 0
330375.0 447311.0 0
331062.0 442882.0 0
334002.0 445070.0 0
336271.0 443218.0 0
340616.0 443996.0 0
338183.0 445082.0 0
336025.0 447428.0 0
345147.0 444476.0 0
342564.0 446973.0 0
347866.0 443418.0 0
347027.0 447665.0 0
349623.0 446536.0 0
352408.0 445354.0 0
355936.0 446176.0 0
359472.0 445844.0 0
362260.0 444451.0 0
365159.0 447709.0 0
366953.0 444220.0 0
369697.0 447767.0 0
372182.0 445380.0 0
374727.0 443752.0 0
381050.0 445471.0 0
378263.0 444454.0 0
376922.0 446610.0 0
384802.0 444685.0 0
383579.0 447680.0 0
387022.0 447036.0 0
389820.0 447067.0 0
391884.0 443316.0 0
396322.0 444920.0 0
393691.0 447293.0 0
400138.0 443282.0 0
400325.0 446751.0 0
404032.0 445179.0 0
406480.0 443990.0 0
406000.0 447455.0 0
408791.0 446085.0 0
411918.0 447419.0 0
78993.2 453008.0 0
82088.6 451813.0 0
85154.3 449812.0 0
86304.7 452144.0 0
89652.5 450390.0 0
92636.4 448464.0 0
92526.1 451449.0 0
88867.7 452711.0 0
95485.1 448636.0 0
96532.4 451271.0 0
99826.4 450837.0 0
103076.0 449277.0 0
104685.0 451334.0 0
107435.0 449437.0 0
112095.0 450387.0 0
109563.0 452413.0 0
116618.0 449498.0 0
114757.0 452404.0 0
118883.0 450998.0 0
122285.0 451611.0 0
125433.0 449154.0 0
127980.0 450794.0 0
130313.0 448668.0 0
132785.0 451489.0 0
134839.0 448914.0 0
138658.0 449286.0 0
136277.0 452048.0 0
141989.0 451681.0 0
147648.0 448514.0 0
151097.0 449263.0 0
150656.0 452918.0 0
154386.0 452443.0 0
155152.0 448589.0 0
158702.0 450431.0 0
163539.0 449730.0 0
166963.0 447570.0 0
169221.0 450596.0 0
171157.0 449605.0 0
174237.0 451661.0 0
177956.0 450203.0 0
180480.0 448547.0 0
183555.0 449482.0 0
180274.0 452167.0 0
183062.0 453153.0 0
186472.0 451990.0 0
194634.0 448939.0 0
190283.0 450217.0 0
193724.0 452564.0 0
197602.0 448850.0 0
197205.0 452775.0 0
203733.0 447856.0 0
200590.0 450613.0 0
204632.0 452070.0 0
207872.0 449028.0 0
214730.0 447459.0 0
211418.0 450337.0 0
214716.0 451652.0 0
217254.0 449867.0 0
220628.0 450241.0 0
224256.0 449421.0 0
228045.0 452048.0 0
231121.0 448083.0 0
234204.0 450216.0 0
238122.0 450426.0 0
241234.0 448266.0 0
243798.0 449714.0 0
247697.0 449992.0 0
251661.0 450520.0 0
256463.0 451265.0 0
260728.0 448566.0 0
263792.0 450491.0 0
267836.0 449873.0 0
272549.0 451124.0 0
275919.0 448597.0 0
279810.0 450748.0 0
282927.0 448739.0 0
286459.0 447879.0 0
285888.0 450838.0 0
288769.0 451506.0 0
290434.0 449036.0 0
293826.0 449004.0 0
299002.0 448777.0 0
296742.0 452491.0 0
302655.0 451545.0 0
306980.0 450126.0 0
313971.0 449109.0 0
311284.0 452233.0 0
318067.0 448773.0 0
323116.0 450017.0 0
320450.0 452959.0 0
326792.0 451339.0 0
329938.0 451044.0 0
333892.0 449732.0 0
339376.0 449028.0 0
337251.0 452252.0 0
341911.0 452420.0 0
345053.0 450200.0 0
350457.0 450024.0 0
348043.0 452192.0 0
353388.0 449259.0 0
354306.0 452890.0 0
357177.0 450361.0 0
361069.0 449319.0 0
366267.0 451635.0 0
369930.0 451329.0 0
372130.0 449006.0 0
374523.0 448162.0 0
373205.0 451701.0 0
376835.0 451453.0 0
380093.0 449084.0 0
380177.0 453067.0 0
386267.0 449419.0 0
383975.0 451927.0 0
389090.0 450352.0 0
391665.0 451040.0 0
387984.0 453286.0 0
394466.0 451461.0 0
397977.0 449888.0 0
403422.0 449055.0 0
406795.0 450003.0 0
403218.0 451975.0 0
409570.0 449780.0 0
414554.0 449576.0 0
412481.0 451949.0 0
417697.0 451315.0 0
72726.6 457020.0 0
75933.5 455599.0 0
79191.0 455844.0 0
82063.2 455665.0 0
84668.1 454348.0 0
87483.6 454945.0 0
85519.8 457078.0 0
90710.4 454418.0 0
89289.2 457668.0 0
93454.1 453875.0 0
96771.1 454525.0 0
93580.3 457225.0 0
101208.0 453655.0 0
98382.3 456551.0 0
103372.0 456275.0 0
106408.0 454213.0 0
107916.0 456974.0 0
110515.0 455987.0 0
113082.0 454769.0 0
117384.0 454219.0 0
114981.0 457469.0 0
120156.0 455034.0 0
122694.0 457490.0 0
125006.0 454280.0 0
126198.0 457600.0 0
129210.0 454298.0 0
133129.0 454855.0 0
129357.0 458256.0 0
135499.0 454652.0 0
138620.0 454016.0 0
142166.0 456638.0 0
146555.0 453193.0 0
149938.0 457325.0 0
153265.0 456215.0 0
157661.0 454134.0 0
156313.0 457671.0 0
161475.0 453319.0 0
160145.0 457399.0 0
166351.0 453153.0 0
164222.0 457252.0 0
170270.0 453938.0 0
173281.0 456808.0 0
177419.0 454594.0 0
181017.0 456410.0 0
185552.0 455869.0 0
190041.0 455525.0 0
194772.0 456602.0 0
198553.0 456314.0 0
201539.0 454616.0 0
204855.0 455811.0 0
207875.0 453791.0 0
209693.0 457509.0 0
211812.0 454418.0 0
217566.0 452392.0 0
215314.0 455178.0 0
219719.0 455047.0 0
223764.0 453463.0 0
222873.0 457227.0 0
226223.0 456821.0 0
229662.0 456667.0 0
232018.0 452862.0 0
233163.0 456713.0 0
235675.0 453921.0 0
239024.0 455809.0 0
241431.0 452727.0 0
242874.0 457126.0 0
245205.0 453371.0 0
248971.0 453401.0 0
252540.0 455995.0 0
257916.0 456889.0 0
261442.0 453616.0 0
269672.0 453476.0 0
265603.0 454742.0 0
269179.0 456104.0 0
273142.0 455692.0 0
276687.0 453170.0 0
283564.0 452779.0 0
280819.0 455582.0 0
286472.0 453937.0 0
289461.0 455507.0 0
292632.0 453123.0 0
292930.0 457640.0 0
296266.0 456312.0 0
300688.0 455216.0 0
305890.0 454954.0 0
309865.0 455955.0 0
313312.0 457340.0 0
315945.0 453982.0 0
320067.0 457916.0 0
324433.0 455368.0 0
329066.0 454582.0 0
332875.0 453341.0 0
332265.0 457437.0 0
336227.0 456263.0 0
340197.0 455594.0 0
345020.0 455322.0 0
349622.0 456188.0 0
351523.0 453166.0 0
353568.0 456864.0 0
356829.0 455263.0 0
358799.0 453276.0 0
360248.0 456187.0 0
362626.0 453108.0 0
364186.0 456869.0 0
367167.0 454824.0 0
370073.0 454715.0 0
367932.0 457927.0 0
373174.0 454602.0 0
371289.0 458002.0 0
375103.0 458308.0 0
376651.0 454827.0 0
379916.0 455781.0 0
383688.0 455865.0 0
387090.0 456403.0 0
391231.0 453937.0 0
390324.0 456999.0 0
394771.0 454742.0 0
399571.0 454214.0 0
406789.0 453801.0 0
403397.0 456805.0 0
406712.0 458279.0 0
410580.0 454798.0 0
414518.0 457161.0 0
415552.0 453635.0 0
417947.0 455451.0 0
420702.0 453866.0 0
422008.0 457587.0 0
425068.0 456216.0 0
428579.0 457522.0 0
61252.2 464091.0 0
64729.0 462644.0 0
67072.1 460042.0 0
69808.7 458753.0 0
69107.1 462636.0 0
72690.3 460483.0 0
75907.2 459111.0 0
79357.8 459018.0 0
77747.0 462754.0 0
83059.9 459519.0 0
86745.6 460791.0 0
91680.3 460431.0 0
89656.4 463232.0 0
96132.6 459002.0 0
94228.7 461862.0 0
98651.0 461139.0 0
100741.0 458725.0 0
102799.0 460797.0 0
105244.0 458877.0 0
106032.0 462952.0 0
108749.0 460167.0 0
111535.0 458698.0 0
113251.0 461105.0 0
110453.0 462198.0 0
118243.0 458947.0 0
115655.0 462084.0 0
121711.0 460624.0 0
124655.0 459937.0 0
126843.0 460059.0 0
123692.0 462385.0 0
127080.0 463255.0 0
133135.0 458208.0 0
130328.0 461587.0 0
137663.0 458313.0 0
133973.0 462401.0 0
138195.0 462906.0 0
141831.0 461514.0 0
145818.0 458320.0 0
145847.0 462113.0 0
153386.0 460609.0 0
149429.0 461317.0 0
158055.0 461044.0 0
162146.0 461106.0 0
168503.0 458123.0 0
165655.0 460933.0 0
167512.0 462076.0 0
171510.0 461497.0 0
176974.0 459544.0 0
181185.0 460882.0 0
184271.0 459415.0 0
187687.0 459754.0 0
191538.0 459976.0 0
197850.0 459456.0 0
195037.0 460781.0 0
202104.0 459736.0 0
206762.0 458702.0 0
209660.0 461518.0 0
212870.0 458965.0 0
217164.0 457896.0 0
216312.0 461680.0 0
220388.0 459710.0 0
224437.0 460223.0 0
228111.0 460545.0 0
231988.0 460675.0 0
236065.0 458389.0 0
235397.0 461856.0 0
239817.0 461053.0 0
245065.0 461006.0 0
247397.0 457086.0 0
249602.0 460194.0 0
252619.0 460511.0 0
255282.0 459864.0 0
258658.0 461495.0 0
262336.0 458948.0 0
266738.0 459383.0 0
264993.0 462870.0 0
270642.0 459409.0 0
271816.0 461956.0 0
274552.0 460123.0 0
277228.0 457501.0 0
277384.0 460506.0 0
280589.0 460746.0 0
285346.0 458149.0 0
290099.0 459265.0 0
293115.0 462051.0 0
298978.0 459492.0 0
295623.0 459976.0 0
303900.0 459484.0 0
307772.0 458519.0 0
307793.0 462259.0 0
310965.0 459870.0 0
314451.0 461898.0 0
316269.0 458857.0 0
318140.0 461946.0 0
324522.0 460227.0 0
321542.0 461662.0 0
328381.0 458671.0 0
327888.0 462799.0 0
335484.0 460414.0 0
331741.0 461199.0 0
339120.0 459048.0 0
339363.0 462707.0 0
343103.0 459258.0 0
347140.0 459580.0 0
350696.0 460434.0 0
354860.0 461196.0 0
357957.0 458329.0 0
359116.0 462369.0 0
361731.0 459821.0 0
365883.0 460533.0 0
363545.0 463154.0 0
369574.0 461436.0 0
373649.0 462835.0 0
379487.0 458874.0 0
377663.0 461935.0 0
381550.0 462890.0 0
383546.0 459411.0 0
385448.0 463409.0 0
387253.0 459845.0 0
390891.0 460836.0 0
394194.0 458511.0 0
394877.0 462136.0 0
398515.0 458832.0 0
398128.0 462578.0 0
401471.0 462919.0 0
402170.0 459876.0 0
405262.0 460829.0 0
410516.0 459489.0 0
407995.0 462079.0 0
415150.0 460895.0 0
412158.0 463530.0 0
416311.0 463483.0 0
418444.0 459014.0 0
419669.0 462275.0 0
423375.0 460987.0 0
426386.0 459341.0 0
431032.0 460273.0 0
428370.0 463031.0 0
434470.0 462265.0 0
58616.8 467368.0 0
63355.1 466030.0 0
62886.6 468725.0 0
66759.1 466149.0 0
71311.2 464877.0 0
70164.4 467868.0 0
74214.8 463380.0 0
74178.2 466982.0 0
77433.0 466227.0 0
81774.0 463596.0 0
80933.5 468201.0 0
85600.2 465031.0 0
92555.2 464788.0 0
89284.9 467556.0 0
95120.3 466192.0 0
96582.8 463511.0 0
98733.1 466477.0 0
101147.0 463840.0 0
103971.0 466628.0 0
108903.0 465207.0 0
112253.0 464284.0 0
114870.0 466021.0 0
117471.0 468412.0 0
119386.0 464083.0 0
120480.0 468374.0 0
123628.0 466101.0 0
127017.0 467225.0 0
130647.0 465743.0 0
135678.0 466279.0 0
139735.0 466035.0 0
143394.0 465547.0 0
147814.0 465291.0 0
151671.0 464683.0 0
153868.0 468038.0 0
155858.0 464627.0 0
160200.0 465155.0 0
164572.0 464664.0 0
168592.0 465386.0 0
172146.0 465940.0 0
175178.0 463946.0 0
179629.0 465019.0 0
183394.0 467755.0 0
184619.0 463230.0 0
189044.0 463329.0 0
187021.0 466402.0 0
193259.0 464196.0 0
190622.0 467942.0 0
198208.0 463892.0 0
202410.0 464384.0 0
206043.0 462967.0 0
205052.0 467340.0 0
209131.0 465932.0 0
212638.0 464258.0 0
219525.0 463756.0 0
216613.0 466236.0 0
222007.0 462807.0 0
221167.0 466949.0 0
229839.0 464185.0 0
225485.0 464530.0 0
228013.0 467332.0 0
233251.0 464889.0 0
236712.0 464783.0 0
242828.0 463507.0 0
240245.0 466991.0 0
247982.0 463404.0 0
245260.0 466482.0 0
249488.0 467137.0 0
251559.0 463710.0 0
253635.0 467176.0 0
255146.0 463109.0 0
257977.0 466265.0 0
261683.0 463684.0 0
261989.0 467609.0 0
269082.0 464063.0 0
265398.0 466974.0 0
273868.0 464096.0 0
272393.0 466958.0 0
277284.0 463292.0 0
275927.0 467283.0 0
284325.0 463675.0 0
280138.0 466398.0 0
288772.0 462747.0 0
288011.0 467831.0 0
291716.0 465591.0 0
294975.0 465998.0 0
296782.0 462985.0 0
298585.0 466774.0 0
301091.0 463499.0 0
305045.0 465156.0 0
309621.0 466791.0 0
311262.0 463326.0 0
313208.0 465661.0 0
320494.0 464487.0 0
317112.0 466348.0 0
324556.0 465030.0 0
329167.0 467842.0 0
331041.0 464301.0 0
335270.0 465676.0 0
340895.0 466821.0 0
343407.0 463434.0 0
344847.0 466876.0 0
347528.0 463634.0 0
351958.0 465150.0 0
356986.0 466154.0 0
361018.0 465339.0 0
364340.0 467967.0 0
367223.0 464506.0 0
371039.0 465777.0 0
374490.0 468223.0 0
377862.0 465838.0 0
382469.0 467017.0 0
389268.0 463909.0 0
390304.0 466534.0 0
387063.0 468029.0 0
393257.0 465173.0 0
397566.0 466505.0 0
401160.0 466472.0 0
405046.0 464128.0 0
404557.0 467879.0 0
408767.0 465545.0 0
411074.0 468426.0 0
414109.0 467153.0 0
417419.0 466616.0 0
420872.0 465545.0 0
424320.0 464432.0 0
423084.0 468553.0 0
426871.0 467949.0 0
431017.0 467454.0 0
433265.0 465026.0 0
436403.0 466957.0 0
437961.0 464200.0 0
441213.0 465985.0 0
439096.0 468047.0 0
50201.5 471101.0 0
47205.1 473459.0 0
54196.8 469708.0 0
53068.7 473411.0 0
57884.0 472706.0 0
61856.3 471728.0 0
66535.5 470452.0 0
71690.7 470897.0 0
76055.5 470602.0 0
80290.9 472758.0 0
83533.1 471214.0 0
85086.6 468668.0 0
87221.6 471683.0 0
91028.1 471405.0 0
92929.9 468767.0 0
96715.6 469582.0 0
94461.8 472969.0 0
100892.0 468676.0 0
99484.6 472070.0 0
103726.0 470676.0 0
106898.0 468709.0 0
107326.0 472227.0 0
110953.0 468850.0 0
110898.0 473291.0 0
114689.0 470524.0 0
118886.0 472536.0 0
123839.0 470802.0 0
128271.0 470217.0 0
132558.0 469559.0 0
137672.0 469828.0 0
135098.0 473251.0 0
141288.0 469627.0 0
145873.0 469205.0 0
148721.0 472986.0 0
150294.0 468675.0 0
153617.0 472428.0 0
157741.0 469150.0 0
157726.0 473358.0 0
161938.0 468659.0 0
160279.0 471817.0 0
163281.0 472194.0 0
165792.0 468846.0 0
166873.0 472402.0 0
170406.0 470066.0 0
175242.0 468298.0 0
179230.0 470688.0 0
174426.0 473207.0 0
183478.0 471465.0 0
187094.0 470370.0 0
191179.0 473154.0 0
195305.0 468779.0 0
198619.0 471350.0 0
200558.0 468404.0 0
203760.0 471673.0 0
208231.0 470459.0 0
212954.0 469586.0 0
217979.0 470300.0 0
221675.0 471092.0 0
224610.0 469309.0 0
228151.0 470931.0 0
231163.0 467867.0 0
231983.0 472122.0 0
235268.0 468987.0 0
239071.0 472042.0 0
243497.0 471009.0 0
246969.0 470358.0 0
251195.0 471729.0 0
256068.0 471262.0 0
259607.0 470488.0 0
263141.0 471720.0 0
269576.0 468544.0 0
266896.0 470943.0 0
270004.0 472732.0 0
273465.0 470797.0 0
278035.0 471030.0 0
284001.0 468102.0 0
282110.0 471274.0 0
285698.0 471046.0 0
288590.0 472781.0 0
292460.0 470309.0 0
296960.0 469788.0 0
300195.0 472647.0 0
302088.0 468750.0 0
304874.0 473150.0 0
305851.0 469029.0 0
309245.0 471403.0 0
313845.0 470058.0 0
318472.0 471422.0 0
321425.0 468288.0 0
324959.0 469213.0 0
322618.0 472097.0 0
326302.0 472054.0 0
329915.0 472350.0 0
334464.0 471101.0 0
338403.0 469428.0 0
339126.0 472879.0 0
341182.0 470602.0 0
344014.0 469868.0 0
342728.0 473196.0 0
345325.0 472562.0 0
348569.0 469439.0 0
354096.0 469884.0 0
357959.0 470437.0 0
360244.0 468615.0 0
361934.0 472516.0 0
365947.0 472094.0 0
368975.0 469198.0 0
372419.0 471781.0 0
376304.0 472649.0 0
379307.0 469937.0 0
383810.0 471254.0 0
391286.0 468756.0 0
388745.0 472792.0 0
394827.0 468904.0 0
393342.0 472322.0 0
398259.0 471209.0 0
401116.0 469290.0 0
401015.0 473569.0 0
403520.0 471433.0 0
407442.0 469374.0 0
411145.0 472175.0 0
406970.0 472735.0 0
415329.0 470969.0 0
418929.0 469782.0 0
422278.0 471775.0 0
425835.0 471807.0 0
430075.0 472354.0 0
434873.0 470527.0 0
439253.0 471269.0 0
441061.0 469118.0 0
442124.0 472045.0 0
444429.0 468870.0 0
448470.0 471007.0 0
452426.0 472101.0 0
39993.4 477980.0 0
43334.7 475332.0 0
43207.7 478483.0 0
47426.9 477546.0 0
50654.0 474435.0 0
51958.2 477095.0 0
54742.1 475841.0 0
57908.5 477294.0 0
61063.3 475609.0 0
61648.9 479031.0 0
64758.1 474738.0 0
64448.2 478365.0 0
69373.6 474192.0 0
67768.3 477841.0 0
71426.5 477754.0 0
73396.6 474377.0 0
76882.4 474624.0 0
75235.5 477763.0 0
79840.1 477097.0 0
83595.7 474500.0 0
87391.8 475888.0 0
84131.8 478172.0 0
90817.9 474697.0 0
90070.0 477677.0 0
97428.7 475840.0 0
93267.1 477548.0 0
103317.0 475152.0 0
108182.0 476454.0 0
112223.0 477447.0 0
114523.0 474444.0 0
117260.0 477533.0 0
122012.0 475784.0 0
126131.0 474596.0 0
130111.0 473720.0 0
132330.0 476516.0 0
128601.0 477807.0 0
136471.0 478395.0 0
139328.0 473858.0 0
143672.0 473545.0 0
141451.0 478337.0 0
146665.0 477679.0 0
151458.0 476871.0 0
155661.0 476699.0 0
160547.0 476445.0 0
165219.0 475386.0 0
169890.0 475811.0 0
174309.0 478351.0 0
178105.0 475913.0 0
181780.0 474199.0 0
181901.0 478269.0 0
186035.0 475011.0 0
189556.0 477706.0 0
196096.0 473905.0 0
199189.0 477470.0 0
200600.0 473237.0 0
203107.0 475916.0 0
206576.0 474264.0 0
211078.0 474952.0 0
215857.0 474663.0 0
219786.0 474023.0 0
224295.0 475095.0 0
229001.0 474961.0 0
231860.0 476913.0 0
235434.0 474505.0 0
238788.0 477173.0 0
242078.0 474777.0 0
246755.0 475488.0 0
250998.0 476152.0 0
254669.0 476213.0 0
259324.0 475409.0 0
263021.0 475459.0 0
266520.0 475562.0 0
272602.0 474662.0 0
270271.0 476436.0 0
276090.0 475162.0 0
284980.0 474464.0 0
280710.0 475855.0 0
287983.0 476824.0 0
291633.0 475653.0 0
295750.0 474008.0 0
298471.0 476538.0 0
302008.0 476864.0 0
308668.0 475621.0 0
305686.0 477256.0 0
312184.0 474093.0 0
312337.0 478038.0 0
315996.0 474837.0 0
324738.0 475227.0 0
320723.0 476258.0 0
328352.0 475825.0 0
332457.0 475639.0 0
336584.0 475817.0 0
345070.0 475814.0 0
341142.0 476750.0 0
347697.0 474002.0 0
348902.0 478438.0 0
351930.0 474247.0 0
357224.0 474739.0 0
361495.0 476437.0 0
365384.0 475974.0 0
369081.0 474017.0 0
369706.0 477676.0 0
373122.0 475509.0 0
377327.0 476720.0 0
380670.0 473913.0 0
385018.0 475115.0 0
381790.0 478200.0 0
388977.0 477168.0 0
392722.0 476385.0 0
396669.0 475005.0 0
396260.0 478668.0 0
400094.0 476679.0 0
404405.0 476088.0 0
409079.0 476106.0 0
411411.0 478858.0 0
414431.0 475764.0 0
419192.0 474093.0 0
422333.0 477385.0 0
418818.0 478481.0 0
423711.0 474785.0 0
427370.0 475027.0 0
426164.0 477696.0 0
430644.0 477514.0 0
433561.0 474858.0 0
437489.0 474790.0 0
435139.0 477946.0 0
441213.0 475488.0 0
438636.0 477868.0 0
445406.0 474054.0 0
444883.0 477691.0 0
450474.0 474754.0 0
448350.0 477880.0 0
452516.0 478366.0 0
455038.0 475026.0 0
458683.0 476477.0 0
30388.0 483382.0 0
32193.8 481473.0 0
36131.3 481480.0 0
40974.3 481487.0 0
44001.0 480753.0 0
43623.8 484133.0 0
46881.6 481774.0 0
51080.9 481005.0 0
54688.8 479331.0 0
55008.4 482978.0 0
58380.5 481052.0 0
62583.6 483244.0 0
65887.6 480909.0 0
69615.1 481084.0 0
73236.7 481068.0 0
77178.5 480722.0 0
81330.6 480907.0 0
85178.4 481608.0 0
87716.0 479427.0 0
90645.4 479918.0 0
88706.4 483173.0 0
92993.9 482001.0 0
96082.4 479819.0 0
97656.8 483120.0 0
100138.0 479086.0 0
101830.0 482723.0 0
104967.0 479865.0 0
109176.0 480933.0 0
111775.0 483778.0 0
114016.0 480805.0 0
118214.0 481891.0 0
121136.0 479398.0 0
123289.0 483097.0 0
125167.0 479012.0 0
128360.0 482031.0 0
131388.0 479746.0 0
133602.0 483064.0 0
139042.0 483297.0 0
144296.0 482679.0 0
153426.0 479727.0 0
149546.0 481591.0 0
157017.0 480527.0 0
160952.0 481614.0 0
165692.0 480077.0 0
170757.0 481170.0 0
178105.0 480797.0 0
174637.0 483332.0 0
181951.0 482889.0 0
185947.0 480024.0 0
193599.0 478467.0 0
189796.0 481734.0 0
197234.0 481683.0 0
202375.0 481124.0 0
206836.0 478803.0 0
206373.0 483282.0 0
210702.0 478999.0 0
214708.0 479809.0 0
210611.0 483087.0 0
219629.0 478306.0 0
218271.0 482743.0 0
222458.0 482334.0 0
228353.0 478514.0 0
225305.0 479587.0 0
227610.0 482513.0 0
231199.0 480809.0 0
235103.0 479764.0 0
239138.0 482309.0 0
242896.0 479099.0 0
243466.0 482976.0 0
246909.0 481319.0 0
250609.0 479453.0 0
254086.0 479850.0 0
257831.0 480935.0 0
263112.0 479738.0 0
268745.0 480835.0 0
273222.0 478640.0 0
277177.0 479763.0 0
284711.0 478498.0 0
281093.0 480222.0 0
290333.0 481494.0 0
295119.0 478621.0 0
299125.0 480175.0 0
295557.0 483133.0 0
303934.0 481326.0 0
308608.0 479823.0 0
316639.0 479724.0 0
320876.0 481132.0 0
325797.0 480103.0 0
329973.0 482042.0 0
330888.0 479143.0 0
334260.0 478845.0 0
334070.0 483249.0 0
337714.0 480214.0 0
341472.0 481222.0 0
344784.0 479711.0 0
347290.0 482384.0 0
353539.0 478871.0 0
351595.0 483179.0 0
356599.0 478812.0 0
359453.0 478977.0 0
356691.0 482188.0 0
360590.0 482333.0 0
363062.0 479556.0 0
366716.0 479976.0 0
370055.0 482443.0 0
373917.0 479676.0 0
378769.0 481627.0 0
385683.0 479121.0 0
383750.0 483034.0 0
388752.0 481800.0 0
391533.0 479577.0 0
393566.0 479319.0 0
393750.0 482630.0 0
397740.0 482156.0 0
400119.0 480131.0 0
401346.0 483636.0 0
403228.0 480268.0 0
407120.0 479759.0 0
405278.0 484058.0 0
410478.0 483137.0 0
414929.0 480566.0 0
419449.0 482446.0 0
423763.0 480837.0 0
427689.0 480436.0 0
430433.0 481083.0 0
431879.0 483731.0 0
433762.0 481086.0 0
437596.0 480876.0 0
441882.0 479965.0 0
440441.0 483717.0 0
446491.0 481106.0 0
449924.0 480824.0 0
453261.0 482286.0 0
456613.0 479533.0 0
456887.0 483918.0 0
459675.0 481984.0 0
461580.0 479095.0 0
465327.0 480357.0 0
468356.0 482843.0 0
464194.0 483528.0 0
24389.0 487577.0 0
27618.7 485478.0 0
32352.0 485876.0 0
36038.7 486317.0 0
39699.0 485234.0 0
43316.8 488754.0 0
47808.6 485396.0 0
51866.1 484651.0 0
50750.6 487883.0 0
47374.8 489497.0 0
55181.4 487859.0 0
58295.8 484584.0 0
60702.9 487129.0 0
67014.2 484256.0 0
64660.9 487085.0 0
68765.5 487750.0 0
71056.8 484302.0 0
75027.9 484368.0 0
72658.2 488117.0 0
75651.8 487556.0 0
78964.7 483827.0 0
78537.1 487196.0 0
83201.3 485341.0 0
87659.1 487153.0 0
91968.0 486741.0 0
94573.1 484393.0 0
96473.1 487178.0 0
101278.0 486915.0 0
105361.0 484158.0 0
105404.0 488443.0 0
108713.0 485553.0 0
111979.0 486675.0 0
114839.0 484820.0 0
118871.0 486325.0 0
123298.0 488174.0 0
127108.0 485667.0 0
131364.0 487269.0 0
135654.0 486444.0 0
138512.0 487420.0 0
142545.0 487294.0 0
147935.0 487261.0 0
153760.0 484520.0 0
158413.0 485165.0 0
156359.0 488656.0 0
163698.0 486109.0 0
168182.0 484426.0 0
171413.0 485736.0 0
178396.0 485550.0 0
174557.0 487768.0 0
182445.0 487290.0 0
186097.0 484548.0 0
186325.0 488587.0 0
193180.0 483416.0 0
190001.0 486439.0 0
193451.0 488368.0 0
195735.0 485778.0 0
199808.0 485366.0 0
203892.0 485555.0 0
207896.0 488048.0 0
211854.0 486792.0 0
215016.0 485367.0 0
219558.0 487199.0 0
225198.0 487049.0 0
229861.0 486117.0 0
230982.0 483641.0 0
234585.0 485267.0 0
241739.0 486304.0 0
245511.0 484715.0 0
249147.0 485434.0 0
245720.0 488294.0 0
253194.0 483422.0 0
252816.0 487875.0 0
256926.0 486415.0 0
261411.0 484728.0 0
264961.0 488280.0 0
265468.0 484104.0 0
269267.0 486208.0 0
273601.0 483425.0 0
278796.0 484658.0 0
284631.0 483352.0 0
283019.0 488339.0 0
288266.0 487337.0 0
292979.0 487120.0 0
299898.0 484912.0 0
304676.0 486614.0 0
307904.0 484006.0 0
312647.0 483527.0 0
314197.0 488059.0 0
317956.0 485323.0 0
323501.0 485219.0 0
329257.0 486084.0 0
334780.0 488615.0 0
339224.0 485122.0 0
344089.0 484044.0 0
343630.0 488235.0 0
347808.0 486109.0 0
355270.0 485970.0 0
351841.0 488711.0 0
359991.0 486454.0 0
364662.0 484061.0 0
363775.0 487801.0 0
367926.0 485388.0 0
371147.0 487065.0 0
367130.0 488111.0 0
374925.0 484601.0 0
379898.0 486894.0 0
384198.0 487046.0 0
387216.0 485658.0 0
390681.0 485181.0 0
386673.0 488754.0 0
389924.0 488375.0 0
393993.0 487129.0 0
397969.0 485875.0 0
402306.0 488303.0 0
407814.0 488391.0 0
412599.0 486954.0 0
415830.0 484284.0 0
416718.0 488274.0 0
420058.0 486129.0 0
423136.0 484315.0 0
427690.0 484324.0 0
424367.0 487595.0 0
432333.0 487197.0 0
428704.0 488979.0 0
436409.0 485150.0 0
441439.0 488290.0 0
444548.0 484364.0 0
446525.0 488217.0 0
449271.0 484727.0 0
450809.0 488575.0 0
453819.0 486080.0 0
460346.0 484843.0 0
458561.0 488129.0 0
467909.0 486830.0 0
463601.0 487927.0 0
471604.0 485310.0 0
475435.0 488359.0 0
15046.6 492703.0 0
17817.7 491267.0 0
20938.5 489302.0 0
20568.0 493996.0 0
24498.8 491267.0 0
28942.1 489616.0 0
27530.9 493337.0 0
33781.9 490249.0 0
36698.8 494196.0 0
38435.8 489769.0 0
41462.6 493715.0 0
45872.1 493140.0 0
50521.4 491609.0 0
54907.8 493880.0 0
58832.7 490578.0 0
62928.5 490540.0 0
66421.9 490552.0 0
65347.2 494092.0 0
70607.5 492908.0 0
75781.8 490929.0 0
80788.9 490578.0 0
84451.1 489132.0 0
86707.9 490037.0 0
85066.9 492493.0 0
89818.4 491258.0 0
94196.5 490788.0 0
98487.3 490603.0 0
102236.0 491605.0 0
106340.0 492755.0 0
109632.0 489513.0 0
111215.0 493645.0 0
114485.0 489497.0 0
115992.0 493853.0 0
119295.0 491059.0 0
123394.0 492772.0 0
127226.0 490128.0 0
131137.0 492289.0 0
135506.0 490402.0 0
140277.0 491093.0 0
144800.0 491919.0 0
152533.0 489219.0 0
149930.0 493592.0 0
154609.0 491968.0 0
158242.0 492306.0 0
159961.0 488952.0 0
163552.0 492210.0 0
168365.0 488964.0 0
168228.0 493574.0 0
172173.0 491643.0 0
175382.0 490701.0 0
178768.0 490159.0 0
183196.0 491590.0 0
187211.0 492059.0 0
190525.0 490533.0 0
194385.0 492837.0 0
197257.0 489219.0 0
198543.0 492412.0 0
202240.0 490145.0 0
206093.0 492784.0 0
213362.0 489452.0 0
210225.0 492855.0 0
216513.0 489893.0 0
219214.0 492153.0 0
222607.0 490952.0 0
228933.0 489207.0 0
226906.0 492793.0 0
231742.0 488951.0 0
231466.0 492459.0 0
234916.0 490642.0 0
238331.0 488631.0 0
238618.0 493183.0 0
242106.0 490872.0 0
249559.0 490280.0 0
245979.0 492823.0 0
253288.0 491707.0 0
257064.0 491359.0 0
260620.0 489335.0 0
263300.0 493319.0 0
269076.0 492015.0 0
273319.0 488412.0 0
278064.0 490447.0 0
282483.0 493112.0 0
286150.0 491087.0 0
289873.0 492108.0 0
294024.0 492230.0 0
297200.0 488833.0 0
299161.0 493176.0 0
301444.0 489447.0 0
309684.0 488785.0 0
305156.0 491084.0 0
313479.0 492291.0 0
317485.0 490511.0 0
321102.0 488907.0 0
325434.0 490305.0 0
321475.0 493382.0 0
330448.0 491774.0 0
334282.0 493254.0 0
339272.0 489108.0 0
337624.0 492403.0 0
341449.0 491444.0 0
345335.0 492955.0 0
347700.0 489785.0 0
350048.0 492918.0 0
354778.0 493168.0 0
356329.0 489302.0 0
359952.0 491264.0 0
364974.0 491400.0 0
370744.0 491882.0 0
375314.0 489383.0 0
375698.0 493649.0 0
378778.0 491431.0 0
383342.0 491206.0 0
388287.0 492320.0 0
392908.0 491352.0 0
397580.0 490278.0 0
400853.0 493821.0 0
404879.0 492207.0 0
409008.0 493630.0 0
412646.0 490935.0 0
417014.0 492816.0 0
420876.0 490006.0 0
425565.0 492521.0 0
432431.0 490855.0 0
430013.0 493059.0 0
436468.0 490294.0 0
433949.0 493719.0 0
440639.0 493201.0 0
444917.0 492208.0 0
448632.0 491365.0 0
452782.0 492965.0 0
454732.0 489667.0 0
457804.0 492506.0 0
461985.0 492109.0 0
466810.0 491237.0 0
471029.0 489885.0 0
475088.0 493280.0 0
479894.0 490906.0 0
483699.0 492507.0 0
8857.8 497401.0 0
12372.1 495378.0 0
16343.0 497042.0 0
20191.6 497788.0 0
24635.2 495033.0 0
23184.1 498642.0 0
27565.8 497177.0 0
31540.9 494424.0 0
31175.4 499079.0 0
34977.2 498085.0 0
39832.5 497949.0 0
44287.9 497426.0 0
49118.5 495983.0 0
53019.1 499099.0 0
60652.9 494319.0 0
57903.5 498105.0 0
63038.4 497990.0 0
67990.2 497724.0 0
74914.6 494992.0 0
72787.8 497948.0 0
78262.2 494231.0 0
81762.7 495239.0 0
77625.0 498308.0 0
82101.8 499143.0 0
87579.7 497192.0 0
92621.8 494750.0 0
97161.9 494728.0 0
102399.0 496548.0 0
98022.0 498889.0 0
107600.0 497192.0 0
111873.0 498328.0 0
114048.0 496207.0 0
116576.0 498774.0 0
119989.0 495807.0 0
123832.0 497118.0 0
127305.0 494868.0 0
131050.0 496976.0 0
134186.0 494477.0 0
137873.0 494559.0 0
135261.0 498172.0 0
141741.0 494794.0 0
139974.0 498345.0 0
145402.0 497446.0 0
154787.0 495637.0 0
159852.0 496407.0 0
165802.0 498254.0 0
171784.0 496757.0 0
175924.0 493936.0 0
176659.0 498091.0 0
180247.0 494931.0 0
185228.0 496264.0 0
190072.0 494813.0 0
193563.0 498063.0 0
198447.0 496407.0 0
202852.0 495161.0 0
207016.0 497429.0 0
211563.0 497146.0 0
215048.0 494028.0 0
218709.0 497059.0 0
222492.0 495183.0 0
226051.0 498030.0 0
234593.0 495167.0 0
230343.0 496605.0 0
238390.0 497843.0 0
242451.0 495098.0 0
245924.0 496869.0 0
250409.0 495495.0 0
255327.0 495300.0 0
259067.0 494827.0 0
261611.0 498198.0 0
266455.0 496922.0 0
274363.0 494732.0 0
270281.0 496874.0 0
279134.0 495328.0 0
282438.0 497261.0 0
286469.0 495066.0 0
291276.0 496917.0 0
296004.0 496317.0 0
303522.0 495084.0 0
300241.0 498250.0 0
308740.0 495019.0 0
313527.0 496939.0 0
317356.0 495356.0 0
321225.0 498398.0 0
326436.0 496003.0 0
331696.0 496371.0 0
336266.0 496869.0 0
340804.0 495264.0 0
344656.0 497870.0 0
348211.0 496224.0 0
351896.0 497271.0 0
358652.0 495104.0 0
356199.0 498230.0 0
360058.0 498154.0 0
362594.0 495158.0 0
367490.0 495868.0 0
372628.0 497037.0 0
375496.0 498979.0 0
376447.0 496830.0 0
380368.0 495448.0 0
385251.0 496020.0 0
388718.0 495762.0 0
391657.0 495317.0 0
395992.0 494604.0 0
393941.0 498513.0 0
401307.0 497673.0 0
398418.0 497991.0 0
405427.0 497587.0 0
410396.0 497556.0 0
413569.0 495647.0 0
421094.0 494190.0 0
418350.0 497948.0 0
423826.0 497270.0 0
428146.0 496436.0 0
431591.0 495899.0 0
435187.0 497842.0 0
437162.0 494570.0 0
439945.0 497750.0 0
443834.0 496239.0 0
448302.0 495504.0 0
452551.0 496861.0 0
450455.0 498966.0 0
456588.0 495959.0 0
460842.0 495754.0 0
459501.0 498988.0 0
465247.0 495656.0 0
470419.0 494912.0 0
478091.0 495951.0 0
482085.0 496336.0 0
487018.0 495033.0 0
486195.0 499929.0 0
490912.0 497362.0 0
494731.0 499795.0 0
5926.77 498764.0 0
3284.2 501776.0 0
8178.87 503948.0 0
11855.3 500531.0 0
15860.1 501683.0 0
19331.1 500454.0 0
22031.8 502837.0 0
27151.4 502810.0 0
32728.6 502708.0 0
37449.4 502278.0 0
42932.1 502635.0 0
47734.9 500530.0 0
51227.9 503470.0 0
55725.0 503052.0 0
60020.6 501833.0 0
65365.6 503198.0 0
70463.2 501631.0 0
69304.6 504039.0 0
74687.7 502402.0 0
79993.1 503209.0 0
84904.5 501965.0 0
89222.9 502826.0 0
93467.4 499648.0 0
97001.0 502248.0 0
100457.0 500996.0 0
104918.0 501993.0 0
109468.0 500962.0 0
113303.0 502185.0 0
117264.0 502883.0 0
121427.0 500748.0 0
127086.0 499862.0 0
125251.0 503894.0 0
131509.0 501337.0 0
136709.0 503091.0 0
142534.0 502203.0 0
146864.0 501892.0 0
150968.0 499413.0 0
155877.0 499428.0 0
160243.0 502004.0 0
169405.0 501506.0 0
173350.0 501757.0 0
177641.0 501906.0 0
181371.0 499756.0 0
189209.0 498958.0 0
186187.0 502977.0 0
191865.0 502655.0 0
197541.0 502165.0 0
202431.0 499526.0 0
201927.0 503031.0 0
205606.0 503031.0 0
210460.0 501482.0 0
215079.0 499598.0 0
218299.0 502464.0 0
221974.0 500178.0 0
225862.0 502529.0 0
229141.0 500807.0 0
233914.0 500617.0 0
238789.0 502881.0 0
242773.0 499762.0 0
248069.0 500076.0 0
252482.0 500468.0 0
257072.0 499170.0 0
265068.0 500881.0 0
269387.0 501052.0 0
273000.0 498930.0 0
273625.0 502528.0 0
277397.0 499487.0 0
281924.0 501863.0 0
286453.0 499689.0 0
286211.0 504081.0 0
290529.0 502778.0 0
295877.0 501307.0 0
301289.0 503025.0 0
305211.0 499791.0 0
310691.0 501085.0 0
316482.0 500588.0 0
325179.0 501187.0 0
320861.0 503376.0 0
329367.0 499980.0 0
333424.0 500106.0 0
340251.0 500236.0 0
336531.0 503364.0 0
344440.0 501964.0 0
348492.0 500671.0 0
353305.0 502511.0 0
359295.0 502908.0 0
364226.0 499814.0 0
369298.0 500385.0 0
366860.0 502645.0 0
374058.0 502917.0 0
378816.0 499991.0 0
384172.0 500980.0 0
389164.0 499250.0 0
392227.0 502373.0 0
396957.0 502592.0 0
401613.0 500864.0 0
405344.0 503102.0 0
409492.0 501195.0 0
413761.0 499754.0 0
413105.0 503242.0 0
417308.0 503013.0 0
422273.0 501580.0 0
427022.0 500370.0 0
431128.0 499382.0 0
430266.0 503243.0 0
433980.0 501978.0 0
437595.0 501180.0 0
441957.0 502076.0 0
446222.0 499979.0 0
450689.0 503185.0 0
455218.0 500548.0 0
463341.0 499465.0 0
460209.0 503187.0 0
464749.0 503388.0 0
468606.0 500120.0 0
472407.0 503697.0 0
474362.0 498913.0 0
476114.0 502892.0 0
479453.0 500390.0 0
483008.0 503952.0 0
487948.0 505261.0 0
491067.0 502227.0 0
494612.0 504099.0 0
498268.0 500063.0 0
497901.0 503105.0 0
3688.29 508155.0 0
9465.46 508712.0 0
13227.8 505795.0 0
18448.4 505000.0 0
23017.4 507897.0 0
27872.4 508096.0 0
31023.6 506265.0 0
34657.2 506550.0 0
36087.4 509777.0 0
39375.6 507085.0 0
43796.4 508071.0 0
47327.3 505386.0 0
53472.1 507417.0 0
59481.7 507100.0 0
65434.1 508727.0 0
70899.8 506830.0 0
76035.3 506911.0 0
80636.9 508113.0 0
84451.8 505434.0 0
84664.9 509004.0 0
88668.2 507279.0 0
93804.4 505490.0 0
99886.6 505565.0 0
105874.0 506854.0 0
109764.0 504804.0 0
109653.0 509296.0 0
114662.0 507132.0 0
120427.0 505928.0 0
125212.0 509180.0 0
131110.0 506658.0 0
136184.0 507993.0 0
140560.0 506940.0 0
145385.0 506059.0 0
149846.0 504481.0 0
153562.0 508982.0 0
154686.0 504058.0 0
159610.0 508848.0 0
165549.0 504853.0 0
170243.0 504568.0 0
173547.0 506785.0 0
169419.0 508955.0 0
176386.0 504704.0 0
177070.0 507499.0 0
180617.0 505292.0 0
184880.0 508935.0 0
194706.0 506603.0 0
190071.0 507360.0 0
201090.0 506544.0 0
209128.0 505750.0 0
205592.0 507916.0 0
214443.0 505957.0 0
222369.0 504878.0 0
226804.0 507213.0 0
230560.0 504328.0 0
234800.0 506215.0 0
240568.0 508163.0 0
245584.0 504534.0 0
250873.0 505231.0 0
256369.0 504643.0 0
261527.0 503250.0 0
266301.0 505825.0 0
271972.0 507189.0 0
277645.0 505354.0 0
282956.0 506933.0 0
288854.0 508893.0 0
294000.0 506326.0 0
297948.0 505758.0 0
301537.0 507870.0 0
306501.0 504392.0 0
305936.0 508747.0 0
311330.0 507395.0 0
316605.0 505394.0 0
320308.0 508752.0 0
325409.0 506452.0 0
331185.0 504879.0 0
336010.0 509132.0 0
341616.0 505919.0 0
346808.0 504876.0 0
350652.0 507152.0 0
356030.0 507934.0 0
364510.0 504686.0 0
361592.0 507969.0 0
368881.0 504800.0 0
366433.0 508534.0 0
371787.0 508967.0 0
380258.0 504468.0 0
377156.0 507934.0 0
384277.0 507495.0 0
388511.0 504428.0 0
393385.0 506382.0 0
401269.0 505339.0 0
397367.0 507349.0 0
405074.0 507869.0 0
409800.0 506073.0 0
414660.0 506613.0 0
421451.0 506605.0 0
426219.0 504706.0 0
426538.0 509498.0 0
429597.0 506628.0 0
433390.0 505821.0 0
435851.0 509294.0 0
438112.0 505440.0 0
442318.0 506486.0 0
446090.0 505050.0 0
445278.0 509446.0 0
450705.0 508616.0 0
455596.0 505668.0 0
460125.0 508028.0 0
465398.0 507561.0 0
468529.0 504751.0 0
470862.0 508341.0 0
475736.0 506936.0 0
478876.0 504547.0 0
480778.0 508746.0 0
485361.0 508421.0 0
492237.0 507660.0 0
497488.0 507077.0 0
3217.52 514418.0 0
7655.66 512228.0 0
12244.6 512579.0 0
17136.2 509980.0 0
24712.4 511267.0 0
21730.8 513561.0 0
27502.9 511584.0 0
31748.6 510065.0 0
35145.3 514096.0 0
39597.4 511594.0 0
43759.5 512698.0 0
48642.3 510326.0 0
51392.5 514260.0 0
55697.1 511978.0 0
61111.2 512198.0 0
66127.7 513725.0 0
71205.9 512152.0 0
76796.6 511909.0 0
82307.8 512512.0 0
87406.0 512091.0 0
92063.1 510515.0 0
96746.4 509912.0 0
94740.9 513734.0 0
102707.0 511183.0 0
113239.0 512232.0 0
108270.0 514076.0 0
116645.0 510821.0 0
119977.0 510614.0 0
122779.0 514283.0 0
129656.0 512184.0 0
134010.0 511292.0 0
138883.0 511821.0 0
143462.0 510208.0 0
149015.0 509157.0 0
146458.0 512555.0 0
150510.0 513767.0 0
155199.0 513392.0 0
163765.0 513897.0 0
165230.0 509882.0 0
168772.0 513940.0 0
173847.0 512012.0 0
179543.0 510956.0 0
188984.0 512408.0 0
193492.0 510951.0 0
197784.0 509732.0 0
202187.0 511443.0 0
210049.0 510104.0 0
219898.0 509431.0 0
275844.0 510157.0 0
279833.0 510352.0 0
283770.0 511630.0 0
292962.0 513219.0 0
296973.0 510211.0 0
303140.0 512563.0 0
308507.0 513225.0 0
313764.0 513348.0 0
315997.0 509850.0 0
318206.0 513122.0 0
324480.0 512072.0 0
329434.0 510508.0 0
337561.0 513856.0 0
341268.0 511546.0 0
346091.0 509487.0 0
350423.0 511995.0 0
355331.0 513696.0 0
359432.0 511579.0 0
363781.0 512475.0 0
368725.0 513486.0 0
375961.0 513014.0 0
380521.0 511027.0 0
384815.0 512879.0 0
389773.0 509990.0 0
395297.0 510774.0 0
400535.0 510607.0 0
405436.0 512479.0 0
408610.0 510264.0 0
409321.0 513439.0 0
412821.0 510938.0 0
417444.0 509535.0 0
417099.0 514323.0 0
421816.0 511907.0 0
425930.0 514306.0 0
431520.0 510082.0 0
435071.0 513152.0 0
440261.0 510366.0 0
443699.0 513308.0 0
448236.0 513154.0 0
453445.0 513070.0 0
455698.0 509750.0 0
463123.0 511458.0 0
458707.0 513311.0 0
467426.0 512054.0 0
472073.0 513652.0 0
474550.0 510814.0 0
477408.0 510684.0 0
482195.0 513256.0 0
488130.0 513026.0 0
494087.0 511934.0 0
498000.0 510892.0 0
2015.23 518991.0 0
9082.55 516181.0 0
5775.73 519202.0 0
13293.4 517877.0 0
16587.9 515102.0 0
18338.1 519768.0 0
22888.2 518308.0 0
26536.2 515751.0 0
30375.2 514155.0 0
30643.1 518480.0 0
40233.6 516185.0 0
43871.2 516295.0 0
45540.7 519080.0 0
47347.3 515283.0 0
50618.7 519372.0 0
54433.8 516345.0 0
58482.7 516221.0 0
62325.2 516296.0 0
65490.8 518735.0 0
69452.7 516440.0 0
74109.9 517044.0 0
79789.9 516738.0 0
85078.3 516560.0 0
90585.3 516121.0 0
95426.9 517999.0 0
98523.1 514925.0 0
102720.0 517252.0 0
107227.0 519231.0 0
112882.0 517935.0 0
117668.0 514536.0 0
118224.0 519243.0 0
122877.0 519307.0 0
127455.0 516710.0 0
132967.0 516130.0 0
138363.0 517389.0 0
142983.0 514948.0 0
147084.0 516179.0 0
153027.0 517069.0 0
156784.0 517638.0 0
159345.0 514664.0 0
161731.0 519182.0 0
177438.0 515555.0 0
184023.0 514447.0 0
328080.0 515181.0 0
333070.0 514436.0 0
340403.0 515865.0 0
336860.0 517964.0 0
341602.0 519306.0 0
345759.0 515693.0 0
351508.0 517172.0 0
360242.0 515951.0 0
356363.0 518968.0 0
365332.0 517588.0 0
370832.0 518222.0 0
372419.0 514590.0 0
375624.0 517758.0 0
380410.0 516159.0 0
385675.0 517735.0 0
388727.0 514892.0 0
390411.0 518802.0 0
392743.0 514556.0 0
397763.0 515733.0 0
402451.0 514854.0 0
402557.0 518541.0 0
407189.0 517213.0 0
412327.0 516105.0 0
416775.0 519493.0 0
421847.0 517040.0 0
427268.0 519541.0 0
430516.0 514635.0 0
434364.0 517316.0 0
439437.0 515908.0 0
445581.0 517259.0 0
451144.0 517748.0 0
455547.0 516317.0 0
459988.0 517931.0 0
463101.0 519670.0 0
464002.0 515833.0 0
468535.0 516169.0 0
466877.0 519760.0 0
472428.0 518677.0 0
477238.0 514706.0 0
481592.0 517424.0 0
489451.0 518503.0 0
485662.0 518503.0 0
493263.0 516533.0 0
497572.0 514840.0 0
497906.0 518992.0 0
2735.73 523309.0 0
9923.33 521278.0 0
14367.5 521849.0 0
17482.9 524901.0 0
23143.1 523686.0 0
26604.1 519896.0 0
29217.6 523408.0 0
35907.4 519694.0 0
33279.8 523329.0 0
41382.0 521458.0 0
46625.8 523647.0 0
56113.5 520039.0 0
53486.8 524705.0 0
58273.8 523389.0 0
60798.6 519988.0 0
62569.0 524612.0 0
67728.1 523048.0 0
70350.1 519717.0 0
72762.8 522500.0 0
77503.0 521491.0 0
82703.0 520919.0 0
87789.7 520926.0 0
92232.9 520663.0 0
95559.6 522839.0 0
99232.5 520531.0 0
103487.0 522107.0 0
110208.0 524247.0 0
115589.0 522637.0 0
120118.0 523580.0 0
126869.0 522793.0 0
130536.0 520050.0 0
134677.0 521120.0 0
140779.0 521484.0 0
144465.0 519400.0 0
149483.0 519992.0 0
348629.0 520026.0 0
352291.0 522142.0 0
357175.0 523968.0 0
361186.0 520850.0 0
367683.0 522161.0 0
372468.0 522893.0 0
377445.0 522282.0 0
382349.0 520944.0 0
386922.0 522226.0 0
391403.0 523620.0 0
394984.0 520420.0 0
399714.0 522131.0 0
405554.0 522805.0 0
411536.0 521365.0 0
416305.0 524690.0 0
421466.0 522308.0 0
425809.0 524691.0 0
432131.0 520473.0 0
436737.0 522153.0 0
442240.0 520823.0 0
440986.0 525219.0 0
447386.0 522140.0 0
452324.0 523053.0 0
456116.0 520119.0 0
460292.0 522077.0 0
464413.0 523329.0 0
469931.0 523218.0 0
474309.0 522977.0 0
477554.0 519965.0 0
477989.0 524523.0 0
482274.0 522473.0 0
487293.0 522631.0 0
490821.0 521464.0 0
494294.0 520945.0 0
497796.0 523171.0 0
2915.48 528751.0 0
7267.49 525622.0 0
12418.6 526015.0 0
20696.5 529795.0 0
27182.9 528695.0 0
32547.1 527032.0 0
37046.2 525013.0 0
42425.0 526605.0 0
49085.9 528348.0 0
58082.4 527491.0 0
62079.7 529511.0 0
66390.1 527951.0 0
70887.7 526589.0 0
75639.2 526369.0 0
80875.4 525743.0 0
86128.2 525880.0 0
91374.4 525173.0 0
99366.6 525169.0 0
105349.0 525348.0 0
115249.0 526939.0 0
383335.0 526195.0 0
395865.0 525774.0 0
401676.0 526862.0 0
405932.0 527931.0 0
409706.0 526153.0 0
413423.0 529464.0 0
422548.0 527237.0 0
426940.0 529117.0 0
431039.0 525059.0 0
436130.0 527742.0 0
441329.0 529824.0 0
445149.0 526468.0 0
450541.0 528029.0 0
456636.0 524738.0 0
461112.0 526769.0 0
466940.0 528079.0 0
472970.0 527392.0 0
480993.0 527059.0 0
485940.0 527803.0 0
492180.0 525861.0 0
497569.0 527582.0 0
1225.09 532496.0 0
4601.32 532640.0 0
8311.41 530717.0 0
13377.0 530787.0 0
16662.7 532769.0 0
38485.5 530105.0 0
44515.4 531272.0 0
54033.6 530307.0 0
65303.0 531966.0 0
72905.8 531771.0 0
78705.7 530486.0 0
418854.0 530180.0 0
432009.0 530757.0 0
437093.0 532207.0 0
446198.0 530918.0 0
456388.0 529955.0 0
462103.0 532128.0 0
471145.0 532441.0 0
477513.0 529584.0 0
490213.0 530869.0 0
494307.0 530412.0 0
497912.0 532024.0 0
POINT_DATA 5000
SCALARS Radius float 1
LOOKUP_TABLE default
3163.97 5258.36 5061.3 3642.12 5812.43 5906.14 7513.1 5580.89 6810.52 5415.48 5120.0 6182.6 4998.37 5492.18 5867.73 3951.75 5013.56 4499.64 5542.27 5122.66 5484.19 3557.27 5254.28 4402.52 4436.4 4182.53 5733.48 3588.44 4672.91 5645.7 5553.16 2938.66 6110.27 3672.51 4008.92 5840.26 5073.35 4834.9 3863.18 2356.98 5538.89 5351.6 4715.55 6059.59 4375.68 5701.86 5054.98 6030.06 5325.02 5170.02 4927.31 4688.68 4517.56 4432.58 5903.42 3761.32 5176.86 4366.19 4118.05 5065.13 4940.78 5561.06 5670.04 5085.53 5484.83 7021.47 4730.36 5926.61 2720.68 4955.55 4238.81 4468.59 3563.63 5885.03 5246.2 5200.76 4862.64 5185.34 5205.43 6684.56 3955.56 2635.86 5292.64 6166.5 5936.02 3615.22 5305.17 4380.59 6716.79 3850.77 6044.04 5325.36 6759.9 5416.38 6051.14 4195.44 5836.15 4345.55 2837.58 3653.41 5017.13 3871.88 4827.23 3673.74 4911.47 6116.18 3968.64 4688.67 4385.06 7184.19 4290.3 4231.61 3942.53 3379.84 5546.39 5945.65 5418.62 5493.32 4601.27 5740.68 4277.89 3261.21 5539.32 6704.06 5600.93 3856.01 4390.66 4124.71 5279.39 6337.56 5803.39 7447.37 3255.82 4924.6 5242.73 4733.32 2812.98 2899.43 2924.37 3867.67 4861.08 4003.05 4827.82 7613.27 4951.03 4133.88 4094.62 4927.02 6483.19 6230.49 7054.71 5489.43 3641.64 5054.25 5747.75 4796.33 5360.19 6496.85 5541.59 4839.34 5083.08 5728.85 3998.5 5863.59 4381.97 6257.19 5603.15 4737.14 4065.69 5399.73 4712.33 4805.87 3607.45 3589.27 5759.91 4333.2 4665.12 3936.02 5980.74 4174.52 5109.54 6458.82 5527.54 5573.7 7325.81 4055.8 4794.96 4874.39 2980.99 6186.19 4840.01 6834.49 5525.39 5938.34 6394.38 4024.3 5555.28 4686.65 4695.45 4660.72 5556.96 5390.22 6038.78 5227.21 5123.52 3997.1 3260.67 3383.4 3856.1 4044.71 5816.2 3829.13 5693.81 3091.3 2540.31 5789.98 6138.47 5697.4 4727.62 4005.44 5206.78 6425.26 5143.58 4484.76 5611.2 7933.0 5173.87 5118.27 5169.36 5834.74 3888.21 5788.23 6052.7 5697.78 4295.38 4667.36 3038.33 4780.03 5495.39 4487.31 4778.34 4684.5 4138.16 6029.66 6302.8 4270.95 5555.88 5280.17 5028.96 3866.16 6362.12 5152.36 4220.65 6820.42 4455.12 5380.13 4894.16 5711.87 5932.23 5581.75 3666.57 3798.62 3921.18 6902.81 4392.68 3554.9 5252.48 3996.0 4002.16 5708.81 5043.05 5120.49 5409.61 6038.2 5713.22 6732.43 3183.98 4524.28 3778.1 4511.82 5826.64 4727.24 6959.81 4816.2 6321.41 4896.52 3372.79 4941.22 5791.61 6392.01 6644.76 5891.05 5615.42 4091.31 7199.21 5529.52 5542.21 4015.92 5924.89 6894.71 3486.22 5551.36 4414.54 5201.36 5262.61 5094.81 5972.06 5861.71 5017.78 3794.63 5015.69 6175.81 6677.09 5813.4 4829.35 4089.76 4751.02 5282.64 5184.56 4479.66 3369.13 5308.1 3043.85 4254.17 6730.19 6372.62 7565.34 4523.7 6124.89 5481.78 4937.14 4467.94 4850.81 6038.14 4306.53 5024.9 6135.57 5998.38 4312.67 4270.24 4359.04 4989.15 4947.52 4164.13 4520.1 4642.34 5874.89 4305.57 5201.67 3791.79 5526.55 3192.41 4987.87 4715.72 3315.57 4669.66 5367.2 5461.13 4907.89 5629.19 5255.32 5337.48 6084.86 3307.12 4933.21 5478.92 5094.44 5375.47 4723.12 4717.05 5659.17 5287.2 4562.29 5423.8 3417.33 4926.42 5153.74 4165.81 4293.03 4754.05 4424.7 4925.44 4951.47 6084.93 5215.15 4764.96 5607.24 4808.52 3599.45 4726.76 5655.21 5091.39 4937.02 6037.08 5637.59 3586.91 4948.92 3115.91 5810.84 3748.24 4230.54 4655.49 4566.18 3459.9 4809.42 5856.11 4109.88 5013.13 4234.94 5080.66 5110.45 5248.77 4528.09 3556.85 3895.51 4389.21 4128.98 6246.22 5246.61 4307.28 5804.71 5046.33 5020.12 5053.92 5839.13 3735.44 5090.24 4073.93 4645.41 5923.5 2240.39 6756.95 4049.23 3103.0 5601.05 4516.43 4749.8 4493.48 5082.6 6163.38 4964.09 4997.27 4093.08 5543.27 3327.49 4980.85 3960.8 4923.9 5714.58 4973.78 3329.99 3947.47 4083.97 5208.32 4607.02 6673.96 6291.51 5882.89 4100.38 5538.93 5727.3 6352.26 4242.52 4907.06 4786.6 4433.59 5740.84 5096.78 6324.23 4382.74 4384.42 4362.19 3693.63 3937.74 6061.47 4449.22 5628.24 5992.26 5070.39 4613.31 5091.68 3296.27 4713.25 6243.0 5441.96 5174.89 5370.52 4188.32 4739.42 3697.96 4899.11 4745.45 5356.51 3847.38 3057.03 5163.9 6043.3 5530.87 4973.83 4612.68 3320.52 4727.24 4651.28 6355.42 4151.94 5690.56 5244.78 5478.47 5762.84 6142.37 5806.08 5243.29 4853.39 5365.89 3130.65 5004.67 4511.54 5196.0 6119.09 4204.84 5069.25 5048.89 4288.3 3435.9 3991.03 4652.29 5774.81 5344.77 4723.48 5281.28 4278.07 3818.59 2631.9 4087.15 4863.72 5495.68 5952.75 6445.94 3912.37 4310.18 4929.8 5927.43 5492.26 6640.13 5119.37 3982.23 5351.39 4336.42 7589.94 5409.33 4466.03 4178.15 4898.94 4733.04 7531.29 5935.03 3161.47 6826.57 4495.87 3746.31 5027.98 5097.87 5346.27 7267.18 4143.08 5489.34 5002.48 5708.14 4262.82 5537.72 4281.49 4320.28 4129.43 4685.34 4220.88 6519.71 3092.35 5210.03 4583.31 3402.32 4306.11 5903.66 5419.37 5985.29 4247.23 5788.66 4755.47 4485.99 3903.75 6390.78 7435.25 4788.87 5498.32 6475.1 4758.21 6255.18 7500.97 6332.36 5542.14 4218.06 6342.25 3843.58 6327.9 5449.18 3629.96 4714.54 3320.11 6022.17 4503.89 5313.66 4528.49 5275.32 4268.65 4694.83 4354.08 5509.42 4520.62 5475.7 5475.8 5314.69 6050.81 5543.46 6022.72 5527.33 4969.21 2691.29 4277.88 3920.42 6623.85 4931.53 6691.39 6082.81 3191.99 5367.52 4048.37 5030.91 5507.24 5101.59 6851.54 5935.47 2651.49 5512.23 5349.31 4649.22 5394.55 4256.43 5936.36 5229.48 5127.16 4249.46 4244.99 4643.31 6917.52 6256.02 5402.21 4668.71 7228.46 5102.36 8332.24 7134.64 4602.25 5293.9 5110.37 5664.98 4548.16 4322.15 4659.59 5025.39 3813.22 4377.07 5570.3 3848.93 5234.29 4711.62 4114.24 4645.58 5670.2 2976.22 5094.52 2682.24 5928.32 5415.19 4016.18 5526.75 5435.74 5560.26 5965.81 3702.37 2330.66 4177.19 3691.0 2845.98 5320.92 3948.23 5228.18 5787.31 4342.9 6122.55 5480.13 4270.53 6142.94 4931.38 4736.58 3485.26 3240.09 4556.36 3369.23 3688.8 3695.36 5893.5 4547.19 6020.48 3963.86 5076.35 5200.05 4091.8 5181.4 5166.79 4946.74 3950.63 4612.62 4275.57 3619.07 6385.23 5327.45 6185.89 2983.99 5660.85 4750.17 3990.25 4752.51 3758.07 3587.05 4880.14 4989.09 6362.14 6719.88 5978.82 6308.71 5978.9 2739.94 4790.08 4194.5 4329.05 4792.73 5264.06 4515.71 5358.59 6202.55 3817.13 5023.15 3844.9 5273.35 6375.99 4853.02 6259.23 4662.56 3457.48 3405.98 5417.15 5996.33 6631.19 4467.04 5817.25 3997.96 3460.94 2614.4 6184.4 4373.45 6229.37 4982.31 5269.18 5034.59 4406.1 6155.31 5065.11 5911.67 4223.33 4187.56 5082.47 4840.84 5513.6 5138.31 4901.41 4551.24 6387.01 7111.16 4871.44 4564.34 5088.44 6248.81 4998.21 3931.07 7440.72 3688.16 4681.72 3949.6 5661.62 5626.61 4439.35 6363.92 6205.93 3828.81 5309.98 5830.72 5289.52 5314.85 4305.43 4553.56 4942.77 5069.84 3629.62 5329.64 3323.28 4997.27 3708.04 6013.14 3610.4 4621.75 4581.13 6338.89 4219.07 5584.06 6480.17 3838.56 5872.05 6079.11 4256.67 4427.28 6430.39 4945.39 5376.71 4867.08 5407.78 6648.68 6632.99 5061.98 4923.24 7177.44 4307.48 6718.19 4407.87 5450.44 3848.54 3927.99 5266.5 5868.82 4051.44 4716.19 4301.06 5135.69 5344.25 5344.0 4501.51 4602.86 3856.59 2765.2 5572.95 5372.61 5413.79 3686.21 5402.24 6445.22 5013.42 4962.77 6101.92 5323.3 3082.32 4635.6 4765.02 3658.37 4448.13 5703.6 5070.29 6326.18 4807.28 4713.74 4266.03 4537.6 6179.96 4419.61 5147.36 6260.79 4563.46 4082.57 4236.14 5080.18 5941.4 4263.33 4454.63 4050.9 6695.82 5514.76 3456.98 4290.14 5191.63 5379.87 5925.6 5987.17 3979.82 6723.16 4746.52 4948.5 5651.07 5210.48 3627.55 6239.84 5865.39 5370.85 5629.39 3178.54 2684.03 6157.04 5075.55 4768.61 2261.36 4084.49 4220.03 5703.07 5449.46 6113.54 4662.43 3963.76 5169.9 5733.62 5282.91 4425.84 6510.17 4871.96 5331.02 4066.38 4523.88 6049.55 5709.62 4241.89 6405.76 4593.7 6045.46 4043.57 4138.42 5586.81 5006.58 3824.16 5011.31 5130.91 3868.18 3689.45 4527.02 5383.07 4531.14 7552.94 4519.22 4409.63 7644.38 5521.25 5949.46 3661.9 5136.08 3776.94 5246.47 4010.57 4522.21 5506.19 5280.69 6923.84 6166.29 4043.66 5294.77 6553.94 5282.51 3797.33 3004.16 7256.35 5742.65 5592.32 5835.78 5054.74 4877.67 4020.32 3498.2 4763.45 4481.53 4292.06 5077.33 5330.45 3948.17 5350.88 4959.34 4247.15 4602.85 6552.22 4051.34 6004.68 5379.09 5278.36 6799.4 5107.23 5222.16 4187.31 5558.68 3240.51 6191.29 7422.36 6719.94 5161.01 4950.67 5453.6 4709.05 3077.84 4630.82 5255.18 5528.53 4460.92 5460.65 5945.89 4105.55 4800.69 3279.1 5912.61 4099.77 4978.31 4981.9 4245.72 5941.72 3815.26 4150.99 5681.38 6318.18 5045.38 5125.78 4790.78 5452.83 4591.87 6422.84 5534.94 5180.76 6218.95 5533.42 4802.32 5533.72 4599.38 5730.33 4527.99 4628.4 4376.7 5409.63 5227.59 6051.83 4813.08 4263.16 5726.66 6799.88 4540.86 4767.78 3062.43 5426.78 4042.28 4863.23 3555.86 4402.67 4403.98 5381.16 4948.98 4414.48 5794.24 4537.32 4127.74 6562.18 4216.92 4478.15 5147.67 3771.48 5577.04 4986.77 6034.41 5178.99 4027.09 5801.99 4502.18 3312.06 3361.26 4993.35 4690.55 3678.08 5146.37 5518.57 5463.48 4543.1 5545.46 5680.94 5190.61 5832.37 4298.15 3973.12 4642.93 6024.75 5860.67 5987.42 5990.52 5235.17 6566.1 4560.84 6386.78 5227.52 6086.96 5163.02 4541.21 4302.5 4704.72 5908.1 5445.87 5198.77 4107.03 5423.0 5643.58 5215.05 5137.34 5197.52 5344.43 4373.47 5615.35 6169.11 4135.62 5266.22 5172.53 4860.33 4983.39 3685.13 3418.99 5366.52 4480.95 7132.12 5417.8 4836.16 4232.16 5151.11 5581.55 6550.44 3764.06 5941.9 4440.81 6642.76 6109.49 3764.1 4340.76 5652.0 4421.12 4435.36 6065.22 5565.13 4996.99 6193.35 2476.04 4656.78 3066.13 6048.7 4571.7 4177.94 4138.46 2775.04 3975.31 5198.29 4044.45 6070.58 5490.43 4896.11 5022.28 4318.48 6132.95 5226.97 5754.18 4270.74 4558.15 5132.68 6552.21 5227.02 5300.96 5670.0 5193.01 8325.01 3474.5 4523.39 6348.03 5829.22 5567.93 4497.78 2967.38 4835.83 5811.18 5463.41 4929.75 5254.49 4221.28 6045.22 4470.61 4456.39 4631.83 4156.38 4092.24 6009.88 6006.16 4344.58 5896.46 4850.01 3970.25 4271.69 6035.6 4285.32 3627.82 5262.19 6449.45 4285.66 5339.38 5008.63 4004.35 4763.96 3872.61 6293.89 3450.93 5737.75 6595.03 4350.12 3603.51 3834.43 6609.84 4344.51 4707.06 5491.37 3781.77 3860.83 4792.39 4250.88 5732.27 5434.47 4243.79 4779.5 5332.65 4159.35 4237.98 6439.37 6649.96 4896.39 3701.27 4729.43 5233.78 5105.16 5991.09 5126.91 4562.74 4164.68 4678.38 4742.68 5634.83 4810.12 6898.19 3821.72 5526.14 4244.9 4470.4 4986.51 5311.03 3930.79 5293.51 4238.4 5365.24 5097.45 4446.06 4047.87 5742.47 4185.61 3778.02 4095.75 2761.07 4367.78 3319.67 4076.59 5135.96 5222.51 5658.37 6074.94 3475.67 5278.56 7038.89 5146.37 6917.62 5433.65 6451.33 5604.35 5225.33 3091.67 4614.3 4384.88 4332.87 3633.79 6887.27 4806.34 6008.49 5050.65 5316.75 3633.87 3929.19 7099.43 6396.74 4516.28 5315.4 6048.86 4611.53 6894.26 5255.12 6625.18 4573.72 4917.99 5099.21 4298.45 5636.4 5164.1 4428.14 4972.17 5699.53 3783.54 5527.23 4222.77 5268.38 3863.67 4805.33 4814.12 5631.14 6137.8 5067.56 4442.22 4887.76 5413.31 6477.91 4303.19 4081.97 5514.84 6081.14 5421.53 3942.07 5480.83 5776.57 5448.61 4827.33 5495.84 6268.1 5347.48 5922.5 5776.37 4527.08 5486.68 5100.25 5094.48 5678.96 2681.29 6408.83 5576.92 5323.91 4163.74 4586.19 4296.69 6969.28 3665.95 5283.8 6471.42 6464.15 6016.19 6685.4 4479.11 4850.06 6332.01 7044.29 5980.95 4013.38 7085.01 4343.78 3012.99 5263.3 6316.56 5401.99 6420.81 3914.2 5653.9 5134.39 4256.57 7144.24 5133.97 6600.94 7443.72 3937.08 4374.35 4502.5 4011.77 4287.63 2965.79 4410.55 5805.86 5346.68 4049.02 5296.29 5839.71 6234.32 5997.88 4570.98 4585.31 5698.96 4275.07 6372.13 4124.49 5369.5 5714.25 3230.13 5325.96 5016.02 4581.37 4234.18 3352.35 6193.08 4909.65 2735.53 5116.6 4008.15 4811.32 4669.06 4286.49 6400.08 5580.92 4607.85 4220.46 3600.43 5683.26 5371.02 4906.82 3784.5 5513.57 5022.8 5499.11 5252.34 3921.08 5083.41 4190.31 5683.61 4558.46 5020.71 5737.92 5662.55 4360.23 3755.95 5889.35 5010.04 5388.78 5825.38 6238.32 6804.79 5642.35 5535.91 5404.01 6176.67 5955.86 5412.24 5887.38 4920.21 3936.95 4049.16 6069.3 6153.94 5887.01 6523.86 7693.4 4715.58 5784.3 3317.83 4287.53 3532.3 5598.74 6088.68 6070.3 5131.24 7055.53 6133.92 5113.21 4862.21 5965.78 7055.42 3836.45 5443.58 5731.57 5464.68 3056.7 5591.76 2685.81 5896.26 4394.56 6101.13 4587.67 5599.7 6918.35 4066.57 6357.47 4793.65 4891.38 2949.12 4533.37 4532.89 6040.74 2779.99 6942.34 4848.46 5851.61 6836.82 3862.77 5168.35 3858.17 3747.03 4631.99 2783.85 6184.88 4743.59 5829.32 5208.14 4450.7 5151.52 5769.98 5973.33 2221.99 5937.08 4788.58 6155.1 5260.34 5013.67 3719.84 6125.34 6261.42 4274.61 5975.63 6314.07 5687.85 6401.43 4747.55 4539.07 4510.8 7509.24 5093.82 5756.75 5951.81 4834.3 3924.14 6348.54 5156.76 6101.57 3856.53 5460.89 4054.22 5260.85 5742.09 5807.46 3658.05 4393.16 5478.11 3477.1 5388.39 4356.49 4326.48 4437.07 3449.37 4396.25 5092.24 3583.21 4347.74 5442.32 4135.08 4643.56 5612.21 5894.61 5046.21 5729.23 4178.4 5782.6 2586.12 5433.8 6444.77 6248.6 5703.74 5831.96 4475.83 4146.81 5064.79 4840.44 6639.64 5212.43 6318.23 4206.98 5454.12 4058.87 5948.71 5932.07 5844.72 7228.94 2884.65 4648.21 5393.65 3311.29 4595.12 3110.13 4549.69 5030.15 4740.98 3644.78 5526.31 3728.18 3185.39 4078.93 5128.77 5335.47 4526.81 3994.07 5491.9 3763.05 5551.95 5291.9 5067.46 5128.57 5687.83 4929.14 5196.67 5206.48 4709.35 5004.23 5669.65 5934.22 5011.84 5820.48 5253.55 7034.11 6946.21 5564.02 4497.59 4512.11 5759.46 5708.99 6333.29 4558.47 4691.91 4477.04 5480.3 5344.83 7046.11 3427.63 5216.26 6342.48 3687.65 5478.95 3851.85 5174.75 4984.46 5048.55 4024.31 3992.97 5989.05 4961.99 4441.22 5853.89 4386.8 6484.43 6423.81 6192.77 4312.15 5934.82 4583.52 4219.94 5633.61 6405.0 3918.87 5907.46 4659.16 4518.04 4009.62 3101.75 5369.08 4863.01 5620.74 6000.7 5945.08 6496.67 6586.45 5876.71 3780.23 5826.04 3471.03 4004.04 4359.62 5690.26 5607.14 5062.71 6057.22 4156.2 4289.17 4470.98 4933.65 5950.04 6098.1 4231.83 2435.33 4074.48 3614.96 4745.43 3886.68 4449.98 4255.34 4863.97 5439.49 5589.37 4887.52 6571.31 3634.5 4392.65 6413.15 6103.11 4955.16 4904.51 4147.31 5950.88 2202.77 5751.15 4149.55 6551.93 4140.4 4625.67 3485.54 4501.78 4458.64 7122.87 5048.19 6799.23 4264.91 5549.49 5399.29 3580.58 5356.79 4766.06 5233.29 5139.5 5604.21 6442.69 7493.3 5474.8 6320.71 5226.0 5624.49 5339.78 4373.3 4648.04 4750.78 5029.78 3923.03 4730.41 5696.88 3745.84 4643.85 4203.26 5411.85 5082.74 4413.85 6915.83 4844.57 3999.94 6072.45 4027.46 3901.8 5511.88 5941.61 5782.48 3735.24 4031.78 6574.95 6817.57 6853.04 3420.08 4912.04 7165.9 4771.65 4036.91 5110.11 4027.63 6379.14 6631.28 5420.67 5416.45 6459.51 5754.6 3288.01 6870.97 6201.86 5474.01 5307.35 7554.58 3380.69 4725.01 5966.75 5510.9 3657.69 4883.63 6418.11 4243.26 3572.94 4888.27 4153.84 6740.71 6487.56 5789.55 4874.18 2081.58 4011.37 2511.46 3979.54 4778.82 4312.56 3169.67 4968.03 4814.55 5304.13 5833.06 5944.09 3527.05 5698.77 6262.72 3095.48 3664.11 6607.87 3365.82 4166.08 6608.73 3979.26 5188.81 3999.48 6062.05 6939.12 4735.33 6171.13 6853.85 5092.37 4864.22 4020.4 3374.08 3497.9 2395.5 4188.87 5564.23 5151.21 5108.06 5398.64 4693.52 4568.41 3624.7 5262.35 4281.98 4320.42 4504.35 4701.5 5012.97 4891.67 6818.91 3503.65 5569.2 5350.88 5305.59 6114.89 4330.58 5351.86 4355.83 6056.87 5230.02 4342.18 3639.44 5166.89 5446.4 5725.37 5491.63 4505.28 5138.33 3492.83 6015.02 4922.49 5797.36 5119.86 5001.58 4820.17 4592.15 5084.17 6605.86 5423.42 4854.11 2775.69 4901.2 6505.78 5657.36 4612.06 5204.04 3361.92 3306.14 5467.84 5029.47 5490.58 4750.58 4863.79 4702.06 6515.84 5117.47 4163.5 5762.59 4861.06 4143.78 6481.79 5320.28 4298.67 5750.71 5873.69 5960.66 4472.17 4962.09 5654.31 5470.77 4831.47 5563.79 5516.95 4151.76 4406.4 3905.51 3493.47 4721.02 3546.71 4254.37 4596.75 5768.57 4498.25 4222.4 4914.45 4698.87 3573.73 4000.43 3984.88 4661.03 5318.53 5160.59 4732.09 5138.2 5783.48 7001.83 4593.7 3766.69 4349.13 5188.53 3429.57 4521.75 5410.33 4642.74 6735.97 3636.15 5483.7 5652.87 5135.63 6384.7 3152.86 3896.27 5963.36 5169.48 5087.14 6016.08 4731.21 3868.62 6064.71 6102.98 3425.69 4971.29 3743.76 6280.13 5244.22 3684.15 5585.14 7039.98 4729.42 5089.26 4633.05 4901.44 5971.22 2275.45 4909.31 5012.5 6522.59 6124.08 6519.43 5876.64 3619.79 5053.95 4270.15 5395.14 6710.88 3464.83 3967.48 2477.07 4923.41 5374.51 4538.95 5724.64 4123.6 4970.88 7092.87 5224.12 4850.14 3637.61 4569.12 6098.14 4796.58 4938.74 3493.7 6222.42 4200.03 5313.22 3474.39 3436.15 5328.22 4216.17 5711.11 6484.17 4575.94 5021.88 4938.72 5956.65 4597.29 4200.09 5931.77 5097.95 5313.12 5498.42 5351.56 3344.57 6448.66 5220.76 4453.97 6945.98 6412.67 4482.9 5513.8 5036.98 4882.66 6746.66 3840.21 4081.34 3908.56 4844.83 5377.37 5244.78 4311.48 4899.73 5018.69 6394.19 5952.38 5807.52 5518.11 4192.21 5712.35 4743.9 3124.7 3719.11 6060.17 6711.21 5510.45 4236.86 5832.29 4438.76 6456.58 4159.81 3886.72 5244.98 5415.45 4998.22 5533.19 3776.8 5711.62 5417.21 4785.25 5435.19 5461.55 3562.79 7093.13 3298.2 5926.11 6306.21 6667.68 6213.04 2990.77 3163.78 4497.31 4925.63 5965.15 3830.46 4305.16 4763.66 4666.81 4888.6 5882.65 6739.08 7042.12 4797.52 6326.39 4471.58 5462.21 5463.38 6313.06 5945.21 6470.3 6345.13 4050.08 5599.49 4719.7 4097.57 5452.42 5005.85 4893.49 5325.44 5102.75 4834.87 3672.21 5938.17 5760.22 4795.43 5607.3 2928.82 4638.18 4811.76 4196.37 5211.6 5806.31 3556.79 7317.04 3503.41 6204.65 3971.08 5438.92 6550.4 4244.49 4120.07 4775.04 4952.52 3646.95 4954.76 6334.53 4906.11 5869.67 4564.1 5457.66 4848.14 5366.22 5973.89 6193.73 5254.24 3742.11 5701.52 3597.43 6776.22 4467.13 3877.8 5153.18 6273.6 4730.14 5902.67 5454.11 2606.51 5393.76 3994.39 4941.02 3864.92 6006.89 3814.65 2955.36 3965.3 5792.98 5096.43 6156.21 6602.43 6104.26 4383.56 4990.79 4798.17 6865.76 4953.1 5253.37 5424.46 5235.11 5211.38 5266.01 5767.9 4721.32 6515.8 3293.56 5092.28 6413.11 5078.86 4918.77 4739.14 4780.2 5163.55 4636.5 4819.73 6817.32 3382.7 6471.55 5085.71 6343.14 6643.85 5501.93 6049.79 5862.86 5374.98 4390.41 6113.95 5226.56 5274.19 4901.07 3981.07 5186.3 6496.52 5017.5 3991.42 4388.63 5966.61 4940.28 2216.82 4514.79 4509.89 6752.75 3004.34 5269.38 3022.6 5375.1 4172.6 6100.73 4745.79 4198.94 5470.04 5456.71 4908.75 4211.82 6556.26 6003.78 2628.22 5684.25 4901.29 4124.76 4050.03 4147.49 4813.33 4833.55 4705.68 7224.99 4869.48 4749.96 3623.19 4658.24 4387.39 4745.16 5825.55 5509.51 3199.4 4316.5 7261.51 4968.14 4914.03 4158.91 5144.56 5321.17 5311.55 3360.86 4869.25 5545.21 4763.4 5024.32 4708.17 3779.45 2741.2 5806.61 4618.73 4983.1 5784.37 3668.93 6119.99 4960.64 4983.3 4128.1 5372.82 6592.93 4385.81 4034.05 6350.71 6436.74 3568.28 5583.61 5425.98 2895.63 5166.79 4516.53 6449.64 4857.84 3940.49 2040.66 6031.67 5384.76 5529.42 5274.14 6138.12 5257.12 4434.19 4903.82 5100.1 4940.42 3954.91 3703.1 5923.4 4623.61 4946.42 5409.66 4082.47 4319.79 6263.44 5960.56 5122.63 5774.97 4020.95 2315.64 6766.43 4703.08 4890.5 4488.85 3731.84 5010.2 3554.48 4579.69 4997.83 6123.03 5148.08 3718.69 5578.94 6192.0 5885.28 7610.49 6579.31 4286.17 6028.09 5323.55 5452.36 4609.02 3804.5 6486.37 4896.65 5561.74 6083.28 4788.08 6163.54 5212.37 5965.58 4607.18 5058.51 7200.89 3899.7 5162.67 4802.98 5760.98 5469.35 5384.86 3835.81 4019.34 5510.96 6653.07 4697.91 5071.98 5719.79 4371.08 5148.1 5224.64 5949.73 5214.63 3495.68 5086.29 4312.48 5527.13 3034.16 5139.18 5551.43 5049.99 4201.03 4333.87 5136.87 5638.7 5813.79 5790.42 5293.13 7123.04 6010.59 3682.35 4009.24 4446.58 4402.17 7778.01 5690.96 2460.79 4653.83 4456.11 6063.64 5996.66 5818.95 4986.71 6479.39 4093.99 5079.22 4122.92 6464.8 2978.76 3604.14 7016.27 4908.49 6622.11 4962.21 4689.15 4428.78 5884.9 5089.62 3685.65 4965.89 6790.73 5746.28 4371.99 4590.55 5659.95 5187.7 5243.43 4741.26 6090.91 5920.32 3561.29 4537.14 4186.6 3295.83 6413.02 2965.01 5203.08 5412.31 6235.57 3492.19 5374.07 4863.27 4584.5 4118.84 5916.16 3623.87 5163.77 6934.37 6027.62 3423.15 6098.95 5765.42 5453.98 4817.16 5653.03 3989.7 4157.29 4777.03 4246.61 5107.0 3684.56 5327.75 4946.23 4532.7 4852.58 4504.86 3217.67 5975.23 5079.64 4473.29 4509.46 996.652 4680.69 6500.49 3352.34 4972.18 2403.72 5078.59 4365.58 5134.33 5419.57 2646.13 4636.53 3629.49 5766.05 5117.64 3916.42 5429.3 4944.51 5532.72 4584.81 3220.8 5179.17 5579.39 5270.51 5490.75 4407.79 6548.29 5783.94 4278.57 6370.33 6318.25 5081.08 5001.87 3667.93 4493.79 5684.05 4644.88 3142.09 4028.22 5591.77 3756.96 5182.13 5906.57 5401.4 5053.15 5127.82 5798.38 4125.9 5124.17 3862.91 5096.24 5366.11 6171.71 4405.42 7382.3 4997.91 3598.08 4452.54 4599.81 2995.67 4684.44 5381.54 4406.05 4749.59 4858.44 4680.94 3468.42 3685.13 5828.35 5799.69 4673.35 5571.72 3876.21 4655.16 5869.4 4916.22 5297.19 3701.16 6022.7 4152.85 5551.9 4219.78 3867.19 4188.3 4963.34 5081.78 4260.92 5499.39 5644.82 4407.9 4718.54 4440.57 6736.03 3087.09 4055.54 5548.29 7480.41 4588.7 3766.55 6107.89 5469.13 4976.12 5530.49 4304.41 5660.55 4892.44 6789.23 5069.89 6212.15 5361.87 4783.07 6813.72 4757.2 6200.63 6816.66 3844.54 5241.75 5034.69 5849.53 4651.99 3538.53 4420.11 6127.39 5640.12 4918.64 5329.76 6638.25 4815.47 4759.99 5214.4 5193.58 3889.98 5490.64 5399.43 5034.34 4507.46 5695.44 3769.2 3468.45 3422.21 5603.68 5036.14 4526.34 5610.95 5042.75 4598.92 5241.22 5673.75 6647.08 4979.52 3422.29 4537.03 3990.96 4114.2 4326.06 5352.24 7362.42 4202.77 5836.14 6864.06 6008.81 4279.44 4932.56 5192.49 4899.19 7350.26 3768.46 5167.53 6110.48 7541.76 5910.86 4775.49 4681.29 6239.68 5805.1 7320.78 5039.12 4064.58 3908.98 4668.88 3419.87 3628.89 4022.56 6589.82 5522.21 5027.43 5698.23 5810.77 3772.3 4855.01 5089.1 7300.58 2711.19 4714.83 4028.32 5876.72 5236.43 5689.26 3809.69 4992.42 7051.9 5251.4 4940.84 4345.67 4453.64 4255.85 5019.93 3885.86 4459.28 5235.29 5177.64 5453.3 5191.08 6116.33 4479.94 3838.47 2588.37 6250.23 5887.15 4435.51 7234.66 8659.64 6599.66 4886.12 6419.12 5683.95 4301.61 4233.8 5206.33 4446.84 5065.26 3746.36 4356.36 4741.28 4215.2 2603.64 2856.55 2205.51 3703.49 4553.68 6502.97 4268.19 3205.68 3758.22 4583.94 5969.37 4928.35 5046.31 1937.5 4337.32 4731.53 3763.9 4788.7 5084.5 5863.0 6562.03 6206.98 4410.82 4368.12 6443.99 7212.97 5698.53 3856.73 5887.71 5635.32 5409.08 5481.64 5360.67 4778.37 5968.54 6263.3 4501.05 5124.34 3247.97 5592.54 4358.81 4904.37 5034.46 4651.64 5757.29 5793.12 5473.05 5537.34 4373.2 3487.31 5058.34 5884.99 5726.42 3918.94 3852.82 4507.36 5575.11 5487.63 5003.3 6245.52 4932.29 5499.59 5749.6 3845.9 4834.44 6016.87 3125.13 4234.88 4141.21 4439.71 4824.81 4384.28 5782.43 6328.42 5769.14 7307.21 5522.75 3608.06 5867.64 5474.15 7519.2 4099.92 6633.61 4771.13 3208.96 5285.07 4884.59 3858.06 4680.14 4478.6 5097.69 5895.77 5511.6 6261.75 4765.72 4517.73 3757.34 2908.7 5857.79 6415.61 4039.91 4338.08 5276.7 4541.8 6134.99 4255.31 5424.88 5148.58 4062.5 3583.49 4928.27 4199.45 3548.39 3673.28 5421.64 5415.85 4858.51 4366.74 4207.54 3375.28 4603.5 5297.16 5354.66 5625.65 4647.67 4936.96 5378.23 4481.76 3184.64 4787.97 4981.43 5375.12 5452.78 4061.6 5473.72 6214.73 5175.89 3894.64 5232.85 6618.21 4374.74 3717.47 4062.56 4051.18 4685.4 6240.42 5146.0 5721.14 6006.16 4288.45 4577.73 4987.28 4071.75 5549.71 5131.77 5482.76 4967.51 3745.02 5173.82 3720.7 4211.36 5378.24 4450.49 3604.31 5817.74 5661.6 4827.61 4316.45 5285.75 5385.03 5134.17 4169.15 5370.9 4074.16 4529.77 4904.35 4325.13 6172.27 5390.33 5278.54 5729.92 5016.46 5469.17 5061.75 3769.24 6022.78 4087.32 6643.4 4674.9 6599.28 5461.72 4361.24 7145.73 5800.81 4990.23 4168.52 3220.29 3954.77 3784.94 5166.05 6715.73 4174.44 5667.51 4456.26 5113.6 5944.3 3563.14 4810.98 3381.82 5135.5 5431.29 6208.9 3619.72 5347.9 4923.57 4646.51 3340.09 4438.58 4565.93 6059.93 5602.53 5217.95 4608.41 6355.68 4732.09 4184.23 4083.79 4833.46 3988.3 4144.57 5750.07 4351.38 6136.49 4642.66 5550.75 6543.13 4809.67 5149.72 4752.14 4687.64 4950.97 5037.06 5660.16 5842.56 6200.54 5713.03 4094.73 4652.01 5849.65 5134.67 4110.59 5775.31 5052.84 4847.14 3332.49 4165.21 4215.0 3683.86 3950.27 5116.66 3566.79 4214.44 3629.44 3299.24 5374.67 6246.56 5826.78 4508.18 5064.67 5836.26 4383.68 6666.67 2617.39 5144.44 6063.44 2904.46 4826.52 5120.92 4629.02 4924.07 4927.73 5914.5 4602.57 3565.32 3419.07 4608.62 5407.96 5344.44 3186.07 4626.72 4369.86 5728.58 4887.73 6297.99 5918.95 4538.89 6556.86 3242.31 4898.29 6099.28 3234.26 5372.25 4830.13 3494.16 5620.88 4941.52 5900.0 4262.74 4581.1 6241.77 3783.79 5317.19 5078.73 4248.14 5729.0 5192.92 5275.57 4179.87 6224.13 4786.66 4761.84 3661.67 5370.1 5517.65 4009.68 6647.85 2569.12 7025.09 4433.12 3392.26 6224.85 2549.95 5138.93 5403.97 4556.19 5106.46 5368.66 6793.1 4506.66 5515.73 4068.31 3671.06 5209.55 5077.29 7035.54 4708.31 4564.41 3873.92 4198.9 4027.33 4850.5 5026.76 5951.86 5091.22 4252.18 4833.67 5023.41 6282.38 5640.72 4504.52 7107.63 6061.63 5073.02 5484.36 4511.7 4187.94 4304.63 4829.35 5980.59 3953.55 4063.9 5263.27 5933.7 5021.77 6834.41 4757.74 7248.4 4356.25 4378.3 3796.15 5469.47 4419.71 4244.21 5512.16 5411.02 3197.63 4989.56 5175.29 3645.12 4287.16 4863.96 5199.44 5580.34 3852.6 5009.83 5131.15 4706.5 5717.8 4811.22 5210.75 4474.83 6555.44 4918.76 5293.75 5003.78 5114.07 4208.41 5730.61 4385.49 7124.45 6358.93 4559.74 5064.23 6061.85 6015.22 4454.74 5512.44 6449.06 3460.93 3200.6 7168.2 4571.74 3763.85 5710.33 4096.86 3622.48 5001.51 5115.42 6432.8 4209.0 4082.4 4930.72 6424.77 5485.84 4335.79 5453.69 5689.56 5432.04 3921.27 3702.45 5265.63 4431.06 6523.78 5730.2 4045.67 6005.95 4308.49 4930.17 4745.44 5762.82 7360.12 5279.19 4016.6 7050.08 5580.44 5891.25 5129.4 5114.51 4622.73 3303.49 4655.37 4161.32 5161.74 7336.37 5256.75 5099.9 6945.69 4795.08 6406.8 6562.92 5501.73 5648.78 4697.24 3612.44 4983.43 6331.74 5233.76 5426.4 5763.05 5357.39 5129.68 4659.88 5076.84 5325.91 5851.63 5727.79 5212.92 2279.05 4867.7 4831.93 5788.97 6545.43 3472.91 4075.28 6760.92 4277.24 4469.54 4989.2 4314.56 6300.92 5161.1 3928.53 5291.05 5036.58 5329.59 5776.96 4888.12 4409.27 5439.9 4588.99 4321.21 4617.55 3875.05 3540.11 3456.47 5950.45 5471.74 4344.34 5088.57 5966.42 4923.43 5666.95 5210.38 4127.53 4489.99 4548.45 4658.11 5260.52 4551.26 5678.58 5658.14 3185.09 6570.35 4242.63 5114.23 3269.54 4263.18 5846.95 7142.95 5701.63 4620.95 5268.15 5368.93 5819.0 4488.39 6347.72 6121.56 5124.86 5740.78 4796.12 5997.91 5385.86 6791.86 6031.22 3618.64 5703.84 3530.82 5797.32 4002.99 4886.99 3161.1 5159.67 5764.52 5684.88 3770.22 4390.64 5150.84 4645.86 4608.01 5087.97 5339.82 4519.03 5460.57 5110.27 4085.96 6668.98 6649.52 6223.98 3035.06 5821.49 4262.19 5998.13 5095.52 4746.15 6275.25 3720.38 4758.84 5585.25 4731.37 5023.61 6351.89 5932.28 5118.86 4298.7 7086.69 6170.9 6875.73 5226.42 6081.3 4436.48 5615.35 5117.52 5866.91 6405.69 2820.07 5679.74 3791.41 4546.44 4092.07 5657.55 5853.12 4213.05 4224.3 4208.37 4184.21 5157.38 6203.03 4700.07 5188.82 5615.84 4464.73 4023.93 4928.85 5868.89 8137.11 6650.77 5484.32 5007.21 6045.67 6226.14 4209.49 4216.95 6119.63 5742.74 5464.25 3821.94 4209.31 5486.48 3498.16 4247.69 5718.28 5301.47 4752.9 4947.24 6242.79 6506.86 5391.48 4803.57 5467.63 4728.55 4554.68 4929.6 4568.64 3919.62 4642.2 5984.8 4945.0 4212.15 4585.04 3127.83 6102.49 4241.68 3469.18 2945.34 3372.95 4095.83 5695.25 5495.0 4489.29 7407.91 5676.61 4301.93 5796.26 5716.42 4603.04 5293.37 4870.94 5271.88 5559.79 5879.24 2980.31 3148.79 6348.93 6824.53 4332.64 4742.82 4422.23 4820.68 4171.02 3989.26 7012.36 5028.06 4293.3 5587.3 3572.73 6583.37 4864.38 4848.98 4491.96 5184.98 4467.51 4479.5 6261.67 5065.78 5703.34 4612.68 3207.84 3977.98 4232.33 5462.6 5617.29 4747.68 4597.88 3093.38 4845.91 4878.93 2002.78 5631.32 6892.33 4505.3 4452.36 4672.86 3976.0 6530.78 2960.5 5560.23 4975.32 5237.55 4183.4 3902.48 4733.79 4304.64 5833.78 4905.53 5758.98 4823.06 3967.76 5254.49 6311.89 4683.28 4217.36 6549.8 4825.73 4851.18 5247.01 4165.36 5005.72 5288.33 6296.54 5235.87 4841.7 5702.4 5273.37 5069.9 5043.14 4717.73 6440.38 4732.37 5556.0 4985.3 5072.5 4711.04 3904.07 7144.05 3274.85 4173.54 5545.59 4619.2 5466.33 5599.29 5280.12 3946.28 5984.81 7216.98 5721.05 7013.17 3805.67 4590.01 5367.73 4514.39 5078.31 4640.06 4807.35 4227.41 5993.0 6761.81 6047.14 4140.92 5630.9 4512.07 4368.28 4692.32 5750.35 5463.06 5236.24 3986.41 5532.75 3587.93 6949.65 4517.29 4975.85 4495.75 5323.95 6171.01 4468.26 5578.18 5106.33 5198.94 4028.35 5933.54 5464.05 5453.2 5264.83 3901.53 5136.51 6815.51 5313.86 5232.16 5189.91 4457.05 5777.26 5151.19 6119.0 3792.06 5128.59 5485.61 4993.49 5310.33 3688.83 4569.32 3402.44 5537.61 4397.06 6084.88 3543.98 4053.12 4014.44 3435.13 6604.72 4431.46 6002.77 4610.55 4521.42 4967.02 4614.49 6043.34 4939.56 4128.93 5770.92 4959.72 4723.71 3808.04 4461.67 4405.61 6322.0 6126.5 5793.14 6007.1 4491.26 4511.34 4068.41 4832.21 6463.71 5059.37 5783.38 3043.77 4139.39 3909.94 6264.03 6030.39 6589.8 3799.01 7392.65 5319.1 5288.64 3757.23 6213.24 6734.39 5942.45 4150.76 6123.46 5368.52 4871.77 5811.26 5797.21 5685.74 5473.89 952.938 6740.35 6089.45 5810.17 4966.07 5713.36 4657.24 5748.9 4749.18 5553.94 4506.18 5606.51 4801.8 5166.41 5740.65 6038.68 4444.97 5046.12 5271.02 4807.4 3000.29 4350.15 5261.19 6329.53 4139.3 6541.45 4601.74 6101.86 5228.75 6545.99 5334.36 2918.64 3903.91 6139.64 3990.94 4756.8 4896.43 5477.8 4176.32 5486.89 4462.35 4639.8 4549.51 6069.78 5025.42 5196.08 6379.38 6257.79 4849.5 6229.83 4523.81 5977.66 5065.74 5791.25 5876.51 4873.23 6731.89 5410.6 4286.61 4733.41 2932.52 4603.66 4969.68 3557.46 6636.43 5431.14 6298.8 5971.95 3689.24 5178.07 6412.84 6509.54 2589.19 6079.55 4696.06 5308.4 6581.13 5803.3 3228.27 4721.98 5252.82 4199.44 5056.26 5878.55 5445.91 4812.59 3794.47 7115.67 5400.69 4462.5 5573.31 4712.17 5004.68 4023.88 5348.11 5428.24 4034.88 5108.84 3511.5 4520.14 6345.2 4609.65 5704.61 5009.21 5410.73 4742.35 5394.79 5645.54 5264.08 5088.64 3562.8 4526.87 4151.74 5192.82 6920.92 3729.16 4174.22 3783.36 4181.93 3573.84 3038.91 6828.8 5987.88 3579.59 4228.53 6161.94 4065.28 6142.88 5155.28 5111.26 5388.73 5062.77 4678.7 6019.35 3673.6 6075.99 6028.63 3306.84 3450.07 5265.21 4400.14 6215.87 4550.92 5191.26 5494.28 4067.96 4824.12 6542.5 7104.73 5067.56 2596.96 3834.47 6349.67 5701.75 3272.75 5262.47 4264.54 3512.94 7043.44 3516.27 3831.52 4263.65 4750.49 4263.78 4643.9 6106.43 3787.08 5644.81 4013.86 4816.51 4177.47 4218.16 5218.42 5345.73 4933.49 4841.23 4770.63 4357.11 2804.54 5589.53 5005.6 7208.19 5234.2 4612.13 4965.24 5846.6 5327.05 5438.55 5353.23 4434.65 4290.49 6688.53 5209.5 6175.27 5927.1 6500.45 4907.55 4103.76 6605.11 4757.87 6379.33 5130.57 5652.73 3979.46 5402.45 6321.97 3985.93 6071.59 5985.75 3856.4 4137.16 4937.36 5984.55 5672.46 3956.24 7558.99 4142.1 5043.14 5333.04 5089.1 4521.99 6842.54 2853.68 5675.45 6038.56 2807.46 5599.16 3488.34 4179.8 5658.35 4582.12 5886.81 4295.25 5067.92 5488.96 3188.21 5128.03 4379.91 3720.92 4574.03 4942.63 5290.37 4227.66 5850.38 4691.01 4594.89 5245.95 4067.89 5821.42 3922.28 6294.09 6570.43 6883.86 3350.99 4979.5 5057.59 4745.37 4461.14 5418.98 5285.6 5205.38 5575.11 4949.55 4884.93 4600.71 4764.83 5262.79 5927.2 5146.1 4419.79 6485.77 5866.42 3669.32 6060.06 4704.92 3663.0 4762.1 5610.53 4099.26 5206.47 4954.81 4834.39 2970.9 6162.3 4383.47 5971.21 4608.34 4835.97 5493.89 4057.17 4184.47 2781.96 7066.96 4467.0 3104.96 4994.65 4587.7 5601.55 4258.98 4462.87 5196.92 5759.79 4598.54 4711.15 3825.48 4658.59 5188.22 3810.68 4196.62 2809.19 5453.77 4916.7 4104.04 5030.33 5593.79 5157.73 5104.39 5847.91 3539.68 4934.66 4984.01 4109.44 6217.33 4903.84 4605.39 4557.1 6270.59 6045.26 6263.87 4094.63 5743.8 5084.76 5581.01 6834.92 5749.53 5090.48 5247.73 5034.02 5582.28 5945.25 4649.5 5181.31 5475.83 6189.29 4329.8 3074.49 6571.26 5728.27 5202.33 4313.38 5580.95 3393.59 3549.92 5250.56 4032.06 5246.81 5888.95 5394.78 3463.34 5122.38 4998.37 3361.11 5901.71 6559.82 6565.95 4577.98 5043.34 4487.51 4246.24 7394.47 5357.14 4850.95 4729.45 5919.27 5087.3 6139.74 4975.57 7066.26 3057.3 4730.97 3677.85 6150.31 5214.71 4677.84 4515.02 3463.53 4571.57 6126.03 3445.92 3820.19 5131.07 4121.07 5236.69 4586.82 6026.04 5939.29 6200.05 4574.54 5859.17 5615.06 3132.34 1969.87 5490.54 4841.28 3957.38 4047.95 4494.15 5035.71 5507.38 6889.5 4710.88 5407.69 5544.27 3484.81 3742.31 3987.69 4316.0 4546.96 6304.49 4287.25 4580.06 3926.11 5134.72 5695.79 4271.07 4191.01 5464.83 3622.8 4589.06 6419.64 4920.88 4770.51 5414.58 4431.23 4991.35 6511.37 5740.98 4346.07 3999.5 4216.44 6710.14 4012.92 5034.05 4426.02 3953.26 5467.51 4474.39 5459.92 4625.53 2347.41 4096.47 4542.16 6478.35 5114.67 5353.66 2638.82 5527.27 5765.14 4541.22 4767.54 4946.08 2927.84 4696.03 6177.68 5466.13 4698.7 6229.64 2848.44 4220.43 4975.56 7282.36 6666.34 4645.91 3826.01 6959.88 4125.75 3746.62 4876.37 4532.67 4769.62 5260.13 3995.08 4810.74 5019.84 4028.13 3900.93 5784.38 4149.17 6260.58 3053.19 4720.22 5827.3 6598.99 3633.58 2468.16 6294.14 5203.75 2459.88 5262.85 5169.09 5329.84 4210.24 5470.67 5225.11 5342.9 3879.83 5252.22 5733.12 6436.29 6805.02 5402.81 5354.48 5640.63 6261.13 5374.09 4793.06 6637.38 3421.81 6188.33 6111.23 6916.18 5786.06 5873.62 4811.11 4996.91 4924.52 4866.8 5379.52 6044.69 5524.28 2970.24 3133.28 5105.54 4197.87 5731.43 6353.81 3414.67 4052.49 4034.41 3518.14 4150.44 5061.74 5203.54 6189.67 6142.94 4948.96 5001.69 5117.83 4416.87 3869.39 5960.5 5300.17 5308.33 5152.78 6502.99 6896.55 5424.55 4666.12 5755.15 4392.75 4921.1 3814.16 6219.34 4420.6 6023.07 5340.05 6506.63 3626.86 4215.05 4140.04 6371.96 4668.8 5995.4 3495.3 5577.41 5322.11 5917.34 5700.79 4697.49 5735.08 7133.44 4726.2 4750.81 4282.11 4656.01 6589.13 5602.62 5714.51 3543.37 2030.03 4938.33 5628.97 4484.78 4621.33 4801.16 5071.38 5121.08 5616.66 5688.77 4802.36 5368.28 4880.78 5257.38 5075.23 5625.02 5212.05 5479.86 4829.77 6474.5 3928.99 4763.04 4444.92 5944.52 5971.9 4413.56 5050.2 2513.38 5316.05 4908.32 4499.52 3874.12 5759.19 4457.73 3113.64 6476.35 4304.75 4067.24 5480.86 2832.83 4474.96 4084.87 3010.1 6036.99 3825.98 3584.05 4589.22 4339.97 5087.03 4667.84 4512.6 4691.15 4260.38 4636.45 4932.27 5638.51 6793.49 4962.35 6786.37 4333.23 4600.81 4124.33 5168.97 4900.26 5783.88 4167.55 6271.22 4720.34 5244.47 5378.75 3920.64 6186.24 5510.89 5822.7 3780.07 4137.41 4159.89 3868.69 5447.74 3920.44 4450.51 6033.72 3768.62 5314.67 5658.05 6593.1 5462.1 4066.36 4000.51 6032.45 5444.36 5522.34 5326.03 5771.98 4420.35 5899.78 5717.45 5772.57 5256.82 6581.56 4117.9 4052.43 5393.43 3980.46 5534.23 4753.76 4638.09 6025.77 4685.65 4441.91 5377.01 5674.63 5287.25 5828.25 5939.22 4725.11 5092.93 5418.12 5934.05 2803.01 4271.93 4604.1 5125.17 5890.25 4399.52 5322.07 4859.01 5076.11 5524.45 5990.75 5600.21 5101.6 5327.39 5781.62 4037.86 4981.81 4138.59 4970.55 5141.03 4840.44 8123.59 4819.83 6286.27 6327.54 4188.16 5507.07 4654.92 2943.17 5286.55 5327.71 4322.56 5509.09 4850.49 3873.72 4592.49 4981.55 3625.98 5144.23 6188.62 4702.32 5908.57 7296.47 5742.39 4821.41 4780.16 4924.53 5616.11 4813.24 5312.2 5847.27 4490.2 5734.84 3982.31 6139.9 4582.24 4758.76 4790.63 4916.75 5259.29 4818.53 3906.41 4123.08 6224.64 4221.03 3799.55 5082.66 4550.77 6060.19 3563.33 3860.8 4328.76 4919.13 5940.5 4358.06 5002.38 5093.51 6705.93 4865.11 4731.16 5502.14 6470.87 4495.33 5282.67 5466.49 5178.55 4038.17 5007.41 3851.47 4907.48 3692.99 4966.74 5563.47 5651.46 1635.31 3162.27 6033.93 5011.37 2827.92 4026.03 5044.68 5092.44 2649.69 4441.44 6908.32 3467.11 5000.74 4813.81 6153.26 5268.27 4013.86 4061.87 5165.31 4057.4 4896.67 4585.37 5383.9 3934.11 3798.09 5158.44 4466.22 4288.5 5330.26 6470.23 4475.38 5917.08 5483.37 6561.94 5259.21 5317.83 4256.08 6738.9 5640.67 5881.93 4460.89 4157.1 4714.66 8052.53 4444.0 6771.18 6182.19 5770.07 4984.17 4867.12 5910.66 7415.84 4637.3 1458.87 5734.07 6241.48 3997.68 5125.45 6033.28 3784.68 3717.22 6649.21 3470.69 4859.95 4132.08 5522.18 5223.1 4699.77 5093.41 6842.35 5464.34 3621.63 6153.07 4414.06 6833.5 2613.78 5417.07 3834.01 5738.37 4433.23 6789.66 4739.41 6760.64 4706.59 2515.5 5177.88 5551.79 4950.07 3916.15 5367.05 4088.72 3743.85 6236.46 5097.85 5584.64 3795.63 5189.4 4576.71 4337.93 5201.3 3550.88 4345.51 5536.0 5145.13 5561.63 3747.96 5611.29 6568.45 5004.22 5647.93 6201.49 5449.09 4605.61 5154.74 4465.56 4131.08 5747.9 5386.95 3864.19 5146.69 6203.24 6818.23 6213.74 4959.94 2329.93 6938.87 5639.4 6185.73 5516.37 4083.24 6520.96 4232.44 4612.4 5336.61 4817.75 3312.3 5563.09 5637.53 5244.95 4645.93 4439.09 3882.37 4634.25 5448.64 5901.8 6351.48 6417.61 4781.9 5715.51 4496.51 6815.96 4511.05 6153.71 3830.7 5339.6 6074.39 5432.4 5350.9 3775.38 3483.61 4262.52 7430.48 4844.2 5992.06 5545.68 6080.69 3751.73 3939.96 4554.24 3374.62 5555.89 4970.12 4967.93 6044.01 6520.19 5973.57 5922.62 5130.56 4957.99 4414.09 4063.26 5191.29 5957.82 6305.9 4542.62 5093.28 4881.51 6131.52 6009.88 6729.99 6664.54 3922.98 5161.73 5259.48 4777.96 4803.4 5801.89 8013.28 6608.94 3796.73 4644.68 5283.65 3082.16 2892.36 5656.84 5911.29 4694.27 5416.41 4849.21 3793.83 4785.55 6981.47 4449.73 5647.11 3945.62 5342.17 6379.3 6189.04 5015.67 6538.04 4894.15 6157.59 5848.41 6223.33 5438.6 7370.52 4521.88 3724.23 5103.3 4280.92 4601.54 7263.57 4696.92 5705.96 6437.99 6898.8 6632.04 6540.57 4287.93 5315.71 6158.93 4488.41 5081.65 4369.87 4823.14 6679.12 5412.07 5652.19 5806.74 5512.57 4806.99 5432.2 3771.91 5217.62 6178.19 4746.19 6381.58 4848.15 5715.25 3282.57 4798.13 4611.21 5523.81 4095.4 5188.57 4718.61 6697.45 5395.12 5717.67 5357.33 3886.56 5783.69 5252.37 3456.3 6210.0 4499.54 5782.25 5037.58 6457.89 4081.77 5114.61 6572.17 2181.29 6118.13 4420.3 4926.62 6332.64 4766.47 4871.1 6369.66 3917.09 6009.93 5678.08 5872.45 5270.1 6351.95 5195.09 5345.05 4947.64 4997.89 3997.52 7679.2 4909.74 5779.9 2626.41 4311.92 5299.03 5036.84 4565.36 5813.68 4025.08 5254.93 4008.67 4770.21 4868.66 5159.9 3846.55 4987.48 5943.61 5981.54 5020.37 4542.25 4414.23 5233.88 5245.4 6189.81 4090.28 4048.73 4246.83 4726.5 5467.05 4963.88 5888.94 4727.98 3832.09 4122.2 5175.88 5267.65 3509.34 5360.88 5332.11 4893.72 6004.72 4072.4 5373.78 5345.65 5438.5 4621.32 5699.4 6578.62 4813.55 5856.43 4796.04 3839.0 3465.03 5349.85 4616.81 6011.4 5799.86 4672.34 5212.2 4362.94 5648.59 4469.82 5108.42 4630.5 3873.79 4432.32 6296.36 5515.59 5237.27 3721.69 3224.81 4451.76 7885.41 4750.76 4046.22 4104.97 4948.21 4575.72 4444.95 4987.01 5606.22 4721.2 4706.31 4202.12 5161.02 5003.81 2694.25 4203.68 4735.99 6492.44 4083.1 4613.32 3482.73 5145.39 3996.93 6225.05 5434.04 5200.1 5994.21 4884.93 4444.54 5403.81 5082.25 6964.78 5310.33 4374.05 5282.51 5504.65 5669.41 5732.11 5040.9 3618.53 3783.35 4037.16 4004.39 6395.63 4248.58 5479.17 4516.26 5739.69 3647.26 4790.16 3731.58 7360.62 4977.64 4983.56 4985.45 5699.51 5499.37 2489.44 4489.18 5863.36 4632.75 3878.8 5237.76 4698.94 6284.12 3948.21 4286.84 5669.15 5229.56 5296.05 5263.86 6988.4 5172.1 5056.32 6052.22 5376.41 6545.78 3354.94 4404.87 2932.2 5105.72 4082.01 4944.08 5576.16 5767.65 5003.49 3964.03 4305.35 5210.22 4907.03 4216.33 5497.27 5617.91 3903.9 5051.39 6673.92 3943.77 5242.38 6265.48 3124.49 6081.35 5459.52 4739.56 6262.18 3818.37 4701.03 5566.5 5663.36 3352.46 4276.59 5579.04 5125.53 5405.6 3929.35 4223.53 4759.38 4535.94 6960.97 4287.15 5126.08 5604.0 3760.4 4951.02 3919.47 4602.7 5596.68 3166.37 5369.42 5207.08 5205.53 4714.52 4587.19 5543.05 4883.13 4836.76 4752.94 4994.98 5551.09 6423.96 6058.13 5581.47 5894.69 4274.05 3330.85 6635.51 5533.52 4060.17 5410.33 5003.63 4870.14 4695.7 4380.86 4909.13 4287.61 5269.39 3999.81 5648.02 4867.13 3308.75 4604.34 4439.17 5832.72 4929.35 5442.79 6853.07 6327.61 4633.59 5151.68 4884.94 5362.15 4609.98 4455.61 4738.72 4752.31 5240.97 5569.85 5306.31 5523.96 4733.37 3037.72 4523.9 6028.89 5333.16 4888.17 3950.53 4501.1 5755.98 4384.91 5077.2 6550.61 4987.01 5529.09 4713.56 6051.35 4747.24 5302.53 6779.82 5543.67 4072.95 6210.48 6377.45 4863.27 2451.27 2701.42 5677.42 4502.12 3255.93 5733.59 5575.8 5268.93 3695.72 6874.6 5106.9 5392.85 5275.27 4277.54 4531.46 6094.34 5925.82 5448.68 4739.5 4491.62 3865.5 4182.05 
SCALARS Velocity float 1
LOOKUP_TABLE default
1.27493 1.26263 1.3169 1.28442 1.30428 1.30306 1.3231 1.21323 1.27671 1.2467 1.28076 1.29204 1.33452 1.25398 1.25262 1.34247 1.34957 1.32767 1.30362 1.30317 1.30157 1.35151 1.32566 1.27741 1.27549 1.26228 1.24819 1.26608 1.31776 1.29208 1.28404 1.27431 1.29509 1.29292 1.24606 1.23097 1.22571 1.20621 1.29101 1.25394 1.3271 1.27965 1.24841 1.25447 1.32472 1.34204 1.3014 1.30594 1.29677 1.3192 1.3602 1.30375 1.27241 1.33006 1.32957 1.31415 1.33377 1.2827 1.33678 1.2758 1.22885 1.23611 1.23029 1.29906 1.28466 1.31176 1.22281 1.23768 1.30312 1.31579 1.3174 1.30666 1.33338 1.30959 1.29972 1.31563 1.36769 1.29514 1.34935 1.33041 1.32215 1.32513 1.32685 1.33698 1.21547 1.19137 1.27032 1.25634 1.25535 1.22579 1.20933 1.30176 1.27839 1.30736 1.30949 1.28852 1.3358 1.30601 1.30187 1.3029 1.32155 1.29396 1.37541 1.40271 1.40526 1.35136 1.32548 1.32359 1.313 1.37272 1.23997 1.22847 1.29007 1.23896 1.26633 1.30431 1.27428 1.31752 1.30997 1.37285 1.30856 1.27814 1.34119 1.30314 1.30223 1.28093 1.34288 1.38383 1.37411 1.41594 1.37981 1.29761 1.29876 1.33341 1.30647 1.31398 1.33187 1.38641 1.43734 1.26053 1.2639 1.22528 1.24347 1.24226 1.2337 1.30301 1.28776 1.29495 1.2644 1.30328 1.30654 1.30571 1.37509 1.36423 1.34342 1.29301 1.3365 1.31836 1.28063 1.40187 1.4213 1.36283 1.39794 1.4023 1.32359 1.28249 1.36008 1.31597 1.43256 1.19632 1.22733 1.2418 1.24544 1.23636 1.24327 1.23169 1.21722 1.18131 1.27813 1.25476 1.29995 1.32328 1.31882 1.3584 1.29313 1.34558 1.34086 1.32739 1.30871 1.38039 1.45952 1.36 1.41028 1.39821 1.4049 1.33357 1.29203 1.32624 1.37529 1.42399 1.41901 1.18981 1.23543 1.24076 1.23254 1.23064 1.33589 1.20974 1.18058 1.26236 1.26387 1.34614 1.27347 1.4252 1.41582 1.3496 1.32641 1.345 1.28751 1.36857 1.35283 1.32704 1.35938 1.38888 1.41948 1.41032 1.37207 1.27598 1.34819 1.40501 1.18261 1.17886 1.23209 1.22805 1.30204 1.30248 1.14179 1.2166 1.27063 1.23411 1.21489 1.30688 1.38344 1.36105 1.32892 1.43758 1.37875 1.34298 1.30853 1.36677 1.41114 1.38869 1.52834 1.43991 1.37487 1.46024 1.47006 1.3701 1.39643 1.42008 1.16922 1.23859 1.22845 1.29712 1.24374 1.14986 1.31379 1.27005 1.25508 1.20554 1.32752 1.3669 1.37881 1.42768 1.37596 1.35592 1.41961 1.35637 1.40245 1.40138 1.5418 1.50805 1.45847 1.39464 1.44079 1.40845 1.42644 1.39723 1.3697 1.36331 1.22006 1.24938 1.2792 1.2466 1.24342 1.17347 1.31571 1.22634 1.19722 1.35536 1.38855 1.38618 1.37514 1.40187 1.53298 1.40212 1.37204 1.36079 1.41139 1.40278 1.44702 1.4092 1.46686 1.47076 1.41411 1.42358 1.44604 1.34593 1.42624 1.32853 1.44304 1.28177 1.45021 1.29739 1.31412 1.23715 1.26102 1.25309 1.34911 1.36016 1.32372 1.16908 1.42196 1.46689 1.5299 1.49559 1.40331 1.36918 1.34785 1.32712 1.42024 1.45834 1.42652 1.45925 1.37691 1.43413 1.45567 1.49819 1.40551 1.43737 1.44279 1.4818 1.55265 1.52159 1.48002 1.39289 1.28545 1.25597 1.18636 1.25952 1.21974 1.18365 1.33372 1.32255 1.34614 1.40094 1.33211 1.53645 1.5057 1.45922 1.39326 1.34009 1.35328 1.47951 1.47026 1.49845 1.56814 1.49119 1.49925 1.426 1.43482 1.43936 1.45912 1.5395 1.50628 1.51807 1.36469 1.2587 1.77057 1.34082 1.18309 1.26034 1.20268 1.32826 1.30228 1.22384 1.32495 1.32816 1.32108 1.40448 1.48208 1.57867 1.54618 1.56083 1.5304 1.45076 1.33659 1.44629 1.42017 1.46984 1.50836 1.58778 1.57157 1.47728 1.52069 1.46336 1.4186 1.46518 1.47287 1.4671 1.45144 1.49346 1.45425 1.36845 1.37593 1.40577 1.64997 1.43868 1.64943 1.23149 1.23755 1.24863 1.17794 1.26332 1.15884 1.29438 1.08587 1.44156 1.36699 1.55419 1.53874 1.5896 1.44734 1.53156 1.4938 1.42965 1.54673 1.35015 1.44572 1.50015 1.50426 1.52239 1.58914 1.55017 1.55879 1.51247 1.46094 1.45299 1.48478 1.47153 1.36552 1.54472 1.60223 1.42085 1.52667 1.51685 1.20358 1.19787 1.16314 1.30501 1.73475 1.67262 1.47879 1.32954 1.55606 1.57598 1.51359 1.72279 1.58258 1.47529 1.49872 1.53865 1.51084 1.52319 1.50188 1.50201 1.44902 1.52489 1.57677 1.38207 1.46844 1.57024 1.66327 1.61026 1.36959 1.47635 1.64409 1.25181 1.12356 1.20235 1.17839 1.09531 1.47265 1.34538 1.69158 1.87817 1.88189 1.65704 1.58173 1.4999 1.6157 1.55373 1.49737 1.63207 1.56253 1.60795 1.58405 1.70572 1.51252 1.49055 1.50147 1.49957 1.45366 1.47773 1.48772 1.48253 1.47056 1.63054 1.47386 1.5637 1.65015 1.48057 1.54602 1.58777 1.66319 1.5833 1.62267 1.6427 1.73162 1.47489 1.1482 1.5956 1.78496 1.64436 1.61852 1.63158 1.58289 1.61608 1.57367 1.62666 1.61782 1.53736 1.5853 1.53683 1.51104 1.50189 1.50045 1.50092 1.49258 1.53082 1.5524 1.54015 1.53226 1.57526 1.56215 1.68093 1.63079 1.73238 1.5964 1.93222 1.8324 1.62122 1.36551 1.91796 1.88782 1.5303 1.70023 1.52248 1.58134 1.65644 1.64321 1.56702 1.60011 1.57275 1.54812 1.52016 1.51551 1.51829 1.5331 1.50959 1.51184 1.50836 1.52144 1.5572 1.58277 1.62384 1.69494 1.80618 2.10792 1.67425 1.97475 2.20112 1.81102 1.49797 1.60326 1.53555 1.53083 1.56766 1.58456 1.56413 1.56698 1.55194 1.54958 1.52595 1.53266 1.53014 1.52863 1.53094 1.52038 1.51959 1.51051 1.51282 1.52316 1.53334 1.57333 1.60697 1.74257 1.83182 1.67383 0.888732 1.73544 1.70731 1.64912 1.47685 1.62923 1.50782 1.56712 1.54248 1.54785 1.53556 1.52198 1.5592 1.53526 1.53673 1.51713 1.52504 1.53198 1.54104 1.5322 1.51168 1.51576 1.51517 1.53694 1.63354 1.58819 1.62605 1.56011 1.52113 1.5078 1.35484 1.60963 1.19178 1.58703 1.52292 1.48644 1.50007 1.46704 1.48197 1.51998 1.50645 1.51944 1.50131 1.50729 1.53681 1.50109 1.50635 1.48442 1.51657 1.49804 1.51065 1.49706 1.53212 1.54878 1.54375 1.5306 1.50962 1.5123 1.49771 1.53022 1.54213 1.57962 1.5968 1.57689 1.51104 1.50076 1.50051 1.50747 1.41152 1.53148 1.51525 1.19178 1.52249 1.49516 1.48398 1.46949 1.47915 1.46201 1.48686 1.49183 1.49528 1.47337 1.4943 1.49672 1.47712 1.47595 1.47579 1.45623 1.46593 1.46299 1.51104 1.53506 1.55135 1.5322 1.56439 1.5306 1.48418 1.51293 1.48371 1.46092 1.54 1.54224 1.55395 1.51067 1.57146 1.53355 1.54417 1.48037 1.47041 1.4712 1.43512 1.49431 1.46543 1.51379 1.19178 1.47876 1.45558 1.4856 1.44959 1.4982 1.51634 1.46174 1.49219 1.46257 1.46363 1.45502 1.46559 1.42746 1.44622 1.43498 1.43321 1.50599 1.40416 1.46611 1.44732 1.54611 1.4328 1.68363 1.44959 1.52199 1.48962 1.52067 1.52665 1.47478 1.44982 1.42489 1.40642 1.43862 1.40795 1.48438 1.49102 1.47808 1.45763 1.43574 1.42945 1.441 1.44189 1.3874 1.53485 1.56647 1.46323 1.43178 1.4676 1.43989 1.39378 1.40964 1.45438 1.43785 1.40065 1.39073 1.62751 1.41314 1.45223 1.56675 1.40382 1.65068 1.40399 1.51891 1.5368 1.39161 1.4223 1.40973 1.476 1.43101 1.46549 1.46536 1.42527 1.40706 1.39705 1.49076 1.44324 1.3178 1.36631 1.43481 1.42425 1.36645 1.43655 1.44081 1.47698 1.43078 1.4092 1.40614 1.38927 1.39252 1.36799 1.38997 1.30816 1.31249 1.62582 1.55313 1.48281 1.33395 1.28527 1.43985 1.36289 1.3988 1.41057 1.40158 1.40728 1.41475 1.45156 1.43658 1.44318 1.43122 1.19178 1.39246 1.37985 1.23735 1.29196 1.42982 1.48712 1.40829 1.40209 1.37123 1.35998 1.40215 1.41887 1.40183 1.40376 1.38507 1.38991 1.38895 1.38635 1.38934 1.38263 1.38581 1.37801 1.36778 1.3773 1.29639 1.35829 1.56226 1.42379 1.5089 1.3925 1.40823 1.37286 1.41075 1.39473 1.40322 1.40521 1.40219 1.42598 1.42414 1.42575 1.42092 1.19178 1.19178 1.33604 1.34323 1.34244 1.51042 1.33051 1.37956 1.37949 1.36213 1.40798 1.39126 1.37977 1.3795 1.3818 1.37267 1.37726 1.37171 1.37509 1.36854 1.3686 1.37988 1.38311 1.32745 1.39563 1.3154 1.39434 1.43612 1.38518 1.40096 1.39563 1.39723 1.40169 1.40707 1.40166 1.40407 1.40696 1.40776 1.42539 1.39928 1.40948 1.41991 1.41328 1.34493 1.34622 1.37265 1.34204 1.35909 1.34977 1.39092 1.32241 1.35696 1.36608 1.36623 1.35728 1.37228 1.35696 1.37839 1.34067 1.38103 1.37255 1.37494 1.37107 1.37115 1.36454 1.36837 1.36505 1.3642 1.36479 1.42302 1.273 1.37638 1.35009 1.39408 1.40311 1.40546 1.41522 1.40662 1.41095 1.40754 1.3933 1.3477 1.41647 1.41847 1.4136 1.40648 1.34838 1.34298 1.35549 1.3415 1.35993 1.35138 1.35788 1.35368 1.33464 1.33783 1.3698 1.35118 1.33335 1.36441 1.35786 1.36914 1.35886 1.36452 1.37063 1.36646 1.3715 1.37227 1.36677 1.37859 1.27015 1.28877 1.38887 1.34487 1.37047 1.40226 1.42057 1.40184 1.39383 1.42007 1.41963 1.40435 1.35817 1.38494 1.33956 1.3328 1.2921 1.39262 1.41714 1.3922 1.36895 1.34118 1.33911 1.35852 1.34519 1.34368 1.34125 1.33399 1.333 1.33824 1.34525 1.34884 1.36954 1.3667 1.36078 1.37179 1.37051 1.36612 1.36085 1.34526 1.30995 1.27699 1.29457 1.32498 1.28945 1.41628 1.42333 1.49522 1.40927 1.43255 1.41837 1.4292 1.37729 1.28405 1.38482 1.34169 1.33856 1.30421 1.31876 1.39601 1.25565 1.38348 1.35801 1.3533 1.19178 1.3421 1.33647 1.32794 1.33324 1.33319 1.3335 1.32828 1.3312 1.33973 1.34051 1.33567 1.3456 1.34473 1.37142 1.37115 1.36008 1.37267 1.36821 1.35998 1.37092 1.35461 1.34045 1.29529 1.3195 1.31321 1.34494 1.3313 1.22264 1.49906 1.41237 1.31747 1.26663 1.27274 1.28732 1.29673 1.321 1.46078 1.42528 1.34775 1.36437 1.19178 1.33353 1.33092 1.32825 1.32651 1.32321 1.32168 1.32581 1.32456 1.32498 1.3267 1.32251 1.32589 1.32636 1.32427 1.33662 1.33752 1.33126 1.3312 1.34758 1.33461 1.3709 1.35227 1.37457 1.37417 1.37897 1.36122 1.35636 1.3528 1.32281 1.34412 1.38247 1.3103 1.19193 1.43853 1.32162 1.36409 1.35499 1.31242 1.26442 1.26484 1.27576 1.35477 1.28212 1.38598 1.42405 1.31492 1.30717 1.32554 1.32171 1.31673 1.31879 1.30924 1.31681 1.32177 1.32135 1.31632 1.32404 1.3222 1.32571 1.32429 1.3133 1.35028 1.33727 1.35879 1.34318 1.36167 1.28773 1.35689 1.35499 1.35636 1.32079 1.33316 1.35853 1.33069 1.33923 1.2646 1.33559 1.30244 1.29736 1.31817 1.32435 1.29511 1.32346 1.27577 1.27146 1.2858 1.31189 1.27935 1.40595 1.37744 1.28943 1.30558 1.19178 1.31692 1.31765 1.3133 1.32026 1.31546 1.31517 1.31247 1.32101 1.31844 1.31588 1.32388 1.30517 1.31944 1.32168 1.31015 1.33756 1.35987 1.35157 1.36487 1.33686 1.31248 1.34968 1.35923 1.35657 1.34712 1.34998 1.32508 1.33394 1.31414 1.31372 1.31723 1.31668 1.32123 1.29578 1.30589 1.31675 1.30258 1.28692 1.28704 1.28294 1.29234 1.28639 1.2992 1.31418 1.30316 1.33032 1.30813 1.30748 1.30692 1.31742 1.31726 1.31422 1.31235 1.31862 1.32577 1.31613 1.31234 1.31962 1.29872 1.32259 1.3094 1.32124 1.30935 1.31012 1.3307 1.32094 1.36832 1.30958 1.34025 1.38139 1.34677 1.31 1.33926 1.32781 1.33506 1.34731 1.31598 1.30508 1.30347 1.3078 1.30148 1.26791 1.31457 1.28959 1.29576 1.30021 1.29945 1.27951 1.27708 1.28336 1.3002 1.31573 1.31141 1.30546 1.30107 1.32064 1.31923 1.30993 1.31638 1.32665 1.3254 1.31939 1.32589 1.31859 1.32045 1.2981 1.31889 1.32765 1.33712 1.29026 1.32732 1.36229 1.30416 1.33978 1.32025 1.33046 1.30609 1.31521 1.30073 1.30184 1.28801 1.2819 1.29179 1.28754 1.28926 1.27323 1.28319 1.29224 1.28377 1.2649 1.27193 1.27108 1.29659 1.30129 1.31104 1.30829 1.3095 1.30361 1.30645 1.30144 1.30026 1.32262 1.32618 1.31716 1.32214 1.32991 1.33169 1.30609 1.33187 1.32139 1.31794 1.34335 1.27156 1.36112 1.32452 1.3723 1.32242 1.34138 1.28755 1.28926 1.33796 1.2863 1.34531 1.32043 1.33636 1.30241 1.27526 1.28595 1.29691 1.27294 1.2927 1.28708 1.29305 1.28008 1.2663 1.2664 1.27681 1.30098 1.25895 1.27068 1.30335 1.31935 1.29361 1.29095 1.25709 1.32392 1.32536 1.32276 1.31956 1.32507 1.31952 1.32545 1.32349 1.3333 1.31768 1.32288 1.32452 1.30617 1.42297 1.32448 1.274 1.43155 1.26051 1.29845 1.27237 1.42578 1.26901 1.26921 1.22576 1.28424 1.2965 1.29259 1.28726 1.28263 1.27028 1.25542 1.28766 1.27682 1.20675 1.25888 1.26979 1.304 1.26665 1.26613 1.30621 1.30465 1.26019 1.29854 1.2678 1.22813 1.19178 1.319 1.3053 1.33047 1.32629 1.3225 1.32642 1.31976 1.32295 1.336 1.31731 1.2791 1.25615 1.30415 1.34103 1.47453 1.14836 1.26525 1.26099 1.32817 1.30965 1.22921 1.40062 1.53944 1.23133 1.20424 1.24547 1.33602 1.29848 1.28289 1.30624 1.27098 1.25309 1.22224 1.27188 1.29494 1.36592 1.24759 1.28428 1.31396 1.31284 1.28204 1.19554 1.15227 1.08336 1.29802 1.29634 1.32348 1.33877 1.33018 1.34164 1.34735 1.32475 1.29543 1.27474 1.29356 1.27785 1.33487 1.48177 1.35002 0.807457 1.34691 1.22568 1.27603 1.36622 1.31969 1.38642 1.42004 1.40665 1.3864 1.25408 1.21977 1.22917 1.34719 1.28108 1.2956 1.26257 1.27104 1.23346 1.28263 1.30787 1.31303 1.22161 1.16834 1.13252 1.27003 1.22192 1.41466 1.34352 1.4384 1.26964 1.15083 1.00217 0.944789 0.974198 0.96743 1.14082 1.20429 1.31515 1.24707 1.31918 1.30647 1.34628 1.33126 1.28779 1.33306 1.28636 0.90922 1.43189 1.16708 1.07648 1.01894 1.19314 1.33637 1.33972 1.3711 1.38912 1.3284 1.28677 1.27231 1.18549 1.12626 1.1445 1.26832 1.20614 1.30173 1.27367 1.3724 1.32493 1.17638 1.15371 1.15382 1.31686 1.21644 1.38606 1.22441 1.34026 1.4205 0.71829 0.994036 1.10985 1.19178 0.997963 1.03262 1.57391 1.3253 1.14464 1.30599 1.39362 1.42185 1.63568 1.31488 1.4103 0.942844 0.958363 1.2256 1.37965 1.39293 1.36666 1.33037 1.33514 1.29997 1.24805 1.27952 1.24445 1.24806 1.37665 1.12191 1.06671 1.17862 1.21089 1.13483 0.92925 1.46545 1.32092 1.28164 1.34142 1.3374 1.37102 1.23773 1.25829 1.25998 1.19601 1.13036 1.33461 1.29181 1.04977 1.57471 0.853032 1.09232 0.189806 0.708512 1.69731 1.77783 9.32378 0.126924 0.846839 0.0503997 4.5714 1.23752 1.24626 1.92187 1.40833 1.45231 1.47959 1.14227 1.20164 1.49938 1.80777 1.32866 0.833222 1.30224 1.1053 0.866527 0.726895 1.12682 1.25068 1.43707 1.31145 1.28928 1.29301 1.24931 1.24966 1.2693 1.19974 1.19537 1.29515 1.16499 1.1 1.18691 1.20793 1.48022 1.30148 1.2587 1.29642 1.32813 1.18142 1.30856 1.26959 1.28585 1.14864 1.33535 1.35982 1.39808 1.26078 1.29029 2.1541 1.64712 2.73101 2.27489 2.23015 0.686777 1.13134 0.667441 0.762329 0.857815 0.672515 0.882239 1.19012 0.386356 1.03305 1.21847 1.13361 1.24026 1.26509 1.32023 1.2252 1.60746 1.07685 1.65137 1.53176 0.97672 1.22139 1.16241 1.2218 1.03575 1.28353 1.21301 1.2265 1.14177 1.23944 1.17845 1.14562 1.24234 1.16967 1.23439 1.20016 1.2327 1.20812 1.20053 1.17492 1.12546 1.1493 1.16857 1.3628 1.15978 1.25038 1.29976 1.32601 1.31249 1.59671 1.26517 1.56091 1.04805 1.22417 0.592112 1.63298 1.52332 1.07641 1.07744 1.05947 0.91653 0.970303 1.06771 0.929268 0.969322 1.01034 0.834819 0.606168 0.790594 0.810199 0.722014 0.811619 0.822081 0.807567 0.829206 0.960553 0.593232 0.920436 0.8635 0.693547 0.896031 0.770809 1.08862 1.09243 1.10745 1.1686 1.18928 1.28333 1.17121 1.04219 1.17986 1.16782 1.26394 1.2557 1.12111 1.07384 1.03703 0.974241 0.937311 1.10869 1.19356 1.20605 1.2239 1.13081 1.06138 0.946898 1.09227 0.988711 1.20945 1.26328 1.08143 1.12575 1.16076 1.1743 1.14548 1.1737 1.20123 1.27162 1.15133 1.32514 1.28773 1.27649 1.29261 1.22335 1.23912 0.922315 1.36136 1.09452 0.938413 1.19856 1.09801 1.12987 1.06752 0.963632 0.932843 0.86365 0.869389 0.865323 0.83713 0.708361 0.776575 0.763961 0.778153 0.745703 0.770446 0.782319 0.78241 0.775807 0.773814 0.817855 0.733973 0.65844 0.768654 0.836412 0.820631 0.829866 0.592687 0.608918 0.90539 0.668837 0.791106 1.04015 1.0742 1.15376 1.13118 1.10553 1.05341 1.08043 1.14777 1.16092 1.23155 1.3282 1.09787 0.831848 1.00088 0.960819 1.01966 1.01232 0.994241 1.21895 1.21364 1.10193 0.960004 0.989228 1.17813 1.13655 1.05799 1.048 1.02144 0.979224 1.12337 0.867558 1.15013 1.13482 1.15523 1.25526 1.24517 1.06868 1.29591 1.07765 1.08211 1.29233 1.34195 1.05944 1.12905 0.888902 1.08014 1.04648 1.09093 1.07126 1.03371 0.940879 0.87886 0.823023 0.857513 0.833389 0.793464 0.793875 0.79523 0.819597 0.777726 0.85113 0.769196 0.763827 0.783489 0.737918 0.730193 0.683696 0.707788 0.678047 0.718477 0.765052 0.554095 0.719847 0.720153 0.675257 0.703298 0.735297 0.693085 0.72164 0.717026 0.748496 0.687613 0.770629 0.766057 0.652154 0.55753 0.863098 0.678736 1.10583 1.12753 0.946425 1.12526 1.09139 0.975341 1.08116 0.865511 1.06099 0.798164 1.00938 0.915704 0.77948 0.871353 0.909689 0.947103 0.928828 1.01387 1.01415 1.05017 1.10036 1.18312 0.815315 0.997129 0.854925 0.939482 1.05399 1.11929 0.987805 0.907618 1.13409 1.00392 1.05469 0.911639 1.01904 0.82816 0.950474 1.12667 1.18096 1.12915 1.15705 1.10048 1.01909 0.959399 1.02663 1.06188 1.04659 1.03954 0.654841 0.909116 1.04237 0.978372 1.04725 1.02686 0.940559 0.759269 0.797987 0.820777 0.798215 0.741533 0.798682 0.766226 0.822736 0.757018 0.831395 0.844341 0.742823 0.985732 0.89273 0.546941 0.406804 0.684343 0.658747 0.651116 0.656466 0.671746 0.660294 0.669454 0.601613 0.640579 0.686527 0.665332 0.6778 0.638676 0.614644 0.668422 0.703619 0.617285 0.637037 0.58946 0.569334 0.491875 0.368419 0.457494 0.798361 0.556525 1.0347 0.783248 1.09704 1.00038 0.919911 0.841598 0.777972 0.763829 0.580082 0.799749 0.899259 0.943991 0.972813 0.998863 1.00982 0.968487 0.902526 0.920057 0.945865 1.0798 0.981705 0.877131 0.881652 0.981376 0.824445 0.928192 0.955353 1.00417 1.01273 1.0916 0.859913 0.886827 0.929403 0.912129 0.982443 1.2252 1.03916 0.939261 0.92831 0.965599 1.08405 0.875046 1.0523 0.905459 0.810616 0.975758 0.958533 0.905815 0.995977 0.797754 0.671473 0.71178 0.777945 0.697806 0.727682 0.722962 0.699743 0.720493 0.741324 0.768407 0.885841 0.712684 0.880817 0.672387 0.844625 0.889753 0.582642 0.63503 0.713552 0.647603 0.637991 0.64394 0.640037 0.636339 0.620245 0.618528 0.633048 0.658517 0.656869 0.654544 0.633541 0.605416 0.607328 0.591172 0.621382 0.590243 0.608685 0.598112 0.595489 0.601555 0.611402 0.55093 0.61923 0.517246 0.983651 0.846352 0.901783 0.785848 0.712626 1.09876 0.711372 0.802575 0.75862 0.679239 0.823924 0.862597 0.84245 0.961762 0.946249 0.96607 0.99483 1.01792 0.943107 0.897592 0.899844 0.847595 0.767346 0.894595 0.955295 0.917257 0.87145 0.882469 0.904083 0.950732 1.00101 1.02467 0.912641 0.95368 0.867457 0.848881 0.882583 1.04471 1.02588 0.934724 0.866977 0.76524 0.858982 0.791825 0.820593 0.818077 0.81784 0.891059 0.758485 0.820388 0.525441 0.806449 0.898792 0.98902 0.879412 0.847638 0.857017 0.765184 0.693675 0.711496 0.693291 0.662638 0.676622 0.668586 0.74372 0.663792 0.683876 0.741601 0.757014 0.630612 0.656774 0.675925 0.635806 0.641748 0.651091 0.633568 0.636499 0.645121 0.639112 0.632124 0.639542 0.635116 0.63609 0.606084 0.612313 0.619583 0.579633 0.560073 0.613834 0.546704 0.605807 0.627598 0.612206 0.594248 0.611048 0.58542 0.593124 0.613808 0.632806 0.622975 0.589448 0.613697 0.623197 0.579513 0.630327 0.727823 0.913809 1.05511 0.879583 0.604773 0.642648 0.699794 0.793943 0.762078 0.79046 0.817627 0.788953 0.786034 0.7482 0.796493 0.823266 0.862762 0.796589 0.862488 0.737996 0.667582 0.86872 0.903906 0.768774 0.819808 0.786654 0.839096 0.823153 0.811003 0.923985 0.806322 0.893928 0.872971 0.86426 0.861976 0.908904 0.882465 0.95831 0.904107 0.906274 0.822579 0.818423 0.747255 0.791545 0.918203 1.04759 0.784273 0.787506 0.78082 0.80215 0.839936 0.783149 0.867214 0.837734 0.63344 0.798796 0.633967 0.8123 0.659742 0.690476 0.867632 0.849195 0.837793 0.599384 0.666368 0.780315 0.690312 0.658841 0.621691 0.629209 0.626459 0.691384 0.707317 0.707065 0.710068 0.696919 0.693757 0.667021 0.660784 0.656837 0.652189 0.652359 0.645281 0.65063 0.635372 0.637774 0.63601 0.627122 0.6213 0.631877 0.594424 0.583143 0.595774 0.596796 0.598674 0.593798 0.575922 0.568113 0.605565 0.599091 0.634737 0.609587 0.622657 0.646337 0.571444 0.579904 0.565767 0.559329 0.60558 0.623114 0.63442 0.629371 0.613301 0.640507 0.685483 0.703388 0.721516 0.803155 0.779678 0.83015 0.767101 0.841307 0.726355 0.732457 0.730238 0.705671 0.745026 0.754924 0.781684 0.806143 0.75192 0.772639 0.707056 0.721472 0.702549 0.764755 0.762582 0.785054 0.774069 0.808955 0.82479 0.758745 0.824746 0.803399 0.987338 0.84241 0.685585 0.743057 0.824745 0.857987 0.796685 0.894136 0.896967 0.859181 0.83627 0.778001 0.793086 0.774901 0.846362 0.685073 0.614351 0.62958 0.782786 0.787195 0.824255 0.785585 0.734734 0.761398 0.715924 0.730655 0.718896 0.758688 0.822622 0.823903 0.696035 0.695453 0.63705 0.669 0.618482 0.646831 0.654813 0.633379 0.686436 0.696334 0.654352 0.7207 0.678057 0.680297 0.683351 0.638544 0.660843 0.654643 0.649614 0.658982 0.651022 0.634125 0.655113 0.656878 0.659474 0.637482 0.641783 0.642213 0.638699 0.629779 0.629039 0.637966 0.542334 0.613269 0.491484 0.483372 0.482164 0.501731 0.575638 0.58991 0.584519 0.584061 0.593234 0.59835 0.609028 0.595097 0.604904 0.601998 0.604115 0.590274 0.587733 0.602166 0.58789 0.596052 0.602923 0.590397 0.602374 0.602337 0.625158 0.618449 0.606381 0.613979 0.65278 0.618773 0.612139 0.632776 0.733603 0.732192 0.745473 0.731178 0.812432 0.705752 0.72471 0.669606 0.72044 0.750154 0.743131 0.772007 0.752292 0.697278 0.733931 0.750779 0.715769 0.721098 0.70989 0.716295 0.720141 0.712482 0.793266 0.787346 0.751628 0.773051 0.890906 0.98822 0.798697 0.897586 0.438508 0.592079 0.782237 0.851846 0.771453 0.879941 0.80527 0.771251 0.73161 0.647919 0.751978 0.692929 0.699418 0.705455 0.690732 0.805478 0.758847 0.752836 0.717638 0.714962 0.696238 0.715923 0.694723 0.709291 0.822078 0.796594 0.670294 0.779546 0.704319 0.658085 0.667386 0.675169 0.637734 0.656736 0.702324 0.668088 0.671028 0.674638 0.676203 0.648304 0.664819 0.65213 0.645745 0.650207 0.642919 0.646083 0.638168 0.623871 0.615208 0.648189 0.638043 0.636003 0.633668 0.657626 0.600611 0.59443 0.62208 0.564301 0.373597 0.485123 0.51581 0.50644 0.475277 0.476388 0.43793 0.548753 0.556112 0.563407 0.556512 0.562016 0.582178 0.611669 0.591223 0.580231 0.596194 0.582955 0.582102 0.586357 0.593423 0.588887 0.594476 0.598233 0.604973 0.610024 0.599871 0.635863 0.62867 0.636002 0.66774 0.732407 0.680988 0.741571 0.750055 0.74404 0.745678 0.667121 0.690771 0.674596 0.702895 0.731481 0.702335 0.722484 0.731279 0.7291 0.769547 0.731721 0.713962 0.724119 0.724141 0.721599 0.729806 0.717738 0.71301 0.731027 0.758151 0.798782 0.736156 0.679103 0.856696 0.955655 0.618713 0.769844 0.967907 0.738088 0.482824 0.652316 0.593887 0.659136 0.735428 0.73042 0.800171 0.800906 1.03134 0.873171 0.626979 0.703733 0.666611 0.599898 0.673168 0.687244 0.708439 0.709307 0.709596 0.711054 0.714331 0.695909 0.702796 0.686473 0.720081 0.751128 0.700616 0.71637 0.740179 0.690822 0.662221 0.665673 0.666783 0.665622 0.628739 0.65371 0.649611 0.669884 0.651356 0.655532 0.637808 0.666128 0.635492 0.645119 0.639752 0.652077 0.616031 0.61865 0.612797 0.571597 0.60903 0.607379 0.61293 0.595738 0.634592 0.700728 0.588378 0.653995 0.496196 0.472947 0.532725 0.448229 0.424704 0.418837 0.433989 0.438463 0.540194 0.540276 0.541016 0.546173 0.545317 0.548057 0.550513 0.549186 0.555892 0.56512 0.584608 0.565382 0.559882 0.568254 0.58453 0.583843 0.593442 0.590171 0.595031 0.609937 0.605564 0.584787 0.681984 0.683622 0.6242 0.629825 0.661744 0.655498 0.669189 0.729084 0.734844 0.732915 0.723393 0.68731 0.743136 0.703259 0.717947 0.685874 0.66759 0.675202 0.703487 0.680505 0.704438 0.684559 0.731877 0.738948 0.684963 0.726558 0.695196 0.684232 0.702314 0.706412 0.63354 0.669934 0.721115 0.661634 0.746675 0.637557 0.565477 0.651029 0.663855 1.0342 0.991047 0.663577 0.822917 0.618293 0.721153 0.680564 0.759687 0.596663 0.625572 0.687397 0.640198 0.701632 0.680633 0.698348 0.677225 0.667811 0.722843 0.707111 0.678685 0.643836 0.777874 0.70522 0.696838 0.689381 0.595555 0.636336 0.618379 0.618114 0.63029 0.615316 0.631206 0.606116 0.620743 0.638102 0.607585 0.626277 0.618368 0.626736 0.619522 0.616839 0.604956 0.575905 0.556893 0.65005 0.577801 0.621562 0.61379 0.630641 0.593086 0.633835 0.717019 0.606977 0.492218 0.673206 0.42393 0.457481 0.552655 0.4117 0.428258 0.438511 0.451144 0.451834 0.444628 0.455344 0.458361 0.538062 0.545711 0.543697 0.543883 0.542603 0.547924 0.547731 0.544751 0.550439 0.551585 0.550237 0.551412 0.555166 0.554098 0.548764 0.559341 0.553434 0.569017 0.561641 0.570388 0.56732 0.563504 0.569062 0.571442 0.578763 0.575843 0.573841 0.572426 0.584477 0.594849 0.57985 0.622046 0.597505 0.605247 0.603028 0.649357 0.593472 0.699548 0.653939 0.683033 0.645982 0.623568 0.648536 0.648822 0.632404 0.638215 0.693535 0.696057 0.689854 0.55507 0.666449 0.656277 0.639527 0.683683 0.668645 0.661264 0.657008 0.667619 0.701977 0.658702 0.686524 0.633997 0.627423 0.663994 0.686346 0.652451 0.610888 0.682004 0.649719 0.716236 0.710803 0.747324 0.729853 0.669977 0.65664 0.50105 0.567364 0.658598 0.641126 0.597221 0.622691 0.622364 0.619386 0.658607 0.668693 0.668692 0.714741 0.666953 0.68745 0.640385 0.705787 0.6822 0.709363 0.577242 0.500249 0.611671 0.610729 0.679851 0.627702 0.61008 0.596691 0.603695 0.602828 0.610759 0.602243 0.614639 0.604454 0.606234 0.612707 0.611464 0.640355 0.597871 0.614519 0.57702 0.589452 0.583261 0.573018 0.577099 0.586321 0.630788 0.604578 0.703503 0.666189 0.612354 0.534545 0.483205 0.648193 0.441815 0.544137 0.451619 0.459454 0.452145 0.455277 0.459039 0.462264 0.470973 0.443681 0.525977 0.546031 0.528788 0.557134 0.546765 0.540301 0.53394 0.541879 0.539833 0.547118 0.53883 0.548499 0.544616 0.533656 0.545816 0.551333 0.534006 0.565557 0.578925 0.560199 0.564079 0.566856 0.56174 0.558008 0.56018 0.562182 0.557184 0.558851 0.566777 0.58993 0.573409 0.584054 0.609733 0.628934 0.566511 0.621762 0.650672 0.614309 0.622938 0.623584 0.617793 0.630078 0.614004 0.639637 0.593957 0.634755 0.557044 0.554 0.641075 0.634442 0.63862 0.606522 0.615418 0.639161 0.632648 0.629554 0.610223 0.603493 0.602328 0.628668 0.620186 0.61448 0.627866 0.581019 0.568106 0.741811 0.723191 0.640907 0.666665 0.650184 0.556173 0.538757 0.486106 0.503308 0.557686 0.503564 0.572589 0.56209 0.618549 0.595162 0.618276 0.622296 0.626185 0.632111 0.637864 0.606783 0.557936 0.60179 0.604887 0.635381 0.65281 0.692722 0.71872 0.653144 0.74759 0.520566 0.663141 0.515995 0.615214 0.604344 0.585906 0.599062 0.592596 0.599497 0.579754 0.59532 0.593255 0.59856 0.59626 0.595607 0.590037 0.593507 0.587901 0.59809 0.584904 0.591603 0.598401 0.551451 0.56702 0.558435 0.559561 0.559503 0.570149 0.557502 0.603509 0.579374 0.682507 0.499115 0.496731 0.517504 0.482767 0.508496 0.474005 0.430254 0.54015 0.434125 0.457691 0.431381 0.442301 0.428029 0.435618 0.43629 0.522368 0.533491 0.542563 0.543135 0.556608 0.480261 0.560274 0.559683 0.547642 0.52806 0.524829 0.530952 0.522801 0.528202 0.529923 0.522927 0.53783 0.519777 0.495565 0.53232 0.531332 0.534966 0.543937 0.555559 0.559398 0.565952 0.574713 0.552003 0.552436 0.563273 0.601411 0.643015 0.570875 0.558592 0.625206 0.641429 0.612656 0.616735 0.618174 0.602292 0.600133 0.490306 0.531493 0.531951 0.588777 0.632359 0.64142 0.596468 0.616285 0.585382 0.606838 0.583335 0.599346 0.62568 0.599177 0.600325 0.591862 0.600163 0.613442 0.604203 0.603405 0.592838 0.565557 0.634369 0.841498 0.676921 0.719974 0.630438 0.521717 0.505689 0.485656 0.534616 0.57655 0.61335 0.62281 0.634244 0.619939 0.616342 0.59244 0.576343 0.569195 0.546587 0.502953 0.511048 0.907317 0.574552 0.801128 0.526534 0.576584 0.558806 0.577278 0.556025 0.583629 0.596897 0.576171 0.591623 0.581767 0.60191 0.574643 0.578713 0.590719 0.542121 0.561107 0.560251 0.55255 0.566975 0.56762 0.536059 0.498285 0.533649 0.524166 0.468907 0.516667 0.427877 0.500761 0.50599 0.48148 0.47128 0.451259 0.440678 0.462635 0.435176 0.438609 0.441552 0.443884 0.474747 0.493921 0.505421 0.491171 0.494998 0.516532 0.479688 0.480743 0.430432 0.446438 0.511963 0.432597 0.513038 0.496535 0.494059 0.505869 0.495147 0.486698 0.500966 0.489697 0.450557 0.546154 0.48657 0.531356 0.460548 0.521053 0.600808 0.368019 0.547662 0.532737 0.492789 0.540292 0.49586 0.538351 0.504382 0.397855 0.582771 0.481551 0.601129 0.540873 0.647111 0.550111 0.533773 0.518704 0.544306 0.586167 0.57465 0.57274 0.57641 0.583322 0.599008 0.585799 0.58914 0.601894 0.586443 0.598577 0.605549 0.606798 0.614167 0.598704 0.575082 0.605352 0.616284 0.569641 0.559068 0.637426 0.704086 0.686629 0.592152 0.524502 0.4886 0.544596 0.52474 0.543635 0.566857 0.594795 0.630862 0.606052 0.604898 0.606894 0.585917 0.623145 0.572216 0.510847 0.536712 0.240193 0.04116 0.68412 0.543865 0.540604 0.541436 0.556113 0.537261 0.551807 0.561853 0.578895 0.575215 0.588981 0.57634 0.572549 0.556434 0.551227 0.56462 0.551221 0.566674 0.567523 0.552244 0.548977 0.554369 0.519195 0.525867 0.51667 0.528898 0.51168 0.603731 0.531066 0.525531 0.475655 0.453913 0.47545 0.461309 0.444389 0.450008 0.443698 0.448234 0.444856 0.447864 0.45162 0.453498 0.352934 0.401044 0.424787 0.453054 0.487633 0.475486 0.499212 0.502972 0.489045 0.487555 0.456684 0.461301 0.468355 0.491467 0.469956 0.503302 0.496031 0.482045 0.484114 0.449365 0.466353 0.473646 0.404709 0.436372 0.502273 0.486467 0.467841 0.443035 0.375716 0.467927 0.47172 0.495633 0.480358 0.466466 0.495013 0.458366 0.464129 0.477958 0.445658 0.459313 0.446463 0.503851 0.536546 0.575418 0.563616 0.538836 0.523469 0.508253 0.498378 0.513404 0.539773 0.55196 0.551321 0.550069 0.560804 0.570908 0.574367 0.578667 0.584733 0.578075 0.599952 0.606863 0.601757 0.599587 0.579363 0.59798 0.561276 0.599016 0.630005 0.619668 0.487993 0.543687 0.514163 0.522152 0.53983 0.52073 0.55788 0.558885 0.568982 0.57873 0.572657 0.577723 0.593711 0.59136 0.59555 0.592643 0.65294 0.605494 0.487562 0.554576 0.348455 0.339081 0.331845 0.44939 0.531464 0.520077 0.52716 0.523025 0.527736 0.525182 0.541463 0.521414 0.54768 0.535806 0.534162 0.53614 0.550729 0.528649 0.532566 0.524726 0.525877 0.512707 0.489461 0.520375 0.45322 0.44483 0.509473 0.427795 0.490962 0.542366 0.507032 0.547841 0.505376 0.510788 0.521391 0.479166 0.470801 0.45863 0.469154 0.462629 0.463274 0.469228 0.455181 0.46034 0.451895 0.452192 0.455067 0.450798 0.452325 0.318907 0.395964 0.392098 0.488569 0.47611 0.420539 0.497584 0.436937 0.455156 0.448489 0.443749 0.445627 0.482141 0.450461 0.526619 0.499073 0.500409 0.472523 0.434035 0.442077 0.432918 0.478309 0.457638 0.46763 0.453252 0.457531 0.460869 0.470121 0.46091 0.451086 0.448855 0.454 0.462902 0.491643 0.494748 0.509238 0.529099 0.524207 0.512209 0.504958 0.504546 0.511031 0.520859 0.530113 0.519336 0.540049 0.527951 0.549918 0.561116 0.565818 0.565419 0.557987 0.563566 0.588744 0.564964 0.59892 0.585618 0.601802 0.598688 0.599774 0.591048 0.590548 0.496794 0.526655 0.628961 0.510264 0.50799 0.524572 0.479388 0.492418 0.520879 0.575401 0.572658 0.556819 0.534212 0.557861 0.556554 0.562808 0.555342 0.557228 0.555171 0.588684 0.533844 0.588888 0.568515 0.686076 0.859002 0.618252 0.547585 0.54106 0.441174 0.47537 0.492002 0.469254 0.516028 0.515926 0.524122 0.520485 0.520934 0.528391 0.516526 0.50025 0.500833 0.506568 0.512428 0.508154 0.525424 0.524016 0.503437 0.452629 0.440792 0.412586 0.414073 0.435912 0.453432 0.504225 0.499681 0.494801 0.42824 0.470353 0.466908 0.466089 0.476422 0.466392 0.456549 0.450939 0.441108 0.441144 0.445317 0.44627 0.442437 0.435964 0.438004 0.32049 0.309995 0.32251 0.252855 0.253791 0.273559 0.508224 0.44419 0.447455 0.437647 0.441627 0.441798 0.453895 0.472498 0.479686 0.448976 0.450785 0.448097 0.446165 0.458834 0.456244 0.459652 0.452068 0.453999 0.463495 0.450082 0.446642 0.4451 0.444268 0.455822 0.453502 0.457115 0.465003 0.485822 0.47417 0.498951 0.50622 0.512741 0.513594 0.513187 0.512401 0.515754 0.50895 0.507034 0.503083 0.503492 0.50214 0.510544 0.517145 0.533878 0.534037 0.557747 0.557678 0.571924 0.547339 0.540552 0.555539 0.585669 0.599261 0.598814 0.590248 0.579246 0.572856 0.529371 0.504528 0.460836 0.457682 0.487441 0.54996 0.541919 0.551577 0.539219 0.546228 0.550844 0.548972 0.550932 0.556299 0.548645 0.566992 0.535129 0.537816 0.320133 0.678955 0.523278 0.618442 0.558473 0.516655 0.509183 0.500661 0.512356 0.513507 0.516247 0.517019 0.515371 0.520295 0.516967 0.521938 0.510779 0.515623 0.508386 0.502311 0.496864 0.499733 0.504608 0.501737 0.501845 0.502782 0.497769 0.503164 0.469047 0.448762 0.410773 0.428999 0.467311 0.373628 0.534537 0.434194 0.577125 0.451924 0.455475 0.427991 0.429699 0.447891 0.457695 0.450116 0.441876 0.433334 0.433621 0.4252 0.433546 0.426114 0.427869 0.420178 0.414007 0.278205 0.29731 0.245333 0.235271 0.238696 0.263814 0.34082 0.468743 0.433317 0.738835 0.684509 1.22111 0.454559 0.480818 0.441266 0.432486 0.432048 0.436855 0.434871 0.448037 0.440081 0.430436 0.451169 0.446457 0.44004 0.441467 0.446811 0.448969 0.44931 0.456254 0.446885 0.446715 0.441388 0.441147 0.445017 0.441679 0.482946 0.473054 0.477768 0.493906 0.494692 0.500946 0.507688 0.511407 0.508718 0.50708 0.506166 0.503846 0.507245 0.510414 0.515593 0.534861 0.542274 0.533123 0.551094 0.590337 0.540969 0.5174 0.535397 0.556511 0.59837 0.58949 0.560842 0.541442 0.516125 0.507031 0.437879 0.440865 0.463328 0.515534 0.523486 0.535791 0.552167 0.541684 0.538182 0.563262 0.551546 0.574848 0.543902 0.538285 0.467761 0.429113 0.523994 0.516608 0.535679 0.52249 0.519606 0.516267 0.516761 0.51708 0.517426 0.516682 0.509584 0.514222 0.504652 0.504941 0.498948 0.495262 0.497185 0.499985 0.49877 0.501338 0.502088 0.508661 0.47921 0.456455 0.488442 0.433832 0.402486 0.360708 0.44325 0.3027 0.429813 0.414777 0.398717 0.412854 0.430198 0.415453 0.402363 0.435586 0.435087 0.418205 0.419072 0.422981 0.420586 0.415616 0.415055 0.413067 0.42067 0.410077 0.417047 0.412007 0.413502 0.410239 0.397904 0.816558 0.607127 0.286759 0.233836 0.210465 0.256183 0.279048 0.325561 0.382927 0.379222 0.456981 0.270432 0.633887 0.334576 0.372039 0.402171 0.425182 0.427941 0.434322 0.437388 0.434174 0.435203 0.439067 0.442822 0.445149 0.439895 0.440601 0.442751 0.437312 0.441254 0.444404 0.449244 0.444937 0.447055 0.45122 0.44922 0.511739 0.518129 0.504308 0.506224 0.503795 0.50811 0.512372 0.510885 0.510076 0.511687 0.514437 0.520923 0.519064 0.559993 0.541594 0.498019 0.417489 0.487968 0.460314 0.510378 0.529542 0.520977 0.548846 0.534586 0.521291 0.56699 0.563063 0.551405 0.560444 0.511696 0.505034 0.483021 0.476021 0.430391 0.427786 0.449161 0.485656 0.506407 0.529121 0.554068 0.525322 0.562519 0.576236 0.56829 0.517623 0.50078 0.496448 0.499945 0.520011 0.519926 0.520039 0.52044 0.520121 0.518048 0.518079 0.520568 0.51819 0.5159 0.511626 0.510084 0.498737 0.504804 0.49517 0.494876 0.497247 0.495735 0.495618 0.498475 0.50263 0.513638 0.514869 0.467686 0.483232 0.452107 0.452548 0.429302 0.458383 0.465517 0.370083 0.394686 0.356681 0.404068 0.379319 0.390047 0.393715 0.388827 0.398244 0.399467 0.395697 0.38286 0.397914 0.401945 0.404517 0.387538 0.406656 0.408741 0.41038 0.412767 0.416352 0.421446 0.388489 0.348321 0.326197 0.412161 0.678332 0.685526 0.349925 0.304211 0.2674 0.277004 0.320565 0.343289 0.373137 0.390356 0.363967 0.319107 0.269656 0.498887 0.419804 0.467919 0.465055 0.445924 0.451248 0.450007 0.439297 0.439393 0.432361 0.432411 0.436049 0.440253 0.441546 0.439235 0.438518 0.433992 0.437063 0.438511 0.440146 0.441736 0.427535 0.411157 0.470489 0.42895 0.484431 0.489055 0.497846 0.505177 0.510461 0.508926 0.51283 0.51253 0.51323 0.524445 0.523209 0.53311 0.529089 0.540324 0.573923 0.567872 0.442051 0.448324 0.424725 0.434649 0.472824 0.566581 0.537561 0.528432 0.542436 0.545931 0.560817 0.500631 0.479916 0.434895 0.426603 0.43853 0.439944 0.422279 0.499987 0.472315 0.474874 0.492784 0.504338 0.561887 0.478201 0.632011 0.472328 0.646099 0.586147 0.538657 0.526039 0.518588 0.52369 0.533548 0.524548 0.523503 0.523624 0.525972 0.520231 0.514951 0.518927 0.512833 0.502742 0.51158 0.496212 0.500292 0.500114 0.503499 0.511698 0.509175 0.519116 0.513348 0.474901 0.467607 0.45483 0.475157 0.463204 0.458318 0.45065 0.432183 0.398938 0.393862 0.382389 0.373941 0.377729 0.380262 0.382027 0.374107 0.373205 0.372681 0.380757 0.372343 0.39402 0.384084 0.401754 0.397395 0.410742 0.420923 0.422703 0.41846 0.434791 0.242501 0.0884254 0.720299 0.713318 0.701145 0.436443 0.433633 0.355949 0.301014 0.441226 0.555787 0.367794 0.378634 0.461398 0.423906 0.406817 0.358228 0.421629 0.450506 0.43144 0.455048 0.451436 0.447875 0.441015 0.434005 0.428581 0.44099 0.442812 0.444828 0.429662 0.438935 0.437714 0.443866 0.440852 0.44705 0.440667 0.449231 0.450053 0.481137 0.467975 0.488602 0.494177 0.50603 0.503779 0.5077 0.512099 0.512187 0.513971 0.513245 0.517918 0.522054 0.52094 0.523155 0.516894 0.468358 0.478816 0.455271 0.460669 0.458591 0.448569 0.431321 0.470437 0.404156 0.547288 0.541989 0.551001 0.553355 0.547766 0.50054 0.493416 0.491646 0.477778 0.474304 0.458335 0.425476 0.436223 0.40186 0.543546 0.44749 0.467954 0.504813 0.557623 0.432837 0.414439 0.369113 0.371817 0.499917 0.630524 0.575041 0.59572 0.534403 0.556855 0.541249 0.53434 0.528843 0.528906 0.536085 0.529894 0.531737 0.524618 0.529537 0.524808 0.523829 0.517391 0.519465 0.514497 0.507071 0.507111 0.510666 0.530795 0.536375 0.587631 0.584669 0.50545 0.5212 0.498998 0.492378 0.477713 0.423037 0.402797 0.390353 0.377046 0.369563 0.369652 0.367381 0.367384 0.361572 0.359412 0.351227 0.369768 0.379643 0.391384 0.408167 0.413206 0.441196 0.46252 0.429968 0.471669 0.111294 0.142182 0.86066 0.743725 0.427984 0.528776 0.271983 0.381971 0.367945 0.404826 0.490073 0.528193 0.679295 0.635954 0.513114 0.392036 0.431415 0.427999 0.435007 0.43745 0.458065 0.458295 0.464357 0.426969 0.487857 0.470935 0.458111 0.455945 0.459917 0.445941 0.452454 0.447187 0.452211 0.449707 0.457899 0.456285 0.463459 0.469141 0.488167 0.481082 0.490653 0.494378 0.497324 0.500757 0.503864 0.509524 0.514426 0.518215 0.519059 0.517501 0.507152 0.507851 0.482753 0.47789 0.471421 0.471107 0.450145 0.425897 0.487507 0.557366 0.700356 0.581695 0.510339 0.472905 0.486631 0.477279 0.437965 0.456676 0.399518 0.442912 0.627285 0.535809 0.523426 0.425558 0.456858 0.437039 0.396776 0.381506 0.387405 0.53617 0.5394 0.563483 0.55401 0.555681 0.540575 0.540592 0.535798 0.534903 0.537416 0.529977 0.531788 0.526972 0.524097 0.50915 0.520985 0.514529 0.509511 0.509523 0.493928 0.445246 0.529205 0.643649 0.548697 0.579627 0.511638 0.490033 0.475989 0.452348 0.478603 0.432641 0.386517 0.394194 0.364254 0.381331 0.363806 0.378644 0.370189 0.354003 0.345486 0.331085 0.353517 0.369105 0.387277 0.364462 0.398105 0.420622 0.398495 0.478069 0.527769 0.936709 0.43674 0.212297 0.483295 0.2663 0.0278028 0.869357 0.950432 0.542344 0.43378 0.369723 0.444172 0.307139 0.324662 0.0644183 0.044542 0.496196 0.41954 0.319719 0.393973 0.427322 0.412892 0.446012 0.441937 0.485585 0.479367 0.467373 0.463538 0.458444 0.451954 0.449482 0.449604 0.454122 0.461783 0.467145 0.4647 0.486008 0.481499 0.496598 0.502584 0.507605 0.511074 0.509486 0.514142 0.518175 0.489668 0.504239 0.498072 0.493596 0.478316 0.484676 0.480723 0.467644 0.443379 0.457489 0.59535 0.542907 0.57799 0.367947 0.564677 0.536331 0.483273 0.472035 0.444385 0.44121 0.331529 0.334226 0.351602 0.613378 0.463111 0.439679 0.468219 0.412923 0.344326 0.414591 0.467184 0.445999 0.601486 0.60094 0.550556 0.553288 0.563398 0.538586 0.558415 0.541154 0.535814 0.539241 0.540069 0.537102 0.532556 0.529054 0.524929 0.516316 0.494408 0.515725 0.482724 0.435571 0.279624 0.489152 0.47374 0.456673 0.465022 0.454606 0.422629 0.388974 0.415973 0.380532 0.35936 0.369884 0.395343 0.383242 0.417231 0.344437 0.321827 0.348838 0.339651 0.380938 0.400352 0.403648 0.402568 0.496419 0.661954 0.608941 0.680244 0.720949 0.635858 0.790008 0.567138 0.290062 0.907201 0.0462286 0.66553 0.452825 0.286956 0.266256 0.112886 0.324379 0.174004 0.171289 0.419405 0.260513 0.560536 0.477287 0.494928 0.517417 0.496968 0.494499 0.496777 0.464564 0.46193 0.456704 0.458349 0.454578 0.452272 0.460439 0.463189 0.475433 0.475103 0.477275 0.499209 0.500729 0.506828 0.510626 0.515077 0.512141 0.516806 0.517221 0.518787 0.519143 0.504796 0.504851 0.5045 0.499671 0.496787 0.494532 0.50094 0.481178 0.500402 0.393382 0.488263 0.538615 0.366253 0.556479 0.528545 0.477097 0.465593 0.402792 0.29877 0.337737 0.309631 0.937821 0.665022 0.595879 0.456795 0.396369 0.433119 0.511766 0.582639 0.599577 0.572668 0.569854 0.566498 0.587998 0.589014 0.561627 0.556033 0.552401 0.541237 0.536865 0.535968 0.53397 0.517664 0.535546 0.499491 0.525932 0.520647 0.572735 0.541681 0.543204 0.282463 0.494822 0.466019 0.476949 0.460572 0.431301 0.418277 0.356329 0.35534 0.345313 0.363128 0.379377 0.383375 0.283115 0.309194 0.324003 0.330927 0.312726 0.330789 0.312594 0.388388 0.502586 0.497216 0.815879 0.699022 0.973295 1.20804 0.496259 0.0194705 0.500671 0.52895 0.38171 0.265935 0.416812 0.351039 0.552013 0.203461 0.436979 0.279927 0.545863 0.569602 0.470392 0.457541 0.444942 0.37913 0.401678 0.446957 0.44971 0.453714 0.452012 0.453832 0.460656 0.457287 0.482991 0.477212 0.487167 0.490889 0.502006 0.503329 0.507808 0.516514 0.521033 0.508323 0.510614 0.519955 0.524708 0.524917 0.518167 0.509122 0.509904 0.501974 0.46672 0.437029 0.39055 0.519029 0.392649 0.530643 0.553239 0.403403 0.390939 0.447502 0.531035 0.621278 0.591959 0.526813 0.532166 0.517104 0.581597 0.56754 0.556802 0.547732 0.540174 0.537843 0.532839 0.540074 0.556592 0.620686 0.472252 0.549093 0.536642 0.425432 0.460724 0.469062 0.470892 0.438701 0.452444 0.433352 0.405111 0.427186 0.401735 0.431467 0.368333 0.31962 0.336821 0.329975 0.344891 0.295997 0.299691 0.250858 0.299163 0.227298 0.22926 0.651566 0.961058 0.679209 0.627026 0.318893 0.0324829 0.4397 0.514343 0.403852 0.507001 0.309155 0.35423 0.395789 0.504995 0.439799 0.573894 0.338968 0.416468 0.474293 0.441721 0.392087 0.37429 0.379501 0.371377 0.348342 0.4195 0.459003 0.454737 0.457017 0.460416 0.449486 0.453901 0.487077 0.485857 0.490786 0.493522 0.497349 0.503113 0.504632 0.509583 0.515995 0.512272 0.518249 0.530465 0.522451 0.521257 0.53614 0.501426 0.50723 0.579619 0.568645 0.554092 0.569149 0.557968 0.543432 0.535712 0.526486 0.541408 0.495754 0.587222 0.70261 0.444329 0.526686 0.542066 0.489742 0.512369 0.45403 0.46712 0.482896 0.511848 0.499987 0.458223 0.337422 0.404245 0.396238 0.516607 0.553775 0.303642 0.243569 0.297902 0.315622 0.259368 0.220452 0.212812 0.210013 0.205213 0.253476 0.574523 0.485289 0.376815 0.798541 0.229528 0.0446837 0.0675494 0.378771 0.465542 0.474991 0.343185 0.487778 0.496484 0.61852 0.394013 0.37251 0.469749 0.409312 0.375011 0.423338 0.380268 0.357778 0.439582 0.445437 0.463994 0.424618 0.452691 0.458822 0.456341 0.450327 0.488596 0.487497 0.483049 0.496024 0.499319 0.505058 0.514052 0.513068 0.517832 0.528574 0.527111 0.531271 0.539694 0.533264 0.532024 0.4864 0.470849 0.604014 0.472183 0.552093 0.533493 0.520281 0.52706 0.546224 0.508862 0.405208 0.388216 0.316118 0.330344 0.434365 0.555439 0.146836 0.622879 0.154458 0.272716 0.307144 0.280316 0.278551 0.217261 0.252176 0.472659 0.375745 0.473727 0.765828 0.291119 0.180631 0.106237 0.331348 0.683439 0.499989 0.430995 0.620054 0.355405 0.473945 0.50893 0.487118 0.33487 0.409599 0.407405 0.410808 0.452432 0.470757 0.473808 0.477398 0.467703 0.49699 0.504767 0.568184 0.543781 0.565646 0.545775 0.517391 0.535752 0.225531 0.323888 0.346225 0.46984 0.33838 0.633208 0.435268 0.288167 0.269229 0.279694 0.244312 0.402422 0.624159 0.235024 0.130297 0.357206 0.61841 0.805615 0.610474 0.393243 0.348889 0.632128 0.364962 0.382322 0.475876 0.488383 0.697773 0.318022 0.624378 0.45937 0.32966 0.267304 0.282641 0.457654 0.247183 0.203289 0.147677 
SCALARS Stress float 1
LOOKUP_TABLE default
-24116900000.0 -45580700000.0 -67128500000.0 -53648600000.0 -79186900000.0 -103362000000.0 -169441000000.0 -24392100000.0 -71964800000.0 -41869700000.0 -60981300000.0 -98313500000.0 -163653000000.0 -96571900000.0 -138226000000.0 -102900000000.0 -271614000000.0 -130137000000.0 -200313000000.0 -226222000000.0 -159841000000.0 -189720000000.0 -76417600000.0 -111473000000.0 -86290900000.0 -38172200000.0 -103633000000.0 -43680800000.0 -145293000000.0 -268236000000.0 -120121000000.0 -60238700000.0 -82130600000.0 -170058000000.0 -65340600000.0 -65354400000.0 -37247000000.0 -30917900000.0 -122389000000.0 -20373700000.0 -419038000000.0 -138599000000.0 -166550000000.0 -261848000000.0 -210363000000.0 -489324000000.0 -339572000000.0 -347223000000.0 -291278000000.0 -198532000000.0 -343499000000.0 -159349000000.0 -95506200000.0 -214108000000.0 -242500000000.0 -417576000000.0 -423135000000.0 -51182400000.0 -242522000000.0 -216574000000.0 -86417300000.0 -108249000000.0 -62806300000.0 -122233000000.0 -265332000000.0 -685131000000.0 -25167000000.0 -103694000000.0 -361177000000.0 -468401000000.0 -200169000000.0 -290191000000.0 -219643000000.0 -568280000000.0 -636598000000.0 -421938000000.0 -400244000000.0 -199925000000.0 -448903000000.0 -524555000000.0 -406883000000.0 -178489000000.0 -232266000000.0 -610618000000.0 -117567000000.0 -13191400000.0 -124400000000.0 -102377000000.0 -76004400000.0 -34408800000.0 -59431200000.0 -253453000000.0 -468497000000.0 -833220000000.0 -592174000000.0 -535321000000.0 -929977000000.0 -208090000000.0 -319342000000.0 -422015000000.0 -766138000000.0 -149697000000.0 -959614000000.0 -147040000000.0 -611746000000.0 -1.22443e+12 -269222000000.0 -205999000000.0 -414068000000.0 -676465000000.0 -150382000000.0 -58229300000.0 -253238000000.0 -204055000000.0 -146721000000.0 -363605000000.0 -624705000000.0 -328409000000.0 -313722000000.0 -992695000000.0 -345803000000.0 -240569000000.0 -759385000000.0 -1.17474e+12 -791986000000.0 -349515000000.0 -574257000000.0 -293983000000.0 -1.21187e+12 -880890000000.0 -1.44678e+12 -478029000000.0 -329754000000.0 -326592000000.0 -508729000000.0 -568495000000.0 -86375600000.0 -577775000000.0 -392576000000.0 -354221000000.0 -408290000000.0 -264913000000.0 -37276300000.0 -251112000000.0 -39644600000.0 -42200400000.0 -65345900000.0 -176488000000.0 -198007000000.0 -426470000000.0 -801322000000.0 -546336000000.0 -224761000000.0 -726346000000.0 -1.45206e+12 -411428000000.0 -1.05762e+12 -1.04055e+12 -1.12049e+12 -752259000000.0 -1.15139e+12 -1.47987e+12 -679649000000.0 -1.61693e+12 -636713000000.0 -809243000000.0 -767406000000.0 -956282000000.0 -273598000000.0 -55831900000.0 -290866000000.0 -181727000000.0 -144767000000.0 -152888000000.0 -299628000000.0 -36733000000.0 -38435400000.0 -60894100000.0 -366517000000.0 -274215000000.0 -633934000000.0 -1.23776e+12 -815000000000.0 -1.32438e+12 -1.4059e+12 -1.03677e+12 -680988000000.0 -1.74159e+12 -163592000000.0 -779525000000.0 -682528000000.0 -2.60768e+12 -749828000000.0 -1.9719e+12 -1.88399e+12 -895645000000.0 -926890000000.0 -969871000000.0 -1.06115e+12 -641497000000.0 -551404000000.0 -358973000000.0 -649863000000.0 -334937000000.0 -268690000000.0 -32984500000.0 -29853000000.0 -21037500000.0 -56258000000.0 -109403000000.0 -627966000000.0 -290481000000.0 -867600000000.0 -241182000000.0 -428589000000.0 -1.08643e+12 -1.56736e+12 -1.09886e+12 -601319000000.0 -996223000000.0 -1.38739e+12 -1.5915e+12 -937339000000.0 -1.15437e+12 -2.0083e+12 -3.57187e+12 -1.37731e+12 -1.03961e+12 -697556000000.0 -1.22732e+12 -223746000000.0 -608133000000.0 -912889000000.0 -342995000000.0 -83205100000.0 -276097000000.0 -18056100000.0 -46179200000.0 -146339000000.0 -245867000000.0 -353429000000.0 -1.06697e+12 -734825000000.0 -1.00385e+12 -1.47394e+12 -1.07479e+12 -2.31067e+12 -1.67171e+12 -1.90174e+12 -1.21136e+12 -2.14577e+12 -1.85248e+12 -954080000000.0 -3.664e+12 -1.77676e+12 -2.10968e+12 -2.4762e+12 -1.37772e+12 -2.11396e+12 -1.23371e+12 -172623000000.0 -221081000000.0 -129420000000.0 -391229000000.0 -65947100000.0 -21544300000.0 -82920700000.0 -52723900000.0 -138312000000.0 -570065000000.0 -1.01218e+12 -944824000000.0 -1.83434e+12 -1.73846e+12 -2.44981e+12 -2.81862e+12 -731695000000.0 -582510000000.0 -1.18012e+12 -1.12507e+12 -2.22973e+12 -1.88157e+12 -3.06307e+12 -1.1848e+12 -3.0369e+12 -681507000000.0 -569139000000.0 -1.5835e+12 -2.24486e+12 -976147000000.0 -527347000000.0 -1.08877e+12 -1.00359e+12 -351898000000.0 -205641000000.0 -55351700000.0 -294972000000.0 -325160000000.0 -373580000000.0 -909125000000.0 -622868000000.0 -1.45006e+12 -1.21649e+12 -1.61723e+12 -1.0736e+12 -2.38931e+12 -2.97308e+12 -3.4131e+12 -1.03778e+12 -820556000000.0 -1.35597e+12 -2.50346e+12 -3.04408e+12 -3.57237e+12 -908757000000.0 -2.06965e+12 -1.84732e+12 -2.41633e+12 -2.3247e+12 -659102000000.0 -526554000000.0 -916341000000.0 -88528100000.0 -501926000000.0 -890313000000.0 -694549000000.0 -340260000000.0 -51345400000.0 -161938000000.0 -680240000000.0 -758692000000.0 -722621000000.0 -1.12386e+12 -2.17883e+12 -1.36215e+12 -2.00671e+12 -2.6223e+12 -2.70991e+12 -1.82628e+12 -1.99105e+12 -1.26915e+12 -2.11258e+12 -1.64489e+12 -1.27092e+12 -1.52953e+12 -1.99857e+12 -3.14374e+12 -2.22672e+12 -2.78717e+12 -970084000000.0 -2.23882e+12 -1.2141e+12 -1.46101e+12 -2.04079e+12 -900469000000.0 -1.74306e+12 -1.30383e+12 -1.37398e+12 -775660000000.0 -679024000000.0 -54510200000.0 -172443000000.0 -200312000000.0 -459780000000.0 -1.35158e+12 -581409000000.0 -1.4009e+12 -1.8084e+12 -1.61923e+12 -2.69455e+12 -2.86278e+12 -2.53034e+12 -1.52019e+12 -3.36045e+12 -1.28208e+12 -1.02131e+12 -2.53866e+12 -1.95012e+12 -1.93649e+12 -1.91071e+12 -1.62799e+12 -2.84369e+12 -2.2009e+12 -2.99969e+12 -2.90983e+12 -1.38224e+12 -1.95411e+12 -871039000000.0 -390745000000.0 -1.7e+12 -1.18877e+12 -794924000000.0 -117446000000.0 -195656000000.0 -185718000000.0 -265349000000.0 -522001000000.0 -123325000000.0 -700997000000.0 -736230000000.0 -758275000000.0 -2.29148e+12 -1.62787e+12 -1.21998e+12 -2.4575e+12 -2.42726e+12 -1.23366e+12 -2.63225e+12 -1.32276e+12 -2.79692e+12 -2.924e+12 -2.76442e+12 -2.29078e+12 -1.85762e+12 -2.2689e+12 -2.20958e+12 -2.44926e+12 -4.51883e+12 -3.44728e+12 -2.68284e+12 -2.67254e+12 -1.87374e+12 -2.44768e+12 -2.10976e+12 -1.4461e+12 -1.54435e+12 -1.75752e+12 -1.4609e+12 -1.66897e+12 -1.54801e+12 -315168000000.0 -584750000000.0 -51850800000.0 -43024700000.0 -240838000000.0 -468691000000.0 -444921000000.0 -1.21994e+12 -1.08045e+12 -3.03781e+12 -2.49205e+12 -2.30013e+12 -2.41409e+12 -3.02623e+12 -842068000000.0 -3.07453e+12 -2.53494e+12 -2.66423e+12 -2.96827e+12 -3.68288e+12 -1.50929e+12 -1.96097e+12 -1.60072e+12 -2.99028e+12 -3.86241e+12 -5.61949e+12 -2.57836e+12 -4.79372e+12 -3.02951e+12 -3.08434e+12 -3.96084e+12 -1.82798e+12 -2.23167e+12 -1.89732e+12 -1.13712e+12 -1.12162e+12 -1.01805e+12 -537870000000.0 -175009000000.0 -107637000000.0 -356645000000.0 -689945000000.0 -1.06043e+12 -1.66346e+12 -4.22486e+12 -1.94128e+12 -3.20194e+12 -2.88099e+12 -2.92539e+12 -3.41829e+12 -4.09468e+12 -1.8816e+12 -3.47145e+12 -5.23865e+12 -4.41469e+12 -3.42541e+12 -4.56511e+12 -2.19223e+12 -3.87561e+12 -1.49576e+12 -3.1823e+12 -1.97303e+12 -3.11826e+12 -1.85023e+12 -349394000000.0 -1.87904e+12 -1.50677e+12 -1.54302e+12 -367363000000.0 -187425000000.0 -26865900000.0 -65506500000.0 -189401000000.0 -577192000000.0 -1.40176e+12 -1.79395e+12 -1.81053e+12 -3.17746e+12 -3.1184e+12 -3.77553e+12 -3.21528e+12 -4.176e+12 -3.41242e+12 -3.66909e+12 -1.57115e+12 -4.07439e+12 -3.96769e+12 -4.77329e+12 -5.36597e+12 -3.52402e+12 -3.83561e+12 -3.15753e+12 -2.46031e+12 -2.20551e+12 -3.27316e+12 -3.60269e+12 -4.6423e+12 -4.7298e+12 -2.96265e+12 -4.5833e+12 -2.43106e+12 -2.5486e+12 -1.22823e+12 -2.47444e+12 -3.17429e+12 -2.03674e+12 -3.73309e+12 -2.14194e+12 -635727000000.0 -143757000000.0 -74531300000.0 -1.53244e+12 -2.55758e+12 -5.17541e+12 -3.31633e+12 -2.69322e+12 -4.51082e+12 -3.09406e+12 -7.69589e+12 -3.90047e+12 -3.78749e+12 -3.29208e+12 -3.27881e+12 -4.51863e+12 -7.87712e+12 -5.82417e+12 -2.0057e+12 -7.48478e+12 -3.25953e+12 -2.73444e+12 -4.19401e+12 -4.42485e+12 -4.94779e+12 -8.61884e+12 -2.6396e+12 -3.96107e+12 -4.08052e+12 -4.83966e+12 -3.15121e+12 -2.51965e+12 -1.40212e+12 -428461000000.0 -142304000000.0 -1.24135e+12 -3.33182e+12 -7.68083e+12 -2.65787e+12 -4.49185e+12 -3.95984e+12 -2.89372e+12 -3.57976e+12 -6.31961e+12 -5.15945e+12 -6.49049e+12 -3.34538e+12 -5.73926e+12 -4.2782e+12 -4.47236e+12 -3.45326e+12 -6.90731e+12 -9.58429e+12 -4.00177e+12 -4.84604e+12 -7.07954e+12 -4.71661e+12 -6.70181e+12 -7.92092e+12 -5.11758e+12 -3.91421e+12 -3.6455e+12 -1.86261e+12 -2.46299e+12 -5.20707e+12 -6.36209e+12 -2.70662e+12 -4.53885e+12 -2.97006e+12 -6.48188e+12 -4.09092e+12 -5.98186e+12 -4.08857e+12 -5.65644e+12 -3.79027e+12 -4.52589e+12 -3.82211e+12 -5.79092e+12 -4.4196e+12 -6.46434e+12 -6.15047e+12 -5.84291e+12 -7.13565e+12 -6.58248e+12 -7.36746e+12 -6.28432e+12 -4.65302e+12 -2.1396e+12 -4.63023e+12 -4.30772e+12 -8.40729e+12 -5.37041e+12 -6.50705e+12 -5.0993e+12 -1.9402e+12 -5.65158e+12 -4.11118e+12 -5.45158e+12 -5.81711e+12 -5.53664e+12 -8.7429e+12 -6.77803e+12 -2.29604e+12 -5.76958e+12 -5.78451e+12 -4.94937e+12 -5.7105e+12 -4.16654e+12 -6.67148e+12 -5.94476e+12 -5.58952e+12 -4.48202e+12 -3.98781e+12 -5.42279e+12 -8.34673e+12 -6.34707e+12 -5.33063e+12 -5.33178e+12 -1.02409e+13 -6.64214e+12 -1.26609e+13 -1.01667e+13 -3.96183e+12 -12549700000.0 -4.15192e+12 -6.59847e+12 -4.71816e+12 -4.41233e+12 -5.0605e+12 -5.60037e+12 -3.65817e+12 -3.95624e+12 -6.71588e+12 -3.72946e+12 -5.52944e+12 -4.85968e+12 -4.1985e+12 -4.78035e+12 -6.48676e+12 -2.50413e+12 -5.61427e+12 -2.14656e+12 -7.28819e+12 -5.62734e+12 -3.55578e+12 -6.14541e+12 -6.10587e+12 -6.69764e+12 -7.24596e+12 -3.58121e+12 -1.57698e+12 -3.63961e+12 -3.21875e+12 -2.41071e+12 -6.54486e+12 -4.34025e+12 -6.18025e+12 -6.87391e+12 -4.96578e+12 -7.95714e+12 -4.87876e+12 -3.18829e+12 -12549700000.0 -3.68117e+12 -3.60705e+12 -3.08473e+12 -2.63463e+12 -4.41737e+12 -3.00426e+12 -3.42549e+12 -3.28552e+12 -6.95657e+12 -4.85371e+12 -7.39454e+12 -3.91909e+12 -5.97021e+12 -5.92571e+12 -4.0228e+12 -6.1903e+12 -6.25997e+12 -6.05058e+12 -4.3753e+12 -4.9861e+12 -4.11738e+12 -3.47663e+12 -7.95594e+12 -6.34966e+12 -8.03499e+12 -2.88415e+12 -6.96204e+12 -5.54206e+12 -3.50685e+12 -4.64076e+12 -3.62171e+12 -3.36943e+12 -5.59488e+12 -5.37708e+12 -8.46659e+12 -9.37557e+12 -7.65523e+12 -8.56383e+12 -7.50243e+12 -2.55984e+12 -5.36532e+12 -3.18817e+12 -12549700000.0 -3.89595e+12 -6.25945e+12 -4.87263e+12 -6.97108e+12 -8.87447e+12 -4.21507e+12 -6.15534e+12 -3.9499e+12 -6.36877e+12 -8.34521e+12 -5.98234e+12 -8.1886e+12 -5.17233e+12 -3.30092e+12 -3.49294e+12 -6.70892e+12 -8.08528e+12 -9.94693e+12 -5.27702e+12 -7.91393e+12 -4.031e+12 -3.62705e+12 -2.45781e+12 -8.16684e+12 -4.88628e+12 -8.12388e+12 -5.97631e+12 -6.27805e+12 -6.10598e+12 -5.21026e+12 -8.52003e+12 -6.07949e+12 -7.54163e+12 -4.55495e+12 -4.44159e+12 -4.23285e+12 -4.02524e+12 -5.05926e+12 -4.4011e+12 -5.87511e+12 -5.1372e+12 -9.5207e+12 -1.14556e+13 -5.74624e+12 -5.55027e+12 -6.09275e+12 -8.28841e+12 -6.05802e+12 -4.26057e+12 -1.16772e+13 -4.09767e+12 -5.83036e+12 -4.47909e+12 -7.75536e+12 -8.24161e+12 -5.07595e+12 -9.20181e+12 -8.7559e+12 -4.31941e+12 -7.46554e+12 -7.96685e+12 -6.92265e+12 -6.41897e+12 -4.71498e+12 -5.21255e+12 -5.93497e+12 -5.94032e+12 -3.76021e+12 -6.37559e+12 -3.41398e+12 -4.23158e+12 -2.7637e+12 -6.18332e+12 -3.99033e+12 -5.68891e+12 -5.01275e+12 -9.40815e+12 -4.88151e+12 -7.7264e+12 -9.71583e+12 -4.66275e+12 -7.7768e+12 -8.55639e+12 -4.73536e+12 -5.54737e+12 -9.68038e+12 -6.13128e+12 -6.7945e+12 -6.26735e+12 -7.53497e+12 -9.71478e+12 -9.82122e+12 -6.52074e+12 -6.27314e+12 -1.17388e+13 -4.95325e+12 -1.00517e+13 -5.30265e+12 -7.0121e+12 -4.41697e+12 -4.46629e+12 -6.67949e+12 -7.82445e+12 -4.46167e+12 -5.63008e+12 -4.43182e+12 -6.49064e+12 -4.86032e+12 -5.10775e+12 -12549700000.0 -3.88526e+12 -4.1358e+12 -2.78054e+12 -7.53746e+12 -7.5334e+12 -7.01653e+12 -4.11409e+12 -7.18276e+12 -9.18066e+12 -6.52279e+12 -6.40454e+12 -8.35022e+12 -6.74295e+12 -3.17731e+12 -5.58079e+12 -5.63176e+12 -3.99291e+12 -5.1269e+12 -7.64602e+12 -6.56711e+12 -9.26885e+12 -6.26557e+12 -5.92529e+12 -5.0116e+12 -5.33865e+12 -8.65592e+12 -5.57884e+12 -6.68867e+12 -9.06248e+12 -5.43554e+12 -4.87885e+12 -4.85956e+12 -6.26769e+12 -7.81389e+12 -4.65818e+12 -5.08777e+12 -5.01188e+12 -1.08747e+13 -7.81168e+12 -2.62441e+12 -3.48103e+12 -12549700000.0 -12549700000.0 -6.36384e+12 -6.35648e+12 -5.32403e+12 -1.07976e+13 -6.02028e+12 -6.87162e+12 -8.29652e+12 -7.12479e+12 -4.57687e+12 -9.01131e+12 -8.04395e+12 -6.75745e+12 -7.30657e+12 -3.42742e+12 -2.67773e+12 -8.8603e+12 -6.49214e+12 -5.87706e+12 -2.30345e+12 -4.52294e+12 -4.83085e+12 -7.94638e+12 -7.63189e+12 -9.86456e+12 -6.1007e+12 -4.69738e+12 -6.30954e+12 -7.92522e+12 -6.92937e+12 -4.88225e+12 -9.63219e+12 -6.29915e+12 -7.84453e+12 -4.61553e+12 -5.58538e+12 -8.64916e+12 -8.31602e+12 -5.54579e+12 -1.03128e+13 -4.13693e+12 -6.95672e+12 -3.35135e+12 -3.33659e+12 -7.18348e+12 -6.68351e+12 -4.3501e+12 -6.54944e+12 -6.88635e+12 -4.03397e+12 -3.68442e+12 -5.83717e+12 -6.78374e+12 -5.71809e+12 -1.24251e+13 -6.00391e+12 -5.75517e+12 -1.33076e+13 -7.58522e+12 -8.01714e+12 -4.23944e+12 -6.69087e+12 -4.19582e+12 -6.64761e+12 -4.28189e+12 -5.61386e+12 -8.13465e+12 -7.17063e+12 -1.11286e+13 -9.26783e+12 -5.1935e+12 -7.33888e+12 -1.02259e+13 -6.97112e+12 -4.71545e+12 -3.16368e+12 -1.1486e+13 -8.1795e+12 -7.52347e+12 -7.95686e+12 -6.23149e+12 -6.31307e+12 -4.58264e+12 -3.70564e+12 -4.14589e+12 -4.0865e+12 -4.12073e+12 -6.63002e+12 -7.2987e+12 -4.37916e+12 -7.69284e+12 -6.24903e+12 -5.17308e+12 -6.04107e+12 -1.00457e+13 -5.35857e+12 -9.10228e+12 -8.02036e+12 -7.58504e+12 -1.1134e+13 -7.01709e+12 -7.45449e+12 -4.90558e+12 -8.03054e+12 -3.91207e+12 -8.79271e+12 -1.27838e+13 -1.03731e+13 -6.82903e+12 -6.16242e+12 -7.16698e+12 -5.78854e+12 -3.13892e+12 -5.54402e+12 -7.56451e+12 -7.15657e+12 -5.51003e+12 -7.5017e+12 -8.47061e+12 -4.62777e+12 -6.01372e+12 -3.59067e+12 -8.3217e+12 -4.67179e+12 -6.16724e+12 -6.92925e+12 -5.08218e+12 -8.42866e+12 -2.77469e+12 -3.4827e+12 -6.02696e+12 -9.98139e+12 -6.38287e+12 -7.86127e+12 -6.80581e+12 -7.72289e+12 -5.99781e+12 -1.00614e+13 -7.86131e+12 -7.39858e+12 -8.7535e+12 -7.65556e+12 -6.28905e+12 -8.19608e+12 -5.90783e+12 -8.01386e+12 -5.85478e+12 -5.95198e+12 -5.55638e+12 -7.61029e+12 -7.18676e+12 -8.89786e+12 -6.04369e+12 -5.75192e+12 -8.25883e+12 -1.05537e+13 -6.10189e+12 -5.67657e+12 -3.45681e+12 -7.5552e+12 -4.67472e+12 -6.64372e+12 -4.49218e+12 -5.41627e+12 -5.5878e+12 -7.83862e+12 -6.43737e+12 -5.5042e+12 -8.21957e+12 -5.18153e+12 -5.40321e+12 -7.98465e+12 -3.55456e+12 -12549700000.0 -4.65986e+12 -3.22499e+12 -7.86224e+12 -6.71558e+12 -9.4586e+12 -7.50904e+12 -4.93005e+12 -8.76841e+12 -5.90034e+12 -3.29914e+12 -3.21502e+12 -6.27145e+12 -5.85028e+12 -4.90829e+12 -7.49167e+12 -8.04158e+12 -7.61725e+12 -6.47419e+12 -8.27239e+12 -8.40005e+12 -7.07944e+12 -8.98917e+12 -5.56604e+12 -4.82149e+12 -5.94579e+12 -8.93782e+12 -8.66101e+12 -8.5473e+12 -9.67821e+12 -7.51355e+12 -1.06684e+13 -5.79507e+12 -1.01613e+13 -8.13023e+12 -9.66459e+12 -7.07136e+12 -5.80154e+12 -5.38177e+12 -4.41652e+12 -6.69222e+12 -12549700000.0 -5.46395e+12 -3.32743e+12 -7.72987e+12 -8.12584e+12 -7.74983e+12 -7.36603e+12 -7.07808e+12 -8.0531e+12 -5.01164e+12 -7.85067e+12 -8.92792e+12 -5.00101e+12 -7.46738e+12 -7.62513e+12 -6.04469e+12 -6.59878e+12 -4.10194e+12 -3.08421e+12 -7.34684e+12 -5.55045e+12 -1.16812e+13 -7.60053e+12 -7.07587e+12 -5.41543e+12 -7.18772e+12 -9.21397e+12 -1.10971e+13 -5.6415e+12 -8.95085e+12 -6.40404e+12 -1.06323e+13 -9.84016e+12 -4.73396e+12 -5.6669e+12 -8.7224e+12 -5.66641e+12 -5.95735e+12 -9.8973e+12 -8.41068e+12 -6.71543e+12 -9.41247e+12 -2.72115e+12 -5.83727e+12 -3.68845e+12 -9.10141e+12 -4.24217e+12 -3.95971e+12 -3.61992e+12 -1.93618e+12 -4.4907e+12 -7.32501e+12 -5.24526e+12 -9.36888e+12 -8.41985e+12 -6.68992e+12 -6.79817e+12 -5.11833e+12 -9.42876e+12 -7.01774e+12 -8.60152e+12 -5.29678e+12 -6.79884e+12 -7.56315e+12 -1.08338e+13 -7.12976e+12 -7.41921e+12 -8.00433e+12 -7.89086e+12 -1.65588e+13 -4.66153e+12 -6.03435e+12 -1.0537e+13 -9.86363e+12 -8.48524e+12 -5.67369e+12 -3.32973e+12 -6.30754e+12 -8.97256e+12 -7.69469e+12 -7.01333e+12 -7.3039e+12 -5.25777e+12 -8.79661e+12 -5.40921e+12 -5.59431e+12 -6.2657e+12 -5.37622e+12 -4.9358e+12 -9.68322e+12 -8.77257e+12 -3.90122e+12 -7.46645e+12 -12549700000.0 -3.33631e+12 -3.84246e+12 -9.75201e+12 -6.40002e+12 -4.56072e+12 -7.3361e+12 -1.08918e+13 -5.19579e+12 -7.40945e+12 -6.36129e+12 -5.10109e+12 -5.71571e+12 -4.38342e+12 -1.03316e+13 -4.3485e+12 -8.74425e+12 -1.12127e+13 -6.24168e+12 -4.67894e+12 -4.26861e+12 -1.10425e+13 -5.57279e+12 -5.92346e+12 -7.97302e+12 -4.57591e+12 -5.41073e+12 -6.35054e+12 -6.19107e+12 -8.64339e+12 -7.94307e+12 -5.95422e+12 -6.27942e+12 -7.96614e+12 -5.55766e+12 -4.92497e+12 -1.07355e+13 -1.03668e+13 -7.83507e+12 -4.28122e+12 -6.602e+12 -7.54141e+12 -7.29109e+12 -9.10536e+12 -7.4291e+12 -6.97728e+12 -6.301e+12 -5.90985e+12 -4.25866e+12 -6.59646e+12 -5.0883e+12 -9.43859e+12 -6.06703e+12 -8.63218e+12 -5.55566e+12 -6.04025e+12 -6.74868e+12 -7.74731e+12 -4.89447e+12 -7.56543e+12 -5.61153e+12 -7.70349e+12 -7.63618e+12 -4.88677e+12 -4.80627e+12 -8.20975e+12 -5.67201e+12 -4.31405e+12 -5.53231e+12 -2.87541e+12 -5.08681e+12 -3.45802e+12 -4.64543e+12 -7.15255e+12 -7.52454e+12 -7.97818e+12 -1.00407e+13 -4.46734e+12 -7.48208e+12 -1.23523e+13 -7.23606e+12 -1.30041e+13 -8.66414e+12 -1.09823e+13 -8.08301e+12 -7.85763e+12 -3.99142e+12 -6.05714e+12 -5.20869e+12 -5.22747e+12 -5.04106e+12 -1.28017e+13 -6.88675e+12 -9.63435e+12 -7.71792e+12 -5.18657e+12 -3.31941e+12 -3.55283e+12 -1.21325e+13 -1.0895e+13 -7.13047e+12 -7.35125e+12 -1.03791e+13 -7.50865e+12 -1.25384e+13 -8.37982e+12 -1.18361e+13 -6.69046e+12 -6.57091e+12 -7.7861e+12 -5.21477e+12 -8.89349e+12 -6.84347e+12 -6.50615e+12 -7.45097e+12 -8.75747e+12 -4.38267e+12 -8.31662e+12 -6.44136e+12 -7.92494e+12 -5.79895e+12 -6.7052e+12 -7.21237e+12 -9.26111e+12 -9.01192e+12 -7.11645e+12 -5.55708e+12 -6.94962e+12 -7.73641e+12 -1.00617e+13 -5.25781e+12 -5.3593e+12 -8.28225e+12 -8.93723e+12 -8.81611e+12 -5.43925e+12 -8.1807e+12 -1.00877e+13 -8.61954e+12 -7.58626e+12 -6.37279e+12 -7.81089e+12 -5.51852e+12 -7.69598e+12 -9.33816e+12 -6.3452e+12 -8.83226e+12 -7.80508e+12 -7.77268e+12 -8.90166e+12 -3.50829e+12 -1.09832e+13 -8.08838e+12 -7.84713e+12 -5.05417e+12 -6.79685e+12 -6.02859e+12 -1.29954e+13 -4.28964e+12 -9.18632e+12 -1.19186e+13 -1.11721e+13 -1.0245e+13 -1.17353e+13 -5.99182e+12 -6.7468e+12 -1.03749e+13 -1.2935e+13 -9.57024e+12 -5.01472e+12 -1.30011e+13 -4.85749e+12 -3.48848e+12 -7.51514e+12 -1.08311e+13 -8.44293e+12 -1.09786e+13 -5.22352e+12 -8.37495e+12 -8.52099e+12 -5.89799e+12 -1.29012e+13 -7.18492e+12 -1.1032e+13 -1.07126e+13 -3.91096e+12 -4.1591e+12 -4.30562e+12 -5.08803e+12 -5.5902e+12 -3.21428e+12 -6.28342e+12 -9.21807e+12 -7.69697e+12 -5.96188e+12 -8.48037e+12 -8.97422e+12 -1.01367e+13 -9.10708e+12 -5.61194e+12 -6.72903e+12 -8.76277e+12 -5.28645e+12 -1.07073e+13 -5.58305e+12 -8.23031e+12 -9.26044e+12 -4.40637e+12 -8.58299e+12 -6.74552e+12 -6.99948e+12 -5.67239e+12 -4.03706e+12 -9.75187e+12 -6.20308e+12 -2.9656e+12 -7.2509e+12 -5.33047e+12 -7.06373e+12 -6.61687e+12 -6.15934e+12 -1.09568e+13 -8.43543e+12 -6.82098e+12 -5.22972e+12 -5.71973e+12 -8.72613e+12 -8.54756e+12 -6.8239e+12 -3.21812e+12 -5.82662e+12 -12549700000.0 -6.09256e+12 -5.44573e+12 -4.71801e+12 -9.34151e+12 -5.61223e+12 -8.8356e+12 -6.39752e+12 -7.79779e+12 -8.84132e+12 -9.80523e+12 -6.1039e+12 -5.01651e+12 -9.29924e+12 -6.97919e+12 -8.18545e+12 -9.54914e+12 -1.09312e+13 -1.28102e+13 -1.0112e+13 -9.2095e+12 -8.54125e+12 -1.10464e+13 -9.61336e+12 -8.28647e+12 -9.16274e+12 -7.4286e+12 -6.06701e+12 -5.65729e+12 -9.22387e+12 -1.05691e+13 -9.75735e+12 -1.18712e+13 -1.45703e+13 -6.89181e+12 -8.303e+12 -4.3418e+12 -5.72316e+12 -5.34172e+12 -9.10731e+12 -1.07962e+13 -1.03384e+13 -8.45463e+12 -9.9687e+12 -7.94767e+12 -5.85736e+12 -5.03102e+12 -1.05363e+13 -1.34338e+13 -5.8816e+12 -8.92242e+12 -9.54425e+12 -9.3059e+12 -3.7586e+12 -8.39642e+12 -3.70363e+12 -9.20206e+12 -6.34434e+12 -1.02607e+13 -6.32053e+12 -8.76154e+12 -1.29849e+13 -6.31241e+12 -1.16088e+13 -6.93004e+12 -7.48564e+12 -3.15839e+12 -7.12094e+12 -6.59432e+12 -9.82883e+12 -3.62847e+12 -1.26769e+13 -6.77494e+12 -9.93092e+12 -1.3133e+13 -5.91557e+12 -7.49867e+12 -5.21636e+12 -5.06414e+12 -5.9784e+12 -3.58115e+12 -1.09838e+13 -7.26634e+12 -9.50786e+12 -7.65916e+12 -6.5149e+12 -7.88913e+12 -8.49689e+12 -9.9242e+12 -2.63181e+12 -1.05159e+13 -7.67146e+12 -1.12541e+13 -8.83529e+12 -5.34966e+12 -3.18977e+12 -7.80356e+12 -7.44504e+12 -6.13077e+12 -1.01139e+13 -1.18398e+13 -1.03219e+13 -1.10617e+13 -7.66788e+12 -6.29165e+12 -6.18321e+12 -1.53657e+13 -7.73854e+12 -9.63527e+12 -1.06213e+13 -7.16159e+12 -5.97167e+12 -1.12567e+13 -8.38758e+12 -9.75018e+12 -5.14849e+12 -8.46096e+12 -5.90557e+12 -8.39837e+12 -9.02862e+12 -8.57084e+12 -5.13718e+12 -5.94017e+12 -7.51794e+12 -4.36325e+12 -8.18411e+12 -5.30438e+12 -5.78303e+12 -6.41596e+12 -4.01817e+12 -5.71747e+12 -7.1555e+12 -4.40177e+12 -5.63045e+12 -8.33411e+12 -5.98147e+12 -6.1943e+12 -9.335e+12 -8.90936e+12 -7.52238e+12 -7.31002e+12 -12549700000.0 -7.4269e+12 -4.05897e+12 -8.60611e+12 -1.1682e+13 -1.14368e+13 -9.56599e+12 -9.78101e+12 -6.27915e+12 -6.26593e+12 -7.72485e+12 -7.15954e+12 -1.16348e+13 -8.45833e+12 -1.09574e+13 -5.71355e+12 -8.22222e+12 -5.70292e+12 -8.99997e+12 -1.08595e+13 -1.00486e+13 -1.36278e+13 -4.2024e+12 -6.21533e+12 -8.68172e+12 -4.45683e+12 -6.47522e+12 -3.36971e+12 -6.38542e+12 -7.1437e+12 -5.88073e+12 -4.52958e+12 -8.57689e+12 -4.36424e+12 -3.65382e+12 -5.36984e+12 -7.34583e+12 -8.00341e+12 -5.97902e+12 -5.59862e+12 -8.56392e+12 -4.3274e+12 -8.63272e+12 -7.94345e+12 -7.07464e+12 -7.85638e+12 -9.67701e+12 -7.71444e+12 -7.20837e+12 -8.25067e+12 -4.8879e+12 -8.23854e+12 -6.90813e+12 -8.51376e+12 -7.0084e+12 -9.64177e+12 -7.73881e+12 -1.01776e+13 -1.55446e+13 -9.72935e+12 -6.75586e+12 -6.7416e+12 -1.01264e+13 -9.76315e+12 -1.12131e+13 -7.68687e+12 -7.97697e+12 -6.16797e+12 -9.57962e+12 -8.31008e+12 -1.34302e+13 -5.42967e+12 -7.74433e+12 -1.13907e+13 -4.96438e+12 -8.56652e+12 -5.43006e+12 -7.67692e+12 -7.72062e+12 -7.38164e+12 -5.75627e+12 -5.1665e+12 -1.01337e+13 -7.14852e+12 -7.27783e+12 -1.00848e+13 -6.22195e+12 -1.06557e+13 -1.07192e+13 -1.02263e+13 -5.6527e+12 -9.55544e+12 -7.06062e+12 -6.24665e+12 -9.1782e+12 -1.16857e+13 -5.29884e+12 -1.06396e+13 -6.64895e+12 -6.64808e+12 -5.16174e+12 -3.91998e+12 -8.28252e+12 -6.77365e+12 -8.65932e+12 -1.14228e+13 -1.06839e+13 -1.51224e+13 -1.12891e+13 -1.40891e+13 -4.94798e+12 -8.03138e+12 -3.41353e+12 -4.40157e+12 -5.29028e+12 -9.10038e+12 -1.02201e+13 -8.9807e+12 -1.3433e+13 -7.17948e+12 -6.79977e+12 -7.21666e+12 -8.0885e+12 -1.19057e+13 -1.08328e+13 -6.36056e+12 -3.58411e+12 -5.64548e+12 -5.34207e+12 -7.3651e+12 -5.20185e+12 -6.96239e+12 -6.12218e+12 -7.97435e+12 -8.82135e+12 -9.5884e+12 -6.85481e+12 -1.17576e+13 -5.29344e+12 -6.89878e+12 -1.11419e+13 -1.10168e+13 -7.87441e+12 -7.76594e+12 -5.71447e+12 -9.64783e+12 -2.71084e+12 -9.59375e+12 -6.72895e+12 -1.09488e+13 -6.10318e+12 -7.00968e+12 -5.18589e+12 -6.44139e+12 -6.70578e+12 -1.41085e+13 -7.11007e+12 -1.29493e+13 -6.79998e+12 -9.30804e+12 -8.09481e+12 -5.51822e+12 -9.97584e+12 -6.84776e+12 -8.72561e+12 -8.34987e+12 -9.90098e+12 -1.40214e+13 -1.7761e+13 -1.18246e+13 -1.33246e+13 -1.02586e+13 -7.83835e+12 -6.61135e+12 -7.49246e+12 -8.20903e+12 -5.8583e+12 -6.24686e+12 -4.31186e+12 -5.52687e+12 -8.06077e+12 -3.65465e+12 -7.9367e+12 -7.75905e+12 -1.09885e+13 -8.36076e+12 -8.53411e+12 -1.44877e+13 -8.92141e+12 -6.80164e+12 -1.29611e+13 -6.08607e+12 -5.72732e+12 -9.15647e+12 -1.10955e+13 -1.08157e+13 -5.78972e+12 -6.55369e+12 -1.26852e+13 -1.32427e+13 -1.49031e+13 -5.1729e+12 -7.21042e+12 -1.48077e+13 -7.25858e+12 -6.04944e+12 -7.77161e+12 -5.40486e+12 -1.15906e+13 -1.14486e+13 -9.01819e+12 -8.81515e+12 -1.16235e+13 -9.33882e+12 -4.40017e+12 -1.32937e+13 -9.83013e+12 -9.33718e+12 -8.46389e+12 -1.47933e+13 -4.97769e+12 -6.77809e+12 -1.02131e+13 -9.23168e+12 -5.73294e+12 -7.899e+12 -1.11507e+13 -6.11161e+12 -4.58378e+12 -7.05203e+12 -6.00331e+12 -1.32037e+13 -1.24997e+13 -1.11765e+13 -7.80079e+12 -2.68566e+12 -5.79395e+12 -2.77291e+12 -6.11871e+12 -7.91506e+12 -7.00582e+12 -4.31761e+12 -8.99975e+12 -7.7177e+12 -1.03687e+13 -1.22757e+13 -1.11036e+13 -5.81666e+12 -1.20396e+13 -1.04224e+13 -2.98782e+12 -4.07791e+12 -1.38089e+13 -5.62159e+12 -4.11364e+12 -1.04259e+13 -4.58773e+12 -6.07067e+12 -8.3545e+12 -1.2998e+13 -1.45196e+13 -8.66054e+12 -1.15957e+13 -1.52861e+13 -8.6577e+12 -8.09769e+12 -6.96564e+12 -4.72199e+12 -4.71349e+12 -3.02652e+12 -5.86573e+12 -9.2213e+12 -8.64225e+12 -7.99829e+12 -9.01266e+12 -7.10573e+12 -6.31915e+12 -4.86124e+12 -9.15593e+12 -5.72605e+12 -6.19821e+12 -5.88686e+12 -7.34294e+12 -7.58968e+12 -7.65794e+12 -1.33313e+13 -4.29141e+12 -8.9192e+12 -9.16871e+12 -9.09421e+12 -1.02473e+13 -6.30475e+12 -8.46758e+12 -6.39434e+12 -1.03797e+13 -8.1677e+12 -5.99912e+12 -4.29346e+12 -8.00802e+12 -9.25026e+12 -8.72449e+12 -8.32384e+12 -6.72542e+12 -6.93571e+12 -5.1116e+12 -1.04019e+13 -6.43912e+12 -9.58632e+12 -8.21969e+12 -7.84043e+12 -7.00778e+12 -7.23053e+12 -8.10771e+12 -1.37797e+13 -8.98523e+12 -7.93692e+12 -3.79495e+12 -7.06116e+12 -1.35562e+13 -9.60853e+12 -7.66546e+12 -9.03729e+12 -5.13281e+12 -5.42583e+12 -9.97823e+12 -8.67492e+12 -1.09587e+13 -8.69861e+12 -8.8967e+12 -8.95565e+12 -1.3195e+13 -8.95718e+12 -6.54825e+12 -9.24352e+12 -5.4716e+12 -7.1066e+12 -1.09693e+13 -6.22741e+12 -4.2653e+12 -7.60222e+12 -8.35927e+12 -8.55614e+12 -8.07108e+12 -9.92066e+12 -1.09578e+13 -9.20797e+12 -7.77486e+12 -1.0183e+13 -1.05293e+13 -6.51546e+12 -6.72526e+12 -6.18072e+12 -4.51221e+12 -7.94707e+12 -5.28606e+12 -6.99728e+12 -6.77689e+12 -1.02689e+13 -6.88576e+12 -6.25039e+12 -8.04386e+12 -6.29157e+12 -4.64521e+12 -5.36003e+12 -5.62635e+12 -6.77134e+12 -8.30058e+12 -8.82181e+12 -8.81503e+12 -7.86793e+12 -1.03784e+13 -1.44757e+13 -6.95276e+12 -4.77899e+12 -5.5981e+12 -7.63379e+12 -4.49493e+12 -7.01662e+12 -9.09496e+12 -7.19356e+12 -1.2992e+13 -4.53144e+12 -9.77574e+12 -9.66012e+12 -7.73844e+12 -1.0546e+13 -4.18492e+12 -5.16217e+12 -1.00157e+13 -7.4464e+12 -7.47427e+12 -9.91114e+12 -6.90063e+12 -5.45593e+12 -9.82466e+12 -1.01417e+13 -5.12154e+12 -7.387e+12 -5.43977e+12 -1.10961e+13 -7.8367e+12 -5.6919e+12 -8.74533e+12 -1.36546e+13 -7.3209e+12 -7.76969e+12 -6.88867e+12 -7.08454e+12 -1.07555e+13 -3.07033e+12 -7.9712e+12 -9.12841e+12 -1.28378e+13 -1.15082e+13 -1.32045e+13 -1.15482e+13 -5.69156e+12 -8.04877e+12 -7.00439e+12 -9.28353e+12 -1.47134e+13 -4.80534e+12 -6.8854e+12 -3.57746e+12 -8.14011e+12 -1.05205e+13 -6.98374e+12 -1.05542e+13 -8.24239e+12 -8.50357e+12 -1.3535e+13 -6.0008e+12 -6.46961e+12 -4.25027e+12 -4.91647e+12 -9.28498e+12 -5.83956e+12 -8.0692e+12 -5.23158e+12 -1.2278e+13 -7.45813e+12 -9.34267e+12 -6.08563e+12 -4.87376e+12 -9.08829e+12 -5.70084e+12 -1.0344e+13 -1.36783e+13 -7.54168e+12 -7.89205e+12 -7.62658e+12 -1.06614e+13 -6.86577e+12 -6.67844e+12 -1.15797e+13 -8.76085e+12 -8.31733e+12 -1.00652e+13 -8.52323e+12 -4.04848e+12 -1.22337e+13 -9.24981e+12 -7.11194e+12 -1.38407e+13 -1.17712e+13 -7.05152e+12 -8.19116e+12 -7.33967e+12 -7.28575e+12 -1.16693e+13 -4.17367e+12 -5.57812e+12 -5.27579e+12 -6.5582e+12 -8.15391e+12 -7.26121e+12 -6.1362e+12 -7.23797e+12 -7.75437e+12 -1.0405e+13 -9.83902e+12 -8.67623e+12 -8.66103e+12 -5.06665e+12 -9.12014e+12 -7.02719e+12 -4.09797e+12 -4.47326e+12 -9.80446e+12 -1.31633e+13 -8.1805e+12 -6.33966e+12 -9.41117e+12 -6.44289e+12 -1.16808e+13 -7.11208e+12 -5.70329e+12 -8.82855e+12 -8.47751e+12 -8.07069e+12 -9.60647e+12 -5.40129e+12 -1.02393e+13 -9.39777e+12 -8.98078e+12 -9.2857e+12 -8.74223e+12 -6.17396e+12 -1.5435e+13 -5.48333e+12 -1.038e+13 -1.31741e+13 -1.44589e+13 -1.14805e+13 -4.07095e+12 -3.85315e+12 -6.57393e+12 -8.5764e+12 -1.19628e+13 -5.48648e+12 -6.53983e+12 -9.55423e+12 -8.51548e+12 -8.39687e+12 -1.14784e+13 -1.04389e+13 -1.17484e+13 -5.75505e+12 -9.7631e+12 -4.96884e+12 -6.88958e+12 -6.47208e+12 -1.30222e+13 -1.15635e+13 -1.28763e+13 -1.25818e+13 -6.42472e+12 -9.9682e+12 -7.03296e+12 -6.80388e+12 -9.46377e+12 -8.16769e+12 -7.48289e+12 -9.23886e+12 -8.14689e+12 -7.94356e+12 -5.91984e+12 -1.17422e+13 -1.02559e+13 -7.2722e+12 -8.61571e+12 -3.72307e+12 -6.47137e+12 -7.51318e+12 -5.58342e+12 -8.32947e+12 -1.02765e+13 -5.43679e+12 -1.48712e+13 -5.06795e+12 -9.74444e+12 -5.98734e+12 -8.24059e+12 -1.1985e+13 -5.51604e+12 -5.29311e+12 -6.02737e+12 -6.8359e+12 -4.43552e+12 -7.19077e+12 -1.10146e+13 -7.30168e+12 -9.21072e+12 -7.0377e+12 -8.39835e+12 -6.57497e+12 -8.22094e+12 -9.74289e+12 -1.05669e+13 -7.38695e+12 -4.19701e+12 -9.37885e+12 -4.38506e+12 -1.11477e+13 -6.55609e+12 -5.59732e+12 -8.35336e+12 -1.08517e+13 -7.10462e+12 -9.51063e+12 -8.37542e+12 -2.97817e+12 -7.41526e+12 -5.27615e+12 -6.80552e+12 -5.29217e+12 -1.01701e+13 -5.13858e+12 -3.16163e+12 -5.40121e+12 -8.97129e+12 -8.74695e+12 -1.02398e+13 -1.20182e+13 -1.06516e+13 -6.67247e+12 -7.89696e+12 -7.19174e+12 -1.35406e+13 -8.7862e+12 -9.66322e+12 -9.04259e+12 -9.41589e+12 -9.29688e+12 -8.36028e+12 -1.05912e+13 -8.47823e+12 -1.22061e+13 -4.89133e+12 -8.93268e+12 -1.33317e+13 -1.02548e+13 -7.97807e+12 -7.76145e+12 -8.66483e+12 -9.94631e+12 -7.88186e+12 -8.33844e+12 -1.0417e+13 -5.46491e+12 -9.64099e+12 -5.38615e+12 -9.42116e+12 -9.31966e+12 -7.25612e+12 -1.16533e+13 -1.08364e+13 -1.10352e+13 -7.12299e+12 -1.2073e+13 -9.41107e+12 -9.63503e+12 -7.45487e+12 -5.91874e+12 -8.30021e+12 -1.28766e+13 -7.87294e+12 -6.32128e+12 -6.63897e+12 -1.05232e+13 -8.05006e+12 -2.80405e+12 -7.16973e+12 -7.09127e+12 -1.32822e+13 -3.60218e+12 -9.31604e+12 -4.16765e+12 -8.729e+12 -5.65341e+12 -1.10469e+13 -6.52064e+12 -5.71783e+12 -8.88181e+12 -7.97818e+12 -7.34612e+12 -6.06265e+12 -1.15158e+13 -1.00988e+13 -3.41053e+12 -9.5884e+12 -7.0374e+12 -6.10431e+12 -4.87273e+12 -5.16655e+12 -6.42142e+12 -6.17508e+12 -5.94392e+12 -1.23731e+13 -7.27096e+12 -7.26088e+12 -4.22442e+12 -6.07746e+12 -5.66866e+12 -6.52024e+12 -8.88639e+12 -8.00362e+12 -4.02159e+12 -5.12897e+12 -1.30957e+13 -7.33904e+12 -6.70333e+12 -5.49178e+12 -7.2385e+12 -7.39778e+12 -7.55301e+12 -4.12826e+12 -7.2259e+12 -8.65134e+12 -6.86861e+12 -7.05129e+12 -6.16948e+12 -4.67229e+12 -3.3992e+12 -9.50635e+12 -6.62384e+12 -7.63189e+12 -1.04337e+13 -4.37873e+12 -1.05033e+13 -7.44154e+12 -7.41568e+12 -5.70721e+12 -8.88134e+12 -1.33779e+13 -6.62419e+12 -5.97579e+12 -1.08496e+13 -1.11008e+13 -5.26048e+12 -9.30133e+12 -7.98397e+12 -4.17036e+12 -8.74302e+12 -7.35741e+12 -1.26101e+13 -7.00413e+12 -6.14337e+12 -2.95569e+12 -1.16037e+13 -8.74458e+12 -1.07647e+13 -1.044e+13 -1.14371e+13 -8.7835e+12 -7.41743e+12 -8.03125e+12 -8.18272e+12 -8.13044e+12 -5.43058e+12 -6.30289e+12 -8.04002e+12 -5.11697e+12 -8.20648e+12 -7.32547e+12 -3.88885e+12 -4.61265e+12 -8.1174e+12 -8.2496e+12 -9.21815e+12 -1.21216e+13 -6.26164e+12 -2.92387e+12 -1.37137e+13 -6.42866e+12 -8.25668e+12 -6.47871e+12 -4.8808e+12 -8.49309e+12 -5.20289e+12 -6.94768e+12 -8.87701e+12 -1.10707e+13 -8.26784e+12 -5.77475e+12 -9.95168e+12 -1.15831e+13 -1.1266e+13 -1.64002e+13 -1.2007e+13 -7.36806e+12 -1.01307e+13 -8.052e+12 -8.18955e+12 -6.49554e+12 -4.74589e+12 -1.08909e+13 -6.90154e+12 -8.71601e+12 -1.03888e+13 -7.38644e+12 -1.02327e+13 -8.00151e+12 -1.01118e+13 -6.13846e+12 -7.0874e+12 -1.29591e+13 -4.87086e+12 -7.70367e+12 -6.85301e+12 -8.24754e+12 -7.66365e+12 -7.56139e+12 -4.37556e+12 -5.15962e+12 -8.22875e+12 -1.10765e+13 -6.73886e+12 -6.5444e+12 -8.36491e+12 -5.84721e+12 -6.20321e+12 -7.57443e+12 -8.8365e+12 -6.97562e+12 -4.23278e+12 -6.84404e+12 -5.45187e+12 -8.0595e+12 -3.37848e+12 -7.39216e+12 -8.10968e+12 -6.8465e+12 -5.26114e+12 -5.73074e+12 -6.81823e+12 -7.81007e+12 -8.76263e+12 -8.59549e+12 -7.55763e+12 -1.33072e+13 -9.72431e+12 -4.94136e+12 -5.1345e+12 -5.9968e+12 -6.43523e+12 -1.58535e+13 -9.33353e+12 -3.27451e+12 -5.99349e+12 -5.06315e+12 -9.98714e+12 -1.12713e+13 -9.83721e+12 -8.11086e+12 -1.26639e+13 -6.81371e+12 -6.94007e+12 -5.81643e+12 -1.18231e+13 -4.29711e+12 -4.35784e+12 -1.44032e+13 -6.92376e+12 -1.32822e+13 -7.8109e+12 -7.87156e+12 -6.28509e+12 -1.10059e+13 -7.86377e+12 -5.30377e+12 -8.04341e+12 -1.32107e+13 -9.14357e+12 -7.42692e+12 -7.58056e+12 -9.92777e+12 -9.00374e+12 -8.78274e+12 -7.45238e+12 -9.17934e+12 -9.72526e+12 -3.09392e+12 -4.89035e+12 -6.07542e+12 -2.92391e+12 -8.13407e+12 -2.79695e+12 -6.30337e+12 -8.39339e+12 -8.5603e+12 -4.75972e+12 -9.36437e+12 -7.0359e+12 -6.92972e+12 -6.30177e+12 -1.05285e+13 -5.22689e+12 -8.54671e+12 -1.46517e+13 -1.06979e+13 -5.00104e+12 -1.01261e+13 -9.9822e+12 -8.28114e+12 -7.4811e+12 -9.44331e+12 -6.00526e+12 -5.81556e+12 -7.33285e+12 -5.59226e+12 -7.46881e+12 -5.84848e+12 -8.51026e+12 -7.84837e+12 -6.01861e+12 -6.87567e+12 -6.64915e+12 -3.42794e+12 -1.0451e+13 -6.67365e+12 -5.62192e+12 -5.72056e+12 -1.29847e+12 -6.51679e+12 -1.0835e+13 -4.58204e+12 -7.23553e+12 -2.33534e+12 -6.51421e+12 -4.59494e+12 -6.49187e+12 -8.14497e+12 -2.97669e+12 -5.62698e+12 -4.1863e+12 -8.60557e+12 -6.85652e+12 -4.41488e+12 -7.19141e+12 -7.10205e+12 -7.80638e+12 -5.7073e+12 -3.60193e+12 -6.86251e+12 -8.12617e+12 -7.30894e+12 -7.19022e+12 -5.32264e+12 -1.04004e+13 -8.60727e+12 -5.88233e+12 -1.01322e+13 -1.00184e+13 -6.87411e+12 -7.14194e+12 -4.51512e+12 -5.50726e+12 -8.09033e+12 -5.98087e+12 -4.23605e+12 -5.20174e+12 -8.32841e+12 -4.28093e+12 -7.29116e+12 -9.58671e+12 -7.79321e+12 -8.23808e+12 -7.99907e+12 -9.3898e+12 -5.2734e+12 -7.20079e+12 -4.58671e+12 -7.43497e+12 -7.44601e+12 -1.09529e+13 -6.12467e+12 -1.32919e+13 -7.48971e+12 -4.07678e+12 -6.82634e+12 -6.02799e+12 -3.01578e+12 -7.13774e+12 -8.4751e+12 -5.97792e+12 -7.09804e+12 -7.52151e+12 -7.13189e+12 -4.70475e+12 -5.51649e+12 -9.95239e+12 -9.14715e+12 -6.69709e+12 -9.86105e+12 -4.98482e+12 -7.01831e+12 -1.0003e+13 -7.63843e+12 -8.45724e+12 -5.57494e+12 -1.12074e+13 -6.09236e+12 -7.16708e+12 -4.03114e+12 -5.48856e+12 -5.8469e+12 -5.61473e+12 -5.21676e+12 -4.78933e+12 -5.97838e+12 -6.88397e+12 -7.11926e+12 -8.39756e+12 -8.0205e+12 -1.19809e+13 -4.55306e+12 -6.48187e+12 -8.62897e+12 -1.54961e+13 -6.85656e+12 -5.35371e+12 -1.10707e+13 -8.75275e+12 -8.27845e+12 -8.13055e+12 -5.63104e+12 -9.23888e+12 -6.89084e+12 -1.18204e+13 -7.61166e+12 -1.09834e+13 -8.2539e+12 -7.09546e+12 -1.13504e+13 -6.33413e+12 -1.00951e+13 -1.22732e+13 -4.59457e+12 -7.23637e+12 -6.99671e+12 -8.85688e+12 -6.20424e+12 -4.11388e+12 -5.62688e+12 -9.24538e+12 -8.24686e+12 -6.67563e+12 -6.94738e+12 -1.09653e+13 -6.45155e+12 -6.01951e+12 -6.5175e+12 -7.12671e+12 -4.57016e+12 -7.53735e+12 -7.46374e+12 -6.4799e+12 -5.17899e+12 -7.67373e+12 -4.35588e+12 -3.67536e+12 -3.7506e+12 -8.11199e+12 -6.02297e+12 -5.47127e+12 -7.3092e+12 -6.83309e+12 -5.85027e+12 -7.27502e+12 -7.84214e+12 -1.0407e+13 -6.06402e+12 -3.40759e+12 -5.38914e+12 -5.15279e+12 -4.68251e+12 -4.84526e+12 -7.58789e+12 -1.3042e+13 -6.04869e+12 -9.20213e+12 -1.11681e+13 -9.11577e+12 -5.04354e+12 -6.37884e+12 -6.70077e+12 -6.64874e+12 -1.28938e+13 -4.55302e+12 -7.22369e+12 -9.22646e+12 -1.40711e+13 -9.75877e+12 -6.51883e+12 -6.39857e+12 -1.07813e+13 -9.39465e+12 -1.38072e+13 -6.73002e+12 -4.70732e+12 -4.68151e+12 -6.31324e+12 -3.73105e+12 -4.51163e+12 -5.02744e+12 -1.10927e+13 -8.09752e+12 -6.84565e+12 -9.13221e+12 -9.2908e+12 -5.0181e+12 -7.99937e+12 -7.71517e+12 -1.41324e+13 -3.60025e+12 -6.39784e+12 -4.92134e+12 -9.96048e+12 -8.21686e+12 -9.4262e+12 -5.44155e+12 -8.53279e+12 -1.28538e+13 -7.81652e+12 -7.82215e+12 -6.09624e+12 -6.21716e+12 -6.3115e+12 -8.59587e+12 -6.11784e+12 -4.34029e+12 -5.89182e+12 -5.71881e+12 -5.90114e+12 -5.4954e+12 -7.53495e+12 -6.22659e+12 -4.78192e+12 -3.04943e+12 -1.07949e+13 -9.00262e+12 -7.52006e+12 -1.33451e+13 -1.95213e+13 -1.15424e+13 -7.50342e+12 -1.11056e+13 -8.68809e+12 -6.33761e+12 -5.47608e+12 -7.45917e+12 -5.72393e+12 -6.97103e+12 -4.87732e+12 -5.51494e+12 -6.36528e+12 -5.04179e+12 -2.36741e+12 -3.07043e+12 -2.38515e+12 -4.14866e+12 -5.25564e+12 -1.07325e+13 -5.87328e+12 -3.54351e+12 -4.53007e+12 -6.01022e+12 -8.86614e+12 -7.20314e+12 -6.47371e+12 -1.96071e+12 -4.95579e+12 -6.10274e+12 -4.57716e+12 -6.18292e+12 -6.82904e+12 -8.5099e+12 -1.03677e+13 -9.6584e+12 -6.08446e+12 -5.60266e+12 -1.03805e+13 -1.15883e+13 -7.96507e+12 -4.55824e+12 -8.02042e+12 -7.32977e+12 -7.11464e+12 -7.02642e+12 -6.8297e+12 -5.85279e+12 -8.72883e+12 -9.30444e+12 -5.29681e+12 -6.10393e+12 -3.06864e+12 -7.45957e+12 -5.04198e+12 -5.62638e+12 -6.66187e+12 -5.9377e+12 -8.21211e+12 -8.8615e+12 -7.34531e+12 -7.15067e+12 -5.1047e+12 -3.7895e+12 -7.07898e+12 -7.83355e+12 -8.16592e+12 -4.54966e+12 -4.3968e+12 -6.34838e+12 -7.54884e+12 -7.32419e+12 -6.83476e+12 -9.98011e+12 -6.98357e+12 -8.42664e+12 -8.20912e+12 -4.53884e+12 -5.38134e+12 -8.6178e+12 -3.80084e+12 -4.80165e+12 -4.99389e+12 -5.80509e+12 -6.30364e+12 -6.26157e+12 -8.8967e+12 -1.11869e+13 -8.57209e+12 -1.31696e+13 -8.26369e+12 -4.50403e+12 -9.23904e+12 -8.89239e+12 -1.37532e+13 -5.56331e+12 -1.18984e+13 -7.68838e+12 -3.78977e+12 -8.22127e+12 -6.90965e+12 -4.41926e+12 -6.04907e+12 -6.17757e+12 -8.04342e+12 -9.50789e+12 -8.46258e+12 -1.08671e+13 -7.5831e+12 -6.44688e+12 -5.46819e+12 -3.58557e+12 -9.49302e+12 -8.70905e+12 -5.60144e+12 -4.46597e+12 -5.49395e+12 -4.64844e+12 -7.43092e+12 -4.33336e+12 -8.38928e+12 -8.29281e+12 -4.69409e+12 -3.91345e+12 -6.19591e+12 -5.30955e+12 -3.67284e+12 -3.87437e+12 -7.96903e+12 -7.663e+12 -7.35941e+12 -5.67915e+12 -6.36137e+12 -3.76575e+12 -6.65913e+12 -7.29445e+12 -7.16492e+12 -8.50371e+12 -6.07816e+12 -7.11039e+12 -7.74443e+12 -5.53327e+12 -3.6199e+12 -6.30818e+12 -6.84966e+12 -7.56729e+12 -8.13971e+12 -5.38789e+12 -7.86528e+12 -9.51841e+12 -7.74103e+12 -4.6236e+12 -6.77633e+12 -1.07214e+13 -5.62133e+12 -4.24337e+12 -4.67052e+12 -4.26569e+12 -6.19236e+12 -9.43391e+12 -6.58172e+12 -8.0282e+12 -9.16736e+12 -5.31201e+12 -5.6311e+12 -6.61817e+12 -4.52639e+12 -7.74428e+12 -6.40081e+12 -7.20703e+12 -6.55573e+12 -4.29973e+12 -6.8213e+12 -4.29467e+12 -4.70016e+12 -6.59213e+12 -5.60137e+12 -3.71405e+12 -7.58965e+12 -7.57673e+12 -6.15176e+12 -5.35551e+12 -6.62176e+12 -6.41413e+12 -6.51007e+12 -4.45479e+12 -6.24623e+12 -4.60122e+12 -5.14833e+12 -6.13954e+12 -4.76221e+12 -8.56215e+12 -6.80818e+12 -6.83234e+12 -7.80949e+12 -6.5372e+12 -7.27218e+12 -6.40997e+12 -4.13314e+12 -8.25611e+12 -5.0398e+12 -1.01511e+13 -6.05814e+12 -1.05319e+13 -7.47861e+12 -5.59592e+12 -1.20783e+13 -8.09523e+12 -6.18251e+12 -5.21476e+12 -3.43844e+12 -3.89162e+12 -4.6846e+12 -7.16378e+12 -1.06904e+13 -5.57636e+12 -7.95695e+12 -5.85396e+12 -6.56176e+12 -9.59694e+12 -4.47173e+12 -6.48651e+12 -4.4043e+12 -6.59e+12 -7.48722e+12 -9.97023e+12 -4.73971e+12 -8.02198e+12 -8.05613e+12 -6.25659e+12 -4.20709e+12 -5.1603e+12 -6.42393e+12 -9.09848e+12 -8.56682e+12 -8.12153e+12 -6.25311e+12 -1.02068e+13 -6.71826e+12 -5.36761e+12 -4.85262e+12 -6.05899e+12 -5.04418e+12 -5.34741e+12 -8.91516e+12 -5.99769e+12 -1.086e+13 -6.86545e+12 -8.94224e+12 -1.17535e+13 -7.12117e+12 -5.96241e+12 -4.52129e+12 -5.0881e+12 -4.64933e+12 -4.94283e+12 -6.91155e+12 -9.64733e+12 -9.92585e+12 -8.06801e+12 -5.07438e+12 -6.85235e+12 -8.54349e+12 -7.17097e+12 -5.54795e+12 -8.14746e+12 -6.29914e+12 -6.58089e+12 -3.31417e+12 -5.35487e+12 -5.09762e+12 -4.30569e+12 -4.57782e+12 -7.38472e+12 -4.03062e+12 -5.62044e+12 -3.82401e+12 -3.29758e+12 -7.82637e+12 -1.03488e+13 -8.41138e+12 -5.98214e+12 -6.87516e+12 -8.91568e+12 -5.46083e+12 -1.07329e+13 -2.95021e+12 -6.58508e+12 -8.60905e+12 -3.00222e+12 -5.79252e+12 -6.6348e+12 -5.48441e+12 -5.97899e+12 -5.74264e+12 -8.11897e+12 -5.35008e+12 -3.76271e+12 -3.45907e+12 -5.48159e+12 -6.94685e+12 -6.90619e+12 -3.05989e+12 -5.29652e+12 -4.77662e+12 -7.57716e+12 -6.56093e+12 -9.14509e+12 -7.91729e+12 -5.33222e+12 -9.22551e+12 -3.61386e+12 -5.83696e+12 -8.1688e+12 -3.26884e+12 -6.75079e+12 -5.54727e+12 -3.43389e+12 -6.64653e+12 -5.84008e+12 -7.31034e+12 -5.03205e+12 -5.30952e+12 -8.22569e+12 -4.18679e+12 -6.7569e+12 -6.0046e+12 -4.83719e+12 -7.25998e+12 -6.35648e+12 -6.59098e+12 -4.89487e+12 -8.23356e+12 -5.62632e+12 -5.19041e+12 -3.83048e+12 -6.30598e+12 -7.01376e+12 -4.33297e+12 -9.53024e+12 -2.46806e+12 -1.08663e+13 -5.55211e+12 -3.54903e+12 -8.75637e+12 -2.57051e+12 -6.96606e+12 -6.69645e+12 -5.80877e+12 -6.40897e+12 -7.05935e+12 -1.03329e+13 -5.7136e+12 -7.43971e+12 -4.62305e+12 -3.94636e+12 -7.51627e+12 -6.48009e+12 -1.12164e+13 -6.60594e+12 -5.80602e+12 -4.2822e+12 -4.73395e+12 -4.87104e+12 -6.02743e+12 -5.87277e+12 -8.90842e+12 -6.15649e+12 -5.28329e+12 -5.80998e+12 -6.70093e+12 -9.51211e+12 -8.35205e+12 -6.39061e+12 -1.23916e+13 -1.00913e+13 -7.28039e+12 -7.82345e+12 -5.93144e+12 -5.78634e+12 -5.72169e+12 -6.47265e+12 -9.7456e+12 -5.66061e+12 -5.11284e+12 -8.31086e+12 -1.02119e+13 -8.14328e+12 -1.19541e+13 -7.13702e+12 -1.32822e+13 -6.04102e+12 -4.03598e+12 -4.56251e+12 -5.71539e+12 -4.33884e+12 -3.47483e+12 -5.51933e+12 -5.68827e+12 -3.44865e+12 -6.80134e+12 -7.53555e+12 -4.04298e+12 -4.49388e+12 -6.42574e+12 -7.30233e+12 -7.91562e+12 -4.40389e+12 -7.00167e+12 -6.7366e+12 -5.77352e+12 -8.33009e+12 -5.65321e+12 -7.14754e+12 -5.55534e+12 -1.00436e+13 -6.22521e+12 -7.51553e+12 -6.08471e+12 -6.75965e+12 -5.15811e+12 -8.62496e+12 -4.96245e+12 -1.17504e+13 -9.87626e+12 -5.8557e+12 -6.98614e+12 -8.61105e+12 -8.82661e+12 -5.82481e+12 -7.4583e+12 -9.55608e+12 -3.78736e+12 -3.16713e+12 -1.08041e+13 -5.09542e+12 -3.79173e+12 -6.85267e+12 -4.08505e+12 -3.88192e+12 -6.58412e+12 -5.86819e+12 -9.12599e+12 -4.91816e+12 -4.336e+12 -5.41596e+12 -9.41328e+12 -7.13226e+12 -4.78759e+12 -6.87116e+12 -7.47068e+12 -6.66129e+12 -3.88977e+12 -3.85534e+12 -6.02205e+12 -5.15256e+12 -8.42156e+12 -6.94967e+12 -4.28023e+12 -7.02907e+12 -4.45645e+12 -5.22164e+12 -5.42628e+12 -7.42302e+12 -1.08727e+13 -6.44153e+12 -4.49649e+12 -9.74123e+12 -6.92473e+12 -7.42924e+12 -6.00885e+12 -5.72533e+12 -4.59846e+12 -3.03745e+12 -4.52515e+12 -4.15503e+12 -6.39977e+12 -1.08939e+13 -6.63827e+12 -6.85897e+12 -1.0285e+13 -6.20658e+12 -8.68413e+12 -9.80213e+12 -7.51114e+12 -8.20398e+12 -5.89623e+12 -4.14594e+12 -6.32633e+12 -9.30719e+12 -7.09758e+12 -7.46416e+12 -8.0648e+12 -6.65719e+12 -6.50268e+12 -5.99577e+12 -6.22626e+12 -7.35388e+12 -8.5481e+12 -7.90219e+12 -6.68854e+12 -2.44913e+12 -6.35463e+12 -5.92842e+12 -8.40858e+12 -1.0634e+13 -4.31721e+12 -5.08751e+12 -1.11573e+13 -4.91267e+12 -6.08106e+12 -6.86612e+12 -6.12108e+12 -1.0634e+13 -7.54594e+12 -5.17611e+12 -8.12482e+12 -7.47239e+12 -5.36647e+12 -8.56116e+12 -4.52626e+12 -3.98005e+12 -5.32685e+12 -5.38079e+12 -5.48008e+12 -5.81084e+12 -4.5728e+12 -4.42319e+12 -3.75254e+12 -8.26116e+12 -7.04019e+12 -5.34946e+12 -6.62504e+12 -8.93166e+12 -6.16282e+12 -7.8832e+12 -7.3395e+12 -4.78338e+12 -5.43335e+12 -5.51233e+12 -5.51529e+12 -6.53192e+12 -5.77054e+12 -7.62917e+12 -8.12955e+12 -3.4573e+12 -1.00484e+13 -4.89906e+12 -6.09582e+12 -3.3387e+12 -5.67138e+12 -8.98348e+12 -1.17619e+13 -7.62567e+12 -5.58771e+12 -6.74934e+12 -6.73645e+12 -8.27159e+12 -5.58451e+12 -9.79841e+12 -8.50066e+12 -6.64558e+12 -7.88919e+12 -5.83189e+12 -7.85882e+12 -6.77183e+12 -9.64806e+12 -7.62409e+12 -3.51409e+12 -6.82844e+12 -3.35602e+12 -6.68405e+12 -3.78837e+12 -5.44188e+12 -2.85769e+12 -5.69711e+12 -6.731e+12 -7.14883e+12 -3.81658e+12 -4.123e+12 -5.27254e+12 -4.82658e+12 -4.63079e+12 -5.62685e+12 -5.58125e+12 -4.45655e+12 -5.92728e+12 -5.71216e+12 -4.41634e+12 -8.02881e+12 -9.01716e+12 -8.17787e+12 -2.80313e+12 -6.52403e+12 -4.56616e+12 -7.11697e+12 -6.03291e+12 -4.97974e+12 -7.92197e+12 -3.61422e+12 -5.19283e+12 -6.20235e+12 -4.56241e+12 -5.68145e+12 -8.16827e+12 -7.68275e+12 -5.75797e+12 -4.31106e+12 -1.0572e+13 -7.98604e+12 -1.02571e+13 -6.95594e+12 -8.42602e+12 -5.31698e+12 -7.49211e+12 -6.50438e+12 -8.60977e+12 -8.70341e+12 -2.72931e+12 -7.36662e+12 -4.00942e+12 -5.44845e+12 -4.92578e+12 -8.04534e+12 -7.92659e+12 -4.80547e+12 -4.61484e+12 -4.94739e+12 -4.97349e+12 -6.48565e+12 -9.16774e+12 -5.5956e+12 -6.81706e+12 -7.56849e+12 -5.33883e+12 -4.27233e+12 -6.66585e+12 -9.07518e+12 -1.58797e+13 -1.11102e+13 -8.48604e+12 -6.78152e+12 -9.50218e+12 -1.04397e+13 -5.38432e+12 -5.81377e+12 -6.36803e+12 -8.40096e+12 -5.26716e+12 -2.71084e+12 -3.31862e+12 -5.52762e+12 -2.59116e+12 -3.64662e+12 -7.88124e+12 -7.17625e+12 -6.28437e+12 -7.04425e+12 -9.10746e+12 -9.78488e+12 -7.38986e+12 -5.7682e+12 -7.49371e+12 -5.11985e+12 -5.14913e+12 -6.16034e+12 -5.22324e+12 -4.64509e+12 -5.83161e+12 -8.35536e+12 -6.04035e+12 -4.56666e+12 -4.7749e+12 -2.87319e+12 -8.72981e+12 -4.78793e+12 -3.93407e+12 -2.58044e+12 -3.07394e+12 -4.35517e+12 -7.16248e+12 -7.75137e+12 -5.27957e+12 -1.1893e+13 -7.58305e+12 -5.19744e+12 -7.67854e+12 -7.77749e+12 -5.39601e+12 -6.45383e+12 -5.77453e+12 -6.53028e+12 -6.91537e+12 -7.55424e+12 -2.49356e+12 -2.65537e+12 -8.28486e+12 -9.63649e+12 -4.93567e+12 -5.31606e+12 -4.33615e+12 -5.36131e+12 -4.43701e+12 -4.02356e+12 -8.85728e+12 -5.18267e+12 -3.40591e+12 -5.87687e+12 -3.51011e+12 -8.42859e+12 -4.74785e+12 -4.89092e+12 -3.8245e+12 -4.56027e+12 -4.17274e+12 -4.27076e+12 -6.16748e+12 -4.39491e+12 -6.71219e+12 -4.25813e+12 -2.40383e+12 -3.79171e+12 -3.37764e+12 -5.04418e+12 -6.26092e+12 -4.7293e+12 -4.64105e+12 -2.83464e+12 -4.89967e+12 -5.34954e+12 -1.52702e+12 -5.98999e+12 -8.6003e+12 -4.59512e+12 -3.37081e+12 -4.8024e+12 -3.6478e+12 -8.13015e+12 -2.69788e+12 -6.17161e+12 -5.29388e+12 -5.02897e+12 -4.33846e+12 -3.44734e+12 -5.1779e+12 -4.36864e+12 -7.6794e+12 -5.52283e+12 -7.53805e+12 -5.5761e+12 -4.58217e+12 -6.66028e+12 -8.33909e+12 -5.62035e+12 -4.91215e+12 -9.26777e+12 -5.82318e+12 -5.85247e+12 -6.42653e+12 -4.64964e+12 -5.80552e+12 -6.64001e+12 -8.91502e+12 -7.01521e+12 -6.66468e+12 -8.02274e+12 -6.88861e+12 -6.7354e+12 -6.22178e+12 -6.05814e+12 -9.70719e+12 -5.76141e+12 -8.15153e+12 -5.68513e+12 -6.30709e+12 -5.45299e+12 -4.26394e+12 -1.18126e+13 -3.67811e+12 -5.46772e+12 -7.3219e+12 -5.58702e+12 -7.64371e+12 -7.54401e+12 -7.44487e+12 -4.74425e+12 -5.91199e+12 -1.19491e+13 -5.81601e+12 -8.0259e+12 -4.33147e+12 -5.31161e+12 -7.30704e+12 -5.48186e+12 -6.31485e+12 -5.42328e+12 -5.90164e+12 -5.09938e+12 -8.55781e+12 -1.02278e+13 -9.01929e+12 -4.25431e+12 -7.33523e+12 -5.05292e+12 -4.77959e+12 -5.20606e+12 -7.67102e+12 -6.76443e+12 -6.2407e+12 -4.00274e+12 -6.82399e+12 -3.79296e+12 -1.04225e+13 -5.46283e+12 -6.16268e+12 -4.99474e+12 -6.43458e+12 -8.20914e+12 -4.50316e+12 -6.87229e+12 -6.03844e+12 -6.04062e+12 -4.14589e+12 -7.38679e+12 -6.64456e+12 -5.7594e+12 -5.88089e+12 -4.05148e+12 -6.34963e+12 -8.72107e+12 -5.76328e+12 -5.35259e+12 -5.35587e+12 -4.6096e+12 -6.76139e+12 -5.17168e+12 -6.86804e+12 -3.41509e+12 -5.15893e+12 -5.62954e+12 -4.56161e+12 -5.19887e+12 -3.19949e+12 -4.23839e+12 -2.75734e+12 -5.18132e+12 -3.39595e+12 -6.26469e+12 -2.73909e+12 -2.79645e+12 -3.42383e+12 -3.27164e+12 -7.20361e+12 -4.18727e+12 -6.11862e+12 -4.12567e+12 -3.88102e+12 -4.69477e+12 -4.14384e+12 -6.05329e+12 -4.21218e+12 -3.57138e+12 -5.44947e+12 -3.69033e+12 -4.5361e+12 -3.18985e+12 -4.03087e+12 -3.78626e+12 -7.77259e+12 -6.26012e+12 -6.76833e+12 -6.34623e+12 -4.47051e+12 -3.56517e+12 -3.30445e+12 -4.76291e+12 -7.8155e+12 -4.96939e+12 -5.90442e+12 -2.62108e+12 -3.9953e+12 -3.86009e+12 -6.82359e+12 -6.81216e+12 -7.37729e+12 -4.11873e+12 -1.00175e+13 -5.56801e+12 -6.4471e+12 -3.68335e+12 -7.77779e+12 -9.82001e+12 -7.70532e+12 -4.50177e+12 -7.88226e+12 -6.69831e+12 -5.98678e+12 -7.0921e+12 -7.98009e+12 -7.67589e+12 -7.21772e+12 -978976000000.0 -9.65274e+12 -7.97242e+12 -7.46089e+12 -5.84157e+12 -7.66091e+12 -5.28915e+12 -7.54516e+12 -5.54768e+12 -6.87128e+12 -5.27271e+12 -7.61105e+12 -6.42696e+12 -6.76891e+12 -8.2998e+12 -9.114e+12 -5.0267e+12 -6.09167e+12 -4.54509e+12 -3.76148e+12 -2.79407e+12 -3.11628e+12 -4.27311e+12 -6.581e+12 -4.25973e+12 -9.42657e+12 -5.45468e+12 -8.44959e+12 -6.44597e+12 -9.43713e+12 -6.79419e+12 -2.93732e+12 -4.40871e+12 -7.72549e+12 -4.35281e+12 -5.36979e+12 -5.6184e+12 -6.19647e+12 -4.30867e+12 -6.5793e+12 -5.07395e+12 -5.23471e+12 -4.69498e+12 -7.60405e+12 -5.34119e+12 -6.27189e+12 -8.23578e+12 -7.89773e+12 -5.16179e+12 -8.11784e+12 -4.4749e+12 -7.42068e+12 -5.42633e+12 -7.16916e+12 -7.22679e+12 -5.30886e+12 -8.08599e+12 -5.59561e+12 -4.0929e+12 -4.45997e+12 -1.87358e+12 -4.04514e+12 -4.99923e+12 -2.96578e+12 -7.93641e+12 -6.10935e+12 -6.96987e+12 -6.58219e+12 -3.27296e+12 -5.44909e+12 -6.18199e+12 -7.41632e+12 -2.0844e+12 -6.35579e+12 -3.74338e+12 -4.91305e+12 -6.27953e+12 -6.12929e+12 -2.2025e+12 -3.88625e+12 -5.02227e+12 -2.98003e+12 -4.37228e+12 -5.15353e+12 -4.90585e+12 -3.756e+12 -2.86066e+12 -8.43738e+12 -4.95827e+12 -4.12156e+12 -4.90635e+12 -3.97822e+12 -4.92105e+12 -2.85827e+12 -4.4417e+12 -4.99392e+12 -3.86635e+12 -4.58166e+12 -2.78102e+12 -3.38829e+12 -6.33239e+12 -4.11753e+12 -5.2723e+12 -4.02667e+12 -4.2101e+12 -4.79175e+12 -5.43263e+12 -4.99511e+12 -4.51501e+12 -5.23681e+12 -2.82899e+12 -3.7264e+12 -3.18478e+12 -5.88508e+12 -8.69018e+12 -3.70402e+12 -3.49836e+12 -3.24943e+12 -3.67179e+12 -2.48745e+12 -2.09778e+12 -8.40894e+12 -7.71274e+12 -3.36227e+12 -4.50615e+12 -7.1577e+12 -4.18785e+12 -7.92259e+12 -6.05767e+12 -5.58162e+12 -6.34081e+12 -5.84624e+12 -5.63479e+12 -7.17251e+12 -4.21781e+12 -7.83684e+12 -7.20026e+12 -3.14026e+12 -3.28127e+12 -5.99111e+12 -4.9838e+12 -8.36058e+12 -5.21886e+12 -6.21762e+12 -7.27525e+12 -4.67492e+12 -5.98019e+12 -9.73178e+12 -1.10581e+13 -5.82876e+12 -2.48123e+12 -4.12046e+12 -6.39339e+12 -5.48382e+12 -1.94067e+12 -3.81012e+12 -2.77593e+12 -3.30994e+12 -9.93106e+12 -3.4102e+12 -3.59127e+12 -4.31633e+12 -5.3146e+12 -4.65277e+12 -4.50144e+12 -7.75833e+12 -3.54573e+12 -7.1109e+12 -4.00758e+12 -5.0052e+12 -4.55501e+12 -4.72407e+12 -5.6134e+12 -5.81935e+12 -5.48612e+12 -5.25057e+12 -4.90306e+12 -4.40697e+12 -2.1427e+12 -6.50241e+12 -4.66944e+12 -9.74102e+12 -5.56963e+12 -4.10029e+12 -5.62513e+12 -6.04615e+12 -5.60671e+12 -5.97851e+12 -6.15246e+12 -4.68959e+12 -3.71749e+12 -7.93674e+12 -5.52205e+12 -7.79517e+12 -6.51368e+12 -7.93466e+12 -4.38046e+12 -2.81023e+12 -6.25192e+12 -4.89411e+12 -6.43989e+12 -4.29896e+12 -5.80969e+12 -3.65417e+12 -5.2702e+12 -6.75053e+12 -2.93526e+12 -6.7382e+12 -5.52058e+12 -2.44042e+12 -2.52305e+12 -4.81489e+12 -4.87607e+12 -4.93268e+12 -3.30632e+12 -7.2493e+12 -3.55911e+12 -4.05795e+12 -4.23066e+12 -3.89313e+12 -4.07114e+12 -5.90647e+12 -2.25722e+12 -4.521e+12 -4.79523e+12 -2.14025e+12 -4.79694e+12 -2.47179e+12 -3.49973e+12 -5.27514e+12 -3.57091e+12 -4.64283e+12 -3.19809e+12 -3.88957e+12 -5.43201e+12 -1.94273e+12 -4.30111e+12 -3.1102e+12 -2.55411e+12 -4.24648e+12 -3.78143e+12 -4.49514e+12 -3.61959e+12 -4.37051e+12 -4.17101e+12 -4.33133e+12 -5.22352e+12 -3.06486e+12 -5.61801e+12 -3.63519e+12 -6.61537e+12 -8.33721e+12 -8.10261e+12 -2.61117e+12 -4.29145e+12 -5.31318e+12 -4.28234e+12 -4.19128e+12 -5.9546e+12 -6.03757e+12 -5.83492e+12 -6.31018e+12 -5.04735e+12 -4.61002e+12 -4.94523e+12 -4.44457e+12 -5.20828e+12 -6.93196e+12 -5.90106e+12 -4.69323e+12 -8.59898e+12 -7.44333e+12 -3.42454e+12 -7.48644e+12 -4.978e+12 -3.79464e+12 -4.9294e+12 -5.89653e+12 -4.85076e+12 -6.29059e+12 -5.23962e+12 -5.26436e+12 -2.62004e+12 -8.6825e+12 -4.86307e+12 -8.0519e+12 -5.13e+12 -5.66719e+12 -4.61993e+12 -2.76718e+12 -2.72998e+12 -1.5369e+12 -6.17911e+12 -4.67234e+12 -2.66911e+12 -5.57095e+12 -5.24533e+12 -6.29085e+12 -4.0463e+12 -4.40018e+12 -5.56729e+12 -5.7431e+12 -4.44179e+12 -4.37695e+12 -3.09688e+12 -4.47271e+12 -5.67729e+12 -3.4715e+12 -3.79274e+12 -1.90514e+12 -4.77876e+12 -3.8525e+12 -3.79926e+12 -4.40143e+12 -6.50133e+12 -5.54934e+12 -5.30155e+12 -5.61787e+12 -2.86568e+12 -4.37765e+12 -4.56615e+12 -3.74482e+12 -5.89016e+12 -4.34409e+12 -2.57535e+12 -4.47321e+12 -6.25948e+12 -5.19062e+12 -6.54657e+12 -3.40464e+12 -5.64586e+12 -4.22002e+12 -6.11943e+12 -7.28966e+12 -5.47755e+12 -4.00164e+12 -4.10276e+12 -3.77739e+12 -5.34697e+12 -4.56322e+12 -2.9981e+12 -4.11237e+12 -3.67736e+12 -5.15256e+12 -3.19691e+12 -2.28275e+12 -5.40154e+12 -3.97488e+12 -3.25424e+12 -2.72471e+12 -3.22227e+12 -1.22446e+12 -2.52229e+12 -3.37507e+12 -2.19254e+12 -3.56006e+12 -4.4081e+12 -4.65328e+12 -2.0105e+12 -3.09526e+12 -3.27884e+12 -2.69077e+12 -3.42473e+12 -5.57517e+12 -5.52869e+12 -3.21406e+12 -3.50769e+12 -2.94828e+12 -3.18076e+12 -5.48665e+12 -4.49512e+12 -3.45805e+12 -3.02386e+12 -4.53272e+12 -3.96321e+12 -5.90892e+12 -4.56296e+12 -6.3056e+12 -2.43839e+12 -3.94287e+12 -2.96879e+12 -5.14728e+12 -4.91677e+12 -4.48991e+12 -3.58226e+12 -2.30038e+12 -3.77152e+12 -4.99242e+12 -3.1265e+12 -2.92784e+12 -3.84643e+12 -3.37895e+12 -5.14067e+12 -4.32583e+12 -6.15459e+12 -6.70327e+12 -7.14297e+12 -4.7804e+12 -5.6005e+12 -5.49766e+12 -2.4685e+12 -1.30047e+12 -4.80639e+12 -4.85218e+12 -3.37345e+12 -3.01751e+12 -3.9134e+12 -5.34968e+12 -5.34007e+12 -8.1462e+12 -4.67902e+12 -5.71576e+12 -5.70181e+12 -3.11469e+12 -3.41007e+12 -3.76036e+12 -3.86287e+12 -4.66412e+12 -7.59132e+12 -4.66875e+12 -4.83376e+12 -3.87694e+12 -5.73375e+12 -6.70487e+12 -4.09631e+12 -4.31232e+12 -4.36728e+12 -2.15973e+12 -2.93845e+12 -8.01114e+12 -3.21321e+12 -3.36771e+12 -5.30818e+12 -4.63366e+12 -5.4192e+12 -7.46492e+12 -6.22411e+12 -4.55904e+12 -4.05082e+12 -4.13476e+12 -7.34678e+12 -3.76501e+12 -4.78468e+12 -3.865e+12 -2.80198e+12 -5.43245e+12 -3.87263e+12 -5.25939e+12 -4.02191e+12 -1.76577e+12 -4.01477e+12 -3.93191e+12 -6.45497e+12 -5.15315e+12 -4.4364e+12 -2.09905e+12 -5.63234e+12 -4.99174e+12 -3.47489e+12 -3.39918e+12 -4.41977e+12 -1.821e+12 -4.01631e+12 -6.58926e+12 -5.12102e+12 -3.97345e+12 -5.63973e+12 -1.44759e+12 -3.35457e+12 -3.51394e+12 -6.918e+12 -6.51511e+12 -3.20586e+12 -1.86438e+12 -6.74855e+12 -3.27599e+12 -1.86525e+12 -2.90386e+12 -1.91376e+12 -2.75314e+12 -4.10091e+12 -1.87458e+12 -3.40098e+12 -2.75951e+12 -1.99955e+12 -2.56038e+12 -5.21745e+12 -2.89196e+12 -3.43214e+12 -1.74495e+12 -1.61524e+12 -2.47192e+12 -4.90315e+12 -1.41556e+12 -1.21319e+12 -2.76136e+12 -3.36717e+12 -645701000000.0 -2.8498e+12 -3.4042e+12 -3.53616e+12 -1.90097e+12 -2.82459e+12 -3.19859e+12 -3.08036e+12 -2.13763e+12 -2.87303e+12 -3.53847e+12 -4.71576e+12 -6.57879e+12 -3.52919e+12 -2.89662e+12 -2.96926e+12 -5.21648e+12 -3.95109e+12 -4.06976e+12 -5.31429e+12 -1.13489e+12 -4.43956e+12 -5.6969e+12 -5.82527e+12 -2.9338e+12 -3.89116e+12 -3.47006e+12 -2.1424e+12 -3.37349e+12 -4.35347e+12 -2.8637e+12 -4.61703e+12 -3.8579e+12 -1.55759e+12 -2.60184e+12 -4.80043e+12 -2.63493e+12 -5.85543e+12 -5.91563e+12 -2.42603e+12 -2.94931e+12 -3.49877e+12 -2.52723e+12 -2.97033e+12 -4.44232e+12 -4.6633e+12 -5.03629e+12 -5.60021e+12 -5.31561e+12 -4.72083e+12 -5.01156e+12 -3.7301e+12 -3.42634e+12 -5.61736e+12 -5.3953e+12 -5.18146e+12 -5.07718e+12 -7.38211e+12 -7.89856e+12 -6.02806e+12 -4.01719e+12 -5.99121e+12 -3.75805e+12 -4.91198e+12 -3.94675e+12 -6.95955e+12 -3.90798e+12 -7.47894e+12 -3.85651e+12 -5.61551e+12 -1.61263e+12 -2.45454e+12 -2.09284e+12 -6.25913e+12 -3.9825e+12 -5.7486e+12 -2.59261e+12 -5.76291e+12 -4.51553e+12 -6.74841e+12 -5.50233e+12 -3.63055e+12 -5.97322e+12 -7.97182e+12 -4.994e+12 -4.13695e+12 -3.70464e+12 -3.30294e+12 -5.11366e+12 -4.99563e+12 -5.02267e+12 -3.14692e+12 -1.42369e+12 -4.61465e+12 -4.73312e+12 -3.10664e+12 -4.05118e+12 -3.23075e+12 -3.40476e+12 -4.19891e+12 -4.07989e+12 -4.28597e+12 -3.48786e+12 -4.64234e+12 -3.61537e+12 -4.56685e+12 -4.04933e+12 -4.26855e+12 -4.13439e+12 -3.58182e+12 -4.37431e+12 -3.79553e+12 -2.46551e+12 -2.69904e+12 -3.32592e+12 -2.3493e+12 -4.29232e+12 -2.55473e+12 -2.94706e+12 -1.4646e+12 -2.59837e+12 -2.56938e+12 -2.91175e+12 -1.50955e+12 -3.07305e+12 -2.67161e+12 -1.54666e+12 -4.45663e+12 -2.61689e+12 -1.04489e+12 -3.00807e+12 -710164000000.0 -1.97499e+12 -2.18025e+12 -1.44734e+12 -2.90678e+12 -1.88912e+12 -873564000000.0 -1.94377e+12 -1.81826e+12 -2.43128e+12 -2.21027e+12 -1.64368e+12 -1.89122e+12 -2.06758e+12 -1.8124e+12 -3.09256e+12 -2.13918e+12 -2.97509e+12 -2.36528e+12 -5.00909e+12 -1.36325e+12 -3.13695e+12 -1.04058e+12 -1.95502e+12 -3.19109e+12 -3.44663e+12 -2.33353e+12 -3.57982e+12 -2.64755e+12 -3.0504e+12 -3.66174e+12 -2.53041e+12 -5.60472e+12 -3.72548e+12 -4.06714e+12 -1.8083e+12 -2.72902e+12 -1.86438e+12 -2.53371e+12 -3.0977e+12 -2.18267e+12 -1.97086e+12 -3.65761e+12 -2.2842e+12 -3.33187e+12 -4.12214e+12 -5.16733e+12 -4.77042e+12 -1.50409e+12 -2.7934e+12 -5.00829e+12 -4.22748e+12 -4.86613e+12 -4.54641e+12 -3.96223e+12 -3.33593e+12 -5.73125e+12 -5.95639e+12 -6.0479e+12 -5.29926e+12 -7.09493e+12 -3.46069e+12 -2.79523e+12 -4.39039e+12 -2.66032e+12 -5.26551e+12 -3.80068e+12 -4.40203e+12 -5.83609e+12 -4.72336e+12 -3.42274e+12 -5.28826e+12 -6.07184e+12 -5.33e+12 -5.64494e+12 -3.44596e+12 -3.42746e+12 -3.63897e+12 -4.00743e+12 -4.94852e+12 -2.11798e+12 -3.78748e+12 -2.77803e+12 -4.54033e+12 -5.06537e+12 -3.64884e+12 -4.50694e+12 -2.99631e+12 -3.31929e+12 -4.65485e+12 -5.28228e+12 -5.23641e+12 -4.10918e+12 -4.39906e+12 -4.69489e+12 -3.00699e+12 -3.26502e+12 -3.22795e+12 -3.82767e+12 -2.45292e+12 -3.97493e+12 -8.29701e+12 -4.18612e+12 -5.04327e+12 -4.32643e+12 -2.99295e+12 -4.1194e+12 -3.18738e+12 -2.10686e+12 -2.94562e+12 -3.98676e+12 -3.00518e+12 -4.59222e+12 -3.02161e+12 -2.59139e+12 -2.79094e+12 -3.08847e+12 -1.88958e+12 -2.75019e+12 -2.6541e+12 -1.92696e+12 -3.57994e+12 -3.47315e+12 -2.30199e+12 -2.75355e+12 -1.84883e+12 -1.85261e+12 -1.91194e+12 -2.33069e+12 -2.3161e+12 -3.20844e+12 -2.27498e+12 -1.807e+12 -1.58384e+12 -3.45636e+12 -2.09003e+12 -1.61956e+12 -1.62022e+12 -1.9893e+12 -2.69108e+12 -1.43764e+12 -579786000000.0 -1.76037e+12 -2.42584e+12 -1.00577e+12 -927890000000.0 -1.07117e+12 -1.00101e+12 -2.86649e+12 -914231000000.0 -1.14669e+12 -905195000000.0 -2.09992e+12 -1.27203e+12 -2.06827e+12 -3.13167e+12 -2.04926e+12 -3.63461e+12 -3.14639e+12 -1.86194e+12 -2.22104e+12 -3.34562e+12 -1.57777e+12 -2.31495e+12 -4.02928e+12 -3.39791e+12 -2.35452e+12 -2.46803e+12 -2.41085e+12 -2.57159e+12 -2.22551e+12 -3.53449e+12 -4.12444e+12 -3.41393e+12 -429754000000.0 -1.77465e+12 -4.36651e+12 -3.01008e+12 -1.87985e+12 -2.14216e+12 -3.64101e+12 -3.52027e+12 -1.6551e+12 -2.52647e+12 -5.2905e+12 -2.04112e+12 -3.95362e+12 -4.97049e+12 -4.77283e+12 -4.47378e+12 -2.32379e+12 -3.06356e+12 -3.5564e+12 -3.01405e+12 -3.00111e+12 -3.24064e+12 -4.14938e+12 -3.07394e+12 -2.73925e+12 -4.70868e+12 -3.12663e+12 -3.65748e+12 -4.55369e+12 -7.12202e+12 -3.2981e+12 -5.29505e+12 -3.99558e+12 -5.93455e+12 -3.06636e+12 -3.14325e+12 -2.665e+12 -3.72619e+12 -3.60975e+12 -4.83291e+12 -3.50111e+12 -2.76927e+12 -4.00627e+12 -8.3609e+12 -2.88959e+12 -6.87985e+12 -3.49361e+12 -5.02037e+12 -4.08152e+12 -3.16316e+12 -6.03458e+12 -6.36609e+12 -3.38862e+12 -1.04814e+12 -3.77581e+12 -3.94009e+12 -2.10682e+12 -2.72459e+12 -3.41392e+12 -2.13613e+12 -2.03352e+12 -4.33494e+12 -1.75453e+12 -2.79072e+12 -2.15037e+12 -2.21518e+12 -2.34116e+12 -1.51018e+12 -2.76437e+12 -3.89207e+12 -2.67563e+12 -863834000000.0 -2.03538e+12 -2.37066e+12 -4.95314e+12 -211558000000.0 -1.52018e+12 -1.80712e+12 -2.7664e+12 -1.92355e+12 -2.55716e+12 -438651000000.0 -2.50676e+12 -1.29297e+12 -468231000000.0 -910062000000.0 -2.07195e+12 -1.0274e+12 -792485000000.0 -1.89004e+12 -579201000000.0 -761554000000.0 -1.89853e+12 -1.00791e+12 -2.0373e+12 -167236000000.0 -955627000000.0 -571193000000.0 -1.68639e+12 -1.11882e+12 -1.14926e+12 -1.35163e+12 -979339000000.0 -1.2047e+12 -2.57341e+12 -856793000000.0 -1.91691e+12 -2.7099e+12 -958160000000.0 -1.92919e+12 -1.82716e+12 -1.35429e+12 -1.10709e+12 -1.32289e+12 -1.88572e+12 -1.48821e+12 -3.33562e+12 -2.66892e+12 -1.73362e+12 -2.11911e+12 -2.90372e+12 -4.14523e+12 -4.91103e+12 -3.06301e+12 -1.18391e+12 -3.55226e+12 -4.4193e+12 -3.20209e+12 -3.12142e+12 -2.39268e+12 -5.04363e+12 -1.88742e+12 -1.53885e+12 -3.89869e+12 -3.17934e+12 -1.60017e+12 -3.57546e+12 -4.38678e+12 -4.12437e+12 -3.23144e+12 -2.66072e+12 -1.81377e+12 -3.45386e+12 -3.38322e+12 -4.86918e+12 -6.26091e+12 -6.00978e+12 -3.27505e+12 -3.96686e+12 -2.80774e+12 -5.95348e+12 -1.91961e+12 -4.47029e+12 -2.32144e+12 -3.35301e+12 -5.23994e+12 -4.25119e+12 -4.03439e+12 -2.12541e+12 -1.38353e+12 -2.01241e+12 -3.32566e+12 -2.4094e+12 -3.90995e+12 -4.44104e+12 -2.66368e+12 -1.51802e+12 -2.56975e+12 -2.42795e+12 -1.20951e+12 -3.67452e+12 -2.29736e+12 -3.09885e+12 -4.18197e+12 -3.11196e+12 -3.46221e+12 -1.64126e+12 -2.92937e+12 -2.36009e+12 -1.90118e+12 -2.3039e+12 -2.2709e+12 -1.5532e+12 -3.22955e+12 -2.50055e+12 -2.69617e+12 -1.6082e+12 -1.74692e+12 -3.19707e+12 -3.20081e+12 -1.82926e+12 -1.17314e+12 -2.07999e+12 -2.0762e+12 -1.78714e+12 -1.56343e+12 -1.9246e+12 -2.66077e+12 -3.16289e+12 -1.37677e+12 -1.12794e+12 -1.61443e+12 -808822000000.0 -537379000000.0 -1.24476e+12 -1.58118e+12 -1.33008e+12 -1.25805e+12 -504547000000.0 -585248000000.0 -593510000000.0 -1.12471e+12 -518494000000.0 -226244000000.0 -234505000000.0 -206061000000.0 -376287000000.0 -984072000000.0 -796960000000.0 -1.12687e+12 -1.02347e+12 -584586000000.0 -660012000000.0 -1.23701e+12 -1.35702e+12 -1.08518e+12 -921385000000.0 -781872000000.0 -1.2109e+12 -400867000000.0 -1.15169e+12 -2.25945e+12 -1.30712e+12 -1.53727e+12 -2.79757e+12 -3.56688e+12 -1.66764e+12 -2.35041e+12 -1.21591e+12 -1.9069e+12 -1.97174e+12 -1.87925e+12 -1.81835e+12 -1.52326e+12 -1.54954e+12 -3.70184e+12 -3.44932e+12 -3.64103e+12 -2.06859e+12 -2.44814e+12 -1.84958e+12 -3.45696e+12 -1.47393e+12 -2.8736e+12 -3.82004e+12 -2.82085e+12 -4.44136e+12 -2.70002e+12 -2.77057e+12 -1.29714e+12 -2.56193e+12 -2.9215e+12 -3.29698e+12 -2.26886e+12 -3.20326e+12 -1.81847e+12 -4.1561e+12 -3.53716e+12 -3.33571e+12 -2.63129e+12 -2.21985e+12 -2.72061e+12 -2.81306e+12 -1.83392e+12 -4.2909e+12 -3.18542e+12 -2.40628e+12 -1.76416e+12 -2.21922e+12 -1.33094e+12 -1.00172e+12 -4.09091e+12 -1.05026e+12 -2.61728e+12 -1.78586e+12 -1.67712e+12 -3.25749e+12 -2.25364e+12 -1.74191e+12 -3.17349e+12 -1.01941e+12 -2.90529e+12 -3.40172e+12 -3.51212e+12 -1.07896e+12 -2.84566e+12 -2.22343e+12 -2.42471e+12 -1.50196e+12 -1.47414e+12 -1.12606e+12 -4.55307e+12 -1.2043e+12 -1.98938e+12 -497173000000.0 -1.28495e+12 -1.48107e+12 -1.85102e+12 -1.45274e+12 -1.67194e+12 -604312000000.0 -2.04721e+12 -1.22326e+12 -643371000000.0 -631949000000.0 -679429000000.0 -1.08841e+12 -272926000000.0 -752791000000.0 -1.01007e+12 -245559000000.0 -214059000000.0 -364114000000.0 -278144000000.0 -249646000000.0 -374565000000.0 -224883000000.0 -216626000000.0 -150253000000.0 -229534000000.0 -474857000000.0 -182663000000.0 -359478000000.0 -203932000000.0 -885356000000.0 -110075000000.0 -448709000000.0 -748655000000.0 -392236000000.0 -1.44487e+12 -1.20433e+12 -1.04035e+12 -1.92886e+12 -1.44695e+12 -1.92765e+12 -1.78984e+12 -1.46162e+12 -1.50023e+12 -2.72216e+12 -2.74618e+12 -837514000000.0 -1.91955e+12 -1.87422e+12 -2.09427e+12 -1.15077e+12 -1.5486e+12 -2.40829e+12 -3.23981e+12 -3.80806e+12 -2.00372e+12 -2.55125e+12 -1.22331e+12 -2.5414e+12 -2.26173e+12 -2.4003e+12 -1.67751e+12 -1.562e+12 -2.73779e+12 -3.34833e+12 -3.46572e+12 -2.4392e+12 -1.91391e+12 -1.86404e+12 -1.60069e+12 -3.02704e+12 -2.14998e+12 -1.52134e+12 -1.65906e+12 -1.26243e+12 -1.51442e+12 -972974000000.0 -1.9217e+12 -1.31957e+12 -2.11843e+12 -1.26724e+12 -1.98904e+12 -1.18666e+12 -998570000000.0 -607062000000.0 -1.35971e+12 -1.99323e+12 -2.16589e+12 -2.02693e+12 -1.67378e+12 -1.04039e+12 -1.64048e+12 -1.4141e+12 -2.12183e+12 -1.56303e+12 -1.24517e+12 -1.7073e+12 -1.32679e+12 -1.36442e+12 -1.68387e+12 -1.32404e+12 -2.26423e+12 -1.3078e+12 -616562000000.0 -1.05122e+12 -811019000000.0 -917140000000.0 -899378000000.0 -1.08814e+12 -299574000000.0 -406307000000.0 -247155000000.0 -700984000000.0 -325528000000.0 -140055000000.0 -237189000000.0 -246803000000.0 -713566000000.0 -536797000000.0 -218376000000.0 -96199600000.0 -1.52566e+12 -964591000000.0 -700941000000.0 -310908000000.0 -930360000000.0 -843545000000.0 -180153000000.0 -800993000000.0 -1.25235e+12 -721324000000.0 -1.37164e+12 -1.16891e+12 -1.32696e+12 -1.47536e+12 -1.62553e+12 -1.16506e+12 -1.25434e+12 -1.81676e+12 -1.22916e+12 -1.43422e+12 -1.89787e+12 -1.77924e+12 -2.32714e+12 -1.31211e+12 -2.49872e+12 -2.93932e+12 -1.25776e+12 -1.63465e+12 -426339000000.0 -1.19034e+12 -1.75336e+12 -1.60983e+12 -1.23608e+12 -1.45196e+12 -2.067e+12 -1.36037e+12 -1.0968e+12 -2.11492e+12 -1.74056e+12 -879134000000.0 -924083000000.0 -1.75735e+12 -894138000000.0 -619496000000.0 -1.1616e+12 -1.23654e+12 -642741000000.0 -2.63486e+12 -470095000000.0 -1.66954e+12 -655648000000.0 -1.20667e+12 -1.19541e+12 -775355000000.0 -731265000000.0 -988788000000.0 -1.9503e+12 -845467000000.0 -239142000000.0 -1.44082e+12 -1.1119e+12 -1.04679e+12 -913779000000.0 -383796000000.0 -1.05737e+12 -347894000000.0 -530083000000.0 -510350000000.0 -265327000000.0 -309804000000.0 -421886000000.0 -258940000000.0 -116477000000.0 -241616000000.0 -286713000000.0 -147631000000.0 -338451000000.0 -297643000000.0 -526849000000.0 -165388000000.0 -182344000000.0 -400258000000.0 -879307000000.0 -631743000000.0 -410135000000.0 -975971000000.0 -1.17127e+12 -1.10091e+12 -933909000000.0 -502614000000.0 -943181000000.0 -1.07945e+12 -940339000000.0 -2.03876e+12 -1.95667e+12 -651125000000.0 -1.20839e+12 -1.46928e+12 -1.29708e+12 -1.46659e+12 -959511000000.0 -951246000000.0 -1.40358e+12 -1.55233e+12 -406981000000.0 -948358000000.0 -1.06781e+12 -1.31969e+12 -1.7033e+12 -799446000000.0 -409955000000.0 -583017000000.0 -556979000000.0 -516353000000.0 -296552000000.0 -120787000000.0 -594261000000.0 -551771000000.0 -340923000000.0 -264764000000.0 -209189000000.0 -380718000000.0 -1.25952e+12 -764603000000.0 -1.02053e+12 -574312000000.0 -416147000000.0 -141686000000.0 -70162800000.0 -138744000000.0 -265170000000.0 -300725000000.0 -224390000000.0 -152870000000.0 -615075000000.0 -452337000000.0 -512992000000.0 -189381000000.0 -1.22645e+12 -392771000000.0 -354537000000.0 -383906000000.0 -419542000000.0 -1.08922e+12 -832496000000.0 -861635000000.0 -865800000000.0 -510453000000.0 -555232000000.0 -660761000000.0 -384527000000.0 -34443300000.0 -44238200000.0 -197783000000.0 -201359000000.0 -95830600000.0 -253811000000.0 -210273000000.0 -203886000000.0 -86287400000.0 -433854000000.0 -289565000000.0 -333281000000.0 -223271000000.0 -129526000000.0 -208241000000.0 -260829000000.0 -296745000000.0 -256693000000.0 -239635000000.0 -253250000000.0 -307752000000.0 -149648000000.0 