# vtk DataFile Version 2.0
Time step 1
ASCII
DATASET UNSTRUCTURED_GRID
POINTS 5000 float
2833.82 500143.0 0
7754.82 498800.0 0
12350.0 498857.0 0
16695.1 498533.0 0
22220.6 499022.0 0
27828.7 496631.0 0
33031.2 498891.0 0
38016.1 499187.0 0
42575.6 499182.0 0
47500.0 499163.0 0
52137.1 499189.0 0
57064.2 498213.0 0
62763.5 499104.0 0
67994.7 499238.0 0
72653.0 498692.0 0
77500.0 499117.0 0
82500.0 499107.0 0
87472.5 498825.0 0
92500.0 499145.0 0
97361.3 499164.0 0
101459.0 499071.0 0
106147.0 498905.0 0
111879.0 499100.0 0
117794.0 499136.0 0
123272.0 499214.0 0
128285.0 499324.0 0
133369.0 498592.0 0
138067.0 499263.0 0
142500.0 499188.0 0
147500.0 499122.0 0
152501.0 499091.0 0
157500.0 499161.0 0
162511.0 498977.0 0
166984.0 499189.0 0
171898.0 497574.0 0
177784.0 497625.0 0
183050.0 497505.0 0
187548.0 498740.0 0
192500.0 499539.0 0
196358.0 498962.0 0
201913.0 498356.0 0
207825.0 498825.0 0
213192.0 499119.0 0
218342.0 499241.0 0
222679.0 499237.0 0
226061.0 499141.0 0
230520.0 498776.0 0
235937.0 499264.0 0
241337.0 498379.0 0
246597.0 500403.0 0
252612.0 498198.0 0
258856.0 498915.0 0
263551.0 499541.0 0
268509.0 499063.0 0
273630.0 499018.0 0
278513.0 497689.0 0
281990.0 500621.0 0
286344.0 499164.0 0
291709.0 499651.0 0
297366.0 497735.0 0
303590.0 498778.0 0
307983.0 500556.0 0
312496.0 498728.0 0
318266.0 499240.0 0
323523.0 499287.0 0
327793.0 499290.0 0
332351.0 499061.0 0
337285.0 499075.0 0
341122.0 499701.0 0
346106.0 498872.0 0
351055.0 499807.0 0
355606.0 499483.0 0
362069.0 498426.0 0
368025.0 499943.0 0
372024.0 496675.0 0
377060.0 498434.0 0
382611.0 499056.0 0
388112.0 498993.0 0
393845.0 497814.0 0
398754.0 500002.0 0
403346.0 497514.0 0
408263.0 498804.0 0
412500.0 499261.0 0
417500.0 499156.0 0
422463.0 499150.0 0
427292.0 499088.0 0
432632.0 497604.0 0
437537.0 499128.0 0
442472.0 498775.0 0
446949.0 498414.0 0
451354.0 499159.0 0
455863.0 499130.0 0
460803.0 499103.0 0
466287.0 499368.0 0
472039.0 498719.0 0
477405.0 497568.0 0
481799.0 499995.0 0
485903.0 496746.0 0
491281.0 498876.0 0
496302.0 500000.0 0
2285.73 504905.0 0
6145.38 502662.0 0
11013.5 503360.0 0
16995.1 504428.0 0
22638.2 504658.0 0
28239.7 502948.0 0
34519.3 504578.0 0
39852.1 504252.0 0
43960.7 504455.0 0
47813.4 503876.0 0
52500.0 504149.0 0
57822.6 503683.0 0
62704.0 504195.0 0
67505.7 503945.0 0
72412.9 503831.0 0
77500.0 504275.0 0
82116.0 503938.0 0
87730.8 503593.0 0
92500.0 504284.0 0
97220.1 504155.0 0
102467.0 503818.0 0
108023.0 503664.0 0
112500.0 504221.0 0
117500.0 504302.0 0
122500.0 504225.0 0
127500.0 504172.0 0
132451.0 504117.0 0
137520.0 504133.0 0
142598.0 503864.0 0
147334.0 504149.0 0
152326.0 503810.0 0
157327.0 503460.0 0
161784.0 503850.0 0
166969.0 503859.0 0
172593.0 503183.0 0
177975.0 503058.0 0
183210.0 502523.0 0
188329.0 503295.0 0
193294.0 503936.0 0
197989.0 503625.0 0
203542.0 504122.0 0
208935.0 504052.0 0
213370.0 503677.0 0
217554.0 504137.0 0
221977.0 504222.0 0
226906.0 503414.0 0
232160.0 504037.0 0
237667.0 504577.0 0
243249.0 504489.0 0
248161.0 504626.0 0
252390.0 504790.0 0
257004.0 503487.0 0
262499.0 504105.0 0
267500.0 504245.0 0
271843.0 503058.0 0
276885.0 503359.0 0
282541.0 504331.0 0
287500.0 504199.0 0
292521.0 504223.0 0
297939.0 503263.0 0
302727.0 504528.0 0
307500.0 504339.0 0
312501.0 504393.0 0
317500.0 504152.0 0
322500.0 504172.0 0
327500.0 504179.0 0
332500.0 504251.0 0
337500.0 504111.0 0
342652.0 503154.0 0
347597.0 503786.0 0
352469.0 503912.0 0
357519.0 504254.0 0
362553.0 503849.0 0
366214.0 504169.0 0
372887.0 503418.0 0
379011.0 502914.0 0
382472.0 504552.0 0
387681.0 503996.0 0
392794.0 503739.0 0
397345.0 503903.0 0
402325.0 503591.0 0
407696.0 503025.0 0
412500.0 504126.0 0
417500.0 504114.0 0
422455.0 503926.0 0
427400.0 504165.0 0
432837.0 502866.0 0
437500.0 504193.0 0
442801.0 503174.0 0
447468.0 502523.0 0
451918.0 503783.0 0
457193.0 504054.0 0
462582.0 504354.0 0
466900.0 503962.0 0
470426.0 505095.0 0
475374.0 504068.0 0
480927.0 505168.0 0
486697.0 503727.0 0
491837.0 506386.0 0
496854.0 504382.0 0
2232.56 509619.0 0
6889.6 507535.0 0
12554.5 509430.0 0
17013.7 509628.0 0
21135.0 509039.0 0
26776.0 509686.0 0
32536.0 509076.0 0
37989.9 509111.0 0
42620.4 508891.0 0
47285.0 508603.0 0
51703.3 509478.0 0
56418.1 509292.0 0
61939.3 509181.0 0
67482.8 508790.0 0
73409.5 509488.0 0
78328.1 509459.0 0
82125.6 508664.0 0
87108.1 509115.0 0
92531.5 509035.0 0
97546.2 508681.0 0
102630.0 509580.0 0
107898.0 508415.0 0
112500.0 509141.0 0
117104.0 509111.0 0
121186.0 508810.0 0
126156.0 508903.0 0
131535.0 509865.0 0
136696.0 509491.0 0
141377.0 508166.0 0
146613.0 509022.0 0
152114.0 510210.0 0
156902.0 508005.0 0
162198.0 509997.0 0
166949.0 511557.0 0
170407.0 508323.0 0
176541.0 508981.0 0
182337.0 507618.0 0
188152.0 509459.0 0
194203.0 508888.0 0
199839.0 508664.0 0
203965.0 509946.0 0
207549.0 508829.0 0
212801.0 508407.0 0
217500.0 509224.0 0
222500.0 509151.0 0
227298.0 508403.0 0
232655.0 509491.0 0
237500.0 509366.0 0
242126.0 509595.0 0
247484.0 508936.0 0
252572.0 509757.0 0
257632.0 508151.0 0
262579.0 508887.0 0
267358.0 508838.0 0
272850.0 508376.0 0
279391.0 507585.0 0
283348.0 509318.0 0
287111.0 509454.0 0
291154.0 509173.0 0
296803.0 508363.0 0
302441.0 509826.0 0
307825.0 508916.0 0
313354.0 509645.0 0
318362.0 509127.0 0
322714.0 508470.0 0
327335.0 509090.0 0
332340.0 509140.0 0
337037.0 509011.0 0
341809.0 507669.0 0
347148.0 508260.0 0
352187.0 508777.0 0
356372.0 509507.0 0
361397.0 508397.0 0
366661.0 508388.0 0
371407.0 509588.0 0
377805.0 508836.0 0
384348.0 508171.0 0
388649.0 510735.0 0
392535.0 508666.0 0
397275.0 508338.0 0
402738.0 509633.0 0
408879.0 508551.0 0
414217.0 509992.0 0
418878.0 509067.0 0
423905.0 508916.0 0
428006.0 510648.0 0
432417.0 508500.0 0
437272.0 509745.0 0
442039.0 508388.0 0
447855.0 507511.0 0
453689.0 508849.0 0
458587.0 509308.0 0
462520.0 508936.0 0
467500.0 509304.0 0
472443.0 508465.0 0
477853.0 508831.0 0
482563.0 509816.0 0
487441.0 510322.0 0
491602.0 510384.0 0
496593.0 510051.0 0
2211.95 514202.0 0
8150.42 513234.0 0
13319.7 514061.0 0
17552.9 513567.0 0
22150.3 513638.0 0
26698.9 515340.0 0
32149.9 513384.0 0
37628.8 514218.0 0
43213.5 513917.0 0
48694.1 513381.0 0
53537.5 514273.0 0
58785.1 514099.0 0
63175.5 514131.0 0
67713.5 514411.0 0
72400.8 514541.0 0
77015.3 513594.0 0
82061.7 513679.0 0
87205.8 514241.0 0
92150.5 514316.0 0
97622.5 514035.0 0
102639.0 515318.0 0
107622.0 513854.0 0
112955.0 513763.0 0
117953.0 513720.0 0
123206.0 513125.0 0
127500.0 514300.0 0
132597.0 514810.0 0
137555.0 513873.0 0
142503.0 514058.0 0
147552.0 513860.0 0
152959.0 514997.0 0
157416.0 513372.0 0
161216.0 514844.0 0
165228.0 515341.0 0
171005.0 514341.0 0
177152.0 515435.0 0
182403.0 513001.0 0
186796.0 515047.0 0
191651.0 514558.0 0
196934.0 513665.0 0
202574.0 513985.0 0
208402.0 514450.0 0
214204.0 513887.0 0
218694.0 514503.0 0
222333.0 513426.0 0
227976.0 513946.0 0
233480.0 514188.0 0
237267.0 513365.0 0
242500.0 514188.0 0
247368.0 514149.0 0
252142.0 514649.0 0
256665.0 513032.0 0
261127.0 513038.0 0
266022.0 513394.0 0
271472.0 514611.0 0
278039.0 513083.0 0
283921.0 514894.0 0
288073.0 512865.0 0
292552.0 514431.0 0
298790.0 514673.0 0
303828.0 514517.0 0
307500.0 514343.0 0
312484.0 514141.0 0
316823.0 514255.0 0
321520.0 513128.0 0
326292.0 514526.0 0
330465.0 514145.0 0
335129.0 515308.0 0
340517.0 513117.0 0
346633.0 514570.0 0
353144.0 514354.0 0
358149.0 513157.0 0
362593.0 514244.0 0
367423.0 512926.0 0
372035.0 515210.0 0
377753.0 515823.0 0
382928.0 513562.0 0
387388.0 514835.0 0
392832.0 514525.0 0
399080.0 514109.0 0
403763.0 514812.0 0
407478.0 513786.0 0
412217.0 514409.0 0
416814.0 514190.0 0
421343.0 514345.0 0
425855.0 514193.0 0
431215.0 514641.0 0
437936.0 513774.0 0
442576.0 513934.0 0
447183.0 512586.0 0
451284.0 513738.0 0
456050.0 514166.0 0
461708.0 513903.0 0
467281.0 514757.0 0
472654.0 513363.0 0
478858.0 514364.0 0
484696.0 514384.0 0
488666.0 515580.0 0
492060.0 513940.0 0
496774.0 516017.0 0
1784.61 519423.0 0
6853.68 519324.0 0
11681.0 517692.0 0
17127.0 518628.0 0
23025.9 518935.0 0
28850.6 518709.0 0
33404.0 519127.0 0
38200.7 518651.0 0
42294.4 519725.0 0
47267.7 518370.0 0
52264.2 519484.0 0
56683.2 518403.0 0
62618.2 518891.0 0
67984.9 519619.0 0
72665.9 518660.0 0
77637.9 518817.0 0
82916.5 518675.0 0
87695.2 519067.0 0
92500.0 519207.0 0
97492.9 519629.0 0
102131.0 519246.0 0
106522.0 519558.0 0
111900.0 518562.0 0
117217.0 519109.0 0
122617.0 518386.0 0
127364.0 518838.0 0
131594.0 519319.0 0
136867.0 518511.0 0
142369.0 519963.0 0
147107.0 518207.0 0
151974.0 519693.0 0
158035.0 518885.0 0
163561.0 519531.0 0
167112.0 518653.0 0
171101.0 520253.0 0
176821.0 521509.0 0
182903.0 519240.0 0
189233.0 519363.0 0
193720.0 518710.0 0
198370.0 519077.0 0
203301.0 518959.0 0
207738.0 520049.0 0
212474.0 519093.0 0
216771.0 517995.0 0
221478.0 518268.0 0
226573.0 519805.0 0
232363.0 519138.0 0
238206.0 517956.0 0
243277.0 518510.0 0
248241.0 519517.0 0
252986.0 519222.0 0
257739.0 518309.0 0
262705.0 516929.0 0
267538.0 518841.0 0
272673.0 520393.0 0
278407.0 519560.0 0
283464.0 519484.0 0
288536.0 518156.0 0
293102.0 519360.0 0
297155.0 520534.0 0
302549.0 519065.0 0
307378.0 519176.0 0
312260.0 518867.0 0
317476.0 518684.0 0
322957.0 518688.0 0
327822.0 519252.0 0
331594.0 518622.0 0
337632.0 519374.0 0
342086.0 518563.0 0
347299.0 520435.0 0
352196.0 520012.0 0
357678.0 518515.0 0
363271.0 519092.0 0
367580.0 517822.0 0
371335.0 520185.0 0
375572.0 520600.0 0
382616.0 519168.0 0
387380.0 519029.0 0
391809.0 520689.0 0
397537.0 519838.0 0
402883.0 518830.0 0
408914.0 518394.0 0
413384.0 518883.0 0
417500.0 519233.0 0
422502.0 519224.0 0
427419.0 518374.0 0
431307.0 520010.0 0
436037.0 518310.0 0
441732.0 519440.0 0
447949.0 518174.0 0
453702.0 519087.0 0
458908.0 519069.0 0
464240.0 519394.0 0
468820.0 519391.0 0
473165.0 518672.0 0
477650.0 520142.0 0
482094.0 519167.0 0
486689.0 519382.0 0
491948.0 519547.0 0
497460.0 521338.0 0
2741.57 523586.0 0
7974.93 525303.0 0
12491.3 522115.0 0
17755.0 524297.0 0
23252.9 524619.0 0
28178.0 522772.0 0
32973.7 524766.0 0
38319.9 523417.0 0
42757.6 524759.0 0
47562.6 524245.0 0
53118.2 524211.0 0
58859.2 523524.0 0
64032.7 524461.0 0
67500.0 524383.0 0
71772.9 522599.0 0
76002.5 523808.0 0
82014.0 524264.0 0
88503.3 524001.0 0
93234.6 524289.0 0
97488.1 524249.0 0
102040.0 524106.0 0
106898.0 524825.0 0
111436.0 523354.0 0
115767.0 523708.0 0
121276.0 524314.0 0
127779.0 524316.0 0
133528.0 523813.0 0
138842.0 524371.0 0
143765.0 524535.0 0
148230.0 523386.0 0
152888.0 524228.0 0
157193.0 524576.0 0
161988.0 523625.0 0
167054.0 523892.0 0
172640.0 525817.0 0
176986.0 525697.0 0
181257.0 525570.0 0
186781.0 524121.0 0
192270.0 523911.0 0
197752.0 524619.0 0
202689.0 523361.0 0
206880.0 524606.0 0
210920.0 524364.0 0
216438.0 523625.0 0
222590.0 523522.0 0
227924.0 525477.0 0
233387.0 526169.0 0
236744.0 522809.0 0
241748.0 524628.0 0
246991.0 524691.0 0
251527.0 523565.0 0
257070.0 524390.0 0
263117.0 522307.0 0
268510.0 524167.0 0
272942.0 525266.0 0
277719.0 525221.0 0
282181.0 523407.0 0
287171.0 524352.0 0
293010.0 523904.0 0
298035.0 525577.0 0
301999.0 522780.0 0
306494.0 523799.0 0
311531.0 524830.0 0
316940.0 523747.0 0
322367.0 524563.0 0
327853.0 524107.0 0
333610.0 523326.0 0
338093.0 525054.0 0
343013.0 524440.0 0
348517.0 525275.0 0
352522.0 524294.0 0
355976.0 522992.0 0
360839.0 523443.0 0
366895.0 523938.0 0
372934.0 525171.0 0
379387.0 523942.0 0
383730.0 523588.0 0
387482.0 523783.0 0
391651.0 525430.0 0
396655.0 525738.0 0
400969.0 524343.0 0
405825.0 523562.0 0
412246.0 523690.0 0
418168.0 524252.0 0
423165.0 525124.0 0
427379.0 522626.0 0
432223.0 524572.0 0
436991.0 523394.0 0
441750.0 524871.0 0
446987.0 524185.0 0
452613.0 524301.0 0
458313.0 524528.0 0
462592.0 524290.0 0
466478.0 523670.0 0
471620.0 524365.0 0
476899.0 524766.0 0
482286.0 524515.0 0
487746.0 524182.0 0
492617.0 524919.0 0
497461.0 526099.0 0
3039.04 529273.0 0
8483.23 531152.0 0
13362.5 527846.0 0
18197.3 531109.0 0
23413.6 530129.0 0
28283.5 527965.0 0
33146.9 530244.0 0
37971.7 528583.0 0
42648.8 528995.0 0
49126.9 528854.0 0
53135.4 529296.0 0
57967.2 529341.0 0
62777.8 528652.0 0
66359.4 528827.0 0
71567.9 527923.0 0
77907.6 528944.0 0
83385.6 529831.0 0
88075.2 528914.0 0
93065.7 529046.0 0
98027.7 529163.0 0
102429.0 529155.0 0
106335.0 529162.0 0
111296.0 528601.0 0
117097.0 528399.0 0
122735.0 529580.0 0
127463.0 529224.0 0
132311.0 528929.0 0
136622.0 529795.0 0
141134.0 529507.0 0
146370.0 528412.0 0
151935.0 529061.0 0
157816.0 529869.0 0
162951.0 528162.0 0
167933.0 528908.0 0
172388.0 531093.0 0
176837.0 529380.0 0
181458.0 531134.0 0
186151.0 529307.0 0
191760.0 529808.0 0
197452.0 529996.0 0
202845.0 528733.0 0
207671.0 528603.0 0
212062.0 528837.0 0
217118.0 529914.0 0
223112.0 529741.0 0
228687.0 531359.0 0
232998.0 530598.0 0
237923.0 529476.0 0
243229.0 529926.0 0
247771.0 529402.0 0
251567.0 529072.0 0
255576.0 530319.0 0
262244.0 529280.0 0
268254.0 529088.0 0
272841.0 529791.0 0
277690.0 530381.0 0
282369.0 528416.0 0
287494.0 530368.0 0
292702.0 529209.0 0
297492.0 530465.0 0
302568.0 528746.0 0
308271.0 529555.0 0
313124.0 529242.0 0
317500.0 529167.0 0
323059.0 530045.0 0
327346.0 529321.0 0
331588.0 529255.0 0
336617.0 528876.0 0
341582.0 530509.0 0
347074.0 530272.0 0
352181.0 528833.0 0
357057.0 527459.0 0
362061.0 528900.0 0
367328.0 529658.0 0
371729.0 530064.0 0
377529.0 530776.0 0
383860.0 528007.0 0
388424.0 529975.0 0
392977.0 529879.0 0
398009.0 531505.0 0
403033.0 528977.0 0
408639.0 528959.0 0
413974.0 528711.0 0
417500.0 529487.0 0
421153.0 528883.0 0
427697.0 529050.0 0
433322.0 528880.0 0
437777.0 528135.0 0
442498.0 529624.0 0
448119.0 529939.0 0
453528.0 529201.0 0
458065.0 529487.0 0
462503.0 529188.0 0
467407.0 528608.0 0
472772.0 529774.0 0
478627.0 529304.0 0
482940.0 529301.0 0
487499.0 529122.0 0
492500.0 529265.0 0
497775.0 530601.0 0
2131.91 534510.0 0
6889.95 536851.0 0
13468.9 534347.0 0
18165.5 535959.0 0
21853.2 534455.0 0
27622.2 534045.0 0
32405.2 534564.0 0
37311.7 534176.0 0
42249.7 535546.0 0
46285.4 532831.0 0
51403.8 534496.0 0
57148.3 535416.0 0
63219.5 533821.0 0
67944.6 532117.0 0
72816.8 534865.0 0
78944.6 534581.0 0
84107.1 535139.0 0
89047.3 533673.0 0
93949.1 535158.0 0
97906.0 533317.0 0
101681.0 535186.0 0
106397.0 533552.0 0
112020.0 534778.0 0
118455.0 533884.0 0
123994.0 534110.0 0
128649.0 532932.0 0
133569.0 534713.0 0
138107.0 534155.0 0
142212.0 534640.0 0
147641.0 533901.0 0
153114.0 534556.0 0
157592.0 534908.0 0
162440.0 533648.0 0
167633.0 533809.0 0
171330.0 534844.0 0
177535.0 534348.0 0
182630.0 535824.0 0
187278.0 534247.0 0
191811.0 535167.0 0
196753.0 535313.0 0
202008.0 534296.0 0
207468.0 533544.0 0
213230.0 534452.0 0
219626.0 534880.0 0
224674.0 535126.0 0
228421.0 535448.0 0
232467.0 534360.0 0
237558.0 534860.0 0
242236.0 533942.0 0
246686.0 534212.0 0
251403.0 533171.0 0
257622.0 535528.0 0
262439.0 535036.0 0
267830.0 534682.0 0
273571.0 534682.0 0
279009.0 535530.0 0
284480.0 534673.0 0
289240.0 535278.0 0
293085.0 534056.0 0
297138.0 535370.0 0
302604.0 534567.0 0
307596.0 534765.0 0
311974.0 533086.0 0
316541.0 533955.0 0
321282.0 534924.0 0
326490.0 534283.0 0
331707.0 534504.0 0
337300.0 534648.0 0
343363.0 535381.0 0
347582.0 534888.0 0
352179.0 533887.0 0
356898.0 532537.0 0
362235.0 534795.0 0
367541.0 534524.0 0
372090.0 534500.0 0
378089.0 537187.0 0
382730.0 534328.0 0
387394.0 534543.0 0
392437.0 534516.0 0
396195.0 536298.0 0
401026.0 535824.0 0
406366.0 534928.0 0
412010.0 533367.0 0
417227.0 533439.0 0
422728.0 533855.0 0
427956.0 535486.0 0
432367.0 533371.0 0
437941.0 533563.0 0
443661.0 534628.0 0
449327.0 536094.0 0
454273.0 533764.0 0
459792.0 534840.0 0
464465.0 535065.0 0
468101.0 533744.0 0
472736.0 534748.0 0
477469.0 534078.0 0
482500.0 534141.0 0
487500.0 534153.0 0
491752.0 533965.0 0
496160.0 534953.0 0
2232.07 539113.0 0
6756.26 542567.0 0
12116.5 540262.0 0
17624.9 540260.0 0
22843.5 539214.0 0
28683.8 540074.0 0
32768.4 537917.0 0
36503.7 539946.0 0
41389.7 539764.0 0
47095.1 539278.0 0
52797.6 539186.0 0
57235.4 541428.0 0
61830.4 539186.0 0
67485.1 538929.0 0
73266.0 541521.0 0
78072.4 539379.0 0
82780.3 540171.0 0
88630.2 539576.0 0
93833.3 539653.0 0
97581.6 538897.0 0
101287.0 539411.0 0
105941.0 538946.0 0
110644.0 539923.0 0
115929.0 539689.0 0
121935.0 538982.0 0
128183.0 538932.0 0
133516.0 539558.0 0
137375.0 538219.0 0
141985.0 539896.0 0
148032.0 540301.0 0
153546.0 539374.0 0
157955.0 539118.0 0
162970.0 539471.0 0
168276.0 538515.0 0
173175.0 538279.0 0
177410.0 539182.0 0
181416.0 540207.0 0
186267.0 539388.0 0
191292.0 539634.0 0
196086.0 540645.0 0
201703.0 539940.0 0
207653.0 539496.0 0
212674.0 539428.0 0
217370.0 539855.0 0
222108.0 539419.0 0
226630.0 539325.0 0
231480.0 538946.0 0
236274.0 539714.0 0
241641.0 538874.0 0
246914.0 539067.0 0
252426.0 538665.0 0
257571.0 540570.0 0
263496.0 540218.0 0
269343.0 540306.0 0
274285.0 539617.0 0
278972.0 540708.0 0
282855.0 538947.0 0
287488.0 540069.0 0
292484.0 538942.0 0
297280.0 540465.0 0
302666.0 539728.0 0
307500.0 539262.0 0
312111.0 538236.0 0
317542.0 538607.0 0
323206.0 539924.0 0
328128.0 539175.0 0
332975.0 539543.0 0
337939.0 539883.0 0
342500.0 539312.0 0
346864.0 539291.0 0
350758.0 538039.0 0
356528.0 538756.0 0
362106.0 539940.0 0
367019.0 539217.0 0
373329.0 539696.0 0
377847.0 541463.0 0
382991.0 539504.0 0
387918.0 538982.0 0
392495.0 539012.0 0
397789.0 540148.0 0
403226.0 540100.0 0
407882.0 539905.0 0
412149.0 538392.0 0
416953.0 538557.0 0
420726.0 540609.0 0
424720.0 539180.0 0
431498.0 538873.0 0
437252.0 539598.0 0
443141.0 540137.0 0
449426.0 542311.0 0
453298.0 538976.0 0
457478.0 540175.0 0
462435.0 539875.0 0
467703.0 539021.0 0
472777.0 539318.0 0
477502.0 539031.0 0
482334.0 539187.0 0
486658.0 538876.0 0
491811.0 539083.0 0
497416.0 539825.0 0
2119.64 543398.0 0
8903.69 546731.0 0
12897.3 545532.0 0
16534.8 544228.0 0
20474.2 543861.0 0
25182.0 544258.0 0
31891.6 544377.0 0
37781.5 545484.0 0
43396.1 544223.0 0
48596.8 545279.0 0
53387.5 544340.0 0
57734.4 546102.0 0
62560.3 544412.0 0
67241.8 544426.0 0
71013.6 546369.0 0
78575.6 544374.0 0
83681.9 544947.0 0
87731.4 544511.0 0
92508.1 544059.0 0
97311.1 543291.0 0
102699.0 544111.0 0
107639.0 543515.0 0
112244.0 544141.0 0
117833.0 545140.0 0
123079.0 544328.0 0
127577.0 544244.0 0
132651.0 544571.0 0
138293.0 543617.0 0
142842.0 544752.0 0
147343.0 546205.0 0
152035.0 544224.0 0
156721.0 544134.0 0
161654.0 544332.0 0
166663.0 543325.0 0
172940.0 544292.0 0
178296.0 544443.0 0
183128.0 544851.0 0
188942.0 544353.0 0
193523.0 544347.0 0
199001.0 544253.0 0
203027.0 545196.0 0
207361.0 544748.0 0
212450.0 544085.0 0
217937.0 544886.0 0
222500.0 544245.0 0
227535.0 544171.0 0
232500.0 544158.0 0
237661.0 544296.0 0
242434.0 544556.0 0
247157.0 543788.0 0
252887.0 544831.0 0
257929.0 544834.0 0
262700.0 546334.0 0
267646.0 544611.0 0
272098.0 544061.0 0
276402.0 544466.0 0
282630.0 543351.0 0
287332.0 545260.0 0
292599.0 543573.0 0
298312.0 545077.0 0
302500.0 544206.0 0
307179.0 544151.0 0
312409.0 543787.0 0
317650.0 543438.0 0
322211.0 545038.0 0
326396.0 544049.0 0
330346.0 544149.0 0
336008.0 544765.0 0
341128.0 543296.0 0
345437.0 544711.0 0
351050.0 543608.0 0
357267.0 545523.0 0
363576.0 544942.0 0
369642.0 544141.0 0
375030.0 544940.0 0
379790.0 545072.0 0
383876.0 545019.0 0
387859.0 543398.0 0
392711.0 544089.0 0
397335.0 544474.0 0
401410.0 544141.0 0
405923.0 544304.0 0
411965.0 544003.0 0
417836.0 543601.0 0
422960.0 544668.0 0
427903.0 542826.0 0
433185.0 544410.0 0
439279.0 545555.0 0
444571.0 544828.0 0
447888.0 547033.0 0
454696.0 544167.0 0
458613.0 544370.0 0
462393.0 544266.0 0
466665.0 544417.0 0
472383.0 543953.0 0
477777.0 544391.0 0
482731.0 544177.0 0
487571.0 543631.0 0
492508.0 544565.0 0
497802.0 544424.0 0
3061.72 548394.0 0
7759.61 551056.0 0
12368.8 549986.0 0
16500.4 548167.0 0
21378.1 548763.0 0
27359.3 549630.0 0
32727.5 549404.0 0
36073.0 550404.0 0
42121.3 549285.0 0
48265.7 550714.0 0
53474.1 549164.0 0
58920.0 549867.0 0
62717.3 548830.0 0
67174.6 548984.0 0
72577.6 550217.0 0
77381.3 549995.0 0
82540.3 548964.0 0
86530.1 548207.0 0
91550.4 548915.0 0
96959.2 548452.0 0
101529.0 549576.0 0
106486.0 548513.0 0
112396.0 549602.0 0
118059.0 550279.0 0
123268.0 549555.0 0
128419.0 548644.0 0
133179.0 550027.0 0
138614.0 549362.0 0
143757.0 549330.0 0
147365.0 550586.0 0
152554.0 548942.0 0
157500.0 549189.0 0
162800.0 548447.0 0
167887.0 548590.0 0
172345.0 550053.0 0
177468.0 549019.0 0
182488.0 549850.0 0
187117.0 549399.0 0
192224.0 549124.0 0
197833.0 549117.0 0
202752.0 549285.0 0
207207.0 549557.0 0
212162.0 549066.0 0
217373.0 550063.0 0
222693.0 549090.0 0
227848.0 549213.0 0
233074.0 549157.0 0
237812.0 548615.0 0
242165.0 549155.0 0
247012.0 548717.0 0
251441.0 549407.0 0
255747.0 549146.0 0
259849.0 550303.0 0
267370.0 549977.0 0
272217.0 548016.0 0
277021.0 549726.0 0
282987.0 548764.0 0
288093.0 549735.0 0
292745.0 549187.0 0
297373.0 549209.0 0
302030.0 548851.0 0
306995.0 549034.0 0
311823.0 548940.0 0
316688.0 548228.0 0
320965.0 549672.0 0
326568.0 549074.0 0
333036.0 550201.0 0
338683.0 549962.0 0
343785.0 549253.0 0
348662.0 549250.0 0
353364.0 549861.0 0
359129.0 550580.0 0
363615.0 550397.0 0
368041.0 549358.0 0
372698.0 549063.0 0
377791.0 549795.0 0
382454.0 548932.0 0
387031.0 548234.0 0
391640.0 548809.0 0
396209.0 549237.0 0
401391.0 549024.0 0
406479.0 549024.0 0
411417.0 550023.0 0
416817.0 548722.0 0
421948.0 549953.0 0
428091.0 548942.0 0
434865.0 549726.0 0
438975.0 550360.0 0
443521.0 549713.0 0
447589.0 549920.0 0
452302.0 549141.0 0
457764.0 547997.0 0
462374.0 549013.0 0
467420.0 549393.0 0
472726.0 549214.0 0
477665.0 549232.0 0
482500.0 549347.0 0
487565.0 548580.0 0
491980.0 549211.0 0
496939.0 549110.0 0
3129.01 554252.0 0
8285.36 555309.0 0
11375.5 554669.0 0
16376.4 553953.0 0
22765.1 554443.0 0
27583.6 554801.0 0
32069.3 553466.0 0
37936.2 555670.0 0
44145.7 554686.0 0
48875.9 556095.0 0
51992.2 553674.0 0
56370.1 553399.0 0
61554.4 553606.0 0
67204.1 554466.0 0
72843.9 554892.0 0
77637.6 555595.0 0
81604.2 553304.0 0
87427.9 553717.0 0
93301.3 555123.0 0
98712.0 553805.0 0
103758.0 553902.0 0
108529.0 553846.0 0
113531.0 554964.0 0
118506.0 555335.0 0
123406.0 554558.0 0
128198.0 553699.0 0
132827.0 554514.0 0
137460.0 554824.0 0
142560.0 553354.0 0
146606.0 554434.0 0
150757.0 553178.0 0
155617.0 553984.0 0
161080.0 553252.0 0
167215.0 554444.0 0
172963.0 554439.0 0
178146.0 554440.0 0
183393.0 554647.0 0
188726.0 554279.0 0
193586.0 554062.0 0
198402.0 554768.0 0
203235.0 554018.0 0
207985.0 554644.0 0
212959.0 554079.0 0
217720.0 555214.0 0
222500.0 554260.0 0
227500.0 554178.0 0
232578.0 554007.0 0
236991.0 552893.0 0
241266.0 554273.0 0
246460.0 554269.0 0
252910.0 554390.0 0
257982.0 554411.0 0
262413.0 554184.0 0
268125.0 554770.0 0
272312.0 552662.0 0
276480.0 554687.0 0
282510.0 554461.0 0
287442.0 554080.0 0
292568.0 554628.0 0
297133.0 553622.0 0
301579.0 554536.0 0
306713.0 553879.0 0
311804.0 554011.0 0
317625.0 553772.0 0
323305.0 554184.0 0
327447.0 554248.0 0
331973.0 554651.0 0
336024.0 555045.0 0
341203.0 554698.0 0
345689.0 553428.0 0
350245.0 554324.0 0
355857.0 555087.0 0
361820.0 555042.0 0
367269.0 554581.0 0
372521.0 553887.0 0
377545.0 555491.0 0
382878.0 553636.0 0
388751.0 553172.0 0
393257.0 554321.0 0
397467.0 554031.0 0
402603.0 554639.0 0
407559.0 553609.0 0
412103.0 554941.0 0
417333.0 554652.0 0
422074.0 554465.0 0
426490.0 554931.0 0
432040.0 554260.0 0
437873.0 554792.0 0
443358.0 554801.0 0
447797.0 553339.0 0
452416.0 554986.0 0
457420.0 552864.0 0
462619.0 554267.0 0
467866.0 554391.0 0
472747.0 554449.0 0
477763.0 553974.0 0
482392.0 554348.0 0
487456.0 553965.0 0
493005.0 554019.0 0
497789.0 553824.0 0
2511.02 559521.0 0
7136.41 559204.0 0
11889.5 558975.0 0
17174.8 560150.0 0
22932.0 560485.0 0
28358.1 559195.0 0
33360.5 557557.0 0
38747.8 560703.0 0
42741.3 559980.0 0
47118.2 559659.0 0
51990.8 559567.0 0
57210.4 558388.0 0
63194.0 559475.0 0
68593.2 559520.0 0
71532.1 559580.0 0
75616.1 560322.0 0
81345.7 559189.0 0
87204.9 560333.0 0
92121.9 559594.0 0
96813.5 559373.0 0
101976.0 558240.0 0
107571.0 559916.0 0
113439.0 559918.0 0
118498.0 560343.0 0
123530.0 559566.0 0
128629.0 558750.0 0
133471.0 558993.0 0
137811.0 560305.0 0
142005.0 558057.0 0
146255.0 559446.0 0
151472.0 558851.0 0
157390.0 558980.0 0
163103.0 558970.0 0
170307.0 559253.0 0
174826.0 560005.0 0
179014.0 559209.0 0
182529.0 559318.0 0
186478.0 559139.0 0
191799.0 559058.0 0
197217.0 560310.0 0
202405.0 559129.0 0
206820.0 559246.0 0
211098.0 559321.0 0
215645.0 559539.0 0
220984.0 559510.0 0
226715.0 559610.0 0
231699.0 558080.0 0
237737.0 558921.0 0
243854.0 559260.0 0
248763.0 559306.0 0
253892.0 560551.0 0
257302.0 557661.0 0
260353.0 559442.0 0
265491.0 558900.0 0
272218.0 558949.0 0
279142.0 559398.0 0
284802.0 559035.0 0
289259.0 558418.0 0
292518.0 560781.0 0
296831.0 558637.0 0
301635.0 560787.0 0
306313.0 559111.0 0
312369.0 559967.0 0
318397.0 559491.0 0
323556.0 559118.0 0
328300.0 557923.0 0
333019.0 559133.0 0
337610.0 559631.0 0
341625.0 559217.0 0
346397.0 558412.0 0
352472.0 559914.0 0
359011.0 559624.0 0
363773.0 559869.0 0
368248.0 559419.0 0
372507.0 558814.0 0
376655.0 560382.0 0
380943.0 559145.0 0
386536.0 559227.0 0
392946.0 559102.0 0
398331.0 559298.0 0
402862.0 559520.0 0
407759.0 558905.0 0
413686.0 559706.0 0
419063.0 560071.0 0
423093.0 559234.0 0
428853.0 559491.0 0
433870.0 559210.0 0
438366.0 559925.0 0
442413.0 558845.0 0
447299.0 558584.0 0
452440.0 559951.0 0
457664.0 558623.0 0
462914.0 559076.0 0
467793.0 559637.0 0
472721.0 559155.0 0
477548.0 559014.0 0
482532.0 559004.0 0
487532.0 559465.0 0
492523.0 559008.0 0
497558.0 558312.0 0
2475.29 564463.0 0
7700.14 564083.0 0
12037.4 564223.0 0
15901.1 565304.0 0
21087.9 565699.0 0
26725.8 564505.0 0
33754.1 562598.0 0
39620.7 564859.0 0
44415.3 564763.0 0
48470.7 564211.0 0
52754.6 564654.0 0
58647.0 563328.0 0
62801.0 564442.0 0
67500.0 564159.0 0
72148.1 563859.0 0
77685.3 564548.0 0
82366.1 564548.0 0
86943.0 565863.0 0
92488.2 564199.0 0
97541.9 564362.0 0
102662.0 563917.0 0
107280.0 565526.0 0
111238.0 564078.0 0
115970.0 564761.0 0
121173.0 564833.0 0
126730.0 564142.0 0
132478.0 564020.0 0
137112.0 564598.0 0
142134.0 563782.0 0
147488.0 563564.0 0
152028.0 565130.0 0
156814.0 563964.0 0
161512.0 564321.0 0
166799.0 563469.0 0
172065.0 563994.0 0
177540.0 564399.0 0
183065.0 563185.0 0
188611.0 564204.0 0
193718.0 564234.0 0
198007.0 565296.0 0
202500.0 564151.0 0
207500.0 564149.0 0
212370.0 564128.0 0
217665.0 564197.0 0
222746.0 564422.0 0
227248.0 564564.0 0
232422.0 564393.0 0
238567.0 564775.0 0
242663.0 564112.0 0
246914.0 563744.0 0
251917.0 565426.0 0
257215.0 564716.0 0
262311.0 563722.0 0
267693.0 564081.0 0
273051.0 565728.0 0
278789.0 565416.0 0
283078.0 563173.0 0
288066.0 563816.0 0
293269.0 564890.0 0
298425.0 564717.0 0
302500.0 564552.0 0
307500.0 564157.0 0
312527.0 565678.0 0
316496.0 564453.0 0
321383.0 564246.0 0
327767.0 563669.0 0
333688.0 564188.0 0
338003.0 565405.0 0
341456.0 563299.0 0
347016.0 564850.0 0
352800.0 564957.0 0
358232.0 565150.0 0
362971.0 563918.0 0
367733.0 564722.0 0
373172.0 563794.0 0
377840.0 564847.0 0
383119.0 564692.0 0
388717.0 565005.0 0
393586.0 564346.0 0
397852.0 563878.0 0
402408.0 564122.0 0
407868.0 564680.0 0
413595.0 565082.0 0
417793.0 564026.0 0
420949.0 564597.0 0
425926.0 564632.0 0
431921.0 563860.0 0
436608.0 563947.0 0
442029.0 563657.0 0
448134.0 564904.0 0
452982.0 564016.0 0
457894.0 564979.0 0
463308.0 563556.0 0
467947.0 564894.0 0
472239.0 563874.0 0
476940.0 564173.0 0
481760.0 563262.0 0
486271.0 564204.0 0
491408.0 564133.0 0
496938.0 563610.0 0
2947.0 569581.0 0
8009.99 569101.0 0
12525.0 569148.0 0
17888.2 569874.0 0
22426.1 570128.0 0
26558.9 569447.0 0
31204.0 568183.0 0
36229.6 568356.0 0
42500.0 569198.0 0
47443.5 568540.0 0
51507.4 568869.0 0
56836.8 568718.0 0
62541.4 568490.0 0
67233.5 569262.0 0
72589.1 569075.0 0
78185.6 569163.0 0
82707.3 569157.0 0
87272.5 569953.0 0
90925.6 569381.0 0
95981.1 569361.0 0
101843.0 569615.0 0
107446.0 570381.0 0
112637.0 568696.0 0
118255.0 569452.0 0
123169.0 569307.0 0
127558.0 569189.0 0
132067.0 569480.0 0
137014.0 569120.0 0
141426.0 570341.0 0
145930.0 568431.0 0
151060.0 570508.0 0
155845.0 568665.0 0
161665.0 570595.0 0
168811.0 569614.0 0
175147.0 570046.0 0
180458.0 569898.0 0
184899.0 567911.0 0
189504.0 569405.0 0
194112.0 568850.0 0
198722.0 570092.0 0
203805.0 569128.0 0
207941.0 569378.0 0
212204.0 569060.0 0
217196.0 569556.0 0
222607.0 569139.0 0
227701.0 569120.0 0
232536.0 568673.0 0
236959.0 569610.0 0
242578.0 568833.0 0
248040.0 568597.0 0
252623.0 569608.0 0
257318.0 569893.0 0
262624.0 569007.0 0
267454.0 568612.0 0
271389.0 571220.0 0
276610.0 570368.0 0
283887.0 568261.0 0
288942.0 568669.0 0
293063.0 569455.0 0
297275.0 569089.0 0
302305.0 568243.0 0
307500.0 569207.0 0
311433.0 569716.0 0
317497.0 569152.0 0
322538.0 569906.0 0
327464.0 569143.0 0
332186.0 569539.0 0
336928.0 569367.0 0
341971.0 568817.0 0
347787.0 570428.0 0
351948.0 569330.0 0
356080.0 570056.0 0
363185.0 568850.0 0
368161.0 569958.0 0
372326.0 568920.0 0
377177.0 569877.0 0
381714.0 569339.0 0
386201.0 569883.0 0
391873.0 569700.0 0
397819.0 569162.0 0
403441.0 569115.0 0
408090.0 569804.0 0
412466.0 569719.0 0
417258.0 568920.0 0
422122.0 568799.0 0
427039.0 570749.0 0
433068.0 569608.0 0
438703.0 568092.0 0
443851.0 568890.0 0
448577.0 570896.0 0
452826.0 568591.0 0
457194.0 570597.0 0
462326.0 569315.0 0
467254.0 569462.0 0
471683.0 568529.0 0
476038.0 568989.0 0
481134.0 568506.0 0
486673.0 569249.0 0
491902.0 569654.0 0
497280.0 569197.0 0
2729.68 575005.0 0
7732.07 574014.0 0
11837.0 574899.0 0
15629.7 574177.0 0
20375.3 574560.0 0
25535.8 574661.0 0
32327.1 574836.0 0
38964.7 572643.0 0
42935.9 576246.0 0
47870.8 573795.0 0
53047.6 572859.0 0
58054.7 574833.0 0
63779.5 573672.0 0
69351.7 574221.0 0
74258.0 574709.0 0
78729.0 573941.0 0
82764.0 574211.0 0
87225.0 574477.0 0
92728.6 574082.0 0
98362.0 574879.0 0
103714.0 574249.0 0
107500.0 574504.0 0
112147.0 574374.0 0
118738.0 574513.0 0
122582.0 574412.0 0
127951.0 573767.0 0
132494.0 573826.0 0
137357.0 573942.0 0
141584.0 574539.0 0
146779.0 574263.0 0
152219.0 575749.0 0
157002.0 574500.0 0
161284.0 576247.0 0
166094.0 575710.0 0
172539.0 574466.0 0
178247.0 573755.0 0
183146.0 574887.0 0
188457.0 573908.0 0
192886.0 574177.0 0
197500.0 574239.0 0
202500.0 574180.0 0
207672.0 572995.0 0
212430.0 574088.0 0
217852.0 574000.0 0
222012.0 574129.0 0
226791.0 574057.0 0
232107.0 572957.0 0
238063.0 574348.0 0
242708.0 574110.0 0
248070.0 573483.0 0
252351.0 573391.0 0
256806.0 574735.0 0
260917.0 573707.0 0
266095.0 573510.0 0
272808.0 575126.0 0
275903.0 574665.0 0
281295.0 573844.0 0
287430.0 573459.0 0
292876.0 574326.0 0
298175.0 573602.0 0
304126.0 572983.0 0
308880.0 574527.0 0
313449.0 573157.0 0
317592.0 573822.0 0
322043.0 575199.0 0
327043.0 573832.0 0
332500.0 574324.0 0
337130.0 574038.0 0
342113.0 574326.0 0
347130.0 574775.0 0
351668.0 573586.0 0
356829.0 574690.0 0
362681.0 575083.0 0
368042.0 574150.0 0
373075.0 574230.0 0
378386.0 574523.0 0
382382.0 573771.0 0
387207.0 575523.0 0
392407.0 574946.0 0
396613.0 574370.0 0
401325.0 574032.0 0
406402.0 573986.0 0
411692.0 574713.0 0
417379.0 574213.0 0
422516.0 573645.0 0
426978.0 576264.0 0
432064.0 575381.0 0
437855.0 573417.0 0
443808.0 574568.0 0
448767.0 575388.0 0
453272.0 574059.0 0
458080.0 574644.0 0
461965.0 574290.0 0
466968.0 574360.0 0
472194.0 573439.0 0
477614.0 573735.0 0
483605.0 573253.0 0
487820.0 573573.0 0
491786.0 574690.0 0
496668.0 574566.0 0
2193.24 579791.0 0
6969.55 579253.0 0
11380.6 579277.0 0
16408.7 579561.0 0
22169.7 579517.0 0
26836.8 579286.0 0
31660.1 582512.0 0
38093.6 579690.0 0
43854.5 580767.0 0
47418.0 578882.0 0
52299.0 578391.0 0
57653.3 580733.0 0
62839.5 578993.0 0
67683.7 579679.0 0
72734.5 579351.0 0
77877.8 579087.0 0
83350.3 578923.0 0
88577.1 579370.0 0
92889.1 578913.0 0
96799.6 579456.0 0
102239.0 579719.0 0
107256.0 578030.0 0
111746.0 580592.0 0
116600.0 578698.0 0
121435.0 579701.0 0
127039.0 579156.0 0
132679.0 578657.0 0
138115.0 578782.0 0
143780.0 579547.0 0
148932.0 578902.0 0
153087.0 580281.0 0
157623.0 579401.0 0
162603.0 579488.0 0
167350.0 581029.0 0
171253.0 579447.0 0
176195.0 578495.0 0
182281.0 580536.0 0
187757.0 578897.0 0
192858.0 578954.0 0
198067.0 579111.0 0
202551.0 579833.0 0
206816.0 577828.0 0
210940.0 580646.0 0
216225.0 579279.0 0
221765.0 578407.0 0
226369.0 579538.0 0
232279.0 579017.0 0
238236.0 579090.0 0
242274.0 582443.0 0
246454.0 578677.0 0
252945.0 578463.0 0
258370.0 579826.0 0
263358.0 578759.0 0
269055.0 578329.0 0
273605.0 578583.0 0
277741.0 578026.0 0
282949.0 580055.0 0
288196.0 578643.0 0
292655.0 580020.0 0
297003.0 578509.0 0
302568.0 579421.0 0
308114.0 579415.0 0
312366.0 577733.0 0
317810.0 579168.0 0
323563.0 580402.0 0
328598.0 578800.0 0
333818.0 579238.0 0
339072.0 579404.0 0
344157.0 579070.0 0
348968.0 579248.0 0
353257.0 577752.0 0
358316.0 580112.0 0
363595.0 580570.0 0
368081.0 578809.0 0
372351.0 579013.0 0
376938.0 579254.0 0
382384.0 578445.0 0
387498.0 579934.0 0
392500.0 579222.0 0
397088.0 579159.0 0
402357.0 579343.0 0
407768.0 579009.0 0
412324.0 579310.0 0
416557.0 579377.0 0
422121.0 579218.0 0
427506.0 580306.0 0
430887.0 579951.0 0
436444.0 579489.0 0
442776.0 580522.0 0
447285.0 578834.0 0
451870.0 579971.0 0
456940.0 578713.0 0
462296.0 579341.0 0
467668.0 579548.0 0
472991.0 578596.0 0
478213.0 579069.0 0
482817.0 577633.0 0
488254.0 578479.0 0
493186.0 579254.0 0
498095.0 578884.0 0
2785.29 584566.0 0
8189.07 584256.0 0
12754.4 584195.0 0
17043.6 584320.0 0
21086.7 584301.0 0
26007.3 585218.0 0
34045.9 587929.0 0
37465.5 585019.0 0
41950.4 584611.0 0
47637.1 584453.0 0
53293.6 584040.0 0
58843.6 585853.0 0
63612.4 584125.0 0
68294.1 584260.0 0
72449.1 584129.0 0
77313.8 584164.0 0
82144.3 584145.0 0
86380.4 583100.0 0
91382.7 583714.0 0
96817.5 583879.0 0
101657.0 585653.0 0
107604.0 585348.0 0
113594.0 585377.0 0
117172.0 583492.0 0
121228.0 584485.0 0
126000.0 584852.0 0
132173.0 584533.0 0
137897.0 584572.0 0
142975.0 585050.0 0
147910.0 583403.0 0
152852.0 584916.0 0
157698.0 584267.0 0
162825.0 584013.0 0
167739.0 585987.0 0
172576.0 583981.0 0
178027.0 583737.0 0
182293.0 585711.0 0
186284.0 583558.0 0
192477.0 583950.0 0
197495.0 584211.0 0
201983.0 584004.0 0
207608.0 584015.0 0
212748.0 584300.0 0
217493.0 585249.0 0
222234.0 583205.0 0
227571.0 584460.0 0
233044.0 584537.0 0
237905.0 584290.0 0
242379.0 586048.0 0
246891.0 583846.0 0
251524.0 584104.0 0
256096.0 583652.0 0
261385.0 584732.0 0
266902.0 582977.0 0
272087.0 583049.0 0
277615.0 583553.0 0
282664.0 586132.0 0
287832.0 583884.0 0
292759.0 584879.0 0
297759.0 583769.0 0
302556.0 584975.0 0
307080.0 584234.0 0
313094.0 583775.0 0
317952.0 583922.0 0
321937.0 585883.0 0
328680.0 584211.0 0
332935.0 584342.0 0
336577.0 584058.0 0
342074.0 584496.0 0
347418.0 584221.0 0
352903.0 583132.0 0
357647.0 585174.0 0
362301.0 585341.0 0
367591.0 584113.0 0
373299.0 583759.0 0
378030.0 584338.0 0
382287.0 583631.0 0
387500.0 584473.0 0
392500.0 584172.0 0
396449.0 584335.0 0
400165.0 583790.0 0
406201.0 584847.0 0
412762.0 583827.0 0
418320.0 584290.0 0
423379.0 584511.0 0
428135.0 584150.0 0
432947.0 584331.0 0
437686.0 585043.0 0
441715.0 584904.0 0
447398.0 584111.0 0
451982.0 585193.0 0
456571.0 583604.0 0
461472.0 585053.0 0
466247.0 584759.0 0
470523.0 583207.0 0
475720.0 583781.0 0
482175.0 583473.0 0
488273.0 583900.0 0
492562.0 585877.0 0
497010.0 583419.0 0
2500.0 589233.0 0
7428.72 589064.0 0
12332.3 588242.0 0
17625.0 588715.0 0
22500.0 589226.0 0
26302.7 589746.0 0
30392.0 591081.0 0
37453.9 590091.0 0
41870.5 589735.0 0
46746.4 589998.0 0
51816.8 589336.0 0
56965.6 589906.0 0
62459.1 589559.0 0
67843.8 589142.0 0
72879.4 588645.0 0
77066.6 589298.0 0
81764.4 589302.0 0
87445.0 588046.0 0
92879.5 589390.0 0
97805.3 589160.0 0
102880.0 590737.0 0
107192.0 590409.0 0
111512.0 589555.0 0
117265.0 589172.0 0
123060.0 589147.0 0
128700.0 589917.0 0
133978.0 589749.0 0
137854.0 589307.0 0
142169.0 589234.0 0
148093.0 589084.0 0
153449.0 589780.0 0
157979.0 588733.0 0
162414.0 589128.0 0
166284.0 590291.0 0
172148.0 588215.0 0
177854.0 589199.0 0
183237.0 590605.0 0
188127.0 588344.0 0
193630.0 589527.0 0
198592.0 588463.0 0
203617.0 589021.0 0
208890.0 589576.0 0
213390.0 588389.0 0
217509.0 589649.0 0
222678.0 588645.0 0
226880.0 589414.0 0
231285.0 589718.0 0
236677.0 588876.0 0
241181.0 589896.0 0
245503.0 588000.0 0
250836.0 589261.0 0
256732.0 589393.0 0
262382.0 590595.0 0
266535.0 587808.0 0
272381.0 588810.0 0
278141.0 589272.0 0
283619.0 591343.0 0
288789.0 589431.0 0
293775.0 589315.0 0
298491.0 589026.0 0
302748.0 588862.0 0
307071.0 589330.0 0
312313.0 589985.0 0
317446.0 588580.0 0
322356.0 590702.0 0
326422.0 588764.0 0
331989.0 588598.0 0
337884.0 589287.0 0
343114.0 589724.0 0
346684.0 589184.0 0
351339.0 589225.0 0
358004.0 589538.0 0
362586.0 590217.0 0
367345.0 589461.0 0
372654.0 589351.0 0
377591.0 589145.0 0
382986.0 588695.0 0
387603.0 589182.0 0
391133.0 590038.0 0
395411.0 588836.0 0
401365.0 588598.0 0
405522.0 591033.0 0
410752.0 589720.0 0
417212.0 590176.0 0
423456.0 590024.0 0
428824.0 588856.0 0
433434.0 589157.0 0
438535.0 590030.0 0
444024.0 588582.0 0
448503.0 589432.0 0
451885.0 589376.0 0
456888.0 589597.0 0
462401.0 589683.0 0
466443.0 590124.0 0
470762.0 588149.0 0
476566.0 590044.0 0
482871.0 589958.0 0
488534.0 589056.0 0
492796.0 589502.0 0
497116.0 589082.0 0
2519.63 594047.0 0
7793.47 593481.0 0
12869.4 592766.0 0
17228.3 593555.0 0
22386.2 593478.0 0
27423.0 594088.0 0
33521.0 594967.0 0
38104.4 594064.0 0
42819.7 595053.0 0
47500.0 594286.0 0
51827.6 594983.0 0
58057.7 594625.0 0
63599.9 595063.0 0
68193.6 594211.0 0
72908.7 593249.0 0
77418.8 594257.0 0
80781.5 594332.0 0
86407.2 594245.0 0
92910.2 594420.0 0
98354.4 594494.0 0
102955.0 594749.0 0
107598.0 594186.0 0
112501.0 594141.0 0
117516.0 594877.0 0
122500.0 594245.0 0
126807.0 594932.0 0
132287.0 594287.0 0
137259.0 593882.0 0
141168.0 594892.0 0
145205.0 594159.0 0
151199.0 593762.0 0
157043.0 594045.0 0
162864.0 593546.0 0
167878.0 594662.0 0
173393.0 593677.0 0
179128.0 595157.0 0
183251.0 594452.0 0
186968.0 593623.0 0
191990.0 594518.0 0
197075.0 593308.0 0
202090.0 594257.0 0
207568.0 594910.0 0
213020.0 592656.0 0
217498.0 594209.0 0
221555.0 593555.0 0
226836.0 593974.0 0
231457.0 594718.0 0
236794.0 594333.0 0
241465.0 594637.0 0
246688.0 593824.0 0
253262.0 594800.0 0
258084.0 594582.0 0
262388.0 595316.0 0
267745.0 592642.0 0
273132.0 594861.0 0
278286.0 594151.0 0
285186.0 595544.0 0
288763.0 594044.0 0
292183.0 592858.0 0
296574.0 593806.0 0
302434.0 593800.0 0
308133.0 594349.0 0
313648.0 595677.0 0
318682.0 593337.0 0
323106.0 595247.0 0
328335.0 593960.0 0
334154.0 593699.0 0
338129.0 594901.0 0
342776.0 594989.0 0
348224.0 593853.0 0
354226.0 594114.0 0
358456.0 594357.0 0
362435.0 594305.0 0
366848.0 594553.0 0
372135.0 594753.0 0
377572.0 593396.0 0
381365.0 593262.0 0
386947.0 594167.0 0
391712.0 593494.0 0
396729.0 594616.0 0
402217.0 592644.0 0
407709.0 595134.0 0
413073.0 595587.0 0
418014.0 595384.0 0
421997.0 594985.0 0
427612.0 593212.0 0
431908.0 594190.0 0
436862.0 595466.0 0
442506.0 593981.0 0
447976.0 593903.0 0
453119.0 594480.0 0
457928.0 595381.0 0
462274.0 594056.0 0
466550.0 594387.0 0
471462.0 593660.0 0
477237.0 595934.0 0
481450.0 594753.0 0
485686.0 594417.0 0
491549.0 594374.0 0
497384.0 594366.0 0
2091.82 598247.0 0
6783.2 598456.0 0
12452.3 598082.0 0
18266.6 598535.0 0
23847.0 598284.0 0
29414.1 598418.0 0
34565.0 599945.0 0
38990.4 599000.0 0
42994.0 599781.0 0
47388.4 598961.0 0
51911.6 599826.0 0
56774.6 599840.0 0
61950.9 600143.0 0
66483.7 599292.0 0
71574.1 598364.0 0
77052.7 597812.0 0
82183.3 599329.0 0
88206.2 600611.0 0
93313.5 598524.0 0
97500.0 599320.0 0
102500.0 599113.0 0
107510.0 598675.0 0
112421.0 598478.0 0
117500.0 599514.0 0
122468.0 598557.0 0
127608.0 599944.0 0
132515.0 599119.0 0
137746.0 598809.0 0
142227.0 598778.0 0
147970.0 599087.0 0
153205.0 598096.0 0
157588.0 599964.0 0
162224.0 598423.0 0
166581.0 599126.0 0
171711.0 599286.0 0
176725.0 599503.0 0
180823.0 599619.0 0
185477.0 598584.0 0
190934.0 599267.0 0
195993.0 598819.0 0
201748.0 599901.0 0
206895.0 600155.0 0
212707.0 598574.0 0
218338.0 600167.0 0
223000.0 598277.0 0
227930.0 599764.0 0
232999.0 599084.0 0
238200.0 600188.0 0
243587.0 599208.0 0
248572.0 599130.0 0
252663.0 600384.0 0
256522.0 598487.0 0
260929.0 600038.0 0
267440.0 599149.0 0
273013.0 600536.0 0
276565.0 599226.0 0
281336.0 598193.0 0
286639.0 599880.0 0
292221.0 597980.0 0
298238.0 599600.0 0
303349.0 598838.0 0
307664.0 599208.0 0
312199.0 601277.0 0
318002.0 599329.0 0
322708.0 599436.0 0
327356.0 599465.0 0
331950.0 598193.0 0
337196.0 599105.0 0
341606.0 600174.0 0
347114.0 599466.0 0
353084.0 599325.0 0
358229.0 598398.0 0
363174.0 598930.0 0
367934.0 598929.0 0
372500.0 599580.0 0
376791.0 597549.0 0
383105.0 598472.0 0
388505.0 599404.0 0
393035.0 598233.0 0
397196.0 599394.0 0
402186.0 597519.0 0
408449.0 599818.0 0
412713.0 600534.0 0
417500.0 599218.0 0
422845.0 599070.0 0
428282.0 597798.0 0
432500.0 599403.0 0
439083.0 599669.0 0
443696.0 598554.0 0
448101.0 598988.0 0
452500.0 599188.0 0
457443.0 599929.0 0
461954.0 599215.0 0
466632.0 599181.0 0
472420.0 599409.0 0
477309.0 601001.0 0
481821.0 599421.0 0
487524.0 599362.0 0
492897.0 600313.0 0
497602.0 599188.0 0
3503.79 603800.0 0
8687.46 605297.0 0
12430.9 603420.0 0
18003.7 604658.0 0
23541.9 603655.0 0
28703.1 604003.0 0
33259.0 604140.0 0
37952.2 604222.0 0
43086.1 604203.0 0
47638.4 604070.0 0
52161.6 604370.0 0
57022.4 605160.0 0
61799.2 604824.0 0
66328.8 604331.0 0
71498.2 604192.0 0
78028.2 604628.0 0
83930.6 604307.0 0
87628.6 605690.0 0
93695.9 602659.0 0
98799.5 603923.0 0
103431.0 604738.0 0
108000.0 603712.0 0
113281.0 603400.0 0
117862.0 604223.0 0
122791.0 602918.0 0
127424.0 604921.0 0
131828.0 603864.0 0
135949.0 602742.0 0
140548.0 603373.0 0
145717.0 604151.0 0
152406.0 604113.0 0
158085.0 604849.0 0
162827.0 603587.0 0
168346.0 603585.0 0
173948.0 604684.0 0
179035.0 603373.0 0
183706.0 604552.0 0
188503.0 602713.0 0
193490.0 604375.0 0
198430.0 603657.0 0
202638.0 604700.0 0
207374.0 605228.0 0
212776.0 604955.0 0
217846.0 604565.0 0
222485.0 603589.0 0
227219.0 604384.0 0
232285.0 604480.0 0
237193.0 604933.0 0
241816.0 604327.0 0
247045.0 603440.0 0
251557.0 604406.0 0
256721.0 603977.0 0
261855.0 604485.0 0
266743.0 605867.0 0
272618.0 605099.0 0
277665.0 604223.0 0
282478.0 603370.0 0
287361.0 604974.0 0
293288.0 604370.0 0
298605.0 604649.0 0
303188.0 603704.0 0
308063.0 604141.0 0
311484.0 605776.0 0
315749.0 605420.0 0
320527.0 603945.0 0
326058.0 604945.0 0
333078.0 604232.0 0
338942.0 604983.0 0
343170.0 604217.0 0
347011.0 604364.0 0
351379.0 604520.0 0
357260.0 603692.0 0
362731.0 603993.0 0
367901.0 603785.0 0
373059.0 603320.0 0
377724.0 602474.0 0
382583.0 604512.0 0
387746.0 604284.0 0
392412.0 603099.0 0
397390.0 603763.0 0
403153.0 603778.0 0
407728.0 604193.0 0
411492.0 605001.0 0
416365.0 604183.0 0
421474.0 603768.0 0
426907.0 602939.0 0
431593.0 605201.0 0
436244.0 603420.0 0
442645.0 604005.0 0
449475.0 604658.0 0
454839.0 604091.0 0
459000.0 604538.0 0
462936.0 603414.0 0
467227.0 604085.0 0
471554.0 604345.0 0
475661.0 604677.0 0
480399.0 605022.0 0
485952.0 604838.0 0
491634.0 604520.0 0
496713.0 604499.0 0
3155.23 610367.0 0
8323.64 609471.0 0
13386.0 608602.0 0
17962.5 610806.0 0
22707.0 609129.0 0
28047.5 609021.0 0
33406.1 608941.0 0
38422.8 609274.0 0
42500.0 609259.0 0
47500.0 609095.0 0
52500.0 609154.0 0
57509.0 610441.0 0
62691.4 609283.0 0
66955.6 609290.0 0
72921.7 610166.0 0
78297.2 610429.0 0
82462.9 609084.0 0
86943.5 609588.0 0
91873.9 607967.0 0
97587.9 609198.0 0
102254.0 609257.0 0
107407.0 609561.0 0
113415.0 608768.0 0
117719.0 609681.0 0
121677.0 607974.0 0
126466.0 610111.0 0
130666.0 608002.0 0
136283.0 608376.0 0
142340.0 608308.0 0
148162.0 609785.0 0
153279.0 609455.0 0
157302.0 609252.0 0
162775.0 609680.0 0
168751.0 608984.0 0
173944.0 609849.0 0
178742.0 608376.0 0
183271.0 610102.0 0
188524.0 608302.0 0
193617.0 609485.0 0
198140.0 608645.0 0
202957.0 609115.0 0
206733.0 609506.0 0
210657.0 609516.0 0
216422.0 608932.0 0
222297.0 609439.0 0
228139.0 608961.0 0
232581.0 609069.0 0
237231.0 609657.0 0
242338.0 609215.0 0
247572.0 608754.0 0
253153.0 608679.0 0
257864.0 609294.0 0
261635.0 608253.0 0
265193.0 610898.0 0
272271.0 609681.0 0
276301.0 608655.0 0
282119.0 609225.0 0
287453.0 609352.0 0
291641.0 609790.0 0
297130.0 608926.0 0
304256.0 609301.0 0
308681.0 609502.0 0
312896.0 609714.0 0
317779.0 609393.0 0
322500.0 609381.0 0
328975.0 609425.0 0
333215.0 610300.0 0
337202.0 609102.0 0
341176.0 608580.0 0
346104.0 608947.0 0
352132.0 610376.0 0
357243.0 608920.0 0
361896.0 608908.0 0
367290.0 610058.0 0
372125.0 607965.0 0
377689.0 608003.0 0
383685.0 610509.0 0
388749.0 610095.0 0
392816.0 608183.0 0
398386.0 609468.0 0
403643.0 608718.0 0
407500.0 609326.0 0
411715.0 609271.0 0
415807.0 608965.0 0
420916.0 609243.0 0
427383.0 609372.0 0
432837.0 609167.0 0
437953.0 609212.0 0
444049.0 609878.0 0
448846.0 610799.0 0
453533.0 608887.0 0
458294.0 608625.0 0
462212.0 607510.0 0
466494.0 609163.0 0
471560.0 608793.0 0
477481.0 609143.0 0
482450.0 610032.0 0
489750.0 608482.0 0
493167.0 609894.0 0
497163.0 610310.0 0
2171.91 615489.0 0
6264.81 614562.0 0
11552.9 614497.0 0
17536.3 615225.0 0
22661.4 614694.0 0
28067.3 613980.0 0
33180.5 614282.0 0
38155.8 613885.0 0
43119.5 614135.0 0
47502.3 614178.0 0
52500.0 614097.0 0
57533.1 614871.0 0
62295.1 614336.0 0
67591.7 613601.0 0
71916.2 615827.0 0
77200.2 614524.0 0
81823.3 614140.0 0
86413.4 613771.0 0
91864.7 614268.0 0
97930.8 614576.0 0
102842.0 613841.0 0
107305.0 615455.0 0
111593.0 613415.0 0
116048.0 613544.0 0
121354.0 613761.0 0
126526.0 614987.0 0
131968.0 613839.0 0
137918.0 614219.0 0
143320.0 613906.0 0
149430.0 615190.0 0
153464.0 613328.0 0
157756.0 614105.0 0
162142.0 615228.0 0
166505.0 613705.0 0
171271.0 613639.0 0
176665.0 614305.0 0
181481.0 614159.0 0
186756.0 614579.0 0
192051.0 613107.0 0
197023.0 614478.0 0
202370.0 612745.0 0
207979.0 614297.0 0
213653.0 613248.0 0
218292.0 613102.0 0
222113.0 614812.0 0
226610.0 613809.0 0
232286.0 614049.0 0
237249.0 616217.0 0
241026.0 613653.0 0
246679.0 614776.0 0
252781.0 614193.0 0
257576.0 613455.0 0
262343.0 615389.0 0
269478.0 613819.0 0
273647.0 616016.0 0
277021.0 613264.0 0
282128.0 616007.0 0
288263.0 614117.0 0
294232.0 614395.0 0
300134.0 613600.0 0
303658.0 617000.0 0
307546.0 614176.0 0
312902.0 614793.0 0
317960.0 613909.0 0
322219.0 615072.0 0
326174.0 613266.0 0
331270.0 614933.0 0
336395.0 613789.0 0
342215.0 613966.0 0
347895.0 614221.0 0
352245.0 615843.0 0
357453.0 614223.0 0
362999.0 613887.0 0
367551.0 615435.0 0
372208.0 613185.0 0
377582.0 613691.0 0
382303.0 616775.0 0
387749.0 614936.0 0
393295.0 613757.0 0
398056.0 616117.0 0
403730.0 614127.0 0
409186.0 615036.0 0
413546.0 613430.0 0
417940.0 614619.0 0
422149.0 614325.0 0
427322.0 615949.0 0
432406.0 613821.0 0
436481.0 613888.0 0
442408.0 614967.0 0
447341.0 614037.0 0
451732.0 614611.0 0
455786.0 613050.0 0
461730.0 613762.0 0
468384.0 614613.0 0
474283.0 613716.0 0
479420.0 613874.0 0
482321.0 616915.0 0
487200.0 613863.0 0
493579.0 614738.0 0
498341.0 614632.0 0
2127.86 619670.0 0
3681.39 624042.0 0
6617.13 619313.0 0
7787.21 624490.0 0
11566.4 621191.0 0
13734.5 626163.0 0
16933.3 619660.0 0
17197.2 624080.0 0
21303.3 619462.0 0
22337.8 624735.0 0
26101.8 618762.0 0
27887.0 623306.0 0
31956.5 619538.0 0
32622.1 625185.0 0
37723.2 618956.0 0
38092.0 624281.0 0
42833.1 619234.0 0
43232.0 624187.0 0
48297.0 619050.0 0
47944.9 624437.0 0
52981.2 619276.0 0
52500.0 624208.0 0
57499.7 619130.0 0
57228.7 624128.0 0
62500.2 619189.0 0
62289.7 623480.0 0
67366.7 619199.0 0
66944.3 624387.0 0
73772.7 619813.0 0
71959.1 624420.0 0
77241.4 618910.0 0
77405.3 622942.0 0
81139.9 619209.0 0
82500.0 624360.0 0
86783.0 618925.0 0
87210.5 624230.0 0
92874.6 620705.0 0
91718.2 626360.0 0
98330.1 619616.0 0
97500.0 624199.0 0
102999.0 618585.0 0
102500.0 624116.0 0
107181.0 620934.0 0
106681.0 624919.0 0
112081.0 618667.0 0
111076.0 624299.0 0
117559.0 617994.0 0
117536.0 623572.0 0
122486.0 620332.0 0
126841.0 618918.0 0
122714.0 625606.0 0
127196.0 624034.0 0
131111.0 619973.0 0
132109.0 625279.0 0
135119.0 618194.0 0
137207.0 625087.0 0
140150.0 619891.0 0
143977.0 624036.0 0
146747.0 619689.0 0
148905.0 625298.0 0
153404.0 619282.0 0
154146.0 624932.0 0
159263.0 619035.0 0
158417.0 623712.0 0
162886.0 621577.0 0
162346.0 625707.0 0
166764.0 618809.0 0
166657.0 624051.0 0
172184.0 618536.0 0
172279.0 624258.0 0
177626.0 620730.0 0
177887.0 626610.0 0
183058.0 619129.0 0
181526.0 624072.0 0
188142.0 620267.0 0
185728.0 624656.0 0
192533.0 617656.0 0
191991.0 623681.0 0
197002.0 620989.0 0
197790.0 626022.0 0
202449.0 617755.0 0
201734.0 623135.0 0
207618.0 620571.0 0
206916.0 625167.0 0
213014.0 618938.0 0
211545.0 624545.0 0
218483.0 617770.0 0
217393.0 623422.0 0
223481.0 619443.0 0
223371.0 625074.0 0
229072.0 619337.0 0
228828.0 624750.0 0
234050.0 618932.0 0
233890.0 623615.0 0
237413.0 620376.0 0
238000.0 624484.0 0
241588.0 618863.0 0
242409.0 624586.0 0
247137.0 620909.0 0
249106.0 625657.0 0
252714.0 619619.0 0
253337.0 624590.0 0
257478.0 617975.0 0
257815.0 623025.0 0
262143.0 620700.0 0
260632.0 625819.0 0
267974.0 619809.0 0
264725.0 625234.0 0
273740.0 620431.0 0
271343.0 624592.0 0
278075.0 619650.0 0
277194.0 625030.0 0
282817.0 622272.0 0
282283.0 626949.0 0
286516.0 619160.0 0
288008.0 624367.0 0
291405.0 619713.0 0
294364.0 624609.0 0
297903.0 619596.0 0
299541.0 625121.0 0
303299.0 620787.0 0
303816.0 624479.0 0
307769.0 619458.0 0
307500.0 624236.0 0
312453.0 619635.0 0
312012.0 623936.0 0
316740.0 618340.0 0
316889.0 622889.0 0
320908.0 619189.0 0
322768.0 623583.0 0
327008.0 619628.0 0
327390.0 625594.0 0
333438.0 620122.0 0
332157.0 624586.0 0
338422.0 617882.0 0
338275.0 622358.0 0
342639.0 619606.0 0
342563.0 624579.0 0
347294.0 619158.0 0
347235.0 624055.0 0
352409.0 620425.0 0
351981.0 625318.0 0
357439.0 619904.0 0
356352.0 624185.0 0
362453.0 618788.0 0
360968.0 623698.0 0
366692.0 619606.0 0
366931.0 624657.0 0
371133.0 618893.0 0
376694.0 619155.0 0
373256.0 624196.0 0
379571.0 624552.0 0
382659.0 621354.0 0
384700.0 625576.0 0
386586.0 619921.0 0
389121.0 624381.0 0
391929.0 619645.0 0
393674.0 626309.0 0
396668.0 620109.0 0
397251.0 623744.0 0
401654.0 620525.0 0
401139.0 626475.0 0
407187.0 618891.0 0
406729.0 624261.0 0
411936.0 618530.0 0
413418.0 624477.0 0
417054.0 619162.0 0
418627.0 624823.0 0
422619.0 619648.0 0
421965.0 624303.0 0
427468.0 621149.0 0
425880.0 625186.0 0
432251.0 619414.0 0
430842.0 624494.0 0
437670.0 618106.0 0
437112.0 624377.0 0
442316.0 620377.0 0
443538.0 624932.0 0
447715.0 618494.0 0
448717.0 624548.0 0
451875.0 621247.0 0
453580.0 624576.0 0
456174.0 618613.0 0
458468.0 624446.0 0
461849.0 620277.0 0
463140.0 624180.0 0
466554.0 619332.0 0
467265.0 624104.0 0
472378.0 620127.0 0
472021.0 626268.0 0
478102.0 619121.0 0
476984.0 623287.0 0
481540.0 620491.0 0
481476.0 624338.0 0
486544.0 620592.0 0
486995.0 625982.0 0
491874.0 619660.0 0
492028.0 624240.0 0
497020.0 619563.0 0
497186.0 625213.0 0
2628.92 629097.0 0
6999.11 629246.0 0
11203.9 629764.0 0
17421.5 629051.0 0
21819.5 629893.0 0
27818.0 628967.0 0
33695.0 629669.0 0
37906.1 629429.0 0
42500.0 629181.0 0
46927.6 629133.0 0
51594.3 629051.0 0
56427.7 629283.0 0
61935.2 629429.0 0
68026.3 629169.0 0
73203.3 629438.0 0
78706.7 628616.0 0
83157.6 628937.0 0
87181.9 629009.0 0
91240.0 630824.0 0
97500.0 629149.0 0
102500.0 629141.0 0
107500.0 629130.0 0
112216.0 629057.0 0
117389.0 629513.0 0
122539.0 630225.0 0
126678.0 628991.0 0
131437.0 631001.0 0
136334.0 629512.0 0
141598.0 628676.0 0
147302.0 630762.0 0
152662.0 629615.0 0
158534.0 629480.0 0
163631.0 629734.0 0
167804.0 628795.0 0
173294.0 630577.0 0
178389.0 630952.0 0
181440.0 629184.0 0
186387.0 630198.0 0
192829.0 629366.0 0
198037.0 630339.0 0
202758.0 628189.0 0
207773.0 629016.0 0
212183.0 629639.0 0
217561.0 629375.0 0
222735.0 630481.0 0
228051.0 630095.0 0
233051.0 628561.0 0
237198.0 628951.0 0
241505.0 630152.0 0
245944.0 628437.0 0
252180.0 629397.0 0
257741.0 628745.0 0
262517.0 629355.0 0
268352.0 629378.0 0
273417.0 629287.0 0
277684.0 630581.0 0
282149.0 630409.0 0
285895.0 628890.0 0
291540.0 629681.0 0
297719.0 630346.0 0
302560.0 628492.0 0
306380.0 630398.0 0
311582.0 629073.0 0
317686.0 628722.0 0
323209.0 628393.0 0
326861.0 632472.0 0
331279.0 629046.0 0
337384.0 628142.0 0
343712.0 630083.0 0
348661.0 628564.0 0
352841.0 630104.0 0
357955.0 628682.0 0
362870.0 628097.0 0
366512.0 630021.0 0
371216.0 629745.0 0
376795.0 629804.0 0
382843.0 629275.0 0
387666.0 629438.0 0
392190.0 630253.0 0
397076.0 629784.0 0
403014.0 631349.0 0
408332.0 630027.0 0
413056.0 630128.0 0
417300.0 629310.0 0
422475.0 628768.0 0
428024.0 629772.0 0
432946.0 628458.0 0
437243.0 630465.0 0
442404.0 629821.0 0
447277.0 630285.0 0
451629.0 628936.0 0
456925.0 630370.0 0
462358.0 628495.0 0
467522.0 629340.0 0
472018.0 631406.0 0
477158.0 628121.0 0
482566.0 629467.0 0
487551.0 630507.0 0
492546.0 628608.0 0
497629.0 629919.0 0
3527.33 635111.0 0
9092.04 634161.0 0
13702.1 634073.0 0
18671.2 634158.0 0
23033.4 633907.0 0
27483.6 635039.0 0
32775.9 634128.0 0
37706.3 634154.0 0
42434.7 634178.0 0
47673.2 634051.0 0
52687.5 633772.0 0
57106.1 633932.0 0
61367.7 635385.0 0
65714.9 634184.0 0
70749.7 634123.0 0
76968.9 635003.0 0
83411.4 633212.0 0
89026.5 634631.0 0
93971.4 633236.0 0
98199.0 634288.0 0
102747.0 634115.0 0
106525.0 634547.0 0
111392.0 634210.0 0
118040.0 635800.0 0
122819.0 634359.0 0
126932.0 634250.0 0
132500.0 636238.0 0
137041.0 634170.0 0
143134.0 634644.0 0
147391.0 634767.0 0
152981.0 634756.0 0
157581.0 634773.0 0
162138.0 634160.0 0
167382.0 633894.0 0
172278.0 636418.0 0
176873.0 634821.0 0
180931.0 633654.0 0
185010.0 636022.0 0
190266.0 634644.0 0
195629.0 634583.0 0
201502.0 634379.0 0
207669.0 633945.0 0
213147.0 634568.0 0
218798.0 635288.0 0
223940.0 634699.0 0
228043.0 636272.0 0
232661.0 633727.0 0
237405.0 632877.0 0
241407.0 635680.0 0
246910.0 633442.0 0
251761.0 633912.0 0
257109.0 635046.0 0
263244.0 633734.0 0
268331.0 634459.0 0
273898.0 634838.0 0
279321.0 634668.0 0
282903.0 635599.0 0
287336.0 634204.0 0
292803.0 635331.0 0
296821.0 634976.0 0
302500.0 634135.0 0
307519.0 634266.0 0
312896.0 633777.0 0
317656.0 634743.0 0
322551.0 634312.0 0
329339.0 635872.0 0
332382.0 634137.0 0
337994.0 634471.0 0
342774.0 635139.0 0
346506.0 634427.0 0
351040.0 634817.0 0
356018.0 633643.0 0
362266.0 633997.0 0
368653.0 634391.0 0
373685.0 635087.0 0
379092.0 634932.0 0
383784.0 633303.0 0
387781.0 634213.0 0
392414.0 634064.0 0
397526.0 634321.0 0
401772.0 635819.0 0
406263.0 634980.0 0
411105.0 634676.0 0
416650.0 634975.0 0
422437.0 634225.0 0
427845.0 635358.0 0
433269.0 634008.0 0
438582.0 635439.0 0
443657.0 634897.0 0
448480.0 634673.0 0
453310.0 634719.0 0
458273.0 635278.0 0
462992.0 634435.0 0
467679.0 634210.0 0
471073.0 635629.0 0
476619.0 634019.0 0
482041.0 634691.0 0
486699.0 635205.0 0
491815.0 633717.0 0
497286.0 634635.0 0
2146.48 639814.0 0
6245.05 640111.0 0
11281.2 638956.0 0
17271.3 639413.0 0
22276.5 638910.0 0
27471.8 640977.0 0
33493.3 639533.0 0
38575.7 639281.0 0
43033.1 639187.0 0
47558.6 639352.0 0
52591.7 638494.0 0
57500.0 639297.0 0
62812.4 639542.0 0
67531.0 639007.0 0
72620.7 638823.0 0
76563.7 640643.0 0
82103.9 639746.0 0
88033.6 639177.0 0
93688.8 638281.0 0
98294.3 638993.0 0
102488.0 638805.0 0
107119.0 639201.0 0
112915.0 639982.0 0
118071.0 641655.0 0
122739.0 639364.0 0
127452.0 638974.0 0
131390.0 639386.0 0
135426.0 639329.0 0
140862.0 640195.0 0
149104.0 638538.0 0
153714.0 638871.0 0
157785.0 639333.0 0
162500.0 639168.0 0
167643.0 638948.0 0
171581.0 640969.0 0
177496.0 639399.0 0
181660.0 639375.0 0
186950.0 641734.0 0
192486.0 639425.0 0
197410.0 639232.0 0
202781.0 640724.0 0
208597.0 639505.0 0
213883.0 639631.0 0
218963.0 640505.0 0
223856.0 639533.0 0
228597.0 640337.0 0
233026.0 638923.0 0
237424.0 638542.0 0
241960.0 639684.0 0
245967.0 639052.0 0
251757.0 638821.0 0
257394.0 640887.0 0
261191.0 638895.0 0
266202.0 639059.0 0
272483.0 639630.0 0
276978.0 639169.0 0
281199.0 639187.0 0
285998.0 639854.0 0
291855.0 639902.0 0
297183.0 639564.0 0
302894.0 639100.0 0
307868.0 639341.0 0
312279.0 637852.0 0
316603.0 640102.0 0
322094.0 638914.0 0
327196.0 638857.0 0
331513.0 639150.0 0
336431.0 640145.0 0
342914.0 639336.0 0
347500.0 639161.0 0
351895.0 639556.0 0
357521.0 637872.0 0
361616.0 640369.0 0
366424.0 638860.0 0
371599.0 640165.0 0
377525.0 640708.0 0
384002.0 639013.0 0
389765.0 639997.0 0
394728.0 638505.0 0
399516.0 639191.0 0
403377.0 639935.0 0
407890.0 639567.0 0
412909.0 639355.0 0
417747.0 640035.0 0
422524.0 639409.0 0
428257.0 640095.0 0
432245.0 638814.0 0
436538.0 639909.0 0
441705.0 639609.0 0
446990.0 639129.0 0
451855.0 639498.0 0
457351.0 639905.0 0
462578.0 639801.0 0
467688.0 638959.0 0
472890.0 639343.0 0
477887.0 639557.0 0
483241.0 639376.0 0
487600.0 639300.0 0
493176.0 639507.0 0
497833.0 639073.0 0
2734.86 643851.0 0
8439.97 644560.0 0
14054.1 644074.0 0
19033.0 644696.0 0
23110.8 643885.0 0
28071.7 646204.0 0
32402.6 644325.0 0
37500.0 644344.0 0
41900.0 643984.0 0
46197.2 644371.0 0
51391.3 643828.0 0
56922.2 644375.0 0
61723.9 643775.0 0
66712.5 644585.0 0
72731.3 644322.0 0
78715.1 644592.0 0
82724.5 645189.0 0
86425.1 643270.0 0
91425.1 643912.0 0
97620.1 643579.0 0
103801.0 644568.0 0
108927.0 643328.0 0
113926.0 645343.0 0
117474.0 645040.0 0
122114.0 643778.0 0
126943.0 644097.0 0
132172.0 644225.0 0
136666.0 643975.0 0
141262.0 646153.0 0
146740.0 643894.0 0
152718.0 642890.0 0
157437.0 644231.0 0
161802.0 644393.0 0
167451.0 644867.0 0
173505.0 644943.0 0
178297.0 644204.0 0
182627.0 644711.0 0
185888.0 646974.0 0
193975.0 644338.0 0
198348.0 643646.0 0
202591.0 646437.0 0
207267.0 644610.0 0
211515.0 643557.0 0
216170.0 644748.0 0
221411.0 644468.0 0
226742.0 644828.0 0
231431.0 643031.0 0
236719.0 643922.0 0
242551.0 643363.0 0
247950.0 644291.0 0
253348.0 644181.0 0
257963.0 646100.0 0
262805.0 643827.0 0
269319.0 644782.0 0
275232.0 643418.0 0
279403.0 643170.0 0
283487.0 644700.0 0
288915.0 644406.0 0
293648.0 643879.0 0
298008.0 644946.0 0
302312.0 643665.0 0
306980.0 644312.0 0
311980.0 643601.0 0
318126.0 644255.0 0
322898.0 644550.0 0
328153.0 643591.0 0
332549.0 643271.0 0
337057.0 645995.0 0
342490.0 643414.0 0
346693.0 644317.0 0
350514.0 644025.0 0
356255.0 643553.0 0
364091.0 644610.0 0
368762.0 644585.0 0
373225.0 644407.0 0
377698.0 646667.0 0
381499.0 643878.0 0
387243.0 644217.0 0
392768.0 644133.0 0
397720.0 642996.0 0
402002.0 643969.0 0
406704.0 644622.0 0
411759.0 644126.0 0
416743.0 644748.0 0
421300.0 643606.0 0
425888.0 644012.0 0
431622.0 643950.0 0
437230.0 644809.0 0
442838.0 645134.0 0
448645.0 644097.0 0
454012.0 643994.0 0
459178.0 644566.0 0
463169.0 644024.0 0
467495.0 644075.0 0
472500.0 644146.0 0
478943.0 644114.0 0
483140.0 643835.0 0
487327.0 644197.0 0
491545.0 644146.0 0
496998.0 643378.0 0
2389.08 648905.0 0
6858.0 649163.0 0
12158.3 649885.0 0
17330.2 648992.0 0
22190.0 648651.0 0
27055.9 650421.0 0
31777.8 649008.0 0
36791.0 649263.0 0
42253.8 649128.0 0
47679.7 649108.0 0
52750.4 649386.0 0
57685.6 649266.0 0
62469.2 648624.0 0
66541.0 648983.0 0
70775.3 650512.0 0
76024.6 649043.0 0
81060.4 649789.0 0
87240.3 648952.0 0
94309.5 648885.0 0
99513.7 649193.0 0
103344.0 649349.0 0
108062.0 647880.0 0
112856.0 650274.0 0
117526.0 648991.0 0
122539.0 648298.0 0
127505.0 649332.0 0
132456.0 648913.0 0
136965.0 649231.0 0
143160.0 651077.0 0
148493.0 649316.0 0
153752.0 647906.0 0
158130.0 649315.0 0
162500.0 649518.0 0
167152.0 650995.0 0
172381.0 649226.0 0
176850.0 649161.0 0
181643.0 648915.0 0
185427.0 650763.0 0
190893.0 649569.0 0
197498.0 648685.0 0
202271.0 651181.0 0
207012.0 649974.0 0
212052.0 648363.0 0
218030.0 650219.0 0
223161.0 649214.0 0
227289.0 649557.0 0
231758.0 648113.0 0
236423.0 649155.0 0
241188.0 649075.0 0
246895.0 649895.0 0
252541.0 649578.0 0
257645.0 651047.0 0
261863.0 648995.0 0
266448.0 650297.0 0
273359.0 649997.0 0
278229.0 647639.0 0
281684.0 649523.0 0
286248.0 649867.0 0
292221.0 648920.0 0
297885.0 650441.0 0
302854.0 648041.0 0
307546.0 649321.0 0
312765.0 649767.0 0
318282.0 648914.0 0
322516.0 650518.0 0
326894.0 648804.0 0
332010.0 647641.0 0
336746.0 650822.0 0
342910.0 648426.0 0
348045.0 649865.0 0
352656.0 648849.0 0
358891.0 649075.0 0
363744.0 649298.0 0
367992.0 648728.0 0
372539.0 648682.0 0
377398.0 651082.0 0
382705.0 647591.0 0
386538.0 649098.0 0
390804.0 648740.0 0
396995.0 648345.0 0
403120.0 649062.0 0
408366.0 649118.0 0
412810.0 649141.0 0
417023.0 649303.0 0
421796.0 648668.0 0
428151.0 648852.0 0
433505.0 649202.0 0
438698.0 649951.0 0
443266.0 649967.0 0
447500.0 649263.0 0
451812.0 648561.0 0
456742.0 648337.0 0
461975.0 648830.0 0
467250.0 648786.0 0
471421.0 649875.0 0
476471.0 648692.0 0
483349.0 648943.0 0
488539.0 649007.0 0
493340.0 647999.0 0
497714.0 648149.0 0
2459.61 653711.0 0
7820.89 654290.0 0
13581.4 655050.0 0
17152.8 652993.0 0
23157.8 653901.0 0
27890.6 655040.0 0
32856.2 654168.0 0
37895.7 654131.0 0
42500.0 654260.0 0
47361.2 654125.0 0
52520.0 654833.0 0
57456.9 654071.0 0
63297.3 653171.0 0
67276.0 654280.0 0
73393.0 654499.0 0
77500.0 654338.0 0
82257.9 654611.0 0
86647.2 654694.0 0
91199.1 653335.0 0
96580.8 654282.0 0
102168.0 653383.0 0
108027.0 653386.0 0
113059.0 655929.0 0
117026.0 653439.0 0
122356.0 654025.0 0
127941.0 654226.0 0
133224.0 653592.0 0
138287.0 653713.0 0
142429.0 655969.0 0
146962.0 654163.0 0
152656.0 653750.0 0
158448.0 654183.0 0
163344.0 654235.0 0
167496.0 654867.0 0
171547.0 653878.0 0
176829.0 654143.0 0
182272.0 654392.0 0
187479.0 654343.0 0
192328.0 655797.0 0
197606.0 654696.0 0
202184.0 655445.0 0
206446.0 654952.0 0
211522.0 653858.0 0
216359.0 655152.0 0
220835.0 654573.0 0
225816.0 653679.0 0
231566.0 654123.0 0
237653.0 653749.0 0
242804.0 655898.0 0
248451.0 655468.0 0
253997.0 654730.0 0
258454.0 655293.0 0
262850.0 654219.0 0
268318.0 655348.0 0
273379.0 655369.0 0
278613.0 653373.0 0
284154.0 655093.0 0
288552.0 654207.0 0
292612.0 653989.0 0
296584.0 655167.0 0
302744.0 653942.0 0
308313.0 654199.0 0
313195.0 655075.0 0
318423.0 653861.0 0
322389.0 654393.0 0
326649.0 654567.0 0
332173.0 652930.0 0
336295.0 654521.0 0
340599.0 654797.0 0
345775.0 653695.0 0
351209.0 654416.0 0
357129.0 654233.0 0
361877.0 653195.0 0
367001.0 654088.0 0
373149.0 654314.0 0
377972.0 655452.0 0
382727.0 652911.0 0
388364.0 654008.0 0
393381.0 652884.0 0
398624.0 654056.0 0
403728.0 655017.0 0
408629.0 653864.0 0
413641.0 654408.0 0
418547.0 653548.0 0
423127.0 653503.0 0
427474.0 653993.0 0
432579.0 654448.0 0
437229.0 652772.0 0
442375.0 654018.0 0
446407.0 653821.0 0
451671.0 654198.0 0
457167.0 653169.0 0
462305.0 655159.0 0
467810.0 653900.0 0
472143.0 653454.0 0
476231.0 654452.0 0
480982.0 653648.0 0
486234.0 654223.0 0
491848.0 652626.0 0
497331.0 652969.0 0
2985.25 659093.0 0
8210.16 660396.0 0
13427.7 659996.0 0
19083.5 657984.0 0
24546.4 658525.0 0
28901.0 659685.0 0
33789.1 659338.0 0
38751.7 659188.0 0
42549.9 659377.0 0
47203.2 659127.0 0
51799.9 660003.0 0
56318.4 659212.0 0
61219.0 657734.0 0
66856.4 659120.0 0
73047.6 659683.0 0
78545.1 659647.0 0
82079.8 658533.0 0
86447.7 659582.0 0
92003.1 658379.0 0
97374.5 659663.0 0
102843.0 658974.0 0
108869.0 659561.0 0
113832.0 660040.0 0
116970.0 658918.0 0
120915.0 659230.0 0
126162.0 659407.0 0
132040.0 659954.0 0
136792.0 658140.0 0
140768.0 660769.0 0
147009.0 659489.0 0
153509.0 660203.0 0
159073.0 659084.0 0
163644.0 659437.0 0
167905.0 658497.0 0
172670.0 658995.0 0
177591.0 659088.0 0
182326.0 659074.0 0
187004.0 659460.0 0
193208.0 661014.0 0
197453.0 659482.0 0
203324.0 659631.0 0
207510.0 659218.0 0
211736.0 659027.0 0
217434.0 659335.0 0
221943.0 659224.0 0
227226.0 659253.0 0
233639.0 659463.0 0
238708.0 658887.0 0
242234.0 660518.0 0
245754.0 659729.0 0
252075.0 659780.0 0
256632.0 658696.0 0
262500.0 659219.0 0
266987.0 660514.0 0
271620.0 659444.0 0
276559.0 659197.0 0
282444.0 659358.0 0
287720.0 658412.0 0
292790.0 658806.0 0
297622.0 659071.0 0
302472.0 659813.0 0
306942.0 658782.0 0
311345.0 660023.0 0
316910.0 658762.0 0
322067.0 659141.0 0
326891.0 660073.0 0
333107.0 659309.0 0
338537.0 658973.0 0
342823.0 659690.0 0
347612.0 658363.0 0
352076.0 659336.0 0
357206.0 660029.0 0
362231.0 657647.0 0
366610.0 659398.0 0
371154.0 659457.0 0
376251.0 659875.0 0
381452.0 658812.0 0
386541.0 658657.0 0
391829.0 658194.0 0
398012.0 660000.0 0
402244.0 658634.0 0
406217.0 659703.0 0
411142.0 658620.0 0
415951.0 659375.0 0
421491.0 658487.0 0
427303.0 659220.0 0
432752.0 660967.0 0
437865.0 657416.0 0
443349.0 660224.0 0
447677.0 657577.0 0
451836.0 659844.0 0
457374.0 658954.0 0
461962.0 660873.0 0
466653.0 660155.0 0
471628.0 657818.0 0
477041.0 660300.0 0
482166.0 657967.0 0
485795.0 661024.0 0
490705.0 658339.0 0
496765.0 658709.0 0
2465.01 664380.0 0
6993.7 664559.0 0
11692.9 664933.0 0
17434.6 663948.0 0
22457.2 662586.0 0
27478.0 664177.0 0
32269.5 663517.0 0
37500.0 664193.0 0
42509.3 663793.0 0
47379.5 664366.0 0
51202.1 664901.0 0
56580.8 664033.0 0
62918.3 664079.0 0
68762.2 664242.0 0
72727.0 664935.0 0
76898.5 664224.0 0
82038.0 663068.0 0
87176.7 664928.0 0
93581.9 663577.0 0
98967.6 664674.0 0
103976.0 664019.0 0
108709.0 665178.0 0
113374.0 664029.0 0
117959.0 663039.0 0
122879.0 663609.0 0
127525.0 664686.0 0
132454.0 664715.0 0
137176.0 664198.0 0
143884.0 664132.0 0
148067.0 664580.0 0
152584.0 665895.0 0
157649.0 664618.0 0
162500.0 664056.0 0
167838.0 663887.0 0
172965.0 663449.0 0
177444.0 663997.0 0
182704.0 663555.0 0
188098.0 665031.0 0
192646.0 665245.0 0
196188.0 664407.0 0
200828.0 664054.0 0
206314.0 663868.0 0
212336.0 664560.0 0
217921.0 663841.0 0
222531.0 664265.0 0
227057.0 664455.0 0
231754.0 664253.0 0
237052.0 663783.0 0
241972.0 664211.0 0
247623.0 665060.0 0
253555.0 664578.0 0
258065.0 662849.0 0
262762.0 663965.0 0
267579.0 665712.0 0
273383.0 663741.0 0
279448.0 663759.0 0
283666.0 664406.0 0
288170.0 663179.0 0
292699.0 663503.0 0
297205.0 663661.0 0
301756.0 664713.0 0
307500.0 664147.0 0
313093.0 664885.0 0
317912.0 663853.0 0
322341.0 663984.0 0
326783.0 665475.0 0
332188.0 665471.0 0
336624.0 663781.0 0
340786.0 664048.0 0
346932.0 664216.0 0
353162.0 663827.0 0
358022.0 665054.0 0
363225.0 663325.0 0
369056.0 664328.0 0
373417.0 663166.0 0
376450.0 664967.0 0
381620.0 664866.0 0
388644.0 663176.0 0
393545.0 662926.0 0
397444.0 665233.0 0
402713.0 664600.0 0
408402.0 664401.0 0
412597.0 662867.0 0
416841.0 664298.0 0
422112.0 664514.0 0
427497.0 664602.0 0
432136.0 666283.0 0
437383.0 664770.0 0
442917.0 665713.0 0
448119.0 663759.0 0
453645.0 664240.0 0
458485.0 664901.0 0
463752.0 664933.0 0
468350.0 664849.0 0
472691.0 664102.0 0
477745.0 665859.0 0
481683.0 663550.0 0
485553.0 665770.0 0
490048.0 663999.0 0
497043.0 664714.0 0
2332.82 669261.0 0
7174.17 668792.0 0
12035.1 669727.0 0
17181.9 669454.0 0
23352.1 668414.0 0
28739.3 669432.0 0
32421.6 667553.0 0
36812.7 668605.0 0
42199.1 669200.0 0
48008.1 669011.0 0
52628.7 669147.0 0
57294.9 669519.0 0
62659.9 670331.0 0
67707.5 668903.0 0
72747.7 669305.0 0
77525.4 668930.0 0
81891.9 668103.0 0
86153.4 669863.0 0
91355.2 668693.0 0
97461.1 670126.0 0
102261.0 668280.0 0
106582.0 669600.0 0
111616.0 669487.0 0
117169.0 668588.0 0
123690.0 669510.0 0
129101.0 669792.0 0
132565.0 669034.0 0
137079.0 669331.0 0
142506.0 668467.0 0
148280.0 669936.0 0
153171.0 669867.0 0
156896.0 669551.0 0
161436.0 668616.0 0
166318.0 669911.0 0
172403.0 668882.0 0
178735.0 669171.0 0
184006.0 668571.0 0
188235.0 669743.0 0
192327.0 669193.0 0
197093.0 669187.0 0
202445.0 669286.0 0
207709.0 668868.0 0
212895.0 670468.0 0
218239.0 668957.0 0
222580.0 669314.0 0
226757.0 669317.0 0
232117.0 669439.0 0
237490.0 669095.0 0
242636.0 668859.0 0
247277.0 671312.0 0
252170.0 669457.0 0
257490.0 668179.0 0
262401.0 668598.0 0
266437.0 671252.0 0
271982.0 669322.0 0
276839.0 667815.0 0
280955.0 669573.0 0
286182.0 668317.0 0
292480.0 668867.0 0
298656.0 668917.0 0
303932.0 668722.0 0
308665.0 669311.0 0
312708.0 668941.0 0
317488.0 669472.0 0
322398.0 667989.0 0
325720.0 670443.0 0
330562.0 670602.0 0
336365.0 669577.0 0
342448.0 669112.0 0
347466.0 669874.0 0
351884.0 668850.0 0
356926.0 669867.0 0
363022.0 669964.0 0
368892.0 669633.0 0
373126.0 667325.0 0
377524.0 669095.0 0
381995.0 671112.0 0
386846.0 668583.0 0
393008.0 668263.0 0
398870.0 670280.0 0
403783.0 669908.0 0
408197.0 669249.0 0
413007.0 667612.0 0
418002.0 669101.0 0
423157.0 670005.0 0
428411.0 669637.0 0
433371.0 670859.0 0
438011.0 670372.0 0
442391.0 670190.0 0
446712.0 668695.0 0
451442.0 668391.0 0
456176.0 669403.0 0
461067.0 669561.0 0
465584.0 669326.0 0
470204.0 669241.0 0
475600.0 670528.0 0
481836.0 669889.0 0
487734.0 669970.0 0
492890.0 668386.0 0
497648.0 670049.0 0
2320.62 674186.0 0
6453.9 673382.0 0
10741.6 674279.0 0
15490.7 674336.0 0
21979.2 674767.0 0
27638.5 674019.0 0
33535.7 672259.0 0
38232.0 674278.0 0
42592.7 674525.0 0
47224.2 674382.0 0
52790.0 673847.0 0
57127.5 674397.0 0
60853.2 675259.0 0
65807.6 674507.0 0
70657.7 673900.0 0
76093.1 674408.0 0
82112.2 673433.0 0
87562.8 675142.0 0
93170.4 674158.0 0
98277.7 675159.0 0
102739.0 673210.0 0
107936.0 674222.0 0
113386.0 674705.0 0
118959.0 674132.0 0
124285.0 675870.0 0
129090.0 673976.0 0
133397.0 673828.0 0
137637.0 673947.0 0
141977.0 673394.0 0
146781.0 675543.0 0
152499.0 673819.0 0
157500.0 674165.0 0
162588.0 673697.0 0
168035.0 674027.0 0
173388.0 674105.0 0
177289.0 673923.0 0
182180.0 673560.0 0
187500.0 674218.0 0
192528.0 673830.0 0
197476.0 673520.0 0
202607.0 674873.0 0
207635.0 673524.0 0
211725.0 675142.0 0
216553.0 674517.0 0
221678.0 673854.0 0
226409.0 674190.0 0
231214.0 674658.0 0
237101.0 674900.0 0
242782.0 673910.0 0
246624.0 675575.0 0
252089.0 674366.0 0
256822.0 673613.0 0
262301.0 674197.0 0
265852.0 675952.0 0
270512.0 675018.0 0
276753.0 673929.0 0
282484.0 673914.0 0
287435.0 674183.0 0
292983.0 674874.0 0
297741.0 675903.0 0
302001.0 673482.0 0
307353.0 675295.0 0
312760.0 673479.0 0
318529.0 675963.0 0
323949.0 674474.0 0
327820.0 674057.0 0
332814.0 673689.0 0
335877.0 674893.0 0
340454.0 674418.0 0
346048.0 674839.0 0
352602.0 674999.0 0
358998.0 675043.0 0
364465.0 676136.0 0
368898.0 674348.0 0
373595.0 672719.0 0
378745.0 675174.0 0
383470.0 675368.0 0
388401.0 674512.0 0
394415.0 674146.0 0
398945.0 675553.0 0
402428.0 673846.0 0
407505.0 674708.0 0
413539.0 673310.0 0
419292.0 673986.0 0
424005.0 674893.0 0
428720.0 674689.0 0
432748.0 674683.0 0
437500.0 674779.0 0
441355.0 674389.0 0
446555.0 673607.0 0
452923.0 674118.0 0
458542.0 673852.0 0
462687.0 674418.0 0
467044.0 673755.0 0
471371.0 673855.0 0
475337.0 675868.0 0
480325.0 675285.0 0
485640.0 675252.0 0
491738.0 673718.0 0
497259.0 675067.0 0
1811.42 678412.0 0
6774.38 678651.0 0
12542.3 678873.0 0
18005.7 678945.0 0
23205.9 680145.0 0
27633.2 678951.0 0
32041.7 677150.0 0
37500.0 679544.0 0
42522.5 678829.0 0
47500.0 679733.0 0
51737.5 678136.0 0
57246.0 678881.0 0
62383.2 680171.0 0
67105.1 679118.0 0
72288.3 679284.0 0
77791.1 679956.0 0
83435.7 679019.0 0
88200.0 679987.0 0
93320.8 679770.0 0
98477.7 679522.0 0
103556.0 678450.0 0
108907.0 679092.0 0
113357.0 679590.0 0
117943.0 679822.0 0
122071.0 679516.0 0
127350.0 678976.0 0
131663.0 678591.0 0
136801.0 678057.0 0
142066.0 678643.0 0
146933.0 680557.0 0
152356.0 679620.0 0
157667.0 679263.0 0
162028.0 678830.0 0
167167.0 678707.0 0
172244.0 678085.0 0
177530.0 679444.0 0
183172.0 678928.0 0
187609.0 679100.0 0
192283.0 678989.0 0
197926.0 678164.0 0
202922.0 680834.0 0
207208.0 678079.0 0
211839.0 679800.0 0
216992.0 680231.0 0
222105.0 679086.0 0
227507.0 679209.0 0
232855.0 679579.0 0
238144.0 681027.0 0
243857.0 679419.0 0
249110.0 678565.0 0
253158.0 680328.0 0
258475.0 679133.0 0
263714.0 679284.0 0
267872.0 679522.0 0
272452.0 679932.0 0
277779.0 680171.0 0
283237.0 678816.0 0
288691.0 679629.0 0
293827.0 679964.0 0
298126.0 679951.0 0
302826.0 679066.0 0
307648.0 680276.0 0
312907.0 679735.0 0
317498.0 680577.0 0
320841.0 680843.0 0
325071.0 679058.0 0
331159.0 678244.0 0
337287.0 679192.0 0
342971.0 680449.0 0
348895.0 679772.0 0
353159.0 681357.0 0
356833.0 679559.0 0
361267.0 680320.0 0
366510.0 680826.0 0
371331.0 678714.0 0
376637.0 680012.0 0
381831.0 679630.0 0
387751.0 680869.0 0
394503.0 680281.0 0
399279.0 681700.0 0
403068.0 678949.0 0
407924.0 680303.0 0
412075.0 678632.0 0
416708.0 677907.0 0
421435.0 679050.0 0
426758.0 679728.0 0
432153.0 678885.0 0
437415.0 678927.0 0
441952.0 678755.0 0
446922.0 679343.0 0
452361.0 679901.0 0
458146.0 679307.0 0
463388.0 679343.0 0
468015.0 678950.0 0
472542.0 679277.0 0
478114.0 679135.0 0
482158.0 679352.0 0
486351.0 680551.0 0
491643.0 679459.0 0
497375.0 680382.0 0
2695.8 682806.0 0
7769.82 684723.0 0
12752.1 683815.0 0
18102.3 684952.0 0
23868.4 685045.0 0
28170.6 683353.0 0
33555.2 682477.0 0
37947.8 685064.0 0
42453.9 683867.0 0
47952.8 684165.0 0
53181.1 682436.0 0
57755.5 684373.0 0
62385.9 685282.0 0
67660.3 684212.0 0
72877.0 684737.0 0
77228.6 685089.0 0
81266.8 683595.0 0
85584.6 684389.0 0
90799.4 685221.0 0
96589.8 684003.0 0
101482.0 683055.0 0
106651.0 683769.0 0
111745.0 683629.0 0
116678.0 686229.0 0
121784.0 683559.0 0
126877.0 683129.0 0
132240.0 684596.0 0
138377.0 683675.0 0
143653.0 683452.0 0
147710.0 685471.0 0
152318.0 685221.0 0
156424.0 683585.0 0
161538.0 684247.0 0
167087.0 684301.0 0
172805.0 683606.0 0
177971.0 686222.0 0
183236.0 684515.0 0
188130.0 683211.0 0
192742.0 684968.0 0
198690.0 685063.0 0
203553.0 685294.0 0
207938.0 683780.0 0
213980.0 684607.0 0
218272.0 684424.0 0
222500.0 684158.0 0
227508.0 684424.0 0
232792.0 684749.0 0
238323.0 685915.0 0
242652.0 684867.0 0
248065.0 683502.0 0
252354.0 684302.0 0
256492.0 684546.0 0
262114.0 683441.0 0
266683.0 683673.0 0
271036.0 684529.0 0
276020.0 685376.0 0
282040.0 684096.0 0
287601.0 685299.0 0
293876.0 684779.0 0
298022.0 684185.0 0
302566.0 684697.0 0
307492.0 684307.0 0
312459.0 685213.0 0
316554.0 683975.0 0
321882.0 685268.0 0
327610.0 684425.0 0
334652.0 683790.0 0
339021.0 684465.0 0
342589.0 686142.0 0
347214.0 684092.0 0
351350.0 684884.0 0
357854.0 684498.0 0
363259.0 684682.0 0
367527.0 684824.0 0
373026.0 685003.0 0
379234.0 685025.0 0
383426.0 683768.0 0
386433.0 686130.0 0
391762.0 686238.0 0
397347.0 684788.0 0
402170.0 684563.0 0
406969.0 684571.0 0
412224.0 684041.0 0
417654.0 682664.0 0
422798.0 684539.0 0
427587.0 684478.0 0
432102.0 684128.0 0
437267.0 684188.0 0
442993.0 684022.0 0
448954.0 684452.0 0
454955.0 684153.0 0
459377.0 685204.0 0
463191.0 684109.0 0
467760.0 684243.0 0
472714.0 683657.0 0
478211.0 683763.0 0
482888.0 684249.0 0
486875.0 684476.0 0
491817.0 685350.0 0
497348.0 685625.0 0
2618.94 687976.0 0
7476.34 690504.0 0
11250.9 688365.0 0
14737.2 689322.0 0
21599.8 689940.0 0
27767.9 688398.0 0
33936.8 688117.0 0
38967.5 689309.0 0
43388.2 688634.0 0
47776.5 689472.0 0
52291.8 687511.0 0
57486.7 688946.0 0
62587.0 690048.0 0
67271.7 689562.0 0
71493.4 689334.0 0
75736.2 689300.0 0
81400.9 689104.0 0
86783.3 689141.0 0
91815.8 691289.0 0
97450.9 689293.0 0
103251.0 688277.0 0
109237.0 688877.0 0
113827.0 690675.0 0
117907.0 690820.0 0
122061.0 688522.0 0
127012.0 688449.0 0
131382.0 689492.0 0
135855.0 689036.0 0
142742.0 688878.0 0
148702.0 690555.0 0
154027.0 689249.0 0
158145.0 688404.0 0
163633.0 688493.0 0
168074.0 689775.0 0
173004.0 688923.0 0
176749.0 690513.0 0
182456.0 690261.0 0
188011.0 688372.0 0
192712.0 689730.0 0
197419.0 690209.0 0
202558.0 689432.0 0
207578.0 689188.0 0
212184.0 689052.0 0
217435.0 689008.0 0
222828.0 689156.0 0
227360.0 688533.0 0
231604.0 689788.0 0
236479.0 689666.0 0
241113.0 689657.0 0
246325.0 689087.0 0
252194.0 689191.0 0
257415.0 689475.0 0
262453.0 688423.0 0
267906.0 688555.0 0
273157.0 689977.0 0
278408.0 690072.0 0
282892.0 688608.0 0
286852.0 690677.0 0
291955.0 689653.0 0
297446.0 688805.0 0
302516.0 689888.0 0
307420.0 688849.0 0
312188.0 689282.0 0
317207.0 688927.0 0
322241.0 690299.0 0
326995.0 690427.0 0
332379.0 689291.0 0
338396.0 689269.0 0
343059.0 689895.0 0
346957.0 688757.0 0
351454.0 688716.0 0
355807.0 689546.0 0
361503.0 690120.0 0
368167.0 689984.0 0
373852.0 690483.0 0
377494.0 689207.0 0
382500.0 689316.0 0
387714.0 689795.0 0
391431.0 691708.0 0
396633.0 689316.0 0
400961.0 689497.0 0
405845.0 689268.0 0
411085.0 689793.0 0
416971.0 688258.0 0
422658.0 690249.0 0
427197.0 688469.0 0
431794.0 689399.0 0
437290.0 689986.0 0
442172.0 689217.0 0
447073.0 689430.0 0
452174.0 688243.0 0
457170.0 689317.0 0
462005.0 688750.0 0
466839.0 689795.0 0
471328.0 687837.0 0
476476.0 689407.0 0
482202.0 689156.0 0
487595.0 689082.0 0
493971.0 690436.0 0
498265.0 689904.0 0
2125.28 692478.0 0
8388.03 695480.0 0
12313.8 692907.0 0
17257.7 693004.0 0
21208.6 694720.0 0
25936.9 693668.0 0
32136.1 693826.0 0
37846.3 695638.0 0
41902.2 693131.0 0
46252.1 694957.0 0
52501.3 693906.0 0
59302.5 693936.0 0
64502.2 694234.0 0
69343.9 694137.0 0
73235.9 694725.0 0
76872.7 693928.0 0
82034.1 695234.0 0
87143.4 693783.0 0
92305.8 695563.0 0
96638.7 695057.0 0
102752.0 694238.0 0
108990.0 694136.0 0
113383.0 694639.0 0
117469.0 694319.0 0
121635.0 693028.0 0
126374.0 693465.0 0
132854.0 694358.0 0
138566.0 693492.0 0
143871.0 695261.0 0
148691.0 695120.0 0
152750.0 693814.0 0
157670.0 692944.0 0
162982.0 693070.0 0
167550.0 694636.0 0
173046.0 694541.0 0
178978.0 694341.0 0
183394.0 695058.0 0
187502.0 693476.0 0
192441.0 694228.0 0
196573.0 694409.0 0
201005.0 694689.0 0
206709.0 694348.0 0
212873.0 694393.0 0
218416.0 694592.0 0
222704.0 694324.0 0
227306.0 693059.0 0
232420.0 694855.0 0
237823.0 694596.0 0
242819.0 694060.0 0
247911.0 695050.0 0
252743.0 694011.0 0
257181.0 694572.0 0
261642.0 693042.0 0
266294.0 693721.0 0
270967.0 694424.0 0
275845.0 694918.0 0
282493.0 694428.0 0
288586.0 695596.0 0
294252.0 695088.0 0
299542.0 693883.0 0
304545.0 694319.0 0
308607.0 693241.0 0
312712.0 694183.0 0
317426.0 693966.0 0
322159.0 694753.0 0
326175.0 694706.0 0
331373.0 695455.0 0
336928.0 694362.0 0
342221.0 693970.0 0
347039.0 693353.0 0
352129.0 693697.0 0
357538.0 693922.0 0
362642.0 695330.0 0
367282.0 695744.0 0
372403.0 694144.0 0
377500.0 694222.0 0
381754.0 694278.0 0
386913.0 694704.0 0
394314.0 695494.0 0
398561.0 693858.0 0
403301.0 694349.0 0
407578.0 694051.0 0
411728.0 695496.0 0
418115.0 694255.0 0
423394.0 694926.0 0
427500.0 694159.0 0
432530.0 694626.0 0
437384.0 694189.0 0
441692.0 694334.0 0
447111.0 694699.0 0
452308.0 693455.0 0
457441.0 694341.0 0
462356.0 693862.0 0
467107.0 694739.0 0
472133.0 693577.0 0
477925.0 695523.0 0
482688.0 693743.0 0
487573.0 694891.0 0
493343.0 695654.0 0
497868.0 693903.0 0
3364.9 697649.0 0
8957.02 700672.0 0
12241.1 697043.0 0
17651.0 699225.0 0
23701.3 698226.0 0
28283.9 700591.0 0
34189.2 699727.0 0
38848.5 699504.0 0
42453.7 698807.0 0
48394.3 698607.0 0
52781.5 700809.0 0
57595.6 698907.0 0
62156.9 698315.0 0
66818.0 699247.0 0
71983.6 698805.0 0
77491.8 699050.0 0
82566.0 700963.0 0
86478.6 698254.0 0
91461.0 699754.0 0
96258.5 700018.0 0
101127.0 700211.0 0
106628.0 698729.0 0
112415.0 699830.0 0
117803.0 698878.0 0
123195.0 698254.0 0
128622.0 697685.0 0
132344.0 699384.0 0
137069.0 699008.0 0
142464.0 701022.0 0
146815.0 699302.0 0
151773.0 699373.0 0
157145.0 698051.0 0
162679.0 699172.0 0
168832.0 699514.0 0
173731.0 699885.0 0
178110.0 699325.0 0
182781.0 699130.0 0
187679.0 698677.0 0
192251.0 698571.0 0
197551.0 699077.0 0
202502.0 699203.0 0
207984.0 699185.0 0
212641.0 700163.0 0
217404.0 699132.0 0
222248.0 699164.0 0
227824.0 698755.0 0
232912.0 699430.0 0
237473.0 699915.0 0
241957.0 698454.0 0
246205.0 700252.0 0
250502.0 699462.0 0
255348.0 699720.0 0
261806.0 698807.0 0
268517.0 698887.0 0
274082.0 700248.0 0
279490.0 699737.0 0
283773.0 699591.0 0
287299.0 700348.0 0
291634.0 699659.0 0
296328.0 700101.0 0
301775.0 699028.0 0
308305.0 698728.0 0
313950.0 698862.0 0
318343.0 698314.0 0
322619.0 699300.0 0
327184.0 699031.0 0
331750.0 700988.0 0
336819.0 699289.0 0
341870.0 699296.0 0
348011.0 698066.0 0
353451.0 699130.0 0
358127.0 697901.0 0
362284.0 699712.0 0
366794.0 700424.0 0
372030.0 698824.0 0
377547.0 698997.0 0
382677.0 699222.0 0
386619.0 699428.0 0
391328.0 700174.0 0
397648.0 698894.0 0
402413.0 699120.0 0
407067.0 698433.0 0
413083.0 700767.0 0
418699.0 700244.0 0
423113.0 698965.0 0
427414.0 699036.0 0
431995.0 699465.0 0
437303.0 698961.0 0
442324.0 699615.0 0
446336.0 699423.0 0
451736.0 699129.0 0
458110.0 699507.0 0
463059.0 699260.0 0
467559.0 698932.0 0
472160.0 699088.0 0
476455.0 700356.0 0
482357.0 699247.0 0
487467.0 700444.0 0
492315.0 700434.0 0
497372.0 699110.0 0
3685.96 704473.0 0
9145.05 707019.0 0
13498.1 704138.0 0
18851.8 706074.0 0
23168.4 702925.0 0
27054.0 705816.0 0
32608.9 705734.0 0
38475.7 703225.0 0
42908.6 706275.0 0
47668.1 703522.0 0
52177.1 706603.0 0
57117.0 704643.0 0
62786.9 703746.0 0
68628.6 704623.0 0
74122.0 704627.0 0
78825.1 704095.0 0
83091.5 706228.0 0
87399.8 703524.0 0
92362.1 705371.0 0
97328.6 704381.0 0
102071.0 705511.0 0
107966.0 704962.0 0
113369.0 705147.0 0
117124.0 703585.0 0
121782.0 705307.0 0
127420.0 703098.0 0
133641.0 704090.0 0
139006.0 704967.0 0
143681.0 706337.0 0
148050.0 703778.0 0
152617.0 704366.0 0
157712.0 703920.0 0
163743.0 705323.0 0
167787.0 703855.0 0
172049.0 704508.0 0
177759.0 704616.0 0
182865.0 703744.0 0
187957.0 704069.0 0
193807.0 703391.0 0
198830.0 704276.0 0
202349.0 704277.0 0
206364.0 703484.0 0
212712.0 704940.0 0
217433.0 704067.0 0
222223.0 704133.0 0
227092.0 704263.0 0
231962.0 703712.0 0
236769.0 704979.0 0
241775.0 703341.0 0
246760.0 705396.0 0
251585.0 703650.0 0
256807.0 705709.0 0
263428.0 705547.0 0
268545.0 703952.0 0
272862.0 705278.0 0
277527.0 704351.0 0
283093.0 704115.0 0
287515.0 704305.0 0
292723.0 704240.0 0
296489.0 704874.0 0
300296.0 704702.0 0
307072.0 705263.0 0
312977.0 703914.0 0
318069.0 702632.0 0
322356.0 704111.0 0
327488.0 704199.0 0
332770.0 705918.0 0
337801.0 704166.0 0
342337.0 704001.0 0
347171.0 703354.0 0
352599.0 704432.0 0
357086.0 702145.0 0
363150.0 704319.0 0
368343.0 704058.0 0
372685.0 703994.0 0
377537.0 704329.0 0
382212.0 704174.0 0
386970.0 703468.0 0
391675.0 705648.0 0
396523.0 703248.0 0
402240.0 704036.0 0
408282.0 704253.0 0
413453.0 705397.0 0
418379.0 706114.0 0
423595.0 703993.0 0
427530.0 704017.0 0
432500.0 704136.0 0
437304.0 704811.0 0
442044.0 704101.0 0
447584.0 704323.0 0
452729.0 704234.0 0
457258.0 704496.0 0
462131.0 704220.0 0
467044.0 703152.0 0
472324.0 705077.0 0
478433.0 704628.0 0
483997.0 704540.0 0
488323.0 704421.0 0
493887.0 704229.0 0
497793.0 704166.0 0
3226.58 711231.0 0
8768.99 711997.0 0
14155.9 710142.0 0
19182.0 710853.0 0
23486.5 709517.0 0
28504.2 710372.0 0
33169.9 711160.0 0
37771.3 708808.0 0
42801.5 711726.0 0
47898.7 709386.0 0
52148.9 711591.0 0
57539.6 709464.0 0
62415.4 709210.0 0
66342.9 709046.0 0
72456.7 709487.0 0
77264.1 709300.0 0
81087.1 710856.0 0
87412.7 708675.0 0
91669.4 710054.0 0
96454.6 709503.0 0
101827.0 710538.0 0
107182.0 710968.0 0
112678.0 709357.0 0
117469.0 708291.0 0
121189.0 710195.0 0
126800.0 709591.0 0
132259.0 709007.0 0
137140.0 709986.0 0
142447.0 711280.0 0
147643.0 709340.0 0
152886.0 709034.0 0
158481.0 710141.0 0
163963.0 710896.0 0
168141.0 709189.0 0
172811.0 709712.0 0
177149.0 709384.0 0
181532.0 708513.0 0
186553.0 709113.0 0
192433.0 709827.0 0
197753.0 708254.0 0
202690.0 709203.0 0
208759.0 708376.0 0
213869.0 709498.0 0
218142.0 709194.0 0
222247.0 709194.0 0
226488.0 709004.0 0
232597.0 709042.0 0
238146.0 709164.0 0
242313.0 708398.0 0
247392.0 710358.0 0
252342.0 709065.0 0
258114.0 710460.0 0
261814.0 710520.0 0
268861.0 708954.0 0
273882.0 709687.0 0
278374.0 708994.0 0
283170.0 709347.0 0
287500.0 709193.0 0
292129.0 708980.0 0
296670.0 708286.0 0
301797.0 710291.0 0
306827.0 710742.0 0
311708.0 709694.0 0
317579.0 707864.0 0
323335.0 709098.0 0
328610.0 709391.0 0
332939.0 710360.0 0
337011.0 708914.0 0
341878.0 708465.0 0
347280.0 708945.0 0
352694.0 709632.0 0
358295.0 707621.0 0
362844.0 709953.0 0
367259.0 708669.0 0
373178.0 709490.0 0
378555.0 709100.0 0
382953.0 709447.0 0
387443.0 708443.0 0
391887.0 709961.0 0
396280.0 708869.0 0
401636.0 709602.0 0
407139.0 710252.0 0
411752.0 708966.0 0
415277.0 709430.0 0
422832.0 709656.0 0
427804.0 707962.0 0
432899.0 709154.0 0
437908.0 709236.0 0
442224.0 708401.0 0
446277.0 709148.0 0
452725.0 709545.0 0
457502.0 709274.0 0
461479.0 709464.0 0
466456.0 708187.0 0
470902.0 710526.0 0
476110.0 710346.0 0
480968.0 708870.0 0
485009.0 709451.0 0
490817.0 709186.0 0
497134.0 709085.0 0
2045.29 716253.0 0
6256.98 715819.0 0
12094.5 715511.0 0
17669.4 715372.0 0
22656.9 714260.0 0
27213.3 714996.0 0
32835.6 715348.0 0
37589.3 714451.0 0
42115.1 716437.0 0
47449.7 714631.0 0
52209.2 716645.0 0
56583.8 713960.0 0
62139.9 714444.0 0
68504.8 713706.0 0
73418.6 714520.0 0
77487.2 714178.0 0
82983.5 715071.0 0
87605.9 713821.0 0
93580.6 714351.0 0
98140.6 713831.0 0
103135.0 715198.0 0
107060.0 715260.0 0
111286.0 714274.0 0
116924.0 713469.0 0
122110.0 714640.0 0
126532.0 715123.0 0
132908.0 713875.0 0
137667.0 714710.0 0
142521.0 716116.0 0
146727.0 714171.0 0
151476.0 713925.0 0
156205.0 715433.0 0
161046.0 714899.0 0
165630.0 715574.0 0
170813.0 714538.0 0
176457.0 714133.0 0
182198.0 714037.0 0
188165.0 714429.0 0
193676.0 715810.0 0
198828.0 713347.0 0
202871.0 715333.0 0
206074.0 713003.0 0
212486.0 714117.0 0
217032.0 714260.0 0
221328.0 714137.0 0
226786.0 714044.0 0
231703.0 714048.0 0
236990.0 714014.0 0
243273.0 713825.0 0
248339.0 714288.0 0
252438.0 713618.0 0
257099.0 714416.0 0
261812.0 714725.0 0
266644.0 714048.0 0
272105.0 714162.0 0
277100.0 713964.0 0
282841.0 714184.0 0
287500.0 714171.0 0
292440.0 714001.0 0
297109.0 712647.0 0
302945.0 715700.0 0
308066.0 714296.0 0
312411.0 715018.0 0
316890.0 713356.0 0
321945.0 714560.0 0
326134.0 713953.0 0
330619.0 714407.0 0
335756.0 713668.0 0
341291.0 713968.0 0
347306.0 714972.0 0
353114.0 714899.0 0
359354.0 714429.0 0
365456.0 714152.0 0
369911.0 715847.0 0
373470.0 714309.0 0
378017.0 714368.0 0
382873.0 714193.0 0
388037.0 713965.0 0
392919.0 714243.0 0
397265.0 713821.0 0
402083.0 714833.0 0
407913.0 713935.0 0
411525.0 713756.0 0
417416.0 713518.0 0
422430.0 714380.0 0
427669.0 713813.0 0
432752.0 714155.0 0
437181.0 714418.0 0
442654.0 713097.0 0
448026.0 713389.0 0
452771.0 715279.0 0
457853.0 713491.0 0
462582.0 714458.0 0
467234.0 713453.0 0
472594.0 714672.0 0
476454.0 715647.0 0
481013.0 714207.0 0
486457.0 714311.0 0
492731.0 715213.0 0
497532.0 714511.0 0
3441.7 720722.0 0
8059.98 719644.0 0
12425.7 720377.0 0
17333.5 720792.0 0
21771.7 719716.0 0
25057.6 719553.0 0
30375.4 719587.0 0
38758.7 720440.0 0
44248.8 719970.0 0
48290.6 719224.0 0
51520.3 721090.0 0
58138.6 718656.0 0
62626.3 719584.0 0
67132.5 719772.0 0
71611.9 718274.0 0
76293.4 718917.0 0
81692.9 719946.0 0
87589.0 719536.0 0
92750.9 719202.0 0
97179.1 718018.0 0
101682.0 719490.0 0
106691.0 719460.0 0
112339.0 719939.0 0
118496.0 719697.0 0
123706.0 718865.0 0
129891.0 718738.0 0
134976.0 718616.0 0
139495.0 719725.0 0
143318.0 719588.0 0
147235.0 719236.0 0
152289.0 718630.0 0
157348.0 719938.0 0
162613.0 719699.0 0
167676.0 719402.0 0
172578.0 720073.0 0
177544.0 718867.0 0
182103.0 719318.0 0
187355.0 720163.0 0
192332.0 720649.0 0
198037.0 718815.0 0
202456.0 719396.0 0
208061.0 718741.0 0
213339.0 719713.0 0
216954.0 719138.0 0
221435.0 719183.0 0
226495.0 719526.0 0
231726.0 718726.0 0
236535.0 719551.0 0
241048.0 720194.0 0
246649.0 719246.0 0
253488.0 719610.0 0
259764.0 719303.0 0
264223.0 719863.0 0
268844.0 719146.0 0
273299.0 718926.0 0
277691.0 719366.0 0
282534.0 718753.0 0
287378.0 718842.0 0
291999.0 719479.0 0
298033.0 717375.0 0
302055.0 720413.0 0
306973.0 718176.0 0
311140.0 719363.0 0
316892.0 719425.0 0
322791.0 719605.0 0
327211.0 718272.0 0
332099.0 719757.0 0
337741.0 719048.0 0
342586.0 718809.0 0
346634.0 720520.0 0
351081.0 719412.0 0
356073.0 719999.0 0
363214.0 719409.0 0
367999.0 719272.0 0
373248.0 719170.0 0
377973.0 719215.0 0
382501.0 719058.0 0
388575.0 719285.0 0
392702.0 718095.0 0
397483.0 719270.0 0
402350.0 719157.0 0
406941.0 718206.0 0
413047.0 718965.0 0
418433.0 719197.0 0
423460.0 718636.0 0
428071.0 719558.0 0
433277.0 718941.0 0
438057.0 718836.0 0
442587.0 718749.0 0
448089.0 718533.0 0
453235.0 720376.0 0
457444.0 718250.0 0
461668.0 719374.0 0
467126.0 719124.0 0
473102.0 718797.0 0
477500.0 719341.0 0
482438.0 719323.0 0
488230.0 719320.0 0
492660.0 719931.0 0
497500.0 719154.0 0
2916.25 726276.0 0
8533.57 724426.0 0
14158.8 724732.0 0
19436.4 725079.0 0
23723.8 724004.0 0
27628.9 723752.0 0
32112.8 724612.0 0
36479.7 725159.0 0
42543.6 724557.0 0
47351.4 723437.0 0
51236.6 724708.0 0
55887.6 723836.0 0
61523.1 724057.0 0
66583.6 724887.0 0
72860.2 724229.0 0
78932.2 724572.0 0
82572.6 724222.0 0
85940.4 724360.0 0
91388.3 724693.0 0
96995.8 722986.0 0
102531.0 725072.0 0
108342.0 724354.0 0
112519.0 724774.0 0
116246.0 725744.0 0
121201.0 725164.0 0
126435.0 723205.0 0
132999.0 724162.0 0
139272.0 725267.0 0
144251.0 723734.0 0
148935.0 724924.0 0
153997.0 723527.0 0
159013.0 723869.0 0
163164.0 724273.0 0
167081.0 724000.0 0
171201.0 724983.0 0
176920.0 724324.0 0
183238.0 724498.0 0
188339.0 724906.0 0
191976.0 723694.0 0
197109.0 724562.0 0
203129.0 724088.0 0
208954.0 725730.0 0
213707.0 724050.0 0
217465.0 724178.0 0
222072.0 724336.0 0
227208.0 724569.0 0
232650.0 724296.0 0
238255.0 724394.0 0
242790.0 724258.0 0
248019.0 725012.0 0
252203.0 725213.0 0
256256.0 725118.0 0
261296.0 724324.0 0
266400.0 724250.0 0
272292.0 724220.0 0
277356.0 723930.0 0
282458.0 724108.0 0
287819.0 722834.0 0
292010.0 725057.0 0
296874.0 722731.0 0
301274.0 725166.0 0
306553.0 723788.0 0
312533.0 723946.0 0
317621.0 725844.0 0
322571.0 724381.0 0
327986.0 723671.0 0
333050.0 724458.0 0
337393.0 724370.0 0
342110.0 723097.0 0
346904.0 725420.0 0
351813.0 724026.0 0
357750.0 725771.0 0
362826.0 724423.0 0
367407.0 723718.0 0
371847.0 723740.0 0
376215.0 724121.0 0
381075.0 724549.0 0
386465.0 724338.0 0
392665.0 723435.0 0
398006.0 724842.0 0
401513.0 722372.0 0
406002.0 725040.0 0
411759.0 724230.0 0
417157.0 724594.0 0
423077.0 724281.0 0
429227.0 724975.0 0
434546.0 724794.0 0
437707.0 722391.0 0
441675.0 723831.0 0
447203.0 724293.0 0
452445.0 724921.0 0
457729.0 723645.0 0
463409.0 724024.0 0
468776.0 724505.0 0
473454.0 723541.0 0
478159.0 724232.0 0
482622.0 724162.0 0
487257.0 724305.0 0
492361.0 724153.0 0
497201.0 724142.0 0
2151.99 730314.0 0
7500.0 729183.0 0
11662.8 728559.0 0
16457.6 728966.0 0
22082.5 729368.0 0
26812.5 728195.0 0
32322.3 729291.0 0
37884.1 730103.0 0
42863.9 729345.0 0
46965.5 728231.0 0
52388.3 729261.0 0
58179.5 729259.0 0
63432.4 729009.0 0
67978.5 729329.0 0
72044.2 730235.0 0
77041.2 729512.0 0
82145.6 728145.0 0
87057.8 728967.0 0
91879.4 730661.0 0
97442.0 729120.0 0
102576.0 730348.0 0
107082.0 729489.0 0
112301.0 729198.0 0
117437.0 730525.0 0
122442.0 730266.0 0
128124.0 729151.0 0
134655.0 730713.0 0
139108.0 729523.0 0
143064.0 728841.0 0
147500.0 729190.0 0
152809.0 729005.0 0
157821.0 728173.0 0
162333.0 729173.0 0
167669.0 728936.0 0
172745.0 728424.0 0
177087.0 729793.0 0
181471.0 729472.0 0
186363.0 729467.0 0
192050.0 728291.0 0
197659.0 730164.0 0
201986.0 728894.0 0
206402.0 731365.0 0
214067.0 728695.0 0
218448.0 729407.0 0
222500.0 729490.0 0
227108.0 730165.0 0
232641.0 729390.0 0
237406.0 729592.0 0
242647.0 728989.0 0
247555.0 729850.0 0
252500.0 729494.0 0
256840.0 729809.0 0
261674.0 729499.0 0
267410.0 729744.0 0
272955.0 729975.0 0
277924.0 728353.0 0
282392.0 731016.0 0
287017.0 728113.0 0
291897.0 730025.0 0
297336.0 728729.0 0
303078.0 729637.0 0
307937.0 729224.0 0
312532.0 729004.0 0
316596.0 730543.0 0
321102.0 729967.0 0
326437.0 729350.0 0
331762.0 728838.0 0
337485.0 729918.0 0
342925.0 728027.0 0
347588.0 730346.0 0
353111.0 729328.0 0
358147.0 731072.0 0
362318.0 728768.0 0
366774.0 728343.0 0
372437.0 728653.0 0
377234.0 728480.0 0
381547.0 729215.0 0
386256.0 730020.0 0
391969.0 730064.0 0
397511.0 729491.0 0
402402.0 729368.0 0
407800.0 730758.0 0
413024.0 729150.0 0
418054.0 730125.0 0
422903.0 729579.0 0
427164.0 730055.0 0
432411.0 729186.0 0
437305.0 729103.0 0
442704.0 728814.0 0
447749.0 729829.0 0
452590.0 728634.0 0
456728.0 729104.0 0
461968.0 729372.0 0
467390.0 729372.0 0
472369.0 728134.0 0
477301.0 729174.0 0
482281.0 729127.0 0
488409.0 729594.0 0
492873.0 729275.0 0
497500.0 729137.0 0
2832.32 734291.0 0
7996.16 734265.0 0
13044.7 733377.0 0
17669.9 733223.0 0
21844.9 734606.0 0
27320.5 734328.0 0
32909.4 734325.0 0
37592.6 735524.0 0
42249.2 734005.0 0
47590.4 733262.0 0
52036.4 734874.0 0
56729.5 734556.0 0
61819.3 733837.0 0
67188.3 734250.0 0
72660.6 735115.0 0
77747.6 734877.0 0
83544.4 733931.0 0
89084.3 734543.0 0
93639.5 735440.0 0
98333.9 734617.0 0
103467.0 735038.0 0
108274.0 733946.0 0
112500.0 734172.0 0
116483.0 734824.0 0
121192.0 734844.0 0
127654.0 736346.0 0
134614.0 735845.0 0
138155.0 734498.0 0
142659.0 733886.0 0
146673.0 735114.0 0
150913.0 734302.0 0
157081.0 733732.0 0
162811.0 734007.0 0
167745.0 734805.0 0
172956.0 732884.0 0
177929.0 734587.0 0
183122.0 734267.0 0
187966.0 734329.0 0
192381.0 733733.0 0
197303.0 734789.0 0
202500.0 734367.0 0
207912.0 736068.0 0
212583.0 734136.0 0
217500.0 734322.0 0
222500.0 734191.0 0
227919.0 735502.0 0
232664.0 734085.0 0
237541.0 734511.0 0
242690.0 733523.0 0
247478.0 734220.0 0
252263.0 733876.0 0
256631.0 734214.0 0
261061.0 734502.0 0
265815.0 734893.0 0
271190.0 735016.0 0
277354.0 734324.0 0
282311.0 735759.0 0
286886.0 734331.0 0
292546.0 735171.0 0
298616.0 735092.0 0
304004.0 734672.0 0
308068.0 733596.0 0
312764.0 734672.0 0
318387.0 735108.0 0
323335.0 734160.0 0
327942.0 734498.0 0
333167.0 734192.0 0
337934.0 735378.0 0
342769.0 733484.0 0
347071.0 736764.0 0
351169.0 734148.0 0
356538.0 736192.0 0
362796.0 734334.0 0
368536.0 732689.0 0
373396.0 735773.0 0
378430.0 732851.0 0
383162.0 734392.0 0
388417.0 735182.0 0
393249.0 735314.0 0
397720.0 734615.0 0
402896.0 734349.0 0
407411.0 735754.0 0
412173.0 734264.0 0
417134.0 735170.0 0
421740.0 733993.0 0
426497.0 734966.0 0
430689.0 733599.0 0
435652.0 734855.0 0
441592.0 734232.0 0
446898.0 736336.0 0
452434.0 733524.0 0
458818.0 734590.0 0
463859.0 733724.0 0
468540.0 734857.0 0
473821.0 732937.0 0
478818.0 733771.0 0
483367.0 734220.0 0
487896.0 734807.0 0
492409.0 733383.0 0
497500.0 734110.0 0
2083.7 739429.0 0
6260.52 739528.0 0
11392.9 738439.0 0
17254.0 738469.0 0
23055.4 739623.0 0
28060.6 739756.0 0
33168.5 739651.0 0
38049.5 739946.0 0
42582.6 739316.0 0
47224.0 738448.0 0
52069.3 739560.0 0
57429.8 740069.0 0
62784.6 738994.0 0
67416.7 739201.0 0
71688.3 740152.0 0
76454.7 739603.0 0
82154.1 740895.0 0
87185.6 738440.0 0
91622.0 740174.0 0
96951.9 739442.0 0
102356.0 740653.0 0
107720.0 738840.0 0
113001.0 739338.0 0
118238.0 739066.0 0
123105.0 740814.0 0
127272.0 742289.0 0
133091.0 739987.0 0
138217.0 739138.0 0
143144.0 738881.0 0
146799.0 739650.0 0
151183.0 740067.0 0
157103.0 740080.0 0
162654.0 739083.0 0
167636.0 739801.0 0
173308.0 739174.0 0
177884.0 739802.0 0
181704.0 739556.0 0
187038.0 739157.0 0
193279.0 739547.0 0
198675.0 738806.0 0
202862.0 739047.0 0
207266.0 740429.0 0
212289.0 739541.0 0
217524.0 739091.0 0
222500.0 739221.0 0
226713.0 740078.0 0
231465.0 738876.0 0
236414.0 739271.0 0
241631.0 738143.0 0
247388.0 739347.0 0
253580.0 739150.0 0
258881.0 739408.0 0
262899.0 739225.0 0
268103.0 739322.0 0
272899.0 739998.0 0
277340.0 739864.0 0
282497.0 739289.0 0
287526.0 739484.0 0
291699.0 739861.0 0
296651.0 741180.0 0
302624.0 739191.0 0
307081.0 738207.0 0
311331.0 739346.0 0
315857.0 740280.0 0
320800.0 739651.0 0
326199.0 740005.0 0
331795.0 739523.0 0
336414.0 739519.0 0
342139.0 740084.0 0
347387.0 741150.0 0
351640.0 739484.0 0
356445.0 742003.0 0
361656.0 740470.0 0
367631.0 739001.0 0
372692.0 742126.0 0
378681.0 740100.0 0
384639.0 739085.0 0
389299.0 740588.0 0
394159.0 739727.0 0
399462.0 739808.0 0
403539.0 739613.0 0
407386.0 740673.0 0
412900.0 739589.0 0
417897.0 739752.0 0
422619.0 738981.0 0
427869.0 739967.0 0
432455.0 738861.0 0
436585.0 740180.0 0
441611.0 740040.0 0
446399.0 741355.0 0
451713.0 740152.0 0
457358.0 740913.0 0
461829.0 739240.0 0
466843.0 740808.0 0
472896.0 739221.0 0
478732.0 739039.0 0
483152.0 738241.0 0
487275.0 740780.0 0
493001.0 738794.0 0
497921.0 739812.0 0
2249.14 743981.0 0
5836.72 745349.0 0
10751.0 744349.0 0
17258.9 744955.0 0
22661.5 744488.0 0
27757.6 745054.0 0
33366.8 745077.0 0
38741.4 744697.0 0
42716.0 746697.0 0
47372.4 744256.0 0
53327.8 744537.0 0
58419.3 745411.0 0
63706.8 744439.0 0
68540.7 744210.0 0
72950.6 744785.0 0
77528.5 744264.0 0
82471.4 746150.0 0
87338.9 744138.0 0
92406.9 745307.0 0
98003.2 744864.0 0
102769.0 745337.0 0
107495.0 744284.0 0
112500.0 744181.0 0
117500.0 744208.0 0
122189.0 745020.0 0
126128.0 746119.0 0
131388.0 745436.0 0
137483.0 744427.0 0
142985.0 744182.0 0
148109.0 744266.0 0
153071.0 745449.0 0
158314.0 745407.0 0
162907.0 744101.0 0
167375.0 744342.0 0
172143.0 745056.0 0
177548.0 744112.0 0
182551.0 744464.0 0
186834.0 744260.0 0
191232.0 745289.0 0
197617.0 744450.0 0
203355.0 743946.0 0
208149.0 744944.0 0
213181.0 744684.0 0
218021.0 744189.0 0
222328.0 744176.0 0
226148.0 744508.0 0
231118.0 744383.0 0
236864.0 744486.0 0
242649.0 744026.0 0
248200.0 744887.0 0
252517.0 744757.0 0
256814.0 743805.0 0
261405.0 745070.0 0
266839.0 744940.0 0
272437.0 744692.0 0
277840.0 745080.0 0
283210.0 743578.0 0
288521.0 744682.0 0
293385.0 745091.0 0
297258.0 746499.0 0
301529.0 744309.0 0
307863.0 744377.0 0
313804.0 744996.0 0
318833.0 744991.0 0
323286.0 744180.0 0
327367.0 745755.0 0
332203.0 744496.0 0
337586.0 744749.0 0
343251.0 745958.0 0
347564.0 745057.0 0
352190.0 744971.0 0
358547.0 746391.0 0
363130.0 745493.0 0
367499.0 745132.0 0
372591.0 746618.0 0
377349.0 745469.0 0
382458.0 744286.0 0
386678.0 745076.0 0
392126.0 744769.0 0
397305.0 744866.0 0
402195.0 744178.0 0
406566.0 745630.0 0
411490.0 744603.0 0
417227.0 745088.0 0
422789.0 744018.0 0
427756.0 745151.0 0
432850.0 743673.0 0
438299.0 744789.0 0
443499.0 745035.0 0
448160.0 745266.0 0
452860.0 745901.0 0
457577.0 745530.0 0
462280.0 744324.0 0
466976.0 746100.0 0
472158.0 745468.0 0
477877.0 744453.0 0
483053.0 744213.0 0
487736.0 745839.0 0
492474.0 744677.0 0
497500.0 744187.0 0
POINT_DATA 5000
SCALARS Radius float 1
LOOKUP_TABLE default
4796.58 3979.26 3471.03 5253.55 5820.48 5782.6 4862.21 5113.21 3929.19 4107.03 4478.15 5379.87 5925.6 4501.51 4792.73 4736.58 4931.38 3485.26 4329.05 4151.94 4049.23 5337.48 6124.89 5708.81 5252.48 4780.03 5495.39 3996.0 3856.1 4665.12 3383.4 4133.88 4834.9 3850.77 6044.04 5415.48 5120.0 3863.18 2356.98 4998.37 6182.6 5492.18 5258.36 5061.3 3642.12 3163.97 5812.43 5122.66 5906.14 5484.19 7513.1 5254.28 4436.4 5733.48 4672.91 5580.89 3588.44 5645.7 5176.86 6810.52 5840.26 3672.51 6110.27 5561.06 5073.35 3615.22 5670.04 4380.59 3589.27 6716.79 3607.45 5759.91 7613.27 4951.03 5529.52 5255.32 6037.08 5096.78 6756.95 4129.43 6324.23 3843.58 3320.52 4194.5 4270.53 5344.25 5191.63 4593.7 4150.99 4216.92 4742.68 4344.58 5634.83 5495.84 6268.1 4861.06 5374.51 5320.28 6739.08 4797.52 4569.12 4298.67 5960.66 6608.73 5011.84 7034.11 6261.42 4502.5 3771.48 4043.57 4271.69 5681.38 4138.42 3708.04 5513.6 3240.09 4556.36 6082.81 3191.99 4685.34 5601.05 4929.8 3586.91 3103.0 3554.9 4015.92 5542.21 4487.31 3936.02 4044.71 5980.74 4094.62 4927.02 5546.39 5325.36 5484.83 5085.53 5351.6 4730.36 4715.55 5867.73 5013.56 3951.75 4499.64 4375.68 5542.27 5054.98 6030.06 5170.02 3557.27 4927.31 4688.68 4402.52 4517.56 4182.53 5903.42 3955.56 3761.32 4118.05 4366.19 5553.16 2938.66 4940.78 4231.61 4008.92 3942.53 3379.84 4827.82 3997.1 3260.67 5123.52 4392.68 3038.33 4333.2 7199.21 4523.7 2240.39 5091.39 5293.9 3912.37 6142.94 4727.24 4602.25 4790.08 5082.47 4763.45 5445.87 3815.26 4704.72 4177.94 4571.7 5896.46 5022.8 3784.5 3780.23 6481.79 5224.12 7042.12 4819.73 6326.39 4471.58 5873.69 4962.09 3999.48 4359.62 6946.21 2586.12 5433.8 4011.77 5499.11 3633.87 5922.5 5198.77 5987.17 6013.14 2765.2 4901.41 5110.37 5664.98 4382.74 5927.43 4651.28 4384.42 3693.63 4516.43 5481.78 5637.59 4937.14 5043.05 5816.2 5693.81 5109.54 6483.19 3829.13 5945.65 6759.9 5538.89 7021.47 5416.38 6059.59 2720.68 4955.55 5701.86 3563.63 4238.81 4468.59 5885.03 2837.58 5325.02 5200.76 5017.13 4862.64 5185.34 4432.58 6684.56 3968.64 4688.67 2635.86 5292.64 6166.5 5065.13 5936.02 5305.17 4861.08 4003.05 5390.22 4712.33 4805.87 5227.21 5697.78 4667.36 4091.31 6372.62 4295.38 5615.42 7565.34 5923.5 4281.49 4612.68 4973.83 6342.25 6691.39 4840.84 5135.69 5344.0 4020.32 6045.46 4245.72 5908.1 6048.7 6133.92 3719.84 4178.4 3095.48 4166.08 4123.6 4850.14 5163.55 3382.7 6817.32 4319.79 6098.14 4472.17 4203.26 5188.81 4730.41 6057.22 5062.71 6125.34 4527.08 5347.48 4850.01 3970.25 5147.67 3979.82 5011.31 5138.31 5264.06 4659.59 6327.9 4048.37 6355.42 4362.19 5690.56 4948.92 3115.91 4493.48 3307.12 5924.89 4002.16 4138.16 4174.52 3486.22 4684.5 6230.49 6458.82 5418.62 4601.27 5493.32 5740.68 5926.61 6051.14 5836.15 3261.21 4345.55 6704.06 3653.41 3871.88 3856.01 5246.2 4390.66 5279.39 3673.74 5205.43 6116.18 7447.37 4924.6 4385.06 4733.32 7184.19 2899.43 2924.37 3867.67 4290.3 5399.73 4660.72 3888.21 5891.05 6038.78 6902.81 6644.76 4254.17 5629.19 5090.24 5740.84 6445.94 5530.87 4310.18 7134.64 5978.9 3629.62 4187.56 4997.27 4301.06 4877.67 4290.14 6562.18 4156.38 5316.75 4541.21 4164.68 5669.65 5934.22 5624.49 5762.59 7092.87 4666.81 3703.1 3954.91 6471.55 2965.01 6643.85 3637.61 6222.42 5654.31 3745.84 5690.26 4156.2 4497.59 5965.78 4374.35 4810.12 5643.58 5215.05 4292.06 5577.04 5006.58 4602.86 3688.8 4548.16 3369.23 5449.18 5492.26 5244.78 5762.84 3937.74 4749.8 6084.86 5478.92 4778.34 5551.36 6894.71 4414.54 3091.3 5789.98 6138.47 7054.71 5489.43 3641.64 5747.75 4277.89 5054.25 4796.33 4195.44 5539.32 5360.19 6496.85 5600.93 4874.39 5541.59 4124.71 5728.85 4827.23 4911.47 5803.39 5863.59 4381.97 6257.19 3255.82 5242.73 2812.98 4065.69 5603.15 4695.45 6052.7 3798.62 3921.18 3666.57 5308.1 4907.89 4937.02 5655.21 4645.41 4786.6 4433.59 4320.28 5542.14 4218.06 5480.13 6308.71 4716.19 5514.76 3456.98 3498.2 5105.16 3066.13 4302.5 6006.16 6009.88 7055.53 5013.67 5826.04 5339.78 4143.78 4970.88 4763.66 4636.5 4940.42 5923.4 5085.71 5499.39 5644.82 5501.93 5463.38 5945.21 4938.74 5696.88 5607.14 3923.03 5975.63 5252.34 6396.74 4138.46 2775.04 3821.72 4986.77 6318.18 5586.81 3948.17 4621.75 4551.24 5358.59 4220.88 4515.71 6519.71 6640.13 5082.6 5810.84 4230.54 5094.44 3748.24 4655.49 4467.94 4850.81 6038.14 2540.31 6029.66 5527.54 5573.7 5697.4 4727.62 4270.95 4055.8 7325.81 5280.17 6425.26 5143.58 4794.96 6186.19 4839.34 5083.08 6834.49 6337.56 5525.39 3998.5 5938.34 4024.3 6394.38 5555.28 5169.36 4737.14 4686.65 5834.74 5556.96 5788.23 5581.75 6392.01 3599.45 6730.19 4907.06 3735.44 4073.93 6043.3 5952.75 6332.36 6122.55 2739.94 4931.53 4223.33 5911.67 3323.28 6695.82 6405.76 5794.24 4678.38 5448.61 5050.65 4827.33 5206.48 5513.57 5729.23 5226.0 3365.82 4538.95 5965.15 4780.2 6090.91 4946.42 5019.93 5081.78 6116.33 6263.44 6343.14 5774.97 5462.21 5750.71 5470.77 4831.47 4643.85 4004.04 4289.17 5564.02 4274.61 2965.79 6898.19 6035.6 5137.34 4481.53 5330.45 4581.13 4219.07 3610.4 6387.01 5367.52 4322.15 3092.35 5210.03 3629.96 5478.47 5351.39 6142.37 6061.47 4933.21 5375.47 4723.12 5120.49 5201.36 5262.61 6302.8 5409.61 6038.2 4005.44 5206.78 5555.88 6732.43 5028.96 3866.16 6362.12 4484.76 4840.01 2980.99 5611.2 7933.0 4455.12 5173.87 4894.16 5380.13 5711.87 5118.27 4941.22 5932.23 5791.61 3369.13 4479.66 5367.2 3043.85 5461.13 4726.76 5839.13 5495.68 5489.34 5163.9 5708.14 5537.72 3920.42 8332.24 6155.31 4553.56 5329.64 6049.55 5709.62 5835.78 4127.74 2476.04 3942.07 7443.72 3937.08 5260.34 4709.35 6586.45 4373.3 4750.78 4163.5 5724.64 5078.86 5100.1 3561.29 4963.34 3295.83 4459.28 4260.92 6250.23 5960.56 4118.84 4020.95 6313.06 3474.39 6470.3 4200.03 6062.05 5082.74 6915.83 6072.45 4410.55 7099.43 5526.14 5198.29 5423.0 5077.33 3856.59 4746.52 5413.79 6338.89 6202.55 5025.39 4714.54 5893.5 3320.11 5030.91 6022.17 5119.37 3982.23 6163.38 4566.18 3459.9 4964.09 4809.42 5024.9 4306.53 5659.17 5094.81 5972.06 5713.22 5861.71 4359.04 3183.98 3794.63 4524.28 3778.1 5152.36 4511.82 5826.64 4220.65 6820.42 4816.2 6321.41 4896.52 4751.02 3372.79 5184.56 5282.64 4715.72 4669.66 4808.52 5046.33 5607.24 5053.92 6352.26 3847.38 3818.59 4863.72 5002.48 6623.85 4262.82 5102.36 5065.11 4342.9 5069.84 4051.44 4241.89 5054.74 5941.72 5991.09 5133.97 6600.94 4788.58 5371.02 6155.1 5876.71 6262.72 5029.78 6515.84 2990.77 4888.6 4739.14 4918.77 4371.99 4219.78 3885.86 5235.29 4479.94 5453.3 6413.02 4863.27 5862.86 6049.79 3493.7 5374.98 4719.7 6939.12 4735.33 5411.85 5092.37 6444.77 6314.07 4287.63 5315.4 6449.45 3975.31 3689.45 3824.16 5572.95 3868.18 6723.16 5584.06 7111.16 3817.13 4547.19 5507.24 6851.54 4583.31 4503.89 5806.08 4997.27 4853.39 4093.08 4449.22 5543.27 4717.05 5287.2 6135.57 5998.38 4312.67 5423.8 4270.24 4989.15 5017.78 5015.69 6175.81 4727.24 6677.09 4305.57 6959.81 4829.35 5201.67 4424.7 4089.76 5526.55 3192.41 5215.15 4987.87 3315.57 5804.71 4764.96 5727.3 4242.52 5356.51 4277.88 3057.03 4087.15 4143.08 7500.97 3948.23 5228.18 5787.31 3927.99 5868.82 4050.9 4978.31 4099.77 4981.9 4537.32 4656.78 5126.91 3600.43 5131.24 5196.67 6496.67 5474.8 6607.87 3664.11 5117.47 4925.63 5882.65 4434.19 5187.7 4623.61 4188.3 6261.75 5177.64 4255.31 4094.73 4407.9 3492.19 4584.5 5122.63 4703.08 6345.13 5274.19 5516.95 4406.4 4413.85 4844.57 4027.46 4470.98 5776.37 4516.28 3627.82 4044.45 5125.78 5344.43 4373.47 5045.38 5350.88 5372.61 3686.21 6480.17 5023.15 4377.07 5101.59 3813.22 5570.3 4336.42 5243.29 7589.94 3130.65 5628.24 5856.11 3327.49 4109.88 4234.94 4562.29 5013.13 5080.66 3417.33 4926.42 4164.13 4642.34 4520.1 4947.52 5874.89 4293.03 5813.4 4389.21 3791.79 4925.44 4754.05 4951.47 6084.93 4307.28 3697.96 4739.42 5538.93 5020.12 4745.45 2631.9 5281.28 6255.18 4668.71 4758.21 7228.46 6362.14 6719.88 5978.82 5266.5 4523.88 4066.38 4948.98 5227.52 4414.48 4092.24 5163.02 7144.24 4906.82 5687.83 5004.23 6442.69 6320.71 4648.04 3464.83 4721.32 3163.78 3293.56 5274.14 4903.82 5746.28 4082.47 5511.6 4338.08 4378.3 6134.99 4989.56 4718.54 4440.57 5548.29 6766.43 2315.64 4390.41 5226.56 5599.49 5313.22 3905.51 3999.94 4864.22 3901.8 5759.46 3921.08 4190.31 5678.96 5262.19 4244.9 6070.58 6034.41 5452.83 5130.91 5402.24 4519.22 6445.22 3844.9 3695.36 3963.86 3848.93 4306.11 5935.47 3402.32 5903.66 4528.49 5004.67 5365.89 5992.26 3960.8 5070.39 4980.85 5714.58 5110.45 5208.32 5248.77 4083.97 4607.02 5153.74 3895.51 4528.09 4165.81 6291.51 4128.98 5882.89 6246.22 4188.32 5246.61 4100.38 5344.77 4723.48 5097.87 4899.11 4278.07 7267.18 6256.02 5320.92 5269.18 4406.1 5034.59 4942.77 4263.33 5080.18 4454.63 5912.61 3279.1 4403.98 4560.84 4729.43 5776.57 4562.74 5683.26 5598.74 5139.5 7493.3 4814.55 3527.05 5698.77 2477.07 6413.11 4305.16 5092.28 4965.89 5659.95 4152.85 2908.7 4453.64 4517.73 5469.47 5660.16 3838.47 2588.37 6736.03 6235.57 3623.87 5916.16 6934.37 6113.95 4050.08 4097.57 5017.5 5563.79 6171.13 5511.88 4512.11 5083.41 7055.42 5486.68 6048.86 4285.32 5490.43 5022.28 5197.52 4959.34 4948.5 4527.02 4531.14 4564.34 3838.56 4871.44 5076.35 6020.48 6375.99 5200.05 5234.29 5313.66 5419.37 4466.03 5409.33 4511.54 5196.0 4923.9 4973.78 3329.99 3947.47 3296.27 4713.25 4204.84 6243.0 6673.96 3556.85 5441.96 3435.9 5174.89 4288.3 5370.52 4652.29 5774.81 3746.31 5498.32 5027.98 5346.27 6475.1 4969.21 2691.29 2845.98 5289.52 5314.85 4305.43 5450.44 6510.17 5742.65 5592.32 5381.16 5565.13 6193.35 6086.96 3701.27 5233.78 5653.9 5046.21 4929.14 5894.61 3979.54 5304.13 5944.09 5833.06 4923.41 4497.31 5384.76 5529.42 5257.12 5243.43 4537.14 5551.9 3757.34 6415.61 4687.64 4419.71 5037.06 4541.8 5175.29 5842.56 5887.15 5412.31 3087.09 3423.15 4890.5 3981.07 5452.42 5328.22 6853.85 3497.9 2395.5 5941.61 5782.48 6248.6 3836.45 5683.61 5100.25 6894.26 4986.51 5339.38 5178.99 5383.07 4591.87 4790.78 5013.42 4247.15 6552.22 5651.07 6248.81 5273.35 4091.8 4645.58 2651.49 5512.23 5275.32 5985.29 4898.94 4178.15 4613.31 4733.04 6119.09 5788.66 5091.68 7531.29 5069.25 5048.89 5935.03 3161.47 3991.03 6390.78 7435.25 6826.57 4788.87 4495.87 3702.37 6022.72 4643.31 5527.33 6917.52 5402.21 4989.09 4880.14 4982.31 4307.48 3848.54 5941.4 5331.02 4871.96 4863.23 4402.67 4470.61 4631.83 4384.88 6887.27 6008.49 4806.34 4287.53 5612.21 5945.08 4968.03 3306.14 5490.58 4863.79 4702.06 3830.46 6031.67 4689.15 6138.12 4428.78 5409.66 4345.67 4765.72 4642.66 4752.14 5329.59 4888.12 4950.97 5512.16 3197.63 4863.96 5191.08 5203.08 7480.41 5163.77 4488.85 3731.84 4901.07 5186.3 3436.15 4151.76 4020.4 3493.47 4596.75 4933.65 5443.58 4558.46 5805.86 4049.02 4470.4 5311.03 5255.12 6169.11 5615.35 4027.09 6422.84 4502.18 5379.09 4602.85 4962.77 5872.05 4853.02 6259.23 5181.4 5670.2 4711.62 4114.24 4247.23 4268.65 4694.83 5509.42 4354.08 4256.43 5936.36 4520.62 3903.75 4755.47 4485.99 5127.16 5475.8 5314.69 6050.81 5543.46 4249.46 5965.81 4750.17 5660.85 2330.66 4177.19 4752.51 3587.05 6229.37 6718.19 5282.91 3797.33 4425.84 7256.35 4800.69 6566.1 3555.86 6386.78 4996.99 4896.39 6081.14 5480.83 4607.85 4220.46 5128.57 6000.7 5604.21 3169.67 3361.92 6710.88 5395.14 3967.48 6213.04 6622.11 3685.13 6790.73 4655.16 5251.4 3867.19 5857.79 4039.91 5276.7 5036.58 6119.63 5411.02 4752.9 4287.16 5199.44 4062.5 4435.51 5374.07 4588.7 3766.55 4579.69 3554.48 6496.52 5005.85 4216.17 6484.17 4721.02 4254.37 3374.08 4031.78 6098.1 5708.99 5687.85 5346.68 5296.29 4611.53 4285.66 4896.11 5172.53 4135.62 5801.99 5534.94 5210.48 7644.38 7552.94 6101.92 5323.3 5088.44 4998.21 4662.56 5166.79 5349.31 2976.22 4649.22 5394.55 5094.52 4946.74 2682.24 5928.32 5229.48 5475.7 4016.18 5526.75 5435.74 4244.99 5327.45 5560.26 6185.89 3997.96 4439.35 3460.94 3990.25 3691.0 3758.07 4236.14 5733.62 4407.87 5282.51 4460.92 5945.89 4042.28 4105.55 4340.76 6065.22 4221.28 4456.39 5514.84 3633.79 5421.53 5937.08 6070.3 5233.29 4312.56 4612.06 5204.04 4750.58 5926.11 6667.68 5235.11 5211.38 5089.62 4590.55 4741.26 5920.32 4255.85 5097.69 3988.3 6543.13 5149.72 5776.96 5464.25 5486.48 5301.47 3645.12 4617.55 5424.88 5415.85 8659.64 5683.95 5469.13 6027.62 5010.2 6123.03 5966.61 5711.11 4575.94 4938.72 3546.71 5768.57 5564.23 5950.04 4231.83 2435.33 6401.43 5020.71 2681.29 5094.48 3872.61 4238.4 4318.48 6132.95 5266.22 4860.33 3685.13 6004.68 4051.34 3627.55 6239.84 4635.6 4256.67 3457.48 3931.07 3405.98 5417.15 3688.16 4681.72 4945.39 5996.33 3950.63 5415.19 4612.62 3619.07 4467.04 4275.57 6385.23 2983.99 2614.4 6363.92 6205.93 4923.24 5830.72 6184.4 3828.81 4373.45 4082.57 5255.18 5169.9 3004.16 4767.78 5235.17 4779.5 4421.12 5254.49 6649.96 4303.19 5784.3 4256.57 3914.2 6088.68 4643.56 4135.08 5620.74 4778.82 6124.08 5467.84 5053.95 5266.01 5253.37 5767.9 6515.8 3685.65 5869.4 3701.16 4186.6 5895.77 4732.09 6136.49 4356.25 4216.95 4209.49 5742.74 4244.21 4947.24 3875.05 6200.54 5148.58 4199.45 7234.66 6599.66 4055.54 4233.8 5765.42 6098.95 4997.83 4893.49 5325.44 5021.88 5956.65 4498.25 4188.87 3735.24 6574.95 4074.48 6333.29 4558.47 5731.57 5997.88 5839.71 5576.92 6408.83 3930.79 4004.35 5226.97 3312.06 5180.76 3361.26 6799.4 5278.36 5865.39 4427.28 6079.11 3082.32 6430.39 3658.37 7440.72 3949.6 5703.6 6326.18 5661.62 4867.08 6631.19 6648.68 4713.74 5626.61 5817.25 4084.49 5061.98 6632.99 4537.6 5147.36 4419.61 7177.44 4563.46 5309.98 6553.94 5726.66 5460.65 5652.0 5463.41 5225.33 4929.75 4435.36 6045.22 4614.3 5134.39 3532.3 5769.98 5442.32 2221.99 3580.58 4863.01 5356.79 5657.36 3619.79 5029.47 6306.21 2978.76 2040.66 7016.27 5884.9 3876.21 5689.26 4916.22 6022.7 4940.84 5750.07 4809.67 4757.74 6045.67 3946.28 3821.94 5439.9 5367.73 3540.11 3456.47 4652.01 5421.64 4858.51 4207.54 4886.12 6419.12 4976.12 4817.16 5453.98 3991.42 4388.63 5102.75 4597.29 4200.09 5931.77 5151.21 5398.64 6817.57 3614.96 4477.04 3886.68 5703.74 5662.55 5737.92 4360.23 5365.24 5293.51 4763.96 5754.18 5008.63 3418.99 4480.95 4993.35 4409.63 5521.25 3661.9 5370.85 5949.46 3178.54 4765.02 5376.71 4448.13 5070.29 4807.28 2261.36 4266.03 5280.69 4220.03 6923.84 5407.78 5449.46 6179.96 5703.07 6113.54 4662.43 6260.79 3963.76 5528.53 6799.88 3062.43 5990.52 5426.78 2967.38 4159.35 6477.91 4237.98 6439.37 4081.97 5401.99 5580.92 5973.33 3583.21 5067.46 2511.46 4011.37 2775.69 4785.25 6519.43 5876.64 5424.46 4857.84 4908.49 4962.21 4858.44 3468.42 4673.35 4771.13 4992.42 5297.19 4351.38 4833.46 5933.7 7248.4 5280.12 4444.97 5984.81 3498.16 4409.27 4640.06 5471.74 3548.39 3673.28 4928.27 3375.28 5625.65 4301.61 6107.89 4446.84 5660.55 5148.08 4834.87 3672.21 5760.22 5938.17 4795.43 5097.95 5108.06 3573.73 4693.52 6853.04 4745.43 5831.96 4747.55 3056.7 3755.95 6234.32 4586.19 4446.06 3450.93 4270.74 5132.68 6595.03 4558.15 6218.95 5222.16 5107.23 5136.08 5558.68 3776.94 4010.57 5629.39 2684.03 6157.04 4768.61 4522.21 5075.55 5506.19 6719.94 4950.67 5227.59 6166.29 5453.6 5409.63 5294.77 4709.05 4630.82 4043.66 4813.08 5860.67 4540.86 3764.1 4835.83 5604.35 6316.56 4332.87 3091.67 6420.81 4715.58 4450.7 5151.52 5369.08 4347.74 5291.9 4009.62 2081.58 6505.78 5461.55 4270.15 6865.76 6449.64 6464.8 4684.44 4749.59 5799.69 5571.72 3809.69 3208.96 7051.9 4184.23 4144.57 5550.75 6834.41 6226.14 5466.33 3000.29 5721.05 4247.69 4514.39 4588.99 4321.21 4344.34 3583.49 5052.84 4366.74 5297.16 3184.64 5206.33 5530.49 5653.03 3718.69 4514.79 2216.82 4509.89 6752.75 5269.38 5607.3 2928.82 4222.4 4000.43 4568.41 3420.08 4912.04 4539.07 5464.68 2685.81 5591.76 4585.31 6625.18 5323.91 5097.45 6293.89 5737.75 2761.07 4983.39 5366.52 4690.55 5533.72 5533.42 4802.32 3678.08 4599.38 5246.47 4187.31 6191.29 3240.51 7422.36 5161.01 4298.15 4628.4 5832.37 6051.83 4642.93 3973.12 4263.16 3077.84 6024.75 6109.49 5567.93 5987.42 5332.65 4442.22 6451.33 5413.31 3012.99 6400.08 4743.59 5208.14 3317.83 3763.05 5092.24 5549.49 3101.75 4518.04 4766.06 4874.18 5435.19 3298.2 4953.1 5818.95 4093.99 3940.49 4406.05 4680.94 5828.35 5876.72 5236.43 5285.07 4680.14 4608.41 4187.94 5980.59 5021.77 3796.15 4801.8 7216.98 5271.02 4209.31 5718.28 6242.79 5950.45 5713.03 5849.65 5134.67 4165.21 4215.0 4936.96 4481.76 5452.78 5065.26 4304.41 6192.0 4940.28 5885.28 6579.31 3004.34 3022.6 4811.76 4914.45 4698.87 4661.03 3624.7 5262.35 4691.91 4475.83 4510.8 5889.35 5010.04 4394.56 4570.98 4275.07 5825.38 4185.61 4047.87 5742.47 3778.02 6552.21 5417.8 5146.37 7132.12 4836.16 5518.57 5151.11 5463.48 5730.33 5545.46 4527.99 4543.1 4376.7 5190.61 8325.01 3764.06 4440.81 5941.9 5434.47 6642.76 5829.22 4497.78 4243.79 5811.18 5433.65 4008.15 4887.76 4669.06 4811.32 4286.49 6184.88 5829.32 4396.25 5551.95 3918.87 2275.45 5423.42 6605.86 4383.56 5012.5 3562.79 7093.13 4516.53 4122.92 3604.14 4452.54 5089.1 2711.19 4028.32 4099.92 4884.59 3858.06 4511.7 4083.79 5263.27 6300.92 4173.54 5599.29 6038.68 5046.12 4807.4 7013.17 3805.67 4601.74 6506.86 5088.57 5580.34 3852.6 5775.31 4706.5 4603.5 4647.67 5375.12 4356.36 4892.44 5578.94 7610.49 4286.17 3684.56 5323.55 5375.1 4172.6 5313.12 5351.56 3984.88 5160.59 4732.09 4320.42 4255.34 5064.79 5480.3 7509.24 4146.81 5896.26 5388.78 6101.13 4573.72 5099.21 4917.99 5636.4 4367.78 4350.12 5227.02 5670.0 4232.16 5300.96 4344.51 5680.94 3781.77 5581.55 5193.01 3474.5 6550.44 3860.83 6348.03 5732.27 4523.39 5278.56 5146.37 6917.62 4013.38 5631.14 4343.78 3352.35 5263.3 4909.65 6523.86 7693.4 4326.48 4437.07 3449.37 5491.9 6405.0 4659.16 5789.55 4633.05 4901.2 5711.62 4798.17 4990.79 5166.79 6479.39 2895.63 4997.91 5079.22 5381.54 5810.77 4714.83 5474.15 7519.2 6355.68 4478.6 3953.55 4304.63 4469.54 4314.56 3928.53 5606.51 5740.65 3834.47 6349.67 6329.53 4590.01 6101.86 4227.41 5993.0 4803.57 5966.42 4110.59 3332.49 5354.66 4214.44 5378.23 4787.97 3746.36 6789.23 3989.7 4777.03 4246.61 6028.09 5452.36 3804.5 6486.37 5498.42 3344.57 5318.53 5220.76 4281.98 7165.9 5344.83 7046.11 3427.63 4863.97 6342.48 5756.75 4587.67 5599.7 4163.74 6969.28 3665.95 5698.96 4095.75 3603.51 4298.45 5222.51 6609.84 5135.96 3834.43 5658.37 4707.06 6074.94 5491.37 4250.88 3783.54 5268.38 3475.67 4792.39 7038.89 3863.67 4814.12 5067.56 6137.8 2735.53 5116.6 3747.03 2783.85 4356.49 4526.81 3994.07 4219.94 5907.46 6740.71 4264.91 5399.29 5971.22 4909.31 6522.59 6602.43 3568.28 5425.98 5996.66 4405.42 2995.67 3598.08 4599.81 5698.23 7300.58 3608.06 6633.61 5217.95 4867.7 5484.36 4277.24 4063.9 5291.05 5161.1 4619.2 5166.41 5067.56 2596.96 5701.75 4350.15 4139.3 6541.45 4750.49 5078.31 5391.48 4923.43 5131.15 4847.14 3950.27 5116.66 3566.79 5374.67 4981.43 4741.28 4215.2 5069.89 4157.29 6813.72 5327.75 4609.02 4896.65 4638.18 4196.37 6448.66 4453.97 6945.98 5138.2 5783.48 4701.5 4449.98 4504.35 4771.65 4840.44 5093.82 5951.81 3924.14 6918.35 4296.69 6238.32 3319.67 6471.42 5283.8 4076.59 4428.14 5164.1 6464.15 4479.11 4972.17 6685.4 5699.53 4222.77 6332.01 5527.23 4234.18 4805.33 7085.01 5980.95 6193.08 6069.3 3862.77 5887.01 5168.35 5388.39 3728.18 5335.47 5633.61 5048.19 6799.23 4888.27 4592.15 6487.56 4854.11 4998.22 5533.19 5417.21 6104.26 5583.61 6063.64 4986.71 7382.3 4022.56 5522.21 3772.3 4855.01 6208.9 4923.57 3340.09 6061.63 2279.05 4829.35 4075.28 8137.11 5484.32 6650.77 4067.96 4824.12 7104.73 6162.3 3272.75 4264.54 5261.19 3516.27 3104.96 7043.44 3831.52 4263.78 4263.65 4643.9 6106.43 5228.75 4807.35 6047.14 5467.63 5009.83 5666.95 5210.38 4642.2 5717.8 4811.22 3629.44 3683.86 5003.78 4918.76 3299.24 5293.75 6246.56 4208.41 4061.6 5826.78 2603.64 5473.72 5107.0 2856.55 6212.15 4553.68 6502.97 5361.87 4783.07 3758.22 4946.23 4757.2 4852.58 3205.68 6083.28 5561.74 5211.6 6100.73 5806.31 3556.79 4788.08 4745.79 5456.71 5470.04 3503.41 4908.75 7317.04 3971.08 6412.67 6204.65 7001.83 4482.9 5012.97 4593.7 4036.91 4349.13 5589.37 5110.11 5439.49 6379.14 6639.64 5216.26 5212.43 3687.65 5454.12 4887.52 4834.3 5478.95 6348.54 3851.85 6804.79 4066.57 5642.35 4206.98 6372.13 5156.76 5369.5 6357.47 5404.01 6101.57 6016.19 4891.38 4124.49 5535.91 3230.13 2949.12 5714.25 5955.86 6176.67 4533.37 5325.96 4848.46 4850.06 5412.24 5016.02 2779.99 7044.29 5887.38 4920.21 4581.37 4049.16 6942.34 5851.61 3658.05 3936.95 5478.11 6153.94 5526.31 6836.82 5030.15 3858.17 3644.78 4631.99 3477.1 4740.98 4078.93 3185.39 5934.82 5128.77 4501.78 7122.87 4922.49 5797.36 3572.94 4243.26 5001.58 4153.84 4820.17 5119.86 4729.42 5089.26 5244.98 5084.17 3886.72 4901.44 5415.45 3776.8 6592.93 5096.43 6156.21 6350.71 6436.74 2460.79 4456.11 4653.83 5096.24 6171.71 5039.12 3628.89 3908.98 6589.82 5769.14 4668.88 6328.42 5027.43 7307.21 5522.75 3381.82 5867.64 3619.72 4438.58 4646.51 6059.93 4565.93 5602.53 7107.63 5073.02 4831.93 6545.43 5788.97 3472.91 4023.93 6760.92 5868.89 4989.2 3274.85 4711.04 5007.21 7144.05 5494.28 4506.18 4099.26 2970.9 5206.47 6542.5 4580.06 4383.47 4834.39 5971.21 5493.89 5262.47 3512.94 4991.35 4587.7 4258.98 6761.81 3903.91 4568.64 3919.62 4127.53 5210.75 4474.83 6555.44 5658.14 4508.18 6214.73 2205.51 5175.89 3894.64 4268.19 4374.74 4532.7 4504.86 5975.23 4473.29 4198.94 6163.54 4211.82 6556.26 5684.25 5438.92 6550.4 3766.69 4891.67 6818.91 3503.65 3634.5 6631.28 6571.31 4392.65 6318.23 4058.87 5174.75 5932.07 4984.46 5948.71 4793.65 3856.53 5460.89 4532.89 5260.85 5742.09 2884.65 5807.46 4648.21 4393.16 3311.29 4549.69 6423.81 6192.77 4312.15 4583.52 6418.11 6015.02 5244.22 5832.29 5585.14 7039.98 6456.58 4159.81 4960.64 5792.98 4385.81 4034.05 5690.96 5798.38 3862.91 5366.11 3419.87 4824.81 5113.6 5944.3 3563.14 5135.5 5347.9 5851.63 4504.52 5212.92 5615.84 4464.73 4928.85 6440.38 5556.0 5545.59 4954.81 5610.53 5755.15 4835.97 3926.11 4057.17 7066.96 4467.0 4994.65 5196.92 3787.08 5644.81 5334.36 4728.55 4929.6 5750.35 4489.99 4548.45 4658.11 4551.26 5730.61 7124.45 6358.93 5064.67 3703.49 5232.85 4062.56 3717.47 6200.63 6816.66 3217.67 5079.64 996.652 5212.37 6003.78 2628.22 5058.51 4244.49 5036.98 5513.8 5188.53 4521.75 4027.63 5569.2 5350.88 5420.67 6413.15 6103.11 5048.55 6459.51 4024.31 4955.16 5844.72 3992.97 5989.05 6040.74 4054.22 7228.94 5393.65 4961.99 6551.93 4595.12 3110.13 6484.43 4625.67 3485.54 4458.64 3657.69 3492.83 6280.13 3684.15 2606.51 4438.76 6006.89 3814.65 3965.3 5372.82 4983.3 7778.01 5127.82 5124.17 5805.1 4125.9 4064.58 4234.88 4384.28 4456.26 4810.98 5091.22 6282.38 5640.72 5657.55 5727.79 5188.82 5043.14 4717.73 5072.5 3904.07 5748.9 3663.0 3742.31 6304.49 5134.72 4608.34 6419.64 5464.83 2781.96 4431.23 5917.34 5601.55 4462.87 6545.99 5630.9 4554.68 4368.28 4692.32 4945.0 3127.83 4212.15 5114.07 4385.49 4263.18 7142.95 4383.68 6618.21 2617.39 5144.44 4051.18 5969.37 4928.35 5034.69 4509.46 3538.53 4680.69 6500.49 5965.58 3352.34 4901.29 4050.03 4775.04 4120.07 4882.66 3429.57 6746.66 5410.33 4642.74 6735.97 5305.59 5416.45 4330.58 5754.6 3288.01 4904.51 4147.31 2202.77 5751.15 5950.88 4149.55 4441.22 5853.89 3380.69 4140.4 4386.8 5446.4 4725.01 5966.75 5510.9 4505.28 4883.63 4971.29 5510.45 4730.14 3994.39 6119.99 4618.73 4128.1 4446.58 4402.17 5401.4 5053.15 5910.86 6239.68 7320.78 4834.44 5782.43 4027.33 3873.92 5026.76 5023.41 4092.07 4546.44 4224.3 4184.21 4700.07 5273.37 4732.37 4985.3 5713.36 4749.18 5553.94 4546.96 5424.55 4921.1 3814.16 5695.79 3622.8 5414.58 5577.41 5740.98 4346.07 4013.86 4177.47 4218.16 2918.64 4140.92 4512.07 5984.8 5236.24 4585.04 5678.58 6570.35 4242.63 3269.54 4559.74 5836.26 6666.67 6063.44 4583.94 5046.31 1937.5 3844.54 5849.53 4651.99 4420.11 5863.0 6127.39 4972.18 4607.18 4124.76 7200.89 4813.33 4952.52 3840.21 4081.34 4954.76 3908.56 4844.83 5244.78 3636.15 6114.89 5135.63 6384.7 4355.83 6870.97 5351.86 6056.87 5474.01 5307.35 6201.86 7554.58 5166.89 3639.44 5491.63 5725.37 3868.62 5138.33 3743.76 3425.69 6711.21 4236.86 5393.76 4941.02 3864.92 6010.59 2955.36 3668.93 4009.24 7541.76 4775.49 4681.29 3220.29 5749.6 3845.9 4439.71 5667.51 4708.31 4198.9 5431.29 4833.67 5325.91 4213.05 5157.38 6203.03 5235.87 6089.45 5810.17 4966.07 4400.14 3669.32 4704.92 4316.0 4287.25 4392.75 4271.07 4420.6 5287.25 4770.51 4184.47 6511.37 4012.92 5759.79 4598.54 5218.42 4933.49 6139.64 4896.43 5463.06 4639.8 5260.52 3185.09 6102.49 5114.23 5495.0 7407.91 6015.22 4454.74 2904.46 4826.52 5120.92 4337.32 5241.75 4731.53 3763.9 4788.7 5084.5 5640.12 5329.76 3899.7 2403.72 5134.33 4147.49 4802.98 4833.55 3646.95 7224.99 6334.53 4749.96 5377.37 5652.87 5483.7 5018.69 3152.86 5952.38 3896.27 5807.52 5963.36 5230.02 5087.14 4342.18 5169.48 6016.08 4731.21 3124.7 6064.71 6102.98 6060.17 5153.18 4763.4 5902.67 5454.11 3779.45 5806.61 4983.1 3682.35 7123.04 3756.96 5906.57 4932.29 4990.23 3784.94 5499.59 3125.13 4141.21 4174.44 4564.41 6331.74 5951.86 4252.18 4659.88 3791.41 5853.12 5702.4 5069.9 5473.89 3673.6 3306.84 5265.21 4657.24 5866.42 4762.1 3987.69 6502.99 6219.34 4191.01 4475.38 4589.06 4920.88 5890.25 4216.44 3999.5 5034.05 4816.51 5345.73 4770.63 3990.94 4756.8 5477.8 4462.35 3986.41 4241.68 3469.18 2945.34 4489.29 4301.93 5064.23 6061.85 5512.44 6449.06 4924.07 4685.4 6240.42 5146.0 5721.14 4577.73 4987.28 4918.64 6638.25 5078.59 4759.99 2646.13 5419.57 5162.67 5760.98 4705.68 5469.35 5384.86 4019.34 4658.24 5869.67 4311.48 4899.73 5457.66 6394.19 5973.89 5366.22 6193.73 5518.11 3742.11 5712.35 5701.52 4743.9 6776.22 5321.17 3719.11 4467.13 3877.8 6273.6 5136.87 5024.32 4708.17 2741.2 5790.42 5784.37 3142.09 5591.77 5182.13 6110.48 6245.52 3954.77 6793.1 6016.87 4506.66 6715.73 5209.55 5426.4 5763.05 5129.68 5357.39 5076.84 5247.01 4208.37 4841.7 5685.74 952.938 4678.7 3450.07 6215.87 5191.26 6060.06 5544.27 3484.81 5308.33 4666.12 6023.07 5674.63 5340.05 5995.4 5322.11 5700.79 6710.14 4426.02 4711.15 5188.22 4841.23 2804.54 4357.11 5005.6 4176.32 6069.78 5532.75 6949.65 4095.83 3372.95 5676.61 5846.95 5268.15 5819.0 6347.72 3460.93 3200.6 4629.02 5914.5 6006.16 4288.45 5407.96 6206.98 6562.03 4815.47 4368.12 4365.58 5214.4 4636.53 3629.49 5766.05 5117.64 3835.81 4869.48 3623.19 4906.11 4387.39 4564.1 5825.55 5509.51 4848.14 3199.4 4316.5 5254.24 4192.21 3597.43 5144.56 4158.91 5311.55 3360.86 4869.25 5545.21 4333.87 5684.05 3667.93 5638.7 5813.79 4644.88 5293.13 7350.26 3768.46 5167.53 5003.3 4168.52 5800.81 5106.46 4068.31 5166.05 5077.29 5515.73 4850.5 5866.91 6405.69 2820.07 5679.74 4825.73 5288.33 6296.54 5797.21 6019.35 6740.35 6028.63 4550.92 5146.1 6485.77 3869.39 5960.5 5393.43 6896.55 4685.65 5377.01 6470.23 6506.63 4140.04 3495.3 4697.49 5735.08 4726.2 4750.81 3825.48 3810.68 4196.62 2809.19 4916.7 5486.89 7208.19 4549.51 3587.93 4975.85 5695.25 5323.95 5716.42 5701.63 4620.95 5368.93 4488.39 5124.86 4927.73 4602.57 3565.32 4608.62 4071.75 4626.72 5131.77 5549.71 4410.82 6443.99 3889.98 5193.58 5399.43 5695.44 3422.21 3916.42 5429.3 5510.96 6653.07 4745.16 4697.91 4584.81 5071.98 5719.79 4371.08 7261.51 4968.14 4914.03 5086.29 5527.13 5139.18 5551.43 3034.16 5049.99 4201.03 5001.87 4493.79 4279.44 4899.19 5058.34 4028.22 5575.11 5487.63 3852.82 4507.36 7145.73 5403.97 4795.08 6562.92 5501.73 3671.06 3612.44 7035.54 5233.76 4683.28 4217.36 6549.8 4851.18 4165.36 4871.77 5811.26 5062.77 4884.93 6075.99 5262.79 5927.2 4419.79 5407.69 5152.78 4117.9 4753.76 4781.9 4638.09 4441.91 5330.26 5939.22 4668.8 5125.17 4859.01 5524.45 7133.44 3953.26 4474.39 4658.59 6478.35 5453.77 4104.04 5589.53 5593.79 5025.42 5196.08 4517.29 4495.75 4849.5 6171.01 5796.26 4603.04 4870.94 5271.88 6121.56 7168.2 3763.85 3419.07 5710.33 5344.44 6432.8 3186.07 4369.86 4967.51 5173.82 7212.97 5490.64 5034.34 3769.2 4507.46 5036.14 5603.68 4944.51 5610.95 5532.72 3220.8 5179.17 5579.39 5270.51 5148.1 5490.75 5224.64 5949.73 4312.48 5783.94 6370.33 4278.57 5081.08 6318.25 6864.06 6008.81 4932.56 5192.49 3487.31 6643.4 3918.94 4674.9 5461.72 6599.28 6224.85 4556.19 5368.66 5648.78 6875.73 5226.42 4697.24 4983.43 5117.52 6311.89 6734.39 5942.45 4150.76 5005.72 5368.52 5155.28 5388.73 5205.38 4764.83 4600.71 3957.38 4494.15 5035.71 4710.88 5300.17 4057.4 5534.23 6025.77 6815.96 5339.6 5828.25 4725.11 4215.05 4271.93 4604.1 5076.11 5990.75 5600.21 5459.92 4625.53 4096.47 5114.67 5353.66 2638.82 5030.33 5234.2 4965.24 6379.38 6257.79 5353.23 6229.83 4468.26 5578.18 5293.37 5933.54 5559.79 5879.24 4571.74 4096.86 3622.48 5001.51 5385.86 5115.42 4082.4 5482.76 3745.02 3720.7 4211.36 5698.53 3604.31 4450.49 3468.45 5635.32 4526.34 4316.45 5409.08 5042.75 4598.92 5241.22 6647.08 4979.52 3422.29 4407.79 5214.63 3495.68 3990.96 5352.24 7362.42 4202.77 5836.14 5473.05 4373.2 5537.34 5884.99 5726.42 7025.09 4433.12 3392.26 2549.95 4361.24 5138.93 6406.8 7086.69 6170.9 5833.78 4436.48 6081.3 5615.35 3967.76 6213.24 5987.88 3579.59 4228.53 6123.46 6142.88 5111.26 4574.54 4949.55 3132.34 1969.87 4841.28 5507.38 6889.5 4416.87 4052.43 4896.67 3934.11 5158.44 4466.22 6153.71 5917.08 5483.37 3626.86 6371.96 5322.07 5770.07 5101.6 4282.11 5467.51 2347.41 4542.16 2030.03 3543.37 5527.27 5104.39 4612.13 5846.6 5327.05 5438.55 4434.65 5977.66 4523.81 5106.33 5198.94 4028.35 5464.05 2980.31 3148.79 5740.78 4796.12 5997.91 4742.82 6791.86 4209.0 4930.72 5728.58 4887.73 6297.99 5378.24 3856.73 5817.74 5887.71 5661.6 4827.61 5285.75 5385.03 5481.64 5673.75 5360.67 5968.54 6263.3 4501.05 4537.03 6548.29 4114.2 4326.06 5034.46 5757.29 5793.12 5469.17 5061.75 3769.24 6022.78 4087.32 6647.85 2569.12 4161.32 5161.74 7336.37 5099.9 6945.69 5118.86 4183.4 4304.64 4733.79 4823.06 5758.98 5254.49 5288.64 6828.8 6883.86 3350.99 6161.94 4065.28 5057.59 4461.14 5285.6 5615.06 5490.54 5203.54 4047.95 6142.94 5001.69 6581.56 3980.46 5383.9 3798.09 3886.56 4496.51 4511.05 6561.94 5259.21 5418.12 5934.05 4714.66 6771.18 4984.17 4656.01 6589.13 4037.86 5602.62 5714.51 5628.97 4484.78 5157.73 5847.91 4934.66 4109.44 4903.84 4290.49 6688.53 5209.5 5065.74 5791.25 4873.23 6731.89 5410.6 5453.2 6348.93 6824.53 4332.64 5232.16 4422.23 4820.68 6031.22 5485.84 6424.77 5453.69 5918.95 4538.89 5689.56 6556.86 3242.31 6099.28 5372.25 3234.26 4169.15 4778.37 5134.17 4074.16 4904.35 5592.54 3247.97 5124.34 4904.37 4358.81 4651.64 5729.92 5016.46 6224.13 4761.84 3661.67 5517.65 4009.68 3303.49 4622.73 5256.75 6351.89 5932.28 2960.5 4975.32 4298.7 3902.48 6030.39 4905.53 3799.01 7392.65 5319.1 3757.23 4181.93 6570.43 3820.19 4979.5 4745.37 5939.29 5418.98 5575.11 4052.49 5061.74 5326.03 6189.67 4948.96 5256.82 4013.86 4061.87 5165.31 4288.5 5715.51 3721.69 3456.3 6074.39 5317.83 5092.93 5881.93 2803.01 4444.0 6182.19 5327.39 5781.62 4981.81 4138.59 4970.55 4938.33 4621.33 4541.22 4946.08 3539.68 4984.01 6217.33 4557.1 6270.59 5927.1 6175.27 5876.51 4103.76 2932.52 4733.41 5264.83 3901.53 5136.51 6815.51 5313.86 4457.05 3989.26 3618.64 5703.84 4335.79 3530.82 5797.32 5432.04 3921.27 3702.45 5265.63 4898.29 4431.06 5730.2 4830.13 3494.16 5370.9 4529.77 4325.13 6172.27 5390.33 5078.73 5278.54 5729.0 5192.92 5275.57 4179.87 4786.66 5891.25 5370.1 5129.4 5114.51 4655.37 5585.25 5023.61 4672.86 6530.78 5560.23 3043.77 5237.55 3909.94 5088.64 6589.8 6920.92 3729.16 3783.36 3038.91 3922.28 4571.57 3445.92 5236.69 4586.82 6026.04 6200.05 5859.17 4034.41 5522.34 5771.98 4420.35 5717.45 5117.83 5268.27 4645.93 5448.64 4585.37 6417.61 5395.12 5783.69 5350.9 3483.61 4256.08 4460.89 4399.52 4554.24 3939.96 5910.66 7415.84 4637.3 5141.03 4840.44 8123.59 5765.14 4767.54 5121.08 2927.84 4696.03 6177.68 4605.39 2848.44 6045.26 6500.45 4907.55 4094.63 4286.61 4603.66 4969.68 6636.43 5431.14 6298.8 3689.24 5178.07 5189.91 5777.26 4171.02 7012.36 5028.06 4002.99 4886.99 5159.67 3161.1 5764.52 5684.88 6523.78 4645.86 4045.67 5620.88 4941.52 5900.0 4262.74 6241.77 3783.79 5317.19 4248.14 5279.19 4016.6 5821.49 7050.08 5580.44 5998.13 5095.52 4746.15 3720.38 4758.84 4731.37 3976.0 4068.41 6463.71 5059.37 5783.38 4139.39 6264.03 3562.8 4151.74 5192.82 4174.22 3573.84 4067.89 6294.09 5131.07 4121.07 5524.28 3133.28 5731.43 6353.81 3518.14 4150.44 5044.68 2649.69 5899.78 5000.74 5772.57 4813.81 5244.95 4634.25 5901.8 6351.48 3830.7 6210.0 5432.4 4262.52 6738.9 5992.06 4157.1 8052.53 4867.12 6044.01 6520.19 1458.87 5734.07 3997.68 6033.28 4819.83 4801.16 5071.38 5616.66 5688.77 5368.28 4698.7 6229.64 4220.43 6263.87 5743.8 6666.34 5084.76 6605.11 4757.87 3557.46 5971.95 5652.73 3979.46 6321.97 5151.19 6509.54 6119.0 3792.06 5128.59 4293.3 5587.3 3572.73 4864.38 3770.22 4390.64 5150.84 4608.01 5087.97 6005.95 4308.49 4930.17 4581.1 4745.44 4085.96 5762.82 7360.12 6223.98 5462.6 5617.29 3035.06 4262.19 4597.88 4878.93 6275.25 6892.33 4505.3 4452.36 4511.34 4832.21 5009.21 4742.35 5394.79 5645.54 5264.08 4526.87 4691.01 4594.89 5245.95 5821.42 4515.02 3463.53 6126.03 2970.24 4197.87 5105.54 5462.1 6032.45 3414.67 5444.36 4026.03 6908.32 3467.11 4817.75 6153.26 5637.53 3882.37 4095.4 5188.57 3873.79 5357.33 5252.37 4499.54 5037.58 7430.48 5640.67 5545.68 6080.69 4970.12 4967.93 6369.66 5973.57 5922.62 6241.48 5125.45 5957.82 6286.27 6327.54 5507.07 4802.36 5327.71 5466.13 5257.38 5075.23 4975.56 7282.36 3826.01 4645.91 5581.01 6834.92 6379.33 5130.57 5090.48 5402.45 3985.93 6412.84 6071.59 2589.19 6079.55 5485.61 4993.49 5310.33 6583.37 3688.83 3402.44 4848.98 4491.96 5184.98 4467.51 5339.82 4519.03 5460.57 5110.27 5703.34 4612.68 6668.98 6649.52 4232.33 4939.56 4747.68 5770.92 3093.38 4845.91 2002.78 5631.32 6322.0 5793.14 4491.26 4609.65 5704.61 5410.73 4379.91 4574.03 5290.37 5850.38 4227.66 4730.97 3677.85 5214.71 4677.84 4811.11 4924.52 4866.8 6044.69 5658.05 6593.1 4000.51 6033.93 5011.37 2827.92 4441.44 4232.44 5336.61 5563.09 4848.15 4439.09 5523.81 4718.61 6697.45 5717.67 5515.59 3224.81 3775.38 4046.22 6457.89 4844.2 6572.17 3751.73 5555.89 4766.47 4871.1 5678.08 5872.45 4414.09 5191.29 3784.68 4188.16 3717.22 4654.92 2943.17 5286.55 4880.78 4322.56 5509.09 5625.02 5212.05 4829.77 3928.99 4444.92 6959.88 4125.75 5749.53 5247.73 5034.02 5582.28 5945.25 5181.31 3856.4 4696.06 4137.16 4937.36 5308.4 6581.13 4569.32 5537.61 6084.88 4397.06 4199.44 4053.12 4479.5 6261.67 3435.13 5065.78 4431.46 4521.42 3207.84 3977.98 6043.34 4128.93 4959.72 4712.17 3808.04 4723.71 4461.67 6126.5 4034.88 6007.1 6345.2 5488.96 5128.03 3720.92 5087.3 4942.63 6139.74 4975.57 7066.26 3057.3 6150.31 5873.62 4996.91 3920.44 5379.52 3768.62 5314.67 5563.47 5651.46 4066.36 3162.27 5516.37 5092.44 5432.2 4612.4 3312.3 4746.19 6381.58 3282.57 4798.13 5648.59 4630.5 6296.36 4432.32 4451.76 7885.41 5782.25 4104.97 4575.72 5114.61 6118.13 3374.62 4926.62 3917.09 6009.93 4083.1 5270.1 5130.56 4947.64 6305.9 6649.21 3470.69 4859.95 4132.08 5522.18 5223.1 3873.72 4592.49 3625.98 5479.86 6474.5 4702.32 4763.04 5971.9 3746.62 4532.67 4876.37 4769.62 5260.13 4649.5 4810.74 5985.75 5475.83 6189.29 5984.55 5672.46 5803.3 3228.27 4721.98 5252.82 3543.98 5056.26 5878.55 4014.44 6604.72 6002.77 3794.47 4610.55 4967.02 4614.49 5400.69 4462.5 5573.31 5004.68 4023.88 5348.11 4405.61 5108.84 3511.5 4520.14 5067.92 5357.14 3188.21 5919.27 4793.06 6637.38 6188.33 6111.23 6916.18 5786.06 4137.41 3868.69 5447.74 4450.51 6033.72 3851.47 4966.74 4959.94 1635.31 5639.4 6185.73 4083.24 6520.96 3771.91 5217.62 6178.19 4616.81 5715.25 5212.2 4611.21 5108.42 3354.94 4404.87 5237.27 5767.65 4750.76 4907.03 5497.27 4081.77 4948.21 4987.01 2181.29 4420.3 6332.64 6492.44 4613.32 3482.73 3996.93 4957.99 4063.26 4997.89 4542.62 5093.28 6131.52 6009.88 4699.77 4850.49 4981.55 5144.23 6188.62 6153.07 4414.06 5944.52 4413.56 5050.2 2513.38 5316.05 4908.32 3995.08 5019.84 3900.93 5784.38 4149.17 4329.8 5728.27 3074.49 5202.33 3956.24 7558.99 3393.59 4142.1 5043.14 5333.04 5445.91 4521.99 4812.59 6842.54 7115.67 5675.45 3361.11 6038.56 2807.46 5599.16 4179.8 3488.34 5658.35 5428.24 4487.51 4582.12 4295.25 7394.47 4729.45 4850.95 5374.09 6271.22 3421.81 5378.75 3920.64 6186.24 5822.7 3780.07 5466.49 4038.17 5007.41 4907.48 3692.99 6213.74 2329.93 6938.87 5412.07 5512.57 4806.99 4813.55 5856.43 3839.0 5349.85 5799.86 5172.1 4362.94 4469.82 6545.78 4870.14 2932.2 5105.72 5003.49 3964.03 4216.33 5832.72 5617.91 4721.2 4706.31 4202.12 2694.25 4735.99 4203.68 4739.56 5145.39 3352.46 6351.95 5195.09 5345.05 7679.2 4881.51 2626.41 4311.92 6729.99 5093.41 6842.35 5464.34 3621.63 4777.96 5801.89 5908.57 7296.47 5742.39 4821.41 4924.53 5616.11 4499.52 3874.12 4028.13 4457.73 6476.35 6260.58 4067.24 3053.19 6571.26 5580.95 6598.99 3549.92 4032.06 5246.81 5089.1 5888.95 5394.78 3463.34 5122.38 2853.68 5262.85 4998.37 5329.84 6559.82 3879.83 6565.95 4577.98 5043.34 5886.81 4246.24 6805.02 5354.48 5640.63 4900.26 6261.13 4167.55 4720.34 5244.47 4731.16 5510.89 6470.87 4495.33 5282.67 4159.89 5178.55 5146.69 6203.24 6818.23 4488.41 4369.87 6679.12 5652.19 5806.74 6578.62 6284.12 4796.04 3465.03 5229.56 6011.4 4672.34 6052.22 5376.41 5003.63 4695.7 4944.08 4082.01 5269.39 4305.35 5210.22 2451.27 3903.9 4444.95 5161.02 3124.49 6265.48 5003.81 6262.18 3818.37 4701.03 6225.05 5434.04 5200.1 3997.52 4444.54 5779.9 4909.74 5310.33 5299.03 6664.54 3922.98 5161.73 5259.48 5254.93 4803.4 6833.5 6608.94 2613.78 4780.16 3834.01 5738.37 4433.23 4813.24 5759.19 3113.64 4490.2 4304.75 5480.86 6139.9 4720.22 4313.38 5827.3 5250.56 3633.58 2468.16 6294.14 4339.97 5203.75 5169.09 4691.15 2459.88 4210.24 5470.67 5901.71 5225.11 5342.9 5252.22 5733.12 4962.35 6436.29 5402.81 4600.81 4919.13 4124.33 5168.97 5783.88 5002.38 6705.93 4865.11 5449.09 5502.14 4605.61 4465.56 4131.08 5747.9 3864.19 4287.93 5315.71 6158.93 5081.65 4823.14 5438.5 4621.32 5699.4 3878.8 4698.94 3948.21 5669.15 5296.05 5263.86 3330.85 5056.32 5533.52 5410.33 4747.24 4380.86 5576.16 5648.02 3308.75 4439.17 5677.42 4929.35 5606.22 3943.77 5242.38 6081.35 5459.52 4609.98 5566.5 5663.36 4276.59 5579.04 5125.53 5994.21 5403.81 5082.25 6964.78 4374.05 5036.84 4565.36 5813.68 4025.08 4008.67 3618.53 4770.21 8013.28 3846.55 3796.73 5417.07 3082.16 5656.84 6789.66 4739.41 5312.2 5847.27 4706.59 5734.84 3982.31 4950.07 4582.24 2832.83 4084.87 6036.99 3010.1 3825.98 4589.22 5087.03 4667.84 3906.41 4123.08 4512.6 4260.38 4636.45 4932.27 5638.51 6793.49 3563.33 6060.19 5536.0 6786.37 4333.23 4328.76 5561.63 5940.5 4358.06 5093.51 5647.93 4280.92 6201.49 4696.92 5154.74 6437.99 6898.8 5386.95 6540.57 5332.11 4893.72 6004.72 4072.4 5373.78 5345.65 4489.18 5863.36 4632.75 5237.76 4994.98 4286.84 6423.96 6058.13 5894.69 6988.4 6635.51 4060.17 6051.35 5302.53 4909.13 4287.61 4867.13 4604.34 4863.27 2701.42 5442.79 5051.39 6673.92 5151.68 4884.94 5362.15 4455.61 4738.72 4752.31 5240.97 5569.85 5405.6 3929.35 4884.93 4759.38 6960.97 4287.15 5282.51 5504.65 5669.41 5732.11 5040.9 5596.68 4868.66 4004.39 5159.9 5283.65 4644.68 2892.36 5981.54 5911.29 5416.41 4694.27 6760.64 2515.5 5177.88 5551.79 6981.47 3916.15 4474.96 4758.76 4790.63 5259.29 3584.05 4916.75 4818.53 5097.85 5584.64 6189.04 6224.64 4221.03 3799.55 5082.66 4550.77 4337.93 3550.88 4345.51 4048.73 6223.33 3860.8 5145.13 3747.96 5611.29 4521.88 6568.45 5004.22 4601.54 7263.57 3832.09 5705.96 5267.65 5739.69 6632.04 5360.88 7360.62 4977.64 4985.45 4983.56 5699.51 2489.44 5499.37 4883.13 4836.76 4752.94 5551.09 3950.53 4501.1 5581.47 4384.91 6550.61 4987.01 4713.56 6094.34 6779.82 5543.67 3999.81 6210.48 6377.45 4182.05 4502.12 3255.93 6853.07 6327.61 4633.59 5733.59 5575.8 5268.93 3695.72 6874.6 5106.9 5306.31 5523.96 4223.53 4733.37 4535.94 3037.72 4523.9 5126.08 5604.0 3760.4 4951.02 3919.47 4602.7 3783.35 4037.16 6395.63 4987.48 5943.61 4248.58 5479.17 5020.37 4542.25 4414.23 5233.88 4849.21 4785.55 3793.83 5245.4 6189.81 5367.05 4449.73 5647.11 4088.72 3945.62 3743.85 6236.46 5342.17 6379.3 5015.67 3795.63 5189.4 4576.71 6538.04 4894.15 6157.59 5201.3 5848.41 4090.28 4246.83 5438.6 7370.52 4726.5 5467.05 3724.23 5103.3 4963.88 5888.94 4727.98 4122.2 5175.88 4516.26 4790.16 3509.34 3647.26 3731.58 3166.37 5369.42 5207.08 5205.53 4714.52 4587.19 5543.05 6028.89 5333.16 4888.17 5755.98 5392.85 5077.2 4274.05 5275.27 4277.54 5529.09 4531.46 5925.82 5448.68 4739.5 4072.95 4491.62 3865.5 
SCALARS Velocity float 1
LOOKUP_TABLE default
0.297379 1.19344 1.3826 1.30277 1.19178 1.43085 1.19178 1.19178 1.19178 1.19178 1.19178 1.22595 1.19178 1.19178 1.23381 1.19178 1.19178 1.27688 1.19178 1.19163 1.19142 1.25312 1.19182 1.19187 1.19186 1.19 1.19309 1.19114 1.19178 1.19178 1.19178 1.19178 1.19178 1.40039 1.2955 1.24144 1.51206 1.19178 1.19133 1.19055 1.28515 1.19178 1.35142 1.19329 1.18806 1.1824 1.20652 1.15263 1.28114 1.18509 1.27474 1.34878 1.04291 1.22718 1.16029 1.34443 1.05729 1.22939 1.17231 1.28323 1.20506 1.05905 1.23039 1.18363 1.19264 1.16059 1.20806 1.27515 0.919179 1.28854 1.11541 1.18867 1.29503 1.27128 1.41752 1.15661 1.17844 1.4172 1.31111 1.33312 1.3791 1.37528 1.19178 1.19178 1.19178 1.19178 1.40025 1.19178 1.30241 1.5253 1.19422 1.31065 1.21277 1.1455 1.33815 1.46585 1.07435 1.78724 1.71768 1.23449 1.18306 1.06191 1.28783 1.31085 1.18854 1.40779 1.37376 1.21976 1.17526 1.30221 1.19178 1.22687 1.19066 1.20562 1.23141 1.19178 1.20959 1.27767 1.19178 1.19178 1.19178 1.28797 1.19178 1.19178 1.19178 1.19178 1.19178 1.19178 1.31473 1.2203 1.19065 1.4469 1.18209 1.3924 1.23928 1.23885 1.45735 1.25774 1.34701 1.29051 1.34493 1.22683 1.37005 1.18727 1.19159 1.19697 1.19249 1.18913 1.12881 1.18527 1.18518 1.3604 1.25923 1.19178 1.27003 1.25534 1.02705 1.19178 1.16585 1.265 1.18833 1.19177 1.19178 1.19178 1.19178 1.19178 1.19178 1.19178 1.30624 1.19199 1.13499 1.19178 1.34311 1.36226 1.3074 1.15978 1.35805 1.40521 1.27045 1.23279 1.36704 1.36284 1.19178 1.19178 1.22203 1.19178 1.35213 1.19178 1.29577 1.51072 1.19129 1.32804 1.23167 1.39368 1.02908 1.27116 1.08086 1.0281 1.0418 0.36647 0.993102 1.12626 1.29081 1.30881 1.27149 1.3866 1.20317 1.24637 1.25206 1.30806 1.07275 1.21775 1.18495 1.20565 1.22989 1.19154 1.20468 1.27706 1.19178 1.19741 1.19178 1.28691 1.19178 1.24384 1.20925 1.43256 1.13317 1.06738 1.34787 1.19991 1.10649 1.44751 1.27673 1.11984 1.28669 1.27637 1.37691 1.26144 1.32782 1.30017 1.23764 1.24528 1.36118 1.19178 1.22314 1.19678 1.19282 1.19177 1.11147 1.16234 1.18087 1.3228 1.2536 1.5192 1.28324 1.40349 1.17327 1.1913 1.26642 1.24979 1.34457 1.23051 1.17497 1.31739 1.24931 1.17821 1.18578 1.24353 1.35982 1.20556 1.13716 1.53841 1.29225 1.36328 1.28852 1.13296 1.41962 1.04029 1.2245 1.21717 1.32224 1.37755 0.921759 1.36021 1.46809 1.32043 1.29822 1.46792 1.26187 1.47614 1.17498 1.18921 1.22221 1.19178 1.19148 1.1926 1.14403 1.19728 0.968764 0.494685 1.19178 1.22311 1.33331 1.32119 1.28597 1.29669 1.20328 1.22753 1.22266 1.32809 1.18525 1.24509 1.30031 1.19117 1.2344 1.18756 1.19476 1.26758 1.18679 1.19809 1.1582 1.28628 1.2676 1.25781 1.24845 1.19178 1.1608 1.26855 1.19178 1.32284 1.14273 1.1921 1.41317 1.21527 1.22372 1.21452 1.31938 1.25508 1.23953 1.28571 1.24636 1.12913 1.35556 1.14975 1.31369 1.20368 1.19385 1.51542 1.19178 1.16737 1.12114 1.33057 1.33972 1.46617 1.23517 1.38007 1.25792 1.20743 1.25954 1.23973 1.19287 1.19177 1.17583 1.26906 1.17313 1.1601 1.38414 1.08278 1.31555 1.17284 1.17446 1.49249 1.28576 1.4103 1.22157 1.13264 1.41638 1.00549 1.20587 1.00966 1.47757 1.3577 1.18219 1.21996 1.18615 1.02965 1.2363 1.4037 1.23468 1.41331 1.40863 1.07623 1.21941 0.98111 1.29547 1.1477 1.19102 1.14369 0.956482 0.689649 1.19165 1.2244 1.35185 1.30881 1.258 1.42953 1.26843 1.27305 0.952211 1.33439 1.12459 1.23844 1.29361 1.18711 1.24728 1.17309 1.18909 1.25137 1.19178 1.19178 1.20122 1.30962 1.30714 1.26628 1.24527 1.20903 1.17985 1.27502 1.27124 1.32484 1.13696 1.2142 1.10059 1.26266 1.22255 1.13111 1.20475 1.22563 1.25354 1.19601 1.22883 1.1169 1.35294 1.19106 1.33878 1.20946 1.17722 1.52774 1.25683 1.33523 1.26706 1.29003 1.41551 1.21226 1.16509 1.29885 1.26714 1.20928 1.18613 1.15712 1.4533 1.19178 1.17756 1.2825 1.2005 1.12993 1.20605 1.15925 1.32554 1.17813 1.14587 1.42345 1.25708 1.52213 1.19369 1.2526 1.21072 0.998713 1.16612 1.01123 1.50346 1.13728 1.18852 1.19178 1.19178 1.26421 1.19668 1.29512 1.22123 1.31823 1.23478 1.14361 1.49526 1.02992 1.35742 1.11314 1.15736 1.15879 0.934351 0.772126 1.27852 1.16782 1.34577 1.32018 1.21172 1.37081 1.21089 1.18444 1.16133 1.30744 1.13768 1.25742 1.18407 1.19176 1.31008 1.20584 1.18637 1.22635 1.18103 1.18847 1.22672 1.28734 1.30709 1.23069 1.21419 1.17277 1.17987 1.2309 1.26648 1.05416 1.15732 1.21188 1.27552 1.28367 1.16047 1.08477 1.13762 1.19839 1.13063 1.12769 1.27448 1.1691 1.22934 1.14887 1.28164 1.23202 0.963376 1.58166 1.27308 1.15914 1.29528 1.21297 1.32781 1.20898 1.13293 1.22082 1.32114 1.18008 1.24884 1.08051 1.47847 1.2058 1.19601 1.2903 1.1774 1.16136 1.3395 0.907023 1.29426 1.09155 1.12827 1.46439 1.22694 1.21688 1.09684 1.31058 1.67987 1.33219 1.11402 0.995353 1.2994 1.39914 1.2263 1.23644 1.04608 1.25975 1.22993 1.25336 1.21196 1.18169 1.26626 1.14456 1.17499 1.26967 1.18636 1.1228 1.14969 1.1546 0.954025 0.801397 1.27114 1.11974 1.33763 1.14876 1.12813 1.31009 1.26998 1.1695 1.18006 1.2901 1.13182 1.22793 1.27156 1.5998 1.3242 1.24058 1.14668 1.18609 1.19178 1.45021 1.19362 1.27404 1.29528 1.19282 1.19179 1.28228 1.21482 1.14917 1.12089 1.12459 1.18615 1.23218 1.29331 1.27219 1.16068 1.04312 1.09399 1.1469 1.11178 1.01244 1.27553 1.17375 1.26275 1.07186 1.18671 1.07936 0.905957 0.927696 1.08334 1.20008 1.56871 1.11515 1.23795 1.17167 1.11053 1.13148 1.32424 1.16132 1.24998 1.00802 1.29517 1.21234 1.25545 1.19178 1.15336 1.20718 1.22432 1.00846 1.26845 1.07387 1.1174 1.39698 1.10109 1.21534 1.03997 1.1642 1.67572 0.902367 1.03819 1.04954 1.25257 1.56574 1.22107 1.19159 1.3358 1.28736 1.23025 1.22842 1.17221 1.08397 1.28394 1.10716 1.19261 1.25467 1.19178 1.27022 1.21119 1.15306 1.19178 0.787639 1.19187 1.00526 1.06931 1.16488 1.04187 1.11407 1.5125 1.11572 0.820692 1.32598 1.12211 1.19697 1.25005 1.40246 1.16907 1.22289 1.14608 1.24918 0.99385 1.4223 0.932299 1.25228 1.27777 1.17704 1.17584 1.33955 1.22828 1.28395 1.12651 1.15227 1.19512 1.178 1.2832 1.25356 1.12046 1.03515 1.02563 1.09737 1.21647 0.888812 1.19937 1.16982 1.20798 1.08372 1.40529 1.10181 0.901623 0.918084 1.271 1.25828 1.20569 1.14844 1.12731 1.15647 1.11289 0.992476 1.07106 1.22587 1.33383 0.959585 1.1923 1.18067 1.28662 1.32685 1.13533 1.14214 1.19077 1.01316 1.19178 1.07691 1.11177 1.32986 0.986589 1.19344 1.04575 1.16558 1.05842 1.02803 1.06344 1.13555 0.877916 1.2684 1.30364 1.30206 1.37826 0.915126 1.17884 1.20866 1.22833 1.11786 1.32894 1.20496 0.838427 1.24914 1.17072 1.25491 1.19178 1.19178 1.31634 1.14071 1.18386 0.871642 1.06408 1.21258 0.971947 1.09661 1.66283 1.15453 0.888429 1.29537 1.13178 1.21264 1.26818 1.14351 1.13643 1.20993 1.17898 1.20127 0.904208 1.27408 1.00982 1.2476 1.19133 1.18106 1.21843 1.32385 1.21846 1.42573 1.13553 1.14256 1.18944 1.18978 1.26053 1.25671 1.23603 1.2135 0.938612 1.06953 1.25019 0.818673 1.27089 1.182 1.26502 1.21818 1.23677 1.11588 1.34706 1.14676 1.25682 1.24566 1.20912 1.15846 1.01254 1.17304 1.1229 0.872402 1.01202 1.20487 1.2856 0.961395 1.19178 1.19178 1.27553 1.33753 1.18472 1.198 1.21337 1.02988 1.19178 1.16518 1.27269 1.3449 0.981502 1.18464 1.12974 1.12311 1.14178 1.15346 1.21085 1.16069 1.06767 1.26914 1.28866 1.29692 1.18448 1.19914 1.07458 1.16789 1.19206 1.03877 1.26136 1.31725 1.00073 1.20523 1.14821 1.22015 1.15473 1.28255 1.20852 1.11781 1.21056 0.926265 1.13017 1.15674 1.09428 1.31127 1.15557 1.12308 1.02355 1.33288 1.19361 1.1769 1.20025 1.2135 1.18421 1.19756 1.21975 1.16746 1.19178 1.25493 1.19178 1.24024 1.13315 1.19956 1.26676 1.30416 1.18752 1.16705 1.11726 1.11135 1.19268 1.19629 1.26326 1.23325 1.22043 1.19167 1.03879 1.18588 1.20342 1.03874 1.11159 1.16474 1.21883 1.21239 1.19178 1.13227 1.19178 1.20438 1.19178 1.23198 1.18758 1.1689 0.940374 1.19175 1.30857 1.24344 1.3558 1.16744 1.26749 0.949456 1.19178 1.19178 1.25624 1.32049 1.20563 1.20461 1.38445 1.17653 1.61251 1.47571 1.19801 1.23713 0.949239 1.26442 1.12441 0.976524 0.657806 1.33496 1.2777 1.02884 1.03947 1.22548 1.27292 1.10663 1.1209 1.38503 1.09649 1.18664 1.24112 1.01225 1.10195 1.34209 1.19706 1.21066 1.15453 1.21329 1.19178 1.28334 1.19178 1.14754 1.22379 0.994877 1.12213 1.25119 1.09117 1.28237 1.36521 1.1315 1.01151 1.29293 1.19512 1.26619 1.2252 1.29372 1.14156 1.2437 1.31418 1.18063 1.27973 1.25291 1.33658 1.19509 1.11722 1.12025 1.25532 1.23683 1.20479 1.19441 1.19597 1.11411 1.19178 1.19178 1.25197 1.18328 1.19178 1.12978 1.00833 1.26793 1.20632 1.12067 1.19982 1.13157 1.21301 1.12715 1.19561 1.12742 1.1919 1.19404 1.19011 1.22712 1.17539 1.3949 1.42653 1.14672 1.21167 1.12965 1.22964 1.12753 1.28155 1.16807 1.2192 1.28047 1.23785 1.32084 1.36219 1.18176 1.12002 1.13685 1.31046 1.19178 1.19178 1.13791 0.910672 1.2195 1.17597 1.01202 1.31809 1.27868 1.34241 1.27103 1.02207 1.1937 1.18687 1.25842 1.08596 1.29475 1.12321 1.16229 1.20377 1.00108 1.16934 1.35259 1.19178 1.19161 1.16045 1.21081 1.19177 1.29593 1.17608 1.18583 1.2095 1.1231 1.24137 1.15922 1.12147 1.22254 1.33954 1.04691 1.22254 1.08264 1.26438 1.25456 1.18041 1.28254 1.14361 0.868952 1.31013 1.19783 1.15376 1.27446 1.18721 1.20637 1.1208 1.13252 1.30059 1.22779 1.25247 1.19178 1.46572 1.12856 1.2218 1.37729 1.23718 1.12102 1.19204 1.13664 1.01638 1.29855 1.26793 1.14713 1.28726 1.13447 1.27052 1.07892 1.19178 1.19178 1.43855 1.22963 1.34437 1.19991 1.14304 1.52421 1.5612 1.2058 1.19439 1.10901 1.21178 1.1071 1.2561 1.43671 1.08869 1.28057 1.17483 1.29268 1.13772 1.3665 1.18967 1.10739 1.2516 1.16263 1.39162 1.15591 0.969307 1.17891 1.16859 1.00247 1.315 1.26594 1.08525 1.28756 1.16756 1.21157 1.08963 1.19934 1.05355 1.24226 1.24171 1.1858 1.1648 0.974272 1.18 1.33751 1.28151 1.16191 1.18784 1.20856 1.1799 1.28209 1.1918 1.24082 1.18456 1.16366 1.29334 1.14746 1.13876 1.18233 1.23084 1.10731 1.19405 0.988849 1.02302 1.21882 1.23348 1.19853 1.23954 1.00964 1.24067 1.20796 1.12213 1.20599 1.23237 1.23767 1.08168 1.07735 1.27768 1.13547 1.20223 1.08234 1.45782 1.24735 1.25055 1.34637 1.1748 1.20001 0.956887 1.13314 1.27072 1.30398 1.25569 1.17775 1.31645 1.18557 1.21114 1.10587 1.0632 1.08518 1.46047 1.22658 1.05256 1.36162 1.1728 1.43734 1.18324 1.41213 1.18084 1.10868 1.30109 1.12018 1.07052 1.24009 1.13539 1.2759 1.07836 1.23535 1.14024 1.3748 1.05202 1.14528 1.22067 1.16393 1.16089 1.22385 1.05966 1.2034 1.49638 0.958905 1.26724 1.19846 1.07661 1.19245 1.1839 1.20187 1.25089 1.18964 1.26365 1.21237 1.21704 1.16903 1.14729 1.19879 1.18859 1.31045 1.29084 1.14973 1.19178 1.20749 1.26575 1.28739 1.18805 1.25494 1.14571 1.15186 1.2422 1.16532 1.16975 1.13983 1.15451 0.939316 1.18529 1.22681 1.02137 1.22526 1.20105 1.19178 1.19019 1.11266 1.19654 1.16574 1.10629 1.22246 1.21107 1.07384 1.14213 1.14653 1.00463 1.17563 1.26591 0.992621 1.36523 1.27452 1.19497 1.28023 1.13504 1.19774 1.15582 1.09956 1.28173 1.40153 1.14293 1.17849 1.19178 1.19178 1.19178 1.09285 1.13377 1.08667 1.27737 1.19686 1.22736 1.41686 1.24253 1.0491 1.29937 1.41316 1.11599 1.06638 1.24892 1.34077 1.00877 1.12635 1.19123 1.19178 0.901829 1.22359 1.15708 1.3381 1.12276 0.96009 1.20246 1.16424 1.15147 1.14375 1.04783 1.15684 1.45205 0.940074 1.14745 1.23002 1.09134 1.30203 1.18964 1.17389 1.12138 1.43518 1.09868 1.19362 1.19605 1.19177 1.15423 1.10967 1.19061 1.26641 1.2973 1.15191 1.4698 1.23298 1.28902 1.32402 1.18302 1.26737 1.10889 1.19195 1.19219 1.23238 1.05306 1.15275 1.35199 1.4115 1.19178 1.34645 1.2366 1.26428 1.15886 1.19178 1.18285 1.28675 1.19178 1.137 1.19854 1.21906 1.20118 1.07526 1.12189 1.17748 1.02265 1.13816 1.2242 0.95972 1.01511 1.28197 1.14688 1.24527 1.15412 1.08757 1.00236 1.22448 1.40634 1.4259 1.30697 1.0282 1.3011 1.22719 1.19892 1.09176 1.18061 1.08402 1.27739 1.15591 1.35297 1.3395 1.23748 1.02559 1.31772 1.3001 1.09294 1.09209 1.30457 1.39228 1.03374 1.22893 1.25051 1.19178 1.37263 1.19178 1.07509 1.31998 1.14225 1.0016 1.13418 1.18103 1.24934 1.26227 1.12317 1.16304 1.29399 0.957885 1.17763 1.27783 1.09604 1.1999 1.18259 1.15063 1.06806 1.09325 1.17528 1.18614 1.18465 1.17786 1.11638 1.15058 1.20938 1.23841 1.09599 1.20393 1.38255 1.22302 1.27776 1.3258 1.07096 1.27716 1.07659 1.23319 0.0959527 1.3394 1.15284 1.21108 1.15373 1.66337 0.974781 1.34776 1.22224 1.23968 1.15065 1.14067 1.21237 1.32725 1.20981 1.13623 1.13564 1.29236 1.19178 1.19153 1.08425 1.22881 1.2368 1.12657 1.22422 1.25208 1.01852 1.26335 1.08436 1.31023 1.17041 1.15782 1.19178 1.22163 0.997219 1.32313 1.1915 1.19178 1.19178 1.2869 1.19189 1.11331 1.33341 1.15789 1.29938 1.10816 1.37474 1.32801 1.22442 1.03382 1.34151 1.27348 1.14047 1.31156 1.32084 1.3872 1.14714 1.31421 1.34123 1.17632 1.56766 1.20636 1.02286 1.31034 1.19177 1.19749 1.10932 1.2057 1.19182 1.27889 1.07302 1.18637 1.19166 1.07048 1.27439 1.26594 1.07066 1.24631 1.26007 1.17017 1.03424 1.09294 1.17984 1.19809 1.21981 1.18917 1.10815 1.14438 1.12132 1.18403 1.05713 1.22816 1.30785 1.23809 1.32562 1.33336 1.01771 1.28028 1.07257 1.22863 1.19258 1.27001 1.1218 1.16637 0.953732 0.996675 0.916288 1.31275 1.33302 1.12887 1.14587 1.14149 1.23605 1.19699 1.18586 1.16739 1.14538 1.28641 1.10218 1.3726 1.08759 1.43331 1.04741 1.13382 1.21669 1.26877 1.06406 1.22374 1.08789 1.2932 1.23589 1.1979 1.28658 1.30369 1.0022 1.26691 1.19667 1.20667 1.10186 1.28939 1.12141 1.13432 1.25028 1.15778 1.28623 1.10885 0.866723 1.37551 1.22589 1.3168 0.954234 1.522 1.05346 1.43644 1.17979 1.34592 0.867957 1.3762 1.37444 1.08947 1.43963 1.24143 0.892777 1.35351 1.13875 1.29044 1.21367 1.35002 1.22778 1.18227 1.02995 1.1658 1.19426 1.13327 1.24285 1.18622 1.19178 1.19178 1.26522 1.14347 0.988941 1.12178 1.18383 1.21386 1.17907 1.22835 1.13204 1.25658 1.09972 1.18417 1.0477 1.2408 1.30478 1.22159 1.30559 1.30237 1.18832 1.27377 1.06818 1.24 1.37869 1.23734 1.23274 1.1156 0.873633 1.13993 1.06955 1.1912 1.21089 1.07511 1.16761 1.18502 1.23366 1.1981 1.1966 1.20719 1.18864 1.26539 1.10741 1.02707 1.19121 1.20268 1.02923 1.11059 1.19178 1.19178 1.19178 1.07039 1.04803 1.25618 1.22103 1.17849 1.37159 1.20638 1.14953 1.29245 1.19178 1.19127 1.13323 1.19756 1.19177 1.19178 1.3314 1.13799 1.2167 1.1075 1.40739 1.33201 1.29971 1.38199 1.22182 1.67256 1.18002 1.37283 1.09813 1.40274 0.824217 1.37456 1.37416 1.10154 1.24701 1.22114 0.958909 1.29415 1.19163 1.19178 1.21648 1.19591 1.18789 1.09072 1.04066 1.1645 1.14233 1.16349 1.20422 1.19164 1.19178 1.35896 1.51981 1.1341 0.956339 1.15631 1.18297 1.22359 1.21406 1.21058 1.10586 1.21022 1.10861 1.1481 1.21158 1.11268 1.31745 1.20943 1.24442 1.25448 0.990352 1.25282 1.19178 1.24554 1.35359 1.22507 1.19178 1.10284 1.1514 0.524221 0.943394 1.08911 1.16128 1.09849 1.1634 1.19188 1.18442 1.17268 1.17365 1.18804 1.19864 1.07912 1.106 1.02502 1.13606 1.19295 1.14276 1.14326 1.19306 1.19542 1.19178 1.0551 1.08835 1.26986 1.19226 1.13231 1.35964 1.1555 1.15421 1.30648 1.19183 1.30479 1.18866 1.24699 1.27277 1.19178 1.30056 1.22491 1.30215 1.15081 1.05139 1.4872 1.33462 1.16106 1.21913 1.45457 1.13292 1.36783 0.971567 1.52588 0.884559 1.31279 1.37494 1.11458 1.1919 1.24709 1.05074 1.24741 1.14404 1.31355 1.16224 1.35027 1.15018 1.09153 1.04799 1.15826 1.15387 1.19178 1.16986 1.18811 1.17307 1.24314 1.53114 1.11246 1.04295 1.15528 1.16809 1.2228 1.21935 1.20317 1.15657 1.14323 1.2606 1.14142 1.25996 0.810862 1.31115 1.1765 1.14876 1.21475 0.955041 1.25169 1.22984 1.24747 1.35244 1.20453 1.22244 1.01808 1.42747 1.27103 1.02489 1.19178 1.15315 1.12692 1.11744 1.22029 1.17536 1.28883 1.18318 1.16927 1.2151 1.19178 1.10228 1.06317 1.27713 1.19173 1.19178 1.18607 1.19056 1.30754 0.91965 1.2827 1.23413 1.20635 1.1949 1.07536 1.28998 1.20739 1.14723 1.22968 1.22769 1.23138 1.19499 1.23963 1.27714 1.18434 1.42634 1.23157 1.25962 1.14186 1.11467 1.29639 1.19178 1.17608 1.17886 1.44432 1.06841 1.35295 1.26387 1.62933 1.40063 1.13206 1.37397 1.12542 1.14146 1.32768 1.04854 1.15204 1.14301 0.96579 1.13239 1.19468 1.49309 1.24442 1.07378 1.17879 1.17984 1.60532 1.25739 1.18662 1.31114 1.31654 1.57891 1.20376 1.12264 1.16505 1.15865 1.20145 1.20811 1.17766 1.12602 1.15382 1.21155 1.07117 1.27517 1.03486 1.2895 1.16914 1.28166 0.838138 1.0526 1.22719 1.22825 1.22992 1.31419 1.26605 1.31202 1.38132 1.30988 1.4568 1.02902 1.35298 1.15403 1.0866 1.16482 1.19207 1.19004 1.28 1.19499 1.15733 1.29397 1.19177 1.19178 1.06731 1.27188 1.19178 1.35887 1.20577 1.19258 1.30335 1.19484 1.28185 1.26969 1.19178 1.23758 1.17101 1.3013 1.18972 1.20439 1.29574 1.81688 1.20311 1.13081 1.19418 1.26245 1.26055 1.4046 1.1603 1.29299 1.2948 0.937577 1.31869 0.821771 1.11492 1.22377 1.1844 0.915246 1.40362 1.3712 0.948502 1.12002 1.18718 1.2978 1.13158 1.14385 1.12769 1.0538 1.14575 1.23335 1.20536 1.15931 1.06234 1.36678 1.29003 1.27352 1.19183 1.19097 1.47319 1.27018 1.16135 1.35622 1.18944 1.36856 1.19177 1.12356 1.19178 1.19327 1.27482 1.19175 1.24507 1.31209 1.23997 1.19178 1.07148 1.19178 1.19178 1.22982 0.859717 1.25542 0.808988 1.1754 1.19144 1.23338 1.16304 1.21471 1.24075 1.28328 1.32475 1.24386 1.18379 0.995571 1.23696 1.16716 1.04079 1.15232 1.21676 1.15605 1.16098 1.27874 1.1495 1.34328 1.1665 1.01048 1.12202 1.32283 1.18339 1.36011 1.24717 1.20205 1.40975 1.21896 1.26622 1.25899 1.13383 1.25813 1.24676 1.31139 0.996355 1.17715 1.53669 1.16132 1.23653 1.16446 1.16477 1.25568 1.27298 1.33506 1.15726 1.29853 1.192 1.0385 1.3481 1.19151 1.05068 1.33586 0.91954 1.02447 1.33124 1.26715 0.982089 1.03701 1.04506 1.27143 1.12846 1.13161 1.12489 1.3708 1.15304 1.23261 1.22406 1.15676 1.24696 1.26251 1.29272 1.26518 1.19163 1.34863 1.42583 1.21297 1.11969 1.36009 1.16328 1.28869 1.33031 1.12446 1.32805 1.21975 1.25957 1.17521 1.28233 1.17532 1.27615 1.2734 1.1048 1.4204 1.17589 1.15951 1.086 1.37063 0.912608 1.29211 1.13863 1.18635 1.15663 1.13976 1.09412 1.25846 1.24217 1.17505 1.19847 1.19178 1.19178 1.19178 1.05187 1.14069 1.22416 1.12623 1.17578 1.20232 1.13215 1.31373 1.1892 1.19178 1.13757 1.26702 1.03468 1.36328 1.05442 1.22319 1.36701 1.21492 1.25692 1.26716 1.10331 1.28832 1.27705 1.23953 1.07435 1.11576 1.36355 1.19563 1.239 1.37242 1.11933 1.20739 1.25036 1.28478 1.17308 1.26438 1.14874 0.994608 1.2106 1.18474 1.35148 1.66328 0.956045 0.906701 1.29278 1.17846 1.02881 1.1481 1.05404 1.30905 1.2029 1.12917 1.27044 1.19176 1.29166 1.24771 1.29217 1.27715 1.24411 1.1809 1.26761 1.26386 1.18135 1.35799 1.34573 1.12899 1.16734 1.35249 1.19175 1.26326 1.19177 1.12461 1.32611 1.2215 1.2248 1.14404 1.22947 1.14182 1.11383 1.28135 1.19306 1.39309 1.27055 1.0529 1.14122 1.28519 1.2624 0.673522 1.10869 1.14176 1.19632 1.07481 1.08907 1.19177 1.16622 1.11523 1.20707 1.1895 1.19238 1.19178 1.08406 1.1379 1.21618 1.1291 1.19026 1.19048 1.30431 1.24063 1.18495 1.35927 1.14064 1.31615 1.23065 1.32543 1.20813 1.10754 1.33618 1.07828 1.2389 1.27216 1.22886 1.23327 1.30168 1.24214 1.00782 1.27725 1.27403 1.34649 1.3413 1.39397 1.07314 1.24842 1.25333 1.24503 1.13968 1.21806 0.904936 1.17312 1.14654 1.2397 1.31249 1.02939 1.44097 1.0687 1.43199 0.999773 1.04225 1.29203 1.23134 0.898777 1.01252 1.13705 1.24916 1.11797 1.34809 1.19953 1.37321 1.25438 1.15893 1.1741 1.25601 1.2774 1.17177 1.35177 1.28831 1.05117 0.938957 1.32537 1.20002 1.11034 1.14664 1.20862 1.10544 1.24448 1.1496 1.27356 1.25548 1.08223 1.18776 1.07804 1.28359 1.20542 1.22113 1.02431 2.06372 1.17766 1.32751 1.08373 1.17289 1.11635 1.13678 1.19346 0.643145 1.03265 1.12945 1.10755 1.21625 1.1541 1.1863 1.23309 1.25885 1.14542 1.1271 1.19572 1.20184 1.19178 1.19614 1.19178 1.19103 1.19178 1.19178 1.07094 1.18971 1.19701 1.19915 1.22533 1.22408 1.16428 1.18571 1.2479 1.24466 1.22113 1.19177 1.31459 1.33044 1.17737 1.15036 1.17982 1.19178 1.35305 1.19178 1.0555 1.02352 1.27772 1.18488 1.22043 1.18913 1.13649 1.16805 1.11622 1.27304 1.16261 1.12433 1.74191 1.04206 1.11944 1.26369 1.3058 1.28007 1.03436 1.11454 1.27632 1.24607 1.00035 0.947501 1.30253 1.26877 1.10356 1.04423 1.10789 1.08493 0.935196 1.32376 1.16035 1.36834 1.25733 1.00616 1.14435 1.13894 1.38923 1.33966 1.21086 1.08262 1.23828 1.32339 1.24369 1.25367 1.19101 1.0947 1.15171 1.09617 1.09571 1.27236 0.704314 1.10003 1.08647 1.09516 1.00561 1.01773 1.13107 1.1248 1.32034 1.24906 1.00288 0.959532 1.30693 1.04078 0.880998 1.19163 1.07332 1.01792 0.951594 0.958612 1.10476 1.00878 1.19536 1.27798 1.26069 1.24656 0.916553 1.02735 1.19182 1.19178 1.15348 1.22757 1.29902 1.31077 1.13875 1.13466 1.24991 1.28771 1.14049 1.1398 1.34413 1.32028 1.19178 0.989258 1.17704 1.21575 1.16529 1.16562 1.24731 1.24089 1.33197 1.27553 1.16917 1.11704 1.02296 1.24847 1.14447 1.27518 1.28421 0.935191 0.94008 1.14874 1.34733 1.07186 1.22807 1.23674 1.1098 1.08765 1.10909 1.08055 1.17627 1.15954 1.10235 0.921271 1.20656 1.22258 1.14809 1.144 1.09688 1.22709 1.27204 1.21393 1.05179 1.00783 1.19521 1.23094 1.19353 1.14227 1.27565 1.23361 1.248 1.29274 1.27519 1.23474 1.15479 1.12518 1.28772 1.2372 1.14693 1.11662 1.24918 1.16376 1.05202 1.06358 1.07091 1.06646 1.13793 1.20119 1.18949 1.19178 1.19176 1.18514 1.13861 1.20582 1.19178 1.1917 1.20977 1.19177 1.19039 1.21627 1.19178 1.2675 1.23032 1.3322 1.15449 1.19178 1.19178 1.19178 1.18716 1.12569 1.08844 1.2598 1.06546 0.92993 1.3326 1.11845 1.15366 1.09748 1.0722 1.22405 1.05515 1.12894 1.31574 1.13146 0.984634 1.09209 1.27284 0.996395 1.29572 1.21162 1.04883 1.08839 1.44051 1.44003 1.19745 1.52094 1.08317 1.39261 1.19161 1.35447 0.971705 1.04452 0.915934 1.12735 1.3682 1.23773 1.14678 0.865077 1.20434 1.30927 1.12491 0.906491 1.13263 1.31518 1.05735 1.40808 1.12455 1.19008 1.20527 1.25688 1.19366 1.21966 1.05681 1.06897 1.1615 0.961558 1.15229 1.0801 1.1529 1.14779 1.1986 1.10598 1.33329 1.18398 0.96188 1.09231 1.26518 1.17301 1.31271 1.19851 1.07227 1.23778 1.10837 1.10796 1.25763 1.08514 1.12179 1.28625 1.19874 1.15616 1.447 1.1333 1.1317 1.19093 1.1786 1.1819 1.21775 1.33397 1.06433 1.31329 1.14707 1.30092 1.22019 1.21448 1.44337 1.06694 1.27915 1.07052 1.15685 1.08046 1.28042 1.21098 0.778347 1.19172 1.27093 1.00514 1.17864 1.09355 1.2084 1.19235 1.09379 1.03912 1.38715 1.04875 1.002 1.03303 1.15542 0.960466 1.30314 1.2153 1.06128 0.941193 1.35895 1.66973 1.13466 1.37656 1.16516 1.14898 1.2433 1.24389 1.13874 0.993515 0.501818 1.14572 1.22467 1.22638 1.19566 0.678715 1.20637 1.25759 0.997358 1.00615 1.22805 1.25405 1.10355 1.12096 1.0102 1.17853 1.15681 1.18652 1.26292 1.14182 1.2439 1.19176 1.15071 1.08717 1.19506 1.07698 1.03004 1.13158 1.20747 1.08522 1.08679 1.1627 0.965749 1.13496 0.979629 1.21464 1.21275 1.22318 1.03487 1.21675 1.10779 0.899591 1.28394 1.099 1.15284 1.09906 1.20065 1.21739 1.19337 1.09722 1.11623 1.19258 1.19268 1.1915 1.19222 1.19178 1.18257 1.19178 1.19163 1.307 1.20982 1.18827 1.37535 1.32413 1.19178 1.19178 1.19225 1.07857 1.10771 1.19275 1.12672 1.26846 1.0898 1.12039 1.1935 1.16402 1.19178 1.15292 1.11645 1.01595 1.19168 1.03781 1.07764 1.10463 1.1137 0.995481 1.30709 1.17958 1.0478 0.967038 1.33746 1.16243 1.10241 1.1799 1.19032 1.17034 1.04384 1.16858 1.19178 1.39473 1.27261 1.221 1.15871 1.13597 1.2856 1.11842 1.25328 1.23835 1.19654 1.25713 1.23225 1.2043 1.09737 1.19178 1.03606 1.24206 1.12323 1.15992 1.21828 1.08965 1.27196 1.37226 1.23601 1.10205 1.18231 1.13403 1.10701 1.12707 1.22987 1.0599 1.09799 1.13768 1.0714 1.23498 1.03682 1.20695 1.19234 1.22604 1.14961 1.16978 1.25473 1.02873 1.40421 1.18734 1.23547 1.08379 1.20708 1.1495 1.2939 1.06122 1.12457 1.19177 1.20439 1.17643 1.22811 1.13997 1.25557 1.24139 1.20196 1.19178 1.19178 1.28393 1.30923 1.31066 1.2004 1.37627 1.13619 1.10904 1.21681 1.17166 1.18401 1.32815 1.02762 1.30155 1.2299 1.19178 1.19178 1.11638 1.18303 1.02055 1.11865 1.11207 1.15754 1.26911 1.02239 1.01293 1.43607 1.13663 1.20752 1.0277 1.30985 1.1792 1.08004 1.11035 1.35323 0.81855 1.09424 1.21047 1.22949 1.77982 0.799901 1.53106 1.27042 1.17386 1.29254 1.18384 1.26179 1.30653 1.1982 1.20656 1.3376 1.11951 1.31051 1.1903 1.18989 1.28855 1.35422 1.13523 1.29157 1.05847 1.45515 1.19178 1.14282 1.26501 1.16678 1.17813 1.15571 1.09768 1.29352 1.09647 1.09718 1.1163 1.11671 1.28421 1.16804 1.2776 1.2016 1.22382 1.19178 1.11125 1.28454 1.12128 1.43666 1.2197 1.25725 1.11177 1.20206 1.21713 1.28071 1.00261 1.12541 1.17506 1.19859 1.21963 1.22428 1.12333 1.24235 1.2418 1.00945 1.20627 1.04803 1.30625 1.28311 1.29276 1.28338 1.33806 1.13419 1.38658 1.2242 1.18992 1.20955 1.11786 1.0663 1.34561 1.29755 1.16805 1.19146 1.12554 1.23185 1.19439 1.17039 1.01653 1.28458 1.29123 1.03556 1.15389 1.36005 1.15824 1.16989 1.03628 1.30228 1.18281 1.33161 1.06306 1.2624 0.837175 1.16017 1.21629 0.975685 1.22618 1.3745 1.34453 1.2025 1.09846 1.29457 1.16906 1.26765 1.17876 0.343603 1.28496 1.40227 1.11749 1.33579 0.758695 1.20669 1.3255 1.28007 1.15195 1.29671 1.05563 1.43948 1.28264 1.23874 1.25132 1.19178 1.22292 1.19335 1.1967 1.24317 1.22858 1.19683 1.23599 1.19257 1.19178 1.21696 1.3995 1.10007 1.23835 1.44007 1.15539 1.34386 1.26106 1.35259 1.26376 1.25106 1.14221 1.21705 1.21163 1.32586 1.08168 1.19809 1.20027 1.19178 1.19178 1.20297 1.2548 1.26876 1.2135 1.19408 1.19177 1.06508 1.28669 1.30623 1.23746 1.29133 1.27925 1.10979 1.38523 1.23112 1.22324 1.24543 1.34608 1.0157 1.21922 1.24836 1.21532 1.20185 1.12484 1.22102 1.19191 1.2283 1.08112 1.15972 1.26534 0.94718 1.11476 1.24026 1.18249 1.10216 1.18366 1.27577 1.2067 1.12548 1.01432 1.27543 0.680492 1.13917 1.24584 1.07592 1.24206 1.25033 1.31282 1.15594 1.12268 1.20499 1.20779 1.26537 1.196 1.20146 1.17159 1.35265 1.07081 1.17711 1.0483 1.26543 1.3378 1.2677 1.19898 1.30474 1.10326 1.37218 1.32065 1.33157 1.20134 1.42006 1.26335 1.19912 1.36578 1.25573 1.19291 1.22834 1.49294 1.23538 1.4964 1.21047 1.34949 1.03557 1.22005 1.41276 1.12898 1.52143 1.23725 1.27919 1.28822 1.23899 1.12732 1.21791 1.29944 1.29434 1.12647 1.40149 1.21086 1.21947 1.19411 1.20388 1.20833 1.32282 1.21157 1.18726 1.13703 1.34648 1.26915 1.23817 1.23339 1.26285 1.22249 1.09657 1.19206 1.24844 1.26522 1.12958 1.54906 1.15816 1.13403 1.16149 1.17678 1.18422 1.2741 1.24463 1.20692 1.23655 1.02582 1.19384 1.19178 0.96357 1.23081 1.19333 1.21193 1.19178 1.19319 1.20014 1.16497 1.11771 1.06875 1.24362 1.16028 1.19178 1.28572 1.12979 1.15804 1.19176 1.27806 1.14897 1.2235 1.19552 1.48055 1.27134 1.17293 1.22223 1.11574 1.32152 1.35456 1.2015 1.12486 1.28522 1.23815 1.22426 1.16893 1.27691 1.10242 1.25583 1.27086 1.32165 1.19478 1.49059 1.13648 1.34669 1.25821 1.26223 1.14998 1.16114 1.37693 1.00964 1.38949 1.24139 1.27639 0.826231 1.14649 1.59891 1.14703 1.47377 1.23105 1.27201 1.27345 1.19178 1.2697 1.19179 1.24879 1.30932 1.20468 1.57532 1.19178 1.19178 1.20079 1.20891 1.20528 1.2909 1.26997 1.18918 1.13507 1.34957 1.23826 1.22969 1.24424 1.264 1.17916 1.22174 1.22079 1.24681 1.19178 1.13203 1.13985 1.51939 1.13887 1.13056 1.24622 1.27566 1.27785 1.24139 1.20027 1.25747 1.06332 1.16646 1.20058 1.11576 1.33217 1.12715 1.18603 1.17966 1.19839 1.15946 1.14837 1.10395 1.09009 1.14959 1.18601 1.47048 1.17256 1.17807 1.39926 1.39932 1.17972 1.10086 1.22424 1.20622 1.19178 1.24866 1.12732 1.39511 1.09523 1.29997 1.20144 1.2471 1.15886 1.26925 1.14844 1.16197 1.26272 1.21858 1.33546 1.24368 1.25623 1.22869 1.20825 1.01079 1.12116 1.36272 1.27468 1.22362 1.12204 1.1281 1.12912 1.03833 1.08625 1.20829 1.27204 0.854744 1.28427 1.08817 1.05086 0.977133 1.09586 1.28213 1.2337 1.17426 1.15767 1.14323 1.17563 1.25998 1.26358 1.51434 1.68465 1.13649 1.22648 1.22547 1.21014 1.2629 1.24678 1.18291 1.15683 1.29617 1.18163 1.31394 1.22216 1.21881 1.19158 1.0859 1.23803 1.27098 1.09271 1.30696 1.154 1.44045 1.07271 1.10936 1.17542 1.28131 1.20137 1.22962 1.19786 1.28136 1.06251 1.17938 1.19217 1.16456 1.38197 1.12114 1.17017 1.16962 1.16532 1.12784 1.08998 1.11698 1.0924 1.18825 1.18203 1.46147 1.10776 1.18573 1.57892 1.20958 1.17504 1.08232 1.22486 1.19888 0.922232 1.23078 1.12376 1.98899 1.22804 1.35302 1.22218 1.23953 1.15791 1.2226 1.04863 1.09875 1.27396 1.30329 1.30988 1.14439 1.2031 1.11268 1.26361 1.30183 1.03981 1.34697 1.20274 1.19469 1.10517 1.14227 1.20838 0.959591 1.11422 1.33157 1.47972 1.06111 1.2361 1.22425 0.956435 1.0782 1.01902 1.26424 1.15751 1.18865 1.25438 1.30288 1.31043 1.31109 1.33241 1.51324 1.19178 1.28567 1.19178 1.21871 1.19724 1.35135 1.08378 1.26515 1.17457 1.24357 1.03594 1.27162 1.21595 1.16426 1.21576 1.13965 1.33267 1.36518 1.3175 1.21925 1.20503 1.34431 1.09486 1.12221 1.19178 1.25288 1.19083 1.24106 1.19746 1.26665 1.19178 1.19178 1.29715 1.17594 1.35269 1.14888 1.01835 1.30608 1.19598 1.15008 1.03697 1.12548 1.13052 1.18505 1.24339 1.19173 1.03261 1.1277 1.08985 1.20689 1.15653 1.07747 0.974767 1.18568 1.1437 1.20014 1.08902 0.9793 1.15245 1.23487 1.28399 1.25582 1.16169 1.20704 1.01483 1.11573 1.24598 1.23526 1.1168 1.21953 1.2541 1.12842 0.952797 1.27287 0.991995 1.32494 1.22594 1.24122 1.14173 1.12832 1.18586 1.02722 1.16884 1.26092 1.40038 1.08681 1.25876 1.4887 0.994398 1.09871 1.00465 1.17732 1.11622 1.55102 1.21285 1.34802 1.35255 1.26637 1.24973 1.52902 1.1913 1.2864 1.18769 1.35946 1.20798 1.23542 1.10084 1.20376 1.21816 1.22318 1.03105 1.19589 1.18481 1.17495 1.28429 1.16406 1.28374 1.36176 1.197 1.23528 1.21537 1.18583 1.05819 1.13277 1.26387 1.24929 1.17188 1.2373 1.16451 1.2104 1.47986 1.13699 1.31268 1.14877 1.28876 1.09611 1.18755 1.30991 1.25572 1.22009 0.997256 1.177 1.17882 0.765855 1.29768 0.987842 1.06576 1.31166 1.09993 1.25185 1.19791 1.11832 0.965866 1.19239 1.08895 1.19855 1.24437 0.895444 0.926563 1.09358 1.32548 1.143 1.21789 0.962608 1.09846 1.23667 1.07054 1.17781 1.07245 1.23421 1.16287 0.986577 0.999093 1.21123 1.04877 1.32544 1.33695 1.39162 1.13712 1.11466 1.18175 1.0292 1.21062 1.10243 1.35685 1.17323 1.21299 0.739667 1.21565 1.26225 0.943929 1.11181 1.08401 1.47991 1.135 1.34196 1.34936 1.22956 1.25206 1.63475 1.13668 1.28697 1.10007 1.36255 1.12261 1.25633 1.07645 1.18061 1.14003 1.192 1.16668 1.17711 1.12505 1.22712 1.36891 1.26666 1.05234 1.30904 1.30711 1.21268 1.14191 1.13992 0.98009 1.13992 1.21595 1.2168 1.17098 1.20447 0.81416 1.19785 1.44415 1.13186 1.09678 1.05862 1.10517 1.13457 1.20132 1.19178 1.25104 1.18047 1.01643 1.24217 1.18774 1.1216 1.26704 1.12274 1.1908 1.42906 1.14932 1.22642 1.19875 1.10348 1.23522 1.18861 1.12381 1.19178 1.23695 0.89095 1.19951 1.21656 1.26665 1.14075 1.23878 1.25132 1.14162 1.23561 1.00664 1.11842 1.07084 1.2504 1.14949 1.01958 1.0237 1.00048 0.98356 1.24251 1.28402 1.18628 1.2293 1.11226 1.17968 1.20064 1.26086 1.21874 0.935737 1.33827 1.21555 1.37638 1.14588 1.19333 0.958948 1.03624 1.06662 1.45383 1.13872 1.35268 1.38929 1.26808 1.30679 1.49118 1.1501 1.29437 1.1198 1.26416 1.19178 1.26329 1.09111 1.20018 1.18998 1.15271 1.14384 1.14897 1.09141 1.23404 1.3482 1.00373 1.3079 1.40429 1.39231 1.20581 1.19163 1.14756 0.932779 1.27527 1.38914 1.24591 1.20642 1.21406 0.882581 1.17481 1.30298 1.1161 1.19178 1.07132 1.10211 1.15385 1.19178 1.19178 1.26462 1.20543 1.14835 1.18894 1.20501 1.19366 1.2086 1.11983 1.22778 1.00443 1.13478 1.21655 1.19331 1.1097 1.28573 1.17532 1.28154 1.11617 1.31844 0.810089 1.14302 1.21949 1.14346 1.13394 1.24547 1.17605 1.1797 1.17074 1.01092 1.14164 1.08748 1.19177 1.22109 0.954982 1.20129 1.0797 1.22599 1.22302 1.21528 1.19744 1.36957 1.16268 1.09841 1.23003 1.29994 1.36447 1.12003 1.35037 1.26698 1.44185 1.17978 1.22144 1.18295 0.977569 1.06048 1.37572 1.17302 1.54862 1.25949 1.22206 1.36717 1.37234 1.179 1.09905 1.33039 1.22179 1.31408 1.2608 1.23878 0.811656 1.21842 1.10541 1.58304 1.1035 1.08002 1.16164 1.30333 0.989735 1.26875 1.34508 1.3786 1.29686 1.42288 1.16932 0.789259 1.26426 1.38173 1.2065 1.20278 1.18144 1.14779 1.16191 1.29214 1.10997 1.192 1.10961 1.11371 1.12047 1.17228 1.11068 1.27266 1.18688 1.12123 1.30142 1.1849 1.36703 1.157 1.17363 1.27153 1.37301 1.07474 1.13541 1.10075 1.12328 1.15769 1.16225 1.30375 1.15443 1.34736 0.809281 1.17994 1.22548 1.20673 1.19239 1.25675 1.19527 1.37105 1.10554 1.01743 1.20252 1.19178 1.19754 1.20579 1.04304 1.39074 1.19685 1.3635 1.18728 1.11936 1.19166 1.19178 1.17554 1.09539 1.18927 1.26549 1.35921 1.12045 1.30251 1.25104 1.08953 1.16731 1.20865 1.16038 0.940616 1.19715 1.2661 1.2538 1.41119 1.1324 1.26826 1.04085 1.13147 1.53438 1.19178 1.42263 1.16974 1.32343 1.3053 1.06485 1.24498 1.27953 1.11043 1.48351 1.06072 1.08943 1.11584 1.1458 0.950742 1.26054 1.35948 1.33766 1.26437 1.31932 1.17598 1.09846 1.21105 1.38079 1.15848 1.17852 1.13999 1.14928 1.18387 1.26042 1.12333 1.24327 1.13895 1.12867 1.0994 1.19903 1.19194 1.26592 1.19471 1.09725 1.35251 1.21917 1.14564 1.08544 1.17952 1.31831 1.01389 1.1172 1.30844 1.09208 1.14076 1.10703 1.12846 1.1593 1.17263 1.34728 1.04729 1.17973 1.17003 1.19828 1.21566 1.31544 1.25439 1.36396 1.08476 1.04507 1.21196 1.19961 1.19823 1.1475 1.20485 1.3207 1.2001 1.19178 1.1229 1.03536 1.49582 1.23012 1.01795 1.2085 0.993832 1.25002 1.30648 1.13287 1.19178 1.24449 1.10888 1.23999 1.07176 1.14538 0.904172 1.19178 1.20893 0.925337 0.997053 1.09465 1.18736 0.987228 1.05021 1.44866 0.723443 1.45341 1.0239 0.920953 1.3102 1.06604 1.01337 1.27857 0.998046 1.20889 1.02026 1.09154 1.09988 1.06131 1.12424 1.23528 1.12901 1.2248 1.25311 1.10244 1.04734 1.14437 1.18764 1.24834 1.13661 1.43671 1.11868 1.14881 1.19144 1.23656 1.16918 1.19648 1.15978 1.19307 1.08863 1.22184 1.19448 1.23539 1.20185 1.08734 1.25504 1.2305 1.16443 1.07628 1.16149 1.26062 1.07854 1.16481 1.16133 1.1918 1.16998 1.19156 1.21694 1.19167 1.18704 1.31804 1.16956 1.1892 1.11593 1.19178 1.23404 1.28741 1.24731 1.30319 1.17263 1.20631 1.25327 1.15885 1.1627 1.121 1.16868 1.33411 1.17673 1.07696 1.11444 0.97382 1.19178 1.26108 1.19178 1.19178 1.27106 1.25887 1.26484 1.12818 1.14189 1.23257 1.20083 1.3093 1.14407 1.12729 0.936957 1.19109 1.11066 0.947292 1.01879 1.02183 0.962128 1.03983 1.04452 1.21471 0.513658 1.23153 0.973725 0.951938 1.23568 1.25248 1.19178 1.19697 1.01343 1.19641 0.926586 1.12506 1.12618 1.12166 1.1028 1.20861 1.11111 1.07069 1.20178 1.21413 1.07298 1.11535 1.16249 1.17565 1.08586 1.19476 1.064 1.15456 1.22644 1.23574 1.21445 1.22991 1.29722 1.18726 1.19555 1.19991 1.18486 1.19904 1.20406 1.09857 1.24524 1.21125 1.22707 1.10023 1.28514 1.1818 1.10181 1.22033 1.20292 1.19178 1.18367 1.45789 1.21604 1.19926 1.18586 1.2479 1.17408 1.22635 1.09001 1.21202 1.22811 1.24278 1.24567 1.34499 1.18866 1.25075 1.21984 1.22296 1.07688 1.11579 1.16188 1.3745 1.20983 1.12982 1.29074 1.25195 1.15226 1.2723 1.17024 1.19453 1.26895 1.25942 1.22103 1.3401 1.09028 1.27006 1.29181 1.06687 1.34016 1.01425 1.05193 1.21639 1.07434 1.03516 1.0366 0.947395 1.19178 1.2249 1.06054 1.17128 0.903386 1.07969 0.990022 1.15501 1.20595 1.29188 1.04146 1.08638 1.19091 1.23906 1.10782 1.38243 1.13273 1.11378 1.17868 1.32539 1.09116 0.954867 1.22099 1.15578 1.09512 1.15944 1.19941 1.18195 1.30445 0.9215 1.13834 1.18381 1.21849 1.19693 1.25118 1.23523 1.01572 1.17102 1.17997 1.19159 1.20651 1.152 1.19399 1.12661 1.22094 1.19154 1.22777 1.1521 1.21566 1.27435 1.19727 1.27177 1.19604 1.19178 1.18576 1.42708 1.20945 1.26405 1.1663 1.21401 1.16061 1.31256 1.17284 1.2405 1.24094 1.18826 1.20705 1.27735 1.1276 1.02509 1.24517 1.17952 1.19776 1.12702 1.14549 1.43393 1.19403 1.21339 1.25008 1.28549 1.16325 1.21198 1.19605 1.14049 1.26572 1.19802 1.17335 1.33552 0.993061 1.2487 1.19177 1.04492 1.24863 1.04196 1.19178 1.19178 1.04424 1.02911 1.06029 0.858309 1.23005 1.25595 1.16308 1.00682 1.08495 1.23229 0.985158 1.19792 1.20254 1.24622 1.16654 1.07174 1.18543 1.21284 1.06449 1.36483 1.02662 1.03451 1.17466 1.18953 1.15374 1.31968 1.20617 0.800817 1.17456 1.17074 1.14996 1.19179 1.19178 1.07648 1.14496 1.19178 1.19178 1.18785 1.19512 1.1938 1.17877 1.19361 0.833624 1.29398 1.20591 1.10255 1.19791 1.14676 1.24319 1.13785 1.21386 1.10155 1.1285 1.22204 1.19058 1.23478 1.21955 1.35033 1.16544 1.37258 1.26674 1.27752 1.22743 1.11806 1.0911 1.08063 1.13813 1.09895 1.2512 1.14064 1.20398 1.21926 1.17208 1.2386 1.10267 1.22456 1.19178 1.09006 1.24513 1.39787 1.6281 1.15258 1.24243 1.26091 1.20922 1.09168 1.2275 1.666 1.23647 1.16466 1.11089 1.32792 1.11622 1.15634 1.20644 1.19177 1.19178 1.16041 1.18657 1.19178 1.00809 1.02895 1.11105 0.961877 1.38924 1.19212 1.12879 1.09716 1.08799 1.17998 0.947394 1.24116 1.17967 1.23489 1.10897 1.10897 1.16396 1.24519 1.06955 1.32187 1.05332 1.05538 1.16422 1.01776 1.17804 1.28953 1.11761 1.16823 1.34685 1.13434 1.21917 1.20955 1.17695 1.20425 1.13902 1.12817 1.17507 1.17862 1.19398 1.17305 1.16883 1.1321 1.29659 1.19242 1.19246 1.07309 1.20295 1.11955 1.19178 1.16103 1.19303 1.12181 1.02124 1.22099 1.06626 1.18418 1.23734 1.34228 1.05477 1.26626 1.11336 1.27388 1.19219 1.0836 1.10707 1.08714 1.21271 1.08703 1.24508 1.12515 1.22781 1.05192 1.18069 1.33496 1.17222 1.36 1.16242 1.11916 1.06421 1.18561 1.6213 1.07284 1.24704 1.19708 1.21139 1.08991 1.24265 1.67214 1.23663 1.19311 1.0471 1.11478 1.19214 1.13398 1.19458 1.14894 1.20889 1.14587 1.19178 1.19178 1.07591 1.19178 1.19668 1.11961 1.19177 1.19414 1.08614 1.05901 1.17822 1.20657 0.90319 1.21968 1.22221 1.23717 1.09456 1.10313 1.03987 1.267 1.05844 1.05914 1.05507 1.09034 1.14181 0.960498 1.10958 1.12907 1.03102 1.19884 1.2395 1.19178 1.18271 1.22285 1.18917 1.19178 1.23444 1.13748 1.18175 1.18752 1.18531 1.15565 1.19166 1.14422 1.18235 1.18688 1.19158 1.04138 1.18364 1.1171 1.20695 1.14522 1.19157 1.12403 1.03705 1.17805 1.0554 1.13481 1.09218 1.20312 1.02336 1.18814 1.07129 1.21418 1.14895 0.993503 1.21431 1.00476 1.155 1.06796 1.20056 1.13362 1.18482 1.01281 1.1284 1.41405 1.17309 1.3405 1.14819 1.1245 1.18393 1.16889 1.14639 1.06615 1.2376 1.09835 1.19266 1.14728 1.19178 1.03414 1.20393 1.18714 1.00301 1.17755 1.34885 1.12923 1.21743 1.19178 1.19178 1.10042 1.19445 1.19178 1.0875 1.08107 1.23123 1.11951 1.04168 1.17475 1.05496 1.02741 1.15228 1.22321 1.03517 1.14578 1.16414 1.20615 1.10087 1.11831 1.16883 0.941576 1.11362 1.07984 1.08602 1.19169 1.19178 1.05226 1.11687 1.02277 1.00911 0.892958 1.18458 0.80032 1.14407 1.19846 1.20694 1.16358 1.19491 1.15087 1.19624 1.17878 1.14869 1.1463 1.19177 1.15086 1.18891 1.19177 1.19178 1.06118 1.166 1.11146 1.20695 1.12528 1.19476 1.1941 1.16954 1.1562 1.06126 1.09951 1.27306 1.13281 1.00389 1.12233 1.29008 1.14027 1.11943 1.00631 1.28532 1.03212 1.00345 1.08283 1.1447 0.960941 0.946309 0.987289 1.10641 1.51427 0.919587 1.27949 1.17366 1.14115 1.09031 1.09738 1.13519 0.968779 1.21369 1.02193 1.21299 0.998228 1.80831 1.08157 1.17972 0.985176 0.933324 1.2405 1.48357 1.12808 1.26849 1.17787 1.70686 1.08888 1.42191 1.19178 1.19134 1.1915 1.21381 1.11392 1.05721 1.16717 1.0333 0.995926 1.18382 1.22195 1.0343 1.11471 1.14977 1.19453 1.10752 1.12619 1.19264 1.31625 1.14417 1.07631 1.08887 1.10531 1.14189 1.12944 0.988066 0.994688 0.973015 1.20278 1.1733 1.1377 1.10667 1.17671 1.21926 1.16102 1.19338 1.11469 1.19386 1.1995 1.10448 1.15976 1.19191 1.14013 1.18799 1.19178 1.19178 1.09469 1.16841 1.18891 1.21914 1.11373 1.28332 1.19178 1.19178 1.09886 1.22397 1.06822 1.25761 1.16724 1.01299 1.072 1.19178 1.15427 1.19279 1.1412 0.835152 1.11381 1.25428 1.1423 1.10161 0.699822 0.944975 0.99858 1.06129 1.20272 1.08901 1.03583 1.15507 1.13393 1.14402 1.15489 1.20004 0.962752 1.21462 1.00879 1.21686 0.969181 1.07771 1.08723 1.1613 0.983421 0.942827 1.06619 1.06241 1.06435 0.993811 1.13358 1.70419 0.670289 1.39998 0.796773 1.2764 0.846491 1.20455 1.11951 1.23437 1.16596 1.0353 1.01167 0.920061 1.21549 1.04191 1.11541 1.2117 1.22862 1.1183 1.12032 1.19173 1.19178 1.14161 1.07903 1.08406 1.19178 1.19178 1.19178 1.00843 1.01957 0.960765 1.19178 1.19178 1.19178 1.09042 1.16824 1.20217 1.15886 1.18778 1.19178 1.18857 1.19699 1.11693 1.09896 1.2082 1.14722 1.19278 1.19446 1.20248 1.18595 1.17354 1.17388 1.2081 1.1089 1.05227 1.26935 0.988688 1.04656 1.22133 1.05665 1.27571 1.14873 0.883857 0.946769 1.19748 1.12451 1.02163 1.14468 1.04327 1.09023 1.23882 1.0435 1.09132 0.718067 1.10095 1.05569 1.04415 1.19178 1.0867 1.06888 1.19181 1.19178 0.999344 1.17726 1.04055 0.958593 1.20854 0.989572 1.20762 0.984065 1.09528 1.08449 1.04303 0.961109 0.935898 1.06865 1.06216 1.05102 0.979494 1.14069 1.15046 0.641614 1.19178 1.19178 
SCALARS Stress float 1
LOOKUP_TABLE default
-402762000000.0 -12584800000.0 -44623900000.0 -62551800000.0 -12549700000.0 -141658000000.0 -12549700000.0 -12549700000.0 -12549700000.0 -12549700000.0 -12549700000.0 -25548700000.0 -12549700000.0 -12549700000.0 -24492300000.0 -12549700000.0 -12549700000.0 -25841400000.0 -12549700000.0 -13912700000.0 -17069700000.0 -39221200000.0 -14346100000.0 -16966500000.0 -17733100000.0 -17147500000.0 -15018100000.0 -12904100000.0 -12549700000.0 -12549700000.0 -12549700000.0 -12549700000.0 -12549700000.0 -50638300000.0 -61632400000.0 -32257900000.0 -124696000000.0 -12549700000.0 -12540200000.0 -16425200000.0 -68831800000.0 -12789000000.0 -75597500000.0 -38992000000.0 -45184200000.0 -45617900000.0 -67902800000.0 -107534000000.0 -155465000000.0 -321652000000.0 -316764000000.0 -347785000000.0 -268252000000.0 -248205000000.0 -211040000000.0 -141164000000.0 -100362000000.0 -74390600000.0 -80581900000.0 -111312000000.0 -57218600000.0 -56948900000.0 -102165000000.0 -154307000000.0 -171154000000.0 -180698000000.0 -215655000000.0 -222232000000.0 -243668000000.0 -299913000000.0 -334811000000.0 -395136000000.0 -449103000000.0 -519599000000.0 -193098000000.0 -178098000000.0 -191169000000.0 -307201000000.0 -226168000000.0 -205683000000.0 -133520000000.0 -46346400000.0 -12549700000.0 -12549700000.0 -12549700000.0 -12549700000.0 -86282100000.0 -12549700000.0 -33350200000.0 -91533300000.0 -65158200000.0 -140959000000.0 -176499000000.0 -255481000000.0 -369301000000.0 -247996000000.0 -427301000000.0 -529906000000.0 -1.5435e+12 -2.07915e+12 -12366700000.0 -866328000000.0 -685823000000.0 -739484000000.0 -548069000000.0 -806970000000.0 -526146000000.0 -89570800000.0 -47605300000.0 -43767400000.0 -12549700000.0 -55711900000.0 -14710900000.0 -14965000000.0 -52686000000.0 -12549700000.0 -16294900000.0 -80735200000.0 -12549600000.0 -12549700000.0 -12549700000.0 -82049000000.0 -12549700000.0 -12549600000.0 -12549700000.0 -12549700000.0 -12549700000.0 -12549700000.0 -35340400000.0 -29492100000.0 -54121400000.0 -133867000000.0 -120435000000.0 -273717000000.0 -158452000000.0 -133567000000.0 -391053000000.0 -141821000000.0 -128867000000.0 -62038000000.0 -280929000000.0 -125099000000.0 -193857000000.0 -45044100000.0 -27672400000.0 -23332500000.0 -35632900000.0 -50509000000.0 -120440000000.0 -59801200000.0 -41208600000.0 -161747000000.0 -27698200000.0 -12549700000.0 -53497000000.0 -41428000000.0 -29658100000.0 -12549700000.0 -16946900000.0 -118480000000.0 -26174200000.0 -12549600000.0 -12549700000.0 -12549700000.0 -12549700000.0 -12549700000.0 -12549700000.0 -12549700000.0 -51928000000.0 -12554100000.0 -85160500000.0 -12549700000.0 -40494000000.0 -153233000000.0 -381044000000.0 -21875800000.0 -21855100000.0 -423565000000.0 -199577000000.0 -124661000000.0 -595130000000.0 -174316000000.0 -12549700000.0 -12549700000.0 -35018200000.0 -12549700000.0 -220980000000.0 -12549700000.0 -82186100000.0 -216219000000.0 -12539400000.0 -238109000000.0 -192114000000.0 -169425000000.0 -224935000000.0 -548761000000.0 -763490000000.0 -932195000000.0 -544739000000.0 -2.76814e+12 -98305800000.0 -583414000000.0 -60936800000.0 -311973000000.0 -169727000000.0 -439433000000.0 -12790900000.0 -477264000000.0 -220928000000.0 -238755000000.0 -150830000000.0 -202386000000.0 -114960000000.0 -112994000000.0 -155145000000.0 -12544700000.0 -26265300000.0 -150236000000.0 -12549700000.0 -13998300000.0 -12549700000.0 -138047000000.0 -12549700000.0 -31658600000.0 -60097200000.0 -266388000000.0 -297237000000.0 -308561000000.0 -352350000000.0 -362200000000.0 -428504000000.0 -427669000000.0 -452832000000.0 -627132000000.0 -766128000000.0 -836444000000.0 -896257000000.0 -734860000000.0 -520333000000.0 -588976000000.0 -222703000000.0 -183938000000.0 -329262000000.0 -12549700000.0 -27308400000.0 -16133300000.0 -13081500000.0 -12549500000.0 -37003000000.0 -40927500000.0 -14506000000.0 -243888000000.0 -126925000000.0 -205378000000.0 -237558000000.0 -120994000000.0 -22381000000.0 -12539500000.0 -83084000000.0 -199546000000.0 -161776000000.0 -129983000000.0 -140783000000.0 -151999000000.0 -88341000000.0 -109428000000.0 -140869000000.0 -210819000000.0 -280376000000.0 -283056000000.0 -326543000000.0 -386888000000.0 -281684000000.0 -362969000000.0 -658336000000.0 -679120000000.0 -850232000000.0 -274010000000.0 -147726000000.0 -132840000000.0 -1.3448e+12 -893235000000.0 -701320000000.0 -561324000000.0 -562132000000.0 -652170000000.0 -545610000000.0 -456877000000.0 -411243000000.0 -683176000000.0 -414238000000.0 -21018400000.0 -63422900000.0 -12549600000.0 -185703000000.0 -12567000000.0 -427100000000.0 -269285000000.0 -419127000000.0 -2.40476e+12 -12549700000.0 -521428000000.0 -259991000000.0 -504134000000.0 -399412000000.0 -708601000000.0 -37623000000.0 -361281000000.0 -60167100000.0 -145061000000.0 -27699300000.0 -121676000000.0 -67988700000.0 -26605700000.0 -21441400000.0 -157446000000.0 -92239900000.0 -246127000000.0 -52731600000.0 -46643900000.0 -35542300000.0 -272343000000.0 -99604900000.0 -138001000000.0 -222529000000.0 -12549600000.0 -23728100000.0 -22889100000.0 -12549700000.0 -36927100000.0 -134107000000.0 -12556500000.0 -170525000000.0 -278272000000.0 -513069000000.0 -922721000000.0 -560469000000.0 -766915000000.0 -828537000000.0 -1.09948e+12 -648504000000.0 -386184000000.0 -569101000000.0 -37571600000.0 -68417900000.0 -27350100000.0 -13245800000.0 -78810800000.0 -12549700000.0 -46006200000.0 -70564800000.0 -348197000000.0 -121298000000.0 -415176000000.0 -290386000000.0 -574303000000.0 -148176000000.0 -100806000000.0 -39155700000.0 -394601000000.0 -13907400000.0 -12549600000.0 -24709600000.0 -49952100000.0 -144422000000.0 -202545000000.0 -204473000000.0 -403765000000.0 -629884000000.0 -811003000000.0 -902323000000.0 -944281000000.0 -1.22098e+12 -1.16098e+12 -1.08887e+12 -1.32701e+12 -1.03942e+12 -783965000000.0 -1.03408e+12 -1.41283e+12 -214430000000.0 -125864000000.0 -254809000000.0 -132465000000.0 -156221000000.0 -160503000000.0 -789078000000.0 -447291000000.0 -461773000000.0 -718733000000.0 -358413000000.0 -589663000000.0 -441969000000.0 -405735000000.0 -559456000000.0 -596511000000.0 -128523000000.0 -146350000000.0 -219086000000.0 -1.97227e+12 -12547000000.0 -609705000000.0 -227102000000.0 -519199000000.0 -358270000000.0 -655573000000.0 -358545000000.0 -530901000000.0 -207624000000.0 -420209000000.0 -137040000000.0 -164779000000.0 -131190000000.0 -30731900000.0 -39998600000.0 -111129000000.0 -45855900000.0 -245171000000.0 -12549700000.0 -12549700000.0 -20957700000.0 -323514000000.0 -115805000000.0 -230455000000.0 -365205000000.0 -202173000000.0 -246899000000.0 -263523000000.0 -328592000000.0 -228976000000.0 -440275000000.0 -398097000000.0 -329057000000.0 -328106000000.0 -673518000000.0 -1.05604e+12 -427855000000.0 -604006000000.0 -84833200000.0 -555179000000.0 -383420000000.0 -264132000000.0 -256082000000.0 -637743000000.0 -450189000000.0 -430276000000.0 -288342000000.0 -548415000000.0 -368307000000.0 -419983000000.0 -238786000000.0 -691050000000.0 -690567000000.0 -21646800000.0 -239340000000.0 -709427000000.0 -321181000000.0 -192766000000.0 -84127900000.0 -426071000000.0 -36671100000.0 -12549700000.0 -17237400000.0 -76807600000.0 -103453000000.0 -79983400000.0 -169573000000.0 -15940900000.0 -209194000000.0 -24454000000.0 -141057000000.0 -107826000000.0 -1.00961e+12 -640490000000.0 -603345000000.0 -567533000000.0 -384574000000.0 -359522000000.0 -523748000000.0 -785773000000.0 -365950000000.0 -272223000000.0 -12481200000.0 -12549700000.0 -12549700000.0 -19688400000.0 -469144000000.0 -1.32638e+12 -973998000000.0 -1.22429e+12 -656496000000.0 -768023000000.0 -663578000000.0 -364614000000.0 -403771000000.0 -494251000000.0 -521721000000.0 -526677000000.0 -637596000000.0 -944475000000.0 -484763000000.0 -431680000000.0 -431522000000.0 -846003000000.0 -944362000000.0 -842650000000.0 -626226000000.0 -541430000000.0 -351537000000.0 -517164000000.0 -165864000000.0 -363276000000.0 -25406900000.0 -12549300000.0 -82677400000.0 -103201000000.0 -14759300000.0 -290543000000.0 -78072800000.0 -83001200000.0 -103620000000.0 -486148000000.0 -186264000000.0 -189285000000.0 -379527000000.0 -266832000000.0 -310262000000.0 -297981000000.0 -421002000000.0 -153817000000.0 -63159800000.0 -82696600000.0 -147949000000.0 -41079200000.0 -681799000000.0 -311317000000.0 -295666000000.0 -710161000000.0 -354491000000.0 -739801000000.0 -380008000000.0 -362894000000.0 -319471000000.0 -824754000000.0 -542904000000.0 -971341000000.0 -910631000000.0 -667618000000.0 -740501000000.0 -779191000000.0 -1.00352e+12 -1.70138e+12 -1.09612e+12 -700794000000.0 -555933000000.0 -1.07886e+12 -458027000000.0 -394847000000.0 -380646000000.0 -529835000000.0 -280118000000.0 -284650000000.0 -517282000000.0 -560096000000.0 -608937000000.0 -516658000000.0 -551984000000.0 -561087000000.0 -802664000000.0 -680636000000.0 -524759000000.0 -545387000000.0 -1.19166e+12 -24928500000.0 -529314000000.0 -784807000000.0 -208496000000.0 -196371000000.0 -467978000000.0 -582836000000.0 -221058000000.0 -1.08992e+12 -444588000000.0 -447088000000.0 -566714000000.0 -466834000000.0 -165539000000.0 -692564000000.0 -693458000000.0 -687201000000.0 -157146000000.0 -99542700000.0 -40350900000.0 -383155000000.0 -198092000000.0 -377103000000.0 -152642000000.0 -194607000000.0 -237514000000.0 -761933000000.0 -795282000000.0 -2.13969e+12 -1.54726e+12 -1.06785e+12 -1.42113e+12 -968180000000.0 -985157000000.0 -203532000000.0 -199347000000.0 -455315000000.0 -240292000000.0 -508955000000.0 -117446000000.0 -86475400000.0 -286906000000.0 -254516000000.0 -100325000000.0 -290618000000.0 -12549700000.0 -84174000000.0 -20470500000.0 -284863000000.0 -534800000000.0 -534003000000.0 -12550000000.0 -23953100000.0 -37351200000.0 -73639400000.0 -178332000000.0 -514534000000.0 -498192000000.0 -623830000000.0 -403060000000.0 -477991000000.0 -624397000000.0 -730074000000.0 -814818000000.0 -792204000000.0 -482725000000.0 -949492000000.0 -516259000000.0 -595325000000.0 -534648000000.0 -889253000000.0 -720087000000.0 -206557000000.0 -256945000000.0 -629522000000.0 -245188000000.0 -367860000000.0 -218772000000.0 -499018000000.0 -1.44448e+12 -600702000000.0 -525012000000.0 -991789000000.0 -203995000000.0 -337047000000.0 -245638000000.0 -556952000000.0 -293816000000.0 -410261000000.0 -20730500000.0 -12549700000.0 -149973000000.0 -23985300000.0 -97751000000.0 -213765000000.0 -607531000000.0 -508349000000.0 -929480000000.0 -793786000000.0 -1.50151e+12 -804614000000.0 -941577000000.0 -2.10311e+12 -1.25054e+12 -1.07691e+12 -1.27643e+12 -1.38412e+12 -774603000000.0 -1.03317e+12 -20169500000.0 -12545800000.0 -138386000000.0 -485348000000.0 -318702000000.0 -927955000000.0 -456330000000.0 -574529000000.0 -235031000000.0 -80865700000.0 -29454100000.0 -315110000000.0 -12549700000.0 -254966000000.0 -31355000000.0 -22178500000.0 -12549700000.0 -534818000000.0 -12551600000.0 -1.08702e+12 -761131000000.0 -477999000000.0 -359131000000.0 -401319000000.0 -373506000000.0 -857460000000.0 -767615000000.0 -866817000000.0 -551732000000.0 -1.11205e+12 -683934000000.0 -705368000000.0 -685286000000.0 -614343000000.0 -503672000000.0 -524370000000.0 -319097000000.0 -289051000000.0 -256904000000.0 -541641000000.0 -812371000000.0 -508663000000.0 -211874000000.0 -200799000000.0 -217519000000.0 -97715800000.0 -144375000000.0 -270687000000.0 -191411000000.0 -177238000000.0 -777451000000.0 -513255000000.0 -617430000000.0 -55016200000.0 -425562000000.0 -223143000000.0 -124795000000.0 -452864000000.0 -74971500000.0 -156715000000.0 -35442700000.0 -666770000000.0 -146147000000.0 -29840100000.0 -36556000000.0 -71248800000.0 -33535000000.0 -199935000000.0 -30959200000.0 -709435000000.0 -1.24681e+12 -322334000000.0 -300675000000.0 -915517000000.0 -203639000000.0 -145634000000.0 -62627300000.0 -337006000000.0 -15914400000.0 -21584300000.0 -387611000000.0 -261508000000.0 -281023000000.0 -305778000000.0 -327478000000.0 -423479000000.0 -12549700000.0 -26010800000.0 -323407000000.0 -108899000000.0 -982288000000.0 -401882000000.0 -573477000000.0 -786418000000.0 -115552000000.0 -305222000000.0 -56715900000.0 -66795500000.0 -746104000000.0 -338235000000.0 -1.51248e+12 -954694000000.0 -1.31969e+12 -709793000000.0 -644527000000.0 -1.31866e+12 -1.01553e+12 -1.21982e+12 -560077000000.0 -374399000000.0 -163746000000.0 -451599000000.0 -173181000000.0 -315159000000.0 -12549700000.0 -12549700000.0 -63732200000.0 -517606000000.0 -341910000000.0 -616545000000.0 -765654000000.0 -631562000000.0 -249278000000.0 -546606000000.0 -489320000000.0 -791952000000.0 -645619000000.0 -424362000000.0 -448271000000.0 -894946000000.0 -400472000000.0 -348644000000.0 -281102000000.0 -148953000000.0 -185414000000.0 -83311300000.0 -61139600000.0 -43997400000.0 -92758400000.0 -267355000000.0 -19435400000.0 -1.321e+12 -365021000000.0 -365749000000.0 -329044000000.0 -326530000000.0 -395958000000.0 -456636000000.0 -346532000000.0 -331260000000.0 -682539000000.0 -149810000000.0 -752844000000.0 -309080000000.0 -444991000000.0 -478812000000.0 -298933000000.0 -408335000000.0 -279179000000.0 -402114000000.0 -370697000000.0 -784455000000.0 -239893000000.0 -382828000000.0 -380773000000.0 -478844000000.0 -478592000000.0 -715327000000.0 -690217000000.0 -69990500000.0 -815018000000.0 -115460000000.0 -71586900000.0 -485886000000.0 -150116000000.0 -169252000000.0 -22429700000.0 -224569000000.0 -12549700000.0 -12549700000.0 -281404000000.0 -122869000000.0 -94475700000.0 -19689700000.0 -45056900000.0 -85291300000.0 -12549600000.0 -36694500000.0 -328774000000.0 -591319000000.0 -376458000000.0 -74332900000.0 -393500000000.0 -515921000000.0 -79198000000.0 -211953000000.0 -84462000000.0 -16367300000.0 -592671000000.0 -380962000000.0 -971536000000.0 -196792000000.0 -327202000000.0 -736607000000.0 -236739000000.0 -1.01929e+12 -510777000000.0 -794690000000.0 -162766000000.0 -197017000000.0 -217281000000.0 -438354000000.0 -237916000000.0 -448843000000.0 -174538000000.0 -187390000000.0 -193867000000.0 -512713000000.0 -410414000000.0 -272479000000.0 -377577000000.0 -267190000000.0 -507743000000.0 -559678000000.0 -24784200000.0 -573591000000.0 -377371000000.0 -449163000000.0 -252907000000.0 -471918000000.0 -14645600000.0 -19602300000.0 -141763000000.0 -95930700000.0 -161770000000.0 -61996700000.0 -12549700000.0 -47629900000.0 -12549700000.0 -324766000000.0 -339737000000.0 -794172000000.0 -162612000000.0 -191052000000.0 -257075000000.0 -98530600000.0 -50463000000.0 -89962500000.0 -18609000000.0 -39337700000.0 -131762000000.0 -675961000000.0 -969625000000.0 -15230700000.0 -168164000000.0 -214421000000.0 -24531300000.0 -221972000000.0 -94678900000.0 -89458400000.0 -23412300000.0 -500548000000.0 -12549700000.0 -65531200000.0 -12549700000.0 -107841000000.0 -12549700000.0 -290802000000.0 -345394000000.0 -151666000000.0 -726986000000.0 -12549200000.0 -56955400000.0 -333784000000.0 -217425000000.0 -128937000000.0 -136405000000.0 -49462300000.0 -12549700000.0 -12549700000.0 -376606000000.0 -272517000000.0 -207566000000.0 -18696800000.0 -251294000000.0 -411790000000.0 -405986000000.0 -829926000000.0 -1.11184e+12 -1.37876e+12 -893268000000.0 -894175000000.0 -719319000000.0 -626391000000.0 -440367000000.0 -560000000000.0 -546576000000.0 -388317000000.0 -484649000000.0 -567356000000.0 -1.42119e+12 -437709000000.0 -243092000000.0 -873979000000.0 -1.22044e+12 -902346000000.0 -907981000000.0 -276762000000.0 -268004000000.0 -44879400000.0 -22080600000.0 -246666000000.0 -44845200000.0 -276923000000.0 -12549700000.0 -65794100000.0 -12549700000.0 -388845000000.0 -430763000000.0 -587089000000.0 -441241000000.0 -212940000000.0 -449099000000.0 -830590000000.0 -17086800000.0 -468059000000.0 -72167600000.0 -497225000000.0 -129713000000.0 -537883000000.0 -31206700000.0 -89168100000.0 -99616600000.0 -146081000000.0 -128618000000.0 -116168000000.0 -131286000000.0 -185369000000.0 -266656000000.0 -407172000000.0 -330656000000.0 -759646000000.0 -183092000000.0 -383530000000.0 -76920400000.0 -23722100000.0 -20775400000.0 -44652900000.0 -12549700000.0 -12549700000.0 -182982000000.0 -903160000000.0 -12549700000.0 -647660000000.0 -402404000000.0 -420224000000.0 -202471000000.0 -266391000000.0 -137550000000.0 -133386000000.0 -136220000000.0 -554446000000.0 -22417300000.0 -36472600000.0 -14921000000.0 -103676000000.0 -29436600000.0 -390018000000.0 -278871000000.0 -140218000000.0 -410132000000.0 -370543000000.0 -22877800000.0 -304513000000.0 -326421000000.0 -139765000000.0 -267773000000.0 -124738000000.0 -155581000000.0 -222687000000.0 -574551000000.0 -381353000000.0 -411346000000.0 -816655000000.0 -735432000000.0 -389952000000.0 -646063000000.0 -12549700000.0 -12549700000.0 -883648000000.0 -355178000000.0 -446482000000.0 -435625000000.0 -232239000000.0 -30728600000.0 -36297400000.0 -265172000000.0 -195719000000.0 -262370000000.0 -465018000000.0 -1.34876e+12 -296417000000.0 -369647000000.0 -1.07664e+12 -147616000000.0 -309924000000.0 -656889000000.0 -125791000000.0 -213140000000.0 -71924000000.0 -12549700000.0 -237286000000.0 -30426700000.0 -272666000000.0 -12549600000.0 -150356000000.0 -83187600000.0 -429432000000.0 -128247000000.0 -326099000000.0 -59208400000.0 -325575000000.0 -345433000000.0 -324414000000.0 -1.14399e+12 -915150000000.0 -792706000000.0 -459164000000.0 -434080000000.0 -637651000000.0 -721271000000.0 -696790000000.0 -504133000000.0 -568117000000.0 -745115000000.0 -869390000000.0 -780761000000.0 -652999000000.0 -307039000000.0 -521232000000.0 -456391000000.0 -950256000000.0 -389076000000.0 -429090000000.0 -122193000000.0 -12549700000.0 -103188000000.0 -45174200000.0 -105828000000.0 -209001000000.0 -247559000000.0 -910865000000.0 -114480000000.0 -343284000000.0 -114811000000.0 -380789000000.0 -194456000000.0 -255378000000.0 -175003000000.0 -153688000000.0 -148369000000.0 -581834000000.0 -12549700000.0 -12549700000.0 -46464200000.0 -132803000000.0 -103021000000.0 -413689000000.0 -297558000000.0 -177687000000.0 -669668000000.0 -45559600000.0 -311547000000.0 -440366000000.0 -406489000000.0 -196986000000.0 -479776000000.0 -213048000000.0 -217956000000.0 -314641000000.0 -670764000000.0 -627831000000.0 -181390000000.0 -28416400000.0 -12505400000.0 -348704000000.0 -381011000000.0 -797767000000.0 -852834000000.0 -1.18864e+12 -848747000000.0 -684494000000.0 -635396000000.0 -812353000000.0 -725885000000.0 -868686000000.0 -631309000000.0 -659480000000.0 -828943000000.0 -954018000000.0 -1.48206e+12 -468713000000.0 -513730000000.0 -929262000000.0 -480667000000.0 -331071000000.0 -586719000000.0 -149549000000.0 -254547000000.0 -203938000000.0 -58909500000.0 -239840000000.0 -30671000000.0 -306139000000.0 -34889600000.0 -207947000000.0 -15414200000.0 -378538000000.0 -311643000000.0 -581194000000.0 -261874000000.0 -403188000000.0 -315623000000.0 -282414000000.0 -602823000000.0 -409945000000.0 -198318000000.0 -101967000000.0 -205740000000.0 -367887000000.0 -648863000000.0 -17968600000.0 -37148100000.0 -217101000000.0 -113348000000.0 -298481000000.0 -240122000000.0 -427226000000.0 -480384000000.0 -635023000000.0 -313617000000.0 -1.05047e+12 -579097000000.0 -538633000000.0 -400287000000.0 -506269000000.0 -430468000000.0 -468503000000.0 -478734000000.0 -845414000000.0 -1.13771e+12 -411141000000.0 -251544000000.0 -429272000000.0 -270281000000.0 -589767000000.0 -207175000000.0 -435729000000.0 -310695000000.0 -271779000000.0 -275757000000.0 -388375000000.0 -775258000000.0 -674162000000.0 -669537000000.0 -896121000000.0 -497069000000.0 -744192000000.0 -757257000000.0 -176881000000.0 -112763000000.0 -1.32109e+12 -683892000000.0 -1.26957e+12 -409992000000.0 -376945000000.0 -190916000000.0 -228926000000.0 -345801000000.0 -361674000000.0 -741921000000.0 -738121000000.0 -196548000000.0 -195090000000.0 -234998000000.0 -84627400000.0 -224068000000.0 -518833000000.0 -63958500000.0 -552632000000.0 -490223000000.0 -475186000000.0 -294372000000.0 -512469000000.0 -124050000000.0 -270031000000.0 -204144000000.0 -49626100000.0 -239606000000.0 -113853000000.0 -1.16057e+12 -124268000000.0 -36027300000.0 -952740000000.0 -743954000000.0 -797089000000.0 -605999000000.0 -131560000000.0 -275961000000.0 -332563000000.0 -124002000000.0 -220377000000.0 -12549700000.0 -307866000000.0 -30042400000.0 -299877000000.0 -81957900000.0 -454415000000.0 -128500000000.0 -302802000000.0 -49008800000.0 -150072000000.0 -24579200000.0 -36517200000.0 -1.04885e+12 -155575000000.0 -67229900000.0 -41685200000.0 -62500000000.0 -480285000000.0 -393793000000.0 -12549700000.0 -70161900000.0 -24870200000.0 -16265700000.0 -144275000000.0 -35078500000.0 -286707000000.0 -140994000000.0 -115936000000.0 -504360000000.0 -878388000000.0 -405794000000.0 -729117000000.0 -395399000000.0 -510290000000.0 -578188000000.0 -455312000000.0 -378651000000.0 -444551000000.0 -254390000000.0 -1.05381e+12 -205045000000.0 -355065000000.0 -269919000000.0 -505323000000.0 -300561000000.0 -14440500000.0 -12549700000.0 -12549700000.0 -12549700000.0 -266962000000.0 -41947200000.0 -86466700000.0 -44653100000.0 -410580000000.0 -145091000000.0 -364580000000.0 -24748900000.0 -615528000000.0 -630353000000.0 -716067000000.0 -191606000000.0 -617672000000.0 -421707000000.0 -237608000000.0 -210274000000.0 -214685000000.0 -12538300000.0 -12549700000.0 -273468000000.0 -50517200000.0 -767758000000.0 -354762000000.0 -201621000000.0 -162853000000.0 -233827000000.0 -995458000000.0 -715414000000.0 -1.07637e+12 -465845000000.0 -708295000000.0 -452202000000.0 -808931000000.0 -595342000000.0 -505497000000.0 -336247000000.0 -273676000000.0 -446973000000.0 -283548000000.0 -1.22801e+12 -128410000000.0 -131322000000.0 -654128000000.0 -524159000000.0 -12549500000.0 -1.3232e+12 -676653000000.0 -669854000000.0 -1.03287e+12 -390695000000.0 -573470000000.0 -360954000000.0 -683198000000.0 -154654000000.0 -424959000000.0 -69535200000.0 -546172000000.0 -91816200000.0 -280463000000.0 -17991100000.0 -239011000000.0 -171210000000.0 -184449000000.0 -1.02328e+12 -89541900000.0 -12549700000.0 -57505600000.0 -19394700000.0 -609270000000.0 -449882000000.0 -12549700000.0 -71175600000.0 -47017900000.0 -12549700000.0 -121408000000.0 -29540700000.0 -359575000000.0 -128533000000.0 -164906000000.0 -663495000000.0 -265251000000.0 -161123000000.0 -411395000000.0 -206796000000.0 -274703000000.0 -216958000000.0 -621041000000.0 -752971000000.0 -1.02998e+12 -1.56262e+12 -2.03725e+12 -1.40607e+12 -1.15315e+12 -934545000000.0 -781559000000.0 -463445000000.0 -286303000000.0 -144607000000.0 -32860600000.0 -19781100000.0 -171150000000.0 -18352100000.0 -36776100000.0 -80632800000.0 -367524000000.0 -73725100000.0 -437973000000.0 -188907000000.0 -574161000000.0 -686989000000.0 -661640000000.0 -417964000000.0 -592943000000.0 -348106000000.0 -228827000000.0 -63335100000.0 -109255000000.0 -25263800000.0 -12549700000.0 -168442000000.0 -12549700000.0 -649582000000.0 -453926000000.0 -287220000000.0 -349478000000.0 -581341000000.0 -53771700000.0 -42761400000.0 -293515000000.0 -566202000000.0 -258423000000.0 -115647000000.0 -335893000000.0 -30324100000.0 -66153200000.0 -163357000000.0 -103881000000.0 -344711000000.0 -266878000000.0 -961280000000.0 -394109000000.0 -386491000000.0 -752294000000.0 -980852000000.0 -596789000000.0 -647387000000.0 -40339100000.0 -20552200000.0 -392754000000.0 -580302000000.0 -739390000000.0 -365769000000.0 -486655000000.0 -1.02114e+12 -1.09107e+12 -598276000000.0 -856109000000.0 -472224000000.0 -806508000000.0 -548750000000.0 -645049000000.0 -684553000000.0 -765366000000.0 -1.839e+12 -693604000000.0 -932184000000.0 -755435000000.0 -803723000000.0 -967609000000.0 -962658000000.0 -636992000000.0 -605337000000.0 -491707000000.0 -428242000000.0 -552236000000.0 -505045000000.0 -234670000000.0 -12549700000.0 -12544400000.0 -472790000000.0 -220248000000.0 -19319800000.0 -230529000000.0 -58233600000.0 -34506900000.0 -76756000000.0 -731888000000.0 -363094000000.0 -550597000000.0 -18832800000.0 -467122000000.0 -12549700000.0 -145072000000.0 -284107000000.0 -568013000000.0 -22570800000.0 -12549700000.0 -12549700000.0 -26795300000.0 -12552100000.0 -145521000000.0 -112064000000.0 -109272000000.0 -357952000000.0 -209984000000.0 -283261000000.0 -456055000000.0 -71032000000.0 -562573000000.0 -350718000000.0 -1.70579e+12 -11635200000.0 -22842700000.0 -1.0225e+12 -568112000000.0 -118447000000.0 -242088000000.0 -170220000000.0 -22449200000.0 -296300000000.0 -57614700000.0 -538308000000.0 -291431000000.0 -12549600000.0 -26443800000.0 -217774000000.0 -52316700000.0 -12550700000.0 -467245000000.0 -444655000000.0 -213390000000.0 -25469000000.0 -211965000000.0 -39785000000.0 -404816000000.0 -362073000000.0 -348163000000.0 -556293000000.0 -375815000000.0 -1.0545e+12 -334243000000.0 -471459000000.0 -440629000000.0 -482252000000.0 -679628000000.0 -722353000000.0 -227975000000.0 -202486000000.0 -223642000000.0 -233839000000.0 -517981000000.0 -62503800000.0 -298371000000.0 -328346000000.0 -663456000000.0 -217084000000.0 -663792000000.0 -106185000000.0 -24007800000.0 -14762200000.0 -49305500000.0 -33374700000.0 -16976800000.0 -757441000000.0 -368888000000.0 -487612000000.0 -274692000000.0 -259666000000.0 -892383000000.0 -335701000000.0 -137358000000.0 -269090000000.0 -62555900000.0 -35481300000.0 -171927000000.0 -121583000000.0 -57588800000.0 -182195000000.0 -103164000000.0 -997812000000.0 -686586000000.0 -620288000000.0 -901388000000.0 -770184000000.0 -788296000000.0 -1.03636e+12 -100026000000.0 -43057200000.0 -299733000000.0 -17276800000.0 -464514000000.0 -137788000000.0 -259141000000.0 -71295000000.0 -643199000000.0 -124382000000.0 -112541000000.0 -123786000000.0 -139351000000.0 -274268000000.0 -312574000000.0 -269384000000.0 -265043000000.0 -515181000000.0 -188828000000.0 -311896000000.0 -1.18566e+12 -877978000000.0 -330704000000.0 -246441000000.0 -1.77165e+12 -934117000000.0 -1.24136e+12 -1.12705e+12 -693186000000.0 -473227000000.0 -585040000000.0 -1.19153e+12 -1.02151e+12 -1.02386e+12 -1.16552e+12 -1.09199e+12 -1.02775e+12 -823194000000.0 -815557000000.0 -786997000000.0 -730045000000.0 -399337000000.0 -160311000000.0 -293450000000.0 -251667000000.0 -142043000000.0 -413475000000.0 -423678000000.0 -12432900000.0 -12549700000.0 -12549700000.0 -376324000000.0 -399108000000.0 -695982000000.0 -283692000000.0 -619786000000.0 -106774000000.0 -12283500000.0 -885203000000.0 -572768000000.0 -190207000000.0 -192121000000.0 -368164000000.0 -308756000000.0 -681098000000.0 -173918000000.0 -413002000000.0 -322807000000.0 -601499000000.0 -16892400000.0 -561718000000.0 -47147700000.0 -49329000000.0 -39070100000.0 -91587800000.0 -64007400000.0 -157144000000.0 -405874000000.0 -158762000000.0 -420924000000.0 -49447200000.0 -199878000000.0 -618866000000.0 -187919000000.0 -92519200000.0 -218252000000.0 -36248400000.0 -85556500000.0 -118759000000.0 -398147000000.0 -333041000000.0 -514776000000.0 -829741000000.0 -14365400000.0 -20996900000.0 -52281700000.0 -177046000000.0 -12549700000.0 -12549700000.0 -12549700000.0 -753056000000.0 -444837000000.0 -649196000000.0 -355082000000.0 -547420000000.0 -38334200000.0 -276321000000.0 -452659000000.0 -746103000000.0 -12549700000.0 -38883800000.0 -105997000000.0 -208095000000.0 -12549600000.0 -12549700000.0 -95375000000.0 -23059700000.0 -469805000000.0 -287215000000.0 -17501400000.0 -827554000000.0 -812364000000.0 -448264000000.0 -1.38265e+12 -2.0953e+12 -843148000000.0 -1.04741e+12 -1.35017e+12 -1.31564e+12 -1.10319e+12 -1.2576e+12 -538943000000.0 -636519000000.0 -550826000000.0 -255862000000.0 -497523000000.0 -147493000000.0 -12546600000.0 -12549700000.0 -319285000000.0 -21891500000.0 -700361000000.0 -254759000000.0 -322558000000.0 -236460000000.0 -285428000000.0 -37381000000.0 -198057000000.0 -12546700000.0 -12549700000.0 -64924000000.0 -391205000000.0 -117628000000.0 -572905000000.0 -220414000000.0 -642234000000.0 -388082000000.0 -329878000000.0 -979610000000.0 -526588000000.0 -27584900000.0 -64094800000.0 -177087000000.0 -127626000000.0 -107569000000.0 -935678000000.0 -579680000000.0 -1.147e+12 -1.00924e+12 -423962000000.0 -730060000000.0 -12549700000.0 -71653100000.0 -105554000000.0 -95348100000.0 -12549700000.0 -22166800000.0 -127432000000.0 -161117000000.0 -431107000000.0 -225505000000.0 -328341000000.0 -496398000000.0 -150403000000.0 -17278700000.0 -195550000000.0 -50449200000.0 -103098000000.0 -282674000000.0 -34183000000.0 -81088500000.0 -67197800000.0 -272206000000.0 -41429200000.0 -29610300000.0 -44294000000.0 -79402000000.0 -25594000000.0 -14489700000.0 -12549700000.0 -294026000000.0 -124668000000.0 -350900000000.0 -12559900000.0 -247487000000.0 -462091000000.0 -754410000000.0 -31034500000.0 -649912000000.0 -309319000000.0 -211487000000.0 -155707000000.0 -263234000000.0 -37935500000.0 -12549700000.0 -173362000000.0 -19371700000.0 -434907000000.0 -128944000000.0 -134722000000.0 -885523000000.0 -1.03981e+12 -1.00108e+12 -288631000000.0 -1.49842e+12 -132636000000.0 -472338000000.0 -583089000000.0 -335499000000.0 -287723000000.0 -509680000000.0 -454728000000.0 -342270000000.0 -308144000000.0 -75271000000.0 -88707100000.0 -334599000000.0 -78102700000.0 -331447000000.0 -422201000000.0 -225301000000.0 -547089000000.0 -32521000000.0 -77607100000.0 -35785100000.0 -114449000000.0 -12549700000.0 -179628000000.0 -22254000000.0 -12158700000.0 -138116000000.0 -578565000000.0 -404682000000.0 -858459000000.0 -639535000000.0 -956283000000.0 -310742000000.0 -259907000000.0 -1.0066e+12 -529397000000.0 -292081000000.0 -275280000000.0 -341024000000.0 -303026000000.0 -222593000000.0 -860513000000.0 -838401000000.0 -1.20632e+12 -795527000000.0 -212826000000.0 -574771000000.0 -19856700000.0 -97200600000.0 -222497000000.0 -151089000000.0 -19425400000.0 -40867500000.0 -191097000000.0 -76056600000.0 -136392000000.0 -12549600000.0 -26274900000.0 -394146000000.0 -146061000000.0 -29417200000.0 -182004000000.0 -18186600000.0 -42076900000.0 -198695000000.0 -29207300000.0 -12549700000.0 -16597200000.0 -192286000000.0 -27493100000.0 -12548800000.0 -12549700000.0 -43480800000.0 -29247200000.0 -93557000000.0 -82093800000.0 -285642000000.0 -52861400000.0 -765688000000.0 -424957000000.0 -316243000000.0 -933018000000.0 -475700000000.0 -142478000000.0 -670208000000.0 -283825000000.0 -30918900000.0 -45481900000.0 -208826000000.0 -118848000000.0 -43421200000.0 -296034000000.0 -55911100000.0 -493331000000.0 -82856100000.0 -113380000000.0 -1.89479e+12 -12549700000.0 -453534000000.0 -413154000000.0 -1.78763e+12 -496042000000.0 -697279000000.0 -959895000000.0 -772582000000.0 -139276000000.0 -1.16618e+12 -875804000000.0 -429620000000.0 -629799000000.0 -305369000000.0 -194627000000.0 -508478000000.0 -402579000000.0 -140248000000.0 -335237000000.0 -26108600000.0 -487521000000.0 -41361000000.0 -35075100000.0 -67360500000.0 -170723000000.0 -75045900000.0 -193936000000.0 -22233000000.0 -71762400000.0 -293616000000.0 -765300000000.0 -27679500000.0 -94169300000.0 -44226000000.0 -92051100000.0 -580402000000.0 -342023000000.0 -600763000000.0 -956881000000.0 -262711000000.0 -234547000000.0 -259312000000.0 -269389000000.0 -274919000000.0 -1.1479e+12 -48391500000.0 -132945000000.0 -782196000000.0 -1.68541e+12 -1.13697e+12 -334189000000.0 -953021000000.0 -1.04944e+12 -959515000000.0 -689970000000.0 -710566000000.0 -437139000000.0 -273317000000.0 -311758000000.0 -254253000000.0 -274193000000.0 -512159000000.0 -247908000000.0 -192048000000.0 -362255000000.0 -184404000000.0 -244025000000.0 -370842000000.0 -40707800000.0 -12549600000.0 -12549700000.0 -164380000000.0 -63437800000.0 -12549700000.0 -37785800000.0 -48928800000.0 -14078400000.0 -97192300000.0 -25633700000.0 -501842000000.0 -821404000000.0 -12549600000.0 -102705000000.0 -109897000000.0 -690877000000.0 -29790200000.0 -483868000000.0 -673783000000.0 -277269000000.0 -502477000000.0 -370199000000.0 -538137000000.0 -508534000000.0 -512052000000.0 -686435000000.0 -582543000000.0 -1.03519e+12 -829329000000.0 -914680000000.0 -1.1686e+12 -624327000000.0 -450367000000.0 -603244000000.0 -2.97849e+12 -932143000000.0 -695462000000.0 -1.59618e+12 -725329000000.0 -1.45436e+12 -20917000000.0 -531490000000.0 -138399000000.0 -432164000000.0 -66274900000.0 -44317500000.0 -238947000000.0 -131041000000.0 -25426000000.0 -92034300000.0 -154377000000.0 -692478000000.0 -40613400000.0 -45739100000.0 -12550700000.0 -12532800000.0 -320558000000.0 -274822000000.0 -54045400000.0 -254911000000.0 -12500500000.0 -1.26314e+12 -12549500000.0 -24342400000.0 -12549700000.0 -66529100000.0 -316371000000.0 -12549100000.0 -504329000000.0 -758028000000.0 -86927100000.0 -12549700000.0 -35490500000.0 -12549600000.0 -12549700000.0 -963331000000.0 -278531000000.0 -322147000000.0 -1.10409e+12 -400600000000.0 -637589000000.0 -340148000000.0 -55746200000.0 -250371000000.0 -757297000000.0 -495079000000.0 -690969000000.0 -572304000000.0 -290639000000.0 -301686000000.0 -232891000000.0 -238576000000.0 -423294000000.0 -241981000000.0 -174001000000.0 -326167000000.0 -171606000000.0 -105911000000.0 -128677000000.0 -372255000000.0 -218155000000.0 -163155000000.0 -234334000000.0 -197671000000.0 -28920800000.0 -118493000000.0 -72333600000.0 -34174900000.0 -195900000000.0 -93566400000.0 -533894000000.0 -865281000000.0 -333671000000.0 -411258000000.0 -697280000000.0 -584486000000.0 -393764000000.0 -34847500000.0 -951622000000.0 -52953000000.0 -155386000000.0 -69718700000.0 -305617000000.0 -167708000000.0 -319689000000.0 -319615000000.0 -207646000000.0 -374082000000.0 -33874000000.0 -841364000000.0 -849943000000.0 -12544000000.0 -568564000000.0 -151296000000.0 -1.9096e+12 -573176000000.0 -61199300000.0 -962239000000.0 -537548000000.0 -1.13228e+12 -383550000000.0 -797237000000.0 -237654000000.0 -179077000000.0 -353504000000.0 -258101000000.0 -469459000000.0 -370114000000.0 -290520000000.0 -228620000000.0 -225990000000.0 -713639000000.0 -376645000000.0 -234802000000.0 -120348000000.0 -128147000000.0 -537520000000.0 -569663000000.0 -219580000000.0 -439533000000.0 -170342000000.0 -1.51986e+12 -215943000000.0 -248014000000.0 -300970000000.0 -364664000000.0 -568718000000.0 -357652000000.0 -345015000000.0 -1.45507e+12 -263878000000.0 -91782400000.0 -80127800000.0 -128910000000.0 -121322000000.0 -767901000000.0 -55388500000.0 -279184000000.0 -629108000000.0 -153781000000.0 -623411000000.0 -627902000000.0 -570107000000.0 -1.07728e+12 -272117000000.0 -192023000000.0 -461563000000.0 -319558000000.0 -28763700000.0 -12549700000.0 -12549700000.0 -12549700000.0 -154761000000.0 -59104100000.0 -22650500000.0 -110275000000.0 -28705700000.0 -22431500000.0 -23174000000.0 -339385000000.0 -16431400000.0 -12549700000.0 -42410000000.0 -207354000000.0 -55894000000.0 -279229000000.0 -102602000000.0 -249881000000.0 -836093000000.0 -672768000000.0 -1.50424e+12 -407777000000.0 -322423000000.0 -402130000000.0 -545136000000.0 -637769000000.0 -239501000000.0 -73306700000.0 -1.33643e+12 -257821000000.0 -267910000000.0 -164965000000.0 -293623000000.0 -45177900000.0 -515712000000.0 -402143000000.0 -243939000000.0 -513569000000.0 -154057000000.0 -785911000000.0 -1.31121e+12 -707255000000.0 -329900000000.0 -273710000000.0 -1.7417e+12 -18168100000.0 -479251000000.0 -1.17245e+12 -544272000000.0 -721733000000.0 -93991800000.0 -701222000000.0 -20462000000.0 -189765000000.0 -117496000000.0 -12549300000.0 -372389000000.0 -447074000000.0 -215607000000.0 -339242000000.0 -376910000000.0 -1.25771e+12 -704896000000.0 -545666000000.0 -609506000000.0 -494871000000.0 -1.14181e+12 -337375000000.0 -21537700000.0 -368495000000.0 -12549200000.0 -1.26262e+12 -12549600000.0 -52739300000.0 -157181000000.0 -216005000000.0 -645363000000.0 -23286700000.0 -262552000000.0 -1.09366e+12 -431024000000.0 -447293000000.0 -286032000000.0 -242624000000.0 -454207000000.0 -912364000000.0 -168991000000.0 -64882200000.0 -590033000000.0 -261071000000.0 -774280000000.0 -355017000000.0 -147213000000.0 -472319000000.0 -100836000000.0 -12549600000.0 -410172000000.0 -354016000000.0 -84194700000.0 -53432900000.0 -29791400000.0 -12549700000.0 -85354300000.0 -28617700000.0 -35229600000.0 -38342800000.0 -16600100000.0 -26643000000.0 -63668200000.0 -451084000000.0 -17204300000.0 -64376800000.0 -42334800000.0 -247700000000.0 -33598600000.0 -543790000000.0 -447183000000.0 -499686000000.0 -532519000000.0 -166676000000.0 -1.23436e+12 -347485000000.0 -264591000000.0 -493601000000.0 -833942000000.0 -1.13756e+12 -335616000000.0 -330399000000.0 -1.81016e+12 -345695000000.0 -541156000000.0 -109149000000.0 -461855000000.0 -526203000000.0 -279682000000.0 -850685000000.0 -503262000000.0 -692369000000.0 -394795000000.0 -668976000000.0 -1.07851e+12 -455600000000.0 -405258000000.0 -1.40844e+12 -661762000000.0 -566093000000.0 -569491000000.0 -1.44549e+12 -465840000000.0 -1.19649e+12 -687046000000.0 -230261000000.0 -469400000000.0 -572538000000.0 -411591000000.0 -485571000000.0 -490571000000.0 -552293000000.0 -450314000000.0 -518481000000.0 -519982000000.0 -807551000000.0 -611402000000.0 -350029000000.0 -634725000000.0 -242990000000.0 -1.03844e+12 -462651000000.0 -488475000000.0 -836272000000.0 -777020000000.0 -1.80285e+12 -486397000000.0 -355876000000.0 -239940000000.0 -348173000000.0 -933056000000.0 -147320000000.0 -272878000000.0 -824623000000.0 -15026900000.0 -347433000000.0 -365228000000.0 -769149000000.0 -381976000000.0 -1.26349e+12 -576354000000.0 -904043000000.0 -983695000000.0 -950592000000.0 -21136200000.0 -285571000000.0 -336504000000.0 -12585200000.0 -130283000000.0 -364514000000.0 -47005300000.0 -233901000000.0 -23431000000.0 -206583000000.0 -18721200000.0 -465083000000.0 -409328000000.0 -232840000000.0 -286535000000.0 -13817200000.0 -63741800000.0 -12549700000.0 -38745400000.0 -12549700000.0 -21045500000.0 -12549600000.0 -12549700000.0 -37746400000.0 -17608700000.0 -13144900000.0 -29021400000.0 -58733300000.0 -93848400000.0 -16439200000.0 -25843200000.0 -16747200000.0 -73841700000.0 -39890900000.0 -12549500000.0 -148479000000.0 -197941000000.0 -605586000000.0 -419078000000.0 -223401000000.0 -12549700000.0 -276149000000.0 -12549700000.0 -314827000000.0 -22374200000.0 -543828000000.0 -405374000000.0 -584985000000.0 -317679000000.0 -283035000000.0 -309500000000.0 -64971400000.0 -84622300000.0 -333573000000.0 -339136000000.0 -265688000000.0 -476243000000.0 -999113000000.0 -130395000000.0 -1.42922e+12 -1.08106e+12 -554173000000.0 -358990000000.0 -536033000000.0 -252548000000.0 -277287000000.0 -351613000000.0 -465844000000.0 -667949000000.0 -1.00285e+12 -927567000000.0 -898961000000.0 -129940000000.0 -837879000000.0 -115816000000.0 -1.31984e+12 -515945000000.0 -130637000000.0 -1.14347e+12 -760913000000.0 -19541500000.0 -1.45051e+12 -89257300000.0 -1.35104e+12 -687238000000.0 -1.22197e+12 -69471600000.0 -1.02352e+12 -644524000000.0 -605132000000.0 -400203000000.0 -400102000000.0 -159126000000.0 -535555000000.0 -446642000000.0 -54775700000.0 -101201000000.0 -322193000000.0 -368998000000.0 -917597000000.0 -1.05065e+12 -324124000000.0 -1.06126e+12 -293085000000.0 -1.05746e+12 -1.35386e+12 -493982000000.0 -868353000000.0 -1.21449e+12 -796561000000.0 -12546600000.0 -318061000000.0 -818787000000.0 -701072000000.0 -86076100000.0 -382465000000.0 -207808000000.0 -643354000000.0 -600174000000.0 -655882000000.0 -647003000000.0 -82813600000.0 -47261000000.0 -12550600000.0 -12549700000.0 -217544000000.0 -249869000000.0 -25205100000.0 -272582000000.0 -290133000000.0 -136255000000.0 -193625000000.0 -216684000000.0 -299265000000.0 -97439200000.0 -361111000000.0 -615591000000.0 -12549700000.0 -216278000000.0 -83723900000.0 -226498000000.0 -656681000000.0 -837250000000.0 -364322000000.0 -235032000000.0 -76073900000.0 -279623000000.0 -334938000000.0 -601718000000.0 -192938000000.0 -1.00714e+12 -732777000000.0 -948526000000.0 -19159300000.0 -587564000000.0 -177958000000.0 -565556000000.0 -551227000000.0 -341949000000.0 -476787000000.0 -277391000000.0 -1.27688e+12 -840688000000.0 -468176000000.0 -895938000000.0 -413097000000.0 -475650000000.0 -337775000000.0 -272770000000.0 -420006000000.0 -287983000000.0 -694549000000.0 -659218000000.0 -792525000000.0 -120175000000.0 -989324000000.0 -214063000000.0 -845662000000.0 -697206000000.0 -356895000000.0 -459376000000.0 -212073000000.0 -141087000000.0 -318717000000.0 -425627000000.0 -256452000000.0 -85701900000.0 -236035000000.0 -147881000000.0 -762334000000.0 -636096000000.0 -69712400000.0 -130587000000.0 -494820000000.0 -600560000000.0 -514912000000.0 -387587000000.0 -232938000000.0 -40809400000.0 -370683000000.0 -180239000000.0 -283292000000.0 -45702200000.0 -55321000000.0 -12549700000.0 -12549300000.0 -374214000000.0 -193400000000.0 -32163000000.0 -12549700000.0 -14623000000.0 -24612300000.0 -24984600000.0 -35960600000.0 -123646000000.0 -12549600000.0 -131333000000.0 -13374500000.0 -409900000000.0 -492429000000.0 -12549700000.0 -12549700000.0 -12549700000.0 -420999000000.0 -366264000000.0 -71866300000.0 -51829400000.0 -290356000000.0 -225770000000.0 -490117000000.0 -908993000000.0 -628106000000.0 -400517000000.0 -135436000000.0 -446334000000.0 -791905000000.0 -167560000000.0 -199238000000.0 -844571000000.0 -1.07139e+12 -612378000000.0 -647697000000.0 -696819000000.0 -576153000000.0 -976758000000.0 -677737000000.0 -444575000000.0 -734302000000.0 -393834000000.0 -874261000000.0 -906850000000.0 -353948000000.0 -411045000000.0 -12546100000.0 -1.07462e+12 -470169000000.0 -312755000000.0 -26240500000.0 -56700700000.0 -841424000000.0 -500484000000.0 -455252000000.0 -465256000000.0 -555358000000.0 -624423000000.0 -348096000000.0 -355838000000.0 -503272000000.0 -954107000000.0 -474857000000.0 -375276000000.0 -922795000000.0 -437358000000.0 -856039000000.0 -414776000000.0 -717867000000.0 -762868000000.0 -31250100000.0 -61046300000.0 -37314300000.0 -218171000000.0 -644407000000.0 -494082000000.0 -74408700000.0 -134114000000.0 -181434000000.0 -583845000000.0 -312510000000.0 -793308000000.0 -854588000000.0 -395887000000.0 -567214000000.0 -940980000000.0 -960980000000.0 -944263000000.0 -965953000000.0 -365090000000.0 -989522000000.0 -826767000000.0 -29396800000.0 -106358000000.0 -420637000000.0 -324856000000.0 -330374000000.0 -302144000000.0 -294679000000.0 -733270000000.0 -413568000000.0 -255897000000.0 -262148000000.0 -266404000000.0 -249496000000.0 -237141000000.0 -267076000000.0 -255109000000.0 -432872000000.0 -725180000000.0 -421351000000.0 -178618000000.0 -417105000000.0 -241742000000.0 -207761000000.0 -190865000000.0 -457118000000.0 -229415000000.0 -82527300000.0 -191519000000.0 -5352890000.0 -12923500000.0 -848625000000.0 -381082000000.0 -352713000000.0 -154723000000.0 -95038700000.0 -262112000000.0 -179850000000.0 -323861000000.0 -220461000000.0 -505595000000.0 -491594000000.0 -308724000000.0 -538429000000.0 -493771000000.0 -443769000000.0 -642438000000.0 -395997000000.0 -362435000000.0 -740123000000.0 -272710000000.0 -1.05741e+12 -874400000000.0 -717713000000.0 -933726000000.0 -122784000000.0 -1.12788e+12 -540198000000.0 -449305000000.0 -316641000000.0 -862756000000.0 -42595600000.0 -321920000000.0 -17422200000.0 -92972900000.0 -204992000000.0 -548445000000.0 -176997000000.0 -38665200000.0 -30350700000.0 -640059000000.0 -216643000000.0 -290632000000.0 -492234000000.0 -855871000000.0 -964328000000.0 -414472000000.0 -186426000000.0 -685235000000.0 -26812100000.0 -12549400000.0 -22922700000.0 -124581000000.0 -443595000000.0 -392553000000.0 -512627000000.0 -403639000000.0 -418342000000.0 -777697000000.0 -400881000000.0 -153426000000.0 -292932000000.0 -231878000000.0 -272007000000.0 -263829000000.0 -67481800000.0 -51053600000.0 -64176200000.0 -1.12282e+12 -1.06541e+12 -490816000000.0 -1.37654e+12 -677910000000.0 -58077300000.0 -156446000000.0 -42842100000.0 -26588200000.0 -14853700000.0 -427006000000.0 -69940700000.0 -21331300000.0 -17942700000.0 -14507600000.0 -12559100000.0 -12549600000.0 -80210600000.0 -12549700000.0 -12546600000.0 -335718000000.0 -919896000000.0 -176828000000.0 -467330000000.0 -23398300000.0 -12549700000.0 -12549700000.0 -387322000000.0 -73466300000.0 -102767000000.0 -217469000000.0 -149642000000.0 -205562000000.0 -822976000000.0 -624061000000.0 -134904000000.0 -51188800000.0 -12549700000.0 -238906000000.0 -149032000000.0 -160616000000.0 -12547500000.0 -467210000000.0 -459936000000.0 -360019000000.0 -658235000000.0 -317194000000.0 -486613000000.0 -578337000000.0 -265711000000.0 -27055400000.0 -600829000000.0 -447410000000.0 -112499000000.0 -1.16292e+12 -446374000000.0 -20135800000.0 -672092000000.0 -1.16885e+12 -12549600000.0 -172433000000.0 -145672000000.0 -587399000000.0 -29239600000.0 -322699000000.0 -96088800000.0 -91634900000.0 -251289000000.0 -565126000000.0 -35771000000.0 -82486900000.0 -101471000000.0 -602150000000.0 -28820200000.0 -12549700000.0 -239621000000.0 -589950000000.0 -1.25613e+12 -590296000000.0 -512235000000.0 -443118000000.0 -946326000000.0 -695968000000.0 -323158000000.0 -467217000000.0 -31224400000.0 -124537000000.0 -93437500000.0 -23598800000.0 -22128600000.0 -499997000000.0 -118066000000.0 -83857100000.0 -169482000000.0 -89202700000.0 -51800900000.0 -267216000000.0 -17127100000.0 -25589000000.0 -21687700000.0 -481426000000.0 -473117000000.0 -36223300000.0 -424477000000.0 -169568000000.0 -66160700000.0 -114628000000.0 -123632000000.0 -67371400000.0 -127810000000.0 -254511000000.0 -23570500000.0 -12549600000.0 -25656400000.0 -59132800000.0 -122824000000.0 -171155000000.0 -250859000000.0 -296595000000.0 -425450000000.0 -12549700000.0 -12549700000.0 -1.02843e+12 -898764000000.0 -472493000000.0 -309164000000.0 -259135000000.0 -130477000000.0 -10867700000.0 -24859500000.0 -120864000000.0 -78481300000.0 -124631000000.0 -809782000000.0 -664290000000.0 -73329900000.0 -12549600000.0 -12549600000.0 -157283000000.0 -169439000000.0 -147455000000.0 -130235000000.0 -167598000000.0 -174876000000.0 -50635700000.0 -228417000000.0 -190864000000.0 -173976000000.0 -1.58152e+12 -1.17504e+12 -1.38662e+12 -1.11318e+12 -1.01899e+12 -807775000000.0 -1.67673e+12 -1.16947e+12 -1.33716e+12 -1.48841e+12 -1.78401e+12 -759979000000.0 -485889000000.0 -477657000000.0 -985656000000.0 -72400400000.0 -316936000000.0 -87190900000.0 -34791700000.0 -298745000000.0 -468485000000.0 -52706400000.0 -34275700000.0 -48950500000.0 -902372000000.0 -27325200000.0 -19181700000.0 -41064200000.0 -1.43648e+12 -516066000000.0 -156508000000.0 -72849900000.0 -289229000000.0 -357684000000.0 -12549600000.0 -511330000000.0 -551024000000.0 -160624000000.0 -266598000000.0 -175984000000.0 -165646000000.0 -198500000000.0 -347943000000.0 -303695000000.0 -175534000000.0 -244163000000.0 -249130000000.0 -178509000000.0 -172962000000.0 -19924900000.0 -44623200000.0 -12549700000.0 -610014000000.0 -757589000000.0 -281047000000.0 -535195000000.0 -297688000000.0 -96115400000.0 -28478600000.0 -89097800000.0 -50549000000.0 -151657000000.0 -80430500000.0 -154430000000.0 -181359000000.0 -236072000000.0 -266793000000.0 -311212000000.0 -302024000000.0 -323762000000.0 -345483000000.0 -440862000000.0 -623487000000.0 -646517000000.0 -1.42144e+12 -850122000000.0 -72489600000.0 -21888400000.0 -346859000000.0 -116382000000.0 -56481400000.0 -32098700000.0 -76791400000.0 -14628200000.0 -75701300000.0 -509909000000.0 -670956000000.0 -180514000000.0 -30115500000.0 -12543000000.0 -90486100000.0 -145530000000.0 -43080500000.0 -86419600000.0 -135811000000.0 -397927000000.0 -532327000000.0 -607628000000.0 -527758000000.0 -1.19837e+12 -85915300000.0 -178062000000.0 -18902300000.0 -764738000000.0 -687998000000.0 -337260000000.0 -1.04451e+12 -41572000000.0 -585313000000.0 -65009100000.0 -463039000000.0 -564796000000.0 -22801400000.0 -68248500000.0 -179121000000.0 -1.087e+12 -941659000000.0 -296026000000.0 -268155000000.0 -598002000000.0 -625106000000.0 -209733000000.0 -374345000000.0 -607351000000.0 -22656400000.0 -768112000000.0 -297962000000.0 -1.02545e+12 -510959000000.0 -771044000000.0 -248427000000.0 -406106000000.0 -23505800000.0 -289697000000.0 -221524000000.0 -385259000000.0 -499848000000.0 -12549700000.0 -146044000000.0 -35124900000.0 -40920300000.0 -41874300000.0 -270014000000.0 -221299000000.0 -90168200000.0 -84597300000.0 -12549700000.0 -336788000000.0 -191488000000.0 -114262000000.0 -165335000000.0 -240536000000.0 -540109000000.0 -670162000000.0 -69260100000.0 -655908000000.0 -478122000000.0 -147489000000.0 -57878500000.0 -34556500000.0 -19591700000.0 -313525000000.0 -158250000000.0 -117960000000.0 -36145700000.0 -12549700000.0 -12549700000.0 -67057900000.0 -34113500000.0 -33395000000.0 -86190600000.0 -49682000000.0 -12549600000.0 -49714500000.0 -257494000000.0 -1.23036e+12 -903597000000.0 -459125000000.0 -757944000000.0 -356098000000.0 -333498000000.0 -357690000000.0 -412309000000.0 -271778000000.0 -213578000000.0 -439924000000.0 -894956000000.0 -476444000000.0 -121382000000.0 -40947900000.0 -14453400000.0 -213580000000.0 -34782300000.0 -78835700000.0 -394757000000.0 -96169300000.0 -135332000000.0 -374719000000.0 -165099000000.0 -820579000000.0 -254189000000.0 -281073000000.0 -447784000000.0 -934847000000.0 -743825000000.0 -354700000000.0 -1.35765e+12 -826604000000.0 -589536000000.0 -569546000000.0 -575792000000.0 -524089000000.0 -868657000000.0 -771765000000.0 -89676700000.0 -549276000000.0 -191240000000.0 -611100000000.0 -359281000000.0 -654509000000.0 -345306000000.0 -15740400000.0 -136859000000.0 -419338000000.0 -118056000000.0 -228732000000.0 -709231000000.0 -1.45512e+12 -1.2031e+12 -766577000000.0 -910373000000.0 -1.01907e+12 -951685000000.0 -963246000000.0 -744937000000.0 -952465000000.0 -962830000000.0 -803156000000.0 -558813000000.0 -526409000000.0 -452071000000.0 -375819000000.0 -584561000000.0 -487149000000.0 -45245200000.0 -159785000000.0 -83020700000.0 -556929000000.0 -492202000000.0 -466163000000.0 -416905000000.0 -516360000000.0 -909731000000.0 -756277000000.0 -525838000000.0 -705587000000.0 -413766000000.0 -451112000000.0 -822344000000.0 -820678000000.0 -651500000000.0 -203345000000.0 -175987000000.0 -224388000000.0 -93847100000.0 -32061200000.0 -14861400000.0 -80706100000.0 -26805300000.0 -174375000000.0 -146277000000.0 -124747000000.0 -80258000000.0 -83859900000.0 -512774000000.0 -1.09086e+12 -768486000000.0 -213476000000.0 -777450000000.0 -20558900000.0 -12555600000.0 -155584000000.0 -317491000000.0 -181086000000.0 -195316000000.0 -489953000000.0 -608283000000.0 -299673000000.0 -47734600000.0 -25020000000.0 -37012800000.0 -219160000000.0 -22197700000.0 -52843200000.0 -214416000000.0 -19484200000.0 -12549700000.0 -259329000000.0 -91719600000.0 -625131000000.0 -84843200000.0 -12549700000.0 -12579500000.0 -766274000000.0 -658268000000.0 -358857000000.0 -618999000000.0 -300815000000.0 -448213000000.0 -12549700000.0 -268065000000.0 -30724000000.0 -117608000000.0 -12549300000.0 -657012000000.0 -718069000000.0 -394395000000.0 -559600000000.0 -210999000000.0 -330001000000.0 -848046000000.0 -157254000000.0 -256115000000.0 -757414000000.0 -338264000000.0 -397263000000.0 -827357000000.0 -405121000000.0 -680250000000.0 -186886000000.0 -405863000000.0 -329884000000.0 -108767000000.0 -790823000000.0 -315647000000.0 -686016000000.0 -696779000000.0 -407077000000.0 -795198000000.0 -583712000000.0 -595390000000.0 -587457000000.0 -732000000000.0 -735161000000.0 -919684000000.0 -881706000000.0 -657728000000.0 -702523000000.0 -708884000000.0 -543908000000.0 -520400000000.0 -602856000000.0 -1.35562e+12 -805068000000.0 -1.42953e+12 -2.00933e+12 -1.18878e+12 -12549700000.0 -169296000000.0 -12549900000.0 -391530000000.0 -126505000000.0 -76628600000.0 -200551000000.0 -12549700000.0 -12549700000.0 -15608000000.0 -83144000000.0 -41165200000.0 -478971000000.0 -116847000000.0 -142958000000.0 -166866000000.0 -338510000000.0 -448181000000.0 -1.34572e+12 -1.20283e+12 -386899000000.0 -1.06676e+12 -299305000000.0 -331820000000.0 -358878000000.0 -12549700000.0 -19713600000.0 -95484900000.0 -529185000000.0 -875158000000.0 -630683000000.0 -291136000000.0 -254997000000.0 -282093000000.0 -296847000000.0 -86027400000.0 -102372000000.0 -114399000000.0 -51127000000.0 -64111300000.0 -178671000000.0 -100377000000.0 -729695000000.0 -270938000000.0 -245374000000.0 -300264000000.0 -611705000000.0 -765431000000.0 -441251000000.0 -774413000000.0 -699055000000.0 -625489000000.0 -521333000000.0 -744973000000.0 -19189000000.0 -199222000000.0 -74799600000.0 -555628000000.0 -637583000000.0 -346239000000.0 -479966000000.0 -12549700000.0 -328561000000.0 -822593000000.0 -277671000000.0 -415767000000.0 -875401000000.0 -22859900000.0 -105009000000.0 -714030000000.0 -703930000000.0 -1.00455e+12 -852111000000.0 -438854000000.0 -324970000000.0 -431210000000.0 -1.14295e+12 -255029000000.0 -1.11542e+12 -317294000000.0 -261913000000.0 -269780000000.0 -120238000000.0 -398908000000.0 -182876000000.0 -209187000000.0 -363841000000.0 -199132000000.0 -510550000000.0 -410004000000.0 -115966000000.0 -102733000000.0 -148882000000.0 -219739000000.0 -113694000000.0 -928097000000.0 -622849000000.0 -650829000000.0 -1.04095e+12 -802509000000.0 -52355500000.0 -242678000000.0 -112313000000.0 -507586000000.0 -402960000000.0 -250143000000.0 -430773000000.0 -469837000000.0 -437413000000.0 -417631000000.0 -453529000000.0 -440403000000.0 -872141000000.0 -177070000000.0 -223913000000.0 -158083000000.0 -285374000000.0 -598995000000.0 -1.57051e+12 -446157000000.0 -854081000000.0 -886843000000.0 -442838000000.0 -257602000000.0 -530713000000.0 -115164000000.0 -102436000000.0 -154122000000.0 -513268000000.0 -448277000000.0 -335270000000.0 -88378300000.0 -105361000000.0 -90555700000.0 -498105000000.0 -67036100000.0 -145419000000.0 -56303100000.0 -31952900000.0 -18531400000.0 -109852000000.0 -157514000000.0 -577515000000.0 -77310400000.0 -58984400000.0 -76403800000.0 -405270000000.0 -565885000000.0 -267393000000.0 -655658000000.0 -364406000000.0 -828860000000.0 -591407000000.0 -782013000000.0 -1.37256e+12 -666711000000.0 -978253000000.0 -1.26142e+12 -1.26871e+12 -935739000000.0 -913111000000.0 -641485000000.0 -803360000000.0 -1.24642e+12 -402538000000.0 -679014000000.0 -808296000000.0 -1.15323e+12 -1.03211e+12 -1.54446e+12 -1.28728e+12 -1.55092e+12 -738976000000.0 -686606000000.0 -454515000000.0 -777059000000.0 -780080000000.0 -1.61892e+12 -1.84562e+12 -535276000000.0 -316513000000.0 -450257000000.0 -333983000000.0 -318663000000.0 -142799000000.0 -133019000000.0 -204297000000.0 -32663500000.0 -203664000000.0 -309021000000.0 -187583000000.0 -298900000000.0 -358809000000.0 -391985000000.0 -607452000000.0 -1.23907e+12 -759412000000.0 -1.0054e+12 -2.06917e+12 -398649000000.0 -46956400000.0 -229585000000.0 -221117000000.0 -521131000000.0 -447686000000.0 -398272000000.0 -811071000000.0 -12549700000.0 -30549200000.0 -12549700000.0 -79886600000.0 -22878100000.0 -474660000000.0 -821588000000.0 -605098000000.0 -713696000000.0 -912073000000.0 -291080000000.0 -1.84993e+12 -573719000000.0 -610301000000.0 -1.06221e+12 -650853000000.0 -403487000000.0 -815535000000.0 -119963000000.0 -40050400000.0 -48880900000.0 -613309000000.0 -292845000000.0 -429526000000.0 -12549700000.0 -108491000000.0 -13166000000.0 -443335000000.0 -133725000000.0 -275557000000.0 -12549700000.0 -12549700000.0 -28871000000.0 -112038000000.0 -250529000000.0 -377508000000.0 -156138000000.0 -199144000000.0 -221262000000.0 -497719000000.0 -502798000000.0 -173628000000.0 -377507000000.0 -34806900000.0 -354853000000.0 -12548700000.0 -338839000000.0 -73952400000.0 -1.13306e+12 -253735000000.0 -384968000000.0 -517531000000.0 -148123000000.0 -644911000000.0 -333918000000.0 -384997000000.0 -1.19454e+12 -437386000000.0 -61143300000.0 -442558000000.0 -832922000000.0 -432490000000.0 -1.50393e+12 -845308000000.0 -1.80111e+12 -1.35127e+12 -1.05605e+12 -864010000000.0 -753119000000.0 -308094000000.0 -648215000000.0 -1.204e+12 -80248000000.0 -226295000000.0 -134964000000.0 -173337000000.0 -273907000000.0 -195195000000.0 -94386800000.0 -167087000000.0 -12425400000.0 -131192000000.0 -229872000000.0 -423272000000.0 -151542000000.0 -137448000000.0 -181993000000.0 -224240000000.0 -775713000000.0 -86069600000.0 -100295000000.0 -1.51803e+12 -197054000000.0 -104792000000.0 -321476000000.0 -361190000000.0 -1.04722e+12 -430721000000.0 -319177000000.0 -1.45794e+12 -12539600000.0 -72498700000.0 -12463700000.0 -109738000000.0 -491969000000.0 -89367800000.0 -387565000000.0 -128818000000.0 -251686000000.0 -394249000000.0 -212532000000.0 -1.73646e+12 -452284000000.0 -108674000000.0 -906704000000.0 -569206000000.0 -382411000000.0 -420647000000.0 -427186000000.0 -289125000000.0 -293515000000.0 -1.12248e+12 -811320000000.0 -1.01515e+12 -474696000000.0 -574229000000.0 -520649000000.0 -760940000000.0 -541939000000.0 -648658000000.0 -461290000000.0 -414149000000.0 -456415000000.0 -639826000000.0 -464878000000.0 -785963000000.0 -565894000000.0 -521151000000.0 -474293000000.0 -716916000000.0 -829348000000.0 -599467000000.0 -278694000000.0 -246579000000.0 -657691000000.0 -338616000000.0 -246833000000.0 -233041000000.0 -1.02025e+12 -435592000000.0 -520117000000.0 -544406000000.0 -274861000000.0 -721003000000.0 -235030000000.0 -291970000000.0 -166158000000.0 -544015000000.0 -345826000000.0 -551327000000.0 -854812000000.0 -1.25864e+12 -504946000000.0 -359764000000.0 -636023000000.0 -89227400000.0 -508840000000.0 -336489000000.0 -614534000000.0 -324408000000.0 -593846000000.0 -1.0788e+12 -361738000000.0 -265926000000.0 -232700000000.0 -424207000000.0 -324527000000.0 -354950000000.0 -265922000000.0 -363129000000.0 -223591000000.0 -261164000000.0 -531222000000.0 -535971000000.0 -277635000000.0 -108120000000.0 -116947000000.0 -140435000000.0 -607926000000.0 -335728000000.0 -366416000000.0 -1.68227e+12 -294780000000.0 -621791000000.0 -855677000000.0 -807997000000.0 -1.65759e+12 -792839000000.0 -508134000000.0 -1.9578e+12 -628259000000.0 -465277000000.0 -490745000000.0 -820572000000.0 -242698000000.0 -417365000000.0 -546336000000.0 -377034000000.0 -486154000000.0 -764695000000.0 -514772000000.0 -1.34496e+12 -862855000000.0 -853419000000.0 -1.61606e+12 -742049000000.0 -1.04653e+12 -1.24575e+12 -1.07369e+12 -1.31336e+12 -1.39657e+12 -1.09545e+12 -673543000000.0 -557115000000.0 -780157000000.0 -814367000000.0 -647366000000.0 -837819000000.0 -465949000000.0 -601507000000.0 -502699000000.0 -543343000000.0 -607388000000.0 -83710100000.0 -412294000000.0 -323373000000.0 -20903000000.0 -12549700000.0 -53893900000.0 -209420000000.0 -335612000000.0 -59735500000.0 -218419000000.0 -116045000000.0 -269102000000.0 -381904000000.0 -193460000000.0 -420982000000.0 -892782000000.0 -21294100000.0 -219249000000.0 -265456000000.0 -56802400000.0 -390887000000.0 -47721900000.0 -12549700000.0 -270706000000.0 -335363000000.0 -34237200000.0 -875176000000.0 -67648400000.0 -684305000000.0 -253485000000.0 -162527000000.0 -402019000000.0 -257764000000.0 -625277000000.0 -1.09605e+12 -441300000000.0 -541357000000.0 -487654000000.0 -473511000000.0 -38773600000.0 -219338000000.0 -199488000000.0 -493755000000.0 -666420000000.0 -80504600000.0 -122431000000.0 -138415000000.0 -94321700000.0 -201421000000.0 -168142000000.0 -769973000000.0 -179482000000.0 -133799000000.0 -61784300000.0 -53339300000.0 -469797000000.0 -31910300000.0 -31607500000.0 -1.5279e+12 -315714000000.0 -308986000000.0 -348215000000.0 -28255800000.0 -295360000000.0 -1.71124e+12 -87813000000.0 -1.96228e+12 -834559000000.0 -226802000000.0 -301398000000.0 -434454000000.0 -12549700000.0 -287823000000.0 -123519000000.0 -48641900000.0 -210119000000.0 -140096000000.0 -33046800000.0 -1.21699e+12 -950067000000.0 -1.42352e+12 -429221000000.0 -374384000000.0 -183443000000.0 -363248000000.0 -303838000000.0 -567791000000.0 -234319000000.0 -281484000000.0 -191668000000.0 -196506000000.0 -65624100000.0 -253474000000.0 -183894000000.0 -193123000000.0 -41732700000.0 -182484000000.0 -54663300000.0 -100952000000.0 -12549700000.0 -236041000000.0 -330425000000.0 -330422000000.0 -12549700000.0 -12549700000.0 -81326300000.0 -365362000000.0 -362652000000.0 -20464800000.0 -124655000000.0 -20386500000.0 -293168000000.0 -327159000000.0 -363769000000.0 -94151800000.0 -707725000000.0 -50495900000.0 -549163000000.0 -468797000000.0 -202388000000.0 -648390000000.0 -289503000000.0 -239837000000.0 -521973000000.0 -399922000000.0 -272324000000.0 -1.00132e+12 -116036000000.0 -571239000000.0 -418782000000.0 -319700000000.0 -584819000000.0 -422453000000.0 -1.0469e+12 -51820000000.0 -34319000000.0 -12549600000.0 -414915000000.0 -327649000000.0 -22892700000.0 -83730600000.0 -93674000000.0 -486500000000.0 -572183000000.0 -189587000000.0 -240077000000.0 -303778000000.0 -374485000000.0 -490258000000.0 -585474000000.0 -1.03243e+12 -237014000000.0 -250652000000.0 -398927000000.0 -362226000000.0 -1.02756e+12 -528781000000.0 -962464000000.0 -545912000000.0 -133939000000.0 -420893000000.0 -491691000000.0 -270452000000.0 -235561000000.0 -905928000000.0 -1.7516e+12 -2.82711e+12 -337024000000.0 -768809000000.0 -765382000000.0 -1.10026e+12 -537593000000.0 -362812000000.0 -246102000000.0 -179489000000.0 -377830000000.0 -437334000000.0 -465109000000.0 -661522000000.0 -758998000000.0 -1.28595e+12 -479201000000.0 -432384000000.0 -403521000000.0 -505523000000.0 -280524000000.0 -1.1437e+12 -858633000000.0 -963726000000.0 -393298000000.0 -734475000000.0 -553923000000.0 -552034000000.0 -503545000000.0 -442260000000.0 -277892000000.0 -152595000000.0 -178180000000.0 -128070000000.0 -62428000000.0 -110459000000.0 -147314000000.0 -277869000000.0 -118002000000.0 -136946000000.0 -383962000000.0 -86090900000.0 -343818000000.0 -170232000000.0 -326087000000.0 -190062000000.0 -508445000000.0 -303976000000.0 -392496000000.0 -73457100000.0 -160096000000.0 -1.06789e+12 -339959000000.0 -441342000000.0 -447472000000.0 -222303000000.0 -75931000000.0 -72366400000.0 -356873000000.0 -61860000000.0 -61819900000.0 -1.02291e+12 -318095000000.0 -888721000000.0 -469234000000.0 -638468000000.0 -38333000000.0 -104636000000.0 -580127000000.0 -44336700000.0 -12549700000.0 -18826100000.0 -373891000000.0 -311208000000.0 -170330000000.0 -135536000000.0 -102251000000.0 -463290000000.0 -613106000000.0 -12547300000.0 -12549700000.0 -18277200000.0 -24595500000.0 -106615000000.0 -361748000000.0 -855676000000.0 -266600000000.0 -258025000000.0 -553509000000.0 -433621000000.0 -371226000000.0 -24652200000.0 -535448000000.0 -281191000000.0 -12663100000.0 -876618000000.0 -678310000000.0 -937143000000.0 -2.17024e+12 -1.63064e+12 -1.04882e+12 -3.08282e+12 -20802200000.0 -12549700000.0 -534560000000.0 -1.56498e+12 -631010000000.0 -743265000000.0 -472227000000.0 -424155000000.0 -429354000000.0 -836697000000.0 -921292000000.0 -1.63946e+12 -1.33616e+12 -1.55425e+12 -1.62058e+12 -1.46462e+12 -1.3931e+12 -1.61867e+12 -1.25842e+12 -274140000000.0 -235652000000.0 -508508000000.0 -638894000000.0 -934348000000.0 -606848000000.0 -632481000000.0 -738304000000.0 -152778000000.0 -134449000000.0 -143788000000.0 -158044000000.0 -56604600000.0 -31011700000.0 -24536100000.0 -99081400000.0 -175671000000.0 -23744400000.0 -16690000000.0 -342047000000.0 -139724000000.0 -313670000000.0 -120487000000.0 -214283000000.0 -235704000000.0 -343198000000.0 -496842000000.0 -736750000000.0 -390905000000.0 -804689000000.0 -96853500000.0 -92482000000.0 -152951000000.0 -90068400000.0 -426896000000.0 -197691000000.0 -149627000000.0 -497619000000.0 -225715000000.0 -445669000000.0 -524861000000.0 -35286800000.0 -674672000000.0 -263870000000.0 -606967000000.0 -205394000000.0 -237093000000.0 -503020000000.0 -74183200000.0 -74724700000.0 -97080800000.0 -398448000000.0 -327099000000.0 -27570500000.0 -33207900000.0 -12549700000.0 -613307000000.0 -798291000000.0 -305603000000.0 -304663000000.0 -343293000000.0 -400184000000.0 -292727000000.0 -559566000000.0 -880762000000.0 -33314500000.0 -12549700000.0 -379209000000.0 -161055000000.0 -252951000000.0 -178142000000.0 -560391000000.0 -164978000000.0 -12549700000.0 -1.85091e+12 -1.87592e+12 -1.36465e+12 -1.0138e+12 -632143000000.0 -762683000000.0 -780536000000.0 -2.04957e+12 -2.28112e+12 -1.81632e+12 -826809000000.0 -1.19635e+12 -1.25727e+12 -1.27568e+12 -1.08998e+12 -1.15376e+12 -1.33491e+12 -949660000000.0 -371867000000.0 -662340000000.0 -1.15652e+12 -1.33678e+12 -449346000000.0 -498465000000.0 -535236000000.0 -2.15895e+12 -1.29248e+12 -1.04074e+12 -739939000000.0 -538506000000.0 -464622000000.0 -199618000000.0 -263058000000.0 -73146700000.0 -562945000000.0 -203222000000.0 -203031000000.0 -324536000000.0 -177992000000.0 -89733400000.0 -69820300000.0 -103927000000.0 -176099000000.0 -100797000000.0 -94503000000.0 -406493000000.0 -131071000000.0 -264683000000.0 -61409000000.0 -242457000000.0 -109686000000.0 -215160000000.0 -417958000000.0 -564691000000.0 -314462000000.0 -485669000000.0 -65537600000.0 -19091800000.0 -37481900000.0 -17729900000.0 -283092000000.0 -13525100000.0 -26178500000.0 -403775000000.0 -59951000000.0 -332304000000.0 -444008000000.0 -12549700000.0 -687791000000.0 -455922000000.0 -593621000000.0 -108642000000.0 -79375200000.0 -519339000000.0 -287421000000.0 -190626000000.0 -160157000000.0 -500805000000.0 -155450000000.0 -353438000000.0 -277400000000.0 -295489000000.0 -240375000000.0 -470415000000.0 -12549700000.0 -19153000000.0 -12549700000.0 -12549700000.0 -37282900000.0 -455962000000.0 -1.00777e+12 -254996000000.0 -251179000000.0 -563875000000.0 -322972000000.0 -482224000000.0 -150556000000.0 -468568000000.0 -43420000000.0 -16621100000.0 -558923000000.0 -740073000000.0 -839025000000.0 -635848000000.0 -484574000000.0 -360634000000.0 -679434000000.0 -838953000000.0 -1.07985e+12 -31097000000.0 -425814000000.0 -46672700000.0 -42345400000.0 -149178000000.0 -12549700000.0 -12659300000.0 -656037000000.0 -422209000000.0 -417026000000.0 -439925000000.0 -865893000000.0 -596294000000.0 -132667000000.0 -20906500000.0 -362133000000.0 -1.22487e+12 -439633000000.0 -338681000000.0 -219256000000.0 -244476000000.0 -407602000000.0 -138790000000.0 -162537000000.0 -19268000000.0 -404544000000.0 -174238000000.0 -191735000000.0 -351468000000.0 -118691000000.0 -92693600000.0 -109260000000.0 -191625000000.0 -44960800000.0 -49297000000.0 -56427500000.0 -354939000000.0 -165633000000.0 -114420000000.0 -89427800000.0 -165862000000.0 -39349900000.0 -28360300000.0 -222636000000.0 -494132000000.0 -35206400000.0 -376892000000.0 -68718900000.0 -12549700000.0 -28436600000.0 -74897200000.0 -331645000000.0 -96177200000.0 -88869400000.0 -556206000000.0 -90690600000.0 -349027000000.0 -414857000000.0 -359619000000.0 -986636000000.0 -689259000000.0 -871746000000.0 -388929000000.0 -18186100000.0 -566888000000.0 -215311000000.0 -125170000000.0 -118825000000.0 -538346000000.0 -28475100000.0 -268693000000.0 -181531000000.0 -253867000000.0 -299016000000.0 -201969000000.0 -270894000000.0 -126280000000.0 -66446400000.0 -28061800000.0 -71191700000.0 -453072000000.0 -924027000000.0 -147555000000.0 -178272000000.0 -487884000000.0 -743285000000.0 -767676000000.0 -910779000000.0 -940969000000.0 -1.74396e+12 -829486000000.0 -419206000000.0 -408408000000.0 -555200000000.0 -501380000000.0 -12549700000.0 -145232000000.0 -638526000000.0 -887014000000.0 -705330000000.0 -175452000000.0 -259138000000.0 -140075000000.0 -230097000000.0 -382445000000.0 -192231000000.0 -418251000000.0 -271559000000.0 -200069000000.0 -142545000000.0 -142488000000.0 -805732000000.0 -734853000000.0 -906131000000.0 -889830000000.0 -773574000000.0 -1.28738e+12 -742157000000.0 -45094700000.0 -253412000000.0 -227580000000.0 -342950000000.0 -216642000000.0 -229197000000.0 -322055000000.0 -527050000000.0 -253679000000.0 -303390000000.0 -614289000000.0 -473646000000.0 -74005000000.0 -36194500000.0 -253795000000.0 -25844900000.0 -15213500000.0 -31595800000.0 -383967000000.0 -207749000000.0 -121055000000.0 -131447000000.0 -239992000000.0 -148491000000.0 -165785000000.0 -507809000000.0 -633767000000.0 -36154000000.0 -418288000000.0 -39731400000.0 -12549700000.0 -48476700000.0 -238685000000.0 -379673000000.0 -39586000000.0 -31619400000.0 -538871000000.0 -75280900000.0 -108761000000.0 -1.05564e+12 -496837000000.0 -1.50713e+12 -1.4669e+12 -1.70583e+12 -1.20843e+12 -1.02463e+12 -508359000000.0 -314187000000.0 -247095000000.0 -216856000000.0 -546777000000.0 -122454000000.0 -416276000000.0 -127774000000.0 -31535500000.0 -305925000000.0 -284475000000.0 -255611000000.0 -121865000000.0 -142640000000.0 -199376000000.0 -464178000000.0 -300465000000.0 -1.13545e+12 -252084000000.0 -230756000000.0 -635132000000.0 -12549500000.0 -152205000000.0 -139650000000.0 -396523000000.0 -12549700000.0 -12549700000.0 -325499000000.0 -321964000000.0 -520560000000.0 -309689000000.0 -22312700000.0 -100701000000.0 -729815000000.0 -552543000000.0 -560603000000.0 -22915200000.0 -153262000000.0 -30469900000.0 -89967000000.0 -127180000000.0 -315919000000.0 -485195000000.0 -695530000000.0 -637894000000.0 -595156000000.0 -519176000000.0 -953263000000.0 -435116000000.0 -212681000000.0 -36642100000.0 -113175000000.0 -1.95839e+12 -248924000000.0 -192796000000.0 -12189600000.0 -47446900000.0 -252612000000.0 -12549900000.0 -12549700000.0 -27688500000.0 -229651000000.0 -12549700000.0 -12549700000.0 -196785000000.0 -12620200000.0 -430180000000.0 -342985000000.0 -491258000000.0 -251692000000.0 -238339000000.0 -288778000000.0 -597659000000.0 -359335000000.0 -273571000000.0 -422044000000.0 -689741000000.0 -449354000000.0 -492223000000.0 -66467900000.0 -560804000000.0 -12524500000.0 -417071000000.0 -60008800000.0 -33276800000.0 -22095600000.0 -482268000000.0 -49093700000.0 -376090000000.0 -303209000000.0 -866754000000.0 -487659000000.0 -654183000000.0 -541772000000.0 -819641000000.0 -63014800000.0 -683676000000.0 -255856000000.0 -1.03613e+12 -428051000000.0 -117382000000.0 -191972000000.0 -45385900000.0 -12549700000.0 -341859000000.0 -56063500000.0 -737496000000.0 -45997300000.0 -99152400000.0 -430170000000.0 -510691000000.0 -390721000000.0 -273438000000.0 -214506000000.0 -274801000000.0 -500672000000.0 -409017000000.0 -947313000000.0 -139573000000.0 -120549000000.0 -498474000000.0 -87172400000.0 -12549600000.0 -12549700000.0 -193007000000.0 -25810100000.0 -12549700000.0 -162689000000.0 -62396300000.0 -349299000000.0 -175953000000.0 -89904900000.0 -12557000000.0 -593183000000.0 -347108000000.0 -51505100000.0 -584845000000.0 -464469000000.0 -383061000000.0 -408514000000.0 -675193000000.0 -769418000000.0 -725919000000.0 -198335000000.0 -346612000000.0 -289267000000.0 -167676000000.0 -1.44844e+12 -1.02273e+12 -801261000000.0 -829548000000.0 -828852000000.0 -1.12002e+12 -1.3139e+12 -410219000000.0 -159378000000.0 -84442500000.0 -273483000000.0 -68497600000.0 -53431800000.0 -45751900000.0 -60339400000.0 -185079000000.0 -177028000000.0 -237962000000.0 -12596000000.0 -298383000000.0 -168905000000.0 -233201000000.0 -85782400000.0 -76408300000.0 -81064500000.0 -381173000000.0 -173941000000.0 -179648000000.0 -12549600000.0 -150431000000.0 -16894000000.0 -101558000000.0 -296365000000.0 -244498000000.0 -671694000000.0 -706703000000.0 -393778000000.0 -197004000000.0 -230032000000.0 -622314000000.0 -196910000000.0 -511050000000.0 -538773000000.0 -431883000000.0 -355875000000.0 -826217000000.0 -257115000000.0 -681997000000.0 -362519000000.0 -410139000000.0 -153876000000.0 -1.29801e+12 -889249000000.0 -718859000000.0 -683715000000.0 -724370000000.0 -769693000000.0 -987629000000.0 -860099000000.0 -471204000000.0 -853757000000.0 -1.18383e+12 -1.18054e+12 -1.20556e+12 -829703000000.0 -701621000000.0 -610563000000.0 -387558000000.0 -633088000000.0 -412400000000.0 -713278000000.0 -123942000000.0 -43968300000.0 -490001000000.0 -209063000000.0 -142712000000.0 -113257000000.0 -190606000000.0 -12549700000.0 -12549700000.0 -73697300000.0 -12549700000.0 -46042900000.0 -345044000000.0 -12549500000.0 -101301000000.0 -476488000000.0 -247996000000.0 -26300500000.0 -303128000000.0 -171219000000.0 -173958000000.0 -338578000000.0 -152437000000.0 -156559000000.0 -251833000000.0 -359614000000.0 -592209000000.0 -758769000000.0 -803505000000.0 -281319000000.0 -44693000000.0 -23409900000.0 -176318000000.0 -189475000000.0 -895723000000.0 -537419000000.0 -15567400000.0 -126399000000.0 -12549700000.0 -219804000000.0 -27846000000.0 -15353600000.0 -12549700000.0 -43570800000.0 -41189800000.0 -20801100000.0 -18525600000.0 -355802000000.0 -59104700000.0 -43197100000.0 -87213100000.0 -43484700000.0 -16859500000.0 -12545500000.0 -200460000000.0 -63908400000.0 -75011100000.0 -17057900000.0 -108401000000.0 -12545300000.0 -22455000000.0 -85345900000.0 -107769000000.0 -368333000000.0 -485098000000.0 -278910000000.0 -318808000000.0 -423296000000.0 -773506000000.0 -319523000000.0 -579695000000.0 -486606000000.0 -564420000000.0 -300932000000.0 -510146000000.0 -135684000000.0 -621369000000.0 -273736000000.0 -367703000000.0 -454358000000.0 -616577000000.0 -266570000000.0 -144576000000.0 -26079100000.0 -149150000000.0 -99415500000.0 -269185000000.0 -113917000000.0 -409434000000.0 -355595000000.0 -170235000000.0 -208284000000.0 -483046000000.0 -13931100000.0 -24435900000.0 -12549700000.0 -352289000000.0 -711876000000.0 -526960000000.0 -631348000000.0 -111132000000.0 -207666000000.0 -440669000000.0 -24328200000.0 -12549700000.0 -12549700000.0 -100104000000.0 -15331600000.0 -12549700000.0 -220983000000.0 -371938000000.0 -386832000000.0 -595428000000.0 -515814000000.0 -549016000000.0 -818518000000.0 -591967000000.0 -631711000000.0 -751592000000.0 -642362000000.0 -591731000000.0 -636418000000.0 -490412000000.0 -447142000000.0 -474793000000.0 -450423000000.0 -277487000000.0 -337920000000.0 -186598000000.0 -297042000000.0 -12547900000.0 -12549700000.0 -66434900000.0 -98821900000.0 -644797000000.0 -262947000000.0 -169337000000.0 -199709000000.0 -117351000000.0 -282637000000.0 -107627000000.0 -88121700000.0 -90566900000.0 -111312000000.0 -61600900000.0 -52449700000.0 -42077600000.0 -273293000000.0 -30677000000.0 -12549500000.0 -54069900000.0 -25872800000.0 -12549600000.0 -12549700000.0 -93398000000.0 -51608700000.0 -29332400000.0 -24070900000.0 -87579500000.0 -18183500000.0 -28880400000.0 -55958500000.0 -92191600000.0 -233827000000.0 -195334000000.0 -79902400000.0 -256384000000.0 -367716000000.0 -727731000000.0 -419030000000.0 -423052000000.0 -322440000000.0 -601668000000.0 -292555000000.0 -491412000000.0 -405915000000.0 -190315000000.0 -631213000000.0 -191164000000.0 -532714000000.0 -830527000000.0 -933795000000.0 -657444000000.0 -679358000000.0 -453395000000.0 -380340000000.0 -631176000000.0 -505813000000.0 -673237000000.0 -564818000000.0 -555168000000.0 -642298000000.0 -635942000000.0 -713128000000.0 -694461000000.0 -586497000000.0 -960896000000.0 -1.01634e+12 -995794000000.0 -1.65284e+12 -1.04715e+12 -667210000000.0 -942580000000.0 -154759000000.0 -93322400000.0 -187758000000.0 -51296800000.0 -85596000000.0 -12549700000.0 -12540400000.0 -13222200000.0 -32254600000.0 -98117300000.0 -85363900000.0 -55335400000.0 -209180000000.0 -225628000000.0 -63907400000.0 -89139000000.0 -205927000000.0 -104604000000.0 -107608000000.0 -88555000000.0 -100926000000.0 -89426200000.0 -109226000000.0 -77325800000.0 -88524800000.0 -258692000000.0 -173940000000.0 -273491000000.0 -218389000000.0 -247633000000.0 -230992000000.0 -153910000000.0 -310327000000.0 -84361900000.0 -95353900000.0 -79805100000.0 -194133000000.0 -92935100000.0 -74312600000.0 -84249700000.0 -72653500000.0 -50480100000.0 -52871500000.0 -56273500000.0 -246586000000.0 -20229300000.0 -16384500000.0 -32207200000.0 -13149600000.0 -12549700000.0 -12549700000.0 -34717300000.0 -41344800000.0 -16926500000.0 -49417200000.0 -77338200000.0 -89472700000.0 -12549700000.0 -12549600000.0 -195843000000.0 -21517600000.0 -56591900000.0 -63707200000.0 -32402800000.0 -62087800000.0 -325057000000.0 -12549700000.0 -209881000000.0 -131394000000.0 -241185000000.0 -403982000000.0 -580870000000.0 -464393000000.0 -515132000000.0 -869041000000.0 -555529000000.0 -672938000000.0 -325677000000.0 -319349000000.0 -211870000000.0 -155051000000.0 -484782000000.0 -404761000000.0 -260375000000.0 -146361000000.0 -224898000000.0 -29755600000.0 -127016000000.0 -19759700000.0 -199401000000.0 -29225600000.0 -205332000000.0 -159719000000.0 -158963000000.0 -68333400000.0 -274608000000.0 -505011000000.0 -216827000000.0 -507518000000.0 -586522000000.0 -1.24489e+12 -817307000000.0 -777646000000.0 -799489000000.0 -755960000000.0 -326967000000.0 -52298300000.0 -93706400000.0 -162742000000.0 -203238000000.0 -178714000000.0 -150542000000.0 -172468000000.0 -164442000000.0 -80662500000.0 -98048200000.0 -156515000000.0 -121471000000.0 -106955000000.0 -89742600000.0 -85660800000.0 -79023100000.0 -12548800000.0 -12549700000.0 -26349100000.0 -53692900000.0 -25106600000.0 -12549700000.0 -12549700000.0 -12549700000.0 -32347500000.0 -32921000000.0 -131152000000.0 -12549700000.0 -12549700000.0 -12549700000.0 -57985300000.0 -32221400000.0 -24561500000.0 -26695300000.0 -16332700000.0 -12549700000.0 -15174700000.0 -17374000000.0 -41410300000.0 -100004000000.0 -54177600000.0 -42904200000.0 -28099100000.0 -16298000000.0 -22605800000.0 -44644200000.0 -107871000000.0 -157142000000.0 -226157000000.0 -221319000000.0 -204550000000.0 -314416000000.0 -317703000000.0 -406406000000.0 -325737000000.0 -311361000000.0 -325924000000.0 -255383000000.0 -241339000000.0 -108544000000.0 -226646000000.0 -295437000000.0 -239475000000.0 -175026000000.0 -202259000000.0 -98746800000.0 -109010000000.0 -154791000000.0 -58238200000.0 -115047000000.0 -80471800000.0 -42403300000.0 -47979200000.0 -12549600000.0 -23333000000.0 -30068500000.0 -12550400000.0 -12549700000.0 -105096000000.0 -73074000000.0 -155673000000.0 -128174000000.0 -104658000000.0 -147517000000.0 -62253900000.0 -96934100000.0 -100958000000.0 -102243000000.0 -110692000000.0 -98782200000.0 -173027000000.0 -134307000000.0 -175426000000.0 -57937100000.0 -118904000000.0 -31425900000.0 -57469200000.0 -81683800000.0 -12549700000.0 -12549700000.0 