# vtk DataFile Version 2.0
Time step 63
ASCII
DATASET UNSTRUCTURED_GRID
POINTS 5000 float
207233.0 239966.0 0
297709.0 240063.0 0
202020.0 241404.0 0
205707.0 244169.0 0
214381.0 241084.0 0
208699.0 243374.0 0
222256.0 243196.0 0
229213.0 242574.0 0
232999.0 240981.0 0
233168.0 244348.0 0
237826.0 243717.0 0
243467.0 245011.0 0
256216.0 244597.0 0
266136.0 245444.0 0
270977.0 242593.0 0
277654.0 241072.0 0
285625.0 244269.0 0
291157.0 242066.0 0
297369.0 245349.0 0
202014.0 246454.0 0
207239.0 248291.0 0
211455.0 245746.0 0
214210.0 249949.0 0
217604.0 245875.0 0
222413.0 248670.0 0
226345.0 245979.0 0
230304.0 247176.0 0
234960.0 248513.0 0
239993.0 249756.0 0
250059.0 246151.0 0
245137.0 250301.0 0
257761.0 249073.0 0
261178.0 246391.0 0
263853.0 249721.0 0
268174.0 250380.0 0
274877.0 246547.0 0
270430.0 247101.0 0
280331.0 246538.0 0
277619.0 250630.0 0
284025.0 249029.0 0
281236.0 250590.0 0
287656.0 248782.0 0
292111.0 247585.0 0
203019.0 251640.0 0
209781.0 252785.0 0
218570.0 252164.0 0
214544.0 255223.0 0
223416.0 254266.0 0
227511.0 250816.0 0
231934.0 252345.0 0
236465.0 253395.0 0
241600.0 254986.0 0
249759.0 251567.0 0
247139.0 254882.0 0
253781.0 250915.0 0
251915.0 255151.0 0
256626.0 254938.0 0
260543.0 252330.0 0
265130.0 254499.0 0
269725.0 254227.0 0
272938.0 251430.0 0
276196.0 254497.0 0
280416.0 254323.0 0
285066.0 253105.0 0
289110.0 252088.0 0
292368.0 253993.0 0
296671.0 251334.0 0
201899.0 256098.0 0
202761.0 260330.0 0
206115.0 256327.0 0
210733.0 259587.0 0
219089.0 256737.0 0
223041.0 260020.0 0
228635.0 255961.0 0
227233.0 259812.0 0
233361.0 256683.0 0
230930.0 260416.0 0
237344.0 257918.0 0
249635.0 259323.0 0
244979.0 259158.0 0
254328.0 259340.0 0
258850.0 260616.0 0
260828.0 256649.0 0
264442.0 260647.0 0
268524.0 257772.0 0
272860.0 257230.0 0
270539.0 260115.0 0
277947.0 259265.0 0
283652.0 258306.0 0
288729.0 256445.0 0
287670.0 260657.0 0
291231.0 259899.0 0
296212.0 258291.0 0
202050.0 264693.0 0
206753.0 263980.0 0
212030.0 265303.0 0
216922.0 261744.0 0
221768.0 265274.0 0
227088.0 264088.0 0
232757.0 265105.0 0
234983.0 261007.0 0
237243.0 264045.0 0
240778.0 261379.0 0
243800.0 265930.0 0
240784.0 265849.0 0
246897.0 263692.0 0
251694.0 263504.0 0
255721.0 263290.0 0
259621.0 265905.0 0
269249.0 262777.0 0
273403.0 261891.0 0
271875.0 265991.0 0
277606.0 265530.0 0
282240.0 262926.0 0
290282.0 263274.0 0
286230.0 264466.0 0
293684.0 263155.0 0
297552.0 264071.0 0
202030.0 268294.0 0
206823.0 269635.0 0
212517.0 270673.0 0
216875.0 267539.0 0
220906.0 269669.0 0
229545.0 268191.0 0
225450.0 269594.0 0
232561.0 269622.0 0
237196.0 269082.0 0
242746.0 269904.0 0
246434.0 267852.0 0
248026.0 271087.0 0
254377.0 267095.0 0
250195.0 267801.0 0
256918.0 270338.0 0
265895.0 266992.0 0
270312.0 270124.0 0
274519.0 269866.0 0
280435.0 269354.0 0
277945.0 270433.0 0
282790.0 266954.0 0
290565.0 267205.0 0
286437.0 268291.0 0
294447.0 266598.0 0
294034.0 271072.0 0
297853.0 268388.0 0
202299.0 272178.0 0
201938.0 276070.0 0
205536.0 274932.0 0
209364.0 273996.0 0
212960.0 276184.0 0
217651.0 273641.0 0
222559.0 273087.0 0
226271.0 274964.0 0
229770.0 272058.0 0
234081.0 273497.0 0
239585.0 274805.0 0
244968.0 274448.0 0
249157.0 274564.0 0
252505.0 271914.0 0
257193.0 275295.0 0
261501.0 271363.0 0
265950.0 272606.0 0
269289.0 273264.0 0
273038.0 274156.0 0
276561.0 272905.0 0
279676.0 273075.0 0
283608.0 271379.0 0
289063.0 271272.0 0
286585.0 274589.0 0
291085.0 275413.0 0
295337.0 275401.0 0
298375.0 271938.0 0
298499.0 274829.0 0
201647.0 279074.0 0
208603.0 278623.0 0
204569.0 279086.0 0
212635.0 280322.0 0
216934.0 279935.0 0
221800.0 277415.0 0
225834.0 279870.0 0
230593.0 276446.0 0
235141.0 278263.0 0
239159.0 279894.0 0
243261.0 279033.0 0
247570.0 278629.0 0
252372.0 277375.0 0
259588.0 279071.0 0
255941.0 281082.0 0
262922.0 276544.0 0
265111.0 280719.0 0
268206.0 277065.0 0
272953.0 278446.0 0
277375.0 277005.0 0
282403.0 276486.0 0
282732.0 280922.0 0
287263.0 279100.0 0
293459.0 279344.0 0
297870.0 278205.0 0
202342.0 282398.0 0
205769.0 283304.0 0
209772.0 283384.0 0
213800.0 283370.0 0
217053.0 285578.0 0
221542.0 282467.0 0
225971.0 284726.0 0
230982.0 281793.0 0
233625.0 286193.0 0
236401.0 283151.0 0
241598.0 283996.0 0
245672.0 282016.0 0
246099.0 285708.0 0
250616.0 282943.0 0
261027.0 282927.0 0
269660.0 281819.0 0
266113.0 285481.0 0
274442.0 282017.0 0
271783.0 285889.0 0
278701.0 281555.0 0
276580.0 285921.0 0
281719.0 285461.0 0
285538.0 283569.0 0
289800.0 283182.0 0
294271.0 283430.0 0
297838.0 282028.0 0
202723.0 286723.0 0
201743.0 290338.0 0
207183.0 287207.0 0
205226.0 290441.0 0
208990.0 290718.0 0
211927.0 287321.0 0
212922.0 291363.0 0
214923.0 288820.0 0
217550.0 291129.0 0
221830.0 287623.0 0
226832.0 289913.0 0
229910.0 286902.0 0
232255.0 290338.0 0
237494.0 288245.0 0
242463.0 289017.0 0
246419.0 289751.0 0
250306.0 288349.0 0
256121.0 287358.0 0
261790.0 287670.0 0
260279.0 291383.0 0
264734.0 291158.0 0
268989.0 289214.0 0
273690.0 290709.0 0
278809.0 290045.0 0
283660.0 290151.0 0
286923.0 286825.0 0
288258.0 291281.0 0
291995.0 288049.0 0
297298.0 286630.0 0
202593.0 293836.0 0
206675.0 293709.0 0
210603.0 294321.0 0
214767.0 294930.0 0
218801.0 296058.0 0
222505.0 292768.0 0
229473.0 293063.0 0
226524.0 294615.0 0
231954.0 295893.0 0
235551.0 293098.0 0
239735.0 292967.0 0
244455.0 293920.0 0
241054.0 296632.0 0
249159.0 293098.0 0
252933.0 291915.0 0
252017.0 296697.0 0
256761.0 294546.0 0
261833.0 295210.0 0
269286.0 293521.0 0
265526.0 295651.0 0
273026.0 296331.0 0
277045.0 294649.0 0
280955.0 293691.0 0
282828.0 295761.0 0
285437.0 294453.0 0
289295.0 296266.0 0
292061.0 293323.0 0
296475.0 292193.0 0
203003.0 298365.0 0
207948.0 297810.0 0
212644.0 298377.0 0
216334.0 298549.0 0
223057.0 297564.0 0
219686.0 300290.0 0
223734.0 301856.0 0
227729.0 298684.0 0
232045.0 300826.0 0
236972.0 298105.0 0
241173.0 299745.0 0
244107.0 298588.0 0
247856.0 297432.0 0
246640.0 300796.0 0
250173.0 301147.0 0
259640.0 298768.0 0
255229.0 300990.0 0
264063.0 300258.0 0
268694.0 298239.0 0
268156.0 301671.0 0
272002.0 300993.0 0
275698.0 300056.0 0
279843.0 298608.0 0
285351.0 299502.0 0
290675.0 301204.0 0
293501.0 297079.0 0
297445.0 297169.0 0
202585.0 303238.0 0
206317.0 302334.0 0
207638.0 306653.0 0
210637.0 302470.0 0
212216.0 306798.0 0
215747.0 303014.0 0
220434.0 304764.0 0
227919.0 303485.0 0
224626.0 305744.0 0
231683.0 305989.0 0
235930.0 303458.0 0
239962.0 302787.0 0
243509.0 302161.0 0
242404.0 306159.0 0
246846.0 304886.0 0
251913.0 306063.0 0
259933.0 303064.0 0
256911.0 306391.0 0
263075.0 304791.0 0
266552.0 304664.0 0
270502.0 304685.0 0
274900.0 304455.0 0
277953.0 302516.0 0
278883.0 306096.0 0
281866.0 303238.0 0
286556.0 305107.0 0
292046.0 305833.0 0
296286.0 302174.0 0
202768.0 307434.0 0
201521.0 310893.0 0
205844.0 311117.0 0
209804.0 309802.0 0
213140.0 310219.0 0
216974.0 308197.0 0
222197.0 309176.0 0
227897.0 308715.0 0
233021.0 311186.0 0
235449.0 307658.0 0
238850.0 306974.0 0
237233.0 310526.0 0
244683.0 309391.0 0
240726.0 310627.0 0
248433.0 309200.0 0
254759.0 309930.0 0
257902.0 310863.0 0
260749.0 307823.0 0
265059.0 308666.0 0
261240.0 311777.0 0
268621.0 307749.0 0
269303.0 311780.0 0
272296.0 308054.0 0
273627.0 311081.0 0
276133.0 308841.0 0
280223.0 309995.0 0
282490.0 307041.0 0
284420.0 310200.0 0
288715.0 308868.0 0
292597.0 310094.0 0
297036.0 307493.0 0
201973.0 313764.0 0
204834.0 314872.0 0
207676.0 314355.0 0
210825.0 313556.0 0
215583.0 312861.0 0
219172.0 312091.0 0
214629.0 316448.0 0
219012.0 316364.0 0
222430.0 314323.0 0
225424.0 312283.0 0
229497.0 313701.0 0
226032.0 316323.0 0
233613.0 315769.0 0
237375.0 314330.0 0
243525.0 313075.0 0
241008.0 314465.0 0
244375.0 316592.0 0
246899.0 312866.0 0
248773.0 316067.0 0
251366.0 312053.0 0
252823.0 316056.0 0
255448.0 313552.0 0
258734.0 314666.0 0
264815.0 312690.0 0
262118.0 315978.0 0
266403.0 316093.0 0
270417.0 316750.0 0
273138.0 314113.0 0
277056.0 313257.0 0
281205.0 313873.0 0
284465.0 313890.0 0
288494.0 313074.0 0
286444.0 316720.0 0
292534.0 314717.0 0
296728.0 312632.0 0
197272.0 322901.0 0
202709.0 317867.0 0
202121.0 322128.0 0
207270.0 317388.0 0
205375.0 320659.0 0
208666.0 321664.0 0
211046.0 318279.0 0
214165.0 320523.0 0
217081.0 319619.0 0
222844.0 318436.0 0
220273.0 320936.0 0
226913.0 320599.0 0
230124.0 317917.0 0
233200.0 319698.0 0
230761.0 322122.0 0
236520.0 318833.0 0
240332.0 317871.0 0
242919.0 320867.0 0
246890.0 320009.0 0
250746.0 319289.0 0
253874.0 319122.0 0
252531.0 322068.0 0
256371.0 317257.0 0
259538.0 318775.0 0
256667.0 322022.0 0
263639.0 320283.0 0
267807.0 319627.0 0
274558.0 317766.0 0
271328.0 321370.0 0
278432.0 317484.0 0
275859.0 321528.0 0
280013.0 322125.0 0
282741.0 317990.0 0
284086.0 321782.0 0
290196.0 318276.0 0
286721.0 320509.0 0
293491.0 317753.0 0
293832.0 321018.0 0
296930.0 317641.0 0
297696.0 322075.0 0
202264.0 325832.0 0
205415.0 324080.0 0
209108.0 325122.0 0
206286.0 327235.0 0
212129.0 322629.0 0
212893.0 325978.0 0
216787.0 323995.0 0
223639.0 322788.0 0
220770.0 324345.0 0
223751.0 326247.0 0
227744.0 325106.0 0
234586.0 323070.0 0
231367.0 324996.0 0
233636.0 326609.0 0
238884.0 322602.0 0
236893.0 326698.0 0
242371.0 324393.0 0
240481.0 326979.0 0
249538.0 322865.0 0
245767.0 324162.0 0
249033.0 326246.0 0
253300.0 326225.0 0
257698.0 327137.0 0
260743.0 323582.0 0
264679.0 325015.0 0
267153.0 322805.0 0
268865.0 325929.0 0
273433.0 325261.0 0
280368.0 326453.0 0
277335.0 325559.0 0
283499.0 325321.0 0
290102.0 322498.0 0
286895.0 324156.0 0
289873.0 326306.0 0
293718.0 325132.0 0
297752.0 325568.0 0
203089.0 330008.0 0
207751.0 331014.0 0
209869.0 328215.0 0
212804.0 329294.0 0
211615.0 332231.0 0
216686.0 328976.0 0
220310.0 327543.0 0
222720.0 329884.0 0
226343.0 329316.0 0
230735.0 329120.0 0
234810.0 330369.0 0
238483.0 330526.0 0
243946.0 327358.0 0
242219.0 330668.0 0
246671.0 327886.0 0
245927.0 330777.0 0
250153.0 330561.0 0
254880.0 330882.0 0
259014.0 330777.0 0
261834.0 327974.0 0
262923.0 332403.0 0
265609.0 328712.0 0
268600.0 329885.0 0
271747.0 329112.0 0
274026.0 331952.0 0
275723.0 328874.0 0
279316.0 329662.0 0
276896.0 332566.0 0
282810.0 328310.0 0
283163.0 331586.0 0
286499.0 328348.0 0
295004.0 328954.0 0
291126.0 329806.0 0
294845.0 332486.0 0
298394.0 328422.0 0
297909.0 331250.0 0
202005.0 333773.0 0
202880.0 337482.0 0
205873.0 334405.0 0
210209.0 335767.0 0
214241.0 336786.0 0
215616.0 333282.0 0
218441.0 336267.0 0
220208.0 332723.0 0
222705.0 336598.0 0
224585.0 333275.0 0
228647.0 333211.0 0
226500.0 335836.0 0
232463.0 333460.0 0
230195.0 336858.0 0
234339.0 337201.0 0
236440.0 334175.0 0
244327.0 333925.0 0
240368.0 334776.0 0
247694.0 334552.0 0
251909.0 334485.0 0
253356.0 337394.0 0
257273.0 333366.0 0
255185.0 334973.0 0
259723.0 334657.0 0
262378.0 336832.0 0
266883.0 333001.0 0
270643.0 332894.0 0
265766.0 336624.0 0
269880.0 336585.0 0
273902.0 335562.0 0
280074.0 333911.0 0
277216.0 335060.0 0
279563.0 337085.0 0
276740.0 337685.0 0
283694.0 336257.0 0
287141.0 332695.0 0
287769.0 337598.0 0
291450.0 334426.0 0
295175.0 336077.0 0
297992.0 334209.0 0
297920.0 337380.0 0
302750.0 336634.0 0
202251.0 341160.0 0
207340.0 338607.0 0
205456.0 341320.0 0
211778.0 340729.0 0
216591.0 339731.0 0
219485.0 342396.0 0
220183.0 338880.0 0
222304.0 340684.0 0
226551.0 339995.0 0
232032.0 340271.0 0
238456.0 338161.0 0
235999.0 340664.0 0
243871.0 338695.0 0
240077.0 341464.0 0
249386.0 338239.0 0
247493.0 341942.0 0
252678.0 341139.0 0
257502.0 338385.0 0
261525.0 340322.0 0
264497.0 339903.0 0
268106.0 340174.0 0
273086.0 340663.0 0
277831.0 340815.0 0
281527.0 339695.0 0
284989.0 341351.0 0
288942.0 341139.0 0
292561.0 338963.0 0
296900.0 340857.0 0
304194.0 342404.0 0
203070.0 345010.0 0
208299.0 343969.0 0
212424.0 344551.0 0
213978.0 346665.0 0
211018.0 347366.0 0
215739.0 343679.0 0
216997.0 346686.0 0
223121.0 343617.0 0
220242.0 346117.0 0
223814.0 347819.0 0
226351.0 345586.0 0
230101.0 343355.0 0
234160.0 344368.0 0
230429.0 347047.0 0
237979.0 343784.0 0
237097.0 347274.0 0
240180.0 345997.0 0
243597.0 344010.0 0
246946.0 345506.0 0
249902.0 344198.0 0
253243.0 346087.0 0
257332.0 343782.0 0
261932.0 344159.0 0
265438.0 343450.0 0
269836.0 344710.0 0
266091.0 347725.0 0
272447.0 346920.0 0
275523.0 345161.0 0
280434.0 344684.0 0
284816.0 345362.0 0
288247.0 345330.0 0
292132.0 342987.0 0
294962.0 344602.0 0
292268.0 347287.0 0
298163.0 344470.0 0
202954.0 349199.0 0
201534.0 352094.0 0
207004.0 348063.0 0
208283.0 351191.0 0
204999.0 352236.0 0
212081.0 350457.0 0
215628.0 349520.0 0
220036.0 350683.0 0
224873.0 351518.0 0
228161.0 349592.0 0
228105.0 352997.0 0
233330.0 348646.0 0
231303.0 351888.0 0
236137.0 350586.0 0
239762.0 350436.0 0
242788.0 348033.0 0
243625.0 352115.0 0
245808.0 348299.0 0
249803.0 348220.0 0
247748.0 351646.0 0
254617.0 349462.0 0
251913.0 351772.0 0
258320.0 348521.0 0
259048.0 352045.0 0
255898.0 352670.0 0
262254.0 348155.0 0
262767.0 351583.0 0
270069.0 349170.0 0
266833.0 352403.0 0
274201.0 349950.0 0
278082.0 348931.0 0
276162.0 352889.0 0
280141.0 352919.0 0
282962.0 349089.0 0
287837.0 350626.0 0
293035.0 352094.0 0
296753.0 348202.0 0
297791.0 351918.0 0
197681.0 354565.0 0
202486.0 354714.0 0
202378.0 357887.0 0
206564.0 355707.0 0
209821.0 354200.0 0
213126.0 353473.0 0
212361.0 356710.0 0
216184.0 353460.0 0
215969.0 356581.0 0
219369.0 354747.0 0
218583.0 357160.0 0
222733.0 355171.0 0
226542.0 355767.0 0
234664.0 353671.0 0
230054.0 355383.0 0
232887.0 356314.0 0
238370.0 354420.0 0
235587.0 356968.0 0
241669.0 354784.0 0
240339.0 357154.0 0
243690.0 358015.0 0
249795.0 354565.0 0
246248.0 355589.0 0
249242.0 358155.0 0
253207.0 355578.0 0
257205.0 355983.0 0
261458.0 354994.0 0
264516.0 355599.0 0
264127.0 358067.0 0
266916.0 356391.0 0
269568.0 356509.0 0
271184.0 353384.0 0
273915.0 354348.0 0
272716.0 357302.0 0
276220.0 356782.0 0
279569.0 357309.0 0
284366.0 354393.0 0
282864.0 357478.0 0
288063.0 355891.0 0
292300.0 356289.0 0
297326.0 355178.0 0
202284.0 361014.0 0
205490.0 358516.0 0
207864.0 359974.0 0
205345.0 361172.0 0
208901.0 362021.0 0
209420.0 358192.0 0
211218.0 360545.0 0
214138.0 363193.0 0
214547.0 359892.0 0
218246.0 359764.0 0
217418.0 362585.0 0
221930.0 358798.0 0
220541.0 362186.0 0
224167.0 362386.0 0
226069.0 359308.0 0
228597.0 361695.0 0
229734.0 358773.0 0
233112.0 359744.0 0
231570.0 363165.0 0
237836.0 358563.0 0
236322.0 361709.0 0
240925.0 360401.0 0
243995.0 363229.0 0
246277.0 360353.0 0
249060.0 361775.0 0
252546.0 359170.0 0
251884.0 361736.0 0
255784.0 359648.0 0
258168.0 361863.0 0
260541.0 359184.0 0
261045.0 362925.0 0
264669.0 361935.0 0
266863.0 359109.0 0
267935.0 362269.0 0
269777.0 359735.0 0
273205.0 360926.0 0
270671.0 363080.0 0
276897.0 360761.0 0
281287.0 361572.0 0
285986.0 359620.0 0
289679.0 359572.0 0
294720.0 359385.0 0
291984.0 360463.0 0
294274.0 363177.0 0
297963.0 358364.0 0
297986.0 361456.0 0
202321.0 364107.0 0
202656.0 367319.0 0
206515.0 363918.0 0
205897.0 367066.0 0
211108.0 363490.0 0
209847.0 366551.0 0
214207.0 366658.0 0
217734.0 365632.0 0
220656.0 364701.0 0
223388.0 366476.0 0
227208.0 364527.0 0
234608.0 364526.0 0
230383.0 367112.0 0
233948.0 367220.0 0
239397.0 363562.0 0
236877.0 365820.0 0
239825.0 366610.0 0
242568.0 366805.0 0
247791.0 365334.0 0
245591.0 368530.0 0
251510.0 365079.0 0
254357.0 368260.0 0
254991.0 363771.0 0
258562.0 364712.0 0
257301.0 366906.0 0
261967.0 365449.0 0
260069.0 367289.0 0
268561.0 365036.0 0
265142.0 366141.0 0
273063.0 364849.0 0
270767.0 367950.0 0
276274.0 364782.0 0
279537.0 364952.0 0
283436.0 365438.0 0
280352.0 367844.0 0
284935.0 368376.0 0
286597.0 363557.0 0
290517.0 363549.0 0
287536.0 367277.0 0
291178.0 367374.0 0
294486.0 366514.0 0
297547.0 364347.0 0
297671.0 367489.0 0
303051.0 367530.0 0
196522.0 368487.0 0
202478.0 370518.0 0
206423.0 370238.0 0
204789.0 372322.0 0
209718.0 370357.0 0
214574.0 370638.0 0
219197.0 368437.0 0
218738.0 371613.0 0
220863.0 373394.0 0
223042.0 370569.0 0
227010.0 368918.0 0
228198.0 372086.0 0
231204.0 371163.0 0
233693.0 370193.0 0
237408.0 369860.0 0
241241.0 369778.0 0
243441.0 371425.0 0
247491.0 371418.0 0
250659.0 369148.0 0
251671.0 373390.0 0
258073.0 370639.0 0
255084.0 372885.0 0
262951.0 369907.0 0
267525.0 368801.0 0
266225.0 371896.0 0
269698.0 372444.0 0
273895.0 369547.0 0
273275.0 373494.0 0
276520.0 368243.0 0
276685.0 372903.0 0
278328.0 370865.0 0
282497.0 370070.0 0
280770.0 373030.0 0
284553.0 372334.0 0
287269.0 371056.0 0
294585.0 369312.0 0
290414.0 370588.0 0
293677.0 371033.0 0
297422.0 373172.0 0
297574.0 370426.0 0
196660.0 380421.0 0
201284.0 376766.0 0
199182.0 378858.0 0
197114.0 373383.0 0
201770.0 373265.0 0
204202.0 379441.0 0
204301.0 375438.0 0
206034.0 378197.0 0
206744.0 374343.0 0
208501.0 376939.0 0
210517.0 374124.0 0
213128.0 376566.0 0
216412.0 375042.0 0
219574.0 377028.0 0
223032.0 376155.0 0
225259.0 373782.0 0
229700.0 375272.0 0
227678.0 377095.0 0
232804.0 374705.0 0
234900.0 378312.0 0
236227.0 374391.0 0
237682.0 378036.0 0
240438.0 374012.0 0
244300.0 374848.0 0
240357.0 377416.0 0
243288.0 378368.0 0
247942.0 375626.0 0
250505.0 378108.0 0
253383.0 377250.0 0
256740.0 376132.0 0
264050.0 374983.0 0
260522.0 374260.0 0
260911.0 378137.0 0
263581.0 378631.0 0
267625.0 377107.0 0
271194.0 376676.0 0
272734.0 378703.0 0
278010.0 375375.0 0
275174.0 376587.0 0
282149.0 375985.0 0
279551.0 378329.0 0
284151.0 378763.0 0
285238.0 375280.0 0
288125.0 375410.0 0
290927.0 373394.0 0
292023.0 376193.0 0
293967.0 373119.0 0
288758.0 378481.0 0
298662.0 377147.0 0
295373.0 376043.0 0
297809.0 379320.0 0
301230.0 378331.0 0
303121.0 380365.0 0
305806.0 381286.0 0
189755.0 383897.0 0
187927.0 385726.0 0
193779.0 381123.0 0
191577.0 382580.0 0
194114.0 384081.0 0
200642.0 381499.0 0
196920.0 383790.0 0
199893.0 384093.0 0
202415.0 380910.0 0
202767.0 384434.0 0
204942.0 382739.0 0
209029.0 379850.0 0
208029.0 383237.0 0
212127.0 379594.0 0
213674.0 382160.0 0
215667.0 379250.0 0
217884.0 380580.0 0
215341.0 384700.0 0
218055.0 383618.0 0
221978.0 381014.0 0
224966.0 379590.0 0
229965.0 379616.0 0
227709.0 382536.0 0
232367.0 378135.0 0
232971.0 381857.0 0
235306.0 380635.0 0
235810.0 383772.0 0
238191.0 381721.0 0
241549.0 381765.0 0
244803.0 382847.0 0
246327.0 379460.0 0
249177.0 380939.0 0
247141.0 382618.0 0
252257.0 380995.0 0
254792.0 380175.0 0
257832.0 379828.0 0
260757.0 382538.0 0
263971.0 381803.0 0
267471.0 381707.0 0
270909.0 380953.0 0
274123.0 382108.0 0
276313.0 379565.0 0
277725.0 383047.0 0
281310.0 381541.0 0
284212.0 383042.0 0
286238.0 379651.0 0
288134.0 381750.0 0
286598.0 384254.0 0
291791.0 380056.0 0
291665.0 383572.0 0
295071.0 379785.0 0
297362.0 383142.0 0
299660.0 381277.0 0
302343.0 383579.0 0
300430.0 385677.0 0
307927.0 382254.0 0
304979.0 384152.0 0
307364.0 384939.0 0
309887.0 384231.0 0
312290.0 385024.0 0
314173.0 386419.0 0
181126.0 389066.0 0
177665.0 391176.0 0
185249.0 386293.0 0
183503.0 388221.0 0
184747.0 390542.0 0
190982.0 386783.0 0
187700.0 388779.0 0
190039.0 390160.0 0
192959.0 386156.0 0
192906.0 390836.0 0
197008.0 387188.0 0
201183.0 388267.0 0
199463.0 387062.0 0
195041.0 388754.0 0
198023.0 390726.0 0
202846.0 386874.0 0
204822.0 387255.0 0
204250.0 390173.0 0
207200.0 386913.0 0
210986.0 384564.0 0
208657.0 388998.0 0
212405.0 386583.0 0
211038.0 389284.0 0
214323.0 388673.0 0
216540.0 387575.0 0
221605.0 385492.0 0
224924.0 384088.0 0
224909.0 388294.0 0
226804.0 386564.0 0
229415.0 387801.0 0
231267.0 384644.0 0
234656.0 386777.0 0
232205.0 389116.0 0
237502.0 386458.0 0
238470.0 384685.0 0
239409.0 387829.0 0
241591.0 385681.0 0
244220.0 388299.0 0
249501.0 384557.0 0
246169.0 385477.0 0
249119.0 388319.0 0
253618.0 384656.0 0
253164.0 389029.0 0
257069.0 384262.0 0
259524.0 387334.0 0
256811.0 389183.0 0
263359.0 386222.0 0
266418.0 385715.0 0
269420.0 384632.0 0
268182.0 387729.0 0
272136.0 385226.0 0
271549.0 389213.0 0
275760.0 385803.0 0
278083.0 386952.0 0
277520.0 389350.0 0
280739.0 385436.0 0
282567.0 388454.0 0
285968.0 387501.0 0
288570.0 389264.0 0
289612.0 385746.0 0
291879.0 387296.0 0
294955.0 384965.0 0
294477.0 387522.0 0
294048.0 390512.0 0
297972.0 387969.0 0
296858.0 390045.0 0
301897.0 388770.0 0
304201.0 386382.0 0
306461.0 386847.0 0
307991.0 389675.0 0
304749.0 390117.0 0
310318.0 387502.0 0
313278.0 389483.0 0
310650.0 391557.0 0
316251.0 387465.0 0
318019.0 388673.0 0
319834.0 390688.0 0
169563.0 396516.0 0
173684.0 393625.0 0
172242.0 395679.0 0
175871.0 392438.0 0
179624.0 390497.0 0
176190.0 394438.0 0
178637.0 393161.0 0
179170.0 394642.0 0
176847.0 396374.0 0
185636.0 392967.0 0
181662.0 392330.0 0
182019.0 395259.0 0
188557.0 393087.0 0
189938.0 394949.0 0
193648.0 393809.0 0
196861.0 393320.0 0
198720.0 395872.0 0
201063.0 390952.0 0
201496.0 393954.0 0
204163.0 395106.0 0
205634.0 392129.0 0
208250.0 392159.0 0
210505.0 394520.0 0
213359.0 392029.0 0
216783.0 392520.0 0
219820.0 389553.0 0
221451.0 393536.0 0
225072.0 391828.0 0
228538.0 390993.0 0
232065.0 392108.0 0
234597.0 394410.0 0
235616.0 390318.0 0
238574.0 390868.0 0
241787.0 390318.0 0
240938.0 393797.0 0
243227.0 392878.0 0
246966.0 392160.0 0
251105.0 392830.0 0
257924.0 392523.0 0
254646.0 392971.0 0
261234.0 391369.0 0
264150.0 389974.0 0
266699.0 390260.0 0
269215.0 392333.0 0
264995.0 393157.0 0
267137.0 394641.0 0
274916.0 389696.0 0
275640.0 393226.0 0
278636.0 393237.0 0
279531.0 390317.0 0
283846.0 392029.0 0
281401.0 394389.0 0
284968.0 394860.0 0
287012.0 391783.0 0
288275.0 394440.0 0
291257.0 390480.0 0
290841.0 393601.0 0
293311.0 395220.0 0
297850.0 392962.0 0
295204.0 393455.0 0
300213.0 391432.0 0
301962.0 393711.0 0
298608.0 395493.0 0
307958.0 393182.0 0
304335.0 392990.0 0
306287.0 395115.0 0
309919.0 394799.0 0
311671.0 393633.0 0
313940.0 394390.0 0
312113.0 395836.0 0
315241.0 391499.0 0
318848.0 396159.0 0
318140.0 393285.0 0
322373.0 391620.0 0
324215.0 393306.0 0
321862.0 395051.0 0
326490.0 394640.0 0
328776.0 396468.0 0
163328.0 400633.0 0
167662.0 398268.0 0
165397.0 399486.0 0
169584.0 400015.0 0
173257.0 397985.0 0
172046.0 401332.0 0
177529.0 399236.0 0
180956.0 398254.0 0
184667.0 398927.0 0
185175.0 395870.0 0
188809.0 396973.0 0
186806.0 398149.0 0
188316.0 400614.0 0
193357.0 396595.0 0
191510.0 399138.0 0
196116.0 397624.0 0
196277.0 400439.0 0
200465.0 398574.0 0
203539.0 398495.0 0
206895.0 395558.0 0
206714.0 398611.0 0
209606.0 398379.0 0
212735.0 399237.0 0
213991.0 396514.0 0
215034.0 400123.0 0
216703.0 396185.0 0
217049.0 399244.0 0
219832.0 396450.0 0
219607.0 399088.0 0
223251.0 397362.0 0
226427.0 396067.0 0
229709.0 394942.0 0
227538.0 399124.0 0
231949.0 397279.0 0
235372.0 397927.0 0
237661.0 394591.0 0
238550.0 397900.0 0
241898.0 397012.0 0
245045.0 396431.0 0
248601.0 396598.0 0
248683.0 399466.0 0
254777.0 395617.0 0
251401.0 395811.0 0
252592.0 398590.0 0
256071.0 399379.0 0
258719.0 396233.0 0
262433.0 394850.0 0
260757.0 399066.0 0
263356.0 398598.0 0
265375.0 396799.0 0
267854.0 399571.0 0
269734.0 397149.0 0
272582.0 394999.0 0
273501.0 399712.0 0
276337.0 397527.0 0
278408.0 396241.0 0
281184.0 397793.0 0
284563.0 397646.0 0
288207.0 398075.0 0
290372.0 400934.0 0
291023.0 397272.0 0
293424.0 401166.0 0
297667.0 398039.0 0
294626.0 398319.0 0
301632.0 396272.0 0
300723.0 399576.0 0
304050.0 400506.0 0
305086.0 397757.0 0
308616.0 399297.0 0
309271.0 396841.0 0
311614.0 397753.0 0
313962.0 399255.0 0
315356.0 396566.0 0
319001.0 399116.0 0
316743.0 400701.0 0
322502.0 397942.0 0
321731.0 400992.0 0
324868.0 397784.0 0
326302.0 400573.0 0
328892.0 399285.0 0
331755.0 396920.0 0
332066.0 401666.0 0
333675.0 399441.0 0
336604.0 399923.0 0
338421.0 401319.0 0
156471.0 406195.0 0
158507.0 404158.0 0
160096.0 406804.0 0
161255.0 402710.0 0
163490.0 404930.0 0
167192.0 401933.0 0
166752.0 404231.0 0
167855.0 406594.0 0
170443.0 403452.0 0
170584.0 405716.0 0
172460.0 406348.0 0
174748.0 405146.0 0
176166.0 402193.0 0
180610.0 403353.0 0
178725.0 405375.0 0
182789.0 401173.0 0
183284.0 405798.0 0
186122.0 402079.0 0
190034.0 403019.0 0
186227.0 405401.0 0
189698.0 406184.0 0
193362.0 401551.0 0
193853.0 404310.0 0
198816.0 401781.0 0
196720.0 405226.0 0
204189.0 401454.0 0
201323.0 403154.0 0
202708.0 405279.0 0
206536.0 403336.0 0
209194.0 401977.0 0
211916.0 403144.0 0
214954.0 403421.0 0
217647.0 401476.0 0
217339.0 405222.0 0
220159.0 401479.0 0
220771.0 404947.0 0
222976.0 400218.0 0
224048.0 404502.0 0
225607.0 401749.0 0
228528.0 403929.0 0
230235.0 400549.0 0
234088.0 401903.0 0
237841.0 401090.0 0
239690.0 403965.0 0
242079.0 401157.0 0
244611.0 404647.0 0
245698.0 400564.0 0
248136.0 404527.0 0
250967.0 402258.0 0
254837.0 404639.0 0
258526.0 401463.0 0
259162.0 405299.0 0
261458.0 402883.0 0
265086.0 402290.0 0
270961.0 402320.0 0
276431.0 403077.0 0
278727.0 400317.0 0
281159.0 402803.0 0
283538.0 401379.0 0
280114.0 404399.0 0
286657.0 401612.0 0
284588.0 404893.0 0
287562.0 405985.0 0
288873.0 403201.0 0
290868.0 405505.0 0
293398.0 404401.0 0
298808.0 401623.0 0
296800.0 402737.0 0
300576.0 403885.0 0
303082.0 403228.0 0
304703.0 405441.0 0
306475.0 402311.0 0
308176.0 405471.0 0
309400.0 401465.0 0
312385.0 401648.0 0
311702.0 405269.0 0
314533.0 404277.0 0
317183.0 403784.0 0
319886.0 402816.0 0
321873.0 405744.0 0
324827.0 403542.0 0
329165.0 402687.0 0
327307.0 405913.0 0
330412.0 406639.0 0
332829.0 404938.0 0
336104.0 403048.0 0
337962.0 405547.0 0
340390.0 403382.0 0
342885.0 405083.0 0
346189.0 405924.0 0
147206.0 410434.0 0
145343.0 411074.0 0
149203.0 409560.0 0
151332.0 408356.0 0
153650.0 407207.0 0
153824.0 411479.0 0
157148.0 410229.0 0
162706.0 408022.0 0
165220.0 409001.0 0
160534.0 410060.0 0
169358.0 408563.0 0
167496.0 411190.0 0
171774.0 408713.0 0
175382.0 408019.0 0
173922.0 411423.0 0
178445.0 407961.0 0
177684.0 411498.0 0
181718.0 408179.0 0
181208.0 411475.0 0
185322.0 409022.0 0
188199.0 409431.0 0
192323.0 408215.0 0
195231.0 408377.0 0
199193.0 406171.0 0
197570.0 409441.0 0
199886.0 408717.0 0
202105.0 407446.0 0
204395.0 409624.0 0
205291.0 406599.0 0
208262.0 406659.0 0
207453.0 410260.0 0
210495.0 410083.0 0
210868.0 406514.0 0
212666.0 409986.0 0
213556.0 407124.0 0
216333.0 409119.0 0
219970.0 409467.0 0
223435.0 410288.0 0
223100.0 408174.0 0
226499.0 407527.0 0
229710.0 408520.0 0
231633.0 405372.0 0
231882.0 409523.0 0
234408.0 407628.0 0
236661.0 405184.0 0
239023.0 408104.0 0
241944.0 406395.0 0
243389.0 409133.0 0
241056.0 410130.0 0
245735.0 408098.0 0
248800.0 409030.0 0
250745.0 406756.0 0
252712.0 408939.0 0
256488.0 409697.0 0
260379.0 408514.0 0
263198.0 406379.0 0
265681.0 408321.0 0
267930.0 405161.0 0
268720.0 410841.0 0
270733.0 407357.0 0
273405.0 405397.0 0
272741.0 410202.0 0
275431.0 408743.0 0
278270.0 406833.0 0
280511.0 410363.0 0
282294.0 406376.0 0
283822.0 410250.0 0
285880.0 408697.0 0
288791.0 409513.0 0
291426.0 408263.0 0
296191.0 406453.0 0
294433.0 409738.0 0
299685.0 406987.0 0
299697.0 410388.0 0
302951.0 407656.0 0
304865.0 409035.0 0
307977.0 409256.0 0
313183.0 408435.0 0
311142.0 410516.0 0
319225.0 407576.0 0
316122.0 408458.0 0
323805.0 408016.0 0
321162.0 410867.0 0
324496.0 410787.0 0
327082.0 409235.0 0
329626.0 410950.0 0
331670.0 409504.0 0
335173.0 406993.0 0
339635.0 408065.0 0
334953.0 409835.0 0
338561.0 410367.0 0
343392.0 408014.0 0
343726.0 410954.0 0
347697.0 408101.0 0
349947.0 409370.0 0
352435.0 410750.0 0
355185.0 411193.0 0
141391.0 413708.0 0
143572.0 412925.0 0
139734.0 415567.0 0
142514.0 416462.0 0
145757.0 414328.0 0
148632.0 413979.0 0
145489.0 416852.0 0
151285.0 412634.0 0
154394.0 414604.0 0
157180.0 413468.0 0
157749.0 416766.0 0
159935.0 414490.0 0
162051.0 412956.0 0
164940.0 413394.0 0
162991.0 416883.0 0
170318.0 412476.0 0
166961.0 416237.0 0
170256.0 416226.0 0
173847.0 415151.0 0
177641.0 414288.0 0
184571.0 411543.0 0
181171.0 414506.0 0
184396.0 414918.0 0
188536.0 412017.0 0
187776.0 415115.0 0
191599.0 411438.0 0
194526.0 412133.0 0
191506.0 413821.0 0
194010.0 415060.0 0
197747.0 412702.0 0
201552.0 412005.0 0
200787.0 415548.0 0
204425.0 414007.0 0
207581.0 414261.0 0
211101.0 413814.0 0
214336.0 412546.0 0
214322.0 415713.0 0
217336.0 413375.0 0
220511.0 413035.0 0
223989.0 412668.0 0
226545.0 411225.0 0
229277.0 411828.0 0
229451.0 415365.0 0
227382.0 414083.0 0
232260.0 412499.0 0
232190.0 415894.0 0
236286.0 411229.0 0
239475.0 413304.0 0
235463.0 415397.0 0
243101.0 412993.0 0
246568.0 412526.0 0
250040.0 414392.0 0
251398.0 411306.0 0
254134.0 412186.0 0
256435.0 414049.0 0
259148.0 412787.0 0
262893.0 411067.0 0
265722.0 413551.0 0
270871.0 414129.0 0
274820.0 413744.0 0
277973.0 412641.0 0
279734.0 415485.0 0
282452.0 414705.0 0
288948.0 412967.0 0
285470.0 413440.0 0
287932.0 416411.0 0
291919.0 411503.0 0
292077.0 415576.0 0
297338.0 411335.0 0
294463.0 413512.0 0
297776.0 415073.0 0
302522.0 411239.0 0
300887.0 414113.0 0
305345.0 412411.0 0
304513.0 415348.0 0
308176.0 413110.0 0
313999.0 413058.0 0
309694.0 415677.0 0
311544.0 413443.0 0
315739.0 411593.0 0
317989.0 412231.0 0
315205.0 416101.0 0
318266.0 415868.0 0
321195.0 414391.0 0
323773.0 416061.0 0
325881.0 413368.0 0
329158.0 413871.0 0
328726.0 416940.0 0
332503.0 414349.0 0
334876.0 412625.0 0
337473.0 414257.0 0
340535.0 412988.0 0
342140.0 416134.0 0
346229.0 412632.0 0
348996.0 412588.0 0
345736.0 416146.0 0
348934.0 416243.0 0
351091.0 414958.0 0
353245.0 413240.0 0
356597.0 412681.0 0
355467.0 415609.0 0
358348.0 414698.0 0
360934.0 415786.0 0
128019.0 422386.0 0
132865.0 420286.0 0
130624.0 421666.0 0
134948.0 417838.0 0
137935.0 417512.0 0
135776.0 420926.0 0
139876.0 419530.0 0
142958.0 418181.0 0
142014.0 420695.0 0
147350.0 418992.0 0
144802.0 420496.0 0
148703.0 421415.0 0
149970.0 417322.0 0
153249.0 417459.0 0
151294.0 421204.0 0
157582.0 419616.0 0
154729.0 420104.0 0
158184.0 422129.0 0
161042.0 418255.0 0
161609.0 421446.0 0
165694.0 418572.0 0
164755.0 421125.0 0
168024.0 421665.0 0
170624.0 419632.0 0
173996.0 420552.0 0
175616.0 417564.0 0
179255.0 417206.0 0
179065.0 420493.0 0
182997.0 418379.0 0
186138.0 419012.0 0
189405.0 420172.0 0
190861.0 416715.0 0
193454.0 418095.0 0
192190.0 420708.0 0
194963.0 420505.0 0
197293.0 416693.0 0
199575.0 419846.0 0
202840.0 417408.0 0
202724.0 421110.0 0
205639.0 418007.0 0
206040.0 421089.0 0
208818.0 417835.0 0
212068.0 418153.0 0
215272.0 419639.0 0
217039.0 416706.0 0
218422.0 420609.0 0
220866.0 417490.0 0
224848.0 416020.0 0
227353.0 418911.0 0
231345.0 419169.0 0
234628.0 418678.0 0
239050.0 417533.0 0
242929.0 416504.0 0
242490.0 420216.0 0
246576.0 417832.0 0
253429.0 414719.0 0
250807.0 418234.0 0
254435.0 417449.0 0
257976.0 417179.0 0
262072.0 415907.0 0
262033.0 420118.0 0
267769.0 416314.0 0
265362.0 417947.0 0
269500.0 419696.0 0
271656.0 417261.0 0
274535.0 417676.0 0
276606.0 420079.0 0
277686.0 417317.0 0
278358.0 420691.0 0
280653.0 419282.0 0
286028.0 417212.0 0
283524.0 417886.0 0
289879.0 418287.0 0
293298.0 419446.0 0
296779.0 418287.0 0
300277.0 420067.0 0
301810.0 417542.0 0
303793.0 421346.0 0
304258.0 418823.0 0
307096.0 417630.0 0
306930.0 421350.0 0
309820.0 419403.0 0
312770.0 417903.0 0
316574.0 418894.0 0
315816.0 420407.0 0
318665.0 421491.0 0
322147.0 418839.0 0
319539.0 418883.0 0
323405.0 421339.0 0
326028.0 417767.0 0
326046.0 420659.0 0
329096.0 421877.0 0
330826.0 419322.0 0
333760.0 417375.0 0
334203.0 421333.0 0
336932.0 417094.0 0
336603.0 420660.0 0
340295.0 419430.0 0
343450.0 421339.0 0
350021.0 418441.0 0
346085.0 419100.0 0
348551.0 420945.0 0
353388.0 417702.0 0
354089.0 420865.0 0
357169.0 418604.0 0
358760.0 417760.0 0
358695.0 420618.0 0
363172.0 418092.0 0
361259.0 420229.0 0
364191.0 422039.0 0
366286.0 419401.0 0
368582.0 421805.0 0
123592.0 425309.0 0
121777.0 427290.0 0
125955.0 423952.0 0
127042.0 426887.0 0
132348.0 425027.0 0
129487.0 425530.0 0
137547.0 422808.0 0
134934.0 425248.0 0
137471.0 426835.0 0
140258.0 423505.0 0
142685.0 425790.0 0
145111.0 423268.0 0
147665.0 423672.0 0
145825.0 427319.0 0
149313.0 426439.0 0
152442.0 424028.0 0
154413.0 426620.0 0
155449.0 422816.0 0
156351.0 425036.0 0
157859.0 426040.0 0
158957.0 424727.0 0
162061.0 424857.0 0
164907.0 424915.0 0
167838.0 425128.0 0
170978.0 422912.0 0
173339.0 423631.0 0
171269.0 425149.0 0
175975.0 424506.0 0
177022.0 422151.0 0
179181.0 424038.0 0
179280.0 426539.0 0
181906.0 422288.0 0
185266.0 422508.0 0
183220.0 425952.0 0
188280.0 423661.0 0
186286.0 426473.0 0
191456.0 422676.0 0
193144.0 424010.0 0
190555.0 425775.0 0
197505.0 423972.0 0
201864.0 424594.0 0
205212.0 424452.0 0
208456.0 425660.0 0
209780.0 421855.0 0
213409.0 423108.0 0
216673.0 422928.0 0
220209.0 422563.0 0
218675.0 425946.0 0
223227.0 421046.0 0
223490.0 425592.0 0
227801.0 423278.0 0
232199.0 422660.0 0
235117.0 426158.0 0
236242.0 421802.0 0
239897.0 421841.0 0
238972.0 425629.0 0
241966.0 423584.0 0
245264.0 422544.0 0
249260.0 421961.0 0
251475.0 425548.0 0
253730.0 421546.0 0
255226.0 425809.0 0
258328.0 421635.0 0
261739.0 424275.0 0
265612.0 422069.0 0
269727.0 423562.0 0
273373.0 421707.0 0
277213.0 424023.0 0
281103.0 423385.0 0
284387.0 425358.0 0
288172.0 421085.0 0
284570.0 421284.0 0
287136.0 424543.0 0
288978.0 425577.0 0
292509.0 423623.0 0
296457.0 422014.0 0
296478.0 426104.0 0
299247.0 423746.0 0
303132.0 424396.0 0
306629.0 424751.0 0
309330.0 424474.0 0
310009.0 422007.0 0
313337.0 422070.0 0
313434.0 425509.0 0
316842.0 423703.0 0
317317.0 426556.0 0
320362.0 425681.0 0
321472.0 423317.0 0
324211.0 425554.0 0
325504.0 423829.0 0
328555.0 424714.0 0
333212.0 423710.0 0
331489.0 425714.0 0
336774.0 423688.0 0
339044.0 422952.0 0
335527.0 425873.0 0
337528.0 427071.0 0
340197.0 425512.0 0
342342.0 424046.0 0
343846.0 425438.0 0
346170.0 423462.0 0
347607.0 426272.0 0
351256.0 422545.0 0
350710.0 425282.0 0
354870.0 425925.0 0
356575.0 423194.0 0
359388.0 424914.0 0
361262.0 422889.0 0
364065.0 424393.0 0
362605.0 426533.0 0
367085.0 424448.0 0
371663.0 422731.0 0
374068.0 423984.0 0
370753.0 426109.0 0
376172.0 426377.0 0
116917.0 429986.0 0
118793.0 427759.0 0
114280.0 431052.0 0
122288.0 430228.0 0
119074.0 432039.0 0
125412.0 428639.0 0
129143.0 429368.0 0
124571.0 432415.0 0
128077.0 432165.0 0
131564.0 428469.0 0
134068.0 428437.0 0
132084.0 431834.0 0
137763.0 429525.0 0
134804.0 430812.0 0
139168.0 432155.0 0
141372.0 428613.0 0
142428.0 431000.0 0
145258.0 429789.0 0
148883.0 429709.0 0
152317.0 428138.0 0
151143.0 431187.0 0
152955.0 430093.0 0
156120.0 428072.0 0
158840.0 428401.0 0
155537.0 431269.0 0
158561.0 431569.0 0
161595.0 427915.0 0
164706.0 428009.0 0
161962.0 431032.0 0
165075.0 431665.0 0
168013.0 429095.0 0
172402.0 428550.0 0
172499.0 432046.0 0
175766.0 427687.0 0
175964.0 431732.0 0
178106.0 430298.0 0
180907.0 429167.0 0
183669.0 430047.0 0
186281.0 429741.0 0
189042.0 428406.0 0
193820.0 427526.0 0
191422.0 431299.0 0
195967.0 429120.0 0
198388.0 427759.0 0
198688.0 431595.0 0
202109.0 428304.0 0
205437.0 428442.0 0
209277.0 429562.0 0
211508.0 426442.0 0
212225.0 431042.0 0
214838.0 427766.0 0
216949.0 431330.0 0
220684.0 430011.0 0
224286.0 430440.0 0
226963.0 428317.0 0
230926.0 426996.0 0
232709.0 430842.0 0
236474.0 429799.0 0
239750.0 429481.0 0
243177.0 426996.0 0
242138.0 430761.0 0
244952.0 430689.0 0
247456.0 426561.0 0
248164.0 430617.0 0
251338.0 429385.0 0
253956.0 428455.0 0
257194.0 429862.0 0
258670.0 425949.0 0
264168.0 426094.0 0
261150.0 428178.0 0
264809.0 430325.0 0
268084.0 426819.0 0
269102.0 430493.0 0
272048.0 430135.0 0
272627.0 426182.0 0
277003.0 428548.0 0
280704.0 426978.0 0
280721.0 430262.0 0
283390.0 428599.0 0
287265.0 428431.0 0
290567.0 427989.0 0
290673.0 430734.0 0
293669.0 428033.0 0
293904.0 431182.0 0
297148.0 429115.0 0
299813.0 426998.0 0
299803.0 429433.0 0
303277.0 427762.0 0
302884.0 430809.0 0
307318.0 428683.0 0
310790.0 427084.0 0
310227.0 431284.0 0
312707.0 430177.0 0
314879.0 428549.0 0
318554.0 429933.0 0
323258.0 427852.0 0
320873.0 428271.0 0
321989.0 431681.0 0
327339.0 427154.0 0
329503.0 428378.0 0
326061.0 430466.0 0
330487.0 427364.0 0
331323.0 428853.0 0
333587.0 427940.0 0
330308.0 431895.0 0
334669.0 430779.0 0
338106.0 430392.0 0
341519.0 428264.0 0
344492.0 428151.0 0
342388.0 431262.0 0
348463.0 429046.0 0
345676.0 431421.0 0
352684.0 427356.0 0
351585.0 430543.0 0
354857.0 430533.0 0
355844.0 429090.0 0
356702.0 427594.0 0
359019.0 428062.0 0
359213.0 431240.0 0
362085.0 428928.0 0
365359.0 428372.0 0
362091.0 431466.0 0
364027.0 430529.0 0
368029.0 427682.0 0
369687.0 430215.0 0
366447.0 431539.0 0
368860.0 432564.0 0
372886.0 427504.0 0
372774.0 430710.0 0
375549.0 431054.0 0
378578.0 428086.0 0
379174.0 431696.0 0
381848.0 428810.0 0
384185.0 431140.0 0
106940.0 436918.0 0
109474.0 435101.0 0
111921.0 433105.0 0
112005.0 436857.0 0
114948.0 434238.0 0
115911.0 436765.0 0
119418.0 434751.0 0
123690.0 435309.0 0
121245.0 437088.0 0
128510.0 435330.0 0
125179.0 437415.0 0
132161.0 434229.0 0
132993.0 436601.0 0
135390.0 433248.0 0
135834.0 435686.0 0
139100.0 434756.0 0
143591.0 432930.0 0
142470.0 434965.0 0
143457.0 437443.0 0
147083.0 432626.0 0
146572.0 435909.0 0
150834.0 433846.0 0
154295.0 434370.0 0
149917.0 436683.0 0
153229.0 437163.0 0
157751.0 435813.0 0
160783.0 434276.0 0
163596.0 434749.0 0
169399.0 432666.0 0
166948.0 433985.0 0
165872.0 436133.0 0
169812.0 435498.0 0
173669.0 434376.0 0
179883.0 432302.0 0
177545.0 434273.0 0
179998.0 436447.0 0
183347.0 434160.0 0
187411.0 433025.0 0
188409.0 436235.0 0
194977.0 432376.0 0
191485.0 435132.0 0
195274.0 435614.0 0
198895.0 435475.0 0
202524.0 432004.0 0
202738.0 435634.0 0
206477.0 432749.0 0
209951.0 433658.0 0
210835.0 436357.0 0
214066.0 434218.0 0
217294.0 434728.0 0
221051.0 434331.0 0
224679.0 433210.0 0
228269.0 431763.0 0
226585.0 435694.0 0
231059.0 434930.0 0
236075.0 434429.0 0
239055.0 432703.0 0
242038.0 433884.0 0
246236.0 434796.0 0
253976.0 432331.0 0
250176.0 433754.0 0
256780.0 433924.0 0
258364.0 436700.0 0
260263.0 432746.0 0
264299.0 434338.0 0
268216.0 433252.0 0
266787.0 436328.0 0
271024.0 433345.0 0
272661.0 436125.0 0
269858.0 435742.0 0
274764.0 432902.0 0
278814.0 432972.0 0
282854.0 431792.0 0
281609.0 433786.0 0
284583.0 434640.0 0
285789.0 431690.0 0
288796.0 431755.0 0
288564.0 435174.0 0
292039.0 434099.0 0
297036.0 433052.0 0
299710.0 436114.0 0
300478.0 432551.0 0
303632.0 435915.0 0
305824.0 432581.0 0
308177.0 436776.0 0
309063.0 434015.0 0
313152.0 434935.0 0
315924.0 432191.0 0
319145.0 434447.0 0
323083.0 435077.0 0
325981.0 434106.0 0
325901.0 436508.0 0
329788.0 435762.0 0
334260.0 434073.0 0
336768.0 435231.0 0
339912.0 433633.0 0
343768.0 434140.0 0
348507.0 433233.0 0
346536.0 435105.0 0
350677.0 435808.0 0
353727.0 434752.0 0
357071.0 433326.0 0
358691.0 436801.0 0
365571.0 433553.0 0
361489.0 435714.0 0
363118.0 433754.0 0
366678.0 436499.0 0
369922.0 435574.0 0
372368.0 433894.0 0
375048.0 435230.0 0
377237.0 433722.0 0
378877.0 436046.0 0
381672.0 433053.0 0
381698.0 435529.0 0
385032.0 435565.0 0
386751.0 433041.0 0
389415.0 434531.0 0
388136.0 437528.0 0
392114.0 435436.0 0
394486.0 437374.0 0
101042.0 439247.0 0
98932.6 441674.0 0
103974.0 438356.0 0
104214.0 441644.0 0
109191.0 440202.0 0
112664.0 439351.0 0
111128.0 442414.0 0
117388.0 438805.0 0
114153.0 441615.0 0
117270.0 441514.0 0
120851.0 439972.0 0
123509.0 440680.0 0
126065.0 439634.0 0
129358.0 437732.0 0
130420.0 440482.0 0
133681.0 440474.0 0
136586.0 438828.0 0
137244.0 441987.0 0
139822.0 438158.0 0
140265.0 441097.0 0
142996.0 440545.0 0
146025.0 439993.0 0
149475.0 439666.0 0
153062.0 439875.0 0
156519.0 438952.0 0
155961.0 441552.0 0
159594.0 440765.0 0
161033.0 437951.0 0
163680.0 438164.0 0
167652.0 437616.0 0
165681.0 440655.0 0
169479.0 439117.0 0
172122.0 437710.0 0
172939.0 441071.0 0
175856.0 437152.0 0
177214.0 440244.0 0
184761.0 437875.0 0
181278.0 439590.0 0
186623.0 441675.0 0
189522.0 439011.0 0
192713.0 438023.0 0
192287.0 441215.0 0
195810.0 439041.0 0
198828.0 438866.0 0
203183.0 439463.0 0
207119.0 436997.0 0
206583.0 440726.0 0
210308.0 440711.0 0
214914.0 438794.0 0
218825.0 437588.0 0
223005.0 437028.0 0
220645.0 440801.0 0
225291.0 440021.0 0
229309.0 438678.0 0
233791.0 437938.0 0
236635.0 439184.0 0
239567.0 437439.0 0
243292.0 437566.0 0
242686.0 440738.0 0
246469.0 439800.0 0
249432.0 437659.0 0
253601.0 437492.0 0
256878.0 440612.0 0
262315.0 436919.0 0
260616.0 440808.0 0
265473.0 440240.0 0
269560.0 438634.0 0
273180.0 440398.0 0
277113.0 436952.0 0
277330.0 441295.0 0
279960.0 440511.0 0
281701.0 437402.0 0
286082.0 437657.0 0
284365.0 440479.0 0
288685.0 441008.0 0
291109.0 438183.0 0
295267.0 437204.0 0
297882.0 441345.0 0
299444.0 438639.0 0
302204.0 440426.0 0
306277.0 439240.0 0
309362.0 441035.0 0
311043.0 438312.0 0
313719.0 440379.0 0
316520.0 437864.0 0
317766.0 441694.0 0
320534.0 437967.0 0
324032.0 438870.0 0
320863.0 441478.0 0
325065.0 442208.0 0
327911.0 438567.0 0
328718.0 441691.0 0
332859.0 437821.0 0
332017.0 441218.0 0
336649.0 438519.0 0
339001.0 441713.0 0
340685.0 437255.0 0
344695.0 438060.0 0
340410.0 439996.0 0
343564.0 441471.0 0
348801.0 439044.0 0
352693.0 440113.0 0
355391.0 438098.0 0
357658.0 440761.0 0
363926.0 438663.0 0
361050.0 440439.0 0
364160.0 442261.0 0
368710.0 440000.0 0
371863.0 438853.0 0
374915.0 437780.0 0
373314.0 442196.0 0
376831.0 439853.0 0
379190.0 438519.0 0
379332.0 442289.0 0
381571.0 439909.0 0
383355.0 437697.0 0
386002.0 438593.0 0
383472.0 442332.0 0
389148.0 440937.0 0
390256.0 438742.0 0
386281.0 441766.0 0
392898.0 439678.0 0
392587.0 442348.0 0
397319.0 438402.0 0
400096.0 439820.0 0
397203.0 441214.0 0
399870.0 442319.0 0
402246.0 440722.0 0
91292.7 445865.0 0
92983.9 443506.0 0
88966.6 447977.0 0
96252.1 443357.0 0
94523.8 446285.0 0
101588.0 443159.0 0
98805.7 445591.0 0
102148.0 445600.0 0
104796.0 445772.0 0
107058.0 443061.0 0
105405.0 447845.0 0
109248.0 445486.0 0
113156.0 445130.0 0
117468.0 443911.0 0
116027.0 446758.0 0
120736.0 442933.0 0
122426.0 444755.0 0
124133.0 443160.0 0
119017.0 445852.0 0
123471.0 447741.0 0
127433.0 442942.0 0
126653.0 446260.0 0
130555.0 444084.0 0
133393.0 443601.0 0
130780.0 446197.0 0
134337.0 447021.0 0
136972.0 444483.0 0
139655.0 443580.0 0
142342.0 443426.0 0
140243.0 446572.0 0
145889.0 444276.0 0
148272.0 446764.0 0
149777.0 443309.0 0
153430.0 443207.0 0
150399.0 445988.0 0
153650.0 446382.0 0
157659.0 443567.0 0
156801.0 446324.0 0
162579.0 442454.0 0
160288.0 445251.0 0
164383.0 444881.0 0
168915.0 442409.0 0
167255.0 445863.0 0
171467.0 444982.0 0
173805.0 444310.0 0
177801.0 444811.0 0
182419.0 443417.0 0
186879.0 445842.0 0
190216.0 443260.0 0
192998.0 444720.0 0
195281.0 442048.0 0
195884.0 446181.0 0
199456.0 443112.0 0
203551.0 443423.0 0
202538.0 446352.0 0
205987.0 443321.0 0
205290.0 446175.0 0
208755.0 445150.0 0
213246.0 444042.0 0
216813.0 442833.0 0
218983.0 446692.0 0
223188.0 444461.0 0
227574.0 443231.0 0
231979.0 441796.0 0
230256.0 445877.0 0
234144.0 446386.0 0
236012.0 442323.0 0
237800.0 445008.0 0
239648.0 442019.0 0
242451.0 443225.0 0
245663.0 444269.0 0
250335.0 442173.0 0
254138.0 442366.0 0
253359.0 446187.0 0
257693.0 444951.0 0
263099.0 445518.0 0
267145.0 444041.0 0
269365.0 442257.0 0
268615.0 445902.0 0
271733.0 445257.0 0
275165.0 444554.0 0
278953.0 445021.0 0
281838.0 442434.0 0
283010.0 446361.0 0
285071.0 443498.0 0
287590.0 445297.0 0
293608.0 442013.0 0
290713.0 444559.0 0
297413.0 444971.0 0
301228.0 444509.0 0
306050.0 443851.0 0
311793.0 443135.0 0
310067.0 446463.0 0
314185.0 446748.0 0
315215.0 443920.0 0
318764.0 444971.0 0
321975.0 444757.0 0
325376.0 445188.0 0
328692.0 445140.0 0
332084.0 446057.0 0
335665.0 442724.0 0
338938.0 445159.0 0
341234.0 443643.0 0
342994.0 446426.0 0
348196.0 442377.0 0
345733.0 444095.0 0
350209.0 445018.0 0
351253.0 442807.0 0
354910.0 443188.0 0
353373.0 446429.0 0
359968.0 443770.0 0
357634.0 445223.0 0
362974.0 443068.0 0
362192.0 446401.0 0
365611.0 445408.0 0
367440.0 442790.0 0
369453.0 447825.0 0
371292.0 444889.0 0
374272.0 447661.0 0
376429.0 443174.0 0
376924.0 445896.0 0
381331.0 445174.0 0
384546.0 446445.0 0
390338.0 444254.0 0
387250.0 445132.0 0
395763.0 443710.0 0
391727.0 446888.0 0
394904.0 447005.0 0
398630.0 445233.0 0
400660.0 445704.0 0
401840.0 443423.0 0
404208.0 443233.0 0
404354.0 446384.0 0
406624.0 443983.0 0
408690.0 445699.0 0
406656.0 447239.0 0
411139.0 447296.0 0
80066.5 452318.0 0
82990.4 451213.0 0
85950.3 449448.0 0
87097.7 452443.0 0
90592.1 450300.0 0
94295.1 450145.0 0
97683.4 448334.0 0
98457.0 450922.0 0
97945.0 452971.0 0
101024.0 448262.0 0
103118.0 450985.0 0
108373.0 448512.0 0
107228.0 450695.0 0
112282.0 449277.0 0
110968.0 452209.0 0
115870.0 449887.0 0
115880.0 452839.0 0
119592.0 448984.0 0
120086.0 452005.0 0
128851.0 448295.0 0
124509.0 450887.0 0
127470.0 451407.0 0
131971.0 449856.0 0
134101.0 452502.0 0
137638.0 449968.0 0
144017.0 448075.0 0
141171.0 451425.0 0
144383.0 452613.0 0
147695.0 449823.0 0
150393.0 448288.0 0
149929.0 452454.0 0
153519.0 450252.0 0
158124.0 449318.0 0
162220.0 447553.0 0
162729.0 451371.0 0
165833.0 448930.0 0
168482.0 451244.0 0
170588.0 447946.0 0
173884.0 447286.0 0
172770.0 450818.0 0
176539.0 450191.0 0
180193.0 447952.0 0
183756.0 447545.0 0
181146.0 451538.0 0
190035.0 447490.0 0
186046.0 450627.0 0
189721.0 451291.0 0
193696.0 448931.0 0
196844.0 450576.0 0
199139.0 448141.0 0
202195.0 450090.0 0
206247.0 450020.0 0
211073.0 448047.0 0
213134.0 450858.0 0
214943.0 447436.0 0
216031.0 451189.0 0
219567.0 451563.0 0
222446.0 448357.0 0
223283.0 451760.0 0
226313.0 447641.0 0
230669.0 449490.0 0
234452.0 451647.0 0
237377.0 448249.0 0
241462.0 446930.0 0
245467.0 449410.0 0
249208.0 447174.0 0
252427.0 450695.0 0
256361.0 449594.0 0
259971.0 448911.0 0
263402.0 451534.0 0
266842.0 448452.0 0
271060.0 449418.0 0
275432.0 448784.0 0
279271.0 448687.0 0
282279.0 450311.0 0
285336.0 451721.0 0
286053.0 448515.0 0
288042.0 450969.0 0
289959.0 448275.0 0
293722.0 446962.0 0
295773.0 450838.0 0
298045.0 448148.0 0
299315.0 451812.0 0
304841.0 447572.0 0
301454.0 448609.0 0
304082.0 451428.0 0
307452.0 450109.0 0
311022.0 451352.0 0
313037.0 449396.0 0
317690.0 447750.0 0
315459.0 450230.0 0
319240.0 451297.0 0
322068.0 448377.0 0
326344.0 448847.0 0
330720.0 450100.0 0
336078.0 447379.0 0
340017.0 448466.0 0
335446.0 451197.0 0
338760.0 451380.0 0
342083.0 451165.0 0
345377.0 449520.0 0
348185.0 447407.0 0
348477.0 452085.0 0
351859.0 450168.0 0
356507.0 447927.0 0
359401.0 448388.0 0
355639.0 450321.0 0
359509.0 451256.0 0
363903.0 449305.0 0
362328.0 451127.0 0
367043.0 448498.0 0
366616.0 451825.0 0
369665.0 452091.0 0
371408.0 450228.0 0
373865.0 452788.0 0
375561.0 450469.0 0
378827.0 447985.0 0
378236.0 449653.0 0
381408.0 448652.0 0
384900.0 449165.0 0
382016.0 451378.0 0
388006.0 447856.0 0
390343.0 449182.0 0
387123.0 451253.0 0
394802.0 450093.0 0
392323.0 451917.0 0
397935.0 447878.0 0
399983.0 450104.0 0
397349.0 451821.0 0
402292.0 448032.0 0
404422.0 450169.0 0
403893.0 452330.0 0
406738.0 449586.0 0
409945.0 449704.0 0
408596.0 452383.0 0
412577.0 450895.0 0
414080.0 448782.0 0
416465.0 450704.0 0
414931.0 453009.0 0
419260.0 452433.0 0
71033.0 457976.0 0
77470.0 455009.0 0
74294.6 456610.0 0
78019.7 458086.0 0
80608.2 455172.0 0
80958.5 457420.0 0
84225.5 454615.0 0
87894.0 455838.0 0
84138.4 457952.0 0
89561.3 453130.0 0
93947.4 454627.0 0
97112.5 457632.0 0
100381.0 453416.0 0
100364.0 456324.0 0
103488.0 457631.0 0
104924.0 454193.0 0
108573.0 454088.0 0
107187.0 457636.0 0
113304.0 453951.0 0
110510.0 457442.0 0
113018.0 456515.0 0
117537.0 455028.0 0
115602.0 457705.0 0
122743.0 453781.0 0
119905.0 456067.0 0
124784.0 456939.0 0
127254.0 454497.0 0
130469.0 452671.0 0
130305.0 455631.0 0
137863.0 453953.0 0
134065.0 455853.0 0
140453.0 454301.0 0
142491.0 456262.0 0
147067.0 454454.0 0
148636.0 457265.0 0
151533.0 455479.0 0
154842.0 453992.0 0
158555.0 453256.0 0
155659.0 457405.0 0
158593.0 457039.0 0
161967.0 455319.0 0
165620.0 453111.0 0
165265.0 456874.0 0
168962.0 455256.0 0
171872.0 453696.0 0
175180.0 455200.0 0
178268.0 453436.0 0
179796.0 455909.0 0
183531.0 454219.0 0
184789.0 457003.0 0
187010.0 454026.0 0
190234.0 454124.0 0
193164.0 452158.0 0
193183.0 456010.0 0
196461.0 453921.0 0
199710.0 452187.0 0
199710.0 455631.0 0
202470.0 456879.0 0
202907.0 453572.0 0
206812.0 456060.0 0
209835.0 452088.0 0
212584.0 455175.0 0
216940.0 455358.0 0
221077.0 456284.0 0
224996.0 455326.0 0
227417.0 452151.0 0
230545.0 454093.0 0
232961.0 455624.0 0
239102.0 452067.0 0
242656.0 451670.0 0
241015.0 456297.0 0
244882.0 454657.0 0
248671.0 452541.0 0
251810.0 455696.0 0
255294.0 453841.0 0
258321.0 456838.0 0
259464.0 452832.0 0
262536.0 456874.0 0
267799.0 452165.0 0
265901.0 455203.0 0
270408.0 453161.0 0
273887.0 453422.0 0
278594.0 452813.0 0
276841.0 456349.0 0
282972.0 454976.0 0
287560.0 454497.0 0
291827.0 452658.0 0
296641.0 454589.0 0
300310.0 455566.0 0
301998.0 452572.0 0
304181.0 454990.0 0
306968.0 453767.0 0
310388.0 455075.0 0
313679.0 452482.0 0
315125.0 456474.0 0
316457.0 452719.0 0
319249.0 454717.0 0
322672.0 452646.0 0
322548.0 456465.0 0
325842.0 455929.0 0
325893.0 452851.0 0
328781.0 453140.0 0
329957.0 457298.0 0
333124.0 454353.0 0
340195.0 453395.0 0
337607.0 455487.0 0
341134.0 457369.0 0
342372.0 455267.0 0
344929.0 453690.0 0
349063.0 455707.0 0
353506.0 454857.0 0
357013.0 452836.0 0
360727.0 453921.0 0
357295.0 457175.0 0
358516.0 454888.0 0
363634.0 453405.0 0
360875.0 456411.0 0
364372.0 456389.0 0
367923.0 455699.0 0
371825.0 455256.0 0
376910.0 454753.0 0
378950.0 452654.0 0
380663.0 455117.0 0
379939.0 457644.0 0
384229.0 454033.0 0
382800.0 456772.0 0
389341.0 453761.0 0
387153.0 456476.0 0
391296.0 456048.0 0
394344.0 454719.0 0
398168.0 455654.0 0
400717.0 458015.0 0
401613.0 453711.0 0
406397.0 454151.0 0
404203.0 456642.0 0
408958.0 456528.0 0
412021.0 454297.0 0
413645.0 457451.0 0
415999.0 456309.0 0
417009.0 454491.0 0
421648.0 454649.0 0
418426.0 456561.0 0
424664.0 455339.0 0
426903.0 457280.0 0
65844.0 462021.0 0
68560.1 459683.0 0
71463.3 461981.0 0
74342.2 459412.0 0
76795.6 461341.0 0
79880.4 459215.0 0
81846.0 460609.0 0
79201.4 462874.0 0
86503.4 459787.0 0
83283.5 462117.0 0
86449.1 462879.0 0
90599.0 458479.0 0
90204.2 462439.0 0
93887.8 460400.0 0
95424.1 462502.0 0
98548.7 460900.0 0
101712.0 460755.0 0
107569.0 460031.0 0
105253.0 460981.0 0
110120.0 461014.0 0
113617.0 460917.0 0
118089.0 459303.0 0
116627.0 461620.0 0
120873.0 458575.0 0
121425.0 461374.0 0
124242.0 460867.0 0
128060.0 458713.0 0
126132.0 462266.0 0
128480.0 461338.0 0
131574.0 459535.0 0
130033.0 462527.0 0
137822.0 458014.0 0
134843.0 461536.0 0
138661.0 462361.0 0
141288.0 459972.0 0
145234.0 457749.0 0
145058.0 461409.0 0
152831.0 458448.0 0
149793.0 461014.0 0
153377.0 462467.0 0
154677.0 460586.0 0
157471.0 460860.0 0
161148.0 459164.0 0
163892.0 459606.0 0
163170.0 461850.0 0
167333.0 460574.0 0
171441.0 458243.0 0
177394.0 457997.0 0
174639.0 460095.0 0
178632.0 460915.0 0
181880.0 458338.0 0
182483.0 461929.0 0
188744.0 458204.0 0
184647.0 459597.0 0
186460.0 462238.0 0
192945.0 459648.0 0
196322.0 457971.0 0
195293.0 462111.0 0
199651.0 460096.0 0
203602.0 459959.0 0
206715.0 461961.0 0
210228.0 459679.0 0
214314.0 459161.0 0
217958.0 459540.0 0
221260.0 461064.0 0
224481.0 458876.0 0
227989.0 457002.0 0
227599.0 460937.0 0
231565.0 458892.0 0
236298.0 456843.0 0
234981.0 461862.0 0
239049.0 460584.0 0
243565.0 459962.0 0
247773.0 458250.0 0
251798.0 460355.0 0
254940.0 458323.0 0
258050.0 460432.0 0
260854.0 460304.0 0
265812.0 459292.0 0
269735.0 457254.0 0
271953.0 461353.0 0
274012.0 458340.0 0
274456.0 461990.0 0
277335.0 460283.0 0
279671.0 457577.0 0
282315.0 459217.0 0
290288.0 457589.0 0
286304.0 458925.0 0
293951.0 457067.0 0
290196.0 461690.0 0
294055.0 460981.0 0
298052.0 458866.0 0
303052.0 459266.0 0
299944.0 461856.0 0
307038.0 457899.0 0
307020.0 462544.0 0
311055.0 459981.0 0
314832.0 460905.0 0
319594.0 458060.0 0
317761.0 460075.0 0
321900.0 461475.0 0
324946.0 459573.0 0
327856.0 461407.0 0
334969.0 458520.0 0
332258.0 461756.0 0
338978.0 459657.0 0
345286.0 457724.0 0
343312.0 460701.0 0
348538.0 459862.0 0
351787.0 458944.0 0
354915.0 459003.0 0
353220.0 461114.0 0
351086.0 462369.0 0
356350.0 461640.0 0
359850.0 460184.0 0
363683.0 459393.0 0
365882.0 462061.0 0
367672.0 458891.0 0
370943.0 458952.0 0
375646.0 458279.0 0
374450.0 462360.0 0
378464.0 461184.0 0
381404.0 460830.0 0
385410.0 460195.0 0
390207.0 458274.0 0
389601.0 461750.0 0
392805.0 460454.0 0
393510.0 457964.0 0
395215.0 462182.0 0
396508.0 459253.0 0
399153.0 460885.0 0
403173.0 459946.0 0
401664.0 461964.0 0
405834.0 461243.0 0
407129.0 458793.0 0
409820.0 460949.0 0
410968.0 458752.0 0
408519.0 462943.0 0
415335.0 460323.0 0
412585.0 461931.0 0
418885.0 459409.0 0
419924.0 462724.0 0
422113.0 458308.0 0
424866.0 460076.0 0
423241.0 463223.0 0
429825.0 459027.0 0
428188.0 461885.0 0
432428.0 460429.0 0
435319.0 462021.0 0
56974.3 467428.0 0
59732.6 465427.0 0
61139.8 468222.0 0
62796.6 463580.0 0
63830.3 466519.0 0
66292.1 466875.0 0
68486.1 464100.0 0
70179.2 466702.0 0
72860.6 467761.0 0
74254.3 464411.0 0
77577.2 466124.0 0
80976.1 464294.0 0
80461.1 467457.0 0
83274.4 464330.0 0
83635.6 467410.0 0
86922.5 466033.0 0
89917.8 465452.0 0
92733.6 463261.0 0
92973.0 466421.0 0
96268.4 465533.0 0
99306.0 464357.0 0
102456.0 463658.0 0
100341.0 466740.0 0
102712.0 466184.0 0
106106.0 463575.0 0
105704.0 466962.0 0
109850.0 464264.0 0
113295.0 464581.0 0
109266.0 467918.0 0
119169.0 463347.0 0
116098.0 464872.0 0
123026.0 463679.0 0
120831.0 466470.0 0
124728.0 464329.0 0
127885.0 464193.0 0
124773.0 467053.0 0
131843.0 464142.0 0
128857.0 467524.0 0
133199.0 467114.0 0
135879.0 464938.0 0
138792.0 465364.0 0
136902.0 467867.0 0
141581.0 463664.0 0
140683.0 467181.0 0
143993.0 466641.0 0
147542.0 464943.0 0
151328.0 465651.0 0
155777.0 464879.0 0
159946.0 463179.0 0
159391.0 466534.0 0
162596.0 465105.0 0
165583.0 464400.0 0
167285.0 467159.0 0
170698.0 463432.0 0
175039.0 464055.0 0
179581.0 465824.0 0
184246.0 465399.0 0
187629.0 465138.0 0
189313.0 467349.0 0
190648.0 463023.0 0
192743.0 466185.0 0
198798.0 463693.0 0
196316.0 465697.0 0
202473.0 464355.0 0
206109.0 466482.0 0
209511.0 464176.0 0
212238.0 462617.0 0
212729.0 466574.0 0
215626.0 462837.0 0
216851.0 466833.0 0
218937.0 463351.0 0
224360.0 462749.0 0
221773.0 466716.0 0
226730.0 465345.0 0
230645.0 463552.0 0
233603.0 466648.0 0
237725.0 465433.0 0
240795.0 462890.0 0
243574.0 463787.0 0
241295.0 466137.0 0
247869.0 464144.0 0
252509.0 464563.0 0
255647.0 462364.0 0
259615.0 464021.0 0
263665.0 462142.0 0
268662.0 462295.0 0
266273.0 465370.0 0
269370.0 466895.0 0
272648.0 465250.0 0
276827.0 464484.0 0
280658.0 462487.0 0
284278.0 462379.0 0
280235.0 466448.0 0
284178.0 466019.0 0
287133.0 463421.0 0
289107.0 466536.0 0
293215.0 465162.0 0
297102.0 463245.0 0
299679.0 464951.0 0
301180.0 468015.0 0
302843.0 463921.0 0
310402.0 463609.0 0
313834.0 464434.0 0
317810.0 463283.0 0
321101.0 466330.0 0
326141.0 465456.0 0
330708.0 464863.0 0
334043.0 465987.0 0
336130.0 462676.0 0
337782.0 467266.0 0
340571.0 464064.0 0
343510.0 467098.0 0
346824.0 463939.0 0
354274.0 464034.0 0
351444.0 465703.0 0
355787.0 467393.0 0
358147.0 464537.0 0
359964.0 467538.0 0
362047.0 464207.0 0
370450.0 462994.0 0
366529.0 466489.0 0
372530.0 466423.0 0
374719.0 466010.0 0
377624.0 464453.0 0
377300.0 467748.0 0
381317.0 465150.0 0
384867.0 464434.0 0
387991.0 464839.0 0
386154.0 467310.0 0
389794.0 467022.0 0
392566.0 464679.0 0
395944.0 467058.0 0
397902.0 464052.0 0
401440.0 465401.0 0
404734.0 463494.0 0
404602.0 467805.0 0
406761.0 465261.0 0
410189.0 465269.0 0
408571.0 468198.0 0
411690.0 467708.0 0
412471.0 464201.0 0
416630.0 464282.0 0
414149.0 466439.0 0
418687.0 467239.0 0
426686.0 464934.0 0
422754.0 467242.0 0
430729.0 463486.0 0
429425.0 467541.0 0
433438.0 463904.0 0
436439.0 466533.0 0
433476.0 466834.0 0
437800.0 464184.0 0
440713.0 465410.0 0
440960.0 468360.0 0
443855.0 467630.0 0
50406.5 470867.0 0
47851.9 473143.0 0
53976.9 469350.0 0
52634.2 472506.0 0
56101.8 472007.0 0
57913.4 470047.0 0
60222.5 470798.0 0
58928.0 473082.0 0
61992.4 472193.0 0
63751.3 469857.0 0
65625.2 471731.0 0
68018.9 469334.0 0
70892.8 471296.0 0
75981.3 469565.0 0
73768.1 472180.0 0
77503.7 473279.0 0
79600.0 470499.0 0
81799.2 471859.0 0
84459.8 470257.0 0
87730.2 468966.0 0
85859.5 472814.0 0
90476.8 468575.0 0
88256.2 471275.0 0
91435.2 471145.0 0
94217.3 469392.0 0
97283.9 468682.0 0
94593.7 471940.0 0
97539.5 472260.0 0
100556.0 469688.0 0
102910.0 468853.0 0
101516.0 472889.0 0
104874.0 470523.0 0
108379.0 471607.0 0
113137.0 468438.0 0
112622.0 473302.0 0
116929.0 467569.0 0
117228.0 471518.0 0
120750.0 470027.0 0
124241.0 471081.0 0
128515.0 472220.0 0
131804.0 470149.0 0
139069.0 469106.0 0
134831.0 470466.0 0
138087.0 472077.0 0
141945.0 470494.0 0
148061.0 468303.0 0
145328.0 470756.0 0
150278.0 468823.0 0
152757.0 468769.0 0
149421.0 472372.0 0
155882.0 468449.0 0
154143.0 472028.0 0
158727.0 470272.0 0
162856.0 468100.0 0
161712.0 472124.0 0
164926.0 470846.0 0
168529.0 471215.0 0
171485.0 467738.0 0
172725.0 472207.0 0
175175.0 468083.0 0
178204.0 471203.0 0
182791.0 469231.0 0
186244.0 468020.0 0
187296.0 472081.0 0
191168.0 469998.0 0
199325.0 467782.0 0
194972.0 469659.0 0
198241.0 472202.0 0
202987.0 469720.0 0
209233.0 467547.0 0
207359.0 470677.0 0
210768.0 470044.0 0
214313.0 471206.0 0
218589.0 470601.0 0
225507.0 469613.0 0
229529.0 467931.0 0
228721.0 471356.0 0
232213.0 470824.0 0
236525.0 470275.0 0
240633.0 469942.0 0
244483.0 468087.0 0
247729.0 470288.0 0
251328.0 468643.0 0
254078.0 471846.0 0
255903.0 467197.0 0
257709.0 471048.0 0
259540.0 468385.0 0
262859.0 467089.0 0
261674.0 472154.0 0
266616.0 470607.0 0
271667.0 470047.0 0
276387.0 469153.0 0
281815.0 470720.0 0
286292.0 469328.0 0
289895.0 471144.0 0
292978.0 469142.0 0
297252.0 467557.0 0
296440.0 471198.0 0
305311.0 467221.0 0
303549.0 470693.0 0
309967.0 467913.0 0
306651.0 471070.0 0
314269.0 468624.0 0
313732.0 472284.0 0
317243.0 467561.0 0
316954.0 471053.0 0
320144.0 470916.0 0
323663.0 469935.0 0
328015.0 470918.0 0
331225.0 468582.0 0
335045.0 469982.0 0
340414.0 468747.0 0
338647.0 471180.0 0
342790.0 471556.0 0
346429.0 469240.0 0
348993.0 468007.0 0
346189.0 472062.0 0
349926.0 472274.0 0
352570.0 469063.0 0
354520.0 471899.0 0
357807.0 471007.0 0
363509.0 468463.0 0
361349.0 471203.0 0
364654.0 472072.0 0
369982.0 467998.0 0
367058.0 470255.0 0
367901.0 473179.0 0
374377.0 469259.0 0
370989.0 471187.0 0
380304.0 469205.0 0
377465.0 471440.0 0
383690.0 468835.0 0
384920.0 472353.0 0
388471.0 470275.0 0
392590.0 468973.0 0
391639.0 472857.0 0
396143.0 471907.0 0
399867.0 469130.0 0
404991.0 470884.0 0
401961.0 471971.0 0
408891.0 471847.0 0
412515.0 469896.0 0
415400.0 468779.0 0
416211.0 471605.0 0
418983.0 470425.0 0
421736.0 471041.0 0
426041.0 470146.0 0
431503.0 470581.0 0
434441.0 469580.0 0
434481.0 472252.0 0
437991.0 469466.0 0
442585.0 471182.0 0
437845.0 472882.0 0
441136.0 472928.0 0
446356.0 469928.0 0
449683.0 471630.0 0
452895.0 472700.0 0
42232.3 476701.0 0
38918.9 478036.0 0
44547.0 474107.0 0
45963.1 476347.0 0
49926.0 475067.0 0
49160.4 478126.0 0
53229.4 475371.0 0
56327.5 474830.0 0
60090.3 474858.0 0
58015.0 477984.0 0
62083.8 478431.0 0
63418.4 474998.0 0
66800.5 476616.0 0
68156.7 473639.0 0
71030.5 475927.0 0
74441.2 475086.0 0
76193.6 478240.0 0
79331.3 475671.0 0
82579.6 474990.0 0
82844.7 478367.0 0
86122.6 476170.0 0
89423.6 474306.0 0
92841.8 474446.0 0
89702.5 477447.0 0
96538.8 475991.0 0
92709.4 477931.0 0
100325.0 476534.0 0
104864.0 474049.0 0
108194.0 475435.0 0
111245.0 477136.0 0
116848.0 476733.0 0
120946.0 473829.0 0
121527.0 477057.0 0
125069.0 475641.0 0
132300.0 473992.0 0
128692.0 477112.0 0
135644.0 473802.0 0
137381.0 476905.0 0
141152.0 474054.0 0
142681.0 477592.0 0
144796.0 474151.0 0
147181.0 476432.0 0
151964.0 476150.0 0
155484.0 477708.0 0
157299.0 474565.0 0
161082.0 475536.0 0
165023.0 474697.0 0
168884.0 474685.0 0
171216.0 476981.0 0
175177.0 475555.0 0
182680.0 472647.0 0
179618.0 475684.0 0
184026.0 476013.0 0
188136.0 476871.0 0
192866.0 474407.0 0
197787.0 477009.0 0
201680.0 474257.0 0
204994.0 473116.0 0
204821.0 476833.0 0
207289.0 474602.0 0
210267.0 473594.0 0
213505.0 476159.0 0
217418.0 474510.0 0
219841.0 477027.0 0
221862.0 472838.0 0
226192.0 473987.0 0
230229.0 474426.0 0
234615.0 474567.0 0
239677.0 474948.0 0
244075.0 472771.0 0
247326.0 474320.0 0
249316.0 477225.0 0
250477.0 473293.0 0
252826.0 476334.0 0
257306.0 475385.0 0
261255.0 476656.0 0
264917.0 475678.0 0
270075.0 475344.0 0
274373.0 473153.0 0
278364.0 474407.0 0
282650.0 476444.0 0
286281.0 473767.0 0
290305.0 476061.0 0
293448.0 473385.0 0
300247.0 472097.0 0
297225.0 474512.0 0
300283.0 476782.0 0
304791.0 475105.0 0
309674.0 473609.0 0
313478.0 476694.0 0
318340.0 475342.0 0
323838.0 474717.0 0
328619.0 475092.0 0
332533.0 473211.0 0
331756.0 477383.0 0
336527.0 473423.0 0
335969.0 477086.0 0
340514.0 475528.0 0
345719.0 475454.0 0
349343.0 476487.0 0
353684.0 475422.0 0
358002.0 474872.0 0
361588.0 474344.0 0
361374.0 478048.0 0
365370.0 476200.0 0
370946.0 475747.0 0
374356.0 473505.0 0
374825.0 477226.0 0
381187.0 473156.0 0
377866.0 475201.0 0
381087.0 477003.0 0
384493.0 476644.0 0
388197.0 474732.0 0
387935.0 477940.0 0
391698.0 477087.0 0
395587.0 476485.0 0
399713.0 474695.0 0
399591.0 477883.0 0
403357.0 475562.0 0
404971.0 473383.0 0
407279.0 475551.0 0
410653.0 476183.0 0
413283.0 473810.0 0
414022.0 477891.0 0
417052.0 476191.0 0
418646.0 473679.0 0
421927.0 474331.0 0
420536.0 478290.0 0
426507.0 474610.0 0
430577.0 473446.0 0
429830.0 478190.0 0
433706.0 475971.0 0
442491.0 475806.0 0
438404.0 476920.0 0
445713.0 473620.0 0
447742.0 476611.0 0
444944.0 478607.0 0
450294.0 474318.0 0
452106.0 477777.0 0
455095.0 475324.0 0
458371.0 477192.0 0
36262.4 481309.0 0
32329.7 483381.0 0
40182.5 480789.0 0
43063.6 479944.0 0
46219.0 479525.0 0
43697.3 483434.0 0
47174.1 482424.0 0
50073.1 481374.0 0
53402.8 478851.0 0
54236.8 482064.0 0
57953.8 482039.0 0
62271.8 482369.0 0
65748.3 479642.0 0
66375.2 483310.0 0
69387.7 479830.0 0
70040.4 483131.0 0
72780.9 479418.0 0
73360.9 482622.0 0
76268.8 481453.0 0
79907.1 479409.0 0
79059.8 483109.0 0
86261.8 479245.0 0
83570.0 482219.0 0
87271.6 482409.0 0
89507.2 480498.0 0
96418.8 479736.0 0
93061.2 481443.0 0
99970.7 480949.0 0
103122.0 482063.0 0
104207.0 478135.0 0
106557.0 481960.0 0
108311.0 478591.0 0
113358.0 478540.0 0
110855.0 481268.0 0
115331.0 482637.0 0
120092.0 480242.0 0
124784.0 480285.0 0
132655.0 477946.0 0
129098.0 480872.0 0
133879.0 481702.0 0
139044.0 480875.0 0
142932.0 481009.0 0
145430.0 479230.0 0
145615.0 482683.0 0
148891.0 479589.0 0
152964.0 480254.0 0
158678.0 478318.0 0
156429.0 480230.0 0
159009.0 481717.0 0
162410.0 479213.0 0
166964.0 478330.0 0
165034.0 482548.0 0
169945.0 481749.0 0
173531.0 478967.0 0
174061.0 482364.0 0
176723.0 478872.0 0
177723.0 481868.0 0
181088.0 479735.0 0
185097.0 479293.0 0
187987.0 481402.0 0
190907.0 479091.0 0
194005.0 479104.0 0
196757.0 481746.0 0
200228.0 480620.0 0
201674.0 478011.0 0
204255.0 481404.0 0
208700.0 478576.0 0
212674.0 480820.0 0
216898.0 479091.0 0
223367.0 477586.0 0
220700.0 481621.0 0
225064.0 482096.0 0
227650.0 478219.0 0
229255.0 482204.0 0
231898.0 478416.0 0
236289.0 478966.0 0
240773.0 480393.0 0
244836.0 477815.0 0
248331.0 481680.0 0
251589.0 479896.0 0
254956.0 480003.0 0
259028.0 479679.0 0
262922.0 479639.0 0
266927.0 479909.0 0
271633.0 480993.0 0
275080.0 477743.0 0
279359.0 479636.0 0
283569.0 481024.0 0
286672.0 478373.0 0
286919.0 482021.0 0
290764.0 480795.0 0
295120.0 477860.0 0
294667.0 482177.0 0
299239.0 481539.0 0
304817.0 480918.0 0
309019.0 477809.0 0
309460.0 481742.0 0
311918.0 479861.0 0
314461.0 480000.0 0
317189.0 479545.0 0
318906.0 482775.0 0
322360.0 479761.0 0
327276.0 478410.0 0
327219.0 482779.0 0
331189.0 481068.0 0
335227.0 480921.0 0
340208.0 480655.0 0
344222.0 478518.0 0
345314.0 482087.0 0
347646.0 479182.0 0
349841.0 482280.0 0
351699.0 479152.0 0
353525.0 482256.0 0
356820.0 479473.0 0
361172.0 482064.0 0
364910.0 481119.0 0
368819.0 479241.0 0
373042.0 480196.0 0
375757.0 481552.0 0
377959.0 479238.0 0
385722.0 480021.0 0
382338.0 480698.0 0
389820.0 481285.0 0
396922.0 479793.0 0
393700.0 480479.0 0
400376.0 482070.0 0
402797.0 478577.0 0
406497.0 479144.0 0
404739.0 482350.0 0
410608.0 479290.0 0
409169.0 482746.0 0
416874.0 480194.0 0
413697.0 481686.0 0
420457.0 482145.0 0
424496.0 479102.0 0
423812.0 482868.0 0
427507.0 480705.0 0
430627.0 481727.0 0
433824.0 479804.0 0
432980.0 482586.0 0
437812.0 481262.0 0
441796.0 479674.0 0
442423.0 482690.0 0
446169.0 481789.0 0
449267.0 480726.0 0
451225.0 483923.0 0
454333.0 481355.0 0
457293.0 479800.0 0
460332.0 481847.0 0
461835.0 479109.0 0
464990.0 480832.0 0
463034.0 482862.0 0
467867.0 483517.0 0
22956.0 488071.0 0
26122.9 486643.0 0
28774.5 484481.0 0
29922.0 487148.0 0
36487.8 486430.0 0
32475.7 487306.0 0
40075.4 483912.0 0
40414.8 487340.0 0
43249.3 486544.0 0
47828.9 486092.0 0
51463.7 484112.0 0
51820.4 488042.0 0
54984.2 485374.0 0
59464.6 486434.0 0
63836.3 486040.0 0
64696.2 488395.0 0
71834.3 486208.0 0
67845.7 487068.0 0
75592.8 485156.0 0
74385.9 488296.0 0
78393.5 487308.0 0
82214.7 486201.0 0
86684.2 485671.0 0
90115.1 483740.0 0
90217.6 486922.0 0
93198.6 485624.0 0
96581.3 484045.0 0
100858.0 484421.0 0
98308.7 488079.0 0
103352.0 484038.0 0
105635.0 484749.0 0
102994.0 486715.0 0
107054.0 487672.0 0
109437.0 484637.0 0
112527.0 486886.0 0
117296.0 486862.0 0
120643.0 483979.0 0
125034.0 484733.0 0
129318.0 484816.0 0
133144.0 485695.0 0
137258.0 484984.0 0
141641.0 484423.0 0
144805.0 487255.0 0
150247.0 484235.0 0
155367.0 483392.0 0
154332.0 487611.0 0
158591.0 485542.0 0
161594.0 483387.0 0
162962.0 487260.0 0
167370.0 485954.0 0
171900.0 487615.0 0
176020.0 485217.0 0
183957.0 483167.0 0
179794.0 484492.0 0
187380.0 486674.0 0
191988.0 483445.0 0
196151.0 486504.0 0
200215.0 484215.0 0
203640.0 486453.0 0
208559.0 484611.0 0
212660.0 484490.0 0
216589.0 484033.0 0
220605.0 486790.0 0
223845.0 485531.0 0
227356.0 485910.0 0
233137.0 482473.0 0
230742.0 485291.0 0
234204.0 486735.0 0
237203.0 483484.0 0
240875.0 484802.0 0
244392.0 483388.0 0
247733.0 487080.0 0
252313.0 484157.0 0
257003.0 483542.0 0
264150.0 483436.0 0
260684.0 482728.0 0
260402.0 486869.0 0
268455.0 484456.0 0
272908.0 485907.0 0
276099.0 482639.0 0
276769.0 486699.0 0
280765.0 484861.0 0
285292.0 485396.0 0
288830.0 484564.0 0
292545.0 485817.0 0
296680.0 484972.0 0
300271.0 486526.0 0
302347.0 484304.0 0
304373.0 486318.0 0
308087.0 485456.0 0
313856.0 484247.0 0
318225.0 487054.0 0
323095.0 485705.0 0
327817.0 487728.0 0
332793.0 485906.0 0
337625.0 484622.0 0
342614.0 486301.0 0
348026.0 485593.0 0
353225.0 485943.0 0
357127.0 484198.0 0
361060.0 485660.0 0
365542.0 485885.0 0
369497.0 483459.0 0
370039.0 487840.0 0
373978.0 484943.0 0
378857.0 483309.0 0
378570.0 487964.0 0
386145.0 483393.0 0
382713.0 484801.0 0
386364.0 487040.0 0
389998.0 485832.0 0
392936.0 484008.0 0
396155.0 483410.0 0
394633.0 488211.0 0
398480.0 486369.0 0
402601.0 486218.0 0
406946.0 485663.0 0
409663.0 485483.0 0
412570.0 485174.0 0
417253.0 484506.0 0
415236.0 488289.0 0
418541.0 488311.0 0
421678.0 486373.0 0
425683.0 486908.0 0
427426.0 484022.0 0
430752.0 485563.0 0
428769.0 488690.0 0
435240.0 484827.0 0
433074.0 488392.0 0
436770.0 488039.0 0
440090.0 485563.0 0
444483.0 485288.0 0
443681.0 488388.0 0
448015.0 485468.0 0
449907.0 488971.0 0
453397.0 487374.0 0
457454.0 484732.0 0
461733.0 485836.0 0
457778.0 488946.0 0
464455.0 484086.0 0
464880.0 486424.0 0
471628.0 485501.0 0
468328.0 488328.0 0
474738.0 486048.0 0
479654.0 489575.0 0
13419.4 493194.0 0
20271.8 490314.0 0
17128.3 493364.0 0
23499.5 491168.0 0
21743.6 493953.0 0
24689.6 493549.0 0
27457.9 490420.0 0
31350.2 490153.0 0
34222.8 490189.0 0
35646.3 493085.0 0
37777.6 490361.0 0
41196.2 490441.0 0
45059.8 489674.0 0
43387.4 493049.0 0
46599.8 493653.0 0
49116.5 490983.0 0
55892.2 489683.0 0
52561.0 492121.0 0
61770.2 489591.0 0
58776.8 491924.0 0
62450.0 493120.0 0
66390.4 491631.0 0
70549.7 489480.0 0
69849.1 492749.0 0
73137.6 491553.0 0
77256.1 490591.0 0
81282.2 489801.0 0
80219.9 493210.0 0
84921.1 488956.0 0
84401.3 492164.0 0
88880.5 490321.0 0
93532.9 489339.0 0
95628.7 492190.0 0
102686.0 490111.0 0
99031.5 492286.0 0
105940.0 491449.0 0
110141.0 490521.0 0
115653.0 490475.0 0
121298.0 488327.0 0
119424.0 492093.0 0
126292.0 488555.0 0
123723.0 491969.0 0
128254.0 492275.0 0
130505.0 488862.0 0
132528.0 492611.0 0
135061.0 488994.0 0
137247.0 492927.0 0
139630.0 488293.0 0
142343.0 491344.0 0
145973.0 491392.0 0
148194.0 492878.0 0
149184.0 489195.0 0
152662.0 492443.0 0
158583.0 490588.0 0
163384.0 491777.0 0
167003.0 490145.0 0
170136.0 492406.0 0
174285.0 492226.0 0
177480.0 488944.0 0
182317.0 487789.0 0
180575.0 491554.0 0
184461.0 491665.0 0
188572.0 491204.0 0
191923.0 488739.0 0
195475.0 491869.0 0
199818.0 489053.0 0
203319.0 491094.0 0
206211.0 489057.0 0
206181.0 492140.0 0
209597.0 490093.0 0
212978.0 487735.0 0
213893.0 492560.0 0
216667.0 488727.0 0
219532.0 492321.0 0
224686.0 489678.0 0
230271.0 489549.0 0
235282.0 490753.0 0
238543.0 487653.0 0
240279.0 491637.0 0
242900.0 487637.0 0
244903.0 490893.0 0
251761.0 488625.0 0
254310.0 491900.0 0
255593.0 487485.0 0
258340.0 490526.0 0
265051.0 487821.0 0
262403.0 491595.0 0
266516.0 491900.0 0
269719.0 489255.0 0
274834.0 491306.0 0
279658.0 489439.0 0
284180.0 490065.0 0
288677.0 488496.0 0
292739.0 490798.0 0
296317.0 488500.0 0
299431.0 489962.0 0
302776.0 489770.0 0
306957.0 490305.0 0
311165.0 488566.0 0
311229.0 492900.0 0
315598.0 490796.0 0
321394.0 490641.0 0
325128.0 490088.0 0
327926.0 492191.0 0
330987.0 490254.0 0
334281.0 490885.0 0
338071.0 489474.0 0
342668.0 491661.0 0
350402.0 488808.0 0
346473.0 489899.0 0
350382.0 492609.0 0
354194.0 490905.0 0
358131.0 488655.0 0
362449.0 488983.0 0
361765.0 492433.0 0
366392.0 491160.0 0
371604.0 492227.0 0
374155.0 489015.0 0
377080.0 492644.0 0
381509.0 491607.0 0
383043.0 488380.0 0
385875.0 490856.0 0
389713.0 489738.0 0
392791.0 492315.0 0
396767.0 493050.0 0
400117.0 490156.0 0
405374.0 489600.0 0
403896.0 492875.0 0
410254.0 488939.0 0
408748.0 493699.0 0
413863.0 492260.0 0
421213.0 489890.0 0
418302.0 492037.0 0
424512.0 490417.0 0
422130.0 492733.0 0
427578.0 492185.0 0
431721.0 491900.0 0
435957.0 491555.0 0
440170.0 489920.0 0
446725.0 488818.0 0
447205.0 491552.0 0
443994.0 492138.0 0
450671.0 492886.0 0
453617.0 491028.0 0
455992.0 491347.0 0
455021.0 494417.0 0
461548.0 489034.0 0
459579.0 492819.0 0
464632.0 489457.0 0
463754.0 492688.0 0
467074.0 492369.0 0
470186.0 491865.0 0
473033.0 489728.0 0
476683.0 488570.0 0
474025.0 493312.0 0
477523.0 493048.0 0
481881.0 491829.0 0
484806.0 492551.0 0
486904.0 494438.0 0
9254.79 496927.0 0
6260.11 498881.0 0
11780.7 495020.0 0
14033.7 497379.0 0
17822.2 497925.0 0
21103.8 497436.0 0
24839.5 496614.0 0
27949.3 494444.0 0
29036.7 498026.0 0
31925.5 493829.0 0
36177.1 496089.0 0
33122.1 497263.0 0
39582.9 493917.0 0
39274.2 497512.0 0
43239.2 496462.0 0
47148.9 496687.0 0
50505.4 494982.0 0
49632.0 498980.0 0
55159.2 494474.0 0
52905.6 497359.0 0
56219.8 498373.0 0
59183.7 495483.0 0
63746.0 496153.0 0
67461.5 495931.0 0
71431.1 495265.0 0
70033.0 497838.0 0
75517.3 494411.0 0
73532.4 498267.0 0
78392.5 497335.0 0
83745.6 496798.0 0
87828.3 494039.0 0
92153.2 493821.0 0
89029.6 497485.0 0
92780.1 497974.0 0
96885.9 496131.0 0
102390.0 494780.0 0
107285.0 494445.0 0
112176.0 494127.0 0
108837.0 497916.0 0
116859.0 495097.0 0
120838.0 495695.0 0
125689.0 496027.0 0
130295.0 496258.0 0
134244.0 496148.0 0
140675.0 495442.0 0
145053.0 495187.0 0
149238.0 496251.0 0
152955.0 497017.0 0
156358.0 495109.0 0
161071.0 496161.0 0
166471.0 494631.0 0
169072.0 497911.0 0
172432.0 495830.0 0
177908.0 493380.0 0
177044.0 497285.0 0
181322.0 494876.0 0
187210.0 496104.0 0
191300.0 492912.0 0
192705.0 496206.0 0
196578.0 495950.0 0
199945.0 493516.0 0
203922.0 495331.0 0
208954.0 494877.0 0
212628.0 496735.0 0
216303.0 496521.0 0
220292.0 497526.0 0
223960.0 494345.0 0
227684.0 492799.0 0
227860.0 496675.0 0
232144.0 494547.0 0
236622.0 494507.0 0
239813.0 496653.0 0
243705.0 494666.0 0
249198.0 492816.0 0
246543.0 497095.0 0
253438.0 496710.0 0
258881.0 495754.0 0
265170.0 496341.0 0
270151.0 494246.0 0
274219.0 497532.0 0
276925.0 495023.0 0
280380.0 493877.0 0
284974.0 495404.0 0
288987.0 493047.0 0
289088.0 497626.0 0
293617.0 495939.0 0
296897.0 492655.0 0
299473.0 497326.0 0
300508.0 492732.0 0
303806.0 493953.0 0
307666.0 495008.0 0
311266.0 496685.0 0
314648.0 496023.0 0
319184.0 495024.0 0
324635.0 494630.0 0
328459.0 495776.0 0
330731.0 498159.0 0
332011.0 494345.0 0
336106.0 493916.0 0
339636.0 493479.0 0
338701.0 496479.0 0
343080.0 496678.0 0
346470.0 494265.0 0
349807.0 495804.0 0
354366.0 496802.0 0
357997.0 493288.0 0
360398.0 497099.0 0
364100.0 495270.0 0
364206.0 498826.0 0
368383.0 496650.0 0
374329.0 496687.0 0
380446.0 494999.0 0
378387.0 497023.0 0
384482.0 494735.0 0
389210.0 494731.0 0
393579.0 496548.0 0
400816.0 495060.0 0
397546.0 497793.0 0
405635.0 496495.0 0
409927.0 498625.0 0
412570.0 496058.0 0
416669.0 496146.0 0
420643.0 496001.0 0
425057.0 495402.0 0
429754.0 495677.0 0
434970.0 496109.0 0
439654.0 493917.0 0
443007.0 495179.0 0
439698.0 498388.0 0
446690.0 494859.0 0
444273.0 498285.0 0
448000.0 498120.0 0
449865.0 496311.0 0
452848.0 496796.0 0
450935.0 499467.0 0
458074.0 496434.0 0
462536.0 496350.0 0
460234.0 499163.0 0
466879.0 496199.0 0
470721.0 494943.0 0
471264.0 498553.0 0
477240.0 497244.0 0
474469.0 496648.0 0
479774.0 495672.0 0
483354.0 496558.0 0
487207.0 498786.0 0
489444.0 496442.0 0
492456.0 499004.0 0
2599.69 499998.0 0
2064.79 502785.0 0
10723.9 500463.0 0
6000.19 501982.0 0
9159.6 503762.0 0
15812.0 501489.0 0
13145.4 504513.0 0
19990.2 501887.0 0
24686.6 501067.0 0
32040.2 500362.0 0
28743.8 501986.0 0
36386.5 500702.0 0
41694.8 500195.0 0
40309.2 503430.0 0
45700.8 500107.0 0
44117.2 503153.0 0
48571.0 502897.0 0
52645.3 500727.0 0
56388.1 502084.0 0
60549.6 499098.0 0
59782.6 502579.0 0
64519.5 499103.0 0
63727.4 503174.0 0
67453.8 499528.0 0
70557.7 499932.0 0
68701.2 502990.0 0
76394.3 500438.0 0
72812.9 502354.0 0
76799.1 503786.0 0
80777.1 501241.0 0
86198.8 500847.0 0
90566.2 501408.0 0
95489.3 501427.0 0
100137.0 499544.0 0
99298.3 503513.0 0
104604.0 498598.0 0
103053.0 502951.0 0
106690.0 501964.0 0
110455.0 501125.0 0
113830.0 498448.0 0
117998.0 499461.0 0
122578.0 499946.0 0
127800.0 500377.0 0
132820.0 500730.0 0
137512.0 498515.0 0
136767.0 502829.0 0
139670.0 501840.0 0
141978.0 499140.0 0
142835.0 502816.0 0
145948.0 499585.0 0
150689.0 501111.0 0
156067.0 499496.0 0
160133.0 502004.0 0
164950.0 499229.0 0
164513.0 503054.0 0
168548.0 502138.0 0
172871.0 500318.0 0
177464.0 502799.0 0
182093.0 499091.0 0
186408.0 500916.0 0
190603.0 500222.0 0
195246.0 499581.0 0
199851.0 498231.0 0
203570.0 501890.0 0
206258.0 498294.0 0
209668.0 499629.0 0
214030.0 500243.0 0
218020.0 501231.0 0
222426.0 502112.0 0
224190.0 498340.0 0
227071.0 500971.0 0
231342.0 499731.0 0
235557.0 498366.0 0
239043.0 501291.0 0
243240.0 499443.0 0
249642.0 497943.0 0
247326.0 502154.0 0
251674.0 501110.0 0
256352.0 501968.0 0
261895.0 501076.0 0
266441.0 501264.0 0
269904.0 499236.0 0
273723.0 502363.0 0
278361.0 497847.0 0
278377.0 502218.0 0
282377.0 502326.0 0
281855.0 498767.0 0
285687.0 500481.0 0
288861.0 500720.0 0
292430.0 501023.0 0
297187.0 502827.0 0
304806.0 498026.0 0
302558.0 502109.0 0
308940.0 498985.0 0
306692.0 501796.0 0
310438.0 502825.0 0
312981.0 499911.0 0
317718.0 500414.0 0
322496.0 498627.0 0
322517.0 502685.0 0
326932.0 499532.0 0
335142.0 498516.0 0
331827.0 502502.0 0
339975.0 500212.0 0
343829.0 500964.0 0
348205.0 499487.0 0
354225.0 502509.0 0
358235.0 500304.0 0
361364.0 501111.0 0
364140.0 501777.0 0
367240.0 501293.0 0
371976.0 501088.0 0
377745.0 501386.0 0
382536.0 499193.0 0
382481.0 502993.0 0
386674.0 502342.0 0
386807.0 498506.0 0
390385.0 499466.0 0
391007.0 503314.0 0
394429.0 500591.0 0
399116.0 501722.0 0
402228.0 498980.0 0
406466.0 500083.0 0
404043.0 503244.0 0
412021.0 501341.0 0
408971.0 503418.0 0
414636.0 499176.0 0
414095.0 501915.0 0
417132.0 502056.0 0
418958.0 499220.0 0
421060.0 502215.0 0
422962.0 499266.0 0
427532.0 499056.0 0
425554.0 502438.0 0
431785.0 498809.0 0
431123.0 502960.0 0
435569.0 500695.0 0
443059.0 501755.0 0
439611.0 502630.0 0
447330.0 501805.0 0
452148.0 502915.0 0
455791.0 499879.0 0
456632.0 504437.0 0
461371.0 503143.0 0
464365.0 499827.0 0
468007.0 499981.0 0
466544.0 503177.0 0
470761.0 502460.0 0
475043.0 500997.0 0
479808.0 500277.0 0
484490.0 501205.0 0
489595.0 501899.0 0
494128.0 502940.0 0
497068.0 500045.0 0
497693.0 504058.0 0
1753.43 505632.0 0
2629.65 509096.0 0
5827.59 505888.0 0
9828.98 507080.0 0
13987.6 508364.0 0
17975.7 506205.0 0
22721.1 505825.0 0
21177.6 509819.0 0
27135.9 505318.0 0
30361.2 508095.0 0
31832.9 504077.0 0
36292.4 506261.0 0
41793.8 506586.0 0
45482.2 505928.0 0
49409.9 507749.0 0
52800.7 504392.0 0
56095.3 505210.0 0
54773.3 508148.0 0
59143.7 505846.0 0
66424.4 506851.0 0
62475.1 507473.0 0
64615.7 509040.0 0
70879.8 506867.0 0
73817.9 505242.0 0
75547.7 508206.0 0
79881.8 506119.0 0
83573.8 504188.0 0
83520.5 508190.0 0
87748.1 505146.0 0
92433.1 504946.0 0
90164.1 508059.0 0
96517.5 506097.0 0
101497.0 507587.0 0
105858.0 506165.0 0
109262.0 504322.0 0
110352.0 508259.0 0
114290.0 503780.0 0
119421.0 504229.0 0
124803.0 504654.0 0
129839.0 504869.0 0
131266.0 508243.0 0
134102.0 505615.0 0
139244.0 506549.0 0
146568.0 503236.0 0
144457.0 506241.0 0
149327.0 506814.0 0
154673.0 504412.0 0
158336.0 507330.0 0
162302.0 505817.0 0
166574.0 506930.0 0
172343.0 505642.0 0
179472.0 506075.0 0
183169.0 504173.0 0
181080.0 508132.0 0
188387.0 504654.0 0
193396.0 503417.0 0
191871.0 507619.0 0
198224.0 502932.0 0
196091.0 507180.0 0
201145.0 507890.0 0
208024.0 503181.0 0
205712.0 506305.0 0
211217.0 503034.0 0
209860.0 507120.0 0
214859.0 505189.0 0
219420.0 505171.0 0
223236.0 506526.0 0
225996.0 504365.0 0
229825.0 504099.0 0
234721.0 503629.0 0
231853.0 507451.0 0
239054.0 505569.0 0
242727.0 504201.0 0
246058.0 506749.0 0
251276.0 505136.0 0
254784.0 505972.0 0
260128.0 505603.0 0
264937.0 505855.0 0
269125.0 507891.0 0
269679.0 503923.0 0
273163.0 506989.0 0
277466.0 506772.0 0
281180.0 505885.0 0
284822.0 504782.0 0
288715.0 503623.0 0
287941.0 507623.0 0
292611.0 506520.0 0
296847.0 507611.0 0
301238.0 506955.0 0
306637.0 506586.0 0
311461.0 506644.0 0
314565.0 504013.0 0
318889.0 505606.0 0
323292.0 507050.0 0
326979.0 504194.0 0
330441.0 506699.0 0
334559.0 507173.0 0
337005.0 503492.0 0
339659.0 508161.0 0
341634.0 504001.0 0
345579.0 503911.0 0
343992.0 507269.0 0
349562.0 503994.0 0
348005.0 507549.0 0
352418.0 507249.0 0
359141.0 503906.0 0
356886.0 507271.0 0
365484.0 504299.0 0
362374.0 504339.0 0
365767.0 507833.0 0
369701.0 505606.0 0
374435.0 505576.0 0
377668.0 505543.0 0
380574.0 505457.0 0
384484.0 505990.0 0
388290.0 506643.0 0
395757.0 504573.0 0
392376.0 507722.0 0
400807.0 506471.0 0
406067.0 507886.0 0
410017.0 507234.0 0
413657.0 504973.0 0
416158.0 508884.0 0
418572.0 505622.0 0
423139.0 506245.0 0
428044.0 507003.0 0
435962.0 504822.0 0
433047.0 507760.0 0
437513.0 508910.0 0
440122.0 506170.0 0
444086.0 505400.0 0
448879.0 505744.0 0
453059.0 506591.0 0
450853.0 509030.0 0
456205.0 508024.0 0
460362.0 507896.0 0
464971.0 506572.0 0
469778.0 506373.0 0
474244.0 508510.0 0
473914.0 505114.0 0
477916.0 504923.0 0
477857.0 508641.0 0
481873.0 504646.0 0
483109.0 509215.0 0
486953.0 505221.0 0
488703.0 509220.0 0
492412.0 505857.0 0
497301.0 507759.0 0
2503.07 513051.0 0
6834.37 510979.0 0
9741.88 513535.0 0
10673.3 510357.0 0
13123.1 512740.0 0
17021.4 510849.0 0
19385.0 513665.0 0
25675.0 509272.0 0
24086.8 514190.0 0
29112.1 512499.0 0
34239.6 510872.0 0
39588.9 510290.0 0
44310.8 509571.0 0
42511.6 513590.0 0
47579.9 512372.0 0
52085.8 511341.0 0
55488.2 512440.0 0
59006.9 509866.0 0
59587.5 514246.0 0
63072.4 511331.0 0
67855.7 510989.0 0
72180.8 510795.0 0
75536.8 512775.0 0
79556.8 510655.0 0
86907.2 509660.0 0
83510.3 512469.0 0
87643.4 513696.0 0
90147.8 510924.0 0
92520.4 513818.0 0
93154.2 509103.0 0
97126.1 510754.0 0
101689.0 512742.0 0
105779.0 510497.0 0
109970.0 513537.0 0
113039.0 510903.0 0
116212.0 508774.0 0
114751.0 513182.0 0
121462.0 509162.0 0
118542.0 513410.0 0
126923.0 509132.0 0
130328.0 513064.0 0
134772.0 509764.0 0
138708.0 511945.0 0
143906.0 510979.0 0
153784.0 509496.0 0
149313.0 512134.0 0
157733.0 512110.0 0
162270.0 510074.0 0
166504.0 512605.0 0
169820.0 509583.0 0
172373.0 512572.0 0
176661.0 509038.0 0
181240.0 512368.0 0
184745.0 508737.0 0
188253.0 509235.0 0
191493.0 512516.0 0
196705.0 512158.0 0
206074.0 511150.0 0
210107.0 511441.0 0
213183.0 510052.0 0
217304.0 509866.0 0
220556.0 508438.0 0
223164.0 510985.0 0
227557.0 508531.0 0
231641.0 511969.0 0
236287.0 509310.0 0
241958.0 509407.0 0
246188.0 510965.0 0
249262.0 508739.0 0
253333.0 509280.0 0
257496.0 508374.0 0
261738.0 509917.0 0
266365.0 510599.0 0
271129.0 511753.0 0
275873.0 510909.0 0
279847.0 510127.0 0
283968.0 509310.0 0
290277.0 511383.0 0
294986.0 511472.0 0
298677.0 510448.0 0
302132.0 511498.0 0
306008.0 511891.0 0
310411.0 510898.0 0
315385.0 509023.0 0
317414.0 512616.0 0
320208.0 510441.0 0
324221.0 511059.0 0
327287.0 508887.0 0
327571.0 513179.0 0
331328.0 510816.0 0
336084.0 512151.0 0
340738.0 513176.0 0
345777.0 512082.0 0
350914.0 510864.0 0
354553.0 510382.0 0
361623.0 508442.0 0
358249.0 511896.0 0
365704.0 511763.0 0
368766.0 509920.0 0
372944.0 510130.0 0
376532.0 512968.0 0
377850.0 508856.0 0
381864.0 508709.0 0
381203.0 512889.0 0
385877.0 510719.0 0
389565.0 510285.0 0
389297.0 513574.0 0
397098.0 509656.0 0
393081.0 512263.0 0
402211.0 511671.0 0
406989.0 511852.0 0
409730.0 510703.0 0
412520.0 509015.0 0
413249.0 512210.0 0
417363.0 512969.0 0
420751.0 510009.0 0
425225.0 510719.0 0
430033.0 511244.0 0
434859.0 512126.0 0
441933.0 509711.0 0
439613.0 513146.0 0
446625.0 509930.0 0
443921.0 514163.0 0
447790.0 514430.0 0
450698.0 512505.0 0
453669.0 510253.0 0
457347.0 511387.0 0
454309.0 514060.0 0
464294.0 510488.0 0
460872.0 512287.0 0
467675.0 509647.0 0
467633.0 513016.0 0
471273.0 510834.0 0
479186.0 511785.0 0
475381.0 512256.0 0
482793.0 513983.0 0
487310.0 513298.0 0
493063.0 510237.0 0
497427.0 512160.0 0
2080.56 516492.0 0
6616.94 515944.0 0
15503.9 515166.0 0
11292.3 516165.0 0
13657.3 518683.0 0
19106.7 518881.0 0
24727.8 518997.0 0
29150.6 517681.0 0
32985.6 515037.0 0
34960.3 518324.0 0
37481.9 514327.0 0
40095.7 517861.0 0
46278.2 517609.0 0
51519.5 514939.0 0
51376.3 519020.0 0
55630.2 516184.0 0
59705.9 518503.0 0
65295.5 516383.0 0
71125.6 514535.0 0
75418.2 517187.0 0
79823.3 515108.0 0
83979.4 516750.0 0
88875.7 517877.0 0
97320.6 515467.0 0
93654.6 518231.0 0
101351.0 517402.0 0
105470.0 515276.0 0
109254.0 518395.0 0
114142.0 517193.0 0
119083.0 517962.0 0
123972.0 514436.0 0
128157.0 517883.0 0
132166.0 517354.0 0
135097.0 514434.0 0
135819.0 518266.0 0
140880.0 516969.0 0
146053.0 515323.0 0
153433.0 514285.0 0
149657.0 516626.0 0
157236.0 516661.0 0
161690.0 514596.0 0
165310.0 517731.0 0
169302.0 516174.0 0
173116.0 517661.0 0
176819.0 514568.0 0
181063.0 517699.0 0
186159.0 513396.0 0
185655.0 518000.0 0
189352.0 516605.0 0
194099.0 517458.0 0
198026.0 516153.0 0
201512.0 513754.0 0
205551.0 516529.0 0
209294.0 514619.0 0
214624.0 515571.0 0
219575.0 513347.0 0
219498.0 517026.0 0
222920.0 515672.0 0
227060.0 513723.0 0
230545.0 516790.0 0
238871.0 513666.0 0
234882.0 515421.0 0
243808.0 515452.0 0
247684.0 517739.0 0
250426.0 514096.0 0
254878.0 518044.0 0
256345.0 513179.0 0
259522.0 517604.0 0
260197.0 513560.0 0
264117.0 514916.0 0
267920.0 513635.0 0
269229.0 517822.0 0
274590.0 515623.0 0
278841.0 514220.0 0
282011.0 512924.0 0
282199.0 516794.0 0
286059.0 514024.0 0
290752.0 516658.0 0
295414.0 515820.0 0
299090.0 514074.0 0
303307.0 515512.0 0
308747.0 516965.0 0
313870.0 514121.0 0
317919.0 516137.0 0
322685.0 515202.0 0
327308.0 517430.0 0
332300.0 516284.0 0
338114.0 517715.0 0
343772.0 517454.0 0
349995.0 514033.0 0
354258.0 514831.0 0
359454.0 516960.0 0
362297.0 513440.0 0
365772.0 516336.0 0
369652.0 513733.0 0
369809.0 517636.0 0
373768.0 516276.0 0
378259.0 516286.0 0
384879.0 514560.0 0
382277.0 517740.0 0
387482.0 517273.0 0
393190.0 517237.0 0
397565.0 514364.0 0
398203.0 518696.0 0
401105.0 516440.0 0
405515.0 515591.0 0
410234.0 514792.0 0
412213.0 518284.0 0
414312.0 515942.0 0
422490.0 514434.0 0
418487.0 516926.0 0
421606.0 518077.0 0
427340.0 514965.0 0
432058.0 515715.0 0
429882.0 518548.0 0
436905.0 516778.0 0
441717.0 517929.0 0
446777.0 518439.0 0
450750.0 516495.0 0
454519.0 517981.0 0
458786.0 515848.0 0
464131.0 515267.0 0
471312.0 515251.0 0
479163.0 514656.0 0
476096.0 516670.0 0
481224.0 518111.0 0
484961.0 516961.0 0
488873.0 518265.0 0
492706.0 514889.0 0
497391.0 516521.0 0
3341.2 520594.0 0
9203.1 520415.0 0
14057.9 522817.0 0
23153.8 522304.0 0
27331.2 522365.0 0
31917.2 521679.0 0
37220.5 522290.0 0
42755.1 522502.0 0
48753.5 523014.0 0
52195.4 522057.0 0
55262.6 520473.0 0
59154.5 523531.0 0
62813.2 521183.0 0
66616.2 522326.0 0
70768.7 519404.0 0
75062.4 521933.0 0
79888.8 520272.0 0
85104.3 521278.0 0
91539.3 520546.0 0
89247.2 522667.0 0
97504.4 520172.0 0
93872.8 523259.0 0
101302.0 521663.0 0
105091.0 520153.0 0
108420.0 523182.0 0
112013.0 521003.0 0
115890.0 521410.0 0
119648.0 522080.0 0
123526.0 520108.0 0
128209.0 522779.0 0
132677.0 520770.0 0
136604.0 522125.0 0
141500.0 522996.0 0
146121.0 519672.0 0
152987.0 518654.0 0
150107.0 522393.0 0
153438.0 521724.0 0
156935.0 521365.0 0
160959.0 518880.0 0
161430.0 523010.0 0
165330.0 522023.0 0
169392.0 520677.0 0
176794.0 518775.0 0
174352.0 521617.0 0
178529.0 522113.0 0
183660.0 522759.0 0
189505.0 521265.0 0
194048.0 522191.0 0
196755.0 520702.0 0
200880.0 519589.0 0
205669.0 521168.0 0
209757.0 519236.0 0
214390.0 522505.0 0
218243.0 519858.0 0
221899.0 519830.0 0
224199.0 522107.0 0
226231.0 518845.0 0
233649.0 520431.0 0
238550.0 518475.0 0
242119.0 520203.0 0
245972.0 520925.0 0
249507.0 523282.0 0
250716.0 520001.0 0
254343.0 522566.0 0
258982.0 522774.0 0
264004.0 520561.0 0
273471.0 519762.0 0
278316.0 520128.0 0
283230.0 523366.0 0
286139.0 519158.0 0
290516.0 522527.0 0
294525.0 519725.0 0
299644.0 519238.0 0
304840.0 521290.0 0
314124.0 518924.0 0
314709.0 523482.0 0
318967.0 520874.0 0
324170.0 520361.0 0
330054.0 521847.0 0
334533.0 520671.0 0
337992.0 523102.0 0
341632.0 521350.0 0
346193.0 522744.0 0
349693.0 518345.0 0
355257.0 520332.0 0
359670.0 521489.0 0
363199.0 519436.0 0
363407.0 523661.0 0
367524.0 521014.0 0
372361.0 520674.0 0
377261.0 520377.0 0
381421.0 521791.0 0
385386.0 521363.0 0
390367.0 521633.0 0
395646.0 522363.0 0
399585.0 521753.0 0
403557.0 520270.0 0
408673.0 519348.0 0
412313.0 522281.0 0
415731.0 519883.0 0
420029.0 520845.0 0
422479.0 523763.0 0
425312.0 519938.0 0
430157.0 522398.0 0
433652.0 519904.0 0
434295.0 523397.0 0
438315.0 521801.0 0
448006.0 522776.0 0
443847.0 521976.0 0
450953.0 520204.0 0
451885.0 524135.0 0
455196.0 521914.0 0
458295.0 519638.0 0
462227.0 519468.0 0
459769.0 523311.0 0
467617.0 518995.0 0
465010.0 523864.0 0
472778.0 520242.0 0
469951.0 523108.0 0
477548.0 521251.0 0
481559.0 522055.0 0
484898.0 520468.0 0
489010.0 523045.0 0
494002.0 520008.0 0
498278.0 520014.0 0
497894.0 523142.0 0
3692.17 526243.0 0
9585.28 525334.0 0
14410.2 528288.0 0
19044.2 524766.0 0
19420.8 528826.0 0
24118.4 526126.0 0
28985.1 526235.0 0
33861.4 526204.0 0
39405.2 527475.0 0
44939.0 526875.0 0
49815.8 528223.0 0
53933.9 525290.0 0
58321.5 528296.0 0
63291.4 525237.0 0
67033.0 527084.0 0
71095.0 524540.0 0
74827.2 525767.0 0
77760.3 524436.0 0
82181.1 525835.0 0
86749.7 525314.0 0
90451.7 526647.0 0
94523.1 527541.0 0
98586.5 525021.0 0
103849.0 525136.0 0
107904.0 527765.0 0
112593.0 524757.0 0
117215.0 525561.0 0
122702.0 525507.0 0
127939.0 528366.0 0
132928.0 524803.0 0
132971.0 529022.0 0
137459.0 526938.0 0
146113.0 524454.0 0
149519.0 527690.0 0
153775.0 525017.0 0
158150.0 526146.0 0
163221.0 527331.0 0
167736.0 525142.0 0
171598.0 524114.0 0
171182.0 528183.0 0
175721.0 526088.0 0
179986.0 525492.0 0
184249.0 528006.0 0
187735.0 525831.0 0
192342.0 526319.0 0
197912.0 525114.0 0
203065.0 524526.0 0
205474.0 527093.0 0
208909.0 524772.0 0
216674.0 528040.0 0
220042.0 523782.0 0
221319.0 527684.0 0
223901.0 525599.0 0
228352.0 523605.0 0
226522.0 528100.0 0
233106.0 525062.0 0
230570.0 528490.0 0
237587.0 524011.0 0
235371.0 528708.0 0
239994.0 528298.0 0
242454.0 524309.0 0
244230.0 528418.0 0
247021.0 525410.0 0
251557.0 525899.0 0
255793.0 526391.0 0
259884.0 527571.0 0
263922.0 525605.0 0
268536.0 523573.0 0
273675.0 523774.0 0
278369.0 525853.0 0
287246.0 526659.0 0
296228.0 524004.0 0
301117.0 524416.0 0
309820.0 523220.0 0
305574.0 525996.0 0
309041.0 528361.0 0
313285.0 527860.0 0
318450.0 527197.0 0
322034.0 524406.0 0
323623.0 528438.0 0
325952.0 524536.0 0
329360.0 528333.0 0
334042.0 525385.0 0
338212.0 528041.0 0
342303.0 525919.0 0
347549.0 528573.0 0
351554.0 524251.0 0
355999.0 524770.0 0
359608.0 525358.0 0
370726.0 524138.0 0
367264.0 526190.0 0
371546.0 528532.0 0
374683.0 524777.0 0
379252.0 525225.0 0
383137.0 524721.0 0
387464.0 525948.0 0
390400.0 528539.0 0
392590.0 526021.0 0
398715.0 524037.0 0
402078.0 524987.0 0
397576.0 528147.0 0
404835.0 528949.0 0
407634.0 524458.0 0
417477.0 525103.0 0
412696.0 526370.0 0
422658.0 527678.0 0
426613.0 525279.0 0
431626.0 526978.0 0
436611.0 526224.0 0
441529.0 526183.0 0
445908.0 525620.0 0
449511.0 527268.0 0
456236.0 526584.0 0
460862.0 527629.0 0
465374.0 528479.0 0
470031.0 527549.0 0
474377.0 524853.0 0
474749.0 529426.0 0
479405.0 525788.0 0
484214.0 524587.0 0
483102.0 528776.0 0
486951.0 527037.0 0
493859.0 524457.0 0
490525.0 527512.0 0
493940.0 528524.0 0
497526.0 527326.0 0
3225.89 532048.0 0
8547.72 529797.0 0
8045.55 533625.0 0
12364.4 532964.0 0
18292.5 532924.0 0
22427.3 529808.0 0
23510.1 533053.0 0
26519.6 529914.0 0
31212.0 530302.0 0
35509.9 530458.0 0
33737.8 534143.0 0
39193.7 533442.0 0
42924.4 530573.0 0
45116.1 533791.0 0
46553.2 530706.0 0
49803.1 533294.0 0
54154.6 530537.0 0
58780.4 533526.0 0
62777.8 529584.0 0
64188.0 534142.0 0
66918.9 530875.0 0
71343.6 529598.0 0
69292.9 534173.0 0
77230.4 529372.0 0
73995.8 533529.0 0
82301.7 530771.0 0
86629.3 529350.0 0
85424.3 533922.0 0
91558.0 531517.0 0
95838.1 533798.0 0
98441.2 529897.0 0
103475.0 529743.0 0
107434.0 533336.0 0
113125.0 529956.0 0
119063.0 529879.0 0
123380.0 530046.0 0
125887.0 532956.0 0
130797.0 533342.0 0
136816.0 532876.0 0
143262.0 529179.0 0
147523.0 531359.0 0
151153.0 532672.0 0
154527.0 529272.0 0
155449.0 533333.0 0
159271.0 530958.0 0
167220.0 529414.0 0
169957.0 532794.0 0
174669.0 531472.0 0
179721.0 529790.0 0
183984.0 532452.0 0
188668.0 530466.0 0
193760.0 530555.0 0
198056.0 530509.0 0
202451.0 528965.0 0
201638.0 532952.0 0
207717.0 529676.0 0
211788.0 528713.0 0
210748.0 533000.0 0
215340.0 533110.0 0
220163.0 532217.0 0
223951.0 530449.0 0
227745.0 532227.0 0
232527.0 532623.0 0
237347.0 533181.0 0
242449.0 532635.0 0
248667.0 529093.0 0
253302.0 530917.0 0
258274.0 531414.0 0
263193.0 530079.0 0
267694.0 528862.0 0
273551.0 529364.0 0
278345.0 530258.0 0
282723.0 529098.0 0
280360.0 533099.0 0
287584.0 531793.0 0
292590.0 528575.0 0
297997.0 528413.0 0
296275.0 532113.0 0
300477.0 532403.0 0
302139.0 528430.0 0
305704.0 531642.0 0
311280.0 532799.0 0
316122.0 531528.0 0
320673.0 532151.0 0
325892.0 533014.0 0
334466.0 530127.0 0
337757.0 533700.0 0
342280.0 531042.0 0
346453.0 533662.0 0
350809.0 532947.0 0
352766.0 528999.0 0
354973.0 532501.0 0
357385.0 528844.0 0
359565.0 533308.0 0
362832.0 529037.0 0
367449.0 530237.0 0
370284.0 532862.0 0
376776.0 529762.0 0
382854.0 529634.0 0
388268.0 530818.0 0
392657.0 530510.0 0
401462.0 532711.0 0
406832.0 533624.0 0
409998.0 529543.0 0
414963.0 529887.0 0
418961.0 529775.0 0
417790.0 533655.0 0
427220.0 529976.0 0
422695.0 532538.0 0
431370.0 531315.0 0
429111.0 533723.0 0
435730.0 530656.0 0
440544.0 530934.0 0
445483.0 530027.0 0
450000.0 531497.0 0
453535.0 529822.0 0
457791.0 531233.0 0
463012.0 532366.0 0
467762.0 531290.0 0
471515.0 532190.0 0
479079.0 530497.0 0
475793.0 533764.0 0
481904.0 534634.0 0
487597.0 532059.0 0
493768.0 532478.0 0
498005.0 531336.0 0
2017.02 536328.0 0
5916.54 536835.0 0
10416.4 537157.0 0
15121.3 536976.0 0
19870.0 537764.0 0
21583.6 535222.0 0
24087.6 537088.0 0
28466.3 534478.0 0
31881.4 537288.0 0
36373.7 537385.0 0
42891.6 537101.0 0
51368.0 537075.0 0
47471.5 537393.0 0
53874.3 534616.0 0
55714.7 538829.0 0
61487.7 538401.0 0
66694.0 538352.0 0
72140.5 537410.0 0
79556.4 535583.0 0
85038.3 539119.0 0
89375.5 536183.0 0
92980.1 535604.0 0
95889.1 538197.0 0
101116.0 534913.0 0
105190.0 538664.0 0
112235.0 535045.0 0
109659.0 538227.0 0
116554.0 534360.0 0
121476.0 534183.0 0
118979.0 538012.0 0
122707.0 538320.0 0
126943.0 537416.0 0
131543.0 538241.0 0
142514.0 535729.0 0
147307.0 534622.0 0
151118.0 537395.0 0
154666.0 536502.0 0
158874.0 536422.0 0
164412.0 533879.0 0
168545.0 538129.0 0
173072.0 536107.0 0
178693.0 535812.0 0
183215.0 535835.0 0
186960.0 536212.0 0
191958.0 534747.0 0
190398.0 539009.0 0
197726.0 536423.0 0
205923.0 534084.0 0
208681.0 538044.0 0
213653.0 537964.0 0
218220.0 536418.0 0
222174.0 536264.0 0
225917.0 536068.0 0
230576.0 537656.0 0
236320.0 538182.0 0
243563.0 538399.0 0
247979.0 533980.0 0
252400.0 536031.0 0
256772.0 535795.0 0
261326.0 534287.0 0
265923.0 533759.0 0
268386.0 538052.0 0
270610.0 533962.0 0
273886.0 538119.0 0
276610.0 533775.0 0
279670.0 537347.0 0
283769.0 534829.0 0
287549.0 536472.0 0
292351.0 535010.0 0
297806.0 536756.0 0
303171.0 535562.0 0
307428.0 536861.0 0
312178.0 537892.0 0
317379.0 536723.0 0
322996.0 537088.0 0
327586.0 537597.0 0
331513.0 534283.0 0
338252.0 538518.0 0
342447.0 536171.0 0
347685.0 538776.0 0
354079.0 537599.0 0
360518.0 538864.0 0
365278.0 534592.0 0
370391.0 537525.0 0
374533.0 534524.0 0
380077.0 535043.0 0
385772.0 534469.0 0
384019.0 538276.0 0
390655.0 534447.0 0
388600.0 538720.0 0
396072.0 534425.0 0
403408.0 537171.0 0
408179.0 538665.0 0
412643.0 534746.0 0
421085.0 537847.0 0
426168.0 535959.0 0
433059.0 535030.0 0
430038.0 539174.0 0
438306.0 535236.0 0
443642.0 534884.0 0
446265.0 539247.0 0
448561.0 535236.0 0
451104.0 539123.0 0
453959.0 534666.0 0
459160.0 535951.0 0
467942.0 534853.0 0
464070.0 537264.0 0
471573.0 535563.0 0
469749.0 538817.0 0
478398.0 537394.0 0
474261.0 537971.0 0
482117.0 540040.0 0
486210.0 537629.0 0
491545.0 536598.0 0
497561.0 535494.0 0
2722.39 540403.0 0
7816.11 541379.0 0
12752.8 540938.0 0
17278.6 541013.0 0
19656.2 544468.0 0
22909.3 541471.0 0
28258.4 539918.0 0
26426.3 543947.0 0
33723.7 540567.0 0
39840.6 540925.0 0
44842.4 540556.0 0
50350.3 541303.0 0
54466.5 543759.0 0
59237.0 543089.0 0
64412.1 542669.0 0
70644.5 541932.0 0
75402.5 539646.0 0
75526.3 544079.0 0
79876.7 541641.0 0
84109.4 544352.0 0
90842.7 541548.0 0
96264.1 542772.0 0
100504.0 540613.0 0
104847.0 543738.0 0
110377.0 543127.0 0
114464.0 539211.0 0
120589.0 542155.0 0
124772.0 541245.0 0
128753.0 541940.0 0
137126.0 540124.0 0
142836.0 540942.0 0
146903.0 539293.0 0
151326.0 542605.0 0
154215.0 539347.0 0
157622.0 541967.0 0
163218.0 539977.0 0
166965.0 543816.0 0
171358.0 542165.0 0
175157.0 540020.0 0
179225.0 542425.0 0
183158.0 539410.0 0
187250.0 541790.0 0
194194.0 541332.0 0
203555.0 539267.0 0
249467.0 539298.0 0
262901.0 539514.0 0
284376.0 540132.0 0
290061.0 539607.0 0
294190.0 539889.0 0
302517.0 540977.0 0
308489.0 541837.0 0
313478.0 542631.0 0
317907.0 541774.0 0
322220.0 541888.0 0
327046.0 541928.0 0
332792.0 540580.0 0
337885.0 542664.0 0
342411.0 541478.0 0
351589.0 543016.0 0
356948.0 543631.0 0
362770.0 543253.0 0
366066.0 540366.0 0
371199.0 543743.0 0
375152.0 539301.0 0
380127.0 540914.0 0
385278.0 542526.0 0
390405.0 543721.0 0
393812.0 539633.0 0
396620.0 542263.0 0
399155.0 539304.0 0
399559.0 544075.0 0
404005.0 542186.0 0
408983.0 543501.0 0
412452.0 539697.0 0
416433.0 539808.0 0
413655.0 543776.0 0
422518.0 542692.0 0
425453.0 539962.0 0
432961.0 544031.0 0
435450.0 539449.0 0
441484.0 539605.0 0
438547.0 543901.0 0
444698.0 544723.0 0
448727.0 542165.0 0
452800.0 544511.0 0
456042.0 539875.0 0
457982.0 544247.0 0
461053.0 540922.0 0
466021.0 541114.0 0
472703.0 541855.0 0
469207.0 544542.0 0
477398.0 541915.0 0
486374.0 542026.0 0
489614.0 540017.0 0
493922.0 540634.0 0
490752.0 543166.0 0
497920.0 539532.0 0
497788.0 543572.0 0
3805.66 545322.0 0
1208.5 548181.0 0
8188.06 547916.0 0
10781.0 544604.0 0
15121.6 545129.0 0
12758.0 549537.0 0
18621.0 549757.0 0
23516.8 546571.0 0
27915.1 549181.0 0
30831.7 544940.0 0
36252.1 545051.0 0
46023.5 544767.0 0
41161.1 545964.0 0
50884.3 546343.0 0
47456.0 549535.0 0
56869.9 547703.0 0
62239.3 547477.0 0
67576.1 546662.0 0
72089.1 546524.0 0
75522.5 548567.0 0
79518.7 546548.0 0
83186.6 549191.0 0
88681.9 547973.0 0
93903.0 546221.0 0
99894.4 545693.0 0
103878.0 549204.0 0
107944.0 547074.0 0
112075.0 548144.0 0
115873.0 544548.0 0
116845.0 549217.0 0
120407.0 546909.0 0
125294.0 545698.0 0
132579.0 544544.0 0
129551.0 547590.0 0
133802.0 548769.0 0
136695.0 545986.0 0
141229.0 545103.0 0
146161.0 544276.0 0
154846.0 546218.0 0
162028.0 545497.0 0
324741.0 546117.0 0
330087.0 546426.0 0
335342.0 545991.0 0
340254.0 545835.0 0
346729.0 544624.0 0
353591.0 547437.0 0
361018.0 546923.0 0
365883.0 544848.0 0
367729.0 548016.0 0
374201.0 548030.0 0
376999.0 545109.0 0
381817.0 546049.0 0
386643.0 547369.0 0
391270.0 548925.0 0
395285.0 545968.0 0
401236.0 548673.0 0
406078.0 547039.0 0
410872.0 547794.0 0
415650.0 548175.0 0
418442.0 544197.0 0
422322.0 547615.0 0
427254.0 544483.0 0
430777.0 548619.0 0
435785.0 548860.0 0
440591.0 548384.0 0
449180.0 549647.0 0
454878.0 549677.0 0
459390.0 548303.0 0
463822.0 545649.0 0
474091.0 545957.0 0
478499.0 546372.0 0
483124.0 545333.0 0
480893.0 549512.0 0
488296.0 546032.0 0
493829.0 545342.0 0
497566.0 548090.0 0
3866.94 550921.0 0
1349.39 554212.0 0
8879.51 552931.0 0
23881.6 551401.0 0
29670.6 554157.0 0
33061.9 549749.0 0
35281.8 554412.0 0
38149.8 549859.0 0
40881.4 554318.0 0
42987.1 549975.0 0
45437.9 553192.0 0
52651.5 551817.0 0
59559.2 552024.0 0
65598.8 551602.0 0
70929.7 550963.0 0
79055.2 551223.0 0
88938.1 552926.0 0
96884.0 549790.0 0
92656.0 551996.0 0
139169.0 550436.0 0
377937.0 550070.0 0
383081.0 550981.0 0
396655.0 550741.0 0
407745.0 552135.0 0
418958.0 551834.0 0
426689.0 549437.0 0
423923.0 552715.0 0
429324.0 553436.0 0
434827.0 554133.0 0
439905.0 552941.0 0
444020.0 550748.0 0
452723.0 553697.0 0
458543.0 553291.0 0
463980.0 551417.0 0
470223.0 550152.0 0
476312.0 550586.0 0
480343.0 553742.0 0
485707.0 550637.0 0
491949.0 550236.0 0
497910.0 552512.0 0
4844.13 555816.0 0
8456.43 557209.0 0
14526.9 555056.0 0
20965.1 555801.0 0
446467.0 554795.0 0
462451.0 556418.0 0
467885.0 555910.0 0
473528.0 555208.0 0
484359.0 555522.0 0
489042.0 554755.0 0
494511.0 554611.0 0
POINT_DATA 5000
SCALARS Radius float 1
LOOKUP_TABLE default
5120.0 5073.35 5415.48 3863.18 6182.6 2356.98 5258.36 5061.3 3163.97 3642.12 5812.43 5906.14 5254.28 5733.48 5580.89 6810.52 6110.27 5840.26 5670.04 4834.9 5085.53 4998.37 5351.6 5492.18 5867.73 3951.75 4499.64 5542.27 5122.66 7513.1 5484.19 4402.52 4436.4 4182.53 4672.91 5645.7 3588.44 5553.16 4366.19 3672.51 2938.66 4008.92 5561.06 6044.04 5484.83 4715.55 5538.89 6059.59 5013.56 4375.68 5054.98 6030.06 3557.27 5170.02 4688.68 4927.31 5185.34 4517.56 5903.42 3761.32 5176.86 4118.05 5065.13 4940.78 3615.22 4380.59 6716.79 3850.77 5546.39 5325.36 6759.9 4730.36 5926.61 5701.86 2720.68 4238.81 4955.55 4468.59 5200.76 5325.02 4862.64 5205.43 4432.58 6684.56 3955.56 5292.64 2635.86 6166.5 5936.02 5305.17 4231.61 3379.84 7613.27 4133.88 5945.65 5418.62 7021.47 5416.38 6051.14 5836.15 3563.63 4345.55 5885.03 2837.58 3653.41 5246.2 5017.13 3673.74 6116.18 3968.64 4385.06 4688.67 7184.19 4290.3 3942.53 4861.08 3607.45 4951.03 4094.62 6483.19 6230.49 5493.32 4601.27 4195.44 5740.68 3261.21 6704.06 5600.93 3871.88 3856.01 4827.23 4390.66 4911.47 7447.37 4924.6 4733.32 2924.37 2899.43 3867.67 4827.82 4003.05 3589.27 5759.91 4333.2 4665.12 3936.02 4927.02 4174.52 5109.54 7054.71 3641.64 5747.75 4277.89 5539.32 6496.85 5541.59 4124.71 5279.39 6337.56 5803.39 4381.97 3255.82 5242.73 2812.98 4065.69 5399.73 4805.87 4712.33 5227.21 3997.1 3260.67 3038.33 3383.4 5980.74 3856.1 3829.13 6458.82 5489.43 5054.25 4796.33 5360.19 4874.39 4839.34 5083.08 5728.85 3998.5 5525.39 5863.59 4024.3 6257.19 4737.14 5603.15 5390.22 4660.72 6038.78 5123.52 4295.38 4780.03 4044.71 5816.2 3091.3 5789.98 5527.54 5573.7 7325.81 4055.8 4794.96 6186.19 2980.99 4840.01 6834.49 5938.34 5555.28 6394.38 4686.65 5169.36 4695.45 5834.74 5556.96 3888.21 5697.78 4667.36 4392.68 5495.39 3554.9 4487.31 3996.0 4002.16 5693.81 4138.16 2540.31 6029.66 6138.47 5697.4 4727.62 5206.78 6425.26 5143.58 4484.76 5611.2 7933.0 5173.87 4455.12 5380.13 5118.27 5932.23 5788.23 6052.7 3921.18 5891.05 6902.81 5529.52 5252.48 4015.92 4778.34 4684.5 5120.49 6302.8 4005.44 4270.95 5555.88 5280.17 5028.96 6362.12 3866.16 5152.36 4220.65 5826.64 6820.42 4894.16 5711.87 4896.52 5791.61 5581.75 3798.62 3666.57 4254.17 5615.42 4091.31 7199.21 6124.89 5708.81 5043.05 3486.22 5409.61 4414.54 5262.61 6038.2 5713.22 6732.43 3183.98 4524.28 4511.82 3778.1 4727.24 4816.2 6959.81 6321.41 4941.22 3372.79 5282.64 4479.66 6392.01 6644.76 6372.62 4523.7 5255.32 5337.48 5542.21 5481.78 5924.89 4937.14 6894.71 5201.36 5094.81 4306.53 5972.06 5861.71 5017.78 3794.63 5015.69 6175.81 6677.09 4829.35 5813.4 4089.76 4751.02 5184.56 4715.72 3369.13 5367.2 5308.1 6730.19 4937.02 7565.34 5637.59 3103.0 6084.86 3307.12 4467.94 5551.36 6038.14 6135.57 5998.38 4312.67 4359.04 4270.24 4947.52 4989.15 4520.1 4305.57 3791.79 5201.67 5526.55 4754.05 3192.41 6084.93 4987.87 3315.57 4669.66 4808.52 3043.85 5461.13 4907.89 5629.19 6037.08 4049.23 3586.91 3115.91 5478.92 4933.21 4850.81 5094.44 5375.47 4723.12 5024.9 5659.17 4717.05 4562.29 5423.8 4164.13 3417.33 4926.42 4642.34 5153.74 5874.89 4165.81 4293.03 4424.7 4951.47 4925.44 5246.61 5215.15 4764.96 5607.24 4726.76 3599.45 5655.21 5090.24 5091.39 6756.95 4929.8 5601.05 4382.74 4948.92 4516.43 4749.8 5810.84 3748.24 4655.49 4809.42 4566.18 5856.11 5287.2 4234.94 4109.88 5013.13 5080.66 5110.45 5248.77 4528.09 3556.85 3895.51 4389.21 4128.98 6291.51 6246.22 4307.28 5046.33 5804.71 5053.92 5020.12 6352.26 5839.13 3735.44 5923.5 4073.93 2240.39 5096.78 6324.23 4727.24 4651.28 4384.42 4493.48 4362.19 4230.54 5082.6 6163.38 4964.09 3459.9 4093.08 5543.27 4980.85 3327.49 3960.8 5714.58 4923.9 3329.99 4973.78 4083.97 5208.32 4607.02 6673.96 5174.89 5882.89 4188.32 4100.38 5538.93 5727.3 3847.38 4242.52 4907.06 4645.41 4786.6 4433.59 5740.84 4612.68 6355.42 5690.56 3693.63 3937.74 5478.47 6061.47 4997.27 4449.22 5628.24 5992.26 5070.39 4613.31 3947.47 5091.68 3296.27 4713.25 6243.0 5441.96 4288.3 5370.52 5774.81 4739.42 3697.96 4899.11 4278.07 4745.45 5356.51 3818.59 3057.03 5495.68 5163.9 4973.83 5530.87 3912.37 3320.52 4310.18 4151.94 5927.43 5244.78 5762.84 5119.37 6142.37 3982.23 5806.08 5243.29 4853.39 5365.89 3130.65 4511.54 5004.67 5409.33 5196.0 4204.84 6119.09 5069.25 5048.89 3161.47 3435.9 3991.03 4652.29 4495.87 5344.77 4723.48 5027.98 5097.87 5281.28 4863.72 2631.9 4087.15 4143.08 5489.34 6043.3 5952.75 6445.94 4281.49 4129.43 4320.28 5293.9 4685.34 5492.26 4220.88 6640.13 5351.39 4583.31 4336.42 3402.32 7589.94 4466.03 4178.15 4898.94 7531.29 4733.04 5935.03 4755.47 6390.78 6826.57 4788.87 3746.31 5346.27 7267.18 4758.21 5002.48 5708.14 4262.82 5537.72 6342.25 6142.94 6327.9 6519.71 3092.35 3629.96 4714.54 5210.03 3320.11 4306.11 6022.17 4503.89 5903.66 5419.37 5985.29 4528.49 4247.23 4268.65 4694.83 5788.66 3903.75 4485.99 5475.8 7435.25 5543.46 5498.32 6475.1 5527.33 2691.29 6255.18 7500.97 3920.42 6332.36 5542.14 4218.06 4931.53 3843.58 6082.81 3191.99 5449.18 5367.52 4048.37 5030.91 5507.24 6851.54 5935.47 5313.66 2651.49 5275.32 5512.23 4649.22 5509.42 4354.08 5936.36 4520.62 5475.7 5229.48 5314.69 5127.16 6050.81 4249.46 4244.99 6022.72 4643.31 4969.21 6917.52 6256.02 4277.88 4668.71 7228.46 6623.85 8332.24 7134.64 6691.39 4602.25 4329.05 5110.37 4931.38 5664.98 4659.59 4322.15 5025.39 5101.59 4377.07 3813.22 3848.93 5570.3 5234.29 5349.31 4711.62 4114.24 5394.55 2976.22 4256.43 2682.24 5928.32 4016.18 5415.19 5526.75 5435.74 5560.26 5965.81 2330.66 3702.37 4177.19 3691.0 5402.21 2845.98 4880.14 5320.92 3948.23 5102.36 5228.18 5787.31 6122.55 5480.13 4736.58 3485.26 3240.09 4556.36 3369.23 4548.16 3688.8 3817.13 5893.5 3695.36 4547.19 6020.48 3963.86 5076.35 5200.05 4091.8 4645.58 5670.2 5181.4 5094.52 5166.79 4946.74 5996.33 3950.63 4612.62 4275.57 3619.07 5327.45 2983.99 6185.89 4750.17 5660.85 3990.25 3758.07 4752.51 4989.09 3587.05 6362.14 6719.88 5978.82 4342.9 5978.9 2739.94 4790.08 4270.53 4194.5 4792.73 5513.6 5264.06 4901.41 4515.71 5358.59 6202.55 5023.15 3844.9 6375.99 5273.35 4662.56 6259.23 3457.48 5417.15 3405.98 3688.16 4681.72 6631.19 5661.62 4467.04 5817.25 6385.23 3997.96 2614.4 3460.94 4439.35 4373.45 6184.4 4982.31 6229.37 5269.18 4406.1 5065.11 5034.59 4553.56 6155.31 6308.71 4223.33 5911.67 4187.56 5082.47 4840.84 5191.63 4501.51 5138.31 4551.24 3610.4 6387.01 7111.16 4871.44 4564.34 3838.56 6248.81 4853.02 5088.44 4998.21 3931.07 7440.72 3949.6 4945.39 4867.08 5626.61 6648.68 6363.92 5407.78 6205.93 3828.81 5830.72 5309.98 5289.52 6718.19 5314.85 4307.48 4305.43 4942.77 5450.44 3927.99 5069.84 3629.62 5329.64 3323.28 5344.25 4997.27 5987.17 6013.14 5925.6 5379.87 3708.04 4602.86 4581.13 3856.59 4621.75 4219.07 6338.89 5584.06 6480.17 6445.22 4962.77 5872.05 4256.67 5323.3 6079.11 3082.32 6430.39 4765.02 5376.71 5703.6 4448.13 5070.29 6326.18 4266.03 4713.74 5061.98 4923.24 6632.99 4537.6 4419.61 7177.44 4082.57 4236.14 3848.54 4407.87 5080.18 5941.4 4263.33 5266.5 5868.82 4051.44 4716.19 4301.06 4050.9 5344.0 5135.69 3456.98 4593.7 6045.46 4763.45 4478.15 5681.38 4043.57 4138.42 5011.31 3979.82 5006.58 5586.81 2765.2 4746.52 5572.95 5413.79 6723.16 5372.61 5402.24 3686.21 5013.42 4519.22 5210.48 5651.07 6101.92 4635.6 6239.84 4427.28 5370.85 3658.37 3178.54 5629.39 6157.04 4768.61 4807.28 5075.55 2261.36 4220.03 4084.49 6179.96 5703.07 5147.36 6260.79 4563.46 5169.9 5282.91 4425.84 6510.17 4871.96 4454.63 4066.38 5742.65 6695.82 6049.55 5514.76 6405.76 4290.14 4877.67 5835.78 4150.99 4020.32 3815.26 5445.87 4216.92 4571.7 4107.03 3970.25 3771.48 5198.77 5643.58 4292.06 5147.67 5577.04 4481.53 6318.18 5077.33 3948.17 3824.16 5330.45 5045.38 3689.45 3868.18 4959.34 5130.91 4948.5 5383.07 4527.02 4247.15 4531.14 4602.85 7552.94 3627.55 4051.34 4409.63 5521.25 5865.39 5949.46 3661.9 3776.94 2684.03 4010.57 5246.47 6191.29 5280.69 4522.21 5506.19 6923.84 6719.94 5449.46 6166.29 4950.67 6113.54 4662.43 3963.76 4043.66 5733.62 6553.94 5282.51 3797.33 3004.16 5331.02 7256.35 4800.69 5592.32 4523.88 3279.1 5709.62 4241.89 4978.31 5054.74 4099.77 5941.72 3498.2 4245.72 6562.18 5794.24 4704.72 5908.1 4541.21 4177.94 4344.58 5896.46 4502.5 3929.19 5922.5 4271.69 4850.01 3633.87 2775.04 3821.72 4810.12 5215.05 4138.46 6035.6 4986.77 5137.34 5423.0 5125.78 6034.41 5350.88 5452.83 5178.99 4790.78 4591.87 6422.84 6552.22 5379.09 7644.38 6004.68 6799.4 5278.36 5107.23 5533.42 5136.08 5558.68 4187.31 4599.38 3240.51 7422.36 5161.01 5227.59 4628.4 5453.6 5294.77 4709.05 5528.53 3077.84 4630.82 5255.18 5726.66 5460.65 4460.92 5945.89 4767.78 4042.28 4105.55 4863.23 5912.61 4402.67 5381.16 4948.98 4403.98 4981.9 4414.48 4560.84 4127.74 4537.32 5163.02 3066.13 4302.5 4156.38 2476.04 6048.7 6006.16 6009.88 4742.68 5634.83 4164.68 5495.84 6268.1 4862.21 5499.11 5113.21 4374.35 5347.48 6396.74 6898.19 5526.14 3627.82 5198.29 3975.31 4044.45 5262.19 5344.43 6070.58 4373.47 5022.28 5197.52 5615.35 4027.09 4135.62 5801.99 4860.33 4502.18 3685.13 5534.94 3312.06 5180.76 3361.26 4993.35 6218.95 5222.16 4690.55 5533.72 3678.08 4802.32 5518.57 5463.48 5730.33 4527.99 4543.1 4298.15 4376.7 5190.61 5832.37 6051.83 5409.63 4642.93 3973.12 4263.16 6024.75 4813.08 6799.88 5860.67 4540.86 3062.43 5426.78 5235.17 6566.1 4435.36 3555.86 6065.22 5565.13 6386.78 5227.52 4470.61 6193.35 6086.96 4729.43 4656.78 4092.24 5991.09 5105.16 4678.38 5126.91 5050.65 5448.61 5316.75 4827.33 5022.8 3784.5 7055.53 6133.92 3719.84 4178.4 7034.11 5782.6 2586.12 6261.42 6125.34 4011.77 5965.78 5252.34 4527.08 2965.79 4287.63 5776.37 7099.43 5315.4 4516.28 6449.45 5678.96 4244.9 4285.32 6048.86 6894.26 5490.43 4986.51 6169.11 5339.38 5172.53 4896.11 4318.48 6132.95 5266.22 5226.97 5754.18 3418.99 5132.68 4480.95 6595.03 4983.39 4558.15 5366.52 5417.8 5146.37 7132.12 4836.16 5151.11 5680.94 5581.55 5545.46 5193.01 6550.44 8325.01 3764.06 4440.81 5941.9 6642.76 6109.49 5987.42 5990.52 2967.38 5652.0 3764.1 4340.76 5463.41 4779.5 4421.12 4929.75 5254.49 4996.99 4221.28 4456.39 4631.83 4384.88 3701.27 6887.27 5233.78 4562.74 6008.49 4806.34 5776.57 3942.07 5133.97 7443.72 3937.08 6600.94 5371.02 5513.57 5013.67 5729.23 5669.65 5934.22 3780.23 4359.62 3471.03 5011.84 5253.55 5820.48 5062.71 6946.21 5975.63 4274.61 5433.8 4410.55 6314.07 3921.08 4190.31 7055.42 5486.68 5683.61 5100.25 5805.86 4049.02 4470.4 5311.03 5255.12 4285.66 3872.61 4238.4 3930.79 5365.24 4004.35 4763.96 5293.51 4446.06 5008.63 3450.93 4270.74 6293.89 5737.75 2761.07 3778.02 6552.21 4350.12 5227.02 3603.51 5670.0 4232.16 5300.96 4344.51 3781.77 3834.43 4707.06 5491.37 3474.5 3860.83 6348.03 5732.27 4523.39 5434.47 5829.22 6917.62 4497.78 5567.93 4243.79 5811.18 5332.65 6451.33 4835.83 5604.35 4159.35 5225.33 4237.98 6045.22 6439.37 6649.96 4614.3 4896.39 3633.79 6081.14 5480.83 5421.53 7144.24 5653.9 3600.43 5683.26 5598.74 4906.82 5131.24 4788.58 5260.34 5206.48 6155.1 4709.35 6586.45 5876.71 5826.04 5624.49 5339.78 3095.48 3745.84 4730.41 5188.81 4203.26 5696.88 5690.26 4004.04 6057.22 4156.2 4289.17 6072.45 4497.59 5564.02 6444.77 4470.98 5083.41 5759.46 6248.6 5443.58 3836.45 5346.68 4558.46 5020.71 5296.29 5997.88 4611.53 5094.48 2681.29 4360.23 5576.92 6408.83 4585.31 4586.19 6625.18 5323.91 5097.45 4047.87 4185.61 5742.47 4917.99 4367.78 4095.75 4298.45 3319.67 5222.51 4076.59 6609.84 5135.96 5164.1 5658.37 6074.94 5699.53 4250.88 3783.54 3475.67 4792.39 5278.56 5146.37 5631.14 6137.8 5433.65 4442.22 4887.76 6477.91 5413.31 3012.99 3091.67 6316.56 4081.97 4332.87 6420.81 4303.19 5401.99 5514.84 5134.39 4256.57 4607.85 5784.3 3914.2 4220.46 4287.53 6088.68 5937.08 6070.3 5612.21 5046.21 5894.61 4929.14 5687.83 5196.67 5004.23 6496.67 6442.69 5474.8 5226.0 6320.71 4648.04 4373.3 4750.78 4166.08 5029.78 5762.59 4861.06 4298.67 5960.66 5873.69 3979.26 6608.73 4962.09 3999.48 3923.03 4643.85 5411.85 5082.74 3999.94 5607.14 6915.83 4844.57 3901.8 4027.46 4864.22 5511.88 5941.61 4512.11 4933.65 6098.1 5708.99 6333.29 5687.85 6401.43 4558.47 5731.57 5662.55 5737.92 5839.71 3755.95 3056.7 5591.76 6234.32 5889.35 5010.04 4394.56 4570.98 5388.78 4275.07 5825.38 4573.72 5099.21 4163.74 6969.28 5636.4 6471.42 5283.8 4428.14 6464.15 4972.17 4479.11 6685.4 4222.77 4850.06 5268.38 5527.23 7038.89 4805.33 4814.12 3863.67 5980.95 4013.38 5067.56 3352.35 4343.78 2735.53 5263.3 4008.15 4909.65 4669.06 4811.32 6400.08 4743.59 4715.58 5208.14 3317.83 5580.92 4450.7 3532.3 5769.98 2221.99 3583.21 5442.32 4135.08 4643.56 5067.46 5128.57 4863.01 5620.74 6000.7 5945.08 5604.21 5139.5 3979.54 7493.3 5304.13 3527.05 4814.55 5833.06 6262.72 6607.87 3664.11 3365.82 4163.5 6481.79 5374.51 4123.6 5320.28 7092.87 4569.12 6098.14 4796.58 5750.71 6222.42 4472.17 5654.31 5470.77 4831.47 6062.05 6939.12 4735.33 4413.85 4406.4 6853.85 6171.13 4020.4 5092.37 2395.5 3374.08 3497.9 5782.48 4031.78 5950.04 2435.33 4074.48 4231.83 3614.96 4477.04 3886.68 4745.43 5703.74 4747.55 5831.96 5464.68 4539.07 2685.81 4510.8 4475.83 7509.24 5896.26 4587.67 5951.81 6101.13 5599.7 4296.69 3665.95 6238.32 5698.96 6804.79 6372.13 5369.5 5404.01 6016.19 4124.49 5535.91 3230.13 5714.25 5325.96 5412.24 6332.01 5016.02 7044.29 4234.18 7085.01 3936.95 6193.08 6069.3 5887.01 5168.35 6523.86 5116.6 3747.03 2783.85 7693.4 4286.49 4437.07 6184.88 5829.32 4396.25 3763.05 5151.52 5973.33 5092.24 4347.74 5369.08 4518.04 5291.9 4009.62 3580.58 5356.79 5233.29 4011.37 3169.67 4968.03 4312.56 4612.06 5204.04 3361.92 3306.14 5944.09 5490.58 5698.77 4863.79 4702.06 6515.84 5117.47 4143.78 4538.95 5724.64 4970.88 5224.12 4850.14 4763.66 6739.08 5463.38 3637.61 4471.58 5945.21 6313.06 3493.7 4938.74 6345.13 6470.3 4200.03 3474.39 4719.7 5516.95 5313.22 5328.22 5563.79 4151.76 3905.51 4721.02 3493.47 3546.71 4254.37 4596.75 4188.87 5768.57 4498.25 5564.23 3735.24 5151.21 5398.64 6574.95 6817.57 4568.41 6853.04 3624.7 3420.08 4912.04 4691.91 4255.34 5064.79 5480.3 7046.11 3427.63 4146.81 6342.48 5756.75 5093.82 5212.43 3924.14 5454.12 6918.35 4834.3 6348.54 4066.57 5642.35 6357.47 6101.57 4891.38 4793.65 5955.86 2949.12 4532.89 6176.67 4533.37 4848.46 2779.99 5887.38 4581.37 4049.16 4920.21 6942.34 5851.61 3658.05 5478.11 6153.94 6836.82 3862.77 3858.17 4631.99 5388.39 4356.49 3728.18 4326.48 5335.47 4526.81 3449.37 3994.07 5491.9 4219.94 6405.0 5551.95 4264.91 4659.16 3918.87 5549.49 4766.06 3101.75 5423.42 4874.18 2511.46 6605.86 2081.58 2775.69 4778.82 6505.78 5657.36 6124.08 5467.84 5029.47 3619.79 4750.58 5876.64 5395.14 6710.88 3967.48 2477.07 3464.83 4923.41 6213.04 2990.77 4925.63 4497.31 3163.78 5965.15 4888.6 4305.16 3293.56 4666.81 5882.65 5078.86 7042.12 4780.2 4797.52 6326.39 6643.85 6343.14 5501.93 4020.95 5462.21 6049.79 5374.98 5274.19 5226.56 5599.49 4050.08 4097.57 5017.5 3436.15 5005.85 5711.11 4216.17 4575.94 5102.75 6484.17 5021.88 4938.72 5956.65 4597.29 4200.09 5931.77 5108.06 4222.4 4693.52 3573.73 4000.43 4661.03 5160.59 4320.42 5262.35 4281.98 7165.9 5344.83 4701.5 4863.97 4449.98 4771.65 5589.37 4840.44 5439.49 6639.64 3687.65 4887.52 5478.95 3851.85 6318.23 4206.98 5156.76 5174.75 5932.07 5948.71 3856.53 5460.89 6040.74 5742.09 5260.85 2884.65 5393.65 5807.46 4648.21 4393.16 4595.12 3311.29 4549.69 3110.13 5526.31 5030.15 3477.1 3644.78 4078.93 4740.98 3185.39 5934.82 5128.77 5633.61 4243.26 5048.19 6799.23 5907.46 4153.84 4888.27 6740.71 5399.29 5789.55 4633.05 4901.2 2275.45 6522.59 5012.5 4785.25 6519.43 4270.15 5053.95 3298.2 6306.21 5926.11 6667.68 5235.11 4721.32 5211.38 3830.46 6031.67 6413.11 5092.28 4739.14 4918.77 4636.5 5163.55 4819.73 3382.7 6817.32 6471.55 3954.91 5085.71 5923.4 4319.79 6263.44 5960.56 5122.63 5774.97 5862.86 2315.64 4390.41 4703.08 4890.5 6113.95 3981.07 4901.07 5452.42 5186.3 5966.61 4893.49 4514.79 5325.44 4834.87 3672.21 5760.22 5938.17 4795.43 5097.95 2928.82 5313.12 4914.45 4698.87 3984.88 5351.56 3344.57 5318.53 5220.76 4732.09 6945.98 5783.48 5138.2 7001.83 4504.35 5012.97 4349.13 4036.91 5110.11 6379.14 5216.26 3634.5 6631.28 6571.31 4392.65 4058.87 6413.15 6103.11 5048.55 4984.46 4024.31 5844.72 3992.97 4147.31 5989.05 4054.22 7228.94 4441.22 4961.99 5853.89 6551.93 4386.8 6484.43 6423.81 4625.67 3485.54 6192.77 4312.15 4583.52 6418.11 4501.78 7122.87 4922.49 3572.94 5797.36 5001.58 4820.17 5119.86 4592.15 6487.56 5084.17 4854.11 5971.22 4901.44 4998.22 4909.31 5533.19 5711.62 5417.21 5435.19 4383.56 5461.55 7093.13 3562.79 4990.79 6865.76 5424.46 5253.37 5266.01 6515.8 5767.9 2040.66 5384.76 5529.42 5274.14 6138.12 5257.12 4434.19 4428.78 4903.82 5100.1 4940.42 4965.89 4371.99 3703.1 5746.28 4946.42 5187.7 4623.61 4082.47 5409.66 3561.29 3295.83 5203.08 2965.01 6413.02 6235.57 5412.31 4863.27 3492.19 4584.5 4118.84 6766.43 3623.87 5916.16 6934.37 4488.85 3423.15 3731.84 4579.69 3554.48 5010.2 6123.03 6496.52 4997.83 3991.42 4388.63 3718.69 6192.0 4940.28 2216.82 4509.89 5885.28 6752.75 3004.34 5269.38 5607.3 3022.6 5375.1 4811.76 4172.6 5498.42 4638.18 4196.37 6448.66 5806.31 3556.79 4453.97 7317.04 6412.67 4482.9 4593.7 3766.69 4891.67 5513.8 6818.91 3503.65 4521.75 4027.63 3429.57 5569.2 5350.88 5420.67 6735.97 5305.59 5416.45 6459.51 4330.58 5754.6 4955.16 3288.01 4904.51 2202.77 5751.15 5950.88 4149.55 5474.01 6201.86 7554.58 3380.69 4140.4 3639.44 5446.4 4725.01 5966.75 4458.64 5510.9 3657.69 4883.63 6015.02 3492.83 5244.22 5585.14 7039.98 4729.42 6456.58 4159.81 5089.26 3886.72 5415.45 3776.8 5096.43 6156.21 6602.43 3568.28 4798.17 5425.98 4953.1 5166.79 4516.53 2895.63 6449.64 5818.95 4857.84 3940.49 2978.76 6464.8 4908.49 7016.27 4962.21 6622.11 5884.9 4689.15 5089.62 6790.73 4590.55 5659.95 5243.43 6090.91 4741.26 5920.32 4186.6 4537.14 4152.85 5551.9 3867.19 4219.78 4963.34 4188.3 5081.78 4260.92 5499.39 5644.82 4407.9 4440.57 6736.03 5374.07 3087.09 4055.54 5548.29 7480.41 5163.77 3766.55 6027.62 5469.13 5765.42 4976.12 6098.95 4817.16 5148.08 5453.98 5653.03 5578.94 4777.03 7610.49 6579.31 4286.17 6028.09 5323.55 3804.5 5452.36 6486.37 6083.28 5211.6 6100.73 4745.79 5470.04 5456.71 3503.41 4908.75 6556.26 3971.08 6204.65 5684.25 6550.4 5438.92 4244.49 5036.98 4120.07 5188.53 4882.66 6746.66 5410.33 3908.56 4642.74 4844.83 5244.78 3636.15 5652.87 6114.89 5135.63 6384.7 4355.83 6870.97 5351.86 6056.87 5230.02 5307.35 4342.18 6016.08 5166.89 5491.63 5725.37 3868.62 5138.33 3743.76 4505.28 3425.69 4971.29 6280.13 5510.45 3684.15 4730.14 4438.76 5832.29 3994.39 6006.89 4618.73 3814.65 5244.98 3965.3 4960.64 5792.98 6592.93 6350.71 6104.26 5583.61 6436.74 2460.79 4653.83 6063.64 5996.66 4986.71 6479.39 4093.99 5079.22 4122.92 4997.91 4452.54 3604.14 4684.44 5381.54 4406.05 4749.59 4680.94 4858.44 3685.65 3468.42 3685.13 4673.35 5799.69 3876.21 4655.16 5571.72 4916.22 5869.4 3701.16 6022.7 5297.19 5251.4 4345.67 4255.85 4453.64 5019.93 5511.6 3885.86 4459.28 5235.29 4517.73 5177.64 4255.31 6116.33 5453.3 3838.47 4479.94 2588.37 6250.23 4435.51 5887.15 4718.54 8659.64 6599.66 4588.7 4886.12 6419.12 5683.95 6107.89 4301.61 4233.8 5206.33 4446.84 5530.49 5065.26 5660.55 4304.41 6789.23 3989.7 4157.29 5107.0 4246.61 6212.15 3684.56 5327.75 4609.02 4852.58 4896.65 5561.74 5975.23 4504.86 4473.29 4788.08 4198.94 6163.54 5212.37 4211.82 6003.78 2628.22 5058.51 4901.29 3899.7 4124.76 4050.03 4775.04 4813.33 4952.52 3840.21 4833.55 3646.95 4081.34 7224.99 4954.76 6334.53 5377.37 5869.67 4311.48 5483.7 5018.69 3152.86 5952.38 3896.27 5973.89 5807.52 5963.36 5518.11 5087.14 5712.35 5169.48 5701.52 4731.21 4743.9 3124.7 6064.71 6102.98 3719.11 6060.17 5153.18 6711.21 4236.86 5393.76 2606.51 4941.02 3864.92 6119.99 2955.36 7123.04 3668.93 4128.1 4983.3 5372.82 4402.17 4385.81 4034.05 7778.01 5690.96 4456.11 5798.38 3862.91 4125.9 5096.24 6171.71 7382.3 4405.42 3598.08 4668.88 2995.67 4599.81 4022.56 5522.21 5698.23 5810.77 5089.1 5828.35 2711.19 4714.83 5876.72 4028.32 5689.26 5236.43 3809.69 4992.42 7051.9 4680.14 4940.84 5097.69 5895.77 4765.72 6261.75 5857.79 2908.7 3757.34 6415.61 4039.91 4338.08 5276.7 5660.16 4541.8 6134.99 5191.08 5424.88 4062.5 4199.45 5148.58 5415.85 3548.39 5421.64 7234.66 4858.51 4207.54 4603.5 5625.65 4936.96 3184.64 4481.76 5375.12 5452.78 3746.36 4356.36 4892.44 4741.28 4215.2 5069.89 4553.68 2205.51 5361.87 3703.49 6813.72 6502.97 3758.22 4783.07 4946.23 6200.63 4532.7 6816.66 3844.54 3217.67 5034.69 5079.64 996.652 4680.69 6500.49 5965.58 3352.34 4972.18 5329.76 4607.18 5078.59 7200.89 2403.72 5134.33 4147.49 4802.98 5162.67 5760.98 4705.68 5469.35 5384.86 4749.96 4658.24 4906.11 4387.39 4899.73 4564.1 5457.66 6394.19 5509.51 4848.14 5366.22 6193.73 5254.24 4192.21 3742.11 3597.43 4158.91 6776.22 3360.86 5321.17 3034.16 4869.25 4467.13 3877.8 4763.4 6273.6 5902.67 5136.87 5024.32 5454.11 5806.61 3779.45 4983.1 5784.37 6010.59 3682.35 4009.24 3756.96 5906.57 4446.58 5401.4 5127.82 5053.15 5124.17 5366.11 5805.1 5039.12 3908.98 3628.89 3419.87 4064.58 4824.81 6589.82 5027.43 6328.42 3772.3 4855.01 7300.58 5522.75 3608.06 5474.15 7519.2 4099.92 6633.61 3208.96 4771.13 4884.59 5285.07 3858.06 4608.41 4478.6 4184.23 4732.09 4833.46 3988.3 4144.57 5750.07 4351.38 6136.49 5550.75 4642.66 6543.13 5933.7 5149.72 4809.67 4752.14 4378.3 5411.02 4950.97 4989.56 5037.06 5175.29 4863.96 5842.56 4094.73 5713.03 6200.54 4652.01 3583.49 4928.27 3673.28 5775.31 5052.84 4366.74 3375.28 5297.16 5354.66 4647.67 4214.44 3566.79 3629.44 5378.23 5374.67 4787.97 4981.43 6246.56 5473.72 4061.6 2603.64 6214.73 2856.55 3894.64 5175.89 4268.19 6618.21 5232.85 4374.74 4062.56 3717.47 4757.2 3205.68 5969.37 4928.35 5241.75 5849.53 4509.46 4651.99 3538.53 4420.11 5863.0 6127.39 5640.12 6638.25 4759.99 2646.13 4365.58 5419.57 5214.4 3629.49 4636.53 5766.05 5117.64 3835.81 4019.34 5429.3 4869.48 5510.96 3623.19 4745.16 6653.07 4697.91 5825.55 5071.98 5719.79 3199.4 4316.5 4371.08 7261.51 4968.14 4914.03 5086.29 5144.56 5311.55 5139.18 4278.57 5551.43 5049.99 5545.21 4333.87 4201.03 5001.87 3667.93 5684.05 5638.7 4708.17 2741.2 4644.88 5790.42 3142.09 5591.77 5182.13 6110.48 7541.76 4775.49 4681.29 5910.86 5499.59 6239.68 5749.6 7320.78 4234.88 4834.44 5782.43 4384.28 4456.26 5769.14 7307.21 5944.3 3563.14 3381.82 5867.64 3619.72 6208.9 4923.57 3340.09 4438.58 4565.93 6059.93 5602.53 5217.95 6355.68 4083.79 5484.36 4511.7 4304.63 4829.35 3953.55 4187.94 5980.59 4063.9 5263.27 5021.77 6834.41 4757.74 7248.4 4687.64 5036.58 4356.25 5469.47 4419.71 5329.59 4888.12 4244.21 5439.9 5512.16 4588.99 4617.55 3197.63 4287.16 3875.05 3456.47 3645.12 5471.74 5199.44 5580.34 5849.65 3852.6 5131.15 5134.67 4110.59 4847.14 4165.21 4706.5 4215.0 3332.49 4811.22 3950.27 5116.66 3683.86 4918.76 5003.78 3299.24 5293.75 4208.41 5730.61 5826.78 7124.45 4508.18 6358.93 5064.67 5836.26 6666.67 2617.39 4051.18 5144.44 4826.52 4583.94 4337.32 5046.31 1937.5 4731.53 6240.42 3763.9 5146.0 5721.14 4788.7 4288.45 4577.73 4987.28 5084.5 6206.98 4918.64 6562.03 4815.47 4368.12 6443.99 3889.98 5399.43 5193.58 5490.64 5695.44 3916.42 4507.46 3422.21 5603.68 4944.51 5532.72 4584.81 3220.8 5179.17 5579.39 5270.51 5148.1 5490.75 5224.64 5214.63 5949.73 3495.68 4312.48 5527.13 5783.94 6370.33 5081.08 6318.25 6864.06 4493.79 4932.56 4279.44 5813.79 4899.19 5293.13 4028.22 7350.26 3918.94 3768.46 5487.63 5167.53 3852.82 4507.36 5003.3 6245.52 4932.29 4990.23 3220.29 3784.94 6016.87 3845.9 4141.21 3125.13 6715.73 4439.71 4174.44 5667.51 5113.6 4708.31 4027.33 4810.98 3873.92 4198.9 5135.5 5431.29 5347.9 5091.22 4646.51 6282.38 5640.72 4504.52 5851.63 7107.63 6061.63 4867.7 5073.02 6545.43 4075.28 4277.24 4989.2 4469.54 4314.56 6300.92 5161.1 3796.15 3928.53 5776.96 4209.49 6045.67 4216.95 6119.63 5464.25 3821.94 5486.48 4209.31 3498.16 4409.27 4752.9 5301.47 4947.24 4321.21 3540.11 6506.86 5391.48 5950.45 5088.57 4344.34 5966.42 5009.83 5666.95 5210.38 5717.8 4127.53 4489.99 5210.75 4474.83 4548.45 6555.44 4658.11 5658.14 5114.07 4385.49 4263.18 7142.95 4383.68 4559.74 6015.22 6063.44 4454.74 2904.46 6449.06 5120.92 4924.07 4685.4 4629.02 5914.5 3565.32 6006.16 4608.62 5407.96 4071.75 4626.72 5131.77 4410.82 5549.71 4967.51 5173.82 7212.97 5698.53 5034.34 3769.2 4450.49 3468.45 5036.14 5635.32 4526.34 4316.45 5610.95 5042.75 4598.92 5241.22 6647.08 4979.52 3422.29 4501.05 4407.79 4537.03 6548.29 3990.96 5352.24 7362.42 4202.77 5836.14 5473.05 6008.81 5537.34 5192.49 5058.34 3487.31 5726.42 6643.4 5575.11 5461.72 6599.28 7145.73 4168.52 5800.81 5403.97 3954.77 5106.46 6793.1 5166.05 4506.66 5515.73 5209.55 4564.41 4850.5 6331.74 5951.86 5026.76 4252.18 5023.41 4833.67 4659.88 5325.91 4546.44 4092.07 5657.55 5727.79 5212.92 4184.21 4831.93 2279.05 5788.97 3472.91 6760.92 4464.73 4928.85 4023.93 5868.89 6440.38 8137.11 5291.05 5484.32 6650.77 5466.33 6226.14 5742.74 5280.12 5599.29 3946.28 7216.98 5984.81 5721.05 7013.17 6329.53 3805.67 5718.28 4247.69 5367.73 4514.39 4640.06 6242.79 4227.41 5993.0 6047.14 4803.57 5467.63 4923.43 4728.55 4568.64 4929.6 3919.62 4642.2 5750.35 4945.0 5984.8 3127.83 4212.15 4551.26 5260.52 5678.58 3185.09 6570.35 5114.23 4242.63 3269.54 5495.0 7407.91 5064.23 6061.85 5512.44 5268.15 5819.0 6347.72 3460.93 3200.6 5124.86 4927.73 4602.57 3419.07 3763.85 4096.86 5710.33 5344.44 5001.51 6432.8 3186.07 5115.42 4369.86 4082.4 5482.76 3745.02 4887.73 3720.7 4211.36 5378.24 3604.31 3856.73 5817.74 5887.71 5661.6 4827.61 5409.08 5285.75 5385.03 5481.64 4169.15 5673.75 5360.67 5968.54 6263.3 5592.54 3247.97 5124.34 4114.2 4326.06 5034.46 5757.29 5793.12 5469.17 5061.75 4373.2 3769.24 6022.78 5884.99 4087.32 6647.85 7025.09 4674.9 4433.12 3392.26 2549.95 4361.24 5138.93 6224.85 4556.19 6406.8 5368.66 4795.08 6562.92 4068.31 5501.73 3671.06 4697.24 5077.29 3612.44 7035.54 5233.76 5426.4 5763.05 5129.68 2820.07 5357.39 3791.41 5076.84 5853.12 4224.3 4213.05 6203.03 4700.07 5188.82 5235.87 5615.84 5273.37 4717.73 5043.14 4732.37 5556.0 4985.3 4711.04 3904.07 5007.21 3274.85 7144.05 4173.54 4619.2 5606.51 4801.8 5740.65 6038.68 4444.97 5046.12 5271.02 4807.4 3000.29 6349.67 4264.54 5261.19 4350.15 3516.27 6541.45 4139.3 4590.01 4263.78 4601.74 6101.86 5078.31 5228.75 4807.35 6761.81 3903.91 2918.64 4554.68 5630.9 4368.28 4512.07 4692.32 5463.06 5236.24 4585.04 3986.41 4241.68 6102.49 3469.18 6949.65 2945.34 3372.95 4095.83 5695.25 4489.29 5676.61 4301.93 5846.95 5716.42 5701.63 4620.95 5368.93 4488.39 6121.56 7168.2 4571.74 5740.78 4796.12 3622.48 5997.91 5385.86 6791.86 4209.0 5728.58 4930.72 6424.77 6297.99 5918.95 4538.89 5689.56 6556.86 3242.31 6099.28 5372.25 3234.26 4830.13 4778.37 3494.16 5370.9 5134.17 4074.16 4904.35 6172.27 5390.33 4904.37 4651.64 4358.81 5278.54 5729.92 5275.57 5016.46 4179.87 6224.13 4761.84 3661.67 5517.65 4009.68 4622.73 2569.12 4161.32 5161.74 7336.37 5099.9 6945.69 5118.86 7086.69 5648.78 6875.73 5226.42 6081.3 4983.43 5117.52 6311.89 5866.91 4683.28 6405.69 5679.74 6549.8 5247.01 4825.73 4165.36 5288.33 4208.37 5157.38 6296.54 4841.7 5702.4 5069.9 952.938 5473.89 6089.45 4678.7 3673.6 5810.17 4966.07 5072.5 5713.36 4657.24 5748.9 4400.14 4749.18 5545.59 4506.18 5494.28 5166.41 4824.12 6542.5 7104.73 5067.56 5206.47 2596.96 3834.47 5701.75 6162.3 3272.75 4057.17 2781.96 5262.47 7066.96 3512.94 4467.0 3104.96 7043.44 3831.52 4263.65 4258.98 4750.49 4643.9 6106.43 3787.08 4013.86 5644.81 6545.99 4177.47 5334.36 4218.16 4933.49 6139.64 4140.92 3990.94 4756.8 4896.43 4176.32 5486.89 4639.8 4462.35 6069.78 5532.75 3587.93 4975.85 4517.29 4495.75 5323.95 6171.01 5796.26 4468.26 4603.04 5578.18 5106.33 4870.94 5198.94 5293.37 5933.54 5271.88 5559.79 2980.31 3148.79 5879.24 6348.93 6824.53 4332.64 4742.82 4422.23 4820.68 6031.22 5485.84 3618.64 5703.84 4335.79 5453.69 5797.32 5432.04 3921.27 3702.45 3161.1 5265.63 4898.29 5684.88 4431.06 6523.78 5730.2 5620.88 4941.52 4529.77 5900.0 4325.13 4262.74 3783.79 5317.19 5078.73 4248.14 5729.0 5279.19 4016.6 5192.92 7050.08 4786.66 5891.25 5370.1 5129.4 5114.51 3303.49 4655.37 5585.25 5256.75 5023.61 6351.89 5932.28 2960.5 4975.32 4298.7 4183.4 6170.9 4733.79 4436.48 5833.78 4823.06 5758.98 5615.35 3967.76 5288.64 6213.24 6734.39 4217.36 5942.45 4150.76 4851.18 5005.72 5368.52 4871.77 5811.26 5797.21 5685.74 5062.77 6740.35 6019.35 6075.99 3306.84 6028.63 5265.21 3450.07 4550.92 6215.87 5191.26 5553.94 4067.96 3663.0 4704.92 5610.53 4099.26 2970.9 4954.81 4834.39 6304.49 4383.47 4580.06 4608.34 3926.11 5971.21 5493.89 4835.97 5695.79 5464.83 3622.8 4589.06 4770.51 4920.88 4184.47 5414.58 4431.23 4991.35 4994.65 4587.7 5740.98 5601.55 4462.87 4346.07 5196.92 4012.92 5759.79 4598.54 4816.51 4711.15 5218.42 3825.48 4658.59 5345.73 4770.63 4841.23 4357.11 2804.54 5477.8 5005.6 5589.53 7208.19 4549.51 5196.08 5025.42 4965.24 6379.38 6257.79 4849.5 6229.83 5353.23 4523.81 5065.74 5791.25 4873.23 4028.35 5464.05 5453.2 5264.83 3901.53 5136.51 6815.51 5232.16 4457.05 5189.91 3989.26 5777.26 4171.02 7012.36 3530.82 5028.06 4002.99 4886.99 5159.67 5764.52 3770.22 4390.64 5150.84 4645.86 4045.67 5087.97 6005.95 4308.49 4930.17 4581.1 6241.77 4745.44 5762.82 7360.12 6223.98 5821.49 5617.29 3035.06 5580.44 5998.13 5095.52 4878.93 6275.25 4746.15 6892.33 3720.38 4758.84 4731.37 3976.0 4672.86 6530.78 5560.23 3043.77 4139.39 5237.55 3902.48 4304.64 3909.94 6030.39 4905.53 3799.01 7392.65 5254.49 5319.1 3757.23 4181.93 6828.8 5987.88 4228.53 3579.59 6123.46 6142.88 5155.28 5388.73 5111.26 5205.38 4949.55 4884.93 4600.71 5262.79 5927.2 5146.1 6485.77 5866.42 3669.32 6060.06 4762.1 5544.27 3484.81 3742.31 4316.0 3987.69 4546.96 5424.55 4287.25 5755.15 5134.72 4921.1 3814.16 4271.07 4191.01 6419.64 4420.6 5340.05 6506.63 4140.04 4215.05 5995.4 4668.8 3495.3 5577.41 5890.25 5917.34 6511.37 3999.5 4216.44 6710.14 5034.05 4726.2 4426.02 3953.26 5467.51 4474.39 5459.92 5188.22 4096.47 3810.68 6478.35 4196.62 2809.19 5453.77 4104.04 4916.7 5030.33 5593.79 5234.2 4612.13 5846.6 5327.05 4109.44 5438.55 4903.84 4290.49 4434.65 5977.66 5209.5 6175.27 5876.51 6731.89 5410.6 4286.61 2932.52 4733.41 4603.66 4969.68 6636.43 5431.14 6298.8 5313.86 3689.24 5178.07 5151.19 6509.54 6119.0 3792.06 5128.59 4293.3 5587.3 6583.37 3572.73 4864.38 4848.98 4491.96 5184.98 4608.01 4467.51 5339.82 4519.03 5460.57 5110.27 4085.96 5703.34 4612.68 6668.98 6649.52 4232.33 5462.6 4747.68 4262.19 5770.92 3093.38 4597.88 4845.91 2002.78 5631.32 6322.0 4505.3 5793.14 4452.36 4491.26 4511.34 4068.41 6463.71 5059.37 4742.35 5783.38 6264.03 5645.54 5088.64 3562.8 6589.8 6920.92 3729.16 3783.36 3038.91 3922.28 6570.43 6883.86 6161.94 3350.99 4979.5 4065.28 5057.59 4745.37 4461.14 5418.98 5285.6 4574.54 5575.11 3132.34 5615.06 4764.83 1969.87 4841.28 3957.38 4047.95 4494.15 5035.71 5507.38 4419.79 6889.5 4710.88 3869.39 5407.69 5960.5 5308.33 6502.99 5393.43 6896.55 4666.12 4392.75 4638.09 4685.65 6219.34 6023.07 5674.63 5287.25 4475.38 5939.22 4725.11 3626.86 5418.12 6371.96 4271.93 5125.17 5322.11 5700.79 4859.01 4697.49 5524.45 5735.08 7133.44 4750.81 4282.11 6589.13 4625.53 2347.41 5602.62 4542.16 5114.67 3543.37 2030.03 5353.66 2638.82 5527.27 5157.73 5104.39 4541.22 5847.91 4934.66 3539.68 4984.01 6217.33 4605.39 4557.1 6270.59 6688.53 5927.1 6500.45 4907.55 4094.63 4103.76 6605.11 3557.46 4757.87 6379.33 5971.95 5652.73 3979.46 6321.97 6412.84 2589.19 6079.55 3856.4 5485.61 4993.49 4937.36 5310.33 5308.4 6581.13 3688.83 4569.32 3402.44 5537.61 6084.88 4397.06 4199.44 4053.12 4479.5 6261.67 4014.44 3435.13 5065.78 4431.46 4521.42 3207.84 3977.98 6043.34 4128.93 4939.56 4959.72 4712.17 3808.04 4723.71 4461.67 4405.61 6126.5 4034.88 6007.1 6345.2 4609.65 4832.21 5009.21 5410.73 5394.79 4574.03 5290.37 5264.08 5850.38 4526.87 4151.74 4227.66 5192.82 4691.01 4594.89 4174.22 5245.95 4067.89 3573.84 4515.02 6294.09 4571.57 3445.92 3820.19 5236.69 4586.82 5939.29 6026.04 6200.05 5859.17 4052.49 5490.54 5061.74 5203.54 6189.67 6142.94 5001.69 4948.96 5117.83 4416.87 5300.17 5152.78 4117.9 4052.43 4057.4 5534.23 4753.76 6025.77 4466.22 4441.91 5377.01 4781.9 5330.26 6815.96 6470.23 5339.6 5828.25 5483.37 5092.93 5934.05 2803.01 4604.1 4714.66 5322.07 4444.0 5076.11 6771.18 5770.07 5990.75 5600.21 4656.01 5327.39 5781.62 4037.86 4138.59 5714.51 4970.55 4938.33 5628.97 4484.78 4621.33 5765.14 4946.08 4767.54 5121.08 2927.84 5688.77 4696.03 6177.68 5466.13 4698.7 6229.64 2848.44 6045.26 4220.43 6263.87 4975.56 5743.8 6666.34 5084.76 5581.01 6834.92 5130.57 5749.53 5090.48 5402.45 5582.28 3985.93 5945.25 6071.59 5985.75 4696.06 4137.16 6189.29 5984.55 5803.3 3228.27 4721.98 5252.82 3543.98 5056.26 5878.55 5445.91 6604.72 6002.77 3794.47 4610.55 4967.02 4614.49 5400.69 4462.5 5573.31 5004.68 4023.88 5348.11 5428.24 5108.84 3511.5 4520.14 5067.92 5488.96 5704.61 3188.21 5128.03 3720.92 4379.91 5087.3 4942.63 6139.74 4975.57 7066.26 4730.97 3677.85 5821.42 5214.71 4811.11 3463.53 6126.03 4866.8 5131.07 4121.07 6044.69 5524.28 3133.28 4197.87 5731.43 5105.54 6353.81 3414.67 3518.14 4034.41 4150.44 5522.34 5326.03 4420.35 5717.45 5772.57 5256.82 4813.81 6581.56 5268.27 4013.86 4061.87 3980.46 4896.67 5165.31 5383.9 4585.37 3934.11 3798.09 5158.44 4496.51 4288.5 4511.05 6153.71 5917.08 5259.21 4256.08 5881.93 4399.52 4460.89 4157.1 8052.53 4554.24 6182.19 4984.17 4867.12 5101.6 5910.66 7415.84 4981.81 4637.3 5141.03 4840.44 8123.59 4819.83 6286.27 4801.16 5071.38 5616.66 5368.28 4802.36 4880.78 5257.38 5075.23 5625.02 5212.05 7282.36 4829.77 3826.01 4645.91 4444.92 6959.88 4125.75 5247.73 3746.62 4876.37 5034.02 5260.13 4649.5 4810.74 5181.31 5784.38 5475.83 4149.17 4329.8 5728.27 3074.49 5672.46 5202.33 3956.24 7558.99 4142.1 3393.59 5043.14 5333.04 5089.1 4812.59 4521.99 6842.54 2853.68 7115.67 4998.37 5675.45 5329.84 3361.11 6038.56 2807.46 6559.82 5599.16 4179.8 3488.34 4577.98 5658.35 5886.81 4487.51 4582.12 4295.25 7394.47 5357.14 4850.95 5919.27 4793.06 6637.38 6188.33 6111.23 3057.3 6150.31 5873.62 4677.84 4996.91 4924.52 3920.44 5379.52 3768.62 2970.24 5314.67 5658.05 6593.1 5462.1 4066.36 4000.51 6032.45 5444.36 2827.92 4026.03 5771.98 5044.68 2649.69 5899.78 5000.74 3467.11 6153.26 5637.53 5244.95 4645.93 4634.25 5448.64 5901.8 6417.61 3886.56 5715.51 5783.69 3456.3 6074.39 6561.94 5317.83 6738.9 5992.06 5545.68 3939.96 4970.12 4967.93 6044.01 6520.19 5973.57 1458.87 5734.07 6241.48 3997.68 5125.45 6033.28 4188.16 6327.54 5507.07 2943.17 4654.92 5327.71 5286.55 4322.56 5509.09 4850.49 3873.72 4592.49 3625.98 5479.86 6474.5 3928.99 4763.04 5944.52 5971.9 4532.67 5050.2 2513.38 5316.05 4769.62 4908.32 3995.08 5019.84 3900.93 4028.13 4457.73 6476.35 6260.58 4067.24 3053.19 6571.26 4313.38 5580.95 6598.99 3549.92 4032.06 2468.16 5246.81 5888.95 5394.78 3463.34 5122.38 2459.88 5262.85 4210.24 5470.67 5901.71 3879.83 6565.95 5733.12 5043.34 6436.29 4246.24 6805.02 5354.48 4729.45 4900.26 6261.13 5374.09 6271.22 3421.81 5378.75 3920.64 6186.24 6916.18 5786.06 4137.41 3868.69 5466.49 5447.74 4450.51 6033.72 3851.47 4966.74 5563.47 5651.46 3162.27 6033.93 5011.37 5516.37 5092.44 4441.44 4232.44 6908.32 5336.61 4817.75 3312.3 5563.09 4439.09 4848.15 3882.37 4798.13 5523.81 4095.4 5188.57 4718.61 6351.48 6697.45 5395.12 3873.79 5357.33 3721.69 3830.7 6210.0 5350.9 3483.61 4262.52 7430.48 5640.67 6572.17 6080.69 3751.73 5555.89 4766.47 6369.66 6009.93 5678.08 5872.45 5922.62 5130.56 4414.09 5191.29 5957.82 3784.68 3717.22 6649.21 3470.69 4859.95 4132.08 5522.18 5223.1 5093.41 4981.55 5144.23 6188.62 6153.07 4702.32 4414.06 5908.57 4413.56 5742.39 4821.41 4924.53 5616.11 4499.52 3874.12 4813.24 5759.19 3113.64 4490.2 4304.75 5480.86 6139.9 4720.22 2832.83 5827.3 6036.99 5250.56 3010.1 3633.58 6294.14 3825.98 4339.97 4589.22 5203.75 5087.03 4667.84 5169.09 3906.41 4691.15 4512.6 4260.38 4636.45 4932.27 5225.11 5342.9 5252.22 4962.35 5402.81 4600.81 5640.63 4919.13 4124.33 5168.97 5783.88 4167.55 5002.38 4720.34 6705.93 5244.47 4731.16 5510.89 6470.87 5822.7 3780.07 4159.89 4038.17 5178.55 5146.69 5007.41 4907.48 3692.99 6213.74 2329.93 4959.94 1635.31 5639.4 6938.87 5412.07 6185.73 6520.96 4083.24 5432.2 4612.4 6178.19 4746.19 6381.58 3282.57 5212.2 5648.59 5108.42 4630.5 6296.36 5717.67 4432.32 5515.59 5252.37 4451.76 3224.81 5432.4 4499.54 3775.38 5037.58 6457.89 4844.2 4081.77 5114.61 6118.13 3374.62 4420.3 4926.62 4871.1 3917.09 4735.99 6492.44 4083.1 4613.32 3482.73 5145.39 5270.1 6351.95 4957.99 5195.09 4063.26 4947.64 5345.05 6305.9 4997.89 4542.62 5093.28 4881.51 6131.52 4311.92 6009.88 4699.77 6664.54 6842.35 5464.34 3621.63 4777.96 5801.89 6833.5 7296.47 2613.78 5417.07 4780.16 3834.01 5738.37 4433.23 4739.41 5312.2 5847.27 4706.59 5734.84 3982.31 4950.07 4582.24 3916.15 4474.96 4084.87 4758.76 4790.63 5259.29 3584.05 4916.75 4818.53 5097.85 5584.64 4123.08 6224.64 4221.03 3799.55 5638.51 6793.49 3563.33 6060.19 3550.88 5536.0 6786.37 4333.23 3860.8 5145.13 4328.76 5561.63 5940.5 4358.06 5093.51 5647.93 4865.11 5449.09 5502.14 4605.61 4465.56 4495.33 4131.08 5282.67 5386.95 5747.9 3864.19 4287.93 6203.24 6818.23 4488.41 4369.87 5652.19 5806.74 5512.57 4806.99 3771.91 4813.55 5217.62 5856.43 3839.0 3465.03 5349.85 4616.81 5715.25 4362.94 4611.21 4469.82 6545.78 3354.94 4404.87 5237.27 5105.72 5767.65 7885.41 5782.25 4046.22 4104.97 4575.72 4948.21 4987.01 4706.31 2181.29 4202.12 6332.64 2694.25 4203.68 4739.56 3352.46 4701.03 3996.93 6225.05 5434.04 5200.1 3997.52 7679.2 5779.9 4909.74 2626.41 5310.33 6729.99 5036.84 3922.98 4565.36 5161.73 5259.48 4025.08 4008.67 5254.93 4803.4 6608.94 3796.73 4644.68 3082.16 5656.84 6789.66 5416.41 4694.27 6760.64 2515.5 5177.88 5551.79 3793.83 6981.47 5367.05 4449.73 5647.11 4088.72 3945.62 3743.85 6236.46 5342.17 6379.3 6189.04 3795.63 5189.4 4576.71 5082.66 4894.15 4550.77 6157.59 4337.93 5201.3 4345.51 4048.73 6223.33 5438.6 3747.96 5611.29 4521.88 6568.45 5004.22 4280.92 6201.49 4696.92 5154.74 6437.99 6898.8 6632.04 6540.57 5332.11 5315.71 6158.93 5081.65 4072.4 4823.14 5373.78 6679.12 4621.32 5699.4 6578.62 6284.12 4796.04 5229.56 5669.15 6011.4 5799.86 4672.34 5172.1 5056.32 6052.22 5376.41 4870.14 5003.63 2932.2 4695.7 4082.01 4944.08 5269.39 5003.49 4750.76 4907.03 5497.27 5617.91 4444.95 4721.2 3943.77 5161.02 6265.48 3124.49 5003.81 6262.18 3818.37 5663.36 4276.59 5579.04 5125.53 5994.21 4444.54 4884.93 5403.81 5082.25 6964.78 4374.05 5299.03 5504.65 5669.41 5813.68 5040.9 3618.53 4770.21 8013.28 3846.55 5283.65 5943.61 2892.36 5981.54 5911.29 5020.37 4542.25 4414.23 5233.88 4849.21 4785.55 5245.4 6189.81 5015.67 6538.04 5848.41 4090.28 4246.83 7370.52 4726.5 5467.05 3724.23 5103.3 4601.54 7263.57 3832.09 5705.96 5267.65 5739.69 3509.34 5360.88 7360.62 4893.72 6004.72 4983.56 5699.51 5345.65 2489.44 5438.5 4489.18 5863.36 4632.75 3878.8 4698.94 5237.76 4286.84 3948.21 6058.13 5296.05 5263.86 5894.69 6988.4 3330.85 6635.51 5533.52 4060.17 5410.33 4747.24 4380.86 5302.53 5576.16 4305.35 3964.03 5210.22 3308.75 4216.33 4439.17 5832.72 2451.27 4929.35 3903.9 5606.22 5051.39 6673.92 5242.38 5151.68 6081.35 5459.52 5566.5 4609.98 4752.31 4738.72 5240.97 5569.85 5405.6 3929.35 4223.53 4759.38 4535.94 6960.97 4287.15 5282.51 5604.0 3760.4 4951.02 5732.11 3919.47 4602.7 5596.68 4868.66 3783.35 4037.16 4004.39 5159.9 4987.48 4248.58 5479.17 4963.88 5888.94 4727.98 4122.2 5175.88 4516.26 4790.16 3647.26 3731.58 3166.37 4977.64 4985.45 5205.53 4714.52 5499.37 5543.05 4883.13 4836.76 4752.94 4994.98 5551.09 6423.96 4501.1 5581.47 4384.91 6550.61 4987.01 4713.56 6051.35 4909.13 4287.61 5648.02 3999.81 4867.13 4604.34 4863.27 5677.42 2701.42 5442.79 4633.59 5733.59 4884.94 5575.8 5362.15 5268.93 4455.61 3695.72 6874.6 5106.9 5306.31 5523.96 4733.37 3037.72 5126.08 4523.9 6395.63 5369.42 5207.08 4587.19 6028.89 5333.16 3950.53 4888.17 5755.98 5392.85 5077.2 4274.05 4277.54 5529.09 6094.34 6779.82 5543.67 4739.5 6210.48 6377.45 4182.05 4502.12 3255.93 6853.07 6327.61 5275.27 4531.46 5925.82 5448.68 4072.95 4491.62 3865.5 
SCALARS Velocity float 1
LOOKUP_TABLE default
1.36938 1.47803 1.50777 1.43776 1.51352 1.31418 1.50999 1.55607 1.5164 1.51382 1.47559 1.54712 1.53043 1.50484 1.52137 1.53553 1.50905 1.49733 1.47642 1.52071 1.50872 1.52652 1.51046 1.49905 1.50976 1.5914 1.5435 1.50047 1.53722 1.50523 1.53175 1.52733 1.53562 1.5173 1.52834 1.53567 1.5162 1.53496 1.5353 1.53547 1.53564 1.50624 1.49518 1.53887 1.5005 1.5171 1.50939 1.50798 1.49928 1.47989 1.50475 1.5502 1.51311 1.53382 1.50116 1.50525 1.48736 1.50679 1.51999 1.53041 1.53963 1.53722 1.53648 1.53341 1.50958 1.47928 1.48278 1.53075 1.52334 1.52789 1.52309 1.51411 1.50678 1.49222 1.49665 1.48527 1.49527 1.5024 1.51398 1.54936 1.49585 1.50711 1.50623 1.51296 1.52588 1.52771 1.52267 1.53772 1.5299 1.5174 1.50717 1.53644 1.48259 1.51884 1.5181 1.5196 1.51828 1.51064 1.4998 1.50352 1.51012 1.50551 1.47959 1.49493 1.4886 1.53427 1.49844 1.50509 1.50702 1.51607 1.52516 1.52267 1.53652 1.5073 1.53214 1.47791 1.48161 1.48496 1.51442 1.5131 1.51433 1.51375 1.509 1.50597 1.50181 1.50674 1.50197 1.49521 1.52006 1.49787 1.50923 1.48524 1.50011 1.51143 1.51972 1.52914 1.52605 1.53199 1.51027 1.51528 1.48252 1.48651 1.4951 1.48769 1.50969 1.50473 1.50973 1.51069 1.50886 1.51098 1.50564 1.50213 1.51001 1.51067 1.503 1.48881 1.49227 1.48566 1.49336 1.50831 1.50988 1.51769 1.51844 1.5312 1.52658 1.50903 1.50011 1.51228 1.48717 1.5 1.49036 1.49271 1.50035 1.50632 1.50776 1.50321 1.50517 1.50767 1.50687 1.52366 1.51218 1.50673 1.49285 1.48882 1.48753 1.48974 1.49028 1.50811 1.49944 1.50803 1.50429 1.53417 1.52282 1.53036 1.50392 1.49785 1.49564 1.49779 1.47904 1.49885 1.501 1.49651 1.50196 1.51591 1.53619 1.56634 1.52064 1.49609 1.48883 1.48583 1.48548 1.47983 1.50209 1.48542 1.48408 1.48165 1.53577 1.49182 1.57829 1.50008 1.5263 1.487 1.49237 1.48596 1.48015 1.48616 1.48642 1.49194 1.49504 1.49423 1.48693 1.48981 1.49385 1.51848 1.549 1.60783 1.50379 1.48702 1.48555 1.48431 1.4828 1.47518 1.48101 1.47422 1.46594 1.48484 1.50923 1.68488 1.5374 1.46377 1.47988 1.48727 1.47538 1.49597 1.49545 1.49569 1.50218 1.48174 1.62975 1.48656 1.44645 1.48798 1.49454 1.49061 1.49598 1.486 1.4835 1.48978 1.48697 1.48409 1.45882 1.48529 1.46802 1.61124 1.53522 1.15973 1.58893 1.52717 1.47415 1.47954 1.46693 1.49924 1.49503 1.5015 1.50847 1.50174 1.46858 1.41402 1.46071 1.49969 1.5009 1.49366 1.49307 1.49584 1.49448 1.48784 1.49243 1.4924 1.49823 1.48187 1.46109 1.34108 1.45414 1.44084 1.5044 1.49665 1.48485 1.44875 1.4982 1.48669 1.49086 1.49022 1.49633 1.47907 1.4486 1.4704 1.4729 1.48778 1.50165 1.49758 1.49904 1.49659 1.49524 1.49254 1.49376 1.48854 1.47525 1.45892 1.40873 1.39955 1.43536 1.47792 1.46416 1.48575 1.49098 1.44688 1.4472 1.45765 1.48626 1.48312 1.48202 1.4759 1.47011 1.48508 1.48776 1.49485 1.49303 1.49824 1.49675 1.49665 1.4951 1.48906 1.48901 1.47575 1.48121 1.46207 1.45673 1.43998 1.44993 1.43831 1.44966 1.46757 1.46183 1.46622 1.47359 1.48006 1.44813 1.45801 1.43763 1.47684 1.47693 1.4767 1.46953 1.47032 1.47326 1.47486 1.48123 1.47585 1.49209 1.49585 1.49904 1.50107 1.50115 1.4995 1.50101 1.49691 1.4965 1.49369 1.4814 1.46897 1.47148 1.4548 1.46442 1.45863 1.45004 1.45226 1.45816 1.46244 1.45866 1.46152 1.46873 1.19178 1.44443 1.43542 1.44061 1.43476 1.4476 1.46526 1.46483 1.46475 1.46816 1.46324 1.46979 1.48287 1.5011 1.48598 1.50352 1.50498 1.506 1.50112 1.50689 1.49473 1.51352 1.49093 1.4649 1.48752 1.44918 1.45913 1.46299 1.47358 1.45504 1.47546 1.45251 1.45083 1.43979 1.45397 1.44871 1.45483 1.44925 1.45821 1.45057 1.42858 1.43594 1.44121 1.42884 1.4513 1.43856 1.45736 1.4604 1.45463 1.45221 1.46597 1.51128 1.49005 1.51392 1.51633 1.53116 1.51062 1.51861 1.50984 1.50222 1.51523 1.5199 1.4714 1.41872 1.41503 1.45948 1.47876 1.49436 1.42505 1.47768 1.433 1.44622 1.43397 1.44108 1.44338 1.44589 1.41878 1.41898 1.4306 1.43307 1.42595 1.44888 1.45042 1.4474 1.44829 1.47544 1.53011 1.53265 1.50159 1.50066 1.50848 1.49854 1.52753 1.51671 1.44737 1.3771 1.36782 1.41527 1.53685 1.50156 1.48735 1.49929 1.4157 1.40937 1.42736 1.40696 1.42768 1.44154 1.43333 1.43644 1.44323 1.44042 1.41391 1.40901 1.41025 1.41837 1.43514 1.44393 1.43931 1.44293 1.44753 1.44695 1.45118 1.45179 1.48062 1.45858 1.46687 1.53217 1.48726 1.50674 1.51339 1.5308 1.46839 1.46063 1.48287 1.50383 1.34598 1.53233 1.54027 1.49287 1.51774 1.43986 1.37619 1.40591 1.39275 1.40427 1.37823 1.41294 1.41857 1.43319 1.43078 1.43634 1.43477 1.19178 1.40522 1.40905 1.40606 1.42395 1.42884 1.44631 1.4445 1.45606 1.46057 1.45178 1.47792 1.39652 1.48645 1.44303 1.50212 1.46166 1.40332 1.4691 1.34427 1.42358 1.53335 1.50394 1.38633 1.38321 1.41525 1.42817 1.42419 1.43155 1.19178 1.40104 1.41942 1.41751 1.41684 1.40892 1.42303 1.41148 1.44817 1.42757 1.46022 1.48741 1.45872 1.38553 1.42682 1.3799 1.37286 1.38545 1.46741 1.45416 1.38219 1.3866 1.40429 1.4134 1.45363 1.47545 1.41722 1.34969 1.4149 1.38591 1.4063 1.44355 1.43228 1.44214 1.4516 1.42494 1.39016 1.38547 1.41242 1.39832 1.39982 1.40958 1.41191 1.42547 1.41813 1.43857 1.43436 1.38374 1.4106 1.37324 1.41752 1.44884 1.43173 1.43023 1.4306 1.3964 1.38828 1.41451 1.36256 1.37266 1.36343 1.51977 1.65037 1.38346 1.37304 1.38747 1.38733 1.36139 1.39674 1.40221 1.44926 1.43355 1.42524 1.4207 1.19178 1.37779 1.334 1.3875 1.40432 1.414 1.41765 1.3956 1.38876 1.38344 1.36764 1.39899 1.41438 1.37885 1.41399 1.38041 1.40684 1.41249 1.42728 1.42442 1.418 1.36027 1.42571 1.37722 1.36388 1.38755 1.44138 1.07664 1.25301 1.42299 1.36588 1.43092 1.39657 1.40902 1.38221 1.39464 1.48364 1.4642 1.45548 1.40008 1.42905 1.29006 1.31084 1.33922 1.2383 1.37686 1.40731 1.45187 1.3403 1.38508 1.38218 1.38552 1.38101 1.44515 1.33579 1.40833 1.3271 1.37292 1.37721 1.43207 1.39795 1.35297 1.42512 1.33667 1.3792 1.4109 1.37096 1.35418 1.40322 1.45439 1.44212 1.38174 1.34056 1.3984 1.40608 1.33697 1.3994 1.39024 1.38425 1.43955 1.50829 1.40901 1.30955 1.38385 1.32917 1.52702 1.55625 1.2337 1.32751 1.28745 1.29678 1.43579 1.45015 1.44475 1.35194 1.4679 1.33853 1.24958 1.33574 1.4073 1.26326 1.41128 1.35873 1.51971 1.35892 1.44994 1.29491 1.34571 1.35115 1.39215 1.3854 1.35109 1.37016 1.36584 1.4021 1.38388 1.42988 1.41953 1.43154 1.39262 1.25542 1.35541 1.22992 1.44051 1.44064 1.43321 1.50391 1.40516 1.68506 1.76895 1.19178 1.28519 1.63146 1.52162 1.65123 1.58802 1.41398 1.29416 1.22843 1.26721 1.28454 1.40136 1.37639 1.57811 1.31069 1.41984 1.4396 1.32522 1.13586 1.33934 1.36959 1.32603 1.31961 1.37339 1.39894 1.3984 1.37227 1.37025 1.41005 1.48202 1.44027 1.55774 1.12211 1.48101 1.1453 1.20513 1.45479 1.72079 1.43926 1.52207 1.8127 1.19578 3.22754 1.08359 1.87277 2.06604 1.90303 1.02432 1.89605 2.11365 1.41148 1.382 1.6376 1.35765 1.27712 1.30409 1.31489 1.41232 1.33426 1.60237 1.49899 1.34366 1.25108 1.25782 1.2702 1.21433 1.26611 1.08258 1.05546 1.35998 1.31318 1.37017 1.32767 1.31655 1.32585 1.34968 1.36234 1.34266 1.34904 1.40385 1.70385 1.26115 1.1468 0.704742 2.18142 1.82047 1.36334 1.39371 2.44527 1.40615 1.48618 1.36022 1.43768 1.3268 1.17258 1.12909 1.09587 1.29223 1.15732 1.13537 1.68806 1.11671 1.19531 2.11717 1.26935 1.47142 1.47287 1.55576 1.51228 1.39753 1.77479 1.16047 1.05497 1.17845 1.28529 1.26252 1.30438 1.24072 1.53306 1.44127 1.49066 1.33679 1.17689 1.2257 1.20441 1.18501 1.10611 1.19734 1.16367 1.35219 1.28027 1.24515 1.29263 1.35864 1.3174 1.13241 1.3048 1.25642 1.43606 1.26874 0.819114 0.996295 1.10477 1.76441 1.14973 1.57084 1.29932 1.20401 1.02105 1.22811 1.12443 1.14146 1.12237 1.03828 0.964356 0.940328 1.06264 0.836124 0.940713 1.05669 0.725829 1.08413 0.884002 1.05656 1.11349 1.01023 1.09114 1.2106 1.19983 1.05406 0.991355 1.25756 1.35061 1.38705 1.85144 1.56135 1.1543 1.07969 1.05408 1.12669 1.09739 1.31023 1.27049 1.31095 1.29205 1.27973 1.3117 1.27872 1.19448 1.26384 1.2416 1.24729 1.20197 1.15229 1.23293 1.23054 1.24196 1.24184 1.32141 1.30686 1.2226 1.18997 1.27641 1.2343 1.37489 1.17727 1.21229 1.3384 1.23083 1.30378 1.29301 1.28706 1.13688 1.14147 1.10956 1.05888 1.02409 1.63599 0.892096 1.16232 1.29171 0.751472 0.965089 1.00165 1.00486 0.940808 0.81865 0.990026 0.898723 1.02535 0.876849 0.890639 0.841407 0.759923 0.715308 0.563279 0.95481 1.05906 0.482133 0.830262 0.593996 1.33289 1.24146 0.9508 0.560128 1.37578 0.933187 1.26681 1.02295 0.976249 1.08509 1.13442 1.02774 0.866033 1.16135 1.28341 1.20273 1.16118 1.32188 1.14953 1.23543 1.22634 1.14089 1.24691 1.22084 1.25029 1.16543 1.12864 1.14077 1.13289 1.3092 1.16191 1.21303 1.18039 1.3596 1.11389 1.14483 1.19875 1.13301 1.30591 1.38655 1.29007 1.18529 1.08525 1.38522 1.08431 1.06333 1.07326 1.1653 1.10108 1.01041 1.10345 1.31511 0.98868 1.00295 1.44568 0.892629 1.01039 0.98934 0.861007 0.957473 1.03469 0.879634 0.964134 0.804835 1.1417 0.878139 0.845536 0.902287 0.854457 0.83139 0.730929 0.619988 0.744767 1.04554 1.40929 0.806826 0.447279 0.783711 1.3425 1.24915 0.983402 0.943115 1.03079 0.838798 0.95571 0.919597 0.953628 0.992237 1.04035 1.12204 0.983296 1.17119 1.11841 1.12254 1.06372 1.10857 1.06256 1.03378 1.02439 1.18314 1.16554 1.13812 1.14916 1.14342 1.16797 1.23614 1.2133 1.08623 1.14756 1.26929 1.3587 1.09389 1.19741 1.01608 0.856447 1.15886 1.21395 1.18821 1.14979 1.2054 1.16437 1.11813 1.06593 1.04556 1.04555 1.28765 1.57714 0.837525 1.04224 1.05537 1.066 1.03091 0.949893 1.07894 1.14733 1.00623 1.08373 1.05286 0.931229 0.892594 0.842257 0.854897 0.890374 0.925975 0.907389 0.794943 0.86055 0.846233 0.820797 0.829567 0.82476 0.806943 0.828783 0.820235 0.817925 0.767168 0.784687 0.812887 0.763526 0.824025 0.886645 0.840092 0.757894 0.772975 0.745504 0.679656 0.629861 0.919106 1.64536 1.22171 1.13512 0.86624 0.965666 0.931778 1.05835 0.860094 0.935341 0.951072 0.95239 0.98316 0.917004 0.977008 0.994654 1.11185 1.12934 1.0834 1.0024 1.01706 0.91443 0.90579 0.906241 1.11886 1.16726 1.13369 1.08314 1.0478 1.13128 1.21833 0.998242 1.14826 1.06449 1.16977 1.01495 0.925209 0.929425 0.959506 1.01321 1.05446 1.1537 1.11908 1.10784 1.18871 0.949868 1.21959 0.848465 1.0111 1.06566 0.967708 1.02936 1.02372 1.02721 1.06585 1.05446 1.09199 1.08989 1.10101 1.09157 1.00762 0.923023 0.917337 0.811263 0.847215 0.825265 0.891286 0.871834 0.817507 0.817377 0.819026 0.817342 0.809847 0.811761 0.803795 0.794817 0.761032 0.720418 0.796762 0.783758 0.786504 0.769282 0.755686 0.725881 0.826634 0.832375 0.796256 0.860173 0.808303 0.866904 0.803069 1.00191 0.903962 0.959008 0.844199 0.643873 0.816576 0.853805 0.968674 1.00277 0.93246 0.939872 0.896353 0.822016 0.886709 0.950677 0.991679 1.00121 1.00241 0.995959 1.01136 0.944657 0.970799 0.904376 0.901108 0.995032 1.08851 1.15186 1.1194 1.09924 1.01453 0.947649 1.17559 0.961643 0.894541 0.966355 0.970038 1.02435 0.859657 1.03789 1.18251 1.00256 1.03806 1.0084 1.01108 1.19033 0.838758 1.20725 1.11917 1.12413 1.21464 0.856796 0.980727 0.837511 0.970293 0.909452 0.872832 0.95851 1.02428 0.954765 1.03463 0.99901 1.17794 1.18336 1.16586 0.901361 1.05365 0.886116 0.904484 0.863805 0.885596 0.866376 0.819404 0.809889 0.821764 0.813816 0.811192 0.821527 0.808742 0.799877 0.810648 0.7377 0.732828 0.722551 0.707146 0.752893 0.753294 0.735014 0.725587 0.814668 0.778778 0.731885 0.782363 1.23476 0.970388 0.891805 0.88488 0.920026 0.871772 0.915684 0.897516 0.927895 0.894094 0.858139 0.857119 0.856521 0.892184 0.932994 0.952412 0.955038 0.984396 0.927709 0.94632 0.913318 0.874878 0.912032 0.924487 0.963438 1.02563 0.982827 0.941075 0.904597 0.88735 0.913973 1.04926 1.19229 1.08665 1.0443 1.11559 0.952661 0.881121 0.689378 0.958735 0.822762 1.04798 0.900837 1.03266 1.05175 1.18622 0.985884 1.05052 1.07267 1.01351 0.908033 1.17918 1.13096 1.09823 1.01005 0.939874 0.98639 0.971935 0.870887 0.892952 0.992419 0.862719 0.915248 0.958564 1.0885 0.870411 0.990223 0.750048 0.830164 0.828731 0.836529 0.94992 0.899893 0.789604 0.86167 0.866649 0.829236 0.862451 0.8631 0.818443 0.846532 0.832147 0.840642 0.818772 0.836454 0.803202 0.800952 0.811441 0.794567 0.839581 0.786826 0.721084 0.856849 0.754479 0.77172 0.717013 0.719706 0.717642 0.734823 0.721847 0.715117 0.725996 0.74106 0.765827 0.704938 0.761589 0.662274 0.563596 0.914657 0.716367 0.544615 0.635747 0.657119 0.838155 0.773684 0.777203 0.721852 0.893701 0.8508 0.849523 0.866135 0.889841 0.889817 0.922376 0.955661 0.937378 0.955409 0.93382 0.898479 0.857179 0.906044 0.944728 0.974343 0.95004 0.96277 0.940787 0.982946 0.887307 0.910247 0.891464 1.00338 0.996202 1.00756 1.10936 0.976133 0.843969 0.954516 0.972591 0.925835 0.920116 1.10898 1.06084 0.8542 1.0379 1.09352 1.09188 0.928627 1.04733 0.897592 0.87339 1.07232 1.05153 1.02558 1.043 1.03339 1.03406 0.991177 0.986642 0.95956 0.826598 0.820308 1.0496 0.766845 1.07559 1.07062 0.957355 1.05442 0.954625 0.890062 0.778251 0.867003 0.865262 0.852181 0.857211 0.825902 0.839467 0.840349 0.822722 0.853568 0.862283 0.847593 0.873373 0.870026 0.854241 0.796199 0.834847 0.811008 0.795969 0.787829 0.837375 0.844798 0.811471 0.762088 0.852916 0.798651 0.778562 0.768137 0.70537 0.705104 0.710479 0.705797 0.720112 0.705708 0.680263 0.723804 0.732221 0.788406 0.769142 0.674403 0.730179 0.976163 0.749105 0.679647 0.730362 0.711322 0.711471 0.70429 0.705289 0.794647 0.862449 0.909691 0.903453 0.875863 0.836778 0.9484 0.90786 0.876915 0.841578 0.914361 0.946658 0.89779 0.890246 0.845123 0.874085 0.844863 0.843433 0.891473 0.92072 0.939522 0.969429 0.984868 0.897598 1.08527 1.0303 1.05364 1.03798 0.887404 0.936587 0.868467 0.776838 0.796532 0.981065 0.915231 0.863551 0.873609 0.952108 0.787441 0.755313 0.758253 0.936205 0.96716 1.02484 0.91663 0.908403 0.859832 1.02812 0.913989 0.976513 0.969722 0.974641 1.02076 0.989811 0.932144 1.11353 0.90212 0.813968 0.836241 0.936307 0.998757 1.08667 1.01273 0.847617 0.772874 0.874209 0.861749 0.850135 0.82383 0.827648 0.815603 0.814823 0.852725 0.871762 0.828956 0.84317 0.857835 0.849543 0.845819 0.822499 0.819363 0.789591 0.801583 0.754283 0.785823 0.826718 0.772272 0.756279 0.809929 0.787471 0.765966 0.767503 0.773882 0.766938 0.69078 0.700914 0.669085 0.699251 0.699374 0.705375 0.708283 0.687019 0.697364 0.719733 0.821109 0.70256 0.981886 0.695696 0.155488 1.18518 1.20709 0.419159 0.727083 0.71051 0.741268 0.776215 0.766225 0.785897 0.791555 0.857131 0.857472 0.981741 1.11294 0.849209 0.813519 0.742783 0.795302 0.758436 0.851756 0.884553 0.903178 0.802861 0.789059 0.817949 0.852154 0.834645 0.874406 0.894105 0.837021 0.895965 0.958822 0.905001 0.920631 0.895893 0.852346 0.785388 1.16543 0.932372 0.958013 0.869706 0.647665 0.791752 1.04568 0.818128 0.930463 0.856822 0.892204 0.906092 0.778558 0.760686 0.835253 0.978204 0.945558 0.954407 0.931442 0.937812 0.942592 0.878431 0.894929 0.849649 0.941111 0.907522 0.851817 0.896594 1.09652 1.11087 0.996872 0.741404 0.965932 1.0468 0.775366 0.855689 0.645623 0.802845 0.910284 0.784713 0.967891 0.958336 0.779992 0.803405 0.848988 0.832933 0.78161 0.776252 0.771895 0.795664 0.798078 0.80337 0.755992 0.789538 0.811026 0.85721 0.86109 0.814609 0.808847 0.853047 0.794933 0.808585 0.8133 0.76933 0.74216 0.738345 0.769888 0.655602 0.781188 0.737478 0.686258 0.764096 0.755978 0.717311 0.715115 0.769202 0.76016 0.759861 0.758918 0.742788 0.765799 0.769382 0.658576 0.634415 0.618107 0.677293 0.670283 0.714913 0.691173 0.679414 0.675229 0.686324 0.681986 0.684051 0.659396 0.656407 0.640378 0.95628 0.90862 0.739978 0.845261 0.959838 0.987368 0.742557 0.804601 0.806473 0.715956 0.663365 0.889543 0.717195 0.79512 0.78604 0.833602 0.806069 0.831842 0.817584 0.811798 0.780855 0.766237 0.788009 0.803155 0.823752 0.822413 0.82896 0.829783 0.810462 0.809 0.921595 0.871695 0.799408 0.857051 0.609739 1.17088 0.727325 0.639669 0.729238 0.604366 0.802666 1.04502 0.911461 0.871229 0.785087 0.880833 0.767312 0.762504 0.822027 0.868132 0.929906 0.834485 0.888169 0.862971 0.898029 0.835656 0.86722 0.85549 0.960292 0.746045 0.734784 1.12677 1.02284 0.913539 0.719613 0.848564 0.881867 0.779147 0.750125 0.797992 0.811686 0.838665 0.993219 0.908098 0.850595 0.853088 0.924253 0.816113 0.792122 0.785725 0.794007 0.77836 0.86742 0.804678 0.844472 0.810892 0.799176 0.793558 0.731347 0.775031 0.760752 0.743271 0.718348 0.742675 0.753214 0.742911 0.713165 0.745662 0.752623 0.764016 0.768636 0.775634 0.725097 0.772256 0.789722 0.663646 0.651256 0.663697 0.664721 0.661076 0.67453 0.669856 0.677698 0.69743 0.728406 0.672131 0.702601 0.697435 0.688469 0.714565 0.696488 0.717555 0.671558 0.634567 0.713841 0.629204 0.761874 0.776183 0.763027 0.624961 0.654819 0.755328 0.742167 0.851251 0.798228 0.820934 0.794954 0.80667 0.800238 0.793294 0.805877 0.777827 0.779804 0.824953 0.825675 0.943526 0.808779 0.747175 0.843178 0.69038 0.947372 1.30575 0.937951 0.942414 1.19179 0.680245 0.461654 0.89033 0.798049 0.716105 0.76483 0.968207 0.891052 0.893994 0.82227 0.868441 0.800705 0.793902 0.81123 0.753441 0.827474 0.814522 0.809727 0.834397 0.830529 0.905574 0.965714 0.711421 1.12168 0.804664 1.03255 0.892916 0.812694 0.986756 0.879227 0.841024 0.84427 0.822991 0.83115 0.838055 0.833544 0.838018 0.716254 0.791007 0.60984 0.934929 1.0246 0.881323 0.597356 0.781882 0.746019 0.767581 0.761384 0.861959 0.814771 0.736758 0.715469 0.845974 0.763258 0.792933 0.680313 0.706319 0.783616 0.739236 0.719628 0.735764 0.738889 0.629117 0.629983 0.674512 0.717136 0.71361 0.656749 0.665627 0.72641 0.681624 0.702789 0.628594 0.78767 0.673948 0.679335 0.604698 0.661138 0.646385 0.654049 0.648156 0.659633 0.66142 0.664374 0.629631 0.681205 0.66024 0.668673 0.636666 0.641741 0.681778 0.64913 0.713743 0.684618 0.744171 0.729228 0.736962 0.724041 0.72043 0.733458 0.707755 0.699302 0.698284 0.814121 0.777563 0.748944 0.709347 0.737873 0.765052 0.762657 0.747245 0.706485 0.743457 0.766702 0.762733 0.738411 0.859929 0.765942 0.765517 0.78966 0.822184 0.813754 0.808841 0.81262 0.812538 0.757844 0.752232 0.73345 0.714544 0.803316 0.820612 0.466653 0.500788 1.19797 0.984721 0.810598 0.68169 0.688361 0.670128 0.714062 0.746101 0.771792 0.761847 0.690882 0.61795 0.728569 0.76968 0.907807 0.875037 0.834716 0.787048 0.809188 0.783508 0.755908 0.978012 0.834956 0.777772 0.764973 0.957438 0.81311 0.738165 0.759235 0.988546 0.761231 0.903471 0.788838 0.812369 0.69527 0.849688 0.84854 0.827916 0.773704 0.825712 0.787982 0.858349 0.8437 1.01742 0.893022 0.757721 0.665489 0.779066 0.779137 0.78965 0.80478 0.779721 0.735682 0.683612 0.74464 0.656496 0.721828 0.635993 0.684558 0.687245 0.659644 0.656883 0.68412 0.666947 0.720937 0.742423 0.650119 0.648049 0.675738 0.645571 0.668592 0.660913 0.662135 0.664244 0.634572 0.621338 0.617467 0.631558 0.617547 0.623066 0.626708 0.627845 0.587901 0.621027 0.645427 0.621292 0.629178 0.622318 0.544662 0.655308 0.626703 0.648321 0.630579 0.66357 0.636286 0.76246 0.736671 0.722291 0.709489 0.729103 0.697545 0.719503 0.702011 0.708479 0.876525 0.780584 0.767528 0.757396 0.65367 0.702779 0.755352 0.752423 0.731555 0.75121 0.745647 0.764344 0.744909 0.78889 0.808877 0.811952 0.811487 0.782971 0.793085 0.803395 0.79111 0.767362 0.709624 0.703374 0.72475 0.782536 0.686514 0.705092 0.520718 0.848325 0.733289 0.672881 0.653435 0.695766 0.733025 0.749091 0.754385 0.734232 0.720726 0.734753 0.782764 0.839452 0.858723 0.87938 0.8496 0.804983 0.784886 0.72711 0.630496 0.761219 0.839982 0.753143 0.696052 0.497325 0.609174 0.665767 0.775374 0.838409 1.04819 0.965116 0.906565 0.600972 0.691463 0.560308 0.647545 0.461534 1.05766 0.746061 0.993066 0.889016 0.783074 0.837329 0.694406 1.01041 0.760598 0.746467 0.433813 0.806143 0.794283 0.781168 0.778542 0.803971 0.730661 0.734418 0.762456 0.726944 0.721816 0.724992 0.68355 0.741762 0.684929 0.661313 0.695683 0.667059 0.697342 0.696386 0.610128 0.669284 0.683559 0.646502 0.691628 0.711244 0.68101 0.713086 0.670937 0.669659 0.68057 0.651181 0.656849 0.658523 0.647177 0.634529 0.654591 0.635858 0.632473 0.632622 0.634495 0.627888 0.544699 0.542674 0.891665 0.468908 0.539485 0.658946 0.604735 0.701763 0.784023 0.657712 0.660045 0.6625 0.638857 0.664596 0.691528 0.670085 0.708329 0.713792 0.713379 0.732578 0.719773 0.64695 0.688407 0.711939 0.735754 0.789309 0.769086 0.872146 0.826117 0.69207 0.684792 0.600446 0.671052 0.746376 0.749078 0.735424 0.733952 0.725507 0.719271 0.723062 0.756585 0.772912 0.764188 0.789148 0.772104 0.713424 0.752434 0.779849 0.70581 0.648932 0.67813 0.683085 0.687819 0.694606 0.672561 0.626907 0.710387 0.699157 0.68761 0.760363 0.735203 0.721127 0.732433 0.752849 0.742671 0.726172 0.769069 0.727924 0.828584 0.840403 0.831184 0.838731 0.850492 0.83234 0.824178 0.81151 0.793264 0.766472 0.677139 0.728129 0.759592 0.796761 0.794586 0.791419 0.718764 0.524276 0.808566 1.07163 0.752234 0.670361 0.650771 0.587782 0.45878 0.674851 0.665338 0.820518 0.77204 0.899318 0.835055 0.834613 0.83967 0.796741 0.806544 0.760397 0.508897 0.877542 0.69811 0.491212 0.842599 0.797888 0.74947 0.725378 0.715622 0.712396 0.711339 0.729756 0.696058 0.734569 0.726678 0.659873 0.704791 0.732609 0.721574 0.664766 0.702443 0.692377 0.713526 0.694709 0.707207 0.68682 0.638265 0.642903 0.665176 0.650857 0.6471 0.646021 0.642945 0.645178 0.641018 0.632813 0.621847 0.633907 0.625911 0.641213 0.615136 0.694338 0.451385 0.456041 0.697629 0.886535 0.792109 0.764702 0.72499 0.68394 0.636856 0.689196 0.630957 0.648354 0.657703 0.680971 0.707011 0.724289 0.741973 0.727866 0.630743 0.834533 0.58938 0.826009 0.930469 0.899186 0.891674 0.767807 0.810272 0.848615 0.808809 0.583583 0.717475 0.6895 0.680751 0.787307 0.747341 0.72657 0.704323 0.71042 0.710992 0.700986 0.734606 0.738887 0.720201 0.692627 0.69489 0.770892 0.751015 0.683319 0.657088 0.68769 0.680018 0.675562 0.699677 0.735789 0.718662 0.734107 0.725629 0.751081 0.746378 0.735209 0.739147 0.753556 0.768997 0.763375 0.763253 0.775231 0.763611 0.7946 0.799426 0.814352 0.825577 0.833954 0.828203 0.824625 0.819258 0.788409 0.763355 0.745133 0.767708 0.78039 0.776467 0.762366 0.778593 0.754061 0.436263 0.791679 1.26194 0.664488 1.31344 0.791047 0.743696 0.785177 0.601113 0.687247 0.54156 0.683105 0.663356 0.737282 0.668814 0.807277 0.727138 0.793628 0.812224 0.807503 0.692807 0.721807 0.723932 0.733556 0.658946 0.717192 0.751921 0.625822 0.677181 0.675608 0.711042 0.69509 0.624773 0.641965 0.647411 0.682285 0.645607 0.673858 0.689092 0.704607 0.692657 0.688746 0.689355 0.678167 0.650849 0.661929 0.635405 0.653586 0.645619 0.651255 0.650874 0.640632 0.650916 0.662384 0.643969 0.647683 0.625471 0.631286 0.661273 0.64842 0.660005 0.648706 0.600036 0.610335 0.577148 0.621707 0.605339 0.573514 0.542705 0.512738 0.466651 0.731447 0.753098 0.732828 0.643449 0.665834 0.59225 0.620916 0.60975 0.605698 0.630843 0.648638 0.660702 0.65794 0.653865 0.667784 0.654349 0.640318 0.665833 0.642684 0.612053 0.666124 0.818787 0.725759 0.759857 0.744266 0.766125 0.801758 0.628423 0.73826 0.717901 0.636263 0.603216 0.682246 0.621957 0.727677 0.647105 0.622042 0.729588 0.690094 0.675639 0.696001 0.682127 0.705585 0.716428 0.677621 0.699568 0.719786 0.696529 0.705208 0.722134 0.72764 0.727704 0.727231 0.738663 0.74202 0.749019 0.748624 0.741951 0.744675 0.754614 0.756458 0.767844 0.768003 0.771213 0.776129 0.783904 0.787004 0.802614 0.805855 0.806836 0.831653 0.809353 0.826344 0.825772 0.827861 0.802799 0.783784 0.7756 0.793013 0.774165 0.773661 0.761088 0.733401 0.817833 0.739654 0.722322 0.695633 0.630177 0.826053 1.05574 0.918231 0.804628 0.765951 0.617471 0.671421 0.741225 0.724465 0.660228 0.697514 0.694623 0.78406 0.695403 0.799107 0.814461 0.74144 0.745002 0.772059 0.784939 0.653176 0.66525 0.676086 0.645011 0.796198 0.678473 0.674028 0.675933 0.680341 0.677797 0.657247 0.707568 0.696095 0.743866 0.709267 0.693499 0.681153 0.643893 0.663061 0.650205 0.650082 0.624006 0.620554 0.60114 0.647482 0.674676 0.613558 0.624123 0.628132 0.549696 0.657192 0.586125 0.656117 0.58696 0.634859 0.613235 0.610994 0.589933 0.586434 0.621327 0.624041 0.624007 0.635769 0.632241 0.633449 0.617383 0.603259 0.556752 0.572746 0.563489 0.540223 0.62641 0.666196 0.738977 0.710311 0.698521 0.66179 0.631238 0.586563 0.64955 0.622829 0.615659 0.605512 0.624949 0.643824 0.652912 0.581079 0.632563 0.623518 0.588958 0.670323 0.65094 0.672281 0.560643 0.79223 0.693409 0.664194 0.533907 0.710401 0.646239 0.828623 0.654525 0.758517 0.672372 0.92299 1.06956 0.604897 0.685595 0.593129 0.657347 0.651829 0.664517 0.670199 0.67503 0.662116 0.682908 0.681108 0.69906 0.716688 0.715171 0.712656 0.718721 0.727663 0.730932 0.748484 0.741629 0.75407 0.754376 0.748297 0.754366 0.755297 0.763016 0.776233 0.787653 0.793526 0.801582 0.810044 0.813741 0.813741 0.825384 0.815479 0.826482 0.8217 0.818626 0.813372 0.79999 0.796695 0.797507 0.788602 0.774321 0.760024 0.731206 0.727747 0.722844 0.780351 0.841526 0.807249 0.742643 0.772582 0.648744 0.718904 0.676131 0.664395 0.726443 0.706438 0.717573 0.712821 0.697637 0.68406 0.681252 0.6899 0.675969 0.697866 0.784828 0.723293 0.731286 0.751557 0.76287 0.772183 0.823744 0.646046 0.706362 0.661829 0.758581 0.711433 0.689527 0.6982 0.711795 0.685284 0.682559 0.614776 0.535759 0.65943 0.710038 0.641282 0.669706 0.69445 0.676232 0.722137 0.638877 0.608658 0.594857 0.610942 0.611048 0.578473 0.564069 0.588218 0.586852 0.590151 0.542553 0.554125 0.553829 0.542157 0.578362 0.563932 0.536344 0.587009 0.563346 0.601538 0.610254 0.609688 0.609902 0.610034 0.591757 0.545411 0.548634 0.539267 0.546836 0.553598 0.546665 0.716083 0.724212 0.671436 0.649883 0.65744 0.537743 0.583523 0.623214 0.683516 0.461897 0.606253 0.642557 0.62693 0.668485 0.54314 0.490465 0.639264 0.605058 0.699719 0.610846 0.658155 0.731433 0.615925 0.583424 0.325819 0.663259 0.881909 0.727041 0.634334 0.684183 0.671864 0.680358 0.669315 0.689567 0.692629 0.705596 0.724164 0.729525 0.740398 0.750622 0.750076 0.760496 0.761229 0.757762 0.758754 0.756014 0.757943 0.763906 0.769647 0.762912 0.778487 0.800648 0.816605 0.817606 0.81731 0.818458 0.813196 0.81158 0.814159 0.812041 0.815047 0.7961 0.788618 0.780451 0.771411 0.763321 0.764432 0.752013 0.768647 0.78052 0.774899 0.780578 0.766752 0.734901 0.684549 0.676261 0.689916 0.698619 0.691453 0.686818 0.680262 0.669582 0.669008 0.680841 0.713295 0.731529 0.73907 0.768629 0.626194 0.65688 0.594144 0.662031 0.682939 0.649646 0.715628 0.697739 0.753416 0.588875 0.557828 0.546267 0.565595 0.515344 0.606421 0.46504 0.686934 0.682158 0.669563 0.667237 0.633416 0.638454 0.615663 0.620373 0.598415 0.592341 0.571494 0.571951 0.571548 0.578759 0.53098 0.532273 0.52049 0.512163 0.497309 0.526814 0.518036 0.545614 0.566758 0.554553 0.557343 0.566094 0.571399 0.615227 0.647392 0.621275 0.586321 0.590367 0.593468 0.541608 0.489484 0.511885 0.570707 0.67081 0.659452 0.679391 0.651422 0.639776 0.618165 0.570782 0.408998 0.523912 0.515758 0.40124 0.660572 0.572251 0.794834 0.68939 0.730693 0.605104 0.624716 0.587203 0.597124 0.828758 0.797781 0.661441 0.715187 0.787794 0.607767 0.64482 0.623601 0.651167 0.665593 0.710697 0.675369 0.683684 0.691573 0.690689 0.683545 0.682833 0.687848 0.69082 0.700143 0.709508 0.723919 0.744713 0.747244 0.757355 0.766678 0.758526 0.75942 0.76299 0.761551 0.761978 0.761886 0.760571 0.765564 0.764081 0.796117 0.763539 0.840596 0.82571 0.823972 0.821101 0.820602 0.81846 0.81675 0.811462 0.813111 0.804633 0.815435 0.789764 0.775891 0.78751 0.778491 0.786487 0.790183 0.775431 0.788337 0.791613 0.77795 0.789103 0.767845 0.734084 0.70265 0.696957 0.693254 0.677792 0.680304 0.671081 0.674519 0.674477 0.662786 0.663509 0.662677 0.678537 0.698523 0.704458 0.713118 0.718607 0.73654 0.730242 0.760502 0.74234 0.577895 0.600972 0.643535 0.668408 0.671104 0.596447 0.688261 0.568665 0.521167 0.530068 0.507741 0.543708 0.519246 0.507263 0.536647 0.464678 0.604836 0.52661 0.584628 0.580651 0.580907 0.566271 0.587259 0.59039 0.619753 0.572283 0.505396 0.515439 0.488206 0.465758 0.464241 0.424652 0.56276 0.590034 0.670833 0.754733 0.648775 1.01687 0.434045 0.47388 0.526003 0.464021 0.618718 0.650997 0.570944 0.527689 0.572314 0.559304 0.573287 0.508861 0.514271 0.420009 0.510258 0.551634 0.598261 0.540338 0.569773 0.522402 0.475829 0.459826 0.516528 0.61403 0.915054 1.08649 1.09883 0.553811 0.572065 0.540589 0.498031 0.403258 0.496822 0.35275 0.810838 0.552845 0.623943 0.553718 0.68874 0.598679 0.613325 0.615612 0.698875 0.712013 0.697189 0.716007 0.700948 0.693348 0.701712 0.70479 0.710002 0.735362 0.768605 0.749399 0.785828 0.765541 0.759891 0.761459 0.761259 0.762001 0.762941 0.772592 0.762668 0.866676 0.827849 0.82437 0.828566 0.833997 0.825428 0.823428 0.816379 0.810596 0.797719 0.799292 0.763901 0.827291 0.818944 0.790414 0.794673 0.789993 0.793088 0.812017 0.790628 0.81569 0.809399 0.777539 0.757862 0.747894 0.737559 0.717647 0.68562 0.675837 0.662979 0.653624 0.657086 0.667301 0.691326 0.726391 0.732475 0.71224 0.657721 0.528192 0.589129 0.579384 0.634472 0.675192 0.670479 0.636308 0.690215 0.649703 0.60069 0.518421 0.518292 0.551153 0.519065 0.502813 0.483113 0.474835 0.472024 0.525317 0.486626 0.506963 0.524191 0.523206 0.575066 0.584674 0.519921 0.617705 0.556679 0.592595 0.587576 0.504316 0.629912 0.467579 0.462017 0.455924 0.376394 0.37039 0.360267 0.784887 0.400563 1.1849 0.602227 0.495287 0.417479 0.575972 0.369537 0.344042 0.413693 0.316462 0.44292 0.403642 0.584719 0.496708 0.374741 0.378848 0.414669 0.484209 0.482279 0.502217 0.473869 0.443347 0.43035 0.532485 0.56695 0.480367 0.500514 0.521975 0.488049 0.459271 0.419208 0.381883 0.378916 0.361279 0.37129 0.500733 0.125588 0.46785 0.522922 0.609338 0.563669 0.683553 0.594222 0.611099 0.641659 0.634134 0.622167 0.644562 0.669985 0.648951 0.621825 0.644133 0.625698 0.732277 0.736303 0.760287 0.734238 0.73119 0.712892 0.697184 0.707627 0.807518 0.64257 0.721625 0.786021 0.797501 0.828878 0.76499 0.759928 0.749163 0.757024 0.763858 0.763526 0.763614 0.758113 0.75857 0.74821 0.767046 0.785112 0.845414 0.845342 0.845009 0.830985 0.838129 0.828437 0.834597 0.794818 0.794172 0.797279 0.812156 0.772503 0.799663 0.781621 0.786753 0.799716 0.820902 0.764129 0.843143 0.813223 0.78727 0.770044 0.74743 0.729772 0.709045 0.715675 0.693992 0.677301 0.647807 0.64877 0.650189 0.64911 0.666132 0.690545 0.755296 0.720333 0.74894 0.760404 0.732637 0.610172 0.715486 0.584982 0.572935 0.641863 0.671094 0.694745 0.703379 0.686444 0.6134 0.585649 0.547871 0.523386 0.488654 0.504661 0.480767 0.48335 0.490085 0.501271 0.49393 0.483386 0.491134 0.486329 0.487476 0.509057 0.529713 0.51909 0.321071 0.469639 0.351188 0.38245 0.31489 0.277226 0.33519 0.366976 0.335351 0.394045 0.284003 0.606292 0.858995 0.65074 0.729441 0.787298 0.218725 0.556141 0.467076 0.690642 0.673951 0.720702 0.39744 0.276817 0.215147 0.393905 0.279994 0.393951 0.435424 0.463257 0.46653 0.418851 0.4494 0.477146 0.486838 0.471328 0.464737 0.489615 0.477879 0.466586 0.500851 0.44695 0.454532 0.433981 0.442797 0.400523 0.425654 0.41552 0.426734 0.503887 0.437232 0.519862 0.566299 0.550908 0.560144 0.62714 0.598977 0.606944 0.635288 0.634586 0.622934 0.630982 0.64274 0.823272 0.782531 0.733869 0.71117 0.705361 0.710606 0.72491 0.577613 0.653321 0.826879 0.809414 0.773912 0.7391 0.736185 0.743476 0.751302 0.75943 0.771733 0.758762 0.742428 0.738051 0.844489 0.859573 0.859379 0.86828 0.859978 0.850689 0.853706 0.841808 0.79879 0.818476 0.7825 0.806152 0.800541 0.781997 0.763188 0.806752 0.838108 0.776861 0.85907 0.821637 0.843525 0.792329 0.781469 0.766105 0.75224 0.739849 0.726 0.705738 0.700834 0.679315 0.649649 0.64718 0.645442 0.655178 0.665776 0.659231 0.676547 0.722651 0.747432 0.760242 0.740503 0.710787 0.725278 0.696085 0.479199 0.588144 0.712553 0.671027 0.704257 0.631348 0.580815 0.530035 0.536849 0.50815 0.486141 0.485407 0.489303 0.491318 0.478184 0.481391 0.468426 0.450828 0.434758 0.434906 0.435775 0.396484 0.386652 0.471926 0.386287 0.383472 0.270196 0.392547 0.362511 0.386603 0.449497 0.719944 0.892342 0.514857 0.853037 0.502499 0.407689 0.309891 0.242041 0.714024 0.199948 0.362143 0.362078 0.343096 0.335736 0.250239 0.15725 0.37696 0.440523 0.456075 0.484105 0.476699 0.481618 0.476288 0.475027 0.458972 0.46293 0.444061 0.462636 0.465877 0.432444 0.447068 0.45766 0.44003 0.454597 0.427413 0.438412 0.447689 0.429592 0.538862 0.57547 0.572243 0.579221 0.59157 0.604541 0.605314 0.617047 0.634778 0.639104 0.63791 0.635423 0.644961 0.683878 0.770804 0.779956 0.777637 0.759619 0.761264 0.733892 0.690515 0.69161 0.679136 0.67005 0.677525 0.652531 0.718073 0.748805 0.70081 0.739208 0.751819 0.758459 0.768083 0.77952 0.78212 0.7383 0.735722 0.878106 0.883583 0.873772 0.865955 0.864049 0.860964 0.855294 0.836949 0.788626 0.84329 0.751081 0.794873 0.813609 0.802582 0.789021 0.764769 0.839569 0.843256 0.788381 0.774746 0.788824 0.813715 0.817495 0.771219 0.763043 0.778494 0.745639 0.762221 0.747771 0.724428 0.7 0.710817 0.695982 0.672109 0.659531 0.653768 0.662608 0.669664 0.716933 0.806841 0.689796 0.910102 0.687204 0.485685 0.440911 0.538491 0.746406 0.629926 0.669243 0.665021 0.621577 0.607978 0.571744 0.52818 0.519434 0.498407 0.512006 0.478945 0.488253 0.488238 0.474812 0.489446 0.488961 0.493341 0.486186 0.477985 0.491211 0.476531 0.46738 0.453735 0.39553 0.419637 0.384335 0.391101 0.345343 0.381988 0.389878 0.245601 0.442217 0.421337 0.654659 0.744413 0.326744 0.548806 0.21682 0.32662 1.91804 0.186401 0.159951 0.180023 0.259506 0.48057 0.287991 0.247944 0.407795 0.259812 0.481492 0.425014 0.448461 0.487392 0.502268 0.487716 0.44614 0.450544 0.441778 0.441423 0.457613 0.473136 0.472138 0.480222 0.460402 0.4603 0.481598 0.495165 0.52785 0.516416 0.558632 0.570068 0.558898 0.593032 0.620204 0.630057 0.637606 0.648301 0.645988 0.646612 0.655965 0.679766 0.704793 0.728063 0.786312 0.725501 0.7602 0.665606 0.673684 0.681948 0.680137 0.681614 0.71663 0.735953 0.726646 0.733942 0.745039 0.761528 0.743908 0.785764 0.801971 0.797896 0.745271 0.775284 0.743827 0.766217 0.747486 0.957766 0.868261 0.865231 0.855073 0.862417 0.856332 0.859917 0.817913 0.85515 0.764588 0.855092 0.811313 0.806538 0.782626 0.792056 0.784409 0.874578 0.807583 0.808071 0.811447 0.816429 0.80087 0.788372 0.773038 0.773953 0.750717 0.724197 0.710329 0.693016 0.656912 0.655466 0.663308 0.666363 0.682649 0.657879 0.673322 0.629727 0.697864 0.663475 0.740353 0.898269 0.756521 0.620323 1.16365 0.300036 0.610258 0.510852 0.598423 0.616573 0.542808 0.594409 0.559035 0.557178 0.518621 0.496696 0.48285 0.478296 0.480629 0.494469 0.500653 0.486444 0.428586 0.450507 0.367627 0.403353 0.373351 0.371285 0.392917 0.37361 0.388974 0.38439 0.317581 0.368944 0.851515 1.02609 1.25017 0.884872 0.951835 0.352819 0.304132 0.215883 0.206839 0.333834 0.107979 0.33169 0.574115 0.784462 0.877834 0.153708 0.985746 0.436356 0.689772 0.566685 0.517404 0.52326 0.492215 0.495465 0.453818 0.403434 0.518797 0.489969 0.497454 0.489477 0.481775 0.475965 0.543244 0.53418 0.560608 0.542334 0.571566 0.571329 0.588355 0.584261 0.607274 0.630365 0.641474 0.659561 0.656676 0.660641 0.671293 0.667922 0.687848 0.677673 0.702902 0.710603 0.850572 0.798743 0.683746 0.680307 0.685617 0.68496 0.710381 0.724139 0.712375 0.727403 0.730575 0.727041 0.743935 0.736476 0.811854 0.796398 0.780127 0.737414 0.697039 0.977023 0.851094 0.851653 0.865794 0.871019 0.801388 0.70796 0.710107 0.795172 0.868132 0.819858 0.820471 0.767724 0.830009 0.904651 0.821289 0.801313 0.792014 0.80449 0.773154 0.801705 0.771604 0.734914 0.735484 0.707983 0.6911 0.671108 0.681276 0.664769 0.66528 0.690222 0.60608 0.712677 0.748294 0.889605 0.83355 0.548611 0.439573 0.482381 0.56703 0.592428 0.589955 0.55747 0.579805 0.554629 0.549091 0.527359 0.536289 0.499485 0.49021 0.482797 0.472039 0.477139 0.489478 0.499666 0.500365 0.486303 0.431735 0.337523 0.222337 0.337474 0.227715 0.275334 0.341416 0.402765 0.43423 0.404168 0.317624 0.476978 0.173814 0.191863 0.552539 0.1276 0.641335 0.129332 0.121596 0.331691 0.343462 0.0350673 0.167102 0.653643 0.369445 0.871005 0.487094 0.430519 0.493897 0.510746 0.500885 0.518138 0.458174 0.406037 0.332813 0.25558 0.536078 0.460663 0.468717 0.467445 0.512737 0.531262 0.555104 0.579833 0.611485 0.598236 0.638869 0.650807 0.652158 0.665262 0.679327 0.680922 0.661425 0.73903 0.752542 0.607733 0.769667 0.713132 0.680572 0.667632 0.690583 0.694961 0.718981 0.71082 0.718503 0.725037 0.734102 0.727632 0.728247 0.737067 0.759062 0.826615 0.815733 0.835666 0.796094 0.704004 0.709578 0.741135 0.80626 0.882993 0.882462 0.814159 0.774339 0.761279 0.789187 0.751114 0.7401 0.810467 0.815114 0.809265 0.828205 0.838944 0.860731 0.786391 0.879451 0.871643 0.867204 0.819504 0.800126 0.806093 0.826241 0.791248 0.810617 0.751757 0.744877 0.702878 0.688723 0.678184 0.687217 0.690557 0.706159 0.717191 0.805534 0.895788 0.67783 0.540645 0.648621 0.682922 0.582194 0.549206 0.586185 0.526397 0.542191 0.51746 0.522627 0.498691 0.498847 0.481572 0.480344 0.478578 0.50421 0.49747 0.509411 0.512815 0.505593 0.551778 0.422325 0.117713 0.085946 0.260487 0.370195 0.437541 0.495756 0.516871 0.294555 0.5013 0.161704 0.154922 0.188451 0.329485 0.422893 0.033792 0.532712 0.572538 0.467 0.454232 0.507709 0.417256 0.385054 0.324206 0.494662 0.494829 0.430839 0.456021 0.478832 0.488044 0.528831 0.547658 0.566624 0.585509 0.581741 0.619368 0.608622 0.638598 0.64863 0.645786 0.668068 0.681379 0.665236 0.654148 0.554899 0.617238 0.568233 0.7108 0.693763 0.693968 0.709183 0.69173 0.691765 0.690163 0.682356 0.720541 0.713117 0.730468 0.727804 0.738256 0.72712 0.745103 0.767828 0.76354 0.834504 0.886568 0.779434 0.66657 0.773295 0.781562 0.736132 0.816437 0.736095 0.773497 0.73819 0.807194 0.722794 0.778469 0.716425 0.815943 0.848442 0.791885 0.757111 0.731386 0.826454 0.800628 0.805991 0.817411 0.828358 0.748947 0.73569 0.754617 0.71277 0.685266 0.68833 0.693654 0.711479 0.735353 0.744189 0.727165 0.803647 0.608727 0.59896 0.674157 0.696272 0.662943 0.636653 0.583284 0.562451 0.560958 0.528539 0.507157 0.498939 0.49173 0.480783 0.503833 0.502716 0.518187 0.56032 0.589305 0.638661 0.605968 0.295684 0.389336 0.127305 0.396005 0.38551 0.422476 0.452385 0.468481 0.606791 0.495892 0.468584 0.513101 0.395663 0.226494 0.193348 0.225867 0.375423 0.483326 0.53311 0.0855031 0.500356 0.501629 0.48648 0.453214 0.442182 0.343208 0.432694 0.379099 0.323948 0.374429 0.460339 0.423671 0.490786 0.470289 0.49263 0.556617 0.548286 0.557169 0.570924 0.596337 0.623439 0.621684 0.648055 0.613698 0.686653 0.667075 0.598058 0.543208 0.578201 0.584279 0.650077 0.706345 0.711928 0.699013 0.691578 0.685272 0.721222 0.727028 0.738132 0.737895 0.741062 0.747436 0.746962 0.788792 0.809839 0.916578 0.641199 0.767571 0.74076 0.793257 0.813069 0.847006 0.835153 0.851949 0.705007 0.750312 0.820491 0.639088 0.780203 0.739711 0.779928 0.869815 0.619221 0.759937 0.781736 0.878535 0.859462 0.784779 0.752665 0.720993 0.819928 0.808218 0.836428 0.835688 0.75863 0.759664 0.732297 0.736319 0.731393 0.722444 0.724645 0.690233 0.691129 0.71887 0.745622 0.776947 0.746317 0.805238 0.69905 0.658434 0.686822 0.692521 0.66637 0.635147 0.610666 0.612979 0.592138 0.567956 0.530889 0.602383 0.553142 0.52373 0.483629 0.490671 0.488125 0.522027 0.556877 0.706912 0.783296 1.08871 0.969466 0.470359 0.422873 0.473776 0.458584 0.431904 0.411514 0.359044 0.206209 0.357415 0.359278 0.387082 0.231085 0.384133 0.586554 0.240005 0.499592 0.392739 0.393338 0.420207 0.433025 0.38402 0.384356 0.432008 0.444674 0.494485 0.380694 0.305363 0.401373 0.371919 0.381111 0.425013 0.451921 0.477556 0.471361 0.448854 0.507489 0.516192 0.535468 0.505437 0.565911 0.57466 0.569921 0.621173 0.591434 0.587607 0.62055 0.621935 0.645455 0.626765 0.553896 0.566541 0.55836 0.71323 0.711652 0.709239 0.715643 0.702236 0.700512 0.695256 0.72794 0.741609 0.752253 0.75454 0.762951 0.757659 0.612221 0.721487 0.980216 0.928275 0.8145 0.859033 0.816264 0.754925 0.555631 0.981465 0.814496 0.695655 0.612039 0.77099 0.735965 0.767578 0.814599 0.693268 0.86199 0.796881 0.74728 0.725926 0.727117 0.721372 0.782325 0.829805 0.823588 0.818315 0.800536 0.754243 0.751373 0.75475 0.732632 0.738721 0.699384 0.725763 0.71695 0.7253 0.753574 0.772593 0.775925 0.749752 0.726732 0.703241 0.686943 0.691821 0.685819 0.652361 0.628967 0.611858 0.629594 0.600003 0.533449 0.487308 0.484887 0.47245 0.478054 0.502793 0.497068 0.453204 0.502769 0.435444 0.690137 0.747681 0.967367 0.54083 0.49087 0.481413 0.44438 0.360103 0.406231 0.357422 0.442383 0.356247 0.587662 0.29518 0.326699 0.392438 0.383141 0.393503 0.389269 0.391216 0.419555 0.440272 0.524239 0.46287 0.405142 0.325479 0.424124 0.449258 0.472573 0.503114 0.510044 0.562317 0.585976 0.615574 0.593066 0.612849 0.612075 0.612689 0.646726 0.616948 0.656657 0.625315 0.634173 0.534001 0.452634 0.347817 0.728373 0.610508 0.713944 0.709699 0.707972 0.722519 0.725342 0.747169 0.745277 0.736148 0.674563 0.550439 0.546824 0.765547 0.826137 0.76224 0.838802 0.604101 0.423462 0.797405 0.700371 0.620752 0.744939 0.67676 0.78127 0.745581 0.932655 0.784525 0.728819 0.679314 0.636835 0.772588 0.750361 0.708109 0.724438 0.751368 0.752313 0.742664 0.777146 0.760636 0.766176 0.778804 0.745553 0.726121 0.729715 0.716108 0.720918 0.795098 0.733254 0.70693 0.701735 0.684454 0.652991 0.6526 0.651425 0.632974 0.652481 0.617893 0.652245 0.675154 0.557478 0.435234 0.530316 0.499659 0.554287 0.439553 0.443636 0.44216 0.530506 0.504492 0.712895 0.58793 0.493044 0.519552 0.459727 0.49534 0.423297 0.441296 0.418497 0.364568 0.502918 0.619255 0.338656 0.355901 0.380588 0.391075 0.388053 0.396487 0.432017 0.442712 0.407798 0.609512 0.382952 0.435139 0.448547 0.472099 0.499059 0.522467 0.573553 0.562936 0.559883 0.572088 0.629187 0.61286 0.606629 0.605301 0.600663 0.658975 0.55174 0.480438 0.371373 0.738866 0.710175 0.688786 0.71401 0.717221 0.709092 0.718927 0.719897 0.724366 0.74645 0.701803 0.711374 0.544605 0.77928 0.756482 0.729503 0.882734 0.789669 0.737152 0.749864 0.683058 0.765307 0.757235 0.733551 0.700754 0.676917 0.710693 0.725788 0.719628 0.738077 0.618504 0.738739 0.718814 0.710952 0.693945 0.66733 0.657029 0.654488 0.651004 0.641766 0.622343 0.638134 0.61386 0.636886 0.68402 0.916907 0.675402 0.403821 0.505347 0.55253 0.518566 0.451265 0.519907 0.47861 0.425319 0.459991 0.609156 0.572223 0.595804 0.487682 0.45735 0.448915 0.452676 0.462634 0.226766 0.54235 0.345862 0.655246 0.659215 0.37082 0.357833 0.404928 0.378719 0.402948 0.41936 0.411279 0.402667 0.390683 0.416105 0.452006 0.453405 0.663594 0.452399 0.460943 0.474246 0.504404 0.525803 0.544634 0.569341 0.576933 0.622183 0.628412 0.617069 0.594109 0.594179 0.605542 0.517608 0.611037 0.602705 0.538353 0.468071 0.779178 0.908645 0.7499 0.727498 0.714423 0.69211 0.704396 0.717724 0.691184 0.698147 0.707821 0.720936 0.759361 0.731888 0.62827 0.731004 0.732225 0.70529 0.680606 0.670328 0.660189 0.635805 0.637075 0.615931 0.588823 0.620081 0.725117 0.871526 0.794308 0.544349 0.582605 0.578611 0.54782 0.518397 0.434892 0.57882 0.581701 0.451843 0.435597 0.439367 0.382641 0.535485 0.551403 0.623494 0.392637 0.443283 0.425462 0.397974 0.507586 0.569582 0.581106 0.58597 0.715465 0.733782 0.530644 0.477283 0.506787 0.533014 0.553 0.596421 0.57426 0.583816 0.576613 0.711004 0.691665 0.678162 0.604125 0.589746 0.712209 0.62809 0.56599 0.605027 0.529584 0.487818 0.605019 0.498274 0.477609 0.502242 0.412809 0.434123 0.412536 0.503873 0.566396 0.65212 0.409577 0.439241 0.417163 0.40206 0.602422 0.48467 0.458114 0.420073 0.574636 0.542677 0.615545 
SCALARS Stress float 1
LOOKUP_TABLE default
-65204500000.0 -118287000000.0 -150149000000.0 -178114000000.0 -231026000000.0 -90282300000.0 -147990000000.0 -166179000000.0 -51545200000.0 -208763000000.0 -280603000000.0 -364832000000.0 -184541000000.0 -322691000000.0 -207853000000.0 -302312000000.0 -290639000000.0 -190687000000.0 -371263000000.0 -330100000000.0 -645966000000.0 -509965000000.0 -964122000000.0 -442177000000.0 -997319000000.0 -349091000000.0 -627732000000.0 -953205000000.0 -552705000000.0 -437435000000.0 -902067000000.0 -579360000000.0 -190947000000.0 -518760000000.0 -574247000000.0 -905069000000.0 -438844000000.0 -803418000000.0 -471383000000.0 -571161000000.0 -410062000000.0 -719406000000.0 -706024000000.0 -965124000000.0 -994823000000.0 -689375000000.0 -1.46504e+12 -2.17882e+12 -594823000000.0 -380499000000.0 -907106000000.0 -992318000000.0 -428137000000.0 -1.63902e+12 -546857000000.0 -1.44931e+12 -985790000000.0 -854127000000.0 -1.63982e+12 -889181000000.0 -727862000000.0 -1.23119e+12 -1.51213e+12 -745649000000.0 -619941000000.0 -1.6823e+12 -1.57579e+12 -1.21962e+12 -1.62711e+12 -1.72176e+12 -2.60273e+12 -1.90205e+12 -1.62849e+12 -1.59615e+12 -470214000000.0 -737737000000.0 -1.53783e+12 -985354000000.0 -2.21384e+12 -3.14635e+12 -1.05722e+12 -2.09134e+12 -1.57398e+12 -2.31365e+12 -1.22668e+12 -1.68153e+12 -794582000000.0 -1.62063e+12 -2.07074e+12 -1.6514e+12 -1.97235e+12 -732954000000.0 -1.72567e+12 -1.28197e+12 -2.56065e+12 -1.68388e+12 -2.59163e+12 -1.77876e+12 -2.02186e+12 -2.45591e+12 -514138000000.0 -2.13388e+12 -2.49543e+12 -591751000000.0 -1.11191e+12 -1.55289e+12 -1.93806e+12 -1.2031e+12 -2.14986e+12 -982595000000.0 -836668000000.0 -1.10925e+12 -3.35016e+12 -1.25596e+12 -1.45815e+12 -1.71293e+12 -877013000000.0 -1.44694e+12 -1.34398e+12 -3.22425e+12 -4.05344e+12 -2.34115e+12 -3.07969e+12 -2.42144e+12 -2.28698e+12 -1.05309e+12 -4.23503e+12 -2.53998e+12 -1.61385e+12 -931269000000.0 -2.0179e+12 -1.25347e+12 -3.28408e+12 -4.15402e+12 -3.05352e+12 -2.44825e+12 -911529000000.0 -881931000000.0 -591600000000.0 -1.53924e+12 -1.76902e+12 -936723000000.0 -1.99596e+12 -1.09847e+12 -1.95456e+12 -1.50744e+12 -3.08874e+12 -2.60051e+12 -3.12279e+12 -5.25367e+12 -1.7562e+12 -3.57833e+12 -1.49952e+12 -3.53923e+12 -3.55729e+12 -3.20142e+12 -2.42125e+12 -1.21165e+12 -3.39486e+12 -3.2411e+12 -1.93694e+12 -2.19982e+12 -2.6544e+12 -688510000000.0 -1.72083e+12 -2.50014e+12 -2.46353e+12 -3.30872e+12 -2.74349e+12 -1.60953e+12 -484777000000.0 -649628000000.0 -1.59606e+12 -4.62043e+12 -1.86181e+12 -2.64459e+12 -4.48561e+12 -3.69668e+12 -3.10561e+12 -2.74887e+12 -3.44804e+12 -3.81279e+12 -2.29599e+12 -3.03383e+12 -3.61986e+12 -3.07955e+12 -3.1796e+12 -3.22798e+12 -1.65216e+12 -4.63618e+12 -3.38272e+12 -2.32134e+12 -2.60549e+12 -2.77612e+12 -3.69941e+12 -1.97701e+12 -1.23959e+12 -2.56182e+12 -2.0541e+12 -5.29714e+12 -1.27722e+12 -3.65528e+12 -3.75161e+12 -4.46871e+12 -6.48952e+12 -2.86336e+12 -2.45976e+12 -3.79963e+12 -477326000000.0 -2.78319e+12 -4.70884e+12 -3.84203e+12 -4.2228e+12 -4.79966e+12 -2.84348e+12 -3.50381e+12 -2.28556e+12 -4.68044e+12 -3.22728e+12 -1.99403e+12 -4.25523e+12 -3.81878e+12 -1.56448e+12 -2.69349e+12 -1.72647e+12 -2.45986e+12 -1.95458e+12 -1.66169e+12 -4.14306e+12 -2.54788e+12 -1.71135e+12 -5.08031e+12 -5.56793e+12 -4.22165e+12 -4.19744e+12 -3.12365e+12 -4.73982e+12 -3.53519e+12 -3.84823e+12 -4.8128e+12 -5.96513e+12 -4.92306e+12 -3.5599e+12 -3.45928e+12 -4.70121e+12 -4.35001e+12 -5.38896e+12 -5.19714e+12 -1.4701e+12 -6.02656e+12 -6.91031e+12 -3.20156e+12 -2.95376e+12 -2.21084e+12 -3.446e+12 -3.44035e+12 -4.35391e+12 -6.78502e+12 -3.10617e+12 -3.26193e+12 -4.65742e+12 -4.89193e+12 -3.69656e+12 -6.19409e+12 -3.26496e+12 -4.4279e+12 -3.20247e+12 -5.61949e+12 -6.14308e+12 -3.64522e+12 -5.5155e+12 -4.61633e+12 -5.29962e+12 -5.20377e+12 -2.53219e+12 -3.08698e+12 -3.46272e+12 -5.66591e+12 -3.39046e+12 -5.41796e+12 -4.37056e+12 -5.07449e+12 -4.15439e+12 -2.32334e+12 -5.24281e+12 -3.17338e+12 -4.81721e+12 -5.90677e+12 -5.74865e+12 -6.01482e+12 -2.18189e+12 -3.71421e+12 -3.38885e+12 -3.03421e+12 -3.64776e+12 -4.41082e+12 -7.15709e+12 -5.40822e+12 -4.48854e+12 -2.58868e+12 -5.02024e+12 -3.44604e+12 -6.4483e+12 -7.62902e+12 -7.03209e+12 -3.18749e+12 -4.05352e+12 -3.93352e+12 -6.0427e+12 -5.07028e+12 -6.48408e+12 -4.28654e+12 -7.46617e+12 -4.67797e+12 -4.66771e+12 -3.90551e+12 -6.73083e+12 -6.56292e+12 -4.52133e+12 -2.65055e+12 -4.53917e+12 -6.49742e+12 -7.23526e+12 -4.2111e+12 -6.1794e+12 -3.56074e+12 -4.17497e+12 -5.05198e+12 -3.09294e+12 -2.45535e+12 -5.21221e+12 -5.27325e+12 -7.09681e+12 -4.16751e+12 -6.64603e+12 -4.05686e+12 -1.42978e+12 -5.80494e+12 -2.30224e+12 -4.1365e+12 -4.82173e+12 -6.01157e+12 -6.30238e+12 -6.09229e+12 -4.43968e+12 -3.70821e+12 -4.10399e+12 -4.8752e+12 -4.1243e+12 -4.60718e+12 -4.08204e+12 -2.5279e+12 -4.88123e+12 -5.32949e+12 -4.36789e+12 -2.35178e+12 -5.99221e+12 -4.55181e+12 -2.74894e+12 -3.92532e+12 -4.21966e+12 -1.9044e+12 -4.82023e+12 -5.21364e+12 -6.38959e+12 -4.73191e+12 -2.2089e+12 -3.36598e+12 -2.76568e+12 -4.77973e+12 -4.58217e+12 -4.98315e+12 -5.40087e+12 -5.45617e+12 -4.60865e+12 -5.58722e+12 -6.40409e+12 -4.92751e+12 -4.22016e+12 -4.88143e+12 -3.84786e+12 -2.59491e+12 -4.31502e+12 -4.41847e+12 -5.20842e+12 -5.9359e+12 -3.47897e+12 -3.56542e+12 -3.56278e+12 -5.37519e+12 -4.99346e+12 -5.76789e+12 -5.76598e+12 -5.09583e+12 -5.28863e+12 -4.16149e+12 -3.13231e+12 -5.89398e+12 -5.76121e+12 -5.7059e+12 -6.62348e+12 -12549700000.0 -4.23821e+12 -2.82775e+12 -4.97322e+12 -4.76566e+12 -4.93872e+12 -6.68001e+12 -3.55864e+12 -5.05123e+12 -4.70598e+12 -4.49641e+12 -6.91233e+12 -5.82586e+12 -4.06642e+12 -3.78645e+12 -4.87589e+12 -5.01791e+12 -5.42537e+12 -5.65469e+12 -4.4201e+12 -3.20178e+12 -3.96355e+12 -3.8061e+12 -3.36111e+12 -7.56811e+12 -7.31055e+12 -4.79735e+12 -5.01867e+12 -6.48723e+12 -4.99197e+12 -5.30641e+12 -7.86622e+12 -6.48812e+12 -3.67312e+12 -6.97638e+12 -3.80505e+12 -2.06535e+12 -5.82536e+12 -5.66876e+12 -3.38006e+12 -3.18023e+12 -4.2528e+12 -4.42084e+12 -4.44527e+12 -4.10276e+12 -5.78685e+12 -7.37359e+12 -5.19955e+12 -3.11286e+12 -3.95553e+12 -6.20624e+12 -4.81456e+12 -2.81275e+12 -3.98344e+12 -6.08198e+12 -5.2378e+12 -2.92453e+12 -5.35004e+12 -3.83442e+12 -5.51471e+12 -5.12925e+12 -8.98791e+12 -5.96436e+12 -6.92236e+12 -3.97554e+12 -4.11351e+12 -6.12605e+12 -6.94272e+12 -3.73912e+12 -4.1776e+12 -5.26603e+12 -4.92297e+12 -5.05647e+12 -4.66032e+12 -6.36714e+12 -3.41342e+12 -6.11376e+12 -7.13412e+12 -3.42466e+12 -4.03671e+12 -6.52947e+12 -7.84768e+12 -5.36944e+12 -4.9076e+12 -7.03515e+12 -7.40532e+12 -5.74191e+12 -5.10299e+12 -3.62728e+12 -5.85863e+12 -2.95924e+12 -5.15317e+12 -8.19777e+12 -6.36842e+12 -4.39576e+12 -6.22961e+12 -6.78182e+12 -4.9514e+12 -3.71254e+12 -5.59154e+12 -4.4966e+12 -5.15792e+12 -5.85167e+12 -3.54004e+12 -2.6415e+12 -6.7197e+12 -5.60075e+12 -5.38172e+12 -6.24977e+12 -3.71593e+12 -2.07195e+12 -3.16453e+12 -3.26014e+12 -5.84342e+12 -6.59698e+12 -7.5764e+12 -6.31174e+12 -8.08821e+12 -4.14474e+12 -7.13894e+12 -5.96476e+12 -5.64383e+12 -6.43238e+12 -3.15924e+12 -4.96495e+12 -5.85452e+12 -6.32486e+12 -6.0352e+12 -5.03799e+12 -8.17906e+12 -6.23511e+12 -5.819e+12 -3.32424e+12 -3.17835e+12 -4.09537e+12 -5.19133e+12 -4.91073e+12 -6.23123e+12 -5.37416e+12 -5.63612e+12 -6.30214e+12 -6.28867e+12 -5.36903e+12 -2.16612e+12 -4.08737e+12 -4.529e+12 -6.67192e+12 -8.26956e+12 -8.07304e+12 -9.17241e+12 -4.71106e+12 -2.87098e+12 -3.35903e+12 -12549700000.0 -4.03015e+12 -7.37513e+12 -5.22921e+12 -9.83127e+12 -6.78833e+12 -5.3331e+12 -4.60331e+12 -3.47013e+12 -1.15155e+13 -5.22761e+12 -4.27092e+12 -5.72383e+12 -1.15472e+13 -5.36851e+12 -7.91737e+12 -5.92798e+12 -9.40545e+12 -9.77246e+12 -5.75623e+12 -3.81064e+12 -7.24885e+12 -1.13258e+13 -6.19288e+12 -6.16224e+12 -7.58069e+12 -5.26869e+12 -7.15175e+12 -6.55644e+12 -12549700000.0 -7.22709e+12 -9.70578e+12 -3.34349e+12 -3.675e+12 -5.61317e+12 -6.3168e+12 -3.39282e+12 -5.1103e+12 -7.97255e+12 -5.68885e+12 -8.12936e+12 -7.35913e+12 -8.04451e+12 -5.64139e+12 -4.74843e+12 -5.00736e+12 -5.22572e+12 -7.48887e+12 -4.16964e+12 -5.29359e+12 -7.59339e+12 -1.22571e+13 -7.22398e+12 -7.07431e+12 -9.86832e+12 -7.49578e+12 -3.1404e+12 -9.4135e+12 -1.21296e+13 -4.93126e+12 -9.28441e+12 -7.50401e+12 -5.29752e+12 -7.38771e+12 -3.16631e+12 -6.32889e+12 -2.23837e+12 -7.48099e+12 -6.76167e+12 -4.58411e+12 -5.88049e+12 -7.04633e+12 -1.09941e+13 -8.3166e+12 -6.64297e+12 -2.82535e+12 -6.50651e+12 -6.78324e+12 -5.61889e+12 -6.91372e+12 -5.13301e+12 -7.99408e+12 -5.27249e+12 -7.25607e+12 -6.9941e+12 -6.6654e+12 -6.57517e+12 -8.3427e+12 -4.86122e+12 -5.08305e+12 -8.14529e+12 -5.49726e+12 -6.89698e+12 -1.06676e+13 -8.67388e+12 -5.53397e+12 -5.59674e+12 -1.15989e+13 -1.0505e+13 -1.48962e+13 -1.21599e+13 -7.93063e+12 -4.50236e+12 -12549700000.0 -4.69323e+12 -4.6694e+12 -7.61463e+12 -5.9919e+12 -4.94583e+12 -6.44399e+12 -6.32634e+12 -5.09256e+12 -4.4412e+12 -3.87247e+12 -7.64493e+12 -6.7785e+12 -6.56755e+12 -5.34141e+12 -4.61121e+12 -6.78686e+12 -3.01368e+12 -4.85492e+12 -2.97754e+12 -8.01296e+12 -4.91115e+12 -7.18114e+12 -7.35033e+12 -7.34538e+12 -7.75825e+12 -8.49265e+12 -2.26416e+12 -4.21896e+12 -4.43651e+12 -3.9528e+12 -7.06943e+12 -2.9375e+12 -6.14843e+12 -7.05762e+12 -5.12988e+12 -7.50315e+12 -7.34664e+12 -8.82713e+12 -8.64433e+12 -5.93835e+12 -3.89966e+12 -3.43973e+12 -2.81494e+12 -5.45745e+12 -3.32773e+12 -5.01502e+12 -3.85813e+12 -4.26629e+12 -7.95543e+12 -4.17926e+12 -5.60568e+12 -8.48667e+12 -4.28078e+12 -6.95462e+12 -6.60157e+12 -4.41087e+12 -5.81272e+12 -7.21907e+12 -6.8423e+12 -6.10394e+12 -6.58642e+12 -6.50028e+12 -8.82099e+12 -4.45956e+12 -5.46896e+12 -4.72894e+12 -3.74507e+12 -7.13013e+12 -3.61488e+12 -9.35496e+12 -6.02097e+12 -7.59583e+12 -4.3013e+12 -4.20635e+12 -5.4947e+12 -6.26761e+12 -3.82587e+12 -9.51745e+12 -1.09783e+13 -8.81063e+12 -5.86196e+12 -8.73191e+12 -3.11414e+12 -6.18825e+12 -3.68963e+12 -3.7453e+12 -4.45498e+12 -5.49084e+12 -6.64424e+12 -6.65641e+12 -5.55549e+12 -7.14956e+12 -9.62773e+12 -5.92908e+12 -4.38345e+12 -9.60414e+12 -7.4152e+12 -5.54911e+12 -9.33117e+12 -3.93177e+12 -7.07664e+12 -3.85949e+12 -4.35522e+12 -5.89145e+12 -9.83764e+12 -8.18677e+12 -6.16729e+12 -8.92015e+12 -9.35297e+12 -4.47341e+12 -3.0442e+12 -3.7727e+12 -5.44793e+12 -5.13591e+12 -9.25998e+12 -6.34625e+12 -9.03031e+12 -6.57156e+12 -6.02831e+12 -7.06569e+12 -6.42415e+12 -5.60134e+12 -9.22183e+12 -9.85726e+12 -5.71445e+12 -8.27257e+12 -5.32389e+12 -4.80484e+12 -4.47963e+12 -12549700000.0 -25289600000.0 -4.9812e+12 -5.65422e+12 -4.08101e+12 -1.06014e+13 -1.26e+13 -6.84887e+12 -6.42861e+12 -5.31893e+12 -9.83066e+12 -6.90601e+12 -6.95118e+12 -6.33926e+12 -5.02181e+12 -1.22592e+13 -4.83279e+12 -6.48136e+12 -7.2146e+12 -8.32355e+12 -1.08545e+13 -1.00617e+13 -7.80202e+12 -1.01156e+13 -4.84677e+12 -8.49313e+12 -7.57225e+12 -7.09684e+12 -1.07521e+13 -6.90415e+12 -5.62135e+12 -5.27969e+12 -6.26193e+12 -7.88427e+12 -4.813e+12 -6.94388e+12 -4.08542e+12 -7.10514e+12 -3.01105e+12 -5.62679e+12 -4.42385e+12 -8.83534e+12 -7.43445e+12 -7.35627e+12 -480050000000.0 -3.4003e+12 -6.32565e+12 -5.73319e+12 -4.21256e+12 -6.3157e+12 -5.48963e+12 -1.04688e+13 -8.03253e+12 -1.06284e+13 -1.02247e+13 -6.9495e+12 -8.61646e+12 -5.26874e+12 -7.47141e+12 -8.65395e+12 -3.43435e+12 -9.94516e+12 -6.05825e+12 -8.09433e+12 -8.29254e+12 -5.87045e+12 -6.63031e+12 -9.65223e+12 -5.4911e+12 -6.17844e+12 -6.59124e+12 -7.16193e+12 -1.07146e+13 -5.85835e+12 -6.00641e+12 -1.30144e+13 -4.92618e+12 -5.73586e+12 -4.53073e+12 -5.96233e+12 -6.7619e+12 -8.89539e+12 -5.55234e+12 -7.16566e+12 -8.87049e+12 -4.8291e+12 -7.11875e+12 -5.70691e+12 -5.18126e+12 -7.45699e+12 -7.99241e+12 -4.8757e+12 -4.63137e+12 -7.93253e+12 -5.22364e+12 -4.72487e+12 -7.69282e+12 -4.06155e+12 -3.89354e+12 -8.7561e+12 -6.0685e+12 -7.49982e+12 -1.05559e+13 -3.25733e+12 -6.70191e+12 -8.70661e+12 -7.96328e+12 -1.15425e+13 -7.68621e+12 -8.33184e+12 -5.30572e+12 -6.75221e+12 -5.76437e+12 -8.09996e+12 -9.0765e+12 -9.37006e+12 -5.98695e+12 -1.0216e+13 -5.36833e+12 -7.95852e+12 -4.0346e+12 -3.33303e+12 -7.50031e+12 -8.7852e+12 -5.89385e+12 -6.13257e+12 -6.71133e+12 -2.42658e+12 -5.38984e+12 -4.73646e+12 -9.31642e+12 -9.12011e+12 -7.00084e+12 -9.6336e+12 -6.14884e+12 -7.58287e+12 -7.54116e+12 -6.1611e+12 -1.07303e+13 -6.68049e+12 -5.79431e+12 -5.89949e+12 -9.52627e+12 -1.17507e+13 -1.12215e+13 -1.00128e+13 -1.21577e+13 -7.20538e+12 -8.13383e+12 -9.75877e+12 -4.01056e+12 -6.28863e+12 -5.37893e+12 -6.89892e+12 -4.25582e+12 -5.06096e+12 -4.21697e+12 -3.22537e+12 -3.89812e+12 -6.65114e+12 -9.97946e+12 -7.49065e+12 -9.50004e+12 -1.0002e+13 -6.68668e+12 -1.25091e+13 -8.73404e+12 -5.39934e+12 -5.00559e+12 -8.29171e+12 -8.70836e+12 -4.58512e+12 -4.93274e+12 -8.07141e+12 -7.39202e+12 -6.37218e+12 -8.31444e+12 -6.02185e+12 -5.69544e+12 -6.77374e+12 -6.68311e+12 -1.3807e+13 -4.72117e+12 -5.58601e+12 -5.94774e+12 -8.23698e+12 -8.31696e+12 -8.74211e+12 -4.70669e+12 -3.8865e+12 -2.393e+12 -4.52728e+12 -7.24663e+12 -9.10149e+12 -7.40582e+12 -5.72654e+12 -9.06827e+12 -1.14964e+13 -1.06647e+13 -7.66503e+12 -9.64761e+12 -6.9379e+12 -9.28034e+12 -5.83891e+12 -4.86464e+12 -4.65749e+12 -8.44243e+12 -1.13837e+13 -7.9328e+12 -4.91316e+12 -2.85581e+12 -7.87409e+12 -1.28662e+13 -6.64667e+12 -8.44808e+12 -6.20167e+12 -4.93981e+12 -9.16537e+12 -6.33709e+12 -7.37492e+12 -9.13888e+12 -5.50243e+12 -1.00476e+13 -5.37951e+12 -7.02504e+12 -1.28353e+13 -1.05376e+13 -8.09155e+12 -1.13199e+13 -7.3819e+12 -4.89066e+12 -5.02959e+12 -9.06147e+12 -5.06052e+12 -3.74825e+12 -8.38117e+12 -4.72514e+12 -5.78695e+12 -4.92074e+12 -3.57793e+12 -5.82062e+12 -8.08281e+12 -8.55469e+12 -6.22769e+12 -1.12284e+13 -8.77939e+12 -9.43019e+12 -8.45845e+12 -8.93073e+12 -1.03238e+13 -8.12839e+12 -9.55891e+12 -7.01438e+12 -7.05618e+12 -6.5802e+12 -1.03722e+13 -1.18035e+13 -8.27365e+12 -1.51711e+13 -1.06338e+13 -1.18573e+13 -7.46812e+12 -7.076e+12 -8.11605e+12 -7.00271e+12 -7.47077e+12 -5.30239e+12 -6.11771e+12 -3.46846e+12 -1.29378e+13 -7.48669e+12 -7.25026e+12 -6.12038e+12 -7.63941e+12 -6.85822e+12 -6.09289e+12 -7.63551e+12 -3.02515e+12 -5.96243e+12 -7.624e+12 -8.16366e+12 -7.60667e+12 -6.09936e+12 -9.74018e+12 -6.45425e+12 -5.63125e+12 -5.23555e+12 -6.78875e+12 -9.6917e+12 -5.43452e+12 -7.9449e+12 -6.82263e+12 -5.91571e+12 -8.0938e+12 -6.55924e+12 -6.71915e+12 -6.71303e+12 -7.79479e+12 -7.92326e+12 -3.61192e+12 -6.6192e+12 -5.73644e+12 -3.21782e+12 -1.26022e+13 -1.07027e+13 -1.14521e+13 -5.26741e+12 -8.03163e+12 -7.19158e+12 -6.14734e+12 -1.03162e+13 -5.98861e+12 -7.5142e+12 -6.34535e+12 -7.27255e+12 -1.03628e+13 -1.38154e+13 -1.4994e+13 -9.95897e+12 -5.40435e+12 -8.55645e+12 -5.93443e+12 -5.28182e+12 -8.98602e+12 -8.70373e+12 -1.11824e+13 -6.55787e+12 -8.13379e+12 -8.44021e+12 -8.76056e+12 -6.11065e+12 -5.82312e+12 -8.99704e+12 -7.25358e+12 -6.27567e+12 -4.2553e+12 -8.33491e+12 -3.22682e+12 -6.97101e+12 -3.75942e+12 -6.85045e+12 -9.66068e+12 -7.67195e+12 -5.94372e+12 -8.31102e+12 -4.74643e+12 -6.30247e+12 -8.10008e+12 -7.28007e+12 -8.55367e+12 -6.15712e+12 -5.77684e+12 -5.77999e+12 -5.02927e+12 -7.71002e+12 -9.35754e+12 -8.73571e+12 -7.69877e+12 -6.38594e+12 -4.89888e+12 -4.79256e+12 -9.28415e+12 -6.47565e+12 -1.14201e+13 -9.27966e+12 -6.21329e+12 -3.737e+12 -7.66779e+12 -7.54689e+12 -1.16092e+13 -6.29663e+12 -4.85202e+12 -9.96671e+12 -9.22129e+12 -1.0813e+13 -9.3075e+12 -6.60377e+12 -1.0948e+13 -1.03591e+13 -7.07726e+12 -7.70304e+12 -5.91536e+12 -1.00427e+13 -9.38511e+12 -7.3993e+12 -9.03137e+12 -8.37847e+12 -1.00606e+13 -1.1168e+13 -8.45392e+12 -9.51197e+12 -4.3698e+12 -1.52203e+13 -8.90511e+12 -3.99876e+12 -4.47706e+12 -1.20896e+13 -7.37164e+12 -4.42182e+12 -9.85394e+12 -1.22506e+13 -6.28307e+12 -1.06451e+13 -9.44082e+12 -7.72867e+12 -3.79324e+12 -6.6945e+12 -1.07848e+13 -1.41002e+13 -9.56642e+12 -7.3957e+12 -1.30103e+13 -9.60672e+12 -5.85678e+12 -7.07931e+12 -1.11422e+13 -1.23258e+13 -9.11929e+12 -7.91648e+12 -1.01781e+13 -7.88654e+12 -7.86013e+12 -6.5876e+12 -5.78946e+12 -9.99043e+12 -7.54737e+12 -7.30543e+12 -8.45193e+12 -4.13184e+12 -7.29644e+12 -5.06009e+12 -1.13943e+13 -6.76838e+12 -6.20927e+12 -7.41266e+12 -7.97124e+12 -7.24496e+12 -1.28925e+13 -6.59466e+12 -7.13462e+12 -8.50191e+12 -7.80638e+12 -8.29912e+12 -6.98315e+12 -1.07109e+13 -1.64376e+13 -4.97862e+12 -6.015e+12 -8.88136e+12 -1.05509e+13 -9.88158e+12 -9.08964e+12 -9.45671e+12 -2.98185e+12 -9.07742e+12 -4.68188e+12 -6.14896e+12 -7.60963e+12 -6.32444e+12 -6.02109e+12 -6.99988e+12 -7.83747e+12 -7.27343e+12 -6.22426e+12 -6.0873e+12 -6.75522e+12 -6.16186e+12 -5.689e+12 -1.27435e+13 -9.1288e+12 -6.79518e+12 -1.1335e+13 -7.92668e+12 -1.02981e+13 -6.62775e+12 -8.67526e+12 -1.60833e+13 -7.33701e+12 -1.33001e+13 -1.02928e+13 -1.06884e+13 -1.07826e+13 -1.15254e+13 -8.3561e+12 -8.4411e+12 -4.14197e+12 -5.41977e+12 -3.32805e+12 -6.32815e+12 -7.19888e+12 -8.37273e+12 -8.66312e+12 -1.51641e+13 -1.18676e+13 -6.69452e+12 -8.98471e+12 -6.75899e+12 -1.28217e+13 -5.42446e+12 -6.62616e+12 -1.46635e+13 -1.05461e+13 -9.71433e+12 -8.56459e+12 -9.93495e+12 -6.19399e+12 -7.1911e+12 -7.85682e+12 -8.05053e+12 -6.25504e+12 -5.09451e+12 -5.40264e+12 -5.22412e+12 -7.97948e+12 -5.53019e+12 -6.4227e+12 -7.25954e+12 -5.86529e+12 -6.59121e+12 -4.1633e+12 -5.66989e+12 -1.0351e+13 -8.75766e+12 -3.12466e+12 -4.8077e+12 -1.03036e+13 -5.18697e+12 -7.29626e+12 -4.22815e+12 -8.68571e+12 -5.34516e+12 -7.38957e+12 -5.19846e+12 -3.88612e+12 -4.5863e+12 -6.05669e+12 -7.33203e+12 -4.4965e+12 -5.21382e+12 -9.75733e+12 -8.43717e+12 -6.27803e+12 -7.20756e+12 -9.28069e+12 -1.14866e+13 -5.97437e+12 -7.80763e+12 -5.6451e+12 -8.99154e+12 -7.8467e+12 -1.0235e+13 -6.70118e+12 -8.24948e+12 -4.92347e+12 -7.87948e+12 -5.14257e+12 -8.70775e+12 -1.11791e+13 -1.21955e+13 -6.72468e+12 -7.10661e+12 -4.94069e+12 -1.09319e+13 -9.33e+12 -8.80556e+12 -1.46976e+13 -9.57051e+12 -6.67375e+12 -9.03318e+12 -9.63809e+12 -8.33559e+12 -8.66664e+12 -7.85985e+12 -9.15645e+12 -1.08114e+13 -1.21011e+13 -7.75597e+12 -1.38824e+13 -1.04618e+13 -9.22978e+12 -6.52341e+12 -6.69848e+12 -2.58916e+12 -3.48541e+12 -5.07494e+12 -6.07593e+12 -6.70529e+12 -1.01453e+13 -1.0311e+13 -6.15613e+12 -1.24966e+13 -6.88339e+12 -6.33744e+12 -1.0914e+13 -7.7818e+12 -9.17894e+12 -1.24038e+13 -7.41673e+12 -9.00935e+12 -1.04373e+13 -1.25555e+13 -9.18611e+12 -6.25703e+12 -9.26683e+12 -7.28479e+12 -8.20133e+12 -7.73896e+12 -9.86594e+12 -6.12942e+12 -7.7135e+12 -3.43069e+12 -6.19037e+12 -9.35127e+12 -1.05192e+13 -7.14503e+12 -6.50832e+12 -1.08962e+13 -7.59179e+12 -6.87296e+12 -5.12378e+12 -5.43543e+12 -8.73628e+12 -6.24631e+12 -5.00222e+12 -4.70258e+12 -5.39982e+12 -3.56904e+12 -7.07224e+12 -4.73795e+12 -1.03353e+13 -7.16845e+12 -7.38568e+12 -7.48342e+12 -8.84139e+12 -7.93818e+12 -4.80886e+12 -3.98839e+12 -3.86412e+12 -6.68493e+12 -7.60875e+12 -7.05787e+12 -8.18335e+12 -9.14807e+12 -7.19324e+12 -5.35273e+12 -6.46976e+12 -9.81917e+12 -7.37273e+12 -3.46648e+12 -4.28449e+12 -1.07795e+13 -5.56097e+12 -5.81069e+12 -1.0403e+13 -5.95363e+12 -8.38806e+12 -8.4839e+12 -7.6228e+12 -6.45068e+12 -6.67755e+12 -9.38505e+12 -5.17231e+12 -5.98842e+12 -7.82033e+12 -1.0084e+13 -9.02958e+12 -1.10901e+13 -8.19132e+12 -8.78492e+12 -9.71189e+12 -8.03315e+12 -1.07802e+13 -8.07751e+12 -9.2313e+12 -1.35236e+13 -1.29586e+13 -1.03084e+13 -1.02721e+13 -1.25902e+13 -8.10215e+12 -6.42729e+12 -7.88613e+12 -4.58004e+12 -8.13461e+12 -7.51128e+12 -5.34051e+12 -4.39868e+12 -8.84061e+12 -7.62372e+12 -4.15299e+12 -1.09288e+13 -8.49923e+12 -6.09395e+12 -5.48022e+12 -7.88041e+12 -9.06513e+12 -8.19188e+12 -6.07834e+12 -1.0003e+13 -1.36704e+13 -8.5855e+12 -6.24454e+12 -6.29703e+12 -7.40826e+12 -9.19219e+12 -9.70098e+12 -6.8659e+12 -7.75052e+12 -1.0743e+13 -8.74164e+12 -1.12621e+13 -9.24466e+12 -1.06372e+13 -7.04879e+12 -9.74268e+12 -9.7385e+12 -9.20263e+12 -9.25752e+12 -4.94233e+12 -3.50756e+12 -9.09728e+12 -1.01263e+13 -1.03476e+13 -6.92806e+12 -5.69761e+12 -5.93987e+12 -7.81887e+12 -5.91419e+12 -8.82274e+12 -5.74709e+12 -7.10655e+12 -4.91961e+12 -1.10609e+13 -8.36336e+12 -9.43909e+12 -7.06075e+12 -5.76156e+12 -9.72559e+12 -6.69879e+12 -5.8123e+12 -1.07907e+13 -4.59595e+12 -6.72601e+12 -7.16235e+12 -7.59372e+12 -1.13109e+13 -6.56124e+12 -6.39884e+12 -4.9124e+12 -8.84937e+12 -5.12103e+12 -6.82919e+12 -3.98974e+12 -5.19801e+12 -2.74741e+12 -7.17774e+12 -4.55001e+12 -6.00869e+12 -6.36403e+12 -7.33074e+12 -1.02819e+13 -6.03144e+12 -7.09456e+12 -7.81715e+12 -3.85514e+12 -7.99409e+12 -5.8266e+12 -4.99425e+12 -8.85903e+12 -2.68909e+12 -4.75846e+12 -8.59111e+12 -6.05266e+12 -6.31598e+12 -7.32389e+12 -8.59866e+12 -7.16479e+12 -8.81636e+12 -1.10727e+13 -1.08609e+13 -9.47474e+12 -8.73764e+12 -6.18652e+12 -1.58642e+13 -8.96338e+12 -4.82411e+12 -8.40718e+12 -1.13146e+13 -1.21058e+13 -1.25725e+13 -6.04375e+12 -4.99438e+12 -6.67299e+12 -9.23333e+12 -8.88487e+12 -7.7626e+12 -6.03847e+12 -1.18948e+13 -4.85051e+12 -9.20263e+12 -5.33458e+12 -1.0734e+13 -1.19386e+13 -7.56855e+12 -1.06454e+13 -8.82019e+12 -8.27927e+12 -1.09684e+13 -1.36495e+13 -7.93344e+12 -6.6254e+12 -6.63505e+12 -1.31407e+13 -1.0665e+13 -5.54826e+12 -8.11946e+12 -2.709e+12 -3.99935e+12 -4.53012e+12 -9.55218e+12 -5.60584e+12 -9.96944e+12 -3.45361e+12 -5.66316e+12 -6.13088e+12 -4.64114e+12 -5.74589e+12 -5.25716e+12 -6.44415e+12 -9.2646e+12 -7.58325e+12 -9.38079e+12 -8.09514e+12 -6.05497e+12 -2.90269e+12 -6.43698e+12 -5.73375e+12 -1.34256e+13 -9.25387e+12 -6.05492e+12 -8.9666e+12 -8.88714e+12 -8.04349e+12 -5.54373e+12 -4.59628e+12 -9.16246e+12 -8.76471e+12 -1.13131e+13 -1.06271e+13 -7.50147e+12 -7.43398e+12 -8.60534e+12 -4.80815e+12 -7.5064e+12 -3.48691e+12 -8.01036e+12 -7.617e+12 -7.26671e+12 -9.68804e+12 -6.69378e+12 -1.1445e+13 -5.40367e+12 -1.10066e+13 -5.54381e+12 -9.53598e+12 -9.30133e+12 -8.18855e+12 -6.95316e+12 -9.72049e+12 -7.27362e+12 -4.45355e+12 -3.05748e+12 -1.39807e+13 -5.95666e+12 -5.76229e+12 -9.70506e+12 -8.34067e+12 -6.20871e+12 -4.4835e+12 -7.29845e+12 -9.27362e+12 -7.20033e+12 -6.00825e+12 -7.48194e+12 -6.40141e+12 -7.06678e+12 -4.89852e+12 -4.90367e+12 -7.59439e+12 -8.2905e+12 -4.80793e+12 -4.21333e+12 -7.75113e+12 -5.08671e+12 -7.24971e+12 -7.75512e+12 -4.74694e+12 -4.76124e+12 -1.11689e+13 -9.00174e+12 -1.0738e+13 -8.08294e+12 -6.89488e+12 -1.26506e+13 -7.98563e+12 -7.01947e+12 -6.68703e+12 -1.02875e+13 -8.44993e+12 -5.7965e+12 -5.58664e+12 -8.91148e+12 -1.01453e+13 -6.58553e+12 -3.87723e+12 -4.96973e+12 -1.02118e+13 -1.27231e+13 -5.54853e+12 -7.63356e+12 -1.17924e+13 -1.23178e+13 -6.66922e+12 -5.12262e+12 -6.9882e+12 -8.47755e+12 -8.25753e+12 -8.81892e+12 -9.81351e+12 -5.70763e+12 -6.0036e+12 -7.1864e+12 -4.82734e+12 -4.66835e+12 -6.32723e+12 -6.24571e+12 -5.94997e+12 -9.05998e+12 -6.61187e+12 -8.27227e+12 -5.74378e+12 -7.66035e+12 -8.44886e+12 -1.08623e+13 -1.20261e+13 -5.98852e+12 -1.20281e+13 -4.76544e+12 -4.17879e+12 -7.46095e+12 -6.23177e+12 -5.63703e+12 -7.34552e+12 -8.41681e+12 -1.12537e+13 -4.01695e+12 -5.70707e+12 -1.0035e+13 -8.61244e+12 -7.53435e+12 -7.55038e+12 -4.82572e+12 -6.98263e+12 -1.11683e+13 -6.42058e+12 -9.76075e+12 -4.84986e+12 -7.86337e+12 -9.49472e+12 -8.67897e+12 -5.86086e+12 -5.54676e+12 -8.29399e+12 -2.82375e+12 -5.3142e+12 -8.9462e+12 -5.31494e+12 -5.84236e+12 -2.7759e+12 -7.88352e+12 -5.85866e+12 -5.24197e+12 -6.36397e+12 -1.07632e+13 -8.68e+12 -4.02781e+12 -7.33489e+12 -9.62873e+12 -1.08892e+13 -4.7709e+12 -4.35576e+12 -5.53669e+12 -7.16165e+12 -5.38897e+12 -3.82239e+12 -5.48679e+12 -6.95816e+12 -5.52745e+12 -4.22933e+12 -4.6782e+12 -7.89544e+12 -5.56201e+12 -1.00208e+13 -8.22472e+12 -6.02725e+12 -6.04784e+12 -5.25531e+12 -8.60426e+12 -6.7854e+12 -3.63434e+12 -8.63203e+12 -6.6981e+12 -2.91695e+12 -1.07821e+13 -1.99784e+12 -3.17651e+12 -7.44886e+12 -1.18326e+13 -8.63779e+12 -1.03059e+13 -9.17085e+12 -7.94535e+12 -5.40521e+12 -7.73512e+12 -9.77836e+12 -8.94113e+12 -1.36516e+13 -6.29819e+12 -2.65299e+12 -4.81475e+12 -7.69963e+12 -1.04019e+13 -4.27713e+12 -7.83109e+12 -6.58251e+12 -3.74856e+12 -1.06342e+13 -7.89716e+12 -6.21975e+12 -4.46677e+12 -7.8109e+12 -1.05152e+13 -9.91551e+12 -1.05075e+13 -8.26829e+12 -5.64301e+12 -9.05068e+12 -9.16485e+12 -9.19864e+12 -6.89333e+12 -6.89796e+12 -1.00175e+13 -1.12348e+13 -9.26276e+12 -8.76307e+12 -7.94778e+12 -9.41976e+12 -5.33167e+12 -5.95515e+12 -7.86405e+12 -4.20645e+12 -7.70836e+12 -8.82427e+12 -5.45246e+12 -7.1276e+12 -7.52919e+12 -1.13737e+13 -8.10545e+12 -7.21144e+12 -9.5544e+12 -6.56066e+12 -6.02824e+12 -9.974e+12 -7.26629e+12 -5.8522e+12 -7.02537e+12 -4.16673e+12 -4.48052e+12 -6.26369e+12 -7.55046e+12 -5.27973e+12 -7.42894e+12 -5.66079e+12 -1.29023e+13 -7.76256e+12 -6.09075e+12 -6.46158e+12 -5.642e+12 -6.16998e+12 -7.53747e+12 -6.90207e+12 -7.86144e+12 -1.00557e+13 -4.24182e+12 -6.32627e+12 -7.2036e+12 -4.47349e+12 -8.60387e+12 -4.54279e+12 -6.79946e+12 -6.50458e+12 -8.27366e+12 -7.71327e+12 -3.85501e+12 -6.75488e+12 -8.0763e+12 -7.52517e+12 -6.93817e+12 -2.8926e+12 -6.95416e+12 -7.89603e+12 -5.60801e+12 -4.84839e+12 -5.24405e+12 -3.18738e+12 -5.29477e+12 -2.83038e+12 -7.67094e+12 -6.59024e+12 -3.34218e+12 -3.63442e+12 -4.77705e+12 -5.62866e+12 -3.13511e+12 -7.85309e+12 -6.99357e+12 -8.06113e+12 -5.55605e+12 -6.52738e+12 -1.08492e+13 -8.82263e+12 -4.96052e+12 -6.22248e+12 -1.10612e+13 -7.83459e+12 -9.56198e+12 -6.4653e+12 -7.59309e+12 -2.73935e+12 -1.02609e+13 -7.78488e+12 -7.20767e+12 -1.08084e+13 -6.3452e+12 -7.57165e+12 -5.11723e+12 -1.16523e+13 -9.65168e+12 -1.24575e+13 -8.57625e+12 -7.32295e+12 -9.27712e+12 -4.78178e+12 -1.01033e+13 -1.25193e+13 -8.3186e+12 -7.25581e+12 -7.34984e+12 -7.48707e+12 -9.1854e+12 -7.52648e+12 -4.97496e+12 -1.00184e+13 -9.09991e+12 -5.31306e+12 -5.43283e+12 -7.82789e+12 -4.63767e+12 -8.07218e+12 -7.60113e+12 -8.65907e+12 -1.09372e+13 -1.05806e+13 -3.62407e+12 -6.20876e+12 -6.56215e+12 -8.02497e+12 -1.03824e+13 -5.3401e+12 -7.42324e+12 -8.91848e+12 -8.1415e+12 -9.74931e+12 -7.79408e+12 -6.0975e+12 -8.4963e+12 -6.54635e+12 -5.21049e+12 -9.24026e+12 -9.99328e+12 -6.58539e+12 -7.59749e+12 -3.46278e+12 -7.62669e+12 -7.12423e+12 -6.14281e+12 -4.60499e+12 -7.11083e+12 -3.97236e+12 -7.73261e+12 -7.23164e+12 -6.32874e+12 -1.21529e+13 -8.1033e+12 -7.38791e+12 -1.08367e+13 -5.67889e+12 -6.29963e+12 -4.76603e+12 -4.26677e+12 -6.80179e+12 -9.52463e+12 -7.11466e+12 -3.97455e+12 -9.81369e+12 -9.75912e+12 -5.1247e+12 -4.43262e+12 -8.88443e+12 -8.51874e+12 -6.57541e+12 -6.0086e+12 -3.99903e+12 -6.86427e+12 -4.6708e+12 -4.16128e+12 -7.86464e+12 -4.7369e+12 -1.05485e+13 -5.41729e+12 -6.21136e+12 -8.3101e+12 -9.36356e+12 -5.07074e+12 -9.13963e+12 -9.40841e+12 -5.57159e+12 -3.47953e+12 -8.50498e+12 -5.20024e+12 -5.39753e+12 -9.01013e+12 -5.97024e+12 -1.12433e+13 -6.58791e+12 -4.16903e+12 -8.52461e+12 -7.19693e+12 -6.22315e+12 -6.78255e+12 -6.18626e+12 -1.03064e+13 -6.64674e+12 -7.17704e+12 -9.19787e+12 -6.61565e+12 -7.00248e+12 -6.7707e+12 -7.31366e+12 -8.82457e+12 -7.46035e+12 -8.14189e+12 -5.6489e+12 -8.51694e+12 -1.28644e+13 -4.49347e+12 -6.77071e+12 -1.14774e+13 -8.90261e+12 -9.23452e+12 -8.32033e+12 -1.16621e+13 -9.11461e+12 -2.27654e+12 -1.00738e+13 -9.42954e+12 -9.11489e+12 -1.20808e+13 -8.81608e+12 -6.48175e+12 -6.98034e+12 -7.86476e+12 -7.81368e+12 -7.83687e+12 -7.84497e+12 -7.01312e+12 -4.95057e+12 -9.64092e+12 -7.65722e+12 -8.27513e+12 -4.4307e+12 -3.92882e+12 -9.04743e+12 -5.01353e+12 -2.86377e+12 -6.19121e+12 -2.75182e+12 -8.68964e+12 -8.1549e+12 -8.47759e+12 -7.1506e+12 -5.34089e+12 -6.67128e+12 -6.14952e+12 -1.31508e+13 -4.65366e+12 -1.0324e+13 -1.45352e+13 -6.07874e+12 -4.98881e+12 -4.90895e+12 -6.26869e+12 -4.44198e+12 -7.71734e+12 -9.88899e+12 -1.15302e+13 -6.5503e+12 -5.01699e+12 -6.13949e+12 -5.1037e+12 -9.83775e+12 -7.6348e+12 -2.7131e+12 -6.52614e+12 -9.12893e+12 -1.17752e+13 -3.72439e+12 -8.16558e+12 -8.27463e+12 -3.06989e+12 -7.85174e+12 -6.28009e+12 -5.26217e+12 -7.76302e+12 -6.37998e+12 -5.05807e+12 -9.80365e+12 -7.99272e+12 -4.0911e+12 -5.73693e+12 -1.23183e+13 -1.04967e+13 -5.90491e+12 -5.80744e+12 -4.36332e+12 -6.20377e+12 -7.36504e+12 -1.06228e+13 -3.73197e+12 -5.2979e+12 -4.28082e+12 -3.51573e+12 -7.22364e+12 -6.9186e+12 -6.85769e+12 -8.82375e+12 -6.85372e+12 -7.05971e+12 -8.81189e+12 -5.18764e+12 -7.20458e+12 -5.64896e+12 -3.26616e+12 -5.18263e+12 -1.9918e+12 -7.03886e+12 -7.45535e+12 -4.74559e+12 -6.6831e+12 -8.45826e+12 -1.15718e+13 -3.4275e+12 -4.50547e+12 -3.32269e+12 -6.46347e+12 -5.79435e+12 -7.73041e+12 -5.05525e+12 -6.81515e+12 -3.90999e+12 -5.71086e+12 -8.73319e+12 -3.95646e+12 -6.56872e+12 -7.55785e+12 -1.11886e+13 -5.62205e+12 -9.35881e+12 -4.64567e+12 -6.31001e+12 -4.41278e+12 -6.84813e+12 -4.52199e+12 -7.08376e+12 -9.66391e+12 -1.12299e+13 -4.78877e+12 -6.34007e+12 -7.89873e+12 -7.20276e+12 -7.24846e+12 -6.07379e+12 -3.78569e+12 -1.13236e+13 -9.20877e+12 -7.56028e+12 -5.50295e+12 -4.27564e+12 -1.0929e+13 -6.65701e+12 -1.40464e+13 -7.54565e+12 -1.12938e+13 -9.68377e+12 -7.04225e+12 -7.81941e+12 -1.28766e+13 -6.20055e+12 -9.7824e+12 -7.61961e+12 -1.01473e+13 -6.87923e+12 -1.01473e+13 -6.27501e+12 -6.99495e+12 -4.96194e+12 -6.78435e+12 -5.11233e+12 -4.15519e+12 -5.54203e+12 -5.92483e+12 -5.10057e+12 -4.39226e+12 -6.3876e+12 -6.63143e+12 -6.85068e+12 -7.32297e+12 -1.35575e+13 -9.02077e+12 -4.4193e+12 -6.45913e+12 -8.12724e+12 -1.57935e+13 -8.415e+12 -5.37274e+12 -1.06439e+13 -7.96514e+12 -1.00427e+13 -6.80631e+12 -9.8301e+12 -7.19671e+12 -7.1172e+12 -7.90072e+12 -9.05851e+12 -9.61791e+12 -6.58468e+12 -1.51028e+13 -1.16845e+13 -5.70125e+12 -9.47983e+12 -7.73105e+12 -4.86348e+12 -7.76683e+12 -1.01357e+13 -9.615e+12 -7.24729e+12 -9.27569e+12 -6.31706e+12 -7.28938e+12 -7.3121e+12 -4.29291e+12 -6.39905e+12 -9.74466e+12 -5.28736e+12 -8.99184e+12 -7.79736e+12 -9.11498e+12 -6.91913e+12 -4.6544e+12 -5.79304e+12 -4.36339e+12 -6.47764e+12 -5.6831e+12 -9.32955e+12 -6.84038e+12 -4.12252e+12 -5.14101e+12 -5.0842e+12 -5.95363e+12 -3.86309e+12 -6.9952e+12 -8.03597e+12 -6.21007e+12 -8.35167e+12 -5.11417e+12 -8.91567e+12 -6.27827e+12 -7.58255e+12 -5.97696e+12 -6.09298e+12 -5.12519e+12 -7.39019e+12 -6.19508e+12 -6.48888e+12 -7.02907e+12 -4.14561e+12 -6.16119e+12 -3.81838e+12 -5.0079e+12 -3.52894e+12 -5.95113e+12 -8.71725e+12 -6.84445e+12 -3.96002e+12 -5.39562e+12 -5.38893e+12 -6.94722e+12 -4.10894e+12 -7.85022e+12 -5.28527e+12 -3.83049e+12 -6.44009e+12 -3.95653e+12 -6.13242e+12 -7.87084e+12 -9.77843e+12 -9.81198e+12 -9.5404e+12 -8.38287e+12 -1.02462e+13 -2.41094e+12 -5.95355e+12 -9.25208e+12 -1.01681e+13 -7.75566e+12 -1.0163e+13 -4.86969e+12 -6.87625e+12 -5.86097e+12 -6.1893e+12 -6.01697e+12 -4.15559e+12 -5.93187e+12 -7.75964e+12 -5.82346e+12 -6.5789e+12 -6.19377e+12 -7.03331e+12 -4.59811e+12 -4.23574e+12 -4.71468e+12 -6.95993e+12 -8.64563e+12 -5.53886e+12 -6.65205e+12 -9.1081e+12 -7.02208e+12 -9.80731e+12 -5.39983e+12 -1.07997e+13 -8.78421e+12 -7.3522e+12 -6.05629e+12 -6.00443e+12 -6.30098e+12 -8.27622e+12 -8.69148e+12 -6.09645e+12 -4.33273e+12 -5.74614e+12 -6.63041e+12 -5.67403e+12 -4.39618e+12 -7.23243e+12 -5.67667e+12 -5.05478e+12 -6.66103e+12 -2.64195e+12 -1.05243e+13 -7.56652e+12 -9.633e+12 -7.38263e+12 -1.87777e+13 -1.17214e+13 -6.62022e+12 -7.0999e+12 -1.0452e+13 -9.27384e+12 -1.01533e+13 -6.67157e+12 -6.09075e+12 -7.36723e+12 -5.33327e+12 -8.34598e+12 -6.74598e+12 -8.48273e+12 -5.63477e+12 -1.11112e+13 -5.16526e+12 -5.48634e+12 -7.24121e+12 -5.94538e+12 -9.87208e+12 -4.86407e+12 -6.92955e+12 -5.7909e+12 -6.25304e+12 -5.9836e+12 -7.74881e+12 -9.11848e+12 -5.2934e+12 -5.49829e+12 -6.51876e+12 -5.30678e+12 -8.49741e+12 -6.9464e+12 -4.95616e+12 -8.09451e+12 -2.81296e+12 -5.6953e+12 -5.57175e+12 -3.97376e+12 -4.58417e+12 -4.59871e+12 -5.43313e+12 -5.7865e+12 -5.62181e+12 -3.75319e+12 -5.0842e+12 -3.67652e+12 -4.14752e+12 -9.91614e+12 -6.51849e+12 -8.11624e+12 -6.08327e+12 -6.68009e+12 -4.67983e+12 -6.70229e+12 -5.58831e+12 -3.18694e+12 -7.45698e+12 -3.81477e+12 -7.21426e+12 -6.6701e+12 -7.17735e+12 -6.12237e+12 -5.47409e+12 -6.68338e+12 -5.82371e+12 -5.73033e+12 -5.25848e+12 -5.36499e+12 -3.07808e+12 -7.66536e+12 -7.65158e+12 -3.74057e+12 -7.67269e+12 -6.22167e+12 -9.23447e+12 -4.61721e+12 -6.39697e+12 -2.29012e+12 -5.44403e+12 -3.90482e+12 -8.25111e+12 -2.8326e+12 -1.03497e+13 -3.86731e+12 -4.74607e+12 -6.19198e+12 -6.37372e+12 -5.1596e+12 -4.70088e+12 -5.13013e+12 -1.28522e+13 -8.76444e+12 -4.82449e+12 -8.06516e+12 -4.2387e+12 -4.58108e+12 -7.22528e+12 -9.61481e+12 -1.29798e+13 -5.23503e+12 -3.81564e+12 -6.12806e+12 -3.01137e+12 -5.89317e+12 -5.0993e+12 -7.60871e+12 -8.63608e+12 -8.89449e+12 -7.13864e+12 -8.63426e+12 -3.04785e+12 -6.36758e+12 -9.90931e+12 -5.29464e+12 -9.01533e+12 -7.79596e+12 -5.11278e+12 -7.76743e+12 -1.32145e+13 -7.16354e+12 -7.67405e+12 -7.16221e+12 -1.00426e+13 -7.93485e+12 -1.06208e+13 -1.00054e+13 -3.36513e+12 -5.16533e+12 -8.76713e+12 -5.3037e+12 -4.52803e+12 -5.41656e+12 -6.48529e+12 -4.77998e+12 -1.00597e+13 -8.02439e+12 -8.1054e+12 -5.4636e+12 -4.61989e+12 -7.21808e+12 -8.26164e+12 -4.22639e+12 -8.32887e+12 -1.35605e+13 -6.90282e+12 -6.32868e+12 -6.16213e+12 -8.17844e+12 -6.87593e+12 -3.4734e+12 -5.98906e+12 -7.4409e+12 -7.44275e+12 -4.41321e+12 -5.37739e+12 -6.64372e+12 -5.79094e+12 -4.95407e+12 -6.792e+12 -4.92471e+12 -1.96325e+12 -7.51252e+12 -3.74054e+12 -1.11194e+13 -9.8513e+12 -4.57738e+12 -6.41585e+12 -6.66359e+12 -9.12201e+12 -5.45483e+12 -1.05923e+13 -4.25544e+12 -3.07904e+12 -5.9598e+12 -6.37892e+12 -1.02314e+12 -5.48409e+12 -9.32999e+12 -8.13529e+12 -3.34364e+12 -5.85474e+12 -6.24821e+12 -4.80292e+12 -6.08929e+12 -1.05753e+13 -2.12903e+12 -6.07588e+12 -4.57866e+12 -5.33062e+12 -5.36695e+12 -6.52198e+12 -5.23344e+12 -5.95453e+12 -5.99928e+12 -4.98633e+12 -4.55393e+12 -4.61374e+12 -4.35311e+12 -5.01891e+12 -4.29034e+12 -5.9717e+12 -7.99652e+12 -5.87112e+12 -4.7023e+12 -5.24098e+12 -7.30153e+12 -5.90875e+12 -3.69374e+12 -3.26811e+12 -3.05671e+12 -3.98791e+12 -8.46468e+12 -2.78275e+12 -5.97009e+12 -2.41186e+12 -4.99933e+12 -4.18885e+12 -3.94881e+12 -5.36405e+12 -7.90272e+12 -7.40442e+12 -5.35339e+12 -5.62874e+12 -6.36675e+12 -7.13424e+12 -3.78062e+12 -5.68902e+12 -6.74688e+12 -7.89729e+12 -3.99872e+12 -4.34719e+12 -3.91555e+12 -7.3949e+12 -5.13987e+12 -7.41558e+12 -7.31085e+12 -6.63497e+12 -6.9486e+12 -7.22194e+12 -7.90334e+12 -6.6769e+12 -4.75343e+12 -4.11558e+12 -3.34687e+12 -4.81365e+12 -5.79728e+12 -9.97027e+12 -6.68628e+12 -9.69938e+12 -4.99607e+12 -7.22839e+12 -1.26435e+13 -8.0391e+12 -4.48779e+12 -8.13668e+12 -1.38591e+13 -5.86063e+12 -1.09796e+13 -3.97254e+12 -7.15519e+12 -6.55201e+12 -7.73295e+12 -4.47783e+12 -6.20899e+12 -5.90662e+12 -5.081e+12 -6.57528e+12 -6.45914e+12 -5.61086e+12 -4.47244e+12 -8.75532e+12 -5.8095e+12 -1.11202e+13 -9.42896e+12 -6.70637e+12 -1.2155e+13 -9.30668e+12 -5.84991e+12 -7.1181e+12 -4.95121e+12 -3.70286e+12 -5.89153e+12 -5.0929e+12 -6.85356e+12 -4.75018e+12 -7.52995e+12 -6.58383e+12 -9.20329e+12 -5.57858e+12 -8.26728e+12 -1.10154e+13 -6.20339e+12 -4.05694e+12 -6.32172e+12 -4.25254e+12 -8.60424e+12 -6.55184e+12 -5.68204e+12 -3.80749e+12 -7.37239e+12 -7.21945e+12 -6.02936e+12 -5.03707e+12 -3.78514e+12 -3.91875e+12 -7.43397e+12 -7.18966e+12 -5.8856e+12 -6.60487e+12 -9.59217e+12 -7.19469e+12 -4.77746e+12 -2.44254e+12 -8.95909e+12 -2.35795e+12 -4.06107e+12 -6.44804e+12 -5.18194e+12 -9.7046e+12 -6.67138e+12 -4.9869e+12 -4.09645e+12 -3.77057e+12 -5.94274e+12 -3.0318e+12 -8.09863e+12 -6.59673e+12 -6.62324e+12 -7.26965e+12 -5.15168e+12 -5.19152e+12 -3.36479e+12 -4.57055e+12 -7.12095e+12 -7.91674e+12 -6.92989e+12 -8.8826e+12 -5.25709e+12 -1.93676e+12 -4.00047e+12 -6.10164e+12 -5.70683e+12 -3.51261e+12 -5.04472e+12 -6.2762e+12 -5.01361e+12 -3.07145e+12 -3.6204e+12 -5.38874e+12 -4.81666e+12 -6.13908e+12 -3.10436e+12 -4.89459e+12 -6.81947e+12 -4.47431e+12 -6.48056e+12 -4.99075e+12 -5.51132e+12 -2.57156e+12 -4.42911e+12 -4.45317e+12 -8.55135e+12 -5.81481e+12 -4.76544e+12 -4.46649e+12 -4.31563e+12 -4.87719e+12 -5.52386e+12 -3.97064e+12 -5.09821e+12 -5.31131e+12 -5.6707e+12 -4.52204e+12 -3.96904e+12 -4.48973e+12 -3.27309e+12 -5.60735e+12 -6.57773e+12 -4.97226e+12 -2.27511e+12 -4.56479e+12 -7.07734e+12 -3.37064e+12 -6.66205e+12 -6.32802e+12 -8.42797e+12 -1.10732e+13 -5.81954e+12 -5.53349e+12 -8.23348e+12 -6.84724e+12 -9.12115e+12 -7.58205e+12 -1.14972e+13 -4.78226e+12 -6.01901e+12 -7.57496e+12 -5.58213e+12 -5.6238e+12 -8.4471e+12 -1.28673e+13 -9.00737e+12 -3.88976e+12 -3.78388e+12 -8.31589e+12 -4.10834e+12 -9.28571e+12 -6.7943e+12 -3.79914e+12 -5.25605e+12 -5.88768e+12 -9.21037e+12 -8.64432e+12 -7.47825e+12 -9.60959e+12 -5.42051e+12 -8.26323e+12 -5.77468e+12 -5.36766e+12 -6.65746e+12 -4.7124e+12 -5.07452e+12 -9.9532e+12 -4.57948e+12 -7.25316e+12 -8.59434e+12 -1.25878e+13 -6.9975e+12 -1.31299e+13 -7.15956e+12 -7.09594e+12 -5.83357e+12 -5.91271e+12 -4.20949e+12 -7.36207e+12 -4.88522e+12 -3.61509e+12 -5.33813e+12 -5.82537e+12 -6.05432e+12 -6.26927e+12 -3.67101e+12 -4.62371e+12 -4.42006e+12 -4.05755e+12 -4.32024e+12 -7.73688e+12 -7.51899e+12 -8.24206e+12 -9.48903e+12 -4.79054e+12 -7.02166e+12 -6.63866e+12 -4.39689e+12 -5.66747e+12 -5.01396e+12 -5.95991e+12 -5.06364e+12 -3.59286e+12 -6.07206e+12 -4.52261e+12 -6.75091e+12 -4.26973e+12 -6.45016e+12 -6.35465e+12 -3.24997e+12 -6.47439e+12 -5.03713e+12 -8.14344e+12 -8.44364e+12 -1.18105e+13 -5.6393e+12 -9.94515e+12 -6.59954e+12 -8.50932e+12 -9.93734e+12 -2.97634e+12 -3.94484e+12 -6.19199e+12 -5.60458e+12 -5.07105e+12 -4.9982e+12 -6.02565e+12 -1.62983e+12 -5.13213e+12 -7.97053e+12 -3.81088e+12 -6.0508e+12 -6.63154e+12 -4.78788e+12 -4.19562e+12 -4.98852e+12 -5.45713e+12 -5.87621e+12 -7.35086e+12 -5.91871e+12 -8.21201e+12 -5.07477e+12 -4.38304e+12 -6.85957e+12 -3.68101e+12 -5.86218e+12 -5.78312e+12 -5.55333e+12 -5.49414e+12 -3.42923e+12 -3.49036e+12 -2.72335e+12 -5.24672e+12 -5.09938e+12 -5.60126e+12 -4.18945e+12 -2.45076e+12 -5.08447e+12 -5.58106e+12 -5.29373e+12 -5.43712e+12 -5.32203e+12 -5.20367e+12 -4.84624e+12 -6.17062e+12 -2.90478e+12 -4.14756e+12 -5.62461e+12 -5.41632e+12 -6.64963e+12 -4.66711e+12 -6.47344e+12 -8.08291e+12 -4.6723e+12 -4.68205e+12 -3.81828e+12 -6.20864e+12 -5.04399e+12 -6.15292e+12 -3.81372e+12 -9.76323e+12 -4.13593e+12 -3.86876e+12 -6.07734e+12 -5.77414e+12 -3.70837e+12 -4.59859e+12 -6.58184e+12 -8.25973e+12 -5.55457e+12 -5.5649e+12 -3.16203e+12 -3.6084e+12 -7.78746e+12 -4.12613e+12 -4.73979e+12 -3.16073e+12 -9.26672e+12 -5.06304e+12 -4.5901e+12 -6.99895e+12 -6.31941e+12 -5.33269e+12 -4.34423e+12 -6.2548e+12 -4.25177e+12 -4.78538e+12 -6.47896e+12 -6.96303e+12 -7.11355e+12 -6.66081e+12 -5.76275e+12 -8.8002e+12 -7.89942e+12 -6.54703e+12 -8.47571e+12 -1.19436e+13 -9.2702e+12 -6.04238e+12 -6.80838e+12 -1.02403e+13 -5.3482e+12 -5.42194e+12 -6.56027e+12 -6.18465e+12 -5.71361e+12 -1.05943e+13 -7.41461e+12 -4.87116e+12 -5.47191e+12 -8.45833e+12 -5.72575e+12 -9.57506e+12 -5.41479e+12 -7.08936e+12 -5.65654e+12 -3.45226e+12 -5.11952e+12 -3.81072e+12 -2.6335e+12 -6.06112e+12 -6.41632e+12 -7.48236e+12 -6.66074e+12 -5.37426e+12 -3.93798e+12 -9.90381e+12 -7.58253e+12 -8.2646e+12 -7.03351e+12 -5.91641e+12 -8.8996e+12 -6.26214e+12 -7.58225e+12 -6.52287e+12 -7.38205e+12 -4.91712e+12 -5.62454e+12 -6.70913e+12 -5.58193e+12 -5.26485e+12 -9.53123e+12 -5.68778e+12 -7.72195e+12 -6.7648e+12 -5.67704e+12 -4.83507e+12 -1.13389e+13 -5.53322e+12 -5.73093e+12 -8.397e+12 -8.03231e+12 -4.94575e+12 -3.11109e+12 -8.13968e+12 -5.8303e+12 -4.75823e+12 -4.90238e+12 -4.34725e+12 -6.75612e+12 -3.20994e+12 -6.87763e+12 -4.74014e+12 -5.68028e+12 -3.89596e+12 -4.07547e+12 -5.35581e+12 -4.53353e+12 -6.24526e+12 -4.92185e+12 -5.13303e+12 -8.21616e+12 -5.48672e+12 -4.86258e+12 -3.16354e+12 -3.8332e+12 -2.55418e+12 -4.41321e+12 -5.32344e+12 -3.42804e+12 -3.36033e+12 -4.53112e+12 -4.74275e+12 -3.97563e+12 -4.95275e+12 -6.83493e+12 -4.39566e+12 -2.43271e+12 -3.41916e+12 -3.37251e+12 -3.5176e+12 -6.9643e+12 -3.32917e+12 -5.03826e+12 -8.47563e+12 -3.85947e+12 -6.01449e+12 -5.25359e+12 -6.78611e+12 -5.62312e+12 -5.22859e+12 -4.36834e+12 -2.94348e+12 -5.91805e+12 -7.56504e+12 -6.19046e+12 -5.25889e+12 -7.41883e+12 -9.50453e+12 -4.35379e+12 -6.59186e+12 -5.57433e+12 -3.9065e+12 -5.01577e+12 -8.88747e+12 -5.64924e+12 -4.87768e+12 -6.91158e+12 -5.98549e+12 -5.09333e+12 -5.654e+12 -8.5444e+12 -8.14223e+12 -6.57053e+12 -4.70487e+12 -6.291e+12 -5.98348e+12 -5.34001e+12 -6.71317e+12 -5.95631e+12 -4.59111e+12 -7.56568e+12 -8.10543e+12 -6.86336e+12 -4.76055e+12 -5.88312e+12 -2.43822e+12 -7.97297e+12 -4.10807e+12 -1.04245e+13 -5.75971e+12 -6.77168e+12 -4.75716e+12 -8.938e+12 -9.75561e+12 -1.50262e+13 -8.13898e+12 -8.40423e+12 -1.11585e+13 -7.94403e+12 -9.95029e+12 -9.15908e+12 -7.28148e+12 -8.20053e+12 -4.94306e+12 -1.22947e+13 -6.2327e+12 -5.89615e+12 -8.87038e+12 -7.42054e+12 -4.63039e+12 -7.99295e+12 -4.95616e+12 -7.02494e+12 -5.63645e+12 -5.79163e+12 -1.00057e+13 -5.10478e+12 -9.47092e+12 -9.36771e+12 -6.36717e+12 -7.35951e+12 -6.43508e+12 -5.53681e+12 -5.46623e+12 -5.55259e+12 -4.25141e+12 -5.56747e+12 -7.54894e+12 -5.99919e+12 -8.33978e+12 -3.20129e+12 -4.72518e+12 -5.70355e+12 -6.44052e+12 -7.39683e+12 -2.92768e+12 -9.60477e+12 -6.0202e+12 -4.95708e+12 -3.56529e+12 -6.80243e+12 -1.07968e+13 -6.555e+12 -7.33864e+12 -6.7336e+12 -5.71116e+12 -6.48542e+12 -7.92606e+12 -3.03895e+12 -2.5208e+12 -5.27973e+12 -5.21856e+12 -4.73794e+12 -2.68668e+12 -3.15587e+12 -3.22743e+12 -5.73728e+12 -5.67391e+12 -4.96006e+12 -7.05047e+12 -2.39496e+12 -4.94641e+12 -3.93222e+12 -3.81579e+12 -5.39744e+12 -3.29558e+12 -4.46948e+12 -3.09477e+12 -3.91729e+12 -5.3023e+12 -2.70206e+12 -3.2563e+12 -4.88179e+12 -4.72345e+12 -5.71327e+12 -3.76695e+12 -5.08438e+12 -3.67711e+12 -4.59063e+12 -5.49132e+12 -2.80012e+12 -5.77127e+12 -5.17772e+12 -6.27071e+12 -5.55409e+12 -4.72354e+12 -1.78671e+12 -4.06991e+12 -2.78982e+12 -3.07208e+12 -3.95853e+12 -5.47448e+12 -6.01639e+12 -4.98472e+12 -4.38508e+12 -3.43207e+12 -2.96754e+12 -5.71544e+12 -5.72026e+12 -3.66109e+12 -7.49891e+12 -7.15251e+12 -4.11103e+12 -4.29499e+12 -2.80933e+12 -1.93295e+12 -3.25011e+12 -5.58791e+12 -6.06414e+12 -4.02265e+12 -7.34673e+12 -6.0067e+12 -4.55567e+12 -7.60888e+12 -4.01614e+12 -5.91192e+12 -2.78518e+12 -4.20552e+12 -5.5526e+12 -3.46945e+12 -9.64771e+12 -5.83789e+12 -6.39643e+12 -7.69667e+12 -5.99067e+12 -2.7934e+12 -6.30364e+12 -3.92925e+12 -5.743e+12 -7.52781e+12 -4.80897e+12 -4.78139e+12 -8.68045e+12 -5.42857e+12 -6.67083e+12 -6.88954e+12 -7.67753e+12 -6.77603e+12 -6.19216e+12 -6.70922e+12 -6.04553e+12 -7.8533e+12 -6.41367e+12 -6.03994e+12 -4.6401e+12 -6.92498e+12 -3.60744e+12 -1.18464e+13 -5.60392e+12 -6.18641e+12 -7.44672e+12 -6.64994e+12 -8.06913e+12 -9.09387e+12 -6.166e+12 -6.92753e+12 -4.90889e+12 -4.20735e+12 -2.85353e+12 -7.06939e+12 -3.54447e+12 -4.98783e+12 -3.43952e+12 -4.09999e+12 -1.03866e+13 -4.77223e+12 -6.28122e+12 -4.82802e+12 -5.70764e+12 -9.21588e+12 -6.52249e+12 -7.12316e+12 -6.79429e+12 -1.05074e+13 -4.6544e+12 -2.86528e+12 -5.11688e+12 -7.15927e+12 -4.80528e+12 -4.67445e+12 -5.23379e+12 -7.1315e+12 -6.34489e+12 -5.13989e+12 -4.32413e+12 -4.45023e+12 -8.24073e+12 -3.24264e+12 -8.95458e+12 -2.18332e+12 -2.94919e+12 -3.92619e+12 -6.13745e+12 -4.59357e+12 -6.17437e+12 -4.47972e+12 -7.49324e+12 -6.48764e+12 -6.12627e+12 -4.98065e+12 -6.14432e+12 -4.18287e+12 -6.46879e+12 -9.20073e+12 -4.20072e+12 -6.22898e+12 -4.25548e+12 -2.92261e+12 -5.72703e+12 -5.99283e+12 -6.21606e+12 -4.09998e+12 -6.32852e+12 -4.74555e+12 -6.34953e+12 -6.38973e+12 -5.94302e+12 -3.36473e+12 -5.25299e+12 -5.08332e+12 -2.90676e+12 -5.62732e+12 -3.67723e+12 -2.03825e+12 -3.56974e+12 -3.98926e+12 -2.30972e+12 -4.71413e+12 -4.62167e+12 -3.22074e+12 -3.38216e+12 -3.94985e+12 -3.07326e+12 -3.65885e+12 -3.40148e+12 -3.53608e+12 -3.17887e+12 -5.48717e+12 -4.28116e+12 -3.89742e+12 -3.43289e+12 -5.12394e+12 -3.50769e+12 -2.82442e+12 -4.52989e+12 -3.51447e+12 -3.23205e+12 -1.89123e+12 -2.42642e+12 -4.26646e+12 -7.3431e+12 -5.60351e+12 -8.24458e+12 -4.91511e+12 -7.47189e+12 -6.81089e+12 -7.88164e+12 -5.4657e+12 -6.16518e+12 -5.41046e+12 -5.77623e+12 -7.12634e+12 -7.41234e+12 -4.52259e+12 -8.11203e+12 -7.14223e+12 -8.40217e+12 -5.92592e+12 -5.21338e+12 -4.09392e+12 -6.08572e+12 -4.55135e+12 -6.31603e+12 -7.2785e+12 -5.93942e+12 -7.6301e+12 -6.50561e+12 -939582000000.0 -7.02944e+12 -8.41983e+12 -5.6133e+12 -3.90501e+12 -7.6345e+12 -5.88297e+12 -6.0021e+12 -7.35962e+12 -5.16297e+12 -8.22294e+12 -5.25992e+12 -5.80629e+12 -8.10229e+12 -5.55986e+12 -6.85779e+12 -6.51566e+12 -5.80281e+12 -9.73816e+12 -1.18914e+13 -6.47507e+12 -7.1753e+12 -2.62933e+12 -4.42494e+12 -6.20979e+12 -9.53997e+12 -2.57989e+12 -3.36575e+12 -1.75911e+12 -4.8593e+12 -7.68917e+12 -3.72612e+12 -5.11017e+12 -3.1196e+12 -1.05607e+13 -4.26638e+12 -5.01126e+12 -4.52559e+12 -5.88221e+12 -5.48379e+12 -8.44827e+12 -4.05317e+12 -4.22546e+12 -7.47524e+12 -9.44685e+12 -4.91944e+12 -6.65245e+12 -4.59877e+12 -5.86658e+12 -7.66841e+12 -4.26926e+12 -3.99969e+12 -5.11865e+12 -5.43125e+12 -4.21032e+12 -6.64272e+12 -5.1837e+12 -4.6201e+12 -7.29536e+12 -6.29952e+12 -3.30772e+12 -5.44294e+12 -5.05382e+12 -4.62638e+12 -5.58632e+12 -6.35942e+12 -5.80932e+12 -4.4086e+12 -3.90587e+12 -6.04061e+12 -5.04448e+12 -4.65892e+12 -5.14636e+12 -5.48994e+12 -5.58475e+12 -5.02666e+12 -5.9153e+12 -1.94838e+12 -2.21633e+12 -6.67045e+12 -6.54428e+12 -7.29471e+12 -3.43574e+12 -3.54942e+12 -3.10989e+12 -3.7948e+12 -6.01974e+12 -5.64813e+12 -2.84078e+12 -5.35592e+12 -3.82153e+12 -5.14737e+12 -4.37058e+12 -4.57513e+12 -1.9747e+12 -2.42742e+12 -1.6765e+12 -3.99748e+12 -3.77858e+12 -3.38438e+12 -3.44241e+12 -4.43737e+12 -3.49039e+12 -3.38171e+12 -3.22446e+12 -2.92896e+12 -4.01887e+12 -2.14465e+12 -2.58109e+12 -1.78843e+12 -3.76525e+12 -3.60583e+12 -3.04791e+12 -5.15052e+12 -3.89435e+12 -2.79576e+12 -3.96817e+12 -5.71396e+12 -4.06156e+12 -3.76845e+12 -4.46987e+12 -3.9097e+12 -4.55415e+12 -2.27352e+12 -3.47064e+12 -3.86612e+12 -5.3578e+12 -3.96832e+12 -5.50647e+12 -6.00193e+12 -1.60679e+12 -4.09494e+12 -4.06947e+12 -3.50105e+12 -5.87236e+12 -3.75546e+12 -4.77503e+12 -6.5144e+12 -4.62383e+12 -6.53771e+12 -5.41918e+12 -3.82122e+12 -5.07493e+12 -6.52831e+12 -8.60679e+12 -4.30069e+12 -6.39592e+12 -3.79658e+12 -5.23604e+12 -5.24177e+12 -5.98704e+12 -5.69008e+12 -6.74552e+12 -6.65793e+12 -7.16059e+12 -5.75645e+12 -9.64011e+12 -7.29646e+12 -7.96866e+12 -3.23022e+12 -7.4132e+12 -6.06371e+12 -3.38764e+12 -5.26471e+12 -8.3408e+12 -6.91651e+12 -7.59322e+12 -4.20036e+12 -3.56229e+12 -5.24177e+12 -6.44107e+12 -4.41805e+12 -2.85092e+12 -5.55672e+12 -5.75457e+12 -8.92653e+12 -5.04751e+12 -5.44211e+12 -5.55651e+12 -4.54997e+12 -8.51425e+12 -5.24884e+12 -5.5969e+12 -7.26182e+12 -5.32107e+12 -2.87076e+12 -3.88138e+12 -4.01616e+12 -3.97703e+12 -2.96729e+12 -6.61367e+12 -5.19021e+12 -5.6281e+12 -5.96477e+12 -5.53461e+12 -7.12728e+12 -6.95813e+12 -4.81235e+12 -4.72799e+12 -6.14874e+12 -4.37308e+12 -7.03194e+12 -4.88721e+12 -4.97774e+12 -4.83076e+12 -5.88848e+12 -3.47304e+12 -4.61474e+12 -6.1314e+12 -4.72427e+12 -4.52354e+12 -4.13888e+12 -1.98269e+12 -6.32885e+12 -4.81115e+12 -6.65854e+12 -9.77424e+12 -4.78156e+12 -4.88539e+12 -5.03893e+12 -5.2262e+12 -7.16979e+12 -6.968e+12 -4.48644e+12 -7.29415e+12 -5.61311e+12 -3.94103e+12 -4.72982e+12 -6.30654e+12 -4.2454e+12 -3.19225e+12 -6.21026e+12 -4.86634e+12 -4.97143e+12 -3.34998e+12 -5.50414e+12 -6.31847e+12 -3.50864e+12 -3.09506e+12 -4.06309e+12 -2.86959e+12 -3.77936e+12 -2.25345e+12 -5.63192e+12 -1.99011e+12 -3.38709e+12 -2.70737e+12 -3.35897e+12 -2.78762e+12 -3.89741e+12 -2.12657e+12 -2.0076e+12 -3.04249e+12 -2.79074e+12 -2.58249e+12 -3.89841e+12 -4.01327e+12 -3.0879e+12 -3.04958e+12 -2.57234e+12 -2.90834e+12 -3.43613e+12 -4.35301e+12 -6.50155e+12 -4.07208e+12 -4.80662e+12 -3.6099e+12 -2.40965e+12 -3.83783e+12 -5.01606e+12 -3.39218e+12 -3.57661e+12 -4.66368e+12 -3.73278e+12 -4.99104e+12 -2.73282e+12 -3.15763e+12 -3.28215e+12 -2.92472e+12 -2.8192e+12 -7.14997e+12 -4.31487e+12 -1.57036e+12 -3.17196e+12 -3.87012e+12 -2.30686e+12 -3.67432e+12 -3.19898e+12 -5.16433e+12 -4.3179e+12 -3.75865e+12 -7.60606e+12 -5.92042e+12 -3.99072e+12 -2.79468e+12 -2.83335e+12 -7.42691e+12 -6.72841e+12 -4.04719e+12 -2.80756e+12 -7.47358e+12 -7.13232e+12 -5.29444e+12 -5.99347e+12 -5.02076e+12 -5.49574e+12 -4.10094e+12 -5.3628e+12 -4.62188e+12 -5.86992e+12 -6.95101e+12 -6.04969e+12 -8.61339e+12 -7.67213e+12 -3.67855e+12 -7.31403e+12 -5.10129e+12 -6.41031e+12 -3.25115e+12 -3.54825e+12 -4.38115e+12 -3.65347e+12 -5.31428e+12 -6.69553e+12 -4.74165e+12 -7.05253e+12 -6.03028e+12 -5.55279e+12 -3.86562e+12 -4.52082e+12 -4.60835e+12 -8.92278e+12 -5.03916e+12 -4.67512e+12 -7.14766e+12 -2.08822e+12 -2.64199e+12 -7.3545e+12 -4.64429e+12 -3.44983e+12 -6.528e+12 -6.90337e+12 -7.32546e+12 -8.42858e+12 -4.29445e+12 -4.51453e+12 -8.79732e+12 -5.47626e+12 -5.15883e+12 -4.31502e+12 -3.07442e+12 -5.26003e+12 -4.12624e+12 -5.46905e+12 -5.23511e+12 -4.23753e+12 -3.27732e+12 -6.85876e+12 -3.42967e+12 -2.02169e+12 -5.80854e+12 -3.83346e+12 -4.43099e+12 -4.8886e+12 -5.53353e+12 -5.22991e+12 -3.72323e+12 -5.38016e+12 -5.06182e+12 -3.36803e+12 -5.48645e+12 -4.14187e+12 -3.43368e+12 -4.59635e+12 -7.0284e+12 -4.65517e+12 -7.13339e+12 -6.34098e+12 -6.84538e+12 -4.43611e+12 -3.51688e+12 -1.30242e+12 -3.84863e+12 -3.26151e+12 -4.05803e+12 -6.35918e+12 -4.47032e+12 -4.71815e+12 -4.19876e+12 -2.42702e+12 -3.72611e+12 -3.41829e+12 -4.40603e+12 -4.71954e+12 -2.00674e+12 -3.15535e+12 -1.70176e+12 -3.7823e+12 -4.05719e+12 -2.07929e+12 -2.52987e+12 -2.58998e+12 -2.04325e+12 -2.53396e+12 -3.7326e+12 -2.57506e+12 -3.45801e+12 -1.88908e+12 -3.90157e+12 -3.39409e+12 -2.58304e+12 -2.63289e+12 -3.43312e+12 -4.13757e+12 -6.33857e+12 -2.82328e+12 -3.90602e+12 -2.08969e+12 -3.16642e+12 -3.08782e+12 -1.21402e+12 -2.68147e+12 -2.51824e+12 -907192000000.0 -3.98803e+12 -4.48461e+12 -2.49035e+12 -4.52032e+12 -2.73449e+12 -3.47221e+12 -2.49665e+12 -1.67222e+12 -4.97165e+12 -4.69545e+12 -2.63872e+12 -3.7414e+12 -5.32926e+12 -3.04116e+12 -4.18376e+12 -2.05635e+12 -4.90466e+12 -6.66766e+12 -2.58808e+12 -2.18729e+12 -1.80485e+12 -2.34245e+12 -7.31153e+12 -7.04202e+12 -6.2707e+12 -2.04468e+12 -3.11545e+12 -3.7457e+12 -4.46957e+12 -3.51134e+12 -3.36386e+12 -5.29815e+12 -5.52601e+12 -4.7116e+12 -5.60145e+12 -2.16719e+12 -5.06761e+12 -3.95501e+12 -1.39052e+12 -4.4392e+12 -2.76035e+12 -2.89457e+12 -3.80696e+12 -5.15233e+12 -5.73702e+12 -4.69497e+12 -8.03179e+12 -4.65522e+12 -3.59936e+12 -5.5141e+12 -6.80996e+12 -5.72746e+12 -7.6982e+12 -5.85922e+12 -8.34365e+12 -5.21037e+12 -4.54914e+12 -4.49967e+12 -4.87538e+12 -7.76234e+12 -7.63799e+12 -7.38063e+12 -6.04699e+12 -4.98406e+12 -4.2051e+12 -3.38379e+12 -2.54099e+12 -4.91023e+12 -7.98037e+12 -4.04885e+12 -5.4544e+12 -4.66212e+12 -6.21809e+12 -3.92006e+12 -4.45107e+12 -5.51122e+12 -6.71944e+12 -9.16976e+12 -4.33323e+12 -3.91932e+12 -7.24425e+12 -4.267e+12 -1.54372e+12 -5.14601e+12 -3.33555e+12 -5.11527e+12 -2.09554e+12 -1.15569e+12 -4.74778e+12 -2.07547e+12 -5.19294e+12 -5.08211e+12 -5.39073e+12 -3.4546e+12 -5.64007e+12 -4.20888e+12 -2.8078e+12 -4.16632e+12 -5.23408e+12 -3.27607e+12 -4.50256e+12 -5.64067e+12 -7.0606e+12 -5.90109e+12 -7.1999e+12 -3.48958e+12 -2.84464e+12 -1.79238e+12 -4.29987e+12 -2.31595e+12 -3.93429e+12 -4.44334e+12 -4.75928e+12 -4.41687e+12 -2.97064e+12 -5.01212e+12 -4.59172e+12 -1.51771e+12 -4.31907e+12 -2.70993e+12 -2.67744e+12 -2.90714e+12 -3.58969e+12 -2.93354e+12 -4.06932e+12 -3.40714e+12 -1.74347e+12 -3.22864e+12 -1.5323e+12 -2.98018e+12 -3.62685e+12 -2.29098e+12 -2.0255e+12 -2.57828e+12 -2.194e+12 -3.98327e+12 -2.16775e+12 -1.05902e+12 -2.73981e+12 -2.05763e+12 -1.55598e+12 -1.61696e+12 -1.45069e+12 -3.63409e+12 -2.41424e+12 -2.9303e+12 -1.94786e+12 -2.42267e+12 -1.24417e+12 -2.66168e+12 -2.57691e+12 -2.44595e+12 -3.58768e+12 -2.52303e+12 -4.53492e+12 -3.46166e+12 -3.43841e+12 -2.76683e+12 -2.47408e+12 -4.0439e+12 -3.83847e+12 -3.52895e+12 -3.29634e+12 -3.15164e+12 -3.31312e+12 -2.66343e+12 -2.23135e+12 -2.57361e+12 -5.14578e+12 -3.14566e+12 -3.29099e+12 -2.31698e+12 -3.88253e+12 -3.00632e+12 -2.01549e+12 -3.71321e+12 -5.99748e+12 -3.35937e+12 -3.00966e+12 -2.50375e+12 -4.52723e+12 -3.15005e+12 -6.22674e+12 -6.44816e+12 -6.69595e+12 -4.72226e+12 -3.35514e+12 -4.62799e+12 -4.51137e+12 -4.83822e+12 -6.8253e+12 -6.92316e+12 -4.71798e+12 -4.52143e+12 -4.56245e+12 -4.17678e+12 -4.68843e+12 -5.3449e+12 -3.39453e+12 -3.69846e+12 -3.57782e+12 -5.49173e+12 -4.41111e+12 -6.37451e+12 -3.60581e+12 -4.37582e+12 -5.55136e+12 -4.07947e+12 -6.26983e+12 -7.57705e+12 -8.44762e+12 -5.91731e+12 -6.10343e+12 -3.86212e+12 -3.76198e+12 -6.55527e+12 -1.88968e+12 -4.58878e+12 -4.23847e+12 -5.00845e+12 -4.19655e+12 -4.54535e+12 -6.50451e+12 -5.91249e+12 -6.51754e+12 -5.49419e+12 -3.72959e+12 -4.48731e+12 -5.69188e+12 -3.19072e+12 -2.56399e+12 -5.52095e+12 -3.66719e+12 -4.36348e+12 -4.82764e+12 -3.78771e+12 -3.10454e+12 -5.37145e+12 -4.30283e+12 -3.52131e+12 -4.04179e+12 -1.72612e+12 -3.87532e+12 -3.75618e+12 -6.19342e+12 -4.27442e+12 -2.29643e+12 -5.20508e+12 -2.33274e+12 -5.1098e+12 -3.21333e+12 -5.96936e+12 -3.19833e+12 -4.91429e+12 -5.27068e+12 -3.23681e+12 -4.9582e+12 -5.04978e+12 -2.90035e+12 -4.06438e+12 -2.79608e+12 -3.83338e+12 -2.41527e+12 -2.97194e+12 -3.45984e+12 -3.07285e+12 -4.03593e+12 -2.61105e+12 -2.41916e+12 -4.40614e+12 -3.41971e+12 -2.43706e+12 -1.30421e+12 -3.12941e+12 -2.88552e+12 -2.27656e+12 -2.59595e+12 -3.21937e+12 -2.86152e+12 -4.44294e+12 -2.45819e+12 -1.38e+12 -2.77248e+12 -2.90771e+12 -2.09532e+12 -2.34449e+12 -1.88824e+12 -2.31868e+12 -2.44173e+12 -1.44166e+12 -2.5558e+12 -2.90507e+12 -2.0694e+12 -1.9923e+12 -2.77651e+12 -3.08602e+12 -3.29939e+12 -2.94178e+12 -1.69944e+12 -2.47795e+12 -1.99285e+12 -2.32629e+12 -2.84263e+12 -2.79551e+12 -4.6638e+12 -3.26117e+12 -5.34635e+12 -3.1922e+12 -2.33837e+12 -3.54263e+12 -3.79103e+12 -3.0763e+12 -2.23745e+12 -4.75522e+12 -4.12379e+12 -3.58341e+12 -3.15614e+12 -4.90254e+12 -3.42463e+12 -1.70006e+12 -2.30301e+12 -5.59919e+12 -4.1035e+12 -5.45819e+12 -1.83041e+12 -1.51084e+12 -3.25439e+12 -2.58842e+12 -4.99622e+12 -4.82406e+12 -2.89735e+12 -5.55619e+12 -5.70111e+12 -5.01829e+12 -3.48751e+12 -7.29714e+12 -4.35835e+12 -3.13557e+12 -2.89678e+12 -3.11154e+12 -4.65354e+12 -4.53665e+12 -5.52695e+12 -4.62484e+12 -3.47415e+12 -2.66853e+12 -4.91594e+12 -3.95856e+12 -2.54099e+12 -3.77694e+12 -6.04183e+12 -6.67292e+12 -3.67974e+12 -2.91125e+12 -5.15966e+12 -3.35846e+12 -3.12976e+12 -3.01518e+12 -8.81783e+12 -3.88697e+12 -5.03778e+12 -4.78548e+12 -3.10982e+12 -4.11814e+12 -5.21041e+12 -7.51818e+12 -3.6196e+12 -3.42189e+12 -3.9496e+12 -3.24951e+12 -7.73044e+12 -3.0788e+12 -5.6653e+12 -3.06124e+12 -3.11032e+12 -3.76694e+12 -4.21844e+12 -3.25928e+12 -3.25771e+12 -3.68537e+12 -3.27778e+12 -3.37157e+12 -2.46174e+12 -5.81253e+12 -2.70855e+12 -1.78348e+12 -2.61047e+12 -2.43078e+12 -3.62487e+12 -2.22e+12 -3.13447e+12 -896298000000.0 -2.16583e+12 -2.42835e+12 -2.43165e+12 -3.07134e+12 -2.0896e+12 -2.60627e+12 -2.58926e+12 -2.53851e+12 -1.31487e+12 -2.44353e+12 -1.48764e+12 -1.16352e+12 -3.15576e+12 -2.24068e+12 -1.445e+12 -3.29361e+12 -2.0757e+12 -1.38744e+12 -3.06243e+12 -3.11613e+12 -2.66888e+12 -2.45384e+12 -1.21059e+12 -2.35944e+12 -1.4772e+12 -3.39593e+12 -1.738e+12 -2.37641e+12 -1.98772e+12 -1.87689e+12 -3.26307e+12 -1.37151e+12 -2.64373e+12 -2.73094e+12 -1.13824e+12 -1.41933e+12 -1.58262e+12 -2.79451e+12 -2.50072e+12 -2.12637e+12 -2.05418e+12 -1.15203e+12 -3.52479e+12 -3.20964e+12 -2.66531e+12 -2.24481e+12 -3.05472e+12 -3.93125e+12 -2.84914e+12 -4.21263e+12 -1.98283e+12 -4.22768e+12 -3.41638e+12 -3.03486e+12 -1.99616e+12 -2.78576e+12 -2.05849e+12 -2.61197e+12 -2.11199e+12 -1.30824e+12 -2.4529e+12 -3.61429e+12 -4.66935e+12 -4.26329e+12 -1.5468e+12 -2.44269e+12 -5.77769e+12 -3.53635e+12 -818095000000.0 -2.15245e+12 -4.5795e+12 -4.3185e+12 -1.81195e+12 -5.56898e+12 -4.14093e+12 -2.06275e+12 -6.06954e+12 -4.15385e+12 -2.61934e+12 -3.33711e+12 -3.26958e+12 -4.11274e+12 -5.44197e+12 -6.49813e+12 -3.2713e+12 -5.24665e+12 -5.03949e+12 -2.24427e+12 -5.87853e+12 -7.14297e+12 -3.51762e+12 -4.92927e+12 -4.23277e+12 -3.83691e+12 -2.80653e+12 -2.99143e+12 -2.83322e+12 -5.1085e+12 -5.83033e+12 -3.9716e+12 -273614000000.0 -5.26276e+12 -5.50626e+12 -2.76455e+12 -3.56703e+12 -5.14641e+12 -1.70256e+12 -4.22856e+12 -3.96672e+12 -2.0685e+12 -3.07311e+12 -3.97082e+12 -2.68956e+12 -3.1341e+12 -4.03366e+12 -2.06703e+12 -2.15904e+12 -2.12943e+12 -1.28616e+12 -3.03588e+12 -3.96405e+12 -1.38604e+12 -2.08753e+12 -2.5704e+12 -3.52464e+12 -1.37015e+12 -2.07773e+12 -1.3024e+12 -2.24687e+12 -2.7967e+12 -2.64681e+12 -1.34396e+12 -1.27239e+12 -1.92994e+12 -1.00269e+12 -1.25061e+12 -2.60403e+12 -2.68206e+12 -1.83157e+12 -1.19365e+12 -2.74336e+12 -1.68493e+12 -2.58977e+12 -2.40978e+12 -975089000000.0 -952600000000.0 -29934700000.0 -2.20556e+12 -2.21151e+12 -1.59189e+12 -1.17184e+12 -1.95212e+12 -705498000000.0 -2.36681e+12 -784329000000.0 -1.03172e+12 -2.18921e+12 -2.17722e+12 -2.10446e+12 -1.19377e+12 -1.46527e+12 -2.22157e+12 -1.91256e+12 -3.32523e+12 -2.28689e+12 -1.47771e+12 -2.03626e+12 -3.34931e+12 -2.7977e+12 -2.66068e+12 -755140000000.0 -2.70596e+12 -1.70563e+12 -4.29158e+12 -4.85768e+12 -3.11674e+12 -1.78335e+12 -1.36406e+12 -3.44102e+12 -2.25058e+12 -1.50755e+12 -3.0215e+12 -2.12716e+12 -3.02048e+12 -3.64926e+12 -2.92169e+12 -1.34354e+12 -4.04864e+12 -3.0689e+12 -3.84235e+12 -3.51433e+12 -2.81406e+12 -2.64019e+12 -5.45814e+12 -3.97902e+12 -3.211e+12 -1.30668e+12 -2.95587e+12 -1.96784e+12 -2.69561e+12 -1.29697e+12 -3.34037e+12 -4.69622e+12 -3.22474e+12 -4.07284e+12 -2.83043e+12 -5.85768e+12 -5.32234e+12 -4.54373e+12 -2.18745e+12 -4.3779e+12 -2.40198e+12 -1.72361e+12 -4.68243e+12 -3.06508e+12 -1.43811e+12 -1.6838e+12 -4.68263e+12 -3.9274e+12 -3.71121e+12 -4.95142e+12 -2.05446e+12 -3.55299e+12 -2.56849e+12 -5.39283e+12 -2.9761e+12 -4.45791e+12 -4.72823e+12 -4.05157e+12 -2.97504e+12 -2.46534e+12 -3.11444e+12 -4.51696e+12 -2.26634e+12 -1.7764e+12 -4.47283e+12 -1.53456e+12 -2.47712e+12 -1.5933e+12 -2.9715e+12 -1.81207e+12 -1.70288e+12 -2.54589e+12 -2.1026e+12 -2.27158e+12 -2.50733e+12 -1.80083e+12 -1.46171e+12 -2.77062e+12 -2.08699e+12 -1.45783e+12 -2.30975e+12 -1.70893e+12 -1.82253e+12 -793885000000.0 -1.32134e+12 -1.51292e+12 -1.88238e+12 -677815000000.0 -1.16726e+12 -1.7864e+12 -1.30703e+12 -1.16614e+12 -1.35698e+12 -754857000000.0 -1.25349e+12 -1.45513e+12 -1.0886e+12 -33391100000.0 -399863000000.0 -1.62277e+12 -762651000000.0 -1.81861e+12 -732816000000.0 -900146000000.0 -1.15428e+12 -803723000000.0 -1.52171e+12 -518386000000.0 -1.49621e+12 -418142000000.0 -637494000000.0 -1.08913e+12 -1.22733e+12 -647124000000.0 -1.73762e+12 -923909000000.0 -1.66438e+12 -1.26417e+12 -1.06489e+12 -1.20872e+12 -1.52782e+12 -1.01216e+12 -1.69556e+12 -1.2382e+12 -2.13465e+12 -1.54154e+12 -2.95922e+12 -2.77811e+12 -2.44309e+12 -1.41131e+12 -2.78017e+12 -2.07734e+12 -2.50009e+12 -1.22014e+12 -1.92267e+12 -1.94245e+12 -2.65723e+12 -1.42505e+12 -1.98754e+12 -2.16299e+12 -1.91381e+12 -4.46672e+12 -1.0983e+12 -2.82671e+12 -279673000000.0 -3.94571e+12 -3.41907e+12 -3.13462e+12 -3.25372e+12 -2.87972e+12 -2.08551e+12 -3.23536e+12 -1.6557e+12 -3.67853e+12 -2.7594e+12 -4.4869e+12 -1.12185e+12 -2.89947e+12 -3.59992e+12 -2.88522e+12 -3.83056e+12 -4.56231e+12 -4.09942e+12 -1.85914e+12 -3.20946e+12 -3.61688e+12 -2.18732e+12 -1.62721e+12 -4.38162e+12 -3.05878e+12 -2.46213e+12 -2.24792e+12 -2.8459e+12 -1.54561e+12 -1.82142e+12 -1.91448e+12 -2.31539e+12 -1.2023e+12 -1.64063e+12 -2.77515e+12 -2.4322e+12 -1.6271e+12 -1.33439e+12 -2.95423e+12 -2.38883e+12 -2.25472e+12 -1.88507e+12 -1.70684e+12 -2.86112e+12 -2.4507e+12 -1.59208e+12 -2.13042e+12 -2.02684e+12 -1.0328e+12 -2.35423e+12 -2.74998e+12 -2.10576e+12 -2.4266e+12 -1.79351e+12 -1.4386e+12 -2.13222e+12 -1.70539e+12 -3.5846e+12 -1.34653e+12 -2.05534e+12 -2.7407e+12 -2.22967e+12 -985618000000.0 -2.34594e+12 -1.97699e+12 -2.12827e+12 -2.30914e+12 -357102000000.0 -1.94806e+12 -1.41613e+12 -1.09054e+12 -2.33295e+12 -1.95614e+12 -783640000000.0 -1.19483e+12 -1.99474e+12 -948849000000.0 -1.01274e+12 -713844000000.0 -680371000000.0 -643258000000.0 -813491000000.0 -764890000000.0 -370573000000.0 -505775000000.0 -746551000000.0 -828172000000.0 -518046000000.0 -385022000000.0 -677553000000.0 -795819000000.0 -1.08699e+12 -906195000000.0 -800622000000.0 -864277000000.0 -138775000000.0 -1.24424e+12 -2.18399e+12 -788752000000.0 -1.83357e+12 -578821000000.0 -1.18055e+12 -1.89558e+12 -608483000000.0 -803194000000.0 -1.45971e+12 -1.61052e+12 -669754000000.0 -966560000000.0 -829930000000.0 -914833000000.0 -1.63859e+12 -2.32519e+12 -948439000000.0 -1.52557e+12 -1.25183e+12 -353459000000.0 -1.21749e+12 -1.21008e+12 -2.06812e+12 -1.5122e+12 -1.10814e+12 -1.21251e+12 -1.04261e+12 -2.48457e+12 -3.42007e+12 -1.66715e+12 -1.39259e+12 -2.495e+12 -3.14843e+12 -2.51568e+12 -1.6753e+12 -1.40459e+12 -1.60496e+12 -1.75587e+12 -3.24681e+12 -1.86137e+12 -1.03999e+12 -2.11781e+12 -1.96153e+12 -2.78439e+12 -2.41152e+12 -2.3408e+12 -704038000000.0 -4.44926e+12 -1.37808e+12 -1.45364e+12 -2.94587e+12 -1.94498e+12 -2.36814e+12 -5.89501e+12 -3.68289e+12 -1.39687e+12 -2.01717e+12 -1.68666e+12 -2.02128e+12 -1.5261e+12 -1.68302e+12 -771725000000.0 -1.11243e+12 -3.68236e+12 -245505000000.0 -1.73708e+12 -2.43071e+12 -712542000000.0 -1.43874e+12 -1.79013e+12 -1.80144e+12 -1.5231e+12 -1.63977e+12 -1.14247e+12 -3.69926e+12 -915469000000.0 -1.63892e+12 -310617000000.0 -1.06006e+12 -2.37644e+12 -1.28274e+12 -1.04353e+12 -1.38462e+12 -1.85728e+12 -1.81185e+12 -961309000000.0 -1.29653e+12 -1.44866e+12 -1.78553e+12 -2.54407e+12 -670221000000.0 -1.15305e+12 -595817000000.0 -1.25627e+12 -1.79725e+12 -493590000000.0 -712699000000.0 -971883000000.0 -431669000000.0 -577904000000.0 -1.31142e+12 -385395000000.0 -1.00467e+12 -789807000000.0 -264508000000.0 -259691000000.0 -228981000000.0 -244854000000.0 -261843000000.0 -293103000000.0 -181029000000.0 -227644000000.0 -969370000000.0 -290632000000.0 -318953000000.0 -698234000000.0 -634675000000.0 -222350000000.0 -602376000000.0 -274068000000.0 -659279000000.0 -237911000000.0 -282023000000.0 -539394000000.0 -843800000000.0 -585081000000.0 -708388000000.0 -1.11945e+12 -716859000000.0 -1.03365e+12 -897067000000.0 -342914000000.0 -1.6165e+12 -865399000000.0 -746624000000.0 -966148000000.0 -1.23054e+12 -2.03627e+12 -1.38512e+12 -884223000000.0 -1.78014e+12 -1.192e+12 -1.47623e+12 -1.06998e+12 -1.5012e+12 -1.26372e+12 -3.06484e+12 -1.44941e+12 -2.39143e+12 -2.3349e+12 -2.34722e+12 -1.67832e+12 -2.06825e+12 -1.29075e+12 -3.39161e+12 -3.02573e+12 -1.13862e+12 -2.59165e+12 -1.89757e+12 -2.22835e+12 -2.20397e+12 -2.02637e+12 -2.67938e+12 -812394000000.0 -1.50227e+12 -1.3668e+12 -2.30325e+12 -1.3736e+12 -2.27273e+12 -1.91266e+12 -1.43086e+12 -2.25763e+12 -1.7474e+12 -820156000000.0 -1.70662e+12 -725373000000.0 -756890000000.0 -2.83747e+12 -657885000000.0 -1.24334e+12 -1.95431e+12 -840447000000.0 -1.11407e+12 -825580000000.0 -1.89075e+12 -1.00062e+12 -1.04148e+12 -916835000000.0 -1.01935e+12 -1.4201e+12 -704307000000.0 -1.29576e+12 -895543000000.0 -1.03465e+12 -528997000000.0 -496548000000.0 -1.54761e+12 -517018000000.0 -595800000000.0 -821780000000.0 -2.49576e+12 -484996000000.0 -1.25228e+12 -416015000000.0 -398836000000.0 -523016000000.0 -706771000000.0 -288071000000.0 -308806000000.0 -505993000000.0 -227234000000.0 -462500000000.0 -195890000000.0 -182374000000.0 -345781000000.0 -131675000000.0 -197056000000.0 -209815000000.0 -114071000000.0 -133606000000.0 -426328000000.0 -187480000000.0 -256335000000.0 -293772000000.0 -511801000000.0 -166399000000.0 -1.0508e+12 -391973000000.0 -809803000000.0 -639786000000.0 -600537000000.0 -386867000000.0 -1.17249e+12 -1.23589e+12 -946672000000.0 -1.58584e+12 -638102000000.0 -1.24747e+12 -957776000000.0 -224620000000.0 -1.08393e+12 -1.18607e+12 -1.36922e+12 -1.01255e+12 -1.40545e+12 -1.04637e+12 -1.53312e+12 -1.09614e+12 -1.31319e+12 -2.73113e+12 -1.94094e+12 -1.5832e+12 -1.98376e+12 -1.58581e+12 -1.2932e+12 -2.24846e+12 -2.26317e+12 -562671000000.0 -1.82012e+12 -1.96896e+12 -1.96898e+12 -1.63958e+12 -1.6979e+12 -1.247e+12 -1.56579e+12 -1.62938e+12 -919042000000.0 -1.39409e+12 -637294000000.0 -1.78929e+12 -506506000000.0 -970940000000.0 -1.06899e+12 -2.39376e+12 -929761000000.0 -1.00217e+12 -952723000000.0 -1.26238e+12 -2.56043e+12 -1.48317e+12 -830627000000.0 -667326000000.0 -508798000000.0 -639444000000.0 -847578000000.0 -837903000000.0 -661024000000.0 -792344000000.0 -239180000000.0 -567497000000.0 -350204000000.0 -1.09438e+12 -443567000000.0 -845305000000.0 -290391000000.0 -385601000000.0 -259433000000.0 -799619000000.0 -89088900000.0 -249721000000.0 -354944000000.0 -559973000000.0 -77188900000.0 -69681200000.0 -423875000000.0 -446085000000.0 -268236000000.0 -117228000000.0 -236107000000.0 -238034000000.0 -363304000000.0 -168203000000.0 -86350800000.0 -268543000000.0 -118616000000.0 -128146000000.0 -216878000000.0 -83284500000.0 -83306700000.0 -929154000000.0 -392323000000.0 -742750000000.0 -249848000000.0 -983046000000.0 -331362000000.0 -603220000000.0 -359365000000.0 -359070000000.0 -875694000000.0 -434397000000.0 -2.07999e+12 -510606000000.0 -798854000000.0 -1.01748e+12 -1.1351e+12 -822727000000.0 -618646000000.0 -1.76301e+12 -899820000000.0 -1.24288e+12 -956687000000.0 -683810000000.0 -920756000000.0 -1.04868e+12 -354598000000.0 -893481000000.0 -49390500000.0 -734385000000.0 -910832000000.0 -274082000000.0 -373739000000.0 -260014000000.0 -753507000000.0 -160560000000.0 -422936000000.0 -76481500000.0 -521983000000.0 -189233000000.0 -268771000000.0 -239488000000.0 -160350000000.0 -51923400000.0 -287706000000.0 -194143000000.0 -229436000000.0 -257036000000.0 -264093000000.0 -148063000000.0 -240342000000.0 -288646000000.0 -551556000000.0 -228413000000.0 -240770000000.0 -236994000000.0 -182126000000.0 -420942000000.0 -128749000000.0 -343035000000.0 -828681000000.0 -1.20548e+12 -649845000000.0 -156005000000.0 -808668000000.0 -613770000000.0 -128871000000.0 -146812000000.0 -62529500000.0 -691019000000.0 -475867000000.0 -192140000000.0 -142893000000.0 -304166000000.0 -250675000000.0 -111602000000.0 -154675000000.0 -97729600000.0 